
#######################################################################
#
#                 Cambridge Crystallographic Data Centre
#                                CCDC
#
#######################################################################
#
# If this CIF has been generated from an entry in the Cambridge
# Structural Database, then it will include bibliographic, chemical,
# crystal, experimental, refinement or atomic coordinate data resulting
# from the CCDC's data processing and validation procedures.
#
#######################################################################

data_CSD_CIF_VEXFEJ
_audit_creation_date 1991-06-09
_audit_creation_method CSD-ConQuest-V1
_database_code_CSD VEXFEJ
_database_code_depnum_ccdc_archive 'CCDC 1282878'
_chemical_formula_sum 'C16 H9 N3 O9'
_chemical_formula_moiety
;
C16 H9 N3 O9
;
_journal_coden_Cambridge 15
_journal_volume 68
_journal_year 1990
_journal_page_first 908
_journal_name_full 'Can.J.Chem. '
loop_
_publ_author_name
"D.Gravel"
"S.Gauthier"
"F.Brisse"
"S.Raymond"
"M.D'Amboise"
"P.Messier"
"B.Zelent"
"G.Durocher"
_chemical_name_systematic
;
Ethyl 2,5,7-trinitrofluorenone-4-carboxylate
;
_chemical_melting_point 430.65
_cell_volume   1610.992
_exptl_crystal_colour 'yellow-orange'
_exptl_crystal_density_diffrn 1.597
_exptl_special_details
;
Melting point range 430.65-432.15K

;
_diffrn_ambient_temperature ?
_diffrn_special_details
;
The study was carried out at room temperature,in the range 283-303K

;
#These two values have been output from a single CSD field.
_refine_ls_R_factor_gt 0.047
_refine_ls_wR_factor_gt 0.047
_symmetry_cell_setting triclinic
_symmetry_space_group_name_H-M 'P -1'
_symmetry_Int_Tables_number 2
loop_
_symmetry_equiv_pos_site_id
_symmetry_equiv_pos_as_xyz
1 x,y,z
2 -x,-y,-z
_cell_length_a 11.789(2)
_cell_length_b 12.308(1)
_cell_length_c 12.336(2)
_cell_angle_alpha 84.59(1)
_cell_angle_beta 69.11(1)
_cell_angle_gamma 74.44(1)
_cell_formula_units_Z 4
loop_
_atom_type_symbol
_atom_type_radius_bond
C 0.68
H 0.23
N 0.68
O 0.68
loop_
_atom_site_label
_atom_site_type_symbol
_atom_site_fract_x
_atom_site_fract_y
_atom_site_fract_z
O1 O 0.19616(22) 0.38423(19) -0.12683(17)
O2 O 0.21884(19) 0.67578(17) 0.23680(17)
O3 O 0.06956(21) 0.83751(17) 0.24787(18)
O4 O 0.02865(26) 0.81412(21) -0.23786(20)
O5 O 0.00150(39) 0.93773(22) -0.11636(26)
O6 O -0.01465(19) 0.60939(17) 0.35343(17)
O7 O 0.12027(20) 0.52540(18) 0.43584(16)
O8 O 0.29863(28) 0.06799(19) 0.17285(22)
O9 O 0.23016(24) 0.11880(19) 0.35214(20)
N1 N 0.02911(29) 0.84199(23) -0.14635(23)
N2 N 0.07804(23) 0.53574(20) 0.35681(19)
N3 N 0.25145(27) 0.13906(21) 0.24928(23)
C1 C 0.09975(29) 0.64211(27) -0.10248(24)
C2 C 0.06427(30) 0.75244(26) -0.06734(25)
C3 C 0.06527(30) 0.78365(25) 0.03672(26)
C4 C 0.09965(27) 0.70109(24) 0.11276(23)
C5 C 0.13704(27) 0.45196(24) 0.26325(23)
C6 C 0.17130(29) 0.34136(25) 0.29617(24)
C7 C 0.21693(29) 0.25761(25) 0.21355(26)
C8 C 0.22453(30) 0.28122(26) 0.09981(26)
C9 C 0.17455(28) 0.43814(27) -0.04137(24)
C10 C 0.12584(27) 0.56188(24) -0.02379(23)
C11 C 0.12072(26) 0.58863(24) 0.08606(23)
C12 C 0.14831(26) 0.48087(24) 0.14948(23)
C13 C 0.18955(28) 0.39187(25) 0.07081(24)
C14 C 0.13460(28) 0.73525(25) 0.20826(24)
C15 C 0.10901(39) 0.88674(29) 0.32825(29)
C16 C 0.05983(45) 0.84430(36) 0.44751(33)
H1 H 0.1076(25) 0.6226(22) -0.1727(22)
H2 H 0.0492(22) 0.8573(20) 0.0552(20)
H3 H 0.1633(22) 0.3219(20) 0.374(2)
H4 H 0.2556(23) 0.2231(20) 0.049(2)
H5 H 0.07670 0.97060 0.32830
H6 H 0.20280 0.86640 0.30160
H7 H 0.09360 0.75620 0.44830
H8 H -0.03860 0.86560 0.47640
H9 H 0.08950 0.88080 0.50290
O10 O 0.25948(26) 0.56429(21) 0.63195(19)
O11 O 0.65014(20) 0.25669(18) 0.21847(19)
O12 O 0.54772(23) 0.12805(19) 0.21337(18)
O13 O 0.21549(27) 0.14334(24) 0.73488(21)
O14 O 0.31611(28) 0.01891(22) 0.59964(22)
O15 O 0.4428(2) 0.37750(18) 0.14165(17)
O16 O 0.60179(20) 0.44452(19) 0.04335(17)
O17 O 0.45079(28) 0.87238(20) 0.34197(24)
O18 O 0.53871(27) 0.82594(21) 0.16077(24)
N4 N 0.28198(27) 0.11529(24) 0.63620(23)
N5 N 0.51438(23) 0.43690(21) 0.13139(20)
N6 N 0.48619(27) 0.80647(23) 0.26287(26)
C17 C 0.29239(29) 0.31254(28) 0.59722(25)
C18 C 0.32873(30) 0.20356(27) 0.55661(25)
C19 C 0.41095(30) 0.17295(27) 0.44619(26)
C20 C 0.45708(28) 0.25373(26) 0.36848(24)
C21 C 0.48731(27) 0.50829(25) 0.23143(24)
C22 C 0.50311(29) 0.61575(27) 0.20466(27)
C23 C 0.46379(30) 0.69248(26) 0.29257(29)
C24 C 0.40122(31) 0.66795(27) 0.40588(28)
C25 C 0.31788(31) 0.51350(28) 0.54197(26)
C26 C 0.33562(29) 0.39223(26) 0.51959(24)
C27 C 0.41361(27) 0.36677(25) 0.40378(24)
C28 C 0.43586(27) 0.47457(25) 0.34510(24)
C29 C 0.38826(30) 0.55920(27) 0.42971(26)
C30 C 0.56353(30) 0.21533(26) 0.25733(26)
C31 C 0.65656(45) 0.07045(35) 0.11117(32)
C32 C 0.63934(46) 0.12937(39) 0.01121(37)
H10 H 0.2387(26) 0.3339(22) 0.6798(23)
H11 H 0.4385(23) 0.0951(20) 0.4226(20)
H12 H 0.5383(23) 0.6344(20) 0.1282(20)
H13 H 0.3662(27) 0.7298(24) 0.4654(24)
H14 H 0.65660 -0.01030 0.10730
H15 H 0.73750 0.07480 0.11740
H16 H 0.63860 0.21420 0.01670
H17 H 0.55370 0.12490 0.00620
H18 H 0.71300 0.09270 -0.06340
#END
