
#######################################################################
#
#                 Cambridge Crystallographic Data Centre
#                                CCDC
#
#######################################################################
#
# If this CIF has been generated from an entry in the Cambridge
# Structural Database, then it will include bibliographic, chemical,
# crystal, experimental, refinement or atomic coordinate data resulting
# from the CCDC's data processing and validation procedures.
#
#######################################################################

data_CSD_CIF_VEXHIP
_audit_creation_date 1991-06-10
_audit_creation_method CSD-ConQuest-V1
_database_code_CSD VEXHIP
_chemical_formula_sum 'C21 H26 N4 O5'
_chemical_formula_moiety
;
C21 H26 N4 O5
;
_journal_coden_Cambridge 16
_journal_volume 46
_journal_year 1990
_journal_page_first 545
_journal_name_full 'Tetrahedron '
loop_
_publ_author_name
"D.S.Middleton"
"N.S.Simpkins"
"N.K.Terrett"
_chemical_name_systematic
;
(5SR,6RS,11RS)-11-Methyl-4-methylene-1-oxadispiro(4.0.4.4)tetradecan-7-one 
2,4-dinitrophenylhydrazone
;
_chemical_melting_point 389.15
_cell_volume   1011.025
_exptl_crystal_density_diffrn 1.36
_exptl_special_details
;
Melting point range 389.15-391.15K

;
_diffrn_ambient_temperature ?
_diffrn_special_details
;
The study was carried out at room temperature,in the range 283-303K

;
#These two values have been output from a single CSD field.
_refine_ls_R_factor_gt 0.0375
_refine_ls_wR_factor_gt 0.0375
_symmetry_cell_setting triclinic
_symmetry_space_group_name_H-M 'P -1'
_symmetry_Int_Tables_number 2
loop_
_symmetry_equiv_pos_site_id
_symmetry_equiv_pos_as_xyz
1 x,y,z
2 -x,-y,-z
_cell_length_a 8.186(2)
_cell_length_b 9.364(1)
_cell_length_c 13.357(2)
_cell_angle_alpha 95.29(1)
_cell_angle_beta 91.56(2)
_cell_angle_gamma 97.05(2)
_cell_formula_units_Z 2
loop_
_atom_type_symbol
_atom_type_radius_bond
C 0.68
N 0.68
O 0.68
loop_
_atom_site_label
_atom_site_type_symbol
_atom_site_fract_x
_atom_site_fract_y
_atom_site_fract_z
O1 O 0.3542(2) 0.8504(2) 0.7882(1)
C1 C 0.2929(4) 0.9860(3) 0.8112(3)
C2 C 0.1667(4) 0.9565(3) 0.8899(3)
C3 C 0.2401(3) 0.8491(3) 0.9471(2)
C4 C 0.3494(3) 0.7713(2) 0.8761(2)
C5 C 0.5258(3) 0.7843(3) 0.9213(2)
C6 C 0.6435(3) 0.7344(3) 0.8446(2)
C7 C 0.5859(4) 0.5878(4) 0.7903(3)
C8 C 0.4038(3) 0.5573(3) 0.7621(2)
C9 C 0.2842(3) 0.6115(2) 0.8379(2)
C10 C 0.2755(4) 0.5102(3) 0.9239(2)
C11 C 0.1587(4) 0.3767(3) 0.8833(3)
C12 C 0.0375(4) 0.4304(3) 0.8115(2)
C13 C 0.0990(3) 0.5906(3) 0.8021(2)
C14 C 0.2282(4) 0.8373(3) 1.0452(2)
C15 C 0.0485(4) 0.6410(4) 0.7024(2)
N1 N 0.3426(2) 0.4759(2) 0.6850(2)
N2 N 0.4534(3) 0.4159(2) 0.6222(2)
C16 C 0.3973(3) 0.3096(3) 0.5494(2)
C17 C 0.5061(3) 0.2327(3) 0.4912(2)
C18 C 0.4475(3) 0.1200(3) 0.4197(2)
C19 C 0.2820(3) 0.0846(3) 0.4038(2)
C20 C 0.1704(4) 0.1587(3) 0.4578(2)
C21 C 0.2271(3) 0.2681(3) 0.5293(2)
N3 N 0.6837(3) 0.2623(3) 0.5069(2)
O2 O 0.7682(2) 0.1737(2) 0.4698(1)
O3 O 0.7438(2) 0.3737(2) 0.5568(2)
N4 N 0.2217(4) -0.0350(3) 0.3291(2)
O4 O 0.3213(3) -0.1119(2) 0.2935(2)
O5 O 0.0748(3) -0.0536(3) 0.3055(2)
#END
