
#######################################################################
#
#                 Cambridge Crystallographic Data Centre
#                                CCDC
#
#######################################################################
#
# If this CIF has been generated from an entry in the Cambridge
# Structural Database, then it will include bibliographic, chemical,
# crystal, experimental, refinement or atomic coordinate data resulting
# from the CCDC's data processing and validation procedures.
#
#######################################################################

data_CSD_CIF_VEXMOA02
_audit_creation_date 2016-06-23
_audit_creation_method CSD-ConQuest-V1
_database_code_CSD VEXMOA02
_database_code_depnum_ccdc_archive 'CCDC 898727'
_chemical_formula_sum 'C12 H10 N2 O1'
_chemical_formula_moiety
;
C12 H10 N2 O1
;
_journal_coden_Cambridge 2034
_journal_volume 91
_journal_year 2013
_journal_page_first 86
_journal_name_full 'Ecotoxicol.Environment.Safety '
loop_
_publ_author_name
"B.Ivanova"
"M.Spiteller"
_chemical_name_systematic
;
(E)-Phenyl 2-pyridyl ketone oxime
;
_cell_volume   2049.992
_exptl_crystal_colour 'colorless'
_exptl_crystal_density_diffrn 1.285
_exptl_special_details
;
Pbca polymorph

;
_exptl_crystal_description 'plate'
_diffrn_ambient_temperature 293
#These two values have been output from a single CSD field.
_refine_ls_R_factor_gt 0.1149
_refine_ls_wR_factor_gt 0.1149
_symmetry_cell_setting orthorhombic
_symmetry_space_group_name_H-M 'P b c a'
_symmetry_Int_Tables_number 61
loop_
_symmetry_equiv_pos_site_id
_symmetry_equiv_pos_as_xyz
1 x,y,z
2 1/2-x,-y,1/2+z
3 1/2+x,1/2-y,-z
4 -x,1/2+y,1/2-z
5 -x,-y,-z
6 -1/2+x,y,-1/2-z
7 -1/2-x,-1/2+y,z
8 x,-1/2-y,-1/2+z
_cell_length_a 10.5942(10)
_cell_length_b 9.8494(13)
_cell_length_c 19.646(2)
_cell_angle_alpha 90
_cell_angle_beta 90
_cell_angle_gamma 90
_cell_formula_units_Z 8
loop_
_atom_type_symbol
_atom_type_radius_bond
C 0.68
H 0.23
N 0.68
O 0.68
loop_
_atom_site_label
_atom_site_type_symbol
_atom_site_fract_x
_atom_site_fract_y
_atom_site_fract_z
O1 O -0.2442(2) 0.5155(3) 0.32372(16)
H1 H -0.18220 0.47300 0.31060
N1 N -0.3216(3) 0.4304(3) 0.36132(15)
C1 C -0.4612(3) 0.8439(4) 0.32432(16)
H2 H -0.41140 0.92140 0.32700
C2 C -0.5005(5) 0.2394(5) 0.4009(2)
H3 H -0.43860 0.20570 0.37190
C3 C -0.5725(5) 0.1506(6) 0.4397(3)
H4 H -0.55830 0.05760 0.43700
C4 C -0.6659(5) 0.2011(6) 0.4826(2)
H5 H -0.71390 0.14210 0.50900
C5 C -0.6528(5) 0.7382(5) 0.2944(2)
H6 H -0.73350 0.74530 0.27610
C6 C -0.6862(4) 0.3359(6) 0.4857(2)
H7 H -0.74920 0.36910 0.51410
C7 C -0.5772(4) 0.8512(5) 0.2997(2)
H8 H -0.60840 0.93490 0.28570
C8 C -0.6083(4) 0.6152(5) 0.3162(2)
H9 H -0.65910 0.53850 0.31330
C9 C -0.6149(4) 0.4265(5) 0.4474(2)
H10 H -0.63020 0.51930 0.45000
C10 C -0.5207(4) 0.3767(4) 0.40513(18)
C11 C -0.4361(3) 0.4743(4) 0.36781(17)
C12 C -0.4869(3) 0.6054(4) 0.34281(18)
N2 N -0.4160(4) 0.7242(4) 0.3453(2)
#END
