
#######################################################################
#
#                 Cambridge Crystallographic Data Centre
#                                CCDC
#
#######################################################################
#
# If this CIF has been generated from an entry in the Cambridge
# Structural Database, then it will include bibliographic, chemical,
# crystal, experimental, refinement or atomic coordinate data resulting
# from the CCDC's data processing and validation procedures.
#
#######################################################################

data_CSD_CIF_VEXMOA
_audit_creation_date 1991-06-17
_audit_creation_method CSD-ConQuest-V1
_database_code_CSD VEXMOA
_database_code_depnum_ccdc_archive 'CCDC 1282915'
_chemical_formula_sum 'C12 H10 N2 O1'
_chemical_formula_moiety
;
C12 H10 N2 O1
;
_journal_coeditor_code "IUCr AS0325"
_journal_coden_Cambridge 591
_journal_volume 46
_journal_year 1990
_journal_page_first 2241
_journal_name_full 'Acta Crystallogr.,Sect.C:Cryst.Struct.Commun. '
loop_
_publ_author_name
"T.Taga"
"A.Uchiyama"
"K.Machida"
"T.Miyasaka"
_chemical_name_systematic
;
(E)-Phenyl 2-pyridyl ketone oxime
;
_cell_volume   2009.729
_exptl_crystal_colour 'colorless'
_exptl_crystal_density_diffrn 1.31
_exptl_special_details
;
C2/c polymorph

;
_diffrn_ambient_temperature ?
_diffrn_special_details
;
The study was carried out at room temperature,in the range 283-303K

;
#These two values have been output from a single CSD field.
_refine_ls_R_factor_gt 0.045
_refine_ls_wR_factor_gt 0.045
_symmetry_cell_setting monoclinic
_symmetry_space_group_name_H-M 'C 2/c'
_symmetry_Int_Tables_number 15
loop_
_symmetry_equiv_pos_site_id
_symmetry_equiv_pos_as_xyz
1 x,y,z
2 1/2+x,1/2+y,z
3 -x,y,1/2-z
4 1/2-x,1/2+y,1/2-z
5 -x,-y,-z
6 -1/2-x,-1/2-y,-z
7 x,-y,-1/2+z
8 -1/2+x,-1/2-y,-1/2+z
_cell_length_a 16.246(3)
_cell_length_b 8.423(1)
_cell_length_c 17.383(3)
_cell_angle_alpha 90
_cell_angle_beta 122.34(1)
_cell_angle_gamma 90
_cell_formula_units_Z 8
loop_
_atom_type_symbol
_atom_type_radius_bond
C 0.68
H 0.23
N 0.68
O 0.68
loop_
_atom_site_label
_atom_site_type_symbol
_atom_site_fract_x
_atom_site_fract_y
_atom_site_fract_z
N1 N 0.5523(1) 0.3553(2) 0.5196(1)
C1 C 0.5867(1) 0.2547(2) 0.5844(1)
C2 C 0.5117(1) 0.1808(2) 0.5970(1)
C3 C 0.5179(1) 0.0212(2) 0.6209(1)
C4 C 0.4465(2) -0.0439(2) 0.6303(2)
C5 C 0.3702(1) 0.0508(3) 0.6173(2)
C6 C 0.3701(1) 0.2067(3) 0.5953(1)
N2 N 0.4379(1) 0.2736(2) 0.5846(1)
C7 C 0.6904(1) 0.2067(2) 0.6471(1)
C8 C 0.7292(1) 0.2077(2) 0.7404(1)
C9 C 0.8241(2) 0.1579(3) 0.8006(1)
C10 C 0.8799(1) 0.1062(3) 0.7688(2)
C11 C 0.8430(1) 0.1053(2) 0.6768(2)
C12 C 0.7481(1) 0.1573(2) 0.6156(1)
O1 O 0.6235(1) 0.4296(2) 0.5101(1)
H1 H 0.568(2) -0.037(3) 0.617(1)
H2 H 0.441(2) -0.158(3) 0.645(1)
H3 H 0.317(1) 0.002(2) 0.629(1)
H4 H 0.323(1) 0.280(2) 0.591(1)
H5 H 0.684(1) 0.244(2) 0.760(1)
H6 H 0.851(2) 0.153(3) 0.867(1)
H7 H 0.951(2) 0.067(2) 0.815(1)
H8 H 0.881(1) 0.069(2) 0.648(1)
H9 H 0.724(1) 0.160(2) 0.554(1)
H10 H 0.589(2) 0.529(3) 0.472(1)
#END
