
#######################################################################
#
#                 Cambridge Crystallographic Data Centre
#                                CCDC
#
#######################################################################
#
# If this CIF has been generated from an entry in the Cambridge
# Structural Database, then it will include bibliographic, chemical,
# crystal, experimental, refinement or atomic coordinate data resulting
# from the CCDC's data processing and validation procedures.
#
#######################################################################

data_CSD_CIF_VEXNEU
_audit_creation_date 2018-06-05
_audit_creation_method CSD-ConQuest-V1
_database_code_CSD VEXNEU
_database_code_depnum_ccdc_archive 'CCDC 1448542'
_chemical_formula_sum 'C12 H12 N2 O5'
_chemical_formula_moiety
;
C12 H12 N2 O5
;
_journal_coden_Cambridge 1490
_journal_volume 9
_journal_year 2018
_journal_page_first 1953
_journal_name_full 'Nat.Commun. '
loop_
_publ_author_name
"Yingying Wu"
"Guangxia Wang"
"Qiaolian Li"
"Junfeng Xiang"
"Hua Jiang"
"Ying Wang"
_chemical_name_systematic
;
1-(2-hydroxy-5-nitrophenyl)-3,3-dimethylpyrrolidine-2,5-dione
;
_cell_volume   2451.071
_exptl_crystal_colour 'colorless'
_exptl_crystal_density_diffrn 1.432
_exptl_crystal_description 'block'
_diffrn_ambient_temperature 173.2
#These two values have been output from a single CSD field.
_refine_ls_R_factor_gt 0.06
_refine_ls_wR_factor_gt 0.06
_symmetry_cell_setting monoclinic
_symmetry_space_group_name_H-M 'C 2/c'
_symmetry_Int_Tables_number 15
loop_
_symmetry_equiv_pos_site_id
_symmetry_equiv_pos_as_xyz
1 x,y,z
2 -x,y,1/2-z
3 1/2+x,1/2+y,z
4 1/2-x,1/2+y,1/2-z
5 -x,-y,-z
6 x,-y,-1/2+z
7 -1/2-x,-1/2-y,-z
8 -1/2+x,-1/2-y,-1/2+z
_cell_length_a 11.039(5)
_cell_length_b 20.066(8)
_cell_length_c 12.073(6)
_cell_angle_alpha 90
_cell_angle_beta 113.575(6)
_cell_angle_gamma 90
_cell_formula_units_Z 8
loop_
_atom_type_symbol
_atom_type_radius_bond
C 0.68
H 0.23
N 0.68
O 0.68
loop_
_atom_site_label
_atom_site_type_symbol
_atom_site_fract_x
_atom_site_fract_y
_atom_site_fract_z
O1 O 0.76203(14) 0.38737(10) 0.60552(15)
O2 O 0.67053(14) 0.35160(8) 0.72173(13)
O3 O 0.16906(13) 0.45619(7) 0.29789(13)
O4 O 0.19378(13) 0.47915(6) 0.61103(12)
O5 O 0.13442(15) 0.28701(7) 0.39602(14)
N1 N 0.66421(15) 0.37693(8) 0.62726(14)
N2 N 0.18684(13) 0.38688(7) 0.49806(13)
C1 C 0.53513(16) 0.39602(8) 0.53739(16)
C2 C 0.52673(18) 0.42933(9) 0.43395(17)
H1 H 0.60250 0.43820 0.42060
C3 C 0.40439(18) 0.44911(9) 0.35129(17)
H2 H 0.39720 0.47100 0.28100
C4 C 0.29045(17) 0.43642(9) 0.37262(16)
C5 C 0.30256(16) 0.40138(8) 0.47674(15)
C6 C 0.42427(17) 0.38111(8) 0.55968(15)
H3 H 0.43190 0.35800 0.62890
C7 C 0.11179(17) 0.32785(9) 0.45748(16)
C8 C 0.00379(17) 0.32768(9) 0.50655(16)
C9 C 0.01858(17) 0.39620(9) 0.56773(17)
H4 H -0.05790 0.42380 0.52440
H5 H 0.02720 0.39120 0.65050
C10 C 0.14107(16) 0.42702(8) 0.56461(15)
C11 C 0.0336(2) 0.2714(1) 0.59861(19)
H6 H 0.03580 0.22970 0.56030
H7 H -0.03400 0.26990 0.62970
H8 H 0.11780 0.27910 0.66380
C12 C -0.1298(2) 0.31715(12) 0.4017(2)
H9 H -0.14660 0.35320 0.34520
H10 H -0.19800 0.31580 0.43190
H11 H -0.12880 0.27580 0.36200
H12 H 0.172(3) 0.4808(14) 0.235(3)
#END
