
#######################################################################
#
#                 Cambridge Crystallographic Data Centre
#                                CCDC
#
#######################################################################
#
# If this CIF has been generated from an entry in the Cambridge
# Structural Database, then it will include bibliographic, chemical,
# crystal, experimental, refinement or atomic coordinate data resulting
# from the CCDC's data processing and validation procedures.
#
#######################################################################

data_CSD_CIF_VEYCAD
_audit_creation_date 1991-06-18
_audit_creation_method CSD-ConQuest-V1
_database_code_CSD VEYCAD
_database_code_depnum_ccdc_archive 'CCDC 1282970'
_chemical_formula_sum 'C7 H8 N2 O2'
_chemical_formula_moiety
;
C7 H8 N2 O2
;
_journal_coden_Cambridge 95
_journal_year 1988
_journal_page_first 2516
_journal_name_full 'Izv.Akad.Nauk SSSR,Ser.Khim.(Russ.)(Russ.Chem.Bull.) '
loop_
_publ_author_name
"L.F.Chertanova"
"G.A.Marchenko"
"V.I.Kovalenko"
"Yu.T.Struchkov"
_chemical_name_systematic
;
N-Phenyl-N'-methoxydiazene-N-oxide
;
_chemical_melting_point 313.15
_cell_volume   1473.997
_exptl_crystal_density_diffrn 1.43
_exptl_special_details
;
Dx reported as 1.43; we calculate 1.37

;
_diffrn_ambient_temperature 118
#These two values have been output from a single CSD field.
_refine_ls_R_factor_gt 0.028
_refine_ls_wR_factor_gt 0.028
_symmetry_cell_setting orthorhombic
_symmetry_space_group_name_H-M 'P b c a'
_symmetry_Int_Tables_number 61
loop_
_symmetry_equiv_pos_site_id
_symmetry_equiv_pos_as_xyz
1 x,y,z
2 1/2-x,-y,1/2+z
3 1/2+x,1/2-y,-z
4 -x,1/2+y,1/2-z
5 -x,-y,-z
6 -1/2+x,y,-1/2-z
7 -1/2-x,-1/2+y,z
8 x,-1/2-y,-1/2+z
_cell_length_a 12.834(4)
_cell_length_b 6.808(5)
_cell_length_c 16.870(5)
_cell_angle_alpha 90
_cell_angle_beta 90
_cell_angle_gamma 90
_cell_formula_units_Z 8
loop_
_atom_type_symbol
_atom_type_radius_bond
C 0.68
N 0.68
O 0.68
loop_
_atom_site_label
_atom_site_type_symbol
_atom_site_fract_x
_atom_site_fract_y
_atom_site_fract_z
O1 O 0.08498(6) 0.2231(2) 0.57335(5)
O2 O 0.26451(6) 0.2141(1) 0.51998(4)
N1 N 0.16139(7) 0.2231(1) 0.62058(5)
N2 N 0.25801(8) 0.2220(2) 0.60102(5)
C1 C 0.14240(8) 0.2251(2) 0.70564(6)
C2 C 0.37406(9) 0.2192(2) 0.49923(7)
C3 C 0.04889(9) 0.3037(2) 0.73214(6)
C4 C 0.0306(1) 0.3108(2) 0.81314(7)
C5 C 0.10361(9) 0.2384(2) 0.86653(7)
C6 C 0.19535(9) 0.1555(2) 0.83846(7)
C7 C 0.21621(9) 0.1494(2) 0.75760(7)
#END
