
#######################################################################
#
#                 Cambridge Crystallographic Data Centre
#                                CCDC
#
#######################################################################
#
# If this CIF has been generated from an entry in the Cambridge
# Structural Database, then it will include bibliographic, chemical,
# crystal, experimental, refinement or atomic coordinate data resulting
# from the CCDC's data processing and validation procedures.
#
#######################################################################

data_CSD_CIF_VIBBEQ
_audit_creation_date 2018-06-06
_audit_creation_method CSD-ConQuest-V1
_database_code_CSD VIBBEQ
_database_code_depnum_ccdc_archive 'CCDC 1485983'
_chemical_formula_sum 'C10 H13 N5 O3'
_chemical_formula_moiety
;
C10 H13 N5 O3
;
_journal_coden_Cambridge 1078
_journal_year 2018
_journal_name_full 'CSD Communication(Private Communication) '
loop_
_publ_author_name
"Yaoguo Qin"
_chemical_name_systematic
;
5-(4-methoxyphenyl)-N-nitro-1,3,5-triazinan-2-imine
;
_cell_volume   1131.483
_exptl_crystal_density_diffrn 1.475
_diffrn_ambient_temperature 180.2
#These two values have been output from a single CSD field.
_refine_ls_R_factor_gt 0.0371
_refine_ls_wR_factor_gt 0.0371
_symmetry_cell_setting monoclinic
_symmetry_space_group_name_H-M 'P 21/c'
_symmetry_Int_Tables_number 14
loop_
_symmetry_equiv_pos_site_id
_symmetry_equiv_pos_as_xyz
1 x,y,z
2 -x,1/2+y,1/2-z
3 -x,-y,-z
4 x,-1/2-y,-1/2+z
_cell_length_a 15.4268(13)
_cell_length_b 5.3261(4)
_cell_length_c 14.6589(11)
_cell_angle_alpha 90
_cell_angle_beta 110.045(9)
_cell_angle_gamma 90
_cell_formula_units_Z 4
loop_
_atom_type_symbol
_atom_type_radius_bond
C 0.68
H 0.23
N 0.68
O 0.68
loop_
_atom_site_label
_atom_site_type_symbol
_atom_site_fract_x
_atom_site_fract_y
_atom_site_fract_z
C1 C 0.69430(12) 0.1541(4) 0.04036(12)
H1 H 0.68430 0.02340 -0.01020
H2 H 0.73210 0.28930 0.02660
C2 C 0.56059(12) 0.1694(3) 0.09339(12)
C3 C 0.68348(12) -0.1362(4) 0.15686(14)
H3 H 0.71450 -0.20390 0.22300
H4 H 0.67220 -0.27760 0.11040
C4 C 0.78889(11) 0.2237(4) 0.20967(12)
C5 C 0.76941(13) 0.2500(4) 0.29444(13)
H5 H 0.72190 0.15170 0.30410
C6 C 0.81862(13) 0.4184(4) 0.36578(13)
H6 H 0.80520 0.43180 0.42420
C7 C 0.88666(12) 0.5663(4) 0.35273(13)
C8 C 0.90661(12) 0.5419(4) 0.26771(13)
H7 H 0.95320 0.64310 0.25750
C9 C 0.85875(12) 0.3707(4) 0.19801(13)
H8 H 0.87390 0.35290 0.14080
C10 C 0.91254(16) 0.7760(5) 0.50347(15)
H9 H 0.84830 0.83300 0.48340
H10 H 0.95290 0.90360 0.54500
H11 H 0.91900 0.61820 0.53960
N1 N 0.74326(10) 0.0461(3) 0.13485(10)
N2 N 0.60516(10) 0.2568(3) 0.03689(10)
H12 H 0.58040 0.37990 -0.00380
N3 N 0.59467(10) -0.0231(3) 0.15121(10)
H13 H 0.56400 -0.08470 0.18680
N4 N 0.48024(10) 0.2992(3) 0.0808(1)
N5 N 0.43177(10) 0.2492(3) 0.13812(10)
O1 O 0.93804(9) 0.7367(3) 0.41913(10)
O2 O 0.45475(9) 0.0951(3) 0.20591(9)
O3 O 0.35894(9) 0.3725(3) 0.11988(9)
#END
