
#######################################################################
#
#                 Cambridge Crystallographic Data Centre
#                                CCDC
#
#######################################################################
#
# If this CIF has been generated from an entry in the Cambridge
# Structural Database, then it will include bibliographic, chemical,
# crystal, experimental, refinement or atomic coordinate data resulting
# from the CCDC's data processing and validation procedures.
#
#######################################################################

data_CSD_CIF_VIBBUF
_audit_creation_date 2013-05-24
_audit_creation_method CSD-ConQuest-V1
_database_code_CSD VIBBUF
_database_code_depnum_ccdc_archive 'CCDC 922750'
_chemical_formula_sum 'C21 H27 N1 O5'
_chemical_formula_moiety
;
C21 H27 N1 O5
;
_journal_coden_Cambridge 1500
_journal_volume 3
_journal_year 2013
_journal_page_first 10385
_journal_name_full 'RSC Advances '
loop_
_publ_author_name
"M.P.Savic"
"E.A.Djurendic"
"E.T.Petri"
"A.elic"
"O.R.Klisuric"
"M.N.Sakac"
"D.S.Jakimov"
"V.V.Kojic"
"K.M.P.Gasi"
_chemical_name_systematic
;
4a,6b-Dimethyl-2-oxo-1,4a,5,6,6a,6b,7,8,9,12,12a,12b-dodecahydro-2H,4H-pyrano[
3',4':7,8]phenanthro[10,1-cd][1,2]oxazol-9-yl acetate
;
_cell_volume   1960.415
_exptl_crystal_colour 'colorless'
_exptl_crystal_density_diffrn 1.265
_exptl_crystal_description 'prism'
_diffrn_ambient_temperature 293
#These two values have been output from a single CSD field.
_refine_ls_R_factor_gt 0.0448
_refine_ls_wR_factor_gt 0.0448
_symmetry_cell_setting orthorhombic
_symmetry_space_group_name_H-M 'P 21 21 21'
_symmetry_Int_Tables_number 19
loop_
_symmetry_equiv_pos_site_id
_symmetry_equiv_pos_as_xyz
1 x,y,z
2 1/2-x,-y,1/2+z
3 1/2+x,1/2-y,-z
4 -x,1/2+y,1/2-z
_cell_length_a 7.6964(6)
_cell_length_b 9.0385(9)
_cell_length_c 28.1815(19)
_cell_angle_alpha 90
_cell_angle_beta 90
_cell_angle_gamma 90
_cell_formula_units_Z 4
loop_
_atom_type_symbol
_atom_type_radius_bond
C 0.68
H 0.23
N 0.68
O 0.68
loop_
_atom_site_label
_atom_site_type_symbol
_atom_site_fract_x
_atom_site_fract_y
_atom_site_fract_z
C1 C 0.8249(4) 0.4783(4) 0.15548(10)
O1 O 0.9254(3) 0.0881(3) 0.05326(9)
C2 C 0.7546(5) 0.7478(4) 0.17795(11)
C3 C 0.5977(4) 0.3198(4) 0.11037(10)
C4 C 0.6705(4) 0.4774(4) 0.11991(10)
O2 O 0.5998(4) -0.0703(3) 0.02597(8)
C5 C 0.7573(5) 0.1308(4) 0.06035(11)
C6 C 0.7521(4) 0.2322(4) 0.09518(10)
C7 C 0.9253(4) 0.2553(4) 0.10888(11)
N1 N 1.0326(4) 0.1695(4) 0.08533(11)
C8 C 0.6145(5) 0.0899(4) 0.02859(13)
C9 C 0.8920(5) 0.6360(4) 0.16258(10)
C10 C 0.5317(5) 0.5884(4) 0.13535(12)
H1 H 0.44010 0.59070 0.11170
H2 H 0.48090 0.55560 0.16500
C11 C 0.4705(5) 0.3126(4) 0.06800(11)
H3 H 0.35810 0.34970 0.07800
H4 H 0.51290 0.37660 0.04290
C12 C 0.9781(5) 0.3746(4) 0.14212(12)
H5 H 1.06970 0.43290 0.12760
H6 H 1.02460 0.33040 0.17080
C13 C 0.5117(5) 0.2524(4) 0.15475(11)
H7 H 0.47980 0.15160 0.14840
H8 H 0.40970 0.30820 0.16270
H9 H 0.59200 0.25530 0.18080
O3 O 0.9940(4) 0.9127(3) 0.20491(11)
C14 C 1.0466(5) 0.6458(4) 0.19710(12)
H10 H 1.01820 0.58900 0.22530
H11 H 1.14600 0.59880 0.18230
C15 C 0.4481(5) 0.1547(4) 0.04820(13)
H12 H 0.40520 0.09090 0.07330
H13 H 0.36130 0.15640 0.02320
C16 C 0.6036(6) 0.7442(4) 0.14180(13)
H14 H 0.51140 0.80910 0.15260
H15 H 0.64450 0.78110 0.11150
O4 O 1.2318(4) 0.8202(4) 0.23330(12)
C17 C 0.6080(6) -0.1377(4) -0.01410(14)
C18 C 0.8398(6) 0.8989(5) 0.17618(15)
H16 H 0.86990 0.92090 0.14350
H17 H 0.75610 0.97240 0.18650
C19 C 1.0991(6) 0.7972(5) 0.21228(13)
C20 C 0.6020(7) -0.3009(4) -0.01184(17)
H18 H 0.49360 -0.33160 0.00190
H19 H 0.69620 -0.33630 0.00740
H20 H 0.61220 -0.34090 -0.04330
C21 C 0.6850(6) 0.7189(5) 0.22859(11)
H21 H 0.77790 0.73010 0.25110
H22 H 0.63960 0.62010 0.23040
H23 H 0.59450 0.78850 0.23570
O5 O 0.6221(9) -0.0722(4) -0.04930(11)
H24 H 0.769(4) 0.443(3) 0.1864(11)
H25 H 0.710(4) 0.516(4) 0.0893(11)
H26 H 0.638(4) 0.121(3) -0.0023(11)
H27 H 0.937(3) 0.669(3) 0.1298(10)
#END
