
#######################################################################
#
#                 Cambridge Crystallographic Data Centre
#                                CCDC
#
#######################################################################
#
# If this CIF has been generated from an entry in the Cambridge
# Structural Database, then it will include bibliographic, chemical,
# crystal, experimental, refinement or atomic coordinate data resulting
# from the CCDC's data processing and validation procedures.
#
#######################################################################

data_CSD_CIF_VIBCEQ
_audit_creation_date 2013-05-24
_audit_creation_method CSD-ConQuest-V1
_database_code_CSD VIBCEQ
_database_code_depnum_ccdc_archive 'CCDC 922745'
_chemical_formula_sum 'C6 H9 N3 O3'
_chemical_formula_moiety
;
C6 H9 N3 O3
;
_journal_coden_Cambridge 440
_journal_volume 37
_journal_year 2013
_journal_page_first 2002
_journal_name_full 'New J.Chem. '
loop_
_publ_author_name
"J.Belmar"
"J.Quezada"
"C.A.Jimenez"
"P.Diaz-Gallifa"
"J.Pasan"
"C.Ruiz-Perez"
_chemical_name_systematic
;
2-(2-Hydroxyethyl)-4-(hydroxyimino)-5-methyl-2,4-dihydro-3H-pyrazol-3-one
;
_cell_volume    786.463
_exptl_crystal_colour 'dark yellow'
_exptl_crystal_density_diffrn 1.446
_exptl_crystal_description 'prism'
_diffrn_ambient_temperature 293
#These two values have been output from a single CSD field.
_refine_ls_R_factor_gt 0.0429
_refine_ls_wR_factor_gt 0.0429
_symmetry_cell_setting monoclinic
_symmetry_space_group_name_H-M 'P 21/n'
_symmetry_Int_Tables_number 14
loop_
_symmetry_equiv_pos_site_id
_symmetry_equiv_pos_as_xyz
1 x,y,z
2 1/2-x,1/2+y,1/2-z
3 -x,-y,-z
4 -1/2+x,-1/2-y,-1/2+z
_cell_length_a 8.298(2)
_cell_length_b 15.1999(5)
_cell_length_c 12.458(3)
_cell_angle_alpha 90
_cell_angle_beta 149.966(3)
_cell_angle_gamma 90
_cell_formula_units_Z 4
loop_
_atom_type_symbol
_atom_type_radius_bond
C 0.68
H 0.23
N 0.68
O 0.68
loop_
_atom_site_label
_atom_site_type_symbol
_atom_site_fract_x
_atom_site_fract_y
_atom_site_fract_z
C1 C 1.1450(4) 0.18454(12) 0.9543(3)
C2 C 1.0316(4) 0.26804(11) 0.9322(3)
C3 C 0.8190(4) 0.24310(11) 0.9017(3)
C4 C 0.6697(5) 0.09559(12) 0.8898(3)
H1 H 0.69670 0.11820 0.97760
H2 H 0.77250 0.03830 0.94580
C5 C 0.3157(5) 0.08515(12) 0.6625(3)
H3 H 0.22150 0.04640 0.66150
H4 H 0.21130 0.14200 0.60860
C6 C 1.3705(5) 0.17028(16) 0.9930(4)
H5 H 1.58080 0.19110 1.13360
H6 H 1.29480 0.20190 0.88760
H7 H 1.38110 0.10860 0.98280
H8 H 1.078(8) 0.467(3) 0.927(6)
H9 H 0.250(7) 0.096(2) 0.480(5)
N1 N 0.8276(3) 0.15448(9) 0.9058(2)
N2 N 1.0231(3) 0.11945(10) 0.9368(2)
N3 N 1.1160(4) 0.34324(10) 0.9414(2)
O1 O 0.6681(3) 0.28876(8) 0.8786(2)
O2 O 0.2556(3) 0.05024(8) 0.5236(2)
O3 O 0.9831(4) 0.41172(9) 0.9171(2)
#END
