
#######################################################################
#
#                 Cambridge Crystallographic Data Centre
#                                CCDC
#
#######################################################################
#
# If this CIF has been generated from an entry in the Cambridge
# Structural Database, then it will include bibliographic, chemical,
# crystal, experimental, refinement or atomic coordinate data resulting
# from the CCDC's data processing and validation procedures.
#
#######################################################################

data_CSD_CIF_VIBCAM
_audit_creation_date 2013-05-24
_audit_creation_method CSD-ConQuest-V1
_database_code_CSD VIBCAM
_database_code_depnum_ccdc_archive 'CCDC 922746'
_chemical_formula_sum 'C11 H11 N3 O3'
_chemical_formula_moiety
;
C11 H11 N3 O3
;
_journal_coden_Cambridge 440
_journal_volume 37
_journal_year 2013
_journal_page_first 2002
_journal_name_full 'New J.Chem. '
loop_
_publ_author_name
"J.Belmar"
"J.Quezada"
"C.A.Jimenez"
"P.Diaz-Gallifa"
"J.Pasan"
"C.Ruiz-Perez"
_chemical_name_systematic
;
2-(2-Hydroxyethyl)-4-(hydroxyimino)-5-phenyl-2,4-dihydro-3H-pyrazol-3-one
;
_cell_volume   1139.268
_exptl_crystal_colour 'red'
_exptl_crystal_density_diffrn 1.36
_exptl_crystal_description 'prism'
_diffrn_ambient_temperature 293
#These two values have been output from a single CSD field.
_refine_ls_R_factor_gt 0.0378
_refine_ls_wR_factor_gt 0.0378
_symmetry_cell_setting monoclinic
_symmetry_space_group_name_H-M 'P 21/n'
_symmetry_Int_Tables_number 14
loop_
_symmetry_equiv_pos_site_id
_symmetry_equiv_pos_as_xyz
1 x,y,z
2 1/2-x,1/2+y,1/2-z
3 -x,-y,-z
4 -1/2+x,-1/2-y,-1/2+z
_cell_length_a 15.8072(7)
_cell_length_b 4.92528(15)
_cell_length_c 16.3792(7)
_cell_angle_alpha 90
_cell_angle_beta 116.696(5)
_cell_angle_gamma 90
_cell_formula_units_Z 4
loop_
_atom_type_symbol
_atom_type_radius_bond
C 0.68
H 0.23
N 0.68
O 0.68
loop_
_atom_site_label
_atom_site_type_symbol
_atom_site_fract_x
_atom_site_fract_y
_atom_site_fract_z
C1 C 0.95483(17) 0.3757(5) 0.19585(17)
C2 C 0.95411(16) 0.2305(5) 0.27329(15)
C3 C 0.87464(16) 0.0328(5) 0.23193(15)
C4 C 0.76036(18) -0.0567(6) 0.06822(16)
H1 H 0.77510 -0.24860 0.07080
H2 H 0.75270 0.01260 0.00990
C5 C 0.66915(17) -0.0218(6) 0.07434(17)
H3 H 0.61940 -0.12350 0.02570
H4 H 0.67610 -0.09250 0.13230
C6 C 1.02137(19) 0.5831(5) 0.1950(2)
C7 C 1.0841(2) 0.7150(6) 0.2729(3)
H5 H 1.0850(2) 0.6731(16) 0.332(2)
C8 C 1.1460(2) 0.9068(7) 0.2683(3)
H6 H 1.1872(18) 0.996(4) 0.321(2)
C9 C 1.1466(3) 0.9643(8) 0.1873(4)
H7 H 1.190(2) 1.093(6) 0.1849(4)
C10 C 1.0847(3) 0.8353(10) 0.1095(4)
H8 H 1.0849(3) 0.876(2) 0.052(3)
C11 C 1.0218(3) 0.6471(8) 0.1129(3)
H9 H 0.9776(17) 0.559(4) 0.057(2)
N1 N 0.83890(14) 0.0836(4) 0.14145(13)
N2 N 0.88721(15) 0.2864(5) 0.12011(14)
N3 N 1.01599(14) 0.2646(4) 0.35742(14)
O1 O 0.84563(13) -0.1413(4) 0.26644(11)
O2 O 0.64382(13) 0.2576(4) 0.06683(12)
H10 H 0.641(3) 0.306(8) 0.117(3)
O3 O 1.00334(13) 0.0937(4) 0.41613(12)
H11 H 1.051(2) 0.142(7) 0.470(2)
#END
