
#######################################################################
#
#                 Cambridge Crystallographic Data Centre
#                                CCDC
#
#######################################################################
#
# If this CIF has been generated from an entry in the Cambridge
# Structural Database, then it will include bibliographic, chemical,
# crystal, experimental, refinement or atomic coordinate data resulting
# from the CCDC's data processing and validation procedures.
#
#######################################################################

data_CSD_CIF_VIBLAU
_audit_creation_date 2007-06-01
_audit_creation_method CSD-ConQuest-V1
_database_code_CSD VIBLAU
_database_code_depnum_ccdc_archive 'CCDC 607673'
_chemical_formula_sum 'C26 H28 N2 O8'
_chemical_formula_moiety
;
C26 H28 N2 O8
;
_journal_coden_Cambridge 1291
_journal_year 2006
_journal_page_first 5339
_journal_name_full 'Eur.J.Org.Chem. '
loop_
_publ_author_name
"J.Dieker"
"R.Frohlich"
"E.-U.Wurthwein"
_chemical_name_systematic
;
1,4-bis(4-acetoxy-3-acetyl-1-methoxy-5-methyl-1H-pyrrol-2-yl)benzene
;
_chemical_melting_point 489.15
_cell_volume   2591.515
_exptl_crystal_colour 'yellow-orange'
_exptl_crystal_density_diffrn 1.273
_exptl_special_details
;
Melts with decomposition.

;
_exptl_crystal_description 'plate'
_exptl_crystal_preparation 'methanol'
_diffrn_ambient_temperature 223
_refine_special_details
;
Two C atoms and three O atoms are disordered over two sites with occupancies 
of 0.595:0.405.
;
#These two values have been output from a single CSD field.
_refine_ls_R_factor_gt 0.0536
_refine_ls_wR_factor_gt 0.0536
_symmetry_cell_setting monoclinic
_symmetry_space_group_name_H-M 'C 2/c'
_symmetry_Int_Tables_number 15
loop_
_symmetry_equiv_pos_site_id
_symmetry_equiv_pos_as_xyz
1 x,y,z
2 1/2+x,1/2+y,z
3 -x,y,1/2-z
4 1/2-x,1/2+y,1/2-z
5 -x,-y,-z
6 -1/2-x,-1/2-y,-z
7 x,-y,-1/2+z
8 -1/2+x,-1/2-y,-1/2+z
_cell_length_a 20.421(2)
_cell_length_b 8.426(1)
_cell_length_c 15.953(1)
_cell_angle_alpha 90
_cell_angle_beta 109.25(1)
_cell_angle_gamma 90
_cell_formula_units_Z 4
loop_
_atom_type_symbol
_atom_type_radius_bond
C 0.68
H 0.23
N 0.68
O 0.68
loop_
_atom_site_label
_atom_site_type_symbol
_atom_site_fract_x
_atom_site_fract_y
_atom_site_fract_z
N1 N 0.11073(7) 0.13254(16) 1.03874(8)
C1 C 0.1452(1) 0.0074(2) 1.08928(12)
C2 C 0.14352(13) 0.0404(2) 1.17210(13)
C3 C 0.11066(10) 0.1886(2) 1.17348(11)
C4 C 0.08878(8) 0.24288(19) 1.08601(10)
C5 C 0.17701(14) -0.1248(3) 1.05404(15)
H1 H 0.14630 -0.15490 0.99560
H2 H 0.18430 -0.21520 1.09370
H3 H 0.22120 -0.09050 1.04980
O1 O 0.15914(12) -0.0744(3) 1.24071(16)
C6 C 0.21963(15) -0.0380(4) 1.3061(3)
O2 O 0.25325(13) 0.0732(3) 1.30156(18)
C7 C 0.2354(9) -0.1656(17) 1.3805(11)
H4 H 0.23970 -0.26870 1.35580
H5 H 0.19800 -0.16810 1.40530
H6 H 0.27850 -0.13950 1.42690
O3? O 0.20320(19) -0.0155(5) 1.2512(3)
C8? C 0.1736(2) -0.1272(6) 1.2894(4)
O4? O 0.11577(17) -0.1699(4) 1.2574(2)
C9? C 0.2257(13) -0.174(3) 1.3688(16)
H7? H 0.20920 -0.26250 1.39500
H8? H 0.23670 -0.08550 1.41020
H9? H 0.26700 -0.20510 1.35570
C10 C 0.10699(12) 0.2707(3) 1.25323(12)
O5 O 0.0976(3) 0.1853(6) 1.3146(4)
O6? O 0.1288(4) 0.2162(11) 1.3256(5)
C11 C 0.10623(14) 0.4467(3) 1.25568(13)
H10 H 0.05980 0.48480 1.22380
H11 H 0.13840 0.48820 1.22800
H12 H 0.11990 0.48230 1.31690
O7 O 0.09878(6) 0.14210(15) 0.94846(7)
C12 C 0.03165(11) 0.0776(3) 0.89917(13)
H13 H 0.02780 -0.02910 0.91990
H14 H 0.02640 0.07460 0.83650
H15 H -0.00440 0.14380 0.90800
C13 C 0.04421(8) 0.37576(18) 1.04246(10)
C14 C 0.06172(8) 0.47581(19) 0.98357(10)
H16 H 0.10350 0.45960 0.97200
C15 C -0.01825(8) 0.40134(19) 1.05791(10)
H17 H -0.03100 0.33420 1.09700
N1D N -0.11073(7) 0.86746(16) 0.96126(8)
C1D C -0.1452(1) 0.9926(2) 0.91072(12)
C2D C -0.14352(13) 0.9596(2) 0.82790(13)
C3D C -0.11066(10) 0.8114(2) 0.82652(11)
C4D C -0.08878(8) 0.75712(19) 0.91399(10)
C5D C -0.17701(14) 1.1248(3) 0.94596(15)
H1D H -0.14630 1.15490 1.00440
H2D H -0.18430 1.21520 0.90630
H3D H -0.22120 1.09050 0.95020
O1D O -0.15914(12) 1.0744(3) 0.75929(16)
C6D C -0.21963(15) 1.0380(4) 0.6939(3)
O2D O -0.25325(13) 0.9268(3) 0.69844(18)
C7D C -0.2354(9) 1.1656(17) 0.6195(11)
H4D H -0.23970 1.26870 0.64420
H5D H -0.19800 1.16810 0.59470
H6D H -0.27850 1.13950 0.57310
C10D C -0.10699(12) 0.7293(3) 0.74677(12)
O5D O -0.0976(3) 0.8147(6) 0.6854(4)
C11D C -0.10623(14) 0.5533(3) 0.74432(13)
H10D H -0.05980 0.51520 0.77620
H11D H -0.13840 0.51180 0.77200
H12D H -0.11990 0.51770 0.68310
O7D O -0.09878(6) 0.85790(15) 1.05154(7)
C12D C -0.03165(11) 0.9224(3) 1.10083(13)
H13D H -0.02780 1.02910 1.08010
H14D H -0.02640 0.92540 1.16350
H15D H 0.00440 0.85620 1.09200
C13D C -0.04421(8) 0.62424(18) 0.95754(10)
C14D C -0.06172(8) 0.52419(19) 1.01643(10)
H16D H -0.10350 0.54040 1.02800
C15D C 0.01825(8) 0.59866(19) 0.94209(10)
H17D H 0.03100 0.66580 0.90300
#END
