
#######################################################################
#
#                 Cambridge Crystallographic Data Centre
#                                CCDC
#
#######################################################################
#
# If this CIF has been generated from an entry in the Cambridge
# Structural Database, then it will include bibliographic, chemical,
# crystal, experimental, refinement or atomic coordinate data resulting
# from the CCDC's data processing and validation procedures.
#
#######################################################################

data_CSD_CIF_VIBPEE
_audit_creation_date 2018-06-06
_audit_creation_method CSD-ConQuest-V1
_database_code_CSD VIBPEE
_database_code_depnum_ccdc_archive 'CCDC 1812576'
_chemical_formula_sum 'C33 H22 N2 O2'
_chemical_formula_moiety
;
C33 H22 N2 O2
;
_journal_coden_Cambridge 1135
_journal_volume 28
_journal_year 2018
_journal_page_first 267
_journal_name_full 'Mendeleev Commun. '
loop_
_publ_author_name
"B.A.Trofimov"
"K.V.Belyaeva"
"L.P.Nikitina"
"A.V.Afonin"
"A.V.Vashchenko"
_chemical_name_systematic
;
2-(4-nitro-5'-phenyl-[1,1':3',1''-terphenyl]-2'-yl)quinoline
;
_cell_volume   2455.118
_exptl_crystal_colour 'white'
_exptl_crystal_density_diffrn 1.295
_exptl_crystal_description 'block'
_exptl_crystal_preparation 'Re-crystallisation from solvent'
_diffrn_ambient_temperature 100
#These two values have been output from a single CSD field.
_refine_ls_R_factor_gt 0.1
_refine_ls_wR_factor_gt 0.1
_symmetry_cell_setting triclinic
_symmetry_space_group_name_H-M 'P -1'
_symmetry_Int_Tables_number 2
loop_
_symmetry_equiv_pos_site_id
_symmetry_equiv_pos_as_xyz
1 x,y,z
2 -x,-y,-z
_cell_length_a 12.1392(15)
_cell_length_b 12.6841(15)
_cell_length_c 17.1616(18)
_cell_angle_alpha 110.717(3)
_cell_angle_beta 90.129(4)
_cell_angle_gamma 96.142(4)
_cell_formula_units_Z 4
loop_
_atom_type_symbol
_atom_type_radius_bond
C 0.68
H 0.23
N 0.68
O 0.68
loop_
_atom_site_label
_atom_site_type_symbol
_atom_site_fract_x
_atom_site_fract_y
_atom_site_fract_z
O1 O -0.1592(2) 0.1686(3) 0.2720(2)
N1 N 0.1962(3) 0.2129(3) 0.0206(2)
N2 N -0.0579(3) 0.1935(3) 0.2842(2)
O2 O -0.0159(3) 0.2652(3) 0.3484(2)
C1 C 0.1928(4) 0.5634(4) 0.1293(3)
H1 H 0.19040 0.64120 0.15360
C2 C 0.0943(4) 0.4911(4) 0.0984(3)
H2 H 0.02720 0.52140 0.10260
C3 C 0.0966(4) 0.3762(4) 0.0619(3)
H3 H 0.03110 0.32900 0.04100
C4 C 0.1979(3) 0.3291(3) 0.0561(3)
C5 C 0.2900(3) 0.1701(3) 0.0200(2)
C6 C 0.2854(3) 0.0443(3) -0.0147(2)
C7 C 0.2147(3) -0.0236(3) 0.0175(2)
C8 C 0.2101(3) -0.1411(3) -0.0175(2)
H4 H 0.16160 -0.18520 0.00370
C9 C 0.2754(3) -0.1953(3) -0.0832(2)
C10 C 0.2692(3) -0.3203(3) -0.1200(3)
C11 C 0.2677(4) -0.3760(4) -0.2056(3)
H5 H 0.27110 -0.33380 -0.24030
C12 C 0.2614(4) -0.4932(4) -0.2405(3)
H6 H 0.25970 -0.52910 -0.29810
C13 C 0.2575(5) -0.5566(4) -0.1890(3)
H7 H 0.25400 -0.63520 -0.21180
C14 C 0.1450(3) 0.0283(3) 0.0903(2)
C15 C 0.0321(3) -0.0089(3) 0.0865(2)
H8 H 0.00200 -0.07080 0.04090
C16 C -0.0359(3) 0.0448(3) 0.1495(2)
H9 H -0.11190 0.02260 0.14550
C17 C 0.0125(3) 0.1322(3) 0.2185(2)
C18 C 0.1256(3) 0.1662(3) 0.2278(2)
H10 H 0.15660 0.22210 0.27650
C19 C 0.1912(3) 0.1143(3) 0.1626(2)
H11 H 0.26710 0.13710 0.16690
C20 C 0.3453(3) -0.1269(3) -0.1149(2)
H12 H 0.38910 -0.16100 -0.15920
C21 C 0.3514(3) -0.0089(3) -0.0821(2)
C22 C 0.4274(3) 0.0580(3) -0.1201(2)
C23 C 0.3872(3) 0.1333(3) -0.1532(2)
H13 H 0.31220 0.14270 -0.15110
C24 C 0.4583(3) 0.1938(3) -0.1891(3)
H14 H 0.43080 0.24310 -0.21160
C25 C 0.5712(3) 0.1813(3) -0.1916(2)
H15 H 0.61890 0.22230 -0.21570
C26 C 0.6117(3) 0.1085(3) -0.1586(2)
H16 H 0.68710 0.10110 -0.15940
C27 C 0.5395(3) 0.0455(3) -0.1238(2)
H17 H 0.56690 -0.00530 -0.10290
C28 C 0.2589(5) -0.5021(4) -0.1035(3)
H18 H 0.25590 -0.54440 -0.06880
C29 C 0.2648(4) -0.3845(4) -0.0689(3)
H19 H 0.26570 -0.34870 -0.01130
C30 C 0.3937(3) 0.2383(3) 0.0510(2)
H20 H 0.45860 0.20450 0.04840
C31 C 0.3960(3) 0.3529(3) 0.0840(3)
H21 H 0.46280 0.39840 0.10370
C32 C 0.2969(3) 0.4026(3) 0.0884(3)
C33 C 0.2916(4) 0.5209(4) 0.1241(3)
H22 H 0.35630 0.56990 0.14420
N3 N 0.3038(2) 0.7923(2) 0.39787(19)
O3 O 0.5114(3) 0.7640(3) 0.7205(2)
O4 O 0.6550(2) 0.8506(3) 0.6864(2)
N4 N 0.5543(3) 0.8295(3) 0.6890(2)
C34 C 0.3199(4) 0.4421(4) 0.3030(3)
H23 H 0.32530 0.36460 0.28260
C35 C 0.2193(4) 0.4808(4) 0.3244(3)
H24 H 0.15640 0.42920 0.31760
C36 C 0.2100(3) 0.5990(3) 0.3571(2)
C37 C 0.3056(3) 0.6761(3) 0.3661(2)
C38 C 0.2075(3) 0.8307(3) 0.4213(2)
C39 C 0.2090(3) 0.9566(3) 0.4535(2)
C40 C 0.1404(3) 1.0069(3) 0.4130(2)
C41 C 0.1489(3) 1.1244(3) 0.4377(2)
H25 H 0.10220 1.15660 0.41180
C42 C 0.2243(3) 1.1954(3) 0.4995(2)
C43 C 0.2384(3) 1.3193(3) 0.5175(2)
C44 C 0.1474(4) 1.3764(3) 0.5162(3)
H26 H 0.07660 1.33700 0.50510
C45 C 0.1617(4) 1.4922(4) 0.5315(3)
H27 H 0.10020 1.53000 0.53130
C46 C 0.2648(5) 1.5506(4) 0.5468(3)
H28 H 0.27320 1.62800 0.55650
C47 C 0.4085(3) 0.6338(3) 0.3423(3)
H29 H 0.47200 0.68420 0.34730
C48 C 0.4155(4) 0.5197(4) 0.3120(3)
H30 H 0.48370 0.49300 0.29710
C49 C 0.1076(3) 0.7587(3) 0.4137(2)
H31 H 0.04150 0.78920 0.43050
C50 C 0.1095(3) 0.6443(3) 0.3815(3)
H32 H 0.04420 0.59610 0.37570
C51 C 0.0638(3) 0.9387(3) 0.3406(2)
C52 C -0.0492(3) 0.9442(3) 0.3457(2)
H33 H -0.07720 0.99000 0.39510
C53 C -0.1217(3) 0.8824(4) 0.2782(3)
H34 H -0.19770 0.88530 0.28340
C54 C -0.0815(3) 0.8168(3) 0.2036(3)
H35 H -0.12990 0.77730 0.15810
C55 C 0.0320(3) 0.8100(3) 0.1968(3)
H36 H 0.05960 0.76520 0.14700
C56 C 0.1040(3) 0.8704(3) 0.2650(2)
H37 H 0.17970 0.86550 0.26040
C57 C 0.3576(4) 1.4960(4) 0.5481(3)
H38 H 0.42790 1.53660 0.55890
C58 C 0.3445(4) 1.3807(4) 0.5332(3)
H39 H 0.40640 1.34360 0.53370
C59 C 0.2885(3) 1.1454(3) 0.5417(2)
H40 H 0.33730 1.19160 0.58510
C60 C 0.2809(3) 1.0280(3) 0.5203(2)
C61 C 0.3498(3) 0.9807(3) 0.5698(2)
C62 C 0.3048(3) 0.8959(3) 0.5981(2)
H41 H 0.22960 0.86980 0.58830
C63 C 0.3708(3) 0.8501(3) 0.6404(2)
H42 H 0.34020 0.79540 0.66110
C64 C 0.4829(3) 0.8867(3) 0.6517(2)
C65 C 0.5298(3) 0.9733(3) 0.6283(2)
H43 H 0.60500 0.99870 0.63850
C66 C 0.4612(3) 1.0226(3) 0.5886(2)
H44 H 0.49040 1.08400 0.57450
#END
