
#######################################################################
#
#                 Cambridge Crystallographic Data Centre
#                                CCDC
#
#######################################################################
#
# If this CIF has been generated from an entry in the Cambridge
# Structural Database, then it will include bibliographic, chemical,
# crystal, experimental, refinement or atomic coordinate data resulting
# from the CCDC's data processing and validation procedures.
#
#######################################################################

data_CSD_CIF_VIDFIY
_audit_creation_date 2007-06-01
_audit_creation_method CSD-ConQuest-V1
_database_code_CSD VIDFIY
_database_code_depnum_ccdc_archive 'CCDC 643107'
_chemical_formula_sum 'C22 H17 N3 O7'
_chemical_formula_moiety
;
C22 H17 N3 O7
;
_journal_coeditor_code "IUCr SJ2243"
_journal_coden_Cambridge 1370
_journal_volume 63
_journal_year 2007
_journal_page_first o1836
_journal_name_full 'Acta Crystallogr.,Sect.E:Struct.Rep.Online '
loop_
_publ_author_name
"Yang-Gen Hu"
"Gui-Hua Li"
"Ming-Hua Zhou"
_chemical_name_systematic
;
Ethyl 
6-methyl-2-(3-nitrophenoxy)-4-oxo-3-phenyl-3,4-dihydrofuro(2,3-d)pyrimidine-5-
carboxylate
;
_cell_volume   8245.328
_exptl_crystal_colour 'colorless'
_exptl_crystal_density_diffrn 1.403
_exptl_crystal_description 'block'
_exptl_crystal_preparation 'ethanol/dichloromethane'
_diffrn_ambient_temperature 292
#These two values have been output from a single CSD field.
_refine_ls_R_factor_gt 0.0677
_refine_ls_wR_factor_gt 0.0677
_symmetry_cell_setting orthorhombic
_symmetry_space_group_name_H-M 'I b c a'
_symmetry_Int_Tables_number 73
loop_
_symmetry_equiv_pos_site_id
_symmetry_equiv_pos_as_xyz
1 x,y,z
2 1/2+x,1/2+y,1/2+z
3 1/2-x,-y,1/2+z
4 -x,1/2+y,1/2-z
5 1/2+x,1/2-y,-z
6 -x,1/2-y,z
7 1/2-x,y,-z
8 x,-y,1/2-z
9 -x,-y,-z
10 -1/2-x,-1/2-y,-1/2-z
11 -1/2+x,y,-1/2-z
12 x,-1/2-y,-1/2+z
13 -1/2-x,-1/2+y,z
14 x,-1/2+y,-z
15 -1/2+x,-y,z
16 -x,y,-1/2+z
_cell_length_a 15.4932(12)
_cell_length_b 19.406(2)
_cell_length_c 27.424(2)
_cell_angle_alpha 90
_cell_angle_beta 90
_cell_angle_gamma 90
_cell_formula_units_Z 16
loop_
_atom_type_symbol
_atom_type_radius_bond
C 0.68
H 0.23
N 0.68
O 0.68
loop_
_atom_site_label
_atom_site_type_symbol
_atom_site_fract_x
_atom_site_fract_y
_atom_site_fract_z
C1 C 0.75585(16) -0.02897(11) 0.17894(8)
C2 C 0.67432(15) -0.04843(12) 0.19162(8)
H1 H 0.62620 -0.02830 0.17720
C3 C 0.66597(16) -0.09898(13) 0.22656(8)
C4 C 0.73436(19) -0.12973(14) 0.24839(9)
H2 H 0.72640 -0.16380 0.27180
C5 C 0.8155(2) -0.10919(16) 0.23495(10)
H3 H 0.86340 -0.12970 0.24930
C6 C 0.82703(17) -0.05858(15) 0.20052(10)
H4 H 0.88230 -0.04450 0.19190
C7 C 0.79827(15) 0.01325(11) 0.10202(8)
C8 C 0.85826(13) 0.06945(11) 0.02939(8)
C9 C 0.86695(13) 0.00004(11) 0.01169(7)
C10 C 0.84208(14) -0.05197(11) 0.04198(8)
C11 C 0.80820(14) 0.13884(11) 0.09874(8)
C12 C 0.74277(16) 0.18070(12) 0.08207(10)
H5 H 0.70600 0.16580 0.05740
C13 C 0.7328(2) 0.24485(14) 0.10257(12)
H6 H 0.68880 0.27370 0.09170
C14 C 0.7870(2) 0.26658(15) 0.13871(11)
H7 H 0.77930 0.30990 0.15260
C15 C 0.8524(2) 0.22500(15) 0.15459(10)
H8 H 0.88940 0.24020 0.17900
C16 C 0.86379(17) 0.16043(13) 0.13442(9)
H9 H 0.90850 0.13210 0.14490
C17 C 0.90449(13) -0.03354(12) -0.03063(8)
C18 C 0.89877(15) -0.10233(12) -0.02218(9)
C19 C 0.9257(2) -0.16505(14) -0.04899(11)
H10 H 0.88350 -0.20060 -0.04440
H11 H 0.98050 -0.18050 -0.03680
H12 H 0.93070 -0.15470 -0.08310
C20 C 0.94034(14) -0.00411(13) -0.07558(8)
C21 C 0.9437(3) 0.09514(17) -0.12609(11)
H13 H 0.89370 0.10870 -0.14510
H14 H 0.97890 0.06480 -0.14590
C22 C 0.9931(2) 0.15578(19) -0.11276(13)
H15 H 0.95950 0.18420 -0.09130
H16 H 1.00740 0.18140 -0.14160
H17 H 1.04520 0.14190 -0.09650
N1 N 0.5784(2) -0.12076(18) 0.24008(10)
N2 N 0.81914(11) 0.07125(9) 0.07694(6)
N3 N 0.80710(13) -0.04939(9) 0.08676(7)
O1 O 0.51948(19) -0.0846(3) 0.22719(15)
O2 O 0.5692(2) -0.17138(17) 0.26418(11)
O3 O 0.76518(12) 0.02631(8) 0.14664(6)
O4 O 0.87919(10) 0.12302(8) 0.01025(6)
O5 O 0.85937(10) -0.11429(7) 0.02211(6)
O6 O 0.91619(16) 0.0594(1) -0.08260(7)
O7 O 0.98444(14) -0.03453(11) -0.10413(6)
#END
