
#######################################################################
#
#                 Cambridge Crystallographic Data Centre
#                                CCDC
#
#######################################################################
#
# If this CIF has been generated from an entry in the Cambridge
# Structural Database, then it will include bibliographic, chemical,
# crystal, experimental, refinement or atomic coordinate data resulting
# from the CCDC's data processing and validation procedures.
#
#######################################################################

data_CSD_CIF_VIDGUK
_audit_creation_date 1991-07-30
_audit_creation_method CSD-ConQuest-V1
_database_code_CSD VIDGUK
_database_code_depnum_ccdc_archive 'CCDC 1283393'
_chemical_formula_sum 'C13 H22 N2 O3'
_chemical_formula_moiety
;
C13 H22 N2 O3
;
_journal_coden_Cambridge 392
_journal_volume 31
_journal_year 1990
_journal_page_first 1275
_journal_name_full 'Heterocycles '
loop_
_publ_author_name
"A.Ohta"
"A.Kojima"
"C.Sakuma"
"T.Kurihara"
"S.Ogasawara"
_chemical_name_systematic
;
2-Hydroxy-3,6-di-isobutyl-5-methoxypyrazine-4-oxide
;
_chemical_melting_point 445.15
_cell_volume    704.303
_exptl_crystal_colour 'colorless'
_exptl_crystal_density_diffrn 1.199
_exptl_special_details
;
Melting point range 445.15-446.15K

;
_diffrn_ambient_temperature ?
_diffrn_special_details
;
The study was carried out at room temperature,in the range 283-303K

;
#These two values have been output from a single CSD field.
_refine_ls_R_factor_gt 0.051
_refine_ls_wR_factor_gt 0.051
_symmetry_cell_setting triclinic
_symmetry_space_group_name_H-M 'P -1'
_symmetry_Int_Tables_number 2
loop_
_symmetry_equiv_pos_site_id
_symmetry_equiv_pos_as_xyz
1 x,y,z
2 -x,-y,-z
_cell_length_a 12.072(2)
_cell_length_b 13.158(2)
_cell_length_c 4.7925(6)
_cell_angle_alpha 94.44(1)
_cell_angle_beta 93.69(1)
_cell_angle_gamma 111.16(1)
_cell_formula_units_Z 2
loop_
_atom_type_symbol
_atom_type_radius_bond
C 0.68
H 0.23
N 0.68
O 0.68
loop_
_atom_site_label
_atom_site_type_symbol
_atom_site_fract_x
_atom_site_fract_y
_atom_site_fract_z
O1 O 0.4985(2) 0.8350(2) -0.1248(5)
O2 O 0.3949(2) 0.4982(2) 0.2290(5)
O3 O 0.6907(2) 0.9155(2) 0.2278(5)
N1 N 0.5654(2) 0.6394(2) 0.4016(6)
N2 N 0.5153(2) 0.7700(2) 0.0443(6)
C1 C 0.4374(3) 0.6666(3) 0.0382(7)
C2 C 0.4635(3) 0.5957(3) 0.2297(7)
C3 C 0.6416(3) 0.7455(3) 0.4161(7)
C4 C 0.6182(3) 0.8107(3) 0.2366(7)
C5 C 0.3262(3) 0.6284(3) -0.1500(8)
C6 C 0.2183(3) 0.6348(3) -0.0061(8)
C7 C 0.2406(4) 0.7492(4) 0.131(1)
C8 C 0.1083(4) 0.5943(5) -0.214(1)
C9 C 0.7501(3) 0.7851(3) 0.6189(8)
C10 C 0.8655(3) 0.7991(3) 0.4860(9)
C11 C 0.8653(5) 0.6893(4) 0.367(1)
C12 C 0.9737(5) 0.8577(6) 0.699(1)
C13 C 0.6465(5) 0.9961(4) 0.360(1)
H1 H 0.306(3) 0.553(3) -0.219(8)
H2 H 0.333(3) 0.676(3) -0.311(7)
H3 H 0.208(2) 0.582(2) 0.154(6)
H4 H 0.740(3) 0.734(4) 0.799(9)
H5 H 0.757(3) 0.852(3) 0.706(8)
H6 H 0.875(3) 0.846(3) 0.338(7)
H7 H 0.858(5) 0.640(4) 0.50(1)
H8 H 0.792(4) 0.648(3) 0.23(1)
H9 H 0.944(4) 0.708(3) 0.28(1)
H10 H 0.973(5) 0.813(5) 0.87(1)
H11 H 0.975(4) 0.932(4) 0.75(1)
H12 H 1.053(4) 0.871(4) 0.59(1)
H13 H 0.580(4) 0.991(4) 0.26(1)
H14 H 0.645(5) 0.986(5) 0.60(2)
H15 H 0.715(4) 1.067(4) 0.36(1)
H16 H 0.252(4) 0.797(4) -0.04(1)
H17 H 0.314(4) 0.790(3) 0.235(9)
H18 H 0.176(4) 0.752(3) 0.249(9)
H19 H 0.090(4) 0.520(4) -0.28(1)
H20 H 0.121(4) 0.642(4) -0.39(1)
H21 H 0.040(4) 0.595(4) -0.11(1)
H22 H 0.585(4) 0.595(4) 0.56(1)
#END
