
#######################################################################
#
#                 Cambridge Crystallographic Data Centre
#                                CCDC
#
#######################################################################
#
# If this CIF has been generated from an entry in the Cambridge
# Structural Database, then it will include bibliographic, chemical,
# crystal, experimental, refinement or atomic coordinate data resulting
# from the CCDC's data processing and validation procedures.
#
#######################################################################

data_CSD_CIF_VIDSAF
_audit_creation_date 2018-06-09
_audit_creation_method CSD-ConQuest-V1
_database_code_CSD VIDSAF
_database_code_depnum_ccdc_archive 'CCDC 1845567'
_chemical_formula_sum 'C11 H9 N1 O3'
_chemical_formula_moiety
;
C11 H9 N1 O3
;
_journal_coeditor_code "zp2027"
_journal_coden_Cambridge 1828
_journal_volume 74
_journal_year 2018
_journal_page_first 926
_journal_name_full 'Acta Crystallogr.,Sect.E:Cryst.Commun. '
loop_
_publ_author_name
"W.Zemamouche"
"R.Laroun"
"N.Hamdouni"
"O.Brihi"
"A.Boudjada"
"A.Debache"
_chemical_name_systematic
;
4-[(4-hydroxyphenyl)methylidene]-3-methyl-1,2-oxazol-5(4H)-one
;
_cell_volume   1928.226
_exptl_crystal_colour 'pale yellow'
_exptl_crystal_density_diffrn 1.4
_exptl_crystal_description 'needle'
_diffrn_ambient_temperature 293
#These two values have been output from a single CSD field.
_refine_ls_R_factor_gt 0.0395
_refine_ls_wR_factor_gt 0.0395
_symmetry_cell_setting monoclinic
_symmetry_space_group_name_H-M 'C 2/c'
_symmetry_Int_Tables_number 15
loop_
_symmetry_equiv_pos_site_id
_symmetry_equiv_pos_as_xyz
1 x,y,z
2 -x,y,1/2-z
3 1/2+x,1/2+y,z
4 1/2-x,1/2+y,1/2-z
5 -x,-y,-z
6 x,-y,-1/2+z
7 -1/2-x,-1/2-y,-z
8 -1/2+x,-1/2-y,-1/2+z
_cell_length_a 21.191(2)
_cell_length_b 7.2352(11)
_cell_length_c 12.9569(14)
_cell_angle_alpha 90
_cell_angle_beta 103.920(11)
_cell_angle_gamma 90
_cell_formula_units_Z 8
loop_
_atom_type_symbol
_atom_type_radius_bond
C 0.68
H 0.23
N 0.68
O 0.68
loop_
_atom_site_label
_atom_site_type_symbol
_atom_site_fract_x
_atom_site_fract_y
_atom_site_fract_z
O1 O 0.62276(5) 0.14571(16) 0.60644(8)
O2 O 0.72284(6) 0.0722(2) 0.69282(8)
O3 O 0.99352(6) -0.2162(2) 0.60528(10)
H1 H 1.0132(11) -0.237(3) 0.5558(16)
N1 N 0.58554(6) 0.16143(18) 0.49783(10)
C1 C 0.68443(8) 0.0886(2) 0.60805(12)
C2 C 0.68735(7) 0.06174(19) 0.49745(11)
C3 C 0.62309(7) 0.11381(19) 0.43784(12)
C4 C 0.59837(9) 0.1192(2) 0.32016(13)
H2 H 0.55827 0.18705 0.30231
H3 H 0.59106 -0.00456 0.29328
H4 H 0.62982 0.17871 0.28903
C5 C 0.73584(7) 0.00370(18) 0.45337(10)
H5 H 0.72387 0.00059 0.37947
C6 C 0.80178(7) -0.05397(19) 0.49675(11)
C7 C 0.83942(7) -0.0968(2) 0.42463(11)
H6 H 0.82074 -0.08829 0.35209
C8 C 0.90318(8) -0.1508(2) 0.45834(12)
H7 H 0.92726 -0.17813 0.40901
C9 C 0.93153(7) -0.1646(2) 0.56651(13)
C10 C 0.89502(8) -0.1264(2) 0.63930(12)
H8 H 0.91386 -0.13691 0.71169
C11 C 0.83143(7) -0.0732(2) 0.60553(11)
H9 H 0.80741 -0.04933 0.65543
#END
