
#######################################################################
#
#                 Cambridge Crystallographic Data Centre
#                                CCDC
#
#######################################################################
#
# If this CIF has been generated from an entry in the Cambridge
# Structural Database, then it will include bibliographic, chemical,
# crystal, experimental, refinement or atomic coordinate data resulting
# from the CCDC's data processing and validation procedures.
#
#######################################################################

data_CSD_CIF_VIDZUG
_audit_creation_date 2018-06-10
_audit_creation_method CSD-ConQuest-V1
_database_code_CSD VIDZUG
_database_code_depnum_ccdc_archive 'CCDC 1817810'
_chemical_formula_sum 'C60 H42 N8 O6'
_chemical_formula_moiety
;
C60 H42 N8 O6
;
_journal_coden_Cambridge 2038
_journal_volume 4
_journal_year 2018
_journal_page_first 1416
_journal_name_full 'Chem Cell mPress '
loop_
_publ_author_name
"Changqing Li"
"Han Wu"
"Tiankai Zhang"
"Yujie Liang"
"Bo Zheng"
"Jiang Xia"
"Jianbin Xu"
"Qian Miao"
_chemical_name_systematic
;
1,1'-{(1,3,12,14-tetramethoxyhexabenzo[a,cd,f,j,lm,o]perylene-5,10-diyl)bis[(e
thane-2,1-diyl)oxy]}bis(1H-[1,2,3]triazolo[4,5-b]pyridine)
;
_cell_volume   2295.581
_exptl_crystal_colour 'orange'
_exptl_crystal_density_diffrn 1.405
_exptl_crystal_description 'block'
_diffrn_ambient_temperature 297
#These two values have been output from a single CSD field.
_refine_ls_R_factor_gt 0.0828
_refine_ls_wR_factor_gt 0.0828
_symmetry_cell_setting triclinic
_symmetry_space_group_name_H-M 'P -1'
_symmetry_Int_Tables_number 2
loop_
_symmetry_equiv_pos_site_id
_symmetry_equiv_pos_as_xyz
1 x,y,z
2 -x,-y,-z
_cell_length_a 8.2291(3)
_cell_length_b 15.9151(7)
_cell_length_c 18.4427(9)
_cell_angle_alpha 106.2595(14)
_cell_angle_beta 97.2479(13)
_cell_angle_gamma 91.4508(13)
_cell_formula_units_Z 2
loop_
_atom_type_symbol
_atom_type_radius_bond
C 0.68
H 0.23
N 0.68
O 0.68
loop_
_atom_site_label
_atom_site_type_symbol
_atom_site_fract_x
_atom_site_fract_y
_atom_site_fract_z
O1 O 0.8032(3) -0.09790(14) 0.29158(13)
O2 O 0.8589(3) -0.10024(14) 0.55053(14)
O3 O 0.8380(5) 0.0442(2) 0.91906(17)
O4 O 0.8428(4) 0.6311(2) 0.96891(16)
O5 O 0.3751(3) 0.57867(13) 0.71202(11)
O6 O 0.1649(2) 0.53925(12) 0.45378(11)
C1 C 0.8778(6) -0.1787(2) 0.2721(2)
H1 H 0.87900 -0.19800 0.21800
H2 H 0.98830 -0.17140 0.29790
H3 H 0.81660 -0.22170 0.28710
C2 C 0.7877(3) -0.05765(18) 0.36607(17)
C3 C 0.8292(4) -0.09839(18) 0.42122(19)
H4 H 0.87100 -0.15360 0.40780
C4 C 0.8108(3) -0.05970(17) 0.49610(17)
C5 C 0.9298(4) -0.1827(2) 0.5297(2)
H5 H 0.95680 -0.20230 0.57410
H6 H 0.85280 -0.22470 0.49310
H7 H 1.02760 -0.17660 0.50770
C6 C 0.7511(4) 0.1089(2) 0.21022(18)
H8 H 0.78800 0.09070 0.16300
C7 C 0.7610(4) 0.0551(2) 0.25706(18)
H9 H 0.80760 0.00150 0.24110
C8 C 0.7029(3) 0.07806(17) 0.32863(15)
C9 C 0.7260(3) 0.02677(17) 0.38343(16)
C10 C 0.6983(3) 0.06388(16) 0.46029(15)
C11 C 0.7413(3) 0.02194(16) 0.51888(16)
C12 C 0.7038(3) 0.06220(16) 0.59661(15)
C13 C 0.7290(4) 0.02338(18) 0.65725(17)
H10 H 0.78350 -0.02820 0.64970
C14 C 0.6765(4) 0.05869(19) 0.72687(17)
C15 C 0.7111(6) 0.0178(2) 0.79184(19)
H11 H 0.76430 -0.03650 0.77470
H12 H 0.60890 0.00460 0.80870
C16 C 0.8230(7) 0.0825(4) 0.8582(3)
H13 H 0.92980 0.09140 0.84350
H14 H 0.77480 0.13870 0.87290
C17 C 1.1431(5) 0.1657(3) 1.0588(2)
C18 C 1.4192(7) 0.1445(4) 1.0447(4)
H15 H 1.53110 0.15760 1.06060
C19 C 1.3650(9) 0.0857(5) 0.9755(4)
H16 H 1.44420 0.06020 0.94590
C20 C 1.2082(7) 0.0617(3) 0.9467(3)
H17 H 1.17490 0.01870 0.90090
C21 C 1.1058(6) 0.1056(3) 0.9906(2)
C22 C 0.6865(4) 0.1898(2) 0.23307(17)
H18 H 0.68320 0.22720 0.20230
C23 C 0.6274(3) 0.21432(18) 0.30160(15)
H19 H 0.58490 0.26910 0.31710
C24 C 0.6291(3) 0.15911(17) 0.34923(14)
C25 C 0.5718(3) 0.18945(15) 0.42296(14)
C26 C 0.6268(3) 0.14869(16) 0.48026(14)
C27 C 0.6143(3) 0.19292(16) 0.55710(14)
C28 C 0.6340(3) 0.14435(17) 0.61328(15)
C29 C 0.5707(4) 0.17596(18) 0.68240(16)
H20 H 0.51370 0.22670 0.69050
C30 C 0.5904(4) 0.1343(2) 0.73789(17)
H21 H 0.54650 0.15640 0.78300
C31 C 0.1462(4) 0.22744(19) 0.27457(16)
H22 H 0.10450 0.18260 0.23130
C32 C 0.2766(3) 0.21512(18) 0.32364(15)
H23 H 0.32280 0.16100 0.31320
C33 C 0.3425(3) 0.28168(16) 0.38930(14)
C34 C 0.4719(3) 0.26190(15) 0.44307(14)
C35 C 0.4920(3) 0.31404(15) 0.51921(14)
C36 C 0.5821(3) 0.28270(16) 0.57625(14)
C37 C 0.6514(3) 0.34738(16) 0.64767(14)
C38 C 0.7953(3) 0.33238(18) 0.69084(15)
H24 H 0.83870 0.27770 0.67700
C39 C 0.8740(4) 0.3964(2) 0.75307(16)
H25 H 0.96860 0.38450 0.78080
C40 C 0.0772(4) 0.3084(2) 0.29079(17)
H26 H -0.00950 0.31830 0.25730
C41 C 0.1357(3) 0.37353(18) 0.35542(16)
H27 H 0.08730 0.42700 0.36490
C42 C 0.2674(3) 0.36228(16) 0.40836(14)
C43 C 0.3156(3) 0.42496(15) 0.48403(14)
C44 C 0.4198(3) 0.39837(15) 0.53990(14)
C45 C 0.4559(3) 0.45229(16) 0.61706(14)
C46 C 0.5902(3) 0.43126(16) 0.66791(14)
C47 C 0.6734(3) 0.49553(18) 0.73162(15)
H28 H 0.63320 0.55110 0.74520
C48 C 0.8118(4) 0.47915(19) 0.77446(15)
C49 C 0.8925(4) 0.5499(2) 0.84358(17)
H29 H 0.89060 0.60640 0.83320
H30 H 1.00600 0.53800 0.85600
C50 C 0.7965(7) 0.5516(3) 0.9117(3)
H31 H 0.67930 0.54760 0.89500
H32 H 0.82290 0.50230 0.93130
C51 C 0.5789(6) 0.6369(3) 1.1038(2)
C52 C 0.3020(8) 0.6660(3) 1.0766(4)
H33 H 0.19840 0.67790 1.09050
C53 C 0.3305(8) 0.6619(4) 1.0032(4)
H34 H 0.24140 0.66670 0.96850
C54 C 0.4742(6) 0.6516(4) 0.9790(3)
H35 H 0.49170 0.65170 0.93020
C55 C 0.5910(6) 0.6413(3) 1.0310(3)
C56 C 0.0904(4) 0.62071(19) 0.47664(18)
H36 H 0.03430 0.63360 0.43250
H37 H 0.01330 0.61690 0.51070
H38 H 0.17350 0.66650 0.50210
C57 C 0.2510(3) 0.50854(16) 0.50772(15)
C58 C 0.2711(3) 0.55568(16) 0.58385(16)
H39 H 0.21880 0.60760 0.59910
C59 C 0.3676(3) 0.52684(17) 0.63743(15)
C60 C 0.2949(6) 0.5395(3) 0.7593(2)
H40 H 0.30520 0.57910 0.80990
H41 H 0.18080 0.52700 0.73900
H42 H 0.34440 0.48600 0.76110
N1 N 0.9384(5) 0.1004(3) 0.97866(19)
N2 N 0.8780(5) 0.1554(3) 1.0343(2)
N3 N 0.9992(5) 0.1946(3) 1.0852(2)
N4 N 1.3095(7) 0.1836(4) 1.0898(3)
N5 N 0.7555(5) 0.6305(3) 1.0272(2)
N6 N 0.8325(6) 0.6151(4) 1.0900(2)
N7 N 0.7281(6) 0.6217(3) 1.1371(2)
N8 N 0.4274(8) 0.6526(3) 1.1295(3)
#END
