
#######################################################################
#
#                 Cambridge Crystallographic Data Centre
#                                CCDC
#
#######################################################################
#
# If this CIF has been generated from an entry in the Cambridge
# Structural Database, then it will include bibliographic, chemical,
# crystal, experimental, refinement or atomic coordinate data resulting
# from the CCDC's data processing and validation procedures.
#
#######################################################################

data_CSD_CIF_VIFBEU
_audit_creation_date 2018-06-10
_audit_creation_method CSD-ConQuest-V1
_database_code_CSD VIFBEU
_database_code_depnum_ccdc_archive 'CCDC 1828891'
_chemical_formula_sum 'C19 H17 N3 O6'
_chemical_formula_moiety
;
C19 H17 N3 O6
;
_journal_coden_Cambridge 2038
_journal_volume 4
_journal_year 2018
_journal_page_first 1427
_journal_name_full 'Chem Cell mPress '
loop_
_publ_author_name
"Jun Pan"
"Xinyao Li"
"Fengguirong Lin"
"Jianzhong Liu"
"Ning Jiao"
_chemical_name_systematic
;
dimethyl 
5-[([1,1'-biphenyl]-4-yl)(nitroso)amino]-2,5-dihydro-1,3-oxazole-4,5-dicarboxy
late
;
_cell_volume   1816.918
_exptl_crystal_density_diffrn 1.401
_diffrn_ambient_temperature 180.0
#These two values have been output from a single CSD field.
_refine_ls_R_factor_gt 0.0466
_refine_ls_wR_factor_gt 0.0466
_symmetry_cell_setting monoclinic
_symmetry_space_group_name_H-M 'P 21/c'
_symmetry_Int_Tables_number 14
loop_
_symmetry_equiv_pos_site_id
_symmetry_equiv_pos_as_xyz
1 x,y,z
2 -x,1/2+y,1/2-z
3 -x,-y,-z
4 x,-1/2-y,-1/2+z
_cell_length_a 18.268(2)
_cell_length_b 7.9937(8)
_cell_length_c 13.0111(12)
_cell_angle_alpha 90
_cell_angle_beta 107.006(11)
_cell_angle_gamma 90
_cell_formula_units_Z 4
loop_
_atom_type_symbol
_atom_type_radius_bond
C 0.68
H 0.23
N 0.68
O 0.68
loop_
_atom_site_label
_atom_site_type_symbol
_atom_site_fract_x
_atom_site_fract_y
_atom_site_fract_z
O1 O 0.34831(8) 0.34703(18) 0.43522(11)
O2 O 0.25364(7) 0.09256(17) 0.37817(10)
O3 O 0.48212(8) -0.16305(19) 0.56736(11)
O4 O 0.32677(9) 0.34652(19) 0.59636(12)
O5 O 0.44421(8) 0.0543(2) 0.64921(11)
N1 N 0.26235(9) 0.0312(2) 0.55890(12)
C1 C 0.32632(10) 0.2799(3) 0.51401(15)
C2 C 0.36750(11) -0.0166(2) 0.47872(15)
N2 N 0.29078(10) -0.1141(2) 0.60555(14)
N3 N 0.35626(10) -0.0846(2) 0.38782(13)
C3 C 0.05651(11) 0.2262(3) 0.59460(15)
O6 O 0.25621(10) -0.1754(2) 0.66384(13)
C4 C 0.05859(11) 0.1537(3) 0.49849(15)
H1 H 0.01290 0.14800 0.44020
C5 C 0.19256(11) 0.1763(3) 0.66595(15)
H2 H 0.23870 0.18500 0.72320
C6 C 0.12477(11) 0.2374(3) 0.67808(15)
H3 H 0.12460 0.28780 0.74420
C7 C 0.19290(11) 0.1027(3) 0.57048(15)
C8 C -0.07115(12) 0.3676(3) 0.52534(17)
H4 H -0.06110 0.38430 0.45850
C9 C 0.12576(11) 0.0897(3) 0.48590(15)
H5 H 0.12610 0.03760 0.42040
C10 C 0.30147(11) 0.0975(3) 0.48440(14)
C11 C -0.01686(11) 0.2880(3) 0.60898(15)
C12 C -0.13973(12) 0.4228(3) 0.53870(19)
H6 H -0.17630 0.47690 0.48110
C13 C 0.28351(12) -0.0290(3) 0.31952(15)
H7 H 0.24790 -0.12480 0.29900
H8 H 0.28980 0.02180 0.25320
C14 C -0.15494(12) 0.3995(3) 0.63520(19)
H9 H -0.20180 0.43840 0.64440
C15 C 0.43842(11) -0.0525(3) 0.56911(16)
C16 C -0.03372(12) 0.2637(3) 0.70592(16)
H10 H 0.00220 0.20820 0.76370
C17 C -0.10214(12) 0.3196(3) 0.71857(18)
H11 H -0.11290 0.30300 0.78500
C18 C 0.37762(15) 0.5160(3) 0.4528(2)
H12 H 0.34660 0.58120 0.48830
H13 H 0.37520 0.56760 0.38350
H14 H 0.43090 0.51360 0.49830
C19 C 0.50743(13) 0.0269(3) 0.74515(17)
H15 H 0.50630 -0.08890 0.76930
H16 H 0.50290 0.10340 0.80190
H17 H 0.55580 0.04780 0.72920
#END
