
#######################################################################
#
#                 Cambridge Crystallographic Data Centre
#                                CCDC
#
#######################################################################
#
# If this CIF has been generated from an entry in the Cambridge
# Structural Database, then it will include bibliographic, chemical,
# crystal, experimental, refinement or atomic coordinate data resulting
# from the CCDC's data processing and validation procedures.
#
#######################################################################

data_CSD_CIF_VIFBER
_audit_creation_date 1991-07-31
_audit_creation_method CSD-ConQuest-V1
_database_code_CSD VIFBER
_chemical_formula_sum 'C9 H6 N2 O2'
_chemical_formula_moiety
;
C9 H6 N2 O2
;
_journal_coden_Cambridge 582
_journal_volume 20
_journal_year 1990
_journal_page_first 551
_journal_name_full 'J.Crystallogr.Spectrosc.Res. '
loop_
_publ_author_name
"N.N.Dhaneshwar"
"S.S.Tavale"
"P.P.Moghe"
_chemical_name_systematic
;
2-(2'-Nitrophenyl)acrylonitrile
;
_cell_volume    839.456
_exptl_crystal_density_diffrn 1.39
_diffrn_ambient_temperature ?
_diffrn_special_details
;
The study was carried out at room temperature,in the range 283-303K

;
#These two values have been output from a single CSD field.
_refine_ls_R_factor_gt 0.034
_refine_ls_wR_factor_gt 0.034
_symmetry_cell_setting monoclinic
_symmetry_space_group_name_H-M 'P 21/c'
_symmetry_Int_Tables_number 14
loop_
_symmetry_equiv_pos_site_id
_symmetry_equiv_pos_as_xyz
1 x,y,z
2 -x,1/2+y,1/2-z
3 -x,-y,-z
4 x,-1/2-y,-1/2+z
_cell_length_a 7.045(1)
_cell_length_b 10.011(1)
_cell_length_c 12.016(1)
_cell_angle_alpha 90
_cell_angle_beta 97.88(1)
_cell_angle_gamma 90
_cell_formula_units_Z 4
loop_
_atom_type_symbol
_atom_type_radius_bond
C 0.68
N 0.68
O 0.68
loop_
_atom_site_label
_atom_site_type_symbol
_atom_site_fract_x
_atom_site_fract_y
_atom_site_fract_z
C1 C 0.2881(3) 0.3569(2) 0.4067(2)
C2 C 0.3164(3) 0.2440(2) 0.3539(2)
C3 C 0.3513(3) 0.4827(2) 0.3689(2)
C4 C 0.2651(3) 0.1115(2) 0.3929(2)
C5 C 0.2105(3) 0.0039(2) 0.3223(2)
C6 C 0.1799(3) -0.1229(2) 0.3602(2)
C7 C 0.1985(3) -0.1456(2) 0.4728(2)
C8 C 0.2482(3) -0.0418(2) 0.5455(2)
C9 C 0.2832(3) 0.0851(2) 0.5067(2)
O1 O 0.1914(3) -0.0727(2) 0.1404(1)
O2 O 0.1279(2) 0.1341(2) 0.1645(1)
N1 N 0.1749(2) 0.0231(2) 0.2004(1)
N2 N 0.4006(3) 0.5830(2) 0.3385(2)
#END
