
#######################################################################
#
#                 Cambridge Crystallographic Data Centre
#                                CCDC
#
#######################################################################
#
# If this CIF has been generated from an entry in the Cambridge
# Structural Database, then it will include bibliographic, chemical,
# crystal, experimental, refinement or atomic coordinate data resulting
# from the CCDC's data processing and validation procedures.
#
#######################################################################

data_CSD_CIF_VIFBIY
_audit_creation_date 2018-06-10
_audit_creation_method CSD-ConQuest-V1
_database_code_CSD VIFBIY
_database_code_depnum_ccdc_archive 'CCDC 1828892'
_chemical_formula_sum 'C12 H11 N3 O5'
_chemical_formula_moiety
;
C12 H11 N3 O5
;
_journal_coden_Cambridge 2038
_journal_volume 4
_journal_year 2018
_journal_page_first 1427
_journal_name_full 'Chem Cell mPress '
loop_
_publ_author_name
"Jun Pan"
"Xinyao Li"
"Fengguirong Lin"
"Jianzhong Liu"
"Ning Jiao"
_chemical_name_systematic
;
dimethyl 2-oxo-1-phenyl-1H-1,2,3-triazole-4,5-dicarboxylate unknown solvate
;
_cell_volume   3809.513
_exptl_crystal_density_diffrn 0.967
_diffrn_ambient_temperature 153
_refine_special_details
;
Disordered solvent molecules were not modelled and the disordered density was 
taken into account using the SQUEEZE/PLATON procedure.
;
#These two values have been output from a single CSD field.
_refine_ls_R_factor_gt 0.0541
_refine_ls_wR_factor_gt 0.0541
_symmetry_cell_setting monoclinic
_symmetry_space_group_name_H-M 'C 2/c'
_symmetry_Int_Tables_number 15
loop_
_symmetry_equiv_pos_site_id
_symmetry_equiv_pos_as_xyz
1 x,y,z
2 -x,y,1/2-z
3 1/2+x,1/2+y,z
4 1/2-x,1/2+y,1/2-z
5 -x,-y,-z
6 x,-y,-1/2+z
7 -1/2-x,-1/2-y,-z
8 -1/2+x,-1/2-y,-1/2+z
_cell_length_a 16.3614(13)
_cell_length_b 9.5344(8)
_cell_length_c 24.478(2)
_cell_angle_alpha 90
_cell_angle_beta 93.926(3)
_cell_angle_gamma 90
_cell_formula_units_Z 8
loop_
_atom_type_symbol
_atom_type_radius_bond
C 0.68
H 0.23
N 0.68
O 0.68
loop_
_atom_site_label
_atom_site_type_symbol
_atom_site_fract_x
_atom_site_fract_y
_atom_site_fract_z
C1 C 0.25211(16) 0.6347(3) 0.56672(10)
H1 H 0.27569 0.66646 0.53454
C2 C 0.17250(16) 0.6696(3) 0.57673(12)
H2 H 0.14125 0.72809 0.55180
C3 C 0.13853(16) 0.6196(3) 0.62270(13)
H3 H 0.08381 0.64379 0.62948
C4 C 0.18388(18) 0.5340(3) 0.65928(13)
H4 H 0.15936 0.49780 0.69040
C5 C 0.26413(17) 0.5010(3) 0.65094(11)
H5 H 0.29591 0.44458 0.67635
C6 C 0.29666(14) 0.5525(2) 0.60458(10)
C7 C 0.44196(14) 0.6140(3) 0.58483(10)
C8 C 0.50550(15) 0.5321(3) 0.57041(11)
C9 C 0.58762(16) 0.5749(3) 0.55490(12)
C10 C 0.67740(19) 0.7665(4) 0.55228(17)
H6 H 0.72255 0.71908 0.57320
H7 H 0.67945 0.86720 0.56027
H8 H 0.68253 0.75163 0.51305
C11 C 0.43110(14) 0.7669(3) 0.5953(1)
C12 C 0.4225(2) 0.9926(3) 0.55825(15)
H9 H 0.36389 1.01055 0.56096
H10 H 0.44167 1.04402 0.52691
H11 H 0.45293 1.02401 0.59190
N1 N 0.38096(12) 0.5233(2) 0.59508(8)
N2 N 0.48479(12) 0.3929(2) 0.5715(1)
N3 N 0.40970(12) 0.3899(2) 0.58592(9)
O1 O 0.41633(15) 0.8102(2) 0.63913(8)
O2 O 0.43566(13) 0.8429(2) 0.55077(8)
O3 O 0.63541(11) 0.4994(2) 0.53420(9)
O4 O 0.59986(12) 0.7096(2) 0.56757(11)
O5 O 0.36620(11) 0.28333(18) 0.59084(8)
#END
