
#######################################################################
#
#                 Cambridge Crystallographic Data Centre
#                                CCDC
#
#######################################################################
#
# If this CIF has been generated from an entry in the Cambridge
# Structural Database, then it will include bibliographic, chemical,
# crystal, experimental, refinement or atomic coordinate data resulting
# from the CCDC's data processing and validation procedures.
#
#######################################################################

data_CSD_CIF_VIFBOE
_audit_creation_date 2018-06-10
_audit_creation_method CSD-ConQuest-V1
_database_code_CSD VIFBOE
_database_code_depnum_ccdc_archive 'CCDC 1828893'
_chemical_formula_sum 'C11 H7 N3 O4'
_chemical_formula_moiety
;
C11 H7 N3 O4
;
_journal_coden_Cambridge 2038
_journal_volume 4
_journal_year 2018
_journal_page_first 1427
_journal_name_full 'Chem Cell mPress '
loop_
_publ_author_name
"Jun Pan"
"Xinyao Li"
"Fengguirong Lin"
"Jianzhong Liu"
"Ning Jiao"
_chemical_name_systematic
;
methyl 9-oxo-9-[1,2]oxazolo[4,5-b]quinoxaline-3-carboxylate
;
_cell_volume   1012.920
_exptl_crystal_density_diffrn 1.608
_diffrn_ambient_temperature 153
#These two values have been output from a single CSD field.
_refine_ls_R_factor_gt 0.0599
_refine_ls_wR_factor_gt 0.0599
_symmetry_cell_setting monoclinic
_symmetry_space_group_name_H-M 'P 21/n'
_symmetry_Int_Tables_number 14
loop_
_symmetry_equiv_pos_site_id
_symmetry_equiv_pos_as_xyz
1 x,y,z
2 1/2-x,1/2+y,1/2-z
3 -x,-y,-z
4 -1/2+x,-1/2-y,-1/2+z
_cell_length_a 4.3536(3)
_cell_length_b 17.0273(11)
_cell_length_c 13.7041(11)
_cell_angle_alpha 90
_cell_angle_beta 94.379(2)
_cell_angle_gamma 90
_cell_formula_units_Z 4
loop_
_atom_type_symbol
_atom_type_radius_bond
C 0.68
H 0.23
N 0.68
O 0.68
loop_
_atom_site_label
_atom_site_type_symbol
_atom_site_fract_x
_atom_site_fract_y
_atom_site_fract_z
C1 C 0.4302(8) 0.6164(2) 0.4764(3)
C2 C 0.3324(9) 0.6031(2) 0.5712(3)
H1 H 0.19114 0.56192 0.58132
C3 C 0.4392(9) 0.6489(2) 0.6483(3)
H2 H 0.37046 0.63937 0.71133
C4 C 0.6503(9) 0.7102(2) 0.6354(3)
H3 H 0.72145 0.74148 0.68992
C5 C 0.7538(9) 0.7252(2) 0.5457(3)
H4 H 0.89531 0.76668 0.53747
C6 C 0.6480(8) 0.6784(2) 0.4656(3)
C7 C 0.6387(8) 0.6466(2) 0.3030(3)
C8 C 0.4240(8) 0.5880(2) 0.3166(3)
C9 C 0.3748(8) 0.5556(2) 0.2182(3)
N1 N 0.5368(7) 0.59208(18) 0.1564(2)
C10 C 0.1703(8) 0.4890(2) 0.1872(3)
C11 C 0.0385(10) 0.3958(2) 0.0648(3)
H5 H 0.06234 0.35248 0.11195
H6 H 0.10308 0.37830 0.00140
H7 H -0.17797 0.41204 0.05747
N2 N 0.7562(7) 0.69297(17) 0.3743(2)
N3 N 0.3136(7) 0.57018(17) 0.4011(2)
O1 O 0.9608(6) 0.74593(15) 0.3605(2)
O2 O 0.7140(6) 0.65140(15) 0.20947(18)
O3 O 0.2291(6) 0.46198(16) 0.1001(2)
O4 O -0.0204(7) 0.46422(16) 0.2379(2)
#END
