
#######################################################################
#
#                 Cambridge Crystallographic Data Centre
#                                CCDC
#
#######################################################################
#
# If this CIF has been generated from an entry in the Cambridge
# Structural Database, then it will include bibliographic, chemical,
# crystal, experimental, refinement or atomic coordinate data resulting
# from the CCDC's data processing and validation procedures.
#
#######################################################################

data_CSD_CIF_VIFDUJ
_audit_creation_date 1991-07-31
_audit_creation_method CSD-ConQuest-V1
_database_code_CSD VIFDUJ
_chemical_formula_sum 'C10 H19 N2 O2'
_chemical_formula_moiety
;
C10 H19 N2 O2
;
_journal_coden_Cambridge 582
_journal_volume 20
_journal_year 1990
_journal_page_first 625
_journal_name_full 'J.Crystallogr.Spectrosc.Res. '
loop_
_publ_author_name
"E.A.V.Rijk"
"G.I.Tesser"
"J.M.M.Smits"
"P.T.Buerskens"
_chemical_name_systematic
;
1-Methyl-1-(4-(1-oxyl-2,2,5,5-tetramethyl-3-imidazolyl))ethanol
;
_cell_volume    580.570
_exptl_crystal_colour 'yellow'
_exptl_crystal_density_diffrn 1.14
_diffrn_ambient_temperature ?
_diffrn_special_details
;
The study was carried out at room temperature,in the range 283-303K

;
#These two values have been output from a single CSD field.
_refine_ls_R_factor_gt 0.047
_refine_ls_wR_factor_gt 0.047
_symmetry_cell_setting monoclinic
_symmetry_space_group_name_H-M 'P n'
_symmetry_Int_Tables_number 7
loop_
_symmetry_equiv_pos_site_id
_symmetry_equiv_pos_as_xyz
1 x,y,z
2 1/2+x,-y,1/2+z
_cell_length_a 6.0746(3)
_cell_length_b 6.7621(2)
_cell_length_c 14.1696(8)
_cell_angle_alpha 90
_cell_angle_beta 94.08(1)
_cell_angle_gamma 90
_cell_formula_units_Z 2
loop_
_atom_type_symbol
_atom_type_radius_bond
C 0.68
H 0.23
N 0.68
O 0.68
loop_
_atom_site_label
_atom_site_type_symbol
_atom_site_fract_x
_atom_site_fract_y
_atom_site_fract_z
O1 O 0.0166(4) -0.6056(2) -0.2459(1)
N1 N -0.0457(3) -0.4854(2) -0.1844(1)
C1 C -0.1360(3) -0.5499(2) -0.0957(1)
C2 C -0.3497(4) -0.6678(3) -0.1199(2)
C3 C 0.0335(4) -0.6740(3) -0.0384(2)
C4 C -0.1775(3) -0.3461(2) -0.0557(1)
N2 N -0.1381(3) -0.2013(2) -0.1090(1)
C5 C -0.0580(3) -0.2680(2) -0.1980(1)
C6 C -0.2194(4) -0.2165(4) -0.2811(2)
C7 C 0.1686(4) -0.1832(4) -0.2120(2)
C8 C -0.2527(3) -0.3088(2) 0.0430(1)
C9 C -0.0583(4) -0.2375(5) 0.1064(2)
C10 C -0.4370(5) -0.1556(5) 0.0387(2)
O2 O -0.3312(4) -0.4898(2) 0.0775(1)
H1 H -0.294(5) -0.798(5) -0.151(2)
H2 H -0.423(7) -0.700(5) -0.058(3)
H3 H -0.46200 -0.59500 -0.16200
H4 H 0.176(4) -0.599(4) -0.019(2)
H5 H -0.004(4) -0.714(4) 0.029(2)
H6 H 0.032(6) -0.792(6) -0.079(3)
H7 H -0.374(6) -0.276(5) -0.273(2)
H8 H -0.231(4) -0.056(4) -0.287(2)
H9 H -0.143(7) -0.276(6) -0.346(3)
H10 H 0.277(5) -0.224(5) -0.161(2)
H11 H 0.224(4) -0.231(4) -0.272(2)
H12 H 0.174(7) -0.034(7) -0.209(3)
H13 H -0.106(4) -0.237(4) 0.168(2)
H14 H -0.024(5) -0.117(5) 0.085(2)
H15 H 0.07700 -0.32200 0.10700
H16 H -0.475(5) -0.129(5) 0.111(2)
H17 H -0.384(5) -0.036(6) 0.011(2)
H18 H -0.572(9) -0.174(7) -0.007(4)
H19 H -0.38400 -0.45700 0.13800
#END
