
#######################################################################
#
#                 Cambridge Crystallographic Data Centre
#                                CCDC
#
#######################################################################
#
# If this CIF has been generated from an entry in the Cambridge
# Structural Database, then it will include bibliographic, chemical,
# crystal, experimental, refinement or atomic coordinate data resulting
# from the CCDC's data processing and validation procedures.
#
#######################################################################

data_CSD_CIF_VIGJUS
_audit_creation_date 2013-05-24
_audit_creation_method CSD-ConQuest-V1
_database_code_CSD VIGJUS
_database_code_depnum_ccdc_archive 'CCDC 860350'
_chemical_formula_sum 'C10 H9 N1 O5'
_chemical_formula_moiety
;
C10 H9 N1 O5
;
_journal_coden_Cambridge 1003
_journal_volume 43
_journal_year 2013
_journal_page_first 6
_journal_name_full 'J.Chem.Cryst. '
loop_
_publ_author_name
"A.M.Daniels"
"M.A.Supinski"
"D.P.Kennedy"
"W.D.Robinson"
"E.J.Valente"
_chemical_name_systematic
;
2-Hydroxy-4,5-dimethoxy-1H-isoindole-1,3(2H)-dione
;
_cell_volume    973.617
_exptl_crystal_colour 'colorless'
_exptl_crystal_density_diffrn 1.523
_exptl_crystal_description 'needle'
_diffrn_ambient_temperature 298
#These two values have been output from a single CSD field.
_refine_ls_R_factor_gt 0.0339
_refine_ls_wR_factor_gt 0.0339
_symmetry_cell_setting orthorhombic
_symmetry_space_group_name_H-M 'P 21 21 21'
_symmetry_Int_Tables_number 19
loop_
_symmetry_equiv_pos_site_id
_symmetry_equiv_pos_as_xyz
1 x,y,z
2 1/2-x,-y,1/2+z
3 1/2+x,1/2-y,-z
4 -x,1/2+y,1/2-z
_cell_length_a 3.9579(3)
_cell_length_b 15.5058(11)
_cell_length_c 15.8646(14)
_cell_angle_alpha 90
_cell_angle_beta 90
_cell_angle_gamma 90
_cell_formula_units_Z 4
loop_
_atom_type_symbol
_atom_type_radius_bond
C 0.68
H 0.23
N 0.68
O 0.68
loop_
_atom_site_label
_atom_site_type_symbol
_atom_site_fract_x
_atom_site_fract_y
_atom_site_fract_z
C1 C 0.3488(7) 0.2149(2) 0.1917(2)
C2 C 0.6193(6) 0.32897(19) 0.1209(2)
C3 C 0.3086(6) 0.29474(17) 0.24248(18)
C4 C 0.1562(6) 0.30853(17) 0.31875(18)
C5 C 0.1639(6) 0.39368(18) 0.35126(18)
C6 C 0.3134(6) 0.45990(17) 0.30686(18)
H1 H 0.31060 0.51560 0.32870
C7 C 0.4679(7) 0.44414(17) 0.22990(18)
H2 H 0.56920 0.48870 0.19990
C8 C 0.4685(6) 0.36169(16) 0.19881(17)
C9 C 0.1596(6) 0.18543(19) 0.4054(2)
H3 H 0.33620 0.16300 0.37020
H4 H 0.00910 0.13960 0.42090
H5 H 0.25670 0.21020 0.45530
C10 C 0.0119(7) 0.48728(15) 0.46376(17)
H6 H 0.23980 0.50610 0.47320
H7 H -0.10790 0.48620 0.51640
H8 H -0.09830 0.52630 0.42570
N1 N 0.5233(6) 0.24261(14) 0.12033(16)
O1 O 0.2610(5) 0.14188(12) 0.20405(13)
O2 O 0.6600(5) 0.18598(13) 0.06292(14)
H9 H 0.54440 0.18570 0.02000
O3 O 0.7885(4) 0.36400(11) 0.06774(13)
O4 O -0.0169(5) 0.24779(12) 0.36214(13)
O5 O 0.0151(4) 0.40229(10) 0.42785(13)
#END
