
#######################################################################
#
#                 Cambridge Crystallographic Data Centre
#                                CCDC
#
#######################################################################
#
# If this CIF has been generated from an entry in the Cambridge
# Structural Database, then it will include bibliographic, chemical,
# crystal, experimental, refinement or atomic coordinate data resulting
# from the CCDC's data processing and validation procedures.
#
#######################################################################

data_CSD_CIF_VIGWOY
_audit_creation_date 2007-10-23
_audit_creation_method CSD-ConQuest-V1
_database_code_CSD VIGWOY
_database_code_depnum_ccdc_archive 'CCDC 643474'
_chemical_formula_sum 'C23 H20 N2 O9'
_chemical_formula_moiety
;
C23 H20 N2 O9
;
_journal_coden_Cambridge 179
_journal_volume 46
_journal_year 2007
_journal_page_first 4708
_journal_name_full 'Angew.Chem.,Int.Ed. '
loop_
_publ_author_name
"K.C.Nicolaou"
"D.Sarlah"
"D.M.Shaw"
_chemical_name_systematic
;
4-(2-(Benzyloxy)ethyl)-3-ethynyl-4-methyl-2-oxotetrahydrofuran-3-yl 
3,5-dinitrobenzoate
;
_chemical_melting_point 432.15
_cell_volume   2224.334
_exptl_crystal_colour 'colorless'
_exptl_crystal_density_diffrn 1.399
_exptl_special_details
;
Melting point range 432.15-433.15K

;
_exptl_crystal_description 'Parallelepiped'
_exptl_crystal_preparation 'toluene'
_diffrn_ambient_temperature 296
#These two values have been output from a single CSD field.
_refine_ls_R_factor_gt 0.045
_refine_ls_wR_factor_gt 0.045
_symmetry_cell_setting orthorhombic
_symmetry_space_group_name_H-M 'P 21 21 21'
_symmetry_Int_Tables_number 19
loop_
_symmetry_equiv_pos_site_id
_symmetry_equiv_pos_as_xyz
1 x,y,z
2 1/2-x,-y,1/2+z
3 -x,1/2+y,1/2-z
4 1/2+x,1/2-y,-z
_cell_length_a 7.1676(14)
_cell_length_b 14.586(3)
_cell_length_c 21.276(4)
_cell_angle_alpha 90
_cell_angle_beta 90
_cell_angle_gamma 90
_cell_formula_units_Z 4
loop_
_atom_type_symbol
_atom_type_radius_bond
C 0.68
H 0.23
N 0.68
O 0.68
loop_
_atom_site_label
_atom_site_type_symbol
_atom_site_fract_x
_atom_site_fract_y
_atom_site_fract_z
O1 O -0.1311(4) 0.42638(16) 0.61835(9)
O2 O -0.1635(4) 0.29917(15) 0.56823(9)
O3 O 0.1034(5) 0.69293(14) 0.51050(11)
O4 O 0.1688(4) 0.68528(14) 0.41238(11)
O5 O -0.0635(3) 0.29068(13) 0.33899(8)
O6 O 0.1486(2) 0.39229(11) 0.30425(7)
O7 O 0.2865(3) 0.50612(13) 0.21376(9)
O8 O 0.3632(2) 0.38161(11) 0.15883(8)
O9 O 0.2948(3) 0.08736(11) 0.15821(8)
N1 N -0.1174(4) 0.38020(17) 0.57142(10)
N2 N 0.1157(4) 0.65145(16) 0.46141(12)
C1 C -0.0395(4) 0.37319(17) 0.45941(11)
H1 H -0.07810 0.31230 0.45910
C2 C -0.0475(4) 0.42363(18) 0.51388(11)
C3 C 0.0043(4) 0.51460(18) 0.51606(11)
H2 H -0.00230 0.54810 0.55320
C4 C 0.0663(4) 0.55380(16) 0.46101(11)
C5 C 0.0797(3) 0.50562(17) 0.40544(10)
H3 H 0.12330 0.53380 0.36910
C6 C 0.0263(3) 0.41358(16) 0.40509(10)
C7 C 0.0298(4) 0.35700(17) 0.34669(11)
C8 C 0.1530(3) 0.35657(16) 0.24104(10)
C9 C 0.2729(3) 0.42606(17) 0.20478(11)
C10 C 0.3223(4) 0.28375(15) 0.16228(11)
H4 H 0.43250 0.24800 0.15220
H5 H 0.22380 0.26760 0.13300
C11 C 0.2602(3) 0.26566(16) 0.23009(10)
C12 C -0.0334(4) 0.36034(16) 0.21230(11)
C13 C -0.1746(4) 0.3701(2) 0.18484(13)
H6 H -0.28610 0.37790 0.16310
C14 C 0.4295(4) 0.26357(19) 0.27344(12)
H7 H 0.38920 0.25320 0.31590
H8 H 0.49400 0.32110 0.27100
H9 H 0.51170 0.21510 0.26070
C15 C 0.1398(4) 0.17899(16) 0.23577(12)
H10 H 0.08940 0.17620 0.27800
H11 H 0.03540 0.18440 0.20700
C16 C 0.2400(4) 0.09008(17) 0.22231(12)
H12 H 0.34920 0.08510 0.24900
H13 H 0.15830 0.03880 0.23140
C17 C 0.4054(4) 0.01013(17) 0.14469(11)
H14 H 0.34090 -0.04490 0.15820
H15 H 0.52180 0.01410 0.16780
C18 C 0.4459(3) 0.00414(17) 0.07546(11)
C19 C 0.4323(4) 0.07899(17) 0.03625(12)
H16 H 0.39490 0.13520 0.05270
C20 C 0.4733(4) 0.0721(2) -0.02702(13)
H17 H 0.46310 0.12320 -0.05290
C21 C 0.5293(4) -0.0103(2) -0.05153(13)
H18 H 0.55650 -0.01540 -0.09410
C22 C 0.5448(4) -0.0854(2) -0.01297(15)
H19 H 0.58490 -0.14100 -0.02950
C23 C 0.5018(4) -0.07899(18) 0.04977(13)
H20 H 0.51020 -0.13060 0.07520
#END
