
#######################################################################
#
#                 Cambridge Crystallographic Data Centre
#                                CCDC
#
#######################################################################
#
# If this CIF has been generated from an entry in the Cambridge
# Structural Database, then it will include bibliographic, chemical,
# crystal, experimental, refinement or atomic coordinate data resulting
# from the CCDC's data processing and validation procedures.
#
#######################################################################

data_CSD_CIF_VIHGAU
_audit_creation_date 1991-08-16
_audit_creation_method CSD-ConQuest-V1
_database_code_CSD VIHGAU
_chemical_formula_sum 'C13 H10 N4 O6'
_chemical_formula_moiety
;
C13 H10 N4 O6
;
_journal_coden_Cambridge 582
_journal_volume 20
_journal_year 1990
_journal_page_first 499
_journal_name_full 'J.Crystallogr.Spectrosc.Res. '
loop_
_publ_author_name
"L.Forlani"
"L.P.Battaglia"
"A.Bonamartini Corradi"
"G.Pelosi"
_chemical_name_systematic
;
2,4,6-Trinitro-N-methyl-diphenylamine
;
_cell_volume   1377.302
_exptl_crystal_density_diffrn 1.535
_diffrn_ambient_temperature ?
_diffrn_special_details
;
The study was carried out at room temperature,in the range 283-303K

;
#These two values have been output from a single CSD field.
_refine_ls_R_factor_gt 0.0413
_refine_ls_wR_factor_gt 0.0413
_symmetry_cell_setting monoclinic
_symmetry_space_group_name_H-M 'P 21/c'
_symmetry_Int_Tables_number 14
loop_
_symmetry_equiv_pos_site_id
_symmetry_equiv_pos_as_xyz
1 x,y,z
2 -x,1/2+y,1/2-z
3 -x,-y,-z
4 x,-1/2-y,-1/2+z
_cell_length_a 12.654(5)
_cell_length_b 7.371(1)
_cell_length_c 15.083(4)
_cell_angle_alpha 90
_cell_angle_beta 101.76(2)
_cell_angle_gamma 90
_cell_formula_units_Z 4
loop_
_atom_type_symbol
_atom_type_radius_bond
C 0.68
H 0.23
N 0.68
O 0.68
loop_
_atom_site_label
_atom_site_type_symbol
_atom_site_fract_x
_atom_site_fract_y
_atom_site_fract_z
O1 O 0.1548(2) -0.1621(3) 0.2533(2)
O2 O -0.0001(2) -0.0398(3) 0.2455(2)
O3 O -0.0025(2) 0.2306(3) 0.5427(1)
O4 O 0.1033(2) 0.4605(3) 0.5792(1)
O5 O 0.3663(2) 0.6051(3) 0.3961(2)
O6 O 0.4459(2) 0.3598(3) 0.3676(2)
N1 N 0.2891(1) 0.1529(2) 0.2501(1)
N2 N 0.0970(2) -0.0452(3) 0.2728(1)
N3 N 0.0719(2) 0.3297(3) 0.5325(1)
N4 N 0.3674(2) 0.4430(3) 0.3805(1)
C1 C 0.2364(2) 0.1957(3) 0.3208(1)
C2 C 0.1449(2) 0.1019(3) 0.3339(1)
C3 C 0.0896(2) 0.1444(3) 0.4014(2)
C4 C 0.1262(2) 0.2859(3) 0.4580(1)
C5 C 0.2139(2) 0.3886(3) 0.4484(2)
C6 C 0.2679(2) 0.3405(3) 0.3814(2)
C7 C 0.3035(2) 0.2884(3) 0.1878(1)
C8 C 0.2364(2) 0.4393(3) 0.1726(2)
C9 C 0.2487(2) 0.5681(4) 0.1085(2)
C10 C 0.3272(2) 0.5481(4) 0.0578(2)
C11 C 0.3934(2) 0.3978(4) 0.0724(2)
C12 C 0.3833(2) 0.2688(4) 0.1367(2)
C13 C 0.3637(3) -0.0017(4) 0.2650(2)
H1 H 0.4328(24) 0.0477(38) 0.2814(19)
H2 H 0.0285(21) 0.0770(33) 0.4074(16)
H3 H 0.1812(23) 0.4501(37) 0.2066(19)
H4 H 0.4291(20) 0.1559(34) 0.1490(17)
H5 H 0.2382(18) 0.4896(33) 0.4896(17)
H6 H 0.3505(25) -0.0726(45) 0.2005(24)
H7 H 0.4513(19) 0.3808(31) 0.0373(17)
H8 H 0.1973(22) 0.6809(39) 0.1018(19)
H9 H 0.3304(24) 0.6440(42) 0.0105(22)
H10 H 0.3384(26) -0.0862(46) 0.3058(23)
#END
