
#######################################################################
#
#                 Cambridge Crystallographic Data Centre
#                                CCDC
#
#######################################################################
#
# If this CIF has been generated from an entry in the Cambridge
# Structural Database, then it will include bibliographic, chemical,
# crystal, experimental, refinement or atomic coordinate data resulting
# from the CCDC's data processing and validation procedures.
#
#######################################################################

data_CSD_CIF_VIJWEQ
_audit_creation_date 2001-03-19
_audit_creation_method CSD-ConQuest-V1
_database_code_CSD VIJWEQ
_database_code_depnum_ccdc_archive 'CCDC 116292'
_chemical_formula_sum 'C18 H11 N3 O2'
_chemical_formula_moiety
;
C18 H11 N3 O2
;
_journal_coden_Cambridge 392
_journal_volume 50
_journal_year 1999
_journal_page_first 895
_journal_name_full 'Heterocycles '
loop_
_publ_author_name
"S.Mataka"
"H.Gorohmaru"
"T.Thiemann"
"T.Sawada"
"K.Takahashi"
"A.Tori-i"
_chemical_name_systematic
;
4-Phenyl-6H-indeno(2,1-b)(1,2,5)oxadiazolo(3,4-d)pyridin-6-ol
;
_chemical_melting_point 431.15
_cell_volume   1361.461
_exptl_crystal_colour 'red'
_exptl_crystal_density_diffrn 1.47
_exptl_special_details
;
Melts with decomposition.
fluorescent
stable red polymorph

;
_exptl_crystal_description 'prism'
_exptl_crystal_preparation 'dichloromethane'
_diffrn_ambient_temperature ?
_diffrn_special_details
;
The study was carried out at room temperature,in the range 283-303K

;
#These two values have been output from a single CSD field.
_refine_ls_R_factor_gt 0.0578
_refine_ls_wR_factor_gt 0.0578
_symmetry_cell_setting monoclinic
_symmetry_space_group_name_H-M 'P 21/n'
_symmetry_Int_Tables_number 14
loop_
_symmetry_equiv_pos_site_id
_symmetry_equiv_pos_as_xyz
1 x,y,z
2 1/2-x,1/2+y,1/2-z
3 -x,-y,-z
4 -1/2+x,-1/2-y,-1/2+z
_cell_length_a 25.017(4)
_cell_length_b 9.008(1)
_cell_length_c 6.042(2)
_cell_angle_alpha 90
_cell_angle_beta 90.77(2)
_cell_angle_gamma 90
_cell_formula_units_Z 4
loop_
_atom_type_symbol
_atom_type_radius_bond
C 0.68
H 0.23
N 0.68
O 0.68
loop_
_atom_site_label
_atom_site_type_symbol
_atom_site_fract_x
_atom_site_fract_y
_atom_site_fract_z
C1 C 0.39277(11) 0.7097(3) -0.1189(5)
C2 C 0.38903(11) 0.6129(3) 0.0735(5)
C3 C 0.47750(11) 0.6747(3) 0.1539(5)
C4 C 0.52724(11) 0.6729(3) 0.2991(5)
H1 H 0.52002(11) 0.7250(3) 0.4378(5)
C5 C 0.56613(11) 0.7632(3) 0.1637(5)
C6 C 0.61871(12) 0.7967(4) 0.2046(6)
H2 H 0.63566(12) 0.7635(4) 0.3333(6)
C7 C 0.64643(13) 0.8808(4) 0.0514(6)
H3 H 0.68243(13) 0.9018(4) 0.0758(6)
C8 C 0.62091(13) 0.9336(4) -0.1373(6)
H4 H 0.63994(13) 0.9903(4) -0.2379(6)
C9 C 0.54058(11) 0.8183(3) -0.0279(5)
C10 C 0.56798(13) 0.9034(4) -0.1782(5)
H5 H 0.55091(13) 0.9397(4) -0.3047(5)
C11 C 0.44122(12) 0.7829(3) -0.1704(5)
C12 C 0.48604(11) 0.7636(3) -0.0277(5)
C13 C 0.34014(11) 0.5297(3) 0.1220(5)
C14 C 0.29925(13) 0.5104(5) -0.0338(6)
H6 H 0.30240(13) 0.5540(5) -0.1726(6)
C15 C 0.25456(14) 0.4292(5) 0.0119(7)
H7 H 0.22810(14) 0.4173(5) -0.0963(7)
C16 C 0.24847(13) 0.3652(4) 0.2149(6)
H8 H 0.21814(13) 0.3098(4) 0.2462(6)
C17 C 0.28778(14) 0.3844(5) 0.3707(7)
H9 H 0.28389(14) 0.3416(5) 0.5096(7)
C18 C 0.33299(13) 0.4654(4) 0.3275(6)
H10 H 0.35903(13) 0.4771(4) 0.4374(6)
N1 N 0.43501(11) 0.8625(3) -0.3529(4)
N2 N 0.3563(1) 0.7462(3) -0.2682(5)
N3 N 0.43144(9) 0.6011(3) 0.2036(4)
O1 O 0.38242(9) 0.8388(3) -0.4126(4)
O2 O 0.54633(8) 0.5280(2) 0.3473(3)
H11 H 0.54019(8) 0.5094(2) 0.5193(3)
#END
