
#######################################################################
#
#                 Cambridge Crystallographic Data Centre
#                                CCDC
#
#######################################################################
#
# If this CIF has been generated from an entry in the Cambridge
# Structural Database, then it will include bibliographic, chemical,
# crystal, experimental, refinement or atomic coordinate data resulting
# from the CCDC's data processing and validation procedures.
#
#######################################################################

data_CSD_CIF_VIKWER
_audit_creation_date 1991-09-04
_audit_creation_method CSD-ConQuest-V1
_database_code_CSD VIKWER
_chemical_formula_sum 'C10 H16 N2 O4'
_chemical_formula_moiety
;
C10 H16 N2 O4
;
_journal_coden_Cambridge 1094
_journal_volume 1
_journal_year 1990
_journal_page_first 491
_journal_name_full 'Struct.Chem. '
loop_
_publ_author_name
"P.E.O'Bannon"
"P.J.Carroll"
"W.P.Dailey"
_chemical_name_systematic
;
trans,trans,trans,trans-2,2',3,3'-Tetramethyl-1,1'-dinitrobicyclopropyl
;
_chemical_melting_point 422.15
_cell_volume   1177.629
_exptl_crystal_density_diffrn 1.287
_exptl_special_details
;
Melting point range 422.15-423.15K

;
_diffrn_ambient_temperature ?
_diffrn_special_details
;
The study was carried out at room temperature,in the range 283-303K

;
#These two values have been output from a single CSD field.
_refine_ls_R_factor_gt 0.066
_refine_ls_wR_factor_gt 0.066
_symmetry_cell_setting orthorhombic
_symmetry_space_group_name_H-M 'P b c n'
_symmetry_Int_Tables_number 60
loop_
_symmetry_equiv_pos_site_id
_symmetry_equiv_pos_as_xyz
1 x,y,z
2 1/2-x,1/2+y,z
3 x,-y,1/2+z
4 1/2-x,1/2-y,1/2+z
5 -x,-y,-z
6 -1/2+x,-1/2-y,-z
7 -x,y,-1/2-z
8 -1/2+x,-1/2+y,-1/2-z
_cell_length_a 6.674(1)
_cell_length_b 10.493(3)
_cell_length_c 16.816(3)
_cell_angle_alpha 90
_cell_angle_beta 90
_cell_angle_gamma 90
_cell_formula_units_Z 4
loop_
_atom_type_symbol
_atom_type_radius_bond
C 0.68
H 0.23
N 0.68
O 0.68
loop_
_atom_site_label
_atom_site_type_symbol
_atom_site_fract_x
_atom_site_fract_y
_atom_site_fract_z
C1 C 0.5334(4) 0.5905(2) 0.2078(1)
C2 C 0.5469(4) 0.7134(2) 0.1594(1)
C3 C 0.7337(4) 0.6464(2) 0.1838(1)
C4 C 0.4785(5) 0.7247(3) 0.0749(2)
C5 C 0.8832(5) 0.5924(3) 0.1270(2)
N1 N 0.4533(4) 0.4770(2) 0.1656(1)
O1 O 0.3210(3) 0.4176(2) 0.1978(1)
O2 O 0.5248(5) 0.4468(2) 0.1022(1)
H1 H 0.497(6) 0.786(3) 0.185(3)
H2 H 0.798(6) 0.685(3) 0.234(2)
H3 H 0.533(5) 0.786(3) 0.049(2)
H4 H 0.982(6) 0.529(4) 0.149(2)
H5 H 0.355(5) 0.741(3) 0.072(3)
H6 H 0.531(5) 0.655(3) 0.045(2)
H7 H 0.965(6) 0.674(3) 0.104(2)
H8 H 0.814(6) 0.555(3) 0.078(2)
C1F C 0.4666(4) 0.5905(2) 0.2922(1)
C2F C 0.4531(4) 0.7134(2) 0.3406(1)
C3F C 0.2663(4) 0.6464(2) 0.3162(1)
N1F N 0.5467(4) 0.4770(2) 0.3344(1)
C4F C 0.5215(5) 0.7247(3) 0.4251(2)
H1F H 0.503(6) 0.786(3) 0.315(3)
C5F C 0.1168(5) 0.5924(3) 0.3730(2)
H2F H 0.202(6) 0.685(3) 0.266(2)
O1F O 0.6790(3) 0.4176(2) 0.3022(1)
O2F O 0.4752(5) 0.4468(2) 0.3978(1)
H3F H 0.467(5) 0.786(3) 0.451(2)
H5F H 0.645(5) 0.741(3) 0.428(3)
H6F H 0.469(5) 0.655(3) 0.455(2)
H4F H 0.018(6) 0.529(4) 0.351(2)
H7F H 0.035(6) 0.674(3) 0.396(2)
H8F H 0.186(6) 0.555(3) 0.422(2)
#END
