
#######################################################################
#
#                 Cambridge Crystallographic Data Centre
#                                CCDC
#
#######################################################################
#
# If this CIF has been generated from an entry in the Cambridge
# Structural Database, then it will include bibliographic, chemical,
# crystal, experimental, refinement or atomic coordinate data resulting
# from the CCDC's data processing and validation procedures.
#
#######################################################################

data_CSD_CIF_VIKWAN
_audit_creation_date 1991-09-04
_audit_creation_method CSD-ConQuest-V1
_database_code_CSD VIKWAN
_chemical_formula_sum 'C8 H14 N2 O3'
_chemical_formula_moiety
;
C8 H14 N2 O3
;
_journal_coden_Cambridge 1094
_journal_volume 1
_journal_year 1990
_journal_page_first 491
_journal_name_full 'Struct.Chem. '
loop_
_publ_author_name
"P.E.O'Bannon"
"P.J.Carroll"
"W.P.Dailey"
_chemical_name_systematic
;
2,2,3,3-Tetramethyl-1-nitrocyclopropanecarboxamide
;
_chemical_melting_point 396.15
_cell_volume    955.932
_exptl_crystal_density_diffrn 1.294
_exptl_special_details
;
Melting point range 396.15-398.15K

;
_diffrn_ambient_temperature ?
_diffrn_special_details
;
The study was carried out at room temperature,in the range 283-303K

;
#These two values have been output from a single CSD field.
_refine_ls_R_factor_gt 0.069
_refine_ls_wR_factor_gt 0.069
_symmetry_cell_setting monoclinic
_symmetry_space_group_name_H-M 'P 21/n'
_symmetry_Int_Tables_number 14
loop_
_symmetry_equiv_pos_site_id
_symmetry_equiv_pos_as_xyz
1 x,y,z
2 1/2-x,1/2+y,1/2-z
3 -x,-y,-z
4 -1/2+x,-1/2-y,-1/2+z
_cell_length_a 10.011(2)
_cell_length_b 9.314(1)
_cell_length_c 10.316(2)
_cell_angle_alpha 90
_cell_angle_beta 96.38(1)
_cell_angle_gamma 90
_cell_formula_units_Z 4
loop_
_atom_type_symbol
_atom_type_radius_bond
C 0.68
H 0.23
N 0.68
O 0.68
loop_
_atom_site_label
_atom_site_type_symbol
_atom_site_fract_x
_atom_site_fract_y
_atom_site_fract_z
C1 C 0.6801(2) 0.2656(2) 0.9138(2)
C2 C 0.7075(3) 0.3314(3) 1.0480(2)
C3 C 0.8003(2) 0.2154(3) 1.0045(2)
C4 C 0.6960(3) 0.3463(3) 0.7883(3)
C5 C 0.6175(3) 0.2951(4) 1.1519(3)
C6 C 0.7568(3) 0.4854(3) 1.0602(3)
C7 C 0.8034(3) 0.0692(3) 1.0682(3)
C8 C 0.9373(3) 0.2584(4) 0.9684(3)
N1 N 0.5595(2) 0.1714(2) 0.8861(2)
N2 N 0.7536(3) 0.2713(2) 0.7007(2)
O1 O 0.4501(2) 0.2247(3) 0.8913(4)
O2 O 0.5723(2) 0.0482(2) 0.8603(3)
O3 O 0.6553(2) 0.4698(2) 0.7712(2)
H1 H 0.677(4) 0.294(4) 1.241(4)
H2 H 0.583(3) 0.200(4) 1.148(3)
H3 H 0.551(3) 0.368(4) 1.151(3)
H4 H 0.810(3) 0.510(4) 0.991(3)
H5 H 0.678(4) 0.551(4) 1.061(4)
H6 H 0.805(4) 0.493(5) 1.144(4)
H7 H 0.843(3) 0.003(4) 1.012(3)
H8 H 0.709(3) 0.033(3) 1.081(3)
H9 H 0.859(4) 0.075(4) 1.150(4)
H10 H 0.936(3) 0.351(4) 0.924(3)
H11 H 0.974(3) 0.181(4) 0.913(3)
H12 H 0.999(4) 0.267(4) 1.053(4)
H13 H 0.777(3) 0.181(4) 0.715(3)
H14 H 0.774(3) 0.310(3) 0.632(3)
#END
