
#######################################################################
#
#                 Cambridge Crystallographic Data Centre
#                                CCDC
#
#######################################################################
#
# If this CIF has been generated from an entry in the Cambridge
# Structural Database, then it will include bibliographic, chemical,
# crystal, experimental, refinement or atomic coordinate data resulting
# from the CCDC's data processing and validation procedures.
#
#######################################################################

data_CSD_CIF_VIKYUJ
_audit_creation_date 1991-09-04
_audit_creation_method CSD-ConQuest-V1
_database_code_CSD VIKYUJ
_chemical_formula_sum 'C11 H10 N4 O8'
_chemical_formula_moiety
;
C11 H10 N4 O8
;
_journal_coeditor_code "IUCr HH0428"
_journal_coden_Cambridge 591
_journal_volume 47
_journal_year 1991
_journal_page_first 813
_journal_name_full 'Acta Crystallogr.,Sect.C:Cryst.Struct.Commun. '
loop_
_publ_author_name
"J.L.Flippen-Anderson"
"C.George"
"R.Gilardi"
"W.W.Zajac Junior"
"T.R.Walters"
"A.Marchand"
"P.R.Dave"
"B.E.Arney Junior"
_chemical_name_systematic
;
8,8,11,11-Tetranitropentacyclo(5.4.0.0^2,6^.0^3,10^.0^5,9^)undecane
;
_cell_volume   1253.421
_exptl_crystal_density_diffrn 1.73
_diffrn_ambient_temperature ?
_diffrn_special_details
;
The study was carried out at room temperature,in the range 283-303K

;
#These two values have been output from a single CSD field.
_refine_ls_R_factor_gt 0.044
_refine_ls_wR_factor_gt 0.044
_symmetry_cell_setting monoclinic
_symmetry_space_group_name_H-M 'P 21/n'
_symmetry_Int_Tables_number 14
loop_
_symmetry_equiv_pos_site_id
_symmetry_equiv_pos_as_xyz
1 x,y,z
2 1/2-x,1/2+y,1/2-z
3 -x,-y,-z
4 -1/2+x,-1/2-y,-1/2+z
_cell_length_a 8.602(2)
_cell_length_b 13.773(3)
_cell_length_c 10.734(2)
_cell_angle_alpha 90
_cell_angle_beta 99.73(3)
_cell_angle_gamma 90
_cell_formula_units_Z 4
loop_
_atom_type_symbol
_atom_type_radius_bond
C 0.68
H 0.23
N 0.68
O 0.68
loop_
_atom_site_label
_atom_site_type_symbol
_atom_site_fract_x
_atom_site_fract_y
_atom_site_fract_z
C1 C -0.0981(4) 0.3424(2) 0.3261(3)
C2 C -0.0449(4) 0.2455(2) 0.2716(3)
C3 C -0.0816(4) 0.2522(2) 0.1256(3)
C4 C 0.0721(4) 0.2264(2) 0.0832(3)
C5 C 0.1696(4) 0.2994(2) 0.1689(3)
C6 C 0.1296(4) 0.2787(2) 0.3015(3)
C7 C 0.0774(4) 0.3761(2) 0.3566(3)
C8 C 0.1262(3) 0.4481(2) 0.2649(3)
C9 C 0.0821(3) 0.3972(2) 0.1381(3)
C10 C -0.0968(3) 0.3644(2) 0.1067(3)
C11 C -0.1926(3) 0.3886(2) 0.2092(3)
N1 N -0.2443(3) 0.4929(2) 0.2202(3)
O1 O -0.2882(4) 0.5364(2) 0.1210(3)
O2 O -0.2464(3) 0.5248(2) 0.3244(2)
N2 N -0.3563(3) 0.3382(2) 0.1765(3)
O3 O -0.4090(3) 0.3018(2) 0.2624(2)
O4 O -0.4212(3) 0.3396(2) 0.0675(3)
N3 N 0.0761(3) 0.5532(2) 0.2744(3)
O5 O 0.0321(4) 0.5969(2) 0.1770(2)
O6 O 0.0855(3) 0.5871(2) 0.3788(2)
N4 N 0.3075(3) 0.4622(2) 0.2923(3)
O7 O 0.3798(3) 0.4310(2) 0.3910(3)
O8 O 0.3645(3) 0.5059(2) 0.2122(3)
H1 H -0.1505(35) 0.3395(21) 0.3930(28)
H2 H -0.0731(36) 0.1884(22) 0.3054(27)
H3 H -0.1728(35) 0.2154(20) 0.0871(26)
H4 H 0.0673(37) 0.2423(21) -0.0091(31)
H5 H 0.1036(36) 0.1573(23) 0.1045(27)
H6 H 0.2772(39) 0.3014(21) 0.1647(26)
H7 H 0.1150(34) 0.3885(20) 0.4406(28)
H8 H 0.1143(33) 0.4315(20) 0.0746(27)
H9 H -0.1470(33) 0.3871(19) 0.0236(27)
H10 H 0.2017(35) 0.2379(21) 0.3508(26)
#END
