
#######################################################################
#
#                 Cambridge Crystallographic Data Centre
#                                CCDC
#
#######################################################################
#
# If this CIF has been generated from an entry in the Cambridge
# Structural Database, then it will include bibliographic, chemical,
# crystal, experimental, refinement or atomic coordinate data resulting
# from the CCDC's data processing and validation procedures.
#
#######################################################################

data_CSD_CIF_VIMCID
_audit_creation_date 1991-10-31
_audit_creation_method CSD-ConQuest-V1
_database_code_CSD VIMCID
_chemical_formula_sum 'C12 H21 N1 O1'
_chemical_formula_moiety
;
C12 H21 N1 O1
;
_journal_coden_Cambridge 35
_journal_volume 56
_journal_year 1991
_journal_page_first 561
_journal_name_full 'J.Org.Chem. '
loop_
_publ_author_name
"D.I.Schuster"
"N.Kaprinidis"
"D.J.Wink"
"J.C.Dewan"
_chemical_name_systematic
;
2-Hydroxyimino-7,7,8,8-tetramethylbicyclo(4.2.0)octane
;
_chemical_melting_point 437.15
_cell_volume   1194.971
_exptl_crystal_colour 'colorless'
_exptl_crystal_density_diffrn 1.085
_exptl_special_details
;
Melting point range 437.15-439.15K

;
_diffrn_ambient_temperature ?
_diffrn_special_details
;
The study was carried out at room temperature,in the range 283-303K

;
#These two values have been output from a single CSD field.
_refine_ls_R_factor_gt 0.101
_refine_ls_wR_factor_gt 0.101
_symmetry_cell_setting triclinic
_symmetry_space_group_name_H-M 'P -1'
_symmetry_Int_Tables_number 2
loop_
_symmetry_equiv_pos_site_id
_symmetry_equiv_pos_as_xyz
1 x,y,z
2 -x,-y,-z
_cell_length_a 12.41(1)
_cell_length_b 12.403(4)
_cell_length_c 8.556(3)
_cell_angle_alpha 100.25(3)
_cell_angle_beta 107.84(4)
_cell_angle_gamma 100.26(4)
_cell_formula_units_Z 4
loop_
_atom_type_symbol
_atom_type_radius_bond
C 0.68
H 0.23
N 0.68
O 0.68
loop_
_atom_site_label
_atom_site_type_symbol
_atom_site_fract_x
_atom_site_fract_y
_atom_site_fract_z
O1 O 0.0509(3) 0.4319(3) 0.1348(4)
O2 O 0.4810(4) 0.4647(3) 0.1608(5)
N1 N 0.0709(4) 0.4146(4) -0.0222(5)
N2 N 0.4362(4) 0.5545(4) 0.1063(6)
C1 C 0.1313(5) 0.3436(5) -0.0350(6)
C2 C 0.1782(7) 0.2788(6) 0.0918(7)
C3 C 0.1769(7) 0.1633(6) 0.0293(8)
C4 C 0.2059(6) 0.1322(5) -0.1295(7)
C5 C 0.1385(6) 0.1907(5) -0.2531(7)
C6 C 0.1661(5) 0.3146(5) -0.1867(7)
C7 C 0.1194(4) 0.3284(4) -0.3682(6)
C8 C 0.1502(5) 0.2121(5) -0.4210(7)
C9 C 0.1886(7) 0.4299(6) -0.401(1)
C10 C -0.0053(6) 0.3288(6) -0.436(1)
C11 C 0.0582(7) 0.1289(6) -0.5822(9)
C12 C 0.2689(6) 0.2216(7) -0.4341(8)
C13 C 0.3867(5) 0.5990(5) 0.2019(7)
C14 C 0.3726(6) 0.5659(5) 0.3561(8)
C15 C 0.3962(6) 0.6632(6) 0.5034(8)
C16 C 0.3404(5) 0.7585(5) 0.4654(7)
C17 C 0.3665(5) 0.7866(5) 0.3165(7)
C18 C 0.3287(5) 0.6922(5) 0.1645(7)
C19 C 0.3371(4) 0.7768(4) 0.0550(6)
C20 C 0.3218(5) 0.8637(4) 0.2009(7)
C21 C 0.2393(6) 0.7470(6) -0.1164(8)
C22 C 0.4502(6) 0.8074(6) 0.0263(8)
C23 C 0.3977(6) 0.9828(5) 0.2515(9)
C24 C 0.1972(6) 0.8693(6) 0.177(1)
H1 H 0.26010 0.31800 0.15380
H2 H 0.13860 0.28300 0.17050
H3 H 0.22690 0.13910 0.11680
H4 H 0.09720 0.11990 0.00440
H5 H 0.28790 0.15950 -0.10270
H6 H 0.18390 0.05300 -0.17460
H7 H 0.05790 0.16220 -0.27400
H8 H 0.24940 0.34170 -0.14690
H9 H 0.26850 0.43070 -0.36540
H10 H 0.16020 0.42670 -0.51900
H11 H 0.17810 0.49740 -0.34010
H12 H -0.01670 0.39610 -0.37670
H13 H -0.02590 0.32850 -0.55320
H14 H -0.05190 0.26500 -0.42300
H15 H -0.01950 0.12880 -0.58060
H16 H 0.06350 0.15220 -0.68090
H17 H 0.06780 0.05470 -0.58980
H18 H 0.29110 0.15200 -0.42210
H19 H 0.26710 0.23340 -0.53980
H20 H 0.32390 0.28150 -0.34510
H21 H 0.29550 0.52260 0.32640
H22 H 0.42630 0.52070 0.39050
H23 H 0.37010 0.63440 0.58450
H24 H 0.47890 0.69430 0.55140
H25 H 0.25830 0.73410 0.43980
H26 H 0.37220 0.82180 0.56070
H27 H 0.44900 0.80900 0.35070
H28 H 0.24750 0.66160 0.13950
H29 H 0.16640 0.72960 -0.10020
H30 H 0.24430 0.81050 -0.16380
H31 H 0.24760 0.68430 -0.18790
H32 H 0.45850 0.74520 -0.04670
H33 H 0.45080 0.87020 -0.02340
H34 H 0.51280 0.82770 0.13200
H35 H 0.47720 0.98040 0.27090
H36 H 0.37330 1.02020 0.16430
H37 H 0.39300 1.02420 0.35350
H38 H 0.19380 0.91000 0.28180
H39 H 0.17110 0.90890 0.09280
H40 H 0.14760 0.79590 0.14530
#END
