
#######################################################################
#
#                 Cambridge Crystallographic Data Centre
#                                CCDC
#
#######################################################################
#
# If this CIF has been generated from an entry in the Cambridge
# Structural Database, then it will include bibliographic, chemical,
# crystal, experimental, refinement or atomic coordinate data resulting
# from the CCDC's data processing and validation procedures.
#
#######################################################################

data_CSD_CIF_VIMHEE
_audit_creation_date 1991-10-31
_audit_creation_method CSD-ConQuest-V1
_database_code_CSD VIMHEE
_chemical_formula_sum 'C8 H14 N4 O8'
_chemical_formula_moiety
;
C8 H14 N4 O8
;
_journal_coden_Cambridge 582
_journal_volume 21
_journal_year 1991
_journal_page_first 173
_journal_name_full 'J.Crystallogr.Spectrosc.Res. '
loop_
_publ_author_name
"R.Chen"
"A.L.Rheingold"
"T.B.Brill"
_chemical_name_systematic
;
N,N'-bis(3-Nitratopropyl)oxamide
;
_chemical_melting_point 395.15
_cell_volume    650.257
_exptl_crystal_colour 'colorless'
_exptl_crystal_density_diffrn 1.502
_diffrn_ambient_temperature ?
_diffrn_special_details
;
The study was carried out at room temperature,in the range 283-303K

;
#These two values have been output from a single CSD field.
_refine_ls_R_factor_gt 0.036
_refine_ls_wR_factor_gt 0.036
_symmetry_cell_setting monoclinic
_symmetry_space_group_name_H-M 'P 21/c'
_symmetry_Int_Tables_number 14
loop_
_symmetry_equiv_pos_site_id
_symmetry_equiv_pos_as_xyz
1 x,y,z
2 -x,1/2+y,1/2-z
3 -x,-y,-z
4 x,-1/2-y,-1/2+z
_cell_length_a 5.125(2)
_cell_length_b 6.906(2)
_cell_length_c 18.44(8)
_cell_angle_alpha 90
_cell_angle_beta 94.91(3)
_cell_angle_gamma 90
_cell_formula_units_Z 2
loop_
_atom_type_symbol
_atom_type_radius_bond
C 0.68
H 0.23
N 0.68
O 0.68
loop_
_atom_site_label
_atom_site_type_symbol
_atom_site_fract_x
_atom_site_fract_y
_atom_site_fract_z
O1 O 0.3388(3) 0.9202(2) 0.2019(1)
O2 O 0.7473(3) 0.9021(2) 0.2369(1)
O3 O 0.5745(2) 0.7175(2) 0.1466(1)
O4 O 0.2539(2) 0.1309(2) 0.0386(1)
N1 N 0.5550(3) 0.8580(2) 0.1999(1)
N2 N 0.6949(2) 0.1507(2) 0.0609(1)
H1 H 0.8348(33) 0.1058(24) 0.0485(9)
C1 C 0.8410(3) 0.6504(2) 0.1408(1)
C2 C 0.8221(3) 0.4873(2) 0.0865(1)
C3 C 0.7020(3) 0.3050(2) 0.1147(1)
C4 C 0.4763(2) 0.0797(2) 0.0278(1)
C4B C 0.5237(2) -0.0797(2) -0.0278(1)
O4B O 0.7461(2) -0.1309(2) -0.0386(1)
N2B N 0.3051(2) -0.1507(2) -0.0609(1)
H1B H 0.1652(33) -0.1058(24) -0.0485(9)
C3B C 0.2980(3) -0.3050(2) -0.1147(1)
C2B C 0.1779(3) -0.4873(2) -0.0865(1)
C1B C 0.1590(3) -0.6504(2) -0.1408(1)
O3B O 0.4255(2) -0.7175(2) -0.1466(1)
N1B N 0.4450(3) -0.8580(2) -0.1999(1)
O1B O 0.6612(3) -0.9202(2) -0.2019(1)
O2B O 0.2527(3) -0.9021(2) -0.2369(1)
#END
