
#######################################################################
#
#                 Cambridge Crystallographic Data Centre
#                                CCDC
#
#######################################################################
#
# If this CIF has been generated from an entry in the Cambridge
# Structural Database, then it will include bibliographic, chemical,
# crystal, experimental, refinement or atomic coordinate data resulting
# from the CCDC's data processing and validation procedures.
#
#######################################################################

data_CSD_CIF_VINCIE
_audit_creation_date 1991-10-24
_audit_creation_method CSD-ConQuest-V1
_database_code_CSD VINCIE
_chemical_formula_sum 'C20 H12 N4 O6'
_chemical_formula_moiety
;
C20 H12 N4 O6
;
_journal_coden_Cambridge 41
_journal_volume 35
_journal_year 1990
_journal_page_first 54
_journal_name_full 'Kristallografiya(Russ.)(Crystallogr.Rep.) '
loop_
_publ_author_name
"G.V.Gridunova"
"V.N.Petrov"
"Yu.T.Struchkov"
"I.G.Il'ina"
"O.V.Mikhalev"
_chemical_name_systematic
;
9-(2',4',6'-Trinitrophenyl)-10-aminoanthracene
;
_chemical_melting_point 505.15
_cell_volume   2776.640
_exptl_crystal_colour 'black'
_exptl_crystal_density_diffrn 1.451
_exptl_special_details
;
Melts with decomposition.

;
_diffrn_ambient_temperature ?
_diffrn_special_details
;
The study was carried out at room temperature,in the range 283-303K

;
#These two values have been output from a single CSD field.
_refine_ls_R_factor_gt 0.049
_refine_ls_wR_factor_gt 0.049
_symmetry_cell_setting hexagonal
_symmetry_space_group_name_H-M 'P -3'
_symmetry_Int_Tables_number 147
loop_
_symmetry_equiv_pos_site_id
_symmetry_equiv_pos_as_xyz
1 x,y,z
2 -y,x-y,z
3 -x+y,-x,z
4 -x,-y,-z
5 y,-x+y,-z
6 x-y,x,-z
_cell_length_a 15.117(2)
_cell_length_b 15.117(2)
_cell_length_c 14.030(2)
_cell_angle_alpha 90
_cell_angle_beta 90
_cell_angle_gamma 120
_cell_formula_units_Z 6
loop_
_atom_type_symbol
_atom_type_radius_bond
C 0.68
H 0.23
N 0.68
O 0.68
loop_
_atom_site_label
_atom_site_type_symbol
_atom_site_fract_x
_atom_site_fract_y
_atom_site_fract_z
C1 C -0.3023(5) -0.0422(5) -0.4419(4)
C2 C -0.2819(6) -0.0357(6) -0.5364(5)
C3 C -0.3055(6) 0.0268(6) -0.5949(5)
C4 C -0.3453(5) 0.0793(5) -0.5575(5)
C5 C -0.4732(5) 0.1786(5) -0.2722(6)
C6 C -0.4857(6) 0.1773(6) -0.1779(6)
C7 C -0.4593(6) 0.1193(6) -0.1195(6)
C8 C -0.4203(5) 0.0635(5) -0.1585(5)
C9 C -0.3651(4) 0.0065(4) -0.3000(4)
C10 C -0.4121(5) 0.1285(4) -0.4163(5)
C11 C -0.3682(4) 0.0749(4) -0.4585(5)
C12 C -0.4051(4) 0.0627(4) -0.2575(4)
C13 C -0.3446(4) 0.0130(4) -0.3978(4)
C14 C -0.4319(4) 0.1235(4) -0.3174(5)
C15 C -0.3368(4) -0.0560(4) -0.2389(4)
C16 C -0.2368(4) -0.0296(4) -0.2176(4)
C17 C -0.2089(4) -0.0873(4) -0.1650(4)
C18 C -0.2843(4) -0.1756(4) -0.1258(4)
C19 C -0.3856(4) -0.2079(4) -0.1394(4)
C20 C -0.4091(4) -0.1476(4) -0.1972(4)
N1 N -0.4352(5) 0.1875(4) -0.4750(5)
N2 N -0.1516(4) 0.0686(4) -0.2534(4)
N3 N -0.2546(4) -0.2357(4) -0.0646(3)
N4 N -0.5179(4) -0.1837(4) -0.2144(4)
O1 O -0.1590(3) 0.1438(3) -0.2478(4)
O2 O -0.0769(3) 0.0676(3) -0.2842(4)
O3 O -0.3210(4) -0.3082(4) -0.0231(4)
O4 O -0.1633(4) -0.2079(4) -0.0590(3)
O5 O -0.5705(3) -0.1970(4) -0.1436(4)
O6 O -0.5477(4) -0.2014(4) -0.2957(4)
H1 H -0.282(3) -0.086(3) -0.407(3)
H2 H -0.250(3) -0.077(3) -0.561(3)
H3 H -0.284(3) 0.017(3) -0.648(3)
H4 H -0.360(3) 0.120(3) -0.598(3)
H5 H -0.487(3) 0.221(3) -0.314(3)
H6 H -0.512(3) 0.214(3) -0.151(3)
H7 H -0.470(3) 0.115(3) -0.050(3)
H8 H -0.400(3) 0.028(3) -0.110(3)
H9 H -0.144(3) -0.067(3) -0.156(3)
H10 H -0.440(3) -0.271(3) -0.111(3)
H11 H -0.466(3) 0.216(3) -0.434(3)
H12 H -0.472(3) 0.175(3) -0.503(3)
#END
