
#######################################################################
#
#                 Cambridge Crystallographic Data Centre
#                                CCDC
#
#######################################################################
#
# If this CIF has been generated from an entry in the Cambridge
# Structural Database, then it will include bibliographic, chemical,
# crystal, experimental, refinement or atomic coordinate data resulting
# from the CCDC's data processing and validation procedures.
#
#######################################################################

data_CSD_CIF_VINCOK
_audit_creation_date 1991-10-24
_audit_creation_method CSD-ConQuest-V1
_database_code_CSD VINCOK
_chemical_formula_sum 'C16 H10 N4 O6'
_chemical_formula_moiety
;
C16 H10 N4 O6
;
_journal_coden_Cambridge 41
_journal_volume 35
_journal_year 1990
_journal_page_first 59
_journal_name_full 'Kristallografiya(Russ.)(Crystallogr.Rep.) '
loop_
_publ_author_name
"G.V.Gridunova"
"V.N.Petrov"
"Yu.T.Struchkov"
"I.G.Il'ina"
"O.V.Mikhalev"
_chemical_name_systematic
;
2',4',6'-Trinitrophenyl-\a-naphthylamine
;
_cell_volume   1521.649
_exptl_crystal_colour 'bright red'
_exptl_crystal_density_diffrn 1.546
_diffrn_ambient_temperature ?
_diffrn_special_details
;
The study was carried out at room temperature,in the range 283-303K

;
#These two values have been output from a single CSD field.
_refine_ls_R_factor_gt 0.043
_refine_ls_wR_factor_gt 0.043
_symmetry_cell_setting monoclinic
_symmetry_space_group_name_H-M 'P 21/n'
_symmetry_Int_Tables_number 14
loop_
_symmetry_equiv_pos_site_id
_symmetry_equiv_pos_as_xyz
1 x,y,z
2 1/2-x,1/2+y,1/2-z
3 -x,-y,-z
4 -1/2+x,-1/2-y,-1/2+z
_cell_length_a 13.3934(6)
_cell_length_b 8.2172(6)
_cell_length_c 14.0612(6)
_cell_angle_alpha 90
_cell_angle_beta 100.492(4)
_cell_angle_gamma 90
_cell_formula_units_Z 4
loop_
_atom_type_symbol
_atom_type_radius_bond
C 0.68
H 0.23
N 0.68
O 0.68
loop_
_atom_site_label
_atom_site_type_symbol
_atom_site_fract_x
_atom_site_fract_y
_atom_site_fract_z
C1 C 0.1015(1) 0.0539(2) 0.7336(1)
C2 C 0.1305(1) -0.0687(2) 0.6719(1)
C3 C 0.1366(1) -0.0417(2) 0.5764(1)
C4 C 0.1139(1) 0.1091(2) 0.5369(1)
C5 C 0.0876(1) 0.2360(2) 0.5922(1)
C6 C 0.0839(1) 0.2084(2) 0.6873(1)
C7 C 0.0386(1) 0.1196(2) 0.8849(1)
C8 C -0.0587(1) 0.1677(2) 0.8519(1)
C9 C -0.1091(1) 0.2645(3) 0.9113(2)
C10 C -0.0626(2) 0.3052(2) 1.0019(1)
C11 C 0.0368(2) 0.2524(2) 1.0393(1)
C12 C 0.0902(1) 0.1589(2) 0.9799(1)
C13 C 0.1914(2) 0.1111(3) 1.0166(1)
C14 C 0.2364(2) 0.1530(3) 1.1090(2)
C15 C 0.1828(2) 0.2429(3) 1.1674(2)
C16 C 0.0868(2) 0.2918(3) 1.1343(1)
N1 N 0.0910(1) 0.0244(2) 0.8249(1)
N2 N 0.1563(1) -0.2331(2) 0.7081(1)
N3 N 0.1189(1) 0.1376(2) 0.4358(1)
N4 N 0.0705(1) 0.3549(2) 0.7434(1)
O1 O 0.1775(1) -0.2551(2) 0.7961(1)
O2 O 0.1583(1) -0.3418(2) 0.6490(1)
O3 O 0.1359(1) 0.0218(2) 0.3868(1)
O4 O 0.1040(1) 0.2751(2) 0.4043(1)
O5 O 0.0004(1) 0.4453(2) 0.7112(1)
O6 O 0.1332(1) 0.3795(2) 0.8169(1)
H1 H 0.111(1) -0.058(2) 0.844(1)
H2 H 0.155(1) -0.123(2) 0.544(1)
H3 H 0.072(1) 0.342(2) 0.566(1)
H4 H -0.093(1) 0.135(2) 0.790(1)
H5 H -0.173(2) 0.297(3) 0.884(1)
H6 H -0.092(2) 0.372(3) 1.039(1)
H7 H 0.227(1) 0.058(2) 0.978(1)
H8 H 0.301(2) 0.123(3) 1.136(2)
H9 H 0.214(2) 0.269(4) 1.228(2)
H10 H 0.054(2) 0.348(3) 1.174(2)
#END
