
#######################################################################
#
#                 Cambridge Crystallographic Data Centre
#                                CCDC
#
#######################################################################
#
# If this CIF has been generated from an entry in the Cambridge
# Structural Database, then it will include bibliographic, chemical,
# crystal, experimental, refinement or atomic coordinate data resulting
# from the CCDC's data processing and validation procedures.
#
#######################################################################

data_CSD_CIF_VINDAX
_audit_creation_date 1991-10-24
_audit_creation_method CSD-ConQuest-V1
_database_code_CSD VINDAX
_chemical_formula_sum 'C13 H10 N4 O7'
_chemical_formula_moiety
;
C13 H10 N4 O7
;
_journal_coden_Cambridge 41
_journal_volume 35
_journal_year 1990
_journal_page_first 54
_journal_name_full 'Kristallografiya(Russ.)(Crystallogr.Rep.) '
loop_
_publ_author_name
"G.V.Gridunova"
"V.N.Petrov"
"Yu.T.Struchkov"
"I.G.Il'ina"
"O.V.Mikhalev"
_chemical_name_systematic
;
2',4',6'-Trinitrophenyl-4'-methoxyphenylamine
;
_cell_volume   2161.222
_exptl_crystal_colour 'brick red'
_exptl_crystal_density_diffrn 1.541
_exptl_special_details
;
The space group is R-3, not R3 as published

;
_diffrn_ambient_temperature ?
_diffrn_special_details
;
The study was carried out at room temperature,in the range 283-303K

;
#These two values have been output from a single CSD field.
_refine_ls_R_factor_gt 0.036
_refine_ls_wR_factor_gt 0.036
_symmetry_cell_setting rhombohedral
_symmetry_space_group_name_H-M 'R -3'
_symmetry_Int_Tables_number 148
loop_
_symmetry_equiv_pos_site_id
_symmetry_equiv_pos_as_xyz
1 x,y,z
2 z,x,y
3 y,z,x
4 -x,-y,-z
5 -z,-x,-y
6 -y,-z,-x
_cell_length_a 19.127(2)
_cell_length_b 19.127(2)
_cell_length_c 19.127(2)
_cell_angle_alpha 118.566(7)
_cell_angle_beta 118.566(7)
_cell_angle_gamma 118.566(7)
_cell_formula_units_Z 6
loop_
_atom_type_symbol
_atom_type_radius_bond
C 0.68
H 0.23
N 0.68
O 0.68
loop_
_atom_site_label
_atom_site_type_symbol
_atom_site_fract_x
_atom_site_fract_y
_atom_site_fract_z
C1 C 0.0402(8) 0.1231(8) -0.3558(8)
C2 C 0.0361(8) 0.1514(8) -0.4132(8)
C3 C -0.1325(9) 0.0269(9) -0.5854(8)
C4 C -0.3089(9) -0.1360(9) -0.7113(8)
C5 C -0.3220(9) -0.1792(8) -0.6731(8)
C6 C -0.1547(8) -0.0571(8) -0.5047(8)
C7 C 0.2274(7) 0.2747(7) -0.0863(7)
C8 C 0.1726(8) 0.2910(8) -0.0683(8)
C9 C 0.1954(8) 0.3160(8) 0.0261(8)
C10 C 0.2807(7) 0.3317(7) 0.1089(7)
C11 C 0.3472(8) 0.3265(8) 0.1019(8)
C12 C 0.3209(8) 0.2988(8) 0.0046(8)
C13 C 0.2271(9) 0.3405(9) 0.2004(9)
N1 N 0.2058(6) 0.2501(6) -0.1829(6)
N2 N 0.2214(7) 0.3275(7) -0.2805(7)
N3 N -0.4862(8) -0.2621(8) -0.8899(7)
N4 N -0.1922(6) -0.1323(6) -0.4918(6)
O1 O 0.3622(6) 0.4143(6) -0.1533(6)
O2 O 0.2268(7) 0.3775(7) -0.3041(7)
O3 O -0.4609(8) -0.2097(8) -0.9116(7)
O4 O -0.6410(7) -0.4065(8) -1.0008(7)
O5 O -0.2910(6) -0.1898(6) -0.5223(6)
O6 O -0.1231(5) -0.1359(5) -0.4550(5)
O7 O 0.3091(5) 0.3539(5) 0.2040(5)
H1 H 0.309(7) 0.321(7) -0.143(7)
H2 H -0.129(6) 0.047(6) -0.620(6)
H3 H -0.434(6) -0.284(6) -0.748(6)
H4 H 0.107(6) 0.270(6) -0.131(6)
H5 H 0.156(6) 0.327(6) 0.039(6)
H6 H 0.411(6) 0.339(6) 0.159(6)
H7 H 0.369(6) 0.302(6) 0.004(6)
H8 H 0.260(8) 0.346(8) 0.277(8)
H9 H 0.257(8) 0.430(8) 0.247(8)
H10 H 0.114(6) 0.238(6) 0.092(6)
#END
