
#######################################################################
#
#                 Cambridge Crystallographic Data Centre
#                                CCDC
#
#######################################################################
#
# If this CIF has been generated from an entry in the Cambridge
# Structural Database, then it will include bibliographic, chemical,
# crystal, experimental, refinement or atomic coordinate data resulting
# from the CCDC's data processing and validation procedures.
#
#######################################################################

data_CSD_CIF_VIPPEQ
_audit_creation_date 2008-01-22
_audit_creation_method CSD-ConQuest-V1
_database_code_CSD VIPPEQ
_database_code_depnum_ccdc_archive 'CCDC 627944'
_chemical_formula_sum 'C17 H19 N1 O5'
_chemical_formula_moiety
;
C17 H19 N1 O5
;
_journal_coden_Cambridge 1127
_journal_volume 17
_journal_year 2007
_journal_page_first 5506
_journal_name_full 'Bioorg.Med.Chem.Lett. '
loop_
_publ_author_name
"Wenjie Peng"
"Pingping Tang"
"Xiaoyi Hu"
"Jun O.Liu"
"Biao Yu"
_chemical_name_systematic
;
7a-Methyl-1-oxo-octahydro-1H-inden-5-yl 4-nitrobenzoate
;
_cell_volume   1599.139
_exptl_crystal_colour 'colorless'
_exptl_crystal_density_diffrn 1.318
_exptl_crystal_description 'prismatic'
_diffrn_ambient_temperature 293
#These two values have been output from a single CSD field.
_refine_ls_R_factor_gt 0.0447
_refine_ls_wR_factor_gt 0.0447
_symmetry_cell_setting orthorhombic
_symmetry_space_group_name_H-M 'P 21 21 21'
_symmetry_Int_Tables_number 19
loop_
_symmetry_equiv_pos_site_id
_symmetry_equiv_pos_as_xyz
1 x,y,z
2 1/2-x,-y,1/2+z
3 -x,1/2+y,1/2-z
4 1/2+x,1/2-y,-z
_cell_length_a 6.6769(9)
_cell_length_b 12.1928(18)
_cell_length_c 19.643(3)
_cell_angle_alpha 90
_cell_angle_beta 90
_cell_angle_gamma 90
_cell_formula_units_Z 4
loop_
_atom_type_symbol
_atom_type_radius_bond
C 0.68
H 0.23
N 0.68
O 0.68
loop_
_atom_site_label
_atom_site_type_symbol
_atom_site_fract_x
_atom_site_fract_y
_atom_site_fract_z
O1 O 0.1656(3) 0.43656(19) 0.52582(12)
O2 O 0.9001(3) 0.49760(18) 0.2374(1)
O3 O 0.9309(3) 0.37694(18) 0.32328(10)
O4 O 1.7752(4) 0.1530(3) 0.19318(15)
O5 O 1.8219(4) 0.2930(2) 0.12954(12)
N1 N 1.7244(4) 0.2417(3) 0.17066(14)
C1 C 0.3099(4) 0.4868(2) 0.50664(14)
C2 C 0.3302(5) 0.6106(2) 0.50819(16)
H1 H 0.32950 0.63720 0.55470
H2 H 0.22100 0.64490 0.48360
C3 C 0.5313(5) 0.6359(2) 0.47381(14)
H3 H 0.52270 0.70130 0.44590
H4 H 0.63690 0.64530 0.50720
C4 C 0.5664(4) 0.5341(2) 0.43042(13)
H5 H 0.46790 0.53780 0.39350
C5 C 0.4985(4) 0.4388(2) 0.47668(13)
C6 C 0.4781(5) 0.3354(2) 0.43393(16)
H6 H 0.36830 0.34400 0.40200
H7 H 0.44770 0.27360 0.46330
C7 C 0.6723(5) 0.3124(2) 0.39468(15)
H8 H 0.77640 0.29180 0.42670
H9 H 0.65090 0.25100 0.36410
C8 C 0.7424(5) 0.4108(2) 0.35368(14)
H10 H 0.64530 0.42550 0.31740
C9 C 0.7668(4) 0.5128(2) 0.39639(13)
H11 H 0.80430 0.57460 0.36800
H12 H 0.87030 0.50190 0.43040
C10 C 0.6365(4) 0.4210(2) 0.53825(13)
H13 H 0.59530 0.35650 0.56240
H14 H 0.62860 0.48340 0.56790
H15 H 0.77200 0.41210 0.52290
C11 C 0.9903(5) 0.4250(3) 0.26553(15)
C12 C 1.1790(4) 0.3764(2) 0.24065(13)
C13 C 1.2996(5) 0.4345(3) 0.19651(14)
H16 H 1.25970 0.50380 0.18210
C14 C 1.4781(5) 0.3918(3) 0.17343(14)
H17 H 1.55990 0.43230 0.14450
C15 C 1.5331(4) 0.2881(3) 0.19401(14)
C16 C 1.4129(5) 0.2270(3) 0.23576(15)
H18 H 1.45010 0.15610 0.24780
C17 C 1.2368(5) 0.2709(3) 0.25984(15)
H19 H 1.15610 0.23020 0.28900
#END
