
#######################################################################
#
#                 Cambridge Crystallographic Data Centre
#                                CCDC
#
#######################################################################
#
# If this CIF has been generated from an entry in the Cambridge
# Structural Database, then it will include bibliographic, chemical,
# crystal, experimental, refinement or atomic coordinate data resulting
# from the CCDC's data processing and validation procedures.
#
#######################################################################

data_CSD_CIF_VIPVEX
_audit_creation_date 2013-10-07
_audit_creation_method CSD-ConQuest-V1
_database_code_CSD VIPVEX
_database_code_depnum_ccdc_archive 'CCDC 963647'
_chemical_formula_sum 'C10 H9 N3 O2'
_chemical_formula_moiety
;
C10 H9 N3 O2
;
_journal_coeditor_code "IUCr tk5258"
_journal_coden_Cambridge 1370
_journal_volume 69
_journal_year 2013
_journal_page_first o1603
_journal_name_full 'Acta Crystallogr.,Sect.E:Struct.Rep.Online '
loop_
_publ_author_name
"A.Kouakou"
"E.M.Rakib"
"D.Spinelli"
"M.Saadi"
"L.El Ammari"
_chemical_name_systematic
;
2-Allyl-7-nitro-2H-indazole
;
_cell_volume    965.644
_exptl_crystal_colour 'colorless'
_exptl_crystal_density_diffrn 1.398
_exptl_crystal_description 'irregular'
_diffrn_ambient_temperature 296
#These two values have been output from a single CSD field.
_refine_ls_R_factor_gt 0.0463
_refine_ls_wR_factor_gt 0.0463
_symmetry_cell_setting triclinic
_symmetry_space_group_name_H-M 'P -1'
_symmetry_Int_Tables_number 2
loop_
_symmetry_equiv_pos_site_id
_symmetry_equiv_pos_as_xyz
1 x,y,z
2 -x,-y,-z
_cell_length_a 8.1848(3)
_cell_length_b 8.3253(4)
_cell_length_c 16.3194(6)
_cell_angle_alpha 84.168(2)
_cell_angle_beta 85.653(2)
_cell_angle_gamma 60.843(2)
_cell_formula_units_Z 4
loop_
_atom_type_symbol
_atom_type_radius_bond
C 0.68
H 0.23
N 0.68
O 0.68
loop_
_atom_site_label
_atom_site_type_symbol
_atom_site_fract_x
_atom_site_fract_y
_atom_site_fract_z
C1 C 0.40636(16) 0.52858(16) 0.63233(7)
C2 C 0.32039(17) 0.46916(16) 0.57894(7)
C3 C 0.22059(19) 0.58263(18) 0.51389(8)
H1 H 0.16560 0.54130 0.47950
C4 C 0.1994(2) 0.76114(19) 0.49786(9)
H2 H 0.12970 0.83630 0.45340
C5 C 0.2794(2) 0.82492(18) 0.54647(9)
H3 H 0.26590 0.94250 0.53540
C6 C 0.38287(18) 0.71050(17) 0.61358(8)
C7 C 0.4834(2) 0.7291(2) 0.67340(9)
H4 H 0.49780 0.83140 0.67920
C8 C 0.6739(2) 0.5268(3) 0.79150(9)
H5 H 0.62890 0.47180 0.83660
H6 H 0.66060 0.64040 0.80920
C9 C 0.8763(2) 0.3989(3) 0.77569(10)
H7 H 0.95680 0.38300 0.81680
C10 C 0.9523(3) 0.3085(3) 0.71208(12)
H8 H 0.87860 0.31910 0.66900
H9 H 1.08120 0.23210 0.70890
N1 N 0.51163(16) 0.44398(16) 0.69883(7)
N2 N 0.55488(16) 0.57195(17) 0.72082(7)
N3 N 0.33824(17) 0.28617(16) 0.59100(8)
O1 O 0.2663(3) 0.24031(19) 0.54180(9)
O2 O 0.42204(19) 0.18615(16) 0.65005(8)
C11 C 0.77659(16) 0.77408(16) 0.98570(7)
C12 C 0.71532(16) 0.68123(16) 1.04771(7)
C13 C 0.64456(19) 0.75454(19) 1.12190(8)
H10 H 0.60600 0.69150 1.16210
C14 C 0.6294(2) 0.9241(2) 1.1381(1)
H11 H 0.58040 0.97180 1.18880
C15 C 0.6852(2) 1.0194(2) 1.08103(10)
H12 H 0.67410 1.13170 1.09220
C16 C 0.75989(19) 0.94553(17) 1.00491(9)
C17 C 0.8334(2) 1.0005(2) 0.9349(1)
H13 H 0.84410 1.10720 0.92650
C18 C 0.9745(2) 0.8661(3) 0.80039(10)
H14 H 1.07080 0.74050 0.79240
H15 H 1.03480 0.94210 0.79800
C19 C 0.8404(2) 0.9320(2) 0.73243(10)
H16 H 0.73560 1.04800 0.73440
C20 C 0.8612(3) 0.8364(3) 0.67013(12)
H17 H 0.96470 0.71990 0.66650
H18 H 0.77260 0.88480 0.62940
N4 N 0.85309(16) 0.72904(16) 0.90988(7)
N5 N 0.88521(17) 0.87130(18) 0.88237(8)
N6 N 0.72571(15) 0.50676(15) 1.03441(7)
O3 O 0.78980(18) 0.43963(15) 0.96842(7)
O4 O 0.67488(19) 0.43012(16) 1.09090(8)
#END
