
#######################################################################
#
#                 Cambridge Crystallographic Data Centre
#                                CCDC
#
#######################################################################
#
# If this CIF has been generated from an entry in the Cambridge
# Structural Database, then it will include bibliographic, chemical,
# crystal, experimental, refinement or atomic coordinate data resulting
# from the CCDC's data processing and validation procedures.
#
#######################################################################

data_CSD_CIF_VIPYID
_audit_creation_date 2008-01-22
_audit_creation_method CSD-ConQuest-V1
_database_code_CSD VIPYID
_database_code_depnum_ccdc_archive 'CCDC 648400'
_chemical_formula_sum 'C12 H10 N4 O5'
_chemical_formula_moiety
;
C12 H10 N4 O5
;
_journal_coden_Cambridge 1350
_journal_volume 9
_journal_year 2007
_journal_page_first 941
_journal_name_full 'CrystEngComm '
loop_
_publ_author_name
"J.O'Leary"
"J.D.Wallis"
_chemical_name_systematic
;
5,5'-Dimethyl-3,3'-dinitro-2,2'-bipyridine-1-oxide
;
_chemical_melting_point 484.15
_cell_volume   1245.373
_exptl_crystal_colour 'green'
_exptl_crystal_density_diffrn 1.548
_exptl_special_details
;
Melts with decomposition.

;
_exptl_crystal_description 'plate'
_exptl_crystal_preparation 'methanol'
_diffrn_ambient_temperature 120
_refine_special_details
;
The oxide group is disordered with occupancies 0.915:0.085.

;
#These two values have been output from a single CSD field.
_refine_ls_R_factor_gt 0.0507
_refine_ls_wR_factor_gt 0.0507
_symmetry_cell_setting monoclinic
_symmetry_space_group_name_H-M 'P 21/a'
_symmetry_Int_Tables_number 14
loop_
_symmetry_equiv_pos_site_id
_symmetry_equiv_pos_as_xyz
1 x,y,z
2 1/2-x,1/2+y,-z
3 -x,-y,-z
4 -1/2+x,-1/2-y,z
_cell_length_a 8.1670(3)
_cell_length_b 13.4699(6)
_cell_length_c 11.3597(6)
_cell_angle_alpha 90
_cell_angle_beta 94.7505(16)
_cell_angle_gamma 90
_cell_formula_units_Z 4
loop_
_atom_type_symbol
_atom_type_radius_bond
C 0.68
H 0.23
N 0.68
O 0.68
loop_
_atom_site_label
_atom_site_type_symbol
_atom_site_fract_x
_atom_site_fract_y
_atom_site_fract_z
O1 O 0.1701(2) -0.07478(11) 0.42576(15)
O2 O 0.08437(17) 0.21841(11) 0.15771(12)
O3 O 0.02001(16) 0.32540(11) 0.28915(13)
N1 N 0.1934(2) 0.01925(12) 0.42965(14)
N2 N 0.07678(17) 0.24616(13) 0.26019(14)
C1 C 0.1228(2) 0.07865(15) 0.34304(16)
C2 C 0.1454(2) 0.17957(14) 0.35509(16)
C3 C 0.2369(2) 0.22256(16) 0.44921(17)
C4 C 0.3131(2) 0.15962(15) 0.53423(16)
C5 C 0.2887(2) 0.05928(16) 0.52163(18)
C6 C 0.4217(3) 0.19858(17) 0.63730(19)
H1 H 0.36330 0.19470 0.70910
H2 H 0.45040 0.26790 0.62250
H3 H 0.52210 0.15860 0.64740
O4? O -0.190(2) 0.1231(11) 0.3135(13)
O5 O 0.33722(15) -0.01956(11) 0.21220(13)
O6 O 0.26067(17) -0.16413(12) 0.14712(14)
N3 N -0.14259(19) 0.06152(13) 0.24082(15)
N4 N 0.23118(18) -0.08027(13) 0.18045(14)
C7 C 0.0131(2) 0.02903(14) 0.24959(16)
C8 C 0.0583(2) -0.04938(14) 0.17968(16)
C9 C -0.0564(2) -0.09953(16) 0.10548(17)
C10 C -0.2189(2) -0.06781(15) 0.09876(16)
C11 C -0.2534(2) 0.01423(16) 0.16610(18)
C12 C -0.3514(2) -0.12101(16) 0.02373(18)
H4 H -0.45680 -0.08750 0.03030
H5 H -0.35890 -0.18980 0.05080
H6 H -0.32490 -0.12040 -0.05890
H7 H 0.252(2) 0.2885(15) 0.4555(16)
H8 H 0.338(3) 0.0079(17) 0.575(2)
H9 H -0.026(2) -0.1492(17) 0.0634(19)
H10 H -0.366(3) 0.0405(15) 0.1624(18)
#END
