
#######################################################################
#
#                 Cambridge Crystallographic Data Centre
#                                CCDC
#
#######################################################################
#
# If this CIF has been generated from an entry in the Cambridge
# Structural Database, then it will include bibliographic, chemical,
# crystal, experimental, refinement or atomic coordinate data resulting
# from the CCDC's data processing and validation procedures.
#
#######################################################################

data_CSD_CIF_VIQDUV
_audit_creation_date 2008-01-22
_audit_creation_method CSD-ConQuest-V1
_database_code_CSD VIQDUV
_database_code_depnum_ccdc_archive 'CCDC 254116'
_chemical_formula_sum 'C17 H14 N4 O1'
_chemical_formula_moiety
;
C17 H14 N4 O1
;
_journal_coden_Cambridge 122
_journal_year 2006
_journal_page_first 1057
_journal_name_full 'Khim.Get.Soedin.,SSSR(Russ.)(Chem.Heterocycl.Compd.) '
loop_
_publ_author_name
"L.A.Kayukova"
"K.M.Beketov"
"A.L.Akhelova"
"K.D.Praliev"
_chemical_name_systematic
;
1-(2-(5-Phenyl-1,2,4-oxadiazol-3-yl)ethyl)benzimidazole
;
_chemical_melting_point 359.15
_cell_volume   1475.340
_exptl_crystal_colour 'colorless'
_exptl_crystal_density_diffrn 1.307
_exptl_crystal_description 'prism'
_exptl_crystal_preparation 'ethanol'
_diffrn_ambient_temperature 295
#These two values have been output from a single CSD field.
_refine_ls_R_factor_gt 0.0306
_refine_ls_wR_factor_gt 0.0306
_symmetry_cell_setting orthorhombic
_symmetry_space_group_name_H-M 'P n a 21'
_symmetry_Int_Tables_number 33
loop_
_symmetry_equiv_pos_site_id
_symmetry_equiv_pos_as_xyz
1 x,y,z
2 -x,-y,1/2+z
3 1/2+x,1/2-y,z
4 1/2-x,1/2+y,1/2+z
_cell_length_a 8.2131(4)
_cell_length_b 11.1885(5)
_cell_length_c 16.0551(7)
_cell_angle_alpha 90
_cell_angle_beta 90
_cell_angle_gamma 90
_cell_formula_units_Z 4
loop_
_atom_type_symbol
_atom_type_radius_bond
C 0.68
H 0.23
N 0.68
O 0.68
loop_
_atom_site_label
_atom_site_type_symbol
_atom_site_fract_x
_atom_site_fract_y
_atom_site_fract_z
N1 N -0.06080(19) 0.90969(15) 0.09265(11)
C1 C -0.0858(3) 0.79679(19) 0.12058(16)
N2 N -0.2080(2) 0.78594(14) 0.17248(14)
C2 C -0.4009(3) 0.9433(2) 0.22568(15)
C3 C -0.4382(3) 1.0622(2) 0.21995(17)
C4 C -0.3479(3) 1.1392(2) 0.16980(18)
C5 C -0.2163(3) 1.09969(19) 0.12324(14)
C6 C -0.2686(2) 0.90149(16) 0.17949(13)
C7 C -0.1793(2) 0.97990(17) 0.12979(11)
C8 C 0.0701(2) 0.9488(2) 0.03831(14)
C9 C 0.2067(2) 1.0084(2) 0.08646(14)
C10 C 0.3425(2) 1.04413(18) 0.02962(13)
N3 N 0.4534(2) 0.96350(14) -0.00132(11)
C11 C 0.5475(2) 1.03067(16) -0.04624(12)
O1 O 0.50341(18) 1.14568(12) -0.04709(12)
N4 N 0.3633(2) 1.15327(17) 0.00470(15)
C12 C 0.6916(2) 0.99506(18) -0.09377(12)
C13 C 0.7363(3) 0.8759(2) -0.09446(15)
C14 C 0.8713(3) 0.8399(3) -0.14022(17)
C15 C 0.9607(3) 0.9224(3) -0.18358(15)
C16 C 0.9170(3) 1.0408(3) -0.18288(17)
C17 C 0.7817(3) 1.0793(2) -0.13826(15)
H1 H -0.021(3) 0.732(2) 0.0987(17)
H2 H -0.468(4) 0.888(2) 0.2579(19)
H3 H -0.529(3) 1.096(2) 0.2486(18)
H4 H -0.380(3) 1.223(2) 0.1677(19)
H5 H -0.157(3) 1.158(2) 0.0870(18)
H6 H 0.027(4) 1.007(3) -0.001(2)
H7 H 0.122(4) 0.872(3) 0.012(2)
H8 H 0.172(3) 1.075(2) 0.1139(19)
H9 H 0.248(3) 0.953(2) 0.130(2)
H10 H 0.673(3) 0.813(2) -0.0623(15)
H11 H 0.905(4) 0.751(3) -0.139(2)
H12 H 1.056(4) 0.896(3) -0.214(2)
H13 H 0.981(4) 1.098(3) -0.215(2)
H14 H 0.745(4) 1.167(3) -0.136(2)
#END
