
#######################################################################
#
#                 Cambridge Crystallographic Data Centre
#                                CCDC
#
#######################################################################
#
# If this CIF has been generated from an entry in the Cambridge
# Structural Database, then it will include bibliographic, chemical,
# crystal, experimental, refinement or atomic coordinate data resulting
# from the CCDC's data processing and validation procedures.
#
#######################################################################

data_CSD_CIF_VIQWOI
_audit_creation_date 2008-04-07
_audit_creation_method CSD-ConQuest-V1
_database_code_CSD VIQWOI
_database_code_depnum_ccdc_archive 'CCDC 649283'
_chemical_formula_sum 'C16 H18 N2 O3'
_chemical_formula_moiety
;
C16 H18 N2 O3
;
_journal_coden_Cambridge 1090
_journal_volume 18
_journal_year 2007
_journal_page_first 2365
_journal_name_full 'Tetrahedron:Asymm. '
loop_
_publ_author_name
"U.Groselj"
"A.Meden"
"B.Stanovnik"
"J.Svete"
_chemical_name_systematic
;
(1R,3E,4S)-1,7,7-Trimethyl-3-(4-nitrophenylimino)bicyclo(2.2.1)heptan-2-one
;
_chemical_melting_point 401.15
_cell_volume   3070.100
_exptl_crystal_colour 'yellow'
_exptl_crystal_density_diffrn 1.239
_exptl_special_details
;
Melting point range 401.15-403.15K

;
_exptl_crystal_description 'block'
_exptl_crystal_preparation 'chloroform/n-heptane'
_diffrn_ambient_temperature 293
#These two values have been output from a single CSD field.
_refine_ls_R_factor_gt 0.04
_refine_ls_wR_factor_gt 0.04
_symmetry_cell_setting monoclinic
_symmetry_space_group_name_H-M 'P 21'
_symmetry_Int_Tables_number 4
loop_
_symmetry_equiv_pos_site_id
_symmetry_equiv_pos_as_xyz
1 x,y,z
2 -x,1/2+y,-z
_cell_length_a 13.0551(1)
_cell_length_b 19.3528(3)
_cell_length_c 13.6762(2)
_cell_angle_alpha 90
_cell_angle_beta 117.3132(5)
_cell_angle_gamma 90
_cell_formula_units_Z 8
loop_
_atom_type_symbol
_atom_type_radius_bond
C 0.68
H 0.23
N 0.68
O 0.68
loop_
_atom_site_label
_atom_site_type_symbol
_atom_site_fract_x
_atom_site_fract_y
_atom_site_fract_z
O1 O -0.35356(16) -0.1820(4) -0.69904(17)
O2 O -0.21124(17) -0.1760(3) -1.32495(15)
O3 O -0.16446(15) -0.3079(4) -0.76443(17)
O4 O -0.30876(17) -0.3165(3) -0.14564(16)
O5 O 0.3533(2) -0.3705(4) -0.2576(3)
O6 O 0.2936(3) -0.3634(4) -0.1362(2)
O7 O 0.1811(2) -0.3724(4) -0.6425(2)
O8 O 0.32670(18) -0.3605(4) -0.6727(2)
O9 O -0.8596(2) -0.1073(4) -1.2201(3)
O10 O -0.8024(2) -0.1289(4) -1.3399(2)
O11 O -0.84882(18) -0.1300(4) -0.7931(2)
O12 O -0.7075(2) -0.1276(4) -0.8315(2)
N1 N -0.13718(18) -0.2392(4) -0.53841(19)
N2 N 0.2805(2) -0.3548(4) -0.2292(2)
N3 N -0.05652(18) -0.2351(4) -1.11274(18)
N4 N 0.2244(2) -0.3543(4) -0.6996(2)
N5 N -0.37711(17) -0.2450(3) -0.92501(18)
N6 N -0.7896(2) -0.1307(4) -1.2459(3)
N7 N -0.46307(18) -0.2599(4) -0.35836(18)
N8 N -0.7481(2) -0.1414(3) -0.7694(2)
C1 C -0.2413(2) -0.0769(4) -0.6810(2)
C2 C -0.2640(2) -0.1504(4) -0.6591(2)
C3 C -0.1492(2) -0.1778(4) -0.5713(2)
C4 C -0.0703(2) -0.1166(4) -0.5442(2)
C5 C -0.1123(3) -0.0656(4) -0.4836(3)
C6 C -0.2280(3) -0.0386(4) -0.5762(3)
C7 C -0.1138(2) -0.0827(4) -0.6598(2)
C8 C -0.0992(3) -0.1305(4) -0.7417(3)
C9 C -0.0575(4) -0.0129(4) -0.6567(4)
C10 C -0.2447(3) -0.0870(4) -1.2154(2)
C11 C -0.1939(2) -0.1510(4) -1.2378(2)
C12 C -0.1148(2) -0.1808(4) -1.1241(2)
C13 C -0.1263(2) -0.1308(4) -1.0451(2)
C14 C -0.2484(2) -0.1441(4) -1.0571(2)
C15 C -0.3279(2) -0.1160(4) -1.1730(2)
C16 C -0.1411(3) -0.0613(4) -1.1077(3)
C17 C -0.0361(4) -0.0422(4) -1.1234(4)
C18 C -0.1710(4) -0.0007(4) -1.0532(4)
C19 C -0.2919(2) -0.3965(4) -0.7519(3)
C20 C -0.2582(2) -0.3312(4) -0.7910(2)
C21 C -0.3729(2) -0.3010(4) -0.8770(2)
C22 C -0.4621(2) -0.3528(4) -0.8836(2)
C23 C -0.4723(3) -0.3430(4) -0.7775(3)
C24 C -0.3562(3) -0.3696(4) -0.6879(2)
C25 C -0.3935(3) -0.4214(4) -0.8637(3)
C26 C -0.3570(4) -0.4372(4) -0.9508(4)
C27 C -0.4586(4) -0.4838(4) -0.8500(4)
C28 C -0.3140(2) -0.4210(4) -0.2485(2)
C29 C -0.3410(2) -0.3476(4) -0.2305(2)
C30 C -0.4202(2) -0.3199(4) -0.3452(2)
C31 C -0.4321(2) -0.3792(4) -0.4212(2)
C32 C -0.5095(2) -0.4315(4) -0.4011(3)
C33 C -0.4312(3) -0.4587(4) -0.2836(3)
C34 C -0.3112(2) -0.4131(4) -0.3611(2)
C35 C -0.2139(3) -0.3652(4) -0.3529(3)
C36 C -0.3022(3) -0.4818(4) -0.4108(3)
C37 C -0.3309(3) -0.0487(4) -0.7910(3)
C38 C -0.0287(2) -0.2648(4) -0.4597(2)
C39 C 0.0448(2) -0.2958(4) -0.4954(2)
C40 C 0.1472(2) -0.3248(4) -0.4190(2)
C41 C 0.1725(2) -0.3237(4) -0.3097(2)
C42 C 0.0999(2) -0.2941(4) -0.2736(2)
C43 C -0.0017(2) -0.2641(4) -0.3496(2)
C44 C -0.3016(4) -0.0386(4) -1.3142(3)
C45 C 0.0121(2) -0.2629(4) -1.0066(2)
C46 C -0.0349(2) -0.2872(4) -0.9414(2)
C47 C 0.0340(2) -0.3177(4) -0.8404(2)
C48 C 0.1503(2) -0.3227(4) -0.8062(2)
C49 C 0.2000(2) -0.2992(4) -0.8704(2)
C50 C 0.1308(2) -0.2696(4) -0.9711(2)
C51 C -0.1917(4) -0.4442(4) -0.6861(4)
C52 C -0.4840(2) -0.2189(4) -1.0037(2)
C53 C -0.5597(3) -0.1861(4) -0.9735(2)
C54 C -0.6605(2) -0.1571(4) -1.0521(3)
C55 C -0.6840(2) -0.1617(4) -1.1610(2)
C56 C -0.6097(2) -0.1929(4) -1.1931(2)
C57 C -0.5099(2) -0.2220(4) -1.1141(2)
C58 C -0.2104(3) -0.4515(4) -0.1517(3)
C59 C -0.5340(2) -0.2330(4) -0.4645(2)
C60 C -0.6505(2) -0.2231(4) -0.4959(2)
C61 C -0.7212(2) -0.1923(4) -0.5959(2)
C62 C -0.6741(2) -0.1728(4) -0.6631(2)
C63 C -0.5586(2) -0.1820(4) -0.6336(2)
C64 C -0.4886(2) -0.2121(4) -0.5333(2)
H1 H 0.02250 -0.29711 -0.57857
H2 H 0.20420 -0.34661 -0.44348
H3 H 0.12123 -0.29449 -0.19077
H4 H -0.05718 -0.24127 -0.32358
H5 H 0.01439 -0.13135 -0.49389
H6 H -0.12378 -0.08983 -0.42211
H7 H -0.05406 -0.02461 -0.44995
H8 H -0.29638 -0.05165 -0.55945
H9 H -0.22695 0.01438 -0.58579
H10 H -0.14327 -0.17652 -0.74925
H11 H -0.13186 -0.10640 -0.81829
H12 H -0.01199 -0.14097 -0.71391
H13 H -0.06280 0.01885 -0.59651
H14 H 0.02906 -0.01961 -0.63620
H15 H -0.09938 0.01170 -0.73235
H16 H -0.12310 -0.28203 -0.96759
H17 H -0.00210 -0.33600 -0.79156
H18 H 0.28805 -0.30356 -0.84329
H19 H 0.16689 -0.25169 -1.02008
H20 H -0.06332 -0.14022 -0.96459
H21 H -0.26199 -0.19621 -1.05125
H22 H -0.26080 -0.11700 -0.99729
H23 H -0.37828 -0.15555 -1.22389
H24 H -0.38145 -0.07722 -1.16935
H25 H -0.00815 -0.08539 -1.15101
H26 H -0.05638 -0.00274 -1.18055
H27 H 0.03151 -0.02614 -1.04842
H28 H -0.24103 -0.01242 -1.04105
H29 H -0.09937 0.00964 -0.97591
H30 H -0.18702 0.04339 -1.10156
H31 H -0.54047 -0.18327 -0.89115
H32 H -0.71774 -0.13241 -1.02981
H33 H -0.62866 -0.19409 -1.27577
H34 H -0.45347 -0.24584 -1.13714
H35 H -0.54056 -0.34331 -0.95239
H36 H -0.48298 -0.29077 -0.76405
H37 H -0.54029 -0.37114 -0.77810
H38 H -0.30967 -0.33028 -0.63392
H39 H -0.36876 -0.40974 -0.64354
H40 H -0.31180 -0.39507 -0.96030
H41 H -0.30393 -0.48050 -0.92920
H42 H -0.42945 -0.44634 -1.02601
H43 H -0.48696 -0.47271 -0.79246
H44 H -0.52935 -0.49477 -0.92572
H45 H -0.40424 -0.52657 -0.82471
H46 H -0.68386 -0.23774 -0.44326
H47 H -0.80847 -0.18458 -0.62011
H48 H -0.52497 -0.16671 -0.68607
H49 H -0.40071 -0.21881 -0.50906
H50 H -0.47031 -0.36246 -0.50281
H51 H -0.58291 -0.40742 -0.40492
H52 H -0.53503 -0.47135 -0.45869
H53 H -0.46596 -0.44659 -0.23119
H54 H -0.42099 -0.51190 -0.28514
H55 H -0.21936 -0.31799 -0.31814
H56 H -0.13454 -0.38769 -0.30374
H57 H -0.22185 -0.35609 -0.43108
H58 H -0.36765 -0.51498 -0.41541
H59 H -0.31131 -0.47415 -0.48973
H60 H -0.22273 -0.50465 -0.36198
H61 H -0.41291 -0.05522 -0.79734
H62 H -0.31614 0.00372 -0.79651
H63 H -0.32579 -0.07501 -0.85497
H64 H -0.36875 -0.06404 -1.37856
H65 H -0.33422 0.00485 -1.29231
H66 H -0.24110 -0.02266 -1.33909
H67 H -0.13238 -0.41976 -0.61647
H68 H -0.22253 -0.48861 -0.66514
H69 H -0.15279 -0.45878 -0.73529
H70 H -0.22584 -0.45403 -0.08351
H71 H -0.19447 -0.50094 -0.17129
H72 H -0.13814 -0.42055 -0.13252
#END
