
#######################################################################
#
#                 Cambridge Crystallographic Data Centre
#                                CCDC
#
#######################################################################
#
# If this CIF has been generated from an entry in the Cambridge
# Structural Database, then it will include bibliographic, chemical,
# crystal, experimental, refinement or atomic coordinate data resulting
# from the CCDC's data processing and validation procedures.
#
#######################################################################

data_CSD_CIF_VIRHAF
_audit_creation_date 1991-11-25
_audit_creation_method CSD-ConQuest-V1
_database_code_CSD VIRHAF
_chemical_formula_sum 'C18 H16 N2 O2'
_chemical_formula_moiety
;
C18 H16 N2 O2
;
_journal_coden_Cambridge 423
_journal_volume 8
_journal_year 1991
_journal_page_first 145
_journal_name_full 'J.Chem.Res. '
loop_
_publ_author_name
"J.G.Rodriguez"
"I.Fonseca"
"S.Martinez-Carrera"
_chemical_name_systematic
;
1-Methyl-3-(2-methyl-2-nitrovinyl)-2-phenylindole
;
_chemical_melting_point 415.15
_cell_volume   3055.415
_exptl_crystal_colour 'yellow'
_exptl_crystal_density_diffrn 1.271
_exptl_special_details
;
Melting point range 415.15-416.15K

;
_diffrn_ambient_temperature ?
_diffrn_special_details
;
The study was carried out at room temperature,in the range 283-303K

;
#These two values have been output from a single CSD field.
_refine_ls_R_factor_gt 0.053
_refine_ls_wR_factor_gt 0.053
_symmetry_cell_setting monoclinic
_symmetry_space_group_name_H-M 'C 2/c'
_symmetry_Int_Tables_number 15
loop_
_symmetry_equiv_pos_site_id
_symmetry_equiv_pos_as_xyz
1 x,y,z
2 1/2+x,1/2+y,z
3 -x,y,1/2-z
4 1/2-x,1/2+y,1/2-z
5 -x,-y,-z
6 -1/2-x,-1/2-y,-z
7 x,-y,-1/2+z
8 -1/2+x,-1/2-y,-1/2+z
_cell_length_a 14.888(1)
_cell_length_b 18.324(1)
_cell_length_c 11.204(1)
_cell_angle_alpha 90
_cell_angle_beta 91.553(3)
_cell_angle_gamma 90
_cell_formula_units_Z 8
loop_
_atom_type_symbol
_atom_type_radius_bond
C 0.68
H 0.23
N 0.68
O 0.68
loop_
_atom_site_label
_atom_site_type_symbol
_atom_site_fract_x
_atom_site_fract_y
_atom_site_fract_z
N1 N 0.12937(11) 0.2294(1) 0.47297(13)
C1 C 0.11964(13) 0.30399(12) 0.46717(15)
C2 C 0.11511(16) 0.35404(15) 0.56069(20)
C3 C 0.10288(20) 0.42557(16) 0.53160(24)
C4 C 0.09451(18) 0.44814(14) 0.41314(24)
C5 C 0.09901(14) 0.39852(12) 0.32011(20)
C6 C 0.11337(12) 0.32487(10) 0.34610(16)
C7 C 0.11881(12) 0.25842(10) 0.27745(15)
C8 C 0.12744(12) 0.20124(11) 0.35948(15)
C9 C 0.13182(14) 0.12301(11) 0.33514(17)
C10 C 0.18994(16) 0.09540(14) 0.25102(20)
C11 C 0.19222(21) 0.02163(16) 0.22717(25)
C12 C 0.13927(25) -0.02568(16) 0.28742(27)
C13 C 0.08102(29) 0.00095(16) 0.36930(32)
C14 C 0.07642(22) 0.07434(14) 0.39246(25)
C15 C 0.10935(12) 0.24417(11) 0.15093(16)
C16 C 0.13329(13) 0.28629(11) 0.05937(15)
C17 C 0.14712(19) 0.18982(18) 0.58452(19)
C18 C 0.18565(23) 0.35486(15) 0.06016(24)
N2 N 0.11157(13) 0.25686(13) -0.05955(15)
O1 O 0.07583(14) 0.19703(13) -0.07186(15)
O2 O 0.13296(18) 0.29469(16) -0.14462(15)
H1 H 0.119(2) 0.338(2) 0.642(3)
H2 H 0.102(3) 0.463(2) 0.597(4)
H3 H 0.085(2) 0.502(2) 0.394(3)
H4 H 0.092(2) 0.415(1) 0.240(2)
H5 H 0.228(2) 0.130(2) 0.215(2)
H6 H 0.234(2) 0.004(2) 0.170(3)
H7 H 0.140(2) -0.080(2) 0.272(3)
H8 H 0.047(3) -0.036(2) 0.411(4)
H9 H 0.034(2) 0.094(2) 0.459(3)
H10 H 0.083(1) 0.195(1) 0.132(2)
H11 H 0.091(2) 0.180(2) 0.624(3)
H12 H 0.185(3) 0.220(2) 0.633(4)
H13 H 0.175(2) 0.143(2) 0.566(3)
H14 H 0.236(2) 0.351(2) 0.003(3)
H15 H 0.207(2) 0.366(2) 0.140(3)
H16 H 0.147(3) 0.395(2) 0.038(3)
#END
