
#######################################################################
#
#                 Cambridge Crystallographic Data Centre
#                                CCDC
#
#######################################################################
#
# If this CIF has been generated from an entry in the Cambridge
# Structural Database, then it will include bibliographic, chemical,
# crystal, experimental, refinement or atomic coordinate data resulting
# from the CCDC's data processing and validation procedures.
#
#######################################################################

data_CSD_CIF_VIRJUB
_audit_creation_date 1991-10-31
_audit_creation_method CSD-ConQuest-V1
_database_code_CSD VIRJUB
_chemical_formula_sum 'C35 H33 N1 O8'
_chemical_formula_moiety
;
C35 H33 N1 O8
;
_journal_coden_Cambridge 35
_journal_volume 56
_journal_year 1991
_journal_page_first 1364
_journal_name_full 'J.Org.Chem. '
loop_
_publ_author_name
"P.DeShong"
"Wei Li"
"J.W.Kennington Junior"
"H.L.Ammon"
"J.M.Leginus"
_chemical_name_systematic
;
8-(5-(2,5-bis(Benzyloxy)phenyl)-5-methyl-2-phenyl-1,3-dioxacyclopen-4-yl)-7-me
thyl-7-aza-2,4-dioxabicyclo(3.3.0)octan-3-one
;
_chemical_melting_point 473.15
_cell_volume   3026.974
_exptl_crystal_colour 'colorless'
_exptl_crystal_density_diffrn 1.31
_exptl_special_details
;
Melting point range 473.15-474.15K

;
_diffrn_ambient_temperature ?
_diffrn_special_details
;
The study was carried out at room temperature,in the range 283-303K

;
#These two values have been output from a single CSD field.
_refine_ls_R_factor_gt 0.052
_refine_ls_wR_factor_gt 0.052
loop_
_citation_database_id_CSD
_citation_special_details
VIRKAI "is a stereoisomer of this entry"
_symmetry_cell_setting monoclinic
_symmetry_space_group_name_H-M 'P 21/n'
_symmetry_Int_Tables_number 14
loop_
_symmetry_equiv_pos_site_id
_symmetry_equiv_pos_as_xyz
1 x,y,z
2 1/2-x,1/2+y,1/2-z
3 -x,-y,-z
4 -1/2+x,-1/2-y,-1/2+z
_cell_length_a 13.038(5)
_cell_length_b 18.921(5)
_cell_length_c 13.562(5)
_cell_angle_alpha 90
_cell_angle_beta 115.21(3)
_cell_angle_gamma 90
_cell_formula_units_Z 4
loop_
_atom_type_symbol
_atom_type_radius_bond
C 0.68
H 0.23
N 0.68
O 0.68
loop_
_atom_site_label
_atom_site_type_symbol
_atom_site_fract_x
_atom_site_fract_y
_atom_site_fract_z
O1 O 0.3300(2) 0.9990(1) 0.6856(1)
O2 O 0.2326(2) 1.1034(1) 0.6057(2)
O3 O 0.2079(1) 1.0666(1) 0.4427(2)
O4 O 0.0744(2) 1.1332(1) 0.4590(3)
O5 O 0.5308(1) 0.83282(8) 0.6403(1)
O6 O 0.5146(1) 0.95056(8) 0.6216(1)
O7 O 0.3036(1) 0.8589(1) 0.3176(1)
O8 O 0.7122(2) 0.7218(1) 0.4413(2)
N1 N 0.2840(2) 0.9387(1) 0.6118(2)
C1 C 0.3092(2) 0.9554(1) 0.5183(2)
C2 C 0.3139(2) 1.0359(1) 0.5142(2)
C3 C 0.3295(2) 1.0593(1) 0.6259(2)
C4 C 0.1641(3) 1.1039(2) 0.4991(3)
C5 C 0.1630(3) 0.9326(2) 0.5842(3)
C6 C 0.4203(2) 0.9246(1) 0.5271(2)
C7 C 0.4369(2) 0.8421(1) 0.5355(2)
C8 C 0.5429(2) 0.8952(1) 0.7007(2)
C9 C 0.4741(2) 0.8152(1) 0.4494(2)
C10 C 0.4023(2) 0.8224(1) 0.3389(2)
C11 C 0.4330(3) 0.7953(2) 0.2605(2)
C12 C 0.5357(2) 0.7604(2) 0.2909(2)
C13 C 0.6080(2) 0.7543(1) 0.3996(2)
C14 C 0.5766(2) 0.7813(1) 0.4777(2)
C15 C 0.3378(2) 0.7982(2) 0.5336(3)
C16 C 0.6618(2) 0.9036(1) 0.7859(2)
C17 C 0.7508(3) 0.8662(2) 0.7855(3)
C18 C 0.8584(3) 0.8741(2) 0.8697(3)
C19 C 0.8761(3) 0.9204(2) 0.9520(3)
C20 C 0.7896(3) 0.9602(3) 0.9509(3)
C21 C 0.6815(3) 0.9507(3) 0.8694(3)
C22 C 0.2130(3) 0.8553(2) 0.2140(3)
C23 C 0.1119(2) 0.8844(1) 0.2250(2)
C24 C 0.0986(3) 0.9563(2) 0.2328(2)
C25 C 0.0061(3) 0.9820(2) 0.2459(2)
C26 C -0.0739(3) 0.9380(2) 0.2502(3)
C27 C -0.0614(3) 0.8663(2) 0.2422(3)
C28 C 0.0302(3) 0.8395(2) 0.2303(3)
C29 C 0.7556(4) 0.6971(3) 0.3676(3)
C30 C 0.8739(3) 0.6714(2) 0.4346(3)
C31 C 0.8962(4) 0.6088(2) 0.4898(4)
C32 C 1.0053(4) 0.5872(3) 0.5562(5)
C33 C 1.0912(4) 0.6257(3) 0.5664(5)
C34 C 1.0740(5) 0.6884(4) 0.5145(6)
C35 C 0.9671(4) 0.7119(3) 0.4513(5)
H1 H 0.249(2) 0.939(1) 0.454(2)
H2 H 0.375(2) 1.052(1) 0.496(2)
H3 H 0.397(2) 1.092(1) 0.667(2)
H4 H 0.121(3) 0.969(2) 0.544(3)
H5 H 0.155(3) 0.926(2) 0.658(3)
H6 H 0.138(3) 0.887(2) 0.545(3)
H7 H 0.435(2) 0.942(1) 0.465(2)
H8 H 0.485(2) 0.896(1) 0.730(2)
H9 H 0.379(3) 0.800(2) 0.188(3)
H10 H 0.553(2) 0.742(2) 0.231(2)
H11 H 0.630(2) 0.774(1) 0.557(2)
H12 H 0.322(2) 0.809(1) 0.598(2)
H13 H 0.351(2) 0.747(2) 0.533(2)
H14 H 0.273(3) 0.808(2) 0.471(3)
H15 H 0.737(3) 0.838(2) 0.730(3)
H16 H 0.921(3) 0.848(2) 0.864(3)
H17 H 0.952(3) 0.923(2) 1.009(4)
H18 H 0.806(3) 0.997(2) 1.013(3)
H19 H 0.624(4) 0.968(2) 0.880(4)
H20 H 0.197(3) 0.807(2) 0.192(3)
H21 H 0.224(4) 0.877(3) 0.159(4)
H22 H 0.157(2) 0.985(1) 0.234(2)
H23 H -0.001(2) 1.033(2) 0.255(2)
H24 H -0.139(30) 0.957(2) 0.257(3)
H25 H -0.126(3) 0.836(2) 0.238(3)
H26 H 0.040(3) 0.791(2) 0.220(3)
H27 H 0.699(3) 0.659(2) 0.319(3)
H28 H 0.747(3) 0.730(2) 0.315(3)
H29 H 0.840(4) 0.587(2) 0.490(4)
H30 H 1.008(4) 0.541(3) 0.592(4)
H31 H 1.168(4) 0.609(2) 0.608(3)
H32 H 1.140(5) 0.714(3) 0.523(5)
H33 H 0.954(4) 0.763(3) 0.421(4)
#END
