
#######################################################################
#
#                 Cambridge Crystallographic Data Centre
#                                CCDC
#
#######################################################################
#
# If this CIF has been generated from an entry in the Cambridge
# Structural Database, then it will include bibliographic, chemical,
# crystal, experimental, refinement or atomic coordinate data resulting
# from the CCDC's data processing and validation procedures.
#
#######################################################################

data_CSD_CIF_VIRVAV01
_audit_creation_date 2017-08-31
_audit_creation_method CSD-ConQuest-V1
_database_code_CSD VIRVAV01
_database_code_depnum_ccdc_archive 'CCDC 1504101'
_chemical_formula_sum 'C13 H10 N4 O5'
_chemical_formula_moiety
;
C13 H10 N4 O5
;
_journal_coden_Cambridge 1147
_journal_volume 17
_journal_year 2017
_journal_page_first 5065
_journal_name_full 'Cryst.Growth Des. '
loop_
_publ_author_name
"M.A.Solomos"
"T.A.Watts"
"J.A.Swift"
_chemical_name_systematic
;
1,3-bis(2-nitrophenyl)urea
;
_chemical_melting_point 483.35
_cell_volume   1259.388
_exptl_crystal_colour 'yellow'
_exptl_crystal_density_diffrn 1.594
_exptl_special_details
;
Melting point range 483.35-489.05K
beta polymorph

;
_exptl_crystal_description 'plate'
_exptl_crystal_preparation 'ethanol'
_diffrn_ambient_temperature 110
#These two values have been output from a single CSD field.
_refine_ls_R_factor_gt 0.0504
_refine_ls_wR_factor_gt 0.0504
_symmetry_cell_setting triclinic
_symmetry_space_group_name_H-M 'P -1'
_symmetry_Int_Tables_number 2
loop_
_symmetry_equiv_pos_site_id
_symmetry_equiv_pos_as_xyz
1 x,y,z
2 -x,-y,-z
_cell_length_a 9.9134(12)
_cell_length_b 11.5929(12)
_cell_length_c 12.7294(13)
_cell_angle_alpha 109.635(9)
_cell_angle_beta 111.993(10)
_cell_angle_gamma 91.207(9)
_cell_formula_units_Z 4
loop_
_atom_type_symbol
_atom_type_radius_bond
C 0.68
H 0.23
N 0.68
O 0.68
loop_
_atom_site_label
_atom_site_type_symbol
_atom_site_fract_x
_atom_site_fract_y
_atom_site_fract_z
O1 O 0.41829(17) -0.15783(14) 0.45553(14)
O2 O 0.2881(2) 0.02453(15) 0.80231(15)
O3 O 0.3176(2) -0.05074(16) 0.94044(15)
O4 O 0.04470(19) 0.11041(15) 0.48143(15)
O5 O -0.05144(18) 0.20228(15) 0.35607(16)
N1 N 0.3438(2) -0.09663(17) 0.61394(17)
H1 H 0.306(3) -0.037(2) 0.653(2)
N2 N 0.3334(2) -0.05283(16) 0.84886(17)
N3 N 0.2521(2) -0.02151(17) 0.46255(17)
H2 H 0.197(3) 0.014(3) 0.503(3)
N4 N 0.0329(2) 0.13351(16) 0.39006(17)
C1 C 0.3453(2) -0.09786(19) 0.50541(19)
C2 C 0.4109(2) -0.16869(19) 0.68099(19)
C3 C 0.4079(2) -0.14754(19) 0.79573(19)
C4 C 0.4758(2) -0.2177(2) 0.8650(2)
H3 H 0.47320 -0.20100 0.94250
C5 C 0.5462(2) -0.3107(2) 0.8208(2)
H4 H 0.59380 -0.35790 0.86800
C6 C 0.5471(2) -0.3353(2) 0.7064(2)
H5 H 0.59380 -0.40090 0.67500
C7 C 0.4811(2) -0.26582(19) 0.6378(2)
H6 H 0.48350 -0.28430 0.56000
C8 C 0.2247(2) 0.00235(18) 0.35668(19)
C9 C 0.1200(2) 0.07881(19) 0.3215(2)
C10 C 0.0928(2) 0.1043(2) 0.2161(2)
H7 H 0.02390 0.15700 0.19500
C11 C 0.1653(2) 0.0534(2) 0.1432(2)
H8 H 0.14630 0.06980 0.07110
C12 C 0.2673(3) -0.0227(2) 0.1761(2)
H9 H 0.31730 -0.05850 0.12540
C13 C 0.2970(2) -0.04720(19) 0.2805(2)
H10 H 0.36790 -0.09860 0.30100
O6 O 0.04135(18) 0.61626(15) -0.17378(14)
O7 O 0.45226(18) 0.38045(15) -0.09901(14)
O8 O 0.42320(18) 0.21767(14) -0.25728(15)
O9 O 0.32749(17) 0.56324(15) 0.20890(15)
O10 O 0.24241(18) 0.58011(15) 0.34514(14)
N5 N 0.2539(2) 0.53128(17) -0.13744(17)
H11 H 0.323(3) 0.511(2) -0.080(3)
N6 N 0.4045(2) 0.32451(16) -0.21116(17)
N7 N 0.1763(2) 0.61121(17) 0.01608(17)
H12 H 0.254(3) 0.577(2) 0.059(2)
N8 N 0.2358(2) 0.59611(16) 0.25311(17)
C14 C 0.1475(2) 0.58954(19) -0.1050(2)
C15 C 0.2525(2) 0.48706(19) -0.2538(2)
C16 C 0.3255(2) 0.38774(19) -0.2913(2)
C17 C 0.3270(2) 0.3441(2) -0.4076(2)
H13 H 0.37560 0.27640 -0.43060
C18 C 0.2572(3) 0.4002(2) -0.4880(2)
H14 H 0.25850 0.37250 -0.56680
C19 C 0.1844(2) 0.4984(2) -0.4527(2)
H15 H 0.13580 0.53690 -0.50850
C20 C 0.1815(2) 0.5405(2) -0.3388(2)
H16 H 0.13050 0.60710 -0.31780
C21 C 0.0894(2) 0.66044(18) 0.07902(19)
C22 C 0.1178(2) 0.65586(18) 0.19493(19)
C23 C 0.0366(2) 0.70996(19) 0.2614(2)
H17 H 0.05860 0.70540 0.33910
C24 C -0.0757(2) 0.77011(19) 0.2148(2)
H18 H -0.13000 0.80920 0.26050
C25 C -0.1081(2) 0.77267(19) 0.0999(2)
H19 H -0.18670 0.81280 0.06680
C26 C -0.0295(2) 0.71875(19) 0.0323(2)
H20 H -0.05600 0.72100 -0.04680
#END
