
#######################################################################
#
#                 Cambridge Crystallographic Data Centre
#                                CCDC
#
#######################################################################
#
# If this CIF has been generated from an entry in the Cambridge
# Structural Database, then it will include bibliographic, chemical,
# crystal, experimental, refinement or atomic coordinate data resulting
# from the CCDC's data processing and validation procedures.
#
#######################################################################

data_CSD_CIF_VIRWAU
_audit_creation_date 1991-10-31
_audit_creation_method CSD-ConQuest-V1
_database_code_CSD VIRWAU
_chemical_formula_sum 'C9 H14 N2 O1'
_chemical_formula_moiety
;
C9 H14 N2 O1
;
_journal_coden_Cambridge 16
_journal_volume 47
_journal_year 1991
_journal_page_first 4007
_journal_name_full 'Tetrahedron '
loop_
_publ_author_name
"R.Grigg"
"F.Heaney"
"J.Markandu"
"S.Surendrakumar"
"M.Thornton-Pett"
"W.J.Warnock"
_chemical_name_systematic
;
Hexahydro-indolizine(1,2-c)isoxazolidine
;
_chemical_melting_point 358.15
_cell_volume    870.979
_exptl_crystal_colour 'colorless'
_exptl_crystal_density_diffrn 1.27
_exptl_special_details
;
Melting point range 358.15-359.15K

;
_diffrn_ambient_temperature 200
#These two values have been output from a single CSD field.
_refine_ls_R_factor_gt 0.0537
_refine_ls_wR_factor_gt 0.0537
_symmetry_cell_setting monoclinic
_symmetry_space_group_name_H-M 'P 21/c'
_symmetry_Int_Tables_number 14
loop_
_symmetry_equiv_pos_site_id
_symmetry_equiv_pos_as_xyz
1 x,y,z
2 -x,1/2+y,1/2-z
3 -x,-y,-z
4 x,-1/2-y,-1/2+z
_cell_length_a 11.931(2)
_cell_length_b 6.306(1)
_cell_length_c 13.010(2)
_cell_angle_alpha 90
_cell_angle_beta 117.15(1)
_cell_angle_gamma 90
_cell_formula_units_Z 4
loop_
_atom_type_symbol
_atom_type_radius_bond
C 0.68
N 0.68
O 0.68
loop_
_atom_site_label
_atom_site_type_symbol
_atom_site_fract_x
_atom_site_fract_y
_atom_site_fract_z
C1 C 0.9944(2) 0.2607(3) 0.9189(2)
O1 O 0.9809(1) 0.1000(2) 0.8351(1)
N1 N 1.0631(1) 0.1649(2) 0.7862(1)
C2 C 1.1749(2) 0.2520(2) 0.8839(1)
C3 C 1.2789(2) 0.0882(3) 0.9491(2)
C4 C 1.2923(2) -0.0956(3) 0.8806(2)
C5 C 1.3734(2) -0.2652(3) 0.9612(2)
C6 C 1.4007(2) -0.2712(4) 1.0700(2)
C7 C 1.3528(2) -0.1123(4) 1.1261(2)
N2 N 1.2496(1) 0.0104(3) 1.0398(1)
C8 C 1.2167(2) 0.2003(4) 1.0835(2)
C9 C 1.1324(2) 0.3251(3) 0.9748(2)
#END
