
#######################################################################
#
#                 Cambridge Crystallographic Data Centre
#                                CCDC
#
#######################################################################
#
# If this CIF has been generated from an entry in the Cambridge
# Structural Database, then it will include bibliographic, chemical,
# crystal, experimental, refinement or atomic coordinate data resulting
# from the CCDC's data processing and validation procedures.
#
#######################################################################

data_CSD_CIF_VIRZIG
_audit_creation_date 2008-04-07
_audit_creation_method CSD-ConQuest-V1
_database_code_CSD VIRZIG
_database_code_depnum_ccdc_archive 'CCDC 671606'
_chemical_formula_sum 'C18 H17 N1 O5'
_chemical_formula_moiety
;
C18 H17 N1 O5
;
_journal_coden_Cambridge 1336
_journal_volume 9
_journal_year 2007
_journal_page_first 5099
_journal_name_full 'Org.Lett. '
loop_
_publ_author_name
"C.G.Nasveschuk"
"J.D.Frein"
"N.T.Jui"
"T.Rovis"
_chemical_name_systematic
;
5-(4-methoxyphenyl)-2-(4-nitrophenyl)-4,5-dihydro-1,3-dioxepine
;
_cell_volume   1563.970
_exptl_crystal_colour 'colorless'
_exptl_crystal_density_diffrn 1.39
_exptl_crystal_description 'very thin plate'
_diffrn_ambient_temperature 100
#These two values have been output from a single CSD field.
_refine_ls_R_factor_gt 0.0861
_refine_ls_wR_factor_gt 0.0861
_symmetry_cell_setting orthorhombic
_symmetry_space_group_name_H-M 'P 21 21 21'
_symmetry_Int_Tables_number 19
loop_
_symmetry_equiv_pos_site_id
_symmetry_equiv_pos_as_xyz
1 x,y,z
2 1/2-x,-y,1/2+z
3 -x,1/2+y,1/2-z
4 1/2+x,1/2-y,-z
_cell_length_a 5.3133(8)
_cell_length_b 8.0571(11)
_cell_length_c 36.533(5)
_cell_angle_alpha 90
_cell_angle_beta 90
_cell_angle_gamma 90
_cell_formula_units_Z 4
loop_
_atom_type_symbol
_atom_type_radius_bond
C 0.68
H 0.23
N 0.68
O 0.68
loop_
_atom_site_label
_atom_site_type_symbol
_atom_site_fract_x
_atom_site_fract_y
_atom_site_fract_z
N1 N 0.9497(11) 0.7388(6) 0.32527(14)
O1 O 0.6334(9) 0.8786(4) 0.1637(1)
O2 O 0.4199(8) 0.6221(5) 0.17107(10)
O3 O 0.8192(9) 0.6705(5) 0.34896(11)
O4 O 1.1477(9) 0.8138(6) 0.33267(11)
O5 O 0.4612(8) 1.0513(5) -0.04615(10)
C1 C 0.6497(12) 0.7139(7) 0.17470(15)
H1 H 0.78610 0.65710 0.16060
C2 C 0.3500(13) 0.5819(8) 0.13571(16)
H2 H 0.29590 0.47090 0.13180
C3 C 0.3495(12) 0.6792(7) 0.10679(16)
H3 H 0.29530 0.62900 0.08460
C4 C 0.4239(12) 0.8607(7) 0.10400(15)
H4 H 0.28340 0.92440 0.11560
C5 C 0.6539(12) 0.9060(7) 0.12481(13)
H5 H 0.79710 0.84030 0.11530
H6 H 0.69180 1.02470 0.12040
C6 C 0.7173(12) 0.7163(7) 0.21490(15)
C7 C 0.5724(12) 0.6410(7) 0.24196(15)
H7 H 0.42260 0.58400 0.23540
C8 C 0.6443(12) 0.6484(7) 0.27835(16)
H8 H 0.54480 0.59800 0.29690
C9 C 0.8680(13) 0.7321(7) 0.28723(14)
C10 C 1.0117(12) 0.8083(7) 0.26104(15)
H9 H 1.15990 0.86720 0.26760
C11 C 0.9367(11) 0.7977(8) 0.22475(16)
H10 H 1.03780 0.84720 0.20630
C12 C 0.4326(11) 0.9178(7) 0.06430(15)
C13 C 0.2565(12) 1.0275(7) 0.05078(15)
H11 H 0.13110 1.07050 0.06670
C14 C 0.2588(12) 1.0772(7) 0.01375(15)
H12 H 0.13640 1.15260 0.00470
C15 C 0.4411(12) 1.0146(7) -0.00891(16)
C16 C 0.6189(12) 0.9062(7) 0.00432(14)
H13 H 0.74550 0.86440 -0.01160
C17 C 0.6149(12) 0.8574(7) 0.04078(15)
H14 H 0.73810 0.78200 0.04960
C18 C 0.2611(13) 1.1531(8) -0.06122(16)
H15 H 0.29200 1.17180 -0.08730
H16 H 0.25670 1.26000 -0.04840
H17 H 0.09940 1.09640 -0.05810
#END
