
#######################################################################
#
#                 Cambridge Crystallographic Data Centre
#                                CCDC
#
#######################################################################
#
# If this CIF has been generated from an entry in the Cambridge
# Structural Database, then it will include bibliographic, chemical,
# crystal, experimental, refinement or atomic coordinate data resulting
# from the CCDC's data processing and validation procedures.
#
#######################################################################

data_CSD_CIF_VITBEG
_audit_creation_date 2008-04-07
_audit_creation_method CSD-ConQuest-V1
_database_code_CSD VITBEG
_database_code_depnum_ccdc_archive 'CCDC 635163'
_chemical_formula_sum 'C2 H4 N6 O2'
_chemical_formula_moiety
;
C2 H4 N6 O2
;
_journal_coden_Cambridge 10
_journal_volume 90
_journal_year 2007
_journal_page_first 2132
_journal_name_full 'Helv.Chim.Acta '
loop_
_publ_author_name
"T.M.Klapotke"
"J.Stierstorfer"
_chemical_name_systematic
;
4,5-dihydro-1-methyl-5-(nitrimino)-1H-tetrazole
;
_chemical_melting_point 398.15
_cell_volume   1090.619
_exptl_crystal_colour 'colorless'
_exptl_crystal_density_diffrn 1.755
_exptl_special_details
;
Melts with decomposition.

;
_exptl_crystal_description 'prism'
_diffrn_ambient_temperature 100
#These two values have been output from a single CSD field.
_refine_ls_R_factor_gt 0.0297
_refine_ls_wR_factor_gt 0.0297
_symmetry_cell_setting orthorhombic
_symmetry_space_group_name_H-M 'P 21 21 21'
_symmetry_Int_Tables_number 19
loop_
_symmetry_equiv_pos_site_id
_symmetry_equiv_pos_as_xyz
1 x,y,z
2 1/2-x,-y,1/2+z
3 1/2+x,1/2-y,-z
4 -x,1/2+y,1/2-z
_cell_length_a 6.6140(1)
_cell_length_b 8.5672(2)
_cell_length_c 19.2473(4)
_cell_angle_alpha 90
_cell_angle_beta 90
_cell_angle_gamma 90
_cell_formula_units_Z 8
loop_
_atom_type_symbol
_atom_type_radius_bond
C 0.68
H 0.23
N 0.68
O 0.68
loop_
_atom_site_label
_atom_site_type_symbol
_atom_site_fract_x
_atom_site_fract_y
_atom_site_fract_z
O1 O 0.08686(18) 0.77393(14) 0.24069(6)
O2 O 0.25574(18) 0.74483(15) 0.33704(6)
O3 O 0.14115(17) 0.32612(14) 0.39370(5)
N1 N -0.4463(2) 0.58690(16) 0.21108(7)
O4 O 0.27213(18) 0.11824(13) 0.44130(6)
N2 N -0.5032(2) 0.50729(17) 0.26385(6)
N3 N 0.2570(2) 0.32929(14) 0.50507(6)
N4 N -0.35486(19) 0.51526(15) 0.31244(6)
N5 N -0.2602(2) 0.64634(17) 0.22552(7)
N6 N 0.1081(2) 0.71802(15) 0.29983(7)
N7 N 0.0918(2) 0.57790(15) 0.46821(7)
N8 N 0.1403(2) 0.70319(15) 0.56286(7)
N9 N 0.22056(19) 0.55815(14) 0.56829(6)
N10 N 0.0615(2) 0.71565(15) 0.50216(7)
N11 N 0.2207(2) 0.25645(15) 0.44488(7)
N12 N -0.03545(19) 0.62420(15) 0.32834(6)
C1 C 0.1913(2) 0.47767(18) 0.50915(8)
C2 C 0.3387(3) 0.5103(2) 0.62843(9)
C3 C -0.2005(2) 0.60159(17) 0.28892(8)
C4 C -0.3689(3) 0.4297(2) 0.37778(9)
H1 H 0.287(3) 0.565(2) 0.6694(8)
H2 H 0.325(3) 0.400(2) 0.6357(9)
H3 H -0.241(3) 0.401(2) 0.3908(9)
H4 H -0.442(3) 0.333(2) 0.3702(9)
H5 H 0.059(3) 0.566(2) 0.4216(10)
H6 H -0.420(4) 0.487(3) 0.410(1)
H7 H 0.477(3) 0.530(2) 0.6205(9)
H8 H -0.205(3) 0.700(2) 0.1969(10)
#END
