
#######################################################################
#
#                 Cambridge Crystallographic Data Centre
#                                CCDC
#
#######################################################################
#
# If this CIF has been generated from an entry in the Cambridge
# Structural Database, then it will include bibliographic, chemical,
# crystal, experimental, refinement or atomic coordinate data resulting
# from the CCDC's data processing and validation procedures.
#
#######################################################################

data_CSD_CIF_VITDAD
_audit_creation_date 1991-12-13
_audit_creation_method CSD-ConQuest-V1
_database_code_CSD VITDAD
_chemical_formula_sum 'C34 H26 N6 O2'
_chemical_formula_moiety
;
C34 H26 N6 O2
;
_journal_coden_Cambridge 423
_journal_volume 112
_journal_year 1991
_journal_page_first 935
_journal_name_full 'J.Chem.Res. '
loop_
_publ_author_name
"R.N.Butler"
"J.P.Duffy"
"P.McArdle"
"D.Cunningham"
_chemical_name_systematic
;
1,5,6,8a-Tetrahydro-1-p-nitrophenyl-3,6,8,8a-tetraphenyl-1,2,4-triazolo(4,3-d)
(1,2,4)triazine
;
_chemical_melting_point 520.15
_cell_volume   1381.574
_exptl_crystal_density_diffrn 1.32
_exptl_special_details
;
Melting point range 520.15-522.15K

;
_diffrn_ambient_temperature ?
_diffrn_special_details
;
The study was carried out at room temperature,in the range 283-303K

;
#These two values have been output from a single CSD field.
_refine_ls_R_factor_gt 0.0897
_refine_ls_wR_factor_gt 0.0897
_symmetry_cell_setting triclinic
_symmetry_space_group_name_H-M 'P -1'
_symmetry_Int_Tables_number 2
loop_
_symmetry_equiv_pos_site_id
_symmetry_equiv_pos_as_xyz
1 x,y,z
2 -x,-y,-z
_cell_length_a 9.947(2)
_cell_length_b 12.210(3)
_cell_length_c 12.943(3)
_cell_angle_alpha 107.82(2)
_cell_angle_beta 106.88(2)
_cell_angle_gamma 98.68(2)
_cell_formula_units_Z 2
loop_
_atom_type_symbol
_atom_type_radius_bond
C 0.68
H 0.23
N 0.68
O 0.68
loop_
_atom_site_label
_atom_site_type_symbol
_atom_site_fract_x
_atom_site_fract_y
_atom_site_fract_z
N1 N 0.1235(4) 0.1825(4) 0.4296(3)
N2 N -0.0181(5) 0.1607(4) 0.3523(4)
N3 N 0.1383(5) 0.2004(4) 0.2666(3)
N4 N 0.1844(6) 0.3936(4) 0.2618(4)
N5 N 0.2229(5) 0.4409(4) 0.3793(4)
N6 N 0.1849(7) 0.1667(5) 0.8683(5)
O1 O 0.0735(6) 0.1415(5) 0.8884(4)
O2 O 0.3048(6) 0.1929(6) 0.9410(4)
C1 C -0.0048(6) 0.1736(5) 0.2605(5)
C2 C 0.1862(6) 0.2701(5) 0.2069(5)
C3 C 0.2479(6) 0.3757(5) 0.4409(5)
C4 C 0.2275(6) 0.2406(5) 0.3899(4)
C5 C 0.3641(6) 0.1938(5) 0.4003(4)
C6 C 0.3567(6) 0.0748(5) 0.3766(5)
C7 C 0.4769(7) 0.0284(6) 0.3732(5)
C8 C 0.6053(7) 0.1026(6) 0.3936(5)
C9 C 0.6143(7) 0.2204(6) 0.4181(5)
C10 C 0.4944(6) 0.2675(5) 0.4221(5)
C11 C 0.2749(6) 0.4363(5) 0.5665(5)
C12 C 0.1597(7) 0.4573(6) 0.6016(5)
C13 C 0.1817(8) 0.5114(6) 0.7193(6)
C14 C 0.3172(8) 0.5436(6) 0.7994(7)
C15 C 0.4320(8) 0.5228(6) 0.7653(6)
C16 C 0.4112(7) 0.4693(5) 0.6479(5)
C17 C 0.1896(6) 0.4746(5) 0.2037(5)
C18 C 0.2147(7) 0.5942(6) 0.2631(6)
C19 C 0.2234(8) 0.6725(8) 0.2040(7)
C20 C 0.2058(9) 0.6306(8) 0.0891(8)
C21 C 0.1807(10) 0.5126(8) 0.0297(8)
C22 C 0.1744(8) 0.4332(7) 0.0883(6)
C23 C -0.1305(6) 0.1490(5) 0.1551(5)
C24 C -0.1218(7) 0.0958(5) 0.0468(5)
C25 C -0.2458(7) 0.0669(6) -0.0518(6)
C26 C -0.3706(8) 0.0925(6) -0.0405(6)
C27 C -0.3797(8) 0.1466(6) 0.0664(6)
C28 C -0.2577(7) 0.1746(5) 0.1658(5)
C29 C 0.1419(6) 0.1780(5) 0.5377(4)
C30 C 0.0200(7) 0.1488(5) 0.5661(5)
C31 C 0.0361(7) 0.1442(5) 0.6740(5)
C32 C 0.1709(6) 0.1676(5) 0.7539(5)
C33 C 0.2933(6) 0.1963(5) 0.7282(5)
C34 C 0.2787(6) 0.2000(5) 0.6205(5)
H1 H 0.29500 0.26600 0.21000
H2 H 0.11300 0.23500 0.11700
H3 H 0.25400 0.01500 0.36000
H4 H 0.46700 -0.06600 0.35400
H5 H 0.69900 0.06900 0.39100
H6 H 0.71700 0.28000 0.43500
H7 H 0.50500 0.36200 0.44100
H8 H 0.05100 0.43200 0.53700
H9 H 0.09100 0.52800 0.74600
H10 H 0.33500 0.58600 0.89000
H11 H 0.53900 0.54800 0.83100
H12 H 0.50200 0.45400 0.62200
H13 H 0.22700 0.62800 0.35400
H14 H 0.24500 0.76700 0.25000
H15 H 0.21300 0.69200 0.04500
H16 H 0.16400 0.48000 -0.06200
H17 H 0.15700 0.33900 0.04200
H18 H -0.02200 0.07700 0.03900
H19 H -0.24200 0.02500 -0.13700
H20 H -0.46500 0.06900 -0.11800
H21 H -0.47900 0.16700 0.07400
H22 H -0.26200 0.21600 0.25100
H23 H -0.08800 0.13000 0.50300
H24 H -0.05900 0.12200 0.69500
H25 H 0.40000 0.21700 0.79300
H26 H 0.37500 0.22000 0.60000
#END
