
#######################################################################
#
#                 Cambridge Crystallographic Data Centre
#                                CCDC
#
#######################################################################
#
# If this CIF has been generated from an entry in the Cambridge
# Structural Database, then it will include bibliographic, chemical,
# crystal, experimental, refinement or atomic coordinate data resulting
# from the CCDC's data processing and validation procedures.
#
#######################################################################

data_CSD_CIF_VITNIW
_audit_creation_date 2008-04-07
_audit_creation_method CSD-ConQuest-V1
_database_code_CSD VITNIW
_database_code_depnum_ccdc_archive 'CCDC 645657'
_chemical_formula_sum 'C8 H7 N5 O3'
_chemical_formula_moiety
;
C8 H7 N5 O3
;
_journal_coden_Cambridge 1003
_journal_volume 37
_journal_year 2007
_journal_page_first 837
_journal_name_full 'J.Chem.Cryst. '
loop_
_publ_author_name
"D.D.Dolliver"
"S.Smith"
"D.B.Delatte"
"K.D.Patel"
"T.E.Thomas"
"J.Chagnard"
"J.E.Johnson"
"D.C.Canseco"
"F.R.Fronczek"
"C.D.Bryan"
"J.R.Muller"
"J.E.Rowe"
"A.S.McKim"
_chemical_name_systematic
;
(Z)-N-Methoxy-4-nitrobenzenecarboximidoyl azide
;
_chemical_melting_point 343.15
_cell_volume    948.916
_exptl_crystal_colour 'colorless'
_exptl_crystal_density_diffrn 1.548
_exptl_special_details
;
Melting point range 343.15-344.05K

;
_diffrn_ambient_temperature 115
#These two values have been output from a single CSD field.
_refine_ls_R_factor_gt 0.035
_refine_ls_wR_factor_gt 0.035
_symmetry_cell_setting monoclinic
_symmetry_space_group_name_H-M 'P 21/c'
_symmetry_Int_Tables_number 14
loop_
_symmetry_equiv_pos_site_id
_symmetry_equiv_pos_as_xyz
1 x,y,z
2 -x,1/2+y,1/2-z
3 -x,-y,-z
4 x,-1/2-y,-1/2+z
_cell_length_a 11.753(2)
_cell_length_b 11.310(3)
_cell_length_c 7.351(2)
_cell_angle_alpha 90
_cell_angle_beta 103.805(15)
_cell_angle_gamma 90
_cell_formula_units_Z 4
loop_
_atom_type_symbol
_atom_type_radius_bond
C 0.68
H 0.23
N 0.68
O 0.68
loop_
_atom_site_label
_atom_site_type_symbol
_atom_site_fract_x
_atom_site_fract_y
_atom_site_fract_z
O1 O 0.85371(7) 0.56669(8) 1.04707(13)
O2 O 0.17261(8) 0.51778(9) 0.42202(14)
O3 O 0.19089(8) 0.68750(9) 0.29390(14)
N1 N 0.73775(8) 0.55046(10) 0.94994(14)
N2 N 0.22802(9) 0.60782(10) 0.40554(14)
N3 N 0.75444(9) 0.74558(11) 0.81808(17)
N4 N 0.85935(9) 0.76419(10) 0.90306(16)
N5 N 0.94961(10) 0.79973(11) 0.96236(19)
C1 C 0.69868(10) 0.63987(11) 0.84587(17)
C2 C 0.57526(10) 0.63397(11) 0.73500(16)
C3 C 0.50677(10) 0.53483(11) 0.75045(17)
H1 H 0.53910 0.47270 0.83380
C4 C 0.39244(10) 0.52650(11) 0.64552(17)
H2 H 0.34590 0.45920 0.65520
C5 C 0.34742(10) 0.61904(11) 0.52562(16)
C6 C 0.41171(11) 0.71908(11) 0.50962(17)
H3 H 0.37830 0.78160 0.42790
C7 C 0.52642(10) 0.72624(11) 0.61579(16)
H4 H 0.57190 0.79450 0.60710
C8 C 0.89707(11) 0.45822(12) 1.14092(19)
H5 H 0.84740 0.43500 1.22460
H6 H 0.97760 0.46990 1.21420
H7 H 0.89580 0.39590 1.04780
#END
