
#######################################################################
#
#                 Cambridge Crystallographic Data Centre
#                                CCDC
#
#######################################################################
#
# If this CIF has been generated from an entry in the Cambridge
# Structural Database, then it will include bibliographic, chemical,
# crystal, experimental, refinement or atomic coordinate data resulting
# from the CCDC's data processing and validation procedures.
#
#######################################################################

data_CSD_CIF_VITTEX
_audit_creation_date 1991-12-13
_audit_creation_method CSD-ConQuest-V1
_database_code_CSD VITTEX
_chemical_formula_sum 'C5 H7 N3 O2'
_chemical_formula_moiety
;
C5 H7 N3 O2
;
_journal_coden_Cambridge 41
_journal_volume 35
_journal_year 1990
_journal_page_first 766
_journal_name_full 'Kristallografiya(Russ.)(Crystallogr.Rep.) '
loop_
_publ_author_name
"Yu.A.Simonov"
"A.A.Dvorkin"
"N.N.Gerasimchuk"
"K.V.Domasevich"
"T.I.Malinovskii"
_chemical_name_systematic
;
2-Cyano-2-isonitroso-N,N-dimethylacetamide
;
_cell_volume   1336.742
_exptl_crystal_colour 'colorless'
_exptl_crystal_density_diffrn 1.402
_exptl_special_details
;
y(C4) is -0.0240 not 0.0240

;
_diffrn_ambient_temperature ?
_diffrn_special_details
;
The study was carried out at room temperature,in the range 283-303K

;
#These two values have been output from a single CSD field.
_refine_ls_R_factor_gt 0.08
_refine_ls_wR_factor_gt 0.08
_symmetry_cell_setting orthorhombic
_symmetry_space_group_name_H-M 'P b c a'
_symmetry_Int_Tables_number 61
loop_
_symmetry_equiv_pos_site_id
_symmetry_equiv_pos_as_xyz
1 x,y,z
2 1/2-x,1/2+y,z
3 x,1/2-y,1/2+z
4 1/2-x,-y,1/2+z
5 -x,-y,-z
6 -1/2+x,-1/2-y,-z
7 -x,-1/2+y,-1/2-z
8 -1/2+x,y,-1/2-z
_cell_length_a 16.10(1)
_cell_length_b 11.408(3)
_cell_length_c 7.278(2)
_cell_angle_alpha 90
_cell_angle_beta 90
_cell_angle_gamma 90
_cell_formula_units_Z 8
loop_
_atom_type_symbol
_atom_type_radius_bond
C 0.68
H 0.23
N 0.68
O 0.68
loop_
_atom_site_label
_atom_site_type_symbol
_atom_site_fract_x
_atom_site_fract_y
_atom_site_fract_z
C1 C 0.8591(3) 0.1708(4) 0.2964(8)
C2 C 0.7778(3) 0.1221(4) 0.3595(7)
C3 C 0.7224(3) 0.2002(4) 0.4493(8)
C4 C 0.9290(4) -0.0240(4) 0.3053(10)
C5 C 0.9988(4) 0.1561(5) 0.1845(10)
O1 O 0.8620(2) 0.2794(3) 0.2653(7)
O2 O 0.6779(2) -0.0098(3) 0.3710(6)
N1 N 0.7566(2) 0.0152(4) 0.3154(6)
N2 N 0.6764(3) 0.2611(4) 0.5225(7)
N3 N 0.9247(3) 0.1030(3) 0.2659(7)
H1 H 0.675(3) -0.062(4) 0.338(8)
H2 H 0.987(4) -0.047(4) 0.341(10)
H3 H 0.919(4) -0.077(4) 0.211(10)
H4 H 0.910(4) -0.047(4) 0.389(9)
H5 H 0.979(4) 0.200(4) 0.063(10)
H6 H 1.009(4) 0.206(4) 0.248(9)
H7 H 1.045(4) 0.100(4) 0.16(1)
#END
