
#######################################################################
#
#                 Cambridge Crystallographic Data Centre
#                                CCDC
#
#######################################################################
#
# If this CIF has been generated from an entry in the Cambridge
# Structural Database, then it will include bibliographic, chemical,
# crystal, experimental, refinement or atomic coordinate data resulting
# from the CCDC's data processing and validation procedures.
#
#######################################################################

data_CSD_CIF_VIVVOL01
_audit_creation_date 1998-09-03
_audit_creation_method CSD-ConQuest-V1
_database_code_CSD VIVVOL01
_database_code_depnum_ccdc_archive 'CCDC 101233'
_chemical_formula_sum 'C14 H22 N2 O2'
_chemical_formula_moiety
;
C14 H22 N2 O2
;
_journal_coden_Cambridge 179
_journal_volume 37
_journal_year 1998
_journal_page_first 1550
_journal_name_full 'Angew.Chem.,Int.Ed. '
loop_
_publ_author_name
"S.Nakazono"
"S.Karasawa"
"N.Koga"
"H.Iwamura"
_chemical_name_systematic
;
N,N'-Di-t-butyl p-benzoquinonedi-imine N,N'-dioxide
;
_chemical_melting_point 473.15
_cell_volume   1447.889
_exptl_crystal_colour 'orange'
_exptl_crystal_density_diffrn 1.148
_exptl_special_details
;
Melting point range 473.15-475.15K

;
_exptl_crystal_description 'prismatic'
_exptl_crystal_preparation 'diethyl ether'
_diffrn_ambient_temperature ?
_diffrn_special_details
;
The study was carried out at room temperature,in the range 283-303K

;
#These two values have been output from a single CSD field.
_refine_ls_R_factor_gt 0.0817
_refine_ls_wR_factor_gt 0.0817
_symmetry_cell_setting monoclinic
_symmetry_space_group_name_H-M 'P 21/c'
_symmetry_Int_Tables_number 14
loop_
_symmetry_equiv_pos_site_id
_symmetry_equiv_pos_as_xyz
1 x,y,z
2 x,1/2-y,1/2+z
3 -x,-y,-z
4 -x,-1/2+y,-1/2-z
_cell_length_a 10.572(1)
_cell_length_b 11.829(2)
_cell_length_c 11.658(2)
_cell_angle_alpha 90
_cell_angle_beta 96.72(1)
_cell_angle_gamma 90
_cell_formula_units_Z 4
loop_
_atom_type_symbol
_atom_type_radius_bond
C 0.68
H 0.23
N 0.68
O 0.68
loop_
_atom_site_label
_atom_site_type_symbol
_atom_site_fract_x
_atom_site_fract_y
_atom_site_fract_z
O1 O 0.8405(3) 0.2620(3) 0.0273(3)
O2 O 1.3562(4) 0.0896(5) 0.2261(4)
N1 N 0.9495(4) 0.2190(3) 0.0655(3)
N2 N 1.4693(4) 0.0935(4) 0.2804(4)
C1 C 0.9777(4) 0.1124(4) 0.0349(4)
C2 C 1.0952(4) 0.0572(4) 0.0715(4)
C3 C 0.8843(4) 0.0504(4) -0.0370(4)
C4 C 1.0390(5) 0.2972(4) 0.1429(4)
C5 C 0.9683(6) 0.4087(5) 0.1550(5)
C6 C 1.1590(5) 0.3179(5) 0.0852(5)
C7 C 1.0652(6) 0.2437(5) 0.2637(5)
C8 C 1.4882(4) 0.0489(4) 0.3888(4)
C9 C 1.3836(4) -0.0043(4) 0.4324(4)
C10 C 1.6067(4) 0.0510(4) 0.4605(4)
C11 C 1.5706(5) 0.1475(5) 0.2161(4)
C12 C 1.5099(6) 0.1753(6) 0.0931(5)
C13 C 1.6163(7) 0.2547(6) 0.2733(6)
C14 C 1.6802(6) 0.0646(7) 0.2068(6)
H1 H 1.17850 0.09060 0.11660
H2 H 0.81450 0.09660 -0.05340
H3 H 0.87950 0.39640 0.18920
H4 H 0.94060 0.45230 0.07750
H5 H 1.03940 0.47640 0.19320
H6 H 1.13830 0.35560 0.02220
H7 H 1.23180 0.37240 0.14260
H8 H 1.20670 0.24940 0.05530
H9 H 1.11960 0.29180 0.31250
H10 H 1.10500 0.17230 0.25780
H11 H 0.98700 0.23400 0.29530
H12 H 1.30410 -0.00740 0.38510
H13 H 1.68310 0.10070 0.44700
H14 H 1.48090 0.10750 0.05490
H15 H 1.43990 0.22500 0.09670
H16 H 1.57130 0.21050 0.05160
H17 H 1.54700 0.30580 0.27340
H18 H 1.67990 0.28730 0.23240
H19 H 1.65120 0.23950 0.35060
H20 H 1.74300 0.09960 0.16680
H21 H 1.71710 0.04370 0.28210
H22 H 1.64860 -0.00090 0.16590
C3B C 1.1157(4) -0.0504(4) 0.0370(4)
C1B C 1.0223(4) -0.1124(4) -0.0349(4)
N1B N 1.0505(4) -0.2190(3) -0.0655(3)
O1B O 1.1595(3) -0.2620(3) -0.0273(3)
C4B C 0.9610(5) -0.2972(4) -0.1429(4)
C5B C 1.0317(6) -0.4087(5) -0.1550(5)
H3B H 1.12050 -0.39640 -0.18920
H4B H 1.05940 -0.45230 -0.07750
H5B H 0.96060 -0.47640 -0.19320
C6B C 0.8410(5) -0.3179(5) -0.0852(5)
H6B H 0.86170 -0.35560 -0.02220
H7B H 0.76820 -0.37240 -0.14260
H8B H 0.79330 -0.24940 -0.05530
C7B C 0.9348(6) -0.2437(5) -0.2637(5)
H9B H 0.88040 -0.29180 -0.31250
H10B H 0.89500 -0.17230 -0.25780
H11B H 1.01300 -0.23400 -0.29530
C2B C 0.9048(4) -0.0572(4) -0.0715(4)
H1B H 0.82150 -0.09060 -0.11660
H2B H 1.18550 -0.09660 0.05340
C10B C 1.3933(4) -0.0510(4) 0.5395(4)
C8B C 1.5118(4) -0.0489(4) 0.6112(4)
N2B N 1.5307(4) -0.0935(4) 0.7196(4)
O2B O 1.6438(4) -0.0896(5) 0.7739(4)
C11B C 1.4294(5) -0.1475(5) 0.7839(4)
C12B C 1.4901(6) -0.1753(6) 0.9069(5)
H14B H 1.51910 -0.10750 0.94510
H15B H 1.56010 -0.22500 0.90330
H16B H 1.42870 -0.21050 0.94840
C13B C 1.3837(7) -0.2547(6) 0.7267(6)
H17B H 1.45300 -0.30580 0.72660
H18B H 1.32010 -0.28730 0.76760
H19B H 1.34880 -0.23950 0.64940
C14B C 1.3198(6) -0.0646(7) 0.7932(6)
H20B H 1.25700 -0.09960 0.83320
H21B H 1.28290 -0.04370 0.71790
H22B H 1.35140 0.00090 0.83410
C9B C 1.6164(4) 0.0043(4) 0.5676(4)
H12B H 1.69590 0.00740 0.61490
H13B H 1.31690 -0.10070 0.55300
#END
