
#######################################################################
#
#                 Cambridge Crystallographic Data Centre
#                                CCDC
#
#######################################################################
#
# If this CIF has been generated from an entry in the Cambridge
# Structural Database, then it will include bibliographic, chemical,
# crystal, experimental, refinement or atomic coordinate data resulting
# from the CCDC's data processing and validation procedures.
#
#######################################################################

data_CSD_CIF_VIVVOL
_audit_creation_date 1992-01-06
_audit_creation_method CSD-ConQuest-V1
_database_code_CSD VIVVOL
_chemical_formula_sum 'C14 H22 N2 O2'
_chemical_formula_moiety
;
C14 H22 N2 O2
;
_journal_coeditor_code "IUCr GE0226"
_journal_coden_Cambridge 591
_journal_volume 47
_journal_year 1991
_journal_page_first 1653
_journal_name_full 'Acta Crystallogr.,Sect.C:Cryst.Struct.Commun. '
loop_
_publ_author_name
"F.Ganazzoli"
"R.Dalpozzo"
"L.Grossi"
_chemical_name_systematic
;
N,N'-Di-t-butyl-1,4-benzoquinone di-imine N,N'-dioxide
;
_cell_volume   1452.159
_exptl_crystal_colour 'orange'
_exptl_crystal_density_diffrn 1.145
_diffrn_ambient_temperature ?
_diffrn_special_details
;
The study was carried out at room temperature,in the range 283-303K

;
#These two values have been output from a single CSD field.
_refine_ls_R_factor_gt 0.046
_refine_ls_wR_factor_gt 0.046
_symmetry_cell_setting monoclinic
_symmetry_space_group_name_H-M 'P 21/c'
_symmetry_Int_Tables_number 14
loop_
_symmetry_equiv_pos_site_id
_symmetry_equiv_pos_as_xyz
1 x,y,z
2 -x,1/2+y,1/2-z
3 -x,-y,-z
4 x,-1/2-y,-1/2+z
_cell_length_a 10.5832(8)
_cell_length_b 11.8392(10)
_cell_length_c 11.6698(7)
_cell_angle_alpha 90
_cell_angle_beta 96.714(6)
_cell_angle_gamma 90
_cell_formula_units_Z 4
loop_
_atom_type_symbol
_atom_type_radius_bond
C 0.68
H 0.23
N 0.68
O 0.68
loop_
_atom_site_label
_atom_site_type_symbol
_atom_site_fract_x
_atom_site_fract_y
_atom_site_fract_z
O1 O -0.1430(2) 0.0885(3) 0.2253(2)
N1 N -0.0309(2) 0.0927(2) 0.2799(2)
C1 C -0.0114(3) 0.0489(3) 0.3881(2)
C2 C 0.1057(3) 0.0520(3) 0.4611(3)
C3 C -0.1155(3) -0.0050(3) 0.4329(3)
C4 C 0.0696(3) 0.1465(3) 0.2144(3)
C5 C 0.1142(4) 0.2559(4) 0.2732(4)
C6 C 0.1776(4) 0.0641(4) 0.2067(4)
C7 C 0.0076(4) 0.1743(4) 0.0935(3)
O2 O 0.3412(2) 0.2615(2) 0.0274(2)
N2 N 0.4493(2) 0.2197(2) 0.0654(2)
C8 C 0.4777(3) 0.1117(2) 0.0357(2)
C9 C 0.5950(3) 0.0565(3) 0.0709(2)
C10 C 0.3840(3) 0.0509(3) -0.0368(2)
C11 C 0.5383(3) 0.2971(3) 0.1425(3)
C12 C 0.6578(3) 0.3184(3) 0.0848(3)
C13 C 0.5658(4) 0.2444(3) 0.2630(3)
C14 C 0.4692(4) 0.4081(3) 0.1540(3)
H1 H 0.18192 0.09376 0.43787
H2 H -0.19479 -0.00559 0.38719
H3 H 0.18319 0.30491 0.22618
H4 H 0.16549 0.24201 0.34278
H5 H 0.05189 0.30431 0.27628
H6 H 0.24123 0.04837 0.27812
H7 H 0.24763 0.09337 0.15852
H8 H 0.14353 0.00207 0.18362
H9 H 0.07366 0.19850 0.05101
H10 H -0.00684 0.11310 0.06681
H11 H -0.04114 0.23200 0.08151
H12 H 0.65903 0.09381 0.12074
H13 H 0.30321 0.08712 -0.06302
H14 H 0.69827 0.26128 0.06829
H15 H 0.72577 0.36598 0.13729
H16 H 0.63787 0.34742 0.01689
H17 H 0.62180 0.29792 0.31736
H18 H 0.62610 0.17812 0.26346
H19 H 0.47940 0.22262 0.29416
H20 H 0.53082 0.45623 0.20043
H21 H 0.45302 0.43773 0.08273
H22 H 0.40372 0.40523 0.19323
C3B C 0.1155(3) 0.0050(3) 0.5671(3)
C2B C -0.1057(3) -0.0520(3) 0.5389(3)
C1B C 0.0114(3) -0.0489(3) 0.6119(2)
H2B H 0.19479 0.00559 0.61281
H1B H -0.18192 -0.09376 0.56213
N1B N 0.0309(2) -0.0927(2) 0.7201(2)
O1B O 0.1430(2) -0.0885(3) 0.7747(2)
C4B C -0.0696(3) -0.1465(3) 0.7856(3)
C5B C -0.1142(4) -0.2559(4) 0.7268(4)
C6B C -0.1776(4) -0.0641(4) 0.7933(4)
C7B C -0.0076(4) -0.1743(4) 0.9065(3)
H3B H -0.18319 -0.30491 0.77382
H4B H -0.16549 -0.24201 0.65722
H5B H -0.05189 -0.30431 0.72372
H6B H -0.24123 -0.04837 0.72188
H7B H -0.24763 -0.09337 0.84148
H8B H -0.14353 -0.00207 0.81638
H9B H -0.07366 -0.19850 0.94899
H10B H 0.00684 -0.11310 0.93319
H11B H 0.04114 -0.23200 0.91849
C10B C 0.6160(3) -0.0509(3) 0.0368(2)
C9B C 0.4050(3) -0.0565(3) -0.0709(2)
C8B C 0.5223(3) -0.1117(2) -0.0357(2)
H13B H 0.69679 -0.08712 0.06302
H12B H 0.34097 -0.09381 -0.12074
N2B N 0.5507(2) -0.2197(2) -0.0654(2)
O2B O 0.6588(2) -0.2615(2) -0.0274(2)
C11B C 0.4617(3) -0.2971(3) -0.1425(3)
C12B C 0.3422(3) -0.3184(3) -0.0848(3)
C13B C 0.4342(4) -0.2444(3) -0.2630(3)
C14B C 0.5308(4) -0.4081(3) -0.1540(3)
H14B H 0.30173 -0.26128 -0.06829
H15B H 0.27423 -0.36598 -0.13729
H16B H 0.36213 -0.34742 -0.01689
H17B H 0.37820 -0.29792 -0.31736
H18B H 0.37390 -0.17812 -0.26346
H19B H 0.52060 -0.22262 -0.29416
H20B H 0.46918 -0.45623 -0.20043
H21B H 0.54698 -0.43773 -0.08273
H22B H 0.59628 -0.40523 -0.19323
#END
