
#######################################################################
#
#                 Cambridge Crystallographic Data Centre
#                                CCDC
#
#######################################################################
#
# If this CIF has been generated from an entry in the Cambridge
# Structural Database, then it will include bibliographic, chemical,
# crystal, experimental, refinement or atomic coordinate data resulting
# from the CCDC's data processing and validation procedures.
#
#######################################################################

data_CSD_CIF_VIWGOY
_audit_creation_date 2008-04-07
_audit_creation_method CSD-ConQuest-V1
_database_code_CSD VIWGOY
_database_code_depnum_ccdc_archive 'CCDC 649422'
_chemical_formula_sum 'C26 H30 N4 O7'
_chemical_formula_moiety
;
C26 H30 N4 O7
;
_journal_coden_Cambridge 1090
_journal_volume 18
_journal_year 2007
_journal_page_first 2746
_journal_name_full 'Tetrahedron:Asymm. '
loop_
_publ_author_name
"U.Groselj"
"A.Meden"
"B.Stanovnik"
"J.Svete"
_chemical_name_systematic
;
(E)-4-Nitro-N-((6S,9R,11R,14S)-1,4-bis(methoxycarbonyl)-11:14-isopropylidene-1
4-methyl-2,3-diaza-8-oxadispiro(5.1.5.2)pentadeca-1,4-dien-10-ylidene)aniline
;
_cell_volume   2604.812
_exptl_crystal_colour 'colorless'
_exptl_crystal_density_diffrn 1.302
_exptl_crystal_description 'plate'
_exptl_crystal_preparation 'chloroform/n-heptane'
_diffrn_ambient_temperature 293
#These two values have been output from a single CSD field.
_refine_ls_R_factor_gt 0.05
_refine_ls_wR_factor_gt 0.05
_symmetry_cell_setting triclinic
_symmetry_space_group_name_H-M 'P 1'
_symmetry_Int_Tables_number 1
loop_
_symmetry_equiv_pos_site_id
_symmetry_equiv_pos_as_xyz
1 x,y,z
_cell_length_a 11.4737(2)
_cell_length_b 13.9440(2)
_cell_length_c 16.5685(2)
_cell_angle_alpha 92.4437(5)
_cell_angle_beta 96.4938(5)
_cell_angle_gamma 97.8098(6)
_cell_formula_units_Z 4
loop_
_atom_type_symbol
_atom_type_radius_bond
C 0.68
H 0.23
N 0.68
O 0.68
loop_
_atom_site_label
_atom_site_type_symbol
_atom_site_fract_x
_atom_site_fract_y
_atom_site_fract_z
O1 O -0.6103(7) -1.0240(7) -0.0627(5)
O2 O -0.5128(7) -1.0231(6) -0.1647(4)
O3 O -0.0058(6) -1.1972(5) 0.2411(4)
O4 O 0.2147(6) -1.3949(5) 0.2691(5)
O5 O 0.1607(6) -1.5262(5) 0.3320(4)
O6 O -0.4086(7) -1.5809(5) 0.2045(5)
O7 O -0.4127(6) -1.4281(5) 0.1719(4)
O8 O -0.4319(8) -0.8576(8) 0.1275(6)
O9 O -0.5020(7) -0.8315(6) 0.2383(5)
O10 O -1.0727(6) -0.5484(5) -0.0083(4)
O11 O -1.2327(7) -0.4695(6) -0.1995(6)
O12 O -1.1832(6) -0.3317(5) -0.2542(4)
O13 O -0.6124(7) -0.2697(6) -0.1284(5)
O14 O -0.6117(7) -0.4076(5) -0.0664(5)
O15 O -0.2919(7) -0.4515(6) -0.4807(5)
O16 O -0.1829(7) -0.4351(5) -0.5765(5)
O17 O 0.2244(6) -0.8025(5) -0.2320(4)
O18 O 0.3757(6) -1.0519(5) -0.3553(5)
O19 O 0.3211(6) -1.1820(5) -0.2904(4)
O20 O -0.2186(6) -1.1049(5) -0.2576(5)
O21 O -0.2004(6) -0.9596(5) -0.3091(4)
O22 O 0.1691(7) -1.4030(5) -0.3641(5)
O23 O 0.2779(8) -1.3638(6) -0.4586(5)
O24 O -0.3100(6) -0.9843(5) -0.5087(4)
O25 O -0.4137(6) -0.7973(5) -0.5712(4)
O26 O -0.3441(6) -0.6561(5) -0.6187(4)
O27 O 0.1818(6) -0.7536(5) -0.6787(5)
O28 O 0.1775(6) -0.8745(5) -0.5947(4)
N1 N -0.1725(6) -1.2043(5) 0.0933(4)
N2 N -0.5241(7) -1.0389(6) -0.0941(5)
N3 N -0.1722(6) -1.5476(5) 0.2498(4)
N4 N -0.0552(6) -1.5379(5) 0.2705(4)
N5 N -0.8522(6) -0.6346(5) 0.0005(4)
N6 N -0.5013(7) -0.8243(6) 0.1654(5)
N7 N -0.8494(6) -0.3069(5) -0.1753(4)
N8 N -0.9646(6) -0.3239(5) -0.2020(4)
N9 N 0.0719(6) -0.7326(5) -0.3681(4)
N10 N -0.2087(7) -0.4700(5) -0.5142(5)
N11 N 0.0189(6) -1.1090(5) -0.2479(4)
N12 N 0.1244(6) -1.1297(5) -0.2676(4)
N13 N -0.1081(6) -1.0865(5) -0.5266(4)
N14 N 0.1927(7) -1.3556(6) -0.4228(5)
N15 N -0.0517(6) -0.7418(5) -0.6715(4)
N16 N -0.1575(6) -0.7198(5) -0.6549(4)
C1 C 0.1438(6) -1.1526(5) 0.1464(5)
C2 C 0.0269(6) -1.2160(5) 0.1606(4)
C3 C -0.0628(6) -1.1738(5) 0.0996(4)
C4 C 0.0084(6) -1.0970(5) 0.0564(4)
C5 C 0.0779(7) -1.1529(6) 0.0002(5)
C6 C 0.1719(7) -1.1885(6) 0.0619(5)
C7 C 0.1026(7) -1.0529(5) 0.1262(5)
C8 C 0.0478(8) -1.0023(5) 0.1939(5)
C9 C 0.2022(8) -0.9810(6) 0.0984(6)
C10 C -1.1621(7) -0.7083(5) -0.0701(5)
C11 C -1.0537(6) -0.6258(5) -0.0626(4)
C12 C -0.9548(6) -0.6780(5) -0.0233(4)
C13 C -1.0079(6) -0.7827(5) -0.0182(5)
C14 C -1.0357(8) -0.8241(5) -0.1083(5)
C15 C -1.1445(7) -0.7777(5) -0.1401(5)
C16 C -1.1305(7) -0.7695(5) 0.0043(5)
C17 C -1.1269(8) -0.7174(6) 0.0875(5)
C18 C -1.2135(8) -0.8671(6) 0.0042(6)
C19 C 0.3858(6) -0.7325(5) -0.3101(5)
C20 C 0.2573(6) -0.7888(5) -0.3130(4)
C21 C 0.1839(6) -0.7158(5) -0.3544(4)
C22 C 0.2713(6) -0.6299(5) -0.3715(4)
C23 C 0.3352(7) -0.6668(5) -0.4414(5)
C24 C 0.4166(6) -0.7340(5) -0.3977(5)
C25 C 0.3645(6) -0.6248(5) -0.2967(5)
C26 C 0.3148(7) -0.5982(5) -0.2188(5)
C27 C 0.4750(7) -0.5501(6) -0.3029(6)
C28 C -0.4143(6) -1.1064(5) -0.6141(4)
C29 C -0.2972(6) -1.0378(5) -0.5824(4)
C30 C -0.2096(6) -1.1114(5) -0.5651(4)
C31 C -0.2757(6) -1.2084(5) -0.5985(4)
C32 C -0.2997(6) -1.2023(5) -0.6915(4)
C33 C -0.4009(6) -1.1388(5) -0.7021(4)
C34 C -0.3983(6) -1.2017(5) -0.5697(4)
C35 C -0.3960(7) -1.1913(5) -0.4782(5)
C36 C -0.4916(7) -1.2897(5) -0.6017(5)
C37 C 0.2431(7) -1.1522(6) 0.2151(5)
C38 C -0.2568(6) -1.1628(5) 0.0424(4)
C39 C -0.3471(7) -1.1287(6) 0.0794(5)
C40 C -0.4348(7) -1.0881(7) 0.0351(5)
C41 C -0.4311(7) -1.0841(6) -0.0470(4)
C42 C -0.3460(6) -1.1182(5) -0.0863(4)
C43 C -0.2574(6) -1.1581(5) -0.0404(4)
C44 C -0.0055(6) -1.2811(5) 0.2867(4)
C45 C -0.0354(6) -1.3677(5) 0.2240(4)
C46 C 0.0235(6) -1.3266(5) 0.1519(4)
C47 C -0.1684(6) -1.3908(5) 0.2027(4)
C48 C -0.2287(6) -1.4750(5) 0.2159(4)
C49 C 0.0093(6) -1.4582(5) 0.2579(4)
C50 C 0.1376(6) -1.4554(5) 0.2852(5)
C51 C 0.2833(7) -1.5264(6) 0.3621(6)
C52 C -0.3592(7) -1.5014(6) 0.1973(5)
C53 C -0.5419(7) -1.4465(8) 0.1557(6)
C54 C -1.2818(7) -0.6721(6) -0.0768(6)
C55 C -0.7658(7) -0.6858(5) 0.0408(4)
C56 C -0.7560(7) -0.6883(6) 0.1251(5)
C57 C -0.6689(7) -0.7337(6) 0.1659(4)
C58 C -0.5911(7) -0.7735(5) 0.1221(5)
C59 C -0.5990(8) -0.7726(7) 0.0389(5)
C60 C -0.6878(8) -0.7274(6) -0.0024(5)
C61 C -1.0468(10) -0.4601(6) -0.0387(5)
C62 C -0.9895(7) -0.4677(5) -0.1164(4)
C63 C -1.0280(6) -0.5765(5) -0.1417(4)
C64 C -0.8567(7) -0.4455(5) -0.0984(5)
C65 C -0.7937(7) -0.3687(5) -0.1256(5)
C66 C -1.0308(7) -0.3969(5) -0.1776(4)
C67 C -1.1575(7) -0.4042(5) -0.2105(5)
C68 C -1.3065(8) -0.3329(6) -0.2851(6)
C69 C -0.6646(8) -0.3424(6) -0.1076(5)
C70 C -0.4824(10) -0.3912(8) -0.0545(6)
C71 C 0.4759(6) -0.7688(6) -0.2490(5)
C72 C 0.0052(6) -0.6649(5) -0.4062(4)
C73 C -0.0940(7) -0.6447(6) -0.3720(4)
C74 C -0.1642(7) -0.5803(6) -0.4067(5)
C75 C -0.1347(7) -0.5387(5) -0.4764(4)
C76 C -0.0400(7) -0.5593(5) -0.5130(4)
C77 C 0.0307(6) -0.6231(5) -0.4779(4)
C78 C 0.2250(6) -0.9018(5) -0.2155(4)
C79 C 0.1730(6) -0.9571(5) -0.2970(4)
C80 C 0.2352(6) -0.8917(5) -0.3560(4)
C81 C 0.0408(6) -0.9590(5) -0.3085(4)
C82 C -0.0285(6) -1.0309(5) -0.2809(4)
C83 C 0.1955(6) -1.0625(5) -0.2947(4)
C84 C 0.3065(6) -1.0955(5) -0.3166(4)
C85 C 0.4306(7) -1.2175(6) -0.3043(5)
C86 C -0.1588(6) -1.0364(5) -0.2816(4)
C87 C -0.3271(6) -0.9587(6) -0.3117(5)
C88 C -0.5256(6) -1.0619(5) -0.6041(5)
C89 C -0.0347(6) -1.1568(5) -0.5021(4)
C90 C -0.0651(6) -1.2207(5) -0.4436(4)
C91 C 0.0094(7) -1.2851(5) -0.4159(5)
C92 C 0.1139(7) -1.2848(5) -0.4493(5)
C93 C 0.1490(7) -1.2208(6) -0.5056(5)
C94 C 0.0746(6) -1.1546(5) -0.5313(4)
C95 C -0.2241(6) -0.8986(5) -0.4982(4)
C96 C -0.1890(6) -0.8737(5) -0.5832(4)
C97 C -0.2591(6) -0.9593(5) -0.6400(4)
C98 C -0.0575(6) -0.8707(5) -0.5833(4)
C99 C 0.0032(6) -0.8099(5) -0.6278(4)
C100 C -0.2201(6) -0.7773(5) -0.6127(4)
C101 C -0.3363(6) -0.7470(5) -0.5979(4)
C102 C -0.4571(7) -0.6244(6) -0.6103(5)
C103 C 0.1297(6) -0.8079(5) -0.6369(5)
C104 C 0.3009(7) -0.8823(6) -0.6036(6)
H1 H -0.34826 -1.13388 0.14295
H2 H -0.50225 -1.06121 0.06399
H3 H -0.34823 -1.11572 -0.14799
H4 H -0.19184 -1.18529 -0.06817
H5 H -0.21425 -1.33847 0.17631
H6 H -0.20502 -1.60644 0.26811
H7 H -0.04875 -1.05663 0.02374
H8 H 0.02266 -1.21073 -0.03130
H9 H 0.11667 -1.10741 -0.03944
H10 H 0.16459 -1.26346 0.05906
H11 H 0.25649 -1.15824 0.05371
H12 H -0.02467 -1.04908 0.21065
H13 H 0.11067 -0.98693 0.24550
H14 H 0.01965 -0.93954 0.17457
H15 H 0.24051 -1.01392 0.05475
H16 H 0.16563 -0.92104 0.07695
H17 H 0.26451 -0.95758 0.14927
H18 H -0.81574 -0.65642 0.15802
H19 H -0.66268 -0.73781 0.22994
H20 H -0.54134 -0.80559 0.00800
H21 H -0.69470 -0.72433 -0.06445
H22 H -0.81447 -0.49017 -0.05968
H23 H -0.78690 -0.25676 -0.20007
H24 H -0.94798 -0.82073 0.01570
H25 H -0.96475 -0.80422 -0.13938
H26 H -1.05506 -0.89982 -0.10988
H27 H -1.12962 -0.74026 -0.19067
H28 H -1.21933 -0.83032 -0.15310
H29 H -1.07117 -0.65244 0.09064
H30 H -1.21189 -0.70493 0.09763
H31 H -1.09553 -0.76112 0.13289
H32 H -1.21702 -0.90660 -0.04952
H33 H -1.18359 -0.90644 0.05299
H34 H -1.29986 -0.85307 0.01303
H35 H -0.11649 -0.67843 -0.31896
H36 H -0.23940 -0.56505 -0.38006
H37 H -0.02211 -0.52845 -0.56598
H38 H 0.10256 -0.63998 -0.50447
H39 H 0.00332 -0.90447 -0.33773
H40 H -0.04137 -1.15544 -0.23553
H41 H 0.22614 -0.57224 -0.38825
H42 H 0.27423 -0.70500 -0.48635
H43 H 0.38411 -0.60965 -0.46530
H44 H 0.39766 -0.80460 -0.42405
H45 H 0.50493 -0.70816 -0.39875
H46 H 0.24015 -0.64843 -0.21092
H47 H 0.37829 -0.59955 -0.16850
H48 H 0.28940 -0.52950 -0.22066
H49 H 0.51859 -0.57367 -0.34939
H50 H 0.44791 -0.48369 -0.31462
H51 H 0.52938 -0.54482 -0.24794
H52 H -0.14606 -1.22074 -0.41950
H53 H -0.01265 -1.33285 -0.37079
H54 H 0.22846 -1.22321 -0.52747
H55 H 0.10036 -1.10377 -0.57081
H56 H -0.01367 -0.91705 -0.54642
H57 H 0.00000 -0.69462 -0.69191
H58 H -0.22643 -1.26393 -0.58315
H59 H -0.22476 -1.17065 -0.71423
H60 H -0.32752 -1.27134 -0.71988
H61 H -0.37678 -1.07877 -0.73483
H62 H -0.47906 -1.17808 -0.73068
H63 H -0.33923 -1.12917 -0.45420
H64 H -0.48111 -1.18581 -0.46215
H65 H -0.36678 -1.25163 -0.45079
H66 H -0.49979 -1.29745 -0.66387
H67 H -0.46696 -1.35325 -0.57673
H68 H -0.57453 -1.28047 -0.58280
H69 H 0.24857 -1.22306 0.23127
H70 H 0.32158 -1.12118 0.19747
H71 H 0.22418 -1.11221 0.26642
H72 H -0.07004 -1.28372 0.32735
H73 H 0.07651 -1.28244 0.31968
H74 H 0.10842 -1.34467 0.15432
H75 H -0.02638 -1.35510 0.09802
H76 H 0.29353 -1.59230 0.38817
H77 H 0.33435 -1.51742 0.31497
H78 H 0.31015 -1.47019 0.40677
H79 H -0.57289 -1.39154 0.12375
H80 H -0.56742 -1.51270 0.12222
H81 H -0.57870 -1.45091 0.21092
H82 H -1.29077 -0.63228 -0.12790
H83 H -1.34908 -0.73214 -0.08312
H84 H -1.28927 -0.63012 -0.02522
H85 H -0.99340 -0.41360 0.00434
H86 H -1.12843 -0.43162 -0.05210
H87 H -1.10415 -0.58653 -0.18303
H88 H -0.96070 -0.60586 -0.16575
H89 H -1.31883 -0.26575 -0.30633
H90 H -1.33089 -0.38647 -0.33092
H91 H -1.35941 -0.34715 -0.23770
H92 H -0.45393 -0.43717 -0.01062
H93 H -0.45305 -0.40549 -0.10842
H94 H -0.45506 -0.31955 -0.03300
H95 H 0.47681 -0.84246 -0.26072
H96 H 0.55926 -0.73093 -0.25198
H97 H 0.45314 -0.75809 -0.18967
H98 H 0.17196 -0.92150 -0.16877
H99 H 0.31026 -0.91581 -0.19721
H100 H 0.31472 -0.91469 -0.36582
H101 H 0.18105 -0.89264 -0.41042
H102 H 0.43598 -1.28155 -0.27348
H103 H 0.43049 -1.23194 -0.36544
H104 H 0.50151 -1.16609 -0.28122
H105 H -0.35064 -0.89664 -0.33748
H106 H -0.37317 -1.01977 -0.34521
H107 H -0.35147 -0.95988 -0.25213
H108 H -0.52744 -1.00143 -0.63760
H109 H -0.60054 -1.11247 -0.62301
H110 H -0.52735 -1.04147 -0.54221
H111 H -0.15048 -0.91176 -0.45908
H112 H -0.26080 -0.84199 -0.47165
H113 H -0.33352 -0.93805 -0.67216
H114 H -0.20600 -0.98530 -0.67941
H115 H -0.45967 -0.55683 -0.63378
H116 H -0.52560 -0.67403 -0.64117
H117 H -0.47017 -0.61947 -0.54859
H118 H 0.32854 -0.93573 -0.56625
H119 H 0.30778 -0.90087 -0.66319
H120 H 0.35233 -0.81631 -0.58505
#END
