
#######################################################################
#
#                 Cambridge Crystallographic Data Centre
#                                CCDC
#
#######################################################################
#
# If this CIF has been generated from an entry in the Cambridge
# Structural Database, then it will include bibliographic, chemical,
# crystal, experimental, refinement or atomic coordinate data resulting
# from the CCDC's data processing and validation procedures.
#
#######################################################################

data_CSD_CIF_VIWGEO
_audit_creation_date 2008-04-07
_audit_creation_method CSD-ConQuest-V1
_database_code_CSD VIWGEO
_database_code_depnum_ccdc_archive 'CCDC 649420'
_chemical_formula_sum 'C32 H32 N6 O3'
_chemical_formula_moiety
;
C32 H32 N6 O3
;
_journal_coden_Cambridge 1090
_journal_volume 18
_journal_year 2007
_journal_page_first 2746
_journal_name_full 'Tetrahedron:Asymm. '
loop_
_publ_author_name
"U.Groselj"
"A.Meden"
"B.Stanovnik"
"J.Svete"
_chemical_name_systematic
;
(E)-4-Nitro-N-((6S,9R,11R,14S)-1,4-bis(pyridin-2-yl)-11:14-isopropylidene-14-m
ethyl-2,3-diaza-8-oxadispiro(5.1.5.2)pentadeca-1,4-dien-10-ylidene)aniline
;
_cell_volume   2794.956
_exptl_crystal_colour 'yellowish'
_exptl_crystal_density_diffrn 1.304
_exptl_crystal_description 'plate'
_exptl_crystal_preparation 'chloroform/n-heptane'
_diffrn_ambient_temperature 293
#These two values have been output from a single CSD field.
_refine_ls_R_factor_gt 0.052
_refine_ls_wR_factor_gt 0.052
_symmetry_cell_setting monoclinic
_symmetry_space_group_name_H-M 'C 2'
_symmetry_Int_Tables_number 5
loop_
_symmetry_equiv_pos_site_id
_symmetry_equiv_pos_as_xyz
1 x,y,z
2 -x,y,-z
3 1/2+x,1/2+y,z
4 1/2-x,1/2+y,-z
_cell_length_a 21.5666(3)
_cell_length_b 11.4118(2)
_cell_length_c 12.9156(2)
_cell_angle_alpha 90
_cell_angle_beta 118.4450(8)
_cell_angle_gamma 90
_cell_formula_units_Z 4
loop_
_atom_type_symbol
_atom_type_radius_bond
C 0.68
H 0.23
N 0.68
O 0.68
loop_
_atom_site_label
_atom_site_type_symbol
_atom_site_fract_x
_atom_site_fract_y
_atom_site_fract_z
O1 O -0.56684(13) -1.0185(10) -0.8991(2)
O2 O -0.7107(3) -0.4352(10) -1.4543(5)
O3 O -0.6556(4) -0.554(1) -1.5108(4)
N1 N -0.5754(2) -0.7021(10) -0.6302(3)
N2 N -0.5886(2) -0.8058(10) -0.5947(3)
N3 N -0.6196(2) -1.1071(10) -0.6586(4)
N4 N -0.5239(2) -0.499(1) -0.6512(4)
N5 N -0.62958(17) -0.8184(10) -1.0626(3)
N6 N -0.6789(3) -0.5267(10) -1.4456(4)
C1 C -0.6840(2) -1.1078(10) -1.0263(3)
C2 C -0.64097(17) -0.9961(10) -0.9645(3)
C3 C -0.65527(19) -0.9204(10) -1.0725(3)
C4 C -0.7042(2) -0.9889(10) -1.1810(3)
C5 C -0.7762(2) -0.9899(10) -1.1819(3)
C6 C -0.7630(2) -1.0736(10) -1.0794(3)
C7 C -0.6764(2) -1.1154(10) -1.1412(3)
C8 C -0.6002(2) -1.1314(10) -1.1200(4)
C9 C -0.7228(3) -1.2097(10) -1.2284(4)
C10 C -0.6634(3) -1.2159(10) -0.9480(4)
C11 C -0.5418(2) -1.0006(10) -0.7757(3)
C12 C -0.58932(19) -0.9049(10) -0.7681(3)
C13 C -0.66032(18) -0.9369(10) -0.8760(3)
C14 C -0.5631(2) -0.7874(10) -0.7847(3)
C15 C -0.5582(2) -0.6944(10) -0.7201(3)
C16 C -0.5944(2) -0.9002(10) -0.6540(3)
C17 C -0.6121(2) -1.0046(10) -0.6045(3)
C18 C -0.6376(4) -1.2018(10) -0.6156(5)
C19 C -0.6481(3) -1.1964(11) -0.5193(5)
C20 C -0.6415(4) -1.0924(12) -0.4659(5)
C21 C -0.6234(3) -0.9949(10) -0.5076(4)
C22 C -0.5349(2) -0.576(1) -0.7351(3)
C23 C -0.5249(3) -0.5467(10) -0.8289(5)
C24 C -0.4997(3) -0.4356(11) -0.8336(5)
C25 C -0.4880(3) -0.3582(10) -0.7477(6)
C26 C -0.5005(4) -0.3919(11) -0.6591(7)
C27 C -0.6428(2) -0.7494(10) -1.1615(3)
C28 C -0.6773(3) -0.6438(10) -1.1759(4)
C29 C -0.6890(3) -0.5704(10) -1.2678(5)
C30 C -0.6652(2) -0.6036(10) -1.3456(4)
C31 C -0.6297(3) -0.7064(10) -1.3326(4)
C32 C -0.6178(2) -0.7791(10) -1.2396(4)
H1 H -0.54873 -0.78035 -0.85053
H2 H -0.57714 -0.62984 -0.58877
H3 H -0.64283 -1.28423 -0.65744
H4 H -0.66061 -1.27410 -0.48778
H5 H -0.65117 -1.08673 -0.39467
H6 H -0.61756 -0.91494 -0.46693
H7 H -0.53516 -0.60943 -0.89602
H8 H -0.49131 -0.41450 -0.90453
H9 H -0.47008 -0.27586 -0.75039
H10 H -0.49239 -0.33288 -0.59339
H11 H -0.69428 -0.62109 -1.11597
H12 H -0.71519 -0.49263 -1.27891
H13 H -0.61160 -0.73056 -1.39150
H14 H -0.59027 -0.85867 -1.22833
H15 H -0.70832 -0.95041 -1.25636
H16 H -0.78969 -0.90767 -1.16746
H17 H -0.81587 -1.02326 -1.26165
H18 H -0.77208 -1.03255 -1.01595
H19 H -0.79507 -1.14881 -1.10905
H20 H -0.56775 -1.06950 -1.06083
H21 H -0.58185 -1.21564 -1.08580
H22 H -0.59922 -1.12320 -1.19946
H23 H -0.77398 -1.20338 -1.24251
H24 H -0.72135 -1.20172 -1.30704
H25 H -0.70313 -1.29409 -1.19298
H26 H -0.67379 -1.20319 -0.87827
H27 H -0.69300 -1.28908 -0.99716
H28 H -0.61025 -1.23485 -0.91607
H29 H -0.54596 -1.07927 -0.73630
H30 H -0.48945 -0.97480 -0.73478
H31 H -0.68850 -0.99613 -0.85192
H32 H -0.69008 -0.86349 -0.91276
#END
