
#######################################################################
#
#                 Cambridge Crystallographic Data Centre
#                                CCDC
#
#######################################################################
#
# If this CIF has been generated from an entry in the Cambridge
# Structural Database, then it will include bibliographic, chemical,
# crystal, experimental, refinement or atomic coordinate data resulting
# from the CCDC's data processing and validation procedures.
#
#######################################################################

data_CSD_CIF_VIWTAW
_audit_creation_date 1992-01-06
_audit_creation_method CSD-ConQuest-V1
_database_code_CSD VIWTAW
_chemical_formula_sum 'C17 H14 N2 O4'
_chemical_formula_moiety
;
C17 H14 N2 O4
;
_journal_coden_Cambridge 82
_journal_volume 31
_journal_year 1990
_journal_page_first 121-3
_journal_name_full 'Zh.Strukt.Khim.(Russ.)(J.Struct.Chem.) '
loop_
_publ_author_name
"M.A.Khusainov"
"I.T.Kirillov"
"D.M.Kukovitskii"
"A.E.Obodovskaya"
"Z.A.Starikova"
"R.S.Musavirov"
"V.V.Zorin"
"D.L.Rakhmankulov"
_chemical_name_systematic
;
5-(4-Cyanophenyl)-5-nitro-2-phenyl-1,3-dioxane
;
_cell_volume   3020.633
_exptl_crystal_density_diffrn 1.365
_diffrn_ambient_temperature ?
_diffrn_special_details
;
The study was carried out at room temperature,in the range 283-303K

;
#These two values have been output from a single CSD field.
_refine_ls_R_factor_gt 0.045
_refine_ls_wR_factor_gt 0.045
_symmetry_cell_setting monoclinic
_symmetry_space_group_name_H-M 'C 2/c'
_symmetry_Int_Tables_number 15
loop_
_symmetry_equiv_pos_site_id
_symmetry_equiv_pos_as_xyz
1 x,y,z
2 1/2+x,1/2+y,z
3 -x,y,1/2-z
4 1/2-x,1/2+y,1/2-z
5 -x,-y,-z
6 -1/2-x,-1/2-y,-z
7 x,-y,-1/2+z
8 -1/2+x,-1/2-y,-1/2+z
_cell_length_a 25.798(4)
_cell_length_b 6.901(2)
_cell_length_c 17.713(2)
_cell_angle_alpha 90
_cell_angle_beta 106.69(1)
_cell_angle_gamma 90
_cell_formula_units_Z 8
loop_
_atom_type_symbol
_atom_type_radius_bond
C 0.68
H 0.23
N 0.68
O 0.68
loop_
_atom_site_label
_atom_site_type_symbol
_atom_site_fract_x
_atom_site_fract_y
_atom_site_fract_z
O1 O 0.15186(9) 0.2063(4) 0.6304(1)
O2 O 0.0983(1) -0.2131(5) 0.7313(2)
O3 O 0.0714(9) 0.2046(4) 0.6634(1)
O4 O 0.1683(1) -0.2054(5) 0.6882(2)
N1 N 0.1377(1) -0.1343(5) 0.7216(2)
N2 N 0.2973(3) -0.0476(6) 1.1465(2)
C1 C 0.1040(2) 0.3103(6) 0.6259(2)
C2 C 0.0981(2) 0.1785(6) 0.7452(2)
C3 C 0.1516(1) 0.0732(5) 0.7572(2)
C4 C 0.1840(1) 0.1760(7) 0.7102(2)
C5 C 0.0750(1) 0.3368(6) 0.5401(2)
C6 C 0.0733(2) 0.5173(7) 0.5059(2)
C7 C 0.0485(2) 0.5406(8) 0.4256(3)
C8 C 0.0249(2) 0.3853(9) 0.3808(2)
C9 C 0.0258(2) 0.2050(8) 0.4144(2)
C10 C 0.0512(2) 0.1797(7) 0.4944(2)
C11 C 0.1834(1) 0.0433(5) 0.8434(2)
C12 C 0.2394(1) 0.0445(6) 0.8657(2)
C13 C 0.2687(1) 0.0184(6) 0.9440(2)
C14 C 0.2416(2) -0.0054(6) 1.0002(2)
C15 C 0.1858(2) -0.0090(7) 0.9786(2)
C16 C 0.1568(1) 0.0140(7) 0.9005(2)
C17 C 0.2727(2) -0.0296(6) 1.0822(2)
H1 H 0.113(1) 0.428(5) 0.653(2)
H2 H 0.071(1) 0.102(5) 0.767(2)
H3 H 0.105(1) 0.291(5) 0.771(2)
H4 H 0.194(1) 0.287(5) 0.732(2)
H5 H 0.218(1) 0.104(5) 0.707(2)
H6 H 0.091(1) 0.621(6) 0.537(2)
H7 H 0.048(2) 0.667(8) 0.401(3)
H8 H 0.006(2) 0.401(6) 0.325(2)
H9 H 0.010(2) 0.090(6) 0.382(2)
H10 H 0.052(1) 0.056(5) 0.518(2)
H11 H 0.258(1) 0.059(4) 0.828(2)
H12 H 0.309(1) 0.023(6) 0.956(2)
H13 H 0.168(1) -0.027(5) 1.017(2)
H14 H 0.117(1) 0.013(6) 0.887(2)
#END
