
#######################################################################
#
#                 Cambridge Crystallographic Data Centre
#                                CCDC
#
#######################################################################
#
# If this CIF has been generated from an entry in the Cambridge
# Structural Database, then it will include bibliographic, chemical,
# crystal, experimental, refinement or atomic coordinate data resulting
# from the CCDC's data processing and validation procedures.
#
#######################################################################

data_CSD_CIF_VIXJET
_audit_creation_date 2014-02-12
_audit_creation_method CSD-ConQuest-V1
_database_code_CSD VIXJET
_database_code_depnum_ccdc_archive 'CCDC 963147'
_chemical_formula_sum 'C14 H11 N1 O1'
_chemical_formula_moiety
;
C14 H11 N1 O1
;
_journal_coden_Cambridge 1475
_journal_volume 5
_journal_year 2014
_journal_page_first 1574
_journal_name_full 'Chemical Science '
loop_
_publ_author_name
"Pingping Duan"
"Yunfang Yang"
"Rong Ben"
"Yiyong Yan"
"Lu Dai"
"Mei Hong"
"Yun-Dong Wu"
"Dongqi Wang"
"Xinhao Zhang"
"Jing Zhao"
_chemical_name_systematic
;
3-(4-Methylphenyl)-1,2-benzoxazole
;
_cell_volume   2165.158
_exptl_crystal_colour 'colorless'
_exptl_crystal_density_diffrn 1.284
_exptl_crystal_description 'prism'
_diffrn_ambient_temperature 295
#These two values have been output from a single CSD field.
_refine_ls_R_factor_gt 0.0491
_refine_ls_wR_factor_gt 0.0491
_symmetry_cell_setting monoclinic
_symmetry_space_group_name_H-M 'P 21/c'
_symmetry_Int_Tables_number 14
loop_
_symmetry_equiv_pos_site_id
_symmetry_equiv_pos_as_xyz
1 x,y,z
2 -x,1/2+y,1/2-z
3 -x,-y,-z
4 x,-1/2-y,-1/2+z
_cell_length_a 25.1525(18)
_cell_length_b 11.4250(4)
_cell_length_c 7.5575(3)
_cell_angle_alpha 90
_cell_angle_beta 94.475(7)
_cell_angle_gamma 90
_cell_formula_units_Z 8
loop_
_atom_type_symbol
_atom_type_radius_bond
C 0.68
H 0.23
N 0.68
O 0.68
loop_
_atom_site_label
_atom_site_type_symbol
_atom_site_fract_x
_atom_site_fract_y
_atom_site_fract_z
O1 O 0.44108(4) 0.97186(12) 0.40351(18)
N1 N 0.38751(5) 0.98981(12) 0.4427(2)
C1 C 0.14279(6) 0.85816(19) 0.5887(3)
H1 H 0.12180 0.89410 0.49190
H2 H 0.13680 0.89820 0.69710
H3 H 0.13270 0.77750 0.59810
C2 C 0.20082(6) 0.86559(14) 0.5559(2)
C3 C 0.23235(6) 0.96002(14) 0.6157(2)
H4 H 0.21720 1.02010 0.67790
C4 C 0.28529(6) 0.96604(13) 0.5847(2)
H5 H 0.30550 1.02980 0.62680
C5 C 0.30927(5) 0.87804(12) 0.49085(17)
C6 C 0.36564(6) 0.88614(13) 0.45248(18)
C7 C 0.40279(5) 0.79531(14) 0.41952(17)
C8 C 0.44901(6) 0.85466(16) 0.3896(2)
C9 C 0.49593(6) 0.8004(2) 0.3510(2)
H6 H 0.52650 0.84270 0.33140
C10 C 0.49471(7) 0.6812(2) 0.3436(2)
H7 H 0.52510 0.64100 0.31590
C11 C 0.40301(6) 0.67286(15) 0.4149(2)
H8 H 0.37280 0.63000 0.43730
C12 C 0.44922(6) 0.61809(17) 0.3764(2)
H9 H 0.45020 0.53680 0.37200
C13 C 0.27788(6) 0.78358(13) 0.43247(19)
H10 H 0.29280 0.72330 0.37020
C14 C 0.22495(6) 0.77819(14) 0.4657(2)
H11 H 0.20490 0.71360 0.42600
O2 O 0.05775(5) 0.47912(12) 0.6083(2)
N2 N 0.11212(6) 0.49602(13) 0.5772(2)
C15 C 0.35814(6) 0.34035(19) 0.4758(3)
H12 H 0.36670 0.25850 0.47980
H13 H 0.37840 0.38020 0.57050
H14 H 0.36670 0.37230 0.36400
C16 C 0.29963(6) 0.35611(14) 0.4961(2)
C17 C 0.26319(6) 0.27290(13) 0.4327(2)
H15 H 0.27510 0.20740 0.37420
C18 C 0.20962(6) 0.28478(13) 0.45445(19)
H16 H 0.18600 0.22730 0.41040
C19 C 0.19031(5) 0.38100(12) 0.54085(17)
C20 C 0.13332(6) 0.39197(13) 0.56803(18)
C21 C 0.09492(5) 0.30166(14) 0.59109(17)
C22 C 0.04869(6) 0.36208(17) 0.6163(2)
C23 C 0.00088(6) 0.3088(2) 0.6484(2)
H17 H -0.02980 0.35190 0.66370
C24 C 0.00144(7) 0.1902(2) 0.6561(2)
H18 H -0.02960 0.15070 0.67920
C25 C 0.22692(6) 0.46559(13) 0.60546(19)
H19 H 0.21510 0.53100 0.66420
C26 C 0.28034(6) 0.45295(14) 0.5830(2)
H20 H 0.30410 0.51030 0.62680
C27 C 0.04710(7) 0.12602(17) 0.6303(2)
H21 H 0.04570 0.04470 0.63490
C28 C 0.09415(6) 0.17951(15) 0.5983(2)
H22 H 0.12460 0.13590 0.58180
#END
