
#######################################################################
#
#                 Cambridge Crystallographic Data Centre
#                                CCDC
#
#######################################################################
#
# If this CIF has been generated from an entry in the Cambridge
# Structural Database, then it will include bibliographic, chemical,
# crystal, experimental, refinement or atomic coordinate data resulting
# from the CCDC's data processing and validation procedures.
#
#######################################################################

data_CSD_CIF_VIYMUN
_audit_creation_date 2014-02-13
_audit_creation_method CSD-ConQuest-V1
_database_code_CSD VIYMUN
_database_code_depnum_ccdc_archive 'CCDC 944728'
_chemical_formula_sum 'C8 H9 N1 O2'
_chemical_formula_moiety
;
C8 H9 N1 O2
;
_journal_coden_Cambridge 1003
_journal_volume 44
_journal_year 2014
_journal_page_first 98
_journal_name_full 'J.Chem.Cryst. '
loop_
_publ_author_name
"E.Bosch"
_chemical_name_systematic
;
1-Methoxy-2-methyl-4-nitrosobenzene
;
_chemical_name_common
;
2-methyl-4-nitrosoanisole
;
_chemical_melting_point 326
_cell_volume    750.387
_exptl_crystal_colour 'green'
_exptl_crystal_density_diffrn 1.338
_exptl_crystal_description 'cut'
_exptl_crystal_preparation 'hexane'
_diffrn_ambient_temperature 150
#These two values have been output from a single CSD field.
_refine_ls_R_factor_gt 0.0363
_refine_ls_wR_factor_gt 0.0363
_symmetry_cell_setting monoclinic
_symmetry_space_group_name_H-M 'P 21/n'
_symmetry_Int_Tables_number 14
loop_
_symmetry_equiv_pos_site_id
_symmetry_equiv_pos_as_xyz
1 x,y,z
2 1/2-x,1/2+y,1/2-z
3 -x,-y,-z
4 -1/2+x,-1/2-y,-1/2+z
_cell_length_a 3.9710(3)
_cell_length_b 12.6298(9)
_cell_length_c 15.051(1)
_cell_angle_alpha 90
_cell_angle_beta 96.235(1)
_cell_angle_gamma 90
_cell_formula_units_Z 4
loop_
_atom_type_symbol
_atom_type_radius_bond
C 0.68
H 0.23
N 0.68
O 0.68
loop_
_atom_site_label
_atom_site_type_symbol
_atom_site_fract_x
_atom_site_fract_y
_atom_site_fract_z
O1 O 0.2288(2) 0.60924(7) 0.05556(6)
N1 N -0.3708(3) 0.95856(9) 0.19370(8)
C1 C 0.0887(3) 0.69391(10) 0.09272(8)
O2 O -0.4778(3) 1.02915(8) 0.14164(7)
C2 C -0.0131(3) 0.77687(10) 0.03211(8)
C3 C -0.1651(3) 0.86464(10) 0.06419(8)
H1 H -0.23820 0.92070 0.02460
C4 C -0.2129(3) 0.87202(10) 0.15503(8)
C5 C -0.1062(3) 0.79098(11) 0.21346(8)
H2 H -0.13640 0.79720 0.27500
C6 C 0.0437(3) 0.70129(10) 0.18312(8)
H3 H 0.11500 0.64550 0.22320
C7 C 0.3377(4) 0.52212(11) 0.11283(10)
H4 H 0.50920 0.54670 0.16010
H5 H 0.43500 0.46680 0.07770
H6 H 0.14340 0.49340 0.13980
C8 C 0.0476(3) 0.76667(10) -0.06449(8)
H7 H -0.04540 0.82870 -0.09770
H8 H -0.06380 0.70250 -0.08980
H9 H 0.29160 0.76210 -0.06890
#END
