
#######################################################################
#
#                 Cambridge Crystallographic Data Centre
#                                CCDC
#
#######################################################################
#
# If this CIF has been generated from an entry in the Cambridge
# Structural Database, then it will include bibliographic, chemical,
# crystal, experimental, refinement or atomic coordinate data resulting
# from the CCDC's data processing and validation procedures.
#
#######################################################################

data_CSD_CIF_VIYNOH
_audit_creation_date 2008-08-21
_audit_creation_method CSD-ConQuest-V1
_database_code_CSD VIYNOH
_database_code_depnum_ccdc_archive 'CCDC 299202'
_chemical_formula_sum 'C22 H21 N3 O5'
_chemical_formula_moiety
;
C22 H21 N3 O5
;
_journal_coden_Cambridge 1003
_journal_volume 38
_journal_year 2008
_journal_page_first 315
_journal_name_full 'J.Chem.Cryst. '
loop_
_publ_author_name
"S.Naveen"
"S.M.Anandalwar"
"J.S.Prasad"
"D.Manvar"
"A.Mishra"
"A.Shah"
_chemical_name_systematic
;
methyl 
2,6-dimethyl-5-(phenylcarbamoyl)-4-(3-nitrophenyl)-1,4-dihydropyridine-3-carbo
xylate
;
_chemical_melting_point 479.15
_cell_volume   2027.627
_exptl_crystal_density_diffrn 1.335
_exptl_special_details
;
Melting point range 479.15-480.15K
flat boat conformer

;
_exptl_crystal_preparation 'dimethylformamide'
_diffrn_ambient_temperature 293
_refine_special_details
;
A nitro O atom is disordered with occupancies 0.66:0.34.

;
#These two values have been output from a single CSD field.
_refine_ls_R_factor_gt 0.0719
_refine_ls_wR_factor_gt 0.0719
_symmetry_cell_setting monoclinic
_symmetry_space_group_name_H-M 'P 21/c'
_symmetry_Int_Tables_number 14
loop_
_symmetry_equiv_pos_site_id
_symmetry_equiv_pos_as_xyz
1 x,y,z
2 -x,1/2+y,1/2-z
3 -x,-y,-z
4 x,-1/2-y,-1/2+z
_cell_length_a 10.5960(6)
_cell_length_b 10.2450(7)
_cell_length_c 19.5790(11)
_cell_angle_alpha 90
_cell_angle_beta 107.448(3)
_cell_angle_gamma 90
_cell_formula_units_Z 4
loop_
_atom_type_symbol
_atom_type_radius_bond
C 0.68
H 0.23
N 0.68
O 0.68
loop_
_atom_site_label
_atom_site_type_symbol
_atom_site_fract_x
_atom_site_fract_y
_atom_site_fract_z
N1 N 0.4779(2) 0.5040(2) 0.17313(9)
H1 H 0.43340 0.57500 0.17050
C1 C 0.5601(2) 0.4648(2) 0.2399(1)
C2 C 0.6472(2) 0.3688(2) 0.2433(1)
C3 C 0.6695(2) 0.3115(2) 0.1763(1)
H2 H 0.68120 0.21700 0.18280
C4 C 0.5508(2) 0.3368(2) 0.1109(1)
C5 C 0.4645(2) 0.4342(2) 0.1113(1)
C6 C 0.3496(2) 0.4792(2) 0.0501(1)
H3 H 0.38040 0.50260 0.01030
H4 H 0.30920 0.55370 0.06470
H5 H 0.28590 0.41000 0.03610
C7 C 0.5366(2) 0.5358(2) 0.3018(1)
H6 H 0.59480 0.50210 0.34570
H7 H 0.44640 0.52360 0.30120
H8 H 0.55350 0.62720 0.29810
C8 C 0.7354(2) 0.3154(2) 0.3119(1)
O1 O 0.7264(2) 0.2017(2) 0.33016(9)
N2 N 0.8310(2) 0.3973(2) 0.3494(1)
H9 H 0.82590 0.47660 0.33440
C9 C 0.9389(2) 0.3680(2) 0.4105(1)
C10 C 1.0535(3) 0.4411(3) 0.42091(1)
H10 H 1.05680 0.50580 0.38820
C11 C 1.1628(3) 0.4186(3) 0.4795(2)
H11 H 1.23880 0.46870 0.48620
C12 C 1.1597(3) 0.3233(3) 0.5275(2)
H12 H 1.23330 0.30770 0.56670
C13 C 1.0471(3) 0.2506(3) 0.5173(1)
H13 H 1.04570 0.18450 0.54960
C14 C 0.9345(3) 0.2734(3) 0.4597(1)
H14 H 0.85760 0.22540 0.45450
C15 C 0.5479(2) 0.2500(2) 0.0512(1)
O2 O 0.6264(2) 0.1620(2) 0.0562(1)
O3 O 0.4536(2) 0.2745(2) -0.01073(9)
C16 C 0.4541(3) 0.1917(3) -0.0703(1)
H15 H 0.53290 0.20770 -0.08370
H16 H 0.37780 0.21050 -0.11020
H17 H 0.45190 0.10190 -0.05680
C17 C 0.7977(2) 0.3697(2) 0.16883(1)
C18 C 0.8009(2) 0.4969(2) 0.14486(1)
H18 H 0.72250 0.54410 0.12940
C19 C 0.9173(3) 0.5549(3) 0.1434(1)
H19 H 0.91620 0.63980 0.12640
C20 C 1.0358(3) 0.4877(3) 0.1669(1)
H20 H 1.11530 0.52670 0.16740
C21 C 1.0316(2) 0.3605(2) 0.1896(1)
C22 C 0.9150(2) 0.3001(2) 0.1909(1)
H21 H 0.91560 0.21410 0.20620
N3 N 1.1543(2) 0.2845(3) 0.2108(1)
O4 O 1.257(2) 0.339(1) 0.210(2)
O5? O 1.257(3) 0.345(3) 0.245(3)
O6 O 1.1471(2) 0.1668(2) 0.2157(1)
#END
