
#######################################################################
#
#                 Cambridge Crystallographic Data Centre
#                                CCDC
#
#######################################################################
#
# If this CIF has been generated from an entry in the Cambridge
# Structural Database, then it will include bibliographic, chemical,
# crystal, experimental, refinement or atomic coordinate data resulting
# from the CCDC's data processing and validation procedures.
#
#######################################################################

data_CSD_CIF_VIYYIL
_audit_creation_date 1992-03-02
_audit_creation_method CSD-ConQuest-V1
_database_code_CSD VIYYIL
_database_code_depnum_ccdc_archive 'CCDC 1285165'
_database_code_depnum_ccdc_fiz 'CSD 55100'
_chemical_formula_sum 'C27 H30 N4 O9'
_chemical_formula_moiety
;
C27 H30 N4 O9
;
_journal_coden_Cambridge 48
_journal_volume 124
_journal_year 1991
_journal_page_first 1683
_journal_name_full 'Chem.Ber. '
loop_
_publ_author_name
"F.E.Hahn"
"M.Tamm"
"A.Dittler-Klingemann"
"R.Neumeier"
_chemical_name_systematic
;
tris(3-(2-Nitrophenoxy)propyl)amine
;
_chemical_melting_point 377.15
_cell_volume   2738.783
_exptl_crystal_colour 'golden'
_exptl_crystal_density_diffrn 1.345
_diffrn_ambient_temperature ?
_diffrn_special_details
;
The study was carried out at room temperature,in the range 283-303K

;
#These two values have been output from a single CSD field.
_refine_ls_R_factor_gt 0.063
_refine_ls_wR_factor_gt 0.063
_symmetry_cell_setting monoclinic
_symmetry_space_group_name_H-M 'P 21/c'
_symmetry_Int_Tables_number 14
loop_
_symmetry_equiv_pos_site_id
_symmetry_equiv_pos_as_xyz
1 x,y,z
2 -x,1/2+y,1/2-z
3 -x,-y,-z
4 x,-1/2-y,-1/2+z
_cell_length_a 11.080(3)
_cell_length_b 13.802(6)
_cell_length_c 18.415(4)
_cell_angle_alpha 90
_cell_angle_beta 103.46(2)
_cell_angle_gamma 90
_cell_formula_units_Z 4
loop_
_atom_type_symbol
_atom_type_radius_bond
C 0.68
H 0.23
N 0.68
O 0.68
loop_
_atom_site_label
_atom_site_type_symbol
_atom_site_fract_x
_atom_site_fract_y
_atom_site_fract_z
O1 O 0.4966(5) 0.2619(5) 0.0259(3)
O2 O 0.4369(7) 0.1244(6) 0.1652(5)
O3 O 0.2900(8) 0.1895(6) 0.0894(5)
O4 O 0.8900(5) 0.3197(5) -0.0277(3)
O5 O 0.7933(7) 0.5155(6) -0.1760(4)
O6 O 0.7193(8) 0.3780(6) -0.1482(4)
O7 O 0.8647(5) 0.1331(4) 0.1850(3)
O8 O 1.2298(7) 0.1633(6) 0.2637(4)
O9 O 1.0935(6) 0.1067(5) 0.1751(4)
N1 N 0.7334(7) 0.1124(5) -0.0035(4)
N2 N 0.3896(7) 0.1917(6) 0.1310(4)
N3 N 0.7726(7) 0.4536(6) -0.1306(4)
N4 N 1.1228(7) 0.1642(6) 0.2236(4)
C1 C 0.6038(9) 0.1048(8) -0.0443(5)
C2 C 0.552(1) 0.1999(8) -0.0817(6)
C3 C 0.5658(9) 0.2854(7) -0.0293(5)
C4 C 0.5074(8) 0.3213(7) 0.0830(5)
C5 C 0.4531(9) 0.2860(7) 0.1414(5)
C6 C 0.460(1) 0.3368(9) 0.2010(6)
C7 C 0.519(1) 0.4257(9) 0.2115(5)
C8 C 0.570(1) 0.4637(8) 0.1609(7)
C9 C 0.5667(9) 0.4114(7) 0.0930(5)
C10 C 0.8176(9) 0.1174(8) -0.0547(5)
C11 C 0.9475(9) 0.1521(7) -0.0180(6)
C12 C 0.9476(9) 0.2458(7) 0.0244(5)
C13 C 0.8696(8) 0.4076(7) -0.0015(5)
C14 C 0.8138(8) 0.4769(7) -0.0518(5)
C15 C 0.7903(9) 0.5688(7) -0.0306(6)
C16 C 0.8241(9) 0.5945(8) 0.0448(6)
C17 C 0.881(1) 0.5264(8) 0.0969(6)
C18 C 0.9042(8) 0.4349(7) 0.0733(5)
C19 C 0.7662(9) 0.0287(7) 0.0478(6)
C20 C 0.7078(9) 0.0312(7) 0.1130(5)
C21 C 0.7314(8) 0.1242(7) 0.1572(5)
C22 C 0.9069(8) 0.2184(7) 0.2175(5)
C23 C 1.0336(8) 0.2350(7) 0.2361(5)
C24 C 1.0818(9) 0.3209(7) 0.2697(6)
C25 C 1.0027(9) 0.3933(7) 0.2856(5)
C26 C 0.8777(8) 0.3775(7) 0.2684(4)
C27 C 0.8278(8) 0.2916(7) 0.2360(5)
H1 H 0.55530 0.08630 -0.01020
H2 H 0.59760 0.05640 -0.08170
H3 H 0.46650 0.19100 -0.10370
H4 H 0.59500 0.21420 -0.11950
H5 H 0.65070 0.29550 -0.00590
H6 H 0.53290 0.34210 -0.05590
H7 H 0.42240 0.31230 0.23880
H8 H 0.52190 0.46010 0.25660
H9 H 0.60950 0.52520 0.16890
H10 H 0.60380 0.43730 0.05570
H11 H 0.78290 0.16060 -0.09410
H12 H 0.82360 0.05450 -0.07450
H13 H 0.99200 0.16170 -0.05560
H14 H 0.98750 0.10360 0.01570
H15 H 0.90220 0.23780 0.06180
H16 H 1.03050 0.26400 0.04700
H17 H 0.75110 0.61460 -0.06690
H18 H 0.80800 0.65790 0.06010
H19 H 0.90420 0.54260 0.14840
H20 H 0.94500 0.38900 0.10910
H21 H 0.85370 0.02780 0.06610
H22 H 0.74040 -0.02890 0.02040
H23 H 0.73990 -0.02110 0.14520
H24 H 0.62070 0.02340 0.09520
H25 H 0.70030 0.17770 0.12600
H26 H 0.69190 0.12180 0.19780
H27 H 1.16890 0.33080 0.28210
H28 H 1.03580 0.45250 0.30800
H29 H 0.82380 0.42640 0.27880
H30 H 0.74060 0.28120 0.22590
#END
