
#######################################################################
#
#                 Cambridge Crystallographic Data Centre
#                                CCDC
#
#######################################################################
#
# If this CIF has been generated from an entry in the Cambridge
# Structural Database, then it will include bibliographic, chemical,
# crystal, experimental, refinement or atomic coordinate data resulting
# from the CCDC's data processing and validation procedures.
#
#######################################################################

data_CSD_CIF_VIZJAQ
_audit_creation_date 2008-08-21
_audit_creation_method CSD-ConQuest-V1
_database_code_CSD VIZJAQ
_database_code_depnum_ccdc_archive 'CCDC 647885'
_chemical_formula_sum 'C16 H17 N1 O8'
_chemical_formula_moiety
;
C16 H17 N1 O8
;
_journal_coden_Cambridge 119
_journal_volume 878
_journal_year 2008
_journal_page_first 149
_journal_name_full 'J.Mol.Struct. '
loop_
_publ_author_name
"D.V.Liskin"
"E.J.Valente"
_chemical_name_systematic
;
cis-8-Hydroxy-4,4,9,9-tetramethyl-1,6-dioxo-1,3,4,6,8,9-hexahydropyrano(3,4-g)
isochromen-3-yl nitrate
;
_cell_volume   3316.803
_exptl_crystal_colour 'colorless'
_exptl_crystal_density_diffrn 1.407
_exptl_special_details
;
The unit cell length b is incorrectly published as 3.6901; we have used the 
value from the deposited .cif
;
_exptl_crystal_description 'prism'
_exptl_crystal_preparation 'chloroform'
_diffrn_ambient_temperature 294
#These two values have been output from a single CSD field.
_refine_ls_R_factor_gt 0.1255
_refine_ls_wR_factor_gt 0.1255
_symmetry_cell_setting orthorhombic
_symmetry_space_group_name_H-M 'P b c a'
_symmetry_Int_Tables_number 61
loop_
_symmetry_equiv_pos_site_id
_symmetry_equiv_pos_as_xyz
1 x,y,z
2 1/2-x,-y,1/2+z
3 -x,1/2+y,1/2-z
4 1/2+x,1/2-y,-z
5 -x,-y,-z
6 -1/2+x,y,-1/2-z
7 x,-1/2-y,-1/2+z
8 -1/2-x,-1/2+y,z
_cell_length_a 11.6085(11)
_cell_length_b 13.6901(12)
_cell_length_c 20.8707(19)
_cell_angle_alpha 90
_cell_angle_beta 90
_cell_angle_gamma 90
_cell_formula_units_Z 8
loop_
_atom_type_symbol
_atom_type_radius_bond
C 0.68
H 0.23
N 0.68
O 0.68
loop_
_atom_site_label
_atom_site_type_symbol
_atom_site_fract_x
_atom_site_fract_y
_atom_site_fract_z
C1 C 0.1005(6) 0.8475(5) 0.1510(3)
C2 C 0.0348(6) 0.7785(5) 0.1815(3)
C3 C 0.0362(6) 0.6850(5) 0.1578(3)
H1 H -0.00550 0.63620 0.17830
C4 C 0.0996(7) 0.6632(5) 0.1034(3)
C5 C 0.1624(6) 0.7327(5) 0.0712(3)
C6 C 0.1643(7) 0.8240(5) 0.0968(4)
H2 H 0.20940 0.87190 0.07760
C7 C 0.1107(8) 0.9473(6) 0.1778(4)
C8 C -0.0601(8) 0.9146(6) 0.2369(5)
H3 H -0.09530 0.93560 0.27720
C9 C -0.0323(6) 0.8065(5) 0.2411(3)
C10 C 0.0451(8) 0.7943(7) 0.3012(4)
H4 H 0.00220 0.81190 0.33880
H5 H 0.11130 0.83600 0.29750
H6 H 0.06970 0.72760 0.30460
C11 C -0.1409(7) 0.7482(6) 0.2509(5)
H7 H -0.17890 0.76990 0.28920
H8 H -0.12180 0.68020 0.25500
H9 H -0.19110 0.75720 0.21490
C12 C 0.0958(8) 0.5592(6) 0.0803(4)
C13 C 0.1596(12) 0.6198(7) -0.0189(5)
H10 H 0.20180 0.59640 -0.05650
C14 C 0.2274(8) 0.7040(6) 0.0109(4)
C15 C 0.3461(9) 0.6573(9) 0.0332(6)
H11 H 0.39270 0.70670 0.05310
H12 H 0.38580 0.63130 -0.00330
H13 H 0.33130 0.60590 0.06340
C16 C 0.2418(14) 0.7836(8) -0.0357(5)
H14 H 0.28500 0.83570 -0.01640
H15 H 0.16740 0.80740 -0.04840
H16 H 0.28230 0.75970 -0.07260
N1 N -0.2005(9) 1.0173(6) 0.1857(5)
O1 O 0.1832(6) 1.0040(5) 0.1629(4)
O2 O 0.0356(5) 0.9752(4) 0.2235(3)
O3 O -0.1415(5) 0.9243(4) 0.1873(3)
O4 O -0.2672(10) 1.0255(7) 0.1450(5)
O5 O -0.1744(8) 1.0743(6) 0.2258(5)
O6 O 0.0526(5) 0.4938(4) 0.1095(3)
O7 O 0.1445(6) 0.5380(4) 0.0251(3)
O8 O 0.0536(9) 0.6538(5) -0.0388(3)
H17 H 0.02430 0.61410 -0.06330
#END
