
#######################################################################
#
#                 Cambridge Crystallographic Data Centre
#                                CCDC
#
#######################################################################
#
# If this CIF has been generated from an entry in the Cambridge
# Structural Database, then it will include bibliographic, chemical,
# crystal, experimental, refinement or atomic coordinate data resulting
# from the CCDC's data processing and validation procedures.
#
#######################################################################

data_CSD_CIF_VIZMAU
_audit_creation_date 2014-02-13
_audit_creation_method CSD-ConQuest-V1
_database_code_CSD VIZMAU
_database_code_depnum_ccdc_archive 'CCDC 896999'
_chemical_formula_sum 'C16 H14 N4 O2'
_chemical_formula_moiety
;
C16 H14 N4 O2
;
_journal_coden_Cambridge 1094
_journal_volume 24
_journal_year 2013
_journal_page_first 1089
_journal_name_full 'Struct.Chem. '
loop_
_publ_author_name
"O.V.Shishkin"
"I.S.Konovalova"
"R.I.Zubatyuk"
"G.V.Palamarchuk"
"A.V.Biitseva"
"I.V.Rudenko"
"V.A.Tkachuk"
"M.Yu.Kornilov"
"O.V.Hordiyenko"
"J.Leszczynski"
_chemical_name_systematic
;
N,N-Dimethyl-1-((2-nitrophenyl)imino)-1H-isoindol-3-amine
;
_cell_volume   1419.855
_exptl_crystal_density_diffrn 1.377
_diffrn_ambient_temperature 293
#These two values have been output from a single CSD field.
_refine_ls_R_factor_gt 0.0725
_refine_ls_wR_factor_gt 0.0725
_symmetry_cell_setting monoclinic
_symmetry_space_group_name_H-M 'P 21/c'
_symmetry_Int_Tables_number 14
loop_
_symmetry_equiv_pos_site_id
_symmetry_equiv_pos_as_xyz
1 x,y,z
2 -x,1/2+y,1/2-z
3 -x,-y,-z
4 x,-1/2-y,-1/2+z
_cell_length_a 7.453(2)
_cell_length_b 8.183(2)
_cell_length_c 23.307(7)
_cell_angle_alpha 90
_cell_angle_beta 92.71
_cell_angle_gamma 90
_cell_formula_units_Z 4
loop_
_atom_type_symbol
_atom_type_radius_bond
C 0.68
H 0.23
N 0.68
O 0.68
loop_
_atom_site_label
_atom_site_type_symbol
_atom_site_fract_x
_atom_site_fract_y
_atom_site_fract_z
O1 O 0.4648(4) 0.6912(5) 0.20844(11)
O2 O 0.4534(3) 0.8314(4) 0.13040(9)
N1 N 0.1970(3) 0.5487(4) 0.09707(10)
N2 N 0.0836(3) 0.8217(4) 0.08369(9)
N3 N 0.3859(4) 0.7802(5) 0.17407(11)
N4 N 0.3033(4) 0.2891(5) 0.07723(11)
C1 C 0.2521(4) 0.4367(5) 0.05993(12)
C2 C 0.2472(4) 0.5038(6) -0.00056(12)
C3 C 0.2982(4) 0.4380(6) -0.05354(12)
H1 H 0.34390 0.33270 -0.05650
C4 C 0.2756(5) 0.5409(7) -0.10110(13)
H2 H 0.31030 0.50460 -0.13670
C5 C 0.2037(4) 0.6936(7) -0.09655(13)
H3 H 0.18750 0.75700 -0.12950
C6 C 0.1537(4) 0.7577(6) -0.04427(12)
H4 H 0.10650 0.86240 -0.04130
C7 C 0.1785(4) 0.6562(5) 0.00298(11)
C8 C 0.1484(4) 0.6876(6) 0.06562(11)
C9 C 0.0674(4) 0.8475(5) 0.14298(12)
C10 C -0.0998(4) 0.9001(6) 0.16083(14)
H5 H -0.19560 0.90850 0.13390
C11 C -0.1258(5) 0.9398(6) 0.21744(15)
H6 H -0.23910 0.97310 0.22780
C12 C 0.0114(5) 0.9315(7) 0.25878(15)
H7 H -0.00770 0.96120 0.29650
C13 C 0.1784(5) 0.8783(6) 0.24344(13)
H8 H 0.27330 0.87260 0.27070
C14 C 0.2035(4) 0.8328(5) 0.18645(12)
C15 C 0.3111(6) 0.2511(7) 0.13916(14)
H9 H 0.33760 0.34890 0.16070
H10 H 0.40340 0.17150 0.14740
H11 H 0.19740 0.20810 0.14970
C16 C 0.3445(5) 0.1583(6) 0.03830(16)
H12 H 0.24760 0.14610 0.01000
H13 H 0.36010 0.05830 0.05950
H14 H 0.45310 0.18370 0.01960
#END
