
#######################################################################
#
#                 Cambridge Crystallographic Data Centre
#                                CCDC
#
#######################################################################
#
# If this CIF has been generated from an entry in the Cambridge
# Structural Database, then it will include bibliographic, chemical,
# crystal, experimental, refinement or atomic coordinate data resulting
# from the CCDC's data processing and validation procedures.
#
#######################################################################

data_CSD_CIF_VOBGEY
_audit_creation_date 1992-04-28
_audit_creation_method CSD-ConQuest-V1
_database_code_CSD VOBGEY
_chemical_formula_sum 'C10 H10 N4 O1'
_chemical_formula_moiety
;
C10 H10 N4 O1
;
_journal_coeditor_code "IUCr HU0334"
_journal_coden_Cambridge 591
_journal_volume 47
_journal_year 1991
_journal_page_first 1993
_journal_name_full 'Acta Crystallogr.,Sect.C:Cryst.Struct.Commun. '
loop_
_publ_author_name
"R.Bardi"
"A.M.Piazzesi"
"A.del Pra"
_chemical_name_systematic
;
5-(3-Methyl-1,2,4-oxadiazole)carbaldehyde phenylhydrazone
;
_cell_volume   2020.024
_exptl_crystal_density_diffrn 1.33
_diffrn_ambient_temperature ?
_diffrn_special_details
;
The study was carried out at room temperature,in the range 283-303K

;
#These two values have been output from a single CSD field.
_refine_ls_R_factor_gt 0.0696
_refine_ls_wR_factor_gt 0.0696
_symmetry_cell_setting orthorhombic
_symmetry_space_group_name_H-M 'P b c a'
_symmetry_Int_Tables_number 61
loop_
_symmetry_equiv_pos_site_id
_symmetry_equiv_pos_as_xyz
1 x,y,z
2 1/2-x,1/2+y,z
3 x,1/2-y,1/2+z
4 1/2-x,-y,1/2+z
5 -x,-y,-z
6 -1/2+x,-1/2-y,-z
7 -x,-1/2+y,-1/2-z
8 -1/2+x,y,-1/2-z
_cell_length_a 22.990(6)
_cell_length_b 10.752(4)
_cell_length_c 8.172(4)
_cell_angle_alpha 90
_cell_angle_beta 90
_cell_angle_gamma 90
_cell_formula_units_Z 8
loop_
_atom_type_symbol
_atom_type_radius_bond
C 0.68
H 0.23
N 0.68
O 0.68
loop_
_atom_site_label
_atom_site_type_symbol
_atom_site_fract_x
_atom_site_fract_y
_atom_site_fract_z
O1 O 0.5282(1) 0.5115(3) 0.3144(4)
N1 N 0.4108(2) 0.3237(4) 0.0238(7)
N2 N 0.4478(2) 0.3889(4) 0.1181(7)
N3 N 0.5709(2) 0.5387(4) 0.4329(6)
N4 N 0.5638(2) 0.3315(4) 0.4016(6)
C1 C 0.3670(3) 0.3824(6) -0.0625(8)
C2 C 0.3296(3) 0.3083(6) -0.1560(8)
C3 C 0.2867(3) 0.3640(7) -0.2467(9)
C4 C 0.2788(2) 0.4887(8) -0.2468(10)
C5 C 0.3158(3) 0.5607(6) -0.1536(9)
C6 C 0.3598(2) 0.5096(6) -0.0636(7)
C7 C 0.4856(2) 0.3255(5) 0.1984(8)
C8 C 0.5274(2) 0.3867(5) 0.3051(8)
C9 C 0.5893(2) 0.4315(6) 0.4792(9)
C10 C 0.6340(3) 0.4134(6) 0.6058(9)
H1 H 0.33580 0.21800 -0.15110
H2 H 0.26760 0.30890 -0.30200
H3 H 0.25160 0.52950 -0.31510
H4 H 0.31410 0.64210 -0.15400
H5 H 0.38150 0.55890 0.00610
H6 H 0.49130 0.23980 0.18760
H7 H 0.41300 0.24040 0.02430
H8 H 0.61960 0.35990 0.70610
H9 H 0.64370 0.48210 0.66610
H10 H 0.65900 0.38990 0.55460
#END
