
#######################################################################
#
#                 Cambridge Crystallographic Data Centre
#                                CCDC
#
#######################################################################
#
# If this CIF has been generated from an entry in the Cambridge
# Structural Database, then it will include bibliographic, chemical,
# crystal, experimental, refinement or atomic coordinate data resulting
# from the CCDC's data processing and validation procedures.
#
#######################################################################

data_CSD_CIF_VOBPAD
_audit_creation_date 1992-04-28
_audit_creation_method CSD-ConQuest-V1
_database_code_CSD VOBPAD
_chemical_formula_sum 'C10 H9 N3 O1'
_chemical_formula_moiety
;
C10 H9 N3 O1
;
_journal_coeditor_code "IUCr AS0474"
_journal_coden_Cambridge 591
_journal_volume 47
_journal_year 1991
_journal_page_first 2193
_journal_name_full 'Acta Crystallogr.,Sect.C:Cryst.Struct.Commun. '
loop_
_publ_author_name
"K.Yamaguchi"
"T.Itoh"
"T.Kaihoh"
"A.Ohsawa"
_chemical_name_systematic
;
6-Methyl-4-phenyl-1,2,3-triazine 1-oxide
;
_cell_volume    448.320
_exptl_crystal_density_diffrn 1.387
_diffrn_ambient_temperature ?
_diffrn_special_details
;
The study was carried out at room temperature,in the range 283-303K

;
#These two values have been output from a single CSD field.
_refine_ls_R_factor_gt 0.036
_refine_ls_wR_factor_gt 0.036
_symmetry_cell_setting monoclinic
_symmetry_space_group_name_H-M 'P c'
_symmetry_Int_Tables_number 7
loop_
_symmetry_equiv_pos_site_id
_symmetry_equiv_pos_as_xyz
1 x,y,z
2 x,-y,1/2+z
_cell_length_a 10.333(1)
_cell_length_b 6.153(1)
_cell_length_c 7.058(2)
_cell_angle_alpha 90
_cell_angle_beta 92.48(2)
_cell_angle_gamma 90
_cell_formula_units_Z 2
loop_
_atom_type_symbol
_atom_type_radius_bond
C 0.68
N 0.68
O 0.68
loop_
_atom_site_label
_atom_site_type_symbol
_atom_site_fract_x
_atom_site_fract_y
_atom_site_fract_z
N1 N 0.8056(4) 0.9128(4) 0.9266(6)
N2 N 0.6940(4) 0.8325(5) 0.8635(7)
N3 N 0.5993(5) 0.9703(5) 0.8059(7)
C1 C 0.6118(4) 1.1921(6) 0.8159(7)
C2 C 0.7281(5) 1.2710(6) 0.8820(8)
C3 C 0.8276(5) 1.1264(6) 0.9359(7)
O1 O 0.49480 0.8866(5) 0.74060
C4 C 0.4981(5) 1.3221(7) 0.7479(9)
C5 C 0.9594(4) 1.1915(6) 1.0021(7)
C6 C 1.0620(5) 1.0487(6) 0.9868(7)
C7 C 1.1864(4) 1.1083(7) 1.0464(7)
C8 C 1.2084(5) 1.3112(8) 1.1273(7)
C9 C 1.1073(5) 1.4559(7) 1.1421(7)
C10 C 0.9830(5) 1.3977(6) 1.0792(7)
#END
