
#######################################################################
#
#                 Cambridge Crystallographic Data Centre
#                                CCDC
#
#######################################################################
#
# If this CIF has been generated from an entry in the Cambridge
# Structural Database, then it will include bibliographic, chemical,
# crystal, experimental, refinement or atomic coordinate data resulting
# from the CCDC's data processing and validation procedures.
#
#######################################################################

data_CSD_CIF_VOBTOV02
_audit_creation_date 2003-08-06
_audit_creation_method CSD-ConQuest-V1
_database_code_CSD VOBTOV02
_database_code_depnum_ccdc_archive 'CCDC 196901'
_chemical_formula_sum 'C8 H9 N1 O1'
_chemical_formula_moiety
;
C8 H9 N1 O1
;
_journal_coden_Cambridge 177
_journal_volume 1
_journal_year 2003
_journal_page_first 1034
_journal_name_full 'Org.Biomol.Chem. '
loop_
_publ_author_name
"D.E.Hibbs"
"J.R.Hanrahan"
"M.B.Hursthouse"
"D.W.Knight"
"J.Overgaard"
"P.Turner"
"R.O.Piltz"
"M.P.Waller"
_chemical_name_systematic
;
(Z)-N-Methyl-C-phenylnitrone
;
_cell_volume   1414.288
_exptl_crystal_colour 'colorless'
_exptl_crystal_density_diffrn 1.27
_exptl_crystal_description 'prism'
_exptl_crystal_preparation 'ethyl acetate/hexane(1'
_diffrn_ambient_temperature 100
_diffrn_radiation_probe 'neutron radiation'
_diffrn_special_details
;
charge density study

;
_refine_special_details
;
multipole refinement

;
#These two values have been output from a single CSD field.
_refine_ls_R_factor_gt 0.0311
_refine_ls_wR_factor_gt 0.0311
_symmetry_cell_setting orthorhombic
_symmetry_space_group_name_H-M 'P b c a'
_symmetry_Int_Tables_number 61
loop_
_symmetry_equiv_pos_site_id
_symmetry_equiv_pos_as_xyz
1 x,y,z
2 1/2-x,-y,1/2+z
3 1/2+x,1/2-y,-z
4 -x,1/2+y,1/2-z
5 -x,-y,-z
6 -1/2+x,y,-1/2-z
7 -1/2-x,-1/2+y,z
8 x,-1/2-y,-1/2+z
_cell_length_a 9.544(2)
_cell_length_b 7.756(2)
_cell_length_c 19.106(4)
_cell_angle_alpha 90
_cell_angle_beta 90
_cell_angle_gamma 90
_cell_formula_units_Z 8
loop_
_atom_type_symbol
_atom_type_radius_bond
C 0.68
H 0.23
N 0.68
O 0.68
loop_
_atom_site_label
_atom_site_type_symbol
_atom_site_fract_x
_atom_site_fract_y
_atom_site_fract_z
O1 O 0.24050(17) 0.1135(2) 0.45908(10)
N1 N 0.12284(10) 0.19603(12) 0.46477(5)
C1 C 0.07962(16) 0.2891(2) 0.40158(9)
C2 C 0.04540(14) 0.20317(17) 0.52105(8)
C3 C 0.07783(14) 0.12826(17) 0.58853(8)
C4 C 0.19487(14) 0.02276(17) 0.60323(9)
C5 C 0.21829(15) -0.03472(17) 0.67127(8)
C6 C 0.12780(15) 0.01118(18) 0.72537(10)
C7 C 0.00933(15) 0.11159(18) 0.71087(9)
C8 C -0.01566(15) 0.16894(18) 0.64317(8)
H1 H 0.1547(4) 0.3931(4) 0.39359(19)
H2 H -0.0249(4) 0.3407(5) 0.4075(2)
H3 H 0.0831(4) 0.1978(5) 0.3582(2)
H4 H -0.0524(3) 0.2746(4) 0.51617(18)
H5 H 0.2648(3) -0.0126(4) 0.56131(19)
H6 H 0.3085(3) -0.1158(4) 0.68227(19)
H7 H 0.1481(4) -0.0323(4) 0.7783(2)
H8 H -0.0640(3) 0.1457(4) 0.75259(19)
H9 H -0.1070(3) 0.2470(4) 0.63109(18)
#END
