
#######################################################################
#
#                 Cambridge Crystallographic Data Centre
#                                CCDC
#
#######################################################################
#
# If this CIF has been generated from an entry in the Cambridge
# Structural Database, then it will include bibliographic, chemical,
# crystal, experimental, refinement or atomic coordinate data resulting
# from the CCDC's data processing and validation procedures.
#
#######################################################################

data_CSD_CIF_VOBVOX
_audit_creation_date 1992-04-28
_audit_creation_method CSD-ConQuest-V1
_database_code_CSD VOBVOX
_chemical_formula_sum 'C19 H17 N3 O4'
_chemical_formula_moiety
;
C19 H17 N3 O4
;
_journal_coeditor_code "IUCr HH0512"
_journal_coden_Cambridge 591
_journal_volume 47
_journal_year 1991
_journal_page_first 2492
_journal_name_full 'Acta Crystallogr.,Sect.C:Cryst.Struct.Commun. '
loop_
_publ_author_name
"R.A.Toscano"
"M.Rubio"
"R.Cetina"
"B.M.Perez-Ibarra"
_chemical_name_systematic
;
2-(m-Nitrobenzoyl)-1,2,3,6,7,11b-hexahydro-4H-pyrazino(2,1-a)isoquinolin-4-one
;
_cell_volume   1632.033
_exptl_crystal_colour 'yellow'
_exptl_crystal_density_diffrn 1.43
_diffrn_ambient_temperature ?
_diffrn_special_details
;
The study was carried out at room temperature,in the range 283-303K

;
#These two values have been output from a single CSD field.
_refine_ls_R_factor_gt 0.038
_refine_ls_wR_factor_gt 0.038
_symmetry_cell_setting monoclinic
_symmetry_space_group_name_H-M 'P 21/n'
_symmetry_Int_Tables_number 14
loop_
_symmetry_equiv_pos_site_id
_symmetry_equiv_pos_as_xyz
1 x,y,z
2 1/2-x,1/2+y,1/2-z
3 -x,-y,-z
4 -1/2+x,-1/2-y,-1/2+z
_cell_length_a 14.803(3)
_cell_length_b 7.991(1)
_cell_length_c 15.253(3)
_cell_angle_alpha 90
_cell_angle_beta 115.24(1)
_cell_angle_gamma 90
_cell_formula_units_Z 4
loop_
_atom_type_symbol
_atom_type_radius_bond
C 0.68
H 0.23
N 0.68
O 0.68
loop_
_atom_site_label
_atom_site_type_symbol
_atom_site_fract_x
_atom_site_fract_y
_atom_site_fract_z
C1 C 0.4242(1) 0.3745(3) 0.3256(1)
N1 N 0.5204(1) 0.3908(2) 0.3223(1)
C2 C 0.5214(1) 0.3201(2) 0.2347(1)
C3 C 0.4278(1) 0.3540(2) 0.1444(1)
O1 O 0.4260(1) 0.3068(2) 0.0673(1)
N2 N 0.3529(1) 0.4372(2) 0.1520(1)
C4 C 0.2675(1) 0.4904(3) 0.0646(1)
C5 C 0.1773(1) 0.3913(3) 0.0541(1)
C6 C 0.1614(1) 0.4038(2) 0.1449(1)
C7 C 0.0669(2) 0.3783(2) 0.1419(2)
C8 C 0.0501(2) 0.3915(3) 0.2237(2)
C9 C 0.1286(1) 0.4309(3) 0.3116(2)
C10 C 0.2227(1) 0.4556(2) 0.3162(1)
C11 C 0.2413(1) 0.4419(2) 0.2339(1)
C12 C 0.3455(1) 0.4745(2) 0.2429(1)
C13 C 0.5943(1) 0.4847(2) 0.3879(1)
O2 O 0.5830(1) 0.5643(2) 0.4514(1)
C14 C 0.6939(1) 0.4874(2) 0.3843(1)
C15 C 0.7392(1) 0.3419(2) 0.3726(1)
C16 C 0.8334(1) 0.3520(2) 0.3758(1)
N3 N 0.8794(1) 0.1971(2) 0.3624(1)
O3 O 0.8318(1) 0.0665(2) 0.3490(1)
O4 O 0.9618(1) 0.2055(20) 0.3637(2)
C17 C 0.8854(1) 0.4997(3) 0.3913(1)
C18 C 0.8415(2) 0.6433(3) 0.4042(1)
C19 C 0.7458(1) 0.6380(3) 0.4002(1)
H1 H 0.40520 0.25870 0.31910
H2 H 0.42910 0.41630 0.38650
H3 H 0.57690 0.36690 0.22630
H4 H 0.52970 0.20120 0.24300
H5 H 0.25530 0.60730 0.06910
H6 H 0.28110 0.47140 0.00920
H7 H 0.11960 0.43450 0.00050
H8 H 0.18680 0.27610 0.04230
H9 H 0.01220 0.35110 0.08110
H10 H -0.01560 0.37340 0.21990
H11 H 0.11760 0.44100 0.36900
H12 H 0.27680 0.48270 0.37730
H13 H 0.35830 0.59140 0.25720
H14 H 0.70530 0.23630 0.36230
H15 H 0.95100 0.50260 0.39310
H16 H 0.87680 0.74770 0.41600
H17 H 0.71530 0.73910 0.40860
#END
