
#######################################################################
#
#                 Cambridge Crystallographic Data Centre
#                                CCDC
#
#######################################################################
#
# If this CIF has been generated from an entry in the Cambridge
# Structural Database, then it will include bibliographic, chemical,
# crystal, experimental, refinement or atomic coordinate data resulting
# from the CCDC's data processing and validation procedures.
#
#######################################################################

data_CSD_CIF_VOBVAL
_audit_creation_date 2014-02-15
_audit_creation_method CSD-ConQuest-V1
_database_code_CSD VOBVAL
_database_code_depnum_ccdc_archive 'CCDC 950612'
_chemical_formula_sum 'C27 H18 N4 O2'
_chemical_formula_moiety
;
C27 H18 N4 O2
;
_journal_coden_Cambridge 1220
_journal_volume 20
_journal_year 2014
_journal_page_first 1073
_journal_name_full 'Chem.-Eur.J. '
loop_
_publ_author_name
"A.K.H.Hirsch"
"P.Reutenauer"
"M.Le Moignan"
"S.Ulrich"
"P.J.Boul"
"J.M.Harrowfield"
"P.D.Jarowski"
"J.-M.Lehn"
_chemical_name_systematic
;
1,8-Dimethyl-16-(4-nitrophenyl)tetracyclo[6.6.2.0^2,7^.0^9,14^]hexadeca-2,4,6,
9,11,13-hexaene-15,15,16-tricarbonitrile
;
_chemical_melting_point 328.15
_cell_volume   1031.540
_exptl_crystal_colour 'colorless'
_exptl_crystal_density_diffrn 1.386
_exptl_special_details
;
Melting point range 328.15-330.15K

;
_exptl_crystal_description 'prism'
_exptl_crystal_preparation 'chloroform/methanol'
_diffrn_ambient_temperature 173
#These two values have been output from a single CSD field.
_refine_ls_R_factor_gt 0.0485
_refine_ls_wR_factor_gt 0.0485
_symmetry_cell_setting triclinic
_symmetry_space_group_name_H-M 'P -1'
_symmetry_Int_Tables_number 2
loop_
_symmetry_equiv_pos_site_id
_symmetry_equiv_pos_as_xyz
1 x,y,z
2 -x,-y,-z
_cell_length_a 8.5514(3)
_cell_length_b 10.1353(4)
_cell_length_c 12.6000(7)
_cell_angle_alpha 89.003(3)
_cell_angle_beta 74.269(3)
_cell_angle_gamma 79.104(3)
_cell_formula_units_Z 2
loop_
_atom_type_symbol
_atom_type_radius_bond
C 0.68
H 0.23
N 0.68
O 0.68
loop_
_atom_site_label
_atom_site_type_symbol
_atom_site_fract_x
_atom_site_fract_y
_atom_site_fract_z
C1 C 0.86538(17) 0.18731(14) 0.59705(12)
C2 C 0.92958(18) 0.18288(14) 0.48357(13)
H1 H 0.85750 0.19350 0.43710
C3 C 1.10036(19) 0.16283(15) 0.43777(14)
H2 H 1.14490 0.16180 0.36000
C4 C 1.20495(19) 0.14452(15) 0.50551(14)
H3 H 1.32130 0.13030 0.47400
C5 C 1.14149(17) 0.14673(15) 0.61903(14)
H4 H 1.21420 0.13200 0.66500
C6 C 0.97152(17) 0.17049(13) 0.66550(13)
C7 C 0.88497(17) 0.18360(14) 0.78804(13)
C8 C 1.00234(18) 0.16451(15) 0.86142(14)
H5 H 1.07000 0.07370 0.84850
H6 H 0.93800 0.17660 0.93900
H7 H 1.07450 0.23090 0.84400
C9 C 0.76408(17) 0.08680(14) 0.80963(13)
C10 C 0.75578(18) -0.01140(15) 0.88782(14)
H8 H 0.82710 -0.02100 0.93480
C11 C 0.64209(19) -0.09586(16) 0.89701(14)
H9 H 0.63730 -0.16430 0.94970
C12 C 0.53624(19) -0.08093(16) 0.83016(14)
H10 H 0.45910 -0.13900 0.83720
C13 C 0.54219(18) 0.01853(15) 0.75282(14)
H11 H 0.46820 0.02950 0.70770
C14 C 0.65705(17) 0.10218(14) 0.74170(12)
C15 C 0.68266(17) 0.21094(14) 0.65773(13)
C16 C 0.56893(18) 0.22543(16) 0.58221(13)
H12 H 0.59120 0.29880 0.53210
H13 H 0.45340 0.24550 0.62680
H14 H 0.58900 0.14130 0.53920
C17 C 0.64890(17) 0.34777(14) 0.73089(12)
C18 C 0.47287(19) 0.37157(15) 0.79550(13)
C19 C 0.66972(19) 0.46024(15) 0.65541(14)
C20 C 0.77048(17) 0.33279(14) 0.81031(12)
C21 C 0.66772(18) 0.33555(14) 0.92617(13)
C22 C 0.87448(17) 0.44352(14) 0.79865(12)
C23 C 0.99028(18) 0.45991(14) 0.69923(13)
H15 H 0.99800 0.40770 0.63550
C24 C 1.09383(18) 0.55157(14) 0.69291(13)
H16 H 1.17570 0.55990 0.62630
C25 C 1.07558(17) 0.63056(14) 0.78535(13)
C26 C 0.95991(18) 0.61994(15) 0.88375(13)
H17 H 0.94870 0.67620 0.94600
C27 C 0.86011(18) 0.52514(15) 0.88997(13)
H18 H 0.78080 0.51580 0.95760
N1 N 0.33612(17) 0.38228(15) 0.84212(12)
N2 N 0.6820(2) 0.54202(15) 0.59123(14)
N3 N 0.59106(17) 0.33712(13) 1.01615(12)
N4 N 1.18388(15) 0.72945(13) 0.77886(11)
O1 O 1.30364(15) 0.72286(14) 0.69783(11)
O2 O 1.14849(14) 0.81392(11) 0.85389(11)
#END
