
#######################################################################
#
#                 Cambridge Crystallographic Data Centre
#                                CCDC
#
#######################################################################
#
# If this CIF has been generated from an entry in the Cambridge
# Structural Database, then it will include bibliographic, chemical,
# crystal, experimental, refinement or atomic coordinate data resulting
# from the CCDC's data processing and validation procedures.
#
#######################################################################

data_CSD_CIF_VOBZIX
_audit_creation_date 2014-02-15
_audit_creation_method CSD-ConQuest-V1
_database_code_CSD VOBZIX
_database_code_depnum_ccdc_archive 'CCDC 940819'
_chemical_formula_sum 'C12 H14 N4 O6'
_chemical_formula_moiety
;
C12 H14 N4 O6
;
_journal_coden_Cambridge 1220
_journal_volume 20
_journal_year 2014
_journal_page_first 1410
_journal_name_full 'Chem.-Eur.J. '
loop_
_publ_author_name
"M.Weyrauther"
"N.Mayr"
"T.M.Klapoetke"
"J.Stierstorfer"
_chemical_name_systematic
;
Diethyl 2,2'-(3,3'-bi-1,2,4-oxadiazole-5,5'-diyl)diacetate
;
_cell_volume    696.060
_exptl_crystal_colour 'colorless'
_exptl_crystal_density_diffrn 1.48
_exptl_crystal_description 'plate'
_diffrn_ambient_temperature 173
#These two values have been output from a single CSD field.
_refine_ls_R_factor_gt 0.0393
_refine_ls_wR_factor_gt 0.0393
_symmetry_cell_setting monoclinic
_symmetry_space_group_name_H-M 'P 21/n'
_symmetry_Int_Tables_number 14
loop_
_symmetry_equiv_pos_site_id
_symmetry_equiv_pos_as_xyz
1 x,y,z
2 1/2-x,1/2+y,1/2-z
3 -x,-y,-z
4 -1/2+x,-1/2-y,-1/2+z
_cell_length_a 8.8524(8)
_cell_length_b 8.1381(6)
_cell_length_c 9.6626(8)
_cell_angle_alpha 90
_cell_angle_beta 90.687(8)
_cell_angle_gamma 90
_cell_formula_units_Z 2
loop_
_atom_type_symbol
_atom_type_radius_bond
C 0.68
H 0.23
N 0.68
O 0.68
loop_
_atom_site_label
_atom_site_type_symbol
_atom_site_fract_x
_atom_site_fract_y
_atom_site_fract_z
O1 O 0.37756(16) 0.25386(15) 0.16256(14)
O2 O 0.33293(16) 0.30737(16) 0.56848(14)
O3 O 0.54269(18) 0.20707(19) 0.47189(16)
N1 N 0.4461(2) 0.20749(19) 0.03752(17)
N2 N 0.41469(18) -0.01340(18) 0.17637(16)
C1 C 0.4072(3) 0.2189(2) 0.4761(2)
C2 C 0.3645(2) 0.1153(2) 0.2382(2)
C3 C 0.2985(3) 0.1323(3) 0.3776(2)
C4 C 0.4643(2) 0.0502(2) 0.05346(19)
C5 C 0.4237(3) 0.3843(3) 0.6783(2)
C6 C 0.3201(3) 0.4872(3) 0.7616(3)
H1 H 0.203(2) 0.192(2) 0.373(2)
H2 H 0.284(2) 0.025(3) 0.4144(19)
H3 H 0.511(2) 0.437(2) 0.6349(19)
H4 H 0.239(2) 0.421(2) 0.797(2)
H5 H 0.477(3) 0.290(3) 0.736(2)
H6 H 0.377(3) 0.536(3) 0.836(3)
H7 H 0.275(3) 0.574(3) 0.705(2)
O1B O 0.62244(16) -0.25386(15) -0.16256(14)
O2B O 0.66707(16) -0.30737(16) -0.56848(14)
O3B O 0.45731(18) -0.20707(19) -0.47189(16)
N1B N 0.5539(2) -0.20749(19) -0.03752(17)
N2B N 0.58531(18) 0.01340(18) -0.17637(16)
C1B C 0.5928(3) -0.2189(2) -0.4761(2)
C2B C 0.6355(2) -0.1153(2) -0.2382(2)
C3B C 0.7015(3) -0.1323(3) -0.3776(2)
C4B C 0.5357(2) -0.0502(2) -0.05346(19)
C5B C 0.5763(3) -0.3843(3) -0.6783(2)
C6B C 0.6799(3) -0.4872(3) -0.7616(3)
H1B H 0.797(2) -0.192(2) -0.373(2)
H2B H 0.716(2) -0.025(3) -0.4144(19)
H3B H 0.489(2) -0.437(2) -0.6349(19)
H4B H 0.761(2) -0.421(2) -0.797(2)
H5B H 0.523(3) -0.290(3) -0.736(2)
H6B H 0.623(3) -0.536(3) -0.836(3)
H7B H 0.725(3) -0.574(3) -0.705(2)
#END
