
#######################################################################
#
#                 Cambridge Crystallographic Data Centre
#                                CCDC
#
#######################################################################
#
# If this CIF has been generated from an entry in the Cambridge
# Structural Database, then it will include bibliographic, chemical,
# crystal, experimental, refinement or atomic coordinate data resulting
# from the CCDC's data processing and validation procedures.
#
#######################################################################

data_CSD_CIF_VODJOO
_audit_creation_date 2009-01-06
_audit_creation_method CSD-ConQuest-V1
_database_code_CSD VODJOO
_database_code_depnum_ccdc_archive 'CCDC 651851'
_chemical_formula_sum 'C10 H12 N2 O4'
_chemical_formula_moiety
;
C10 H12 N2 O4
;
_journal_coden_Cambridge 119
_journal_volume 886
_journal_year 2008
_journal_page_first 148
_journal_name_full 'J.Mol.Struct. '
loop_
_publ_author_name
"M.Karabacak"
"E.Sahin"
"M.Cinar"
"I.Erol"
"M.Kurt"
_chemical_name_systematic
;
2-((5-Methylisoxazol-3-yl)amino)-2-oxoethyl methacrylate
;
_cell_volume   1090.423
_exptl_crystal_colour 'pale yellow'
_exptl_crystal_density_diffrn 1.366
_exptl_crystal_description 'needle'
_diffrn_ambient_temperature 293
#These two values have been output from a single CSD field.
_refine_ls_R_factor_gt 0.0622
_refine_ls_wR_factor_gt 0.0622
_symmetry_cell_setting monoclinic
_symmetry_space_group_name_H-M 'P 21/c'
_symmetry_Int_Tables_number 14
loop_
_symmetry_equiv_pos_site_id
_symmetry_equiv_pos_as_xyz
1 x,y,z
2 -x,1/2+y,1/2-z
3 -x,-y,-z
4 x,-1/2-y,-1/2+z
_cell_length_a 11.927(5)
_cell_length_b 5.312(5)
_cell_length_c 17.278(5)
_cell_angle_alpha 90
_cell_angle_beta 95.048(5)
_cell_angle_gamma 90
_cell_formula_units_Z 4
loop_
_atom_type_symbol
_atom_type_radius_bond
C 0.68
H 0.23
N 0.68
O 0.68
loop_
_atom_site_label
_atom_site_type_symbol
_atom_site_fract_x
_atom_site_fract_y
_atom_site_fract_z
O1 O -0.16498(11) 0.3725(3) 0.24115(8)
O2 O -0.18684(10) 0.6716(2) 0.15057(8)
O3 O 0.34256(11) 0.1566(3) 0.09992(9)
O4 O -0.05617(12) 0.3341(3) 0.08074(9)
N1 N 0.10511(13) 0.4909(3) 0.14189(10)
N2 N 0.28633(14) 0.3411(3) 0.14083(11)
C1 C 0.16463(16) 0.1351(4) 0.05635(10)
H1 H 0.09730 0.08750 0.02900
C2 C -0.22679(16) 0.4919(3) 0.19576(10)
C3 C -0.39848(18) 0.2831(4) 0.22179(13)
H2 H -0.47590 0.25880 0.21460
H3 H -0.35480 0.18270 0.25670
C4 C 0.18126(15) 0.3247(3) 0.11284(10)
C5 C 0.31221(19) -0.1631(4) 0.00249(13)
H4 H 0.25460 -0.21520 -0.03660
H5 H 0.33510 -0.30420 0.03480
H6 H 0.37580 -0.10040 -0.02200
C6 C -0.34975(15) 0.4629(3) 0.18175(10)
C7 C 0.26785(16) 0.0376(4) 0.05053(10)
C8 C -0.06733(16) 0.7061(4) 0.15892(13)
H7 H -0.04170 0.71760 0.21370
H8 H -0.04850 0.86270 0.13420
C9 C -0.41327(18) 0.6279(4) 0.12576(13)
H9 H -0.49120 0.57980 0.12140
H10 H -0.38390 0.61280 0.07600
H11 H -0.40630 0.79910 0.14330
C10 C -0.00775(15) 0.4903(4) 0.12262(11)
H12 H 0.132(2) 0.594(5) 0.1748(14)
#END
