
#######################################################################
#
#                 Cambridge Crystallographic Data Centre
#                                CCDC
#
#######################################################################
#
# If this CIF has been generated from an entry in the Cambridge
# Structural Database, then it will include bibliographic, chemical,
# crystal, experimental, refinement or atomic coordinate data resulting
# from the CCDC's data processing and validation procedures.
#
#######################################################################

data_CSD_CIF_VODVUG
_audit_creation_date 2009-01-06
_audit_creation_method CSD-ConQuest-V1
_database_code_CSD VODVUG
_database_code_depnum_ccdc_archive 'CCDC 647654'
_chemical_formula_sum 'C21 H30 N2 O6'
_chemical_formula_moiety
;
C21 H30 N2 O6
;
_journal_coden_Cambridge 179
_journal_volume 47
_journal_year 2008
_journal_page_first 6233
_journal_name_full 'Angew.Chem.,Int.Ed. '
loop_
_publ_author_name
"T.Ribelin"
"C.E.Katz"
"D.G.English"
"S.Smith"
"A.K.Manukyan"
"V.W.Day"
"B.Neuenswander"
"J.L.Poutsma"
"J.Aube"
_chemical_name_systematic
;
5-t-Butyl-1-(1'-(4-nitrobenzoyloxy)-3'-methoxypropan-2'-yl)azepan-2-one
;
_cell_volume   4140.521
_exptl_crystal_density_diffrn 1.304
_exptl_crystal_description 'Square plate'
_diffrn_ambient_temperature 100
#These two values have been output from a single CSD field.
_refine_ls_R_factor_gt 0.0552
_refine_ls_wR_factor_gt 0.0552
_symmetry_cell_setting orthorhombic
_symmetry_space_group_name_H-M 'P c a 21'
_symmetry_Int_Tables_number 29
loop_
_symmetry_equiv_pos_site_id
_symmetry_equiv_pos_as_xyz
1 x,y,z
2 -x,-y,1/2+z
3 1/2+x,-y,z
4 1/2-x,y,1/2+z
_cell_length_a 13.1624(12)
_cell_length_b 9.9084(9)
_cell_length_c 31.748(3)
_cell_angle_alpha 90
_cell_angle_beta 90
_cell_angle_gamma 90
_cell_formula_units_Z 8
loop_
_atom_type_symbol
_atom_type_radius_bond
C 0.68
H 0.23
N 0.68
O 0.68
loop_
_atom_site_label
_atom_site_type_symbol
_atom_site_fract_x
_atom_site_fract_y
_atom_site_fract_z
O1 O 0.71971(18) -0.1100(2) 0.44728(7)
O2 O 0.75169(18) 0.2633(2) 0.38409(7)
O3 O 0.45146(18) 0.0452(3) 0.39637(8)
O4 O 0.67319(19) -0.2130(3) 0.50750(8)
O5 O 0.9788(2) -0.7463(3) 0.44732(9)
O6 O 1.0310(2) -0.6311(3) 0.39346(9)
N1 N 0.6187(2) 0.0217(3) 0.38044(10)
N2 N 0.9780(3) -0.6450(3) 0.42495(11)
C1 C 0.5181(3) -0.0017(4) 0.37293(15)
C2 C 0.4911(3) -0.0866(4) 0.33572(10)
H1 H 0.41700 -0.10370 0.33630
H2 H 0.52570 -0.17490 0.33860
C3 C 0.5190(3) -0.0258(4) 0.29256(14)
H3 H 0.47280 -0.06410 0.27100
H4 H 0.50690 0.07270 0.29360
C4 C 0.6287(3) -0.0504(4) 0.27858(10)
H5 H 0.63920 -0.15020 0.28020
C5 C 0.7048(3) 0.0114(4) 0.30908(14)
H6 H 0.69420 0.11030 0.30970
H7 H 0.77420 -0.00510 0.29820
C6 C 0.6985(3) -0.0427(4) 0.35440(11)
H8 H 0.68560 -0.14110 0.35330
H9 H 0.76510 -0.02910 0.36830
C7 C 0.6449(3) 0.0918(4) 0.41983(11)
H10 H 0.58960 0.15860 0.42540
C8 C 0.6455(3) -0.0061(3) 0.45671(14)
H11 H 0.66420 0.04160 0.48300
H12 H 0.57740 -0.04670 0.46040
C9 C 0.7215(3) -0.2126(4) 0.47519(11)
C10 C 0.7911(3) -0.3223(4) 0.46114(11)
C11 C 0.8052(3) -0.4300(4) 0.48852(11)
H13 H 0.77380 -0.42990 0.51540
C12 C 0.8656(3) -0.5376(4) 0.47625(12)
H14 H 0.87500 -0.61300 0.49430
C13 C 0.9114(3) -0.5331(4) 0.43746(13)
C14 C 0.9000(3) -0.4265(4) 0.41049(11)
H15 H 0.93390 -0.42600 0.38410
C15 C 0.8390(3) -0.3204(4) 0.42190(12)
H16 H 0.82950 -0.24630 0.40330
C16 C 0.6458(3) -0.0113(4) 0.23124(15)
C17 C 0.6113(3) 0.1335(4) 0.22261(13)
H17 H 0.63090 0.15930 0.19390
H18 H 0.64360 0.19460 0.24280
H19 H 0.53730 0.13930 0.22550
C18 C 0.7572(3) -0.0233(4) 0.21933(15)
H20 H 0.76450 -0.01300 0.18880
H21 H 0.78270 -0.11210 0.22790
H22 H 0.79610 0.04730 0.23370
C19 C 0.5862(3) -0.1085(4) 0.20308(13)
H23 H 0.60060 -0.08830 0.17350
H24 H 0.51330 -0.09790 0.20840
H25 H 0.60660 -0.20150 0.20930
C20 C 0.7443(3) 0.1706(4) 0.41834(11)
H26 H 0.75190 0.22120 0.44510
H27 H 0.80130 0.10580 0.41650
C21 C 0.6748(3) 0.3647(4) 0.38579(12)
H28 H 0.69300 0.43910 0.36690
H29 H 0.66890 0.39880 0.41470
H30 H 0.60970 0.32600 0.37700
O7 O -0.00867(18) 0.3893(2) 0.05160(7)
O8 O 0.02452(19) 0.7558(2) 0.11789(7)
O9 O -0.27782(18) 0.5462(3) 0.10102(8)
O10 O -0.05420(19) 0.2872(3) -0.00859(8)
O11 O 0.2521(2) -0.2468(3) 0.05114(10)
O12 O 0.3047(2) -0.1318(3) 0.10476(9)
N3 N -0.1122(2) 0.5200(3) 0.11880(11)
N4 N 0.2524(3) -0.1458(4) 0.07326(11)
C22 C -0.2135(3) 0.4975(3) 0.12482(14)
C23 C -0.2434(3) 0.4150(4) 0.16241(10)
H31 H -0.21030 0.32560 0.16030
H32 H -0.31780 0.40020 0.16150
C24 C -0.2160(3) 0.4773(4) 0.20514(13)
H33 H -0.22450 0.57640 0.20320
H34 H -0.26470 0.44380 0.22650
C25 C -0.1079(3) 0.4472(4) 0.22045(11)
H35 H -0.09990 0.34690 0.21900
C26 C -0.0284(3) 0.5062(4) 0.18996(13)
H36 H -0.03600 0.60560 0.18950
H37 H 0.04020 0.48580 0.20110
C27 C -0.0348(3) 0.4542(4) 0.14477(11)
H38 H 0.03220 0.46650 0.13120
H39 H -0.04920 0.35610 0.14550
C28 C -0.0831(3) 0.5904(4) 0.07979(10)
H40 H -0.13740 0.65850 0.07410
C29 C -0.0825(3) 0.4950(3) 0.04294(14)
H41 H -0.15090 0.45520 0.03900
H42 H -0.06380 0.54390 0.01690
C30 C -0.0061(3) 0.2887(4) 0.02372(11)
C31 C 0.0630(3) 0.1777(4) 0.03733(11)
C32 C 0.0782(3) 0.0689(4) 0.01018(12)
H43 H 0.04730 0.06940 -0.01690
C33 C 0.1371(3) -0.0386(4) 0.02206(13)
H44 H 0.14460 -0.11510 0.00430
C34 C 0.1852(3) -0.0327(4) 0.06054(13)
C35 C 0.1747(3) 0.0749(4) 0.08786(12)
H45 H 0.20930 0.07600 0.11410
C36 C 0.1125(3) 0.1811(4) 0.07607(11)
H46 H 0.10370 0.25610 0.09440
C37 C -0.0920(3) 0.4862(4) 0.26719(14)
C38 C -0.1222(3) 0.6323(4) 0.27654(13)
H47 H -0.19600 0.64200 0.27380
H48 H -0.08830 0.69270 0.25650
H49 H -0.10160 0.65580 0.30530
C39 C 0.0201(3) 0.4671(5) 0.27987(14)
H50 H 0.06150 0.53750 0.26670
H51 H 0.04360 0.37820 0.27040
H52 H 0.02640 0.47320 0.31060
C40 C -0.1554(3) 0.3910(4) 0.29515(12)
H53 H -0.22780 0.40600 0.28970
H54 H -0.14060 0.40930 0.32490
H55 H -0.13810 0.29710 0.28860
C41 C 0.0165(3) 0.6679(4) 0.08275(11)
H56 H 0.07310 0.60220 0.08400
H57 H 0.02510 0.72170 0.05670
C42 C -0.0503(3) 0.8587(4) 0.11779(13)
H58 H -0.03600 0.92310 0.14050
H59 H -0.11740 0.81840 0.12220
H60 H -0.04910 0.90580 0.09060
#END
