
#######################################################################
#
#                 Cambridge Crystallographic Data Centre
#                                CCDC
#
#######################################################################
#
# If this CIF has been generated from an entry in the Cambridge
# Structural Database, then it will include bibliographic, chemical,
# crystal, experimental, refinement or atomic coordinate data resulting
# from the CCDC's data processing and validation procedures.
#
#######################################################################

data_CSD_CIF_VOFBID
_audit_creation_date 2014-02-15
_audit_creation_method CSD-ConQuest-V1
_database_code_CSD VOFBID
_database_code_depnum_ccdc_archive 'CCDC 842664'
_chemical_formula_sum 'C13 H10 N2 O4'
_chemical_formula_moiety
;
C13 H10 N2 O4
;
_journal_coden_Cambridge 1094
_journal_volume 24
_journal_year 2013
_journal_page_first 1419
_journal_name_full 'Struct.Chem. '
loop_
_publ_author_name
"Lin Li"
"Zhuan Fei"
"Xiang-Gao Meng"
"Li-Ping Cao"
"Qun Cai"
"An-Xin Wu"
_chemical_name_systematic
;
N-(4-Hydroxyphenyl)-2-nitrobenzamide
;
_cell_volume   2355.706
_exptl_crystal_colour 'yellow'
_exptl_crystal_density_diffrn 1.456
_exptl_crystal_description 'block'
_diffrn_ambient_temperature 298
#These two values have been output from a single CSD field.
_refine_ls_R_factor_gt 0.0572
_refine_ls_wR_factor_gt 0.0572
_symmetry_cell_setting orthorhombic
_symmetry_space_group_name_H-M 'P b c a'
_symmetry_Int_Tables_number 61
loop_
_symmetry_equiv_pos_site_id
_symmetry_equiv_pos_as_xyz
1 x,y,z
2 1/2-x,-y,1/2+z
3 -x,1/2+y,1/2-z
4 1/2+x,1/2-y,-z
5 -x,-y,-z
6 -1/2+x,y,-1/2-z
7 x,-1/2-y,-1/2+z
8 -1/2-x,-1/2+y,z
_cell_length_a 11.9986(11)
_cell_length_b 12.4333(12)
_cell_length_c 15.7908(15)
_cell_angle_alpha 90
_cell_angle_beta 90
_cell_angle_gamma 90
_cell_formula_units_Z 8
loop_
_atom_type_symbol
_atom_type_radius_bond
C 0.68
H 0.23
N 0.68
O 0.68
loop_
_atom_site_label
_atom_site_type_symbol
_atom_site_fract_x
_atom_site_fract_y
_atom_site_fract_z
C1 C 0.56533(12) -0.09887(12) 0.35302(10)
C2 C 0.65289(14) -0.13786(13) 0.30407(10)
C3 C 0.66862(16) -0.24576(15) 0.28899(12)
H1 H 0.72930 -0.26960 0.25750
C4 C 0.59258(18) -0.31776(14) 0.32154(12)
H2 H 0.60200 -0.39100 0.31200
C5 C 0.50314(16) -0.28241(15) 0.36779(12)
H3 H 0.45080 -0.33140 0.38780
C6 C 0.49062(14) -0.17360(14) 0.38477(11)
H4 H 0.43120 -0.15050 0.41790
C7 C 0.55831(13) 0.01614(13) 0.38124(11)
C8 C 0.42801(13) 0.16612(13) 0.40074(10)
C9 C 0.49548(14) 0.25549(14) 0.39100(12)
H5 H 0.56360 0.24930 0.36330
C10 C 0.46173(15) 0.35371(14) 0.42243(12)
H6 H 0.50710 0.41380 0.41570
C11 C 0.36053(14) 0.36320(13) 0.46391(11)
C12 C 0.29169(13) 0.27457(14) 0.47176(11)
H7 H 0.22290 0.28110 0.49840
C13 C 0.32525(13) 0.17628(13) 0.43991(11)
H8 H 0.27870 0.11680 0.44480
N1 N 0.72740(15) -0.06201(13) 0.26184(11)
N2 N 0.45919(12) 0.06259(12) 0.36967(10)
H9 H 0.4091(17) 0.0249(17) 0.3460(13)
O1 O 0.82488(15) -0.08711(15) 0.25363(15)
O2 O 0.68999(16) 0.02201(14) 0.23607(12)
O3 O 0.63731(11) 0.06029(11) 0.41546(11)
O4 O 0.33306(12) 0.46123(10) 0.49706(10)
H10 H 0.271(3) 0.453(2) 0.5279(19)
#END
