
#######################################################################
#
#                 Cambridge Crystallographic Data Centre
#                                CCDC
#
#######################################################################
#
# If this CIF has been generated from an entry in the Cambridge
# Structural Database, then it will include bibliographic, chemical,
# crystal, experimental, refinement or atomic coordinate data resulting
# from the CCDC's data processing and validation procedures.
#
#######################################################################

data_CSD_CIF_VOFDIF
_audit_creation_date 2014-02-15
_audit_creation_method CSD-ConQuest-V1
_database_code_CSD VOFDIF
_database_code_depnum_ccdc_archive 'CCDC 808433'
_chemical_formula_sum 'C15 H15 N3 O4'
_chemical_formula_moiety
;
C15 H15 N3 O4
;
_journal_coden_Cambridge 1094
_journal_volume 24
_journal_year 2013
_journal_page_first 97
_journal_name_full 'Struct.Chem. '
loop_
_publ_author_name
"Lin Li"
"Zhuan Fei"
"Xiang-Gao Meng"
"Li-Ping Cao"
"Tao Pang"
"Yan-Ping Zhu"
"An-Xin Wu"
_chemical_name_systematic
;
1-(2-(4-Hydroxyphenyl)ethyl)-3-(4-nitrophenyl)urea
;
_cell_volume   1434.898
_exptl_crystal_colour 'colorless'
_exptl_crystal_density_diffrn 1.395
_exptl_crystal_description 'plate'
_diffrn_ambient_temperature 298
#These two values have been output from a single CSD field.
_refine_ls_R_factor_gt 0.0796
_refine_ls_wR_factor_gt 0.0796
_symmetry_cell_setting orthorhombic
_symmetry_space_group_name_H-M 'P 21 21 21'
_symmetry_Int_Tables_number 19
loop_
_symmetry_equiv_pos_site_id
_symmetry_equiv_pos_as_xyz
1 x,y,z
2 1/2-x,-y,1/2+z
3 -x,1/2+y,1/2-z
4 1/2+x,1/2-y,-z
_cell_length_a 4.8257(3)
_cell_length_b 6.4493(4)
_cell_length_c 46.105(4)
_cell_angle_alpha 90
_cell_angle_beta 90
_cell_angle_gamma 90
_cell_formula_units_Z 4
loop_
_atom_type_symbol
_atom_type_radius_bond
C 0.68
H 0.23
N 0.68
O 0.68
loop_
_atom_site_label
_atom_site_type_symbol
_atom_site_fract_x
_atom_site_fract_y
_atom_site_fract_z
C1 C 0.3760(9) 0.9111(7) 0.20491(9)
C2 C 0.1605(9) 0.8003(7) 0.21727(9)
H1 H 0.07520 0.84820 0.23410
C3 C 0.0742(9) 0.6205(7) 0.20464(9)
H2 H -0.06800 0.54400 0.21310
C4 C 0.1979(9) 0.5511(7) 0.17926(9)
C5 C 0.4197(9) 0.6619(7) 0.16753(9)
H3 H 0.50790 0.61430 0.15090
C6 C 0.5070(9) 0.8413(7) 0.18064(9)
H4 H 0.65550 0.91510 0.17300
C7 C 0.1942(9) 0.2596(7) 0.14418(9)
C8 C 0.0938(12) 0.0106(8) 0.10639(12)
H5 H 0.28620 -0.02960 0.10870
H6 H 0.07950 0.09250 0.08880
C9 C -0.0788(13) -0.1797(9) 0.10319(12)
H7 H -0.27280 -0.14030 0.10280
H8 H -0.05010 -0.26810 0.11990
C10 C -0.0136(11) -0.2999(8) 0.0763(1)
C11 C 0.1883(12) -0.4518(8) 0.07621(11)
H9 H 0.28420 -0.47950 0.09330
C12 C 0.2514(11) -0.5627(8) 0.05181(11)
H10 H 0.39210 -0.66120 0.05240
C13 C 0.1109(10) -0.5304(8) 0.02673(10)
C14 C -0.0901(12) -0.3786(9) 0.02582(11)
H11 H -0.18670 -0.35220 0.00880
C15 C -0.1454(11) -0.2668(9) 0.05053(13)
H12 H -0.27950 -0.16340 0.04960
N1 N 0.4624(8) 1.1045(6) 0.21832(8)
N2 N 0.0880(8) 0.3739(6) 0.16625(9)
N3 N 0.0123(8) 0.1364(6) 0.13076(9)
O1 O 0.6688(8) 1.1913(6) 0.20818(8)
O2 O 0.3341(8) 1.1753(6) 0.23853(8)
H13 H -0.047(13) 0.331(10) 0.1724(12)
O3 O 0.4391(6) 0.2683(5) 0.13730(7)
H14 H -0.161(12) 0.168(8) 0.1338(10)
O4 O 0.1534(8) -0.6399(7) 0.00177(8)
H15 H 0.301(15) -0.725(13) 0.0040(15)
#END
