
#######################################################################
#
#                 Cambridge Crystallographic Data Centre
#                                CCDC
#
#######################################################################
#
# If this CIF has been generated from an entry in the Cambridge
# Structural Database, then it will include bibliographic, chemical,
# crystal, experimental, refinement or atomic coordinate data resulting
# from the CCDC's data processing and validation procedures.
#
#######################################################################

data_CSD_CIF_VOFROY
_audit_creation_date 2009-01-06
_audit_creation_method CSD-ConQuest-V1
_database_code_CSD VOFROY
_database_code_depnum_ccdc_archive 'CCDC 635622'
_chemical_formula_sum 'C21 H22 N2 O5'
_chemical_formula_moiety
;
C21 H22 N2 O5
;
_journal_coden_Cambridge 1291
_journal_year 2008
_journal_page_first 4004
_journal_name_full 'Eur.J.Org.Chem. '
loop_
_publ_author_name
"E.Caballero"
"J.Figueroa"
"P.Puebla"
"R.Pelaez"
"F.Tome"
"M.Medarde"
_chemical_name_systematic
;
(+-)-Ethyl (2S,6R)-1-benzyl-6-(2-nitrophenyl)-4-oxo-piperidine-2-carboxylate
;
_cell_volume    971.366
_exptl_crystal_colour 'colorless'
_exptl_crystal_density_diffrn 1.307
_exptl_crystal_description 'prismatic'
_diffrn_ambient_temperature 293
#These two values have been output from a single CSD field.
_refine_ls_R_factor_gt 0.0812
_refine_ls_wR_factor_gt 0.0812
_symmetry_cell_setting triclinic
_symmetry_space_group_name_H-M 'P -1'
_symmetry_Int_Tables_number 2
loop_
_symmetry_equiv_pos_site_id
_symmetry_equiv_pos_as_xyz
1 x,y,z
2 -x,-y,-z
_cell_length_a 9.229(2)
_cell_length_b 9.267(2)
_cell_length_c 12.518(3)
_cell_angle_alpha 96.58(3)
_cell_angle_beta 102.20(3)
_cell_angle_gamma 108.76(3)
_cell_formula_units_Z 2
loop_
_atom_type_symbol
_atom_type_radius_bond
C 0.68
H 0.23
N 0.68
O 0.68
loop_
_atom_site_label
_atom_site_type_symbol
_atom_site_fract_x
_atom_site_fract_y
_atom_site_fract_z
N1 N -0.0535(4) 0.1941(4) 0.7150(3)
N2 N -0.5475(7) 0.0747(9) 0.6454(6)
O1 O -0.1126(5) 0.3452(5) 0.4142(3)
O2 O 0.1893(5) 0.4802(5) 0.8017(3)
O3 O 0.3150(4) 0.4427(4) 0.6728(3)
O4 O -0.5134(9) -0.0562(8) 0.6304(7)
O5 O -0.6710(7) 0.0505(9) 0.6128(6)
C1 C -0.1858(7) 0.3696(7) 0.8424(4)
C2 C -0.2525(8) 0.4103(8) 0.9249(5)
C3 C -0.4110(8) 0.3412(8) 0.9171(5)
C4 C -0.5069(7) 0.2304(7) 0.8242(5)
C5 C -0.4396(6) 0.1904(6) 0.7430(4)
C6 C -0.2789(6) 0.2560(6) 0.7486(4)
C7 C -0.1997(6) 0.2172(6) 0.6593(4)
H1 H -0.2717(6) 0.1202(6) 0.6084(4)
C8 C -0.1649(7) 0.3460(7) 0.5932(5)
C9 C -0.0864(6) 0.3097(6) 0.5052(4)
C10 C 0.0237(7) 0.2258(7) 0.5364(4)
C11 C 0.0774(6) 0.2408(6) 0.6632(4)
C12 C -0.0877(7) 0.0372(6) 0.7399(5)
C13 C 0.0436(6) 0.0237(6) 0.8268(4)
C14 C 0.0927(9) -0.1022(8) 0.8133(6)
C15 C 0.208(1) -0.1186(10) 0.8959(7)
C16 C 0.2741(10) -0.0104(11) 0.9918(8)
C17 C 0.2298(8) 0.1160(9) 1.0086(5)
C18 C 0.1136(7) 0.1332(7) 0.9258(5)
C19 C 0.1971(6) 0.4016(6) 0.7214(4)
C20 C 0.4376(7) 0.5923(8) 0.7221(6)
C21 C 0.5668(11) 0.6124(11) 0.6651(10)
H2 H -0.0676(75) 0.4225(67) 0.8473(47)
H3 H -0.1920(62) 0.4742(62) 0.9811(46)
H4 H -0.4590(94) 0.3740(92) 0.9732(68)
H5 H -0.6237(79) 0.1715(72) 0.8133(50)
H6 H -0.2582(73) 0.3541(64) 0.5676(45)
H7 H -0.0921(82) 0.4505(85) 0.6427(58)
H8 H 0.1175(61) 0.2549(54) 0.5059(39)
H9 H -0.0300(59) 0.1262(64) 0.5117(40)
H10 H 0.1401(55) 0.1724(55) 0.6794(37)
H11 H -0.1792(66) 0.0188(59) 0.7687(44)
H12 H 0.0369(58) -0.1747(60) 0.7456(44)
H13 H 0.2186(81) -0.2345(86) 0.8733(56)
H14 H 0.332(8) -0.0363(80) 1.0328(58)
H15 H 0.2602(70) 0.1953(73) 1.0861(54)
H16 H 0.0758(67) 0.2222(68) 0.9452(46)
H17 H 0.4643(76) 0.5845(74) 0.7990(61)
H18 H 0.3993(77) 0.6723(82) 0.7214(52)
H19 H 0.5147(93) 0.6159(90) 0.5822(72)
H20 H 0.6641(86) 0.7504(91) 0.7009(58)
H21 H -0.1130(93) -0.048(10) 0.6679(71)
H22 H 0.603(12) 0.556(12) 0.6676(90)
#END
