
#######################################################################
#
#                 Cambridge Crystallographic Data Centre
#                                CCDC
#
#######################################################################
#
# If this CIF has been generated from an entry in the Cambridge
# Structural Database, then it will include bibliographic, chemical,
# crystal, experimental, refinement or atomic coordinate data resulting
# from the CCDC's data processing and validation procedures.
#
#######################################################################

data_CSD_CIF_VOGCOL01
_audit_creation_date 2014-08-20
_audit_creation_method CSD-ConQuest-V1
_database_code_CSD VOGCOL01
_database_code_depnum_ccdc_archive 'CCDC 999255'
_chemical_formula_sum 'C20 H23 N3 O5'
_chemical_formula_moiety
;
C20 H23 N3 O5
;
_journal_coden_Cambridge 1350
_journal_volume 16
_journal_year 2014
_journal_page_first 9001
_journal_name_full 'CrystEngComm '
loop_
_publ_author_name
"K.Salorinne"
"T.Lahtinen"
"V.Marjomaki"
"H.Hakkinen"
_chemical_name_systematic
;
Ethyl 
5-(3-(2,6-dimethyl-4-(5-methyl-1,2,4-oxadiazol-3-yl)phenoxy)propyl)isoxazole-3
-carboxylate
;
_cell_volume   1950.191
_exptl_crystal_colour 'colorless'
_exptl_crystal_density_diffrn 1.313
_exptl_special_details
;
form II polymorph

;
_diffrn_ambient_temperature 170.2
#These two values have been output from a single CSD field.
_refine_ls_R_factor_gt 0.0596
_refine_ls_wR_factor_gt 0.0596
_symmetry_cell_setting monoclinic
_symmetry_space_group_name_H-M 'P 21/c'
_symmetry_Int_Tables_number 14
loop_
_symmetry_equiv_pos_site_id
_symmetry_equiv_pos_as_xyz
1 x,y,z
2 -x,1/2+y,1/2-z
3 -x,-y,-z
4 x,-1/2-y,-1/2+z
_cell_length_a 18.6194(5)
_cell_length_b 8.3392(2)
_cell_length_c 12.7669(3)
_cell_angle_alpha 90
_cell_angle_beta 100.331(3)
_cell_angle_gamma 90
_cell_formula_units_Z 4
loop_
_atom_type_symbol
_atom_type_radius_bond
C 0.68
H 0.23
N 0.68
O 0.68
loop_
_atom_site_label
_atom_site_type_symbol
_atom_site_fract_x
_atom_site_fract_y
_atom_site_fract_z
C1 C 0.73104(14) 0.0855(3) 0.86491(19)
H1 H 0.72900 0.20090 0.87870
H2 H 0.78020 0.04540 0.89280
H3 H 0.69560 0.02970 0.90010
C2 C 0.71331(11) 0.0561(2) 0.74848(18)
H4 H 0.74840 0.11300 0.71190
H5 H 0.71590 -0.06000 0.73340
C3 C 0.61785(12) 0.1274(2) 0.60797(18)
C4 C 0.54399(10) 0.2008(2) 0.57829(17)
C5 C 0.44446(10) 0.3067(2) 0.48990(16)
C6 C 0.50724(11) 0.2382(2) 0.47521(17)
H6 H 0.52320 0.21930 0.40970
C7 C 0.38031(10) 0.3778(2) 0.41867(16)
H7 H 0.37420 0.49020 0.44030
H8 H 0.33580 0.31790 0.42730
C8 C 0.38795(10) 0.3743(2) 0.30255(16)
H9 H 0.43540 0.42250 0.29510
H10 H 0.38800 0.26150 0.27850
C9 C 0.3276(1) 0.4634(2) 0.23256(16)
H11 H 0.32610 0.57570 0.25720
H12 H 0.33640 0.46460 0.15840
C10 C 0.19977(9) 0.47005(18) 0.18167(14)
C11 C 0.18066(9) 0.45225(19) 0.07144(14)
C12 C 0.12199(9) 0.54014(18) 0.01852(14)
H13 H 0.10890 0.53180 -0.05670
C13 C 0.08185(9) 0.64072(18) 0.07388(13)
C14 C 0.10051(9) 0.65176(18) 0.18450(14)
H14 H 0.07230 0.71780 0.22240
C15 C 0.15970(9) 0.56756(19) 0.24002(13)
C16 C 0.17983(11) 0.5793(2) 0.35941(14)
H15 H 0.14850 0.65880 0.38560
H16 H 0.23100 0.61210 0.37920
H17 H 0.17310 0.47460 0.39110
C17 C 0.22127(10) 0.3401(2) 0.01047(16)
H18 H 0.18790 0.29900 -0.05190
H19 H 0.24090 0.25030 0.05640
H20 H 0.26150 0.39780 -0.01280
C18 C 0.02046(9) 0.73106(18) 0.01312(13)
C19 C -0.05003(10) 0.82599(19) -0.11813(14)
C20 C -0.09022(12) 0.8779(2) -0.22304(15)
H21 H -0.07920 0.99080 -0.23470
H22 H -0.14280 0.86540 -0.22500
H23 H -0.07530 0.81210 -0.27900
N1 N 0.50761(10) 0.2448(3) 0.65208(15)
N2 N -0.02555(8) 0.81424(17) 0.05798(12)
N3 N 0.00698(8) 0.73497(16) -0.09680(11)
O1 O 0.63961(8) 0.11555(17) 0.71140(12)
O2 O 0.65307(11) 0.0905(3) 0.54259(16)
O3 O 0.44304(8) 0.3125(2) 0.59513(12)
O4 O 0.25892(6) 0.38512(13) 0.23683(10)
O5 O -0.07366(7) 0.87949(14) -0.03107(10)
#END
