
#######################################################################
#
#                 Cambridge Crystallographic Data Centre
#                                CCDC
#
#######################################################################
#
# If this CIF has been generated from an entry in the Cambridge
# Structural Database, then it will include bibliographic, chemical,
# crystal, experimental, refinement or atomic coordinate data resulting
# from the CCDC's data processing and validation procedures.
#
#######################################################################

data_CSD_CIF_VOGWEU
_audit_creation_date 2009-01-06
_audit_creation_method CSD-ConQuest-V1
_database_code_CSD VOGWEU
_database_code_depnum_ccdc_archive 'CCDC 692308'
_chemical_formula_sum 'C31 H31 N7 O4'
_chemical_formula_moiety
;
C31 H31 N7 O4
;
_journal_coden_Cambridge 1290
_journal_year 2008
_journal_page_first 3648
_journal_name_full 'Eur.J.Inorg.Chem. '
loop_
_publ_author_name
"D.Zabel"
"A.Schubert"
"G.Wolmershauser"
"R.L.Jones Junior"
"W.R.Thiel"
_chemical_name_systematic
;
2,6-bis(5-n-Butyl-1-(2-nitrophenyl)pyrazol-3-yl)pyridine
;
_chemical_melting_point 437.15
_cell_volume   1458.403
_exptl_crystal_colour 'orange'
_exptl_crystal_density_diffrn 1.288
_exptl_crystal_description 'block'
_exptl_crystal_preparation 'ethanol'
_diffrn_ambient_temperature 193
_refine_special_details
;
The two n-butyl chains are disordered over two sites with occupancies 
0.593:0.407 and 0.521:0.479 respectively.
;
#These two values have been output from a single CSD field.
_refine_ls_R_factor_gt 0.0503
_refine_ls_wR_factor_gt 0.0503
_symmetry_cell_setting triclinic
_symmetry_space_group_name_H-M 'P -1'
_symmetry_Int_Tables_number 2
loop_
_symmetry_equiv_pos_site_id
_symmetry_equiv_pos_as_xyz
1 x,y,z
2 -x,-y,-z
_cell_length_a 9.5267(8)
_cell_length_b 10.8174(9)
_cell_length_c 15.0455(13)
_cell_angle_alpha 105.179(10)
_cell_angle_beta 97.332(10)
_cell_angle_gamma 98.29(1)
_cell_formula_units_Z 2
loop_
_atom_type_symbol
_atom_type_radius_bond
C 0.68
H 0.23
N 0.68
O 0.68
loop_
_atom_site_label
_atom_site_type_symbol
_atom_site_fract_x
_atom_site_fract_y
_atom_site_fract_z
O1 O -0.4672(2) 0.65960(17) 0.22956(11)
O2 O -0.25153(19) 0.76888(18) 0.24969(10)
O3 O 0.59253(19) 0.1249(2) 0.25233(11)
O4 O 0.4937(3) -0.0676(2) 0.25309(13)
N1 N -0.3623(2) 0.70220(16) 0.20024(11)
N2 N -0.12887(15) 0.62356(14) 0.10803(11)
N3 N -0.14157(16) 0.51568(14) 0.13850(11)
N4 N 0.15825(15) 0.41760(14) 0.25734(10)
N5 N 0.37424(16) 0.23748(16) 0.37147(10)
N6 N 0.51619(16) 0.28123(17) 0.40987(10)
N7 N 0.5592(2) 0.0428(2) 0.29226(13)
C1? C 0.2762(10) 0.9849(7) 0.0168(5)
H1? H 0.35020 0.93170 0.02210
H2? H 0.31960 1.06710 0.00710
H3? H 0.19990 0.93750 -0.03640
C2? C 0.2134(6) 1.0129(5) 0.1048(4)
H4? H 0.12590 1.05000 0.09350
H5? H 0.28360 1.08050 0.15410
C3? C 0.1739(5) 0.8974(4) 0.1413(4)
H6? H 0.15370 0.92900 0.20550
H7? H 0.25710 0.85260 0.14470
C4? C 0.0431(6) 0.7997(5) 0.0807(4)
H8? H 0.06440 0.76130 0.01770
H9? H -0.04000 0.84390 0.07390
C5 C 0.3084(12) 0.9845(10) -0.0124(8)
H10 H 0.40080 0.97660 0.02060
H11 H 0.31740 1.06980 -0.02450
H12 H 0.28150 0.91550 -0.07180
C6 C 0.1955(6) 0.9721(4) 0.0463(4)
H13 H 0.10810 0.99580 0.01710
H14 H 0.22950 1.03710 0.10820
C7 C 0.1527(5) 0.8406(3) 0.0619(4)
H15 H 0.11030 0.77700 0.00060
H16 H 0.24120 0.81310 0.08600
C8 C 0.0488(6) 0.8324(4) 0.1272(4)
H17 H -0.03830 0.86490 0.10690
H18 H 0.09320 0.88770 0.19100
C9 C 0.0073(2) 0.69232(19) 0.12823(17)
C10 C 0.0879(2) 0.62531(19) 0.17401(16)
H19 H 0.18840 0.64760 0.19760
C11 C -0.00799(18) 0.51716(17) 0.17906(13)
C12 C 0.02141(19) 0.41041(18) 0.21813(13)
C13 C -0.0874(2) 0.3069(2) 0.21228(18)
H20 H -0.18370 0.30580 0.18570
C14 C -0.0540(2) 0.2057(2) 0.2456(2)
H21 H -0.12660 0.13340 0.24170
C15 C 0.0860(2) 0.2108(2) 0.28451(18)
H22 H 0.11210 0.14150 0.30690
C16 C 0.18878(18) 0.31906(18) 0.29057(13)
C17 C 0.33877(18) 0.33111(18) 0.33538(11)
C18 C 0.45710(18) 0.43181(19) 0.34919(11)
H23 H 0.45870 0.50850 0.32950
C19 C 0.56990(19) 0.3966(2) 0.39689(11)
C20? C 0.7283(6) 0.4580(7) 0.4216(6)
H24? H 0.75860 0.47630 0.48990
H25? H 0.78330 0.39330 0.39050
C21? C 0.7691(7) 0.5801(7) 0.3960(9)
H26? H 0.72550 0.64850 0.43440
H27? H 0.72540 0.56540 0.32990
C22? C 0.9315(5) 0.6334(6) 0.4073(4)
H28? H 0.98750 0.56220 0.39740
H29? H 0.95090 0.68570 0.36370
C23? C 0.9647(6) 0.7176(7) 0.5080(4)
H30? H 0.88980 0.77000 0.52000
H31? H 1.05840 0.77530 0.51920
H32? H 0.96750 0.66170 0.54980
C24 C 0.7222(6) 0.4589(8) 0.4365(5)
H33 H 0.73250 0.49300 0.50530
H34 H 0.78400 0.39250 0.42290
C25 C 0.7721(6) 0.5668(8) 0.3980(7)
H35 H 0.70590 0.63010 0.40560
H36 H 0.77500 0.53260 0.33060
C26 C 0.9240(4) 0.6332(4) 0.4525(3)
H37 H 0.93090 0.62710 0.51740
H38 H 0.99570 0.58610 0.42320
C27 C 0.9591(5) 0.7725(4) 0.4547(4)
H39 H 0.95140 0.77910 0.39060
H40 H 1.05760 0.80970 0.48820
H41 H 0.89160 0.82050 0.48670
C28 C 0.5902(2) 0.1977(2) 0.44887(12)
C29 C 0.6042(2) 0.0772(2) 0.39412(13)
C30 C 0.6603(3) -0.0116(3) 0.43155(16)
H42 H 0.66630 -0.09460 0.39250
C31 C 0.7078(3) 0.0216(3) 0.52695(17)
H43 H 0.74600 -0.03900 0.55420
C32 C 0.6996(3) 0.1426(3) 0.58199(16)
H44 H 0.73510 0.16600 0.64720
C33 C 0.6407(3) 0.2307(3) 0.54434(14)
H45 H 0.63470 0.31370 0.58360
C34 C -0.25416(18) 0.64667(16) 0.05730(12)
C35 C -0.37201(18) 0.67510(15) 0.09899(11)
C36 C -0.4991(2) 0.68255(18) 0.04789(14)
H46 H -0.57990 0.69870 0.07720
C37 C -0.5073(2) 0.6662(2) -0.04661(14)
H47 H -0.59420 0.67160 -0.08290
C38 C -0.3901(3) 0.6421(2) -0.08884(13)
H48 H -0.39550 0.63390 -0.15370
C39 C -0.2652(2) 0.62978(19) -0.03761(13)
H49 H -0.18620 0.60960 -0.06770
#END
