
#######################################################################
#
#                 Cambridge Crystallographic Data Centre
#                                CCDC
#
#######################################################################
#
# If this CIF has been generated from an entry in the Cambridge
# Structural Database, then it will include bibliographic, chemical,
# crystal, experimental, refinement or atomic coordinate data resulting
# from the CCDC's data processing and validation procedures.
#
#######################################################################

data_CSD_CIF_VOHLEK
_audit_creation_date 2009-01-06
_audit_creation_method CSD-ConQuest-V1
_database_code_CSD VOHLEK
_database_code_depnum_ccdc_archive 'CCDC 659432'
_chemical_formula_sum 'C16 H18 N2 O1'
_chemical_formula_moiety
;
C16 H18 N2 O1
;
_journal_coden_Cambridge 82
_journal_volume 49
_journal_year 2008
_journal_page_first 791
_journal_name_full 'Zh.Strukt.Khim.(Russ.)(J.Struct.Chem.) '
loop_
_publ_author_name
"O.V.Kulikov"
"L.Kh.Minacheva"
"A.V.Mazepa"
_chemical_name_systematic
;
syn-(2-Dimethylamino-5-methylbenzophenone oxime)
;
_cell_volume   6456.935
_exptl_crystal_colour 'colorless'
_exptl_crystal_density_diffrn 1.177
_exptl_crystal_description 'needle'
_exptl_crystal_preparation 'benzene'
_diffrn_ambient_temperature 295
#These two values have been output from a single CSD field.
_refine_ls_R_factor_gt 0.0437
_refine_ls_wR_factor_gt 0.0437
_symmetry_cell_setting rhombohedral
_symmetry_space_group_name_H-M 'R -3'
_symmetry_Int_Tables_number 148
loop_
_symmetry_equiv_pos_site_id
_symmetry_equiv_pos_as_xyz
1 x,y,z
2 -y,x-y,z
3 -x+y,-x,z
4 2/3+x,1/3+y,1/3+z
5 2/3-y,1/3+x-y,1/3+z
6 2/3-x+y,1/3-x,1/3+z
7 1/3+x,2/3+y,2/3+z
8 1/3-y,2/3+x-y,2/3+z
9 1/3-x+y,2/3-x,2/3+z
10 -x,-y,-z
11 y,-x+y,-z
12 x-y,x,-z
13 -2/3-x,-1/3-y,-1/3-z
14 -2/3+y,-1/3-x+y,-1/3-z
15 -2/3+x-y,-1/3+x,-1/3-z
16 -1/3-x,-2/3-y,-2/3-z
17 -1/3+y,-2/3-x+y,-2/3-z
18 -1/3+x-y,-2/3+x,-2/3-z
_cell_length_a 19.5318(10)
_cell_length_b 19.5318(10)
_cell_length_c 19.5439(17)
_cell_angle_alpha 90
_cell_angle_beta 90
_cell_angle_gamma 120
_cell_formula_units_Z 18
loop_
_atom_type_symbol
_atom_type_radius_bond
C 0.68
H 0.23
N 0.68
O 0.68
loop_
_atom_site_label
_atom_site_type_symbol
_atom_site_fract_x
_atom_site_fract_y
_atom_site_fract_z
O1 O 0.09988(6) 0.81193(6) 0.88991(5)
N1 N 0.16889(6) 0.81095(6) 0.90768(5)
N2 N 0.06110(7) 0.66230(7) 1.04903(6)
C1 C 0.11736(7) 0.80187(8) 1.02332(6)
C2 C 0.06587(7) 0.73541(8) 1.06201(6)
C3 C 0.02314(9) 0.74668(11) 1.11390(7)
C4 C 0.03077(9) 0.81952(11) 1.12579(8)
C5 C 0.07964(8) 0.88466(9) 1.08685(7)
C6 C 0.12275(8) 0.87434(8) 1.03536(6)
C7 C 0.17371(7) 0.80126(7) 0.97237(6)
C8 C 0.24365(7) 0.79776(7) 0.99605(6)
C9 C 0.29401(9) 0.79008(10) 0.95031(8)
C10 C 0.36088(11) 0.79111(12) 0.97302(10)
C11 C 0.37941(10) 0.79893(12) 1.04179(10)
C12 C 0.32955(10) 0.80488(11) 1.08775(9)
C13 C 0.26222(9) 0.80431(9) 1.06538(7)
C14 C 0.08735(13) 0.96445(12) 1.09762(12)
C15 C 0.03369(14) 0.62895(12) 0.98126(11)
C16 C 0.02329(16) 0.60202(14) 1.10176(13)
H1 H -0.0124(11) 0.7012(11) 1.1395(10)
H2 H -0.0012(11) 0.8271(11) 1.1609(10)
H3 H 0.1610(9) 0.9208(9) 1.0088(7)
H4 H 0.0599(15) 0.9637(14) 1.1379(13)
H5 H 0.142(2) 1.004(2) 1.1082(16)
H6 H 0.058(2) 0.9756(19) 1.0625(18)
H7 H -0.0287(18) 0.6021(16) 0.9799(15)
H8 H 0.0538(15) 0.5902(17) 0.9683(14)
H9 H 0.0543(15) 0.6693(16) 0.9486(14)
H10 H 0.0356(13) 0.5582(14) 1.0904(12)
H11 H -0.0356(15) 0.5807(14) 1.1019(12)
H12 H 0.0461(15) 0.6286(15) 1.1436(15)
H13 H 0.1091(12) 0.8259(12) 0.8431(13)
H14 H 0.2797(10) 0.7826(10) 0.8999(11)
H15 H 0.3964(14) 0.7856(14) 0.9409(13)
H16 H 0.4281(12) 0.8001(12) 1.0572(11)
H17 H 0.3425(11) 0.8118(12) 1.1370(11)
H18 H 0.2267(10) 0.810(1) 1.0983(9)
#END
