
#######################################################################
#
#                 Cambridge Crystallographic Data Centre
#                                CCDC
#
#######################################################################
#
# If this CIF has been generated from an entry in the Cambridge
# Structural Database, then it will include bibliographic, chemical,
# crystal, experimental, refinement or atomic coordinate data resulting
# from the CCDC's data processing and validation procedures.
#
#######################################################################

data_CSD_CIF_VOHYUN
_audit_creation_date 2009-01-06
_audit_creation_method CSD-ConQuest-V1
_database_code_CSD VOHYUN
_database_code_depnum_ccdc_archive 'CCDC 712403'
_chemical_formula_sum 'C15 H13 N1 O5'
_chemical_formula_moiety
;
C15 H13 N1 O5
;
_journal_coeditor_code "IUCr AT2666"
_journal_coden_Cambridge 1370
_journal_volume 64
_journal_year 2008
_journal_page_first o2291
_journal_name_full 'Acta Crystallogr.,Sect.E:Struct.Rep.Online '
loop_
_publ_author_name
"Mei Li"
"Xin Chen"
_chemical_name_systematic
;
3-Methoxy-4-(4-nitrobenzyloxy)benzaldehyde
;
_cell_volume   2820.421
_exptl_crystal_colour 'pale yellow'
_exptl_crystal_density_diffrn 1.353
_exptl_crystal_description 'block'
_exptl_crystal_preparation 'acetonitrile'
_diffrn_ambient_temperature 294
#These two values have been output from a single CSD field.
_refine_ls_R_factor_gt 0.0439
_refine_ls_wR_factor_gt 0.0439
_symmetry_cell_setting orthorhombic
_symmetry_space_group_name_H-M 'P b c a'
_symmetry_Int_Tables_number 61
loop_
_symmetry_equiv_pos_site_id
_symmetry_equiv_pos_as_xyz
1 x,y,z
2 1/2-x,-y,1/2+z
3 1/2+x,1/2-y,-z
4 -x,1/2+y,1/2-z
5 -x,-y,-z
6 -1/2+x,y,-1/2-z
7 -1/2-x,-1/2+y,z
8 x,-1/2-y,-1/2+z
_cell_length_a 13.743(3)
_cell_length_b 12.526(3)
_cell_length_c 16.384(3)
_cell_angle_alpha 90
_cell_angle_beta 90
_cell_angle_gamma 90
_cell_formula_units_Z 8
loop_
_atom_type_symbol
_atom_type_radius_bond
C 0.68
H 0.23
N 0.68
O 0.68
loop_
_atom_site_label
_atom_site_type_symbol
_atom_site_fract_x
_atom_site_fract_y
_atom_site_fract_z
N1 N 0.14273(18) -0.3678(2) 1.20564(17)
O1 O 0.1166(2) -0.34357(19) 1.27401(14)
O2 O 0.1674(2) -0.45767(19) 1.18670(15)
O3 O 0.11868(11) 0.05467(12) 0.99132(8)
O4 O 0.07376(11) 0.23118(12) 1.05892(9)
O5 O 0.1082(2) 0.5139(2) 0.82786(17)
C1 C 0.09685(14) 0.23830(18) 0.97787(13)
C2 C 0.09799(15) 0.33013(19) 0.93261(15)
H1 H 0.08260 0.39500 0.95700
C3 C 0.12223(16) 0.3267(2) 0.84953(16)
C4 C 0.14582(18) 0.2313(2) 0.81422(15)
H2 H 0.16260 0.22940 0.75920
C5 C 0.14517(17) 0.1375(2) 0.85877(14)
H3 H 0.16100 0.07300 0.83400
C6 C 0.12076(15) 0.14069(17) 0.94062(13)
C7 C 0.1230(2) 0.4259(3) 0.8018(2)
H4 H 0.13610 0.41990 0.74630
C8 C 0.0516(2) 0.3282(2) 1.10024(16)
H5 H 0.10710 0.37470 1.09850
H6 H 0.03540 0.31300 1.15600
H7 H -0.00270 0.36230 1.07410
C9 C 0.14047(18) -0.04690(17) 0.95782(13)
H8 H 0.20330 -0.04470 0.93090
H9 H 0.09170 -0.06600 0.91760
C10 C 0.14211(15) -0.12841(17) 1.02476(13)
C11 C 0.16208(16) -0.23375(19) 1.00431(14)
H10 H 0.17460 -0.25160 0.95020
C12 C 0.16355(17) -0.31198(19) 1.06322(16)
H11 H 0.17770 -0.38240 1.04960
C13 C 0.14380(16) -0.28411(19) 1.14254(15)
C14 C 0.12433(18) -0.18140(19) 1.16476(14)
H12 H 0.11170 -0.16440 1.21900
C15 C 0.12358(17) -0.10322(19) 1.10550(14)
H13 H 0.11050 -0.03290 1.12000
#END
