
#######################################################################
#
#                 Cambridge Crystallographic Data Centre
#                                CCDC
#
#######################################################################
#
# If this CIF has been generated from an entry in the Cambridge
# Structural Database, then it will include bibliographic, chemical,
# crystal, experimental, refinement or atomic coordinate data resulting
# from the CCDC's data processing and validation procedures.
#
#######################################################################

data_CSD_CIF_VOHZEY
_audit_creation_date 2009-01-06
_audit_creation_method CSD-ConQuest-V1
_database_code_CSD VOHZEY
_database_code_depnum_ccdc_archive 'CCDC 712406'
_chemical_formula_sum 'C13 H23 N3 O4'
_chemical_formula_moiety
;
C13 H23 N3 O4
;
_journal_coeditor_code "IUCr RZ2260"
_journal_coden_Cambridge 1370
_journal_volume 64
_journal_year 2008
_journal_page_first o2294
_journal_name_full 'Acta Crystallogr.,Sect.E:Struct.Rep.Online '
loop_
_publ_author_name
"Juxian Wang"
"Mingliang Liu"
"Jue Cao"
"Yucheng Wang"
_chemical_name_systematic
;
t-Butyl 4-carbamoyl-3-methoxyimino-4-methylpiperidine-1-carboxylate
;
_chemical_melting_point 413.15
_cell_volume   6283.812
_exptl_crystal_colour 'colorless'
_exptl_crystal_density_diffrn 1.206
_exptl_special_details
;
Melting point range 413.15-415.15K

;
_exptl_crystal_description 'block'
_exptl_crystal_preparation 'ethanol/ethyl acetate'
_diffrn_ambient_temperature 293
#These two values have been output from a single CSD field.
_refine_ls_R_factor_gt 0.0393
_refine_ls_wR_factor_gt 0.0393
_symmetry_cell_setting tetragonal
_symmetry_space_group_name_H-M 'I 41/a'
_symmetry_Int_Tables_number 88
loop_
_symmetry_equiv_pos_site_id
_symmetry_equiv_pos_as_xyz
1 x,y,z
2 3/4-y,1/4+x,1/4+z
3 1/2+x,1/2+y,1/2+z
4 1/4-y,3/4+x,3/4+z
5 1/4+y,1/4-x,1/4+z
6 1/2-x,-y,1/2+z
7 3/4+y,3/4-x,3/4+z
8 -x,1/2-y,z
9 -x,-y,-z
10 -3/4+y,-1/4-x,-1/4-z
11 -1/2-x,-1/2-y,-1/2-z
12 -1/4+y,-3/4-x,-3/4-z
13 -1/4-y,-1/4+x,-1/4-z
14 -1/2+x,y,-1/2-z
15 -3/4-y,-3/4+x,-3/4-z
16 x,-1/2+y,-z
_cell_length_a 22.813(2)
_cell_length_b 22.813(2)
_cell_length_c 12.0742(16)
_cell_angle_alpha 90
_cell_angle_beta 90
_cell_angle_gamma 90
_cell_formula_units_Z 16
loop_
_atom_type_symbol
_atom_type_radius_bond
C 0.68
H 0.23
N 0.68
O 0.68
loop_
_atom_site_label
_atom_site_type_symbol
_atom_site_fract_x
_atom_site_fract_y
_atom_site_fract_z
N1 N 0.38925(6) 0.53733(7) 0.27764(13)
N2 N 0.29390(6) 0.58484(6) 0.05570(12)
N3 N 0.41951(6) 0.51996(6) -0.00791(13)
H1 H 0.44320 0.49410 -0.03420
H2 H 0.38300 0.51890 -0.02530
O1 O 0.46173(5) 0.48101(5) 0.33671(11)
O2 O 0.37946(6) 0.43856(6) 0.26866(13)
O3 O 0.24359(5) 0.55589(5) 0.09853(10)
O4 O 0.49117(5) 0.56448(5) 0.08658(12)
C1 C 0.33172(8) 0.54686(10) 0.23109(17)
H3 H 0.30800 0.56920 0.28280
H4 H 0.31260 0.50940 0.21890
C2 C 0.33613(7) 0.57937(7) 0.12372(14)
C3 C 0.39477(7) 0.60751(7) 0.09840(14)
C4 C 0.41585(8) 0.63467(8) 0.20750(15)
H5 H 0.45310 0.65410 0.19490
H6 H 0.38790 0.66420 0.23090
C5 C 0.42325(9) 0.58985(8) 0.30031(16)
H7 H 0.46430 0.57960 0.30740
H8 H 0.41050 0.60690 0.36980
C6 C 0.40799(8) 0.48163(10) 0.29224(16)
C7 C 0.49544(8) 0.42673(9) 0.34839(16)
C8 C 0.50169(11) 0.39737(11) 0.2370(2)
H9 H 0.46430 0.38240 0.21380
H10 H 0.52920 0.36570 0.24260
H11 H 0.51550 0.42540 0.18370
C9 C 0.55329(9) 0.44949(10) 0.3911(2)
H12 H 0.57030 0.47540 0.33720
H13 H 0.57940 0.41720 0.40410
H14 H 0.54710 0.47040 0.45900
C10 C 0.46678(10) 0.38805(11) 0.4341(2)
H15 H 0.46190 0.40960 0.50170
H16 H 0.49100 0.35440 0.44750
H17 H 0.42910 0.37550 0.40760
C11 C 0.19775(8) 0.55590(9) 0.01807(17)
H18 H 0.18180 0.59470 0.01150
H19 H 0.16740 0.52930 0.04080
H20 H 0.21320 0.54370 -0.05220
C12 C 0.43929(8) 0.56124(7) 0.05932(14)
C13 C 0.39064(9) 0.65416(8) 0.00759(16)
H21 H 0.37610 0.63660 -0.05930
H22 H 0.42880 0.67050 -0.00570
H23 H 0.36440 0.68470 0.03080
#END
