
#######################################################################
#
#                 Cambridge Crystallographic Data Centre
#                                CCDC
#
#######################################################################
#
# If this CIF has been generated from an entry in the Cambridge
# Structural Database, then it will include bibliographic, chemical,
# crystal, experimental, refinement or atomic coordinate data resulting
# from the CCDC's data processing and validation procedures.
#
#######################################################################

data_CSD_CIF_VOJHAF
_audit_creation_date 2014-08-21
_audit_creation_method CSD-ConQuest-V1
_database_code_CSD VOJHAF
_database_code_depnum_ccdc_archive 'CCDC 948080'
_chemical_formula_sum 'C17 H15 N3 O3'
_chemical_formula_moiety
;
C17 H15 N3 O3
;
_journal_coden_Cambridge 1753
_journal_volume 2013
_journal_year 2013
_journal_page_first 603579
_journal_name_full 'J.Chem. '
loop_
_publ_author_name
"D.Belaziz"
"S.V.Luis"
"Y.K.Rodi"
"I.Marti"
"V.Marti-Centelles"
_chemical_name_systematic
;
1-allyl-3-(4-nitrobenzyl)-1,3-dihydro-2H-benzimidazol-2-one
;
_chemical_melting_point 388
_cell_volume   1494.707
_exptl_crystal_colour 'colorless'
_exptl_crystal_density_diffrn 1.375
_exptl_crystal_description 'block'
_diffrn_ambient_temperature 200
#These two values have been output from a single CSD field.
_refine_ls_R_factor_gt 0.0353
_refine_ls_wR_factor_gt 0.0353
_symmetry_cell_setting monoclinic
_symmetry_space_group_name_H-M 'P 21/n'
_symmetry_Int_Tables_number 14
loop_
_symmetry_equiv_pos_site_id
_symmetry_equiv_pos_as_xyz
1 x,y,z
2 1/2-x,1/2+y,1/2-z
3 -x,-y,-z
4 -1/2+x,-1/2-y,-1/2+z
_cell_length_a 7.12148(8)
_cell_length_b 16.12035(17)
_cell_length_c 13.04169(17)
_cell_angle_alpha 90
_cell_angle_beta 93.3043(11)
_cell_angle_gamma 90
_cell_formula_units_Z 4
loop_
_atom_type_symbol
_atom_type_radius_bond
C 0.68
H 0.23
N 0.68
O 0.68
loop_
_atom_site_label
_atom_site_type_symbol
_atom_site_fract_x
_atom_site_fract_y
_atom_site_fract_z
C1 C -0.12879(15) 0.57597(7) 0.08609(9)
C2 C 0.03116(17) 0.62163(7) 0.11173(9)
H1 H 0.03790 0.67760 0.09500
C3 C 0.18129(17) 0.58185(7) 0.16306(9)
H2 H 0.28960 0.61160 0.18200
C4 C 0.17157(16) 0.49794(7) 0.18648(9)
C5 C 0.00858(16) 0.45384(7) 0.15814(9)
H3 H 0.00250 0.39750 0.17280
C6 C -0.14419(16) 0.49246(7) 0.10853(9)
H4 H -0.25390 0.46320 0.09080
C7 C 0.33344(17) 0.45442(8) 0.24458(9)
H5 H 0.36440 0.40410 0.20830
H6 H 0.44320 0.49020 0.24720
C8 C 0.24974(16) 0.35381(7) 0.3805(1)
C9 C 0.27451(14) 0.48844(7) 0.42983(9)
C10 C 0.30096(16) 0.57318(7) 0.43625(10)
H7 H 0.33250 0.60420 0.37960
C11 C 0.27832(16) 0.61017(7) 0.53109(10)
H8 H 0.29620 0.66710 0.53830
C12 C 0.22956(16) 0.56390(8) 0.61518(10)
H9 H 0.21440 0.59060 0.67740
C13 C 0.20274(15) 0.47846(7) 0.60880(9)
H10 H 0.16970 0.44750 0.66520
C14 C 0.22739(14) 0.44177(7) 0.51491(9)
C15 C 0.16693(17) 0.28898(7) 0.54601(11)
H11 H 0.14490 0.24090 0.50220
H12 H 0.05130 0.30080 0.57910
C16 C 0.31837(19) 0.26896(8) 0.62646(11)
H13 H 0.43980 0.26210 0.60520
C17 C 0.2929(3) 0.26045(11) 0.72427(14)
H14 H 0.398(3) 0.2458(13) 0.7750(16)
H15 H 0.155(4) 0.2613(16) 0.7416(18)
N1 N -0.28643(15) 0.61768(7) 0.03032(9)
N2 N 0.28705(14) 0.43348(6) 0.34853(8)
N3 N 0.21398(13) 0.35963(6) 0.48296(8)
O1 O -0.25525(15) 0.68240(6) -0.01474(9)
O2 O -0.44126(14) 0.58546(7) 0.02929(11)
O3 O 0.24909(14) 0.29078(6) 0.32796(7)
#END
