
#######################################################################
#
#                 Cambridge Crystallographic Data Centre
#                                CCDC
#
#######################################################################
#
# If this CIF has been generated from an entry in the Cambridge
# Structural Database, then it will include bibliographic, chemical,
# crystal, experimental, refinement or atomic coordinate data resulting
# from the CCDC's data processing and validation procedures.
#
#######################################################################

data_CSD_CIF_VOJLUC
_audit_creation_date 2009-01-06
_audit_creation_method CSD-ConQuest-V1
_database_code_CSD VOJLUC
_database_code_depnum_ccdc_archive 'CCDC 633434'
_chemical_formula_sum 'C16 H21 N1 O3'
_chemical_formula_moiety
;
C16 H21 N1 O3
;
_journal_coden_Cambridge 1291
_journal_year 2008
_journal_page_first 3943
_journal_name_full 'Eur.J.Org.Chem. '
loop_
_publ_author_name
"P.Merino"
"V.Mannucci"
"T.Tejero"
_chemical_name_systematic
;
(R,Z)-N-Benzylidene-1-((S)-2,2-dimethyl-1,3-dioxolan-4-yl)but-3-en-1-amine 
N-oxide
;
_chemical_melting_point 377.15
_cell_volume   1525.422
_exptl_crystal_colour 'colorless'
_exptl_crystal_density_diffrn 1.199
_exptl_special_details
;
Melting point range 377.15-378.15K

;
_exptl_crystal_description 'block'
_diffrn_ambient_temperature 293
#These two values have been output from a single CSD field.
_refine_ls_R_factor_gt 0.045
_refine_ls_wR_factor_gt 0.045
_symmetry_cell_setting orthorhombic
_symmetry_space_group_name_H-M 'P 21 21 21'
_symmetry_Int_Tables_number 19
loop_
_symmetry_equiv_pos_site_id
_symmetry_equiv_pos_as_xyz
1 x,y,z
2 1/2-x,-y,1/2+z
3 -x,1/2+y,1/2-z
4 1/2+x,1/2-y,-z
_cell_length_a 9.642(6)
_cell_length_b 8.990(4)
_cell_length_c 17.598(9)
_cell_angle_alpha 90
_cell_angle_beta 90
_cell_angle_gamma 90
_cell_formula_units_Z 4
loop_
_atom_type_symbol
_atom_type_radius_bond
C 0.68
H 0.23
N 0.68
O 0.68
loop_
_atom_site_label
_atom_site_type_symbol
_atom_site_fract_x
_atom_site_fract_y
_atom_site_fract_z
N1 N 0.1682(2) 0.8106(2) 0.87050(15)
O1 O 0.2473(2) 0.8741(2) 0.92035(12)
O2 O 0.2259(2) 0.5245(2) 0.92146(14)
O3 O 0.0360(2) 0.3732(2) 0.92678(13)
C1 C -0.1401(6) 1.0328(5) 0.8694(3)
H1 H -0.08030 1.09840 0.89390
H2 H -0.20120 1.06780 0.83270
C2 C -0.1383(4) 0.9006(4) 0.8856(2)
H3 H -0.20090 0.84170 0.85890
C3 C -0.0502(3) 0.8197(3) 0.94201(18)
H4 H -0.10940 0.76120 0.97510
H5 H -0.00140 0.89160 0.97320
C4 C 0.0549(3) 0.7175(3) 0.90389(16)
H6 H 0.00840 0.66360 0.86270
C5 C 0.1185(3) 0.6052(3) 0.95814(17)
H7 H 0.15550 0.65640 1.00290
C6 C 0.0191(3) 0.4839(3) 0.98275(19)
H8 H 0.04320 0.44620 1.03270
H9 H -0.07560 0.52010 0.98380
C7 C 0.1784(3) 0.3752(3) 0.90562(19)
C8 C 0.2625(4) 0.2699(4) 0.9535(2)
H10 H 0.35790 0.27380 0.93790
H11 H 0.22800 0.17050 0.94710
H12 H 0.25530 0.29810 1.00590
C9 C 0.1884(4) 0.3449(5) 0.8226(2)
H13 H 0.28400 0.34590 0.80750
H14 H 0.13860 0.42010 0.79510
H15 H 0.14900 0.24920 0.81180
C10 C 0.1793(3) 0.8267(3) 0.79766(19)
H16 H 0.11620 0.77420 0.76810
C11 C 0.2790(3) 0.9174(3) 0.75703(17)
C12 C 0.2614(3) 0.9289(3) 0.6781(2)
H17 H 0.18820 0.87960 0.65470
C13 C 0.3516(4) 1.0124(4) 0.6349(2)
H18 H 0.33860 1.01870 0.58260
C14 C 0.4601(4) 1.0863(4) 0.6680(3)
H19 H 0.52060 1.14260 0.63850
C15 C 0.4782(4) 1.0766(4) 0.7444(2)
H20 H 0.55180 1.12690 0.76690
C16 C 0.3890(3) 0.9927(4) 0.7898(2)
H21 H 0.40350 0.98740 0.84200
#END
