
#######################################################################
#
#                 Cambridge Crystallographic Data Centre
#                                CCDC
#
#######################################################################
#
# If this CIF has been generated from an entry in the Cambridge
# Structural Database, then it will include bibliographic, chemical,
# crystal, experimental, refinement or atomic coordinate data resulting
# from the CCDC's data processing and validation procedures.
#
#######################################################################

data_CSD_CIF_VOJMAJ
_audit_creation_date 2009-01-06
_audit_creation_method CSD-ConQuest-V1
_database_code_CSD VOJMAJ
_database_code_depnum_ccdc_archive 'CCDC 633436'
_chemical_formula_sum 'C16 H21 N1 O3'
_chemical_formula_moiety
;
C16 H21 N1 O3
;
_journal_coden_Cambridge 1291
_journal_year 2008
_journal_page_first 3943
_journal_name_full 'Eur.J.Org.Chem. '
loop_
_publ_author_name
"P.Merino"
"V.Mannucci"
"T.Tejero"
_chemical_name_systematic
;
(2R,4S,6R)-2-((S)-2,2-Dimethyl-1,3-dioxolan-4-yl)-6-phenyl-7-oxa-1-aza-bicyclo
(2.2.1)heptane
;
_chemical_melting_point 354
_cell_volume   1460.559
_exptl_crystal_colour 'colorless'
_exptl_crystal_density_diffrn 1.252
_exptl_special_details
;
cif gives cell temperature 100 K, main diffraction temperature 293 K

;
_exptl_crystal_description 'block'
_diffrn_ambient_temperature 100
#These two values have been output from a single CSD field.
_refine_ls_R_factor_gt 0.1232
_refine_ls_wR_factor_gt 0.1232
loop_
_citation_database_id_CSD
_citation_special_details
VOFRIS "is a stereoisomer of this entry"
_symmetry_cell_setting monoclinic
_symmetry_space_group_name_H-M 'P 21'
_symmetry_Int_Tables_number 4
loop_
_symmetry_equiv_pos_site_id
_symmetry_equiv_pos_as_xyz
1 x,y,z
2 -x,1/2+y,-z
_cell_length_a 5.5728(12)
_cell_length_b 8.7550(15)
_cell_length_c 29.936(6)
_cell_angle_alpha 90
_cell_angle_beta 90.25(2)
_cell_angle_gamma 90
_cell_formula_units_Z 4
loop_
_atom_type_symbol
_atom_type_radius_bond
C 0.68
H 0.23
N 0.68
O 0.68
loop_
_atom_site_label
_atom_site_type_symbol
_atom_site_fract_x
_atom_site_fract_y
_atom_site_fract_z
O1 O 0.2629(8) 0.3693(5) 0.93510(18)
O2 O 0.3521(8) 0.9508(6) 0.91222(18)
O3 O 0.5624(8) 0.5390(5) 0.91597(18)
N1 N 0.3554(10) 0.8188(6) 0.8816(2)
C1 C 0.3796(12) 0.6198(8) 0.9405(2)
H1 H 0.45780 0.69250 0.96180
C2 C 0.4898(12) 0.3777(7) 0.9145(2)
C3 C 0.1132(11) 0.7650(7) 0.8113(2)
C4 C 0.0091(13) 0.9847(8) 0.8698(3)
H2 H 0.01300 1.09310 0.86040
H3 H -0.15500 0.94370 0.86560
C5 C 0.1989(13) 0.8876(8) 0.8444(3)
H4 H 0.30210 0.96040 0.82740
C6 C 0.0955(12) 0.9653(9) 0.9179(3)
H5 H 0.04690 1.05020 0.93830
C7 C 0.2114(12) 0.7089(8) 0.9091(3)
H6 H 0.12550 0.63590 0.88890
C8 C -0.1069(13) 0.6885(8) 0.8161(3)
H7 H -0.21400 0.71380 0.83960
C9 C 0.1979(16) 0.6141(10) 0.7447(3)
H8 H 0.29980 0.59110 0.72030
C10 C 0.2539(14) 0.4977(8) 0.9663(3)
H9 H 0.33950 0.47390 0.99450
H10 H 0.08640 0.52690 0.97310
C11 C -0.1648(14) 0.5712(9) 0.7846(3)
H11 H -0.31160 0.51690 0.78740
C12 C -0.0152(15) 0.5367(9) 0.7511(3)
H12 H -0.05710 0.45650 0.73120
C13 C 0.4655(15) 0.3307(10) 0.8655(3)
H13 H 0.62290 0.33610 0.85110
H14 H 0.35380 0.39990 0.85030
H15 H 0.40430 0.22590 0.86380
C14 C 0.6804(12) 0.2880(8) 0.9386(3)
H16 H 0.83300 0.29800 0.92280
H17 H 0.63380 0.18010 0.93980
H18 H 0.69850 0.32730 0.96910
C15 C 0.2594(14) 0.7307(9) 0.7766(3)
H19 H 0.40580 0.78500 0.77320
C16 C 0.0267(13) 0.8068(8) 0.9345(3)
H20 H -0.14010 0.78000 0.92610
H21 H 0.04660 0.79740 0.96730
O4 O 0.7592(8) 0.3373(5) 0.56446(18)
O5 O 0.8524(9) -0.2450(6) 0.58766(19)
O6 O 1.0626(8) 0.1688(5) 0.58456(17)
N2 N 0.8534(10) -0.1133(6) 0.6189(2)
C17 C 0.3920(12) 0.0220(8) 0.6843(3)
H22 H 0.28380 -0.00230 0.66080
C18 C 0.9924(12) 0.3306(8) 0.5866(3)
C19 C 0.6965(14) 0.0926(9) 0.7548(3)
H23 H 0.80140 0.11630 0.77890
C20 C 0.8747(13) 0.0840(8) 0.5601(3)
H24 H 0.95050 0.01020 0.53890
C21 C 0.6101(11) -0.0589(8) 0.6882(2)
C22 C 0.5924(12) -0.2606(8) 0.5825(3)
H25 H 0.54200 -0.34540 0.56210
C23 C 0.3336(14) 0.1351(9) 0.7140(3)
H26 H 0.18800 0.19000 0.71010
C24 C 0.5049(13) -0.2780(8) 0.6302(3)
H27 H 0.50750 -0.38590 0.64010
H28 H 0.34160 -0.23560 0.63410
C25 C 0.7120(12) -0.0001(8) 0.5916(3)
H29 H 0.62920 0.07400 0.61180
C26 C 0.7602(14) -0.0217(8) 0.7248(3)
H30 H 0.90670 -0.07540 0.72900
C27 C 0.6991(12) -0.1798(8) 0.6550(3)
H31 H 0.80210 -0.25250 0.67230
C28 C 0.4853(15) 0.1715(9) 0.7503(3)
H32 H 0.44230 0.24870 0.77110
C29 C 0.7480(15) 0.2113(7) 0.5338(3)
H33 H 0.83360 0.23470 0.50570
H34 H 0.57990 0.18340 0.52680
C30 C 0.5213(13) -0.0992(8) 0.5658(3)
H35 H 0.35530 -0.07230 0.57440
H36 H 0.53890 -0.08960 0.53300
C31 C 0.9676(15) 0.3782(9) 0.6338(3)
H37 H 1.12490 0.37460 0.64850
H38 H 0.85690 0.30890 0.64910
H39 H 0.90450 0.48260 0.63510
C32 C 1.1779(13) 0.4236(9) 0.5608(3)
H40 H 1.18690 0.38590 0.53000
H41 H 1.33520 0.41310 0.57520
H42 H 1.13050 0.53140 0.56060
#END
