
#######################################################################
#
#                 Cambridge Crystallographic Data Centre
#                                CCDC
#
#######################################################################
#
# If this CIF has been generated from an entry in the Cambridge
# Structural Database, then it will include bibliographic, chemical,
# crystal, experimental, refinement or atomic coordinate data resulting
# from the CCDC's data processing and validation procedures.
#
#######################################################################

data_CSD_CIF_VOKKUB
_audit_creation_date 1992-09-08
_audit_creation_method CSD-ConQuest-V1
_database_code_CSD VOKKUB
_chemical_formula_sum 'C9 H12 N2 O6'
_chemical_formula_moiety
;
C9 H12 N2 O6
;
_journal_coden_Cambridge 82
_journal_volume 31
_journal_year 1990
_journal_page_first 158-4
_journal_name_full 'Zh.Strukt.Khim.(Russ.)(J.Struct.Chem.) '
loop_
_publ_author_name
"V.A.Neverov"
"V.A.Vasin"
"I.Yu.Bolusheva"
_chemical_name_systematic
;
Methyl (6-exo-7-endo-dinitro)norpinane-6-carboxylate
;
_cell_volume    539.056
_exptl_crystal_colour 'colorless'
_exptl_crystal_density_diffrn 1.51
_exptl_special_details
;
No space group given in paper; gamma angle given as 9.513(3). The structure 
contains small quantities of the opposite conformation at C3
;
_diffrn_ambient_temperature ?
_diffrn_special_details
;
The study was carried out at room temperature,in the range 283-303K

;
#These two values have been output from a single CSD field.
_refine_ls_R_factor_gt 0.049
_refine_ls_wR_factor_gt 0.049
_symmetry_cell_setting triclinic
_symmetry_space_group_name_H-M 'P -1'
_symmetry_Int_Tables_number 2
loop_
_symmetry_equiv_pos_site_id
_symmetry_equiv_pos_as_xyz
1 x,y,z
2 -x,-y,-z
_cell_length_a 6.278(3)
_cell_length_b 7.250(3)
_cell_length_c 12.924(4)
_cell_angle_alpha 67.36(3)
_cell_angle_beta 87.82(3)
_cell_angle_gamma 95.13(3)
_cell_formula_units_Z 2
loop_
_atom_type_symbol
_atom_type_radius_bond
C 0.68
H 0.23
N 0.68
O 0.68
loop_
_atom_site_label
_atom_site_type_symbol
_atom_site_fract_x
_atom_site_fract_y
_atom_site_fract_z
O1 O 0.6492(4) -0.2157(3) 0.5110(2)
O2 O 0.7966(4) 0.0833(3) 0.4709(2)
O3 O 0.4068(4) 0.4603(3) 0.1420(2)
O4 O 0.7440(4) 0.5697(3) 0.0955(2)
O5 O 0.6947(3) -0.3481(3) 0.3102(2)
O6 O 1.0177(3) -0.2267(2) 0.3383(2)
N1 N 0.7299(4) -0.0534(3) 0.4452(2)
N2 N 0.5974(4) 0.4456(3) 0.1525(2)
C1 C 0.8685(4) 0.1807(3) 0.2446(2)
C2 C 0.9267(5) 0.1750(4) 0.1301(2)
C3 C 0.7341(6) 0.0998(5) 0.0816(2)
C4 C 0.5243(5) 0.0349(4) 0.1541(2)
C5 C 0.5374(4) 0.0587(3) 0.2665(2)
C6 C 0.7443(4) -0.0239(3) 0.3212(2)
C7 C 0.6542(4) 0.2654(3) 0.2486(2)
C8 C 0.8130(4) -0.2203(3) 0.3217(2)
C9 C 1.1088(5) -0.4074(4) 0.3433(3)
H1 H 1.002(5) 0.232(4) 0.269(2)
H2 H 1.052(5) 0.090(4) 0.137(2)
H3 H 1.003(5) 0.308(4) 0.078(2)
H4 H 0.793(5) 0.010(5) 0.061(2)
H5 H 0.734(5) 0.202(4) 0.008(3)
H6 H 0.459(5) -0.103(4) 0.172(2)
H7 H 0.393(5) 0.104(4) 0.122(2)
H8 H 0.398(5) 0.010(4) 0.316(2)
H9 H 0.621(5) 0.295(4) 0.314(2)
H10 H 1.031(5) -0.505(4) 0.389(2)
H11 H 1.254(5) -0.393(4) 0.365(3)
H12 H 1.134(5) -0.403(4) 0.262(3)
#END
