
#######################################################################
#
#                 Cambridge Crystallographic Data Centre
#                                CCDC
#
#######################################################################
#
# If this CIF has been generated from an entry in the Cambridge
# Structural Database, then it will include bibliographic, chemical,
# crystal, experimental, refinement or atomic coordinate data resulting
# from the CCDC's data processing and validation procedures.
#
#######################################################################

data_CSD_CIF_VOKPAN
_audit_creation_date 2009-05-28
_audit_creation_method CSD-ConQuest-V1
_database_code_CSD VOKPAN
_database_code_depnum_ccdc_archive 'CCDC 646226'
_chemical_formula_sum 'C21 H27 N1 O4'
_chemical_formula_moiety
;
C21 H27 N1 O4
;
_journal_coden_Cambridge 16
_journal_volume 62
_journal_year 2006
_journal_page_first 9321
_journal_name_full 'Tetrahedron '
loop_
_publ_author_name
"M.E.Jung"
"B.A.Duclos"
_chemical_name_systematic
;
(+-)-(4aS,6S,8aS)-3,4,4a,5,6,7,8,8a-octahydro-2,5,5,8a-tetramethyl-6-(4-nitrob
enzoyloxy)naphthalene
;
_cell_volume   1939.416
_exptl_crystal_density_diffrn 1.224
_exptl_crystal_preparation 'acetonitrile/hexanes'
_diffrn_ambient_temperature 120
#These two values have been output from a single CSD field.
_refine_ls_R_factor_gt 0.0451
_refine_ls_wR_factor_gt 0.0451
_symmetry_cell_setting monoclinic
_symmetry_space_group_name_H-M 'P 21/c'
_symmetry_Int_Tables_number 14
loop_
_symmetry_equiv_pos_site_id
_symmetry_equiv_pos_as_xyz
1 x,y,z
2 -x,1/2+y,1/2-z
3 -x,-y,-z
4 x,-1/2-y,-1/2+z
_cell_length_a 23.117(5)
_cell_length_b 7.2153(15)
_cell_length_c 11.901(3)
_cell_angle_alpha 90
_cell_angle_beta 102.308(3)
_cell_angle_gamma 90
_cell_formula_units_Z 4
loop_
_atom_type_symbol
_atom_type_radius_bond
C 0.68
H 0.23
N 0.68
O 0.68
loop_
_atom_site_label
_atom_site_type_symbol
_atom_site_fract_x
_atom_site_fract_y
_atom_site_fract_z
O1 O 0.3482(1) 0.3895(2) 0.7514(1)
O2 O 0.3995(1) 0.4400(2) 0.6129(1)
O3 O 0.6041(1) 0.1758(2) 1.1347(1)
O4 O 0.6550(1) 0.3305(2) 1.0335(1)
N1 N 0.6082(1) 0.2682(2) 1.0500(1)
C1 C 0.5063(1) 0.4334(2) 0.7846(2)
C2 C 0.5577(1) 0.3995(2) 0.8646(2)
C3 C 0.5536(1) 0.3072(2) 0.9642(2)
C4 C 0.5002(1) 0.2494(2) 0.9864(2)
C5 C 0.4489(1) 0.2852(2) 0.9062(2)
C6 C 0.4517(1) 0.3764(2) 0.8040(2)
C7 C 0.3978(1) 0.4068(2) 0.7118(2)
C8 C 0.2921(1) 0.4058(3) 0.6679(2)
C9 C 0.2752(1) 0.6078(3) 0.6496(2)
C10 C 0.2177(1) 0.6231(3) 0.5605(2)
C11 C 0.1668(1) 0.5150(3) 0.5942(2)
C12 C 0.1875(1) 0.3127(3) 0.6224(2)
C13 C 0.2468(1) 0.2858(3) 0.7106(2)
C14 C 0.2441(1) 0.3315(3) 0.8356(2)
C15 C 0.2666(1) 0.0823(3) 0.7069(2)
C16 C 0.1465(1) 0.6202(3) 0.6916(2)
C17 C 0.1353(1) 0.1967(3) 0.6427(2)
C18 C 0.0872(1) 0.1903(4) 0.5342(3)
C19 C 0.0780(1) 0.3637(4) 0.4675(2)
C20 C 0.1147(1) 0.5077(4) 0.4931(2)
C21 C 0.0261(1) 0.3682(5) 0.3661(3)
H1 H 0.50810 0.49640 0.71530
H2 H 0.59490 0.43850 0.85160
H3 H 0.49880 0.18590 1.05570
H4 H 0.41170 0.24790 0.92050
H5 H 0.29770 0.35380 0.59300
H6 H 0.30690 0.67610 0.62300
H7 H 0.27020 0.66350 0.72300
H8 H 0.22410 0.57550 0.48600
H9 H 0.20650 0.75530 0.54990
H10 H 0.19550 0.26400 0.54850
H11 H 0.27980 0.28510 0.88750
H12 H 0.20910 0.27240 0.85430
H13 H 0.24140 0.46600 0.84450
H14 H 0.30650 0.06790 0.75470
H15 H 0.26690 0.04770 0.62740
H16 H 0.23900 0.00200 0.73640
H17 H 0.12560 0.73340 0.66070
H18 H 0.18110 0.65290 0.75150
H19 H 0.11990 0.54130 0.72470
H20 H 0.14890 0.06930 0.66540
H21 H 0.11930 0.25160 0.70610
H22 H 0.09700 0.09080 0.48400
H23 H 0.04950 0.15600 0.55550
H24 H 0.10750 0.61310 0.44430
H25 H 0.02430 0.48960 0.32860
H26 H -0.01060 0.34660 0.39280
H27 H 0.03100 0.27130 0.31120
#END
