
#######################################################################
#
#                 Cambridge Crystallographic Data Centre
#                                CCDC
#
#######################################################################
#
# If this CIF has been generated from an entry in the Cambridge
# Structural Database, then it will include bibliographic, chemical,
# crystal, experimental, refinement or atomic coordinate data resulting
# from the CCDC's data processing and validation procedures.
#
#######################################################################

data_CSD_CIF_VOLJUC
_audit_creation_date 2009-05-27
_audit_creation_method CSD-ConQuest-V1
_database_code_CSD VOLJUC
_database_code_depnum_ccdc_archive 'CCDC 688312'
_chemical_formula_sum 'C22 H30 N2 O9'
_chemical_formula_moiety
;
C22 H30 N2 O9
;
_journal_coden_Cambridge 692
_journal_volume 2008
_journal_year 2008
_journal_page_first 3389
_journal_name_full 'Synthesis '
loop_
_publ_author_name
"L.Coutable"
"C.Saluzzo"
_chemical_name_systematic
;
Ethyl 
2-(5-(2-(3,5-dinitrobenzyloxy)-4-methylpentyl)tetrahydrofuran-2-yl)propanoate
;
_chemical_melting_point 321.15
_cell_volume   2490.229
_exptl_crystal_colour 'white'
_exptl_special_details
;
Melting point range 321.15-323.15K
The formula sum is given as C77.473 H104.066 O33.917 N7.068 in the .cif, but 
there is no indication of any disorder in the crystal
;
_diffrn_ambient_temperature 293
_symmetry_cell_setting monoclinic
_symmetry_space_group_name_H-M 'C 2'
_symmetry_Int_Tables_number 5
loop_
_symmetry_equiv_pos_site_id
_symmetry_equiv_pos_as_xyz
1 x,y,z
2 -x,y,-z
3 1/2+x,1/2+y,z
4 1/2-x,1/2+y,-z
_cell_length_a 44.604(9)
_cell_length_b 5.648(5)
_cell_length_c 9.8991(24)
_cell_angle_alpha 90
_cell_angle_beta 93.073(21)
_cell_angle_gamma 90
_cell_formula_units_Z 4
loop_
_atom_type_symbol
_atom_type_radius_bond
C 0.68
H 0.23
N 0.68
O 0.68
loop_
_atom_site_label
_atom_site_type_symbol
_atom_site_fract_x
_atom_site_fract_y
_atom_site_fract_z
O1 O -0.16780 -0.33670 -0.13740
O2 O -0.19320 -0.62090 -0.06250
O3 O -0.30180 -0.63230 -0.11680
O4 O -0.41120 -0.64150 -0.16310
O5 O -0.21780 0.27590 -0.39670
O6 O -0.26550 0.28400 -0.42010
O7 O -0.32370 -0.34730 -0.24110
O8 O -0.46570 -0.97970 -0.30150
O9 O -0.44890 -0.78250 -0.46250
N1 N -0.19140 -0.42910 -0.11690
N2 N -0.24260 0.20370 -0.37810
C1 C -0.21900 -0.31700 -0.16820
C2 C -0.21700 -0.10690 -0.24060
H1 H -0.19880 -0.03200 -0.25270
C3 C -0.24420 -0.01670 -0.29350
C4 C -0.27040 -0.11560 -0.27260
H2 H -0.28800 -0.04610 -0.30860
C5 C -0.27200 -0.32300 -0.19710
C6 C -0.35320 -0.46770 -0.23800
H3 H -0.35020 -0.63780 -0.22320
C7 C -0.24550 -0.41660 -0.14130
H4 H -0.24600 -0.54840 -0.08510
C8 C -0.30070 -0.44530 -0.17720
C9 C -0.36840 -0.42620 -0.37760
H5 H -0.38790 -0.50280 -0.38120
H6 H -0.37170 -0.25760 -0.38930
C10 C -0.35120 -0.51440 -0.49350
H7 H -0.33150 -0.43700 -0.48870
C11 C -0.37060 -0.36280 -0.12240
H8 H -0.35630 -0.30160 -0.05370
H9 H -0.38250 -0.23070 -0.15730
C12 C -0.39110 -0.53820 -0.05720
H10 H -0.37930 -0.66220 -0.01000
C13 C -0.44200 -0.60350 -0.13120
H11 H -0.44900 -0.74100 -0.08140
C14 C -0.45940 -0.58800 -0.26510
H12 H -0.45070 -0.45730 -0.31500
C15 C -0.34630 -0.77160 -0.49650
H13 H -0.36420 -0.85150 -0.47160
H14 H -0.33000 -0.81260 -0.43390
H15 H -0.34160 -0.81880 -0.58610
C16 C -0.44010 -0.39750 -0.03940
H16 H -0.44050 -0.25130 -0.09100
H17 H -0.45680 -0.39710 0.01920
C17 C -0.41210 -0.41900 0.03910
H18 H -0.41450 -0.51570 0.11880
H19 H -0.40450 -0.26470 0.06720
C18 C -0.49210 -0.51810 -0.24150
H20 H -0.50090 -0.63470 -0.18530
H21 H -0.50330 -0.50940 -0.32680
H22 H -0.49240 -0.36660 -0.19760
C19 C -0.36830 -0.43650 -0.63000
H23 H -0.35530 -0.45620 -0.70350
H24 H -0.37410 -0.27320 -0.62390
H25 H -0.38590 -0.53260 -0.64560
C20 C -0.45710 -0.79540 -0.34710
C21 C -0.44570 -1.00530 -0.54140
H26 H -0.43040 -1.10440 -0.49690
H27 H -0.46450 -1.09190 -0.54480
C22 C -0.43760 -0.95290 -0.67470
H28 H -0.41750 -0.89320 -0.67220
H29 H -0.45110 -0.83590 -0.71370
H30 H -0.43890 -1.09430 -0.72860
#END
