
#######################################################################
#
#                 Cambridge Crystallographic Data Centre
#                                CCDC
#
#######################################################################
#
# If this CIF has been generated from an entry in the Cambridge
# Structural Database, then it will include bibliographic, chemical,
# crystal, experimental, refinement or atomic coordinate data resulting
# from the CCDC's data processing and validation procedures.
#
#######################################################################

data_CSD_CIF_VOPNAR
_audit_creation_date 2014-08-22
_audit_creation_method CSD-ConQuest-V1
_database_code_CSD VOPNAR
_database_code_depnum_ccdc_archive 'CCDC 986510'
_chemical_formula_sum 'C20 H19 N1 O5'
_chemical_formula_moiety
;
C20 H19 N1 O5
;
_journal_coden_Cambridge 16
_journal_volume 70
_journal_year 2014
_journal_page_first 5038
_journal_name_full 'Tetrahedron '
loop_
_publ_author_name
"Yi-Ling Tsai"
"Siang-en Syu"
"Shu-Mei Yang"
"U.Das"
"Yu-Shiou Fan"
"Chia-Jui Lee"
"Wenwei Lin"
_chemical_name_systematic
;
ethyl 2-benzoyl-2-methyl-3-(4-nitrophenyl)cyclopropanecarboxylate
;
_cell_volume   1827.130
_exptl_crystal_colour 'colorless'
_exptl_crystal_density_diffrn 1.285
_exptl_crystal_description 'prism'
_diffrn_ambient_temperature 200
#These two values have been output from a single CSD field.
_refine_ls_R_factor_gt 0.0491
_refine_ls_wR_factor_gt 0.0491
_symmetry_cell_setting monoclinic
_symmetry_space_group_name_H-M 'P 21/n'
_symmetry_Int_Tables_number 14
loop_
_symmetry_equiv_pos_site_id
_symmetry_equiv_pos_as_xyz
1 x,y,z
2 1/2-x,1/2+y,1/2-z
3 -x,-y,-z
4 -1/2+x,-1/2-y,-1/2+z
_cell_length_a 12.0869(5)
_cell_length_b 11.1268(7)
_cell_length_c 14.3074(7)
_cell_angle_alpha 90
_cell_angle_beta 108.275(2)
_cell_angle_gamma 90
_cell_formula_units_Z 4
loop_
_atom_type_symbol
_atom_type_radius_bond
C 0.68
H 0.23
N 0.68
O 0.68
loop_
_atom_site_label
_atom_site_type_symbol
_atom_site_fract_x
_atom_site_fract_y
_atom_site_fract_z
C1 C 0.62896(16) 0.47986(16) -0.04319(14)
C2 C 0.67480(17) 0.49707(18) 0.05693(15)
H1 H 0.71010 0.43240 0.09910
C3 C 0.66839(17) 0.61008(18) 0.09473(13)
H2 H 0.70020 0.62310 0.16360
C4 C 0.61609(14) 0.70529(16) 0.03362(12)
C5 C 0.57105(16) 0.68448(17) -0.06732(13)
H3 H 0.53590 0.74870 -0.11010
C6 C 0.57685(17) 0.57160(18) -0.10598(14)
H4 H 0.54540 0.55770 -0.17480
C7 C 0.60429(15) 0.82844(16) 0.06962(12)
H5 H 0.53960 0.87600 0.02380
C8 C 0.62429(16) 0.85635(17) 0.17700(13)
H6 H 0.65380 0.78830 0.22390
C9 C 0.54108(18) 0.93884(19) 0.20150(15)
C10 C 0.4766(4) 1.0082(3) 0.3308(3)
H7 H 0.51350 1.02140 0.40230
H8 H 0.47300 1.08670 0.29730
C11 C 0.3609(4) 0.9640(4) 0.3136(4)
H9 H 0.31610 1.02200 0.33860
H10 H 0.36390 0.88700 0.34760
H11 H 0.32330 0.95260 0.24280
C12 C 0.70849(15) 0.90464(17) 0.12643(12)
C13 C 0.71235(18) 1.03786(18) 0.10369(15)
H12 H 0.63370 1.07170 0.08720
H13 H 0.74200 1.04830 0.04780
H14 H 0.76380 1.07940 0.16140
C14 C 0.82512(16) 0.84285(18) 0.15357(14)
C15 C 0.88926(17) 0.84465(18) 0.08001(16)
C16 C 0.8331(2) 0.8639(2) -0.01981(17)
H15 H 0.75220 0.88190 -0.04220
C17 C 0.8946(3) 0.8569(2) -0.0864(2)
H16 H 0.85560 0.86830 -0.15470
C18 C 1.0117(3) 0.8334(3) -0.0541(3)
H17 H 1.05360 0.82810 -0.10020
C19 C 1.0692(3) 0.8174(3) 0.0444(3)
H18 H 1.15080 0.80320 0.06620
C20 C 1.0089(2) 0.8218(2) 0.1118(2)
H19 H 1.04880 0.80940 0.17970
N1 N 0.63204(16) 0.35906(16) -0.08394(15)
O1 O 0.5912(2) 0.34517(16) -0.17293(14)
O2 O 0.67392(15) 0.27725(14) -0.02681(14)
O3 O 0.47736(14) 1.00845(14) 0.14552(12)
O4 O 0.54772(15) 0.92625(16) 0.29560(11)
O5 O 0.86569(13) 0.79277(16) 0.23255(10)
#END
