
#######################################################################
#
#                 Cambridge Crystallographic Data Centre
#                                CCDC
#
#######################################################################
#
# If this CIF has been generated from an entry in the Cambridge
# Structural Database, then it will include bibliographic, chemical,
# crystal, experimental, refinement or atomic coordinate data resulting
# from the CCDC's data processing and validation procedures.
#
#######################################################################

data_CSD_CIF_VOPVUR
_audit_creation_date 1992-08-18
_audit_creation_method CSD-ConQuest-V1
_database_code_CSD VOPVUR
_chemical_formula_sum 'C16 H14 N2 O4'
_chemical_formula_moiety
;
C16 H14 N2 O4
;
_journal_coden_Cambridge 188
_journal_year 1992
_journal_page_first 311
_journal_name_full 'J.Chem.Soc.,Perkin Trans.2 '
loop_
_publ_author_name
"V.R.Pedireddi"
"J.A.R.P.Sarma"
"G.R.Desiraju"
_chemical_name_systematic
;
r-1,t-3-Dinitro-c-2,t-4-diphenylcyclobutane
;
_chemical_melting_point 458.15
_cell_volume    691.207
_exptl_crystal_density_diffrn 1.43
_diffrn_ambient_temperature 173
#These two values have been output from a single CSD field.
_refine_ls_R_factor_gt 0.048
_refine_ls_wR_factor_gt 0.048
loop_
_citation_database_id_CSD
_citation_special_details
VOPWAY "is a stereoisomer of this entry"
_symmetry_cell_setting monoclinic
_symmetry_space_group_name_H-M 'P 21/n'
_symmetry_Int_Tables_number 14
loop_
_symmetry_equiv_pos_site_id
_symmetry_equiv_pos_as_xyz
1 x,y,z
2 1/2-x,1/2+y,1/2-z
3 -x,-y,-z
4 -1/2+x,-1/2-y,-1/2+z
_cell_length_a 15.081(1)
_cell_length_b 5.659(1)
_cell_length_c 8.207(1)
_cell_angle_alpha 90
_cell_angle_beta 99.30(1)
_cell_angle_gamma 90
_cell_formula_units_Z 2
loop_
_atom_type_symbol
_atom_type_radius_bond
C 0.68
H 0.23
N 0.68
O 0.68
loop_
_atom_site_label
_atom_site_type_symbol
_atom_site_fract_x
_atom_site_fract_y
_atom_site_fract_z
C1 C 0.0611(1) -0.0840(3) 0.0710(2)
C2 C 0.0185(1) 0.1631(3) 0.0673(2)
C3 C 0.1563(1) -0.1041(4) 0.0360(2)
C4 C 0.2069(1) -0.2986(4) 0.0976(2)
C5 C 0.2932(1) -0.3302(4) 0.0649(3)
C6 C 0.3312(1) -0.1645(4) -0.0274(3)
C7 C 0.2816(1) 0.0305(4) -0.0884(3)
C8 C 0.1944(1) 0.0600(4) -0.0586(3)
N1 N -0.0137(1) 0.2371(3) 0.2228(2)
O1 O -0.0266(1) 0.0927(3) 0.3251(2)
O2 O -0.0290(1) 0.4491(3) 0.2321(2)
H1 H 0.0534(14) -0.1598(35) 0.1773(27)
H2 H 0.0562(15) 0.2922(38) 0.0380(26)
H3 H 0.1804(15) -0.4146(38) 0.1646(28)
H4 H 0.3278(16) -0.4722(42) 0.1061(31)
H5 H 0.3883(16) -0.1794(36) -0.0481(26)
H6 H 0.3050(18) 0.1341(44) -0.1526(34)
H7 H 0.1596(18) 0.1812(44) -0.1096(32)
C1B C -0.0611(1) 0.0840(3) -0.0710(2)
C2B C -0.0185(1) -0.1631(3) -0.0673(2)
N1B N 0.0137(1) -0.2371(3) -0.2228(2)
O1B O 0.0266(1) -0.0927(3) -0.3251(2)
O2B O 0.0290(1) -0.4491(3) -0.2321(2)
H2B H -0.0562(15) -0.2922(38) -0.0380(26)
C3B C -0.1563(1) 0.1041(4) -0.0360(2)
C4B C -0.2069(1) 0.2986(4) -0.0976(2)
C5B C -0.2932(1) 0.3302(4) -0.0649(3)
C6B C -0.3312(1) 0.1645(4) 0.0274(3)
C7B C -0.2816(1) -0.0305(4) 0.0884(3)
C8B C -0.1944(1) -0.0600(4) 0.0586(3)
H7B H -0.1596(18) -0.1812(44) 0.1096(32)
H6B H -0.3050(18) -0.1341(44) 0.1526(34)
H5B H -0.3883(16) 0.1794(36) 0.0481(26)
H4B H -0.3278(16) 0.4722(42) -0.1061(31)
H3B H -0.1804(15) 0.4146(38) -0.1646(28)
H1B H -0.0534(14) 0.1598(35) -0.1773(27)
#END
