
#######################################################################
#
#                 Cambridge Crystallographic Data Centre
#                                CCDC
#
#######################################################################
#
# If this CIF has been generated from an entry in the Cambridge
# Structural Database, then it will include bibliographic, chemical,
# crystal, experimental, refinement or atomic coordinate data resulting
# from the CCDC's data processing and validation procedures.
#
#######################################################################

data_CSD_CIF_VOPWAY
_audit_creation_date 1992-08-18
_audit_creation_method CSD-ConQuest-V1
_database_code_CSD VOPWAY
_chemical_formula_sum 'C16 H14 N2 O4'
_chemical_formula_moiety
;
C16 H14 N2 O4
;
_journal_coden_Cambridge 188
_journal_year 1992
_journal_page_first 311
_journal_name_full 'J.Chem.Soc.,Perkin Trans.2 '
loop_
_publ_author_name
"V.R.Pedireddi"
"J.A.R.P.Sarma"
"G.R.Desiraju"
_chemical_name_systematic
;
r-1,c-3-Dinitro-c-2,t-4-diphenylcyclobutane
;
_chemical_melting_point 442.15
_cell_volume   1457.272
_exptl_crystal_density_diffrn 1.36
_diffrn_ambient_temperature 203
#These two values have been output from a single CSD field.
_refine_ls_R_factor_gt 0.044
_refine_ls_wR_factor_gt 0.044
loop_
_citation_database_id_CSD
_citation_special_details
VOPVUR "is a stereoisomer of this entry"
_symmetry_cell_setting orthorhombic
_symmetry_space_group_name_H-M 'P 21 21 21'
_symmetry_Int_Tables_number 19
loop_
_symmetry_equiv_pos_site_id
_symmetry_equiv_pos_as_xyz
1 x,y,z
2 1/2+x,1/2-y,-z
3 -x,1/2+y,1/2-z
4 1/2-x,-y,1/2+z
_cell_length_a 7.049(4)
_cell_length_b 10.191(5)
_cell_length_c 20.286(2)
_cell_angle_alpha 90
_cell_angle_beta 90
_cell_angle_gamma 90
_cell_formula_units_Z 4
loop_
_atom_type_symbol
_atom_type_radius_bond
C 0.68
N 0.68
O 0.68
loop_
_atom_site_label
_atom_site_type_symbol
_atom_site_fract_x
_atom_site_fract_y
_atom_site_fract_z
C1 C 0.1987(8) 0.2482(6) 0.2869(3)
C2 C 0.3350(8) 0.3653(6) 0.2757(3)
C3 C 0.2493(8) 0.3905(6) 0.2051(3)
C4 C 0.0788(8) 0.3098(5) 0.2322(3)
C5 C 0.1137(9) 0.2226(6) 0.3535(3)
C6 C 0.1358(10) 0.0996(7) 0.3823(3)
C7 C 0.0516(12) 0.0719(7) 0.4419(3)
C8 C -0.0552(11) 0.1661(9) 0.4731(3)
C9 C -0.0786(12) 0.2871(8) 0.4445(3)
C10 C 0.0064(11) 0.3160(6) 0.3859(3)
C11 C 0.3562(9) 0.3402(7) 0.1465(3)
C12 C 0.3975(11) 0.4272(7) 0.0971(3)
C13 C 0.4916(12) 0.3861(9) 0.0410(3)
C14 C 0.5462(11) 0.2566(9) 0.0340(3)
C15 C 0.5037(12) 0.1687(7) 0.0826(3)
C16 C 0.4081(11) 0.2094(7) 0.1389(3)
N1 N 0.5426(7) 0.3344(6) 0.2763(3)
N2 N -0.0146(8) 0.2157(6) 0.1849(3)
O1 O 0.6493(6) 0.4259(5) 0.2635(2)
O2 O 0.5949(7) 0.2239(5) 0.2874(3)
O3 O -0.0693(7) 0.2617(5) 0.1331(2)
O4 O -0.0313(7) 0.1023(5) 0.2021(2)
#END
