
#######################################################################
#
#                 Cambridge Crystallographic Data Centre
#                                CCDC
#
#######################################################################
#
# If this CIF has been generated from an entry in the Cambridge
# Structural Database, then it will include bibliographic, chemical,
# crystal, experimental, refinement or atomic coordinate data resulting
# from the CCDC's data processing and validation procedures.
#
#######################################################################

data_CSD_CIF_VOPWEC
_audit_creation_date 1992-09-08
_audit_creation_method CSD-ConQuest-V1
_database_code_CSD VOPWEC
_chemical_formula_sum 'C9 H9 N1 O2'
_chemical_formula_moiety
;
C9 H9 N1 O2
;
_journal_coden_Cambridge 188
_journal_year 1992
_journal_page_first 311
_journal_name_full 'J.Chem.Soc.,Perkin Trans.2 '
loop_
_publ_author_name
"V.R.Pedireddi"
"J.A.R.P.Sarma"
"G.R.Desiraju"
_chemical_name_systematic
;
4-Methyl-\b-nitrostyrene
;
_cell_volume    810.378
_exptl_crystal_density_diffrn 1.34
_diffrn_ambient_temperature 203
_refine_special_details
;
The structure is disordered at the alkenic bridge.

;
#These two values have been output from a single CSD field.
_refine_ls_R_factor_gt 0.074
_refine_ls_wR_factor_gt 0.074
_symmetry_cell_setting orthorhombic
_symmetry_space_group_name_H-M 'P n m a'
_symmetry_Int_Tables_number 62
loop_
_symmetry_equiv_pos_site_id
_symmetry_equiv_pos_as_xyz
1 x,y,z
2 1/2-x,1/2+y,1/2+z
3 x,1/2-y,z
4 1/2-x,-y,1/2+z
5 -x,-y,-z
6 -1/2+x,-1/2-y,-1/2-z
7 -x,-1/2+y,-z
8 -1/2+x,y,-1/2-z
_cell_length_a 16.942(1)
_cell_length_b 9.932(2)
_cell_length_c 4.816(2)
_cell_angle_alpha 90
_cell_angle_beta 90
_cell_angle_gamma 90
_cell_formula_units_Z 4
loop_
_atom_type_symbol
_atom_type_radius_bond
C 0.68
H 0.23
N 0.68
O 0.68
loop_
_atom_site_label
_atom_site_type_symbol
_atom_site_fract_x
_atom_site_fract_y
_atom_site_fract_z
C1 C 0.0966(5) 0.25000 0.5167(18)
C2 C 0.1274(3) 0.3681(9) 0.6226(13)
C3 C 0.1859(3) 0.3682(7) 0.8235(12)
C4 C 0.2163(4) 0.25000 0.9253(15)
C5 C 0.0367(5) 0.297(1) 0.2992(21)
C6 C 0.0036(6) 0.3060(12) 0.1675(22)
C7 C 0.2810(6) 0.25000 1.1365(22)
N1 N -0.0530(4) 0.25000 -0.0492(15)
O1 O -0.0760(2) 0.3571(4) -0.1406(10)
H1 H 0.1058(34) 0.4474(64) 0.535(14)
H2 H 0.2112(26) 0.449(5) 0.867(11)
H3 H 0.2593(46) 0.25000 1.298(19)
H4 H 0.3117(33) 0.1833(65) 1.096(17)
C2B C 0.1274(3) 0.1319(9) 0.6226(13)
C5B C 0.0367(5) 0.203(1) 0.2992(21)
C3B C 0.1859(3) 0.1318(7) 0.8235(12)
C6B C 0.0036(6) 0.1940(12) 0.1675(22)
H4B H 0.3117(33) 0.3167(65) 1.096(17)
O1B O -0.0760(2) 0.1429(4) -0.1406(10)
H1B H 0.1058(34) 0.0526(64) 0.535(14)
H2B H 0.2112(26) 0.051(5) 0.867(11)
#END
