
#######################################################################
#
#                 Cambridge Crystallographic Data Centre
#                                CCDC
#
#######################################################################
#
# If this CIF has been generated from an entry in the Cambridge
# Structural Database, then it will include bibliographic, chemical,
# crystal, experimental, refinement or atomic coordinate data resulting
# from the CCDC's data processing and validation procedures.
#
#######################################################################

data_CSD_CIF_VOPXIH
_audit_creation_date 1992-09-08
_audit_creation_method CSD-ConQuest-V1
_database_code_CSD VOPXIH
_chemical_formula_sum 'C10 H11 N1 O4'
_chemical_formula_moiety
;
C10 H11 N1 O4
;
_journal_coden_Cambridge 188
_journal_year 1992
_journal_page_first 311
_journal_name_full 'J.Chem.Soc.,Perkin Trans.2 '
loop_
_publ_author_name
"V.R.Pedireddi"
"J.A.R.P.Sarma"
"G.R.Desiraju"
_chemical_name_systematic
;
3,4-Dimethoxy-\b-nitrostyrene
;
_cell_volume   2023.614
_exptl_crystal_density_diffrn 1.37
_diffrn_ambient_temperature ?
_diffrn_special_details
;
The study was carried out at room temperature,in the range 283-303K

;
#These two values have been output from a single CSD field.
_refine_ls_R_factor_gt 0.039
_refine_ls_wR_factor_gt 0.039
_symmetry_cell_setting orthorhombic
_symmetry_space_group_name_H-M 'P c a b'
_symmetry_Int_Tables_number 61
loop_
_symmetry_equiv_pos_site_id
_symmetry_equiv_pos_as_xyz
1 x,y,z
2 1/2-x,y,1/2+z
3 1/2+x,1/2-y,z
4 -x,1/2-y,1/2+z
5 -x,-y,-z
6 -1/2+x,-y,-1/2-z
7 -1/2-x,-1/2+y,-z
8 x,-1/2+y,-1/2-z
_cell_length_a 8.443(3)
_cell_length_b 9.541(3)
_cell_length_c 25.121(6)
_cell_angle_alpha 90
_cell_angle_beta 90
_cell_angle_gamma 90
_cell_formula_units_Z 8
loop_
_atom_type_symbol
_atom_type_radius_bond
C 0.68
H 0.23
N 0.68
O 0.68
loop_
_atom_site_label
_atom_site_type_symbol
_atom_site_fract_x
_atom_site_fract_y
_atom_site_fract_z
C1 C 0.5195(3) 0.5875(2) 0.0895(1)
C2 C 0.4861(3) 0.4492(2) 0.1053(1)
C3 C 0.3802(3) 0.4228(3) 0.1456(1)
C4 C 0.3051(3) 0.5354(3) 0.1720(1)
C5 C 0.3360(3) 0.6706(3) 0.1563(1)
C6 C 0.4430(3) 0.6963(3) 0.1153(1)
C7 C 0.6315(3) 0.6194(2) 0.0475(1)
C8 C 0.7107(3) 0.5284(3) 0.0188(1)
C9 C 0.4116(4) 0.1760(3) 0.1380(1)
C10 C 0.1284(5) 0.6079(4) 0.2406(1)
N1 N 0.8205(1) 0.5718(2) -0.0216(1)
O1 O 0.8878(2) 0.4803(2) -0.0476(1)
O2 O 0.8442(2) 0.6972(2) -0.0290(1)
O3 O 0.3397(2) 0.2931(2) 0.1638(1)
O4 O 0.2068(2) 0.4976(2) 0.2122(1)
H1 H 0.5403(25) 0.3718(22) 0.0877(8)
H2 H 0.2844(26) 0.7450(24) 0.1737(8)
H3 H 0.4621(30) 0.7909(28) 0.1047(9)
H4 H 0.6477(25) 0.7169(24) 0.0400(8)
H5 H 0.7047(26) 0.4342(25) 0.0190(9)
H6 H 0.3699(29) 0.0926(28) 0.1546(9)
H7 H 0.5236(37) 0.1788(27) 0.1424(11)
H8 H 0.3912(32) 0.1803(27) 0.0989(12)
H9 H 0.0739(36) 0.5576(32) 0.2669(12)
H10 H 0.0583(37) 0.6644(33) 0.2146(12)
H11 H 0.2013(33) 0.6661(29) 0.2579(11)
#END
