
#######################################################################
#
#                 Cambridge Crystallographic Data Centre
#                                CCDC
#
#######################################################################
#
# If this CIF has been generated from an entry in the Cambridge
# Structural Database, then it will include bibliographic, chemical,
# crystal, experimental, refinement or atomic coordinate data resulting
# from the CCDC's data processing and validation procedures.
#
#######################################################################

data_CSD_CIF_VOPXAZ01
_audit_creation_date 2010-04-23
_audit_creation_method CSD-ConQuest-V1
_database_code_CSD VOPXAZ01
_database_code_depnum_ccdc_archive 'CCDC 701902'
_chemical_formula_sum 'C9 H9 N1 O3'
_chemical_formula_moiety
;
C9 H9 N1 O3
;
_journal_coden_Cambridge 1350
_journal_volume 11
_journal_year 2009
_journal_page_first 638
_journal_name_full 'CrystEngComm '
loop_
_publ_author_name
"J.Harada"
"M.Harakawa"
"K.Ogawa"
_chemical_name_systematic
;
4-Methoxy-\b-nitrostyrene
;
_chemical_name_common
;
1-Methoxy-4-(2-nitrovinyl)benzene
;
_chemical_melting_point 362
_cell_volume    446.148
_exptl_crystal_colour 'yellow'
_exptl_crystal_density_diffrn 1.334
_exptl_crystal_description 'block'
_exptl_crystal_preparation 'ethanol'
_diffrn_ambient_temperature 300
_refine_special_details
;
The compound is dynamically disordered, adopting two conformations with 
differing orientations. Whole molecule disorder has been modelled, with the 
conformations having occupancies 0.85:0.15.
;
#These two values have been output from a single CSD field.
_refine_ls_R_factor_gt 0.06
_refine_ls_wR_factor_gt 0.06
_symmetry_cell_setting triclinic
_symmetry_space_group_name_H-M 'P -1'
_symmetry_Int_Tables_number 2
loop_
_symmetry_equiv_pos_site_id
_symmetry_equiv_pos_as_xyz
1 x,y,z
2 -x,-y,-z
_cell_length_a 5.8529(6)
_cell_length_b 8.6855(8)
_cell_length_c 9.0724(9)
_cell_angle_alpha 103.447(2)
_cell_angle_beta 90.696(2)
_cell_angle_gamma 95.572(2)
_cell_formula_units_Z 2
loop_
_atom_type_symbol
_atom_type_radius_bond
C 0.68
H 0.23
N 0.68
O 0.68
loop_
_atom_site_label
_atom_site_type_symbol
_atom_site_fract_x
_atom_site_fract_y
_atom_site_fract_z
N1 N 0.3231(4) 0.4019(4) 0.6261(3)
O1 O 0.4970(4) 0.3760(3) 0.6850(2)
O2 O 0.2694(4) 0.3388(3) 0.4941(2)
O3 O -0.3272(2) 1.00345(18) 1.21624(16)
C1 C 0.0698(3) 0.6893(2) 0.94514(19)
C2 C 0.1381(4) 0.7539(3) 1.0946(2)
H1 H 0.27300 0.72650 1.13240
C3 C 0.0091(4) 0.8593(3) 1.1898(2)
H2 H 0.05720 0.90150 1.29050
C4 C -0.1907(3) 0.9011(2) 1.1341(2)
C5 C -0.2616(3) 0.8372(2) 0.9838(2)
H3 H -0.39600 0.86520 0.94600
C6 C -0.1332(3) 0.7327(2) 0.8911(2)
H4 H -0.18230 0.69010 0.79070
C7 C 0.2122(3) 0.5806(2) 0.8506(2)
H5 H 0.34440 0.55850 0.89620
C8 C 0.1711(3) 0.5106(2) 0.7067(2)
H6 H 0.04260 0.53160 0.65630
C9 C -0.2650(5) 1.0719(3) 1.3734(3)
H7 H -0.26040 0.98860 1.42650
H8 H -0.37650 1.14150 1.41740
H9 H -0.11640 1.13130 1.38130
N2? N 0.345(3) 0.421(4) 0.625(2)
O4? O 0.543(2) 0.3846(18) 0.6323(15)
O5? O 0.202(2) 0.3583(17) 0.5226(17)
O6? O -0.1367(16) 0.9900(11) 1.3312(9)
C10? C 0.025(3) 0.6908(18) 0.9263(14)
C11? C 0.163(2) 0.7198(17) 1.0574(19)
H10? H 0.29840 0.67180 1.05670
C12? C 0.099(2) 0.8204(16) 1.1897(13)
H11? H 0.19120 0.83980 1.27750
C13? C -0.104(3) 0.8920(13) 1.1908(12)
C14? C -0.2420(19) 0.8631(16) 1.0597(17)
H12? H -0.37750 0.91100 1.06040
C15? C -0.178(3) 0.762(2) 0.9274(12)
H13? H -0.27030 0.74310 0.83960
C16? C 0.099(3) 0.5782(16) 0.7943(15)
H14? H -0.00590 0.54840 0.71250
C17? C 0.294(2) 0.5125(18) 0.7739(17)
H15? H 0.39800 0.52470 0.85500
C18? C -0.342(3) 1.065(3) 1.332(3)
H16? H -0.30570 1.17840 1.36070
H17? H -0.44430 1.03190 1.40300
H18? H -0.41390 1.03530 1.23230
#END
