
#######################################################################
#
#                 Cambridge Crystallographic Data Centre
#                                CCDC
#
#######################################################################
#
# If this CIF has been generated from an entry in the Cambridge
# Structural Database, then it will include bibliographic, chemical,
# crystal, experimental, refinement or atomic coordinate data resulting
# from the CCDC's data processing and validation procedures.
#
#######################################################################

data_CSD_CIF_VOPXAZ
_audit_creation_date 1992-09-08
_audit_creation_method CSD-ConQuest-V1
_database_code_CSD VOPXAZ
_chemical_formula_sum 'C9 H9 N1 O3'
_chemical_formula_moiety
;
C9 H9 N1 O3
;
_journal_coden_Cambridge 188
_journal_year 1992
_journal_page_first 311
_journal_name_full 'J.Chem.Soc.,Perkin Trans.2 '
loop_
_publ_author_name
"V.R.Pedireddi"
"J.A.R.P.Sarma"
"G.R.Desiraju"
_chemical_name_systematic
;
4-Methoxy-\b-nitrostyrene
;
_cell_volume    444.712
_exptl_crystal_density_diffrn 1.34
_diffrn_ambient_temperature ?
_diffrn_special_details
;
The study was carried out at room temperature,in the range 283-303K

;
#These two values have been output from a single CSD field.
_refine_ls_R_factor_gt 0.09
_refine_ls_wR_factor_gt 0.09
_symmetry_cell_setting triclinic
_symmetry_space_group_name_H-M 'P -1'
_symmetry_Int_Tables_number 2
loop_
_symmetry_equiv_pos_site_id
_symmetry_equiv_pos_as_xyz
1 x,y,z
2 -x,-y,-z
_cell_length_a 5.846(1)
_cell_length_b 8.667(6)
_cell_length_c 9.0693(7)
_cell_angle_alpha 103.34(6)
_cell_angle_beta 90.65(1)
_cell_angle_gamma 95.60(1)
_cell_formula_units_Z 2
loop_
_atom_type_symbol
_atom_type_radius_bond
C 0.68
N 0.68
O 0.68
loop_
_atom_site_label
_atom_site_type_symbol
_atom_site_fract_x
_atom_site_fract_y
_atom_site_fract_z
C1 C -0.0663(6) 0.3105(4) 0.0560(4)
C2 C 0.1380(6) 0.2660(5) 0.1062(4)
C3 C 0.2611(7) 0.1639(5) 0.0137(5)
C4 C 0.1905(6) 0.1003(4) -0.1338(5)
C5 C -0.0105(7) 0.1418(5) -0.1910(4)
C6 C -0.1405(7) 0.2482(5) -0.0931(4)
C7 C -0.2139(7) 0.4201(5) 0.1517(4)
C8 C -0.1725(8) 0.4888(5) 0.2914(5)
C9 C 0.2698(10) -0.0706(6) -0.3711(5)
N1 N -0.3277(6) 0.5958(4) 0.3741(4)
O1 O -0.2627(7) 0.6580(5) 0.5047(4)
O2 O -0.5006(4) 0.6234(4) 0.3191(4)
O3 O 0.3290(5) -0.0041(4) -0.2170(3)
#END
