
#######################################################################
#
#                 Cambridge Crystallographic Data Centre
#                                CCDC
#
#######################################################################
#
# If this CIF has been generated from an entry in the Cambridge
# Structural Database, then it will include bibliographic, chemical,
# crystal, experimental, refinement or atomic coordinate data resulting
# from the CCDC's data processing and validation procedures.
#
#######################################################################

data_CSD_CIF_VOPZOP
_audit_creation_date 1992-09-08
_audit_creation_method CSD-ConQuest-V1
_database_code_CSD VOPZOP
_chemical_formula_sum 'C10 H10 N2 O2'
_chemical_formula_moiety
;
C10 H10 N2 O2
;
_journal_coden_Cambridge 614
_journal_volume 9
_journal_year 1989
_journal_page_first 295
_journal_name_full 'Revista Cubana de Fisica '
loop_
_publ_author_name
"O.Au"
"V.A.Tafeenko"
"L.A.Aslanov"
_chemical_name_systematic
;
2,8-Dimethyl-1-nitroindolizine
;
_cell_volume   1838.800
_diffrn_ambient_temperature ?
_diffrn_special_details
;
The study was carried out at room temperature,in the range 283-303K

;
#These two values have been output from a single CSD field.
_refine_ls_R_factor_gt 0.067
_refine_ls_wR_factor_gt 0.067
_symmetry_cell_setting monoclinic
_symmetry_space_group_name_H-M 'P 21/n'
_symmetry_Int_Tables_number 14
loop_
_symmetry_equiv_pos_site_id
_symmetry_equiv_pos_as_xyz
1 x,y,z
2 1/2-x,1/2+y,1/2-z
3 -x,-y,-z
4 -1/2+x,-1/2-y,-1/2+z
_cell_length_a 7.445(2)
_cell_length_b 33.383(5)
_cell_length_c 7.755(2)
_cell_angle_alpha 90
_cell_angle_beta 107.44(3)
_cell_angle_gamma 90
_cell_formula_units_Z 8
loop_
_atom_type_symbol
_atom_type_radius_bond
C 0.68
H 0.23
N 0.68
O 0.68
loop_
_atom_site_label
_atom_site_type_symbol
_atom_site_fract_x
_atom_site_fract_y
_atom_site_fract_z
O1 O 1.0772(6) 0.1920(1) 1.0527(6)
O2 O 0.5890(6) -0.0603(1) 0.9039(5)
O3 O 1.018(1) 0.1426(2) 1.1910(7)
O4 O 0.525(1) -0.1183(2) 0.8047(6)
N1 N 1.0180(6) 0.1583(1) 1.0495(6)
N2 N 0.5688(6) -0.0955(1) 0.9306(5)
N3 N 0.6340(5) -0.1482(1) 1.3490(4)
N4 N 0.7920(5) 0.0948(1) 0.6718(5)
C1 C 0.6047(6) -0.1104(1) 1.1076(5)
C2 C 0.9335(6) 0.1388(1) 0.8845(6)
C3 C 0.6872(6) -0.0866(1) 1.2628(6)
C4 C 0.8976(6) 0.1579(1) 0.7144(6)
C5 C 0.7032(7) -0.1104(1) 1.4063(6)
C6 C 0.8115(7) 0.1307(2) 0.5893(6)
C7 C 0.6273(7) -0.1803(2) 1.4579(6)
C8 C 0.7129(7) 0.0601(2) 0.5873(6)
C9 C 0.5566(7) -0.2151(1) 1.3819(6)
C10 C 0.7080(7) 0.0278(1) 0.6881(7)
C11 C 0.4888(6) -0.2182(1) 1.1937(6)
C12 C 0.7815(7) 0.0300(1) 0.8764(6)
C13 C 0.4942(6) -0.1870(1) 1.0806(6)
C14 C 0.8621(6) 0.0639(1) 0.9651(6)
C15 C 0.5712(5) -0.1496(1) 1.1603(5)
C16 C 0.8675(6) 0.0987(1) 0.8594(6)
C17 C 0.4218(9) -0.1941(2) 0.8812(7)
C18 C 0.9464(9) 0.0623(2) 1.1682(7)
C19 C 0.7541(7) -0.0438(1) 1.2757(7)
C20 C 0.9418(8) 0.2002(2) 0.6723(8)
H1 H 0.758(5) 0.131(1) 0.465(1)
H2 H 0.667(6) 0.060(1) 0.459(6)
H3 H 0.653(6) 0.003(1) 0.632(5)
H4 H 0.777(5) 0.007(1) 0.942(5)
H5 H 0.938(8) 0.033(2) 1.211(7)
H6 H 1.084(7) 0.067(2) 1.201(7)
H7 H 0.885(7) 0.078(2) 1.218(7)
H8 H 1.073(7) 0.208(2) 0.724(7)
H9 H 0.868(8) 0.222(2) 0.735(8)
H10 H 0.910(7) 0.205(2) 0.550(7)
H11 H 0.641(7) -0.024(1) 1.214(6)
H12 H 0.850(7) -0.039(2) 1.208(7)
H13 H 0.810(7) -0.035(2) 1.401(7)
H14 H 0.745(6) -0.104(1) 1.529(6)
H15 H 0.669(6) -0.177(1) 1.580(5)
H16 H 0.553(6) -0.237(1) 1.460(6)
H17 H 0.432(6) -0.243(1) 1.135(5)
H18 H 0.341(5) -0.178(1) 0.839(4)
H19 H 0.517(7) -0.191(2) 0.807(7)
H20 H 0.353(8) -0.223(2) 0.853(8)
#END
