
#######################################################################
#
#                 Cambridge Crystallographic Data Centre
#                                CCDC
#
#######################################################################
#
# If this CIF has been generated from an entry in the Cambridge
# Structural Database, then it will include bibliographic, chemical,
# crystal, experimental, refinement or atomic coordinate data resulting
# from the CCDC's data processing and validation procedures.
#
#######################################################################

data_CSD_CIF_VOQJER
_audit_creation_date 2009-05-28
_audit_creation_method CSD-ConQuest-V1
_database_code_CSD VOQJER
_database_code_depnum_ccdc_archive 'CCDC 726427'
_chemical_formula_sum 'C8 H10 N2 O2'
_chemical_formula_moiety
;
C8 H10 N2 O2
;
_journal_coeditor_code "IUCr HK2644"
_journal_coden_Cambridge 1370
_journal_volume 65
_journal_year 2009
_journal_page_first o827
_journal_name_full 'Acta Crystallogr.,Sect.E:Struct.Rep.Online '
loop_
_publ_author_name
"Yan Chen"
"Zheng Fang"
"Ping Wei"
_chemical_name_systematic
;
2-Ethyl-5-nitroaniline
;
_cell_volume   1621.949
_exptl_crystal_colour 'colorless'
_exptl_crystal_density_diffrn 1.361
_exptl_crystal_description 'block'
_exptl_crystal_preparation 'methanol'
_diffrn_ambient_temperature 298
#These two values have been output from a single CSD field.
_refine_ls_R_factor_gt 0.0548
_refine_ls_wR_factor_gt 0.0548
_symmetry_cell_setting monoclinic
_symmetry_space_group_name_H-M 'C 2/c'
_symmetry_Int_Tables_number 15
loop_
_symmetry_equiv_pos_site_id
_symmetry_equiv_pos_as_xyz
1 x,y,z
2 -x,y,1/2-z
3 1/2+x,1/2+y,z
4 1/2-x,1/2+y,1/2-z
5 -x,-y,-z
6 x,-y,-1/2+z
7 -1/2-x,-1/2-y,-z
8 -1/2+x,-1/2-y,-1/2+z
_cell_length_a 23.037(5)
_cell_length_b 3.9540(8)
_cell_length_c 18.393(4)
_cell_angle_alpha 90
_cell_angle_beta 104.51(3)
_cell_angle_gamma 90
_cell_formula_units_Z 8
loop_
_atom_type_symbol
_atom_type_radius_bond
C 0.68
H 0.23
N 0.68
O 0.68
loop_
_atom_site_label
_atom_site_type_symbol
_atom_site_fract_x
_atom_site_fract_y
_atom_site_fract_z
O1 O 0.18034(10) 0.6924(7) -0.09151(11)
O2 O 0.08462(10) 0.6656(7) -0.12713(11)
N1 N 0.13189(12) 0.6134(7) -0.08113(12)
N2 N 0.23320(8) 0.2602(7) 0.17155(11)
H1 H 0.26630 0.33900 0.16510
H2 H 0.23220 0.17040 0.21380
C1 C 0.06424(11) -0.1027(8) 0.20919(14)
H3 H 0.06870 -0.19490 0.25860
H4 H 0.04790 -0.27210 0.17230
H5 H 0.03770 0.08810 0.20250
C2 C 0.1250(1) 0.0091(7) 0.19996(12)
H6 H 0.14130 0.17380 0.23880
H7 H 0.15150 -0.18520 0.20870
C3 C 0.12627(10) 0.1609(6) 0.12529(12)
C4 C 0.07514(10) 0.1952(7) 0.06693(13)
H8 H 0.03880 0.11740 0.07380
C5 C 0.07620(11) 0.3397(7) -0.00061(13)
H9 H 0.04130 0.36080 -0.03890
C6 C 0.13008(10) 0.4519(7) -0.01007(12)
C7 C 0.18252(10) 0.4228(7) 0.04537(13)
H10 H 0.21850 0.49930 0.03720
C8 C 0.18102(10) 0.2780(7) 0.11353(12)
#END
