
#######################################################################
#
#                 Cambridge Crystallographic Data Centre
#                                CCDC
#
#######################################################################
#
# If this CIF has been generated from an entry in the Cambridge
# Structural Database, then it will include bibliographic, chemical,
# crystal, experimental, refinement or atomic coordinate data resulting
# from the CCDC's data processing and validation procedures.
#
#######################################################################

data_CSD_CIF_VOQVEE
_audit_creation_date 2014-08-22
_audit_creation_method CSD-ConQuest-V1
_database_code_CSD VOQVEE
_database_code_depnum_ccdc_archive 'CCDC 847336'
_chemical_formula_sum 'C4 H3 N7 O8'
_chemical_formula_moiety
;
C4 H3 N7 O8
;
_journal_coden_Cambridge 4
_journal_volume 133
_journal_year 2011
_journal_page_first 6464
_journal_name_full 'J.Am.Chem.Soc. '
loop_
_publ_author_name
"V.Thottempudi"
"Haixiang Gao"
"J.M.Shreeve"
_chemical_name_systematic
;
1-Methyl-5-nitro-3-(trinitromethyl)-1H-1,2,4-triazole
;
_cell_volume    985.082
_exptl_crystal_colour 'colorless'
_exptl_crystal_density_diffrn 1.869
_exptl_crystal_description 'plate'
_diffrn_ambient_temperature 100
#These two values have been output from a single CSD field.
_refine_ls_R_factor_gt 0.026
_refine_ls_wR_factor_gt 0.026
_symmetry_cell_setting orthorhombic
_symmetry_space_group_name_H-M 'P n a 21'
_symmetry_Int_Tables_number 33
loop_
_symmetry_equiv_pos_site_id
_symmetry_equiv_pos_as_xyz
1 x,y,z
2 -x,-y,1/2+z
3 1/2-x,1/2+y,1/2+z
4 1/2+x,1/2-y,z
_cell_length_a 11.7035(14)
_cell_length_b 6.2042(8)
_cell_length_c 13.5666(17)
_cell_angle_alpha 90
_cell_angle_beta 90
_cell_angle_gamma 90
_cell_formula_units_Z 4
loop_
_atom_type_symbol
_atom_type_radius_bond
C 0.68
H 0.23
N 0.68
O 0.68
loop_
_atom_site_label
_atom_site_type_symbol
_atom_site_fract_x
_atom_site_fract_y
_atom_site_fract_z
N1 N 0.21233(9) 0.91607(17) 0.28802(8)
N2 N 0.16992(9) 1.05127(17) 0.21934(8)
C1 C 0.07889(10) 0.94386(18) 0.18727(9)
N3 N 0.05877(8) 0.75030(16) 0.22959(8)
C2 C 0.14454(10) 0.74049(19) 0.2916(1)
C3 C 0.31339(11) 0.9810(2) 0.34489(11)
H1 H 0.37410 0.87410 0.33590
H2 H 0.29340 0.99040 0.41490
H3 H 0.34000 1.12200 0.32180
C4 C -0.0001(1) 1.03033(18) 0.11088(10)
N4 N 0.00546(9) 1.27585(17) 0.10015(8)
O1 O -0.08170(8) 1.37761(15) 0.11295(8)
O2 O 0.09924(8) 1.34125(15) 0.07638(9)
N5 N 0.02346(9) 0.94359(17) 0.00669(8)
O3 O -0.01360(9) 1.05116(17) -0.06141(8)
O4 O 0.07568(8) 0.77605(15) 0.00230(7)
N6 N -0.12287(9) 0.96528(17) 0.13695(9)
O5 O -0.17771(9) 0.86902(17) 0.07547(9)
O6 O -0.15196(8) 1.01465(15) 0.22009(8)
N7 N 0.16083(9) 0.56295(17) 0.36030(8)
O7 O 0.09296(9) 0.41472(16) 0.35515(9)
O8 O 0.24059(9) 0.57750(17) 0.41801(8)
#END
