
#######################################################################
#
#                 Cambridge Crystallographic Data Centre
#                                CCDC
#
#######################################################################
#
# If this CIF has been generated from an entry in the Cambridge
# Structural Database, then it will include bibliographic, chemical,
# crystal, experimental, refinement or atomic coordinate data resulting
# from the CCDC's data processing and validation procedures.
#
#######################################################################

data_CSD_CIF_VORDOX
_audit_creation_date 2014-08-22
_audit_creation_method CSD-ConQuest-V1
_database_code_CSD VORDOX
_database_code_depnum_ccdc_archive 'CCDC 989529'
_chemical_formula_sum 'C30 H24 N2 O6'
_chemical_formula_moiety
;
C30 H24 N2 O6
;
_journal_coden_Cambridge 16
_journal_volume 70
_journal_year 2014
_journal_page_first 5594
_journal_name_full 'Tetrahedron '
loop_
_publ_author_name
"S.Muthusamy"
"R.Ramkumar"
_chemical_name_systematic
;
1'-benzyl-2-(4-methoxyphenyl)-5-(4-nitrophenyl)spiro[1,3-dioxolane-4,3'-indol]
-2'(1'H)-one
;
_cell_volume   1241.075
_exptl_crystal_colour 'colorless'
_exptl_crystal_density_diffrn 1.361
_exptl_special_details
;
Study temperature given as 293 K and 273 K in the CIF

;
_exptl_crystal_description 'blocks'
_diffrn_ambient_temperature 273
#These two values have been output from a single CSD field.
_refine_ls_R_factor_gt 0.0603
_refine_ls_wR_factor_gt 0.0603
loop_
_citation_database_id_CSD
_citation_special_details
USAGEB "is a stereoisomer of this entry"
_symmetry_cell_setting triclinic
_symmetry_space_group_name_H-M 'P -1'
_symmetry_Int_Tables_number 2
loop_
_symmetry_equiv_pos_site_id
_symmetry_equiv_pos_as_xyz
1 x,y,z
2 -x,-y,-z
_cell_length_a 8.936(4)
_cell_length_b 11.501(5)
_cell_length_c 13.126(6)
_cell_angle_alpha 82.198(8)
_cell_angle_beta 79.022(8)
_cell_angle_gamma 70.037(7)
_cell_formula_units_Z 2
loop_
_atom_type_symbol
_atom_type_radius_bond
C 0.68
H 0.23
N 0.68
O 0.68
loop_
_atom_site_label
_atom_site_type_symbol
_atom_site_fract_x
_atom_site_fract_y
_atom_site_fract_z
O1 O -0.05714(17) 0.62839(12) 0.12514(10)
O2 O -0.12091(16) 0.64252(12) 0.29872(10)
N1 N 0.02709(18) 0.35416(14) 0.41579(12)
O3 O -0.21445(17) 0.41196(15) 0.35464(12)
C1 C 0.1408(2) 0.49488(17) 0.32204(14)
N2 N 0.5588(2) 0.19684(18) -0.06242(15)
C2 C -0.0172(2) 0.51819(17) 0.28533(14)
C3 C 0.1375(2) 0.42486(17) 0.10894(14)
C4 C 0.1603(2) 0.39759(17) 0.39887(14)
C5 C -0.0163(2) 0.50387(17) 0.16820(14)
H1 H -0.10300 0.47160 0.16380
C6 C 0.4129(2) 0.27565(18) -0.00165(15)
C7 C 0.2922(2) 0.3578(2) 0.45059(16)
H2 H 0.30530 0.29220 0.50170
O4 O 0.5996(2) 0.08714(16) -0.04484(16)
C8 C 0.1742(3) 0.29718(19) 0.11914(16)
H3 H 0.10420 0.26190 0.16350
C9 C 0.2413(3) 0.47661(18) 0.04142(16)
H4 H 0.21780 0.56230 0.03390
C10 C -0.0848(2) 0.42352(18) 0.35570(15)
C11 C 0.3848(3) 0.5173(2) 0.34774(18)
H5 H 0.46180 0.55740 0.33090
C12 C 0.2516(2) 0.55626(19) 0.29683(16)
H6 H 0.23780 0.62270 0.24650
C13 C 0.3131(3) 0.22135(19) 0.06454(16)
H7 H 0.33820 0.13550 0.07250
C14 C 0.1126(2) 0.12774(19) 0.45971(16)
C15 C 0.3790(3) 0.40189(19) -0.01468(16)
H8 H 0.44800 0.43660 -0.06070
C16 C 0.0063(3) 0.25386(18) 0.49177(15)
H9 H -0.10530 0.25690 0.50200
H10 H 0.02970 0.26650 0.55780
C17 C -0.1898(3) 0.83108(19) 0.18681(15)
C18 C 0.4041(3) 0.4198(2) 0.42300(18)
H11 H 0.49440 0.39490 0.45610
C19 C -0.3346(3) 0.9194(2) 0.21928(18)
H12 H -0.42440 0.89530 0.24680
C20 C -0.3478(3) 1.0442(2) 0.21133(19)
H13 H -0.44550 1.10310 0.23460
O5 O -0.2176(3) 1.20147(18) 0.15598(17)
O6 O 0.6334(3) 0.2453(2) -0.1295(2)
C21 C 0.0985(3) 0.0823(2) 0.37106(19)
H14 H 0.02340 0.13080 0.32920
C22 C -0.0598(3) 0.8695(2) 0.1449(2)
H15 H 0.03880 0.81110 0.12250
C23 C -0.2172(4) 1.0801(2) 0.16929(19)
C24 C 0.2241(3) 0.0525(2) 0.5203(2)
H16 H 0.23520 0.08150 0.58030
C25 C 0.1957(4) -0.0353(3) 0.3443(2)
H17 H 0.18680 -0.06490 0.28400
C26 C -0.0736(4) 0.9926(2) 0.1358(2)
H18 H 0.01530 1.01700 0.10650
C27 C 0.3188(4) -0.0642(3) 0.4939(3)
H19 H 0.39290 -0.11360 0.53610
C28 C -0.3536(4) 1.2908(2) 0.2040(3)
H20 H -0.44740 1.29210 0.17780
H21 H -0.33980 1.37090 0.18930
H22 H -0.36670 1.27070 0.27790
C29 C 0.3049(4) -0.1081(3) 0.4063(3)
H23 H 0.36950 -0.18730 0.38850
C30 C -0.1757(2) 0.69702(19) 0.20154(16)
H24 H -0.27990 0.68740 0.19970
#END
