
#######################################################################
#
#                 Cambridge Crystallographic Data Centre
#                                CCDC
#
#######################################################################
#
# If this CIF has been generated from an entry in the Cambridge
# Structural Database, then it will include bibliographic, chemical,
# crystal, experimental, refinement or atomic coordinate data resulting
# from the CCDC's data processing and validation procedures.
#
#######################################################################

data_CSD_CIF_VORDAH
_audit_creation_date 1992-09-08
_audit_creation_method CSD-ConQuest-V1
_database_code_CSD VORDAH
_chemical_formula_sum 'C18 H20 N2 O6'
_chemical_formula_moiety
;
C18 H20 N2 O6
;
_journal_coden_Cambridge 1090
_journal_volume 2
_journal_year 1991
_journal_page_first 1209
_journal_name_full 'Tetrahedron:Asymm. '
loop_
_publ_author_name
"A.Defoin"
"J.Pires"
"I.Tissot"
"T.Tschamber"
"D.Bur"
"M.Zehnder"
"J.Streith"
_chemical_name_systematic
;
(6R)-2-((R)-2-Hydroxy-2-phenylacetyl)-6-((S)-5-methoxycarbonyl-2-oxopyrrolidin
yl)-3,6-dihydro-2H-1,2-oxazine
;
_chemical_melting_point 417.15
_cell_volume   1727.971
_exptl_crystal_colour 'colorless'
_exptl_crystal_density_diffrn 1.386
_exptl_special_details
;
The space group is P22121 not P21212

;
_diffrn_ambient_temperature ?
_diffrn_special_details
;
The study was carried out at room temperature,in the range 283-303K

;
#These two values have been output from a single CSD field.
_refine_ls_R_factor_gt 0.065
_refine_ls_wR_factor_gt 0.065
_symmetry_cell_setting orthorhombic
_symmetry_space_group_name_H-M 'P 2 21 21'
_symmetry_Int_Tables_number 18
loop_
_symmetry_equiv_pos_site_id
_symmetry_equiv_pos_as_xyz
1 x,y,z
2 x,-y,-z
3 -x,1/2+y,1/2-z
4 -x,1/2-y,1/2+z
_cell_length_a 7.678(5)
_cell_length_b 12.682(3)
_cell_length_c 17.746(6)
_cell_angle_alpha 90
_cell_angle_beta 90
_cell_angle_gamma 90
_cell_formula_units_Z 4
loop_
_atom_type_symbol
_atom_type_radius_bond
C 0.68
N 0.68
O 0.68
loop_
_atom_site_label
_atom_site_type_symbol
_atom_site_fract_x
_atom_site_fract_y
_atom_site_fract_z
C1 C 0.1695(8) 0.2406(4) -0.022(3)
C2 C 0.3197(9) 0.1848(5) -0.0130(4)
C3 C 0.4652(11) 0.2318(7) -0.0448(4)
C4 C 0.4560(12) 0.3346(7) -0.0664(1)
C5 C 0.3028(13) 0.3896(6) -0.0579(4)
C6 C 0.1603(10) 0.3442(5) -0.0253(4)
C7 C 0.0091(8) 0.1905(4) 0.0336(3)
O1 O -0.0883(6) 0.1299(3) -0.0179(2)
C8 C 0.0618(8) 0.1233(5) 0.1010(3)
O2 O 0.0749(6) 0.0268(3) 0.0983(2)
N1 N 0.0924(7) 0.1735(4) 0.1657(2)
C9 C 0.1647(9) 0.1253(5) 0.2324(3)
C10 C 0.1319(9) 0.1936(5) 0.2991(3)
C11 C 0.0636(8) 0.2878(5) 0.2930(3)
C12 C 0.0190(8) 0.3341(5) 0.2181(3)
O3 O 0.1189(5) 0.2829(3) 0.1602(2)
N2 N -0.1644(7) 0.3318(4) 0.2039(3)
C13 C -0.2405(9) 0.4024(5) 0.1549(4)
O4 O -0.1590(8) 0.4641(4) 0.1177(3)
C14 C -0.4346(10) 0.3886(6) 0.1609(5)
C15 C -0.4605(9) 0.3281(6) 0.2323(5)
C16 C -0.2906(8) 0.2670(4) 0.2449(3)
C17 C -0.3064(9) 0.1553(5) 0.2153(4)
O5 O -0.3006(10) 0.0795(4) 0.2536(3)
O6 O -0.3349(5) 0.1503(3) 0.1425(2)
C18 C -0.3673(10) 0.0478(5) 0.1110(4)
#END
