
#######################################################################
#
#                 Cambridge Crystallographic Data Centre
#                                CCDC
#
#######################################################################
#
# If this CIF has been generated from an entry in the Cambridge
# Structural Database, then it will include bibliographic, chemical,
# crystal, experimental, refinement or atomic coordinate data resulting
# from the CCDC's data processing and validation procedures.
#
#######################################################################

data_CSD_CIF_VORHUG
_audit_creation_date 2009-05-27
_audit_creation_method CSD-ConQuest-V1
_database_code_CSD VORHUG
_database_code_depnum_ccdc_archive 'CCDC 730109'
_chemical_formula_sum 'C17 H20 N2 O6'
_chemical_formula_moiety
;
C17 H20 N2 O6
;
_journal_coeditor_code "IUCr GA3120"
_journal_coden_Cambridge 591
_journal_volume 65
_journal_year 2009
_journal_page_first o171
_journal_name_full 'Acta Crystallogr.,Sect.C:Cryst.Struct.Commun. '
loop_
_publ_author_name
"O.Vallat"
"A.-M.Buciumas"
"R.Neier"
"H.Stoeckli-Evans"
_chemical_name_systematic
;
rac-(1'R*,2R*)-t-Butyl 
2-(1'-hydroxyethyl)-3-(2-nitrophenyl)-5-oxo-2,5-dihydro-1H-pyrrole-1-carboxyla
te
;
_cell_volume   7845.033
_exptl_crystal_colour 'pale violet'
_exptl_crystal_density_diffrn 1.327
_exptl_crystal_description 'block'
_exptl_crystal_preparation 'ether/hexane'
_diffrn_ambient_temperature 173
#These two values have been output from a single CSD field.
_refine_ls_R_factor_gt 0.0386
_refine_ls_wR_factor_gt 0.0386
_symmetry_cell_setting rhombohedral
_symmetry_space_group_name_H-M 'R -3'
_symmetry_Int_Tables_number 148
loop_
_symmetry_equiv_pos_site_id
_symmetry_equiv_pos_as_xyz
1 x,y,z
2 -y,x-y,z
3 -x+y,-x,z
4 1/3+x,2/3+y,2/3+z
5 2/3+x,1/3+y,1/3+z
6 2/3-y,1/3+x-y,1/3+z
7 2/3-x+y,1/3-x,1/3+z
8 1/3-y,2/3+x-y,2/3+z
9 1/3-x+y,2/3-x,2/3+z
10 -x,-y,-z
11 y,-x+y,-z
12 x-y,x,-z
13 -1/3-x,-2/3-y,-2/3-z
14 -2/3-x,-1/3-y,-1/3-z
15 -2/3+y,-1/3-x+y,-1/3-z
16 -2/3+x-y,-1/3+x,-1/3-z
17 -1/3+y,-2/3-x+y,-2/3-z
18 -1/3+x-y,-2/3+x,-2/3-z
_cell_length_a 21.1117(8)
_cell_length_b 21.1117(8)
_cell_length_c 20.3244(9)
_cell_angle_alpha 90
_cell_angle_beta 90
_cell_angle_gamma 120
_cell_formula_units_Z 18
loop_
_atom_type_symbol
_atom_type_radius_bond
C 0.68
H 0.23
N 0.68
O 0.68
loop_
_atom_site_label
_atom_site_type_symbol
_atom_site_fract_x
_atom_site_fract_y
_atom_site_fract_z
O1 O 0.29424(5) 0.41562(5) 0.00122(5)
O2 O 0.21212(5) 0.28894(5) 0.07457(5)
O3 O 0.25771(5) 0.21244(4) 0.06812(4)
O4 O 0.41816(5) 0.23954(4) -0.06199(5)
O5 O 0.50360(5) 0.38580(5) 0.09835(4)
O6 O 0.56788(6) 0.33232(5) 0.09317(5)
N1 N 0.31770(5) 0.32006(5) 0.01879(5)
N2 N 0.54177(5) 0.36699(5) 0.06844(4)
C1 C 0.33427(6) 0.39007(6) -0.00134(5)
C2 C 0.40944(6) 0.42536(5) -0.02579(5)
C3 C 0.43615(5) 0.38024(5) -0.02026(5)
C4 C 0.37748(5) 0.30600(5) 0.00296(6)
C5 C 0.25675(6) 0.27380(6) 0.05644(6)
C6 C 0.20133(6) 0.15371(6) 0.10954(6)
C7 C 0.20589(10) 0.18259(9) 0.17826(7)
C8 C 0.12653(8) 0.12481(9) 0.07984(9)
C9 C 0.22464(9) 0.09680(8) 0.10738(8)
C10 C 0.35612(6) 0.24733(6) -0.05118(6)
C11 C 0.33351(8) 0.26656(8) -0.11510(8)
C12 C 0.51070(5) 0.39876(5) -0.03979(5)
C13 C 0.53620(6) 0.42848(5) -0.10190(5)
C14 C 0.60600(6) 0.44736(6) -0.12258(5)
C15 C 0.65207(6) 0.43617(6) -0.08213(6)
C16 C 0.62888(6) 0.40740(6) -0.02006(5)
C17 C 0.55966(5) 0.39000(5) -0.00005(5)
H1 H 0.43550 0.47360 -0.04310
H2 H 0.39390 0.29140 0.04350
H3 H 0.4094(9) 0.1984(10) -0.0466(8)
H4 H 0.19070 0.21950 0.17780
H5 H 0.25630 0.20470 0.19420
H6 H 0.17350 0.14230 0.20740
H7 H 0.12740 0.11170 0.03370
H8 H 0.11250 0.16250 0.08220
H9 H 0.09100 0.08140 0.10420
H10 H 0.22470 0.08200 0.06170
H11 H 0.27390 0.11730 0.12580
H12 H 0.19040 0.05410 0.13320
H13 H 0.31500 0.19980 -0.03470
H14 H 0.37550 0.30970 -0.13440
H15 H 0.31630 0.22530 -0.14570
H16 H 0.29400 0.27720 -0.10680
H17 H 0.50510 0.43600 -0.13070
H18 H 0.62230 0.46820 -0.16500
H19 H 0.69950 0.44820 -0.09700
H20 H 0.66010 0.39970 0.00840
#END
