
#######################################################################
#
#                 Cambridge Crystallographic Data Centre
#                                CCDC
#
#######################################################################
#
# If this CIF has been generated from an entry in the Cambridge
# Structural Database, then it will include bibliographic, chemical,
# crystal, experimental, refinement or atomic coordinate data resulting
# from the CCDC's data processing and validation procedures.
#
#######################################################################

data_CSD_CIF_VORLIY
_audit_creation_date 2009-05-28
_audit_creation_method CSD-ConQuest-V1
_database_code_CSD VORLIY
_database_code_depnum_ccdc_archive 'CCDC 731284'
_chemical_formula_sum 'C16 H12 N2 O4'
_chemical_formula_moiety
;
C16 H12 N2 O4
;
_journal_coeditor_code "IUCr HK2664"
_journal_coden_Cambridge 1370
_journal_volume 65
_journal_year 2009
_journal_page_first o1054
_journal_name_full 'Acta Crystallogr.,Sect.E:Struct.Rep.Online '
loop_
_publ_author_name
"Li-Xin Zhang"
"Xiao-Hong Zhang"
"Shu Yan"
_chemical_name_systematic
;
4-(4-Methoxyphenyl)-3-methyl-1,6-dioxa-2,8-diaza-s-indacen-5(7H)-one
;
_chemical_name_common
;
4-(4-Methoxyphenyl)-3-methylfuro[3,4-b]isoxazolo[4,5-e]pyridin-5(7H)-one
;
_chemical_melting_point 504
_cell_volume   1329.784
_exptl_crystal_colour 'colorless'
_exptl_crystal_density_diffrn 1.48
_exptl_special_details
;
Melting point range 504-506K

;
_exptl_crystal_description 'block'
_exptl_crystal_preparation 'ethanol'
_diffrn_ambient_temperature 298
#These two values have been output from a single CSD field.
_refine_ls_R_factor_gt 0.0575
_refine_ls_wR_factor_gt 0.0575
_symmetry_cell_setting monoclinic
_symmetry_space_group_name_H-M 'P 21/c'
_symmetry_Int_Tables_number 14
loop_
_symmetry_equiv_pos_site_id
_symmetry_equiv_pos_as_xyz
1 x,y,z
2 -x,1/2+y,1/2-z
3 -x,-y,-z
4 x,-1/2-y,-1/2+z
_cell_length_a 13.8513(16)
_cell_length_b 7.6116(11)
_cell_length_c 12.6732(15)
_cell_angle_alpha 90
_cell_angle_beta 95.592(1)
_cell_angle_gamma 90
_cell_formula_units_Z 4
loop_
_atom_type_symbol
_atom_type_radius_bond
C 0.68
H 0.23
N 0.68
O 0.68
loop_
_atom_site_label
_atom_site_type_symbol
_atom_site_fract_x
_atom_site_fract_y
_atom_site_fract_z
N1 N 0.19564(17) -0.0001(3) 0.93775(17)
N2 N 0.42384(17) -0.1679(3) 0.8929(2)
O1 O -0.00728(12) 0.1886(3) 0.77882(13)
O2 O 0.03096(12) 0.1945(3) 0.61265(14)
O3 O 0.35098(14) -0.1183(3) 0.95948(14)
O4 O 0.30666(13) 0.0742(2) 0.28784(14)
C1 C 0.1314(2) 0.0595(3) 0.8621(2)
C2 C 0.03488(19) 0.1313(4) 0.8820(2)
H1 H -0.00490 0.04150 0.91060
H2 H 0.04180 0.22910 0.93120
C3 C 0.05378(18) 0.1546(4) 0.7033(2)
C4 C 0.14180(18) 0.0708(3) 0.75423(18)
C5 C 0.22780(17) 0.0190(3) 0.71290(19)
C6 C 0.29723(19) -0.0463(3) 0.7918(2)
C7 C 0.2760(2) -0.0493(4) 0.8971(2)
C8 C 0.3921(2) -0.1270(4) 0.7960(2)
C9 C 0.45235(19) -0.1739(4) 0.7089(2)
H3 H 0.48370 -0.07030 0.68570
H4 H 0.41170 -0.22320 0.65070
H5 H 0.50060 -0.25840 0.73440
C10 C 0.24536(17) 0.0332(3) 0.60100(18)
C11 C 0.18199(17) -0.0388(3) 0.52099(19)
H6 H 0.12630 -0.09550 0.53850
C12 C 0.19987(17) -0.0281(3) 0.41641(19)
H7 H 0.15670 -0.07840 0.36420
C13 C 0.28166(18) 0.0570(4) 0.3886(2)
C14 C 0.34544(18) 0.1327(3) 0.4676(2)
H8 H 0.40020 0.19210 0.44980
C15 C 0.32724(17) 0.1194(3) 0.5715(2)
H9 H 0.37060 0.16910 0.62370
C16 C 0.2431(2) 0.0018(4) 0.2031(2)
H10 H 0.23550 -0.12190 0.21450
H11 H 0.27030 0.02030 0.13710
H12 H 0.18100 0.05840 0.20080
#END
