
#######################################################################
#
#                 Cambridge Crystallographic Data Centre
#                                CCDC
#
#######################################################################
#
# If this CIF has been generated from an entry in the Cambridge
# Structural Database, then it will include bibliographic, chemical,
# crystal, experimental, refinement or atomic coordinate data resulting
# from the CCDC's data processing and validation procedures.
#
#######################################################################

data_CSD_CIF_VORPIB01
_audit_creation_date 2000-02-23
_audit_creation_method CSD-ConQuest-V1
_database_code_CSD VORPIB01
_chemical_formula_sum 'C14 H21 N1 O9'
_chemical_formula_moiety
;
C14 H21 N1 O9
;
_journal_coden_Cambridge 119
_journal_volume 385
_journal_year 1996
_journal_page_first 89
_journal_name_full 'J.Mol.Struct. '
loop_
_publ_author_name
"Z.Ciunik"
_chemical_name_systematic
;
Ethyl 3,4,6-tri-O-acetyl-2-deoxy-2-hydroxy-imino-\a-D-arabino-hexopyranoside
;
_cell_volume   1651.040
_exptl_crystal_colour 'pale yellow'
_exptl_crystal_density_diffrn 1.397
_exptl_crystal_description 'parallelepiped'
_diffrn_ambient_temperature 85
#These two values have been output from a single CSD field.
_refine_ls_R_factor_gt 0.0355
_refine_ls_wR_factor_gt 0.0355
_symmetry_cell_setting orthorhombic
_symmetry_space_group_name_H-M 'P 21 21 21'
_symmetry_Int_Tables_number 19
loop_
_symmetry_equiv_pos_site_id
_symmetry_equiv_pos_as_xyz
1 x,y,z
2 1/2-x,-y,1/2+z
3 1/2+x,1/2-y,-z
4 -x,1/2+y,1/2-z
_cell_length_a 8.843(2)
_cell_length_b 13.407(3)
_cell_length_c 13.926(3)
_cell_angle_alpha 90
_cell_angle_beta 90
_cell_angle_gamma 90
_cell_formula_units_Z 4
loop_
_atom_type_symbol
_atom_type_radius_bond
C 0.68
H 0.23
N 0.68
O 0.68
loop_
_atom_site_label
_atom_site_type_symbol
_atom_site_fract_x
_atom_site_fract_y
_atom_site_fract_z
O1 O 0.4238(1) 0.6366(1) -0.2029(1)
O2 O 0.7769(2) 0.5121(1) -0.2135(1)
O3 O 0.5601(1) 0.4475(1) 0.0381(1)
O4 O 0.3578(1) 0.6002(1) 0.1048(1)
O5 O 0.5702(1) 0.7205(1) -0.0882(1)
O6 O 0.4214(1) 0.8852(1) -0.0124(1)
O7 O 0.4427(2) 0.3273(1) -0.0470(1)
O8 O 0.5016(2) 0.6244(1) 0.2362(1)
O9 O 0.5964(2) 0.9832(1) 0.0578(1)
N1 N 0.6967(2) 0.4822(1) -0.1309(1)
C1 C 0.5644(2) 0.6434(1) -0.1579(1)
C2 C 0.5940(2) 0.5448(1) -0.1087(1)
C3 C 0.4962(2) 0.5238(1) -0.0216(1)
C4 C 0.4858(2) 0.6157(1) 0.0422(1)
C5 C 0.4565(2) 0.7104(1) -0.0157(1)
C6 C 0.4672(2) 0.8027(1) 0.0464(1)
C7 C 0.3869(2) 0.7246(1) -0.2582(1)
C8 C 0.2442(2) 0.7036(2) -0.3138(1)
C9 C 0.5270(2) 0.3515(1) 0.0167(1)
C10 C 0.6118(2) 0.2824(1) 0.0816(1)
C11 C 0.3800(2) 0.6065(1) 0.2007(1)
C12 C 0.2355(2) 0.5891(1) 0.2539(1)
C13 C 0.4977(2) 0.9719(1) -0.0010(1)
C14 C 0.4439(2) 1.0478(1) -0.0721(2)
H1 H 0.8456(36) 0.4668(22) -0.2219(22)
H2 H 0.6409(31) 0.663(2) -0.1965(19)
H3 H 0.3907(26) 0.5026(16) -0.0464(16)
H4 H 0.5745(28) 0.6219(19) 0.0747(18)
H5 H 0.3590(25) 0.7092(16) -0.0429(16)
H6 H 0.4046(27) 0.8008(17) 0.1019(16)
H7 H 0.5704(31) 0.8130(19) 0.0675(19)
H8 H 0.4697(29) 0.7392(20) -0.3060(18)
H9 H 0.3779(36) 0.7805(23) -0.2123(22)
H10 H 0.2201(33) 0.7687(23) -0.3523(22)
H11 H 0.1587(42) 0.6883(23) -0.2647(23)
H12 H 0.2523(32) 0.6485(22) -0.3571(21)
H13 H 0.6248(44) 0.3120(25) 0.1453(27)
H14 H 0.7122(37) 0.2734(26) 0.0527(23)
H15 H 0.5599(34) 0.2197(22) 0.0873(22)
H16 H 0.2278(59) 0.5217(40) 0.2505(41)
H17 H 0.1561(32) 0.6203(21) 0.2113(21)
H18 H 0.2416(36) 0.6114(25) 0.3160(23)
H19 H 0.3318(33) 1.0389(21) -0.0864(20)
H20 H 0.4858(46) 1.035(3) -0.1359(28)
H21 H 0.4857(41) 1.1125(27) -0.0508(25)
#END
