
#######################################################################
#
#                 Cambridge Crystallographic Data Centre
#                                CCDC
#
#######################################################################
#
# If this CIF has been generated from an entry in the Cambridge
# Structural Database, then it will include bibliographic, chemical,
# crystal, experimental, refinement or atomic coordinate data resulting
# from the CCDC's data processing and validation procedures.
#
#######################################################################

data_CSD_CIF_VOSDOW
_audit_creation_date 1992-11-25
_audit_creation_method CSD-ConQuest-V1
_database_code_CSD VOSDOW
_chemical_formula_sum 'C14 H11 N3 O4'
_chemical_formula_moiety
;
C14 H11 N3 O4
;
_journal_coden_Cambridge 95
_journal_year 1990
_journal_page_first 1556
_journal_name_full 'Izv.Akad.Nauk SSSR,Ser.Khim.(Russ.)(Russ.Chem.Bull.) '
loop_
_publ_author_name
"S.M.Aldoshin"
"I.I.Chuev"
"L.O.Atovmyan"
"O.A.Kozina"
"V.S.Nedzvetskii"
_chemical_name_systematic
;
N'-(2-Nitrofurfuryl-5-vinyl)benzhydrazide
;
_cell_volume   2706.236
_exptl_crystal_colour 'brown'
_exptl_crystal_density_diffrn 1.408
_exptl_special_details
;
Light-sensitive
x(C4) is 0.3081, not 0.3031

;
_diffrn_ambient_temperature ?
_diffrn_special_details
;
The study was carried out at room temperature,in the range 283-303K

;
#These two values have been output from a single CSD field.
_refine_ls_R_factor_gt 0.04
_refine_ls_wR_factor_gt 0.04
_symmetry_cell_setting orthorhombic
_symmetry_space_group_name_H-M 'P c a b'
_symmetry_Int_Tables_number 61
loop_
_symmetry_equiv_pos_site_id
_symmetry_equiv_pos_as_xyz
1 x,y,z
2 1/2-x,y,1/2+z
3 1/2+x,1/2-y,z
4 -x,1/2-y,1/2+z
5 -x,-y,-z
6 -1/2+x,-y,-1/2-z
7 -1/2-x,-1/2+y,-z
8 x,-1/2+y,-1/2-z
_cell_length_a 27.984(5)
_cell_length_b 10.170(2)
_cell_length_c 9.509(2)
_cell_angle_alpha 90
_cell_angle_beta 90
_cell_angle_gamma 90
_cell_formula_units_Z 8
loop_
_atom_type_symbol
_atom_type_radius_bond
C 0.68
H 0.23
N 0.68
O 0.68
loop_
_atom_site_label
_atom_site_type_symbol
_atom_site_fract_x
_atom_site_fract_y
_atom_site_fract_z
O1 O 0.3440(1) 0.0241(1) 0.2972(2)
O2 O 0.4353(1) -0.1400(1) -0.4224(1)
O3 O 0.4551(1) 0.0706(1) -0.5730(2)
O4 O 0.4751(1) -0.0489(2) -0.7525(2)
N1 N 0.3512(1) -0.1798(2) 0.2057(2)
N2 N 0.3673(1) -0.1337(2) 0.0763(2)
N3 N 0.4609(1) -0.0360(2) -0.6306(2)
C1 C 0.3396(1) -0.0950(2) 0.3091(2)
C2 C 0.3195(1) -0.1556(2) 0.4396(2)
C3 C 0.3235(1) -0.2880(2) 0.4730(2)
C4 C 0.3081(1) -0.3363(3) 0.5950(2)
C5 C 0.2785(1) -0.2539(3) 0.6843(3)
C6 C 0.2748(1) -0.1231(3) 0.6528(3)
C7 C 0.2949(1) -0.0723(2) 0.5314(2)
C8 C 0.3798(1) -0.0240(2) -0.0085(2)
C9 C 0.3974(1) -0.1925(2) -0.1472(2)
C10 C 0.4143(1) -0.2854(2) -0.2318(2)
C11 C 0.4517(1) -0.1524(2) -0.5560(2)
C12 C 0.4592(1) -0.2782(2) -0.5927(2)
C13 C 0.4322(1) -0.2663(2) -0.3728(2)
C14 C 0.4470(1) -0.3517(2) -0.4741(2)
H1 H 0.347(1) -0.275(3) 0.214(2)
H2 H 0.342(1) -0.347(2) 0.420(2)
H3 H 0.309(1) -0.433(2) 0.617(2)
H4 H 0.266(1) -0.295(3) 0.769(3)
H5 H 0.257(1) -0.070(2) 0.708(3)
H6 H 0.291(1) 0.027(2) 0.504(2)
H7? H 0.379(1) -0.319(2) 0.019(2)
H8 H 0.472(1) -0.310(2) -0.684(2)
H9 H 0.448(1) -0.444(3) -0.462(3)
H10 H 0.396(1) -0.098(2) -0.174(2)
H11 H 0.416(1) -0.379(2) -0.204(2)
#END
