
#######################################################################
#
#                 Cambridge Crystallographic Data Centre
#                                CCDC
#
#######################################################################
#
# If this CIF has been generated from an entry in the Cambridge
# Structural Database, then it will include bibliographic, chemical,
# crystal, experimental, refinement or atomic coordinate data resulting
# from the CCDC's data processing and validation procedures.
#
#######################################################################

data_CSD_CIF_VOSQID
_audit_creation_date 2001-12-11
_audit_creation_method CSD-ConQuest-V1
_database_code_CSD VOSQID
_database_code_depnum_ccdc_archive 'CCDC 149525'
_chemical_formula_sum 'C16 H24 N3 O3'
_chemical_formula_moiety
;
C16 H24 N3 O3
;
_journal_coden_Cambridge 1290
_journal_year 2001
_journal_page_first 2569
_journal_name_full 'Eur.J.Inorg.Chem. '
loop_
_publ_author_name
"U.Schatzschneider"
"T.Weyhermuller"
"E.Rentschler"
_chemical_name_systematic
;
2-(4-Hydroxy-3-((dimethylamino)methyl)phenyl)-4,4,5,5-tetramethyl-4,5-dihydro-
1H-imidazol-1-oxyl 3-oxide radical
;
_chemical_name_common
;
(4-Hydroxy-3-((dimethylamino)methyl)phenyl)nitronyl nitroxide radical
;
_cell_volume   1640.755
_exptl_crystal_colour 'dark blue'
_exptl_crystal_density_diffrn 1.24
_exptl_crystal_description 'plate'
_exptl_crystal_preparation 'toluene'
_diffrn_ambient_temperature 100
#These two values have been output from a single CSD field.
_refine_ls_R_factor_gt 0.075
_refine_ls_wR_factor_gt 0.075
_symmetry_cell_setting monoclinic
_symmetry_space_group_name_H-M 'P 21/c'
_symmetry_Int_Tables_number 14
loop_
_symmetry_equiv_pos_site_id
_symmetry_equiv_pos_as_xyz
1 x,y,z
2 x,1/2-y,1/2+z
3 -x,-y,-z
4 -x,-1/2+y,-1/2-z
_cell_length_a 7.167(3)
_cell_length_b 11.142(5)
_cell_length_c 20.610(9)
_cell_angle_alpha 90
_cell_angle_beta 94.49(3)
_cell_angle_gamma 90
_cell_formula_units_Z 4
loop_
_atom_type_symbol
_atom_type_radius_bond
C 0.68
H 0.23
N 0.68
O 0.68
loop_
_atom_site_label
_atom_site_type_symbol
_atom_site_fract_x
_atom_site_fract_y
_atom_site_fract_z
O1 O -0.1645(5) 0.2568(3) -0.0138(2)
H1 H -0.0817(19) 0.3058(32) -0.0231(24)
N1 N 0.1715(6) 0.3649(4) -0.0021(2)
O2 O -0.1046(5) -0.2258(4) 0.1600(2)
N2 N 0.0582(5) -0.1890(4) 0.1801(2)
C1 C 0.1675(7) -0.2532(5) 0.2350(3)
C2 C 0.3647(7) -0.2064(5) 0.2249(3)
O3 O 0.4422(5) -0.0046(4) 0.1887(2)
N3 N 0.3187(6) -0.0878(4) 0.1925(2)
C3 C 0.1436(6) -0.0888(4) 0.1620(2)
C4 C 0.0623(6) 0.0015(4) 0.1166(2)
C5 C 0.1789(7) 0.0779(4) 0.0838(2)
H2 H 0.3107(7) 0.0715(4) 0.0924(2)
C6 C 0.1075(7) 0.1624(5) 0.0393(2)
C7 C -0.0867(7) 0.1723(5) 0.0286(2)
C8 C -0.2041(7) 0.0984(5) 0.0600(3)
H3 H -0.3359(7) 0.1056(5) 0.0516(3)
C9 C -0.1304(7) 0.0136(5) 0.1039(2)
H4 H -0.2122(7) -0.0369(5) 0.1256(2)
C10 C 0.2348(7) 0.2388(5) 0.0012(3)
H5 H 0.3638(7) 0.2352(5) 0.0221(3)
H6 H 0.2369(7) 0.2064(5) -0.0435(3)
C11 C 0.2028(8) 0.4220(5) 0.0621(2)
H7 H 0.1603(8) 0.5056(5) 0.0593(2)
H8 H 0.3366(8) 0.4199(5) 0.0762(2)
H9 H 0.1326(8) 0.3787(5) 0.0937(2)
C12 C 0.2706(8) 0.4306(5) -0.0513(3)
H10 H 0.2479(8) 0.3911(5) -0.0937(3)
H11 H 0.4052(8) 0.4310(5) -0.0385(3)
H12 H 0.2246(8) 0.5134(5) -0.0544(3)
C13 C 0.0896(10) -0.2076(5) 0.2974(3)
H13 H 0.1078(10) -0.1206(5) 0.3008(3)
H14 H 0.1554(10) -0.2470(5) 0.3351(3)
H15 H -0.0443(10) -0.2260(5) 0.2964(3)
C14 C 0.1415(7) -0.3879(5) 0.2280(3)
H16 H 0.1922(7) -0.4150(5) 0.1877(3)
H17 H 0.0079(7) -0.4074(5) 0.2266(3)
H18 H 0.2077(7) -0.4284(5) 0.2652(3)
C15 C 0.4935(9) -0.1861(6) 0.2865(3)
H19 H 0.4278(9) -0.1385(6) 0.3176(3)
H20 H 0.6059(9) -0.1430(6) 0.2754(3)
H21 H 0.5295(9) -0.2637(6) 0.3060(3)
C16 C 0.4643(8) -0.2809(5) 0.1749(3)
H22 H 0.3794(8) -0.2929(5) 0.1358(3)
H23 H 0.5003(8) -0.3590(5) 0.1938(3)
H24 H 0.5764(8) -0.2381(5) 0.1633(3)
#END
