
#######################################################################
#
#                 Cambridge Crystallographic Data Centre
#                                CCDC
#
#######################################################################
#
# If this CIF has been generated from an entry in the Cambridge
# Structural Database, then it will include bibliographic, chemical,
# crystal, experimental, refinement or atomic coordinate data resulting
# from the CCDC's data processing and validation procedures.
#
#######################################################################

data_CSD_CIF_VOSQUP
_audit_creation_date 2001-12-11
_audit_creation_method CSD-ConQuest-V1
_database_code_CSD VOSQUP
_database_code_depnum_ccdc_archive 'CCDC 149527'
_chemical_formula_sum 'C19 H28 N3 O3'
_chemical_formula_moiety
;
C19 H28 N3 O3
;
_journal_coden_Cambridge 1290
_journal_year 2001
_journal_page_first 2569
_journal_name_full 'Eur.J.Inorg.Chem. '
loop_
_publ_author_name
"U.Schatzschneider"
"T.Weyhermuller"
"E.Rentschler"
_chemical_name_systematic
;
2-(4-Hydroxy-3-((piperidin-1-yl)methyl)phenyl)-4,4,5,5-tetramethyl-4,5-dihydro
-1H-imidazol-1-oxyl 3-oxide radical
;
_chemical_name_common
;
(4-Hydroxy-3-((piperidin-1-yl)methyl)phenyl)nitronyl nitroxide radical
;
_cell_volume   3723.006
_exptl_crystal_colour 'dark blue'
_exptl_crystal_density_diffrn 1.236
_exptl_special_details
;
orthorhombic polymorph

;
_exptl_crystal_description 'column'
_diffrn_ambient_temperature 100
#These two values have been output from a single CSD field.
_refine_ls_R_factor_gt 0.0431
_refine_ls_wR_factor_gt 0.0431
_symmetry_cell_setting orthorhombic
_symmetry_space_group_name_H-M 'P b c a'
_symmetry_Int_Tables_number 61
loop_
_symmetry_equiv_pos_site_id
_symmetry_equiv_pos_as_xyz
1 x,y,z
2 1/2+x,y,1/2-z
3 x,1/2-y,1/2+z
4 1/2-x,1/2+y,z
5 -x,-y,-z
6 -1/2-x,-y,-1/2+z
7 -x,-1/2+y,-1/2-z
8 -1/2+x,-1/2-y,-z
_cell_length_a 10.1839(8)
_cell_length_b 11.4709(8)
_cell_length_c 31.870(2)
_cell_angle_alpha 90
_cell_angle_beta 90
_cell_angle_gamma 90
_cell_formula_units_Z 8
loop_
_atom_type_symbol
_atom_type_radius_bond
C 0.68
H 0.23
N 0.68
O 0.68
loop_
_atom_site_label
_atom_site_type_symbol
_atom_site_fract_x
_atom_site_fract_y
_atom_site_fract_z
O1 O -0.53346(9) -0.12507(8) 0.14044(3)
N1 N -0.5059(1) -0.14002(9) 0.10146(3)
C1 C -0.60994(12) -0.17198(11) 0.07005(4)
C2 C -0.52304(12) -0.20660(11) 0.03163(4)
O2 O -0.30585(9) -0.13167(8) 0.01451(3)
N2 N -0.3971(1) -0.14455(9) 0.04207(3)
C3 C -0.38975(12) -0.1151(1) 0.08280(4)
C4 C -0.27716(12) -0.06216(11) 0.10371(4)
C5 C -0.29645(12) 0.03131(11) 0.13112(4)
H1 H -0.38291(12) 0.05975(11) 0.13563(4)
C6 C -0.19222(13) 0.08353(10) 0.15190(4)
O3 O 0.03853(9) 0.08081(8) 0.16775(3)
H2 H 0.0027(15) 0.1295(13) 0.1873(5)
C7 C -0.06594(12) 0.03689(11) 0.14673(4)
C8 C -0.04597(13) -0.05683(11) 0.11952(4)
H3 H 0.03976(13) -0.08797(11) 0.11599(4)
C9 C -0.15012(13) -0.10458(11) 0.09769(4)
H4 H -0.13519(13) -0.16657(11) 0.07851(4)
C10 C -0.21223(13) 0.19153(11) 0.17828(4)
H5 H -0.18595(13) 0.26088(11) 0.16181(4)
H6 H -0.30667(13) 0.19932(11) 0.18510(4)
N3 N -0.13607(10) 0.18849(9) 0.21756(3)
C11 C -0.14089(14) 0.30454(11) 0.23740(4)
H7 H -0.23339(14) 0.32543(11) 0.24329(4)
H8 H -0.10474(14) 0.36329(11) 0.21779(4)
C12 C -0.06287(14) 0.30681(12) 0.27803(4)
H9 H -0.07190(14) 0.38429(12) 0.29141(4)
H10 H 0.03127(14) 0.29389(12) 0.27184(4)
C13 C -0.11144(14) 0.21289(13) 0.30809(4)
H11 H -0.05463(14) 0.21103(13) 0.33329(4)
H12 H -0.20201(14) 0.23138(13) 0.31720(4)
C14 C -0.1094(2) 0.09408(12) 0.28672(4)
H13 H -0.0176(2) 0.07130(12) 0.28068(4)
H14 H -0.1479(2) 0.03485(12) 0.30568(4)
C15 C -0.18717(14) 0.09840(11) 0.24615(4)
H15 H -0.18277(14) 0.02143(11) 0.23216(4)
H16 H -0.28042(14) 0.11506(11) 0.25256(4)
C16 C -0.69000(13) -0.06067(12) 0.06367(4)
H17 H -0.7628(5) -0.0764(2) 0.0444(2)
H18 H -0.6335(2) 0.0002(3) 0.0518(3)
H19 H -0.7250(7) -0.0345(4) 0.09071(6)
C17 C -0.69625(13) -0.26857(11) 0.08683(4)
H20 H -0.7558(6) -0.2952(5) 0.06466(9)
H21 H -0.7477(6) -0.2393(2) 0.1106(2)
H22 H -0.64122(14) -0.3337(3) 0.0961(2)
C18 C -0.57414(13) -0.16431(11) -0.01054(4)
H23 H -0.6571(5) -0.2037(6) -0.01699(13)
H24 H -0.5096(4) -0.1820(7) -0.03242(6)
H25 H -0.5887(8) -0.0799(2) -0.00937(9)
C19 C -0.48956(14) -0.33688(11) 0.02959(4)
H26 H -0.5686(2) -0.38127(13) 0.0224(3)
H27 H -0.4565(8) -0.3627(2) 0.05692(9)
H28 H -0.4222(6) -0.3499(2) 0.0081(2)
#END
