
#######################################################################
#
#                 Cambridge Crystallographic Data Centre
#                                CCDC
#
#######################################################################
#
# If this CIF has been generated from an entry in the Cambridge
# Structural Database, then it will include bibliographic, chemical,
# crystal, experimental, refinement or atomic coordinate data resulting
# from the CCDC's data processing and validation procedures.
#
#######################################################################

data_CSD_CIF_VOSQUP01
_audit_creation_date 2001-12-11
_audit_creation_method CSD-ConQuest-V1
_database_code_CSD VOSQUP01
_database_code_depnum_ccdc_archive 'CCDC 149526'
_chemical_formula_sum 'C19 H28 N3 O3'
_chemical_formula_moiety
;
C19 H28 N3 O3
;
_journal_coden_Cambridge 1290
_journal_year 2001
_journal_page_first 2569
_journal_name_full 'Eur.J.Inorg.Chem. '
loop_
_publ_author_name
"U.Schatzschneider"
"T.Weyhermuller"
"E.Rentschler"
_chemical_name_systematic
;
2-(4-Hydroxy-3-((piperidin-1-yl)methyl)phenyl)-4,4,5,5-tetramethyl-4,5-dihydro
-1H-imidazol-1-oxyl 3-oxide radical
;
_chemical_name_common
;
(4-Hydroxy-3-((piperidin-1-yl)methyl)phenyl)nitronyl nitroxide radical
;
_cell_volume   1848.849
_exptl_crystal_colour 'blue'
_exptl_crystal_density_diffrn 1.245
_exptl_special_details
;
triclinic polymorph

;
_exptl_crystal_description 'block'
_diffrn_ambient_temperature 100
#These two values have been output from a single CSD field.
_refine_ls_R_factor_gt 0.049
_refine_ls_wR_factor_gt 0.049
_symmetry_cell_setting triclinic
_symmetry_space_group_name_H-M 'P -1'
_symmetry_Int_Tables_number 2
loop_
_symmetry_equiv_pos_site_id
_symmetry_equiv_pos_as_xyz
1 x,y,z
2 -x,-y,-z
_cell_length_a 11.3931(9)
_cell_length_b 12.1913(11)
_cell_length_c 14.206(2)
_cell_angle_alpha 81.47(2)
_cell_angle_beta 83.35(2)
_cell_angle_gamma 71.82(2)
_cell_formula_units_Z 4
loop_
_atom_type_symbol
_atom_type_radius_bond
C 0.68
H 0.23
N 0.68
O 0.68
loop_
_atom_site_label
_atom_site_type_symbol
_atom_site_fract_x
_atom_site_fract_y
_atom_site_fract_z
N1 N 0.36121(11) 0.72618(11) -0.26533(9)
O1 O 0.43874(10) 0.65745(10) -0.31974(8)
N2 N 0.27593(11) 0.82637(11) -0.14658(9)
O2 O 0.25441(10) 0.8667(1) -0.06549(7)
O3 O 0.75918(10) 0.46686(10) 0.05242(8)
H1 H 0.8120(9) 0.4189(10) 0.0205(4)
N3 N 0.86519(11) 0.36022(11) -0.09874(9)
C1 C 0.23513(14) 0.79411(13) -0.29756(11)
C2 C 0.19240(14) 0.88493(13) -0.22493(10)
C3 C 0.37471(13) 0.73975(13) -0.17419(10)
C4 C 0.47721(13) 0.67163(13) -0.1166(1)
C5 C 0.55928(13) 0.56781(13) -0.14530(11)
H2 H 0.54942(13) 0.54437(13) -0.20402(11)
C6 C 0.65409(13) 0.49861(13) -0.09068(11)
C7 C 0.66866(14) 0.53322(13) -0.00363(11)
C8 C 0.58858(14) 0.63644(13) 0.02559(11)
H3 H 0.59906(14) 0.66035(13) 0.08394(11)
C9 C 0.49395(14) 0.70438(13) -0.02967(11)
H4 H 0.43952(14) 0.77418(13) -0.00852(11)
C10 C 0.73527(14) 0.38330(13) -0.11974(11)
H5 H 0.70337(14) 0.32044(13) -0.08532(11)
H6 H 0.73160(14) 0.38296(13) -0.18898(11)
C11 C 0.92510(15) 0.43501(14) -0.16461(12)
H7 H 0.87534(15) 0.51742(14) -0.16288(12)
H8 H 0.92902(15) 0.41606(14) -0.23052(12)
C12 C 1.0552(2) 0.4179(2) -0.13723(14)
H9 H 1.0953(2) 0.4665(2) -0.18385(14)
H10 H 1.0507(2) 0.4433(2) -0.07353(14)
C13 C 1.1325(2) 0.2913(2) -0.13518(13)
H11 H 1.2137(2) 0.2804(2) -0.11053(13)
H12 H 1.1475(2) 0.2688(2) -0.20070(13)
C14 C 1.06516(15) 0.2148(2) -0.07163(12)
H13 H 1.11250(15) 0.1320(2) -0.07500(12)
H14 H 1.05995(15) 0.2305(2) -0.00462(12)
C15 C 0.93560(14) 0.23761(13) -0.10234(12)
H15 H 0.94060(14) 0.21786(13) -0.16811(12)
H16 H 0.89288(14) 0.18793(13) -0.05950(12)
C16 C 0.15992(15) 0.70827(15) -0.28694(12)
H17 H 0.0764(3) 0.7489(2) -0.3072(7)
H18 H 0.1545(8) 0.6749(7) -0.2200(2)
H19 H 0.2007(5) 0.6459(5) -0.3268(6)
C17 C 0.2484(2) 0.84404(15) -0.40128(11)
H20 H 0.1681(3) 0.8966(7) -0.4204(2)
H21 H 0.2763(9) 0.7806(2) -0.44146(14)
H22 H 0.3092(7) 0.8871(8) -0.4089(2)
C18 C 0.05856(14) 0.90837(14) -0.18453(11)
H23 H 0.00339(14) 0.9389(8) -0.23658(14)
H24 H 0.0403(3) 0.9655(7) -0.1389(6)
H25 H 0.0457(3) 0.8358(2) -0.1520(6)
C19 C 0.21930(15) 0.99956(14) -0.26078(12)
H26 H 0.1625(6) 1.0433(4) -0.3094(5)
H27 H 0.3049(3) 0.98372(14) -0.2886(6)
H28 H 0.2078(9) 1.0453(4) -0.2074(2)
N4 N 0.34306(11) 0.89993(10) 0.22380(8)
O4 O 0.39389(10) 0.80296(9) 0.18998(7)
N5 N 0.22572(11) 1.03428(10) 0.30937(8)
O5 O 0.14609(10) 1.08765(9) 0.37170(8)
O6 O 0.03859(10) 0.59980(9) 0.51317(8)
H29 H 0.0912(4) 0.5340(4) 0.5215(11)
N6 N 0.26505(12) 0.43941(10) 0.49812(9)
C20 C 0.36302(13) 1.01038(13) 0.17229(10)
C21 C 0.31327(14) 1.09205(13) 0.25114(11)
C22 C 0.25418(13) 0.92079(13) 0.29739(10)
C23 C 0.19777(13) 0.83698(13) 0.35196(10)
C24 C 0.25906(14) 0.71732(13) 0.35589(10)
H30 H 0.33800(14) 0.69146(13) 0.32244(10)
C25 C 0.20715(14) 0.63602(13) 0.40743(10)
C26 C 0.09218(14) 0.67507(13) 0.45938(10)
C27 C 0.03021(14) 0.79322(13) 0.45547(11)
H31 H -0.04848(14) 0.81910(13) 0.48927(11)
C28 C 0.08205(13) 0.87326(13) 0.4029(1)
H32 H 0.03893(13) 0.95389(13) 0.40116(10)
C29 C 0.26738(15) 0.50753(13) 0.40325(11)
H33 H 0.22369(15) 0.48018(13) 0.35958(11)
H34 H 0.35438(15) 0.49412(13) 0.37696(11)
C30 C 0.35688(14) 0.45441(14) 0.55599(11)
H35 H 0.33989(14) 0.53808(14) 0.56132(11)
H36 H 0.44079(14) 0.42583(14) 0.52403(11)
C31 C 0.3526(2) 0.38829(14) 0.65518(11)
H37 H 0.2703(2) 0.41997(14) 0.68880(11)
H38 H 0.4161(2) 0.39819(14) 0.69241(11)
C32 C 0.3763(2) 0.25952(15) 0.64822(12)
H39 H 0.4625(2) 0.22546(15) 0.62214(12)
H40 H 0.3658(2) 0.21823(15) 0.71261(12)
C33 C 0.2866(2) 0.24428(14) 0.58384(12)
H41 H 0.2015(2) 0.26858(14) 0.61461(12)
H42 H 0.3075(2) 0.16109(14) 0.57514(12)
C34 C 0.2909(2) 0.31554(13) 0.48694(11)
H43 H 0.3738(2) 0.28669(13) 0.45346(11)
H44 H 0.2288(2) 0.30662(13) 0.44773(11)
C35 C 0.28406(14) 1.04316(14) 0.08695(11)
H45 H 0.2947(7) 1.1144(5) 0.0499(4)
H46 H 0.1967(2) 1.0562(8) 0.10951(11)
H47 H 0.3100(6) 0.9799(4) 0.0466(4)
C36 C 0.49904(13) 0.98929(13) 0.13903(11)
H48 H 0.5127(2) 1.0629(2) 0.1102(6)
H49 H 0.5226(3) 0.9339(6) 0.0917(5)
H50 H 0.54955(15) 0.9575(8) 0.1937(2)
C37 C 0.24350(15) 1.21713(13) 0.21664(12)
H51 H 0.2992(3) 1.2524(3) 0.1738(6)
H52 H 0.2132(8) 1.2610(2) 0.27156(13)
H53 H 0.1731(5) 1.21859(14) 0.1823(6)
C38 C 0.41034(15) 1.08861(14) 0.31841(12)
H54 H 0.4658(6) 1.1320(8) 0.2860(3)
H55 H 0.4585(6) 1.0077(2) 0.3366(6)
H56 H 0.3688(2) 1.1239(8) 0.3758(3)
#END
