
#######################################################################
#
#                 Cambridge Crystallographic Data Centre
#                                CCDC
#
#######################################################################
#
# If this CIF has been generated from an entry in the Cambridge
# Structural Database, then it will include bibliographic, chemical,
# crystal, experimental, refinement or atomic coordinate data resulting
# from the CCDC's data processing and validation procedures.
#
#######################################################################

data_CSD_CIF_VOSRUQ
_audit_creation_date 2001-12-11
_audit_creation_method CSD-ConQuest-V1
_database_code_CSD VOSRUQ
_database_code_depnum_ccdc_archive 'CCDC 149528'
_chemical_formula_sum 'C20 H30 N3 O4'
_chemical_formula_moiety
;
C20 H30 N3 O4
;
_journal_coden_Cambridge 1290
_journal_year 2001
_journal_page_first 2569
_journal_name_full 'Eur.J.Inorg.Chem. '
loop_
_publ_author_name
"U.Schatzschneider"
"T.Weyhermuller"
"E.Rentschler"
_chemical_name_systematic
;
2-(4-Hydroxy-3-methoxy-5-((piperidin-1-yl)methyl)phenyl)-4,4,5,5-tetramethyl-4
,5-dihydro-1H-imidazol-1-oxyl 3-oxide radical
;
_chemical_name_common
;
(4-Hydroxy-3-methoxy-5-((piperidin-1-yl)methyl)phenyl)nitronyl nitroxide 
radical
;
_cell_volume   1000.430
_exptl_crystal_colour 'dark blue'
_exptl_crystal_density_diffrn 1.25
_exptl_crystal_description 'parallelepiped'
_exptl_crystal_preparation 'diethyl ether'
_diffrn_ambient_temperature 100
#These two values have been output from a single CSD field.
_refine_ls_R_factor_gt 0.0494
_refine_ls_wR_factor_gt 0.0494
_symmetry_cell_setting triclinic
_symmetry_space_group_name_H-M 'P -1'
_symmetry_Int_Tables_number 2
loop_
_symmetry_equiv_pos_site_id
_symmetry_equiv_pos_as_xyz
1 x,y,z
2 -x,-y,-z
_cell_length_a 10.0751(8)
_cell_length_b 10.6168(10)
_cell_length_c 10.7895(10)
_cell_angle_alpha 88.019(12)
_cell_angle_beta 65.673(12)
_cell_angle_gamma 72.943(12)
_cell_formula_units_Z 2
loop_
_atom_type_symbol
_atom_type_radius_bond
C 0.68
H 0.23
N 0.68
O 0.68
loop_
_atom_site_label
_atom_site_type_symbol
_atom_site_fract_x
_atom_site_fract_y
_atom_site_fract_z
O1 O 0.05976(11) 1.12444(10) 0.8842(1)
N1 N -0.07779(12) 1.13487(11) 0.90451(12)
C1 C -0.20961(15) 1.24876(13) 0.99507(14)
C2 C -0.34573(15) 1.19531(13) 1.01953(14)
N2 N -0.27646(13) 1.09638(11) 0.89665(12)
O2 O -0.36105(11) 1.04608(10) 0.86494(11)
C3 C -0.12234(15) 1.06009(13) 0.83875(14)
C4 C -0.0206(2) 0.96225(13) 0.72175(14)
C5 C 0.1225(2) 0.97243(13) 0.63542(14)
H1 H 0.1540(2) 1.04266(13) 0.65448(14)
C6 C 0.2202(2) 0.88158(13) 0.52170(14)
O3 O 0.26543(11) 0.68621(10) 0.38401(10)
H2 H 0.3548(5) 0.6916(12) 0.3515(11)
C7 C 0.1746(2) 0.77725(13) 0.49477(14)
C8 C 0.0316(2) 0.76433(13) 0.58311(15)
C9 C -0.0657(2) 0.85634(13) 0.69510(14)
H3 H -0.1628(2) 0.84801(13) 0.75388(14)
C10 C 0.3710(2) 0.89879(13) 0.42499(14)
H4 H 0.3579(2) 0.94693(13) 0.34855(14)
H5 H 0.4027(2) 0.95311(13) 0.47382(14)
N3 N 0.49280(13) 0.77038(11) 0.36918(11)
C11 C 0.5394(2) 0.70831(14) 0.47477(14)
H6 H 0.4488(2) 0.69809(14) 0.55351(14)
H7 H 0.5820(2) 0.76623(14) 0.50737(14)
C12 C 0.6588(2) 0.57340(14) 0.4190(2)
H8 H 0.6899(2) 0.53431(14) 0.4913(2)
H9 H 0.6141(2) 0.51362(14) 0.3919(2)
C13 C 0.7983(2) 0.58555(15) 0.2963(2)
H10 H 0.8710(2) 0.49636(15) 0.2564(2)
H11 H 0.8506(2) 0.63621(15) 0.3254(2)
C14 C 0.7491(2) 0.65623(14) 0.18921(15)
H12 H 0.8389(2) 0.67115(14) 0.11317(15)
H13 H 0.7093(2) 0.59961(14) 0.15151(15)
C15 C 0.6263(2) 0.78815(14) 0.25120(14)
H14 H 0.6691(2) 0.84770(14) 0.28129(14)
H15 H 0.5932(2) 0.83017(14) 0.18108(14)
C16 C -0.2053(2) 1.36736(14) 0.91059(15)
H16 H -0.2897(7) 1.4453(3) 0.9646(4)
H17 H -0.2157(11) 1.3478(4) 0.8276(5)
H18 H -0.1077(5) 1.3850(6) 0.8854(9)
C17 C -0.1900(2) 1.27568(14) 1.12282(14)
H19 H -0.2796(5) 1.3465(7) 1.1839(5)
H20 H -0.0979(6) 1.3028(9) 1.0973(2)
H21 H -0.1798(11) 1.1951(3) 1.1697(5)
C18 C -0.4881(2) 1.29770(15) 1.0199(2)
H22 H -0.5270(7) 1.3682(5) 1.0938(7)
H23 H -0.5668(4) 1.2552(3) 1.0342(10)
H24 H -0.4621(3) 1.3356(7) 0.9320(4)
C19 C -0.3887(2) 1.11776(14) 1.14419(14)
H25 H -0.438(1) 1.1788(2) 1.22762(14)
H26 H -0.2961(2) 1.0525(7) 1.1429(6)
H27 H -0.4594(9) 1.0721(8) 1.1421(5)
O4 O -0.00115(11) 0.65716(10) 0.54922(10)
C20 C -0.1415(2) 0.6369(2) 0.6413(2)
H28 H -0.1488(6) 0.5545(5) 0.6105(6)
H29 H -0.2276(2) 0.7113(5) 0.6434(8)
H30 H -0.1442(5) 0.6312(10) 0.7331(3)
#END
