
#######################################################################
#
#                 Cambridge Crystallographic Data Centre
#                                CCDC
#
#######################################################################
#
# If this CIF has been generated from an entry in the Cambridge
# Structural Database, then it will include bibliographic, chemical,
# crystal, experimental, refinement or atomic coordinate data resulting
# from the CCDC's data processing and validation procedures.
#
#######################################################################

data_CSD_CIF_VOSVUW
_audit_creation_date 2015-02-10
_audit_creation_method CSD-ConQuest-V1
_database_code_CSD VOSVUW
_database_code_depnum_ccdc_archive 'CCDC 1032149'
_chemical_formula_sum 'C13 H16 N2 O1'
_chemical_formula_moiety
;
C13 H16 N2 O1
;
_journal_coden_Cambridge 1090
_journal_volume 26
_journal_year 2015
_journal_page_first 230
_journal_name_full 'Tetrahedron:Asymm. '
loop_
_publ_author_name
"R.U.Gutierrez"
"A.Rebollar"
"R.Bautista"
"V.Pelayo"
"J.L.Vargas"
"M.M.Montenegro"
"C.Espinoza-Hicks"
"F.Ayala"
"P.M.Bernal"
"C.Carrasco"
"L.Gerardo Zepeda"
"F.Delgado"
"J.Tamariz"
_chemical_name_systematic
;
(S)-4,5-Dimethyl-1-(1-phenylethyl)-1H-imidazole 3-oxide
;
_chemical_melting_point 378
_cell_volume    573.978
_exptl_crystal_colour 'colorless'
_exptl_crystal_density_diffrn 1.251
_exptl_special_details
;
Melting point range 378-379K

;
_exptl_crystal_description 'prism'
_exptl_crystal_preparation 'dichloromethane/methanol'
_diffrn_ambient_temperature 292
#These two values have been output from a single CSD field.
_refine_ls_R_factor_gt 0.0387
_refine_ls_wR_factor_gt 0.0387
_symmetry_cell_setting monoclinic
_symmetry_space_group_name_H-M 'P 21'
_symmetry_Int_Tables_number 4
loop_
_symmetry_equiv_pos_site_id
_symmetry_equiv_pos_as_xyz
1 x,y,z
2 -x,1/2+y,-z
_cell_length_a 6.8435(2)
_cell_length_b 7.2959(2)
_cell_length_c 11.9794(4)
_cell_angle_alpha 90
_cell_angle_beta 106.336(3)
_cell_angle_gamma 90
_cell_formula_units_Z 2
loop_
_atom_type_symbol
_atom_type_radius_bond
C 0.68
H 0.23
N 0.68
O 0.68
loop_
_atom_site_label
_atom_site_type_symbol
_atom_site_fract_x
_atom_site_fract_y
_atom_site_fract_z
N1 N 0.07657(18) 0.32712(17) 0.84098(11)
C1 C -0.1751(2) 0.5238(2) 0.70643(14)
C2 C -0.1003(2) 0.4471(2) 0.82861(13)
C3 C -0.0530(3) 0.5991(3) 0.91919(15)
H1 H 0.00000 0.54660 0.99520
H2 H -0.17530 0.66590 0.91600
H3 H 0.04620 0.68070 0.90360
C4 C -0.0531(3) 0.5360(3) 0.63195(16)
H4 H 0.07950 0.49140 0.65510
C5 C -0.3730(3) 0.5909(3) 0.66836(17)
H5 H -0.45820 0.58200 0.71650
C6 C -0.3226(4) 0.6817(4) 0.48674(19)
H6 H -0.37160 0.73410 0.41340
C7 C -0.1290(4) 0.6153(4) 0.52227(18)
H7 H -0.04630 0.62280 0.47270
C8 C -0.4450(3) 0.6711(3) 0.5594(2)
H8 H -0.57670 0.71770 0.53560
C9 C 0.2617(2) 0.0880(2) 0.82048(13)
N2 N 0.38625(18) 0.22381(19) 0.88460(11)
C10 C 0.2740(2) 0.3675(2) 0.89594(14)
C11 C -0.1278(2) 0.0645(3) 0.73173(17)
H9 H -0.10200 -0.05870 0.71150
H10 H -0.19160 0.13210 0.66230
H11 H -0.21610 0.06240 0.78140
C12 C 0.0675(2) 0.1538(2) 0.79353(13)
C13 C 0.3461(3) -0.0895(3) 0.79593(18)
H12 H 0.38990 -0.15950 0.86640
H13 H 0.46000 -0.06770 0.76580
H14 H 0.24310 -0.15630 0.73970
O1 O 0.58693(16) 0.20744(19) 0.92910(12)
H15 H 0.319(3) 0.470(3) 0.9385(19)
H16 H -0.206(3) 0.373(3) 0.844(2)
#END
