
#######################################################################
#
#                 Cambridge Crystallographic Data Centre
#                                CCDC
#
#######################################################################
#
# If this CIF has been generated from an entry in the Cambridge
# Structural Database, then it will include bibliographic, chemical,
# crystal, experimental, refinement or atomic coordinate data resulting
# from the CCDC's data processing and validation procedures.
#
#######################################################################

data_CSD_CIF_VOTBOX
_audit_creation_date 2015-02-10
_audit_creation_method CSD-ConQuest-V1
_database_code_CSD VOTBOX
_database_code_depnum_ccdc_archive 'CCDC 1034991'
_chemical_formula_sum 'C10 H14 N2 O3'
_chemical_formula_moiety
;
C10 H14 N2 O3
;
_journal_coden_Cambridge 1200
_journal_volume 23
_journal_year 2015
_journal_page_first 1321
_journal_name_full 'Bioorg.Med.Chem. '
loop_
_publ_author_name
"A.Verma"
"D.M.Wong"
"R.Islam"
"Fan Tong"
"M.Ghavami"
"J.M.Mutunga"
"C.Slebodnick"
"Jianyong Li"
"E.Viayna"
"P.C.-H Lam"
"M.M.Totrov"
"J.R.Bloomquist"
"P.R.Carlier"
_chemical_name_systematic
;
5-cyclobutyl-N,N-dimethyl-3-oxo-1,2-oxazole-2(3H)-carboxamide
;
_cell_volume    511.183
_exptl_crystal_colour 'colorless'
_exptl_crystal_density_diffrn 1.366
_exptl_crystal_description 'prism'
_exptl_crystal_preparation 'hexane/ dichloromethane/ ethyl acetate'
_diffrn_ambient_temperature 100.0
#These two values have been output from a single CSD field.
_refine_ls_R_factor_gt 0.0416
_refine_ls_wR_factor_gt 0.0416
_symmetry_cell_setting triclinic
_symmetry_space_group_name_H-M 'P -1'
_symmetry_Int_Tables_number 2
loop_
_symmetry_equiv_pos_site_id
_symmetry_equiv_pos_as_xyz
1 x,y,z
2 -x,-y,-z
_cell_length_a 7.9449(6)
_cell_length_b 8.1997(5)
_cell_length_c 9.5467(6)
_cell_angle_alpha 64.790(7)
_cell_angle_beta 68.251(7)
_cell_angle_gamma 70.562(6)
_cell_formula_units_Z 2
loop_
_atom_type_symbol
_atom_type_radius_bond
C 0.68
H 0.23
N 0.68
O 0.68
loop_
_atom_site_label
_atom_site_type_symbol
_atom_site_fract_x
_atom_site_fract_y
_atom_site_fract_z
O1 O 0.34984(12) -0.05208(13) 0.85522(11)
O2 O 0.82415(12) -0.13982(13) 0.79746(11)
O3 O 0.42347(12) 0.26737(13) 0.63718(11)
N1 N 0.53205(14) -0.04464(15) 0.75464(13)
N2 N 0.68036(15) 0.11917(14) 0.49456(13)
C1 C 0.65909(17) -0.14109(17) 0.85024(15)
C2 C 0.54711(18) -0.23104(17) 1.00737(15)
H1 H 0.59140 -0.31610 1.09760
C3 C 0.36964(18) -0.17303(17) 1.00297(15)
C4 C 0.19264(17) -0.21602(18) 1.12132(16)
H2 H 0.10240 -0.09970 1.13050
C5 C 0.19899(19) -0.3584(2) 1.29007(16)
H3 H 0.16000 -0.30320 1.37430
H4 H 0.31830 -0.44840 1.29300
C6 C 0.04577(19) -0.43227(18) 1.28609(16)
H5 H 0.06840 -0.56840 1.32380
H6 H -0.08100 -0.38020 1.34020
C7 C 0.09808(19) -0.34029(19) 1.10123(16)
H7 H -0.00970 -0.27200 1.05620
H8 H 0.18500 -0.42430 1.04350
C8 C 0.53945(17) 0.12999(17) 0.62387(15)
C9 C 0.70748(18) 0.29091(18) 0.35902(16)
H9 H 0.64100 0.30960 0.28330
H10 H 0.83990 0.28350 0.30450
H11 H 0.65960 0.39450 0.39860
C10 C 0.79528(18) -0.05154(18) 0.46783(15)
H12 H 0.91600 -0.07480 0.48610
H13 H 0.81300 -0.03990 0.35700
H14 H 0.73390 -0.15430 0.54240
#END
