
#######################################################################
#
#                 Cambridge Crystallographic Data Centre
#                                CCDC
#
#######################################################################
#
# If this CIF has been generated from an entry in the Cambridge
# Structural Database, then it will include bibliographic, chemical,
# crystal, experimental, refinement or atomic coordinate data resulting
# from the CCDC's data processing and validation procedures.
#
#######################################################################

data_CSD_CIF_VOTXEH
_audit_creation_date 1992-11-16
_audit_creation_method CSD-ConQuest-V1
_database_code_CSD VOTXEH
_chemical_formula_sum 'C16 H15 N1 O6'
_chemical_formula_moiety
;
C16 H15 N1 O6
;
_journal_coden_Cambridge 24
_journal_volume 33
_journal_year 1992
_journal_page_first 993
_journal_name_full 'Tetrahedron Lett. '
loop_
_publ_author_name
"R.B.Gammill"
"S.A.Nash"
"L.T.Bell"
"W.Watt"
_chemical_name_systematic
;
3-Acetyloxy-2-((acetyloxyimino)ethyl)chromone
;
_cell_volume    748.485
_exptl_special_details
;
Text gives mp=117.9-120.0deg.C; ref.5 gives mp=214- 215deg.C. Dm and dx given 
as 1.35 and 1.34, respectively; we calculate 1.41
;
_diffrn_ambient_temperature 123.15
#These two values have been output from a single CSD field.
_refine_ls_R_factor_gt 0.048
_refine_ls_wR_factor_gt 0.048
_symmetry_cell_setting triclinic
_symmetry_space_group_name_H-M 'P -1'
_symmetry_Int_Tables_number 2
loop_
_symmetry_equiv_pos_site_id
_symmetry_equiv_pos_as_xyz
1 x,y,z
2 -x,-y,-z
_cell_length_a 8.394(2)
_cell_length_b 8.732(1)
_cell_length_c 11.244(2)
_cell_angle_alpha 109.13(1)
_cell_angle_beta 101.53(2)
_cell_angle_gamma 96.53(2)
_cell_formula_units_Z 2
loop_
_atom_type_symbol
_atom_type_radius_bond
C 0.68
H 0.23
N 0.68
O 0.68
loop_
_atom_site_label
_atom_site_type_symbol
_atom_site_fract_x
_atom_site_fract_y
_atom_site_fract_z
O1 O 0.6039(2) 0.3273(1) 0.4029(1)
C1 C 0.7303(2) 0.4557(2) 0.4802(2)
C2 C 0.8052(2) 0.5588(2) 0.4320(2)
C3 C 0.7600(2) 0.5391(2) 0.2955(2)
O2 O 0.8282(2) 0.6331(2) 0.2518(1)
C4 C 0.6273(2) 0.3968(2) 0.2151(2)
C5 C 0.5690(2) 0.3588(2) 0.0808(2)
C6 C 0.4415(3) 0.2267(2) 0.0078(2)
C7 C 0.3692(3) 0.1306(2) 0.0683(2)
C8 C 0.4237(3) 0.1655(2) 0.1998(2)
C9 C 0.5536(2) 0.2982(2) 0.2722(1)
O3 O 0.9424(1) 0.6800(1) 0.5100(1)
C10 C 0.9146(2) 0.8351(2) 0.5712(2)
C11 C 1.0743(3) 0.9502(2) 0.6470(2)
O4 O 0.7785(2) 0.8666(2) 0.5600(1)
N1 N 0.8384(2) 0.5997(2) 0.6998(1)
O5 O 0.8811(2) 0.5909(1) 0.8263(1)
C12 C 0.9859(3) 0.7331(2) 0.9131(2)
C13 C 1.0218(3) 0.7280(3) 1.0465(2)
O6 O 1.0403(2) 0.8409(2) 0.8820(1)
C14 C 0.7750(2) 0.4556(2) 0.6142(2)
C15 C 0.7474(2) 0.2954(2) 0.6381(2)
C16 C 0.5963(3) 0.2731(3) 0.6915(2)
H1 H 0.6239(25) 0.4283(24) 0.0388(18)
H2 H 0.4038(26) 0.1945(24) -0.0890(19)
H3 H 0.2844(26) 0.0418(25) 0.0173(19)
H4 H 0.3737(26) 0.1044(24) 0.2451(18)
H5 H 1.0539(26) 1.0590(27) 0.6870(19)
H6 H 1.1474(28) 0.9492(25) 0.5952(20)
H7 H 1.1201(26) 0.9255(25) 0.7193(20)
H8 H 1.0675(26) 0.8404(26) 1.1120(19)
H9 H 1.1047(27) 0.6590(25) 1.0554(19)
H10 H 0.9300(8) 0.6894(26) 1.0701(19)
H11 H 0.8478(25) 0.2969(23) 0.7005(18)
H12 H 0.7304(24) 0.2064(24) 0.5564(18)
H13 H 0.5900(27) 0.1724(27) 0.7070(19)
H14 H 0.4984(28) 0.2639(26) 0.6283(20)
H15 H 0.6031(27) 0.3645(26) 0.7763(20)
#END
