
#######################################################################
#
#                 Cambridge Crystallographic Data Centre
#                                CCDC
#
#######################################################################
#
# If this CIF has been generated from an entry in the Cambridge
# Structural Database, then it will include bibliographic, chemical,
# crystal, experimental, refinement or atomic coordinate data resulting
# from the CCDC's data processing and validation procedures.
#
#######################################################################

data_CSD_CIF_VOTXOR
_audit_creation_date 1992-11-16
_audit_creation_method CSD-ConQuest-V1
_database_code_CSD VOTXOR
_chemical_formula_sum 'C18 H11 N1 O4'
_chemical_formula_moiety
;
C18 H11 N1 O4
;
_journal_coden_Cambridge 24
_journal_volume 33
_journal_year 1992
_journal_page_first 997
_journal_name_full 'Tetrahedron Lett. '
loop_
_publ_author_name
"R.B.Gammill"
"S.A.Nash"
"L.T.Bell"
"W.Watt"
_chemical_name_systematic
;
3-(3-Phenyl-5-oxoisoxazol-4-yl)-chromone
;
_chemical_melting_point 477.15
_cell_volume   1377.290
_exptl_crystal_density_diffrn 1.47
_exptl_special_details
;
Melting point range 477.15-483.15K
Dm given 1.41, we calculate 1.47

;
_diffrn_ambient_temperature 123.15
#These two values have been output from a single CSD field.
_refine_ls_R_factor_gt 0.038
_refine_ls_wR_factor_gt 0.038
_symmetry_cell_setting monoclinic
_symmetry_space_group_name_H-M 'P 21/c'
_symmetry_Int_Tables_number 14
loop_
_symmetry_equiv_pos_site_id
_symmetry_equiv_pos_as_xyz
1 x,y,z
2 -x,1/2+y,1/2-z
3 -x,-y,-z
4 x,-1/2-y,-1/2+z
_cell_length_a 9.616(1)
_cell_length_b 19.467(2)
_cell_length_c 7.387(1)
_cell_angle_alpha 90
_cell_angle_beta 95.12(1)
_cell_angle_gamma 90
_cell_formula_units_Z 4
loop_
_atom_type_symbol
_atom_type_radius_bond
C 0.68
H 0.23
N 0.68
O 0.68
loop_
_atom_site_label
_atom_site_type_symbol
_atom_site_fract_x
_atom_site_fract_y
_atom_site_fract_z
O1 O 0.4858(1) 0.4575(1) 0.3075(1)
C1 C 0.4287(1) 0.3945(1) 0.3234(2)
C2 C 0.3060(1) 0.3738(1) 0.2395(2)
C3 C 0.2234(1) 0.4211(1) 0.1203(2)
O2 O 0.1120(1) 0.4042(1) 0.0348(1)
C4 C 0.2835(1) 0.4898(1) 0.1081(2)
C5 C 0.2156(2) 0.5410(1) -0.0013(2)
C6 C 0.2786(2) 0.6039(1) -0.0196(2)
C7 C 0.4098(2) 0.6171(1) 0.0701(2)
C8 C 0.4780(2) 0.5682(1) 0.1797(2)
C9 C 0.4130(1) 0.5049(1) 0.1977(2)
O3 O 0.2727(1) 0.1855(1) 0.2533(1)
N1 N 0.1421(1) 0.2064(1) 0.3081(2)
C10 C 0.1421(1) 0.2762(1) 0.3221(2)
C11 C 0.2613(1) 0.3023(1) 0.2620(2)
C12 C 0.3466(1) 0.2451(1) 0.2167(2)
O4 O 0.4587(1) 0.2400(1) 0.1545(1)
C13 C 0.0198(1) 0.3093(1) 0.3904(2)
C14 C -0.1052(2) 0.2731(1) 0.3952(2)
C15 C -0.2187(2) 0.3033(1) 0.4669(2)
C16 C -0.2086(2) 0.3698(1) 0.5339(2)
C17 C 0.0287(2) 0.3763(1) 0.4584(2)
C18 C -0.0850(2) 0.4062(1) 0.5294(2)
H1 H 0.4896(16) 0.3655(8) 0.4048(21)
H2 H 0.1266(16) 0.5307(8) -0.0664(22)
H3 H 0.2312(18) 0.6406(9) -0.0961(24)
H4 H 0.4519(17) 0.6591(9) 0.0528(22)
H5 H 0.5698(18) 0.5762(8) 0.2398(23)
H6 H 0.1189(16) 0.1776(8) 0.4024(21)
H7 H -0.1090(16) 0.2277(8) 0.3489(22)
H8 H -0.3064(17) 0.2776(8) 0.4713(23)
H9 H -0.2883(17) 0.3905(8) 0.5884(23)
H10 H 0.1171(17) 0.4006(8) 0.4663(22)
H11 H -0.0742(17) 0.4518(9) 0.5814(23)
#END
