
#######################################################################
#
#                 Cambridge Crystallographic Data Centre
#                                CCDC
#
#######################################################################
#
# If this CIF has been generated from an entry in the Cambridge
# Structural Database, then it will include bibliographic, chemical,
# crystal, experimental, refinement or atomic coordinate data resulting
# from the CCDC's data processing and validation procedures.
#
#######################################################################

data_CSD_CIF_VOXFAP
_audit_creation_date 1992-10-19
_audit_creation_method CSD-ConQuest-V1
_database_code_CSD VOXFAP
_chemical_formula_sum 'C17 H17 N3 O2'
_chemical_formula_moiety
;
C17 H17 N3 O2
;
_journal_coeditor_code "IUCr LI0105"
_journal_coden_Cambridge 591
_journal_volume 48
_journal_year 1992
_journal_page_first 1048
_journal_name_full 'Acta Crystallogr.,Sect.C:Cryst.Struct.Commun. '
loop_
_publ_author_name
"V.Priya"
"N.Shamala"
"M.A.Viswamitra"
"U.P.Senthil Kumar"
"R.Jeyaraman"
_chemical_name_systematic
;
N-Nitroso-r-2,c-7-diphenylhexahydro-1,4-diazepin-5-one
;
_cell_volume   1473.020
_exptl_crystal_colour 'colorless'
_exptl_crystal_density_diffrn 1.32
_diffrn_ambient_temperature ?
_diffrn_special_details
;
The study was carried out at room temperature,in the range 283-303K

;
#These two values have been output from a single CSD field.
_refine_ls_R_factor_gt 0.031
_refine_ls_wR_factor_gt 0.031
_symmetry_cell_setting orthorhombic
_symmetry_space_group_name_H-M 'P 21 21 21'
_symmetry_Int_Tables_number 19
loop_
_symmetry_equiv_pos_site_id
_symmetry_equiv_pos_as_xyz
1 x,y,z
2 1/2+x,1/2-y,-z
3 -x,1/2+y,1/2-z
4 1/2-x,-y,1/2+z
_cell_length_a 7.659(1)
_cell_length_b 12.741(1)
_cell_length_c 15.095(1)
_cell_angle_alpha 90
_cell_angle_beta 90
_cell_angle_gamma 90
_cell_formula_units_Z 4
loop_
_atom_type_symbol
_atom_type_radius_bond
C 0.68
H 0.23
N 0.68
O 0.68
loop_
_atom_site_label
_atom_site_type_symbol
_atom_site_fract_x
_atom_site_fract_y
_atom_site_fract_z
N1 N -0.0576(2) 0.2385(1) 0.2735(1)
C1 C 0.1221(3) 0.2137(2) 0.2450(1)
C2 C 0.2181(3) 0.1481(2) 0.3141(1)
N2 N 0.2056(3) 0.1940(2) 0.4023(1)
C3 C 0.0577(3) 0.1918(2) 0.4493(1)
O1 O 0.0418(2) 0.2388(1) 0.5204(1)
C4 C -0.0879(4) 0.1267(3) 0.4112(2)
C5 C -0.1766(3) 0.1764(2) 0.3301(1)
C6 C 0.1345(3) 0.1657(2) 0.1527(1)
C7 C 0.2172(4) 0.2218(2) 0.0863(2)
C8 C 0.2436(5) 0.1777(3) 0.0036(2)
C9 C 0.1819(5) 0.0780(3) -0.0135(2)
C10 C 0.0987(4) 0.0221(3) 0.0515(2)
C11 C 0.0753(4) 0.0654(2) 0.1351(2)
C12 C -0.2844(3) 0.0975(2) 0.2763(1)
C13 C -0.3499(3) 0.0071(2) 0.3148(2)
C14 C -0.4525(4) -0.0620(2) 0.2663(2)
C15 C -0.4905(4) -0.0416(2) 0.1788(2)
C16 C -0.4299(4) 0.0491(3) 0.1409(2)
C17 C -0.3276(4) 0.1179(2) 0.1888(2)
N3 N -0.1305(3) 0.3284(1) 0.2480(1)
O2 O -0.0431(3) 0.3816(1) 0.1963(1)
H1 H 0.1727(34) 0.2769(20) 0.2424(17)
H2 H 0.3440(35) 0.1444(19) 0.2959(16)
H3 H 0.1726(36) 0.0755(22) 0.3149(17)
H4 H 0.3026(40) 0.2322(22) 0.4270(19)
H5 H -0.0353(34) 0.0572(21) 0.3988(17)
H6 H -0.1779(35) 0.1180(21) 0.4589(18)
H7 H -0.2590(38) 0.2318(21) 0.3528(16)
H8 H 0.2637(48) 0.2934(27) 0.098(2)
H9 H 0.2956(47) 0.2224(26) -0.0485(25)
H10 H 0.1985(38) 0.0556(24) -0.0715(22)
H11 H 0.0581(44) -0.0498(25) 0.0410(22)
H12 H 0.0177(37) 0.0258(21) 0.1788(19)
H13 H -0.3342(40) -0.0068(25) 0.3747(21)
H14 H -0.4849(51) -0.127(3) 0.2945(24)
H15 H -0.5609(51) -0.0887(28) 0.1419(22)
H16 H -0.4504(37) 0.0623(22) 0.0775(20)
H17 H -0.2850(46) 0.1763(28) 0.1652(22)
#END
