
#######################################################################
#
#                 Cambridge Crystallographic Data Centre
#                                CCDC
#
#######################################################################
#
# If this CIF has been generated from an entry in the Cambridge
# Structural Database, then it will include bibliographic, chemical,
# crystal, experimental, refinement or atomic coordinate data resulting
# from the CCDC's data processing and validation procedures.
#
#######################################################################

data_CSD_CIF_VOXFOD
_audit_creation_date 1992-10-19
_audit_creation_method CSD-ConQuest-V1
_database_code_CSD VOXFOD
_chemical_formula_sum 'C22 H21 N3 O2'
_chemical_formula_moiety
;
C22 H21 N3 O2
;
_journal_coeditor_code "IUCr AS0547"
_journal_coden_Cambridge 591
_journal_volume 48
_journal_year 1992
_journal_page_first 1051
_journal_name_full 'Acta Crystallogr.,Sect.C:Cryst.Struct.Commun. '
loop_
_publ_author_name
"K.Yamaguchi"
"G.Matsumura"
"M.Tanno"
"S.Sueyoshi"
"N.Miyata"
_chemical_name_systematic
;
3,3-Dibenzyl-1(E)-nitroso-1-(2-tolyl)urea
;
_cell_volume   1003.283
_exptl_crystal_density_diffrn 1.19
_exptl_special_details
;
antitumour agent
unstable at room temperature

;
_diffrn_ambient_temperature ?
_diffrn_special_details
;
The study was carried out at room temperature,in the range 283-303K

;
#These two values have been output from a single CSD field.
_refine_ls_R_factor_gt 0.04
_refine_ls_wR_factor_gt 0.04
_symmetry_cell_setting monoclinic
_symmetry_space_group_name_H-M 'P 21'
_symmetry_Int_Tables_number 4
loop_
_symmetry_equiv_pos_site_id
_symmetry_equiv_pos_as_xyz
1 x,y,z
2 -x,1/2+y,-z
_cell_length_a 12.639(1)
_cell_length_b 10.185(1)
_cell_length_c 7.851(4)
_cell_angle_alpha 90
_cell_angle_beta 96.92(1)
_cell_angle_gamma 90
_cell_formula_units_Z 2
loop_
_atom_type_symbol
_atom_type_radius_bond
C 0.68
H 0.23
N 0.68
O 0.68
loop_
_atom_site_label
_atom_site_type_symbol
_atom_site_fract_x
_atom_site_fract_y
_atom_site_fract_z
N1 N 0.2332(2) 0.4962(5) 0.9171(4)
C1 C 0.3483(3) 0.4965(5) 0.9296(5)
O1 O 0.3954(2) 0.40020 0.9918(4)
N2 N 0.3932(2) 0.6035(4) 0.8736(4)
N3 N 0.1813(3) 0.5327(5) 0.7648(4)
O2 O 0.0843(2) 0.5175(5) 0.7519(4)
C2 C 0.1809(3) 0.4340(5) 1.0492(5)
C3 C 0.1458(3) 0.3045(6) 1.0307(6)
C4 C 0.0959(4) 0.2521(7) 1.1630(8)
C5 C 0.0824(4) 0.3245(8) 1.3057(8)
C6 C 0.1169(5) 0.4509(9) 1.3219(7)
C7 C 0.1657(4) 0.5088(7) 1.1906(6)
C8 C 0.1582(10) 0.2250(8) 0.8740(14)
C9 C 0.3400(4) 0.7323(5) 0.8383(8)
C10 C 0.2892(3) 0.7847(5) 0.9883(6)
C11 C 0.3449(4) 0.7887(6) 1.1501(7)
C12 C 0.2954(5) 0.8383(7) 1.2854(9)
C13 C 0.1915(6) 0.8832(7) 1.2572(13)
C14 C 0.1378(5) 0.8794(7) 1.0984(12)
C15 C 0.1862(4) 0.8310(6) 0.9643(9)
C16 C 0.5086(3) 0.6003(6) 0.8621(5)
C17 C 0.5336(3) 0.6051(5) 0.6792(5)
C18 C 0.4763(3) 0.5319(6) 0.5501(6)
C19 C 0.5076(5) 0.5287(8) 0.3870(6)
C20 C 0.5951(5) 0.5978(8) 0.3510(7)
C21 C 0.6515(4) 0.6722(8) 0.4773(7)
C22 C 0.6201(3) 0.6762(6) 0.6413(6)
H1 H 0.070(4) 0.148(6) 1.159(7)
H2 H 0.045(4) 0.279(6) 1.399(6)
H3 H 0.106(4) 0.508(7) 1.421(7)
H4 H 0.197(4) 0.606(6) 1.206(6)
H5 H 0.177(5) 0.276(8) 0.750(8)
H6 H 0.207(6) 0.19(1) 0.910(12)
H7 H 0.130(5) 0.119(7) 0.894(8)
H8 H 0.286(4) 0.719(5) 0.730(7)
H9 H 0.392(4) 0.792(6) 0.799(7)
H10 H 0.427(4) 0.763(6) 1.168(6)
H11 H 0.340(4) 0.822(6) 1.403(7)
H12 H 0.157(4) 0.917(6) 1.353(8)
H13 H 0.060(5) 0.909(7) 1.077(7)
H14 H 0.145(5) 0.832(6) 0.848(8)
H15 H 0.543(4) 0.678(6) 0.931(6)
H16 H 0.540(3) 0.517(6) 0.924(6)
H17 H 0.396(4) 0.494(6) 0.586(6)
H18 H 0.468(4) 0.480(6) 0.294(7)
H19 H 0.607(4) 0.596(6) 0.210(7)
H20 H 0.727(4) 0.733(6) 0.449(6)
H21 H 0.669(4) 0.722(5) 0.749(7)
#END
