
#######################################################################
#
#                 Cambridge Crystallographic Data Centre
#                                CCDC
#
#######################################################################
#
# If this CIF has been generated from an entry in the Cambridge
# Structural Database, then it will include bibliographic, chemical,
# crystal, experimental, refinement or atomic coordinate data resulting
# from the CCDC's data processing and validation procedures.
#
#######################################################################

data_CSD_CIF_VOXPIH
_audit_creation_date 1992-12-10
_audit_creation_method CSD-ConQuest-V1
_database_code_CSD VOXPIH
_chemical_formula_sum 'C13 H10 N2 O3'
_chemical_formula_moiety
;
C13 H10 N2 O3
;
_journal_coeditor_code "IUCr HH0519"
_journal_coden_Cambridge 591
_journal_volume 48
_journal_year 1992
_journal_page_first 1143
_journal_name_full 'Acta Crystallogr.,Sect.C:Cryst.Struct.Commun. '
loop_
_publ_author_name
"Guan-Yeow Yeap"
"Choong-Leong Gan"
"Hoong-Kun Fun"
"O.B.Shawkataly"
"Siang-Guan Teoh"
_chemical_name_systematic
;
2-((3-Nitrophenylimino)methyl)phenol
;
_cell_volume   1128.097
_exptl_crystal_density_diffrn 1.426
_diffrn_ambient_temperature ?
_diffrn_special_details
;
The study was carried out at room temperature,in the range 283-303K

;
#These two values have been output from a single CSD field.
_refine_ls_R_factor_gt 0.0731
_refine_ls_wR_factor_gt 0.0731
_symmetry_cell_setting orthorhombic
_symmetry_space_group_name_H-M 'P c a 21'
_symmetry_Int_Tables_number 29
loop_
_symmetry_equiv_pos_site_id
_symmetry_equiv_pos_as_xyz
1 x,y,z
2 1/2-x,y,1/2+z
3 1/2+x,-y,z
4 -x,-y,1/2+z
_cell_length_a 26.579(2)
_cell_length_b 3.946(4)
_cell_length_c 10.756(2)
_cell_angle_alpha 90
_cell_angle_beta 90
_cell_angle_gamma 90
_cell_formula_units_Z 4
loop_
_atom_type_symbol
_atom_type_radius_bond
C 0.68
H 0.23
N 0.68
O 0.68
loop_
_atom_site_label
_atom_site_type_symbol
_atom_site_fract_x
_atom_site_fract_y
_atom_site_fract_z
C1 C 0.4670(2) 0.2620(13) 0.28470
C2 C 0.4512(2) 0.1049(14) 0.3954(7)
C3 C 0.4019(3) 0.0011(16) 0.4086(7)
C4 C 0.3666(3) 0.0661(16) 0.3159(8)
C5 C 0.3813(2) 0.2284(15) 0.2080(8)
C6 C 0.4314(2) 0.3208(15) 0.1922(7)
O1 O 0.4839(2) 0.0417(14) 0.4891(6)
C7 C 0.5187(2) 0.3621(14) 0.2634(7)
N1 N 0.5535(2) 0.3216(12) 0.3445(7)
C8 C 0.6043(2) 0.4213(14) 0.3189(7)
C9 C 0.6406(2) 0.3239(15) 0.4060(7)
C10 C 0.6898(2) 0.4046(17) 0.3829(8)
C11 C 0.7058(2) 0.5768(17) 0.2776(8)
C12 C 0.6696(3) 0.6775(17) 0.1936(8)
C13 C 0.6200(3) 0.5993(15) 0.2115(8)
N2 N 0.7286(3) 0.2883(18) 0.4742(7)
O2 O 0.7727(3) 0.3593(20) 0.4521(8)
O3 O 0.7138(2) 0.1331(18) 0.5652(7)
H1 H 0.3917(3) -0.1167(16) 0.4825(7)
H2 H 0.3322(3) -0.0025(16) 0.3270(8)
H3 H 0.3569(2) 0.2773(15) 0.1446(8)
H4 H 0.4417(2) 0.4275(15) 0.1161(7)
H5 H 0.5220(36) 0.093(26) 0.4706(94)
H6 H 0.5274(2) 0.4624(14) 0.1850(7)
H7 H 0.6311(2) 0.2039(15) 0.4800(7)
H8 H 0.7408(2) 0.6241(17) 0.2636(8)
H9 H 0.6792(3) 0.8046(17) 0.1213(8)
H10 H 0.5956(3) 0.6659(15) 0.1505(8)
#END
