
#######################################################################
#
#                 Cambridge Crystallographic Data Centre
#                                CCDC
#
#######################################################################
#
# If this CIF has been generated from an entry in the Cambridge
# Structural Database, then it will include bibliographic, chemical,
# crystal, experimental, refinement or atomic coordinate data resulting
# from the CCDC's data processing and validation procedures.
#
#######################################################################

data_CSD_CIF_VOZHAT
_audit_creation_date 1993-01-14
_audit_creation_method CSD-ConQuest-V1
_database_code_CSD VOZHAT
_chemical_formula_sum 'C9 H10 N4 O5'
_chemical_formula_moiety
;
C9 H10 N4 O5
;
_journal_coden_Cambridge 1135
_journal_year 1992
_journal_page_first 52
_journal_name_full 'Mendeleev Commun. '
loop_
_publ_author_name
"O.A.Luk'yanov"
"Yu.B.Salamonov"
"Yu.T.Struchkov"
"Yu.N.Burtsev"
"V.S.Kuz'min"
_chemical_name_systematic
;
2-(2-Nitrophenylazoxy)-2-nitropropane
;
_cell_volume   1133.602
_exptl_crystal_density_diffrn 1.49
_diffrn_ambient_temperature ?
_diffrn_special_details
;
The study was carried out at room temperature,in the range 283-303K

;
#These two values have been output from a single CSD field.
_refine_ls_R_factor_gt 0.052
_refine_ls_wR_factor_gt 0.052
_symmetry_cell_setting monoclinic
_symmetry_space_group_name_H-M 'P 21/n'
_symmetry_Int_Tables_number 14
loop_
_symmetry_equiv_pos_site_id
_symmetry_equiv_pos_as_xyz
1 x,y,z
2 1/2-x,1/2+y,1/2-z
3 -x,-y,-z
4 -1/2+x,-1/2-y,-1/2+z
_cell_length_a 11.358(3)
_cell_length_b 6.228(3)
_cell_length_c 16.179(2)
_cell_angle_alpha 90
_cell_angle_beta 97.9(5)
_cell_angle_gamma 90
_cell_formula_units_Z 4
loop_
_atom_type_symbol
_atom_type_radius_bond
C 0.68
H 0.23
N 0.68
O 0.68
loop_
_atom_site_label
_atom_site_type_symbol
_atom_site_fract_x
_atom_site_fract_y
_atom_site_fract_z
N1 N 0.00522 0.0640(4) 0.7438(2)
N2 N -0.0404(3) -0.3429(6) 0.8388(2)
C1 C -0.0908(3) -0.1645(6) 0.8814(2)
C2 C 0.0358(3) 0.1580(6) 0.6631(2)
N3 N 0.0744(3) -0.0427(6) 0.6175(2)
C3 C -0.1227(3) 0.0266(6) 0.8401(2)
O1 O 0.0902(2) -0.0248(4) 0.7888(1)
N4 N -0.1001(2) 0.0917(4) 0.7586(2)
C4 C -0.1831(3) 0.1789(6) 0.8803(2)
O2 O 0.0319(2) -0.4604(4) 0.8793(2)
C5 C -0.1696(3) -0.0442(8) 1.0018(2)
C6 C -0.1133(3) -0.2019(6) 0.9621(2)
O3 O -0.0771(2) -0.3675(4) 0.7643(2)
C7 C -0.2058(3) 0.1432(7) 0.9617(2)
O4 O 0.1702(2) -0.0377(5) 0.5932(2)
O5 O 0.0038(3) -0.1876(5) 0.6050(2)
C8 C 0.1374(3) 0.3116(6) 0.6841(2)
C9 C -0.0704(3) 0.2514(6) 0.6090(2)
H1 H -0.21210 0.32220 0.84950
H2 H -0.25040 0.25980 0.99240
H3 H -0.18540 -0.06770 1.06360
H4 H -0.08780 -0.34730 0.99250
H5 H -0.03540 0.29730 0.55720
H6 H -0.10290 0.38490 0.63520
H7 H 0.15910 0.36800 0.63690
H8 H 0.20450 0.23520 0.70860
H9 H -0.14170 0.14330 0.59900
H10 H 0.11010 0.43130 0.72290
#END
