
#######################################################################
#
#                 Cambridge Crystallographic Data Centre
#                                CCDC
#
#######################################################################
#
# If this CIF has been generated from an entry in the Cambridge
# Structural Database, then it will include bibliographic, chemical,
# crystal, experimental, refinement or atomic coordinate data resulting
# from the CCDC's data processing and validation procedures.
#
#######################################################################

data_CSD_CIF_VOZJOL
_audit_creation_date 2015-02-11
_audit_creation_method CSD-ConQuest-V1
_database_code_CSD VOZJOL
_database_code_depnum_ccdc_archive 'CCDC 934224'
_chemical_formula_sum 'C17 H13 N1 O4'
_chemical_formula_moiety
;
C17 H13 N1 O4
;
_journal_coden_Cambridge 1833
_journal_volume 10
_journal_year 2015
_journal_page_first 237
_journal_name_full 'J. Comput. Sci. '
loop_
_publ_author_name
"Diwaker"
"C.S.Chidan Kumar"
"A.Kumar"
"S.Chandraju"
"Ching Kheng Quah"
"Hoong-Kun Fun"
_chemical_name_systematic
;
5,6-dimethyl-2-(4-nitrobenzylidene)-1-benzofuran-3(2H)-one
;
_cell_volume   1435.624
_exptl_crystal_colour 'yellow'
_exptl_crystal_density_diffrn 1.366
_exptl_crystal_description 'block'
_diffrn_ambient_temperature 297
#These two values have been output from a single CSD field.
_refine_ls_R_factor_gt 0.0539
_refine_ls_wR_factor_gt 0.0539
_symmetry_cell_setting monoclinic
_symmetry_space_group_name_H-M 'P 21/c'
_symmetry_Int_Tables_number 14
loop_
_symmetry_equiv_pos_site_id
_symmetry_equiv_pos_as_xyz
1 x,y,z
2 -x,1/2+y,1/2-z
3 -x,-y,-z
4 x,-1/2-y,-1/2+z
_cell_length_a 7.5257(7)
_cell_length_b 15.9397(15)
_cell_length_c 13.5106(10)
_cell_angle_alpha 90
_cell_angle_beta 117.649(4)
_cell_angle_gamma 90
_cell_formula_units_Z 4
loop_
_atom_type_symbol
_atom_type_radius_bond
C 0.68
H 0.23
N 0.68
O 0.68
loop_
_atom_site_label
_atom_site_type_symbol
_atom_site_fract_x
_atom_site_fract_y
_atom_site_fract_z
O1 O 0.24002(14) -0.03805(6) 0.53927(7)
O2 O 0.2898(3) 0.12730(8) 0.72239(10)
O3 O 0.1785(3) 0.16755(11) 0.01325(10)
O4 O 0.2081(2) 0.03345(10) 0.01991(10)
N1 N 0.1983(2) 0.10068(9) 0.06054(10)
C1 C 0.25276(18) -0.07879(8) 0.63346(9)
C2 C 0.2431(2) -0.16389(9) 0.64271(11)
H1 H 0.22530 -0.19920 0.58410
C3 C 0.2608(2) -0.19600(9) 0.74290(12)
C4 C 0.2893(2) -0.14181(10) 0.83208(11)
C5 C 0.2940(2) -0.05611(9) 0.81819(10)
H2 H 0.30940 -0.01970 0.87540
C6 C 0.27543(19) -0.02479(8) 0.71761(9)
C7 C 0.2756(2) 0.05971(9) 0.67729(10)
C8 C 0.25628(19) 0.04649(8) 0.56301(10)
C9 C 0.2571(2) 0.10660(8) 0.49482(10)
H3 H 0.26760 0.16080 0.52240
C10 C 0.24413(18) 0.10122(8) 0.38388(9)
C11 C 0.2426(2) 0.17645(8) 0.33033(10)
H4 H 0.25090 0.22720 0.36630
C12 C 0.2290(2) 0.17651(9) 0.22462(10)
H5 H 0.22850 0.22650 0.18910
C13 C 0.2160(2) 0.10053(9) 0.17350(9)
C14 C 0.2175(2) 0.02516(9) 0.22313(11)
H6 H 0.20920 -0.02520 0.18640
C15 C 0.2319(2) 0.02576(9) 0.32919(10)
H7 H 0.23330 -0.02470 0.36410
C16 C 0.2486(4) -0.28926(11) 0.75421(19)
H8 H 0.22030 -0.31580 0.68470
H9 H 0.14360 -0.30200 0.77330
H10 H 0.37410 -0.30960 0.81190
C17 C 0.3128(3) -0.17567(14) 0.94128(14)
H11 H 0.33370 -0.13000 0.99190
H12 H 0.42600 -0.21290 0.97280
H13 H 0.19370 -0.20570 0.92890
#END
