
#######################################################################
#
#                 Cambridge Crystallographic Data Centre
#                                CCDC
#
#######################################################################
#
# If this CIF has been generated from an entry in the Cambridge
# Structural Database, then it will include bibliographic, chemical,
# crystal, experimental, refinement or atomic coordinate data resulting
# from the CCDC's data processing and validation procedures.
#
#######################################################################

data_CSD_CIF_VUBZUN
_audit_creation_date 1992-12-10
_audit_creation_method CSD-ConQuest-V1
_database_code_CSD VUBZUN
_chemical_formula_sum 'C3 H5 N3 O5'
_chemical_formula_moiety
;
C3 H5 N3 O5
;
_journal_coeditor_code "IUCr HH0586"
_journal_coden_Cambridge 591
_journal_volume 48
_journal_year 1992
_journal_page_first 1679
_journal_name_full 'Acta Crystallogr.,Sect.C:Cryst.Struct.Commun. '
loop_
_publ_author_name
"R.Gilardi"
"C.George"
"J.L.Flippen-Anderson"
_chemical_name_systematic
;
3-Nitrato-1-nitroazetidine
;
_cell_volume    651.916
_exptl_crystal_colour 'colorless'
_exptl_crystal_density_diffrn 1.662
_diffrn_ambient_temperature ?
_diffrn_special_details
;
The study was carried out at room temperature,in the range 283-303K

;
#These two values have been output from a single CSD field.
_refine_ls_R_factor_gt 0.03
_refine_ls_wR_factor_gt 0.03
_symmetry_cell_setting tetragonal
_symmetry_space_group_name_H-M 'P 41'
_symmetry_Int_Tables_number 76
loop_
_symmetry_equiv_pos_site_id
_symmetry_equiv_pos_as_xyz
1 x,y,z
2 -y,x,1/4+z
3 -x,-y,1/2+z
4 y,-x,3/4+z
_cell_length_a 10.646(1)
_cell_length_b 10.646(1)
_cell_length_c 5.752(2)
_cell_angle_alpha 90
_cell_angle_beta 90
_cell_angle_gamma 90
_cell_formula_units_Z 4
loop_
_atom_type_symbol
_atom_type_radius_bond
C 0.68
H 0.23
N 0.68
O 0.68
loop_
_atom_site_label
_atom_site_type_symbol
_atom_site_fract_x
_atom_site_fract_y
_atom_site_fract_z
N1 N 0.5029(3) 0.1861(3) 0.48510
N2 N 0.4262(3) 0.2477(4) 0.6353(10)
O1 O 0.4073(3) 0.1982(3) 0.8262(9)
O2 O 0.3785(3) 0.3467(3) 0.5657(9)
C1 C 0.5802(4) 0.2568(5) 0.3140(11)
C2 C 0.6853(4) 0.1611(4) 0.3617(11)
O3 O 0.6922(3) 0.0813(3) 0.1585(9)
N3 N 0.7812(4) -0.0169(4) 0.1873(12)
O4 O 0.7925(3) -0.0787(3) 0.0131(9)
O5 O 0.8305(3) -0.0275(3) 0.3741(9)
C3 C 0.6093(5) 0.1055(5) 0.5641(11)
H1 H 0.7701(44) 0.1910(41) 0.3996(96)
H2 H 0.6374(46) 0.1290(46) 0.7205(92)
H3 H 0.6043(45) 0.3405(46) 0.372(11)
H4 H 0.5445(45) 0.2559(46) 0.1597(98)
H5 H 0.5855(39) 0.0115(46) 0.5458(98)
#END
