
#######################################################################
#
#                 Cambridge Crystallographic Data Centre
#                                CCDC
#
#######################################################################
#
# If this CIF has been generated from an entry in the Cambridge
# Structural Database, then it will include bibliographic, chemical,
# crystal, experimental, refinement or atomic coordinate data resulting
# from the CCDC's data processing and validation procedures.
#
#######################################################################

data_CSD_CIF_VUCBAW
_audit_creation_date 1992-12-10
_audit_creation_method CSD-ConQuest-V1
_database_code_CSD VUCBAW
_chemical_formula_sum 'C4 H4 N4 O8'
_chemical_formula_moiety
;
C4 H4 N4 O8
;
_journal_coeditor_code "IUCr HH0587"
_journal_coden_Cambridge 591
_journal_volume 48
_journal_year 1992
_journal_page_first 1680
_journal_name_full 'Acta Crystallogr.,Sect.C:Cryst.Struct.Commun. '
loop_
_publ_author_name
"R.Gilardi"
"C.George"
"J.L.Flippen-Anderson"
_chemical_name_systematic
;
1,1,3,3-Tetranitrocyclobutane
;
_cell_volume    428.197
_exptl_crystal_colour 'colorless'
_exptl_crystal_density_diffrn 1.831
_diffrn_ambient_temperature ?
_diffrn_special_details
;
The study was carried out at room temperature,in the range 283-303K

;
#These two values have been output from a single CSD field.
_refine_ls_R_factor_gt 0.031
_refine_ls_wR_factor_gt 0.031
_symmetry_cell_setting triclinic
_symmetry_space_group_name_H-M 'P -1'
_symmetry_Int_Tables_number 2
loop_
_symmetry_equiv_pos_site_id
_symmetry_equiv_pos_as_xyz
1 x,y,z
2 -x,-y,-z
_cell_length_a 6.301(1)
_cell_length_b 7.858(1)
_cell_length_c 8.736(1)
_cell_angle_alpha 85.88(1)
_cell_angle_beta 84.62(1)
_cell_angle_gamma 85.13(1)
_cell_formula_units_Z 2
loop_
_atom_type_symbol
_atom_type_radius_bond
C 0.68
H 0.23
N 0.68
O 0.68
loop_
_atom_site_label
_atom_site_type_symbol
_atom_site_fract_x
_atom_site_fract_y
_atom_site_fract_z
C1 C -0.0511(8) -0.0170(8) 0.1225(8)
N1 N 0.0672(4) -0.0992(3) 0.2488(3)
O1 O 0.1752(6) -0.0129(5) 0.3126(4)
O2 O 0.0490(5) -0.2511(4) 0.2782(3)
N2 N -0.2694(4) 0.0473(3) 0.1912(4)
O3 O -0.3919(4) 0.1123(3) 0.0996(4)
O4 O -0.3080(16) 0.0335(18) 0.3316(12)
C2 C 0.0615(7) 0.1225(4) 0.0187(3)
C3 C -0.5234(8) -0.5095(9) 0.3838(8)
N3 N -0.3853(4) -0.4435(3) 0.2418(3)
O5 O -0.2455(16) -0.5421(17) 0.1925(12)
O6 O -0.4260(5) -0.2988(4) 0.1923(3)
N4 N -0.7089(4) -0.5808(3) 0.3179(3)
O7 O -0.8378(5) -0.6373(3) 0.4167(4)
O8 O -0.7164(5) -0.5803(5) 0.1823(4)
C4 C -0.4082(8) -0.6258(4) 0.4988(3)
H1 H 0.0062(79) 0.2182(73) -0.0034(46)
H2 H 0.2153(94) 0.1424(50) 0.0417(42)
H3 H -0.4419(72) -0.7394(64) 0.5123(46)
H4 H -0.2477(71) -0.6378(39) 0.4760(35)
C2A C -0.0615(7) -0.1225(4) -0.0187(3)
C1A C 0.0511(8) 0.0170(8) -0.1225(8)
H1A H -0.0062(79) -0.2182(73) 0.0034(46)
H2A H -0.2153(94) -0.1424(50) -0.0417(42)
N1A N -0.0672(4) 0.0992(3) -0.2488(3)
N2A N 0.2694(4) -0.0473(3) -0.1912(4)
O1A O -0.1752(6) 0.0129(5) -0.3126(4)
O2A O -0.0490(5) 0.2511(4) -0.2782(3)
O3A O 0.3919(4) -0.1123(3) -0.0996(4)
O4A O 0.3080(16) -0.0335(18) -0.3316(12)
C4A C -0.5918(8) -0.3742(4) 0.5012(3)
C3A C -0.4766(8) -0.4905(9) 0.6162(8)
H3A H -0.5581(72) -0.2606(64) 0.4877(46)
H4A H -0.7523(71) -0.3622(39) 0.5240(35)
N3A N -0.6147(4) -0.5565(3) 0.7582(3)
N4A N -0.2911(4) -0.4192(3) 0.6821(3)
O5A O -0.7545(16) -0.4579(17) 0.8075(12)
O6A O -0.5740(5) -0.7012(4) 0.8077(3)
O7A O -0.1622(5) -0.3627(3) 0.5833(4)
O8A O -0.2836(5) -0.4197(5) 0.8177(4)
#END
