
#######################################################################
#
#                 Cambridge Crystallographic Data Centre
#                                CCDC
#
#######################################################################
#
# If this CIF has been generated from an entry in the Cambridge
# Structural Database, then it will include bibliographic, chemical,
# crystal, experimental, refinement or atomic coordinate data resulting
# from the CCDC's data processing and validation procedures.
#
#######################################################################

data_CSD_CIF_VUCJAE
_audit_creation_date 1992-12-10
_audit_creation_method CSD-ConQuest-V1
_database_code_CSD VUCJAE
_chemical_formula_sum 'C14 H17 N1 O2'
_chemical_formula_moiety
;
C14 H17 N1 O2
;
_journal_coeditor_code "IUCr KA1012"
_journal_coden_Cambridge 591
_journal_volume 48
_journal_year 1992
_journal_page_first 1734
_journal_name_full 'Acta Crystallogr.,Sect.C:Cryst.Struct.Commun. '
loop_
_publ_author_name
"S.Ianelli"
"M.Nardelli"
"D.Belletti"
"B.Jamart-Gregoire"
"P.Caubere"
_chemical_name_systematic
;
cis-9a-Methoxy-1,2,3,4,4a,9a-hexahydrofluoren-9-one oxime
;
_chemical_melting_point 393.15
_cell_volume   1256.853
_exptl_crystal_colour 'colorless'
_exptl_crystal_density_diffrn 1.222
_exptl_special_details
;
may show beta-blocking adrenergic activity

;
_diffrn_ambient_temperature 293
_refine_special_details
;
The structure is disordered.

;
#These two values have been output from a single CSD field.
_refine_ls_R_factor_gt 0.0846
_refine_ls_wR_factor_gt 0.0846
_symmetry_cell_setting triclinic
_symmetry_space_group_name_H-M 'P -1'
_symmetry_Int_Tables_number 2
loop_
_symmetry_equiv_pos_site_id
_symmetry_equiv_pos_as_xyz
1 x,y,z
2 -x,-y,-z
_cell_length_a 13.474(2)
_cell_length_b 12.540(1)
_cell_length_c 7.632(1)
_cell_angle_alpha 101.78(1)
_cell_angle_beta 95.02(1)
_cell_angle_gamma 87.14(1)
_cell_formula_units_Z 4
loop_
_atom_type_symbol
_atom_type_radius_bond
C 0.70
H 0.23
N 0.68
O 0.68
loop_
_atom_site_label
_atom_site_type_symbol
_atom_site_fract_x
_atom_site_fract_y
_atom_site_fract_z
O1 O 0.9161(7) 0.0664(8) -0.1069(14)
O2 O 0.7675(7) 0.1067(10) 0.3842(14)
N1 N 0.9196(8) 0.0797(10) 0.0777(19)
C1 C 0.7757(10) 0.2171(13) 0.0741(22)
C2 C 0.8557(10) 0.1492(12) 0.1557(22)
C3 C 0.8440(11) 0.1697(13) 0.3528(22)
C4 C 0.7947(13) 0.2883(16) 0.3842(22)
C5 C 0.7366(11) 0.2891(14) 0.2116(25)
C6 C 0.6554(13) 0.3651(14) 0.1764(27)
C7 C 0.6186(13) 0.3485(16) -0.0063(32)
C8 C 0.6561(14) 0.2779(17) -0.1423(28)
C9 C 0.7387(12) 0.2020(15) -0.1084(23)
C10 C 0.9393(13) 0.1593(16) 0.4716(23)
C11 C 1.0081(12) 0.2506(20) 0.5009(26)
C12 C 0.9550(14) 0.3637(19) 0.5680(25)
C13 C 0.8692(14) 0.3767(16) 0.4249(27)
C14 C 0.7884(12) -0.0099(15) 0.3564(25)
O3 O -0.4083(7) -0.5184(9) -0.3584(15)
O4 O -0.2824(10) -0.2603(14) -0.5666(27)
N2 N -0.4221(9) -0.4178(12) -0.4182(18)
C15 C -0.2662(11) -0.3496(16) -0.2220(21)
C16 C -0.3553(11) -0.3511(15) -0.3507(22)
C17 C -0.3576(15) -0.2343(15) -0.4043(28)
C18 C -0.2898(13) -0.1692(16) -0.2724(28)
C19 C -0.2289(12) -0.2507(16) -0.1854(20)
C20 C -0.1413(12) -0.2256(14) -0.0666(25)
C21 C -0.0938(13) -0.3221(21) -0.0093(28)
C22 C -0.1334(14) -0.4172(19) -0.0472(28)
C23 C -0.2193(13) -0.4436(13) -0.1566(25)
C24 C -0.4389(21) -0.2056(26) -0.5088(44)
C25 C -0.5044(17) -0.136(3) -0.3225(42)
C26 C -0.4446(26) -0.0370(24) -0.2287(42)
C27 C -0.3457(18) -0.0865(21) -0.1248(29)
C28 C -0.3134(21) -0.3243(25) -0.7321(33)
H1 H 0.9636(25) 0.0161(36) -0.1640(49)
H2 H -0.4581(25) -0.5683(36) -0.4075(49)
H3 H 0.7452(25) 0.2985(36) 0.4909(49)
H4 H 0.6261(23) 0.4278(32) 0.2797(49)
H5 H 0.5542(25) 0.3976(34) -0.0390(51)
H6 H 0.6253(24) 0.2766(34) -0.2782(49)
H7 H 0.7685(22) 0.1405(32) -0.2129(43)
H8 H 0.9794(21) 0.0862(34) 0.4110(41)
H9 H 0.9182(21) 0.1509(34) 0.6013(41)
H10 H 1.0393(23) 0.2519(37) 0.3757(42)
H11 H 1.0672(23) 0.2376(37) 0.6000(42)
H12 H 1.0069(24) 0.4284(38) 0.5815(45)
H13 H 0.9257(24) 0.3658(38) 0.6959(45)
H14 H 0.8298(24) 0.4530(35) 0.4712(43)
H15 H 0.9019(24) 0.3795(35) 0.3017(43)
H16 H 0.7292(19) -0.0587(27) 0.3808(36)
H17 H 0.8527(19) -0.0236(27) 0.4450(36)
H18 H 0.8057(12) -0.0377(15) 0.2187(25)
H19 H -0.2421(31) -0.1256(42) -0.3380(53)
H20 H -0.1132(22) -0.1445(35) -0.0238(42)
H21 H -0.0225(22) -0.3137(35) 0.0679(42)
H22 H -0.0960(24) -0.4810(37) 0.0121(47)
H23 H -0.2487(23) -0.5245(34) -0.1904(43)
H24 H -0.4776(32) -0.2750(51) -0.5871(67)
H25 H -0.4209(32) -0.1527(51) -0.5960(67)
H26 H -0.5113(39) -0.1896(56) -0.2303(74)
H27 H -0.5778(39) -0.1097(56) -0.3693(74)
H28 H -0.4882(37) 0.0167(53) -0.1332(66)
H29 H -0.4223(37) 0.0069(53) -0.3259(66)
H30 H -0.2973(35) -0.0213(44) -0.0607(58)
H31 H -0.3683(35) -0.1283(44) -0.0250(58)
H32 H -0.2639(28) -0.3414(39) -0.8390(51)
H33 H -0.3794(28) -0.2841(39) -0.7825(51)
H34 H -0.3326(28) -0.4020(39) -0.7065(51)
#END
