
#######################################################################
#
#                 Cambridge Crystallographic Data Centre
#                                CCDC
#
#######################################################################
#
# If this CIF has been generated from an entry in the Cambridge
# Structural Database, then it will include bibliographic, chemical,
# crystal, experimental, refinement or atomic coordinate data resulting
# from the CCDC's data processing and validation procedures.
#
#######################################################################

data_CSD_CIF_VUCZEA
_audit_creation_date 2015-06-11
_audit_creation_method CSD-ConQuest-V1
_database_code_CSD VUCZEA
_database_code_depnum_ccdc_archive 'CCDC 1056087'
_chemical_formula_sum 'C27 H36 N3 O1'
_chemical_formula_moiety
;
C27 H36 N3 O1
;
_journal_coden_Cambridge 4
_journal_volume 137
_journal_year 2015
_journal_page_first 4642
_journal_name_full 'J.Am.Chem.Soc. '
loop_
_publ_author_name
"J.Park"
"Hayoung Song"
"Youngsuk Kim"
"Bit Eun"
"Yonghwi Kim"
"Dae Young Bae"
"Sungho Park"
"Young Min Rhee"
"Won Jong Kim"
"K.Kim"
"Eunsung Lee"
_chemical_name_systematic
;
1,3-bis(2,6-Di-isopropylphenyl)-2-nitrosylimidazol-2-yl radical
;
_cell_volume   5016.746
_exptl_crystal_colour 'yellow'
_exptl_crystal_density_diffrn 1.108
_exptl_special_details
;
Heat-sensitive

;
_exptl_crystal_description 'block'
_exptl_crystal_preparation 'toluene'
_diffrn_ambient_temperature 100
#These two values have been output from a single CSD field.
_refine_ls_R_factor_gt 0.137
_refine_ls_wR_factor_gt 0.137
_symmetry_cell_setting monoclinic
_symmetry_space_group_name_H-M 'P 21/c'
_symmetry_Int_Tables_number 14
loop_
_symmetry_equiv_pos_site_id
_symmetry_equiv_pos_as_xyz
1 x,y,z
2 -x,1/2+y,1/2-z
3 -x,-y,-z
4 x,-1/2-y,-1/2+z
_cell_length_a 19.1583(19)
_cell_length_b 13.2632(12)
_cell_length_c 20.363(2)
_cell_angle_alpha 90
_cell_angle_beta 104.173(3)
_cell_angle_gamma 90
_cell_formula_units_Z 8
loop_
_atom_type_symbol
_atom_type_radius_bond
C 0.68
H 0.23
N 0.68
O 0.68
loop_
_atom_site_label
_atom_site_type_symbol
_atom_site_fract_x
_atom_site_fract_y
_atom_site_fract_z
O1 O 0.0584(2) -0.0254(3) 0.2721(2)
N1 N 0.1125(2) 0.2259(3) 0.3010(2)
N2 N 0.0031(2) 0.1685(3) 0.2605(2)
N3 N 0.1046(2) 0.0471(3) 0.2937(2)
C1 C 0.0734(2) 0.1390(3) 0.2849(2)
C2 C 0.0666(3) 0.3082(3) 0.2881(2)
H1 H 0.08010 0.37690 0.29570
C3 C -0.0009(3) 0.2731(4) 0.2626(2)
H2 H -0.04330 0.31260 0.24870
C4 C 0.1877(2) 0.2293(3) 0.3367(2)
C5 C 0.2395(3) 0.2489(3) 0.2996(2)
C6 C 0.2046(3) 0.2165(4) 0.4065(2)
C7 C 0.3117(3) 0.2536(4) 0.3366(3)
H3 H 0.34850 0.26490 0.31360
C8 C 0.2770(3) 0.2240(4) 0.4410(3)
H4 H 0.29050 0.21660 0.48890
C9 C 0.3296(3) 0.2421(4) 0.4059(3)
H5 H 0.37860 0.24670 0.43010
C10 C 0.2180(3) 0.2614(4) 0.2231(2)
H6 H 0.17230 0.30110 0.21140
C11 C 0.2029(3) 0.1578(4) 0.1882(2)
H7 H 0.16690 0.12170 0.20610
H8 H 0.24750 0.11840 0.19690
H9 H 0.18460 0.16740 0.13920
C12 C 0.2739(3) 0.3181(4) 0.1954(3)
H10 H 0.28320 0.38400 0.21760
H11 H 0.25570 0.32770 0.14650
H12 H 0.31870 0.27910 0.20430
C13 C 0.1474(3) 0.1932(5) 0.4453(3)
H13 H 0.09950 0.19240 0.41180
C14 C 0.1601(4) 0.0875(6) 0.4771(4)
H14 H 0.12320 0.07310 0.50180
H15 H 0.20780 0.08470 0.50840
H16 H 0.15720 0.03710 0.44130
C15 C 0.1445(4) 0.2732(6) 0.4975(4)
H17 H 0.10740 0.25560 0.52110
H18 H 0.13300 0.33850 0.47490
H19 H 0.19140 0.27740 0.53020
C16 C -0.0604(2) 0.1078(3) 0.2353(2)
C17 C -0.0867(3) 0.1005(4) 0.1653(3)
C18 C -0.0964(3) 0.0683(4) 0.2816(3)
C19 C -0.1526(3) 0.0526(4) 0.1407(3)
H20 H -0.17160 0.04590 0.09330
C20 C -0.1627(3) 0.0212(4) 0.2543(3)
H21 H -0.18890 -0.00640 0.28410
C21 C -0.1908(3) 0.0141(4) 0.1853(3)
H22 H -0.23630 -0.01700 0.16810
C22 C -0.0445(3) 0.1409(4) 0.1163(3)
H23 H 0.00230 0.16800 0.14380
C23 C -0.0280(4) 0.0577(5) 0.0713(4)
H24 H -0.00180 0.00340 0.09950
H25 H 0.00160 0.08480 0.04240
H26 H -0.07310 0.03120 0.04290
C24 C -0.0852(4) 0.2282(5) 0.0734(3)
H27 H -0.09500 0.28130 0.10340
H28 H -0.13080 0.20300 0.04500
H29 H -0.05570 0.25570 0.04450
C25 C -0.0638(3) 0.0694(4) 0.3578(3)
H30 H -0.01930 0.11180 0.36660
C26 C -0.0419(4) -0.0372(5) 0.3844(3)
H31 H -0.00890 -0.06620 0.35950
H32 H -0.08490 -0.07970 0.37800
H33 H -0.01780 -0.03390 0.43280
C27 C -0.1153(3) 0.1161(5) 0.3970(3)
H34 H -0.12880 0.18420 0.37990
H35 H -0.09120 0.11930 0.44530
H36 H -0.15860 0.07430 0.39060
O2 O 0.4397(2) 1.1711(3) 0.2448(2)
N4 N 0.3885(2) 0.9181(3) 0.2248(2)
N5 N 0.4973(2) 0.9804(3) 0.2527(2)
N6 N 0.3934(2) 1.0967(3) 0.2306(2)
C28 C 0.4262(2) 1.0054(3) 0.2363(2)
C29 C 0.4360(3) 0.8370(3) 0.2317(3)
H37 H 0.42340 0.76780 0.22520
C30 C 0.5031(3) 0.8753(4) 0.2495(3)
H38 H 0.54660 0.83770 0.25830
C31 C 0.3112(3) 0.9110(4) 0.1983(3)
C32 C 0.2846(3) 0.9224(4) 0.1282(3)
C33 C 0.2671(3) 0.8943(4) 0.2429(3)
C34 C 0.2098(3) 0.9170(5) 0.1022(4)
H39 H 0.18970 0.92440 0.05500
C35 C 0.1930(3) 0.8893(4) 0.2143(4)
H40 H 0.16130 0.87760 0.24280
C36 C 0.1651(3) 0.9010(5) 0.1456(4)
H41 H 0.11450 0.89800 0.12760
C37 C 0.3326(3) 0.9410(5) 0.0805(3)
H42 H 0.38360 0.93640 0.10760
C38 C 0.3216(5) 1.0467(6) 0.0494(4)
H43 H 0.32880 1.09710 0.08570
H44 H 0.27260 1.05250 0.02070
H45 H 0.35640 1.05830 0.02210
C39 C 0.3219(4) 0.8601(6) 0.0245(3)
H46 H 0.32940 0.79310 0.04520
H47 H 0.35660 0.87120 -0.00310
H48 H 0.27290 0.86480 -0.00440
C40 C 0.2983(3) 0.8840(4) 0.3187(3)
H49 H 0.34550 0.84810 0.32580
C41 C 0.3125(4) 0.9880(4) 0.3520(3)
H50 H 0.34350 1.02720 0.32970
H51 H 0.33630 0.98000 0.40010
H52 H 0.26670 1.02350 0.34750
C42 C 0.2492(4) 0.8214(5) 0.3527(5)
H53 H 0.24080 0.75500 0.33110
H54 H 0.20310 0.85620 0.34760
H55 H 0.27240 0.81320 0.40090
C43 C 0.5604(2) 1.0425(4) 0.2674(3)
C44 C 0.5867(3) 1.0776(4) 0.2135(3)
C45 C 0.5967(3) 1.0575(4) 0.3353(3)
C46 C 0.6536(3) 1.1254(4) 0.2286(3)
H56 H 0.67330 1.14910 0.19290
C47 C 0.6633(3) 1.1064(4) 0.3478(3)
H57 H 0.68940 1.11760 0.39330
C48 C 0.6918(3) 1.1386(4) 0.2959(3)
H58 H 0.73780 1.17000 0.30570
C49 C 0.5438(3) 1.0670(4) 0.1407(3)
H59 H 0.49470 1.04270 0.14180
C50 C 0.5344(4) 1.1673(5) 0.1027(3)
H60 H 0.51270 1.21670 0.12750
H61 H 0.50300 1.15760 0.05730
H62 H 0.58150 1.19180 0.09880
C51 C 0.5767(5) 0.9881(6) 0.1031(3)
H63 H 0.58160 0.92420 0.12800
H64 H 0.62420 1.01090 0.09940
H65 H 0.54540 0.97830 0.05770
C52 C 0.5636(3) 1.0228(5) 0.3931(3)
H66 H 0.51670 0.98920 0.37220
C53 C 0.5484(6) 1.1110(7) 0.4339(6)
H67 H 0.51770 1.15960 0.40380
H68 H 0.59380 1.14340 0.45670
H69 H 0.52370 1.08730 0.46780
C54 C 0.6113(5) 0.9461(8) 0.4387(4)
H70 H 0.58860 0.92540 0.47470
H71 H 0.65830 0.97650 0.45890
H72 H 0.61790 0.88700 0.41190
#END
