
#######################################################################
#
#                 Cambridge Crystallographic Data Centre
#                                CCDC
#
#######################################################################
#
# If this CIF has been generated from an entry in the Cambridge
# Structural Database, then it will include bibliographic, chemical,
# crystal, experimental, refinement or atomic coordinate data resulting
# from the CCDC's data processing and validation procedures.
#
#######################################################################

data_CSD_CIF_VUFJIR
_audit_creation_date 2015-06-12
_audit_creation_method CSD-ConQuest-V1
_database_code_CSD VUFJIR
_database_code_depnum_ccdc_archive 'CCDC 1062118'
_chemical_formula_sum 'C20 H20 N4 O4'
_chemical_formula_moiety
;
C20 H20 N4 O4
;
_journal_coden_Cambridge 1475
_journal_volume 6
_journal_year 2015
_journal_page_first 4479
_journal_name_full 'Chemical Science '
loop_
_publ_author_name
"Jung-Woo Park"
"K.G.M.Kou"
"D.K.Kim"
"Vy M.Dong"
_chemical_name_systematic
;
1-(2,4-dinitrophenyl)-2-(2-phenyl-2-(prop-1-en-1-yl)cyclopentylidene)hydrazine
;
_cell_volume   1859.517
_exptl_crystal_colour 'orange'
_exptl_crystal_density_diffrn 1.359
_exptl_special_details
;
Absolute configuration

;
_exptl_crystal_description 'block'
_diffrn_ambient_temperature 125
#These two values have been output from a single CSD field.
_refine_ls_R_factor_gt 0.0327
_refine_ls_wR_factor_gt 0.0327
_symmetry_cell_setting triclinic
_symmetry_space_group_name_H-M 'P 1'
_symmetry_Int_Tables_number 1
loop_
_symmetry_equiv_pos_site_id
_symmetry_equiv_pos_as_xyz
1 x,y,z
_cell_length_a 7.9557(2)
_cell_length_b 14.9518(3)
_cell_length_c 16.2534(4)
_cell_angle_alpha 79.128(1)
_cell_angle_beta 79.662(1)
_cell_angle_gamma 82.819(1)
_cell_formula_units_Z 4
loop_
_atom_type_symbol
_atom_type_radius_bond
C 0.68
H 0.23
N 0.68
O 0.68
loop_
_atom_site_label
_atom_site_type_symbol
_atom_site_fract_x
_atom_site_fract_y
_atom_site_fract_z
O1 O 0.7312(2) 0.64113(11) 0.60382(11)
O2 O 0.6040(2) 0.66791(12) 0.49351(12)
O3 O 0.5782(3) 0.44333(14) 0.32903(12)
O4 O 0.7436(3) 0.31672(17) 0.34495(14)
N1 N 0.9243(2) 0.40667(13) 0.71711(11)
N2 N 0.8541(2) 0.47542(13) 0.65986(12)
H1 H 0.83670 0.53200 0.66980
N3 N 0.6854(2) 0.61570(13) 0.54322(13)
N4 N 0.6802(3) 0.38918(16) 0.36681(13)
C1 C 0.9518(3) 0.43235(15) 0.78398(14)
C2 C 1.0223(3) 0.36431(16) 0.85518(13)
C3 C 0.9558(3) 0.41512(19) 0.93040(15)
H2 H 0.83500 0.40420 0.95380
H3 H 1.02630 0.39460 0.97610
C4 C 0.9711(4) 0.5162(2) 0.89375(17)
H4 H 1.09070 0.53140 0.88780
H5 H 0.89510 0.55570 0.93010
C5 C 0.9144(3) 0.52721(17) 0.80702(16)
H6 H 0.79060 0.54790 0.81050
H7 H 0.98060 0.57180 0.76470
C6 C 0.9634(3) 0.26999(16) 0.86577(14)
H8 H 0.97780 0.24310 0.81620
C7 C 0.8933(3) 0.22112(19) 0.93791(16)
H9 H 0.87680 0.24730 0.98800
C8 C 0.8388(4) 0.1273(2) 0.9451(2)
H10 H 0.85780 0.11010 0.88860
H11 H 0.71670 0.12700 0.96910
H12 H 0.90630 0.08350 0.98210
C9 C 1.2198(3) 0.35257(15) 0.83287(14)
C10 C 1.2943(3) 0.32986(15) 0.75423(14)
H13 H 1.22330 0.32880 0.71330
C11 C 1.4683(3) 0.30893(16) 0.73461(14)
H14 H 1.51620 0.29410 0.68040
C12 C 1.5739(3) 0.30938(18) 0.79325(17)
H15 H 1.69390 0.29360 0.78020
C13 C 1.5032(3) 0.3329(2) 0.87099(17)
H16 H 1.57560 0.33460 0.91120
C14 C 1.3277(3) 0.35419(19) 0.89117(16)
H17 H 1.28060 0.37000 0.94510
C15 C 0.8125(3) 0.45574(15) 0.58902(13)
C16 C 0.7302(3) 0.52201(15) 0.53042(14)
C17 C 0.6869(3) 0.50019(16) 0.45791(14)
H18 H 0.63060 0.54520 0.41990
C18 C 0.7273(3) 0.41223(16) 0.44231(14)
C19 C 0.8110(3) 0.34497(16) 0.49708(15)
H19 H 0.83970 0.28500 0.48420
C20 C 0.8514(3) 0.36570(16) 0.56927(14)
H20 H 0.90630 0.31940 0.60680
O5 O 0.8479(2) 0.82847(11) 0.46808(10)
O6 O 0.7812(2) 0.84184(13) 0.34311(10)
O7 O 0.2088(2) 0.92887(13) 0.28825(10)
O8 O 0.0279(2) 0.99429(12) 0.37984(11)
N5 N 0.5543(2) 0.86753(12) 0.67954(11)
N6 N 0.6160(2) 0.85908(12) 0.59600(11)
H21 H 0.72460 0.84040 0.58060
N7 N 0.7411(2) 0.84740(12) 0.41872(11)
N8 N 0.1651(3) 0.95061(13) 0.35843(11)
C21 C 0.6641(3) 0.84214(14) 0.72985(13)
C22 C 0.6159(3) 0.84881(16) 0.82393(13)
C23 C 0.7925(3) 0.86496(18) 0.84269(15)
H22 H 0.81750 0.92930 0.82180
H23 H 0.79680 0.85010 0.90430
C24 C 0.9195(3) 0.79952(19) 0.79412(16)
H24 H 1.03700 0.81900 0.78340
H25 H 0.92100 0.73620 0.82610
C25 C 0.8503(3) 0.80627(16) 0.71058(14)
H26 H 0.91330 0.84880 0.66460
H27 H 0.86110 0.74550 0.69330
C26 C 0.4732(3) 0.92408(16) 0.83856(14)
H28 H 0.36750 0.91830 0.82140
C27 C 0.4799(3) 0.99677(16) 0.87257(14)
H29 H 0.58320 1.00220 0.89220
C28 C 0.3379(4) 1.07121(18) 0.88263(17)
H30 H 0.37860 1.12990 0.85340
H31 H 0.30080 1.07360 0.94310
H32 H 0.24110 1.05890 0.85800
C29 C 0.5580(3) 0.75616(16) 0.87275(14)
C30 C 0.4977(3) 0.69453(17) 0.83319(15)
H33 H 0.49240 0.70960 0.77420
C31 C 0.4450(3) 0.61109(19) 0.87831(16)
H34 H 0.40660 0.56950 0.84980
C32 C 0.4485(3) 0.58898(18) 0.96410(17)
H35 H 0.41180 0.53240 0.99510
C33 C 0.5059(4) 0.6498(2) 1.00471(16)
H36 H 0.50790 0.63500 1.06400
C34 C 0.5609(3) 0.73261(17) 0.95955(15)
H37 H 0.60070 0.77350 0.98830
C35 C 0.5088(3) 0.87965(14) 0.53832(13)
C36 C 0.5649(3) 0.87561(14) 0.45064(13)
C37 C 0.4527(3) 0.89815(14) 0.39181(13)
H38 H 0.49200 0.89520 0.33360
C38 C 0.2837(3) 0.92476(14) 0.41978(14)
C39 C 0.2223(3) 0.92925(14) 0.50512(13)
H39 H 0.10480 0.94780 0.52280
C40 C 0.3324(3) 0.90685(15) 0.56308(13)
H40 H 0.28990 0.90950 0.62110
O9 O 0.2518(2) 0.36337(11) 0.42389(11)
O10 O 0.3653(3) 0.33798(12) 0.53807(13)
O11 O 0.3941(3) 0.56756(14) 0.69445(13)
O12 O 0.2359(3) 0.69642(15) 0.67528(13)
N9 N 0.0146(2) 0.58814(13) 0.31938(11)
N10 N 0.1143(2) 0.52583(13) 0.36930(11)
H41 H 0.15400 0.47270 0.35430
N11 N 0.2889(2) 0.38928(13) 0.48592(12)
N12 N 0.2935(3) 0.62137(15) 0.65654(13)
C41 C 0.0094(3) 0.56688(15) 0.24778(13)
C42 C -0.1046(3) 0.62581(16) 0.18717(14)
C43 C -0.1361(4) 0.55338(18) 0.13800(16)
H42 H -0.22730 0.51560 0.17080
H43 H -0.17000 0.58230 0.08270
C44 C 0.0342(4) 0.49605(18) 0.12564(16)
H44 H 0.11650 0.52790 0.07980
H45 H 0.01960 0.43610 0.11170
C45 C 0.0955(4) 0.48416(17) 0.21220(16)
H46 H 0.05910 0.42720 0.24940
H47 H 0.22200 0.48290 0.20500
C46 C -0.2636(3) 0.67115(17) 0.23730(15)
H48 H -0.24390 0.71150 0.27260
C47 C -0.4228(3) 0.6601(2) 0.23649(16)
H49 H -0.44580 0.62050 0.20130
C48 C -0.5710(3) 0.7059(2) 0.28776(18)
H50 H -0.62540 0.75670 0.25090
H51 H -0.53070 0.72950 0.33230
H52 H -0.65470 0.66180 0.31380
C49 C -0.0028(3) 0.70241(15) 0.13141(13)
C50 C 0.0658(3) 0.76131(15) 0.17125(13)
H53 H 0.05410 0.75090 0.23140
C51 C 0.1507(3) 0.83479(16) 0.12434(14)
H54 H 0.19560 0.87450 0.15250
C52 C 0.1701(3) 0.85023(16) 0.03648(15)
H55 H 0.22860 0.90020 0.00420
C53 C 0.1034(3) 0.79222(17) -0.00370(14)
H56 H 0.11620 0.80250 -0.06390
C54 C 0.0182(3) 0.71927(16) 0.04325(14)
H57 H -0.02680 0.68000 0.01470
C55 C 0.1504(3) 0.54660(15) 0.44078(13)
C56 C 0.2401(3) 0.48310(14) 0.49794(13)
C57 C 0.2863(3) 0.50780(16) 0.56856(13)
H58 H 0.34850 0.46480 0.60560
C58 C 0.2403(3) 0.59542(16) 0.58382(14)
C59 C 0.1461(3) 0.65946(15) 0.53132(14)
H59 H 0.11240 0.71910 0.54430
C60 C 0.1025(3) 0.63575(15) 0.46109(13)
H60 H 0.03910 0.67960 0.42530
O13 O 0.1032(2) 0.17880(12) 0.54377(11)
O14 O 0.1657(2) 0.16694(14) 0.66931(11)
O15 O 0.7426(2) 0.10138(14) 0.72452(11)
O16 O 0.9174(2) 0.02022(12) 0.64242(11)
N13 N 0.4032(2) 0.13528(12) 0.33469(12)
N14 N 0.3389(3) 0.14523(12) 0.41758(12)
H61 H 0.23000 0.16380 0.43190
N15 N 0.2080(3) 0.16094(13) 0.59461(12)
N16 N 0.7828(3) 0.06910(14) 0.65885(12)
C61 C 0.2989(3) 0.16318(14) 0.28196(14)
C62 C 0.3485(3) 0.15777(15) 0.18790(14)
C63 C 0.1698(3) 0.15798(16) 0.16328(16)
H62 H 0.17280 0.17840 0.10150
H63 H 0.12880 0.09630 0.17940
C64 C 0.0546(3) 0.22583(17) 0.21352(17)
H64 H -0.06780 0.21540 0.21950
H65 H 0.07020 0.28970 0.18560
C65 C 0.1158(3) 0.20537(16) 0.30003(16)
H66 H 0.11140 0.26230 0.32350
H67 H 0.04390 0.16220 0.34090
C66 C 0.4277(3) 0.24527(15) 0.14124(14)
H68 H 0.42960 0.25890 0.08160
C67 C 0.4935(3) 0.30369(15) 0.17494(14)
H69 H 0.48550 0.29400 0.23490
C68 C 0.5799(3) 0.38431(17) 0.12432(16)
H70 H 0.57010 0.38910 0.06440
H71 H 0.70140 0.37650 0.13050
H72 H 0.52500 0.44010 0.14490
C69 C 0.4764(3) 0.07660(14) 0.16671(13)
C70 C 0.6385(3) 0.06474(16) 0.19099(14)
H73 H 0.66920 0.10730 0.22110
C71 C 0.7553(3) -0.00815(17) 0.17178(15)
H74 H 0.86430 -0.01580 0.18960
C72 C 0.7137(3) -0.06992(16) 0.12661(16)
H75 H 0.79320 -0.12020 0.11380
C73 C 0.5557(3) -0.05758(16) 0.10056(16)
H76 H 0.52730 -0.09910 0.06870
C74 C 0.4372(3) 0.01497(15) 0.12033(14)
H77 H 0.32870 0.02240 0.10200
C75 C 0.4441(3) 0.12635(14) 0.47652(14)
C76 C 0.3862(3) 0.13308(14) 0.56334(14)
C77 C 0.4966(3) 0.11530(15) 0.62276(14)
H78 H 0.45540 0.12110 0.68030
C78 C 0.6669(3) 0.08909(15) 0.59686(14)
C79 C 0.7295(3) 0.07957(15) 0.51262(15)
H79 H 0.84690 0.05980 0.49630
C80 C 0.6212(3) 0.09873(15) 0.45393(14)
H80 H 0.66540 0.09340 0.39660
#END
