
#######################################################################
#
#                 Cambridge Crystallographic Data Centre
#                                CCDC
#
#######################################################################
#
# If this CIF has been generated from an entry in the Cambridge
# Structural Database, then it will include bibliographic, chemical,
# crystal, experimental, refinement or atomic coordinate data resulting
# from the CCDC's data processing and validation procedures.
#
#######################################################################

data_CSD_CIF_VUHNAN
_audit_creation_date 1993-03-24
_audit_creation_method CSD-ConQuest-V1
_database_code_CSD VUHNAN
_chemical_formula_sum 'C18 H20 N2 O7'
_chemical_formula_moiety
;
C18 H20 N2 O7
;
_journal_coden_Cambridge 35
_journal_volume 57
_journal_year 1992
_journal_page_first 3956
_journal_name_full 'J.Org.Chem. '
loop_
_publ_author_name
"L.A.Paquette"
"J.F.P.Andrews"
"C.Vanucci"
"D.E.Lawthorn"
"J.T.Negri"
"R.D.Rogers"
_chemical_name_systematic
;
(+-)-(1R*,2S*,3R*,5S*)-Dihydrospiro(bicyclo(3.2.1)octane-2,2'(3H)-furan)-3-ol 
3,5-dinitrobenzoate
;
_chemical_melting_point 445.15
_cell_volume   1772.201
_exptl_crystal_colour 'colorless'
_exptl_crystal_density_diffrn 1.41
_exptl_special_details
;
Melting point range 445.15-446.15K

;
_diffrn_ambient_temperature ?
_diffrn_special_details
;
The study was carried out at room temperature,in the range 283-303K

;
#These two values have been output from a single CSD field.
_refine_ls_R_factor_gt 0.04
_refine_ls_wR_factor_gt 0.04
loop_
_citation_database_id_CSD
_citation_special_details
NADLOT "is a stereoisomer of this entry"
_symmetry_cell_setting orthorhombic
_symmetry_space_group_name_H-M 'P c a 21'
_symmetry_Int_Tables_number 29
loop_
_symmetry_equiv_pos_site_id
_symmetry_equiv_pos_as_xyz
1 x,y,z
2 1/2-x,y,1/2+z
3 1/2+x,-y,z
4 -x,-y,1/2+z
_cell_length_a 12.105(4)
_cell_length_b 14.630(5)
_cell_length_c 10.007(4)
_cell_angle_alpha 90
_cell_angle_beta 90
_cell_angle_gamma 90
_cell_formula_units_Z 4
loop_
_atom_type_symbol
_atom_type_radius_bond
C 0.68
H 0.23
N 0.68
O 0.68
loop_
_atom_site_label
_atom_site_type_symbol
_atom_site_fract_x
_atom_site_fract_y
_atom_site_fract_z
O1 O -0.1308(3) 0.6501(2) 0.6818(5)
O2 O 0.0007(3) 0.7991(2) 0.6420(6)
O3 O 0.1285(3) 0.8840(2) 0.75000
O4 O -0.3315(3) 1.0858(3) 0.4313(6)
O5 O -0.2887(4) 0.9462(3) 0.3898(7)
O6 O 0.0531(4) 1.2091(2) 0.7951(7)
O7 O -0.0830(4) 1.2717(3) 0.6912(7)
N1 N -0.2725(4) 1.0189(4) 0.4432(7)
N2 N -0.0256(4) 1.2063(3) 0.7212(7)
C1 C -0.2195(5) 0.6960(4) 0.7457(8)
C2 C -0.1936(5) 0.6928(4) 0.8915(8)
C3 C -0.0692(5) 0.7030(4) 0.8917(7)
C4 C -0.0321(4) 0.6579(3) 0.7603(7)
C5 C 0.0146(4) 0.5600(3) 0.7812(7)
C6 C 0.1319(5) 0.5613(4) 0.8383(8)
C7 C 0.2091(4) 0.5652(4) 0.7160(9)
C8 C 0.1317(5) 0.5675(4) 0.5941(9)
C9 C 0.0946(5) 0.6656(3) 0.5580(8)
C10 C 0.0529(4) 0.7132(3) 0.6822(7)
C11 C 0.0318(5) 0.5153(3) 0.6452(7)
C12 C 0.0458(4) 0.8765(3) 0.6848(6)
C13 C -0.0216(4) 0.9578(3) 0.6405(7)
C14 C -0.1138(4) 0.9488(3) 0.5594(7)
C15 C -0.1732(4) 1.0278(4) 0.5291(7)
C16 C -0.1468(4) 1.1117(4) 0.5800(7)
C17 C -0.0554(4) 1.1168(3) 0.6605(6)
C18 C 0.0091(4) 1.0421(3) 0.6909(7)
H1 H -0.22400 0.75700 0.71600
H2 H -0.28700 0.66600 0.72700
H3 H -0.21500 0.63600 0.93000
H4 H -0.22800 0.74200 0.93900
H5 H -0.03600 0.67300 0.96600
H6 H -0.04900 0.76600 0.89300
H7 H -0.03500 0.52700 0.83600
H8 H 0.14100 0.61500 0.89100
H9 H 0.14700 0.50900 0.89100
H10 H 0.25500 0.51300 0.71400
H11 H 0.25400 0.61900 0.71700
H12 H 0.16800 0.54200 0.51900
H13 H 0.03700 0.66200 0.49300
H14 H 0.15500 0.69900 0.52300
H15 H 0.11600 0.72100 0.73700
H16 H -0.03000 0.52700 0.58900
H17 H 0.04400 0.45100 0.65100
H18 H -0.13600 0.89100 0.52600
H19 H -0.19000 1.16400 0.55900
H20 H 0.07300 1.04900 0.74500
#END
