
#######################################################################
#
#                 Cambridge Crystallographic Data Centre
#                                CCDC
#
#######################################################################
#
# If this CIF has been generated from an entry in the Cambridge
# Structural Database, then it will include bibliographic, chemical,
# crystal, experimental, refinement or atomic coordinate data resulting
# from the CCDC's data processing and validation procedures.
#
#######################################################################

data_CSD_CIF_VUHPOD
_audit_creation_date 1993-03-24
_audit_creation_method CSD-ConQuest-V1
_database_code_CSD VUHPOD
_chemical_formula_sum 'C22 H26 N2 O8'
_chemical_formula_moiety
;
C22 H26 N2 O8
;
_journal_coden_Cambridge 35
_journal_volume 57
_journal_year 1992
_journal_page_first 3956
_journal_name_full 'J.Org.Chem. '
loop_
_publ_author_name
"L.A.Paquette"
"J.F.P.Andrews"
"C.Vanucci"
"D.E.Lawthorn"
"J.T.Negri"
"R.D.Rogers"
_chemical_name_systematic
;
(+-)-(1'R*,2'S*,3'S*,4'S*,6'S*)-Tetrahydrospiro(furan-2(3H),2'-bicyclo(4.2.1)n
onane-3',2''(3''H)-furan)-4'-ol 3,5-dinitrobenzoate
;
_chemical_melting_point 438.15
_cell_volume   2107.461
_exptl_crystal_colour 'colorless'
_exptl_crystal_density_diffrn 1.41
_exptl_special_details
;
Melting point range 438.15-439.15K

;
_diffrn_ambient_temperature ?
_diffrn_special_details
;
The study was carried out at room temperature,in the range 283-303K

;
#These two values have been output from a single CSD field.
_refine_ls_R_factor_gt 0.056
_refine_ls_wR_factor_gt 0.056
_symmetry_cell_setting monoclinic
_symmetry_space_group_name_H-M 'P 21/n'
_symmetry_Int_Tables_number 14
loop_
_symmetry_equiv_pos_site_id
_symmetry_equiv_pos_as_xyz
1 x,y,z
2 1/2-x,1/2+y,1/2-z
3 -x,-y,-z
4 -1/2+x,-1/2-y,-1/2+z
_cell_length_a 12.875(6)
_cell_length_b 11.834(9)
_cell_length_c 14.007(9)
_cell_angle_alpha 90
_cell_angle_beta 99.07(6)
_cell_angle_gamma 90
_cell_formula_units_Z 4
loop_
_atom_type_symbol
_atom_type_radius_bond
C 0.68
H 0.23
N 0.68
O 0.68
loop_
_atom_site_label
_atom_site_type_symbol
_atom_site_fract_x
_atom_site_fract_y
_atom_site_fract_z
O1 O 0.3086(3) 0.1306(3) 0.4129(3)
O2 O 0.3933(3) 0.4054(3) 0.3404(3)
O3 O 0.4255(3) 0.2411(3) 0.1793(2)
O4 O 0.4323(4) 0.0547(4) 0.1521(3)
O5 O 0.4304(4) 0.4953(4) -0.0976(3)
O6 O 0.4174(5) 0.4256(4) -0.2403(3)
O7 O 0.3149(5) -0.0748(5) -0.1752(4)
O8 O 0.3301(6) 0.0322(5) -0.2949(3)
N1 N 0.4180(4) 0.4162(5) -0.1532(4)
N2 N 0.3344(5) 0.0152(6) -0.2093(4)
C1 C 0.2319(6) 0.1104(7) 0.4724(5)
C2 C 0.1988(7) 0.2193(7) 0.5053(7)
C3 C 0.2761(4) 0.3079(6) 0.4842(4)
C4 C 0.3547(5) 0.2413(5) 0.4329(4)
C5 C 0.4575(5) 0.2254(5) 0.5053(4)
C6 C 0.5166(5) 0.3361(5) 0.5354(4)
C7 C 0.6140(5) 0.3366(6) 0.4870(5)
C8 C 0.6074(5) 0.2318(6) 0.4218(4)
C9 C 0.5601(4) 0.2567(5) 0.3163(4)
C10 C 0.4458(5) 0.2232(5) 0.2852(3)
C11 C 0.3633(4) 0.2895(4) 0.3307(4)
C12 C 0.2559(5) 0.2890(5) 0.2653(4)
C13 C 0.2511(6) 0.4021(6) 0.2121(5)
C14 C 0.3299(6) 0.4714(6) 0.2737(5)
C15 C 0.5413(5) 0.1502(6) 0.4709(4)
C16 C 0.4235(5) 0.1507(6) 0.1239(4)
C17 C 0.4057(4) 0.1781(5) 0.0185(4)
C18 C 0.4170(4) 0.2870(5) -0.0163(4)
C19 C 0.4026(4) 0.3026(5) -0.1154(4)
C20 C 0.3767(4) 0.2167(6) -0.1808(4)
C21 C 0.3642(5) 0.1113(5) -0.1423(4)
C22 C 0.3801(4) 0.0900(5) -0.0450(4)
H1 H 0.17500 0.06800 0.43800
H2 H 0.26300 0.06900 0.52800
H3 H 0.13200 0.23600 0.46900
H4 H 0.19400 0.21800 0.57200
H5 H 0.24300 0.36600 0.44300
H6 H 0.31000 0.34100 0.54300
H7 H 0.43200 0.19100 0.55800
H8 H 0.47300 0.39800 0.51200
H9 H 0.53500 0.34100 0.60400
H10 H 0.61600 0.40200 0.44800
H11 H 0.67500 0.33400 0.53500
H12 H 0.67500 0.20100 0.41700
H13 H 0.60100 0.21900 0.27500
H14 H 0.56400 0.33600 0.30700
H15 H 0.43900 0.14800 0.30700
H16 H 0.25100 0.22800 0.22100
H17 H 0.20100 0.28400 0.30300
H18 H 0.18300 0.43500 0.20700
H19 H 0.26900 0.39300 0.14900
H20 H 0.29500 0.52700 0.30600
H21 H 0.37200 0.50800 0.23300
H22 H 0.50900 0.09500 0.42600
H23 H 0.58300 0.11300 0.52400
H24 H 0.43500 0.34900 0.02700
H25 H 0.36900 0.22800 -0.24900
H26 H 0.37500 0.01500 -0.02200
#END
