
#######################################################################
#
#                 Cambridge Crystallographic Data Centre
#                                CCDC
#
#######################################################################
#
# If this CIF has been generated from an entry in the Cambridge
# Structural Database, then it will include bibliographic, chemical,
# crystal, experimental, refinement or atomic coordinate data resulting
# from the CCDC's data processing and validation procedures.
#
#######################################################################

data_CSD_CIF_VUJCEI
_audit_creation_date 1993-03-24
_audit_creation_method CSD-ConQuest-V1
_database_code_CSD VUJCEI
_chemical_formula_sum 'C30 H42 N4 O4'
_chemical_formula_moiety
;
C30 H42 N4 O4
;
_journal_coden_Cambridge 1135
_journal_year 1992
_journal_page_first 82
_journal_name_full 'Mendeleev Commun. '
loop_
_publ_author_name
"A.M.Chibiryaev"
"I.Yu.Bagryanskaya"
"Yu.V.Gatilov"
"A.V.Tkachev"
_chemical_name_systematic
;
7,7,21,21-Tetramethyl-10,24-dimethylene-1,14,15,28-tetra-aza-2,16-dioxa-octacy
clo(15.11.1.1^3,15^.0^3,13^.0^6,9^.0^17,27^.0^20,23^.0^ 
29,30^)triconta-13,27-diene-14,28-dioxide
;
_chemical_melting_point 488.15
_cell_volume   2329.662
_exptl_crystal_colour 'white'
_exptl_crystal_density_diffrn 1.12
_exptl_special_details
;
Melting point range 488.15-490.15K

;
_diffrn_ambient_temperature ?
_diffrn_special_details
;
The study was carried out at room temperature,in the range 283-303K

;
#These two values have been output from a single CSD field.
_refine_ls_R_factor_gt 0.044
_refine_ls_wR_factor_gt 0.044
_symmetry_cell_setting hexagonal
_symmetry_space_group_name_H-M 'P 32'
_symmetry_Int_Tables_number 145
loop_
_symmetry_equiv_pos_site_id
_symmetry_equiv_pos_as_xyz
1 x,y,z
2 -y,x-y,2/3+z
3 -x+y,-x,1/3+z
_cell_length_a 13.154(2)
_cell_length_b 13.154(2)
_cell_length_c 15.547(3)
_cell_angle_alpha 90
_cell_angle_beta 90
_cell_angle_gamma 120
_cell_formula_units_Z 3
loop_
_atom_type_symbol
_atom_type_radius_bond
C 0.68
H 0.23
N 0.68
O 0.68
loop_
_atom_site_label
_atom_site_type_symbol
_atom_site_fract_x
_atom_site_fract_y
_atom_site_fract_z
C1 C 0.6115(4) 0.6668(4) 0.8110(4)
C2 C 0.7052(4) 0.6664(5) 0.7548(4)
C3 C 0.7753(5) 0.6187(5) 0.8001(4)
C4 C 0.8587(4) 0.6968(4) 0.8700(4)
C5 C 0.8039(4) 0.7113(4) 0.9487(4)
C6 C 0.7222(4) 0.6211(5) 1.0100(4)
C7 C 0.5905(4) 0.5852(5) 1.0043(4)
C8 C 0.5242(4) 0.5029(5) 0.9323(4)
C9 C 0.5128(4) 0.5474(5) 0.8476(4)
C10 C 0.4307(5) 0.5978(7) 0.8402(5)
C11 C 0.5153(5) 0.6878(5) 0.7713(4)
C12 C 0.9475(4) 0.8219(4) 0.8441(4)
C13 C 0.4746(8) 0.3879(6) 0.9457(7)
C14 C 0.4807(6) 0.6429(7) 0.6809(5)
C15 C 0.5384(9) 0.8116(8) 0.7794(6)
N1 N 0.8455(3) 0.8221(3) 0.9653(3)
N2 N 0.9220(3) 0.9002(3) 0.8956(4)
O1 O 0.8255(3) 0.8695(3) 1.02820
O2 O 1.0291(3) 0.9860(3) 0.9329(3)
C16 C 1.3524(4) 0.9759(5) 1.0178(4)
C17 C 1.3292(5) 1.0095(6) 0.9315(4)
C18 C 1.2313(4) 1.0413(5) 0.9311(4)
C19 C 1.1087(4) 0.9370(4) 0.9431(4)
C20 C 1.0815(4) 0.8732(4) 1.0262(4)
C21 C 1.0826(4) 0.9165(5) 1.1131(4)
C22 C 1.1878(5) 0.9466(6) 1.1722(4)
C23 C 1.2958(5) 1.0623(6) 1.1519(5)
C24 C 1.3859(5) 1.0630(5) 1.0923(4)
C25 C 1.4663(6) 1.0160(8) 1.1259(5)
C26 C 1.4633(5) 0.9650(6) 1.0367(5)
C27 C 1.0664(4) 0.8404(5) 0.8751(4)
C28 C 1.3079(7) 1.1606(8) 1.1840(6)
C29 C 1.5677(5) 1.0470(8) 0.9816(5)
C30 C 1.4470(7) 0.8445(8) 1.0346(7)
N3 N 1.0348(3) 0.7610(4) 1.0117(4)
N4 N 1.0433(4) 0.7332(4) 0.9203(4)
O3 O 0.9904(4) 0.6765(4) 1.0633(4)
O4 O 0.9312(3) 0.6443(3) 0.8921(3)
H1 H 0.65200 0.72500 0.86300
H2 H 0.76300 0.75300 0.73500
H3 H 0.66500 0.61600 0.70000
H4 H 0.82400 0.60300 0.75400
H5 H 0.71500 0.53800 0.82800
H6 H 0.72800 0.54500 1.00200
H7 H 0.75100 0.65300 1.07200
H8 H 0.58600 0.66200 0.99700
H9 H 0.54900 0.54600 1.06300
H10 H 0.49000 0.48200 0.80100
H11 H 0.34700 0.53900 0.81600
H12 H 0.42400 0.63700 0.89700
H13 H 0.94600 0.83600 0.77800
H14 H 0.48600 0.35900 1.00600
H15 H 0.42600 0.32600 0.89800
H16 H 0.53900 0.70500 0.63700
H17 H 0.39500 0.62600 0.66800
H18 H 0.48300 0.56500 0.67500
H19 H 0.59600 0.86500 0.73100
H20 H 0.57600 0.84500 0.84000
H21 H 0.45900 0.81200 0.77400
H22 H 1.27800 0.89700 1.03600
H23 H 1.40700 1.08200 0.91000
H24 H 1.30700 0.94000 0.88800
H25 H 1.23300 1.08300 0.87300
H26 H 1.24800 1.10100 0.98100
H27 H 1.07600 0.99200 1.10700
H28 H 1.00700 0.85300 1.14500
H29 H 1.16300 0.94900 1.23600
H30 H 1.20900 0.88000 1.16700
H31 H 1.43900 1.14800 1.06800
H32 H 1.55000 1.08100 1.14600
H33 H 1.42500 0.95100 1.17300
H34 H 1.12700 0.86200 0.82500
H35 H 1.24300 1.15800 1.22400
H36 H 1.38300 1.24100 1.17000
H37 H 1.63900 1.03600 0.99700
H38 H 1.58900 1.13400 0.99400
H39 H 1.54800 1.02900 0.91600
H40 H 1.52700 0.84800 1.04700
H41 H 1.41400 0.80400 0.97500
H42 H 1.38700 0.79600 1.08300
#END
