
#######################################################################
#
#                 Cambridge Crystallographic Data Centre
#                                CCDC
#
#######################################################################
#
# If this CIF has been generated from an entry in the Cambridge
# Structural Database, then it will include bibliographic, chemical,
# crystal, experimental, refinement or atomic coordinate data resulting
# from the CCDC's data processing and validation procedures.
#
#######################################################################

data_CSD_CIF_VUJDEJ
_audit_creation_date 1993-03-24
_audit_creation_method CSD-ConQuest-V1
_database_code_CSD VUJDEJ
_chemical_formula_sum 'C18 H27 N1 O6'
_chemical_formula_moiety
;
C18 H27 N1 O6
;
_journal_coden_Cambridge 423
_journal_volume 228
_journal_year 1992
_journal_page_first 1871
_journal_name_full 'J.Chem.Res. '
loop_
_publ_author_name
"J.M.J.Tronchet"
"E.Jean"
"F.Barbalat-Rey"
"G.Bernardinelli"
_chemical_name_systematic
;
(1'S,3'R,4'R)-4-(2,2-Dimethyldioxolan-4-yl)-(1,2-O,O-dioxy-isopropylidene)-3-d
eoxy-3-(2-oxa-3-azabicylo(2.2.2)oct-5-en-3-yl)furanose
;
_chemical_melting_point 410.75
_cell_volume   1863.789
_exptl_crystal_density_diffrn 1.26
_exptl_special_details
;
Melting point range 410.75-411.25K

;
_diffrn_ambient_temperature ?
_diffrn_special_details
;
The study was carried out at room temperature,in the range 283-303K

;
#These two values have been output from a single CSD field.
_refine_ls_R_factor_gt 0.047
_refine_ls_wR_factor_gt 0.047
_symmetry_cell_setting orthorhombic
_symmetry_space_group_name_H-M 'P 21 21 21'
_symmetry_Int_Tables_number 19
loop_
_symmetry_equiv_pos_site_id
_symmetry_equiv_pos_as_xyz
1 x,y,z
2 1/2+x,1/2-y,-z
3 -x,1/2+y,1/2-z
4 1/2-x,-y,1/2+z
_cell_length_a 10.248(2)
_cell_length_b 11.386(2)
_cell_length_c 15.973(3)
_cell_angle_alpha 90
_cell_angle_beta 90
_cell_angle_gamma 90
_cell_formula_units_Z 4
loop_
_atom_type_symbol
_atom_type_radius_bond
C 0.68
N 0.68
O 0.68
loop_
_atom_site_label
_atom_site_type_symbol
_atom_site_fract_x
_atom_site_fract_y
_atom_site_fract_z
O1 O 0.3321(5) 0.7219(6) 0.3406(3)
O2 O 0.6378(5) 0.7439(6) 0.3483(3)
O3 O 0.4854(6) 0.6824(7) 0.4428(3)
O4 O 0.1854(5) 0.9253(5) 0.2955(3)
O5 O 0.0517(5) 0.8338(6) 0.2038(5)
O6 O 0.4883(5) 0.8503(5) 0.1091(3)
N1 N 0.5678(6) 0.8222(6) 0.1839(3)
C1 C 0.4826(7) 0.7449(6) 0.2327(4)
C2 C 0.5502(7) 0.6731(6) 0.3030(4)
C3 C 0.4372(9) 0.6509(7) 0.3644(5)
C4 C 0.3800(7) 0.8110(6) 0.2857(4)
C5 C 0.6181(8) 0.7219(8) 0.4359(4)
C6 C 0.634(1) 0.837(1) 0.4818(7)
C7 C 0.708(1) 0.628(1) 0.4683(5)
C8 C 0.2675(7) 0.8668(6) 0.2384(4)
C9 C 0.1750(9) 0.7863(7) 0.1926(6)
C10 C 0.0595(8) 0.9308(7) 0.2596(5)
C11 C 0.0420(9) 1.0399(9) 0.2090(9)
C12 C -0.041(1) 0.912(2) 0.3274(7)
C13 C 0.6914(7) 0.7639(9) 0.1542(4)
C14 C 0.6587(8) 0.6576(6) 0.1034(5)
C15 C 0.5820(9) 0.6817(8) 0.0386(5)
C16 C 0.5505(9) 0.8096(7) 0.0320(4)
C17 C 0.7592(8) 0.8576(8) 0.1000(6)
C18 C 0.6740(9) 0.8799(8) 0.0211(4)
#END
