
#######################################################################
#
#                 Cambridge Crystallographic Data Centre
#                                CCDC
#
#######################################################################
#
# If this CIF has been generated from an entry in the Cambridge
# Structural Database, then it will include bibliographic, chemical,
# crystal, experimental, refinement or atomic coordinate data resulting
# from the CCDC's data processing and validation procedures.
#
#######################################################################

data_CSD_CIF_VUJDIN
_audit_creation_date 1993-03-24
_audit_creation_method CSD-ConQuest-V1
_database_code_CSD VUJDIN
_chemical_formula_sum 'C15 H23 N1 O5'
_chemical_formula_moiety
;
C15 H23 N1 O5
;
_journal_coden_Cambridge 423
_journal_volume 228
_journal_year 1992
_journal_page_first 1871
_journal_name_full 'J.Chem.Res. '
loop_
_publ_author_name
"J.M.J.Tronchet"
"E.Jean"
"F.Barbalat-Rey"
"G.Bernardinelli"
_chemical_name_systematic
;
(1'S,3'S,4'R)-(1,2-O,O-Isopropylidene)-3-O-methyl-4-(2-oxa-3-azabicyclo(2.2.2)
oct-5-en-3-yl)furanose
;
_chemical_melting_point 350.45
_cell_volume   1557.355
_exptl_crystal_density_diffrn 1.27
_exptl_special_details
;
Melting point range 350.45-354.85K

;
_diffrn_ambient_temperature ?
_diffrn_special_details
;
The study was carried out at room temperature,in the range 283-303K

;
#These two values have been output from a single CSD field.
_refine_ls_R_factor_gt 0.069
_refine_ls_wR_factor_gt 0.069
_symmetry_cell_setting orthorhombic
_symmetry_space_group_name_H-M 'P 21 21 21'
_symmetry_Int_Tables_number 19
loop_
_symmetry_equiv_pos_site_id
_symmetry_equiv_pos_as_xyz
1 x,y,z
2 1/2+x,1/2-y,-z
3 -x,1/2+y,1/2-z
4 1/2-x,-y,1/2+z
_cell_length_a 9.140(2)
_cell_length_b 9.361(3)
_cell_length_c 18.202(3)
_cell_angle_alpha 90
_cell_angle_beta 90
_cell_angle_gamma 90
_cell_formula_units_Z 4
loop_
_atom_type_symbol
_atom_type_radius_bond
C 0.68
N 0.68
O 0.68
loop_
_atom_site_label
_atom_site_type_symbol
_atom_site_fract_x
_atom_site_fract_y
_atom_site_fract_z
N1 N 0.6363(9) 0.6839(8) 0.1664(4)
O1 O 0.2993(7) 0.5001(7) 0.1140(3)
O2 O 0.3746(6) 0.5146(6) -0.0560(3)
O3 O 0.2564(9) 0.3532(7) 0.0145(4)
O4 O 0.3141(9) 0.7980(7) 0.0757(3)
O5 O 0.7280(8) 0.5571(8) 0.1523(3)
C1 C 0.393(1) 0.681(1) 0.0426(5)
C2 C 0.2922(9) 0.597(1) -0.0067(4)
C3 C 0.225(1) 0.486(1) 0.0481(6)
C4 C 0.4346(9) 0.577(1) 0.1012(4)
C5 C 0.3124(9) 0.374(1) -0.0573(5)
C6 C 0.435(1) 0.267(1) -0.0701(6)
C7 C 0.193(1) 0.364(1) -0.1147(7)
C8 C 0.4883(9) 0.633(1) 0.1748(4)
C9 C 0.693(1) 0.753(1) 0.2349(5)
C10 C 0.850(1) 0.800(1) 0.2195(5)
C11 C 0.944(1) 0.673(2) 0.2020(7)
C12 C 0.841(1) 0.540(1) 0.2083(6)
C13 C 0.778(2) 0.535(1) 0.2810(5)
C14 C 0.691(1) 0.650(1) 0.2971(4)
C15 C 0.308(1) 0.919(1) 0.0299(5)
#END
