
#######################################################################
#
#                 Cambridge Crystallographic Data Centre
#                                CCDC
#
#######################################################################
#
# If this CIF has been generated from an entry in the Cambridge
# Structural Database, then it will include bibliographic, chemical,
# crystal, experimental, refinement or atomic coordinate data resulting
# from the CCDC's data processing and validation procedures.
#
#######################################################################

data_CSD_CIF_VUJLAO
_audit_creation_date 2010-05-14
_audit_creation_method CSD-ConQuest-V1
_database_code_CSD VUJLAO
_database_code_depnum_ccdc_archive 'CCDC 738405'
_chemical_formula_sum 'C14 H11 N3 O1'
_chemical_formula_moiety
;
C14 H11 N3 O1
;
_journal_coden_Cambridge 1336
_journal_volume 11
_journal_year 2009
_journal_page_first 2161
_journal_name_full 'Org.Lett. '
loop_
_publ_author_name
"T.Sasada"
"F.Kobayashi"
"N.Sakai"
"T.Konakahara"
_chemical_name_systematic
;
4-Phenyl-5-(3'-methylisoxazol-5'-yl)pyrimidine
;
_chemical_melting_point 345.65
_cell_volume   1174.396
_exptl_crystal_colour 'colorless'
_exptl_crystal_density_diffrn 1.342
_exptl_special_details
;
Melting point range 345.65-346.35K

;
_exptl_crystal_description 'plate'
_diffrn_ambient_temperature 273
#These two values have been output from a single CSD field.
_refine_ls_R_factor_gt 0.1099
_refine_ls_wR_factor_gt 0.1099
_symmetry_cell_setting monoclinic
_symmetry_space_group_name_H-M 'P 21/n'
_symmetry_Int_Tables_number 14
loop_
_symmetry_equiv_pos_site_id
_symmetry_equiv_pos_as_xyz
1 x,y,z
2 1/2-x,1/2+y,1/2-z
3 -x,-y,-z
4 -1/2+x,-1/2-y,-1/2+z
_cell_length_a 5.613(3)
_cell_length_b 9.682(5)
_cell_length_c 21.629(10)
_cell_angle_alpha 90
_cell_angle_beta 92.403(8)
_cell_angle_gamma 90
_cell_formula_units_Z 4
loop_
_atom_type_symbol
_atom_type_radius_bond
C 0.68
H 0.23
N 0.68
O 0.68
loop_
_atom_site_label
_atom_site_type_symbol
_atom_site_fract_x
_atom_site_fract_y
_atom_site_fract_z
O1 O -0.1507(4) 0.6646(3) 0.07951(12)
N1 N 0.0283(5) 1.1388(3) 0.11067(13)
N2 N -0.2841(5) 1.0783(3) 0.03801(14)
C1 C -0.0423(6) 0.9022(3) 0.08720(15)
N3 N -0.0485(5) 0.5322(3) 0.07579(15)
C2 C 0.2299(6) 0.8747(4) 0.21527(17)
H1 H 0.09930 0.81570 0.21120
C3 C 0.6207(6) 1.0484(4) 0.22761(18)
H2 H 0.75400 1.10540 0.23130
C4 C 0.3480(7) 0.4318(4) 0.07857(19)
H3 H 0.26190 0.34700 0.08310
H4 H 0.46770 0.43970 0.11140
H5 H 0.42280 0.43220 0.03950
C5 C -0.2279(6) 0.9467(4) 0.04721(16)
H6 H -0.31750 0.88010 0.02570
C6 C 0.0269(6) 0.7572(4) 0.08736(15)
C7 C 0.2594(6) 0.9797(3) 0.17233(15)
C8 C 0.0778(6) 1.0057(3) 0.12168(15)
C9 C 0.5897(7) 0.9448(4) 0.26986(17)
H7 H 0.70030 0.93300 0.30270
C10 C 0.1795(6) 0.5508(4) 0.08134(16)
C11 C 0.4535(6) 1.0680(4) 0.17959(16)
H8 H 0.47130 1.14060 0.15200
C12 C 0.2375(6) 0.6919(3) 0.08970(16)
H9 H 0.38830 0.73070 0.09550
C13 C 0.3946(7) 0.8580(4) 0.26384(17)
H10 H 0.37430 0.78810 0.29260
C14 C -0.1459(6) 1.1675(3) 0.06918(16)
H11 H -0.17410 1.26060 0.06110
#END
