
#######################################################################
#
#                 Cambridge Crystallographic Data Centre
#                                CCDC
#
#######################################################################
#
# If this CIF has been generated from an entry in the Cambridge
# Structural Database, then it will include bibliographic, chemical,
# crystal, experimental, refinement or atomic coordinate data resulting
# from the CCDC's data processing and validation procedures.
#
#######################################################################

data_CSD_CIF_VUJTEZ
_audit_creation_date 1993-02-23
_audit_creation_method CSD-ConQuest-V1
_database_code_CSD VUJTEZ
_chemical_formula_sum 'C14 H11 N1 O3'
_chemical_formula_moiety
;
C14 H11 N1 O3
;
_journal_coeditor_code "IUCr AB0272"
_journal_coden_Cambridge 591
_journal_volume 48
_journal_year 1992
_journal_page_first 2165
_journal_name_full 'Acta Crystallogr.,Sect.C:Cryst.Struct.Commun. '
loop_
_publ_author_name
"J.K.Maurin"
"I.C.Paul"
"D.Y.Curtin"
_chemical_name_systematic
;
3-(\a-Hydroxyiminobenzyl)benzoic acid
;
_chemical_name_common
;
3-Benzoylbenzoic acid oxime
;
_chemical_melting_point 475.5
_cell_volume   1191.990
_exptl_crystal_density_diffrn 1.345
_exptl_special_details
;
Melting point range 475.5-476.4K

;
_diffrn_ambient_temperature ?
_diffrn_special_details
;
The study was carried out at room temperature,in the range 283-303K

;
#These two values have been output from a single CSD field.
_refine_ls_R_factor_gt 0.0426
_refine_ls_wR_factor_gt 0.0426
_symmetry_cell_setting monoclinic
_symmetry_space_group_name_H-M 'P 21/n'
_symmetry_Int_Tables_number 14
loop_
_symmetry_equiv_pos_site_id
_symmetry_equiv_pos_as_xyz
1 x,y,z
2 1/2-x,1/2+y,1/2-z
3 -x,-y,-z
4 -1/2+x,-1/2-y,-1/2+z
_cell_length_a 9.169(1)
_cell_length_b 9.370(1)
_cell_length_c 13.883(2)
_cell_angle_alpha 90
_cell_angle_beta 92.028(4)
_cell_angle_gamma 90
_cell_formula_units_Z 4
loop_
_atom_type_symbol
_atom_type_radius_bond
C 0.68
H 0.23
N 0.68
O 0.68
loop_
_atom_site_label
_atom_site_type_symbol
_atom_site_fract_x
_atom_site_fract_y
_atom_site_fract_z
O1 O -0.2247(2) 0.0563(2) 0.4975(1)
O2 O -0.0780(2) 0.1550(2) 0.6108(1)
O3 O -0.5523(2) 0.3137(2) 0.8684(1)
N1 N -0.4592(2) 0.2639(2) 0.9428(1)
C1 C -0.3017(2) 0.0581(2) 0.6592(1)
C2 C -0.2837(2) 0.1196(2) 0.7500(1)
C3 C -0.3868(2) 0.0955(2) 0.8190(1)
C4 C -0.5056(3) 0.0074(3) 0.7970(2)
C5 C -0.5225(3) -0.0551(3) 0.7070(2)
C6 C -0.4208(3) -0.0291(3) 0.6377(2)
C7 C -0.1981(2) 0.0883(2) 0.5815(2)
C8 C -0.3748(2) 0.1625(2) 0.9169(1)
C9 C -0.2696(2) 0.1088(2) 0.9914(1)
C10 C -0.2167(3) 0.1984(3) 1.0654(2)
C11 C -0.1284(3) 0.1445(3) 1.1393(2)
C12 C -0.0910(3) 0.0018(4) 1.1406(2)
C13 C -0.1389(3) -0.0865(3) 1.0667(2)
C14 C -0.2267(3) -0.0333(3) 0.9918(2)
H1 H -0.203(2) 0.182(2) 0.763(2)
H2 H -0.578(3) -0.006(3) 0.845(2)
H3 H -0.605(3) -0.118(3) 0.693(2)
H4 H -0.434(2) -0.070(2) 0.573(2)
H5 H -0.245(3) 0.298(3) 1.063(2)
H6 H -0.094(3) 0.205(3) 1.189(2)
H7 H -0.032(3) -0.038(3) 1.193(2)
H8 H -0.112(3) -0.185(3) 1.063(2)
H9 H -0.260(2) -0.095(3) 0.938(2)
H10 H -0.030(4) 0.180(4) 0.553(3)
H11 H -0.608(4) 0.380(4) 0.902(2)
#END
