
#######################################################################
#
#                 Cambridge Crystallographic Data Centre
#                                CCDC
#
#######################################################################
#
# If this CIF has been generated from an entry in the Cambridge
# Structural Database, then it will include bibliographic, chemical,
# crystal, experimental, refinement or atomic coordinate data resulting
# from the CCDC's data processing and validation procedures.
#
#######################################################################

data_CSD_CIF_VUJVUR
_audit_creation_date 1993-02-23
_audit_creation_method CSD-ConQuest-V1
_database_code_CSD VUJVUR
_chemical_formula_sum 'C27 H21 N3 O2'
_chemical_formula_moiety
;
C27 H21 N3 O2
;
_journal_coeditor_code "IUCr HH0584"
_journal_coden_Cambridge 591
_journal_volume 48
_journal_year 1992
_journal_page_first 2185
_journal_name_full 'Acta Crystallogr.,Sect.C:Cryst.Struct.Commun. '
loop_
_publ_author_name
"Zhenhua Chen"
"J.Masnovi"
"R.J.Baker"
"R.B.Krafcik"
"R.L.R.Towns"
_chemical_name_systematic
;
1-(9-Carbazolyl)-3-(3-nitro-9-carbazolyl)propane
;
_cell_volume   1037.135
_exptl_crystal_density_diffrn 1.343
_diffrn_ambient_temperature 302
#These two values have been output from a single CSD field.
_refine_ls_R_factor_gt 0.052
_refine_ls_wR_factor_gt 0.052
_symmetry_cell_setting triclinic
_symmetry_space_group_name_H-M 'P -1'
_symmetry_Int_Tables_number 2
loop_
_symmetry_equiv_pos_site_id
_symmetry_equiv_pos_as_xyz
1 x,y,z
2 -x,-y,-z
_cell_length_a 13.1193(3)
_cell_length_b 8.8488(2)
_cell_length_c 9.3648(4)
_cell_angle_alpha 100.35(3)
_cell_angle_beta 103.16(2)
_cell_angle_gamma 92.61(2)
_cell_formula_units_Z 2
loop_
_atom_type_symbol
_atom_type_radius_bond
C 0.68
H 0.23
N 0.68
O 0.68
loop_
_atom_site_label
_atom_site_type_symbol
_atom_site_fract_x
_atom_site_fract_y
_atom_site_fract_z
O1 O -0.3165(2) -0.1974(2) 0.2088(2)
O2 O -0.2677(2) -0.2122(3) 0.0016(2)
N1 N -0.2600(2) -0.1548(2) 0.1325(2)
N2 N 0.0579(1) 0.3067(2) 0.4190(2)
C1 C -0.0354(2) 0.1354(3) 0.1783(3)
C2 C -0.1164(2) 0.0217(3) 0.1153(3)
C3 C -0.1776(2) -0.0292(3) 0.2031(3)
C4 C -0.1628(2) 0.0306(2) 0.3529(3)
C5 C -0.0817(2) 0.1456(2) 0.4183(2)
C6 C -0.0408(2) 0.2313(2) 0.5686(2)
C7 C -0.0693(2) 0.2338(3) 0.7030(3)
C8 C -0.0099(2) 0.3313(3) 0.8287(3)
C9 C 0.0757(2) 0.4253(3) 0.8235(3)
C10 C 0.1055(2) 0.4257(3) 0.6916(3)
C11 C 0.0456(2) 0.3282(2) 0.5650(3)
C12 C -0.0179(2) 0.1956(2) 0.3306(2)
N3 N 0.3568(1) 0.5277(2) 0.4295(2)
C13 C 0.3126(2) 0.6256(3) 0.1901(3)
C14 C 0.3068(2) 0.7614(3) 0.1336(3)
C15 C 0.3318(2) 0.9048(3) 0.2263(3)
C16 C 0.3633(2) 0.9203(3) 0.3793(3)
C17 C 0.3686(2) 0.7870(2) 0.4403(2)
C18 C 0.3974(2) 0.7597(2) 0.5901(3)
C19 C 0.4303(2) 0.8559(3) 0.7306(3)
C20 C 0.4546(2) 0.7906(3) 0.8547(3)
C21 C 0.4459(2) 0.6311(3) 0.8416(3)
C22 C 0.4146(2) 0.5323(3) 0.7061(3)
C23 C 0.3891(2) 0.5984(2) 0.5785(3)
C24 C 0.3437(2) 0.6411(2) 0.3440(2)
C25 C 0.1446(2) 0.3763(3) 0.3746(3)
C26 C 0.2417(2) 0.2903(2) 0.4103(3)
C27 C 0.3373(2) 0.3616(2) 0.3726(3)
H1 H 0.00700 0.17500 0.11900
H2 H -0.12500 -0.02700 0.00000
H3 H -0.21900 0.00000 0.40300
H4 H -0.13300 0.16300 0.70900
H5 H -0.02900 0.33500 0.92700
H6 H 0.11700 0.49300 0.91800
H7 H 0.16800 0.50000 0.69500
H8 H 0.29300 0.52900 0.11100
H9 H 0.29700 0.75000 0.02200
H10 H 0.33700 0.99700 0.18400
H11 H 0.39600 1.02900 0.44500
H12 H 0.43100 0.97200 0.73500
H13 H 0.48000 0.85400 0.95600
H14 H 0.46500 0.58600 0.93800
H15 H 0.39500 0.41600 0.69300
H16 H 0.16100 0.48700 0.42300
H17 H 0.12600 0.36900 0.26100
H18 H 0.22900 0.16600 0.35900
H19 H 0.25800 0.30100 0.52500
H20 H 0.40400 0.31100 0.42100
H21 H 0.32300 0.34000 0.25800
#END
