
#######################################################################
#
#                 Cambridge Crystallographic Data Centre
#                                CCDC
#
#######################################################################
#
# If this CIF has been generated from an entry in the Cambridge
# Structural Database, then it will include bibliographic, chemical,
# crystal, experimental, refinement or atomic coordinate data resulting
# from the CCDC's data processing and validation procedures.
#
#######################################################################

data_CSD_CIF_VUJVOL
_audit_creation_date 1993-02-23
_audit_creation_method CSD-ConQuest-V1
_database_code_CSD VUJVOL
_chemical_formula_sum 'C14 H12 N2 O2'
_chemical_formula_moiety
;
C14 H12 N2 O2
;
_journal_coeditor_code "IUCr HH0584"
_journal_coden_Cambridge 591
_journal_volume 48
_journal_year 1992
_journal_page_first 2185
_journal_name_full 'Acta Crystallogr.,Sect.C:Cryst.Struct.Commun. '
loop_
_publ_author_name
"Zhenhua Chen"
"J.Masnovi"
"R.J.Baker"
"R.B.Krafcik"
"R.L.R.Towns"
_chemical_name_systematic
;
9-Ethyl-3-nitrocarbazole
;
_cell_volume   1172.182
_exptl_crystal_density_diffrn 1.361
_diffrn_ambient_temperature 302
#These two values have been output from a single CSD field.
_refine_ls_R_factor_gt 0.061
_refine_ls_wR_factor_gt 0.061
_symmetry_cell_setting triclinic
_symmetry_space_group_name_H-M 'P -1'
_symmetry_Int_Tables_number 2
loop_
_symmetry_equiv_pos_site_id
_symmetry_equiv_pos_as_xyz
1 x,y,z
2 -x,-y,-z
_cell_length_a 10.572(4)
_cell_length_b 12.910(5)
_cell_length_c 9.547(4)
_cell_angle_alpha 94.85(3)
_cell_angle_beta 111.62(3)
_cell_angle_gamma 75.40(4)
_cell_formula_units_Z 4
loop_
_atom_type_symbol
_atom_type_radius_bond
C 0.68
H 0.23
N 0.68
O 0.68
loop_
_atom_site_label
_atom_site_type_symbol
_atom_site_fract_x
_atom_site_fract_y
_atom_site_fract_z
O1 O -0.2953(3) 0.3598(2) 0.1100(3)
O2 O -0.2162(3) 0.3954(3) 0.3474(3)
N1 N -0.2035(3) 0.3795(3) 0.2243(4)
N2 N 0.2888(3) 0.3996(2) 0.1634(3)
C1 C 0.1541(4) 0.4205(3) 0.3350(4)
C2 C 0.0300(4) 0.4129(3) 0.3399(4)
C3 C -0.0731(4) 0.3868(3) 0.2112(4)
C4 C -0.0554(3) 0.3660(3) 0.0754(4)
C5 C 0.0701(3) 0.3729(2) 0.0677(3)
C6 C 0.1269(3) 0.3540(3) -0.0493(4)
C7 C 0.0776(4) 0.3229(3) -0.1993(4)
C8 C 0.1624(4) 0.3099(3) -0.2827(4)
C9 C 0.2932(4) 0.3302(3) -0.2194(4)
C10 C 0.3476(4) 0.3608(3) -0.0706(4)
C11 C 0.2620(3) 0.3719(3) 0.0134(4)
C12 C 0.1741(3) 0.4000(3) 0.1980(4)
C13 C 0.4201(4) 0.4207(3) 0.2689(4)
C14 C 0.4157(4) 0.5383(4) 0.2824(5)
O3 O -0.0123(3) 0.1142(2) 0.1666(3)
O4 O 0.0457(2) 0.1330(2) 0.4064(3)
N3 N 0.0734(3) 0.1242(2) 0.2917(3)
N4 N 0.6107(3) 0.1359(2) 0.3597(3)
C15 C 0.3736(3) 0.1241(3) 0.1804(4)
C16 C 0.2437(3) 0.1213(3) 0.1732(4)
C17 C 0.2139(3) 0.1267(3) 0.3041(4)
C18 C 0.3106(3) 0.1347(3) 0.4445(3)
C19 C 0.4423(3) 0.1382(2) 0.4552(3)
C20 C 0.5691(3) 0.1448(3) 0.5789(3)
C21 C 0.6060(3) 0.1503(3) 0.7344(4)
C22 C 0.7413(4) 0.1524(3) 0.8234(4)
C23 C 0.8396(4) 0.1488(3) 0.7580(4)
C24 C 0.8078(4) 0.1435(3) 0.6045(4)
C25 C 0.6706(3) 0.1425(3) 0.5161(4)
C26 C 0.4744(3) 0.1325(3) 0.3221(4)
C27 C 0.6842(4) 0.1243(3) 0.2547(4)
C28 C 0.7403(4) 0.0087(4) 0.2239(4)
H1 H 0.22100 0.45700 0.41600
H2 H 0.00700 0.43100 0.43800
H3 H -0.13400 0.34500 -0.01900
H4 H -0.02700 0.31200 -0.25000
H5 H 0.11500 0.29500 -0.40500
H6 H 0.36100 0.31200 -0.27700
H7 H 0.44500 0.37500 -0.02700
H8 H 0.50000 0.38000 0.23000
H9 H 0.44000 0.39000 0.38000
H10 H 0.32600 0.57900 0.29700
H11 H 0.50000 0.55100 0.37200
H12 H 0.41900 0.56500 0.18600
H13 H 0.38900 0.12500 0.08200
H14 H 0.16600 0.11900 0.07500
H15 H 0.27700 0.14500 0.52700
H16 H 0.52900 0.14600 0.77900
H17 H 0.77900 0.14600 0.94500
H18 H 0.94300 0.15700 0.82600
H19 H 0.87800 0.14500 0.55200
H20 H 0.61500 0.16200 0.15300
H21 H 0.76900 0.16100 0.30100
H22 H 0.66600 -0.04300 0.19300
H23 H 0.77700 0.00000 0.13900
H24 H 0.82800 -0.03000 0.32700
#END
