
#######################################################################
#
#                 Cambridge Crystallographic Data Centre
#                                CCDC
#
#######################################################################
#
# If this CIF has been generated from an entry in the Cambridge
# Structural Database, then it will include bibliographic, chemical,
# crystal, experimental, refinement or atomic coordinate data resulting
# from the CCDC's data processing and validation procedures.
#
#######################################################################

data_CSD_CIF_VUJWEC
_audit_creation_date 1993-02-23
_audit_creation_method CSD-ConQuest-V1
_database_code_CSD VUJWEC
_chemical_formula_sum 'C13 H16 N2 O5'
_chemical_formula_moiety
;
C13 H16 N2 O5
;
_journal_coeditor_code "IUCr PA0277"
_journal_coden_Cambridge 591
_journal_volume 48
_journal_year 1992
_journal_page_first 2194
_journal_name_full 'Acta Crystallogr.,Sect.C:Cryst.Struct.Commun. '
loop_
_publ_author_name
"A.Chiaroni"
"N.Langlois"
"C.Riche"
_chemical_name_systematic
;
(2S,5S)-2-Hydroxymethyl-5-methoxy-N-o-nitrobenzoylpyrrolidine
;
_cell_volume    690.429
_exptl_crystal_density_diffrn 1.35
_diffrn_ambient_temperature ?
_diffrn_special_details
;
The study was carried out at room temperature,in the range 283-303K

;
#These two values have been output from a single CSD field.
_refine_ls_R_factor_gt 0.055
_refine_ls_wR_factor_gt 0.055
_symmetry_cell_setting monoclinic
_symmetry_space_group_name_H-M 'P 21'
_symmetry_Int_Tables_number 4
loop_
_symmetry_equiv_pos_site_id
_symmetry_equiv_pos_as_xyz
1 x,y,z
2 -x,1/2+y,-z
_cell_length_a 10.307(3)
_cell_length_b 9.364(3)
_cell_length_c 7.394(2)
_cell_angle_alpha 90
_cell_angle_beta 104.65(2)
_cell_angle_gamma 90
_cell_formula_units_Z 2
loop_
_atom_type_symbol
_atom_type_radius_bond
C 0.68
H 0.23
N 0.68
O 0.68
loop_
_atom_site_label
_atom_site_type_symbol
_atom_site_fract_x
_atom_site_fract_y
_atom_site_fract_z
N1 N 0.2945(2) 0.6008(3) 0.5333(3)
C1 C 0.3624(3) 0.5465(4) 0.7179(4)
C2 C 0.5039(3) 0.6062(6) 0.7457(5)
C3 C 0.5267(4) 0.5913(6) 0.5496(6)
C4 C 0.3904(3) 0.6223(4) 0.4155(4)
C5 C 0.3614(4) 0.5256(6) 0.2453(5)
O1 O 0.2489(4) 0.5678(6) 0.1031(4)
O2 O 0.3733(3) 0.3975(3) 0.7175(4)
C6 C 0.2571(6) 0.3241(6) 0.7175(9)
C7 C 0.0933(3) 0.6764(4) 0.6305(4)
C8 C 0.1017(3) 0.7838(1) 0.7633(4)
C9 C 0.0104(4) 0.7951(4) 0.8719(5)
C10 C -0.0898(3) 0.6934(5) 0.8509(5)
C11 C -0.0975(3) 0.5839(5) 0.7282(6)
C12 C -0.0075(3) 0.5755(4) 0.6176(5)
C13 C 0.1771(3) 0.6703(4) 0.4908(4)
O3 O 0.1283(3) 0.7221(4) 0.3360(3)
N2 N 0.2089(3) 0.8895(4) 0.7925(4)
O4 O 0.2809(3) 0.8926(4) 0.6870(5)
O5 O 0.2225(4) 0.9727(6) 0.9196(7)
H1 H 0.31100 0.57500 0.82200
H2 H 0.50900 0.71700 0.78900
H3 H 0.57600 0.54400 0.84700
H4 H 0.55900 0.48400 0.52800
H5 H 0.60100 0.66700 0.53000
H6 H 0.38500 0.72800 0.35600
H7 H 0.34400 0.41900 0.28900
H8 H 0.44800 0.52500 0.18800
H9 H 0.209(5) 0.621(8) 0.202(9)
H10 H 0.27600 0.21100 0.71700
H11 H 0.18000 0.35200 0.59400
H12 H 0.22500 0.35200 0.84100
H13 H 0.01700 0.88100 0.97100
H14 H -0.16300 0.70100 0.93300
H15 H -0.17400 0.50300 0.71700
H16 H -0.01600 0.48900 0.51900
#END
