
#######################################################################
#
#                 Cambridge Crystallographic Data Centre
#                                CCDC
#
#######################################################################
#
# If this CIF has been generated from an entry in the Cambridge
# Structural Database, then it will include bibliographic, chemical,
# crystal, experimental, refinement or atomic coordinate data resulting
# from the CCDC's data processing and validation procedures.
#
#######################################################################

data_CSD_CIF_VUJZIJ
_audit_creation_date 1993-02-23
_audit_creation_method CSD-ConQuest-V1
_database_code_CSD VUJZIJ
_chemical_formula_sum 'C10 H8 N2 O1'
_chemical_formula_moiety
;
C10 H8 N2 O1
;
_journal_coeditor_code "IUCr LI1001"
_journal_coden_Cambridge 591
_journal_volume 48
_journal_year 1992
_journal_page_first 2227
_journal_name_full 'Acta Crystallogr.,Sect.C:Cryst.Struct.Commun. '
loop_
_publ_author_name
"I.Leban"
"S.Polanc"
_chemical_name_systematic
;
2-Phenylpyrimidinium 1-oxide
;
_cell_volume    823.957
_exptl_crystal_density_diffrn 1.388
_diffrn_ambient_temperature ?
_diffrn_special_details
;
The study was carried out at room temperature,in the range 283-303K

;
#These two values have been output from a single CSD field.
_refine_ls_R_factor_gt 0.058
_refine_ls_wR_factor_gt 0.058
_symmetry_cell_setting orthorhombic
_symmetry_space_group_name_H-M 'P 21 21 21'
_symmetry_Int_Tables_number 19
loop_
_symmetry_equiv_pos_site_id
_symmetry_equiv_pos_as_xyz
1 x,y,z
2 1/2+x,1/2-y,-z
3 -x,1/2+y,1/2-z
4 1/2-x,-y,1/2+z
_cell_length_a 7.189(1)
_cell_length_b 10.141(2)
_cell_length_c 11.302(2)
_cell_angle_alpha 90
_cell_angle_beta 90
_cell_angle_gamma 90
_cell_formula_units_Z 4
loop_
_atom_type_symbol
_atom_type_radius_bond
C 0.68
H 0.23
N 0.68
O 0.68
loop_
_atom_site_label
_atom_site_type_symbol
_atom_site_fract_x
_atom_site_fract_y
_atom_site_fract_z
O1 O 0.1045(3) 0.2025(2) -0.2297(1)
N1 N 0.1259(3) 0.1103(2) -0.1516(2)
C1 C 0.1532(3) 0.1370(2) -0.0331(2)
N2 N 0.1821(3) 0.0397(2) 0.0434(2)
C2 C 0.1798(5) -0.0851(2) 0.0073(2)
C3 C 0.1448(4) -0.1181(2) -0.1093(2)
C4 C 0.1180(4) -0.0177(3) -0.1879(2)
C5 C 0.1490(3) 0.2732(2) 0.0133(2)
C6 C 0.1891(4) 0.3857(2) -0.0532(2)
C7 C 0.1865(5) 0.5088(3) 0.0005(3)
C8 C 0.1424(5) 0.5230(3) 0.1182(3)
C9 C 0.1020(5) 0.4132(3) 0.1839(2)
C10 C 0.1065(4) 0.2883(2) 0.1331(2)
H1 H 0.20600 -0.16260 0.07060
H2 H 0.13890 -0.21990 -0.13720
H3 H 0.09030 -0.03990 -0.27970
H4 H 0.22210 0.37710 -0.14610
H5 H 0.21970 0.59520 -0.05120
H6 H 0.13960 0.61960 0.15840
H7 H 0.06620 0.42370 0.27620
H8 H 0.07710 0.20260 0.18660
#END
