
#######################################################################
#
#                 Cambridge Crystallographic Data Centre
#                                CCDC
#
#######################################################################
#
# If this CIF has been generated from an entry in the Cambridge
# Structural Database, then it will include bibliographic, chemical,
# crystal, experimental, refinement or atomic coordinate data resulting
# from the CCDC's data processing and validation procedures.
#
#######################################################################

data_CSD_CIF_VUKSEZ
_audit_creation_date 1993-05-12
_audit_creation_method CSD-ConQuest-V1
_database_code_CSD VUKSEZ
_chemical_formula_sum 'C20 H24 N2 O4'
_chemical_formula_moiety
;
C20 H24 N2 O4
;
_journal_coden_Cambridge 82
_journal_volume 32
_journal_year 1991
_journal_page_first 111-4
_journal_name_full 'Zh.Strukt.Khim.(Russ.)(J.Struct.Chem.) '
loop_
_publ_author_name
"L.P.Olekhnovich"
"N.G.Furmanova"
"S.N.Lyubchenko"
"O.Yu.Rekhlova"
"A.V.Lesin"
"V.I.Simakov"
"E.P.Ivakhnenko"
_chemical_name_systematic
;
4-(2-Hydroxy-4-nitrophenyl)imino-2,6-di-t-butyl-2,5-cyclohexadien-1-one
;
_chemical_name_common
;
4-Nitro-o-indophenol
;
_cell_volume   4005.123
_exptl_crystal_density_diffrn 1.187
_diffrn_ambient_temperature ?
_diffrn_special_details
;
The study was carried out at room temperature,in the range 283-303K

;
#These two values have been output from a single CSD field.
_refine_ls_R_factor_gt 0.054
_refine_ls_wR_factor_gt 0.054
_symmetry_cell_setting monoclinic
_symmetry_space_group_name_H-M 'P 21/c'
_symmetry_Int_Tables_number 14
loop_
_symmetry_equiv_pos_site_id
_symmetry_equiv_pos_as_xyz
1 x,y,z
2 -x,1/2+y,1/2-z
3 -x,-y,-z
4 x,-1/2-y,-1/2+z
_cell_length_a 19.481(3)
_cell_length_b 10.135(1)
_cell_length_c 20.342(10)
_cell_angle_alpha 90
_cell_angle_beta 94.28(3)
_cell_angle_gamma 90
_cell_formula_units_Z 8
loop_
_atom_type_symbol
_atom_type_radius_bond
C 0.68
N 0.68
O 0.68
loop_
_atom_site_label
_atom_site_type_symbol
_atom_site_fract_x
_atom_site_fract_y
_atom_site_fract_z
O1 O 0.1931(2) -0.0718(3) -0.1520(1)
O2 O 0.3884(1) 0.2127(2) 0.1508(1)
O3 O 0.5613(1) 0.5521(2) 0.1198(1)
O4 O 0.6160(1) 0.4856(3) 0.0383(1)
N1 N 0.3823(1) 0.0567(2) 0.0395(1)
N2 N 0.5694(1) 0.4759(2) 0.0745(1)
C1 C 0.3210(1) 0.1214(2) -0.0656(1)
C2 C 0.3367(1) 0.0348(2) -0.0091(1)
C3 C 0.2955(1) -0.0840(2) -0.0030(1)
C4 C 0.2446(1) -0.1189(2) -0.0474(1)
C5 C 0.2335(1) -0.0366(3) -0.1078(1)
C6 C 0.2721(1) 0.0899(2) -0.1130(1)
C7 C 0.4276(1) 0.1649(2) 0.0432(1)
C8 C 0.4301(1) 0.2388(2) 0.1020(1)
C9 C 0.4756(1) 0.3430(3) 0.1111(1)
C10 C 0.5199(1) 0.3672(2) 0.0633(1)
C11 C 0.5213(1) 0.2930(3) 0.0064(1)
C12 C 0.4735(1) 0.1925(3) -0.0040(1)
C13 C 0.2540(1) 0.1765(3) -0.1735(1)
C14 C 0.2974(3) 0.3015(5) -0.1703(2)
C15 C 0.2703(2) 0.1030(5) -0.2366(1)
C16 C 0.1777(2) 0.2127(5) -0.1787(2)
C17 C 0.1980(1) -0.2380(3) -0.0384(1)
C18 C 0.2161(2) -0.3023(4) 0.0289(1)
C19 C 0.1224(2) -0.1942(4) -0.0420(2)
C20 C 0.2092(2) -0.3433(3) -0.0909(1)
O5 O 0.0474(1) 0.0954(3) 0.1508(2)
O6 O 0.4135(1) -0.1697(2) 0.11880
O7 O 0.4861(2) -0.5062(3) 0.2808(1)
O8 O 0.4358(1) -0.4596(2) 0.3682(1)
N3 N 0.3133(1) -0.0212(2) 0.1733(1)
N4 N 0.4471(1) -0.4392(3) 0.3111(1)
C21 C 0.1957(1) -0.0981(2) 0.1859(1)
C22 C 0.2470(1) -0.0062(2) 0.1646(1)
C23 C 0.2229(1) 0.1083(2) 0.1263(1)
C24 C 0.1568(1) 0.1392(2) 0.1149(1)
C25 C 0.1060(1) 0.0572(3) 0.1476(1)
C26 C 0.1279(1) -0.0729(3) 0.1772(1)
C27 C 0.3441(1) -0.1269(2) 0.2097(1)
C28 C 0.3961(1) -0.1968(2) 0.1803(1)
C29 C 0.4296(1) -0.2996(2) 0.2134(1)
C30 C 0.4119(1) -0.3285(2) 0.2764(1)
C31 C 0.3637(1) -0.2589(3) 0.3081(1)
C32 C 0.3297(1) -0.1581(2) 0.2742(1)
C33 C 0.0733(1) -0.1702(3) 0.1966(1)
C34 C 0.1053(1) -0.3016(4) 0.2176(2)
C35 C 0.0370(2) -0.1155(5) 0.2552(2)
C36 C 0.0215(2) -0.1959(6) 0.1386(2)
C37 C 0.1313(1) 0.2549(3) 0.0715(1)
C38 C 0.1917(2) 0.3166(4) 0.0383(2)
C39 C 0.0801(2) 0.2040(5) 0.0164(2)
C40 C 0.0992(2) 0.3619(4) 0.1120(2)
#END
