
#######################################################################
#
#                 Cambridge Crystallographic Data Centre
#                                CCDC
#
#######################################################################
#
# If this CIF has been generated from an entry in the Cambridge
# Structural Database, then it will include bibliographic, chemical,
# crystal, experimental, refinement or atomic coordinate data resulting
# from the CCDC's data processing and validation procedures.
#
#######################################################################

data_CSD_CIF_VUMLIY
_audit_creation_date 1993-05-14
_audit_creation_method CSD-ConQuest-V1
_database_code_CSD VUMLIY
_chemical_formula_sum 'C16 H24 N2 O4'
_chemical_formula_moiety
;
C16 H24 N2 O4
;
_journal_coden_Cambridge 207
_journal_year 1992
_journal_page_first 2059
_journal_name_full 'J.Chem.Soc.,Perkin Trans.1 '
loop_
_publ_author_name
"L.Brehm"
"J.S.Johansen"
"P.Krogsgaard-Larsen"
_chemical_name_systematic
;
(RS,RS)-3,3'-Di-t-butyl-4,4'-dimethyl-(4,4'-bi-isoxazole)-5(4H),5'(4'H)-dione
;
_chemical_melting_point 384.15
_cell_volume   1607.978
_exptl_crystal_colour 'colorless'
_exptl_crystal_density_diffrn 1.274
_exptl_special_details
;
Melting point range 384.15-386.15K

;
_diffrn_ambient_temperature 110
#These two values have been output from a single CSD field.
_refine_ls_R_factor_gt 0.036
_refine_ls_wR_factor_gt 0.036
_symmetry_cell_setting monoclinic
_symmetry_space_group_name_H-M 'P 21/n'
_symmetry_Int_Tables_number 14
loop_
_symmetry_equiv_pos_site_id
_symmetry_equiv_pos_as_xyz
1 x,y,z
2 1/2-x,1/2+y,1/2-z
3 -x,-y,-z
4 -1/2+x,-1/2-y,-1/2+z
_cell_length_a 10.201(3)
_cell_length_b 10.738(6)
_cell_length_c 15.450(4)
_cell_angle_alpha 90
_cell_angle_beta 108.17(2)
_cell_angle_gamma 90
_cell_formula_units_Z 4
loop_
_atom_type_symbol
_atom_type_radius_bond
C 0.68
N 0.68
O 0.68
loop_
_atom_site_label
_atom_site_type_symbol
_atom_site_fract_x
_atom_site_fract_y
_atom_site_fract_z
O1 O 0.29593(8) 0.01821(7) 0.03201(5)
N1 N 0.30831(9) -0.06865(8) -0.03605(5)
C1 C 0.35253(8) -0.17365(9) 0.00167(6)
C2 C 0.38637(9) -0.16882(8) 0.10548(6)
C3 C 0.33447(9) -0.03737(9) 0.11513(6)
O2 O 0.33444(8) 0.01992(7) 0.18149(5)
C4 C 0.37675(9) -0.27371(9) -0.06229(6)
C5 C 0.2776(1) -0.38410(9) -0.07100(6)
C6 C 0.5268(1) -0.3192(1) -0.02808(7)
C7 C 0.3504(1) -0.2184(1) -0.15812(6)
C8 C 0.5458(1) -0.1523(1) 0.14949(6)
O3 O 0.30109(7) -0.48724(7) 0.14023(5)
N2 N 0.16537(8) -0.43229(8) 0.11383(5)
C9 C 0.17653(9) -0.31311(9) 0.11882(6)
C10 C 0.32698(9) -0.27047(9) 0.15663(6)
C11 C 0.3985(1) -0.39656(9) 0.16106(6)
O4 O 0.51917(8) -0.42255(7) 0.18473(5)
C12 C 0.04001(9) -0.2417(1) 0.09442(6)
C13 C 0.0407(1) -0.1414(1) 0.16494(8)
C14 C 0.0110(1) -0.1826(1) 0.00016(8)
C15 C -0.0775(1) -0.3332(1) 0.09108(9)
C16 C 0.3575(1) -0.2384(1) 0.25960(6)
#END
