
#######################################################################
#
#                 Cambridge Crystallographic Data Centre
#                                CCDC
#
#######################################################################
#
# If this CIF has been generated from an entry in the Cambridge
# Structural Database, then it will include bibliographic, chemical,
# crystal, experimental, refinement or atomic coordinate data resulting
# from the CCDC's data processing and validation procedures.
#
#######################################################################

data_CSD_CIF_VUMWOP
_audit_creation_date 1993-05-12
_audit_creation_method CSD-ConQuest-V1
_database_code_CSD VUMWOP
_chemical_formula_sum 'C21 H22 N2 O7'
_chemical_formula_moiety
;
C21 H22 N2 O7
;
_journal_coden_Cambridge 35
_journal_volume 54
_journal_year 1989
_journal_page_first 6129
_journal_name_full 'J.Org.Chem. '
loop_
_publ_author_name
"S.F.Martin"
"Wei Li"
_chemical_name_systematic
;
(2R*,3R*,4R*)-2-(Benzyloxy)-4-methyl-5-hexen-3-ol
;
_chemical_melting_point 405.65
_cell_volume   2070.965
_exptl_crystal_colour 'colorless'
_exptl_crystal_density_diffrn 1.33
_exptl_special_details
;
Melting point range 405.65-407.15K

;
_diffrn_ambient_temperature 163
#These two values have been output from a single CSD field.
_refine_ls_R_factor_gt 0.0486
_refine_ls_wR_factor_gt 0.0486
_symmetry_cell_setting monoclinic
_symmetry_space_group_name_H-M 'P 21/c'
_symmetry_Int_Tables_number 14
loop_
_symmetry_equiv_pos_site_id
_symmetry_equiv_pos_as_xyz
1 x,y,z
2 -x,1/2+y,1/2-z
3 -x,-y,-z
4 x,-1/2-y,-1/2+z
_cell_length_a 7.9749(11)
_cell_length_b 22.230(4)
_cell_length_c 11.866(2)
_cell_angle_alpha 90
_cell_angle_beta 100.110(15)
_cell_angle_gamma 90
_cell_formula_units_Z 4
loop_
_atom_type_symbol
_atom_type_radius_bond
C 0.68
H 0.23
N 0.68
O 0.68
loop_
_atom_site_label
_atom_site_type_symbol
_atom_site_fract_x
_atom_site_fract_y
_atom_site_fract_z
O1 O 0.1754(3) 0.78834(8) 0.51509(14)
O2 O 0.2329(2) 0.81982(7) 0.69859(13)
O3 O 0.6830(3) 0.73167(10) 0.9690(2)
O4 O 0.7763(3) 0.64333(9) 0.9357(2)
O5 O 0.6425(3) 0.55995(9) 0.5556(2)
O6 O 0.5220(3) 0.61743(10) 0.4173(2)
O7 O 0.0811(2) 0.87289(7) 0.87403(13)
N1 N 0.6927(3) 0.68853(11) 0.9068(2)
N2 N 0.5679(3) 0.60591(10) 0.5193(2)
C1 C 0.2534(3) 0.78478(10) 0.6113(2)
C2 C 0.3868(3) 0.73788(10) 0.6487(2)
C3 C 0.4795(3) 0.73668(11) 0.7592(2)
C4 C 0.5965(3) 0.69100(11) 0.7889(2)
C5 C 0.6264(3) 0.64723(11) 0.7127(2)
C6 C 0.5347(3) 0.65098(10) 0.6034(2)
C7 C 0.4147(3) 0.69484(11) 0.5692(2)
C8 C 0.1121(3) 0.86981(11) 0.6777(2)
C9 C -0.0111(3) 0.86224(12) 0.7613(2)
C10 C -0.0980(5) 0.8015(2) 0.7513(3)
C11 C -0.0274(4) 0.88007(14) 0.9569(2)
C12 C 0.0791(2) 0.90020(7) 1.06797(11)
C13 C 0.1856(2) 0.95001(7) 1.06817(11)
C14 C 0.2882(2) 0.96853(7) 1.16976(11)
C15 C 0.2843(2) 0.93724(7) 1.27116(11)
C16 C 0.1778(2) 0.88744(7) 1.27096(11)
C17 C 0.0752(2) 0.86892(7) 1.16937(11)
C18 C 0.2157(3) 0.92797(11) 0.6901(2)
C19 C 0.0998(5) 0.98301(14) 0.6829(3)
C20 C 0.3255(4) 0.93053(13) 0.5993(2)
C21 C 0.4875(5) 0.9202(2) 0.6133(3)
H1 H 0.1884(2) 0.97244(7) 0.99548(11)
H2 H 0.3645(2) 1.00423(7) 1.16990(11)
H3 H 0.3578(2) 0.95052(7) 1.34399(11)
H4 H 0.1750(2) 0.86501(7) 1.34365(11)
H5 H -0.0011(2) 0.83321(7) 1.16923(11)
H6 H 0.460(3) 0.7658(12) 0.813(2)
H7 H 0.707(3) 0.6171(11) 0.733(2)
H8 H 0.353(3) 0.6945(10) 0.494(2)
H9 H 0.051(3) 0.8673(10) 0.599(2)
H10 H -0.100(3) 0.8934(10) 0.743(2)
H11 H -0.143(4) 0.7923(13) 0.670(3)
H12 H -0.021(4) 0.770(2) 0.785(3)
H13 H -0.188(4) 0.8010(13) 0.792(3)
H14 H -0.121(4) 0.9112(13) 0.925(2)
H15 H -0.076(3) 0.8413(13) 0.968(2)
H16 H 0.288(3) 0.9271(9) 0.762(2)
H17 H 0.012(4) 0.9806(13) 0.614(3)
H18 H 0.164(3) 1.0226(14) 0.677(2)
H19 H 0.040(4) 0.9868(12) 0.750(3)
H20 H 0.267(4) 0.9396(13) 0.521(3)
H21 H 0.550(4) 0.9095(13) 0.683(3)
H22 H 0.553(4) 0.9235(15) 0.547(3)
#END
