
#######################################################################
#
#                 Cambridge Crystallographic Data Centre
#                                CCDC
#
#######################################################################
#
# If this CIF has been generated from an entry in the Cambridge
# Structural Database, then it will include bibliographic, chemical,
# crystal, experimental, refinement or atomic coordinate data resulting
# from the CCDC's data processing and validation procedures.
#
#######################################################################

data_CSD_CIF_VUNJEV
_audit_creation_date 2015-06-19
_audit_creation_method CSD-ConQuest-V1
_database_code_CSD VUNJEV
_database_code_depnum_ccdc_archive 'CCDC 1043546'
_chemical_formula_sum 'C20 H17 N1 O6'
_chemical_formula_moiety
;
C20 H17 N1 O6
;
_journal_coden_Cambridge 1048
_journal_volume 17
_journal_year 2015
_journal_page_first 4061
_journal_name_full 'Green Chemistry '
loop_
_publ_author_name
"Jia-Ning Xie"
"Bing Yu"
"Chun-Xiang Guo"
"Liang-Nian He"
_chemical_name_systematic
;
ethyl 
3a-hydroxy-2-(4-methoxyphenyl)-8-oxo-3a,8-dihydro[1,2]oxazolo[3,2-a]isoindole-
3-carboxylate
;
_cell_volume   1737.380
_exptl_crystal_density_diffrn 1.404
_diffrn_ambient_temperature 113
#These two values have been output from a single CSD field.
_refine_ls_R_factor_gt 0.0499
_refine_ls_wR_factor_gt 0.0499
_symmetry_cell_setting monoclinic
_symmetry_space_group_name_H-M 'P 21/c'
_symmetry_Int_Tables_number 14
loop_
_symmetry_equiv_pos_site_id
_symmetry_equiv_pos_as_xyz
1 x,y,z
2 -x,1/2+y,1/2-z
3 -x,-y,-z
4 x,-1/2-y,-1/2+z
_cell_length_a 7.8241(16)
_cell_length_b 24.301(5)
_cell_length_c 9.1574(18)
_cell_angle_alpha 90
_cell_angle_beta 93.76(3)
_cell_angle_gamma 90
_cell_formula_units_Z 4
loop_
_atom_type_symbol
_atom_type_radius_bond
C 0.68
H 0.23
N 0.68
O 0.68
loop_
_atom_site_label
_atom_site_type_symbol
_atom_site_fract_x
_atom_site_fract_y
_atom_site_fract_z
O1 O 0.36790(13) 0.32914(4) 0.47376(12)
O2 O 0.43698(15) 0.21836(4) 0.46808(13)
O3 O 0.53670(13) 0.36573(4) 0.78554(12)
H1 H 0.51580 0.34430 0.85410
O4 O 0.80668(14) 0.43409(4) 0.42412(12)
O5 O 0.85056(13) 0.41408(4) 0.66418(12)
O6 O 0.21452(15) 0.49222(4) -0.04028(13)
N1 N 0.44723(16) 0.30059(5) 0.59738(14)
C1 C 0.5087(2) 0.24823(6) 0.55961(18)
C2 C 0.6677(2) 0.24022(6) 0.65323(18)
C3 C 0.7595(2) 0.19240(6) 0.6838(2)
H2 H 0.72140 0.15790 0.64490
C4 C 0.9088(2) 0.19665(7) 0.7731(2)
H3 H 0.97510 0.16460 0.79540
C5 C 0.9632(2) 0.24728(7) 0.8307(2)
H4 H 1.06640 0.24920 0.89120
C6 C 0.8686(2) 0.29515(7) 0.8009(2)
H5 H 0.90490 0.32950 0.84150
C7 C 0.7201(2) 0.29107(6) 0.71021(18)
C8 C 0.58838(18) 0.33507(6) 0.66610(17)
C9 C 0.61680(18) 0.37358(6) 0.54005(17)
C10 C 0.48216(19) 0.37021(6) 0.44192(17)
C11 C 0.42114(18) 0.40280(6) 0.31392(17)
C12 C 0.44794(18) 0.45953(6) 0.30879(17)
H6 H 0.51320 0.47690 0.38700
C13 C 0.38193(18) 0.49119(6) 0.19270(17)
H7 H 0.40130 0.52980 0.19110
C14 C 0.28704(19) 0.46557(6) 0.07877(17)
C15 C 0.2605(2) 0.40853(6) 0.08052(18)
H8 H 0.19800 0.39110 0.00090
C16 C 0.32554(18) 0.37763(6) 0.19841(17)
H9 H 0.30500 0.33910 0.20070
C17 C 0.2295(2) 0.55092(6) -0.04678(18)
H10 H 0.17880 0.56730 0.03810
H11 H 0.16920 0.56450 -0.13690
H12 H 0.35070 0.56110 -0.04600
C18 C 0.76533(19) 0.41018(6) 0.53282(17)
C19 C 0.99558(19) 0.45206(6) 0.67515(19)
H13 H 1.01600 0.46440 0.77780
H14 H 0.96840 0.48490 0.61390
C20 C 1.1548(2) 0.42504(7) 0.6257(2)
H15 H 1.17470 0.39040 0.67890
H16 H 1.25300 0.44960 0.64550
H17 H 1.14040 0.41750 0.52050
#END
