
#######################################################################
#
#                 Cambridge Crystallographic Data Centre
#                                CCDC
#
#######################################################################
#
# If this CIF has been generated from an entry in the Cambridge
# Structural Database, then it will include bibliographic, chemical,
# crystal, experimental, refinement or atomic coordinate data resulting
# from the CCDC's data processing and validation procedures.
#
#######################################################################

data_CSD_CIF_VUNKAS
_audit_creation_date 2015-06-19
_audit_creation_method CSD-ConQuest-V1
_database_code_CSD VUNKAS
_database_code_depnum_ccdc_archive 'CCDC 1030211'
_chemical_formula_sum 'C17 H18 N2 O3'
_chemical_formula_moiety
;
C17 H18 N2 O3
;
_journal_coden_Cambridge 1748
_journal_volume 2
_journal_year 2015
_journal_page_first 951
_journal_name_full 'Org.Chem.Front. '
loop_
_publ_author_name
"Duo Zhang"
"Xiuling Cui"
"Fangfang Yang"
"Qianqian Zhang"
"Yu Zhu"
"Yangjie Wu"
_chemical_name_systematic
;
2-(1-hydroxy-2-(4-methylphenyl)-1-diazen-1-yl)-5-methylphenyl propionate
;
_cell_volume    791.851
_exptl_crystal_density_diffrn 1.251
_diffrn_ambient_temperature 291.1
#These two values have been output from a single CSD field.
_refine_ls_R_factor_gt 0.0508
_refine_ls_wR_factor_gt 0.0508
_symmetry_cell_setting triclinic
_symmetry_space_group_name_H-M 'P -1'
_symmetry_Int_Tables_number 2
loop_
_symmetry_equiv_pos_site_id
_symmetry_equiv_pos_as_xyz
1 x,y,z
2 -x,-y,-z
_cell_length_a 6.8879(9)
_cell_length_b 8.2820(9)
_cell_length_c 14.4023(10)
_cell_angle_alpha 104.655(8)
_cell_angle_beta 94.121(9)
_cell_angle_gamma 91.668(10)
_cell_formula_units_Z 2
loop_
_atom_type_symbol
_atom_type_radius_bond
C 0.68
H 0.23
N 0.68
O 0.68
loop_
_atom_site_label
_atom_site_type_symbol
_atom_site_fract_x
_atom_site_fract_y
_atom_site_fract_z
O1 O -0.2149(3) 0.30110(18) 0.64377(12)
O2 O 0.30011(19) 0.26101(15) 0.78158(9)
O3 O 0.2495(2) 0.11774(17) 0.89195(10)
N1 N -0.1004(2) 0.25359(19) 0.70293(11)
N2 N -0.0561(2) 0.10517(19) 0.70119(11)
C1 C -0.0141(3) 0.3841(2) 0.78494(13)
C2 C -0.1288(3) 0.5159(2) 0.82280(15)
H1 H -0.25570 0.51770 0.79630
C3 C -0.0557(4) 0.6440(3) 0.89944(15)
H2 H -0.13470 0.73080 0.92490
C4 C 0.1335(4) 0.6457(2) 0.93926(14)
C5 C 0.2480(3) 0.5139(2) 0.89945(13)
H3 H 0.37630 0.51390 0.92440
C6 C 0.1752(3) 0.3834(2) 0.82389(13)
C7 C 0.2157(4) 0.7880(3) 1.02138(16)
H4 H 0.32560 0.75200 1.05440
H5 H 0.11760 0.82290 1.06540
H6 H 0.25620 0.87990 0.99670
C8 C -0.1320(3) -0.0298(2) 0.62476(13)
C9 C -0.2333(3) -0.0265(3) 0.53774(14)
H7 H -0.26150 0.07500 0.52460
C10 C -0.2908(3) -0.1739(3) 0.47193(14)
H8 H -0.35640 -0.17000 0.41390
C11 C -0.2554(3) -0.3278(2) 0.48815(14)
C12 C -0.1565(3) -0.3296(2) 0.57509(15)
H9 H -0.13150 -0.43140 0.58860
C13 C -0.0948(3) -0.1838(2) 0.64165(14)
H10 H -0.02690 -0.18850 0.69900
C14 C -0.3225(3) -0.4866(3) 0.41403(16)
H11 H -0.45300 -0.47640 0.38870
H12 H -0.31980 -0.57850 0.44340
H13 H -0.23750 -0.50610 0.36280
C15 C 0.3170(3) 0.1251(2) 0.81942(14)
C16 C 0.4319(3) -0.0034(2) 0.75698(15)
H14 H 0.55410 0.04910 0.74750
H15 H 0.36020 -0.04340 0.69440
C17 C 0.4750(4) -0.1499(3) 0.79712(18)
H16 H 0.54680 -0.22790 0.75300
H17 H 0.35490 -0.20340 0.80620
H18 H 0.55090 -0.11210 0.85780
#END
