
#######################################################################
#
#                 Cambridge Crystallographic Data Centre
#                                CCDC
#
#######################################################################
#
# If this CIF has been generated from an entry in the Cambridge
# Structural Database, then it will include bibliographic, chemical,
# crystal, experimental, refinement or atomic coordinate data resulting
# from the CCDC's data processing and validation procedures.
#
#######################################################################

data_CSD_CIF_VUNSII
_audit_creation_date 2015-06-19
_audit_creation_method CSD-ConQuest-V1
_database_code_CSD VUNSII
_database_code_depnum_ccdc_archive 'CCDC 1024177'
_chemical_formula_sum 'C14 H14 N2 O3'
_chemical_formula_moiety
;
C14 H14 N2 O3
;
_journal_coden_Cambridge 1748
_journal_volume 2
_journal_year 2015
_journal_page_first 951
_journal_name_full 'Org.Chem.Front. '
loop_
_publ_author_name
"Duo Zhang"
"Xiuling Cui"
"Fangfang Yang"
"Qianqian Zhang"
"Yu Zhu"
"Yangjie Wu"
_chemical_name_systematic
;
1,3-dimethoxy-2-(phenyl-NNO-azoxy)benzene
;
_cell_volume   2700.596
_exptl_crystal_density_diffrn 1.27
_diffrn_ambient_temperature 291.1
#These two values have been output from a single CSD field.
_refine_ls_R_factor_gt 0.0478
_refine_ls_wR_factor_gt 0.0478
_symmetry_cell_setting monoclinic
_symmetry_space_group_name_H-M 'P 2/c'
_symmetry_Int_Tables_number 13
loop_
_symmetry_equiv_pos_site_id
_symmetry_equiv_pos_as_xyz
1 x,y,z
2 -x,y,1/2-z
3 -x,-y,-z
4 x,-y,-1/2+z
_cell_length_a 12.8276(3)
_cell_length_b 8.4882(2)
_cell_length_c 24.8068(7)
_cell_angle_alpha 90
_cell_angle_beta 91.044(2)
_cell_angle_gamma 90
_cell_formula_units_Z 8
loop_
_atom_type_symbol
_atom_type_radius_bond
C 0.68
H 0.23
N 0.68
O 0.68
loop_
_atom_site_label
_atom_site_type_symbol
_atom_site_fract_x
_atom_site_fract_y
_atom_site_fract_z
O1 O 0.90201(11) 0.37593(16) 0.62853(6)
O2 O 0.84975(13) 0.44343(19) 0.74621(6)
O3 O 0.65276(11) 0.3794(2) 0.58977(6)
N1 N 0.80212(11) 0.16777(17) 0.65335(6)
N2 N 0.82307(11) 0.31256(17) 0.64863(6)
C1 C 0.84849(16) -0.0977(2) 0.64982(8)
H1 H 0.79120 -0.11450 0.67150
C2 C 0.9092(2) -0.2243(2) 0.63466(10)
H2 H 0.89330 -0.32490 0.64680
C3 C 0.99223(17) -0.2024(3) 0.60196(10)
H3 H 1.03370 -0.28740 0.59230
C4 C 1.01425(17) -0.0536(3) 0.58336(10)
H4 H 1.06960 -0.03950 0.56010
C5 C 0.95573(16) 0.0757(2) 0.59847(9)
H5 H 0.97180 0.17570 0.58580
C6 C 0.87194(13) 0.0538(2) 0.63314(7)
C7 C 0.74495(14) 0.4206(2) 0.66967(8)
C8 C 0.76272(16) 0.4922(3) 0.71903(8)
C9 C 0.6930(2) 0.6058(3) 0.73639(11)
H6 H 0.70290 0.65580 0.76950
C10 C 0.6089(2) 0.6428(3) 0.70347(13)
H7 H 0.56270 0.71990 0.71480
C11 C 0.59042(18) 0.5712(3) 0.65480(12)
H8 H 0.53220 0.59830 0.63390
C12 C 0.65946(14) 0.4580(2) 0.63710(9)
C13 C 0.8838(2) 0.5317(4) 0.79221(11)
H9 H 0.89840 0.63810 0.78160
H10 H 0.94580 0.48470 0.80730
H11 H 0.83000 0.53170 0.81860
C14 C 0.56824(19) 0.4155(4) 0.55360(12)
H12 H 0.57250 0.35010 0.52210
H13 H 0.57210 0.52430 0.54320
H14 H 0.50340 0.39640 0.57110
O4 O 0.73461(11) 0.12596(16) 0.45453(6)
O5 O 0.48954(12) 0.1315(2) 0.43700(8)
O6 O 0.77704(15) 0.0528(2) 0.33001(6)
N3 N 0.68597(12) 0.33340(18) 0.40146(6)
N4 N 0.68805(11) 0.18983(18) 0.41514(6)
C15 C 0.73060(17) 0.5976(2) 0.41172(9)
H15 H 0.69020 0.61370 0.38070
C16 C 0.7785(2) 0.7236(3) 0.43638(10)
H16 H 0.77070 0.82410 0.42190
C17 C 0.8376(2) 0.7019(3) 0.48217(10)
H17 H 0.86980 0.78740 0.49890
C18 C 0.84912(18) 0.5544(3) 0.50328(9)
H18 H 0.88940 0.54060 0.53450
C19 C 0.80234(15) 0.4251(2) 0.47928(8)
H19 H 0.81110 0.32520 0.49410
C20 C 0.74165(13) 0.4462(2) 0.43241(7)
C21 C 0.62758(16) 0.0837(2) 0.38069(8)
C22 C 0.52607(19) 0.0511(3) 0.39421(11)
C23 C 0.4715(2) -0.0613(4) 0.36330(14)
H20 H 0.40270 -0.08580 0.37080
C24 C 0.5217(4) -0.1347(4) 0.32163(15)
H21 H 0.48540 -0.21000 0.30160
C25 C 0.6220(3) -0.1023(3) 0.30833(11)
H22 H 0.65290 -0.15420 0.27970
C26 C 0.6775(2) 0.0096(3) 0.33820(9)
C27 C 0.3865(2) 0.0963(5) 0.45530(16)
H23 H 0.33670 0.11750 0.42690
H24 H 0.37130 0.16070 0.48600
H25 H 0.38270 -0.01280 0.46520
C28 C 0.8394(3) -0.0402(4) 0.29471(12)
H26 H 0.80730 -0.04250 0.25950
H27 H 0.84490 -0.14560 0.30850
H28 H 0.90770 0.00530 0.29250
#END
