
#######################################################################
#
#                 Cambridge Crystallographic Data Centre
#                                CCDC
#
#######################################################################
#
# If this CIF has been generated from an entry in the Cambridge
# Structural Database, then it will include bibliographic, chemical,
# crystal, experimental, refinement or atomic coordinate data resulting
# from the CCDC's data processing and validation procedures.
#
#######################################################################

data_CSD_CIF_VUNSII01
_audit_creation_date 2015-12-16
_audit_creation_method CSD-ConQuest-V1
_database_code_CSD VUNSII01
_database_code_depnum_ccdc_archive 'CCDC 1058045'
_chemical_formula_sum 'C14 H14 N2 O3'
_chemical_formula_moiety
;
C14 H14 N2 O3
;
_journal_coden_Cambridge 1088
_journal_volume 26
_journal_year 2015
_journal_page_first 2843
_journal_name_full 'Synlett '
loop_
_publ_author_name
"Meng Sun"
"Liang Zhang"
"Cheng-Wen Hua"
"Zhe Wang"
"L.-K.Hou"
"Su-Xian Cai"
"Shuang Li"
_chemical_name_systematic
;
1-(2,6-dimethoxyphenyl)-1-oxy-2-phenyldiazene
;
_cell_volume   2707.466
_exptl_crystal_colour 'colorless'
_exptl_crystal_density_diffrn 1.267
_exptl_crystal_description 'block'
_diffrn_ambient_temperature 293
#These two values have been output from a single CSD field.
_refine_ls_R_factor_gt 0.0957
_refine_ls_wR_factor_gt 0.0957
_symmetry_cell_setting monoclinic
_symmetry_space_group_name_H-M 'P 2/c'
_symmetry_Int_Tables_number 13
loop_
_symmetry_equiv_pos_site_id
_symmetry_equiv_pos_as_xyz
1 x,y,z
2 -x,y,1/2-z
3 -x,-y,-z
4 x,-y,-1/2+z
_cell_length_a 12.820(6)
_cell_length_b 8.495(4)
_cell_length_c 24.864(11)
_cell_angle_alpha 90
_cell_angle_beta 90.948(9)
_cell_angle_gamma 90
_cell_formula_units_Z 8
loop_
_atom_type_symbol
_atom_type_radius_bond
C 0.68
H 0.23
N 0.68
O 0.68
loop_
_atom_site_label
_atom_site_type_symbol
_atom_site_fract_x
_atom_site_fract_y
_atom_site_fract_z
C1 C 0.2543(2) 0.9189(4) 0.33083(13)
C2 C 0.3402(3) 0.9588(4) 0.36280(13)
C3 C 0.4100(2) 1.0726(5) 0.34543(18)
H1 H 0.46750 1.09930 0.36680
C4 C 0.3938(3) 1.1464(4) 0.29611(19)
H2 H 0.44040 1.22240 0.28450
C5 C 0.3078(3) 1.1064(4) 0.26414(14)
H3 H 0.29700 1.15580 0.23110
C6 C 0.2381(3) 0.9927(4) 0.28150(13)
C7 C 0.0923(3) 0.2758(3) 0.36495(16)
H4 H 0.10800 0.17520 0.35260
C8 C 0.1522(2) 0.4035(4) 0.34909(14)
H5 H 0.20800 0.38840 0.32620
C9 C 0.1288(2) 0.5537(3) 0.36747(14)
C10 C 0.0455(3) 0.5762(3) 0.40171(15)
H6 H 0.02990 0.67670 0.41400
C11 C -0.0144(2) 0.4485(4) 0.41757(15)
H7 H -0.07010 0.46360 0.44050
C12 C 0.0090(3) 0.2983(3) 0.39919(16)
H8 H -0.03110 0.21280 0.40980
O1 O 0.0984(3) 0.8766(4) 0.37149(17)
O2 O 0.1501(3) 0.9446(5) 0.25397(16)
O3 O 0.3473(3) 0.8795(5) 0.41033(16)
N1 N 0.1986(3) 0.6680(5) 0.34677(16)
N2 N 0.1773(3) 0.8131(5) 0.35141(16)
C13 C 0.4307(5) 0.9185(11) 0.4458(3)
H9 H 0.49490 0.91850 0.42650
H10 H 0.43460 0.84250 0.47430
H11 H 0.41900 1.02120 0.46070
C14 C 0.1182(7) 1.0336(10) 0.2083(3)
H12 H 0.10980 1.14190 0.21840
H13 H 0.05300 0.99350 0.19450
H14 H 0.17010 1.02570 0.18100
C15 C 0.3230(3) 0.4908(5) 0.16200(15)
C16 C 0.3777(5) 0.6026(5) 0.19199(15)
H15 H 0.34570 0.65320 0.22050
C17 C 0.4801(4) 0.6388(5) 0.1794(2)
H16 H 0.51670 0.71360 0.19940
C18 C 0.5279(3) 0.5632(6) 0.1367(2)
H17 H 0.59640 0.58740 0.12830
C19 C 0.4732(3) 0.4514(5) 0.10673(17)
C20 C 0.3707(3) 0.4152(4) 0.11937(15)
C21 C 0.2578(3) 0.0533(3) 0.06728(12)
C22 C 0.2696(3) -0.0967(4) 0.08884(12)
H18 H 0.30970 -0.11150 0.12000
C23 C 0.2217(4) -0.2246(3) 0.06388(16)
H19 H 0.22960 -0.32500 0.07830
C24 C 0.1618(3) -0.2026(3) 0.01735(15)
H20 H 0.12980 -0.28820 0.00070
C25 C 0.1500(3) -0.0525(4) -0.00421(12)
H21 H 0.11000 -0.03780 -0.03530
C26 C 0.1980(3) 0.0754(3) 0.02075(13)
H22 H 0.19000 0.17580 0.00630
O4 O 0.2648(3) 0.3744(4) 0.04546(14)
O5 O 0.5100(3) 0.3708(6) 0.0640(2)
O6 O 0.2226(4) 0.4480(5) 0.16980(16)
N3 N 0.3137(3) 0.1675(5) 0.09840(16)
N4 N 0.3110(3) 0.3114(5) 0.08497(16)
C27 C 0.6135(6) 0.4045(14) 0.0463(4)
H23 H 0.61590 0.50940 0.03200
H24 H 0.63250 0.33070 0.01890
H25 H 0.66150 0.39590 0.07620
C28 C 0.1610(8) 0.5417(11) 0.2058(3)
H26 H 0.15710 0.64780 0.19270
H27 H 0.19300 0.54110 0.24100
H28 H 0.09200 0.49840 0.20770
#END
