
#######################################################################
#
#                 Cambridge Crystallographic Data Centre
#                                CCDC
#
#######################################################################
#
# If this CIF has been generated from an entry in the Cambridge
# Structural Database, then it will include bibliographic, chemical,
# crystal, experimental, refinement or atomic coordinate data resulting
# from the CCDC's data processing and validation procedures.
#
#######################################################################

data_CSD_CIF_VUNWAC
_audit_creation_date 1993-05-24
_audit_creation_method CSD-ConQuest-V1
_database_code_CSD VUNWAC
_chemical_formula_sum 'C26 H32 N2 O5'
_chemical_formula_moiety
;
C26 H32 N2 O5
;
_journal_coden_Cambridge 35
_journal_volume 57
_journal_year 1992
_journal_page_first 6271
_journal_name_full 'J.Org.Chem. '
loop_
_publ_author_name
"Y.R.Mirzaei"
"B.M.Simpson"
"D.J.Triggle"
"N.R.Natale"
_chemical_name_systematic
;
(+-)-Diethyl 
2,6-dimethyl-4-(5-(1'-phenylprop-2'-yl)-3-methylisoxazol-4-yl)-1,4-dihydropyri
dine-3,5-dicarboxylate
;
_chemical_melting_point 419.15
_cell_volume   2565.714
_exptl_special_details
;
Melting point range 419.15-420.15K
calcium channel antagonistic activity with clinical applications for 
antihypertension and angina, and potential application for cerebrovascular 
vasopasm
;
_diffrn_ambient_temperature ?
_diffrn_special_details
;
The study was carried out at room temperature,in the range 283-303K

;
#These two values have been output from a single CSD field.
_refine_ls_R_factor_gt 0.0674
_refine_ls_wR_factor_gt 0.0674
_symmetry_cell_setting monoclinic
_symmetry_space_group_name_H-M 'P 21/c'
_symmetry_Int_Tables_number 14
loop_
_symmetry_equiv_pos_site_id
_symmetry_equiv_pos_as_xyz
1 x,y,z
2 -x,1/2+y,1/2-z
3 -x,-y,-z
4 x,-1/2-y,-1/2+z
_cell_length_a 9.067(3)
_cell_length_b 16.904(3)
_cell_length_c 17.297(6)
_cell_angle_alpha 90
_cell_angle_beta 104.58(3)
_cell_angle_gamma 90
_cell_formula_units_Z 4
loop_
_atom_type_symbol
_atom_type_radius_bond
C 0.68
H 0.23
N 0.68
O 0.68
loop_
_atom_site_label
_atom_site_type_symbol
_atom_site_fract_x
_atom_site_fract_y
_atom_site_fract_z
O1 O -0.1826(3) 0.5328(10) 0.2323(1)
O2 O 0.2944(4) 0.4347(2) 0.1154(2)
O3 O 0.3244(3) 0.5163(1) 0.2178(1)
O4 O 0.0775(4) 0.3464(2) 0.4830(2)
O5 O 0.2106(3) 0.4497(2) 0.4636(1)
N1 N 0.1459(3) 0.2636(1) 0.2602(1)
N2 N -0.0941(3) 0.5925(1) 0.2781(2)
C1 C 0.1822(3) 0.4255(2) 0.3058(2)
C2 C 0.2248(3) 0.3922(2) 0.2325(2)
C3 C 0.2818(4) 0.4472(2) 0.1820(2)
C4 C 0.3828(6) 0.5752(2) 0.1725(3)
C5 C 0.4413(8) 0.6411(3) 0.2202(4)
C6 C 0.2032(3) 0.3143(2) 0.2125(2)
C7 C 0.2358(4) 0.2745(2) 0.1416(2)
C8 C 0.1257(3) 0.2843(2) 0.3341(2)
C9 C 0.0788(4) 0.2159(2) 0.3771(2)
C10 C 0.1481(3) 0.3600(2) 0.3594(2)
C11 C 0.1393(4) 0.3822(2) 0.4405(2)
C12 C 0.2193(6) 0.4782(3) 0.5444(2)
C13 C 0.3721(7) 0.4836(4) 0.5875(3)
C14 C 0.0466(3) 0.4812(2) 0.2831(2)
C15 C -0.0951(3) 0.4672(2) 0.2363(2)
C16 C -0.1721(3) 0.3979(2) 0.1898(2)
C17 C -0.2873(5) 0.3620(3) 0.2302(2)
C18 C -0.2405(4) 0.4204(2) 0.1018(2)
C19 C -0.2064(2) 0.3025(2) 0.0192(1)
C20 C -0.26390 0.23710 -0.02800
C21 C -0.41920 0.21980 -0.04520
C22 C -0.51690 0.26780 -0.01510
C23 C -0.45940 0.33310 0.03210
C24 C -0.30410 0.35050 0.04930
C25 C 0.0403(4) 0.5617(2) 0.3081(2)
C26 C 0.1624(5) 0.6105(2) 0.3590(2)
H1 H 0.30170 0.59240 0.12850
H2 H 0.46250 0.55210 0.15250
H3 H 0.47710 0.67960 0.18840
H4 H 0.52410 0.62460 0.26350
H5 H 0.36240 0.66400 0.24110
H6 H 0.27500 0.31250 0.11070
H7 H 0.14360 0.25190 0.10930
H8 H 0.30980 0.23340 0.15910
H9 H 0.06660 0.23320 0.42800
H10 H 0.15560 0.17550 0.38500
H11 H -0.01610 0.19490 0.34600
H12 H 0.16650 0.44200 0.57080
H13 H 0.17260 0.52940 0.54160
H14 H 0.37720 0.50110 0.64090
H15 H 0.42440 0.52070 0.56190
H16 H 0.41950 0.43260 0.58930
H17 H -0.09810 0.35750 0.18910
H18 H -0.33490 0.31700 0.20010
H19 H -0.36350 0.40070 0.23270
H20 H -0.23620 0.34560 0.28330
H21 H -0.16220 0.44460 0.08150
H22 H -0.32140 0.45770 0.09960
H23 H -0.09950 0.31440 0.03100
H24 H -0.19670 0.20410 -0.04870
H25 H -0.45890 0.17480 -0.07770
H26 H -0.62380 0.25580 -0.02690
H27 H -0.52660 0.36620 0.05280
H28 H 0.25400 0.57970 0.37520
H29 H 0.13140 0.62770 0.40540
H30 H 0.18110 0.65590 0.32940
#END
