
#######################################################################
#
#                 Cambridge Crystallographic Data Centre
#                                CCDC
#
#######################################################################
#
# If this CIF has been generated from an entry in the Cambridge
# Structural Database, then it will include bibliographic, chemical,
# crystal, experimental, refinement or atomic coordinate data resulting
# from the CCDC's data processing and validation procedures.
#
#######################################################################

data_CSD_CIF_VUQFOD
_audit_creation_date 2010-10-12
_audit_creation_method CSD-ConQuest-V1
_database_code_CSD VUQFOD
_database_code_depnum_ccdc_archive 'CCDC 714874'
_chemical_formula_sum 'C23 H23 N1 O7'
_chemical_formula_moiety
;
C23 H23 N1 O7
;
_journal_coden_Cambridge 1122
_journal_volume 27
_journal_year 2009
_journal_page_first 1811
_journal_name_full 'Chin.J.Chem. '
loop_
_publ_author_name
"Gaosheng Yang"
"Yuanyuan Hua"
"Yue Shen"
_chemical_name_systematic
;
Diethyl 2-(4-methylbenzoyl)-3-(4-nitrophenyl)cyclopropane-1,1-dicarboxylate
;
_cell_volume   2177.808
_exptl_crystal_colour 'colorless'
_exptl_crystal_density_diffrn 1.298
_exptl_crystal_description 'prism'
_diffrn_ambient_temperature 293
#These two values have been output from a single CSD field.
_refine_ls_R_factor_gt 0.0544
_refine_ls_wR_factor_gt 0.0544
_symmetry_cell_setting monoclinic
_symmetry_space_group_name_H-M 'P 21/c'
_symmetry_Int_Tables_number 14
loop_
_symmetry_equiv_pos_site_id
_symmetry_equiv_pos_as_xyz
1 x,y,z
2 -x,1/2+y,1/2-z
3 -x,-y,-z
4 x,-1/2-y,-1/2+z
_cell_length_a 13.9327(13)
_cell_length_b 19.3010(18)
_cell_length_c 8.1157(8)
_cell_angle_alpha 90
_cell_angle_beta 93.731(1)
_cell_angle_gamma 90
_cell_formula_units_Z 4
loop_
_atom_type_symbol
_atom_type_radius_bond
C 0.68
H 0.23
N 0.68
O 0.68
loop_
_atom_site_label
_atom_site_type_symbol
_atom_site_fract_x
_atom_site_fract_y
_atom_site_fract_z
C1 C 0.4684(2) 0.09668(15) 0.3388(4)
H1 H 0.48480 0.07840 0.23430
H2 H 0.40030 0.09250 0.34830
H3 H 0.50190 0.07120 0.42640
N1 N 0.79784(18) 0.66977(15) 1.0053(4)
O1 O 0.52561(16) 0.4295(1) 0.3072(3)
C2 C 0.49697(18) 0.17222(15) 0.3506(3)
O2 O 0.8129(2) 0.72919(14) 0.9656(3)
C3 C 0.58173(19) 0.19196(14) 0.4314(3)
H4 H 0.62320 0.15830 0.47710
O3 O 0.80119(18) 0.64980(12) 1.1487(3)
C4 C 0.60688(18) 0.26124(13) 0.4465(3)
H5 H 0.66410 0.27360 0.50430
O4 O 0.82475(12) 0.36122(9) 0.7017(2)
C5 C 0.54764(16) 0.31197(13) 0.3763(3)
O5 O 0.91517(12) 0.42579(10) 0.5439(2)
C6 C 0.46243(18) 0.29137(15) 0.2907(3)
H6 H 0.42190 0.32450 0.24040
O6 O 0.73788(17) 0.42774(10) 0.1634(2)
C7 C 0.43783(19) 0.22279(17) 0.2799(3)
H7 H 0.38020 0.21010 0.22390
O7 O 0.82993(14) 0.34374(11) 0.2720(2)
C8 C 0.57116(18) 0.38627(14) 0.3875(3)
C9 C 0.65273(16) 0.40864(11) 0.5074(3)
H8 H 0.64690 0.39380 0.62180
C10 C 0.69562(16) 0.47828(12) 0.4885(3)
H9 H 0.67160 0.50220 0.38770
C11 C 0.75499(16) 0.41367(11) 0.4551(3)
C12 C 0.72319(16) 0.52630(12) 0.6272(3)
C13 C 0.75252(17) 0.59277(12) 0.5901(3)
H10 H 0.75500 0.60580 0.48020
C14 C 0.77801(18) 0.63985(13) 0.7125(3)
H11 H 0.79770 0.68430 0.68660
C15 C 0.77363(17) 0.61946(13) 0.8741(3)
C16 C 0.74640(18) 0.55410(14) 0.9160(3)
H12 H 0.74520 0.54110 1.02620
C17 C 0.72095(17) 0.50817(13) 0.7921(3)
H13 H 0.70170 0.46370 0.81940
C18 C 0.83371(18) 0.39577(12) 0.5817(3)
C19 C 0.9992(2) 0.41568(18) 0.6571(4)
H14 H 1.05670 0.41590 0.59590
H15 H 0.99490 0.37100 0.71080
C20 C 1.0061(2) 0.47046(19) 0.7823(4)
H16 H 0.99960 0.51480 0.72930
H17 H 1.06750 0.46780 0.84300
H18 H 0.95580 0.46470 0.85660
C21 C 0.77367(19) 0.39783(14) 0.2800(3)
C22 C 0.8575(2) 0.3210(2) 0.1099(4)
H19 H 0.82130 0.27980 0.07630
H20 H 0.84250 0.35700 0.02890
C23 C 0.9564(3) 0.3063(2) 0.1161(4)
H21 H 0.99210 0.34800 0.13990
H22 H 0.97290 0.28810 0.01150
H23 H 0.97160 0.27270 0.20110
#END
