
#######################################################################
#
#                 Cambridge Crystallographic Data Centre
#                                CCDC
#
#######################################################################
#
# If this CIF has been generated from an entry in the Cambridge
# Structural Database, then it will include bibliographic, chemical,
# crystal, experimental, refinement or atomic coordinate data resulting
# from the CCDC's data processing and validation procedures.
#
#######################################################################

data_CSD_CIF_VUQVOU
_audit_creation_date 2015-10-26
_audit_creation_method CSD-ConQuest-V1
_database_code_CSD VUQVOU
_database_code_depnum_ccdc_archive 'CCDC 1407674'
_chemical_formula_sum 'C20 H19 N1 O4'
_chemical_formula_moiety
;
C20 H19 N1 O4
;
_journal_coden_Cambridge 35
_journal_volume 80
_journal_year 2015
_journal_page_first 9700
_journal_name_full 'J.Org.Chem. '
loop_
_publ_author_name
"M.K.Ghorai"
"S.Halder"
"S.Das"
_chemical_name_systematic
;
1-(2-hydroxy-5-nitro-4,6-diphenylcyclohex-1-en-1-yl)ethanone
;
_cell_volume   3272.557
_exptl_crystal_colour 'white'
_exptl_crystal_density_diffrn 1.369
_exptl_crystal_description 'block'
_exptl_crystal_preparation 'Re-crystallisation from solvent'
_diffrn_ambient_temperature 100
#These two values have been output from a single CSD field.
_refine_ls_R_factor_gt 0.0857
_refine_ls_wR_factor_gt 0.0857
_symmetry_cell_setting monoclinic
_symmetry_space_group_name_H-M 'P 21/n'
_symmetry_Int_Tables_number 14
loop_
_symmetry_equiv_pos_site_id
_symmetry_equiv_pos_as_xyz
1 x,y,z
2 1/2-x,1/2+y,1/2-z
3 -x,-y,-z
4 -1/2+x,-1/2-y,-1/2+z
_cell_length_a 16.4820(11)
_cell_length_b 9.0409(6)
_cell_length_c 22.9016(15)
_cell_angle_alpha 90
_cell_angle_beta 106.472(2)
_cell_angle_gamma 90
_cell_formula_units_Z 8
loop_
_atom_type_symbol
_atom_type_radius_bond
C 0.68
H 0.23
N 0.68
O 0.68
loop_
_atom_site_label
_atom_site_type_symbol
_atom_site_fract_x
_atom_site_fract_y
_atom_site_fract_z
O1 O 0.87227(16) 0.5290(3) 0.12973(11)
O2 O 0.88666(15) 0.5413(2) 0.24085(11)
C1 C 0.7777(2) 0.9814(3) 0.13322(14)
O3 O 0.80873(17) 1.2123(3) 0.23839(11)
C2 C 0.6258(2) 1.1027(4) 0.06401(17)
H1 H 0.57490 1.14310 0.04090
C3 C 0.6259(2) 0.9811(4) 0.09953(19)
H2 H 0.57480 0.93930 0.10060
C4 C 0.7007(2) 0.9199(4) 0.13369(16)
H3 H 0.69970 0.83660 0.15730
C5 C 0.8610(2) 0.9236(3) 0.17358(15)
H4 H 0.90490 0.95480 0.15490
C6 C 0.8834(5) 0.9921(4) 0.23676(19)
H5 H 0.94520 0.98610 0.24720
C7 C 0.8715(6) 0.9287(5) 0.2841(2)
H6 H 0.80960 0.92770 0.27290
C8 C 0.8909(4) 1.0045(4) 0.34592(19)
C9 C 0.8321(3) 1.0030(4) 0.37716(17)
H7 H 0.78010 0.95810 0.35990
C10 C 0.8480(3) 1.0664(4) 0.43385(16)
H8 H 0.80660 1.06400 0.45430
C11 C 0.9242(2) 1.1333(4) 0.46067(16)
H9 H 0.93460 1.17590 0.49910
C12 C 0.7776(2) 1.1047(4) 0.09679(15)
H10 H 0.82860 1.14640 0.09540
C13 C 0.7017(3) 1.1655(4) 0.06251(16)
H11 H 0.70180 1.24850 0.03860
C14 C 0.8665(2) 0.7560(3) 0.17907(15)
C15 C 0.8685(2) 0.6668(4) 0.12671(16)
C16 C 0.8692(2) 0.7389(4) 0.06856(16)
H12 H 0.86420 0.66480 0.03770
H13 H 0.92130 0.79190 0.07420
H14 H 0.82250 0.80650 0.05620
C17 C 0.8792(2) 0.6874(3) 0.23373(15)
C18 C 0.8896(2) 0.7654(4) 0.29236(16)
H15 H 0.94700 0.75140 0.31790
H16 H 0.85160 0.72190 0.31310
N1 N 0.8727(2) 1.1566(3) 0.23080(14)
O4 O 0.92686(18) 1.2255(3) 0.21619(17)
C19 C 0.9851(3) 1.1368(5) 0.4302(2)
H17 H 1.03690 1.18250 0.44760
C20 C 0.9684(4) 1.0708(5) 0.3730(2)
H18 H 1.00980 1.07120 0.35260
H19 H 0.879(3) 0.503(5) 0.199(2)
O5 O 0.81801(15) 0.3281(3) 0.76717(11)
O6 O 0.94894(16) 0.3004(3) 0.81869(13)
O7 O 0.96640(15) 0.9942(2) 0.89806(11)
N2 N 0.88955(18) 0.3756(3) 0.78918(13)
C21 C 0.8979(2) 0.8459(3) 0.78969(15)
O8 O 0.90460(15) 0.9920(2) 0.78421(11)
C22 C 0.8130(2) 0.4261(4) 0.55429(15)
H20 H 0.80560 0.38740 0.51550
C23 C 0.7446(2) 0.4719(4) 0.57249(16)
H21 H 0.69060 0.46520 0.54550
C24 C 0.7547(2) 0.5278(4) 0.63037(15)
H22 H 0.70760 0.55820 0.64190
C25 C 0.8337(2) 0.5387(4) 0.67089(15)
C26 C 0.8424(2) 0.6083(4) 0.73307(15)
H23 H 0.78750 0.60440 0.74160
C27 C 0.9078(2) 0.5384(3) 0.78494(16)
H24 H 0.96300 0.54840 0.77720
C28 C 0.9138(2) 0.6069(3) 0.84742(14)
H25 H 0.96730 0.57200 0.87500
C29 C 0.8447(2) 0.5571(3) 0.87533(14)
C30 C 0.8592(2) 0.4373(4) 0.91493(15)
H26 H 0.91160 0.39050 0.92510
C31 C 0.7968(2) 0.3869(4) 0.93927(16)
H27 H 0.80730 0.30650 0.96570
C32 C 0.7192(2) 0.4554(4) 0.92454(17)
H28 H 0.67710 0.42200 0.94110
C33 C 0.9029(2) 0.4949(4) 0.65240(17)
H29 H 0.95690 0.50350 0.67920
C34 C 0.8929(2) 0.4383(4) 0.59442(17)
H30 H 0.94000 0.40870 0.58260
C35 C 0.9217(2) 0.7743(3) 0.84410(14)
C36 C 0.8678(2) 0.7723(3) 0.72952(15)
H31 H 0.91220 0.77740 0.70930
H32 H 0.81940 0.82620 0.70470
C37 C 0.9606(2) 0.8567(4) 0.89863(15)
C38 C 0.9977(2) 0.7772(4) 0.95742(16)
H33 H 1.01630 0.84800 0.98970
H34 H 1.04510 0.71890 0.95440
H35 H 0.95570 0.71390 0.96590
C39 C 0.7664(2) 0.6251(4) 0.86075(16)
H36 H 0.75580 0.70560 0.83440
C40 C 0.7041(2) 0.5746(4) 0.88484(17)
H37 H 0.65150 0.62070 0.87450
H38 H 0.925(3) 1.027(5) 0.826(2)
#END
