
#######################################################################
#
#                 Cambridge Crystallographic Data Centre
#                                CCDC
#
#######################################################################
#
# If this CIF has been generated from an entry in the Cambridge
# Structural Database, then it will include bibliographic, chemical,
# crystal, experimental, refinement or atomic coordinate data resulting
# from the CCDC's data processing and validation procedures.
#
#######################################################################

data_CSD_CIF_VURCUI
_audit_creation_date 2015-10-26
_audit_creation_method CSD-ConQuest-V1
_database_code_CSD VURCUI
_database_code_depnum_ccdc_archive 'CCDC 1403733'
_chemical_formula_sum 'C8 H9 N3 O1'
_chemical_formula_moiety
;
C8 H9 N3 O1
;
_journal_coden_Cambridge 35
_journal_volume 80
_journal_year 2015
_journal_page_first 8684
_journal_name_full 'J.Org.Chem. '
loop_
_publ_author_name
"N.T.Coogan"
"M.A.Chimes"
"J.Raftery"
"P.Mocilac"
"M.A.Denecke"
_chemical_name_systematic
;
2-hydrazono-N-hydroxy-2-phenylethanimine
;
_chemical_name_common
;
(1E,2Z)-2-hydrazono-2-phenylacetaldehyde oxime
;
_chemical_melting_point 377
_cell_volume    807.044
_exptl_crystal_colour 'white'
_exptl_crystal_density_diffrn 1.343
_exptl_crystal_description 'block'
_exptl_crystal_preparation 'd-chloroform'
_diffrn_ambient_temperature 100
#These two values have been output from a single CSD field.
_refine_ls_R_factor_gt 0.033
_refine_ls_wR_factor_gt 0.033
loop_
_citation_database_id_CSD
_citation_special_details
VURDAP "is a stereoisomer of this entry"
_symmetry_cell_setting monoclinic
_symmetry_space_group_name_H-M 'P 21/n'
_symmetry_Int_Tables_number 14
loop_
_symmetry_equiv_pos_site_id
_symmetry_equiv_pos_as_xyz
1 x,y,z
2 1/2-x,1/2+y,1/2-z
3 -x,-y,-z
4 -1/2+x,-1/2-y,-1/2+z
_cell_length_a 11.8878(7)
_cell_length_b 4.6251(3)
_cell_length_c 15.1482(9)
_cell_angle_alpha 90
_cell_angle_beta 104.309(4)
_cell_angle_gamma 90
_cell_formula_units_Z 4
loop_
_atom_type_symbol
_atom_type_radius_bond
C 0.68
H 0.23
N 0.68
O 0.68
loop_
_atom_site_label
_atom_site_type_symbol
_atom_site_fract_x
_atom_site_fract_y
_atom_site_fract_z
C1 C 0.26093(10) 0.6556(2) 0.48277(7)
C2 C 0.18294(10) 0.4544(2) 0.43292(8)
H1 H 0.11130 0.41930 0.44820
C3 C 0.20947(10) 0.3058(2) 0.36134(8)
H2 H 0.15630 0.16750 0.32830
C4 C 0.31350(11) 0.3574(3) 0.33746(8)
H3 H 0.33160 0.25420 0.28850
C5 C 0.39042(10) 0.5602(3) 0.38547(8)
H4 H 0.46070 0.59940 0.36860
C6 C 0.36502(10) 0.7064(2) 0.45828(8)
H5 H 0.41900 0.84220 0.49170
C7 C 0.23252(10) 0.8246(2) 0.55787(7)
C8 C 0.33017(10) 0.9015(3) 0.63462(8)
H6 H 0.40160 0.80180 0.64110
N1 N 0.32364(8) 1.0959(2) 0.69301(7)
N2 N 0.12425(8) 0.88900(19) 0.54752(6)
N3 N 0.09065(9) 1.0437(2) 0.61552(7)
O1 O 0.42825(7) 1.1176(2) 0.75888(6)
H7 H 0.1415(14) 1.169(3) 0.6452(11)
H8 H 0.0211(14) 1.121(3) 0.5903(11)
H9 H 0.4172(15) 1.264(4) 0.7978(12)
#END
