
#######################################################################
#
#                 Cambridge Crystallographic Data Centre
#                                CCDC
#
#######################################################################
#
# If this CIF has been generated from an entry in the Cambridge
# Structural Database, then it will include bibliographic, chemical,
# crystal, experimental, refinement or atomic coordinate data resulting
# from the CCDC's data processing and validation procedures.
#
#######################################################################

data_CSD_CIF_VURDAP
_audit_creation_date 2015-10-26
_audit_creation_method CSD-ConQuest-V1
_database_code_CSD VURDAP
_database_code_depnum_ccdc_archive 'CCDC 1403734'
_chemical_formula_sum 'C8 H9 N3 O1'
_chemical_formula_moiety
;
C8 H9 N3 O1
;
_journal_coden_Cambridge 35
_journal_volume 80
_journal_year 2015
_journal_page_first 8684
_journal_name_full 'J.Org.Chem. '
loop_
_publ_author_name
"N.T.Coogan"
"M.A.Chimes"
"J.Raftery"
"P.Mocilac"
"M.A.Denecke"
_chemical_name_systematic
;
2-hydrazono-N-hydroxy-2-phenylethanimine
;
_chemical_name_common
;
(1E,2E)-2-hydrazono-1-phenylethanone oxime
;
_chemical_melting_point 381
_cell_volume    804.904
_exptl_crystal_colour 'white'
_exptl_crystal_density_diffrn 1.347
_exptl_crystal_description 'plate'
_exptl_crystal_preparation 'dichloromethane/diethyl ether'
_diffrn_ambient_temperature 100
#These two values have been output from a single CSD field.
_refine_ls_R_factor_gt 0.0388
_refine_ls_wR_factor_gt 0.0388
loop_
_citation_database_id_CSD
_citation_special_details
VURCUI "is a stereoisomer of this entry"
_symmetry_cell_setting triclinic
_symmetry_space_group_name_H-M 'P -1'
_symmetry_Int_Tables_number 2
loop_
_symmetry_equiv_pos_site_id
_symmetry_equiv_pos_as_xyz
1 x,y,z
2 -x,-y,-z
_cell_length_a 8.2989(4)
_cell_length_b 10.3062(5)
_cell_length_c 10.3246(5)
_cell_angle_alpha 72.166(5)
_cell_angle_beta 86.199(4)
_cell_angle_gamma 73.290(4)
_cell_formula_units_Z 4
loop_
_atom_type_symbol
_atom_type_radius_bond
C 0.68
H 0.23
N 0.68
O 0.68
loop_
_atom_site_label
_atom_site_type_symbol
_atom_site_fract_x
_atom_site_fract_y
_atom_site_fract_z
C1 C 0.22866(15) 0.26546(12) 0.41021(13)
C2 C 0.17430(16) 0.22124(14) 0.54315(13)
H1 H 0.23890 0.21890 0.61680
C3 C 0.02626(17) 0.18052(15) 0.56894(13)
H2 H -0.00970 0.15100 0.65980
C4 C -0.06863(15) 0.18305(14) 0.46228(14)
H3 H -0.17000 0.15590 0.47980
C5 C -0.01516(15) 0.22525(14) 0.33006(13)
H4 H -0.07960 0.22630 0.25680
C6 C 0.13259(15) 0.26612(13) 0.30397(12)
H5 H 0.16840 0.29470 0.21290
C7 C 0.38767(15) 0.30904(13) 0.38259(12)
C8 C 0.51911(15) 0.24085(13) 0.30421(13)
H6 H 0.61260 0.27760 0.27590
N1 N 0.42275(13) 0.40620(11) 0.42117(11)
N2 N 0.30499(15) 0.48565(13) 0.48508(13)
N3 N 0.51002(13) 0.13252(11) 0.27320(11)
O1 O 0.64647(11) 0.08522(10) 0.19462(10)
H7 H 0.64190 0.00920 0.18280
H8 H 0.211(3) 0.462(2) 0.515(2)
H9 H 0.341(2) 0.541(2) 0.5236(19)
C9 C 0.75970(14) 0.71359(13) 0.11252(12)
C10 C 0.76495(15) 0.83698(13) 0.00986(12)
H10 H 0.66430 0.89940 -0.03740
C11 C 0.91753(16) 0.86904(14) -0.02363(13)
H11 H 0.92090 0.95240 -0.09470
C12 C 1.06467(16) 0.77912(14) 0.04683(13)
H12 H 1.16850 0.80120 0.02410
C13 C 1.05970(15) 0.65683(14) 0.15057(13)
H13 H 1.16000 0.59600 0.19950
C14 C 0.90794(15) 0.62346(13) 0.18278(12)
H14 H 0.90520 0.53910 0.25280
C15 C 0.59726(15) 0.67572(13) 0.14207(12)
C16 C 0.46470(14) 0.75478(13) 0.21113(12)
H15 H 0.36600 0.72500 0.23740
N4 N 0.56298(13) 0.57653(12) 0.10677(11)
N5 N 0.68683(14) 0.49333(13) 0.04889(12)
N6 N 0.48101(12) 0.86397(11) 0.23641(10)
O2 O 0.34233(11) 0.92474(10) 0.30468(9)
H16 H 0.35480 0.99840 0.31650
H17 H 0.648(2) 0.453(2) -0.0032(19)
H18 H 0.775(3) 0.530(2) 0.0131(19)
#END
