
#######################################################################
#
#                 Cambridge Crystallographic Data Centre
#                                CCDC
#
#######################################################################
#
# If this CIF has been generated from an entry in the Cambridge
# Structural Database, then it will include bibliographic, chemical,
# crystal, experimental, refinement or atomic coordinate data resulting
# from the CCDC's data processing and validation procedures.
#
#######################################################################

data_CSD_CIF_VURTIN
_audit_creation_date 2015-10-26
_audit_creation_method CSD-ConQuest-V1
_database_code_CSD VURTIN
_database_code_depnum_ccdc_archive 'CCDC 1048693'
_chemical_formula_sum 'C17 H26 N2 O2'
_chemical_formula_moiety
;
C17 H26 N2 O2
;
_journal_coden_Cambridge 1086
_journal_volume 27
_journal_year 2015
_journal_page_first 532
_journal_name_full 'Chirality '
loop_
_publ_author_name
"K.Takenaka"
"Xianjin Lin"
"S.Takizawa"
"H.Sasai"
_chemical_name_systematic
;
3,3'-diisopropyl-3,3',3a,3a',4,4',5,5'-octahydro-6,6'-spirobi[cyclopenta[c][1,
2]oxazole]
;
_cell_volume   1540.301
_exptl_crystal_colour 'colorless'
_exptl_crystal_density_diffrn 1.252
_exptl_crystal_description 'prism'
_diffrn_ambient_temperature 293
#These two values have been output from a single CSD field.
_refine_ls_R_factor_gt 0.0439
_refine_ls_wR_factor_gt 0.0439
loop_
_citation_database_id_CSD
_citation_special_details
VURTEJ "is a stereoisomer of this entry"
_symmetry_cell_setting monoclinic
_symmetry_space_group_name_H-M 'C 2/c'
_symmetry_Int_Tables_number 15
loop_
_symmetry_equiv_pos_site_id
_symmetry_equiv_pos_as_xyz
1 x,y,z
2 -x,y,1/2-z
3 1/2+x,1/2+y,z
4 1/2-x,1/2+y,1/2-z
5 -x,-y,-z
6 x,-y,-1/2+z
7 -1/2-x,-1/2-y,-z
8 -1/2+x,-1/2-y,-1/2+z
_cell_length_a 16.590(4)
_cell_length_b 5.9030(12)
_cell_length_c 16.992(4)
_cell_angle_alpha 90
_cell_angle_beta 112.235(3)
_cell_angle_gamma 90
_cell_formula_units_Z 4
loop_
_atom_type_symbol
_atom_type_radius_bond
C 0.68
H 0.23
N 0.68
O 0.68
loop_
_atom_site_label
_atom_site_type_symbol
_atom_site_fract_x
_atom_site_fract_y
_atom_site_fract_z
O1 O 0.66216(7) 0.58589(14) 0.73423(7)
N1 N 0.59987(9) 0.52152(18) 0.76944(8)
C1 C 0.50000 0.1854(3) 0.75000
C2 C 0.57426(10) 0.3220(3) 0.7438(1)
C3 C 0.6088(1) 0.2203(2) 0.68242(10)
C4 C 0.66439(10) 0.4158(2) 0.67074(10)
C5 C 0.5234(1) 0.1349(3) 0.61429(10)
C6 C 0.47448(11) 0.0372(2) 0.66754(10)
C7 C 0.63703(11) 0.5284(2) 0.58427(10)
C8 C 0.64312(11) 0.3607(3) 0.51825(10)
C9 C 0.69566(11) 0.7322(3) 0.58852(10)
H1 H 0.64610 0.09060 0.70890
H2 H 0.72460 0.36310 0.68710
H3 H 0.49130 0.25980 0.57940
H4 H 0.53380 0.02010 0.57840
H5 H 0.41220 0.04330 0.63540
H6 H 0.49210 -0.11900 0.68190
H7 H 0.57670 0.58040 0.56700
H8 H 0.60550 0.23420 0.51460
H9 H 0.70200 0.30820 0.53500
H10 H 0.62560 0.43330 0.46380
H11 H 0.75490 0.68240 0.60550
H12 H 0.67750 0.80210 0.53350
H13 H 0.69140 0.84000 0.62910
O1A O 0.33784(7) 0.58589(14) 0.76577(7)
N1A N 0.40013(9) 0.52152(18) 0.73056(8)
C2A C 0.42574(10) 0.3220(3) 0.7562(1)
C3A C 0.3912(1) 0.2203(2) 0.81758(10)
C4A C 0.33561(10) 0.4158(2) 0.82926(10)
C5A C 0.4766(1) 0.1349(3) 0.88571(10)
C6A C 0.52552(11) 0.0372(2) 0.83246(10)
C7A C 0.36297(11) 0.5284(2) 0.91573(10)
C8A C 0.35688(11) 0.3607(3) 0.98175(10)
C9A C 0.30434(11) 0.7322(3) 0.91148(10)
H1A H 0.35390 0.09060 0.79110
H2A H 0.27540 0.36310 0.81290
H3A H 0.50870 0.25980 0.92060
H4A H 0.46620 0.02010 0.92160
H5A H 0.58780 0.04330 0.86460
H6A H 0.50790 -0.11900 0.81810
H7A H 0.42330 0.58040 0.93300
H8A H 0.39450 0.23420 0.98540
H9A H 0.29800 0.30820 0.96500
H10A H 0.37440 0.43330 1.03620
H11A H 0.24510 0.68240 0.89450
H12A H 0.32250 0.80210 0.96650
H13A H 0.30860 0.84000 0.87090
#END
