
#######################################################################
#
#                 Cambridge Crystallographic Data Centre
#                                CCDC
#
#######################################################################
#
# If this CIF has been generated from an entry in the Cambridge
# Structural Database, then it will include bibliographic, chemical,
# crystal, experimental, refinement or atomic coordinate data resulting
# from the CCDC's data processing and validation procedures.
#
#######################################################################

data_CSD_CIF_VUSCOD
_audit_creation_date 2015-10-26
_audit_creation_method CSD-ConQuest-V1
_database_code_CSD VUSCOD
_database_code_depnum_ccdc_archive 'CCDC 1037831'
_chemical_formula_sum 'C12 H17 N3 O2'
_chemical_formula_moiety
;
C12 H17 N3 O2
;
_journal_coden_Cambridge 35
_journal_volume 80
_journal_year 2015
_journal_page_first 9652
_journal_name_full 'J.Org.Chem. '
loop_
_publ_author_name
"V.Mercalli"
"A.Massarotti"
"M.Varese"
"M.Giustiniano"
"F.Meneghetti"
"E.Novellino"
"G.C.Tron"
_chemical_name_systematic
;
N-t-butyl-N'-hydroxy-2-(hydroxyimino)-2-phenylethanimidamide
;
_cell_volume   1296.806
_exptl_crystal_colour 'colorless'
_exptl_crystal_density_diffrn 1.205
_exptl_crystal_description 'prism'
_diffrn_ambient_temperature 293
#These two values have been output from a single CSD field.
_refine_ls_R_factor_gt 0.0558
_refine_ls_wR_factor_gt 0.0558
_symmetry_cell_setting monoclinic
_symmetry_space_group_name_H-M 'P 21/c'
_symmetry_Int_Tables_number 14
loop_
_symmetry_equiv_pos_site_id
_symmetry_equiv_pos_as_xyz
1 x,y,z
2 -x,1/2+y,1/2-z
3 -x,-y,-z
4 x,-1/2-y,-1/2+z
_cell_length_a 14.625(3)
_cell_length_b 6.3084(14)
_cell_length_c 14.588(3)
_cell_angle_alpha 90
_cell_angle_beta 105.522(5)
_cell_angle_gamma 90
_cell_formula_units_Z 4
loop_
_atom_type_symbol
_atom_type_radius_bond
C 0.68
H 0.23
N 0.68
O 0.68
loop_
_atom_site_label
_atom_site_type_symbol
_atom_site_fract_x
_atom_site_fract_y
_atom_site_fract_z
C1 C 0.29787(17) 1.1981(4) 0.14704(15)
C2 C 0.3157(2) 0.9980(5) 0.11609(19)
C3 C 0.4021(2) 0.9516(6) 0.0999(2)
C4 C 0.4720(3) 1.1039(7) 0.1155(2)
C5 C 0.4556(2) 1.3005(7) 0.1474(3)
C6 C 0.3698(2) 1.3479(5) 0.1630(2)
C7 C 0.19798(17) 1.0096(4) 0.34773(17)
C8 C 0.2207(4) 1.2364(6) 0.3783(3)
C9 C 0.2864(3) 0.8836(10) 0.3479(3)
C10 C 0.1485(3) 0.9022(7) 0.4147(2)
N1 N 0.07924(14) 1.0322(3) 0.08718(14)
C11 C 0.20399(16) 1.2522(4) 0.15993(15)
N2 N 0.18055(15) 1.4489(3) 0.15471(15)
C12 C 0.13502(16) 1.0822(3) 0.16872(16)
N3 N 0.13102(17) 0.9983(3) 0.25240(15)
O1 O 0.01424(12) 0.8691(2) 0.09773(13)
O2 O 0.09106(14) 1.4798(3) 0.16902(16)
H1 H 0.360(2) 1.490(5) 0.188(2)
H2 H 0.4111(18) 0.810(5) 0.0802(19)
H3 H 0.270(2) 0.896(5) 0.1036(19)
H4 H 0.505(3) 1.399(6) 0.160(2)
H5 H 0.530(2) 1.066(5) 0.105(2)
H6 H 0.081(2) 0.920(5) 0.244(2)
H7 H 0.072(3) 1.606(6) 0.145(3)
H8 H -0.024(3) 0.870(6) 0.041(3)
H9 H 0.325(3) 0.885(6) 0.410(3)
H10 H 0.195(2) 0.896(4) 0.480(2)
H11 H 0.329(3) 0.983(7) 0.315(3)
H12 H 0.259(3) 1.237(6) 0.444(3)
H13 H 0.269(3) 1.295(7) 0.343(3)
H14 H 0.087(3) 0.968(5) 0.416(2)
H15 H 0.135(3) 0.758(7) 0.394(3)
H16 H 0.162(3) 1.297(6) 0.367(3)
H17 H 0.280(5) 0.734(13) 0.327(5)
#END
