
#######################################################################
#
#                 Cambridge Crystallographic Data Centre
#                                CCDC
#
#######################################################################
#
# If this CIF has been generated from an entry in the Cambridge
# Structural Database, then it will include bibliographic, chemical,
# crystal, experimental, refinement or atomic coordinate data resulting
# from the CCDC's data processing and validation procedures.
#
#######################################################################

data_CSD_CIF_VUSQUX
_audit_creation_date 2015-10-27
_audit_creation_method CSD-ConQuest-V1
_database_code_CSD VUSQUX
_database_code_depnum_ccdc_archive 'CCDC 1047991'
_chemical_formula_sum 'C24 H22 N2 O4'
_chemical_formula_moiety
;
C24 H22 N2 O4
;
_journal_coden_Cambridge 1366
_journal_volume 357
_journal_year 2015
_journal_page_first 3206
_journal_name_full 'Adv.Synth.Catal. '
loop_
_publ_author_name
"E.Coya"
"N.Sotomayor"
"E.Lete"
_chemical_name_systematic
;
10-methoxy-15-methyl-9-((3-nitrobenzyl)oxy)-2,3,4,5,12,16-hexadehydrogalanthan
;
_cell_volume   1940.021
_exptl_crystal_colour 'yellow'
_exptl_crystal_density_diffrn 1.378
_exptl_special_details
;
Absolute configuration

;
_exptl_crystal_description 'plate'
_diffrn_ambient_temperature 100
#These two values have been output from a single CSD field.
_refine_ls_R_factor_gt 0.0338
_refine_ls_wR_factor_gt 0.0338
_symmetry_cell_setting monoclinic
_symmetry_space_group_name_H-M 'P 21'
_symmetry_Int_Tables_number 4
loop_
_symmetry_equiv_pos_site_id
_symmetry_equiv_pos_as_xyz
1 x,y,z
2 -x,1/2+y,-z
_cell_length_a 8.6140(1)
_cell_length_b 13.5775(2)
_cell_length_c 16.5880(3)
_cell_angle_alpha 90
_cell_angle_beta 90.430(2)
_cell_angle_gamma 90
_cell_formula_units_Z 4
loop_
_atom_type_symbol
_atom_type_radius_bond
C 0.68
H 0.23
N 0.68
O 0.68
loop_
_atom_site_label
_atom_site_type_symbol
_atom_site_fract_x
_atom_site_fract_y
_atom_site_fract_z
O1 O 0.57212(14) 0.4114(1) 0.14544(7)
O2 O 0.43904(14) 0.40819(10) 0.28658(7)
O3 O 0.95204(15) 0.35530(12) 0.38167(9)
O4 O 1.01939(16) 0.38832(12) 0.50456(10)
N1 N -0.12285(18) 0.24601(12) 0.10487(9)
N2 N 0.92158(18) 0.37957(12) 0.45135(10)
C1 C 0.3466(2) 0.38339(13) 0.22236(10)
C2 C 0.4210(2) 0.38064(13) 0.14680(11)
C3 C 0.3395(2) 0.34751(14) 0.08026(10)
H1 H 0.39070 0.34310 0.02990
C4 C 0.1825(2) 0.32005(13) 0.08529(11)
C5 C 0.0984(2) 0.28135(14) 0.01078(11)
C6 C 0.1979(2) 0.20749(15) -0.03777(12)
H2 H 0.27420 0.24480 -0.07000
H3 H 0.25660 0.16540 0.00050
C7 C 0.1042(2) 0.14199(16) -0.09379(12)
H4 H 0.15080 0.11960 -0.14220
C8 C -0.0416(2) 0.11433(15) -0.07791(12)
H5 H -0.09590 0.07090 -0.11310
C9 C -0.1152(2) 0.15230(15) -0.00546(12)
C10 C -0.2506(2) 0.12743(16) 0.03922(13)
H6 H -0.32630 0.07960 0.02480
C11 C -0.2510(2) 0.18547(16) 0.10697(12)
H7 H -0.32680 0.18410 0.14830
C12 C -0.0655(2) 0.31156(15) 0.16803(11)
H8 H -0.08440 0.28150 0.22140
H9 H -0.12250 0.37480 0.16550
C13 C 0.10724(19) 0.33060(13) 0.15824(11)
C14 C 0.1907(2) 0.36172(13) 0.22673(10)
H10 H 0.13880 0.36790 0.27680
C15 C -0.0427(2) 0.22606(14) 0.03673(11)
C16 C 0.3686(2) 0.40803(14) 0.36426(10)
H11 H 0.30710 0.34710 0.37150
H12 H 0.29790 0.46520 0.36940
C17 C 0.4942(2) 0.41358(13) 0.42722(10)
C18 C 0.4536(2) 0.43392(13) 0.50689(11)
H13 H 0.34810 0.44640 0.51970
C19 C 0.5656(2) 0.43606(14) 0.56769(11)
H14 H 0.53570 0.44950 0.62160
C20 C 0.7208(2) 0.41885(14) 0.55048(11)
H15 H 0.79830 0.42060 0.59150
C21 C 0.7580(2) 0.39901(14) 0.47082(11)
C22 C 0.6489(2) 0.39451(13) 0.40923(11)
H16 H 0.67890 0.37870 0.35580
C23 C 0.6338(2) 0.42889(16) 0.06702(12)
H17 H 0.64500 0.36610 0.03850
H18 H 0.73560 0.46070 0.07210
H19 H 0.56320 0.47190 0.03670
C24 C 0.0489(2) 0.36806(15) -0.04403(11)
H20 H -0.02290 0.41090 -0.01480
H21 H -0.00270 0.34240 -0.09250
H22 H 0.14090 0.40590 -0.05950
O5 O 0.03164(13) 0.61058(10) 0.52938(7)
O6 O -0.09241(14) 0.59502(10) 0.38513(7)
O7 O -0.47843(15) 0.68111(11) 0.62675(8)
O8 O -0.55125(16) 0.61418(13) 0.7383(1)
N3 N 0.60966(17) 0.75222(11) 0.35332(9)
N4 N -0.45080(17) 0.63955(12) 0.6911(1)
C25 C 0.12777(19) 0.63046(13) 0.46576(10)
C26 C 0.05760(19) 0.62760(13) 0.38864(11)
C27 C 0.14273(19) 0.65816(13) 0.32269(11)
H23 H 0.09380 0.66080 0.27120
C28 C 0.2996(2) 0.68539(13) 0.32999(10)
C29 C 0.3875(2) 0.72194(13) 0.25644(10)
C30 C 0.2959(2) 0.79875(14) 0.20693(12)
H24 H 0.21530 0.76440 0.17470
H25 H 0.24250 0.84400 0.24450
C31 C 0.3962(2) 0.85886(15) 0.15070(12)
H26 H 0.35150 0.88300 0.10200
C32 C 0.5449(2) 0.87929(15) 0.16675(12)
H27 H 0.60380 0.91870 0.13090
C33 C 0.6149(2) 0.84018(14) 0.23988(12)
C34 C 0.7525(2) 0.86062(14) 0.28590(12)
H28 H 0.83400 0.90390 0.27090
C35 C 0.7450(2) 0.80638(14) 0.35549(12)
H29 H 0.81990 0.80620 0.39780
C36 C 0.5446(2) 0.69219(14) 0.41756(11)
H30 H 0.56330 0.72470 0.47010
H31 H 0.59690 0.62730 0.41860
C37 C 0.37130(19) 0.67766(12) 0.40486(11)
C38 C 0.28326(19) 0.65170(13) 0.47242(10)
H32 H 0.33220 0.64880 0.52390
C39 C 0.5327(2) 0.77223(13) 0.28369(11)
C40 C 0.10159(19) 0.61099(13) 0.60747(10)
H33 H 0.16240 0.67220 0.61520
H34 H 0.17290 0.55420 0.61320
C41 C -0.0249(2) 0.60476(13) 0.66977(10)
C42 C 0.0151(2) 0.57997(14) 0.74888(11)
H35 H 0.12050 0.56660 0.76210
C43 C -0.0966(2) 0.57447(14) 0.80874(11)
H36 H -0.06720 0.55810 0.86240
C44 C -0.2512(2) 0.59294(14) 0.79005(11)
H37 H -0.32950 0.58810 0.82990
C45 C -0.2874(2) 0.61863(13) 0.71159(11)
C46 C -0.1789(2) 0.62589(13) 0.65102(10)
H38 H -0.20870 0.64480 0.59800
C47 C -0.1546(2) 0.57905(15) 0.30603(11)
H39 H -0.08490 0.53590 0.27580
H40 H -0.16460 0.64230 0.27800
H41 H -0.25700 0.54800 0.31010
C48 C 0.4310(2) 0.63433(15) 0.20123(11)
H42 H 0.48860 0.65870 0.15460
H43 H 0.33610 0.60130 0.18270
H44 H 0.49560 0.58760 0.23150
#END
