
#######################################################################
#
#                 Cambridge Crystallographic Data Centre
#                                CCDC
#
#######################################################################
#
# If this CIF has been generated from an entry in the Cambridge
# Structural Database, then it will include bibliographic, chemical,
# crystal, experimental, refinement or atomic coordinate data resulting
# from the CCDC's data processing and validation procedures.
#
#######################################################################

data_CSD_CIF_VUSWAI
_audit_creation_date 2010-10-12
_audit_creation_method CSD-ConQuest-V1
_database_code_CSD VUSWAI
_database_code_depnum_ccdc_archive 'CCDC 706780'
_chemical_formula_sum 'C15 H14 N2 O6'
_chemical_formula_moiety
;
C15 H14 N2 O6
;
_journal_coden_Cambridge 177
_journal_volume 8
_journal_year 2010
_journal_page_first 2142
_journal_name_full 'Org.Biomol.Chem. '
loop_
_publ_author_name
"T.Petrova"
"I.Tarabara"
"V.Palchikov"
"L.Kasyan"
"D.Kosenkov"
"S.Okovytyy"
"L.Gorb"
"S.Shishkina"
"O.Shishkin"
"J.Leszczynski"
_chemical_name_systematic
;
2-Hydroxy-4-(3-nitrophenyl)-5-oxo-4-azatricyclo[4.2.1.0^3,7^]nonane-9-carboxyl
ic acid
;
_cell_volume    663.295
_exptl_crystal_colour 'colorless'
_exptl_crystal_density_diffrn 1.594
_exptl_crystal_description 'block'
_diffrn_ambient_temperature 100
#These two values have been output from a single CSD field.
_refine_ls_R_factor_gt 0.0337
_refine_ls_wR_factor_gt 0.0337
_symmetry_cell_setting triclinic
_symmetry_space_group_name_H-M 'P -1'
_symmetry_Int_Tables_number 2
loop_
_symmetry_equiv_pos_site_id
_symmetry_equiv_pos_as_xyz
1 x,y,z
2 -x,-y,-z
_cell_length_a 7.2192(13)
_cell_length_b 9.064(2)
_cell_length_c 11.0633(16)
_cell_angle_alpha 73.995(18)
_cell_angle_beta 80.033(14)
_cell_angle_gamma 73.38(2)
_cell_formula_units_Z 2
loop_
_atom_type_symbol
_atom_type_radius_bond
C 0.68
H 0.23
N 0.68
O 0.68
loop_
_atom_site_label
_atom_site_type_symbol
_atom_site_fract_x
_atom_site_fract_y
_atom_site_fract_z
N1 N 0.34016(14) 0.16369(12) 0.35544(9)
N2 N -0.20001(16) 0.25881(13) 0.67829(10)
O1 O 0.07556(12) 0.12872(10) 0.28468(8)
O2 O 0.72450(13) 0.36597(11) 0.22457(8)
H1 H 0.828(3) 0.286(3) 0.240(2)
O3 O 0.18293(13) 0.45125(10) 0.08681(8)
O4 O 0.12991(14) 0.31271(11) -0.03603(9)
H2 H 0.027(3) 0.390(3) -0.0458(18)
O5 O -0.29897(13) 0.21543(12) 0.62252(9)
O6 O -0.24954(17) 0.28351(15) 0.78376(10)
C1 C 0.54419(17) 0.15667(14) 0.30645(11)
H3 H 0.625(2) 0.1291(18) 0.3773(14)
C2 C 0.56792(17) 0.31097(14) 0.20624(11)
H4 H 0.452(2) 0.3952(16) 0.2145(12)
C3 C 0.60113(17) 0.25902(14) 0.08149(11)
H5 H 0.646(2) 0.3324(19) 0.0121(14)
C4 C 0.42212(17) 0.21433(14) 0.05746(11)
H6 H 0.454(2) 0.1734(18) -0.0172(14)
C5 C 0.40091(17) 0.07095(14) 0.17330(11)
H7 H 0.371(2) -0.0153(18) 0.1488(14)
C6 C 0.59659(17) 0.03091(14) 0.22842(11)
H8 H 0.635(2) -0.0756(18) 0.2760(14)
C7 C 0.73637(18) 0.09239(15) 0.11822(12)
H9 H 0.764(2) 0.0344(17) 0.0493(13)
H10 H 0.859(2) 0.0932(19) 0.1450(14)
C8 C 0.23440(17) 0.33975(14) 0.03751(11)
C9 C 0.24881(17) 0.12198(14) 0.27621(11)
C10 C 0.24729(17) 0.23650(14) 0.45433(11)
C11 C 0.06998(17) 0.21112(14) 0.51712(11)
H11 H 0.008(2) 0.1459(18) 0.4941(14)
C12 C -0.01137(17) 0.28371(14) 0.61483(11)
C13 C 0.07230(19) 0.37857(15) 0.65474(11)
H12 H 0.010(2) 0.427(2) 0.7214(16)
C14 C 0.24885(19) 0.40215(15) 0.59111(11)
H13 H 0.309(2) 0.4677(19) 0.6161(15)
C15 C 0.33545(18) 0.33298(14) 0.49163(11)
H14 H 0.462(2) 0.3488(18) 0.4468(14)
#END
