
#######################################################################
#
#                 Cambridge Crystallographic Data Centre
#                                CCDC
#
#######################################################################
#
# If this CIF has been generated from an entry in the Cambridge
# Structural Database, then it will include bibliographic, chemical,
# crystal, experimental, refinement or atomic coordinate data resulting
# from the CCDC's data processing and validation procedures.
#
#######################################################################

data_CSD_CIF_VUTMEC
_audit_creation_date 1993-07-09
_audit_creation_method CSD-ConQuest-V1
_database_code_CSD VUTMEC
_database_code_depnum_ccdc_archive 'CCDC 1288523'
_chemical_formula_sum 'C13 H12 N2 O1'
_chemical_formula_moiety
;
C13 H12 N2 O1
;
_journal_coden_Cambridge 182
_journal_year 1993
_journal_page_first 17
_journal_name_full 'Chem.Commun. '
loop_
_publ_author_name
"M.Yamauchi"
"S.Akiyama"
"T.Watanabe"
"K.Okamura"
"T.Date"
_chemical_name_systematic
;
4-Cyanoethyl-3-methyl-5-phenylisoxazole
;
_chemical_melting_point 372.15
_cell_volume   1114.395
_exptl_crystal_colour 'colorless'
_exptl_crystal_density_diffrn 1.265
_exptl_special_details
;
Melting point range 372.15-373.15K

;
_diffrn_ambient_temperature ?
_diffrn_special_details
;
The study was carried out at room temperature,in the range 283-303K

;
#These two values have been output from a single CSD field.
_refine_ls_R_factor_gt 0.039
_refine_ls_wR_factor_gt 0.039
_symmetry_cell_setting orthorhombic
_symmetry_space_group_name_H-M 'P 21 21 21'
_symmetry_Int_Tables_number 19
loop_
_symmetry_equiv_pos_site_id
_symmetry_equiv_pos_as_xyz
1 x,y,z
2 1/2+x,1/2-y,-z
3 -x,1/2+y,1/2-z
4 1/2-x,-y,1/2+z
_cell_length_a 13.392(2)
_cell_length_b 10.740(1)
_cell_length_c 7.748(1)
_cell_angle_alpha 90
_cell_angle_beta 90
_cell_angle_gamma 90
_cell_formula_units_Z 4
loop_
_atom_type_symbol
_atom_type_radius_bond
C 0.68
H 0.23
N 0.68
O 0.68
loop_
_atom_site_label
_atom_site_type_symbol
_atom_site_fract_x
_atom_site_fract_y
_atom_site_fract_z
C1 C 0.7119(2) 0.0026(3) 0.1442(5)
O1 O 0.6479(2) -0.0919(2) 0.1881(4)
N1 N 0.5492(2) -0.0439(3) 0.1812(5)
C2 C 0.5579(2) 0.0719(3) 0.1340(5)
C3 C 0.6602(2) 0.1066(3) 0.1080(4)
C4 C 0.4668(3) 0.1508(4) 0.1098(6)
C5 C 0.6969(3) 0.2310(3) 0.0434(4)
C6 C 0.6924(3) 0.3303(3) 0.1836(5)
C7 C 0.7307(3) 0.4504(3) 0.1227(5)
N2 N 0.7608(3) 0.5426(3) 0.0753(5)
C8 C 0.8178(2) -0.03413 0.1389(4)
C9 C 0.8435(3) -0.1547(3) 0.0886(5)
C10 C 0.9432(3) -0.1889(3) 0.0759(5)
C11 C 1.0171(3) -0.1052(4) 0.1143(6)
C12 C 0.9929(3) 0.0151(4) 0.1686(6)
C13 C 0.8928(3) 0.0513(3) 0.1813(5)
H1 H 0.413(3) 0.117(4) 0.127(5)
H2 H 0.464(3) 0.183(4) -0.010(6)
H3 H 0.470(3) 0.223(4) 0.189(6)
H4 H 0.762(2) 0.229(3) -0.007(4)
H5 H 0.659(2) 0.257(3) -0.055(4)
H6 H 0.731(2) 0.299(3) 0.286(4)
H7 H 0.629(2) 0.338(3) 0.226(4)
H8 H 0.797(2) -0.213(3) 0.059(4)
H9 H 0.958(3) -0.276(3) 0.043(5)
H10 H 1.087(3) -0.127(3) 0.107(5)
H11 H 1.045(3) 0.085(4) 0.198(6)
H12 H 0.873(3) 0.143(4) 0.240(5)
#END
