
#######################################################################
#
#                 Cambridge Crystallographic Data Centre
#                                CCDC
#
#######################################################################
#
# If this CIF has been generated from an entry in the Cambridge
# Structural Database, then it will include bibliographic, chemical,
# crystal, experimental, refinement or atomic coordinate data resulting
# from the CCDC's data processing and validation procedures.
#
#######################################################################

data_CSD_CIF_VUWCAT
_audit_creation_date 2015-10-27
_audit_creation_method CSD-ConQuest-V1
_database_code_CSD VUWCAT
_database_code_depnum_ccdc_archive 'CCDC 1020439'
_chemical_formula_sum 'C21 H17 N1 O6'
_chemical_formula_moiety
;
C21 H17 N1 O6
;
_journal_coden_Cambridge 1366
_journal_volume 357
_journal_year 2015
_journal_page_first 3303
_journal_name_full 'Adv.Synth.Catal. '
loop_
_publ_author_name
"S.Lindner"
"M.Nieger"
"S.Brase"
_chemical_name_systematic
;
Methyl 2-nitro-3-(1-oxo-2,3,4,4a-tetrahydro-1H-xanthen-7-yl)benzoate
;
_cell_volume   1751.299
_exptl_crystal_colour 'yellow'
_exptl_crystal_density_diffrn 1.439
_exptl_crystal_description 'blocks'
_diffrn_ambient_temperature 173
#These two values have been output from a single CSD field.
_refine_ls_R_factor_gt 0.055
_refine_ls_wR_factor_gt 0.055
_symmetry_cell_setting monoclinic
_symmetry_space_group_name_H-M 'P 21/c'
_symmetry_Int_Tables_number 14
loop_
_symmetry_equiv_pos_site_id
_symmetry_equiv_pos_as_xyz
1 x,y,z
2 -x,1/2+y,1/2-z
3 -x,-y,-z
4 x,-1/2-y,-1/2+z
_cell_length_a 11.7997(6)
_cell_length_b 12.8236(10)
_cell_length_c 11.7731(8)
_cell_angle_alpha 90
_cell_angle_beta 100.555(5)
_cell_angle_gamma 90
_cell_formula_units_Z 4
loop_
_atom_type_symbol
_atom_type_radius_bond
C 0.68
H 0.23
N 0.68
O 0.68
loop_
_atom_site_label
_atom_site_type_symbol
_atom_site_fract_x
_atom_site_fract_y
_atom_site_fract_z
O1 O 0.30429(14) 0.52807(15) 0.90746(16)
C1 C 0.3443(2) 0.4411(2) 0.9333(2)
C2 C 0.2900(2) 0.3687(2) 1.0069(2)
H1 H 0.22360 0.33400 0.95790
H2 H 0.25980 0.41020 1.06570
C3 C 0.3705(2) 0.2854(2) 1.0681(2)
H3 H 0.42730 0.31820 1.13010
H4 H 0.32540 0.23420 1.10430
C4 C 0.4336(2) 0.2295(2) 0.9849(2)
H5 H 0.48260 0.17380 1.02630
H6 H 0.37700 0.19660 0.92270
C5 C 0.5073(2) 0.3047(2) 0.9329(2)
H7 H 0.57360 0.32470 0.99470
C6 C 0.6896(2) 0.2643(2) 0.7209(2)
H8 H 0.70490 0.19170 0.72990
C7 C 0.7468(2) 0.3236(2) 0.6512(2)
H9 H 0.80250 0.29130 0.61390
C8 C 0.72451(19) 0.4298(2) 0.6342(2)
C9 C 0.6406(2) 0.4745(2) 0.6874(2)
H10 H 0.62260 0.54630 0.67540
C10 C 0.58221(19) 0.4158(2) 0.7582(2)
C11 C 0.4869(2) 0.4563(2) 0.8067(2)
H11 H 0.45310 0.52120 0.78030
C12 C 0.44605(19) 0.4029(2) 0.8885(2)
O2 O 0.55353(14) 0.25002(13) 0.84399(15)
C13 C 0.61073(19) 0.3107(2) 0.7769(2)
C14 C 0.78630(19) 0.4908(2) 0.5571(2)
C15 C 0.7787(2) 0.4624(2) 0.4419(2)
H12 H 0.73280 0.40400 0.41280
C16 C 0.8365(2) 0.5170(2) 0.3690(2)
H13 H 0.82990 0.49560 0.29080
C17 C 0.9038(2) 0.6028(2) 0.4084(2)
H14 H 0.94240 0.64030 0.35720
C18 C 0.91464(19) 0.6339(2) 0.5232(2)
C19 C 0.85542(19) 0.5769(2) 0.5946(2)
N1 N 0.86670(18) 0.60543(19) 0.71836(19)
O3 O 0.80429(16) 0.67411(18) 0.74326(16)
O4 O 0.93391(19) 0.55465(17) 0.78669(17)
C20 C 0.9887(2) 0.7239(2) 0.5701(2)
O5 O 1.00866(19) 0.74798(19) 0.66980(18)
O6 O 1.02992(15) 0.77380(15) 0.48852(15)
C21 C 1.0977(2) 0.8657(2) 0.5242(2)
H15 H 1.05130 0.91570 0.55900
H16 H 1.12190 0.89760 0.45680
H17 H 1.16600 0.84630 0.58090
#END
