
#######################################################################
#
#                 Cambridge Crystallographic Data Centre
#                                CCDC
#
#######################################################################
#
# If this CIF has been generated from an entry in the Cambridge
# Structural Database, then it will include bibliographic, chemical,
# crystal, experimental, refinement or atomic coordinate data resulting
# from the CCDC's data processing and validation procedures.
#
#######################################################################

data_CSD_CIF_VUWGIF
_audit_creation_date 2015-10-28
_audit_creation_method CSD-ConQuest-V1
_database_code_CSD VUWGIF
_database_code_depnum_ccdc_archive 'CCDC 1024505'
_chemical_formula_sum 'C23 H19 N3 O3'
_chemical_formula_moiety
;
C23 H19 N3 O3
;
_journal_coden_Cambridge 644
_journal_volume 70
_journal_year 2015
_journal_page_first 809
_journal_name_full 'Z.Naturforsch.,B:Chem.Sci. '
loop_
_publ_author_name
"S.K.Mohamed"
"Jim Simpson"
"A.A.Marzouk"
"A.H.Talybov"
"AntarA.Abdelhamid"
"Y.A.Abdullayev"
"V.M.Abbasov"
_chemical_name_systematic
;
2-(2-(4-nitrophenyl)-4,5-diphenyl-1H-imidazol-1-yl)ethanol
;
_cell_volume   3754.873
_exptl_crystal_colour 'colorless'
_exptl_crystal_density_diffrn 1.364
_exptl_crystal_description 'block'
_diffrn_ambient_temperature 100
#These two values have been output from a single CSD field.
_refine_ls_R_factor_gt 0.0347
_refine_ls_wR_factor_gt 0.0347
_symmetry_cell_setting monoclinic
_symmetry_space_group_name_H-M 'P 21/c'
_symmetry_Int_Tables_number 14
loop_
_symmetry_equiv_pos_site_id
_symmetry_equiv_pos_as_xyz
1 x,y,z
2 -x,1/2+y,1/2-z
3 -x,-y,-z
4 x,-1/2-y,-1/2+z
_cell_length_a 15.36052(11)
_cell_length_b 8.61192(6)
_cell_length_c 28.6080(2)
_cell_angle_alpha 90
_cell_angle_beta 97.1582(7)
_cell_angle_gamma 90
_cell_formula_units_Z 8
loop_
_atom_type_symbol
_atom_type_radius_bond
C 0.68
H 0.23
N 0.68
O 0.68
loop_
_atom_site_label
_atom_site_type_symbol
_atom_site_fract_x
_atom_site_fract_y
_atom_site_fract_z
N1 N 0.07796(6) 0.25764(11) 0.46535(3)
C1 C 0.13757(7) 0.30094(13) 0.43109(4)
H1 H 0.11610 0.25470 0.40010
H2 H 0.19660 0.25800 0.44140
C2 C 0.14434(8) 0.47661(14) 0.42580(4)
H3 H 0.18500 0.50110 0.40260
H4 H 0.08600 0.51950 0.41390
O1 O 0.17513(5) 0.54606(10) 0.46956(3)
H5 H 0.1376(11) 0.622(2) 0.4757(6)
C3 C -0.01042(7) 0.28388(12) 0.46192(4)
C4 C -0.06644(7) 0.32923(12) 0.41838(4)
C5 C -0.13319(7) 0.43796(13) 0.42090(4)
H6 H -0.14170 0.48210 0.45040
C6 C -0.18715(7) 0.48178(13) 0.38056(4)
H7 H -0.23320 0.55450 0.38220
C7 C -0.17279(7) 0.41781(12) 0.33792(4)
N2 N -0.22383(6) 0.47540(11) 0.29463(3)
O2 O -0.28610(6) 0.56259(10) 0.29848(3)
O3 O -0.20043(6) 0.43752(10) 0.25677(3)
C8 C -0.10991(7) 0.30451(13) 0.33439(4)
H8 H -0.10300 0.25870 0.30490
C9 C -0.05730(7) 0.25979(13) 0.37513(4)
H9 H -0.01450 0.18090 0.37360
N3 N -0.04122(6) 0.25505(11) 0.50215(3)
C10 C 0.02949(7) 0.20501(12) 0.53312(4)
C11 C 0.01673(7) 0.15964(12) 0.58149(4)
C12 C 0.08494(7) 0.16293(14) 0.61890(4)
H10 H 0.14260 0.18950 0.61300
C13 C 0.06918(8) 0.12777(14) 0.66449(4)
H11 H 0.11590 0.13230 0.68960
C14 C -0.01428(8) 0.08613(14) 0.67371(4)
H12 H -0.02490 0.06230 0.70490
C15 C -0.08226(7) 0.07964(13) 0.63669(4)
H13 H -0.13940 0.05000 0.64270
C16 C -0.06709(7) 0.11616(13) 0.59112(4)
H14 H -0.11410 0.11160 0.56620
C17 C 0.10421(7) 0.20727(12) 0.51093(4)
C18 C 0.19512(7) 0.15589(13) 0.52694(4)
C19 C 0.26552(7) 0.25947(13) 0.53375(4)
H15 H 0.25580 0.36740 0.52850
C20 C 0.34979(7) 0.20500(15) 0.54818(4)
H16 H 0.39730 0.27610 0.55330
C21 C 0.36487(8) 0.04773(16) 0.55513(4)
H17 H 0.42260 0.01080 0.56470
C22 C 0.29534(8) -0.05543(14) 0.54803(4)
H18 H 0.30570 -0.16350 0.55260
C23 C 0.21068(8) -0.00234(14) 0.53433(4)
H19 H 0.16330 -0.07380 0.53000
N4 N 0.61596(6) 0.61051(10) 0.76830(3)
C24 C 0.67495(7) 0.57183(12) 0.81112(4)
H20 H 0.66700 0.64900 0.83590
H21 H 0.73650 0.57880 0.80430
C25 C 0.65852(7) 0.40993(12) 0.82954(4)
H22 H 0.70020 0.38940 0.85820
H23 H 0.59830 0.40450 0.83830
O4 O 0.66876(5) 0.29513(9) 0.79536(3)
H24 H 0.6199(11) 0.2426(19) 0.7903(6)
C26 C 0.52768(7) 0.63318(12) 0.76470(4)
C27 C 0.47665(7) 0.63989(12) 0.80500(4)
C28 C 0.40580(7) 0.53853(13) 0.80581(4)
H25 H 0.39050 0.46910 0.78030
C29 C 0.35794(7) 0.53906(14) 0.84372(4)
H26 H 0.31030 0.46930 0.84480
C30 C 0.38085(7) 0.64326(14) 0.88004(4)
N5 N 0.33265(7) 0.63983(14) 0.92141(4)
O5 O 0.27545(6) 0.54029(14) 0.92237(4)
O6 O 0.35269(7) 0.73459(14) 0.95286(4)
C31 C 0.44798(7) 0.74993(13) 0.87917(4)
H27 H 0.46060 0.82350 0.90380
C32 C 0.49646(7) 0.74661(13) 0.84134(4)
H28 H 0.54350 0.81770 0.84020
N6 N 0.49275(6) 0.64558(11) 0.72034(3)
C33 C 0.56143(7) 0.63026(12) 0.69346(4)
C34 C 0.54443(7) 0.63729(13) 0.64189(4)
C35 C 0.45852(8) 0.61715(13) 0.61938(4)
H29 H 0.41190 0.60060 0.63770
C36 C 0.44109(8) 0.62113(14) 0.57061(4)
H30 H 0.38290 0.60550 0.55580
C37 C 0.50787(9) 0.64762(17) 0.54335(5)
H31 H 0.49560 0.65230 0.51000
C38 C 0.59282(10) 0.6672(2) 0.56508(5)
H32 H 0.63900 0.68470 0.54650
C39 C 0.61122(8) 0.66151(16) 0.61384(4)
H33 H 0.66990 0.67430 0.62820
C40 C 0.63857(7) 0.60738(12) 0.72288(4)
C41 C 0.73008(7) 0.57820(13) 0.71408(4)
C42 C 0.75912(8) 0.42645(13) 0.70917(4)
H34 H 0.71960 0.34200 0.71040
C43 C 0.84597(9) 0.39861(15) 0.70253(5)
H35 H 0.86560 0.29490 0.69950
C44 C 0.90398(8) 0.52041(16) 0.70025(4)
H36 H 0.96300 0.50040 0.69540
C45 C 0.87563(8) 0.67184(15) 0.70502(4)
H37 H 0.91530 0.75580 0.70340
C46 C 0.78914(7) 0.70086(13) 0.71214(4)
H38 H 0.77010 0.80470 0.71570
#END
