
#######################################################################
#
#                 Cambridge Crystallographic Data Centre
#                                CCDC
#
#######################################################################
#
# If this CIF has been generated from an entry in the Cambridge
# Structural Database, then it will include bibliographic, chemical,
# crystal, experimental, refinement or atomic coordinate data resulting
# from the CCDC's data processing and validation procedures.
#
#######################################################################

data_CSD_CIF_VUXFOL
_audit_creation_date 2015-10-28
_audit_creation_method CSD-ConQuest-V1
_database_code_CSD VUXFOL
_database_code_depnum_ccdc_archive 'CCDC 1411306'
_chemical_formula_sum 'C16 H18 N2 O3'
_chemical_formula_moiety
;
C16 H18 N2 O3
;
_journal_coden_Cambridge 1291
_journal_year 2015
_journal_page_first 6413
_journal_name_full 'Eur.J.Org.Chem. '
loop_
_publ_author_name
"D.B.Ramachary"
"K.S.Shruthi"
"R.Madhavachary"
_chemical_name_systematic
;
(R)-1-(9-(nitromethyl)-1,2,3,4-tetrahydroacridin-10(9H)-yl)ethanone
;
_chemical_name_common
;
1-(9-(nitromethyl)-2,3,4,9-tetrahydroacridin-10(1H)-yl)ethanone
;
_cell_volume    750.146
_exptl_crystal_density_diffrn 1.268
_diffrn_ambient_temperature 173.2
#These two values have been output from a single CSD field.
_refine_ls_R_factor_gt 0.0521
_refine_ls_wR_factor_gt 0.0521
_symmetry_cell_setting monoclinic
_symmetry_space_group_name_H-M 'P 21'
_symmetry_Int_Tables_number 4
loop_
_symmetry_equiv_pos_site_id
_symmetry_equiv_pos_as_xyz
1 x,y,z
2 -x,1/2+y,-z
_cell_length_a 8.8678(4)
_cell_length_b 8.3655(3)
_cell_length_c 10.9057(4)
_cell_angle_alpha 90
_cell_angle_beta 111.994(5)
_cell_angle_gamma 90
_cell_formula_units_Z 2
loop_
_atom_type_symbol
_atom_type_radius_bond
C 0.68
H 0.23
N 0.68
O 0.68
loop_
_atom_site_label
_atom_site_type_symbol
_atom_site_fract_x
_atom_site_fract_y
_atom_site_fract_z
C1 C 0.7815(2) 0.5001(3) 0.67175(17)
C2 C 0.8858(3) 0.4525(4) 0.5954(3)
H1 H 0.83100 0.36640 0.53220
H2 H 0.99120 0.41050 0.65740
C3 C 0.9159(5) 0.5945(6) 0.5205(4)
H3 H 1.00120 0.66290 0.58320
H4 H 0.95740 0.55480 0.45350
C4 C 0.7695(5) 0.6924(6) 0.4538(3)
H5 H 0.68620 0.62640 0.38680
H6 H 0.79780 0.78220 0.40720
C5 C 0.6990(3) 0.7585(3) 0.5503(2)
H7 H 0.76190 0.85400 0.59440
H8 H 0.58530 0.79230 0.50100
C6 C 0.7022(2) 0.6379(3) 0.65379(17)
C7 C 0.6111(3) 0.6788(2) 0.74276(18)
H9 H 0.59610 0.79730 0.74290
C8 C 0.7098(2) 0.6237(3) 0.88182(18)
C9 C 0.7213(4) 0.7116(4) 0.9938(2)
H10 H 0.66310 0.80890 0.98510
C10 C 0.8188(5) 0.6553(5) 1.1182(3)
H11 H 0.82530 0.71330 1.19490
C11 C 0.9062(4) 0.5155(6) 1.1311(2)
H12 H 0.97350 0.47910 1.21670
C12 C 0.8969(3) 0.4274(4) 1.0207(2)
H13 H 0.95870 0.33240 1.02960
C13 C 0.7950(2) 0.4816(3) 0.89672(18)
C14 C 0.7276(3) 0.2429(3) 0.7529(3)
C15 C 0.6874(5) 0.1540(4) 0.8562(3)
H14 H 0.78770 0.11280 0.92360
H15 H 0.61470 0.06460 0.81480
H16 H 0.63360 0.22630 0.89760
C16 C 0.4443(2) 0.5982(3) 0.6856(2)
H17 H 0.38670 0.63330 0.59300
H18 H 0.45820 0.48080 0.68570
N1 N 0.7808(2) 0.3981(2) 0.77860(17)
N2 N 0.3464(3) 0.6408(5) 0.7658(3)
O1 O 0.7065(3) 0.1814(3) 0.6478(2)
O2 O 0.3177(6) 0.7801(6) 0.7751(6)
O3 O 0.2987(5) 0.5357(6) 0.8181(4)
#END
