
#######################################################################
#
#                 Cambridge Crystallographic Data Centre
#                                CCDC
#
#######################################################################
#
# If this CIF has been generated from an entry in the Cambridge
# Structural Database, then it will include bibliographic, chemical,
# crystal, experimental, refinement or atomic coordinate data resulting
# from the CCDC's data processing and validation procedures.
#
#######################################################################

data_CSD_CIF_VUXLOR
_audit_creation_date 2015-10-28
_audit_creation_method CSD-ConQuest-V1
_database_code_CSD VUXLOR
_database_code_depnum_ccdc_archive 'CCDC 1431561'
_chemical_formula_sum 'C30 H23 N1 O2'
_chemical_formula_moiety
;
C30 H23 N1 O2
;
_journal_coeditor_code "is5427"
_journal_coden_Cambridge 1828
_journal_volume 71
_journal_year 2015
_journal_page_first o873
_journal_name_full 'Acta Crystallogr.,Sect.E:Cryst.Commun. '
loop_
_publ_author_name
"A.Mahfoud"
"G.Al Houari"
"M.El Yazidi"
"M.Saadi"
"L.El Ammari"
_chemical_name_systematic
;
3'-(4-methylphenyl)-3,4'-diphenyl-4'H-spiro[indene-2,5'-[1,2]oxazol]-1(3H)-one
;
_cell_volume   2302.667
_exptl_crystal_colour 'colorless'
_exptl_crystal_density_diffrn 1.239
_exptl_crystal_description 'Block'
_diffrn_ambient_temperature 296
#These two values have been output from a single CSD field.
_refine_ls_R_factor_gt 0.0488
_refine_ls_wR_factor_gt 0.0488
_symmetry_cell_setting monoclinic
_symmetry_space_group_name_H-M 'P 21/n'
_symmetry_Int_Tables_number 14
loop_
_symmetry_equiv_pos_site_id
_symmetry_equiv_pos_as_xyz
1 x,y,z
2 1/2-x,1/2+y,1/2-z
3 -x,-y,-z
4 -1/2+x,-1/2-y,-1/2+z
_cell_length_a 9.7381(7)
_cell_length_b 20.5072(14)
_cell_length_c 11.8261(8)
_cell_angle_alpha 90
_cell_angle_beta 102.836(2)
_cell_angle_gamma 90
_cell_formula_units_Z 4
loop_
_atom_type_symbol
_atom_type_radius_bond
C 0.68
H 0.23
N 0.68
O 0.68
loop_
_atom_site_label
_atom_site_type_symbol
_atom_site_fract_x
_atom_site_fract_y
_atom_site_fract_z
C1 C 0.63361(17) 0.65004(7) 0.77155(13)
C2 C 0.7018(2) 0.67536(9) 0.87761(15)
H1 H 0.77600 0.70460 0.88280
C3 C 0.6574(3) 0.65632(12) 0.97544(16)
H2 H 0.70090 0.67390 1.04690
C4 C 0.5499(3) 0.61194(12) 0.96970(17)
H3 H 0.52260 0.59990 1.03720
C5 C 0.4821(2) 0.58502(10) 0.86457(16)
H4 H 0.41030 0.55460 0.86020
C6 C 0.52553(17) 0.60528(7) 0.76583(13)
C7 C 0.47174(15) 0.58614(7) 0.64401(12)
C8 C 0.52976(15) 0.63745(6) 0.57117(12)
C9 C 0.66333(16) 0.66398(7) 0.65309(12)
H5 H 0.66900 0.71120 0.64240
C10 C 0.52416(15) 0.61711(6) 0.44621(11)
H6 H 0.53270 0.56960 0.44100
C11 C 0.37483(16) 0.63844(7) 0.39210(13)
C12 C 0.29663(16) 0.62078(7) 0.27526(13)
C13 C 0.17247(17) 0.65406(9) 0.22408(15)
H7 H 0.13900 0.68700 0.26490
C14 C 0.1000(2) 0.63836(10) 0.11407(16)
H8 H 0.01880 0.66150 0.08110
C15 C 0.1444(2) 0.58901(10) 0.05096(15)
C16 C 0.2661(2) 0.55529(9) 0.10290(15)
H9 H 0.29730 0.52130 0.06290
C17 C 0.34171(18) 0.57134(8) 0.21307(14)
H10 H 0.42360 0.54860 0.24540
C18 C 0.0653(3) 0.57206(13) -0.07049(18)
H11 H 0.11210 0.53680 -0.09980
H12 H -0.02900 0.55920 -0.06900
H13 H 0.06270 0.60940 -0.11980
C19 C 0.79899(16) 0.63248(8) 0.63886(12)
C20 C 0.81576(18) 0.56531(9) 0.64447(14)
H14 H 0.74380 0.53920 0.65960
C21 C 0.9383(2) 0.53679(12) 0.62782(17)
H15 H 0.94760 0.49160 0.63060
C22 C 1.0455(2) 0.57422(17) 0.6073(2)
H16 H 1.12760 0.55470 0.59600
C23 C 1.0322(2) 0.64040(16) 0.60343(19)
H17 H 1.10600 0.66600 0.59020
C24 C 0.9092(2) 0.66999(11) 0.61901(16)
H18 H 0.90110 0.71520 0.61610
C25 C 0.62860(15) 0.65060(7) 0.38786(12)
C26 C 0.62869(19) 0.71794(8) 0.37655(15)
H19 H 0.56150 0.74270 0.40200
C27 C 0.7283(2) 0.74848(9) 0.32761(17)
H20 H 0.72850 0.79370 0.32130
C28 C 0.8269(2) 0.71204(11) 0.28830(16)
H21 H 0.89380 0.73260 0.25550
C29 C 0.8263(2) 0.64531(10) 0.29763(16)
H22 H 0.89270 0.62070 0.27080
C30 C 0.72750(17) 0.61456(8) 0.34679(13)
H23 H 0.72740 0.56930 0.35230
N1 N 0.32254(14) 0.67817(6) 0.45484(11)
O1 O 0.39627(12) 0.54081(5) 0.6056(1)
O2 O 0.42173(12) 0.68874(5) 0.56063(9)
#END
