
#######################################################################
#
#                 Cambridge Crystallographic Data Centre
#                                CCDC
#
#######################################################################
#
# If this CIF has been generated from an entry in the Cambridge
# Structural Database, then it will include bibliographic, chemical,
# crystal, experimental, refinement or atomic coordinate data resulting
# from the CCDC's data processing and validation procedures.
#
#######################################################################

data_CSD_CIF_VUXWUG
_audit_creation_date 1989-10-10
_audit_creation_method CSD-ConQuest-V1
_database_code_CSD VUXWUG
_chemical_formula_sum 'C16 H14 N4 O1'
_chemical_formula_moiety
;
C16 H14 N4 O1
;
_journal_coeditor_code "IUCr MN0707"
_journal_coden_Cambridge 591
_journal_volume 45
_journal_year 1989
_journal_page_first 653
_journal_name_full 'Acta Crystallogr.,Sect.C:Cryst.Struct.Commun. '
loop_
_publ_author_name
"G.Bruno"
"F.Foti"
"G.Grassi"
"F.Caruso"
"F.Risitano"
_chemical_name_systematic
;
5-Methyl-3-phenyl-1,2,4-triazol-1-yl phenylketone oxime
;
_cell_volume   2882.360
_exptl_crystal_density_diffrn 1.28
_diffrn_ambient_temperature ?
_diffrn_special_details
;
The study was carried out at room temperature,in the range 283-303K

;
#These two values have been output from a single CSD field.
_refine_ls_R_factor_gt 0.056
_refine_ls_wR_factor_gt 0.056
_symmetry_cell_setting orthorhombic
_symmetry_space_group_name_H-M 'P b c a'
_symmetry_Int_Tables_number 61
loop_
_symmetry_equiv_pos_site_id
_symmetry_equiv_pos_as_xyz
1 x,y,z
2 1/2-x,1/2+y,z
3 x,1/2-y,1/2+z
4 1/2-x,-y,1/2+z
5 -x,-y,-z
6 -1/2+x,-1/2-y,-z
7 -x,-1/2+y,-1/2-z
8 -1/2+x,y,-1/2-z
_cell_length_a 23.001(3)
_cell_length_b 13.155(2)
_cell_length_c 9.526(1)
_cell_angle_alpha 90
_cell_angle_beta 90
_cell_angle_gamma 90
_cell_formula_units_Z 8
loop_
_atom_type_symbol
_atom_type_radius_bond
C 0.68
H 0.23
N 0.68
O 0.68
loop_
_atom_site_label
_atom_site_type_symbol
_atom_site_fract_x
_atom_site_fract_y
_atom_site_fract_z
N1 N 0.3117(2) 0.4623(3) 0.8635(5)
N2 N 0.3594(2) 0.4801(4) 0.9465(6)
C1 C 0.3491(3) 0.5714(4) 0.9978(7)
N3 N 0.2979(2) 0.6135(4) 0.9529(5)
C2 C 0.2758(3) 0.5427(5) 0.8675(7)
C3 C 0.2217(3) 0.5465(5) 0.7850(9)
C4 C 0.3105(3) 0.3749(4) 0.7763(7)
N4 N 0.2776(2) 0.2984(4) 0.8014(6)
O1 O 0.2457(2) 0.3106(3) 0.9252(5)
C5 C 0.3662(3) 0.2849(5) 0.5885(8)
C6 C 0.4045(3) 0.2868(5) 0.4763(8)
C7 C 0.4272(3) 0.3779(6) 0.4305(9)
C8 C 0.4118(3) 0.4671(5) 0.4933(9)
C9 C 0.3725(3) 0.4665(6) 0.6057(8)
C10 C 0.3500(3) 0.3746(5) 0.6543(7)
C11 C 0.3752(3) 0.7121(5) 1.1606(8)
C12 C 0.4148(3) 0.7588(6) 1.2516(10)
C13 C 0.4671(3) 0.7145(5) 1.2763(8)
C14 C 0.4818(3) 0.6263(6) 1.2128(8)
C15 C 0.4427(3) 0.5783(5) 1.1215(7)
C16 C 0.3893(3) 0.6218(5) 1.0958(6)
H1 H 0.22900 0.24100 0.94900
H2 H 0.19800 0.60100 0.82500
H3 H 0.20300 0.48100 0.80200
H4 H 0.22600 0.55700 0.68400
H5 H 0.35000 0.22000 0.62100
H6 H 0.41500 0.22300 0.42900
H7 H 0.45500 0.37900 0.35200
H8 H 0.42800 0.53100 0.46000
H9 H 0.36100 0.53000 0.65000
H10 H 0.33700 0.74400 1.14300
H11 H 0.40500 0.82300 1.29700
H12 H 0.49400 0.74700 1.34100
H13 H 0.52000 0.59600 1.23100
H14 H 0.45300 0.51400 1.07600
#END
