
#######################################################################
#
#                 Cambridge Crystallographic Data Centre
#                                CCDC
#
#######################################################################
#
# If this CIF has been generated from an entry in the Cambridge
# Structural Database, then it will include bibliographic, chemical,
# crystal, experimental, refinement or atomic coordinate data resulting
# from the CCDC's data processing and validation procedures.
#
#######################################################################

data_CSD_CIF_VUXWUI
_audit_creation_date 2015-10-28
_audit_creation_method CSD-ConQuest-V1
_database_code_CSD VUXWUI
_database_code_depnum_ccdc_archive 'CCDC 1430858'
_chemical_formula_sum 'C17 H13 N1 O5'
_chemical_formula_moiety
;
C17 H13 N1 O5
;
_journal_coeditor_code "su5224"
_journal_coden_Cambridge 1828
_journal_volume 71
_journal_year 2015
_journal_page_first o860
_journal_name_full 'Acta Crystallogr.,Sect.E:Cryst.Commun. '
loop_
_publ_author_name
"S.Walki"
"S.Naveen"
"S.Kenchanna"
"K.M.Mahadevan"
"M.N.Kumara"
"N.K.Lokanath"
_chemical_name_systematic
;
8-ethoxy-3-(4-nitrophenyl)-2H-chromen-2-one
;
_cell_volume   1481.685
_exptl_crystal_colour 'yellow'
_exptl_crystal_density_diffrn 1.395
_exptl_crystal_description 'Prism'
_diffrn_ambient_temperature 296
#These two values have been output from a single CSD field.
_refine_ls_R_factor_gt 0.045
_refine_ls_wR_factor_gt 0.045
_symmetry_cell_setting orthorhombic
_symmetry_space_group_name_H-M 'P 21 21 21'
_symmetry_Int_Tables_number 19
loop_
_symmetry_equiv_pos_site_id
_symmetry_equiv_pos_as_xyz
1 x,y,z
2 1/2-x,-y,1/2+z
3 1/2+x,1/2-y,-z
4 -x,1/2+y,1/2-z
_cell_length_a 6.8118(9)
_cell_length_b 13.6726(18)
_cell_length_c 15.909(2)
_cell_angle_alpha 90
_cell_angle_beta 90
_cell_angle_gamma 90
_cell_formula_units_Z 4
loop_
_atom_type_symbol
_atom_type_radius_bond
C 0.68
H 0.23
N 0.68
O 0.68
loop_
_atom_site_label
_atom_site_type_symbol
_atom_site_fract_x
_atom_site_fract_y
_atom_site_fract_z
O1 O 0.5699(2) 0.71184(8) 0.34374(7)
O2 O 0.5487(2) 0.63066(10) 0.19274(7)
O3 O 0.6120(2) 0.84884(8) 0.41311(7)
O4 O 0.5085(3) 0.97085(14) 0.82793(11)
O5 O 0.5615(4) 0.83031(16) 0.88337(9)
N1 N 0.5394(3) 0.88318(16) 0.82255(11)
C1 C 0.5811(3) 0.76190(12) 0.41836(10)
C2 C 0.5552(3) 0.70612(11) 0.49641(10)
C3 C 0.5162(3) 0.60920(12) 0.49082(10)
C4 C 0.5066(3) 0.55829(13) 0.41241(11)
C5 C 0.4682(4) 0.45725(14) 0.40574(12)
C6 C 0.4586(4) 0.41549(14) 0.32849(12)
C7 C 0.4848(4) 0.47095(14) 0.25537(12)
C8 C 0.5232(3) 0.56989(14) 0.25975(11)
C9 C 0.5335(3) 0.61330(13) 0.33952(11)
C10 C 0.5377(4) 0.58696(15) 0.10978(10)
C11 C 0.5582(5) 0.66749(19) 0.04725(12)
C12 C 0.5625(3) 0.75681(13) 0.57930(11)
C13 C 0.5182(3) 0.85604(13) 0.59012(11)
C14 C 0.5132(3) 0.89769(14) 0.66921(12)
C15 C 0.5499(3) 0.83947(15) 0.73796(11)
C16 C 0.5985(4) 0.74317(15) 0.73029(11)
C17 C 0.6066(3) 0.70218(14) 0.65155(10)
H1 H 0.49480 0.57420 0.54010
H2 H 0.44980 0.41960 0.45380
H3 H 0.43410 0.34880 0.32400
H4 H 0.47620 0.44070 0.20310
H5 H 0.41270 0.55400 0.10250
H6 H 0.64210 0.53950 0.10250
H7 H 0.45240 0.71320 0.05420
H8 H 0.55450 0.64080 -0.00850
H9 H 0.68110 0.70040 0.05580
H10 H 0.49170 0.89450 0.54330
H11 H 0.48550 0.96380 0.67580
H12 H 0.62580 0.70580 0.77770
H13 H 0.64200 0.63680 0.64600
#END
