
#######################################################################
#
#                 Cambridge Crystallographic Data Centre
#                                CCDC
#
#######################################################################
#
# If this CIF has been generated from an entry in the Cambridge
# Structural Database, then it will include bibliographic, chemical,
# crystal, experimental, refinement or atomic coordinate data resulting
# from the CCDC's data processing and validation procedures.
#
#######################################################################

data_CSD_CIF_VUXWIW
_audit_creation_date 2015-10-28
_audit_creation_method CSD-ConQuest-V1
_database_code_CSD VUXWIW
_database_code_depnum_ccdc_archive 'CCDC 1430774'
_chemical_formula_sum 'C24 H18 N4 O4'
_chemical_formula_moiety
;
C24 H18 N4 O4
;
_journal_coeditor_code "su5223"
_journal_coden_Cambridge 1828
_journal_volume 71
_journal_year 2015
_journal_page_first o846
_journal_name_full 'Acta Crystallogr.,Sect.E:Cryst.Commun. '
loop_
_publ_author_name
"A.A.Golovanov"
"A.V.Vologzhanina"
"E.D.Voronova"
"V.V.Bekin"
"S.V.Naumov"
_chemical_name_systematic
;
1-(2,4-dinitrophenyl)-2-(1-(4-methylphenyl)-5-phenylpent-2-en-4-yn-1-ylidene)h
ydrazine
;
_cell_volume   2061.633
_exptl_crystal_colour 'red'
_exptl_crystal_density_diffrn 1.374
_exptl_crystal_description 'needle'
_diffrn_ambient_temperature 120
#These two values have been output from a single CSD field.
_refine_ls_R_factor_gt 0.0907
_refine_ls_wR_factor_gt 0.0907
_symmetry_cell_setting monoclinic
_symmetry_space_group_name_H-M 'P 21/n'
_symmetry_Int_Tables_number 14
loop_
_symmetry_equiv_pos_site_id
_symmetry_equiv_pos_as_xyz
1 x,y,z
2 1/2-x,1/2+y,1/2-z
3 -x,-y,-z
4 -1/2+x,-1/2-y,-1/2+z
_cell_length_a 18.4810(6)
_cell_length_b 6.1674(2)
_cell_length_c 19.2366(12)
_cell_angle_alpha 90
_cell_angle_beta 109.902(5)
_cell_angle_gamma 90
_cell_formula_units_Z 4
loop_
_atom_type_symbol
_atom_type_radius_bond
C 0.68
H 0.23
N 0.68
O 0.68
loop_
_atom_site_label
_atom_site_type_symbol
_atom_site_fract_x
_atom_site_fract_y
_atom_site_fract_z
O1 O 0.03666(16) 0.8320(6) 0.91286(19)
O2 O 0.08785(16) 1.1218(6) 0.97070(17)
O3 O 0.35551(17) 1.2102(5) 1.08437(18)
O4 O 0.43421(15) 0.9726(5) 1.06733(17)
N1 N 0.13617(18) 0.3687(6) 0.84326(18)
N2 N 0.12194(18) 0.5366(6) 0.88310(19)
H1 H 0.077(3) 0.598(8) 0.877(3)
N3 N 0.09357(18) 0.9408(6) 0.94809(19)
N4 N 0.36865(19) 1.0372(6) 1.05984(19)
C1 C 0.0782(2) 0.2979(7) 0.7893(2)
C2 C -0.0018(2) 0.3818(7) 0.7662(2)
H2 H -0.04180 0.28100 0.76260
C3 C -0.0214(2) 0.5874(7) 0.7502(2)
H3 H 0.01830 0.69130 0.75640
C4 C -0.0994(2) 0.6596(8) 0.7240(2)
C5 C -0.1651(2) 0.7169(8) 0.7004(2)
C6 C -0.2456(2) 0.7682(7) 0.6685(2)
C7 C -0.3002(2) 0.6081(8) 0.6657(2)
H4 H -0.28410 0.46940 0.68680
C8 C -0.3780(2) 0.6527(8) 0.6322(2)
H5 H -0.41500 0.54360 0.63010
C9 C -0.4020(2) 0.8530(8) 0.6020(2)
H6 H -0.45530 0.88160 0.57850
C10 C -0.3485(2) 1.0128(8) 0.6058(2)
H7 H -0.36500 1.15220 0.58570
C11 C -0.2702(2) 0.9698(7) 0.6390(2)
H8 H -0.23360 1.08020 0.64140
C12 C 0.0927(2) 0.1107(7) 0.7471(2)
C13 C 0.0446(2) 0.0721(7) 0.6754(2)
H9 H 0.00180 0.16440 0.65340
C14 C 0.0585(2) -0.1003(7) 0.6353(2)
H10 H 0.02530 -0.12400 0.58590
C15 C 0.1208(2) -0.2392(7) 0.6668(2)
C16 C 0.1688(2) -0.2011(7) 0.7387(2)
H11 H 0.21080 -0.29600 0.76110
C17 C 0.1563(2) -0.0273(7) 0.7783(2)
H12 H 0.19080 -0.00030 0.82690
C18 C 0.1338(2) -0.4305(8) 0.6238(3)
H13 H 0.15080 -0.55520 0.65690
H14 H 0.17330 -0.39410 0.60230
H15 H 0.08560 -0.46670 0.58410
C19 C 0.1805(2) 0.6534(7) 0.9298(2)
C20 C 0.1700(2) 0.8485(7) 0.9621(2)
C21 C 0.2312(2) 0.9736(7) 1.0058(2)
H16 H 0.22260 1.10750 1.02610
C22 C 0.3048(2) 0.8976(7) 1.0187(2)
C23 C 0.3174(2) 0.7040(8) 0.9893(2)
H17 H 0.36870 0.65490 0.99960
C24 C 0.2583(2) 0.5810(7) 0.9458(2)
H18 H 0.26850 0.44760 0.92610
#END
