
#######################################################################
#
#                 Cambridge Crystallographic Data Centre
#                                CCDC
#
#######################################################################
#
# If this CIF has been generated from an entry in the Cambridge
# Structural Database, then it will include bibliographic, chemical,
# crystal, experimental, refinement or atomic coordinate data resulting
# from the CCDC's data processing and validation procedures.
#
#######################################################################

data_CSD_CIF_VUXXAN
_audit_creation_date 1989-10-10
_audit_creation_method CSD-ConQuest-V1
_database_code_CSD VUXXAN
_chemical_formula_sum 'C16 H14 N4 O1'
_chemical_formula_moiety
;
C16 H14 N4 O1
;
_journal_coeditor_code "IUCr MN0707"
_journal_coden_Cambridge 591
_journal_volume 45
_journal_year 1989
_journal_page_first 653
_journal_name_full 'Acta Crystallogr.,Sect.C:Cryst.Struct.Commun. '
loop_
_publ_author_name
"G.Bruno"
"F.Foti"
"G.Grassi"
"F.Caruso"
"F.Risitano"
_chemical_name_systematic
;
3-Methyl-5-phenyl-1,2,4-triazol-4-yl phenylketone oxime
;
_cell_volume   1529.887
_exptl_crystal_density_diffrn 1.21
_diffrn_ambient_temperature ?
_diffrn_special_details
;
The study was carried out at room temperature,in the range 283-303K

;
#These two values have been output from a single CSD field.
_refine_ls_R_factor_gt 0.047
_refine_ls_wR_factor_gt 0.047
_symmetry_cell_setting monoclinic
_symmetry_space_group_name_H-M 'P 21/n'
_symmetry_Int_Tables_number 14
loop_
_symmetry_equiv_pos_site_id
_symmetry_equiv_pos_as_xyz
1 x,y,z
2 1/2-x,1/2+y,1/2-z
3 -x,-y,-z
4 -1/2+x,-1/2-y,-1/2+z
_cell_length_a 9.869(1)
_cell_length_b 12.656(2)
_cell_length_c 12.939(2)
_cell_angle_alpha 90
_cell_angle_beta 108.8(1)
_cell_angle_gamma 90
_cell_formula_units_Z 4
loop_
_atom_type_symbol
_atom_type_radius_bond
C 0.68
H 0.23
N 0.68
O 0.68
loop_
_atom_site_label
_atom_site_type_symbol
_atom_site_fract_x
_atom_site_fract_y
_atom_site_fract_z
O1 O 0.2159(4) 0.1625(2) 0.7783(3)
N1 N 0.2055(4) 0.1598(3) 0.8825(3)
N2 N 0.4876(4) 0.4294(3) 0.8641(3)
C1 C 0.2629(5) 0.2404(3) 0.9390(4)
N3 N 0.3290(4) 0.3231(2) 0.8942(3)
N4 N 0.3521(4) 0.4724(3) 0.8174(3)
C2 C 0.2583(5) 0.4029(3) 0.8357(4)
C3 C 0.0994(6) 0.4200(4) 0.7984(5)
C4 C 0.4724(5) 0.3405(3) 0.9102(4)
C5 C 0.5882(5) 0.2682(3) 0.9680(4)
C6 C 0.5720(6) 0.1591(4) 0.9606(5)
C7 C 0.6834(9) 0.0931(5) 1.0119(7)
C8 C 0.8139(9) 0.1334(6) 1.0721(6)
C9 C 0.8314(7) 0.2414(7) 1.0805(5)
C10 C 0.7201(6) 0.3089(5) 1.0289(5)
C11 C 0.2678(4) 0.2516(3) 1.0538(4)
C12 C 0.2138(5) 0.1728(4) 1.1057(4)
C13 C 0.2217(6) 0.1843(4) 1.2145(4)
C14 C 0.2813(6) 0.2729(5) 1.2717(4)
C15 C 0.3349(6) 0.3529(5) 1.2214(4)
C16 C 0.3285(6) 0.3410(3) 1.1142(4)
H1 H 0.18900 0.09000 0.74600
H2 H 0.05300 0.35500 0.82400
H3 H 0.06100 0.42200 0.71100
H4 H 0.07100 0.49000 0.82800
H5 H 0.47200 0.12700 0.91600
H6 H 0.66900 0.01100 1.00300
H7 H 0.89700 0.08400 1.11400
H8 H 0.93200 0.27200 1.12500
H9 H 0.73400 0.39100 1.03500
H10 H 0.16900 0.10400 1.06300
H11 H 0.18000 0.12600 1.25200
H12 H 0.28800 0.28100 1.35400
H13 H 0.38000 0.42000 1.26500
H14 H 0.37000 0.40100 1.07700
#END
