
#######################################################################
#
#                 Cambridge Crystallographic Data Centre
#                                CCDC
#
#######################################################################
#
# If this CIF has been generated from an entry in the Cambridge
# Structural Database, then it will include bibliographic, chemical,
# crystal, experimental, refinement or atomic coordinate data resulting
# from the CCDC's data processing and validation procedures.
#
#######################################################################

data_CSD_CIF_VUYKUV
_audit_creation_date 1989-10-10
_audit_creation_method CSD-ConQuest-V1
_database_code_CSD VUYKUV
_chemical_formula_sum 'C9 H11 N3 O2'
_chemical_formula_moiety
;
C9 H11 N3 O2
;
_journal_coeditor_code "IUCr MN0727"
_journal_coden_Cambridge 591
_journal_volume 45
_journal_year 1989
_journal_page_first 433
_journal_name_full 'Acta Crystallogr.,Sect.C:Cryst.Struct.Commun. '
loop_
_publ_author_name
"E.Ciszak"
"M.Gdaniec"
"M.Jaskolski"
"Z.Kosturkiewicz"
"J.Owsianski"
"E.Tykarska"
_chemical_name_systematic
;
N,N-Dimethyl-N'-p-nitrophenyl-formamidine
;
_cell_volume    962.818
_exptl_crystal_colour 'yellow'
_exptl_crystal_density_diffrn 1.33
_diffrn_ambient_temperature ?
_diffrn_special_details
;
The study was carried out at room temperature,in the range 283-303K

;
#These two values have been output from a single CSD field.
_refine_ls_R_factor_gt 0.049
_refine_ls_wR_factor_gt 0.049
_symmetry_cell_setting triclinic
_symmetry_space_group_name_H-M 'P -1'
_symmetry_Int_Tables_number 2
loop_
_symmetry_equiv_pos_site_id
_symmetry_equiv_pos_as_xyz
1 x,y,z
2 -x,-y,-z
_cell_length_a 10.115(2)
_cell_length_b 10.8620(9)
_cell_length_c 9.004(1)
_cell_angle_alpha 99.56(1)
_cell_angle_beta 99.25(1)
_cell_angle_gamma 88.825(8)
_cell_formula_units_Z 4
loop_
_atom_type_symbol
_atom_type_radius_bond
C 0.68
H 0.23
N 0.68
O 0.68
loop_
_atom_site_label
_atom_site_type_symbol
_atom_site_fract_x
_atom_site_fract_y
_atom_site_fract_z
C1 C 0.2606(3) 0.5581(3) 0.0401(3)
C2 C 0.4368(3) 0.6184(3) 0.2318(3)
C3 C 0.4784(3) 0.7093(3) 0.3592(4)
C4 C 0.5820(3) 0.6874(3) 0.4707(4)
C5 C 0.6469(3) 0.5754(3) 0.4556(3)
C6 C 0.6110(3) 0.4843(3) 0.3298(4)
C7 C 0.5074(3) 0.5064(3) 0.2192(4)
C8 C 0.0866(5) 0.4677(5) -0.1636(5)
C9 C 0.1226(5) 0.6975(5) -0.1010(6)
N1 N 0.1595(2) 0.5745(2) -0.0693(3)
N2 N 0.3312(2) 0.6484(2) 0.1250(3)
N3 N 0.7564(3) 0.5509(3) 0.5731(3)
O1 O 0.8241(3) 0.4569(3) 0.5487(3)
O2 O 0.7767(2) 0.6266(2) 0.6922(3)
C10 C 0.1263(3) 0.1397(3) -0.2871(4)
C11 C 0.2334(3) 0.1195(3) -0.0470(3)
C12 C 0.2291(3) 0.0525(3) 0.0717(3)
C13 C 0.3410(3) 0.0414(3) 0.1780(4)
C14 C 0.4590(3) 0.1000(3) 0.1681(3)
C15 C 0.4653(3) 0.1698(3) 0.0550(3)
C16 C 0.3536(3) 0.1799(3) -0.0503(3)
C17 C 0.0384(4) 0.1763(4) -0.5435(4)
C18 C -0.1120(4) 0.1694(6) -0.3524(6)
N4 N 0.0216(2) 0.1573(2) -0.3915(3)
N5 N 0.1156(2) 0.1263(2) -0.1499(3)
N6 N 0.5778(3) 0.0879(2) 0.2793(3)
O3 O 0.6782(2) 0.1478(2) 0.2771(3)
O4 O 0.5734(2) 0.0174(2) 0.3724(2)
H1 H 0.274(2) 0.470(3) 0.052(3)
H2 H 0.432(3) 0.788(3) 0.364(3)
H3 H 0.613(3) 0.751(3) 0.556(3)
H4 H 0.657(3) 0.408(3) 0.327(3)
H5 H 0.482(3) 0.445(3) 0.134(3)
H6 H 0.104(4) 0.461(4) -0.262(5)
H7 H -0.006(4) 0.491(4) -0.176(4)
H8 H 0.105(5) 0.392(4) -0.128(5)
H9 H 0.036(4) 0.710(4) -0.103(5)
H10 H 0.145(4) 0.714(4) -0.180(5)
H11 H 0.176(4) 0.769(4) -0.032(5)
H12 H 0.210(2) 0.134(2) -0.325(3)
H13 H 0.143(3) 0.014(2) 0.080(3)
H14 H 0.343(3) -0.012(3) 0.261(3)
H15 H 0.549(3) 0.207(2) 0.050(3)
H16 H 0.359(2) 0.229(2) -0.130(3)
H17 H -0.024(4) 0.118(3) -0.618(4)
H18 H 0.017(4) 0.275(4) -0.562(4)
H19 H 0.136(4) 0.164(3) -0.559(4)
H20 H -0.122(4) 0.113(4) -0.276(5)
H21 H -0.173(4) 0.135(4) -0.432(5)
H22 H -0.139(4) 0.249(4) -0.327(5)
#END
