
#######################################################################
#
#                 Cambridge Crystallographic Data Centre
#                                CCDC
#
#######################################################################
#
# If this CIF has been generated from an entry in the Cambridge
# Structural Database, then it will include bibliographic, chemical,
# crystal, experimental, refinement or atomic coordinate data resulting
# from the CCDC's data processing and validation procedures.
#
#######################################################################

data_CSD_CIF_VUYLAC
_audit_creation_date 1989-10-10
_audit_creation_method CSD-ConQuest-V1
_database_code_CSD VUYLAC
_chemical_formula_sum 'C10 H13 N3 O2'
_chemical_formula_moiety
;
C10 H13 N3 O2
;
_journal_coeditor_code "IUCr MN0727"
_journal_coden_Cambridge 591
_journal_volume 45
_journal_year 1989
_journal_page_first 433
_journal_name_full 'Acta Crystallogr.,Sect.C:Cryst.Struct.Commun. '
loop_
_publ_author_name
"E.Ciszak"
"M.Gdaniec"
"M.Jaskolski"
"Z.Kosturkiewicz"
"J.Owsianski"
"E.Tydarska"
_chemical_name_systematic
;
N,N-Dimethyl-N'-p-nitrophenyl-acetamidine
;
_cell_volume   1092.919
_exptl_crystal_colour 'yellow'
_exptl_crystal_density_diffrn 1.26
_diffrn_ambient_temperature ?
_diffrn_special_details
;
The study was carried out at room temperature,in the range 283-303K

;
#These two values have been output from a single CSD field.
_refine_ls_R_factor_gt 0.054
_refine_ls_wR_factor_gt 0.054
_symmetry_cell_setting triclinic
_symmetry_space_group_name_H-M 'P -1'
_symmetry_Int_Tables_number 2
loop_
_symmetry_equiv_pos_site_id
_symmetry_equiv_pos_as_xyz
1 x,y,z
2 -x,-y,-z
_cell_length_a 10.523(3)
_cell_length_b 12.410(3)
_cell_length_c 9.594(3)
_cell_angle_alpha 96.59(2)
_cell_angle_beta 110.21(2)
_cell_angle_gamma 68.38(2)
_cell_formula_units_Z 4
loop_
_atom_type_symbol
_atom_type_radius_bond
C 0.68
H 0.23
N 0.68
O 0.68
loop_
_atom_site_label
_atom_site_type_symbol
_atom_site_fract_x
_atom_site_fract_y
_atom_site_fract_z
C1 C 0.9070(4) -0.3882(3) 0.2982(4)
C2 C 0.8239(4) -0.1873(3) 0.3409(4)
C3 C 0.8111(4) -0.1348(3) 0.2133(4)
C4 C 0.8052(4) -0.0215(3) 0.2153(4)
C5 C 0.8097(4) 0.0404(3) 0.3441(4)
C6 C 0.8222(4) -0.0095(3) 0.4718(4)
C7 C 0.8281(4) -0.1220(3) 0.4684(4)
C8 C 0.9790(5) -0.5977(3) 0.2445(6)
C9 C 0.7558(6) -0.4928(4) 0.3050(7)
C10 C 1.0401(5) -0.3892(4) 0.2713(6)
N1 N 0.8828(4) -0.4888(2) 0.2823(4)
N2 N 0.8187(3) -0.2979(2) 0.3407(3)
N3 N 0.8028(4) 0.1592(3) 0.3450(5)
O1 O 0.7973(3) 0.2159(2) 0.4584(4)
O2 O 0.8046(5) 0.1986(3) 0.2350(4)
C11 C 0.3733(4) 0.2435(3) 0.2752(4)
C12 C 0.3036(4) 0.0840(3) 0.1767(4)
C13 C 0.1743(5) 0.0659(4) 0.1517(4)
C14 C 0.1707(5) -0.0440(4) 0.1436(4)
C15 C 0.2952(4) -0.1378(3) 0.1576(4)
C16 C 0.4253(5) -0.1241(4) 0.1839(5)
C17 C 0.4285(5) -0.0135(3) 0.1926(5)
C18 C 0.4497(5) 0.4133(4) 0.3586(5)
C19 C 0.3269(7) 0.3866(4) 0.0947(5)
C20 C 0.4422(4) 0.1997(4) 0.4334(4)
N4 N 0.3808(4) 0.3449(3) 0.2468(4)
N5 N 0.3025(4) 0.1945(2) 0.1682(3)
N6 N 0.2904(5) -0.2543(4) 0.1437(4)
O3 O 0.4006(5) -0.3358(3) 0.1648(7)
O4 O 0.1735(4) -0.2656(3) 0.1062(4)
H1 H 0.808(4) -0.175(3) 0.121(4)
H2 H 0.792(4) 0.013(3) 0.129(4)
H3 H 0.825(4) 0.036(3) 0.563(4)
H4 H 0.840(4) -0.159(3) 0.562(5)
H5 H 0.084(4) 0.131(3) 0.133(4)
H6 H 0.084(4) -0.060(3) 0.127(4)
H7 H 0.513(4) -0.189(4) 0.192(4)
H8 H 0.519(4) -0.005(3) 0.204(4)
H9 H 1.06900 -0.59000 0.22200
H10 H 0.91300 -0.62900 0.14700
H11 H 1.01900 -0.65800 0.33600
H12 H 0.75100 -0.57900 0.29100
H13 H 0.65700 -0.43200 0.23400
H14 H 0.77000 -0.46800 0.41900
H15 H 1.06200 -0.31000 0.30400
H16 H 1.02600 -0.40400 0.15500
H17 H 1.12900 -0.46100 0.33600
H18 H 0.47900 0.38300 0.47100
H19 H 0.37500 0.50200 0.34500
H20 H 0.54600 0.40900 0.33800
H21 H 0.33600 0.47100 0.09600
H22 H 0.21500 0.39400 0.04100
H23 H 0.39300 0.32700 0.03400
H24 H 0.44000 0.11300 0.43300
H25 H 0.38800 0.25300 0.50800
H26 H 0.55300 0.19600 0.47000
#END
