
#######################################################################
#
#                 Cambridge Crystallographic Data Centre
#                                CCDC
#
#######################################################################
#
# If this CIF has been generated from an entry in the Cambridge
# Structural Database, then it will include bibliographic, chemical,
# crystal, experimental, refinement or atomic coordinate data resulting
# from the CCDC's data processing and validation procedures.
#
#######################################################################

data_CSD_CIF_VUYWES
_audit_creation_date 2010-07-30
_audit_creation_method CSD-ConQuest-V1
_database_code_CSD VUYWES
_database_code_depnum_ccdc_archive 'CCDC 781258'
_chemical_formula_sum 'C13 H12 N4 O3'
_chemical_formula_moiety
;
C13 H12 N4 O3
;
_journal_coeditor_code "IUCr SJ2767"
_journal_coden_Cambridge 1370
_journal_volume 66
_journal_year 2010
_journal_page_first o1251
_journal_name_full 'Acta Crystallogr.,Sect.E:Struct.Rep.Online '
loop_
_publ_author_name
"J.H.Goh"
"H.-K.Fun"
"Nithinchandra"
"B.Kalluraya"
_chemical_name_systematic
;
3-(2,3-Dimethyl-5-oxo-1-phenyl-2,5-dihydro-1H-pyrazol-4-yl)-1,2,3-oxadiazol-3-
ium-5-olate
;
_cell_volume   1216.835
_exptl_crystal_colour 'brown'
_exptl_crystal_density_diffrn 1.486
_exptl_crystal_description 'block'
_exptl_crystal_preparation 'benzene'
_diffrn_ambient_temperature 100
#These two values have been output from a single CSD field.
_refine_ls_R_factor_gt 0.0419
_refine_ls_wR_factor_gt 0.0419
_symmetry_cell_setting monoclinic
_symmetry_space_group_name_H-M 'P 21/c'
_symmetry_Int_Tables_number 14
loop_
_symmetry_equiv_pos_site_id
_symmetry_equiv_pos_as_xyz
1 x,y,z
2 -x,1/2+y,1/2-z
3 -x,-y,-z
4 x,-1/2-y,-1/2+z
_cell_length_a 10.6525(3)
_cell_length_b 7.3014(3)
_cell_length_c 15.6828(4)
_cell_angle_alpha 90
_cell_angle_beta 93.982(1)
_cell_angle_gamma 90
_cell_formula_units_Z 4
loop_
_atom_type_symbol
_atom_type_radius_bond
C 0.68
H 0.23
N 0.68
O 0.68
loop_
_atom_site_label
_atom_site_type_symbol
_atom_site_fract_x
_atom_site_fract_y
_atom_site_fract_z
O1 O 0.93586(5) 1.20867(9) 0.00540(4)
O2 O 0.51808(5) 1.07724(9) 0.11293(4)
O3 O 0.83681(6) 1.19975(11) -0.12824(4)
N1 N 0.59770(5) 0.96695(9) 0.24595(4)
N2 N 0.71755(6) 0.94159(9) 0.28563(4)
N3 N 0.79599(6) 1.09624(9) 0.08032(4)
N4 N 0.91049(6) 1.16505(11) 0.08800(4)
C1 C 0.37495(7) 0.95237(11) 0.26642(5)
C2 C 0.27426(7) 0.99016(12) 0.31562(6)
C3 C 0.29319(8) 1.07726(13) 0.39442(6)
C4 C 0.41384(8) 1.12975(12) 0.42404(5)
C5 C 0.51539(7) 1.09504(11) 0.37507(5)
C6 C 0.49514(6) 1.00508(10) 0.29691(4)
C7 C 0.80407(6) 0.97734(10) 0.22937(5)
C8 C 0.74125(6) 1.03529(10) 0.15426(4)
C9 C 0.60776(6) 1.03268(10) 0.16264(4)
C10 C 0.83202(7) 1.16748(12) -0.05217(5)
C11 C 0.74198(7) 1.09301(11) -0.00008(5)
C12 C 0.73637(7) 0.82345(12) 0.36075(5)
C13 C 0.93987(7) 0.94884(12) 0.25274(5)
H1 H 0.3617(12) 0.8870(19) 0.2119(9)
H2 H 0.1903(13) 0.953(2) 0.2965(9)
H3 H 0.2226(13) 1.100(2) 0.4312(9)
H4 H 0.4263(14) 1.193(2) 0.480(1)
H5 H 0.5999(12) 1.134(2) 0.3956(8)
H6 H 0.6593(12) 1.0502(18) -0.0133(9)
H7 H 0.9830(14) 0.939(2) 0.2013(9)
H8 H 0.9704(14) 1.055(2) 0.288(1)
H9 H 0.9524(14) 0.841(2) 0.2879(10)
H10 H 0.7723(15) 0.894(2) 0.4061(10)
H11 H 0.6549(12) 0.7786(18) 0.3781(8)
H12 H 0.7870(14) 0.718(2) 0.3489(9)
#END
