
#######################################################################
#
#                 Cambridge Crystallographic Data Centre
#                                CCDC
#
#######################################################################
#
# If this CIF has been generated from an entry in the Cambridge
# Structural Database, then it will include bibliographic, chemical,
# crystal, experimental, refinement or atomic coordinate data resulting
# from the CCDC's data processing and validation procedures.
#
#######################################################################

data_CSD_CIF_VUZJAC
_audit_creation_date 2010-11-24
_audit_creation_method CSD-ConQuest-V1
_database_code_CSD VUZJAC
_database_code_depnum_ccdc_archive 'CCDC 799526'
_chemical_formula_sum 'C9 H11 N1 O3'
_chemical_formula_moiety
;
C9 H11 N1 O3
;
_journal_coeditor_code "IUCr HB5656"
_journal_coden_Cambridge 1370
_journal_volume 66
_journal_year 2010
_journal_page_first o2719
_journal_name_full 'Acta Crystallogr.,Sect.E:Struct.Rep.Online '
loop_
_publ_author_name
"Bin Dong"
"Yu Zhang"
"Jin-Zhe Chen"
_chemical_name_systematic
;
(E)-3,5-Dimethoxybenzaldehyde oxime
;
_cell_volume    868.829
_exptl_crystal_colour 'colorless'
_exptl_crystal_density_diffrn 1.385
_exptl_crystal_description 'block'
_exptl_crystal_preparation 'ethanol'
_diffrn_ambient_temperature 113
#These two values have been output from a single CSD field.
_refine_ls_R_factor_gt 0.0303
_refine_ls_wR_factor_gt 0.0303
_symmetry_cell_setting orthorhombic
_symmetry_space_group_name_H-M 'P 21 21 21'
_symmetry_Int_Tables_number 19
loop_
_symmetry_equiv_pos_site_id
_symmetry_equiv_pos_as_xyz
1 x,y,z
2 1/2-x,-y,1/2+z
3 -x,1/2+y,1/2-z
4 1/2+x,1/2-y,-z
_cell_length_a 4.4027(9)
_cell_length_b 13.800(3)
_cell_length_c 14.300(3)
_cell_angle_alpha 90
_cell_angle_beta 90
_cell_angle_gamma 90
_cell_formula_units_Z 4
loop_
_atom_type_symbol
_atom_type_radius_bond
C 0.68
H 0.23
N 0.68
O 0.68
loop_
_atom_site_label
_atom_site_type_symbol
_atom_site_fract_x
_atom_site_fract_y
_atom_site_fract_z
O1 O 1.1440(3) 0.57833(8) 1.13939(7)
O2 O 1.2719(3) 0.66671(7) 0.81997(7)
O3 O 0.2763(3) 0.27744(7) 0.90865(7)
H1 H 0.211(5) 0.2351(13) 0.9537(13)
N1 N 0.4898(3) 0.33604(8) 0.95540(9)
C1 C 1.0843(4) 0.56661(10) 1.04608(10)
C2 C 1.2075(4) 0.62501(10) 0.97646(10)
H2 H 1.34040 0.67670 0.99230
C3 C 1.1337(4) 0.60688(10) 0.88299(10)
C4 C 0.9316(4) 0.53398(10) 0.8591(1)
H3 H 0.87750 0.52330 0.79560
C5 C 0.8078(4) 0.47596(10) 0.93064(10)
C6 C 0.8833(4) 0.49179(10) 1.02358(10)
H4 H 0.79940 0.45220 1.07140
C7 C 1.3439(4) 0.6562(1) 1.16453(11)
H5 H 1.53960 0.64760 1.13290
H6 H 1.37520 0.65610 1.23240
H7 H 1.25360 0.71800 1.14550
C8 C 1.2008(4) 0.65223(11) 0.7232(1)
H8 H 1.25740 0.58620 0.70480
H9 H 1.31400 0.69900 0.68520
H10 H 0.98240 0.66160 0.71350
C9 C 0.5886(3) 0.40214(10) 0.90072(10)
H11 H 0.51700 0.40350 0.83810
#END
