
#######################################################################
#
#                 Cambridge Crystallographic Data Centre
#                                CCDC
#
#######################################################################
#
# If this CIF has been generated from an entry in the Cambridge
# Structural Database, then it will include bibliographic, chemical,
# crystal, experimental, refinement or atomic coordinate data resulting
# from the CCDC's data processing and validation procedures.
#
#######################################################################

data_CSD_CIF_VUZLUY
_audit_creation_date 2010-12-02
_audit_creation_method CSD-ConQuest-V1
_database_code_CSD VUZLUY
_database_code_depnum_ccdc_archive 'CCDC 799540'
_chemical_formula_sum 'C24 H18 N2 O4'
_chemical_formula_moiety
;
C24 H18 N2 O4
;
_journal_coeditor_code "IUCr PK2274"
_journal_coden_Cambridge 1370
_journal_volume 66
_journal_year 2010
_journal_page_first o2738
_journal_name_full 'Acta Crystallogr.,Sect.E:Struct.Rep.Online '
loop_
_publ_author_name
"A.Nagasawa"
"A.Okamoto"
"N.Yonezawa"
_chemical_name_systematic
;
7-Methoxy-1-([(Z)-3-nitrophenylimino](phenyl)methyl)-2-naphthol
;
_cell_volume    979.185
_exptl_crystal_colour 'yellow'
_exptl_crystal_density_diffrn 1.351
_exptl_crystal_description 'platelet'
_diffrn_ambient_temperature 193
#These two values have been output from a single CSD field.
_refine_ls_R_factor_gt 0.0432
_refine_ls_wR_factor_gt 0.0432
_symmetry_cell_setting triclinic
_symmetry_space_group_name_H-M 'P -1'
_symmetry_Int_Tables_number 2
loop_
_symmetry_equiv_pos_site_id
_symmetry_equiv_pos_as_xyz
1 x,y,z
2 -x,-y,-z
_cell_length_a 9.6709(10)
_cell_length_b 9.8345(10)
_cell_length_c 10.397(1)
_cell_angle_alpha 88.640(3)
_cell_angle_beta 89.194(3)
_cell_angle_gamma 82.126(3)
_cell_formula_units_Z 2
loop_
_atom_type_symbol
_atom_type_radius_bond
C 0.68
H 0.23
N 0.68
O 0.68
loop_
_atom_site_label
_atom_site_type_symbol
_atom_site_fract_x
_atom_site_fract_y
_atom_site_fract_z
O1 O 0.51816(11) 0.18118(11) 0.75931(11)
O2 O 1.18407(11) 0.40281(11) 0.59012(12)
O3 O 0.64352(12) -0.1348(2) 1.01592(12)
O4 O 0.82233(15) -0.1964(2) 1.12868(14)
N1 N 0.81213(10) 0.03212(10) 0.59401(9)
N2 N 0.76948(13) -0.15267(13) 1.02938(11)
C1 C 0.73411(13) 0.24880(12) 0.70311(10)
C2 C 0.61980(15) 0.25958(13) 0.78516(12)
C3 C 0.61168(17) 0.34798(16) 0.89160(13)
H1 H 0.53440 0.35220 0.94950
C4 C 0.71436(18) 0.42664(15) 0.91081(13)
H2 H 0.70780 0.48540 0.98250
C5 C 0.83046(16) 0.42299(13) 0.82655(12)
C6 C 0.93661(19) 0.50761(15) 0.84159(16)
H3 H 0.92860 0.57110 0.90960
C7 C 1.04946(18) 0.50021(16) 0.76113(18)
H4 H 1.11840 0.55880 0.77270
C8 C 1.06394(15) 0.40493(13) 0.66003(14)
C9 C 0.96183(13) 0.32336(12) 0.63937(12)
H5 H 0.97100 0.26200 0.56960
C10 C 0.84274(13) 0.33059(12) 0.72195(11)
C11 C 0.74138(11) 0.15216(11) 0.59275(10)
C12 C 0.66388(11) 0.20074(12) 0.47405(11)
C13 C 0.63505(14) 0.34105(13) 0.44511(12)
H6 H 0.66360 0.40570 0.50210
C14 C 0.56463(16) 0.38643(15) 0.33290(13)
H7 H 0.54620 0.48190 0.31290
C15 C 0.52155(14) 0.29251(17) 0.25059(13)
H8 H 0.47240 0.32370 0.17470
C16 C 0.54984(13) 0.15291(16) 0.27845(13)
H9 H 0.52100 0.08880 0.22110
C17 C 0.62029(12) 0.10671(13) 0.39009(12)
H10 H 0.63880 0.01110 0.40930
C18 C 0.87584(12) -0.02373(11) 0.70917(11)
C19 C 0.79334(12) -0.05397(12) 0.81420(11)
H11 H 0.69470 -0.03060 0.81220
C20 C 0.85794(13) -0.11863(12) 0.92129(11)
C21 C 1.00158(14) -0.15383(14) 0.93041(13)
H12 H 1.04310 -0.19630 1.00610
C22 C 1.08160(13) -0.12449(14) 0.82466(14)
H13 H 1.18010 -0.14820 0.82730
C23 C 1.02033(13) -0.06076(13) 0.71432(12)
H14 H 1.07710 -0.04250 0.64240
C24 C 1.20954(18) 0.30536(19) 0.4914(2)
H15 H 1.30230 0.30940 0.45360
H16 H 1.13870 0.32610 0.42470
H17 H 1.20520 0.21310 0.52760
H18 H 0.464(3) 0.185(3) 0.822(2)
#END
