
#######################################################################
#
#                 Cambridge Crystallographic Data Centre
#                                CCDC
#
#######################################################################
#
# If this CIF has been generated from an entry in the Cambridge
# Structural Database, then it will include bibliographic, chemical,
# crystal, experimental, refinement or atomic coordinate data resulting
# from the CCDC's data processing and validation procedures.
#
#######################################################################

data_CSD_CIF_VUZVIW
_audit_creation_date 2010-12-02
_audit_creation_method CSD-ConQuest-V1
_database_code_CSD VUZVIW
_database_code_depnum_ccdc_archive 'CCDC 799578'
_chemical_formula_sum 'C29 H21 N3 O2'
_chemical_formula_moiety
;
C29 H21 N3 O2
;
_journal_coeditor_code "IUCr XU5037"
_journal_coden_Cambridge 1370
_journal_volume 66
_journal_year 2010
_journal_page_first o2786
_journal_name_full 'Acta Crystallogr.,Sect.E:Struct.Rep.Online '
loop_
_publ_author_name
"Bao-Li Dong"
"Ming-Liang Wang"
"Yong-Hua Li"
_chemical_name_systematic
;
5-(Anthracen-9-yl)-3-(4-nitrophenyl)-1-phenyl-4,5-dihydro-1H-pyrazole
;
_cell_volume   2159.537
_exptl_crystal_colour 'red'
_exptl_crystal_density_diffrn 1.364
_exptl_crystal_description 'prism'
_exptl_crystal_preparation 'ethanol/ethyl acetate'
_diffrn_ambient_temperature 293
#These two values have been output from a single CSD field.
_refine_ls_R_factor_gt 0.0436
_refine_ls_wR_factor_gt 0.0436
_symmetry_cell_setting orthorhombic
_symmetry_space_group_name_H-M 'P c a 21'
_symmetry_Int_Tables_number 29
loop_
_symmetry_equiv_pos_site_id
_symmetry_equiv_pos_as_xyz
1 x,y,z
2 -x,-y,1/2+z
3 1/2+x,-y,z
4 1/2-x,y,1/2+z
_cell_length_a 23.023(5)
_cell_length_b 10.195(2)
_cell_length_c 9.2005(18)
_cell_angle_alpha 90
_cell_angle_beta 90
_cell_angle_gamma 90
_cell_formula_units_Z 4
loop_
_atom_type_symbol
_atom_type_radius_bond
C 0.68
H 0.23
N 0.68
O 0.68
loop_
_atom_site_label
_atom_site_type_symbol
_atom_site_fract_x
_atom_site_fract_y
_atom_site_fract_z
N1 N 0.34781(11) 0.8437(3) 0.1581(3)
C1 C 0.33011(15) 0.6798(3) -0.0211(4)
C2 C 0.48920(14) 0.7455(3) 0.3722(4)
C3 C 0.49683(14) 0.8475(3) 0.2692(4)
C4 C 0.53459(15) 0.7161(3) 0.4735(4)
C5 C 0.36872(14) 0.7631(4) 0.0641(4)
C6 C 0.25650(16) 0.5236(3) -0.1831(4)
C7 C 0.59566(15) 0.8817(4) 0.3653(4)
O1 O 0.16551(13) 0.4657(3) -0.2656(4)
C8 C 0.55013(14) 0.9175(3) 0.2655(4)
C9 C 0.44934(13) 0.8788(3) 0.1582(4)
H1 H 0.46190 0.95490 0.10130
N2 N 0.39237(12) 0.9097(3) 0.2234(4)
C10 C 0.42219(16) 1.1131(3) 0.3361(4)
H2 H 0.45950 1.10220 0.29910
C11 C 0.43743(16) 0.6694(3) 0.3833(4)
H3 H 0.40740 0.68420 0.31780
C12 C 0.35497(16) 1.2377(4) 0.4779(5)
H4 H 0.34680 1.30960 0.53670
C13 C 0.65023(17) 0.9509(4) 0.3584(5)
H5 H 0.68010 0.92700 0.42110
C14 C 0.56258(15) 1.0242(3) 0.1698(5)
H6 H 0.53390 1.05150 0.10530
C15 C 0.37940(15) 1.0216(3) 0.3050(4)
C16 C 0.58675(16) 0.7836(4) 0.4662(4)
H7 H 0.61640 0.76240 0.53070
N3 N 0.21739(15) 0.4423(3) -0.2714(4)
C17 C 0.35171(16) 0.5779(4) -0.1053(5)
H8 H 0.39150 0.56280 -0.10760
C18 C 0.43091(17) 0.5761(4) 0.4868(5)
H9 H 0.39670 0.52770 0.49040
C19 C 0.23398(15) 0.6237(4) -0.1030(4)
H10 H 0.19420 0.63990 -0.10410
O2 O 0.23825(14) 0.3550(3) -0.3453(4)
C20 C 0.40961(17) 1.2200(4) 0.4218(5)
H11 H 0.43850 1.28100 0.44190
C21 C 0.65894(18) 1.0493(4) 0.2635(6)
H12 H 0.69460 1.09210 0.26050
C22 C 0.43391(13) 0.7676(4) 0.0517(4)
H13 H 0.44610 0.78850 -0.04660
H14 H 0.45140 0.68520 0.08100
C23 C 0.61422(17) 1.0873(4) 0.1690(5)
H15 H 0.62010 1.15670 0.10510
C24 C 0.47497(19) 0.5511(4) 0.5891(5)
H16 H 0.46930 0.48890 0.66170
C25 C 0.32422(17) 1.0409(4) 0.3603(5)
H17 H 0.29490 0.98120 0.33930
C26 C 0.27035(15) 0.7011(3) -0.0203(4)
H18 H 0.25490 0.76800 0.03650
C27 C 0.52555(19) 0.6179(4) 0.5811(5)
H19 H 0.55500 0.59930 0.64710
C28 C 0.31528(17) 0.4985(4) -0.1856(5)
H20 H 0.33010 0.42940 -0.24030
C29 C 0.31263(17) 1.1481(4) 0.4460(6)
H21 H 0.27540 1.16000 0.48290
#END
