
#######################################################################
#
#                 Cambridge Crystallographic Data Centre
#                                CCDC
#
#######################################################################
#
# If this CIF has been generated from an entry in the Cambridge
# Structural Database, then it will include bibliographic, chemical,
# crystal, experimental, refinement or atomic coordinate data resulting
# from the CCDC's data processing and validation procedures.
#
#######################################################################

data_CSD_CIF_VUZYIZ
_audit_creation_date 2010-12-02
_audit_creation_method CSD-ConQuest-V1
_database_code_CSD VUZYIZ
_database_code_depnum_ccdc_archive 'CCDC 799593'
_chemical_formula_sum 'C23 H27 N1 O6'
_chemical_formula_moiety
;
C23 H27 N1 O6
;
_journal_coeditor_code "IUCr HB5662"
_journal_coden_Cambridge 1370
_journal_volume 66
_journal_year 2010
_journal_page_first o2806
_journal_name_full 'Acta Crystallogr.,Sect.E:Struct.Rep.Online '
loop_
_publ_author_name
"B.Palakshi Reddy"
"V.Vijayakumar"
"S.Sarveswari"
"S.W.Ng"
"E.R.T.Tiekink"
_chemical_name_systematic
;
3-Hydroxy-2-((2-hydroxy-4,4-dimethyl-6-oxocyclohex-1-en-1-yl)(3-nitrophenyl)me
thyl)-5,5-dimethylcyclohex-2-en-1-one
;
_chemical_name_common
;
2,2'-((3-Nitrophenyl)methylene)bis(3-hydroxy-5,5-dimethylcyclohex-2-en-1-one)
;
_chemical_melting_point 443
_cell_volume   2054.285
_exptl_crystal_colour 'colorless'
_exptl_crystal_density_diffrn 1.337
_exptl_special_details
;
Melting point range 443-445K

;
_exptl_crystal_description 'block'
_exptl_crystal_preparation 'acetonitrile'
_diffrn_ambient_temperature 100
#These two values have been output from a single CSD field.
_refine_ls_R_factor_gt 0.039
_refine_ls_wR_factor_gt 0.039
_symmetry_cell_setting monoclinic
_symmetry_space_group_name_H-M 'P 21/n'
_symmetry_Int_Tables_number 14
loop_
_symmetry_equiv_pos_site_id
_symmetry_equiv_pos_as_xyz
1 x,y,z
2 1/2-x,1/2+y,1/2-z
3 -x,-y,-z
4 -1/2+x,-1/2-y,-1/2+z
_cell_length_a 14.2326(10)
_cell_length_b 8.6505(6)
_cell_length_c 16.8410(12)
_cell_angle_alpha 90
_cell_angle_beta 97.796(1)
_cell_angle_gamma 90
_cell_formula_units_Z 4
loop_
_atom_type_symbol
_atom_type_radius_bond
C 0.68
H 0.23
N 0.68
O 0.68
loop_
_atom_site_label
_atom_site_type_symbol
_atom_site_fract_x
_atom_site_fract_y
_atom_site_fract_z
O1 O 0.65593(7) 0.65589(10) 0.67564(5)
H1 H 0.6569(15) 0.594(2) 0.6365(9)
O2 O 0.73862(7) 1.02234(10) 0.49100(5)
O3 O 0.73479(7) 0.82683(11) 0.37346(5)
H2 H 0.7407(13) 0.8846(19) 0.4154(8)
O4 O 0.63116(6) 0.46796(10) 0.55110(5)
O5 O 0.99653(7) 0.53999(12) 0.35663(6)
O6 O 1.13360(7) 0.63202(12) 0.40630(6)
N1 N 1.04746(8) 0.61823(13) 0.40582(7)
C1 C 0.71426(9) 0.83167(14) 0.58531(7)
C2 C 0.67059(9) 0.79995(14) 0.65085(7)
C3 C 0.63844(9) 0.92120(14) 0.70461(7)
H3 H 0.68980 0.94050 0.74930
H4 H 0.58290 0.88170 0.72790
C4 C 0.61160(9) 1.07463(14) 0.66175(7)
C5 C 0.6903(1) 1.11682(15) 0.61177(8)
H5 H 0.67010 1.20880 0.57880
H6 H 0.74800 1.14530 0.64860
C6 C 0.71497(9) 0.98965(15) 0.55741(8)
C7 C 0.51615(10) 1.05773(17) 0.60799(8)
H7 H 0.46690 1.03060 0.64090
H8 H 0.52090 0.97610 0.56840
H9 H 0.49970 1.15570 0.58030
C8 C 0.60339(10) 1.20199(15) 0.72332(8)
H10 H 0.55310 1.17540 0.75540
H11 H 0.58800 1.30020 0.69550
H12 H 0.66380 1.21210 0.75850
C9 C 0.76179(8) 0.70610(14) 0.54208(7)
H13 H 0.76920 0.61850 0.58120
C10 C 0.70261(9) 0.63781(14) 0.46833(7)
C11 C 0.69851(9) 0.69205(14) 0.39210(8)
C12 C 0.65447(9) 0.60340(15) 0.31987(8)
H14 H 0.69470 0.61530 0.27670
H15 H 0.59160 0.64870 0.30060
C13 C 0.64204(9) 0.43071(15) 0.33584(8)
C14 C 0.59406(10) 0.41744(16) 0.41182(8)
H16 H 0.52810 0.45560 0.39990
H17 H 0.59130 0.30700 0.42680
C15 C 0.64394(9) 0.50637(14) 0.48217(7)
C16 C 0.57961(10) 0.35702(17) 0.26472(8)
H18 H 0.57180 0.24670 0.27520
H19 H 0.60970 0.36980 0.21610
H20 H 0.51740 0.40740 0.25730
C17 C 0.7379(1) 0.34775(15) 0.34742(8)
H21 H 0.72820 0.23780 0.35770
H22 H 0.77860 0.39320 0.39310
H23 H 0.76830 0.35920 0.29890
C18 C 0.86411(8) 0.74648(14) 0.53038(7)
C19 C 0.91956(9) 0.84390(15) 0.58406(8)
H24 H 0.89120 0.89490 0.62480
C20 C 1.01514(9) 0.86788(15) 0.57927(8)
H25 H 1.05090 0.93500 0.61650
C21 C 1.05918(9) 0.79508(15) 0.52075(8)
H26 H 1.12450 0.81050 0.51700
C22 C 1.00352(9) 0.69910(15) 0.46819(7)
C23 C 0.90774(9) 0.67322(14) 0.47154(7)
H27 H 0.87240 0.60620 0.43400
#END
