
#######################################################################
#
#                 Cambridge Crystallographic Data Centre
#                                CCDC
#
#######################################################################
#
# If this CIF has been generated from an entry in the Cambridge
# Structural Database, then it will include bibliographic, chemical,
# crystal, experimental, refinement or atomic coordinate data resulting
# from the CCDC's data processing and validation procedures.
#
#######################################################################

data_CSD_CIF_WABGAK
_audit_creation_date 2016-02-19
_audit_creation_method CSD-ConQuest-V1
_database_code_CSD WABGAK
_database_code_depnum_ccdc_archive 'CCDC 1440456'
_chemical_formula_sum 'C23 H17 N3 O2'
_chemical_formula_moiety
;
C23 H17 N3 O2
;
_journal_coden_Cambridge 222
_journal_volume 45
_journal_year 2016
_journal_page_first 5196
_journal_name_full 'Dalton Trans. '
loop_
_publ_author_name
"K.Srinivas"
"A.Sathyanarayana"
"C.N.Babu"
"G.Prabusankar"
_chemical_name_systematic
;
3-(1H-indol-3-yl(4-nitrophenyl)methyl)-1H-indole
;
_cell_volume   7320.699
_exptl_crystal_colour 'brown'
_exptl_crystal_density_diffrn 1.333
_exptl_crystal_description 'block'
_diffrn_ambient_temperature 293
#These two values have been output from a single CSD field.
_refine_ls_R_factor_gt 0.0776
_refine_ls_wR_factor_gt 0.0776
_symmetry_cell_setting monoclinic
_symmetry_space_group_name_H-M 'I 2/a'
_symmetry_Int_Tables_number 15
loop_
_symmetry_equiv_pos_site_id
_symmetry_equiv_pos_as_xyz
1 x,y,z
2 1/2-x,y,-z
3 1/2+x,1/2+y,1/2+z
4 -x,1/2+y,1/2-z
5 -x,-y,-z
6 -1/2+x,-y,z
7 -1/2-x,-1/2-y,-1/2-z
8 x,-1/2-y,-1/2+z
_cell_length_a 17.2917(6)
_cell_length_b 10.6763(4)
_cell_length_c 39.6733(15)
_cell_angle_alpha 90
_cell_angle_beta 91.757(4)
_cell_angle_gamma 90
_cell_formula_units_Z 16
loop_
_atom_type_symbol
_atom_type_radius_bond
C 0.68
H 0.23
N 0.68
O 0.68
loop_
_atom_site_label
_atom_site_type_symbol
_atom_site_fract_x
_atom_site_fract_y
_atom_site_fract_z
O1 O 0.5612(2) -0.1122(4) 0.22900(9)
O2 O 0.5181(2) -0.2819(4) 0.20646(9)
N1 N 0.16062(18) 0.0615(3) 0.31703(8)
H1 H 0.14897(18) 0.1331(3) 0.30831(8)
N2 N 0.37782(18) -0.1870(3) 0.41100(7)
H2 H 0.38713(18) -0.1477(3) 0.42961(7)
N3 N 0.5138(2) -0.1974(4) 0.22722(9)
C1 C 0.28179(18) -0.2242(3) 0.32664(8)
H3 H 0.25396(18) -0.3033(3) 0.32313(8)
C2 C 0.22298(18) -0.1204(3) 0.32628(8)
C3 C 0.2229(2) -0.0105(3) 0.30899(10)
H4 H 0.2601(2) 0.0126(3) 0.29373(10)
C4 C 0.1198(2) 0.0008(4) 0.34130(9)
C5 C 0.0555(2) 0.0386(5) 0.35891(12)
H5 H 0.0331(2) 0.1168(5) 0.35534(12)
C6 C 0.0267(2) -0.0437(5) 0.38158(13)
H6 H -0.0160(2) -0.0205(5) 0.39380(13)
C7 C 0.0591(2) -0.1604(5) 0.38698(12)
H7 H 0.0373(2) -0.2142(5) 0.40249(12)
C8 C 0.1236(2) -0.1994(4) 0.36976(10)
H8 H 0.1448(2) -0.2784(4) 0.37341(10)
C9 C 0.15547(18) -0.1165(3) 0.34682(9)
C10 C 0.32578(18) -0.2326(3) 0.36017(8)
C11 C 0.3261(2) -0.1494(4) 0.38600(9)
H9 H 0.2958(2) -0.0775(4) 0.38670(9)
C12 C 0.41227(19) -0.2969(4) 0.40172(8)
C13 C 0.4689(2) -0.3687(4) 0.41867(10)
H10 H 0.4885(2) -0.3462(4) 0.4399(1)
C14 C 0.4936(2) -0.4726(4) 0.40259(11)
H11 H 0.5315(2) -0.5223(4) 0.41301(11)
C15 C 0.4636(2) -0.5075(4) 0.37068(11)
H12 H 0.4817(2) -0.5797(4) 0.36040(11)
C16 C 0.4076(2) -0.4354(3) 0.35441(10)
H13 H 0.3879(2) -0.4588(3) 0.33325(10)
C17 C 0.38097(18) -0.3283(3) 0.36979(8)
C18 C 0.33980(18) -0.2114(3) 0.29866(8)
C19 C 0.3381(2) -0.2927(4) 0.27162(9)
H14 H 0.2983(2) -0.3508(4) 0.26928(9)
C20 C 0.3957(2) -0.2885(4) 0.24773(9)
H15 H 0.3954(2) -0.3444(4) 0.22976(9)
C21 C 0.4525(2) -0.1998(4) 0.25146(9)
C22 C 0.4539(2) -0.1140(4) 0.27737(9)
H16 H 0.4922(2) -0.0529(4) 0.27878(9)
C23 C 0.3981(2) -0.1199(4) 0.30096(9)
H17 H 0.3987(2) -0.0628(4) 0.31868(9)
O3 O 0.36260(17) -0.1964(3) -0.01272(7)
O4 O 0.32174(18) -0.3113(3) 0.02703(8)
N4 N 0.16923(17) 0.2288(3) 0.17002(7)
H18 H 0.12874(17) 0.2441(3) 0.18139(7)
N5 N 0.2107(2) 0.4915(3) 0.03729(8)
H19 H 0.2142(2) 0.5641(3) 0.02807(8)
N6 N 0.33682(16) -0.2087(3) 0.01530(8)
C24 C 0.28381(18) 0.2372(3) 0.09247(8)
H20 H 0.33483(18) 0.2750(3) 0.09670(8)
C25 C 0.24879(18) 0.2191(3) 0.12655(8)
C26 C 0.17779(19) 0.2561(3) 0.13641(8)
H21 H 0.14047(19) 0.2943(3) 0.12251(8)
C27 C 0.2356(2) 0.1734(3) 0.18242(9)
C28 C 0.2567(3) 0.1344(4) 0.21517(9)
H22 H 0.2223(3) 0.1395(4) 0.23267(9)
C29 C 0.3291(3) 0.0893(5) 0.22025(11)
H23 H 0.3443(3) 0.0618(5) 0.24169(11)
C30 C 0.3814(3) 0.0825(5) 0.19462(11)
H24 H 0.4310(3) 0.0524(5) 0.19942(11)
C31 C 0.3620(2) 0.1190(4) 0.16225(10)
H25 H 0.3973(2) 0.1129(4) 0.14513(10)
C32 C 0.2871(2) 0.1658(3) 0.15583(8)
C33 C 0.23923(19) 0.3266(3) 0.06978(8)
C34 C 0.2631(2) 0.4402(3) 0.05930(9)
H26 H 0.3093(2) 0.4781(3) 0.06626(9)
C35 C 0.1514(2) 0.4087(3) 0.03222(9)
C36 C 0.0862(2) 0.4152(4) 0.01071(10)
H27 H 0.0772(2) 0.4844(4) -0.00311(10)
C37 C 0.0361(2) 0.3168(4) 0.01062(10)
H28 H -0.0077(2) 0.3190(4) -0.00356(10)
C38 C 0.0489(2) 0.2128(4) 0.03126(10)
H29 H 0.0133(2) 0.1475(4) 0.03078(10)
C39 C 0.11299(19) 0.2052(3) 0.05219(8)
H30 H 0.12084(19) 0.1356(3) 0.06595(8)
C40 C 0.16627(19) 0.3026(3) 0.05271(8)
C41 C 0.29757(17) 0.1154(3) 0.07314(8)
C42 C 0.33434(18) 0.1225(3) 0.04247(8)
H31 H 0.35029(18) 0.2001(3) 0.03463(8)
C43 C 0.34762(19) 0.0169(3) 0.02345(8)
H32 H 0.37220(19) 0.0226(3) 0.00298(8)
C44 C 0.32377(17) -0.0965(3) 0.03543(8)
C45 C 0.28601(19) -0.1082(3) 0.06522(8)
H33 H 0.26960(19) -0.1861(3) 0.07262(8)
C46 C 0.27299(19) -0.0022(3) 0.08389(8)
H34 H 0.24730(19) -0.0089(3) 0.10406(8)
#END
