
#######################################################################
#
#                 Cambridge Crystallographic Data Centre
#                                CCDC
#
#######################################################################
#
# If this CIF has been generated from an entry in the Cambridge
# Structural Database, then it will include bibliographic, chemical,
# crystal, experimental, refinement or atomic coordinate data resulting
# from the CCDC's data processing and validation procedures.
#
#######################################################################

data_CSD_CIF_WABJIS
_audit_creation_date 1993-08-17
_audit_creation_method CSD-ConQuest-V1
_database_code_CSD WABJIS
_chemical_formula_sum 'C14 H12 N4 O6'
_chemical_formula_moiety
;
C14 H12 N4 O6
;
_journal_coden_Cambridge 582
_journal_volume 23
_journal_year 1993
_journal_page_first 69
_journal_name_full 'J.Crystallogr.Spectrosc.Res. '
loop_
_publ_author_name
"S.Garcia-Granda"
"P.T.Buerskens"
"F.G.Moers"
"H.Behm"
"N.A.J.M.Sommerdijk"
"J.H.M.Lange"
"A.J.H.Klunder"
_chemical_name_systematic
;
3-Ethoxycarbonyl-E-pent-2-en-4-ynal (2,4-dinitrophenyl)hydrazone
;
_cell_volume   1540.923
_exptl_crystal_density_diffrn 1.43
_diffrn_ambient_temperature ?
_diffrn_special_details
;
The study was carried out at room temperature,in the range 283-303K

;
#These two values have been output from a single CSD field.
_refine_ls_R_factor_gt 0.057
_refine_ls_wR_factor_gt 0.057
_symmetry_cell_setting monoclinic
_symmetry_space_group_name_H-M 'P 21/c'
_symmetry_Int_Tables_number 14
loop_
_symmetry_equiv_pos_site_id
_symmetry_equiv_pos_as_xyz
1 x,y,z
2 -x,1/2+y,1/2-z
3 -x,-y,-z
4 x,-1/2-y,-1/2+z
_cell_length_a 15.915(2)
_cell_length_b 7.008(2)
_cell_length_c 15.018(8)
_cell_angle_alpha 90
_cell_angle_beta 113.08(3)
_cell_angle_gamma 90
_cell_formula_units_Z 4
loop_
_atom_type_symbol
_atom_type_radius_bond
C 0.68
H 0.23
N 0.68
O 0.68
loop_
_atom_site_label
_atom_site_type_symbol
_atom_site_fract_x
_atom_site_fract_y
_atom_site_fract_z
N1 N 0.5047(6) 0.2687(12) 0.5739(7)
N2 N 0.5370(5) 0.2248(11) 0.5046(6)
N3 N 0.4218(6) 0.3874(14) 0.7084(7)
N4 N 0.1322(8) 0.4681(16) 0.4377(8)
C1 C 0.6215(6) 0.1714(14) 0.5401(7)
C2 C 0.6623(7) 0.1215(15) 0.4725(7)
C3 C 0.7492(7) 0.0743(16) 0.4951(7)
C4 C 0.8144(8) 0.0735(16) 0.5926(9)
C5 C 0.8672(8) 0.069(2) 0.6723(9)
C6 C 0.7801(8) 0.034(2) 0.4140(9)
C7 C 0.4139(6) 0.3263(14) 0.5410(7)
C8 C 0.3703(7) 0.3831(14) 0.6026(7)
C9 C 0.2795(6) 0.4325(14) 0.5705(7)
C10 C 0.2304(7) 0.4227(15) 0.4726(8)
C11 C 0.2669(7) 0.3739(15) 0.4075(8)
C12 C 0.3579(6) 0.3306(14) 0.4402(7)
O1 O 0.7293(5) 0.0350(13) 0.3314(5)
O2 O 0.8687(5) -0.0012(13) 0.4492(5)
O3 O 0.3825(5) 0.4515(13) 0.7581(5)
O4 O 0.5018(5) 0.334(2) 0.7421(5)
O5 O 0.0867(5) 0.4413(12) 0.3532(6)
O6 O 0.1041(5) 0.5336(13) 0.4952(6)
C13 C 0.9123(10) 0.033(3) 0.3673(10)
C14 C 0.9134(10) -0.164(3) 0.3624(11)
H1 H 0.513(5) 0.360(6) 0.583(5)
H2 H 0.6574(6) 0.1650(14) 0.6116(7)
H3 H 0.6213(7) 0.1225(15) 0.4022(7)
H4 H 0.91290 0.06770 0.74130
H5 H 0.9736(10) 0.095(3) 0.3917(10)
H6 H 0.8709(10) 0.098(3) 0.3067(10)
H7 H 0.9388(10) -0.203(3) 0.3139(11)
H8 H 0.8498(10) -0.214(3) 0.3423(11)
H9 H 0.9525(10) -0.217(3) 0.4273(11)
H10 H 0.2509(6) 0.4732(14) 0.6161(7)
H11 H 0.2277(7) 0.3698(15) 0.3367(8)
H12 H 0.3856(6) 0.3014(14) 0.3924(7)
#END
