
#######################################################################
#
#                 Cambridge Crystallographic Data Centre
#                                CCDC
#
#######################################################################
#
# If this CIF has been generated from an entry in the Cambridge
# Structural Database, then it will include bibliographic, chemical,
# crystal, experimental, refinement or atomic coordinate data resulting
# from the CCDC's data processing and validation procedures.
#
#######################################################################

data_CSD_CIF_WABZAD
_audit_creation_date 2016-02-19
_audit_creation_method CSD-ConQuest-V1
_database_code_CSD WABZAD
_database_code_depnum_ccdc_archive 'CCDC 1037856'
_chemical_formula_sum 'C30 H27 N1 O6'
_chemical_formula_moiety
;
C30 H27 N1 O6
;
_journal_coden_Cambridge 16
_journal_volume 72
_journal_year 2016
_journal_page_first 479
_journal_name_full 'Tetrahedron '
loop_
_publ_author_name
"A.Taheri"
"Bingbing Lai"
"Jing Yang"
"Juan Zhang"
"Yanlong Gu"
_chemical_name_systematic
;
6-nitro-2,2-diphenyl-4-(2,4,6-trimethoxyphenyl)chromane
;
_cell_volume   2548.297
_exptl_crystal_colour 'yellow'
_exptl_crystal_density_diffrn 1.297
_exptl_crystal_description 'block'
_diffrn_ambient_temperature 296
#These two values have been output from a single CSD field.
_refine_ls_R_factor_gt 0.0521
_refine_ls_wR_factor_gt 0.0521
_symmetry_cell_setting monoclinic
_symmetry_space_group_name_H-M 'P 21/c'
_symmetry_Int_Tables_number 14
loop_
_symmetry_equiv_pos_site_id
_symmetry_equiv_pos_as_xyz
1 x,y,z
2 -x,1/2+y,1/2-z
3 -x,-y,-z
4 x,-1/2-y,-1/2+z
_cell_length_a 9.974(6)
_cell_length_b 17.053(10)
_cell_length_c 15.319(9)
_cell_angle_alpha 90
_cell_angle_beta 102.034(10)
_cell_angle_gamma 90
_cell_formula_units_Z 4
loop_
_atom_type_symbol
_atom_type_radius_bond
C 0.68
H 0.23
N 0.68
O 0.68
loop_
_atom_site_label
_atom_site_type_symbol
_atom_site_fract_x
_atom_site_fract_y
_atom_site_fract_z
O1 O 0.47839(16) 0.21129(8) 0.32213(10)
O2 O 0.7824(3) 0.36611(13) 0.0538(2)
O3 O 0.7914(2) 0.24658(12) 0.01383(14)
O4 O 0.5501(3) -0.04016(11) 0.11202(13)
O5 O 1.0223(3) -0.12267(14) 0.2184(2)
O6 O 0.83760(14) 0.09936(9) 0.33429(10)
N1 N 0.7598(3) 0.29676(14) 0.06238(17)
C1 C 0.6052(2) 0.16973(11) 0.21162(13)
C2 C 0.6751(2) 0.19386(12) 0.14748(14)
H1 H 0.71100 0.15680 0.11410
C3 C 0.6918(3) 0.27251(13) 0.13266(17)
C4 C 0.6445(4) 0.32933(15) 0.1825(2)
H2 H 0.66010 0.38220 0.17330
C5 C 0.5745(3) 0.30642(14) 0.2456(2)
H3 H 0.54120 0.34390 0.27980
C6 C 0.5527(2) 0.22754(12) 0.25921(16)
C7 C 0.5289(2) 0.07458(12) 0.31366(13)
H4 H 0.49300 0.02200 0.31680
H5 H 0.60570 0.08120 0.36360
C8 C 0.4187(2) 0.13375(11) 0.32090(13)
C9 C 0.5788(2) 0.08386(11) 0.22664(13)
H6 H 0.50250 0.06800 0.17860
C10 C 0.6972(2) 0.02955(11) 0.22185(14)
C11 C 0.8256(2) 0.03752(13) 0.27794(15)
C12 C 0.9313(3) -0.01445(15) 0.27581(19)
H7 H 1.01580 -0.00830 0.31450
C13 C 0.9096(4) -0.07486(16) 0.2161(2)
C14 C 0.7869(4) -0.08545(15) 0.1592(2)
H8 H 0.77430 -0.12650 0.11840
C15 C 0.6794(3) -0.03333(13) 0.16323(16)
C16 C 0.5235(6) -0.09647(19) 0.0427(2)
H9 H 0.58560 -0.08870 0.00340
H10 H 0.43090 -0.09070 0.00990
H11 H 0.53580 -0.14820 0.06790
C17 C 1.0138(5) -0.1825(2) 0.1547(3)
H12 H 0.94260 -0.21860 0.16120
H13 H 1.09980 -0.20980 0.16340
H14 H 0.99320 -0.16010 0.09590
C18 C 0.9647(2) 0.11104(17) 0.39457(19)
H15 H 0.98690 0.06530 0.43130
H16 H 0.95790 0.15560 0.43170
H17 H 1.03520 0.12010 0.36160
C19 C 0.3718(2) 0.12686(12) 0.40880(13)
C20 C 0.3685(4) 0.18988(17) 0.46198(19)
H18 H 0.39820 0.23830 0.44530
C21 C 0.3222(5) 0.1838(2) 0.5399(2)
H19 H 0.32160 0.22790 0.57560
C22 C 0.2771(3) 0.11389(18) 0.56559(17)
H20 H 0.24560 0.11000 0.61850
C23 C 0.2786(2) 0.05111(15) 0.51410(16)
H21 H 0.24760 0.00310 0.53100
C24 C 0.3258(2) 0.05680(13) 0.43589(16)
H22 H 0.32650 0.01240 0.40080
C25 C 0.2181(3) 0.1988(2) 0.22036(19)
H23 H 0.24760 0.24600 0.24840
C26 C 0.2932(2) 0.13125(15) 0.24491(14)
C27 C 0.2486(3) 0.0626(2) 0.20249(18)
H24 H 0.29750 0.01650 0.21830
C28 C 0.1283(4) 0.0614(3) 0.1347(2)
H25 H 0.09770 0.01490 0.10560
C29 C 0.0583(4) 0.1291(4) 0.1126(2)
H26 H -0.02020 0.12890 0.06750
C30 C 0.1008(4) 0.1972(4) 0.1553(3)
H27 H 0.05030 0.24290 0.14030
#END
