
#######################################################################
#
#                 Cambridge Crystallographic Data Centre
#                                CCDC
#
#######################################################################
#
# If this CIF has been generated from an entry in the Cambridge
# Structural Database, then it will include bibliographic, chemical,
# crystal, experimental, refinement or atomic coordinate data resulting
# from the CCDC's data processing and validation procedures.
#
#######################################################################

data_CSD_CIF_WACBIL
_audit_creation_date 1993-06-17
_audit_creation_method CSD-ConQuest-V1
_database_code_CSD WACBIL
_chemical_formula_sum 'C25 H29 N1 O5'
_chemical_formula_moiety
;
C25 H29 N1 O5
;
_journal_coeditor_code "IUCr CR1009"
_journal_coden_Cambridge 591
_journal_volume 49
_journal_year 1993
_journal_page_first 562
_journal_name_full 'Acta Crystallogr.,Sect.C:Cryst.Struct.Commun. '
loop_
_publ_author_name
"I.-H.Suh"
"B.-I.Seo"
"D.E.Lewis"
"W.P.Jensen"
"R.A.Jacobson"
_chemical_name_systematic
;
(1R,2R,3S,4R)-3-((4-Methoxyphenyl)methyl)-1,7,7-trimethylbicyclo(2.2.1)hept-2-
yl 4-nitrobenzoate
;
_chemical_name_common
;
3-endo-(p-Methoxybenzyl)isoborneol p-nitrobenzoate ester
;
_cell_volume   2307.873
_exptl_crystal_colour 'colorless'
_exptl_crystal_density_diffrn 1.22
_diffrn_ambient_temperature ?
_diffrn_special_details
;
The study was carried out at room temperature,in the range 283-303K

;
#These two values have been output from a single CSD field.
_refine_ls_R_factor_gt 0.063
_refine_ls_wR_factor_gt 0.063
_symmetry_cell_setting orthorhombic
_symmetry_space_group_name_H-M 'P 21 21 21'
_symmetry_Int_Tables_number 19
loop_
_symmetry_equiv_pos_site_id
_symmetry_equiv_pos_as_xyz
1 x,y,z
2 1/2+x,1/2-y,-z
3 -x,1/2+y,1/2-z
4 1/2-x,-y,1/2+z
_cell_length_a 12.104(3)
_cell_length_b 26.712(5)
_cell_length_c 7.138(1)
_cell_angle_alpha 90
_cell_angle_beta 90
_cell_angle_gamma 90
_cell_formula_units_Z 4
loop_
_atom_type_symbol
_atom_type_radius_bond
C 0.68
H 0.23
N 0.68
O 0.68
loop_
_atom_site_label
_atom_site_type_symbol
_atom_site_fract_x
_atom_site_fract_y
_atom_site_fract_z
O1 O 0.9083(3) 0.8512(2) 0.2180(6)
O2 O 1.1270(5) 1.0243(2) -0.1126(9)
O3 O 1.0227(3) 0.8349(2) -0.0230(7)
O4 O 1.3341(4) 0.8948(2) 0.8159(8)
O5 O 1.4519(4) 0.8715(2) 0.6089(7)
N1 N 1.3565(5) 0.8790(2) 0.6596(9)
C1 C 0.7474(5) 0.7956(2) 0.1604(8)
C2 C 0.8089(4) 0.8441(2) 0.1038(8)
C3 C 0.7273(4) 0.8864(2) 0.1512(9)
C4 C 0.6215(4) 0.8569(2) 0.2082(9)
C5 C 0.5758(5) 0.8303(3) 0.035(1)
C6 C 0.6627(5) 0.7886(2) 0.000(1)
C7 C 0.6704(5) 0.8133(2) 0.3247(9)
C8 C 0.7319(5) 0.8290(3) 0.4997(9)
C9 C 0.5862(6) 0.7733(3) 0.3859(9)
C10 C 0.8205(5) 0.7505(3) 0.195(1)
C11 C 0.7144(5) 0.9259(2) -0.004(1)
C12 C 0.8218(5) 0.9526(2) -0.040(1)
C13 C 0.8733(7) 0.9811(3) 0.099(1)
C14 C 0.9717(7) 1.0056(3) 0.070(1)
C15 C 1.0272(6) 1.0006(3) -0.097(1)
C16 C 0.9798(6) 0.9733(3) -0.241(1)
C17 C 0.8773(6) 0.9493(3) -0.206(1)
C18 C 1.0074(5) 0.8452(2) 0.141(1)
C19 C 1.0971(5) 0.8532(2) 0.2796(9)
C20 C 1.2068(5) 0.8497(3) 0.2205(9)
C21 C 1.2918(5) 0.8574(3) 0.346(1)
C22 C 1.2664(5) 0.8696(2) 0.5280(9)
C23 C 1.1596(5) 0.8726(3) 0.5926(9)
C24 C 1.0745(5) 0.8640(2) 0.4655(9)
C25 C 1.1878(6) 1.0178(3) -0.283(2)
H1 H 0.839(4) 0.843(2) -0.038(9)
H2 H 0.757(4) 0.906(2) 0.275(8)
H3 H 0.560(4) 0.878(2) 0.283(9)
H4 H 0.499(5) 0.815(2) 0.084(9)
H5 H 0.563(5) 0.852(2) -0.09(1)
H6 H 0.707(5) 0.790(2) -0.131(8)
H7 H 0.628(5) 0.753(3) 0.03(1)
H8 H 0.670(5) 0.844(3) 0.594(8)
H9 H 0.794(5) 0.858(3) 0.478(9)
H10 H 0.765(5) 0.803(3) 0.598(8)
H11 H 0.530(5) 0.790(3) 0.49(1)
H12 H 0.638(6) 0.743(3) 0.434(9)
H13 H 0.543(6) 0.756(3) 0.27(1)
H14 H 0.872(6) 0.742(3) 0.077(9)
H15 H 0.770(5) 0.720(2) 0.245(9)
H16 H 0.876(6) 0.754(3) 0.31(1)
H17 H 0.646(4) 0.949(2) 0.04(1)
H18 H 0.681(5) 0.907(2) -0.124(9)
H19 H 0.836(6) 0.982(2) 0.24(1)
H20 H 1.004(7) 1.030(3) 0.18(1)
H21 H 1.023(5) 0.971(2) -0.37(1)
H22 H 0.840(6) 0.931(3) -0.32(1)
H23 H 1.218(5) 0.846(3) 0.073(9)
H24 H 1.378(4) 0.862(2) 0.310(9)
H25 H 1.148(4) 0.880(2) 0.739(9)
H26 H 0.990(4) 0.867(2) 0.511(8)
H27 H 1.264(6) 1.036(3) -0.24(2)
H28 H 1.130(7) 1.032(3) -0.39(1)
H29 H 1.215(7) 0.980(3) -0.29(2)
#END
