
#######################################################################
#
#                 Cambridge Crystallographic Data Centre
#                                CCDC
#
#######################################################################
#
# If this CIF has been generated from an entry in the Cambridge
# Structural Database, then it will include bibliographic, chemical,
# crystal, experimental, refinement or atomic coordinate data resulting
# from the CCDC's data processing and validation procedures.
#
#######################################################################

data_CSD_CIF_WACFUD
_audit_creation_date 2011-01-12
_audit_creation_method CSD-ConQuest-V1
_database_code_CSD WACFUD
_database_code_depnum_ccdc_archive 'CCDC 803076'
_chemical_formula_sum 'C18 H14 N2 O3'
_chemical_formula_moiety
;
C18 H14 N2 O3
;
_journal_coeditor_code "IUCr BT5391"
_journal_coden_Cambridge 1370
_journal_volume 66
_journal_year 2010
_journal_page_first o3052
_journal_name_full 'Acta Crystallogr.,Sect.E:Struct.Rep.Online '
loop_
_publ_author_name
"Y.B.Alpaslan"
"A.A.Agar"
"S.Isik"
_chemical_name_systematic
;
1-[(E)-(2-Methyl-3-nitrophenyl)iminomethyl]-2-naphthol
;
_chemical_melting_point 428
_cell_volume   1487.652
_exptl_crystal_colour 'yellow'
_exptl_crystal_density_diffrn 1.368
_exptl_special_details
;
Melting point range 428-432K

;
_exptl_crystal_description 'prism'
_exptl_crystal_preparation 'ethanol'
_diffrn_ambient_temperature 296
#These two values have been output from a single CSD field.
_refine_ls_R_factor_gt 0.0511
_refine_ls_wR_factor_gt 0.0511
_symmetry_cell_setting monoclinic
_symmetry_space_group_name_H-M 'P 21/c'
_symmetry_Int_Tables_number 14
loop_
_symmetry_equiv_pos_site_id
_symmetry_equiv_pos_as_xyz
1 x,y,z
2 -x,1/2+y,1/2-z
3 -x,-y,-z
4 x,-1/2-y,-1/2+z
_cell_length_a 12.5520(9)
_cell_length_b 7.4731(4)
_cell_length_c 15.8610(13)
_cell_angle_alpha 90
_cell_angle_beta 90.806(6)
_cell_angle_gamma 90
_cell_formula_units_Z 4
loop_
_atom_type_symbol
_atom_type_radius_bond
C 0.68
H 0.23
N 0.68
O 0.68
loop_
_atom_site_label
_atom_site_type_symbol
_atom_site_fract_x
_atom_site_fract_y
_atom_site_fract_z
C1 C 0.41741(13) 0.0570(2) 0.21696(11)
C2 C 0.35899(13) 0.0014(2) 0.28723(11)
C3 C 0.24646(15) -0.0112(3) 0.28256(13)
H1 H 0.20850 -0.04980 0.32910
C4 C 0.19459(14) 0.0329(3) 0.21045(13)
H2 H 0.12060 0.02580 0.20860
C5 C 0.24883(13) 0.0898(3) 0.13724(12)
C6 C 0.19243(15) 0.1360(3) 0.06252(14)
H3 H 0.11840 0.13090 0.06160
C7 C 0.24441(16) 0.1873(3) -0.00749(14)
H4 H 0.20620 0.21810 -0.05600
C8 C 0.35511(16) 0.1941(3) -0.00694(13)
H5 H 0.39070 0.22700 -0.05560
C9 C 0.41227(14) 0.1526(3) 0.06482(11)
H6 H 0.48620 0.15940 0.06420
C10 C 0.36138(12) 0.1001(2) 0.13924(11)
C11 C 0.53047(13) 0.0720(2) 0.22409(12)
H7 H 0.56860 0.10780 0.17720
C12 C 0.69421(13) 0.0479(2) 0.29892(11)
C13 C 0.74005(13) 0.1057(2) 0.37579(11)
C14 C 0.85070(14) 0.1110(3) 0.37726(12)
C15 C 0.91392(15) 0.0627(4) 0.31127(15)
H8 H 0.98770 0.07020 0.31590
C16 C 0.86568(16) 0.0027(4) 0.23779(15)
H9 H 0.90680 -0.03230 0.19240
C17 C 0.75641(15) -0.0048(3) 0.23229(13)
H10 H 0.72390 -0.04610 0.18300
C18 C 0.67164(14) 0.1657(3) 0.44710(12)
H11 H 0.71610 0.20050 0.49400
H12 H 0.62600 0.06920 0.46370
H13 H 0.62900 0.26570 0.42920
N1 N 0.58208(11) 0.0375(2) 0.29377(9)
N2 N 0.90826(13) 0.1746(3) 0.45348(12)
O1 O 0.40602(11) -0.0411(2) 0.36024(8)
O2 O 0.88124(15) 0.1224(3) 0.52187(11)
O3 O 0.98286(12) 0.2763(3) 0.44235(12)
H14 H 0.489(3) -0.023(4) 0.343(2)
#END
