
#######################################################################
#
#                 Cambridge Crystallographic Data Centre
#                                CCDC
#
#######################################################################
#
# If this CIF has been generated from an entry in the Cambridge
# Structural Database, then it will include bibliographic, chemical,
# crystal, experimental, refinement or atomic coordinate data resulting
# from the CCDC's data processing and validation procedures.
#
#######################################################################

data_CSD_CIF_WACHUG
_audit_creation_date 2016-02-19
_audit_creation_method CSD-ConQuest-V1
_database_code_CSD WACHUG
_database_code_depnum_ccdc_archive 'CCDC 1037850'
_chemical_formula_sum 'C35 H27 N1 O3'
_chemical_formula_moiety
;
C35 H27 N1 O3
;
_journal_coden_Cambridge 16
_journal_volume 72
_journal_year 2016
_journal_page_first 479
_journal_name_full 'Tetrahedron '
loop_
_publ_author_name
"A.Taheri"
"Bingbing Lai"
"Jing Yang"
"Juan Zhang"
"Yanlong Gu"
_chemical_name_systematic
;
4-(2,2-diphenylvinyl)-6-nitro-2,2-diphenylchromane
;
_cell_volume   2655.336
_exptl_crystal_colour 'yellow'
_exptl_crystal_density_diffrn 1.275
_exptl_crystal_description 'block'
_diffrn_ambient_temperature 296
#These two values have been output from a single CSD field.
_refine_ls_R_factor_gt 0.0342
_refine_ls_wR_factor_gt 0.0342
_symmetry_cell_setting orthorhombic
_symmetry_space_group_name_H-M 'P c a 21'
_symmetry_Int_Tables_number 29
loop_
_symmetry_equiv_pos_site_id
_symmetry_equiv_pos_as_xyz
1 x,y,z
2 -x,-y,1/2+z
3 1/2+x,-y,z
4 1/2-x,y,1/2+z
_cell_length_a 14.2021(12)
_cell_length_b 10.8102(10)
_cell_length_c 17.2955(15)
_cell_angle_alpha 90
_cell_angle_beta 90
_cell_angle_gamma 90
_cell_formula_units_Z 4
loop_
_atom_type_symbol
_atom_type_radius_bond
C 0.68
H 0.23
N 0.68
O 0.68
loop_
_atom_site_label
_atom_site_type_symbol
_atom_site_fract_x
_atom_site_fract_y
_atom_site_fract_z
O1 O 0.03505(8) 0.43692(10) 0.21980(7)
O2 O 0.40833(12) 0.43367(18) 0.40838(10)
O3 O 0.43141(12) 0.27359(19) 0.33800(12)
N1 N 0.38309(12) 0.36126(19) 0.35801(10)
C1 C 0.29278(13) 0.38086(18) 0.32021(11)
C2 C 0.23927(13) 0.48224(17) 0.34036(10)
H1 H 0.26120 0.53930 0.37640
C3 C 0.15296(12) 0.49707(17) 0.30607(10)
H2 H 0.11540 0.56420 0.31940
C4 C 0.12108(12) 0.41212(15) 0.25128(9)
C5 C 0.17597(12) 0.31007(16) 0.23032(10)
C6 C 0.26264(13) 0.29658(16) 0.26571(11)
H3 H 0.30100 0.23000 0.25260
C7 C 0.14024(12) 0.21730(16) 0.17237(10)
H4 H 0.11570 0.14620 0.20120
C8 C 0.05899(12) 0.27333(16) 0.12715(11)
H5 H 0.02780 0.20880 0.09770
H6 H 0.08340 0.33380 0.09090
C9 C -0.01234(12) 0.33556(15) 0.18038(10)
C10 C -0.09011(12) 0.39875(16) 0.13426(10)
C11 C -0.18430(13) 0.37464(18) 0.14673(11)
H7 H -0.20180 0.32030 0.18590
C12 C -0.25316(15) 0.4302(2) 0.10186(12)
H8 H -0.31630 0.41270 0.11080
C13 C -0.22822(16) 0.5107(2) 0.04445(13)
H9 H -0.27440 0.54780 0.01420
C14 C -0.13564(17) 0.5367(2) 0.03156(13)
H10 H -0.11890 0.59170 -0.00740
C15 C -0.06684(15) 0.48205(18) 0.07597(12)
H11 H -0.00390 0.50100 0.06690
C16 C -0.05135(12) 0.24657(17) 0.24074(11)
C17 C -0.07333(15) 0.2874(2) 0.31381(12)
H12 H -0.06010 0.36860 0.32790
C18 C -0.11517(17) 0.2082(3) 0.36650(14)
H13 H -0.13070 0.23710 0.41550
C19 C -0.13398(17) 0.0881(3) 0.34740(17)
H14 H -0.16290 0.03570 0.38280
C20 C -0.10995(16) 0.0460(2) 0.27593(18)
H15 H -0.12050 -0.03650 0.26320
C21 C -0.07015(13) 0.12421(19) 0.22207(14)
H16 H -0.05580 0.09480 0.17290
C22 C 0.21341(12) 0.17005(17) 0.11692(10)
H17 H 0.26150 0.22400 0.10280
C23 C 0.21472(12) 0.05678(15) 0.08641(10)
C24 C 0.14786(12) -0.04113(15) 0.11321(10)
C25 C 0.07563(15) -0.08141(19) 0.06599(12)
H18 H 0.06800 -0.04630 0.01730
C26 C 0.01488(15) -0.1728(2) 0.09008(15)
H19 H -0.03320 -0.19910 0.05750
C27 C 0.02478(18) -0.2251(2) 0.16167(15)
H20 H -0.01620 -0.28700 0.17770
C28 C 0.09522(16) -0.18568(18) 0.20924(13)
H21 H 0.10190 -0.22070 0.25800
C29 C 0.15662(14) -0.09448(17) 0.18566(11)
H22 H 0.20440 -0.06850 0.21870
C30 C 0.28004(12) 0.02277(16) 0.02266(10)
C31 C 0.31568(14) -0.09601(19) 0.01705(12)
H23 H 0.29690 -0.15550 0.05270
C32 C 0.37840(15) -0.1279(2) -0.04034(13)
H24 H 0.40230 -0.20790 -0.04260
C33 C 0.40564(17) -0.0419(3) -0.09418(14)
H25 H 0.44820 -0.06340 -0.13280
C34 C 0.36995(17) 0.0755(3) -0.09098(13)
H26 H 0.38800 0.13400 -0.12750
C35 C 0.30671(15) 0.1072(2) -0.03313(11)
H27 H 0.28180 0.18680 -0.03190
#END
