
#######################################################################
#
#                 Cambridge Crystallographic Data Centre
#                                CCDC
#
#######################################################################
#
# If this CIF has been generated from an entry in the Cambridge
# Structural Database, then it will include bibliographic, chemical,
# crystal, experimental, refinement or atomic coordinate data resulting
# from the CCDC's data processing and validation procedures.
#
#######################################################################

data_CSD_CIF_WACJUF
_audit_creation_date 1993-06-17
_audit_creation_method CSD-ConQuest-V1
_database_code_CSD WACJUF
_chemical_formula_sum 'C6 H10 N2 O2'
_chemical_formula_moiety
;
C6 H10 N2 O2
;
_journal_coeditor_code "IUCr VS0102"
_journal_coden_Cambridge 591
_journal_volume 49
_journal_year 1993
_journal_page_first 635
_journal_name_full 'Acta Crystallogr.,Sect.C:Cryst.Struct.Commun. '
loop_
_publ_author_name
"N.R.Streltsova"
"V.K.Bel'sky"
"Y.Z.Voloshin"
_chemical_name_systematic
;
1,2-Cyclohexanedione dioxime
;
_chemical_name_common
;
Nioxime
;
_cell_volume    709.246
_exptl_crystal_colour 'colorless'
_exptl_crystal_density_diffrn 1.331
_diffrn_ambient_temperature ?
_diffrn_special_details
;
The study was carried out at room temperature,in the range 283-303K

;
#These two values have been output from a single CSD field.
_refine_ls_R_factor_gt 0.024
_refine_ls_wR_factor_gt 0.024
_symmetry_cell_setting orthorhombic
_symmetry_space_group_name_H-M 'P b c 21'
_symmetry_Int_Tables_number 29
loop_
_symmetry_equiv_pos_site_id
_symmetry_equiv_pos_as_xyz
1 x,y,z
2 -x,1/2+y,z
3 x,1/2-y,1/2+z
4 -x,-y,1/2+z
_cell_length_a 7.902(2)
_cell_length_b 12.009(3)
_cell_length_c 7.474(2)
_cell_angle_alpha 90
_cell_angle_beta 90
_cell_angle_gamma 90
_cell_formula_units_Z 4
loop_
_atom_type_symbol
_atom_type_radius_bond
C 0.68
H 0.23
N 0.68
O 0.68
loop_
_atom_site_label
_atom_site_type_symbol
_atom_site_fract_x
_atom_site_fract_y
_atom_site_fract_z
O1 O 0.3218(2) 0.0525(1) -0.0239(3)
O2 O 0.2260(2) 0.1790(1) 0.6694(3)
N1 N 0.2827(2) 0.0949(1) 0.1459(3)
N2 N 0.2723(2) 0.1553(1) 0.4912(3)
C1 C 0.2846(2) 0.0189(2) 0.2651(3)
C2 C 0.2426(2) 0.0535(2) 0.4512(3)
C3 C 0.1683(4) -0.0314(2) 0.5762(4)
C4 C 0.1330(3) -0.1422(2) 0.4861(4)
C5 C 0.2874(3) -0.1791(2) 0.3834(4)
C6 C 0.3158(3) -0.1020(2) 0.2238(4)
H1 H 0.299(4) 0.106(3) -0.087(6)
H2 H 0.242(3) 0.254(4) 0.670(6)
H3 H 0.068(3) 0.003(2) 0.629(4)
H4 H 0.240(4) -0.038(3) 0.678(5)
H5 H 0.095(3) -0.196(2) 0.583(4)
H6 H 0.386(4) -0.177(2) 0.467(5)
H7 H 0.433(3) -0.111(2) 0.184(4)
H8 H 0.265(3) -0.247(4) 0.344(5)
H9 H 0.225(4) -0.121(3) 0.139(6)
H10 H 0.034(4) -0.134(2) 0.403(4)
#END
