
#######################################################################
#
#                 Cambridge Crystallographic Data Centre
#                                CCDC
#
#######################################################################
#
# If this CIF has been generated from an entry in the Cambridge
# Structural Database, then it will include bibliographic, chemical,
# crystal, experimental, refinement or atomic coordinate data resulting
# from the CCDC's data processing and validation procedures.
#
#######################################################################

data_CSD_CIF_WACKIU
_audit_creation_date 1993-06-17
_audit_creation_method CSD-ConQuest-V1
_database_code_CSD WACKIU
_chemical_formula_sum 'C8 H14 N2 O2'
_chemical_formula_moiety
;
C8 H14 N2 O2
;
_journal_coeditor_code "IUCr VS0102"
_journal_coden_Cambridge 591
_journal_volume 49
_journal_year 1993
_journal_page_first 635
_journal_name_full 'Acta Crystallogr.,Sect.C:Cryst.Struct.Commun. '
loop_
_publ_author_name
"N.R.Streltsova"
"V.K.Bel'sky"
"Y.Z.Voloshin"
_chemical_name_systematic
;
1,2-Cyclo-octanedione dioxime
;
_chemical_name_common
;
Octoxime
;
_cell_volume    870.634
_exptl_crystal_colour 'colorless'
_exptl_crystal_density_diffrn 1.302
_diffrn_ambient_temperature ?
_diffrn_special_details
;
The study was carried out at room temperature,in the range 283-303K

;
#These two values have been output from a single CSD field.
_refine_ls_R_factor_gt 0.029
_refine_ls_wR_factor_gt 0.029
_symmetry_cell_setting orthorhombic
_symmetry_space_group_name_H-M 'P 21 21 21'
_symmetry_Int_Tables_number 19
loop_
_symmetry_equiv_pos_site_id
_symmetry_equiv_pos_as_xyz
1 x,y,z
2 1/2+x,1/2-y,-z
3 -x,1/2+y,1/2-z
4 1/2-x,-y,1/2+z
_cell_length_a 8.734(1)
_cell_length_b 12.821(2)
_cell_length_c 7.775(1)
_cell_angle_alpha 90
_cell_angle_beta 90
_cell_angle_gamma 90
_cell_formula_units_Z 4
loop_
_atom_type_symbol
_atom_type_radius_bond
C 0.68
H 0.23
N 0.68
O 0.68
loop_
_atom_site_label
_atom_site_type_symbol
_atom_site_fract_x
_atom_site_fract_y
_atom_site_fract_z
C1 C 0.5859(7) 0.1846(5) 0.0580(8)
C2 C 0.5929(3) 0.1538(2) 0.2429(3)
C3 C 0.4869(4) 0.2042(3) 0.3690(5)
C4 C 0.5555(4) 0.2989(3) 0.4634(5)
C5 C 0.5864(4) 0.3958(2) 0.3565(4)
C6 C 0.7095(4) 0.3848(2) 0.2191(4)
C7 C 0.6482(7) 0.3755(4) 0.0351(7)
C8 C 0.5303(3) 0.2899(2) 0.0088(4)
N1 N 0.6314(3) 0.1142(2) -0.0495(3)
O1 O 0.6294(5) 0.1522(3) -0.2201(4)
N2 N 0.6935(2) 0.0841(2) 0.2827(2)
O2 O 0.6891(2) 0.0594(1) 0.4592(2)
H1 H 0.6656(34) 0.0982(26) -0.2689(42)
H2 H 0.7508(50) 0.0053(33) 0.4576(48)
H3 H 0.453(3) 0.144(2) 0.447(4)
H4 H 0.388(4) 0.221(2) 0.312(4)
H5 H 0.654(4) 0.279(2) 0.520(4)
H6 H 0.490(3) 0.315(3) 0.564(4)
H7 H 0.614(6) 0.450(4) 0.438(6)
H8 H 0.498(4) 0.423(3) 0.304(5)
H9 H 0.778(4) 0.322(3) 0.245(5)
H10 H 0.774(4) 0.442(3) 0.227(4)
H11 H 0.596(3) 0.441(2) -0.013(3)
H12 H 0.732(4) 0.353(2) -0.047(4)
H13 H 0.441(5) 0.299(3) 0.078(5)
H14 H 0.494(4) 0.291(3) -0.112(5)
#END
