
#######################################################################
#
#                 Cambridge Crystallographic Data Centre
#                                CCDC
#
#######################################################################
#
# If this CIF has been generated from an entry in the Cambridge
# Structural Database, then it will include bibliographic, chemical,
# crystal, experimental, refinement or atomic coordinate data resulting
# from the CCDC's data processing and validation procedures.
#
#######################################################################

data_CSD_CIF_WACKAM
_audit_creation_date 1993-06-17
_audit_creation_method CSD-ConQuest-V1
_database_code_CSD WACKAM
_chemical_formula_sum 'C7 H12 N2 O2'
_chemical_formula_moiety
;
C7 H12 N2 O2
;
_journal_coeditor_code "IUCr VS0102"
_journal_coden_Cambridge 591
_journal_volume 49
_journal_year 1993
_journal_page_first 635
_journal_name_full 'Acta Crystallogr.,Sect.C:Cryst.Struct.Commun. '
loop_
_publ_author_name
"N.R.Streltsova"
"V.K.Bel'sky"
"Y.Z.Voloshin"
_chemical_name_systematic
;
1,2-Cycloheptanedione dioxime
;
_chemical_name_common
;
Heptoxime
;
_cell_volume   1715.265
_exptl_crystal_colour 'colorless'
_exptl_crystal_density_diffrn 1.212
_diffrn_ambient_temperature ?
_diffrn_special_details
;
The study was carried out at room temperature,in the range 283-303K

;
#These two values have been output from a single CSD field.
_refine_ls_R_factor_gt 0.032
_refine_ls_wR_factor_gt 0.032
_symmetry_cell_setting orthorhombic
_symmetry_space_group_name_H-M 'P c a b'
_symmetry_Int_Tables_number 61
loop_
_symmetry_equiv_pos_site_id
_symmetry_equiv_pos_as_xyz
1 x,y,z
2 1/2-x,y,1/2+z
3 1/2+x,1/2-y,z
4 -x,1/2-y,1/2+z
5 -x,-y,-z
6 -1/2+x,-y,-1/2-z
7 -1/2-x,-1/2+y,-z
8 x,-1/2+y,-1/2-z
_cell_length_a 8.690(1)
_cell_length_b 12.134(3)
_cell_length_c 16.267(3)
_cell_angle_alpha 90
_cell_angle_beta 90
_cell_angle_gamma 90
_cell_formula_units_Z 8
loop_
_atom_type_symbol
_atom_type_radius_bond
C 0.68
H 0.23
N 0.68
O 0.68
loop_
_atom_site_label
_atom_site_type_symbol
_atom_site_fract_x
_atom_site_fract_y
_atom_site_fract_z
N1 N 0.1662(2) 0.1475(2) 0.6224(1)
N2 N 0.4773(2) 0.1483(2) 0.6463(1)
O1 O 0.0226(2) 0.1398(2) 0.5822(1)
O2 O 0.6191(2) 0.1461(2) 0.6894(1)
C1 C 0.2454(3) 0.0593(2) 0.6171(2)
C2 C 0.3956(3) 0.0627(2) 0.6596(2)
C3 C 0.4410(5) -0.0336(3) 0.7124(3)
C4 C 0.5139(6) -0.1258(4) 0.6617(4)
C5 C 0.3994(10) -0.1876(6) 0.6097(6)
C6 C 0.3180(4) -0.1200(3) 0.5440(2)
C7 C 0.1924(4) -0.0437(3) 0.5759(3)
H1 H 0.515(2) -0.006(2) 0.753(2)
H2 H 0.342(4) -0.070(3) 0.741(2)
H3 H 0.598(4) -0.083(4) 0.624(2)
H4 H 0.561(4) -0.177(3) 0.712(2)
H5 H 0.318(4) -0.216(3) 0.640(2)
H6 H 0.445(5) -0.248(4) 0.584(3)
H7 H 0.262(4) -0.175(3) 0.508(2)
H8 H 0.400(4) -0.071(3) 0.509(2)
H9 H 0.132(5) -0.021(3) 0.528(2)
H10 H 0.124(5) -0.086(4) 0.616(2)
H11 H -0.023(4) 0.218(4) 0.602(3)
H12 H 0.663(5) 0.216(4) 0.667(3)
#END
