
#######################################################################
#
#                 Cambridge Crystallographic Data Centre
#                                CCDC
#
#######################################################################
#
# If this CIF has been generated from an entry in the Cambridge
# Structural Database, then it will include bibliographic, chemical,
# crystal, experimental, refinement or atomic coordinate data resulting
# from the CCDC's data processing and validation procedures.
#
#######################################################################

data_CSD_CIF_WACQEY
_audit_creation_date 2011-01-20
_audit_creation_method CSD-ConQuest-V1
_database_code_CSD WACQEY
_database_code_depnum_ccdc_archive 'CCDC 803118'
_chemical_formula_sum 'C10 H6 N2 O5'
_chemical_formula_moiety
;
C10 H6 N2 O5
;
_journal_coeditor_code "IUCr DN2615"
_journal_coden_Cambridge 1370
_journal_volume 66
_journal_year 2010
_journal_page_first o3101
_journal_name_full 'Acta Crystallogr.,Sect.E:Struct.Rep.Online '
loop_
_publ_author_name
"A.R.Raza"
"A.Sultan"
"M.N.Tahir"
"A.Rubab"
_chemical_name_systematic
;
2,4-Dinitro-1-naphthol
;
_cell_volume    944.353
_exptl_crystal_colour 'brown'
_exptl_crystal_density_diffrn 1.647
_exptl_crystal_description 'needle'
_diffrn_ambient_temperature 296
#These two values have been output from a single CSD field.
_refine_ls_R_factor_gt 0.0423
_refine_ls_wR_factor_gt 0.0423
_symmetry_cell_setting monoclinic
_symmetry_space_group_name_H-M 'P 21/n'
_symmetry_Int_Tables_number 14
loop_
_symmetry_equiv_pos_site_id
_symmetry_equiv_pos_as_xyz
1 x,y,z
2 1/2-x,1/2+y,1/2-z
3 -x,-y,-z
4 -1/2+x,-1/2-y,-1/2+z
_cell_length_a 7.0512(10)
_cell_length_b 16.3541(19)
_cell_length_c 8.7988(10)
_cell_angle_alpha 90
_cell_angle_beta 111.452(6)
_cell_angle_gamma 90
_cell_formula_units_Z 4
loop_
_atom_type_symbol
_atom_type_radius_bond
C 0.68
H 0.23
N 0.68
O 0.68
loop_
_atom_site_label
_atom_site_type_symbol
_atom_site_fract_x
_atom_site_fract_y
_atom_site_fract_z
O1 O 0.3884(3) 0.45828(13) 0.10925(19)
O2 O 0.6120(3) 0.36519(11) 0.1294(2)
O3 O 0.8511(3) 0.26242(11) 0.6881(2)
O4 O 1.0038(3) 0.34485(11) 0.8845(2)
O5 O 0.9984(3) 0.49989(10) 0.83341(16)
H1 H 1.03560 0.45870 0.88960
N1 N 0.5444(3) 0.42063(12) 0.1860(2)
N2 N 0.8995(3) 0.33110(13) 0.7401(3)
C1 C 0.8052(3) 0.54453(12) 0.5693(2)
C2 C 0.8467(4) 0.62585(14) 0.6216(3)
H2 H 0.91970 0.63700 0.73120
C3 C 0.7809(4) 0.68880(14) 0.5131(3)
H3 H 0.80770 0.74260 0.54890
C4 C 0.6744(4) 0.67246(15) 0.3500(3)
H4 H 0.63290 0.71570 0.27660
C5 C 0.6283(4) 0.59409(15) 0.2936(3)
H5 H 0.55570 0.58480 0.18320
C6 C 0.6905(3) 0.52753(13) 0.4024(2)
C7 C 0.6553(3) 0.44389(13) 0.3569(2)
C8 C 0.7224(3) 0.38182(13) 0.4646(2)
H6 H 0.69480 0.32790 0.42990
C9 C 0.8335(3) 0.39941(13) 0.6284(2)
C10 C 0.8816(3) 0.47868(13) 0.6824(2)
#END
