
#######################################################################
#
#                 Cambridge Crystallographic Data Centre
#                                CCDC
#
#######################################################################
#
# If this CIF has been generated from an entry in the Cambridge
# Structural Database, then it will include bibliographic, chemical,
# crystal, experimental, refinement or atomic coordinate data resulting
# from the CCDC's data processing and validation procedures.
#
#######################################################################

data_CSD_CIF_WACROJ
_audit_creation_date 2011-01-20
_audit_creation_method CSD-ConQuest-V1
_database_code_CSD WACROJ
_database_code_depnum_ccdc_archive 'CCDC 803125'
_chemical_formula_sum 'C17 H19 N5 O5'
_chemical_formula_moiety
;
C17 H19 N5 O5
;
_journal_coeditor_code "IUCr DN2616"
_journal_coden_Cambridge 1370
_journal_volume 66
_journal_year 2010
_journal_page_first o3108
_journal_name_full 'Acta Crystallogr.,Sect.E:Struct.Rep.Online '
loop_
_publ_author_name
"Lin-xiu Zhao"
"Gang-shen Li"
_chemical_name_systematic
;
5-Diethylamino-2-((2-(2,4-dinitrophenyl)hydrazin-1-ylidene)methyl)phenol
;
_cell_volume    875.313
_exptl_crystal_colour 'red'
_exptl_crystal_density_diffrn 1.417
_exptl_crystal_description 'block'
_exptl_crystal_preparation 'dimethylformamide'
_diffrn_ambient_temperature 293
_refine_special_details
;
An ethyl group from the diethylamino unit is disordered over two sites with 
occupancies 0.72:0.28.
;
#These two values have been output from a single CSD field.
_refine_ls_R_factor_gt 0.0551
_refine_ls_wR_factor_gt 0.0551
_symmetry_cell_setting triclinic
_symmetry_space_group_name_H-M 'P -1'
_symmetry_Int_Tables_number 2
loop_
_symmetry_equiv_pos_site_id
_symmetry_equiv_pos_as_xyz
1 x,y,z
2 -x,-y,-z
_cell_length_a 8.5300(7)
_cell_length_b 8.5410(4)
_cell_length_c 12.4910(11)
_cell_angle_alpha 84.554(7)
_cell_angle_beta 89.733(6)
_cell_angle_gamma 75.109(7)
_cell_formula_units_Z 2
loop_
_atom_type_symbol
_atom_type_radius_bond
C 0.68
H 0.23
N 0.68
O 0.68
loop_
_atom_site_label
_atom_site_type_symbol
_atom_site_fract_x
_atom_site_fract_y
_atom_site_fract_z
O1 O 0.25187(19) 0.6271(3) 0.50881(14)
H1 H 0.17460 0.68620 0.53690
O2 O -0.5619(2) 1.2021(3) 0.72130(18)
O3 O -0.4850(2) 1.0820(3) 0.57933(16)
O4 O -0.1960(3) 1.2721(3) 0.98125(17)
O5 O 0.0601(3) 1.1684(3) 0.96747(16)
N1 N -0.0540(2) 0.8040(3) 0.52221(16)
N2 N -0.1829(2) 0.9124(3) 0.56372(15)
H2 H -0.27680 0.93520 0.53260
N3 N -0.4544(3) 1.1282(3) 0.6656(2)
N4 N -0.0803(3) 1.1929(3) 0.93582(19)
N5 N 0.3830(2) 0.2866(3) 0.22459(17)
C1 C 0.3429(3) 0.2320(4) 0.1233(2)
H3 H 0.41000 0.12230 0.11940
H4 H 0.23120 0.22530 0.12680
C2 C 0.3598(5) 0.3248(6) 0.0249(3)
H5 H 0.47110 0.32710 0.01670
H6 H 0.29320 0.43400 0.02580
H7 H 0.32630 0.27600 -0.03420
C3 C 0.0349(3) 0.6209(3) 0.38800(18)
C4 C 0.1988(3) 0.5694(3) 0.42192(19)
C5 C 0.3117(3) 0.4608(3) 0.36813(19)
H8 H 0.41880 0.42910 0.39310
C6 C 0.2693(3) 0.3972(3) 0.27695(19)
C7 C 0.1057(3) 0.4485(3) 0.24127(19)
H9 H 0.07330 0.40940 0.18030
C8 C -0.0054(3) 0.5558(3) 0.29623(19)
H10 H -0.11270 0.58680 0.27150
C9 C -0.0867(3) 0.7351(3) 0.4408(2)
H11 H -0.19340 0.76030 0.41520
C10 C -0.1625(3) 0.9827(3) 0.65262(19)
C11 C -0.2895(3) 1.0890(3) 0.7042(2)
C12 C -0.2620(3) 1.1567(3) 0.79614(19)
H12 H -0.34750 1.22540 0.82880
C13 C -0.1096(3) 1.1223(3) 0.83856(19)
C14 C 0.0190(3) 1.0181(4) 0.7912(2)
H13 H 0.12290 0.99490 0.82130
C15 C -0.0069(3) 0.9507(3) 0.7016(2)
H14 H 0.08030 0.88110 0.67110
C16 C 0.5551(3) 0.2546(4) 0.2534(2)
H15 H 0.61380 0.15670 0.22260
H16 H 0.56750 0.23360 0.33100
C17 C 0.6308(3) 0.3901(4) 0.2167(2)
H17 H 0.61770 0.41340 0.14010
H18 H 0.74430 0.35820 0.23560
H19 H 0.57900 0.48560 0.25080
C18? C 0.3429(3) 0.2320(4) 0.1233(2)
C19? C 0.4529(12) 0.1441(16) 0.0563(9)
H20? H 0.26530 0.16840 0.14070
H21? H 0.28420 0.32920 0.07960
H22? H 0.40030 0.14150 -0.01100
H23? H 0.49440 0.03500 0.08920
H24? H 0.54070 0.19440 0.04410
#END
