
#######################################################################
#
#                 Cambridge Crystallographic Data Centre
#                                CCDC
#
#######################################################################
#
# If this CIF has been generated from an entry in the Cambridge
# Structural Database, then it will include bibliographic, chemical,
# crystal, experimental, refinement or atomic coordinate data resulting
# from the CCDC's data processing and validation procedures.
#
#######################################################################

data_CSD_CIF_WACVEC
_audit_creation_date 2003-07-25
_audit_creation_method CSD-ConQuest-V1
_database_code_CSD WACVEC
_database_code_depnum_ccdc_archive 'CCDC 199203'
_chemical_formula_sum 'C11 H16 N3 O2'
_chemical_formula_moiety
;
C11 H16 N3 O2
;
_journal_coden_Cambridge 1145
_journal_volume 13
_journal_year 2003
_journal_page_first 1011
_journal_name_full 'J.Mater.Chem. '
loop_
_publ_author_name
"J.Nakazaki"
"InGwon Chung"
"M.M.Matsushita"
"T.Sugawara"
"R.Watanabe"
"A.Izuoka"
"Y.Kawada"
_chemical_name_systematic
;
2-(Pyrrol-1'-yl)-4,4,5,5-tetramethylimidazoline 3-oxide 1-oxyl
;
_cell_volume   1173.635
_exptl_crystal_colour 'blue'
_exptl_crystal_density_diffrn 1.258
_exptl_crystal_description 'block'
_exptl_crystal_preparation 'diethyl ether'
_diffrn_ambient_temperature 298.2
#These two values have been output from a single CSD field.
_refine_ls_R_factor_gt 0.0445
_refine_ls_wR_factor_gt 0.0445
_symmetry_cell_setting monoclinic
_symmetry_space_group_name_H-M 'P 21/n'
_symmetry_Int_Tables_number 14
loop_
_symmetry_equiv_pos_site_id
_symmetry_equiv_pos_as_xyz
1 x,y,z
2 1/2+x,1/2-y,1/2+z
3 -x,-y,-z
4 -1/2-x,-1/2+y,-1/2-z
_cell_length_a 9.8453(16)
_cell_length_b 16.530(3)
_cell_length_c 7.2587(9)
_cell_angle_alpha 90
_cell_angle_beta 96.531(11)
_cell_angle_gamma 90
_cell_formula_units_Z 4
loop_
_atom_type_symbol
_atom_type_radius_bond
C 0.68
H 0.23
N 0.68
O 0.68
loop_
_atom_site_label
_atom_site_type_symbol
_atom_site_fract_x
_atom_site_fract_y
_atom_site_fract_z
O1 O 0.18888(14) 1.18008(7) -0.13844(18)
O2 O 0.40934(15) 0.98037(7) 0.2260(2)
N1 N 0.19400(13) 1.00772(7) -0.06940(17)
N2 N 0.27075(13) 1.14510(7) -0.01323(18)
N3 N 0.37326(14) 1.05012(7) 0.16294(19)
C1 C 0.14029(18) 1.00998(12) -0.2543(2)
C2 C 0.0652(2) 0.94219(12) -0.2894(3)
C3 C 0.07023(19) 0.89747(11) -0.1239(3)
C4 C 0.14940(19) 0.93767(10) 0.0087(3)
C5 C 0.27608(15) 1.06561(9) 0.0227(2)
C6 C 0.38709(15) 1.18862(9) 0.0963(2)
C7 C 0.42623(16) 1.12689(9) 0.2539(2)
C8 C 0.4966(2) 1.20043(14) -0.0331(3)
C9 C 0.3404(2) 1.27037(11) 0.1600(3)
C10 C 0.3494(3) 1.13716(17) 0.4238(3)
C11 C 0.5782(2) 1.11880(14) 0.3131(4)
H1 H 0.158(2) 1.0533(13) -0.327(3)
H2 H 0.020(2) 0.9283(13) -0.407(3)
H3 H 0.023(2) 0.8468(13) -0.106(3)
H4 H 0.175(2) 0.9260(13) 0.130(3)
H5 H 0.575(2) 1.2258(13) 0.032(3)
H6 H 0.453(2) 1.2290(14) -0.139(3)
H7 H 0.527(2) 1.1458(14) -0.070(3)
H8 H 0.259(3) 1.2630(15) 0.215(3)
H9 H 0.317(2) 1.3065(13) 0.048(3)
H10 H 0.416(2) 1.2964(14) 0.242(3)
H11 H 0.375(3) 1.1855(18) 0.487(4)
H12 H 0.370(2) 1.0933(14) 0.509(3)
H13 H 0.241(3) 1.1442(15) 0.381(3)
H14 H 0.594(2) 1.0802(15) 0.415(3)
H15 H 0.614(2) 1.1730(15) 0.355(3)
H16 H 0.628(3) 1.1027(16) 0.201(4)
#END
