
#######################################################################
#
#                 Cambridge Crystallographic Data Centre
#                                CCDC
#
#######################################################################
#
# If this CIF has been generated from an entry in the Cambridge
# Structural Database, then it will include bibliographic, chemical,
# crystal, experimental, refinement or atomic coordinate data resulting
# from the CCDC's data processing and validation procedures.
#
#######################################################################

data_CSD_CIF_WADCOW
_audit_creation_date 2016-02-19
_audit_creation_method CSD-ConQuest-V1
_database_code_CSD WADCOW
_database_code_depnum_ccdc_archive 'CCDC 1446323'
_chemical_formula_sum 'C15 H14 N2 O2'
_chemical_formula_moiety
;
C15 H14 N2 O2
;
_journal_coden_Cambridge 1500
_journal_volume 6
_journal_year 2016
_journal_page_first 20588
_journal_name_full 'RSC Advances '
loop_
_publ_author_name
"L.Mahendar"
"G.Satyanarayana"
_chemical_name_systematic
;
9,9-Dimethyl-2-nitro-9,10-dihydroacridine
;
_chemical_melting_point 441.15
_cell_volume   5064.476
_exptl_crystal_colour 'colorless'
_exptl_crystal_density_diffrn 1.334
_exptl_crystal_description 'block'
_exptl_crystal_preparation 'dichloromethane'
_diffrn_ambient_temperature 293
#These two values have been output from a single CSD field.
_refine_ls_R_factor_gt 0.0485
_refine_ls_wR_factor_gt 0.0485
_symmetry_cell_setting orthorhombic
_symmetry_space_group_name_H-M 'P b c a'
_symmetry_Int_Tables_number 61
loop_
_symmetry_equiv_pos_site_id
_symmetry_equiv_pos_as_xyz
1 x,y,z
2 1/2+x,1/2-y,-z
3 -x,1/2+y,1/2-z
4 1/2-x,-y,1/2+z
5 -x,-y,-z
6 -1/2-x,-1/2+y,z
7 x,-1/2-y,-1/2+z
8 -1/2+x,y,-1/2-z
_cell_length_a 9.3070(3)
_cell_length_b 16.5482(5)
_cell_length_c 32.8832(9)
_cell_angle_alpha 90
_cell_angle_beta 90
_cell_angle_gamma 90
_cell_formula_units_Z 16
loop_
_atom_type_symbol
_atom_type_radius_bond
C 0.68
H 0.23
N 0.68
O 0.68
loop_
_atom_site_label
_atom_site_type_symbol
_atom_site_fract_x
_atom_site_fract_y
_atom_site_fract_z
O1 O 0.43080(18) 0.15728(11) 0.11977(6)
O2 O 0.24878(19) 0.09686(9) 0.09329(5)
N1 N 0.04624(17) 0.45486(9) 0.07786(5)
H1 H 0.096(2) 0.4994(14) 0.0847(6)
N2 N 0.3108(2) 0.15897(11) 0.10405(5)
C1 C 0.10827(18) 0.38153(10) 0.08421(5)
C2 C 0.2406(2) 0.37769(12) 0.10448(6)
H2 H 0.2834(2) 0.42509(12) 0.11366(6)
C3 C 0.3073(2) 0.30584(12) 0.11092(6)
H3 H 0.3961(2) 0.30386(12) 0.12387(6)
C4 C 0.2410(2) 0.23563(11) 0.09789(5)
C5 C 0.10971(18) 0.23806(10) 0.07826(5)
H4 H 0.06663(18) 0.1900(1) 0.07012(5)
C6 C 0.04110(17) 0.31073(9) 0.07050(5)
C7 C -0.10380(19) 0.31262(10) 0.04839(5)
C8 C -0.0918(2) 0.26155(12) 0.00930(6)
H5 H -0.0213(12) 0.2851(5) -0.0084(2)
H6 H -0.0635(17) 0.2075(3) 0.01621(8)
H7 H -0.1833(5) 0.2603(8) -0.0042(3)
C9 C -0.2197(2) 0.27817(13) 0.07681(7)
H8 H -0.1984(10) 0.2226(3) 0.0827(4)
H9 H -0.2212(12) 0.3086(6) 0.1017(2)
H10 H -0.3118(3) 0.2818(9) 0.0638(2)
C10 C -0.14407(18) 0.39898(10) 0.03676(5)
C11 C -0.2579(2) 0.41425(13) 0.01061(6)
H11 H -0.3102(2) 0.37102(13) 0.00022(6)
C12 C -0.2958(2) 0.49214(16) -0.00043(7)
H12 H -0.3717(2) 0.50069(16) -0.01832(7)
C13 C -0.2213(2) 0.55663(14) 0.01505(7)
H13 H -0.2466(2) 0.60897(14) 0.00764(7)
C14 C -0.1102(2) 0.54399(11) 0.04132(6)
H14 H -0.0606(2) 0.58787(11) 0.05205(6)
C15 C -0.07060(19) 0.46572(10) 0.05216(5)
O3 O -0.74285(19) 0.73392(9) 0.19913(5)
O4 O -0.92676(18) 0.67093(11) 0.22324(5)
N3 N -0.51067(15) 0.37971(8) 0.19607(5)
H15 H -0.55820(15) 0.33528(8) 0.19786(5)
N4 N -0.8038(2) 0.67111(11) 0.20943(5)
C16 C -0.58305(18) 0.45158(10) 0.19837(5)
C17 C -0.7206(2) 0.45389(12) 0.21545(6)
H16 H -0.7627(2) 0.40634(12) 0.22469(6)
C18 C -0.7938(2) 0.52485(12) 0.21871(6)
H17 H -0.8857(2) 0.52609(12) 0.22977(6)
C19 C -0.7286(2) 0.59505(11) 0.20526(5)
C20 C -0.59293(19) 0.59381(10) 0.18784(5)
H18 H -0.55196(19) 0.64185(10) 0.17885(5)
C21 C -0.51791(18) 0.52257(9) 0.18366(5)
C22 C -0.37505(18) 0.51674(10) 0.16051(5)
C23 C -0.4110(2) 0.50143(14) 0.11521(6)
H19 H -0.4618(14) 0.4512(4) 0.11263(7)
H20 H -0.4699(13) 0.5446(5) 0.10515(13)
H21 H -0.3236(2) 0.4990(9) 0.09976(9)
C24 C -0.2886(2) 0.59501(11) 0.16432(8)
H22 H -0.3450(7) 0.63948(19) 0.1545(5)
H23 H -0.2643(15) 0.6040(5) 0.19234(11)
H24 H -0.2022(9) 0.5907(4) 0.1485(4)
C25 C -0.29010(17) 0.44415(10) 0.17575(5)
C26 C -0.1410(2) 0.43903(12) 0.17258(6)
H25 H -0.0899(2) 0.48317(12) 0.16275(6)
C27 C -0.0673(2) 0.36985(13) 0.18372(7)
H26 H 0.0322(2) 0.36799(13) 0.18130(7)
C28 C -0.1404(2) 0.30416(12) 0.19827(6)
H27 H -0.0906(2) 0.25775(12) 0.20575(6)
C29 C -0.2880(2) 0.30688(11) 0.20183(6)
H28 H -0.3379(2) 0.26219(11) 0.21154(6)
C30 C -0.36187(18) 0.37648(10) 0.19089(5)
#END
