
#######################################################################
#
#                 Cambridge Crystallographic Data Centre
#                                CCDC
#
#######################################################################
#
# If this CIF has been generated from an entry in the Cambridge
# Structural Database, then it will include bibliographic, chemical,
# crystal, experimental, refinement or atomic coordinate data resulting
# from the CCDC's data processing and validation procedures.
#
#######################################################################

data_CSD_CIF_WADDUB
_audit_creation_date 2003-07-25
_audit_creation_method CSD-ConQuest-V1
_database_code_CSD WADDUB
_database_code_depnum_ccdc_archive 'CCDC 214599'
_chemical_formula_sum 'C20 H15 N1 O2'
_chemical_formula_moiety
;
C20 H15 N1 O2
;
_journal_coeditor_code "IUCr CV6179"
_journal_coden_Cambridge 1370
_journal_volume 59
_journal_year 2003
_journal_page_first o612
_journal_name_full 'Acta Crystallogr.,Sect.E:Struct.Rep.Online '
loop_
_publ_author_name
"A.Usman"
"H.-K.Fun"
"Hua-You Hu"
"Jian-Hua Xu"
_chemical_name_systematic
;
N-(1,2-Diphenyl-2-oxoethylidene)benzenamine N-oxide
;
_chemical_melting_point 433.0
_cell_volume   3135.355
_exptl_crystal_colour 'light yellow'
_exptl_crystal_density_diffrn 1.277
_exptl_crystal_description 'block'
_exptl_crystal_preparation 'acetone'
_diffrn_ambient_temperature 293
#These two values have been output from a single CSD field.
_refine_ls_R_factor_gt 0.0449
_refine_ls_wR_factor_gt 0.0449
_symmetry_cell_setting monoclinic
_symmetry_space_group_name_H-M 'P 21/c'
_symmetry_Int_Tables_number 14
loop_
_symmetry_equiv_pos_site_id
_symmetry_equiv_pos_as_xyz
1 x,y,z
2 x,1/2-y,1/2+z
3 -x,-y,-z
4 -x,-1/2+y,-1/2-z
_cell_length_a 11.2399(5)
_cell_length_b 14.7231(7)
_cell_length_c 19.6858(9)
_cell_angle_alpha 90
_cell_angle_beta 105.754(1)
_cell_angle_gamma 90
_cell_formula_units_Z 8
loop_
_atom_type_symbol
_atom_type_radius_bond
C 0.68
H 0.23
N 0.68
O 0.68
loop_
_atom_site_label
_atom_site_type_symbol
_atom_site_fract_x
_atom_site_fract_y
_atom_site_fract_z
O1 O 0.76781(9) 0.37685(7) 0.01733(5)
O2 O 0.74656(10) 0.24279(9) 0.22056(6)
N1 N 0.79208(10) 0.28566(8) 0.17658(6)
C1 C 0.88860(14) 0.49785(9) 0.17816(7)
H1 H 0.82660 0.48370 0.19950
C2 C 0.97732(16) 0.56198(10) 0.20804(9)
H2 H 0.97410 0.59150 0.24930
C3 C 1.07013(16) 0.58236(11) 0.17729(9)
H3 H 1.12920 0.62570 0.19770
C4 C 1.07589(15) 0.53872(11) 0.11634(9)
H4 H 1.13950 0.55200 0.09600
C5 C 0.98737(13) 0.47547(10) 0.08555(7)
H5 H 0.99090 0.44650 0.04420
C6 C 0.89269(12) 0.45471(8) 0.11613(6)
C7 C 0.79640(11) 0.38819(8) 0.08063(7)
C8 C 0.72776(11) 0.33692(8) 0.12477(6)
C9 C 0.59321(12) 0.34638(9) 0.10966(7)
C10 C 0.53839(14) 0.42901(11) 0.08456(8)
H6 H 0.58720 0.47700 0.07710
C11 C 0.41162(16) 0.44022(14) 0.07058(9)
H7 H 0.37600 0.49620 0.05520
C12 C 0.33881(15) 0.36910(16) 0.07928(9)
H8 H 0.25370 0.37660 0.06950
C13 C 0.39146(15) 0.28656(14) 0.10248(10)
H9 H 0.34140 0.23810 0.10730
C14 C 0.51741(14) 0.27496(11) 0.11863(8)
H10 H 0.55220 0.21930 0.13560
C15 C 0.92376(12) 0.27184(9) 0.18659(7)
C16 C 1.00428(14) 0.30024(10) 0.24903(8)
H11 H 0.97500 0.32760 0.28390
C17 C 1.12902(15) 0.28710(12) 0.25849(8)
H12 H 1.18490 0.30630 0.30000
C18 C 1.17131(14) 0.24594(13) 0.20716(9)
H13 H 1.25580 0.23810 0.21390
C19 C 1.08969(14) 0.21600(11) 0.14563(8)
H14 H 1.11910 0.18700 0.11140
C20 C 0.96425(13) 0.22902(10) 0.13474(7)
H15 H 0.90830 0.20930 0.09330
O3 O 0.71417(10) 0.14793(8) 0.00341(5)
O4 O 0.75680(12) 0.0025(1) -0.18977(7)
N2 N 0.70687(11) 0.04904(8) -0.14929(6)
C21 C 0.60575(15) 0.26218(10) -0.16201(8)
H16 H 0.66870 0.24410 -0.18150
C22 C 0.52032(18) 0.32621(11) -0.19632(9)
H17 H 0.52670 0.35170 -0.23840
C23 C 0.42665(17) 0.35217(12) -0.16858(10)
H18 H 0.36930 0.39500 -0.19190
C24 C 0.41694(16) 0.31501(12) -0.10610(11)
H19 H 0.35230 0.33230 -0.08780
C25 C 0.50264(14) 0.25212(11) -0.07052(8)
H20 H 0.49670 0.22810 -0.02790
C26 C 0.59771(12) 0.22495(9) -0.09866(7)
C27 C 0.69124(12) 0.15926(9) -0.05988(7)
C28 C 0.76583(13) 0.10645(9) -0.10053(7)
C29 C 0.89980(13) 0.12045(11) -0.08339(7)
C30 C 0.94724(15) 0.20622(12) -0.06274(9)
H21 H 0.89400 0.25340 -0.05960
C31 C 1.07304(18) 0.22213(16) -0.04683(10)
H22 H 1.10360 0.28030 -0.03470
C32 C 1.15268(18) 0.1525(2) -0.04882(11)
H23 H 1.23730 0.16340 -0.03770
C33 C 1.10779(18) 0.06696(18) -0.06724(11)
H24 H 1.16240 0.01950 -0.06730
C34 C 0.98214(16) 0.05046(13) -0.08577(10)
H25 H 0.95240 -0.00740 -0.09990
C35 C 0.57584(13) 0.03141(9) -0.15930(8)
C36 C 0.49383(15) 0.05400(11) -0.22297(8)
H26 H 0.52160 0.08020 -0.25890
C37 C 0.37011(16) 0.03692(13) -0.23214(10)
H27 H 0.31340 0.05240 -0.27450
C38 C 0.32980(17) -0.00271(13) -0.17947(11)
H28 H 0.24590 -0.01390 -0.18630
C39 C 0.41230(17) -0.02596(12) -0.11674(10)
H29 H 0.38430 -0.05310 -0.08130
C40 C 0.53713(15) -0.00918(10) -0.10610(8)
H30 H 0.59370 -0.02500 -0.06380
#END
