
#######################################################################
#
#                 Cambridge Crystallographic Data Centre
#                                CCDC
#
#######################################################################
#
# If this CIF has been generated from an entry in the Cambridge
# Structural Database, then it will include bibliographic, chemical,
# crystal, experimental, refinement or atomic coordinate data resulting
# from the CCDC's data processing and validation procedures.
#
#######################################################################

data_CSD_CIF_WADGEP
_audit_creation_date 2011-01-04
_audit_creation_method CSD-ConQuest-V1
_database_code_CSD WADGEP
_database_code_depnum_ccdc_archive 'CCDC 803208'
_chemical_formula_sum 'C22 H24 N6 O5'
_chemical_formula_moiety
;
C22 H24 N6 O5
;
_journal_coeditor_code "IUCr RZ2518"
_journal_coden_Cambridge 1370
_journal_volume 66
_journal_year 2010
_journal_page_first o3207
_journal_name_full 'Acta Crystallogr.,Sect.E:Struct.Rep.Online '
loop_
_publ_author_name
"Hong-Mei Wang"
"Shou-Heng Deng"
"Xiao-Hua Zeng"
"Ping Chen"
"Feng-Jun Cao"
_chemical_name_systematic
;
Ethyl 
1-benzyl-5-([(isopropylamino)(3-nitrophenoxy)methylidene]amino)-1H-1,2,3-triaz
ole-4-carboxylate
;
_cell_volume   2277.837
_exptl_crystal_colour 'colorless'
_exptl_crystal_density_diffrn 1.319
_exptl_crystal_description 'block'
_exptl_crystal_preparation 'ethanol/dichloromethane'
_diffrn_ambient_temperature 298
#These two values have been output from a single CSD field.
_refine_ls_R_factor_gt 0.0671
_refine_ls_wR_factor_gt 0.0671
_symmetry_cell_setting monoclinic
_symmetry_space_group_name_H-M 'P 21/n'
_symmetry_Int_Tables_number 14
loop_
_symmetry_equiv_pos_site_id
_symmetry_equiv_pos_as_xyz
1 x,y,z
2 1/2-x,1/2+y,1/2-z
3 -x,-y,-z
4 -1/2+x,-1/2-y,-1/2+z
_cell_length_a 11.5019(7)
_cell_length_b 14.5616(9)
_cell_length_c 14.1758(9)
_cell_angle_alpha 90
_cell_angle_beta 106.384(1)
_cell_angle_gamma 90
_cell_formula_units_Z 4
loop_
_atom_type_symbol
_atom_type_radius_bond
C 0.68
H 0.23
N 0.68
O 0.68
loop_
_atom_site_label
_atom_site_type_symbol
_atom_site_fract_x
_atom_site_fract_y
_atom_site_fract_z
C1 C 0.83494(16) 0.73129(13) 0.46761(13)
C2 C 0.92546(19) 0.79033(16) 0.45953(18)
H1 H 0.90530 0.84480 0.42450
C3 C 1.0448(2) 0.7693(2) 0.5027(2)
H2 H 1.10510 0.80960 0.49690
C4 C 1.0756(2) 0.6893(3) 0.5545(2)
H3 H 1.15650 0.67610 0.58550
C5 C 0.9865(3) 0.6285(2) 0.56061(19)
H4 H 1.00730 0.57310 0.59360
C6 C 0.8662(2) 0.64966(17) 0.51778(17)
H5 H 0.80610 0.60880 0.52270
C7 C 0.70362(17) 0.75548(14) 0.42216(15)
H6 H 0.68920 0.76430 0.35200
H7 H 0.65310 0.70500 0.43180
C8 C 0.67486(14) 0.92697(13) 0.43699(12)
C9 C 0.64906(14) 0.97754(13) 0.51172(12)
C10 C 0.65826(15) 1.07626(14) 0.52721(13)
C11 C 0.6438(2) 1.19830(17) 0.63312(18)
H8 H 0.58760 1.23470 0.58320
H9 H 0.72560 1.21780 0.63690
C12 C 0.6194(3) 1.2108(2) 0.7301(2)
H10 H 0.53980 1.18840 0.72640
H11 H 0.62440 1.27490 0.74680
H12 H 0.67840 1.17730 0.77950
C13 C 0.65271(15) 1.00782(13) 0.29254(12)
C14 C 0.48968(17) 1.11872(14) 0.21120(13)
H13 H 0.52740 1.11870 0.15720
C15 C 0.35540(19) 1.09763(18) 0.16922(17)
H14 H 0.34570 1.03710 0.14130
H15 H 0.31940 1.14170 0.11910
H16 H 0.31640 1.10080 0.22070
C16 C 0.5115(3) 1.21091(17) 0.26153(18)
H17 H 0.47590 1.21160 0.31520
H18 H 0.47540 1.25820 0.21530
H19 H 0.59710 1.22160 0.28610
C17 C 0.82682(16) 1.01845(14) 0.23484(13)
C18 C 0.85824(16) 0.97580(13) 0.15946(13)
H20 H 0.79970 0.95530 0.10380
C19 C 0.98042(18) 0.96439(14) 0.16946(15)
C20 C 1.06905(19) 0.99366(19) 0.25005(19)
H21 H 1.15050 0.98450 0.25490
C21 C 1.0339(2) 1.0371(2) 0.32389(19)
H22 H 1.09260 1.05800 0.37920
C22 C 0.9133(2) 1.04989(19) 0.31693(16)
H23 H 0.89030 1.07940 0.36700
N1 N 0.66986(13) 0.83894(11) 0.46539(11)
N2 N 0.64102(15) 0.83418(12) 0.55231(12)
N3 N 0.62788(13) 0.91804(12) 0.57907(11)
N4 N 0.70987(13) 0.94745(12) 0.35461(11)
N5 N 0.54469(13) 1.04458(12) 0.28047(11)
H24 H 0.5090(19) 1.0317(14) 0.3220(16)
N6 N 1.0155(2) 0.91968(15) 0.08856(18)
O1 O 0.69213(14) 1.12893(11) 0.47476(11)
O2 O 0.62878(12) 1.10169(9) 0.60849(10)
O3 O 0.70407(11) 1.03569(10) 0.22136(9)
O4 O 0.9375(2) 0.89508(16) 0.01765(16)
O5 O 1.1227(2) 0.91031(17) 0.09688(19)
#END
