
#######################################################################
#
#                 Cambridge Crystallographic Data Centre
#                                CCDC
#
#######################################################################
#
# If this CIF has been generated from an entry in the Cambridge
# Structural Database, then it will include bibliographic, chemical,
# crystal, experimental, refinement or atomic coordinate data resulting
# from the CCDC's data processing and validation procedures.
#
#######################################################################

data_CSD_CIF_WADNOG
_audit_creation_date 2011-01-04
_audit_creation_method CSD-ConQuest-V1
_database_code_CSD WADNOG
_database_code_depnum_ccdc_archive 'CCDC 803243'
_chemical_formula_sum 'C9 H8 N2 O3'
_chemical_formula_moiety
;
C9 H8 N2 O3
;
_journal_coeditor_code "IUCr RZ2524"
_journal_coden_Cambridge 1370
_journal_volume 66
_journal_year 2010
_journal_page_first o3252
_journal_name_full 'Acta Crystallogr.,Sect.E:Struct.Rep.Online '
loop_
_publ_author_name
"H.-K.Fun"
"J.H.Goh"
"Nithinchandra"
"B.Kalluraya"
_chemical_name_systematic
;
3-(4-methoxyphenyl)-1,2,3-oxadiazol-3-ium-5-olate
;
_chemical_name_common
;
3-(p-Anisyl)sydnone
;
_cell_volume    837.468
_exptl_crystal_colour 'yellow'
_exptl_crystal_density_diffrn 1.524
_exptl_crystal_description 'needle'
_exptl_crystal_preparation 'ethanol'
_diffrn_ambient_temperature 100
#These two values have been output from a single CSD field.
_refine_ls_R_factor_gt 0.0372
_refine_ls_wR_factor_gt 0.0372
_symmetry_cell_setting orthorhombic
_symmetry_space_group_name_H-M 'P 21 21 21'
_symmetry_Int_Tables_number 19
loop_
_symmetry_equiv_pos_site_id
_symmetry_equiv_pos_as_xyz
1 x,y,z
2 1/2-x,-y,1/2+z
3 -x,1/2+y,1/2-z
4 1/2+x,1/2-y,-z
_cell_length_a 7.0505(2)
_cell_length_b 9.8220(3)
_cell_length_c 12.0934(3)
_cell_angle_alpha 90
_cell_angle_beta 90
_cell_angle_gamma 90
_cell_formula_units_Z 4
loop_
_atom_type_symbol
_atom_type_radius_bond
C 0.68
H 0.23
N 0.68
O 0.68
loop_
_atom_site_label
_atom_site_type_symbol
_atom_site_fract_x
_atom_site_fract_y
_atom_site_fract_z
O1 O 0.08268(18) 0.95246(11) 0.72517(9)
O2 O 0.15734(19) 0.83477(13) 0.88211(9)
O3 O 0.12932(18) 0.57288(10) 0.18145(8)
N1 N 0.0695(2) 0.92968(13) 0.61277(11)
N2 N 0.11891(19) 0.80122(12) 0.60181(10)
C1 C 0.1632(2) 0.82919(14) 0.40336(11)
C2 C 0.1665(2) 0.77417(15) 0.29712(11)
C3 C 0.1284(2) 0.63583(15) 0.28173(12)
C4 C 0.0868(2) 0.55302(15) 0.37253(13)
C5 C 0.0829(2) 0.60641(15) 0.47811(12)
C6 C 0.1211(2) 0.74504(16) 0.49222(12)
C7 C 0.1622(2) 0.73661(15) 0.69641(12)
C8 C 0.1394(2) 0.83234(16) 0.78201(12)
C9 C 0.1403(3) 0.65840(16) 0.08473(12)
H1 H 0.192(3) 0.928(2) 0.4147(15)
H2 H 0.194(3) 0.831(2) 0.2340(16)
H3 H 0.070(3) 0.457(2) 0.3623(16)
H4 H 0.047(3) 0.5524(19) 0.5411(15)
H5 H 0.203(3) 0.641(2) 0.6995(17)
H6 H 0.124(3) 0.603(2) 0.0190(16)
H7 H 0.040(3) 0.723(2) 0.0852(16)
H8 H 0.262(4) 0.708(3) 0.0800(19)
#END
