
#######################################################################
#
#                 Cambridge Crystallographic Data Centre
#                                CCDC
#
#######################################################################
#
# If this CIF has been generated from an entry in the Cambridge
# Structural Database, then it will include bibliographic, chemical,
# crystal, experimental, refinement or atomic coordinate data resulting
# from the CCDC's data processing and validation procedures.
#
#######################################################################

data_CSD_CIF_WAFBAI
_audit_creation_date 2011-01-04
_audit_creation_method CSD-ConQuest-V1
_database_code_CSD WAFBAI
_database_code_depnum_ccdc_archive 'CCDC 803270'
_chemical_formula_sum 'C13 H9 N3 O2'
_chemical_formula_moiety
;
C13 H9 N3 O2
;
_journal_coeditor_code "IUCr DN2613"
_journal_coden_Cambridge 1370
_journal_volume 66
_journal_year 2010
_journal_page_first o3288
_journal_name_full 'Acta Crystallogr.,Sect.E:Struct.Rep.Online '
loop_
_publ_author_name
"Yong Wang"
"Kaiqing Fan"
"Chenghong Li"
"Changhua Ge"
_chemical_name_systematic
;
4-Anilino-3-nitrobenzonitrile
;
_cell_volume   1150.978
_exptl_crystal_colour 'colorless'
_exptl_crystal_density_diffrn 1.381
_exptl_crystal_description 'block'
_diffrn_ambient_temperature 293
#These two values have been output from a single CSD field.
_refine_ls_R_factor_gt 0.0403
_refine_ls_wR_factor_gt 0.0403
_symmetry_cell_setting monoclinic
_symmetry_space_group_name_H-M 'P 21/c'
_symmetry_Int_Tables_number 14
loop_
_symmetry_equiv_pos_site_id
_symmetry_equiv_pos_as_xyz
1 x,y,z
2 -x,1/2+y,1/2-z
3 -x,-y,-z
4 x,-1/2-y,-1/2+z
_cell_length_a 14.066(3)
_cell_length_b 7.4290(15)
_cell_length_c 11.652(2)
_cell_angle_alpha 90
_cell_angle_beta 109.04(3)
_cell_angle_gamma 90
_cell_formula_units_Z 4
loop_
_atom_type_symbol
_atom_type_radius_bond
C 0.68
H 0.23
N 0.68
O 0.68
loop_
_atom_site_label
_atom_site_type_symbol
_atom_site_fract_x
_atom_site_fract_y
_atom_site_fract_z
O1 O 0.91767(8) 0.4271(2) 0.39718(10)
O2 O 0.84253(9) 0.43363(19) 0.20463(10)
N1 N 0.82164(10) 0.5168(2) 0.54802(11)
H1 H 0.87740 0.48450 0.53880
N2 N 0.84229(10) 0.45587(19) 0.30832(11)
N3 N 0.43509(11) 0.6904(2) 0.03546(14)
C1 C 0.74708(13) 0.4539(2) 0.70743(15)
H2 H 0.69210 0.39790 0.65170
C2 C 0.75504(15) 0.4625(3) 0.82822(17)
H3 H 0.70420 0.41430 0.85350
C3 C 0.83667(16) 0.5411(3) 0.91186(16)
H4 H 0.84140 0.54510 0.99330
C4 C 0.91129(15) 0.6136(3) 0.87473(16)
H5 H 0.96710 0.66590 0.93140
C5 C 0.90432(12) 0.6097(3) 0.75389(14)
H6 H 0.95480 0.66050 0.72900
C6 C 0.82202(11) 0.5299(2) 0.67003(13)
C7 C 0.74482(11) 0.5487(2) 0.44502(13)
C8 C 0.65218(12) 0.6207(2) 0.44808(14)
H7 H 0.64470 0.64440 0.52300
C9 C 0.57426(12) 0.6561(2) 0.34586(14)
H8 H 0.51500 0.70390 0.35200
C10 C 0.58206(11) 0.6214(2) 0.23110(14)
C11 C 0.67092(11) 0.5533(2) 0.22313(13)
H9 H 0.67710 0.53000 0.14740
C12 C 0.75095(11) 0.5196(2) 0.32739(13)
C13 C 0.49993(12) 0.6596(2) 0.12224(15)
#END
