
#######################################################################
#
#                 Cambridge Crystallographic Data Centre
#                                CCDC
#
#######################################################################
#
# If this CIF has been generated from an entry in the Cambridge
# Structural Database, then it will include bibliographic, chemical,
# crystal, experimental, refinement or atomic coordinate data resulting
# from the CCDC's data processing and validation procedures.
#
#######################################################################

data_CSD_CIF_WAFDIQ01
_audit_creation_date 2011-12-21
_audit_creation_method CSD-ConQuest-V1
_database_code_CSD WAFDIQ01
_database_code_depnum_ccdc_archive 'CCDC 813074'
_chemical_formula_sum 'C13 H11 N1 O1'
_chemical_formula_moiety
;
C13 H11 N1 O1
;
_journal_coden_Cambridge 1078
_journal_year 2011
_journal_name_full 'CSD Communication(Private Communication) '
loop_
_publ_author_name
"M.Heinenberg"
"H.Ritter"
"D.Schollmeyer"
_chemical_name_systematic
;
N-Benzylidene-N-(oxido)-N-phenylamine
;
_chemical_name_common
;
Z-(C,N)-Diphenylnitrone
;
_cell_volume   1030.107
_exptl_crystal_colour 'colorless'
_exptl_crystal_density_diffrn 1.272
_exptl_special_details
;
contribution from Institut fuer Organische Chemie, Universitaet Mainz, 
Duesbergweg 10-14, 55099 Mainz, Germany
;
_exptl_crystal_description 'needle'
_diffrn_ambient_temperature 298
#These two values have been output from a single CSD field.
_refine_ls_R_factor_gt 0.0443
_refine_ls_wR_factor_gt 0.0443
_symmetry_cell_setting monoclinic
_symmetry_space_group_name_H-M 'P 21/c'
_symmetry_Int_Tables_number 14
loop_
_symmetry_equiv_pos_site_id
_symmetry_equiv_pos_as_xyz
1 x,y,z
2 -x,1/2+y,1/2-z
3 -x,-y,-z
4 x,-1/2-y,-1/2+z
_cell_length_a 5.6419(6)
_cell_length_b 13.1338(9)
_cell_length_c 14.0119(17)
_cell_angle_alpha 90
_cell_angle_beta 97.192(5)
_cell_angle_gamma 90
_cell_formula_units_Z 4
loop_
_atom_type_symbol
_atom_type_radius_bond
C 0.68
H 0.23
N 0.68
O 0.68
loop_
_atom_site_label
_atom_site_type_symbol
_atom_site_fract_x
_atom_site_fract_y
_atom_site_fract_z
C1 C 0.7930(3) 0.22490(12) 0.99493(11)
C2 C 0.6268(3) 0.24824(14) 1.05703(13)
H1 H 0.49430 0.20660 1.05940
C3 C 0.6583(4) 0.33318(16) 1.11514(15)
H2 H 0.54750 0.34790 1.15710
C4 C 0.8511(4) 0.39638(15) 1.11195(16)
H3 H 0.86800 0.45460 1.15000
C5 C 1.0189(4) 0.37324(15) 1.05222(16)
H4 H 1.15040 0.41560 1.05030
C6 C 0.9932(3) 0.28757(14) 0.99529(13)
H5 H 1.11020 0.27120 0.95660
C7 C 0.7809(3) 0.13797(13) 0.93095(12)
H6 H 0.92140 0.11890 0.90750
N1 N 0.5913(2) 0.08413(10) 0.90336(10)
O1 O 0.3805(2) 0.10397(10) 0.92558(10)
C8 C 0.6078(3) -0.00216(12) 0.83853(11)
C9 C 0.8074(3) -0.06355(13) 0.84558(12)
H7 H 0.93710 -0.05040 0.89170
C10 C 0.8123(4) -0.14490(14) 0.78323(14)
H8 H 0.94600 -0.18690 0.78750
C11 C 0.6196(4) -0.16411(15) 0.71467(14)
H9 H 0.62330 -0.21880 0.67270
C12 C 0.4219(4) -0.10183(16) 0.70877(14)
H10 H 0.29240 -0.11430 0.66230
C13 C 0.4143(3) -0.02112(14) 0.77117(13)
H11 H 0.27950 0.02010 0.76770
#END
