
#######################################################################
#
#                 Cambridge Crystallographic Data Centre
#                                CCDC
#
#######################################################################
#
# If this CIF has been generated from an entry in the Cambridge
# Structural Database, then it will include bibliographic, chemical,
# crystal, experimental, refinement or atomic coordinate data resulting
# from the CCDC's data processing and validation procedures.
#
#######################################################################

data_CSD_CIF_WAFQOM
_audit_creation_date 2016-02-22
_audit_creation_method CSD-ConQuest-V1
_database_code_CSD WAFQOM
_database_code_depnum_ccdc_archive 'CCDC 1443965'
_chemical_formula_sum 'C16 H17 N1 O4'
_chemical_formula_moiety
;
C16 H17 N1 O4
;
_journal_coden_Cambridge 35
_journal_volume 81
_journal_year 2016
_journal_page_first 1675
_journal_name_full 'J.Org.Chem. '
loop_
_publ_author_name
"Wei Yang"
"Jingyi Wang"
"Zhonglin Wei"
"Qian Zhang"
"Xianxiu Xu"
_chemical_name_systematic
;
4a-hydroxy-5-methoxy-8,9-dimethyl-1,4a,5,10b-tetrahydrophenanthridine-2,6-dion
e
;
_cell_volume    713.473
_exptl_crystal_colour 'colorless'
_exptl_crystal_density_diffrn 1.333
_exptl_crystal_description 'block'
_diffrn_ambient_temperature 296
#These two values have been output from a single CSD field.
_refine_ls_R_factor_gt 0.0499
_refine_ls_wR_factor_gt 0.0499
_symmetry_cell_setting triclinic
_symmetry_space_group_name_H-M 'P -1'
_symmetry_Int_Tables_number 2
loop_
_symmetry_equiv_pos_site_id
_symmetry_equiv_pos_as_xyz
1 x,y,z
2 -x,-y,-z
_cell_length_a 7.6471(8)
_cell_length_b 10.1457(11)
_cell_length_c 10.4036(11)
_cell_angle_alpha 108.059(2)
_cell_angle_beta 102.095(2)
_cell_angle_gamma 102.883(2)
_cell_formula_units_Z 2
loop_
_atom_type_symbol
_atom_type_radius_bond
C 0.68
H 0.23
N 0.68
O 0.68
loop_
_atom_site_label
_atom_site_type_symbol
_atom_site_fract_x
_atom_site_fract_y
_atom_site_fract_z
O1 O 0.2525(2) 0.22516(16) 0.56179(17)
O2 O -0.0506(2) 0.04463(15) 0.35854(16)
O3 O -0.2566(2) 0.07331(16) 0.57818(16)
O4 O -0.5849(2) 0.3279(2) 0.2689(2)
N1 N -0.0607(2) 0.17172(18) 0.45805(18)
C1 C 0.0462(4) 0.7335(3) 1.0121(3)
H1 H -0.08280 0.73170 0.99280
H2 H 0.12240 0.82320 1.01320
H3 H 0.08770 0.72630 1.10270
C2 C 0.0642(4) 0.6067(3) 0.8985(2)
C3 C 0.2387(3) 0.5826(2) 0.9003(2)
C4 C 0.2458(3) 0.4640(2) 0.7924(2)
H4 H 0.36050 0.44680 0.79360
C5 C 0.0856(3) 0.3707(2) 0.6825(2)
C6 C -0.0885(3) 0.3936(2) 0.6800(2)
C7 C -0.0955(3) 0.5120(2) 0.7887(2)
H5 H -0.21060 0.52820 0.78780
C8 C 0.4162(4) 0.6849(3) 1.0167(3)
H6 H 0.52130 0.65230 1.00120
H7 H 0.40330 0.68600 1.10680
H8 H 0.43660 0.78150 1.01580
C9 C 0.1034(3) 0.2493(2) 0.5666(2)
C10 C -0.0259(4) 0.0728(3) 0.2362(3)
H9 H -0.01930 -0.01340 0.16790
H10 H 0.08850 0.15080 0.26300
H11 H -0.13040 0.09990 0.19550
C11 C -0.2633(3) 0.2980(2) 0.5586(2)
H12 H -0.36900 0.28410 0.59760
C12 C -0.2452(3) 0.1481(2) 0.4855(2)
C13 C -0.3967(3) 0.0627(2) 0.3461(2)
H13 H -0.41780 -0.03730 0.30630
C14 C -0.5022(3) 0.1211(3) 0.2763(3)
H14 H -0.59570 0.06050 0.19200
C15 C -0.4759(3) 0.2776(3) 0.3276(3)
C16 C -0.3067(3) 0.3716(2) 0.4530(2)
H15 H -0.32800 0.46240 0.50100
H16 H -0.19840 0.39480 0.42000
#END
