
#######################################################################
#
#                 Cambridge Crystallographic Data Centre
#                                CCDC
#
#######################################################################
#
# If this CIF has been generated from an entry in the Cambridge
# Structural Database, then it will include bibliographic, chemical,
# crystal, experimental, refinement or atomic coordinate data resulting
# from the CCDC's data processing and validation procedures.
#
#######################################################################

data_CSD_CIF_WAFRUS
_audit_creation_date 2011-01-12
_audit_creation_method CSD-ConQuest-V1
_database_code_CSD WAFRUS
_database_code_depnum_ccdc_archive 'CCDC 803336'
_chemical_formula_sum 'C14 H17 N1 O3'
_chemical_formula_moiety
;
C14 H17 N1 O3
;
_journal_coeditor_code "IUCr NG5052"
_journal_coden_Cambridge 1370
_journal_volume 66
_journal_year 2010
_journal_page_first o3136
_journal_name_full 'Acta Crystallogr.,Sect.E:Struct.Rep.Online '
loop_
_publ_author_name
"I.Zenz"
"H.Mayr"
"P.Mayer"
_chemical_name_systematic
;
trans-2-(2-Nitro-1-phenylethyl)cyclohexanone
;
_chemical_name_common
;
2-(2-Nitro-1-phenylethyl)cyclohexanone
;
_chemical_melting_point 381.15
_cell_volume   1278.432
_exptl_crystal_colour 'colorless'
_exptl_crystal_density_diffrn 1.285
_exptl_crystal_description 'block'
_diffrn_ambient_temperature 173
#These two values have been output from a single CSD field.
_refine_ls_R_factor_gt 0.0361
_refine_ls_wR_factor_gt 0.0361
loop_
_citation_database_id_CSD
_citation_special_details
FEBJOM "is a stereoisomer of this entry"
_symmetry_cell_setting monoclinic
_symmetry_space_group_name_H-M 'P 21/c'
_symmetry_Int_Tables_number 14
loop_
_symmetry_equiv_pos_site_id
_symmetry_equiv_pos_as_xyz
1 x,y,z
2 -x,1/2+y,1/2-z
3 -x,-y,-z
4 x,-1/2-y,-1/2+z
_cell_length_a 13.4567(6)
_cell_length_b 8.3618(4)
_cell_length_c 11.3668(5)
_cell_angle_alpha 90
_cell_angle_beta 91.734(4)
_cell_angle_gamma 90
_cell_formula_units_Z 4
loop_
_atom_type_symbol
_atom_type_radius_bond
C 0.68
H 0.23
N 0.68
O 0.68
loop_
_atom_site_label
_atom_site_type_symbol
_atom_site_fract_x
_atom_site_fract_y
_atom_site_fract_z
O1 O 0.27791(8) 0.45264(12) 0.27671(8)
O2 O 0.30532(7) 0.25646(11) 0.39600(7)
O3 O 0.46549(7) -0.07785(11) 0.20442(8)
N1 N 0.30166(8) 0.31433(13) 0.29688(9)
C1 C 0.32921(9) 0.20990(14) 0.19718(10)
H1 H 0.40120 0.18540 0.20290
H2 H 0.31550 0.26610 0.12180
C2 C 0.26933(9) 0.05426(14) 0.20005(10)
H3 H 0.28170 0.00360 0.27880
C3 C 0.30432(9) -0.06309(14) 0.10615(10)
H4 H 0.29310 -0.01240 0.02720
C4 C 0.41304(9) -0.11083(15) 0.11829(11)
C5 C 0.44795(10) -0.21687(16) 0.02103(11)
H5 H 0.51970 -0.24030 0.03300
H6 H 0.43830 -0.16230 -0.05580
C6 C 0.38803(10) -0.37313(16) 0.02159(11)
H7 H 0.40680 -0.44060 -0.04580
H8 H 0.40370 -0.43300 0.09500
C7 C 0.27722(9) -0.33748(16) 0.01310(11)
H9 H 0.23970 -0.43860 0.02050
H10 H 0.26050 -0.29140 -0.06530
C8 C 0.24528(10) -0.22137(15) 0.10807(11)
H11 H 0.25510 -0.27240 0.18620
H12 H 0.17350 -0.19780 0.09660
C9 C 0.15860(9) 0.08735(14) 0.18614(10)
C10 C 0.11872(9) 0.16173(15) 0.08584(10)
H13 H 0.16180 0.19820 0.02680
C11 C 0.01755(10) 0.18327(17) 0.07092(12)
H14 H -0.00820 0.23490 0.00210
C12 C -0.0466(1) 0.13068(16) 0.15475(12)
H15 H -0.11630 0.14390 0.14340
C13 C -0.00848(11) 0.05889(17) 0.25497(13)
H16 H -0.05210 0.02310 0.31360
C14 C 0.09322(10) 0.03820(16) 0.27118(11)
H17 H 0.11860 -0.01030 0.34150
#END
