
#######################################################################
#
#                 Cambridge Crystallographic Data Centre
#                                CCDC
#
#######################################################################
#
# If this CIF has been generated from an entry in the Cambridge
# Structural Database, then it will include bibliographic, chemical,
# crystal, experimental, refinement or atomic coordinate data resulting
# from the CCDC's data processing and validation procedures.
#
#######################################################################

data_CSD_CIF_WAGBIR
_audit_creation_date 2011-01-20
_audit_creation_method CSD-ConQuest-V1
_database_code_CSD WAGBIR
_database_code_depnum_ccdc_archive 'CCDC 782392'
_chemical_formula_sum 'C12 H12 N4 O5'
_chemical_formula_moiety
;
C12 H12 N4 O5
;
_journal_coden_Cambridge 179
_journal_volume 49
_journal_year 2010
_journal_page_first 7963
_journal_name_full 'Angew.Chem.,Int.Ed. '
loop_
_publ_author_name
"E.Lourdusamy"
"Lin Yao"
"Cheol-Min Park"
_chemical_name_systematic
;
(Z)-ethyl 2-diazo-3-(methoxyimino)-3-(4-nitrophenyl)propanoate
;
_cell_volume    682.021
_exptl_crystal_colour 'yellow'
_exptl_crystal_density_diffrn 1.423
_exptl_crystal_description 'plate'
_diffrn_ambient_temperature 103
_refine_special_details
;
C11 and C11A disordered over two sites with occupancies 0.72:0.28.

;
#These two values have been output from a single CSD field.
_refine_ls_R_factor_gt 0.0458
_refine_ls_wR_factor_gt 0.0458
_symmetry_cell_setting triclinic
_symmetry_space_group_name_H-M 'P -1'
_symmetry_Int_Tables_number 2
loop_
_symmetry_equiv_pos_site_id
_symmetry_equiv_pos_as_xyz
1 x,y,z
2 -x,-y,-z
_cell_length_a 7.3700(2)
_cell_length_b 9.7037(3)
_cell_length_c 11.1102(5)
_cell_angle_alpha 111.933(2)
_cell_angle_beta 99.541(2)
_cell_angle_gamma 104.738(2)
_cell_formula_units_Z 2
loop_
_atom_type_symbol
_atom_type_radius_bond
C 0.68
H 0.23
N 0.68
O 0.68
loop_
_atom_site_label
_atom_site_type_symbol
_atom_site_fract_x
_atom_site_fract_y
_atom_site_fract_z
C1 C 0.69609(16) 0.39109(12) 0.48001(11)
C2 C 0.53241(16) 0.27121(13) 0.37677(12)
H1 H 0.47910 0.17420 0.38180
C3 C 0.44743(17) 0.29226(13) 0.26764(12)
H2 H 0.33840 0.20980 0.19620
C4 C 0.52485(16) 0.43656(13) 0.26460(11)
C5 C 0.68334(17) 0.55981(13) 0.36661(12)
H3 H 0.73100 0.65860 0.36340
C6 C 0.77054(16) 0.53506(12) 0.47342(12)
H4 H 0.88220 0.61680 0.54300
C7 C 0.79009(16) 0.36716(12) 0.59532(11)
C8 C 0.76067(16) 0.20559(13) 0.58187(11)
C9 C 0.77559(16) 0.06960(13) 0.47428(12)
C10 C 0.8452(2) -0.02194(15) 0.26325(13)
H5 H 0.72590 -0.11720 0.22640
H6 H 0.96010 -0.04980 0.29150
C11 C 0.8646(10) 0.0417(8) 0.1589(5)
H7 H 0.74060 0.05280 0.12400
H8 H 0.89630 -0.03170 0.08410
H9 H 0.96950 0.14540 0.20110
C12 C 1.11374(18) 0.60334(14) 0.91690(12)
H10 H 1.20240 0.66490 0.88400
H11 H 1.19050 0.57940 0.98240
H12 H 1.03700 0.66480 0.96090
N1 N 0.43184(15) 0.45993(12) 0.15005(10)
N2 N 0.89389(14) 0.49402(11) 0.70516(10)
N3 N 0.72173(15) 0.17432(11) 0.68376(10)
N4 N 0.68697(17) 0.14315(12) 0.76666(11)
O1 O 0.47781(14) 0.59527(11) 0.15917(10)
O2 O 0.31187(14) 0.34421(11) 0.05079(9)
O3 O 0.98387(12) 0.45840(9) 0.80481(8)
O4 O 0.82850(12) 0.10593(9) 0.37776(8)
O5 O 0.74356(13) -0.05977(10) 0.47422(9)
C13? C 0.910(5) 0.029(2) 0.1646(19)
H13? H 0.71620 -0.10820 0.21760
H14? H 0.93960 -0.06490 0.29740
H15? H 0.81190 0.06410 0.12540
H16? H 0.92490 -0.06010 0.09250
H17? H 1.03560 0.11620 0.20960
#END
