
#######################################################################
#
#                 Cambridge Crystallographic Data Centre
#                                CCDC
#
#######################################################################
#
# If this CIF has been generated from an entry in the Cambridge
# Structural Database, then it will include bibliographic, chemical,
# crystal, experimental, refinement or atomic coordinate data resulting
# from the CCDC's data processing and validation procedures.
#
#######################################################################

data_CSD_CIF_WAGLUO
_audit_creation_date 2016-02-22
_audit_creation_method CSD-ConQuest-V1
_database_code_CSD WAGLUO
_database_code_depnum_ccdc_archive 'CCDC 1431949'
_chemical_formula_sum 'C21 H15 N1 O6'
_chemical_formula_moiety
;
C21 H15 N1 O6
;
_journal_coden_Cambridge 1336
_journal_volume 18
_journal_year 2016
_journal_page_first 752
_journal_name_full 'Org.Lett. '
loop_
_publ_author_name
"P.R.Joshi"
"J.B.Nanubolu"
"R.S.Menon"
_chemical_name_systematic
;
methyl 4-((4-nitrobenzoyl)oxy)biphenyl-2-carboxylate
;
_cell_volume   1836.976
_exptl_crystal_density_diffrn 1.364
_exptl_crystal_description 'Needle'
_exptl_crystal_preparation 'ethanol'
_diffrn_ambient_temperature 293
#These two values have been output from a single CSD field.
_refine_ls_R_factor_gt 0.0678
_refine_ls_wR_factor_gt 0.0678
_symmetry_cell_setting monoclinic
_symmetry_space_group_name_H-M 'P 21'
_symmetry_Int_Tables_number 4
loop_
_symmetry_equiv_pos_site_id
_symmetry_equiv_pos_as_xyz
1 x,y,z
2 -x,1/2+y,-z
_cell_length_a 8.0698(9)
_cell_length_b 6.5112(7)
_cell_length_c 35.008(4)
_cell_angle_alpha 90
_cell_angle_beta 92.980(2)
_cell_angle_gamma 90
_cell_formula_units_Z 4
loop_
_atom_type_symbol
_atom_type_radius_bond
C 0.68
H 0.23
N 0.68
O 0.68
loop_
_atom_site_label
_atom_site_type_symbol
_atom_site_fract_x
_atom_site_fract_y
_atom_site_fract_z
C1 C 0.2936(5) 1.0272(9) 0.44283(13)
C2 C 0.1980(6) 0.9891(10) 0.47355(14)
H1 H 0.13550 0.86920 0.47410
C3 C 0.1937(8) 1.1264(12) 0.50341(17)
H2 H 0.12910 1.09930 0.52410
C4 C 0.2853(9) 1.3030(12) 0.50240(18)
H3 H 0.28150 1.39640 0.52240
C5 C 0.3822(8) 1.3446(11) 0.47253(18)
H4 H 0.44480 1.46450 0.47220
C6 C 0.3859(7) 1.2059(9) 0.44277(15)
H5 H 0.45170 1.23320 0.42230
C7 C 0.2947(5) 0.8796(8) 0.41060(13)
C8 C 0.1477(6) 0.8186(8) 0.39080(13)
C9 C 0.1506(6) 0.6699(9) 0.36252(14)
H6 H 0.05190 0.62590 0.35030
C10 C 0.2978(6) 0.5881(8) 0.35265(14)
C11 C 0.4451(6) 0.6498(9) 0.37056(14)
H7 H 0.54550 0.59610 0.36330
C12 C 0.4409(6) 0.7928(8) 0.39941(14)
H8 H 0.54020 0.83270 0.41190
C13 C -0.0165(6) 0.9133(10) 0.39777(14)
C14 C -0.1581(8) 1.2255(12) 0.4068(2)
H9 H -0.24800 1.19040 0.38900
H10 H -0.13770 1.37060 0.40570
H11 H -0.18660 1.18850 0.43220
C15 C 0.3748(6) 0.2795(9) 0.32110(16)
C16 C 0.3415(6) 0.1612(8) 0.28484(14)
C17 C 0.2539(6) 0.2421(8) 0.25359(14)
H12 H 0.21080 0.37420 0.25470
C18 C 0.2300(6) 0.1284(9) 0.22071(16)
H13 H 0.17280 0.18310 0.19930
C19 C 0.2922(6) -0.0675(9) 0.22018(15)
C20 C 0.3788(6) -0.1522(9) 0.25085(16)
H14 H 0.42070 -0.28500 0.24970
C21 C 0.4021(7) -0.0371(9) 0.28316(17)
H15 H 0.45960 -0.09260 0.30440
N1 N 0.2644(7) -0.1917(9) 0.18484(15)
O1 O -0.1401(5) 0.8161(8) 0.40235(14)
O2 O -0.0105(4) 1.1155(7) 0.39712(12)
O3 O 0.4684(6) 0.2233(7) 0.34641(11)
O4 O 0.2883(4) 0.4543(6) 0.32081(11)
O5 O 0.1616(7) -0.1304(8) 0.16110(13)
O6 O 0.3398(6) -0.3508(8) 0.18228(15)
C22 C 0.8136(6) 0.0026(9) 0.06356(13)
C23 C 0.9117(7) -0.1700(9) 0.06821(16)
H16 H 0.97350 -0.18900 0.09110
C24 C 0.9203(9) -0.3144(11) 0.0399(2)
H17 H 0.98680 -0.43000 0.04370
C25 C 0.8303(10) -0.2879(12) 0.0056(2)
H18 H 0.83660 -0.38420 -0.01390
C26 C 0.7318(9) -0.1184(13) 0.00072(17)
H19 H 0.66970 -0.10070 -0.02220
C27 C 0.7232(7) 0.0259(11) 0.02905(16)
H20 H 0.65590 0.14070 0.02510
C28 C 0.8059(6) 0.1587(8) 0.09401(13)
C29 C 0.9508(6) 0.2535(9) 0.10799(15)
H21 H 1.05190 0.20890 0.09940
C30 C 0.9492(6) 0.4112(9) 0.13410(15)
H22 H 1.04790 0.47240 0.14300
C31 C 0.7988(6) 0.4776(8) 0.14690(14)
C32 C 0.6537(6) 0.3865(8) 0.13387(13)
H23 H 0.55290 0.43430 0.14210
C33 C 0.6564(6) 0.2236(8) 0.10860(13)
C34 C 0.4947(6) 0.1224(9) 0.09752(13)
C35 C 0.3725(8) -0.1966(11) 0.08099(19)
H24 H 0.27020 -0.13610 0.08820
H25 H 0.37950 -0.33520 0.09030
H26 H 0.37610 -0.19670 0.05360
C36 C 0.8770(6) 0.6579(8) 0.20392(14)
C37 C 0.8398(6) 0.8501(8) 0.22542(14)
C38 C 0.9091(6) 0.8690(9) 0.26258(14)
H27 H 0.97500 0.76420 0.27320
C39 C 0.8804(6) 1.0404(9) 0.28332(14)
H28 H 0.92680 1.05410 0.30810
C40 C 0.7812(6) 1.1948(8) 0.26724(14)
C41 C 0.7116(6) 1.1765(8) 0.23051(14)
H29 H 0.64400 1.28020 0.22010
C42 C 0.7426(6) 1.0044(8) 0.20948(13)
H30 H 0.69820 0.99220 0.18450
N2 N 0.7517(6) 1.3805(8) 0.28935(13)
O7 O 0.3681(5) 0.2135(7) 0.09047(13)
O8 O 0.5102(4) -0.0792(6) 0.09734(11)
O9 O 0.9733(5) 0.5303(7) 0.21473(11)
O10 O 0.7864(4) 0.6488(6) 0.17069(10)
O11 O 0.6464(5) 1.4996(7) 0.27724(12)
O12 O 0.8355(6) 1.4079(8) 0.31854(13)
#END
