
#######################################################################
#
#                 Cambridge Crystallographic Data Centre
#                                CCDC
#
#######################################################################
#
# If this CIF has been generated from an entry in the Cambridge
# Structural Database, then it will include bibliographic, chemical,
# crystal, experimental, refinement or atomic coordinate data resulting
# from the CCDC's data processing and validation procedures.
#
#######################################################################

data_CSD_CIF_WAGZIO
_audit_creation_date 2005-02-22
_audit_creation_method CSD-ConQuest-V1
_database_code_CSD WAGZIO
_database_code_depnum_ccdc_archive 'CCDC 249137'
_chemical_formula_sum 'C20 H25 N1 O6'
_chemical_formula_moiety
;
C20 H25 N1 O6
;
_journal_coden_Cambridge 1336
_journal_volume 6
_journal_year 2004
_journal_page_first 3853
_journal_name_full 'Org.Lett. '
loop_
_publ_author_name
"L.E.Overman"
"E.J.Velthuisen"
_chemical_name_systematic
;
((rel-(2R,6R)-6-Methoxytetrahydropyran-2-yl)(cyclohex-1-enyl)-rel-(R)-methyl) 
4-nitrobenzoate
;
_cell_volume   1902.208
_exptl_crystal_colour 'pale yellow'
_exptl_crystal_density_diffrn 1.311
_exptl_crystal_description 'irregular'
_diffrn_ambient_temperature 163
#These two values have been output from a single CSD field.
_refine_ls_R_factor_gt 0.0509
_refine_ls_wR_factor_gt 0.0509
_symmetry_cell_setting monoclinic
_symmetry_space_group_name_H-M 'P 21/c'
_symmetry_Int_Tables_number 14
loop_
_symmetry_equiv_pos_site_id
_symmetry_equiv_pos_as_xyz
1 x,y,z
2 x,1/2-y,1/2+z
3 -x,-y,-z
4 -x,-1/2+y,-1/2-z
_cell_length_a 12.1406(18)
_cell_length_b 13.1539(19)
_cell_length_c 12.9650(19)
_cell_angle_alpha 90
_cell_angle_beta 113.258(2)
_cell_angle_gamma 90
_cell_formula_units_Z 4
loop_
_atom_type_symbol
_atom_type_radius_bond
C 0.68
H 0.23
N 0.68
O 0.68
loop_
_atom_site_label
_atom_site_type_symbol
_atom_site_fract_x
_atom_site_fract_y
_atom_site_fract_z
N1 N 0.9230(2) -0.22566(16) 0.22930(19)
O1 O 0.70253(15) 0.41999(12) 0.48551(13)
O2 O 0.58234(17) 0.50847(15) 0.32379(15)
O3 O 0.77990(15) 0.16689(12) 0.43424(13)
O4 O 0.82861(16) 0.06451(13) 0.58499(14)
O5 O 0.9676(2) -0.30500(16) 0.27608(18)
O6 O 0.9015(2) -0.20854(16) 0.13084(17)
C1 C 0.7365(2) 0.34152(18) 0.4266(2)
C2 C 0.8514(2) 0.3704(2) 0.4143(2)
C3 C 0.8342(3) 0.4703(2) 0.3503(2)
C4 C 0.7879(3) 0.5513(2) 0.4067(2)
C5 C 0.6804(3) 0.5148(2) 0.4275(2)
C6 C 0.4735(3) 0.4801(3) 0.3329(3)
C7 C 0.7421(2) 0.24502(18) 0.4932(2)
C8 C 0.6238(2) 0.21673(18) 0.4984(2)
C9 C 0.6110(2) 0.2352(2) 0.6043(2)
H1 H 0.63270 0.30690 0.62630
H2 H 0.66950 0.19190 0.66280
C10 C 0.4887(3) 0.2157(3) 0.6032(3)
H3 H 0.49810 0.19270 0.67890
H4 H 0.44400 0.28070 0.58800
C11 C 0.4182(4) 0.1422(5) 0.5231(4)
H5 H 0.33460 0.14800 0.51710
H6 H 0.44740 0.07390 0.55350
C12 C 0.4163(3) 0.1479(3) 0.4097(3)
H7 H 0.35660 0.19950 0.36620
H8 H 0.39020 0.08140 0.37210
C13 C 0.5350(3) 0.1746(2) 0.4080(2)
C14 C 0.8179(2) 0.07917(18) 0.48972(19)
C15 C 0.8452(2) 0.00197(17) 0.41892(19)
C16 C 0.8402(2) 0.02422(19) 0.3120(2)
C17 C 0.8647(2) -0.05020(19) 0.2490(2)
C18 C 0.8953(2) -0.14589(18) 0.2955(2)
C19 C 0.9023(2) -0.17040(19) 0.4017(2)
C20 C 0.8772(2) -0.09571(19) 0.4635(2)
H9 H 0.672(2) 0.3336(18) 0.356(2)
H10 H 0.875(3) 0.314(2) 0.379(2)
H11 H 0.914(2) 0.3758(19) 0.490(2)
H12 H 0.776(3) 0.459(2) 0.276(3)
H13 H 0.911(3) 0.489(2) 0.347(2)
H14 H 0.847(3) 0.570(2) 0.478(3)
H15 H 0.766(2) 0.615(2) 0.363(2)
H16 H 0.656(2) 0.563(2) 0.478(2)
H17 H 0.478(3) 0.407(3) 0.360(3)
H18 H 0.456(3) 0.534(3) 0.380(3)
H19 H 0.409(3) 0.480(3) 0.257(3)
H20 H 0.802(2) 0.2512(18) 0.568(2)
H21 H 0.546(3) 0.167(3) 0.342(3)
H22 H 0.823(2) 0.094(2) 0.282(2)
H23 H 0.864(3) -0.035(2) 0.176(3)
H24 H 0.922(2) -0.238(2) 0.431(2)
H25 H 0.880(2) -0.1122(19) 0.533(2)
#END
