
#######################################################################
#
#                 Cambridge Crystallographic Data Centre
#                                CCDC
#
#######################################################################
#
# If this CIF has been generated from an entry in the Cambridge
# Structural Database, then it will include bibliographic, chemical,
# crystal, experimental, refinement or atomic coordinate data resulting
# from the CCDC's data processing and validation procedures.
#
#######################################################################

data_CSD_CIF_WAGZOU
_audit_creation_date 2005-02-22
_audit_creation_method CSD-ConQuest-V1
_database_code_CSD WAGZOU
_database_code_depnum_ccdc_archive 'CCDC 243389'
_chemical_formula_sum 'C21 H23 N1 O4'
_chemical_formula_moiety
;
C21 H23 N1 O4
;
_journal_coden_Cambridge 1336
_journal_volume 6
_journal_year 2004
_journal_page_first 3771
_journal_name_full 'Org.Lett. '
loop_
_publ_author_name
"C.Blaszykowski"
"Y.Harrak"
"M.-H.Goncalves"
"J.-M.Cloarec"
"A.-L.Dhimane"
"L.Fensterbank"
"M.Malacria"
_chemical_name_systematic
;
cis-anti-cis-5,5,8-Trimethyltricyclo(5.4.0.0^1,8^)undeca-3,10-dien-11-yl 
4-nitrobenzoate
;
_chemical_melting_point 409.15
_cell_volume    920.429
_exptl_crystal_colour 'yellow'
_exptl_crystal_density_diffrn 1.275
_exptl_special_details
;
Melting point range 409.15-410.15K

;
_exptl_crystal_description 'box'
_diffrn_ambient_temperature 295
#These two values have been output from a single CSD field.
_refine_ls_R_factor_gt 0.0763
_refine_ls_wR_factor_gt 0.0763
_symmetry_cell_setting triclinic
_symmetry_space_group_name_H-M 'P -1'
_symmetry_Int_Tables_number 2
loop_
_symmetry_equiv_pos_site_id
_symmetry_equiv_pos_as_xyz
1 x,y,z
2 -x,-y,-z
_cell_length_a 7.318(1)
_cell_length_b 8.057(4)
_cell_length_c 16.548(4)
_cell_angle_alpha 93.40(3)
_cell_angle_beta 97.90(2)
_cell_angle_gamma 106.74(3)
_cell_formula_units_Z 2
loop_
_atom_type_symbol
_atom_type_radius_bond
C 0.68
H 0.23
N 0.68
O 0.68
loop_
_atom_site_label
_atom_site_type_symbol
_atom_site_fract_x
_atom_site_fract_y
_atom_site_fract_z
O1 O 0.2128(4) 0.9272(4) 0.62948(17)
O2 O 0.4036(5) 0.8391(6) 0.5529(2)
O3 O -0.5956(5) 0.4965(6) 0.3609(2)
O4 O -0.4268(6) 0.4214(7) 0.2789(2)
N1 N -0.4413(6) 0.4969(6) 0.3422(2)
C1 C 0.3562(6) 1.0183(6) 0.6926(2)
C2 C 0.5441(6) 1.0878(7) 0.6959(3)
C3 C 0.6340(6) 1.1871(7) 0.7781(3)
C4 C 0.2579(6) 0.9268(6) 0.9102(2)
C5 C 0.0836(6) 0.7639(6) 0.8900(2)
C6 C -0.0629(6) 0.7716(6) 0.8183(3)
C7 C -0.0649(6) 0.8935(7) 0.7682(3)
C8 C 0.0862(6) 1.0691(7) 0.7685(3)
C9 C 0.2474(6) 0.8449(6) 0.5633(3)
C10 C 0.0645(6) 0.7594(6) 0.5041(2)
C11 C 0.0754(7) 0.6667(7) 0.4342(3)
C12 C -0.0895(6) 0.5785(7) 0.3804(2)
C13 C -0.2641(6) 0.5907(6) 0.3978(2)
C14 C 0.4670(6) 1.1602(6) 0.8278(3)
C15 C 0.3737(6) 0.9724(6) 0.8417(2)
C16 C 0.1503(8) 0.6041(7) 0.8731(3)
C17 C -0.0207(9) 0.7377(7) 0.9655(3)
C18 C 0.2860(6) 1.0501(6) 0.7699(3)
C19 C -0.1121(6) 0.7708(6) 0.5214(2)
C20 C -0.2786(6) 0.6838(7) 0.4676(3)
C21 C 0.4732(7) 1.3115(7) 0.8866(3)
H1 H 0.60980 1.07490 0.64920
H2 H 0.69640 1.31360 0.77200
H3 H 0.73830 1.13860 0.80460
H4 H 0.48030 1.41600 0.85700
H5 H 0.59800 1.33670 0.92830
H6 H 0.36220 1.28230 0.91560
H7 H 0.42770 0.87380 0.84920
H8 H 0.21330 1.02820 0.92670
H9 H 0.34850 0.90810 0.95890
H10 H 0.03270 0.49970 0.86020
H11 H 0.23350 0.58880 0.92400
H12 H 0.22330 0.61850 0.82700
H13 H -0.12990 0.62890 0.95630
H14 H -0.05690 0.83870 0.98340
H15 H 0.07870 0.71840 1.01490
H16 H -0.17790 0.66320 0.80480
H17 H -0.17810 0.86490 0.72300
H18 H 0.04900 1.12280 0.71820
H19 H 0.08200 1.14480 0.81840
H20 H 0.20320 0.66170 0.42070
H21 H -0.08140 0.50410 0.33100
H22 H -0.40820 0.69620 0.47860
H23 H -0.11930 0.84500 0.57040
#END
