
#######################################################################
#
#                 Cambridge Crystallographic Data Centre
#                                CCDC
#
#######################################################################
#
# If this CIF has been generated from an entry in the Cambridge
# Structural Database, then it will include bibliographic, chemical,
# crystal, experimental, refinement or atomic coordinate data resulting
# from the CCDC's data processing and validation procedures.
#
#######################################################################

data_CSD_CIF_WAHLEW
_audit_creation_date 1993-10-19
_audit_creation_method CSD-ConQuest-V1
_database_code_CSD WAHLEW
_chemical_formula_sum 'C14 H18 N2 O3'
_chemical_formula_moiety
;
C14 H18 N2 O3
;
_journal_coden_Cambridge 35
_journal_volume 58
_journal_year 1993
_journal_page_first 1967
_journal_name_full 'J.Org.Chem. '
loop_
_publ_author_name
"F.Fulop"
"K.Pihlaja"
"K.Neuvonen"
"G.Bernath"
"G.Argay"
"A.Kalman"
_chemical_name_systematic
;
3-Methyl-2-(p-nitrophenyl)perhydrobenzoxazolidine
;
_cell_volume   1361.641
_exptl_crystal_density_diffrn 1.28
_diffrn_ambient_temperature ?
_diffrn_special_details
;
The study was carried out at room temperature,in the range 283-303K

;
#These two values have been output from a single CSD field.
_refine_ls_R_factor_gt 0.051
_refine_ls_wR_factor_gt 0.051
loop_
_citation_database_id_CSD
_citation_special_details
WAHLIA "is a stereoisomer of this entry"
_symmetry_cell_setting orthorhombic
_symmetry_space_group_name_H-M 'P 21 21 21'
_symmetry_Int_Tables_number 19
loop_
_symmetry_equiv_pos_site_id
_symmetry_equiv_pos_as_xyz
1 x,y,z
2 1/2+x,1/2-y,-z
3 -x,1/2+y,1/2-z
4 1/2-x,-y,1/2+z
_cell_length_a 5.504(1)
_cell_length_b 15.364(1)
_cell_length_c 16.102(2)
_cell_angle_alpha 90
_cell_angle_beta 90
_cell_angle_gamma 90
_cell_formula_units_Z 4
loop_
_atom_type_symbol
_atom_type_radius_bond
C 0.68
H 0.23
N 0.68
O 0.68
loop_
_atom_site_label
_atom_site_type_symbol
_atom_site_fract_x
_atom_site_fract_y
_atom_site_fract_z
O1 O 0.2310(7) -0.0794(1) 0.0650(1)
C1 C 0.1119(8) -0.0741(2) -0.0136(2)
N1 N 0.1574(6) 0.0134(2) -0.0442(1)
C2 C 0.1778(8) 0.0638(2) 0.0315(2)
C3 C 0.2878(11) 0.1536(2) 0.0279(3)
C4 C 0.3145(12) 0.1860(3) 0.1174(3)
C5 C 0.4497(10) 0.1226(3) 0.1730(3)
C6 C 0.3438(11) 0.0315(3) 0.1709(2)
C7 C 0.3339(8) 0.0049(2) 0.0805(2)
C8 C -0.0302(10) 0.0423(3) -0.1030(2)
C9 C 0.2078(7) -0.1438(2) -0.0716(2)
C10 C 0.0934(8) -0.2224(2) -0.0782(2)
C11 C 0.1805(9) -0.2871(2) -0.1303(2)
C12 C 0.3891(8) -0.2709(2) -0.1739(2)
C13 C 0.5091(8) -0.1936(3) -0.1690(2)
C14 C 0.4190(8) -0.1296(2) -0.1181(2)
N2 N 0.4824(9) -0.3387(2) -0.2310(2)
O2 O 0.6732(8) -0.3229(2) -0.2672(2)
O3 O 0.3677(7) -0.4049(2) -0.2383(2)
H1 H -0.05800 -0.08400 -0.00900
H2 H 0.02100 0.07900 0.05200
H3 H 0.18400 0.19200 -0.00300
H4 H 0.44200 0.15100 0.00100
H5 H 0.15800 0.19600 0.13200
H6 H 0.40300 0.23900 0.11600
H7 H 0.43900 0.14400 0.22900
H8 H 0.61400 0.12000 0.15700
H9 H 0.18400 0.03100 0.19400
H10 H 0.44400 -0.00700 0.20200
H11 H 0.50100 0.00600 0.06500
H12 H 0.00600 0.09900 -0.12100
H13 H -0.18400 0.04200 -0.07600
H14 H -0.03300 0.00400 -0.14900
H15 H -0.04900 -0.23300 -0.04600
H16 H 0.09800 -0.34100 -0.13600
H17 H 0.65300 -0.18400 -0.20000
H18 H 0.50100 -0.07500 -0.11400
#END
