
#######################################################################
#
#                 Cambridge Crystallographic Data Centre
#                                CCDC
#
#######################################################################
#
# If this CIF has been generated from an entry in the Cambridge
# Structural Database, then it will include bibliographic, chemical,
# crystal, experimental, refinement or atomic coordinate data resulting
# from the CCDC's data processing and validation procedures.
#
#######################################################################

data_CSD_CIF_WAHLIA
_audit_creation_date 1993-10-19
_audit_creation_method CSD-ConQuest-V1
_database_code_CSD WAHLIA
_chemical_formula_sum 'C14 H18 N2 O3'
_chemical_formula_moiety
;
C14 H18 N2 O3
;
_journal_coden_Cambridge 35
_journal_volume 58
_journal_year 1993
_journal_page_first 1967
_journal_name_full 'J.Org.Chem. '
loop_
_publ_author_name
"F.Fulop"
"K.Pihlaja"
"K.Neuvonen"
"G.Bernath"
"G.Argay"
"A.Kalman"
_chemical_name_systematic
;
3-Methyl-2-(p-nitrophenyl)perhydrobenzoxazolidine
;
_cell_volume   1361.276
_exptl_crystal_density_diffrn 1.28
_diffrn_ambient_temperature ?
_diffrn_special_details
;
The study was carried out at room temperature,in the range 283-303K

;
#These two values have been output from a single CSD field.
_refine_ls_R_factor_gt 0.03
_refine_ls_wR_factor_gt 0.03
loop_
_citation_database_id_CSD
_citation_special_details
WAHLEW "is a stereoisomer of this entry"
_symmetry_cell_setting orthorhombic
_symmetry_space_group_name_H-M 'P 21 21 21'
_symmetry_Int_Tables_number 19
loop_
_symmetry_equiv_pos_site_id
_symmetry_equiv_pos_as_xyz
1 x,y,z
2 1/2+x,1/2-y,-z
3 -x,1/2+y,1/2-z
4 1/2-x,-y,1/2+z
_cell_length_a 6.206(1)
_cell_length_b 14.106(1)
_cell_length_c 15.550(2)
_cell_angle_alpha 90
_cell_angle_beta 90
_cell_angle_gamma 90
_cell_formula_units_Z 4
loop_
_atom_type_symbol
_atom_type_radius_bond
C 0.68
H 0.23
N 0.68
O 0.68
loop_
_atom_site_label
_atom_site_type_symbol
_atom_site_fract_x
_atom_site_fract_y
_atom_site_fract_z
O1 O 0.5182(3) 0.3414(1) 0.8463(1)
C1 C 0.6273(5) 0.2525(2) 0.8406(1)
N1 N 0.6113(3) 0.2259(1) 0.7508(1)
C2 C 0.6459(5) 0.3166(2) 0.7081(2)
C3 C 0.6035(7) 0.3166(2) 0.6116(2)
C4 C 0.3664(7) 0.3148(2) 0.5887(2)
C5 C 0.2454(6) 0.3922(2) 0.6358(2)
C6 C 0.2659(5) 0.3779(2) 0.7321(2)
C7 C 0.5002(5) 0.3797(1) 0.7598(1)
C8 C 0.7653(6) 0.1518(2) 0.7279(3)
C9 C 0.5252(4) 0.1820(1) 0.9007(1)
C10 C 0.6285(5) 0.1558(2) 0.9755(1)
C11 C 0.5347(5) 0.0923(2) 1.0319(1)
C12 C 0.3359(5) 0.0567(1) 1.0124(1)
C13 C 0.2288(5) 0.0806(2) 0.9382(2)
C14 C 0.3239(5) 0.1440(2) 0.8828(2)
N2 N 0.2368(5) -0.0120(1) 1.0721(1)
O2 O 0.0587(5) -0.0425(1) 1.0532(1)
O3 O 0.3316(4) -0.0326(1) 1.1372(1)
H1 H 0.77400 0.25500 0.85800
H2 H 0.79200 0.33700 0.70800
H3 H 0.67000 0.26200 0.58700
H4 H 0.66600 0.37200 0.58800
H5 H 0.30800 0.25500 0.60400
H6 H 0.35100 0.32400 0.52900
H7 H 0.09800 0.39000 0.62000
H8 H 0.30400 0.45200 0.62100
H9 H 0.20500 0.31800 0.74700
H10 H 0.19000 0.42700 0.76100
H11 H 0.54200 0.44400 0.75300
H12 H 0.75000 0.13600 0.66900
H13 H 0.73900 0.09700 0.76200
H14 H 0.90800 0.17400 0.73800
H15 H 0.76600 0.18200 0.98800
H16 H 0.60700 0.07400 1.08300
H17 H 0.09200 0.05400 0.92500
H18 H 0.25100 0.16200 0.83200
#END
