
#######################################################################
#
#                 Cambridge Crystallographic Data Centre
#                                CCDC
#
#######################################################################
#
# If this CIF has been generated from an entry in the Cambridge
# Structural Database, then it will include bibliographic, chemical,
# crystal, experimental, refinement or atomic coordinate data resulting
# from the CCDC's data processing and validation procedures.
#
#######################################################################

data_CSD_CIF_WAHPUR
_audit_creation_date 2005-02-22
_audit_creation_method CSD-ConQuest-V1
_database_code_CSD WAHPUR
_database_code_depnum_ccdc_archive 'CCDC 240836'
_chemical_formula_sum 'C22 H26 N4 O7'
_chemical_formula_moiety
;
C22 H26 N4 O7
;
_journal_coden_Cambridge 182
_journal_year 2004
_journal_page_first 2308
_journal_name_full 'Chem.Commun. '
loop_
_publ_author_name
"P.Chiu"
"Sze Kar Leung"
_chemical_name_systematic
;
7-Hydroxy-8-(1-(2,4-dinitrophenylhydrazono)ethyl)-4-methylbicyclo[5.3.0]deca-3
,8-diene-1-carboxylic acid ethyl ester
;
_chemical_melting_point 401.15
_cell_volume   1140.922
_exptl_crystal_colour 'colorless'
_exptl_crystal_density_diffrn 1.335
_exptl_crystal_description 'prism'
_exptl_crystal_preparation 'hexane/ethyl acetate'
_diffrn_ambient_temperature 301
#These two values have been output from a single CSD field.
_refine_ls_R_factor_gt 0.0556
_refine_ls_wR_factor_gt 0.0556
_symmetry_cell_setting triclinic
_symmetry_space_group_name_H-M 'P -1'
_symmetry_Int_Tables_number 2
loop_
_symmetry_equiv_pos_site_id
_symmetry_equiv_pos_as_xyz
1 x,y,z
2 -x,-y,-z
_cell_length_a 7.4600(15)
_cell_length_b 8.6090(17)
_cell_length_c 18.302(4)
_cell_angle_alpha 77.02(3)
_cell_angle_beta 85.05(3)
_cell_angle_gamma 89.89(3)
_cell_formula_units_Z 2
loop_
_atom_type_symbol
_atom_type_radius_bond
C 0.68
H 0.23
N 0.68
O 0.68
loop_
_atom_site_label
_atom_site_type_symbol
_atom_site_fract_x
_atom_site_fract_y
_atom_site_fract_z
O1 O 0.8055(2) 0.0745(2) 0.78985(12)
O2 O 0.7075(3) -0.1895(3) 0.70663(15)
O3 O 0.9879(3) -0.0876(2) 0.68060(14)
O4 O 0.1391(3) 0.1166(4) 1.04543(15)
O5 O 0.1243(3) 0.2749(3) 1.12170(15)
O6 O 0.6600(4) 0.4871(3) 1.19128(16)
O7 O 0.8764(4) 0.5533(3) 1.10442(17)
N1 N 0.2086(4) 0.2122(4) 1.07632(16)
N2 N 0.7368(5) 0.4800(3) 1.13084(19)
N3 N 0.4115(4) 0.1565(3) 0.94289(15)
N4 N 0.4984(3) 0.1519(3) 0.87425(13)
C1 C 0.6959(3) 0.1574(3) 0.73338(15)
C2 C 0.7439(4) 0.0953(3) 0.65996(16)
C3 C 0.8861(4) 0.1981(3) 0.60366(17)
H1 H 0.98750 0.21480 0.63100
H2 H 0.92880 0.13730 0.56720
C4 C 0.8292(4) 0.3578(4) 0.56135(17)
H3 H 0.87550 0.38590 0.51120
C5 C 0.7235(4) 0.4658(4) 0.58368(17)
C6 C 0.6369(4) 0.4478(3) 0.66222(17)
H4 H 0.51420 0.40950 0.66350
H5 H 0.63110 0.55250 0.67370
C7 C 0.7294(4) 0.3361(3) 0.72432(16)
H6 H 0.69110 0.36350 0.77180
H7 H 0.85800 0.35670 0.71490
C8 C 0.4976(3) 0.1125(3) 0.75239(16)
C9 C 0.4269(4) 0.0804(4) 0.69330(18)
H8 H 0.30550 0.05620 0.69310
C10 C 0.5599(4) 0.0867(4) 0.62729(18)
H9 H 0.54290 0.18010 0.58770
H10 H 0.55030 -0.00800 0.60730
C11 C 0.6799(5) 0.6174(4) 0.5304(2)
H11 H 0.60230 0.67990 0.55660
H12 H 0.62040 0.59290 0.48980
H13 H 0.78900 0.67660 0.51060
C12 C 0.4023(3) 0.1138(3) 0.82508(17)
C13 C 0.8067(5) -0.0766(4) 0.68505(18)
C14 C 1.0612(6) -0.2441(5) 0.7040(3)
H14 H 1.14450 -0.24240 0.74170
H15 H 0.96450 -0.31930 0.72680
C15 C 1.1504(9) -0.2945(6) 0.6435(3)
H16 H 1.19740 -0.39890 0.66100
H17 H 1.24750 -0.22140 0.62150
H18 H 1.06770 -0.29800 0.60650
C16 C 0.2062(4) 0.0730(4) 0.8399(2)
H19 H 0.16580 0.07960 0.89030
H20 H 0.18600 -0.03340 0.83400
H21 H 0.14050 0.14660 0.80490
C17 C 0.4913(4) 0.2254(3) 0.99105(16)
C18 C 0.3987(4) 0.2539(4) 1.05749(17)
C19 C 0.4795(5) 0.3321(4) 1.10458(18)
H22 H 0.41700 0.34810 1.14840
C20 C 0.6540(5) 0.3857(4) 1.08521(18)
C21 C 0.7519(4) 0.3598(4) 1.02115(18)
H23 H 0.87040 0.39650 1.00930
C22 C 0.6718(4) 0.2796(4) 0.97547(17)
H24 H 0.73830 0.26050 0.93310
H25 H 0.763(8) 0.111(7) 0.840(3)
H26 H 0.301(5) 0.131(4) 0.9600(19)
#END
