
#######################################################################
#
#                 Cambridge Crystallographic Data Centre
#                                CCDC
#
#######################################################################
#
# If this CIF has been generated from an entry in the Cambridge
# Structural Database, then it will include bibliographic, chemical,
# crystal, experimental, refinement or atomic coordinate data resulting
# from the CCDC's data processing and validation procedures.
#
#######################################################################

data_CSD_CIF_WAHQAY
_audit_creation_date 2005-02-22
_audit_creation_method CSD-ConQuest-V1
_database_code_CSD WAHQAY
_database_code_depnum_ccdc_archive 'CCDC 240930'
_chemical_formula_sum 'C32 H46 N3 O4'
_chemical_formula_moiety
;
C32 H46 N3 O4
;
_journal_coden_Cambridge 182
_journal_year 2004
_journal_page_first 2310
_journal_name_full 'Chem.Commun. '
loop_
_publ_author_name
"M.Fujino"
"T.Amano"
"H.Akutsu"
"J.Yamada"
"S.Nakatsuji"
_chemical_name_systematic
;
11-(Azobenzene-4-yloxy)undecyl 
2,2,5,5-tetramethylpyrrolidine-1-oxyl-3-carboxylate radical
;
_cell_volume   1539.324
_exptl_crystal_colour 'orange'
_exptl_crystal_density_diffrn 1.158
_exptl_crystal_description 'plate'
_exptl_crystal_preparation 'hexane/methanol'
_diffrn_ambient_temperature 296.2
#These two values have been output from a single CSD field.
_refine_ls_R_factor_gt 0.0813
_refine_ls_wR_factor_gt 0.0813
_symmetry_cell_setting triclinic
_symmetry_space_group_name_H-M 'P -1'
_symmetry_Int_Tables_number 2
loop_
_symmetry_equiv_pos_site_id
_symmetry_equiv_pos_as_xyz
1 x,y,z
2 -x,-y,-z
_cell_length_a 6.6750(7)
_cell_length_b 11.850(2)
_cell_length_c 20.811(2)
_cell_angle_alpha 75.756(8)
_cell_angle_beta 81.813(3)
_cell_angle_gamma 75.557(2)
_cell_formula_units_Z 2
loop_
_atom_type_symbol
_atom_type_radius_bond
C 0.68
H 0.23
N 0.68
O 0.68
loop_
_atom_site_label
_atom_site_type_symbol
_atom_site_fract_x
_atom_site_fract_y
_atom_site_fract_z
O1 O -0.2842(8) 1.4156(5) 0.5693(3)
O2 O 1.6177(8) 0.8067(5) 0.2230(2)
O3 O 1.9157(9) 0.7273(6) 0.2663(3)
O4 O 2.127(1) 0.8253(5) -0.0038(3)
N1 N -1.0175(11) 1.6669(6) 0.7360(3)
N2 N -0.8414(11) 1.6182(6) 0.7536(3)
N3 N 2.0827(9) 0.7697(6) 0.0559(3)
C1 C -1.445(2) 1.8146(9) 0.8769(7)
C2 C -1.237(2) 1.7849(9) 0.8858(5)
C3 C -1.5084(15) 1.798(1) 0.8208(7)
C4 C -1.0953(14) 1.7384(7) 0.8419(5)
C5 C -1.3610(15) 1.7535(9) 0.7754(5)
C6 C -1.1562(14) 1.7203(7) 0.7854(4)
C7 C -0.7070(13) 1.5661(7) 0.7039(4)
C8 C -0.5109(13) 1.5095(7) 0.7222(4)
C9 C -0.7604(12) 1.5705(7) 0.6414(4)
C10 C -0.3617(12) 1.4577(7) 0.6796(3)
C11 C -0.6123(12) 1.5215(7) 0.5974(4)
C12 C -0.4108(12) 1.4625(7) 0.6178(4)
C13 C -0.0765(11) 1.3585(7) 0.5833(4)
C14 C 0.0332(11) 1.3161(7) 0.5222(3)
C15 C 0.2600(11) 1.2572(6) 0.5260(4)
C16 C 0.3533(11) 1.2158(7) 0.4641(3)
C17 C 0.5810(11) 1.1555(7) 0.4649(3)
C18 C 0.6723(11) 1.1141(8) 0.4014(4)
C19 C 0.9027(11) 1.0566(7) 0.4002(4)
C20 C 0.9912(11) 1.0091(7) 0.3395(4)
C21 C 1.2225(12) 0.9537(7) 0.3393(4)
C22 C 1.3173(12) 0.9055(8) 0.2776(4)
C23 C 1.5387(13) 0.8442(9) 0.2843(4)
C24 C 1.8143(14) 0.7487(8) 0.2218(4)
C25 C 1.8913(11) 0.7173(7) 0.1555(4)
C26 C 2.0974(11) 0.6320(7) 0.1546(3)
C27 C 2.1821(13) 0.6444(7) 0.0832(4)
C28 C 1.9204(11) 0.8268(7) 0.1007(3)
C29 C 2.4144(12) 0.626(1) 0.0718(5)
C30 C 2.1144(15) 0.5698(9) 0.0468(5)
C31 C 2.0048(13) 0.9177(7) 0.1236(4)
C32 C 1.7251(11) 0.8906(7) 0.0648(3)
H1 H -1.559(2) 1.8572(9) 0.9057(7)
H2 H -1.195(2) 1.8031(9) 0.9309(5)
H3 H -1.6708(15) 1.820(1) 0.8125(7)
H4 H -0.9362(14) 1.7164(7) 0.8512(5)
H5 H -1.4167(15) 1.7403(9) 0.7319(5)
H6 H -0.4759(13) 1.5086(7) 0.7675(4)
H7 H -0.9111(12) 1.6190(7) 0.6277(4)
H8 H -0.2228(12) 1.4094(7) 0.6940(3)
H9 H -0.6537(12) 1.5222(7) 0.5539(4)
H10 H 0.0137(11) 1.4011(7) 0.5981(4)
H11 H -0.0542(11) 1.2802(7) 0.6195(4)
H12 H -0.0342(11) 1.2695(7) 0.5052(3)
H13 H 0.0244(11) 1.3929(7) 0.4827(3)
H14 H 0.3340(11) 1.3154(6) 0.5371(4)
H15 H 0.2716(11) 1.1943(6) 0.5672(4)
H16 H 0.2748(11) 1.1654(7) 0.4573(3)
H17 H 0.3315(11) 1.2879(7) 0.4265(3)
H18 H 0.6600(11) 1.2125(7) 0.4735(3)
H19 H 0.6035(11) 1.0898(7) 0.5035(3)
H20 H 0.6077(11) 1.0599(8) 0.3945(4)
H21 H 0.6590(11) 1.1837(8) 0.3638(4)
H22 H 0.9888(11) 1.1137(7) 0.4013(4)
H23 H 0.9373(11) 0.9919(7) 0.4375(4)
H24 H 0.9201(11) 0.9467(7) 0.3357(4)
H25 H 0.9626(11) 1.0702(7) 0.2986(4)
H26 H 1.2894(12) 1.0203(7) 0.3404(4)
H27 H 1.2468(12) 0.8971(7) 0.3779(4)
H28 H 1.2237(12) 0.8556(8) 0.2699(4)
H29 H 1.3009(12) 0.9711(8) 0.2363(4)
H30 H 1.5289(13) 0.7746(9) 0.3267(4)
H31 H 1.6005(13) 0.8941(9) 0.3020(4)
H32 H 1.7829(11) 0.6812(7) 0.1371(4)
H33 H 2.1857(11) 0.6448(7) 0.1846(3)
H34 H 2.0932(11) 0.5441(7) 0.1734(3)
H35 H 2.4690(12) 0.621(1) 0.1125(5)
H36 H 2.4722(12) 0.555(1) 0.0564(5)
H37 H 2.4487(12) 0.692(1) 0.0395(5)
H38 H 2.0473(15) 0.5145(9) 0.0778(5)
H39 H 2.0211(15) 0.6179(9) 0.0151(5)
H40 H 2.2330(15) 0.5275(9) 0.0246(5)
H41 H 1.9937(13) 0.9036(7) 0.1747(4)
H42 H 2.1555(13) 0.9050(7) 0.1132(4)
H43 H 1.9494(13) 1.0014(7) 0.1102(4)
H44 H 1.5937(11) 0.9250(7) 0.0893(3)
H45 H 1.7396(11) 0.9515(7) 0.0251(3)
H46 H 1.6727(11) 0.8303(7) 0.0462(3)
#END
