
#######################################################################
#
#                 Cambridge Crystallographic Data Centre
#                                CCDC
#
#######################################################################
#
# If this CIF has been generated from an entry in the Cambridge
# Structural Database, then it will include bibliographic, chemical,
# crystal, experimental, refinement or atomic coordinate data resulting
# from the CCDC's data processing and validation procedures.
#
#######################################################################

data_CSD_CIF_WAHYAI
_audit_creation_date 2016-02-23
_audit_creation_method CSD-ConQuest-V1
_database_code_CSD WAHYAI
_database_code_depnum_ccdc_archive 'CCDC 1430960'
_chemical_formula_sum 'C18 H23 N3 O4'
_chemical_formula_moiety
;
C18 H23 N3 O4
;
_journal_coden_Cambridge 1268
_journal_volume 20
_journal_year 2015
_journal_page_first 21433
_journal_name_full 'Molecules '
loop_
_publ_author_name
"M.J.OConnor"
"Huaqing Liu"
"Daesung Lee"
"Tao Zhou"
"Yuanzhi Xia"
_chemical_name_systematic
;
3-pentyl-3,3a,4,5,6,6a-hexahydrocyclopenta[c]pyrazol-6-yl 4-nitrobenzoate
;
_cell_volume   1774.906
_exptl_crystal_colour 'colorless'
_exptl_crystal_density_diffrn 1.293
_exptl_crystal_description 'rod'
_diffrn_ambient_temperature 100
#These two values have been output from a single CSD field.
_refine_ls_R_factor_gt 0.0378
_refine_ls_wR_factor_gt 0.0378
_symmetry_cell_setting triclinic
_symmetry_space_group_name_H-M 'P -1'
_symmetry_Int_Tables_number 2
loop_
_symmetry_equiv_pos_site_id
_symmetry_equiv_pos_as_xyz
1 x,y,z
2 -x,-y,-z
_cell_length_a 6.7889(2)
_cell_length_b 15.1416(4)
_cell_length_c 17.9178(4)
_cell_angle_alpha 80.906(1)
_cell_angle_beta 79.686(1)
_cell_angle_gamma 81.295(1)
_cell_formula_units_Z 4
loop_
_atom_type_symbol
_atom_type_radius_bond
C 0.68
H 0.23
N 0.68
O 0.68
loop_
_atom_site_label
_atom_site_type_symbol
_atom_site_fract_x
_atom_site_fract_y
_atom_site_fract_z
O1 O 0.8164(3) -0.20372(11) 0.29773(10)
O2 O 0.5276(2) -0.15654(10) 0.36134(10)
O3 O 1.25578(17) 0.12192(7) 0.41624(6)
O4 O 0.94280(16) 0.18114(7) 0.46526(6)
N1 N 0.7074(3) -0.15209(10) 0.33823(10)
N2 N 1.1275(2) 0.46696(9) 0.40832(7)
N3 N 1.1987(2) 0.38581(9) 0.41030(7)
C1 C 0.8005(3) -0.08022(11) 0.36089(9)
C2 C 1.0049(3) -0.07783(11) 0.33874(9)
H1 H 1.08260 -0.11980 0.30940
C3 C 1.0920(3) -0.01143(11) 0.36124(9)
H2 H 1.22970 -0.00840 0.34700
C4 C 0.9726(2) 0.0511(1) 0.40535(8)
C5 C 0.7661(2) 0.04790(11) 0.42542(9)
H3 H 0.68700 0.09050 0.45390
C6 C 0.6776(3) -0.01826(11) 0.40335(9)
H4 H 0.53970 -0.02100 0.41660
C7 C 1.0754(2) 0.12048(10) 0.42869(8)
C8 C 1.0264(3) 0.25821(11) 0.48212(8)
H5 H 1.15650 0.24060 0.50030
C9 C 0.8690(3) 0.30392(12) 0.53941(9)
H6 H 0.92850 0.34330 0.56440
H7 H 0.80690 0.25970 0.57810
C10 C 0.7143(3) 0.35803(12) 0.49222(9)
H8 H 0.64450 0.40940 0.51660
H9 H 0.61560 0.32070 0.48600
C11 C 0.8389(2) 0.3894(1) 0.41407(8)
H10 H 0.76860 0.38410 0.37200
C12 C 0.9072(2) 0.48287(10) 0.40460(8)
H11 H 0.83640 0.51470 0.44720
C13 C 1.0401(2) 0.3272(1) 0.40978(8)
H12 H 1.06740 0.29750 0.36350
C14 C 0.8747(2) 0.54106(11) 0.32887(8)
H13 H 0.95190 0.59160 0.32120
H14 H 0.92510 0.50560 0.28730
C15 C 0.6538(2) 0.57672(11) 0.32634(9)
H15 H 0.60830 0.61810 0.36390
H16 H 0.57450 0.52670 0.34050
C16 C 0.6157(2) 0.62504(11) 0.24809(8)
H17 H 0.70390 0.67160 0.23180
H18 H 0.64940 0.58230 0.21130
C17 C 0.3983(3) 0.66764(12) 0.24797(10)
H19 H 0.31120 0.62040 0.26010
H20 H 0.36120 0.70650 0.28780
C18 C 0.3624(3) 0.72241(13) 0.17209(11)
H21 H 0.44220 0.77150 0.16110
H22 H 0.22210 0.74580 0.17490
H23 H 0.40030 0.68460 0.13220
O5 O 1.51124(18) -0.10931(8) 0.01918(7)
O6 O 1.30010(19) -0.17664(9) -0.02159(7)
O7 O 0.51174(17) 0.03840(8) 0.21268(7)
O8 O 0.72564(15) 0.13474(7) 0.22288(6)
N4 N 1.3394(2) -0.12448(9) 0.01808(7)
N5 N 0.20926(19) 0.36898(9) 0.21950(7)
N6 N 0.24274(18) 0.28508(9) 0.22537(7)
C19 C 1.1703(2) -0.07752(10) 0.06702(8)
C20 C 1.2117(2) -0.01099(10) 0.10462(9)
H24 H 1.34270 0.00260 0.10040
C21 C 1.0514(2) 0.03492(10) 0.14891(8)
H25 H 1.07380 0.08090 0.17390
C22 C 0.8580(2) 0.01204(10) 0.15574(8)
C23 C 0.8231(2) -0.05719(10) 0.11893(9)
H26 H 0.69380 -0.07340 0.12520
C24 C 0.9803(2) -0.10197(10) 0.07299(9)
H27 H 0.95810 -0.14720 0.04700
C25 C 0.6790(2) 0.06138(10) 0.20021(8)
C26 C 0.5548(2) 0.19377(10) 0.25799(8)
H28 H 0.45890 0.16010 0.29490
C27 C 0.6415(2) 0.26028(10) 0.29393(8)
H29 H 0.75020 0.23020 0.32090
H30 H 0.53830 0.29050 0.32950
C28 C 0.7201(2) 0.32722(11) 0.22568(8)
H31 H 0.85300 0.30400 0.20130
H32 H 0.72750 0.38470 0.24180
C29 C 0.5644(2) 0.3374(1) 0.17080(8)
H33 H 0.63120 0.34130 0.11740
C30 C 0.3894(2) 0.41391(10) 0.18150(8)
H34 H 0.41970 0.45300 0.21560
C31 C 0.4556(2) 0.25271(10) 0.19377(8)
H35 H 0.46230 0.22020 0.15000
C32 C 0.3444(2) 0.47123(10) 0.10679(8)
H36 H 0.45280 0.50790 0.08750
H37 H 0.34530 0.43120 0.06950
C33 C 0.1446(2) 0.53325(10) 0.11248(8)
H38 H 0.03430 0.49690 0.12720
H39 H 0.13800 0.57080 0.15220
C34 C 0.1188(2) 0.59331(10) 0.03734(8)
H40 H 0.13630 0.55560 -0.00300
H41 H 0.22430 0.63230 0.02470
C35 C -0.0852(2) 0.65152(11) 0.03887(9)
H42 H -0.19120 0.61280 0.05210
H43 H -0.10200 0.69020 0.07840
C36 C -0.1083(3) 0.70977(11) -0.03721(9)
H44 H -0.00550 0.74920 -0.05020
H45 H -0.23880 0.74500 -0.03300
H46 H -0.09520 0.67180 -0.07640
#END
