
#######################################################################
#
#                 Cambridge Crystallographic Data Centre
#                                CCDC
#
#######################################################################
#
# If this CIF has been generated from an entry in the Cambridge
# Structural Database, then it will include bibliographic, chemical,
# crystal, experimental, refinement or atomic coordinate data resulting
# from the CCDC's data processing and validation procedures.
#
#######################################################################

data_CSD_CIF_WAHYIP
_audit_creation_date 2011-02-04
_audit_creation_method CSD-ConQuest-V1
_database_code_CSD WAHYIP
_database_code_depnum_ccdc_archive 'CCDC 721140'
_chemical_formula_sum 'C15 H7 N5 O5'
_chemical_formula_moiety
;
C15 H7 N5 O5
;
_journal_coden_Cambridge 1078
_journal_year 2009
_journal_name_full 'CSD Communication(Private Communication) '
loop_
_publ_author_name
"I.Maley"
"K.Ejsmont"
"W.H.Watson"
_chemical_name_systematic
;
2-(((5-Nitro-2-furyl)methylene)amino)-2H-naphtho[2,3-d][1,2,3]triazole-4,9-dio
ne
;
_cell_volume    701.482
_exptl_crystal_density_diffrn 1.597
_exptl_special_details
;
contribution from Texas Christian University,2800 S. University Dr., Fort 
Worth, Texas 76109, USA
;
_diffrn_ambient_temperature 213
#These two values have been output from a single CSD field.
_refine_ls_R_factor_gt 0.0604
_refine_ls_wR_factor_gt 0.0604
_symmetry_cell_setting triclinic
_symmetry_space_group_name_H-M 'P -1'
_symmetry_Int_Tables_number 2
loop_
_symmetry_equiv_pos_site_id
_symmetry_equiv_pos_as_xyz
1 x,y,z
2 -x,-y,-z
_cell_length_a 8.0731(13)
_cell_length_b 8.4860(14)
_cell_length_c 11.0043(18)
_cell_angle_alpha 97.005(3)
_cell_angle_beta 93.084(3)
_cell_angle_gamma 109.555(3)
_cell_formula_units_Z 2
loop_
_atom_type_symbol
_atom_type_radius_bond
C 0.68
H 0.23
N 0.68
O 0.68
loop_
_atom_site_label
_atom_site_type_symbol
_atom_site_fract_x
_atom_site_fract_y
_atom_site_fract_z
C1 C 0.8014(5) 0.2690(4) -0.0173(3)
C2 C 0.8279(6) 0.3642(5) -0.1226(4)
C3 C 0.6689(5) 0.3999(5) -0.1682(3)
C4 C 0.6817(5) 0.4889(5) -0.2666(4)
H1 H 0.78950 0.52760 -0.30100
C5 C 0.5359(6) 0.5215(5) -0.3147(4)
H2 H 0.54560 0.58270 -0.38130
C6 C 0.3759(6) 0.4640(5) -0.2649(4)
H3 H 0.27670 0.48450 -0.29830
C7 C 0.3634(5) 0.3763(5) -0.1659(4)
H4 H 0.25530 0.33880 -0.13160
C8 C 0.5067(5) 0.3429(5) -0.1163(4)
C9 C 0.4855(5) 0.2497(5) -0.0090(4)
C10 C 0.6444(5) 0.2193(5) 0.0355(3)
C11 C 1.0508(5) 0.0745(5) 0.2069(3)
H5 H 1.11640 0.13530 0.14920
C12 C 1.1320(5) -0.0037(5) 0.2889(3)
C13 C 1.3025(5) -0.0017(5) 0.3043(4)
H6 H 1.39750 0.05500 0.26190
C14 C 1.3059(6) -0.1021(5) 0.3966(4)
H7 H 1.40340 -0.12710 0.42780
C15 C 1.1403(6) -0.1552(5) 0.4311(4)
N1 N 0.9195(4) 0.2174(4) 0.0412(3)
N2 N 0.8274(4) 0.1402(4) 0.1272(3)
N3 N 0.8884(4) 0.0611(4) 0.2125(3)
N4 N 0.6615(4) 0.1368(4) 0.1293(3)
N5 N 1.0669(6) -0.2650(5) 0.5172(3)
O1 O 0.9683(3) 0.4092(3) -0.1679(2)
O2 O 0.3458(3) 0.1990(3) 0.0366(2)
O3 O 1.0306(3) -0.0990(3) 0.3679(2)
O4 O 0.9089(5) -0.2943(4) 0.5306(3)
O5 O 1.1648(5) -0.3196(4) 0.5722(3)
#END
