
#######################################################################
#
#                 Cambridge Crystallographic Data Centre
#                                CCDC
#
#######################################################################
#
# If this CIF has been generated from an entry in the Cambridge
# Structural Database, then it will include bibliographic, chemical,
# crystal, experimental, refinement or atomic coordinate data resulting
# from the CCDC's data processing and validation procedures.
#
#######################################################################

data_CSD_CIF_WAHZUA
_audit_creation_date 1993-12-06
_audit_creation_method CSD-ConQuest-V1
_database_code_CSD WAHZUA
_chemical_formula_sum 'C13 H11 N1 O2'
_chemical_formula_moiety
;
C13 H11 N1 O2
;
_journal_coden_Cambridge 582
_journal_volume 23
_journal_year 1993
_journal_page_first 113
_journal_name_full 'J.Crystallogr.Spectrosc.Res. '
loop_
_publ_author_name
"M.Kubicki"
"T.Borowiak"
"H.Chruscicki"
"W.Z.Antkowiak"
_chemical_name_systematic
;
5-Hydroxy-9,10-dihydro-4-azaphenanthrene-4-oxide
;
_chemical_melting_point 373.15
_cell_volume   3059.111
_exptl_crystal_colour 'colorless'
_exptl_crystal_density_diffrn 1.39
_diffrn_ambient_temperature ?
_diffrn_special_details
;
The study was carried out at room temperature,in the range 283-303K

;
#These two values have been output from a single CSD field.
_refine_ls_R_factor_gt 0.045
_refine_ls_wR_factor_gt 0.045
_symmetry_cell_setting monoclinic
_symmetry_space_group_name_H-M 'P 21/a'
_symmetry_Int_Tables_number 14
loop_
_symmetry_equiv_pos_site_id
_symmetry_equiv_pos_as_xyz
1 x,y,z
2 1/2-x,1/2+y,-z
3 -x,-y,-z
4 -1/2+x,-1/2-y,z
_cell_length_a 13.634(1)
_cell_length_b 11.812(1)
_cell_length_c 19.105(1)
_cell_angle_alpha 90
_cell_angle_beta 96.14(1)
_cell_angle_gamma 90
_cell_formula_units_Z 12
loop_
_atom_type_symbol
_atom_type_radius_bond
C 0.68
H 0.23
N 0.68
O 0.68
loop_
_atom_site_label
_atom_site_type_symbol
_atom_site_fract_x
_atom_site_fract_y
_atom_site_fract_z
C1 C 0.1951(3) 0.2102(3) 0.3732(2)
C2 C 0.1103(3) 0.2435(3) 0.4004(2)
C3 C 0.0209(3) 0.2201(3) 0.3653(2)
N1 N 0.0140(2) 0.1616(2) 0.3020(2)
O1 O -0.0779(2) 0.1469(2) 0.2667(1)
C4 C 0.0995(2) 0.1210(2) 0.2750(2)
C5 C 0.0973(2) 0.0573(2) 0.2086(1)
C6 C 0.0243(2) -0.0175(2) 0.1849(2)
O2 O -0.0486(2) -0.0433(2) 0.2235(1)
C7 C 0.0241(3) -0.0713(3) 0.1232(2)
C8 C 0.0996(3) -0.0570(3) 0.0823(2)
C9 C 0.1783(3) 0.0100(3) 0.1065(2)
C10 C 0.1783(2) 0.0665(3) 0.1698(2)
C11 C 0.2663(3) 0.1337(3) 0.2003(2)
C12 C 0.2814(3) 0.1138(3) 0.2792(2)
C13 C 0.1906(2) 0.1493(2) 0.3113(2)
C14 C 0.2007(3) 0.2224(3) 0.7058(2)
C15 C 0.2852(3) 0.2704(3) 0.7399(2)
C16 C 0.3732(3) 0.2559(3) 0.7155(2)
N2 N 0.3808(2) 0.1916(2) 0.6564(2)
O3 O 0.4731(2) 0.1703(2) 0.6394(1)
C17 C 0.2978(2) 0.1465(3) 0.6177(2)
C18 C 0.3037(2) 0.0796(3) 0.5534(2)
C19 C 0.3743(3) 0.0933(3) 0.5070(2)
O4 O 0.4374(2) 0.1813(2) 0.5122(1)
C20 C 0.3789(4) 0.0224(4) 0.4507(2)
C21 C 0.3099(4) -0.0602(4) 0.4373(2)
C22 C 0.2340(4) -0.0720(3) 0.4789(2)
C23 C 0.2301(3) -0.0031(3) 0.5373(2)
C24 C 0.1477(3) -0.0115(4) 0.5830(2)
C25 C 0.1195(3) 0.1045(4) 0.6074(2)
C26 C 0.2071(2) 0.1611(3) 0.6453(2)
C27 C 0.3262(4) -0.0413(3) 0.7961(2)
C28 C 0.4017(4) -0.0453(4) 0.7547(2)
C29 C 0.4848(4) 0.0152(4) 0.7737(2)
N3 N 0.4949(2) 0.0774(3) 0.8343(2)
O5 O 0.5751(2) 0.1437(2) 0.8454(1)
C30 C 0.4232(2) 0.0763(2) 0.8801(2)
C31 C 0.4342(2) 0.1370(2) 0.9479(2)
C32 C 0.5232(3) 0.1553(3) 0.9899(2)
O6 O 0.6106(2) 0.1185(2) 0.9723(2)
C33 C 0.5247(3) 0.2099(3) 1.0539(2)
C34 C 0.4393(4) 0.2434(3) 1.0781(2)
C35 C 0.3491(3) 0.2251(3) 1.0383(2)
C36 C 0.3460(2) 0.1712(3) 0.9747(2)
C37 C 0.2493(3) 0.1444(3) 0.9333(2)
C38 C 0.2530(3) 0.0259(3) 0.9039(2)
C39 C 0.3355(3) 0.0175(3) 0.8582(2)
H1 H 0.112(2) 0.285(3) 0.440(1)
H2 H -0.044(2) 0.245(3) 0.384(2)
H3 H 0.256(2) 0.224(2) 0.393(1)
H4 H -0.072(3) 0.041(3) 0.236(2)
H5 H -0.026(2) -0.122(3) 0.114(2)
H6 H 0.097(2) -0.095(3) 0.036(2)
H7 H 0.235(2) 0.020(2) 0.083(1)
H8 H 0.324(2) 0.109(2) 0.179(2)
H9 H 0.250(2) 0.217(3) 0.193(2)
H10 H 0.299(2) 0.028(2) 0.290(1)
H11 H 0.337(2) 0.155(2) 0.301(1)
H12 H 0.282(2) 0.316(2) 0.781(1)
H13 H 0.437(2) 0.288(3) 0.737(2)
H14 H 0.138(2) 0.229(3) 0.725(2)
H15? H 0.460(3) 0.186(3) 0.572(2)
H16 H 0.439(3) 0.035(3) 0.421(2)
H17 H 0.308(3) -0.108(3) 0.398(2)
H18 H 0.175(2) -0.125(3) 0.467(2)
H19 H 0.175(2) -0.061(3) 0.629(2)
H20 H 0.091(3) -0.046(3) 0.557(2)
H21 H 0.063(2) 0.102(2) 0.639(2)
H22 H 0.094(2) 0.141(3) 0.564(2)
H23 H 0.397(2) -0.078(3) 0.709(2)
H24 H 0.543(2) 0.028(3) 0.745(2)
H25 H 0.268(3) -0.078(3) 0.782(2)
H26 H 0.605(3) 0.125(3) 0.928(2)
H27 H 0.591(2) 0.218(3) 1.079(2)
H28 H 0.437(2) 0.282(3) 1.119(2)
H29 H 0.283(2) 0.243(2) 1.056(1)
H30 H 0.192(2) 0.153(2) 0.966(2)
H31 H 0.236(2) 0.195(2) 0.896(1)
H32 H 0.197(2) 0.007(3) 0.877(2)
H33 H 0.266(2) -0.033(3) 0.944(2)
#END
