
#######################################################################
#
#                 Cambridge Crystallographic Data Centre
#                                CCDC
#
#######################################################################
#
# If this CIF has been generated from an entry in the Cambridge
# Structural Database, then it will include bibliographic, chemical,
# crystal, experimental, refinement or atomic coordinate data resulting
# from the CCDC's data processing and validation procedures.
#
#######################################################################

data_CSD_CIF_WAJGAS
_audit_creation_date 2016-02-23
_audit_creation_method CSD-ConQuest-V1
_database_code_CSD WAJGAS
_database_code_depnum_ccdc_archive 'CCDC 1424617'
_chemical_formula_sum 'C19 H14 N8 O5'
_chemical_formula_moiety
;
C19 H14 N8 O5
;
_journal_coden_Cambridge 119
_journal_volume 1114
_journal_year 2016
_journal_page_first 108
_journal_name_full 'J.Mol.Struct. '
loop_
_publ_author_name
"K.Wajda-Hermanowicz"
"D.Pieniazczak"
"R.Wrobel"
"A.Zatajska"
"Z.Ciunik"
"S.Berski"
_chemical_name_systematic
;
(2,4-dinitrophenyl)((3,5-bis(pyridin-2-yl)-4H-1,2,4-triazol-4-yl)amino)methano
l
;
_cell_volume   1812.643
_exptl_crystal_colour 'colorless'
_exptl_crystal_density_diffrn 1.592
_exptl_crystal_description 'needle'
_diffrn_ambient_temperature 100
#These two values have been output from a single CSD field.
_refine_ls_R_factor_gt 0.0679
_refine_ls_wR_factor_gt 0.0679
_symmetry_cell_setting triclinic
_symmetry_space_group_name_H-M 'P -1'
_symmetry_Int_Tables_number 2
loop_
_symmetry_equiv_pos_site_id
_symmetry_equiv_pos_as_xyz
1 x,y,z
2 -x,-y,-z
_cell_length_a 10.414(4)
_cell_length_b 10.596(4)
_cell_length_c 18.168(6)
_cell_angle_alpha 105.31(3)
_cell_angle_beta 94.61(3)
_cell_angle_gamma 107.79(3)
_cell_formula_units_Z 4
loop_
_atom_type_symbol
_atom_type_radius_bond
C 0.68
H 0.23
N 0.68
O 0.68
loop_
_atom_site_label
_atom_site_type_symbol
_atom_site_fract_x
_atom_site_fract_y
_atom_site_fract_z
O1 O 0.5264(2) 0.59297(19) 0.40833(10)
O2 O 0.8477(2) 0.9404(2) 0.46005(10)
N1 N 0.3546(2) 0.7381(2) 0.37163(10)
N2 N 0.4450(2) 0.7879(2) 0.44355(11)
O3 O 0.6513(2) 0.8850(2) 0.80677(10)
N3 N 0.7376(2) 0.9275(2) 0.76950(11)
N4 N 0.8136(2) 0.9965(2) 0.51962(12)
N5 N 0.2612(2) 0.7192(2) 0.25529(11)
N6 N 0.2246(2) 0.5825(2) 0.47207(11)
N7 N 0.1757(2) 0.6155(2) 0.27923(11)
C1 C 0.2345(3) 0.6275(3) 0.34901(13)
N8 N 0.4982(2) 0.9143(2) 0.23464(11)
C2 C 0.3679(3) 0.7932(3) 0.31124(12)
C3 C 0.7038(3) 0.8744(3) 0.68423(13)
C4 C 0.6295(3) 0.7824(3) 0.52382(13)
C5 C 0.5634(3) 0.7376(3) 0.43875(13)
H1 H 0.62790 0.78520 0.40870
C6 C 0.5669(3) 0.7016(3) 0.56966(13)
H2 H 0.49760 0.61390 0.54520
O4 O 0.8412(2) 1.1227(2) 0.54655(12)
C7 C 0.0916(3) 0.3982(3) 0.35819(14)
H3 H 0.06090 0.36650 0.30370
O5 O 0.8510(2) 1.0145(2) 0.79839(11)
C8 C 0.1812(3) 0.5328(3) 0.39477(13)
C9 C 0.7347(3) 0.9066(3) 0.56223(13)
C10 C 0.7730(3) 0.9561(3) 0.64241(13)
H4 H 0.84380 1.04250 0.66730
C11 C 0.6036(3) 0.7468(3) 0.64984(13)
H5 H 0.56070 0.69100 0.68020
C12 C 0.6796(3) 1.1165(3) 0.36355(15)
H6 H 0.74070 1.18610 0.40730
C13 C 0.5697(3) 1.0120(3) 0.37293(13)
H7 H 0.55340 1.00900 0.42330
C14 C 0.1808(3) 0.4963(3) 0.51415(14)
H8 H 0.21180 0.53010 0.56860
C15 C 0.4835(3) 0.9115(3) 0.30707(13)
C16 C 0.0927(3) 0.3609(3) 0.48233(15)
H9 H 0.06330 0.30310 0.51410
C17 C 0.6046(3) 1.0170(3) 0.22725(15)
H10 H 0.61620 1.02120 0.17650
C18 C 0.6981(3) 1.1170(3) 0.28917(15)
H11 H 0.77430 1.18530 0.28080
C19 C 0.0484(3) 0.3117(3) 0.40294(16)
H12 H -0.01150 0.21870 0.37930
H13 H 0.520(3) 0.571(3) 0.360(2)
H14 H 0.398(3) 0.757(3) 0.4737(18)
O6 O 0.17798(18) 0.6367(2) 0.09514(9)
N9 N 0.3269(2) 0.5041(2) 0.05582(11)
O7 O 0.3252(2) 0.6046(2) -0.29283(10)
N10 N 0.0852(2) 0.2730(2) 0.02485(11)
N11 N 0.3326(2) 0.4717(2) 0.12704(10)
N12 N 0.4089(2) 0.4723(2) 0.24327(11)
N13 N 0.2805(2) 0.3724(2) 0.21798(11)
N14 N 0.2289(2) 0.5427(2) -0.26677(11)
N15 N 0.5068(2) 0.8009(2) -0.01087(12)
C20 C 0.2354(3) 0.3733(3) 0.14811(12)
O8 O 0.6127(2) 0.7887(2) -0.03149(11)
O9 O 0.1250(2) 0.4521(2) -0.30613(10)
C21 C 0.1051(3) 0.2775(3) 0.10012(13)
C22 C 0.3641(3) 0.6727(3) -0.13689(13)
H15 H 0.43700 0.71710 -0.15960
N16 N 0.6468(2) 0.6978(2) 0.26406(11)
C23 C 0.2723(3) 0.6323(3) -0.02154(12)
C24 C 0.1491(3) 0.5444(3) -0.06947(13)
H16 H 0.07520 0.50120 -0.04700
C25 C 0.2952(3) 0.6338(3) 0.06310(13)
H17 H 0.37580 0.71650 0.09360
O10 O 0.5011(2) 0.8928(2) 0.04466(11)
C26 C 0.1311(3) 0.5182(3) -0.14961(13)
H18 H 0.04560 0.45960 -0.18150
C27 C 0.6235(3) 0.6602(3) 0.12621(13)
H19 H 0.56990 0.61200 0.07600
C28 C 0.2406(3) 0.5795(3) -0.18170(13)
C29 C 0.7526(3) 0.7579(3) 0.13589(14)
H20 H 0.78890 0.77850 0.09240
C30 C 0.3763(3) 0.6980(3) -0.05719(13)
C31 C 0.5742(3) 0.6342(3) 0.19162(13)
C32 C 0.4403(3) 0.5297(3) 0.18743(12)
C33 C 0.0085(3) 0.1921(3) 0.13113(14)
H21 H 0.02540 0.19700 0.18420
C34 C -0.0334(3) 0.1829(3) -0.02060(15)
H22 H -0.04860 0.17940 -0.07350
C35 C -0.1121(3) 0.1004(3) 0.08328(15)
H23 H -0.17950 0.04140 0.10300
C36 C -0.1335(3) 0.0955(3) 0.00579(16)
H24 H -0.21550 0.03320 -0.02820
C37 C 0.8275(3) 0.8247(3) 0.21010(15)
H25 H 0.91570 0.89290 0.21860
C38 C 0.7714(3) 0.7902(3) 0.27154(14)
H26 H 0.82460 0.83490 0.32210
H27 H 0.203(3) 0.679(3) 0.1507(19)
H28 H 0.256(3) 0.427(3) 0.0284(18)
#END
