
#######################################################################
#
#                 Cambridge Crystallographic Data Centre
#                                CCDC
#
#######################################################################
#
# If this CIF has been generated from an entry in the Cambridge
# Structural Database, then it will include bibliographic, chemical,
# crystal, experimental, refinement or atomic coordinate data resulting
# from the CCDC's data processing and validation procedures.
#
#######################################################################

data_CSD_CIF_WAJSIM
_audit_creation_date 2016-02-23
_audit_creation_method CSD-ConQuest-V1
_database_code_CSD WAJSIM
_database_code_depnum_ccdc_archive 'CCDC 1412061'
_chemical_formula_sum 'C12 H12 N2 O2'
_chemical_formula_moiety
;
C12 H12 N2 O2
;
_journal_coden_Cambridge 179
_journal_volume 55
_journal_year 2016
_journal_page_first 1810
_journal_name_full 'Angew.Chem.,Int.Ed. '
loop_
_publ_author_name
"A.R.Reddy"
"Fei Hao"
"Kai Wu"
"Cong-Ying Zhou"
"Chi-Ming Che"
_chemical_name_systematic
;
2a-methyl-4-nitro-2,2a,2b,6c-tetrahydro-1H-6b-azabenzo[a]cyclopropa[cd]pentale
ne
;
_cell_volume   1070.842
_exptl_crystal_colour 'colorless'
_exptl_crystal_density_diffrn 1.341
_exptl_crystal_description 'block'
_diffrn_ambient_temperature 296.1
#These two values have been output from a single CSD field.
_refine_ls_R_factor_gt 0.0535
_refine_ls_wR_factor_gt 0.0535
_symmetry_cell_setting monoclinic
_symmetry_space_group_name_H-M 'P 21/c'
_symmetry_Int_Tables_number 14
loop_
_symmetry_equiv_pos_site_id
_symmetry_equiv_pos_as_xyz
1 x,y,z
2 -x,1/2+y,1/2-z
3 -x,-y,-z
4 x,-1/2-y,-1/2+z
_cell_length_a 9.0424(4)
_cell_length_b 10.2520(5)
_cell_length_c 12.0344(6)
_cell_angle_alpha 90
_cell_angle_beta 106.2884(14)
_cell_angle_gamma 90
_cell_formula_units_Z 4
loop_
_atom_type_symbol
_atom_type_radius_bond
C 0.68
H 0.23
N 0.68
O 0.68
loop_
_atom_site_label
_atom_site_type_symbol
_atom_site_fract_x
_atom_site_fract_y
_atom_site_fract_z
O1 O 0.3694(2) -0.14613(18) 0.15623(14)
O2 O 0.3654(2) -0.29897(17) 0.27680(16)
N1 N 0.35730(19) -0.18390(19) 0.24971(16)
N2 N 0.27224(17) 0.19745(15) 0.55717(12)
C1 C 0.29120(18) 0.09066(18) 0.48631(14)
C2 C 0.2992(2) -0.03899(19) 0.51606(15)
H1 H 0.29070 -0.06520 0.58800
C3 C 0.3199(2) -0.12946(19) 0.43706(17)
H2 H 0.32620 -0.21780 0.45520
C4 C 0.33128(19) -0.08766(18) 0.33105(15)
C5 C 0.32046(19) 0.04215(19) 0.29871(14)
H3 H 0.32780 0.06770 0.22630
C6 C 0.29840(18) 0.13233(18) 0.37737(14)
C7 C 0.2842(2) 0.27509(19) 0.37229(15)
H4 H 0.34150 0.32470 0.32840
C8 C 0.2944(2) 0.31562(19) 0.49428(16)
H5 H 0.36110 0.38730 0.53270
C9 C 0.1467(2) 0.33970(19) 0.40201(16)
C10 C 0.0261(2) 0.2538(2) 0.43081(17)
H6 H -0.00250 0.18210 0.37650
H7 H -0.06550 0.30350 0.42990
C11 C 0.1066(2) 0.2040(2) 0.55321(16)
H8 H 0.09080 0.26360 0.61140
H9 H 0.06820 0.11860 0.56590
C12 C 0.1019(4) 0.4733(2) 0.3526(2)
H10 H 0.19270 0.52070 0.35060
H11 H 0.04990 0.51920 0.40020
H12 H 0.03450 0.46550 0.27550
#END
