
#######################################################################
#
#                 Cambridge Crystallographic Data Centre
#                                CCDC
#
#######################################################################
#
# If this CIF has been generated from an entry in the Cambridge
# Structural Database, then it will include bibliographic, chemical,
# crystal, experimental, refinement or atomic coordinate data resulting
# from the CCDC's data processing and validation procedures.
#
#######################################################################

data_CSD_CIF_WAJVOT
_audit_creation_date 2005-02-22
_audit_creation_method CSD-ConQuest-V1
_database_code_CSD WAJVOT
_database_code_depnum_ccdc_archive 'CCDC 211238'
_chemical_formula_sum 'C17 H15 N1 O2'
_chemical_formula_moiety
;
C17 H15 N1 O2
;
_journal_coden_Cambridge 16
_journal_volume 60
_journal_year 2004
_journal_page_first 1453
_journal_name_full 'Tetrahedron '
loop_
_publ_author_name
"I.N.N.Namboothiri"
"N.Rastogi"
"B.Ganguly"
"S.M.Mobin"
"M.Cojocaru"
_chemical_name_systematic
;
3-Phenyl-3a,4,4a,7a,8,8a-hexahydro-5H-4,8-methanoindeno(5,6-d)isoxazol-5-one
;
_chemical_melting_point 483.15
_cell_volume   1304.274
_exptl_crystal_colour 'colorless'
_exptl_crystal_density_diffrn 1.351
_exptl_special_details
;
Melting point range 483.15-484.15K

;
_exptl_crystal_description 'block'
_exptl_crystal_preparation 'ethanol'
_diffrn_ambient_temperature 293
#These two values have been output from a single CSD field.
_refine_ls_R_factor_gt 0.0371
_refine_ls_wR_factor_gt 0.0371
_symmetry_cell_setting monoclinic
_symmetry_space_group_name_H-M 'P 21/n'
_symmetry_Int_Tables_number 14
loop_
_symmetry_equiv_pos_site_id
_symmetry_equiv_pos_as_xyz
1 x,y,z
2 1/2+x,1/2-y,1/2+z
3 -x,-y,-z
4 -1/2-x,-1/2+y,-1/2-z
_cell_length_a 9.4500(12)
_cell_length_b 13.629(1)
_cell_length_c 10.8650(8)
_cell_angle_alpha 90
_cell_angle_beta 111.242(7)
_cell_angle_gamma 90
_cell_formula_units_Z 4
loop_
_atom_type_symbol
_atom_type_radius_bond
C 0.68
H 0.23
N 0.68
O 0.68
loop_
_atom_site_label
_atom_site_type_symbol
_atom_site_fract_x
_atom_site_fract_y
_atom_site_fract_z
N1 N 0.12029(18) 0.86348(11) 0.87452(16)
O1 O 0.06972(15) 0.88829(9) 0.73918(12)
O2 O 0.16423(19) 1.28408(10) 0.90332(14)
C1 C 0.2391(2) 1.02150(15) 1.16422(19)
C2 C 0.2991(2) 1.01794(19) 1.3008(2)
C3 C 0.3454(3) 0.9300(2) 1.3647(2)
C4 C 0.3333(3) 0.8456(2) 1.2922(2)
C5 C 0.2739(3) 0.84826(16) 1.1559(2)
C6 C 0.2249(2) 0.93694(13) 1.08991(18)
C7 C 0.16292(19) 0.94156(12) 0.94449(18)
C8 C 0.14882(19) 1.03428(12) 0.86588(16)
C9 C 0.0830(2) 0.99415(12) 0.72435(17)
C10 C 0.2034(2) 1.01857(13) 0.66703(18)
C11 C 0.3496(2) 1.00569(15) 0.78755(19)
C12 C 0.3032(2) 1.07736(12) 0.87465(17)
C13 C 0.2726(2) 1.17089(13) 0.78975(17)
C14 C 0.2033(2) 1.13151(13) 0.64722(18)
C15 C 0.0538(2) 1.18261(14) 0.5911(2)
C16 C 0.0286(3) 1.24239(14) 0.6764(2)
C17 C 0.1548(2) 1.24003(12) 0.80318(18)
H1 H 0.3761(19) 1.0862(11) 0.9647(16)
H2 H -0.0170(19) 1.0197(12) 0.6711(15)
H3 H 0.362(2) 0.9367(13) 0.8229(17)
H4 H 0.2065(19) 1.0834(13) 1.1220(16)
H5 H 0.0842(19) 1.0820(12) 0.8886(15)
H6 H 0.363(2) 1.2054(13) 0.8042(16)
H7 H -0.017(2) 1.1694(13) 0.500(2)
H8 H 0.264(2) 1.1435(14) 0.5967(19)
H9 H 0.1947(19) 0.9817(13) 0.5870(17)
H10 H 0.389(3) 0.9274(16) 1.462(2)
H11 H 0.370(3) 0.7835(17) 1.333(2)
H12 H -0.059(3) 1.2800(16) 0.664(2)
H13 H 0.260(2) 0.7909(15) 1.1017(19)
H14 H 0.309(2) 1.0801(15) 1.353(2)
H15 H 0.442(2) 1.0285(14) 0.7718(17)
#END
