
#######################################################################
#
#                 Cambridge Crystallographic Data Centre
#                                CCDC
#
#######################################################################
#
# If this CIF has been generated from an entry in the Cambridge
# Structural Database, then it will include bibliographic, chemical,
# crystal, experimental, refinement or atomic coordinate data resulting
# from the CCDC's data processing and validation procedures.
#
#######################################################################

data_CSD_CIF_WAJWUA01
_audit_creation_date 2015-02-21
_audit_creation_method CSD-ConQuest-V1
_database_code_CSD WAJWUA01
_database_code_depnum_ccdc_archive 'CCDC 917904'
_chemical_formula_sum 'C18 H16 N4 O3'
_chemical_formula_moiety
;
C18 H16 N4 O3
;
_journal_coden_Cambridge 315
_journal_volume 145
_journal_year 2015
_journal_page_first 213
_journal_name_full 'Spectrochim.Acta,Part A '
loop_
_publ_author_name
"C.Shiju"
"D.Arish"
"N.Bhuvanesh"
"S.Kumaresan"
_chemical_name_systematic
;
1,5-dimethyl-4-((4-nitrobenzylidene)amino)-2-phenyl-1,2-dihydro-3H-pyrazol-3-o
ne
;
_cell_volume    795.076
_exptl_crystal_colour 'red'
_exptl_crystal_density_diffrn 1.405
_exptl_crystal_description 'block'
_diffrn_ambient_temperature 110
#These two values have been output from a single CSD field.
_refine_ls_R_factor_gt 0.0378
_refine_ls_wR_factor_gt 0.0378
_symmetry_cell_setting triclinic
_symmetry_space_group_name_H-M 'P -1'
_symmetry_Int_Tables_number 2
loop_
_symmetry_equiv_pos_site_id
_symmetry_equiv_pos_as_xyz
1 x,y,z
2 -x,-y,-z
_cell_length_a 7.032(2)
_cell_length_b 9.479(3)
_cell_length_c 12.425(4)
_cell_angle_alpha 101.636(3)
_cell_angle_beta 99.633(3)
_cell_angle_gamma 94.040(3)
_cell_formula_units_Z 2
loop_
_atom_type_symbol
_atom_type_radius_bond
C 0.68
H 0.23
N 0.68
O 0.68
loop_
_atom_site_label
_atom_site_type_symbol
_atom_site_fract_x
_atom_site_fract_y
_atom_site_fract_z
C1 C 0.77933(17) -0.03048(12) 0.83442(10)
C2 C 0.60949(18) 0.03260(13) 0.81076(10)
H1 H 0.51660 0.03680 0.85840
C3 C 0.57913(17) 0.08908(13) 0.71611(10)
H2 H 0.46240 0.13080 0.69750
C4 C 0.71766(17) 0.08583(12) 0.64716(10)
C5 C 0.88653(18) 0.02085(13) 0.67385(10)
H3 H 0.98080 0.01750 0.62710
C6 C 0.91868(18) -0.03890(13) 0.76778(10)
H4 H 1.03270 -0.08410 0.78560
C7 C 0.68530(17) 0.14751(13) 0.54697(10)
H5 H 0.77320 0.13540 0.49630
C8 C 0.50279(16) 0.27617(12) 0.43395(9)
C9 C 0.35059(17) 0.35771(13) 0.41463(10)
C10 C 0.61056(16) 0.27232(12) 0.34468(10)
C11 C 0.18947(18) 0.38362(14) 0.47673(11)
H6 H 0.06660 0.33900 0.42820
H7 H 0.18410 0.48810 0.50040
H8 H 0.21110 0.34090 0.54270
C12 C 0.19640(18) 0.45701(14) 0.25396(11)
H9 H 0.10400 0.37230 0.21600
H10 H 0.24330 0.50320 0.19810
H11 H 0.13190 0.52620 0.30160
C13 C 0.59729(17) 0.42066(13) 0.19992(10)
C14 C 0.62162(19) 0.57083(14) 0.21971(10)
H12 H 0.57760 0.62750 0.28110
C15 C 0.7112(2) 0.63703(14) 0.14858(11)
H13 H 0.72780 0.73970 0.16090
C16 C 0.77642(18) 0.55399(15) 0.05982(11)
H14 H 0.83820 0.59970 0.01150
C17 C 0.75161(18) 0.40441(14) 0.0414(1)
H15 H 0.79660 0.34790 -0.01960
C18 C 0.66172(17) 0.33629(14) 0.11126(10)
H16 H 0.64460 0.23360 0.09860
N1 N 0.80948(15) -0.09363(11) 0.93372(9)
N2 N 0.53805(14) 0.21773(10) 0.52812(8)
N3 N 0.36002(14) 0.41143(11) 0.32266(8)
N4 N 0.50784(14) 0.34925(11) 0.27265(8)
O1 O 0.94841(13) -0.1642(1) 0.94784(8)
O2 O 0.69525(14) -0.07312(11) 0.99839(8)
O3 O 0.76211(12) 0.22022(9) 0.32889(7)
#END
