
#######################################################################
#
#                 Cambridge Crystallographic Data Centre
#                                CCDC
#
#######################################################################
#
# If this CIF has been generated from an entry in the Cambridge
# Structural Database, then it will include bibliographic, chemical,
# crystal, experimental, refinement or atomic coordinate data resulting
# from the CCDC's data processing and validation procedures.
#
#######################################################################

data_CSD_CIF_WAKBUH
_audit_creation_date 2011-04-07
_audit_creation_method CSD-ConQuest-V1
_database_code_CSD WAKBUH
_database_code_depnum_ccdc_archive 'CCDC 793130'
_chemical_formula_sum 'C18 H14 N2 O4'
_chemical_formula_moiety
;
C18 H14 N2 O4
;
_journal_coden_Cambridge 79
_journal_volume 63
_journal_year 2010
_journal_page_first 512
_journal_name_full 'J.Antibiot. '
loop_
_publ_author_name
"M.A.Goetz"
"Chaowei Zhang"
"D.L.Zink"
"M.Arocho"
"F.Vicente"
"G.F.Bills"
"J.Polishook"
"K.Dorso"
"R.Onishi"
"C.Gill"
"E.Hickey"
"S.Lee"
"R.Ball"
"S.Skwish"
"R.G.K.Donald"
"J.W.Phillips"
"S.B.Singh"
_chemical_name_systematic
;
5-Benzyl-1-hydroxy-3-(hydroxy(phenyl)methylene)pyrazine-2,6(1H,3H)-dione
;
_chemical_name_common
;
Coelomycin
;
_cell_volume   1459.556
_exptl_crystal_colour 'lustrous'
_exptl_crystal_density_diffrn 1.467
_exptl_special_details
;
antibacterial activity

;
_diffrn_ambient_temperature 100
#These two values have been output from a single CSD field.
_refine_ls_R_factor_gt 0.0465
_refine_ls_wR_factor_gt 0.0465
_symmetry_cell_setting orthorhombic
_symmetry_space_group_name_H-M 'P 21 21 21'
_symmetry_Int_Tables_number 19
loop_
_symmetry_equiv_pos_site_id
_symmetry_equiv_pos_as_xyz
1 x,y,z
2 1/2-x,-y,1/2+z
3 1/2+x,1/2-y,-z
4 -x,1/2+y,1/2-z
_cell_length_a 4.8388(2)
_cell_length_b 16.9567(7)
_cell_length_c 17.7886(8)
_cell_angle_alpha 90
_cell_angle_beta 90
_cell_angle_gamma 90
_cell_formula_units_Z 4
loop_
_atom_type_symbol
_atom_type_radius_bond
C 0.68
H 0.23
N 0.68
O 0.68
loop_
_atom_site_label
_atom_site_type_symbol
_atom_site_fract_x
_atom_site_fract_y
_atom_site_fract_z
C1 C 0.3333(3) 0.06015(8) 0.08851(8)
C2 C 0.1964(3) 0.13015(8) 0.05556(8)
N1 N 0.3010(3) 0.20131(7) 0.08028(7)
C3 C 0.5077(3) 0.20998(8) 0.13320(8)
C4 C 0.6222(3) 0.13741(8) 0.16246(8)
N2 N 0.5302(3) 0.06518(7) 0.13731(7)
C5 C 0.8265(3) 0.14270(8) 0.21755(8)
O1 O 0.9172(2) 0.21360(6) 0.23702(7)
H1 H 0.83520 0.24810 0.21150
C6 C 0.9592(3) 0.07820(8) 0.26005(9)
C7 C 0.8632(3) 0.00003(8) 0.25950(9)
H2 H 0.71280 -0.01420 0.22800
C8 C 0.9869(4) -0.05641(9) 0.30477(9)
H3 H 0.91780 -0.10880 0.30490
C9 C 1.2111(4) -0.03702(9) 0.35005(9)
H4 H 1.29640 -0.07610 0.38050
C10 C 1.3090(4) 0.04002(9) 0.35031(9)
H5 H 1.46290 0.05350 0.38090
C11 C 1.1844(3) 0.09711(9) 0.30646(8)
H6 H 1.25180 0.14970 0.30770
C12 C 0.2230(3) -0.01865(8) 0.06327(9)
H7 H 0.17280 -0.01520 0.00940
H8 H 0.05230 -0.03050 0.09180
C13 C 0.4242(3) -0.08595(8) 0.07370(8)
C14 C 0.5904(3) -0.11022(8) 0.01447(9)
H9 H 0.57450 -0.08510 -0.03310
C15 C 0.7804(3) -0.17113(9) 0.02409(9)
H10 H 0.89160 -0.18780 -0.01700
C16 C 0.8072(3) -0.20738(9) 0.09341(9)
H11 H 0.93920 -0.24820 0.10030
C17 C 0.6405(3) -0.18386(8) 0.15263(9)
H12 H 0.65790 -0.20880 0.20020
C18 C 0.4479(3) -0.12386(8) 0.14264(9)
H13 H 0.33180 -0.10870 0.18320
O2 O 0.0050(2) 0.12650(6) 0.01037(6)
O3 O 0.1745(2) 0.26837(6) 0.05320(6)
H14 H 0.29300 0.29750 0.03270
O4 O 0.5815(2) 0.27782(6) 0.15195(6)
#END
