
#######################################################################
#
#                 Cambridge Crystallographic Data Centre
#                                CCDC
#
#######################################################################
#
# If this CIF has been generated from an entry in the Cambridge
# Structural Database, then it will include bibliographic, chemical,
# crystal, experimental, refinement or atomic coordinate data resulting
# from the CCDC's data processing and validation procedures.
#
#######################################################################

data_CSD_CIF_WAKCAN
_audit_creation_date 2005-02-22
_audit_creation_method CSD-ConQuest-V1
_database_code_CSD WAKCAN
_database_code_depnum_ccdc_archive 'CCDC 259845'
_chemical_formula_sum 'C14 H12 N2 O4'
_chemical_formula_moiety
;
C14 H12 N2 O4
;
_journal_coeditor_code "IUCr SJ6030"
_journal_coden_Cambridge 1370
_journal_volume 60
_journal_year 2004
_journal_page_first o2455
_journal_name_full 'Acta Crystallogr.,Sect.E:Struct.Rep.Online '
loop_
_publ_author_name
"H.S.Yathirajan"
"B.Nagaraj"
"P.Nagaraja"
"D.E.Lynch"
_chemical_name_systematic
;
2,2'-Dinitrodibenzyl
;
_chemical_melting_point 404
_cell_volume    622.519
_exptl_crystal_colour 'colorless'
_exptl_crystal_density_diffrn 1.452
_exptl_crystal_description 'plate'
_exptl_crystal_preparation 'ethanol'
_diffrn_ambient_temperature 120
#These two values have been output from a single CSD field.
_refine_ls_R_factor_gt 0.0606
_refine_ls_wR_factor_gt 0.0606
_symmetry_cell_setting monoclinic
_symmetry_space_group_name_H-M 'P 21/c'
_symmetry_Int_Tables_number 14
loop_
_symmetry_equiv_pos_site_id
_symmetry_equiv_pos_as_xyz
1 x,y,z
2 x,1/2-y,1/2+z
3 -x,-y,-z
4 -x,-1/2+y,-1/2-z
_cell_length_a 7.5678(8)
_cell_length_b 14.4964(16)
_cell_length_c 5.9874(5)
_cell_angle_alpha 90
_cell_angle_beta 108.607(6)
_cell_angle_gamma 90
_cell_formula_units_Z 2
loop_
_atom_type_symbol
_atom_type_radius_bond
C 0.68
H 0.23
N 0.68
O 0.68
loop_
_atom_site_label
_atom_site_type_symbol
_atom_site_fract_x
_atom_site_fract_y
_atom_site_fract_z
C1 C -0.1601(5) 0.40796(18) -0.4314(5)
C2 C -0.0148(5) 0.44779(18) -0.5294(5)
H1 H -0.05560 0.43920 -0.70240
H2 H 0.10460 0.41460 -0.46100
C3 C -0.1235(5) 0.36536(18) -0.2106(5)
N1 N 0.0685(4) 0.35474(16) -0.0517(4)
O1 O 0.1838(3) 0.41516(16) -0.0476(4)
O2 O 0.1050(3) 0.28615(13) 0.0754(3)
C4 C -0.2630(5) 0.32949(18) -0.1317(5)
H3 H -0.23230 0.30090 0.01870
C5 C -0.4460(5) 0.3356(2) -0.2727(5)
H4 H -0.54320 0.31250 -0.21960
C6 C -0.4868(5) 0.37598(19) -0.4939(5)
H5 H -0.61260 0.37960 -0.59370
C7 C -0.3460(5) 0.41086(19) -0.5695(5)
H6 H -0.37760 0.43790 -0.72180
C2B C 0.0148(5) 0.55221(18) -0.4706(5)
C1B C 0.1601(5) 0.59204(18) -0.5686(5)
C3B C 0.1235(5) 0.63464(18) -0.7894(5)
N1B N -0.0685(4) 0.64526(16) -0.9483(4)
O1B O -0.1838(3) 0.58484(16) -0.9524(4)
O2B O -0.1050(3) 0.71385(13) -1.0754(3)
C4B C 0.2630(5) 0.67051(18) -0.8683(5)
H3B H 0.23230 0.69910 -1.01870
C5B C 0.4460(5) 0.6644(2) -0.7273(5)
H4B H 0.54320 0.68750 -0.78040
C6B C 0.4868(5) 0.62402(19) -0.5061(5)
H5B H 0.61260 0.62040 -0.40630
C7B C 0.3460(5) 0.58914(19) -0.4305(5)
H6B H 0.37760 0.56210 -0.27820
H1B H 0.05560 0.56080 -0.29760
H2B H -0.10460 0.58540 -0.53900
#END
