
#######################################################################
#
#                 Cambridge Crystallographic Data Centre
#                                CCDC
#
#######################################################################
#
# If this CIF has been generated from an entry in the Cambridge
# Structural Database, then it will include bibliographic, chemical,
# crystal, experimental, refinement or atomic coordinate data resulting
# from the CCDC's data processing and validation procedures.
#
#######################################################################

data_CSD_CIF_WAKGIZ
_audit_creation_date 2005-02-22
_audit_creation_method CSD-ConQuest-V1
_database_code_CSD WAKGIZ
_database_code_depnum_ccdc_archive 'CCDC 259859'
_chemical_formula_sum 'C16 H15 N1 O5'
_chemical_formula_moiety
;
C16 H15 N1 O5
;
_journal_coeditor_code "IUCr GH6006"
_journal_coden_Cambridge 1370
_journal_volume 60
_journal_year 2004
_journal_page_first o2498
_journal_name_full 'Acta Crystallogr.,Sect.E:Struct.Rep.Online '
loop_
_publ_author_name
"I.Vencato"
"P.H.Ferri"
"S.C.Santos"
"L.S.Santos"
"C.Lariucci"
"H.B.Napolitano"
_chemical_name_systematic
;
1-(4-Methoxyphenyl)-2-(2-nitrophenoxy)propan-1-one
;
_chemical_melting_point 403
_cell_volume   1499.847
_exptl_crystal_colour 'colorless'
_exptl_crystal_density_diffrn 1.334
_exptl_special_details
;
Melting point range 403-404K

;
_exptl_crystal_description 'block'
_exptl_crystal_preparation 'ethanol'
_diffrn_ambient_temperature 293
#These two values have been output from a single CSD field.
_refine_ls_R_factor_gt 0.042
_refine_ls_wR_factor_gt 0.042
_symmetry_cell_setting monoclinic
_symmetry_space_group_name_H-M 'P 21/c'
_symmetry_Int_Tables_number 14
loop_
_symmetry_equiv_pos_site_id
_symmetry_equiv_pos_as_xyz
1 x,y,z
2 x,1/2-y,1/2+z
3 -x,-y,-z
4 -x,-1/2+y,-1/2-z
_cell_length_a 8.851(2)
_cell_length_b 9.858(2)
_cell_length_c 17.255(3)
_cell_angle_alpha 90
_cell_angle_beta 94.99(3)
_cell_angle_gamma 90
_cell_formula_units_Z 4
loop_
_atom_type_symbol
_atom_type_radius_bond
C 0.68
H 0.23
N 0.68
O 0.68
loop_
_atom_site_label
_atom_site_type_symbol
_atom_site_fract_x
_atom_site_fract_y
_atom_site_fract_z
O1 O 0.14241(14) 0.93771(13) 0.17171(7)
O2 O 0.10978(15) 0.76576(13) 0.29073(8)
O3 O 0.2464(2) 0.9577(2) 0.02752(10)
O4 O 0.4702(2) 0.87703(19) 0.05173(11)
N1 N 0.3620(2) 0.94670(19) 0.06865(11)
C1 C 0.3798(2) 1.02035(18) 0.1423(1)
C2 C 0.5114(2) 1.0928(2) 0.15909(13)
H1 H 0.58540 1.09450 0.12400
C3 C 0.5330(2) 1.1630(3) 0.22829(14)
H2 H 0.624(3) 1.212(2) 0.2395(14)
C4 C 0.4232(2) 1.1562(2) 0.28001(13)
H3 H 0.43770 1.20250 0.32700
C5 C 0.2924(2) 1.0823(2) 0.26354(11)
H4 H 0.22070 1.07810 0.29980
C6 C 0.26663(19) 1.01402(17) 0.19345(10)
C7 C 0.0126(2) 0.95223(19) 0.21514(10)
H5 H 0.000(2) 1.045(2) 0.2281(12)
C8 C 0.02786(18) 0.86543(17) 0.28873(10)
C9 C -0.06337(18) 0.89992(17) 0.35361(10)
C10 C -0.1288(2) 1.02644(18) 0.36237(11)
H6 H -0.11990 1.09240 0.32450
C11 C -0.2069(2) 1.05634(19) 0.42622(11)
H7 H -0.24770 1.14240 0.43160
C12 C -0.2245(2) 0.95849(19) 0.48197(10)
C13 C -0.1634(2) 0.8298(2) 0.47267(11)
H8 H -0.17730 0.76240 0.50910
C14 C -0.0834(2) 0.80189(19) 0.41038(11)
H9 H -0.04140 0.71610 0.40560
C15 C -0.3619(3) 1.1076(2) 0.55923(12)
H10 H -0.41060 1.10690 0.60680
H11 H -0.43510 1.12910 0.51660
H12 H -0.28280 1.17450 0.56250
C16 C -0.1215(2) 0.9033(3) 0.16219(12)
H13 H -0.13140 0.95790 0.11600
H14 H -0.21220 0.91070 0.18870
H15 H -0.10610 0.81030 0.14840
O5 O -0.29809(17) 0.97659(15) 0.54685(8)
#END
