
#######################################################################
#
#                 Cambridge Crystallographic Data Centre
#                                CCDC
#
#######################################################################
#
# If this CIF has been generated from an entry in the Cambridge
# Structural Database, then it will include bibliographic, chemical,
# crystal, experimental, refinement or atomic coordinate data resulting
# from the CCDC's data processing and validation procedures.
#
#######################################################################

data_CSD_CIF_WAKNOM
_audit_creation_date 2005-02-22
_audit_creation_method CSD-ConQuest-V1
_database_code_CSD WAKNOM
_database_code_depnum_ccdc_archive 'CCDC 252021'
_chemical_formula_sum 'C11 H10 N4 O3'
_chemical_formula_moiety
;
C11 H10 N4 O3
;
_journal_coden_Cambridge 95
_journal_year 2004
_journal_page_first 569
_journal_name_full 'Izv.Akad.Nauk SSSR,Ser.Khim.(Russ.)(Russ.Chem.Bull.) '
loop_
_publ_author_name
"A.B.Sheremetev"
"V.G.Andrianov"
"E.V.Mantseva"
"E.V.Shatunova"
"N.S.Aleksandrova"
"I.L.Yudin"
"D.E.Dmitriev"
"B.B.Averkiev"
"M.Yu.Antipin"
_chemical_name_systematic
;
2-(4-Nitro-1,2,5-oxadiazol-3-yl)-1,2,3,4-tetrahydroisoquinoline
;
_chemical_melting_point 426.15
_cell_volume   4330.315
_exptl_crystal_colour 'yellow-red'
_exptl_crystal_density_diffrn 1.511
_exptl_special_details
;
Melting point range 426.15-427.15K

;
_exptl_crystal_description 'prism'
_diffrn_ambient_temperature 110
_refine_special_details
;
All atoms of one of independent molecules are disordered over two positions, 
the positions were refined with the s.o.f.'s equal to 0.80:0.20.
;
#These two values have been output from a single CSD field.
_refine_ls_R_factor_gt 0.05
_refine_ls_wR_factor_gt 0.05
_symmetry_cell_setting monoclinic
_symmetry_space_group_name_H-M 'P 21/n'
_symmetry_Int_Tables_number 14
loop_
_symmetry_equiv_pos_site_id
_symmetry_equiv_pos_as_xyz
1 x,y,z
2 1/2+x,1/2-y,1/2+z
3 -x,-y,-z
4 -1/2-x,-1/2+y,-1/2-z
_cell_length_a 13.895(1)
_cell_length_b 12.241(1)
_cell_length_c 25.923(2)
_cell_angle_alpha 90
_cell_angle_beta 100.855(2)
_cell_angle_gamma 90
_cell_formula_units_Z 16
loop_
_atom_type_symbol
_atom_type_radius_bond
C 0.68
H 0.23
N 0.68
O 0.68
loop_
_atom_site_label
_atom_site_type_symbol
_atom_site_fract_x
_atom_site_fract_y
_atom_site_fract_z
O1 O 0.81616(6) 0.31593(6) 0.16846(3)
N1 N 0.78534(7) 0.40965(7) 0.16416(3)
O2 O 0.82195(6) 0.48565(6) 0.14375(3)
C1 C 0.69596(8) 0.43367(8) 0.18366(4)
N2 N 0.63742(7) 0.35214(7) 0.18731(4)
O3 O 0.55789(6) 0.39857(6) 0.20202(3)
N3 N 0.56895(7) 0.51206(7) 0.20826(4)
C2 C 0.65498(8) 0.53497(8) 0.19610(4)
N4 N 0.68735(6) 0.63972(7) 0.19414(3)
C3 C 0.79030(8) 0.66762(9) 0.21563(4)
C4 C 0.81910(8) 0.76170(9) 0.18417(4)
C5 C 0.74678(8) 0.85435(8) 0.18065(4)
C6 C 0.65239(8) 0.83640(8) 0.19039(4)
C7 C 0.61962(8) 0.72488(9) 0.20519(4)
C8 C 0.77255(8) 0.95961(9) 0.16709(4)
C9 C 0.70585(9) 1.04427(9) 0.16265(5)
C10 C 0.61263(9) 1.02618(9) 0.17240(5)
C11 C 0.58672(8) 0.92307(10) 0.18613(5)
N5 N 0.89964(9) 0.75051(9) 0.05569(5)
O4 O 0.88536(8) 0.65646(8) 0.06860(4)
O5 O 0.93850(7) 0.82304(7) 0.08450(4)
C12 C 0.87173(10) 0.77621(11) -0.00048(6)
N6 N 0.86226(8) 0.69546(9) -0.03317(5)
O6 O 0.84600(8) 0.74282(8) -0.08104(4)
N7 N 0.84283(9) 0.85746(9) -0.07811(5)
C13 C 0.86027(9) 0.87968(10) -0.02760(5)
N8 N 0.86787(8) 0.98461(9) -0.00995(5)
C14 C 0.82363(10) 1.01558(10) 0.03601(5)
H1 H 0.8213(9) 0.952(1) 0.0580(5)
H2 H 0.7575(10) 1.0368(10) 0.0234(5)
C15 C 0.8815(1) 1.11092(11) 0.06346(5)
H3 H 0.9481(11) 1.0905(11) 0.0784(6)
H4 H 0.8498(10) 1.1366(11) 0.0935(6)
C16 C 0.88507(10) 1.20213(12) 0.02591(6)
C17 C 0.8709(1) 1.18169(11) -0.02788(6)
C18 C 0.8555(1) 1.06810(11) -0.05076(5)
H5 H 0.7879(10) 1.0627(10) -0.0729(5)
H6 H 0.9027(10) 1.0564(10) -0.0741(5)
C19 C 0.89844(10) 1.31088(11) 0.04332(6)
H7 H 0.9087(11) 1.3232(11) 0.0802(6)
C20 C 0.89956(11) 1.39664(12) 0.00875(6)
H8 H 0.9062(10) 1.4702(11) 0.0190(6)
C21 C 0.88439(10) 1.37540(11) -0.04497(6)
H9 H 0.8823(10) 1.4343(11) -0.0707(6)
C22 C 0.86991(10) 1.26846(11) -0.06342(6)
H10 H 0.8636(11) 1.2546(11) -0.0985(6)
N9? N 0.8529(5) 0.7712(6) -0.0716(3)
O7? O 0.8271(4) 0.6813(4) -0.0877(2)
O8? O 0.8792(3) 0.8440(4) -0.09552(19)
C23? C 0.8632(5) 0.7881(6) -0.0122(3)
N10? N 0.8728(4) 0.7010(4) 0.0154(2)
O9? O 0.8884(5) 0.7370(5) 0.0637(3)
N11? N 0.8882(4) 0.8538(4) 0.0661(2)
C24? C 0.8719(4) 0.8823(5) 0.0155(2)
N12? N 0.8681(4) 0.9892(4) 0.0025(2)
C25? C 0.7976(5) 1.0280(5) -0.0459(3)
H11? H 0.78390 0.96810 -0.07190
H12? H 0.73500 1.05100 -0.03630
C26? C 0.8434(5) 1.1212(5) -0.0685(3)
H13? H 0.90210 1.09470 -0.08120
H14? H 0.79660 1.14930 -0.09930
C27? C 0.8719(5) 1.2103(5) -0.0321(3)
C28? C 0.8871(6) 1.1896(6) 0.0218(3)
C29? C 0.8797(4) 1.0699(5) 0.0447(2)
H15? H 0.93980 1.05360 0.07080
H16? H 0.82310 1.06590 0.06280
C30? C 0.8785(4) 1.3200(5) -0.0477(2)
H17? H 0.86870 1.33910 -0.08380
C31? C 0.8990(5) 1.3975(6) -0.0099(3)
H18? H 0.90150 1.47120 -0.02100
C32? C 0.9169(4) 1.3775(5) 0.0442(3)
H19? H 0.93400 1.43460 0.06900
C33? C 0.9085(5) 1.2700(5) 0.0597(3)
H20? H 0.91740 1.25190 0.09590
O10 O 0.39081(7) 0.83921(7) 0.08466(4)
N13 N 0.40831(7) 0.74800(7) 0.06990(4)
O11 O 0.45310(6) 0.67632(7) 0.09770(3)
C34 C 0.37732(7) 0.72163(8) 0.01481(4)
N14 N 0.36601(7) 0.80307(7) -0.01813(4)
O12 O 0.34656(6) 0.75586(6) -0.06615(3)
N15 N 0.34425(7) 0.64204(7) -0.06279(4)
C35 C 0.36447(7) 0.61916(8) -0.01207(4)
N16 N 0.37334(6) 0.51468(7) 0.00608(3)
C36 C 0.33488(8) 0.48349(9) 0.05327(4)
C37 C 0.39540(9) 0.38908(9) 0.07912(4)
C38 C 0.39515(8) 0.29648(8) 0.04087(4)
C39 C 0.37554(7) 0.31697(8) -0.01295(4)
C40 C 0.35698(8) 0.43066(8) -0.03520(4)
C41 C 0.41198(8) 0.18874(9) 0.05793(5)
C42 C 0.41035(8) 0.10358(9) 0.02257(5)
C43 C 0.38932(8) 0.12438(9) -0.03078(5)
C44 C 0.37161(8) 0.23073(9) -0.04836(5)
N17 N 0.05453(7) 0.05559(8) 0.20487(4)
O13 O 0.05829(7) -0.03414(7) 0.18483(4)
O14 O -0.00486(6) 0.12750(7) 0.18877(3)
C45 C 0.12360(8) 0.07948(9) 0.25293(4)
N18 N 0.15363(7) -0.00167(8) 0.28397(4)
O15 O 0.20636(6) 0.04574(7) 0.32770(3)
N19 N 0.21012(7) 0.15988(8) 0.32244(4)
C46 C 0.15753(8) 0.18182(9) 0.27591(4)
N20 N 0.13946(7) 0.28589(7) 0.25760(3)
C47 C 0.14248(8) 0.31151(9) 0.20251(4)
C48 C 0.07325(8) 0.40541(9) 0.18553(5)
C49 C 0.09336(8) 0.49995(9) 0.22303(4)
C50 C 0.14538(8) 0.48380(9) 0.27417(4)
C51 C 0.18304(8) 0.37265(9) 0.29347(4)
C52 C 0.06117(8) 0.60542(10) 0.20769(5)
C53 C 0.08025(9) 0.69251(10) 0.24247(6)
C54 C 0.13086(9) 0.67529(10) 0.29299(5)
C55 C 0.16305(9) 0.57187(10) 0.30859(5)
H21 H 0.5578(8) 0.7080(8) 0.1860(4)
H22 H 0.8303(8) 0.6040(8) 0.2131(4)
H23 H 0.3392(7) 0.5462(8) 0.0761(4)
H24 H 0.2882(8) 0.4361(8) -0.0547(4)
H25 H 0.1229(8) 0.2452(8) 0.1815(4)
H26 H 0.2082(8) 0.3313(8) 0.2012(4)
H27 H 0.4033(8) 0.4460(8) -0.0606(4)
H28 H 0.8874(8) 0.7891(8) 0.2007(4)
H29 H 0.0056(8) 0.3793(9) 0.1828(4)
H30 H 0.2651(8) 0.4579(8) 0.0416(4)
H31 H 0.1657(8) 0.3581(9) 0.3268(5)
H32 H 0.3882(8) 0.0672(9) -0.0570(4)
H33 H 0.4640(9) 0.4127(9) 0.0934(5)
H34 H 0.8351(8) 0.9699(8) 0.1606(4)
H35 H 0.2566(8) 0.3693(9) 0.2981(4)
H36 H 0.3588(9) 0.2470(9) -0.0839(5)
H37 H 0.7937(8) 0.6874(9) 0.2520(5)
H38 H 0.6161(8) 0.7236(9) 0.2431(5)
H39 H 0.4262(8) 0.1743(8) 0.0935(5)
H40 H 0.5231(8) 0.9057(9) 0.1934(4)
H41 H 0.060(1) 0.7617(11) 0.2326(6)
H42 H 0.8245(8) 0.7362(9) 0.1484(5)
H43 H 0.7249(8) 1.1176(9) 0.1549(5)
H44 H 0.5660(9) 1.0829(10) 0.1682(5)
H45 H 0.0796(9) 0.4291(10) 0.1508(5)
H46 H 0.4247(9) 0.0318(9) 0.0347(5)
H47 H 0.0295(8) 0.6137(9) 0.1740(5)
H48 H 0.1447(9) 0.734(1) 0.3183(5)
H49 H 0.2023(9) 0.5586(10) 0.3439(5)
H50 H 0.365(1) 0.3651(10) 0.1091(5)
#END
