
#######################################################################
#
#                 Cambridge Crystallographic Data Centre
#                                CCDC
#
#######################################################################
#
# If this CIF has been generated from an entry in the Cambridge
# Structural Database, then it will include bibliographic, chemical,
# crystal, experimental, refinement or atomic coordinate data resulting
# from the CCDC's data processing and validation procedures.
#
#######################################################################

data_CSD_CIF_WAKSIM
_audit_creation_date 2011-03-21
_audit_creation_method CSD-ConQuest-V1
_database_code_CSD WAKSIM
_database_code_depnum_ccdc_archive 'CCDC 775514'
_chemical_formula_sum 'C16 H11 N3 O3'
_chemical_formula_moiety
;
C16 H11 N3 O3
;
_journal_coden_Cambridge 24
_journal_volume 51
_journal_year 2010
_journal_page_first 6439
_journal_name_full 'Tetrahedron Lett. '
loop_
_publ_author_name
"S.Muthusaravanan"
"S.Perumal"
"P.Yogeeswari"
"D.Sriram"
_chemical_name_systematic
;
2-(4-Methoxyphenyl)-1-nitroindolizine-3-carbonitrile
;
_cell_volume   1360.975
_exptl_crystal_colour 'yellow'
_exptl_crystal_density_diffrn 1.431
_exptl_crystal_description 'block'
_diffrn_ambient_temperature 293
#These two values have been output from a single CSD field.
_refine_ls_R_factor_gt 0.0422
_refine_ls_wR_factor_gt 0.0422
_symmetry_cell_setting orthorhombic
_symmetry_space_group_name_H-M 'P c a 21'
_symmetry_Int_Tables_number 29
loop_
_symmetry_equiv_pos_site_id
_symmetry_equiv_pos_as_xyz
1 x,y,z
2 -x,-y,1/2+z
3 1/2+x,-y,z
4 1/2-x,y,1/2+z
_cell_length_a 15.1865(13)
_cell_length_b 6.2684(5)
_cell_length_c 14.2967(12)
_cell_angle_alpha 90
_cell_angle_beta 90
_cell_angle_gamma 90
_cell_formula_units_Z 4
loop_
_atom_type_symbol
_atom_type_radius_bond
C 0.68
H 0.23
N 0.68
O 0.68
loop_
_atom_site_label
_atom_site_type_symbol
_atom_site_fract_x
_atom_site_fract_y
_atom_site_fract_z
N1 N 0.6564(2) 0.9821(5) -0.0171(2)
C1 C 0.72636(16) 0.3282(4) 0.1620(2)
H1 H 0.70910 0.20570 0.13020
C2 C 0.67273(17) 0.5074(4) 0.15904(19)
O1 O 0.90772(13) 0.5240(3) 0.30793(17)
C3 C 0.58979(16) 0.5123(4) 0.1058(2)
C4 C 0.83120(17) 0.5078(4) 0.2582(2)
O2 O 0.55940(15) 0.1384(4) 0.22204(18)
N2 N 0.48321(14) 0.6313(4) 0.00804(17)
C5 C 0.77950(18) 0.6888(4) 0.2555(2)
H2 H 0.79790 0.81160 0.28630
C6 C 0.80475(17) 0.3278(4) 0.2110(2)
H3 H 0.83960 0.20580 0.21200
C7 C 0.31934(19) 0.4960(7) -0.0421(3)
H4 H 0.26330 0.45210 -0.05980
C8 C 0.56697(16) 0.6721(4) 0.0445(2)
C9 C 0.51809(17) 0.3674(4) 0.1052(2)
N3 N 0.50796(15) 0.1786(4) 0.1587(2)
C10 C 0.70094(17) 0.6889(4) 0.2075(2)
H5 H 0.66620 0.81110 0.20730
O3 O 0.44663(16) 0.0572(4) 0.1395(2)
C11 C 0.61654(19) 0.8462(4) 0.0112(2)
C12 C 0.36758(19) 0.3726(5) 0.0179(2)
H6 H 0.34500 0.24500 0.04080
C13 C 0.45214(16) 0.4426(4) 0.0444(2)
C14 C 0.4342(2) 0.7540(5) -0.0527(2)
H7 H 0.45670 0.88090 -0.07650
C15 C 0.3532(2) 0.6866(7) -0.0771(2)
H8 H 0.31940 0.76830 -0.11780
C16 C 0.9620(2) 0.3398(5) 0.3121(3)
H9 H 0.93350 0.23200 0.34900
H10 H 1.01740 0.37610 0.34020
H11 H 0.97180 0.28660 0.25000
#END
