
#######################################################################
#
#                 Cambridge Crystallographic Data Centre
#                                CCDC
#
#######################################################################
#
# If this CIF has been generated from an entry in the Cambridge
# Structural Database, then it will include bibliographic, chemical,
# crystal, experimental, refinement or atomic coordinate data resulting
# from the CCDC's data processing and validation procedures.
#
#######################################################################

data_CSD_CIF_WAKWIO
_audit_creation_date 1993-12-13
_audit_creation_method CSD-ConQuest-V1
_database_code_CSD WAKWIO
_chemical_formula_sum 'C15 H11 N3 O4'
_chemical_formula_moiety
;
C15 H11 N3 O4
;
_journal_coden_Cambridge 11
_journal_volume 123
_journal_year 1993
_journal_page_first 45
_journal_name_full 'Gazz.Chim.Ital. '
loop_
_publ_author_name
"L.Eberson"
"E.Giorgini"
"L.Greci"
"G.Tosi"
"C.Rizzoli"
"P.Sgarabotto"
"F.Ugozzoli"
_chemical_name_systematic
;
1-Methyl-3,6-dinitro-2-phenylindole
;
_chemical_melting_point 511.15
_cell_volume   1323.740
_exptl_crystal_colour 'pale yellow'
_exptl_crystal_density_diffrn 1.49
_exptl_special_details
;
Melting point range 511.15-513.15K
Deposited data adds no further information

;
_diffrn_ambient_temperature ?
_diffrn_special_details
;
The study was carried out at room temperature,in the range 283-303K

;
#These two values have been output from a single CSD field.
_refine_ls_R_factor_gt 0.041
_refine_ls_wR_factor_gt 0.041
_symmetry_cell_setting monoclinic
_symmetry_space_group_name_H-M 'P 21/n'
_symmetry_Int_Tables_number 14
loop_
_symmetry_equiv_pos_site_id
_symmetry_equiv_pos_as_xyz
1 x,y,z
2 1/2-x,1/2+y,1/2-z
3 -x,-y,-z
4 -1/2+x,-1/2-y,-1/2+z
_cell_length_a 12.827(4)
_cell_length_b 12.279(4)
_cell_length_c 8.685(3)
_cell_angle_alpha 90
_cell_angle_beta 104.6(1)
_cell_angle_gamma 90
_cell_formula_units_Z 4
loop_
_atom_type_symbol
_atom_type_radius_bond
C 0.68
N 0.68
O 0.68
loop_
_atom_site_label
_atom_site_type_symbol
_atom_site_fract_x
_atom_site_fract_y
_atom_site_fract_z
O1 O 0.7921(1) 0.7749(1) -0.0202(2)
O2 O 0.6968(1) 0.7795(1) 0.1519(2)
O3 O 0.4439(1) 0.3291(1) 0.4009(2)
O4 O 0.4789(2) 0.2175(1) 0.2313(2)
N1 N 0.7123(1) 0.4450(1) -0.0441(2)
N2 N 0.7371(1) 0.7295(1) 0.0579(2)
N3 N 0.4841(1) 0.3077(1) 0.2910(2)
C1 C 0.7537(1) 0.5455(1) -0.0602(2)
C2 C 0.7179(1) 0.6155(1) 0.0426(2)
C3 C 0.6532(1) 0.5563(1) 0.1243(2)
C4 C 0.5958(1) 0.5807(2) 0.2382(2)
C5 C 0.5408(1) 0.4982(2) 0.2912(2)
C6 C 0.5414(1) 0.3934(2) 0.2299(2)
C7 C 0.5955(1) 0.3653(2) 0.1168(2)
C8 C 0.6511(1) 0.4495(1) 0.0662(2)
C9 C 0.7330(2) 0.3432(2) -0.1194(3)
C10 C 0.8235(1) 0.5641(1) -0.1697(2)
C11 C 0.9280(1) 0.6026(2) -0.1118(2)
C12 C 0.9934(2) 0.6171(2) -0.2145(3)
C13 C 0.9565(2) 0.5945(2) -0.3742(3)
C14 C 0.8533(2) 0.5549(2) -0.4325(2)
C15 C 0.7857(2) 0.5400(2) -0.3315(2)
#END
