
#######################################################################
#
#                 Cambridge Crystallographic Data Centre
#                                CCDC
#
#######################################################################
#
# If this CIF has been generated from an entry in the Cambridge
# Structural Database, then it will include bibliographic, chemical,
# crystal, experimental, refinement or atomic coordinate data resulting
# from the CCDC's data processing and validation procedures.
#
#######################################################################

data_CSD_CIF_WAKWAG
_audit_creation_date 1993-12-13
_audit_creation_method CSD-ConQuest-V1
_database_code_CSD WAKWAG
_chemical_formula_sum 'C15 H11 N3 O4'
_chemical_formula_moiety
;
C15 H11 N3 O4
;
_journal_coden_Cambridge 11
_journal_volume 123
_journal_year 1993
_journal_page_first 45
_journal_name_full 'Gazz.Chim.Ital. '
loop_
_publ_author_name
"L.Eberson"
"E.Giorgini"
"L.Greci"
"G.Tosi"
"C.Rizzoli"
"P.Sgarabotto"
"F.Ugozzoli"
_chemical_name_systematic
;
1-Methyl-3,4-dinitro-2-phenylindole
;
_chemical_melting_point 468.15
_cell_volume   2768.494
_exptl_crystal_colour 'pale yellow'
_exptl_crystal_density_diffrn 1.43
_exptl_special_details
;
Melting point range 468.15-471.15K
Deposited data adds no further information

;
_diffrn_ambient_temperature ?
_diffrn_special_details
;
The study was carried out at room temperature,in the range 283-303K

;
#These two values have been output from a single CSD field.
_refine_ls_R_factor_gt 0.034
_refine_ls_wR_factor_gt 0.034
_symmetry_cell_setting orthorhombic
_symmetry_space_group_name_H-M 'P n a 21'
_symmetry_Int_Tables_number 33
loop_
_symmetry_equiv_pos_site_id
_symmetry_equiv_pos_as_xyz
1 x,y,z
2 1/2-x,1/2+y,1/2+z
3 1/2+x,1/2-y,z
4 -x,-y,1/2+z
_cell_length_a 17.151(3)
_cell_length_b 11.475(2)
_cell_length_c 14.067(3)
_cell_angle_alpha 90
_cell_angle_beta 90
_cell_angle_gamma 90
_cell_formula_units_Z 8
loop_
_atom_type_symbol
_atom_type_radius_bond
C 0.68
N 0.68
O 0.68
loop_
_atom_site_label
_atom_site_type_symbol
_atom_site_fract_x
_atom_site_fract_y
_atom_site_fract_z
O1 O 0.7189(2) 0.0541(4) 1.0150(4)
O2 O 0.6479(2) 0.0732(4) 1.1399(4)
O3 O 0.5336(3) -0.0877(3) 1.1322(4)
O4 O 0.4796(3) -0.0003(4) 1.2506(4)
N1 N 0.5322(2) 0.2322(3) 0.89440
N2 N 0.6572(2) 0.0784(3) 1.0523(4)
N3 N 0.4962(3) -0.0075(4) 1.1660(4)
C1 C 0.6025(2) 0.1838(3) 0.9140(4)
C2 C 0.5937(2) 0.1179(3) 0.9980(4)
C3 C 0.5149(2) 0.1266(3) 1.0281(4)
C4 C 0.4672(3) 0.0830(4) 1.1019(4)
C5 C 0.3911(3) 0.1163(4) 1.1112(4)
C6 C 0.3576(3) 0.1904(5) 1.0444(5)
C7 C 0.3999(3) 0.2324(4) 0.9690(5)
C8 C 0.4777(3) 0.2006(4) 0.9623(4)
C9 C 0.5120(4) 0.3022(6) 0.8109(5)
C10 C 0.6713(2) 0.2049(4) 0.8539(4)
C11 C 0.7105(3) 0.1127(4) 0.8110(4)
C12 C 0.7733(3) 0.1344(5) 0.7523(4)
C13 C 0.7983(3) 0.2461(5) 0.7356(4)
C14 C 0.7607(3) 0.3380(5) 0.7782(5)
C15 C 0.6975(3) 0.3176(4) 0.8375(4)
O5 O 0.2872(2) 0.6586(3) 0.7107(4)
O6 O 0.3611(2) 0.6296(3) 0.5896(4)
O7 O 0.4381(2) 0.4216(3) 0.6043(4)
O8 O 0.5088(3) 0.4841(4) 0.4877(4)
N4 N 0.4984(2) 0.7302(3) 0.8416(3)
N5 N 0.3516(2) 0.6462(3) 0.6752(4)
N6 N 0.4903(2) 0.4825(4) 0.5722(4)
C16 C 0.4229(2) 0.7185(4) 0.8164(4)
C17 C 0.4193(2) 0.6539(3) 0.7335(4)
C18 C 0.4972(2) 0.6210(3) 0.7073(4)
C19 C 0.5348(3) 0.5538(4) 0.6385(4)
C20 C 0.6142(3) 0.5429(4) 0.6366(5)
C21 C 0.6593(3) 0.5973(4) 0.7047(5)
C22 C 0.6260(3) 0.6604(4) 0.7765(4)
C23 C 0.5451(2) 0.6715(4) 0.7772(4)
C24 C 0.5284(4) 0.7931(5) 0.9234(4)
C25 C 0.3593(3) 0.7660(4) 0.8767(4)
C26 C 0.3119(3) 0.6895(5) 0.9272(5)
C27 C 0.2555(3) 0.7327(5) 0.9878(5)
C28 C 0.2450(3) 0.8511(5) 0.9969(4)
C29 C 0.2913(3) 0.9268(5) 0.9461(4)
C30 C 0.3487(3) 0.8857(4) 0.8861(4)
#END
