
#######################################################################
#
#                 Cambridge Crystallographic Data Centre
#                                CCDC
#
#######################################################################
#
# If this CIF has been generated from an entry in the Cambridge
# Structural Database, then it will include bibliographic, chemical,
# crystal, experimental, refinement or atomic coordinate data resulting
# from the CCDC's data processing and validation procedures.
#
#######################################################################

data_CSD_CIF_WAKWUA
_audit_creation_date 1993-12-13
_audit_creation_method CSD-ConQuest-V1
_database_code_CSD WAKWUA
_chemical_formula_sum 'C15 H21 N1 O3'
_chemical_formula_moiety
;
C15 H21 N1 O3
;
_journal_coden_Cambridge 186
_journal_year 1993
_journal_page_first 1287
_journal_name_full 'J.Chem.Soc.,Dalton Trans. '
loop_
_publ_author_name
"A.Jegorov"
"V.Matha"
"M.Husak"
"B.Kratochvil"
"J.Stuchlik"
"P.Sedmera"
"V.Havlicek"
_chemical_name_systematic
;
(1'S,2'R,4'S,6'R)-3-(2',4'-Dimethyl-6'-vinylcyclohexyl)-1,4-dihydroxy-2(1H)-py
ridone
;
_chemical_name_common
;
Tolypocin
;
_chemical_melting_point ?
_cell_volume   1551.819
_exptl_crystal_colour 'colorless'
_exptl_crystal_density_diffrn 1.127
_exptl_special_details
;
Sublimes at 493.15K
bactericidal activity
Author correction: the absolute chirality shows that the published data 
describe the wrong enantiomer
;
_diffrn_ambient_temperature ?
_diffrn_special_details
;
The study was carried out at room temperature,in the range 283-303K

;
#These two values have been output from a single CSD field.
_refine_ls_R_factor_gt 0.05
_refine_ls_wR_factor_gt 0.05
_chemical_compound_source
;
Entomopathogenic fungus Tolypocladium geodes
;
_symmetry_cell_setting monoclinic
_symmetry_space_group_name_H-M 'P 21'
_symmetry_Int_Tables_number 4
loop_
_symmetry_equiv_pos_site_id
_symmetry_equiv_pos_as_xyz
1 x,y,z
2 -x,1/2+y,-z
_cell_length_a 12.28(1)
_cell_length_b 9.958(5)
_cell_length_c 12.737(4)
_cell_angle_alpha 90
_cell_angle_beta 94.91(5)
_cell_angle_gamma 90
_cell_formula_units_Z 4
loop_
_atom_type_symbol
_atom_type_radius_bond
C 0.68
H 0.23
N 0.68
O 0.68
loop_
_atom_site_label
_atom_site_type_symbol
_atom_site_fract_x
_atom_site_fract_y
_atom_site_fract_z
O1 O -0.6244(3) 0.1100(5) -0.7198(3)
O2 O -0.3081(3) -0.0591(5) -0.426(2)
O3 O -0.4185(3) 0.1413(5) -0.7547(2)
O4 O -0.3991(3) -0.6023(5) 0.2348(3)
O5 O -0.6863(3) -0.4380(6) -0.0865(3)
O6 O -0.6114(3) -0.6317(4) 0.2497(2)
N1 N -0.5415(3) 0.0741(5) -0.6442(3)
N2 N -0.4760(3) -0.5676(6) 0.1516(3)
C1 C -0.5726(4) 0.0220(7) -0.5529(4)
C2 C -0.4965(5) -0.0214(8) -0.4791(4)
C3 C -0.3862(4) -0.0156(7) -0.4982(4)
C4 C -0.3538(4) 0.0385(6) -0.5914(3)
C5 C -0.4359(4) 0.0847(6) -0.6668(3)
C6 C -0.2363(4) 0.0516(6) -0.6165(3)
C7 C -0.1786(5) -0.0830(7) -0.6246(5)
C8 C -0.0659(5) -0.0577(9) -0.6661(5)
C9 C 0.0036(5) 0.0411(8) -0.5993(5)
C10 C -0.0582(4) 0.1692(8) -0.5846(5)
C11 C -0.1697(4) 0.1508(7) -0.5427(4)
C12 C -0.2428(7) -0.1779(9) -0.6931(7)
C13 C -0.281(1) -0.290(1) -0.668(1)
C14 C 0.1119(5) 0.070(1) -0.6485(6)
C15 C -0.2260(5) 0.2826(7) -0.5323(6)
C16 C -0.4346(4) -0.5176(8) 0.0648(4)
C17 C -0.5027(5) -0.4741(8) -0.0163(4)
C18 C -0.6146(4) -0.4816(7) -0.0078(4)
C19 C -0.6582(4) -0.5327(7) 0.0820(3)
C20 C -0.5847(4) -0.5783(6) 0.1651(3)
C21 C -0.7805(4) -0.5364(7) 0.0903(4)
C22 C -0.8180(5) -0.4348(7) 0.1687(5)
C23 C -0.9418(5) -0.4330(9) 0.1668(6)
C24 C -0.9892(5) -0.5716(8) 0.1818(6)
C25 C -0.9495(5) -0.6704(9) 0.1047(5)
C26 C -0.8259(4) -0.6755(7) 0.1080(4)
C27 C -0.7749(8) -0.2987(9) 0.1513(7)
C28 C -0.711(1) -0.231(1) 0.2112(9)
C29 C -1.1141(5) -0.566(1) 0.1767(8)
C30 C -0.7886(6) -0.7818(9) 0.0331(6)
H1 H -0.60600 0.21700 -0.73900
H2 H -0.65400 -0.41600 -0.14000
H3 H -0.34900 -0.08800 -0.36000
H4 H -0.42100 -0.70600 0.25300
H5 H -0.65200 0.01700 -0.54100
H6 H -0.51900 -0.05800 -0.41100
H7 H -0.24200 0.09000 -0.69000
H8 H -0.17200 -0.12800 -0.55400
H9 H -0.07800 -0.02100 -0.73900
H10 H -0.02600 -0.14500 -0.66700
H11 H 0.01900 -0.00100 -0.52800
H12 H -0.06900 0.21500 -0.65500
H13 H -0.01300 0.22700 -0.53400
H14 H -0.16100 0.11500 -0.46900
H15 H -0.25900 -0.15100 -0.76900
H16 H -0.32400 -0.34800 -0.72100
H17 H -0.26800 -0.32100 -0.59400
H18 H 0.15600 0.13500 -0.60300
H19 H 0.09600 0.10900 -0.72000
H20 H 0.15400 -0.01600 -0.65400
H21 H -0.18000 0.34300 -0.48400
H22 H -0.23800 0.32600 -0.60300
H23 H -0.29800 0.26800 -0.50300
H24 H -0.35400 -0.51300 0.06100
H25 H -0.47400 -0.43800 -0.08200
H26 H -0.81300 -0.50900 0.01900
H27 H -0.78600 -0.46200 0.24000
H28 H -0.96300 -0.37300 0.22500
H29 H -0.97300 -0.39700 0.09700
H30 H -0.96200 -0.60500 0.25300
H31 H -0.97700 -0.76200 0.12200
H32 H -0.97900 -0.64400 0.03200
H33 H -0.79600 -0.70400 0.18000
H34 H -0.80100 -0.25500 0.08300
H35 H -0.68200 -0.27000 0.28000
H36 H -0.68800 -0.13900 0.19100
H37 H -1.14400 -0.65800 0.18700
H38 H -1.13700 -0.50600 0.23300
H39 H -1.14300 -0.53100 0.10600
H40 H -0.82100 -0.87100 0.05000
H41 H -0.81300 -0.75600 -0.04100
H42 H -0.70700 -0.78900 0.04200
#END
