
#######################################################################
#
#                 Cambridge Crystallographic Data Centre
#                                CCDC
#
#######################################################################
#
# If this CIF has been generated from an entry in the Cambridge
# Structural Database, then it will include bibliographic, chemical,
# crystal, experimental, refinement or atomic coordinate data resulting
# from the CCDC's data processing and validation procedures.
#
#######################################################################

data_CSD_CIF_WAKYIQ
_audit_creation_date 2000-08-20
_audit_creation_method CSD-ConQuest-V1
_database_code_CSD WAKYIQ
_chemical_formula_sum 'C10 H14 N2 O2'
_chemical_formula_moiety
;
C10 H14 N2 O2
;
_journal_coden_Cambridge 1088
_journal_volume 1999
_journal_year 1999
_journal_page_first 873
_journal_name_full 'Synlett '
loop_
_publ_author_name
"R.C.F.Jones"
"C.E.Dawson"
"M.J.O'Mahony"
_chemical_name_systematic
;
(6S)-3-Methyl-6-((1S)-methylpropyl)-5,6-dihydro-4H-pyrrolo(3,4-c)isoxazol-4-on
e
;
_chemical_melting_point 383.15
_cell_volume   1071.190
_exptl_crystal_colour 'colorless'
_exptl_crystal_density_diffrn 1.204
_exptl_crystal_preparation 'hexane/ethyl acetate'
_diffrn_ambient_temperature 162
#These two values have been output from a single CSD field.
_refine_ls_R_factor_gt 0.0388
_refine_ls_wR_factor_gt 0.0388
_symmetry_cell_setting orthorhombic
_symmetry_space_group_name_H-M 'P 21 21 21'
_symmetry_Int_Tables_number 19
loop_
_symmetry_equiv_pos_site_id
_symmetry_equiv_pos_as_xyz
1 x,y,z
2 1/2-x,-y,1/2+z
3 1/2+x,1/2-y,-z
4 -x,1/2+y,1/2-z
_cell_length_a 6.3660(7)
_cell_length_b 7.7240(6)
_cell_length_c 21.785(9)
_cell_angle_alpha 90
_cell_angle_beta 90
_cell_angle_gamma 90
_cell_formula_units_Z 4
loop_
_atom_type_symbol
_atom_type_radius_bond
C 0.68
H 0.23
N 0.68
O 0.68
loop_
_atom_site_label
_atom_site_type_symbol
_atom_site_fract_x
_atom_site_fract_y
_atom_site_fract_z
O1 O 0.6111(3) 0.8978(3) 0.1282(1)
O2 O 0.9202(3) 0.4411(3) 0.0155(1)
N1 N 0.4383(4) 0.7693(4) 0.1342(1)
N2 N 0.5887(4) 0.3658(4) 0.0534(1)
C1 C 0.7670(5) 0.8159(5) 0.0951(2)
C2 C 0.7046(4) 0.6450(5) 0.0793(2)
C3 C 0.7580(6) 0.4761(5) 0.0455(2)
C4 C 0.4157(5) 0.4369(5) 0.0906(2)
C5 C 0.5045(5) 0.6233(5) 0.1038(2)
C6 C 0.9593(5) 0.9283(5) 0.0857(2)
C7 C 0.3729(5) 0.3178(5) 0.1475(2)
C8 C 0.1764(4) 0.3898(5) 0.1801(2)
C9 C 0.1082(5) 0.2694(5) 0.2341(2)
C10 C 0.5604(4) 0.3087(5) 0.1902(2)
H1 H 0.5848(4) 0.2635(4) 0.0379(1)
H2 H 0.2884(5) 0.4456(5) 0.0655(2)
H3 H 1.0511(18) 0.8744(15) 0.0564(8)
H4 H 1.0318(20) 0.9417(26) 0.1241(2)
H5 H 0.9171(5) 1.0398(11) 0.0708(10)
H6 H 0.3416(5) 0.2007(5) 0.1328(2)
H7 H 0.0622(4) 0.3996(5) 0.1509(2)
H8 H 0.2065(4) 0.5046(5) 0.1959(2)
H9 H -0.0204(21) 0.3116(17) 0.2516(7)
H10 H 0.2158(18) 0.2684(24) 0.2650(5)
H11 H 0.0872(33) 0.1539(8) 0.2190(2)
H12 H 0.6835(8) 0.2784(30) 0.1671(2)
H13 H 0.5355(16) 0.2227(20) 0.2212(6)
H14 H 0.5809(21) 0.4194(9) 0.2094(8)
#END
