
#######################################################################
#
#                 Cambridge Crystallographic Data Centre
#                                CCDC
#
#######################################################################
#
# If this CIF has been generated from an entry in the Cambridge
# Structural Database, then it will include bibliographic, chemical,
# crystal, experimental, refinement or atomic coordinate data resulting
# from the CCDC's data processing and validation procedures.
#
#######################################################################

data_CSD_CIF_WALBEQ
_audit_creation_date 2000-08-20
_audit_creation_method CSD-ConQuest-V1
_database_code_CSD WALBEQ
_chemical_formula_sum 'C10 H14 N2 O2'
_chemical_formula_moiety
;
C10 H14 N2 O2
;
_journal_coden_Cambridge 1088
_journal_volume 1999
_journal_year 1999
_journal_page_first 873
_journal_name_full 'Synlett '
loop_
_publ_author_name
"R.C.F.Jones"
"C.E.Dawson"
"M.J.O'Mahony"
_chemical_name_systematic
;
(6S)-3-Methyl-6-isobutyl-5,6-dihydro-4H-pyrrolo(3,4-c)isoxazol-4-one
;
_chemical_melting_point 443.15
_cell_volume   1032.223
_exptl_crystal_density_diffrn 1.25
_exptl_special_details
;
Melting point range 443.15-444.15K

;
_exptl_crystal_preparation 'hexane/ethyl acetate'
_diffrn_ambient_temperature 150
#These two values have been output from a single CSD field.
_refine_ls_R_factor_gt 0.0358
_refine_ls_wR_factor_gt 0.0358
_symmetry_cell_setting monoclinic
_symmetry_space_group_name_H-M 'P 21'
_symmetry_Int_Tables_number 4
loop_
_symmetry_equiv_pos_site_id
_symmetry_equiv_pos_as_xyz
1 x,y,z
2 -x,1/2+y,-z
_cell_length_a 5.569(2)
_cell_length_b 10.606(2)
_cell_length_c 17.680(4)
_cell_angle_alpha 90
_cell_angle_beta 98.71(2)
_cell_angle_gamma 90
_cell_formula_units_Z 4
loop_
_atom_type_symbol
_atom_type_radius_bond
C 0.68
H 0.23
N 0.68
O 0.68
loop_
_atom_site_label
_atom_site_type_symbol
_atom_site_fract_x
_atom_site_fract_y
_atom_site_fract_z
O1 O 0.0457(5) 0.3112(3) 0.2234(1)
O2 O -0.6301(5) 0.2440(3) 0.0490(2)
N1 N 0.0353(6) 0.1154(3) 0.1655(2)
N2 N -0.5226(6) 0.1233(3) 0.0375(2)
C1 C -0.0539(7) 0.2319(4) 0.1775(2)
C2 C -0.2827(7) 0.2408(4) 0.1254(2)
C3 C -0.4800(7) 0.3113(5) 0.1023(2)
C4 C -0.3179(7) 0.1288(4) 0.0843(2)
C5 C -0.1071(7) 0.0405(4) 0.1045(2)
C6 C -0.1735(7) -0.0905(4) 0.1295(2)
C7 C 0.0386(7) -0.1797(4) 0.1521(2)
C8 C 0.1813(8) -0.2029(5) 0.0865(3)
C9 C -0.0575(9) -0.3049(4) 0.1782(3)
C10 C -0.5683(9) 0.4390(4) 0.1210(3)
H1 H 0.1697(6) 0.0867(3) 0.1926(2)
H2 H -0.0157(7) 0.0334(4) 0.0602(2)
H3 H -0.2627(7) -0.0817(4) 0.1736(2)
H4 H -0.2857(7) -0.1295(4) 0.0872(2)
H5 H 0.1501(7) -0.1418(4) 0.1958(2)
H6 H 0.2490(33) -0.1230(6) 0.0715(8)
H7 H 0.0731(12) -0.2382(20) 0.0428(5)
H8 H 0.3136(26) -0.2623(16) 0.1030(5)
H9 H -0.1469(37) -0.2897(5) 0.2210(9)
H10 H 0.0791(9) -0.3618(9) 0.1947(13)
H11 H -0.1662(36) -0.3433(12) 0.1357(5)
H12 H -0.7410(15) 0.4342(7) 0.1259(15)
H13 H -0.5462(45) 0.4980(7) 0.0799(8)
H14 H -0.4755(34) 0.4684(12) 0.1693(8)
O3 O 0.4641(5) 0.0409(3) 0.2633(2)
O4 O 1.1537(5) 0.1023(3) 0.4319(1)
N3 N 0.5208(6) 0.2464(3) 0.3052(2)
N4 N 1.0735(6) 0.2311(3) 0.4339(2)
C11 C 0.5819(7) 0.1234(4) 0.3015(2)
C12 C 0.8135(6) 0.1128(4) 0.3528(2)
C13 C 0.9939(7) 0.0346(4) 0.3827(2)
C14 C 0.8739(6) 0.2307(4) 0.3846(2)
C15 C 0.6930(6) 0.3291(4) 0.3534(2)
C16 C 0.5789(7) 0.4029(4) 0.4127(2)
C17 C 0.3977(7) 0.5029(4) 0.3799(2)
C18 C 0.2612(8) 0.5525(5) 0.4434(3)
C19 C 0.5220(8) 0.6126(4) 0.3432(3)
C20 C 1.0476(9) -0.1027(4) 0.3760(3)
H15 H 0.3841(6) 0.2758(3) 0.2799(2)
H16 H 0.7692(6) 0.3889(4) 0.3203(2)
H17 H 0.4958(7) 0.3428(4) 0.4429(2)
H18 H 0.7101(7) 0.4440(4) 0.4482(2)
H19 H 0.2769(7) 0.4630(4) 0.3393(2)
H20 H 0.1739(47) 0.4828(7) 0.4635(13)
H21 H 0.1450(42) 0.6176(21) 0.4224(5)
H22 H 0.3779(10) 0.5886(28) 0.4848(9)
H23 H 0.6119(33) 0.5792(5) 0.3040(9)
H24 H 0.6346(31) 0.6560(14) 0.3827(3)
H25 H 0.3984(9) 0.6721(12) 0.3196(11)
H26 H 0.9165(23) -0.1427(6) 0.3409(11)
H27 H 1.0601(41) -0.1424(6) 0.4265(4)
H28 H 1.2015(23) -0.1130(4) 0.3561(12)
#END
