
#######################################################################
#
#                 Cambridge Crystallographic Data Centre
#                                CCDC
#
#######################################################################
#
# If this CIF has been generated from an entry in the Cambridge
# Structural Database, then it will include bibliographic, chemical,
# crystal, experimental, refinement or atomic coordinate data resulting
# from the CCDC's data processing and validation procedures.
#
#######################################################################

data_CSD_CIF_WALFUM
_audit_creation_date 2010-12-14
_audit_creation_method CSD-ConQuest-V1
_database_code_CSD WALFUM
_database_code_depnum_ccdc_archive 'CCDC 711563'
_chemical_formula_sum 'C7 H7 N3 O6'
_chemical_formula_moiety
;
C7 H7 N3 O6
;
_journal_coden_Cambridge 41
_journal_volume 54
_journal_year 2009
_journal_page_first 926
_journal_name_full 'Kristallografiya(Russ.)(Crystallogr.Rep.) '
loop_
_publ_author_name
"O.V.Koval'chukova"
"A.I.Stash"
"V.K.Belsky"
"S.B.Strashnova"
"B.E.Zaitsev"
"O.V.Avramenko"
_chemical_name_systematic
;
3-Hydroxy-4-6-dinitro-2-ethoxypyridine
;
_chemical_name_common
;
2-Ethoxy-4,6-dinitropyridin-3-ol
;
_chemical_melting_point 127
_cell_volume   1889.867
_exptl_crystal_colour 'bright yellow'
_exptl_crystal_density_diffrn 1.611
_exptl_crystal_description 'prism'
_diffrn_ambient_temperature 295
#These two values have been output from a single CSD field.
_refine_ls_R_factor_gt 0.0286
_refine_ls_wR_factor_gt 0.0286
_symmetry_cell_setting monoclinic
_symmetry_space_group_name_H-M 'P 21/c'
_symmetry_Int_Tables_number 14
loop_
_symmetry_equiv_pos_site_id
_symmetry_equiv_pos_as_xyz
1 x,y,z
2 -x,1/2+y,1/2-z
3 -x,-y,-z
4 x,-1/2-y,-1/2+z
_cell_length_a 11.710(2)
_cell_length_b 16.399(3)
_cell_length_c 10.738(2)
_cell_angle_alpha 90
_cell_angle_beta 113.58(3)
_cell_angle_gamma 90
_cell_formula_units_Z 8
loop_
_atom_type_symbol
_atom_type_radius_bond
C 0.68
H 0.23
N 0.68
O 0.68
loop_
_atom_site_label
_atom_site_type_symbol
_atom_site_fract_x
_atom_site_fract_y
_atom_site_fract_z
O1 O -0.26443(13) 0.75666(10) -0.28121(16)
O2 O -0.25576(18) 0.80050(12) -0.08854(17)
O3 O 0.00023(16) 0.65464(11) 0.31800(15)
O4 O 0.15097(14) 0.58121(10) 0.31652(14)
O5 O 0.15845(12) 0.53720(8) 0.08553(12)
O6 O 0.06855(13) 0.56470(8) -0.17252(12)
N1 N -0.07299(14) 0.66005(10) -0.16327(15)
N2 N -0.21976(16) 0.75683(11) -0.1572(2)
N3 N 0.05816(17) 0.62353(11) 0.25899(16)
C1 C -0.11748(17) 0.70002(12) -0.08453(19)
C2 C -0.08047(17) 0.69189(12) 0.05114(19)
C3 C 0.01477(17) 0.63561(11) 0.11362(17)
C4 C 0.06724(16) 0.59201(11) 0.04011(18)
C5 C 0.01729(17) 0.60790(11) -0.10302(18)
C6 C 0.0422(2) 0.59056(14) -0.31066(19)
C7 C 0.1358(2) 0.55027(17) -0.3501(2)
O7 O 0.75114(14) 0.24244(10) 0.38339(16)
O8 O 0.7607(2) 0.21224(15) 0.5799(2)
O9 O 0.52866(15) 0.37965(11) 0.76893(16)
O10 O 0.38900(14) 0.46212(9) 0.63699(15)
O11 O 0.32646(13) 0.45989(9) 0.37773(13)
O12 O 0.38463(12) 0.40676(8) 0.18428(12)
N4 N 0.54547(15) 0.32732(10) 0.32723(15)
N5 N 0.71390(17) 0.24735(12) 0.47332(19)
N6 N 0.46699(16) 0.40739(11) 0.65767(17)
C8 C 0.60775(18) 0.30061(12) 0.45438(19)
C9 C 0.58387(18) 0.32065(12) 0.56403(19)
C10 C 0.48804(17) 0.37644(11) 0.54062(17)
C11 C 0.41951(17) 0.40561(11) 0.41280(19)
C12 C 0.45346(17) 0.37729(12) 0.30712(19)
C13 C 0.42284(19) 0.38883(14) 0.0742(2)
C14 C 0.3469(2) 0.44174(15) -0.0419(2)
H1 H -0.11430 0.72310 0.09970
H2 H 0.18590 0.53640 0.18010
H3 H 0.05170 0.64920 -0.31010
H4 H -0.04480 0.57870 -0.36840
H5 H 0.12100 0.56310 -0.43300
H6 H 0.22750 0.56800 -0.28590
H7 H 0.13420 0.48570 -0.34620
H8 H 0.62780 0.29880 0.64600
H9 H 0.32250 0.47070 0.46110
H10 H 0.40980 0.33010 0.05750
H11 H 0.51010 0.39680 0.10910
H12 H 0.37810 0.42920 -0.11440
H13 H 0.25650 0.42990 -0.06920
H14 H 0.35640 0.49820 -0.01540
#END
