
#######################################################################
#
#                 Cambridge Crystallographic Data Centre
#                                CCDC
#
#######################################################################
#
# If this CIF has been generated from an entry in the Cambridge
# Structural Database, then it will include bibliographic, chemical,
# crystal, experimental, refinement or atomic coordinate data resulting
# from the CCDC's data processing and validation procedures.
#
#######################################################################

data_CSD_CIF_WALWUB
_audit_creation_date 1993-12-13
_audit_creation_method CSD-ConQuest-V1
_database_code_CSD WALWUB
_database_code_depnum_ccdc_archive 'CCDC 1289923'
_chemical_formula_sum 'C20 H20 N2 O1'
_chemical_formula_moiety
;
C20 H20 N2 O1
;
_journal_coden_Cambridge 34
_journal_volume 30
_journal_year 1993
_journal_page_first 97
_journal_name_full 'J.Heterocycl.Chem. '
loop_
_publ_author_name
"E.Diaz"
"H.Barrios"
"F.Yuste"
"J.L.Aguilera"
"W.F.Reynolds"
"M.R.Van Calsteren"
"C.Jankowski"
_chemical_name_systematic
;
cis-3'-Phenyl-3',3a',4',5',6',7a'-hexahydro-2,1-benzisoxazole-7a'-spiro-2-(3-p
henylaziridine)
;
_chemical_melting_point 388.15
_cell_volume   1664.142
_exptl_crystal_density_diffrn 1.21
_exptl_special_details
;
Melting point range 388.15-389.15K

;
_diffrn_ambient_temperature ?
_diffrn_special_details
;
The study was carried out at room temperature,in the range 283-303K

;
#These two values have been output from a single CSD field.
_refine_ls_R_factor_gt 0.057
_refine_ls_wR_factor_gt 0.057
loop_
_citation_database_id_CSD
_citation_special_details
WALXAI "is a stereoisomer of this entry"
_symmetry_cell_setting monoclinic
_symmetry_space_group_name_H-M 'P 21/c'
_symmetry_Int_Tables_number 14
loop_
_symmetry_equiv_pos_site_id
_symmetry_equiv_pos_as_xyz
1 x,y,z
2 -x,1/2+y,1/2-z
3 -x,-y,-z
4 x,-1/2-y,-1/2+z
_cell_length_a 11.134(5)
_cell_length_b 6.435(2)
_cell_length_c 23.696(7)
_cell_angle_alpha 90
_cell_angle_beta 101.42(3)
_cell_angle_gamma 90
_cell_formula_units_Z 4
loop_
_atom_type_symbol
_atom_type_radius_bond
C 0.68
H 0.23
N 0.68
O 0.68
loop_
_atom_site_label
_atom_site_type_symbol
_atom_site_fract_x
_atom_site_fract_y
_atom_site_fract_z
O1 O 0.3995(4) -0.139(1) 0.1934(2)
N1 N 0.6630(6) 0.351(1) 0.1848(3)
N2 N 0.4724(5) 0.043(1) 0.1928(2)
C1 C 0.6441(6) 0.155(1) 0.1528(3)
C2 C 0.7573(6) 0.185(1) 0.1982(2)
C3 C 0.8813(6) 0.230(1) 0.1855(2)
C4 C 0.9078(7) 0.419(1) 0.1626(3)
C5 C 1.0258(9) 0.453(1) 0.1528(3)
C6 C 1.1130(8) 0.308(2) 0.1665(4)
C7 C 1.0868(7) 0.121(2) 0.1890(3)
C8 C 0.9703(7) 0.082(1) 0.1984(3)
C9 C 0.4255(6) -0.284(1) 0.1513(4)
C10 C 0.5477(5) -0.208(1) 0.1375(3)
C11 C 0.5597(6) -0.200(1) 0.0738(3)
C12 C 0.6683(6) -0.063(1) 0.0679(3)
C13 C 0.6538(6) 0.157(1) 0.0895(2)
C14 C 0.5529(6) 0.000(1) 0.1627(3)
C15 C 0.3191(7) -0.298(2) 0.1005(3)
C16 C 0.2432(8) -0.136(1) 0.0850(3)
C17 C 0.1483(7) -0.147(2) 0.0372(4)
C18 C 0.134(1) -0.324(3) 0.0066(4)
C19 C 0.207(1) -0.492(2) 0.0203(6)
C20 C 0.303(1) -0.476(2) 0.0691(6)
H1 H 0.620(6) 0.33(1) 0.211(3)
H2 H 0.75780 0.11250 0.23290
H3 H 0.84670 0.52380 0.15390
H4 H 1.04460 0.58000 0.13620
H5 H 1.19370 0.33370 0.16090
H6 H 1.14830 0.01650 0.19780
H7 H 0.95210 -0.04690 0.21400
H8 H 0.43790 -0.41770 0.16860
H9 H 0.61250 -0.28930 0.15860
H10 H 0.48690 -0.14540 0.05110
H11 H 0.57300 -0.33720 0.06100
H12 H 0.67410 -0.05700 0.02850
H13 H 0.74110 -0.12190 0.08970
H14 H 0.58190 0.21720 0.06720
H15 H 0.72310 0.23710 0.08510
H16 H 0.25440 -0.01050 0.10680
H17 H 0.09450 -0.03340 0.02630
H18 H 0.06890 -0.33300 -0.02610
H19 H 0.19590 -0.61510 -0.00210
H20 H 0.35640 -0.59010 0.08020
#END
