
#######################################################################
#
#                 Cambridge Crystallographic Data Centre
#                                CCDC
#
#######################################################################
#
# If this CIF has been generated from an entry in the Cambridge
# Structural Database, then it will include bibliographic, chemical,
# crystal, experimental, refinement or atomic coordinate data resulting
# from the CCDC's data processing and validation procedures.
#
#######################################################################

data_CSD_CIF_WALXEN
_audit_creation_date 2005-09-01
_audit_creation_method CSD-ConQuest-V1
_database_code_CSD WALXEN
_database_code_depnum_ccdc_archive 'CCDC 248627'
_chemical_formula_sum 'C20 H18 N2 O2'
_chemical_formula_moiety
;
C20 H18 N2 O2
;
_journal_coden_Cambridge 119
_journal_volume 743
_journal_year 2005
_journal_page_first 135
_journal_name_full 'J.Mol.Struct. '
loop_
_publ_author_name
"B.Bovio"
"P.Caramella"
"P.Quadrelli"
_chemical_name_systematic
;
3,8-Diphenyl-3a,4,5,5a,8a,8b-hexahydrobenzo(1,2-d:3,4-d')di-isoxazole
;
_cell_volume   1639.140
_exptl_crystal_colour 'colorless'
_exptl_crystal_density_diffrn 1.29
_exptl_crystal_description 'needles'
_diffrn_ambient_temperature 293
#These two values have been output from a single CSD field.
_refine_ls_R_factor_gt 0.039
_refine_ls_wR_factor_gt 0.039
_symmetry_cell_setting monoclinic
_symmetry_space_group_name_H-M 'P 21/c'
_symmetry_Int_Tables_number 14
loop_
_symmetry_equiv_pos_site_id
_symmetry_equiv_pos_as_xyz
1 x,y,z
2 -x,1/2+y,1/2-z
3 -x,-y,-z
4 x,-1/2-y,-1/2+z
_cell_length_a 15.278(1)
_cell_length_b 9.839(1)
_cell_length_c 10.912(2)
_cell_angle_alpha 90
_cell_angle_beta 92.15(1)
_cell_angle_gamma 90
_cell_formula_units_Z 4
loop_
_atom_type_symbol
_atom_type_radius_bond
C 0.68
H 0.23
N 0.68
O 0.68
loop_
_atom_site_label
_atom_site_type_symbol
_atom_site_fract_x
_atom_site_fract_y
_atom_site_fract_z
O1 O 0.70720(9) 0.1652(2) 0.6067(1)
N1 N 0.6150(1) 0.1468(2) 0.6051(2)
C1 C 0.5870(1) 0.1693(2) 0.7118(2)
C2 C 0.6578(1) 0.2021(2) 0.8077(2)
H1 H 0.645(2) 0.285(3) 0.861(3)
C3 C 0.6757(1) 0.0797(3) 0.8924(2)
H2 H 0.626(4) 0.044(6) 0.905(6)
H3 H 0.705(4) 0.118(6) 0.965(6)
C4 C 0.7368(2) -0.0222(2) 0.8349(2)
H4 H 0.741(2) -0.103(3) 0.888(3)
H5 H 0.714(5) -0.062(7) 0.756(7)
C5 C 0.8265(1) 0.0416(2) 0.8174(2)
H6 H 0.867(3) -0.019(6) 0.775(5)
O2 O 0.8672(1) 0.0613(2) 0.9394(2)
N2 N 0.8882(1) 0.1990(2) 0.9577(2)
C6 C 0.8650(1) 0.2676(2) 0.8620(2)
C7 C 0.8236(1) 0.1839(2) 0.7598(2)
H7 H 0.855(2) 0.189(4) 0.684(4)
C8 C 0.7322(1) 0.2335(2) 0.7215(2)
H8 H 0.736(2) 0.333(4) 0.704(4)
C9 C 0.4934(1) 0.1559(2) 0.7380(2)
C10 C 0.4353(1) 0.0935(3) 0.6522(3)
H9 H 0.464(4) 0.044(7) 0.572(6)
C11 C 0.3476(1) 0.0831(3) 0.6783(3)
H10 H 0.302(5) 0.035(9) 0.618(8)
C12 C 0.3161(2) 0.1325(3) 0.7857(4)
H11 H 0.252(4) 0.121(6) 0.812(5)
C13 C 0.3735(2) 0.1937(4) 0.8718(4)
H12 H 0.351(3) 0.234(5) 0.939(5)
C14 C 0.4620(1) 0.2053(3) 0.8474(3)
H13 H 0.501(4) 0.250(7) 0.901(6)
C15 C 0.8844(1) 0.4144(2) 0.8548(2)
C16 C 0.8784(2) 0.4962(2) 0.9578(3)
H14 H 0.839(4) 0.464(7) 1.033(6)
C17 C 0.9012(3) 0.6320(3) 0.9522(4)
H15 H 0.904(5) 0.683(8) 1.014(7)
C18 C 0.9301(2) 0.6868(3) 0.8443(4)
H16 H 0.951(4) 0.778(7) 0.843(7)
C19 C 0.9345(2) 0.6061(3) 0.7397(4)
H17 H 0.954(3) 0.645(6) 0.663(5)
C20 C 0.9106(1) 0.4696(3) 0.7449(2)
H18 H 0.919(4) 0.400(7) 0.658(7)
#END
