
#######################################################################
#
#                 Cambridge Crystallographic Data Centre
#                                CCDC
#
#######################################################################
#
# If this CIF has been generated from an entry in the Cambridge
# Structural Database, then it will include bibliographic, chemical,
# crystal, experimental, refinement or atomic coordinate data resulting
# from the CCDC's data processing and validation procedures.
#
#######################################################################

data_CSD_CIF_WAMCIZ
_audit_creation_date 2016-02-24
_audit_creation_method CSD-ConQuest-V1
_database_code_CSD WAMCIZ
_database_code_depnum_ccdc_archive 'CCDC 1059197'
_chemical_formula_sum 'C21 H19 N3 O5'
_chemical_formula_moiety
;
C21 H19 N3 O5
;
_journal_coden_Cambridge 1088
_journal_volume 27
_journal_year 2016
_journal_page_first 546
_journal_name_full 'Synlett '
loop_
_publ_author_name
"Zhenjun Mao"
"Fan Mo"
"Xufeng Lin"
_chemical_name_systematic
;
methyl 
5-nitro-2-oxo-1',2',3',3a'-tetrahydro-5'H-spiro[indole-3,4'-pyrrolo[1,2-a]quin
oline]-1(2H)-carboxylate
;
_cell_volume   1849.290
_exptl_crystal_colour 'yellow'
_exptl_crystal_density_diffrn 1.413
_exptl_crystal_description 'block'
_diffrn_ambient_temperature 293
#These two values have been output from a single CSD field.
_refine_ls_R_factor_gt 0.0679
_refine_ls_wR_factor_gt 0.0679
_symmetry_cell_setting monoclinic
_symmetry_space_group_name_H-M 'P 21/c'
_symmetry_Int_Tables_number 14
loop_
_symmetry_equiv_pos_site_id
_symmetry_equiv_pos_as_xyz
1 x,y,z
2 -x,1/2+y,1/2-z
3 -x,-y,-z
4 x,-1/2-y,-1/2+z
_cell_length_a 9.5950(5)
_cell_length_b 14.3255(9)
_cell_length_c 13.6640(8)
_cell_angle_alpha 90
_cell_angle_beta 100.059(6)
_cell_angle_gamma 90
_cell_formula_units_Z 4
loop_
_atom_type_symbol
_atom_type_radius_bond
C 0.68
H 0.23
N 0.68
O 0.68
loop_
_atom_site_label
_atom_site_type_symbol
_atom_site_fract_x
_atom_site_fract_y
_atom_site_fract_z
O1 O 0.9610(3) 0.4212(2) 0.2065(2)
O2 O 0.9911(3) 0.2938(2) 0.12999(19)
O3 O 0.6364(5) 0.0338(2) 0.5820(3)
O4 O 0.7732(3) -0.00098(16) 0.4751(2)
O5 O 0.5590(3) 0.21257(18) 0.5836(2)
N1 N 0.9521(3) 0.3360(2) 0.19819(19)
N2 N 0.6996(3) 0.14676(17) 0.47954(18)
N3 N 0.5285(2) 0.43901(17) 0.36729(17)
C1 C 0.6336(3) 0.50070(18) 0.4059(2)
C2 C 0.6507(3) 0.5856(2) 0.3593(2)
H1 H 0.58900 0.60170 0.30140
C3 C 0.7584(4) 0.6459(2) 0.3982(3)
H2 H 0.76800 0.70210 0.36610
C4 C 0.8511(4) 0.6244(2) 0.4829(3)
H3 H 0.92240 0.66590 0.50930
C5 C 0.8366(3) 0.5392(2) 0.5290(2)
H4 H 0.90030 0.52360 0.58600
C6 C 0.7298(3) 0.47706(19) 0.49204(19)
C7 C 0.7181(3) 0.3836(2) 0.5406(2)
H5 H 0.65990 0.38980 0.59160
H6 H 0.81140 0.36310 0.57230
C8 C 0.6524(3) 0.30976(18) 0.46415(19)
C9 C 0.5089(3) 0.3488(2) 0.4119(2)
H7 H 0.44760 0.35710 0.46160
C10 C 0.4288(4) 0.2934(2) 0.3256(3)
H8 H 0.36890 0.24660 0.34840
H9 H 0.49330 0.26300 0.28840
C11 C 0.3412(4) 0.3671(3) 0.2633(3)
H10 H 0.31620 0.34710 0.19470
H11 H 0.25520 0.38020 0.28900
C12 C 0.4352(3) 0.4517(2) 0.2715(2)
H12 H 0.48900 0.45380 0.21770
H13 H 0.38040 0.50870 0.27090
C13 C 0.6272(3) 0.2201(2) 0.5191(2)
C14 C 0.7737(3) 0.1828(2) 0.4063(2)
C15 C 0.7485(3) 0.27869(19) 0.39525(19)
C16 C 0.8077(3) 0.3308(2) 0.32762(19)
H14 H 0.79160 0.39460 0.32020
C17 C 0.8920(3) 0.2834(2) 0.27145(19)
C18 C 0.9173(3) 0.1874(2) 0.2822(2)
H15 H 0.97410 0.15790 0.24290
C19 C 0.8596(3) 0.1364(2) 0.3497(2)
H16 H 0.87710 0.07280 0.35760
C20 C 0.6952(4) 0.0539(2) 0.5205(3)
C21 C 0.7797(5) -0.0961(3) 0.5142(3)
H17 H 0.69480 -0.12890 0.48630
H18 H 0.78830 -0.09410 0.58530
H19 H 0.86010 -0.12770 0.49680
#END
