
#######################################################################
#
#                 Cambridge Crystallographic Data Centre
#                                CCDC
#
#######################################################################
#
# If this CIF has been generated from an entry in the Cambridge
# Structural Database, then it will include bibliographic, chemical,
# crystal, experimental, refinement or atomic coordinate data resulting
# from the CCDC's data processing and validation procedures.
#
#######################################################################

data_CSD_CIF_WAMTOW
_audit_creation_date 2017-04-10
_audit_creation_method CSD-ConQuest-V1
_database_code_CSD WAMTOW
_database_code_depnum_ccdc_archive 'CCDC 1538714'
_chemical_formula_sum 'C17 H18 N4 O5'
_chemical_formula_moiety
;
C17 H18 N4 O5
;
_journal_coden_Cambridge 493
_journal_volume 134
_journal_year 2017
_journal_page_first 52
_journal_name_full 'Eur.J.Med.Chem. '
loop_
_publ_author_name
"M.Teleb"
"Fang-Xiong Zhang"
"A.M.Farghaly"
"O.M.A.Wafa"
"F.R.Fronczek"
"G.W.Zamponi"
"H.Fahmy"
_chemical_name_systematic
;
ethyl 
3-(2-cyanoethyl)-6-methyl-4-(3-nitrophenyl)-2-oxo-1,2,3,4-tetrahydropyrimidine
-5-carboxylate
;
_chemical_melting_point 450
_cell_volume    888.855
_exptl_crystal_colour 'colorless'
_exptl_crystal_density_diffrn 1.339
_exptl_special_details
;
Melting point range 450-452K

;
_exptl_crystal_description 'needle'
_exptl_crystal_preparation 'ethanol'
_diffrn_ambient_temperature 90
#These two values have been output from a single CSD field.
_refine_ls_R_factor_gt 0.0462
_refine_ls_wR_factor_gt 0.0462
_symmetry_cell_setting triclinic
_symmetry_space_group_name_H-M 'P -1'
_symmetry_Int_Tables_number 2
loop_
_symmetry_equiv_pos_site_id
_symmetry_equiv_pos_as_xyz
1 x,y,z
2 -x,-y,-z
_cell_length_a 9.3597(4)
_cell_length_b 9.4936(4)
_cell_length_c 11.3078(5)
_cell_angle_alpha 79.076(2)
_cell_angle_beta 68.906(2)
_cell_angle_gamma 72.169(2)
_cell_formula_units_Z 2
loop_
_atom_type_symbol
_atom_type_radius_bond
C 0.68
H 0.23
N 0.68
O 0.68
loop_
_atom_site_label
_atom_site_type_symbol
_atom_site_fract_x
_atom_site_fract_y
_atom_site_fract_z
O1 O 0.39706(8) 1.01840(7) 0.89422(7)
O2 O 0.64547(8) 0.37255(7) 0.77749(6)
O3 O 0.75988(9) 0.33888(8) 0.92822(7)
O4 O 0.70322(9) 0.43331(9) 0.34477(7)
O5 O 0.92914(9) 0.47379(9) 0.22681(7)
N1 N 0.59258(9) 0.81793(8) 0.92624(7)
H1 H 0.6011(16) 0.8699(15) 0.9773(13)
N2 N 0.45884(9) 0.81427(8) 0.79025(7)
N3 N 0.81263(9) 0.49078(9) 0.32274(7)
N4 N -0.01743(13) 0.91494(11) 0.68965(13)
C1 C 0.47768(10) 0.89024(10) 0.87087(8)
C2 C 0.55364(9) 0.66337(9) 0.75815(8)
H2 H 0.48050 0.60600 0.75750
C3 C 0.63277(10) 0.58498(9) 0.85664(8)
C4 C 0.65658(10) 0.66553(9) 0.93146(8)
C5 C 0.33540(11) 0.88186(10) 0.73254(9)
H3 H 0.36590 0.84110 0.65000
H4 H 0.32330 0.99040 0.71620
C6 C 0.17724(11) 0.85152(12) 0.82007(10)
H5 H 0.19460 0.74550 0.85320
H6 H 0.13340 0.91230 0.89340
C7 C 0.06464(13) 0.88782(11) 0.74981(12)
C8 C 0.74665(11) 0.60810(11) 1.02413(9)
H7 H 0.67590 0.57750 1.10640
H8 H 0.78780 0.68660 1.03470
H9 H 0.83520 0.52270 0.99190
C9 C 0.68746(10) 0.42212(10) 0.86128(8)
C10 C 0.69825(12) 0.21399(10) 0.76507(9)
H10 H 0.64810 0.15940 0.84550
H11 H 0.81480 0.17880 0.74480
C11 C 0.65024(14) 0.18862(11) 0.65897(11)
H12 H 0.53480 0.22480 0.67980
H13 H 0.68300 0.08220 0.64820
H14 H 0.70160 0.24240 0.57980
C12 C 0.67673(10) 0.66664(9) 0.62580(8)
C13 C 0.68209(10) 0.58525(9) 0.53348(8)
H15 H 0.60490 0.53210 0.54960
C14 C 0.80267(10) 0.58319(10) 0.41713(8)
C15 C 0.91511(11) 0.66220(11) 0.38740(9)
H16 H 0.99530 0.65980 0.30660
C16 C 0.90653(11) 0.74537(11) 0.48007(9)
H17 H 0.98090 0.80210 0.46220
C17 C 0.78983(10) 0.74583(10) 0.59844(8)
H18 H 0.78710 0.80080 0.66160
#END
