
#######################################################################
#
#                 Cambridge Crystallographic Data Centre
#                                CCDC
#
#######################################################################
#
# If this CIF has been generated from an entry in the Cambridge
# Structural Database, then it will include bibliographic, chemical,
# crystal, experimental, refinement or atomic coordinate data resulting
# from the CCDC's data processing and validation procedures.
#
#######################################################################

data_CSD_CIF_WAMTOU
_audit_creation_date 2005-09-01
_audit_creation_method CSD-ConQuest-V1
_database_code_CSD WAMTOU
_database_code_depnum_ccdc_archive 'CCDC 259437'
_chemical_formula_sum 'C10 H13 N3 O1'
_chemical_formula_moiety
;
C10 H13 N3 O1
;
_journal_coden_Cambridge 16
_journal_volume 61
_journal_year 2005
_journal_page_first 5303
_journal_name_full 'Tetrahedron '
loop_
_publ_author_name
"J.Saczewski"
"Z.Brzozowski"
"M.Gdaniec"
_chemical_name_systematic
;
2-Benzyloxyiminoimidazolidine
;
_chemical_melting_point 400.15
_cell_volume   1993.299
_exptl_crystal_colour 'colorless'
_exptl_crystal_density_diffrn 1.274
_exptl_special_details
;
Melting point range 400.15-403.15K

;
_exptl_crystal_description 'block'
_exptl_crystal_preparation 'methanol'
_diffrn_ambient_temperature 130
#These two values have been output from a single CSD field.
_refine_ls_R_factor_gt 0.0331
_refine_ls_wR_factor_gt 0.0331
_symmetry_cell_setting orthorhombic
_symmetry_space_group_name_H-M 'P b c a'
_symmetry_Int_Tables_number 61
loop_
_symmetry_equiv_pos_site_id
_symmetry_equiv_pos_as_xyz
1 x,y,z
2 1/2-x,-y,1/2+z
3 -x,1/2+y,1/2-z
4 1/2+x,1/2-y,-z
5 -x,-y,-z
6 -1/2+x,y,-1/2-z
7 x,-1/2-y,-1/2+z
8 -1/2-x,-1/2+y,z
_cell_length_a 10.5139(4)
_cell_length_b 8.0906(3)
_cell_length_c 23.4330(7)
_cell_angle_alpha 90
_cell_angle_beta 90
_cell_angle_gamma 90
_cell_formula_units_Z 8
loop_
_atom_type_symbol
_atom_type_radius_bond
C 0.68
H 0.23
N 0.68
O 0.68
loop_
_atom_site_label
_atom_site_type_symbol
_atom_site_fract_x
_atom_site_fract_y
_atom_site_fract_z
N1 N 0.06848(9) 0.16736(11) 0.44925(4)
C1 C 0.12412(8) 0.20451(12) 0.50074(4)
N2 N 0.15858(9) 0.36665(11) 0.50163(4)
C2 C 0.14175(11) 0.43840(14) 0.44462(5)
C3 C 0.04122(11) 0.32310(14) 0.41922(5)
N3 N 0.13876(8) 0.09487(10) 0.54102(3)
O1 O 0.21254(7) 0.17439(9) 0.58637(3)
C4 C 0.19597(10) 0.07996(13) 0.63691(4)
C5 C 0.06409(10) 0.09506(12) 0.66253(4)
C6 C 0.02267(11) -0.01853(13) 0.70329(4)
C7 C -0.09764(12) -0.00432(15) 0.72741(5)
C8 C -0.17863(11) 0.12162(15) 0.71028(5)
C9 C -0.13827(11) 0.23515(15) 0.66987(5)
C10 C -0.01695(10) 0.22291(13) 0.64647(4)
H1 H 0.0134(11) 0.3033(15) 0.6180(5)
H2 H 0.0125(14) 0.0876(19) 0.4489(6)
H3 H -0.1942(14) 0.3268(18) 0.6571(6)
H4 H 0.2160(11) -0.0384(16) 0.6287(5)
H5 H 0.2235(14) 0.4010(17) 0.5221(6)
H6 H 0.1116(12) 0.5522(17) 0.4478(6)
H7 H 0.0803(13) -0.1083(17) 0.7153(6)
H8 H 0.2617(12) 0.1244(15) 0.6635(5)
H9 H 0.0502(13) 0.3071(16) 0.3775(6)
H10 H -0.0456(13) 0.3646(15) 0.4283(5)
H11 H 0.2215(13) 0.4338(16) 0.4229(6)
H12 H -0.1260(14) -0.0850(18) 0.7571(6)
H13 H -0.2631(14) 0.1315(16) 0.7266(6)
#END
