
#######################################################################
#
#                 Cambridge Crystallographic Data Centre
#                                CCDC
#
#######################################################################
#
# If this CIF has been generated from an entry in the Cambridge
# Structural Database, then it will include bibliographic, chemical,
# crystal, experimental, refinement or atomic coordinate data resulting
# from the CCDC's data processing and validation procedures.
#
#######################################################################

data_CSD_CIF_WANFOH
_audit_creation_date 2005-09-01
_audit_creation_method CSD-ConQuest-V1
_database_code_CSD WANFOH
_database_code_depnum_ccdc_archive 'CCDC 272350'
_chemical_formula_sum 'C49 H28 N4 O8'
_chemical_formula_moiety
;
C49 H28 N4 O8
;
_journal_coden_Cambridge 1147
_journal_volume 5
_journal_year 2005
_journal_page_first 1237
_journal_name_full 'Cryst.Growth Des. '
loop_
_publ_author_name
"E.Demers"
"T.Maris"
"J.Cabana"
"J.-H.Fournier"
"J.D.Wuest"
_chemical_name_systematic
;
2,2',7,7'-tetrakis(3-Nitrophenyl)-9,9'-spirobi(9H-fluorene)
;
_chemical_melting_point 573.15
_cell_volume   3711.272
_exptl_crystal_colour 'colorless'
_exptl_crystal_density_diffrn 1.433
_exptl_special_details
;
Melts above 573.15K

;
_exptl_crystal_description 'block'
_exptl_crystal_preparation 'chloroform/acetone'
_diffrn_ambient_temperature 223
#These two values have been output from a single CSD field.
_refine_ls_R_factor_gt 0.0429
_refine_ls_wR_factor_gt 0.0429
_symmetry_cell_setting tetragonal
_symmetry_space_group_name_H-M 'I 41/a'
_symmetry_Int_Tables_number 88
loop_
_symmetry_equiv_pos_site_id
_symmetry_equiv_pos_as_xyz
1 x,y,z
2 3/4-y,1/4+x,1/4+z
3 1/2+x,1/2+y,1/2+z
4 1/4-y,3/4+x,3/4+z
5 1/4+y,1/4-x,1/4+z
6 1/2-x,-y,1/2+z
7 3/4+y,3/4-x,3/4+z
8 -x,1/2-y,z
9 -x,-y,-z
10 -3/4+y,-1/4-x,-1/4-z
11 -1/2-x,-1/2-y,-1/2-z
12 -1/4+y,-3/4-x,-3/4-z
13 -1/4-y,-1/4+x,-1/4-z
14 -1/2+x,y,-1/2-z
15 -3/4-y,-3/4+x,-3/4-z
16 x,-1/2+y,-z
_cell_length_a 12.3873(3)
_cell_length_b 12.3873(3)
_cell_length_c 24.1863(7)
_cell_angle_alpha 90
_cell_angle_beta 90
_cell_angle_gamma 90
_cell_formula_units_Z 4
loop_
_atom_type_symbol
_atom_type_radius_bond
C 0.68
H 0.23
N 0.68
O 0.68
loop_
_atom_site_label
_atom_site_type_symbol
_atom_site_fract_x
_atom_site_fract_y
_atom_site_fract_z
C1 C 1.00000 0.25000 0.12500
C2 C 0.95015(10) 0.33121(10) 0.08486(5)
C3 C 0.96844(10) 0.29997(10) 0.03000(5)
C4 C 0.92788(11) 0.36279(11) -0.01297(6)
H1 H 0.9410(13) 0.3409(14) -0.0509(7)
C5 C 0.87156(11) 0.45626(11) -0.00042(6)
H2 H 0.8461(14) 0.5028(13) -0.0306(7)
C6 C 0.85475(10) 0.48970(11) 0.05428(6)
C7 C 0.89431(11) 0.42453(11) 0.09721(6)
H3 H 0.8815(13) 0.4432(13) 0.1354(7)
C8 C 0.80116(11) 0.59447(11) 0.06689(6)
C9 C 0.73283(12) 0.64438(12) 0.02895(6)
H4 H 0.7168(14) 0.6126(14) -0.0065(7)
C10 C 0.68744(13) 0.74323(12) 0.04211(6)
C11 C 0.70341(12) 0.79425(12) 0.09205(6)
H5 H 0.6709(15) 0.8626(15) 0.0991(8)
C12 C 0.77189(12) 0.74563(12) 0.12950(6)
H6 H 0.7892(14) 0.7792(14) 0.1651(8)
C13 C 0.82107(12) 0.64824(12) 0.11672(6)
H7 H 0.8718(14) 0.6186(14) 0.1421(7)
N1 N 0.62459(15) 0.79947(13) -0.00047(6)
O1 O 0.63352(17) 0.77026(12) -0.04833(6)
O2 O 0.56850(17) 0.87545(14) 0.01363(6)
C2G C 1.04985(10) 0.16879(10) 0.08486(5)
C2N C 0.91879(10) 0.20015(10) 0.16514(5)
C2K C 1.08121(10) 0.29985(10) 0.16514(5)
C3G C 1.03156(10) 0.20003(10) 0.03000(5)
C3N C 0.95003(10) 0.21844(10) 0.22000(5)
C3K C 1.04997(10) 0.28156(10) 0.22000(5)
C4K C 1.11279(11) 0.32212(11) 0.26297(6)
C4N C 0.88721(11) 0.17788(11) 0.26297(6)
C4G C 1.07212(11) 0.13721(11) -0.01297(6)
H1K H 1.0909(13) 0.3090(14) 0.3009(7)
H1N H 0.9091(13) 0.1910(14) 0.3009(7)
H1G H 1.0590(13) 0.1591(14) -0.0509(7)
C5K C 1.20626(11) 0.37844(11) 0.25042(6)
C5N C 0.79374(11) 0.12156(11) 0.25042(6)
C5G C 1.12844(11) 0.04374(11) -0.00042(6)
H2K H 1.2528(14) 0.4039(13) 0.2806(7)
H2N H 0.7472(14) 0.0961(13) 0.2806(7)
H2G H 1.1539(14) -0.0028(13) -0.0306(7)
C6K C 1.2397(1) 0.39525(11) 0.19572(6)
C6N C 0.7603(1) 0.10475(11) 0.19572(6)
C6G C 1.14525(10) 0.01030(11) 0.05428(6)
C7K C 1.17453(11) 0.35569(11) 0.15279(6)
C7N C 0.82547(11) 0.14431(11) 0.15279(6)
C7G C 1.10569(11) 0.07547(11) 0.09721(6)
H3K H 1.1932(13) 0.3685(13) 0.1146(7)
H3N H 0.8068(13) 0.1315(13) 0.1146(7)
H3G H 1.1185(13) 0.0568(13) 0.1354(7)
C8K C 1.34447(11) 0.44884(11) 0.18311(6)
C8N C 0.65553(11) 0.05116(11) 0.18311(6)
C8G C 1.19884(11) -0.09447(11) 0.06689(6)
C9K C 1.39438(12) 0.51717(12) 0.22105(6)
C9N C 0.60562(12) -0.01717(12) 0.22105(6)
C9G C 1.26717(12) -0.14438(12) 0.02895(6)
H4K H 1.3626(14) 0.5332(14) 0.2565(7)
H4N H 0.6374(14) -0.0332(14) 0.2565(7)
H4G H 1.2832(14) -0.1126(14) -0.0065(7)
C10K C 1.49323(13) 0.56256(12) 0.20789(6)
C10N C 0.50677(13) -0.06256(12) 0.20789(6)
C10G C 1.31256(13) -0.24323(12) 0.04211(6)
C11K C 1.54425(12) 0.54659(12) 0.15795(6)
C11N C 0.45575(12) -0.04659(12) 0.15795(6)
C11G C 1.29659(12) -0.29425(12) 0.09205(6)
H5K H 1.6126(15) 0.5791(15) 0.1509(8)
H5N H 0.3874(15) -0.0791(15) 0.1509(8)
H5G H 1.3291(15) -0.3626(15) 0.0991(8)
C12K C 1.49563(12) 0.47811(12) 0.12050(6)
C12N C 0.50437(12) 0.02189(12) 0.12050(6)
C12G C 1.22811(12) -0.24563(12) 0.12950(6)
H6K H 1.5292(14) 0.4608(14) 0.0849(8)
H6N H 0.4708(14) 0.0392(14) 0.0849(8)
H6G H 1.2108(14) -0.2792(14) 0.1651(8)
C13K C 1.39824(12) 0.42893(12) 0.13328(6)
C13N C 0.60176(12) 0.07107(12) 0.13328(6)
C13G C 1.17893(12) -0.14824(12) 0.11672(6)
H7K H 1.3686(14) 0.3782(14) 0.1079(7)
H7N H 0.6314(14) 0.1218(14) 0.1079(7)
H7G H 1.1282(14) -0.1186(14) 0.1421(7)
N1K N 1.54947(15) 0.62541(13) 0.25047(6)
N1N N 0.45053(15) -0.12541(13) 0.25047(6)
N1G N 1.37541(15) -0.29947(13) -0.00047(6)
O1K O 1.52026(17) 0.61648(12) 0.29833(6)
O1N O 0.47974(17) -0.11648(12) 0.29833(6)
O1G O 1.36648(17) -0.27026(12) -0.04833(6)
O2K O 1.62545(17) 0.68150(14) 0.23637(6)
O2N O 0.37455(17) -0.18150(14) 0.23637(6)
O2G O 1.43150(17) -0.37545(14) 0.01363(6)
#END
