
#######################################################################
#
#                 Cambridge Crystallographic Data Centre
#                                CCDC
#
#######################################################################
#
# If this CIF has been generated from an entry in the Cambridge
# Structural Database, then it will include bibliographic, chemical,
# crystal, experimental, refinement or atomic coordinate data resulting
# from the CCDC's data processing and validation procedures.
#
#######################################################################

data_CSD_CIF_WANPUY
_audit_creation_date 2012-05-09
_audit_creation_method CSD-ConQuest-V1
_database_code_CSD WANPUY
_database_code_depnum_ccdc_archive 'CCDC 791957'
_chemical_formula_sum 'C19 H16 N2 O2'
_chemical_formula_moiety
;
C19 H16 N2 O2
;
_journal_coden_Cambridge 692
_journal_volume 44
_journal_year 2012
_journal_page_first 755
_journal_name_full 'Synthesis '
loop_
_publ_author_name
"M.Bakthadoss"
"J.Srinivasan"
"R.Selvakumar"
_chemical_name_systematic
;
3-(4-Ethylphenyl)-3H-chromeno[4,3-c][1,2]oxazole-3a(4H)-carbonitrile
;
_cell_volume   1585.301
_exptl_crystal_colour 'colorless'
_exptl_crystal_density_diffrn 1.275
_exptl_crystal_description 'block'
_diffrn_ambient_temperature 292
#These two values have been output from a single CSD field.
_refine_ls_R_factor_gt 0.0636
_refine_ls_wR_factor_gt 0.0636
_symmetry_cell_setting monoclinic
_symmetry_space_group_name_H-M 'P 21/c'
_symmetry_Int_Tables_number 14
loop_
_symmetry_equiv_pos_site_id
_symmetry_equiv_pos_as_xyz
1 x,y,z
2 -x,1/2+y,1/2-z
3 -x,-y,-z
4 x,-1/2-y,-1/2+z
_cell_length_a 6.6869(8)
_cell_length_b 15.8326(19)
_cell_length_c 15.237(2)
_cell_angle_alpha 90
_cell_angle_beta 100.663(7)
_cell_angle_gamma 90
_cell_formula_units_Z 4
loop_
_atom_type_symbol
_atom_type_radius_bond
C 0.68
H 0.23
N 0.68
O 0.68
loop_
_atom_site_label
_atom_site_type_symbol
_atom_site_fract_x
_atom_site_fract_y
_atom_site_fract_z
C1 C 0.9896(5) 0.4607(3) 0.7062(2)
H1 H 0.94910 0.49450 0.74960
C2 C 0.7773(7) 0.3861(4) 0.4672(3)
H2 H 0.79640 0.43440 0.43050
H3 H 0.82220 0.33630 0.43920
C3 C 0.5718(8) 0.3780(4) 0.4688(4)
H4 H 0.55300 0.33590 0.51190
H5 H 0.50080 0.36130 0.41080
H6 H 0.51940 0.43110 0.48490
O1 O 1.1707(2) 0.38791(12) 1.03275(11)
O2 O 1.5266(3) 0.41989(14) 0.80430(12)
C4 C 1.4942(3) 0.38162(14) 0.93879(16)
C5 C 1.2767(3) 0.38921(14) 0.88883(15)
C6 C 1.5280(3) 0.36073(14) 1.03245(16)
C7 C 1.1547(3) 0.43241(17) 0.95048(15)
H7 H 1.20400 0.48970 0.96220
H8 H 1.01290 0.43530 0.92150
C8 C 1.3625(4) 0.36516(16) 1.07563(17)
C9 C 1.1969(3) 0.30462(17) 0.86360(16)
C10 C 1.3166(3) 0.44079(17) 0.80853(16)
H9 H 1.30990 0.50090 0.82300
N1 N 1.6265(3) 0.39896(15) 0.89154(15)
N2 N 1.1378(4) 0.23839(16) 0.84523(16)
C11 C 1.1799(4) 0.42530(17) 0.72106(17)
C12 C 1.7162(4) 0.33486(16) 1.08127(19)
H10 H 1.82870 0.33210 1.05350
C13 C 1.2317(4) 0.37481(19) 0.65602(19)
H11 H 1.35870 0.34890 0.66540
C14 C 1.3852(5) 0.34356(19) 1.16524(18)
H12 H 1.27450 0.34670 1.19420
C15 C 1.0986(5) 0.3619(2) 0.5770(2)
H13 H 1.13850 0.32750 0.53380
C16 C 1.7360(5) 0.3137(2) 1.1695(2)
H14 H 1.86130 0.29650 1.20170
C17 C 1.5688(6) 0.3179(2) 1.2104(2)
H15 H 1.58240 0.30290 1.27020
C18 C 0.8567(6) 0.4457(3) 0.6256(3)
H16 H 0.72700 0.46920 0.61650
C19 C 0.9123(5) 0.3974(3) 0.5599(2)
#END
