
#######################################################################
#
#                 Cambridge Crystallographic Data Centre
#                                CCDC
#
#######################################################################
#
# If this CIF has been generated from an entry in the Cambridge
# Structural Database, then it will include bibliographic, chemical,
# crystal, experimental, refinement or atomic coordinate data resulting
# from the CCDC's data processing and validation procedures.
#
#######################################################################

data_CSD_CIF_WANSEL
_audit_creation_date 2012-05-08
_audit_creation_method CSD-ConQuest-V1
_database_code_CSD WANSEL
_database_code_depnum_ccdc_archive 'CCDC 822444'
_chemical_formula_sum 'C17 H23 N1 O3'
_chemical_formula_moiety
;
C17 H23 N1 O3
;
_journal_coden_Cambridge 692
_journal_volume 44
_journal_year 2012
_journal_page_first 973
_journal_name_full 'Synthesis '
loop_
_publ_author_name
"M.Buchlovic"
"S.Man"
"M.Potacek"
_chemical_name_systematic
;
2-(2-Methoxyethoxy)-3,3-dimethyl-5-(2-phenylvinyl)-3,4-dihydro-2H-pyrrole 
1-oxide
;
_cell_volume   1629.116
_exptl_crystal_density_diffrn 1.18
_diffrn_ambient_temperature 120
#These two values have been output from a single CSD field.
_refine_ls_R_factor_gt 0.0329
_refine_ls_wR_factor_gt 0.0329
_symmetry_cell_setting monoclinic
_symmetry_space_group_name_H-M 'P 21/n'
_symmetry_Int_Tables_number 14
loop_
_symmetry_equiv_pos_site_id
_symmetry_equiv_pos_as_xyz
1 x,y,z
2 1/2-x,1/2+y,1/2-z
3 -x,-y,-z
4 -1/2+x,-1/2-y,-1/2+z
_cell_length_a 7.5181(7)
_cell_length_b 8.4225(8)
_cell_length_c 25.728(3)
_cell_angle_alpha 90
_cell_angle_beta 90.215(9)
_cell_angle_gamma 90
_cell_formula_units_Z 4
loop_
_atom_type_symbol
_atom_type_radius_bond
C 0.68
H 0.23
N 0.68
O 0.68
loop_
_atom_site_label
_atom_site_type_symbol
_atom_site_fract_x
_atom_site_fract_y
_atom_site_fract_z
O1 O 0.39748(11) 0.91328(11) 0.06578(3)
O2 O 0.78908(10) 0.98156(10) 0.07804(3)
O3 O 0.99610(11) 0.70360(11) 0.10641(4)
N1 N 0.48108(13) 1.03462(12) 0.08537(4)
C1 C 0.43602(16) 1.11873(15) 0.12650(5)
C2 C 0.27894(16) 1.08589(16) 0.15549(5)
H1 H 0.19870 1.00730 0.14310
C3 C 0.24136(17) 1.16285(16) 0.19970(5)
H2 H 0.32510 1.24080 0.21040
C4 C 0.08799(16) 1.14141(16) 0.23321(5)
C5 C -0.05123(17) 1.03618(16) 0.22221(5)
H3 H -0.04740 0.97270 0.19170
C6 C -0.19358(18) 1.02438(18) 0.25545(6)
H4 H -0.28750 0.95260 0.24770
C7 C -0.20149(19) 1.11591(17) 0.30008(6)
H5 H -0.30130 1.10810 0.32250
C8 C -0.0645(2) 1.21816(17) 0.31195(6)
H6 H -0.06820 1.27960 0.34290
C9 C 0.07810(19) 1.23105(17) 0.27876(6)
H7 H 0.17180 1.30250 0.28700
C10 C 0.57179(16) 1.24443(15) 0.13667(5)
H8 H 0.64940 1.21510 0.16630
H9 H 0.51440 1.34770 0.14410
C11 C 0.67836(17) 1.25156(16) 0.08573(5)
C12 C 0.59097(18) 1.37146(16) 0.04849(6)
H10 H 0.65220 1.36890 0.01490
H11 H 0.59950 1.47840 0.06330
H12 H 0.46550 1.34360 0.04350
C13 C 0.87285(16) 1.29488(16) 0.09512(5)
H13 H 0.93800 1.28900 0.06230
H14 H 0.92520 1.22040 0.12010
H15 H 0.88030 1.40300 0.10900
C14 C 0.65303(16) 1.08577(15) 0.06252(5)
H16 H 0.64460 1.09110 0.02380
C15 C 0.79704(17) 0.83742(16) 0.04816(5)
H17 H 0.77620 0.86130 0.01100
H18 H 0.70330 0.76330 0.05990
C16 C 0.97529(18) 0.76251(17) 0.05493(6)
H19 H 0.98850 0.67420 0.02980
H20 H 1.06920 0.84180 0.04770
C17 C 1.15952(17) 0.61949(18) 0.11255(6)
H21 H 1.16660 0.57570 0.14780
H22 H 1.25940 0.69220 0.10690
H23 H 1.16480 0.53280 0.08720
#END
