
#######################################################################
#
#                 Cambridge Crystallographic Data Centre
#                                CCDC
#
#######################################################################
#
# If this CIF has been generated from an entry in the Cambridge
# Structural Database, then it will include bibliographic, chemical,
# crystal, experimental, refinement or atomic coordinate data resulting
# from the CCDC's data processing and validation procedures.
#
#######################################################################

data_CSD_CIF_WANVEP01
_audit_creation_date 2018-02-17
_audit_creation_method CSD-ConQuest-V1
_database_code_CSD WANVEP01
_database_code_depnum_ccdc_archive 'CCDC 1811401'
_chemical_formula_sum 'C10 H8 N6 O14'
_chemical_formula_moiety
;
C10 H8 N6 O14
;
_journal_coden_Cambridge 119
_journal_volume 1162
_journal_year 2018
_journal_page_first 45
_journal_name_full 'J.Mol.Struct. '
loop_
_publ_author_name
"D.E.Taylor"
"R.C.Sausa"
_chemical_name_systematic
;
([3,3'-bi-1,2-oxazole]-4,4',5,5'-tetrayl)tetrakis(methylene) tetranitrate
;
_chemical_name_common
;
bis-isoxazole tetramethylene tetranitrate
;
_cell_volume    783.683
_exptl_crystal_colour 'light colorless'
_exptl_crystal_density_diffrn 1.849
_exptl_crystal_description 'irregular'
_diffrn_ambient_temperature 100.0
#These two values have been output from a single CSD field.
_refine_ls_R_factor_gt 0.0334
_refine_ls_wR_factor_gt 0.0334
_symmetry_cell_setting monoclinic
_symmetry_space_group_name_H-M 'P 21'
_symmetry_Int_Tables_number 4
loop_
_symmetry_equiv_pos_site_id
_symmetry_equiv_pos_as_xyz
1 x,y,z
2 -x,1/2+y,-z
_cell_length_a 8.8237(4)
_cell_length_b 8.4711(4)
_cell_length_c 10.7752(5)
_cell_angle_alpha 90
_cell_angle_beta 103.338(5)
_cell_angle_gamma 90
_cell_formula_units_Z 2
loop_
_atom_type_symbol
_atom_type_radius_bond
C 0.68
H 0.23
N 0.68
O 0.68
loop_
_atom_site_label
_atom_site_type_symbol
_atom_site_fract_x
_atom_site_fract_y
_atom_site_fract_z
C1 C 0.4817(3) 0.4666(4) 0.2441(3)
C2 C 0.5093(3) 0.4027(4) 0.1280(3)
C3 C 0.6661(3) 0.4001(4) 0.1483(3)
C4 C 0.7761(4) 0.3518(4) 0.0700(3)
H1 H 0.87066 0.30793 0.12303
H2 H 0.72902 0.27403 0.00670
C5 C 0.3954(3) 0.3429(4) 0.0132(3)
H3 H 0.44337 0.26510 -0.03155
H4 H 0.30613 0.29536 0.03699
C6 C 0.3329(3) 0.5006(4) 0.2776(3)
C7 C 0.3059(3) 0.5625(4) 0.3944(3)
C8 C 0.1494(3) 0.5727(4) 0.3712(3)
C9 C 0.0425(3) 0.6377(4) 0.4464(3)
H5 H 0.09881 0.70567 0.51387
H6 H -0.03985 0.69860 0.39202
C10 C 0.4196(4) 0.6076(4) 0.5140(3)
H7 H 0.51231 0.65398 0.49532
H8 H 0.37380 0.68262 0.56280
N1 N 0.6122(3) 0.4982(3) 0.3266(2)
N2 N 0.9090(3) 0.4733(4) -0.0736(2)
N3 N 0.2538(3) 0.4461(4) -0.1873(2)
N4 N 0.2021(3) 0.4764(3) 0.1924(2)
N5 N -0.1280(3) 0.5509(3) 0.5727(2)
N6 N 0.5485(3) 0.4812(3) 0.7074(2)
O1 O 0.7314(2) 0.4556(3) 0.26629(19)
O2 O 0.8086(2) 0.4977(3) 0.00936(19)
O3 O 0.9388(3) 0.5950(3) -0.1215(2)
O4 O 0.9513(3) 0.3409(3) -0.0865(2)
O5 O 0.3484(2) 0.4836(3) -0.06685(18)
O6 O 0.2222(3) 0.3097(3) -0.2105(2)
O7 O 0.2179(3) 0.5623(3) -0.2529(2)
O8 O 0.0835(2) 0.5230(3) 0.25135(18)
O9 O -0.0224(2) 0.5027(2) 0.5000(2)
O10 O -0.1513(3) 0.6883(3) 0.5821(2)
O11 O -0.1832(3) 0.4380(3) 0.6164(2)
O12 O 0.4565(2) 0.4593(3) 0.58379(18)
O13 O 0.5876(2) 0.6136(3) 0.74114(19)
O14 O 0.5769(2) 0.3579(3) 0.7652(2)
#END
