
#######################################################################
#
#                 Cambridge Crystallographic Data Centre
#                                CCDC
#
#######################################################################
#
# If this CIF has been generated from an entry in the Cambridge
# Structural Database, then it will include bibliographic, chemical,
# crystal, experimental, refinement or atomic coordinate data resulting
# from the CCDC's data processing and validation procedures.
#
#######################################################################

data_CSD_CIF_WANVEP
_audit_creation_date 2017-04-11
_audit_creation_method CSD-ConQuest-V1
_database_code_CSD WANVEP
_database_code_depnum_ccdc_archive 'CCDC 1529260'
_chemical_formula_sum 'C10 H8 N6 O14'
_chemical_formula_moiety
;
C10 H8 N6 O14
;
_journal_coden_Cambridge 1291
_journal_year 2017
_journal_page_first 1765
_journal_name_full 'Eur.J.Org.Chem. '
loop_
_publ_author_name
"L.A.Wingard"
"E.C.Johnson"
"P.E.Guzman"
"J.J.Sabatini"
"G.W.Drake"
"E.F.C.Byrd"
"R.C.Sausa"
_chemical_name_systematic
;
((3,3'-bi-1,2-oxazole)-4,4',5,5'-tetrayl)tetrakis(methylene) tetranitrate
;
_cell_volume    811.252
_exptl_crystal_colour 'colorless'
_exptl_crystal_density_diffrn 1.786
_exptl_crystal_preparation 'acetonitrile'
_diffrn_ambient_temperature 298
#These two values have been output from a single CSD field.
_refine_ls_R_factor_gt 0.0451
_refine_ls_wR_factor_gt 0.0451
_symmetry_cell_setting monoclinic
_symmetry_space_group_name_H-M 'P 21'
_symmetry_Int_Tables_number 4
loop_
_symmetry_equiv_pos_site_id
_symmetry_equiv_pos_as_xyz
1 x,y,z
2 -x,1/2+y,-z
_cell_length_a 8.9329(5)
_cell_length_b 8.6103(4)
_cell_length_c 10.8182(4)
_cell_angle_alpha 90
_cell_angle_beta 102.847(5)
_cell_angle_gamma 90
_cell_formula_units_Z 2
loop_
_atom_type_symbol
_atom_type_radius_bond
C 0.68
H 0.23
N 0.68
O 0.68
loop_
_atom_site_label
_atom_site_type_symbol
_atom_site_fract_x
_atom_site_fract_y
_atom_site_fract_z
O1 O -0.91567(18) -0.5159(2) -0.25071(14)
O2 O -0.27762(18) -0.5827(2) -0.23852(14)
O3 O -0.19799(19) -0.5400(2) -0.49134(15)
N1 N -0.3955(2) -0.5413(3) -0.17857(17)
O4 O -0.7811(2) -0.7244(3) -0.70861(18)
N2 N -0.7985(2) -0.5623(3) -0.30936(16)
N3 N -0.7493(2) -0.5908(3) -0.68587(19)
C1 C -0.6975(2) -0.4755(3) -0.11042(18)
C2 C -0.6079(3) -0.6928(3) -0.4886(2)
C3 C -0.6704(2) -0.5372(3) -0.22563(18)
N4 N -0.0965(3) -0.5612(4) -0.5726(2)
C4 C -0.5233(3) -0.5723(3) -0.25952(18)
C5 C -0.4962(3) -0.6347(3) -0.37563(18)
O5 O -0.7851(2) -0.4762(3) -0.75078(17)
O6 O -0.0659(3) -0.4393(3) -0.6158(2)
C6 C -0.8526(3) -0.4649(3) -0.13273(19)
C7 C -0.3420(3) -0.6370(3) -0.3555(2)
C8 C -0.2325(3) -0.6835(3) -0.4342(2)
O7 O -0.54852(17) -0.57573(19) 0.07742(13)
C9 C -0.5861(3) -0.4303(3) 0.00787(19)
H1 H -0.4950(3) -0.3839(3) -0.01140(19)
H2 H -0.6319(3) -0.3568(3) 0.05657(19)
O8 O -1.02354(18) -0.53275(18) -0.00535(15)
O9 O -1.1842(2) -0.5951(2) 0.10880(19)
O10 O -1.1521(3) -0.3515(2) 0.0753(2)
N5 N -1.1286(2) -0.4858(3) 0.06633(19)
O11 O -0.0568(3) -0.6897(3) -0.5881(2)
C10 C -0.9581(3) -0.4009(3) -0.0579(2)
H3 H -0.9026(3) -0.3347(3) 0.0095(2)
H4 H -1.0383(3) -0.3401(3) -0.1116(2)
O12 O -0.4285(2) -0.6757(2) 0.25517(16)
N6 N -0.4569(2) -0.5545(3) 0.19955(17)
O13 O -0.4197(2) -0.4249(2) 0.23297(16)
O14 O -0.65466(19) -0.5550(2) -0.56795(13)
H5 H -0.696(3) -0.739(3) -0.469(2)
H6 H -0.559(3) -0.769(3) -0.532(2)
H7 H -0.138(3) -0.716(3) -0.381(2)
H8 H -0.278(3) -0.753(4) -0.496(3)
#END
