
#######################################################################
#
#                 Cambridge Crystallographic Data Centre
#                                CCDC
#
#######################################################################
#
# If this CIF has been generated from an entry in the Cambridge
# Structural Database, then it will include bibliographic, chemical,
# crystal, experimental, refinement or atomic coordinate data resulting
# from the CCDC's data processing and validation procedures.
#
#######################################################################

data_CSD_CIF_WAPGEZ
_audit_creation_date 1994-02-02
_audit_creation_method CSD-ConQuest-V1
_database_code_CSD WAPGEZ
_chemical_formula_sum 'C14 H13 N3 O4'
_chemical_formula_moiety
;
C14 H13 N3 O4
;
_journal_coden_Cambridge 188
_journal_year 1993
_journal_page_first 1111
_journal_name_full 'J.Chem.Soc.,Perkin Trans.2 '
loop_
_publ_author_name
"S.Sekiguchi"
"M.Hosokawa"
"T.Suzuki"
"M.Sato"
_chemical_name_systematic
;
1-Pyrrolidino-2,4-dinitronaphthalene
;
_cell_volume   2576.184
_exptl_crystal_density_diffrn 1.479
_diffrn_ambient_temperature ?
_diffrn_special_details
;
The study was carried out at room temperature,in the range 283-303K

;
#These two values have been output from a single CSD field.
_refine_ls_R_factor_gt 0.0487
_refine_ls_wR_factor_gt 0.0487
_symmetry_cell_setting monoclinic
_symmetry_space_group_name_H-M 'A 2/a'
_symmetry_Int_Tables_number 15
loop_
_symmetry_equiv_pos_site_id
_symmetry_equiv_pos_as_xyz
1 x,y,z
2 x,1/2+y,1/2+z
3 1/2-x,y,-z
4 1/2-x,1/2+y,1/2-z
5 -x,-y,-z
6 -x,-1/2-y,-1/2-z
7 -1/2+x,-y,z
8 -1/2+x,-1/2-y,-1/2+z
_cell_length_a 16.054(7)
_cell_length_b 15.019(5)
_cell_length_c 10.705(4)
_cell_angle_alpha 90
_cell_angle_beta 93.55(3)
_cell_angle_gamma 90
_cell_formula_units_Z 8
loop_
_atom_type_symbol
_atom_type_radius_bond
C 0.68
H 0.23
N 0.68
O 0.68
loop_
_atom_site_label
_atom_site_type_symbol
_atom_site_fract_x
_atom_site_fract_y
_atom_site_fract_z
N1 N 0.3520(1) 0.1315(1) -0.2949(2)
N2 N 0.2670(1) -0.0353(2) -0.2117(2)
N3 N 0.4488(1) -0.0038(2) 0.1579(2)
O1 O 0.2193(1) -0.0010(2) -0.2931(2)
O2 O 0.4908(1) 0.0415(2) 0.2333(2)
O3 O 0.4490(1) -0.0856(2) 0.1626(2)
O4 O 0.2647(1) -0.1154(1) -0.1854(2)
C1 C 0.3605(2) -0.0144(2) -0.0298(3)
C2 C 0.4012(2) 0.0398(2) 0.0563(2)
C3 C 0.3603(2) 0.1704(2) -0.0708(2)
C4 C 0.3928(2) 0.1352(2) 0.0466(2)
C5 C 0.3238(2) 0.0205(2) -0.1400(2)
C6 C 0.3430(1) 0.1095(2) -0.1762(2)
C7 C 0.3423(2) 0.2618(2) -0.0795(3)
C8 C 0.3607(2) 0.0647(2) -0.3943(3)
C9 C 0.4086(2) 0.1954(2) 0.1456(3)
C10 C 0.3587(2) 0.3179(2) 0.0201(3)
C11 C 0.3787(2) 0.2200(2) -0.3401(3)
C12 C 0.4230(3) 0.1062(3) -0.4761(3)
C13 C 0.3926(2) 0.2843(2) 0.1317(3)
C14 C 0.4026(3) 0.2033(3) -0.4733(4)
H1 H 0.429(2) 0.170(2) 0.226(3)
H2 H 0.317(2) 0.286(2) -0.155(3)
H3 H 0.382(2) 0.009(2) -0.354(3)
H4 H 0.427(2) 0.240(2) -0.285(3)
H5 H 0.398(2) 0.325(2) 0.203(3)
H6 H 0.332(2) 0.263(2) -0.341(3)
H7 H 0.304(2) 0.050(2) -0.438(3)
H8 H 0.360(2) -0.070(2) -0.017(2)
H9 H 0.484(3) 0.103(3) -0.436(4)
H10 H 0.343(2) 0.382(2) 0.007(3)
H11 H 0.427(2) 0.079(2) -0.562(3)
H12 H 0.349(3) 0.204(3) -0.532(4)
H13 H 0.442(3) 0.244(3) -0.496(4)
#END
