
#######################################################################
#
#                 Cambridge Crystallographic Data Centre
#                                CCDC
#
#######################################################################
#
# If this CIF has been generated from an entry in the Cambridge
# Structural Database, then it will include bibliographic, chemical,
# crystal, experimental, refinement or atomic coordinate data resulting
# from the CCDC's data processing and validation procedures.
#
#######################################################################

data_CSD_CIF_WAPPIN
_audit_creation_date 2005-09-01
_audit_creation_method CSD-ConQuest-V1
_database_code_CSD WAPPIN
_database_code_depnum_ccdc_archive 'CCDC 257669'
_chemical_formula_sum 'C28 H33 N2 O5'
_chemical_formula_moiety
;
C28 H33 N2 O5
;
_journal_coden_Cambridge 487
_journal_volume 65
_journal_year 2005
_journal_page_first 564
_journal_name_full 'J.Pept.Res. '
loop_
_publ_author_name
"M.Crisma"
"J.R.Deschamps"
"C.George"
"J.L.Flippen-Anderson"
"B.Kaptein"
"Q.B.Broxterman"
"A.Moretto"
"S.Oancea"
"M.Jost"
"F.Formaggio"
"C.Toniolo"
_chemical_name_systematic
;
N-(9-Fluorenylmethoxycarbonyl)-2,2,6,6-tetramethylpiperidine-1-oxy-4-amino-4-c
arboxylic acid 2-propene ester
;
_chemical_melting_point 395.15
_cell_volume   2611.467
_exptl_crystal_colour 'orange'
_exptl_crystal_density_diffrn 1.215
_exptl_special_details
;
Melting point range 395.15-396.15K

;
_exptl_crystal_description 'prism'
_exptl_crystal_preparation 'ethyl acetate/petroleum ether'
_diffrn_ambient_temperature 293
#These two values have been output from a single CSD field.
_refine_ls_R_factor_gt 0.0658
_refine_ls_wR_factor_gt 0.0658
_symmetry_cell_setting triclinic
_symmetry_space_group_name_H-M 'P -1'
_symmetry_Int_Tables_number 2
loop_
_symmetry_equiv_pos_site_id
_symmetry_equiv_pos_as_xyz
1 x,y,z
2 -x,-y,-z
_cell_length_a 8.433(2)
_cell_length_b 15.558(3)
_cell_length_c 20.723(3)
_cell_angle_alpha 94.06(8)
_cell_angle_beta 91.24(9)
_cell_angle_gamma 105.47(8)
_cell_formula_units_Z 4
loop_
_atom_type_symbol
_atom_type_radius_bond
C 0.68
H 0.23
N 0.68
O 0.68
loop_
_atom_site_label
_atom_site_type_symbol
_atom_site_fract_x
_atom_site_fract_y
_atom_site_fract_z
C1 C 0.8225(3) 0.39426(18) 0.05915(16)
C2 C 0.8172(4) 0.3853(2) 0.12492(19)
H1 H 0.86400 0.34450 0.14330
C3 C 0.7418(5) 0.4376(3) 0.1628(2)
H2 H 0.73540 0.43150 0.20710
C4 C 0.6765(5) 0.4983(3) 0.1355(2)
H3 H 0.62630 0.53320 0.16190
C5 C 0.6819(4) 0.5099(2) 0.0702(2)
H4 H 0.63810 0.55240 0.05260
C6 C 0.7550(3) 0.45604(17) 0.03176(17)
C7 C 0.7756(3) 0.45088(18) -0.03790(17)
C8 C 0.7309(4) 0.4984(2) -0.0868(2)
H5 H 0.67820 0.54290 -0.07720
C9 C 0.7660(6) 0.4783(3) -0.1489(2)
H6 H 0.73820 0.51050 -0.18140
C10 C 0.8401(6) 0.4132(4) -0.1649(2)
H7 H 0.85850 0.39960 -0.20810
C11 C 0.8886(5) 0.3666(3) -0.1170(2)
H8 H 0.94190 0.32260 -0.12770
C12 C 0.8568(3) 0.3862(2) -0.05261(17)
C13 C 0.8982(3) 0.34698(18) 0.00738(17)
H9 H 1.01800 0.36640 0.01490
C14 C 0.8448(3) 0.24592(18) 0.00528(19)
H10 H 0.90410 0.22050 -0.02720
H11 H 0.86790 0.22620 0.04700
O1 O 0.6702(2) 0.2172(1) -0.01060(9)
C15 C 0.6044(3) 0.12905(15) -0.01418(12)
O2 O 0.6846(2) 0.07684(11) -0.00291(11)
N1 N 0.4443(2) 0.10423(12) -0.03198(10)
H12 H 0.39940 0.04780 -0.03930
C16 C 0.3385(3) 0.16319(16) -0.04021(12)
C17 C 0.3869(4) 0.22668(18) -0.09346(14)
H13 H 0.50000 0.26170 -0.08450
H14 H 0.31850 0.26790 -0.09120
C18 C 0.3729(4) 0.1836(2) -0.16246(15)
C19 C 0.5126(4) 0.1411(3) -0.17891(17)
H15 H 0.50670 0.09180 -0.15290
H16 H 0.61660 0.18480 -0.17030
H17 H 0.50210 0.12000 -0.22390
C20 C 0.3782(7) 0.2571(4) -0.2087(2)
H18 H 0.35560 0.23050 -0.25230
H19 H 0.48540 0.29880 -0.20550
H20 H 0.29680 0.28780 -0.19730
N2 N 0.2123(4) 0.1189(3) -0.17309(13)
O3 O 0.1662(4) 0.0947(3) -0.23264(13)
C21 C 0.1202(4) 0.0614(2) -0.12468(14)
C22 C -0.0605(5) 0.0493(4) -0.14091(19)
H21 H -0.08510 0.10600 -0.13520
H22 H -0.12570 0.00870 -0.11280
H23 H -0.08550 0.02530 -0.18510
C23 C 0.1621(7) -0.0279(3) -0.1338(2)
H24 H 0.14920 -0.04870 -0.17880
H25 H 0.08960 -0.07080 -0.10930
H26 H 0.27390 -0.02050 -0.11900
C24 C 0.1627(3) 0.1063(2) -0.05609(13)
H27 H 0.08930 0.14390 -0.04740
H28 H 0.13790 0.05970 -0.02620
C25 C 0.3309(4) 0.21941(18) 0.02312(13)
O4 O 0.2822(4) 0.28458(18) 0.02488(12)
O5 O 0.3741(3) 0.18568(13) 0.07433(9)
C26 C 0.3713(5) 0.2348(3) 0.13616(15)
H29 H 0.42790 0.29750 0.13360
H30 H 0.25840 0.23050 0.14720
C27 C 0.4515(7) 0.1979(4) 0.18518(19)
H31 H 0.45040 0.22280 0.22730
C28 C 0.5181(3) 0.14047(16) 0.17902(11)
H32 H 0.52350 0.11280 0.13820
H33 H 0.56540 0.12280 0.21500
C29 C 0.6904(3) 0.13144(16) 0.57255(11)
C30 C 0.7135(3) 0.15866(16) 0.63822(11)
H34 H 0.67110 0.20400 0.65620
C31 C 0.8022(6) 0.1157(4) 0.6763(2)
H35 H 0.82040 0.13340 0.72020
C32 C 0.8625(6) 0.0489(4) 0.6509(3)
H36 H 0.92030 0.02110 0.67770
C33 C 0.8399(5) 0.0222(3) 0.5876(2)
H37 H 0.88080 -0.02410 0.57060
C34 C 0.7556(3) 0.0640(2) 0.54764(16)
C35 C 0.7173(4) 0.04924(18) 0.47907(15)
C36 C 0.7571(5) -0.0104(2) 0.4323(2)
H38 H 0.81780 -0.04930 0.44380
C37 C 0.7049(7) -0.0101(3) 0.3701(3)
H39 H 0.73080 -0.04970 0.33900
C38 C 0.6186(8) 0.0442(4) 0.3517(2)
H40 H 0.58750 0.04290 0.30830
C39 C 0.5737(5) 0.1035(3) 0.39698(19)
H41 H 0.51080 0.14070 0.38450
C40 C 0.6261(4) 0.10516(19) 0.46132(14)
C41 C 0.5994(3) 0.16266(18) 0.51935(16)
H42 H 0.48180 0.14590 0.52800
C42 C 0.6525(4) 0.2615(2) 0.5120(2)
H43 H 0.58090 0.27720 0.48020
H44 H 0.64670 0.29460 0.55300
O6 O 0.8193(2) 0.28342(11) 0.49109(9)
C43 C 0.8869(3) 0.37006(16) 0.48481(12)
O7 O 0.8153(2) 0.42692(12) 0.49716(11)
N3 N 1.0387(2) 0.38680(13) 0.46191(10)
H45 H 1.08290 0.44050 0.45200
C44 C 1.1361(3) 0.32271(17) 0.45218(13)
C45 C 1.3097(3) 0.3718(2) 0.43314(14)
H46 H 1.34980 0.42400 0.46340
H47 H 1.38050 0.33280 0.43920
C46 C 1.3314(4) 0.4025(2) 0.36493(15)
C47 C 1.2996(6) 0.4933(2) 0.35866(19)
H48 H 1.31590 0.50930 0.31490
H49 H 1.37440 0.53740 0.38750
H50 H 1.18840 0.49050 0.36960
C48 C 1.5091(5) 0.4075(4) 0.3475(2)
H51 H 1.53050 0.35060 0.35220
H52 H 1.58350 0.45260 0.37580
H53 H 1.52460 0.42250 0.30350
N4 N 1.2225(4) 0.33666(19) 0.31710(13)
O8 O 1.2507(5) 0.3500(2) 0.25735(13)
C49 C 1.0613(4) 0.2745(2) 0.33080(15)
C50 C 0.9197(6) 0.3154(3) 0.31630(19)
H54 H 0.93250 0.36930 0.34380
H55 H 0.81690 0.27360 0.32420
H56 H 0.92070 0.32900 0.27180
C51 C 1.0431(6) 0.1913(3) 0.2837(2)
H57 H 1.04310 0.20790 0.23990
H58 H 0.94130 0.14790 0.29050
H59 H 1.13340 0.16600 0.29110
C52 C 1.0648(4) 0.24721(18) 0.39918(14)
H60 H 1.12840 0.20380 0.40040
H61 H 0.95300 0.21740 0.40970
C53 C 1.1606(4) 0.2806(2) 0.51474(15)
O9 O 1.1979(4) 0.2124(2) 0.51682(14)
O10 O 1.1444(3) 0.33068(15) 0.56677(9)
C54 C 1.1633(5) 0.2968(3) 0.62880(17)
H62 H 1.27600 0.29440 0.63600
H63 H 1.09130 0.23680 0.62980
C55 C 1.1204(6) 0.3572(4) 0.67963(18)
H64 H 1.12450 0.34160 0.72200
C56 C 1.0790(7) 0.4275(4) 0.6711(2)
H65 H 1.07320 0.44580 0.62960
H66 H 1.05420 0.46130 0.70640
#END
