
#######################################################################
#
#                 Cambridge Crystallographic Data Centre
#                                CCDC
#
#######################################################################
#
# If this CIF has been generated from an entry in the Cambridge
# Structural Database, then it will include bibliographic, chemical,
# crystal, experimental, refinement or atomic coordinate data resulting
# from the CCDC's data processing and validation procedures.
#
#######################################################################

data_CSD_CIF_WAPQIO
_audit_creation_date 2005-09-01
_audit_creation_method CSD-ConQuest-V1
_database_code_CSD WAPQIO
_database_code_depnum_ccdc_archive 'CCDC 257674'
_chemical_formula_sum 'C55 H82 N8 O11'
_chemical_formula_moiety
;
C55 H82 N8 O11
;
_journal_coden_Cambridge 487
_journal_volume 65
_journal_year 2005
_journal_page_first 564
_journal_name_full 'J.Pept.Res. '
loop_
_publ_author_name
"M.Crisma"
"J.R.Deschamps"
"C.George"
"J.L.Flippen-Anderson"
"B.Kaptein"
"Q.B.Broxterman"
"A.Moretto"
"S.Oancea"
"M.Jost"
"F.Formaggio"
"C.Toniolo"
_chemical_name_systematic
;
N-(9-Fluorenylmethoxycarbonyl)-bis(2,2,6,6-tetramethylpiperidine-1-oxy-4-amino
-4-carbonyl)-tris(\a-aminoisobutyryl)-\a-aminoisobutyric acid t-butyl ester
;
_chemical_name_common
;
PEPSEQ A=6 GLY*-GLY*-AIB-AIB-AIB-AIB*
;
_cell_volume   6282.392
_exptl_crystal_colour 'pale yellow'
_exptl_crystal_density_diffrn 1.09
_exptl_crystal_description 'plate'
_exptl_crystal_preparation 'acetonitrile'
_diffrn_ambient_temperature 223
#These two values have been output from a single CSD field.
_refine_ls_R_factor_gt 0.0629
_refine_ls_wR_factor_gt 0.0629
_symmetry_cell_setting monoclinic
_symmetry_space_group_name_H-M 'P 21/c'
_symmetry_Int_Tables_number 14
loop_
_symmetry_equiv_pos_site_id
_symmetry_equiv_pos_as_xyz
1 x,y,z
2 -x,1/2+y,1/2-z
3 -x,-y,-z
4 x,-1/2-y,-1/2+z
_cell_length_a 19.6866(19)
_cell_length_b 11.9657(15)
_cell_length_c 27.125(3)
_cell_angle_alpha 90
_cell_angle_beta 100.514(7)
_cell_angle_gamma 90
_cell_formula_units_Z 4
loop_
_atom_type_symbol
_atom_type_radius_bond
C 0.68
H 0.23
N 0.68
O 0.68
loop_
_atom_site_label
_atom_site_type_symbol
_atom_site_fract_x
_atom_site_fract_y
_atom_site_fract_z
C1 C 0.1719(3) 0.2466(4) 0.13831(18)
H1 H 0.19880 0.25030 0.17070
C2 C 0.2027(2) 0.2516(3) 0.09628(16)
C3 C 0.1013(3) 0.2362(5) 0.1317(2)
H2 H 0.08020 0.23220 0.16010
C4 C 0.0604(3) 0.2314(4) 0.0846(2)
H3 H 0.01220 0.22530 0.08120
C5 C 0.0909(3) 0.2358(4) 0.0423(2)
H4 H 0.06370 0.23080 0.01010
C6 C 0.1612(2) 0.2474(3) 0.04827(17)
C7 C 0.1916(2) 0.2569(4) -0.04089(17)
H5 H 0.14580 0.24860 -0.05790
C8 C 0.2069(2) 0.2580(3) 0.01126(15)
C9 C 0.2449(3) 0.2680(4) -0.06688(18)
H6 H 0.23560 0.26630 -0.10210
C10 C 0.3118(3) 0.2816(4) -0.04194(18)
H7 H 0.34750 0.29070 -0.06040
C11 C 0.3271(2) 0.2821(4) 0.00981(17)
H8 H 0.37300 0.29130 0.02660
C12 C 0.2749(2) 0.2689(3) 0.03631(15)
C13 C 0.2779(2) 0.2617(3) 0.09213(15)
H9 H 0.30100 0.19040 0.10390
C14 C 0.3168(2) 0.3558(3) 0.12303(15)
H10 H 0.31590 0.34420 0.15870
H11 H 0.36510 0.35650 0.11860
O1 O 0.28454(13) 0.4600(2) 0.10677(9)
C15 C 0.25619(19) 0.5192(3) 0.14046(14)
O2 O 0.25730(14) 0.4898(2) 0.18366(9)
N1 N 0.22792(15) 0.6139(2) 0.12011(10)
H12 H 0.23790 0.63700 0.09190
C16 C 0.18039(19) 0.6797(3) 0.14431(13)
C17 C 0.21973(19) 0.7173(3) 0.19658(14)
O3 O 0.18974(13) 0.7247(2) 0.23292(9)
C18 C 0.1616(2) 0.7856(3) 0.11156(14)
H13 H 0.19560 0.84380 0.12370
H14 H 0.16640 0.76760 0.07710
C19 C 0.0901(2) 0.8339(4) 0.11024(16)
C20 C 0.0823(2) 0.8919(4) 0.15905(18)
H15 H 0.09070 0.83850 0.18640
H16 H 0.03590 0.92150 0.15600
H17 H 0.11540 0.95260 0.16580
C21 C 0.0762(3) 0.9184(4) 0.06640(19)
H18 H 0.08070 0.88110 0.03540
H19 H 0.10930 0.97910 0.07280
H20 H 0.02970 0.94810 0.06350
N2 N 0.03845(19) 0.7436(4) 0.09937(15)
O4 O -0.02468(18) 0.7732(4) 0.08463(16)
C22 C 0.0557(2) 0.6228(4) 0.10579(18)
C23 C 0.0706(3) 0.5766(5) 0.05633(18)
H21 H 0.03020 0.58640 0.03020
H22 H 0.08160 0.49760 0.06010
H23 H 0.10950 0.61630 0.04720
C24 C -0.0062(3) 0.5617(5) 0.1196(2)
H24 H -0.04520 0.56750 0.09220
H25 H -0.01810 0.59520 0.14950
H26 H 0.00540 0.48360 0.12600
C25 C 0.11640(19) 0.6132(3) 0.14942(15)
H27 H 0.10090 0.63750 0.18000
H28 H 0.12930 0.53420 0.15370
N3 N 0.28591(15) 0.7443(2) 0.20054(10)
H29 H 0.30540 0.73600 0.17450
C26 C 0.32754(19) 0.7876(3) 0.24712(13)
C27 C 0.31989(18) 0.7075(3) 0.29050(13)
O5 O 0.32173(13) 0.7435(2) 0.33348(9)
C28 C 0.3049(2) 0.9057(3) 0.26011(15)
H30 H 0.25720 0.91710 0.24290
H31 H 0.30490 0.90820 0.29620
C29 C 0.3481(2) 1.0037(3) 0.24713(15)
C30 C 0.3368(3) 1.0271(4) 0.19046(17)
H32 H 0.36580 1.08900 0.18410
H33 H 0.28870 1.04590 0.17840
H34 H 0.34870 0.96110 0.17310
C31 C 0.3269(3) 1.1077(4) 0.27372(19)
H35 H 0.33410 1.09420 0.30960
H36 H 0.27850 1.12380 0.26140
H37 H 0.35480 1.17090 0.26700
N4 N 0.4216(2) 0.9815(3) 0.26547(14)
O6 O 0.4626(2) 1.0657(3) 0.27341(19)
C32 C 0.4528(2) 0.8689(3) 0.27145(15)
C33 C 0.5200(2) 0.8716(4) 0.25086(19)
H38 H 0.55220 0.92290 0.27060
H39 H 0.51050 0.89630 0.21620
H40 H 0.54010 0.79730 0.25270
C34 C 0.4687(2) 0.8402(5) 0.32720(16)
H41 H 0.49990 0.89560 0.34490
H42 H 0.49010 0.76700 0.33170
H43 H 0.42610 0.83970 0.34040
C35 C 0.40345(19) 0.7873(3) 0.23969(13)
H44 H 0.42180 0.71160 0.24650
H45 H 0.40390 0.80330 0.20430
N5 N 0.31487(16) 0.5983(3) 0.28065(11)
H46 H 0.31180 0.57520 0.24990
C36 C 0.3144(2) 0.5165(3) 0.32099(14)
C37 C 0.2580(2) 0.5446(3) 0.35144(15)
O7 O 0.26648(16) 0.5193(2) 0.39607(10)
C38 C 0.2961(3) 0.4020(3) 0.29642(17)
H47 H 0.25110 0.40590 0.27490
H48 H 0.29530 0.34620 0.32230
H49 H 0.33060 0.38150 0.27660
C39 C 0.3851(3) 0.5134(4) 0.35578(16)
H50 H 0.39560 0.58660 0.37050
H51 H 0.42020 0.49250 0.33670
H52 H 0.38410 0.45890 0.38220
N6 N 0.19934(18) 0.5896(3) 0.32739(12)
H53 H 0.19600 0.60620 0.29580
C40 C 0.1401(2) 0.6126(4) 0.35185(16)
C41 C 0.1612(2) 0.6878(4) 0.39812(16)
O8 O 0.13038(17) 0.6808(3) 0.43335(11)
C42 C 0.0869(2) 0.6783(6) 0.31375(18)
H54 H 0.07250 0.63310 0.28400
H55 H 0.10780 0.74680 0.30460
H56 H 0.04710 0.69610 0.32870
C43 C 0.1096(3) 0.5032(5) 0.3667(2)
H57 H 0.14400 0.46360 0.39050
H58 H 0.09550 0.45730 0.33710
H59 H 0.06970 0.51900 0.38200
N7 N 0.21153(17) 0.7626(3) 0.39634(11)
H60 H 0.23000 0.76630 0.36960
C44 C 0.2362(2) 0.8386(3) 0.43842(14)
C45 C 0.2628(2) 0.7704(3) 0.48590(15)
O9 O 0.26001(16) 0.8088(2) 0.52797(9)
C46 C 0.2981(3) 0.9033(4) 0.42673(16)
H61 H 0.33390 0.85130 0.42150
H62 H 0.31590 0.95230 0.45460
H63 H 0.28390 0.94760 0.39670
C47 C 0.1796(3) 0.9209(4) 0.44686(17)
H64 H 0.14040 0.87970 0.45460
H65 H 0.16500 0.96490 0.41670
H66 H 0.19760 0.97020 0.47460
N8 N 0.29393(18) 0.6742(3) 0.48021(11)
H67 H 0.29650 0.65190 0.45010
C48 C 0.3242(3) 0.6040(3) 0.52298(14)
C49 C 0.3658(2) 0.6782(4) 0.56390(16)
O10 O 0.36141(18) 0.6722(3) 0.6077(1)
C50 C 0.3752(3) 0.5230(4) 0.50560(17)
H68 H 0.41150 0.56490 0.49410
H69 H 0.35110 0.47730 0.47840
H70 H 0.39540 0.47520 0.53330
C51 C 0.2673(3) 0.5397(4) 0.54198(17)
H71 H 0.23550 0.59210 0.55290
H72 H 0.28760 0.49270 0.56990
H73 H 0.24260 0.49360 0.51520
O11 O 0.40899(16) 0.7420(2) 0.54451(10)
C52 C 0.4586(2) 0.8158(4) 0.57589(19)
C53 C 0.5100(3) 0.7486(5) 0.6114(2)
H74 H 0.53450 0.69880 0.59240
H75 H 0.48620 0.70490 0.63310
H76 H 0.54270 0.79840 0.63150
C54 C 0.4198(3) 0.8986(5) 0.6033(3)
H77 H 0.38790 0.94160 0.57910
H78 H 0.45260 0.94870 0.62330
H79 H 0.39430 0.85820 0.62510
C55 C 0.4925(3) 0.8738(6) 0.5370(3)
H80 H 0.51760 0.81930 0.52080
H81 H 0.52420 0.93030 0.55310
H82 H 0.45730 0.90870 0.51210
#END
