
#######################################################################
#
#                 Cambridge Crystallographic Data Centre
#                                CCDC
#
#######################################################################
#
# If this CIF has been generated from an entry in the Cambridge
# Structural Database, then it will include bibliographic, chemical,
# crystal, experimental, refinement or atomic coordinate data resulting
# from the CCDC's data processing and validation procedures.
#
#######################################################################

data_CSD_CIF_WAPQUA
_audit_creation_date 2005-09-01
_audit_creation_method CSD-ConQuest-V1
_database_code_CSD WAPQUA
_database_code_depnum_ccdc_archive 'CCDC 257676'
_chemical_formula_sum 'C15 H26 N2 O4'
_chemical_formula_moiety
;
C15 H26 N2 O4
;
_journal_coden_Cambridge 487
_journal_volume 65
_journal_year 2005
_journal_page_first 564
_journal_name_full 'J.Pept.Res. '
loop_
_publ_author_name
"M.Crisma"
"J.R.Deschamps"
"C.George"
"J.L.Flippen-Anderson"
"B.Kaptein"
"Q.B.Broxterman"
"A.Moretto"
"S.Oancea"
"M.Jost"
"F.Formaggio"
"C.Toniolo"
_chemical_name_systematic
;
4-(t-Butoxycarbonylamino)-6,6,8,8-tetramethyl-2-oxa-1-azabicyclo(2.2.2)octan-3
-one
;
_cell_volume    824.860
_exptl_crystal_colour 'pale yellow'
_exptl_crystal_density_diffrn 1.201
_exptl_crystal_description 'prism'
_exptl_crystal_preparation 'dichloromethane'
_diffrn_ambient_temperature 153
#These two values have been output from a single CSD field.
_refine_ls_R_factor_gt 0.0456
_refine_ls_wR_factor_gt 0.0456
_symmetry_cell_setting monoclinic
_symmetry_space_group_name_H-M 'P 21/m'
_symmetry_Int_Tables_number 11
loop_
_symmetry_equiv_pos_site_id
_symmetry_equiv_pos_as_xyz
1 x,y,z
2 -x,1/2+y,-z
3 -x,-y,-z
4 x,-1/2-y,z
_cell_length_a 6.6243(8)
_cell_length_b 10.7737(6)
_cell_length_c 11.6880(18)
_cell_angle_alpha 90
_cell_angle_beta 98.560(7)
_cell_angle_gamma 90
_cell_formula_units_Z 2
loop_
_atom_type_symbol
_atom_type_radius_bond
C 0.68
H 0.23
N 0.68
O 0.68
loop_
_atom_site_label
_atom_site_type_symbol
_atom_site_fract_x
_atom_site_fract_y
_atom_site_fract_z
C1 C 0.3129(5) 0.25000 0.9373(2)
C2 C 0.5064(9) 0.25000 1.0241(3)
H1 H 0.471(8) 0.25000 1.099(5)
H2 H 0.585(6) 0.174(4) 1.009(3)
C3 C 0.1888(6) 0.1354(3) 0.9484(2)
H3 H 0.06740 0.13770 0.89220
H4 H 0.15190 0.13160 1.02470
H5 H 0.26770 0.06340 0.93540
C4 C 0.2669(4) 0.25000 0.7244(2)
C5 C 0.3083(4) 0.25000 0.5165(2)
C6 C 0.4934(4) 0.25000 0.4558(2)
N1 N 0.2292(3) 0.25000 0.29543(17)
C7 C 0.1547(3) 0.13005(16) 0.34081(14)
C8 C 0.2808(3) 0.0250(2) 0.29909(19)
H6 H 0.27620 0.03090 0.21680
H7 H 0.22570 -0.05350 0.31810
H8 H 0.41980 0.03160 0.33620
C9 C -0.0671(3) 0.1076(2) 0.28763(17)
H9 H -0.08380 0.12540 0.20630
H10 H -0.15480 0.16070 0.32420
H11 H -0.10220 0.02250 0.29900
C10 C 0.1824(3) 0.13472(18) 0.47454(15)
H12 H 0.05000 0.13850 0.50040
H13 H 0.25190 0.06040 0.50650
N2 N 0.3839(4) 0.25000 0.63954(18)
H14 H 0.510(5) 0.25000 0.660(3)
O1 O 0.3905(3) 0.25000 0.82669(16)
O2 O 0.0832(3) 0.25000 0.71021(16)
O3 O 0.4516(2) 0.25000 0.33986(14)
O4 O 0.6690(3) 0.25000 0.50171(17)
H2C H 0.585(6) 0.326(4) 1.009(3)
C3C C 0.1888(6) 0.3646(3) 0.9484(2)
H3C H 0.06740 0.36230 0.89220
H4C H 0.15190 0.36840 1.02470
H5C H 0.26770 0.43660 0.93540
C7C C 0.1547(3) 0.36995(16) 0.34081(14)
C8C C 0.2808(3) 0.4750(2) 0.29909(19)
H6C H 0.27620 0.46910 0.21680
H7C H 0.22570 0.55350 0.31810
H8C H 0.41980 0.46840 0.33620
C9C C -0.0671(3) 0.3924(2) 0.28763(17)
H9C H -0.08380 0.37460 0.20630
H10C H -0.15480 0.33930 0.32420
H11C H -0.10220 0.47750 0.29900
C10C C 0.1824(3) 0.36528(18) 0.47454(15)
H12C H 0.05000 0.36150 0.50040
H13C H 0.25190 0.43960 0.50650
#END
