
#######################################################################
#
#                 Cambridge Crystallographic Data Centre
#                                CCDC
#
#######################################################################
#
# If this CIF has been generated from an entry in the Cambridge
# Structural Database, then it will include bibliographic, chemical,
# crystal, experimental, refinement or atomic coordinate data resulting
# from the CCDC's data processing and validation procedures.
#
#######################################################################

data_CSD_CIF_WAPQAG
_audit_creation_date 2005-09-01
_audit_creation_method CSD-ConQuest-V1
_database_code_CSD WAPQAG
_database_code_depnum_ccdc_archive 'CCDC 257672'
_chemical_formula_sum 'C43 H80 N7 O8'
_chemical_formula_moiety
;
C43 H80 N7 O8
;
_journal_coden_Cambridge 487
_journal_volume 65
_journal_year 2005
_journal_page_first 564
_journal_name_full 'J.Pept.Res. '
loop_
_publ_author_name
"M.Crisma"
"J.R.Deschamps"
"C.George"
"J.L.Flippen-Anderson"
"B.Kaptein"
"Q.B.Broxterman"
"A.Moretto"
"S.Oancea"
"M.Jost"
"F.Formaggio"
"C.Toniolo"
_chemical_name_systematic
;
N-(t-Butoxycarbonyl)-(2,2,6,6-tetramethylpiperidine-1-oxy-4-amino-4-carbonyl)-
tris(L-\a-methylvalyl)-L-\a-methylvaline t-butyl amide
;
_chemical_name_common
;
PEPSEQ A=5 GLY*-GLY*-GLY*-GLY*-GLY*
;
_cell_volume   2574.683
_exptl_crystal_colour 'pale yellow'
_exptl_crystal_density_diffrn 1.062
_exptl_crystal_description 'prism'
_exptl_crystal_preparation 'methanol'
_diffrn_ambient_temperature 293
#These two values have been output from a single CSD field.
_refine_ls_R_factor_gt 0.057
_refine_ls_wR_factor_gt 0.057
_symmetry_cell_setting monoclinic
_symmetry_space_group_name_H-M 'P 21'
_symmetry_Int_Tables_number 4
loop_
_symmetry_equiv_pos_site_id
_symmetry_equiv_pos_as_xyz
1 x,y,z
2 -x,1/2+y,-z
_cell_length_a 12.045(3)
_cell_length_b 18.246(4)
_cell_length_c 12.587(3)
_cell_angle_alpha 90
_cell_angle_beta 111.45(4)
_cell_angle_gamma 90
_cell_formula_units_Z 2
loop_
_atom_type_symbol
_atom_type_radius_bond
C 0.68
H 0.23
N 0.68
O 0.68
loop_
_atom_site_label
_atom_site_type_symbol
_atom_site_fract_x
_atom_site_fract_y
_atom_site_fract_z
C1 C 0.4920(3) 0.2077(2) 0.1433(3)
C2 C 0.5570(5) 0.2803(3) 0.1649(4)
H1 H 0.62910 0.27570 0.14950
H2 H 0.57640 0.29440 0.24320
H3 H 0.50690 0.31710 0.11590
C3 C 0.3807(4) 0.2127(4) 0.1718(3)
H4 H 0.33420 0.25420 0.13350
H5 H 0.40270 0.21820 0.25270
H6 H 0.33450 0.16880 0.14710
C4 C 0.5695(5) 0.1464(4) 0.2056(5)
H7 H 0.52760 0.10080 0.18250
H8 H 0.59000 0.15300 0.28620
H9 H 0.64080 0.14560 0.18850
O1 O 0.4435(2) 0.19494(19) 0.01882(17)
C5 C 0.5135(3) 0.1878(2) -0.0405(3)
O2 O 0.62256(19) 0.18526(17) -0.00197(17)
N1 N 0.4486(2) 0.18416(18) -0.1530(2)
H10 H 0.37420 0.19540 -0.17640
C6 C 0.5000(3) 0.16189(19) -0.2373(2)
C7 C 0.4009(3) 0.1708(2) -0.3563(3)
H11 H 0.32450 0.16620 -0.34750
H12 H 0.40560 0.22020 -0.38270
C8 C 0.4020(3) 0.1174(3) -0.4501(3)
C9 C 0.5044(4) 0.1290(4) -0.4894(4)
H13 H 0.57830 0.12220 -0.42630
H14 H 0.50110 0.17780 -0.51870
H15 H 0.49920 0.09430 -0.54840
C10 C 0.2844(4) 0.1286(4) -0.5519(3)
H16 H 0.28570 0.10020 -0.61560
H17 H 0.27520 0.17960 -0.57250
H18 H 0.21880 0.11310 -0.53130
N2 N 0.4072(4) 0.0426(2) -0.4051(3)
O3 O 0.3636(6) -0.0095(3) -0.4777(4)
C11 C 0.4608(4) 0.0226(2) -0.2840(3)
C12 C 0.3592(5) 0.0126(4) -0.2372(5)
H19 H 0.30880 0.05520 -0.25530
H20 H 0.39290 0.00640 -0.15580
H21 H 0.31290 -0.02990 -0.27140
C13 C 0.5309(6) -0.0469(3) -0.2733(6)
H22 H 0.47800 -0.08580 -0.31210
H23 H 0.56950 -0.05920 -0.19410
H24 H 0.58990 -0.04000 -0.30700
C14 C 0.5468(3) 0.0833(2) -0.2193(3)
H25 H 0.57310 0.07240 -0.13840
H26 H 0.61650 0.08100 -0.24040
C15 C 0.6026(3) 0.21379(19) -0.2302(2)
O4 O 0.69064(19) 0.19308(14) -0.24939(19)
N3 N 0.5897(2) 0.28497(16) -0.2068(2)
H27 H 0.53400 0.29640 -0.18230
C16 C 0.6663(3) 0.3434(2) -0.2213(3)
C17 C 0.6323(4) 0.4156(2) -0.1759(4)
H28 H 0.54800 0.42510 -0.22040
C18 C 0.7034(8) 0.4814(3) -0.1925(8)
H29 H 0.69970 0.52050 -0.14310
H30 H 0.67010 0.49750 -0.27050
H31 H 0.78510 0.46730 -0.17450
C19 C 0.6470(6) 0.4139(3) -0.0501(5)
H32 H 0.73010 0.40980 -0.00360
H33 H 0.60470 0.37260 -0.03640
H34 H 0.61540 0.45820 -0.03120
C20 C 0.6481(4) 0.3511(3) -0.3479(4)
H35 H 0.66360 0.30490 -0.37630
H36 H 0.70200 0.38740 -0.35640
H37 H 0.56740 0.36580 -0.39020
C21 C 0.7982(3) 0.32528(19) -0.1519(3)
O5 O 0.8764(2) 0.34833(15) -0.1831(2)
N4 N 0.8227(2) 0.28696(18) -0.0553(2)
H38 H 0.76460 0.27070 -0.03770
C22 C 0.9459(3) 0.2719(3) 0.0216(3)
C23 C 0.9392(3) 0.2104(3) 0.1069(3)
H39 H 0.88790 0.17130 0.06140
C24 C 0.8847(4) 0.2371(5) 0.1897(4)
H40 H 0.87780 0.19690 0.23620
H41 H 0.80700 0.25690 0.14840
H42 H 0.93450 0.27440 0.23740
C25 C 1.0632(4) 0.1764(5) 0.1723(5)
H43 H 1.11850 0.21450 0.21020
H44 H 1.09090 0.15150 0.11940
H45 H 1.05720 0.14210 0.22780
C26 C 1.0047(4) 0.3418(4) 0.0826(4)
H46 H 1.00440 0.37810 0.02720
H47 H 1.08540 0.33150 0.13140
H48 H 0.96130 0.35990 0.12770
C27 C 1.0174(3) 0.2415(2) -0.0472(3)
O6 O 1.1201(2) 0.26114(19) -0.0285(2)
N5 N 0.9639(2) 0.18893(18) -0.1235(2)
H49 H 0.88980 0.17990 -0.13800
C28 C 1.0262(3) 0.1465(2) -0.1828(3)
C29 C 0.9295(4) 0.0980(3) -0.2731(4)
H50 H 0.86400 0.13040 -0.31740
C30 C 0.8771(5) 0.0392(3) -0.2181(7)
H51 H 0.81600 0.01260 -0.27650
H52 H 0.84340 0.06210 -0.16810
H53 H 0.93900 0.00600 -0.17510
C31 C 0.9744(6) 0.0601(4) -0.3564(7)
H54 H 1.04220 0.03030 -0.31510
H55 H 0.99730 0.09620 -0.40000
H56 H 0.91240 0.02970 -0.40680
C32 C 1.1284(4) 0.1019(3) -0.0956(4)
H57 H 1.19540 0.13350 -0.05960
H58 H 1.15160 0.06290 -0.13430
H59 H 1.10150 0.08170 -0.03880
C33 C 1.0800(3) 0.1983(2) -0.2486(3)
O7 O 1.1797(2) 0.1895(2) -0.2505(2)
N6 N 1.0050(2) 0.2507(2) -0.3107(2)
H60 H 0.93720 0.25530 -0.30320
C34 C 1.0314(3) 0.3003(3) -0.3900(3)
C35 C 0.9132(4) 0.3459(3) -0.4480(4)
H61 H 0.89030 0.36540 -0.38650
C36 C 0.8113(4) 0.3000(5) -0.5225(4)
H62 H 0.74050 0.32950 -0.55100
H63 H 0.79840 0.26000 -0.47870
H64 H 0.82960 0.28110 -0.58530
C37 C 0.9313(8) 0.4114(5) -0.5156(7)
H65 H 0.96560 0.39500 -0.56930
H66 H 0.98390 0.44610 -0.46420
H67 H 0.85580 0.43430 -0.55590
C38 C 1.0675(5) 0.2581(4) -0.4761(4)
H68 H 1.14360 0.23530 -0.43800
H69 H 1.07280 0.29120 -0.53340
H70 H 1.00890 0.22110 -0.51150
C39 C 1.1338(4) 0.3527(3) -0.3221(4)
O8 O 1.2102(4) 0.3690(4) -0.3585(4)
N7 N 1.1245(4) 0.3824(2) -0.2309(4)
H71 H 1.06480 0.36870 -0.21370
C40 C 1.2068(6) 0.4376(4) -0.1534(6)
C41 C 1.1647(8) 0.4532(5) -0.0549(8)
H72 H 1.09390 0.48280 -0.08180
H73 H 1.22620 0.47890 0.00460
H74 H 1.14760 0.40780 -0.02550
C42 C 1.3313(7) 0.4044(10) -0.1077(11)
H75 H 1.32870 0.35800 -0.07250
H76 H 1.38460 0.43680 -0.05230
H77 H 1.35900 0.39720 -0.16940
C43 C 1.1972(13) 0.5069(6) -0.2281(12)
H78 H 1.21430 0.49390 -0.29450
H79 H 1.25350 0.54300 -0.18470
H80 H 1.11790 0.52660 -0.25130
#END
