
#######################################################################
#
#                 Cambridge Crystallographic Data Centre
#                                CCDC
#
#######################################################################
#
# If this CIF has been generated from an entry in the Cambridge
# Structural Database, then it will include bibliographic, chemical,
# crystal, experimental, refinement or atomic coordinate data resulting
# from the CCDC's data processing and validation procedures.
#
#######################################################################

data_CSD_CIF_WAPTIR
_audit_creation_date 2005-09-01
_audit_creation_method CSD-ConQuest-V1
_database_code_CSD WAPTIR
_database_code_depnum_ccdc_archive 'CCDC 272811'
_chemical_formula_sum 'C12 H14 N2 O4'
_chemical_formula_moiety
;
C12 H14 N2 O4
;
_journal_coden_Cambridge 4
_journal_volume 106
_journal_year 1984
_journal_page_first 3880
_journal_name_full 'J.Am.Chem.Soc. '
loop_
_publ_author_name
"K.N.Houk"
"S.R.Moses"
"Yun-Dong Wu"
"N.G.Rondan"
"V.Jager"
"R.Schohe"
"F.R.Fronczek"
_chemical_name_systematic
;
1-(3'-(p-Nitrophenyl)-4',5'-dihydro-5'-methyl-5'-isoxazolyl)ethanol
;
_cell_volume   1198.036
_exptl_crystal_colour 'colorless'
_exptl_crystal_density_diffrn 1.387
_exptl_crystal_description 'plate'
_diffrn_ambient_temperature 110
#These two values have been output from a single CSD field.
_refine_ls_R_factor_gt 0.066
_refine_ls_wR_factor_gt 0.066
_symmetry_cell_setting monoclinic
_symmetry_space_group_name_H-M 'P 21/c'
_symmetry_Int_Tables_number 14
loop_
_symmetry_equiv_pos_site_id
_symmetry_equiv_pos_as_xyz
1 x,y,z
2 -x,1/2+y,1/2-z
3 -x,-y,-z
4 x,-1/2-y,-1/2+z
_cell_length_a 11.394(2)
_cell_length_b 15.699(2)
_cell_length_c 6.7175(8)
_cell_angle_alpha 90
_cell_angle_beta 94.407(5)
_cell_angle_gamma 90
_cell_formula_units_Z 4
loop_
_atom_type_symbol
_atom_type_radius_bond
C 0.68
H 0.23
N 0.68
O 0.68
loop_
_atom_site_label
_atom_site_type_symbol
_atom_site_fract_x
_atom_site_fract_y
_atom_site_fract_z
O1 O 0.63608(15) 0.00528(11) 0.8515(3)
O2 O 0.04629(17) 0.25962(12) 0.3442(3)
O3 O 0.12624(16) 0.37561(12) 0.4628(3)
O4 O 0.64814(17) 0.10234(12) 1.2085(3)
H1 H 0.603(3) 0.0598(19) 1.198(5)
N1 N 0.52820(19) 0.03447(13) 0.7643(3)
N2 N 0.1284(2) 0.29837(15) 0.4330(4)
C1 C 0.7202(2) 0.07690(15) 0.8815(4)
C2 C 0.6499(2) 0.15309(16) 0.7970(4)
H2 H 0.64180 0.19720 0.90050
H3 H 0.68720 0.17870 0.68300
C3 C 0.5333(2) 0.11470(15) 0.7313(4)
C4 C 0.7497(2) 0.08088(16) 1.1069(5)
H4 H 0.77780 0.02340 1.15350
C5 C 0.4302(2) 0.16131(16) 0.6448(4)
C6 C 0.3288(2) 0.11856(16) 0.5707(4)
H5 H 0.32810 0.05810 0.56830
C7 C 0.2298(2) 0.16298(17) 0.5010(4)
H6 H 0.16060 0.13400 0.45050
C8 C 0.2339(2) 0.25125(16) 0.5066(4)
C9 C 0.3329(2) 0.29558(16) 0.5735(4)
H7 H 0.33340 0.35610 0.57350
C10 C 0.4317(2) 0.25017(16) 0.6410(4)
H8 H 0.50160 0.27970 0.68540
C11 C 0.8259(2) 0.05676(18) 0.7669(5)
H9 H 0.86360 0.00460 0.82030
H10 H 0.88210 0.10400 0.78070
H11 H 0.80050 0.04860 0.62550
C12 C 0.8439(2) 0.14558(18) 1.1703(4)
H12 H 0.82110 0.20150 1.11540
H13 H 0.91880 0.12820 1.12020
H14 H 0.85280 0.14890 1.31640
#END
