
#######################################################################
#
#                 Cambridge Crystallographic Data Centre
#                                CCDC
#
#######################################################################
#
# If this CIF has been generated from an entry in the Cambridge
# Structural Database, then it will include bibliographic, chemical,
# crystal, experimental, refinement or atomic coordinate data resulting
# from the CCDC's data processing and validation procedures.
#
#######################################################################

data_CSD_CIF_WAPTEN
_audit_creation_date 2005-09-01
_audit_creation_method CSD-ConQuest-V1
_database_code_CSD WAPTEN
_database_code_depnum_ccdc_archive 'CCDC 272810'
_chemical_formula_sum 'C15 H20 N2 O4'
_chemical_formula_moiety
;
C15 H20 N2 O4
;
_journal_coden_Cambridge 4
_journal_volume 106
_journal_year 1984
_journal_page_first 3880
_journal_name_full 'J.Am.Chem.Soc. '
loop_
_publ_author_name
"K.N.Houk"
"S.R.Moses"
"Yun-Dong Wu"
"N.G.Rondan"
"V.Jager"
"R.Schohe"
"F.R.Fronczek"
_chemical_name_systematic
;
5-(2',2'-Dimethyl-1'-methoxypropyl)-3-(p-nitrophenyl)-4,5-dihydroisoxazole
;
_cell_volume   1475.333
_exptl_crystal_colour 'colorless'
_exptl_crystal_density_diffrn 1.316
_exptl_crystal_description 'prism'
_diffrn_ambient_temperature 110
#These two values have been output from a single CSD field.
_refine_ls_R_factor_gt 0.048
_refine_ls_wR_factor_gt 0.048
_symmetry_cell_setting monoclinic
_symmetry_space_group_name_H-M 'P 21/n'
_symmetry_Int_Tables_number 14
loop_
_symmetry_equiv_pos_site_id
_symmetry_equiv_pos_as_xyz
1 x,y,z
2 1/2-x,1/2+y,1/2-z
3 -x,-y,-z
4 -1/2+x,-1/2-y,-1/2+z
_cell_length_a 11.639(3)
_cell_length_b 6.218(1)
_cell_length_c 20.396(5)
_cell_angle_alpha 90
_cell_angle_beta 91.829(11)
_cell_angle_gamma 90
_cell_formula_units_Z 4
loop_
_atom_type_symbol
_atom_type_radius_bond
C 0.68
H 0.23
N 0.68
O 0.68
loop_
_atom_site_label
_atom_site_type_symbol
_atom_site_fract_x
_atom_site_fract_y
_atom_site_fract_z
O1 O 0.23228(8) -0.04575(16) 0.30646(5)
O2 O 0.77603(9) 0.62937(19) 0.48284(5)
O3 O 0.66306(9) 0.90561(17) 0.48863(5)
O4 O 0.05039(9) 0.02937(16) 0.40759(5)
N1 N 0.33762(10) 0.04352(19) 0.32851(6)
N2 N 0.68327(11) 0.7192(2) 0.47234(6)
C1 C 0.14203(12) 0.1214(2) 0.30662(7)
H1 H 0.12160 0.16410 0.26040
C2 C 0.19869(12) 0.3108(2) 0.34245(7)
H2 H 0.19140 0.44500 0.31650
H3 H 0.16580 0.33340 0.38610
C3 C 0.32094(12) 0.2365(2) 0.34821(6)
C4 C 0.03676(12) 0.0220(2) 0.33804(6)
H4 H 0.03260 -0.13260 0.32460
C5 C 0.41642(12) 0.3623(2) 0.37801(6)
C6 C 0.52582(12) 0.2704(2) 0.38897(6)
H5 H 0.53980 0.12700 0.37520
C7 C 0.61291(12) 0.3870(2) 0.41949(6)
H6 H 0.68670 0.32490 0.42730
C8 C 0.59090(12) 0.5966(2) 0.43859(6)
C9 C 0.48460(12) 0.6928(2) 0.42841(6)
H7 H 0.47150 0.83650 0.44210
C10 C 0.39754(12) 0.5736(2) 0.39762(6)
H8 H 0.32410 0.63700 0.38980
C11 C 0.08544(17) -0.1606(3) 0.43951(8)
H9 H 0.16530 -0.19250 0.42910
H10 H 0.03590 -0.27970 0.42470
H11 H 0.07960 -0.14240 0.48700
C12 C -0.07915(12) 0.1283(2) 0.31835(7)
C13 C -0.10175(15) 0.1071(4) 0.24444(8)
H12 H -0.09240 -0.04340 0.23140
H13 H -0.04700 0.19680 0.22120
H14 H -0.18030 0.15420 0.23330
C14 C -0.08233(14) 0.3646(2) 0.33866(8)
H15 H -0.02560 0.44560 0.31410
H16 H -0.06420 0.37670 0.38580
H17 H -0.15920 0.42320 0.32910
C15 C -0.17403(14) 0.0064(3) 0.35336(8)
H18 H -0.16360 0.02500 0.40090
H19 H -0.16980 -0.14690 0.34250
H20 H -0.24930 0.06310 0.33910
#END
