
#######################################################################
#
#                 Cambridge Crystallographic Data Centre
#                                CCDC
#
#######################################################################
#
# If this CIF has been generated from an entry in the Cambridge
# Structural Database, then it will include bibliographic, chemical,
# crystal, experimental, refinement or atomic coordinate data resulting
# from the CCDC's data processing and validation procedures.
#
#######################################################################

data_CSD_CIF_WAPWAN
_audit_creation_date 2012-05-09
_audit_creation_method CSD-ConQuest-V1
_database_code_CSD WAPWAN
_database_code_depnum_ccdc_archive 'CCDC 849002'
_chemical_formula_sum 'C21 H21 N1 O3'
_chemical_formula_moiety
;
C21 H21 N1 O3
;
_journal_coden_Cambridge 423
_journal_volume 36
_journal_year 2012
_journal_page_first 5
_journal_name_full 'J.Chem.Res. '
loop_
_publ_author_name
"G.Pal"
"P.Bhattacharryya"
"A.Medda"
"A.R.Das"
_chemical_name_systematic
;
3-(N-(4-t-Butylphenoxy)ethanimidoyl)-2H-chromen-2-one
;
_chemical_name_common
;
3-(4-t-Butylphenoxyiminoethyl)coumarin
;
_chemical_melting_point 374.15
_cell_volume   3703.058
_exptl_crystal_colour 'yellow'
_diffrn_ambient_temperature 296
#These two values have been output from a single CSD field.
_refine_ls_R_factor_gt 0.0572
_refine_ls_wR_factor_gt 0.0572
_symmetry_cell_setting monoclinic
_symmetry_space_group_name_H-M 'C 2/c'
_symmetry_Int_Tables_number 15
loop_
_symmetry_equiv_pos_site_id
_symmetry_equiv_pos_as_xyz
1 x,y,z
2 -x,y,1/2-z
3 1/2+x,1/2+y,z
4 1/2-x,1/2+y,1/2-z
5 -x,-y,-z
6 x,-y,-1/2+z
7 -1/2-x,-1/2-y,-z
8 -1/2+x,-1/2-y,-1/2+z
_cell_length_a 26.9794(10)
_cell_length_b 11.1897(4)
_cell_length_c 13.5271(6)
_cell_angle_alpha 90
_cell_angle_beta 114.935(2)
_cell_angle_gamma 90
_cell_formula_units_Z 8
loop_
_atom_type_symbol
_atom_type_radius_bond
C 0.68
H 0.23
N 0.68
O 0.68
loop_
_atom_site_label
_atom_site_type_symbol
_atom_site_fract_x
_atom_site_fract_y
_atom_site_fract_z
O1 O 0.90492(5) 0.90467(9) 0.46259(10)
O2 O 0.93356(5) 0.51698(8) 0.19541(7)
O3 O 0.93202(5) 0.71044(8) 0.16944(8)
N1 N 0.90039(5) 0.78566(9) 0.42349(10)
C1 C 0.68899(10) 1.0446(2) 0.5168(3)
H1 H 0.68160 0.96490 0.48780
H2 H 0.68840 1.09850 0.46120
H3 H 0.66160 1.06800 0.54070
C2 C 0.74555(7) 1.04818(14) 0.61367(15)
C3 C 0.78836(6) 1.01010(11) 0.57344(12)
C4 C 0.83396(6) 1.07756(11) 0.58897(12)
H4 H 0.83910 1.15040 0.62500
C5 C 0.87233(6) 1.03985(11) 0.55241(13)
H5 H 0.90280 1.08670 0.56450
C6 C 0.86498(6) 0.93259(11) 0.49817(11)
C7 C 0.93288(5) 0.77102(10) 0.37718(10)
C8 C 0.93302(5) 0.64685(10) 0.33822(10)
C9 C 0.93226(6) 0.54992(11) 0.3966(1)
H6 H 0.93300 0.56030 0.46540
C10 C 0.93031(6) 0.43132(11) 0.35554(10)
C11 C 0.92731(7) 0.32728(13) 0.41054(12)
H7 H 0.92800 0.33280 0.47970
C12 C 0.92334(10) 0.21708(14) 0.36275(15)
H8 H 0.92100 0.14840 0.39940
C13 C 0.92277(13) 0.20829(15) 0.26040(16)
H9 H 0.91960 0.13350 0.22830
C14 C 0.75481(10) 1.17478(17) 0.6592(2)
H10 H 0.72690 1.19480 0.68270
H11 H 0.75340 1.22970 0.60350
H12 H 0.79000 1.17960 0.71990
C15 C 0.74702(14) 0.9624(2) 0.7013(2)
H13 H 0.78260 0.96410 0.76110
H14 H 0.73930 0.88290 0.67190
H15 H 0.72010 0.98560 0.72660
C16 C 0.78258(7) 0.90272(13) 0.51810(16)
H16 H 0.75230 0.85530 0.50610
C17 C 0.81997(7) 0.86308(13) 0.47999(15)
H17 H 0.81470 0.79090 0.44290
C18 C 0.93044(7) 0.41858(11) 0.25317(10)
C19 C 0.93299(5) 0.63166(10) 0.23066(10)
C20 C 0.92680(11) 0.30818(14) 0.20533(14)
H18 H 0.92710 0.30150 0.13700
C21 C 0.96785(7) 0.86617(13) 0.36278(14)
H19 H 0.94550 0.92040 0.30680
H20 H 0.99450 0.83050 0.34230
H21 H 0.98610 0.90900 0.43000
#END
