
#######################################################################
#
#                 Cambridge Crystallographic Data Centre
#                                CCDC
#
#######################################################################
#
# If this CIF has been generated from an entry in the Cambridge
# Structural Database, then it will include bibliographic, chemical,
# crystal, experimental, refinement or atomic coordinate data resulting
# from the CCDC's data processing and validation procedures.
#
#######################################################################

data_CSD_CIF_WAQKAD
_audit_creation_date 2017-04-13
_audit_creation_method CSD-ConQuest-V1
_database_code_CSD WAQKAD
_database_code_depnum_ccdc_archive 'CCDC 1532551'
_chemical_formula_sum 'C23 H17 N3 O3'
_chemical_formula_moiety
;
C23 H17 N3 O3
;
_journal_coden_Cambridge 179
_journal_volume 56
_journal_year 2017
_journal_page_first 5353
_journal_name_full 'Angew.Chem.,Int.Ed. '
loop_
_publ_author_name
"K.Takamatsu"
"Koji Hirano"
"M.Miura"
_chemical_name_systematic
;
3-methyl-2'-nitro-N-(quinolin-8-yl)[1,1'-biphenyl]-2-carboxamide
;
_cell_volume   1893.627
_exptl_crystal_colour 'colorless'
_exptl_crystal_density_diffrn 1.345
_exptl_crystal_description 'prism'
_diffrn_ambient_temperature 173
#These two values have been output from a single CSD field.
_refine_ls_R_factor_gt 0.0924
_refine_ls_wR_factor_gt 0.0924
_symmetry_cell_setting triclinic
_symmetry_space_group_name_H-M 'P -1'
_symmetry_Int_Tables_number 2
loop_
_symmetry_equiv_pos_site_id
_symmetry_equiv_pos_as_xyz
1 x,y,z
2 -x,-y,-z
_cell_length_a 7.592(13)
_cell_length_b 14.39(3)
_cell_length_c 17.45(3)
_cell_angle_alpha 95.31(3)
_cell_angle_beta 93.93(3)
_cell_angle_gamma 90.28(2)
_cell_formula_units_Z 4
loop_
_atom_type_symbol
_atom_type_radius_bond
C 0.68
H 0.23
N 0.68
O 0.68
loop_
_atom_site_label
_atom_site_type_symbol
_atom_site_fract_x
_atom_site_fract_y
_atom_site_fract_z
O1 O 1.0253(4) 0.43607(19) 0.34449(17)
O2 O 1.2902(5) 0.6141(2) 0.1480(2)
O3 O 1.1132(4) 0.3881(2) 0.45389(18)
N1 N 1.1996(5) 0.2969(2) 0.2101(2)
N2 N 1.1381(4) 0.4284(2) 0.39682(19)
N3 N 1.2009(5) 0.4760(2) 0.1850(2)
C1 C 1.3153(5) 0.4676(2) 0.3902(2)
C2 C 1.4583(5) 0.4181(3) 0.4178(2)
H1 H 1.44100 0.36270 0.44210
C3 C 1.1029(5) 0.6618(3) 0.3936(2)
H2 H 1.14520 0.65750 0.44560
C4 C 1.3335(5) 0.5498(2) 0.3557(2)
C5 C 1.1215(5) 0.6178(3) 0.2582(2)
C6 C 1.1818(5) 0.6096(2) 0.3345(2)
C7 C 1.6256(5) 0.4506(3) 0.4093(2)
H3 H 1.72460 0.41670 0.42750
C8 C 1.2611(5) 0.3174(3) 0.1424(2)
C9 C 0.9637(5) 0.7197(3) 0.3772(2)
H4 H 0.91130 0.75610 0.41770
C10 C 0.9021(5) 0.7242(3) 0.3022(3)
H5 H 0.80350 0.76250 0.29150
C11 C 1.2138(5) 0.5695(3) 0.1926(2)
C12 C 0.9791(5) 0.6744(3) 0.2409(2)
C13 C 1.6517(5) 0.5307(3) 0.3752(2)
H6 H 1.76790 0.55270 0.36950
C14 C 1.5057(5) 0.5798(3) 0.3490(2)
H7 H 1.52420 0.63580 0.32560
C15 C 1.2660(5) 0.4129(3) 0.1274(2)
C16 C 1.3148(5) 0.2494(3) 0.0868(3)
C17 C 1.3255(6) 0.4380(3) 0.0595(2)
H8 H 1.32810 0.50160 0.04900
C18 C 1.1909(6) 0.2085(3) 0.2230(3)
H9 H 1.14680 0.19330 0.27000
C19 C 1.3769(6) 0.2757(4) 0.0184(3)
H10 H 1.41480 0.22940 -0.01920
C20 C 0.8979(7) 0.6815(3) 0.1606(3)
H11 H 0.79980 0.72540 0.16250
H12 H 0.98710 0.70370 0.12840
H13 H 0.85390 0.61990 0.13860
C21 C 1.3059(6) 0.1552(3) 0.1043(3)
H14 H 1.34430 0.10670 0.06880
C22 C 1.3830(6) 0.3666(4) 0.0055(3)
H15 H 1.42700 0.38340 -0.04110
C23 C 1.2435(7) 0.1347(3) 0.1706(4)
H16 H 1.23460 0.07170 0.18230
H17 H 1.159(8) 0.449(4) 0.216(3)
O4 O 0.5323(4) 0.13136(19) 0.34345(17)
O5 O 0.6289(4) 0.2179(2) 0.44488(18)
O6 O 0.7913(5) -0.0896(2) 0.1524(2)
N4 N 0.6494(4) 0.1574(2) 0.39283(19)
N5 N 0.7027(5) 0.2410(2) 0.2119(2)
N6 N 0.6985(4) 0.0568(2) 0.18767(19)
C24 C 0.9681(5) 0.1716(3) 0.4146(2)
H18 H 0.95110 0.23400 0.43540
C25 C 0.6849(5) -0.0423(2) 0.3388(2)
C26 C 0.8394(5) 0.0229(2) 0.3586(2)
C27 C 0.6240(5) -0.0675(2) 0.2627(2)
C28 C 0.6089(5) -0.0801(3) 0.3988(2)
H19 H 0.65300 -0.06370 0.45060
C29 C 0.7132(6) -0.0348(3) 0.1963(2)
C30 C 0.7618(5) 0.1066(3) 0.1284(2)
C31 C 0.4014(5) -0.1651(3) 0.3083(3)
H20 H 0.30310 -0.20660 0.29830
C32 C 0.4756(5) -0.1284(3) 0.2473(2)
C33 C 0.7604(5) 0.2048(3) 0.1431(2)
C34 C 0.4664(6) -0.1429(3) 0.3829(3)
H21 H 0.41500 -0.17000 0.42380
C35 C 1.1345(5) 0.1369(3) 0.4102(3)
H22 H 1.23410 0.17500 0.42820
C36 C 1.0107(5) -0.0101(3) 0.3547(3)
H23 H 1.02800 -0.07280 0.33470
C37 C 0.8173(6) 0.0657(3) 0.0602(2)
H24 H 0.81890 -0.00030 0.05020
C38 C 1.1574(5) 0.0458(3) 0.3793(3)
H25 H 1.27290 0.02170 0.37500
C39 C 0.8154(6) 0.2609(3) 0.0865(3)
C40 C 0.8053(7) 0.3588(3) 0.1038(3)
H26 H 0.83780 0.39970 0.06730
C41 C 0.8719(6) 0.1237(4) 0.0051(3)
H27 H 0.91150 0.09560 -0.04210
C42 C 0.6980(6) 0.3327(3) 0.2244(3)
H28 H 0.65710 0.35910 0.27170
C43 C 0.8696(6) 0.2170(4) 0.0171(3)
H29 H 0.90510 0.25380 -0.02180
C44 C 0.3959(7) -0.1539(3) 0.1661(3)
H30 H 0.46260 -0.12270 0.12950
H31 H 0.40090 -0.22160 0.15390
H32 H 0.27270 -0.13390 0.16230
C45 C 0.7504(7) 0.3934(3) 0.1713(3)
H33 H 0.74660 0.45910 0.18360
C46 C 0.8244(5) 0.1150(3) 0.3885(2)
H34 H 0.660(6) 0.093(3) 0.224(2)
#END
