
#######################################################################
#
#                 Cambridge Crystallographic Data Centre
#                                CCDC
#
#######################################################################
#
# If this CIF has been generated from an entry in the Cambridge
# Structural Database, then it will include bibliographic, chemical,
# crystal, experimental, refinement or atomic coordinate data resulting
# from the CCDC's data processing and validation procedures.
#
#######################################################################

data_CSD_CIF_WAQPAH
_audit_creation_date 2012-05-22
_audit_creation_method CSD-ConQuest-V1
_database_code_CSD WAQPAH
_database_code_depnum_ccdc_archive 'CCDC 838209'
_chemical_formula_sum 'C16 H16 N4 O2'
_chemical_formula_moiety
;
C16 H16 N4 O2
;
_journal_coden_Cambridge 222
_journal_volume 41
_journal_year 2012
_journal_page_first 2176
_journal_name_full 'Dalton Trans. '
loop_
_publ_author_name
"S.Wirth"
"F.Barth"
"I.-P.Lorenz"
_chemical_name_systematic
;
1,4-bis(4-Nitrosophenyl)piperazine
;
_cell_volume   2140.087
_exptl_crystal_colour 'green'
_exptl_crystal_density_diffrn 1.38
_exptl_crystal_description 'rod'
_exptl_crystal_preparation 'acetone/n-pentane'
_diffrn_ambient_temperature 200
#These two values have been output from a single CSD field.
_refine_ls_R_factor_gt 0.0449
_refine_ls_wR_factor_gt 0.0449
_symmetry_cell_setting monoclinic
_symmetry_space_group_name_H-M 'P 21/c'
_symmetry_Int_Tables_number 14
loop_
_symmetry_equiv_pos_site_id
_symmetry_equiv_pos_as_xyz
1 x,y,z
2 -x,1/2+y,1/2-z
3 -x,-y,-z
4 x,-1/2-y,-1/2+z
_cell_length_a 11.0562(3)
_cell_length_b 16.4121(6)
_cell_length_c 11.9365(4)
_cell_angle_alpha 90
_cell_angle_beta 98.862(2)
_cell_angle_gamma 90
_cell_formula_units_Z 6
loop_
_atom_type_symbol
_atom_type_radius_bond
C 0.68
H 0.23
N 0.68
O 0.68
loop_
_atom_site_label
_atom_site_type_symbol
_atom_site_fract_x
_atom_site_fract_y
_atom_site_fract_z
O1 O -0.36622(14) 0.28014(9) 0.88708(14)
O2 O 0.85379(11) -0.03184(9) 0.60215(12)
N1 N 0.11074(12) 0.16554(9) 0.70977(13)
N2 N 0.32684(12) 0.08392(9) 0.65798(12)
N3 N -0.26133(17) 0.30883(12) 0.90791(15)
N4 N 0.76996(13) -0.06966(10) 0.63955(13)
C1 C 0.01796(15) 0.19953(11) 0.75690(15)
C2 C -0.10056(15) 0.16433(11) 0.74144(15)
H1 H -0.11620 0.11660 0.69640
C3 C -0.19232(16) 0.19809(12) 0.79039(15)
H2 H -0.27120 0.17370 0.77930
C4 C -0.17128(17) 0.26831(12) 0.85668(15)
C5 C -0.05657(17) 0.30425(13) 0.87035(16)
H3 H -0.04250 0.35250 0.91440
C6 C 0.03707(17) 0.27166(12) 0.82175(16)
H4 H 0.11480 0.29760 0.83170
C7 C 0.22736(15) 0.20814(12) 0.71205(18)
H5 H 0.27430 0.20610 0.78970
H6 H 0.21170 0.26610 0.69160
C8 C 0.30169(17) 0.16951(11) 0.62988(18)
H7 H 0.25620 0.17370 0.55190
H8 H 0.37990 0.19930 0.63240
C9 C 0.22615(14) 0.03926(11) 0.69764(17)
H9 H 0.24310 0.03390 0.78120
H10 H 0.22060 -0.01620 0.66460
C10 C 0.10547(15) 0.08322(11) 0.66381(17)
H11 H 0.08610 0.08570 0.58010
H12 H 0.03930 0.05250 0.69220
C11 C 0.43518(14) 0.04785(11) 0.65115(14)
C12 C 0.52762(15) 0.08829(11) 0.60087(14)
H13 H 0.51280 0.14160 0.57080
C13 C 0.63689(15) 0.05130(12) 0.59552(14)
H14 H 0.69730 0.07910 0.56160
C14 C 0.66128(14) -0.02712(12) 0.63941(14)
C15 C 0.56933(15) -0.06830(12) 0.68618(14)
H15 H 0.58380 -0.12230 0.71360
C16 C 0.46000(15) -0.03208(11) 0.69278(15)
H16 H 0.39960 -0.06080 0.72570
O3 O 0.33538(12) 0.35184(10) 0.48558(13)
N5 N 0.88295(12) 0.46381(10) 0.50683(12)
N6 N 0.42967(15) 0.32777(11) 0.54744(14)
C17 C 0.77123(15) 0.42807(11) 0.51131(14)
C18 C 0.66464(15) 0.45319(12) 0.43837(15)
H17 H 0.67110 0.49330 0.38230
C19 C 0.55271(16) 0.42100(12) 0.44694(15)
H18 H 0.48260 0.43870 0.39660
C20 C 0.54015(16) 0.36235(11) 0.52884(15)
C21 C 0.64457(16) 0.33561(12) 0.59935(15)
H19 H 0.63730 0.29480 0.65430
C22 C 0.75766(16) 0.36693(12) 0.59121(15)
H20 H 0.82760 0.34720 0.63990
C23 C 0.99715(15) 0.41923(12) 0.54159(17)
H21 H 1.01440 0.38500 0.47760
H22 H 0.98670 0.38250 0.60520
C24 C 0.89609(16) 0.52619(13) 0.42233(16)
H23 H 0.82050 0.55940 0.40870
H24 H 0.90620 0.49940 0.35000
O3B O 1.66462(12) 0.64816(10) 0.51442(13)
N5B N 1.11705(12) 0.53619(10) 0.49317(12)
N6B N 1.57033(15) 0.67223(11) 0.45256(14)
C17B C 1.22877(15) 0.57193(11) 0.48869(14)
C18B C 1.33536(15) 0.54681(12) 0.56163(15)
H17B H 1.32890 0.50670 0.61770
C19B C 1.44729(16) 0.57900(12) 0.55306(15)
H18B H 1.51740 0.56130 0.60340
C20B C 1.45985(16) 0.63765(11) 0.47116(15)
C21B C 1.35543(16) 0.66439(12) 0.40065(15)
H19B H 1.36270 0.70520 0.34570
C22B C 1.24234(16) 0.63307(12) 0.40879(15)
H20B H 1.17240 0.65280 0.36010
C23B C 1.00285(15) 0.58077(12) 0.45841(17)
H21B H 0.98560 0.61500 0.52240
H22B H 1.01330 0.61750 0.39480
C24B C 1.10391(16) 0.47381(13) 0.57767(16)
H23B H 1.17950 0.44060 0.59130
H24B H 1.09380 0.50060 0.65000
#END
