
#######################################################################
#
#                 Cambridge Crystallographic Data Centre
#                                CCDC
#
#######################################################################
#
# If this CIF has been generated from an entry in the Cambridge
# Structural Database, then it will include bibliographic, chemical,
# crystal, experimental, refinement or atomic coordinate data resulting
# from the CCDC's data processing and validation procedures.
#
#######################################################################

data_CSD_CIF_WAQYUK
_audit_creation_date 2012-05-22
_audit_creation_method CSD-ConQuest-V1
_database_code_CSD WAQYUK
_database_code_depnum_ccdc_archive 'CCDC 848621'
_chemical_formula_sum 'C26 H48 N14 O4'
_chemical_formula_moiety
;
C26 H48 N14 O4
;
_journal_coden_Cambridge 1290
_journal_year 2012
_journal_page_first 1620
_journal_name_full 'Eur.J.Inorg.Chem. '
loop_
_publ_author_name
"A.Peters"
"H.Herrmann"
"M.Magg"
"E.Kaifer"
"H.-J.Himmel"
_chemical_name_systematic
;
2,2',2'',2'''-(3,6-Dinitrobenzene-1,2,4,5-tetrayl)tetrakis(1,1,3,3-tetramethyl
guanidine)
;
_cell_volume   1655.322
_exptl_crystal_colour 'orange'
_exptl_crystal_density_diffrn 1.245
_exptl_crystal_description 'box'
_diffrn_ambient_temperature 100
#These two values have been output from a single CSD field.
_refine_ls_R_factor_gt 0.0502
_refine_ls_wR_factor_gt 0.0502
_symmetry_cell_setting monoclinic
_symmetry_space_group_name_H-M 'P 21/n'
_symmetry_Int_Tables_number 14
loop_
_symmetry_equiv_pos_site_id
_symmetry_equiv_pos_as_xyz
1 x,y,z
2 1/2-x,1/2+y,1/2-z
3 -x,-y,-z
4 -1/2+x,-1/2-y,-1/2+z
_cell_length_a 8.3330(17)
_cell_length_b 18.865(4)
_cell_length_c 10.629(2)
_cell_angle_alpha 90
_cell_angle_beta 97.83(3)
_cell_angle_gamma 90
_cell_formula_units_Z 2
loop_
_atom_type_symbol
_atom_type_radius_bond
C 0.68
H 0.23
N 0.68
O 0.68
loop_
_atom_site_label
_atom_site_type_symbol
_atom_site_fract_x
_atom_site_fract_y
_atom_site_fract_z
O1 O 1.25447(13) -0.10916(6) 0.21347(11)
O2 O 1.01010(13) -0.14754(6) 0.21202(11)
N1 N 1.17437(13) -0.11754(6) -0.07713(11)
N2 N 1.22464(16) -0.23731(7) -0.06437(14)
N3 N 0.95722(14) -0.20036(7) -0.08061(13)
N4 N 0.95086(14) 0.01094(6) 0.25720(11)
N5 N 0.81000(14) 0.05542(6) 0.41139(11)
N6 N 0.66106(13) 0.00333(6) 0.23649(11)
N7 N 1.10892(14) -0.10662(6) 0.17587(12)
C1 C 1.08550(16) -0.05959(7) -0.04064(13)
C2 C 1.04968(15) -0.05134(7) 0.08309(13)
C3 C 0.96403(15) 0.00496(7) 0.12782(12)
C4 C 1.11735(17) -0.18142(7) -0.07379(14)
C5 C 1.3955(2) -0.22102(9) -0.0316(2)
H1 H 1.44030 -0.20830 -0.10700
H2 H 1.45120 -0.26180 0.00660
H3 H 1.40790 -0.18220 0.02730
C6 C 1.1905(2) -0.29946(10) -0.1454(2)
H4 H 1.07800 -0.29970 -0.18030
H5 H 1.21540 -0.34160 -0.09600
H6 H 1.25570 -0.29790 -0.21310
C7 C 0.9029(2) -0.25960(9) -0.00956(18)
H7 H 0.99470 -0.28170 0.03940
H8 H 0.84800 -0.29350 -0.06760
H9 H 0.83000 -0.24270 0.04630
C8 C 0.82829(18) -0.15651(9) -0.14473(17)
H10 H 0.77590 -0.13170 -0.08280
H11 H 0.75070 -0.18590 -0.19550
H12 H 0.87290 -0.12290 -0.19830
C9 C 0.81138(16) 0.02304(7) 0.29587(13)
C10 C 0.70483(17) 0.03101(8) 0.50132(14)
H13 H 0.63610 -0.00620 0.46340
H14 H 0.63930 0.06970 0.52340
H15 H 0.76970 0.01350 0.57640
C11 C 0.94916(17) 0.09613(8) 0.46669(14)
H16 H 1.02790 0.06500 0.51190
H17 H 0.91580 0.13060 0.52430
H18 H 0.99610 0.11980 0.40050
C12 C 0.52380(17) 0.05178(9) 0.23160(16)
H19 H 0.54730 0.08770 0.29550
H20 H 0.42910 0.02590 0.24670
H21 H 0.50470 0.07360 0.14940
C13 C 0.64386(18) -0.04950(8) 0.13610(14)
H22 H 0.64770 -0.02670 0.05580
H23 H 0.54200 -0.07350 0.13460
H24 H 0.73050 -0.08330 0.15150
O1B O 0.74553(13) 0.10916(6) -0.21347(11)
O2B O 0.98990(13) 0.14754(6) -0.21202(11)
N1B N 0.82563(13) 0.11754(6) 0.07713(11)
N2B N 0.77536(16) 0.23731(7) 0.06437(14)
N3B N 1.04278(14) 0.20036(7) 0.08061(13)
N4B N 1.04914(14) -0.01094(6) -0.25720(11)
N5B N 1.19000(14) -0.05542(6) -0.41139(11)
N6B N 1.33894(13) -0.00333(6) -0.23649(11)
N7B N 0.89108(14) 0.10662(6) -0.17587(12)
C1B C 0.91450(16) 0.05959(7) 0.04064(13)
C2B C 0.95032(15) 0.05134(7) -0.08309(13)
C3B C 1.03597(15) -0.00496(7) -0.12782(12)
C4B C 0.88265(17) 0.18142(7) 0.07379(14)
C5B C 0.6045(2) 0.22102(9) 0.0316(2)
H1B H 0.55970 0.20830 0.10700
H2B H 0.54880 0.26180 -0.00660
H3B H 0.59210 0.18220 -0.02730
C6B C 0.8095(2) 0.29946(10) 0.1454(2)
H4B H 0.92200 0.29970 0.18030
H5B H 0.78460 0.34160 0.09600
H6B H 0.74430 0.29790 0.21310
C7B C 1.0971(2) 0.25960(9) 0.00956(18)
H7B H 1.00530 0.28170 -0.03940
H8B H 1.15200 0.29350 0.06760
H9B H 1.17000 0.24270 -0.04630
C8B C 1.17171(18) 0.15651(9) 0.14473(17)
H10B H 1.22410 0.13170 0.08280
H11B H 1.24930 0.18590 0.19550
H12B H 1.12710 0.12290 0.19830
C9B C 1.18862(16) -0.02304(7) -0.29587(13)
C10B C 1.29517(17) -0.03101(8) -0.50132(14)
H13B H 1.36390 0.00620 -0.46340
H14B H 1.36070 -0.06970 -0.52340
H15B H 1.23030 -0.01350 -0.57640
C11B C 1.05084(17) -0.09613(8) -0.46669(14)
H16B H 0.97210 -0.06500 -0.51190
H17B H 1.08420 -0.13060 -0.52430
H18B H 1.00390 -0.11980 -0.40050
C12B C 1.47620(17) -0.05178(9) -0.23160(16)
H19B H 1.45270 -0.08770 -0.29550
H20B H 1.57090 -0.02590 -0.24670
H21B H 1.49530 -0.07360 -0.14940
C13B C 1.35614(18) 0.04950(8) -0.13610(14)
H22B H 1.35230 0.02670 -0.05580
H23B H 1.45800 0.07350 -0.13460
H24B H 1.26950 0.08330 -0.15150
#END
