
#######################################################################
#
#                 Cambridge Crystallographic Data Centre
#                                CCDC
#
#######################################################################
#
# If this CIF has been generated from an entry in the Cambridge
# Structural Database, then it will include bibliographic, chemical,
# crystal, experimental, refinement or atomic coordinate data resulting
# from the CCDC's data processing and validation procedures.
#
#######################################################################

data_CSD_CIF_WAQYEV
_audit_creation_date 2017-04-13
_audit_creation_method CSD-ConQuest-V1
_database_code_CSD WAQYEV
_database_code_depnum_ccdc_archive 'CCDC 1510481'
_chemical_formula_sum 'C12 H10 N2 O4'
_chemical_formula_moiety
;
C12 H10 N2 O4
;
_journal_coden_Cambridge 1699
_journal_volume 5
_journal_year 2017
_journal_page_first 7961
_journal_name_full 'J.Mater.Chem.A '
loop_
_publ_author_name
"Le Le Gong"
"Wan Ting Yao"
"Zhi Qiang Liu"
"An Min Zheng"
"Jian Qiang Li"
"Xue Feng Feng"
"Lu Fang Ma"
"Chang Sheng Yan"
"Ming Biao Luo"
"Feng Luo"
_chemical_name_systematic
;
ethyl 2-cyano-3-(2-nitrophenyl)acrylate
;
_cell_volume   2385.155
_exptl_crystal_colour 'yellow'
_exptl_crystal_density_diffrn 1.371
_exptl_crystal_description 'Block'
_diffrn_ambient_temperature 296
#These two values have been output from a single CSD field.
_refine_ls_R_factor_gt 0.074
_refine_ls_wR_factor_gt 0.074
_symmetry_cell_setting orthorhombic
_symmetry_space_group_name_H-M 'P b c a'
_symmetry_Int_Tables_number 61
loop_
_symmetry_equiv_pos_site_id
_symmetry_equiv_pos_as_xyz
1 x,y,z
2 1/2-x,-y,1/2+z
3 1/2+x,1/2-y,-z
4 -x,1/2+y,1/2-z
5 -x,-y,-z
6 -1/2+x,y,-1/2-z
7 -1/2-x,-1/2+y,z
8 x,-1/2-y,-1/2+z
_cell_length_a 7.9719(3)
_cell_length_b 7.8194(3)
_cell_length_c 38.2632(16)
_cell_angle_alpha 90
_cell_angle_beta 90
_cell_angle_gamma 90
_cell_formula_units_Z 8
loop_
_atom_type_symbol
_atom_type_radius_bond
C 0.68
H 0.23
N 0.68
O 0.68
loop_
_atom_site_label
_atom_site_type_symbol
_atom_site_fract_x
_atom_site_fract_y
_atom_site_fract_z
C1 C 0.6411(4) 0.4468(4) 0.05893(10)
C2 C 0.6518(4) 0.5219(4) 0.09166(11)
C3 C 0.7810(4) 0.4056(5) 0.03943(12)
H1 H 0.76890 0.35550 0.01750
C4 C 0.9371(5) 0.4385(5) 0.05235(14)
H2 H 1.03190 0.41100 0.03940
C5 C 0.8136(5) 0.5540(5) 0.10436(12)
H3 H 0.82750 0.60370 0.12620
C6 C 0.4785(5) 0.5372(4) 0.14630(11)
C7 C 0.9531(5) 0.5120(5) 0.08444(15)
H4 H 1.05970 0.53460 0.09320
C8 C 0.5048(5) 0.5731(4) 0.1126(1)
H5 H 0.42250 0.63660 0.10130
C9 C 0.3193(7) 0.5957(5) 0.16274(14)
C10 C 0.5919(7) 0.4357(5) 0.16639(12)
C11 C 0.1458(12) 0.5804(10) 0.2119(2)
H6 H 0.16330 0.67880 0.22690
H7 H 0.06700 0.61480 0.19390
C12 C 0.0816(16) 0.4731(14) 0.2288(3)
H8 H 0.08470 0.36680 0.21620
H9 H -0.03290 0.50410 0.23330
H10 H 0.14040 0.46090 0.25050
N1 N 0.4786(4) 0.3979(5) 0.04412(11)
N2 N 0.6829(7) 0.3517(6) 0.18192(12)
O1 O 0.2190(5) 0.6824(5) 0.14771(9)
O2 O 0.3037(5) 0.5422(4) 0.1950(1)
O3 O 0.3549(4) 0.4208(8) 0.06052(11)
O4 O 0.4751(4) 0.3267(4) 0.01633(10)
#END
