
#######################################################################
#
#                 Cambridge Crystallographic Data Centre
#                                CCDC
#
#######################################################################
#
# If this CIF has been generated from an entry in the Cambridge
# Structural Database, then it will include bibliographic, chemical,
# crystal, experimental, refinement or atomic coordinate data resulting
# from the CCDC's data processing and validation procedures.
#
#######################################################################

data_CSD_CIF_WARVAO
_audit_creation_date 2012-05-22
_audit_creation_method CSD-ConQuest-V1
_database_code_CSD WARVAO
_database_code_depnum_ccdc_archive 'CCDC 802525'
_chemical_formula_sum 'C39 H58 N2 O13'
_chemical_formula_moiety
;
C39 H58 N2 O13
;
_journal_coden_Cambridge 692
_journal_volume 44
_journal_year 2012
_journal_page_first 111
_journal_name_full 'Synthesis '
loop_
_publ_author_name
"Bing Cui"
"Shasha Kong"
"Guiping Wu"
"Zhiwei Miao"
"Ruyu Chen"
_chemical_name_systematic
;
Ethyl 
(5S,2E)-5-((2,3,4,6-tetra-O-pivaloyl-\b-D-galactopyranosyl)amino)-5-(4-nitroph
enyl)pent-2-enoate
;
_cell_volume   4229.994
_exptl_crystal_density_diffrn 1.198
_diffrn_ambient_temperature 113
#These two values have been output from a single CSD field.
_refine_ls_R_factor_gt 0.0464
_refine_ls_wR_factor_gt 0.0464
_symmetry_cell_setting orthorhombic
_symmetry_space_group_name_H-M 'P 21 21 21'
_symmetry_Int_Tables_number 19
loop_
_symmetry_equiv_pos_site_id
_symmetry_equiv_pos_as_xyz
1 x,y,z
2 1/2-x,-y,1/2+z
3 -x,1/2+y,1/2-z
4 1/2+x,1/2-y,-z
_cell_length_a 10.084(3)
_cell_length_b 10.304(3)
_cell_length_c 40.710(11)
_cell_angle_alpha 90
_cell_angle_beta 90
_cell_angle_gamma 90
_cell_formula_units_Z 4
loop_
_atom_type_symbol
_atom_type_radius_bond
C 0.68
H 0.23
N 0.68
O 0.68
loop_
_atom_site_label
_atom_site_type_symbol
_atom_site_fract_x
_atom_site_fract_y
_atom_site_fract_z
O1 O 0.78166(16) 0.30324(16) 0.14814(4)
O2 O 0.65533(18) 0.54824(18) 0.20257(4)
O3 O 0.4342(2) 0.5210(2) 0.20408(6)
O4 O 0.59984(15) 0.50580(17) 0.12380(4)
O5 O 0.54815(19) 0.7166(2) 0.13128(5)
O6 O 0.77651(15) 0.59358(16) 0.07819(4)
O7 O 0.97228(19) 0.6973(2) 0.07532(5)
O8 O 0.93032(15) 0.36886(16) 0.06767(4)
O9 O 0.81133(17) 0.2208(2) 0.03947(4)
O10 O 1.58706(18) 0.0495(2) 0.15240(5)
O11 O 1.57219(19) 0.0905(3) 0.10070(5)
O12 O 1.0166(2) -0.2786(2) 0.22512(5)
O13 O 1.07393(19) -0.44363(18) 0.19192(4)
N1 N 0.88945(19) 0.1552(2) 0.11361(5)
H1 H 0.86160 0.12320 0.09480
N2 N 1.5225(2) 0.0714(2) 0.12759(5)
C1 C 0.7730(2) 0.4319(2) 0.16073(5)
H2 H 0.86050 0.45720 0.17030
C2 C 0.7343(2) 0.5299(2) 0.13426(5)
H3 H 0.74220 0.62020 0.14310
C3 C 0.8251(2) 0.5132(2) 0.10470(5)
H4 H 0.91650 0.54240 0.11080
C4 C 0.8313(2) 0.3726(2) 0.09341(5)
H5 H 0.74310 0.34270 0.08510
C5 C 0.8781(2) 0.2885(2) 0.12221(5)
H6 H 0.96600 0.32080 0.13010
C6 C 0.6710(3) 0.4211(2) 0.18816(6)
H7 H 0.58520 0.39040 0.17920
H8 H 0.70150 0.35850 0.20500
C7 C 0.5301(2) 0.5871(2) 0.20937(5)
C8 C 0.5277(2) 0.7196(3) 0.22586(6)
C9 C 0.5518(3) 0.6935(3) 0.26280(6)
H9 H 0.47940 0.64030 0.27150
H10 H 0.55520 0.77620 0.27470
H11 H 0.63610 0.64740 0.26560
C10 C 0.6359(3) 0.8095(3) 0.21265(7)
H12 H 0.72320 0.77190 0.21730
H13 H 0.62890 0.89450 0.22340
H14 H 0.62490 0.82000 0.18890
C11 C 0.3902(3) 0.7794(3) 0.22100(7)
H15 H 0.37330 0.79100 0.19750
H16 H 0.38650 0.86390 0.23200
H17 H 0.32290 0.72170 0.23040
C12 C 0.5183(2) 0.6111(3) 0.12171(6)
C13 C 0.3867(3) 0.5756(3) 0.10559(7)
C14 C 0.4177(4) 0.5171(7) 0.07171(9)
H18 H 0.46570 0.43510 0.07450
H19 H 0.47260 0.57780 0.05910
H20 H 0.33470 0.50100 0.05990
C15 C 0.3069(4) 0.6982(6) 0.10118(16)
H21 H 0.23170 0.68090 0.08660
H22 H 0.36320 0.76570 0.09150
H23 H 0.27400 0.72750 0.12260
C16 C 0.3143(4) 0.4751(5) 0.12557(11)
H24 H 0.29880 0.50860 0.14780
H25 H 0.36780 0.39590 0.12680
H26 H 0.22910 0.45550 0.11510
C17 C 0.8602(2) 0.6840(2) 0.06566(6)
C18 C 0.7941(3) 0.7637(3) 0.03890(7)
C19 C 0.7514(7) 0.6789(4) 0.01145(9)
H27 H 0.82910 0.63650 0.00180
H28 H 0.70660 0.73130 -0.00530
H29 H 0.69010 0.61270 0.01970
C20 C 0.6745(6) 0.8324(5) 0.0531(1)
H30 H 0.63380 0.88700 0.03620
H31 H 0.70230 0.88680 0.07160
H32 H 0.61000 0.76800 0.06070
C21 C 0.8909(5) 0.8645(6) 0.02717(16)
H33 H 0.96580 0.82170 0.01630
H34 H 0.92320 0.91480 0.04600
H35 H 0.84670 0.92260 0.01160
C22 C 0.9084(2) 0.2882(2) 0.04189(5)
C23 C 1.0193(2) 0.2953(2) 0.01639(5)
C24 C 1.0627(3) 0.1561(3) 0.00872(7)
H36 H 1.09910 0.11600 0.02860
H37 H 1.13070 0.15730 -0.00850
H38 H 0.98610 0.10590 0.00110
C25 C 1.1373(2) 0.3752(3) 0.02824(6)
H39 H 1.10880 0.46460 0.03250
H40 H 1.20650 0.37520 0.01130
H41 H 1.17250 0.33720 0.04850
C26 C 0.9612(3) 0.3552(3) -0.01478(6)
H42 H 0.88600 0.30270 -0.02230
H43 H 1.02930 0.35760 -0.03190
H44 H 0.93090 0.44370 -0.01010
C27 C 0.9523(2) 0.0766(2) 0.13930(5)
H45 H 0.92670 0.11210 0.16130
C28 C 1.1032(2) 0.0804(2) 0.13613(5)
C29 C 1.1826(2) 0.0600(3) 0.16368(6)
H46 H 1.14230 0.04830 0.18460
C30 C 1.3204(2) 0.0568(3) 0.16092(6)
H47 H 1.37450 0.04310 0.17970
C31 C 1.3764(2) 0.0738(2) 0.13038(6)
C32 C 1.3013(3) 0.0939(3) 0.10249(6)
H48 H 1.34210 0.10560 0.08170
C33 C 1.1637(2) 0.0964(3) 0.10586(6)
H49 H 1.11020 0.10940 0.08690
C34 C 0.9041(2) -0.0653(2) 0.13677(6)
H50 H 0.80660 -0.06610 0.13390
H51 H 0.94420 -0.10630 0.11720
C35 C 0.9396(2) -0.1422(3) 0.16653(6)
H52 H 0.91250 -0.10840 0.18720
C36 C 1.0055(2) -0.2531(2) 0.16672(6)
H53 H 1.03620 -0.28880 0.14660
C37 C 1.0322(3) -0.3228(3) 0.19810(6)
C38 C 1.0974(3) -0.5269(3) 0.22040(6)
H54 H 1.01910 -0.52660 0.23510
H55 H 1.17520 -0.49590 0.23300
C39 C 1.1218(3) -0.6599(3) 0.20748(7)
H56 H 1.04480 -0.68840 0.19470
H57 H 1.13600 -0.71970 0.22590
H58 H 1.20060 -0.65910 0.19340
#END
