
#######################################################################
#
#                 Cambridge Crystallographic Data Centre
#                                CCDC
#
#######################################################################
#
# If this CIF has been generated from an entry in the Cambridge
# Structural Database, then it will include bibliographic, chemical,
# crystal, experimental, refinement or atomic coordinate data resulting
# from the CCDC's data processing and validation procedures.
#
#######################################################################

data_CSD_CIF_WARZIY
_audit_creation_date 1994-02-10
_audit_creation_method CSD-ConQuest-V1
_database_code_CSD WARZIY
_chemical_formula_sum 'C19 H23 N3 O9'
_chemical_formula_moiety
;
C19 H23 N3 O9
;
_journal_coden_Cambridge 4
_journal_volume 115
_journal_year 1993
_journal_page_first 6094
_journal_name_full 'J.Am.Chem.Soc. '
loop_
_publ_author_name
"K.F.McClure"
"S.J.Danishefsky"
_chemical_name_systematic
;
6-Carbamoyloxymethyl-3,4-methoxycarbonylimido-5-\a-methoxy-7-methoxy-9-methoxy
carbonyl-3,4,5,6-tetrahydro-2H-1,5-epoxy-1-benzoxazocine
;
_cell_volume   4044.812
_exptl_crystal_colour 'colorless'
_exptl_crystal_density_diffrn 1.436
_diffrn_ambient_temperature ?
_diffrn_special_details
;
The study was carried out at room temperature,in the range 283-303K

;
#These two values have been output from a single CSD field.
_refine_ls_R_factor_gt 0.043
_refine_ls_wR_factor_gt 0.043
loop_
_citation_database_id_CSD
_citation_special_details
POKPUA "is a stereoisomer of this entry"
POKPOU "is a stereoisomer of this entry"
_symmetry_cell_setting orthorhombic
_symmetry_space_group_name_H-M 'P n a 21'
_symmetry_Int_Tables_number 33
loop_
_symmetry_equiv_pos_site_id
_symmetry_equiv_pos_as_xyz
1 x,y,z
2 1/2-x,1/2+y,1/2+z
3 1/2+x,1/2-y,z
4 -x,-y,1/2+z
_cell_length_a 13.5199(9)
_cell_length_b 17.7879(9)
_cell_length_c 16.819(1)
_cell_angle_alpha 90
_cell_angle_beta 90
_cell_angle_gamma 90
_cell_formula_units_Z 8
loop_
_atom_type_symbol
_atom_type_radius_bond
C 0.68
H 0.23
N 0.68
O 0.68
loop_
_atom_site_label
_atom_site_type_symbol
_atom_site_fract_x
_atom_site_fract_y
_atom_site_fract_z
O1 O 0.01705(30) 0.77631(26) 0.32100
O2 O -0.23565(32) 0.72089(28) 0.21069(34)
O3 O -0.17914(30) 0.79935(24) 0.11435(32)
O4 O 0.52172(34) 0.77465(30) 0.75956(35)
O5 O 0.58232(31) 0.69792(23) 0.85535(32)
O6 O 0.68891(35) 0.55957(28) 0.62398(36)
O7 O -0.08865(37) 0.54280(28) 0.14400(39)
O8 O 0.67227(36) 0.95657(25) 0.82558(37)
O9 O 0.91895(41) 0.45769(30) 0.90749(37)
O10 O 0.15424(38) 1.04167(27) 0.05842(37)
O11 O 0.93010(54) 0.40379(35) 0.78925(43)
O12 O -0.06066(33) 0.93289(25) 0.34686(33)
O13 O 0.16226(52) 1.09939(36) 0.17473(40)
O14 O 0.80936(40) 0.92854(26) 0.89465(39)
O15 O 0.03787(46) 0.56632(31) 0.06131(46)
O16 O 0.77387(30) 0.71675(27) 0.64838(24)
O17 O 0.02788(38) 0.78381(34) 0.45484(36)
O18 O 0.78855(37) 0.71197(34) 0.51481(35)
N1 N 0.66529(42) 0.65813(32) 0.88860
N2 N -0.09658(41) 0.84130(32) 0.0812(3)
N3 N 0.69122(39) 0.83719(32) 0.86826(40)
N4 N -0.07132(40) 0.65896(35) 0.09607(38)
N5 N 0.92260(44) 0.72333(43) 0.59374(42)
N6 N 0.16418(43) 0.78033(44) 0.37662(41)
C1 C 0.06721(56) 0.78053(42) 0.39026(49)
C2 C -0.03124(48) 0.93801(36) 0.26875(44)
C3 C 0.77429(52) 0.55489(40) 0.85939(45)
C4 C 0.73356(54) 0.71282(39) 0.92377(47)
C5 C 0.68636(46) 0.61342(35) 0.74981(43)
C6 C -0.06996(42) 0.88115(33) 0.21918(43)
C7 C -0.06318(49) 0.70773(35) 0.16643(42)
C8 C -0.03116(53) 0.78700(39) 0.04029(45)
C9 C -0.08923(49) 0.78022(36) 0.32575(44)
C10 C -0.13039(45) 0.81629(34) 0.25065(43)
C11 C 0.69517(45) 0.78842(34) 0.79632(42)
C12 C 0.01478(53) 0.94216(35) 0.10896(46)
C13 C 0.62562(43) 0.67767(36) 0.71823(40)
C14 C 0.76057(49) 0.77489(40) 0.86806(48)
C15 C 0.70961(50) 0.60910(37) 0.83111(46)
C16 C 0.60755(55) 0.73635(41) 0.78175(57)
C17 C 0.81648(52) 0.50292(34) 0.80690(49)
C18 C 0.89338(60) 0.44837(43) 0.83180(56)
C19 C 0.72289(48) 0.55641(37) 0.69945(49)
C20 C -0.04944(46) 0.88692(36) 0.13843(45)
C21 C 0.05730(46) 0.99215(35) 0.16088(48)
C22 C -0.15027(54) 0.75907(35) 0.18387(52)
C23 C -0.03323(57) 0.58685(43) 0.09891(50)
C24 C 0.78909(54) 0.50321(37) 0.72731(53)
C25 C 0.73309(63) 0.51240(46) 0.56501(52)
C26 C -0.28137(50) 0.66641(38) 0.15961(45)
C27 C 0.03150(49) 0.99141(36) 0.24144(47)
C28 C -0.00162(49) 0.72218(44) 0.09392(48)
C29 C 0.66642(45) 0.71321(38) 0.64099(44)
C30 C 0.12866(52) 1.04950(37) 0.13404(50)
C31 C 0.48066(49) 0.82971(36) 0.81011(52)
C32 C -0.00918(70) 0.97737(45) 0.40328(50)
C33 C 0.73364(60) 0.90934(42) 0.86371(49)
C34 C 0.82507(47) 0.71768(42) 0.57950(46)
C35 C 0.70850(62) 1.03297(43) 0.82018(57)
C36 C 0.21741(65) 1.0970(5) 0.02270(55)
C37 C 0.9955(7) 0.40818(51) 0.93873(58)
C38 C -0.05728(67) 0.46577(45) 0.15238(59)
H1 H 0.19100 0.77770 0.32300
H2 H 0.21010 0.78320 0.41930
H3 H 0.79520 0.55090 0.91420
H4 H 0.79180 0.68720 0.94150
H5 H 0.70160 0.73330 0.97080
H6 H -0.02980 0.68510 0.21180
H7 H 0.02550 0.81220 0.02030
H8 H -0.06670 0.76630 -0.00480
H9 H -0.10940 0.80520 0.37260
H10 H -0.11620 0.72830 0.32980
H11 H -0.19250 0.83830 0.26520
H12 H 0.72650 0.80840 0.75030
H13 H 0.02680 0.94580 0.05340
H14 H 0.56040 0.65830 0.70570
H15 H 0.82970 0.78840 0.86280
H16 H 0.81630 0.46610 0.69250
H17 H 0.69340 0.52470 0.51520
H18 H 0.72270 0.46330 0.57610
H19 H 0.79620 0.52730 0.55580
H20 H -0.30250 0.68930 0.10990
H21 H -0.34210 0.64780 0.18450
H22 H -0.23970 0.62670 0.14940
H23 H 0.06150 1.02900 0.27570
H24 H 0.06740 0.71240 0.09690
H25 H 0.64910 0.68430 0.59600
H26 H 0.64150 0.76320 0.63440
H27 H 0.52670 0.86940 0.82160
H28 H 0.46370 0.80690 0.86100
H29 H 0.42220 0.85120 0.78900
H30 H 0.06380 0.95960 0.40280
H31 H -0.02860 0.96980 0.45630
H32 H -0.00520 1.02820 0.39060
H33 H 0.76730 1.03330 0.78840
H34 H 0.71730 1.05300 0.86870
H35 H 0.65840 1.06050 0.79000
H36 H 0.22880 1.08620 -0.03290
H37 H 0.27860 1.10160 0.04850
H38 H 0.18450 1.14580 0.02400
H39 H 0.97610 0.35840 0.93760
H40 H 1.00490 0.42250 0.99540
H41 H 1.05500 0.41710 0.91270
H42 H -0.05300 0.44110 0.10070
H43 H -0.09820 0.43610 0.18530
H44 H 0.00980 0.46340 0.17400
H45 H 0.96760 0.72800 0.54970
H46 H 0.94680 0.72740 0.64600
#END
