
#######################################################################
#
#                 Cambridge Crystallographic Data Centre
#                                CCDC
#
#######################################################################
#
# If this CIF has been generated from an entry in the Cambridge
# Structural Database, then it will include bibliographic, chemical,
# crystal, experimental, refinement or atomic coordinate data resulting
# from the CCDC's data processing and validation procedures.
#
#######################################################################

data_CSD_CIF_WASGOO
_audit_creation_date 2012-05-22
_audit_creation_method CSD-ConQuest-V1
_database_code_CSD WASGOO
_database_code_depnum_ccdc_archive 'CCDC 753006'
_chemical_formula_sum 'C29 H30 N2 O7'
_chemical_formula_moiety
;
C29 H30 N2 O7
;
_journal_coden_Cambridge 1086
_journal_volume 23
_journal_year 2011
_journal_page_first 245
_journal_name_full 'Chirality '
loop_
_publ_author_name
"M.Calmes"
"F.Escale"
"C.Didierjean"
"J.Martinez"
_chemical_name_systematic
;
1-(4-((Benzyloxy)carbonyl)phenyl)-4,4-dimethyl-2-oxopyrrolidin-3-yl 
3-nitrobicyclo[2.2.2]oct-5-ene-2-carboxylate
;
_cell_volume   1289.295
_exptl_crystal_colour 'colorless'
_exptl_crystal_density_diffrn 1.336
_exptl_crystal_description 'prism'
_diffrn_ambient_temperature 100
#These two values have been output from a single CSD field.
_refine_ls_R_factor_gt 0.046
_refine_ls_wR_factor_gt 0.046
_symmetry_cell_setting triclinic
_symmetry_space_group_name_H-M 'P 1'
_symmetry_Int_Tables_number 1
loop_
_symmetry_equiv_pos_site_id
_symmetry_equiv_pos_as_xyz
1 x,y,z
_cell_length_a 10.0377(5)
_cell_length_b 10.5374(5)
_cell_length_c 13.5760(7)
_cell_angle_alpha 89.667(4)
_cell_angle_beta 76.192(4)
_cell_angle_gamma 68.204(4)
_cell_formula_units_Z 2
loop_
_atom_type_symbol
_atom_type_radius_bond
C 0.68
H 0.23
N 0.68
O 0.68
loop_
_atom_site_label
_atom_site_type_symbol
_atom_site_fract_x
_atom_site_fract_y
_atom_site_fract_z
O1 O 0.3746(3) 0.3727(3) -0.0242(2)
O2 O 0.5928(3) 0.2505(3) 0.0122(3)
O3 O 0.5315(3) 0.9345(3) -0.2006(2)
O4 O 0.6965(3) 1.0275(3) -0.3651(2)
O5 O 0.6634(3) 1.1743(3) -0.2325(3)
O6 O 0.7817(3) 1.3820(3) -0.4253(3)
O7 O 0.6051(4) 1.5698(3) -0.4394(3)
N1 N 0.7280(3) 0.7230(3) -0.2477(3)
N2 N 0.6499(4) 1.4577(4) -0.4082(3)
C1 C 0.3132(5) 0.2761(5) 0.0224(4)
H1 H 0.38990 0.18460 0.00860
H2 H 0.23490 0.27650 -0.00810
C2 C 0.2514(5) 0.3092(4) 0.1356(4)
C3 C 0.3078(5) 0.2201(4) 0.2030(4)
H3 H 0.38830 0.13840 0.17820
C4 C 0.2474(5) 0.2492(5) 0.3066(4)
H4 H 0.28830 0.18840 0.35120
C5 C 0.1260(5) 0.3691(5) 0.3440(4)
H5 H 0.08270 0.38820 0.41370
C6 C 0.0694(5) 0.4604(5) 0.2767(4)
H6 H -0.01120 0.54210 0.30150
C7 C 0.1307(5) 0.4320(4) 0.1744(4)
H7 H 0.09210 0.49460 0.13010
C8 C 0.5188(5) 0.3462(4) -0.0255(4)
C9 C 0.5690(4) 0.4488(4) -0.0789(4)
C10 C 0.4706(4) 0.5785(4) -0.0921(3)
H8 H 0.36920 0.60370 -0.06450
C11 C 0.5231(4) 0.6702(4) -0.1461(3)
H9 H 0.45670 0.75670 -0.15350
C12 C 0.6740(4) 0.6333(4) -0.1891(4)
C13 C 0.7722(4) 0.5043(4) -0.1761(3)
H10 H 0.87340 0.47820 -0.20510
C14 C 0.7200(4) 0.4146(4) -0.1202(3)
H11 H 0.78700 0.32980 -0.11010
C15 C 0.6569(5) 0.8630(4) -0.2461(4)
C16 C 0.7684(4) 0.9116(4) -0.3146(4)
H12 H 0.82630 0.93540 -0.27450
C17 C 0.8688(4) 0.7887(4) -0.3905(4)
C18 C 0.7923(5) 0.7756(4) -0.4734(4)
H13 H 0.85640 0.69710 -0.52050
H14 H 0.77160 0.85680 -0.50910
H15 H 0.70110 0.76470 -0.44240
C19 C 1.0212(4) 0.7920(4) -0.4407(4)
H16 H 1.07870 0.71150 -0.48730
H17 H 1.07150 0.79420 -0.38920
H18 H 1.00870 0.87230 -0.47700
C20 C 0.8765(4) 0.6746(4) -0.3197(4)
H19 H 0.89730 0.58880 -0.35770
H20 H 0.95290 0.66150 -0.28400
C21 C 0.6479(4) 1.1539(4) -0.3150(4)
C22 C 0.5713(4) 1.2593(4) -0.3795(3)
H21 H 0.63740 1.24060 -0.44830
C23 C 0.5401(4) 1.4059(4) -0.3410(4)
H22 H 0.55470 1.40440 -0.27210
C24 C 0.3801(5) 1.4999(4) -0.3348(4)
H23 H 0.36250 1.59620 -0.31840
C25 C 0.3475(5) 1.4795(5) -0.4343(4)
H24 H 0.31590 1.55120 -0.47420
C26 C 0.3664(5) 1.3540(5) -0.4609(4)
H25 H 0.34710 1.32990 -0.52020
C27 C 0.4219(5) 1.2517(4) -0.3881(4)
H26 H 0.43620 1.15900 -0.41240
C28 C 0.3107(5) 1.2977(4) -0.2819(4)
H27 H 0.21810 1.28980 -0.28370
H28 H 0.35090 1.23980 -0.23180
C29 C 0.2831(4) 1.4483(4) -0.2526(4)
H29 H 0.17930 1.50520 -0.24500
H30 H 0.30610 1.45520 -0.18780
O8 O 1.0176(3) 0.9974(3) -0.1278(2)
O9 O 1.1804(3) 0.7770(3) -0.1604(2)
O10 O 0.3714(3) 0.8955(3) 0.0879(2)
O11 O 0.2188(3) 0.7705(3) 0.2322(2)
O12 O 0.1232(3) 0.7750(3) 0.0965(3)
O13 O -0.2136(3) 0.7591(3) 0.2750(3)
O14 O -0.4031(3) 0.9515(3) 0.2949(3)
N3 N 0.5871(3) 0.7162(3) 0.1020(3)
N4 N -0.2694(4) 0.8827(4) 0.2651(3)
C30 C 1.1375(5) 1.0411(4) -0.1754(4)
H31 H 1.22620 0.98630 -0.15470
H32 H 1.11070 1.13620 -0.15200
C31 C 1.1696(4) 1.0268(4) -0.2886(4)
C32 C 1.0722(5) 1.1141(4) -0.3406(4)
H33 H 0.98330 1.18090 -0.30390
C33 C 1.1057(5) 1.1024(4) -0.4447(4)
H34 H 1.03910 1.16100 -0.47790
C34 C 1.2363(5) 1.0054(4) -0.5008(4)
H35 H 1.25820 0.99780 -0.57160
C35 C 1.3356(5) 0.9187(4) -0.4509(4)
H36 H 1.42440 0.85260 -0.48830
C36 C 1.3031(4) 0.9300(4) -0.3463(4)
H37 H 1.37110 0.87230 -0.31370
C37 C 1.0563(5) 0.8594(4) -0.1239(3)
C38 C 0.9293(4) 0.8248(4) -0.0702(4)
C39 C 0.7823(4) 0.9192(4) -0.0463(4)
H38 H 0.76100 1.00670 -0.06810
C40 C 0.6693(4) 0.8846(4) 0.0089(4)
H39 H 0.57220 0.94850 0.02360
C41 C 0.6995(4) 0.7531(4) 0.0433(4)
C42 C 0.8453(4) 0.6590(4) 0.0176(3)
H40 H 0.86710 0.57120 0.03890
C43 C 0.9585(4) 0.6939(4) -0.0392(3)
H41 H 1.05510 0.62890 -0.05670
C44 C 0.4355(4) 0.7842(4) 0.1152(3)
C45 C 0.3641(4) 0.6902(4) 0.1694(3)
H42 H 0.35690 0.62790 0.11940
C46 C 0.4696(4) 0.6090(4) 0.2314(4)
C47 C 0.4514(4) 0.6937(4) 0.3283(4)
H43 H 0.51980 0.63980 0.36550
H44 H 0.35180 0.72020 0.36980
H45 H 0.47130 0.77440 0.31040
C48 C 0.4586(4) 0.4715(4) 0.2574(4)
H46 H 0.52800 0.42600 0.29640
H47 H 0.48100 0.41520 0.19570
H48 H 0.35980 0.48680 0.29650
C49 C 0.6192(4) 0.5903(4) 0.1538(4)
H49 H 0.69610 0.57920 0.18860
H50 H 0.65120 0.51060 0.10560
C50 C 0.1084(4) 0.8119(4) 0.1832(4)
C51 C -0.0311(4) 0.9125(4) 0.2545(4)
H51 H -0.05050 0.87120 0.31850
C52 C -0.1679(4) 0.9503(4) 0.2111(4)
H52 H -0.13360 0.91500 0.13910
C53 C -0.2484(4) 1.1069(4) 0.2173(4)
H53 H -0.34190 1.13250 0.19720
C54 C -0.2730(5) 1.1632(4) 0.3236(4)
H54 H -0.36700 1.21390 0.36470
C55 C -0.1523(5) 1.1358(5) 0.3547(4)
H55 H -0.15330 1.16770 0.41870
C56 C -0.0112(4) 1.0482(4) 0.2780(4)
H56 H 0.07530 1.02980 0.30560
C57 C 0.0031(5) 1.1215(4) 0.1810(5)
H57 H 0.08750 1.06240 0.12830
H58 H 0.01880 1.20450 0.19420
C58 C -0.1388(4) 1.1572(4) 0.1454(4)
H59 H -0.11490 1.11470 0.07690
H60 H -0.18430 1.25580 0.14390
#END
