
#######################################################################
#
#                 Cambridge Crystallographic Data Centre
#                                CCDC
#
#######################################################################
#
# If this CIF has been generated from an entry in the Cambridge
# Structural Database, then it will include bibliographic, chemical,
# crystal, experimental, refinement or atomic coordinate data resulting
# from the CCDC's data processing and validation procedures.
#
#######################################################################

data_CSD_CIF_WASMAE
_audit_creation_date 1994-02-02
_audit_creation_method CSD-ConQuest-V1
_database_code_CSD WASMAE
_chemical_formula_sum 'C10 H8 N2 O6'
_chemical_formula_moiety
;
C10 H8 N2 O6
;
_journal_coeditor_code "IUCr CR1046"
_journal_coden_Cambridge 591
_journal_volume 49
_journal_year 1993
_journal_page_first 1641
_journal_name_full 'Acta Crystallogr.,Sect.C:Cryst.Struct.Commun. '
loop_
_publ_author_name
"H.L.Ammon"
"A.Bashir-Hashemi"
_chemical_name_systematic
;
Methyl 2,7-dinitropentacyclo(4.2.0.0^2,5^.0^3,8^.0^4,7^)octane-1-carboxylate
;
_chemical_name_common
;
2-Methoxycarbonyl-1,4-dinitrocubane
;
_cell_volume   2103.299
_exptl_crystal_colour 'yellow-orange'
_exptl_crystal_density_diffrn 1.59
_diffrn_ambient_temperature ?
_diffrn_special_details
;
The study was carried out at room temperature,in the range 283-303K

;
#These two values have been output from a single CSD field.
_refine_ls_R_factor_gt 0.05
_refine_ls_wR_factor_gt 0.05
_symmetry_cell_setting orthorhombic
_symmetry_space_group_name_H-M 'P 21 21 2'
_symmetry_Int_Tables_number 18
loop_
_symmetry_equiv_pos_site_id
_symmetry_equiv_pos_as_xyz
1 x,y,z
2 1/2+x,1/2-y,-z
3 1/2-x,1/2+y,-z
4 -x,-y,z
_cell_length_a 13.484(3)
_cell_length_b 22.325(3)
_cell_length_c 6.987(1)
_cell_angle_alpha 90
_cell_angle_beta 90
_cell_angle_gamma 90
_cell_formula_units_Z 8
loop_
_atom_type_symbol
_atom_type_radius_bond
C 0.68
H 0.23
N 0.68
O 0.68
loop_
_atom_site_label
_atom_site_type_symbol
_atom_site_fract_x
_atom_site_fract_y
_atom_site_fract_z
O1 O 0.8636(5) 0.0644(2) 0.357(1)
O2 O 0.9335(4) 0.0815(2) 0.619(1)
O3 O 0.7206(4) 0.3588(2) 0.458(1)
O4 O 0.5950(5) 0.3122(2) 0.578(1)
O5 O 0.5489(3) 0.1282(2) 0.492(1)
O6 O 0.6603(4) 0.0590(2) 0.569(1)
N1 N 0.8783(4) 0.0953(2) 0.493(1)
N2 N 0.6796(5) 0.3137(2) 0.517(1)
C1 C 0.8265(4) 0.1531(2) 0.502(1)
C2 C 0.7113(4) 0.1595(2) 0.519(1)
C3 C 0.7161(5) 0.2085(3) 0.358(1)
C4 C 0.7329(4) 0.2564(2) 0.513(1)
C5 C 0.7287(5) 0.2091(3) 0.673(1)
C6 C 0.8437(6) 0.2014(3) 0.655(1)
C7 C 0.8473(4) 0.2494(2) 0.495(1)
C8 C 0.8300(6) 0.2002(3) 0.340(1)
C9 C 0.6401(5) 0.1091(2) 0.530(1)
C10 C 0.4702(6) 0.0830(3) 0.495(2)
O7 O 0.1166(5) 0.1934(2) 0.903(1)
O8 O -0.0043(3) 0.1479(2) 1.0286(9)
O9 O 0.3817(4) -0.0555(3) 1.090(1)
O10 O 0.2625(4) -0.1078(2) 0.981(1)
O11 O 0.4025(3) 0.1371(2) 0.9374(8)
O12 O 0.3060(5) 0.1833(2) 1.140(1)
N3 N 0.0792(4) 0.1502(2) 0.9727(8)
N4 N 0.2976(4) -0.0618(2) 1.031(1)
C11 C 0.1383(4) 0.0953(2) 0.988(1)
C12 C 0.2535(4) 0.0919(2) 1.011(1)
C13 C 0.2364(5) 0.0425(2) 1.172(1)
C14 C 0.2385(4) -0.0070(2) 1.015(1)
C15 C 0.2569(5) 0.0411(2) 0.856(1)
C16 C 0.1406(5) 0.0455(2) 0.831(1)
C17 C 0.1248(4) -0.0030(2) 0.990(1)
C18 C 0.1216(5) 0.0477(3) 1.146(1)
C19 C 0.3221(5) 0.1423(2) 1.038(1)
C20 C 0.4780(5) 0.1827(3) 0.968(2)
H1 H 0.673(4) 0.215(3) 0.257(9)
H2 H 0.692(5) 0.214(3) 0.79(1)
H3 H 0.875(5) 0.201(3) 0.77(1)
H4 H 0.888(3) 0.287(2) 0.490(9)
H5 H 0.856(5) 0.191(3) 0.23(1)
H6 H 0.419(7) 0.111(4) 0.47(2)
H7 H 0.481(6) 0.053(3) 0.41(1)
H8 H 0.472(6) 0.062(4) 0.63(1)
H9 H 0.276(4) 0.042(2) 1.281(8)
H10 H 0.332(7) 0.035(4) 0.75(2)
H11 H 0.106(4) 0.043(3) 0.70(1)
H12 H 0.083(5) -0.037(3) 0.97(1)
H13 H 0.068(4) 0.053(2) 1.257(8)
H14 H 0.49850 0.18240 1.09840
H15 H 0.53380 0.17500 0.88840
H16 H 0.45180 0.22120 0.93780
#END
