
#######################################################################
#
#                 Cambridge Crystallographic Data Centre
#                                CCDC
#
#######################################################################
#
# If this CIF has been generated from an entry in the Cambridge
# Structural Database, then it will include bibliographic, chemical,
# crystal, experimental, refinement or atomic coordinate data resulting
# from the CCDC's data processing and validation procedures.
#
#######################################################################

data_CSD_CIF_WASRAJ
_audit_creation_date 1994-02-02
_audit_creation_method CSD-ConQuest-V1
_database_code_CSD WASRAJ
_chemical_formula_sum 'C6 H6 N4 O4'
_chemical_formula_moiety
;
C6 H6 N4 O4
;
_journal_coeditor_code "IUCr AS1037"
_journal_coden_Cambridge 591
_journal_volume 49
_journal_year 1993
_journal_page_first 1678
_journal_name_full 'Acta Crystallogr.,Sect.C:Cryst.Struct.Commun. '
loop_
_publ_author_name
"N.Okabe"
"T.Nakamura"
"H.Fukuda"
_chemical_name_systematic
;
2,4-Dinitrophenylhydrazine
;
_cell_volume    793.280
_exptl_crystal_colour 'orange'
_exptl_crystal_density_diffrn 1.659
_exptl_special_details
;
polymorph I
potential mutagenic agent

;
_diffrn_ambient_temperature ?
_diffrn_special_details
;
The study was carried out at room temperature,in the range 283-303K

;
#These two values have been output from a single CSD field.
_refine_ls_R_factor_gt 0.04
_refine_ls_wR_factor_gt 0.04
_symmetry_cell_setting monoclinic
_symmetry_space_group_name_H-M 'P 21/c'
_symmetry_Int_Tables_number 14
loop_
_symmetry_equiv_pos_site_id
_symmetry_equiv_pos_as_xyz
1 x,y,z
2 -x,1/2+y,1/2-z
3 -x,-y,-z
4 x,-1/2-y,-1/2+z
_cell_length_a 4.819(3)
_cell_length_b 11.625(4)
_cell_length_c 14.268(4)
_cell_angle_alpha 90
_cell_angle_beta 97.04(4)
_cell_angle_gamma 90
_cell_formula_units_Z 4
loop_
_atom_type_symbol
_atom_type_radius_bond
C 0.68
H 0.23
N 0.68
O 0.68
loop_
_atom_site_label
_atom_site_type_symbol
_atom_site_fract_x
_atom_site_fract_y
_atom_site_fract_z
O1 O 0.5646(9) 0.0172(4) 0.6910(3)
O2 O 0.2348(8) 0.1200(3) 0.7365(3)
O3 O 0.9543(8) 0.1006(4) 0.4081(3)
O4 O 0.7937(9) 0.2435(4) 0.3210(3)
N1 N 0.115(1) 0.3226(4) 0.6617(3)
N2 N -0.014(1) 0.4309(5) 0.6513(4)
N3 N 0.411(1) 0.1011(4) 0.6822(3)
N4 N 0.804(1) 0.1853(5) 0.3928(3)
C1 C 0.281(1) 0.2869(4) 0.5981(3)
C2 C 0.431(1) 0.1812(5) 0.6061(3)
C3 C 0.604(1) 0.1493(5) 0.5395(4)
C4 C 0.628(1) 0.2195(5) 0.4642(4)
C5 C 0.480(1) 0.3217(5) 0.4529(4)
C6 C 0.314(1) 0.3553(5) 0.5182(4)
H1 H 0.10(1) 0.275(5) 0.708(4)
H2 H 0.04(1) 0.478(5) 0.701(4)
H3 H -0.19(1) 0.417(5) 0.660(4)
H4 H 0.701(8) 0.081(4) 0.544(3)
H5 H 0.51(1) 0.371(5) 0.405(4)
H6 H 0.23(1) 0.423(4) 0.516(3)
#END
