
#######################################################################
#
#                 Cambridge Crystallographic Data Centre
#                                CCDC
#
#######################################################################
#
# If this CIF has been generated from an entry in the Cambridge
# Structural Database, then it will include bibliographic, chemical,
# crystal, experimental, refinement or atomic coordinate data resulting
# from the CCDC's data processing and validation procedures.
#
#######################################################################

data_CSD_CIF_WASTOZ
_audit_creation_date 1994-02-15
_audit_creation_method CSD-ConQuest-V1
_database_code_CSD WASTOZ
_database_code_depnum_ccdc_archive 'CCDC 1290419'
_chemical_formula_sum 'C21 H31 N1 O3'
_chemical_formula_moiety
;
C21 H31 N1 O3
;
_journal_coden_Cambridge 54
_journal_volume 101
_journal_year 1992
_journal_page_first 953
_journal_name_full 'Bull.Soc.Chim.Belg. '
loop_
_publ_author_name
"B.Tinant"
"J.P.Declercq"
"L.J.Lorenc"
"M.Rajkovic"
"A.Milovanovic"
"M.L.J.Mihailovic"
_chemical_name_systematic
;
N-Methyl-1\b,5-epoxyimino-19-nor-5\b-androst-3-en-17\b-ol acetate
;
_chemical_melting_point 444.15
_cell_volume   1920.362
_exptl_crystal_density_diffrn 1.2
_diffrn_ambient_temperature ?
_diffrn_special_details
;
The study was carried out at room temperature,in the range 283-303K

;
#These two values have been output from a single CSD field.
_refine_ls_R_factor_gt 0.06
_refine_ls_wR_factor_gt 0.06
_symmetry_cell_setting orthorhombic
_symmetry_space_group_name_H-M 'P 21 21 21'
_symmetry_Int_Tables_number 19
loop_
_symmetry_equiv_pos_site_id
_symmetry_equiv_pos_as_xyz
1 x,y,z
2 1/2+x,1/2-y,-z
3 -x,1/2+y,1/2-z
4 1/2-x,-y,1/2+z
_cell_length_a 7.288(1)
_cell_length_b 31.451(4)
_cell_length_c 8.378(2)
_cell_angle_alpha 90
_cell_angle_beta 90
_cell_angle_gamma 90
_cell_formula_units_Z 4
loop_
_atom_type_symbol
_atom_type_radius_bond
C 0.68
N 0.68
O 0.68
loop_
_atom_site_label
_atom_site_type_symbol
_atom_site_fract_x
_atom_site_fract_y
_atom_site_fract_z
C1 C 0.7327(5) 0.9441(1) -0.0333(4)
C2 C 0.7712(7) 0.9869(1) 0.0446(5)
C3 C 0.9675(7) 0.9903(1) 0.0901(5)
C4 C 1.0825(6) 0.9585(1) 0.0762(5)
C5 C 1.0204(4) 0.9161(1) 0.0097(4)
C6 C 1.1407(4) 0.8789(1) 0.0601(4)
C7 C 1.1166(4) 0.8703(1) 0.2393(4)
C8 C 0.9150(4) 0.8619(1) 0.2815(3)
C9 C 0.7962(4) 0.9012(1) 0.2374(3)
C10 C 0.8215(4) 0.9075(1) 0.0573(3)
C11 C 0.5938(4) 0.8956(1) 0.2845(4)
C12 C 0.5706(4) 0.8820(1) 0.4591(3)
C13 C 0.6810(4) 0.8418(1) 0.4944(3)
C14 C 0.8855(4) 0.8516(1) 0.4573(3)
C15 C 0.9892(5) 0.8141(1) 0.5319(5)
C16 C 0.8749(6) 0.8035(1) 0.6819(4)
C17 C 0.6992(4) 0.8299(1) 0.6711(3)
C18 C 0.6040(5) 0.8038(1) 0.4008(4)
O1 O 0.5360(4) 0.8068(1) 0.7218(3)
C19 C 0.5144(5) 0.8000(1) 0.8770(4)
O2 O 0.6183(5) 0.8130(1) 0.9761(3)
C20 C 0.3517(7) 0.7736(2) 0.9128(5)
N1 N 0.9953(4) 0.9167(1) -0.1663(3)
O3 O 0.8245(4) 0.9425(1) -0.1864(3)
C21 C 1.1319(7) 0.9392(2) -0.2577(5)
#END
