
#######################################################################
#
#                 Cambridge Crystallographic Data Centre
#                                CCDC
#
#######################################################################
#
# If this CIF has been generated from an entry in the Cambridge
# Structural Database, then it will include bibliographic, chemical,
# crystal, experimental, refinement or atomic coordinate data resulting
# from the CCDC's data processing and validation procedures.
#
#######################################################################

data_CSD_CIF_WATSUG
_audit_creation_date 2005-12-05
_audit_creation_method CSD-ConQuest-V1
_database_code_CSD WATSUG
_database_code_depnum_ccdc_archive 'CCDC 265595'
_chemical_formula_sum 'C27 H27 N3 O7'
_chemical_formula_moiety
;
C27 H27 N3 O7
;
_journal_coden_Cambridge 24
_journal_volume 46
_journal_year 2005
_journal_page_first 5521
_journal_name_full 'Tetrahedron Lett. '
loop_
_publ_author_name
"M.Periasamy"
"S.Suresh"
"S.S.Ganesan"
_chemical_name_systematic
;
(S,S,R)-Methyl 
2-(3,5-dinitrophenyl(1-phenylethyl)carboxamido(phenyl)methyl)butanoate
;
_chemical_melting_point 411.15
_cell_volume   1288.265
_exptl_crystal_colour 'colorless'
_exptl_crystal_density_diffrn 1.303
_exptl_special_details
;
Melting point range 411.15-413.15K

;
_exptl_crystal_description 'needle'
_diffrn_ambient_temperature 293
#These two values have been output from a single CSD field.
_refine_ls_R_factor_gt 0.049
_refine_ls_wR_factor_gt 0.049
loop_
_citation_database_id_CSD
_citation_special_details
WEPXOF "is a stereoisomer of this entry"
_symmetry_cell_setting monoclinic
_symmetry_space_group_name_H-M 'P 21'
_symmetry_Int_Tables_number 4
loop_
_symmetry_equiv_pos_site_id
_symmetry_equiv_pos_as_xyz
1 x,y,z
2 -x,1/2+y,-z
_cell_length_a 11.3587(8)
_cell_length_b 6.7522(5)
_cell_length_c 17.6162(12)
_cell_angle_alpha 90
_cell_angle_beta 107.542(1)
_cell_angle_gamma 90
_cell_formula_units_Z 2
loop_
_atom_type_symbol
_atom_type_radius_bond
C 0.68
H 0.23
N 0.68
O 0.68
loop_
_atom_site_label
_atom_site_type_symbol
_atom_site_fract_x
_atom_site_fract_y
_atom_site_fract_z
C1 C 0.08460(19) 0.2445(3) 0.35495(12)
H1 H 0.16440 0.24070 0.38990
N1 N 0.20198(14) 0.5549(3) 0.24609(9)
C2 C 0.25789(18) 0.7271(4) 0.13727(12)
H2 H 0.21720 0.84550 0.14960
N2 N 0.0080(2) 0.1086(3) 0.46072(12)
O1 O 0.21651(15) 0.2286(3) 0.21974(11)
C3 C -0.15111(18) 0.2485(3) 0.25333(12)
C4 C -0.1337(2) 0.1899(3) 0.33048(13)
H3 H -0.19960 0.15450 0.34870
N3 N -0.27751(17) 0.2526(3) 0.19835(13)
C5 C -0.0145(2) 0.1862(3) 0.37936(12)
C6 C 0.01671(18) 0.7385(3) 0.26019(13)
C7 C 0.41429(18) 0.6837(3) 0.27843(13)
C8 C 0.30574(17) 0.6020(3) 0.21287(12)
H4 H 0.33290 0.47570 0.19650
C9 C -0.05563(19) 0.3033(3) 0.22564(12)
H5 H -0.07030 0.33660 0.17240
C10 C 0.15737(17) 0.7198(3) 0.28687(12)
H6 H 0.18790 0.84180 0.26920
O2 O -0.36223(15) 0.2308(3) 0.22638(11)
C11 C 0.21549(19) 0.7137(4) 0.37721(12)
H7 H 0.18800 0.59720 0.39810
H8 H 0.19110 0.82930 0.40050
H9 H 0.30380 0.71100 0.38970
O3 O -0.29076(15) 0.2796(3) 0.12839(11)
C12 C 0.06317(19) 0.3086(3) 0.27775(12)
O4 O 0.34986(15) 0.9758(3) 0.08171(10)
C13 C 0.16937(19) 0.3641(3) 0.24613(13)
C14 C -0.05363(19) 0.7122(3) 0.31153(14)
H10 H -0.01460 0.68920 0.36530
O5 O -0.08100(19) 0.0659(4) 0.48192(10)
O6 O 0.11381(18) 0.0906(3) 0.50207(11)
C15 C 0.3617(2) 0.7901(4) 0.10601(13)
C16 C 0.4413(2) 0.8826(4) 0.29042(15)
H11 H 0.39580 0.97560 0.25440
O7 O 0.44228(16) 0.6807(3) 0.10041(12)
C17 C -0.0450(2) 0.7821(4) 0.18123(14)
H12 H 0.00030 0.80710 0.14620
C18 C 0.1650(2) 0.6102(4) 0.07139(13)
H13 H 0.20770 0.49980 0.05620
H14 H 0.10250 0.55590 0.09280
C19 C 0.4869(2) 0.5499(4) 0.33178(15)
H15 H 0.47190 0.41500 0.32360
C20 C 0.6052(2) 0.8100(5) 0.40901(17)
H16 H 0.66840 0.85280 0.45310
C21 C 0.5360(2) 0.9437(4) 0.35603(17)
H17 H 0.55280 1.07820 0.36410
C22 C -0.1811(2) 0.7197(4) 0.28369(19)
H18 H -0.22700 0.70060 0.31880
C23 C 0.4383(2) 1.0486(5) 0.04398(16)
H19 H 0.51920 1.00100 0.07250
H20 H 0.43820 1.19080 0.04440
H21 H 0.41610 1.00240 -0.01000
C24 C -0.2403(2) 0.7548(4) 0.2051(2)
H22 H -0.32610 0.75550 0.18640
C25 C -0.1721(2) 0.7893(4) 0.15356(18)
H23 H -0.21180 0.81730 0.10030
C26 C 0.1015(2) 0.7282(6) -0.00230(15)
H24 H 0.05670 0.83590 0.01160
H25 H 0.04520 0.64420 -0.04030
H26 H 0.16210 0.77970 -0.02510
C27 C 0.5806(2) 0.6123(5) 0.39653(18)
H27 H 0.62760 0.51990 0.43210
#END
