
#######################################################################
#
#                 Cambridge Crystallographic Data Centre
#                                CCDC
#
#######################################################################
#
# If this CIF has been generated from an entry in the Cambridge
# Structural Database, then it will include bibliographic, chemical,
# crystal, experimental, refinement or atomic coordinate data resulting
# from the CCDC's data processing and validation procedures.
#
#######################################################################

data_CSD_CIF_WATTAN
_audit_creation_date 2005-12-05
_audit_creation_method CSD-ConQuest-V1
_database_code_CSD WATTAN
_database_code_depnum_ccdc_archive 'CCDC 268623'
_chemical_formula_sum 'C14 H14 N2 O5'
_chemical_formula_moiety
;
C14 H14 N2 O5
;
_journal_coden_Cambridge 24
_journal_volume 46
_journal_year 2005
_journal_page_first 5511
_journal_name_full 'Tetrahedron Lett. '
loop_
_publ_author_name
"J.Svetlik"
"V.Kettmann"
"B.Zaleska"
_chemical_name_systematic
;
Methyl 
6-methyl-2-(3-nitrophenyl)-4-oxo-1,2,3,4-tetrahydropyridine-3-carboxylate
;
_chemical_melting_point 451.15
_cell_volume   2995.546
_exptl_crystal_colour 'colorless'
_exptl_crystal_density_diffrn 1.287
_exptl_special_details
;
Melting point range 451.15-453.15K

;
_exptl_crystal_description 'prism'
_diffrn_ambient_temperature 293
#These two values have been output from a single CSD field.
_refine_ls_R_factor_gt 0.0678
_refine_ls_wR_factor_gt 0.0678
_symmetry_cell_setting monoclinic
_symmetry_space_group_name_H-M 'P 21/n'
_symmetry_Int_Tables_number 14
loop_
_symmetry_equiv_pos_site_id
_symmetry_equiv_pos_as_xyz
1 x,y,z
2 1/2-x,1/2+y,1/2-z
3 -x,-y,-z
4 -1/2+x,-1/2-y,-1/2+z
_cell_length_a 12.996(2)
_cell_length_b 10.386(2)
_cell_length_c 22.843(4)
_cell_angle_alpha 90
_cell_angle_beta 103.70(3)
_cell_angle_gamma 90
_cell_formula_units_Z 8
loop_
_atom_type_symbol
_atom_type_radius_bond
C 0.68
H 0.23
N 0.68
O 0.68
loop_
_atom_site_label
_atom_site_type_symbol
_atom_site_fract_x
_atom_site_fract_y
_atom_site_fract_z
N1 N 0.1018(5) 0.2183(6) -0.0176(2)
H1 H 0.044(6) 0.216(7) -0.002(3)
C1 C 0.1140(5) 0.1380(7) -0.0669(3)
H2 H 0.13940 0.05360 -0.05050
C2 C 0.1950(5) 0.1940(6) -0.0957(3)
H3 H 0.16750 0.27610 -0.11410
C3 C 0.2986(5) 0.2225(7) -0.0473(3)
C4 C 0.2842(5) 0.2655(7) 0.0078(3)
H4 H 0.34260 0.29230 0.03730
C5 C 0.1835(6) 0.2691(7) 0.0197(3)
C6 C 0.0066(4) 0.1188(6) -0.1114(3)
C7 C -0.0652(5) 0.2182(7) -0.1271(3)
H5 H -0.04790 0.30100 -0.11260
C8 C -0.1624(5) 0.1930(7) -0.1646(3)
C9 C -0.1907(6) 0.0747(9) -0.1889(3)
H6 H -0.25680 0.06110 -0.21470
C10 C -0.1194(7) -0.0229(9) -0.1744(4)
H7 H -0.13620 -0.10450 -0.19060
C11 C -0.0233(6) -0.0012(7) -0.1361(3)
H8 H 0.02400 -0.06950 -0.12620
N2 N -0.2390(5) 0.2985(8) -0.1789(3)
O1 O -0.2096(6) 0.4062(7) -0.1659(3)
O2 O -0.3309(5) 0.2715(7) -0.2034(3)
C12 C 0.2218(5) 0.1115(9) -0.1441(3)
O3 O 0.2426(5) 0.0003(6) -0.1386(3)
O4 O 0.2223(5) 0.1797(7) -0.1926(3)
C13 C 0.2559(11) 0.1016(18) -0.2399(4)
H9 H 0.33050 0.08410 -0.22740
H10 H 0.24140 0.14870 -0.27720
H11 H 0.21750 0.02180 -0.24560
O5 O 0.3856(4) 0.2181(5) -0.0622(2)
C14 C 0.1649(7) 0.3350(11) 0.0743(4)
H12 H 0.12900 0.41510 0.06290
H13 H 0.23160 0.35120 0.10210
H14 H 0.12220 0.28100 0.09320
N3 N 0.6028(4) 0.2130(6) -0.0029(2)
H15 H 0.545(4) 0.231(4) -0.0110(17)
C15 C 0.6577(4) 0.3176(6) 0.0360(3)
H16 H 0.66330 0.39200 0.01060
C16 C 0.7674(5) 0.2724(6) 0.0656(3)
H17 H 0.76090 0.20340 0.09370
C17 C 0.8251(6) 0.2172(7) 0.0201(3)
C18 C 0.7606(5) 0.1481(7) -0.0279(3)
H18 H 0.79210 0.10550 -0.05490
C19 C 0.6534(5) 0.1418(7) -0.0359(3)
C20 C 0.5911(5) 0.3567(7) 0.0804(3)
C21 C 0.5621(5) 0.2665(7) 0.1184(3)
H19 H 0.58470 0.18150 0.11880
C22 C 0.4983(5) 0.3067(7) 0.1559(3)
C23 C 0.4654(6) 0.4313(9) 0.1586(3)
H20 H 0.42240 0.45540 0.18400
C24 C 0.4987(6) 0.5186(8) 0.1222(4)
H21 H 0.47910 0.60450 0.12350
C25 C 0.5599(6) 0.4828(7) 0.0839(3)
H22 H 0.58100 0.54470 0.05970
N4 N 0.4602(7) 0.2095(9) 0.1928(3)
O6 O 0.5087(6) 0.1081(8) 0.2015(3)
O7 O 0.3835(7) 0.2339(8) 0.2120(4)
C26 C 0.8336(5) 0.3759(7) 0.1007(3)
O8 O 0.8333(5) 0.4851(6) 0.0864(3)
O9 O 0.9004(4) 0.3309(5) 0.1499(2)
C27 C 0.9767(7) 0.4235(11) 0.1840(4)
H23 H 1.01520 0.46290 0.15770
H24 H 1.02520 0.37960 0.21600
H25 H 0.93970 0.48870 0.20070
O10 O 0.9230(4) 0.2280(6) 0.0296(2)
C28 C 0.5869(6) 0.0563(7) -0.0826(3)
H26 H 0.53100 0.01940 -0.06710
H27 H 0.63010 -0.01130 -0.09270
H28 H 0.55690 0.10580 -0.11810
#END
