
#######################################################################
#
#                 Cambridge Crystallographic Data Centre
#                                CCDC
#
#######################################################################
#
# If this CIF has been generated from an entry in the Cambridge
# Structural Database, then it will include bibliographic, chemical,
# crystal, experimental, refinement or atomic coordinate data resulting
# from the CCDC's data processing and validation procedures.
#
#######################################################################

data_CSD_CIF_WAVJOV
_audit_creation_date 2017-04-19
_audit_creation_method CSD-ConQuest-V1
_database_code_CSD WAVJOV
_database_code_depnum_ccdc_archive 'CCDC 984118'
_chemical_formula_sum 'C23 H30 N2 O5'
_chemical_formula_moiety
;
C23 H30 N2 O5
;
_journal_coden_Cambridge 1475
_journal_volume 8
_journal_year 2017
_journal_page_first 4312
_journal_name_full 'Chemical Science '
loop_
_publ_author_name
"Shunying Liu"
"Jun Jiang"
"Jianghui Chen"
"Qinghua Wei"
"Wenfeng Yao"
"Fei Xia"
"Wenhao Hu"
_chemical_name_systematic
;
ethyl \b-hydroxy-N-mesityl-4-nitro-\a-propylphenylalaninate
;
_cell_volume   2229.349
_exptl_crystal_colour 'colorless'
_exptl_crystal_density_diffrn 1.235
_exptl_crystal_description 'block'
_diffrn_ambient_temperature 296
#These two values have been output from a single CSD field.
_refine_ls_R_factor_gt 0.047
_refine_ls_wR_factor_gt 0.047
_symmetry_cell_setting monoclinic
_symmetry_space_group_name_H-M 'P 21/c'
_symmetry_Int_Tables_number 14
loop_
_symmetry_equiv_pos_site_id
_symmetry_equiv_pos_as_xyz
1 x,y,z
2 -x,1/2+y,1/2-z
3 -x,-y,-z
4 x,-1/2-y,-1/2+z
_cell_length_a 12.0803(4)
_cell_length_b 14.8270(5)
_cell_length_c 13.7314(5)
_cell_angle_alpha 90
_cell_angle_beta 114.984(1)
_cell_angle_gamma 90
_cell_formula_units_Z 4
loop_
_atom_type_symbol
_atom_type_radius_bond
C 0.68
H 0.23
N 0.68
O 0.68
loop_
_atom_site_label
_atom_site_type_symbol
_atom_site_fract_x
_atom_site_fract_y
_atom_site_fract_z
O1 O 0.9471(3) -0.15060(17) 0.5508(3)
O2 O 0.8353(3) -0.17893(16) 0.6335(2)
O3 O 0.70099(15) 0.26572(10) 0.68975(12)
O4 O 0.84460(12) 0.19724(9) 0.6546(1)
O5 O 0.50619(13) 0.20511(11) 0.43046(14)
H1 H 0.48300 0.25680 0.43230
N1 N 0.61620(16) 0.35945(11) 0.50267(15)
N2 N 0.8649(3) -0.13194(16) 0.5754(2)
C1 C 0.6469(2) 0.05713(14) 0.52776(18)
H2 H 0.58550 0.07440 0.54780
C2 C 0.7052(2) -0.02463(15) 0.5625(2)
H3 H 0.68440 -0.06220 0.60640
C3 C 0.7945(2) -0.04907(14) 0.5308(2)
C4 C 0.8229(2) 0.00307(16) 0.4624(2)
H4 H 0.88150 -0.01600 0.43960
C5 C 0.7636(2) 0.08424(14) 0.42760(18)
H5 H 0.78080 0.11930 0.37960
C6 C 0.67896(19) 0.11395(13) 0.46329(16)
C7 C 0.62455(18) 0.20711(13) 0.43456(17)
H6 H 0.61750 0.22180 0.36260
C8 C 0.70246(17) 0.28509(12) 0.51493(15)
C9 C 0.63069(17) 0.44894(12) 0.46990(16)
C10 C 0.59685(17) 0.46836(13) 0.36187(16)
C11 C 0.60893(19) 0.55669(14) 0.33313(18)
H7 H 0.58960 0.56940 0.26140
C12 C 0.64841(19) 0.62593(14) 0.40664(19)
C13 C 0.67685(18) 0.60540(14) 0.51286(18)
H8 H 0.70180 0.65160 0.56340
C14 C 0.66940(17) 0.51852(13) 0.54643(16)
C15 C 0.74710(18) 0.24965(13) 0.62957(16)
C16 C 0.8979(2) 0.15675(16) 0.76025(17)
H9 H 0.83980 0.11660 0.76970
H10 H 0.92140 0.20300 0.81540
C17 C 1.0067(2) 0.10568(19) 0.7673(2)
H11 H 1.04500 0.07710 0.83640
H12 H 1.06350 0.14630 0.75810
H13 H 0.98200 0.06060 0.71200
C18 C 0.81112(18) 0.31110(13) 0.49123(16)
H14 H 0.78000 0.34020 0.42150
H15 H 0.85210 0.25620 0.48620
C19 C 0.9060(2) 0.37347(15) 0.57294(19)
H16 H 0.87350 0.43430 0.56220
H17 H 0.91890 0.35470 0.64460
C20 C 1.0240(3) 0.3746(3) 0.5665(3)
H18 H 1.07870 0.41470 0.62010
H19 H 1.01270 0.39500 0.49650
H20 H 1.05790 0.31490 0.57860
C21 C 0.7019(2) 0.50089(16) 0.66337(17)
H21 H 0.72570 0.55640 0.70280
H22 H 0.76830 0.45870 0.69110
H23 H 0.63230 0.47630 0.67080
C22 C 0.5406(2) 0.39956(16) 0.27442(17)
H24 H 0.52410 0.42670 0.20620
H25 H 0.46570 0.37800 0.27450
H26 H 0.59600 0.35000 0.28670
C23 C 0.6574(3) 0.72134(16) 0.3721(2)
H27 H 0.68630 0.76030 0.43370
H28 H 0.57830 0.74120 0.32150
H29 H 0.71330 0.72320 0.33900
H30 H 0.605(2) 0.3617(15) 0.5594(19)
#END
