
#######################################################################
#
#                 Cambridge Crystallographic Data Centre
#                                CCDC
#
#######################################################################
#
# If this CIF has been generated from an entry in the Cambridge
# Structural Database, then it will include bibliographic, chemical,
# crystal, experimental, refinement or atomic coordinate data resulting
# from the CCDC's data processing and validation procedures.
#
#######################################################################

data_CSD_CIF_WAWQOD
_audit_creation_date 2017-04-20
_audit_creation_method CSD-ConQuest-V1
_database_code_CSD WAWQOD
_database_code_depnum_ccdc_archive 'CCDC 1429193'
_chemical_formula_sum 'C19 H18 N2 O5'
_chemical_formula_moiety
;
C19 H18 N2 O5
;
_journal_coden_Cambridge 35
_journal_volume 82
_journal_year 2017
_journal_page_first 2579
_journal_name_full 'J.Org.Chem. '
loop_
_publ_author_name
"M.Bezanson"
"A.Tomberg"
"N.Moitessier"
_chemical_name_systematic
;
methyl 
2-(4-nitrophenyl)-5-phenyl-4-oxa-1-azabicyclo[4.1.0]heptane-2-carboxylate
;
_cell_volume   1742.672
_exptl_crystal_density_diffrn 1.351
_diffrn_ambient_temperature 294
#These two values have been output from a single CSD field.
_refine_ls_R_factor_gt 0.0648
_refine_ls_wR_factor_gt 0.0648
_symmetry_cell_setting monoclinic
_symmetry_space_group_name_H-M 'P 21/n'
_symmetry_Int_Tables_number 14
loop_
_symmetry_equiv_pos_site_id
_symmetry_equiv_pos_as_xyz
1 x,y,z
2 1/2-x,1/2+y,1/2-z
3 -x,-y,-z
4 -1/2+x,-1/2-y,-1/2+z
_cell_length_a 9.430(7)
_cell_length_b 17.122(13)
_cell_length_c 11.039(8)
_cell_angle_alpha 90
_cell_angle_beta 102.114(8)
_cell_angle_gamma 90
_cell_formula_units_Z 4
loop_
_atom_type_symbol
_atom_type_radius_bond
C 0.68
H 0.23
N 0.68
O 0.68
loop_
_atom_site_label
_atom_site_type_symbol
_atom_site_fract_x
_atom_site_fract_y
_atom_site_fract_z
O1 O 0.3493(2) 0.74550(9) 0.08021(14)
C1 C 0.2613(7) 0.5112(2) 0.0250(4)
H1 H 0.24470 0.48920 -0.05380
N1 N 0.5016(3) 0.74472(14) -0.44846(19)
C2 C 0.2199(4) 0.4721(2) 0.1190(4)
H2 H 0.17480 0.42360 0.10490
N2 N 0.6563(2) 0.76053(10) 0.14365(17)
O2 O 0.7681(2) 0.90187(12) 0.0865(2)
O3 O 0.5776(3) 0.95223(12) 0.1389(3)
C3 C 0.5218(3) 0.76529(14) -0.3165(2)
C4 C 0.5791(3) 0.71015(14) -0.2301(2)
H3 H 0.60560 0.66120 -0.25450
O4 O 0.4521(3) 0.79549(15) -0.52446(17)
C5 C 0.5970(3) 0.72872(13) -0.1053(2)
H4 H 0.63820 0.69240 -0.04570
O5 O 0.5364(3) 0.67915(13) -0.47615(17)
C6 C 0.5542(3) 0.80074(12) -0.06892(19)
C7 C 0.5626(3) 0.81963(12) 0.06821(19)
C8 C 0.4080(3) 0.82174(12) 0.0917(2)
H5 H 0.40960 0.84170 0.17420
H6 H 0.34810 0.85620 0.03230
C9 C 0.4172(3) 0.69814(13) 0.1840(2)
H7 H 0.39110 0.71930 0.25890
C10 C 0.3524(3) 0.61742(13) 0.1613(2)
C11 C 0.3107(4) 0.57736(15) 0.2550(3)
H8 H 0.32640 0.59900 0.33400
C12 C 0.4805(3) 0.83784(13) -0.2841(2)
H9 H 0.44230 0.87440 -0.34440
C13 C 0.2449(4) 0.50460(17) 0.2335(4)
H10 H 0.21780 0.47790 0.29850
C14 C 0.4971(3) 0.85540(12) -0.1596(2)
H11 H 0.46980 0.90440 -0.13610
C15 C 0.6339(3) 0.89935(13) 0.1015(2)
C16 C 0.8475(4) 0.97351(18) 0.1202(4)
H12 H 0.94210 0.96910 0.10150
H13 H 0.85690 0.98280 0.20730
H14 H 0.79620 1.01620 0.07430
C17 C 0.5816(3) 0.69947(13) 0.2021(2)
H15 H 0.62810 0.64800 0.20920
C18 C 0.6668(3) 0.76215(14) 0.2780(2)
H16 H 0.61360 0.80250 0.31120
H17 H 0.75880 0.74790 0.33090
C19 C 0.3286(5) 0.58402(19) 0.0457(3)
H18 H 0.35740 0.61000 -0.01910
#END
