
#######################################################################
#
#                 Cambridge Crystallographic Data Centre
#                                CCDC
#
#######################################################################
#
# If this CIF has been generated from an entry in the Cambridge
# Structural Database, then it will include bibliographic, chemical,
# crystal, experimental, refinement or atomic coordinate data resulting
# from the CCDC's data processing and validation procedures.
#
#######################################################################

data_CSD_CIF_WAXCAB
_audit_creation_date 2012-05-08
_audit_creation_method CSD-ConQuest-V1
_database_code_CSD WAXCAB
_database_code_depnum_ccdc_archive 'CCDC 811809'
_chemical_formula_sum 'C30 H18 N2 O3'
_chemical_formula_moiety
;
C30 H18 N2 O3
;
_journal_coden_Cambridge 1037
_journal_volume 12
_journal_year 2011
_journal_page_first 287-10
_journal_name_full 'ARKIVOC '
loop_
_publ_author_name
"P.K.Tapaswi"
"C.Mukhopadhyay"
_chemical_name_systematic
;
4-(4-Nitrophenyl)-2,3-diphenyl-5H-indeno[1,2-b]pyridin-5-one
;
_cell_volume   4558.746
_exptl_crystal_colour 'colorless'
_exptl_crystal_description 'plate'
_diffrn_ambient_temperature 296
#These two values have been output from a single CSD field.
_refine_ls_R_factor_gt 0.0492
_refine_ls_wR_factor_gt 0.0492
_symmetry_cell_setting monoclinic
_symmetry_space_group_name_H-M 'P 21/n'
_symmetry_Int_Tables_number 14
loop_
_symmetry_equiv_pos_site_id
_symmetry_equiv_pos_as_xyz
1 x,y,z
2 1/2-x,1/2+y,1/2-z
3 -x,-y,-z
4 -1/2+x,-1/2-y,-1/2+z
_cell_length_a 12.2579(5)
_cell_length_b 24.9463(10)
_cell_length_c 15.2560(6)
_cell_angle_alpha 90
_cell_angle_beta 102.259(1)
_cell_angle_gamma 90
_cell_formula_units_Z 8
loop_
_atom_type_symbol
_atom_type_radius_bond
C 0.68
H 0.23
N 0.68
O 0.68
loop_
_atom_site_label
_atom_site_type_symbol
_atom_site_fract_x
_atom_site_fract_y
_atom_site_fract_z
O1 O 0.3894(5) 0.3505(2) 0.7030(4)
O2 O 0.3676(4) 0.35712(16) 0.8371(4)
N1 N 0.9109(4) 0.61265(18) 0.8523(3)
O3 O 0.8541(4) 0.42331(17) 0.8505(3)
C1 C 0.6485(4) 0.49564(19) 0.8226(4)
N2 N 0.4122(4) 0.37054(18) 0.7763(4)
C2 C 0.4930(4) 0.41492(18) 0.7927(4)
C3 C 0.5184(4) 0.4377(2) 0.8750(4)
H1 H 0.48470 0.42600 0.92070
C4 C 0.5954(5) 0.4785(2) 0.8893(3)
H2 H 0.61230 0.49510 0.94510
C5 C 0.7372(4) 0.5365(2) 0.8383(3)
C6 C 0.7157(4) 0.5923(2) 0.8461(3)
C7 C 0.8051(4) 0.6282(2) 0.8503(3)
C8 C 0.7924(4) 0.6872(2) 0.8481(3)
C9 C 0.8849(5) 0.7198(2) 0.8852(4)
H3 H 0.95130 0.70360 0.91380
C10 C 0.8791(6) 0.7741(3) 0.8802(4)
H4 H 0.94160 0.79440 0.90510
C11 C 0.7829(6) 0.7995(2) 0.8391(4)
H5 H 0.78000 0.83670 0.83660
C12 C 0.9300(5) 0.5597(2) 0.8527(3)
C13 C 1.0385(4) 0.5328(2) 0.8628(3)
C14 C 1.0204(4) 0.4777(2) 0.8653(4)
C15 C 0.9005(5) 0.4669(3) 0.8530(4)
C16 C 0.8470(5) 0.5206(2) 0.8446(4)
C17 C 1.1447(5) 0.5529(2) 0.8710(4)
H6 H 1.15700 0.58960 0.87020
C18 C 0.6904(5) 0.7695(2) 0.8016(4)
H7 H 0.62480 0.78650 0.77310
C19 C 0.6954(5) 0.7144(2) 0.8064(3)
H8 H 0.63230 0.69460 0.78100
C20 C 0.6035(4) 0.60968(18) 0.8538(3)
C21 C 0.5098(5) 0.60007(19) 0.7857(3)
H9 H 0.51760 0.58170 0.73430
C22 C 0.4060(5) 0.6175(2) 0.7940(4)
H10 H 0.34410 0.61150 0.74800
C23 C 0.3941(5) 0.6435(2) 0.8693(5)
H11 H 0.32370 0.65550 0.87410
C24 C 0.4832(6) 0.6525(2) 0.9382(4)
H12 H 0.47370 0.67020 0.98980
C25 C 0.5881(5) 0.6351(2) 0.9306(3)
H13 H 0.64890 0.64050 0.97790
C26 C 0.6202(5) 0.4710(2) 0.7404(4)
H14 H 0.65460 0.48180 0.69460
C27 C 0.5417(5) 0.4304(2) 0.7242(4)
H15 H 0.52260 0.41410 0.66820
C28 C 1.2156(5) 0.4612(2) 0.8844(4)
H16 H 1.27660 0.43810 0.89370
C29 C 1.1085(7) 0.4405(3) 0.8743(6)
C30 C 1.2324(5) 0.5173(2) 0.8806(3)
H17 H 1.30430 0.53040 0.88470
H18 H 1.072(11) 0.415(5) 0.856(9)
O4 O 0.1656(4) 0.30959(19) 0.9149(4)
O5 O 0.1219(4) 0.28707(18) 0.7758(4)
O6 O 0.3146(4) 0.07306(15) 0.8731(3)
C31 C 0.6590(5) 0.1495(2) 0.9201(3)
N3 N 0.1814(4) 0.28351(19) 0.8512(5)
N4 N 0.7079(4) 0.05537(17) 0.9077(3)
C32 C 1.0912(5) 0.1253(3) 0.9500(4)
H19 H 1.16790 0.12820 0.95490
C33 C 1.0463(5) 0.0807(2) 0.9816(4)
H20 H 1.09330 0.05340 1.00870
C34 C 0.9326(5) 0.0757(2) 0.9738(4)
H21 H 0.90390 0.04500 0.99500
C35 C 0.8607(4) 0.1160(2) 0.9348(3)
C36 C 0.7384(5) 0.1076(2) 0.9215(3)
C37 C 0.5436(4) 0.1359(2) 0.9003(3)
C38 C 0.4536(4) 0.17700(18) 0.8891(3)
C39 C 0.3911(5) 0.1878(2) 0.8047(4)
H22 H 0.40930 0.17080 0.75550
C40 C 0.3038(5) 0.2227(2) 0.7909(4)
H23 H 0.26380 0.23010 0.73330
C41 C 0.2764(4) 0.2465(2) 0.8646(4)
C42 C 0.5989(5) 0.0439(2) 0.8937(3)
C43 C 0.5482(5) -0.0096(2) 0.8810(3)
C44 C 0.5956(5) -0.0596(2) 0.8768(4)
H24 H 0.67250 -0.06400 0.88490
C45 C 0.5239(7) -0.1025(3) 0.8600(4)
H25 H 0.55320 -0.13630 0.85380
C46 C 0.4106(6) -0.0975(2) 0.8519(4)
H26 H 0.36520 -0.12770 0.84270
C47 C 0.3643(5) -0.0474(3) 0.8576(4)
H27 H 0.28760 -0.04340 0.85180
C48 C 0.4338(5) -0.0035(2) 0.8720(4)
C49 C 0.4070(6) 0.0538(2) 0.8771(3)
C50 C 0.5157(4) 0.0827(2) 0.8890(3)
C51 C 1.0219(6) 0.1648(3) 0.9116(4)
H28 H 1.05170 0.19530 0.89070
C52 C 0.9076(5) 0.1607(2) 0.9030(3)
H29 H 0.86160 0.18820 0.87540
C53 C 0.6954(4) 0.2059(2) 0.9397(4)
C54 C 0.6678(5) 0.2457(2) 0.8762(4)
H30 H 0.62130 0.23790 0.82110
C55 C 0.7093(6) 0.2977(3) 0.8941(5)
H31 H 0.69000 0.32450 0.85140
C56 C 0.7789(6) 0.3089(3) 0.9753(6)
H32 H 0.80920 0.34300 0.98650
C57 C 0.8036(5) 0.2699(3) 1.0397(4)
H33 H 0.84900 0.27770 1.09520
C58 C 0.7607(4) 0.2188(2) 1.0217(4)
H34 H 0.77640 0.19270 1.06610
C59 C 0.4252(5) 0.2033(2) 0.9608(4)
H35 H 0.46740 0.19740 1.01830
C60 C 0.3362(5) 0.2378(2) 0.9493(4)
H36 H 0.31720 0.25490 0.99810
#END
