
#######################################################################
#
#                 Cambridge Crystallographic Data Centre
#                                CCDC
#
#######################################################################
#
# If this CIF has been generated from an entry in the Cambridge
# Structural Database, then it will include bibliographic, chemical,
# crystal, experimental, refinement or atomic coordinate data resulting
# from the CCDC's data processing and validation procedures.
#
#######################################################################

data_CSD_CIF_WAXDUW
_audit_creation_date 2012-05-08
_audit_creation_method CSD-ConQuest-V1
_database_code_CSD WAXDUW
_database_code_depnum_ccdc_archive 'CCDC 812719'
_chemical_formula_sum 'C30 H22 N6 O1'
_chemical_formula_moiety
;
C30 H22 N6 O1
;
_journal_coden_Cambridge 1037
_journal_volume 12
_journal_year 2011
_journal_page_first 213-11
_journal_name_full 'ARKIVOC '
loop_
_publ_author_name
"E.N.Hristea"
"M.Bem"
"T.S.Balaban"
"A.Eichhofer"
"M.T.Caproiu"
"C.Draghici"
"G.Ionita"
"T.Spataru"
"C.Enache"
"M.Maganu"
"A.Beteringhe"
"M.Hillebrand"
"T.Constantinescu"
"A.T.Balaban"
_chemical_name_systematic
;
4,7-bis(diphenylhydrazono)-4,7-dihydro-2,1,3-benzoxadiazole
;
_chemical_name_common
;
4,7-Benzofurazandione-bis(1,1-diphenylhydrazone)
;
_cell_volume   2366.428
_exptl_crystal_colour 'yellow'
_exptl_crystal_density_diffrn 1.354
_exptl_special_details
;
Page numbers for this paper given as 198-221 and 213-236. The latter is the 
correct range
;
_exptl_crystal_description 'blocks'
_diffrn_ambient_temperature 180
#These two values have been output from a single CSD field.
_refine_ls_R_factor_gt 0.0425
_refine_ls_wR_factor_gt 0.0425
_symmetry_cell_setting monoclinic
_symmetry_space_group_name_H-M 'C 2/c'
_symmetry_Int_Tables_number 15
loop_
_symmetry_equiv_pos_site_id
_symmetry_equiv_pos_as_xyz
1 x,y,z
2 -x,y,1/2-z
3 1/2+x,1/2+y,z
4 1/2-x,1/2+y,1/2-z
5 -x,-y,-z
6 x,-y,-1/2+z
7 -1/2-x,-1/2-y,-z
8 -1/2+x,-1/2-y,-1/2+z
_cell_length_a 20.014(4)
_cell_length_b 9.5335(19)
_cell_length_c 12.576(3)
_cell_angle_alpha 90
_cell_angle_beta 99.53(3)
_cell_angle_gamma 90
_cell_formula_units_Z 4
loop_
_atom_type_symbol
_atom_type_radius_bond
C 0.68
H 0.23
N 0.68
O 0.68
loop_
_atom_site_label
_atom_site_type_symbol
_atom_site_fract_x
_atom_site_fract_y
_atom_site_fract_z
O1 O 0.50000 0.23306(12) 0.75000
N1 N 0.46981(5) 0.15114(10) 0.66394(7)
N2 N 0.42363(4) -0.08354(10) 0.54431(7)
N3 N 0.39307(5) -0.1773(1) 0.47296(7)
C1 C 0.48133(5) 0.02167(11) 0.69675(8)
C2 C 0.45902(5) -0.10774(11) 0.63898(8)
C3 C 0.48083(5) -0.23489(11) 0.69971(8)
H1 H 0.4686(7) -0.3299(15) 0.6669(11)
C4 C 0.38237(5) -0.32282(11) 0.49563(8)
C5 C 0.33455(5) -0.35758(12) 0.55991(8)
H2 H 0.3072(7) -0.2843(15) 0.5887(11)
C6 C 0.32483(6) -0.49765(12) 0.58440(9)
H3 H 0.2907(8) -0.5230(14) 0.6299(11)
C7 C 0.36151(6) -0.60144(12) 0.54258(11)
H4 H 0.3575(7) -0.7020(17) 0.5598(12)
C8 C 0.40748(6) -0.56581(13) 0.47532(11)
H5 H 0.4330(8) -0.6360(18) 0.4420(13)
C9 C 0.41821(6) -0.42602(12) 0.45171(10)
H6 H 0.4506(8) -0.3983(17) 0.4040(13)
C10 C 0.35830(5) -0.11636(12) 0.37669(8)
C11 C 0.32081(5) -0.19929(12) 0.29718(9)
H7 H 0.3184(7) -0.3013(17) 0.3053(12)
C12 C 0.28742(6) -0.13818(13) 0.20295(9)
H8 H 0.2619(7) -0.1970(16) 0.1472(12)
C13 C 0.29080(6) 0.00524(13) 0.18657(9)
H9 H 0.2663(7) 0.0427(16) 0.1166(12)
C14 C 0.32823(5) 0.08748(12) 0.26621(9)
H10 H 0.3318(7) 0.1903(16) 0.2559(11)
C15 C 0.36190(5) 0.02887(11) 0.36068(9)
H11 H 0.3887(7) 0.0858(15) 0.4188(12)
N1A N 0.53019(5) 0.15114(10) 0.83606(7)
N2A N 0.57637(4) -0.08354(10) 0.95569(7)
N3A N 0.60693(5) -0.1773(1) 1.02704(7)
C1A C 0.51867(5) 0.02167(11) 0.80325(8)
C2A C 0.54098(5) -0.10774(11) 0.86102(8)
C3A C 0.51917(5) -0.23489(11) 0.80029(8)
H1A H 0.5314(7) -0.3299(15) 0.8331(11)
C4A C 0.61763(5) -0.32282(11) 1.00437(8)
C5A C 0.66545(5) -0.35758(12) 0.94009(8)
H2A H 0.6928(7) -0.2843(15) 0.9113(11)
C6A C 0.67517(6) -0.49765(12) 0.91560(9)
H3A H 0.7093(8) -0.5230(14) 0.8701(11)
C7A C 0.63849(6) -0.60144(12) 0.95742(11)
H4A H 0.6425(7) -0.7020(17) 0.9402(12)
C8A C 0.59252(6) -0.56581(13) 1.02468(11)
H5A H 0.5670(8) -0.6360(18) 1.0580(13)
C9A C 0.58179(6) -0.42602(12) 1.04829(10)
H6A H 0.5494(8) -0.3983(17) 1.0960(13)
C10A C 0.64170(5) -0.11636(12) 1.12331(8)
C11A C 0.67919(5) -0.19929(12) 1.20282(9)
H7A H 0.6816(7) -0.3013(17) 1.1947(12)
C12A C 0.71258(6) -0.13818(13) 1.29705(9)
H8A H 0.7381(7) -0.1970(16) 1.3528(12)
C13A C 0.70920(6) 0.00524(13) 1.31343(9)
H9A H 0.7337(7) 0.0427(16) 1.3834(12)
C14A C 0.67177(5) 0.08748(12) 1.23379(9)
H10A H 0.6682(7) 0.1903(16) 1.2441(11)
C15A C 0.63810(5) 0.02887(11) 1.13932(9)
H11A H 0.6113(7) 0.0858(15) 1.0812(12)
#END
