
#######################################################################
#
#                 Cambridge Crystallographic Data Centre
#                                CCDC
#
#######################################################################
#
# If this CIF has been generated from an entry in the Cambridge
# Structural Database, then it will include bibliographic, chemical,
# crystal, experimental, refinement or atomic coordinate data resulting
# from the CCDC's data processing and validation procedures.
#
#######################################################################

data_CSD_CIF_WAXJUC
_audit_creation_date 2012-05-22
_audit_creation_method CSD-ConQuest-V1
_database_code_CSD WAXJUC
_database_code_depnum_ccdc_archive 'CCDC 831767'
_chemical_formula_sum 'C14 H14 N4 O4'
_chemical_formula_moiety
;
C14 H14 N4 O4
;
_journal_coden_Cambridge 1090
_journal_volume 22
_journal_year 2011
_journal_page_first 1530
_journal_name_full 'Tetrahedron:Asymm. '
loop_
_publ_author_name
"Yuanfu Tang"
"Xuefeng Li"
"Chunxia Lian"
"Jin Zhu"
"Jingen Deng"
_chemical_name_systematic
;
(1R,2R)-1,2-bis(3-nitrophenyl)ethane-1,2-diamine
;
_cell_volume    704.994
_exptl_crystal_colour 'orange'
_exptl_crystal_density_diffrn 1.424
_exptl_crystal_description 'block'
_diffrn_ambient_temperature 291
#These two values have been output from a single CSD field.
_refine_ls_R_factor_gt 0.042
_refine_ls_wR_factor_gt 0.042
_symmetry_cell_setting monoclinic
_symmetry_space_group_name_H-M 'P 21'
_symmetry_Int_Tables_number 4
loop_
_symmetry_equiv_pos_site_id
_symmetry_equiv_pos_as_xyz
1 x,y,z
2 -x,1/2+y,-z
_cell_length_a 7.245(4)
_cell_length_b 8.519(4)
_cell_length_c 11.478(4)
_cell_angle_alpha 90
_cell_angle_beta 95.64(4)
_cell_angle_gamma 90
_cell_formula_units_Z 2
loop_
_atom_type_symbol
_atom_type_radius_bond
C 0.68
H 0.23
N 0.68
O 0.68
loop_
_atom_site_label
_atom_site_type_symbol
_atom_site_fract_x
_atom_site_fract_y
_atom_site_fract_z
O1 O 0.7705(5) 1.1055(4) 0.7410(3)
O2 O 0.8706(6) 1.0430(5) 0.9167(3)
O3 O 0.6381(6) 0.0119(5) 0.1338(3)
O4 O 0.7234(6) 0.0140(4) 0.3166(3)
N1 N 0.8173(5) 1.0082(5) 0.8159(3)
N2 N 0.5386(4) 0.6990(5) 0.4612(3)
H1 H 0.50520 0.77930 0.49940
H2 H 0.49020 0.68260 0.39080
N3 N 0.9297(6) 0.7214(6) 0.4297(3)
H3 H 0.999(7) 0.723(7) 0.380(4)
H4 H 0.877(9) 0.808(8) 0.407(5)
N4 N 0.6857(5) 0.0809(4) 0.2234(3)
C1 C 0.8094(5) 0.8410(5) 0.7841(3)
C2 C 0.8620(6) 0.7314(7) 0.8695(3)
H5 H 0.90100 0.76130 0.94590
C3 C 0.8545(7) 0.5763(6) 0.8369(4)
H6 H 0.89070 0.49930 0.89190
C4 C 0.7944(6) 0.5333(6) 0.7245(4)
H7 H 0.78850 0.42740 0.70500
C5 C 0.7423(5) 0.6437(5) 0.6395(3)
C6 C 0.7492(5) 0.8011(5) 0.6700(3)
H8 H 0.71410 0.87820 0.61490
C7 C 0.6774(5) 0.5907(5) 0.5158(3)
H9 H 0.61810 0.48790 0.52110
C8 C 0.8376(5) 0.5718(4) 0.4405(3)
H10 H 0.92780 0.50150 0.48300
C9 C 0.7717(4) 0.4910(4) 0.3268(3)
C10 C 0.7621(5) 0.3283(4) 0.3237(3)
H11 H 0.80070 0.27060 0.39050
C11 C 0.6958(5) 0.2515(5) 0.2224(3)
C12 C 0.6396(5) 0.3318(5) 0.1205(3)
H12 H 0.59600 0.27840 0.05260
C13 C 0.6499(6) 0.4920(5) 0.1226(3)
H13 H 0.61320 0.54880 0.05510
C14 C 0.7145(6) 0.5705(5) 0.2238(3)
H14 H 0.71980 0.67950 0.22300
#END
