
#######################################################################
#
#                 Cambridge Crystallographic Data Centre
#                                CCDC
#
#######################################################################
#
# If this CIF has been generated from an entry in the Cambridge
# Structural Database, then it will include bibliographic, chemical,
# crystal, experimental, refinement or atomic coordinate data resulting
# from the CCDC's data processing and validation procedures.
#
#######################################################################

data_CSD_CIF_WAXSUL
_audit_creation_date 2012-04-25
_audit_creation_method CSD-ConQuest-V1
_database_code_CSD WAXSUL
_database_code_depnum_ccdc_archive 'CCDC 764561'
_chemical_formula_sum 'C16 H19 N1 O6'
_chemical_formula_moiety
;
C16 H19 N1 O6
;
_journal_coden_Cambridge 182
_journal_volume 46
_journal_year 2010
_journal_page_first 7247
_journal_name_full 'Chem.Commun. '
loop_
_publ_author_name
"W.Raimondi"
"G.Lettieri"
"J.-P.Dulcere"
"D.Bonne"
"J.Rodriguez"
_chemical_name_systematic
;
Dimethyl 
(E)-(2S,4S)-3-(hydroxyimino)-4-(hydroxymethyl)-2-phenylcyclopentane-1,1-dicarb
oxylate
;
_cell_volume   1669.002
_exptl_crystal_colour 'colorless'
_exptl_crystal_density_diffrn 1.279
_exptl_crystal_description 'prism'
_diffrn_ambient_temperature 293
#These two values have been output from a single CSD field.
_refine_ls_R_factor_gt 0.0557
_refine_ls_wR_factor_gt 0.0557
_symmetry_cell_setting orthorhombic
_symmetry_space_group_name_H-M 'P 21 21 21'
_symmetry_Int_Tables_number 19
loop_
_symmetry_equiv_pos_site_id
_symmetry_equiv_pos_as_xyz
1 x,y,z
2 1/2-x,-y,1/2+z
3 1/2+x,1/2-y,-z
4 -x,1/2+y,1/2-z
_cell_length_a 6.9284(1)
_cell_length_b 7.6008(2)
_cell_length_c 31.6931(8)
_cell_angle_alpha 90
_cell_angle_beta 90
_cell_angle_gamma 90
_cell_formula_units_Z 4
loop_
_atom_type_symbol
_atom_type_radius_bond
C 0.68
H 0.23
N 0.68
O 0.68
loop_
_atom_site_label
_atom_site_type_symbol
_atom_site_fract_x
_atom_site_fract_y
_atom_site_fract_z
C1 C 0.1491(5) 0.9395(4) 0.14451(11)
H1 H 0.02440 0.99090 0.15230
C2 C 0.1199(5) 0.7448(4) 0.13138(10)
C3 C 0.3070(5) 0.6522(5) 0.14575(12)
H2 H 0.28500 0.52740 0.14990
H3 H 0.40840 0.66740 0.12500
C4 C 0.3619(5) 0.7420(4) 0.18766(11)
H4 H 0.50260 0.75240 0.18930
C5 C 0.2746(5) 0.9240(4) 0.18333(12)
C6 C 0.2435(7) 1.0525(5) 0.11075(13)
C7 C 0.4387(8) 1.0529(7) 0.10248(19)
H5 H 0.52030 0.98190 0.11840
C8 C 0.5145(11) 1.1563(10) 0.0712(3)
H6 H 0.64640 1.15260 0.06580
C9 C 0.4006(17) 1.2639(9) 0.0479(2)
H7 H 0.45420 1.33560 0.02730
C10 C 0.2081(16) 1.2660(7) 0.05506(19)
H8 H 0.12900 1.33740 0.03870
C11 C 0.1282(10) 1.1639(6) 0.08632(16)
H9 H -0.00400 1.16900 0.09130
C12 C -0.0530(5) 0.6668(5) 0.15445(12)
C13 C -0.2211(8) 0.4009(6) 0.1672(2)
H10 H -0.21600 0.42480 0.19700
H11 H -0.20410 0.27710 0.16250
H12 H -0.34410 0.43700 0.15630
C14 C 0.0830(6) 0.7273(5) 0.08421(12)
C15 C -0.1586(10) 0.7588(10) 0.03192(17)
H13 H -0.09510 0.85110 0.01660
H14 H -0.29590 0.77340 0.02970
H15 H -0.12250 0.64690 0.02030
C16 C 0.2883(6) 0.6478(5) 0.22695(12)
H16 H 0.30830 0.72220 0.25140
H17 H 0.15080 0.62670 0.22420
N1 N 0.3108(5) 1.0430(4) 0.20977(12)
O1 O -0.1567(4) 0.7450(4) 0.17810(11)
O2 O -0.0692(4) 0.4970(3) 0.14605(9)
O3 O 0.1998(5) 0.6909(4) 0.05804(9)
O4 O -0.1016(4) 0.7665(5) 0.07620(8)
O5 O 0.3853(4) 0.4846(3) 0.23304(9)
H18 H 0.46580 0.49530 0.25180
O6 O 0.2107(5) 1.1999(3) 0.20030(11)
H19 H 0.26500 1.28320 0.21170
#END
