
#######################################################################
#
#                 Cambridge Crystallographic Data Centre
#                                CCDC
#
#######################################################################
#
# If this CIF has been generated from an entry in the Cambridge
# Structural Database, then it will include bibliographic, chemical,
# crystal, experimental, refinement or atomic coordinate data resulting
# from the CCDC's data processing and validation procedures.
#
#######################################################################

data_CSD_CIF_WAZCOS
_audit_creation_date 2017-08-22
_audit_creation_method CSD-ConQuest-V1
_database_code_CSD WAZCOS
_database_code_depnum_ccdc_archive 'CCDC 1469352'
_chemical_formula_sum 'C12 H8 N4 O2'
_chemical_formula_moiety
;
C12 H8 N4 O2
;
_journal_coden_Cambridge 1350
_journal_volume 19
_journal_year 2017
_journal_page_first 5251
_journal_name_full 'CrystEngComm '
loop_
_publ_author_name
"A.Irudaya Jothi"
"V.Alexander"
_chemical_name_systematic
;
N,N'-dihydroxy-1,10-phenanthroline-5,6-diimine
;
_cell_volume    525.137
_exptl_crystal_colour 'colorless'
_exptl_crystal_density_diffrn 1.519
_exptl_crystal_description 'NEEDLE'
_diffrn_ambient_temperature 296
#These two values have been output from a single CSD field.
_refine_ls_R_factor_gt 0.039
_refine_ls_wR_factor_gt 0.039
_symmetry_cell_setting monoclinic
_symmetry_space_group_name_H-M 'P c'
_symmetry_Int_Tables_number 7
loop_
_symmetry_equiv_pos_site_id
_symmetry_equiv_pos_as_xyz
1 x,y,z
2 x,-y,1/2+z
_cell_length_a 4.8736(5)
_cell_length_b 8.5549(10)
_cell_length_c 12.5992(16)
_cell_angle_alpha 90
_cell_angle_beta 91.428(4)
_cell_angle_gamma 90
_cell_formula_units_Z 2
loop_
_atom_type_symbol
_atom_type_radius_bond
C 0.68
H 0.23
N 0.68
O 0.68
loop_
_atom_site_label
_atom_site_type_symbol
_atom_site_fract_x
_atom_site_fract_y
_atom_site_fract_z
C1 C 0.6779(7) 0.6716(4) 0.4358(3)
H1 H 0.58390 0.71950 0.37940
C2 C 0.8830(8) 0.7513(4) 0.4903(3)
H2 H 0.92940 0.85270 0.47100
C3 C 1.0169(7) 0.6789(4) 0.5735(3)
H3 H 1.15600 0.73310 0.60950
C4 C 0.7598(6) 0.4561(3) 0.5521(2)
C5 C 0.6115(6) 0.5195(4) 0.4650(2)
C6 C 0.3950(5) 0.4255(4) 0.4122(2)
C7 C 0.3324(6) 0.2682(4) 0.4536(3)
C8 C 0.4950(5) 0.2080(4) 0.5453(2)
C9 C 0.7030(5) 0.2985(4) 0.5909(2)
C10 C 0.8134(7) 0.1060(4) 0.7114(3)
H4 H 0.92550 0.06910 0.76680
C11 C 0.6055(8) 0.0113(4) 0.6738(3)
H5 H 0.57320 -0.08550 0.70460
C12 C 0.4466(7) 0.0628(4) 0.5897(3)
H6 H 0.30590 0.00010 0.56240
N1 N 0.9581(6) 0.5350(3) 0.6052(2)
N2 N 0.8630(5) 0.2474(3) 0.6730(2)
N3 N 0.2429(5) 0.4641(3) 0.3305(2)
N4 N 0.1432(6) 0.1718(4) 0.4196(2)
O1 O 0.2846(5) 0.6070(3) 0.2858(2)
H7 H 0.19990 0.61220 0.22880
O2 O -0.0245(5) 0.2167(3) 0.3358(2)
H8 H 0.01930 0.30440 0.31620
#END
