
#######################################################################
#
#                 Cambridge Crystallographic Data Centre
#                                CCDC
#
#######################################################################
#
# If this CIF has been generated from an entry in the Cambridge
# Structural Database, then it will include bibliographic, chemical,
# crystal, experimental, refinement or atomic coordinate data resulting
# from the CCDC's data processing and validation procedures.
#
#######################################################################

data_CSD_CIF_WAZGAI
_audit_creation_date 2017-08-22
_audit_creation_method CSD-ConQuest-V1
_database_code_CSD WAZGAI
_database_code_depnum_ccdc_archive 'CCDC 1476863'
_chemical_formula_sum 'C34 H49 N1 O4'
_chemical_formula_moiety
;
C34 H49 N1 O4
;
_journal_coden_Cambridge 233
_journal_volume 62
_journal_year 2017
_journal_page_first 288
_journal_name_full 'Zh.Neorg.Khim.(Russ.)(Russ.J.Inorg.Chem.) '
loop_
_publ_author_name
"A.S.Antsyshkina"
"S.A.Syrbu"
"M.R.Kiselev"
"A.V.Churakov"
"G.G.Sadikov"
"I.V.Solonina"
"V.S.Sergienko"
_chemical_name_systematic
;
cholest-5-en-3-yl 4-nitrobenzoate
;
_cell_volume   1499.412
_exptl_crystal_colour 'colorless'
_exptl_crystal_density_diffrn 1.187
_exptl_crystal_description 'plate'
_diffrn_ambient_temperature 296
#These two values have been output from a single CSD field.
_refine_ls_R_factor_gt 0.0437
_refine_ls_wR_factor_gt 0.0437
_symmetry_cell_setting monoclinic
_symmetry_space_group_name_H-M 'P 21'
_symmetry_Int_Tables_number 4
loop_
_symmetry_equiv_pos_site_id
_symmetry_equiv_pos_as_xyz
1 x,y,z
2 -x,1/2+y,-z
_cell_length_a 10.7023(4)
_cell_length_b 10.0995(4)
_cell_length_c 14.1563(6)
_cell_angle_alpha 90
_cell_angle_beta 101.499(1)
_cell_angle_gamma 90
_cell_formula_units_Z 2
loop_
_atom_type_symbol
_atom_type_radius_bond
C 0.68
H 0.23
N 0.68
O 0.68
loop_
_atom_site_label
_atom_site_type_symbol
_atom_site_fract_x
_atom_site_fract_y
_atom_site_fract_z
O1 O 0.43678(9) 0.25835(10) 0.15172(8)
O2 O 0.97060(17) 0.18003(19) -0.08079(15)
O3 O 0.44738(11) 0.03925(11) 0.12179(8)
O4 O 0.97349(12) 0.37797(13) -0.02401(10)
N1 N 0.92451(13) 0.26912(15) -0.04026(10)
C1 C 0.80721(13) 0.24027(16) -0.00449(10)
C2 C 0.76060(14) 0.11274(16) -0.01101(11)
H1 H 0.80050 0.04630 -0.03960
C3 C 0.65229(13) 0.08569(15) 0.02627(10)
H2 H 0.61840 0.00060 0.02220
C4 C 0.59472(12) 0.18666(14) 0.06987(9)
C5 C 0.64254(14) 0.31564(15) 0.07372(11)
H3 H 0.60240 0.38290 0.10130
C6 C 0.75046(15) 0.34324(15) 0.03615(12)
H4 H 0.78360 0.42860 0.03830
C7 C 0.48496(12) 0.15112(14) 0.11593(9)
C8 C 0.34219(12) 0.23569(15) 0.21169(10)
H5 H 0.36280 0.15420 0.24910
C9 C 0.20866(12) 0.22543(15) 0.14993(10)
H6 H 0.19220 0.30190 0.10780
H7 H 0.20300 0.14680 0.10990
C10 C 0.10889(11) 0.21841(13) 0.21264(9)
C11 C 0.11585(11) 0.32289(13) 0.29190(9)
C12 C 0.25663(12) 0.33641(14) 0.34581(10)
H8 H 0.26350 0.41220 0.38860
H9 H 0.27970 0.25820 0.38530
C13 C 0.35162(12) 0.35316(15) 0.27913(10)
H10 H 0.33310 0.43410 0.24210
H11 H 0.43750 0.35950 0.31710
C14 C 0.01940(12) 0.12507(14) 0.19657(9)
H12 H 0.02210 0.06460 0.14750
C15 C -0.08579(12) 0.11048(14) 0.25208(9)
H13 H -0.06980 0.03210 0.29230
H14 H -0.16580 0.09730 0.20700
C16 C -0.09882(11) 0.22999(13) 0.31574(9)
H15 H -0.14260 0.30160 0.27550
C17 C 0.03438(11) 0.27767(12) 0.36567(9)
H16 H 0.07790 0.20030 0.39880
C18 C 0.06945(14) 0.45648(13) 0.24464(11)
H17 H 0.12200 0.48130 0.20000
H18 H 0.07490 0.52320 0.29360
H19 H -0.01740 0.44800 0.21100
C19 C 0.02849(13) 0.38074(14) 0.44429(10)
H20 H 0.11440 0.39830 0.47930
H21 H -0.00550 0.46270 0.41380
C20 C -0.05352(12) 0.33791(14) 0.51614(9)
H22 H -0.05700 0.40940 0.56130
H23 H -0.01430 0.26210 0.55240
C21 C -0.18974(11) 0.30157(13) 0.46502(9)
C22 C -0.17642(11) 0.19221(12) 0.39141(9)
H24 H -0.12990 0.11960 0.42880
C23 C -0.31347(12) 0.14257(15) 0.35719(10)
H25 H -0.31460 0.05300 0.33230
H26 H -0.36070 0.19990 0.30770
C24 C -0.36900(13) 0.14765(15) 0.45003(10)
H27 H -0.37930 0.05880 0.47330
H28 H -0.45160 0.19080 0.43720
C25 C -0.27300(12) 0.22756(13) 0.52660(9)
H29 H -0.21760 0.16300 0.56630
C26 C -0.26000(14) 0.42449(14) 0.41683(11)
H30 H -0.20720 0.46910 0.37940
H31 H -0.27840 0.48330 0.46550
H32 H -0.33820 0.39770 0.37550
C27 C -0.33977(14) 0.30775(14) 0.59473(11)
H33 H -0.40190 0.36670 0.55520
C28 C -0.41251(14) 0.21603(14) 0.65167(11)
H34 H -0.44740 0.14240 0.61080
H35 H -0.35310 0.18030 0.70650
C29 C -0.52133(15) 0.28604(15) 0.68783(11)
H36 H -0.49150 0.37180 0.71390
H37 H -0.59110 0.30100 0.63370
C30 C -0.57055(13) 0.20838(16) 0.76449(10)
H38 H -0.50250 0.20040 0.82080
H39 H -0.59260 0.11980 0.74040
C31 C -0.68728(13) 0.27031(16) 0.79524(10)
H40 H -0.66930 0.36460 0.80730
C32 C -0.7117(2) 0.2102(4) 0.88702(16)
H41 H -0.78530 0.25110 0.90390
H42 H -0.63890 0.22430 0.93790
H43 H -0.72660 0.11690 0.87800
C33 C -0.80652(15) 0.25968(18) 0.71695(12)
H44 H -0.87710 0.29900 0.73920
H45 H -0.82460 0.16810 0.70190
H46 H -0.79320 0.30520 0.66030
C34 C -0.24713(18) 0.39352(18) 0.66594(13)
H47 H -0.20180 0.45170 0.63090
H48 H -0.18750 0.33760 0.70740
H49 H -0.29410 0.44500 0.70400
#END
