
#######################################################################
#
#                 Cambridge Crystallographic Data Centre
#                                CCDC
#
#######################################################################
#
# If this CIF has been generated from an entry in the Cambridge
# Structural Database, then it will include bibliographic, chemical,
# crystal, experimental, refinement or atomic coordinate data resulting
# from the CCDC's data processing and validation procedures.
#
#######################################################################

data_CSD_CIF_WECXIM
_audit_creation_date 2006-07-11
_audit_creation_method CSD-ConQuest-V1
_database_code_CSD WECXIM
_database_code_depnum_ccdc_archive 'CCDC 603328'
_database_code_depnum_ccdc_journal 1267/1644
_chemical_formula_sum 'C23 H21 N3 O4'
_chemical_formula_moiety
;
C23 H21 N3 O4
;
_journal_coden_Cambridge 1267
_journal_volume 220
_journal_year 2005
_journal_page_first 567
_journal_name_full 'Z.Kristallogr.-New Cryst.Struct. '
loop_
_publ_author_name
"W.Frey"
"J.Y.Lee"
"V.Jager"
_chemical_name_systematic
;
1,3,5-tris(4-Methoxyphenyl)-1H-1,2,4-triazole-2-oxide
;
_chemical_melting_point 483
_cell_volume   2023.921
_exptl_crystal_colour 'colorless'
_exptl_crystal_density_diffrn 1.324
_exptl_special_details
;
Melting point range 483-484K

;
_exptl_crystal_description 'plate'
_exptl_crystal_preparation 'ethyl acetate/petroleum ether'
_diffrn_ambient_temperature 293
#These two values have been output from a single CSD field.
_refine_ls_R_factor_gt 0.0558
_refine_ls_wR_factor_gt 0.0558
_symmetry_cell_setting monoclinic
_symmetry_space_group_name_H-M 'P 21/c'
_symmetry_Int_Tables_number 14
loop_
_symmetry_equiv_pos_site_id
_symmetry_equiv_pos_as_xyz
1 x,y,z
2 -x,1/2+y,1/2-z
3 -x,-y,-z
4 x,-1/2-y,-1/2+z
_cell_length_a 10.7855(7)
_cell_length_b 8.3439(6)
_cell_length_c 22.9603(18)
_cell_angle_alpha 90
_cell_angle_beta 101.620(6)
_cell_angle_gamma 90
_cell_formula_units_Z 4
loop_
_atom_type_symbol
_atom_type_radius_bond
C 0.68
H 0.23
N 0.68
O 0.68
loop_
_atom_site_label
_atom_site_type_symbol
_atom_site_fract_x
_atom_site_fract_y
_atom_site_fract_z
N1 N 0.1507(2) 0.1224(3) 0.07843(9)
O1 O 0.1313(2) 0.1709(3) 0.02438(8)
N2 N 0.2113(2) -0.0250(3) 0.09489(9)
O2 O 0.4514(2) -0.3509(3) -0.0618(1)
O3 O 0.3874(2) -0.5482(3) 0.30983(9)
C1 C 0.2167(2) -0.0399(3) 0.15466(11)
N3 N 0.1628(2) 0.0850(3) 0.17485(9)
O4 O -0.1130(2) 0.7675(3) 0.15936(10)
C2 C 0.1231(2) 0.1853(3) 0.12777(11)
C3 C 0.2745(2) -0.1070(3) 0.05474(11)
C4 C 0.4050(3) -0.1097(4) 0.06593(12)
H1 H 0.45070 -0.05660 0.09900
C5 C 0.4684(3) -0.1911(4) 0.02818(13)
H2 H 0.55640 -0.19460 0.03620
C6 C 0.4000(3) -0.2670(4) -0.02153(12)
C7 C 0.2674(3) -0.2604(4) -0.03341(12)
H3 H 0.22140 -0.30960 -0.06730
C8 C 0.2053(3) -0.1816(4) 0.00472(11)
H4 H 0.11730 -0.17830 -0.00300
C9 C 0.5859(4) -0.3558(5) -0.0532(2)
H5 H 0.61010 -0.41780 -0.08430
H6 H 0.62010 -0.40410 -0.01540
H7 H 0.61820 -0.24870 -0.05400
C10 C 0.2683(3) -0.1755(3) 0.19173(11)
C11 C 0.2820(3) -0.3283(3) 0.16973(12)
H8 H 0.26370 -0.34540 0.12890
C12 C 0.3225(3) -0.4555(3) 0.20757(11)
H9 H 0.33120 -0.55700 0.19210
C13 C 0.3499(3) -0.4312(4) 0.26855(12)
C14 C 0.3390(3) -0.2788(4) 0.29108(12)
H10 H 0.35890 -0.26140 0.33190
C15 C 0.2987(3) -0.1532(4) 0.25317(12)
H11 H 0.29160 -0.05150 0.26880
C16 C 0.3814(3) -0.7105(4) 0.28989(15)
H12 H 0.40960 -0.78030 0.32320
H13 H 0.43470 -0.72390 0.26140
H14 H 0.29560 -0.73660 0.27170
C17 C 0.0578(2) 0.3364(3) 0.13161(11)
C18 C 0.0227(3) 0.3746(4) 0.18527(12)
H15 H 0.03830 0.30150 0.21650
C19 C -0.0341(3) 0.5172(4) 0.19285(13)
H16 H -0.05690 0.54020 0.22890
C20 C -0.0581(3) 0.6283(4) 0.14670(12)
C21 C -0.0259(3) 0.5925(4) 0.09261(11)
H17 H -0.04350 0.66500 0.06130
C22 C 0.0327(3) 0.4483(3) 0.08554(11)
H18 H 0.05570 0.42560 0.04950
C23 C -0.1393(4) 0.8877(4) 0.11476(15)
H19 H -0.17680 0.97880 0.13000
H20 H -0.19690 0.84600 0.08070
H21 H -0.06200 0.91950 0.10340
#END
