
#######################################################################
#
#                 Cambridge Crystallographic Data Centre
#                                CCDC
#
#######################################################################
#
# If this CIF has been generated from an entry in the Cambridge
# Structural Database, then it will include bibliographic, chemical,
# crystal, experimental, refinement or atomic coordinate data resulting
# from the CCDC's data processing and validation procedures.
#
#######################################################################

data_CSD_CIF_WECYUA
_audit_creation_date 2013-01-14
_audit_creation_method CSD-ConQuest-V1
_database_code_CSD WECYUA
_database_code_depnum_ccdc_archive 'CCDC 867564'
_chemical_formula_sum 'C21 H15 N3 O3'
_chemical_formula_moiety
;
C21 H15 N3 O3
;
_journal_coden_Cambridge 1366
_journal_volume 354
_journal_year 2012
_journal_page_first 2218
_journal_name_full 'Adv.Synth.Catal. '
loop_
_publ_author_name
"Wen-Chun Lee"
"Ho-Chuan Shen"
"Wan-Ping Hu"
"Wei-Sheng Lo"
"C.Murali"
"J.K.Vandavasi"
"Jeh-Jeng Wang"
_chemical_name_systematic
;
4-Benzyl-2-(4-nitrophenyl)-3\l^5^-quinazolin-3-oxide
;
_cell_volume   1673.222
_exptl_crystal_colour 'yellow'
_exptl_crystal_density_diffrn 1.419
_exptl_crystal_description 'parallelepiped'
_diffrn_ambient_temperature 297
#These two values have been output from a single CSD field.
_refine_ls_R_factor_gt 0.0476
_refine_ls_wR_factor_gt 0.0476
_symmetry_cell_setting monoclinic
_symmetry_space_group_name_H-M 'P 21/c'
_symmetry_Int_Tables_number 14
loop_
_symmetry_equiv_pos_site_id
_symmetry_equiv_pos_as_xyz
1 x,y,z
2 -x,1/2+y,1/2-z
3 -x,-y,-z
4 x,-1/2-y,-1/2+z
_cell_length_a 4.1224(10)
_cell_length_b 25.202(6)
_cell_length_c 16.108(4)
_cell_angle_alpha 90
_cell_angle_beta 91.051(5)
_cell_angle_gamma 90
_cell_formula_units_Z 4
loop_
_atom_type_symbol
_atom_type_radius_bond
C 0.68
H 0.23
N 0.68
O 0.68
loop_
_atom_site_label
_atom_site_type_symbol
_atom_site_fract_x
_atom_site_fract_y
_atom_site_fract_z
O1 O 0.9044(4) 0.75715(5) 0.34849(8)
O2 O 1.0468(6) 1.03030(7) 0.33138(14)
O3 O 0.7495(6) 1.01488(7) 0.43412(14)
N1 N 0.4187(4) 0.79374(5) 0.17547(8)
N2 N 0.7192(3) 0.75016(5) 0.28307(8)
N3 N 0.8735(5) 1.00135(7) 0.37063(12)
C1 C 0.4616(4) 0.69797(6) 0.17812(10)
C2 C 0.3818(4) 0.64924(7) 0.13914(11)
H1 H 0.45540 0.61750 0.16210
C3 C 0.1966(5) 0.64865(7) 0.06773(11)
H2 H 0.14290 0.61630 0.04320
C4 C 0.0868(5) 0.69585(8) 0.03110(11)
H3 H -0.03580 0.69470 -0.01790
C5 C 0.1590(5) 0.74356(7) 0.06706(11)
H4 H 0.08430 0.77490 0.04280
C6 C 0.3468(4) 0.74530(6) 0.14094(10)
C7 C 0.5930(4) 0.79548(6) 0.24292(10)
C8 C 0.6564(4) 0.70167(6) 0.25159(10)
C9 C 0.8184(4) 0.65520(7) 0.29325(11)
H5 H 1.01930 0.66750 0.31890
H6 H 0.87500 0.62980 0.25070
C10 C 0.6250(4) 0.62638(6) 0.35882(10)
C11 C 0.5574(5) 0.65002(7) 0.43420(11)
H7 H 0.61780 0.68510 0.44380
C12 C 0.4002(6) 0.62180(9) 0.49554(12)
H8 H 0.35790 0.63790 0.54610
C13 C 0.3067(6) 0.57019(9) 0.48191(14)
H9 H 0.20240 0.55130 0.52320
C14 C 0.3680(6) 0.54666(8) 0.40712(14)
H10 H 0.30250 0.51190 0.39750
C15 C 0.5270(5) 0.57441(7) 0.34590(12)
H11 H 0.56850 0.55800 0.29550
C16 C 0.6749(4) 0.84813(6) 0.27945(10)
C17 C 0.8281(5) 0.88519(7) 0.22952(12)
H12 H 0.88380 0.87620 0.17560
C18 C 0.8979(5) 0.93537(7) 0.25970(12)
H13 H 1.00560 0.96000 0.22720
C19 C 0.8044(5) 0.94798(7) 0.33869(12)
C20 C 0.6476(5) 0.91223(7) 0.38933(12)
H14 H 0.58500 0.92190 0.44240
C21 C 0.5865(5) 0.86191(7) 0.35906(11)
H15 H 0.48500 0.83710 0.39240
#END
