
#######################################################################
#
#                 Cambridge Crystallographic Data Centre
#                                CCDC
#
#######################################################################
#
# If this CIF has been generated from an entry in the Cambridge
# Structural Database, then it will include bibliographic, chemical,
# crystal, experimental, refinement or atomic coordinate data resulting
# from the CCDC's data processing and validation procedures.
#
#######################################################################

data_CSD_CIF_WECZEJ
_audit_creation_date 1994-06-13
_audit_creation_method CSD-ConQuest-V1
_database_code_CSD WECZEJ
_database_code_depnum_ccdc_fiz 'CSD 56658'
_chemical_formula_sum 'C11 H21 N3 O2'
_chemical_formula_moiety
;
C11 H21 N3 O2
;
_journal_coden_Cambridge 644
_journal_volume 48
_journal_year 1993
_journal_page_first 1138
_journal_name_full 'Z.Naturforsch.,B:Chem.Sci. '
loop_
_publ_author_name
"D.L.Ostercamp"
"L.M.Preston"
"K.D.Onan"
_chemical_name_systematic
;
N-t-Butyl-3-(t-butylimino)-2-nitropropen-1-amine
;
_chemical_melting_point 417.15
_cell_volume   1347.349
_exptl_crystal_colour 'pale yellow'
_exptl_crystal_density_diffrn 1.12
_exptl_special_details
;
Melting point range 417.15-419.15K

;
_diffrn_ambient_temperature ?
_diffrn_special_details
;
The study was carried out at room temperature,in the range 283-303K

;
#These two values have been output from a single CSD field.
_refine_ls_R_factor_gt 0.058
_refine_ls_wR_factor_gt 0.058
_symmetry_cell_setting monoclinic
_symmetry_space_group_name_H-M 'P 21/c'
_symmetry_Int_Tables_number 14
loop_
_symmetry_equiv_pos_site_id
_symmetry_equiv_pos_as_xyz
1 x,y,z
2 -x,1/2+y,1/2-z
3 -x,-y,-z
4 x,-1/2-y,-1/2+z
_cell_length_a 9.669(4)
_cell_length_b 16.415(6)
_cell_length_c 17.341(7)
_cell_angle_alpha 90
_cell_angle_beta 150.69(2)
_cell_angle_gamma 90
_cell_formula_units_Z 4
loop_
_atom_type_symbol
_atom_type_radius_bond
C 0.68
H 0.21
N 0.68
O 0.68
loop_
_atom_site_label
_atom_site_type_symbol
_atom_site_fract_x
_atom_site_fract_y
_atom_site_fract_z
N1 N 0.7509(3) 0.0760(2) 0.2082(2)
C1 C 0.7560(3) 0.1343(2) 0.1603(2)
C2 C 0.5750(3) 0.2015(2) 0.0767(2)
C3 C 0.3689(3) 0.2136(2) 0.0355(2)
N2 N 0.5930(3) 0.2613(2) 0.0267(2)
O1 O 0.7594(3) 0.2513(2) 0.0545(2)
O2 O 0.4444(3) 0.3225(2) -0.0413(2)
C4 C 0.9385(3) 0.0042(2) 0.2981(2)
C5 C 0.7668(5) -0.0645(3) 0.2504(3)
C6 C 1.1985(5) 0.0230(3) 0.4722(3)
C7 C 1.0222(4) -0.0193(3) 0.2569(3)
N3 N 0.3378(3) 0.1617(2) 0.0758(1)
C8 C 0.1233(3) 0.1721(2) 0.0330(2)
C9 C 0.2518(4) 0.1334(3) 0.1664(2)
C10 C -0.1398(4) 0.1256(3) -0.1205(3)
C11 C 0.0460(4) 0.2610(3) 0.0086(2)
H1 H 0.578(6) 0.086(3) 0.166(3)
H2 H 0.888(3) 0.132(2) 0.182(2)
H3 H 0.246(4) 0.263(2) -0.027(2)
H4 H 0.888(5) -0.112(3) 0.314(3)
H5 H 0.714(5) -0.047(3) 0.276(2)
H6 H 0.575(5) -0.076(3) 0.125(3)
H7 H 1.318(4) -0.024(2) 0.535(2)
H8 H 1.352(4) 0.037(2) 0.497(2)
H9 H 1.309(5) 0.072(3) 0.510(3)
H10 H 1.111(4) -0.066(3) 0.299(2)
H11 H 1.135(4) 0.025(2) 0.291(2)
H12 H 0.832(4) -0.029(2) 0.133(2)
H13 H 0.120(5) 0.136(3) 0.140(3)
H14 H 0.402(4) 0.175(3) 0.255(2)
H15 H 0.322(7) 0.078(4) 0.189(4)
H16 H -0.263(4) 0.125(2) -0.138(2)
H17 H -0.054(5) 0.063(3) -0.085(2)
H18 H -0.204(6) 0.160(3) -0.197(3)
H19 H -0.076(5) 0.260(3) -0.008(3)
H20 H 0.226(5) 0.279(3) 0.116(3)
H21 H -0.055(5) 0.285(3) -0.091(3)
#END
