
#######################################################################
#
#                 Cambridge Crystallographic Data Centre
#                                CCDC
#
#######################################################################
#
# If this CIF has been generated from an entry in the Cambridge
# Structural Database, then it will include bibliographic, chemical,
# crystal, experimental, refinement or atomic coordinate data resulting
# from the CCDC's data processing and validation procedures.
#
#######################################################################

data_CSD_CIF_WEDJOE
_audit_creation_date 1994-06-13
_audit_creation_method CSD-ConQuest-V1
_database_code_CSD WEDJOE
_chemical_formula_sum 'C15 H15 N3 O1'
_chemical_formula_moiety
;
C15 H15 N3 O1
;
_journal_coden_Cambridge 16
_journal_volume 49
_journal_year 1993
_journal_page_first 10427
_journal_name_full 'Tetrahedron '
loop_
_publ_author_name
"F.Risitano"
"G.Grassi"
"F.Foti"
"G.Bruno"
"F.Nicolo"
_chemical_name_systematic
;
3,6-Diphenyl-4-methyl-1,2,4,5-oxatriazine
;
_chemical_melting_point 408.15
_cell_volume   2688.585
_exptl_crystal_density_diffrn 1.25
_diffrn_ambient_temperature ?
_diffrn_special_details
;
The study was carried out at room temperature,in the range 283-303K

;
#These two values have been output from a single CSD field.
_refine_ls_R_factor_gt 0.042
_refine_ls_wR_factor_gt 0.042
_symmetry_cell_setting monoclinic
_symmetry_space_group_name_H-M 'P 21/a'
_symmetry_Int_Tables_number 14
loop_
_symmetry_equiv_pos_site_id
_symmetry_equiv_pos_as_xyz
1 x,y,z
2 1/2-x,1/2+y,-z
3 -x,-y,-z
4 -1/2+x,-1/2-y,z
_cell_length_a 9.902(2)
_cell_length_b 27.220(3)
_cell_length_c 9.975(2)
_cell_angle_alpha 90
_cell_angle_beta 90.05(2)
_cell_angle_gamma 90
_cell_formula_units_Z 8
loop_
_atom_type_symbol
_atom_type_radius_bond
C 0.68
H 0.23
N 0.68
O 0.68
loop_
_atom_site_label
_atom_site_type_symbol
_atom_site_fract_x
_atom_site_fract_y
_atom_site_fract_z
C1 C 0.6788(4) 0.7218(1) 0.1897(3)
O1 O 0.6074(3) 0.74102(9) 0.0760(2)
N1 N 0.6047(3) 0.7932(1) 0.0709(3)
C2 C 0.6943(4) 0.8159(1) 0.1423(3)
N2 N 0.8012(3) 0.7949(1) 0.2102(3)
N3 N 0.8114(3) 0.7430(1) 0.2018(3)
C3 C 0.6835(4) 0.6668(1) 0.1737(3)
C4 C 0.6875(4) 0.6450(1) 0.0481(4)
C5 C 0.6879(5) 0.5944(2) 0.0377(4)
C6 C 0.6852(4) 0.5651(2) 0.1493(4)
C7 C 0.6829(4) 0.5869(2) 0.2733(4)
C8 C 0.6814(4) 0.6376(1) 0.2866(4)
C9 C 0.6867(4) 0.8702(1) 0.1363(3)
C10 C 0.8033(4) 0.8980(1) 0.1165(4)
C11 C 0.7938(5) 0.9483(2) 0.1030(4)
C12 C 0.6714(5) 0.9717(2) 0.1119(4)
C13 C 0.5564(4) 0.9443(2) 0.1317(4)
C14 C 0.5630(4) 0.8941(1) 0.1443(3)
C15 C 0.9725(4) 0.2827(1) 0.3213(4)
O2 O 0.9033(3) 0.26185(9) 0.4328(2)
N4 N 0.9013(3) 0.2095(1) 0.4309(3)
C16 C 0.9906(4) 0.1884(1) 0.3541(3)
N5 N 1.0970(3) 0.2105(1) 0.2898(3)
N6 N 1.1072(3) 0.2626(1) 0.3069(3)
C17 C 1.1276(4) 0.1960(2) 0.1517(3)
C18 C 0.9755(4) 0.3376(1) 0.3407(3)
C19 C 0.9618(4) 0.3681(2) 0.2311(4)
C20 C 0.9602(5) 0.4185(2) 0.2468(4)
C21 C 0.9726(5) 0.4383(2) 0.3726(5)
C22 C 0.9867(5) 0.4086(2) 0.4809(4)
C23 C 0.9892(5) 0.3582(2) 0.4667(4)
C24 C 0.9810(4) 0.1341(1) 0.3506(3)
C25 C 0.8570(4) 0.1113(2) 0.3416(3)
C26 C 0.8486(5) 0.0602(2) 0.3417(4)
C27 C 0.9625(6) 0.0324(2) 0.3510(4)
C28 C 1.0860(6) 0.0548(2) 0.3617(5)
C29 C 1.0963(5) 0.1050(2) 0.3609(4)
C30 C 0.8341(4) 0.8122(1) 0.3459(3)
H1 H 0.6332(4) 0.7303(1) 0.2714(3)
H2 H 0.8653(3) 0.7320(1) 0.1075(3)
H3 H 0.8264(4) 0.8473(1) 0.3490(3)
H4 H 0.9249(4) 0.8028(1) 0.3681(3)
H5 H 0.7727(4) 0.7979(1) 0.4091(3)
H6 H 0.6904(4) 0.6650(1) -0.0312(4)
H7 H 0.6897(5) 0.5794(2) -0.0493(4)
H8 H 0.6851(4) 0.5299(2) 0.1410(4)
H9 H 0.6824(4) 0.5666(2) 0.3521(4)
H10 H 0.6789(4) 0.6522(1) 0.3741(4)
H11 H 0.8899(4) 0.8823(1) 0.1118(4)
H12 H 0.8740(5) 0.9672(2) 0.0874(4)
H13 H 0.6663(5) 1.0068(2) 0.1044(4)
H14 H 0.4704(4) 0.9605(2) 0.1367(4)
H15 H 0.4820(4) 0.8754(1) 0.1586(3)
H16 H 0.9260(4) 0.2747(1) 0.2396(4)
H17 H 1.1628(3) 0.2676(1) 0.3984(3)
H18 H 1.1198(4) 0.1610(2) 0.1431(3)
H19 H 1.2180(4) 0.2059(2) 0.1297(3)
H20 H 1.0652(4) 0.2116(2) 0.0916(3)
H21 H 0.9529(4) 0.3541(2) 0.1431(4)
H22 H 0.9506(5) 0.4394(2) 0.1700(4)
H23 H 0.9716(5) 0.4733(2) 0.3840(5)
H24 H 0.9949(5) 0.4228(2) 0.5686(4)
H25 H 1.0006(5) 0.3374(2) 0.5437(4)
H26 H 0.7762(4) 0.1306(2) 0.3351(3)
H27 H 0.7620(5) 0.0446(2) 0.3352(4)
H28 H 0.9561(6) -0.0028(2) 0.3503(4)
H29 H 1.1660(6) 0.0350(2) 0.3695(5)
H30 H 1.1836(5) 0.1202(2) 0.3677(4)
#END
