
#######################################################################
#
#                 Cambridge Crystallographic Data Centre
#                                CCDC
#
#######################################################################
#
# If this CIF has been generated from an entry in the Cambridge
# Structural Database, then it will include bibliographic, chemical,
# crystal, experimental, refinement or atomic coordinate data resulting
# from the CCDC's data processing and validation procedures.
#
#######################################################################

data_CSD_CIF_WEDLEZ
_audit_creation_date 2017-08-23
_audit_creation_method CSD-ConQuest-V1
_database_code_CSD WEDLEZ
_database_code_depnum_ccdc_archive 'CCDC 1544809'
_chemical_formula_sum 'C26 H26 N4 O5'
_chemical_formula_moiety
;
C26 H26 N4 O5
;
_journal_coden_Cambridge 1336
_journal_volume 19
_journal_year 2017
_journal_page_first 4062
_journal_name_full 'Org.Lett. '
loop_
_publ_author_name
"A.A.Kadam"
"A.Ellern"
"L.M.Stanley"
_chemical_name_systematic
;
1-(2,4-dinitrophenyl)-2-(1^4^-methoxy-3^4^-methyl[2^5^,2^6^-dihydro-2^2^H-[1^1
^,2^1^:2^1^,3^1^-terphenyl]]-2^3^(2^4^H)-ylidene)hydrazine
;
_cell_volume   1175.803
_exptl_crystal_colour 'yellow'
_exptl_crystal_density_diffrn 1.34
_exptl_crystal_description 'plate'
_diffrn_ambient_temperature 173
_diffrn_special_details
;
twin

;
#These two values have been output from a single CSD field.
_refine_ls_R_factor_gt 0.034
_refine_ls_wR_factor_gt 0.034
_symmetry_cell_setting triclinic
_symmetry_space_group_name_H-M 'P 1'
_symmetry_Int_Tables_number 1
loop_
_symmetry_equiv_pos_site_id
_symmetry_equiv_pos_as_xyz
1 x,y,z
_cell_length_a 7.2089(18)
_cell_length_b 8.081(2)
_cell_length_c 20.594(6)
_cell_angle_alpha 81.103(9)
_cell_angle_beta 84.522(12)
_cell_angle_gamma 84.478(11)
_cell_formula_units_Z 2
loop_
_atom_type_symbol
_atom_type_radius_bond
C 0.68
H 0.23
N 0.68
O 0.68
loop_
_atom_site_label
_atom_site_type_symbol
_atom_site_fract_x
_atom_site_fract_y
_atom_site_fract_z
C1 C 0.3000(5) 0.3127(5) 0.30532(18)
C2 C 0.4752(5) 0.3833(5) 0.3180(2)
H1 H 0.56860 0.28910 0.33110
H2 H 0.44750 0.44740 0.35550
C3 C 0.5613(5) 0.4986(5) 0.2588(2)
H3 H 0.49880 0.61330 0.25840
H4 H 0.69500 0.50450 0.26480
C4 C 0.5462(5) 0.4425(5) 0.1921(2)
H5 H 0.62210 0.33450 0.18980
H6 H 0.59690 0.52700 0.15640
C5 C 0.3429(5) 0.4214(5) 0.1814(2)
C6 C 0.3189(6) 0.3631(5) 0.1154(2)
C7 C 0.4640(7) 0.2931(6) 0.0770(2)
H7 H 0.58820 0.28840 0.08930
C8 C 0.4314(8) 0.2292(7) 0.0203(2)
H8 H 0.53380 0.17880 -0.00430
C9 C 0.2553(7) 0.2370(6) -0.0010(2)
C10 C 0.2146(9) 0.1683(7) -0.0633(2)
H9 H 0.11810 0.08870 -0.05200
H10 H 0.32910 0.11090 -0.08170
H11 H 0.17060 0.26150 -0.09610
C11 C 0.1108(7) 0.3084(5) 0.0368(2)
H12 H -0.01280 0.31650 0.02350
C12 C 0.1422(6) 0.3692(5) 0.0942(2)
H13 H 0.03890 0.41630 0.11950
C13 C 0.2244(5) 0.5879(5) 0.18698(18)
C14 C 0.2806(5) 0.7370(5) 0.14876(19)
H14 H 0.38750 0.73170 0.11810
C15 C 0.1846(5) 0.8907(5) 0.1545(2)
H15 H 0.22550 0.99000 0.12840
C16 C 0.0275(5) 0.8992(5) 0.19895(19)
C17 C -0.0347(5) 0.7553(5) 0.23505(19)
H16 H -0.14510 0.76010 0.26410
C18 C 0.0654(5) 0.6022(5) 0.2287(2)
H17 H 0.02210 0.50320 0.25440
C19 C -0.1744(6) 1.0690(5) 0.2624(2)
H18 H -0.29330 1.02290 0.25890
H19 H -0.19790 1.18720 0.26860
H20 H -0.11340 1.00530 0.30010
C20 C 0.2805(5) 0.2788(5) 0.23625(18)
H21 H 0.14820 0.26200 0.23220
H22 H 0.35610 0.17320 0.22920
C21 C 0.0432(5) 0.2534(4) 0.45924(19)
C22 C -0.1147(5) 0.1833(5) 0.44353(19)
H23 H -0.12420 0.16770 0.39920
C23 C -0.2562(5) 0.1366(5) 0.49060(19)
H24 H -0.36220 0.09020 0.47880
C24 C -0.2422(5) 0.1581(5) 0.55586(19)
C25 C -0.0945(5) 0.2300(5) 0.57355(19)
H25 H -0.08850 0.24630 0.61800
C26 C 0.0475(5) 0.2791(5) 0.52569(19)
N1 N 0.1647(4) 0.2706(4) 0.34838(15)
N2 N 0.1832(4) 0.2935(4) 0.41262(16)
N3 N 0.1992(4) 0.3560(4) 0.54733(17)
N4 N -0.3879(4) 0.1021(4) 0.60598(18)
O1 O -0.0571(4) 1.0570(3) 0.20405(14)
O2 O 0.3381(3) 0.3858(4) 0.50894(14)
O3 O 0.1833(4) 0.3929(4) 0.60338(16)
O4 O -0.5202(4) 0.0378(4) 0.58855(15)
O5 O -0.3724(4) 0.1181(4) 0.66328(15)
H26 H 0.284(7) 0.330(7) 0.427(2)
C27 C 0.6851(5) 0.6815(5) 0.67409(18)
C28 C 0.7036(5) 0.7037(4) 0.74405(18)
H27 H 0.62960 0.80840 0.75320
H28 H 0.83630 0.71710 0.74920
C29 C 0.6376(5) 0.5547(5) 0.79621(18)
C30 C 0.7656(5) 0.3921(5) 0.79236(19)
C31 C 0.9296(5) 0.3829(5) 0.7519(2)
H29 H 0.96680 0.48070 0.72360
C32 C 1.0404(5) 0.2327(5) 0.7520(2)
H30 H 1.15230 0.22960 0.72370
C33 C 0.9922(5) 0.0871(5) 0.7924(2)
C34 C 1.1214(6) -0.0708(5) 0.7921(3)
H31 H 1.08130 -0.15540 0.82890
H32 H 1.24930 -0.04560 0.79690
H33 H 1.11770 -0.11410 0.75040
C35 C 0.8288(6) 0.0965(5) 0.8321(2)
H34 H 0.79080 -0.00200 0.85960
C36 C 0.7179(6) 0.2458(6) 0.8331(2)
H35 H 0.60720 0.24850 0.86200
C37 C 0.6444(5) 0.6078(5) 0.86415(19)
C38 C 0.8145(5) 0.6106(5) 0.8902(2)
H36 H 0.92540 0.57000 0.86690
C39 C 0.8284(6) 0.6701(5) 0.9488(2)
H37 H 0.94700 0.67300 0.96490
C40 C 0.6675(6) 0.7251(6) 0.98334(19)
C41 C 0.8338(7) 0.8268(7) 1.0620(3)
H38 H 0.91600 0.72310 1.07000
H39 H 0.80980 0.87690 1.10270
H40 H 0.89430 0.90620 1.02750
C42 C 0.4969(6) 0.7155(7) 0.9607(2)
H41 H 0.38570 0.74760 0.98590
C43 C 0.4858(6) 0.6595(7) 0.9014(2)
H42 H 0.36650 0.65640 0.88580
C44 C 0.4382(5) 0.5276(5) 0.78120(19)
H43 H 0.39110 0.43320 0.81310
H44 H 0.35490 0.62980 0.78720
C45 C 0.4307(5) 0.4898(5) 0.7121(2)
H45 H 0.30020 0.47300 0.70520
H46 H 0.50810 0.38380 0.70700
C46 C 0.5003(6) 0.6297(6) 0.6597(2)
H47 H 0.51350 0.59060 0.61610
H48 H 0.40690 0.72810 0.65770
C47 C 0.9519(5) 0.7355(4) 0.52219(18)
C48 C 1.1111(5) 0.8066(5) 0.5385(2)
H49 H 1.11970 0.82240 0.58280
C49 C 1.2504(5) 0.8521(5) 0.49249(19)
H50 H 1.35420 0.90120 0.50460
C50 C 1.2424(5) 0.8273(5) 0.42723(19)
C51 C 1.0963(5) 0.7534(4) 0.40881(18)
H51 H 1.09420 0.73400 0.36460
C52 C 0.9521(5) 0.7073(5) 0.45530(19)
N5 N 0.8268(4) 0.7159(4) 0.63352(15)
N6 N 0.8106(4) 0.6978(4) 0.56829(16)
N7 N 0.8010(4) 0.6296(4) 0.43353(17)
N8 N 1.3895(4) 0.8821(4) 0.37775(17)
O6 O 0.6635(4) 0.7898(4) 1.04161(14)
O7 O 0.6599(4) 0.6025(4) 0.47112(14)
O8 O 0.8179(4) 0.5925(4) 0.37753(14)
O9 O 1.3813(4) 0.8565(4) 0.32093(15)
O10 O 1.5152(4) 0.9553(4) 0.39440(14)
H52 H 0.718(5) 0.656(4) 0.5569(16)
#END
