
#######################################################################
#
#                 Cambridge Crystallographic Data Centre
#                                CCDC
#
#######################################################################
#
# If this CIF has been generated from an entry in the Cambridge
# Structural Database, then it will include bibliographic, chemical,
# crystal, experimental, refinement or atomic coordinate data resulting
# from the CCDC's data processing and validation procedures.
#
#######################################################################

data_CSD_CIF_WEFBAM
_audit_creation_date 2012-11-29
_audit_creation_method CSD-ConQuest-V1
_database_code_CSD WEFBAM
_database_code_depnum_ccdc_archive 'CCDC 867102'
_chemical_formula_sum 'C13 H13 N3 O2'
_chemical_formula_moiety
;
C13 H13 N3 O2
;
_journal_coden_Cambridge 1350
_journal_volume 14
_journal_year 2012
_journal_page_first 6029
_journal_name_full 'CrystEngComm '
loop_
_publ_author_name
"S.Dalapati"
"Md.A.Alam"
"S.Jana"
"N.Guchhait"
_chemical_name_systematic
;
N^2^-Benzyl-4-nitrobenzene-1,2-diamine
;
_cell_volume   1188.442
_exptl_crystal_density_diffrn 1.365
_diffrn_ambient_temperature 293
#These two values have been output from a single CSD field.
_refine_ls_R_factor_gt 0.0358
_refine_ls_wR_factor_gt 0.0358
_symmetry_cell_setting monoclinic
_symmetry_space_group_name_H-M 'P 21/c'
_symmetry_Int_Tables_number 14
loop_
_symmetry_equiv_pos_site_id
_symmetry_equiv_pos_as_xyz
1 x,y,z
2 -x,1/2+y,1/2-z
3 -x,-y,-z
4 x,-1/2-y,-1/2+z
_cell_length_a 13.1110(4)
_cell_length_b 5.9151(2)
_cell_length_c 16.3090(5)
_cell_angle_alpha 90
_cell_angle_beta 110.012(1)
_cell_angle_gamma 90
_cell_formula_units_Z 4
loop_
_atom_type_symbol
_atom_type_radius_bond
C 0.68
H 0.23
N 0.68
O 0.68
loop_
_atom_site_label
_atom_site_type_symbol
_atom_site_fract_x
_atom_site_fract_y
_atom_site_fract_z
O1 O 0.62374(11) 0.0333(3) 0.52329(7)
O2 O 0.69691(11) 0.3460(2) 0.58249(7)
N1 N 0.6566(1) 0.1598(3) 0.58675(7)
N2 N 0.74755(11) 0.2723(2) 0.89901(8)
N3 N 0.62797(13) -0.1089(3) 0.90554(10)
C1 C 0.64962(10) 0.0864(2) 0.66912(8)
C2 C 0.69957(10) 0.2185(2) 0.74272(8)
H1 H 0.73590 0.35010 0.73790
C3 C 0.69502(10) 0.1539(2) 0.82289(8)
C4 C 0.81704(12) 0.4631(2) 0.90018(9)
H2 H 0.83520 0.53860 0.95620
H3 H 0.77720 0.56960 0.85550
C5 C 0.92106(11) 0.4000(2) 0.88516(8)
C6 C 0.97069(13) 0.5553(3) 0.8479(1)
H4 H 0.93830 0.69540 0.83040
C7 C 1.06806(14) 0.5053(3) 0.83623(11)
H5 H 1.10040 0.61130 0.81080
C8 C 1.11681(13) 0.2994(3) 0.86216(10)
H6 H 1.18260 0.26610 0.85500
C9 C 0.59595(11) -0.1109(3) 0.67304(9)
H7 H 0.56450 -0.19870 0.62350
C10 C 0.59011(11) -0.1747(2) 0.75271(10)
H8 H 0.55360 -0.30710 0.75640
C11 C 0.63742(10) -0.0460(2) 0.82776(9)
C12 C 1.06797(13) 0.1433(3) 0.89869(11)
H9 H 1.10080 0.00370 0.91630
C13 C 0.97022(12) 0.1921(2) 0.90952(9)
H10 H 0.93720 0.08390 0.93350
H11 H 0.7186(16) 0.273(3) 0.9338(13)
H12 H 0.5962(17) -0.244(4) 0.9052(13)
H13 H 0.6638(19) -0.040(4) 0.9532(17)
#END
