
#######################################################################
#
#                 Cambridge Crystallographic Data Centre
#                                CCDC
#
#######################################################################
#
# If this CIF has been generated from an entry in the Cambridge
# Structural Database, then it will include bibliographic, chemical,
# crystal, experimental, refinement or atomic coordinate data resulting
# from the CCDC's data processing and validation procedures.
#
#######################################################################

data_CSD_CIF_WEFJID
_audit_creation_date 2017-08-23
_audit_creation_method CSD-ConQuest-V1
_database_code_CSD WEFJID
_database_code_depnum_ccdc_archive 'CCDC 1510335'
_chemical_formula_sum 'C16 H18 N4 O4'
_chemical_formula_moiety
;
C16 H18 N4 O4
;
_journal_coden_Cambridge 35
_journal_volume 82
_journal_year 2017
_journal_page_first 8342
_journal_name_full 'J.Org.Chem. '
loop_
_publ_author_name
"J.Otevrel"
"P.Bobal"
_chemical_name_systematic
;
N,N,N',N'-tetramethyl-6,6'-dinitrobiphenyl-2,2'-diamine
;
_cell_volume   1602.750
_exptl_crystal_colour 'yellow'
_exptl_crystal_density_diffrn 1.369
_exptl_crystal_description 'prism'
_exptl_crystal_preparation 'methanol'
_diffrn_ambient_temperature 120
#These two values have been output from a single CSD field.
_refine_ls_R_factor_gt 0.0326
_refine_ls_wR_factor_gt 0.0326
_symmetry_cell_setting orthorhombic
_symmetry_space_group_name_H-M 'P b c n'
_symmetry_Int_Tables_number 60
loop_
_symmetry_equiv_pos_site_id
_symmetry_equiv_pos_as_xyz
1 x,y,z
2 1/2-x,1/2-y,1/2+z
3 1/2+x,1/2-y,-z
4 -x,y,1/2-z
5 -x,-y,-z
6 -1/2+x,-1/2+y,-1/2-z
7 -1/2-x,-1/2+y,z
8 x,-y,-1/2+z
_cell_length_a 16.9866(13)
_cell_length_b 7.9950(6)
_cell_length_c 11.8016(9)
_cell_angle_alpha 90
_cell_angle_beta 90
_cell_angle_gamma 90
_cell_formula_units_Z 4
loop_
_atom_type_symbol
_atom_type_radius_bond
C 0.68
H 0.23
N 0.68
O 0.68
loop_
_atom_site_label
_atom_site_type_symbol
_atom_site_fract_x
_atom_site_fract_y
_atom_site_fract_z
C1 C 0.43713(6) 0.14648(14) 0.12163(9)
C2 C 0.50022(6) 0.20486(13) 0.18659(9)
C3 C 0.56345(6) 0.27843(13) 0.12690(9)
C4 C 0.56066(7) 0.28797(14) 0.00857(9)
H1 H 0.60410 0.33430 -0.03130
C5 C 0.49593(7) 0.23127(14) -0.05165(10)
H2 H 0.49500 0.24080 -0.13190
C6 C 0.43284(7) 0.16096(14) 0.00471(9)
H3 H 0.38770 0.12350 -0.03550
N1 N 0.37285(5) 0.05058(12) 0.17433(8)
O1 O 0.38934(5) -0.04284(10) 0.25374(7)
O2 O 0.30688(5) 0.06214(13) 0.13268(7)
N2 N 0.63057(5) 0.33315(12) 0.18816(8)
C7 C 0.70527(7) 0.32722(19) 0.12738(11)
H4 H 0.70980 0.22010 0.08750
H5 H 0.74880 0.33860 0.18140
H6 H 0.70740 0.41900 0.07240
C8 C 0.62152(7) 0.48992(16) 0.24974(11)
H7 H 0.62260 0.58350 0.19620
H8 H 0.66470 0.50210 0.30410
H9 H 0.57120 0.48960 0.29030
C1C C 0.56287(6) 0.14648(14) 0.37837(9)
C2C C 0.49978(6) 0.20486(13) 0.31341(9)
C3C C 0.43655(6) 0.27843(13) 0.37310(9)
C4C C 0.43934(7) 0.28797(14) 0.49143(9)
H1C H 0.39590 0.33430 0.53130
C5C C 0.50407(7) 0.23127(14) 0.55165(10)
H2C H 0.50500 0.24080 0.63190
C6C C 0.56716(7) 0.16096(14) 0.49529(9)
H3C H 0.61230 0.12350 0.53550
N1C N 0.62715(5) 0.05058(12) 0.32567(8)
O1C O 0.61066(5) -0.04284(10) 0.24626(7)
O2C O 0.69312(5) 0.06214(13) 0.36732(7)
N2C N 0.36943(5) 0.33315(12) 0.31184(8)
C7C C 0.29473(7) 0.32722(19) 0.37262(11)
H4C H 0.29020 0.22010 0.41250
H5C H 0.25120 0.33860 0.31860
H6C H 0.29260 0.41900 0.42760
C8C C 0.37848(7) 0.48992(16) 0.25026(11)
H7C H 0.37740 0.58350 0.30380
H8C H 0.33530 0.50210 0.19590
H9C H 0.42880 0.48960 0.20970
#END
