
#######################################################################
#
#                 Cambridge Crystallographic Data Centre
#                                CCDC
#
#######################################################################
#
# If this CIF has been generated from an entry in the Cambridge
# Structural Database, then it will include bibliographic, chemical,
# crystal, experimental, refinement or atomic coordinate data resulting
# from the CCDC's data processing and validation procedures.
#
#######################################################################

data_CSD_CIF_WEFJEZ
_audit_creation_date 2017-08-23
_audit_creation_method CSD-ConQuest-V1
_database_code_CSD WEFJEZ
_database_code_depnum_ccdc_archive 'CCDC 1510334'
_chemical_formula_sum 'C18 H18 N4 O6'
_chemical_formula_moiety
;
C18 H18 N4 O6
;
_journal_coden_Cambridge 35
_journal_volume 82
_journal_year 2017
_journal_page_first 8342
_journal_name_full 'J.Org.Chem. '
loop_
_publ_author_name
"J.Otevrel"
"P.Bobal"
_chemical_name_systematic
;
N,N,N',N'-tetramethyl-6,6'-dinitrobiphenyl-2,2'-dicarboxamide
;
_cell_volume    885.945
_exptl_crystal_colour 'colorless'
_exptl_crystal_density_diffrn 1.448
_exptl_special_details
;
Fiber

;
_exptl_crystal_description 'Prism'
_exptl_crystal_preparation 'methanol'
_diffrn_ambient_temperature 120
#These two values have been output from a single CSD field.
_refine_ls_R_factor_gt 0.0331
_refine_ls_wR_factor_gt 0.0331
_symmetry_cell_setting triclinic
_symmetry_space_group_name_H-M 'P -1'
_symmetry_Int_Tables_number 2
loop_
_symmetry_equiv_pos_site_id
_symmetry_equiv_pos_as_xyz
1 x,y,z
2 -x,-y,-z
_cell_length_a 8.6855(6)
_cell_length_b 9.5744(7)
_cell_length_c 11.5557(8)
_cell_angle_alpha 72.188(2)
_cell_angle_beta 79.727(2)
_cell_angle_gamma 77.247(2)
_cell_formula_units_Z 2
loop_
_atom_type_symbol
_atom_type_radius_bond
C 0.68
H 0.23
N 0.68
O 0.68
loop_
_atom_site_label
_atom_site_type_symbol
_atom_site_fract_x
_atom_site_fract_y
_atom_site_fract_z
C1 C 0.79152(12) 0.97682(12) 0.12381(10)
C2 C 0.72496(12) 0.84763(12) 0.17253(10)
C3 C 0.66038(12) 0.80008(12) 0.09165(10)
C4 C 0.66295(13) 0.87981(13) -0.03207(10)
H1 H 0.62010 0.84530 -0.08620
C5 C 0.72766(13) 1.00881(13) -0.0763(1)
H2 H 0.72780 1.06320 -0.16020
C6 C 0.79222(13) 1.05833(12) 0.00212(11)
H3 H 0.83630 1.14690 -0.02730
N1 N 0.86914(11) 1.02932(10) 0.20196(9)
O1 O 0.91093(10) 0.94095(9) 0.29754(8)
O2 O 0.89186(11) 1.15828(9) 0.16641(9)
C7 C 0.57861(12) 0.66607(12) 0.14024(9)
O3 O 0.45508(9) 0.67191(9) 0.21179(7)
N2 N 0.64446(11) 0.54534(10) 0.10103(9)
C8 C 0.79867(14) 0.52629(14) 0.02714(12)
H4 H 0.84650 0.61510 0.01070
H5 H 0.78420 0.51220 -0.05050
H6 H 0.86880 0.43870 0.07160
C9 C 0.56783(15) 0.41432(13) 0.14453(12)
H7 H 0.61450 0.34540 0.21660
H8 H 0.58380 0.36450 0.07970
H9 H 0.45370 0.44510 0.16640
C10 C 0.81644(12) 0.62484(12) 0.3463(1)
C11 C 0.71590(12) 0.76039(12) 0.30477(10)
C12 C 0.59372(12) 0.80434(12) 0.39097(10)
C13 C 0.58059(13) 0.71630(13) 0.51187(10)
H10 H 0.50010 0.74920 0.56990
C14 C 0.68263(14) 0.58148(13) 0.54951(10)
H11 H 0.67090 0.52210 0.63200
C15 C 0.80129(13) 0.53477(12) 0.46560(11)
H12 H 0.87140 0.44230 0.48930
N3 N 0.95147(11) 0.57169(11) 0.26376(9)
O4 O 1.01371(10) 0.66421(9) 0.18105(8)
O5 O 0.99672(12) 0.43681(9) 0.28361(9)
C16 C 0.48495(13) 0.95349(12) 0.35535(10)
O6 O 0.54381(9) 1.06679(9) 0.30514(8)
N4 N 0.32658(11) 0.95769(10) 0.38356(9)
C17 C 0.21836(14) 1.10137(13) 0.36476(12)
H13 H 0.27850 1.18180 0.32270
H14 H 0.16680 1.11490 0.44420
H15 H 0.13730 1.10360 0.31480
C18 C 0.24996(14) 0.82742(14) 0.43480(12)
H16 H 0.32350 0.73920 0.42030
H17 H 0.15410 0.84270 0.39550
H18 H 0.22070 0.81280 0.52310
#END
