
#######################################################################
#
#                 Cambridge Crystallographic Data Centre
#                                CCDC
#
#######################################################################
#
# If this CIF has been generated from an entry in the Cambridge
# Structural Database, then it will include bibliographic, chemical,
# crystal, experimental, refinement or atomic coordinate data resulting
# from the CCDC's data processing and validation procedures.
#
#######################################################################

data_CSD_CIF_WEGROQ
_audit_creation_date 2006-07-12
_audit_creation_method CSD-ConQuest-V1
_database_code_CSD WEGROQ
_database_code_depnum_ccdc_archive 'CCDC 607687'
_chemical_formula_sum 'C24 H29 N1 O4'
_chemical_formula_moiety
;
C24 H29 N1 O4
;
_journal_coden_Cambridge 388
_journal_volume 41
_journal_year 2005
_journal_page_first 1292
_journal_name_full 'Zh.Org.Khim.(Russ.)(Russ.J.Org.Chem.) '
loop_
_publ_author_name
"O.A.Ivanova"
"E.B.Averina"
"E.B.Budynina"
"A.A.Korlyukov"
"M.Yu.Antipin"
"T.S.Kuznetsova"
"N.S.Zefirov"
_chemical_name_systematic
;
(1RS,2RS,1'SR,2'RS)-2-((2-Nitro-1-phenylcyclohexyl)oxy)-1-phenylcyclohexanol
;
_chemical_melting_point 467.15
_cell_volume   2099.787
_exptl_crystal_colour 'colorless'
_exptl_crystal_density_diffrn 1.251
_exptl_special_details
;
Melting point range 467.15-468.15K

;
_exptl_crystal_description 'prism'
_diffrn_ambient_temperature 295
#These two values have been output from a single CSD field.
_refine_ls_R_factor_gt 0.0441
_refine_ls_wR_factor_gt 0.0441
_symmetry_cell_setting monoclinic
_symmetry_space_group_name_H-M 'P 21/n'
_symmetry_Int_Tables_number 14
loop_
_symmetry_equiv_pos_site_id
_symmetry_equiv_pos_as_xyz
1 x,y,z
2 1/2-x,1/2+y,1/2-z
3 -x,-y,-z
4 -1/2+x,-1/2-y,-1/2+z
_cell_length_a 10.907(2)
_cell_length_b 10.736(2)
_cell_length_c 17.937(4)
_cell_angle_alpha 90
_cell_angle_beta 91.36(3)
_cell_angle_gamma 90
_cell_formula_units_Z 4
loop_
_atom_type_symbol
_atom_type_radius_bond
C 0.68
H 0.23
N 0.68
O 0.68
loop_
_atom_site_label
_atom_site_type_symbol
_atom_site_fract_x
_atom_site_fract_y
_atom_site_fract_z
O1 O 1.05470(9) -0.01040(9) 0.12343(6)
C1 C 1.12835(11) 0.09496(11) 0.14319(7)
C2 C 1.05253(11) 0.21525(12) 0.13182(7)
H1 H 1.1040(12) 0.2867(12) 0.1473(7)
C3 C 1.01355(14) 0.23581(16) 0.05061(7)
H2 H 0.9693(15) 0.3162(16) 0.0466(9)
H3 H 0.9566(17) 0.1725(16) 0.035(1)
C4 C 1.12541(18) 0.23634(19) 0.00090(9)
H4 H 1.1785(19) 0.3088(18) 0.0148(11)
H5 H 1.100(2) 0.2469(18) -0.0518(13)
C5 C 1.19576(17) 0.11416(18) 0.00884(9)
H6 H 1.1355(18) 0.0408(18) -0.0087(10)
H7 H 1.2661(19) 0.1167(18) -0.0217(11)
C6 C 1.23614(13) 0.09235(16) 0.08951(8)
H8 H 1.2945(16) 0.1557(16) 0.1041(9)
H9 H 1.2749(17) 0.0085(17) 0.096(1)
C7 C 1.17527(10) 0.08702(11) 0.22429(7)
C8 C 1.25810(12) 0.17510(14) 0.25250(8)
H10 H 1.2860(16) 0.2408(15) 0.2200(9)
C9 C 1.30042(15) 0.17118(18) 0.32597(10)
H11 H 1.363(2) 0.2378(19) 0.3439(12)
C10 C 1.26134(16) 0.07872(19) 0.37258(10)
H12 H 1.2910(19) 0.0732(18) 0.4250(11)
C11 C 1.17917(16) -0.00894(17) 0.34593(9)
H13 H 1.1456(18) -0.0739(18) 0.3768(11)
C12 C 1.13572(13) -0.00532(13) 0.27214(8)
H14 H 1.0799(16) -0.0672(15) 0.2537(9)
O2 O 0.95138(7) 0.19763(7) 0.18088(4)
O3 O 0.60255(10) 0.24055(11) 0.29074(10)
O4 O 0.68903(9) 0.41730(9) 0.29740(6)
N1 N 0.69196(9) 0.3055(1) 0.28646(6)
C13 C 0.86765(10) 0.29765(10) 0.19633(6)
C14 C 0.81185(10) 0.24297(10) 0.26855(6)
H15 H 0.7881(11) 0.1596(12) 0.2579(7)
C15 C 0.89868(12) 0.24796(12) 0.33680(7)
H16 H 0.8524(14) 0.2203(13) 0.3832(8)
H17 H 0.9586(15) 0.1864(14) 0.3293(9)
C16 C 0.96021(13) 0.37351(14) 0.34876(7)
H18 H 1.0272(16) 0.3639(17) 0.3873(10)
H19 H 0.8994(14) 0.4373(15) 0.3645(8)
C17 C 1.02259(12) 0.41698(13) 0.27829(8)
H20 H 1.0888(15) 0.3601(16) 0.2672(9)
H21 H 1.0556(16) 0.4972(17) 0.2843(9)
C18 C 0.93263(11) 0.42144(11) 0.21178(7)
H22 H 0.9741(13) 0.4479(13) 0.1667(8)
H23 H 0.8716(14) 0.4868(14) 0.2214(8)
C19 C 0.76629(10) 0.30425(11) 0.13577(6)
C20 C 0.71689(13) 0.19383(13) 0.10780(8)
H24 H 0.7483(16) 0.1159(17) 0.1249(9)
C21 C 0.62037(16) 0.19528(16) 0.0558(1)
H25 H 0.5859(19) 0.1163(19) 0.0367(11)
C22 C 0.57261(18) 0.30684(17) 0.0314(1)
H26 H 0.503(2) 0.3063(19) -0.0039(12)
C23 C 0.62106(18) 0.41581(17) 0.05806(10)
H27 H 0.590(2) 0.498(2) 0.0419(12)
C24 C 0.71806(15) 0.41584(13) 0.10986(8)
H28 H 0.7514(17) 0.4966(17) 0.1274(10)
H29 H 0.990(2) -0.003(2) 0.1488(12)
#END
