
#######################################################################
#
#                 Cambridge Crystallographic Data Centre
#                                CCDC
#
#######################################################################
#
# If this CIF has been generated from an entry in the Cambridge
# Structural Database, then it will include bibliographic, chemical,
# crystal, experimental, refinement or atomic coordinate data resulting
# from the CCDC's data processing and validation procedures.
#
#######################################################################

data_CSD_CIF_WEGTIN
_audit_creation_date 2012-11-29
_audit_creation_method CSD-ConQuest-V1
_database_code_CSD WEGTIN
_database_code_depnum_ccdc_archive 'CCDC 859932'
_chemical_formula_sum 'C22 H27 N1 O8'
_chemical_formula_moiety
;
C22 H27 N1 O8
;
_journal_coden_Cambridge 177
_journal_volume 10
_journal_year 2012
_journal_page_first 6003
_journal_name_full 'Org.Biomol.Chem. '
loop_
_publ_author_name
"Y.Hashimoto"
"A.Takada"
"H.Takikawa"
"K.Suzuki"
_chemical_name_systematic
;
3-(2-(1,3-Dioxan-2-yl)-4,6-dimethoxyphenyl)-4,4-dimethoxy-5-methyl-3a,7a-dihyd
ro-1,2-benzoxazol-7(4H)-one
;
_cell_volume   2154.000
_exptl_crystal_colour 'colorless'
_exptl_crystal_density_diffrn 1.337
_exptl_crystal_description 'block'
_diffrn_ambient_temperature 169
#These two values have been output from a single CSD field.
_refine_ls_R_factor_gt 0.0564
_refine_ls_wR_factor_gt 0.0564
_symmetry_cell_setting monoclinic
_symmetry_space_group_name_H-M 'P 21/n'
_symmetry_Int_Tables_number 14
loop_
_symmetry_equiv_pos_site_id
_symmetry_equiv_pos_as_xyz
1 x,y,z
2 1/2-x,1/2+y,1/2-z
3 -x,-y,-z
4 -1/2+x,-1/2-y,-1/2+z
_cell_length_a 8.5986(8)
_cell_length_b 9.3898(10)
_cell_length_c 26.681(3)
_cell_angle_alpha 90
_cell_angle_beta 90.782(3)
_cell_angle_gamma 90
_cell_formula_units_Z 4
loop_
_atom_type_symbol
_atom_type_radius_bond
C 0.68
H 0.23
N 0.68
O 0.68
loop_
_atom_site_label
_atom_site_type_symbol
_atom_site_fract_x
_atom_site_fract_y
_atom_site_fract_z
O1 O 0.68609(14) -0.26005(13) 0.43132(5)
O2 O 0.9929(2) -0.41337(17) 0.42705(9)
O3 O 0.97143(13) 0.13560(11) 0.38705(4)
O4 O 1.10752(12) -0.02499(13) 0.43850(4)
O5 O 0.44194(16) -0.07115(14) 0.28864(5)
O6 O 0.65666(16) 0.05044(14) 0.25835(5)
O7 O 0.39335(15) 0.45825(13) 0.33048(4)
O8 O 0.64051(14) 0.19908(12) 0.46742(4)
N1 N 0.60302(16) -0.14776(15) 0.40809(6)
C1 C 0.8417(2) -0.21050(18) 0.44544(6)
H1 H 0.86380 -0.23000 0.48170
C2 C 0.9476(2) -0.2974(2) 0.41268(9)
C3 C 0.9830(2) -0.2373(2) 0.36379(8)
H2 H 0.99540 -0.29900 0.33590
C4 C 0.99817(19) -0.09807(19) 0.35766(6)
C5 C 0.98154(17) -0.00485(16) 0.40421(5)
C6 C 0.84022(17) -0.05000(16) 0.43530(5)
H3 H 0.84050 0.00300 0.46780
C7 C 0.68312(17) -0.03353(17) 0.40934(5)
C8 C 0.61398(17) 0.09772(16) 0.38780(5)
C9 C 0.56145(17) 0.10661(17) 0.33800(5)
C10 C 0.48684(18) 0.22800(18) 0.32067(6)
H4 H 0.44970 0.23170 0.28700
C11 C 0.46587(18) 0.34369(17) 0.35172(6)
C12 C 0.51947(19) 0.33909(17) 0.40136(6)
H5 H 0.50690 0.41890 0.42280
C13 C 0.59113(18) 0.21636(17) 0.41880(5)
C14 C 1.0406(3) -0.0299(2) 0.30896(6)
H6 H 1.14270 0.01560 0.31240
H7 H 0.96240 0.04190 0.29990
H8 H 1.04440 -0.10270 0.28270
C15 C 0.5869(2) -0.01139(18) 0.30072(6)
H9 H 0.65710 -0.08560 0.31560
C16 C 0.4592(3) -0.1845(2) 0.25286(8)
H10 H 0.35560 -0.22320 0.24370
H11 H 0.52170 -0.26230 0.26800
C17 C 0.5384(3) -0.1297(2) 0.20651(8)
H12 H 0.56100 -0.21010 0.18370
H13 H 0.46910 -0.06220 0.18860
C18 C 0.6860(3) -0.0569(3) 0.22121(8)
H14 H 0.76070 -0.12760 0.23490
H15 H 0.73270 -0.01230 0.19130
C19 C 0.9868(2) 0.24569(19) 0.42370(7)
H16 H 1.09700 0.26930 0.42850
H17 H 0.94380 0.21290 0.45550
H18 H 0.93010 0.33040 0.41230
C20 C 1.25955(19) -0.0034(2) 0.41806(7)
H19 H 1.26210 0.08790 0.40030
H20 H 1.28310 -0.08070 0.39470
H21 H 1.33720 -0.00260 0.44530
C21 C 0.3646(3) 0.5784(2) 0.36140(8)
H22 H 0.30080 0.54960 0.38980
H23 H 0.30960 0.65150 0.34180
H24 H 0.46370 0.61700 0.37390
C22 C 0.6406(2) 0.3213(2) 0.49940(6)
H25 H 0.70070 0.39790 0.48390
H26 H 0.68790 0.29640 0.53190
H27 H 0.53350 0.35330 0.50430
#END
