
#######################################################################
#
#                 Cambridge Crystallographic Data Centre
#                                CCDC
#
#######################################################################
#
# If this CIF has been generated from an entry in the Cambridge
# Structural Database, then it will include bibliographic, chemical,
# crystal, experimental, refinement or atomic coordinate data resulting
# from the CCDC's data processing and validation procedures.
#
#######################################################################

data_CSD_CIF_WEGTUZ
_audit_creation_date 2012-11-29
_audit_creation_method CSD-ConQuest-V1
_database_code_CSD WEGTUZ
_database_code_depnum_ccdc_archive 'CCDC 859934'
_chemical_formula_sum 'C21 H23 N1 O8'
_chemical_formula_moiety
;
C21 H23 N1 O8
;
_journal_coden_Cambridge 177
_journal_volume 10
_journal_year 2012
_journal_page_first 6003
_journal_name_full 'Org.Biomol.Chem. '
loop_
_publ_author_name
"Y.Hashimoto"
"A.Takada"
"H.Takikawa"
"K.Suzuki"
_chemical_name_systematic
;
3-(2-(1,3-Dioxan-2-yl)-4,6-dimethoxyphenyl)-7,7-dimethoxy-1,2-benzoxazol-4(7H)
-one
;
_cell_volume   2033.285
_exptl_crystal_colour 'colorless'
_exptl_crystal_density_diffrn 1.364
_exptl_crystal_description 'block'
_diffrn_ambient_temperature 173
#These two values have been output from a single CSD field.
_refine_ls_R_factor_gt 0.049
_refine_ls_wR_factor_gt 0.049
_symmetry_cell_setting monoclinic
_symmetry_space_group_name_H-M 'P 21/c'
_symmetry_Int_Tables_number 14
loop_
_symmetry_equiv_pos_site_id
_symmetry_equiv_pos_as_xyz
1 x,y,z
2 -x,1/2+y,1/2-z
3 -x,-y,-z
4 x,-1/2-y,-1/2+z
_cell_length_a 10.301(5)
_cell_length_b 8.437(4)
_cell_length_c 23.760(11)
_cell_angle_alpha 90
_cell_angle_beta 100.05(4)
_cell_angle_gamma 90
_cell_formula_units_Z 4
loop_
_atom_type_symbol
_atom_type_radius_bond
C 0.68
H 0.23
N 0.68
O 0.68
loop_
_atom_site_label
_atom_site_type_symbol
_atom_site_fract_x
_atom_site_fract_y
_atom_site_fract_z
O1 O 0.20195(11) -0.00484(13) 0.60006(5)
O2 O 0.01781(12) -0.09703(14) 0.67035(5)
O3 O -0.09875(11) -0.02858(15) 0.57988(5)
O4 O 0.10783(13) 0.50278(14) 0.64889(6)
O5 O 0.62955(11) 0.72887(14) 0.57609(5)
O6 O 0.20643(12) 0.46736(15) 0.52529(5)
O7 O 0.44386(11) 0.31248(14) 0.71900(5)
O8 O 0.66254(11) 0.29314(15) 0.70654(5)
N1 N 0.30844(13) 0.09332(16) 0.59069(6)
C1 C 0.11260(14) 0.08843(18) 0.61801(6)
C2 C -0.01604(14) 0.02383(18) 0.62998(7)
C3 C -0.09180(15) 0.1575(2) 0.65143(7)
H1 H -0.17580 0.13310 0.66050
C4 C -0.05050(16) 0.3065(2) 0.65864(7)
H2 H -0.10430 0.38000 0.67430
C5 C 0.07545(15) 0.36435(19) 0.64355(6)
C6 C 0.15329(14) 0.24103(18) 0.62182(6)
C7 C 0.27814(14) 0.23735(18) 0.60385(6)
C8 C 0.36985(14) 0.36784(17) 0.59716(6)
C9 C 0.49528(14) 0.37841(17) 0.63076(6)
C10 C 0.58105(14) 0.49764(17) 0.62159(6)
H3 H 0.66760 0.50120 0.64330
C11 C 0.53985(15) 0.61251(18) 0.58030(6)
C12 C 0.41483(15) 0.60703(18) 0.54705(6)
H4 H 0.38730 0.68580 0.51890
C13 C 0.33083(15) 0.48386(18) 0.55575(6)
C14 C -0.0916(2) -0.1757(2) 0.68861(9)
H5 H -0.11410 -0.12060 0.72190
H6 H -0.06750 -0.28560 0.69890
H7 H -0.16780 -0.17430 0.65750
C15 C -0.0519(2) -0.1620(2) 0.55184(9)
H8 H 0.00100 -0.12460 0.52400
H9 H -0.12720 -0.22320 0.53210
H10 H 0.00250 -0.22930 0.58020
C16 C 0.58456(17) 0.8624(2) 0.54111(8)
H11 H 0.59750 0.84230 0.50180
H12 H 0.63470 0.95670 0.55600
H13 H 0.49070 0.87990 0.54150
C17 C 0.16448(17) 0.5766(2) 0.48018(7)
H14 H 0.12290 0.66830 0.49510
H15 H 0.10080 0.52490 0.45040
H16 H 0.24080 0.61200 0.46400
C18 C 0.53026(14) 0.26963(17) 0.68183(6)
H17 H 0.51540 0.15660 0.66970
C19 C 0.46707(17) 0.2184(2) 0.77037(7)
H18 H 0.44780 0.10560 0.76080
H19 H 0.40780 0.25360 0.79660
C20 C 0.60916(18) 0.2358(2) 0.79941(7)
H20 H 0.62560 0.34580 0.81350
H21 H 0.62770 0.16320 0.83260
C21 C 0.69787(16) 0.1971(2) 0.75723(7)
H22 H 0.79080 0.21760 0.77470
H23 H 0.68920 0.08350 0.74690
#END
