
#######################################################################
#
#                 Cambridge Crystallographic Data Centre
#                                CCDC
#
#######################################################################
#
# If this CIF has been generated from an entry in the Cambridge
# Structural Database, then it will include bibliographic, chemical,
# crystal, experimental, refinement or atomic coordinate data resulting
# from the CCDC's data processing and validation procedures.
#
#######################################################################

data_CSD_CIF_WEGVOV
_audit_creation_date 2012-11-29
_audit_creation_method CSD-ConQuest-V1
_database_code_CSD WEGVOV
_database_code_depnum_ccdc_archive 'CCDC 874423'
_chemical_formula_sum 'C13 H15 N1 O5'
_chemical_formula_moiety
;
C13 H15 N1 O5
;
_journal_coden_Cambridge 177
_journal_volume 10
_journal_year 2012
_journal_page_first 6003
_journal_name_full 'Org.Biomol.Chem. '
loop_
_publ_author_name
"Y.Hashimoto"
"A.Takada"
"H.Takikawa"
"K.Suzuki"
_chemical_name_systematic
;
((2-(1,3-Dioxan-2-yl)-3,6-dimethoxyphenyl)methylidyne)azane oxide
;
_cell_volume   2562.656
_exptl_crystal_colour 'colorless'
_exptl_crystal_density_diffrn 1.375
_exptl_crystal_description 'block'
_diffrn_ambient_temperature 169
#These two values have been output from a single CSD field.
_refine_ls_R_factor_gt 0.044
_refine_ls_wR_factor_gt 0.044
_symmetry_cell_setting orthorhombic
_symmetry_space_group_name_H-M 'P b c a'
_symmetry_Int_Tables_number 61
loop_
_symmetry_equiv_pos_site_id
_symmetry_equiv_pos_as_xyz
1 x,y,z
2 1/2-x,-y,1/2+z
3 1/2+x,1/2-y,-z
4 -x,1/2+y,1/2-z
5 -x,-y,-z
6 -1/2+x,y,-1/2-z
7 -1/2-x,-1/2+y,z
8 x,-1/2-y,-1/2+z
_cell_length_a 13.0620(11)
_cell_length_b 12.0982(8)
_cell_length_c 16.2166(13)
_cell_angle_alpha 90
_cell_angle_beta 90
_cell_angle_gamma 90
_cell_formula_units_Z 8
loop_
_atom_type_symbol
_atom_type_radius_bond
C 0.68
H 0.23
N 0.68
O 0.68
loop_
_atom_site_label
_atom_site_type_symbol
_atom_site_fract_x
_atom_site_fract_y
_atom_site_fract_z
O1 O -0.06556(8) 0.16977(10) 0.71797(7)
O2 O 0.15926(12) 0.01815(13) 0.84921(8)
O3 O 0.21718(8) -0.06721(8) 0.60222(8)
O4 O 0.29643(7) 0.10216(8) 0.58227(7)
O5 O 0.1258(1) 0.11434(10) 0.41709(7)
N1 N 0.13277(10) 0.04342(10) 0.77843(8)
C1 C -0.02666(11) 0.15798(11) 0.64036(9)
C2 C 0.06846(10) 0.10289(10) 0.63579(8)
C3 C 0.11812(11) 0.08752(10) 0.56009(8)
C4 C 0.07170(12) 0.12879(11) 0.48870(9)
C5 C -0.02319(12) 0.18027(11) 0.49318(10)
H1 H -0.05510 0.20590 0.44410
C6 C -0.07205(11) 0.19473(12) 0.56849(11)
H2 H -0.13700 0.23000 0.57060
C7 C 0.11199(10) 0.06565(11) 0.71211(9)
C8 C 0.22000(11) 0.02966(11) 0.55417(9)
H3 H 0.23380 0.00970 0.49540
C9 C 0.31196(13) -0.12697(13) 0.59442(13)
H4 H 0.32120 -0.15080 0.53650
H5 H 0.30970 -0.19390 0.62950
C10 C 0.39976(12) -0.05629(13) 0.61975(11)
H6 H 0.46500 -0.09480 0.60800
H7 H 0.39630 -0.04160 0.67970
C11 C 0.39577(12) 0.05120(14) 0.57292(14)
H8 H 0.44940 0.10180 0.59390
H9 H 0.40940 0.03730 0.51380
C12 C -0.16096(14) 0.22694(17) 0.72534(13)
H10 H -0.15470 0.30070 0.70080
H11 H -0.17910 0.23400 0.78370
H12 H -0.21450 0.18540 0.69650
C13 C 0.08504(17) 0.16026(17) 0.34375(11)
H13 H 0.01510 0.13300 0.33550
H14 H 0.12770 0.13850 0.29680
H15 H 0.08400 0.24100 0.34830
#END
