
#######################################################################
#
#                 Cambridge Crystallographic Data Centre
#                                CCDC
#
#######################################################################
#
# If this CIF has been generated from an entry in the Cambridge
# Structural Database, then it will include bibliographic, chemical,
# crystal, experimental, refinement or atomic coordinate data resulting
# from the CCDC's data processing and validation procedures.
#
#######################################################################

data_CSD_CIF_WEGXUD
_audit_creation_date 2012-11-29
_audit_creation_method CSD-ConQuest-V1
_database_code_CSD WEGXUD
_database_code_depnum_ccdc_archive 'CCDC 867857'
_chemical_formula_sum 'C28 H29 N5 O10'
_chemical_formula_moiety
;
C28 H29 N5 O10
;
_journal_coden_Cambridge 177
_journal_volume 10
_journal_year 2012
_journal_page_first 6105
_journal_name_full 'Org.Biomol.Chem. '
loop_
_publ_author_name
"A.Escribano-Cuesta"
"P.Perez-Galan"
"E.Herrero-Gomez"
"M.Sekine"
"A.A.C.Braga"
"F.Maseras"
"A.M.Echavarren"
_chemical_name_systematic
;
Dimethyl 
6-(3-((2,4-dinitrophenyl)hydrazono)-3-(4-nitrophenyl)propyl)-7,7-dimethylbicyc
lo[3.2.0]hept-5-ene-3,3-dicarboxylate
;
_cell_volume   2849.730
_exptl_crystal_colour 'orange'
_exptl_crystal_density_diffrn 1.388
_exptl_crystal_description 'plate'
_diffrn_ambient_temperature 100
_refine_special_details
;
Sections of both molecules are disordered over two sites with occupancies of 
0.75:0.25, 0.70:0.30 and 0.50:0.50.
;
#These two values have been output from a single CSD field.
_refine_ls_R_factor_gt 0.1066
_refine_ls_wR_factor_gt 0.1066
_symmetry_cell_setting triclinic
_symmetry_space_group_name_H-M 'P -1'
_symmetry_Int_Tables_number 2
loop_
_symmetry_equiv_pos_site_id
_symmetry_equiv_pos_as_xyz
1 x,y,z
2 -x,-y,-z
_cell_length_a 11.1962(10)
_cell_length_b 13.6978(16)
_cell_length_c 20.614(2)
_cell_angle_alpha 87.116(7)
_cell_angle_beta 76.553(7)
_cell_angle_gamma 68.060(7)
_cell_formula_units_Z 4
loop_
_atom_type_symbol
_atom_type_radius_bond
C 0.68
H 0.23
N 0.68
O 0.68
loop_
_atom_site_label
_atom_site_type_symbol
_atom_site_fract_x
_atom_site_fract_y
_atom_site_fract_z
C1 C -0.5505(4) 0.2237(4) 0.3426(2)
C2 C -0.5668(5) 0.1342(4) 0.3823(2)
C3 C -0.6780(5) 0.1500(4) 0.4342(2)
H1 H -0.74450 0.21840 0.44430
C4 C -0.6917(5) 0.0656(5) 0.4710(3)
H2 H -0.76770 0.07580 0.50620
C5 C -0.5941(6) -0.0331(5) 0.4562(3)
C6 C -0.4843(6) -0.0507(5) 0.4056(3)
H3 H -0.41820 -0.11940 0.39590
C7 C -0.4714(5) 0.0333(5) 0.3689(3)
H4 H -0.39520 0.02180 0.33370
C8 C -0.7397(4) 0.4876(4) 0.3200(2)
C9 C -0.8638(4) 0.5047(4) 0.3638(2)
H5 H -0.87910 0.44730 0.38700
C10 C -0.9621(5) 0.6022(4) 0.3733(2)
H6 H -1.04540 0.61190 0.40240
C11 C -0.9404(5) 0.6879(4) 0.3401(2)
C12 C -0.8217(5) 0.6765(5) 0.2980(2)
H7 H -0.80800 0.73520 0.27580
C13 C -0.7218(4) 0.5774(4) 0.2884(2)
C14 C -0.4226(5) 0.2066(5) 0.2926(2)
H8 H -0.34890 0.15080 0.30730
H9 H -0.40440 0.27230 0.28860
C15 C -0.4340(6) 0.1735(6) 0.2243(3)
H10 H -0.46940 0.11660 0.23120
H11 H -0.49900 0.23440 0.20740
C16 C -0.3133(5) 0.1380(5) 0.1744(2)
C17 C -0.1845(6) 0.0748(9) 0.1719(5)
C18 C -0.0769(6) 0.0868(10) 0.2016(3)
H12 H -0.05090 0.03270 0.23460
H13 H -0.10750 0.15750 0.22330
C19 C 0.0388(4) 0.0716(3) 0.1407(3)
C20 C -0.0122(5) 0.0398(8) 0.0852(4)
H14? H -0.00780 0.08900 0.04870
H15 H 0.05140 -0.03100 0.06730
C21 C -0.1502(4) 0.0360(9) 0.1003(5)
H16 H -0.14250 -0.03910 0.09900
C22 C -0.2944(4) 0.1093(5) 0.1007(3)
C23 C -0.3340(6) 0.0230(6) 0.0851(4)
H17 H -0.42840 0.05140 0.08500
H18 H -0.31770 -0.03040 0.11890
H19 H -0.28220 -0.00920 0.04100
C24 C -0.3496(7) 0.2057(6) 0.0611(3)
H20 H -0.31620 0.18710 0.01320
H21 H -0.32170 0.26140 0.07220
H22 H -0.44650 0.23090 0.07230
C25? C 0.0856(7) 0.1646(3) 0.1297(3)
C26? C 0.2157(7) 0.2316(6) 0.0456(8)
H23? H 0.14630 0.29550 0.03560
H24? H 0.28820 0.20660 0.00580
H25? H 0.24930 0.24750 0.08200
C27? C 0.1563(5) -0.0321(4) 0.1423(5)
C28? C 0.3525(6) -0.1007(10) 0.1795(9)
H26? H 0.33990 -0.16790 0.18580
H27? H 0.38720 -0.08710 0.21620
H28? H 0.41550 -0.10410 0.13700
O1? O 0.0324(13) 0.2466(6) 0.1596(5)
O2? O 0.1616(9) 0.1506(6) 0.0654(4)
O3? O 0.1874(13) -0.1124(7) 0.1060(7)
O4? O 0.2265(8) -0.0164(7) 0.1790(6)
C29? C -0.1924(6) 0.1375(11) 0.1682(5)
C30? C -0.0723(7) 0.1210(12) 0.1972(5)
H29? H -0.07840 0.18590 0.21910
H30? H -0.05630 0.06250 0.22830
C31? C 0.0296(5) 0.0929(4) 0.1306(3)
C32? C -0.0261(5) 0.1176(8) 0.0674(3)
H31? H -0.04380 0.19140 0.05430
H32 H 0.03150 0.06860 0.02920
C33? C -0.1512(4) 0.0979(9) 0.0965(3)
H33? H -0.11180 0.02060 0.10310
C34 C 0.0785(6) 0.1845(4) 0.1239(4)
C35 C 0.2575(8) 0.2307(7) 0.0648(6)
H34 H 0.20000 0.29390 0.04690
H35 H 0.34280 0.20100 0.03260
H36 H 0.27150 0.24950 0.10690
C36 C 0.1474(7) -0.0129(5) 0.1234(5)
C37 C 0.3346(9) -0.1156(8) 0.1620(6)
H37 H 0.30770 -0.17650 0.16650
H38 H 0.37720 -0.11370 0.19810
H39 H 0.39690 -0.12150 0.11890
O5 O 0.039(1) 0.2587(6) 0.1606(4)
O6 O 0.1953(6) 0.1534(5) 0.0766(3)
O7 O 0.1713(8) -0.0797(6) 0.0782(4)
O8 O 0.2184(7) -0.0193(6) 0.1656(4)
C38? C 0.1130(18) 0.1379(17) 0.0926(6)
C39? C 0.195(3) 0.260(2) 0.0701(14)
H40? H 0.25160 0.20980 0.03270
H41? H 0.24470 0.29860 0.08260
H42? H 0.11660 0.30910 0.05660
C40? C 0.147(3) -0.018(2) 0.1720(14)
C41? C 0.378(3) -0.120(2) 0.1333(14)
H43? H 0.39290 -0.10560 0.17630
H44? H 0.45670 -0.12660 0.09790
H45? H 0.36170 -0.18530 0.13500
O9? O 0.131(3) 0.148(2) 0.0328(7)
O10? O 0.156(2) 0.2031(18) 0.1258(11)
O11? O 0.1354(16) -0.0648(15) 0.2122(8)
O12? O 0.2653(16) -0.0340(15) 0.1197(9)
N1 N -0.6545(4) 0.3093(3) 0.34990(18)
N2 N -0.6418(4) 0.3915(3) 0.31134(19)
H46 H -0.56870 0.38110 0.28050
N3 N -0.6042(5) -0.1234(4) 0.4968(3)
N4 N -1.0465(5) 0.7913(4) 0.3507(3)
N5 N -0.5955(4) 0.5712(4) 0.2461(2)
O13 O -0.5182(5) -0.2100(3) 0.4811(2)
O14 O -0.6974(5) -0.1040(4) 0.5449(3)
O15 O -1.1517(4) 0.8004(4) 0.3891(2)
O16 O -1.0257(5) 0.8664(4) 0.3211(3)
O17 O -0.5770(4) 0.6530(4) 0.2327(2)
O18 O -0.5093(3) 0.4832(3) 0.22631(18)
C42 C 0.3071(4) 0.5318(3) 0.6454(2)
C43 C 0.4476(4) 0.4989(4) 0.6077(2)
C44 C 0.5370(4) 0.3958(4) 0.6054(2)
H47 H 0.51000 0.34430 0.63010
C45 C 0.6668(4) 0.3671(4) 0.5669(2)
H48 H 0.72780 0.29640 0.56450
C46 C 0.7035(4) 0.4442(4) 0.5328(2)
C47 C 0.6177(4) 0.5473(4) 0.5342(2)
H49 H 0.64600 0.59830 0.50940
C48 C 0.4899(4) 0.5755(4) 0.5721(2)
H50 H 0.43020 0.64660 0.57430
C49 C 0.0243(5) 0.7625(4) 0.6607(2)
C50 C 0.0765(6) 0.8269(4) 0.6181(3)
H51 H 0.16730 0.79930 0.59550
C51 C 0.0012(6) 0.9277(5) 0.6082(3)
H52 H 0.03820 0.96890 0.57780
C52 C -0.1290(6) 0.9700(5) 0.6425(3)
C53 C -0.1855(5) 0.9146(5) 0.6855(3)
H53 H -0.27510 0.94620 0.70940
C54 C -0.1093(5) 0.8077(4) 0.6949(2)
C55 C 0.2519(5) 0.4485(4) 0.67707(19)
H54 H 0.31570 0.37700 0.66090
H55 H 0.16780 0.45950 0.66450
C56 C 0.2281(5) 0.4594(4) 0.7536(2)
H56 H 0.31310 0.44310 0.76660
H57 H 0.16920 0.53230 0.76960
C57 C 0.1634(5) 0.3811(4) 0.7843(2)
C58 C 0.0439(6) 0.3916(5) 0.8160(3)
C59 C -0.0878(7) 0.4665(5) 0.8561(3)
H58 H -0.15610 0.48880 0.82960
H59 H -0.07980 0.52960 0.87310
C60 C -0.1176(3) 0.3954(2) 0.91325(18)
C61 C 0.0103(4) 0.2972(4) 0.91093(17)
H60 H 0.06430 0.30970 0.93900
H61 H -0.01130 0.23510 0.92700
C62 C 0.0846(3) 0.2801(5) 0.83695(18)
H62 H 0.05740 0.23540 0.81110
C63 C 0.2292(3) 0.2713(3) 0.80825(18)
C64 C 0.3087(6) 0.1867(5) 0.7525(3)
H63 H 0.33400 0.11710 0.77180
H64 H 0.38850 0.19890 0.72930
H65 H 0.25450 0.18990 0.72080
C65 C 0.3138(4) 0.2648(6) 0.8581(3)
H66 H 0.26280 0.31820 0.89420
H67 H 0.39360 0.27740 0.83530
H68 H 0.33910 0.19460 0.87670
C66 C -0.2310(4) 0.3654(5) 0.9038(3)
C67 C -0.4585(5) 0.3935(6) 0.9372(3)
H69 H -0.48840 0.42910 0.89810
H70 H -0.53020 0.41960 0.97720
H71 H -0.43360 0.31740 0.93090
C68 C -0.1572(5) 0.4545(4) 0.9808(2)
C69 C -0.1948(6) 0.4310(5) 1.0972(2)
H72 H -0.12790 0.45800 1.10270
H73 H -0.19810 0.37650 1.12950
H74 H -0.28150 0.48870 1.10490
N6 N 0.2330(4) 0.6272(3) 0.63811(18)
N7 N 0.1025(4) 0.6617(3) 0.66990(19)
H75 H 0.06980 0.62010 0.69560
N8 N 0.8405(4) 0.4143(4) 0.49257(19)
N9 N -0.2087(6) 1.0795(5) 0.6301(3)
N10 N -0.1732(4) 0.7470(4) 0.7403(2)
O19 O 0.9172(3) 0.3227(3) 0.49347(17)
O20 O 0.8710(3) 0.4839(3) 0.46175(18)
O21 O -0.1625(6) 1.1219(5) 0.5820(4)
O22 O -0.3182(5) 1.1186(4) 0.6654(3)
O23 O -0.2822(4) 0.7964(4) 0.7762(2)
O24 O -0.1176(3) 0.6507(3) 0.74149(19)
O25 O -0.2347(8) 0.3273(8) 0.8527(4)
O26 O -0.3461(4) 0.4147(4) 0.9448(2)
O27 O -0.2135(8) 0.5497(5) 0.9926(4)
O28 O -0.1609(4) 0.3867(3) 1.03076(17)
C70? C 0.2745(7) 0.4809(7) 0.7124(3)
C71? C 0.1903(11) 0.4146(9) 0.7115(3)
C72? C 0.0559(14) 0.4079(14) 0.8309(9)
C73? C -0.0920(18) 0.4677(17) 0.8540(11)
C74? C -0.0236(5) 0.2815(3) 0.8913(7)
C75? C 0.1009(5) 0.3089(6) 0.8680(4)
C76? C 0.2117(5) 0.2639(5) 0.8040(4)
C77? C 0.2013(11) 0.1733(9) 0.7680(7)
C78? C 0.3547(6) 0.2339(14) 0.8099(8)
H76? H 0.35840 0.43550 0.72410
H77? H 0.22660 0.53730 0.74780
H78? H 0.23940 0.35240 0.68030
H79? H 0.10670 0.45690 0.69840
H80? H -0.13990 0.46770 0.81920
H81? H -0.11380 0.54090 0.86950
H82? H -0.04580 0.25310 0.85450
H83? H -0.01780 0.23320 0.92880
H84? H 0.13690 0.31860 0.90630
H85? H 0.24750 0.16860 0.72100
H86? H 0.10790 0.18620 0.77110
H87? H 0.24180 0.10700 0.78900
H88? H 0.37520 0.17770 0.84160
H89? H 0.36570 0.29560 0.82570
H90? H 0.41470 0.20920 0.76610
O29? O -0.2085(11) 0.2742(7) 0.8873(7)
O30? O -0.133(1) 0.5305(7) 0.9904(5)
#END
