
#######################################################################
#
#                 Cambridge Crystallographic Data Centre
#                                CCDC
#
#######################################################################
#
# If this CIF has been generated from an entry in the Cambridge
# Structural Database, then it will include bibliographic, chemical,
# crystal, experimental, refinement or atomic coordinate data resulting
# from the CCDC's data processing and validation procedures.
#
#######################################################################

data_CSD_CIF_WEHCIX
_audit_creation_date 2012-11-29
_audit_creation_method CSD-ConQuest-V1
_database_code_CSD WEHCIX
_database_code_depnum_ccdc_archive 'CCDC 879485'
_chemical_formula_sum 'C15 H10 N2 O3'
_chemical_formula_moiety
;
C15 H10 N2 O3
;
_journal_coden_Cambridge 177
_journal_volume 10
_journal_year 2012
_journal_page_first 7184
_journal_name_full 'Org.Biomol.Chem. '
loop_
_publ_author_name
"Wei Zhou"
"Yicheng Zhang"
"Pinhua Li"
"Lei Wang"
_chemical_name_systematic
;
3-(4-Nitrophenoxy)-3-phenylacrylonitrile
;
_cell_volume   1951.119
_exptl_crystal_colour 'colorless'
_exptl_crystal_density_diffrn 1.36
_exptl_crystal_description 'block'
_diffrn_ambient_temperature 296
#These two values have been output from a single CSD field.
_refine_ls_R_factor_gt 0.0465
_refine_ls_wR_factor_gt 0.0465
_symmetry_cell_setting triclinic
_symmetry_space_group_name_H-M 'P -1'
_symmetry_Int_Tables_number 2
loop_
_symmetry_equiv_pos_site_id
_symmetry_equiv_pos_as_xyz
1 x,y,z
2 -x,-y,-z
_cell_length_a 9.0546(7)
_cell_length_b 13.7185(10)
_cell_length_c 16.4462(12)
_cell_angle_alpha 103.527(2)
_cell_angle_beta 90.913(1)
_cell_angle_gamma 100.227(1)
_cell_formula_units_Z 6
loop_
_atom_type_symbol
_atom_type_radius_bond
C 0.68
H 0.23
N 0.68
O 0.68
loop_
_atom_site_label
_atom_site_type_symbol
_atom_site_fract_x
_atom_site_fract_y
_atom_site_fract_z
O1 O 0.99195(16) 0.53927(12) 0.64230(8)
C1 C 0.7991(2) 0.55723(14) 0.52177(11)
H1 H 0.85300 0.61690 0.55640
C2 C 0.7015(2) 0.56067(15) 0.45745(12)
H2 H 0.68710 0.62300 0.44870
O2 O 0.52215(14) 0.47365(11) 0.34408(8)
C3 C 0.4362(2) 0.44335(13) 0.12699(11)
H3 H 0.51170 0.40960 0.10380
C4 C 0.3282(2) 0.53621(14) 0.24585(11)
H4 H 0.33150 0.56620 0.30290
O3 O 0.92714(18) 0.37667(12) 0.61399(9)
C5 C 0.8082(2) 0.18003(16) 0.24108(11)
H5 H 0.71310 0.15040 0.25300
O4 O 0.75101(14) 0.20193(11) 0.02908(8)
O5 O 0.32632(19) 0.24742(14) -0.25631(10)
O6 O 0.28674(19) 0.08414(15) -0.27795(10)
N1 N 0.42967(19) 0.18696(18) 0.25745(11)
C6 C 0.4673(2) 0.14264(16) 0.46813(13)
H6 H 0.38610 0.14470 0.43360
C7 C 0.5810(2) 0.09396(15) 0.43530(12)
H7 H 0.57760 0.06450 0.37810
C8 C 0.7001(2) 0.08835(13) 0.48634(11)
H8 H 0.77470 0.05340 0.46370
O7 O 0.77935(15) 0.11687(12) 0.70327(8)
O8 O 1.1826(2) 0.02839(15) 0.97812(11)
O9 O 1.2359(2) 0.19143(15) 1.00985(10)
C9 C 0.4746(2) 0.18836(15) 0.55266(13)
H9 H 0.39870 0.22230 0.57500
C10 C 0.5936(2) 0.18419(14) 0.60432(11)
H10 H 0.59680 0.21450 0.66130
N2 N 0.91831(16) 0.45924(12) 0.60115(8)
C11 C 0.44467(17) 0.48851(12) 0.2124(1)
C12 C 0.3154(2) 0.44856(15) 0.07633(12)
H11 H 0.31160 0.41980 0.01900
C13 C 0.2015(2) 0.49575(16) 0.11001(13)
H12 H 0.12020 0.49840 0.07590
C14 C 0.2082(2) 0.53913(16) 0.19460(13)
H13 H 0.13060 0.57090 0.21750
C15 C 0.7383(2) 0.37342(14) 0.48303(11)
H14 H 0.75170 0.31100 0.49210
C16 C 0.7696(2) 0.50716(18) 0.17376(12)
N3 N 0.8203(2) 0.5237(2) 0.11403(12)
C17 C 1.0708(2) 0.23329(15) 0.27901(12)
H15 H 1.15280 0.23940 0.31580
C18 C 0.9292(2) 0.19043(17) 0.29654(12)
H16 H 0.91510 0.16850 0.34570
C19 C 0.82654(18) 0.21314(12) 0.16792(10)
N4 N 0.34879(19) 0.16948(15) -0.23938(10)
C20 C 1.0903(2) 0.26692(15) 0.20705(13)
H17 H 1.18580 0.29650 0.19550
C21 C 0.9694(2) 0.25729(14) 0.15156(12)
H18 H 0.98400 0.28050 0.10300
C22 C 0.4883(2) 0.18972(15) 0.19689(12)
C23 C 0.5850(2) 0.09809(16) -0.08461(12)
H19 H 0.60800 0.03980 -0.07180
C24 C 0.70899(17) 0.13477(12) 0.57154(10)
C25 C 0.9583(2) 0.20708(16) 0.81689(13)
H20 H 0.94840 0.26870 0.80490
N5 N 1.16676(19) 0.11062(15) 0.96742(10)
N6 N 1.0935(2) 0.1726(2) 0.48012(13)
C26 C 0.81435(18) 0.46356(13) 0.53332(9)
C27 C 0.6260(2) 0.47053(15) 0.40654(10)
C28 C 0.57127(19) 0.48332(13) 0.2679(1)
C29 C 0.6412(2) 0.37767(15) 0.41851(11)
H21 H 0.58710 0.31800 0.38380
C30 C 0.7149(2) 0.48705(16) 0.24951(11)
H22 H 0.78220 0.47590 0.28820
C31 C 0.69916(19) 0.20076(13) 0.10672(10)
C32 C 0.6485(2) 0.19309(15) -0.03721(11)
C33 C 0.6192(2) 0.28059(15) -0.05556(11)
H23 H 0.66500 0.34420 -0.02310
C34 C 0.5211(2) 0.27313(15) -0.12257(11)
H24 H 0.49960 0.33150 -0.13610
C35 C 0.4555(2) 0.17758(14) -0.16921(10)
C36 C 0.55218(19) 0.18956(13) 0.11882(10)
H25 H 0.48680 0.18100 0.07240
C37 C 0.4866(2) 0.09032(16) -0.15150(12)
H26 H 0.44190 0.02660 -0.18430
C38 C 0.83286(19) 0.12808(13) 0.62804(11)
C39 C 0.8800(2) 0.11656(15) 0.76837(11)
C40 C 1.0513(2) 0.20580(15) 0.88320(13)
H27 H 1.10550 0.26620 0.91680
C41 C 1.0625(2) 0.11326(14) 0.89888(10)
C42 C 0.9772(2) 0.13231(16) 0.61203(12)
H28 H 1.04200 0.12060 0.65170
C43 C 1.0373(2) 0.15363(18) 0.53787(13)
C44 C 0.8893(2) 0.02468(15) 0.78469(12)
H29 H 0.83360 -0.03550 0.75170
C45 C 0.9831(2) 0.02287(15) 0.85139(12)
H30 H 0.99210 -0.03870 0.86380
#END
