
#######################################################################
#
#                 Cambridge Crystallographic Data Centre
#                                CCDC
#
#######################################################################
#
# If this CIF has been generated from an entry in the Cambridge
# Structural Database, then it will include bibliographic, chemical,
# crystal, experimental, refinement or atomic coordinate data resulting
# from the CCDC's data processing and validation procedures.
#
#######################################################################

data_CSD_CIF_WEHGEW
_audit_creation_date 2006-07-12
_audit_creation_method CSD-ConQuest-V1
_database_code_CSD WEHGEW
_database_code_depnum_ccdc_archive 'CCDC 271987'
_chemical_formula_sum 'C14 H13 N1 O4'
_chemical_formula_moiety
;
C14 H13 N1 O4
;
_journal_coden_Cambridge 371
_journal_year 2005
_journal_page_first 541
_journal_name_full 'Khim.Prir.Soedin(Russ.)(Chem.Nat.Compd.) '
loop_
_publ_author_name
"I.Yu.Bagryanskaya"
"Yu.V.Gatilov"
"S.A.Osadchii"
"A.A.Martynov"
"M.M.Shakirov"
"E.E.Shul'ts"
"G.A.Tolstikov"
_chemical_name_systematic
;
3(Z)-Hydroxyimino-2-isopropyl-7H-furo(3,2-g)(1)benzopyran-7-one
;
_chemical_name_common
;
hydroxime oreozelone
;
_chemical_melting_point 515
_cell_volume    633.157
_exptl_crystal_colour 'light yellow'
_exptl_crystal_density_diffrn 1.36
_exptl_special_details
;
Melts with decomposition.

;
_exptl_crystal_description 'prism'
_diffrn_ambient_temperature 295
#These two values have been output from a single CSD field.
_refine_ls_R_factor_gt 0.0443
_refine_ls_wR_factor_gt 0.0443
_symmetry_cell_setting triclinic
_symmetry_space_group_name_H-M 'P -1'
_symmetry_Int_Tables_number 2
loop_
_symmetry_equiv_pos_site_id
_symmetry_equiv_pos_as_xyz
1 x,y,z
2 -x,-y,-z
_cell_length_a 5.9047(7)
_cell_length_b 10.015(1)
_cell_length_c 11.039(1)
_cell_angle_alpha 87.25(1)
_cell_angle_beta 78.777(8)
_cell_angle_gamma 81.500(9)
_cell_formula_units_Z 2
loop_
_atom_type_symbol
_atom_type_radius_bond
C 0.68
H 0.23
N 0.68
O 0.68
loop_
_atom_site_label
_atom_site_type_symbol
_atom_site_fract_x
_atom_site_fract_y
_atom_site_fract_z
O1 O 0.3066(2) 0.20729(15) 0.64798(12)
C1 C 0.1354(4) 0.2158(2) 0.76407(17)
C2 C -0.0871(4) 0.28767(18) 0.72887(16)
C3 C -0.0398(3) 0.30520(17) 0.59453(16)
C4 C -0.1729(3) 0.35868(17) 0.51037(16)
C5 C -0.0711(3) 0.36339(16) 0.38487(16)
C6 C -0.1926(3) 0.41673(18) 0.28859(18)
C7 C -0.0848(4) 0.4160(2) 0.17041(19)
C8 C 0.1585(4) 0.36421(19) 0.13532(17)
O2 O 0.2748(2) 0.31350(13) 0.22777(11)
C9 C 0.1658(3) 0.31153(17) 0.34993(16)
C10 C 0.3034(3) 0.25649(19) 0.43261(17)
C11 C 0.1963(3) 0.25554(18) 0.55502(16)
C12 C 0.1236(4) 0.0744(2) 0.8201(2)
C13 C 0.3574(7) 0.0149(4) 0.8526(4)
C14 C 0.0454(7) -0.0167(3) 0.7340(5)
O3 O -0.2726(3) 0.30160(17) 0.92195(13)
O4 O 0.2720(3) 0.36009(16) 0.03157(12)
N1 N -0.2851(3) 0.33062(18) 0.79762(14)
H1 H 0.185(4) 0.271(2) 0.818(2)
H2 H -0.332(4) 0.3888(19) 0.5352(17)
H3 H -0.353(4) 0.451(2) 0.3079(19)
H4 H -0.156(4) 0.450(2) 0.104(2)
H5 H 0.470(4) 0.222(2) 0.407(2)
H6 H 0.003(5) 0.090(3) 0.899(2)
H7 H 0.407(8) 0.074(4) 0.924(4)
H8 H 0.350(6) -0.072(4) 0.890(3)
H9 H 0.477(7) -0.002(4) 0.774(4)
H10 H 0.040(7) -0.101(4) 0.771(3)
H11 H 0.169(8) -0.034(4) 0.660(4)
H12 H -0.118(9) 0.020(4) 0.734(4)
H13 H -0.478(9) 0.345(4) 0.979(4)
#END
