
#######################################################################
#
#                 Cambridge Crystallographic Data Centre
#                                CCDC
#
#######################################################################
#
# If this CIF has been generated from an entry in the Cambridge
# Structural Database, then it will include bibliographic, chemical,
# crystal, experimental, refinement or atomic coordinate data resulting
# from the CCDC's data processing and validation procedures.
#
#######################################################################

data_CSD_CIF_WEHHOH
_audit_creation_date 2006-07-12
_audit_creation_method CSD-ConQuest-V1
_database_code_CSD WEHHOH
_database_code_depnum_ccdc_archive 'CCDC 607881'
_chemical_formula_sum 'C10 H15 N7 O1'
_chemical_formula_moiety
;
C10 H15 N7 O1
;
_journal_coden_Cambridge 95
_journal_year 2005
_journal_page_first 1845
_journal_name_full 'Izv.Akad.Nauk SSSR,Ser.Khim.(Russ.)(Russ.Chem.Bull.) '
loop_
_publ_author_name
"A.A.Chesnyuk"
"S.N.Mikhailichenko"
"L.D.Konyushkin"
"S.I.Firgang"
"V.N.Zaplishnyi"
_chemical_name_systematic
;
4-Amino-6-diethylamino-2-(5-methyl-1,2,4-oxadiazol-3-yl)-1,3,5-triazine
;
_chemical_melting_point 478.15
_cell_volume   1265.642
_exptl_crystal_colour 'colorless'
_exptl_crystal_density_diffrn 1.308
_exptl_special_details
;
Melting point range 478.15-479.15K

;
_exptl_crystal_description 'prism'
_exptl_crystal_preparation 'ethanol'
_diffrn_ambient_temperature 295
#These two values have been output from a single CSD field.
_refine_ls_R_factor_gt 0.0308
_refine_ls_wR_factor_gt 0.0308
_symmetry_cell_setting triclinic
_symmetry_space_group_name_H-M 'P -1'
_symmetry_Int_Tables_number 2
loop_
_symmetry_equiv_pos_site_id
_symmetry_equiv_pos_as_xyz
1 x,y,z
2 -x,-y,-z
_cell_length_a 10.027(2)
_cell_length_b 10.978(2)
_cell_length_c 12.182(2)
_cell_angle_alpha 80.64(3)
_cell_angle_beta 77.50(3)
_cell_angle_gamma 76.83(3)
_cell_formula_units_Z 4
loop_
_atom_type_symbol
_atom_type_radius_bond
C 0.68
H 0.23
N 0.68
O 0.68
loop_
_atom_site_label
_atom_site_type_symbol
_atom_site_fract_x
_atom_site_fract_y
_atom_site_fract_z
O1 O 0.67849(16) 1.00782(12) 0.02428(12)
N1 N 0.44969(16) 0.73131(14) 0.17205(12)
N2 N 0.46614(16) 0.50800(13) 0.18347(12)
N3 N 0.64431(16) 0.60707(13) 0.06282(12)
N4 N 0.66094(16) 0.39191(13) 0.08201(13)
N5 N 0.28694(19) 0.62986(19) 0.29079(15)
N6 N 0.72665(17) 0.83087(14) -0.04865(13)
N7 N 0.5933(2) 0.92980(15) 0.09610(14)
C1 C 0.5679(2) 0.71395(16) 0.09772(15)
C2 C 0.4038(2) 0.62199(17) 0.21415(15)
C3 C 0.5886(2) 0.50418(16) 0.11003(15)
C4 C 0.6271(2) 0.82674(17) 0.04805(15)
C5 C 0.7536(2) 0.94204(18) -0.05929(16)
C6 C 0.8515(4) 1.0028(3) -0.1466(3)
C7 C 0.7981(2) 0.3795(2) 0.0072(2)
C8 C 0.9157(3) 0.3543(6) 0.0690(4)
C9 C 0.6101(3) 0.2765(2) 0.1320(2)
C10 C 0.6300(6) 0.2341(5) 0.2513(5)
O2 O -0.21699(16) 0.01502(13) 0.45872(12)
N8 N 0.06898(17) 0.24948(14) 0.34291(13)
N9 N 0.18777(18) 0.38006(14) 0.41042(13)
N10 N 0.01075(17) 0.28546(14) 0.53658(13)
N11 N 0.14242(19) 0.39341(18) 0.60285(14)
N12 N 0.2322(2) 0.35037(18) 0.22389(15)
N13 N -0.20325(18) 0.14943(16) 0.56810(14)
N14 N -0.10756(18) 0.07658(16) 0.40161(14)
C11 C -0.0020(2) 0.23648(16) 0.44770(16)
C12 C 0.1617(2) 0.32589(17) 0.32836(16)
C13 C 0.1138(2) 0.35251(17) 0.51445(16)
C14 C -0.1055(2) 0.15369(17) 0.47048(15)
C15 C -0.2676(2) 0.06440(19) 0.55611(18)
C16 C -0.3840(4) 0.0143(3) 0.6343(3)
C17 C 0.0729(3) 0.3562(3) 0.71824(19)
C18 C 0.1244(4) 0.2213(4) 0.7619(3)
C19 C 0.2556(4) 0.4607(4) 0.5897(3)
C20 C 0.3914(5) 0.3754(6) 0.5823(4)
H1 H 0.254(2) 0.700(2) 0.3248(17)
H2 H 0.256(2) 0.560(2) 0.3289(17)
H3 H 0.895(3) 0.948(3) -0.206(2)
H4 H 0.806(3) 1.076(3) -0.183(2)
H5 H 0.918(3) 1.031(3) -0.113(3)
H6 H 0.793(2) 0.458(2) -0.0486(17)
H7 H 0.806(2) 0.312(2) -0.0363(18)
H8 H 0.915(4) 0.274(4) 0.129(4)
H9 H 0.914(5) 0.400(5) 0.118(4)
H10 H 1.007(3) 0.343(3) 0.016(2)
H11 H 0.665(3) 0.219(3) 0.081(2)
H12 H 0.512(3) 0.289(2) 0.1281(18)
H13 H 0.613(4) 0.162(4) 0.275(3)
H14 H 0.568(7) 0.288(6) 0.300(6)
H15 H 0.726(5) 0.225(4) 0.251(3)
H16 H 0.228(2) 0.309(2) 0.174(2)
H17 H 0.310(2) 0.401(2) 0.2148(17)
H18 H -0.411(4) 0.056(4) 0.695(3)
H19 H -0.353(5) -0.065(5) 0.662(4)
H20 H -0.453(4) 0.023(3) 0.591(3)
H21 H -0.033(3) 0.370(2) 0.7218(19)
H22 H 0.090(3) 0.409(2) 0.768(2)
H23 H 0.081(3) 0.200(2) 0.839(2)
H24 H 0.091(4) 0.163(3) 0.716(3)
H25 H 0.220(4) 0.201(3) 0.757(3)
H26 H 0.2709(18) 0.5289(16) 0.6351(15)
H27 H 0.257(3) 0.530(3) 0.525(3)
H28 H 0.461(7) 0.442(6) 0.585(5)
H29 H 0.393(4) 0.312(4) 0.651(4)
H30 H 0.399(5) 0.336(5) 0.500(4)
#END
