
#######################################################################
#
#                 Cambridge Crystallographic Data Centre
#                                CCDC
#
#######################################################################
#
# If this CIF has been generated from an entry in the Cambridge
# Structural Database, then it will include bibliographic, chemical,
# crystal, experimental, refinement or atomic coordinate data resulting
# from the CCDC's data processing and validation procedures.
#
#######################################################################

data_CSD_CIF_WEHJUP
_audit_creation_date 2006-07-11
_audit_creation_method CSD-ConQuest-V1
_database_code_CSD WEHJUP
_database_code_depnum_ccdc_archive 'CCDC 607888'
_chemical_formula_sum 'C10 H15 N4 O2'
_chemical_formula_moiety
;
C10 H15 N4 O2
;
_journal_coden_Cambridge 95
_journal_year 2005
_journal_page_first 2105
_journal_name_full 'Izv.Akad.Nauk SSSR,Ser.Khim.(Russ.)(Russ.Chem.Bull.) '
loop_
_publ_author_name
"E.V.Tret'yakov"
"S.E.Tolstikov"
"G.V.Romanenko"
"Yu.G.Shvedenkov"
"R.Z.Sagdeev"
"V.I.Ovcharenko"
_chemical_name_systematic
;
4,4,5,5-Tetramethyl-2-(1H-pyrazol-3-yl)-4,5-dihydro-1H-imidazole-3-oxide-1-oxy
l
;
_chemical_melting_point 421.15
_cell_volume   2258.918
_exptl_crystal_colour 'blue-violet'
_exptl_crystal_density_diffrn 1.313
_exptl_special_details
;
Melting point range 421.15-422.15K

;
_exptl_crystal_preparation 'toluene'
_diffrn_ambient_temperature 273
#These two values have been output from a single CSD field.
_refine_ls_R_factor_gt 0.0493
_refine_ls_wR_factor_gt 0.0493
_symmetry_cell_setting monoclinic
_symmetry_space_group_name_H-M 'C 2/c'
_symmetry_Int_Tables_number 15
loop_
_symmetry_equiv_pos_site_id
_symmetry_equiv_pos_as_xyz
1 x,y,z
2 1/2+x,1/2+y,z
3 -x,y,1/2-z
4 1/2-x,1/2+y,1/2-z
5 -x,-y,-z
6 -1/2-x,-1/2-y,-z
7 x,-y,-1/2+z
8 -1/2+x,-1/2-y,-1/2+z
_cell_length_a 23.522(4)
_cell_length_b 7.8792(13)
_cell_length_c 12.417(2)
_cell_angle_alpha 90
_cell_angle_beta 101.013(4)
_cell_angle_gamma 90
_cell_formula_units_Z 8
loop_
_atom_type_symbol
_atom_type_radius_bond
C 0.68
H 0.23
N 0.68
O 0.68
loop_
_atom_site_label
_atom_site_type_symbol
_atom_site_fract_x
_atom_site_fract_y
_atom_site_fract_z
N1 N 0.32875(10) 0.1081(3) 0.41957(19)
N2 N 0.34104(13) 0.4034(3) 0.5666(2)
H1 H 0.3037(18) 0.372(5) 0.546(3)
O1 O 0.46339(9) 0.2191(3) 0.38362(17)
N3 N 0.41429(10) 0.1500(3) 0.38442(18)
C1 C 0.37514(12) 0.2069(3) 0.4409(2)
O2 O 0.28397(9) 0.1263(3) 0.4629(2)
N4 N 0.36022(13) 0.5228(3) 0.6415(2)
C2 C 0.38368(12) 0.3448(3) 0.5170(2)
C3 C 0.33313(13) -0.0327(4) 0.3417(2)
C4 C 0.43279(15) 0.4303(4) 0.5635(3)
H2 H 0.4673(13) 0.411(4) 0.549(2)
C5 C 0.41615(17) 0.5371(4) 0.6403(3)
H3 H 0.4393(15) 0.614(5) 0.690(3)
C6 C 0.39620(13) -0.0099(3) 0.3230(2)
C7 C 0.4382(2) -0.1455(7) 0.3775(7)
H4 H 0.428(3) -0.188(9) 0.440(5)
H5 H 0.4225(16) -0.255(5) 0.336(3)
H6 H 0.476(2) -0.109(5) 0.368(3)
C8 C 0.4019(3) 0.0166(7) 0.2053(4)
H7 H 0.4392(16) 0.046(4) 0.203(3)
H8 H 0.3740(18) 0.105(5) 0.174(3)
H9 H 0.3935(18) -0.093(6) 0.167(3)
C9 C 0.2866(2) -0.0038(11) 0.2419(4)
H10 H 0.290(2) -0.106(7) 0.187(5)
H11 H 0.253(2) -0.008(5) 0.263(3)
H12 H 0.296(2) 0.103(6) 0.208(4)
C10 C 0.3226(2) -0.1969(5) 0.3984(5)
H13 H 0.2858(17) -0.189(5) 0.409(3)
H14 H 0.3270(16) -0.294(5) 0.351(3)
H15 H 0.3529(19) -0.203(5) 0.476(4)
#END
