
#######################################################################
#
#                 Cambridge Crystallographic Data Centre
#                                CCDC
#
#######################################################################
#
# If this CIF has been generated from an entry in the Cambridge
# Structural Database, then it will include bibliographic, chemical,
# crystal, experimental, refinement or atomic coordinate data resulting
# from the CCDC's data processing and validation procedures.
#
#######################################################################

data_CSD_CIF_WEHKIE
_audit_creation_date 2006-07-11
_audit_creation_method CSD-ConQuest-V1
_database_code_CSD WEHKIE
_database_code_depnum_ccdc_archive 'CCDC 268378'
_chemical_formula_sum 'C17 H26 N6 O4'
_chemical_formula_moiety
;
C17 H26 N6 O4
;
_journal_coden_Cambridge 95
_journal_year 2005
_journal_page_first 2105
_journal_name_full 'Izv.Akad.Nauk SSSR,Ser.Khim.(Russ.)(Russ.Chem.Bull.) '
loop_
_publ_author_name
"E.V.Tret'yakov"
"S.E.Tolstikov"
"G.V.Romanenko"
"Yu.G.Shvedenkov"
"R.Z.Sagdeev"
"V.I.Ovcharenko"
_chemical_name_systematic
;
3,5-bis(4,4,5,5-Tetramethyl-3-oxido-1-oxyl-4,5-dihydro-1H-imidazol-2-yl)-1H-py
razole
;
_chemical_melting_point 468.15
_cell_volume   1907.491
_exptl_crystal_colour 'dark blue'
_exptl_crystal_density_diffrn 1.318
_exptl_special_details
;
Melting point range 468.15-483.15K

;
_exptl_crystal_preparation 'heptane/dichloromethane'
_diffrn_ambient_temperature 273
#These two values have been output from a single CSD field.
_refine_ls_R_factor_gt 0.0553
_refine_ls_wR_factor_gt 0.0553
_symmetry_cell_setting monoclinic
_symmetry_space_group_name_H-M 'P 21/c'
_symmetry_Int_Tables_number 14
loop_
_symmetry_equiv_pos_site_id
_symmetry_equiv_pos_as_xyz
1 x,y,z
2 -x,1/2+y,1/2-z
3 -x,-y,-z
4 x,-1/2-y,-1/2+z
_cell_length_a 13.173(5)
_cell_length_b 12.041(4)
_cell_length_c 12.879(4)
_cell_angle_alpha 90
_cell_angle_beta 110.972(7)
_cell_angle_gamma 90
_cell_formula_units_Z 4
loop_
_atom_type_symbol
_atom_type_radius_bond
C 0.68
H 0.23
N 0.68
O 0.68
loop_
_atom_site_label
_atom_site_type_symbol
_atom_site_fract_x
_atom_site_fract_y
_atom_site_fract_z
O1 O 0.5214(3) -0.1112(2) 0.9896(3)
N1 N 0.5815(3) -0.1833(2) 0.9695(3)
C1 C 0.5706(4) -0.3020(3) 0.9917(4)
C2 C 0.612(1) -0.3141(7) 1.1163(7)
H1 H 0.524(5) -0.280(5) 1.114(5)
H2 H 0.623(7) -0.272(6) 1.162(6)
H3 H 0.596(5) -0.393(5) 1.135(5)
C3 C 0.4538(5) -0.3358(6) 0.9401(9)
H4 H 0.415(4) -0.289(4) 0.968(5)
H5 H 0.448(5) -0.423(5) 0.939(5)
H6 H 0.437(4) -0.294(4) 0.872(4)
C4 C 0.6476(3) -0.3549(3) 0.9400(4)
C5 C 0.7317(5) -0.4343(5) 1.0126(7)
H7 H 0.786(4) -0.443(4) 0.964(4)
H8 H 0.694(4) -0.491(4) 1.021(4)
H9 H 0.758(4) -0.387(4) 1.097(4)
C6 C 0.5908(6) -0.4062(6) 0.8272(6)
H10 H 0.645(4) -0.413(4) 0.795(4)
H11 H 0.536(4) -0.347(4) 0.778(5)
H12 H 0.559(3) -0.471(3) 0.839(3)
N2 N 0.7059(3) -0.2547(3) 0.9203(3)
O2 O 0.7856(3) -0.2635(2) 0.8874(3)
C7 C 0.6599(3) -0.1605(3) 0.9326(4)
C8 C 0.6876(3) -0.0529(3) 0.9064(3)
N3 N 0.6330(3) 0.0369(3) 0.9188(3)
H13 H 0.570(3) 0.039(3) 0.943(3)
C9 C 0.7650(3) -0.0162(3) 0.8683(4)
H14 H 0.819(3) -0.059(3) 0.856(3)
N4 N 0.6682(3) 0.1313(3) 0.8885(3)
C10 C 0.7499(3) 0.0982(3) 0.8577(3)
C11 C 0.8103(3) 0.1762(3) 0.8190(3)
O3 O 0.9241(3) 0.0533(2) 0.7781(3)
N5 N 0.8896(3) 0.1511(3) 0.7825(3)
C12 C 0.8822(8) 0.2288(6) 0.6098(5)
H15 H 0.802(6) 0.239(7) 0.597(7)
H16 H 0.920(4) 0.157(4) 0.591(4)
H17 H 0.926(4) 0.302(5) 0.579(5)
C13 C 1.0513(5) 0.2461(5) 0.7755(8)
H18 H 1.056(3) 0.239(3) 0.863(3)
H19 H 1.077(4) 0.329(5) 0.738(5)
H20 H 1.065(4) 0.184(5) 0.743(5)
C14 C 0.9293(4) 0.2474(3) 0.7372(4)
C15 C 0.8204(6) 0.4279(6) 0.6881(7)
H21 H 0.766(4) 0.399(4) 0.636(4)
H22 H 0.872(3) 0.463(3) 0.653(4)
H23 H 0.786(4) 0.486(4) 0.722(5)
C16 C 0.9518(5) 0.4032(6) 0.8768(6)
H24 H 0.992(4) 0.350(4) 0.933(4)
H25 H 0.905(4) 0.458(4) 0.894(4)
H26 H 1.006(4) 0.442(4) 0.856(4)
C17 C 0.8774(3) 0.3437(3) 0.7763(4)
N6 N 0.7954(3) 0.2850(3) 0.8106(3)
O4 O 0.7250(3) 0.3402(3) 0.8354(3)
#END
