
#######################################################################
#
#                 Cambridge Crystallographic Data Centre
#                                CCDC
#
#######################################################################
#
# If this CIF has been generated from an entry in the Cambridge
# Structural Database, then it will include bibliographic, chemical,
# crystal, experimental, refinement or atomic coordinate data resulting
# from the CCDC's data processing and validation procedures.
#
#######################################################################

data_CSD_CIF_WEHKOK
_audit_creation_date 2006-07-11
_audit_creation_method CSD-ConQuest-V1
_database_code_CSD WEHKOK
_database_code_depnum_ccdc_archive 'CCDC 607890'
_chemical_formula_sum 'C10 H15 N4 O1'
_chemical_formula_moiety
;
C10 H15 N4 O1
;
_journal_coden_Cambridge 95
_journal_year 2005
_journal_page_first 2105
_journal_name_full 'Izv.Akad.Nauk SSSR,Ser.Khim.(Russ.)(Russ.Chem.Bull.) '
loop_
_publ_author_name
"E.V.Tret'yakov"
"S.E.Tolstikov"
"G.V.Romanenko"
"Yu.G.Shvedenkov"
"R.Z.Sagdeev"
"V.I.Ovcharenko"
_chemical_name_systematic
;
4,4,5,5-Tetramethyl-2-(1H-pyrazol-3-yl)-4,5-dihydro-1H-imidazole-1-oxyl
;
_cell_volume   1113.149
_exptl_crystal_density_diffrn 1.237
_exptl_crystal_preparation 'toluene/heptane'
_diffrn_ambient_temperature 273
#These two values have been output from a single CSD field.
_refine_ls_R_factor_gt 0.0465
_refine_ls_wR_factor_gt 0.0465
_symmetry_cell_setting monoclinic
_symmetry_space_group_name_H-M 'P 21/c'
_symmetry_Int_Tables_number 14
loop_
_symmetry_equiv_pos_site_id
_symmetry_equiv_pos_as_xyz
1 x,y,z
2 -x,1/2+y,1/2-z
3 -x,-y,-z
4 x,-1/2-y,-1/2+z
_cell_length_a 12.531(6)
_cell_length_b 9.317(4)
_cell_length_c 10.260(4)
_cell_angle_alpha 90
_cell_angle_beta 111.678(10)
_cell_angle_gamma 90
_cell_formula_units_Z 4
loop_
_atom_type_symbol
_atom_type_radius_bond
C 0.68
H 0.23
N 0.68
O 0.68
loop_
_atom_site_label
_atom_site_type_symbol
_atom_site_fract_x
_atom_site_fract_y
_atom_site_fract_z
N1 N 0.82261(19) 0.11035(19) 0.2821(2)
C1 C 0.7980(2) 0.2368(3) 0.3134(2)
N2 N 0.7003(2) 0.2368(2) 0.3475(2)
C2 C 0.8615(2) 0.3685(2) 0.3160(3)
N3 N 0.9515(2) 0.3647(2) 0.2758(2)
O1 O 0.6555(2) 0.34486(18) 0.3828(2)
N4 N 0.9886(2) 0.5011(2) 0.2904(2)
C3 C 0.6414(3) 0.0960(2) 0.3105(3)
C4 C 0.8429(3) 0.5076(3) 0.3537(3)
C5 C 0.9257(3) 0.5882(3) 0.3354(3)
C6 C 0.7421(2) 0.0047(2) 0.3042(3)
C7 C 0.5445(3) 0.1172(4) 0.1695(4)
C8 C 0.7087(4) -0.1043(4) 0.1859(4)
C9 C 0.8092(4) -0.0695(4) 0.4431(4)
C10 C 0.5908(4) 0.0552(4) 0.4192(5)
H1 H 0.680(2) -0.062(2) 0.095(3)
H2 H 0.784(2) 0.529(2) 0.383(2)
H3 H 0.947(2) 0.689(2) 0.350(2)
H4 H 0.651(3) -0.171(3) 0.196(3)
H5 H 0.501(3) 0.029(3) 0.135(3)
H6 H 0.656(3) 0.044(3) 0.518(3)
H7 H 1.052(2) 0.527(2) 0.274(2)
H8 H 0.582(3) 0.141(3) 0.099(3)
H9 H 0.536(3) 0.128(3) 0.425(3)
H10 H 0.833(2) 0.004(3) 0.521(3)
H11 H 0.561(3) -0.043(3) 0.400(3)
H12 H 0.884(3) -0.108(3) 0.442(3)
H13 H 0.762(3) -0.142(3) 0.453(3)
H14 H 0.776(3) -0.157(3) 0.192(3)
H15 H 0.492(3) 0.192(3) 0.176(3)
#END
