
#######################################################################
#
#                 Cambridge Crystallographic Data Centre
#                                CCDC
#
#######################################################################
#
# If this CIF has been generated from an entry in the Cambridge
# Structural Database, then it will include bibliographic, chemical,
# crystal, experimental, refinement or atomic coordinate data resulting
# from the CCDC's data processing and validation procedures.
#
#######################################################################

data_CSD_CIF_WEHKAW
_audit_creation_date 2006-07-11
_audit_creation_method CSD-ConQuest-V1
_database_code_CSD WEHKAW
_database_code_depnum_ccdc_archive 'CCDC 268379'
_chemical_formula_sum 'C13 H19 N4 O4'
_chemical_formula_moiety
;
C13 H19 N4 O4
;
_journal_coden_Cambridge 95
_journal_year 2005
_journal_page_first 2105
_journal_name_full 'Izv.Akad.Nauk SSSR,Ser.Khim.(Russ.)(Russ.Chem.Bull.) '
loop_
_publ_author_name
"E.V.Tret'yakov"
"S.E.Tolstikov"
"G.V.Romanenko"
"Yu.G.Shvedenkov"
"R.Z.Sagdeev"
"V.I.Ovcharenko"
_chemical_name_systematic
;
Ethyl 
3-(4,4,5,5-tetramethyl-3-oxido-1-oxyl-4,5-dihydro-1H-imidazol-2-yl)-1H-pyrazol
e-5-carboxylate
;
_chemical_melting_point 439.15
_cell_volume   1484.280
_exptl_crystal_density_diffrn 1.322
_exptl_special_details
;
Melting point range 439.15-440.15K

;
_exptl_crystal_preparation 'heptane/dichloromethane'
_diffrn_ambient_temperature 273
#These two values have been output from a single CSD field.
_refine_ls_R_factor_gt 0.074
_refine_ls_wR_factor_gt 0.074
_symmetry_cell_setting monoclinic
_symmetry_space_group_name_H-M 'P 21/c'
_symmetry_Int_Tables_number 14
loop_
_symmetry_equiv_pos_site_id
_symmetry_equiv_pos_as_xyz
1 x,y,z
2 -x,1/2+y,1/2-z
3 -x,-y,-z
4 x,-1/2-y,-1/2+z
_cell_length_a 10.188(5)
_cell_length_b 6.781(3)
_cell_length_c 21.993(10)
_cell_angle_alpha 90
_cell_angle_beta 102.34(1)
_cell_angle_gamma 90
_cell_formula_units_Z 4
loop_
_atom_type_symbol
_atom_type_radius_bond
C 0.68
H 0.23
N 0.68
O 0.68
loop_
_atom_site_label
_atom_site_type_symbol
_atom_site_fract_x
_atom_site_fract_y
_atom_site_fract_z
N1 N 0.2929(4) 0.3095(6) 0.13928(17)
O1 O 0.3892(3) 0.4328(5) 0.14330(15)
C1 C 0.2615(4) 0.2068(8) 0.1952(2)
O2 O 0.0115(4) 0.0689(6) 0.06277(15)
N2 N 0.1158(4) 0.1330(6) 0.10081(17)
C2 C 0.1878(7) 0.3545(10) 0.2271(3)
H1 H 0.251(6) 0.479(9) 0.237(3)
H2 H 0.100(5) 0.402(7) 0.199(2)
H3 H 0.171(6) 0.285(8) 0.266(3)
N3 N 0.0980(5) 0.3087(8) -0.02266(19)
H4 H 0.057(5) 0.189(8) -0.021(2)
O3 O 0.1983(4) 0.6749(6) -0.15372(17)
C3 C 0.3896(7) 0.1388(13) 0.2379(4)
H5 H 0.437(6) 0.242(10) 0.258(3)
H6 H 0.364(5) 0.065(8) 0.267(2)
H7 H 0.441(5) 0.058(7) 0.217(2)
O4 O 0.3206(4) 0.8202(6) -0.06983(16)
N4 N 0.1069(4) 0.4081(7) -0.07362(19)
C4 C 0.1699(5) 0.0386(8) 0.1625(2)
C5 C 0.0561(7) -0.0205(12) 0.1933(3)
H8 H -0.005(6) 0.087(9) 0.194(2)
H9 H -0.003(7) -0.134(10) 0.169(3)
H10 H 0.102(5) -0.078(8) 0.230(3)
C6 C 0.2459(7) -0.143(1) 0.1484(3)
H11 H 0.181(6) -0.239(10) 0.128(3)
H12 H 0.313(8) -0.096(11) 0.132(3)
H13 H 0.291(5) -0.210(8) 0.189(3)
C7 C 0.1969(5) 0.2744(7) 0.0883(2)
C8 C 0.1877(5) 0.3701(8) 0.0284(2)
C9 C 0.2547(5) 0.5257(8) 0.0102(2)
H14 H 0.319(5) 0.592(7) 0.038(2)
C10 C 0.2003(5) 0.5447(8) -0.0537(2)
C11 C 0.2380(6) 0.6819(8) -0.0984(3)
C12 C 0.3585(12) 0.9728(14) -0.1105(4)
H15 H 0.41530 0.91510 -0.13600
H16 H 0.27830 1.02360 -0.13800
C13 C 0.4265(10) 1.1264(12) -0.0756(4)
H17 H 0.45040 1.22390 -0.10290
H18 H 0.50650 1.07640 -0.04870
H19 H 0.36970 1.18500 -0.05090
#END
