
#######################################################################
#
#                 Cambridge Crystallographic Data Centre
#                                CCDC
#
#######################################################################
#
# If this CIF has been generated from an entry in the Cambridge
# Structural Database, then it will include bibliographic, chemical,
# crystal, experimental, refinement or atomic coordinate data resulting
# from the CCDC's data processing and validation procedures.
#
#######################################################################

data_CSD_CIF_WEHLIF
_audit_creation_date 2006-07-12
_audit_creation_method CSD-ConQuest-V1
_database_code_CSD WEHLIF
_database_code_depnum_ccdc_archive 'CCDC 607893'
_chemical_formula_sum 'C9 H16 N2 O3'
_chemical_formula_moiety
;
C9 H16 N2 O3
;
_journal_coden_Cambridge 388
_journal_volume 41
_journal_year 2005
_journal_page_first 1453
_journal_name_full 'Zh.Org.Khim.(Russ.)(Russ.J.Org.Chem.) '
loop_
_publ_author_name
"N.A.Keiko"
"E.A.Funtikova"
"L.I.Larina"
"G.I.Sarapulova"
"D.G.Mazhukin"
"T.V.Rybalova"
"A.Ya.Tikhonov"
_chemical_name_systematic
;
1-Hydroxy-2-(1-methoxyethenyl)-4,5,5-trimethyl-2,5-dihydro-1H-imidazole-3-oxid
e
;
_chemical_melting_point 423
_cell_volume   2161.161
_exptl_crystal_colour 'light yellow'
_exptl_crystal_density_diffrn 1.231
_exptl_crystal_description 'needle'
_diffrn_ambient_temperature 295
#These two values have been output from a single CSD field.
_refine_ls_R_factor_gt 0.0545
_refine_ls_wR_factor_gt 0.0545
_symmetry_cell_setting triclinic
_symmetry_space_group_name_H-M 'P -1'
_symmetry_Int_Tables_number 2
loop_
_symmetry_equiv_pos_site_id
_symmetry_equiv_pos_as_xyz
1 x,y,z
2 -x,-y,-z
_cell_length_a 11.139(2)
_cell_length_b 12.557(2)
_cell_length_c 16.572(3)
_cell_angle_alpha 90.037(15)
_cell_angle_beta 104.082(12)
_cell_angle_gamma 105.502(14)
_cell_formula_units_Z 8
loop_
_atom_type_symbol
_atom_type_radius_bond
C 0.68
H 0.23
N 0.68
O 0.68
loop_
_atom_site_label
_atom_site_type_symbol
_atom_site_fract_x
_atom_site_fract_y
_atom_site_fract_z
N1 N 0.2715(2) -0.0671(2) 0.70096(15)
C1 C 0.3204(3) 0.0134(2) 0.77319(18)
H1 H 0.41430 0.04120 0.78480
N2 N 0.2602(2) 0.1019(2) 0.74038(16)
C2 C 0.2227(3) 0.0937(3) 0.6600(2)
C3 C 0.2553(3) -0.0018(3) 0.62575(19)
C4 C 0.2827(3) -0.0318(3) 0.84928(19)
C5 C 0.3688(4) -0.0418(4) 0.9161(2)
H2 H 0.34290 -0.07280 0.96220
H3 H 0.45590 -0.01800 0.91760
C6 C 0.1049(4) -0.1126(3) 0.9048(2)
H4 H 0.01260 -0.13050 0.88980
H5 H 0.13860 -0.06200 0.95350
H6 H 0.13120 -0.17900 0.91620
C7 C 0.1642(4) 0.1746(3) 0.6119(2)
H7 H 0.15160 0.22620 0.64960
H8 H 0.08270 0.13610 0.57540
H9 H 0.22030 0.21380 0.57950
C8 C 0.3788(4) 0.0395(3) 0.5957(2)
H10 H 0.44630 0.08380 0.64000
H11 H 0.36310 0.08340 0.54890
H12 H 0.40430 -0.02280 0.57930
C9 C 0.1470(4) -0.0734(3) 0.5566(2)
H13 H 0.07100 -0.09950 0.57660
H14 H 0.17250 -0.13550 0.53990
H15 H 0.12920 -0.03020 0.50960
O1 O 0.3683(2) -0.1243(2) 0.70339(15)
O2 O 0.1529(2) -0.06222(19) 0.83737(13)
O3 O 0.2559(2) 0.17920(17) 0.79156(14)
N3 N -0.2889(2) 0.2939(2) 0.79470(15)
C10 C -0.3375(3) 0.3531(2) 0.72397(18)
H16 H -0.43160 0.33510 0.71160
N4 N -0.2798(3) 0.4691(2) 0.75852(16)
C11 C -0.2399(3) 0.4767(3) 0.8390(2)
C12 C -0.2699(3) 0.3644(3) 0.87182(19)
C13 C -0.2973(3) 0.3316(2) 0.64744(19)
C14 C -0.3812(4) 0.2955(3) 0.5752(2)
H17 H -0.35270 0.28330 0.52860
H18 H -0.46890 0.28220 0.57080
C15 C -0.1167(4) 0.3301(4) 0.5967(2)
H19 H -0.02450 0.34930 0.61530
H20 H -0.14150 0.37210 0.55030
H21 H -0.14940 0.25240 0.57980
C16 C -0.1816(5) 0.5844(3) 0.8885(2)
H22 H -0.17270 0.64320 0.85160
H23 H -0.09840 0.58540 0.92300
H24 H -0.23600 0.59440 0.92320
C17 C -0.3896(4) 0.3446(4) 0.9055(2)
H25 H -0.45920 0.35810 0.86340
H26 H -0.37140 0.39400 0.95390
H27 H -0.41360 0.26940 0.92030
C18 C -0.1585(3) 0.3437(3) 0.9379(2)
H28 H -0.08400 0.35610 0.91610
H29 H -0.18180 0.26860 0.95310
H30 H -0.13950 0.39340 0.98620
O4 O -0.3848(2) 0.19055(19) 0.79140(15)
O5 O -0.1683(2) 0.3543(2) 0.66310(14)
O6 O -0.2783(3) 0.54927(18) 0.70841(14)
N5 N 0.2597(2) 0.4358(2) 0.72123(15)
C19 C 0.3091(3) 0.5180(2) 0.66572(19)
H31 H 0.40220 0.54980 0.68720
N6 N 0.2411(3) 0.6018(2) 0.67418(16)
C20 C 0.1929(3) 0.5898(3) 0.7380(2)
C21 C 0.2309(3) 0.4989(3) 0.78724(19)
C22 C 0.2793(3) 0.4720(2) 0.5780(2)
C23 C 0.3711(4) 0.4626(3) 0.5438(3)
H32 H 0.35030 0.43130 0.48950
H33 H 0.45680 0.48720 0.57370
C24 C 0.1072(4) 0.3920(3) 0.4599(2)
H34 H 0.01490 0.37360 0.44300
H35 H 0.13450 0.32610 0.45720
H36 H 0.14260 0.44380 0.42350
C25 C 0.1184(5) 0.6634(4) 0.7589(3)
H37 H 0.10890 0.71470 0.71640
H38 H 0.16340 0.70370 0.81170
H39 H 0.03490 0.61950 0.76210
C26 C 0.3498(4) 0.5500(4) 0.8590(2)
H40 H 0.41580 0.59720 0.83710
H41 H 0.38100 0.49200 0.88680
H42 H 0.32680 0.59260 0.89790
C27 C 0.1248(4) 0.4229(3) 0.8192(2)
H43 H 0.05180 0.39180 0.77320
H44 H 0.09990 0.46440 0.85790
H45 H 0.15520 0.36440 0.84670
O7 O 0.3605(2) 0.3859(2) 0.75608(15)
O8 O 0.1512(2) 0.44056(19) 0.54333(13)
O9 O 0.2406(2) 0.67960(18) 0.62167(14)
N7 N -0.2819(2) -0.2018(2) 0.78013(15)
C28 C -0.3276(3) -0.1392(2) 0.83520(19)
H46 H -0.42080 -0.15110 0.81500
N8 N -0.2591(3) -0.0241(2) 0.82343(16)
C29 C -0.2109(4) -0.0171(3) 0.7597(2)
C30 C -0.2492(3) -0.1283(3) 0.71309(19)
C31 C -0.2943(3) -0.1657(3) 0.9243(2)
C32 C -0.3817(4) -0.2057(3) 0.9652(3)
H47 H -0.35680 -0.22040 1.02080
H48 H -0.46860 -0.21930 0.93850
C33 C -0.1155(4) -0.1660(4) 1.0384(2)
H49 H -0.02310 -0.14490 1.05180
H50 H -0.14670 -0.24400 1.04390
H51 H -0.14360 -0.12550 1.07590
C34 C -0.1361(5) 0.0900(3) 0.7363(3)
H52 H -0.12480 0.14760 0.77790
H53 H -0.18180 0.10740 0.68330
H54 H -0.05340 0.08410 0.73270
C35 C -0.3633(4) -0.1350(4) 0.6385(2)
H55 H -0.43160 -0.11810 0.65720
H56 H -0.39300 -0.20850 0.61170
H57 H -0.33710 -0.08270 0.59960
C36 C -0.1394(4) -0.1560(4) 0.6854(3)
H58 H -0.06890 -0.15190 0.73320
H59 H -0.11140 -0.10400 0.64680
H60 H -0.16880 -0.22960 0.65890
O10 O -0.3855(2) -0.2980(2) 0.74631(16)
O11 O -0.1646(2) -0.1415(2) 0.95451(13)
O12 O -0.2574(3) 0.05640(19) 0.87454(14)
H61 H 0.317(4) -0.197(4) 0.673(3)
H62 H 0.313(4) 0.311(4) 0.766(3)
H63 H -0.335(4) 0.140(3) 0.818(3)
H64 H -0.340(4) -0.359(4) 0.742(3)
#END
