
#######################################################################
#
#                 Cambridge Crystallographic Data Centre
#                                CCDC
#
#######################################################################
#
# If this CIF has been generated from an entry in the Cambridge
# Structural Database, then it will include bibliographic, chemical,
# crystal, experimental, refinement or atomic coordinate data resulting
# from the CCDC's data processing and validation procedures.
#
#######################################################################

data_CSD_CIF_WEHLOL
_audit_creation_date 2006-07-12
_audit_creation_method CSD-ConQuest-V1
_database_code_CSD WEHLOL
_database_code_depnum_ccdc_archive 'CCDC 607894'
_chemical_formula_sum 'C11 H20 N2 O3'
_chemical_formula_moiety
;
C11 H20 N2 O3
;
_journal_coden_Cambridge 388
_journal_volume 41
_journal_year 2005
_journal_page_first 1453
_journal_name_full 'Zh.Org.Khim.(Russ.)(Russ.J.Org.Chem.) '
loop_
_publ_author_name
"N.A.Keiko"
"E.A.Funtikova"
"L.I.Larina"
"G.I.Sarapulova"
"D.G.Mazhukin"
"T.V.Rybalova"
"A.Ya.Tikhonov"
_chemical_name_systematic
;
2-(1-Ethoxyethenyl)-1,3-dihydroxyperhydrobenzimidazole
;
_chemical_melting_point 465.15
_cell_volume   1206.194
_exptl_crystal_colour 'colorless'
_exptl_crystal_density_diffrn 1.257
_exptl_special_details
;
Melting point range 465.15-467.15K

;
_exptl_crystal_description 'prism'
_diffrn_ambient_temperature 295
#These two values have been output from a single CSD field.
_refine_ls_R_factor_gt 0.0663
_refine_ls_wR_factor_gt 0.0663
_symmetry_cell_setting monoclinic
_symmetry_space_group_name_H-M 'P 21/n'
_symmetry_Int_Tables_number 14
loop_
_symmetry_equiv_pos_site_id
_symmetry_equiv_pos_as_xyz
1 x,y,z
2 1/2-x,1/2+y,1/2-z
3 -x,-y,-z
4 -1/2+x,-1/2-y,-1/2+z
_cell_length_a 10.473(3)
_cell_length_b 9.981(3)
_cell_length_c 12.144(4)
_cell_angle_alpha 90
_cell_angle_beta 108.16(2)
_cell_angle_gamma 90
_cell_formula_units_Z 4
loop_
_atom_type_symbol
_atom_type_radius_bond
C 0.68
H 0.23
N 0.68
O 0.68
loop_
_atom_site_label
_atom_site_type_symbol
_atom_site_fract_x
_atom_site_fract_y
_atom_site_fract_z
O1 O 0.5357(2) 0.1526(3) 0.9762(2)
O2 O 0.7613(2) -0.1788(3) 0.9534(2)
O3 O 0.9277(3) 0.1390(3) 0.9370(2)
C1 C 0.7365(3) 0.1111(4) 1.1336(3)
N1 N 0.6431(3) 0.0572(3) 1.0235(2)
C2 C 0.7218(3) 0.0516(4) 0.9409(3)
N2 N 0.8630(2) 0.0764(3) 1.0123(2)
C3 C 0.8488(3) 0.1761(4) 1.0972(3)
C4 C 0.9786(4) 0.2016(5) 1.1954(4)
C5 C 1.0185(4) 0.0862(5) 1.2803(4)
C6 C 0.9031(4) 0.0446(6) 1.3227(4)
C7 C 0.7847(4) -0.0003(5) 1.2203(3)
C8 C 0.7014(3) -0.0792(4) 0.8788(3)
C9 C 0.6294(4) -0.0927(6) 0.7698(4)
C10 C 0.7330(4) -0.3154(5) 0.9146(4)
C11 C 0.8281(5) -0.4028(6) 1.0015(5)
H1 H 0.688(3) 0.174(4) 1.160(3)
H2 H 1.003(4) 0.095(4) 0.948(4)
H3 H 0.710(3) -0.022(4) 1.250(3)
H4 H 0.877(4) 0.118(5) 1.371(4)
H5 H 0.817(4) -0.081(5) 1.189(4)
H6 H 0.813(3) 0.267(5) 1.056(3)
H7 H 1.048(4) 0.011(5) 1.242(4)
H8 H 0.619(3) -0.177(4) 0.729(3)
H9 H 0.691(3) 0.122(3) 0.889(3)
H10 H 1.057(4) 0.226(4) 1.157(3)
H11 H 1.098(4) 0.112(4) 1.348(3)
H12 H 0.592(4) -0.014(5) 0.721(4)
H13 H 0.745(3) -0.317(4) 0.837(3)
H14 H 0.918(4) -0.387(4) 1.007(3)
H15 H 0.934(4) -0.027(5) 1.383(4)
H16 H 0.964(4) 0.284(5) 1.238(4)
H17 H 0.825(4) -0.385(5) 1.087(4)
H18 H 0.458(4) 0.096(4) 0.969(3)
H19 H 0.809(5) -0.497(6) 0.984(4)
H20 H 0.638(4) -0.335(4) 0.911(3)
#END
