
#######################################################################
#
#                 Cambridge Crystallographic Data Centre
#                                CCDC
#
#######################################################################
#
# If this CIF has been generated from an entry in the Cambridge
# Structural Database, then it will include bibliographic, chemical,
# crystal, experimental, refinement or atomic coordinate data resulting
# from the CCDC's data processing and validation procedures.
#
#######################################################################

data_CSD_CIF_WEHLAX
_audit_creation_date 2006-07-11
_audit_creation_method CSD-ConQuest-V1
_database_code_CSD WEHLAX
_database_code_depnum_ccdc_archive 'CCDC 607891'
_chemical_formula_sum 'C12 H16 N4 O5'
_chemical_formula_moiety
;
C12 H16 N4 O5
;
_journal_coden_Cambridge 95
_journal_year 2005
_journal_page_first 2105
_journal_name_full 'Izv.Akad.Nauk SSSR,Ser.Khim.(Russ.)(Russ.Chem.Bull.) '
loop_
_publ_author_name
"E.V.Tret'yakov"
"S.E.Tolstikov"
"G.V.Romanenko"
"Yu.G.Shvedenkov"
"R.Z.Sagdeev"
"V.I.Ovcharenko"
_chemical_name_systematic
;
4,4,5,5-Tetramethyl-2-(4,5-dicarboxy-1H-pyrazol-3-yl)-4,5-dihydro-1H-imidazole
-3-oxide
;
_cell_volume   1379.842
_exptl_crystal_colour 'light brown'
_exptl_crystal_density_diffrn 1.426
_diffrn_ambient_temperature 273
#These two values have been output from a single CSD field.
_refine_ls_R_factor_gt 0.0373
_refine_ls_wR_factor_gt 0.0373
_symmetry_cell_setting monoclinic
_symmetry_space_group_name_H-M 'P 21/n'
_symmetry_Int_Tables_number 14
loop_
_symmetry_equiv_pos_site_id
_symmetry_equiv_pos_as_xyz
1 x,y,z
2 1/2-x,1/2+y,1/2-z
3 -x,-y,-z
4 -1/2+x,-1/2-y,-1/2+z
_cell_length_a 7.2370(16)
_cell_length_b 14.765(3)
_cell_length_c 12.938(3)
_cell_angle_alpha 90
_cell_angle_beta 93.541(3)
_cell_angle_gamma 90
_cell_formula_units_Z 4
loop_
_atom_type_symbol
_atom_type_radius_bond
C 0.68
H 0.23
N 0.68
O 0.68
loop_
_atom_site_label
_atom_site_type_symbol
_atom_site_fract_x
_atom_site_fract_y
_atom_site_fract_z
O1 O 0.03675(19) 0.27255(9) 0.66172(10)
H1 H 0.020(4) 0.217(2) 0.695(2)
N1 N -0.1867(2) 0.30368(11) 0.42043(12)
H2 H -0.278(3) 0.3306(14) 0.3795(16)
C1 C -0.1013(3) 0.21542(13) 0.39437(15)
O2 O 0.13002(17) 0.45657(9) 0.60957(11)
N2 N -0.0409(2) 0.26111(10) 0.56292(11)
C2 C -0.0303(4) 0.21709(19) 0.28625(18)
H3 H 0.052(3) 0.1651(16) 0.2775(17)
H4 H 0.050(3) 0.2717(17) 0.2746(18)
H5 H -0.132(4) 0.2229(18) 0.233(2)
N3 N -0.4871(2) 0.46315(10) 0.61914(11)
H6 H -0.612(3) 0.4749(14) 0.6209(15)
O3 O 0.0532(2) 0.53565(10) 0.74478(12)
H7 H -0.061(4) 0.5552(19) 0.774(2)
C3 C -0.2491(4) 0.14268(18) 0.4026(2)
H8 H -0.291(4) 0.1357(19) 0.475(2)
H9 H -0.349(3) 0.1589(16) 0.3511(19)
H10 H -0.196(4) 0.082(2) 0.378(2)
N4 N -0.4369(2) 0.39314(10) 0.56142(12)
O4 O -0.2419(2) 0.60449(10) 0.80143(12)
C4 C 0.0550(2) 0.20993(12) 0.48271(15)
O5 O -0.52223(19) 0.62644(9) 0.72574(11)
C5 C 0.2283(3) 0.26257(17) 0.4605(2)
H11 H 0.193(3) 0.3238(17) 0.4362(18)
H12 H 0.294(3) 0.2296(15) 0.4021(19)
H13 H 0.305(3) 0.2626(16) 0.524(2)
C6 C 0.1040(4) 0.11483(15) 0.5193(2)
H14 H 0.149(3) 0.0801(16) 0.4581(19)
H15 H -0.007(3) 0.0778(17) 0.5416(17)
H16 H 0.198(3) 0.1184(15) 0.5732(19)
C7 C -0.1576(2) 0.32034(12) 0.52053(13)
C8 C -0.2528(2) 0.39161(12) 0.57414(13)
C9 C -0.1849(2) 0.46056(12) 0.64131(13)
C10 C 0.0114(3) 0.48409(12) 0.66424(15)
C11 C -0.3440(2) 0.50533(12) 0.66865(13)
C12 C -0.3715(3) 0.58492(13) 0.73713(15)
#END
