
#######################################################################
#
#                 Cambridge Crystallographic Data Centre
#                                CCDC
#
#######################################################################
#
# If this CIF has been generated from an entry in the Cambridge
# Structural Database, then it will include bibliographic, chemical,
# crystal, experimental, refinement or atomic coordinate data resulting
# from the CCDC's data processing and validation procedures.
#
#######################################################################

data_CSD_CIF_WEHTIM
_audit_creation_date 1994-09-09
_audit_creation_method CSD-ConQuest-V1
_database_code_CSD WEHTIM
_chemical_formula_sum 'C27 H37 N1 O19'
_chemical_formula_moiety
;
C27 H37 N1 O19
;
_journal_coden_Cambridge 156
_journal_volume 248
_journal_year 1993
_journal_page_first 37
_journal_name_full 'Carbohydr.Res. '
loop_
_publ_author_name
"P.Koll"
"M.Petrusova"
"L.Petrus"
"B.Zimmer"
"M.Morf"
"J.Kopf"
_chemical_name_systematic
;
\b-Maltosylnitromethane hepta-acetate
;
_chemical_melting_point 463.65
_cell_volume   1695.609
_exptl_crystal_colour 'colorless'
_exptl_crystal_density_diffrn 1.331
_exptl_special_details
;
Melts with decomposition.

;
_diffrn_ambient_temperature ?
_diffrn_special_details
;
The study was carried out at room temperature,in the range 283-303K

;
_refine_special_details
;
The structure may be disordered.

;
#These two values have been output from a single CSD field.
_refine_ls_R_factor_gt 0.0459
_refine_ls_wR_factor_gt 0.0459
_symmetry_cell_setting monoclinic
_symmetry_space_group_name_H-M 'P 21'
_symmetry_Int_Tables_number 4
loop_
_symmetry_equiv_pos_site_id
_symmetry_equiv_pos_as_xyz
1 x,y,z
2 -x,1/2+y,-z
_cell_length_a 5.624(1)
_cell_length_b 13.879(2)
_cell_length_c 21.743(3)
_cell_angle_alpha 90
_cell_angle_beta 92.45(2)
_cell_angle_gamma 90
_cell_formula_units_Z 2
loop_
_atom_type_symbol
_atom_type_radius_bond
C 0.68
H 0.23
N 0.68
O 0.68
loop_
_atom_site_label
_atom_site_type_symbol
_atom_site_fract_x
_atom_site_fract_y
_atom_site_fract_z
N1 N 0.7061(4) -0.5034(2) 0.4758(1)
O1 O 0.8987(4) -0.5022(3) 0.4534(1)
O2 O 0.6696(6) -0.4661(3) 0.5242(1)
O3 O 0.4176(3) -0.4168(1) 0.3822(1)
O4 O 0.3517(4) -0.6648(1) 0.3352(1)
O5 O 0.0102(7) -0.7290(3) 0.3638(2)
O6 O -0.0182(3) -0.5653(1) 0.2590(1)
O7 O 0.1718(4) -0.6706(2) 0.2003(1)
O8 O 0.1318(3) -0.2594(2) 0.3796(1)
O9 O 0.3628(5) -0.2080(3) 0.4586(1)
C1 C 0.5077(5) -0.5530(2) 0.4418(1)
C2 C 0.4735(4) -0.5153(2) 0.3771(1)
C3 C 0.2680(4) -0.5693(2) 0.3441(1)
C4 C 0.2103(8) -0.7394(3) 0.3481(2)
C5 C 0.3338(16) -0.8329(4) 0.3391(4)
C6 C 0.2041(4) -0.5234(2) 0.2824(1)
C7 C -0.0085(4) -0.6423(2) 0.2213(1)
C8 C -0.2493(6) -0.6849(3) 0.2091(2)
C9 C 0.1649(4) -0.4149(2) 0.2885(1)
C10 C 0.3752(4) -0.3690(2) 0.3250(1)
C11 C 0.3341(5) -0.2651(2) 0.3408(1)
C12 C 0.1741(6) -0.2365(3) 0.4383(2)
C13 C -0.0384(8) -0.2499(4) 0.4762(2)
O10 O 0.1593(3) -0.3698(1) 0.2295(1)
O11 O 0.1404(3) -0.4386(1) 0.1120(1)
O12 O -0.1556(4) -0.5256(3) 0.0735(3)
O13 O 0.1231(3) -0.2644(2) 0.0472(1)
O14 O 0.5198(3) -0.2647(3) 0.0521(1)
O15 O 0.1358(3) -0.1020(1) 0.1304(1)
O16 O -0.1453(4) -0.0077(2) 0.0861(2)
O17 O -0.1980(3) -0.2843(1) 0.2129(1)
O18 O -0.2840(5) -0.1060(2) 0.2832(1)
O19 O -0.0473(25) 0.0070(9) 0.2811(3)
C14 C -0.0636(4) -0.3650(2) 0.1967(1)
C15 C -0.0147(4) -0.3617(2) 0.1287(1)
C16 C 0.0519(5) -0.5127(2) 0.0810(2)
C17 C 0.2393(6) -0.5799(3) 0.0610(2)
C18 C 0.1114(4) -0.2691(2) 0.1132(1)
C19 C 0.3377(4) -0.2657(2) 0.0222(1)
C20 C 0.3111(5) -0.2672(3) -0.0455(1)
C21 C -0.0244(4) -0.1825(2) 0.1341(1)
C22 C 0.0555(5) -0.0193(3) 0.1039(2)
C23 C 0.2500(9) 0.0527(4) 0.1005(5)
C24 C -0.0908(5) -0.1930(2) 0.2011(1)
C25 C -0.2712(6) -0.1173(3) 0.2177(2)
C26 C -0.1863(14) -0.0353(5) 0.3089(3)
C27 C -0.2053(14) -0.0288(5) 0.3770(3)
H1 H 0.3621(5) -0.5438(2) 0.46345(13)
H2 H 0.5404(5) -0.6215(2) 0.44055(13)
H3 H 0.6185(4) -0.5233(2) 0.35502(11)
H4 H 0.1303(4) -0.5701(2) 0.36948(11)
H5 H 0.5025(30) -0.8252(16) 0.349(4)
H6 H 0.3107(31) -0.8531(32) 0.2965(10)
H7 H 0.269(11) -0.8812(16) 0.3658(29)
H8 H 0.3287(4) -0.5357(2) 0.25391(10)
H9 H -0.3486(20) -0.6394(11) 0.1859(14)
H10 H -0.3209(27) -0.6991(24) 0.2478(2)
H11 H -0.2349(9) -0.7438(14) 0.1855(14)
H12 H 0.0177(4) -0.4025(2) 0.30884(10)
H13 H 0.5165(4) -0.3738(2) 0.30111(11)
H14 H 0.4742(5) -0.2388(2) 0.36231(12)
H15 H 0.3032(5) -0.2280(2) 0.30355(12)
H16 H -0.0422(60) -0.3157(13) 0.4912(23)
H17 H -0.1818(10) -0.2370(43) 0.4512(8)
H18 H -0.0294(56) -0.2059(31) 0.5109(16)
H19 H -0.1534(4) -0.4229(2) 0.20504(11)
H20 H -0.1635(4) -0.3662(2) 0.10462(10)
H21 H 0.3043(55) -0.6152(23) 0.0964(4)
H22 H 0.3652(38) -0.5435(4) 0.0426(18)
H23 H 0.1708(18) -0.6248(20) 0.0310(15)
H24 H 0.2708(4) -0.2690(2) 0.13206(10)
H25 H 0.1986(43) -0.2179(15) -0.0592(2)
H26 H 0.2531(53) -0.3299(8) -0.0590(2)
H27 H 0.4641(12) -0.2548(23) -0.06292(13)
H28 H -0.1656(4) -0.1723(2) 0.10775(12)
H29 H 0.3883(26) 0.0226(9) 0.0835(17)
H30 H 0.2912(48) 0.0766(21) 0.1415(6)
H31 H 0.1974(27) 0.1058(15) 0.0744(16)
H32 H 0.0511(5) -0.1857(2) 0.22765(12)
H33 H -0.2282(6) -0.0562(3) 0.1997(2)
H34 H -0.4267(6) -0.1355(3) 0.2005(2)
H35 H -0.240(12) -0.0920(11) 0.3934(5)
H36 H -0.3325(84) 0.0153(39) 0.3865(3)
H37 H -0.0562(44) -0.0053(48) 0.3955(4)
#END
