
#######################################################################
#
#                 Cambridge Crystallographic Data Centre
#                                CCDC
#
#######################################################################
#
# If this CIF has been generated from an entry in the Cambridge
# Structural Database, then it will include bibliographic, chemical,
# crystal, experimental, refinement or atomic coordinate data resulting
# from the CCDC's data processing and validation procedures.
#
#######################################################################

data_CSD_CIF_WEHTEI
_audit_creation_date 1994-09-09
_audit_creation_method CSD-ConQuest-V1
_database_code_CSD WEHTEI
_chemical_formula_sum 'C13 H23 N1 O12'
_chemical_formula_moiety
;
C13 H23 N1 O12
;
_journal_coden_Cambridge 156
_journal_volume 248
_journal_year 1993
_journal_page_first 37
_journal_name_full 'Carbohydr.Res. '
loop_
_publ_author_name
"P.Koll"
"M.Petrusova"
"L.Petrus"
"B.Zimmer"
"M.Morf"
"J.Kopf"
_chemical_name_systematic
;
\b-Cellobiosylnitromethane
;
_chemical_melting_point 504.15
_cell_volume   1643.829
_exptl_crystal_colour 'colorless'
_exptl_crystal_density_diffrn 1.557
_exptl_special_details
;
Melts with decomposition.

;
_diffrn_ambient_temperature ?
_diffrn_special_details
;
The study was carried out at room temperature,in the range 283-303K

;
#These two values have been output from a single CSD field.
_refine_ls_R_factor_gt 0.063
_refine_ls_wR_factor_gt 0.063
_symmetry_cell_setting orthorhombic
_symmetry_space_group_name_H-M 'P 21 21 21'
_symmetry_Int_Tables_number 19
loop_
_symmetry_equiv_pos_site_id
_symmetry_equiv_pos_as_xyz
1 x,y,z
2 1/2+x,1/2-y,-z
3 -x,1/2+y,1/2-z
4 1/2-x,-y,1/2+z
_cell_length_a 7.246(1)
_cell_length_b 9.243(1)
_cell_length_c 24.544(3)
_cell_angle_alpha 90
_cell_angle_beta 90
_cell_angle_gamma 90
_cell_formula_units_Z 4
loop_
_atom_type_symbol
_atom_type_radius_bond
C 0.68
H 0.23
N 0.68
O 0.68
loop_
_atom_site_label
_atom_site_type_symbol
_atom_site_fract_x
_atom_site_fract_y
_atom_site_fract_z
N1 N -0.3403(4) 0.2715(3) -0.0299(1)
O1 O -0.2602(7) 0.1969(4) -0.0618(1)
O2 O -0.3659(8) 0.2362(5) 0.0162(1)
O3 O -0.1682(3) 0.5604(2) -0.0510(1)
O4 O -0.5416(4) 0.5421(3) -0.1496(1)
O5 O -0.4006(3) 0.8304(3) -0.1647(1)
O6 O 0.2140(4) 0.5897(3) -0.0161(1)
C1 C -0.4287(4) 0.4079(3) -0.0485(1)
C2 C -0.3037(4) 0.4959(3) -0.0850(1)
C3 C -0.4153(4) 0.6130(3) -0.1142(1)
C4 C -0.2892(4) 0.7140(3) -0.1451(1)
C5 C -0.1309(4) 0.7675(3) -0.1095(1)
C6 C -0.0342(4) 0.6431(3) -0.0801(1)
C7 C 0.1013(5) 0.6989(3) -0.0384(1)
O7 O 0.0081(3) 0.8362(2) -0.1428(1)
O8 O 0.3108(4) 1.0073(3) -0.1086(1)
O9 O 0.3654(3) 1.2605(3) -0.1710(1)
O10 O 0.0206(4) 1.4055(2) -0.2004(1)
O11 O -0.1054(3) 1.0240(2) -0.1916(1)
O12 O -0.4193(4) 1.1155(3) -0.2423(1)
C8 C 0.0039(4) 0.9860(3) -0.1450(1)
C9 C 0.1992(4) 1.0447(3) -0.1532(1)
C10 C 0.1846(4) 1.2091(3) -0.1586(1)
C11 C 0.0484(4) 1.2533(3) -0.2023(1)
C12 C -0.1370(4) 1.1775(3) -0.1955(1)
C13 C -0.2614(5) 1.2022(3) -0.2442(1)
H1 H -0.5110(88) 0.5579(98) -0.18245(12)
H2 H -0.3324(9) 0.8923(24) -0.1806(16)
H3 H 0.1527(17) 0.5414(28) 0.0072(12)
H4 H -0.4621(4) 0.4654(3) -0.01700(13)
H5 H -0.5411(4) 0.3848(3) -0.06815(13)
H6 H -0.2447(4) 0.4333(3) -0.11154(11)
H7 H -0.4841(4) 0.6682(3) -0.08739(11)
H8 H -0.2381(4) 0.6625(3) -0.17607(11)
H9 H -0.1775(4) 0.8362(3) -0.08294(10)
H10 H 0.0289(4) 0.5820(3) -0.10631(10)
H11 H 0.1791(5) 0.7715(3) -0.05525(13)
H12 H 0.0335(5) 0.7454(3) -0.00911(13)
H13 H 0.2542(31) 1.0266(56) -0.07915(14)
H14 H 0.3721(21) 1.3502(12) -0.1638(19)
H15 H 0.0671(66) 1.4443(7) -0.2286(11)
H16 H -0.5007(61) 1.1561(63) -0.2226(41)
H17 H -0.0502(4) 1.0253(3) -0.11205(10)
H18 H 0.2513(4) 1.0046(3) -0.18632(13)
H19 H 0.1456(4) 1.2495(3) -0.12403(12)
H20 H 0.0991(4) 1.2281(3) -0.23765(11)
H21 H -0.1973(4) 1.2117(3) -0.16268(10)
H22 H -0.2980(5) 1.3031(3) -0.24522(12)
H23 H -0.1935(5) 1.1813(3) -0.27730(12)
#END
