
#######################################################################
#
#                 Cambridge Crystallographic Data Centre
#                                CCDC
#
#######################################################################
#
# If this CIF has been generated from an entry in the Cambridge
# Structural Database, then it will include bibliographic, chemical,
# crystal, experimental, refinement or atomic coordinate data resulting
# from the CCDC's data processing and validation procedures.
#
#######################################################################

data_CSD_CIF_WEJCUJ
_audit_creation_date 1994-07-28
_audit_creation_method CSD-ConQuest-V1
_database_code_CSD WEJCUJ
_chemical_formula_sum 'C24 H21 N3 O1'
_chemical_formula_moiety
;
C24 H21 N3 O1
;
_journal_coeditor_code "IUCr NA1035"
_journal_coden_Cambridge 591
_journal_volume 50
_journal_year 1994
_journal_page_first 428
_journal_name_full 'Acta Crystallogr.,Sect.C:Cryst.Struct.Commun. '
loop_
_publ_author_name
"G.Bruno"
"F.Nicolo"
"F.Foti"
"G.Grassi"
"F.Risitano"
"G.De Munno"
_chemical_name_systematic
;
(Z)-1-Benzoyl-5-benzyl-4-methyl-2-phenylimidazole oxime
;
_cell_volume   2039.731
_exptl_crystal_colour 'colorless'
_exptl_crystal_density_diffrn 1.2
_diffrn_ambient_temperature ?
_diffrn_special_details
;
The study was carried out at room temperature,in the range 283-303K

;
#These two values have been output from a single CSD field.
_refine_ls_R_factor_gt 0.048
_refine_ls_wR_factor_gt 0.048
_symmetry_cell_setting orthorhombic
_symmetry_space_group_name_H-M 'P 21 21 21'
_symmetry_Int_Tables_number 19
loop_
_symmetry_equiv_pos_site_id
_symmetry_equiv_pos_as_xyz
1 x,y,z
2 1/2+x,1/2-y,-z
3 -x,1/2+y,1/2-z
4 1/2-x,-y,1/2+z
_cell_length_a 9.157(1)
_cell_length_b 12.264(1)
_cell_length_c 18.163(2)
_cell_angle_alpha 90
_cell_angle_beta 90
_cell_angle_gamma 90
_cell_formula_units_Z 4
loop_
_atom_type_symbol
_atom_type_radius_bond
C 0.68
H 0.23
N 0.68
O 0.68
loop_
_atom_site_label
_atom_site_type_symbol
_atom_site_fract_x
_atom_site_fract_y
_atom_site_fract_z
N1 N 0.0465(3) 0.2004(2) 0.7782(2)
C1 C 0.1154(4) 0.2827(3) 0.7467(2)
N2 N 0.1952(3) 0.3383(2) 0.7983(2)
C2 C 0.1722(4) 0.2877(3) 0.8661(2)
C3 C 0.0811(4) 0.2018(3) 0.8517(2)
C4 C 0.0244(7) 0.1194(5) 0.9049(3)
C5 C 0.2287(5) 0.3289(4) 0.9376(2)
C6 C 0.1129(5) 0.3827(3) 0.9852(2)
C7 C 0.0151(7) 0.4571(5) 0.9555(3)
C8 C -0.0847(8) 0.5096(6) 0.9995(4)
C9 C -0.0898(9) 0.4888(6) 1.0736(4)
C10 C 0.0060(9) 0.4151(6) 1.1036(3)
C11 C 0.1047(7) 0.3613(5) 1.0592(3)
C12 C 0.2757(3) 0.4374(3) 0.7882(2)
N3 N 0.2145(3) 0.5275(3) 0.7753(2)
O1 O 0.0651(3) 0.5204(2) 0.7732(2)
C13 C 0.4372(4) 0.4297(3) 0.7920(2)
C14 C 0.5059(4) 0.3305(3) 0.7794(3)
C15 C 0.6581(5) 0.3225(4) 0.7802(3)
C16 C 0.7399(5) 0.4122(5) 0.7934(4)
C17 C 0.6731(6) 0.5120(5) 0.8071(3)
C18 C 0.5215(5) 0.5211(4) 0.8068(3)
C19 C 0.1058(4) 0.3083(3) 0.6678(2)
C20 C 0.2221(6) 0.3510(4) 0.6278(3)
C21 C 0.2054(8) 0.3713(4) 0.5530(3)
C22 C 0.0770(9) 0.3493(4) 0.5189(3)
C23 C -0.0376(8) 0.3065(5) 0.5572(3)
C24 C -0.0254(6) 0.2864(4) 0.6319(3)
H1 H 0.047(6) 0.591(5) 0.760(3)
H2 H -0.1085(6) 0.2568(4) 0.6594(3)
H3 H -0.1292(8) 0.2900(5) 0.5317(3)
H4 H 0.067(1) 0.3642(4) 0.4662(3)
H5 H 0.2869(8) 0.4017(4) 0.5247(3)
H6 H 0.3152(6) 0.3667(4) 0.6522(3)
H7 H 0.0622(7) 0.1353(5) 0.9542(3)
H8 H 0.0562(7) 0.0465(5) 0.8898(3)
H9 H -0.0826(7) 0.1222(5) 0.9057(3)
H10 H 0.2700(5) 0.2673(4) 0.9649(2)
H11 H 0.3055(5) 0.3825(4) 0.9276(2)
H12 H 0.0172(7) 0.4723(5) 0.9025(3)
H13 H -0.1527(8) 0.5622(6) 0.9778(4)
H14 H -0.1610(9) 0.5263(6) 1.1049(4)
H15 H 0.004(1) 0.4005(6) 1.1566(3)
H16 H 0.1703(7) 0.3070(5) 1.0810(3)
H17 H 0.4470(4) 0.2653(3) 0.7698(3)
H18 H 0.7055(5) 0.2521(4) 0.7713(3)
H19 H 0.8467(5) 0.4068(5) 0.7934(4)
H20 H 0.7333(6) 0.5765(5) 0.8170(3)
H21 H 0.4748(5) 0.5915(4) 0.8169(3)
#END
