
#######################################################################
#
#                 Cambridge Crystallographic Data Centre
#                                CCDC
#
#######################################################################
#
# If this CIF has been generated from an entry in the Cambridge
# Structural Database, then it will include bibliographic, chemical,
# crystal, experimental, refinement or atomic coordinate data resulting
# from the CCDC's data processing and validation procedures.
#
#######################################################################

data_CSD_CIF_WEJFUP
_audit_creation_date 2017-08-24
_audit_creation_method CSD-ConQuest-V1
_database_code_CSD WEJFUP
_database_code_depnum_ccdc_archive 'CCDC 823717'
_chemical_formula_sum 'C26 H32 N4 O2'
_chemical_formula_moiety
;
C26 H32 N4 O2
;
_journal_coden_Cambridge 1695
_journal_volume 5
_journal_year 2017
_journal_page_first 9053
_journal_name_full 'J.Mater.Chem.C '
loop_
_publ_author_name
"Y.B.Borozdina"
"E.A.Mostovich"
"Pham Thanh Cong"
"L.Postulka"
"B.Wolf"
"Michael Lang"
"M.Baumgarten"
_chemical_name_systematic
;
2,2'-biphenyl-4,4'-diylbis(4,4,5,5-tetramethyl-4,5-dihydro-1H-imidazole 
1-oxide)
;
_cell_volume   1157.657
_exptl_crystal_colour 'red'
_exptl_crystal_density_diffrn 1.241
_exptl_crystal_description 'prism'
_diffrn_ambient_temperature 120
_refine_special_details
;
O1 and O2 disordered over two sites with occupancies 0.5000:0.5000.

;
#These two values have been output from a single CSD field.
_refine_ls_R_factor_gt 0.0518
_refine_ls_wR_factor_gt 0.0518
_symmetry_cell_setting monoclinic
_symmetry_space_group_name_H-M 'P 21/n'
_symmetry_Int_Tables_number 14
loop_
_symmetry_equiv_pos_site_id
_symmetry_equiv_pos_as_xyz
1 x,y,z
2 1/2-x,1/2+y,1/2-z
3 -x,-y,-z
4 -1/2+x,-1/2-y,-1/2+z
_cell_length_a 6.2359(6)
_cell_length_b 10.5265(7)
_cell_length_c 17.6917(9)
_cell_angle_alpha 90
_cell_angle_beta 94.553(4)
_cell_angle_gamma 90
_cell_formula_units_Z 2
loop_
_atom_type_symbol
_atom_type_radius_bond
C 0.68
H 0.23
N 0.68
O 0.68
loop_
_atom_site_label
_atom_site_type_symbol
_atom_site_fract_x
_atom_site_fract_y
_atom_site_fract_z
C1 C 0.0566(3) 0.05528(16) 0.01812(8)
C2 C -0.0412(3) 0.17368(18) 0.02131(11)
C3 C 0.0618(3) 0.27763(17) 0.05567(11)
C4 C 0.2699(3) 0.26630(15) 0.08965(9)
C5 C 0.3712(3) 0.14875(15) 0.08674(11)
C6 C 0.2669(3) 0.04621(16) 0.05134(11)
C7 C 0.3780(3) 0.37656(16) 0.12679(9)
C8 C 0.4714(3) 0.58489(16) 0.15345(10)
C9 C 0.3552(4) 0.69464(19) 0.18812(13)
C10 C 0.6057(4) 0.6359(2) 0.09123(13)
C11 C 0.5981(3) 0.49634(19) 0.21068(10)
C12 C 0.8390(4) 0.5194(3) 0.22120(15)
C13 C 0.5061(4) 0.4926(2) 0.28845(10)
N1 N 0.3128(2) 0.49682(13) 0.11451(8)
N2 N 0.5524(3) 0.36924(16) 0.17614(9)
O1 O 0.1794(5) 0.5419(3) 0.06738(15)
H1 H -0.18370 0.18360 -0.00120
H2 H -0.00910 0.35750 0.05610
H3 H 0.51400 0.13910 0.10890
H4 H 0.33960 -0.03300 0.05010
H5 H 0.27220 0.66310 0.22680
H6 H 0.45790 0.75390 0.20940
H7 H 0.26310 0.73540 0.15020
H8 H 0.67820 0.56760 0.06920
H9 H 0.70830 0.69520 0.11250
H10 H 0.51360 0.67670 0.05340
H11 H 0.90220 0.46100 0.25740
H12 H 0.86650 0.60370 0.23840
H13 H 0.89940 0.50720 0.17410
H14 H 0.59060 0.43670 0.32070
H15 H 0.50970 0.57540 0.30990
H16 H 0.36170 0.46300 0.28300
O2? O 0.6769(5) 0.2851(2) 0.19647(17)
C1B C -0.0566(3) -0.05528(16) -0.01812(8)
C2B C 0.0412(3) -0.17368(18) -0.02131(11)
C3B C -0.0618(3) -0.27763(17) -0.05567(11)
C4B C -0.2699(3) -0.26630(15) -0.08965(9)
C5B C -0.3712(3) -0.14875(15) -0.08674(11)
C6B C -0.2669(3) -0.04621(16) -0.05134(11)
C7B C -0.3780(3) -0.37656(16) -0.12679(9)
C8B C -0.4714(3) -0.58489(16) -0.15345(10)
C9B C -0.3552(4) -0.69464(19) -0.18812(13)
C10B C -0.6057(4) -0.6359(2) -0.09123(13)
C11B C -0.5981(3) -0.49634(19) -0.21068(10)
C12B C -0.8390(4) -0.5194(3) -0.22120(15)
C13B C -0.5061(4) -0.4926(2) -0.28845(10)
N1B N -0.3128(2) -0.49682(13) -0.11451(8)
N2B N -0.5524(3) -0.36924(16) -0.17614(9)
O1B O -0.1794(5) -0.5419(3) -0.06738(15)
H1B H 0.18370 -0.18360 0.00120
H2B H 0.00910 -0.35750 -0.05610
H3B H -0.51400 -0.13910 -0.10890
H4B H -0.33960 0.03300 -0.05010
H5B H -0.27220 -0.66310 -0.22680
H6B H -0.45790 -0.75390 -0.20940
H7B H -0.26310 -0.73540 -0.15020
H8B H -0.67820 -0.56760 -0.06920
H9B H -0.70830 -0.69520 -0.11250
H10B H -0.51360 -0.67670 -0.05340
H11B H -0.90220 -0.46100 -0.25740
H12B H -0.86650 -0.60370 -0.23840
H13B H -0.89940 -0.50720 -0.17410
H14B H -0.59060 -0.43670 -0.32070
H15B H -0.50970 -0.57540 -0.30990
H16B H -0.36170 -0.46300 -0.28300
#END
