
#######################################################################
#
#                 Cambridge Crystallographic Data Centre
#                                CCDC
#
#######################################################################
#
# If this CIF has been generated from an entry in the Cambridge
# Structural Database, then it will include bibliographic, chemical,
# crystal, experimental, refinement or atomic coordinate data resulting
# from the CCDC's data processing and validation procedures.
#
#######################################################################

data_CSD_CIF_WEJGEA
_audit_creation_date 2017-08-24
_audit_creation_method CSD-ConQuest-V1
_database_code_CSD WEJGEA
_database_code_depnum_ccdc_archive 'CCDC 816632'
_chemical_formula_sum 'C26 H30 N6 O4'
_chemical_formula_moiety
;
C26 H30 N6 O4
;
_journal_coden_Cambridge 1695
_journal_volume 5
_journal_year 2017
_journal_page_first 9053
_journal_name_full 'J.Mater.Chem.C '
loop_
_publ_author_name
"Y.B.Borozdina"
"E.A.Mostovich"
"Pham Thanh Cong"
"L.Postulka"
"B.Wolf"
"Michael Lang"
"M.Baumgarten"
_chemical_name_systematic
;
2,2'-(ethyne-1,2-diyldipyridine-5,2-diyl)bis(4,4,5,5-tetramethyl-4,5-dihydro-1
H-imidazole-3-oxyl 1-oxide)
;
_cell_volume   1270.035
_exptl_crystal_colour 'dark blue'
_exptl_crystal_density_diffrn 1.283
_exptl_crystal_description 'prism'
_diffrn_ambient_temperature 120
#These two values have been output from a single CSD field.
_refine_ls_R_factor_gt 0.0426
_refine_ls_wR_factor_gt 0.0426
_symmetry_cell_setting monoclinic
_symmetry_space_group_name_H-M 'P 21/c'
_symmetry_Int_Tables_number 14
loop_
_symmetry_equiv_pos_site_id
_symmetry_equiv_pos_as_xyz
1 x,y,z
2 -x,1/2+y,1/2-z
3 -x,-y,-z
4 x,-1/2-y,-1/2+z
_cell_length_a 10.0305(5)
_cell_length_b 10.5040(7)
_cell_length_c 12.3508(6)
_cell_angle_alpha 90
_cell_angle_beta 102.582(3)
_cell_angle_gamma 90
_cell_formula_units_Z 2
loop_
_atom_type_symbol
_atom_type_radius_bond
C 0.68
H 0.23
N 0.68
O 0.68
loop_
_atom_site_label
_atom_site_type_symbol
_atom_site_fract_x
_atom_site_fract_y
_atom_site_fract_z
O1 O 0.92615(9) 0.10692(10) 0.19121(9)
O2 O 0.50158(10) -0.08600(9) 0.12231(9)
N1 N 0.77025(12) -0.24244(11) 0.15538(10)
N2 N 0.79818(10) 0.08875(10) 0.18377(9)
N3 N 0.59708(10) -0.00466(10) 0.15361(9)
C1 C 0.97035(13) -0.45371(13) 0.01106(12)
C2 C 0.90544(13) -0.34130(13) 0.03949(11)
C3 C 0.82842(14) -0.34471(13) 0.12142(12)
C4 C 0.79039(12) -0.13105(12) 0.10858(11)
C5 C 0.86450(12) -0.11701(12) 0.02652(11)
C6 C 0.92140(13) -0.22457(13) -0.01009(12)
C7 C 0.72883(12) -0.01826(12) 0.14883(10)
C8 C 0.70375(12) 0.19472(12) 0.20053(10)
C9 C 0.68298(15) 0.27412(13) 0.09448(11)
C10 C 0.76906(13) 0.27372(13) 0.30110(11)
C11 C 0.57488(12) 0.11723(12) 0.21167(10)
C12 C 0.43967(13) 0.17634(14) 0.15561(13)
C13 C 0.57207(15) 0.08004(14) 0.33075(11)
H1 H 0.81640 -0.42450 0.15420
H2 H 0.87620 -0.03550 -0.00350
H3 H 0.96960 -0.21960 -0.06820
H4 H 0.62390 0.34360 0.09940
H5 H 0.76870 0.30550 0.08540
H6 H 0.64350 0.22250 0.03270
H7 H 0.70840 0.34010 0.31080
H8 H 0.85200 0.30950 0.28990
H9 H 0.78750 0.22130 0.36530
H10 H 0.42640 0.25290 0.19290
H11 H 0.44020 0.19470 0.08040
H12 H 0.36760 0.11860 0.15860
H13 H 0.55800 0.15370 0.37150
H14 H 0.65670 0.04170 0.36460
H15 H 0.50000 0.02120 0.33020
O1B O 1.07385(9) -1.10692(10) -0.19121(9)
O2B O 1.49842(10) -0.91400(9) -0.12231(9)
N1B N 1.22975(12) -0.75756(11) -0.15538(10)
N2B N 1.20182(10) -1.08875(10) -0.18377(9)
N3B N 1.40292(10) -0.99534(10) -0.15361(9)
C1B C 1.02965(13) -0.54629(13) -0.01106(12)
C2B C 1.09456(13) -0.65870(13) -0.03949(11)
C3B C 1.17158(14) -0.65529(13) -0.12142(12)
C4B C 1.20961(12) -0.86895(12) -0.10858(11)
C5B C 1.13550(12) -0.88299(12) -0.02652(11)
C6B C 1.07860(13) -0.77543(13) 0.01009(12)
C7B C 1.27117(12) -0.98174(12) -0.14883(10)
C8B C 1.29625(12) -1.19472(12) -0.20053(10)
C9B C 1.31702(15) -1.27412(13) -0.09448(11)
C10B C 1.23094(13) -1.27372(13) -0.30110(11)
C11B C 1.42512(12) -1.11723(12) -0.21167(10)
C12B C 1.56033(13) -1.17634(14) -0.15561(13)
C13B C 1.42793(15) -1.08004(14) -0.33075(11)
H1B H 1.18360 -0.57550 -0.15420
H2B H 1.12380 -0.96450 0.00350
H3B H 1.03040 -0.78040 0.06820
H4B H 1.37610 -1.34360 -0.09940
H5B H 1.23130 -1.30550 -0.08540
H6B H 1.35650 -1.22250 -0.03270
H7B H 1.29160 -1.34010 -0.31080
H8B H 1.14800 -1.30950 -0.28990
H9B H 1.21250 -1.22130 -0.36530
H10B H 1.57360 -1.25290 -0.19290
H11B H 1.55980 -1.19470 -0.08040
H12B H 1.63240 -1.11860 -0.15860
H13B H 1.44200 -1.15370 -0.37150
H14B H 1.34330 -1.04170 -0.36460
H15B H 1.50000 -1.02120 -0.33020
#END
