
#######################################################################
#
#                 Cambridge Crystallographic Data Centre
#                                CCDC
#
#######################################################################
#
# If this CIF has been generated from an entry in the Cambridge
# Structural Database, then it will include bibliographic, chemical,
# crystal, experimental, refinement or atomic coordinate data resulting
# from the CCDC's data processing and validation procedures.
#
#######################################################################

data_CSD_CIF_WEJGIE
_audit_creation_date 2017-08-24
_audit_creation_method CSD-ConQuest-V1
_database_code_CSD WEJGIE
_database_code_depnum_ccdc_archive 'CCDC 816630'
_chemical_formula_sum 'C26 H30 N6 O2'
_chemical_formula_moiety
;
C26 H30 N6 O2
;
_journal_coden_Cambridge 1695
_journal_volume 5
_journal_year 2017
_journal_page_first 9053
_journal_name_full 'J.Mater.Chem.C '
loop_
_publ_author_name
"Y.B.Borozdina"
"E.A.Mostovich"
"Pham Thanh Cong"
"L.Postulka"
"B.Wolf"
"Michael Lang"
"M.Baumgarten"
_chemical_name_systematic
;
2,2'-(ethyne-1,2-diyldipyridine-2,5-diyl)bis(4,4,5,5-tetramethyl-4,5-dihydro-1
H-imidazole 1-oxide)
;
_cell_volume   1217.418
_exptl_crystal_colour 'red'
_exptl_crystal_density_diffrn 1.251
_exptl_crystal_description 'prism'
_diffrn_ambient_temperature 120
_refine_special_details
;
N221,N231,O211 and N222,N232,O212 disordered over two sites with occupancies 
0.7657:0.2343.
;
#These two values have been output from a single CSD field.
_refine_ls_R_factor_gt 0.0549
_refine_ls_wR_factor_gt 0.0549
_symmetry_cell_setting triclinic
_symmetry_space_group_name_H-M 'P -1'
_symmetry_Int_Tables_number 2
loop_
_symmetry_equiv_pos_site_id
_symmetry_equiv_pos_as_xyz
1 x,y,z
2 -x,-y,-z
_cell_length_a 7.0420(3)
_cell_length_b 12.9582(9)
_cell_length_c 14.2234(9)
_cell_angle_alpha 94.407(3)
_cell_angle_beta 103.761(3)
_cell_angle_gamma 102.863(3)
_cell_formula_units_Z 2
loop_
_atom_type_symbol
_atom_type_radius_bond
C 0.68
H 0.23
N 0.68
O 0.68
loop_
_atom_site_label
_atom_site_type_symbol
_atom_site_fract_x
_atom_site_fract_y
_atom_site_fract_z
O1 O 0.12872(12) 0.40476(7) 0.12754(5)
N1 N 0.60339(12) 0.41867(6) 0.36338(5)
N2 N 0.19883(11) 0.35109(6) 0.07180(5)
N3 N 0.42935(12) 0.28428(7) 0.01963(5)
C1 C 0.94158(14) 0.48022(7) 0.46249(7)
C2 C 0.80253(13) 0.43622(7) 0.36824(6)
C3 C 0.87609(13) 0.41760(8) 0.28761(7)
C4 C 0.73979(13) 0.38221(7) 0.19745(6)
C5 C 0.53379(12) 0.36705(6) 0.19001(6)
C6 C 0.47531(14) 0.38458(7) 0.27574(6)
C7 C 0.39036(13) 0.33254(7) 0.09297(6)
C8 C 0.25610(15) 0.27472(8) -0.06703(7)
C9 C 0.2148(2) 0.16704(10) -0.12967(8)
C10 C 0.3277(2) 0.36527(11) -0.12368(8)
C11 C 0.07934(14) 0.29039(7) -0.02471(7)
C12 C -0.04815(19) 0.1873(1) -0.00469(9)
C13 C -0.05666(18) 0.35537(10) -0.07925(8)
H1 H 1.01690 0.42990 0.29370
H2 H 0.78300 0.36740 0.14060
H3 H 0.33510 0.37140 0.27140
H4 H 0.10400 0.16090 -0.18480
H5 H 0.33060 0.16160 -0.15100
H6 H 0.18310 0.11140 -0.09190
H7 H 0.22280 0.36410 -0.18020
H8 H 0.36200 0.43250 -0.08400
H9 H 0.44290 0.35420 -0.14280
H10 H -0.12870 0.14540 -0.06450
H11 H -0.13310 0.20470 0.03360
H12 H 0.03770 0.14800 0.03000
H13 H -0.13390 0.31620 -0.14080
H14 H 0.02520 0.42050 -0.08890
H15 H -0.14480 0.37040 -0.04180
N4 N 0.68389(15) 0.09952(8) 0.20829(7)
C14 C 0.49831(15) 0.01831(7) 0.03941(7)
C15 C 0.49975(15) 0.06150(7) 0.13659(6)
C16 C 0.32114(12) 0.06064(7) 0.15284(6)
C17 C 0.31822(14) 0.09730(8) 0.24218(7)
C18 C 0.49143(13) 0.13582(7) 0.31975(6)
C19 C 0.67727(13) 0.13749(7) 0.30171(6)
C20 C 0.48287(14) 0.17009(7) 0.41960(6)
C21 C 0.56884(15) 0.21883(8) 0.58281(6)
C22 C 0.69164(19) 0.33326(9) 0.61741(9)
C23 C 0.6263(2) 0.15049(12) 0.66306(11)
C24 C 0.33706(15) 0.20841(8) 0.54649(7)
C25 C 0.2620(3) 0.30256(14) 0.57691(13)
C26 C 0.2044(2) 0.10834(16) 0.56798(14)
O2 O 0.16539(15) 0.21426(9) 0.37865(7)
N5 N 0.3192(2) 0.20184(11) 0.44118(9)
N6 N 0.6285(3) 0.17348(13) 0.49819(13)
H16 H 0.19960 0.03360 0.10270
H17 H 0.19100 0.09710 0.25410
H18 H 0.79760 0.16210 0.35300
H19 H 0.65670 0.37750 0.56920
H20 H 0.66690 0.35910 0.67660
H21 H 0.83060 0.33430 0.62840
H22 H 0.54950 0.07860 0.64340
H23 H 0.60210 0.17780 0.72180
H24 H 0.76580 0.15310 0.67370
H25 H 0.11990 0.28810 0.55080
H26 H 0.29340 0.31360 0.64620
H27 H 0.32570 0.36490 0.55440
H28 H 0.06620 0.10750 0.54350
H29 H 0.23330 0.10600 0.63640
H30 H 0.23180 0.04800 0.53650
O3? O 0.1244(6) 0.1026(4) 0.3889(3)
N7? N 0.2985(6) 0.1503(4) 0.4398(3)
N8? N 0.6317(10) 0.2102(4) 0.4852(4)
O1A O 1.87128(12) 0.59524(7) 0.87246(5)
N1A N 1.39661(12) 0.58133(6) 0.63662(5)
N2A N 1.80117(11) 0.64891(6) 0.92820(5)
N3A N 1.57065(12) 0.71572(7) 0.98037(5)
C1A C 1.05842(14) 0.51978(7) 0.53751(7)
C2A C 1.19747(13) 0.56378(7) 0.63176(6)
C3A C 1.12391(13) 0.58240(8) 0.71239(7)
C4A C 1.26021(13) 0.61779(7) 0.80255(6)
C5A C 1.46621(12) 0.63295(6) 0.80999(6)
C6A C 1.52469(14) 0.61542(7) 0.72426(6)
C7A C 1.60964(13) 0.66746(7) 0.90703(6)
C8A C 1.74390(15) 0.72528(8) 1.06703(7)
C9A C 1.7852(2) 0.83296(10) 1.12967(8)
C10A C 1.6723(2) 0.63473(11) 1.12368(8)
C11A C 1.92066(14) 0.70961(7) 1.02471(7)
C12A C 2.04815(19) 0.8127(1) 1.00469(9)
C13A C 2.05666(18) 0.64463(10) 1.07925(8)
H1A H 0.98310 0.57010 0.70630
H2A H 1.21700 0.63260 0.85940
H3A H 1.66490 0.62860 0.72860
H4A H 1.89600 0.83910 1.18480
H5A H 1.66940 0.83840 1.15100
H6A H 1.81690 0.88860 1.09190
H7A H 1.77720 0.63590 1.18020
H8A H 1.63800 0.56750 1.08400
H9A H 1.55710 0.64580 1.14280
H10A H 2.12870 0.85460 1.06450
H11A H 2.13310 0.79530 0.96640
H12A H 1.96230 0.85200 0.97000
H13A H 2.13390 0.68380 1.14080
H14A H 1.97480 0.57950 1.08890
H15A H 2.14480 0.62960 1.04180
N4A N 0.31611(15) -0.09952(8) -0.20829(7)
C14A C 0.50169(15) -0.01831(7) -0.03941(7)
C15A C 0.50025(15) -0.06150(7) -0.13659(6)
C16A C 0.67886(12) -0.06064(7) -0.15284(6)
C17A C 0.68178(14) -0.09730(8) -0.24218(7)
C18A C 0.50857(13) -0.13582(7) -0.31975(6)
C19A C 0.32273(13) -0.13749(7) -0.30171(6)
C20A C 0.51713(14) -0.17009(7) -0.41960(6)
C21A C 0.43116(15) -0.21883(8) -0.58281(6)
C22A C 0.30836(19) -0.33326(9) -0.61741(9)
C23A C 0.3737(2) -0.15049(12) -0.66306(11)
C24A C 0.66294(15) -0.20841(8) -0.54649(7)
C25A C 0.7380(3) -0.30256(14) -0.57691(13)
C26A C 0.7956(2) -0.10834(16) -0.56798(14)
O2A O 0.83461(15) -0.21426(9) -0.37865(7)
N5A N 0.6808(2) -0.20184(11) -0.44118(9)
N6A N 0.3715(3) -0.17348(13) -0.49819(13)
H16A H 0.80040 -0.03360 -0.10270
H17A H 0.80900 -0.09710 -0.25410
H18A H 0.20240 -0.16210 -0.35300
H19A H 0.34330 -0.37750 -0.56920
H20A H 0.33310 -0.35910 -0.67660
H21A H 0.16940 -0.33430 -0.62840
H22A H 0.45050 -0.07860 -0.64340
H23A H 0.39790 -0.17780 -0.72180
H24A H 0.23420 -0.15310 -0.67370
H25A H 0.88010 -0.28810 -0.55080
H26A H 0.70660 -0.31360 -0.64620
H27A H 0.67430 -0.36490 -0.55440
H28A H 0.93380 -0.10750 -0.54350
H29A H 0.76670 -0.10600 -0.63640
H30A H 0.76820 -0.04800 -0.53650
#END
