
#######################################################################
#
#                 Cambridge Crystallographic Data Centre
#                                CCDC
#
#######################################################################
#
# If this CIF has been generated from an entry in the Cambridge
# Structural Database, then it will include bibliographic, chemical,
# crystal, experimental, refinement or atomic coordinate data resulting
# from the CCDC's data processing and validation procedures.
#
#######################################################################

data_CSD_CIF_WEJGAW
_audit_creation_date 2017-08-24
_audit_creation_method CSD-ConQuest-V1
_database_code_CSD WEJGAW
_database_code_depnum_ccdc_archive 'CCDC 823716'
_chemical_formula_sum 'C26 H30 N6 O4'
_chemical_formula_moiety
;
C26 H30 N6 O4
;
_journal_coden_Cambridge 1695
_journal_volume 5
_journal_year 2017
_journal_page_first 9053
_journal_name_full 'J.Mater.Chem.C '
loop_
_publ_author_name
"Y.B.Borozdina"
"E.A.Mostovich"
"Pham Thanh Cong"
"L.Postulka"
"B.Wolf"
"Michael Lang"
"M.Baumgarten"
_chemical_name_systematic
;
2,2'-(ethyne-1,2-diyldipyridine-2,5-diyl)bis(4,4,5,5-tetramethyl-4,5-dihydro-1
H-imidazole-3-oxyl 1-oxide)
;
_cell_volume   1230.605
_exptl_crystal_colour 'dark blue'
_exptl_crystal_density_diffrn 1.324
_exptl_crystal_description 'prism'
_diffrn_ambient_temperature 120
#These two values have been output from a single CSD field.
_refine_ls_R_factor_gt 0.0524
_refine_ls_wR_factor_gt 0.0524
_symmetry_cell_setting triclinic
_symmetry_space_group_name_H-M 'P -1'
_symmetry_Int_Tables_number 2
loop_
_symmetry_equiv_pos_site_id
_symmetry_equiv_pos_as_xyz
1 x,y,z
2 -x,-y,-z
_cell_length_a 7.3674(2)
_cell_length_b 13.0178(4)
_cell_length_c 13.7189(4)
_cell_angle_alpha 90.9445(14)
_cell_angle_beta 104.4985(16)
_cell_angle_gamma 104.2092(16)
_cell_formula_units_Z 2
loop_
_atom_type_symbol
_atom_type_radius_bond
C 0.68
H 0.23
N 0.68
O 0.68
loop_
_atom_site_label
_atom_site_type_symbol
_atom_site_fract_x
_atom_site_fract_y
_atom_site_fract_z
O1 O 0.33957(13) 0.79125(8) 0.13151(7)
O2 O -0.24721(13) 0.85967(9) -0.02703(7)
N1 N 0.17791(14) 0.94403(8) 0.34772(7)
N2 N 0.19210(13) 0.80172(7) 0.06351(7)
N3 N -0.08976(13) 0.83025(8) -0.01125(7)
C1 C 0.00071(17) 0.98216(9) 0.45953(9)
C2 C 0.00178(16) 0.94141(8) 0.36180(8)
C3 C -0.17036(16) 0.90251(9) 0.28649(8)
C4 C -0.16326(15) 0.86553(8) 0.19237(8)
C5 C 0.01880(15) 0.86851(8) 0.17626(8)
C6 C 0.18352(16) 0.90804(9) 0.25732(8)
C7 C 0.03906(15) 0.83368(8) 0.07900(8)
C8 C -0.03744(15) 0.77766(8) -0.09487(8)
C9 C -0.16168(18) 0.66241(9) -0.11255(9)
C10 C -0.08468(17) 0.83504(9) -0.18997(8)
C11 C 0.18172(15) 0.78927(8) -0.04702(8)
C12 C 0.31313(16) 0.89210(9) -0.0686(1)
C13 C 0.25567(19) 0.69425(10) -0.0675(1)
H1 H -0.29150 0.90130 0.29960
H2 H -0.27880 0.83890 0.13990
H3 H 0.30680 0.91000 0.24670
H4 H -0.13280 0.62630 -0.16520
H5 H -0.29520 0.66170 -0.13110
H6 H -0.13380 0.62780 -0.05220
H7 H -0.05220 0.80210 -0.24320
H8 H -0.01220 0.90730 -0.17740
H9 H -0.21940 0.83150 -0.20860
H10 H 0.31260 0.88870 -0.13790
H11 H 0.26620 0.95070 -0.05360
H12 H 0.44170 0.90090 -0.02790
H13 H 0.24950 0.68610 -0.13730
H14 H 0.38620 0.70500 -0.02880
H15 H 0.17740 0.63200 -0.04920
O3 O 0.63063(13) 0.39860(8) 0.63302(7)
O4 O 1.04145(12) 0.25078(7) 0.50352(7)
N4 N 1.11202(14) 0.42201(8) 0.86693(7)
N5 N 0.69650(13) 0.34775(7) 0.57522(7)
N6 N 0.89289(13) 0.27871(7) 0.51343(7)
C14 C 1.44033(16) 0.48013(8) 0.96166(9)
C15 C 1.30133(15) 0.43655(8) 0.86848(8)
C16 C 1.36176(16) 0.41320(9) 0.78385(8)
C17 C 1.22324(15) 0.37674(9) 0.69320(8)
C18 C 1.02732(15) 0.36479(8) 0.68942(8)
C19 C 0.98057(15) 0.38672(9) 0.77957(8)
C20 C 0.87645(15) 0.33074(8) 0.59579(8)
C21 C 0.72277(16) 0.27102(9) 0.42443(8)
C22 C 0.7903(2) 0.36152(13) 0.36151(11)
C23 C 0.67225(19) 0.16337(12) 0.36547(10)
C24 C 0.56806(15) 0.28961(9) 0.47711(8)
C25 C 0.44544(17) 0.18719(10) 0.50498(10)
C26 C 0.43994(18) 0.35838(10) 0.42246(9)
H16 H 1.49560 0.42200 0.78840
H17 H 1.26050 0.36020 0.63460
H18 H 0.84750 0.37570 0.77790
H19 H 0.68830 0.36100 0.30310
H20 H 0.82400 0.42760 0.40060
H21 H 0.90010 0.35210 0.34170
H22 H 0.56430 0.15870 0.30900
H23 H 0.78020 0.15580 0.34260
H24 H 0.64040 0.10850 0.40780
H25 H 0.36080 0.14700 0.44530
H26 H 0.37120 0.20450 0.54730
H27 H 0.52830 0.14650 0.53980
H28 H 0.35870 0.32160 0.36040
H29 H 0.36210 0.37340 0.46380
H30 H 0.51970 0.42310 0.40930
O1A O -0.33957(13) 1.20875(8) 0.86849(7)
O2A O 0.24721(13) 1.14033(9) 1.02703(7)
N1A N -0.17791(14) 1.05597(8) 0.65228(7)
N2A N -0.19210(13) 1.19828(7) 0.93649(7)
N3A N 0.08976(13) 1.16975(8) 1.01125(7)
C1A C -0.00071(17) 1.01784(9) 0.54047(9)
C2A C -0.00178(16) 1.05859(8) 0.63820(8)
C3A C 0.17036(16) 1.09749(9) 0.71351(8)
C4A C 0.16326(15) 1.13447(8) 0.80763(8)
C5A C -0.01880(15) 1.13149(8) 0.82374(8)
C6A C -0.18352(16) 1.09196(9) 0.74268(8)
C7A C -0.03906(15) 1.16632(8) 0.92100(8)
C8A C 0.03744(15) 1.22234(8) 1.09487(8)
C9A C 0.16168(18) 1.33759(9) 1.11255(9)
C10A C 0.08468(17) 1.16496(9) 1.18997(8)
C11A C -0.18172(15) 1.21073(8) 1.04702(8)
C12A C -0.31313(16) 1.10790(9) 1.0686(1)
C13A C -0.25567(19) 1.30575(10) 1.0675(1)
H1A H 0.29150 1.09870 0.70040
H2A H 0.27880 1.16110 0.86010
H3A H -0.30680 1.09000 0.75330
H4A H 0.13280 1.37370 1.16520
H5A H 0.29520 1.33830 1.13110
H6A H 0.13380 1.37220 1.05220
H7A H 0.05220 1.19790 1.24320
H8A H 0.01220 1.09270 1.17740
H9A H 0.21940 1.16850 1.20860
H10A H -0.31260 1.11130 1.13790
H11A H -0.26620 1.04930 1.05360
H12A H -0.44170 1.09910 1.02790
H13A H -0.24950 1.31390 1.13730
H14A H -0.38620 1.29500 1.02880
H15A H -0.17740 1.36800 1.04920
O3A O 2.36937(13) 0.60140(8) 1.36698(7)
O4A O 1.95855(12) 0.74922(7) 1.49648(7)
N4A N 1.88798(14) 0.57799(8) 1.13307(7)
N5A N 2.30350(13) 0.65225(7) 1.42478(7)
N6A N 2.10711(13) 0.72129(7) 1.48657(7)
C14A C 1.55967(16) 0.51987(8) 1.03834(9)
C15A C 1.69867(15) 0.56345(8) 1.13152(8)
C16A C 1.63824(16) 0.58680(9) 1.21615(8)
C17A C 1.77676(15) 0.62326(9) 1.30680(8)
C18A C 1.97268(15) 0.63521(8) 1.31058(8)
C19A C 2.01943(15) 0.61328(9) 1.22043(8)
C20A C 2.12355(15) 0.66926(8) 1.40421(8)
C21A C 2.27723(16) 0.72898(9) 1.57557(8)
C22A C 2.2097(2) 0.63848(13) 1.63849(11)
C23A C 2.32775(19) 0.83663(12) 1.63453(10)
C24A C 2.43194(15) 0.71039(9) 1.52289(8)
C25A C 2.55456(17) 0.81281(10) 1.49502(10)
C26A C 2.56006(18) 0.64162(10) 1.57754(9)
H16A H 1.50440 0.57800 1.21160
H17A H 1.73950 0.63980 1.36540
H18A H 2.15250 0.62430 1.22210
H19A H 2.31170 0.63900 1.69690
H20A H 2.17600 0.57240 1.59940
H21A H 2.09990 0.64790 1.65830
H22A H 2.43570 0.84130 1.69100
H23A H 2.21980 0.84420 1.65740
H24A H 2.35960 0.89150 1.59220
H25A H 2.63920 0.85300 1.55470
H26A H 2.62880 0.79550 1.45270
H27A H 2.47170 0.85350 1.46020
H28A H 2.64130 0.67840 1.63960
H29A H 2.63790 0.62660 1.53620
H30A H 2.48030 0.57690 1.59070
#END
