
#######################################################################
#
#                 Cambridge Crystallographic Data Centre
#                                CCDC
#
#######################################################################
#
# If this CIF has been generated from an entry in the Cambridge
# Structural Database, then it will include bibliographic, chemical,
# crystal, experimental, refinement or atomic coordinate data resulting
# from the CCDC's data processing and validation procedures.
#
#######################################################################

data_CSD_CIF_WEJJOL
_audit_creation_date 2006-07-12
_audit_creation_method CSD-ConQuest-V1
_database_code_CSD WEJJOL
_database_code_depnum_ccdc_archive 'CCDC 610747'
_chemical_formula_sum 'C13 H9 N1 O4'
_chemical_formula_moiety
;
C13 H9 N1 O4
;
_journal_coeditor_code "IUCr CV2051"
_journal_coden_Cambridge 1370
_journal_volume 62
_journal_year 2006
_journal_page_first o2397
_journal_name_full 'Acta Crystallogr.,Sect.E:Struct.Rep.Online '
loop_
_publ_author_name
"P.S.Patil"
"J.Bee-Jan Teh"
"Hoong-Kun Fun"
"I.A.Razak"
"S.M.Dharmaprakash"
_chemical_name_systematic
;
3-(2-Furyl)-1-(4-nitrophenyl)prop-2-en-1-one
;
_cell_volume   1094.454
_exptl_crystal_colour 'yellow'
_exptl_crystal_density_diffrn 1.476
_exptl_crystal_description 'Block'
_exptl_crystal_preparation 'acetone'
_diffrn_ambient_temperature 100
#These two values have been output from a single CSD field.
_refine_ls_R_factor_gt 0.07
_refine_ls_wR_factor_gt 0.07
_symmetry_cell_setting monoclinic
_symmetry_space_group_name_H-M 'P 21/c'
_symmetry_Int_Tables_number 14
loop_
_symmetry_equiv_pos_site_id
_symmetry_equiv_pos_as_xyz
1 x,y,z
2 -x,1/2+y,1/2-z
3 -x,-y,-z
4 x,-1/2-y,-1/2+z
_cell_length_a 3.8809(2)
_cell_length_b 10.6603(4)
_cell_length_c 26.5500(11)
_cell_angle_alpha 90
_cell_angle_beta 94.867(3)
_cell_angle_gamma 90
_cell_formula_units_Z 4
loop_
_atom_type_symbol
_atom_type_radius_bond
C 0.68
H 0.23
N 0.68
O 0.68
loop_
_atom_site_label
_atom_site_type_symbol
_atom_site_fract_x
_atom_site_fract_y
_atom_site_fract_z
O1 O -0.1250(3) 0.26693(9) 0.10568(4)
O2 O 0.0305(3) 0.59893(8) 0.24281(4)
O3 O 1.0335(3) 0.21435(10) 0.42360(4)
O4 O 1.0389(3) 0.40418(10) 0.45266(4)
N1 N 0.9515(3) 0.32556(11) 0.42030(4)
C1 C 0.4735(3) 0.31959(11) 0.29253(5)
H1 H 0.42320 0.26330 0.26620
C2 C 0.6653(3) 0.28027(11) 0.33638(5)
H2 H 0.74140 0.19780 0.33990
C3 C 0.7400(3) 0.36659(11) 0.37458(4)
C4 C 0.6322(3) 0.49069(12) 0.37111(5)
H3 H 0.68850 0.54700 0.39730
C5 C 0.4379(3) 0.52820(11) 0.32744(5)
H4 H 0.36090 0.61070 0.32430
C6 C 0.3562(3) 0.44321(10) 0.28801(4)
C7 C 0.1394(3) 0.49038(11) 0.24248(4)
C8 C 0.0602(3) 0.40802(11) 0.19861(4)
H5 H 0.14640 0.32660 0.19860
C9 C -0.1393(3) 0.45199(11) 0.15827(5)
H6 H -0.22110 0.53350 0.16080
C10 C -0.2384(3) 0.38741(11) 0.11227(5)
C11 C -0.4378(4) 0.42569(13) 0.07003(5)
H7 H -0.54490 0.50330 0.06500
C12 C -0.4494(4) 0.32378(14) 0.03538(5)
H8 H -0.56550 0.32140 0.00330
C13 C -0.2574(4) 0.23088(13) 0.05846(5)
H9 H -0.22040 0.15290 0.04410
#END
