
#######################################################################
#
#                 Cambridge Crystallographic Data Centre
#                                CCDC
#
#######################################################################
#
# If this CIF has been generated from an entry in the Cambridge
# Structural Database, then it will include bibliographic, chemical,
# crystal, experimental, refinement or atomic coordinate data resulting
# from the CCDC's data processing and validation procedures.
#
#######################################################################

data_CSD_CIF_WEKBOE
_audit_creation_date 2006-11-14
_audit_creation_method CSD-ConQuest-V1
_database_code_CSD WEKBOE
_database_code_depnum_ccdc_archive 'CCDC 293263'
_chemical_formula_sum 'C28 H29 N3 O7'
_chemical_formula_moiety
;
C28 H29 N3 O7
;
_journal_coden_Cambridge 1090
_journal_volume 17
_journal_year 2006
_journal_page_first 1323
_journal_name_full 'Tetrahedron:Asymm. '
loop_
_publ_author_name
"M.Periasamy"
"S.Suresh"
"S.S.Ganesan"
_chemical_name_systematic
;
(2S,3S,\aR)-methyl 
3-methyl-2-((N-(1-phenylethyl)-3,5-dinitrophenylcarboxamido)(phenyl)methyl)but
anoate
;
_chemical_melting_point 477.15
_cell_volume   1315.525
_exptl_crystal_colour 'colorless'
_exptl_crystal_density_diffrn 1.312
_exptl_special_details
;
Melting point range 477.15-479.15K

;
_exptl_crystal_description 'needle'
_diffrn_ambient_temperature 273
#These two values have been output from a single CSD field.
_refine_ls_R_factor_gt 0.0439
_refine_ls_wR_factor_gt 0.0439
_symmetry_cell_setting monoclinic
_symmetry_space_group_name_H-M 'P 21'
_symmetry_Int_Tables_number 4
loop_
_symmetry_equiv_pos_site_id
_symmetry_equiv_pos_as_xyz
1 x,y,z
2 -x,1/2+y,-z
_cell_length_a 11.3739(7)
_cell_length_b 6.7949(5)
_cell_length_c 17.7374(12)
_cell_angle_alpha 90
_cell_angle_beta 106.330(1)
_cell_angle_gamma 90
_cell_formula_units_Z 2
loop_
_atom_type_symbol
_atom_type_radius_bond
C 0.68
H 0.23
N 0.68
O 0.68
loop_
_atom_site_label
_atom_site_type_symbol
_atom_site_fract_x
_atom_site_fract_y
_atom_site_fract_z
C1 C 0.77275(15) 0.2030(3) 0.64626(10)
H1 H 0.73680 0.32290 0.66100
N1 N 0.71043(12) 0.0213(2) 0.75085(8)
C2 C 0.35594(16) -0.2901(3) 0.75223(11)
C3 C 0.58685(17) -0.2979(3) 0.85366(11)
H2 H 0.66510 -0.30320 0.88850
O1 O 0.72591(14) -0.3023(2) 0.7216(1)
O2 O 0.86487(12) 0.4377(2) 0.58472(8)
C4 C 0.48686(18) -0.3587(3) 0.87702(10)
O3 O 0.96687(13) 0.1560(2) 0.61884(9)
N2 N 0.5053(2) -0.4409(3) 0.95614(10)
C5 C 0.36964(18) -0.3535(3) 0.82798(11)
H3 H 0.30270 -0.39090 0.84510
C6 C 0.66517(15) 0.1802(3) 0.79394(10)
H4 H 0.69350 0.30410 0.77680
C7 C 0.92177(16) 0.1494(3) 0.78448(11)
C8 C 0.52533(15) 0.1948(3) 0.77144(10)
C9 C 0.81544(15) 0.0708(3) 0.71906(10)
H5 H 0.84300 -0.05310 0.70140
C10 C 0.45278(17) -0.2324(3) 0.72597(11)
H6 H 0.44050 -0.19570 0.67380
C11 C 0.88095(18) 0.2603(3) 0.61696(11)
O4 O 0.22178(13) -0.2546(3) 0.62833(9)
C12 C 0.45866(17) 0.1610(3) 0.82510(11)
H7 H 0.49990 0.13390 0.87720
O5 O 0.61008(16) -0.4615(3) 0.99720(9)
C13 C 0.67697(17) -0.1704(3) 0.74878(11)
C14 C 0.72475(17) 0.1696(3) 0.88301(10)
H8 H 0.69880 0.05160 0.90340
H9 H 0.70050 0.28210 0.90780
H10 H 0.81230 0.16860 0.89350
C15 C 0.45988(17) 0.2428(3) 0.69522(11)
H11 H 0.50210 0.27430 0.65890
O6 O 0.41542(16) -0.4861(3) 0.97646(8)
N3 N 0.23099(16) -0.2847(3) 0.69730(11)
C16 C 0.56972(16) -0.2290(3) 0.77815(11)
O7 O 0.14563(13) -0.3104(3) 0.72461(9)
C17 C 0.33245(17) 0.1673(3) 0.80205(12)
H12 H 0.28970 0.14530 0.83890
C18 C 0.67557(17) 0.1011(3) 0.57849(11)
H13 H 0.61260 0.04900 0.60110
C19 C 0.94781(19) 0.3459(3) 0.79853(13)
H14 H 0.90320 0.44010 0.76410
C20 C 0.26895(18) 0.2054(3) 0.72551(13)
H15 H 0.18370 0.20470 0.70990
C21 C 0.33349(18) 0.2448(3) 0.67213(12)
H16 H 0.29160 0.27290 0.62020
C22 C 0.6117(2) 0.2482(4) 0.51465(13)
H17 H 0.54480 0.18430 0.47740
H18 H 0.66920 0.29570 0.48830
H19 H 0.58110 0.35670 0.53820
C23 C 1.0403(2) 0.4037(4) 0.86379(14)
H20 H 1.05720 0.53700 0.87270
C24 C 1.1070(2) 0.2694(5) 0.91518(15)
H21 H 1.16780 0.31080 0.95930
C25 C 0.99308(19) 0.0142(4) 0.83655(13)
H22 H 0.97900 -0.11960 0.82720
C26 C 0.9545(2) 0.5015(4) 0.54596(14)
H23 H 0.93430 0.44770 0.49380
H24 H 1.03430 0.45660 0.57520
H25 H 0.95440 0.64260 0.54310
C27 C 1.0839(2) 0.0737(5) 0.90154(15)
H26 H 1.12960 -0.01920 0.93610
C28 C 0.7253(2) -0.0735(4) 0.54262(13)
H27 H 0.78490 -0.02780 0.51760
H28 H 0.65930 -0.13680 0.50450
H29 H 0.76300 -0.16560 0.58330
#END
