
#######################################################################
#
#                 Cambridge Crystallographic Data Centre
#                                CCDC
#
#######################################################################
#
# If this CIF has been generated from an entry in the Cambridge
# Structural Database, then it will include bibliographic, chemical,
# crystal, experimental, refinement or atomic coordinate data resulting
# from the CCDC's data processing and validation procedures.
#
#######################################################################

data_CSD_CIF_WEKGEB
_audit_creation_date 2017-08-25
_audit_creation_method CSD-ConQuest-V1
_database_code_CSD WEKGEB
_database_code_depnum_ccdc_archive 'CCDC 1552174'
_chemical_formula_sum 'C13 H11 N3 O3'
_chemical_formula_moiety
;
C13 H11 N3 O3
;
_journal_coden_Cambridge 1350
_journal_volume 19
_journal_year 2017
_journal_page_first 5184
_journal_name_full 'CrystEngComm '
loop_
_publ_author_name
"K.Helttunen"
"R.Annala"
"A.Suhonen"
"E.Nauha"
"Juha Linnanto"
"M.Nissinen"
_chemical_name_systematic
;
N-(2-aminophenyl)-2-nitrobenzamide
;
_cell_volume    579.814
_exptl_crystal_colour 'colorless'
_exptl_crystal_density_diffrn 1.473
_exptl_crystal_description 'plate'
_exptl_crystal_preparation 'ethyl acetate'
_diffrn_ambient_temperature 123
_diffrn_special_details
;
twin

;
#These two values have been output from a single CSD field.
_refine_ls_R_factor_gt 0.0413
_refine_ls_wR_factor_gt 0.0413
_symmetry_cell_setting triclinic
_symmetry_space_group_name_H-M 'P -1'
_symmetry_Int_Tables_number 2
loop_
_symmetry_equiv_pos_site_id
_symmetry_equiv_pos_as_xyz
1 x,y,z
2 -x,-y,-z
_cell_length_a 7.4377(4)
_cell_length_b 7.7862(4)
_cell_length_c 11.4106(8)
_cell_angle_alpha 75.345(6)
_cell_angle_beta 77.944(6)
_cell_angle_gamma 65.998(6)
_cell_formula_units_Z 2
loop_
_atom_type_symbol
_atom_type_radius_bond
C 0.68
H 0.23
N 0.68
O 0.68
loop_
_atom_site_label
_atom_site_type_symbol
_atom_site_fract_x
_atom_site_fract_y
_atom_site_fract_z
O1 O 0.6153(2) 0.1235(2) 0.42234(12)
O2 O 0.63936(18) -0.03655(19) 0.28566(12)
O3 O 0.68110(16) 0.27555(18) 0.0900(1)
N1 N 0.5544(2) 0.0997(2) 0.33792(12)
N2 N 0.48577(19) 0.2247(2) -0.01685(12)
H1 H 0.369(3) 0.216(3) -0.0151(18)
N3 N 0.8522(2) -0.1001(2) -0.01253(13)
H2 H 0.822(3) -0.043(3) 0.053(2)
H3 H 0.982(4) -0.168(3) -0.0201(19)
C1 C 0.3647(2) 0.2431(2) 0.29983(14)
C2 C 0.2083(3) 0.2953(3) 0.39079(14)
H4 H 0.22520 0.24230 0.47430
C3 C 0.0256(3) 0.4275(3) 0.35651(16)
H5 H -0.08470 0.46420 0.41690
C4 C 0.0046(2) 0.5058(3) 0.23418(16)
H6 H -0.11940 0.59840 0.21130
C5 C 0.1640(2) 0.4494(2) 0.14494(14)
H7 H 0.14740 0.50270 0.06150
C6 C 0.3473(2) 0.3162(2) 0.17644(14)
C7 C 0.5224(2) 0.2688(2) 0.07959(14)
C8 C 0.6219(2) 0.1904(2) -0.12541(13)
C9 C 0.5664(2) 0.3134(3) -0.23488(15)
H8 H 0.44600 0.42220 -0.23530
C10 C 0.6871(3) 0.2771(3) -0.34359(14)
H9 H 0.64830 0.35890 -0.41880
C11 C 0.8649(3) 0.1201(3) -0.34141(15)
H10 H 0.94800 0.09510 -0.41550
C12 C 0.9222(2) -0.0005(3) -0.23234(15)
H11 H 1.04520 -0.10630 -0.23220
C13 C 0.8007(2) 0.0321(2) -0.12210(14)
#END
