
#######################################################################
#
#                 Cambridge Crystallographic Data Centre
#                                CCDC
#
#######################################################################
#
# If this CIF has been generated from an entry in the Cambridge
# Structural Database, then it will include bibliographic, chemical,
# crystal, experimental, refinement or atomic coordinate data resulting
# from the CCDC's data processing and validation procedures.
#
#######################################################################

data_CSD_CIF_WELXOC
_audit_creation_date 2013-04-24
_audit_creation_method CSD-ConQuest-V1
_database_code_CSD WELXOC
_database_code_depnum_ccdc_archive 'CCDC 892907'
_chemical_formula_sum 'C23 H25 N1 O4'
_chemical_formula_moiety
;
C23 H25 N1 O4
;
_journal_coden_Cambridge 1475
_journal_volume 4
_journal_year 2013
_journal_page_first 1281
_journal_name_full 'Chemical Science '
loop_
_publ_author_name
"Jin Xie"
"Qicai Xue"
"Hongming Jin"
"Huamin Li"
"Yixiang Cheng"
"Chengjian Zhu"
_chemical_name_systematic
;
t-Butyl 
(3-methyl-1-phenyl-3,3a,8,8a-tetrahydro-1H-indeno[2,1-c][1,2]oxazol-3-yl)(oxo)
acetate
;
_cell_volume   1981.571
_exptl_crystal_colour 'colorless'
_exptl_crystal_density_diffrn 1.272
_exptl_crystal_description 'rod-like'
_diffrn_ambient_temperature 296
#These two values have been output from a single CSD field.
_refine_ls_R_factor_gt 0.0684
_refine_ls_wR_factor_gt 0.0684
_symmetry_cell_setting monoclinic
_symmetry_space_group_name_H-M 'P 21/c'
_symmetry_Int_Tables_number 14
loop_
_symmetry_equiv_pos_site_id
_symmetry_equiv_pos_as_xyz
1 x,y,z
2 -x,1/2+y,1/2-z
3 -x,-y,-z
4 x,-1/2-y,-1/2+z
_cell_length_a 18.485(12)
_cell_length_b 5.944(3)
_cell_length_c 18.057(12)
_cell_angle_alpha 90
_cell_angle_beta 92.841(13)
_cell_angle_gamma 90
_cell_formula_units_Z 4
loop_
_atom_type_symbol
_atom_type_radius_bond
C 0.68
H 0.23
N 0.68
O 0.68
loop_
_atom_site_label
_atom_site_type_symbol
_atom_site_fract_x
_atom_site_fract_y
_atom_site_fract_z
O1 O 0.29332(12) 0.6823(4) -0.05006(12)
O2 O 0.24944(11) 1.0427(3) 0.06127(11)
N1 N 0.24402(14) 0.8217(4) 0.09528(14)
O3 O 0.27033(15) 0.9801(4) -0.12548(14)
C1 C 0.30978(17) 0.7597(5) 0.13168(17)
C2 C 0.17978(17) 1.0502(5) 0.02342(18)
O4 O 0.13037(13) 0.7792(4) -0.06528(15)
C3 C 0.25499(19) 0.8536(6) -0.07661(19)
C4 C 0.13110(17) 1.1660(6) 0.19894(19)
C5 C 0.12718(18) 0.9732(6) 0.08254(18)
H1 H 0.08870 0.87630 0.06110
C6 C 0.37294(18) 0.8812(6) 0.12560(18)
H2 H 0.37210 1.01730 0.10010
C7 C 0.1693(2) 1.2828(6) -0.0096(2)
H3 H 0.17500 1.39360 0.02890
H4 H 0.12160 1.29420 -0.03290
H5 H 0.20480 1.30810 -0.04580
C8 C 0.17838(17) 0.8434(6) 0.13688(18)
H6 H 0.15840 0.69460 0.14710
C9 C 0.09719(17) 1.1579(6) 0.1289(2)
C10 C 0.36315(18) 0.6120(6) -0.07992(18)
C11 C 0.18261(19) 0.8768(6) -0.03970(18)
C12 C 0.1861(2) 0.9822(6) 0.20827(18)
H7 H 0.17660 0.89010 0.25100
H8 H 0.23450 1.04440 0.21470
C13 C 0.3117(2) 0.5611(6) 0.1713(2)
H9 H 0.26950 0.47910 0.17660
C14 C 0.1114(2) 1.3279(7) 0.2495(2)
H10 H 0.13510 1.33630 0.29610
C15 C 0.3875(2) 0.4277(6) -0.0272(2)
H11 H 0.39290 0.48720 0.02220
H12 H 0.43300 0.36870 -0.04160
H13 H 0.35200 0.30960 -0.02860
C16 C 0.4167(2) 0.8030(6) -0.0785(2)
H14 H 0.40210 0.91160 -0.11560
H15 H 0.46380 0.74610 -0.08830
H16 H 0.41820 0.87310 -0.03050
C17 C 0.4385(2) 0.6032(7) 0.1957(2)
H17 H 0.48200 0.54970 0.21700
C18 C 0.3476(2) 0.5216(6) -0.15837(19)
H18 H 0.31050 0.40870 -0.15760
H19 H 0.39090 0.45670 -0.17640
H20 H 0.33160 0.64250 -0.19040
C19 C 0.0220(2) 1.4661(7) 0.1617(3)
H21 H -0.01500 1.56810 0.14980
C20 C 0.4370(2) 0.8009(7) 0.1572(2)
H22 H 0.47960 0.88190 0.15240
C21 C 0.3765(2) 0.4847(7) 0.2028(2)
H23 H 0.37780 0.35050 0.22930
C22 C 0.0571(2) 1.4744(7) 0.2301(3)
H24 H 0.04360 1.58230 0.26410
C23 C 0.04093(19) 1.3072(6) 0.1100(2)
H25 H 0.01670 1.30010 0.06370
#END
