
#######################################################################
#
#                 Cambridge Crystallographic Data Centre
#                                CCDC
#
#######################################################################
#
# If this CIF has been generated from an entry in the Cambridge
# Structural Database, then it will include bibliographic, chemical,
# crystal, experimental, refinement or atomic coordinate data resulting
# from the CCDC's data processing and validation procedures.
#
#######################################################################

data_CSD_CIF_WEMTAK
_audit_creation_date 2006-11-14
_audit_creation_method CSD-ConQuest-V1
_database_code_CSD WEMTAK
_database_code_depnum_ccdc_archive 'CCDC 282113'
_chemical_formula_sum 'C15 H13 N3 O4'
_chemical_formula_moiety
;
C15 H13 N3 O4
;
_journal_coden_Cambridge 119
_journal_volume 794
_journal_year 2006
_journal_page_first 255
_journal_name_full 'J.Mol.Struct. '
loop_
_publ_author_name
"Wei Yu"
"Li Yang"
"Tong-lai Zhang"
"Jian-guo Zhang"
"Fu-jian Ren"
"Yan-hong Liu"
"Rui-feng Wu"
"Jin-yu Guo"
_chemical_name_systematic
;
N-(4-Methylbenzylidene)-4-methyl-3,5-dinitroaniline
;
_chemical_melting_point 420.15
_cell_volume   2891.061
_exptl_crystal_colour 'yellow'
_exptl_crystal_density_diffrn 1.375
_exptl_special_details
;
Melting point range 420.15-422.15K

;
_exptl_crystal_preparation 'dichloromethane/methanol'
_diffrn_ambient_temperature 296
#These two values have been output from a single CSD field.
_refine_ls_R_factor_gt 0.052
_refine_ls_wR_factor_gt 0.052
_symmetry_cell_setting monoclinic
_symmetry_space_group_name_H-M 'P 21/n'
_symmetry_Int_Tables_number 14
loop_
_symmetry_equiv_pos_site_id
_symmetry_equiv_pos_as_xyz
1 x,y,z
2 1/2-x,1/2+y,1/2-z
3 -x,-y,-z
4 -1/2+x,-1/2-y,-1/2+z
_cell_length_a 19.441(4)
_cell_length_b 7.544(1)
_cell_length_c 19.997(3)
_cell_angle_alpha 90
_cell_angle_beta 99.68(1)
_cell_angle_gamma 90
_cell_formula_units_Z 8
loop_
_atom_type_symbol
_atom_type_radius_bond
C 0.68
H 0.23
N 0.68
O 0.68
loop_
_atom_site_label
_atom_site_type_symbol
_atom_site_fract_x
_atom_site_fract_y
_atom_site_fract_z
O1 O 0.60447(14) -0.0580(5) 0.76613(16)
O2 O 0.57787(13) -0.0199(4) 0.86232(14)
O3 O 0.30312(15) -0.0574(5) 0.85561(15)
O4 O 0.26733(16) -0.2178(5) 0.76901(17)
N1 N 0.40072(16) 0.0869(4) 0.59918(15)
N2 N 0.56268(16) -0.0371(4) 0.80190(16)
N3 N 0.30962(17) -0.1177(5) 0.80127(18)
C1 C 0.47547(16) 0.0266(4) 0.70498(14)
H1 H 0.51260 0.05650 0.68330
C2 C 0.48792(16) -0.0296(4) 0.77077(15)
C3 C 0.43666(16) -0.0799(4) 0.80777(14)
C4 C 0.36999(16) -0.0667(4) 0.77022(15)
C5 C 0.35465(16) -0.0089(4) 0.70373(15)
H2 H 0.30860 -0.00270 0.68160
C6 C 0.40851(18) 0.0392(4) 0.67092(14)
C7 C 0.3490(2) 0.1651(5) 0.57623(19)
H3 H 0.31760 0.19870 0.60420
C8 C 0.3342(2) 0.2106(5) 0.50068(16)
C9 C 0.2711(2) 0.2811(5) 0.47554(17)
H4 H 0.23900 0.30130 0.50430
C10 C 0.25408(19) 0.3228(4) 0.40819(17)
H5 H 0.21020 0.36960 0.39190
C11 C 0.3005(2) 0.2971(4) 0.36392(15)
C12 C 0.36576(19) 0.2287(5) 0.38910(16)
H6 H 0.39820 0.21220 0.36040
C13 C 0.38282(19) 0.1846(4) 0.45759(18)
H7 H 0.42650 0.13790 0.47460
C14 C 0.45057(19) -0.1518(4) 0.87869(14)
H8 H 0.49300 -0.21940 0.88510
H9 H 0.41250 -0.22660 0.88590
H10 H 0.45510 -0.05530 0.91040
C15 C 0.2798(2) 0.3446(5) 0.28979(14)
H11 H 0.31770 0.31860 0.26620
H12 H 0.26890 0.46860 0.28570
H13 H 0.23960 0.27660 0.27040
H14? H 0.23310 0.39060 0.28200
H15? H 0.28190 0.24060 0.26250
H16? H 0.31120 0.43270 0.27780
O5 O 0.46206(16) 0.7011(6) 0.41734(14)
O6 O 0.36754(15) 0.7138(5) 0.35626(13)
O7 O 0.15549(12) 0.7011(4) 0.50061(13)
O8 O 0.19539(13) 0.8944(4) 0.57614(14)
N4 N 0.43307(13) 0.5850(3) 0.64952(12)
N5 N 0.40140(17) 0.7066(4) 0.41035(14)
N6 N 0.20297(15) 0.7784(4) 0.53480(14)
C16 C 0.41065(15) 0.6452(4) 0.52976(14)
H17 H 0.45720 0.61900 0.52880
C17 C 0.36788(16) 0.6975(4) 0.47107(14)
C18 C 0.29769(15) 0.7438(4) 0.46720(13)
C19 C 0.27536(15) 0.7297(4) 0.52944(14)
C20 C 0.31626(16) 0.6773(4) 0.58929(14)
H18 H 0.29760 0.67300 0.62910
C21 C 0.38522(16) 0.6312(4) 0.58982(14)
C22 C 0.40986(17) 0.5062(4) 0.69563(15)
H19 H 0.36300 0.47390 0.68860
C23 C 0.45374(16) 0.4624(4) 0.76073(14)
C24 C 0.42318(16) 0.3984(4) 0.81271(15)
H20 H 0.37510 0.38120 0.80570
C25 C 0.46164(18) 0.3591(4) 0.87492(15)
H21 H 0.43920 0.31730 0.90940
C26 C 0.53252(17) 0.3807(4) 0.88692(14)
C27 C 0.56457(17) 0.4416(4) 0.83407(15)
H22 H 0.61280 0.45520 0.84080
C28 C 0.52525(17) 0.4820(4) 0.77166(15)
H23 H 0.54730 0.52280 0.73680
C29 C 0.25052(16) 0.8121(4) 0.40519(14)
H24 H 0.23810 0.71650 0.37380
H25 H 0.27430 0.90250 0.38410
H26 H 0.20910 0.86100 0.41810
C30 C 0.57403(18) 0.3392(5) 0.95551(14)
H27 H 0.62260 0.36160 0.95510
H28 H 0.56770 0.21680 0.96610
H29 H 0.55830 0.41270 0.98910
H30? H 0.54320 0.29910 0.98510
H31? H 0.59800 0.44390 0.97410
H32? H 0.60740 0.24800 0.95110
#END
