
#######################################################################
#
#                 Cambridge Crystallographic Data Centre
#                                CCDC
#
#######################################################################
#
# If this CIF has been generated from an entry in the Cambridge
# Structural Database, then it will include bibliographic, chemical,
# crystal, experimental, refinement or atomic coordinate data resulting
# from the CCDC's data processing and validation procedures.
#
#######################################################################

data_CSD_CIF_WENCOH
_audit_creation_date 1994-12-05
_audit_creation_method CSD-ConQuest-V1
_database_code_CSD WENCOH
_chemical_formula_sum 'C23 H19 N3 O3'
_chemical_formula_moiety
;
C23 H19 N3 O3
;
_journal_coden_Cambridge 82
_journal_volume 35
_journal_year 1994
_journal_page_first 146-1
_journal_name_full 'Zh.Strukt.Khim.(Russ.)(J.Struct.Chem.) '
loop_
_publ_author_name
"Z.Kaluski"
"E.Figas"
"N.P.Vorobyova"
"V.D.Orlov"
_chemical_name_systematic
;
2-(Methoxyphenyl)-4-phenyl-6-(4-nitrophenyl)-1,3-diazabicyclo(3.1.0)hex-3-ene
;
_chemical_melting_point 442.15
_cell_volume   1979.587
_exptl_crystal_density_diffrn 1.297
_exptl_special_details
;
x(N1) is 0.094, not 0.0094

;
_diffrn_ambient_temperature ?
_diffrn_special_details
;
The study was carried out at room temperature,in the range 283-303K

;
#These two values have been output from a single CSD field.
_refine_ls_R_factor_gt 0.074
_refine_ls_wR_factor_gt 0.074
_symmetry_cell_setting monoclinic
_symmetry_space_group_name_H-M 'P 21/c'
_symmetry_Int_Tables_number 14
loop_
_symmetry_equiv_pos_site_id
_symmetry_equiv_pos_as_xyz
1 x,y,z
2 -x,1/2+y,1/2-z
3 -x,-y,-z
4 x,-1/2-y,-1/2+z
_cell_length_a 7.395(2)
_cell_length_b 21.94(1)
_cell_length_c 12.250(5)
_cell_angle_alpha 90
_cell_angle_beta 95.12(1)
_cell_angle_gamma 90
_cell_formula_units_Z 4
loop_
_atom_type_symbol
_atom_type_radius_bond
C 0.68
N 0.68
O 0.68
loop_
_atom_site_label
_atom_site_type_symbol
_atom_site_fract_x
_atom_site_fract_y
_atom_site_fract_z
O1 O 0.1173(1) 1.0055(3) -0.1536(5)
O2 O 0.3108(1) 0.4178(3) -0.0473(7)
O3 O 0.3074(1) 0.4683(3) -0.2006(6)
N1 N 0.094(1) 0.7377(3) 0.0571(6)
N2 N 0.2894(1) 0.4641(4) -0.1025(7)
N3 N 0.0061(1) 0.8011(3) 0.2047(6)
C1 C 0.1429(1) 0.7933(4) 0.1213(7)
C2 C -0.1134(1) 0.7587(4) 0.1886(7)
C3 C -0.0755(1) 0.7139(4) 0.0976(7)
C4 C 0.1042(1) 0.6819(4) 0.1217(7)
C5 C 0.1408(1) 0.8504(4) 0.0499(7)
C6 C 0.0125(1) 0.8560(5) -0.0396(7)
C7 C 0.0094(1) 0.9082(5) -0.1064(8)
C8 C 0.1313(1) 0.9561(5) -0.0835(8)
C9 C 0.2532(1) 0.9491(4) 0.0047(8)
C10 C 0.2641(1) 0.8977(4) 0.0733(8)
C11 C 0.2579(2) 1.0519(5) -0.1348(9)
C12 C -0.2714(1) 0.7521(4) 0.2529(7)
C13 C -0.3606(1) 0.6972(4) 0.2571(7)
C14 C -0.5007(1) 0.6904(5) 0.3261(7)
C15 C -0.5511(1) 0.7401(5) 0.3872(8)
C16 C -0.4668(1) 0.7942(5) 0.3809(8)
C17 C -0.3246(1) 0.8006(4) 0.3160(7)
C18 C 0.1479(1) 0.6236(4) 0.0629(7)
C19 C 0.1264(1) 0.6211(4) -0.0539(7)
C20 C 0.1700(1) 0.5685(4) -0.1080(8)
C21 C 0.2327(1) 0.5200(4) -0.0433(8)
C22 C 0.2523(1) 0.5208(4) 0.0698(8)
C23 C 0.2089(1) 0.5730(4) 0.1214(8)
#END
