
#######################################################################
#
#                 Cambridge Crystallographic Data Centre
#                                CCDC
#
#######################################################################
#
# If this CIF has been generated from an entry in the Cambridge
# Structural Database, then it will include bibliographic, chemical,
# crystal, experimental, refinement or atomic coordinate data resulting
# from the CCDC's data processing and validation procedures.
#
#######################################################################

data_CSD_CIF_WENGUS
_audit_creation_date 2006-11-14
_audit_creation_method CSD-ConQuest-V1
_database_code_CSD WENGUS
_database_code_depnum_ccdc_archive 'CCDC 601382'
_chemical_formula_sum 'C24 H24 N6 O6'
_chemical_formula_moiety
;
C24 H24 N6 O6
;
_journal_coden_Cambridge 35
_journal_volume 71
_journal_year 2006
_journal_page_first 5679
_journal_name_full 'J.Org.Chem. '
loop_
_publ_author_name
"R.N.Butler"
"A.M.Fahy"
"A.Fox"
"J.C.Stephens"
"P.McArdle"
"D.Cunningham"
"A.Ryder"
_chemical_name_systematic
;
2,4-bis(p-Nitrophenyl)-6-methoxycarbonyl-3a,6a-hexamethylene-3,3a,4,6a-tetrahy
dropyrrolo(2,3-d)-1,2,3-triazol-2-ium-3-ide
;
_chemical_melting_point 432.15
_cell_volume   2259.200
_exptl_crystal_colour 'yellow'
_exptl_crystal_density_diffrn 1.448
_exptl_special_details
;
Melting point range 432.15-434.15K

;
_exptl_crystal_description 'parallelepiped'
_diffrn_ambient_temperature 298
_refine_special_details
;
Part of the hexamethylene chain is disordered over two sites with occupancy 
0.60:0.40.
;
#These two values have been output from a single CSD field.
_refine_ls_R_factor_gt 0.0485
_refine_ls_wR_factor_gt 0.0485
_symmetry_cell_setting triclinic
_symmetry_space_group_name_H-M 'P -1'
_symmetry_Int_Tables_number 2
loop_
_symmetry_equiv_pos_site_id
_symmetry_equiv_pos_as_xyz
1 x,y,z
2 -x,-y,-z
_cell_length_a 11.2071(14)
_cell_length_b 14.295(2)
_cell_length_c 15.583(2)
_cell_angle_alpha 76.913(12)
_cell_angle_beta 88.719(10)
_cell_angle_gamma 68.613(12)
_cell_formula_units_Z 4
loop_
_atom_type_symbol
_atom_type_radius_bond
C 0.68
H 0.23
N 0.68
O 0.68
loop_
_atom_site_label
_atom_site_type_symbol
_atom_site_fract_x
_atom_site_fract_y
_atom_site_fract_z
O1 O 0.0480(2) 0.44808(18) 0.79787(15)
N1 N 0.1751(3) 0.38100(19) 0.56067(17)
N2 N 0.2421(3) 0.6361(2) 0.2471(2)
O2 O 0.2500(3) 0.6071(2) 0.17827(17)
N3 N 0.1296(3) 0.2397(2) 0.52492(18)
N4 N 0.0712(3) 0.1987(2) 0.66614(18)
N5 N 0.0604(2) 0.20498(19) 0.58241(18)
O3 O 0.2497(3) 0.7184(2) 0.25068(18)
O4 O 0.0625(3) 0.2850(2) 0.84435(18)
O5 O -0.2468(3) 0.00825(19) 0.3965(2)
O6 O -0.3481(3) 0.0176(2) 0.5154(2)
C1 C 0.1764(3) 0.2362(2) 0.6764(2)
C2 C 0.2142(3) 0.2658(2) 0.5780(2)
N6 N -0.2674(3) 0.0325(2) 0.4672(3)
O7 O 0.4803(2) 0.58120(18) 0.69267(15)
N7 N 0.5520(3) 0.63995(19) 0.92821(17)
N8 N 0.3112(3) 0.8448(2) 0.80549(18)
O8 O 0.8071(3) 0.4040(2) 1.30990(17)
O9 O 0.4141(3) 0.7510(2) 0.63208(16)
N9 N 0.2834(3) 0.8315(2) 0.88713(19)
C3 C 0.4529(3) 0.7907(2) 0.8093(2)
N10 N 0.3683(3) 0.7830(2) 0.95356(18)
N11 N -0.2377(3) 0.9952(3) 0.9584(3)
N12 N 0.8255(3) 0.3748(3) 1.2416(2)
O10 O -0.2673(3) 0.9718(2) 1.0336(2)
O11 O 0.9069(3) 0.2918(3) 1.23662(19)
C4 C 0.4923(3) 0.7548(2) 0.9119(2)
O12 O -0.3133(3) 1.0519(3) 0.8976(2)
C5 C 0.5227(6) 0.1900(5) 0.6746(4)
H1 H 0.53470 0.11750 0.68480
H2 H 0.60690 0.19410 0.67760
C6? C 0.4585(8) 0.2757(7) 0.6664(5)
H3? H 0.37500 0.32380 0.67590
H4? H 0.52160 0.30690 0.66900
C7 C 0.4481(7) 0.2329(6) 0.7463(4)
H5 H 0.38980 0.30300 0.72130
H6 H 0.50710 0.23600 0.78920
C8? C 0.4947(9) 0.1723(8) 0.7363(6)
H7? H 0.56620 0.16380 0.77520
H8? H 0.52070 0.11520 0.70740
C9 C 0.1269(3) 0.4140(2) 0.6347(2)
H9 H 0.09830 0.48290 0.63760
C10 C 0.1248(3) 0.3382(2) 0.7026(2)
C11 C 0.0770(3) 0.3515(3) 0.7876(2)
C12 C 0.0008(4) 0.4663(3) 0.8813(2)
H10 H -0.07200 0.44600 0.89240
H11 H -0.02440 0.53840 0.87990
H12 H 0.06720 0.42650 0.92730
C13 C -0.0283(3) 0.1647(2) 0.5517(2)
C14 C -0.0936(3) 0.1201(3) 0.6126(2)
H13 H -0.08330 0.11800 0.67210
C15 C -0.1747(3) 0.0785(3) 0.5846(3)
H14 H -0.22080 0.04850 0.62460
C16 C -0.1857(3) 0.0825(2) 0.4959(2)
C17 C -0.1226(3) 0.1282(3) 0.4351(2)
H15 H -0.13280 0.13010 0.37560
C18 C -0.0432(3) 0.1716(3) 0.4629(2)
H16 H -0.00090 0.20490 0.42240
C19 C 0.1881(3) 0.4455(2) 0.4819(2)
C20 C 0.1945(3) 0.5414(2) 0.4820(2)
H17 H 0.18730 0.56350 0.53430
C21 C 0.2114(3) 0.6028(2) 0.4051(2)
H18 H 0.21610 0.66640 0.40550
C22 C 0.2216(3) 0.5709(2) 0.3274(2)
C23 C 0.2142(3) 0.4772(2) 0.3257(2)
H19 H 0.22070 0.45630 0.27280
C24 C 0.1971(3) 0.4147(2) 0.4021(2)
H20 H 0.19150 0.35160 0.40080
C25 C 0.3511(3) 0.2124(3) 0.5542(2)
H21 H 0.37730 0.13950 0.58250
H22 H 0.34870 0.21820 0.49100
C26 C 0.4560(4) 0.2482(3) 0.5771(3)
H23 H 0.41940 0.32200 0.57280
H24 H 0.52100 0.23560 0.53440
C27 C 0.3721(4) 0.1722(3) 0.7932(2)
H25 H 0.32500 0.20870 0.83610
H26 H 0.43330 0.10680 0.82630
C28 C 0.2767(3) 0.1473(3) 0.7435(2)
H27 H 0.23060 0.11580 0.78680
H28 H 0.32530 0.09540 0.71220
C29 C 0.5374(3) 0.6105(2) 0.8528(2)
H29 H 0.56340 0.54160 0.85010
C30 C 0.4826(3) 0.6891(2) 0.7832(2)
C31 C 0.4548(3) 0.6801(3) 0.6957(2)
C32 C 0.4569(4) 0.5648(3) 0.6079(2)
H30 H 0.37430 0.61350 0.58230
H31 H 0.45860 0.49580 0.61500
H32 H 0.52220 0.57400 0.56970
C33 C 0.1494(3) 0.8733(3) 0.9056(2)
C34 C 0.0642(4) 0.9499(3) 0.8417(2)
H33 H 0.09220 0.97420 0.78760
C35 C -0.0639(4) 0.9904(3) 0.8590(3)
H34 H -0.12360 1.04200 0.81670
C36 C -0.1010(3) 0.9526(3) 0.9402(2)
C37 C -0.0166(4) 0.8773(3) 1.0043(2)
H35 H -0.04480 0.85350 1.05850
C38 C 0.1114(4) 0.8369(3) 0.9873(2)
H36 H 0.17100 0.78620 1.03010
C39 C 0.6122(3) 0.5718(2) 1.0077(2)
C40 C 0.7020(3) 0.4738(2) 1.0076(2)
H37 H 0.71600 0.45220 0.95500
C41 C 0.7698(3) 0.4089(3) 1.0841(2)
H38 H 0.82950 0.34370 1.08360
C42 C 0.7484(3) 0.4415(3) 1.1616(2)
C43 C 0.6569(3) 0.5357(3) 1.1646(2)
H39 H 0.64210 0.55570 1.21780
C44 C 0.5869(4) 0.6006(3) 1.0881(2)
H40 H 0.52300 0.66350 1.09010
C45 C 0.5735(3) 0.8036(3) 0.9502(2)
H41 H 0.54220 0.87650 0.92100
H42 H 0.55660 0.79910 1.01200
C46 C 0.7184(4) 0.7611(3) 0.9448(3)
H43 H 0.74810 0.68630 0.96250
H44 H 0.75590 0.78360 0.98800
C47 C 0.7729(5) 0.7903(5) 0.8550(4)
H45 H 0.73740 0.86500 0.83470
H46 H 0.86500 0.76970 0.86480
C48 C 0.7498(5) 0.7470(4) 0.7844(4)
H47 H 0.73250 0.68520 0.81040
H48 H 0.82760 0.72620 0.75330
C49 C 0.6376(4) 0.8199(3) 0.7164(3)
H49 H 0.66130 0.87660 0.68480
H50 H 0.62960 0.78220 0.67380
C50 C 0.5066(3) 0.8657(3) 0.7506(2)
H51 H 0.44590 0.90450 0.70010
H52 H 0.51020 0.91460 0.78370
#END
