
#######################################################################
#
#                 Cambridge Crystallographic Data Centre
#                                CCDC
#
#######################################################################
#
# If this CIF has been generated from an entry in the Cambridge
# Structural Database, then it will include bibliographic, chemical,
# crystal, experimental, refinement or atomic coordinate data resulting
# from the CCDC's data processing and validation procedures.
#
#######################################################################

data_CSD_CIF_WENRAJ
_audit_creation_date 2006-11-14
_audit_creation_method CSD-ConQuest-V1
_database_code_CSD WENRAJ
_database_code_depnum_ccdc_archive 'CCDC 624535'
_chemical_formula_sum 'C8 H4 N2 O4'
_chemical_formula_moiety
;
C8 H4 N2 O4
;
_journal_coeditor_code "IUCr GG2007"
_journal_coden_Cambridge 1370
_journal_volume 62
_journal_year 2006
_journal_page_first o4572
_journal_name_full 'Acta Crystallogr.,Sect.E:Struct.Rep.Online '
loop_
_publ_author_name
"C.Glidewell"
"J.N.Low"
"J.M.S.Skakle"
"J.L.Wardell"
_chemical_name_systematic
;
5-Nitroisatin
;
_cell_volume    816.849
_exptl_crystal_colour 'colorless'
_exptl_crystal_density_diffrn 1.562
_exptl_crystal_description 'plate'
_exptl_crystal_preparation 'ethanol'
_diffrn_ambient_temperature 291
#These two values have been output from a single CSD field.
_refine_ls_R_factor_gt 0.0611
_refine_ls_wR_factor_gt 0.0611
_symmetry_cell_setting triclinic
_symmetry_space_group_name_H-M 'P -1'
_symmetry_Int_Tables_number 2
loop_
_symmetry_equiv_pos_site_id
_symmetry_equiv_pos_as_xyz
1 x,y,z
2 -x,-y,-z
_cell_length_a 5.5595(6)
_cell_length_b 12.0772(13)
_cell_length_c 12.2795(14)
_cell_angle_alpha 87.322(3)
_cell_angle_beta 87.355(3)
_cell_angle_gamma 83.049(3)
_cell_formula_units_Z 4
loop_
_atom_type_symbol
_atom_type_radius_bond
C 0.68
H 0.23
N 0.68
O 0.68
loop_
_atom_site_label
_atom_site_type_symbol
_atom_site_fract_x
_atom_site_fract_y
_atom_site_fract_z
N1 N 0.3270(4) 0.52765(19) 0.6854(2)
C1 C 0.5305(5) 0.4543(3) 0.6734(3)
O1 O 0.5875(3) 0.39001(17) 0.60197(17)
C2 C 0.6815(6) 0.4705(3) 0.7740(3)
O2 O 0.8707(4) 0.41752(17) 0.79350(18)
C3 C 0.5357(5) 0.5591(2) 0.8353(2)
C4 C 0.5719(5) 0.6104(3) 0.9294(2)
C5 C 0.3956(6) 0.6924(3) 0.9633(3)
N2 N 0.4302(7) 0.7516(3) 1.0631(3)
O3 O 0.5978(6) 0.7118(2) 1.1205(2)
O4 O 0.2903(5) 0.8343(2) 1.0838(2)
C6 C 0.1877(6) 0.7245(3) 0.9071(3)
C7 C 0.1489(5) 0.6716(2) 0.8130(3)
C8 C 0.3247(5) 0.5898(2) 0.7790(2)
N3 N -0.0737(4) 0.71675(19) 0.4343(2)
C9 C -0.1946(6) 0.6865(3) 0.5280(3)
O5 O -0.1308(4) 0.61082(18) 0.59215(18)
C10 C -0.4299(6) 0.7701(3) 0.5318(3)
O6 O -0.5799(5) 0.7723(2) 0.6023(2)
C11 C -0.4190(5) 0.8428(2) 0.4307(2)
C12 C -0.5712(6) 0.9294(3) 0.3880(3)
C13 C -0.5048(7) 0.9777(3) 0.2914(4)
N4 N -0.6688(8) 1.0689(3) 0.2399(4)
O7 O -0.8492(6) 1.1031(3) 0.2982(3)
O8 O -0.6190(6) 1.1048(3) 0.1501(3)
C14 C -0.2895(7) 0.9444(3) 0.2369(3)
C15 C -0.1306(6) 0.8572(3) 0.2793(3)
C16 C -0.2009(5) 0.8062(2) 0.3768(3)
H1 H 0.21170 0.53520 0.64030
H2 H 0.71060 0.59030 0.96880
H3 H 0.07420 0.78150 0.93230
H4 H 0.00880 0.69090 0.77440
H5 H 0.06560 0.68430 0.41290
H6 H -0.71670 0.95450 0.42430
H7 H -0.24960 0.98040 0.17110
H8 H 0.01690 0.83410 0.24370
#END
