
#######################################################################
#
#                 Cambridge Crystallographic Data Centre
#                                CCDC
#
#######################################################################
#
# If this CIF has been generated from an entry in the Cambridge
# Structural Database, then it will include bibliographic, chemical,
# crystal, experimental, refinement or atomic coordinate data resulting
# from the CCDC's data processing and validation procedures.
#
#######################################################################

data_CSD_CIF_WEPMAG
_audit_creation_date 2006-11-14
_audit_creation_method CSD-ConQuest-V1
_database_code_CSD WEPMAG
_database_code_depnum_ccdc_archive 'CCDC 624985'
_chemical_formula_sum 'C18 H17 N1 O6'
_chemical_formula_moiety
;
C18 H17 N1 O6
;
_journal_coeditor_code "IUCr SJ2114"
_journal_coden_Cambridge 1370
_journal_volume 62
_journal_year 2006
_journal_page_first o4228
_journal_name_full 'Acta Crystallogr.,Sect.E:Struct.Rep.Online '
loop_
_publ_author_name
"M.M.Rosli"
"P.S.Patil"
"Hoong-Kun Fun"
"I.A.Razak"
"S.M.Dharmaprakash"
_chemical_name_systematic
;
1-(4-Nitrophenyl)-3-(2,4,5-trimethoxyphenyl)prop-2-en-1-one
;
_cell_volume    818.204
_exptl_crystal_colour 'red'
_exptl_crystal_density_diffrn 1.394
_exptl_crystal_description 'Block'
_exptl_crystal_preparation 'acetone'
_diffrn_ambient_temperature 297
#These two values have been output from a single CSD field.
_refine_ls_R_factor_gt 0.0585
_refine_ls_wR_factor_gt 0.0585
_symmetry_cell_setting triclinic
_symmetry_space_group_name_H-M 'P -1'
_symmetry_Int_Tables_number 2
loop_
_symmetry_equiv_pos_site_id
_symmetry_equiv_pos_as_xyz
1 x,y,z
2 -x,-y,-z
_cell_length_a 8.5874(2)
_cell_length_b 9.1624(2)
_cell_length_c 10.9048(2)
_cell_angle_alpha 95.508(1)
_cell_angle_beta 104.062(1)
_cell_angle_gamma 97.357(1)
_cell_formula_units_Z 2
loop_
_atom_type_symbol
_atom_type_radius_bond
C 0.68
H 0.23
N 0.68
O 0.68
loop_
_atom_site_label
_atom_site_type_symbol
_atom_site_fract_x
_atom_site_fract_y
_atom_site_fract_z
O1 O 0.97006(11) 0.22348(15) 0.77798(11)
O2 O 0.78551(10) 0.40831(13) 0.37819(9)
O3 O 0.21523(10) 0.40872(11) 0.18275(8)
O4 O 0.13477(10) 0.26520(12) 0.35701(8)
O5 O 0.60896(15) -0.24275(13) 1.15637(12)
O6 O 0.73083(18) -0.04894(18) 1.28786(10)
N1 N 0.68730(14) -0.11799(14) 1.18099(11)
C1 C 0.66417(13) -0.02476(12) 0.85383(9)
H1 H 0.60050 -0.05590 0.77110
C2 C 0.63352(14) -0.09743(12) 0.95364(10)
H2 H 0.55230 -0.17950 0.93850
C3 C 0.72636(13) -0.04487(12) 1.07556(10)
C4 C 0.85047(14) 0.07427(14) 1.10247(10)
H3 H 0.90990 0.10810 1.18600
C5 C 0.88412(13) 0.14203(13) 1.00165(10)
H4 H 0.97020 0.21990 1.01700
C6 C 0.79008(12) 0.09452(12) 0.87739(9)
C7 C 0.82902(13) 0.17268(14) 0.77084(10)
C8 C 0.69164(13) 0.18919(14) 0.66582(10)
H5 H 0.58780 0.14420 0.66460
C9 C 0.71160(12) 0.26739(13) 0.57142(10)
H6 H 0.81800 0.30340 0.57160
C10 C 0.58427(12) 0.30139(12) 0.46927(9)
C11 C 0.62445(12) 0.37654(12) 0.37225(9)
C12 C 0.50326(12) 0.41605(11) 0.27603(9)
H7 H 0.53160 0.46810 0.21350
C13 C 0.34116(12) 0.37792(11) 0.27363(9)
C14 C 0.29788(12) 0.30027(12) 0.36924(9)
C15 C 0.41861(12) 0.26481(12) 0.46495(9)
H8 H 0.38980 0.21520 0.52860
C16 C 0.83290(16) 0.46590(18) 0.27451(14)
H9 H 0.94880 0.47510 0.28930
H10 H 0.80050 0.56170 0.26650
H11 H 0.78150 0.39990 0.19740
C17 C 0.25238(16) 0.48458(16) 0.08277(12)
H12 H 0.15350 0.50230 0.02680
H13 H 0.30780 0.42490 0.03560
H14 H 0.32090 0.57760 0.11860
C18 C 0.08715(16) 0.1875(2) 0.45199(13)
H15 H -0.02930 0.16870 0.43330
H16 H 0.13020 0.24650 0.53390
H17 H 0.12840 0.09500 0.45300
#END
