
#######################################################################
#
#                 Cambridge Crystallographic Data Centre
#                                CCDC
#
#######################################################################
#
# If this CIF has been generated from an entry in the Cambridge
# Structural Database, then it will include bibliographic, chemical,
# crystal, experimental, refinement or atomic coordinate data resulting
# from the CCDC's data processing and validation procedures.
#
#######################################################################

data_CSD_CIF_WEPWAQ
_audit_creation_date 2006-11-14
_audit_creation_method CSD-ConQuest-V1
_database_code_CSD WEPWAQ
_database_code_depnum_ccdc_archive 'CCDC 625700'
_chemical_formula_sum 'C7 H7 N3 O3'
_chemical_formula_moiety
;
C7 H7 N3 O3
;
_journal_coeditor_code "IUCr GG3041"
_journal_coden_Cambridge 591
_journal_volume 62
_journal_year 2006
_journal_page_first o618
_journal_name_full 'Acta Crystallogr.,Sect.C:Cryst.Struct.Commun. '
loop_
_publ_author_name
"S.M.S.V.Wardell"
"T.R.A.Vasconcelos"
"M.V.N.de Souza"
"J.L.Wardell"
"J.N.Low"
"C.Glidewell"
_chemical_name_systematic
;
2-Nitrobenzohydrazide
;
_cell_volume    804.293
_exptl_crystal_colour 'brown'
_exptl_crystal_density_diffrn 1.496
_exptl_crystal_description 'lath'
_exptl_crystal_preparation 'ethanol'
_diffrn_ambient_temperature 120
#These two values have been output from a single CSD field.
_refine_ls_R_factor_gt 0.0863
_refine_ls_wR_factor_gt 0.0863
_symmetry_cell_setting orthorhombic
_symmetry_space_group_name_H-M 'P 21 21 21'
_symmetry_Int_Tables_number 19
loop_
_symmetry_equiv_pos_site_id
_symmetry_equiv_pos_as_xyz
1 x,y,z
2 1/2-x,-y,1/2+z
3 -x,1/2+y,1/2-z
4 1/2+x,1/2-y,-z
_cell_length_a 12.5382(10)
_cell_length_b 4.9867(2)
_cell_length_c 12.8637(8)
_cell_angle_alpha 90
_cell_angle_beta 90
_cell_angle_gamma 90
_cell_formula_units_Z 4
loop_
_atom_type_symbol
_atom_type_radius_bond
C 0.68
H 0.23
N 0.68
O 0.68
loop_
_atom_site_label
_atom_site_type_symbol
_atom_site_fract_x
_atom_site_fract_y
_atom_site_fract_z
C1 C 0.8184(2) 0.5658(5) 0.3908(2)
C2 C 0.7043(2) 0.5033(5) 0.3640(2)
O1 O 0.67233(16) 0.2693(4) 0.36325(18)
N1 N 0.64395(18) 0.7128(5) 0.33887(19)
N2 N 0.5357(2) 0.6803(5) 0.3096(2)
C3 C 0.8692(2) 0.4291(5) 0.4714(2)
N3 N 0.8051(2) 0.2721(5) 0.5459(2)
O2 O 0.72326(19) 0.3762(4) 0.57959(19)
O3 O 0.83784(17) 0.0504(4) 0.57239(19)
C4 C 0.9773(2) 0.4466(6) 0.4904(2)
C5 C 1.0369(3) 0.6181(6) 0.4276(3)
C6 C 0.9886(2) 0.7654(6) 0.3515(2)
C7 C 0.8803(3) 0.7365(6) 0.3315(2)
H1 H 0.67220 0.88960 0.33980
H2 H 0.49290 0.64830 0.36920
H3 H 0.53400 0.52240 0.26830
H4 H 1.00990 0.34550 0.54430
H5 H 1.11170 0.63260 0.43780
H6 H 1.02950 0.88890 0.31180
H7 H 0.84850 0.83510 0.27640
#END
