
#######################################################################
#
#                 Cambridge Crystallographic Data Centre
#                                CCDC
#
#######################################################################
#
# If this CIF has been generated from an entry in the Cambridge
# Structural Database, then it will include bibliographic, chemical,
# crystal, experimental, refinement or atomic coordinate data resulting
# from the CCDC's data processing and validation procedures.
#
#######################################################################

data_CSD_CIF_WEPXEX
_audit_creation_date 2017-12-30
_audit_creation_method CSD-ConQuest-V1
_database_code_CSD WEPXEX
_database_code_depnum_ccdc_archive 'CCDC 1583992'
_chemical_formula_sum 'C16 H12 N2 O3'
_chemical_formula_moiety
;
C16 H12 N2 O3
;
_journal_coden_Cambridge 1147
_journal_volume 18
_journal_year 2017
_journal_page_first 1126
_journal_name_full 'Cryst.Growth Des. '
loop_
_publ_author_name
"K.K.Jha"
"S.Dutta"
"P.Munshi"
_chemical_name_systematic
;
3-(3-methoxyphenyl)-2-(4-nitrophenyl)prop-2-enenitrile
;
_chemical_name_common
;
(Z)-3-(3-methoxyphenyl)-2-(4-nitrophenyl)acrylonitrile
;
_cell_volume   5189.990
_exptl_crystal_colour 'colorless'
_exptl_crystal_density_diffrn 1.435
_exptl_special_details
;
orthorhombic Fdd2 polymorph

;
_exptl_crystal_description 'plate'
_diffrn_ambient_temperature 100
#These two values have been output from a single CSD field.
_refine_ls_R_factor_gt 0.0371
_refine_ls_wR_factor_gt 0.0371
_symmetry_cell_setting orthorhombic
_symmetry_space_group_name_H-M 'F d d 2'
_symmetry_Int_Tables_number 43
loop_
_symmetry_equiv_pos_site_id
_symmetry_equiv_pos_as_xyz
1 x,y,z
2 -x,-y,z
3 1/4+x,1/4-y,1/4+z
4 1/4-x,1/4+y,1/4+z
5 x,1/2+y,1/2+z
6 -x,1/2-y,1/2+z
7 1/4+x,3/4-y,3/4+z
8 1/4-x,3/4+y,3/4+z
9 1/2+x,y,1/2+z
10 1/2-x,-y,1/2+z
11 3/4+x,1/4-y,3/4+z
12 3/4-x,1/4+y,3/4+z
13 1/2+x,1/2+y,z
14 1/2-x,1/2-y,z
15 3/4+x,3/4-y,1/4+z
16 3/4-x,3/4+y,1/4+z
_cell_length_a 12.6352(7)
_cell_length_b 59.580(3)
_cell_length_c 6.8942(4)
_cell_angle_alpha 90
_cell_angle_beta 90
_cell_angle_gamma 90
_cell_formula_units_Z 16
loop_
_atom_type_symbol
_atom_type_radius_bond
C 0.68
H 0.23
N 0.68
O 0.68
loop_
_atom_site_label
_atom_site_type_symbol
_atom_site_fract_x
_atom_site_fract_y
_atom_site_fract_z
O1 O 0.35249(14) 0.53954(3) 0.0935(2)
O2 O 0.35365(16) 0.72431(3) 0.1547(3)
O3 O 0.34469(16) 0.73360(3) 0.4566(3)
N1 N 0.34503(16) 0.71955(4) 0.3271(3)
N2 N 0.31132(16) 0.62047(4) 0.9073(3)
C1 C 0.34732(18) 0.67986(4) 0.2382(4)
H1 H 0.35770 0.68410 0.10970
C2 C 0.33973(18) 0.57300(4) 0.2646(4)
H2 H 0.34740 0.58040 0.14660
C3 C 0.32625(17) 0.65097(4) 0.4815(3)
C4 C 0.31620(18) 0.62283(4) 0.7425(4)
C5 C 0.31867(18) 0.69020(4) 0.5715(4)
H3 H 0.31050 0.70130 0.66550
C6 C 0.34082(18) 0.54969(4) 0.2696(4)
C7 C 0.32866(18) 0.60986(4) 0.4082(4)
H4 H 0.33370 0.61440 0.27950
C8 C 0.32721(18) 0.58553(4) 0.4344(4)
C9 C 0.34290(19) 0.65750(4) 0.2887(4)
H5 H 0.35110 0.64660 0.19340
C10 C 0.32409(17) 0.62703(4) 0.5367(3)
C11 C 0.31344(17) 0.66783(4) 0.6209(4)
H6 H 0.30120 0.66380 0.74940
C12 C 0.31469(19) 0.55096(4) 0.6123(4)
H7 H 0.30560 0.54350 0.72970
C13 C 0.3286(2) 0.53844(4) 0.4443(4)
H8 H 0.32980 0.52280 0.44880
C14 C 0.31390(19) 0.57404(4) 0.6096(4)
H9 H 0.30450 0.58200 0.72430
C15 C 0.33614(18) 0.69588(4) 0.3813(4)
C16 C 0.3664(2) 0.51565(4) 0.0937(4)
H10 H 0.42470 0.51180 0.17630
H11 H 0.38060 0.51060 -0.03590
H12 H 0.30310 0.50860 0.14080
#END
