
#######################################################################
#
#                 Cambridge Crystallographic Data Centre
#                                CCDC
#
#######################################################################
#
# If this CIF has been generated from an entry in the Cambridge
# Structural Database, then it will include bibliographic, chemical,
# crystal, experimental, refinement or atomic coordinate data resulting
# from the CCDC's data processing and validation procedures.
#
#######################################################################

data_CSD_CIF_WEPXOF
_audit_creation_date 2006-11-14
_audit_creation_method CSD-ConQuest-V1
_database_code_CSD WEPXOF
_database_code_depnum_ccdc_archive 'CCDC 293262'
_chemical_formula_sum 'C27 H27 N3 O7'
_chemical_formula_moiety
;
C27 H27 N3 O7
;
_journal_coden_Cambridge 1090
_journal_volume 17
_journal_year 2006
_journal_page_first 1323
_journal_name_full 'Tetrahedron:Asymm. '
loop_
_publ_author_name
"M.Periasamy"
"S.Suresh"
"S.S.Ganesan"
_chemical_name_systematic
;
(2R,3R,\aS)-methyl 
2-((N-(1-phenylethyl)-3,5-dinitrophenylcarboxamido)(phenyl)methyl)butanoate
;
_chemical_melting_point 413.15
_cell_volume   1289.786
_exptl_crystal_colour 'colorless'
_exptl_crystal_density_diffrn 1.302
_exptl_special_details
;
Melting point range 413.15-415.15K

;
_exptl_crystal_description 'needle'
_diffrn_ambient_temperature 273
#These two values have been output from a single CSD field.
_refine_ls_R_factor_gt 0.0557
_refine_ls_wR_factor_gt 0.0557
loop_
_citation_database_id_CSD
_citation_special_details
WATSUG "is a stereoisomer of this entry"
_symmetry_cell_setting monoclinic
_symmetry_space_group_name_H-M 'P 21'
_symmetry_Int_Tables_number 4
loop_
_symmetry_equiv_pos_site_id
_symmetry_equiv_pos_as_xyz
1 x,y,z
2 -x,1/2+y,-z
_cell_length_a 11.365(3)
_cell_length_b 6.7529(19)
_cell_length_c 17.633(5)
_cell_angle_alpha 90
_cell_angle_beta 107.620(4)
_cell_angle_gamma 90
_cell_formula_units_Z 2
loop_
_atom_type_symbol
_atom_type_radius_bond
C 0.68
H 0.23
N 0.68
O 0.68
loop_
_atom_site_label
_atom_site_type_symbol
_atom_site_fract_x
_atom_site_fract_y
_atom_site_fract_z
C1 C 0.41530(19) 0.3592(3) 0.14496(12)
H1 H 0.33560 0.36280 0.10990
C2 C 0.24225(18) -0.1245(4) 0.36286(12)
H2 H 0.28290 -0.24300 0.35070
N1 N 0.29770(14) 0.0489(3) 0.2540(1)
N2 N 0.4915(2) 0.4949(3) 0.03898(11)
N3 N 0.77822(18) 0.3511(3) 0.30166(13)
C3 C 0.5150(2) 0.4176(3) 0.12048(12)
C4 C 0.65132(18) 0.3554(3) 0.24670(12)
C5 C 0.19394(17) 0.0010(3) 0.28723(12)
H3 H 0.16680 0.12720 0.30380
C6 C 0.5553(2) 0.3006(3) 0.27476(12)
H4 H 0.57010 0.26760 0.32800
C7 C 0.34241(17) -0.1166(3) 0.21299(12)
H5 H 0.31210 -0.23870 0.23060
C8 C 0.6336(2) 0.4142(3) 0.16909(14)
H6 H 0.69950 0.44960 0.15090
C9 C 0.08557(17) -0.0796(3) 0.22166(13)
O1 O 0.28368(17) 0.3756(3) 0.28075(12)
C10 C 0.48356(18) -0.1343(3) 0.24023(13)
C11 C 0.33080(19) 0.2406(3) 0.25401(12)
C12 C 0.43658(19) 0.2952(3) 0.22260(12)
C13 C 0.2842(2) -0.1102(4) 0.12317(13)
H7 H 0.19600 -0.10580 0.11080
H8 H 0.30760 -0.22640 0.09980
H9 H 0.31230 0.00560 0.10220
O2 O 0.86242(16) 0.3728(4) 0.27358(12)
O3 O 0.14991(16) -0.3727(3) 0.41829(10)
O4 O 0.79100(16) 0.3241(3) 0.37153(11)
C14 C 0.1376(2) -0.1866(4) 0.39416(13)
C15 C 0.5538(2) -0.1084(4) 0.18869(16)
H10 H 0.51470 -0.08520 0.13490
O5 O 0.38613(19) 0.5136(4) -0.00225(11)
C16 C 0.0587(2) -0.2790(4) 0.20973(16)
H11 H 0.10420 -0.37180 0.24570
O6 O 0.5808(2) 0.5381(4) 0.01790(11)
O7 O 0.05726(18) -0.0776(4) 0.39963(14)
C17 C 0.5448(2) -0.1781(4) 0.31908(15)
H12 H 0.49940 -0.20260 0.35390
C18 C 0.3349(2) -0.0068(4) 0.42886(14)
H13 H 0.39700 0.04870 0.40760
H14 H 0.29180 0.10280 0.44420
C19 C -0.1051(2) -0.2076(6) 0.09137(18)
H15 H -0.16810 -0.25100 0.04730
C20 C 0.0125(2) 0.0542(4) 0.16856(16)
H16 H 0.02710 0.18910 0.17700
C21 C 0.6816(2) -0.1168(4) 0.2167(2)
H17 H 0.72770 -0.09870 0.18170
C22 C 0.6724(2) -0.1861(5) 0.34696(19)
H18 H 0.71220 -0.21480 0.40020
C23 C 0.7402(2) -0.1512(4) 0.2952(2)
H19 H 0.82600 -0.15130 0.31400
C24 C 0.0613(3) -0.4462(6) 0.45624(18)
H20 H 0.08280 -0.39820 0.50990
H21 H 0.06250 -0.58840 0.45660
H22 H -0.01990 -0.40070 0.42730
C25 C -0.0361(2) -0.3401(5) 0.14414(17)
H23 H -0.05280 -0.47460 0.13610
C26 C 0.3985(3) -0.1253(6) 0.50194(16)
H24 H 0.33800 -0.18010 0.52390
H25 H 0.45350 -0.04090 0.54060
H26 H 0.44480 -0.23060 0.48800
C27 C -0.0811(2) -0.0087(5) 0.1036(2)
H27 H -0.12820 0.08330 0.06800
#END
