
#######################################################################
#
#                 Cambridge Crystallographic Data Centre
#                                CCDC
#
#######################################################################
#
# If this CIF has been generated from an entry in the Cambridge
# Structural Database, then it will include bibliographic, chemical,
# crystal, experimental, refinement or atomic coordinate data resulting
# from the CCDC's data processing and validation procedures.
#
#######################################################################

data_CSD_CIF_WEPXAT
_audit_creation_date 2017-12-30
_audit_creation_method CSD-ConQuest-V1
_database_code_CSD WEPXAT
_database_code_depnum_ccdc_archive 'CCDC 1583991'
_chemical_formula_sum 'C16 H12 N2 O3'
_chemical_formula_moiety
;
C16 H12 N2 O3
;
_journal_coden_Cambridge 1147
_journal_volume 18
_journal_year 2017
_journal_page_first 1126
_journal_name_full 'Cryst.Growth Des. '
loop_
_publ_author_name
"K.K.Jha"
"S.Dutta"
"P.Munshi"
_chemical_name_systematic
;
3-(3-methoxyphenyl)-2-(4-nitrophenyl)prop-2-enenitrile
;
_chemical_name_common
;
(Z)-3-(3-methoxyphenyl)-2-(4-nitrophenyl)acrylonitrile
;
_cell_volume   1302.504
_exptl_crystal_colour 'colorless'
_exptl_crystal_density_diffrn 1.429
_exptl_special_details
;
monoclinic P21/n polymorph

;
_exptl_crystal_description 'rod'
_diffrn_ambient_temperature 100
#These two values have been output from a single CSD field.
_refine_ls_R_factor_gt 0.0419
_refine_ls_wR_factor_gt 0.0419
_symmetry_cell_setting monoclinic
_symmetry_space_group_name_H-M 'P 21/n'
_symmetry_Int_Tables_number 14
loop_
_symmetry_equiv_pos_site_id
_symmetry_equiv_pos_as_xyz
1 x,y,z
2 1/2-x,1/2+y,1/2-z
3 -x,-y,-z
4 -1/2+x,-1/2-y,-1/2+z
_cell_length_a 6.8818(3)
_cell_length_b 30.0658(11)
_cell_length_c 7.0543(3)
_cell_angle_alpha 90
_cell_angle_beta 116.826(1)
_cell_angle_gamma 90
_cell_formula_units_Z 4
loop_
_atom_type_symbol
_atom_type_radius_bond
C 0.68
H 0.23
N 0.68
O 0.68
loop_
_atom_site_label
_atom_site_type_symbol
_atom_site_fract_x
_atom_site_fract_y
_atom_site_fract_z
O1 O 0.64574(17) 0.91892(3) 0.29057(19)
O2 O 0.5758(2) 0.55067(4) 0.2894(2)
O3 O 0.2850(2) 0.53295(4) 0.3173(2)
N1 N -0.1297(2) 0.75793(4) 0.3771(2)
N2 N 0.4137(2) 0.56050(4) 0.3112(2)
C1 C 0.1649(2) 0.84963(5) 0.3692(2)
H1 H 0.05680 0.83340 0.38860
C2 C 0.3295(2) 0.82704(5) 0.3423(2)
C3 C 0.2808(2) 0.69702(5) 0.3446(2)
C4 C 0.3540(2) 0.77867(5) 0.3393(2)
H2 H 0.48040 0.76930 0.32830
C5 C 0.2288(2) 0.74493(5) 0.3494(2)
C6 C 0.0303(2) 0.75320(5) 0.3660(2)
C7 C 0.5050(2) 0.63922(5) 0.3052(2)
H3 H 0.62680 0.63040 0.28490
C8 C 0.1497(2) 0.66406(5) 0.3686(2)
H4 H 0.02910 0.67250 0.39170
C9 C 0.4600(2) 0.68371(5) 0.3142(2)
H5 H 0.55180 0.70560 0.29960
C10 C 0.4876(2) 0.85209(5) 0.3166(2)
H6 H 0.60110 0.83730 0.30030
C11 C 0.3161(2) 0.92050(5) 0.3389(2)
H7 H 0.30960 0.95210 0.33610
C12 C 0.3686(3) 0.60768(5) 0.3263(2)
C13 C 0.1610(2) 0.89561(5) 0.3672(2)
H8 H 0.04920 0.91060 0.38570
C14 C 0.4808(2) 0.89841(5) 0.3147(2)
C15 C 0.1924(2) 0.61940(5) 0.3592(2)
H9 H 0.10230 0.59730 0.37500
C16 C 0.6304(3) 0.96613(5) 0.2597(3)
H10 H 0.48990 0.97360 0.14020
H11 H 0.74850 0.97640 0.22920
H12 H 0.64240 0.98070 0.38870
#END
