
#######################################################################
#
#                 Cambridge Crystallographic Data Centre
#                                CCDC
#
#######################################################################
#
# If this CIF has been generated from an entry in the Cambridge
# Structural Database, then it will include bibliographic, chemical,
# crystal, experimental, refinement or atomic coordinate data resulting
# from the CCDC's data processing and validation procedures.
#
#######################################################################

data_CSD_CIF_WEQJIM
_audit_creation_date 2007-02-26
_audit_creation_method CSD-ConQuest-V1
_database_code_CSD WEQJIM
_database_code_depnum_ccdc_archive 'CCDC 612684'
_chemical_formula_sum 'C44 H52 N2 O12'
_chemical_formula_moiety
;
C44 H52 N2 O12
;
_journal_coden_Cambridge 16
_journal_volume 62
_journal_year 2006
_journal_page_first 11963
_journal_name_full 'Tetrahedron '
loop_
_publ_author_name
"C.Hocquelet"
"J.Blu"
"C.K.Jankowski"
"S.Arseneau"
"D.Buisson"
"L.Mauclaire"
_chemical_name_systematic
;
11,23-Dinitro-25,27-diisopropyl-26,28-(3,6,9,12-tetraoxatetradecan-1,14-dioxy)
calix(4)arene
;
_chemical_name_common
;
11,23-Dinitro-25,27-diisopropylcalix(4)arene-26,28-crown-6
;
_cell_volume   2010.748
_exptl_crystal_colour 'colorless'
_exptl_crystal_density_diffrn 1.323
_exptl_crystal_description 'irregular'
_diffrn_ambient_temperature 100
_refine_special_details
;
Two methylene groups are disordered with occupancies 0.611:0.389 and 
0.79:0.21.
;
#These two values have been output from a single CSD field.
_refine_ls_R_factor_gt 0.0691
_refine_ls_wR_factor_gt 0.0691
_symmetry_cell_setting triclinic
_symmetry_space_group_name_H-M 'P -1'
_symmetry_Int_Tables_number 2
loop_
_symmetry_equiv_pos_site_id
_symmetry_equiv_pos_as_xyz
1 x,y,z
2 -x,-y,-z
_cell_length_a 9.4077(9)
_cell_length_b 12.6984(8)
_cell_length_c 17.5132(15)
_cell_angle_alpha 75.357(5)
_cell_angle_beta 86.167(4)
_cell_angle_gamma 83.820(5)
_cell_formula_units_Z 2
loop_
_atom_type_symbol
_atom_type_radius_bond
C 0.68
H 0.23
N 0.68
O 0.68
loop_
_atom_site_label
_atom_site_type_symbol
_atom_site_fract_x
_atom_site_fract_y
_atom_site_fract_z
O1 O 0.5375(2) 0.21022(19) 0.22888(14)
O2 O 0.2575(3) 0.3860(2) 0.29223(19)
O3 O 0.2993(3) 0.5333(2) 0.39018(16)
O4 O 0.6074(3) 0.57342(19) 0.33626(15)
O5 O 0.7938(3) 0.3505(2) 0.38595(14)
O6 O 0.9800(2) 0.26435(19) 0.27189(14)
O7 O 0.8536(3) -0.06955(19) 0.30538(14)
O8 O 0.5067(3) 0.2086(2) 0.50933(16)
O9 O 0.7176(3) 0.1936(2) 0.55748(15)
O10 O 0.8424(2) 0.24512(18) 0.04071(14)
O11 O 0.5303(3) 0.6482(2) 0.14069(15)
O12 O 0.7489(3) 0.6918(2) 0.12864(19)
N1 N 0.6347(3) 0.1757(2) 0.51163(17)
N2 N 0.6595(3) 0.6297(2) 0.12707(18)
C1 C 0.3980(4) 0.2608(4) 0.2352(2)
H1 H 0.33510 0.20670 0.26330
H2 H 0.36210 0.29220 0.18280
C2 C 0.3981(6) 0.3463(6) 0.2771(4)
H3 H 0.44580 0.31710 0.32650
H4 H 0.45000 0.40540 0.24550
C3? C 0.3520(11) 0.2825(8) 0.3116(5)
H5? H 0.43370 0.29040 0.34000
H6? H 0.30030 0.22360 0.34370
C4 C 0.1953(4) 0.3761(3) 0.3703(2)
H7 H 0.25950 0.33010 0.40890
H8 H 0.10570 0.34310 0.37540
C5 C 0.1700(4) 0.4876(3) 0.3840(2)
H9 H 0.11690 0.53510 0.34080
H10 H 0.11180 0.48430 0.43230
C6 C 0.3470(4) 0.6076(3) 0.3179(2)
H11 H 0.27400 0.66790 0.30190
H12 H 0.36240 0.56960 0.27600
C7 C 0.4838(4) 0.6509(3) 0.3305(2)
H13 H 0.50050 0.71360 0.28710
H14 H 0.47220 0.67620 0.37860
C8 C 0.6278(4) 0.5007(3) 0.4151(2)
H15 H 0.55690 0.44820 0.42660
H16 H 0.61500 0.54320 0.45440
C9 C 0.7749(4) 0.4416(3) 0.4194(2)
H17 H 0.84230 0.49310 0.39300
H18 H 0.79910 0.41700 0.47450
C10 C 0.7826(4) 0.3832(3) 0.3012(2)
H19 H 0.84510 0.44000 0.27820
H20 H 0.68510 0.41140 0.28770
C11 C 0.8256(3) 0.2847(3) 0.2705(2)
H21 H 0.78150 0.22210 0.30330
H22 H 0.79460 0.29700 0.21700
C12 C 0.5640(3) 0.1741(3) 0.1001(2)
C13 C 0.5546(3) 0.1356(3) 0.1831(2)
C14 C 0.5672(3) 0.0230(3) 0.2237(2)
C15 C 0.5925(4) -0.0521(3) 0.1780(2)
H23 H 0.60200 -0.12650 0.20210
C16 C 0.6037(4) -0.0164(3) 0.0960(2)
H24 H 0.62210 -0.06770 0.06610
C17 C 0.5880(4) 0.0954(3) 0.0574(2)
H25 H 0.59380 0.11670 0.00250
C18 C 0.5455(4) -0.0191(3) 0.3140(2)
H26 H 0.44940 0.00610 0.32920
H27 H 0.55240 -0.09840 0.32690
C19 C 0.6490(4) 0.0153(3) 0.3625(2)
C20 C 0.7976(4) -0.0061(3) 0.3541(2)
C21 C 0.8939(4) 0.0412(3) 0.3897(2)
C22 C 0.8392(4) 0.0986(3) 0.4434(2)
H28 H 0.90000 0.12820 0.47050
C23 C 0.6927(4) 0.1121(3) 0.4568(2)
C24 C 0.5975(4) 0.0749(3) 0.4158(2)
H29 H 0.49950 0.08990 0.42390
C25 C 1.0513(4) 0.0398(3) 0.3649(2)
H30 H 1.09490 -0.03470 0.38180
H31 H 1.09620 0.08370 0.39270
C26 C 1.0847(4) 0.0820(3) 0.2759(2)
C27 C 1.0449(3) 0.1908(3) 0.2315(2)
C28 C 1.0858(3) 0.2301(3) 0.1507(2)
C29 C 1.1682(3) 0.1579(3) 0.1150(2)
H32 H 1.19740 0.18060 0.06210
C30 C 1.2085(4) 0.0501(3) 0.1577(2)
H33 H 1.26420 0.00300 0.13240
C31 C 1.1667(4) 0.0122(3) 0.2374(2)
H34 H 1.19380 -0.05950 0.26440
C32 C 1.0595(4) 0.3508(3) 0.1042(2)
H35 H 1.10040 0.39570 0.13280
H36 H 1.11140 0.35930 0.05360
C33 C 0.9037(4) 0.3955(3) 0.08903(19)
C34 C 0.8025(4) 0.3384(3) 0.0645(2)
C35 C 0.6552(3) 0.3668(3) 0.0707(2)
C36 C 0.6089(4) 0.4629(3) 0.0916(2)
H37 H 0.51170 0.48500 0.09500
C37 C 0.7087(4) 0.5261(3) 0.1073(2)
C38 C 0.8535(4) 0.4929(3) 0.1080(2)
H38 H 0.91740 0.53590 0.12120
C39 C 0.5487(4) 0.2955(3) 0.0542(2)
H39 H 0.55580 0.29860 -0.00180
H40 H 0.45340 0.32660 0.06580
C40 C 0.8417(7) -0.1884(3) 0.3358(3)
H41 H 0.74020 -0.20100 0.34030
C41? C 0.9331(17) -0.1719(7) 0.3321(5)
H42? H 1.03410 -0.15800 0.32780
C42 C 0.9066(6) -0.2407(4) 0.4131(3)
H43 H 0.85850 -0.20940 0.45340
H44 H 0.89780 -0.31790 0.42630
H45 H 1.00600 -0.22830 0.40930
C43 C 0.9121(6) -0.2344(4) 0.2693(3)
H46 H 0.86640 -0.19870 0.22090
H47 H 1.01160 -0.22190 0.26390
H48 H 0.90340 -0.31150 0.28090
C44 C 0.9257(4) 0.2588(3) -0.0343(2)
H49 H 1.01340 0.29190 -0.03030
C45 C 0.9639(4) 0.1428(3) -0.0405(2)
H50 H 1.00800 0.10060 0.00690
H51 H 1.02940 0.14240 -0.08490
H52 H 0.87880 0.11140 -0.04750
C46 C 0.8406(4) 0.3311(3) -0.1037(2)
H53 H 0.75650 0.29740 -0.10910
H54 H 0.89920 0.33950 -0.15150
H55 H 0.81310 0.40160 -0.09370
#END
