
#######################################################################
#
#                 Cambridge Crystallographic Data Centre
#                                CCDC
#
#######################################################################
#
# If this CIF has been generated from an entry in the Cambridge
# Structural Database, then it will include bibliographic, chemical,
# crystal, experimental, refinement or atomic coordinate data resulting
# from the CCDC's data processing and validation procedures.
#
#######################################################################

data_CSD_CIF_WERSAN
_audit_creation_date 1994-12-05
_audit_creation_method CSD-ConQuest-V1
_database_code_CSD WERSAN
_chemical_formula_sum 'C18 H29 N5 O3'
_chemical_formula_moiety
;
C18 H29 N5 O3
;
_journal_coeditor_code "IUCr HA1054"
_journal_coden_Cambridge 591
_journal_volume 50
_journal_year 1994
_journal_page_first 931
_journal_name_full 'Acta Crystallogr.,Sect.C:Cryst.Struct.Commun. '
loop_
_publ_author_name
"D.Velmurugan"
"L.Govindasamy"
"E.Subramanian"
"T.M.Rajendran"
"M.Kandaswamy"
_chemical_name_systematic
;
2,6-bis((4-Methyl-1-piperazinyl)methyl)-4-nitrophenol
;
_cell_volume    986.987
_exptl_crystal_colour 'yellow'
_exptl_crystal_density_diffrn 1.23
_diffrn_ambient_temperature ?
_diffrn_special_details
;
The study was carried out at room temperature,in the range 283-303K

;
#These two values have been output from a single CSD field.
_refine_ls_R_factor_gt 0.058
_refine_ls_wR_factor_gt 0.058
_symmetry_cell_setting triclinic
_symmetry_space_group_name_H-M 'P -1'
_symmetry_Int_Tables_number 2
loop_
_symmetry_equiv_pos_site_id
_symmetry_equiv_pos_as_xyz
1 x,y,z
2 -x,-y,-z
_cell_length_a 9.369(1)
_cell_length_b 10.762(3)
_cell_length_c 11.510(1)
_cell_angle_alpha 76.31(1)
_cell_angle_beta 72.18(1)
_cell_angle_gamma 64.14(2)
_cell_formula_units_Z 2
loop_
_atom_type_symbol
_atom_type_radius_bond
C 0.68
H 0.23
N 0.68
O 0.68
loop_
_atom_site_label
_atom_site_type_symbol
_atom_site_fract_x
_atom_site_fract_y
_atom_site_fract_z
C1 C 0.2543(2) 0.6866(2) 0.0244(1)
C2 C 0.1511(2) 0.7599(2) -0.0571(1)
C3 C 0.1407(2) 0.8919(2) -0.1108(1)
C4 C 0.2334(2) 0.9490(2) -0.0849(1)
C5 C 0.3327(2) 0.8789(2) -0.0018(1)
C6 C 0.3430(2) 0.7480(2) 0.0538(1)
O1 O 0.2630(2) 0.5587(1) 0.0756(1)
N1 N 0.2254(2) 1.0849(2) -0.1451(1)
O2 O 0.3158(2) 1.1319(2) -0.1284(1)
O3 O 0.1281(2) 1.1514(2) -0.2115(2)
C7 C 0.4554(2) 0.6663(2) 0.1407(2)
N2 N 0.3888(2) 0.5770(1) 0.2392(1)
C8 C 0.5150(2) 0.4732(2) 0.3029(2)
C9 C 0.4480(2) 0.3813(2) 0.4014(2)
N3 N 0.3078(2) 0.4614(2) 0.4899(1)
C10 C 0.1825(2) 0.5595(2) 0.4251(2)
C11 C 0.2471(2) 0.6568(2) 0.3285(1)
C12 C 0.2446(3) 0.3707(2) 0.5862(2)
C13 C 0.0498(2) 0.6935(2) -0.0783(1)
N4 N -0.0485(2) 0.7793(1) -0.1663(1)
C14 C -0.1879(2) 0.7443(2) -0.1531(2)
C15 C -0.2942(2) 0.8474(3) -0.2365(2)
N5 N -0.2035(2) 0.8456(2) -0.3646(2)
C16 C -0.0590(3) 0.8727(2) -0.3785(2)
C17 C 0.0459(2) 0.7693(2) -0.2931(1)
C18 C -0.3049(4) 0.9479(3) -0.4454(3)
H1 H 0.063(3) 0.960(2) -0.168(2)
H2 H 0.387(3) 0.935(2) 0.017(2)
H3 H 0.478(3) 0.734(2) 0.179(2)
H4 H 0.568(3) 0.605(2) 0.090(2)
H5 H 0.615(3) 0.411(2) 0.234(2)
H6 H 0.551(3) 0.527(2) 0.341(2)
H7 H 0.540(3) 0.311(2) 0.446(2)
H8 H 0.414(3) 0.327(2) 0.366(2)
H9 H 0.154(3) 0.505(2) 0.382(2)
H10 H 0.088(3) 0.616(2) 0.484(2)
H11 H 0.282(3) 0.710(2) 0.370(2)
H12 H 0.156(3) 0.731(3) 0.283(2)
H13 H 0.145(3) 0.432(2) 0.647(2)
H14 H 0.332(3) 0.298(3) 0.629(2)
H15 H 0.210(3) 0.314(2) 0.548(2)
H16 H -0.024(3) 0.674(3) 0.007(2)
H17 H 0.121(3) 0.598(2) -0.109(2)
H18 H -0.147(3) 0.649(3) -0.178(2)
H19 H -0.248(3) 0.738(2) -0.065(2)
H20 H -0.331(3) 0.946(2) -0.209(2)
H21 H -0.395(3) 0.820(2) -0.223(2)
H22 H 0.005(3) 0.872(3) -0.473(2)
H23 H -0.095(3) 0.973(2) -0.357(2)
H24 H 0.145(3) 0.794(3) -0.303(2)
H25 H 0.088(3) 0.671(3) -0.312(2)
H26 H -0.412(3) 0.925(3) -0.433(2)
H27 H -0.240(3) 0.948(2) -0.537(2)
H28 H -0.342(3) 1.049(3) -0.431(2)
#END
