
#######################################################################
#
#                 Cambridge Crystallographic Data Centre
#                                CCDC
#
#######################################################################
#
# If this CIF has been generated from an entry in the Cambridge
# Structural Database, then it will include bibliographic, chemical,
# crystal, experimental, refinement or atomic coordinate data resulting
# from the CCDC's data processing and validation procedures.
#
#######################################################################

data_CSD_CIF_WERVEU
_audit_creation_date 1994-12-05
_audit_creation_method CSD-ConQuest-V1
_database_code_CSD WERVEU
_database_code_depnum_ccdc_archive 'CCDC 1292340'
_chemical_formula_sum 'C6 H6 N4 O4'
_chemical_formula_moiety
;
C6 H6 N4 O4
;
_journal_coeditor_code "IUCr NA1082"
_journal_coden_Cambridge 591
_journal_volume 50
_journal_year 1994
_journal_page_first 948
_journal_name_full 'Acta Crystallogr.,Sect.C:Cryst.Struct.Commun. '
loop_
_publ_author_name
"T.A.Olszak"
"O.M.Peeters"
"N.M.Blaton"
"C.J.De Ranter"
_chemical_name_systematic
;
5-Nitro-2-furaldehyde semicarbazone
;
_chemical_name_common
;
nitrofural; Furacin; Furaderm; DrugBank: DB00336
;
_cell_volume    837.587
_exptl_crystal_colour 'yellow'
_exptl_crystal_density_diffrn 1.571
_exptl_special_details
;
alpha polymorph
antibacterial activity

;
_diffrn_ambient_temperature ?
_diffrn_special_details
;
The study was carried out at room temperature,in the range 283-303K

;
#These two values have been output from a single CSD field.
_refine_ls_R_factor_gt 0.0428
_refine_ls_wR_factor_gt 0.0428
_symmetry_cell_setting monoclinic
_symmetry_space_group_name_H-M 'P 21/a'
_symmetry_Int_Tables_number 14
loop_
_symmetry_equiv_pos_site_id
_symmetry_equiv_pos_as_xyz
1 x,y,z
2 1/2-x,1/2+y,-z
3 -x,-y,-z
4 -1/2+x,-1/2-y,z
_cell_length_a 9.943(1)
_cell_length_b 8.402(1)
_cell_length_c 10.220(1)
_cell_angle_alpha 90
_cell_angle_beta 101.18(1)
_cell_angle_gamma 90
_cell_formula_units_Z 4
loop_
_atom_type_symbol
_atom_type_radius_bond
C 0.68
H 0.23
N 0.68
O 0.68
loop_
_atom_site_label
_atom_site_type_symbol
_atom_site_fract_x
_atom_site_fract_y
_atom_site_fract_z
O1 O 0.5045(2) -0.1910(3) 0.7317(2)
C1 C 0.5349(3) -0.0332(5) 0.7280(3)
C2 C 0.4607(3) 0.0748(4) 0.7990(3)
N1 N 0.3694(3) 0.0192(3) 0.8586(3)
N2 N 0.3031(3) 0.1228(3) 0.9251(3)
C3 C 0.1998(3) 0.0645(4) 0.9849(3)
O2 O 0.1642(2) -0.0760(2) 0.9700(2)
N3 N 0.1433(3) 0.1685(3) 1.0541(3)
C4 C 0.6327(4) -0.0108(7) 0.6546(4)
C5 C 0.6667(4) -0.1598(7) 0.6115(4)
C6 C 0.5880(3) -0.2641(5) 0.6595(3)
N4 N 0.5761(4) -0.4322(5) 0.6502(3)
O3 O 0.4918(4) -0.5009(3) 0.7038(3)
O4 O 0.6553(3) -0.4999(5) 0.5895(3)
H1 H 0.485(4) 0.183(5) 0.799(4)
H2 H 0.328(3) 0.226(3) 0.946(3)
H3 H 0.179(4) 0.268(3) 1.069(4)
H4 H 0.081(4) 0.137(5) 1.104(4)
H5 H 0.658(4) 0.092(5) 0.641(5)
H6 H 0.727(5) -0.196(6) 0.556(5)
#END
