
#######################################################################
#
#                 Cambridge Crystallographic Data Centre
#                                CCDC
#
#######################################################################
#
# If this CIF has been generated from an entry in the Cambridge
# Structural Database, then it will include bibliographic, chemical,
# crystal, experimental, refinement or atomic coordinate data resulting
# from the CCDC's data processing and validation procedures.
#
#######################################################################

data_CSD_CIF_WERYEX
_audit_creation_date 1994-12-05
_audit_creation_method CSD-ConQuest-V1
_database_code_CSD WERYEX
_chemical_formula_sum 'C4 H6 N8 O4'
_chemical_formula_moiety
;
C4 H6 N8 O4
;
_journal_coeditor_code "IUCr BK1017"
_journal_coden_Cambridge 591
_journal_volume 50
_journal_year 1994
_journal_page_first 974
_journal_name_full 'Acta Crystallogr.,Sect.C:Cryst.Struct.Commun. '
loop_
_publ_author_name
"J.L.Flippen-Anderson"
"M.Kony"
"I.J.Dagley"
_chemical_name_systematic
;
Octahydro-2,5-bis(nitroimino)imidazo(4,5-d)imidazole
;
_chemical_melting_point 599
_cell_volume   1662.061
_exptl_crystal_colour 'colorless'
_exptl_crystal_density_diffrn 1.84
_exptl_special_details
;
Melts with decomposition.
nitramine explosive

;
_diffrn_ambient_temperature ?
_diffrn_special_details
;
The study was carried out at room temperature,in the range 283-303K

;
#These two values have been output from a single CSD field.
_refine_ls_R_factor_gt 0.0455
_refine_ls_wR_factor_gt 0.0455
_symmetry_cell_setting orthorhombic
_symmetry_space_group_name_H-M 'F d d 2'
_symmetry_Int_Tables_number 43
loop_
_symmetry_equiv_pos_site_id
_symmetry_equiv_pos_as_xyz
1 x,y,z
2 x,1/2+y,1/2+z
3 1/2+x,y,1/2+z
4 1/2+x,1/2+y,z
5 1/4-x,1/4+y,1/4+z
6 1/4-x,3/4+y,3/4+z
7 3/4-x,1/4+y,3/4+z
8 3/4-x,3/4+y,1/4+z
9 1/4+x,1/4-y,1/4+z
10 1/4+x,3/4-y,3/4+z
11 3/4+x,1/4-y,3/4+z
12 3/4+x,3/4-y,1/4+z
13 1/2-x,-y,1/2+z
14 1/2-x,1/2-y,z
15 -x,-y,z
16 -x,1/2-y,1/2+z
_cell_length_a 14.402(2)
_cell_length_b 27.795(4)
_cell_length_c 4.152(1)
_cell_angle_alpha 90
_cell_angle_beta 90
_cell_angle_gamma 90
_cell_formula_units_Z 8
loop_
_atom_type_symbol
_atom_type_radius_bond
C 0.68
H 0.23
N 0.68
O 0.68
loop_
_atom_site_label
_atom_site_type_symbol
_atom_site_fract_x
_atom_site_fract_y
_atom_site_fract_z
N1 N 0.0458(2) 0.0558(1) 0.6473(11)
H1 H 0.0424(25) 0.0893(16) 0.627(16)
C1 C 0.1161(2) 0.0298(1) 0.5277(12)
N2 N 0.1892(2) 0.0416(1) 0.3456(10)
N3 N 0.2001(2) 0.0883(1) 0.2734(11)
O1 O 0.2642(2) 0.0962(1) 0.0754(11)
O2 O 0.1523(2) 0.1212(1) 0.3840(12)
N4 N 0.1047(2) -0.0170(1) 0.5934(10)
H2 H 0.1496(27) -0.0409(16) 0.587(15)
C2 C -0.0235(3) 0.0251(1) 0.7968(12)
H3 H -0.0433(28) 0.0382(17) 1.000(14)
C2N C 0.0235(3) -0.0251(1) 0.7968(12)
N4N N -0.1047(2) 0.0170(1) 0.5934(10)
N1N N -0.0458(2) -0.0558(1) 0.6473(11)
H3N H 0.0433(28) -0.0382(17) 1.000(14)
C1N C -0.1161(2) -0.0298(1) 0.5277(12)
H2N H -0.1496(27) 0.0409(16) 0.587(15)
H1N H -0.0424(25) -0.0893(16) 0.627(16)
N2N N -0.1892(2) -0.0416(1) 0.3456(10)
N3N N -0.2001(2) -0.0883(1) 0.2734(11)
O1N O -0.2642(2) -0.0962(1) 0.0754(11)
O2N O -0.1523(2) -0.1212(1) 0.3840(12)
#END
