
#######################################################################
#
#                 Cambridge Crystallographic Data Centre
#                                CCDC
#
#######################################################################
#
# If this CIF has been generated from an entry in the Cambridge
# Structural Database, then it will include bibliographic, chemical,
# crystal, experimental, refinement or atomic coordinate data resulting
# from the CCDC's data processing and validation procedures.
#
#######################################################################

data_CSD_CIF_WESMOZ
_audit_creation_date 2018-01-03
_audit_creation_method CSD-ConQuest-V1
_database_code_CSD WESMOZ
_database_code_depnum_ccdc_archive 'CCDC 1814412'
_chemical_formula_sum 'C17 H15 N3 O2'
_chemical_formula_moiety
;
C17 H15 N3 O2
;
_journal_coden_Cambridge 1078
_journal_year 2018
_journal_name_full 'CSD Communication(Private Communication) '
loop_
_publ_author_name
"J.M.White"
"C.E.Skene"
_chemical_name_systematic
;
4-{2-[4-(dimethylamino)phenyl]ethenyl}-3-nitrobenzonitrile
;
_cell_volume    727.534
_exptl_crystal_colour 'brown'
_exptl_crystal_density_diffrn 1.339
_exptl_crystal_description 'plate'
_diffrn_ambient_temperature 100
_diffrn_radiation_probe x-ray
_diffrn_source synchrotron
#These two values have been output from a single CSD field.
_refine_ls_R_factor_gt 0.0506
_refine_ls_wR_factor_gt 0.0506
_symmetry_cell_setting triclinic
_symmetry_space_group_name_H-M 'P -1'
_symmetry_Int_Tables_number 2
loop_
_symmetry_equiv_pos_site_id
_symmetry_equiv_pos_as_xyz
1 x,y,z
2 -x,-y,-z
_cell_length_a 7.3280(15)
_cell_length_b 8.5800(17)
_cell_length_c 12.211(2)
_cell_angle_alpha 101.91(3)
_cell_angle_beta 95.38(3)
_cell_angle_gamma 101.92(3)
_cell_formula_units_Z 2
loop_
_atom_type_symbol
_atom_type_radius_bond
C 0.68
H 0.23
N 0.68
O 0.68
loop_
_atom_site_label
_atom_site_type_symbol
_atom_site_fract_x
_atom_site_fract_y
_atom_site_fract_z
C1 C 0.67220(17) 0.50823(16) 0.65495(10)
C2 C 0.53189(16) 0.59794(16) 0.6485(1)
C3 C 0.54670(17) 0.73027(17) 0.59777(11)
H1 H 0.44826 0.78684 0.59599
C4 C 0.70728(17) 0.77850(16) 0.54978(11)
C5 C 0.85407(17) 0.69641(17) 0.55650(11)
H2 H 0.96631 0.73115 0.52629
C6 C 0.83465(17) 0.56588(17) 0.60688(11)
H3 H 0.93496 0.51151 0.60967
C7 C 0.66277(18) 0.37005(17) 0.70858(11)
H4 H 0.55108 0.33435 0.73902
C8 C 0.80016(18) 0.29000(17) 0.71795(11)
H5 H 0.91071 0.32684 0.68680
C9 C 0.79771(18) 0.15260(17) 0.77084(11)
C10 C 0.64336(18) 0.08116(17) 0.81859(11)
H6 H 0.53306 0.12295 0.81586
C11 C 0.64775(19) -0.04764(18) 0.86916(12)
H7 H 0.54199 -0.09073 0.90224
C12 C 0.80697(19) -0.11715(17) 0.87281(11)
C13 C 0.96260(19) -0.04565(18) 0.82465(11)
H8 H 1.07256 -0.08800 0.82606
C14 C 0.95617(18) 0.08458(18) 0.77583(11)
H9 H 1.06279 0.13007 0.74438
C15 C 0.6627(2) -0.3054(2) 0.98318(15)
H10 H 0.66246 -0.21609 1.04776
H11 H 0.68787 -0.39957 1.01058
H12 H 0.53967 -0.33718 0.93556
C16 C 0.9770(2) -0.31389(19) 0.92590(13)
H13 H 1.02111 -0.33236 0.85201
H14 H 0.94861 -0.41744 0.94985
H15 H 1.07536 -0.23427 0.98150
C17 C 0.72469(18) 0.91211(18) 0.49397(12)
N1 N 0.35707(15) 0.56111(15) 0.69806(9)
N2 N 0.74059(17) 1.01753(16) 0.44831(11)
N3 N 0.80810(18) -0.25109(16) 0.91753(11)
O1 O 0.29558(14) 0.42213(14) 0.71087(11)
O2 O 0.27455(15) 0.67166(15) 0.72252(11)
#END
