
#######################################################################
#
#                 Cambridge Crystallographic Data Centre
#                                CCDC
#
#######################################################################
#
# If this CIF has been generated from an entry in the Cambridge
# Structural Database, then it will include bibliographic, chemical,
# crystal, experimental, refinement or atomic coordinate data resulting
# from the CCDC's data processing and validation procedures.
#
#######################################################################

data_CSD_CIF_WETJAI
_audit_creation_date 2013-04-24
_audit_creation_method CSD-ConQuest-V1
_database_code_CSD WETJAI
_database_code_depnum_ccdc_archive 'CCDC 900348'
_chemical_formula_sum 'C20 H26 N4 O4'
_chemical_formula_moiety
;
C20 H26 N4 O4
;
_journal_coden_Cambridge 177
_journal_volume 11
_journal_year 2013
_journal_page_first 1468
_journal_name_full 'Org.Biomol.Chem. '
loop_
_publ_author_name
"C.L.Lyall"
"M.Uosis-Martin"
"J.P.Lowe"
"M.F.Mahon"
"G.D.Panto"
"S.E.Lewis"
_chemical_name_systematic
;
1-(1-(1,1'-Bi(cyclohexan)-1'-en-2-yl)ethylidene)-2-(2,4-dinitrophenyl)hydrazin
e
;
_cell_volume   1981.813
_exptl_crystal_colour 'yellow'
_exptl_crystal_density_diffrn 1.295
_exptl_crystal_description 'plate'
_diffrn_ambient_temperature 150
_refine_special_details
;
C18A,C19A and C18B,C19B disordered over two sites with occupancies 0.70:0.30.

;
#These two values have been output from a single CSD field.
_refine_ls_R_factor_gt 0.1792
_refine_ls_wR_factor_gt 0.1792
_symmetry_cell_setting triclinic
_symmetry_space_group_name_H-M 'P -1'
_symmetry_Int_Tables_number 2
loop_
_symmetry_equiv_pos_site_id
_symmetry_equiv_pos_as_xyz
1 x,y,z
2 -x,-y,-z
_cell_length_a 10.5080(6)
_cell_length_b 11.6860(6)
_cell_length_c 16.647(1)
_cell_angle_alpha 81.989(2)
_cell_angle_beta 90.159(3)
_cell_angle_gamma 78.388(3)
_cell_formula_units_Z 4
loop_
_atom_type_symbol
_atom_type_radius_bond
C 0.68
H 0.23
N 0.68
O 0.68
loop_
_atom_site_label
_atom_site_type_symbol
_atom_site_fract_x
_atom_site_fract_y
_atom_site_fract_z
O1 O 0.6724(5) 1.2273(4) 0.3727(3)
O2 O 0.6591(5) 1.1050(4) 0.2875(3)
O3 O 0.8445(6) 0.7025(4) 0.3496(3)
O4 O 0.9404(5) 0.6221(4) 0.4651(3)
N1 N 0.6927(6) 1.1274(4) 0.3533(4)
N2 N 0.8813(5) 0.7098(5) 0.4187(4)
N3 N 0.9473(6) 0.7499(5) 0.5820(3)
H1 H 0.97530 0.67870 0.56930
N4 N 0.9598(5) 0.7745(5) 0.6620(3)
C1 C 0.7622(6) 1.0300(5) 0.4118(4)
C2 C 0.7927(6) 0.9183(5) 0.3900(4)
H2 H 0.77000 0.90600 0.33710
C3 C 0.8563(7) 0.8242(5) 0.4449(4)
C4 C 0.8902(6) 0.8411(5) 0.5256(4)
C5 C 0.8585(7) 0.9579(5) 0.5433(4)
H3 H 0.88020 0.97250 0.59580
C6 C 0.7980(7) 1.0505(5) 0.4884(4)
H4 H 0.78050 1.12830 0.50210
C7 C 1.0134(6) 0.6816(6) 0.7134(4)
C8 C 1.0610(8) 0.5583(6) 0.6943(5)
H5 H 0.98650 0.52240 0.68550
H6 H 1.11550 0.51100 0.73980
H7 H 1.11220 0.56120 0.64520
C9 C 1.0324(7) 0.7079(6) 0.7985(4)
H8 H 0.98400 0.79030 0.80080
C10 C 1.1759(8) 0.7046(7) 0.8167(5)
H9 H 1.20750 0.76020 0.77480
H10 H 1.22650 0.62430 0.81330
C11 C 1.2009(9) 0.7371(8) 0.9006(5)
H11 H 1.29560 0.72630 0.91130
H12 H 1.16100 0.82110 0.90210
C12 C 1.1436(7) 0.6599(7) 0.9651(5)
H13 H 1.15290 0.68690 1.01820
H14 H 1.19360 0.57780 0.96890
C13 C 0.9990(6) 0.6610(6) 0.9483(4)
H15 H 0.96870 0.60510 0.99050
H16 H 0.94700 0.74090 0.95100
C14 C 0.9779(7) 0.6261(5) 0.8641(4)
H17 H 1.03040 0.54460 0.86410
C15 C 0.8341(6) 0.6204(5) 0.8490(4)
C16 C 0.8028(7) 0.5184(6) 0.8406(4)
H18 H 0.87130 0.45180 0.83970
C17 C 0.6669(7) 0.5017(6) 0.8325(5)
H19 H 0.64510 0.45530 0.88310
H20 H 0.66140 0.45530 0.78760
C18 C 0.5685(9) 0.6148(7) 0.8163(7)
H21 H 0.56410 0.64360 0.75730
H22 H 0.48200 0.59920 0.83170
C19 C 0.5973(7) 0.7090(6) 0.8608(5)
H23 H 0.58560 0.68720 0.91950
H24 H 0.53500 0.78380 0.84220
C20 C 0.7350(7) 0.7279(5) 0.8475(5)
H25 H 0.73650 0.77750 0.79430
H26 H 0.75820 0.77240 0.88980
C21 C 0.2887(14) 0.3208(13) 0.8622(19)
H27 H 0.26460 0.36460 0.90850
H28 H 0.27720 0.38090 0.81320
O5 O 0.1731(4) 0.7328(3) 0.4244(3)
O6 O 0.1632(5) 0.6277(4) 0.3274(3)
O7 O 0.3497(5) 0.2243(4) 0.3603(3)
O8 O 0.4546(5) 0.1289(4) 0.4689(3)
N5 N 0.2013(5) 0.6393(4) 0.3962(4)
N6 N 0.3937(5) 0.2220(4) 0.4292(3)
N7 N 0.4889(5) 0.2400(4) 0.5907(3)
H29 H 0.49550 0.16960 0.57600
N8 N 0.5499(5) 0.2530(4) 0.6629(3)
C22 C 0.2768(6) 0.5355(5) 0.4459(4)
C23 C 0.3030(6) 0.4301(5) 0.4170(4)
H30 H 0.27330 0.42460 0.36410
C24 C 0.3725(6) 0.3320(5) 0.4646(4)
C25 C 0.4191(6) 0.3373(5) 0.5432(4)
C26 C 0.3922(6) 0.4460(5) 0.5726(4)
H31 H 0.42340 0.45190 0.62520
C27 C 0.3183(6) 0.5475(6) 0.5241(4)
H32 H 0.29760 0.62120 0.54390
C28 C 0.6004(6) 0.1522(5) 0.7051(4)
C29 C 0.5895(7) 0.0347(5) 0.6843(4)
H33 H 0.49810 0.03420 0.67290
H34 H 0.62290 -0.02640 0.73010
H35 H 0.64020 0.01900 0.63640
C30 C 0.6776(6) 0.1555(5) 0.7826(4)
H36 H 0.67460 0.24010 0.78790
C31 C 0.8181(7) 0.0960(6) 0.7779(5)
H37 H 0.85590 0.13390 0.72940
H38 H 0.82350 0.01200 0.77210
C32 C 0.8971(7) 0.1038(6) 0.8535(5)
H39 H 0.98740 0.05970 0.85020
H40 H 0.89980 0.18730 0.85640
C33 C 0.8368(7) 0.0527(6) 0.9290(5)
H41 H 0.88540 0.06350 0.97750
H42 H 0.84420 -0.03310 0.92900
C34 C 0.6939(7) 0.1108(6) 0.9343(5)
H43 H 0.68670 0.19530 0.93920
H44 H 0.65750 0.07290 0.98340
C35 C 0.6150(6) 0.0995(5) 0.8586(4)
H45 H 0.62560 0.01340 0.85520
C36 C 0.4705(7) 0.1488(6) 0.8634(4)
C37 C 0.3851(6) 0.0826(6) 0.8568(4)
H46 H 0.41670 0.00240 0.85030
C38 C 0.2399(7) 0.1253(7) 0.8589(5)
H47 H 0.20740 0.08630 0.90910
H48 H 0.19820 0.10190 0.81210
C39 C 0.1998(12) 0.2619(12) 0.856(1)
H49 H 0.15090 0.29420 0.80420
H50 H 0.13860 0.27750 0.90020
C40 C 0.4297(7) 0.2751(6) 0.8722(5)
H51 H 0.45860 0.28670 0.92670
H52 H 0.47430 0.32200 0.83150
C41? C 0.209(2) 0.2233(19) 0.8933(14)
C42? C 0.279(4) 0.301(4) 0.900(3)
H53? H 0.12700 0.26770 0.86570
H54? H 0.18690 0.19650 0.94960
H55? H 0.27850 0.31490 0.95700
H56? H 0.23390 0.37630 0.86710
#END
