
#######################################################################
#
#                 Cambridge Crystallographic Data Centre
#                                CCDC
#
#######################################################################
#
# If this CIF has been generated from an entry in the Cambridge
# Structural Database, then it will include bibliographic, chemical,
# crystal, experimental, refinement or atomic coordinate data resulting
# from the CCDC's data processing and validation procedures.
#
#######################################################################

data_CSD_CIF_WETZEB
_audit_creation_date 2007-02-26
_audit_creation_method CSD-ConQuest-V1
_database_code_CSD WETZEB
_database_code_depnum_ccdc_archive 'CCDC 617411'
_chemical_formula_sum 'C16 H18 N2 O7'
_chemical_formula_moiety
;
C16 H18 N2 O7
;
_journal_coden_Cambridge 24
_journal_volume 47
_journal_year 2006
_journal_page_first 9147
_journal_name_full 'Tetrahedron Lett. '
loop_
_publ_author_name
"B.Groetzl"
"S.Handa"
"J.R.Malpass"
_chemical_name_systematic
;
9-Hydroxy-2-oxo-octahydro-3H-cycloocta[d][1,3]oxazol-8-yl 4-nitrobenzoate
;
_cell_volume    781.482
_exptl_crystal_colour 'colorless'
_exptl_crystal_density_diffrn 1.489
_exptl_crystal_description 'block'
_diffrn_ambient_temperature 150
#These two values have been output from a single CSD field.
_refine_ls_R_factor_gt 0.0518
_refine_ls_wR_factor_gt 0.0518
_symmetry_cell_setting triclinic
_symmetry_space_group_name_H-M 'P -1'
_symmetry_Int_Tables_number 2
loop_
_symmetry_equiv_pos_site_id
_symmetry_equiv_pos_as_xyz
1 x,y,z
2 -x,-y,-z
_cell_length_a 7.082(2)
_cell_length_b 7.129(2)
_cell_length_c 17.347(5)
_cell_angle_alpha 97.182(6)
_cell_angle_beta 93.653(7)
_cell_angle_gamma 114.910(7)
_cell_formula_units_Z 2
loop_
_atom_type_symbol
_atom_type_radius_bond
C 0.68
H 0.23
N 0.68
O 0.68
loop_
_atom_site_label
_atom_site_type_symbol
_atom_site_fract_x
_atom_site_fract_y
_atom_site_fract_z
N1 N 0.8577(6) -0.3428(6) -0.0919(2)
N2 N 1.2308(5) 0.4451(5) 0.45110(18)
H1 H 1.33390 0.56650 0.47280
O1 O 0.6455(4) -0.0053(4) 0.23021(16)
O2 O 0.3328(4) -0.0970(5) 0.15918(16)
O3 O 1.0272(5) -0.3501(5) -0.07867(17)
O4 O 0.7612(5) -0.3831(5) -0.15738(17)
O5 O 0.6713(5) 0.1130(4) 0.43874(15)
H2 H 0.68410 0.03530 0.46930
O6 O 1.0705(4) 0.1041(4) 0.41199(16)
O7 O 1.3498(4) 0.2305(4) 0.50451(17)
C1 C 0.5841(6) 0.0764(6) 0.3007(2)
H3 H 0.43720 -0.02440 0.30530
C2 C 0.7270(6) 0.0597(6) 0.3646(2)
H4 H 0.70170 -0.09070 0.35890
C3 C 0.9614(6) 0.1907(6) 0.3642(2)
H5 H 0.99490 0.17590 0.30930
C4 C 1.0517(6) 0.4250(6) 0.3989(2)
H6 H 0.94920 0.45010 0.43070
C5 C 1.1172(6) 0.5795(6) 0.3421(2)
H7 H 1.17450 0.52390 0.29900
H8 H 1.23160 0.71310 0.36980
C6 C 0.9425(6) 0.6245(6) 0.3070(2)
H9 H 1.00530 0.73730 0.27560
H10 H 0.88780 0.68120 0.35070
C7 C 0.7565(6) 0.4455(6) 0.2556(2)
H11 H 0.81190 0.36560 0.22050
H12 H 0.68830 0.50780 0.22190
C8 C 0.5846(6) 0.2874(6) 0.2957(2)
H13 H 0.59360 0.35690 0.34980
H14 H 0.44680 0.26070 0.26800
C9 C 0.5095(7) -0.0857(6) 0.1651(3)
C10 C 0.6026(6) -0.1574(6) 0.0990(2)
C11 C 0.7955(6) -0.1617(6) 0.1112(2)
H15 H 0.86990 -0.12200 0.16250
C12 C 0.8808(6) -0.2237(6) 0.0488(2)
H16 H 1.01180 -0.23010 0.05660
C13 C 0.7703(7) -0.2756(6) -0.0246(2)
C14 C 0.5769(6) -0.2737(6) -0.0391(2)
H17 H 0.50360 -0.31190 -0.09060
C15 C 0.4948(6) -0.2144(6) 0.0240(2)
H18 H 0.36170 -0.21240 0.01610
C16 C 1.2288(7) 0.2635(7) 0.4601(3)
#END
