
#######################################################################
#
#                 Cambridge Crystallographic Data Centre
#                                CCDC
#
#######################################################################
#
# If this CIF has been generated from an entry in the Cambridge
# Structural Database, then it will include bibliographic, chemical,
# crystal, experimental, refinement or atomic coordinate data resulting
# from the CCDC's data processing and validation procedures.
#
#######################################################################

data_CSD_CIF_WEVSIZ
_audit_creation_date 1995-01-18
_audit_creation_method CSD-ConQuest-V1
_database_code_CSD WEVSIZ
_chemical_formula_sum 'C21 H27 N1 O4'
_chemical_formula_moiety
;
C21 H27 N1 O4
;
_journal_coden_Cambridge 24
_journal_volume 35
_journal_year 1994
_journal_page_first 2753
_journal_name_full 'Tetrahedron Lett. '
loop_
_publ_author_name
"A.Brown"
"R.Grigg"
"T.Ravishankar"
"M.Thornton-Pett"
_chemical_name_systematic
;
Methyl 4,4,7-trimethyl-7-(3-nitrobenzyl)bicyclo(4.3.0)non-5-ene-1-carboxylate
;
_cell_volume   1913.817
_exptl_crystal_colour 'colorless'
_exptl_crystal_density_diffrn 1.241
_diffrn_ambient_temperature 200
#These two values have been output from a single CSD field.
_refine_ls_R_factor_gt 0.0438
_refine_ls_wR_factor_gt 0.0438
_symmetry_cell_setting monoclinic
_symmetry_space_group_name_H-M 'P 21/a'
_symmetry_Int_Tables_number 14
loop_
_symmetry_equiv_pos_site_id
_symmetry_equiv_pos_as_xyz
1 x,y,z
2 1/2-x,1/2+y,-z
3 -x,-y,-z
4 -1/2+x,-1/2-y,z
_cell_length_a 13.1282(6)
_cell_length_b 9.5891(3)
_cell_length_c 15.2037(7)
_cell_angle_alpha 90
_cell_angle_beta 90.695(4)
_cell_angle_gamma 90
_cell_formula_units_Z 4
loop_
_atom_type_symbol
_atom_type_radius_bond
C 0.68
H 0.23
N 0.68
O 0.68
loop_
_atom_site_label
_atom_site_type_symbol
_atom_site_fract_x
_atom_site_fract_y
_atom_site_fract_z
C1 C 0.20159(11) 0.01388(15) 0.64277(10)
C2 C 0.24307(12) 0.1395(2) 0.59228(11)
C3 C 0.22764(11) 0.2724(2) 0.64488(11)
C4 C 0.11464(11) 0.30434(14) 0.66079(10)
C5 C 0.05664(11) 0.17120(14) 0.67905(9)
C6 C 0.09493(10) 0.04353(14) 0.67525(9)
C7 C 0.03752(12) -0.09441(14) 0.68646(10)
C8 C 0.10905(14) -0.2018(2) 0.64170(11)
C9 C 0.18326(13) -0.1174(2) 0.58707(10)
C10 C 0.27775(12) -0.02180(15) 0.71627(10)
O1 O 0.35559(11) -0.0846(2) 0.70451(9)
O2 O 0.25234(8) 0.02881(11) 0.79442(7)
C11 C 0.32322(14) 0.0008(2) 0.86607(11)
C12 C 0.1050(2) 0.4023(2) 0.73943(12)
C13 C 0.06790(13) 0.3756(2) 0.57902(11)
C14 C -0.06615(13) -0.0890(2) 0.63973(12)
C15 C 0.02486(12) -0.13713(15) 0.7843(1)
C16 C -0.03707(12) -0.0409(2) 0.8407(1)
C17 C 0.00929(12) 0.0707(2) 0.88461(10)
C18 C -0.04818(13) 0.1552(2) 0.93818(10)
C19 C -0.15121(13) 0.1350(2) 0.95043(12)
C20 C -0.19738(13) 0.0257(2) 0.90688(13)
C21 C -0.14123(13) -0.0614(2) 0.85282(12)
N1 N 0.00339(12) 0.26955(15) 0.98582(9)
O3 O 0.09439(11) 0.28841(15) 0.97291(9)
O4 O -0.04698(11) 0.33984(15) 1.03691(9)
H1 H 0.31657(12) 0.1260(2) 0.58119(11)
H2 H 0.20739(12) 0.1474(2) 0.53476(11)
H3 H 0.25854(11) 0.3515(2) 0.61296(11)
H4 H 0.26338(11) 0.2635(2) 0.70231(11)
H5 H -0.01297(11) 0.17991(14) 0.69451(9)
H6 H 0.14619(14) -0.2574(2) 0.68660(11)
H7 H 0.06920(14) -0.2660(2) 0.60367(11)
H8 H 0.15318(13) -0.0934(2) 0.5290(1)
H9 H 0.24751(13) -0.1693(2) 0.57817(10)
H10 H 0.2994(5) 0.0465(11) 0.9197(2)
H11 H 0.3906(3) 0.0371(12) 0.8511(4)
H12 H 0.3276(7) -0.1000(2) 0.8759(6)
H13 H 0.1466(8) 0.4857(6) 0.7298(4)
H14 H 0.1286(9) 0.3546(5) 0.7929(2)
H15 H 0.0335(2) 0.4296(11) 0.7461(5)
H16 H 0.1031(6) 0.4640(6) 0.5683(5)
H17 H -0.0046(2) 0.3936(11) 0.5888(3)
H18 H 0.0754(8) 0.3145(5) 0.5278(2)
H19 H -0.1000(4) -0.1796(4) 0.6451(7)
H20 H -0.05661(15) -0.0672(13) 0.5774(2)
H21 H -0.1083(4) -0.0167(9) 0.6667(5)
H22 H -0.00697(12) -0.23068(15) 0.7858(1)
H23 H 0.09359(12) -0.14575(15) 0.81127(10)
H24 H 0.07994(12) 0.0883(2) 0.87763(10)
H25 H -0.18902(13) 0.1946(2) 0.98777(12)
H26 H -0.26824(13) 0.0097(2) 0.91383(13)
H27 H -0.17446(13) -0.1364(2) 0.82348(12)
#END
