
#######################################################################
#
#                 Cambridge Crystallographic Data Centre
#                                CCDC
#
#######################################################################
#
# If this CIF has been generated from an entry in the Cambridge
# Structural Database, then it will include bibliographic, chemical,
# crystal, experimental, refinement or atomic coordinate data resulting
# from the CCDC's data processing and validation procedures.
#
#######################################################################

data_CSD_CIF_WEVVUP
_audit_creation_date 2007-02-26
_audit_creation_method CSD-ConQuest-V1
_database_code_CSD WEVVUP
_database_code_depnum_ccdc_archive 'CCDC 634902'
_chemical_formula_sum 'C24 H21 N3 O6'
_chemical_formula_moiety
;
C24 H21 N3 O6
;
_journal_coeditor_code "IUCr AV3046"
_journal_coden_Cambridge 591
_journal_volume 63
_journal_year 2007
_journal_page_first o45
_journal_name_full 'Acta Crystallogr.,Sect.C:Cryst.Struct.Commun. '
loop_
_publ_author_name
"I.Dilovic"
"D.Matkovic-Calogovic"
"I.Kos"
"M.Birus"
"M.J.-M.Taka"
_chemical_name_systematic
;
1,3,5-Benzyloxy-1,3,5-triazinane-2,4,6-trione
;
_cell_volume   1073.780
_exptl_crystal_colour 'colorless'
_exptl_crystal_density_diffrn 1.384
_exptl_crystal_description 'prism'
_exptl_crystal_preparation 'acetone/diethyl ether'
_diffrn_ambient_temperature 113
#These two values have been output from a single CSD field.
_refine_ls_R_factor_gt 0.0545
_refine_ls_wR_factor_gt 0.0545
_symmetry_cell_setting triclinic
_symmetry_space_group_name_H-M 'P -1'
_symmetry_Int_Tables_number 2
loop_
_symmetry_equiv_pos_site_id
_symmetry_equiv_pos_as_xyz
1 x,y,z
2 -x,-y,-z
_cell_length_a 7.765(2)
_cell_length_b 12.139(3)
_cell_length_c 12.783(3)
_cell_angle_alpha 66.36(2)
_cell_angle_beta 76.78(2)
_cell_angle_gamma 82.79(2)
_cell_formula_units_Z 2
loop_
_atom_type_symbol
_atom_type_radius_bond
C 0.68
H 0.23
N 0.68
O 0.68
loop_
_atom_site_label
_atom_site_type_symbol
_atom_site_fract_x
_atom_site_fract_y
_atom_site_fract_z
C1 C 0.8588(2) 0.82131(14) 0.06410(14)
C2 C 0.7641(2) 1.03328(15) -0.04282(14)
C3 C 0.6172(2) 0.92207(15) 0.16315(15)
C4 C 0.9340(2) 0.89208(18) -0.20064(16)
H1 H 0.924(3) 0.802(2) -0.1598(17)
H2 H 0.817(3) 0.9311(18) -0.2107(17)
C5 C 1.0661(2) 0.92506(16) -0.31238(15)
C6 C 1.1794(2) 0.84032(19) -0.34206(18)
H3 H 1.169(3) 0.758(2) -0.2854(18)
C7 C 1.2971(3) 0.8745(2) -0.44955(19)
H4 H 1.374(3) 0.8143(19) -0.4721(19)
C8 C 1.3014(2) 0.9929(2) -0.52610(18)
H5 H 1.385(3) 1.017(2) -0.605(2)
C9 C 1.1900(3) 1.07803(19) -0.49648(17)
H6 H 1.196(3) 1.1678(19) -0.5558(18)
C10 C 1.0731(2) 1.04489(17) -0.39132(16)
H7 H 0.992(3) 1.101(2) -0.3667(19)
C11 C 0.6012(2) 1.20535(17) 0.08107(19)
H8 H 0.695(3) 1.2410(18) 0.0214(18)
H9 H 0.639(3) 1.1573(19) 0.1587(19)
C12 C 0.4584(2) 1.29766(15) 0.08718(15)
C13 C 0.3920(2) 1.37283(17) -0.01112(17)
H10 H 0.445(3) 1.3603(18) -0.0805(18)
C14 C 0.2580(3) 1.45742(17) -0.0032(2)
H11 H 0.218(3) 1.508(2) -0.075(2)
C15 C 0.1894(3) 1.46835(18) 0.1022(2)
H12 H 0.098(3) 1.534(2) 0.1043(18)
C16 C 0.2553(3) 1.39466(19) 0.1995(2)
H13 H 0.203(3) 1.404(2) 0.276(2)
C17 C 0.3877(2) 1.30899(17) 0.19298(17)
H14 H 0.427(3) 1.2532(19) 0.2657(19)
C18 C 0.8050(3) 0.70820(17) 0.33618(17)
H15 H 0.755(3) 0.7739(19) 0.3628(18)
H16 H 0.932(3) 0.7212(18) 0.2911(18)
C19 C 0.7795(2) 0.58482(15) 0.42814(15)
C20 C 0.6716(2) 0.56619(18) 0.53571(16)
H17 H 0.607(3) 0.632(2) 0.5504(19)
C21 C 0.6493(3) 0.4502(2) 0.61965(18)
H18 H 0.579(3) 0.442(2) 0.691(2)
C22 C 0.7336(3) 0.35286(19) 0.59678(19)
H19 H 0.724(3) 0.272(2) 0.652(2)
C23 C 0.8403(3) 0.37212(19) 0.4892(2)
H20 H 0.904(3) 0.303(2) 0.4707(19)
C24 C 0.8642(2) 0.48661(17) 0.40526(17)
H21 H 0.946(3) 0.5002(18) 0.3276(19)
N1 N 0.87062(18) 0.93029(13) -0.03050(12)
N2 N 0.64202(18) 1.02157(12) 0.05813(12)
N3 N 0.72844(18) 0.82497(12) 0.15710(12)
O1 O 0.95215(15) 0.73418(11) 0.06547(11)
O2 O 0.77767(17) 1.12336(11) -0.13051(11)
O3 O 0.51260(16) 0.92042(12) 0.24918(11)
O4 O 1.00136(14) 0.93721(11) -0.12697(10)
O5 O 0.52359(15) 1.11809(10) 0.05381(11)
O6 O 0.69860(15) 0.71741(10) 0.25166(10)
#END
