
#######################################################################
#
#                 Cambridge Crystallographic Data Centre
#                                CCDC
#
#######################################################################
#
# If this CIF has been generated from an entry in the Cambridge
# Structural Database, then it will include bibliographic, chemical,
# crystal, experimental, refinement or atomic coordinate data resulting
# from the CCDC's data processing and validation procedures.
#
#######################################################################

data_CSD_CIF_WEVVEZ
_audit_creation_date 2007-02-26
_audit_creation_method CSD-ConQuest-V1
_database_code_CSD WEVVEZ
_database_code_depnum_ccdc_archive 'CCDC 634898'
_chemical_formula_sum 'C12 H12 N4 O4'
_chemical_formula_moiety
;
C12 H12 N4 O4
;
_journal_coeditor_code "IUCr SQ3044"
_journal_coden_Cambridge 591
_journal_volume 63
_journal_year 2007
_journal_page_first o38
_journal_name_full 'Acta Crystallogr.,Sect.C:Cryst.Struct.Commun. '
loop_
_publ_author_name
"J.Portilla"
"E.G.Mata"
"M.Nogueras"
"J.Cobo"
"J.N.Low"
"C.Glidewell"
_chemical_name_systematic
;
Methyl 4-((5-methyl-1H-pyrazol-3-yl)amino)-3-nitrobenzoate
;
_chemical_melting_point 498
_cell_volume    611.515
_exptl_crystal_colour 'orange'
_exptl_crystal_density_diffrn 1.5
_exptl_special_details
;
Melting point range 498-499K

;
_exptl_crystal_description 'lath'
_exptl_crystal_preparation 'DMSO'
_diffrn_ambient_temperature 120
#These two values have been output from a single CSD field.
_refine_ls_R_factor_gt 0.0463
_refine_ls_wR_factor_gt 0.0463
_symmetry_cell_setting triclinic
_symmetry_space_group_name_H-M 'P -1'
_symmetry_Int_Tables_number 2
loop_
_symmetry_equiv_pos_site_id
_symmetry_equiv_pos_as_xyz
1 x,y,z
2 -x,-y,-z
_cell_length_a 5.9233(3)
_cell_length_b 8.8858(6)
_cell_length_c 11.7819(6)
_cell_angle_alpha 85.690(4)
_cell_angle_beta 83.500(4)
_cell_angle_gamma 84.015(3)
_cell_formula_units_Z 2
loop_
_atom_type_symbol
_atom_type_radius_bond
C 0.68
H 0.23
N 0.68
O 0.68
loop_
_atom_site_label
_atom_site_type_symbol
_atom_site_fract_x
_atom_site_fract_y
_atom_site_fract_z
C1 C -0.0102(2) 0.25092(17) 0.48425(12)
C2 C -0.1011(3) 0.16449(17) 0.58825(13)
O1 O -0.01697(19) 0.15137(13) 0.67849(9)
O2 O -0.28797(18) 0.09922(12) 0.57315(9)
C3 C -0.3924(3) 0.01442(18) 0.67134(13)
C4 C -0.1104(3) 0.25526(17) 0.38384(13)
C5 C -0.0232(2) 0.33629(16) 0.28586(12)
N1 N -0.1387(2) 0.32637(14) 0.18482(10)
O3 O -0.29427(19) 0.24313(13) 0.19017(9)
O4 O -0.07614(18) 0.39991(12) 0.09495(8)
C6 C 0.1675(2) 0.42110(17) 0.28497(12)
C7 C 0.2687(2) 0.41214(17) 0.38974(13)
C8 C 0.1831(3) 0.33033(17) 0.48494(13)
N2 N 0.5690(2) 0.61095(14) 0.25428(10)
N3 N 0.7122(2) 0.71132(15) 0.20095(10)
C9 C 0.6617(3) 0.76128(17) 0.09524(13)
C10 C 0.7883(3) 0.87870(19) 0.02643(14)
C11 C 0.4781(3) 0.68857(17) 0.07527(12)
C12 C 0.4275(2) 0.59795(16) 0.17602(12)
N4 N 0.2489(2) 0.50448(14) 0.19101(10)
H1 H -0.38160 0.06600 0.74090
H2 H -0.31300 -0.08780 0.67750
H3 H -0.55330 0.00760 0.66220
H4 H -0.24070 0.20220 0.38150
H5 H 0.39930 0.46450 0.39350
H6 H 0.25580 0.32700 0.55310
H7 H 0.82660 0.74060 0.23260
H8 H 0.95280 0.85140 0.02710
H9 H 0.74630 0.97710 0.05940
H10 H 0.74930 0.88510 -0.05250
H11 H 0.40190 0.69750 0.00800
H12 H 0.17840 0.49900 0.12980
#END
