
#######################################################################
#
#                 Cambridge Crystallographic Data Centre
#                                CCDC
#
#######################################################################
#
# If this CIF has been generated from an entry in the Cambridge
# Structural Database, then it will include bibliographic, chemical,
# crystal, experimental, refinement or atomic coordinate data resulting
# from the CCDC's data processing and validation procedures.
#
#######################################################################

data_CSD_CIF_WEWBIJ
_audit_creation_date 1995-01-18
_audit_creation_method CSD-ConQuest-V1
_database_code_CSD WEWBIJ
_chemical_formula_sum 'C12 H13 N1 O4'
_chemical_formula_moiety
;
C12 H13 N1 O4
;
_journal_coden_Cambridge 95
_journal_year 1992
_journal_page_first 1359
_journal_name_full 'Izv.Akad.Nauk SSSR,Ser.Khim.(Russ.)(Russ.Chem.Bull.) '
loop_
_publ_author_name
"E.Kh.Kazakova"
"G.R.Davletshina"
"O.N.Kataeva"
"I.A.Litvinov"
"S.G.Vul'son"
_chemical_name_systematic
;
p-Nitrophenoxycyclohexanone
;
_cell_volume   2250.730
_exptl_crystal_density_diffrn 1.39
_diffrn_ambient_temperature ?
_diffrn_special_details
;
The study was carried out at room temperature,in the range 283-303K

;
#These two values have been output from a single CSD field.
_refine_ls_R_factor_gt 0.045
_refine_ls_wR_factor_gt 0.045
_symmetry_cell_setting monoclinic
_symmetry_space_group_name_H-M 'I 2/a'
_symmetry_Int_Tables_number 15
loop_
_symmetry_equiv_pos_site_id
_symmetry_equiv_pos_as_xyz
1 x,y,z
2 1/2+x,1/2+y,1/2+z
3 1/2-x,y,-z
4 -x,1/2+y,1/2-z
5 -x,-y,-z
6 -1/2-x,-1/2-y,-1/2-z
7 -1/2+x,-y,z
8 x,-1/2-y,-1/2+z
_cell_length_a 15.688(4)
_cell_length_b 6.159(2)
_cell_length_c 23.591(5)
_cell_angle_alpha 90
_cell_angle_beta 99.10(2)
_cell_angle_gamma 90
_cell_formula_units_Z 8
loop_
_atom_type_symbol
_atom_type_radius_bond
C 0.68
N 0.68
O 0.68
loop_
_atom_site_label
_atom_site_type_symbol
_atom_site_fract_x
_atom_site_fract_y
_atom_site_fract_z
O1 O 0.4755(2) 0.0159(5) 0.3794(1)
O2 O 0.3979(2) -0.2953(4) 0.3076(1)
O3 O 0.3212(2) 0.4010(5) 0.1139(1)
O4 O 0.3957(2) 0.1679(5) 0.0735(1)
N1 N 0.3632(2) 0.2312(6) 0.1143(2)
C1 C 0.4158(2) -0.0740(6) 0.3946(2)
C2 C 0.3627(2) -0.2418(6) 0.3582(2)
C3 C 0.3593(3) -0.4541(7) 0.3912(2)
C4 C 0.3254(2) -0.4107(7) 0.4468(2)
C5 C 0.3818(3) -0.2468(7) 0.4838(2)
C6 C 0.3859(3) -0.0337(6) 0.4517(2)
C7 C 0.3892(2) -0.1545(7) 0.2627(2)
C8 C 0.3529(2) 0.0520(6) 0.2634(2)
C9 C 0.3461(2) 0.1782(7) 0.2148(2)
C10 C 0.3745(2) 0.0990(7) 0.1661(2)
C11 C 0.4122(2) -0.1035(7) 0.1655(2)
C12 C 0.4192(2) -0.2282(6) 0.2141(2)
#END
