
#######################################################################
#
#                 Cambridge Crystallographic Data Centre
#                                CCDC
#
#######################################################################
#
# If this CIF has been generated from an entry in the Cambridge
# Structural Database, then it will include bibliographic, chemical,
# crystal, experimental, refinement or atomic coordinate data resulting
# from the CCDC's data processing and validation procedures.
#
#######################################################################

data_CSD_CIF_WEWQEV
_audit_creation_date 2007-05-17
_audit_creation_method CSD-ConQuest-V1
_database_code_CSD WEWQEV
_database_code_depnum_ccdc_archive 'CCDC 638898'
_chemical_formula_sum 'C22 H31 N3 O9'
_chemical_formula_moiety
;
C22 H31 N3 O9
;
_journal_coden_Cambridge 4
_journal_volume 128
_journal_year 2006
_journal_page_first 17051
_journal_name_full 'J.Am.Chem.Soc. '
loop_
_publ_author_name
"Cheol-Kyu Jung"
"M.J.Krische"
_chemical_name_systematic
;
3,5-Dinitrobenzoic acid 
(1S,2S)-2-t-butoxycarbonylamino-4-methyl-1-((1S)-1-methyl-2-oxopropyl)pentyl 
ester
;
_chemical_melting_point 377.15
_cell_volume   2500.743
_exptl_crystal_colour 'colorless'
_exptl_crystal_density_diffrn 1.279
_exptl_special_details
;
Melting point range 377.15-379.15K

;
_exptl_crystal_description 'laths'
_diffrn_ambient_temperature 153
#These two values have been output from a single CSD field.
_refine_ls_R_factor_gt 0.0339
_refine_ls_wR_factor_gt 0.0339
_symmetry_cell_setting tetragonal
_symmetry_space_group_name_H-M 'P 43'
_symmetry_Int_Tables_number 78
loop_
_symmetry_equiv_pos_site_id
_symmetry_equiv_pos_as_xyz
1 x,y,z
2 -x,-y,1/2+z
3 -y,x,3/4+z
4 y,-x,1/4+z
_cell_length_a 10.5420(1)
_cell_length_b 10.5420(1)
_cell_length_c 22.5021(4)
_cell_angle_alpha 90
_cell_angle_beta 90
_cell_angle_gamma 90
_cell_formula_units_Z 4
loop_
_atom_type_symbol
_atom_type_radius_bond
C 0.68
H 0.23
N 0.68
O 0.68
loop_
_atom_site_label
_atom_site_type_symbol
_atom_site_fract_x
_atom_site_fract_y
_atom_site_fract_z
O1 O 0.36003(11) 0.28380(11) 0.31675(5)
O2 O 0.21281(11) 0.58174(10) 0.34693(5)
O3 O 0.14663(10) 0.71001(10) 0.42279(5)
O4 O 0.28793(10) 0.32946(10) 0.49864(5)
O5 O 0.43340(12) 0.18449(12) 0.52681(5)
O6 O 0.00897(13) 0.52487(13) 0.64266(6)
O7 O -0.05156(12) 0.40663(13) 0.71611(6)
O8 O 0.24401(15) 0.09271(14) 0.78996(6)
O9 O 0.39876(13) 0.02981(12) 0.73385(6)
N1 N 0.29113(12) 0.56307(12) 0.44083(6)
N2 N 0.01956(14) 0.43234(14) 0.67469(7)
N3 N 0.30509(15) 0.09525(14) 0.74344(6)
C1 C 0.14305(16) 0.30857(18) 0.28982(8)
H1 H 0.16810 0.27170 0.25160
H2 H 0.12220 0.39840 0.28430
H3 H 0.06860 0.26360 0.30520
C2 C 0.25069(16) 0.29644(15) 0.33324(7)
C3 C 0.21745(15) 0.29801(15) 0.39902(7)
H4 H 0.14920 0.36230 0.40570
C4 C 0.16589(17) 0.16615(16) 0.41572(8)
H5 H 0.23290 0.10270 0.41060
H6 H 0.09400 0.14500 0.38990
H7 H 0.13790 0.16680 0.45720
C5 C 0.33188(14) 0.33311(15) 0.43702(7)
H8 H 0.40080 0.26920 0.43120
C6 C 0.38412(14) 0.46691(14) 0.42610(7)
H9 H 0.40370 0.47470 0.38280
C7 C 0.21654(15) 0.61520(14) 0.39857(7)
C8 C 0.04450(15) 0.76954(14) 0.38825(7)
C9 C -0.05038(16) 0.66950(17) 0.36895(8)
H10 H -0.07110 0.61480 0.40280
H11 H -0.01360 0.61810 0.33700
H12 H -0.12770 0.71090 0.35450
C10 C -0.01385(17) 0.85939(17) 0.43352(8)
H13 H 0.05010 0.92100 0.44640
H14 H -0.04370 0.81080 0.46790
H15 H -0.08550 0.90420 0.41540
C11 C 0.09951(17) 0.84209(17) 0.33548(8)
H16 H 0.12910 0.78180 0.30540
H17 H 0.17090 0.89430 0.34890
H18 H 0.03390 0.89670 0.31830
C12 C 0.50759(15) 0.48886(16) 0.46051(8)
H19 H 0.49000 0.47850 0.50350
H20 H 0.56920 0.42240 0.44890
C13 C 0.56875(16) 0.61828(16) 0.45079(8)
H21 H 0.51130 0.68420 0.46800
C14 C 0.58779(19) 0.64853(19) 0.38533(9)
H22 H 0.50530 0.65030 0.36530
H23 H 0.64140 0.58330 0.36710
H24 H 0.62890 0.73150 0.38140
C15 C 0.69477(17) 0.62449(19) 0.48370(8)
H25 H 0.75270 0.56050 0.46750
H26 H 0.68070 0.60800 0.52610
H27 H 0.73210 0.70900 0.47870
C16 C 0.34437(15) 0.25250(15) 0.53735(7)
C17 C 0.28102(15) 0.26067(14) 0.59695(7)
C18 C 0.18309(15) 0.34632(15) 0.60781(7)
H28 H 0.15640 0.40440 0.57810
C19 C 0.12588(15) 0.34440(15) 0.66304(7)
C20 C 0.16199(16) 0.26330(16) 0.70796(8)
H29 H 0.12030 0.26330 0.74540
C21 C 0.26178(16) 0.18182(15) 0.69605(7)
C22 C 0.32215(15) 0.17821(15) 0.64126(7)
H30 H 0.39000 0.12080 0.63420
H31 H 0.2861(16) 0.5881(16) 0.4770(9)
#END
