
#######################################################################
#
#                 Cambridge Crystallographic Data Centre
#                                CCDC
#
#######################################################################
#
# If this CIF has been generated from an entry in the Cambridge
# Structural Database, then it will include bibliographic, chemical,
# crystal, experimental, refinement or atomic coordinate data resulting
# from the CCDC's data processing and validation procedures.
#
#######################################################################

data_CSD_CIF_WEWSOG10
_audit_creation_date 1996-08-19
_audit_creation_method CSD-ConQuest-V1
_database_code_CSD WEWSOG10
_database_code_depnum_ccdc_archive 'CCDC 1292708'
_chemical_formula_sum 'C11 H13 N1 O8'
_chemical_formula_moiety
;
C11 H13 N1 O8
;
_journal_coden_Cambridge 392
_journal_volume 42
_journal_year 1996
_journal_page_first 289
_journal_name_full 'Heterocycles '
loop_
_publ_author_name
"K.Harada"
"E.Kaji"
"K.Sasaki"
"S.Zen"
_chemical_name_systematic
;
Dimethyl 
7-hydroxy-3a,4,7,8-tetrahydro-5aH-furo(2,3-b)furo(3,4-d)isoxazole-3,4-dicarbox
ylate
;
_chemical_melting_point 407.15
_cell_volume    604.469
_exptl_crystal_density_diffrn 1.578
_exptl_special_details
;
Melting point range 407.15-409.15K

;
_diffrn_ambient_temperature ?
_diffrn_special_details
;
The study was carried out at room temperature,in the range 283-303K

;
#These two values have been output from a single CSD field.
_refine_ls_R_factor_gt 0.049
_refine_ls_wR_factor_gt 0.049
_symmetry_cell_setting triclinic
_symmetry_space_group_name_H-M 'P -1'
_symmetry_Int_Tables_number 2
loop_
_symmetry_equiv_pos_site_id
_symmetry_equiv_pos_as_xyz
1 x,y,z
2 -x,-y,-z
_cell_length_a 8.870(1)
_cell_length_b 12.159(1)
_cell_length_c 6.0696(6)
_cell_angle_alpha 102.08(1)
_cell_angle_beta 90.59(1)
_cell_angle_gamma 71.110(8)
_cell_formula_units_Z 2
loop_
_atom_type_symbol
_atom_type_radius_bond
C 0.68
N 0.68
O 0.68
loop_
_atom_site_label
_atom_site_type_symbol
_atom_site_fract_x
_atom_site_fract_y
_atom_site_fract_z
O1 O 0.2857(3) 0.1807(2) -0.1215(4)
O2 O 0.2415(3) 0.4226(2) 0.2711(4)
O3 O -0.0184(3) 0.4217(2) 0.1953(5)
O4 O 0.7542(3) 0.0808(3) 0.0689(5)
O5 O 0.6325(3) 0.1011(2) 0.4042(4)
O6 O 0.5588(3) 0.3641(2) 0.3916(4)
O7 O 0.4568(3) 0.361(62) 0.7268(4)
O8 O -0.0408(3) 0.3278(3) 0.4846(5)
N1 N 0.4487(3) 0.1376(3) -0.0900(5)
C1 C 0.4702(4) 0.1581(3) 0.1210(6)
C2 C 0.3211(4) 0.2176(3) 0.2743(6)
C3 C 0.1984(4) 0.2421(3) 0.0942(6)
C4 C 0.3005(4) 0.3426(3) 0.4197(6)
C5 C 0.1442(4) 0.3777(3) 0.1156(6)
C6 C 0.0440(4) 0.2153(4) 0.1114(7)
C7 C -0.0655(4) 0.3298(4) 0.2582(8)
C8 C 0.6366(4) 0.1092(3) 0.1889(6)
C9 C 0.7855(5) 0.0515(4) 0.4940(7)
C10 C 0.4538(4) 0.3585(3) 0.5070(6)
C11 C 0.6055(5) 0.3627(4) 0.8279(7)
#END
