
#######################################################################
#
#                 Cambridge Crystallographic Data Centre
#                                CCDC
#
#######################################################################
#
# If this CIF has been generated from an entry in the Cambridge
# Structural Database, then it will include bibliographic, chemical,
# crystal, experimental, refinement or atomic coordinate data resulting
# from the CCDC's data processing and validation procedures.
#
#######################################################################

data_CSD_CIF_WEXTUR
_audit_creation_date 2018-05-18
_audit_creation_method CSD-ConQuest-V1
_database_code_CSD WEXTUR
_database_code_depnum_ccdc_archive 'CCDC 1833867'
_chemical_formula_sum 'C34 H51 N3 O4'
_chemical_formula_moiety
;
C34 H51 N3 O4
;
_journal_coden_Cambridge 1475
_journal_volume 9
_journal_year 2018
_journal_page_first 5082
_journal_name_full 'Chemical Science '
loop_
_publ_author_name
"Xin Wen"
"Yong Wang"
"X.Peter Zhang"
_chemical_name_systematic
;
methyl 
(phenyl((2,2,6,6-tetramethylpiperidin-1-yl)oxy)methyl)(2-(((2,2,6,6-tetramethy
lpiperidin-1-yl)oxy)methyl)phenyl)carbamate
;
_cell_volume   3223.966
_exptl_crystal_colour 'colorless'
_exptl_crystal_density_diffrn 1.166
_exptl_crystal_description 'block'
_diffrn_ambient_temperature 100
#These two values have been output from a single CSD field.
_refine_ls_R_factor_gt 0.0334
_refine_ls_wR_factor_gt 0.0334
_symmetry_cell_setting monoclinic
_symmetry_space_group_name_H-M 'P 21/c'
_symmetry_Int_Tables_number 14
loop_
_symmetry_equiv_pos_site_id
_symmetry_equiv_pos_as_xyz
1 x,y,z
2 -x,1/2+y,1/2-z
3 -x,-y,-z
4 x,-1/2-y,-1/2+z
_cell_length_a 14.4518(5)
_cell_length_b 15.8358(5)
_cell_length_c 14.1208(4)
_cell_angle_alpha 90
_cell_angle_beta 93.946(1)
_cell_angle_gamma 90
_cell_formula_units_Z 4
loop_
_atom_type_symbol
_atom_type_radius_bond
C 0.68
H 0.23
N 0.68
O 0.68
loop_
_atom_site_label
_atom_site_type_symbol
_atom_site_fract_x
_atom_site_fract_y
_atom_site_fract_z
O1 O 0.44524(5) 0.39460(5) 0.43399(5)
O2 O 0.40407(5) 0.29148(5) 0.32791(5)
O3 O 0.25910(5) 0.59410(4) 0.40511(5)
O4 O 0.23017(5) 0.20846(4) 0.49106(5)
N1 N 0.30868(6) 0.33165(5) 0.44346(6)
N2 N 0.26132(6) 0.62568(5) 0.30848(6)
N3 N 0.25285(6) 0.12283(5) 0.46110(6)
C1 C 0.53163(7) 0.40516(8) 0.38995(9)
H1 H 0.57180 0.35640 0.40490
H2 H 0.56240 0.45680 0.41400
H3 H 0.51930 0.40940 0.32100
C2 C 0.38790(7) 0.33486(6) 0.39535(7)
C3 C 0.29419(7) 0.38882(6) 0.52072(7)
C4 C 0.30968(7) 0.35996(7) 0.61331(8)
H4 H 0.33170 0.30410 0.62480
C5 C 0.29317(7) 0.41241(7) 0.68917(8)
H5 H 0.30380 0.39280 0.75260
C6 C 0.26100(7) 0.49372(7) 0.67124(8)
H6 H 0.24910 0.52990 0.72270
C7 C 0.24600(7) 0.52273(7) 0.57883(8)
H7 H 0.22370 0.57860 0.56770
C8 C 0.26310(7) 0.47122(7) 0.50203(7)
C9 C 0.24795(8) 0.50415(7) 0.40208(7)
H8 H 0.29350 0.47870 0.36130
H9 H 0.18480 0.48940 0.37550
C10 C 0.17816(8) 0.68043(7) 0.28976(8)
C11 C 0.18397(8) 0.71573(7) 0.18911(8)
H10 H 0.17440 0.66900 0.14300
H11 H 0.13320 0.75700 0.17620
C12 C 0.27590(9) 0.75862(7) 0.17354(9)
H12 H 0.27730 0.77550 0.10620
H13 H 0.28230 0.81020 0.21300
C13 C 0.35617(8) 0.69915(7) 0.19963(8)
H14 H 0.41520 0.72970 0.19340
H15 H 0.35390 0.65150 0.15410
C14 C 0.35497(8) 0.66392(7) 0.30070(8)
C15 C 0.23728(7) 0.26856(6) 0.41623(7)
H16 H 0.25490 0.23840 0.35790
C16 C 0.14508(7) 0.31279(6) 0.39474(7)
C17 C 0.08918(7) 0.33755(7) 0.46635(8)
H17 H 0.10570 0.32230 0.53040
C18 C 0.00938(8) 0.38442(7) 0.44430(8)
H18 H -0.02800 0.40190 0.49350
C19 C -0.01616(7) 0.40584(7) 0.35098(8)
H19 H -0.07030 0.43870 0.33630
C20 C 0.03757(7) 0.37919(7) 0.27934(8)
H20 H 0.01940 0.39240 0.21510
C21 C 0.11805(7) 0.33306(7) 0.30112(7)
H21 H 0.15490 0.31520 0.25160
C22 C 0.33500(7) 0.09455(7) 0.52357(8)
C23 C 0.35333(8) 0.00207(7) 0.49754(8)
H22 H 0.37290 -0.00030 0.43180
H23 H 0.40490 -0.02000 0.54020
C24 C 0.26899(8) -0.05407(7) 0.50499(8)
H24 H 0.28360 -0.11240 0.48580
H25 H 0.25120 -0.05540 0.57140
C25 C 0.18945(8) -0.01946(7) 0.44068(8)
H26 H 0.13390 -0.05500 0.44720
H27 H 0.20600 -0.02340 0.37400
C26 C 0.16516(7) 0.07267(7) 0.46252(7)
C27 C 0.41791(7) 0.14712(7) 0.49655(8)
H28 H 0.42120 0.14620 0.42750
H29 H 0.47510 0.12340 0.52700
H30 H 0.41050 0.20550 0.51790
C28 C 0.32592(8) 0.10369(7) 0.63085(8)
H31 H 0.29700 0.15810 0.64380
H32 H 0.38760 0.10100 0.66420
H33 H 0.28730 0.05780 0.65300
C29 C 0.11503(8) 0.07872(7) 0.55465(8)
H34 H 0.14970 0.04690 0.60490
H35 H 0.05250 0.05510 0.54420
H36 H 0.11090 0.13800 0.57370
C30 C 0.09911(8) 0.10484(7) 0.38135(8)
H37 H 0.07560 0.16070 0.39760
H38 H 0.04710 0.06550 0.37100
H39 H 0.13230 0.10900 0.32330
C31 C 0.09320(8) 0.62324(8) 0.28994(8)
H40 H 0.10070 0.57550 0.24700
H41 H 0.03770 0.65540 0.26860
H42 H 0.08660 0.60210 0.35440
C32 C 0.16610(9) 0.75192(8) 0.36194(9)
H43 H 0.17920 0.73020 0.42650
H44 H 0.10230 0.77310 0.35500
H45 H 0.20920 0.79800 0.35030
C33 C 0.38395(9) 0.73199(8) 0.37463(9)
H46 H 0.35180 0.78500 0.35780
H47 H 0.45110 0.74090 0.37560
H48 H 0.36740 0.71350 0.43750
C34 C 0.42567(8) 0.59223(8) 0.31136(9)
H49 H 0.42910 0.57140 0.37690
H50 H 0.48670 0.61310 0.29610
H51 H 0.40650 0.54620 0.26800
#END
