
#######################################################################
#
#                 Cambridge Crystallographic Data Centre
#                                CCDC
#
#######################################################################
#
# If this CIF has been generated from an entry in the Cambridge
# Structural Database, then it will include bibliographic, chemical,
# crystal, experimental, refinement or atomic coordinate data resulting
# from the CCDC's data processing and validation procedures.
#
#######################################################################

data_CSD_CIF_WEYKUG
_audit_creation_date 1995-01-18
_audit_creation_method CSD-ConQuest-V1
_database_code_CSD WEYKUG
_chemical_formula_sum 'C22 H17 N3 O2'
_chemical_formula_moiety
;
C22 H17 N3 O2
;
_journal_coden_Cambridge 122
_journal_year 1991
_journal_page_first 1060
_journal_name_full 'Khim.Get.Soedin.,SSSR(Russ.)(Chem.Heterocycl.Compd.) '
loop_
_publ_author_name
"V.D.Orlov"
"Z.Kaluski"
"E.Figas"
"N.P.Vorob'eva"
"A.I.Bakumenko"
"F.G.Yaremenko"
_chemical_name_systematic
;
endo-6-(4-Nitrophenyl)-2,4-diphenyl-1,3-diazabicyclo(3.1.0)hex-3-ene
;
_chemical_melting_point 445.15
_cell_volume   1800.521
_exptl_special_details
;
Melting point range 445.15-446.15K
Dx reported as 1.36; we calculate 1.31. x(O15) is 0.0874, not 0.0814
;
_diffrn_ambient_temperature ?
_diffrn_special_details
;
The study was carried out at room temperature,in the range 283-303K

;
#These two values have been output from a single CSD field.
_refine_ls_R_factor_gt 0.068
_refine_ls_wR_factor_gt 0.068
_symmetry_cell_setting monoclinic
_symmetry_space_group_name_H-M 'P 21/n'
_symmetry_Int_Tables_number 14
loop_
_symmetry_equiv_pos_site_id
_symmetry_equiv_pos_as_xyz
1 x,y,z
2 1/2-x,1/2+y,1/2-z
3 -x,-y,-z
4 -1/2+x,-1/2-y,-1/2+z
_cell_length_a 5.558(1)
_cell_length_b 18.485(2)
_cell_length_c 17.801(3)
_cell_angle_alpha 90
_cell_angle_beta 100.101(1)
_cell_angle_gamma 90
_cell_formula_units_Z 4
loop_
_atom_type_symbol
_atom_type_radius_bond
C 0.68
N 0.68
O 0.68
loop_
_atom_site_label
_atom_site_type_symbol
_atom_site_fract_x
_atom_site_fract_y
_atom_site_fract_z
N1 N 0.4971(10) 0.2126(3) 0.5479(3)
C1 C 0.5713(10) 0.1349(3) 0.5519(3)
N2 N 0.8116(10) 0.1313(3) 0.6025(3)
C2 C 0.8703(12) 0.1935(4) 0.6314(4)
C3 C 0.6796(13) 0.2509(4) 0.6003(4)
C4 C 0.6643(12) 0.2605(3) 0.5163(3)
C5 C 0.5521(12) 0.3275(4) 0.4791(4)
C6 C 0.3530(13) 0.3613(4) 0.5004(4)
C7 C 0.2570(13) 0.4254(4) 0.4673(4)
C8 C 0.3682(13) 0.4550(4) 0.4114(4)
C9 C 0.5616(16) 0.4230(4) 0.3878(4)
C10 C 0.6531(12) 0.3585(4) 0.4204(4)
N3 N 0.2729(18) 0.5244(4) 0.3772(5)
O1 O 0.3900(15) 0.5537(4) 0.3334(4)
O2 O 0.0874(14) 0.5494(4) 0.3938(4)
C11 C 1.0922(10) 0.2086(4) 0.6868(3)
C12 C 1.2589(13) 0.1539(4) 0.7097(4)
C13 C 1.4750(14) 0.1661(4) 0.7593(4)
C14 C 1.5252(14) 0.2343(5) 0.7896(4)
C15 C 1.3588(17) 0.2886(5) 0.7682(4)
C16 C 1.1446(14) 0.2768(4) 0.7168(4)
C17 C 0.5844(15) 0.1043(4) 0.4734(4)
C18 C 0.7807(15) 0.0662(4) 0.4582(4)
C19 C 0.7793(15) 0.0358(4) 0.3870(5)
C20 C 0.5841(17) 0.0436(4) 0.3311(4)
C21 C 0.3882(17) 0.0818(5) 0.3451(3)
C22 C 0.3864(15) 0.1121(5) 0.4159(4)
#END
