
#######################################################################
#
#                 Cambridge Crystallographic Data Centre
#                                CCDC
#
#######################################################################
#
# If this CIF has been generated from an entry in the Cambridge
# Structural Database, then it will include bibliographic, chemical,
# crystal, experimental, refinement or atomic coordinate data resulting
# from the CCDC's data processing and validation procedures.
#
#######################################################################

data_CSD_CIF_WEYLAN
_audit_creation_date 1995-01-18
_audit_creation_method CSD-ConQuest-V1
_database_code_CSD WEYLAN
_chemical_formula_sum 'C10 H11 N5 O1'
_chemical_formula_moiety
;
C10 H11 N5 O1
;
_journal_coden_Cambridge 122
_journal_year 1991
_journal_page_first 1046
_journal_name_full 'Khim.Get.Soedin.,SSSR(Russ.)(Chem.Heterocycl.Compd.) '
loop_
_publ_author_name
"O.E.Nasakin"
"A.N.Lyschikov"
"P.M.Lukin"
"V.A.Tafeenko"
"A.Kh.Bulai"
"S.N.Krasnokutskii"
"P.B.Terent'ev"
_chemical_name_systematic
;
2-Amino-3,4,4-tricyano-N-hydroxy-2-pyrroline
;
_chemical_melting_point 380.15
_cell_volume    580.689
_exptl_special_details
;
Melting point range 380.15-381.15K

;
_diffrn_ambient_temperature ?
_diffrn_special_details
;
The study was carried out at room temperature,in the range 283-303K

;
#These two values have been output from a single CSD field.
_refine_ls_R_factor_gt 0.039
_refine_ls_wR_factor_gt 0.039
_symmetry_cell_setting triclinic
_symmetry_space_group_name_H-M 'P -1'
_symmetry_Int_Tables_number 2
loop_
_symmetry_equiv_pos_site_id
_symmetry_equiv_pos_as_xyz
1 x,y,z
2 -x,-y,-z
_cell_length_a 8.369(2)
_cell_length_b 8.560(3)
_cell_length_c 9.544(3)
_cell_angle_alpha 66.99(2)
_cell_angle_beta 76.80(2)
_cell_angle_gamma 67.97(2)
_cell_formula_units_Z 2
loop_
_atom_type_symbol
_atom_type_radius_bond
C 0.68
N 0.68
O 0.68
loop_
_atom_site_label
_atom_site_type_symbol
_atom_site_fract_x
_atom_site_fract_y
_atom_site_fract_z
O1 O 0.3687(2) 0.4940(2) 0.8409(2)
N1 N 0.4909(2) 0.3757(2) 0.7679(2)
N2 N 0.7067(2) 0.3570(2) 0.8999(2)
N3 N 0.9945(3) -0.1302(3) 0.9082(2)
N4 N 0.5782(3) -0.2215(2) 0.8162(2)
N5 N 0.6974(3) 0.2115(2) 0.4401(2)
C1 C 0.6434(3) 0.2799(2) 0.8398(2)
C2 C 0.7107(3) 0.1124(2) 0.8256(2)
C3 C 0.5963(3) 0.1017(2) 0.7316(2)
C4 C 0.4195(3) 0.2433(2) 0.7633(2)
C5 C 0.2882(3) 0.3246(3) 0.6472(2)
C6 C 0.2306(3) 0.1807(3) 0.6345(3)
C7 C 0.0844(3) 0.2592(3) 0.5332(3)
C8 C 0.6537(3) 0.1599(2) 0.5658(2)
C9 C 0.5808(3) -0.0802(2) 0.7795(2)
C10 C 0.8694(3) -0.0189(3) 0.8688(2)
#END
