
#######################################################################
#
#                 Cambridge Crystallographic Data Centre
#                                CCDC
#
#######################################################################
#
# If this CIF has been generated from an entry in the Cambridge
# Structural Database, then it will include bibliographic, chemical,
# crystal, experimental, refinement or atomic coordinate data resulting
# from the CCDC's data processing and validation procedures.
#
#######################################################################

data_CSD_CIF_WEYLIY
_audit_creation_date 2018-05-20
_audit_creation_method CSD-ConQuest-V1
_database_code_CSD WEYLIY
_database_code_depnum_ccdc_archive 'CCDC 1823325'
_chemical_formula_sum 'C13 H12 N4 O2'
_chemical_formula_moiety
;
C13 H12 N4 O2
;
_journal_coden_Cambridge 16
_journal_volume 74
_journal_year 2018
_journal_page_first 3578
_journal_name_full 'Tetrahedron '
loop_
_publ_author_name
"N.A.Bumagin"
"A.V.Kletskov"
"S.K.Petkevich"
"I.A.Kolesnik"
"A.S.Lyakhov"
"L.S.Ivashkevich"
"A.V.Baranovsky"
"P.V.Kurman"
"V.I.Potkin"
_chemical_name_systematic
;
{1-[(5-phenyl-1,2-oxazol-3-yl)methyl]-1H-1,2,3-triazol-4-yl}methanol
;
_cell_volume    613.383
_exptl_crystal_colour 'yellow'
_exptl_crystal_density_diffrn 1.388
_exptl_crystal_description 'block'
_diffrn_ambient_temperature 296
_diffrn_special_details
;
twin

;
#These two values have been output from a single CSD field.
_refine_ls_R_factor_gt 0.0429
_refine_ls_wR_factor_gt 0.0429
_symmetry_cell_setting triclinic
_symmetry_space_group_name_H-M 'P -1'
_symmetry_Int_Tables_number 2
loop_
_symmetry_equiv_pos_site_id
_symmetry_equiv_pos_as_xyz
1 x,y,z
2 -x,-y,-z
_cell_length_a 5.9094(1)
_cell_length_b 7.8176(1)
_cell_length_c 14.5953(3)
_cell_angle_alpha 100.2381(9)
_cell_angle_beta 94.2600(11)
_cell_angle_gamma 110.7872(11)
_cell_formula_units_Z 2
loop_
_atom_type_symbol
_atom_type_radius_bond
C 0.68
H 0.23
N 0.68
O 0.68
loop_
_atom_site_label
_atom_site_type_symbol
_atom_site_fract_x
_atom_site_fract_y
_atom_site_fract_z
N1 N 0.1960(2) 1.06766(15) 0.62971(8)
N2 N -0.0222(2) 0.92715(18) 0.60757(9)
N3 N 0.0185(2) 0.77586(17) 0.57231(9)
C1 C 0.2618(2) 0.81993(19) 0.57137(9)
C2 C 0.3755(3) 1.00745(19) 0.60877(10)
H1 H 0.54245 1.07846 0.61781
C3 C 0.2099(3) 1.2550(2) 0.67399(10)
H2 H 0.08586 1.28464 0.64025
H3 H 0.36887 1.34696 0.67078
C4 C 0.1717(3) 1.26433(19) 0.77442(10)
N4 N -0.0267(3) 1.2820(2) 0.79961(10)
O1 O -0.0080(2) 1.28316(18) 0.89664(8)
C5 C 0.2032(3) 1.2637(2) 0.92441(10)
C6 C 0.3218(3) 1.2515(2) 0.85007(10)
H4 H 0.47153 1.23757 0.84891
C7 C 0.2524(3) 1.2580(2) 1.02335(11)
C8 C 0.1190(4) 1.3072(3) 1.08927(13)
H5 H -0.00448 1.34769 1.07154
C9 C 0.1678(4) 1.2968(4) 1.18186(14)
H6 H 0.07815 1.33196 1.22611
C10 C 0.3460(4) 1.2354(3) 1.20891(13)
H7 H 0.37360 1.22349 1.27060
C11 C 0.4827(4) 1.1920(3) 1.14448(15)
H8 H 0.60773 1.15357 1.16290
C12 C 0.4387(4) 1.2041(3) 1.05205(13)
H9 H 0.53550 1.17556 1.00904
C13 C 0.3612(3) 0.6767(2) 0.53222(11)
H10 H 0.53856 0.73296 0.54207
H11 H 0.31305 0.57541 0.56549
O2 O 0.2750(2) 0.60298(14) 0.43450(7)
H12 H 0.19356 0.49041 0.42558
#END
