
#######################################################################
#
#                 Cambridge Crystallographic Data Centre
#                                CCDC
#
#######################################################################
#
# If this CIF has been generated from an entry in the Cambridge
# Structural Database, then it will include bibliographic, chemical,
# crystal, experimental, refinement or atomic coordinate data resulting
# from the CCDC's data processing and validation procedures.
#
#######################################################################

data_CSD_CIF_WEZQIE
_audit_creation_date 2018-05-21
_audit_creation_method CSD-ConQuest-V1
_database_code_CSD WEZQIE
_database_code_depnum_ccdc_archive 'CCDC 1811118'
_chemical_formula_sum 'C12 H23 N1 O3'
_chemical_formula_moiety
;
C12 H23 N1 O3
;
_journal_coden_Cambridge 35
_journal_volume 83
_journal_year 2018
_journal_page_first 5392
_journal_name_full 'J.Org.Chem. '
loop_
_publ_author_name
"S.A.Dobrynin"
"Y.I.Glazachev"
"Y.V.Gatilov"
"E.I.Chernyak"
"G.E.Salnikov"
"I.A.Kirilyuk"
_chemical_name_systematic
;
2,2,5-Triethyl-3,4-bis(hydroxymethyl)-3,4-dihydro-2H-pyrrole N-oxide
;
_chemical_melting_point 353
_cell_volume   2622.331
_exptl_crystal_colour 'colorless'
_exptl_crystal_density_diffrn 1.162
_exptl_crystal_description 'block'
_diffrn_ambient_temperature 296
#These two values have been output from a single CSD field.
_refine_ls_R_factor_gt 0.0517
_refine_ls_wR_factor_gt 0.0517
_symmetry_cell_setting orthorhombic
_symmetry_space_group_name_H-M 'P b c a'
_symmetry_Int_Tables_number 61
loop_
_symmetry_equiv_pos_site_id
_symmetry_equiv_pos_as_xyz
1 x,y,z
2 1/2-x,-y,1/2+z
3 -x,1/2+y,1/2-z
4 1/2+x,1/2-y,-z
5 -x,-y,-z
6 -1/2+x,y,-1/2-z
7 x,-1/2-y,-1/2+z
8 -1/2-x,-1/2+y,z
_cell_length_a 13.9856(5)
_cell_length_b 12.0156(5)
_cell_length_c 15.6049(6)
_cell_angle_alpha 90
_cell_angle_beta 90
_cell_angle_gamma 90
_cell_formula_units_Z 8
loop_
_atom_type_symbol
_atom_type_radius_bond
C 0.68
H 0.23
N 0.68
O 0.68
loop_
_atom_site_label
_atom_site_type_symbol
_atom_site_fract_x
_atom_site_fract_y
_atom_site_fract_z
N1 N 0.98786(9) 0.72838(10) 0.70611(8)
O1 O 0.90486(11) 1.08637(11) 0.60234(10)
O2 O 0.9883(1) 0.63352(10) 0.74796(9)
O3 O 1.14897(10) 0.97570(13) 0.69728(11)
C1 C 0.90329(11) 0.80287(13) 0.71428(10)
C2 C 1.02716(11) 0.87311(13) 0.61549(10)
H1 H 1.00540 0.86170 0.55650
C3 C 0.94139(11) 0.90953(12) 0.67059(10)
H2 H 0.96810 0.95530 0.71670
C4 C 1.13928(13) 0.69523(16) 0.63395(14)
H3 H 1.14550 0.63670 0.67640
H4 H 1.19530 0.74260 0.63840
C5 C 1.05293(11) 0.76222(13) 0.65367(10)
C6 C 0.88176(15) 0.82104(17) 0.80964(12)
H5 H 0.83050 0.87500 0.81440
H6 H 0.85850 0.75150 0.83340
C7 C 0.86643(13) 0.98169(14) 0.62681(12)
H7 H 0.84260 0.94350 0.57640
H8 H 0.81310 0.99330 0.66560
C8 C 1.11047(13) 0.95532(16) 0.61494(13)
H9 H 1.16060 0.92650 0.57820
H10 H 1.08880 1.02520 0.59070
C9 C 0.81809(12) 0.74468(16) 0.67081(13)
H11 H 0.79750 0.68390 0.70730
H12 H 0.76560 0.79730 0.66750
C10 C 0.83558(16) 0.69886(19) 0.58215(15)
H13 H 0.85790 0.75740 0.54540
H14 H 0.77710 0.66890 0.55970
H15 H 0.88290 0.64110 0.58500
C11 C 0.96531(19) 0.8609(2) 0.86415(12)
H16 H 1.01720 0.80900 0.85950
H17 H 0.94550 0.86620 0.92290
H18 H 0.98590 0.93270 0.84440
C12 C 1.13694(19) 0.6434(2) 0.54611(16)
H19 H 1.08210 0.59580 0.54140
H20 H 1.19400 0.60060 0.53730
H21 H 1.13320 0.70100 0.50360
H22 H 1.1168(18) 1.026(2) 0.7193(15)
H23 H 0.9299(19) 1.110(2) 0.6472(17)
#END
