
#######################################################################
#
#                 Cambridge Crystallographic Data Centre
#                                CCDC
#
#######################################################################
#
# If this CIF has been generated from an entry in the Cambridge
# Structural Database, then it will include bibliographic, chemical,
# crystal, experimental, refinement or atomic coordinate data resulting
# from the CCDC's data processing and validation procedures.
#
#######################################################################

data_CSD_CIF_WIBCAL
_audit_creation_date 1995-03-06
_audit_creation_method CSD-ConQuest-V1
_database_code_CSD WIBCAL
_chemical_formula_sum 'C8 H8 N4 O2'
_chemical_formula_moiety
;
C8 H8 N4 O2
;
_journal_coden_Cambridge 1135
_journal_year 1994
_journal_page_first 57
_journal_name_full 'Mendeleev Commun. '
loop_
_publ_author_name
"L.S.Vasil'ev"
"A.B.Sheremetev"
"V.A.Dorokhov"
"N.K.Khoa"
"M.O.Dekaprilevich"
"Yu.T.Struchkov"
"L.I.Khmel'nitskii"
_chemical_name_systematic
;
4-Acetyl-5-amino-3-methyl-8-oxa-2,7,9-triazabicyclo(4.3.0)non-2,4,6,9-tetraene
;
_chemical_melting_point 470.15
_cell_volume   1692.199
_exptl_crystal_colour 'pale yellow'
_exptl_crystal_density_diffrn 1.509
_exptl_special_details
;
Melting point range 470.15-471.15K

;
_diffrn_ambient_temperature 153
#These two values have been output from a single CSD field.
_refine_ls_R_factor_gt 0.054
_refine_ls_wR_factor_gt 0.054
_symmetry_cell_setting orthorhombic
_symmetry_space_group_name_H-M 'P c c n'
_symmetry_Int_Tables_number 56
loop_
_symmetry_equiv_pos_site_id
_symmetry_equiv_pos_as_xyz
1 x,y,z
2 1/2-x,y,1/2+z
3 x,1/2-y,1/2+z
4 1/2-x,1/2-y,z
5 -x,-y,-z
6 -1/2+x,-y,-1/2-z
7 -x,-1/2+y,-1/2-z
8 -1/2+x,-1/2+y,-z
_cell_length_a 8.952(2)
_cell_length_b 9.914(3)
_cell_length_c 19.067(6)
_cell_angle_alpha 90
_cell_angle_beta 90
_cell_angle_gamma 90
_cell_formula_units_Z 8
loop_
_atom_type_symbol
_atom_type_radius_bond
C 0.68
H 0.23
N 0.68
O 0.68
loop_
_atom_site_label
_atom_site_type_symbol
_atom_site_fract_x
_atom_site_fract_y
_atom_site_fract_z
O1 O -0.0890(4) 0.3531(4) -0.1899(2)
O2 O 0.0552(4) 0.2049(4) 0.1258(2)
N1 N -0.0261(4) 0.2849(4) 0.0806(2)
N2 N -0.1248(5) 0.3939(4) -0.0546(3)
N3 N 0.1446(4) 0.1120(4) 0.0902(2)
N4 N 0.1847(4) 0.0717(4) -0.0309(2)
C1 C -0.0531(7) 0.1342(6) -0.2324(3)
C2 C -0.0376(5) 0.2418(5) -0.1777(3)
C3 C 0.1171(5) 0.1361(5) 0.0236(3)
C4 C 0.2159(6) 0.0413(6) -0.1532(3)
C5 C 0.1355(5) 0.1094(5) -0.0933(3)
C6 C 0.0240(5) 0.2103(5) -0.1070(2)
C7 C -0.0337(5) 0.2870(5) -0.0498(3)
C8 C 0.0132(5) 0.2424(5) 0.0185(3)
H1 H -0.1278(66) 0.1659(63) -0.2630(32)
H2 H 0.0379(62) 0.1267(63) -0.2676(32)
H3 H -0.0757(63) 0.0487(68) -0.2121(32)
H4 H -0.1446(65) 0.4228(63) -0.0963(35)
H5 H -0.1694(63) 0.4204(62) -0.0182(33)
H6 H 0.3101(65) -0.0018(62) -0.1315(30)
H7 H 0.1591(63) -0.0304(61) -0.1762(33)
H8 H 0.2417(60) 0.1071(62) -0.1912(30)
#END
