
#######################################################################
#
#                 Cambridge Crystallographic Data Centre
#                                CCDC
#
#######################################################################
#
# If this CIF has been generated from an entry in the Cambridge
# Structural Database, then it will include bibliographic, chemical,
# crystal, experimental, refinement or atomic coordinate data resulting
# from the CCDC's data processing and validation procedures.
#
#######################################################################

data_CSD_CIF_WICCIU
_audit_creation_date 1995-01-12
_audit_creation_method CSD-ConQuest-V1
_database_code_CSD WICCIU
_chemical_formula_sum 'C24 H17 N1 O2'
_chemical_formula_moiety
;
C24 H17 N1 O2
;
_journal_coeditor_code "IUCr KA1051"
_journal_coden_Cambridge 591
_journal_volume 50
_journal_year 1994
_journal_page_first 1516
_journal_name_full 'Acta Crystallogr.,Sect.C:Cryst.Struct.Commun. '
loop_
_publ_author_name
"R.Anulewicz"
"B.Pniewska"
"P.Milart"
_chemical_name_systematic
;
2,4,6-Triphenylnitrobenzene
;
_cell_volume   3769.589
_exptl_crystal_colour 'yellow'
_exptl_crystal_density_diffrn 1.238
_diffrn_ambient_temperature ?
_diffrn_special_details
;
The study was carried out at room temperature,in the range 283-303K

;
#These two values have been output from a single CSD field.
_refine_ls_R_factor_gt 0.0566
_refine_ls_wR_factor_gt 0.0566
_symmetry_cell_setting monoclinic
_symmetry_space_group_name_H-M 'P 21/a'
_symmetry_Int_Tables_number 14
loop_
_symmetry_equiv_pos_site_id
_symmetry_equiv_pos_as_xyz
1 x,y,z
2 1/2-x,1/2+y,-z
3 -x,-y,-z
4 -1/2+x,-1/2-y,z
_cell_length_a 10.011(5)
_cell_length_b 13.163(5)
_cell_length_c 28.896(8)
_cell_angle_alpha 90
_cell_angle_beta 98.12(3)
_cell_angle_gamma 90
_cell_formula_units_Z 8
loop_
_atom_type_symbol
_atom_type_radius_bond
C 0.68
H 0.23
N 0.68
O 0.68
loop_
_atom_site_label
_atom_site_type_symbol
_atom_site_fract_x
_atom_site_fract_y
_atom_site_fract_z
N1 N 0.6313(5) -0.2021(4) 0.3228(2)
O1 O 0.6781(4) -0.1643(3) 0.2900(2)
O2 O 0.5394(4) -0.1661(3) 0.3406(1)
C1 C 0.6909(5) -0.2987(4) 0.3420(2)
C2 C 0.6773(5) -0.3851(4) 0.3137(2)
C3 C 0.7343(5) -0.4739(4) 0.3331(2)
C4 C 0.8002(5) -0.4780(4) 0.3787(2)
C5 C 0.8106(5) -0.3895(4) 0.4054(2)
C6 C 0.7570(5) -0.2990(4) 0.3874(2)
C7 C 0.6072(6) -0.3821(4) 0.2645(2)
C8 C 0.6770(6) -0.4047(4) 0.2280(2)
C9 C 0.6116(8) -0.4017(4) 0.1826(2)
C10 C 0.4777(8) -0.3774(4) 0.1736(2)
C11 C 0.4077(7) -0.3554(4) 0.2096(2)
C12 C 0.4724(7) -0.3579(4) 0.2555(2)
C13 C 0.8614(6) -0.5743(4) 0.3980(2)
C14 C 0.7982(6) -0.6670(4) 0.3889(2)
C15 C 0.8562(7) -0.7562(5) 0.4074(2)
C16 C 0.9774(7) -0.7530(5) 0.4363(2)
C17 C 1.0411(7) -0.6618(5) 0.4457(2)
C18 C 0.9852(6) -0.5726(4) 0.4267(2)
C19 C 0.7802(6) -0.2039(4) 0.4157(2)
C20 C 0.7228(6) -0.1904(5) 0.4561(2)
C21 C 0.7509(7) -0.1033(6) 0.4826(2)
C22 C 0.8373(7) -0.0309(5) 0.4694(3)
C23 C 0.8945(7) -0.0434(5) 0.4293(3)
C24 C 0.8664(7) -0.1310(5) 0.4026(2)
N2 N 0.4371(5) 0.2410(3) 0.0623(2)
O3 O 0.5538(4) 0.2114(3) 0.0659(1)
O4 O 0.3684(4) 0.2620(3) 0.0255(1)
C25 C 0.3753(5) 0.2533(4) 0.1055(1)
C26 C 0.3569(5) 0.1686(4) 0.1325(2)
C27 C 0.2945(5) 0.1844(4) 0.1720(2)
C28 C 0.2542(5) 0.2810(4) 0.1846(2)
C29 C 0.2783(5) 0.3635(4) 0.1567(2)
C30 C 0.3393(5) 0.3518(4) 0.1166(2)
C31 C 0.3928(5) 0.0622(4) 0.1205(2)
C32 C 0.4567(5) 0.0010(4) 0.1561(2)
C33 C 0.4871(6) -0.1002(4) 0.1471(2)
C34 C 0.4510(6) -0.1388(4) 0.1024(3)
C35 C 0.3858(6) -0.0784(5) 0.0670(2)
C36 C 0.3571(5) 0.0218(4) 0.0763(2)
C37 C 0.1856(5) 0.2951(4) 0.2263(2)
C38 C 0.1024(5) 0.2197(5) 0.2407(2)
C39 C 0.0376(6) 0.2337(6) 0.2798(2)
C40 C 0.0565(7) 0.3225(6) 0.3049(2)
C41 C 0.1388(7) 0.3987(5) 0.2918(2)
C42 C 0.2032(6) 0.3840(4) 0.2525(2)
C43 C 0.3584(6) 0.4425(3) 0.0875(2)
C44 C 0.4834(5) 0.4690(4) 0.0758(2)
C45 C 0.4975(6) 0.5581(4) 0.0502(2)
C46 C 0.3868(7) 0.6184(4) 0.0368(2)
C47 C 0.2624(6) 0.5922(4) 0.0486(2)
C48 C 0.2474(6) 0.5040(4) 0.0740(2)
H1 H 0.7275(5) -0.5419(4) 0.3120(2)
H2 H 0.8616(5) -0.3917(4) 0.4409(2)
H3 H 0.7827(6) -0.4245(4) 0.2347(2)
H4 H 0.6666(8) -0.4193(4) 0.1540(2)
H5 H 0.4273(8) -0.3750(4) 0.1381(2)
H6 H 0.3018(7) -0.3367(4) 0.2025(2)
H7 H 0.4168(7) -0.3404(4) 0.2839(2)
H8 H 0.7019(6) -0.6702(4) 0.3668(2)
H9 H 0.8063(7) -0.8280(5) 0.3991(2)
H10 H 1.0221(7) -0.8220(5) 0.4517(2)
H11 H 1.1368(7) -0.6594(5) 0.4682(2)
H12 H 1.0378(6) -0.5015(4) 0.4340(2)
H13 H 0.6561(6) -0.2473(5) 0.4671(2)
H14 H 0.7051(7) -0.0923(6) 0.5139(2)
H15 H 0.8596(7) 0.0363(5) 0.4906(3)
H16 H 0.9610(7) 0.0138(5) 0.4186(3)
H17 H 0.9126(7) -0.1418(5) 0.3714(2)
H18 H 0.2770(5) 0.1201(4) 0.1936(2)
H19 H 0.2492(5) 0.4386(4) 0.1665(2)
H20 H 0.4835(5) 0.0315(4) 0.1909(2)
H21 H 0.5381(6) -0.1476(4) 0.1746(2)
H22 H 0.4737(6) -0.2170(4) 0.0952(3)
H23 H 0.3578(6) -0.1090(5) 0.0323(2)
H24 H 0.3063(5) 0.0690(4) 0.0486(2)
H25 H 0.0877(5) 0.1495(5) 0.2213(2)
H26 H -0.0272(6) 0.1751(6) 0.2904(2)
H27 H 0.0062(7) 0.3332(6) 0.3353(2)
H28 H 0.1534(7) 0.4683(5) 0.3116(2)
H29 H 0.2681(6) 0.4429(4) 0.2422(2)
H30 H 0.5703(5) 0.4216(4) 0.0865(2)
H31 H 0.5947(6) 0.5789(4) 0.0410(2)
H32 H 0.3971(7) 0.6868(4) 0.0170(2)
H33 H 0.1760(6) 0.6403(4) 0.0382(2)
H34 H 0.1498(6) 0.4837(4) 0.0830(2)
#END
