
#######################################################################
#
#                 Cambridge Crystallographic Data Centre
#                                CCDC
#
#######################################################################
#
# If this CIF has been generated from an entry in the Cambridge
# Structural Database, then it will include bibliographic, chemical,
# crystal, experimental, refinement or atomic coordinate data resulting
# from the CCDC's data processing and validation procedures.
#
#######################################################################

data_CSD_CIF_WICHOH
_audit_creation_date 2013-05-26
_audit_creation_method CSD-ConQuest-V1
_database_code_CSD WICHOH
_database_code_depnum_ccdc_archive 'CCDC 932902'
_chemical_formula_sum 'C23 H19 N5 O3'
_chemical_formula_moiety
;
C23 H19 N5 O3
;
_journal_coden_Cambridge 35
_journal_volume 77
_journal_year 2012
_journal_page_first 3679
_journal_name_full 'J.Org.Chem. '
loop_
_publ_author_name
"N.Masurier"
"R.Aruta"
"V.Gaumet"
"S.Denoyelle"
"E.Moreau"
"V.Lisowski"
"J.Martinez"
"L.T.Maillard"
_chemical_name_systematic
;
(2S,4S)-4-Benzyl-2-(4-nitrophenyl)-1,2,3,4-tetrahydro-5H-pyrido[1',2':1,2]imid
azo[4,5-d][1,3]diazepin-5-one
;
_chemical_melting_point 466.2
_cell_volume   1998.713
_exptl_crystal_colour 'colorless'
_exptl_crystal_density_diffrn 1.374
_exptl_crystal_description 'plate'
_diffrn_ambient_temperature 293
#These two values have been output from a single CSD field.
_refine_ls_R_factor_gt 0.0514
_refine_ls_wR_factor_gt 0.0514
_symmetry_cell_setting monoclinic
_symmetry_space_group_name_H-M 'P 21'
_symmetry_Int_Tables_number 4
loop_
_symmetry_equiv_pos_site_id
_symmetry_equiv_pos_as_xyz
1 x,y,z
2 -x,1/2+y,-z
_cell_length_a 9.4780(9)
_cell_length_b 18.0430(17)
_cell_length_c 11.7865(11)
_cell_angle_alpha 90
_cell_angle_beta 97.428(3)
_cell_angle_gamma 90
_cell_formula_units_Z 4
loop_
_atom_type_symbol
_atom_type_radius_bond
C 0.68
H 0.23
N 0.68
O 0.68
loop_
_atom_site_label
_atom_site_type_symbol
_atom_site_fract_x
_atom_site_fract_y
_atom_site_fract_z
N1 N 0.4055(5) 0.8511(2) 0.0180(4)
H1 H 0.405(6) 0.8985(15) 0.041(5)
C1 C 0.5150(6) 0.8060(3) 0.0838(5)
H2 H 0.56590 0.78130 0.02720
N2 N 0.4614(5) 0.7490(3) 0.1465(4)
H3 H 0.531(5) 0.754(3) 0.212(2)
C2 C 0.4318(5) 0.6766(3) 0.0884(4)
H4 H 0.52060 0.65800 0.06460
C3 C 0.3159(6) 0.6761(3) -0.0169(4)
C4 C 0.2747(6) 0.7431(3) -0.0765(4)
N3 N 0.1649(5) 0.7435(3) -0.1708(3)
C5 C 0.0926(6) 0.6854(4) -0.2282(5)
H5 H 0.11400 0.63650 -0.20800
C6 C -0.0105(7) 0.7020(4) -0.3147(6)
H6 H -0.06310 0.66390 -0.35280
C7 C -0.0392(7) 0.7746(4) -0.3476(6)
H7 H -0.10960 0.78440 -0.40820
C8 C 0.0339(6) 0.8317(4) -0.2927(5)
H8 H 0.01530 0.88030 -0.31630
C9 C 0.1385(6) 0.8161(3) -0.1992(4)
N4 N 0.2183(5) 0.8625(2) -0.1303(4)
C10 C 0.3041(6) 0.8196(3) -0.0594(4)
C11 C 0.6226(5) 0.8536(3) 0.1524(5)
C12 C 0.6777(6) 0.8356(3) 0.2631(5)
H9 H 0.64290 0.79460 0.29820
C13 C 0.7838(6) 0.8779(4) 0.3219(5)
H10 H 0.81800 0.86730 0.39770
C14 C 0.8376(6) 0.9355(4) 0.2670(6)
C15 C 0.7869(6) 0.9549(3) 0.1582(5)
H11 H 0.82500 0.99480 0.12250
C16 C 0.6770(6) 0.9133(3) 0.1022(5)
H12 H 0.63900 0.92640 0.02820
N5 N 0.9549(6) 0.9814(4) 0.3295(7)
O1 O 0.9780(7) 0.9720(5) 0.4317(6)
O2 O 1.0223(7) 1.0216(3) 0.2748(7)
C17 C 0.3862(6) 0.6237(4) 0.1784(5)
H13 H 0.34370 0.57980 0.14050
H14 H 0.31430 0.64760 0.21720
C18 C 0.5108(6) 0.6002(4) 0.2673(5)
C19 C 0.5850(6) 0.5368(4) 0.2534(6)
H15 H 0.56400 0.50890 0.18700
C20 C 0.6922(8) 0.5137(6) 0.3381(9)
H16 H 0.74050 0.46950 0.32990
C21 C 0.7260(9) 0.5571(8) 0.4345(9)
H17 H 0.79830 0.54260 0.49110
C22 C 0.6565(9) 0.6184(6) 0.4460(6)
H18 H 0.68140 0.64740 0.51080
C23 C 0.5490(7) 0.6414(4) 0.3664(6)
H19 H 0.50050 0.68500 0.37810
O3 O 0.2616(5) 0.6156(2) -0.0477(4)
N6 N 0.8527(5) 0.5213(3) 0.0565(4)
H20 H 0.830(6) 0.4785(19) 0.083(5)
C24 C 0.9391(5) 0.5629(3) 0.1454(5)
H21 H 0.87960 0.57620 0.20440
N7 N 0.9982(4) 0.6299(2) 0.1048(4)
H22 H 1.051(3) 0.6436(12) 0.161(3)
C25 C 0.9075(5) 0.6952(3) 0.0905(4)
H23 H 0.84760 0.69400 0.15230
C26 C 0.8079(5) 0.6952(3) -0.0204(4)
C27 C 0.7485(5) 0.6267(3) -0.0634(4)
N8 N 0.6425(4) 0.6240(3) -0.1598(3)
C28 C 0.5790(6) 0.6775(4) -0.2286(5)
H24 H 0.60690 0.72660 -0.21630
C29 C 0.4760(8) 0.6610(4) -0.3146(6)
H25 H 0.43170 0.69830 -0.36060
C30 C 0.4369(7) 0.5873(4) -0.3336(5)
H26 H 0.36760 0.57570 -0.39420
C31 C 0.4969(7) 0.5323(4) -0.2664(5)
H27 H 0.46930 0.48330 -0.28000
C32 C 0.6011(6) 0.5505(3) -0.1764(4)
N9 N 0.6725(5) 0.5061(3) -0.0958(4)
C33 C 0.7625(5) 0.5524(3) -0.0283(4)
C34 C 1.0596(5) 0.5130(3) 0.1994(4)
C35 C 1.1108(6) 0.5244(3) 0.3141(5)
H28 H 1.06850 0.55960 0.35640
C36 C 1.2254(7) 0.4830(4) 0.3650(6)
H29 H 1.26130 0.49080 0.44130
C37 C 1.2849(6) 0.4306(3) 0.3023(6)
C38 C 1.2359(6) 0.4177(3) 0.1899(5)
H30 H 1.27820 0.38190 0.14860
C39 C 1.1224(6) 0.4586(3) 0.1391(5)
H31 H 1.08710 0.44970 0.06290
N10 N 1.4058(6) 0.3859(4) 0.3600(7)
O4 O 1.4308(7) 0.3907(6) 0.4647(6)
O5 O 1.4716(7) 0.3482(3) 0.3025(7)
C40 C 0.9916(7) 0.7659(3) 0.1047(5)
H32 H 0.92590 0.80680 0.08760
H33 H 1.05660 0.76650 0.04750
C41 C 1.0775(6) 0.7807(3) 0.2204(5)
C42 C 1.1612(7) 0.8452(4) 0.2312(7)
H34 H 1.16190 0.87720 0.16930
C43 C 1.2451(8) 0.8613(5) 0.3376(10)
H35 H 1.30180 0.90350 0.34370
C44 C 1.2443(9) 0.8175(6) 0.4283(9)
H36 H 1.29820 0.82930 0.49760
C45 C 1.1634(9) 0.7553(5) 0.4180(7)
H37 H 1.16440 0.72400 0.48070
C46 C 1.0768(7) 0.7364(4) 0.3138(6)
H38 H 1.02040 0.69410 0.30970
O6 O 0.7766(4) 0.7539(2) -0.0688(3)
#END
