
#######################################################################
#
#                 Cambridge Crystallographic Data Centre
#                                CCDC
#
#######################################################################
#
# If this CIF has been generated from an entry in the Cambridge
# Structural Database, then it will include bibliographic, chemical,
# crystal, experimental, refinement or atomic coordinate data resulting
# from the CCDC's data processing and validation procedures.
#
#######################################################################

data_CSD_CIF_WICLAV
_audit_creation_date 1995-03-06
_audit_creation_method CSD-ConQuest-V1
_database_code_CSD WICLAV
_chemical_formula_sum 'C23 H18 N2 O3'
_chemical_formula_moiety
;
C23 H18 N2 O3
;
_journal_coden_Cambridge 188
_journal_year 1994
_journal_page_first 1337
_journal_name_full 'J.Chem.Soc.,Perkin Trans.2 '
loop_
_publ_author_name
"M.Eto"
"Y.Yoshitake"
"K.Harano"
"T.Hisano"
_chemical_name_systematic
;
3,5,7-Triphenyl-2-oxa-1,8-diazabicyclo(3.3.0)oct-7-en-6-one 8-oxide
;
_cell_volume    914.413
_exptl_crystal_density_diffrn 1.346
_diffrn_ambient_temperature ?
_diffrn_special_details
;
The study was carried out at room temperature,in the range 283-303K

;
#These two values have been output from a single CSD field.
_refine_ls_R_factor_gt 0.057
_refine_ls_wR_factor_gt 0.057
_symmetry_cell_setting monoclinic
_symmetry_space_group_name_H-M 'P 21'
_symmetry_Int_Tables_number 4
loop_
_symmetry_equiv_pos_site_id
_symmetry_equiv_pos_as_xyz
1 x,y,z
2 -x,1/2+y,-z
_cell_length_a 10.467(5)
_cell_length_b 15.729(7)
_cell_length_c 5.662(2)
_cell_angle_alpha 90
_cell_angle_beta 101.20(3)
_cell_angle_gamma 90
_cell_formula_units_Z 2
loop_
_atom_type_symbol
_atom_type_radius_bond
C 0.68
H 0.23
N 0.68
O 0.68
loop_
_atom_site_label
_atom_site_type_symbol
_atom_site_fract_x
_atom_site_fract_y
_atom_site_fract_z
N1 N 0.5953(3) 0.1774(2) 0.2698(5)
C1 C 0.6657(4) 0.2169(3) 0.1352(6)
C2 C 0.5768(4) 0.2640(2) -0.0525(6)
C3 C 0.4381(3) 0.2486(2) -0.0163(6)
C4 C 0.3637(4) 0.1897(3) -0.2105(6)
C5 C 0.3894(4) 0.1018(3) -0.0997(7)
O1 O 0.3898(3) 0.1193(2) 0.1537(5)
N2 N 0.4539(3) 0.1976(2) 0.2114(5)
O2 O 0.6277(3) 0.1284(2) 0.4413(5)
O3 O 0.6030(3) 0.3064(2) -0.2106(5)
C6 C 0.8073(4) 0.2130(3) 0.1708(7)
C7 C 0.8837(4) 0.1729(3) 0.3695(8)
C8 C 1.0169(5) 0.1720(4) 0.3971(9)
C9 C 1.0775(4) 0.2101(4) 0.2323(10)
C10 C 1.0047(5) 0.2482(4) 0.0348(10)
C11 C 0.8699(4) 0.2488(3) -0.0001(9)
C12 C 0.3728(4) 0.3322(3) 0.0156(7)
C13 C 0.2919(5) 0.3710(3) -0.1774(8)
C14 C 0.2378(5) 0.4497(3) -0.1448(10)
C15 C 0.2634(5) 0.4903(3) 0.0729(11)
C16 C 0.3449(5) 0.4519(3) 0.2624(9)
C17 C 0.3998(5) 0.3735(3) 0.2371(8)
C18 C 0.2870(4) 0.0368(3) -0.1919(8)
C19 C 0.1809(5) 0.0243(3) -0.0905(9)
C20 C 0.0850(5) -0.0333(4) -0.1905(11)
C21 C 0.0975(5) -0.0775(3) -0.3923(10)
C22 C 0.2026(6) -0.0644(4) -0.4952(10)
C23 C 0.2983(5) -0.0079(3) -0.3962(9)
H1 H 0.398(4) 0.196(3) -0.359(8)
H2 H 0.271(3) 0.203(2) -0.218(6)
H3 H 0.479(4) 0.082(3) -0.112(7)
H4 H 0.838(4) 0.153(3) 0.483(7)
H5 H 1.062(5) 0.143(3) 0.527(10)
H6 H 1.166(4) 0.209(3) 0.257(8)
H7 H 1.044(5) 0.271(4) -0.092(10)
H8 H 0.813(5) 0.274(3) -0.132(8)
H9 H 0.270(4) 0.342(3) -0.338(8)
H10 H 0.183(5) 0.480(4) -0.284(9)
H11 H 0.228(5) 0.545(3) 0.093(8)
H12 H 0.360(5) 0.479(3) 0.415(9)
H13 H 0.457(5) 0.346(3) 0.376(8)
H14 H 0.173(4) 0.055(3) 0.049(8)
H15 H 0.009(5) -0.039(4) -0.121(9)
H16 H 0.037(4) -0.118(3) -0.468(8)
H17 H 0.219(5) -0.101(4) -0.624(10)
H18 H 0.372(4) 0.002(3) -0.463(8)
#END
