
#######################################################################
#
#                 Cambridge Crystallographic Data Centre
#                                CCDC
#
#######################################################################
#
# If this CIF has been generated from an entry in the Cambridge
# Structural Database, then it will include bibliographic, chemical,
# crystal, experimental, refinement or atomic coordinate data resulting
# from the CCDC's data processing and validation procedures.
#
#######################################################################

data_CSD_CIF_WICVUZ
_audit_creation_date 1995-03-06
_audit_creation_method CSD-ConQuest-V1
_database_code_CSD WICVUZ
_chemical_formula_sum 'C22 H31 N1 O7'
_chemical_formula_moiety
;
C22 H31 N1 O7
;
_journal_coden_Cambridge 207
_journal_year 1994
_journal_page_first 2073
_journal_name_full 'J.Chem.Soc.,Perkin Trans.1 '
loop_
_publ_author_name
"J.R.Hanson"
"P.B.Hitchcock"
"R.Manickavasagar"
_chemical_name_systematic
;
3\b,17\b-Diacetoxy-5,10-epoxy-6-nitro-5,10-seco-norandrost-5-ene
;
_chemical_melting_point 475.15
_cell_volume    546.295
_exptl_crystal_density_diffrn 1.28
_exptl_special_details
;
Melting point range 475.15-477.15K

;
_diffrn_ambient_temperature ?
_diffrn_special_details
;
The study was carried out at room temperature,in the range 283-303K

;
#These two values have been output from a single CSD field.
_refine_ls_R_factor_gt 0.039
_refine_ls_wR_factor_gt 0.039
_symmetry_cell_setting triclinic
_symmetry_space_group_name_H-M 'P 1'
_symmetry_Int_Tables_number 1
loop_
_symmetry_equiv_pos_site_id
_symmetry_equiv_pos_as_xyz
1 x,y,z
_cell_length_a 7.269(2)
_cell_length_b 7.353(2)
_cell_length_c 11.053(3)
_cell_angle_alpha 94.40(2)
_cell_angle_beta 107.08(2)
_cell_angle_gamma 102.02(2)
_cell_formula_units_Z 1
loop_
_atom_type_symbol
_atom_type_radius_bond
C 0.68
H 0.23
N 0.68
O 0.68
loop_
_atom_site_label
_atom_site_type_symbol
_atom_site_fract_x
_atom_site_fract_y
_atom_site_fract_z
O1 O -0.11920 0.45130 0.47860
O2 O 0.4947(3) 0.7791(3) 0.5946(2)
O3 O 0.3072(3) 0.9705(3) 0.5865(2)
O4 O -0.1031(2) 0.6372(2) 0.8412(1)
O5 O 0.1022(4) 0.9182(4) 0.9214(2)
O6 O 0.4837(3) 0.4170(2) 0.0560(1)
O7 O 0.6295(3) 0.1853(3) 0.1192(2)
N1 N 0.3342(3) 0.8144(3) 0.5622(2)
C1 C 0.0779(3) 0.3135(3) 0.6465(2)
C2 C -0.0425(4) 0.3841(3) 0.7248(2)
C3 C 0.0102(3) 0.5969(3) 0.7582(2)
C4 C -0.0374(3) 0.7083(3) 0.6449(2)
C5 C 0.0096(3) 0.6204(3) 0.5350(2)
C6 C 0.1649(3) 0.6611(3) 0.4925(2)
C7 C 0.1715(3) 0.5207(3) 0.3883(2)
C8 C 0.1475(3) 0.3237(3) 0.4333(2)
C9 C -0.0141(3) 0.2974(3) 0.5004(2)
C10 C 0.1187(3) 0.1716(3) 0.3215(2)
C11 C 0.2871(3) 0.2140(3) 0.2635(2)
C12 C 0.3067(3) 0.4055(3) 0.2187(2)
C13 C 0.3425(3) 0.5571(3) 0.3340(2)
C14 C 0.3943(4) 0.7419(3) 0.2831(3)
C15 C 0.5186(4) 0.6977(4) 0.1986(3)
C16 C 0.4972(3) 0.4845(4) 0.1859(2)
C17 C 0.1252(4) 0.4048(3) 0.1048(2)
C18 C -0.1794(4) 0.1212(3) 0.4483(2)
C19 C -0.0403(4) 0.8021(4) 0.9172(3)
C20 C -0.1725(5) 0.8184(5) 0.9960(3)
C21 C 0.5549(3) 0.2663(4) 0.0364(2)
C22 C 0.5294(5) 0.2182(5) -0.1018(3)
H1 H 0.09400 0.19400 0.66600
H2 H 0.20500 0.40000 0.67100
H3 H -0.02300 0.32900 0.80200
H4 H -0.18200 0.34300 0.67600
H5 H 0.15100 0.63800 0.79500
H6 H 0.03500 0.83500 0.67000
H7 H -0.17700 0.70500 0.61900
H8 H 0.06400 0.53100 0.31500
H9 H 0.26500 0.31300 0.49600
H10 H -0.00400 0.16500 0.25600
H11 H 0.11300 0.05200 0.35000
H12 H 0.26200 0.11900 0.19300
H13 H 0.40800 0.21200 0.32700
H14 H 0.44900 0.55500 0.40800
H15 H 0.47200 0.84100 0.35300
H16 H 0.28000 0.77700 0.23700
H17 H 0.65500 0.76600 0.23500
H18 H 0.46900 0.73600 0.11500
H19 H 0.60500 0.44300 0.24200
H20 H 0.00600 0.35700 0.12600
H21 H 0.12500 0.52900 0.08500
H22 H 0.12100 0.32700 0.03100
H23 H -0.23500 0.11300 0.35900
H24 H -0.12900 0.01400 0.46900
H25 H -0.27900 0.12700 0.48800
H26 H -0.30700 0.75900 0.94700
H27 H -0.16400 0.94800 1.02200
H28 H -0.13500 0.76000 1.07000
H29 H 0.39700 0.14700 -0.14600
H30 H 0.62000 0.14700 -0.11300
H31 H 0.55200 0.33100 -0.13900
#END
