
#######################################################################
#
#                 Cambridge Crystallographic Data Centre
#                                CCDC
#
#######################################################################
#
# If this CIF has been generated from an entry in the Cambridge
# Structural Database, then it will include bibliographic, chemical,
# crystal, experimental, refinement or atomic coordinate data resulting
# from the CCDC's data processing and validation procedures.
#
#######################################################################

data_CSD_CIF_WICWAG
_audit_creation_date 1995-03-06
_audit_creation_method CSD-ConQuest-V1
_database_code_CSD WICWAG
_chemical_formula_sum 'C22 H32 N2 O9'
_chemical_formula_moiety
;
C22 H32 N2 O9
;
_journal_coden_Cambridge 207
_journal_year 1994
_journal_page_first 2073
_journal_name_full 'J.Chem.Soc.,Perkin Trans.1 '
loop_
_publ_author_name
"J.R.Hanson"
"P.B.Hitchcock"
"R.Manickavasagar"
_chemical_name_systematic
;
3\b,17\b-Diacetoxy-6\a-nitro-5\b-nitro-oxy-7-norandrostane
;
_chemical_melting_point 449.15
_cell_volume   2322.977
_exptl_crystal_density_diffrn 1.34
_exptl_special_details
;
Melting point range 449.15-451.15K

;
_diffrn_ambient_temperature ?
_diffrn_special_details
;
The study was carried out at room temperature,in the range 283-303K

;
#These two values have been output from a single CSD field.
_refine_ls_R_factor_gt 0.046
_refine_ls_wR_factor_gt 0.046
_symmetry_cell_setting orthorhombic
_symmetry_space_group_name_H-M 'P 21 21 21'
_symmetry_Int_Tables_number 19
loop_
_symmetry_equiv_pos_site_id
_symmetry_equiv_pos_as_xyz
1 x,y,z
2 1/2+x,1/2-y,-z
3 -x,1/2+y,1/2-z
4 1/2-x,-y,1/2+z
_cell_length_a 9.994(4)
_cell_length_b 11.413(4)
_cell_length_c 20.366(5)
_cell_angle_alpha 90
_cell_angle_beta 90
_cell_angle_gamma 90
_cell_formula_units_Z 4
loop_
_atom_type_symbol
_atom_type_radius_bond
C 0.68
H 0.23
N 0.68
O 0.68
loop_
_atom_site_label
_atom_site_type_symbol
_atom_site_fract_x
_atom_site_fract_y
_atom_site_fract_z
O1 O 0.3034(2) 0.7877(2) 0.5623(1)
O2 O 0.4043(3) 0.7904(2) 0.6597(1)
O3 O 0.2772(2) 0.0118(2) 0.2901(1)
O4 O 0.3770(2) -0.1366(2) 0.3417(1)
O5 O 0.3512(2) 0.2324(2) 0.5147(1)
O6 O 0.1502(2) 0.1939(2) 0.5435(1)
O7 O 0.1145(2) 0.2074(2) 0.3383(1)
O8 O -0.0509(3) 0.0912(3) 0.3237(1)
O9 O 0.0648(2) 0.0684(2) 0.4119(1)
N1 N 0.2309(2) 0.2334(2) 0.5050(1)
N2 N 0.0378(2) 0.1144(2) 0.3598(1)
C1 C 0.4154(3) 0.3082(2) 0.2983(1)
C2 C 0.3874(3) 0.1913(3) 0.2647(1)
C3 C 0.3739(3) 0.0955(2) 0.3159(1)
C4 C 0.3324(3) 0.1429(2) 0.3828(1)
C5 C 0.2314(2) 0.2400(2) 0.3786(1)
C6 C 0.1789(2) 0.2936(2) 0.4446(1)
C7 C 0.2186(2) 0.4239(2) 0.4439(1)
C8 C 0.3385(2) 0.4276(2) 0.3980(1)
C9 C 0.2956(2) 0.3484(2) 0.3397(1)
C10 C 0.3884(3) 0.5493(2) 0.3833(1)
C11 C 0.4119(3) 0.6184(2) 0.4467(1)
C12 C 0.2882(2) 0.6171(2) 0.4910(1)
C13 C 0.2516(2) 0.4883(2) 0.5069(1)
C14 C 0.1496(3) 0.4986(2) 0.5630(1)
C15 C 0.2013(3) 0.6048(2) 0.6022(1)
C16 C 0.3110(3) 0.6614(2) 0.5612(1)
C17 C 0.1730(3) 0.6853(2) 0.4593(1)
C18 C 0.1943(3) 0.4100(2) 0.2949(1)
C19 C 0.2901(3) -0.1021(3) 0.3071(1)
C20 C 0.1851(5) -0.1739(3) 0.2765(2)
C21 C 0.3515(3) 0.8416(3) 0.6152(1)
C22 C 0.3281(4) 0.9708(3) 0.6110(2)
H1 H 0.43600 0.36700 0.26600
H2 H 0.49200 0.30000 0.32600
H3 H 0.45900 0.17400 0.23400
H4 H 0.30600 0.19800 0.23900
H5 H 0.46000 0.05900 0.32400
H6 H 0.41000 0.17100 0.40500
H7 H 0.29400 0.08100 0.40800
H8 H 0.08400 0.28200 0.44700
H9 H 0.13900 0.46500 0.43100
H10 H 0.41900 0.39800 0.41800
H11 H 0.32300 0.59000 0.35700
H12 H 0.47000 0.54600 0.35900
H13 H 0.43200 0.69600 0.43600
H14 H 0.48300 0.58200 0.46900
H15 H 0.32100 0.43900 0.52300
H16 H 0.14800 0.42900 0.59000
H17 H 0.06100 0.51100 0.54700
H18 H 0.23400 0.58200 0.64400
H19 H 0.12900 0.66100 0.60900
H20 H 0.39700 0.64100 0.57800
H21 H 0.09600 0.68500 0.48700
H22 H 0.19800 0.76400 0.45100
H23 H 0.14800 0.65000 0.41800
H24 H 0.17000 0.35800 0.26000
H25 H 0.11600 0.42900 0.31900
H26 H 0.23300 0.47800 0.27700
H27 H 0.15400 -0.23200 0.30700
H28 H 0.11400 -0.12900 0.26100
H29 H 0.22500 -0.21700 0.23900
H30 H 0.36400 1.00700 0.65000
H31 H 0.23700 0.98600 0.60800
H32 H 0.37500 1.00100 0.57400
#END
