
#######################################################################
#
#                 Cambridge Crystallographic Data Centre
#                                CCDC
#
#######################################################################
#
# If this CIF has been generated from an entry in the Cambridge
# Structural Database, then it will include bibliographic, chemical,
# crystal, experimental, refinement or atomic coordinate data resulting
# from the CCDC's data processing and validation procedures.
#
#######################################################################

data_CSD_CIF_WIDJAX
_audit_creation_date 2018-05-22
_audit_creation_method CSD-ConQuest-V1
_database_code_CSD WIDJAX
_database_code_depnum_ccdc_archive 'CCDC 1844645'
_chemical_formula_sum 'C20 H17 N1 O4'
_chemical_formula_moiety
;
C20 H17 N1 O4
;
_journal_coden_Cambridge 1078
_journal_year 2018
_journal_name_full 'CSD Communication(Private Communication) '
loop_
_publ_author_name
"P.Basu"
_chemical_name_systematic
;
1-(4-methoxyphenyl)-2-nitro-2,3-dihydro-1H-naphtho[2,1-b]pyran
;
_cell_volume   1604.564
_exptl_crystal_colour 'colorless'
_exptl_crystal_density_diffrn 1.386
_exptl_crystal_description 'Prism'
_diffrn_ambient_temperature 150
#These two values have been output from a single CSD field.
_refine_ls_R_factor_gt 0.0399
_refine_ls_wR_factor_gt 0.0399
_symmetry_cell_setting orthorhombic
_symmetry_space_group_name_H-M 'P 21 21 21'
_symmetry_Int_Tables_number 19
loop_
_symmetry_equiv_pos_site_id
_symmetry_equiv_pos_as_xyz
1 x,y,z
2 1/2-x,-y,1/2+z
3 -x,1/2+y,1/2-z
4 1/2+x,1/2-y,-z
_cell_length_a 8.1519(3)
_cell_length_b 11.2757(5)
_cell_length_c 17.4564(8)
_cell_angle_alpha 90
_cell_angle_beta 90
_cell_angle_gamma 90
_cell_formula_units_Z 4
loop_
_atom_type_symbol
_atom_type_radius_bond
C 0.68
H 0.23
N 0.68
O 0.68
loop_
_atom_site_label
_atom_site_type_symbol
_atom_site_fract_x
_atom_site_fract_y
_atom_site_fract_z
O1 O -0.65733(17) -0.65748(13) -0.74983(9)
O2 O -0.39594(19) -0.82527(13) -0.83679(9)
O3 O 0.0369(2) -0.24961(13) -0.63013(9)
N1 N -0.4033(2) -0.72248(16) -0.85747(10)
O4 O -0.4305(3) -0.69128(18) -0.92291(10)
C1 C 0.0279(3) -0.43200(18) -0.69344(12)
H1 H 0.13660 -0.41710 -0.71060
C2 C -0.0521(3) -0.53446(19) -0.71537(12)
H2 H 0.00240 -0.58950 -0.74780
C3 C -0.0510(3) -0.35033(18) -0.64600(12)
C4 C -0.2082(3) -0.37488(18) -0.61852(12)
H3 H -0.26140 -0.32110 -0.58480
C5 C -0.5922(3) -0.72117(17) -0.68976(13)
C6 C -0.2127(3) -0.55883(16) -0.69063(11)
C7 C -0.2864(2) -0.47931(18) -0.64105(12)
H4 H -0.39290 -0.49620 -0.62180
C8 C -0.2046(3) -0.80744(18) -0.58970(12)
H5 H -0.12420 -0.76500 -0.61800
C9 C -0.7084(3) -0.7880(2) -0.64746(14)
H6 H -0.82120 -0.78530 -0.66100
C10 C -0.3729(3) -0.79714(17) -0.61030(12)
C11 C -0.4899(3) -0.8623(2) -0.56660(12)
C12 C -0.4265(2) -0.72577(16) -0.67359(12)
C13 C -0.6579(3) -0.8559(2) -0.58742(13)
H7 H -0.73660 -0.89980 -0.55900
C14 C -0.1565(3) -0.87820(19) -0.52928(13)
H8 H -0.04350 -0.88360 -0.51650
C15 C -0.4359(3) -0.9339(2) -0.50473(13)
H9 H -0.51410 -0.97680 -0.47540
C16 C -0.5502(3) -0.5717(2) -0.78422(13)
H10 H -0.53950 -0.50240 -0.74980
H11 H -0.59830 -0.54410 -0.83310
C17 C -0.3016(2) -0.66575(17) -0.72486(12)
H12 H -0.21680 -0.72610 -0.73870
C18 C -0.0438(3) -0.1583(2) -0.58748(13)
H13 H 0.03150 -0.09150 -0.58010
H14 H -0.07740 -0.18950 -0.53750
H15 H -0.14080 -0.13130 -0.61570
C19 C -0.2720(3) -0.94238(19) -0.48638(13)
H16 H -0.23740 -0.99120 -0.44510
C20 C -0.3824(3) -0.62385(18) -0.79917(12)
H17 H -0.31180 -0.56080 -0.82230
#END
