
#######################################################################
#
#                 Cambridge Crystallographic Data Centre
#                                CCDC
#
#######################################################################
#
# If this CIF has been generated from an entry in the Cambridge
# Structural Database, then it will include bibliographic, chemical,
# crystal, experimental, refinement or atomic coordinate data resulting
# from the CCDC's data processing and validation procedures.
#
#######################################################################

data_CSD_CIF_WIFDUL
_audit_creation_date 2007-09-19
_audit_creation_method CSD-ConQuest-V1
_database_code_CSD WIFDUL
_database_code_depnum_ccdc_archive 'CCDC 649484'
_chemical_formula_sum 'C19 H24 N4 O1'
_chemical_formula_moiety
;
C19 H24 N4 O1
;
_journal_coden_Cambridge 151
_journal_volume 49
_journal_year 2006
_journal_page_first 5093
_journal_name_full 'J.Med.Chem. '
loop_
_publ_author_name
"T.Kolasa"
"M.A.Matulenko"
"A.A.Hakeem"
"M.V.Patel"
"K.Mortell"
"P.Bhatia"
"R.Henry"
"M.Nakane"
"G.C.Hsieh"
"M.A.Terranova"
"M.E.Uchic"
"L.N.Miller"
"Renje Chang"
"D.L.Donnelly-Roberts"
"M.T.Namovic"
"P.R.Hollingsworth"
"B.Martino"
"O.El Kouhen"
"K.C.Marsh"
"J.M.Wetter"
"R.B.Moreland"
"J.D.Brioni"
"A.O.Stewart"
_chemical_name_systematic
;
(E)-3-(4-(Pyridin-2-yl)piperazin-1-yl)-1-(m-tolyl)propan-1-one oxime
;
_chemical_melting_point 419.15
_cell_volume    902.699
_exptl_crystal_density_diffrn 1.194
_exptl_special_details
;
Melting point range 419.15-420.15K
dopamine D!4$ receptor agonist

;
_diffrn_ambient_temperature 298
#These two values have been output from a single CSD field.
_refine_ls_R_factor_gt 0.105
_refine_ls_wR_factor_gt 0.105
_symmetry_cell_setting monoclinic
_symmetry_space_group_name_H-M 'P n'
_symmetry_Int_Tables_number 7
loop_
_symmetry_equiv_pos_site_id
_symmetry_equiv_pos_as_xyz
1 x,y,z
2 1/2+x,-y,1/2+z
_cell_length_a 5.8974(7)
_cell_length_b 17.158(2)
_cell_length_c 9.236(1)
_cell_angle_alpha 90
_cell_angle_beta 105.006(2)
_cell_angle_gamma 90
_cell_formula_units_Z 2
loop_
_atom_type_symbol
_atom_type_radius_bond
C 0.68
H 0.23
N 0.68
O 0.68
loop_
_atom_site_label
_atom_site_type_symbol
_atom_site_fract_x
_atom_site_fract_y
_atom_site_fract_z
O1 O 0.5618(3) -0.04296(9) -0.0275(2)
N1 N -0.1082(4) 0.3802(1) 0.3230(3)
N2 N 0.1461(3) 0.2798(1) 0.2962(3)
N3 N 0.1758(3) 0.1163(1) 0.2291(2)
N4 N 0.4540(3) -0.1047(1) 0.0283(2)
C1 C 0.3813(5) -0.3696(2) 0.2831(4)
C2 C 0.2728(4) -0.2881(2) 0.2741(3)
C3 C 0.0765(4) -0.2748(2) 0.3309(3)
C4 C -0.0147(5) -0.2006(2) 0.3331(3)
C5 C 0.0828(4) -0.1387(1) 0.2722(3)
C6 C 0.2717(4) -0.1509(2) 0.2101(2)
C7 C 0.3616(4) -0.2275(2) 0.2072(3)
C8 C 0.3850(4) -0.0861(1) 0.1440(3)
C9 C 0.4034(3) -0.0059(1) 0.2165(2)
C10 C 0.2089(4) 0.0502(1) 0.1315(3)
C11 C 0.3883(4) 0.1660(1) 0.2719(3)
C12 C 0.3503(4) 0.2340(2) 0.3695(3)
C13 C -0.0697(4) 0.2325(1) 0.2394(3)
C14 C -0.0233(3) 0.1649(1) 0.1437(3)
C15 C 0.1145(5) 0.3527(2) 0.3655(3)
C16 C 0.3022(5) 0.3902(2) 0.4595(3)
C17 C 0.2600(5) 0.4637(2) 0.5175(3)
C18 C 0.0277(6) 0.4929(2) 0.4761(4)
C19 C -0.1364(5) 0.4521(2) 0.3858(4)
H1 H 0.30530 -0.40400 0.33640
H2 H 0.36790 -0.38940 0.18550
H3 H 0.54480 -0.36690 0.33540
H4 H 0.00600 -0.31730 0.36900
H5 H -0.14500 -0.19180 0.37490
H6 H 0.02110 -0.08770 0.27420
H7 H 0.48280 -0.23690 0.15870
H8 H 0.39070 -0.01180 0.31590
H9 H 0.55190 0.01540 0.21700
H10 H 0.06530 0.02320 0.09870
H11 H 0.25260 0.07160 0.04730
H12 H 0.51770 0.13590 0.32540
H13 H 0.42130 0.18630 0.18330
H14 H 0.48520 0.26690 0.39060
H15 H 0.32940 0.21410 0.46160
H16 H -0.12020 0.21270 0.32200
H17 H -0.18920 0.26490 0.18030
H18 H 0.01380 0.18490 0.05700
H19 H -0.16070 0.13350 0.11480
H20 H 0.45400 0.36760 0.48410
H21 H 0.38490 0.49210 0.58210
H22 H -0.00710 0.54160 0.51310
H23 H -0.29290 0.47320 0.36120
H24 H 0.62000 -0.05100 -0.11510
#END
