
#######################################################################
#
#                 Cambridge Crystallographic Data Centre
#                                CCDC
#
#######################################################################
#
# If this CIF has been generated from an entry in the Cambridge
# Structural Database, then it will include bibliographic, chemical,
# crystal, experimental, refinement or atomic coordinate data resulting
# from the CCDC's data processing and validation procedures.
#
#######################################################################

data_CSD_CIF_WIFHID
_audit_creation_date 2007-09-20
_audit_creation_method CSD-ConQuest-V1
_database_code_CSD WIFHID
_database_code_depnum_ccdc_archive 'CCDC 252031'
_chemical_formula_sum 'C24 H35 N1 O6'
_chemical_formula_moiety
;
C24 H35 N1 O6
;
_journal_coden_Cambridge 10
_journal_volume 90
_journal_year 2007
_journal_page_first 977
_journal_name_full 'Helv.Chim.Acta '
loop_
_publ_author_name
"Y.Yuasa"
"H.Fukaya"
"Y.Yuasa"
_chemical_name_systematic
;
(1R,3R)-Methylcyclopentadecan-1-yl 1-carboxy-3-nitrobenzene-2-carboxylate
;
_chemical_melting_point 408
_cell_volume   2401.563
_exptl_crystal_colour 'colorless'
_exptl_crystal_density_diffrn 1.199
_exptl_special_details
;
Melting point range 408-409K

;
_exptl_crystal_description 'prism'
_exptl_crystal_preparation 'diethyl ether/cyclohexane'
_diffrn_ambient_temperature 200
#These two values have been output from a single CSD field.
_refine_ls_R_factor_gt 0.039
_refine_ls_wR_factor_gt 0.039
_symmetry_cell_setting monoclinic
_symmetry_space_group_name_H-M 'P 21'
_symmetry_Int_Tables_number 4
loop_
_symmetry_equiv_pos_site_id
_symmetry_equiv_pos_as_xyz
1 x,y,z
2 -x,1/2+y,-z
_cell_length_a 6.4150(5)
_cell_length_b 38.947(3)
_cell_length_c 9.6670(6)
_cell_angle_alpha 90
_cell_angle_beta 96.103(4)
_cell_angle_gamma 90
_cell_formula_units_Z 4
loop_
_atom_type_symbol
_atom_type_radius_bond
C 0.68
H 0.23
N 0.68
O 0.68
loop_
_atom_site_label
_atom_site_type_symbol
_atom_site_fract_x
_atom_site_fract_y
_atom_site_fract_z
O1 O 0.7694(17) 0.7272(3) 0.3082(12)
O2 O 0.5202(17) 0.6922(3) 0.3473(13)
O3 O 0.1244(14) 0.6946(2) 0.4961(10)
O4 O 0.4280(16) 0.7030(3) 0.6358(10)
O5 O 0.0331(16) 0.7498(3) 0.6793(11)
O6 O -0.1343(15) 0.7935(2) 0.5588(9)
O7 O 0.7448(15) 0.7397(2) 0.8486(10)
O8 O 0.5889(16) 0.7845(2) 0.7374(10)
O9 O 0.4844(15) 0.8376(2) 0.9347(10)
O10 O 0.1990(16) 0.8298(3) 0.777(1)
O11 O 0.0787(19) 0.8385(3) 1.0601(13)
O12 O -0.1587(19) 0.8023(4) 1.1095(13)
N1 N 0.597(2) 0.7206(4) 0.3418(13)
N2 N 0.013(2) 0.8091(5) 1.0679(14)
C1 C 0.312(2) 0.7448(4) 0.4693(14)
C2 C 0.465(2) 0.7502(4) 0.3804(15)
C3 C 0.502(2) 0.7810(4) 0.3169(16)
C4 C 0.376(3) 0.8087(4) 0.3382(15)
C5 C 0.216(2) 0.8045(4) 0.4221(16)
C6 C 0.185(2) 0.7738(4) 0.4858(15)
C7 C 0.297(2) 0.7118(3) 0.5451(15)
C8 C 0.023(2) 0.7709(4) 0.5859(16)
C9 C 0.093(2) 0.6613(4) 0.5599(16)
C10 C -0.007(2) 0.6670(4) 0.6935(17)
C11 C -0.0027(3) 0.6354(4) 0.7850(18)
C12 C 0.189(3) 0.6241(5) 0.856(2)
C13 C 0.197(4) 0.5882(5) 0.913(2)
C14 C 0.266(4) 0.5616(6) 0.815(3)
C15 C 0.495(4) 0.5622(6) 0.799(3)
C16 C 0.567(4) 0.5334(6) 0.706(3)
C17 C 0.480(4) 0.5364(5) 0.553(3)
C18 C 0.564(4) 0.5647(5) 0.474(3)
C19 C 0.447(5) 0.5654(5) 0.322(3)
C20 C 0.236(4) 0.5831(5) 0.316(2)
C21 C 0.243(4) 0.6217(5) 0.3063(19)
C22 C 0.032(4) 0.6397(5) 0.311(2)
C23 C -0.041(3) 0.6405(4) 0.4552(18)
C24 C -0.179(3) 0.6433(5) 0.8939(19)
C25 C 0.298(2) 0.7861(4) 0.9425(14)
C26 C 0.426(2) 0.7581(4) 0.9209(15)
C27 C 0.393(2) 0.7263(4) 0.9798(16)
C28 C 0.233(3) 0.7214(4) 1.0611(18)
C29 C 0.107(3) 0.7485(5) 1.0860(17)
C30 C 0.142(2) 0.7799(4) 1.0297(16)
C31 C 0.319(2) 0.8202(4) 0.8749(15)
C32 C 0.594(2) 0.7620(4) 0.8279(16)
C33 C 0.518(2) 0.8723(4) 0.8873(16)
C34 C 0.581(2) 0.8934(4) 1.0171(15)
C35 C 0.582(3) 0.9315(4) 0.9938(17)
C36 C 0.363(3) 0.9467(4) 0.9647(16)
C37 C 0.348(3) 0.9831(4) 0.906(2)
C38 C 0.122(4) 0.9973(6) 0.876(2)
C39 C -0.006(3) 0.9798(6) 0.752(3)
C40 C 0.057(3) 0.9904(5) 0.612(2)
C41 C -0.047(3) 0.9703(6) 0.485(2)
C42 C 0.045(3) 0.9356(5) 0.470(2)
C43 C 0.252(3) 0.9356(5) 0.4095(19)
C44 C 0.379(3) 0.9031(5) 0.4376(18)
C45 C 0.485(3) 0.9028(5) 0.5874(19)
C46 C 0.594(3) 0.8703(5) 0.6316(18)
C47 C 0.685(3) 0.8715(4) 0.7853(18)
C48 C 0.710(3) 0.9495(5) 1.114(2)
H1 H 0.61442 0.78333 0.25942
H2 H 0.39936 0.83072 0.29763
H3 H 0.12346 0.82345 0.43307
H4 H -0.2327(17) 0.7853(3) 0.6208(12)
H5 H 0.2269(17) 0.6502(3) 0.5793(13)
H6 H -0.0788(14) 0.6188(2) 0.726(1)
H7 H 0.8574(16) 0.7363(3) 0.7904(10)
H8 H 0.4851(16) 0.7078(3) 0.9612(11)
H9 H 0.2084(15) 0.6995(2) 1.1021(9)
H10 H -0.004(2) 0.7447(4) 1.1432(14)
H11 H 0.389(2) 0.8808(4) 0.8402(15)
H12 H 0.650(2) 0.9361(4) 0.9117(15)
H13 H 0.077(2) 0.6838(4) 0.7468(16)
H14 H -0.144(3) 0.6761(4) 0.6672(15)
H15 H 0.291(2) 0.6265(4) 0.7907(16)
H16 H 0.219(2) 0.6402(4) 0.9304(15)
H17 H 0.294(2) 0.5883(3) 0.9966(15)
H18 H 0.059(2) 0.5828(4) 0.9365(16)
H19 H 0.231(2) 0.5393(4) 0.8486(16)
H20 H 0.190(2) 0.5654(4) 0.7252(17)
H21 H 0.527(3) 0.5840(4) 0.7597(18)
H22 H 0.569(3) 0.5599(5) 0.890(2)
H23 H 0.717(4) 0.5339(6) 0.709(2)
H24 H 0.525(4) 0.5120(6) 0.744(3)
H25 H 0.500(4) 0.5150(6) 0.507(3)
H26 H 0.333(4) 0.5404(6) 0.555(3)
H27 H 0.545(4) 0.5865(5) 0.518(3)
H28 H 0.711(4) 0.5610(5) 0.468(3)
H29 H 0.533(5) 0.5770(5) 0.262(3)
H30 H 0.429(4) 0.5419(5) 0.293(2)
H31 H 0.153(4) 0.5748(5) 0.234(2)
H32 H 0.172(4) 0.5765(5) 0.397(2)
H33 H 0.336(3) 0.6294(4) 0.3849(18)
H34 H 0.301(3) 0.6278(5) 0.2219(19)
H35 H 0.042(3) 0.6628(5) 0.279(2)
H36 H -0.067(3) 0.6272(5) 0.249(2)
H37 H -0.049(3) 0.6173(5) 0.489(2)
H38 H -0.1780(3) 0.6508(5) 0.451(2)
H39 H -0.314(3) 0.6490(5) 0.848(2)
H40 H -0.191(3) 0.6238(5) 0.953(2)
H41 H -0.124(3) 0.6625(5) 0.949(2)
H42 H 0.486(3) 0.8882(5) 1.085(2)
H43 H 0.720(3) 0.8863(5) 1.052(2)
H44 H 0.28541 0.93134 0.90068
H45 H 0.30369 0.94640 1.05193
H46 H 0.43099 0.99754 0.97115
H47 H 0.41005 0.98247 0.81988
H48 H 0.05520 0.99462 0.95939
H49 H 0.13120 1.02121 0.85379
H50 H 0.01551 0.95547 0.76208
H51 H -0.15167 0.98497 0.75328
H52 H 0.02772 1.01457 0.60323
H53 H 0.20564 0.98679 0.61749
H54 H -0.19502 0.96885 0.49320
H55 H -0.02561 0.98311 0.40264
H56 H 0.06787 0.92555 0.56128
H57 H -0.05061 0.92161 0.41163
H58 H 0.22580 0.93930 0.31091
H59 H 0.33205 0.95452 0.45124
H60 H 0.28697 0.88361 0.42496
H61 H 0.48659 0.90119 0.37628
H62 H 0.58521 0.92120 0.59623
H63 H 0.37684 0.90720 0.64650
H64 H 0.49528 0.85171 0.62310
H65 H 0.70410 0.86582 0.57388
H66 H 0.76186 0.89265 0.79760
H67 H 0.77838 0.85256 0.80862
H68 H 0.84825 0.93991 1.12635
H69 H 0.71802 0.97369 1.09730
H70 H 0.64108 0.94553 1.19603
#END
