
#######################################################################
#
#                 Cambridge Crystallographic Data Centre
#                                CCDC
#
#######################################################################
#
# If this CIF has been generated from an entry in the Cambridge
# Structural Database, then it will include bibliographic, chemical,
# crystal, experimental, refinement or atomic coordinate data resulting
# from the CCDC's data processing and validation procedures.
#
#######################################################################

data_CSD_CIF_WIFLUS
_audit_creation_date 1995-04-20
_audit_creation_method CSD-ConQuest-V1
_database_code_CSD WIFLUS
_database_code_depnum_ccdc_fiz 'CSD 57577'
_chemical_formula_sum 'C19 H13 N1 O3'
_chemical_formula_moiety
;
C19 H13 N1 O3
;
_journal_coden_Cambridge 643
_journal_volume 209
_journal_year 1994
_journal_page_first 669
_journal_name_full 'Z.Krist.Cryst.Mater. '
loop_
_publ_author_name
"S.Eswaramoorthy"
"M.N.Ponnuswamy"
"K.S.Raju"
"S.Nanjundan"
"V.Krishnasamy"
_chemical_name_systematic
;
1-(1-Naphthalenyl)-3-(4-nitrophenyl)-2-propenone
;
_chemical_melting_point 415
_cell_volume   1457.847
_exptl_crystal_colour 'yellow'
_exptl_crystal_density_diffrn 1.38
_exptl_special_details
;
potential germicidal, fungicidal and bactericidal activity
CSD 57577 not available
;
_diffrn_ambient_temperature ?
_diffrn_special_details
;
The study was carried out at room temperature,in the range 283-303K

;
#These two values have been output from a single CSD field.
_refine_ls_R_factor_gt 0.055
_refine_ls_wR_factor_gt 0.055
_symmetry_cell_setting monoclinic
_symmetry_space_group_name_H-M 'P 21/n'
_symmetry_Int_Tables_number 14
loop_
_symmetry_equiv_pos_site_id
_symmetry_equiv_pos_as_xyz
1 x,y,z
2 1/2-x,1/2+y,1/2-z
3 -x,-y,-z
4 -1/2+x,-1/2-y,-1/2+z
_cell_length_a 16.157(2)
_cell_length_b 3.882(1)
_cell_length_c 24.224(2)
_cell_angle_alpha 90
_cell_angle_beta 106.36(1)
_cell_angle_gamma 90
_cell_formula_units_Z 4
loop_
_atom_type_symbol
_atom_type_radius_bond
C 0.69
N 0.68
O 0.68
loop_
_atom_site_label
_atom_site_type_symbol
_atom_site_fract_x
_atom_site_fract_y
_atom_site_fract_z
C1 C 0.6411(2) -0.0503(10) 0.3831(1)
C2 C 0.6041(3) -0.0906(12) 0.3296(2)
C3 C 0.6538(3) 0.2130(12) 0.2950(2)
C4 C 0.7397(3) 0.1903(11) 0.3130(2)
C5 C 0.7825(2) 0.0414(10) 0.3666(2)
C6 C 0.8731(3) 0.0052(12) 0.3844(2)
C7 C 0.9137(3) -0.1429(13) 0.4361(2)
C8 C 0.8660(3) -0.2538(13) 0.4724(2)
C9 C 0.7787(2) -0.2262(11) 0.4564(2)
C10 C 0.7334(2) -0.0784(10) 0.4033(1)
C11 C 0.5842(2) -0.1524(11) 0.4189(1)
C12 C 0.4955(2) -0.2651(12) 0.3883(2)
C13 C 0.4343(2) -0.2918(12) 0.4159(2)
C14 C 0.3446(2) -0.3927(11) 0.3893(1)
C15 C 0.2829(2) -0.3183(11) 0.4182(2)
C16 C 0.1980(3) -0.3902(12) 0.3940(2)
C17 C 0.1731(2) -0.5532(11) 0.3411(2)
C18 C 0.2326(3) -0.6338(12) 0.3123(2)
C19 C 0.3172(3) -0.5582(11) 0.3363(2)
N1 N 0.0831(2) -0.6476(12) 0.3154(2)
O1 O 0.0306(2) -0.5550(14) 0.3400(2)
O2 O 0.0636(2) -0.8055(12) 0.2703(2)
O3 O 0.6074(2) -0.1511(9) 0.4712(1)
#END
