
#######################################################################
#
#                 Cambridge Crystallographic Data Centre
#                                CCDC
#
#######################################################################
#
# If this CIF has been generated from an entry in the Cambridge
# Structural Database, then it will include bibliographic, chemical,
# crystal, experimental, refinement or atomic coordinate data resulting
# from the CCDC's data processing and validation procedures.
#
#######################################################################

data_CSD_CIF_WIFQEI
_audit_creation_date 2007-09-19
_audit_creation_method CSD-ConQuest-V1
_database_code_CSD WIFQEI
_database_code_depnum_ccdc_archive 'CCDC 630885'
_chemical_formula_sum 'C17 H16 N2 O3'
_chemical_formula_moiety
;
C17 H16 N2 O3
;
_journal_coden_Cambridge 24
_journal_volume 48
_journal_year 2007
_journal_page_first 4297
_journal_name_full 'Tetrahedron Lett. '
loop_
_publ_author_name
"Li-Tao An"
"Jian-Ping Zou"
"Li-Li Zhan"
"Yong Zhang"
_chemical_name_systematic
;
3-(1-(4-Methoxyphenyl)2-nitroethyl)indene
;
_cell_volume   1459.866
_exptl_crystal_colour 'colorless'
_exptl_crystal_density_diffrn 1.348
_exptl_crystal_description 'block'
_diffrn_ambient_temperature 193
#These two values have been output from a single CSD field.
_refine_ls_R_factor_gt 0.0685
_refine_ls_wR_factor_gt 0.0685
loop_
_citation_database_id_CSD
_citation_special_details
PIZNUJ "is a stereoisomer of this entry"
_symmetry_cell_setting monoclinic
_symmetry_space_group_name_H-M 'P 21/n'
_symmetry_Int_Tables_number 14
loop_
_symmetry_equiv_pos_site_id
_symmetry_equiv_pos_as_xyz
1 x,y,z
2 1/2-x,1/2+y,1/2-z
3 -x,-y,-z
4 -1/2+x,-1/2-y,-1/2+z
_cell_length_a 8.4935(15)
_cell_length_b 9.5430(16)
_cell_length_c 18.326(3)
_cell_angle_alpha 90
_cell_angle_beta 100.636(4)
_cell_angle_gamma 90
_cell_formula_units_Z 4
loop_
_atom_type_symbol
_atom_type_radius_bond
C 0.68
H 0.23
N 0.68
O 0.68
loop_
_atom_site_label
_atom_site_type_symbol
_atom_site_fract_x
_atom_site_fract_y
_atom_site_fract_z
O1 O 0.0705(2) 0.2354(2) 0.03832(10)
O2 O -0.0769(2) 0.0627(2) 0.06234(10)
O3 O 0.7862(2) 0.3816(2) 0.09671(10)
N1 N 0.3223(3) 0.2926(2) 0.39234(11)
H1 H 0.39460 0.28620 0.43330
N2 N 0.0266(3) 0.1512(2) 0.08119(12)
C1 C 0.3523(3) 0.2802(3) 0.32144(14)
H2 H 0.45450 0.26340 0.30910
C2 C 0.2126(3) 0.2956(3) 0.27133(13)
C3 C 0.0885(3) 0.3185(3) 0.31351(13)
C4 C -0.0773(3) 0.3423(3) 0.29466(15)
H3 H -0.12960 0.34410 0.24420
C5 C -0.1625(3) 0.3631(3) 0.35079(16)
H4 H -0.27470 0.37900 0.33860
C6 C -0.0872(4) 0.3613(3) 0.42549(17)
H5 H -0.14950 0.37580 0.46290
C7 C 0.0755(3) 0.3390(3) 0.44597(15)
H6 H 0.12680 0.33890 0.49660
C8 C 0.1612(3) 0.3166(3) 0.38915(14)
C9 C 0.1896(3) 0.2902(3) 0.18729(13)
H7 H 0.11620 0.36890 0.16760
C10 C 0.1027(3) 0.1537(3) 0.16193(13)
H8 H 0.18010 0.07530 0.17190
H9 H 0.01860 0.13760 0.19190
C11 C 0.3457(3) 0.3137(3) 0.16052(13)
C12 C 0.4589(3) 0.2075(3) 0.16080(14)
H10 H 0.43600 0.11570 0.17600
C13 C 0.6037(3) 0.2338(3) 0.13939(14)
H11 H 0.67980 0.16050 0.14020
C14 C 0.6378(3) 0.3670(3) 0.11670(14)
C15 C 0.5288(3) 0.4744(3) 0.11645(15)
H12 H 0.55260 0.56620 0.10170
C16 C 0.3832(3) 0.4458(3) 0.13823(15)
H13 H 0.30760 0.51930 0.13770
C17 C 0.8237(4) 0.5157(3) 0.07019(18)
H14 H 0.74150 0.54240 0.02760
H15 H 0.92830 0.51150 0.05490
H16 H 0.82730 0.58520 0.10980
#END
