
#######################################################################
#
#                 Cambridge Crystallographic Data Centre
#                                CCDC
#
#######################################################################
#
# If this CIF has been generated from an entry in the Cambridge
# Structural Database, then it will include bibliographic, chemical,
# crystal, experimental, refinement or atomic coordinate data resulting
# from the CCDC's data processing and validation procedures.
#
#######################################################################

data_CSD_CIF_WIFXIU
_audit_creation_date 2013-05-26
_audit_creation_method CSD-ConQuest-V1
_database_code_CSD WIFXIU
_database_code_depnum_ccdc_archive 'CCDC 929899'
_chemical_formula_sum 'C16 H22 N1 O3'
_chemical_formula_moiety
;
C16 H22 N1 O3
;
_journal_coden_Cambridge 222
_journal_volume 42
_journal_year 2013
_journal_page_first 8788
_journal_name_full 'Dalton Trans. '
loop_
_publ_author_name
"Xue Pang"
"Hui Wang"
"Xiao Ran Zhao"
"Wei Jun Jin"
_chemical_name_systematic
;
1-Hydroxy-2,2,6,6-tetramethylpiperidin-4-yl benzoate
;
_cell_volume   3109.878
_exptl_crystal_colour 'orange'
_exptl_crystal_density_diffrn 1.18
_exptl_crystal_description 'prism'
_diffrn_ambient_temperature 296
#These two values have been output from a single CSD field.
_refine_ls_R_factor_gt 0.0526
_refine_ls_wR_factor_gt 0.0526
_symmetry_cell_setting monoclinic
_symmetry_space_group_name_H-M 'P 21'
_symmetry_Int_Tables_number 4
loop_
_symmetry_equiv_pos_site_id
_symmetry_equiv_pos_as_xyz
1 x,y,z
2 -x,1/2+y,-z
_cell_length_a 6.1278(4)
_cell_length_b 21.8261(13)
_cell_length_c 23.2860(13)
_cell_angle_alpha 90
_cell_angle_beta 93.091(1)
_cell_angle_gamma 90
_cell_formula_units_Z 8
loop_
_atom_type_symbol
_atom_type_radius_bond
C 0.68
H 0.23
N 0.68
O 0.68
loop_
_atom_site_label
_atom_site_type_symbol
_atom_site_fract_x
_atom_site_fract_y
_atom_site_fract_z
C1 C 0.3087(9) 1.0981(3) 1.0731(2)
H1 H 0.44290 1.07820 1.07300
C2 C 0.2843(12) 1.1477(3) 1.1085(3)
H2 H 0.40180 1.16130 1.13210
C3 C 0.0865(13) 1.1775(3) 1.1091(3)
H3 H 0.06990 1.21150 1.13260
C4 C -0.0837(12) 1.1568(3) 1.0749(3)
H4 H -0.21770 1.17680 1.07540
C5 C -0.0623(10) 1.1068(3) 1.0396(3)
H5 H -0.18200 1.09290 1.01700
C6 C 0.1355(8) 1.0775(3) 1.0377(2)
C7 C 0.1575(8) 1.0265(3) 0.9982(2)
C8 C 0.3954(8) 0.9483(3) 0.9635(2)
H6 H 0.26100 0.92610 0.95200
C9 C 0.5004(8) 0.9728(2) 0.9120(2)
H7 H 0.62490 0.99770 0.92470
H8 H 0.39700 0.99910 0.89080
C10 C 0.5769(9) 0.9234(3) 0.8718(2)
C11 C 0.3846(10) 0.8945(3) 0.8362(3)
H9 H 0.43410 0.85840 0.81720
H10 H 0.32850 0.92340 0.80810
H11 H 0.27130 0.88350 0.86120
C12 C 0.7392(10) 0.9507(3) 0.8312(3)
H12 H 0.86630 0.96500 0.85310
H13 H 0.67180 0.98430 0.81040
H14 H 0.78140 0.91990 0.80450
C13 C 0.6287(9) 0.8526(3) 0.9630(2)
C14 C 0.4545(11) 0.8037(3) 0.9545(3)
H15 H 0.32210 0.82200 0.93860
H16 H 0.42770 0.78530 0.99090
H17 H 0.50330 0.77300 0.92870
C15 C 0.8318(10) 0.8254(3) 0.9950(3)
H18 H 0.88010 0.79010 0.97450
H19 H 0.79610 0.81350 1.03300
H20 H 0.94630 0.85540 0.99740
C16 C 0.5495(9) 0.9078(3) 0.9971(2)
H21 H 0.47840 0.89300 1.03060
H22 H 0.67550 0.93180 1.01050
N1 N 0.6961(7) 0.8751(2) 0.9060(2)
O1 O 0.0181(7) 1.0117(3) 0.9619(2)
O2 O 0.3488(5) 0.99887(19) 1.00240(16)
O3 O 0.8100(8) 0.8372(2) 0.8777(2)
C17 C 0.7267(8) 1.1117(2) 0.5498(2)
H23 H 0.86170 1.10580 0.53420
C18 C 0.6883(9) 1.1642(2) 0.5817(2)
H24 H 0.79820 1.19320 0.58770
C19 C 0.4896(10) 1.1731(3) 0.6042(2)
H25 H 0.46420 1.20840 0.62520
C20 C 0.3285(9) 1.1306(3) 0.5961(3)
H26 H 0.19320 1.13710 0.61130
C21 C 0.3650(8) 1.0778(3) 0.5653(2)
H27 H 0.25550 1.04850 0.56070
C22 C 0.5635(7) 1.0685(2) 0.54136(19)
C23 C 0.5961(7) 1.0125(3) 0.5076(2)
C24 C 0.8366(7) 0.9571(2) 0.4486(2)
H28 H 0.70340 0.93890 0.43080
C25 C 0.9811(8) 0.9808(2) 0.4037(2)
H29 H 1.10620 1.00120 0.42250
H30 H 0.90100 1.01110 0.38050
C26 C 1.0622(8) 0.9313(2) 0.3644(2)
C27 C 0.8792(9) 0.9079(3) 0.3228(2)
H31 H 0.83510 0.94000 0.29640
H32 H 0.75660 0.89560 0.34400
H33 H 0.93090 0.87360 0.30170
C28 C 1.251(1) 0.9553(3) 0.3317(3)
H34 H 1.37100 0.96520 0.35830
H35 H 1.20570 0.99140 0.31070
H36 H 1.29600 0.92460 0.30530
C29 C 1.0466(7) 0.8562(2) 0.4533(2)
C30 C 0.8643(9) 0.8106(3) 0.4367(3)
H37 H 0.74230 0.83210 0.41880
H38 H 0.81920 0.79020 0.47060
H39 H 0.91720 0.78090 0.41040
C31 C 1.2251(9) 0.8246(3) 0.4904(2)
H40 H 1.28330 0.79110 0.46940
H41 H 1.16490 0.80950 0.52480
H42 H 1.33960 0.85340 0.50020
C32 C 0.9605(8) 0.9109(2) 0.4862(2)
H43 H 0.86490 0.89600 0.51500
H44 H 1.08290 0.93140 0.50620
N2 N 1.1481(6) 0.87845(19) 0.40022(18)
O4 O 0.4718(7) 0.9698(2) 0.5054(2)
O5 O 0.7840(5) 1.01059(17) 0.48335(16)
O6 O 1.2630(7) 0.8389(2) 0.37419(19)
C33 C 0.9193(9) 0.0141(3) 0.6778(2)
H45 H 0.78340 0.03290 0.67880
C34 C 0.9480(12) -0.0365(3) 0.6429(3)
H46 H 0.83200 -0.05090 0.61920
C35 C 1.1472(13) -0.0655(3) 0.6432(3)
H47 H 1.16400 -0.10050 0.62100
C36 C 1.3179(13) -0.0434(3) 0.6755(3)
H48 H 1.45330 -0.06260 0.67500
C37 C 1.2929(10) 0.0069(3) 0.7091(3)
H49 H 1.41220 0.02190 0.73110
C38 C 1.0945(8) 0.0360(2) 0.7109(2)
C39 C 1.0743(8) 0.0893(3) 0.7503(3)
C40 C 0.8382(8) 0.1634(3) 0.7877(2)
H50 H 0.97420 0.18400 0.80060
C41 C 0.7212(8) 0.1393(2) 0.8382(2)
H51 H 0.81690 0.11120 0.85970
H52 H 0.59340 0.11650 0.82410
C42 C 0.6492(8) 0.1899(3) 0.8785(2)
C43 C 0.8426(9) 0.2160(3) 0.9143(2)
H53 H 0.95670 0.22680 0.88950
H54 H 0.89610 0.18580 0.94160
H55 H 0.79720 0.25180 0.93440
C44 C 0.4803(10) 0.1631(3) 0.9174(3)
H56 H 0.43100 0.19440 0.94260
H57 H 0.54540 0.13030 0.93990
H58 H 0.35830 0.14760 0.89420
C45 C 0.6159(8) 0.2607(3) 0.7878(2)
C46 C 0.7987(11) 0.3085(3) 0.7984(3)
H59 H 0.75120 0.33940 0.82430
H60 H 0.83170 0.32720 0.76260
H61 H 0.92720 0.28870 0.81500
C47 C 0.4224(11) 0.2899(3) 0.7545(3)
H62 H 0.30320 0.26130 0.75160
H63 H 0.46400 0.30080 0.71670
H64 H 0.37780 0.32600 0.77430
C48 C 0.6925(9) 0.2060(3) 0.7531(2)
H65 H 0.56560 0.18350 0.73790
H66 H 0.77020 0.22110 0.72070
N3 N 0.5415(6) 0.2397(2) 0.84387(19)
O7 O 1.2158(7) 0.1047(3) 0.7835(3)
O8 O 0.8825(6) 0.11293(19) 0.74959(16)
O9 O 0.4335(8) 0.2786(2) 0.8721(2)
C49 C 0.5601(8) 0.0063(3) 0.2006(2)
H67 H 0.42270 0.01280 0.21460
C50 C 0.5986(10) -0.0452(3) 0.1674(3)
H68 H 0.48560 -0.07280 0.15910
C51 C 0.7968(10) -0.0558(3) 0.1469(2)
H69 H 0.82060 -0.09070 0.12520
C52 C 0.962(1) -0.0151(3) 0.1582(2)
H70 H 1.09870 -0.02190 0.14390
C53 C 0.9264(8) 0.0364(3) 0.1909(3)
H71 H 1.03960 0.06410 0.19850
C54 C 0.7242(7) 0.0471(2) 0.2125(2)
C55 C 0.6922(8) 0.1022(3) 0.2484(3)
C56 C 0.4491(8) 0.1627(3) 0.3009(2)
H72 H 0.58320 0.18270 0.31610
C57 C 0.3189(9) 0.1376(2) 0.3489(2)
H73 H 0.40900 0.10890 0.37140
H74 H 0.19370 0.11530 0.33240
C58 C 0.2394(8) 0.1876(3) 0.3886(2)
C59 C 0.4249(10) 0.2130(4) 0.4285(3)
H75 H 0.54290 0.22620 0.40600
H76 H 0.47590 0.18150 0.45480
H77 H 0.37200 0.24710 0.44980
C60 C 0.0613(11) 0.1605(3) 0.4250(3)
H78 H 0.01350 0.19110 0.45120
H79 H 0.11940 0.12600 0.44640
H80 H -0.06030 0.14750 0.40030
C61 C 0.2237(8) 0.2598(2) 0.2984(2)
C62 C 0.4018(11) 0.3072(3) 0.3129(3)
H81 H 0.34850 0.33690 0.33910
H82 H 0.44080 0.32740 0.27830
H83 H 0.52810 0.28710 0.33030
C63 C 0.0359(11) 0.2895(3) 0.2633(3)
H84 H -0.08210 0.26080 0.25800
H85 H 0.08470 0.30160 0.22650
H86 H -0.01360 0.32490 0.28330
C64 C 0.3124(8) 0.2055(3) 0.2650(2)
H87 H 0.19010 0.18310 0.24720
H88 H 0.39850 0.22120 0.23450
N4 N 0.1366(6) 0.23744(19) 0.35304(18)
O10 O 0.8266(8) 0.1362(3) 0.2606(4)
O11 O 0.4995(5) 0.10947(18) 0.26539(18)
O12 O 0.0176(7) 0.2746(2) 0.37949(19)
#END
