
#######################################################################
#
#                 Cambridge Crystallographic Data Centre
#                                CCDC
#
#######################################################################
#
# If this CIF has been generated from an entry in the Cambridge
# Structural Database, then it will include bibliographic, chemical,
# crystal, experimental, refinement or atomic coordinate data resulting
# from the CCDC's data processing and validation procedures.
#
#######################################################################

data_CSD_CIF_WIGBIY
_audit_creation_date 2007-09-20
_audit_creation_method CSD-ConQuest-V1
_database_code_CSD WIGBIY
_database_code_depnum_ccdc_archive 'CCDC 633506'
_chemical_formula_sum 'C18 H18 N2 O5'
_chemical_formula_moiety
;
C18 H18 N2 O5
;
_journal_coden_Cambridge 16
_journal_volume 63
_journal_year 2007
_journal_page_first 5579
_journal_name_full 'Tetrahedron '
loop_
_publ_author_name
"S.R.Yong"
"A.T.Ung"
"S.G.Pyne"
"B.W.Skelton"
"A.H.White"
_chemical_name_systematic
;
Methyl 
(3'R*,5'R*)-2'-methyl-5'-(2-nitrophenyl)-3'-phenylisoxazolidine-5'-carboxylate

;
_chemical_melting_point 397.15
_cell_volume    806.157
_exptl_crystal_colour 'colorless'
_exptl_crystal_density_diffrn 1.41
_exptl_special_details
;
Melting point range 397.15-399.15K

;
_exptl_crystal_description 'bar'
_diffrn_ambient_temperature 170
#These two values have been output from a single CSD field.
_refine_ls_R_factor_gt 0.0542
_refine_ls_wR_factor_gt 0.0542
_symmetry_cell_setting monoclinic
_symmetry_space_group_name_H-M 'P 21'
_symmetry_Int_Tables_number 4
loop_
_symmetry_equiv_pos_site_id
_symmetry_equiv_pos_as_xyz
1 x,y,z
2 -x,1/2+y,-z
_cell_length_a 11.141(2)
_cell_length_b 6.866(1)
_cell_length_c 11.390(2)
_cell_angle_alpha 90
_cell_angle_beta 112.291(2)
_cell_angle_gamma 90
_cell_formula_units_Z 2
loop_
_atom_type_symbol
_atom_type_radius_bond
C 0.68
H 0.23
N 0.68
O 0.68
loop_
_atom_site_label
_atom_site_type_symbol
_atom_site_fract_x
_atom_site_fract_y
_atom_site_fract_z
O1 O 0.86028(17) 0.4994(3) 0.39365(17)
N1 N 0.9069(2) 0.5946(4) 0.3032(2)
C1 C 1.0478(2) 0.5827(5) 0.3634(3)
H1 H 1.07660 0.63930 0.44870
H2 H 1.08680 0.65500 0.31260
H3 H 1.07480 0.44600 0.36940
C2 C 0.8564(2) 0.7944(4) 0.3002(2)
H4 H 0.90680 0.86250 0.38160
C3 C 0.8629(2) 0.9106(4) 0.1894(2)
C4 C 0.8942(2) 1.1059(5) 0.2030(3)
H5 H 0.91330 1.16750 0.28280
C5 C 0.8980(3) 1.2134(5) 0.1011(3)
H6 H 0.92140 1.34720 0.11180
C6 C 0.8676(3) 1.1252(5) -0.0162(3)
H7 H 0.86970 1.19850 -0.08620
C7 C 0.8342(3) 0.9309(5) -0.0308(3)
H8 H 0.81300 0.87100 -0.11140
C8 C 0.8312(3) 0.8207(5) 0.0712(3)
H9 H 0.80810 0.68690 0.06040
C9 C 0.7172(2) 0.7564(4) 0.2911(2)
H10 H 0.65510 0.75970 0.20180
H11 H 0.69060 0.85410 0.34050
C10 C 0.7245(2) 0.5493(4) 0.3487(2)
C11 C 0.6545(2) 0.3875(4) 0.2551(2)
O2 O 0.6285(2) 0.2331(3) 0.28773(19)
O3 O 0.63474(18) 0.4326(3) 0.13477(17)
C12 C 0.5713(3) 0.2822(6) 0.0426(3)
H12 H 0.61770 0.15880 0.06970
H13 H 0.57170 0.31930 -0.04030
H14 H 0.48150 0.26700 0.03610
C13 C 0.6866(2) 0.5448(4) 0.4650(2)
C14 C 0.5597(2) 0.5518(4) 0.4625(2)
N2 N 0.4455(2) 0.5631(4) 0.3421(2)
O4 O 0.46359(19) 0.6042(4) 0.24522(18)
O5 O 0.33802(19) 0.5387(4) 0.3443(2)
C15 C 0.5319(3) 0.5521(5) 0.5711(3)
H15 H 0.44450 0.55600 0.56490
C16 C 0.6328(3) 0.5465(5) 0.6890(3)
H16 H 0.61520 0.54850 0.76430
C17 C 0.7593(3) 0.5381(5) 0.6957(2)
H17 H 0.82900 0.53200 0.77600
C18 C 0.7848(2) 0.5387(4) 0.5855(2)
H18 H 0.87250 0.53470 0.59250
#END
