
#######################################################################
#
#                 Cambridge Crystallographic Data Centre
#                                CCDC
#
#######################################################################
#
# If this CIF has been generated from an entry in the Cambridge
# Structural Database, then it will include bibliographic, chemical,
# crystal, experimental, refinement or atomic coordinate data resulting
# from the CCDC's data processing and validation procedures.
#
#######################################################################

data_CSD_CIF_WIGJAY
_audit_creation_date 2007-09-20
_audit_creation_method CSD-ConQuest-V1
_database_code_CSD WIGJAY
_database_code_depnum_ccdc_archive 'CCDC 628198'
_chemical_formula_sum 'C12 H12 N2 O6'
_chemical_formula_moiety
;
C12 H12 N2 O6
;
_journal_coden_Cambridge 1291
_journal_year 2007
_journal_page_first 2759
_journal_name_full 'Eur.J.Org.Chem. '
loop_
_publ_author_name
"S.Grabowsky"
"T.Pfeuffer"
"L.Checinska"
"M.Weber"
"W.Morgenroth"
"P.Luger"
"T.Schirmeister"
_chemical_name_systematic
;
Dimethyl 3-(4-nitrophenyl)aziridine-2,2-dicarboxylate
;
_cell_volume   1231.366
_exptl_crystal_colour 'red'
_exptl_crystal_density_diffrn 1.512
_exptl_crystal_description 'block'
_diffrn_ambient_temperature 9
_diffrn_radiation_probe x-ray
_diffrn_source synchrotron
#These two values have been output from a single CSD field.
_refine_ls_R_factor_gt 0.0241
_refine_ls_wR_factor_gt 0.0241
_symmetry_cell_setting triclinic
_symmetry_space_group_name_H-M 'P -1'
_symmetry_Int_Tables_number 2
loop_
_symmetry_equiv_pos_site_id
_symmetry_equiv_pos_as_xyz
1 x,y,z
2 -x,-y,-z
_cell_length_a 8.013(2)
_cell_length_b 13.312(3)
_cell_length_c 13.652(2)
_cell_angle_alpha 105.984(7)
_cell_angle_beta 106.137(12)
_cell_angle_gamma 107.137(9)
_cell_formula_units_Z 4
loop_
_atom_type_symbol
_atom_type_radius_bond
C 0.68
H 0.23
N 0.68
O 0.68
loop_
_atom_site_label
_atom_site_type_symbol
_atom_site_fract_x
_atom_site_fract_y
_atom_site_fract_z
O1 O 1.58316(4) 0.97373(3) 0.35151(2)
O2 O 1.53013(4) 1.12282(3) 0.42069(2)
O3 O 0.92024(4) 0.60617(2) 0.45680(2)
O4 O 0.90335(4) 0.77335(2) 0.53675(2)
O5 O 0.35260(4) 0.62119(2) 0.29423(2)
O6 O 0.50106(4) 0.62173(2) 0.46119(2)
O7 O 0.34271(4) 0.93871(3) 1.11272(2)
O8 O 0.58980(4) 1.08182(3) 1.13794(2)
O9 O 0.56485(4) 0.59850(2) 0.73769(2)
O10 O 0.81758(4) 0.76680(2) 0.81732(2)
O11 O 1.09974(4) 0.56928(2) 0.92663(2)
O12 O 1.03713(4) 0.62987(2) 0.78678(2)
N1 N 0.67632(5) 0.60823(3) 0.24643(3)
N2 N 1.48021(5) 1.01907(3) 0.37815(2)
N3 N 0.74299(5) 0.55871(3) 0.93649(3)
N4 N 0.50365(4) 0.97988(3) 1.11538(2)
C1 C 0.72354(5) 0.73034(3) 0.29023(3)
C2 C 0.68307(4) 0.65987(3) 0.35723(3)
C3 C 0.92245(5) 0.80555(3) 0.31583(2)
C4 C 1.04748(4) 0.75783(3) 0.29143(3)
C5 C 0.98456(4) 0.92432(3) 0.36405(3)
C6 C 1.16850(4) 0.99522(3) 0.38634(3)
C7 C 1.23108(4) 0.82768(3) 0.31134(3)
C8 C 1.28736(4) 0.94499(3) 0.35770(2)
C9 C 0.84725(4) 0.67330(3) 0.45378(3)
C10 C 1.05879(4) 0.79796(3) 0.63638(3)
C11 C 0.49387(4) 0.63329(2) 0.36693(3)
C12 C 0.32162(5) 0.58915(3) 0.47433(3)
C13 C 0.86584(5) 0.67847(3) 1.00607(3)
C14 C 0.84322(4) 0.62778(3) 0.88747(3)
C15 C 0.77171(4) 0.75679(3) 1.03632(2)
C16 C 0.58740(4) 0.71371(3) 1.03231(3)
C17 C 0.86832(4) 0.87444(3) 1.06713(3)
C18 C 0.78148(4) 0.94856(3) 1.09272(3)
C19 C 0.50027(4) 0.78732(3) 1.06046(3)
C20 C 0.59839(4) 0.90308(3) 1.08956(2)
C21 C 0.72432(4) 0.65970(3) 0.80436(2)
C22 C 0.71120(5) 0.80779(3) 0.74542(3)
C23 C 1.00795(4) 0.60554(2) 0.86976(2)
C24 C 1.19561(5) 0.61365(3) 0.76277(3)
H1 H 0.61360 0.76123 0.26171
H2 H 0.99995 0.66607 0.25364
H3 H 0.88984 0.96210 0.38454
H4 H 1.21657 1.08699 0.42454
H5 H 1.32804 0.79146 0.29174
H6 H 1.17650 0.79020 0.61814
H7 H 1.01442 0.74369 0.67707
H8 H 1.09257 0.88384 0.68701
H9 H 0.35647 0.58517 0.55403
H10 H 0.26418 0.65135 0.47025
H11 H 0.22442 0.50805 0.41094
H12 H 0.53868 0.56294 0.19492
H13 H 1.00487 0.69762 1.06772
H14 H 0.51361 0.62271 1.00760
H15 H 1.01006 0.90753 1.06853
H16 H 0.85252 1.03914 1.11403
H17 H 0.35786 0.75365 1.05797
H18 H 0.58449 0.80316 0.75848
H19 H 0.80430 0.89410 0.76929
H20 H 0.67902 0.75943 0.66104
H21 H 1.20905 0.53953 0.77314
H22 H 1.32200 0.68795 0.81589
H23 H 1.16312 0.60395 0.67863
H24 H 0.81381 0.51070 0.95507
#END
