
#######################################################################
#
#                 Cambridge Crystallographic Data Centre
#                                CCDC
#
#######################################################################
#
# If this CIF has been generated from an entry in the Cambridge
# Structural Database, then it will include bibliographic, chemical,
# crystal, experimental, refinement or atomic coordinate data resulting
# from the CCDC's data processing and validation procedures.
#
#######################################################################

data_CSD_CIF_WIGJAY01
_audit_creation_date 2008-10-31
_audit_creation_method CSD-ConQuest-V1
_database_code_CSD WIGJAY01
_database_code_depnum_ccdc_archive 'CCDC 675059'
_chemical_formula_sum 'C12 H12 N2 O6'
_chemical_formula_moiety
;
C12 H12 N2 O6
;
_journal_coden_Cambridge 177
_journal_volume 6
_journal_year 2008
_journal_page_first 2295
_journal_name_full 'Org.Biomol.Chem. '
loop_
_publ_author_name
"S.Grabowsky"
"T.Pfeuffer"
"W.Morgenroth"
"C.Paulmann"
"T.Schirmeister"
"P.Luger"
_chemical_name_systematic
;
Dimethyl 3-(4-nitrophenyl)aziridine-2,2-dicarboxylate
;
_cell_volume   1238.533
_exptl_crystal_colour 'red'
_exptl_crystal_density_diffrn 1.503
_exptl_crystal_description 'block'
_exptl_crystal_preparation 'dichloromethane/methanol'
_diffrn_ambient_temperature 27
#These two values have been output from a single CSD field.
_refine_ls_R_factor_gt 0.033
_refine_ls_wR_factor_gt 0.033
_symmetry_cell_setting triclinic
_symmetry_space_group_name_H-M 'P -1'
_symmetry_Int_Tables_number 2
loop_
_symmetry_equiv_pos_site_id
_symmetry_equiv_pos_as_xyz
1 x,y,z
2 -x,-y,-z
_cell_length_a 8.0274(16)
_cell_length_b 13.333(3)
_cell_length_c 13.674(3)
_cell_angle_alpha 105.97(3)
_cell_angle_beta 106.05(3)
_cell_angle_gamma 107.14(3)
_cell_formula_units_Z 4
loop_
_atom_type_symbol
_atom_type_radius_bond
C 0.68
H 0.23
N 0.68
O 0.68
loop_
_atom_site_label
_atom_site_type_symbol
_atom_site_fract_x
_atom_site_fract_y
_atom_site_fract_z
O1 O 1.58312(7) 0.97409(5) 0.35172(5)
O2 O 1.53002(7) 1.12269(5) 0.42073(5)
O3 O 0.91992(6) 0.60617(4) 0.45643(4)
O4 O 0.90334(6) 0.77316(4) 0.53653(3)
O5 O 0.35335(6) 0.62169(4) 0.29438(4)
O6 O 0.50117(6) 0.62180(4) 0.46109(3)
O7 O 0.34277(8) 0.93848(6) 1.11267(5)
O8 O 0.58931(8) 1.08130(5) 1.13803(4)
O9 O 0.56524(6) 0.59843(4) 0.73784(4)
O10 O 0.81743(6) 0.76667(4) 0.81744(3)
O11 O 1.09949(6) 0.56953(4) 0.92675(4)
O12 O 1.03700(6) 0.62966(4) 0.78688(3)
N1 N 0.67659(7) 0.60847(4) 0.24636(4)
N2 N 1.48014(6) 1.01910(5) 0.37816(4)
N3 N 0.74291(7) 0.55868(4) 0.93655(4)
N4 N 0.50350(7) 0.97962(5) 1.11538(4)
C1 C 0.72370(7) 0.73059(4) 0.29023(4)
C2 C 0.68324(6) 0.66004(4) 0.35709(4)
C3 C 0.92255(7) 0.80566(4) 0.31580(4)
C4 C 1.04759(7) 0.75814(5) 0.29147(4)
C5 C 0.98459(7) 0.92431(4) 0.36397(4)
C6 C 1.16862(7) 0.99524(4) 0.38627(4)
C7 C 1.23116(7) 0.82798(5) 0.31145(4)
C8 C 1.28736(7) 0.94522(4) 0.35783(4)
C9 C 0.84738(6) 0.67321(4) 0.45364(4)
C10 C 1.05850(7) 0.79754(5) 0.63604(4)
C11 C 0.49417(6) 0.63338(4) 0.36686(4)
C12 C 0.32195(8) 0.58932(5) 0.47436(5)
C13 C 0.86534(7) 0.67825(5) 1.00601(4)
C14 C 0.84319(6) 0.62759(4) 0.88759(4)
C15 C 0.77127(7) 0.75659(5) 1.03625(4)
C16 C 0.58730(7) 0.71354(5) 1.03224(4)
C17 C 0.86811(7) 0.87401(5) 1.06715(4)
C18 C 0.78113(7) 0.94830(5) 1.09281(4)
C19 C 0.50002(7) 0.78712(5) 1.06039(4)
C20 C 0.59832(7) 0.90272(5) 1.08951(4)
C21 C 0.72428(6) 0.65952(4) 0.80443(4)
C22 C 0.71111(8) 0.80760(5) 0.74554(5)
C23 C 1.00772(6) 0.60545(4) 0.86982(4)
C24 C 1.19556(8) 0.61363(5) 0.76292(5)
H1 H 0.61507 0.76205 0.26147
H2 H 0.99993 0.66644 0.25508
H3 H 0.88940 0.96053 0.38604
H4 H 1.22216 1.08715 0.42477
H5 H 1.32730 0.79165 0.29107
H6 H 1.17889 0.79036 0.62121
H7 H 1.00846 0.73985 0.67227
H8 H 1.09538 0.88352 0.68733
H9 H 0.35413 0.58641 0.55431
H10 H 0.26674 0.65236 0.47061
H11 H 0.22436 0.50898 0.41046
H12 H 0.54035 0.56204 0.19367
H13 H 1.00425 0.69742 1.06725
H14 H 0.51603 0.62238 1.00674
H15 H 1.00984 0.91013 1.06975
H16 H 0.85012 1.03885 1.11397
H17 H 0.35772 0.75459 1.05793
H18 H 0.58543 0.80541 0.75865
H19 H 0.80611 0.89178 0.76428
H20 H 0.67165 0.75945 0.66025
H21 H 1.21464 0.54220 0.77685
H22 H 1.31890 0.69042 0.81214
H23 H 1.15459 0.59747 0.67713
H24 H 0.81219 0.51097 0.95768
#END
