
#######################################################################
#
#                 Cambridge Crystallographic Data Centre
#                                CCDC
#
#######################################################################
#
# If this CIF has been generated from an entry in the Cambridge
# Structural Database, then it will include bibliographic, chemical,
# crystal, experimental, refinement or atomic coordinate data resulting
# from the CCDC's data processing and validation procedures.
#
#######################################################################

data_CSD_CIF_WIGMUW
_audit_creation_date 2013-05-26
_audit_creation_method CSD-ConQuest-V1
_database_code_CSD WIGMUW
_database_code_depnum_ccdc_archive 'CCDC 935695'
_chemical_formula_sum 'C16 H13 N1 O2'
_chemical_formula_moiety
;
C16 H13 N1 O2
;
_journal_coeditor_code "IUCr zj2101"
_journal_coden_Cambridge 1370
_journal_volume 69
_journal_year 2013
_journal_page_first o597
_journal_name_full 'Acta Crystallogr.,Sect.E:Struct.Rep.Online '
loop_
_publ_author_name
"B.Balakrishnan"
"C.Praveen"
"P.R.Seshadri"
"P.T.Perumal"
_chemical_name_systematic
;
5-(3-Methoxyphenyl)-3-phenyl-1,2-oxazole
;
_cell_volume   1285.102
_exptl_crystal_colour 'colorless'
_exptl_crystal_density_diffrn 1.299
_exptl_crystal_description 'block'
_diffrn_ambient_temperature 295
#These two values have been output from a single CSD field.
_refine_ls_R_factor_gt 0.0383
_refine_ls_wR_factor_gt 0.0383
_symmetry_cell_setting orthorhombic
_symmetry_space_group_name_H-M 'P n a 21'
_symmetry_Int_Tables_number 33
loop_
_symmetry_equiv_pos_site_id
_symmetry_equiv_pos_as_xyz
1 x,y,z
2 -x,-y,1/2+z
3 1/2+x,1/2-y,z
4 1/2-x,1/2+y,1/2+z
_cell_length_a 7.909(2)
_cell_length_b 27.239(8)
_cell_length_c 5.9652(17)
_cell_angle_alpha 90
_cell_angle_beta 90
_cell_angle_gamma 90
_cell_formula_units_Z 4
loop_
_atom_type_symbol
_atom_type_radius_bond
C 0.68
H 0.23
N 0.68
O 0.68
loop_
_atom_site_label
_atom_site_type_symbol
_atom_site_fract_x
_atom_site_fract_y
_atom_site_fract_z
C1 C 0.6539(2) 0.00884(6) 0.6796(4)
H1 H 0.58950 0.01870 0.80200
C2 C 0.7022(3) -0.03964(7) 0.6594(4)
H2 H 0.66800 -0.06240 0.76650
C3 C 0.8006(3) -0.05449(7) 0.4817(4)
H3 H 0.83340 -0.08720 0.46930
C4 C 0.8501(3) -0.02114(8) 0.3231(5)
H4 H 0.91780 -0.03110 0.20410
C5 C 0.7994(2) 0.02776(7) 0.3393(4)
H5 H 0.83170 0.05020 0.22990
C6 C 0.70095(19) 0.04300(6) 0.5184(3)
C7 C 0.6472(2) 0.09484(6) 0.5388(3)
C8 C 0.5818(2) 0.11998(6) 0.7237(3)
H6 H 0.55920 0.10740 0.86550
C9 C 0.5583(2) 0.16697(6) 0.6515(3)
C10 C 0.49808(19) 0.21163(6) 0.7641(3)
C11 C 0.4136(2) 0.20828(7) 0.9665(3)
H7 H 0.39260 0.17770 1.03040
C12 C 0.3606(2) 0.25068(8) 1.0733(3)
H8 H 0.30370 0.24850 1.20930
C13 C 0.3916(2) 0.29611(7) 0.9793(3)
H9 H 0.35440 0.32440 1.05140
C14 C 0.4776(2) 0.29962(6) 0.7785(3)
C15 C 0.5295(2) 0.25759(6) 0.6679(3)
H10 H 0.58480 0.25990 0.53070
C16 C 0.5937(3) 0.35244(7) 0.4984(4)
H11 H 0.53360 0.33570 0.38130
H12 H 0.70540 0.33900 0.51150
H13 H 0.60110 0.38680 0.46310
N1 N 0.6620(2) 0.12403(5) 0.3651(3)
O1 O 0.60346(19) 0.17058(5) 0.4372(2)
O2 O 0.50660(17) 0.34640(5) 0.7034(2)
#END
