
#######################################################################
#
#                 Cambridge Crystallographic Data Centre
#                                CCDC
#
#######################################################################
#
# If this CIF has been generated from an entry in the Cambridge
# Structural Database, then it will include bibliographic, chemical,
# crystal, experimental, refinement or atomic coordinate data resulting
# from the CCDC's data processing and validation procedures.
#
#######################################################################

data_CSD_CIF_WIGVEP
_audit_creation_date 2013-05-26
_audit_creation_method CSD-ConQuest-V1
_database_code_CSD WIGVEP
_database_code_depnum_ccdc_archive 'CCDC 935663'
_chemical_formula_sum 'C19 H14 N2 O2'
_chemical_formula_moiety
;
C19 H14 N2 O2
;
_journal_coeditor_code "IUCr ff2100"
_journal_coden_Cambridge 1370
_journal_volume 69
_journal_year 2013
_journal_page_first o548
_journal_name_full 'Acta Crystallogr.,Sect.E:Struct.Rep.Online '
loop_
_publ_author_name
"K.D.Nam"
"J.H.Cha"
"Y.S.Cho"
"J.K.Lee"
"A.N.Pae"
_chemical_name_systematic
;
N-(3-(4-Nitrophenyl)prop-2-en-1-ylidene)naphthalen-1-amine
;
_chemical_name_common
;
(E)-N-[(E)-3-(4-Nitrophenyl)allylidene]naphthalen-1-amine
;
_cell_volume   1507.841
_exptl_crystal_colour 'yellow'
_exptl_crystal_density_diffrn 1.332
_exptl_crystal_description 'chunk'
_diffrn_ambient_temperature 296
#These two values have been output from a single CSD field.
_refine_ls_R_factor_gt 0.0442
_refine_ls_wR_factor_gt 0.0442
_symmetry_cell_setting monoclinic
_symmetry_space_group_name_H-M 'P 21/c'
_symmetry_Int_Tables_number 14
loop_
_symmetry_equiv_pos_site_id
_symmetry_equiv_pos_as_xyz
1 x,y,z
2 -x,1/2+y,1/2-z
3 -x,-y,-z
4 x,-1/2-y,-1/2+z
_cell_length_a 7.7021(5)
_cell_length_b 13.8713(12)
_cell_length_c 14.2554(10)
_cell_angle_alpha 90
_cell_angle_beta 98.096(2)
_cell_angle_gamma 90
_cell_formula_units_Z 4
loop_
_atom_type_symbol
_atom_type_radius_bond
C 0.68
H 0.23
N 0.68
O 0.68
loop_
_atom_site_label
_atom_site_type_symbol
_atom_site_fract_x
_atom_site_fract_y
_atom_site_fract_z
O1 O 0.83231(18) 0.69908(11) 0.01889(9)
O2 O 1.04049(17) 0.66549(11) 0.13076(10)
N1 N 0.28674(17) 0.58150(9) 0.58185(9)
N2 N 0.8861(2) 0.68108(10) 0.10197(11)
C1 C -0.0251(2) 0.57846(11) 0.60108(11)
C2 C -0.1560(2) 0.57496(12) 0.65987(13)
C3 C -0.1124(3) 0.57509(12) 0.75554(13)
C4 C 0.0649(2) 0.57721(10) 0.79753(11)
C5 C 0.1143(3) 0.57601(12) 0.89707(12)
C6 C 0.2852(3) 0.57557(13) 0.93612(12)
C7 C 0.4176(3) 0.57612(12) 0.87819(12)
C8 C 0.3764(2) 0.57776(11) 0.78197(11)
C9 C 0.19908(19) 0.57918(10) 0.7390(1)
C10 C 0.1495(2) 0.58192(10) 0.63815(10)
C11 C 0.2713(3) 0.63110(12) 0.50566(11)
C12 C 0.4042(3) 0.62977(12) 0.44420(11)
C13 C 0.3893(3) 0.67568(12) 0.36151(11)
C14 C 0.5200(2) 0.67695(10) 0.29619(10)
C15 C 0.4674(2) 0.69629(11) 0.2006(1)
C16 C 0.5861(2) 0.69706(11) 0.13708(11)
C17 C 0.75962(19) 0.67906(10) 0.16958(10)
C18 C 0.8178(2) 0.66060(11) 0.26364(11)
C19 C 0.6975(2) 0.65988(11) 0.32628(11)
H1 H -0.05680 0.57840 0.53570
H2 H -0.27330 0.57250 0.63330
H3 H -0.20050 0.57380 0.79390
H4 H 0.02770 0.57550 0.93640
H5 H 0.31460 0.57490 1.00170
H6 H 0.53460 0.57540 0.90550
H7 H 0.46550 0.57790 0.74420
H8 H 0.34980 0.70890 0.17930
H9 H 0.54970 0.70950 0.07320
H10 H 0.93590 0.64890 0.28430
H11 H 0.73530 0.64780 0.39010
H12 H 0.284(3) 0.7118(12) 0.3417(11)
H13 H 0.507(3) 0.5928(12) 0.4638(12)
H14 H 0.169(3) 0.6735(11) 0.4877(11)
#END
