
#######################################################################
#
#                 Cambridge Crystallographic Data Centre
#                                CCDC
#
#######################################################################
#
# If this CIF has been generated from an entry in the Cambridge
# Structural Database, then it will include bibliographic, chemical,
# crystal, experimental, refinement or atomic coordinate data resulting
# from the CCDC's data processing and validation procedures.
#
#######################################################################

data_CSD_CIF_WIJCOH
_audit_creation_date 1995-09-08
_audit_creation_method CSD-ConQuest-V1
_database_code_CSD WIJCOH
_database_code_depnum_ccdc_archive 'CCDC 1293639'
_chemical_formula_sum 'C18 H15 N3 O2'
_chemical_formula_moiety
;
C18 H15 N3 O2
;
_journal_coden_Cambridge 35
_journal_volume 59
_journal_year 1994
_journal_page_first 5742
_journal_name_full 'J.Org.Chem. '
loop_
_publ_author_name
"Yah-Long Liang"
"Jim-Min Fang"
"Tahsin Chow"
"Tong-Ing Ho"
"Chi-Rung Lee"
"Yu Wang"
_chemical_name_systematic
;
2-(N-Methylanilino)-5-(2-nitrophenyl)-2,4-pentadienenitrile
;
_chemical_name_common
;
N-Methyl-N-(1-cyano-4-(o-nitrophenyl)butadienyl)aniline
;
_chemical_melting_point 377.15
_cell_volume   1565.026
_exptl_crystal_colour 'orange'
_exptl_special_details
;
Melting point range 377.15-378.15K

;
_diffrn_ambient_temperature ?
_diffrn_special_details
;
The study was carried out at room temperature,in the range 283-303K

;
_refine_special_details
;
The structure is disordered.

;
#These two values have been output from a single CSD field.
_refine_ls_R_factor_gt 0.052
_refine_ls_wR_factor_gt 0.052
_symmetry_cell_setting monoclinic
_symmetry_space_group_name_H-M 'P 21/c'
_symmetry_Int_Tables_number 14
loop_
_symmetry_equiv_pos_site_id
_symmetry_equiv_pos_as_xyz
1 x,y,z
2 -x,1/2+y,1/2-z
3 -x,-y,-z
4 x,-1/2-y,-1/2+z
_cell_length_a 6.797(2)
_cell_length_b 12.521(2)
_cell_length_c 18.515(7)
_cell_angle_alpha 90
_cell_angle_beta 96.68(2)
_cell_angle_gamma 90
_cell_formula_units_Z 4
loop_
_atom_type_symbol
_atom_type_radius_bond
C 0.68
H 0.23
N 0.68
O 0.68
loop_
_atom_site_label
_atom_site_type_symbol
_atom_site_fract_x
_atom_site_fract_y
_atom_site_fract_z
N1 N 0.6603(4) 0.93307(25) 0.13221(16)
N2 N 0.2324(5) 1.0408(3) 0.04505(19)
N3 N 0.1961(6) 0.4783(3) -0.10339(23)
C1 C 0.8373(6) 1.0982(4) 0.16398(20)
C2 C 0.8519(7) 1.1943(4) 0.2005(3)
C3 C 0.7060(9) 1.2272(4) 0.2397(3)
C4 C 0.5429(7) 1.1647(4) 0.24251(23)
C5 C 0.5245(6) 1.0683(3) 0.20686(19)
C6 C 0.6727(6) 1.0342(3) 0.16720(18)
C7 C 0.4887(5) 0.8978(3) 0.09134(18)
C8 C 0.4489(5) 0.7969(3) 0.06914(19)
C9 C 0.2744(5) 0.7672(3) 0.02203(19)
C10 C 0.2326(5) 0.6677(3) -0.00128(20)
C11 C 0.0542(5) 0.6392(3) -0.04890(19)
C12 C -0.1150(6) 0.7037(3) -0.05031(21)
C13 C -0.2857(6) 0.6837(3) -0.09479(23)
C14 C -0.2992(6) 0.5970(4) -0.14050(23)
C15 C -0.1396(6) 0.5308(3) -0.14171(21)
C16 C 0.0331(5) 0.5524(3) -0.09646(19)
C17 C 0.8286(6) 0.8626(3) 0.14186(23)
C18 C 0.3483(6) 0.9798(3) 0.06655(20)
O1 O 0.3318(5) 0.4724(3) -0.06031(24)
O2 O 0.2197(13) 0.4504(8) -0.1682(5)
H1 H 0.94000 1.07600 0.13300
H2 H 0.97400 1.23800 0.20000
H3 H 0.72000 1.29800 0.26300
H4 H 0.44300 1.19100 0.27400
H5 H 0.40500 1.02100 0.21000
H6 H 0.53900 0.73900 0.08800
H7 H 0.17900 0.82500 0.00300
H8 H 0.33200 0.61200 0.01500
H9 H -0.11000 0.76800 -0.02100
H10 H -0.40500 0.72800 -0.09300
H11 H -0.42600 0.58600 -0.17200
H12 H -0.15600 0.46300 -0.17400
H13 H 0.80400 0.79600 0.11400
H14 H 0.94800 0.89200 0.12600
H15 H 0.86400 0.84000 0.19200
O3? O 0.1547(14) 0.3918(7) -0.1315(6)
#END
