
#######################################################################
#
#                 Cambridge Crystallographic Data Centre
#                                CCDC
#
#######################################################################
#
# If this CIF has been generated from an entry in the Cambridge
# Structural Database, then it will include bibliographic, chemical,
# crystal, experimental, refinement or atomic coordinate data resulting
# from the CCDC's data processing and validation procedures.
#
#######################################################################

data_CSD_CIF_WIJJAC
_audit_creation_date 2013-10-17
_audit_creation_method CSD-ConQuest-V1
_database_code_CSD WIJJAC
_database_code_depnum_ccdc_archive 'CCDC 908398'
_chemical_formula_sum 'C14 H15 N3 O2'
_chemical_formula_moiety
;
C14 H15 N3 O2
;
_journal_coden_Cambridge 16
_journal_volume 69
_journal_year 2013
_journal_page_first 7139
_journal_name_full 'Tetrahedron '
loop_
_publ_author_name
"J.Galeta"
"L.Tenora"
"S.Man"
"M.Potacek"
_chemical_name_systematic
;
5,5-Dimethyl-2-(4-nitrophenyl)-5,6-dihydro-4H-pyrrolo[1,2-b]pyrazole
;
_cell_volume    622.609
_exptl_crystal_density_diffrn 1.372
_diffrn_ambient_temperature 120
#These two values have been output from a single CSD field.
_refine_ls_R_factor_gt 0.0268
_refine_ls_wR_factor_gt 0.0268
_symmetry_cell_setting monoclinic
_symmetry_space_group_name_H-M 'P 21'
_symmetry_Int_Tables_number 4
loop_
_symmetry_equiv_pos_site_id
_symmetry_equiv_pos_as_xyz
1 x,y,z
2 -x,1/2+y,-z
_cell_length_a 5.7730(12)
_cell_length_b 7.3581(15)
_cell_length_c 14.771(3)
_cell_angle_alpha 90
_cell_angle_beta 97.12(3)
_cell_angle_gamma 90
_cell_formula_units_Z 2
loop_
_atom_type_symbol
_atom_type_radius_bond
C 0.68
H 0.23
N 0.68
O 0.68
loop_
_atom_site_label
_atom_site_type_symbol
_atom_site_fract_x
_atom_site_fract_y
_atom_site_fract_z
C1 C 0.2306(2) 0.78465(19) 0.48159(10)
N1 N 0.1664(2) 0.88306(18) 0.32232(8)
C2 C 0.2617(2) 0.6981(2) 0.63994(9)
H1 H 0.19710 0.64310 0.68930
O1 O 0.5268(2) 0.69250(17) 0.80464(7)
C3 C 0.4507(2) 0.8632(2) 0.4975(1)
H2 H 0.51470 0.92110 0.44880
C4 C 0.0960(2) 0.7849(2) 0.39089(9)
C5 C 0.1378(2) 0.7031(2) 0.55440(9)
H3 H -0.01330 0.65020 0.54460
N2 N 0.6165(2) 0.76425(18) 0.74274(8)
C6 C 0.5776(3) 0.8584(2) 0.58287(10)
H4 H 0.72830 0.91180 0.59340
C7 C 0.4804(3) 0.7740(2) 0.65279(10)
C8 C -0.1101(2) 0.6895(2) 0.36264(10)
H5 H -0.19440 0.61200 0.39830
O2 O 0.81368(19) 0.82683(17) 0.75244(8)
N3 N 0.0032(2) 0.84523(18) 0.25209(8)
C9 C -0.0327(3) 0.9172(2) 0.15948(10)
H6 H 0.11430 0.91790 0.13130
H7 H -0.09860 1.04150 0.15790
C10 C -0.1633(3) 0.7322(2) 0.27271(10)
C11 C -0.2094(2) 0.7790(2) 0.11236(9)
C12 C -0.3383(3) 0.7051(2) 0.19098(10)
H8 H -0.48270 0.77490 0.19610
H9 H -0.37810 0.57500 0.18190
C13 C -0.3787(3) 0.8667(2) 0.03799(10)
H10 H -0.49840 0.77820 0.01470
H11 H -0.29360 0.90660 -0.01190
H12 H -0.45310 0.97170 0.06320
C14 C -0.0748(3) 0.6267(3) 0.07331(11)
H13 H -0.18390 0.53270 0.04760
H14 H 0.03600 0.57390 0.12180
H15 H 0.01050 0.67520 0.02520
#END
