
#######################################################################
#
#                 Cambridge Crystallographic Data Centre
#                                CCDC
#
#######################################################################
#
# If this CIF has been generated from an entry in the Cambridge
# Structural Database, then it will include bibliographic, chemical,
# crystal, experimental, refinement or atomic coordinate data resulting
# from the CCDC's data processing and validation procedures.
#
#######################################################################

data_CSD_CIF_WIJRAI02
_audit_creation_date 2000-03-09
_audit_creation_method CSD-ConQuest-V1
_database_code_CSD WIJRAI02
_database_code_depnum_ccdc_archive 'CCDC 138574'
_chemical_formula_sum 'C16 H23 N2 O1'
_chemical_formula_moiety
;
C16 H23 N2 O1
;
_journal_coeditor_code "IUCr OA0021"
_journal_coden_Cambridge 622
_journal_volume 55
_journal_year 1999
_journal_page_first 1057
_journal_name_full 'Acta Crystallogr.,Sect.B:Struct.Sci. '
loop_
_publ_author_name
"F.Iwasaki"
"J.H.Yoshikawa"
"H.Yamamoto"
"K.Takada"
"E.Kan-nari"
"M.Yasui"
"T.Ishida"
"T.Nogami"
_chemical_name_systematic
;
4-Benzylideneamino-2,2,6,6-tetramethylpiperidin-1-oxyl radical
;
_cell_volume   1478.506
_exptl_crystal_colour 'orange'
_exptl_crystal_density_diffrn 1.165
_exptl_crystal_description 'prism'
_exptl_crystal_preparation 'ethanol'
_diffrn_ambient_temperature 100
#These two values have been output from a single CSD field.
_refine_ls_R_factor_gt 0.0358
_refine_ls_wR_factor_gt 0.0358
_symmetry_cell_setting monoclinic
_symmetry_space_group_name_H-M 'P 21/c'
_symmetry_Int_Tables_number 14
loop_
_symmetry_equiv_pos_site_id
_symmetry_equiv_pos_as_xyz
1 x,y,z
2 -x,1/2+y,1/2-z
3 -x,-y,-z
4 x,-1/2-y,-1/2+z
_cell_length_a 12.5774(14)
_cell_length_b 11.6228(16)
_cell_length_c 10.8229(17)
_cell_angle_alpha 90
_cell_angle_beta 110.853(9)
_cell_angle_gamma 90
_cell_formula_units_Z 4
loop_
_atom_type_symbol
_atom_type_radius_bond
C 0.68
H 0.23
N 0.68
O 0.68
loop_
_atom_site_label
_atom_site_type_symbol
_atom_site_fract_x
_atom_site_fract_y
_atom_site_fract_z
O1 O 0.45309(7) 0.80100(7) 0.29639(8)
N1 N 0.39996(8) 0.71694(8) 0.22244(9)
N2 N 0.22530(8) 0.43205(8) -0.00384(9)
C1 C 0.47332(9) 0.62293(9) 0.20138(10)
C2 C 0.40119(9) 0.54054(10) 0.09327(10)
C3 C 0.28946(9) 0.50573(9) 0.10809(10)
C4 C 0.22008(9) 0.61410(9) 0.10334(11)
C5 C 0.27928(9) 0.70112(9) 0.21241(10)
C6 C 0.21226(9) 0.32793(9) 0.02204(10)
C7 C 0.14787(9) 0.24433(9) -0.08008(10)
C8 C 0.09898(9) 0.27602(10) -0.21320(11)
C9 C 0.03567(10) 0.19668(10) -0.30631(11)
C10 C 0.02034(9) 0.08542(10) -0.26863(12)
C11 C 0.06954(10) 0.05302(10) -0.13676(12)
C12 C 0.13327(9) 0.13204(10) -0.04302(12)
C13 C 0.53210(11) 0.56092(11) 0.33356(12)
C14 C 0.56274(10) 0.67946(12) 0.15513(13)
C15 C 0.27685(11) 0.66206(11) 0.34716(11)
C16 C 0.22004(11) 0.8180(1) 0.17703(12)
H1 H 0.3052(10) 0.4636(11) 0.1932(12)
H2 H 0.2440(11) 0.2955(11) 0.1137(13)
H3 H 0.1098(12) 0.3537(13) -0.2398(14)
H4 H 0.0043(12) 0.2189(12) -0.3977(14)
H5 H -0.0258(13) 0.0283(13) -0.3314(14)
H6 H 0.0595(12) -0.0253(12) -0.1099(14)
H7 H 0.1677(12) 0.1098(13) 0.0481(14)
H8 H 0.4754(13) 0.5213(13) 0.3662(15)
H9 H 0.5852(13) 0.5041(14) 0.3240(15)
H10 H 0.5723(13) 0.6179(13) 0.3999(15)
H11 H 0.5270(13) 0.7189(13) 0.0676(15)
H12 H 0.6155(13) 0.6195(13) 0.1459(15)
H13 H 0.6048(14) 0.7397(14) 0.2184(16)
H14 H 0.3833(11) 0.5781(11) 0.0035(13)
H15 H 0.4467(12) 0.4718(13) 0.0945(14)
H16 H 0.1445(11) 0.5940(12) 0.1095(13)
H17 H 0.2051(11) 0.6517(12) 0.0143(13)
H18 H 0.3023(12) 0.5813(13) 0.3674(14)
H19 H 0.1970(13) 0.6676(13) 0.3462(14)
H20 H 0.3271(12) 0.7111(12) 0.4193(14)
H21 H 0.1359(13) 0.8067(12) 0.1584(14)
H22 H 0.2509(13) 0.8741(13) 0.2497(15)
H23 H 0.2311(12) 0.8528(13) 0.0962(15)
#END
