
#######################################################################
#
#                 Cambridge Crystallographic Data Centre
#                                CCDC
#
#######################################################################
#
# If this CIF has been generated from an entry in the Cambridge
# Structural Database, then it will include bibliographic, chemical,
# crystal, experimental, refinement or atomic coordinate data resulting
# from the CCDC's data processing and validation procedures.
#
#######################################################################

data_CSD_CIF_WIKYUK
_audit_creation_date 1995-04-20
_audit_creation_method CSD-ConQuest-V1
_database_code_CSD WIKYUK
_chemical_formula_sum 'C16 H23 N1 O2'
_chemical_formula_moiety
;
C16 H23 N1 O2
;
_journal_coeditor_code "IUCr SH0046"
_journal_coden_Cambridge 622
_journal_volume 50
_journal_year 1994
_journal_page_first 730
_journal_name_full 'Acta Crystallogr.,Sect.B:Struct.Sci. '
loop_
_publ_author_name
"D.J.A.De Ridder"
"J.Fraanje"
"K.Goubitz"
"H.Schenk"
_chemical_name_systematic
;
1,1,2,4,4,7-Hexamethyl-6-nitrotetralin
;
_cell_volume   1481.686
_exptl_crystal_density_diffrn 1.17
_exptl_special_details
;
may have pre-emergence herbicidal activity

;
_diffrn_ambient_temperature ?
_diffrn_special_details
;
The study was carried out at room temperature,in the range 283-303K

;
#These two values have been output from a single CSD field.
_refine_ls_R_factor_gt 0.069
_refine_ls_wR_factor_gt 0.069
_symmetry_cell_setting monoclinic
_symmetry_space_group_name_H-M 'P 21/n'
_symmetry_Int_Tables_number 14
loop_
_symmetry_equiv_pos_site_id
_symmetry_equiv_pos_as_xyz
1 x,y,z
2 1/2-x,1/2+y,1/2-z
3 -x,-y,-z
4 -1/2+x,-1/2-y,-1/2+z
_cell_length_a 8.695(1)
_cell_length_b 10.448(1)
_cell_length_c 16.310(2)
_cell_angle_alpha 90
_cell_angle_beta 90.09(1)
_cell_angle_gamma 90
_cell_formula_units_Z 4
loop_
_atom_type_symbol
_atom_type_radius_bond
C 0.68
H 0.23
N 0.68
O 0.68
loop_
_atom_site_label
_atom_site_type_symbol
_atom_site_fract_x
_atom_site_fract_y
_atom_site_fract_z
C1 C 0.5134(3) 0.6987(3) 0.2041(2)
C2 C 0.4173(5) 0.5733(4) 0.2099(2)
C3 C 0.3469(5) 0.5351(4) 0.1304(3)
C4 C 0.2360(3) 0.6305(3) 0.0943(2)
C5 C 0.2332(3) 0.8628(3) 0.0561(2)
C6 C 0.2866(3) 0.9868(3) 0.0589(2)
C7 C 0.4141(4) 1.0220(3) 0.1058(2)
C8 C 0.4816(3) 0.9236(3) 0.1503(2)
C9 C 0.4285(3) 0.7965(3) 0.1509(2)
C10 C 0.3018(3) 0.7656(3) 0.1014(2)
C11 C 0.5295(6) 0.7502(4) 0.2918(2)
C12 C 0.6736(5) 0.6769(5) 0.1681(3)
C13 C 0.5048(7) 0.4609(4) 0.2501(3)
C14 C 0.0756(4) 0.6267(4) 0.1334(3)
C15 C 0.2172(6) 0.5928(5) 0.0032(3)
C16 C 0.4834(5) 1.1546(4) 0.1089(3)
N1 N 0.2033(4) 1.0810(3) 0.0090(2)
O1 O 0.1457(4) 1.0457(3) -0.0553(2)
O2 O 0.1935(4) 1.1907(3) 0.0335(2)
H1 H 0.292(3) 0.575(5) 0.221(3)
H2 H 0.140(3) 0.846(3) 0.019(2)
H3 H 0.577(3) 0.946(3) 0.184(2)
H4 H 0.459(4) 0.526(6) 0.096(3)
H5 H 0.283(5) 0.449(3) 0.145(3)
H6 H 0.417(4) 0.777(5) 0.311(3)
H7 H 0.577(5) 0.680(3) 0.330(2)
H8 H 0.596(5) 0.837(4) 0.294(2)
H9 H 0.738(4) 0.615(3) 0.206(2)
H10 H 0.655(6) 0.642(5) 0.106(2)
H11 H 0.731(4) 0.765(3) 0.174(2)
H12 H 0.431(6) 0.380(4) 0.260(3)
H13 H 0.588(5) 0.432(5) 0.207(3)
H14 H 0.545(5) 0.487(4) 0.309(2)
H15 H 0.033(4) 0.533(3) 0.131(2)
H16 H 0.084(5) 0.653(4) 0.196(2)
H17 H 0.001(4) 0.691(4) 0.106(3)
H18 H 0.330(4) 0.598(6) -0.024(4)
H19 H 0.186(5) 0.495(3) 0.005(3)
H20 H 0.136(8) 0.654(7) -0.029(5)
H21 H 0.414(5) 1.217(4) 0.142(3)
H22 H 0.594(3) 1.155(4) 0.134(3)
H23 H 0.487(5) 1.198(4) 0.050(2)
#END
