
#######################################################################
#
#                 Cambridge Crystallographic Data Centre
#                                CCDC
#
#######################################################################
#
# If this CIF has been generated from an entry in the Cambridge
# Structural Database, then it will include bibliographic, chemical,
# crystal, experimental, refinement or atomic coordinate data resulting
# from the CCDC's data processing and validation procedures.
#
#######################################################################

data_CSD_CIF_WIKYIY
_audit_creation_date 1995-04-19
_audit_creation_method CSD-ConQuest-V1
_database_code_CSD WIKYIY
_database_code_depnum_ccdc_archive 'CCDC 1293801'
_chemical_formula_sum 'C15 H21 N1 O2'
_chemical_formula_moiety
;
C15 H21 N1 O2
;
_journal_coeditor_code "IUCr SH0045"
_journal_coden_Cambridge 622
_journal_volume 50
_journal_year 1994
_journal_page_first 724
_journal_name_full 'Acta Crystallogr.,Sect.B:Struct.Sci. '
loop_
_publ_author_name
"D.J.A.De Ridder"
"H.Schenk"
_chemical_name_systematic
;
1,1,2,3,3,6-Hexamethyl-5-nitroindan
;
_cell_volume   1400.200
_exptl_crystal_colour 'Colorless'
_exptl_crystal_density_diffrn 1.17
_exptl_special_details
;
may have pre-emergence herbicidal activity

;
_diffrn_ambient_temperature 236
#These two values have been output from a single CSD field.
_refine_ls_R_factor_gt 0.071
_refine_ls_wR_factor_gt 0.071
_symmetry_cell_setting monoclinic
_symmetry_space_group_name_H-M 'P 21/n'
_symmetry_Int_Tables_number 14
loop_
_symmetry_equiv_pos_site_id
_symmetry_equiv_pos_as_xyz
1 x,y,z
2 1/2-x,1/2+y,1/2-z
3 -x,-y,-z
4 -1/2+x,-1/2-y,-1/2+z
_cell_length_a 8.623(1)
_cell_length_b 10.60(1)
_cell_length_c 15.366(2)
_cell_angle_alpha 90
_cell_angle_beta 94.49(1)
_cell_angle_gamma 90
_cell_formula_units_Z 4
loop_
_atom_type_symbol
_atom_type_radius_bond
C 0.68
H 0.23
N 0.68
O 0.68
loop_
_atom_site_label
_atom_site_type_symbol
_atom_site_fract_x
_atom_site_fract_y
_atom_site_fract_z
C1 C 0.7397(8) 0.8552(7) 0.3815(5)
C2 C 0.623(1) 0.893(1) 0.302(1)
C3 C 0.4915(9) 0.7984(8) 0.2932(5)
C4 C 0.5010(8) 0.5661(7) 0.3477(5)
C5 C 0.5769(8) 0.4710(7) 0.3975(5)
C6 C 0.7130(8) 0.5086(7) 0.4457(4)
C7 C 0.7736(8) 0.6286(8) 0.4462(5)
C8 C 0.6962(8) 0.7195(7) 0.3935(5)
C9 C 0.5582(8) 0.6860(7) 0.3448(4)
C10 C 0.904(1) 0.870(1) 0.3554(7)
C11 C 0.719(2) 0.930(1) 0.4624(9)
C12 C 0.595(1) 1.0270(9) 0.2822(7)
C13 C 0.458(2) 0.762(1) 0.1965(6)
C14 C 0.337(1) 0.838(1) 0.3260(7)
C15 C 0.508(1) 0.3415(8) 0.3979(6)
N1 N 0.8013(7) 0.4174(7) 0.5027(4)
O1 O 0.8645(7) 0.4543(6) 0.5708(4)
O2 O 0.8088(8) 0.3082(5) 0.4772(4)
H1 H 0.704(9) 0.874(8) 0.251(4)
H2 H 0.396(5) 0.534(6) 0.313(4)
H3 H 0.869(6) 0.658(7) 0.490(4)
H4 H 0.90(1) 0.807(8) 0.300(5)
H5 H 0.91(1) 0.968(4) 0.339(5)
H6 H 0.98(1) 0.823(8) 0.405(5)
H7 H 0.77(1) 1.022(6) 0.455(8)
H8 H 0.594(5) 0.93(1) 0.471(8)
H9 H 0.819(7) 0.908(8) 0.508(4)
H10 H 0.55(1) 1.06(1) 0.341(5)
H11 H 0.694(7) 1.088(7) 0.297(6)
H12 H 0.521(8) 1.059(8) 0.226(4)
H13 H 0.44(1) 0.846(6) 0.157(5)
H14 H 0.543(8) 0.709(7) 0.164(5)
H15 H 0.36(1) 0.70(1) 0.21(1)
H16 H 0.37(1) 0.870(8) 0.392(3)
H17 H 0.293(8) 0.920(5) 0.290(4)
H18 H 0.251(9) 0.763(7) 0.322(7)
H19 H 0.565(9) 0.266(6) 0.367(5)
H20 H 0.521(7) 0.301(5) 0.461(2)
H21 H 0.393(5) 0.336(7) 0.369(5)
#END
