
#######################################################################
#
#                 Cambridge Crystallographic Data Centre
#                                CCDC
#
#######################################################################
#
# If this CIF has been generated from an entry in the Cambridge
# Structural Database, then it will include bibliographic, chemical,
# crystal, experimental, refinement or atomic coordinate data resulting
# from the CCDC's data processing and validation procedures.
#
#######################################################################

data_CSD_CIF_WIKYOE
_audit_creation_date 1995-04-20
_audit_creation_method CSD-ConQuest-V1
_database_code_CSD WIKYOE
_chemical_formula_sum 'C15 H20 N2 O4'
_chemical_formula_moiety
;
C15 H20 N2 O4
;
_journal_coeditor_code "IUCr SH0045"
_journal_coden_Cambridge 622
_journal_volume 50
_journal_year 1994
_journal_page_first 724
_journal_name_full 'Acta Crystallogr.,Sect.B:Struct.Sci. '
loop_
_publ_author_name
"D.J.A.De Ridder"
"H.Schenk"
_chemical_name_systematic
;
1,1,2,3,3,5-Hexamethyl-4,6-dinitroindan
;
_cell_volume   1536.541
_exptl_crystal_colour 'Colorless'
_exptl_crystal_density_diffrn 1.26
_exptl_special_details
;
may have pre-emergence herbicidal activity

;
_diffrn_ambient_temperature 259
#These two values have been output from a single CSD field.
_refine_ls_R_factor_gt 0.081
_refine_ls_wR_factor_gt 0.081
_symmetry_cell_setting monoclinic
_symmetry_space_group_name_H-M 'P 21/n'
_symmetry_Int_Tables_number 14
loop_
_symmetry_equiv_pos_site_id
_symmetry_equiv_pos_as_xyz
1 x,y,z
2 1/2-x,1/2+y,1/2-z
3 -x,-y,-z
4 -1/2+x,-1/2-y,-1/2+z
_cell_length_a 8.364(2)
_cell_length_b 11.668(1)
_cell_length_c 15.996(2)
_cell_angle_alpha 90
_cell_angle_beta 100.17(2)
_cell_angle_gamma 90
_cell_formula_units_Z 4
loop_
_atom_type_symbol
_atom_type_radius_bond
C 0.68
H 0.23
N 0.68
O 0.68
loop_
_atom_site_label
_atom_site_type_symbol
_atom_site_fract_x
_atom_site_fract_y
_atom_site_fract_z
C1 C -0.0039(5) 0.4614(6) 0.2915(3)
C2 C 0.1669(7) 0.4715(6) 0.3468(3)
C3 C 0.2902(5) 0.4978(4) 0.2857(3)
C4 C 0.2541(2) 0.4150(3) 0.1290(3)
C5 C 0.1572(5) 0.3695(3) 0.0573(2)
C6 C -0.0048(5) 0.3523(3) 0.0663(3)
C7 C -0.0647(5) 0.3779(4) 0.1391(3)
C8 C 0.0385(4) 0.4257(3) 0.2075(2)
C9 C 0.2010(4) 0.4442(3) 0.2036(2)
C10 C -0.0953(8) 0.3651(6) 0.3300(4)
C11 C -0.1151(7) 0.5660(5) 0.2787(4)
C12 C 0.1795(8) 0.5515(6) 0.4232(3)
C13 C 0.4452(8) 0.4345(7) 0.3235(4)
C14 C 0.324(1) 0.6228(6) 0.2728(4)
C15 C 0.2262(8) 0.3413(5) -0.0213(3)
N1 N -0.1202(6) 0.3017(4) -0.0034(3)
N2 N 0.4292(5) 0.4307(4) 0.1251(3)
O1 O -0.2149(6) 0.2332(5) 0.0140(3)
O2 O -0.1146(6) 0.3314(4) -0.0764(2)
O3 O 0.5191(4) 0.3508(4) 0.1429(3)
O4 O 0.4727(6) 0.5231(4) 0.1049(4)
H1 H 0.215(6) 0.384(3) 0.369(3)
H2 H -0.186(4) 0.360(4) 0.141(3)
H3 H -0.015(6) 0.296(4) 0.348(4)
H4 H -0.120(7) 0.391(5) 0.389(2)
H5 H -0.207(5) 0.347(5) 0.285(3)
H6 H -0.136(5) 0.590(4) 0.339(2)
H7 H -0.055(7) 0.636(4) 0.254(4)
H8 H -0.227(5) 0.542(5) 0.240(3)
H9 H 0.11(1) 0.626(6) 0.400(6)
H10 H 0.121(9) 0.497(6) 0.464(5)
H11 H 0.304(4) 0.554(5) 0.455(3)
H12 H 0.487(7) 0.463(5) 0.388(2)
H13 H 0.453(9) 0.344(3) 0.320(5)
H14 H 0.52(1) 0.44(1) 0.277(5)
H15 H 0.25(2) 0.69(1) 0.250(9)
H16 H 0.383(8) 0.667(6) 0.327(3)
H17 H 0.408(5) 0.633(5) 0.230(3)
H18 H 0.197(6) 0.258(3) -0.046(3)
H19 H 0.193(8) 0.400(5) -0.071(3)
H20 H 0.346(5) 0.305(5) -0.009(4)
#END
