
#######################################################################
#
#                 Cambridge Crystallographic Data Centre
#                                CCDC
#
#######################################################################
#
# If this CIF has been generated from an entry in the Cambridge
# Structural Database, then it will include bibliographic, chemical,
# crystal, experimental, refinement or atomic coordinate data resulting
# from the CCDC's data processing and validation procedures.
#
#######################################################################

data_CSD_CIF_WIKZEV
_audit_creation_date 1995-04-20
_audit_creation_method CSD-ConQuest-V1
_database_code_CSD WIKZEV
_chemical_formula_sum 'C16 H22 N2 O4'
_chemical_formula_moiety
;
C16 H22 N2 O4
;
_journal_coeditor_code "IUCr SH0046"
_journal_coden_Cambridge 622
_journal_volume 50
_journal_year 1994
_journal_page_first 730
_journal_name_full 'Acta Crystallogr.,Sect.B:Struct.Sci. '
loop_
_publ_author_name
"D.J.A.De Ridder"
"J.Fraanje"
"K.Goubitz"
"H.Schenk"
_chemical_name_systematic
;
1,1,2,4,4,7-Hexamethyl-5,6-dinitrotetralin
;
_cell_volume    798.967
_exptl_crystal_density_diffrn 1.27
_exptl_special_details
;
may have pre-emergence herbicidal activity

;
_diffrn_ambient_temperature ?
_diffrn_special_details
;
The study was carried out at room temperature,in the range 283-303K

;
#These two values have been output from a single CSD field.
_refine_ls_R_factor_gt 0.047
_refine_ls_wR_factor_gt 0.047
_symmetry_cell_setting triclinic
_symmetry_space_group_name_H-M 'P -1'
_symmetry_Int_Tables_number 2
loop_
_symmetry_equiv_pos_site_id
_symmetry_equiv_pos_as_xyz
1 x,y,z
2 -x,-y,-z
_cell_length_a 8.7422(3)
_cell_length_b 10.2027(5)
_cell_length_c 10.4811(9)
_cell_angle_alpha 94.637(5)
_cell_angle_beta 110.063(5)
_cell_angle_gamma 110.765(4)
_cell_formula_units_Z 2
loop_
_atom_type_symbol
_atom_type_radius_bond
C 0.68
H 0.23
N 0.68
O 0.68
loop_
_atom_site_label
_atom_site_type_symbol
_atom_site_fract_x
_atom_site_fract_y
_atom_site_fract_z
C1 C 0.6830(2) 0.2147(2) 0.2734(2)
C2 C 0.7470(3) 0.0919(2) 0.2874(2)
C3 C 0.9460(3) 0.1517(2) 0.3680(2)
C4 C 1.0548(2) 0.2447(2) 0.2954(2)
C5 C 1.0834(2) 0.4874(2) 0.2258(2)
C6 C 1.0273(3) 0.5975(2) 0.2018(2)
C7 C 0.8630(3) 0.5862(2) 0.1998(2)
C8 C 0.7625(3) 0.4579(2) 0.2211(3)
C9 C 0.8155(2) 0.3467(2) 0.2486(2)
C10 C 0.9852(2) 0.3598(2) 0.2549(2)
C11 C 0.6632(4) 0.2649(3) 0.4073(3)
C12 C 0.5024(3) 0.1581(3) 0.1487(3)
C13 C 0.6530(4) -0.0237(3) 0.3524(4)
C14 C 1.2494(3) 0.3095(3) 0.4040(3)
C15 C 1.0363(4) 0.1469(3) 0.1658(3)
C16 C 0.7916(4) 0.7001(3) 0.1740(3)
N1 N 1.1413(2) 0.7284(2) 0.1751(2)
N2 N 1.2611(2) 0.5155(2) 0.2258(2)
O1 O 1.1996(2) 0.7140(2) 0.0867(2)
O2 O 1.1706(3) 0.8445(2) 0.2426(2)
O3 O 1.3897(2) 0.6138(2) 0.3171(2)
O4 O 1.2688(2) 0.4406(2) 0.1324(2)
H1 H 0.723(3) 0.044(2) 0.186(2)
H2 H 0.642(3) 0.448(2) 0.214(2)
H3 H 0.972(3) 0.212(2) 0.466(3)
H4 H 0.984(3) 0.064(2) 0.388(2)
H5 H 0.573(4) 0.189(3) 0.418(3)
H6 H 0.787(5) 0.313(4) 0.491(4)
H7 H 0.630(3) 0.347(3) 0.399(3)
H8 H 0.520(4) 0.138(3) 0.062(3)
H9 H 0.415(4) 0.066(3) 0.153(3)
H10 H 0.455(4) 0.231(3) 0.139(3)
H11 H 0.690(4) -0.110(3) 0.344(3)
H12 H 0.686(4) 0.015(3) 0.460(4)
H13 H 0.520(5) -0.062(4) 0.304(4)
H14 H 1.263(4) 0.383(4) 0.480(3)
H15 H 1.274(3) 0.227(3) 0.440(3)
H16 H 1.332(5) 0.361(4) 0.370(3)
H17 H 1.065(4) 0.064(3) 0.195(3)
H18 H 0.904(4) 0.099(3) 0.086(3)
H19 H 1.117(4) 0.205(3) 0.130(3)
H20 H 0.658(4) 0.655(3) 0.125(3)
H21 H 0.864(4) 0.787(4) 0.244(4)
H22 H 0.814(4) 0.748(3) 0.111(3)
#END
