
#######################################################################
#
#                 Cambridge Crystallographic Data Centre
#                                CCDC
#
#######################################################################
#
# If this CIF has been generated from an entry in the Cambridge
# Structural Database, then it will include bibliographic, chemical,
# crystal, experimental, refinement or atomic coordinate data resulting
# from the CCDC's data processing and validation procedures.
#
#######################################################################

data_CSD_CIF_WIKZAR
_audit_creation_date 1995-04-20
_audit_creation_method CSD-ConQuest-V1
_database_code_CSD WIKZAR
_chemical_formula_sum 'C16 H22 N2 O4'
_chemical_formula_moiety
;
C16 H22 N2 O4
;
_journal_coeditor_code "IUCr SH0046"
_journal_coden_Cambridge 622
_journal_volume 50
_journal_year 1994
_journal_page_first 730
_journal_name_full 'Acta Crystallogr.,Sect.B:Struct.Sci. '
loop_
_publ_author_name
"D.J.A.De Ridder"
"J.Fraanje"
"K.Goubitz"
"H.Schenk"
_chemical_name_systematic
;
1,1,2,4,4,7-Hexamethyl-6,8-dinitrotetralin
;
_cell_volume   1612.417
_exptl_crystal_density_diffrn 1.26
_exptl_special_details
;
may have pre-emergence herbicidal activity

;
_diffrn_ambient_temperature 234
#These two values have been output from a single CSD field.
_refine_ls_R_factor_gt 0.078
_refine_ls_wR_factor_gt 0.078
_symmetry_cell_setting triclinic
_symmetry_space_group_name_H-M 'P -1'
_symmetry_Int_Tables_number 2
loop_
_symmetry_equiv_pos_site_id
_symmetry_equiv_pos_as_xyz
1 x,y,z
2 -x,-y,-z
_cell_length_a 8.2352(14)
_cell_length_b 13.0225(7)
_cell_length_c 15.4669(13)
_cell_angle_alpha 99.856(8)
_cell_angle_beta 94.886(10)
_cell_angle_gamma 97.018(9)
_cell_formula_units_Z 4
loop_
_atom_type_symbol
_atom_type_radius_bond
C 0.68
H 0.23
N 0.68
O 0.68
loop_
_atom_site_label
_atom_site_type_symbol
_atom_site_fract_x
_atom_site_fract_y
_atom_site_fract_z
C1 C 0.3772(4) 0.8753(3) 0.7104(2)
C2 C 0.4189(7) 0.9829(4) 0.7709(3)
C3 C 0.4799(7) 1.0700(4) 0.7353(4)
C4 C 0.6244(4) 1.0621(3) 0.6817(2)
C5 C 0.7435(4) 0.9328(3) 0.5781(2)
C6 C 0.7561(4) 0.8350(3) 0.5322(2)
C7 C 0.6482(4) 0.7459(3) 0.5371(2)
C8 C 0.5313(4) 0.7654(2) 0.5951(2)
C9 C 0.5121(4) 0.8622(2) 0.6467(2)
C10 C 0.6239(4) 0.9489(2) 0.6353(2)
C11 C 0.3728(9) 0.7922(5) 0.7691(4)
C12 C 0.2109(6) 0.8669(7) 0.6554(4)
C13 C 0.285(1) 1.0092(5) 0.8338(5)
C14 C 0.7881(5) 1.1016(3) 0.7392(3)
C15 C 0.6090(8) 1.1337(4) 0.6127(4)
C16 C 0.6489(6) 0.6389(3) 0.4799(3)
N1 N 0.8875(4) 0.8281(3) 0.4737(2)
N2 N 0.4188(5) 0.6677(2) 0.5972(2)
O1 O 0.9114(4) 0.8982(3) 0.4306(2)
O2 O 0.9670(4) 0.7540(3) 0.4723(2)
O3 O 0.2913(4) 0.6497(3) 0.5482(2)
O4 O 0.4668(5) 0.6077(2) 0.6434(2)
H1 H 0.52500 0.97300 0.81700
H2 H 0.833(4) 0.995(2) 0.572(2)
H3 H 0.37600 1.08500 0.69000
H4 H 0.51100 1.13800 0.78700
H5 H 0.489(6) 0.805(7) 0.808(5)
H6 H 0.315(7) 0.820(5) 0.825(3)
H7 H 0.33(1) 0.711(4) 0.736(7)
H8 H 0.120(6) 0.859(5) 0.702(3)
H9 H 0.23(2) 0.939(6) 0.629(8)
H10 H 0.177(8) 0.789(3) 0.620(4)
H11 H 0.20(1) 1.045(8) 0.794(6)
H12 H 0.283(9) 0.949(4) 0.873(4)
H13 H 0.337(7) 1.079(3) 0.877(3)
H14 H 0.786(5) 1.179(2) 0.774(2)
H15 H 0.792(7) 1.051(4) 0.786(3)
H16 H 0.889(5) 1.099(4) 0.700(3)
H17 H 0.512(6) 1.108(5) 0.561(3)
H18 H 0.598(6) 1.208(3) 0.651(3)
H19 H 0.70(2) 1.15(1) 0.567(9)
H20 H 0.690(7) 0.650(4) 0.420(2)
H21 H 0.743(5) 0.600(4) 0.506(3)
H22 H 0.531(5) 0.590(5) 0.473(4)
C17 C 0.2278(4) 0.4875(3) 0.8719(2)
C18 C 0.1629(11) 0.4018(5) 0.7935(5)
C19 C 0.0425(7) 0.3980(4) 0.7378(4)
C20 C -0.0560(4) 0.4874(3) 0.7281(2)
C21 C -0.0913(4) 0.6637(3) 0.8105(2)
C22 C -0.0564(4) 0.7484(3) 0.8784(2)
C23 C 0.0707(4) 0.7580(3) 0.9448(2)
C24 C 0.1591(4) 0.6725(3) 0.9375(2)
C25 C 0.1277(4) 0.5806(2) 0.8713(2)
C26 C -0.0037(4) 0.5786(3) 0.8065(2)
C27 C 0.2073(8) 0.4405(5) 0.9540(4)
C28 C 0.4101(7) 0.5231(5) 0.8676(6)
C29 C 0.2601(13) 0.3060(6) 0.7807(5)
C30 C -0.2384(5) 0.4456(4) 0.7263(3)
C31 C -0.0292(8) 0.5252(2) 0.6429(3)
C32 C 0.1137(7) 0.8534(3) 1.0184(3)
N3 N -0.1591(5) 0.8333(3) 0.8766(3)
N4 N 0.2972(4) 0.6882(3) 1.0084(2)
O5 O -0.1859(5) 0.8610(3) 0.8056(3)
O6 O -0.2122(5) 0.8701(3) 0.9442(3)
O7 O 0.4284(4) 0.7321(4) 0.9952(2)
O8 O 0.2705(5) 0.6636(3) 1.0780(2)
H23 H 0.24900 0.44100 0.75000
H24 H -0.182(4) 0.663(3) 0.760(2)
H25 H -0.04500 0.33500 0.75200
H26 H 0.08200 0.37300 0.67200
H27 H 0.262(5) 0.370(3) 0.951(3)
H28 H 0.077(4) 0.414(8) 0.945(7)
H29 H 0.229(9) 0.495(4) 1.014(3)
H30 H 0.43(1) 0.600(4) 0.853(6)
H31 H 0.470(6) 0.456(3) 0.858(4)
H32 H 0.43(2) 0.55(1) 0.938(2)
H33 H 0.203(4) 0.276(3) 0.829(2)
H34 H 0.373(9) 0.31(1) 0.824(7)
H35 H 0.21(1) 0.260(8) 0.716(4)
H36 H -0.248(7) 0.417(4) 0.788(2)
H37 H -0.274(5) 0.385(3) 0.671(2)
H38 H -0.311(5) 0.507(3) 0.716(3)
H39 H -0.063(6) 0.465(3) 0.587(2)
H40 H 0.095(4) 0.558(5) 0.645(4)
H41 H -0.077(6) 0.593(3) 0.633(3)
H42 H 0.039(6) 0.846(4) 1.070(3)
H43 H 0.098(7) 0.925(3) 0.997(3)
H44 H 0.240(4) 0.858(4) 1.040(3)
#END
