
#######################################################################
#
#                 Cambridge Crystallographic Data Centre
#                                CCDC
#
#######################################################################
#
# If this CIF has been generated from an entry in the Cambridge
# Structural Database, then it will include bibliographic, chemical,
# crystal, experimental, refinement or atomic coordinate data resulting
# from the CCDC's data processing and validation procedures.
#
#######################################################################

data_CSD_CIF_WIKZUL
_audit_creation_date 1995-04-20
_audit_creation_method CSD-ConQuest-V1
_database_code_CSD WIKZUL
_database_code_depnum_ccdc_archive 'CCDC 1293807'
_chemical_formula_sum 'C3 H3 N3 O2'
_chemical_formula_moiety
;
C3 H3 N3 O2
;
_journal_coeditor_code "IUCr HE0089"
_journal_coden_Cambridge 622
_journal_volume 50
_journal_year 1994
_journal_page_first 746
_journal_name_full 'Acta Crystallogr.,Sect.B:Struct.Sci. '
loop_
_publ_author_name
"A.L.Llamas-Saiz"
"C.Foces-Foces"
"F.H.Cano"
"P.Jimenez"
"J.Laynez"
"W.Meutermans"
"J.Elguero"
"H.-H.Limbach"
"F.Aquilar-Parrilla"
_chemical_name_systematic
;
4-Nitropyrazole
;
_cell_volume    749.807
_exptl_crystal_colour 'colorless'
_exptl_crystal_density_diffrn 1.503
_diffrn_ambient_temperature ?
_diffrn_special_details
;
The study was carried out at room temperature,in the range 283-303K

;
_refine_special_details
;
The hydrogen atom is disordered over N1 and N2.

;
#These two values have been output from a single CSD field.
_refine_ls_R_factor_gt 0.063
_refine_ls_wR_factor_gt 0.063
_symmetry_cell_setting triclinic
_symmetry_space_group_name_H-M 'P -1'
_symmetry_Int_Tables_number 2
loop_
_symmetry_equiv_pos_site_id
_symmetry_equiv_pos_as_xyz
1 x,y,z
2 -x,-y,-z
_cell_length_a 9.8831(7)
_cell_length_b 9.6688(7)
_cell_length_c 8.3417(4)
_cell_angle_alpha 81.139(4)
_cell_angle_beta 100.076(4)
_cell_angle_gamma 105.966(6)
_cell_formula_units_Z 6
loop_
_atom_type_symbol
_atom_type_radius_bond
C 0.68
H 0.23
N 0.68
O 0.68
loop_
_atom_site_label
_atom_site_type_symbol
_atom_site_fract_x
_atom_site_fract_y
_atom_site_fract_z
N1 N 0.0375(3) 0.3279(3) -0.0574(4)
N2 N 0.1002(3) 0.4612(3) -0.1237(3)
C1 C 0.0139(3) 0.5006(3) -0.2498(4)
C2 C -0.1074(3) 0.3895(3) -0.2653(3)
C3 C -0.0887(3) 0.2832(3) -0.1425(4)
N3 N -0.2303(3) 0.3848(4) -0.3837(4)
O1 O -0.3288(3) 0.2741(4) -0.3770(4)
O2 O -0.2322(4) 0.4897(5) -0.4850(4)
H1 H 0.072(8) 0.272(9) 0.046(12)
H2 H 0.035(4) 0.580(5) -0.310(5)
H3 H -0.143(5) 0.196(5) -0.118(5)
N4 N 0.3096(3) 0.2559(3) 0.2909(3)
N5 N 0.1740(3) 0.1941(3) 0.2316(3)
C4 C 0.1318(3) 0.0688(3) 0.3199(4)
C5 C 0.2420(3) 0.0490(3) 0.4374(3)
C6 C 0.3532(3) 0.1702(3) 0.4151(4)
N6 N 0.2441(4) -0.0686(3) 0.5593(4)
O3 O 0.3543(4) -0.0673(4) 0.6540(4)
O4 O 0.1340(4) -0.1671(3) 0.5638(4)
H4 H 0.368(10) 0.342(11) 0.27(1)
H5 H 0.042(5) 0.015(5) 0.296(5)
H6 H 0.438(4) 0.197(4) 0.465(4)
N7 N 0.3742(3) 0.6109(3) 0.0312(3)
N8 N 0.4432(3) 0.5436(3) 0.1582(3)
C7 C 0.5695(3) 0.6305(3) 0.2011(4)
C8 C 0.5803(3) 0.7566(3) 0.0968(4)
C9 C 0.4547(3) 0.7403(3) -0.0085(4)
N9 N 0.6989(3) 0.8796(3) 0.0952(4)
O5 O 0.6886(4) 0.9823(3) -0.0079(5)
O6 O 0.8028(3) 0.8753(4) 0.1975(5)
H7 H 0.288(11) 0.574(9) -0.032(10)
H8 H 0.635(4) 0.603(4) 0.290(5)
H9 H 0.427(4) 0.804(4) -0.099(5)
H10? H 0.186(10) 0.511(9) -0.074(9)
H11? H 0.142(7) 0.234(8) 0.164(11)
H12? H 0.421(7) 0.471(10) 0.199(9)
#END
