
#######################################################################
#
#                 Cambridge Crystallographic Data Centre
#                                CCDC
#
#######################################################################
#
# If this CIF has been generated from an entry in the Cambridge
# Structural Database, then it will include bibliographic, chemical,
# crystal, experimental, refinement or atomic coordinate data resulting
# from the CCDC's data processing and validation procedures.
#
#######################################################################

data_CSD_CIF_WIMDAX
_audit_creation_date 1995-10-19
_audit_creation_method CSD-ConQuest-V1
_database_code_CSD WIMDAX
_chemical_formula_sum 'C44 H54 N2 O14'
_chemical_formula_moiety
;
C44 H54 N2 O14
;
_journal_coden_Cambridge 632
_journal_volume 16
_journal_year 1993
_journal_page_first 189
_journal_name_full 'J.Inclusion Phenom.Mol.Recog.Chem. '
loop_
_publ_author_name
"P.Timmerman"
"S.Harkema"
"G.J.van Hummel"
"W.Verboom"
"D.N.Reinhoudt"
_chemical_name_systematic
;
25,26,27,28-tetrakis(2-Ethoxyethoxy)-28-hydroxy-4,6-dinitropentacyclo(19.3.1.1
^3,7^.1^9,13^.1^15,19^)octacosa-1(25),3,6,9,11,13(27),15,17,19(26),21,23-undec
aene-5-one
;
_chemical_melting_point 420.15
_cell_volume   4231.628
_exptl_crystal_colour 'dark red'
_exptl_crystal_density_diffrn 1.311
_exptl_special_details
;
Melting point range 420.15-422.15K
Space group is P21/c not P21/n

;
_diffrn_ambient_temperature ?
_diffrn_special_details
;
The study was carried out at room temperature,in the range 283-303K

;
_refine_special_details
;
The terminal atoms O314-C316 of one of the ethoxyethyl side chains are 
disordered.
;
#These two values have been output from a single CSD field.
_refine_ls_R_factor_gt 0.069
_refine_ls_wR_factor_gt 0.069
_symmetry_cell_setting monoclinic
_symmetry_space_group_name_H-M 'P 21/c'
_symmetry_Int_Tables_number 14
loop_
_symmetry_equiv_pos_site_id
_symmetry_equiv_pos_as_xyz
1 x,y,z
2 -x,1/2+y,1/2-z
3 -x,-y,-z
4 x,-1/2-y,-1/2+z
_cell_length_a 14.946(2)
_cell_length_b 12.681(2)
_cell_length_c 23.304(3)
_cell_angle_alpha 90
_cell_angle_beta 106.65(2)
_cell_angle_gamma 90
_cell_formula_units_Z 4
loop_
_atom_type_symbol
_atom_type_radius_bond
C 0.68
H 0.23
N 0.68
O 0.68
loop_
_atom_site_label
_atom_site_type_symbol
_atom_site_fract_x
_atom_site_fract_y
_atom_site_fract_z
O1 O 0.6638(2) 0.2296(2) 0.3453(1)
O2 O 0.5511(2) 0.2436(3) 0.4237(1)
O3 O 0.8680(2) 0.3735(3) 0.3954(1)
O4 O 0.8129(2) 0.3442(3) 0.5071(1)
O5 O 0.9760(2) 0.3492(3) 0.4893(1)
O6 O 0.9853(3) -0.0155(3) 0.4012(2)
O7 O 1.0896(3) 0.0121(3) 0.4861(2)
O8 O 1.1905(2) 0.1604(3) 0.4425(2)
O9 O 1.2456(3) 0.4162(4) 0.4519(2)
O10 O 1.2186(2) 0.3438(4) 0.3659(2)
O11 O 0.8584(2) 0.6089(3) 0.3344(2)
O12 O 0.7472(3) 0.7547(4) 0.3703(2)
O13 O 0.6747(2) 0.4602(3) 0.2691(1)
O14 O 0.4785(2) 0.4761(3) 0.2776(2)
N1 N 1.0344(3) 0.0429(4) 0.4394(2)
N2 N 1.1977(3) 0.3651(4) 0.4115(2)
C1 C 0.5906(3) 0.2721(4) 0.2194(2)
C2 C 0.8510(3) 0.1599(4) 0.4021(2)
C3 C 1.0231(3) 0.4907(4) 0.3867(2)
C4 C 0.7577(4) 0.6080(4) 0.2076(3)
C5 C 0.6837(3) 0.2191(4) 0.2476(2)
C6 C 0.7189(3) 0.2038(4) 0.3089(2)
C7 C 0.8102(3) 0.1673(4) 0.3345(2)
C8 C 0.8621(3) 0.1381(4) 0.2965(2)
C9 C 0.8267(3) 0.1463(4) 0.2354(2)
C10 C 0.7385(3) 0.1886(4) 0.2113(2)
C11 C 0.9467(3) 0.2096(4) 0.4187(2)
C12 C 0.9525(3) 0.3296(4) 0.4268(2)
C13 C 1.0340(3) 0.3791(4) 0.4098(2)
C14 C 1.1100(3) 0.3217(4) 0.4187(2)
C15 C 1.1175(3) 0.2087(4) 0.4336(2)
C16 C 1.0277(3) 0.1582(4) 0.4306(2)
C17 C 0.9757(3) 0.4921(4) 0.3197(2)
C18 C 0.8958(3) 0.5535(4) 0.2958(3)
C19 C 0.8502(3) 0.5533(4) 0.2343(2)
C20 C 0.8896(3) 0.4953(5) 0.1982(2)
C21 C 0.9686(4) 0.4365(5) 0.2205(2)
C22 C 1.0103(3) 0.4332(4) 0.2814(2)
C23 C 0.6876(3) 0.5274(4) 0.1757(2)
C24 C 0.6532(3) 0.4516(4) 0.2076(2)
C25 C 0.6063(3) 0.3622(4) 0.1812(2)
C26 C 0.5835(3) 0.3552(5) 0.1191(2)
C27 C 0.6100(3) 0.4325(5) 0.0845(2)
C28 C 0.6632(3) 0.5163(5) 0.1137(3)
C29 C 0.6206(3) 0.1392(4) 0.3625(2)
C30 C 0.5355(3) 0.1672(4) 0.3779(2)
C31 C 0.4742(3) 0.2612(5) 0.4455(2)
C32 C 0.4902(4) 0.3578(5) 0.4833(2)
C33 C 0.8227(3) 0.4483(4) 0.4239(2)
C34 C 0.7591(3) 0.3990(5) 0.4548(2)
C35 C 0.7593(3) 0.2838(5) 0.5377(2)
C36 C 0.8253(4) 0.2204(5) 0.5848(2)
C37 C 0.8825(4) 0.7177(5) 0.3430(4)
C38 C 0.8399(5) 0.7613(6) 0.3912(4)
C39 C 0.6841(7) 0.7717(7) 0.4152(3)
C40 C 0.6698(6) 0.8724(7) 0.4197(4)
C41 C 0.6303(3) 0.5458(4) 0.2910(2)
C42 C 0.5617(3) 0.5066(5) 0.3210(2)
C43 C 0.4093(4) 0.4410(5) 0.3039(2)
C44 C 0.3255(4) 0.4077(5) 0.2555(3)
H1 H 0.56657 0.29838 0.25023
H2 H 0.54755 0.22330 0.19547
H3 H 0.85543 0.08822 0.41439
H4 H 0.81229 0.19718 0.42114
H5 H 1.08321 0.52189 0.39436
H6 H 0.98668 0.52978 0.40654
H7 H 0.76430 0.66119 0.18043
H8 H 0.73728 0.63908 0.23881
H9 H 0.92369 0.11186 0.31274
H10 H 0.86210 0.12386 0.20966
H11 H 0.71560 0.19697 0.16910
H12 H 0.86116 0.49562 0.15611
H13 H 0.99553 0.39873 0.19434
H14 H 1.06329 0.38931 0.29666
H15 H 0.54924 0.29612 0.09921
H16 H 0.59226 0.42725 0.04203
H17 H 0.68374 0.56699 0.09019
H18 H 0.66291 0.10783 0.39664
H19 H 0.60624 0.09031 0.33029
H20 H 0.49198 0.19492 0.34306
H21 H 0.51002 0.10596 0.39073
H22 H 0.46672 0.20234 0.46890
H23 H 0.41946 0.26972 0.41282
H24 H 0.43863 0.37024 0.49857
H25 H 0.54521 0.34880 0.51575
H26 H 0.49795 0.41618 0.45967
H27 H 0.78866 0.49634 0.39438
H28 H 0.86945 0.48555 0.45319
H29 H 0.71939 0.35075 0.42810
H30 H 0.72233 0.45160 0.46631
H31 H 0.71799 0.23797 0.51024
H32 H 0.72439 0.32976 0.55527
H33 H 0.79244 0.17910 0.60614
H34 H 0.86657 0.26708 0.61169
H35 H 0.86018 0.17528 0.56666
H36 H 0.91861 0.32444 0.50660
H37 H 0.85584 0.75525 0.30685
H38 H 0.94840 0.72591 0.35455
H39 H 0.85870 0.83234 0.40058
H40 H 0.86116 0.71901 0.42610
H41 H 0.59764 0.58819 0.25798
H42 H 0.67677 0.58712 0.31800
H43 H 0.58781 0.44689 0.34457
H44 H 0.54827 0.55964 0.34615
H45 H 0.43236 0.38365 0.33018
H46 H 0.39264 0.49737 0.32561
H47 H 0.34309 0.35176 0.23390
H48 H 0.27755 0.38432 0.27183
H49 H 0.30336 0.46548 0.22933
#END
