
#######################################################################
#
#                 Cambridge Crystallographic Data Centre
#                                CCDC
#
#######################################################################
#
# If this CIF has been generated from an entry in the Cambridge
# Structural Database, then it will include bibliographic, chemical,
# crystal, experimental, refinement or atomic coordinate data resulting
# from the CCDC's data processing and validation procedures.
#
#######################################################################

data_CSD_CIF_WIMDEB
_audit_creation_date 1995-10-19
_audit_creation_method CSD-ConQuest-V1
_database_code_CSD WIMDEB
_chemical_formula_sum 'C16 H16 N2 O4'
_chemical_formula_moiety
;
C16 H16 N2 O4
;
_journal_coden_Cambridge 632
_journal_volume 16
_journal_year 1993
_journal_page_first 209
_journal_name_full 'J.Inclusion Phenom.Mol.Recog.Chem. '
loop_
_publ_author_name
"J.F.Biernat"
"A.Cygan"
"E.Luboch"
"Yu.A.Simonov"
"A.A.Dvorkin"
_chemical_name_systematic
;
Dibenzo(h,l)-1,4,7-trioxa-10,11-diazacyclotridec-10-ene-11-oxide
;
_chemical_melting_point 391.15
_cell_volume   2974.523
_exptl_crystal_colour 'slightly yellow'
_exptl_crystal_density_diffrn 1.34
_exptl_special_details
;
Melting point range 391.15-393.15K

;
_diffrn_ambient_temperature ?
_diffrn_special_details
;
The study was carried out at room temperature,in the range 283-303K

;
#These two values have been output from a single CSD field.
_refine_ls_R_factor_gt 0.0687
_refine_ls_wR_factor_gt 0.0687
_symmetry_cell_setting orthorhombic
_symmetry_space_group_name_H-M 'P 21 21 21'
_symmetry_Int_Tables_number 19
loop_
_symmetry_equiv_pos_site_id
_symmetry_equiv_pos_as_xyz
1 x,y,z
2 1/2-x,-y,1/2+z
3 1/2+x,1/2-y,-z
4 -x,1/2+y,1/2-z
_cell_length_a 20.340(2)
_cell_length_b 17.449(5)
_cell_length_c 8.381(2)
_cell_angle_alpha 90
_cell_angle_beta 90
_cell_angle_gamma 90
_cell_formula_units_Z 8
loop_
_atom_type_symbol
_atom_type_radius_bond
C 0.68
H 0.23
N 0.68
O 0.68
loop_
_atom_site_label
_atom_site_type_symbol
_atom_site_fract_x
_atom_site_fract_y
_atom_site_fract_z
O1 O 0.3472(7) -0.4353(9) 0.3586(24)
O2 O 0.3554(5) -0.3696(5) 0.6999(10)
C1 C 0.3451(7) -0.3496(7) 0.8556(17)
C2 C 0.3096(7) -0.4132(10) 0.9335(17)
O3 O 0.3457(4) -0.4828(5) 0.9409(11)
C3 C 0.3169(6) -0.5474(8) 0.8845(19)
C4 C 0.3643(8) -0.6108(8) 0.8602(16)
O4 O 0.4063(5) -0.5920(6) 0.7307(9)
C5 C 0.3824(6) -0.6142(8) 0.5844(13)
C6 C 0.3886(6) -0.5641(8) 0.4556(13)
N1 N 0.4236(9) -0.4920(7) 0.5052(17)
N2 N 0.3977(8) -0.4424(10) 0.4385(18)
C7 C 0.4222(9) -0.3652(7) 0.4779(20)
C8 C 0.3996(9) -0.3301(7) 0.6171(20)
C9 C 0.4222(9) -0.2573(7) 0.6586(20)
C10 C 0.4674(9) -0.2196(7) 0.5609(20)
C11 C 0.4899(9) -0.2547(7) 0.4217(20)
C12 C 0.4674(9) -0.3275(7) 0.3803(20)
C13 C 0.3749(6) -0.5894(8) 0.3013(13)
C14 C 0.3547(6) -0.6649(8) 0.2758(13)
C15 C 0.3486(6) -0.7150(8) 0.4045(13)
C16 C 0.3623(6) -0.6897(8) 0.5588(13)
O5 O 0.2583(5) 0.0039(6) 0.5956(13)
O6 O 0.3660(4) 0.0992(5) 0.7351(9)
C17 C 0.4027(6) 0.1255(7) 0.8693(13)
C18 C 0.3515(6) 0.1467(7) 0.9867(12)
O7 O 0.3163(4) 0.2106(4) 0.9334(10)
C19 C 0.2505(7) 0.2085(10) 0.9707(15)
C20 C 0.208(7) 0.1738(12) 0.8545(17)
O8 O 0.2186(4) 0.1945(6) 0.7036(10)
C21 C 0.1723(7) 0.1643(7) 0.6027(13)
C22 C 0.1942(7) 0.1164(7) 0.4806(13)
N3 N 0.2648(6) 0.1083(7) 0.4460(15)
N4 N 0.2858(7) 0.0543(8) 0.5145(16)
C23 C 0.3589(4) 0.0499(7) 0.4802(20)
C24 C 0.3995(4) 0.0697(7) 0.608(2)
C25 C 0.4672(4) 0.0577(7) 0.5981(20)
C26 C 0.4943(4) 0.0259(7) 0.4603(20)
C27 C 0.4538(4) 0.0061(7) 0.3325(20)
C28 C 0.3861(4) 0.0181(7) 0.3424(20)
C29 C 0.1490(7) 0.0823(7) 0.3775(13)
C30 C 0.0819(7) 0.0961(7) 0.3965(13)
C31 C 0.0600(7) 0.1441(7) 0.5186(13)
C32 C 0.1052(7) 0.1782(7) 0.6217(13)
H1 H 0.38800 -0.34100 0.91000
H2 H 0.31800 -0.30200 0.86100
H3 H 0.29800 -0.39700 1.04500
H4 H 0.26800 -0.42300 0.87300
H5 H 0.28200 -0.56400 0.96200
H6 H 0.29500 -0.53500 0.78000
H7 H 0.33900 -0.65900 0.83400
H8 H 0.39000 -0.61900 0.95900
H9 H 0.40500 -0.23000 0.76600
H10 H 0.48500 -0.16300 0.59300
H11 H 0.52500 -0.22600 0.34600
H12 H 0.48500 -0.35500 0.27300
H13 H 0.38000 -0.55100 0.20200
H14 H 0.34400 -0.68400 0.15600
H15 H 0.33300 -0.77300 0.38500
H16 H 0.35700 -0.72800 0.65800
H17 H 0.43100 0.08400 0.91200
H18 H 0.43000 0.17100 0.84000
H19 H 0.32100 0.10300 1.00100
H20 H 0.37300 0.15900 1.09100
H21 H 0.24500 0.18000 1.07300
H22 H 0.23500 0.26200 0.98800
H23 H 0.21400 0.11700 0.86200
H24 H 0.16200 0.18700 0.88300
H25 H 0.49900 0.07300 0.69700
H26 H 0.54700 0.01700 0.45300
H27 H 0.47500 -0.01800 0.22600
H28 H 0.35500 0.00300 0.24300
H29 H 0.16600 0.04500 0.28300
H30 H 0.04700 0.07000 0.31700
H31 H 0.00800 0.15500 0.53300
H32 H 0.08800 0.21500 0.71600
#END
