
#######################################################################
#
#                 Cambridge Crystallographic Data Centre
#                                CCDC
#
#######################################################################
#
# If this CIF has been generated from an entry in the Cambridge
# Structural Database, then it will include bibliographic, chemical,
# crystal, experimental, refinement or atomic coordinate data resulting
# from the CCDC's data processing and validation procedures.
#
#######################################################################

data_CSD_CIF_WIMTIX
_audit_creation_date 2013-10-18
_audit_creation_method CSD-ConQuest-V1
_database_code_CSD WIMTIX
_database_code_depnum_ccdc_archive 'CCDC 923595'
_chemical_formula_sum 'C17 H18 N2 O2'
_chemical_formula_moiety
;
C17 H18 N2 O2
;
_journal_coden_Cambridge 16
_journal_volume 69
_journal_year 2013
_journal_page_first 7995
_journal_name_full 'Tetrahedron '
loop_
_publ_author_name
"D.Basavaiah"
"S.S.Badsara"
"G.Veeraraghavaiah"
_chemical_name_systematic
;
1-Ethyl-2',5',6',7'-tetrahydro-3,3'-spirobi[indol]-2(1H)-one-1'-oxide
;
_chemical_melting_point 435
_cell_volume    732.227
_exptl_crystal_colour 'colorless'
_exptl_crystal_density_diffrn 1.281
_exptl_crystal_description 'Block'
_diffrn_ambient_temperature 298
#These two values have been output from a single CSD field.
_refine_ls_R_factor_gt 0.0493
_refine_ls_wR_factor_gt 0.0493
_symmetry_cell_setting triclinic
_symmetry_space_group_name_H-M 'P -1'
_symmetry_Int_Tables_number 2
loop_
_symmetry_equiv_pos_site_id
_symmetry_equiv_pos_as_xyz
1 x,y,z
2 -x,-y,-z
_cell_length_a 8.4050(6)
_cell_length_b 8.7609(6)
_cell_length_c 11.2366(8)
_cell_angle_alpha 92.597(1)
_cell_angle_beta 109.077(1)
_cell_angle_gamma 108.307(1)
_cell_formula_units_Z 2
loop_
_atom_type_symbol
_atom_type_radius_bond
C 0.68
H 0.23
N 0.68
O 0.68
loop_
_atom_site_label
_atom_site_type_symbol
_atom_site_fract_x
_atom_site_fract_y
_atom_site_fract_z
C1 C 0.6186(2) 0.72820(19) 0.20160(16)
C2 C 0.42756(19) 0.72014(18) 0.18732(15)
C3 C 0.3003(2) 0.9560(2) 0.13344(16)
H1 H 0.18290 0.89340 0.12250
C4 C 0.3454(3) 1.1198(2) 0.12165(17)
H2 H 0.25800 1.16800 0.10380
C5 C 0.5196(3) 1.2113(2) 0.13634(17)
H3 H 0.54780 1.32100 0.12870
C6 C 0.6531(2) 1.1439(2) 0.16207(16)
H4 H 0.76990 1.20580 0.17070
C7 C 0.6066(2) 0.98136(18) 0.17451(14)
C8 C 0.4322(2) 0.88804(18) 0.16154(14)
C9 C 0.3933(2) 0.68706(19) 0.31097(16)
C10 C 0.4740(3) 0.7767(3) 0.42647(19)
H5 H 0.56930 0.87370 0.44090
C11 C 0.4131(4) 0.7231(3) 0.5345(2)
H6 H 0.50280 0.68780 0.59340
H7 H 0.40660 0.81620 0.58020
C12 C 0.2422(5) 0.5936(5) 0.4961(3)
H8 H 0.15260 0.64470 0.48620
H9 H 0.24350 0.53530 0.56750
C13 C 0.1757(4) 0.4714(3) 0.3829(3)
H10 H 0.04560 0.43430 0.34830
H11 H 0.21090 0.37830 0.40640
C14 C 0.2470(2) 0.5370(2) 0.28360(18)
C15 C 0.2822(2) 0.57267(19) 0.08929(16)
H12 H 0.20080 0.60780 0.02270
H13 H 0.33630 0.51200 0.05040
C16 C 0.9007(2) 0.9334(2) 0.20598(18)
H14 H 0.92380 1.02350 0.15940
H15 H 0.91840 0.84350 0.16500
C17 C 1.0321(3) 0.9843(4) 0.3402(2)
H16 H 1.01390 1.07210 0.38180
H17 H 1.15210 1.01990 0.33960
H18 H 1.01470 0.89370 0.38530
N1 N 0.71451(17) 0.88349(16) 0.19883(13)
N2 N 0.18630(17) 0.47214(15) 0.16363(15)
O1 O 0.05632(16) 0.33704(14) 0.10686(14)
O2 O 0.67432(18) 0.61522(16) 0.21311(16)
#END
