
#######################################################################
#
#                 Cambridge Crystallographic Data Centre
#                                CCDC
#
#######################################################################
#
# If this CIF has been generated from an entry in the Cambridge
# Structural Database, then it will include bibliographic, chemical,
# crystal, experimental, refinement or atomic coordinate data resulting
# from the CCDC's data processing and validation procedures.
#
#######################################################################

data_CSD_CIF_WINCAZ
_audit_creation_date 2013-10-18
_audit_creation_method CSD-ConQuest-V1
_database_code_CSD WINCAZ
_database_code_depnum_ccdc_archive 'CCDC 917553'
_chemical_formula_sum 'C23 H24 N2 O1'
_chemical_formula_moiety
;
C23 H24 N2 O1
;
_journal_coden_Cambridge 1037
_journal_volume 14
_journal_year 2013
_journal_page_first 272-4
_journal_name_full 'ARKIVOC '
loop_
_publ_author_name
"A.I.Taratayko"
"C.S.Becker"
"I.A.Grigorev"
"Y.V.Gatilov"
"T.V.Rybalova"
"V.A.Reznikov"
_chemical_name_systematic
;
3-[(E)-2-(3,3-Dimethyl-1-oxido-3,4-dihydro-2H-pyrrol-5-yl)vinyl]-1-methyl-2-ph
enyl-1H-indole
;
_chemical_melting_point 486
_cell_volume   3813.639
_exptl_crystal_colour 'yellow'
_exptl_crystal_density_diffrn 1.2
_exptl_crystal_description 'pyramid'
_diffrn_ambient_temperature 296
#These two values have been output from a single CSD field.
_refine_ls_R_factor_gt 0.0494
_refine_ls_wR_factor_gt 0.0494
_symmetry_cell_setting orthorhombic
_symmetry_space_group_name_H-M 'P b c a'
_symmetry_Int_Tables_number 61
loop_
_symmetry_equiv_pos_site_id
_symmetry_equiv_pos_as_xyz
1 x,y,z
2 1/2+x,1/2-y,-z
3 -x,1/2+y,1/2-z
4 1/2-x,-y,1/2+z
5 -x,-y,-z
6 -1/2-x,-1/2+y,z
7 x,-1/2-y,-1/2+z
8 -1/2+x,y,-1/2-z
_cell_length_a 15.4643(6)
_cell_length_b 14.2594(6)
_cell_length_c 17.2945(8)
_cell_angle_alpha 90
_cell_angle_beta 90
_cell_angle_gamma 90
_cell_formula_units_Z 8
loop_
_atom_type_symbol
_atom_type_radius_bond
C 0.68
H 0.23
N 0.68
O 0.68
loop_
_atom_site_label
_atom_site_type_symbol
_atom_site_fract_x
_atom_site_fract_y
_atom_site_fract_z
N1 N 0.04278(8) 0.88687(9) 0.40345(7)
C1 C 0.05405(11) 0.98956(12) 0.40763(11)
H1 H 0.06280 1.00970 0.46060
H2 H 0.00400 1.02170 0.38670
C2 C 0.13431(10) 1.00872(10) 0.35876(9)
C3 C 0.13511(11) 0.92311(11) 0.30334(9)
H3 H 0.10720 0.93830 0.25470
H4 H 0.19380 0.90270 0.29310
C4 C 0.0858(1) 0.84946(10) 0.34582(8)
C5 C 0.21436(11) 1.00829(13) 0.40958(10)
H5 H 0.26480 1.01690 0.37800
H6 H 0.21830 0.94940 0.43620
H7 H 0.21060 1.05830 0.44660
C6 C 0.12743(14) 1.10198(12) 0.31619(11)
H8 H 0.12130 1.15190 0.35300
H9 H 0.07790 1.10090 0.28270
H10 H 0.17870 1.11190 0.28600
C7 C 0.08029(10) 0.75126(10) 0.32949(9)
H11 H 0.04660 0.71430 0.36200
C8 C 0.12064(10) 0.70912(10) 0.27020(8)
H12 H 0.15200 0.74790 0.23730
C9 C 0.12081(9) 0.61032(10) 0.25174(8)
C10 C 0.16386(9) 0.57235(10) 0.18853(8)
N2 N 0.15926(8) 0.47584(8) 0.19136(8)
C11 C 0.11152(10) 0.45011(10) 0.25521(9)
C12 C 0.08585(9) 0.53219(10) 0.29494(9)
C13 C 0.03724(11) 0.52217(12) 0.36259(10)
H13 H 0.01990 0.57470 0.39030
C14 C 0.01534(13) 0.43357(14) 0.38771(12)
H14 H -0.01750 0.42690 0.43240
C15 C 0.04134(14) 0.35422(13) 0.34752(12)
H15 H 0.02590 0.29530 0.36610
C16 C 0.08941(12) 0.36078(12) 0.28091(11)
H16 H 0.10650 0.30750 0.25400
C17 C 0.19221(13) 0.40982(12) 0.13391(10)
H17 H 0.23390 0.36910 0.15770
H18 H 0.21920 0.44380 0.09250
H19 H 0.14520 0.37320 0.11380
C18 C 0.2073(1) 0.62302(10) 0.12494(8)
C19 C 0.29556(11) 0.61388(14) 0.11018(10)
H20 H 0.32870 0.57330 0.14010
C20 C 0.33434(13) 0.66445(16) 0.05153(11)
H21 H 0.39330 0.65790 0.04250
C21 C 0.28673(16) 0.72382(14) 0.00674(11)
H22 H 0.31330 0.75780 -0.03250
C22 C 0.19966(15) 0.73339(13) 0.01963(11)
H23 H 0.16720 0.77360 -0.01120
C23 C 0.15961(12) 0.68331(12) 0.07853(10)
H24 H 0.10050 0.69020 0.08690
O1 O -0.00804(8) 0.84441(9) 0.45149(7)
#END
