
#######################################################################
#
#                 Cambridge Crystallographic Data Centre
#                                CCDC
#
#######################################################################
#
# If this CIF has been generated from an entry in the Cambridge
# Structural Database, then it will include bibliographic, chemical,
# crystal, experimental, refinement or atomic coordinate data resulting
# from the CCDC's data processing and validation procedures.
#
#######################################################################

data_CSD_CIF_WINCIH
_audit_creation_date 2013-10-18
_audit_creation_method CSD-ConQuest-V1
_database_code_CSD WINCIH
_database_code_depnum_ccdc_archive 'CCDC 917552'
_chemical_formula_sum 'C18 H19 N1 O1'
_chemical_formula_moiety
;
C18 H19 N1 O1
;
_journal_coden_Cambridge 1037
_journal_volume 14
_journal_year 2013
_journal_page_first 272-4
_journal_name_full 'ARKIVOC '
loop_
_publ_author_name
"A.I.Taratayko"
"C.S.Becker"
"I.A.Grigorev"
"Y.V.Gatilov"
"T.V.Rybalova"
"V.A.Reznikov"
_chemical_name_systematic
;
3,3-Dimethyl-5-[(E)-2-(1-naphthyl)vinyl]-3,4-dihydro-2H-pyrrole 1-oxide
;
_chemical_melting_point 387
_cell_volume   1450.237
_exptl_crystal_colour 'colorless'
_exptl_crystal_density_diffrn 1.215
_exptl_crystal_description 'plate'
_diffrn_ambient_temperature 200
#These two values have been output from a single CSD field.
_refine_ls_R_factor_gt 0.0314
_refine_ls_wR_factor_gt 0.0314
_symmetry_cell_setting orthorhombic
_symmetry_space_group_name_H-M 'P 21 21 21'
_symmetry_Int_Tables_number 19
loop_
_symmetry_equiv_pos_site_id
_symmetry_equiv_pos_as_xyz
1 x,y,z
2 1/2+x,1/2-y,-z
3 -x,1/2+y,1/2-z
4 1/2-x,-y,1/2+z
_cell_length_a 6.3974(2)
_cell_length_b 11.7839(5)
_cell_length_c 19.2374(8)
_cell_angle_alpha 90
_cell_angle_beta 90
_cell_angle_gamma 90
_cell_formula_units_Z 4
loop_
_atom_type_symbol
_atom_type_radius_bond
C 0.68
H 0.23
N 0.68
O 0.68
loop_
_atom_site_label
_atom_site_type_symbol
_atom_site_fract_x
_atom_site_fract_y
_atom_site_fract_z
N1 N 0.89744(16) 0.05946(9) 0.04345(5)
C1 C 0.8818(2) -0.04836(11) 0.00434(7)
H1 H 0.94770 -0.11130 0.03040
H2 H 0.95010 -0.04170 -0.04170
C2 C 0.6455(2) -0.06796(11) -0.00363(7)
C3 C 0.5567(2) 0.05407(11) 0.00410(7)
H3 H 0.54020 0.09090 -0.04180
H4 H 0.41970 0.05320 0.02810
C4 C 0.71779(19) 0.11357(11) 0.04684(6)
C5 C 0.5902(3) -0.12009(14) -0.07401(8)
H5 H 0.66000 -0.19370 -0.07880
H6 H 0.63650 -0.06940 -0.11130
H7 H 0.43850 -0.13070 -0.07710
C6 C 0.5645(3) -0.14212(14) 0.05592(8)
H8 H 0.41220 -0.14900 0.05250
H9 H 0.60150 -0.10720 0.10050
H10 H 0.62810 -0.21760 0.05290
C7 C 0.6948(2) 0.21473(11) 0.08786(6)
H11 H 0.81770 0.25220 0.10340
C8 C 0.5085(2) 0.25908(10) 0.10544(6)
H12 H 0.38560 0.22460 0.08740
C9 C 0.4857(2) 0.35852(10) 0.15129(6)
C10 C 0.6328(2) 0.44401(11) 0.15032(7)
H13 H 0.74860 0.43790 0.11960
C11 C 0.6165(2) 0.54056(12) 0.19377(8)
H14 H 0.72040 0.59810 0.19220
C12 C 0.4507(2) 0.55040(12) 0.23785(7)
H15 H 0.43940 0.61570 0.26660
C13 C 0.2950(2) 0.46521(11) 0.24170(6)
C14 C 0.1243(2) 0.47443(13) 0.28815(7)
H16 H 0.11060 0.54040 0.31610
C15 C -0.0207(2) 0.39036(15) 0.29342(7)
H17 H -0.13420 0.39790 0.32490
C16 C -0.0023(2) 0.29199(14) 0.25204(8)
H18 H -0.10260 0.23290 0.25650
C17 C 0.1584(2) 0.28070(12) 0.20551(7)
H19 H 0.16740 0.21430 0.17760
C18 C 0.31189(19) 0.36700(11) 0.19842(6)
O1 O 1.07356(14) 0.08892(9) 0.07084(5)
#END
