
#######################################################################
#
#                 Cambridge Crystallographic Data Centre
#                                CCDC
#
#######################################################################
#
# If this CIF has been generated from an entry in the Cambridge
# Structural Database, then it will include bibliographic, chemical,
# crystal, experimental, refinement or atomic coordinate data resulting
# from the CCDC's data processing and validation procedures.
#
#######################################################################

data_CSD_CIF_WINJAF
_audit_creation_date 2008-01-08
_audit_creation_method CSD-ConQuest-V1
_database_code_CSD WINJAF
_database_code_depnum_ccdc_archive 'CCDC 667260'
_chemical_formula_sum 'C12 H7 N5 O8'
_chemical_formula_moiety
;
C12 H7 N5 O8
;
_journal_coeditor_code "IUCr AT2406"
_journal_coden_Cambridge 1370
_journal_volume 63
_journal_year 2007
_journal_page_first o4194
_journal_name_full 'Acta Crystallogr.,Sect.E:Struct.Rep.Online '
loop_
_publ_author_name
"De-Lin Wu"
"Zhao-Li Jia"
"Jie-Ping Shi"
"Guo-Yuan Lu"
_chemical_name_systematic
;
bis(2,4-Dinitrophenyl)amine
;
_chemical_name_common
;
2,2',4,4'-Tetranitrodiphenylamine
;
_chemical_melting_point 472.2
_cell_volume   1400.180
_exptl_crystal_colour 'orange'
_exptl_crystal_density_diffrn 1.657
_exptl_special_details
;
P21/n polymorph

;
_exptl_crystal_description 'block'
_exptl_crystal_preparation 'petroleum ether/ethyl acetate'
_diffrn_ambient_temperature 291
#These two values have been output from a single CSD field.
_refine_ls_R_factor_gt 0.046
_refine_ls_wR_factor_gt 0.046
_symmetry_cell_setting monoclinic
_symmetry_space_group_name_H-M 'P 21/n'
_symmetry_Int_Tables_number 14
loop_
_symmetry_equiv_pos_site_id
_symmetry_equiv_pos_as_xyz
1 x,y,z
2 1/2-x,1/2+y,1/2-z
3 -x,-y,-z
4 -1/2+x,-1/2-y,-1/2+z
_cell_length_a 8.4987(9)
_cell_length_b 14.7982(15)
_cell_length_c 11.1828(12)
_cell_angle_alpha 90
_cell_angle_beta 95.395(1)
_cell_angle_gamma 90
_cell_formula_units_Z 4
loop_
_atom_type_symbol
_atom_type_radius_bond
C 0.68
H 0.23
N 0.68
O 0.68
loop_
_atom_site_label
_atom_site_type_symbol
_atom_site_fract_x
_atom_site_fract_y
_atom_site_fract_z
C1 C 0.24828(18) 0.90522(9) 0.39789(12)
C2 C 0.18191(17) 0.85746(9) 0.48995(12)
C3 C 0.27475(19) 0.81680(9) 0.58238(12)
H1 H 0.22930 0.78420 0.64140
C4 C 0.43599(19) 0.82557(9) 0.58523(13)
C5 C 0.5073(2) 0.87074(10) 0.49629(14)
H2 H 0.61670 0.87500 0.49920
C6 C 0.4129(2) 0.90907(10) 0.40393(14)
H3 H 0.46020 0.93870 0.34320
C7 C 0.19498(17) 0.96538(9) 0.19386(12)
C8 C 0.14268(17) 1.04179(9) 0.12616(12)
C9 C 0.18928(18) 1.05794(10) 0.01239(13)
H4 H 0.15710 1.11000 -0.02970
C10 C 0.28348(18) 0.99575(10) -0.03651(12)
C11 C 0.3306(2) 0.91681(11) 0.02370(14)
H5 H 0.39030 0.87390 -0.01270
C12 C 0.2881(2) 0.90291(10) 0.13758(14)
H6 H 0.32190 0.85070 0.17860
N1 N 0.01119(16) 0.84928(9) 0.49229(11)
N2 N 0.5346(2) 0.78806(11) 0.68694(13)
N3 N 0.03468(16) 1.10760(9) 0.17095(12)
N4 N 0.33458(17) 1.01266(11) -0.15575(12)
N5 N 0.15513(16) 0.95046(9) 0.30872(11)
H7 H 0.06960 0.97370 0.33340
O1 O -0.07352(14) 0.91080(9) 0.45042(11)
O2 O -0.03902(16) 0.78209(9) 0.53913(13)
O3 O 0.4751(2) 0.73510(14) 0.75172(17)
O4 O 0.67277(18) 0.81174(12) 0.70251(14)
O5 O -0.04027(15) 1.08548(9) 0.25453(11)
O6 O 0.0202(2) 1.18043(9) 0.12207(15)
O7 O 0.2970(2) 1.08398(12) -0.20501(13)
O8 O 0.41639(18) 0.95593(10) -0.19853(11)
#END
