
#######################################################################
#
#                 Cambridge Crystallographic Data Centre
#                                CCDC
#
#######################################################################
#
# If this CIF has been generated from an entry in the Cambridge
# Structural Database, then it will include bibliographic, chemical,
# crystal, experimental, refinement or atomic coordinate data resulting
# from the CCDC's data processing and validation procedures.
#
#######################################################################

data_CSD_CIF_WINJAF01
_audit_creation_date 2013-04-03
_audit_creation_method CSD-ConQuest-V1
_database_code_CSD WINJAF01
_database_code_depnum_ccdc_archive 'CCDC 925121'
_chemical_formula_sum 'C12 H7 N5 O8'
_chemical_formula_moiety
;
C12 H7 N5 O8
;
_journal_coeditor_code "IUCr ff2093"
_journal_coden_Cambridge 1370
_journal_volume 69
_journal_year 2013
_journal_page_first o152
_journal_name_full 'Acta Crystallogr.,Sect.E:Struct.Rep.Online '
loop_
_publ_author_name
"Yu.Tokutome"
"T.Okuno"
_chemical_name_systematic
;
N-(2,4-Dinitrophenyl)-2,4-dinitroaniline
;
_cell_volume   1361.930
_exptl_crystal_colour 'yellow'
_exptl_crystal_density_diffrn 1.703
_exptl_special_details
;
P21/c polymorph

;
_exptl_crystal_description 'block'
_exptl_crystal_preparation 'dichloromethane/hexane'
_diffrn_ambient_temperature 93
#These two values have been output from a single CSD field.
_refine_ls_R_factor_gt 0.0379
_refine_ls_wR_factor_gt 0.0379
_symmetry_cell_setting monoclinic
_symmetry_space_group_name_H-M 'P 21/c'
_symmetry_Int_Tables_number 14
loop_
_symmetry_equiv_pos_site_id
_symmetry_equiv_pos_as_xyz
1 x,y,z
2 -x,1/2+y,1/2-z
3 -x,-y,-z
4 x,-1/2-y,-1/2+z
_cell_length_a 12.827(4)
_cell_length_b 7.4997(18)
_cell_length_c 15.486(4)
_cell_angle_alpha 90
_cell_angle_beta 113.906(4)
_cell_angle_gamma 90
_cell_formula_units_Z 4
loop_
_atom_type_symbol
_atom_type_radius_bond
C 0.68
H 0.23
N 0.68
O 0.68
loop_
_atom_site_label
_atom_site_type_symbol
_atom_site_fract_x
_atom_site_fract_y
_atom_site_fract_z
O1 O 0.20047(11) 1.17542(13) 0.26262(8)
O2 O 0.05323(10) 1.20201(15) 0.29618(8)
O3 O -0.01586(9) 0.79244(13) 0.50055(8)
O4 O 0.10386(8) 0.57497(13) 0.56109(7)
O5 O 0.38633(8) 1.06930(12) 0.19345(7)
O6 O 0.51942(9) 0.95498(13) 0.15832(8)
O7 O 0.49908(9) 0.34690(13) 0.05612(8)
O8 O 0.32685(9) 0.24110(14) -0.00794(8)
N1 N 0.13430(11) 1.11698(16) 0.29532(8)
N2 N 0.06502(9) 0.69826(15) 0.50524(8)
N3 N 0.43254(9) 0.94107(14) 0.17261(8)
N4 N 0.39828(10) 0.34574(15) 0.04416(8)
N5 N 0.27075(10) 0.84682(15) 0.25374(8)
C1 C 0.22104(10) 0.81023(17) 0.31590(9)
C2 C 0.15384(11) 0.93838(16) 0.33691(9)
C3 C 0.1012(1) 0.90156(17) 0.39745(9)
C4 C 0.1184(1) 0.73735(17) 0.43976(9)
C5 C 0.18727(11) 0.60873(18) 0.42471(9)
C6 C 0.23805(11) 0.64557(17) 0.36361(9)
C7 C 0.29803(10) 0.72531(16) 0.19943(8)
C8 C 0.37954(10) 0.76573(16) 0.16216(8)
C9 C 0.41439(10) 0.64030(17) 0.11350(9)
C10 C 0.36121(11) 0.47701(17) 0.09526(9)
C11 C 0.27257(11) 0.43627(16) 0.12204(9)
C12 C 0.24341(11) 0.55830(16) 0.17484(9)
H1 H 0.2801(16) 0.952(2) 0.2451(14)
H2 H 0.05440 0.98800 0.40930
H3 H 0.19910 0.49700 0.45610
H4 H 0.28550 0.55830 0.35340
H5 H 0.47340 0.66660 0.09330
H6 H 0.23290 0.32620 0.10420
H7 H 0.18490 0.52930 0.19530
#END
