
#######################################################################
#
#                 Cambridge Crystallographic Data Centre
#                                CCDC
#
#######################################################################
#
# If this CIF has been generated from an entry in the Cambridge
# Structural Database, then it will include bibliographic, chemical,
# crystal, experimental, refinement or atomic coordinate data resulting
# from the CCDC's data processing and validation procedures.
#
#######################################################################

data_CSD_CIF_WINLUA
_audit_creation_date 1995-06-19
_audit_creation_method CSD-ConQuest-V1
_database_code_CSD WINLUA
_chemical_formula_sum 'C12 H16 N2 O2'
_chemical_formula_moiety
;
C12 H16 N2 O2
;
_journal_coeditor_code "IUCr PA1096"
_journal_coden_Cambridge 591
_journal_volume 51
_journal_year 1995
_journal_page_first 432
_journal_name_full 'Acta Crystallogr.,Sect.C:Cryst.Struct.Commun. '
loop_
_publ_author_name
"B.Suchod"
"P.Baldeck"
_chemical_name_systematic
;
N,N-Diethyl-4-(2-nitroethenyl)phenylamine
;
_cell_volume   1212.925
_exptl_crystal_colour 'orange'
_diffrn_ambient_temperature ?
_diffrn_special_details
;
The study was carried out at room temperature,in the range 283-303K

;
_refine_special_details
;
In molecule B one of the ethyl groups is disordered with occupancies of 0.60 
and 0.40 for the two orientations of its methyl entity.
;
#These two values have been output from a single CSD field.
_refine_ls_R_factor_gt 0.079
_refine_ls_wR_factor_gt 0.079
_symmetry_cell_setting triclinic
_symmetry_space_group_name_H-M 'P -1'
_symmetry_Int_Tables_number 2
loop_
_symmetry_equiv_pos_site_id
_symmetry_equiv_pos_as_xyz
1 x,y,z
2 -x,-y,-z
_cell_length_a 10.430(7)
_cell_length_b 11.728(7)
_cell_length_c 12.268(9)
_cell_angle_alpha 108.31(5)
_cell_angle_beta 98.34(5)
_cell_angle_gamma 115.66(5)
_cell_formula_units_Z 4
loop_
_atom_type_symbol
_atom_type_radius_bond
C 0.68
H 0.23
N 0.68
O 0.68
loop_
_atom_site_label
_atom_site_type_symbol
_atom_site_fract_x
_atom_site_fract_y
_atom_site_fract_z
C1 C 0.381(1) 0.141(1) 0.3422(8)
C2 C 0.229(1) 0.098(1) 0.3374(9)
C3 C 0.208(1) 0.185(1) 0.4343(9)
C4 C 0.326(1) 0.304(1) 0.5271(9)
C5 C 0.474(1) 0.347(1) 0.5294(9)
C6 C 0.500(1) 0.264(1) 0.4349(9)
C7 C 0.597(1) 0.475(1) 0.6288(9)
N1 N 0.1133(8) -0.0191(9) 0.2432(8)
C8 C 0.138(1) -0.112(1) 0.146(1)
C9 C -0.042(1) -0.054(1) 0.2261(9)
C10 C 0.169(1) -0.062(1) 0.050(1)
C11 C -0.122(1) -0.148(1) 0.283(1)
C12 C 0.742(1) 0.527(1) 0.6439(9)
N2 N 0.854(1) 0.656(1) 0.7454(9)
O1 O 0.9838(9) 0.7000(8) 0.7487(7)
O2 O 0.8145(9) 0.7182(8) 0.8214(8)
C13 C 0.580(1) -0.047(1) 0.1543(8)
C14 C 0.469(1) -0.172(1) 0.1544(9)
C15 C 0.471(1) -0.176(1) 0.268(1)
C16 C 0.578(1) -0.065(1) 0.3746(9)
C17 C 0.686(1) 0.058(1) 0.3743(9)
C18 C 0.682(1) 0.063(1) 0.259(1)
C19 C 0.797(1) 0.172(1) 0.491(1)
N3 N 0.363(1) -0.2833(9) 0.0471(8)
C20 C 0.359(1) -0.281(1) -0.072(1)
C21 C 0.465(2) -0.319(1) -0.122(1)
C22 C 0.908(1) 0.287(1) 0.503(1)
N4 N 1.014(1) 0.393(1) 0.624(1)
O3 O 1.126(1) 0.493(1) 0.6241(8)
O4 O 0.989(1) 0.380(1) 0.7152(9)
C23 C 0.236(2) -0.421(2) 0.041(2)
C24 C 0.311(3) -0.503(2) 0.047(2)
C25? C 0.288(5) -0.417(4) 0.054(3)
C26? C 0.123(5) -0.476(4) 0.065(4)
H1 H 0.40440 0.07700 0.27110
H2 H 0.61470 0.29570 0.43450
H3 H 0.30710 0.36500 0.60210
H4 H 0.09250 0.15640 0.43360
H5 H 0.56510 0.53170 0.69760
H6 H 0.77720 0.47040 0.57960
H7 H 0.23460 -0.11870 0.18990
H8 H 0.03830 -0.21770 0.10710
H9 H -0.04350 0.04350 0.26320
H10 H -0.10190 -0.10620 0.12740
H11 H 0.26420 0.04370 0.09340
H12 H 0.19660 -0.13000 -0.01290
H13 H 0.07100 -0.06580 0.00290
H14 H -0.12070 -0.24020 0.23310
H15 H -0.06440 -0.10130 0.37960
H16 H -0.23860 -0.16750 0.26800
H17 H 0.58320 -0.03750 0.06870
H18 H 0.76560 0.15870 0.23830
H19 H 0.57800 -0.07490 0.45970
H20 H 0.38820 -0.26910 0.27180
H21 H 0.83200 0.15850 0.57410
H22 H 0.92830 0.30730 0.42400
H23 H 0.25000 -0.35360 -0.13880
H24 H 0.39800 -0.17600 -0.06600
H25 H 0.58890 -0.26270 -0.10000
H26 H 0.44870 -0.41560 -0.11150
H27 H 0.43000 -0.35030 -0.22200
#END
