
#######################################################################
#
#                 Cambridge Crystallographic Data Centre
#                                CCDC
#
#######################################################################
#
# If this CIF has been generated from an entry in the Cambridge
# Structural Database, then it will include bibliographic, chemical,
# crystal, experimental, refinement or atomic coordinate data resulting
# from the CCDC's data processing and validation procedures.
#
#######################################################################

data_CSD_CIF_WINPUE
_audit_creation_date 1995-06-19
_audit_creation_method CSD-ConQuest-V1
_database_code_CSD WINPUE
_chemical_formula_sum 'C18 H15 N1 O2'
_chemical_formula_moiety
;
C18 H15 N1 O2
;
_journal_coeditor_code "IUCr KA1078"
_journal_coden_Cambridge 591
_journal_volume 51
_journal_year 1995
_journal_page_first 458
_journal_name_full 'Acta Crystallogr.,Sect.C:Cryst.Struct.Commun. '
loop_
_publ_author_name
"M.Kubicki"
"T.Borowiak"
"W.Z.Antkowiak"
_chemical_name_systematic
;
1-Methoxy-5,6-dihydro-12-azabenzo(a)anthracene N-oxide
;
_cell_volume   1368.604
_exptl_crystal_colour 'colorless'
_exptl_crystal_density_diffrn 1.346
_diffrn_ambient_temperature ?
_diffrn_special_details
;
The study was carried out at room temperature,in the range 283-303K

;
#These two values have been output from a single CSD field.
_refine_ls_R_factor_gt 0.0553
_refine_ls_wR_factor_gt 0.0553
_symmetry_cell_setting monoclinic
_symmetry_space_group_name_H-M 'P n'
_symmetry_Int_Tables_number 7
loop_
_symmetry_equiv_pos_site_id
_symmetry_equiv_pos_as_xyz
1 x,y,z
2 1/2+x,-y,1/2+z
_cell_length_a 16.092(2)
_cell_length_b 7.906(1)
_cell_length_c 11.889(1)
_cell_angle_alpha 90
_cell_angle_beta 115.20(1)
_cell_angle_gamma 90
_cell_formula_units_Z 4
loop_
_atom_type_symbol
_atom_type_radius_bond
C 0.68
H 0.23
N 0.68
O 0.68
loop_
_atom_site_label
_atom_site_type_symbol
_atom_site_fract_x
_atom_site_fract_y
_atom_site_fract_z
C1 C 0.6580(3) 0.5956(6) 0.3154(4)
O1 O 0.5701(2) 0.5368(4) 0.2543(3)
C2 C 0.4985(4) 0.6395(9) 0.2558(7)
H1 H 0.5056(19) 0.6517(48) 0.3397(9)
H2 H 0.4403(5) 0.5877(31) 0.2063(36)
H3 H 0.501(2) 0.7489(21) 0.2223(39)
C3 C 0.6822(4) 0.7402(6) 0.3886(5)
H4 H 0.6367(4) 0.8121(6) 0.3895(5)
C4 C 0.7726(4) 0.7772(7) 0.4592(5)
H5 H 0.7878(4) 0.8768(7) 0.5052(5)
C5 C 0.8421(4) 0.6702(7) 0.4640(5)
H6 H 0.9031(4) 0.6951(7) 0.5158(5)
C6 C 0.8198(4) 0.5230(6) 0.3897(5)
C7 C 0.8889(3) 0.3933(7) 0.3998(5)
H7 H 0.9449(3) 0.4120(7) 0.4745(5)
H8 H 0.9034(3) 0.4002(7) 0.3286(5)
C8 C 0.8494(3) 0.2194(7) 0.4046(5)
H9 H 0.8947(3) 0.1325(7) 0.4151(5)
H10 H 0.8336(3) 0.2136(7) 0.4746(5)
C9 C 0.7651(3) 0.1909(6) 0.2852(4)
C10 C 0.7446(4) 0.0411(6) 0.2233(5)
H11 H 0.7801(4) -0.0542(6) 0.2583(5)
C11 C 0.6687(4) 0.0303(6) 0.1048(5)
C12 C 0.6398(4) -0.1225(7) 0.0380(5)
H12 H 0.6675(4) -0.2237(7) 0.0748(5)
C13 C 0.5720(4) -0.1233(7) -0.0792(6)
H13 H 0.5543(4) -0.2248(7) -0.1225(6)
C14 C 0.5284(4) 0.0267(7) -0.1356(5)
H14 H 0.4828(4) 0.0244(7) -0.2166(5)
C15 C 0.5522(4) 0.1779(6) -0.0727(4)
H15 H 0.5230(4) 0.2778(6) -0.1103(4)
C16 C 0.6211(3) 0.1786(5) 0.0491(5)
N1 N 0.6447(3) 0.3334(5) 0.1155(4)
O2 O 0.6051(2) 0.4721(4) 0.0580(3)
C17 C 0.7092(3) 0.3355(6) 0.2351(4)
C18 C 0.7266(3) 0.4920(5) 0.3083(4)
C19 C 0.0953(3) -0.0975(6) 0.0013(5)
O3 O 0.0213(3) -0.0370(4) -0.0983(3)
C20 C -0.0130(5) -0.1365(9) -0.2081(6)
H16 H -0.0674(18) -0.0846(30) -0.2694(16)
H17 H -0.0275(28) -0.2478(19) -0.1895(11)
H18 H 0.0327(12) -0.1443(47) -0.2397(23)
C21 C 0.1425(4) -0.2431(6) -0.0004(6)
H19 H 0.1194(4) -0.3140(6) -0.0693(6)
C22 C 0.2236(4) -0.2834(7) 0.0999(6)
H20 H 0.2529(4) -0.3849(7) 0.0999(6)
C23 C 0.2620(4) -0.1758(7) 0.2001(6)
H21 H 0.3192(4) -0.2006(7) 0.2637(6)
C24 C 0.2152(3) -0.0288(7) 0.2065(5)
C25 C 0.2574(4) 0.1002(8) 0.3072(5)
H22 H 0.3231(4) 0.0814(8) 0.3510(5)
H23 H 0.2308(4) 0.0918(8) 0.3665(5)
C26 C 0.2384(3) 0.2748(7) 0.2463(5)
H24 H 0.2664(3) 0.3613(7) 0.3090(5)
H25 H 0.2649(3) 0.2823(7) 0.1868(5)
C27 C 0.1364(3) 0.3025(6) 0.1814(4)
C28 C 0.0956(4) 0.4540(6) 0.1841(5)
H26 H 0.1312(4) 0.5482(6) 0.2217(5)
C29 C -0.0014(4) 0.4647(6) 0.1292(5)
C30 C -0.0482(4) 0.6187(7) 0.1221(5)
H27 H -0.0149(4) 0.7185(7) 0.1488(5)
C31 C -0.1408(4) 0.6225(8) 0.0771(5)
H28 H -0.1706(4) 0.7245(8) 0.0737(5)
C32 C -0.1923(4) 0.4731(7) 0.0354(5)
H29 H -0.2559(4) 0.4770(7) 0.0044(5)
C33 C -0.1497(3) 0.3231(7) 0.0399(5)
H30 H -0.1838(3) 0.2240(7) 0.0140(5)
C34 C -0.0543(3) 0.3191(6) 0.0838(4)
N2 N -0.0098(3) 0.1638(5) 0.0851(3)
O4 O -0.0587(2) 0.0258(4) 0.0532(3)
C35 C 0.0826(3) 0.1610(5) 0.1212(4)
C36 C 0.1286(3) 0.0052(6) 0.1089(5)
#END
