
#######################################################################
#
#                 Cambridge Crystallographic Data Centre
#                                CCDC
#
#######################################################################
#
# If this CIF has been generated from an entry in the Cambridge
# Structural Database, then it will include bibliographic, chemical,
# crystal, experimental, refinement or atomic coordinate data resulting
# from the CCDC's data processing and validation procedures.
#
#######################################################################

data_CSD_CIF_WINPOY
_audit_creation_date 1995-06-19
_audit_creation_method CSD-ConQuest-V1
_database_code_CSD WINPOY
_chemical_formula_sum 'C17 H13 N1 O2'
_chemical_formula_moiety
;
C17 H13 N1 O2
;
_journal_coeditor_code "IUCr KA1078"
_journal_coden_Cambridge 591
_journal_volume 51
_journal_year 1995
_journal_page_first 458
_journal_name_full 'Acta Crystallogr.,Sect.C:Cryst.Struct.Commun. '
loop_
_publ_author_name
"M.Kubicki"
"T.Borowiak"
"W.Z.Antkowiak"
_chemical_name_systematic
;
1-Hydroxy-5,6-dihydro-12-azabenz(a)anthracene N-oxide
;
_cell_volume   1250.147
_exptl_crystal_colour 'colorless'
_exptl_crystal_density_diffrn 1.399
_diffrn_ambient_temperature ?
_diffrn_special_details
;
The study was carried out at room temperature,in the range 283-303K

;
#These two values have been output from a single CSD field.
_refine_ls_R_factor_gt 0.0421
_refine_ls_wR_factor_gt 0.0421
_symmetry_cell_setting monoclinic
_symmetry_space_group_name_H-M 'P 21/a'
_symmetry_Int_Tables_number 14
loop_
_symmetry_equiv_pos_site_id
_symmetry_equiv_pos_as_xyz
1 x,y,z
2 1/2-x,1/2+y,-z
3 -x,-y,-z
4 -1/2+x,-1/2-y,z
_cell_length_a 14.257(2)
_cell_length_b 7.2001(8)
_cell_length_c 12.871(1)
_cell_angle_alpha 90
_cell_angle_beta 108.88(1)
_cell_angle_gamma 90
_cell_formula_units_Z 4
loop_
_atom_type_symbol
_atom_type_radius_bond
C 0.68
H 0.23
N 0.68
O 0.68
loop_
_atom_site_label
_atom_site_type_symbol
_atom_site_fract_x
_atom_site_fract_y
_atom_site_fract_z
C1 C 0.2861(2) 0.0725(3) 0.6711(2)
O1 O 0.37884(13) 0.0199(2) 0.7300(2)
H1 H 0.3847(25) 0.0355(45) 0.8107(30)
C2 C 0.2399(2) -0.0158(3) 0.5709(2)
H2 H 0.2728(2) -0.1106(3) 0.5478(2)
C3 C 0.1475(2) 0.0349(4) 0.5068(2)
H3 H 0.1168(2) -0.0291(4) 0.4419(2)
C4 C 0.0989(2) 0.1800(4) 0.5369(2)
H4 H 0.0360(2) 0.2141(4) 0.4918(2)
C5 C 0.1428(2) 0.2751(3) 0.6335(2)
C6 C 0.0971(2) 0.4481(3) 0.6615(2)
H5 H 0.0664(2) 0.4206(3) 0.7168(2)
H6 H 0.0465(2) 0.4949(3) 0.5967(2)
C7 C 0.1782(2) 0.5933(3) 0.7048(2)
H7 H 0.2098(2) 0.6194(3) 0.6501(2)
H8 H 0.1498(2) 0.7078(3) 0.7210(2)
C8 C 0.2529(2) 0.5186(3) 0.8073(2)
C9 C 0.2940(2) 0.6235(3) 0.8987(2)
H9 H 0.2779(2) 0.7488(3) 0.8979(2)
C10 C 0.3607(2) 0.5451(3) 0.9946(2)
C11 C 0.4084(2) 0.6470(3) 1.0902(2)
H10 H 0.3968(2) 0.7739(3) 1.0918(2)
C12 C 0.4717(2) 0.5623(4) 1.1808(2)
H11 H 0.5022(2) 0.6316(4) 1.2437(2)
C13 C 0.4908(2) 0.3719(4) 1.1798(2)
H12 H 0.5341(2) 0.3157(4) 1.2420(2)
C14 C 0.4465(2) 0.2675(3) 1.0882(2)
H13 H 0.4591(2) 0.1408(3) 1.0876(2)
C15 C 0.38195(15) 0.3546(3) 0.9957(2)
N1 N 0.33687(13) 0.2498(2) 0.90075(14)
O2 O 0.35461(12) 0.0677(2) 0.90806(14)
C16 C 0.27791(15) 0.3271(3) 0.8065(2)
C17 C 0.2362(2) 0.2177(3) 0.7052(2)
#END
