
#######################################################################
#
#                 Cambridge Crystallographic Data Centre
#                                CCDC
#
#######################################################################
#
# If this CIF has been generated from an entry in the Cambridge
# Structural Database, then it will include bibliographic, chemical,
# crystal, experimental, refinement or atomic coordinate data resulting
# from the CCDC's data processing and validation procedures.
#
#######################################################################

data_CSD_CIF_WINVEV
_audit_creation_date 2008-01-08
_audit_creation_method CSD-ConQuest-V1
_database_code_CSD WINVEV
_database_code_depnum_ccdc_archive 'CCDC 667490'
_chemical_formula_sum 'C22 H15 N1 O5'
_chemical_formula_moiety
;
C22 H15 N1 O5
;
_journal_coeditor_code "IUCr CV2325"
_journal_coden_Cambridge 1370
_journal_volume 63
_journal_year 2007
_journal_page_first o4498
_journal_name_full 'Acta Crystallogr.,Sect.E:Struct.Rep.Online '
loop_
_publ_author_name
"Wei Zhou"
"Zhimin Wu"
"Weixiao Hu"
"Chunnian Xia"
_chemical_name_systematic
;
rac-10-(4-Hydroxy-3-methoxy-5-nitrobenzylidene)anthrone
;
_chemical_melting_point 481
_cell_volume   1687.598
_exptl_crystal_colour 'red'
_exptl_crystal_density_diffrn 1.469
_exptl_special_details
;
Melting point range 481-484K

;
_exptl_crystal_description 'needle'
_exptl_crystal_preparation 'abs. alcohol'
_diffrn_ambient_temperature 298
#These two values have been output from a single CSD field.
_refine_ls_R_factor_gt 0.0558
_refine_ls_wR_factor_gt 0.0558
_symmetry_cell_setting monoclinic
_symmetry_space_group_name_H-M 'P 21/c'
_symmetry_Int_Tables_number 14
loop_
_symmetry_equiv_pos_site_id
_symmetry_equiv_pos_as_xyz
1 x,y,z
2 -x,1/2+y,1/2-z
3 -x,-y,-z
4 x,-1/2-y,-1/2+z
_cell_length_a 7.542(3)
_cell_length_b 27.81(1)
_cell_length_c 8.111(3)
_cell_angle_alpha 90
_cell_angle_beta 97.257(5)
_cell_angle_gamma 90
_cell_formula_units_Z 4
loop_
_atom_type_symbol
_atom_type_radius_bond
C 0.68
H 0.23
N 0.68
O 0.68
loop_
_atom_site_label
_atom_site_type_symbol
_atom_site_fract_x
_atom_site_fract_y
_atom_site_fract_z
O1 O 1.0555(3) 0.64984(6) -0.2655(2)
O2 O 0.3735(2) 0.53073(6) 0.6703(2)
O3 O 0.3936(2) 0.58518(6) 0.8596(2)
O4 O 0.5069(3) 0.66996(7) 0.8018(2)
H1 H 0.459(4) 0.6465(11) 0.850(4)
O5 O 0.6530(2) 0.72449(6) 0.6013(2)
N1 N 0.4187(2) 0.57080(7) 0.7197(2)
C1 C 0.9347(3) 0.55343(9) -0.2948(3)
H2 H 0.98710 0.56570 -0.38370
C2 C 0.8652(3) 0.50819(10) -0.3044(3)
H3 H 0.87170 0.48950 -0.39850
C3 C 0.7850(3) 0.49035(9) -0.1734(3)
H4 H 0.73740 0.45940 -0.17940
C4 C 0.7748(3) 0.51779(8) -0.0342(3)
H5 H 0.71940 0.50530 0.05260
C5 C 0.8392(3) 0.59429(7) 0.1292(2)
C6 C 1.0506(3) 0.64585(8) 0.3191(3)
H6 H 1.00800 0.63220 0.41110
C7 C 1.1798(3) 0.68127(9) 0.3426(3)
H7 H 1.22210 0.69130 0.44970
C8 C 1.2465(3) 0.70188(9) 0.2083(3)
H8 H 1.33090 0.72640 0.22400
C9 C 1.1865(3) 0.68571(8) 0.0514(3)
H9 H 1.23200 0.69920 -0.03930
C10 C 1.0131(3) 0.62950(8) -0.1433(3)
C11 C 0.8460(3) 0.56394(8) -0.0213(3)
C12 C 0.9829(3) 0.63023(7) 0.1605(3)
C13 C 1.0589(3) 0.64947(8) 0.0255(3)
C14 C 0.9285(3) 0.58177(8) -0.1537(3)
C15 C 0.7018(3) 0.58748(8) 0.2178(3)
H10 H 0.62640 0.56250 0.17740
C16 C 0.6457(3) 0.61121(8) 0.3653(3)
C17 C 0.5543(3) 0.58345(8) 0.4672(3)
H11 H 0.52470 0.55190 0.43780
C18 C 0.5060(3) 0.60242(8) 0.6135(3)
C19 C 0.5437(3) 0.64949(8) 0.6604(3)
C20 C 0.6275(3) 0.67848(8) 0.5509(3)
C21 C 0.6749(3) 0.65947(8) 0.4073(3)
H12 H 0.72820 0.67930 0.33550
C22 C 0.7791(4) 0.75190(9) 0.5260(3)
H13 H 0.89030 0.73470 0.53360
H14 H 0.79760 0.78220 0.58220
H15 H 0.73500 0.75730 0.41130
#END
