
#######################################################################
#
#                 Cambridge Crystallographic Data Centre
#                                CCDC
#
#######################################################################
#
# If this CIF has been generated from an entry in the Cambridge
# Structural Database, then it will include bibliographic, chemical,
# crystal, experimental, refinement or atomic coordinate data resulting
# from the CCDC's data processing and validation procedures.
#
#######################################################################

data_CSD_CIF_WIPJEM
_audit_creation_date 2013-10-18
_audit_creation_method CSD-ConQuest-V1
_database_code_CSD WIPJEM
_database_code_depnum_ccdc_archive 'CCDC 901034'
_chemical_formula_sum 'C14 H14 N2 O2'
_chemical_formula_moiety
;
C14 H14 N2 O2
;
_journal_coden_Cambridge 423
_journal_volume 37
_journal_year 2013
_journal_page_first 427
_journal_name_full 'J.Chem.Res. '
loop_
_publ_author_name
"W.Harrison"
_chemical_name_systematic
;
4-Methyl-N-(4-methylphenyl)-2-nitroaniline
;
_cell_volume    607.339
_exptl_crystal_colour 'red'
_exptl_crystal_density_diffrn 1.325
_exptl_crystal_description 'cut plate'
_diffrn_ambient_temperature 120
#These two values have been output from a single CSD field.
_refine_ls_R_factor_gt 0.0511
_refine_ls_wR_factor_gt 0.0511
_symmetry_cell_setting triclinic
_symmetry_space_group_name_H-M 'P -1'
_symmetry_Int_Tables_number 2
loop_
_symmetry_equiv_pos_site_id
_symmetry_equiv_pos_as_xyz
1 x,y,z
2 -x,-y,-z
_cell_length_a 8.1009(2)
_cell_length_b 8.1826(3)
_cell_length_c 9.5700(4)
_cell_angle_alpha 88.204(2)
_cell_angle_beta 80.521(2)
_cell_angle_gamma 76.094(2)
_cell_formula_units_Z 2
loop_
_atom_type_symbol
_atom_type_radius_bond
C 0.68
H 0.23
N 0.68
O 0.68
loop_
_atom_site_label
_atom_site_type_symbol
_atom_site_fract_x
_atom_site_fract_y
_atom_site_fract_z
C1 C 0.37515(17) 0.77622(18) 0.63269(15)
C2 C 0.40634(18) 0.81712(19) 0.49069(15)
H1 H 0.49250 0.74340 0.42710
C3 C 0.31141(19) 0.96616(19) 0.44143(16)
H2 H 0.33440 0.99340 0.34410
C4 C 0.18360(18) 1.07615(18) 0.53161(15)
C5 C 0.15251(18) 1.03221(18) 0.67413(15)
H3 H 0.06460 1.10450 0.73750
C6 C 0.24794(18) 0.88477(18) 0.72469(15)
H4 H 0.22640 0.85790 0.82230
C7 C 0.41586(17) 0.51348(17) 0.76954(14)
C8 C 0.24009(17) 0.50896(17) 0.78194(15)
H5 H 0.16780 0.58570 0.72830
C9 C 0.17144(17) 0.39801(18) 0.86840(16)
H6 H 0.05300 0.39970 0.87280
C10 C 0.27085(18) 0.28084(17) 0.95143(15)
C11 C 0.44300(17) 0.27798(17) 0.93783(14)
H7 H 0.51420 0.19860 0.99040
C12 C 0.51600(16) 0.38998(17) 0.84773(14)
C13 C 0.0827(2) 1.2395(2) 0.47990(18)
H8 H 0.12620 1.25380 0.37960
H9 H 0.09560 1.33320 0.53510
H10 H -0.03930 1.23790 0.49130
C14 C 0.1890(2) 0.1659(2) 1.05013(17)
H11 H 0.12490 0.10780 0.99830
H12 H 0.11000 0.23210 1.12800
H13 H 0.27880 0.08280 1.08850
N1 N 0.47893(15) 0.62839(16) 0.68441(14)
H14 H 0.595(2) 0.615(2) 0.6690(19)
N2 N 0.69807(15) 0.37323(15) 0.83948(13)
O1 O 0.77214(13) 0.46057(15) 0.75401(12)
O2 O 0.77821(13) 0.27038(14) 0.91625(12)
#END
