
#######################################################################
#
#                 Cambridge Crystallographic Data Centre
#                                CCDC
#
#######################################################################
#
# If this CIF has been generated from an entry in the Cambridge
# Structural Database, then it will include bibliographic, chemical,
# crystal, experimental, refinement or atomic coordinate data resulting
# from the CCDC's data processing and validation procedures.
#
#######################################################################

data_CSD_CIF_WIQBON
_audit_creation_date 2000-11-09
_audit_creation_method CSD-ConQuest-V1
_database_code_CSD WIQBON
_database_code_depnum_ccdc_journal 10/87
_chemical_formula_sum 'C25 H23 N3 O8'
_chemical_formula_moiety
;
C25 H23 N3 O8
;
_journal_coden_Cambridge 10
_journal_volume 81
_journal_year 1998
_journal_page_first 2332
_journal_name_full 'Helv.Chim.Acta '
loop_
_publ_author_name
"M.Skof"
"J.Svete"
"B.Stanovnik"
"L.Golic"
"S.Golic-Grdadolnik"
"L.Selic"
_chemical_name_systematic
;
(4S,5S,8S)-7-Benzoyl-4-cyano-8-(methoxycarbonyl)-3-(2,4,6-trimethoxyphenyl)-1-
oxa-2,7-diazaspiro(4.4)non-2-en-6-one
;
_chemical_melting_point 486.15
_cell_volume   2455.171
_exptl_crystal_colour 'colorless'
_exptl_crystal_density_diffrn 1.335
_exptl_special_details
;
Melting point range 486.15-488.15K
The published a cell length is 0.445; we calculate a is 10.445
;
_diffrn_ambient_temperature ?
_diffrn_special_details
;
The study was carried out at room temperature,in the range 283-303K

;
#These two values have been output from a single CSD field.
_refine_ls_R_factor_gt 0.036
_refine_ls_wR_factor_gt 0.036
_symmetry_cell_setting orthorhombic
_symmetry_space_group_name_H-M 'P 21 21 21'
_symmetry_Int_Tables_number 19
loop_
_symmetry_equiv_pos_site_id
_symmetry_equiv_pos_as_xyz
1 x,y,z
2 1/2-x,-y,1/2+z
3 1/2+x,1/2-y,-z
4 -x,1/2+y,1/2-z
_cell_length_a 10.445(1)
_cell_length_b 13.0551(8)
_cell_length_c 18.005(1)
_cell_angle_alpha 90
_cell_angle_beta 90
_cell_angle_gamma 90
_cell_formula_units_Z 4
loop_
_atom_type_symbol
_atom_type_radius_bond
C 0.68
N 0.68
O 0.68
loop_
_atom_site_label
_atom_site_type_symbol
_atom_site_fract_x
_atom_site_fract_y
_atom_site_fract_z
C1 C 0.57253(24) 0.72052(20) 0.62060(16)
C2 C 0.50236(25) 0.80531(19) 0.58421(15)
C3 C 0.3877(3) 0.84209(23) 0.61201(20)
C4 C 0.3318(5) 0.9278(3) 0.5798(3)
C5 C 0.3899(6) 0.9753(3) 0.5213(3)
C6 C 0.5041(6) 0.9389(3) 0.49358(25)
C7 C 0.5616(4) 0.8551(3) 0.52545(20)
C8 C 0.38634(21) 0.60070(17) 0.63612(15)
C9 C 0.35721(21) 0.51397(17) 0.69104(13)
C10 C 0.45902(24) 0.52436(21) 0.75055(14)
C11 C 0.57006(23) 0.57825(19) 0.71081(14)
C12 C 0.65710(21) 0.50070(18) 0.67455(15)
C13 C 0.8274(3) 0.3874(3) 0.6990(3)
C14 C 0.20217(21) 0.38484(17) 0.66544(14)
C15 C 0.13987(22) 0.28957(18) 0.64007(14)
C16 C 0.08089(22) 0.22192(19) 0.68964(15)
C17 C 0.0314(3) 0.18405(25) 0.8162(2)
C18 C 0.02447(25) 0.13136(21) 0.66400(18)
C19 C 0.0268(3) 0.11030(23) 0.58875(19)
C20 C -0.0803(5) -0.0506(3) 0.6037(3)
C21 C 0.0850(3) 0.17642(25) 0.53816(18)
C22 C 0.1403(3) 0.26514(22) 0.56388(16)
C23 C 0.1943(9) 0.3222(6) 0.44223(25)
C24 C 0.34182(21) 0.41163(17) 0.64824(14)
C25 C 0.42886(24) 0.33073(18) 0.67270(16)
N1 N 0.50395(18) 0.64155(15) 0.65574(12)
N2 N 0.14584(19) 0.45262(15) 0.70378(13)
N3 N 0.49812(25) 0.26911(19) 0.69269(17)
O1 O 0.68822(19) 0.71810(21) 0.62450(18)
O2 O 0.3185(2) 0.62585(16) 0.58575(14)
O3 O 0.74573(17) 0.47005(16) 0.72224(12)
O4 O 0.64312(21) 0.46726(17) 0.61340(12)
O5 O 0.23173(15) 0.53178(13) 0.72272(12)
O6 O 0.08348(20) 0.25054(14) 0.76204(11)
O7 O -0.02751(25) 0.02646(19) 0.55624(14)
O8 O 0.19873(25) 0.33568(20) 0.52010(12)
#END
