
#######################################################################
#
#                 Cambridge Crystallographic Data Centre
#                                CCDC
#
#######################################################################
#
# If this CIF has been generated from an entry in the Cambridge
# Structural Database, then it will include bibliographic, chemical,
# crystal, experimental, refinement or atomic coordinate data resulting
# from the CCDC's data processing and validation procedures.
#
#######################################################################

data_CSD_CIF_WIQJOX
_audit_creation_date 2013-10-18
_audit_creation_method CSD-ConQuest-V1
_database_code_CSD WIQJOX
_database_code_depnum_ccdc_archive 'CCDC 887348'
_chemical_formula_sum 'C38 H35 N1 O5'
_chemical_formula_moiety
;
C38 H35 N1 O5
;
_journal_coden_Cambridge 10
_journal_volume 96
_journal_year 2013
_journal_page_first 1488
_journal_name_full 'Helv.Chim.Acta '
loop_
_publ_author_name
"S.Maillefer-El Houar"
"P.Uebelhart"
"A.Linden"
"H.-J.Hansen"
_chemical_name_systematic
;
Methyl 
5-((1E,3E)-4-(4-methoxyphenyl)buta-1,3-dien-1-yl)-6,8,10-trimethyl-2-((1E,3E)-
4-(4-nitrophenyl)buta-1,3-dien-1-yl)heptalene-1-carboxylate
;
_chemical_melting_point 489
_cell_volume   3124.690
_exptl_crystal_colour 'red'
_exptl_crystal_density_diffrn 1.245
_exptl_crystal_description 'plate'
_diffrn_ambient_temperature 160
#These two values have been output from a single CSD field.
_refine_ls_R_factor_gt 0.0532
_refine_ls_wR_factor_gt 0.0532
_symmetry_cell_setting triclinic
_symmetry_space_group_name_H-M 'P -1'
_symmetry_Int_Tables_number 2
loop_
_symmetry_equiv_pos_site_id
_symmetry_equiv_pos_as_xyz
1 x,y,z
2 -x,-y,-z
_cell_length_a 9.5704(2)
_cell_length_b 12.8805(4)
_cell_length_c 26.4300(7)
_cell_angle_alpha 92.559(2)
_cell_angle_beta 93.805(2)
_cell_angle_gamma 105.588(2)
_cell_formula_units_Z 4
loop_
_atom_type_symbol
_atom_type_radius_bond
C 0.68
H 0.23
N 0.68
O 0.68
loop_
_atom_site_label
_atom_site_type_symbol
_atom_site_fract_x
_atom_site_fract_y
_atom_site_fract_z
O1 O -0.3647(3) 0.7140(2) 0.22773(13)
O2 O -0.1875(4) 0.8279(2) 0.2728(1)
O3 O 0.41123(18) 0.18841(15) 0.16605(6)
O4 O 0.60563(17) 0.32976(13) 0.16381(6)
O5 O 1.26823(19) -0.05839(14) -0.19317(7)
N1 N -0.2355(4) 0.7486(2) 0.24437(11)
C1 C 0.4427(2) 0.16683(16) -0.01951(8)
C2 C 0.3072(2) 0.12176(17) -0.00488(8)
H1 H 0.25750 0.05100 -0.01850
C3 C 0.2344(2) 0.17363(16) 0.02967(8)
H2 H 0.13160 0.15700 0.02380
C4 C 0.2964(2) 0.24460(16) 0.07037(8)
C5 C 0.4528(2) 0.27000(15) 0.08781(8)
C6 C 0.5575(2) 0.28668(15) 0.05509(8)
C7 C 0.7159(2) 0.30147(16) 0.06641(8)
C8 C 0.8094(2) 0.39195(18) 0.05286(9)
H3 H 0.90990 0.39910 0.06100
C9 C 0.7736(2) 0.48005(17) 0.02711(9)
C10 C 0.6609(2) 0.46666(16) -0.00849(9)
H4 H 0.64550 0.53050 -0.02160
C11 C 0.5612(2) 0.36528(17) -0.02876(8)
C12 C 0.5207(2) 0.28003(16) -0.00022(8)
C13 C 0.5185(2) 0.10582(17) -0.04949(8)
H5 H 0.46630 0.03500 -0.06240
C14 C 0.6583(2) 0.14293(17) -0.06032(8)
H6 H 0.70690 0.21580 -0.04950
C15 C 0.7409(2) 0.08222(17) -0.08674(8)
H7 H 0.69450 0.01030 -0.09970
C16 C 0.8826(2) 0.12544(18) -0.09337(9)
H8 H 0.92320 0.19780 -0.08000
C17 C 0.9814(2) 0.07564(18) -0.11836(8)
C18 C 1.1234(2) 0.13748(19) -0.12373(9)
H9 H 1.15300 0.21030 -0.11010
C19 C 1.2224(2) 0.0962(2) -0.14820(9)
H10 H 1.31790 0.14040 -0.15150
C20 C 1.1810(2) -0.00979(19) -0.16779(8)
C21 C 1.0408(2) -0.07369(18) -0.16224(9)
H11 H 1.01220 -0.14670 -0.17560
C22 C 0.9435(2) -0.03216(17) -0.13765(8)
H12 H 0.84900 -0.07740 -0.13370
C23 C 1.4116(3) 0.0063(2) -0.20013(10)
H13 H 1.40540 0.06820 -0.21950
H14 H 1.46360 -0.03720 -0.21880
H15 H 1.46420 0.03210 -0.16690
C24 C 0.2024(2) 0.29423(17) 0.09803(8)
H16 H 0.10100 0.25970 0.09320
C25 C 0.2424(2) 0.38332(17) 0.12968(9)
H17 H 0.34310 0.41490 0.13890
C26 C 0.1381(2) 0.43306(18) 0.15024(9)
H18 H 0.03840 0.39350 0.14520
C27 C 0.1686(3) 0.52915(19) 0.17558(9)
H19 H 0.26860 0.56660 0.18260
C28 C 0.0627(3) 0.5823(2) 0.19364(9)
C29 C 0.1091(3) 0.6757(2) 0.22621(12)
H20 H 0.20970 0.70340 0.23680
C30 C 0.0116(4) 0.7286(2) 0.24325(12)
H21 H 0.04440 0.79150 0.26570
C31 C -0.1332(3) 0.6893(2) 0.22734(11)
C32 C -0.1849(3) 0.5975(2) 0.19556(11)
H22 H -0.28570 0.57090 0.18520
C33 C -0.0862(3) 0.5448(2) 0.1791(1)
H23 H -0.12080 0.48120 0.15720
C34 C 0.4851(2) 0.25851(17) 0.14294(8)
C35 C 0.6514(3) 0.3111(2) 0.21542(10)
H24 H 0.56820 0.29950 0.23620
H25 H 0.72840 0.37420 0.22980
H26 H 0.68850 0.24720 0.21500
C36 C 0.7620(2) 0.20887(19) 0.08798(10)
H27 H 0.73250 0.14610 0.06340
H28 H 0.71570 0.19050 0.11960
H29 H 0.86810 0.22950 0.09500
C37 C 0.8797(3) 0.58982(19) 0.03927(11)
H30 H 0.85300 0.64220 0.01750
H31 H 0.97820 0.58600 0.03330
H32 H 0.87670 0.61250 0.07500
C38 C 0.5074(3) 0.3601(2) -0.08380(9)
H33 H 0.42980 0.29320 -0.09210
H34 H 0.58790 0.36160 -0.10510
H35 H 0.46940 0.42230 -0.09010
O6 O 1.4043(2) 0.41757(18) 0.24799(9)
O7 O 1.3563(3) 0.55338(17) 0.28654(9)
O8 O 0.2611(2) 0.08012(15) 0.33481(7)
O9 O 0.26889(19) -0.05885(14) 0.28247(6)
O10 O -0.7000(2) -0.50272(19) 0.64291(10)
N2 N 1.3251(3) 0.45729(19) 0.27239(9)
C39 C 0.2003(3) -0.27743(18) 0.42978(9)
C40 C 0.2674(3) -0.31273(19) 0.39132(9)
H36 H 0.23330 -0.38700 0.38010
C41 C 0.3849(3) -0.2474(2) 0.36629(9)
H37 H 0.45230 -0.28280 0.35400
C42 C 0.4113(3) -0.1409(2) 0.35813(8)
C43 C 0.3062(2) -0.07840(17) 0.36910(8)
C44 C 0.2323(2) -0.08687(17) 0.41087(8)
C45 C 0.1207(2) -0.03019(18) 0.42248(9)
C46 C 0.1446(2) 0.03611(18) 0.46456(9)
H38 H 0.07300 0.07320 0.47010
C47 C 0.2667(3) 0.05777(18) 0.50258(8)
C48 C 0.3373(3) -0.01636(19) 0.51670(8)
H39 H 0.41550 0.00790 0.54230
C49 C 0.3075(3) -0.12733(18) 0.49747(9)
C50 C 0.2518(2) -0.16215(17) 0.44950(8)
C51 C 0.0779(3) -0.34948(19) 0.45158(10)
H40 H 0.04730 -0.42260 0.43850
C52 C 0.0052(3) -0.3199(2) 0.48893(10)
H41 H 0.04210 -0.24780 0.50310
C53 C -0.1223(3) -0.3847(2) 0.51003(10)
H42 H -0.16220 -0.45780 0.49760
C54 C -0.1855(3) -0.34372(19) 0.54678(10)
H43 H -0.13440 -0.27270 0.55970
C55 C -0.3197(3) -0.39040(19) 0.57013(10)
C56 C -0.3667(3) -0.3263(2) 0.60568(11)
H44 H -0.30980 -0.25420 0.61400
C57 C -0.4930(3) -0.3649(2) 0.62888(12)
H45 H -0.52320 -0.31940 0.65260
C58 C -0.5768(3) -0.4711(2) 0.61756(11)
C59 C -0.5338(3) -0.5361(2) 0.58230(11)
H46 H -0.59100 -0.60820 0.57410
C60 C -0.4067(3) -0.4957(2) 0.5590(1)
H47 H -0.37800 -0.54090 0.53470
C61 C -0.7696(4) -0.6147(3) 0.64170(14)
H48 H -0.80670 -0.64140 0.60670
H49 H -0.85070 -0.62720 0.66350
H50 H -0.69970 -0.65300 0.65400
C62 C 0.5466(3) -0.0842(2) 0.33750(8)
H51 H 0.59930 -0.12650 0.32080
C63 C 0.6017(3) 0.0233(2) 0.34047(9)
H52 H 0.54650 0.06520 0.35610
C64 C 0.7372(3) 0.0808(2) 0.32200(9)
H53 H 0.79300 0.04050 0.30560
C65 C 0.7884(3) 0.1886(2) 0.32691(9)
H54 H 0.72810 0.22620 0.34250
C66 C 0.9249(3) 0.2552(2) 0.31123(9)
C67 C 1.0281(3) 0.2119(2) 0.28957(11)
H55 H 1.00830 0.13580 0.28400
C68 C 1.1578(3) 0.2770(2) 0.27612(12)
H56 H 1.22690 0.24670 0.26130
C69 C 1.1852(3) 0.3874(2) 0.28471(10)
C70 C 1.0865(3) 0.4341(2) 0.30527(10)
H57 H 1.10720 0.51030 0.31030
C71 C 0.9567(3) 0.3678(2) 0.31846(10)
H58 H 0.88770 0.39920 0.33270
C72 C 0.2779(2) -0.00761(19) 0.32843(9)
C73 C 0.2350(3) -0.0015(3) 0.24025(10)
H59 H 0.13600 0.00580 0.24160
H60 H 0.24170 -0.04140 0.20850
H61 H 0.30420 0.07040 0.24180
C74 C -0.0160(3) -0.0525(2) 0.38719(10)
H62 H -0.08230 -0.01410 0.40090
H63 H -0.06350 -0.13030 0.38420
H64 H 0.00910 -0.02760 0.35360
C75 C 0.3089(3) 0.1679(2) 0.52997(10)
H65 H 0.37770 0.16900 0.55930
H66 H 0.22180 0.18460 0.54170
H67 H 0.35460 0.22200 0.50680
C76 C 0.3458(3) -0.2035(2) 0.53472(9)
H68 H 0.27660 -0.21530 0.56100
H69 H 0.44450 -0.17170 0.55060
H70 H 0.34100 -0.27260 0.51670
#END
