
#######################################################################
#
#                 Cambridge Crystallographic Data Centre
#                                CCDC
#
#######################################################################
#
# If this CIF has been generated from an entry in the Cambridge
# Structural Database, then it will include bibliographic, chemical,
# crystal, experimental, refinement or atomic coordinate data resulting
# from the CCDC's data processing and validation procedures.
#
#######################################################################

data_CSD_CIF_WIQJUD
_audit_creation_date 2013-10-18
_audit_creation_method CSD-ConQuest-V1
_database_code_CSD WIQJUD
_database_code_depnum_ccdc_archive 'CCDC 887347'
_chemical_formula_sum 'C35 H33 N1 O5'
_chemical_formula_moiety
;
C35 H33 N1 O5
;
_journal_coden_Cambridge 10
_journal_volume 96
_journal_year 2013
_journal_page_first 1488
_journal_name_full 'Helv.Chim.Acta '
loop_
_publ_author_name
"S.Maillefer-El Houar"
"P.Uebelhart"
"A.Linden"
"H.-J.Hansen"
_chemical_name_systematic
;
Methyl 
7-isopropyl-2-(2-(4-methoxyphenyl)vinyl)-10-methyl-5-(2-(4-nitrophenyl)vinyl)h
eptalene-1-carboxylate
;
_chemical_melting_point 440
_cell_volume   2918.671
_exptl_crystal_colour 'red'
_exptl_crystal_density_diffrn 1.246
_exptl_crystal_description 'plate'
_diffrn_ambient_temperature 160
#These two values have been output from a single CSD field.
_refine_ls_R_factor_gt 0.0405
_refine_ls_wR_factor_gt 0.0405
_symmetry_cell_setting monoclinic
_symmetry_space_group_name_H-M 'P 21/c'
_symmetry_Int_Tables_number 14
loop_
_symmetry_equiv_pos_site_id
_symmetry_equiv_pos_as_xyz
1 x,y,z
2 -x,1/2+y,1/2-z
3 -x,-y,-z
4 x,-1/2-y,-1/2+z
_cell_length_a 10.85190(14)
_cell_length_b 10.64281(13)
_cell_length_c 25.7003(4)
_cell_angle_alpha 90
_cell_angle_beta 100.4867(14)
_cell_angle_gamma 90
_cell_formula_units_Z 4
loop_
_atom_type_symbol
_atom_type_radius_bond
C 0.68
H 0.23
N 0.68
O 0.68
loop_
_atom_site_label
_atom_site_type_symbol
_atom_site_fract_x
_atom_site_fract_y
_atom_site_fract_z
O1 O 0.19148(16) 1.48104(16) -0.27047(8)
O2 O 0.00722(16) 1.39821(16) -0.29314(7)
O3 O 0.59506(12) 0.05228(11) 0.21080(5)
O4 O 0.22774(10) 0.69868(11) 0.13342(4)
O5 O 0.41317(10) 0.79784(10) 0.14366(4)
N1 N 0.11024(16) 1.40626(15) -0.26351(8)
C1 C 0.34760(13) 0.88028(13) -0.04625(5)
C2 C 0.46617(13) 0.84220(14) -0.02605(6)
H1 H 0.53250 0.89090 -0.03520
C3 C 0.50134(13) 0.73560(14) 0.00779(6)
H2 H 0.57830 0.69650 0.00460
C4 C 0.43860(13) 0.68335(14) 0.04382(6)
C5 C 0.32451(13) 0.74022(13) 0.05755(6)
C6 C 0.23509(13) 0.79847(13) 0.02302(6)
C7 C 0.12541(13) 0.86562(14) 0.03716(6)
C8 C 0.00993(14) 0.82500(15) 0.01590(6)
H3 H -0.05840 0.86790 0.02630
C9 C -0.02085(14) 0.72252(15) -0.02127(6)
H4 H -0.09360 0.67540 -0.01830
C10 C 0.04143(14) 0.68598(14) -0.05965(6)
C11 C 0.15210(13) 0.75142(13) -0.07042(6)
H5 H 0.16300 0.75560 -0.10620
C12 C 0.23963(13) 0.80607(13) -0.03404(6)
C13 C 0.32669(13) 0.99064(13) -0.08004(6)
H6 H 0.39870 1.03250 -0.08770
C14 C 0.21423(13) 1.03858(13) -0.10139(6)
H7 H 0.14310 1.00040 -0.09120
C15 C 0.18987(13) 1.14334(13) -0.13867(6)
C16 C 0.06696(14) 1.16466(14) -0.16454(6)
H8 H 0.00050 1.11880 -0.15400
C17 C 0.04003(15) 1.25059(15) -0.20500(7)
H9 H -0.04360 1.26230 -0.22320
C18 C 0.13717(16) 1.31948(15) -0.21867(7)
C19 C 0.25924(16) 1.30704(15) -0.19185(7)
H10 H 0.32400 1.35850 -0.20070
C20 C 0.28538(14) 1.21884(14) -0.15216(7)
H11 H 0.36900 1.20900 -0.13370
C21 C 0.48958(14) 0.57050(14) 0.07239(6)
H12 H 0.57620 0.55370 0.07420
C22 C 0.42381(14) 0.48890(14) 0.09625(6)
H13 H 0.33690 0.50540 0.09360
C23 C 0.47297(14) 0.37677(14) 0.12602(6)
C24 C 0.39196(15) 0.27911(16) 0.13375(7)
H14 H 0.30510 0.28660 0.11950
C25 C 0.43526(16) 0.17200(16) 0.16155(7)
H15 H 0.37850 0.10660 0.16600
C26 C 0.56180(15) 0.15997(14) 0.18304(6)
C27 C 0.64401(15) 0.25550(15) 0.17622(6)
H16 H 0.73060 0.24800 0.19090
C28 C 0.59929(14) 0.36220(15) 0.14790(6)
H17 H 0.65650 0.42710 0.14330
C29 C 0.72200(17) 0.03863(17) 0.23696(8)
H18 H 0.77760 0.04450 0.21100
H19 H 0.73290 -0.04340 0.25450
H20 H 0.74280 0.10540 0.26340
C30 C 0.31351(13) 0.74018(14) 0.11504(6)
C31 C 0.41688(17) 0.79874(18) 0.20031(6)
H21 H 0.33780 0.83220 0.20780
H22 H 0.48640 0.85170 0.21740
H23 H 0.42890 0.71290 0.21410
C32 C 0.15045(15) 0.97634(15) 0.07386(6)
H24 H 0.18830 0.94720 0.10930
H25 H 0.07140 1.01960 0.07540
H26 H 0.20790 1.03440 0.06080
C33 C -0.00385(16) 0.57354(17) -0.09457(7)
H27 H -0.07910 0.53850 -0.08230
C34 C -0.0419(2) 0.6049(2) -0.15276(8)
H28 H -0.10470 0.67200 -0.15710
H29 H -0.07750 0.53000 -0.17210
H30 H 0.03180 0.63280 -0.16670
C35 C 0.0969(2) 0.47130(17) -0.08715(9)
H31 H 0.16610 0.49710 -0.10460
H32 H 0.06080 0.39260 -0.10280
H33 H 0.12850 0.45880 -0.04930
#END
