
#######################################################################
#
#                 Cambridge Crystallographic Data Centre
#                                CCDC
#
#######################################################################
#
# If this CIF has been generated from an entry in the Cambridge
# Structural Database, then it will include bibliographic, chemical,
# crystal, experimental, refinement or atomic coordinate data resulting
# from the CCDC's data processing and validation procedures.
#
#######################################################################

data_CSD_CIF_WIQMAK
_audit_creation_date 2000-11-09
_audit_creation_method CSD-ConQuest-V1
_database_code_CSD WIQMAK
_chemical_formula_sum 'C23 H17 N3 O2'
_chemical_formula_moiety
;
C23 H17 N3 O2
;
_journal_coden_Cambridge 1061
_journal_volume 13
_journal_year 1997
_journal_page_first 1053
_journal_name_full 'Anal.Sci. '
loop_
_publ_author_name
"G.Yasuda"
"H.Morikawa"
"H.Kimoto"
_chemical_name_systematic
;
1-Ethyl-2-(2-nitrophenyl)-phenanthro(9,10-d)imidazole
;
_chemical_melting_point 470.15
_cell_volume   1786.994
_exptl_crystal_colour 'yellow'
_exptl_crystal_density_diffrn 1.365
_exptl_special_details
;
Melting point range 470.15-471.15K

;
_exptl_crystal_description 'plates'
_exptl_crystal_preparation 'ethanol'
_diffrn_ambient_temperature ?
_diffrn_special_details
;
The study was carried out at room temperature,in the range 283-303K

;
#These two values have been output from a single CSD field.
_refine_ls_R_factor_gt 0.042
_refine_ls_wR_factor_gt 0.042
_symmetry_cell_setting monoclinic
_symmetry_space_group_name_H-M 'P 21/n'
_symmetry_Int_Tables_number 14
loop_
_symmetry_equiv_pos_site_id
_symmetry_equiv_pos_as_xyz
1 x,y,z
2 1/2-x,1/2+y,1/2-z
3 -x,-y,-z
4 -1/2+x,-1/2-y,-1/2+z
_cell_length_a 11.784(1)
_cell_length_b 11.942(1)
_cell_length_c 12.7065(9)
_cell_angle_alpha 90
_cell_angle_beta 92.030(7)
_cell_angle_gamma 90
_cell_formula_units_Z 4
loop_
_atom_type_symbol
_atom_type_radius_bond
C 0.68
N 0.68
O 0.68
loop_
_atom_site_label
_atom_site_type_symbol
_atom_site_fract_x
_atom_site_fract_y
_atom_site_fract_z
O1 O 0.2300(1) 0.0844(1) -0.3023(1)
O2 O 0.3537(1) 0.1291(1) -0.4153(1)
N1 N 0.2777(1) -0.0166(1) -0.0539(1)
N2 N 0.3736(1) 0.1366(1) -0.1023(1)
N3 N 0.3206(1) 0.0720(1) -0.3427(1)
C1 C 0.3573(2) 0.0287(2) -0.1176(1)
C2 C 0.2388(2) 0.0716(1) 0.0064(1)
C3 C 0.2997(2) 0.1635(2) -0.0244(1)
C4 C 0.1517(2) 0.0778(2) 0.0829(1)
C5 C 0.0821(2) -0.0117(2) 0.1112(2)
C6 C -0.0028(2) 0.0016(2) 0.1810(2)
C7 C -0.0207(2) 0.1054(2) 0.2254(2)
C8 C 0.0465(2) 0.1944(2) 0.2012(2)
C9 C 0.1343(1) 0.1845(2) 0.1290(1)
C10 C 0.2043(2) 0.2809(2) 0.1024(1)
C11 C 0.1952(2) 0.3861(2) 0.1522(2)
C12 C 0.2643(2) 0.4734(2) 0.1277(2)
C13 C 0.3454(2) 0.4618(2) 0.0521(2)
C14 C 0.3566(2) 0.3619(2) 0.0013(2)
C15 C 0.2871(2) 0.2708(2) 0.0250(1)
C16 C 0.4139(2) -0.0381(2) -0.1988(1)
C17 C 0.3962(1) -0.0185(1) -0.3058(1)
C18 C 0.4465(2) -0.0811(2) -0.3821(1)
C19 C 0.5161(2) -0.1681(2) -0.3525(2)
C20 C 0.5373(2) -0.1893(2) -0.2472(2)
C21 C 0.4878(2) -0.1251(2) -0.1715(2)
C22 C 0.2514(2) -0.1360(2) -0.0462(2)
C23 C 0.3055(2) -0.1887(2) 0.0524(2)
#END
