
#######################################################################
#
#                 Cambridge Crystallographic Data Centre
#                                CCDC
#
#######################################################################
#
# If this CIF has been generated from an entry in the Cambridge
# Structural Database, then it will include bibliographic, chemical,
# crystal, experimental, refinement or atomic coordinate data resulting
# from the CCDC's data processing and validation procedures.
#
#######################################################################

data_CSD_CIF_WIQWAU01
_audit_creation_date 2000-12-08
_audit_creation_method CSD-ConQuest-V1
_database_code_CSD WIQWAU01
_chemical_formula_sum 'C21 H14 N4 O2'
_chemical_formula_moiety
;
C21 H14 N4 O2
;
_journal_coden_Cambridge 1061
_journal_volume 15
_journal_year 1999
_journal_page_first 307
_journal_name_full 'Anal.Sci. '
loop_
_publ_author_name
"G.Yasuda"
"H.Kimoto"
_chemical_name_systematic
;
1-(2-Nitrobenzyl)-1H-phenanthro(9,10-d)triazole
;
_chemical_melting_point 476.15
_cell_volume   1614.352
_exptl_crystal_colour 'colorless'
_exptl_crystal_density_diffrn 1.458
_exptl_special_details
;
Melting point range 476.15-479.15K
The authors give the space group as P21/c, we have used P21/n
;
_exptl_crystal_description 'plates'
_exptl_crystal_preparation 'ethanol'
_diffrn_ambient_temperature ?
_diffrn_special_details
;
The study was carried out at room temperature,in the range 283-303K

;
#These two values have been output from a single CSD field.
_refine_ls_R_factor_gt 0.044
_refine_ls_wR_factor_gt 0.044
_symmetry_cell_setting monoclinic
_symmetry_space_group_name_H-M 'P 21/n'
_symmetry_Int_Tables_number 14
loop_
_symmetry_equiv_pos_site_id
_symmetry_equiv_pos_as_xyz
1 x,y,z
2 1/2-x,1/2+y,1/2-z
3 -x,-y,-z
4 -1/2+x,-1/2-y,-1/2+z
_cell_length_a 13.796(4)
_cell_length_b 8.545(2)
_cell_length_c 14.491(2)
_cell_angle_alpha 90
_cell_angle_beta 109.09(2)
_cell_angle_gamma 90
_cell_formula_units_Z 4
loop_
_atom_type_symbol
_atom_type_radius_bond
C 0.68
N 0.68
O 0.68
loop_
_atom_site_label
_atom_site_type_symbol
_atom_site_fract_x
_atom_site_fract_y
_atom_site_fract_z
O1 O 0.3297(1) -0.1242(2) 0.5964(1)
O2 O 0.2648(2) -0.0369(3) 0.4516(1)
N1 N 0.2530(1) -0.0203(2) 0.8365(1)
N2 N 0.3252(2) 0.0812(2) 0.8908(1)
N3 N 0.3133(2) 0.0947(2) 0.9766(1)
N4 N 0.2661(2) -0.0465(3) 0.5351(2)
C1 C 0.1936(2) -0.0730(3) 0.8890(2)
C2 C 0.2333(2) 0.0022(3) 0.9772(2)
C3 C 0.1931(2) -0.0202(3) 1.0563(2)
C4 C 0.2301(2) 0.0622(4) 1.1441(2)
C5 C 0.1903(2) 0.0363(4) 1.2177(2)
C6 C 0.1129(2) -0.0735(4) 1.2041(2)
C7 C 0.0739(2) -0.1538(4) 1.1186(2)
C8 C 0.1129(2) -0.1289(3) 1.0405(2)
C9 C 0.0708(2) -0.2102(3) 0.9460(2)
C10 C -0.0098(2) -0.3170(4) 0.9287(2)
C11 C -0.0507(2) -0.3907(4) 0.8404(2)
C12 C -0.0141(2) -0.3581(3) 0.7635(2)
C13 C 0.0645(2) -0.2552(3) 0.7776(2)
C14 C 0.1094(2) -0.1804(3) 0.8677(2)
C15 C 0.2574(2) -0.0579(3) 0.7397(2)
C16 C 0.1834(2) 0.0346(3) 0.6581(2)
C17 C 0.1881(2) 0.0414(3) 0.5633(2)
C18 C 0.1214(2) 0.1312(3) 0.4909(2)
C19 C 0.0458(2) 0.2157(3) 0.5102(2)
C20 C 0.0366(2) 0.2090(3) 0.6022(2)
C21 C 0.1048(2) 0.1205(3) 0.6747(2)
#END
