
#######################################################################
#
#                 Cambridge Crystallographic Data Centre
#                                CCDC
#
#######################################################################
#
# If this CIF has been generated from an entry in the Cambridge
# Structural Database, then it will include bibliographic, chemical,
# crystal, experimental, refinement or atomic coordinate data resulting
# from the CCDC's data processing and validation procedures.
#
#######################################################################

data_CSD_CIF_WITJIS
_audit_creation_date 2000-11-09
_audit_creation_method CSD-ConQuest-V1
_database_code_CSD WITJIS
_database_code_depnum_ccdc_archive 'CCDC 134668'
_chemical_formula_sum 'C16 H21 N2 O5'
_chemical_formula_moiety
;
C16 H21 N2 O5
;
_journal_coden_Cambridge 1220
_journal_volume 6
_journal_year 2000
_journal_page_first 2350
_journal_name_full 'Chem.-Eur.J. '
loop_
_publ_author_name
"M.Minguet"
"D.B.Amabilino"
"J.Cirujeda"
"K.Wurst"
"I.Mata"
"E.Molins"
"J.J.Novoa"
"J.Veciana"
_chemical_name_systematic
;
(R,S)-(3-(4,4,5,5-Tetramethyl-4,5-dihydro-1H-imidazolyl-1-oxy-3-oxide)phenoxy)
-2-propionic acid
;
_chemical_melting_point 418.15
_cell_volume   1651.573
_exptl_crystal_colour 'dark blue'
_exptl_crystal_density_diffrn 1.292
_exptl_crystal_description 'prism'
_exptl_crystal_preparation 'dichloromethane/hexane'
_diffrn_ambient_temperature 218
#These two values have been output from a single CSD field.
_refine_ls_R_factor_gt 0.0442
_refine_ls_wR_factor_gt 0.0442
loop_
_citation_database_id_CSD
_citation_special_details
WITJEO "is a stereoisomer of this entry"
_symmetry_cell_setting monoclinic
_symmetry_space_group_name_H-M 'P 21/c'
_symmetry_Int_Tables_number 14
loop_
_symmetry_equiv_pos_site_id
_symmetry_equiv_pos_as_xyz
1 x,y,z
2 x,1/2-y,1/2+z
3 -x,-y,-z
4 -x,-1/2+y,-1/2-z
_cell_length_a 13.291(2)
_cell_length_b 11.511(2)
_cell_length_c 11.306(2)
_cell_angle_alpha 90
_cell_angle_beta 107.29(1)
_cell_angle_gamma 90
_cell_formula_units_Z 4
loop_
_atom_type_symbol
_atom_type_radius_bond
C 0.68
H 0.23
N 0.68
O 0.68
loop_
_atom_site_label
_atom_site_type_symbol
_atom_site_fract_x
_atom_site_fract_y
_atom_site_fract_z
O1 O 0.0857(2) -0.1510(2) 0.2305(2)
O2 O 0.2508(2) 0.1559(2) 0.0995(2)
O3 O 0.3414(2) -0.3998(2) 0.1673(2)
O4 O 0.5964(2) -0.4645(3) 0.1540(2)
O5 O 0.5452(2) -0.3770(2) 0.3009(2)
N1 N 0.1180(2) -0.0489(2) 0.2161(3)
N2 N 0.1930(2) 0.0940(2) 0.1499(2)
C1 C 0.1875(2) -0.0214(3) 0.1532(3)
C2 C 0.0899(2) 0.0540(3) 0.2809(3)
C3 C 0.1148(2) 0.1534(3) 0.2024(3)
C4 C -0.0238(3) 0.0478(3) 0.2818(4)
H1 H -0.0690(3) 0.0332(20) 0.1984(5)
H2 H -0.0435(6) 0.1209(8) 0.3115(20)
H3 H -0.0316(5) -0.0146(13) 0.3359(17)
C5 C 0.1643(3) 0.0492(3) 0.4129(3)
H4 H 0.2366(3) 0.0525(20) 0.4108(3)
H5 H 0.1530(13) -0.0226(10) 0.4520(8)
H6 H 0.1504(12) 0.1147(11) 0.4598(7)
C6 C 0.0223(3) 0.1864(3) 0.0908(3)
H7 H -0.0085(10) 0.1166(3) 0.0466(11)
H8 H 0.0469(4) 0.2364(15) 0.0361(10)
H9 H -0.0304(8) 0.2271(16) 0.1187(4)
C7 C 0.1642(3) 0.2592(3) 0.2742(4)
H10 H 0.2309(9) 0.2380(5) 0.3335(14)
H11 H 0.1175(8) 0.2905(12) 0.3178(17)
H12 H 0.1761(16) 0.3172(8) 0.2176(4)
C8 C 0.2480(2) -0.1045(3) 0.1036(3)
C9 C 0.2673(2) -0.2144(3) 0.1534(3)
H13 H 0.23920 -0.23680 0.21700
C10 C 0.3284(2) -0.2927(3) 0.1102(3)
C11 C 0.3696(3) -0.2606(3) 0.0170(3)
H14 H 0.41100 -0.31290 -0.01220
C12 C 0.3494(3) -0.1506(4) -0.0333(3)
H15 H 0.37760 -0.12850 -0.09690
C13 C 0.2889(3) -0.0729(3) 0.0077(3)
H16 H 0.27500 0.00110 -0.02860
C14 C 0.4176(3) -0.4776(3) 0.1439(3)
H17 H 0.40250 -0.48950 0.05350
C15 C 0.4050(3) -0.5914(3) 0.2054(4)
H18 H 0.3357(8) -0.6234(12) 0.1654(16)
H19 H 0.4127(20) -0.5778(5) 0.2923(7)
H20 H 0.4586(13) -0.6458(8) 0.1979(21)
C16 C 0.5282(3) -0.4359(3) 0.1977(3)
H21 H 0.6219(23) -0.3617(46) 0.3323(46)
#END
