
#######################################################################
#
#                 Cambridge Crystallographic Data Centre
#                                CCDC
#
#######################################################################
#
# If this CIF has been generated from an entry in the Cambridge
# Structural Database, then it will include bibliographic, chemical,
# crystal, experimental, refinement or atomic coordinate data resulting
# from the CCDC's data processing and validation procedures.
#
#######################################################################

data_CSD_CIF_WITJEO
_audit_creation_date 2000-11-09
_audit_creation_method CSD-ConQuest-V1
_database_code_CSD WITJEO
_database_code_depnum_ccdc_archive 'CCDC 134797'
_chemical_formula_sum 'C16 H21 N2 O5'
_chemical_formula_moiety
;
C16 H21 N2 O5
;
_journal_coden_Cambridge 1220
_journal_volume 6
_journal_year 2000
_journal_page_first 2350
_journal_name_full 'Chem.-Eur.J. '
loop_
_publ_author_name
"M.Minguet"
"D.B.Amabilino"
"J.Cirujeda"
"K.Wurst"
"I.Mata"
"E.Molins"
"J.J.Novoa"
"J.Veciana"
_chemical_name_systematic
;
(R)-(3-(4,4,5,5-Tetramethyl-4,5-dihydro-1H-imidazolyl-1-oxy-3-oxide)-phenoxy)-
2-propionic acid
;
_chemical_melting_point 403.15
_cell_volume    844.371
_exptl_crystal_colour 'dark blue'
_exptl_crystal_density_diffrn 1.264
_exptl_crystal_description 'plates'
_exptl_crystal_preparation 'dichloromethane/hexane'
_diffrn_ambient_temperature ?
_diffrn_special_details
;
The study was carried out at room temperature,in the range 283-303K

;
#These two values have been output from a single CSD field.
_refine_ls_R_factor_gt 0.0566
_refine_ls_wR_factor_gt 0.0566
loop_
_citation_database_id_CSD
_citation_special_details
WITJIS "is a racemate of this entry"
_symmetry_cell_setting monoclinic
_symmetry_space_group_name_H-M 'P 21'
_symmetry_Int_Tables_number 4
loop_
_symmetry_equiv_pos_site_id
_symmetry_equiv_pos_as_xyz
1 x,y,z
2 -x,1/2+y,-z
_cell_length_a 6.004(1)
_cell_length_b 12.065(1)
_cell_length_c 11.933(1)
_cell_angle_alpha 90
_cell_angle_beta 102.36(3)
_cell_angle_gamma 90
_cell_formula_units_Z 2
loop_
_atom_type_symbol
_atom_type_radius_bond
C 0.68
H 0.23
N 0.68
O 0.68
loop_
_atom_site_label
_atom_site_type_symbol
_atom_site_fract_x
_atom_site_fract_y
_atom_site_fract_z
C1 C 0.072(2) 0.2516(12) 0.8357(11)
C2 C 0.224(2) 0.4229(11) 0.9119(12)
C3 C 0.3475(19) 0.3342(11) 0.9917(10)
C4 C -0.045(3) -0.1949(13) 0.5974(11)
H1 H -0.19980 -0.20870 0.60830
C5 C 0.092(3) -0.2974(12) 0.6247(14)
H2 H 0.24640 -0.28320 0.61850
H3 H 0.02850 -0.35480 0.57180
H4 H 0.09040 -0.32050 0.70150
C6 C -0.055(3) -0.1669(13) 0.4708(12)
C7 C -0.050(2) 0.1651(11) 0.7638(11)
C8 C -0.275(2) 0.1822(11) 0.7128(10)
H5 H -0.34460 0.24840 0.72590
C9 C -0.399(2) 0.1039(14) 0.6431(11)
H6 H -0.55130 0.11670 0.60880
C10 C -0.292(2) 0.0028(12) 0.6239(10)
H7 H -0.37190 -0.05050 0.57480
C11 C -0.069(3) -0.0154(12) 0.6788(10)
C12 C 0.048(2) 0.0647(11) 0.7433(10)
H8 H 0.20160 0.05280 0.77580
C13 C 0.366(2) 0.4732(11) 0.8302(10)
H9 H 0.48470 0.51910 0.87330
H10 H 0.26860 0.51720 0.77270
H11 H 0.43260 0.41460 0.79390
C14 C 0.1213(19) 0.5194(10) 0.9663(10)
H12 H 0.01830 0.49120 1.01090
H13 H 0.04010 0.56720 0.90720
H14 H 0.24100 0.56040 1.01520
C15 C 0.5995(17) 0.3380(12) 1.0212(9)
H15 H 0.65770 0.32880 0.95280
H16 H 0.65600 0.27960 1.07420
H17 H 0.64850 0.40830 1.05570
C16 C 0.2531(18) 0.3204(13) 1.1028(9)
H18 H 0.30540 0.25140 1.13910
H19 H 0.08950 0.32090 1.08330
H20 H 0.30630 0.38050 1.15430
O1 O -0.1213(13) 0.4103(8) 0.7633(7)
O2 O 0.3547(15) 0.1374(7) 0.9520(8)
O3 O 0.0561(17) -0.1087(8) 0.6731(8)
O4 O 0.1140(17) -0.1037(9) 0.4580(8)
H21 H 0.09400 -0.08340 0.39110
O5 O -0.2057(16) -0.1979(9) 0.3956(8)
N1 N 0.0383(19) 0.3606(9) 0.8336(9)
N2 N 0.2633(18) 0.2308(9) 0.9208(9)
#END
