
#######################################################################
#
#                 Cambridge Crystallographic Data Centre
#                                CCDC
#
#######################################################################
#
# If this CIF has been generated from an entry in the Cambridge
# Structural Database, then it will include bibliographic, chemical,
# crystal, experimental, refinement or atomic coordinate data resulting
# from the CCDC's data processing and validation procedures.
#
#######################################################################

data_CSD_CIF_WITMER
_audit_creation_date 2000-11-09
_audit_creation_method CSD-ConQuest-V1
_database_code_CSD WITMER
_database_code_depnum_ccdc_archive 'CCDC 148704'
_chemical_formula_sum 'C14 H26 N4 O4'
_chemical_formula_moiety
;
C14 H26 N4 O4
;
_journal_coden_Cambridge 95
_journal_year 2000
_journal_page_first 112
_journal_name_full 'Izv.Akad.Nauk SSSR,Ser.Khim.(Russ.)(Russ.Chem.Bull.) '
loop_
_publ_author_name
"T.A.Berezina"
"V.A.Reznikov"
"L.B.Volodarsky"
"I.Yu.Bagryanskaya"
"Yu.V.Gatilov"
_chemical_name_systematic
;
1-(2,5-Dimethyl-5-nitro-3-azahex-2-ene-4-oxy)-2,2,5,5-tetramethyl-3-imidazolin
e-3-oxide
;
_chemical_melting_point 396.15
_cell_volume   1745.903
_exptl_crystal_colour 'colorless'
_exptl_crystal_density_diffrn 1.196
_exptl_special_details
;
Melting point range 396.15-397.15K

;
_exptl_crystal_description 'plates'
_diffrn_ambient_temperature ?
_diffrn_special_details
;
The study was carried out at room temperature,in the range 283-303K

;
#These two values have been output from a single CSD field.
_refine_ls_R_factor_gt 0.0555
_refine_ls_wR_factor_gt 0.0555
_symmetry_cell_setting monoclinic
_symmetry_space_group_name_H-M 'P 21/n'
_symmetry_Int_Tables_number 14
loop_
_symmetry_equiv_pos_site_id
_symmetry_equiv_pos_as_xyz
1 x,y,z
2 1/2+x,1/2-y,1/2+z
3 -x,-y,-z
4 -1/2-x,-1/2+y,-1/2-z
_cell_length_a 13.369(3)
_cell_length_b 9.363(2)
_cell_length_c 14.733(3)
_cell_angle_alpha 90
_cell_angle_beta 108.79(2)
_cell_angle_gamma 90
_cell_formula_units_Z 4
loop_
_atom_type_symbol
_atom_type_radius_bond
C 0.68
H 0.23
N 0.68
O 0.68
loop_
_atom_site_label
_atom_site_type_symbol
_atom_site_fract_x
_atom_site_fract_y
_atom_site_fract_z
N1 N 0.7507(2) 0.2106(3) 0.9649(2)
C1 C 0.8403(3) 0.3105(3) 0.9931(2)
N2 N 0.7921(3) 0.4338(3) 0.9286(2)
O1 O 0.8516(2) 0.5320(3) 0.9131(2)
C2 C 0.6919(3) 0.4242(4) 0.8965(3)
H1 H 0.6490(3) 0.4936(4) 0.8579(3)
C3 C 0.6497(3) 0.2924(4) 0.9261(3)
O2 O 0.7505(2) 0.1267(2) 1.04661(14)
C4 C 0.6812(3) -0.1187(4) 0.8775(3)
N3 N 0.6755(2) -0.0782(3) 0.9574(2)
C5 C 0.7676(2) -0.0205(3) 1.0290(2)
H2 H 0.8308(2) -0.0319(3) 1.0097(2)
C6 C 0.7809(3) -0.0960(4) 1.1244(2)
N4 N 0.8812(3) -0.0334(3) 1.1969(2)
O3 O 0.8766(3) 0.0022(4) 1.2746(2)
O4 O 0.9598(2) -0.0230(3) 1.1742(2)
C7 C 0.8047(4) -0.2536(4) 1.1166(3)
H3 H 0.8641(4) -0.2632(4) 1.0940(3)
H4 H 0.7442(4) -0.2994(4) 1.0724(3)
H5 H 0.8207(4) -0.2977(4) 1.1785(3)
C8 C 0.6885(3) -0.0720(6) 1.1594(3)
H6 H 0.6768(3) 0.0287(6) 1.1631(3)
H7 H 0.7030(3) -0.1138(6) 1.2219(3)
H8 H 0.6266(3) -0.1155(6) 1.1158(3)
C9 C 0.5803(4) -0.1747(5) 0.8064(3)
H9 H 0.5248(4) -0.1719(5) 0.8346(3)
H10 H 0.5908(4) -0.2714(5) 0.7898(3)
H11 H 0.5612(4) -0.1165(5) 0.7498(3)
C10 C 0.7745(4) -0.1171(6) 0.8425(3)
H12 H 0.8348(4) -0.0801(6) 0.8919(3)
H13 H 0.7594(4) -0.0576(6) 0.7866(3)
H14 H 0.7891(4) -0.2125(6) 0.8266(3)
C11 C 0.8755(4) 0.3651(5) 1.0955(3)
H15 H 0.9342(4) 0.4291(5) 1.1050(3)
H16 H 0.8967(4) 0.2860(5) 1.1389(3)
H17 H 0.8182(4) 0.4148(5) 1.1074(3)
C12 C 0.9322(3) 0.2519(5) 0.9664(4)
H18 H 0.9898(3) 0.3185(5) 0.9853(4)
H19 H 0.9110(3) 0.2375(5) 0.8983(4)
H20 H 0.9541(3) 0.1626(5) 0.9986(4)
C13 C 0.5934(4) 0.3224(6) 0.9989(4)
H21 H 0.5673(4) 0.2345(6) 1.0161(4)
H22 H 0.5354(4) 0.3863(6) 0.9713(4)
H23 H 0.6419(4) 0.3653(6) 1.0550(4)
C14 C 0.5753(3) 0.2141(5) 0.8407(3)
H24 H 0.5494(3) 0.1294(5) 0.8624(3)
H25 H 0.6124(3) 0.1883(5) 0.7972(3)
H26 H 0.5169(3) 0.2751(5) 0.8086(3)
#END
