
#######################################################################
#
#                 Cambridge Crystallographic Data Centre
#                                CCDC
#
#######################################################################
#
# If this CIF has been generated from an entry in the Cambridge
# Structural Database, then it will include bibliographic, chemical,
# crystal, experimental, refinement or atomic coordinate data resulting
# from the CCDC's data processing and validation procedures.
#
#######################################################################

data_CSD_CIF_WITTAW
_audit_creation_date 2014-03-04
_audit_creation_method CSD-ConQuest-V1
_database_code_CSD WITTAW
_database_code_depnum_ccdc_archive 'CCDC 971284'
_chemical_formula_sum 'C18 H14 N2 O3'
_chemical_formula_moiety
;
C18 H14 N2 O3
;
_journal_coden_Cambridge 1336
_journal_volume 16
_journal_year 2014
_journal_page_first 1104
_journal_name_full 'Org.Lett. '
loop_
_publ_author_name
"Xin-Qi Hao"
"Li-Juan Chen"
"Baozeng Ren"
"Liu-Yan Li"
"Xin-Yan Yang"
"Jun-Fang Gong"
"Jun-Long Niu"
"Mao-Ping Song"
_chemical_name_systematic
;
N-(1-oxidopyridin-2-yl)-2-phenoxybenzamide
;
_cell_volume    746.488
_exptl_crystal_density_diffrn 1.363
_diffrn_ambient_temperature 291.1
#These two values have been output from a single CSD field.
_refine_ls_R_factor_gt 0.0445
_refine_ls_wR_factor_gt 0.0445
_symmetry_cell_setting triclinic
_symmetry_space_group_name_H-M 'P -1'
_symmetry_Int_Tables_number 2
loop_
_symmetry_equiv_pos_site_id
_symmetry_equiv_pos_as_xyz
1 x,y,z
2 -x,-y,-z
_cell_length_a 6.0877(3)
_cell_length_b 10.9989(8)
_cell_length_c 11.2984(9)
_cell_angle_alpha 83.290(6)
_cell_angle_beta 87.571(5)
_cell_angle_gamma 83.717(6)
_cell_formula_units_Z 2
loop_
_atom_type_symbol
_atom_type_radius_bond
C 0.68
H 0.23
N 0.68
O 0.68
loop_
_atom_site_label
_atom_site_type_symbol
_atom_site_fract_x
_atom_site_fract_y
_atom_site_fract_z
O1 O 0.37668(18) 0.42510(9) 0.61878(11)
O2 O 0.1358(2) 0.0466(1) 0.78782(13)
O3 O -0.0793(2) 0.42011(9) 0.76299(13)
N1 N 0.4869(2) 0.31928(11) 0.60030(11)
N2 N 0.2113(2) 0.23820(11) 0.71388(12)
C1 C 0.6778(3) 0.31470(15) 0.53433(15)
H1 H 0.73250 0.38740 0.50160
C2 C 0.7912(3) 0.20352(17) 0.51550(16)
H2 H 0.92240 0.20090 0.47020
C3 C 0.7105(3) 0.09589(16) 0.56369(17)
H3 H 0.78680 0.02040 0.55060
C4 C 0.5169(3) 0.10005(14) 0.63122(16)
H4 H 0.46200 0.02750 0.66390
C5 C 0.4045(2) 0.21267(13) 0.65021(14)
C6 C 0.0866(2) 0.15785(13) 0.78039(15)
C7 C -0.1150(2) 0.21341(13) 0.84346(14)
C8 C -0.2345(3) 0.13066(14) 0.91623(16)
H5 H -0.18500 0.04720 0.92250
C9 C -0.4231(3) 0.16890(16) 0.97888(17)
H6 H -0.49930 0.11180 1.02670
C10 C -0.4984(3) 0.29214(16) 0.97033(16)
H7 H -0.62620 0.31840 1.01230
C11 C -0.3848(3) 0.37701(15) 0.89963(16)
H8 H -0.43590 0.46020 0.89430
C12 C -0.1950(2) 0.33824(13) 0.83681(14)
C13 C -0.1182(3) 0.54768(13) 0.76742(15)
C14 C -0.2921(3) 0.61454(14) 0.70868(16)
H9 H -0.39240 0.57580 0.67030
C15 C -0.3148(3) 0.74099(15) 0.70791(16)
H10 H -0.43310 0.78760 0.66930
C16 C -0.1663(3) 0.79904(15) 0.76296(16)
H11 H -0.18410 0.88430 0.76160
C17 C 0.0076(3) 0.73155(18) 0.81972(18)
H12 H 0.10970 0.77080 0.85620
C18 C 0.0325(3) 0.60431(17) 0.82309(18)
H13 H 0.14980 0.55780 0.86260
H14 H 0.168(3) 0.3185(16) 0.7103(14)
#END
