
#######################################################################
#
#                 Cambridge Crystallographic Data Centre
#                                CCDC
#
#######################################################################
#
# If this CIF has been generated from an entry in the Cambridge
# Structural Database, then it will include bibliographic, chemical,
# crystal, experimental, refinement or atomic coordinate data resulting
# from the CCDC's data processing and validation procedures.
#
#######################################################################

data_CSD_CIF_WIWMAQ
_audit_creation_date 2000-11-09
_audit_creation_method CSD-ConQuest-V1
_database_code_CSD WIWMAQ
_database_code_depnum_ccdc_archive 'CCDC 149702'
_database_code_depnum_ccdc_journal 186/2071
_chemical_formula_sum 'C44 H47 N1 O14'
_chemical_formula_moiety
;
C44 H47 N1 O14
;
_journal_coden_Cambridge 186
_journal_year 2000
_journal_page_first 2721
_journal_name_full 'J.Chem.Soc.,Dalton Trans. '
loop_
_publ_author_name
"J.B.Cooper"
"M.G.B.Drew"
"P.D.Beer"
_chemical_name_systematic
;
25,26,27,28-tetrakis((Ethoxycarbonyl)methoxy)-17-nitrocalix(4)arene
;
_cell_volume   4126.580
_exptl_crystal_colour 'yellow'
_exptl_crystal_density_diffrn 1.31
_exptl_special_details
;
cone conformation

;
_exptl_crystal_preparation 'ethanol'
_diffrn_ambient_temperature ?
_diffrn_special_details
;
The study was carried out at room temperature,in the range 283-303K

;
#These two values have been output from a single CSD field.
_refine_ls_R_factor_gt 0.0843
_refine_ls_wR_factor_gt 0.0843
_symmetry_cell_setting monoclinic
_symmetry_space_group_name_H-M 'P 21/n'
_symmetry_Int_Tables_number 14
loop_
_symmetry_equiv_pos_site_id
_symmetry_equiv_pos_as_xyz
1 x,y,z
2 1/2+x,1/2-y,1/2+z
3 -x,-y,-z
4 -1/2-x,-1/2+y,-1/2-z
_cell_length_a 14.868(17)
_cell_length_b 14.587(18)
_cell_length_c 20.29(2)
_cell_angle_alpha 90
_cell_angle_beta 110.322(10)
_cell_angle_gamma 90
_cell_formula_units_Z 4
loop_
_atom_type_symbol
_atom_type_radius_bond
C 0.68
H 0.23
N 0.68
O 0.68
loop_
_atom_site_label
_atom_site_type_symbol
_atom_site_fract_x
_atom_site_fract_y
_atom_site_fract_z
C1 C -0.1684(3) 0.1934(4) 0.1803(2)
C2 C -0.2452(3) 0.2365(3) 0.1905(2)
H1 H -0.28490 0.27490 0.15590
C3 C -0.2626(3) 0.2225(3) 0.2520(2)
C4 C -0.2034(3) 0.1673(3) 0.3055(2)
H2 H -0.21610 0.16030 0.34700
C5 C -0.1266(3) 0.1233(3) 0.2972(3)
C6 C -0.1112(3) 0.1362(4) 0.2330(3)
C7 C -0.0596(4) 0.0686(4) 0.3572(3)
H3 H -0.00420 0.04990 0.34570
H4 H -0.09200 0.01380 0.36420
C8 C -0.0267(4) 0.1245(4) 0.4244(3)
C9 C -0.0530(4) 0.1019(4) 0.4823(3)
H5 H -0.08810 0.04880 0.48130
C10 C -0.0272(4) 0.1582(5) 0.5412(3)
H6 H -0.04100 0.14070 0.58080
C11 C 0.0184(4) 0.2392(5) 0.5406(3)
H7 H 0.03120 0.27830 0.57900
C12 C 0.0465(3) 0.2655(4) 0.4847(2)
C13 C 0.0255(3) 0.2044(4) 0.4281(2)
C14 C 0.0811(4) 0.3620(4) 0.4814(2)
H8 H 0.14410 0.36020 0.47720
H9 H 0.08670 0.39390 0.52460
C15 C 0.0126(4) 0.4138(3) 0.4195(3)
C16 C -0.0838(4) 0.4200(4) 0.4137(3)
H10 H -0.10370 0.39730 0.44920
C17 C -0.1496(4) 0.4604(4) 0.3543(3)
H11 H -0.21270 0.46870 0.35180
C18 C -0.1227(4) 0.4880(4) 0.2996(3)
H12 H -0.16890 0.51030 0.25890
C19 C -0.0274(4) 0.4832(3) 0.3037(2)
C20 C 0.0402(4) 0.4488(3) 0.3660(2)
C21 C 0.0002(4) 0.5075(4) 0.2402(2)
H13 H -0.00350 0.57340 0.23330
H14 H 0.06580 0.48860 0.24870
C22 C -0.0663(4) 0.4603(4) 0.1744(3)
C23 C -0.1382(4) 0.5095(5) 0.1249(3)
H15 H -0.14100 0.57280 0.12980
C24 C -0.2056(5) 0.4669(6) 0.0688(3)
H16 H -0.25130 0.50110 0.03460
C25 C -0.2043(4) 0.3722(6) 0.0640(3)
H17 H -0.25150 0.34280 0.02730
C26 C -0.1341(4) 0.3202(4) 0.1128(2)
C27 C -0.0615(4) 0.3677(4) 0.1646(2)
C28 C -0.1429(4) 0.2168(4) 0.1161(2)
H18 H -0.19240 0.19470 0.07390
H19 H -0.08270 0.18800 0.11940
O1 O -0.0312(2) 0.0958(3) 0.22488(19)
C29 C -0.0488(4) 0.0138(4) 0.1837(3)
H20 H -0.10910 0.01890 0.14470
H21 H -0.05310 -0.03820 0.21230
C30 C 0.0303(5) 0.0000(5) 0.1571(3)
O2 O 0.0948(4) 0.0516(4) 0.1633(3)
O3 O 0.0199(3) -0.0784(3) 0.1230(3)
C31 C 0.0943(6) -0.1024(7) 0.0914(6)
H22 H 0.11760 -0.04640 0.07700
H23 H 0.14810 -0.13170 0.12680
C32 C 0.0617(9) -0.1566(12) 0.0373(6)
H24 H 0.03420 -0.21020 0.05030
H25 H 0.11330 -0.17460 0.02190
H26 H 0.01350 -0.12520 -0.00010
O4 O 0.0474(2) 0.2267(2) 0.36897(15)
C33 C 0.1450(4) 0.2354(4) 0.3763(3)
H27 H 0.17950 0.26420 0.42110
H28 H 0.15030 0.27480 0.33940
C34 C 0.1908(5) 0.1432(5) 0.3727(3)
O5 O 0.1640(3) 0.0696(3) 0.3793(2)
O6 O 0.2719(4) 0.1609(4) 0.3613(4)
C35 C 0.3273(10) 0.0844(8) 0.3531(9)
H29 H 0.28430 0.03440 0.33150
H30 H 0.36060 0.10160 0.32140
C36 C 0.3934(13) 0.0544(11) 0.4152(8)
H31 H 0.43570 0.10380 0.43740
H32 H 0.42990 0.00490 0.40590
H33 H 0.36070 0.03330 0.44570
O7 O 0.1372(2) 0.4466(2) 0.37277(17)
C37 C 0.1798(4) 0.5338(4) 0.3786(3)
H34 H 0.13090 0.57870 0.35540
H35 H 0.22650 0.53330 0.35510
C38 C 0.2287(4) 0.5613(5) 0.4547(3)
O8 O 0.2557(3) 0.5118(3) 0.5044(2)
O9 O 0.2406(3) 0.6511(3) 0.4575(2)
C39 C 0.2915(6) 0.6920(6) 0.5252(4)
H36 H 0.34480 0.65330 0.55180
H37 H 0.24890 0.69900 0.55180
C40 C 0.3261(8) 0.7802(7) 0.5128(4)
H38 H 0.37220 0.77210 0.48990
H39 H 0.35570 0.81100 0.55680
H40 H 0.27330 0.81620 0.48340
N1 N -0.3437(3) 0.2702(4) 0.2616(3)
O10 O -0.3852(4) 0.3297(4) 0.2188(3)
O11 O -0.3660(3) 0.2505(3) 0.3122(2)
O12 O 0.0128(2) 0.3182(2) 0.21247(16)
C41 C 0.0773(4) 0.2757(4) 0.1836(3)
H41 H 0.04830 0.27500 0.13280
H42 H 0.08760 0.21260 0.19960
C42 C 0.1719(5) 0.3237(5) 0.2040(3)
O13 O 0.1972(3) 0.3871(4) 0.2425(3)
O14 O 0.2274(4) 0.2844(5) 0.1756(4)
C43 C 0.3201(9) 0.3312(11) 0.1860(8)
H43 H 0.32680 0.34580 0.14120
H44 H 0.32560 0.38720 0.21290
C44 C 0.3759(12) 0.2786(12) 0.2163(12)
H45 H 0.35130 0.21790 0.20280
H46 H 0.38970 0.28660 0.26580
H47 H 0.43350 0.28690 0.20580
#END
