
#######################################################################
#
#                 Cambridge Crystallographic Data Centre
#                                CCDC
#
#######################################################################
#
# If this CIF has been generated from an entry in the Cambridge
# Structural Database, then it will include bibliographic, chemical,
# crystal, experimental, refinement or atomic coordinate data resulting
# from the CCDC's data processing and validation procedures.
#
#######################################################################

data_CSD_CIF_WIWZAE
_audit_creation_date 2008-07-15
_audit_creation_method CSD-ConQuest-V1
_database_code_CSD WIWZAE
_database_code_depnum_ccdc_archive 'CCDC 663474'
_chemical_formula_sum 'C19 H22 N2 O4'
_chemical_formula_moiety
;
C19 H22 N2 O4
;
_journal_coden_Cambridge 16
_journal_volume 64
_journal_year 2008
_journal_page_first 1388
_journal_name_full 'Tetrahedron '
loop_
_publ_author_name
"S.Tanaka"
"Y.Oguma"
"Y.Tanaka"
"H.Echizen"
"H.Masu"
"K.Yamaguchi"
"K.Kishikawa"
"S.Kohmoto"
"M.Yamamoto"
_chemical_name_systematic
;
erythro-(1E)-2-aza-1,3-bis(4-methoxyphenyl)-4-nitrohex-1-ene
;
_chemical_melting_point 358.15
_cell_volume   7439.302
_exptl_crystal_colour 'colorless'
_exptl_crystal_density_diffrn 1.223
_exptl_special_details
;
Melting point range 358.15-359.15K

;
_exptl_crystal_description 'prismatic'
_diffrn_ambient_temperature 298.1
#These two values have been output from a single CSD field.
_refine_ls_R_factor_gt 0.0724
_refine_ls_wR_factor_gt 0.0724
_symmetry_cell_setting orthorhombic
_symmetry_space_group_name_H-M 'P b c a'
_symmetry_Int_Tables_number 61
loop_
_symmetry_equiv_pos_site_id
_symmetry_equiv_pos_as_xyz
1 x,y,z
2 1/2+x,1/2-y,-z
3 -x,1/2+y,1/2-z
4 1/2-x,-y,1/2+z
5 -x,-y,-z
6 -1/2-x,-1/2+y,z
7 x,-1/2-y,-1/2+z
8 -1/2+x,y,-1/2-z
_cell_length_a 21.8186(16)
_cell_length_b 42.386(11)
_cell_length_c 8.0442(8)
_cell_angle_alpha 90
_cell_angle_beta 90
_cell_angle_gamma 90
_cell_formula_units_Z 16
loop_
_atom_type_symbol
_atom_type_radius_bond
C 0.68
H 0.23
N 0.68
O 0.68
loop_
_atom_site_label
_atom_site_type_symbol
_atom_site_fract_x
_atom_site_fract_y
_atom_site_fract_z
O1 O 0.11780(19) 0.08285(11) 1.1153(4)
O2 O 0.08854(17) 0.04147(9) 0.9845(5)
O3 O -0.11669(12) 0.21722(6) 0.2490(3)
O4 O 0.25619(12) 0.02651(6) 0.4637(3)
O5 O 0.19397(13) 0.16986(8) 0.6288(3)
O6 O 0.24390(14) 0.21093(6) 0.5499(4)
O7 O 0.46205(12) 0.03449(6) -0.1735(3)
O8 O 0.09203(12) 0.22158(6) -0.0531(3)
N1 N 0.08848(18) 0.06962(11) 1.0074(5)
N2 N 0.05346(12) 0.12609(6) 0.6683(3)
N3 N 0.23541(14) 0.18247(8) 0.5536(3)
N4 N 0.28997(12) 0.12571(6) 0.2342(3)
C1 C 0.09364(14) 0.11036(8) 0.7893(4)
C2 C 0.05000(16) 0.08938(8) 0.8939(4)
C3 C 0.00390(19) 0.10727(9) 0.9985(5)
C4 C -0.0387(2) 0.08595(11) 1.0951(6)
C5 C 0.05002(13) 0.15585(8) 0.6709(4)
C6 C 0.00949(13) 0.17276(6) 0.5564(4)
C7 C -0.00286(18) 0.20462(8) 0.5787(5)
C8 C -0.04406(18) 0.22044(8) 0.4783(5)
C9 C -0.07354(16) 0.20448(8) 0.3537(4)
C10 C -0.06058(16) 0.17266(8) 0.3263(4)
C11 C -0.01960(14) 0.15741(8) 0.4267(4)
C12 C -0.1450(2) 0.24597(10) 0.2983(6)
C13 C 0.13954(13) 0.09000(6) 0.6996(4)
C14 C 0.19643(16) 0.08371(9) 0.7687(4)
C15 C 0.23674(17) 0.06261(9) 0.6958(5)
C16 C 0.22103(17) 0.04811(9) 0.5486(5)
C17 C 0.16547(16) 0.05510(8) 0.4739(4)
C18 C 0.12551(16) 0.07552(8) 0.5492(4)
C19 C 0.3121(2) 0.01683(12) 0.5402(7)
C20 C 0.24314(14) 0.14159(6) 0.3357(4)
C21 C 0.27970(14) 0.16178(6) 0.4601(4)
C22 C 0.31685(18) 0.14290(8) 0.5848(5)
C23 C 0.3570(2) 0.16324(10) 0.6966(5)
C24 C 0.28344(14) 0.09658(8) 0.2061(4)
C25 C 0.32754(14) 0.07943(6) 0.1035(4)
C26 C 0.37250(17) 0.09550(8) 0.0170(4)
C27 C 0.41598(19) 0.08013(9) -0.0736(5)
C28 C 0.41591(17) 0.04731(9) -0.0820(4)
C29 C 0.37134(18) 0.03101(8) 0.0006(5)
C30 C 0.32799(18) 0.04692(8) 0.0924(5)
C31 C 0.4604(2) 0.00152(9) -0.2057(6)
C32 C 0.20377(14) 0.16220(6) 0.2251(4)
C33 C 0.14037(16) 0.16171(8) 0.2383(4)
C34 C 0.10501(16) 0.18180(8) 0.1433(4)
C35 C 0.13187(16) 0.20241(8) 0.0320(4)
C36 C 0.19457(17) 0.20273(9) 0.0154(4)
C37 C 0.22964(17) 0.18278(9) 0.1114(4)
C38 C 0.1184(2) 0.24541(9) -0.1564(5)
H1 H 0.11430 0.12590 0.85980
H2 H 0.02770 0.07530 0.81860
H3 H 0.02560 0.12080 1.07610
H4 H -0.02010 0.12070 0.92600
H5 H -0.07420 0.08140 1.02870
H6 H -0.05100 0.09630 1.19580
H7 H -0.01800 0.06660 1.12170
H8 H 0.07350 0.16710 0.74680
H9 H 0.01690 0.21550 0.66360
H10 H -0.05150 0.24180 0.49500
H11 H -0.07970 0.16190 0.24000
H12 H -0.01100 0.13620 0.40710
H13 H -0.18130 0.24120 0.36070
H14 H -0.15580 0.25810 0.20190
H15 H -0.11730 0.25790 0.36640
H16 H 0.20760 0.09380 0.86670
H17 H 0.27440 0.05840 0.74550
H18 H 0.15520 0.04600 0.37250
H19 H 0.08800 0.07960 0.49900
H20 H 0.34480 0.03050 0.50590
H21 H 0.32110 -0.00440 0.50670
H22 H 0.30790 0.01770 0.65890
H23 H 0.21780 0.12610 0.39420
H24 H 0.30780 0.17540 0.39760
H25 H 0.34250 0.12810 0.52500
H26 H 0.28900 0.13080 0.65390
H27 H 0.39670 0.16560 0.64630
H28 H 0.36140 0.15320 0.80280
H29 H 0.33860 0.18360 0.71120
H30 H 0.25020 0.08590 0.25150
H31 H 0.37310 0.11740 0.02030
H32 H 0.44590 0.09160 -0.12970
H33 H 0.37040 0.00910 -0.00480
H34 H 0.29810 0.03540 0.14810
H35 H 0.48180 -0.00950 -0.11910
H36 H 0.47990 -0.00260 -0.31050
H37 H 0.41870 -0.00560 -0.20980
H38 H 0.12170 0.14780 0.31220
H39 H 0.06260 0.18130 0.15400
H40 H 0.21320 0.21640 -0.05980
H41 H 0.27200 0.18310 0.09890
H42 H 0.12370 0.26440 -0.09290
H43 H 0.09140 0.24950 -0.24820
H44 H 0.15730 0.23840 -0.19750
#END
