
#######################################################################
#
#                 Cambridge Crystallographic Data Centre
#                                CCDC
#
#######################################################################
#
# If this CIF has been generated from an entry in the Cambridge
# Structural Database, then it will include bibliographic, chemical,
# crystal, experimental, refinement or atomic coordinate data resulting
# from the CCDC's data processing and validation procedures.
#
#######################################################################

data_CSD_CIF_WIXBUB
_audit_creation_date 2008-07-15
_audit_creation_method CSD-ConQuest-V1
_database_code_CSD WIXBUB
_database_code_depnum_ccdc_archive 'CCDC 651835'
_chemical_formula_sum 'C16 H16 N2 O5'
_chemical_formula_moiety
;
C16 H16 N2 O5
;
_journal_coden_Cambridge 16
_journal_volume 64
_journal_year 2008
_journal_page_first 2972
_journal_name_full 'Tetrahedron '
loop_
_publ_author_name
"N.P.Selvam"
"P.T.Perumal"
_chemical_name_systematic
;
N-((2-hydroxy-5-methoxyphenyl)-(3-nitrophenyl)methyl)acetamide
;
_cell_volume   1609.106
_exptl_crystal_density_diffrn 1.306
_diffrn_ambient_temperature 273
#These two values have been output from a single CSD field.
_refine_ls_R_factor_gt 0.0586
_refine_ls_wR_factor_gt 0.0586
_symmetry_cell_setting monoclinic
_symmetry_space_group_name_H-M 'P 21/c'
_symmetry_Int_Tables_number 14
loop_
_symmetry_equiv_pos_site_id
_symmetry_equiv_pos_as_xyz
1 x,y,z
2 -x,1/2+y,1/2-z
3 -x,-y,-z
4 x,-1/2-y,-1/2+z
_cell_length_a 15.3351(3)
_cell_length_b 8.1327(2)
_cell_length_c 14.5308(3)
_cell_angle_alpha 90
_cell_angle_beta 117.387(1)
_cell_angle_gamma 90
_cell_formula_units_Z 4
loop_
_atom_type_symbol
_atom_type_radius_bond
C 0.68
H 0.23
N 0.68
O 0.68
loop_
_atom_site_label
_atom_site_type_symbol
_atom_site_fract_x
_atom_site_fract_y
_atom_site_fract_z
N1 N 0.17158(8) 0.36002(13) 0.27655(8)
H1 H 0.12630 0.35090 0.21360
C1 C 0.6622(2) 0.1571(5) 0.4533(2)
H2 H 0.63980 0.04520 0.44300
H3 H 0.72100 0.16610 0.51800
H4 H 0.67580 0.19000 0.39780
C2 C 0.50271(11) 0.2718(2) 0.36564(11)
C3 C 0.48690(12) 0.2097(2) 0.27027(12)
H5 H 0.53680 0.15350 0.26420
C4 C 0.39704(11) 0.23144(19) 0.18441(11)
H6 H 0.38700 0.18970 0.12070
C5 C 0.32151(9) 0.31461(14) 0.19181(9)
C6 C 0.33690(9) 0.37717(13) 0.28797(8)
C7 C 0.42731(10) 0.35452(16) 0.37359(9)
H7 H 0.43770 0.39550 0.43760
C8 C 0.25559(8) 0.46636(13) 0.29997(8)
H8 H 0.28260 0.49490 0.37350
C9 C 0.22775(9) 0.62731(13) 0.24099(9)
C10 C 0.28652(13) 0.76328(17) 0.28823(12)
H9 H 0.33930 0.75230 0.35400
C11 C 0.26796(17) 0.9142(2) 0.23919(16)
H10 H 0.30730 1.00410 0.27280
C12 C 0.19123(16) 0.93231(19) 0.14036(15)
H11 H 0.17820 1.03310 0.10640
C13 C 0.13503(12) 0.79660(16) 0.09428(11)
N2 N 0.05729(11) 0.81020(16) -0.01320(11)
C14 C 0.15013(9) 0.64482(14) 0.14219(9)
H12 H 0.10920 0.55650 0.10890
C15 C 0.16393(11) 0.27631(19) 0.35186(10)
C16 C 0.07688(16) 0.1668(3) 0.32117(16)
H13 H 0.08890 0.09070 0.37620
H14 H 0.06560 0.10720 0.25970
H15 H 0.02010 0.23220 0.30790
O1 O 0.23073(7) 0.33538(12) 0.11022(7)
H16 H 0.23040 0.29900 0.05740
O2 O 0.58950(9) 0.2591(2) 0.4551(1)
O3 O 0.22596(10) 0.29187(19) 0.44249(8)
O4 O 0.05141(14) 0.93728(17) -0.06012(12)
O5 O 0.00227(11) 0.69635(17) -0.05149(11)
#END
