
#######################################################################
#
#                 Cambridge Crystallographic Data Centre
#                                CCDC
#
#######################################################################
#
# If this CIF has been generated from an entry in the Cambridge
# Structural Database, then it will include bibliographic, chemical,
# crystal, experimental, refinement or atomic coordinate data resulting
# from the CCDC's data processing and validation procedures.
#
#######################################################################

data_CSD_CIF_WIXBUB01
_audit_creation_date 2009-05-28
_audit_creation_method CSD-ConQuest-V1
_database_code_CSD WIXBUB01
_database_code_depnum_ccdc_archive 'CCDC 726654'
_chemical_formula_sum 'C16 H16 N2 O5'
_chemical_formula_moiety
;
C16 H16 N2 O5
;
_journal_coeditor_code "IUCr BT2901"
_journal_coden_Cambridge 1370
_journal_volume 65
_journal_year 2009
_journal_page_first o829
_journal_name_full 'Acta Crystallogr.,Sect.E:Struct.Rep.Online '
loop_
_publ_author_name
"M.NizamMohideen"
"S.Thenmozhi"
"A.SubbiahPandi"
"N.P.Selvam"
"P.T.Perumal"
_chemical_name_systematic
;
N-[(2-Hydroxy-5-methoxyphenyl)(3-nitrophenyl)methyl]acetamide
;
_cell_volume   1609.106
_exptl_crystal_colour 'colorless'
_exptl_crystal_density_diffrn 1.306
_exptl_crystal_description 'block'
_diffrn_ambient_temperature 293
_refine_special_details
;
The methoxy group is disordered over two sites with occupancies 0.80:0.20.

;
#These two values have been output from a single CSD field.
_refine_ls_R_factor_gt 0.0575
_refine_ls_wR_factor_gt 0.0575
_symmetry_cell_setting monoclinic
_symmetry_space_group_name_H-M 'P 21/c'
_symmetry_Int_Tables_number 14
loop_
_symmetry_equiv_pos_site_id
_symmetry_equiv_pos_as_xyz
1 x,y,z
2 -x,1/2+y,1/2-z
3 -x,-y,-z
4 x,-1/2-y,-1/2+z
_cell_length_a 15.3351(3)
_cell_length_b 8.1327(2)
_cell_length_c 14.5308(3)
_cell_angle_alpha 90
_cell_angle_beta 117.387(1)
_cell_angle_gamma 90
_cell_formula_units_Z 4
loop_
_atom_type_symbol
_atom_type_radius_bond
C 0.68
H 0.23
N 0.68
O 0.68
loop_
_atom_site_label
_atom_site_type_symbol
_atom_site_fract_x
_atom_site_fract_y
_atom_site_fract_z
C1 C 0.6664(8) 0.834(2) 0.4528(4)
H1 H 0.68540 0.78510 0.40440
H2 H 0.72180 0.83510 0.52060
H3 H 0.64440 0.94450 0.43160
C2 C 0.50275(11) 0.7283(2) 0.36557(11)
C3 C 0.48701(12) 0.7903(2) 0.27035(12)
H4 H 0.53690 0.84650 0.26430
C4 C 0.39705(12) 0.7686(2) 0.18441(11)
H5 H 0.38700 0.81020 0.12070
C5 C 0.32155(9) 0.68542(15) 0.19185(9)
C6 C 0.33683(9) 0.62281(13) 0.28794(8)
C7 C 0.42728(10) 0.64540(17) 0.37363(9)
H6 H 0.43770 0.60440 0.43760
C8 C 0.25554(8) 0.53368(14) 0.29997(8)
H7 H 0.28260 0.50520 0.37350
C9 C 0.22779(9) 0.37267(14) 0.24099(9)
C10 C 0.28657(13) 0.23670(18) 0.28828(12)
H8 H 0.33930 0.24770 0.35410
C11 C 0.26797(18) 0.0857(2) 0.23924(16)
H9 H 0.30720 -0.00420 0.27280
C12 C 0.19121(17) 0.0676(2) 0.14040(16)
H10 H 0.17820 -0.03320 0.10640
C13 C 0.13489(12) 0.20355(17) 0.09422(12)
C14 C 0.15003(9) 0.35523(14) 0.14216(10)
H11 H 0.10910 0.44360 0.10900
C15 C 0.16393(11) 0.7236(2) 0.35184(10)
C16 C 0.07682(16) 0.8327(3) 0.32137(16)
H12 H 0.01790 0.76840 0.28850
H13 H 0.07680 0.91510 0.27400
H14 H 0.07970 0.88480 0.38200
N1 N 0.17154(8) 0.64005(14) 0.27656(8)
H15 H 0.12630 0.64930 0.21360
N2 N 0.05722(11) 0.18961(17) -0.01317(11)
O1 O 0.58945(9) 0.7410(2) 0.45516(10)
O2 O 0.23072(7) 0.66466(13) 0.11020(7)
H16 H 0.22990 0.70380 0.05780
O3 O 0.05139(15) 0.06269(19) -0.06005(12)
O4 O 0.00217(11) 0.30376(18) -0.05160(11)
O5 O 0.22599(10) 0.7079(2) 0.44251(9)
C17? C 0.640(2) 0.888(2) 0.458(2)
H17? H 0.65960 0.88630 0.40430
H18? H 0.69700 0.89790 0.52430
H19? H 0.59740 0.98050 0.44790
#END
