
#######################################################################
#
#                 Cambridge Crystallographic Data Centre
#                                CCDC
#
#######################################################################
#
# If this CIF has been generated from an entry in the Cambridge
# Structural Database, then it will include bibliographic, chemical,
# crystal, experimental, refinement or atomic coordinate data resulting
# from the CCDC's data processing and validation procedures.
#
#######################################################################

data_CSD_CIF_WIXCAI
_audit_creation_date 2008-07-15
_audit_creation_method CSD-ConQuest-V1
_database_code_CSD WIXCAI
_database_code_depnum_ccdc_archive 'CCDC 651834'
_chemical_formula_sum 'C19 H16 N2 O4'
_chemical_formula_moiety
;
C19 H16 N2 O4
;
_journal_coden_Cambridge 16
_journal_volume 64
_journal_year 2008
_journal_page_first 2972
_journal_name_full 'Tetrahedron '
loop_
_publ_author_name
"N.P.Selvam"
"P.T.Perumal"
_chemical_name_systematic
;
N-((3-nitrophenyl)-(2-hydroxynapthalen-1-yl)methyl)acetamide
;
_cell_volume    820.269
_diffrn_ambient_temperature 273
#These two values have been output from a single CSD field.
_refine_ls_R_factor_gt 0.0462
_refine_ls_wR_factor_gt 0.0462
_symmetry_cell_setting triclinic
_symmetry_space_group_name_H-M 'P -1'
_symmetry_Int_Tables_number 2
loop_
_symmetry_equiv_pos_site_id
_symmetry_equiv_pos_as_xyz
1 x,y,z
2 -x,-y,-z
_cell_length_a 7.5261(4)
_cell_length_b 8.8635(5)
_cell_length_c 13.3008(7)
_cell_angle_alpha 74.720(3)
_cell_angle_beta 73.754(3)
_cell_angle_gamma 82.600(3)
_cell_formula_units_Z 2
loop_
_atom_type_symbol
_atom_type_radius_bond
C 0.68
H 0.23
N 0.68
O 0.68
loop_
_atom_site_label
_atom_site_type_symbol
_atom_site_fract_x
_atom_site_fract_y
_atom_site_fract_z
N1 N 0.2512(2) 0.2859(2) 0.70428(15)
H1 H 0.15550 0.34720 0.69560
N2 N 0.1035(4) 0.3205(3) 0.34440(19)
O1 O -0.11379(19) 0.22009(19) 0.73458(14)
H2 H -0.22600 0.23460 0.74180
O2 O 0.5337(2) 0.2608(3) 0.7303(2)
O3 O 0.0241(4) 0.4350(3) 0.3740(2)
O4 O 0.1220(5) 0.3047(3) 0.25453(19)
C1 C 0.2518(3) 0.1226(2) 0.70195(17)
H3 H 0.37250 0.07370 0.71110
C2 C 0.1808(3) 0.2238(3) 0.51794(18)
H4 H 0.14960 0.32350 0.53030
C3 C 0.2364(2) 0.1030(3) 0.59429(17)
C4 C 0.1058(3) 0.0336(2) 0.79516(17)
C5 C 0.1527(3) -0.1027(3) 0.86948(17)
C6 C 0.2787(3) -0.0447(3) 0.5731(2)
H5 H 0.31350 -0.12730 0.62490
C7 C 0.0078(3) -0.1847(3) 0.95216(19)
C8 C 0.1726(3) 0.1932(3) 0.42234(19)
C9 C -0.0778(3) 0.0866(3) 0.80596(17)
C10 C 0.2701(3) -0.0719(3) 0.4770(2)
H6 H 0.30010 -0.17160 0.46440
C11 C -0.2197(3) 0.0055(3) 0.8883(2)
H7 H -0.34280 0.04250 0.89450
C12 C 0.3749(4) -0.2929(3) 0.9427(2)
H8 H 0.49730 -0.32860 0.94050
C13 C 0.3938(3) 0.3433(3) 0.7194(2)
C14 C 0.2172(3) 0.0485(3) 0.3998(2)
H9 H 0.21190 0.03230 0.33450
C15 C 0.3376(3) -0.1627(3) 0.8678(2)
H10 H 0.43520 -0.11240 0.81480
C16 C -0.1769(3) -0.1263(3) 0.9583(2)
H11 H -0.27190 -0.17940 1.01180
C17 C 0.0543(5) -0.3206(3) 1.0260(2)
H12 H -0.04030 -0.37550 1.07880
C18 C 0.2322(5) -0.3730(4) 1.0221(2)
H13 H 0.25920 -0.46200 1.07220
C19 C 0.3762(4) 0.5126(3) 0.7214(3)
H14 H 0.41350 0.52370 0.78230
H15 H 0.24970 0.55160 0.72690
H16 H 0.45430 0.57100 0.65620
#END
