
#######################################################################
#
#                 Cambridge Crystallographic Data Centre
#                                CCDC
#
#######################################################################
#
# If this CIF has been generated from an entry in the Cambridge
# Structural Database, then it will include bibliographic, chemical,
# crystal, experimental, refinement or atomic coordinate data resulting
# from the CCDC's data processing and validation procedures.
#
#######################################################################

data_CSD_CIF_WIXCAI01
_audit_creation_date 2009-05-28
_audit_creation_method CSD-ConQuest-V1
_database_code_CSD WIXCAI01
_database_code_depnum_ccdc_archive 'CCDC 726632'
_chemical_formula_sum 'C19 H16 N2 O4'
_chemical_formula_moiety
;
C19 H16 N2 O4
;
_journal_coeditor_code "IUCr JH2076"
_journal_coden_Cambridge 1370
_journal_volume 65
_journal_year 2009
_journal_page_first o714
_journal_name_full 'Acta Crystallogr.,Sect.E:Struct.Rep.Online '
loop_
_publ_author_name
"M.NizamMohideen"
"A.SubbiahPandi"
"N.P.Selvam"
"P.T.Perumal"
_chemical_name_systematic
;
N-[(2-Hydroxy-1-naphthyl)(3-nitrophenyl)methyl]acetamide
;
_cell_volume    820.269
_exptl_crystal_colour 'colorless'
_exptl_crystal_density_diffrn 1.362
_exptl_crystal_description 'needle'
_exptl_crystal_preparation 'ethanol'
_diffrn_ambient_temperature 293
#These two values have been output from a single CSD field.
_refine_ls_R_factor_gt 0.0457
_refine_ls_wR_factor_gt 0.0457
_symmetry_cell_setting triclinic
_symmetry_space_group_name_H-M 'P -1'
_symmetry_Int_Tables_number 2
loop_
_symmetry_equiv_pos_site_id
_symmetry_equiv_pos_as_xyz
1 x,y,z
2 -x,-y,-z
_cell_length_a 7.5261(4)
_cell_length_b 8.8635(5)
_cell_length_c 13.3008(7)
_cell_angle_alpha 74.720(3)
_cell_angle_beta 73.754(3)
_cell_angle_gamma 82.600(3)
_cell_formula_units_Z 2
loop_
_atom_type_symbol
_atom_type_radius_bond
C 0.68
H 0.23
N 0.68
O 0.68
loop_
_atom_site_label
_atom_site_type_symbol
_atom_site_fract_x
_atom_site_fract_y
_atom_site_fract_z
O1 O 1.11375(16) 0.78003(16) 0.26550(11)
H1 H 1.22590 0.75870 0.25250
O2 O 0.9758(4) 0.5649(2) 0.62604(17)
O3 O 0.8781(4) 0.6954(3) 0.74538(16)
O4 O 0.46636(19) 0.7392(2) 0.26984(17)
N1 N 0.74868(19) 0.71417(18) 0.29573(12)
H2 H 0.84430 0.65280 0.30450
N2 N 0.8965(3) 0.6794(3) 0.65559(16)
C1 C 1.0777(2) 0.9135(2) 0.19395(14)
C2 C 1.2195(2) 0.9945(3) 0.11175(16)
H3 H 1.34250 0.95750 0.10560
C3 C 1.1769(3) 1.1262(3) 0.04174(17)
H4 H 1.27200 1.17930 -0.01170
C4 C 0.9922(3) 1.1848(2) 0.04788(15)
C5 C 0.9457(4) 1.3208(3) -0.02594(17)
H5 H 1.04020 1.37580 -0.07860
C6 C 0.7679(4) 1.3729(3) -0.0220(2)
H6 H 0.74080 1.46190 -0.07210
C7 C 0.6253(4) 1.2929(3) 0.05736(19)
H7 H 0.50290 1.32850 0.05950
C8 C 0.6626(3) 1.1628(2) 0.13215(17)
H8 H 0.56490 1.11260 0.18520
C9 C 0.8474(2) 1.1027(2) 0.13058(14)
C10 C 0.8943(2) 0.9665(2) 0.20492(14)
C11 C 0.7483(2) 0.8774(2) 0.29803(14)
H9 H 0.62760 0.92640 0.28890
C12 C 0.7637(2) 0.8970(2) 0.40573(14)
C13 C 0.7214(2) 1.0446(2) 0.42690(16)
H10 H 0.68650 1.12720 0.37510
C14 C 0.7299(3) 1.0718(3) 0.52306(17)
H11 H 0.69980 1.17150 0.53560
C15 C 0.7827(3) 0.9515(3) 0.60021(16)
H12 H 0.78800 0.96770 0.66560
C16 C 0.8275(3) 0.8069(2) 0.57761(15)
C17 C 0.8192(2) 0.7764(2) 0.48202(14)
H13 H 0.85040 0.67660 0.46970
C18 C 0.6061(2) 0.6567(2) 0.28056(16)
C19 C 0.6235(3) 0.4876(3) 0.2787(2)
H14 H 0.54500 0.42930 0.34380
H15 H 0.74990 0.44830 0.27340
H16 H 0.58660 0.47640 0.21760
#END
