
#######################################################################
#
#                 Cambridge Crystallographic Data Centre
#                                CCDC
#
#######################################################################
#
# If this CIF has been generated from an entry in the Cambridge
# Structural Database, then it will include bibliographic, chemical,
# crystal, experimental, refinement or atomic coordinate data resulting
# from the CCDC's data processing and validation procedures.
#
#######################################################################

data_CSD_CIF_WIYDUF
_audit_creation_date 2014-03-06
_audit_creation_method CSD-ConQuest-V1
_database_code_CSD WIYDUF
_database_code_depnum_ccdc_archive 'CCDC 930456'
_chemical_formula_sum 'C20 H20 N4 O5'
_chemical_formula_moiety
;
C20 H20 N4 O5
;
_journal_coden_Cambridge 10
_journal_volume 97
_journal_year 2014
_journal_page_first 245
_journal_name_full 'Helv.Chim.Acta '
loop_
_publ_author_name
"A.Novak"
"M.Stefanic"
"U.Groselj"
"S.Gobec"
"M.Hrast"
"M.Kasunic"
"B.Stanovnik"
"J.Svete"
_chemical_name_systematic
;
4-(((Benzyloxy)carbonyl)amino)-2-isopropylidene-3-(3-nitrophenyl)-5-oxopyrazol
idin-2-ium-1-ide
;
_cell_volume   1915.237
_exptl_crystal_colour 'colorless'
_exptl_crystal_density_diffrn 1.375
_exptl_crystal_description 'prism'
_diffrn_ambient_temperature 150
#These two values have been output from a single CSD field.
_refine_ls_R_factor_gt 0.0457
_refine_ls_wR_factor_gt 0.0457
_symmetry_cell_setting monoclinic
_symmetry_space_group_name_H-M 'P 21/n'
_symmetry_Int_Tables_number 14
loop_
_symmetry_equiv_pos_site_id
_symmetry_equiv_pos_as_xyz
1 x,y,z
2 1/2-x,1/2+y,1/2-z
3 -x,-y,-z
4 -1/2+x,-1/2-y,-1/2+z
_cell_length_a 15.5657(5)
_cell_length_b 8.2240(2)
_cell_length_c 15.9538(5)
_cell_angle_alpha 90
_cell_angle_beta 110.316(4)
_cell_angle_gamma 90
_cell_formula_units_Z 4
loop_
_atom_type_symbol
_atom_type_radius_bond
C 0.68
H 0.23
N 0.68
O 0.68
loop_
_atom_site_label
_atom_site_type_symbol
_atom_site_fract_x
_atom_site_fract_y
_atom_site_fract_z
C1 C 0.13654(13) 0.0529(2) 0.43608(13)
H1 H 0.17000 0.07410 0.39530
H2 H 0.12180 -0.06310 0.43480
H3 H 0.17460 0.08430 0.49690
C2 C 0.04998(12) 0.14976(19) 0.40745(10)
C3 C -0.04061(13) 0.0686(2) 0.38231(13)
H4 H -0.07020 0.09790 0.42540
H5 H -0.03230 -0.04950 0.38260
H6 H -0.07920 0.10400 0.32240
N1 N 0.05397(9) 0.30640(15) 0.40483(8)
C4 C 0.14039(10) 0.40036(18) 0.42026(10)
H7 H 0.18840 0.36500 0.47740
C5 C 0.10976(10) 0.57401(18) 0.42939(10)
H8 H 0.12480 0.64650 0.38610
C6 C 0.00553(10) 0.55890(18) 0.40270(9)
N2 N -0.02281(9) 0.40433(15) 0.38500(8)
O1 O -0.04508(8) 0.67539(13) 0.39959(7)
C7 C 0.17427(11) 0.37637(19) 0.34264(10)
C8 C 0.11508(12) 0.3428(2) 0.25658(11)
H9 H 0.05100 0.33540 0.24480
C9 C 0.14921(13) 0.3201(2) 0.18758(12)
H10 H 0.10820 0.29750 0.12900
C10 C 0.24184(13) 0.3301(2) 0.20334(12)
H11 H 0.26550 0.31330 0.15660
C11 C 0.29891(11) 0.3649(2) 0.28878(11)
C12 C 0.26711(11) 0.3895(2) 0.35889(11)
H12 H 0.30840 0.41480 0.41700
N3 N 0.39803(11) 0.3746(2) 0.30791(11)
O2 O 0.4268(1) 0.3503(3) 0.24687(10)
O3 O 0.44809(10) 0.4058(2) 0.38399(10)
N4 N 0.14848(9) 0.64069(16) 0.51841(9)
C13 C 0.23597(11) 0.69159(18) 0.54834(10)
O4 O 0.28542(8) 0.69529(14) 0.50374(8)
O5 O 0.26108(8) 0.73846(14) 0.63451(7)
C14 C 0.35311(12) 0.8058(2) 0.67254(12)
H13 H 0.39570 0.74030 0.65250
H14 H 0.37370 0.79940 0.73850
C15 C 0.35617(12) 0.9797(2) 0.64498(11)
C16 C 0.31577(15) 1.1011(3) 0.67917(13)
H15 H 0.28450 1.07360 0.71880
C17 C 0.32078(18) 1.2618(3) 0.65584(15)
H16 H 0.29210 1.34380 0.67880
C18 C 0.36695(17) 1.3036(3) 0.59959(16)
H17 H 0.37190 1.41450 0.58520
C19 C 0.40599(15) 1.1838(3) 0.56412(15)
H18 H 0.43680 1.21220 0.52420
C20 C 0.40055(13) 1.0217(3) 0.58628(13)
H19 H 0.42720 0.93970 0.56120
H20 H 0.1187(12) 0.632(2) 0.5556(12)
#END
