
#######################################################################
#
#                 Cambridge Crystallographic Data Centre
#                                CCDC
#
#######################################################################
#
# If this CIF has been generated from an entry in the Cambridge
# Structural Database, then it will include bibliographic, chemical,
# crystal, experimental, refinement or atomic coordinate data resulting
# from the CCDC's data processing and validation procedures.
#
#######################################################################

data_CSD_CIF_WIYRUS
_audit_creation_date 2008-07-15
_audit_creation_method CSD-ConQuest-V1
_database_code_CSD WIYRUS
_database_code_depnum_ccdc_archive 'CCDC 282839'
_chemical_formula_sum 'C13 H19 N1 O1'
_chemical_formula_moiety
;
C13 H19 N1 O1
;
_journal_coden_Cambridge 15
_journal_volume 84
_journal_year 2006
_journal_page_first 1456
_journal_name_full 'Can.J.Chem. '
loop_
_publ_author_name
"M.Harmata"
"P.Rashatasakhon"
"C.L.Barnes"
_chemical_name_systematic
;
7-methylenetricyclo[7.2.1.0^1,5^]dodecan-12-one oxime
;
_cell_volume   1139.566
_exptl_crystal_colour 'colorless'
_exptl_crystal_density_diffrn 1.196
_exptl_special_details
;
Not CCDC 282839-282845 and 282856 as published

;
_exptl_crystal_description 'plate'
_diffrn_ambient_temperature 173
#These two values have been output from a single CSD field.
_refine_ls_R_factor_gt 0.0469
_refine_ls_wR_factor_gt 0.0469
_symmetry_cell_setting monoclinic
_symmetry_space_group_name_H-M 'P 21/n'
_symmetry_Int_Tables_number 14
loop_
_symmetry_equiv_pos_site_id
_symmetry_equiv_pos_as_xyz
1 x,y,z
2 1/2-x,1/2+y,1/2-z
3 -x,-y,-z
4 -1/2+x,-1/2-y,-1/2+z
_cell_length_a 11.669(4)
_cell_length_b 6.846(2)
_cell_length_c 14.299(5)
_cell_angle_alpha 90
_cell_angle_beta 93.957(6)
_cell_angle_gamma 90
_cell_formula_units_Z 4
loop_
_atom_type_symbol
_atom_type_radius_bond
C 0.68
H 0.23
N 0.68
O 0.68
loop_
_atom_site_label
_atom_site_type_symbol
_atom_site_fract_x
_atom_site_fract_y
_atom_site_fract_z
O1 O 0.48450(9) 0.11141(17) 0.09943(7)
N1 N 0.4189(1) 0.16416(17) 0.01509(8)
C1 C 0.27349(12) 0.3896(2) -0.05174(9)
C2 C 0.14757(12) 0.3136(2) -0.03829(10)
H1 H 0.09760 0.43050 -0.03100
C3 C 0.13300(13) 0.1778(2) 0.04646(10)
H2 H 0.05510 0.12020 0.03990
H3 H 0.18880 0.06930 0.04400
C4 C 0.14929(13) 0.2740(2) 0.14251(10)
C5 C 0.27007(12) 0.3197(2) 0.18187(10)
H4 H 0.30940 0.19550 0.19940
H5 H 0.26550 0.39780 0.23980
C6 C 0.34367(12) 0.4325(2) 0.11395(9)
H6 H 0.42140 0.46000 0.14490
C7 C 0.28731(14) 0.6257(2) 0.0763(1)
H7 H 0.20890 0.63960 0.09790
H8 H 0.33370 0.73980 0.09850
C8 C 0.28310(14) 0.6107(2) -0.03109(10)
H9 H 0.35370 0.66550 -0.05540
H10 H 0.21570 0.68160 -0.06010
C9 C 0.35485(12) 0.3122(2) 0.02633(10)
C10 C 0.29831(14) 0.3299(2) -0.15213(10)
H11 H 0.34670 0.42880 -0.18100
H12 H 0.33780 0.20190 -0.15240
C11 C 0.17923(14) 0.3180(2) -0.20447(11)
H13 H 0.14830 0.44960 -0.22000
H14 H 0.18130 0.24030 -0.26270
C12 C 0.10918(15) 0.2156(3) -0.13264(11)
H15 H 0.12590 0.07380 -0.13070
H16 H 0.02590 0.23450 -0.14780
C13 C 0.05906(14) 0.3143(2) 0.19065(12)
H17 H 0.06960 0.37280 0.25090
H18 H -0.01620 0.28460 0.16490
H19 H 0.5297(17) 0.008(3) 0.0758(13)
#END
