
#######################################################################
#
#                 Cambridge Crystallographic Data Centre
#                                CCDC
#
#######################################################################
#
# If this CIF has been generated from an entry in the Cambridge
# Structural Database, then it will include bibliographic, chemical,
# crystal, experimental, refinement or atomic coordinate data resulting
# from the CCDC's data processing and validation procedures.
#
#######################################################################

data_CSD_CIF_WIYSIH
_audit_creation_date 2008-07-15
_audit_creation_method CSD-ConQuest-V1
_database_code_CSD WIYSIH
_database_code_depnum_ccdc_archive 'CCDC 282845'
_chemical_formula_sum 'C15 H23 N1 O1'
_chemical_formula_moiety
;
C15 H23 N1 O1
;
_journal_coden_Cambridge 15
_journal_volume 84
_journal_year 2006
_journal_page_first 1456
_journal_name_full 'Can.J.Chem. '
loop_
_publ_author_name
"M.Harmata"
"P.Rashatasakhon"
"C.L.Barnes"
_chemical_name_systematic
;
4,10-dimethyl-7-methylenetricyclo[7.2.1.0^1,5^]dodecan-12-one oxime
;
_cell_volume    687.163
_exptl_crystal_colour 'colorless'
_exptl_crystal_density_diffrn 1.128
_exptl_special_details
;
Not CCDC 282839-282845 and 282856 as published

;
_exptl_crystal_description 'prism'
_diffrn_ambient_temperature 173
_refine_special_details
;
Four C atoms are disordered over two sites with occupancies of 0.563:0.437.

;
#These two values have been output from a single CSD field.
_refine_ls_R_factor_gt 0.0507
_refine_ls_wR_factor_gt 0.0507
loop_
_citation_database_id_CSD
_citation_special_details
WOBJUT "is a stereoisomer of this entry"
WOBKAA "is a stereoisomer of this entry"
_symmetry_cell_setting triclinic
_symmetry_space_group_name_H-M 'P 1'
_symmetry_Int_Tables_number 1
loop_
_symmetry_equiv_pos_site_id
_symmetry_equiv_pos_as_xyz
1 x,y,z
_cell_length_a 7.6253(8)
_cell_length_b 8.7566(9)
_cell_length_c 11.3598(12)
_cell_angle_alpha 102.172(2)
_cell_angle_beta 95.598(2)
_cell_angle_gamma 109.513(2)
_cell_formula_units_Z 2
loop_
_atom_type_symbol
_atom_type_radius_bond
C 0.68
H 0.23
N 0.68
O 0.68
loop_
_atom_site_label
_atom_site_type_symbol
_atom_site_fract_x
_atom_site_fract_y
_atom_site_fract_z
O1 O 0.8460(4) 1.1972(3) 0.8977(2)
H1 H 0.89840 1.15760 0.94550
O2 O 0.8676(4) 0.8246(3) 0.8432(2)
H2 H 0.79710 0.85850 0.80260
N1 N 0.7114(4) 1.0638(3) 0.8034(2)
N2 N 0.9550(4) 0.9448(3) 0.9563(2)
C1 C 1.1391(5) 0.9948(4) 1.1574(3)
C2 C 1.0373(4) 0.8896(4) 1.0315(3)
C3 C 1.0479(5) 0.7164(4) 1.0119(3)
H3 H 0.92360 0.62950 0.96660
C4 C 1.2056(5) 0.7042(5) 0.9398(3)
H4 H 1.20760 0.58940 0.92650
H5 H 1.17650 0.72330 0.85850
C5 C 1.3987(5) 0.8287(6) 1.0041(4)
C6 C 1.4256(5) 1.0119(5) 1.0393(4)
H6 H 1.35760 1.03610 0.97100
H7 H 1.56200 1.07860 1.04830
C7 C 1.3586(5) 1.0724(5) 1.1569(4)
H8 H 1.42480 1.04250 1.22390
C8 C 1.0894(5) 0.8592(4) 1.2284(3)
H9 H 1.18490 0.89310 1.30390
H10 H 0.96380 0.84260 1.25180
C9 C 1.0871(5) 0.6970(4) 1.1435(3)
H11 H 1.21620 0.69200 1.15850
C10 C 1.0839(6) 1.1453(5) 1.2120(3)
H12 H 1.02510 1.18110 1.14650
H13 H 0.99410 1.11660 1.26840
C11 C 1.2702(7) 1.2826(5) 1.2809(4)
H14 H 1.26070 1.39480 1.29400
H15 H 1.30850 1.26470 1.36120
C12 C 1.4074(6) 1.2650(5) 1.1972(4)
H16 H 1.53930 1.32040 1.24530
C13 C 1.5392(7) 0.7773(8) 1.0302(6)
H17 H 1.65990 0.85650 1.07190
H18 H 1.51920 0.66110 1.00720
C14 C 0.9452(6) 0.5395(5) 1.1647(4)
H19 H 0.81820 0.54410 1.15340
H20 H 0.97990 0.53270 1.24830
H21 H 0.94640 0.44030 1.10610
C15 C 1.3892(7) 1.3450(6) 1.0913(5)
H22 H 1.26300 1.28580 1.04040
H23 H 1.48540 1.33720 1.04150
H24 H 1.40750 1.46320 1.12410
C16 C 0.4668(5) 0.9993(4) 0.6259(3)
C17 C 0.6160(4) 1.1165(4) 0.7334(3)
C18 C 0.6339(5) 1.2938(4) 0.7397(3)
H25 H 0.64460 1.35590 0.82640
C19 C 0.8087(5) 1.3812(5) 0.6884(3)
H26 H 0.81900 1.49840 0.69390
H27 H 0.92310 1.38510 0.74020
C20 C 0.8055(5) 1.2972(5) 0.5573(3)
C21 C 0.7654(5) 1.1107(5) 0.5221(3)
H28 H 0.84000 1.08470 0.58610
H29 H 0.81130 1.08310 0.44470
C22 C 0.5563(5) 0.9952(4) 0.5048(3)
H30 H 0.48090 1.03160 0.44710
C23 C 0.3253(5) 1.0891(5) 0.6293(3)
H31 H 0.24710 1.06380 0.69240
H32 H 0.24070 1.05370 0.54890
C24 C 0.4459(5) 1.2775(5) 0.6609(3)
H33 H 0.47520 1.30810 0.58320
C25 C 0.3836(6) 0.8152(5) 0.6298(4)
H34 H 0.47750 0.78350 0.67550
H35 H 0.26930 0.79340 0.66790
C26 C 0.3354(12) 0.7224(10) 0.4961(8)
H36 H 0.22490 0.73740 0.45370
H37 H 0.30840 0.60110 0.48550
C27 C 0.5161(6) 0.8058(5) 0.4488(3)
H38 H 0.48540 0.78100 0.35760
C28 C 0.8412(6) 1.3842(6) 0.4752(4)
H39 H 0.86950 1.50180 0.49820
H40 H 0.83850 1.32940 0.39310
C29 C 0.3489(7) 1.3903(6) 0.7244(4)
H41 H 0.24190 1.38530 0.66650
H42 H 0.43960 1.50610 0.75280
H43 H 0.30320 1.35180 0.79460
C30 C 0.6748(17) 0.7499(13) 0.4824(9)
H44 H 0.78460 0.80740 0.44890
H45 H 0.63480 0.62840 0.44850
H46 H 0.70890 0.77710 0.57180
C31? C 0.5070(12) 0.7259(10) 0.5586(7)
H47? H 0.63400 0.75540 0.60750
H48? H 0.44260 0.60240 0.53240
C32? C 0.6560(13) 0.7620(11) 0.3694(8)
H49? H 0.65790 0.81220 0.29990
H50? H 0.61510 0.63990 0.33900
H51? H 0.78320 0.80640 0.41920
C33? C 0.3836(6) 0.8152(5) 0.6298(4)
H52? H 0.24900 0.76340 0.58920
H53? H 0.39280 0.80640 0.71550
C34? C 0.5161(6) 0.8058(5) 0.4488(3)
H54? H 0.38730 0.75600 0.39630
#END
