
#######################################################################
#
#                 Cambridge Crystallographic Data Centre
#                                CCDC
#
#######################################################################
#
# If this CIF has been generated from an entry in the Cambridge
# Structural Database, then it will include bibliographic, chemical,
# crystal, experimental, refinement or atomic coordinate data resulting
# from the CCDC's data processing and validation procedures.
#
#######################################################################

data_CSD_CIF_WIYSED
_audit_creation_date 2008-07-15
_audit_creation_method CSD-ConQuest-V1
_database_code_CSD WIYSED
_database_code_depnum_ccdc_archive 'CCDC 282842'
_chemical_formula_sum 'C14 H21 N1 O1'
_chemical_formula_moiety
;
C14 H21 N1 O1
;
_journal_coden_Cambridge 15
_journal_volume 84
_journal_year 2006
_journal_page_first 1456
_journal_name_full 'Can.J.Chem. '
loop_
_publ_author_name
"M.Harmata"
"P.Rashatasakhon"
"C.L.Barnes"
_chemical_name_systematic
;
10-methyl-7-methylenetricyclo[7.2.1.0^1,5^]dodecan-12-one oxime
;
_cell_volume    639.508
_exptl_crystal_colour 'colorless'
_exptl_crystal_density_diffrn 1.139
_exptl_special_details
;
Not CCDC 282839-282845 and 282856 as published

;
_exptl_crystal_description 'prism'
_diffrn_ambient_temperature 173
#These two values have been output from a single CSD field.
_refine_ls_R_factor_gt 0.0617
_refine_ls_wR_factor_gt 0.0617
loop_
_citation_database_id_CSD
_citation_special_details
BIVJEW "is a stereoisomer of this entry"
BIVJIA "is a stereoisomer of this entry"
_symmetry_cell_setting triclinic
_symmetry_space_group_name_H-M 'P 1'
_symmetry_Int_Tables_number 1
loop_
_symmetry_equiv_pos_site_id
_symmetry_equiv_pos_as_xyz
1 x,y,z
_cell_length_a 7.5728(6)
_cell_length_b 8.5560(6)
_cell_length_c 11.0351(8)
_cell_angle_alpha 106.130(1)
_cell_angle_beta 91.757(1)
_cell_angle_gamma 109.920(1)
_cell_formula_units_Z 2
loop_
_atom_type_symbol
_atom_type_radius_bond
C 0.68
H 0.23
N 0.68
O 0.68
loop_
_atom_site_label
_atom_site_type_symbol
_atom_site_fract_x
_atom_site_fract_y
_atom_site_fract_z
O1 O 0.4900(3) 0.1340(3) 0.68598(19)
N1 N 0.3661(4) -0.0158(3) 0.5885(2)
C1 C 0.1083(4) -0.1171(4) 0.4119(3)
C2 C 0.2532(4) 0.0188(4) 0.5219(3)
C3 C 0.2439(4) 0.1960(4) 0.5323(3)
H1 H 0.24850 0.26110 0.62360
C4 C 0.4109(5) 0.2987(4) 0.4778(3)
H2 H 0.40890 0.41720 0.49070
H3 H 0.52990 0.31140 0.52620
C5 C 0.4132(4) 0.2169(4) 0.3380(3)
C6 C 0.3935(5) 0.0257(5) 0.2938(3)
H4 H 0.48150 0.00920 0.35310
H5 H 0.43610 0.00110 0.20900
C7 C 0.1947(5) -0.1112(5) 0.2842(3)
H6 H 0.10510 -0.09110 0.22710
C8 C -0.0509(4) -0.0432(5) 0.4259(3)
H7 H -0.14010 -0.09170 0.34580
H8 H -0.12220 -0.07220 0.49540
C9 C 0.0471(4) 0.1539(4) 0.4570(3)
H9 H 0.07040 0.17980 0.37470
C10 C 0.0501(6) -0.3066(4) 0.4126(3)
H10 H -0.07230 -0.34370 0.44600
H11 H 0.14780 -0.32080 0.46570
C11 C 0.0318(8) -0.4135(6) 0.2715(5)
H12 H 0.04570 -0.52660 0.26400
H13 H -0.09180 -0.43540 0.22420
C12 C 0.1934(7) -0.2969(5) 0.2237(4)
H14 H 0.17240 -0.32960 0.12950
H15 H 0.31510 -0.30510 0.25050
C13 C 0.4304(6) 0.3046(6) 0.2542(4)
H16 H 0.44200 0.42370 0.28140
H17 H 0.43120 0.24840 0.16700
C14 C -0.0646(6) 0.2620(6) 0.5249(5)
H18 H -0.17770 0.24010 0.46760
H19 H 0.01500 0.38630 0.54980
H20 H -0.10300 0.22920 0.60110
O2 O 0.5181(4) -0.2524(3) 0.6363(2)
N2 N 0.6138(4) -0.1089(3) 0.7475(2)
C15 C 0.7956(4) -0.0246(4) 0.9559(3)
C16 C 0.6890(4) -0.1540(4) 0.8297(3)
C17 C 0.6814(4) -0.3343(4) 0.8247(3)
H21 H 0.55240 -0.42210 0.78520
C18 C 0.8305(5) -0.3801(4) 0.7478(3)
H22 H 0.81930 -0.50040 0.74320
H23 H 0.80420 -0.37840 0.65990
C19 C 1.0293(4) -0.2590(5) 0.8021(3)
C20 C 1.0745(5) -0.0649(5) 0.8261(4)
H24 H 1.01190 -0.04960 0.75250
H25 H 1.21300 -0.00760 0.82920
C21 C 1.0143(5) 0.0323(4) 0.9497(3)
H26 H 1.07620 0.01630 1.02440
C22 C 0.7264(5) -0.1400(4) 1.0410(3)
H27 H 0.81530 -0.09420 1.12110
H28 H 0.59970 -0.14240 1.06250
C23 C 0.7161(4) -0.3221(4) 0.9677(3)
H29 H 0.84300 -0.32970 0.98460
C24 C 0.7580(5) 0.1477(4) 0.9943(3)
H30 H 0.62800 0.12860 0.95890
H31 H 0.77360 0.19690 1.08820
C25 C 0.9041(7) 0.2681(5) 0.9385(4)
H32 H 0.92210 0.39180 0.98070
H33 H 0.86770 0.23950 0.84580
C26 C 1.0811(6) 0.2315(5) 0.9660(4)
H34 H 1.14470 0.30080 1.05390
H35 H 1.17130 0.26220 0.90570
C27 C 1.1628(6) -0.3173(7) 0.8310(5)
H36 H 1.13260 -0.43870 0.81720
H37 H 1.28800 -0.23730 0.86540
C28 C 0.5678(6) -0.4689(6) 1.0017(5)
H38 H 0.60290 -0.46260 1.08960
H39 H 0.56070 -0.58160 0.94390
H40 H 0.44400 -0.45710 0.99360
H41 H 0.470(5) -0.215(5) 0.602(4)
H42 H 0.560(6) 0.092(6) 0.719(4)
#END
