
#######################################################################
#
#                 Cambridge Crystallographic Data Centre
#                                CCDC
#
#######################################################################
#
# If this CIF has been generated from an entry in the Cambridge
# Structural Database, then it will include bibliographic, chemical,
# crystal, experimental, refinement or atomic coordinate data resulting
# from the CCDC's data processing and validation procedures.
#
#######################################################################

data_CSD_CIF_WIYSAZ
_audit_creation_date 2008-07-15
_audit_creation_method CSD-ConQuest-V1
_database_code_CSD WIYSAZ
_database_code_depnum_ccdc_archive 'CCDC 282840'
_chemical_formula_sum 'C14 H21 N1 O1'
_chemical_formula_moiety
;
C14 H21 N1 O1
;
_journal_coden_Cambridge 15
_journal_volume 84
_journal_year 2006
_journal_page_first 1456
_journal_name_full 'Can.J.Chem. '
loop_
_publ_author_name
"M.Harmata"
"P.Rashatasakhon"
"C.L.Barnes"
_chemical_name_systematic
;
4-methyl-7-methylenetricyclo[7.2.1.0^1,5^]dodecan-12-one oxime
;
_cell_volume   1929.100
_exptl_crystal_colour 'colorless'
_exptl_crystal_density_diffrn 1.133
_exptl_special_details
;
Not CCDC 282839-282845 and 282856 as published

;
_exptl_crystal_description 'prism'
_diffrn_ambient_temperature 173
_refine_special_details
;
The structure is disordered.

;
#These two values have been output from a single CSD field.
_refine_ls_R_factor_gt 0.0464
_refine_ls_wR_factor_gt 0.0464
loop_
_citation_database_id_CSD
_citation_special_details
BIVJAS "is a stereoisomer of this entry"
_symmetry_cell_setting triclinic
_symmetry_space_group_name_H-M 'P 1'
_symmetry_Int_Tables_number 1
loop_
_symmetry_equiv_pos_site_id
_symmetry_equiv_pos_as_xyz
1 x,y,z
_cell_length_a 8.9939(13)
_cell_length_b 14.024(2)
_cell_length_c 16.075(2)
_cell_angle_alpha 104.044(3)
_cell_angle_beta 100.682(3)
_cell_angle_gamma 90.827(3)
_cell_formula_units_Z 6
loop_
_atom_type_symbol
_atom_type_radius_bond
C 0.68
H 0.23
N 0.68
O 0.68
loop_
_atom_site_label
_atom_site_type_symbol
_atom_site_fract_x
_atom_site_fract_y
_atom_site_fract_z
O1 O 0.6522(3) 0.5541(2) 0.56448(19)
H1 H 0.62970 0.49400 0.54080
N1 N 0.5320(3) 0.6102(2) 0.53652(19)
C1 C 0.4548(4) 0.7781(3) 0.5478(2)
C2 C 0.5601(4) 0.7022(3) 0.5706(2)
C3 C 0.7009(5) 0.7533(3) 0.6339(2)
H2 H 0.73050 0.71740 0.68060
C4 C 0.8323(4) 0.7578(3) 0.5859(3)
H3 H 0.92390 0.78820 0.62930
H4 H 0.85400 0.68990 0.55780
C5 C 0.8011(4) 0.8152(3) 0.5176(2)
C6 C 0.6593(4) 0.7849(3) 0.4489(2)
H5 H 0.65120 0.71210 0.42940
H6 H 0.67150 0.81010 0.39790
C7 C 0.5092(4) 0.8187(2) 0.4747(2)
H7 H 0.51810 0.89220 0.49470
C8 C 0.2866(4) 0.7436(3) 0.5096(3)
H8 H 0.27510 0.67110 0.48730
H9 H 0.22400 0.76370 0.55470
C9 C 0.2397(4) 0.7931(3) 0.4359(3)
H10 H 0.15130 0.75680 0.39320
H11 H 0.21450 0.86190 0.45840
C10 C 0.3775(4) 0.7896(3) 0.3959(2)
H12 H 0.38710 0.71930 0.36560
C11 C 0.4802(5) 0.8559(3) 0.6357(3)
H13 H 0.45340 0.92140 0.62680
H14 H 0.41790 0.83800 0.67500
C12 C 0.6488(6) 0.8567(3) 0.6742(2)
H15 H 0.66540 0.86940 0.73870
H16 H 0.70640 0.90870 0.65910
C13 C 0.8949(4) 0.8877(3) 0.5161(3)
H17 H 0.98530 0.90490 0.55920
H18 H 0.87220 0.92260 0.47200
C14 C 0.3756(5) 0.8500(4) 0.3291(3)
H19 H 0.29540 0.82250 0.27810
H20 H 0.47380 0.84810 0.31090
H21 H 0.35630 0.91830 0.35520
O2 O 0.3463(3) 0.44434(17) 0.43642(15)
H22 H 0.37080 0.50420 0.45980
N2 N 0.4695(3) 0.3869(2) 0.45946(19)
C15 C 0.5455(4) 0.2170(3) 0.4370(2)
C16 C 0.4359(4) 0.2945(2) 0.4247(2)
C17 C 0.2897(4) 0.2475(2) 0.3665(2)
H23 H 0.25070 0.28810 0.32480
C18 C 0.1711(4) 0.2356(3) 0.4215(3)
H24 H 0.15290 0.30150 0.45630
H25 H 0.07450 0.20780 0.38170
C19 C 0.2171(4) 0.1708(3) 0.4821(2)
C20 C 0.3675(4) 0.1960(3) 0.5455(2)
H26 H 0.36490 0.16520 0.59450
H27 H 0.37880 0.26820 0.57000
C21 C 0.5086(4) 0.1633(3) 0.5066(2)
H28 H 0.49060 0.09150 0.47710
C22 C 0.5089(4) 0.1489(3) 0.3442(2)
H29 H 0.56040 0.17490 0.30420
H30 H 0.54160 0.08180 0.34440
C23 C 0.3369(4) 0.1474(3) 0.3162(2)
H31 H 0.28710 0.09230 0.33140
H32 H 0.30810 0.13970 0.25230
C24 C 0.1319(5) 0.0924(3) 0.4803(4)
H33 H 0.03850 0.07580 0.43980
H34 H 0.16420 0.05260 0.51970
C25 C 0.7146(4) 0.2534(3) 0.4667(3)
C26 C 0.6547(6) 0.1756(5) 0.5756(4)
C27 C 0.6794(11) 0.1412(12) 0.6459(8)
C28 C 0.7676(16) 0.1698(13) 0.5286(11)
O3 O 0.4511(2) 0.76645(17) 0.82178(15)
H35 H 0.43070 0.82580 0.83490
N3 N 0.3146(3) 0.7062(2) 0.78557(17)
C29 C 0.2127(4) 0.5365(2) 0.7263(2)
C30 C 0.3395(4) 0.6153(2) 0.7643(2)
C31 C 0.4883(4) 0.5679(3) 0.7719(2)
H36 H 0.56440 0.60690 0.75340
C32 C 0.5474(4) 0.5605(3) 0.8663(3)
H37 H 0.64790 0.53210 0.86950
H38 H 0.56140 0.62760 0.90570
C33 C 0.4440(5) 0.4988(3) 0.8983(2)
C34 C 0.2795(4) 0.5218(3) 0.8898(2)
H39 H 0.27410 0.59420 0.90820
H40 H 0.23490 0.49300 0.93070
C35 C 0.1825(4) 0.4842(2) 0.7978(2)
H41 H 0.20070 0.41300 0.77700
C36 C 0.0569(5) 0.5707(3) 0.6909(3)
H42 H 0.04500 0.63960 0.72170
H43 H 0.04370 0.56590 0.62740
C37 C -0.0559(5) 0.5005(3) 0.7089(4)
H44 H -0.15700 0.52780 0.70700
H45 H -0.06540 0.43580 0.66590
C38 C 0.0104(4) 0.4912(3) 0.7986(3)
H46 H -0.00350 0.55370 0.84140
C39 C 0.2881(5) 0.4672(3) 0.6586(3)
H47 H 0.23680 0.40040 0.64070
H48 H 0.28470 0.49270 0.60610
C40 C 0.4514(5) 0.4653(3) 0.7056(3)
H49 H 0.52090 0.45480 0.66360
H50 H 0.46120 0.41190 0.73650
C41 C 0.4978(6) 0.4245(3) 0.9317(3)
H51 H 0.60170 0.41090 0.93520
H52 H 0.43210 0.38540 0.95190
C42 C -0.0594(5) 0.4050(3) 0.8250(4)
H53 H -0.16710 0.41430 0.82530
H54 H -0.00690 0.40260 0.88350
H55 H -0.04880 0.34310 0.78300
O4 O 1.0646(2) 0.24255(15) 0.16587(14)
H56 H 1.03650 0.18260 0.15400
N4 N 0.9577(3) 0.30021(19) 0.20856(17)
C43 C 0.8996(4) 0.4676(2) 0.2727(2)
C44 C 0.9949(4) 0.3918(2) 0.2281(2)
C45 C 1.1343(4) 0.4428(2) 0.2149(2)
H57 H 1.22520 0.40520 0.22900
C46 C 1.1144(4) 0.4517(3) 0.1198(2)
H58 H 1.20880 0.48280 0.11220
H59 H 1.09930 0.38480 0.08020
C47 C 0.9837(5) 0.5107(3) 0.0931(2)
C48 C 0.8312(4) 0.4848(3) 0.1096(2)
H60 H 0.81310 0.41230 0.09130
H61 H 0.75310 0.51270 0.07190
C49 C 0.8086(4) 0.5205(2) 0.2051(2)
H62 H 0.84080 0.59230 0.22550
C50 C 0.7778(5) 0.4298(3) 0.3155(3)
H63 H 0.74470 0.36020 0.28600
H64 H 0.81750 0.43500 0.37820
C51 C 0.6492(5) 0.4954(3) 0.3039(3)
H65 H 0.55330 0.46400 0.30920
H66 H 0.67010 0.55940 0.34810
C52 C 0.6408(4) 0.5089(3) 0.2140(3)
H67 H 0.59500 0.44630 0.17160
C53 C 1.1473(4) 0.5444(3) 0.2833(2)
H68 H 1.24920 0.55660 0.32130
H69 H 1.12920 0.59850 0.25360
C54 C 1.0252(4) 0.5373(3) 0.3367(2)
H70 H 1.06550 0.51030 0.38730
H71 H 0.98710 0.60280 0.35840
C55 C 1.0039(6) 0.5833(3) 0.0566(3)
H72 H 0.92080 0.62040 0.04010
H73 H 1.10140 0.59850 0.04670
C56 C 0.5466(5) 0.5930(3) 0.1921(4)
H74 H 0.44220 0.58210 0.19900
H75 H 0.54680 0.59500 0.13160
H76 H 0.59060 0.65580 0.23170
N5 N 0.2621(3) 0.92275(19) 0.80985(17)
C57 C 0.3487(4) 1.0969(2) 0.8588(2)
C58 C 0.2362(4) 1.0119(2) 0.80925(19)
C59 C 0.1000(4) 1.0511(3) 0.7615(2)
H77 H 0.06740 1.00700 0.70150
C60 C -0.0311(4) 1.0552(3) 0.8122(2)
H78 H -0.12320 1.07430 0.77730
H79 H -0.05310 0.98870 0.81950
C61 C 0.0037(4) 1.1260(3) 0.8999(2)
C62 C 0.1458(4) 1.1132(2) 0.9617(2)
H80 H 0.15250 1.04210 0.95870
H81 H 0.13550 1.14660 1.02190
C63 C 0.2958(3) 1.1523(2) 0.9452(2)
H82 H 0.28470 1.22270 0.94330
C64 C 0.5120(4) 1.0717(3) 0.8893(2)
H83 H 0.51470 1.00360 0.89670
H84 H 0.57580 1.07820 0.84670
C65 C 0.5671(4) 1.1463(3) 0.9768(2)
H85 H 0.65580 1.12370 1.01170
H86 H 0.59400 1.21150 0.96840
C66 C 0.4296(4) 1.1498(2) 1.0198(2)
H87 H 0.41870 1.08650 1.03700
C67 C 0.3287(4) 1.1588(3) 0.7912(2)
H88 H 0.36570 1.22810 0.81920
H89 H 0.38490 1.13220 0.74410
C68 C 0.1578(4) 1.1518(3) 0.7548(2)
H90 H 0.13780 1.15620 0.69320
H91 H 0.10780 1.20540 0.78960
C69 C -0.0871(4) 1.1964(3) 0.9236(3)
H92 H -0.17730 1.20280 0.88440
H93 H -0.06240 1.24060 0.98000
C70 C 0.4382(4) 1.2343(3) 1.1010(2)
H94 H 0.52860 1.23000 1.14420
H95 H 0.34760 1.23000 1.12590
H96 H 0.44410 1.29720 1.08500
O5 O 0.1378(2) 0.85821(17) 0.75723(16)
H97 H 0.15590 0.79980 0.75810
O6 O 0.8052(2) 0.14477(16) 0.23739(15)
H98 H 0.82510 0.20370 0.23810
N6 N 0.8955(3) 0.08223(18) 0.18553(17)
C71 C 0.9438(3) -0.0914(2) 0.13375(19)
C72 C 0.8670(3) -0.0082(2) 0.18330(19)
C73 C 0.7573(4) -0.0490(2) 0.2288(2)
H99 H 0.76440 -0.00610 0.28920
C74 C 0.5947(4) -0.0529(2) 0.1767(2)
H100 H 0.52320 -0.07310 0.21020
H101 H 0.57110 0.01390 0.17020
C75 C 0.5704(4) -0.1231(2) 0.0873(2)
C76 C 0.6750(3) -0.1074(2) 0.0274(2)
H102 H 0.68610 -0.03600 0.03160
H103 H 0.62590 -0.14010 -0.03360
C77 C 0.8342(3) -0.1457(2) 0.04568(19)
H104 H 0.82080 -0.21630 0.04660
C78 C 1.0907(3) -0.0661(2) 0.1060(2)
H105 H 1.09410 0.00270 0.10070
H106 H 1.18040 -0.07460 0.14910
C79 C 1.0863(4) -0.1381(2) 0.0179(2)
H107 H 1.15410 -0.11370 -0.01550
H108 H 1.11640 -0.20370 0.02510
C80 C 0.9228(4) -0.1424(2) -0.0268(2)
H109 H 0.90440 -0.07860 -0.04330
C81 C 0.9631(4) -0.1556(3) 0.2002(2)
H110 H 0.97970 -0.22440 0.17160
H111 H 1.05010 -0.12940 0.24870
C82 C 0.8145(4) -0.1500(3) 0.2339(2)
H112 H 0.83200 -0.15620 0.29500
H113 H 0.74000 -0.20320 0.19710
C83 C 0.4643(4) -0.1945(3) 0.0621(3)
H114 H 0.39980 -0.20330 0.10060
H115 H 0.45170 -0.23760 0.00540
C84 C 0.8755(4) -0.2253(3) -0.1095(2)
H116 H 0.89560 -0.28870 -0.09560
H117 H 0.93360 -0.21670 -0.15340
H118 H 0.76710 -0.22360 -0.13250
C85? C 0.6486(14) 0.2322(15) 0.6600(8)
C86? C 0.7703(17) 0.2356(17) 0.5448(11)
#END
