
#######################################################################
#
#                 Cambridge Crystallographic Data Centre
#                                CCDC
#
#######################################################################
#
# If this CIF has been generated from an entry in the Cambridge
# Structural Database, then it will include bibliographic, chemical,
# crystal, experimental, refinement or atomic coordinate data resulting
# from the CCDC's data processing and validation procedures.
#
#######################################################################

data_CSD_CIF_WIZGAP
_audit_creation_date 2014-03-07
_audit_creation_method CSD-ConQuest-V1
_database_code_CSD WIZGAP
_database_code_depnum_ccdc_archive 'CCDC 977487'
_chemical_formula_sum 'C19 H25 N5 O3'
_chemical_formula_moiety
;
C19 H25 N5 O3
;
_journal_coden_Cambridge 35
_journal_volume 79
_journal_year 2014
_journal_page_first 1885
_journal_name_full 'J.Org.Chem. '
loop_
_publ_author_name
"N.Camus"
"Z.Halime"
"N.Le Bris"
"H.Bernard"
"C.Platas-Iglesias"
"R.Tripier"
_chemical_name_systematic
;
2-(4-Nitrobenzyl)decahydro-1H,6H-3a,5a,8a,10a-tetraazapyren-1-one
;
_cell_volume   1835.709
_exptl_crystal_colour 'colorless'
_exptl_crystal_density_diffrn 1.344
_exptl_crystal_description 'planar/prism'
_diffrn_ambient_temperature 170
#These two values have been output from a single CSD field.
_refine_ls_R_factor_gt 0.065
_refine_ls_wR_factor_gt 0.065
_symmetry_cell_setting monoclinic
_symmetry_space_group_name_H-M 'P 21/c'
_symmetry_Int_Tables_number 14
loop_
_symmetry_equiv_pos_site_id
_symmetry_equiv_pos_as_xyz
1 x,y,z
2 -x,1/2+y,1/2-z
3 -x,-y,-z
4 x,-1/2-y,-1/2+z
_cell_length_a 13.4633(18)
_cell_length_b 13.1738(15)
_cell_length_c 10.3885(14)
_cell_angle_alpha 90
_cell_angle_beta 94.933(11)
_cell_angle_gamma 90
_cell_formula_units_Z 4
loop_
_atom_type_symbol
_atom_type_radius_bond
C 0.68
H 0.23
N 0.68
O 0.68
loop_
_atom_site_label
_atom_site_type_symbol
_atom_site_fract_x
_atom_site_fract_y
_atom_site_fract_z
C1 C 0.3546(3) 0.1839(3) 0.2942(4)
C2 C 0.2751(3) 0.2502(3) 0.3456(4)
H1 H 0.21490 0.24820 0.28220
C3 C 0.2448(3) 0.2118(3) 0.4755(4)
H2 H 0.29730 0.23060 0.54400
H3 H 0.18250 0.24630 0.49500
C4 C 0.1440(3) 0.0684(3) 0.3947(4)
H4 H 0.15460 0.08450 0.30380
H5 H 0.08320 0.10420 0.41720
C5 C 0.1305(3) -0.0450(3) 0.4096(4)
H6 H 0.11880 -0.06120 0.50010
H7 H 0.07210 -0.06820 0.35290
C6 C 0.2063(3) -0.2075(3) 0.3887(4)
H8 H 0.14860 -0.23000 0.33010
H9 H 0.19160 -0.22290 0.47840
C7 C 0.2989(4) -0.2655(3) 0.3573(5)
H10 H 0.30870 -0.25770 0.26440
H11 H 0.29040 -0.33860 0.37530
C8 C 0.3898(3) -0.2249(3) 0.4387(5)
H12 H 0.38440 -0.24220 0.53060
H13 H 0.45070 -0.25750 0.41120
C9 C 0.4260(3) -0.0848(3) 0.2980(4)
H14 H 0.37100 -0.10110 0.23180
H15 H 0.48570 -0.12350 0.27770
C10 C 0.4480(3) 0.0276(3) 0.2958(4)
H16 H 0.50730 0.04270 0.35590
H17 H 0.46300 0.04800 0.20780
C11 C 0.3202(3) 0.0513(3) 0.4547(4)
H18 H 0.37050 0.06900 0.52780
C12 C 0.3083(3) -0.0638(3) 0.4565(4)
H19 H 0.29720 -0.08340 0.54710
C13 C 0.3126(3) 0.3609(3) 0.3552(4)
H20 H 0.37060 0.36440 0.42040
H21 H 0.33560 0.38110 0.27100
C14 C 0.2349(3) 0.4354(3) 0.3915(5)
C15 C 0.1637(3) 0.4700(3) 0.2984(4)
H22 H 0.16240 0.44450 0.21280
C16 C 0.0938(3) 0.5418(3) 0.3285(5)
H23 H 0.04580 0.56700 0.26400
C17 C 0.0957(3) 0.5756(3) 0.4545(5)
C18 C 0.1647(3) 0.5418(3) 0.5490(4)
H24 H 0.16530 0.56640 0.63500
C19 C 0.2329(3) 0.4716(3) 0.5160(4)
H25 H 0.28070 0.44690 0.58110
N1 N 0.3621(3) 0.0860(3) 0.3340(3)
N2 N 0.2293(3) 0.1020(2) 0.4792(3)
N3 N 0.2201(3) -0.0966(2) 0.3746(3)
N4 N 0.3979(3) -0.1135(3) 0.4252(4)
N5 N 0.0227(3) 0.6539(3) 0.4853(5)
O1 O 0.4090(2) 0.21696(19) 0.2146(3)
O2 O -0.0346(3) 0.6873(3) 0.3959(4)
O3 O 0.0231(3) 0.6826(3) 0.5971(4)
#END
