
#######################################################################
#
#                 Cambridge Crystallographic Data Centre
#                                CCDC
#
#######################################################################
#
# If this CIF has been generated from an entry in the Cambridge
# Structural Database, then it will include bibliographic, chemical,
# crystal, experimental, refinement or atomic coordinate data resulting
# from the CCDC's data processing and validation procedures.
#
#######################################################################

data_CSD_CIF_WIZTOQ
_audit_creation_date 2014-03-07
_audit_creation_method CSD-ConQuest-V1
_database_code_CSD WIZTOQ
_database_code_depnum_ccdc_archive 'CCDC 934288'
_chemical_formula_sum 'C22 H27 N1 O3'
_chemical_formula_moiety
;
C22 H27 N1 O3
;
_journal_coden_Cambridge 7
_journal_volume 87
_journal_year 2014
_journal_page_first 76
_journal_name_full 'Bull.Chem.Soc.Jpn. '
loop_
_publ_author_name
"Chien-Chih Chen"
"T.Hinoue"
"Jui-Hsiang Liu"
"I.Hisaki"
"M.Miyata"
"N.Tohnai"
_chemical_name_systematic
;
1-Nitro-4-(2-(4-(octyloxy)phenyl)vinyl)benzene
;
_cell_volume   1951.648
_exptl_crystal_colour 'Yellow'
_exptl_crystal_density_diffrn 1.203
_exptl_crystal_description 'Plate'
_exptl_crystal_preparation 'toluene'
_diffrn_ambient_temperature 213
#These two values have been output from a single CSD field.
_refine_ls_R_factor_gt 0.0618
_refine_ls_wR_factor_gt 0.0618
_symmetry_cell_setting monoclinic
_symmetry_space_group_name_H-M 'P 21/c'
_symmetry_Int_Tables_number 14
loop_
_symmetry_equiv_pos_site_id
_symmetry_equiv_pos_as_xyz
1 x,y,z
2 -x,1/2+y,1/2-z
3 -x,-y,-z
4 x,-1/2-y,-1/2+z
_cell_length_a 6.3669(1)
_cell_length_b 38.0164(7)
_cell_length_c 8.0759(2)
_cell_angle_alpha 90
_cell_angle_beta 93.2255(7)
_cell_angle_gamma 90
_cell_formula_units_Z 4
loop_
_atom_type_symbol
_atom_type_radius_bond
C 0.68
H 0.23
N 0.68
O 0.68
loop_
_atom_site_label
_atom_site_type_symbol
_atom_site_fract_x
_atom_site_fract_y
_atom_site_fract_z
O1 O 1.9946(5) 0.26439(8) 0.8708(5)
O2 O 1.7668(5) 0.29755(6) 0.7524(4)
O3 O 0.7228(3) 0.02178(4) 0.34992(18)
N1 N 1.8312(5) 0.26885(7) 0.7921(4)
C1 C 1.7026(5) 0.23789(7) 0.7438(3)
C2 C 1.7791(5) 0.20531(8) 0.7878(4)
C3 C 1.6586(5) 0.17641(7) 0.7385(4)
C4 C 1.4639(4) 0.18001(6) 0.6535(3)
C5 C 1.3984(5) 0.21373(7) 0.6122(4)
C6 C 1.5129(5) 0.24268(7) 0.6599(5)
C7 C 1.3436(4) 0.14850(6) 0.6079(3)
C8 C 1.1511(4) 0.14690(6) 0.5304(3)
C9 C 1.0392(4) 0.11449(5) 0.4889(3)
C10 C 1.1228(4) 0.08095(6) 0.5163(3)
C11 C 1.0149(4) 0.05069(6) 0.4711(3)
C12 C 0.8152(4) 0.05345(6) 0.3925(3)
C13 C 0.7265(4) 0.08616(6) 0.3624(3)
C14 C 0.8358(4) 0.11639(5) 0.4092(3)
C15 C 0.5173(4) 0.02116(5) 0.2688(3)
C16 C 0.4668(4) -0.01707(6) 0.2398(3)
C17 C 0.2481(4) -0.02332(6) 0.1540(3)
C18 C 0.2108(4) -0.06242(6) 0.1266(3)
C19 C -0.0048(5) -0.07133(6) 0.0411(3)
C20 C -0.0406(4) -0.11083(6) 0.0197(3)
C21 C -0.2489(5) -0.12019(7) -0.0681(3)
C22 C -0.2817(5) -0.15945(7) -0.0939(4)
H1 H 1.90680 0.20270 0.84830
H2 H 1.70950 0.15400 0.76290
H3 H 1.27240 0.21680 0.55000
H4 H 1.46270 0.26520 0.63570
H5 H 1.40700 0.12710 0.63540
H6 H 1.08500 0.16800 0.50150
H7 H 1.25700 0.07890 0.56720
H8 H 1.07460 0.02870 0.49280
H9 H 0.59280 0.08790 0.31060
H10 H 0.77460 0.13830 0.38790
H11 H 0.51620 0.03380 0.16440
H12 H 0.41560 0.03190 0.33820
H13 H 0.47450 -0.02920 0.34560
H14 H 0.57240 -0.02720 0.17220
H15 H 0.14080 -0.01390 0.22220
H16 H 0.23830 -0.01120 0.04820
H17 H 0.22310 -0.07430 0.23310
H18 H 0.32020 -0.07160 0.05970
H19 H -0.11460 -0.06170 0.10620
H20 H -0.01570 -0.06020 -0.06710
H21 H 0.07180 -0.12050 -0.04250
H22 H -0.03280 -0.12180 0.12830
H23 H -0.25860 -0.10860 -0.17520
H24 H -0.36150 -0.11120 -0.00400
H25 H -0.37810 -0.16810 -0.01620
H26 H -0.14940 -0.17140 -0.07710
H27 H -0.33820 -0.16370 -0.20490
#END
