
#######################################################################
#
#                 Cambridge Crystallographic Data Centre
#                                CCDC
#
#######################################################################
#
# If this CIF has been generated from an entry in the Cambridge
# Structural Database, then it will include bibliographic, chemical,
# crystal, experimental, refinement or atomic coordinate data resulting
# from the CCDC's data processing and validation procedures.
#
#######################################################################

data_CSD_CIF_WIZTIK
_audit_creation_date 2014-03-07
_audit_creation_method CSD-ConQuest-V1
_database_code_CSD WIZTIK
_database_code_depnum_ccdc_archive 'CCDC 931087'
_chemical_formula_sum 'C19 H21 N1 O3'
_chemical_formula_moiety
;
C19 H21 N1 O3
;
_journal_coden_Cambridge 7
_journal_volume 87
_journal_year 2014
_journal_page_first 76
_journal_name_full 'Bull.Chem.Soc.Jpn. '
loop_
_publ_author_name
"Chien-Chih Chen"
"T.Hinoue"
"Jui-Hsiang Liu"
"I.Hisaki"
"M.Miyata"
"N.Tohnai"
_chemical_name_systematic
;
trans-1-Nitro-4-(2-(4-(pentoxy)phenyl)vinyl)benzene
;
_chemical_name_common
;
trans-4-Pentyloxy-4'-nitrostilbene
;
_cell_volume    819.243
_exptl_crystal_colour 'colorless'
_exptl_crystal_density_diffrn 1.263
_exptl_crystal_description 'block'
_exptl_crystal_preparation 'toluene'
_diffrn_ambient_temperature 213
#These two values have been output from a single CSD field.
_refine_ls_R_factor_gt 0.0644
_refine_ls_wR_factor_gt 0.0644
_symmetry_cell_setting triclinic
_symmetry_space_group_name_H-M 'P -1'
_symmetry_Int_Tables_number 2
loop_
_symmetry_equiv_pos_site_id
_symmetry_equiv_pos_as_xyz
1 x,y,z
2 -x,-y,-z
_cell_length_a 7.303(12)
_cell_length_b 10.868(19)
_cell_length_c 11.71(2)
_cell_angle_alpha 113.227(17)
_cell_angle_beta 92.028(5)
_cell_angle_gamma 104.11(3)
_cell_formula_units_Z 2
loop_
_atom_type_symbol
_atom_type_radius_bond
C 0.68
H 0.23
N 0.68
O 0.68
loop_
_atom_site_label
_atom_site_type_symbol
_atom_site_fract_x
_atom_site_fract_y
_atom_site_fract_z
O1 O 2.1223(3) 0.71453(18) 0.54920(18)
O2 O 2.0891(3) 0.88647(18) 0.51281(18)
O3 O 0.39485(18) 0.15846(13) -0.01926(13)
N1 N 2.0284(3) 0.76818(19) 0.50535(15)
C1 C 1.8328(3) 0.6893(2) 0.44300(17)
C2 C 1.7701(3) 0.5510(2) 0.42247(18)
C3 C 1.5853(3) 0.4772(2) 0.36420(18)
C4 C 1.4638(3) 0.5396(2) 0.32638(17)
C5 C 1.5332(3) 0.6807(2) 0.35114(19)
C6 C 1.7173(3) 0.7559(2) 0.40806(19)
C7 C 1.2697(3) 0.4559(2) 0.26478(18)
C8 C 1.1387(3) 0.4936(2) 0.21419(17)
C9 C 0.9458(3) 0.40695(19) 0.15251(17)
C10 C 0.8694(3) 0.27476(19) 0.15057(18)
C11 C 0.6867(3) 0.19539(19) 0.09329(18)
C12 C 0.5733(3) 0.24554(19) 0.03444(16)
C13 C 0.6446(3) 0.3761(2) 0.03437(18)
C14 C 0.8292(3) 0.45499(19) 0.09372(18)
C15 C 0.2640(3) 0.2011(2) -0.07951(18)
C16 C 0.0889(3) 0.0787(2) -0.13676(19)
C17 C -0.0742(3) 0.1062(2) -0.19699(18)
C18 C -0.2510(3) -0.0184(3) -0.2457(2)
C19 C -0.4158(3) 0.0045(3) -0.3092(3)
H1 H 1.85030 0.50850 0.44720
H2 H 1.54080 0.38380 0.34990
H3 H 1.45320 0.72470 0.32860
H4 H 1.76300 0.84940 0.42270
H5 H 1.23350 0.36580 0.26040
H6 H 1.17340 0.58370 0.21850
H7 H 0.94410 0.23960 0.18900
H8 H 0.63900 0.10820 0.09400
H9 H 0.56990 0.41050 -0.00490
H10 H 0.87600 0.54280 0.09410
H11 H 0.31980 0.22610 -0.14400
H12 H 0.23180 0.28110 -0.01870
H13 H 0.04450 0.04960 -0.07180
H14 H 0.12420 0.00190 -0.19980
H15 H -0.03400 0.12880 -0.26620
H16 H -0.10590 0.18620 -0.13580
H17 H -0.21780 -0.09870 -0.30510
H18 H -0.29190 -0.03950 -0.17600
H19 H -0.37770 0.02320 -0.37970
H20 H -0.45190 0.08240 -0.25040
H21 H -0.52240 -0.07770 -0.33760
#END
