
#######################################################################
#
#                 Cambridge Crystallographic Data Centre
#                                CCDC
#
#######################################################################
#
# If this CIF has been generated from an entry in the Cambridge
# Structural Database, then it will include bibliographic, chemical,
# crystal, experimental, refinement or atomic coordinate data resulting
# from the CCDC's data processing and validation procedures.
#
#######################################################################

data_CSD_CIF_WIZWOR
_audit_creation_date 2000-11-21
_audit_creation_method CSD-ConQuest-V1
_database_code_CSD WIZWOR
_database_code_depnum_ccdc_archive 'CCDC 145335'
_chemical_formula_sum 'C25 H27 N4 O4'
_chemical_formula_moiety
;
C25 H27 N4 O4
;
_journal_coden_Cambridge 1336
_journal_volume 2
_journal_year 2000
_journal_page_first 2269
_journal_name_full 'Org.Lett. '
loop_
_publ_author_name
"S.Greve"
"C.Nather"
"W.Friedrichsen"
_chemical_name_systematic
;
2-(4-(1,3-Dimethyl-5-phenyl-6-oxo-6H-1-pyrimidinium-4-oxido)phenyl)-4,5-dihydr
o-4,4,5,5-tetramethyl-3-oxido-3-imidazolio-1-oxyl
;
_chemical_melting_point 511.15
_cell_volume   2261.184
_exptl_crystal_colour 'light green'
_exptl_crystal_density_diffrn 1.315
_exptl_crystal_description 'plate'
_exptl_crystal_preparation 'ethyl acetate'
_diffrn_ambient_temperature ?
_diffrn_special_details
;
The study was carried out at room temperature,in the range 283-303K

;
_refine_special_details
;
The methyl substituents on the imidazoline ring are each disordered over two 
sets of positions with occupancies 0.65:0.35.
;
#These two values have been output from a single CSD field.
_refine_ls_R_factor_gt 0.0483
_refine_ls_wR_factor_gt 0.0483
_symmetry_cell_setting orthorhombic
_symmetry_space_group_name_H-M 'P 21 21 21'
_symmetry_Int_Tables_number 19
loop_
_symmetry_equiv_pos_site_id
_symmetry_equiv_pos_as_xyz
1 x,y,z
2 1/2-x,-y,1/2+z
3 -x,1/2+y,1/2-z
4 1/2+x,1/2-y,-z
_cell_length_a 9.919(3)
_cell_length_b 10.921(1)
_cell_length_c 20.874(6)
_cell_angle_alpha 90
_cell_angle_beta 90
_cell_angle_gamma 90
_cell_formula_units_Z 4
loop_
_atom_type_symbol
_atom_type_radius_bond
C 0.68
H 0.23
N 0.68
O 0.68
loop_
_atom_site_label
_atom_site_type_symbol
_atom_site_fract_x
_atom_site_fract_y
_atom_site_fract_z
O1 O 0.6832(3) 0.6472(2) 0.49022(15)
O2 O 0.4034(3) 0.7935(2) 0.65610(11)
O3 O 0.6510(4) 1.3534(3) 0.3070(2)
O4 O 0.2375(4) 1.4269(3) 0.3984(2)
N1 N 0.5983(3) 0.8420(2) 0.48992(13)
N2 N 0.4656(3) 0.9143(2) 0.57242(13)
N3 N 0.5400(3) 1.4037(3) 0.3214(2)
N4 N 0.3403(4) 1.4368(3) 0.3630(2)
C1 C 0.5190(5) 0.3448(4) 0.6576(3)
H1 H 0.5126(5) 0.2668(4) 0.6752(3)
C2 C 0.5577(5) 0.4409(4) 0.6948(2)
H2 H 0.5780(5) 0.4281(4) 0.7378(2)
C3 C 0.5671(5) 0.5591(4) 0.6689(2)
H3 H 0.5934(5) 0.6245(4) 0.6946(2)
C4 C 0.5367(4) 0.5780(3) 0.6042(2)
C5 C 0.4996(4) 0.4779(3) 0.5676(2)
H4 H 0.4812(4) 0.4886(3) 0.5243(2)
C6 C 0.4894(5) 0.3629(4) 0.5938(2)
H5 H 0.4625(5) 0.2972(4) 0.5685(2)
C7 C 0.5392(4) 0.7036(3) 0.5759(2)
C8 C 0.6109(4) 0.7208(3) 0.5187(2)
C9 C 0.5268(4) 0.9312(3) 0.5162(2)
C10 C 0.4668(4) 0.7976(3) 0.6055(2)
C11 C 0.6683(5) 0.8584(4) 0.4285(2)
H6 H 0.7144(5) 0.7841(4) 0.4173(2)
H7 H 0.7325(5) 0.9238(4) 0.4322(2)
H8 H 0.6038(5) 0.8780(4) 0.3957(2)
C12 C 0.3915(5) 1.0134(3) 0.6036(2)
H9 H 0.3546(5) 0.9845(3) 0.6433(2)
H10 H 0.3198(5) 1.0404(3) 0.5762(2)
H11 H 0.4516(5) 1.0805(3) 0.6119(2)
C13 C 0.5069(4) 1.0487(3) 0.4801(2)
C14 C 0.6129(4) 1.1296(3) 0.4702(2)
H12 H 0.6966(4) 1.1145(3) 0.4886(2)
C15 C 0.5939(4) 1.2323(3) 0.4329(2)
H13 H 0.6654(4) 1.2854(3) 0.4255(2)
C16 C 0.4688(4) 1.2567(3) 0.4064(2)
C17 C 0.3623(4) 1.1778(3) 0.4180(2)
H14 H 0.2773(4) 1.1952(3) 0.4015(2)
C18 C 0.3821(4) 1.0739(3) 0.4539(2)
H15 H 0.3109(4) 1.0200(3) 0.4605(2)
C19 C 0.4510(4) 1.3644(3) 0.3651(2)
C20 C 0.4895(4) 1.5130(3) 0.2865(2)
C21 C 0.3638(6) 1.5499(6) 0.3253(3)
C22 C 0.5972(9) 1.6113(6) 0.2790(5)
H16 H 0.6219(9) 1.6421(6) 0.3205(5)
H17 H 0.5625(9) 1.6771(6) 0.2534(5)
H18 H 0.6750(9) 1.5768(6) 0.2586(5)
C23 C 0.4558(14) 1.4691(8) 0.2190(4)
H19 H 0.3878(14) 1.4066(8) 0.2212(4)
H20 H 0.5354(14) 1.4363(8) 0.1993(4)
H21 H 0.4228(14) 1.5366(8) 0.1941(4)
C24 C 0.2377(9) 1.5879(11) 0.2907(5)
H22 H 0.1690(9) 1.6079(11) 0.3214(5)
H23 H 0.2072(9) 1.5218(11) 0.2641(5)
H24 H 0.2563(9) 1.6582(11) 0.2646(5)
C25 C 0.3972(12) 1.6566(7) 0.3758(5)
H25 H 0.4775(12) 1.6359(7) 0.3991(5)
H26 H 0.3233(12) 1.6652(7) 0.4052(5)
H27 H 0.4107(12) 1.7323(7) 0.3533(5)
C26? C 0.3345(13) 1.5037(12) 0.2964(6)
C27? C 0.5602(17) 1.6134(14) 0.3219(8)
H28? H 0.5325(17) 1.6127(14) 0.3660(8)
H29? H 0.5376(17) 1.6909(14) 0.3030(8)
H30? H 0.6559(17) 1.6010(14) 0.3194(8)
C28? C 0.5326(19) 1.5143(16) 0.2182(8)
H31? H 0.4873(19) 1.4500(16) 0.1954(8)
H32? H 0.6283(19) 1.5019(16) 0.2157(8)
H33? H 0.5100(19) 1.5918(16) 0.1993(8)
C29? C 0.2588(14) 1.4327(11) 0.2481(6)
H34? H 0.3029(14) 1.3556(11) 0.2411(6)
H35? H 0.2554(14) 1.4778(11) 0.2087(6)
H36? H 0.1687(14) 1.4185(11) 0.2633(6)
C30? C 0.2762(21) 1.6287(17) 0.3126(9)
H37? H 0.3319(21) 1.6678(17) 0.3441(9)
H38? H 0.1867(21) 1.6189(17) 0.3292(9)
H39? H 0.2733(21) 1.6782(17) 0.2746(9)
#END
