
#######################################################################
#
#                 Cambridge Crystallographic Data Centre
#                                CCDC
#
#######################################################################
#
# If this CIF has been generated from an entry in the Cambridge
# Structural Database, then it will include bibliographic, chemical,
# crystal, experimental, refinement or atomic coordinate data resulting
# from the CCDC's data processing and validation procedures.
#
#######################################################################

data_CSD_CIF_WOBJAY
_audit_creation_date 2000-11-21
_audit_creation_method CSD-ConQuest-V1
_database_code_CSD WOBJAY
_database_code_depnum_ccdc_archive 'CCDC 150330'
_chemical_formula_sum 'C17 H17 N3 O2'
_chemical_formula_moiety
;
C17 H17 N3 O2
;
_journal_coeditor_code "IUCr BM1393"
_journal_coden_Cambridge 591
_journal_volume 56
_journal_year 2000
_journal_page_first 971
_journal_name_full 'Acta Crystallogr.,Sect.C:Cryst.Struct.Commun. '
loop_
_publ_author_name
"V.N.Nesterov"
"T.V.Timofeeva"
"O.Ya.Borbulevych"
"M.Yu.Antipin"
"R.D.Clark"
_chemical_name_systematic
;
N-((E,2E)-3-(4-(Dimethylamino)phenyl)-2-propenylidene)-3-nitroaniline
;
_chemical_melting_point 411.15
_cell_volume    754.927
_exptl_crystal_colour 'yellow'
_exptl_crystal_density_diffrn 1.299
_exptl_crystal_description 'plate'
_exptl_crystal_preparation 'acetonitrile'
_diffrn_ambient_temperature ?
_diffrn_special_details
;
The study was carried out at room temperature,in the range 283-303K

;
#These two values have been output from a single CSD field.
_refine_ls_R_factor_gt 0.0401
_refine_ls_wR_factor_gt 0.0401
_symmetry_cell_setting triclinic
_symmetry_space_group_name_H-M 'P -1'
_symmetry_Int_Tables_number 2
loop_
_symmetry_equiv_pos_site_id
_symmetry_equiv_pos_as_xyz
1 x,y,z
2 -x,-y,-z
_cell_length_a 6.7910(14)
_cell_length_b 10.204(2)
_cell_length_c 12.185(2)
_cell_angle_alpha 113.20(3)
_cell_angle_beta 98.97(3)
_cell_angle_gamma 95.53(3)
_cell_formula_units_Z 2
loop_
_atom_type_symbol
_atom_type_radius_bond
C 0.68
H 0.23
N 0.68
O 0.68
loop_
_atom_site_label
_atom_site_type_symbol
_atom_site_fract_x
_atom_site_fract_y
_atom_site_fract_z
N1 N 0.4301(3) 0.7782(2) 0.3477(2)
N2 N -0.2314(3) 0.7066(3) 0.0780(2)
N3 N 1.3680(3) 0.2012(2) 0.2510(2)
O1 O -0.3821(3) 0.7578(2) 0.0578(2)
O2 O -0.2091(3) 0.5847(2) 0.01351(15)
C1 C 0.2475(3) 0.8211(2) 0.3127(2)
C2 C 0.0966(3) 0.7386(2) 0.2089(2)
H1 H 0.1103(3) 0.6466(2) 0.1559(2)
C3 C -0.0722(3) 0.7953(2) 0.1863(2)
C4 C -0.1004(4) 0.9294(3) 0.2608(2)
H2 H -0.2163(4) 0.9651(3) 0.2426(2)
C5 C 0.0470(4) 1.0101(3) 0.3633(2)
H3 H 0.0312(4) 1.1017(3) 0.4158(2)
C6 C 0.2173(3) 0.9565(2) 0.3888(2)
H4 H 0.3152(3) 1.0126(2) 0.4590(2)
C7 C 0.4750(3) 0.6606(2) 0.2792(2)
H5 H 0.3836(3) 0.6038(2) 0.2062(2)
C8 C 0.6554(3) 0.6085(2) 0.3056(2)
H6 H 0.7467(3) 0.6623(2) 0.3793(2)
C9 C 0.6980(3) 0.4848(2) 0.2279(2)
H7 H 0.5998(3) 0.4350(2) 0.1565(2)
C10 C 0.8706(3) 0.4170(2) 0.2373(2)
C11 C 0.8874(4) 0.2902(3) 0.1405(2)
H8 H 0.7850(4) 0.2522(3) 0.0704(2)
C12 C 1.0472(3) 0.2192(3) 0.1439(2)
H9 H 1.0505(3) 0.1350(3) 0.0766(2)
C13 C 1.2059(3) 0.2706(2) 0.2464(2)
C14 C 1.1904(3) 0.3975(2) 0.3449(2)
H10 H 1.2912(3) 0.4346(2) 0.4157(2)
C15 C 1.0301(3) 0.4675(2) 0.3389(2)
H11 H 1.0274(3) 0.5525(2) 0.4055(2)
C16 C 1.5241(4) 0.2490(3) 0.3610(2)
H12 H 1.6207(15) 0.1845(11) 0.3478(6)
H13 H 1.4638(5) 0.2490(17) 0.4272(4)
H14 H 1.5912(17) 0.3451(8) 0.3808(9)
C17 C 1.3793(4) 0.0704(3) 0.1491(2)
H15 H 1.5054(12) 0.0395(11) 0.1659(7)
H16 H 1.371(3) 0.0884(5) 0.0770(4)
H17 H 1.2691(15) -0.0039(6) 0.1364(10)
#END
