
#######################################################################
#
#                 Cambridge Crystallographic Data Centre
#                                CCDC
#
#######################################################################
#
# If this CIF has been generated from an entry in the Cambridge
# Structural Database, then it will include bibliographic, chemical,
# crystal, experimental, refinement or atomic coordinate data resulting
# from the CCDC's data processing and validation procedures.
#
#######################################################################

data_CSD_CIF_WOBJUT
_audit_creation_date 2008-07-15
_audit_creation_method CSD-ConQuest-V1
_database_code_CSD WOBJUT
_database_code_depnum_ccdc_archive 'CCDC 282846'
_chemical_formula_sum 'C15 H23 N1 O1'
_chemical_formula_moiety
;
C15 H23 N1 O1
;
_journal_coden_Cambridge 15
_journal_volume 84
_journal_year 2006
_journal_page_first 1456
_journal_name_full 'Can.J.Chem. '
loop_
_publ_author_name
"M.Harmata"
"P.Rashatasakhon"
"C.L.Barnes"
_chemical_name_systematic
;
4,10-dimethyl-7-methylenetricyclo[7.2.1.0^1,5^]dodecan-12-one oxime
;
_cell_volume   1345.224
_exptl_crystal_colour 'colorless'
_exptl_crystal_density_diffrn 1.147
_exptl_special_details
;
The oxime H atom does not appear to have been located and its presence is 
unclear; Not CCDC 282839-282845 and 282856 as published
;
_exptl_crystal_description 'Prism'
_diffrn_ambient_temperature 173
_refine_special_details
;
Two C atoms are disordered over two sites with occupancies of 0.569:0.431.

;
#These two values have been output from a single CSD field.
_refine_ls_R_factor_gt 0.0477
_refine_ls_wR_factor_gt 0.0477
loop_
_citation_database_id_CSD
_citation_special_details
WIYSIH "is a stereoisomer of this entry"
WOBKAA "is a stereoisomer of this entry"
_symmetry_cell_setting monoclinic
_symmetry_space_group_name_H-M 'P 21'
_symmetry_Int_Tables_number 4
loop_
_symmetry_equiv_pos_site_id
_symmetry_equiv_pos_as_xyz
1 x,y,z
2 -x,1/2+y,-z
_cell_length_a 13.537(2)
_cell_length_b 8.2810(15)
_cell_length_c 13.648(2)
_cell_angle_alpha 90
_cell_angle_beta 118.446(3)
_cell_angle_gamma 90
_cell_formula_units_Z 4
loop_
_atom_type_symbol
_atom_type_radius_bond
C 0.68
H 0.23
N 0.68
O 0.68
loop_
_atom_site_label
_atom_site_type_symbol
_atom_site_fract_x
_atom_site_fract_y
_atom_site_fract_z
O1 O 0.54219(11) 0.44359(17) 0.86189(11)
N1 N 0.44966(12) 0.55379(19) 0.82205(12)
C1 C 0.28653(14) 0.6360(2) 0.84016(14)
C2 C 0.39167(13) 0.5374(2) 0.87248(13)
C3 C 0.41011(14) 0.4211(2) 0.96404(14)
H1 H 0.49240 0.40050 1.01090
C4 C 0.34890(16) 0.2603(2) 0.91275(16)
H2 H 0.39070 0.20420 0.87980
H3 H 0.35310 0.19140 0.97400
C5 C 0.22731(16) 0.2716(2) 0.82474(17)
C6 C 0.19971(17) 0.3729(2) 0.72268(17)
H4 H 0.12960 0.33130 0.65980
H5 H 0.26050 0.35960 0.70260
C7 C 0.18491(14) 0.5534(2) 0.73696(15)
H6 H 0.11760 0.56430 0.74850
C8 C 0.27106(16) 0.6259(2) 0.94588(15)
H7 H 0.27450 0.73530 0.97670
H8 H 0.19710 0.57780 0.92690
C9 C 0.36612(16) 0.5200(2) 1.03187(15)
H9 H 0.42800 0.59380 1.08230
C10 C 0.29018(16) 0.8099(2) 0.79856(15)
H10 H 0.29140 0.89110 0.85230
H11 H 0.35800 0.82440 0.78950
C11 C 0.18401(17) 0.8280(3) 0.68661(16)
H12 H 0.11990 0.86430 0.69700
H13 H 0.19570 0.90630 0.63830
C12 C 0.16385(16) 0.6589(3) 0.63706(15)
H14 H 0.22310 0.63470 0.61520
C13 C 0.14805(19) 0.1889(3) 0.8336(2)
H15 H 0.07260 0.19270 0.77530
H16 H 0.16670 0.12580 0.89820
C14 C 0.33139(19) 0.4205(3) 1.10460(17)
H17 H 0.30990 0.49310 1.14790
H18 H 0.39460 0.35290 1.15540
H19 H 0.26750 0.35160 1.05710
C15 C 0.04913(18) 0.6346(3) 0.53552(18)
H20 H -0.00990 0.65530 0.55610
H21 H 0.04280 0.52340 0.50870
H22 H 0.04070 0.70970 0.47650
O2 O 0.51901(11) 0.17321(18) 0.35227(12)
N2 N 0.42859(13) 0.0611(2) 0.31476(13)
C16 C 0.27403(16) -0.0337(2) 0.34349(16)
C17 C 0.37228(15) 0.0745(2) 0.36697(15)
C18 C 0.39024(17) 0.1914(2) 0.45920(16)
H23 H 0.47250 0.20310 0.51130
C19 C 0.33978(19) 0.3575(2) 0.40980(19)
H24 H 0.35630 0.43420 0.47140
H25 H 0.37600 0.39890 0.36670
C20 C 0.2157(2) 0.3502(3) 0.3357(2)
C21 C 0.17019(19) 0.2363(3) 0.23861(19)
H26 H 0.21920 0.24170 0.20330
H27 H 0.09480 0.27480 0.18310
C22 C 0.15983(17) 0.0562(3) 0.26532(17)
H28 H 0.11380 0.05450 0.30480
C23 C 0.29242(17) -0.0551(3) 0.46300(16)
H29 H 0.34990 -0.13890 0.50280
H30 H 0.22160 -0.08770 0.46200
C24 C 0.33228(17) 0.1102(3) 0.52086(16)
H31 H 0.26460 0.17540 0.50670
C25 C 0.26860(18) -0.1927(3) 0.28287(18)
H32 H 0.30120 -0.28270 0.33660
H33 H 0.30990 -0.18300 0.23970
C26 C 0.0997(2) -0.0524(3) 0.1625(2)
H34 H 0.01730 -0.04860 0.13760
C27 C 0.1459(2) 0.4429(3) 0.3550(3)
H35 H 0.17510 0.51480 0.41670
H36 H 0.06710 0.43680 0.30710
C28 C 0.4090(2) 0.1005(3) 0.64680(18)
H37 H 0.36720 0.05460 0.68230
H38 H 0.43520 0.20900 0.67640
H39 H 0.47370 0.03160 0.66240
C29 C 0.1414(4) -0.2208(6) 0.2043(4)
H40 H 0.12900 -0.29410 0.14220
H41 H 0.10400 -0.26600 0.24530
C30 C 0.1176(5) -0.0068(7) 0.0633(4)
H42 H 0.08080 -0.08670 0.00380
H43 H 0.19830 -0.00470 0.08700
H44 H 0.08530 0.10010 0.03560
C31? C 0.1952(5) -0.1516(8) 0.1626(4)
H45? H 0.16590 -0.25050 0.11700
H46? H 0.23700 -0.08740 0.13310
C32? C 0.0223(5) 0.0229(10) 0.0532(4)
H47? H 0.06430 0.09900 0.03210
H48? H -0.03770 0.08060 0.05940
H49? H -0.01070 -0.06130 -0.00380
#END
