
#######################################################################
#
#                 Cambridge Crystallographic Data Centre
#                                CCDC
#
#######################################################################
#
# If this CIF has been generated from an entry in the Cambridge
# Structural Database, then it will include bibliographic, chemical,
# crystal, experimental, refinement or atomic coordinate data resulting
# from the CCDC's data processing and validation procedures.
#
#######################################################################

data_CSD_CIF_WOBJEC
_audit_creation_date 2000-11-21
_audit_creation_method CSD-ConQuest-V1
_database_code_CSD WOBJEC
_database_code_depnum_ccdc_archive 'CCDC 150331'
_chemical_formula_sum 'C17 H17 N3 O2'
_chemical_formula_moiety
;
C17 H17 N3 O2
;
_journal_coeditor_code "IUCr BM1393"
_journal_coden_Cambridge 591
_journal_volume 56
_journal_year 2000
_journal_page_first 971
_journal_name_full 'Acta Crystallogr.,Sect.C:Cryst.Struct.Commun. '
loop_
_publ_author_name
"V.N.Nesterov"
"T.V.Timofeeva"
"O.Ya.Borbulevych"
"M.Yu.Antipin"
"R.D.Clark"
_chemical_name_systematic
;
N-((E,2E)-3-(4-(Dimethylamino)phenyl)-2-propenylidene)-4-nitroaniline
;
_chemical_melting_point 468.15
_cell_volume    757.087
_exptl_crystal_colour 'dark yellow'
_exptl_crystal_density_diffrn 1.296
_exptl_crystal_description 'square prism'
_exptl_crystal_preparation 'acetonitrile'
_diffrn_ambient_temperature ?
_diffrn_special_details
;
The study was carried out at room temperature,in the range 283-303K

;
#These two values have been output from a single CSD field.
_refine_ls_R_factor_gt 0.0621
_refine_ls_wR_factor_gt 0.0621
_symmetry_cell_setting triclinic
_symmetry_space_group_name_H-M 'P -1'
_symmetry_Int_Tables_number 2
loop_
_symmetry_equiv_pos_site_id
_symmetry_equiv_pos_as_xyz
1 x,y,z
2 -x,-y,-z
_cell_length_a 6.1650(12)
_cell_length_b 7.2730(15)
_cell_length_c 17.158(3)
_cell_angle_alpha 90.70(3)
_cell_angle_beta 100.10(3)
_cell_angle_gamma 91.37(3)
_cell_formula_units_Z 2
loop_
_atom_type_symbol
_atom_type_radius_bond
C 0.68
H 0.23
N 0.68
O 0.68
loop_
_atom_site_label
_atom_site_type_symbol
_atom_site_fract_x
_atom_site_fract_y
_atom_site_fract_z
N1 N 0.4643(4) 0.7254(3) -0.06229(12)
N2 N 0.6366(5) 0.7422(3) -0.37293(14)
N3 N -0.1100(4) 0.7689(3) 0.37508(12)
O1 O 0.5158(4) 0.6588(4) -0.42520(13)
O2 O 0.8034(5) 0.8222(4) -0.38343(13)
C1 C 0.4906(4) 0.7336(3) -0.14213(14)
C2 C 0.3502(5) 0.6457(4) -0.2042(2)
H1 H 0.230(4) 0.577(3) -0.1945(13)
C3 C 0.3962(5) 0.6488(4) -0.2798(2)
H2 H 0.296(4) 0.584(3) -0.3235(14)
C4 C 0.5828(4) 0.7427(3) -0.29287(14)
C5 C 0.7240(5) 0.8345(4) -0.2330(2)
H3 H 0.850(4) 0.898(3) -0.2441(14)
C6 C 0.6765(4) 0.8284(3) -0.1582(2)
H4 H 0.769(3) 0.894(3) -0.1145(13)
C7 C 0.2721(5) 0.7256(4) -0.0446(2)
H5 H 0.132(4) 0.734(3) -0.0862(14)
C8 C 0.2390(5) 0.7133(4) 0.0362(2)
H6 H 0.368(4) 0.691(3) 0.0730(15)
C9 C 0.0466(5) 0.7398(4) 0.0594(2)
H7 H -0.072(5) 0.773(4) 0.0230(15)
C10 C 0.0072(4) 0.7428(3) 0.14075(13)
C11 C -0.1818(4) 0.8220(3) 0.1591(2)
H8 H -0.282(4) 0.866(3) 0.1153(13)
C12 C -0.2200(5) 0.8351(4) 0.23552(15)
H9 H -0.349(4) 0.893(3) 0.2450(12)
C13 C -0.0720(4) 0.7641(3) 0.29870(15)
C14 C 0.1183(5) 0.6836(4) 0.2800(2)
H10 H 0.229(4) 0.633(3) 0.3219(14)
C15 C 0.1558(4) 0.6747(4) 0.2037(2)
H11 H 0.288(4) 0.622(3) 0.1942(13)
C16 C 0.0616(7) 0.7185(7) 0.4404(2)
H12 H 0.012(5) 0.731(4) 0.490(2)
H13 H 0.198(7) 0.791(6) 0.440(2)
H14 H 0.102(5) 0.590(5) 0.4342(18)
C17 C -0.2927(7) 0.8689(7) 0.3950(2)
H15 H -0.316(6) 0.848(5) 0.446(2)
H16 H -0.433(7) 0.837(5) 0.359(2)
H17 H -0.259(7) 1.005(6) 0.392(3)
#END
