
#######################################################################
#
#                 Cambridge Crystallographic Data Centre
#                                CCDC
#
#######################################################################
#
# If this CIF has been generated from an entry in the Cambridge
# Structural Database, then it will include bibliographic, chemical,
# crystal, experimental, refinement or atomic coordinate data resulting
# from the CCDC's data processing and validation procedures.
#
#######################################################################

data_CSD_CIF_WOBJIG
_audit_creation_date 2000-11-21
_audit_creation_method CSD-ConQuest-V1
_database_code_CSD WOBJIG
_database_code_depnum_ccdc_archive 'CCDC 150332'
_chemical_formula_sum 'C18 H19 N3 O2'
_chemical_formula_moiety
;
C18 H19 N3 O2
;
_journal_coeditor_code "IUCr BM1393"
_journal_coden_Cambridge 591
_journal_volume 56
_journal_year 2000
_journal_page_first 971
_journal_name_full 'Acta Crystallogr.,Sect.C:Cryst.Struct.Commun. '
loop_
_publ_author_name
"V.N.Nesterov"
"T.V.Timofeeva"
"O.Ya.Borbulevych"
"M.Yu.Antipin"
"R.D.Clark"
_chemical_name_systematic
;
N-((E,2E)-3-(4-(Dimethylamino)phenyl)-2-propenylidene)-2-methyl-4-nitroaniline
;
_chemical_melting_point 448.15
_cell_volume    815.510
_exptl_crystal_colour 'yellow'
_exptl_crystal_density_diffrn 1.26
_exptl_crystal_description 'plate'
_exptl_crystal_preparation 'acetonitrile'
_diffrn_ambient_temperature ?
_diffrn_special_details
;
The study was carried out at room temperature,in the range 283-303K

;
#These two values have been output from a single CSD field.
_refine_ls_R_factor_gt 0.0802
_refine_ls_wR_factor_gt 0.0802
_symmetry_cell_setting triclinic
_symmetry_space_group_name_H-M 'P -1'
_symmetry_Int_Tables_number 2
loop_
_symmetry_equiv_pos_site_id
_symmetry_equiv_pos_as_xyz
1 x,y,z
2 -x,-y,-z
_cell_length_a 8.438(2)
_cell_length_b 9.609(2)
_cell_length_c 10.546(2)
_cell_angle_alpha 72.95(3)
_cell_angle_beta 86.13(3)
_cell_angle_gamma 89.81(3)
_cell_formula_units_Z 2
loop_
_atom_type_symbol
_atom_type_radius_bond
C 0.68
H 0.23
N 0.68
O 0.68
loop_
_atom_site_label
_atom_site_type_symbol
_atom_site_fract_x
_atom_site_fract_y
_atom_site_fract_z
N1 N 0.6735(4) -0.1821(3) -0.0962(3)
N2 N 1.2668(4) -0.3062(4) -0.3050(5)
N3 N -0.2696(4) -0.2255(3) 0.3330(4)
O1 O 1.3629(4) -0.3717(4) -0.2290(4)
O2 O 1.2919(4) -0.2646(4) -0.4252(4)
C1 C 0.8196(4) -0.2226(3) -0.1455(4)
C2 C 0.9322(4) -0.2949(4) -0.0634(4)
H1 H 0.9096(4) -0.3246(4) 0.0282(4)
C3 C 1.0777(5) -0.3233(4) -0.1159(5)
H2 H 1.1533(5) -0.3736(4) -0.0605(5)
C4 C 1.1102(4) -0.2772(3) -0.2498(4)
C5 C 0.9985(5) -0.2072(4) -0.3343(4)
H3 H 1.0216(5) -0.1804(4) -0.4258(4)
C6 C 0.8523(4) -0.1768(3) -0.2828(4)
C7 C 0.5892(4) -0.2733(4) -0.0033(4)
H4 H 0.6245(4) -0.3681(4) 0.0292(4)
C8 C 0.4441(4) -0.2343(4) 0.0515(4)
H5 H 0.4132(4) -0.1379(4) 0.0207(4)
C9 C 0.3485(4) -0.3265(4) 0.1444(4)
H6 H 0.3851(4) -0.4207(4) 0.1778(4)
C10 C 0.1954(4) -0.2970(3) 0.1988(4)
C11 C 0.1011(4) -0.4073(3) 0.2855(4)
H7 H 0.1430(4) -0.5000(3) 0.3142(4)
C12 C -0.0487(4) -0.3866(4) 0.3304(4)
H8 H -0.1071(4) -0.4651(4) 0.3867(4)
C13 C -0.1180(4) -0.2466(4) 0.2928(4)
C14 C -0.0221(5) -0.1347(3) 0.2080(4)
H9 H -0.0625(5) -0.0413(3) 0.1804(4)
C15 C 0.1275(5) -0.1578(4) 0.1650(4)
H10 H 0.1877(5) -0.0791(4) 0.1112(4)
C16 C -0.3465(5) -0.0888(5) 0.2782(5)
H11 H -0.4537(13) -0.0943(13) 0.316(3)
H12 H -0.347(4) -0.0687(18) 0.1835(7)
H13 H -0.290(2) -0.0123(7) 0.298(3)
C17 C -0.3698(5) -0.3452(5) 0.4134(5)
H14 H -0.4717(13) -0.3089(7) 0.434(3)
H15 H -0.3212(18) -0.391(2) 0.4946(13)
H16 H -0.383(3) -0.4147(17) 0.3654(12)
C18 C 0.7321(5) -0.0946(5) -0.3736(5)
H17 H 0.692(3) -0.016(2) -0.342(2)
H18 H 0.646(2) -0.1591(10) -0.375(3)
H19 H 0.7812(12) -0.056(3) -0.4619(9)
#END
