
#######################################################################
#
#                 Cambridge Crystallographic Data Centre
#                                CCDC
#
#######################################################################
#
# If this CIF has been generated from an entry in the Cambridge
# Structural Database, then it will include bibliographic, chemical,
# crystal, experimental, refinement or atomic coordinate data resulting
# from the CCDC's data processing and validation procedures.
#
#######################################################################

data_CSD_CIF_WOBKAA
_audit_creation_date 2008-07-15
_audit_creation_method CSD-ConQuest-V1
_database_code_CSD WOBKAA
_database_code_depnum_ccdc_archive 'CCDC 282847'
_chemical_formula_sum 'C15 H23 N1 O1'
_chemical_formula_moiety
;
C15 H23 N1 O1
;
_journal_coden_Cambridge 15
_journal_volume 84
_journal_year 2006
_journal_page_first 1456
_journal_name_full 'Can.J.Chem. '
loop_
_publ_author_name
"M.Harmata"
"P.Rashatasakhon"
"C.L.Barnes"
_chemical_name_systematic
;
4,10-dimethyl-7-methylenetricyclo[7.2.1.0^1,5^]dodecan-12-one oxime
;
_cell_volume   2786.196
_exptl_crystal_colour 'colorless'
_exptl_crystal_density_diffrn 1.113
_exptl_special_details
;
Not CCDC 282839-282845 and 282856 as published

;
_exptl_crystal_description 'prism'
_diffrn_ambient_temperature 173
#These two values have been output from a single CSD field.
_refine_ls_R_factor_gt 0.0461
_refine_ls_wR_factor_gt 0.0461
loop_
_citation_database_id_CSD
_citation_special_details
WIYSIH "is a stereoisomer of this entry"
WOBJUT "is a stereoisomer of this entry"
_symmetry_cell_setting orthorhombic
_symmetry_space_group_name_H-M 'P 21 21 21'
_symmetry_Int_Tables_number 19
loop_
_symmetry_equiv_pos_site_id
_symmetry_equiv_pos_as_xyz
1 x,y,z
2 1/2-x,-y,1/2+z
3 1/2+x,1/2-y,-z
4 -x,1/2+y,1/2-z
_cell_length_a 9.2435(5)
_cell_length_b 13.3919(7)
_cell_length_c 22.5078(13)
_cell_angle_alpha 90
_cell_angle_beta 90
_cell_angle_gamma 90
_cell_formula_units_Z 8
loop_
_atom_type_symbol
_atom_type_radius_bond
C 0.68
H 0.23
N 0.68
O 0.68
loop_
_atom_site_label
_atom_site_type_symbol
_atom_site_fract_x
_atom_site_fract_y
_atom_site_fract_z
O1 O 0.62769(19) 0.30225(10) 0.82190(7)
N1 N 0.6747(2) 0.20136(12) 0.82730(7)
C1 C 0.6660(3) 0.03805(14) 0.78089(9)
C2 C 0.6294(3) 0.14717(15) 0.78467(9)
C3 C 0.5376(3) 0.17589(16) 0.73248(9)
H1 H 0.46450 0.22650 0.74530
C4 C 0.6316(3) 0.22015(17) 0.68256(10)
H2 H 0.57160 0.22440 0.64620
H3 H 0.65780 0.28920 0.69390
C5 C 0.7699(3) 0.16511(18) 0.66690(9)
C6 C 0.7835(3) 0.05381(16) 0.67527(9)
H4 H 0.86910 0.03000 0.65290
H5 H 0.69710 0.02110 0.65810
C7 C 0.7987(3) 0.02130(14) 0.74038(9)
H6 H 0.87950 0.06160 0.75760
C8 C 0.5251(3) -0.00296(16) 0.75438(10)
H7 H 0.54530 -0.06360 0.73060
H8 H 0.45680 -0.02090 0.78650
C9 C 0.4592(3) 0.07836(17) 0.71480(11)
H9 H 0.48330 0.06280 0.67250
C10 C 0.7146(3) -0.01498(15) 0.83776(9)
H10 H 0.77330 0.03030 0.86280
H11 H 0.62990 -0.03780 0.86100
C11 C 0.8048(3) -0.10390(17) 0.81706(11)
H12 H 0.75060 -0.16690 0.82300
H13 H 0.89610 -0.10770 0.84000
C12 C 0.8374(3) -0.08822(16) 0.75051(10)
H14 H 0.76850 -0.13020 0.72710
C13 C 0.8824(4) 0.2160(2) 0.64597(11)
H15 H 0.96970 0.18220 0.63650
H16 H 0.87540 0.28610 0.64050
C14 C 0.2950(3) 0.0851(2) 0.72078(12)
H17 H 0.25890 0.14010 0.69620
H18 H 0.26950 0.09720 0.76240
H19 H 0.25120 0.02230 0.70750
C15 C 0.9898(3) -0.11717(18) 0.73305(12)
H20 H 1.05910 -0.07910 0.75700
H21 H 1.00490 -0.10240 0.69090
H22 H 1.00390 -0.18870 0.74000
O2 O 0.83836(18) 0.23476(11) 0.92948(8)
N2 N 0.74668(19) 0.31928(12) 0.93504(8)
C16 C 0.6753(2) 0.45370(15) 1.00107(9)
C17 C 0.7580(2) 0.36046(15) 0.98579(9)
C18 C 0.8496(3) 0.32973(16) 1.03757(9)
H23 H 0.85470 0.25520 1.03920
C19 C 1.0036(3) 0.37222(16) 1.03280(11)
H24 H 1.04900 0.36800 1.07260
H25 H 1.05970 0.32840 1.00590
C20 C 1.0192(2) 0.47869(16) 1.01080(9)
C21 C 0.9071(2) 0.55645(16) 1.02600(9)
H26 H 0.94890 0.62360 1.01930
H27 H 0.88250 0.55080 1.06870
C22 C 0.7686(2) 0.54615(14) 0.98920(9)
H28 H 0.79980 0.54170 0.94670
C23 C 0.6440(3) 0.43672(18) 1.06761(10)
H29 H 0.64380 0.50120 1.08910
H30 H 0.54820 0.40490 1.07280
C24 C 0.7637(3) 0.36842(18) 1.09208(10)
H31 H 0.83000 0.40900 1.11760
C25 C 0.5408(2) 0.47887(16) 0.96456(10)
H32 H 0.45750 0.43690 0.97650
H33 H 0.55890 0.46970 0.92160
C26 C 0.5140(3) 0.58906(17) 0.97946(11)
H34 H 0.44960 0.59510 1.01440
H35 H 0.46810 0.62360 0.94540
C27 C 0.6638(3) 0.63529(16) 0.9930(1)
H36 H 0.66370 0.66130 1.03460
C28 C 1.1307(3) 0.5026(2) 0.97687(10)
H37 H 1.14030 0.56870 0.96210
H38 H 1.20130 0.45360 0.96730
C29 C 0.7031(4) 0.2825(2) 1.12898(11)
H39 H 0.64430 0.23910 1.10350
H40 H 0.64280 0.30930 1.16110
H41 H 0.78300 0.24390 1.14600
C30 C 0.7062(3) 0.71971(17) 0.95096(14)
H42 H 0.70140 0.69590 0.90980
H43 H 0.80500 0.74160 0.95990
H44 H 0.63940 0.77590 0.95610
H45 H 0.658(3) 0.3236(17) 0.8617(11)
H46 H 0.803(3) 0.204(2) 0.8958(12)
#END
