
#######################################################################
#
#                 Cambridge Crystallographic Data Centre
#                                CCDC
#
#######################################################################
#
# If this CIF has been generated from an entry in the Cambridge
# Structural Database, then it will include bibliographic, chemical,
# crystal, experimental, refinement or atomic coordinate data resulting
# from the CCDC's data processing and validation procedures.
#
#######################################################################

data_CSD_CIF_WOBLUU
_audit_creation_date 2000-11-21
_audit_creation_method CSD-ConQuest-V1
_database_code_CSD WOBLUU
_database_code_depnum_ccdc_archive 'CCDC 150344'
_chemical_formula_sum 'C3 H3 N5 O4'
_chemical_formula_moiety
;
C3 H3 N5 O4
;
_journal_coeditor_code "IUCr AV1037"
_journal_coden_Cambridge 591
_journal_volume 56
_journal_year 2000
_journal_page_first 999
_journal_name_full 'Acta Crystallogr.,Sect.C:Cryst.Struct.Commun. '
loop_
_publ_author_name
"A.D.Vasiliev"
"A.M.Astachov"
"O.A.Golubtsova"
"L.A.Kruglyakova"
"R.S.Stepanov"
_chemical_name_systematic
;
3-Nitro-1-nitromethyl-1H-1,2,4-triazole
;
_chemical_name_common
;
3-Nitro-1,2,4-triazolyl-1-nitromethane
;
_chemical_melting_point 453
_cell_volume    653.871
_exptl_crystal_colour 'colorless'
_exptl_crystal_density_diffrn 1.758
_exptl_special_details
;
Melts with decomposition.

;
_exptl_crystal_description 'plate'
_exptl_crystal_preparation 'ethanol'
_diffrn_ambient_temperature ?
_diffrn_special_details
;
The study was carried out at room temperature,in the range 283-303K

;
#These two values have been output from a single CSD field.
_refine_ls_R_factor_gt 0.032
_refine_ls_wR_factor_gt 0.032
_symmetry_cell_setting monoclinic
_symmetry_space_group_name_H-M 'P 21/c'
_symmetry_Int_Tables_number 14
loop_
_symmetry_equiv_pos_site_id
_symmetry_equiv_pos_as_xyz
1 x,y,z
2 x,1/2-y,1/2+z
3 -x,-y,-z
4 -x,-1/2+y,-1/2-z
_cell_length_a 6.6305(4)
_cell_length_b 9.2888(3)
_cell_length_c 10.9828(6)
_cell_angle_alpha 90
_cell_angle_beta 104.837(5)
_cell_angle_gamma 90
_cell_formula_units_Z 4
loop_
_atom_type_symbol
_atom_type_radius_bond
C 0.68
H 0.23
N 0.68
O 0.68
loop_
_atom_site_label
_atom_site_type_symbol
_atom_site_fract_x
_atom_site_fract_y
_atom_site_fract_z
N1 N 0.01891(17) 0.18566(12) 0.05048(11)
N2 N 0.14659(17) 0.15240(11) 0.16441(11)
N3 N -0.01845(19) 0.34469(13) 0.19974(12)
O1 O 0.48807(18) 0.22243(13) 0.10386(13)
C1 C -0.0729(2) 0.29980(14) 0.08001(13)
N4 N 0.48470(18) 0.09794(13) 0.13424(11)
N5 N -0.22771(18) 0.37542(13) -0.01595(12)
O2 O -0.3053(2) 0.31141(14) -0.11321(12)
C2 C 0.2991(2) 0.04162(15) 0.17534(15)
O3 O 0.62109(18) 0.01055(14) 0.13497(12)
O4 O -0.2692(2) 0.49800(12) 0.00697(13)
C3 C 0.1219(2) 0.24805(16) 0.25091(15)
H1 H 0.352(2) 0.0150(17) 0.2643(17)
H2 H 0.249(2) -0.0362(18) 0.1221(17)
H3 H 0.198(3) 0.2389(18) 0.3351(19)
#END
