
#######################################################################
#
#                 Cambridge Crystallographic Data Centre
#                                CCDC
#
#######################################################################
#
# If this CIF has been generated from an entry in the Cambridge
# Structural Database, then it will include bibliographic, chemical,
# crystal, experimental, refinement or atomic coordinate data resulting
# from the CCDC's data processing and validation procedures.
#
#######################################################################

data_CSD_CIF_WOBLII
_audit_creation_date 2000-11-21
_audit_creation_method CSD-ConQuest-V1
_database_code_CSD WOBLII
_database_code_depnum_ccdc_archive 'CCDC 150342'
_chemical_formula_sum 'C15 H29 N3 O3'
_chemical_formula_moiety
;
C15 H29 N3 O3
;
_journal_coeditor_code "IUCr GS1085"
_journal_coden_Cambridge 591
_journal_volume 56
_journal_year 2000
_journal_page_first 995
_journal_name_full 'Acta Crystallogr.,Sect.C:Cryst.Struct.Commun. '
loop_
_publ_author_name
"C.Corbier"
"C.Didierjean"
"L.Thevenet"
"R.Vanderesse"
"M.Marraud"
_chemical_name_systematic
;
(S)-N-Isopropyl ([N-(pivaloyl)pyrrolidin-2-yl]methylaminooxy)acetamide
;
_cell_volume   1701.288
_exptl_crystal_colour 'colorless'
_exptl_crystal_density_diffrn 1.169
_exptl_crystal_description 'prismatic'
_exptl_crystal_preparation 'dichloromethane'
_diffrn_ambient_temperature ?
_diffrn_special_details
;
The study was carried out at room temperature,in the range 283-303K

;
#These two values have been output from a single CSD field.
_refine_ls_R_factor_gt 0.0541
_refine_ls_wR_factor_gt 0.0541
_symmetry_cell_setting orthorhombic
_symmetry_space_group_name_H-M 'P 21 21 21'
_symmetry_Int_Tables_number 19
loop_
_symmetry_equiv_pos_site_id
_symmetry_equiv_pos_as_xyz
1 x,y,z
2 1/2-x,-y,1/2+z
3 1/2+x,1/2-y,-z
4 -x,1/2+y,1/2-z
_cell_length_a 5.3860(5)
_cell_length_b 11.470(2)
_cell_length_c 27.539(3)
_cell_angle_alpha 90
_cell_angle_beta 90
_cell_angle_gamma 90
_cell_formula_units_Z 4
loop_
_atom_type_symbol
_atom_type_radius_bond
C 0.68
H 0.23
N 0.68
O 0.68
loop_
_atom_site_label
_atom_site_type_symbol
_atom_site_fract_x
_atom_site_fract_y
_atom_site_fract_z
O1 O 0.3926(4) 0.23774(17) 0.07053(7)
O2 O 0.9164(4) 0.4192(2) 0.04322(9)
O3 O 0.2749(5) 0.25799(18) 0.25725(7)
N1 N 0.2908(4) 0.08643(17) 0.21961(8)
N2 N 0.5056(5) 0.4479(2) 0.02998(10)
H1 H 0.328(3) 0.416(3) 0.0294(14)
N3 N 0.3164(5) 0.29575(19) 0.11501(8)
H2 H 0.178(5) 0.348(3) 0.1018(12)
C1 C 0.7006(5) 0.3856(2) 0.04434(10)
C2 C 0.4081(5) 0.1432(2) 0.17694(10)
H3 H 0.53770 0.19740 0.18760
C3 C 0.2316(5) 0.1526(2) 0.25858(9)
C4 C 0.2102(6) 0.2081(2) 0.14761(10)
H4 H 0.11620 0.15230 0.12860
H5 H 0.09610 0.24610 0.16980
C5 C 0.5235(6) 0.5661(3) 0.01026(12)
H6 H 0.69780 0.59040 0.00900
C6 C 0.1008(5) 0.1012(3) 0.30359(11)
C7 C 0.2741(7) -0.0412(2) 0.21346(11)
H7 H 0.10700 -0.06890 0.21980
H8 H 0.38890 -0.08130 0.23490
C8 C 0.6451(6) 0.2631(3) 0.06192(13)
H9 H 0.70750 0.20830 0.03800
H10 H 0.73660 0.24990 0.09180
C9 C 0.5233(7) 0.0403(3) 0.15064(12)
H11 H 0.53680 0.05560 0.11610
H12 H 0.68700 0.02290 0.16340
C10 C 0.1954(8) -0.0178(3) 0.32134(14)
H13 H 0.36670 -0.01130 0.33050
H14 H 0.17920 -0.07410 0.29570
H15 H 0.09920 -0.04240 0.34880
C11 C 0.3446(8) -0.0588(3) 0.16046(13)
H16 H 0.42420 -0.13380 0.15560
H17 H 0.19990 -0.05370 0.13960
C12 C 0.1355(9) 0.1880(4) 0.34519(13)
H18 H 0.30880 0.19440 0.35290
H19 H 0.04630 0.16130 0.37320
H20 H 0.07310 0.26290 0.33560
C13 C 0.3775(11) 0.6485(3) 0.04224(18)
H21 H 0.45400 0.65270 0.07370
H22 H 0.21040 0.62040 0.04560
H23 H 0.37530 0.72460 0.02780
C14 C -0.1714(6) 0.0938(6) 0.29024(17)
H24 H -0.19280 0.03840 0.26440
H25 H -0.22860 0.16890 0.27980
H26 H -0.26530 0.06920 0.31800
C15 C 0.416(2) 0.5665(4) -0.03952(14)
H27 H 0.51360 0.51740 -0.06030
H28 H 0.41600 0.64460 -0.05200
H29 H 0.24860 0.53780 -0.03830
#END
