
#######################################################################
#
#                 Cambridge Crystallographic Data Centre
#                                CCDC
#
#######################################################################
#
# If this CIF has been generated from an entry in the Cambridge
# Structural Database, then it will include bibliographic, chemical,
# crystal, experimental, refinement or atomic coordinate data resulting
# from the CCDC's data processing and validation procedures.
#
#######################################################################

data_CSD_CIF_WOBXUI
_audit_creation_date 2014-03-10
_audit_creation_method CSD-ConQuest-V1
_database_code_CSD WOBXUI
_database_code_depnum_ccdc_archive 'CCDC 919571'
_chemical_formula_sum 'C26 H19 N1 O5'
_chemical_formula_moiety
;
C26 H19 N1 O5
;
_journal_coden_Cambridge 4
_journal_volume 135
_journal_year 2013
_journal_page_first 7926
_journal_name_full 'J.Am.Chem.Soc. '
loop_
_publ_author_name
"Weidong Rao"
"Ming Joo Koh"
"Dan Li"
"H.Hirao"
"Philip Wai Hong Chan"
_chemical_name_systematic
;
5-Benzoyl-2-phenylcyclohexa-1,5-dien-1-yl 4-nitrobenzoate
;
_cell_volume   2053.003
_exptl_crystal_colour 'yellow'
_exptl_crystal_density_diffrn 1.376
_exptl_crystal_description 'block'
_diffrn_ambient_temperature 103
#These two values have been output from a single CSD field.
_refine_ls_R_factor_gt 0.0514
_refine_ls_wR_factor_gt 0.0514
_symmetry_cell_setting monoclinic
_symmetry_space_group_name_H-M 'P c'
_symmetry_Int_Tables_number 7
loop_
_symmetry_equiv_pos_site_id
_symmetry_equiv_pos_as_xyz
1 x,y,z
2 x,-y,1/2+z
_cell_length_a 9.0790(5)
_cell_length_b 36.296(2)
_cell_length_c 6.5673(3)
_cell_angle_alpha 90
_cell_angle_beta 108.441(3)
_cell_angle_gamma 90
_cell_formula_units_Z 4
loop_
_atom_type_symbol
_atom_type_radius_bond
C 0.68
H 0.23
N 0.68
O 0.68
loop_
_atom_site_label
_atom_site_type_symbol
_atom_site_fract_x
_atom_site_fract_y
_atom_site_fract_z
C1 C 0.2421(3) 0.37878(9) 0.8620(5)
H1 H 0.29220 0.39340 0.98430
C2 C 0.1816(4) 0.34452(9) 0.8878(6)
H2 H 0.19100 0.33560 1.02740
C3 C 0.1073(4) 0.32333(9) 0.7082(7)
H3 H 0.06780 0.29970 0.72570
C4 C 0.0906(4) 0.33642(9) 0.5039(6)
H4 H 0.03750 0.32200 0.38200
C5 C 0.1514(3) 0.37065(8) 0.4768(5)
H5 H 0.13980 0.37960 0.33670
C6 C 0.2295(3) 0.39170(8) 0.6568(5)
C7 C 0.3014(3) 0.42795(7) 0.6342(5)
C8 C 0.4017(3) 0.43022(7) 0.4964(4)
C9 C 0.4448(3) 0.46722(8) 0.4283(5)
H6 H 0.43200 0.48630 0.52920
H7 H 0.37320 0.47320 0.28380
C10 C 0.6113(3) 0.46808(7) 0.4230(5)
H8 H 0.62780 0.49100 0.35140
H9 H 0.68340 0.46840 0.57190
C11 C 0.6482(3) 0.43513(7) 0.3051(4)
C12 C 0.5748(3) 0.40356(7) 0.3202(4)
C13 C 0.4638(3) 0.39988(7) 0.4365(4)
H10 H 0.43480 0.37610 0.47060
C14 C 0.7708(3) 0.43853(7) 0.2025(4)
C15 C 0.8990(3) 0.46106(8) 0.2995(5)
H11 H 0.90630 0.47360 0.42930
C16 C 1.0159(3) 0.46507(8) 0.2055(5)
H12 H 1.10250 0.48040 0.27160
C17 C 1.0071(4) 0.44680(8) 0.0161(5)
H13 H 1.08780 0.44950 -0.04620
C18 C 0.8798(4) 0.42464(8) -0.0817(5)
H14 H 0.87360 0.41200 -0.21090
C19 C 0.7607(3) 0.42084(8) 0.0092(5)
H15 H 0.67250 0.40620 -0.06060
C20 C 0.6796(3) 0.34383(7) 0.3547(4)
C21 C 0.7213(3) 0.31271(7) 0.2339(4)
C22 C 0.7412(4) 0.31866(8) 0.0354(5)
H16 H 0.71280 0.34160 -0.03540
C23 C 0.8030(4) 0.29088(8) -0.0599(5)
H17 H 0.81780 0.29450 -0.19530
C24 C 0.8421(3) 0.25779(7) 0.0489(5)
C25 C 0.8190(3) 0.25073(8) 0.2434(5)
H18 H 0.84470 0.22750 0.31190
C26 C 0.7573(3) 0.27858(7) 0.3350(4)
H19 H 0.73930 0.27440 0.46800
N1 N 0.9125(3) 0.22887(6) -0.0494(4)
O1 O 0.2829(3) 0.45465(6) 0.7375(4)
O2 O 0.6060(2) 0.37118(5) 0.2219(3)
O3 O 0.7153(3) 0.34517(6) 0.5479(3)
O4 O 0.9563(3) 0.20049(6) 0.0528(4)
O5 O 0.9243(3) 0.23454(7) -0.2280(4)
C27 C -0.1589(4) 0.11882(8) 1.5494(5)
H20 H -0.09980 0.10580 1.67400
C28 C -0.2396(4) 0.15041(9) 1.5691(6)
H21 H -0.23330 0.15940 1.70750
C29 C -0.3289(4) 0.16880(9) 1.3885(6)
H22 H -0.38580 0.19010 1.40260
C30 C -0.3357(4) 0.15619(9) 1.1851(6)
H23 H -0.39670 0.16900 1.06110
C31 C -0.2535(3) 0.12485(8) 1.1629(5)
H24 H -0.25800 0.11640 1.02430
C32 C -0.1648(3) 0.10608(8) 1.3453(5)
C33 C -0.0812(3) 0.07126(8) 1.3298(5)
C34 C 0.0168(3) 0.06975(8) 1.1884(5)
C35 C 0.0660(3) 0.03287(8) 1.1261(5)
H25 H -0.00480 0.02580 0.98290
H26 H 0.05710 0.01400 1.23050
C36 C 0.2326(3) 0.03360(8) 1.1197(5)
H27 H 0.30500 0.03450 1.26830
H28 H 0.25340 0.01060 1.05210
C37 C 0.2624(3) 0.06661(8) 0.9950(4)
C38 C 0.1813(3) 0.09739(7) 1.0010(5)
C39 C 0.0708(3) 0.10035(8) 1.1196(5)
H29 H 0.03670 0.12390 1.14870
C40 C 0.3845(3) 0.06325(8) 0.8902(5)
C41 C 0.3794(4) 0.08202(9) 0.7012(5)
H30 H 0.29510 0.09810 0.63540
C42 C 0.4974(4) 0.07729(9) 0.6088(6)
H31 H 0.49320 0.09030 0.48170
C43 C 0.6201(4) 0.05374(9) 0.7011(6)
H32 H 0.69950 0.05040 0.63700
C44 C 0.6266(4) 0.03482(9) 0.8892(6)
H33 H 0.71090 0.01870 0.95390
C45 C 0.5097(3) 0.03959(8) 0.9814(5)
H34 H 0.51480 0.02650 1.10880
C46 C 0.2620(3) 0.15938(7) 1.0056(5)
C47 C 0.2755(2) 0.19021(4) 0.8636(3)
C48 C 0.2169(3) 0.18795(5) 0.6412(3)
H35 H 0.16150 0.16660 0.57500
C49 C 0.2391(3) 0.21691(5) 0.5155(2)
H36 H 0.19900 0.21540 0.36350
C50 C 0.3201(3) 0.24812(5) 0.6123(3)
C51 C 0.3788(2) 0.25038(4) 0.8347(3)
H37 H 0.43410 0.27170 0.90090
C52 C 0.3565(2) 0.22142(5) 0.9604(2)
H38 H 0.39660 0.22300 1.11240
N2 N 0.3471(4) 0.27749(9) 0.4796(6)
O6 O 0.3021(3) 0.16072(6) 1.1982(3)
O7 O 0.2707(5) 0.27701(8) 0.2876(5)
O8 O 0.4416(4) 0.30106(9) 0.5657(7)
O9 O -0.0918(3) 0.04475(7) 1.4381(5)
O10 O 0.1999(2) 0.12914(5) 0.8881(3)
#END
