
#######################################################################
#
#                 Cambridge Crystallographic Data Centre
#                                CCDC
#
#######################################################################
#
# If this CIF has been generated from an entry in the Cambridge
# Structural Database, then it will include bibliographic, chemical,
# crystal, experimental, refinement or atomic coordinate data resulting
# from the CCDC's data processing and validation procedures.
#
#######################################################################

data_CSD_CIF_WOBYAP
_audit_creation_date 2014-03-10
_audit_creation_method CSD-ConQuest-V1
_database_code_CSD WOBYAP
_database_code_depnum_ccdc_archive 'CCDC 919570'
_chemical_formula_sum 'C32 H29 N1 O4'
_chemical_formula_moiety
;
C32 H29 N1 O4
;
_journal_coden_Cambridge 4
_journal_volume 135
_journal_year 2013
_journal_page_first 7926
_journal_name_full 'J.Am.Chem.Soc. '
loop_
_publ_author_name
"Weidong Rao"
"Ming Joo Koh"
"Dan Li"
"H.Hirao"
"Philip Wai Hong Chan"
_chemical_name_systematic
;
2-Phenyl-5-(7-phenylbicyclo[4.1.0]hept-7-yl)cyclohexa-1,5-dien-1-yl 
4-nitrobenzoate
;
_cell_volume   2489.061
_exptl_crystal_colour 'yellow'
_exptl_crystal_density_diffrn 1.312
_exptl_crystal_description 'block'
_diffrn_ambient_temperature 103
_refine_special_details
;
C47,C48 and C47A,C48A disordered over two sites with occupancies 0.626:0.374.

;
#These two values have been output from a single CSD field.
_refine_ls_R_factor_gt 0.0526
_refine_ls_wR_factor_gt 0.0526
_symmetry_cell_setting triclinic
_symmetry_space_group_name_H-M 'P -1'
_symmetry_Int_Tables_number 2
loop_
_symmetry_equiv_pos_site_id
_symmetry_equiv_pos_as_xyz
1 x,y,z
2 -x,-y,-z
_cell_length_a 11.0748(4)
_cell_length_b 12.7661(5)
_cell_length_c 19.1210(7)
_cell_angle_alpha 102.802(2)
_cell_angle_beta 101.802(2)
_cell_angle_gamma 101.914(2)
_cell_formula_units_Z 4
loop_
_atom_type_symbol
_atom_type_radius_bond
C 0.68
H 0.23
N 0.68
O 0.68
loop_
_atom_site_label
_atom_site_type_symbol
_atom_site_fract_x
_atom_site_fract_y
_atom_site_fract_z
C1 C 0.52835(17) -0.19743(14) 0.18130(9)
H1 H 0.43290 -0.22150 0.16910
C2 C 0.58371(18) -0.21616(14) 0.11461(10)
H2 H 0.63210 -0.14340 0.11180
H3 H 0.51270 -0.24850 0.06880
C3 C 0.67203(18) -0.29332(15) 0.11771(10)
H4 H 0.71400 -0.29470 0.07660
H5 H 0.62100 -0.37000 0.11110
C4 C 0.77401(18) -0.25411(15) 0.19203(10)
H6 H 0.83390 -0.30200 0.19130
H7 H 0.82350 -0.17680 0.19910
C5 C 0.71382(18) -0.25860(15) 0.25688(10)
H8 H 0.69000 -0.33700 0.25860
H9 H 0.77920 -0.21560 0.30370
C6 C 0.59658(17) -0.21408(14) 0.25399(10)
H10 H 0.53740 -0.24670 0.28130
C7 C 0.59114(16) -0.09789(13) 0.24948(9)
C8 C 0.70607(16) -0.00960(13) 0.25117(9)
C9 C 0.82309(17) 0.01377(14) 0.30314(10)
H11 H 0.83370 -0.03060 0.33660
C10 C 0.92445(19) 0.10109(15) 0.30663(11)
H12 H 1.00420 0.11520 0.34180
C11 C 0.90956(19) 0.16790(15) 0.25893(11)
H13 H 0.97880 0.22780 0.26130
C12 C 0.79295(19) 0.14660(15) 0.20782(11)
H14 H 0.78190 0.19260 0.17550
C13 C 0.69229(18) 0.05855(14) 0.20363(10)
H15 H 0.61300 0.04430 0.16810
C14 C 0.50415(16) -0.04459(14) 0.28730(9)
C15 C 0.55225(17) 0.01271(14) 0.36968(9)
H16 H 0.61690 0.08350 0.37760
H17 H 0.59480 -0.03510 0.39470
C16 C 0.44632(17) 0.03745(15) 0.40531(10)
H18 H 0.39890 -0.03180 0.41320
H19 H 0.48530 0.09230 0.45460
C17 C 0.35298(16) 0.08282(14) 0.35847(10)
C18 C 0.32731(16) 0.03964(14) 0.28496(9)
C19 C 0.39558(17) -0.03216(14) 0.24907(10)
H20 H 0.36260 -0.07070 0.19780
C20 C 0.13347(17) -0.01205(15) 0.19170(9)
C21 C 0.04957(16) 0.02799(14) 0.13802(9)
C22 C -0.06469(17) -0.04861(15) 0.09427(10)
H21 H -0.08450 -0.12220 0.09920
C23 C -0.14916(18) -0.01763(15) 0.04378(10)
H22 H -0.22780 -0.06870 0.01430
C24 C -0.11585(17) 0.08968(15) 0.03750(9)
C25 C -0.00270(18) 0.16705(15) 0.07926(10)
H23 H 0.01760 0.23990 0.07310
C26 C 0.08056(17) 0.13541(15) 0.13053(10)
H24 H 0.15850 0.18710 0.16040
C27 C 0.28980(16) 0.16259(14) 0.39483(10)
C28 C 0.25089(17) 0.15016(15) 0.45812(10)
H25 H 0.26630 0.09090 0.47820
C29 C 0.18971(18) 0.22359(16) 0.49218(10)
H26 H 0.16210 0.21330 0.53470
C30 C 0.16882(18) 0.31152(16) 0.46453(11)
H27 H 0.12690 0.36140 0.48790
C31 C 0.20937(17) 0.32659(15) 0.40248(11)
H28 H 0.19590 0.38730 0.38360
C32 C 0.26939(17) 0.25299(14) 0.36822(10)
H29 H 0.29720 0.26400 0.32590
N1 N -0.20604(16) 0.12205(13) -0.01630(9)
O1 O 0.23569(11) 0.07117(9) 0.23591(6)
O2 O 0.11336(12) -0.1066(1) 0.19558(7)
O3 O -0.16754(15) 0.20624(12) -0.03483(8)
O4 O -0.31632(15) 0.06356(12) -0.04074(9)
C33 C 0.71856(17) 0.52184(14) 0.34467(9)
H30 H 0.73370 0.59920 0.37670
C34 C 0.82605(18) 0.49941(15) 0.31082(10)
H31 H 0.86700 0.56610 0.29750
H32 H 0.79150 0.43680 0.26500
C35 C 0.92538(19) 0.47043(17) 0.36722(11)
H33 H 0.97330 0.53880 0.40750
H34 H 0.98720 0.44300 0.34210
C36 C 0.86386(19) 0.38134(15) 0.40143(10)
H35 H 0.90610 0.32000 0.39530
H36 H 0.87810 0.41470 0.45530
C37 C 0.72003(18) 0.33391(15) 0.36546(10)
H37 H 0.70450 0.29560 0.31220
H38 H 0.68320 0.27930 0.39010
C38 C 0.65827(17) 0.42970(14) 0.37398(10)
H39 H 0.63890 0.45420 0.42290
C39 C 0.57734(17) 0.45713(14) 0.30885(9)
C40 C 0.53945(16) 0.37774(14) 0.23221(9)
C41 C 0.55734(18) 0.41535(15) 0.17122(10)
H40 H 0.59650 0.49190 0.17840
C42 C 0.51908(18) 0.34335(15) 0.10021(10)
H41 H 0.53080 0.37080 0.05910
C43 C 0.46391(17) 0.23158(15) 0.08927(10)
H42 H 0.43980 0.18150 0.04090
C44 C 0.44389(17) 0.19297(15) 0.14931(10)
H43 H 0.40480 0.11640 0.14200
C45 C 0.48082(16) 0.26580(14) 0.2200(1)
H44 H 0.46580 0.23870 0.26070
C46 C 0.48323(17) 0.52138(14) 0.32601(9)
C47 C 0.5209(4) 0.6170(4) 0.3966(2)
H45 H 0.56650 0.68560 0.38710
H46 H 0.58020 0.59990 0.43610
C48 C 0.4044(6) 0.6375(5) 0.4234(3)
H47 H 0.36510 0.57290 0.43930
H48 H 0.43170 0.70420 0.46660
C49 C 0.30780(17) 0.65453(15) 0.36194(10)
C50 C 0.29387(17) 0.58702(14) 0.29441(10)
C51 C 0.37710(18) 0.51683(14) 0.27633(10)
H49 H 0.35550 0.46660 0.22810
C52 C 0.09597(17) 0.49778(14) 0.20484(10)
C53 C 0.00410(17) 0.51227(14) 0.14096(10)
C54 C -0.10905(17) 0.42847(16) 0.1071(1)
H50 H -0.12760 0.36660 0.12670
C55 C -0.19430(18) 0.43446(16) 0.04547(11)
H51 H -0.27110 0.37710 0.02200
C56 C -0.16542(17) 0.52559(15) 0.01876(10)
C57 C -0.05568(17) 0.61129(15) 0.05197(10)
H52 H -0.03900 0.67370 0.03270
C58 C 0.02972(17) 0.60485(15) 0.11375(10)
H53 H 0.10550 0.66330 0.13750
C59 C 0.22509(17) 0.72785(14) 0.38155(10)
C60 C 0.20438(18) 0.74732(16) 0.45269(10)
H54 H 0.24270 0.71230 0.48690
C61 C 0.12939(19) 0.81637(16) 0.47421(11)
H55 H 0.11590 0.82760 0.52250
C62 C 0.07404(18) 0.86906(15) 0.42535(11)
H56 H 0.02250 0.91650 0.43990
C63 C 0.09441(18) 0.85215(15) 0.35531(11)
H57 H 0.05670 0.88830 0.32170
C64 C 0.16938(17) 0.78281(14) 0.33349(10)
H58 H 0.18300 0.77260 0.28520
N2 N -0.25308(16) 0.52990(14) -0.04906(9)
O5 O 0.19749(11) 0.58794(10) 0.23337(6)
O6 O 0.08206(13) 0.41702(11) 0.22797(7)
O7 O -0.21984(14) 0.60543(13) -0.07723(8)
O8 O -0.35444(14) 0.45794(13) -0.07495(9)
C65? C 0.4886(7) 0.5729(7) 0.4081(4)
H59? H 0.43750 0.51670 0.42630
H60? H 0.57820 0.59320 0.43840
C66? C 0.4398(10) 0.6721(9) 0.4181(6)
H61? H 0.50310 0.73440 0.41200
H62? H 0.43070 0.69350 0.46940
#END
