
#######################################################################
#
#                 Cambridge Crystallographic Data Centre
#                                CCDC
#
#######################################################################
#
# If this CIF has been generated from an entry in the Cambridge
# Structural Database, then it will include bibliographic, chemical,
# crystal, experimental, refinement or atomic coordinate data resulting
# from the CCDC's data processing and validation procedures.
#
#######################################################################

data_CSD_CIF_WOCHEB
_audit_creation_date 2000-11-21
_audit_creation_method CSD-ConQuest-V1
_database_code_CSD WOCHEB
_database_code_depnum_ccdc_archive 'CCDC 150743'
_chemical_formula_sum 'C18 H14 N2 O6'
_chemical_formula_moiety
;
C18 H14 N2 O6
;
_journal_coeditor_code "IUCr QD0005"
_journal_data_validation_number IUC0000202
_journal_coden_Cambridge 591
_journal_volume 56
_journal_year 2000
_journal_page_first e408
_journal_name_full 'Acta Crystallogr.,Sect.C:Cryst.Struct.Commun. '
loop_
_publ_author_name
"A.Yu.Kovalevsky"
"I.I.Ponomarev"
"M.A.Baranova"
_chemical_name_systematic
;
6,7-dimethoxy-2-(2-(4-nitrophenyl)ethenyl)-4H-3,1-benzoxazine-4-one
;
_chemical_melting_point 544.15
_cell_volume    793.326
_exptl_crystal_colour 'yellow'
_exptl_crystal_density_diffrn 1.483
_exptl_special_details
;
Melting point range 544.15-546.15K

;
_exptl_crystal_description 'parallelepiped'
_diffrn_ambient_temperature 208
#These two values have been output from a single CSD field.
_refine_ls_R_factor_gt 0.045
_refine_ls_wR_factor_gt 0.045
_symmetry_cell_setting triclinic
_symmetry_space_group_name_H-M 'P -1'
_symmetry_Int_Tables_number 2
loop_
_symmetry_equiv_pos_site_id
_symmetry_equiv_pos_as_xyz
1 x,y,z
2 -x,-y,-z
_cell_length_a 6.8484(10)
_cell_length_b 7.2348(14)
_cell_length_c 16.806(3)
_cell_angle_alpha 93.801(15)
_cell_angle_beta 96.783(13)
_cell_angle_gamma 105.321(13)
_cell_formula_units_Z 2
loop_
_atom_type_symbol
_atom_type_radius_bond
C 0.68
H 0.23
N 0.68
O 0.68
loop_
_atom_site_label
_atom_site_type_symbol
_atom_site_fract_x
_atom_site_fract_y
_atom_site_fract_z
O1 O 0.7447(2) 0.2485(2) -0.08201(9)
O2 O 1.0598(2) 0.3411(3) -0.11130(9)
O3 O 0.2058(3) 0.4578(3) 0.3636(1)
O4 O -0.0891(3) 0.3593(3) 0.29043(11)
O5 O 0.5763(3) -0.1354(2) -0.43977(9)
O6 O 0.9542(3) 0.0596(2) -0.41253(9)
N1 N 0.4612(3) 0.0670(3) -0.17394(11)
N2 N 0.0971(3) 0.3945(3) 0.29916(12)
C1 C 0.5129(4) -0.0386(3) -0.30661(13)
H1 H 0.3733(4) -0.1055(3) -0.31775(13)
C2 C 0.6379(4) -0.0404(3) -0.36500(13)
C3 C 0.8467(4) 0.0640(3) -0.34945(13)
C4 C 0.9265(4) 0.1582(3) -0.27480(13)
H2 H 1.0666(4) 0.2230(3) -0.26351(13)
C5 C 0.8005(3) 0.1586(3) -0.21507(12)
C6 C 0.5930(3) 0.0627(3) -0.23073(12)
C7 C 0.8853(3) 0.2568(3) -0.13567(13)
C8 C 0.5399(3) 0.1592(3) -0.10479(13)
C9 C 0.4198(4) 0.1803(3) -0.04135(13)
H3 H 0.2794(4) 0.1160(3) -0.05028(13)
C10 C 0.4957(3) 0.2850(3) 0.02876(13)
H4 H 0.6361(3) 0.3491(3) 0.03605(13)
C11 C 0.3845(3) 0.3117(3) 0.09609(12)
C12 C 0.1732(3) 0.2416(3) 0.09265(13)
H5 H 0.0943(3) 0.1761(3) 0.04442(13)
C13 C 0.0783(3) 0.2665(3) 0.15876(14)
H6 H -0.0640(3) 0.2173(3) 0.15631(14)
C14 C 0.1962(3) 0.3651(3) 0.22857(13)
C15 C 0.4043(4) 0.4386(3) 0.23412(14)
H7 H 0.4816(4) 0.5052(3) 0.28244(14)
C16 C 0.4979(3) 0.4131(3) 0.16744(13)
H8 H 0.6400(3) 0.4649(3) 0.17020(13)
C17 C 0.3690(4) -0.2523(4) -0.45761(15)
H9 H 0.3468(9) -0.319(2) -0.5112(5)
H10 H 0.2770(4) -0.1711(5) -0.4552(11)
H11 H 0.3426(9) -0.3455(18) -0.4185(7)
C18 C 1.1432(4) 0.2031(4) -0.4084(2)
H12 H 1.1928(14) 0.1998(18) -0.4600(4)
H13 H 1.2423(9) 0.1786(15) -0.3672(8)
H14 H 1.1236(7) 0.3289(4) -0.3951(11)
#END
