
#######################################################################
#
#                 Cambridge Crystallographic Data Centre
#                                CCDC
#
#######################################################################
#
# If this CIF has been generated from an entry in the Cambridge
# Structural Database, then it will include bibliographic, chemical,
# crystal, experimental, refinement or atomic coordinate data resulting
# from the CCDC's data processing and validation procedures.
#
#######################################################################

data_CSD_CIF_WOCTIR
_audit_creation_date 2000-11-21
_audit_creation_method CSD-ConQuest-V1
_database_code_CSD WOCTIR
_database_code_depnum_ccdc_archive 'CCDC 150855'
_chemical_formula_sum 'C14 H21 N1 O5'
_chemical_formula_moiety
;
C14 H21 N1 O5
;
_journal_coeditor_code "IUCr FR1265"
_journal_coden_Cambridge 591
_journal_volume 56
_journal_year 2000
_journal_page_first 1146
_journal_name_full 'Acta Crystallogr.,Sect.C:Cryst.Struct.Commun. '
loop_
_publ_author_name
"P.Zhou"
"J.D.Fisher"
"R.J.Staples"
"A.Vij"
"N.R.Natale"
_chemical_name_systematic
;
Ethyl 5-methyl-4-(2,5,5-trimethyl-1,3-dioxan-2-yl)isoxazole-3-carboxylate
;
_cell_volume    735.723
_exptl_crystal_colour 'colorless'
_exptl_crystal_density_diffrn 1.279
_exptl_crystal_description 'Block'
_exptl_crystal_preparation 'hexane'
_diffrn_ambient_temperature 193
#These two values have been output from a single CSD field.
_refine_ls_R_factor_gt 0.047
_refine_ls_wR_factor_gt 0.047
_symmetry_cell_setting triclinic
_symmetry_space_group_name_H-M 'P -1'
_symmetry_Int_Tables_number 2
loop_
_symmetry_equiv_pos_site_id
_symmetry_equiv_pos_as_xyz
1 x,y,z
2 -x,-y,-z
_cell_length_a 8.5710(8)
_cell_length_b 9.5382(9)
_cell_length_c 10.3449(9)
_cell_angle_alpha 105.7991(10)
_cell_angle_beta 94.1123(11)
_cell_angle_gamma 112.6952(13)
_cell_formula_units_Z 2
loop_
_atom_type_symbol
_atom_type_radius_bond
C 0.68
H 0.23
N 0.68
O 0.68
loop_
_atom_site_label
_atom_site_type_symbol
_atom_site_fract_x
_atom_site_fract_y
_atom_site_fract_z
O1 O 0.68566(16) 0.50891(15) 0.94588(13)
O2 O 0.4294(2) -0.01121(17) 0.73592(14)
O3 O 0.31381(18) 0.05417(15) 0.91888(13)
O4 O 0.21280(15) 0.15184(14) 0.61285(12)
O5 O 0.34379(15) 0.40112(14) 0.57755(12)
N1 N 0.6131(2) 0.35593(19) 0.96175(15)
C1 C 0.6080(2) 0.5001(2) 0.82283(17)
C2 C 0.4866(2) 0.3484(2) 0.75691(17)
C3 C 0.4981(2) 0.2639(2) 0.84897(17)
C4 C 0.4097(2) 0.0868(2) 0.82610(17)
C5 C 0.2298(3) -0.1158(2) 0.9064(2)
H1 H 0.31570 -0.16170 0.90420
H2 H 0.14130 -0.17660 0.82080
C6 C 0.1474(3) -0.1264(3) 1.0288(2)
H3 H 0.08980 -0.23920 1.02380
H4 H 0.06230 -0.08100 1.02970
H5 H 0.23620 -0.06580 1.11280
C7 C 0.6729(3) 0.6518(2) 0.7889(2)
H6 H 0.60930 0.63340 0.69890
H7 H 0.79600 0.68700 0.78720
H8 H 0.65600 0.73500 0.85850
C8 C 0.3712(2) 0.2792(2) 0.61569(17)
C9 C 0.1001(2) 0.2027(2) 0.68997(19)
H9 H 0.15410 0.24880 0.78860
H10 H -0.00990 0.10840 0.67770
C10 C 0.0629(2) 0.3280(2) 0.64413(19)
C11 C 0.2389(2) 0.4620(2) 0.65640(18)
H11 H 0.22330 0.54500 0.62370
H12 H 0.29810 0.51310 0.75390
C12 C 0.4534(3) 0.2072(2) 0.50732(19)
H13 H 0.37650 0.16360 0.41750
H14 H 0.47320 0.12090 0.52900
H15 H 0.56380 0.29070 0.50530
C13 C -0.0370(3) 0.2545(2) 0.4957(2)
H16 H -0.05980 0.33620 0.46780
H17 H -0.14670 0.16440 0.48870
H18 H 0.03150 0.21590 0.43570
C14 C -0.0375(3) 0.3947(3) 0.7400(2)
H19 H 0.02880 0.44110 0.83420
H20 H -0.14880 0.30770 0.73500
H21 H -0.05690 0.47800 0.71240
#END
