
#######################################################################
#
#                 Cambridge Crystallographic Data Centre
#                                CCDC
#
#######################################################################
#
# If this CIF has been generated from an entry in the Cambridge
# Structural Database, then it will include bibliographic, chemical,
# crystal, experimental, refinement or atomic coordinate data resulting
# from the CCDC's data processing and validation procedures.
#
#######################################################################

data_CSD_CIF_WODJIK
_audit_creation_date 2014-03-11
_audit_creation_method CSD-ConQuest-V1
_database_code_CSD WODJIK
_database_code_depnum_ccdc_archive 'CCDC 991189'
_chemical_formula_sum 'C25 H29 N3 O9'
_chemical_formula_moiety
;
C25 H29 N3 O9
;
_journal_coden_Cambridge 35
_journal_volume 79
_journal_year 2014
_journal_page_first 2115
_journal_name_full 'J.Org.Chem. '
loop_
_publ_author_name
"M.L.Singleton"
"N.Castellucci"
"S.Massip"
"B.Kauffmann"
"Y.Ferrand"
"Ivan Huc"
_chemical_name_systematic
;
Dimethyl 
4,6-di-isobutoxy-10-((nitrooxy)methyl)pyrido[3,2-g]quinoline-2,8-dicarboxylate

;
_cell_volume   2505.928
_exptl_crystal_colour 'red'
_exptl_crystal_density_diffrn 1.366
_exptl_crystal_description 'plate'
_diffrn_ambient_temperature 113
_refine_special_details
;
C21,C22,C23 and C21',C22',C23' disordered over two sites with occupancies 
0.575:0.425.
;
#These two values have been output from a single CSD field.
_refine_ls_R_factor_gt 0.0593
_refine_ls_wR_factor_gt 0.0593
_symmetry_cell_setting monoclinic
_symmetry_space_group_name_H-M 'P 21/n'
_symmetry_Int_Tables_number 14
loop_
_symmetry_equiv_pos_site_id
_symmetry_equiv_pos_as_xyz
1 x,y,z
2 1/2-x,1/2+y,1/2-z
3 -x,-y,-z
4 -1/2+x,-1/2-y,-1/2+z
_cell_length_a 7.790(1)
_cell_length_b 14.768(1)
_cell_length_c 21.795(2)
_cell_angle_alpha 90
_cell_angle_beta 91.934(6)
_cell_angle_gamma 90
_cell_formula_units_Z 4
loop_
_atom_type_symbol
_atom_type_radius_bond
C 0.68
H 0.23
N 0.68
O 0.68
loop_
_atom_site_label
_atom_site_type_symbol
_atom_site_fract_x
_atom_site_fract_y
_atom_site_fract_z
N1 N 0.3327(2) 0.70847(10) 0.05876(7)
C1 C 0.3037(2) 0.61940(12) 0.04305(8)
C2 C 0.3734(2) 0.55118(12) 0.08146(8)
C3 C 0.3575(2) 0.45995(12) 0.06421(8)
N2 N 0.4328(2) 0.39573(10) 0.10203(6)
C4 C 0.4197(2) 0.31137(12) 0.08436(8)
C5 C 0.3350(2) 0.28021(12) 0.02976(8)
H1 H 0.33050 0.21750 0.02000
C6 C 0.2599(2) 0.34322(12) -0.00844(8)
C7 C 0.2678(2) 0.43661(12) 0.00811(8)
C8 C 0.1936(2) 0.50427(12) -0.02836(8)
H2 H 0.13110 0.48840 -0.06500
C9 C 0.2100(2) 0.59433(11) -0.01190(8)
C10 C 0.1383(2) 0.66556(12) -0.04938(8)
C11 C 0.1666(2) 0.75351(12) -0.03269(8)
H3 H 0.12080 0.80200 -0.05670
C12 C 0.2664(2) 0.77008(12) 0.02156(8)
C13 C 0.5080(2) 0.24441(12) 0.12696(8)
O1 O 0.58167(19) 0.26446(9) 0.17400(6)
O2 O 0.49601(17) 0.15983(8) 0.10542(6)
C14 C 0.5792(3) 0.09145(13) 0.14381(9)
H4 H 0.70290 0.10350 0.14700
H5 H 0.55950 0.03160 0.12550
H6 H 0.53150 0.09310 0.18480
O3 O 0.1789(2) 0.32585(8) -0.06225(6)
C15 C 0.1730(3) 0.23358(12) -0.08379(9)
H7 H 0.08230 0.19950 -0.06300
H8 H 0.28460 0.20330 -0.07500
C16 C 0.0537(9) 0.2274(3) -0.1401(2)
H9 H -0.06680 0.24310 -0.12980
C17 C 0.0645(18) 0.1302(6) -0.1651(5)
H10 H -0.00190 0.12590 -0.20400
H11 H 0.01740 0.08800 -0.13540
H12 H 0.18470 0.11480 -0.17190
C18 C 0.1229(9) 0.2935(3) -0.18685(18)
H13 H 0.23980 0.27590 -0.19700
H14 H 0.12430 0.35480 -0.16950
H15 H 0.04890 0.29250 -0.22410
O4 O 0.04890(17) 0.63658(8) -0.09919(5)
C19 C -0.0024(3) 0.69996(12) -0.14678(8)
H16 H 0.09730 0.73650 -0.15910
H17 H -0.09190 0.74140 -0.13200
C20 C -0.0719(3) 0.64465(13) -0.20039(8)
H18 H -0.17460 0.61000 -0.18720
C21 C 0.0621(3) 0.57814(15) -0.22192(10)
H19 H 0.16660 0.61110 -0.23200
H20 H 0.01730 0.54610 -0.25840
H21 H 0.08890 0.53440 -0.18920
C22 C -0.1274(3) 0.70934(16) -0.2519(1)
H22 H -0.02760 0.74370 -0.26520
H23 H -0.21410 0.75130 -0.23700
H24 H -0.17620 0.67460 -0.28660
C23 C 0.3103(3) 0.86603(12) 0.03984(8)
O5 O 0.43509(18) 0.88794(9) 0.06973(7)
O6 O 0.19193(17) 0.92447(8) 0.01769(6)
C24 C 0.2250(3) 1.01830(13) 0.03317(11)
H25 H 0.23390 1.02490 0.07790
H26 H 0.13060 1.05600 0.01680
H27 H 0.33280 1.03750 0.01530
C25 C 0.4696(2) 0.57422(12) 0.14022(8)
H28 H 0.57040 0.53410 0.14660
H29 H 0.50930 0.63790 0.13980
O7 O 0.34491(17) 0.56010(9) 0.18829(5)
N3 N 0.4175(3) 0.56288(11) 0.24730(8)
O8 O 0.5703(2) 0.57517(10) 0.25344(7)
O9 O 0.3131(2) 0.55267(11) 0.28652(7)
C26? C 0.1332(11) 0.2368(4) -0.1548(3)
H30? H 0.23930 0.25160 -0.17730
C27? C -0.0081(11) 0.3031(3) -0.1710(3)
H31? H -0.11160 0.28690 -0.14910
H32? H -0.03320 0.30140 -0.21530
H33? H 0.02860 0.36430 -0.15900
C28? C 0.071(2) 0.1406(8) -0.1707(8)
H34? H -0.02760 0.12550 -0.14590
H35? H 0.16420 0.09740 -0.16190
H36? H 0.03720 0.13760 -0.21430
#END
