
#######################################################################
#
#                 Cambridge Crystallographic Data Centre
#                                CCDC
#
#######################################################################
#
# If this CIF has been generated from an entry in the Cambridge
# Structural Database, then it will include bibliographic, chemical,
# crystal, experimental, refinement or atomic coordinate data resulting
# from the CCDC's data processing and validation procedures.
#
#######################################################################

data_CSD_CIF_WOFJUX01
_audit_creation_date 2008-12-09
_audit_creation_method CSD-ConQuest-V1
_database_code_CSD WOFJUX01
_database_code_depnum_ccdc_archive 'CCDC 697158'
_chemical_formula_sum 'C27 H35 N5 O6'
_chemical_formula_moiety
;
C27 H35 N5 O6
;
_journal_coden_Cambridge 392
_journal_volume 75
_journal_year 2008
_journal_page_first 799
_journal_name_full 'Heterocycles '
loop_
_publ_author_name
"C.Rabong"
"C.Hametner"
"K.Mereiter"
"V.G.Kartsev"
"U.Jordis"
_chemical_name_systematic
;
(+-)-1,1'-((1,3,5-Trinitropentane-2,4-diyl)bis(2,1-phenylene))dipiperidine
;
_chemical_melting_point 418.05
_cell_volume   1354.323
_exptl_crystal_colour 'yellow'
_exptl_crystal_density_diffrn 1.289
_exptl_crystal_description 'prism'
_exptl_crystal_preparation 'dichloromethane/diethyl ether'
_diffrn_ambient_temperature 298
#These two values have been output from a single CSD field.
_refine_ls_R_factor_gt 0.0571
_refine_ls_wR_factor_gt 0.0571
_symmetry_cell_setting triclinic
_symmetry_space_group_name_H-M 'P -1'
_symmetry_Int_Tables_number 2
loop_
_symmetry_equiv_pos_site_id
_symmetry_equiv_pos_as_xyz
1 x,y,z
2 -x,-y,-z
_cell_length_a 9.150(3)
_cell_length_b 12.096(4)
_cell_length_c 13.425(4)
_cell_angle_alpha 75.012(4)
_cell_angle_beta 74.163(4)
_cell_angle_gamma 75.417(4)
_cell_formula_units_Z 2
loop_
_atom_type_symbol
_atom_type_radius_bond
C 0.68
H 0.23
N 0.68
O 0.68
loop_
_atom_site_label
_atom_site_type_symbol
_atom_site_fract_x
_atom_site_fract_y
_atom_site_fract_z
O1 O 0.9133(2) 0.31716(16) -0.04582(14)
O2 O 0.68666(19) 0.42382(13) -0.03710(11)
O3 O 0.8256(3) 0.5641(2) 0.2703(2)
O4 O 0.6906(3) 0.64822(16) 0.15596(17)
O5 O 0.31356(18) 0.17467(17) 0.24074(15)
O6 O 0.20754(18) 0.29736(16) 0.12202(16)
N1 N 0.7827(2) 0.34863(15) 0.00198(14)
N2 N 0.7815(2) 0.56828(18) 0.19238(19)
N3 N 0.31402(19) 0.25722(18) 0.16696(17)
N4 N 0.42642(19) 0.41406(13) 0.34735(12)
N5 N 0.76718(17) 0.00086(13) 0.19668(13)
C1 C 0.73868(19) 0.29400(15) 0.11735(14)
H1 H 0.82760 0.23420 0.13500
C2 C 0.8342(2) 0.46403(18) 0.14246(19)
H2 H 0.93160 0.41960 0.15950
H3 H 0.85040 0.48870 0.06620
C3 C 0.4487(2) 0.31666(16) 0.13063(16)
H4 H 0.43430 0.37350 0.17360
H5 H 0.45300 0.35830 0.05800
C4 C 0.7104(2) 0.38746(15) 0.18395(14)
H6 H 0.60980 0.43830 0.17830
C5 C 0.7008(2) 0.32730(16) 0.29999(17)
C6 C 0.8338(3) 0.2563(2) 0.3303(2)
H7 H 0.92680 0.24840 0.28020
C7 C 0.8291(4) 0.1972(2) 0.4344(3)
H8 H 0.91870 0.15090 0.45390
C8 C 0.6919(5) 0.2074(3) 0.5080(3)
H9 H 0.68800 0.16650 0.57740
C9 C 0.5612(3) 0.2772(2) 0.48027(18)
H10 H 0.46910 0.28390 0.53130
C10 C 0.5627(3) 0.33883(16) 0.37651(15)
C11 C 0.2802(3) 0.3744(2) 0.39997(17)
H11 H 0.25620 0.37720 0.47440
H12 H 0.29100 0.29420 0.39460
C12 C 0.1498(3) 0.4503(2) 0.35016(19)
H13 H 0.17040 0.44300 0.27710
H14 H 0.05380 0.42400 0.38730
C13 C 0.1323(3) 0.5766(2) 0.3542(2)
H15 H 0.05720 0.62470 0.31400
H16 H 0.09450 0.58640 0.42690
C14 C 0.2854(3) 0.61494(19) 0.30913(18)
H17 H 0.27480 0.69320 0.31960
H18 H 0.31430 0.61730 0.23360
C15 C 0.4115(3) 0.53425(17) 0.36014(17)
H19 H 0.50890 0.56010 0.32770
H20 H 0.38700 0.53610 0.43480
C16 C 0.60145(19) 0.23164(14) 0.13734(14)
H21 H 0.58920 0.18700 0.21030
C17 C 0.6396(2) 0.14314(15) 0.06665(14)
C18 C 0.5965(2) 0.17126(19) -0.02936(16)
H22 H 0.53900 0.24500 -0.04990
C19 C 0.6367(3) 0.0928(2) -0.09530(18)
H23 H 0.60590 0.11360 -0.15930
C20 C 0.7214(3) -0.0149(2) -0.0664(2)
H24 H 0.75040 -0.06740 -0.11140
C21 C 0.7647(2) -0.04668(18) 0.0290(2)
H25 H 0.82190 -0.12100 0.04820
C22 C 0.7245(2) 0.03023(16) 0.09688(15)
C23 C 0.9172(2) -0.0777(2) 0.20060(19)
H26 H 0.99510 -0.05160 0.13940
H27 H 0.91020 -0.15600 0.19940
C24 C 0.9627(3) -0.0780(2) 0.3006(2)
H28 H 0.97440 -0.00010 0.29960
H29 H 1.06170 -0.13020 0.30370
C25 C 0.8428(3) -0.1164(2) 0.3978(2)
H30 H 0.86780 -0.10570 0.45990
H31 H 0.84410 -0.19870 0.40600
C26 C 0.6824(3) -0.0465(2) 0.38865(18)
H32 H 0.60590 -0.08040 0.44620
H33 H 0.67510 0.03280 0.39510
C27 C 0.6472(2) -0.04445(18) 0.28503(16)
H34 H 0.64370 -0.12270 0.28120
H35 H 0.54670 0.00470 0.28000
#END
