
#######################################################################
#
#                 Cambridge Crystallographic Data Centre
#                                CCDC
#
#######################################################################
#
# If this CIF has been generated from an entry in the Cambridge
# Structural Database, then it will include bibliographic, chemical,
# crystal, experimental, refinement or atomic coordinate data resulting
# from the CCDC's data processing and validation procedures.
#
#######################################################################

data_CSD_CIF_WOFVAQ
_audit_creation_date 2014-07-31
_audit_creation_method CSD-ConQuest-V1
_database_code_CSD WOFVAQ
_database_code_depnum_ccdc_archive 'CCDC 993621'
_chemical_formula_sum 'C9 H4 N4 O4'
_chemical_formula_moiety
;
C9 H4 N4 O4
;
_journal_coden_Cambridge 1135
_journal_volume 24
_journal_year 2014
_journal_page_first 203
_journal_name_full 'Mendeleev Commun. '
loop_
_publ_author_name
"M.A.Bastrakov"
"A.M.Starosotnikov"
"I.V.Fedyanin"
"V.V.Kachala"
"S.A.Shevelev"
_chemical_name_systematic
;
5-nitro[1,2,5]oxadiazolo[3,4-h]quinoline 1-oxide
;
_cell_volume    892.011
_exptl_crystal_colour 'yellow'
_exptl_crystal_density_diffrn 1.729
_exptl_crystal_description 'rod'
_diffrn_ambient_temperature 120
_refine_special_details
;
N2A,N3A,O3A,O4A and N2,N3,O3,O4 disordered over two sites with occupancies 
0.520:0.480.
;
#These two values have been output from a single CSD field.
_refine_ls_R_factor_gt 0.0574
_refine_ls_wR_factor_gt 0.0574
_symmetry_cell_setting monoclinic
_symmetry_space_group_name_H-M 'P 21/c'
_symmetry_Int_Tables_number 14
loop_
_symmetry_equiv_pos_site_id
_symmetry_equiv_pos_as_xyz
1 x,y,z
2 -x,1/2+y,1/2-z
3 -x,-y,-z
4 x,-1/2-y,-1/2+z
_cell_length_a 8.479(2)
_cell_length_b 14.384(3)
_cell_length_c 7.848(2)
_cell_angle_alpha 90
_cell_angle_beta 111.261(7)
_cell_angle_gamma 90
_cell_formula_units_Z 4
loop_
_atom_type_symbol
_atom_type_radius_bond
C 0.68
H 0.23
N 0.68
O 0.68
loop_
_atom_site_label
_atom_site_type_symbol
_atom_site_fract_x
_atom_site_fract_y
_atom_site_fract_z
O1 O 0.1331(4) -0.06385(17) 0.5107(4)
O2 O 0.1671(3) -0.00219(15) 0.2794(4)
N1 N 0.1905(3) -0.00479(15) 0.4400(4)
N2 N 0.3155(4) 0.32600(16) 0.5985(4)
C1 C 0.2447(4) 0.16410(17) 0.5156(4)
C2 C 0.3486(4) 0.23374(19) 0.6258(4)
C3 C 0.2973(4) 0.06705(18) 0.5616(4)
C4 C 0.0993(4) 0.19160(18) 0.3747(4)
H1 H 0.02620 0.14660 0.29670
C5 C 0.1753(4) 0.3487(2) 0.4614(5)
H2 H 0.15080 0.41300 0.43860
C6 C 0.4310(4) 0.0392(2) 0.7026(4)
H3 H 0.45760 -0.02480 0.72630
C7 C 0.0610(4) 0.28517(19) 0.3483(4)
H4 H -0.04050 0.30560 0.25540
C8 C 0.5319(4) 0.1099(3) 0.8160(5)
C9 C 0.4919(4) 0.2055(2) 0.7787(5)
O3 O 0.6380(7) 0.3169(4) 0.9744(11)
O4 O 0.7183(8) 0.1641(7) 1.0424(10)
N3 N 0.6663(13) 0.0777(6) 0.9701(15)
N4 N 0.6102(16) 0.2360(7) 0.9254(16)
O5? O 0.7595(11) 0.0636(3) 1.0685(10)
O6? O 0.7119(11) 0.2205(5) 1.0177(10)
N5? N 0.6669(13) 0.1222(8) 0.9644(14)
N6? N 0.5934(13) 0.2765(8) 0.8889(15)
#END
