
#######################################################################
#
#                 Cambridge Crystallographic Data Centre
#                                CCDC
#
#######################################################################
#
# If this CIF has been generated from an entry in the Cambridge
# Structural Database, then it will include bibliographic, chemical,
# crystal, experimental, refinement or atomic coordinate data resulting
# from the CCDC's data processing and validation procedures.
#
#######################################################################

data_CSD_CIF_WOGDUR
_audit_creation_date 2000-12-19
_audit_creation_method CSD-ConQuest-V1
_database_code_CSD WOGDUR
_database_code_depnum_ccdc_archive 'CCDC 150054'
_database_code_depnum_ccdc_journal 207/457
_chemical_formula_sum 'C15 H19 N1 O5'
_chemical_formula_moiety
;
C15 H19 N1 O5
;
_journal_coden_Cambridge 207
_journal_year 2000
_journal_page_first 2939
_journal_name_full 'J.Chem.Soc.,Perkin Trans.1 '
loop_
_publ_author_name
"Bor-Cherng Hong"
"Hsu-I Sun"
"Yeong-Jou Shr"
"Kuan-Jiuh Lin"
_chemical_name_systematic
;
10-(Diacetylmethyl)-8-nitratotricyclo(5.2.1.0^2,6^)dec-3-ene
;
_chemical_melting_point 406.15
_cell_volume   1436.347
_exptl_crystal_colour 'colorless'
_exptl_crystal_density_diffrn 1.356
_exptl_special_details
;
Melting point range 406.15-408.15K
structure is a 1:1 mixture of the 3-ene and 4-ene isomers
;
_diffrn_ambient_temperature ?
_diffrn_special_details
;
The study was carried out at room temperature,in the range 283-303K

;
#These two values have been output from a single CSD field.
_refine_ls_R_factor_gt 0.0427
_refine_ls_wR_factor_gt 0.0427
_symmetry_cell_setting monoclinic
_symmetry_space_group_name_H-M 'P 21/c'
_symmetry_Int_Tables_number 14
loop_
_symmetry_equiv_pos_site_id
_symmetry_equiv_pos_as_xyz
1 x,y,z
2 x,1/2-y,1/2+z
3 -x,-y,-z
4 -x,-1/2+y,-1/2-z
_cell_length_a 8.637(4)
_cell_length_b 17.757(7)
_cell_length_c 9.976(7)
_cell_angle_alpha 90
_cell_angle_beta 110.15(3)
_cell_angle_gamma 90
_cell_formula_units_Z 4
loop_
_atom_type_symbol
_atom_type_radius_bond
C 0.68
H 0.23
N 0.68
O 0.68
loop_
_atom_site_label
_atom_site_type_symbol
_atom_site_fract_x
_atom_site_fract_y
_atom_site_fract_z
O1 O 0.3933(3) 0.70045(11) -0.1998(2)
O2 O 0.6567(2) 0.86264(14) -0.1018(2)
O3 O 0.3535(2) 0.94774(8) 0.09579(14)
O4 O 0.1660(3) 0.97418(12) 0.1963(2)
O5 O 0.4282(3) 0.98076(11) 0.3177(2)
C1 C 0.0310(3) 0.87273(13) -0.3089(2)
C2 C 0.1415(3) 0.94426(13) -0.2961(2)
C3 C 0.1867(4) 0.9442(2) -0.4301(3)
C4 C 0.1104(3) 0.8815(2) -0.5137(3)
C5 C 0.0206(4) 0.8380(2) -0.4514(3)
C6 C 0.2855(3) 0.93059(12) -0.1553(2)
C7 C 0.2126(3) 0.94057(13) -0.0375(2)
C8 C 0.1115(3) 0.86826(14) -0.0453(3)
C9 C 0.1286(3) 0.82760(13) -0.1750(2)
C10 C 0.3077(2) 0.84499(12) -0.1621(2)
C11 C 0.5555(5) 0.6711(2) 0.0360(4)
C12 C 0.4584(3) 0.72280(13) -0.0793(2)
C13 C 0.4413(3) 0.80528(12) -0.0406(2)
C14 C 0.6112(3) 0.84215(14) -0.0071(3)
C15 C 0.7149(5) 0.8523(2) 0.1462(4)
N1 N 0.3107(3) 0.96948(11) 0.2125(2)
H1 H 0.1501(25) 0.9853(12) -0.0448(20)
H2 H 0.0877(24) 0.9866(12) -0.288(2)
H3 H 0.3222(23) 0.8315(11) -0.2482(22)
H4 H -0.0030(31) 0.8796(13) -0.0587(23)
H5 H 0.4180(23) 0.8032(11) 0.0445(21)
H6 H 0.0974(28) 0.7745(15) -0.1798(23)
H7 H 0.3823(28) 0.9622(13) -0.1418(23)
H8 H -0.0727(28) 0.8847(13) -0.3033(22)
H9 H 0.1546(26) 0.8396(12) 0.0367(23)
H10 H 0.1231(29) 0.8684(14) -0.6030(27)
H11 H 0.6663(56) 0.6848(23) 0.0674(41)
H12 H -0.0389(45) 0.8035(21) -0.4837(38)
H13 H 0.7149(41) 0.8045(22) 0.1941(34)
H14 H 0.8218(47) 0.8675(19) 0.1513(34)
H15 H 0.5478(41) 0.6271(21) 0.0123(36)
H16 H 0.6675(51) 0.8921(27) 0.1902(45)
H17 H 0.5317(45) 0.6776(21) 0.1180(41)
H18 H 0.3078(57) 0.9427(23) -0.4088(42)
H19 H 0.1820(46) 0.9909(22) -0.4699(39)
#END
