
#######################################################################
#
#                 Cambridge Crystallographic Data Centre
#                                CCDC
#
#######################################################################
#
# If this CIF has been generated from an entry in the Cambridge
# Structural Database, then it will include bibliographic, chemical,
# crystal, experimental, refinement or atomic coordinate data resulting
# from the CCDC's data processing and validation procedures.
#
#######################################################################

data_CSD_CIF_WOGVIY
_audit_creation_date 2008-12-09
_audit_creation_method CSD-ConQuest-V1
_database_code_CSD WOGVIY
_database_code_depnum_ccdc_archive 'CCDC 709331'
_chemical_formula_sum 'C15 H14 N2 O4'
_chemical_formula_moiety
;
C15 H14 N2 O4
;
_journal_coeditor_code "IUCr TK2312"
_journal_coden_Cambridge 1370
_journal_volume 64
_journal_year 2008
_journal_page_first o2087
_journal_name_full 'Acta Crystallogr.,Sect.E:Struct.Rep.Online '
loop_
_publ_author_name
"M.Akkurt"
"A.Jarrahpour"
"M.Aye"
"M.Gencaslan"
"O.Buyukgungor"
_chemical_name_systematic
;
3,4-Dimethoxy-N-(4-nitrobenzylidene)aniline
;
_chemical_melting_point 429
_cell_volume   1388.311
_exptl_crystal_colour 'brown'
_exptl_crystal_density_diffrn 1.37
_exptl_special_details
;
Melting point range 429-431K

;
_exptl_crystal_description 'prism'
_diffrn_ambient_temperature 296
#These two values have been output from a single CSD field.
_refine_ls_R_factor_gt 0.04
_refine_ls_wR_factor_gt 0.04
_symmetry_cell_setting monoclinic
_symmetry_space_group_name_H-M 'P 21/c'
_symmetry_Int_Tables_number 14
loop_
_symmetry_equiv_pos_site_id
_symmetry_equiv_pos_as_xyz
1 x,y,z
2 -x,1/2+y,1/2-z
3 -x,-y,-z
4 x,-1/2-y,-1/2+z
_cell_length_a 7.9536(4)
_cell_length_b 8.2258(3)
_cell_length_c 21.3418(10)
_cell_angle_alpha 90
_cell_angle_beta 96.125(4)
_cell_angle_gamma 90
_cell_formula_units_Z 4
loop_
_atom_type_symbol
_atom_type_radius_bond
C 0.68
H 0.23
N 0.68
O 0.68
loop_
_atom_site_label
_atom_site_type_symbol
_atom_site_fract_x
_atom_site_fract_y
_atom_site_fract_z
O1 O 0.34730(16) -0.17529(15) 0.28084(6)
O2 O 0.14131(16) 0.04285(15) 0.23416(6)
O3 O 0.1545(2) 1.09341(17) 0.58860(7)
O4 O 0.2133(2) 0.96182(16) 0.67456(6)
N1 N 0.2395(2) 0.38177(18) 0.41916(7)
N2 N 0.1851(2) 0.96644(18) 0.61754(7)
C1 C 0.2679(2) 0.2324(2) 0.38839(8)
C2 C 0.3732(2) 0.1113(2) 0.41434(8)
C3 C 0.4020(2) -0.0275(2) 0.37992(9)
C4 C 0.3240(2) -0.0470(2) 0.31966(8)
C5 C 0.2137(2) 0.0741(2) 0.29350(8)
C6 C 0.1891(2) 0.2128(2) 0.32730(8)
C7 C 0.4578(3) -0.3022(3) 0.30482(11)
C8 C 0.0173(3) 0.1542(2) 0.20751(9)
C9 C 0.2415(2) 0.3850(2) 0.47827(9)
C10 C 0.2237(2) 0.5361(2) 0.51351(8)
C11 C 0.1908(2) 0.6842(2) 0.48291(8)
C12 C 0.1756(2) 0.8243(2) 0.51682(8)
C13 C 0.1945(2) 0.8156(2) 0.58166(8)
C14 C 0.2255(2) 0.6721(2) 0.61381(8)
C15 C 0.2377(2) 0.5328(2) 0.57890(8)
H1 H 0.42540 0.12260 0.45520
H2 H 0.47450 -0.10770 0.39770
H3 H 0.11900 0.29450 0.30920
H4 H 0.46300 -0.38430 0.27310
H5 H 0.41610 -0.34920 0.34130
H6 H 0.56890 -0.25870 0.31620
H7 H -0.02420 0.11930 0.16580
H8 H 0.06680 0.26030 0.20550
H9 H -0.07470 0.15840 0.23320
H10 H 0.25480 0.28770 0.50050
H11 H 0.17910 0.68810 0.43910
H12 H 0.15290 0.92300 0.49640
H13 H 0.23770 0.66920 0.65760
H14 H 0.25570 0.43380 0.59960
#END
