
#######################################################################
#
#                 Cambridge Crystallographic Data Centre
#                                CCDC
#
#######################################################################
#
# If this CIF has been generated from an entry in the Cambridge
# Structural Database, then it will include bibliographic, chemical,
# crystal, experimental, refinement or atomic coordinate data resulting
# from the CCDC's data processing and validation procedures.
#
#######################################################################

data_CSD_CIF_WOHZUQ
_audit_creation_date 2014-08-01
_audit_creation_method CSD-ConQuest-V1
_database_code_CSD WOHZUQ
_database_code_depnum_ccdc_archive 'CCDC 1015316'
_chemical_formula_sum 'C29 H37 N1 O3'
_chemical_formula_moiety
;
C29 H37 N1 O3
;
_journal_coeditor_code "lr2129"
_journal_coden_Cambridge 1370
_journal_volume 70
_journal_year 2014
_journal_page_first o948
_journal_name_full 'Acta Crystallogr.,Sect.E:Struct.Rep.Online '
loop_
_publ_author_name
"X.-P.Rao"
"Y.-J.Cui"
"J.-Q.Zheng"
_chemical_name_systematic
;
(E)-1-(4-Methoxyphenyl)ethanone O-dehydroabietyloxime
;
_chemical_name_common
;
18-(((1-(4-Methoxyphenyl)ethylidene)amino)oxy)abieta -8,11,13-trien-18-one
;
_cell_volume   2558.698
_exptl_crystal_colour 'white'
_exptl_crystal_density_diffrn 1.162
_exptl_crystal_description 'block'
_diffrn_ambient_temperature 293
#These two values have been output from a single CSD field.
_refine_ls_R_factor_gt 0.0783
_refine_ls_wR_factor_gt 0.0783
_symmetry_cell_setting orthorhombic
_symmetry_space_group_name_H-M 'P 21 21 21'
_symmetry_Int_Tables_number 19
loop_
_symmetry_equiv_pos_site_id
_symmetry_equiv_pos_as_xyz
1 x,y,z
2 1/2-x,-y,1/2+z
3 -x,1/2+y,1/2-z
4 1/2+x,1/2-y,-z
_cell_length_a 6.1700(12)
_cell_length_b 11.051(2)
_cell_length_c 37.526(8)
_cell_angle_alpha 90
_cell_angle_beta 90
_cell_angle_gamma 90
_cell_formula_units_Z 4
loop_
_atom_type_symbol
_atom_type_radius_bond
C 0.68
H 0.23
N 0.68
O 0.68
loop_
_atom_site_label
_atom_site_type_symbol
_atom_site_fract_x
_atom_site_fract_y
_atom_site_fract_z
N1 N 0.1892(7) 0.0800(4) 0.03582(11)
O1 O 0.1751(9) -0.3034(4) -0.08665(11)
C1 C 0.3329(16) -0.3936(6) -0.0959(2)
H1 H 0.27480 -0.44570 -0.11400
H2 H 0.36800 -0.44070 -0.07510
H3 H 0.46160 -0.35490 -0.10470
O2 O 0.2587(6) 0.1742(4) 0.06048(9)
C2 C 0.2309(11) -0.2209(5) -0.06054(14)
O3 O -0.0806(6) 0.1739(4) 0.08121(11)
C3 C 0.4223(10) -0.2218(5) -0.04202(14)
H4 H 0.52470 -0.28210 -0.04600
C4 C 0.4604(9) -0.1316(5) -0.01735(13)
H5 H 0.59180 -0.13060 -0.00520
C5 C 0.3105(8) -0.0432(5) -0.01018(12)
C6 C 0.1146(10) -0.0433(5) -0.02848(14)
H6 H 0.00970 0.01500 -0.02380
C7 C 0.0789(10) -0.1324(5) -0.05395(14)
H7 H -0.05010 -0.13230 -0.06680
C8 C 0.3520(9) 0.0520(6) 0.01648(14)
C9 C 0.5748(10) 0.1086(7) 0.01919(18)
H8 H 0.57590 0.16690 0.03810
H9 H 0.60990 0.14790 -0.00290
H10 H 0.68010 0.04680 0.02400
C10 C 0.1024(8) 0.2116(5) 0.08260(13)
C11 C 0.1842(8) 0.3063(4) 0.10914(12)
C12 C 0.1060(9) 0.4277(5) 0.09359(13)
H11 H 0.19250 0.44700 0.07280
H12 H -0.04330 0.41910 0.08590
C13 C 0.1212(10) 0.5326(4) 0.12026(12)
H13 H 0.27190 0.54730 0.12620
H14 H 0.06270 0.60560 0.10960
C14 C -0.0049(9) 0.5020(4) 0.15382(12)
H15 H 0.00840 0.56880 0.17040
H16 H -0.15700 0.49400 0.14770
C15 C 0.0682(7) 0.3872(4) 0.17213(11)
C16 C 0.0614(7) 0.2829(4) 0.14438(11)
H17 H -0.09130 0.27710 0.13740
C17 C -0.0814(7) 0.3510(4) 0.20262(12)
C18 C -0.1403(8) 0.2317(5) 0.20981(12)
C19 C -0.0723(9) 0.1300(4) 0.18619(13)
H18 H -0.19580 0.10460 0.17200
H19 H -0.02920 0.06200 0.20090
C20 C 0.1123(8) 0.1615(4) 0.16145(13)
H20 H 0.12760 0.09980 0.14320
H21 H 0.24700 0.16640 0.17470
C21 C -0.1556(9) 0.4395(5) 0.22626(13)
H22 H -0.11820 0.51990 0.22220
C22 C -0.2828(9) 0.4119(5) 0.25553(13)
H23 H -0.33010 0.47330 0.27060
C23 C -0.3401(9) 0.2922(5) 0.26245(13)
C24 C -0.2702(9) 0.2063(5) 0.23947(13)
H24 H -0.31040 0.12640 0.24360
C25 C 0.4331(8) 0.3015(5) 0.11184(15)
H25 H 0.47640 0.22510 0.12170
H26 H 0.48300 0.36580 0.12700
H27 H 0.49500 0.31060 0.08850
C26 C 0.2970(8) 0.4086(4) 0.18935(13)
H28 H 0.28830 0.47390 0.20620
H29 H 0.39960 0.42870 0.17100
H30 H 0.34300 0.33630 0.20130
C27 C -0.4765(10) 0.2590(5) 0.29540(14)
H31 H -0.47530 0.17060 0.29710
C28 C -0.3787(12) 0.3065(7) 0.32966(14)
H32 H -0.47030 0.28510 0.34940
H33 H -0.36600 0.39300 0.32830
H34 H -0.23770 0.27160 0.33300
C29 C -0.7111(11) 0.2963(6) 0.29055(18)
H35 H -0.79190 0.27580 0.31160
H36 H -0.77120 0.25460 0.27040
H37 H -0.71870 0.38200 0.28660
#END
