
#######################################################################
#
#                 Cambridge Crystallographic Data Centre
#                                CCDC
#
#######################################################################
#
# If this CIF has been generated from an entry in the Cambridge
# Structural Database, then it will include bibliographic, chemical,
# crystal, experimental, refinement or atomic coordinate data resulting
# from the CCDC's data processing and validation procedures.
#
#######################################################################

data_CSD_CIF_WOJCUV
_audit_creation_date 2014-08-01
_audit_creation_method CSD-ConQuest-V1
_database_code_CSD WOJCUV
_database_code_depnum_ccdc_archive 'CCDC 1015965'
_chemical_formula_sum 'C13 H13 N3 O3'
_chemical_formula_moiety
;
C13 H13 N3 O3
;
_journal_coeditor_code "hg5400"
_journal_coden_Cambridge 1370
_journal_volume 70
_journal_year 2014
_journal_page_first o966
_journal_name_full 'Acta Crystallogr.,Sect.E:Struct.Rep.Online '
loop_
_publ_author_name
"H.Alliouche"
"A.Bouraiou"
"S.Bouacida"
"H.Merazig"
"A.Belfaitah"
_chemical_name_systematic
;
2-(2-(2-Methoxyphenyl)vinyl)-1-methyl-4-nitro-1H-imidazole
;
_cell_volume    604.673
_exptl_crystal_colour 'yellow'
_exptl_crystal_density_diffrn 1.424
_exptl_crystal_description 'Block'
_diffrn_ambient_temperature 150
#These two values have been output from a single CSD field.
_refine_ls_R_factor_gt 0.0877
_refine_ls_wR_factor_gt 0.0877
_symmetry_cell_setting triclinic
_symmetry_space_group_name_H-M 'P -1'
_symmetry_Int_Tables_number 2
loop_
_symmetry_equiv_pos_site_id
_symmetry_equiv_pos_as_xyz
1 x,y,z
2 -x,-y,-z
_cell_length_a 7.9339(18)
_cell_length_b 8.1994(19)
_cell_length_c 10.452(3)
_cell_angle_alpha 68.877(17)
_cell_angle_beta 75.037(17)
_cell_angle_gamma 76.182(17)
_cell_formula_units_Z 2
loop_
_atom_type_symbol
_atom_type_radius_bond
C 0.68
H 0.23
N 0.68
O 0.68
loop_
_atom_site_label
_atom_site_type_symbol
_atom_site_fract_x
_atom_site_fract_y
_atom_site_fract_z
O1 O 0.4178(3) 0.2400(3) 0.2786(3)
O2 O 1.0969(3) 0.6148(3) 0.0846(2)
O3 O 0.1531(3) 0.2922(3) 0.3961(3)
N1 N 0.3026(4) 0.3303(4) 0.3420(3)
N2 N 0.5059(3) 0.5331(4) 0.2979(3)
N3 N 0.3292(3) 0.7076(3) 0.4156(3)
C1 C 0.3460(4) 0.4809(4) 0.3545(3)
C2 C 0.4934(4) 0.6726(4) 0.3362(3)
C3 C 0.6299(4) 0.7796(5) 0.3004(3)
H1 H 0.60180 0.88670 0.31900
C4 C 0.7973(4) 0.7279(4) 0.2408(3)
H2 H 0.81980 0.61870 0.22610
C5 C 0.9464(4) 0.8227(4) 0.1968(3)
C6 C 1.1027(4) 0.7634(4) 0.1144(3)
C7 C 1.2438(4) 0.5580(5) -0.0106(4)
H3 H 1.26220 0.65420 -0.09610
H4 H 1.22000 0.46040 -0.02960
H5 H 1.34780 0.52140 0.02990
C8 C 0.2711(4) 0.8439(5) 0.4845(3)
H6 H 0.14650 0.85080 0.52150
H7 H 0.29480 0.95630 0.41800
H8 H 0.33390 0.81400 0.55910
C9 C 0.2328(4) 0.5873(4) 0.4277(3)
H9 H 0.11700 0.57780 0.47440
C10 C 1.2469(4) 0.8506(5) 0.0702(3)
H10 H 1.34900 0.81000 0.01540
C11 C 1.2392(5) 0.9970(5) 0.1072(3)
H11 H 1.33690 1.05440 0.07810
C12 C 1.0871(4) 1.0600(5) 0.1876(3)
H12 H 1.08180 1.16020 0.21160
C13 C 0.9434(4) 0.9723(5) 0.2317(3)
H13 H 0.84180 1.01440 0.28630
#END
