
#######################################################################
#
#                 Cambridge Crystallographic Data Centre
#                                CCDC
#
#######################################################################
#
# If this CIF has been generated from an entry in the Cambridge
# Structural Database, then it will include bibliographic, chemical,
# crystal, experimental, refinement or atomic coordinate data resulting
# from the CCDC's data processing and validation procedures.
#
#######################################################################

data_CSD_CIF_WOJDAC
_audit_creation_date 2014-08-01
_audit_creation_method CSD-ConQuest-V1
_database_code_CSD WOJDAC
_database_code_depnum_ccdc_archive 'CCDC 1016150'
_chemical_formula_sum 'C13 H13 N3 O2'
_chemical_formula_moiety
;
C13 H13 N3 O2
;
_journal_coeditor_code "lh5721"
_journal_coden_Cambridge 1370
_journal_volume 70
_journal_year 2014
_journal_page_first o962
_journal_name_full 'Acta Crystallogr.,Sect.E:Struct.Rep.Online '
loop_
_publ_author_name
"H.Alliouche"
"A.Bouraiou"
"S.Bouacida"
"H.Merazig"
"A.Belfaitah"
_chemical_name_systematic
;
1-Methyl-2-(2-(4-methylphenyl)vinyl)-4-nitro-1H-imidazole
;
_cell_volume   1197.256
_exptl_crystal_colour 'colorless'
_exptl_crystal_density_diffrn 1.35
_exptl_crystal_description 'Needle'
_diffrn_ambient_temperature 150
#These two values have been output from a single CSD field.
_refine_ls_R_factor_gt 0.0352
_refine_ls_wR_factor_gt 0.0352
_symmetry_cell_setting monoclinic
_symmetry_space_group_name_H-M 'P 21/c'
_symmetry_Int_Tables_number 14
loop_
_symmetry_equiv_pos_site_id
_symmetry_equiv_pos_as_xyz
1 x,y,z
2 -x,1/2+y,1/2-z
3 -x,-y,-z
4 x,-1/2-y,-1/2+z
_cell_length_a 7.1774(8)
_cell_length_b 15.7931(16)
_cell_length_c 10.7901(11)
_cell_angle_alpha 90
_cell_angle_beta 101.798(6)
_cell_angle_gamma 90
_cell_formula_units_Z 4
loop_
_atom_type_symbol
_atom_type_radius_bond
C 0.68
H 0.23
N 0.68
O 0.68
loop_
_atom_site_label
_atom_site_type_symbol
_atom_site_fract_x
_atom_site_fract_y
_atom_site_fract_z
N1 N 0.41984(15) 0.20989(7) 0.58571(10)
O1 O 0.58852(16) 0.36479(6) 0.59448(9)
O2 O 0.62422(14) 0.36871(6) 0.79969(9)
N2 N 0.37372(15) 0.13617(7) 0.75347(10)
N3 N 0.56745(16) 0.33418(7) 0.69608(10)
C1 C 0.16578(19) -0.08459(9) 0.37141(12)
H1 H 0.17140 -0.09470 0.45700
C2 C 0.47447(18) 0.25439(8) 0.69479(12)
C3 C 0.20697(18) -0.00361(8) 0.33138(12)
C4 C 0.35902(18) 0.13706(8) 0.62364(12)
C5 C 0.15285(19) -0.05791(9) 0.11606(13)
H2 H 0.15120 -0.04850 0.03080
C6 C 0.29083(19) 0.06490(8) 0.54450(12)
H3 H 0.26500 0.01480 0.58310
C7 C 0.44778(18) 0.21119(8) 0.79988(12)
H4 H 0.47440 0.22930 0.88370
C8 C 0.11685(19) -0.14954(9) 0.28511(13)
H5 H 0.08790 -0.20250 0.31380
C9 C 0.26340(18) 0.06724(8) 0.41831(12)
H6 H 0.28210 0.11920 0.38210
C10 C 0.10965(19) -0.13770(9) 0.15583(13)
C11 C 0.3300(2) 0.06497(8) 0.82950(12)
H7 H 0.42490 0.02170 0.83240
H8 H 0.20730 0.04240 0.79210
H9 H 0.32930 0.08410 0.91390
C12 C 0.0545(2) -0.20885(10) 0.06267(14)
H10 H -0.07820 -0.22150 0.05500
H11 H 0.12870 -0.25820 0.09200
H12 H 0.07790 -0.19230 -0.01840
C13 C 0.19843(19) 0.00802(9) 0.20157(12)
H13 H 0.22400 0.06130 0.17220
#END
