
#######################################################################
#
#                 Cambridge Crystallographic Data Centre
#                                CCDC
#
#######################################################################
#
# If this CIF has been generated from an entry in the Cambridge
# Structural Database, then it will include bibliographic, chemical,
# crystal, experimental, refinement or atomic coordinate data resulting
# from the CCDC's data processing and validation procedures.
#
#######################################################################

data_CSD_CIF_WOJHAG
_audit_creation_date 2014-08-01
_audit_creation_method CSD-ConQuest-V1
_database_code_CSD WOJHAG
_database_code_depnum_ccdc_archive 'CCDC 1012691'
_chemical_formula_sum 'C19 H22 N2 O5'
_chemical_formula_moiety
;
C19 H22 N2 O5
;
_journal_coeditor_code "su2750"
_journal_coden_Cambridge 1370
_journal_volume 70
_journal_year 2014
_journal_page_first o901
_journal_name_full 'Acta Crystallogr.,Sect.E:Struct.Rep.Online '
loop_
_publ_author_name
"S.A.Inglebert"
"J.Kamalraja"
"K.Sethusankar"
"P.T.Perumal"
_chemical_name_systematic
;
4-(4-Methoxyphenyl)-7,7-dimethyl-2-(methylamino)-3-nitro-4,6,7,8-tetrahydro-5H
-chromen-5-one
;
_cell_volume   1807.363
_exptl_crystal_colour 'colorless'
_exptl_crystal_density_diffrn 1.317
_exptl_crystal_description 'block'
_exptl_crystal_preparation 'ethanol'
_diffrn_ambient_temperature 293
#These two values have been output from a single CSD field.
_refine_ls_R_factor_gt 0.0426
_refine_ls_wR_factor_gt 0.0426
_symmetry_cell_setting monoclinic
_symmetry_space_group_name_H-M 'P 21/c'
_symmetry_Int_Tables_number 14
loop_
_symmetry_equiv_pos_site_id
_symmetry_equiv_pos_as_xyz
1 x,y,z
2 -x,1/2+y,1/2-z
3 -x,-y,-z
4 x,-1/2-y,-1/2+z
_cell_length_a 9.6793(7)
_cell_length_b 16.3059(12)
_cell_length_c 11.9205(8)
_cell_angle_alpha 90
_cell_angle_beta 106.128(2)
_cell_angle_gamma 90
_cell_formula_units_Z 4
loop_
_atom_type_symbol
_atom_type_radius_bond
C 0.68
H 0.23
N 0.68
O 0.68
loop_
_atom_site_label
_atom_site_type_symbol
_atom_site_fract_x
_atom_site_fract_y
_atom_site_fract_z
C1 C 0.3188(2) 0.60966(13) 0.57925(17)
C2 C 0.3527(2) 0.64520(13) 0.68892(17)
H1 H 0.41550 0.68950 0.70660
C3 C 0.2913(2) 0.61357(12) 0.77209(16)
H2 H 0.31370 0.63760 0.84570
C4 C 0.19830(18) 0.54764(11) 0.74909(15)
C5 C 0.1649(2) 0.51385(12) 0.63813(16)
H3 H 0.10090 0.47010 0.62000
C6 C 0.2248(2) 0.54378(13) 0.55413(17)
H4 H 0.20200 0.51980 0.48050
C7 C 0.1347(2) 0.51384(11) 0.84356(15)
H5 H 0.07130 0.46780 0.81080
C8 C 0.24959(19) 0.48391(11) 0.94849(16)
C9 C 0.29187(19) 0.52757(11) 1.05297(16)
C10 C 0.09369(19) 0.61784(12) 0.98350(15)
C11 C 0.0227(2) 0.68872(12) 1.02260(17)
H6 H 0.09550 0.72540 1.06860
H7 H -0.03480 0.66920 1.07210
C12 C -0.0740(2) 0.73612(12) 0.91906(17)
C13 C -0.1698(2) 0.67469(13) 0.83584(18)
H8 H -0.24070 0.65380 0.87230
H9 H -0.22120 0.70350 0.76540
C14 C -0.0921(2) 0.60304(12) 0.80176(17)
C15 C 0.04735(19) 0.57886(11) 0.88193(15)
C16 C 0.4646(3) 0.7040(2) 0.5103(3)
H10 H 0.41930 0.74890 0.53820
H11 H 0.48450 0.71930 0.43860
H12 H 0.55290 0.69030 0.56750
C17 C 0.4303(3) 0.55740(15) 1.25477(19)
H13 H 0.46080 0.61160 1.24100
H14 H 0.50600 0.53050 1.31240
H15 H 0.34630 0.56100 1.28240
C18 C -0.1656(3) 0.79636(15) 0.9648(2)
H16 H -0.22910 0.82490 0.90040
H17 H -0.10430 0.83520 1.01580
H18 H -0.22110 0.76700 1.00710
C19 C 0.0178(2) 0.78296(13) 0.85468(19)
H19 H -0.04370 0.81350 0.79140
H20 H 0.07390 0.74480 0.82440
H21 H 0.08070 0.81990 0.90780
N1 N 0.39661(17) 0.51069(10) 1.14645(13)
H22 H 0.44950 0.46880 1.14360
N2 N 0.32201(17) 0.41331(10) 0.93523(14)
O1 O 0.21955(14) 0.59653(8) 1.06663(11)
O2 O 0.28171(16) 0.37471(9) 0.84138(13)
O3 O 0.42684(15) 0.38750(9) 1.01655(13)
O4 O -0.14344(16) 0.56445(10) 0.71241(13)
O5 O 0.37227(17) 0.63553(10) 0.49054(13)
#END
