
#######################################################################
#
#                 Cambridge Crystallographic Data Centre
#                                CCDC
#
#######################################################################
#
# If this CIF has been generated from an entry in the Cambridge
# Structural Database, then it will include bibliographic, chemical,
# crystal, experimental, refinement or atomic coordinate data resulting
# from the CCDC's data processing and validation procedures.
#
#######################################################################

data_CSD_CIF_WOJPES
_audit_creation_date 2014-08-01
_audit_creation_method CSD-ConQuest-V1
_database_code_CSD WOJPES
_database_code_depnum_ccdc_archive 'CCDC 999375'
_chemical_formula_sum 'C24 H17 N5 O10'
_chemical_formula_moiety
;
C24 H17 N5 O10
;
_journal_coden_Cambridge 182
_journal_volume 50
_journal_year 2014
_journal_page_first 10710
_journal_name_full 'Chem.Commun. '
loop_
_publ_author_name
"Jun-Hui Xu"
"Jian-Ping Wei"
"Zheng Hao"
"Qing-Guo Ma"
"Xin-Hua Peng"
_chemical_name_systematic
;
2,4-bis(2-(4-Methyl-2-nitrophenyl)vinyl)-1,3,5-trinitrobenzene
;
_cell_volume   2338.759
_exptl_crystal_colour 'yellow'
_exptl_crystal_density_diffrn 1.521
_exptl_crystal_description 'plate'
_diffrn_ambient_temperature 296
#These two values have been output from a single CSD field.
_refine_ls_R_factor_gt 0.0606
_refine_ls_wR_factor_gt 0.0606
_symmetry_cell_setting monoclinic
_symmetry_space_group_name_H-M 'C 2/c'
_symmetry_Int_Tables_number 15
loop_
_symmetry_equiv_pos_site_id
_symmetry_equiv_pos_as_xyz
1 x,y,z
2 -x,y,1/2-z
3 1/2+x,1/2+y,z
4 1/2-x,1/2+y,1/2-z
5 -x,-y,-z
6 x,-y,-1/2+z
7 -1/2-x,-1/2-y,-z
8 -1/2+x,-1/2-y,-1/2+z
_cell_length_a 24.48(2)
_cell_length_b 8.379(6)
_cell_length_c 11.878(9)
_cell_angle_alpha 90
_cell_angle_beta 106.275(14)
_cell_angle_gamma 90
_cell_formula_units_Z 4
loop_
_atom_type_symbol
_atom_type_radius_bond
C 0.68
H 0.23
N 0.68
O 0.68
loop_
_atom_site_label
_atom_site_type_symbol
_atom_site_fract_x
_atom_site_fract_y
_atom_site_fract_z
N1 N 0.32599(12) 0.1820(3) 1.0757(3)
N2 N 0.45249(12) 0.3660(3) 0.9027(3)
N3 N 0.50000 -0.1519(4) 0.75000
C1 C 0.28547(14) -0.3614(4) 1.1904(3)
H1 H 0.26360 -0.29760 1.22910
H2 H 0.31360 -0.42060 1.24780
H3 H 0.26070 -0.43410 1.13730
C2 C 0.31458(13) -0.2543(4) 1.1229(3)
C3 C 0.30925(12) -0.0905(4) 1.1268(3)
H4 H 0.28810 -0.04610 1.17290
C4 C 0.33487(12) 0.0091(3) 1.0631(3)
C5 C 0.36772(12) -0.0490(3) 0.9922(3)
C6 C 0.37227(14) -0.2159(3) 0.9900(3)
H5 H 0.39320 -0.26160 0.94400
C7 C 0.34695(14) -0.3147(4) 1.0536(3)
H6 H 0.35170 -0.42460 1.05000
C8 C 0.39586(13) 0.0518(3) 0.9220(3)
H7 H 0.38020 0.15120 0.89720
C9 C 0.44218(12) 0.0078(3) 0.8927(2)
H8 H 0.45760 -0.09120 0.91940
C10 C 0.47115(11) 0.1008(3) 0.8223(2)
C11 C 0.47488(12) 0.2686(3) 0.8211(2)
C12 C 0.50000 0.3521(5) 0.75000
H9 H 0.50000 0.46310 0.75000
C13 C 0.50000 0.0257(4) 0.75000
O1 O 0.32008(14) 0.2289(3) 1.1700(3)
O2 O 0.32503(16) 0.2703(3) 0.9966(3)
O3 O 0.47361(10) 0.3450(2) 1.0078(2)
O4 O 0.41646(10) 0.4656(3) 0.8601(2)
O5 O 0.54578(10) -0.2194(2) 0.7808(2)
N1A N 0.67401(12) 0.1820(3) 0.4243(3)
N2A N 0.54751(12) 0.3660(3) 0.5973(3)
C1A C 0.71453(14) -0.3614(4) 0.3096(3)
H1A H 0.73640 -0.29760 0.27090
H2A H 0.68640 -0.42060 0.25220
H3A H 0.73930 -0.43410 0.36270
C2A C 0.68542(13) -0.2543(4) 0.3771(3)
C3A C 0.69075(12) -0.0905(4) 0.3732(3)
H4A H 0.71190 -0.04610 0.32710
C4A C 0.66513(12) 0.0091(3) 0.4369(3)
C5A C 0.63228(12) -0.0490(3) 0.5078(3)
C6A C 0.62773(14) -0.2159(3) 0.5100(3)
H5A H 0.60680 -0.26160 0.55600
C7A C 0.65305(14) -0.3147(4) 0.4464(3)
H6A H 0.64830 -0.42460 0.45000
C8A C 0.60414(13) 0.0518(3) 0.5780(3)
H7A H 0.61980 0.15120 0.60280
C9A C 0.55782(12) 0.0078(3) 0.6073(2)
H8A H 0.54240 -0.09120 0.58060
C10A C 0.52885(11) 0.1008(3) 0.6777(2)
C11A C 0.52512(12) 0.2686(3) 0.6789(2)
O1A O 0.67992(14) 0.2289(3) 0.3300(3)
O2A O 0.67497(16) 0.2703(3) 0.5034(3)
O3A O 0.52639(10) 0.3450(2) 0.4922(2)
O4A O 0.58354(10) 0.4656(3) 0.6399(2)
O5A O 0.45422(10) -0.2194(2) 0.7192(2)
#END
