
#######################################################################
#
#                 Cambridge Crystallographic Data Centre
#                                CCDC
#
#######################################################################
#
# If this CIF has been generated from an entry in the Cambridge
# Structural Database, then it will include bibliographic, chemical,
# crystal, experimental, refinement or atomic coordinate data resulting
# from the CCDC's data processing and validation procedures.
#
#######################################################################

data_CSD_CIF_WOKCIJ
_audit_creation_date 2009-04-28
_audit_creation_method CSD-ConQuest-V1
_database_code_CSD WOKCIJ
_database_code_depnum_ccdc_archive 'CCDC 675095'
_chemical_formula_sum 'C31 H28 N2 O5'
_chemical_formula_moiety
;
C31 H28 N2 O5
;
_journal_coden_Cambridge 1135
_journal_volume 18
_journal_year 2008
_journal_page_first 297
_journal_name_full 'Mendeleev Commun. '
loop_
_publ_author_name
"C.S.Becker"
"G.I.Roshchupkina"
"T.V.Rybalova"
"Y.V.Gatilov"
"G.V.Romanenko"
"V.A.Reznikov"
_chemical_name_systematic
;
3,3,10,10-tetramethyl-1,8,12-triphenyl-6-oxa-2,9-diazadispiro[4.1.4.1]dodeca-1
,8-diene-4,11-dione 2,9-dioxide
;
_chemical_melting_point 443
_cell_volume   2643.516
_exptl_crystal_colour 'light yellow'
_exptl_crystal_density_diffrn 1.278
_exptl_special_details
;
Melting point range 443-445K

;
_exptl_crystal_description 'prism'
_diffrn_ambient_temperature 296
#These two values have been output from a single CSD field.
_refine_ls_R_factor_gt 0.0626
_refine_ls_wR_factor_gt 0.0626
_symmetry_cell_setting orthorhombic
_symmetry_space_group_name_H-M 'P 21 21 21'
_symmetry_Int_Tables_number 19
loop_
_symmetry_equiv_pos_site_id
_symmetry_equiv_pos_as_xyz
1 x,y,z
2 1/2-x,-y,1/2+z
3 -x,1/2+y,1/2-z
4 1/2+x,1/2-y,-z
_cell_length_a 10.186(3)
_cell_length_b 14.540(4)
_cell_length_c 17.849(5)
_cell_angle_alpha 90
_cell_angle_beta 90
_cell_angle_gamma 90
_cell_formula_units_Z 4
loop_
_atom_type_symbol
_atom_type_radius_bond
C 0.68
H 0.23
N 0.68
O 0.68
loop_
_atom_site_label
_atom_site_type_symbol
_atom_site_fract_x
_atom_site_fract_y
_atom_site_fract_z
C1 C 0.0671(5) 0.1091(3) 0.1002(3)
N1 N 0.1310(4) 0.1277(3) 0.0374(2)
C2 C 0.2667(5) 0.1623(4) 0.0466(3)
C3 C 0.2861(6) 0.1496(4) 0.1302(3)
C4 C 0.1583(5) 0.1144(4) 0.1656(3)
O1 O 0.1182(3) 0.1752(2) 0.22722(18)
C5 C 0.1493(5) 0.1034(3) 0.2844(2)
C6 C 0.0494(5) 0.0968(4) 0.3466(3)
N2 N 0.0934(4) 0.1395(3) 0.4066(2)
C7 C 0.2276(6) 0.1795(4) 0.3992(3)
C8 C 0.2718(5) 0.1326(3) 0.3281(3)
C9 C 0.1577(4) 0.0317(3) 0.2214(2)
H1 H 0.07120 0.00260 0.21770
O2 O 0.0854(4) 0.1214(3) -0.02937(18)
O3 O 0.3830(4) 0.1703(3) 0.1628(2)
O4 O 0.3832(3) 0.1174(3) 0.31210(19)
O5 O 0.0333(4) 0.1474(4) 0.4689(2)
C10 C 0.3640(6) 0.1079(5) -0.0004(3)
H2 H 0.36070 0.04420 0.01380
H3 H 0.45100 0.13130 0.00780
H4 H 0.34180 0.11380 -0.05250
C11 C 0.2669(7) 0.2644(4) 0.0272(3)
H5 H 0.20370 0.29590 0.05780
H6 H 0.24450 0.27210 -0.02470
H7 H 0.35260 0.28950 0.03620
C12 C 0.2147(9) 0.2836(4) 0.3888(5)
H8 H 0.16110 0.29610 0.34580
H9 H 0.30020 0.30990 0.38160
H10 H 0.17480 0.31000 0.43250
C13 C 0.3128(7) 0.1534(7) 0.4655(3)
H11 H 0.31820 0.08770 0.46910
H12 H 0.27500 0.17770 0.51060
H13 H 0.39920 0.17850 0.45880
C14 C -0.0712(5) 0.0833(3) 0.1018(3)
C15 C -0.1272(6) 0.0261(4) 0.0475(3)
H14 H -0.07530 0.00320 0.00890
C16 C -0.2580(6) 0.0033(4) 0.0507(4)
H15 H -0.29380 -0.03480 0.01420
C17 C -0.3366(6) 0.0363(5) 0.1074(4)
H16 H -0.42460 0.01960 0.10970
C18 C -0.2846(6) 0.0939(5) 0.1603(3)
H17 H -0.33800 0.11700 0.19810
C19 C -0.1527(5) 0.1183(4) 0.1579(3)
H18 H -0.11860 0.15790 0.19380
C20 C 0.2571(4) -0.0439(3) 0.2223(3)
C21 C 0.3069(6) -0.0775(4) 0.1561(3)
H19 H 0.28240 -0.05080 0.11080
C22 C 0.3934(6) -0.1511(4) 0.1565(3)
H20 H 0.42840 -0.17260 0.11170
C23 C 0.4277(6) -0.1924(4) 0.2229(4)
H21 H 0.48500 -0.24220 0.22300
C24 C 0.3772(6) -0.1599(4) 0.2890(3)
H22 H 0.40010 -0.18750 0.33420
C25 C 0.2930(6) -0.0866(3) 0.2881(3)
H23 H 0.25900 -0.06500 0.33310
C26 C -0.0815(5) 0.0573(4) 0.3429(3)
C27 C -0.1013(6) -0.0337(4) 0.3237(3)
H24 H -0.03020 -0.07170 0.31300
C28 C -0.2290(8) -0.0679(6) 0.3205(4)
H25 H -0.24310 -0.12870 0.30630
C29 C -0.3333(7) -0.0135(7) 0.3378(4)
H26 H -0.41790 -0.03740 0.33580
C30 C -0.3144(7) 0.0770(6) 0.3583(4)
H27 H -0.38570 0.11400 0.37070
C31 C -0.1901(5) 0.1117(5) 0.3600(3)
H28 H -0.17740 0.17300 0.37300
#END
