
#######################################################################
#
#                 Cambridge Crystallographic Data Centre
#                                CCDC
#
#######################################################################
#
# If this CIF has been generated from an entry in the Cambridge
# Structural Database, then it will include bibliographic, chemical,
# crystal, experimental, refinement or atomic coordinate data resulting
# from the CCDC's data processing and validation procedures.
#
#######################################################################

data_CSD_CIF_WOKCAB
_audit_creation_date 2009-04-28
_audit_creation_method CSD-ConQuest-V1
_database_code_CSD WOKCAB
_database_code_depnum_ccdc_archive 'CCDC 694600'
_database_code_depnum_ccdc_journal 1135/324
_chemical_formula_sum 'C14 H19 N5 O3'
_chemical_formula_moiety
;
C14 H19 N5 O3
;
_journal_coden_Cambridge 1135
_journal_volume 18
_journal_year 2008
_journal_page_first 329
_journal_name_full 'Mendeleev Commun. '
loop_
_publ_author_name
"F.S.Levinson"
"R.V.Varganov"
"M.M.Zakiev"
"I.M.Shakirova"
"A.B.Sheremetev"
"D.E.Dmitriev"
"D.B.Krivolapov"
"I.A.Litvinov"
"D.R.Sharafutdinova"
"Y.Ya Efremov"
_chemical_name_systematic
;
5,7-bis(morpholin-4-yl)-2,1,3-benzoxadiazol-4-amine
;
_chemical_melting_point 477.15
_cell_volume   1485.509
_exptl_crystal_colour 'colorless'
_exptl_crystal_density_diffrn 1.365
_exptl_special_details
;
Melting point range 477.15-478.15K

;
_exptl_crystal_description 'prism'
_diffrn_ambient_temperature 293
#These two values have been output from a single CSD field.
_refine_ls_R_factor_gt 0.0536
_refine_ls_wR_factor_gt 0.0536
_symmetry_cell_setting monoclinic
_symmetry_space_group_name_H-M 'P 21/c'
_symmetry_Int_Tables_number 14
loop_
_symmetry_equiv_pos_site_id
_symmetry_equiv_pos_as_xyz
1 x,y,z
2 -x,1/2+y,1/2-z
3 -x,-y,-z
4 x,-1/2-y,-1/2+z
_cell_length_a 11.216(2)
_cell_length_b 17.002(3)
_cell_length_c 7.955(4)
_cell_angle_alpha 90
_cell_angle_beta 101.69(2)
_cell_angle_gamma 90
_cell_formula_units_Z 4
loop_
_atom_type_symbol
_atom_type_radius_bond
C 0.68
H 0.23
N 0.68
O 0.68
loop_
_atom_site_label
_atom_site_type_symbol
_atom_site_fract_x
_atom_site_fract_y
_atom_site_fract_z
O1 O -0.5353(2) -0.09228(18) -1.2853(3)
O2 O -0.9137(2) -0.13210(16) -0.7392(3)
O3 O -0.0957(2) -0.12866(17) -0.2697(3)
N1 N -0.4149(3) -0.0876(2) -1.2034(3)
N2 N -0.6109(3) -0.1110(2) -1.1722(4)
N3 N -0.6850(2) -0.14977(16) -0.8404(3)
N4 N -0.2400(2) -0.13428(16) -0.6056(3)
N5 N -0.1957(3) -0.09583(19) -0.9281(4)
C1 C -0.5640(3) -0.1353(2) -0.8561(4)
C2 C -0.4640(3) -0.1385(2) -0.7274(4)
H1 H -0.47630 -0.14870 -0.61730
C3 C -0.3399(3) -0.12744(19) -0.7479(4)
C4 C -0.3133(3) -0.10891(19) -0.9034(4)
C5 C -0.4150(3) -0.1027(2) -1.0414(4)
C6 C -0.5375(3) -0.1169(2) -1.0215(4)
C7 C -0.7708(3) -0.0869(2) -0.9087(4)
H2 H -0.76320 -0.07440 -1.02500
H3 H -0.75170 -0.04000 -0.83910
C8 C -0.8987(3) -0.1121(2) -0.9082(4)
H4 H -0.95410 -0.06970 -0.95270
H5 H -0.91910 -0.15720 -0.98310
C9 C -0.8313(3) -0.1938(2) -0.6733(5)
H6 H -0.85070 -0.24010 -0.74480
H7 H -0.84120 -0.20720 -0.55830
C10 C -0.7005(3) -0.1707(2) -0.6677(4)
H8 H -0.67890 -0.12630 -0.59110
H9 H -0.64710 -0.21420 -0.62430
C11 C -0.2518(3) -0.1937(2) -0.4762(4)
H10 H -0.27470 -0.24390 -0.53140
H11 H -0.31450 -0.17810 -0.41500
C12 C -0.1322(3) -0.2011(2) -0.3535(4)
H12 H -0.13870 -0.24080 -0.26830
H13 H -0.07060 -0.21820 -0.41540
C13 C -0.0831(3) -0.0706(2) -0.3951(4)
H14 H -0.02010 -0.08680 -0.45510
H15 H -0.05810 -0.02110 -0.33780
C14 C -0.2010(3) -0.0586(2) -0.5233(4)
H16 H -0.26310 -0.03870 -0.46550
H17 H -0.18930 -0.02060 -0.60930
H18 H -0.140(2) -0.1103(19) -0.841(3)
H19 H -0.194(3) -0.096(2) -1.036(5)
#END
