
#######################################################################
#
#                 Cambridge Crystallographic Data Centre
#                                CCDC
#
#######################################################################
#
# If this CIF has been generated from an entry in the Cambridge
# Structural Database, then it will include bibliographic, chemical,
# crystal, experimental, refinement or atomic coordinate data resulting
# from the CCDC's data processing and validation procedures.
#
#######################################################################

data_CSD_CIF_WOKCUU
_audit_creation_date 2000-12-19
_audit_creation_method CSD-ConQuest-V1
_database_code_CSD WOKCUU
_database_code_depnum_ccdc_archive 'CCDC 152768'
_database_code_depnum_ccdc_journal 182/1789
_chemical_formula_sum 'C23 H35 N1 O10'
_chemical_formula_moiety
;
C23 H35 N1 O10
;
_journal_coden_Cambridge 182
_journal_year 2000
_journal_page_first 2127
_journal_name_full 'Chem.Commun. '
loop_
_publ_author_name
"F.J.Duff"
"V.Vivien"
"R.H.Wightman"
_chemical_name_systematic
;
6-(6',6',11',11'-Tetramethyl-3',5',7',10',12'-pentaoxatricyclo(7.3.0.0^4,8^)do
decan-2'-yl)-2-acetoxy-11,11-dimethyl-5,10,12-trioxa-4-azatricyclo(7.3.0.0^4,8
^)dodecane
;
_cell_volume   1217.223
_exptl_crystal_colour 'colorless'
_exptl_crystal_density_diffrn 1.325
_exptl_crystal_description 'triangular plate'
_diffrn_ambient_temperature ?
_diffrn_special_details
;
The study was carried out at room temperature,in the range 283-303K

;
#These two values have been output from a single CSD field.
_refine_ls_R_factor_gt 0.0305
_refine_ls_wR_factor_gt 0.0305
_symmetry_cell_setting monoclinic
_symmetry_space_group_name_H-M 'P 21'
_symmetry_Int_Tables_number 4
loop_
_symmetry_equiv_pos_site_id
_symmetry_equiv_pos_as_xyz
1 x,y,z
2 -x,1/2+y,-z
_cell_length_a 5.417(1)
_cell_length_b 25.006(4)
_cell_length_c 9.051(1)
_cell_angle_alpha 90
_cell_angle_beta 96.87(1)
_cell_angle_gamma 90
_cell_formula_units_Z 2
loop_
_atom_type_symbol
_atom_type_radius_bond
C 0.68
H 0.23
N 0.68
O 0.68
loop_
_atom_site_label
_atom_site_type_symbol
_atom_site_fract_x
_atom_site_fract_y
_atom_site_fract_z
N1 N -0.8175(4) -1.23291(8) -1.3713(2)
O1 O -0.8285(3) -1.34230(9) -0.7692(2)
O2 O -0.4710(3) -1.36871(8) -0.85538(17)
O3 O -0.7152(3) -1.47510(7) -1.09511(19)
O4 O -0.9432(3) -1.41893(7) -1.25180(19)
O5 O -1.0076(3) -1.35134(7) -1.01417(18)
O6 O -0.7069(3) -1.12004(7) -1.23227(17)
O7 O -1.0266(3) -1.07649(7) -1.37126(19)
O8 O -1.2306(3) -1.14592(8) -1.62301(18)
O9 O -0.9945(4) -1.16587(9) -1.8044(2)
O10 O -0.8245(4) -1.29001(7) -1.34558(19)
C1 C -0.8985(4) -1.37829(9) -0.8865(2)
H1 H -1.01840 -1.40400 -0.85480
C2 C -0.6550(4) -1.40765(10) -0.9045(2)
H2 H -0.63710 -1.43890 -0.83890
C3 C -0.6105(4) -1.42369(10) -1.0625(2)
H3 H -0.43160 -1.42460 -1.07000
C4 C -0.7408(4) -1.38704(10) -1.1840(2)
H4 H -0.62770 -1.37780 -1.25680
C5 C -0.8428(4) -1.33705(10) -1.1191(2)
H5 H -0.70450 -1.31620 -1.06850
C6 C -0.9921(5) -1.30188(10) -1.2339(3)
H6 H -1.14170 -1.32050 -1.27900
C7 C -1.0582(5) -1.24769(10) -1.1709(3)
H7 H -1.04620 -1.24850 -1.06310
H8 H -1.22410 -1.23640 -1.21100
C8 C -0.8588(5) -1.21134(10) -1.2244(3)
H9 H -0.70500 -1.21590 -1.15670
C9 C -0.9259(4) -1.15222(10) -1.2293(2)
H10 H -1.00550 -1.14310 -1.14090
C10 C -1.0877(4) -1.13213(9) -1.3682(3)
H11 H -1.26390 -1.13650 -1.35610
C11 C -1.0301(4) -1.16042(10) -1.5086(3)
H12 H -0.87040 -1.14810 -1.53650
C12 C -1.0252(5) -1.22068(10) -1.4862(3)
H13 H -1.18090 -1.23280 -1.45470
H14 H -1.00180 -1.23860 -1.57860
C13 C -0.8613(5) -1.47289(10) -1.2383(3)
C14 C -0.7049(5) -1.48682(12) -1.3618(3)
H15 H -0.65220 -1.52340 -1.35170
H16 H -0.56160 -1.46390 -1.35500
H17 H -0.80210 -1.48190 -1.45670
C15 C -1.0807(5) -1.50945(11) -1.2368(3)
H18 H -1.02440 -1.54580 -1.22850
H19 H -1.19050 -1.50510 -1.32740
H20 H -1.16770 -1.50080 -1.15350
C16 C -0.7955(4) -1.06815(10) -1.2765(3)
C17 C -0.6095(5) -1.04177(11) -1.3636(3)
H21 H -0.66790 -1.00680 -1.39430
H22 H -0.58920 -1.06300 -1.44970
H23 H -0.45280 -1.03870 -1.30230
C18 C -0.8485(6) -1.03511(11) -1.1428(3)
H24 H -0.90810 -1.00040 -1.17560
H25 H -0.69850 -1.03130 -1.07550
H26 H -0.97230 -1.05280 -1.09290
C19 C -1.1878(4) -1.15042(10) -1.7668(3)
C20 C -1.4092(5) -1.13223(13) -1.8691(3)
H27 H -1.53930 -1.12180 -1.81170
H28 H -1.46670 -1.16090 -1.93490
H29 H -1.36380 -1.10230 -1.92640
C21 C -0.5635(4) -1.33725(11) -0.7431(3)
C22 C -0.4699(6) -1.35800(15) -0.5903(3)
H30 H -0.53380 -1.33610 -0.51640
H31 H -0.29150 -1.35690 -0.57640
H32 H -0.52490 -1.39420 -0.58080
C23 C -0.4883(7) -1.27956(13) -0.7650(4)
H33 H -0.54920 -1.25750 -0.69040
H34 H -0.55790 -1.26760 -0.86190
H35 H -0.31040 -1.27710 -0.75660
#END
