
#######################################################################
#
#                 Cambridge Crystallographic Data Centre
#                                CCDC
#
#######################################################################
#
# If this CIF has been generated from an entry in the Cambridge
# Structural Database, then it will include bibliographic, chemical,
# crystal, experimental, refinement or atomic coordinate data resulting
# from the CCDC's data processing and validation procedures.
#
#######################################################################

data_CSD_CIF_WOKMOY
_audit_creation_date 2000-12-19
_audit_creation_method CSD-ConQuest-V1
_database_code_CSD WOKMOY
_database_code_depnum_ccdc_archive 'CCDC 102895'
_chemical_formula_sum 'C10 H7 N5 O4'
_chemical_formula_moiety
;
C10 H7 N5 O4
;
_journal_coden_Cambridge 388
_journal_volume 36
_journal_year 2000
_journal_page_first 758
_journal_name_full 'Zh.Org.Khim.(Russ.)(Russ.J.Org.Chem.) '
loop_
_publ_author_name
"G.Verardo"
"A.G.Giumanini"
"M.Tolazzi"
"G.Cerioni"
_chemical_name_systematic
;
(3-Nitro-2-pyridyl)(5-nitro-2-pyridyl)amine
;
_chemical_name_common
;
3,5'-Dinitro-di(2,2'-pyridyl)amine
;
_chemical_melting_point 179
_cell_volume   1088.225
_exptl_crystal_colour 'orange-yellow'
_exptl_crystal_density_diffrn 1.59
_exptl_special_details
;
sp.grp P-1 as in cif, not P1 as published; z(O1a) is 0.623, not 0.0623; 
z(O1B) is 0.906, not 0.0906
;
_diffrn_ambient_temperature 293
#These two values have been output from a single CSD field.
_refine_ls_R_factor_gt 0.0572
_refine_ls_wR_factor_gt 0.0572
_symmetry_cell_setting triclinic
_symmetry_space_group_name_H-M 'P -1'
_symmetry_Int_Tables_number 2
loop_
_symmetry_equiv_pos_site_id
_symmetry_equiv_pos_as_xyz
1 x,y,z
2 -x,-y,-z
_cell_length_a 5.240(3)
_cell_length_b 12.119(6)
_cell_length_c 17.369(6)
_cell_angle_alpha 90.15(1)
_cell_angle_beta 91.55(1)
_cell_angle_gamma 99.25(1)
_cell_formula_units_Z 4
loop_
_atom_type_symbol
_atom_type_radius_bond
C 0.68
N 0.68
O 0.68
loop_
_atom_site_label
_atom_site_type_symbol
_atom_site_fract_x
_atom_site_fract_y
_atom_site_fract_z
O1 O 0.7092(9) 0.8513(3) 0.623(3)
O2 O 0.4221(9) 0.8008(3) 0.7078(3)
O3 O -0.4227(8) 0.3816(4) 0.9958(3)
O4 O -0.2131(9) 0.2432(4) 0.9851(3)
N1 N 0.6229(9) 0.4820(3) 0.7089(3)
N2 N -0.0336(9) -0.0679(3) 0.7913(3)
O5 O -0.6836(8) 0.0932(3) 0.906(2)
O6 O -0.4745(8) 0.1859(3) 0.8164(2)
O7 O 0.6258(9) 0.3202(4) 0.5017(3)
O8 O 0.7459(9) 0.1578(4) 0.4993(3)
N3 N 0.3682(8) 0.5980(4) 0.7652(2)
N4 N -0.1149(8) 0.1022(3) 0.7441(2)
N5 N 0.0435(9) 0.5718(3) 0.8492(3)
N6 N 0.0817(9) 0.2230(3) 0.6578(3)
N7 N 0.5949(11) 0.7808(4) 0.6663(3)
N8 N -0.5168(10) 0.1028(4) 0.8577(3)
N9 N -0.253(1) 0.3370(5) 0.9679(3)
N10 N 0.6091(10) 0.2230(5) 0.5229(3)
C1 C 0.8088(11) 0.4679(5) 0.6607(3)
C2 C -0.0807(12) -0.1514(5) 0.8408(3)
C3 C 0.9343(11) 0.5499(5) 0.6149(3)
C4 C -0.2700(12) -0.1591(5) 0.8962(3)
C5 C 0.8633(11) 0.6538(3) 0.6181(3)
C6 C -0.4133(11) -0.0736(5) 0.9003(3)
C7 C 0.6702(10) 0.6713(4) 0.6683(3)
C8 C -0.3636(10) 0.0148(4) 0.8495(3)
C9 C 0.5525(10) 0.5830(5) 0.7140(3)
C10 C -0.1695(10) 0.0154(4) 0.7944(3)
C11 C -0.1083(11) 0.5102(5) 0.8978(3)
C12 C 0.2539(11) 0.2539(5) 0.6050(3)
C13 C -0.0861(11) 0.3998(5) 0.9123(3)
C14 C 0.4196(11) 0.1832(5) 0.5792(3)
C15 C 0.0951(10) 0.3497(5) 0.8759(3)
C16 C 0.3996(11) 0.0771(5) 0.6070(3)
C17 C 0.2526(10) 0.4125(4) 0.8245(3)
C18 C 0.2218(10) 0.0428(5) 0.6629(3)
C19 C 0.2244(10) 0.5226(4) 0.8132(3)
C20 C 0.0712(10) 0.1195(4) 0.6872(3)
#END
