
#######################################################################
#
#                 Cambridge Crystallographic Data Centre
#                                CCDC
#
#######################################################################
#
# If this CIF has been generated from an entry in the Cambridge
# Structural Database, then it will include bibliographic, chemical,
# crystal, experimental, refinement or atomic coordinate data resulting
# from the CCDC's data processing and validation procedures.
#
#######################################################################

data_CSD_CIF_WOLDAC
_audit_creation_date 2001-01-05
_audit_creation_method CSD-ConQuest-V1
_database_code_CSD WOLDAC
_chemical_formula_sum 'C22 H21 N1 O4'
_chemical_formula_moiety
;
C22 H21 N1 O4
;
_journal_coden_Cambridge 16
_journal_volume 55
_journal_year 1999
_journal_page_first 8525
_journal_name_full 'Tetrahedron '
loop_
_publ_author_name
"M.L.Falck-Pedersen"
"C.Romming"
"K.Undheim"
_chemical_name_systematic
;
cis-6-Phenylspiro(4.4)non-6-en-1-yl p-nitrobenzoate
;
_chemical_melting_point 354.15
_cell_volume   3629.630
_exptl_crystal_colour 'white'
_exptl_crystal_density_diffrn 1.33
_exptl_crystal_preparation 'diethyl ether'
_diffrn_ambient_temperature 150
#These two values have been output from a single CSD field.
_refine_ls_R_factor_gt 0.102
_refine_ls_wR_factor_gt 0.102
_symmetry_cell_setting monoclinic
_symmetry_space_group_name_H-M 'P 21/c'
_symmetry_Int_Tables_number 14
loop_
_symmetry_equiv_pos_site_id
_symmetry_equiv_pos_as_xyz
1 x,y,z
2 -x,1/2+y,1/2-z
3 -x,-y,-z
4 x,-1/2-y,-1/2+z
_cell_length_a 11.668(1)
_cell_length_b 8.021(1)
_cell_length_c 38.802(1)
_cell_angle_alpha 90
_cell_angle_beta 91.81(1)
_cell_angle_gamma 90
_cell_formula_units_Z 8
loop_
_atom_type_symbol
_atom_type_radius_bond
C 0.68
N 0.68
O 0.68
loop_
_atom_site_label
_atom_site_type_symbol
_atom_site_fract_x
_atom_site_fract_y
_atom_site_fract_z
O1 O 0.4983(2) 0.5346(2) 0.1579(1)
O2 O 0.3707(2) 0.6882(2) 0.1870(1)
O3 O 0.0980(2) 0.8697(4) 0.0308(1)
O4 O 0.2117(2) 0.7003(4) 0.0051(1)
N1 N 0.1808(2) 0.7763(4) 0.0305(1)
C1 C 0.6310(2) 0.3322(3) 0.1823(1)
C2 C 0.5823(2) 0.2020(3) 0.1568(1)
C3 C 0.5495(3) 0.0667(4) 0.1738(1)
C4 C 0.5694(3) 0.0784(4) 0.2120(1)
C5 C 0.6512(2) 0.2273(3) 0.2158(1)
C6 C 0.7383(2) 0.4337(3) 0.1737(1)
C7 C 0.7463(2) 0.5621(4) 0.2030(1)
C8 C 0.6198(2) 0.6077(3) 0.2091(1)
C9 C 0.5464(2) 0.4730(3) 0.1908(1)
C10 C 0.5663(2) 0.2197(3) 0.1190(1)
C11 C 0.4665(2) 0.1551(4) 0.1027(1)
C12 C 0.4503(2) 0.1599(4) 0.0670(1)
C13 C 0.5320(3) 0.2324(5) 0.0469(1)
C14 C 0.6308(3) 0.2977(4) 0.0623(1)
C15 C 0.6487(2) 0.2900(4) 0.0978(1)
C16 C 0.4078(2) 0.6380(3) 0.1600(1)
C17 C 0.3568(2) 0.6810(3) 0.1252(1)
C18 C 0.3968(2) 0.6114(3) 0.0950(1)
C19 C 0.3408(2) 0.6449(4) 0.0634(1)
C20 C 0.2455(2) 0.7483(4) 0.0635(1)
C21 C 0.2059(2) 0.8226(4) 0.0929(1)
C22 C 0.2625(2) 0.7885(3) 0.1241(1)
O5 O -0.0050(2) 0.1201(2) 0.1581(1)
O6 O -0.1347(2) -0.0240(2) 0.1880(1)
O7 O -0.3793(3) -0.2790(5) 0.0322(1)
O8 O -0.2740(2) -0.1042(4) 0.0054(1)
N2 N -0.3035(2) -0.1736(4) 0.0316(1)
C23 C 0.1309(2) 0.3230(3) 0.1807(1)
C24 C 0.0858(2) 0.4483(3) 0.1536(1)
C25 C 0.0565(3) 0.5909(3) 0.1687(1)
C26 C 0.0775(3) 0.5910(4) 0.2071(1)
C27 C 0.1524(2) 0.4360(3) 0.2130(1)
C28 C 0.2363(2) 0.2152(3) 0.1735(1)
C29 C 0.2400(2) 0.0940(4) 0.2042(1)
C30 C 0.1125(3) 0.0572(4) 0.2108(1)
C31 C 0.0428(2) 0.1896(3) 0.1905(1)
C32 C 0.0692(2) 0.4188(3) 0.1158(1)
C33 C -0.0307(2) 0.4776(4) 0.0988(1)
C34 C -0.0478(3) 0.4571(4) 0.0634(1)
C35 C 0.0335(3) 0.3769(4) 0.0442(1)
C36 C 0.1336(3) 0.3199(4) 0.0606(1)
C37 C 0.1516(2) 0.3414(4) 0.0959(1)
C38 C -0.0957(2) 0.0188(3) 0.1608(1)
C39 C -0.1440(2) -0.0338(3) 0.1263(1)
C40 C -0.1008(2) 0.0244(3) 0.0956(1)
C41 C -0.1522(2) -0.0211(4) 0.0640(1)
C42 C -0.2463(2) -0.1264(4) 0.0646(1)
C43 C -0.2909(2) -0.1876(4) 0.0948(1)
C44 C -0.2393(2) -0.1398(3) 0.1259(1)
#END
