
#######################################################################
#
#                 Cambridge Crystallographic Data Centre
#                                CCDC
#
#######################################################################
#
# If this CIF has been generated from an entry in the Cambridge
# Structural Database, then it will include bibliographic, chemical,
# crystal, experimental, refinement or atomic coordinate data resulting
# from the CCDC's data processing and validation procedures.
#
#######################################################################

data_CSD_CIF_WOLNOC
_audit_creation_date 2014-08-04
_audit_creation_method CSD-ConQuest-V1
_database_code_CSD WOLNOC
_database_code_depnum_ccdc_archive 'CCDC 958583'
_chemical_formula_sum 'C2 H3 N5 O2'
_chemical_formula_moiety
;
C2 H3 N5 O2
;
_journal_coden_Cambridge 1268
_journal_volume 19
_journal_year 2014
_journal_page_first 896
_journal_name_full 'Molecules '
loop_
_publ_author_name
"Xiuxiu Zhao"
"Cai Qi"
"Lubo Zhang"
"Yuan Wang"
"Shenghua Li"
"Fengqi Zhao"
"Siping Pang"
_chemical_name_systematic
;
3-Nitro-1H-1,2,4-triazol-1-amine
;
_cell_volume    504.895
_exptl_crystal_colour 'colorless'
_exptl_crystal_density_diffrn 1.698
_exptl_crystal_description 'Block'
_diffrn_ambient_temperature 153
#These two values have been output from a single CSD field.
_refine_ls_R_factor_gt 0.0313
_refine_ls_wR_factor_gt 0.0313
_symmetry_cell_setting orthorhombic
_symmetry_space_group_name_H-M 'P n a 21'
_symmetry_Int_Tables_number 33
loop_
_symmetry_equiv_pos_site_id
_symmetry_equiv_pos_as_xyz
1 x,y,z
2 -x,-y,1/2+z
3 1/2+x,1/2-y,z
4 1/2-x,1/2+y,1/2+z
_cell_length_a 9.919(6)
_cell_length_b 9.880(6)
_cell_length_c 5.152(3)
_cell_angle_alpha 90
_cell_angle_beta 90
_cell_angle_gamma 90
_cell_formula_units_Z 4
loop_
_atom_type_symbol
_atom_type_radius_bond
C 0.68
H 0.23
N 0.68
O 0.68
loop_
_atom_site_label
_atom_site_type_symbol
_atom_site_fract_x
_atom_site_fract_y
_atom_site_fract_z
O1 O 0.00430(13) 0.20393(13) 0.5904(4)
O2 O 0.09196(13) 0.00907(14) 0.6969(3)
N1 N 0.19761(15) 0.23958(16) 0.2223(4)
N2 N 0.25146(14) 0.01770(14) 0.2747(3)
N3 N 0.32297(13) 0.07458(14) 0.0799(3)
N4 N 0.41424(15) 0.00105(16) -0.0713(4)
N5 N 0.08467(14) 0.11088(15) 0.5617(4)
C1 C 0.29108(17) 0.20489(17) 0.0503(4)
H1 H 0.32950 0.26390 -0.07500
C2 C 0.17979(16) 0.12284(18) 0.3488(4)
H2 H 0.476(3) -0.025(2) 0.039(6)
H3 H 0.366(2) -0.069(2) -0.135(5)
#END
