
#######################################################################
#
#                 Cambridge Crystallographic Data Centre
#                                CCDC
#
#######################################################################
#
# If this CIF has been generated from an entry in the Cambridge
# Structural Database, then it will include bibliographic, chemical,
# crystal, experimental, refinement or atomic coordinate data resulting
# from the CCDC's data processing and validation procedures.
#
#######################################################################

data_CSD_CIF_WOLWOL
_audit_creation_date 2014-08-04
_audit_creation_method CSD-ConQuest-V1
_database_code_CSD WOLWOL
_database_code_depnum_ccdc_archive 'CCDC 1003272'
_chemical_formula_sum 'C21 H22 N4 O6'
_chemical_formula_moiety
;
C21 H22 N4 O6
;
_journal_coden_Cambridge 38
_journal_volume 345
_journal_year 2014
_journal_page_first 68
_journal_name_full 'Science '
loop_
_publ_author_name
"Fanyang Mo"
"Guangbin Dong"
_chemical_name_systematic
;
Methyl 4-(3-((2,4-dinitrophenyl)hydrazono)-4-ethylcyclopentyl)benzoate
;
_cell_volume   1985.144
_exptl_crystal_colour 'orange'
_exptl_crystal_density_diffrn 1.427
_exptl_crystal_description 'prism'
_diffrn_ambient_temperature 100
_refine_special_details
;
C1,C10,C12,C13,C2,C3,C4,C5,C6,C7,C8,C9,N1 and C10A, 
C12A,C13A,C1A,C2A,C3A,C4A,C5A,C6A,C7A,C8A,C9A,N1A disordered over two sites 
with occupancies 0.6:0.4.
;
#These two values have been output from a single CSD field.
_refine_ls_R_factor_gt 0.0679
_refine_ls_wR_factor_gt 0.0679
_symmetry_cell_setting monoclinic
_symmetry_space_group_name_H-M 'P 21/n'
_symmetry_Int_Tables_number 14
loop_
_symmetry_equiv_pos_site_id
_symmetry_equiv_pos_as_xyz
1 x,y,z
2 1/2-x,1/2+y,1/2-z
3 -x,-y,-z
4 -1/2+x,-1/2-y,-1/2+z
_cell_length_a 11.636(3)
_cell_length_b 11.636(3)
_cell_length_c 15.023(4)
_cell_angle_alpha 90
_cell_angle_beta 102.591(6)
_cell_angle_gamma 90
_cell_formula_units_Z 4
loop_
_atom_type_symbol
_atom_type_radius_bond
C 0.68
H 0.23
N 0.68
O 0.68
loop_
_atom_site_label
_atom_site_type_symbol
_atom_site_fract_x
_atom_site_fract_y
_atom_site_fract_z
N1 N 0.8911(7) 0.3871(6) 0.5754(5)
C1 C 0.8214(5) 0.4618(4) 0.5313(4)
C2 C 0.8533(4) 0.5874(4) 0.5336(3)
H1 H 0.91480 0.59800 0.49710
C3 C 0.7401(5) 0.6414(4) 0.4813(4)
H2 H 0.69170 0.66760 0.52400
H3 H 0.75810 0.70880 0.44640
C4 C 0.6801(3) 0.5602(3) 0.4229(3)
H4 H 0.72370 0.55770 0.37250
C5 C 0.7050(6) 0.4431(4) 0.4680(5)
H5 H 0.64390 0.42170 0.50170
H6 H 0.70980 0.38260 0.42260
C6 C 0.9006(4) 0.6373(4) 0.6282(3)
H7 H 0.85750 0.60610 0.67280
H8 H 0.89390 0.72220 0.62740
C7 C 1.0402(7) 0.5967(12) 0.6533(7)
H9 H 1.04460 0.51280 0.64990
H10 H 1.07690 0.62220 0.71510
H11 H 1.08170 0.63110 0.60960
C8 C 0.5543(4) 0.5798(5) 0.3738(3)
C9 C 0.5076(6) 0.6907(6) 0.3631(4)
H12 H 0.55420 0.75360 0.39070
C10 C 0.3954(7) 0.7108(9) 0.3133(7)
H13 H 0.36860 0.78780 0.30320
C11 C 0.3712(8) 0.5092(11) 0.2845(8)
H14 H 0.32680 0.44700 0.25350
C12 C 0.4825(6) 0.4893(6) 0.3348(4)
H15 H 0.51110 0.41270 0.34320
C13 C 0.3203(2) 0.62149(19) 0.27749(15)
C14 C 0.2015(2) 0.6445(2) 0.22118(16)
C15 C 0.0328(2) 0.5661(2) 0.12635(19)
H16 H -0.01870 0.60230 0.16180
H17 H -0.00020 0.49160 0.10330
H18 H 0.03900 0.61580 0.07490
C16 C 0.9254(2) 0.19229(19) 0.59831(15)
C17 C 0.8981(2) 0.0753(2) 0.57996(16)
C18 C 0.9812(2) -0.0103(2) 0.60501(17)
H19 H 0.96200 -0.08830 0.59010
C19 C 1.0909(2) 0.0194(2) 0.65143(18)
C20 C 1.1208(2) 0.1325(2) 0.67522(18)
H20 H 1.19730 0.15070 0.70960
C21 C 1.0399(2) 0.2172(2) 0.64903(17)
H21 H 1.06070 0.29460 0.66520
N2 N 0.84920(19) 0.27767(16) 0.56880(15)
N3 N 0.78259(18) 0.03818(17) 0.53284(14)
N4 N 1.1779(2) -0.0712(2) 0.67568(18)
O1 O 0.70267(15) 0.11060(15) 0.51422(13)
O2 O 0.76651(16) -0.06332(15) 0.51276(14)
O3 O 1.15633(19) -0.16636(19) 0.64149(18)
O4 O 1.27035(19) -0.0478(2) 0.72703(19)
O5 O 0.15704(16) 0.73806(15) 0.21000(13)
O6 O 0.14828(14) 0.54926(14) 0.18381(11)
H22 H 0.779(3) 0.256(3) 0.540(2)
N5? N 0.8757(11) 0.3947(10) 0.5965(8)
C22? C 0.8037(7) 0.4694(6) 0.5541(6)
C23? C 0.8238(5) 0.5961(6) 0.5717(5)
H23? H 0.81420 0.61170 0.63520
C24? C 0.7215(7) 0.6498(7) 0.5076(7)
H24? H 0.68530 0.70860 0.54040
H25? H 0.74940 0.68840 0.45750
C25? C 0.6406(6) 0.5706(5) 0.4726(5)
H26? H 0.60000 0.57000 0.52480
C26? C 0.6900(8) 0.4500(6) 0.4872(7)
H27? H 0.63710 0.39900 0.51270
H28? H 0.70320 0.41650 0.42970
C27? C 0.9450(5) 0.6381(6) 0.5655(5)
H29? H 0.94560 0.72160 0.55270
H30? H 0.97650 0.59540 0.51900
C28? C 1.0185(10) 0.6067(17) 0.6723(7)
H31? H 0.98070 0.64560 0.71630
H32? H 1.10020 0.63290 0.68080
H33? H 1.01720 0.52350 0.68190
C29? C 0.5320(6) 0.5878(7) 0.3994(5)
C30? C 0.4840(8) 0.6979(8) 0.3837(6)
H34? H 0.52670 0.76200 0.41320
C31? C 0.3760(11) 0.7152(14) 0.3263(11)
H35? H 0.34040 0.78900 0.32010
C32? C 0.3581(11) 0.5134(15) 0.2981(12)
H36? H 0.31060 0.44970 0.27340
C33? C 0.4658(9) 0.4962(9) 0.3552(7)
H37? H 0.49600 0.42030 0.36480
#END
