
#######################################################################
#
#                 Cambridge Crystallographic Data Centre
#                                CCDC
#
#######################################################################
#
# If this CIF has been generated from an entry in the Cambridge
# Structural Database, then it will include bibliographic, chemical,
# crystal, experimental, refinement or atomic coordinate data resulting
# from the CCDC's data processing and validation procedures.
#
#######################################################################

data_CSD_CIF_WOLXAX
_audit_creation_date 2009-04-29
_audit_creation_method CSD-ConQuest-V1
_database_code_CSD WOLXAX
_database_code_depnum_ccdc_archive 'CCDC 711051'
_chemical_formula_sum 'C20 H16 N2 O2'
_chemical_formula_moiety
;
C20 H16 N2 O2
;
_journal_coden_Cambridge 35
_journal_volume 73
_journal_year 2008
_journal_page_first 8331
_journal_name_full 'J.Org.Chem. '
loop_
_publ_author_name
"D.Sampedro"
"A.Soldevilla"
"P.J.Campos"
"R.Ruiz"
"M.A.Rodriguez"
_chemical_name_systematic
;
(2S*,6S*,7S*,9R*)-7-(4-Cyanophenyl)-9-phenyl-3,10-dioxa-1-azatricyclo(5.3.0.0^
2,6^)dec-4-ene
;
_cell_volume   1638.012
_exptl_crystal_density_diffrn 1.283
_diffrn_ambient_temperature 293
#These two values have been output from a single CSD field.
_refine_ls_R_factor_gt 0.0647
_refine_ls_wR_factor_gt 0.0647
_symmetry_cell_setting monoclinic
_symmetry_space_group_name_H-M 'P 21/c'
_symmetry_Int_Tables_number 14
loop_
_symmetry_equiv_pos_site_id
_symmetry_equiv_pos_as_xyz
1 x,y,z
2 -x,1/2+y,1/2-z
3 -x,-y,-z
4 x,-1/2-y,-1/2+z
_cell_length_a 5.7320(2)
_cell_length_b 20.6200(8)
_cell_length_c 13.8590(6)
_cell_angle_alpha 90
_cell_angle_beta 90.383(2)
_cell_angle_gamma 90
_cell_formula_units_Z 4
loop_
_atom_type_symbol
_atom_type_radius_bond
C 0.68
H 0.23
N 0.68
O 0.68
loop_
_atom_site_label
_atom_site_type_symbol
_atom_site_fract_x
_atom_site_fract_y
_atom_site_fract_z
O1 O 1.0980(3) -0.00281(8) 0.66725(12)
C1 C 0.7763(4) 0.12806(10) 0.73687(14)
C2 C 0.8362(3) 0.05927(10) 0.76392(15)
N1 N 1.0854(3) 0.04078(9) 0.74894(12)
O2 O 1.2751(3) 0.02571(10) 0.90271(13)
C3 C 0.8349(4) -0.08092(11) 0.59448(15)
C4 C 0.8675(4) -0.01182(11) 0.62812(17)
C5 C 0.5660(4) 0.15388(12) 0.76617(19)
C6 C 0.6578(4) 0.25511(10) 0.69198(15)
C7 C 0.8651(4) 0.04242(11) 0.87271(16)
C8 C 0.6993(4) 0.00752(11) 0.70817(18)
C9 C 0.5073(5) 0.21704(12) 0.74486(19)
C10 C 0.9252(4) 0.16659(11) 0.68353(17)
C11 C 1.0866(4) 0.00595(12) 0.84295(17)
C12 C 0.8664(5) 0.22978(12) 0.66060(19)
C13 C 0.5905(5) 0.32048(12) 0.66679(19)
N2 N 0.5341(6) 0.37146(12) 0.6457(2)
C14 C 0.9703(6) 0.09219(14) 0.93841(18)
C15 C 0.9869(5) -0.13023(13) 0.6193(2)
C16 C 0.6401(6) -0.09644(16) 0.5406(2)
C17 C 1.1919(6) 0.07871(16) 0.9518(2)
C18 C 0.7422(6) -0.20828(16) 0.5397(2)
C19 C 0.5937(6) -0.15949(17) 0.5144(2)
C20 C 0.9393(7) -0.19384(15) 0.5919(2)
H1 H 0.849(4) 0.0172(11) 0.5771(17)
H2 H 0.554(5) 0.0245(12) 0.6832(18)
H3 H 0.733(4) 0.0190(11) 0.9024(16)
H4 H 1.097(4) -0.0358(11) 0.8296(16)
H5 H 0.669(4) -0.0316(12) 0.7480(16)
H6 H 0.878(5) 0.1260(14) 0.973(2)
H7 H 0.366(5) 0.2344(13) 0.7692(19)
H8 H 0.967(5) 0.2583(13) 0.6218(19)
H9 H 1.311(6) 0.0993(15) 0.998(2)
H10 H 0.464(5) 0.1281(12) 0.8004(19)
H11 H 1.062(5) 0.1484(12) 0.6630(19)
H12 H 0.709(6) -0.2545(16) 0.523(2)
H13 H 0.460(7) -0.1723(17) 0.477(3)
H14 H 0.536(6) -0.0650(17) 0.527(2)
H15 H 1.048(6) -0.2283(16) 0.611(2)
H16 H 1.120(6) -0.1167(14) 0.657(2)
#END
