
#######################################################################
#
#                 Cambridge Crystallographic Data Centre
#                                CCDC
#
#######################################################################
#
# If this CIF has been generated from an entry in the Cambridge
# Structural Database, then it will include bibliographic, chemical,
# crystal, experimental, refinement or atomic coordinate data resulting
# from the CCDC's data processing and validation procedures.
#
#######################################################################

data_CSD_CIF_WOLXIG
_audit_creation_date 2014-08-04
_audit_creation_method CSD-ConQuest-V1
_database_code_CSD WOLXIG
_database_code_depnum_ccdc_archive 'CCDC 1003274'
_chemical_formula_sum 'C20 H19 N5 O4'
_chemical_formula_moiety
;
C20 H19 N5 O4
;
_journal_coden_Cambridge 38
_journal_volume 345
_journal_year 2014
_journal_page_first 68
_journal_name_full 'Science '
loop_
_publ_author_name
"Fanyang Mo"
"Guangbin Dong"
_chemical_name_systematic
;
4-(3-((2,4-Dinitrophenyl)hydrazono)-4-ethylcyclopentyl)benzonitrile
;
_cell_volume   1872.786
_exptl_crystal_colour 'orange'
_exptl_crystal_density_diffrn 1.395
_exptl_crystal_description 'plate'
_diffrn_ambient_temperature 133
_diffrn_special_details
;
twin

;
_refine_special_details
;
The structure is disordered.

;
#These two values have been output from a single CSD field.
_refine_ls_R_factor_gt 0.1173
_refine_ls_wR_factor_gt 0.1173
_symmetry_cell_setting triclinic
_symmetry_space_group_name_H-M 'P -1'
_symmetry_Int_Tables_number 2
loop_
_symmetry_equiv_pos_site_id
_symmetry_equiv_pos_as_xyz
1 x,y,z
2 -x,-y,-z
_cell_length_a 9.2419(12)
_cell_length_b 10.4744(15)
_cell_length_c 19.628(3)
_cell_angle_alpha 87.454(14)
_cell_angle_beta 80.619(8)
_cell_angle_gamma 89.763(10)
_cell_formula_units_Z 4
loop_
_atom_type_symbol
_atom_type_radius_bond
C 0.68
H 0.23
N 0.68
O 0.68
loop_
_atom_site_label
_atom_site_type_symbol
_atom_site_fract_x
_atom_site_fract_y
_atom_site_fract_z
C1 C 0.6980(12) 0.2341(11) 0.0863(8)
C2 C 0.6861(12) 0.1031(12) 0.0577(7)
H1 H 0.69490 0.11480 0.00640
C3 C 0.5298(12) 0.0655(13) 0.0857(7)
H2 H 0.52350 -0.02780 0.09630
H3 H 0.46650 0.08690 0.05070
C4 C 0.4761(13) 0.1392(13) 0.1531(5)
H4 H 0.51590 0.08980 0.19060
C5 C 0.5613(13) 0.2627(12) 0.1431(8)
H5 H 0.59300 0.28620 0.18680
H6 H 0.50160 0.33310 0.12710
C6 C 0.8047(14) 0.0109(13) 0.0726(8)
H7 H 0.78610 -0.02220 0.12130
H8 H 0.90260 0.05200 0.06300
C7 C 0.792(3) -0.1050(16) 0.0185(11)
H9 H 0.69340 -0.14280 0.02860
H10 H 0.86490 -0.17100 0.02430
H11 H 0.80960 -0.06950 -0.02910
C8 C 0.3112(12) 0.1415(12) 0.1765(4)
C9 C 0.2410(13) 0.2558(12) 0.1950(6)
H12 H 0.29650 0.33240 0.19270
C10 C 0.0908(14) 0.2583(15) 0.2166(6)
H13 H 0.04370 0.33650 0.22920
C11 C 0.0088(12) 0.1465(16) 0.2198(5)
C12 C 0.0795(13) 0.0338(15) 0.2014(6)
H14 H 0.02440 -0.04310 0.20380
C13 C 0.2291(13) 0.0314(13) 0.1798(6)
H15 H 0.27580 -0.04690 0.16700
C14 C -0.1494(13) 0.145(2) 0.2417(6)
N1 N 0.8203(13) 0.2938(14) 0.0765(9)
N2 N -0.2736(12) 0.1460(18) 0.2592(6)
C15 C 0.9509(8) 0.4751(8) 0.1008(4)
C16 C 0.9687(8) 0.5947(8) 0.1287(4)
C17 C 1.1029(8) 0.6575(8) 0.1208(4)
H16 H 1.11180 0.73730 0.14100
C18 C 1.2231(9) 0.6003(8) 0.0829(4)
C19 C 1.2131(9) 0.4838(8) 0.0526(4)
H17 H 1.29700 0.44720 0.02620
C20 C 1.0797(9) 0.4229(8) 0.0617(4)
H18 H 1.07280 0.34310 0.04120
N3 N 0.8230(8) 0.4087(7) 0.1101(4)
N4 N 0.8457(7) 0.6609(7) 0.1678(4)
N5 N 1.3650(7) 0.6645(7) 0.0764(4)
O1 O 1.4684(7) 0.6147(7) 0.0403(4)
O2 O 1.3732(6) 0.7642(6) 0.1047(3)
O3 O 0.8662(7) 0.7660(6) 0.1900(4)
O4 O 0.7236(6) 0.6087(6) 0.1776(4)
H19 H 0.734(12) 0.436(10) 0.141(5)
C21? C 0.7087(14) 0.2187(14) 0.1053(10)
C22? C 0.7019(15) 0.0795(14) 0.0898(9)
H20? H 0.74860 0.03360 0.12630
C23? C 0.5419(14) 0.0458(13) 0.1075(10)
H21? H 0.52210 0.00040 0.15340
H22? H 0.51440 -0.01140 0.07280
C24? C 0.4495(13) 0.1717(14) 0.1082(7)
H23? H 0.43700 0.18760 0.05890
C25? C 0.5494(14) 0.2774(13) 0.1211(11)
H24? H 0.52670 0.30290 0.16970
H25? H 0.54000 0.35300 0.09010
C26? C 0.787(2) 0.0379(16) 0.0228(9)
H26? H 0.88290 0.08190 0.01150
H27? H 0.73130 0.05280 -0.01590
C27? C 0.806(3) -0.1182(16) 0.0410(12)
H28? H 0.89680 -0.13200 0.06030
H29? H 0.81160 -0.16520 -0.00140
H30? H 0.72230 -0.14890 0.07470
C28? C 0.2941(12) 0.1616(14) 0.1471(5)
C29? C 0.2239(16) 0.2679(15) 0.1773(8)
H31? H 0.27380 0.34770 0.17350
C30? C 0.0818(16) 0.2581(19) 0.2129(8)
H32? H 0.03490 0.33110 0.23340
C31? C 0.0077(14) 0.142(2) 0.2188(6)
C32? C 0.0782(15) 0.0373(19) 0.1885(8)
H33? H 0.02850 -0.04260 0.19200
C33? C 0.2199(15) 0.0469(15) 0.1532(7)
H34? H 0.26670 -0.02630 0.13300
C34? C -0.1418(15) 0.128(3) 0.2554(8)
N6? N 0.8282(16) 0.2818(19) 0.0918(12)
N7? N -0.2594(16) 0.119(3) 0.2844(9)
C35 C 0.3117(9) 0.3031(9) 0.4040(5)
C36 C 0.1576(12) 0.2600(11) 0.4399(6)
H35 H 0.15480 0.25300 0.49100
C37 C 0.1423(12) 0.1293(11) 0.4129(7)
H36 H 0.08910 0.07130 0.44970
H37 H 0.08710 0.13440 0.37360
C38 C 0.2887(12) 0.0829(11) 0.3907(5)
H38 H 0.31730 0.05540 0.43610
C39 C 0.3907(13) 0.1941(13) 0.3697(9)
H39 H 0.48570 0.17970 0.38590
H40 H 0.40880 0.20900 0.31880
C40 C 0.0446(12) 0.3604(12) 0.4221(6)
H41 H 0.06980 0.44440 0.43820
H42 H 0.05030 0.36860 0.37130
C41 C -0.1110(12) 0.3249(18) 0.4549(8)
H43 H -0.14150 0.24820 0.43410
H44 H -0.17700 0.39560 0.44720
H45 H -0.11490 0.30790 0.50470
C42 C 0.3116(11) -0.0398(10) 0.3527(4)
C43 C 0.2034(12) -0.1318(10) 0.3597(5)
H46 H 0.11290 -0.11780 0.38910
C44 C 0.2236(15) -0.2438(11) 0.3250(6)
H47 H 0.14750 -0.30590 0.33050
C45 C 0.3549(15) -0.2652(11) 0.2821(5)
C46 C 0.4651(14) -0.1744(11) 0.2744(5)
H48 H 0.55540 -0.18900 0.24500
C47 C 0.4440(11) -0.0627(11) 0.3091(5)
H49 H 0.52010 -0.00060 0.30340
C48 C 0.3756(18) -0.3839(11) 0.2463(6)
N8 N 0.3978(18) -0.4758(11) 0.2169(6)
C49 C 0.5616(9) 0.5569(8) 0.3926(4)
C50 C 0.7040(9) 0.5984(9) 0.3603(5)
C51 C 0.7541(9) 0.7186(9) 0.3681(5)
H50 H 0.84920 0.74410 0.34570
C52 C 0.6677(9) 0.8024(9) 0.4079(5)
C53 C 0.5260(9) 0.7664(9) 0.4410(5)
H51 H 0.46580 0.82520 0.46810
C54 C 0.4760(9) 0.6466(9) 0.4336(5)
H52 H 0.38100 0.62230 0.45670
N9 N 0.3617(8) 0.4143(8) 0.4136(4)
N10 N 0.5054(7) 0.4403(7) 0.3852(4)
H53 H 0.55990 0.38180 0.36260
N11 N 0.8036(8) 0.5147(8) 0.3176(4)
N12 N 0.7204(8) 0.9317(8) 0.4140(4)
O5 O 0.7575(7) 0.4097(7) 0.3056(4)
O6 O 0.9278(7) 0.5512(6) 0.2958(4)
O7 O 0.8492(7) 0.9561(7) 0.3920(5)
O8 O 0.6322(7) 1.0102(7) 0.4413(4)
C55? C 0.153(3) 0.285(2) 0.4090(14)
H54? H 0.12300 0.33520 0.36910
C56? C 0.137(2) 0.146(2) 0.3952(17)
H55? H 0.13200 0.09330 0.43850
H56? H 0.04690 0.13240 0.37550
C57? C 0.265(2) 0.1130(19) 0.3467(9)
H57? H 0.23640 0.15250 0.30340
C58? C 0.390(2) 0.200(3) 0.354(2)
H58? H 0.43460 0.23980 0.30890
H59? H 0.46650 0.15340 0.37500
C59? C 0.064(3) 0.337(3) 0.4748(14)
H60? H 0.10340 0.30030 0.51540
H61? H 0.07650 0.43060 0.47370
C60? C -0.098(2) 0.306(5) 0.4834(18)
H62? H -0.13830 0.34060 0.44320
H63? H -0.14960 0.34400 0.52530
H64? H -0.11230 0.21290 0.48730
C61? C 0.296(2) -0.0209(18) 0.3237(7)
C62? C 0.192(2) -0.117(2) 0.3369(11)
H65? H 0.09760 -0.09850 0.36140
C63? C 0.223(3) -0.2390(19) 0.3153(12)
H66? H 0.14970 -0.30380 0.32480
C64? C 0.360(3) -0.2668(19) 0.2798(9)
C65? C 0.466(3) -0.172(2) 0.2660(12)
H67? H 0.56030 -0.19100 0.24150
C66? C 0.435(2) -0.050(2) 0.2876(11)
H68? H 0.50830 0.01440 0.27810
C67? C 0.391(5) -0.396(2) 0.2576(13)
N13? N 0.412(4) -0.499(2) 0.2408(13)
#END
