
#######################################################################
#
#                 Cambridge Crystallographic Data Centre
#                                CCDC
#
#######################################################################
#
# If this CIF has been generated from an entry in the Cambridge
# Structural Database, then it will include bibliographic, chemical,
# crystal, experimental, refinement or atomic coordinate data resulting
# from the CCDC's data processing and validation procedures.
#
#######################################################################

data_CSD_CIF_WOLXAY
_audit_creation_date 2014-08-04
_audit_creation_method CSD-ConQuest-V1
_database_code_CSD WOLXAY
_database_code_depnum_ccdc_archive 'CCDC 1003273'
_chemical_formula_sum 'C20 H20 N4 O6'
_chemical_formula_moiety
;
C20 H20 N4 O6
;
_journal_coden_Cambridge 38
_journal_volume 345
_journal_year 2014
_journal_page_first 68
_journal_name_full 'Science '
loop_
_publ_author_name
"Fanyang Mo"
"Guangbin Dong"
_chemical_name_systematic
;
1-(4-(1,3-Benzodioxol-5-yl)-2-ethylcyclopentylidene)-2-(2,4-dinitrophenyl)hydr
azine
;
_cell_volume   1884.917
_exptl_crystal_colour 'yellow'
_exptl_crystal_density_diffrn 1.453
_exptl_crystal_description 'plate'
_diffrn_ambient_temperature 100
_refine_special_details
;
C2,C3,C4,C6,C7 and C2A,C3A,C4A,C6A,C7A disordered over two sites with 
occupancies 0.69:0.31.
;
#These two values have been output from a single CSD field.
_refine_ls_R_factor_gt 0.0812
_refine_ls_wR_factor_gt 0.0812
_symmetry_cell_setting monoclinic
_symmetry_space_group_name_H-M 'P 21/c'
_symmetry_Int_Tables_number 14
loop_
_symmetry_equiv_pos_site_id
_symmetry_equiv_pos_as_xyz
1 x,y,z
2 -x,1/2+y,1/2-z
3 -x,-y,-z
4 x,-1/2-y,-1/2+z
_cell_length_a 14.008(10)
_cell_length_b 12.463(8)
_cell_length_c 11.899(8)
_cell_angle_alpha 90
_cell_angle_beta 114.856(5)
_cell_angle_gamma 90
_cell_formula_units_Z 4
loop_
_atom_type_symbol
_atom_type_radius_bond
C 0.68
H 0.23
N 0.68
O 0.68
loop_
_atom_site_label
_atom_site_type_symbol
_atom_site_fract_x
_atom_site_fract_y
_atom_site_fract_z
C1 C 0.2480(3) 0.7439(3) 0.7723(3)
C2 C 0.1835(3) 0.7228(2) 0.6361(3)
C3 C 0.2351(4) 0.8591(3) 0.8050(4)
H1 H 0.18150 0.86410 0.83990
C4 C 0.1936(5) 0.9156(4) 0.6725(4)
H2 H 0.15790 0.98460 0.67080
H3 H 0.25080 0.92730 0.64580
C5 C 0.1152(4) 0.8284(3) 0.5940(4)
H4 H 0.05500 0.82410 0.61800
C6 C 0.3384(4) 0.9071(4) 0.8927(4)
H5 H 0.36970 0.85970 0.96600
H6 H 0.38660 0.90750 0.85120
C7 C 0.3330(7) 1.0183(5) 0.9365(8)
H7 H 0.30030 1.06600 0.86500
H8 H 0.40420 1.04370 0.98870
H9 H 0.29080 1.01810 0.98470
C8 C 0.0730(3) 0.8448(3) 0.4527(3)
C9 C 0.0084(3) 0.7631(3) 0.3782(3)
H10 H 0.00010 0.69740 0.41350
C10 C -0.0420(3) 0.7807(2) 0.2540(3)
C11 C -0.0292(3) 0.8743(2) 0.2006(3)
C12 C 0.0327(3) 0.9562(3) 0.2697(3)
H11 H 0.04060 1.02120 0.23270
C13 C 0.0838(3) 0.9394(3) 0.3980(3)
H12 H 0.12730 0.99470 0.44900
C14 C -0.1446(3) 0.7728(3) 0.0508(3)
H13 H -0.13800 0.73040 -0.01600
H14 H -0.21970 0.79150 0.02430
C15 C 0.3440(2) 0.4993(2) 0.9187(3)
C16 C 0.3440(2) 0.3874(2) 0.8966(3)
C17 C 0.3932(2) 0.3151(2) 0.9912(3)
H15 H 0.39290 0.24060 0.97410
C18 C 0.4426(2) 0.3525(2) 1.1103(3)
C19 C 0.4457(3) 0.4615(2) 1.1365(3)
H16 H 0.48130 0.48590 1.21950
C20 C 0.3978(2) 0.5333(2) 1.0433(3)
H17 H 0.40050 0.60760 1.06230
N1 N 0.3001(2) 0.6793(2) 0.8602(3)
N2 N 0.2976(2) 0.5722(2) 0.8282(3)
N3 N 0.2916(2) 0.3429(2) 0.7735(2)
N4 N 0.4918(2) 0.2763(2) 1.2104(2)
O1 O 0.2422(2) 0.40345(18) 0.6853(2)
O2 O 0.29589(19) 0.24554(17) 0.7585(2)
O3 O 0.4722(2) 0.17967(17) 1.1878(2)
O4 O 0.5498(2) 0.31036(19) 1.3135(2)
O5 O -0.10717(19) 0.71117(17) 0.1637(2)
O6 O -0.0826(2) 0.86816(18) 0.0741(2)
H18 H 0.264(3) 0.548(3) 0.752(3)
H19 H 0.134(3) 0.668(3) 0.613(4)
H20 H 0.229(3) 0.702(3) 0.594(4)
C21? C 0.2757(8) 0.8674(9) 0.7868(8)
H21? H 0.34150 0.88770 0.77870
C22? C 0.1680(9) 0.9010(11) 0.6729(9)
H22? H 0.10530 0.88160 0.68700
H23? H 0.16590 0.97820 0.65280
C23? C 0.1804(9) 0.8289(8) 0.5735(9)
H24? H 0.24500 0.84440 0.56030
C24? C 0.2703(9) 0.9017(8) 0.9062(9)
H25? H 0.19670 0.89440 0.89590
H26? H 0.31380 0.85190 0.97290
C25? C 0.3063(16) 1.0140(11) 0.947(2)
H27? H 0.38200 1.01950 0.96970
H28? H 0.29210 1.03220 1.01840
H29? H 0.26830 1.06380 0.87880
#END
