
#######################################################################
#
#                 Cambridge Crystallographic Data Centre
#                                CCDC
#
#######################################################################
#
# If this CIF has been generated from an entry in the Cambridge
# Structural Database, then it will include bibliographic, chemical,
# crystal, experimental, refinement or atomic coordinate data resulting
# from the CCDC's data processing and validation procedures.
#
#######################################################################

data_CSD_CIF_WOLXUS
_audit_creation_date 2014-08-04
_audit_creation_method CSD-ConQuest-V1
_database_code_CSD WOLXUS
_database_code_depnum_ccdc_archive 'CCDC 1003276'
_chemical_formula_sum 'C16 H22 N4 O4'
_chemical_formula_moiety
;
C16 H22 N4 O4
;
_journal_coden_Cambridge 38
_journal_volume 345
_journal_year 2014
_journal_page_first 68
_journal_name_full 'Science '
loop_
_publ_author_name
"Fanyang Mo"
"Guangbin Dong"
_chemical_name_systematic
;
1-(2,4-Dinitrophenyl)-2-(2-ethyl-4-isopropylcyclopentylidene)hydrazine
;
_cell_volume   1666.020
_exptl_crystal_colour 'orange'
_exptl_crystal_density_diffrn 1.333
_exptl_crystal_description 'prism'
_diffrn_ambient_temperature 100
_diffrn_special_details
;
twin

;
_refine_special_details
;
C1,C10,C2,C3,C4,C5,C6,C7,C8,C9,N1 and C10A,C1A,C2A, 
C3A,C4A,C5A,C6A,C7A,C8A,C9A,N1A disordered over two sites with occupancies 
0.73:0.27.
;
#These two values have been output from a single CSD field.
_refine_ls_R_factor_gt 0.0657
_refine_ls_wR_factor_gt 0.0657
_symmetry_cell_setting monoclinic
_symmetry_space_group_name_H-M 'P 21/c'
_symmetry_Int_Tables_number 14
loop_
_symmetry_equiv_pos_site_id
_symmetry_equiv_pos_as_xyz
1 x,y,z
2 -x,1/2+y,1/2-z
3 -x,-y,-z
4 x,-1/2-y,-1/2+z
_cell_length_a 11.792(2)
_cell_length_b 12.610(2)
_cell_length_c 11.747(2)
_cell_angle_alpha 90
_cell_angle_beta 107.487(4)
_cell_angle_gamma 90
_cell_formula_units_Z 4
loop_
_atom_type_symbol
_atom_type_radius_bond
C 0.68
H 0.23
N 0.68
O 0.68
loop_
_atom_site_label
_atom_site_type_symbol
_atom_site_fract_x
_atom_site_fract_y
_atom_site_fract_z
N1 N 0.8038(5) 0.3211(4) 0.5053(5)
C1 C 0.7478(5) 0.2572(3) 0.5545(5)
C2 C 0.7718(4) 0.1399(3) 0.5580(4)
H1 H 0.84430 0.12740 0.62730
C3 C 0.6698(4) 0.0919(3) 0.5904(4)
H2 H 0.69510 0.02630 0.63740
H3 H 0.60430 0.07440 0.51770
C4 C 0.6298(4) 0.1745(3) 0.6641(4)
H4 H 0.68680 0.17030 0.74640
C5 C 0.6532(6) 0.2809(4) 0.6121(6)
H5 H 0.58020 0.30760 0.55260
H6 H 0.68110 0.33460 0.67600
C6 C 0.7998(5) 0.0976(3) 0.4479(4)
H7 H 0.86810 0.13720 0.43660
H8 H 0.73050 0.10960 0.37670
C7 C 0.8293(15) -0.0205(7) 0.4587(16)
H9 H 0.89770 -0.03280 0.52930
H10 H 0.84840 -0.04430 0.38720
H11 H 0.76060 -0.06030 0.46650
C8 C 0.5058(4) 0.1610(3) 0.6773(4)
H12 H 0.44890 0.15870 0.59480
C9 C 0.4952(10) 0.0547(5) 0.7355(9)
H13 H 0.55350 0.05160 0.81500
H14 H 0.51050 -0.00310 0.68620
H15 H 0.41490 0.04720 0.74260
C10 C 0.4663(9) 0.2502(5) 0.7414(9)
H16 H 0.38220 0.24090 0.73540
H17 H 0.47700 0.31790 0.70500
H18 H 0.51390 0.24990 0.82560
C11 C 0.8198(3) 0.5001(2) 0.4504(3)
C12 C 0.8034(3) 0.6105(2) 0.4611(3)
C13 C 0.8518(3) 0.6845(2) 0.4017(3)
H19 H 0.84000 0.75820 0.41030
C14 C 0.9170(3) 0.6491(2) 0.3302(3)
C15 C 0.9376(3) 0.5413(2) 0.3184(3)
H20 H 0.98470 0.51860 0.27010
C16 C 0.8897(3) 0.4685(2) 0.3766(3)
H21 H 0.90330 0.39520 0.36760
N2 N 0.7729(2) 0.42675(18) 0.5070(2)
H22 H 0.72240 0.44630 0.54510
N3 N 0.7353(2) 0.6528(2) 0.5352(2)
N4 N 0.9662(2) 0.72665(19) 0.2665(2)
O1 O 0.6784(2) 0.59017(18) 0.5788(2)
O2 O 0.7352(2) 0.74880(15) 0.5522(2)
O3 O 0.9391(2) 0.82067(16) 0.2703(2)
O4 O 1.0325(2) 0.69521(18) 0.2110(2)
N5? N 0.7811(15) 0.3195(14) 0.4747(14)
C17? C 0.7204(13) 0.2559(10) 0.5192(12)
C18? C 0.7237(11) 0.1382(9) 0.4934(12)
H23? H 0.67780 0.13320 0.40690
C19? C 0.6401(13) 0.0950(12) 0.5534(13)
H24? H 0.57900 0.05260 0.49480
H25? H 0.68420 0.04630 0.61760
C20? C 0.5800(12) 0.1747(9) 0.6053(11)
H26? H 0.49680 0.17520 0.55010
C21? C 0.6305(16) 0.2822(13) 0.5828(16)
H27? H 0.56690 0.32810 0.53270
H28? H 0.66890 0.31900 0.65910
C22? C 0.8407(13) 0.0950(13) 0.4973(16)
H29? H 0.89430 0.10000 0.58010
H30? H 0.87500 0.13920 0.44620
C23? C 0.837(4) -0.020(2) 0.456(4)
H31? H 0.79320 -0.06280 0.49870
H32? H 0.91800 -0.04710 0.47310
H33? H 0.79650 -0.02380 0.37010
C24? C 0.5642(13) 0.1604(9) 0.7266(11)
H34? H 0.64620 0.16760 0.78330
C25? C 0.523(3) 0.0513(17) 0.753(3)
H35? H 0.58060 -0.00220 0.74410
H36? H 0.44510 0.03600 0.69620
H37? H 0.51800 0.04960 0.83430
C26? C 0.495(2) 0.2489(19) 0.761(3)
H38? H 0.46460 0.29670 0.69240
H39? H 0.54690 0.28850 0.82800
H40? H 0.42800 0.21920 0.78340
#END
