
#######################################################################
#
#                 Cambridge Crystallographic Data Centre
#                                CCDC
#
#######################################################################
#
# If this CIF has been generated from an entry in the Cambridge
# Structural Database, then it will include bibliographic, chemical,
# crystal, experimental, refinement or atomic coordinate data resulting
# from the CCDC's data processing and validation procedures.
#
#######################################################################

data_CSD_CIF_WOLXOM
_audit_creation_date 2014-08-04
_audit_creation_method CSD-ConQuest-V1
_database_code_CSD WOLXOM
_database_code_depnum_ccdc_archive 'CCDC 1003275'
_chemical_formula_sum 'C18 H22 N4 O8'
_chemical_formula_moiety
;
C18 H22 N4 O8
;
_journal_coden_Cambridge 38
_journal_volume 345
_journal_year 2014
_journal_page_first 68
_journal_name_full 'Science '
loop_
_publ_author_name
"Fanyang Mo"
"Guangbin Dong"
_chemical_name_systematic
;
Dimethyl (3-((2,4-dinitrophenyl)hydrazono)-4-ethylcyclopentyl)malonate
;
_cell_volume    987.181
_exptl_crystal_colour 'yellow'
_exptl_crystal_density_diffrn 1.421
_exptl_crystal_description 'plates'
_diffrn_ambient_temperature 100
_refine_special_details
;
C2,C3,C6,C7 and C2A,C3A,C6A,C7A disordered over two sites with occupancies 
0.78:0.22.
;
#These two values have been output from a single CSD field.
_refine_ls_R_factor_gt 0.0678
_refine_ls_wR_factor_gt 0.0678
_symmetry_cell_setting triclinic
_symmetry_space_group_name_H-M 'P -1'
_symmetry_Int_Tables_number 2
loop_
_symmetry_equiv_pos_site_id
_symmetry_equiv_pos_as_xyz
1 x,y,z
2 -x,-y,-z
_cell_length_a 6.0894(12)
_cell_length_b 9.6228(15)
_cell_length_c 17.193(3)
_cell_angle_alpha 89.920(5)
_cell_angle_beta 89.614(5)
_cell_angle_gamma 78.491(5)
_cell_formula_units_Z 2
loop_
_atom_type_symbol
_atom_type_radius_bond
C 0.68
H 0.23
N 0.68
O 0.68
loop_
_atom_site_label
_atom_site_type_symbol
_atom_site_fract_x
_atom_site_fract_y
_atom_site_fract_z
C1 C 0.3812(6) 0.7966(4) 0.1895(2)
C2 C 0.2294(8) 0.9170(5) 0.1461(3)
H1 H 0.13450 0.87520 0.10910
C3 C 0.0804(8) 0.9905(5) 0.2118(3)
H2 H 0.15220 1.06150 0.23770
H3 H -0.06650 1.03910 0.19130
C4 C 0.3574(7) 1.0110(4) 0.1008(3)
H4 H 0.46400 0.95110 0.06490
H5 H 0.44570 1.05640 0.13760
C5 C 0.2063(10) 1.1262(6) 0.0539(3)
H6 H 0.14390 1.08300 0.00980
H7 H 0.29410 1.19420 0.03460
H8 H 0.08400 1.17550 0.08710
C6 C 0.0513(6) 0.8765(4) 0.2675(2)
C7 C 0.2767(5) 0.7679(3) 0.2654(2)
H9 H 0.37280 0.78290 0.30960
H10 H 0.25130 0.66950 0.26740
C8 C -0.0297(6) 0.9145(4) 0.3505(2)
C9 C -0.2649(6) 1.0050(4) 0.3537(2)
C10 C -0.5202(6) 1.1509(4) 0.4353(2)
H11 H -0.53520 1.23310 0.40060
H12 H -0.53470 1.18330 0.48950
H13 H -0.63790 1.09790 0.42390
C11 C -0.0301(7) 0.7801(4) 0.3968(2)
C12 C 0.1965(10) 0.6095(5) 0.4752(3)
H14 H 0.07790 0.61070 0.51420
H15 H 0.34250 0.59280 0.50100
H16 H 0.19330 0.53370 0.43750
C13 C 0.8812(5) 0.5473(3) 0.18750(18)
C14 C 1.0047(5) 0.4371(3) 0.23472(18)
C15 C 1.2221(5) 0.3717(3) 0.21584(18)
H17 H 1.30340 0.29960 0.24820
C16 C 1.3182(5) 0.4132(3) 0.14919(19)
C17 C 1.2011(5) 0.5171(3) 0.09946(19)
H18 H 1.26920 0.54190 0.05300
C18 C 0.9875(5) 0.5822(3) 0.1189(2)
H19 H 0.90800 0.65300 0.08530
N1 N 0.5666(5) 0.7305(3) 0.16051(17)
N2 N 0.6724(4) 0.6168(3) 0.20579(18)
N3 N 0.9069(4) 0.3861(3) 0.30361(16)
N4 N 1.5461(4) 0.3437(3) 0.12979(18)
O1 O 0.7105(4) 0.4380(2) 0.32178(13)
O2 O 1.0224(4) 0.2908(3) 0.34147(15)
O3 O 1.6547(4) 0.2625(2) 0.17700(14)
O4 O 1.6216(4) 0.3700(3) 0.06590(15)
O5 O -0.3979(4) 1.0233(3) 0.30102(16)
O6 O -0.3047(4) 1.0608(3) 0.42371(15)
O7 O -0.1734(5) 0.7112(3) 0.39651(16)
O8 O 0.1608(5) 0.7447(3) 0.43526(15)
H20 H 0.625(6) 0.596(4) 0.247(2)
H21 H 0.090(7) 0.974(4) 0.377(2)
H22 H -0.079(8) 0.830(5) 0.253(3)
C19? C 0.296(3) 0.960(2) 0.1678(10)
H23? H 0.42700 1.00770 0.16920
C20? C 0.142(3) 1.013(2) 0.2365(10)
H24? H 0.01610 1.08840 0.21980
H25? H 0.22600 1.05110 0.27780
C21? C 0.232(3) 0.9499(19) 0.0884(11)
H26? H 0.11220 0.89370 0.08590
H27? H 0.36200 0.89820 0.05840
C22? C 0.144(4) 1.099(2) 0.0484(15)
H28? H 0.10790 1.17280 0.08850
H29? H 0.00920 1.09590 0.01820
H30? H 0.26060 1.12190 0.01380
#END
