
#######################################################################
#
#                 Cambridge Crystallographic Data Centre
#                                CCDC
#
#######################################################################
#
# If this CIF has been generated from an entry in the Cambridge
# Structural Database, then it will include bibliographic, chemical,
# crystal, experimental, refinement or atomic coordinate data resulting
# from the CCDC's data processing and validation procedures.
#
#######################################################################

data_CSD_CIF_WOLYAZ
_audit_creation_date 2014-08-04
_audit_creation_method CSD-ConQuest-V1
_database_code_CSD WOLYAZ
_database_code_depnum_ccdc_archive 'CCDC 1003277'
_chemical_formula_sum 'C14 H18 N4 O4'
_chemical_formula_moiety
;
C14 H18 N4 O4
;
_journal_coden_Cambridge 38
_journal_volume 345
_journal_year 2014
_journal_page_first 68
_journal_name_full 'Science '
loop_
_publ_author_name
"Fanyang Mo"
"Guangbin Dong"
_chemical_name_systematic
;
1-(2,4-Dinitrophenyl)-2-(2-ethyl-4-methylcyclopentylidene)hydrazine
;
_cell_volume   1500.405
_exptl_crystal_colour 'orange'
_exptl_crystal_density_diffrn 1.356
_exptl_crystal_description 'lath'
_diffrn_ambient_temperature 153
_refine_special_details
;
C1,C2,C3,C4,C5,C7,C8,C9 and C1A,C2A,C3A,C4A,C5A,C7A, C8A,C9A disordered over 
two sites with occupancies 0.812:0.188.
;
#These two values have been output from a single CSD field.
_refine_ls_R_factor_gt 0.0688
_refine_ls_wR_factor_gt 0.0688
_symmetry_cell_setting monoclinic
_symmetry_space_group_name_H-M 'P 21/c'
_symmetry_Int_Tables_number 14
loop_
_symmetry_equiv_pos_site_id
_symmetry_equiv_pos_as_xyz
1 x,y,z
2 -x,1/2+y,1/2-z
3 -x,-y,-z
4 x,-1/2-y,-1/2+z
_cell_length_a 14.5637(8)
_cell_length_b 14.9954(8)
_cell_length_c 6.9313(4)
_cell_angle_alpha 90
_cell_angle_beta 97.604(4)
_cell_angle_gamma 90
_cell_formula_units_Z 4
loop_
_atom_type_symbol
_atom_type_radius_bond
C 0.68
H 0.23
N 0.68
O 0.68
loop_
_atom_site_label
_atom_site_type_symbol
_atom_site_fract_x
_atom_site_fract_y
_atom_site_fract_z
C1 C 0.7785(3) 0.4723(3) 0.2667(12)
C2 C 0.8623(3) 0.5311(3) 0.3065(6)
H1 H 0.88210 0.53200 0.45020
C3 C 0.9337(3) 0.4771(4) 0.2113(7)
H2 H 0.92680 0.48790 0.06930
H3 H 0.99760 0.49300 0.26830
C4 C 0.9127(3) 0.3812(3) 0.2543(7)
H4 H 0.93610 0.36840 0.39370
C5 C 0.8070(3) 0.3779(3) 0.2273(8)
H5 H 0.78240 0.35940 0.09330
H6 H 0.78440 0.33580 0.32060
C6 C 0.8496(3) 0.6271(3) 0.2369(7)
H7 H 0.91150 0.65190 0.22420
H8 H 0.81380 0.62630 0.10500
C7 C 0.8037(4) 0.6876(5) 0.3565(19)
H9 H 0.74400 0.66220 0.37900
H10 H 0.79350 0.74510 0.28990
H11 H 0.84270 0.69630 0.48160
C8 C 0.9541(4) 0.3126(5) 0.1253(10)
H12 H 0.93110 0.32430 -0.01170
H13 H 0.93590 0.25240 0.16000
H14 H 1.02180 0.31740 0.14530
C9 C 0.5384(2) 0.45986(18) 0.2306(4)
C10 C 0.4641(2) 0.39787(18) 0.1862(4)
C11 C 0.3738(2) 0.4201(2) 0.2012(4)
H15 H 0.32600 0.37690 0.17480
C12 C 0.3533(2) 0.5052(2) 0.2547(4)
C13 C 0.4229(2) 0.5693(2) 0.2918(4)
H16 H 0.40750 0.62840 0.32500
C14 C 0.51276(19) 0.54750(18) 0.2805(4)
H17 H 0.55940 0.59180 0.30660
N1 N 0.69545(17) 0.50279(16) 0.2625(4)
N2 N 0.62681(16) 0.43878(15) 0.2248(3)
H18 H 0.64170 0.38380 0.19690
N3 N 0.4808(2) 0.30828(18) 0.1205(4)
N4 N 0.2583(2) 0.5286(2) 0.2694(4)
O1 O 0.5617(2) 0.28454(14) 0.1099(4)
O2 O 0.4149(2) 0.25967(17) 0.0726(4)
O3 O 0.19805(17) 0.4704(2) 0.2392(4)
O4 O 0.24121(17) 0.6064(2) 0.3100(4)
C15? C 0.7772(11) 0.4817(13) 0.219(5)
C16? C 0.8536(12) 0.5491(10) 0.227(3)
H19? H 0.85280 0.57530 0.09410
C17? C 0.9397(10) 0.4890(12) 0.269(4)
H20? H 0.99490 0.51800 0.22770
H21? H 0.95260 0.47450 0.40960
C18? C 0.9131(11) 0.4068(11) 0.151(3)
H22? H 0.91190 0.42340 0.01050
C19? C 0.8136(11) 0.3892(12) 0.184(5)
H23? H 0.77780 0.36110 0.06890
H24? H 0.81130 0.35030 0.29900
C20? C 0.8559(12) 0.6246(11) 0.372(3)
H25? H 0.86100 0.59770 0.50330
H26? H 0.91370 0.65850 0.36530
C21? C 0.781(2) 0.6882(18) 0.357(6)
H27? H 0.73970 0.67830 0.23540
H28? H 0.80610 0.74880 0.35840
H29? H 0.74610 0.68060 0.46770
C22? C 0.9794(15) 0.3281(13) 0.191(4)
H30? H 1.04200 0.35030 0.23380
H31? H 0.97970 0.29310 0.07120
H32? H 0.95910 0.29030 0.29230
#END
