
#######################################################################
#
#                 Cambridge Crystallographic Data Centre
#                                CCDC
#
#######################################################################
#
# If this CIF has been generated from an entry in the Cambridge
# Structural Database, then it will include bibliographic, chemical,
# crystal, experimental, refinement or atomic coordinate data resulting
# from the CCDC's data processing and validation procedures.
#
#######################################################################

data_CSD_CIF_WOLZAA
_audit_creation_date 2014-08-04
_audit_creation_method CSD-ConQuest-V1
_database_code_CSD WOLZAA
_database_code_depnum_ccdc_archive 'CCDC 1006234'
_chemical_formula_sum 'C22 H28 N2 O4'
_chemical_formula_moiety
;
C22 H28 N2 O4
;
_journal_coden_Cambridge 1490
_journal_volume 5
_journal_year 2014
_journal_page_first 4531
_journal_name_full 'Nat.Commun. '
loop_
_publ_author_name
"Jiajia Ma"
"Xiaobing Ding"
"Ying Hu"
"Yong Huang"
"Lei Gong"
"E.Meggers"
_chemical_name_systematic
;
t-Butyl ((1R,2S)-2-(3-ethylphenyl)-1-(4-methylphenyl)-2-nitroethyl)carbamate
;
_cell_volume   1047.545
_exptl_crystal_colour 'colorless'
_exptl_crystal_density_diffrn 1.219
_exptl_crystal_description 'block'
_diffrn_ambient_temperature 173
#These two values have been output from a single CSD field.
_refine_ls_R_factor_gt 0.0494
_refine_ls_wR_factor_gt 0.0494
_symmetry_cell_setting monoclinic
_symmetry_space_group_name_H-M 'P 21'
_symmetry_Int_Tables_number 4
loop_
_symmetry_equiv_pos_site_id
_symmetry_equiv_pos_as_xyz
1 x,y,z
2 -x,1/2+y,-z
_cell_length_a 5.3262(11)
_cell_length_b 18.615(4)
_cell_length_c 10.755(2)
_cell_angle_alpha 90
_cell_angle_beta 100.77(3)
_cell_angle_gamma 90
_cell_formula_units_Z 2
loop_
_atom_type_symbol
_atom_type_radius_bond
C 0.68
H 0.23
N 0.68
O 0.68
loop_
_atom_site_label
_atom_site_type_symbol
_atom_site_fract_x
_atom_site_fract_y
_atom_site_fract_z
O1 O -0.6194(5) 0.82795(17) 0.0740(2)
O2 O -0.2296(5) 0.81871(15) 0.0464(2)
O3 O 0.3707(5) 0.90970(14) 0.4482(2)
O4 O 0.1454(4) 0.92757(15) 0.6055(2)
N1 N -0.3882(6) 0.82653(15) 0.1130(3)
N2 N -0.0626(5) 0.91295(16) 0.4118(3)
H1 H -0.19740 0.91940 0.44690
C1 C -0.2964(7) 0.83572(19) 0.2534(3)
H2 H -0.44720 0.84850 0.29220
C2 C -0.1046(7) 0.89924(18) 0.2763(3)
H3 H 0.06050 0.88290 0.25430
C3 C 0.1704(7) 0.91636(18) 0.4868(3)
C4 C 0.3704(7) 0.9370(2) 0.7084(3)
C5 C 0.5176(8) 1.0028(2) 0.6814(4)
H4 H 0.40480 1.04480 0.67290
H5 H 0.58170 0.99560 0.60260
H6 H 0.66190 1.01060 0.75130
C6 C 0.5291(9) 0.8694(2) 0.7231(4)
H7 H 0.60630 0.86270 0.64810
H8 H 0.41990 0.82820 0.73250
H9 H 0.66410 0.87350 0.79840
C7 C 0.2489(8) 0.9495(3) 0.8225(3)
H10 H 0.14970 0.99420 0.81120
H11 H 0.38250 0.95330 0.89840
H12 H 0.13550 0.90920 0.83200
C8 C -0.1940(7) 0.96493(18) 0.1975(3)
C9 C -0.3934(7) 1.0059(2) 0.2217(3)
H13 H -0.47820 0.99290 0.28870
C10 C -0.4717(8) 1.0659(2) 0.1494(4)
H14 H -0.61200 1.09300 0.16710
C11 C -0.3542(8) 1.08768(19) 0.0529(3)
C12 C -0.1520(8) 1.0458(2) 0.0293(3)
H15 H -0.06650 1.05900 -0.03730
C13 C -0.0726(7) 0.98528(19) 0.1010(3)
H16 H 0.06650 0.95770 0.08330
C14 C -0.4417(9) 1.1530(2) -0.0244(4)
H17 H -0.58670 1.17470 0.00590
H18 H -0.49430 1.13920 -0.11340
H19 H -0.30130 1.18770 -0.01630
C15 C -0.1830(7) 0.7670(2) 0.3142(3)
C16 C -0.2603(8) 0.7438(2) 0.4234(4)
H20 H -0.39320 0.76880 0.45280
C17 C -0.1495(8) 0.6852(2) 0.4906(4)
C18 C 0.0363(9) 0.6478(2) 0.4446(4)
H21 H 0.11190 0.60650 0.48840
C19 C 0.1128(9) 0.6696(2) 0.3361(4)
H22 H 0.24070 0.64320 0.30520
C20 C 0.0070(8) 0.7297(2) 0.2705(4)
H23 H 0.06450 0.74510 0.19630
C21 C -0.2201(10) 0.6657(3) 0.6162(4)
H24 H -0.19790 0.61340 0.63050
H25 H -0.40230 0.67740 0.61390
C22 C -0.0566(10) 0.7058(3) 0.7244(4)
H26 H -0.10570 0.69180 0.80440
H27 H -0.08180 0.75760 0.71160
H28 H 0.12370 0.69400 0.72730
#END
