
#######################################################################
#
#                 Cambridge Crystallographic Data Centre
#                                CCDC
#
#######################################################################
#
# If this CIF has been generated from an entry in the Cambridge
# Structural Database, then it will include bibliographic, chemical,
# crystal, experimental, refinement or atomic coordinate data resulting
# from the CCDC's data processing and validation procedures.
#
#######################################################################

data_CSD_CIF_WOMDEI
_audit_creation_date 2009-04-29
_audit_creation_method CSD-ConQuest-V1
_database_code_CSD WOMDEI
_database_code_depnum_ccdc_archive 'CCDC 298619'
_chemical_formula_sum 'C23 H16 N4 O4'
_chemical_formula_moiety
;
C23 H16 N4 O4
;
_journal_coden_Cambridge 574
_journal_volume 76
_journal_year 2008
_journal_page_first 775
_journal_name_full 'Dyes Pigm. '
loop_
_publ_author_name
"Yunfei Cheng"
"Meng Zhang"
"Hong Yang"
"Fuyou Li"
"Tao Yi"
"Chunhui Huang"
_chemical_name_systematic
;
Benzoic acid 5-(4-nitrophenylazo)-2-methylquinolin-8-yl ester
;
_cell_volume   2018.935
_exptl_crystal_density_diffrn 1.357
_exptl_special_details
;
dye

;
_diffrn_ambient_temperature 293
#These two values have been output from a single CSD field.
_refine_ls_R_factor_gt 0.0443
_refine_ls_wR_factor_gt 0.0443
_symmetry_cell_setting triclinic
_symmetry_space_group_name_H-M 'P -1'
_symmetry_Int_Tables_number 2
loop_
_symmetry_equiv_pos_site_id
_symmetry_equiv_pos_as_xyz
1 x,y,z
2 -x,-y,-z
_cell_length_a 10.294(6)
_cell_length_b 12.671(7)
_cell_length_c 15.696(9)
_cell_angle_alpha 91.317(7)
_cell_angle_beta 98.785(7)
_cell_angle_gamma 93.280(7)
_cell_formula_units_Z 4
loop_
_atom_type_symbol
_atom_type_radius_bond
C 0.68
H 0.23
N 0.68
O 0.68
loop_
_atom_site_label
_atom_site_type_symbol
_atom_site_fract_x
_atom_site_fract_y
_atom_site_fract_z
N1 N -0.03479(15) 0.88623(12) 0.34550(9)
N2 N 0.25220(15) 1.17112(11) 0.4953(1)
N3 N 0.36031(16) 1.19686(12) 0.53926(11)
N4 N 0.4705(2) 1.62820(15) 0.62877(13)
O1 O 0.16600(12) 0.75171(9) 0.37593(9)
O2 O 0.04446(15) 0.68838(10) 0.47226(9)
O3 O 0.3885(2) 1.69057(14) 0.60618(14)
O4 O 0.5771(2) 1.65319(13) 0.67092(14)
C1 C 0.0021(2) 0.49224(15) 0.37633(13)
H1 H -0.03520 0.49680 0.42660
C2 C -0.0141(2) 0.39971(16) 0.32773(16)
H2 H -0.06110 0.34150 0.34540
C3 C 0.0390(3) 0.39328(18) 0.25322(18)
H3 H 0.02820 0.33060 0.22030
C4 C 0.1085(2) 0.47936(18) 0.22684(15)
H4 H 0.14370 0.47480 0.17580
C5 C 0.12606(18) 0.57238(15) 0.27591(13)
H5 H 0.17330 0.63040 0.25810
C6 C 0.07346(17) 0.57900(13) 0.35123(11)
C7 C 0.08898(18) 0.67619(14) 0.40670(12)
C8 C 0.18201(18) 0.85264(13) 0.41489(12)
C9 C 0.29796(19) 0.88296(15) 0.46609(13)
H6 H 0.36050 0.83380 0.48120
C10 C 0.32274(18) 0.98799(15) 0.49586(13)
H7 H 0.40130 1.00840 0.53140
C11 C 0.23142(17) 1.06119(13) 0.47277(11)
C12 C 0.10795(17) 1.03035(13) 0.42239(11)
C13 C 0.08146(17) 0.92354(13) 0.39316(11)
C14 C -0.12696(19) 0.95378(15) 0.32653(12)
C15 C -0.10875(19) 1.06145(15) 0.35327(13)
H8 H -0.17620 1.10650 0.33850
C16 C 0.00640(19) 1.09946(14) 0.40028(12)
H9 H 0.01840 1.17040 0.41780
C17 C -0.2552(2) 0.91262(17) 0.27484(14)
H10 H -0.25150 0.83860 0.26180
H11 H -0.27080 0.95000 0.22210
H12 H -0.32530 0.92290 0.30750
C18 C 0.38074(18) 1.30793(14) 0.55950(12)
C19 C 0.2980(2) 1.38350(15) 0.52390(13)
H13 H 0.22290 1.36340 0.48480
C20 C 0.3282(2) 1.48820(15) 0.54688(13)
H14 H 0.27400 1.53980 0.52340
C21 C 0.4391(2) 1.51566(14) 0.60491(12)
C22 C 0.52223(19) 1.44295(16) 0.64093(13)
H15 H 0.59710 1.46390 0.68000
C23 C 0.49227(19) 1.33778(15) 0.61786(13)
H16 H 0.54720 1.28670 0.64160
N5 N 0.45625(15) 0.36270(11) 0.85571(9)
N6 N 0.75645(15) 0.64829(12) 0.99205(10)
N7 N 0.86391(16) 0.67267(12) 1.03677(11)
N8 N 0.9774(2) 1.10076(15) 1.13516(13)
O5 O 0.62765(13) 0.21704(9) 0.92271(8)
O6 O 0.68267(13) 0.2307(1) 0.79049(9)
O7 O 1.0818(2) 1.12417(13) 1.18054(14)
O8 O 0.8966(2) 1.16401(13) 1.11320(14)
C24 C 0.5170(2) 0.01503(15) 0.88528(12)
H17 H 0.50100 0.05020 0.93490
C25 C 0.4714(2) -0.08912(16) 0.86846(15)
H18 H 0.42500 -0.12430 0.90690
C26 C 0.4945(3) -0.14035(17) 0.79529(16)
H19 H 0.46330 -0.21040 0.78400
C27 C 0.5633(2) -0.08965(17) 0.73811(16)
H20 H 0.57900 -0.12520 0.68860
C28 C 0.6087(2) 0.01404(16) 0.75470(14)
H21 H 0.65480 0.04880 0.71600
C29 C 0.58641(17) 0.06699(13) 0.82843(11)
C30 C 0.63616(17) 0.17859(14) 0.84244(12)
C31 C 0.66296(18) 0.32531(13) 0.93819(12)
C32 C 0.77934(19) 0.35506(15) 0.98903(12)
H22 H 0.83580 0.30410 1.01090
C33 C 0.81358(19) 0.46184(15) 1.00816(12)
H23 H 0.89270 0.48210 1.04320
C34 C 0.73054(18) 0.53739(13) 0.97529(11)
C35 C 0.60853(17) 0.50769(13) 0.92295(11)
C36 C 0.57289(17) 0.39894(13) 0.90399(11)
C37 C 0.37333(18) 0.43330(15) 0.82516(12)
C38 C 0.4020(2) 0.54325(15) 0.84014(13)
H24 H 0.34150 0.59070 0.81710
C39 C 0.51693(19) 0.57958(14) 0.88778(12)
H25 H 0.53560 0.65190 0.89740
C40 C 0.2455(2) 0.39386(17) 0.77253(14)
H26 H 0.24140 0.31800 0.76850
H27 H 0.23930 0.42160 0.71580
H28 H 0.17390 0.41660 0.79960
C41 C 0.88730(19) 0.78376(14) 1.05692(13)
C42 C 0.8086(2) 0.86100(16) 1.01960(13)
H29 H 0.73640 0.84250 0.97760
C43 C 0.8385(2) 0.96504(15) 1.04550(13)
H30 H 0.78630 1.01780 1.02170
C44 C 0.9464(2) 0.99002(14) 1.10696(13)
C45 C 1.0268(2) 0.91535(15) 1.14339(13)
H31 H 1.10000 0.93450 1.18440
C46 C 0.99618(19) 0.81113(15) 1.11762(13)
H32 H 1.04930 0.75890 1.14130
#END
