
#######################################################################
#
#                 Cambridge Crystallographic Data Centre
#                                CCDC
#
#######################################################################
#
# If this CIF has been generated from an entry in the Cambridge
# Structural Database, then it will include bibliographic, chemical,
# crystal, experimental, refinement or atomic coordinate data resulting
# from the CCDC's data processing and validation procedures.
#
#######################################################################

data_CSD_CIF_WOMHEN
_audit_creation_date 2014-08-04
_audit_creation_method CSD-ConQuest-V1
_database_code_CSD WOMHEN
_database_code_depnum_ccdc_archive 'CCDC 1002409'
_chemical_formula_sum 'C12 H10 N4 O3'
_chemical_formula_moiety
;
C12 H10 N4 O3
;
_journal_coden_Cambridge 182
_journal_volume 50
_journal_year 2014
_journal_page_first 10819
_journal_name_full 'Chem.Commun. '
loop_
_publ_author_name
"Komala Pandurangan"
"J.A.Kitchen"
"S.Blasco"
"F.Paradisi"
"T.Gunnlaugsson"
_chemical_name_systematic
;
1-(2-nitrophenyl)-3-pyridin-2-ylurea
;
_cell_volume    567.653
_exptl_crystal_colour 'colorless'
_exptl_crystal_density_diffrn 1.511
_exptl_crystal_description 'Block'
_diffrn_ambient_temperature 119
#These two values have been output from a single CSD field.
_refine_ls_R_factor_gt 0.0517
_refine_ls_wR_factor_gt 0.0517
_symmetry_cell_setting triclinic
_symmetry_space_group_name_H-M 'P -1'
_symmetry_Int_Tables_number 2
loop_
_symmetry_equiv_pos_site_id
_symmetry_equiv_pos_as_xyz
1 x,y,z
2 -x,-y,-z
_cell_length_a 6.9066(14)
_cell_length_b 7.9420(16)
_cell_length_c 11.370(2)
_cell_angle_alpha 81.16(3)
_cell_angle_beta 87.98(3)
_cell_angle_gamma 67.14(3)
_cell_formula_units_Z 2
loop_
_atom_type_symbol
_atom_type_radius_bond
C 0.68
H 0.23
N 0.68
O 0.68
loop_
_atom_site_label
_atom_site_type_symbol
_atom_site_fract_x
_atom_site_fract_y
_atom_site_fract_z
O1 O 0.4345(3) 0.0164(2) 0.14909(14)
O2 O 0.1455(3) 0.6569(2) 0.24811(14)
O3 O 0.3039(3) 0.6544(2) 0.40969(16)
N1 N 0.2082(3) 0.5726(3) 0.00214(18)
N2 N 0.3536(3) 0.2535(3) -0.00291(17)
H1 H 0.42310 0.15600 -0.04780
N3 N 0.2595(3) 0.3120(3) 0.19018(17)
H2 H 0.22620 0.42790 0.15710
N4 N 0.2321(3) 0.5794(3) 0.34606(17)
C1 C 0.1563(4) 0.7456(3) -0.0549(2)
H3 H 0.09750 0.84430 -0.01000
C2 C 0.1830(4) 0.7887(4) -0.1748(2)
H4 H 0.14240 0.91350 -0.21190
C3 C 0.2720(4) 0.6425(4) -0.2396(2)
H5 H 0.29390 0.66630 -0.32240
C4 C 0.3277(4) 0.4638(4) -0.1829(2)
H6 H 0.38810 0.36240 -0.22560
C5 C 0.2933(4) 0.4348(3) -0.0609(2)
C6 C 0.3524(4) 0.1843(3) 0.1166(2)
C7 C 0.2482(3) 0.2679(3) 0.3142(2)
C8 C 0.2419(3) 0.0992(3) 0.3678(2)
H7 H 0.24120 0.01200 0.31930
C9 C 0.2365(3) 0.0577(3) 0.4902(2)
H8 H 0.23060 -0.05710 0.52430
C10 C 0.2397(4) 0.1801(3) 0.5646(2)
H9 H 0.23950 0.14870 0.64870
C11 C 0.2432(4) 0.3478(3) 0.5141(2)
H10 H 0.24560 0.43310 0.56350
C12 C 0.2433(3) 0.3932(3) 0.3907(2)
#END
