
#######################################################################
#
#                 Cambridge Crystallographic Data Centre
#                                CCDC
#
#######################################################################
#
# If this CIF has been generated from an entry in the Cambridge
# Structural Database, then it will include bibliographic, chemical,
# crystal, experimental, refinement or atomic coordinate data resulting
# from the CCDC's data processing and validation procedures.
#
#######################################################################

data_CSD_CIF_WOMJOZ
_audit_creation_date 2014-08-04
_audit_creation_method CSD-ConQuest-V1
_database_code_CSD WOMJOZ
_database_code_depnum_ccdc_archive 'CCDC 1003268'
_chemical_formula_sum 'C19 H20 N4 O4'
_chemical_formula_moiety
;
C19 H20 N4 O4
;
_journal_coden_Cambridge 38
_journal_volume 345
_journal_year 2014
_journal_page_first 68
_journal_name_full 'Science '
loop_
_publ_author_name
"Fanyang Mo"
"Guangbin Dong"
_chemical_name_systematic
;
1-(2,4-Dinitrophenyl)-2-(2-ethyl-4-phenylcyclopentylidene)hydrazine
;
_cell_volume   3571.694
_exptl_crystal_colour 'orange'
_exptl_crystal_density_diffrn 1.37
_exptl_crystal_description 'prism'
_diffrn_ambient_temperature 153
_refine_special_details
;
The structure is disordered.

;
#These two values have been output from a single CSD field.
_refine_ls_R_factor_gt 0.0611
_refine_ls_wR_factor_gt 0.0611
_symmetry_cell_setting triclinic
_symmetry_space_group_name_H-M 'P -1'
_symmetry_Int_Tables_number 2
loop_
_symmetry_equiv_pos_site_id
_symmetry_equiv_pos_as_xyz
1 x,y,z
2 -x,-y,-z
_cell_length_a 12.8241(4)
_cell_length_b 14.0014(6)
_cell_length_c 19.9527(7)
_cell_angle_alpha 90.781(2)
_cell_angle_beta 94.340(2)
_cell_angle_gamma 90.700(2)
_cell_formula_units_Z 8
loop_
_atom_type_symbol
_atom_type_radius_bond
C 0.68
H 0.23
N 0.68
O 0.68
loop_
_atom_site_label
_atom_site_type_symbol
_atom_site_fract_x
_atom_site_fract_y
_atom_site_fract_z
C1 C -0.22670(19) 0.5746(2) 0.65029(12)
C2 C -0.19207(18) 0.5706(2) 0.72338(12)
H1 H -0.16270 0.63630 0.73700
H2 H -0.13610 0.53280 0.73440
C3 C -0.2906(2) 0.5455(3) 0.75662(14)
H3 H -0.29190 0.47410 0.75500
C4 C -0.3448(3) 0.5498(4) 0.6421(2)
H4 H -0.35270 0.47960 0.63290
C5 C -0.3788(8) 0.5700(5) 0.7123(3)
H5 H -0.39610 0.63830 0.71780
H6 H -0.44070 0.53050 0.72120
C6 C -0.3992(3) 0.6014(4) 0.5840(2)
H7 H -0.36460 0.58780 0.54230
H8 H -0.39610 0.67120 0.59270
C7 C -0.5160(6) 0.566(3) 0.5759(12)
H9 H -0.51880 0.49910 0.56060
H10 H -0.55540 0.60520 0.54280
H11 H -0.54680 0.57130 0.61930
C8 C -0.2906(2) 0.5684(2) 0.83153(13)
C9 C -0.2030(2) 0.5990(2) 0.87095(13)
H12 H -0.13970 0.61110 0.85050
C10 C -0.2057(2) 0.6123(2) 0.93960(14)
H13 H -0.14480 0.63380 0.96580
C11 C -0.2966(2) 0.5942(2) 0.97005(14)
H14 H -0.29850 0.60230 1.01730
C12 C -0.3850(2) 0.5643(2) 0.93133(13)
H15 H -0.44820 0.55210 0.95190
C13 C -0.3817(2) 0.5520(2) 0.86298(13)
H16 H -0.44330 0.53190 0.83680
C14 C 0.00069(17) 0.59580(17) 0.56707(11)
C15 C 0.11093(18) 0.58642(17) 0.57829(12)
C16 C 0.17759(19) 0.61091(18) 0.52973(12)
H17 H 0.25110 0.60460 0.53810
C17 C 0.1363(2) 0.64427(19) 0.46963(13)
C18 C 0.0283(2) 0.65105(18) 0.45508(12)
H18 H 0.00110 0.67210 0.41230
C19 C -0.03788(18) 0.62724(17) 0.50288(11)
H19 H -0.11120 0.63190 0.49290
N1 N -0.06537(14) 0.57702(15) 0.61472(10)
H20 H -0.04040 0.56290 0.65560
N2 N -0.17235(15) 0.57992(18) 0.59948(10)
N3 N 0.15965(16) 0.54916(16) 0.64002(11)
N4 N 0.2074(2) 0.6745(2) 0.42045(13)
O1 O 0.10485(15) 0.53379(18) 0.68723(10)
O2 O 0.25351(13) 0.53416(15) 0.64416(10)
O3 O 0.30105(16) 0.67443(17) 0.43535(11)
O4 O 0.1702(2) 0.7005(3) 0.36623(12)
C20? C -0.3434(5) 0.6067(5) 0.6402(3)
H21? H -0.34820 0.67210 0.62090
C21? C -0.3736(10) 0.6072(7) 0.7126(4)
H22? H -0.44460 0.57950 0.71470
H23? H -0.37370 0.67360 0.73040
C22? C -0.3967(4) 0.5339(5) 0.5927(3)
H24? H -0.39510 0.47020 0.61370
H25? H -0.35990 0.53000 0.55090
C23? C -0.5127(8) 0.565(4) 0.5759(17)
H26? H -0.53770 0.59900 0.61460
H27? H -0.55660 0.50750 0.56600
H28? H -0.51650 0.60620 0.53680
C24 C 0.2511(2) 0.8417(3) 0.61758(15)
C25 C 0.41605(19) 0.8105(2) 0.67418(13)
H29 H 0.48630 0.83150 0.68720
H30 H 0.41610 0.74370 0.66270
C26 C 0.3680(3) 0.8690(4) 0.6158(2)
H31 H 0.38000 0.93900 0.62420
C27 C 0.3421(3) 0.8308(3) 0.7311(2)
H32 H 0.35520 0.89830 0.74680
C28 C 0.2327(7) 0.8263(5) 0.6934(4)
H33 H 0.18760 0.87690 0.71010
H34 H 0.19880 0.76340 0.69960
C29 C 0.4030(5) 0.8382(5) 0.5470(3)
H35 H 0.35900 0.86970 0.51110
H36 H 0.39340 0.76820 0.54110
C30 C 0.5226(13) 0.8660(15) 0.5406(8)
H37 H 0.53190 0.93540 0.54560
H38 H 0.54330 0.84550 0.49640
H39 H 0.56620 0.83430 0.57590
C31 C 0.3509(13) 0.7695(8) 0.7914(7)
C32 C 0.3630(5) 0.8065(6) 0.8550(4)
H40 H 0.36830 0.87420 0.85800
C33 C 0.3686(9) 0.7602(7) 0.9159(6)
H41 H 0.37780 0.79070 0.95880
C34 C 0.3590(9) 0.6626(9) 0.9049(5)
H42 H 0.36160 0.62460 0.94400
C35 C 0.3457(5) 0.6122(5) 0.8430(5)
H43 H 0.33860 0.54460 0.84030
C36 C 0.3437(7) 0.6702(7) 0.7853(4)
H44 H 0.33750 0.64110 0.74190
C37 C 0.00339(17) 0.86439(16) 0.53626(11)
C38 C -0.10360(17) 0.85447(16) 0.54854(11)
C39 C -0.18275(18) 0.86954(17) 0.49855(11)
H45 H -0.25410 0.86290 0.50760
C40 C -0.15580(18) 0.89415(17) 0.43602(11)
C41 C -0.05154(18) 0.90465(17) 0.42155(11)
H46 H -0.03490 0.92200 0.37770
C42 C 0.02608(18) 0.88995(17) 0.47039(11)
H47 H 0.09690 0.89690 0.46020
N5 N 0.18450(15) 0.85850(17) 0.56872(11)
N6 N 0.08149(14) 0.84983(15) 0.58416(10)
H48 H 0.06690 0.83490 0.62510
N7 N -0.13657(15) 0.82772(15) 0.61376(10)
N8 N -0.23827(17) 0.91030(16) 0.38357(10)
O5 O -0.06952(13) 0.81030(14) 0.65974(8)
O6 O -0.23038(13) 0.82276(15) 0.62136(9)
O7 O -0.32907(14) 0.89114(14) 0.39471(9)
O8 O -0.21436(16) 0.94214(18) 0.32983(10)
H49? H 0.42360 0.87330 0.69410
H50? H 0.48290 0.78010 0.67640
C43? C 0.3650(4) 0.8131(6) 0.5983(3)
H51? H 0.36500 0.74880 0.57580
C44? C 0.3365(4) 0.7513(5) 0.7070(3)
H52? H 0.33920 0.68520 0.68760
C45? C 0.2308(10) 0.7942(7) 0.6800(6)
H53? H 0.17720 0.74320 0.67150
H54? H 0.20580 0.84060 0.71290
C46? C 0.4079(7) 0.8886(6) 0.5561(5)
H55? H 0.36090 0.89630 0.51490
H56? H 0.41130 0.95010 0.58120
C47? C 0.5128(19) 0.8636(18) 0.5375(12)
H57? H 0.55840 0.85280 0.57830
H58? H 0.54160 0.91600 0.51220
H59? H 0.50850 0.80530 0.50960
C48? C 0.3509(19) 0.7422(12) 0.7826(11)
C49? C 0.3599(7) 0.8282(9) 0.8218(6)
H60? H 0.36010 0.88840 0.80040
C50? C 0.3685(8) 0.8235(10) 0.8912(7)
H61? H 0.37460 0.87790 0.92030
C51? C 0.3669(12) 0.7215(11) 0.9154(8)
H62? H 0.37330 0.71640 0.96290
C52? C 0.3584(14) 0.6382(13) 0.8833(9)
H63? H 0.35740 0.57730 0.90370
C53? C 0.3509(9) 0.6558(10) 0.8123(6)
H64? H 0.34540 0.60130 0.78330
C54 C 0.2070(2) 0.6768(2) 0.14614(13)
C55 C 0.0915(4) 0.6603(4) 0.1594(3)
H65 H 0.07740 0.59160 0.16920
C56 C 0.0383(10) 0.6883(11) 0.0895(8)
H66 H 0.04320 0.75790 0.08190
H67 H -0.03590 0.66720 0.08400
C57 C 0.1083(3) 0.6301(3) 0.04310(18)
H68 H 0.09390 0.56080 0.05020
C58 C 0.2200(9) 0.6526(5) 0.0747(6)
H69 H 0.26550 0.59640 0.07100
H70 H 0.25140 0.70710 0.05190
C59 C 0.0582(3) 0.7241(4) 0.2143(2)
H71 H 0.05940 0.79090 0.19870
H72 H 0.10970 0.71950 0.25360
C60 C -0.0502(10) 0.7013(6) 0.2365(6)
H73 H -0.10060 0.69800 0.19710
H74 H -0.07070 0.75150 0.26740
H75 H -0.04910 0.63970 0.25930
C61 C 0.0946(8) 0.6472(6) -0.0312(6)
C62 C 0.0868(6) 0.7419(7) -0.0547(4)
H76 H 0.08710 0.79390 -0.02370
C63 C 0.0786(6) 0.7585(6) -0.1240(5)
H77 H 0.07390 0.82200 -0.13990
C64 C 0.0773(6) 0.6812(8) -0.1701(4)
H78 H 0.07100 0.69250 -0.21710
C65 C 0.0853(7) 0.5903(8) -0.1470(4)
H79 H 0.08460 0.53810 -0.17800
C66 C 0.0944(13) 0.5735(12) -0.0780(6)
H80 H 0.10060 0.50970 -0.06280
C67 C 0.45704(17) 0.68431(16) 0.22687(11)
C68 C 0.56389(17) 0.67745(17) 0.21383(11)
C69 C 0.64310(18) 0.67683(17) 0.26542(12)
H81 H 0.71420 0.67250 0.25560
C70 C 0.61688(18) 0.68259(17) 0.33046(11)
C71 C 0.51278(18) 0.68974(17) 0.34591(11)
H82 H 0.49620 0.69350 0.39150
C72 C 0.43501(17) 0.69130(16) 0.29536(11)
H83 H 0.36450 0.69720 0.30630
N9 N 0.27596(15) 0.68706(17) 0.19494(10)
N10 N 0.37831(14) 0.68426(15) 0.17778(9)
H84 H 0.39210 0.68240 0.13530
N11 N 0.59678(16) 0.67124(17) 0.14623(10)
N12 N 0.69989(16) 0.67967(16) 0.3842(1)
O9 O 0.52979(14) 0.67073(16) 0.09830(8)
O10 O 0.69030(14) 0.66697(18) 0.13815(9)
O11 O 0.79107(14) 0.68513(15) 0.36937(9)
O12 O 0.67531(15) 0.67258(15) 0.44201(9)
C73? C 0.0922(7) 0.7087(7) 0.1559(5)
H85? H 0.08280 0.77860 0.16420
C74? C 0.042(2) 0.667(2) 0.0827(14)
H86? H 0.04190 0.59600 0.08090
H87? H -0.03070 0.68930 0.07240
C75? C 0.1149(7) 0.7085(9) 0.0368(5)
H88? H 0.10840 0.77950 0.03990
C76? C 0.2220(15) 0.6834(10) 0.069(1)
H89? H 0.27420 0.73360 0.06050
H90? H 0.24550 0.62170 0.05120
C77? C 0.0537(5) 0.6429(6) 0.2088(4)
H91? H 0.10170 0.64890 0.25000
H92? H 0.05620 0.57610 0.19220
C78? C -0.0571(17) 0.6638(10) 0.2270(11)
H93? H -0.05910 0.72800 0.24700
H94? H -0.07850 0.61670 0.25930
H95? H -0.10490 0.66010 0.18630
C79? C 0.0968(16) 0.6807(12) -0.0357(10)
C80? C 0.0892(12) 0.7494(13) -0.0837(10)
H96? H 0.09070 0.81440 -0.06940
C81? C 0.0797(12) 0.7294(14) -0.1515(10)
H97? H 0.07180 0.77820 -0.18410
C82? C 0.0822(14) 0.6364(15) -0.1688(11)
H98? H 0.07760 0.62150 -0.21550
C83? C 0.0905(17) 0.5637(14) -0.1276(12)
H99? H 0.09310 0.49940 -0.14320
C84? C 0.095(3) 0.587(2) -0.0610(13)
H100? H 0.09770 0.53680 -0.02960
C85 C 0.6738(2) 0.9042(2) 0.10992(13)
C86 C 0.6395(2) 0.8851(2) 0.03779(13)
H101 H 0.61090 0.94340 0.01610
H102 H 0.58590 0.83340 0.03280
C87 C 0.7918(4) 0.8970(4) 0.1208(3)
H103 H 0.81530 0.83430 0.13950
C88 C 0.8239(4) 0.9134(5) 0.0465(3)
H104 H 0.81940 0.98150 0.03400
H105 H 0.89510 0.89010 0.04040
C89 C 0.7425(3) 0.8540(5) 0.0078(2)
H106 H 0.75480 0.78570 0.01960
C90 C 0.8347(3) 0.9845(4) 0.1643(2)
H107 H 0.82250 1.04320 0.13800
H108 H 0.79420 0.98970 0.20450
C91 C 0.9493(11) 0.9801(6) 0.1872(8)
H109 H 0.96300 0.92100 0.21180
H110 H 0.96860 1.03510 0.21670
H111 H 0.99090 0.98150 0.14790
C92 C 0.7372(2) 0.8617(3) -0.06934(14)
C93 C 0.8271(2) 0.8703(2) -0.10351(15)
H112 H 0.89190 0.88630 -0.07940
C94 C 0.8232(2) 0.8559(2) -0.17203(15)
H113 H 0.88570 0.86090 -0.19460
C95 C 0.7306(2) 0.8346(2) -0.20820(15)
H114 H 0.72840 0.82560 -0.25560
C96 C 0.6411(2) 0.8263(2) -0.17488(14)
H115 H 0.57650 0.81100 -0.19930
C97 C 0.6447(2) 0.8400(2) -0.10610(14)
H116 H 0.58210 0.83450 -0.08380
C98 C 0.44447(19) 0.92073(17) 0.19217(12)
C99 C 0.33437(19) 0.91875(18) 0.17872(12)
C100 C 0.26766(19) 0.92877(18) 0.22940(12)
H117 H 0.19410 0.92810 0.21930
C101 C 0.30863(19) 0.93966(18) 0.29435(12)
C102 C 0.41645(19) 0.94041(18) 0.31037(12)
H118 H 0.44370 0.94690 0.35590
C103 C 0.48249(19) 0.93175(18) 0.26019(12)
H119 H 0.55590 0.93320 0.27130
N13 N 0.61800(16) 0.91620(18) 0.15945(11)
N14 N 0.51144(15) 0.91117(16) 0.14367(10)
H120 H 0.48700 0.90170 0.10170
N15 N 0.28573(17) 0.90417(18) 0.11166(11)
N16 N 0.23770(18) 0.95053(17) 0.34717(11)
O13 O 0.34239(15) 0.89451(17) 0.06384(9)
O14 O 0.19021(14) 0.90077(16) 0.10289(10)
O15 O 0.14382(15) 0.95907(17) 0.33105(10)
O16 O 0.27424(16) 0.95212(17) 0.40560(9)
C104? C 0.7898(11) 0.9454(12) 0.1157(7)
H121? H 0.80080 1.01490 0.10740
C105? C 0.8205(10) 0.8607(11) 0.0509(7)
H122? H 0.89390 0.86400 0.03890
H123? H 0.79850 0.79410 0.05920
C106? C 0.7395(6) 0.9186(8) 0.0013(4)
H124? H 0.75170 0.98920 -0.00050
C107? C 0.8425(9) 0.9060(12) 0.1712(6)
H125? H 0.84900 0.83650 0.16310
H126? H 0.80040 0.91480 0.21040
C108? C 0.952(3) 0.9489(16) 0.188(2)
H127? H 0.99160 0.94650 0.14860
H128? H 0.98760 0.91220 0.22450
H129? H 0.94540 1.01540 0.20340
#END
