
#######################################################################
#
#                 Cambridge Crystallographic Data Centre
#                                CCDC
#
#######################################################################
#
# If this CIF has been generated from an entry in the Cambridge
# Structural Database, then it will include bibliographic, chemical,
# crystal, experimental, refinement or atomic coordinate data resulting
# from the CCDC's data processing and validation procedures.
#
#######################################################################

data_CSD_CIF_WOMJUF
_audit_creation_date 2014-08-04
_audit_creation_method CSD-ConQuest-V1
_database_code_CSD WOMJUF
_database_code_depnum_ccdc_archive 'CCDC 1003269'
_chemical_formula_sum 'C20 H22 N4 O4'
_chemical_formula_moiety
;
C20 H22 N4 O4
;
_journal_coden_Cambridge 38
_journal_volume 345
_journal_year 2014
_journal_page_first 68
_journal_name_full 'Science '
loop_
_publ_author_name
"Fanyang Mo"
"Guangbin Dong"
_chemical_name_systematic
;
1-(2,4-Dinitrophenyl)-2-(2-ethyl-4-(2-methylphenyl)cyclopentylidene)hydrazine
;
_cell_volume   1878.953
_exptl_crystal_colour 'orange'
_exptl_crystal_density_diffrn 1.352
_exptl_crystal_description 'prisms'
_diffrn_ambient_temperature 100
_refine_special_details
;
C10,C11,C12,C13,C14,C4,C8,C9 and C10A,C11A,C12A,C13A, C14A,C4A,C8A,C9A 
disordered over two sites with occupancies 0.8:0.2; C22,C26,C27 and 
C22A,C26A,C27A disordered over two sites with occupancies 0.68:0.32; 
C24,C28,C29,C30,C31,C32,C33,C34 and C24A,C28A, C29A,C30A,C31A,C32A,C33A,C34A 
disordered over two sites with occupancies 0.78:0.22.
;
#These two values have been output from a single CSD field.
_refine_ls_R_factor_gt 0.0902
_refine_ls_wR_factor_gt 0.0902
_symmetry_cell_setting triclinic
_symmetry_space_group_name_H-M 'P -1'
_symmetry_Int_Tables_number 2
loop_
_symmetry_equiv_pos_site_id
_symmetry_equiv_pos_as_xyz
1 x,y,z
2 -x,-y,-z
_cell_length_a 8.124(2)
_cell_length_b 13.252(4)
_cell_length_c 18.647(5)
_cell_angle_alpha 72.491(5)
_cell_angle_beta 88.952(6)
_cell_angle_gamma 79.186(6)
_cell_formula_units_Z 4
loop_
_atom_type_symbol
_atom_type_radius_bond
C 0.68
H 0.23
N 0.68
O 0.68
loop_
_atom_site_label
_atom_site_type_symbol
_atom_site_fract_x
_atom_site_fract_y
_atom_site_fract_z
C1 C 0.0871(6) 0.9926(4) 0.3193(3)
C2 C -0.0388(6) 1.0149(4) 0.2545(3)
H1 H -0.11300 1.08640 0.24870
C3 C 0.0748(7) 1.0268(5) 0.1882(3)
H2 H 0.12380 0.95510 0.18320
H3 H 0.01010 1.07050 0.14110
C4 C 0.2473(6) 1.0280(4) 0.2891(2)
H4 H 0.34110 0.96530 0.29900
H5 H 0.27640 1.08020 0.31280
C5 C -0.1485(6) 0.9323(4) 0.2632(3)
H6 H -0.07750 0.85960 0.28200
H7 H -0.19610 0.93980 0.21300
C6 C -0.2918(7) 0.9401(6) 0.3161(3)
H8 H -0.24620 0.92720 0.36700
H9 H -0.35940 0.88600 0.31650
H10 H -0.36220 1.01220 0.29880
C7 C 0.2119(7) 1.0818(5) 0.2026(3)
H11 H 0.15890 1.15890 0.19540
C8 C 0.3669(16) 1.0830(9) 0.1569(8)
C9 C 0.4546(7) 1.1688(5) 0.1428(3)
C10 C 0.5943(10) 1.1659(6) 0.0989(5)
H12 H 0.65190 1.22450 0.08790
C11 C 0.6528(9) 1.0820(6) 0.0709(4)
H13 H 0.75010 1.08180 0.04180
C12 C 0.5682(8) 0.9991(6) 0.0855(3)
H14 H 0.60700 0.94040 0.06640
C13 C 0.4285(8) 0.9990(6) 0.1273(3)
H15 H 0.37160 0.94010 0.13640
C14 C 0.3988(8) 1.2629(5) 0.1743(4)
H16 H 0.48360 1.30860 0.16470
H17 H 0.38540 1.23520 0.22860
H18 H 0.29170 1.30540 0.14970
C15 C 0.1699(6) 0.8726(4) 0.5120(3)
C16 C 0.3008(5) 0.8433(4) 0.5677(2)
C17 C 0.2776(6) 0.7888(4) 0.6416(3)
H19 H 0.36670 0.77030 0.67830
C18 C 0.1240(6) 0.7612(4) 0.6619(2)
C19 C -0.0063(6) 0.7866(4) 0.6094(3)
H20 H -0.11040 0.76560 0.62420
C20 C 0.0138(6) 0.8422(4) 0.5360(3)
H21 H -0.07770 0.86080 0.50050
N1 N 0.0551(5) 0.9446(3) 0.3879(2)
N2 N 0.1877(5) 0.9256(3) 0.4391(2)
N3 N 0.4681(5) 0.8630(3) 0.5494(2)
N4 N 0.1031(6) 0.7026(4) 0.7402(2)
O1 O 0.4995(4) 0.9032(3) 0.48285(19)
O2 O 0.5764(4) 0.8372(3) 0.60073(18)
O3 O 0.2151(5) 0.6897(3) 0.7873(2)
O4 O -0.0300(5) 0.6720(3) 0.7555(2)
H22 H 0.294(7) 0.940(5) 0.423(3)
C21? C 0.224(3) 1.026(2) 0.2090(16)
H23? H 0.28020 0.95010 0.21310
C22? C 0.351(8) 1.089(4) 0.167(5)
C23? C 0.471(3) 1.0461(16) 0.1233(15)
C24? C 0.584(3) 1.1099(19) 0.0862(16)
H24? H 0.65480 1.08670 0.05080
C25? C 0.596(4) 1.205(2) 0.099(2)
H25? H 0.68880 1.23920 0.08210
C26? C 0.471(3) 1.2485(16) 0.1364(14)
H26? H 0.46150 1.32130 0.13580
C27? C 0.361(3) 1.1888(15) 0.1746(13)
H27? H 0.28730 1.21630 0.20750
C28? C 0.477(3) 0.9348(15) 0.1151(14)
H28? H 0.57290 0.91700 0.08570
H29? H 0.37290 0.93430 0.08920
H30? H 0.48730 0.88130 0.16500
C29 C 0.4663(7) 0.4705(5) 0.7617(3)
C30 C 0.4767(7) 0.3567(6) 0.8858(3)
H31 H 0.43360 0.34550 0.93700
H32 H 0.50290 0.28640 0.87560
C31 C 0.6417(6) 0.4537(4) 0.7924(3)
H33 H 0.68220 0.52270 0.77890
H34 H 0.71850 0.40220 0.77230
C32 C 0.3482(9) 0.4374(6) 0.8269(4)
H35 H 0.30990 0.50140 0.84500
C33 C 0.2001(10) 0.4045(8) 0.8067(5)
H36 H 0.12650 0.46970 0.77380
H37 H 0.13980 0.37950 0.85340
C34 C 0.2182(13) 0.3185(8) 0.7677(6)
H38 H 0.29900 0.33240 0.72790
H39 H 0.10910 0.31960 0.74550
H40 H 0.25810 0.24770 0.80430
C35 C 0.6320(8) 0.4082(6) 0.8780(4)
H41 H 0.60700 0.47030 0.89900
C36 C 0.7908(14) 0.3342(12) 0.9177(7)
C37 C 0.8678(8) 0.3488(6) 0.9790(3)
C38 C 1.0117(11) 0.2785(8) 1.0138(5)
H42 H 1.06530 0.28950 1.05500
C39 C 1.0778(9) 0.1908(7) 0.9879(4)
H43 H 1.17430 0.14100 1.01300
C40 C 1.0071(8) 0.1758(6) 0.9280(4)
H44 H 1.05400 0.11720 0.90990
C41 C 0.8623(8) 0.2491(6) 0.8930(4)
H45 H 0.81190 0.23930 0.85060
C42 C 0.7939(10) 0.4418(7) 1.0099(4)
H46 H 0.78870 0.51060 0.97020
H47 H 0.86510 0.43990 1.05240
H48 H 0.68070 0.43450 1.02690
C43 C 0.4720(5) 0.5912(4) 0.5685(2)
C44 C 0.5784(5) 0.6316(4) 0.5101(3)
C45 C 0.5214(6) 0.6739(4) 0.4356(3)
H49 H 0.59420 0.70190 0.39750
C46 C 0.3585(6) 0.6748(4) 0.4179(2)
C47 C 0.2504(6) 0.6341(4) 0.4729(3)
H50 H 0.13810 0.63500 0.45890
C48 C 0.3032(5) 0.5931(4) 0.5461(2)
H51 H 0.22760 0.56540 0.58310
N5 N 0.4077(5) 0.5117(4) 0.6943(2)
N6 N 0.5237(5) 0.5496(3) 0.6416(2)
N7 N 0.7554(5) 0.6282(3) 0.5250(3)
N8 N 0.3029(6) 0.7160(4) 0.3388(2)
O5 O 0.8140(4) 0.5899(3) 0.5909(2)
O6 O 0.8403(4) 0.6625(3) 0.4717(2)
O7 O 0.3895(5) 0.7657(3) 0.2923(2)
O8 O 0.1646(5) 0.6983(3) 0.3223(2)
H52 H 0.647(7) 0.553(4) 0.659(3)
C49? C 0.376(2) 0.3886(17) 0.8175(12)
H53? H 0.29810 0.44620 0.83240
C50? C 0.241(2) 0.3413(15) 0.8012(13)
H54? H 0.19710 0.30510 0.85010
H55? H 0.29210 0.28380 0.77930
C51? C 0.0910(19) 0.4079(14) 0.7503(9)
H56? H 0.03740 0.46630 0.76980
H57? H 0.01060 0.36180 0.74890
H58? H 0.12810 0.43840 0.69940
C52? C 0.635(3) 0.354(2) 0.8688(13)
H59? H 0.66800 0.28730 0.85280
C53? C 0.772(6) 0.346(4) 0.926(3)
C54? C 0.906(2) 0.2589(15) 0.9466(12)
C55? C 1.023(5) 0.252(3) 1.002(3)
H60? H 1.11380 0.19270 1.01660
C56? C 1.006(3) 0.3356(17) 1.0349(12)
H61? H 1.09250 0.33540 1.06880
C57? C 0.871(3) 0.416(2) 1.0200(16)
H62? H 0.85350 0.46660 1.04730
C58? C 0.755(2) 0.4218(16) 0.9630(12)
H63? H 0.66290 0.48050 0.94980
C59? C 0.930(3) 0.168(2) 0.9100(16)
H64? H 0.82140 0.14980 0.90340
H65? H 1.00530 0.10460 0.94230
H66? H 0.97940 0.19230 0.86080
#END
