
#######################################################################
#
#                 Cambridge Crystallographic Data Centre
#                                CCDC
#
#######################################################################
#
# If this CIF has been generated from an entry in the Cambridge
# Structural Database, then it will include bibliographic, chemical,
# crystal, experimental, refinement or atomic coordinate data resulting
# from the CCDC's data processing and validation procedures.
#
#######################################################################

data_CSD_CIF_WOMXUR
_audit_creation_date 2001-01-05
_audit_creation_method CSD-ConQuest-V1
_database_code_CSD WOMXUR
_database_code_depnum_ccdc_archive 'CCDC 149797'
_database_code_depnum_ccdc_journal 1350/33
_chemical_formula_sum 'C7 H8 N2 O1'
_chemical_formula_moiety
;
C7 H8 N2 O1
;
_journal_coden_Cambridge 1350
_journal_volume 2
_journal_year 2000
_journal_page_first 145
_journal_name_full 'CrystEngComm '
loop_
_publ_author_name
"C.B.Aakeroy"
"A.M.Beatty"
"D.S.Leinen"
_chemical_name_systematic
;
3-Acetyloximepyridine
;
_chemical_melting_point 391.15
_cell_volume   1408.391
_exptl_crystal_colour 'colorless'
_exptl_crystal_density_diffrn 1.284
_exptl_special_details
;
Melting point range 391.15-393.15K

;
_exptl_crystal_description 'irregular prism'
_exptl_crystal_preparation 'methylene chloride'
_diffrn_ambient_temperature 173
#These two values have been output from a single CSD field.
_refine_ls_R_factor_gt 0.0418
_refine_ls_wR_factor_gt 0.0418
_symmetry_cell_setting monoclinic
_symmetry_space_group_name_H-M 'C 2/c'
_symmetry_Int_Tables_number 15
loop_
_symmetry_equiv_pos_site_id
_symmetry_equiv_pos_as_xyz
1 x,y,z
2 1/2+x,1/2+y,z
3 x,-y,1/2+z
4 1/2+x,1/2-y,1/2+z
5 -x,-y,-z
6 -1/2-x,-1/2-y,-z
7 -x,y,-1/2-z
8 -1/2-x,-1/2+y,-1/2-z
_cell_length_a 12.8175(9)
_cell_length_b 9.6268(15)
_cell_length_c 11.4204(11)
_cell_angle_alpha 90
_cell_angle_beta 91.918(6)
_cell_angle_gamma 90
_cell_formula_units_Z 8
loop_
_atom_type_symbol
_atom_type_radius_bond
C 0.68
H 0.23
N 0.68
O 0.68
loop_
_atom_site_label
_atom_site_type_symbol
_atom_site_fract_x
_atom_site_fract_y
_atom_site_fract_z
O1 O -0.06905(10) 0.34118(15) 0.50273(11)
H1 H -0.10000 0.41350 0.55230
N1 N 0.31867(12) 0.02455(17) 0.62872(13)
N2 N 0.01435(11) 0.29933(16) 0.57638(12)
C1 C 0.23551(14) 0.07047(19) 0.56437(16)
H2 H 0.23930 0.03810 0.47950
C2 C 0.15914(13) 0.15649(18) 0.60707(15)
C3 C 0.17029(14) 0.19705(19) 0.72416(15)
H3 H 0.12070 0.25840 0.76280
C4 C 0.25625(14) 0.1530(2) 0.79031(16)
H4 H 0.27040 0.18510 0.87530
C5 C 0.32812(14) 0.0659(2) 0.74011(17)
H5 H 0.39960 0.03200 0.78900
C6 C 0.07014(13) 0.20418(18) 0.53120(15)
C7 C 0.05106(16) 0.1444(2) 0.41097(16)
H6 H 0.06010 0.03830 0.41250
H7 H 0.11040 0.16850 0.35980
H8 H -0.02020 0.16060 0.38190
#END
