
#######################################################################
#
#                 Cambridge Crystallographic Data Centre
#                                CCDC
#
#######################################################################
#
# If this CIF has been generated from an entry in the Cambridge
# Structural Database, then it will include bibliographic, chemical,
# crystal, experimental, refinement or atomic coordinate data resulting
# from the CCDC's data processing and validation procedures.
#
#######################################################################

data_CSD_CIF_WOMXIF
_audit_creation_date 2001-01-05
_audit_creation_method CSD-ConQuest-V1
_database_code_CSD WOMXIF
_database_code_depnum_ccdc_archive 'CCDC 149795'
_database_code_depnum_ccdc_journal 1350/33
_chemical_formula_sum 'C6 H6 N2 O1'
_chemical_formula_moiety
;
C6 H6 N2 O1
;
_journal_coden_Cambridge 1350
_journal_volume 2
_journal_year 2000
_journal_page_first 145
_journal_name_full 'CrystEngComm '
loop_
_publ_author_name
"C.B.Aakeroy"
"A.M.Beatty"
"D.S.Leinen"
_chemical_name_systematic
;
syn-2-aldoximepyridine
;
_cell_volume   1201.173
_exptl_crystal_colour 'colorless'
_exptl_crystal_density_diffrn 1.351
_exptl_crystal_description 'rod'
_exptl_crystal_preparation 'ethanol'
_diffrn_ambient_temperature 173
#These two values have been output from a single CSD field.
_refine_ls_R_factor_gt 0.0481
_refine_ls_wR_factor_gt 0.0481
_symmetry_cell_setting monoclinic
_symmetry_space_group_name_H-M 'P 21/c'
_symmetry_Int_Tables_number 14
loop_
_symmetry_equiv_pos_site_id
_symmetry_equiv_pos_as_xyz
1 x,y,z
2 x,1/2-y,1/2+z
3 -x,-y,-z
4 -x,-1/2+y,-1/2-z
_cell_length_a 16.4065(17)
_cell_length_b 8.4341(7)
_cell_length_c 9.0196(8)
_cell_angle_alpha 90
_cell_angle_beta 105.758(7)
_cell_angle_gamma 90
_cell_formula_units_Z 8
loop_
_atom_type_symbol
_atom_type_radius_bond
C 0.68
H 0.23
N 0.68
O 0.68
loop_
_atom_site_label
_atom_site_type_symbol
_atom_site_fract_x
_atom_site_fract_y
_atom_site_fract_z
O1 O 0.58270(11) 0.1846(2) 0.2000(2)
H1 H 0.60080 0.08740 0.15840
O2 O 0.08296(11) 0.1893(2) 0.87956(19)
H2 H 0.10080 0.08760 0.93820
N1 N 0.38577(13) 0.3935(2) 0.4198(2)
N2 N 0.51752(12) 0.1503(2) 0.2665(2)
N3 N -0.11284(13) 0.4001(2) 0.4661(2)
N4 N 0.01775(12) 0.1554(2) 0.7478(2)
C1 C 0.42124(15) 0.2558(3) 0.3923(3)
C2 C 0.39373(15) 0.1099(3) 0.4307(3)
H3 H 0.41950 0.01210 0.41580
C3 C 0.32751(16) 0.1042(3) 0.4983(3)
H4 H 0.30010 0.00020 0.51820
C4 C 0.29034(16) 0.2445(3) 0.5251(3)
H5 H 0.24200 0.24220 0.56550
C5 C 0.32197(16) 0.3851(3) 0.4859(3)
H6 H 0.30030 0.48880 0.50450
C6 C 0.49088(16) 0.2726(3) 0.3202(3)
H7 H 0.52050 0.37870 0.30110
C7 C -0.07856(15) 0.2625(3) 0.5280(3)
C8 C -0.10683(16) 0.1163(3) 0.4618(3)
H8 H -0.08050 0.01350 0.50470
C9 C -0.17290(16) 0.1119(3) 0.3301(3)
H9 H -0.19970 0.00580 0.27720
C10 C -0.20897(16) 0.2531(3) 0.2656(3)
H10 H -0.25810 0.25100 0.17160
C11 C -0.17690(16) 0.3932(3) 0.3363(3)
H11 H -0.19940 0.49610 0.29430
C12 C -0.00881(16) 0.2780(3) 0.6688(3)
H12 H 0.02040 0.38490 0.71250
#END
