
#######################################################################
#
#                 Cambridge Crystallographic Data Centre
#                                CCDC
#
#######################################################################
#
# If this CIF has been generated from an entry in the Cambridge
# Structural Database, then it will include bibliographic, chemical,
# crystal, experimental, refinement or atomic coordinate data resulting
# from the CCDC's data processing and validation procedures.
#
#######################################################################

data_CSD_CIF_WOMYIG
_audit_creation_date 2001-01-05
_audit_creation_method CSD-ConQuest-V1
_database_code_CSD WOMYIG
_database_code_depnum_ccdc_archive 'CCDC 149800'
_database_code_depnum_ccdc_journal 1350/33
_chemical_formula_sum 'C12 H10 N2 O1'
_chemical_formula_moiety
;
C12 H10 N2 O1
;
_journal_coden_Cambridge 1350
_journal_volume 2
_journal_year 2000
_journal_page_first 145
_journal_name_full 'CrystEngComm '
loop_
_publ_author_name
"C.B.Aakeroy"
"A.M.Beatty"
"D.S.Leinen"
_chemical_name_systematic
;
4-benzoyloximepyridine
;
_chemical_melting_point 457.15
_cell_volume   1034.586
_exptl_crystal_colour 'colorless'
_exptl_crystal_density_diffrn 1.273
_exptl_special_details
;
Melting point range 457.15-461.15K

;
_exptl_crystal_description 'rectangular prism'
_exptl_crystal_preparation 'methanol'
_diffrn_ambient_temperature 173
#These two values have been output from a single CSD field.
_refine_ls_R_factor_gt 0.0507
_refine_ls_wR_factor_gt 0.0507
_symmetry_cell_setting monoclinic
_symmetry_space_group_name_H-M 'P 21/c'
_symmetry_Int_Tables_number 14
loop_
_symmetry_equiv_pos_site_id
_symmetry_equiv_pos_as_xyz
1 x,y,z
2 x,1/2-y,1/2+z
3 -x,-y,-z
4 -x,-1/2+y,-1/2-z
_cell_length_a 5.7943(6)
_cell_length_b 17.615(2)
_cell_length_c 10.2711(11)
_cell_angle_alpha 90
_cell_angle_beta 99.290(8)
_cell_angle_gamma 90
_cell_formula_units_Z 4
loop_
_atom_type_symbol
_atom_type_radius_bond
C 0.68
H 0.23
N 0.68
O 0.68
loop_
_atom_site_label
_atom_site_type_symbol
_atom_site_fract_x
_atom_site_fract_y
_atom_site_fract_z
O1 O 0.0994(3) 0.72048(9) 0.88309(16)
H1 H 0.22790 0.74480 0.94090
N1 N -0.5344(4) 0.70677(11) 0.5367(2)
N2 N 0.1509(3) 0.64267(11) 0.89458(18)
C1 C -0.3471(4) 0.67589(15) 0.4975(2)
H2 H -0.33490 0.67900 0.40690
C2 C -0.1693(4) 0.64065(14) 0.5825(2)
H3 H -0.03870 0.61870 0.54520
C3 C -0.1827(4) 0.63774(12) 0.7161(2)
C4 C -0.3778(4) 0.66894(13) 0.7571(2)
H4 H -0.40000 0.66490 0.84650
C5 C -0.5484(4) 0.70241(13) 0.6652(2)
H5 H -0.69360 0.72400 0.69200
C6 C 0.0103(4) 0.60291(13) 0.8115(2)
C7 C 0.0470(4) 0.52003(13) 0.8105(2)
C8 C -0.1328(4) 0.47136(14) 0.7565(3)
H6 H -0.28280 0.49100 0.72600
C9 C -0.0992(5) 0.39375(14) 0.7604(3)
H7 H -0.23000 0.35800 0.72650
C10 C 0.1131(4) 0.36289(15) 0.8160(2)
H8 H 0.13020 0.30880 0.81880
C11 C 0.2940(5) 0.41044(14) 0.8679(2)
H9 H 0.44390 0.39120 0.90890
C12 C 0.2621(4) 0.48845(14) 0.8645(2)
H10 H 0.39440 0.52350 0.89980
#END
