
#######################################################################
#
#                 Cambridge Crystallographic Data Centre
#                                CCDC
#
#######################################################################
#
# If this CIF has been generated from an entry in the Cambridge
# Structural Database, then it will include bibliographic, chemical,
# crystal, experimental, refinement or atomic coordinate data resulting
# from the CCDC's data processing and validation procedures.
#
#######################################################################

data_CSD_CIF_WOMYAY
_audit_creation_date 2001-01-05
_audit_creation_method CSD-ConQuest-V1
_database_code_CSD WOMYAY
_database_code_depnum_ccdc_archive 'CCDC 149798'
_database_code_depnum_ccdc_journal 1350/33
_chemical_formula_sum 'C7 H8 N2 O1'
_chemical_formula_moiety
;
C7 H8 N2 O1
;
_journal_coden_Cambridge 1350
_journal_volume 2
_journal_year 2000
_journal_page_first 145
_journal_name_full 'CrystEngComm '
loop_
_publ_author_name
"C.B.Aakeroy"
"A.M.Beatty"
"D.S.Leinen"
_chemical_name_systematic
;
4-Acetyloximepyridine
;
_chemical_melting_point 430.15
_cell_volume    691.231
_exptl_crystal_colour 'colorless'
_exptl_crystal_density_diffrn 1.308
_exptl_special_details
;
Melting point range 430.15-431.15K

;
_exptl_crystal_description 'irregular prism'
_diffrn_ambient_temperature 173
#These two values have been output from a single CSD field.
_refine_ls_R_factor_gt 0.0521
_refine_ls_wR_factor_gt 0.0521
_symmetry_cell_setting monoclinic
_symmetry_space_group_name_H-M 'P 21/c'
_symmetry_Int_Tables_number 14
loop_
_symmetry_equiv_pos_site_id
_symmetry_equiv_pos_as_xyz
1 x,y,z
2 x,1/2-y,1/2+z
3 -x,-y,-z
4 -x,-1/2+y,-1/2-z
_cell_length_a 6.3502(7)
_cell_length_b 14.2960(13)
_cell_length_c 7.6172(7)
_cell_angle_alpha 90
_cell_angle_beta 91.622(5)
_cell_angle_gamma 90
_cell_formula_units_Z 4
loop_
_atom_type_symbol
_atom_type_radius_bond
C 0.68
H 0.23
N 0.68
O 0.68
loop_
_atom_site_label
_atom_site_type_symbol
_atom_site_fract_x
_atom_site_fract_y
_atom_site_fract_z
N1 N -0.5077(3) -0.32025(11) -0.5023(2)
N2 N 0.0795(2) -0.13535(11) -0.2356(2)
O1 O 0.2079(2) -0.06494(9) -0.16416(18)
H1 H 0.31410 -0.09970 -0.10860
C1 C -0.5589(3) -0.22972(14) -0.5144(3)
H2 H -0.69430 -0.22060 -0.56950
C2 C -0.4304(3) -0.15869(14) -0.4538(3)
H3 H -0.46820 -0.10040 -0.46470
C3 C -0.2353(3) -0.17909(13) -0.3755(2)
C4 C -0.1805(3) -0.27355(13) -0.3648(2)
H4 H -0.05260 -0.30100 -0.30240
C5 C -0.3194(3) -0.34019(13) -0.4278(2)
H5 H -0.28390 -0.39950 -0.41240
C6 C -0.0944(3) -0.10513(12) -0.3023(2)
C7 C -0.1636(3) -0.00505(14) -0.3042(3)
H6 H -0.07440 0.01810 -0.25190
H7 H -0.20500 0.01930 -0.42190
H8 H -0.31280 -0.00230 -0.25990
#END
