
#######################################################################
#
#                 Cambridge Crystallographic Data Centre
#                                CCDC
#
#######################################################################
#
# If this CIF has been generated from an entry in the Cambridge
# Structural Database, then it will include bibliographic, chemical,
# crystal, experimental, refinement or atomic coordinate data resulting
# from the CCDC's data processing and validation procedures.
#
#######################################################################

data_CSD_CIF_WONTUO
_audit_creation_date 2001-01-05
_audit_creation_method CSD-ConQuest-V1
_database_code_CSD WONTUO
_database_code_depnum_ccdc_archive 'CCDC 144084'
_database_code_depnum_ccdc_journal 1003/5748
_chemical_formula_sum 'C11 H11 N1 O4'
_chemical_formula_moiety
;
C11 H11 N1 O4
;
_journal_coden_Cambridge 1003
_journal_volume 29
_journal_year 1999
_journal_page_first 1295
_journal_name_full 'J.Chem.Cryst. '
loop_
_publ_author_name
"Min Shi"
"Jian-Kang Jiang"
_chemical_name_systematic
;
4-Hydroxy-3-methylene-4-(p-nitrophenyl)butan-2-one
;
_chemical_melting_point 339.15
_cell_volume   2119.938
_exptl_crystal_colour 'yellow'
_exptl_crystal_density_diffrn 1.386
_exptl_special_details
;
Melting point range 339.15-341.15K

;
_exptl_crystal_description 'prismatic'
_exptl_crystal_preparation 'hexane/dichloromethane 10'
_diffrn_ambient_temperature ?
_diffrn_special_details
;
The study was carried out at room temperature,in the range 283-303K

;
#These two values have been output from a single CSD field.
_refine_ls_R_factor_gt 0.047
_refine_ls_wR_factor_gt 0.047
_symmetry_cell_setting monoclinic
_symmetry_space_group_name_H-M 'C 2/c'
_symmetry_Int_Tables_number 15
loop_
_symmetry_equiv_pos_site_id
_symmetry_equiv_pos_as_xyz
1 x,y,z
2 -x,y,1/2-z
3 1/2+x,1/2+y,z
4 1/2-x,1/2+y,1/2-z
5 -x,-y,-z
6 x,-y,-1/2+z
7 -1/2-x,-1/2-y,-z
8 -1/2+x,-1/2-y,-1/2+z
_cell_length_a 19.958(4)
_cell_length_b 10.486(3)
_cell_length_c 15.009(3)
_cell_angle_alpha 90
_cell_angle_beta 137.553(6)
_cell_angle_gamma 90
_cell_formula_units_Z 8
loop_
_atom_type_symbol
_atom_type_radius_bond
C 0.68
H 0.23
N 0.68
O 0.68
loop_
_atom_site_label
_atom_site_type_symbol
_atom_site_fract_x
_atom_site_fract_y
_atom_site_fract_z
O1 O 0.3774(2) 0.7610(2) 0.6248(3)
O2 O 0.3429(2) 0.6441(2) 0.7018(2)
O3 O 0.2860(1) 0.1638(1) 0.3406(1)
O4 O 0.5901(1) 0.2266(1) 0.6368(2)
N1 N 0.3643(2) 0.6583(2) 0.6446(2)
C1 C 0.3977(1) 0.4528(2) 0.4782(2)
C2 C 0.3914(2) 0.5604(2) 0.5246(2)
C3 C 0.3730(1) 0.5445(2) 0.5964(2)
C4 C 0.3624(1) 0.4264(2) 0.6247(2)
C5 C 0.3689(1) 0.3203(2) 0.5771(2)
C6 C 0.3861(1) 0.3315(2) 0.5029(2)
C7 C 0.3845(1) 0.2140(2) 0.4418(2)
C8 C 0.4503(1) 0.1084(2) 0.5413(2)
C9 C 0.5588(1) 0.1311(2) 0.6428(2)
C10 C 0.4140(2) -0.0008(2) 0.5361(2)
C11 C 0.6297(2) 0.0368(2) 0.7514(2)
H1 H 0.40630 0.46100 0.42500
H2 H 0.39750 0.64990 0.51020
H3 H 0.34770 0.41480 0.67080
H4 H 0.35910 0.23740 0.59330
H5 H 0.41300 0.23760 0.40740
H6 H 0.34470 -0.01640 0.46880
H7 H 0.46070 -0.06540 0.60320
H8 H 0.62420 -0.03910 0.72080
H9 H 0.60670 0.00390 0.78310
H10 H 0.69140 0.07200 0.82190
H11 H 0.23950 0.22220 0.27950
#END
