
#######################################################################
#
#                 Cambridge Crystallographic Data Centre
#                                CCDC
#
#######################################################################
#
# If this CIF has been generated from an entry in the Cambridge
# Structural Database, then it will include bibliographic, chemical,
# crystal, experimental, refinement or atomic coordinate data resulting
# from the CCDC's data processing and validation procedures.
#
#######################################################################

data_CSD_CIF_WOQNUL
_audit_creation_date 2001-01-05
_audit_creation_method CSD-ConQuest-V1
_database_code_CSD WOQNUL
_database_code_depnum_ccdc_archive 'CCDC 146166'
_database_code_depnum_ccdc_journal 1267/360
_chemical_formula_sum 'C12 H17 N1 O4'
_chemical_formula_moiety
;
C12 H17 N1 O4
;
_journal_coden_Cambridge 1267
_journal_volume 215
_journal_year 2000
_journal_page_first 405
_journal_name_full 'Z.Kristallogr.-New Cryst.Struct. '
loop_
_publ_author_name
"K.Peters"
"E.-M.Peters"
"M.Welter"
"G.Bringmann"
_chemical_name_systematic
;
rac-1-(3',5'-Dimethoxyphenyl)-2-(methyloximo)propanol
;
_chemical_name_common
;
rac-1-(3',5'-Dimethoxyphenyl)-2-(methoxyimino)propanol
;
_cell_volume   1255.144
_exptl_crystal_colour 'colorless'
_exptl_crystal_description 'lath'
_diffrn_ambient_temperature ?
_diffrn_special_details
;
The study was carried out at room temperature,in the range 283-303K

;
#These two values have been output from a single CSD field.
_refine_ls_R_factor_gt 0.052
_refine_ls_wR_factor_gt 0.052
_symmetry_cell_setting monoclinic
_symmetry_space_group_name_H-M 'P 21/c'
_symmetry_Int_Tables_number 14
loop_
_symmetry_equiv_pos_site_id
_symmetry_equiv_pos_as_xyz
1 x,y,z
2 -x,1/2+y,1/2-z
3 -x,-y,-z
4 x,-1/2-y,-1/2+z
_cell_length_a 9.380(1)
_cell_length_b 17.631(1)
_cell_length_c 8.248(1)
_cell_angle_alpha 90
_cell_angle_beta 113.05(1)
_cell_angle_gamma 90
_cell_formula_units_Z 4
loop_
_atom_type_symbol
_atom_type_radius_bond
C 0.68
H 0.23
N 0.68
O 0.68
loop_
_atom_site_label
_atom_site_type_symbol
_atom_site_fract_x
_atom_site_fract_y
_atom_site_fract_z
C1 C 0.44289(21) 0.6364(1) 0.30268(24)
C2 C 0.50889(22) 0.64507(10) 0.48560(25)
H1 H 0.46893(22) 0.68199(10) 0.54246(25)
C3 C 0.63272(23) 0.59943(12) 0.58360(24)
O1 O 0.70852(18) 0.60332(10) 0.76291(18)
C4 C 0.69330(21) 0.54618(11) 0.50277(25)
H2 H 0.77985(21) 0.51514(11) 0.57197(25)
C5 C 0.62614(22) 0.53892(11) 0.32138(25)
O2 O 0.67527(16) 0.48834(9) 0.22836(18)
C6 C 0.50026(21) 0.58355(11) 0.22055(24)
H3 H 0.45326(21) 0.57749(11) 0.09493(24)
C7 C 0.30464(21) 0.68565(10) 0.19789(24)
H4 H 0.32083(21) 0.73527(10) 0.24993(24)
O3 O 0.29146(19) 0.69027(8) 0.02118(19)
H5 H 0.2214(34) 0.7204(17) -0.0438(38)
C8 C 0.15651(21) 0.65354(10) 0.20403(23)
N1 N 0.09921(18) 0.69138(9) 0.29515(21)
O4 O -0.03839(16) 0.65765(9) 0.29363(21)
C9 C 0.08834(23) 0.58316(11) 0.10106(28)
H6 H 0.15335(23) 0.56568(11) 0.04328(28)
H7 H -0.01318(23) 0.59412(11) 0.01449(28)
H8 H 0.08115(23) 0.54455(11) 0.17958(28)
C10 C -0.10662(31) 0.70634(16) 0.37783(42)
H9 H -0.19999(31) 0.68382(16) 0.37725(42)
H10 H -0.13079(31) 0.75372(16) 0.31559(42)
H11 H -0.03595(31) 0.71503(16) 0.49723(42)
C11 C 0.63443(27) 0.64048(15) 0.86093(28)
H12 H 0.70063(27) 0.63906(15) 0.98388(28)
H13 H 0.53880(27) 0.61506(15) 0.84244(28)
H14 H 0.61354(27) 0.69227(15) 0.82311(28)
C12 C 0.80264(26) 0.44059(16) 0.32354(32)
H15 H 0.82456(26) 0.40815(16) 0.24269(32)
H16 H 0.77765(26) 0.41019(16) 0.40537(32)
H17 H 0.89188(26) 0.47119(16) 0.38669(32)
#END
