
#######################################################################
#
#                 Cambridge Crystallographic Data Centre
#                                CCDC
#
#######################################################################
#
# If this CIF has been generated from an entry in the Cambridge
# Structural Database, then it will include bibliographic, chemical,
# crystal, experimental, refinement or atomic coordinate data resulting
# from the CCDC's data processing and validation procedures.
#
#######################################################################

data_CSD_CIF_WOQXOR
_audit_creation_date 2014-08-06
_audit_creation_method CSD-ConQuest-V1
_database_code_CSD WOQXOR
_database_code_depnum_ccdc_archive 'CCDC 871460'
_chemical_formula_sum 'C7 H6 N2 O4'
_chemical_formula_moiety
;
C7 H6 N2 O4
;
_journal_coden_Cambridge 754
_journal_volume 112
_journal_year 2013
_journal_page_first 1587
_journal_name_full 'J.Thermal Analysis and Calorimetry '
loop_
_publ_author_name
"M.Kunduraci"
"E.Ozkaramete"
"N.Yilmaz"
"Sevi Oz"
"Ingrid Svoboda"
"E.Kubra Inal"
"O.Atakol"
_chemical_name_systematic
;
4-(hydroxycarbonoimidoyl)-2-nitrophenol
;
_cell_volume    386.719
_exptl_crystal_colour 'green'
_exptl_crystal_density_diffrn 1.564
_exptl_crystal_description 'prism'
_diffrn_ambient_temperature 293
#These two values have been output from a single CSD field.
_refine_ls_R_factor_gt 0.0477
_refine_ls_wR_factor_gt 0.0477
_symmetry_cell_setting triclinic
_symmetry_space_group_name_H-M 'P -1'
_symmetry_Int_Tables_number 2
loop_
_symmetry_equiv_pos_site_id
_symmetry_equiv_pos_as_xyz
1 x,y,z
2 -x,-y,-z
_cell_length_a 7.0936(7)
_cell_length_b 7.2149(7)
_cell_length_c 8.0660(5)
_cell_angle_alpha 106.821(7)
_cell_angle_beta 100.963(7)
_cell_angle_gamma 91.116(8)
_cell_formula_units_Z 2
loop_
_atom_type_symbol
_atom_type_radius_bond
C 0.68
H 0.23
N 0.68
O 0.68
loop_
_atom_site_label
_atom_site_type_symbol
_atom_site_fract_x
_atom_site_fract_y
_atom_site_fract_z
C1 C -0.3493(3) 0.6165(3) -0.1344(3)
H1 H -0.43350 0.61050 -0.06030
C2 C -0.1509(3) 0.6937(3) -0.0546(3)
C3 C -0.0191(3) 0.7292(3) -0.1536(3)
H2 H -0.05850 0.70260 -0.27550
C4 C 0.1656(3) 0.8019(3) -0.0746(3)
H3 H 0.24960 0.82490 -0.14340
C5 C 0.2306(3) 0.8424(3) 0.1074(3)
C6 C 0.0997(3) 0.8050(3) 0.2057(3)
C7 C -0.0891(3) 0.7320(3) 0.1251(3)
H4 H -0.17400 0.70910 0.19310
N1 N -0.4122(3) 0.5571(3) -0.3000(2)
N2 N 0.1572(3) 0.8374(3) 0.3946(2)
O1 O -0.6067(2) 0.4833(3) -0.3421(2)
H5 H -0.638(4) 0.455(4) -0.463(2)
O2 O 0.4154(2) 0.9119(3) 0.1725(2)
H6 H 0.438(4) 0.938(4) 0.281(2)
O3 O 0.3166(3) 0.9199(3) 0.4711(2)
O4 O 0.0479(3) 0.7818(3) 0.4722(2)
#END
