
#######################################################################
#
#                 Cambridge Crystallographic Data Centre
#                                CCDC
#
#######################################################################
#
# If this CIF has been generated from an entry in the Cambridge
# Structural Database, then it will include bibliographic, chemical,
# crystal, experimental, refinement or atomic coordinate data resulting
# from the CCDC's data processing and validation procedures.
#
#######################################################################

data_CSD_CIF_WORWOP
_audit_creation_date 2001-03-23
_audit_creation_method CSD-ConQuest-V1
_database_code_CSD WORWOP
_chemical_formula_sum 'C13 H18 N2 O5'
_chemical_formula_moiety
;
C13 H18 N2 O5
;
_journal_coden_Cambridge 35
_journal_volume 64
_journal_year 1999
_journal_page_first 7173
_journal_name_full 'J.Org.Chem. '
loop_
_publ_author_name
"R.B.Grossman"
"R.M.Rasne"
"B.O.Patrick"
_chemical_name_systematic
;
Ethyl 
(1R*,2S,3R)-1-cyano-3-methyl-3-nitro-2-(2-oxopropyl)-1-cyclopentanecarboxylate

;
_chemical_melting_point 380.15
_cell_volume    734.693
_exptl_crystal_colour 'white'
_exptl_crystal_density_diffrn 1.281
_exptl_special_details
;
Melting point range 380.15-381.15K

;
_diffrn_ambient_temperature ?
_diffrn_special_details
;
The study was carried out at room temperature,in the range 283-303K

;
_refine_special_details
;
The ethyl and nitro groups are disordered.

;
#These two values have been output from a single CSD field.
_refine_ls_R_factor_gt 0.0601
_refine_ls_wR_factor_gt 0.0601
loop_
_citation_database_id_CSD
_citation_special_details
WORWIJ "is a stereoisomer of this entry"
_symmetry_cell_setting triclinic
_symmetry_space_group_name_H-M 'P -1'
_symmetry_Int_Tables_number 2
loop_
_symmetry_equiv_pos_site_id
_symmetry_equiv_pos_as_xyz
1 x,y,z
2 -x,-y,-z
_cell_length_a 8.306(1)
_cell_length_b 9.656(1)
_cell_length_c 9.679(1)
_cell_angle_alpha 87.871(1)
_cell_angle_beta 74.885(1)
_cell_angle_gamma 78.652(1)
_cell_formula_units_Z 2
loop_
_atom_type_symbol
_atom_type_radius_bond
C 0.68
H 0.23
N 0.68
O 0.68
loop_
_atom_site_label
_atom_site_type_symbol
_atom_site_fract_x
_atom_site_fract_y
_atom_site_fract_z
O1 O -0.0464(9) 0.5350(5) 0.7270(24)
O2 O 0.1928(8) 0.4060(8) 0.6577(12)
O3? O -0.0075(18) 0.5099(12) 0.8102(13)
O4? O 0.1552(29) 0.436(2) 0.6109(20)
O5 O 0.2339(2) -0.0150(2) 0.9765(2)
O6 O 0.0719(2) -0.1054(2) 0.7183(2)
O7 O 0.3543(2) -0.1526(1) 0.6734(2)
N1 N 0.0436(3) 0.4212(2) 0.7131(3)
N2 N 0.5181(2) 0.1346(2) 0.6714(2)
C1 C -0.0345(2) 0.2876(2) 0.7393(2)
C2 C -0.0180(3) 0.2236(2) 0.5937(3)
C3 C 0.1626(3) 0.1418(2) 0.5424(2)
C4 C 0.2162(2) 0.0888(2) 0.6817(2)
C5 C 0.0788(2) 0.1747(2) 0.8079(2)
C6 C 0.1439(2) 0.2251(2) 0.9263(2)
C7 C 0.2296(2) 0.1073(2) 1.0032(2)
C8 C 0.3102(3) 0.1491(3) 1.1123(3)
C9 C -0.2147(3) 0.3277(3) 0.8315(4)
C10 C 0.3877(2) 0.1113(2) 0.6749(2)
C11 C 0.2057(2) -0.0677(2) 0.6960(2)
C12 C 0.3355(4) -0.3034(3) 0.6754(5)
C13 C 0.4922(7) -0.3908(5) 0.6838(10)
C14? C 0.39970 -0.30430 0.64220
C15? C 0.3916(20) -0.3650(13) 0.7742(18)
H1 H -0.09830 0.16110 0.60180
H2 H -0.04090 0.29760 0.52670
H3 H 0.23700 0.20230 0.48890
H4 H 0.16730 0.06250 0.48160
H5 H 0.00570 0.10850 0.85370
H6 H 0.22380 0.28610 0.88520
H7 H 0.04900 0.28110 0.99520
H8 H 0.36100 0.06580 1.15450
H9 H 0.22520 0.20670 1.18550
H10 H 0.39630 0.20170 1.06700
H11 H -0.21370 0.36700 0.92100
H12 H -0.26500 0.24510 0.84920
H13 H -0.28000 0.39640 0.78290
H14 H 0.24490 -0.31920 0.75740
H15 H 0.30680 -0.32630 0.58910
H16 H 0.48190 -0.48830 0.68530
H17 H 0.51940 -0.36800 0.76990
H18 H 0.58110 -0.37510 0.60210
H19? H 0.31980 -0.33400 0.59750
H20? H 0.51340 -0.32950 0.57920
H21? H 0.42000 -0.46610 0.76310
H22? H 0.27840 -0.33790 0.83490
H23? H 0.47070 -0.33340 0.81680
#END
