
#######################################################################
#
#                 Cambridge Crystallographic Data Centre
#                                CCDC
#
#######################################################################
#
# If this CIF has been generated from an entry in the Cambridge
# Structural Database, then it will include bibliographic, chemical,
# crystal, experimental, refinement or atomic coordinate data resulting
# from the CCDC's data processing and validation procedures.
#
#######################################################################

data_CSD_CIF_WORWEF
_audit_creation_date 2001-03-23
_audit_creation_method CSD-ConQuest-V1
_database_code_CSD WORWEF
_chemical_formula_sum 'C13 H18 N2 O5'
_chemical_formula_moiety
;
C13 H18 N2 O5
;
_journal_coden_Cambridge 35
_journal_volume 64
_journal_year 1999
_journal_page_first 7173
_journal_name_full 'J.Org.Chem. '
loop_
_publ_author_name
"R.B.Grossman"
"R.M.Rasne"
"B.O.Patrick"
_chemical_name_systematic
;
Ethyl (1R*,2S,3S)-1-cyano-3-nitro-2-(2-oxopropyl)-1-cyclohexanecarboxylate
;
_chemical_melting_point 362.15
_cell_volume   1450.345
_exptl_crystal_colour 'white'
_exptl_crystal_density_diffrn 1.298
_exptl_special_details
;
Melting point range 362.15-363.15K

;
_diffrn_ambient_temperature ?
_diffrn_special_details
;
The study was carried out at room temperature,in the range 283-303K

;
_refine_special_details
;
The nitro group is disordered.

;
#These two values have been output from a single CSD field.
_refine_ls_R_factor_gt 0.0523
_refine_ls_wR_factor_gt 0.0523
_symmetry_cell_setting monoclinic
_symmetry_space_group_name_H-M 'P 21/c'
_symmetry_Int_Tables_number 14
loop_
_symmetry_equiv_pos_site_id
_symmetry_equiv_pos_as_xyz
1 x,y,z
2 -x,1/2+y,1/2-z
3 -x,-y,-z
4 x,-1/2-y,-1/2+z
_cell_length_a 12.198(2)
_cell_length_b 7.127(1)
_cell_length_c 17.655(4)
_cell_angle_alpha 90
_cell_angle_beta 109.10(3)
_cell_angle_gamma 90
_cell_formula_units_Z 4
loop_
_atom_type_symbol
_atom_type_radius_bond
C 0.68
H 0.23
N 0.68
O 0.68
loop_
_atom_site_label
_atom_site_type_symbol
_atom_site_fract_x
_atom_site_fract_y
_atom_site_fract_z
O1 O -0.0157(5) 0.4997(9) 0.8952(7)
O2 O -0.0578(6) 0.2416(13) 0.9433(5)
O3? O -0.0129(15) 0.4723(21) 0.8703(10)
O4? O -0.0501(18) 0.2815(27) 0.9580(12)
O5 O -0.0592(1) 0.1516(2) 0.7653(1)
O6 O 0.3721(2) -0.2014(2) 0.8883(1)
O7 O 0.2847(1) 0.0082(2) 0.7928(1)
N1 N 0.0133(1) 0.3502(2) 0.9272(1)
N2 N 0.3306(2) -0.0880(3) 1.0635(1)
C1 C 0.1405(2) 0.2876(2) 0.9530(1)
C2 C 0.2204(2) 0.4579(3) 0.9642(2)
C3 C 0.3483(2) 0.3950(3) 0.9936(2)
C4 C 0.3726(2) 0.2527(3) 0.9370(1)
C5 C 0.2888(2) 0.0795(2) 0.9241(1)
C6 C 0.1577(2) 0.1445(2) 0.8920(1)
C7 C 0.0713(2) -0.0199(2) 0.8745(1)
C8 C -0.0475(2) 0.0242(2) 0.8127(1)
C9 C -0.1488(2) -0.0980(3) 0.8124(2)
C10 C 0.3125(2) -0.0189(3) 1.0021(1)
C11 C 0.3201(2) -0.0575(2) 0.8672(1)
C12 C 0.3169(2) -0.0990(3) 0.7320(1)
C13 C 0.4235(3) -0.0202(5) 0.7217(2)
H1 H 0.1501(17) 0.2258(27) 1.0018(12)
H2 H 0.2046(20) 0.5407(31) 1.0018(13)
H3 H 0.2006(21) 0.5167(30) 0.9129(14)
H4 H 0.3991(22) 0.5016(34) 0.9987(13)
H5 H 0.3712(19) 0.3413(30) 1.0485(14)
H6 H 0.4524(23) 0.2088(30) 0.9577(13)
H7 H 0.3603(19) 0.3094(30) 0.8828(14)
H8 H 0.1475(16) 0.2074(24) 0.8418(11)
H9 H 0.0998(19) -0.1229(30) 0.8529(12)
H10 H 0.0594(18) -0.0649(26) 0.9222(12)
H11 H -0.2154(29) -0.076(4) 0.7617(19)
H12 H -0.1740(26) -0.0568(40) 0.8545(18)
H13 H -0.1249(26) -0.2263(44) 0.8133(17)
H14 H 0.25390 -0.09440 0.68130
H15 H 0.33000 -0.22940 0.74850
H16 H 0.44370 -0.09180 0.68200
H17 H 0.48590 -0.02590 0.77180
H18 H 0.41000 0.10820 0.70450
#END
