
#######################################################################
#
#                 Cambridge Crystallographic Data Centre
#                                CCDC
#
#######################################################################
#
# If this CIF has been generated from an entry in the Cambridge
# Structural Database, then it will include bibliographic, chemical,
# crystal, experimental, refinement or atomic coordinate data resulting
# from the CCDC's data processing and validation procedures.
#
#######################################################################

data_CSD_CIF_WOTGAN
_audit_creation_date 2001-03-23
_audit_creation_method CSD-ConQuest-V1
_database_code_CSD WOTGAN
_database_code_depnum_ccdc_archive 'CCDC 156114'
_chemical_formula_sum 'C21 H29 N1 O6'
_chemical_formula_moiety
;
C21 H29 N1 O6
;
_journal_coden_Cambridge 16
_journal_volume 56
_journal_year 2000
_journal_page_first 4367
_journal_name_full 'Tetrahedron '
loop_
_publ_author_name
"R.Carter"
"K.Hodgetts"
"J.McKenna"
"P.Magnus"
"S.Wren"
_chemical_name_systematic
;
(4R,5R,6S)-1-Methyl-4-isopropyl-5-(dimethyl 
acetal)-6-[4'-nitrobenzoyloxymethyl]-1-cyclohexene
;
_chemical_name_common
;
(4R,5R,6S)-1-Methyl-4-isopropyl-6-((4'-nitrobenzoyloxy)methyl)cyclohexene-5-ca
rbaldehyde dimethyl acetal
;
_cell_volume   2160.957
_exptl_crystal_density_diffrn 1.203
_exptl_crystal_preparation 'ether/petroleum ether'
_diffrn_ambient_temperature 198
#These two values have been output from a single CSD field.
_refine_ls_R_factor_gt 0.0651
_refine_ls_wR_factor_gt 0.0651
_symmetry_cell_setting orthorhombic
_symmetry_space_group_name_H-M 'P 21 21 21'
_symmetry_Int_Tables_number 19
loop_
_symmetry_equiv_pos_site_id
_symmetry_equiv_pos_as_xyz
1 x,y,z
2 1/2-x,-y,1/2+z
3 -x,1/2+y,1/2-z
4 1/2+x,1/2-y,-z
_cell_length_a 7.155(2)
_cell_length_b 13.250(5)
_cell_length_c 22.794(6)
_cell_angle_alpha 90
_cell_angle_beta 90
_cell_angle_gamma 90
_cell_formula_units_Z 4
loop_
_atom_type_symbol
_atom_type_radius_bond
C 0.68
H 0.23
N 0.68
O 0.68
loop_
_atom_site_label
_atom_site_type_symbol
_atom_site_fract_x
_atom_site_fract_y
_atom_site_fract_z
C1 C 0.0964(7) 0.2635(4) 0.2967(2)
C2 C 0.1944(7) 0.2466(3) 0.3545(2)
H1 H 0.0994(7) 0.2373(3) 0.3838(2)
C3 C 0.3109(7) 0.1480(3) 0.3522(2)
H2 H 0.2250(7) 0.0939(3) 0.3446(2)
C4 C 0.4434(7) 0.1464(3) 0.2990(2)
H3 H 0.5190(7) 0.2060(3) 0.3024(2)
C5 C 0.3289(9) 0.1580(4) 0.2423(2)
H4 H 0.2891(9) 0.0911(4) 0.2320(2)
H5 H 0.4083(9) 0.1825(4) 0.2115(2)
C6 C 0.1593(9) 0.2229(4) 0.2480(2)
H6 H 0.0954(9) 0.2396(4) 0.2122(2)
C7 C -0.0799(8) 0.3243(4) 0.2968(3)
H7 H -0.1299(8) 0.3301(4) 0.2578(3)
H8 H -0.1691(8) 0.2911(4) 0.3216(3)
H9 H -0.0540(8) 0.3904(4) 0.3120(3)
C8 C 0.3108(7) 0.3380(3) 0.3742(2)
H10 H 0.4010(7) 0.3542(3) 0.3445(2)
H11 H 0.3752(7) 0.3233(3) 0.4102(2)
O1 O 0.1800(4) 0.4205(2) 0.38354(13)
C9 C 0.2577(7) 0.5079(4) 0.4006(2)
O2 O 0.4240(5) 0.5190(2) 0.4080(2)
C10 C 0.1170(7) 0.5897(3) 0.4084(2)
C11 C 0.1837(7) 0.6878(3) 0.4153(2)
H12 H 0.3162(7) 0.6988(3) 0.4143(2)
C12 C 0.0598(7) 0.7660(3) 0.4222(3)
H13 H 0.1061(7) 0.8333(3) 0.4278(3)
C13 C -0.1278(7) 0.7457(3) 0.4227(2)
C14 C -0.1964(7) 0.6497(3) 0.4160(2)
H14 H -0.3289(7) 0.6385(3) 0.4155(2)
C15 C -0.0730(7) 0.5724(3) 0.4083(2)
H15 H -0.1161(7) 0.5041(3) 0.4044(2)
N1 N -0.2606(7) 0.8303(4) 0.4306(2)
O3 O -0.4269(6) 0.8132(3) 0.4321(2)
O4 O -0.1960(6) 0.9142(3) 0.4350(3)
C16 C 0.4114(7) 0.1240(3) 0.4098(2)
H16 H 0.4523(7) 0.0550(3) 0.4097(2)
O5 O 0.2953(5) 0.1397(2) 0.45849(14)
C17 C 0.1804(9) 0.0581(4) 0.4720(3)
H17 H 0.1046(9) 0.0757(4) 0.5052(3)
H18 H 0.1014(9) 0.0433(4) 0.4391(3)
H19 H 0.2544(9) -0.0002(4) 0.4813(3)
O6 O 0.5675(5) 0.1865(2) 0.41581(14)
C18 C 0.6829(8) 0.1616(4) 0.4642(2)
H20 H 0.7861(8) 0.2077(4) 0.4664(2)
H21 H 0.6096(8) 0.1665(4) 0.4994(2)
H22 H 0.7294(8) 0.0940(4) 0.4602(2)
C19 C 0.5769(8) 0.0538(4) 0.2980(2)
H23 H 0.6468(8) 0.0540(4) 0.3339(2)
C20 C 0.4757(8) -0.0481(3) 0.2949(2)
H24 H 0.3884(8) -0.0555(3) 0.3266(2)
H25 H 0.4099(8) -0.0502(3) 0.2582(2)
H26 H 0.5650(8) -0.1022(3) 0.2963(2)
C21 C 0.7163(8) 0.0616(4) 0.2467(2)
H27 H 0.7834(8) 0.1242(4) 0.2486(2)
H28 H 0.8030(8) 0.0064(4) 0.2486(2)
H29 H 0.6479(8) 0.0583(4) 0.2105(2)
#END
