
#######################################################################
#
#                 Cambridge Crystallographic Data Centre
#                                CCDC
#
#######################################################################
#
# If this CIF has been generated from an entry in the Cambridge
# Structural Database, then it will include bibliographic, chemical,
# crystal, experimental, refinement or atomic coordinate data resulting
# from the CCDC's data processing and validation procedures.
#
#######################################################################

data_CSD_CIF_WOTKUL
_audit_creation_date 2001-03-23
_audit_creation_method CSD-ConQuest-V1
_database_code_CSD WOTKUL
_database_code_depnum_ccdc_archive 'CCDC 156238'
_chemical_formula_sum 'C13 H21 N1 O6'
_chemical_formula_moiety
;
C13 H21 N1 O6
;
_journal_coden_Cambridge 1127
_journal_volume 9
_journal_year 1999
_journal_page_first 611
_journal_name_full 'Bioorg.Med.Chem.Lett. '
loop_
_publ_author_name
"P.W.Smith"
"N.Trivedi"
"P.D.Howes"
"S.L.Sollis"
"G.Rahim"
"R.C.Bethell"
"S.Lynn"
_chemical_name_systematic
;
t-Butyl 3,5-dihydroxy-4-nitrobicyclo[2.2.2]octane-1-carboxylate
;
_cell_volume   1478.485
_exptl_crystal_colour 'colorless'
_exptl_crystal_density_diffrn 1.291
_exptl_crystal_description 'rhomboid'
_diffrn_ambient_temperature ?
_diffrn_special_details
;
The study was carried out at room temperature,in the range 283-303K

;
#These two values have been output from a single CSD field.
_refine_ls_R_factor_gt 0.0484
_refine_ls_wR_factor_gt 0.0484
_symmetry_cell_setting monoclinic
_symmetry_space_group_name_H-M 'P 21/c'
_symmetry_Int_Tables_number 14
loop_
_symmetry_equiv_pos_site_id
_symmetry_equiv_pos_as_xyz
1 x,y,z
2 x,1/2-y,1/2+z
3 -x,-y,-z
4 -x,-1/2+y,-1/2-z
_cell_length_a 20.935(4)
_cell_length_b 6.5230(13)
_cell_length_c 10.832(2)
_cell_angle_alpha 90
_cell_angle_beta 91.79(3)
_cell_angle_gamma 90
_cell_formula_units_Z 4
loop_
_atom_type_symbol
_atom_type_radius_bond
C 0.68
H 0.23
N 0.68
O 0.68
loop_
_atom_site_label
_atom_site_type_symbol
_atom_site_fract_x
_atom_site_fract_y
_atom_site_fract_z
C1 C 0.2303(2) 0.5086(5) 0.6981(7)
C2 C 0.2214(2) 0.7394(7) 0.6826(8)
H1 H 0.2358(23) 0.8123(74) 0.7618(71)
H2 H 0.2475(19) 0.7927(58) 0.6260(57)
O1 O 0.12960(14) 0.9429(4) 0.7345(5)
H3 H 0.1139(26) 1.0387(92) 0.6744(74)
C3 C 0.1515(2) 0.7945(6) 0.6483(8)
H4 H 0.1477(19) 0.8402(64) 0.5461(67)
C4 C 0.1120(2) 0.5948(6) 0.6606(9)
O2 O 0.09882(14) 0.2553(4) 0.5656(4)
H5 H 0.0670(28) 0.2564(89) 0.5118(65)
C5 C 0.1328(2) 0.4468(7) 0.5562(8)
H6 H 0.1190(23) 0.5107(80) 0.473(10)
C6 C 0.2047(2) 0.4024(9) 0.5810(9)
H7 H 0.2098(19) 0.2605(69) 0.5946(50)
H8 H 0.2252(23) 0.4688(74) 0.5045(83)
C7 C 0.1908(2) 0.4359(8) 0.8081(8)
H9 H 0.1947(24) 0.2714(84) 0.8087(56)
H10 H 0.2072(23) 0.5113(67) 0.8769(73)
C8 C 0.1200(2) 0.5008(7) 0.7851(10)
H11 H 0.0899(18) 0.3756(62) 0.7927(49)
H12 H 0.1067(17) 0.5944(58) 0.8531(68)
C9 C 0.3008(2) 0.4558(7) 0.7185(9)
O3 O 0.3316(2) 0.3600(7) 0.6477(5)
O4 O 0.32308(13) 0.5319(5) 0.8240(5)
C10 C 0.3907(2) 0.4991(8) 0.8692(9)
C11 C 0.4342(2) 0.604(1) 0.7803(7)
H13 H 0.4348(19) 0.5277(42) 0.7046(18)
H14 H 0.4767(6) 0.6107(72) 0.8161(21)
H15 H 0.4189(14) 0.7402(28) 0.7638(38)
C12 C 0.4043(2) 0.2708(8) 0.8812(7)
H16 H 0.4449(10) 0.2508(8) 0.9229(36)
H17 H 0.4051(20) 0.2102(14) 0.8005(7)
H18 H 0.3714(11) 0.2071(14) 0.9278(34)
C13 C 0.3914(3) 0.5974(12) 0.9946(9)
H19 H 0.4329(7) 0.5806(62) 1.0337(19)
H20 H 0.3598(15) 0.5337(45) 1.0442(16)
H21 H 0.3821(21) 0.7409(17) 0.9861(9)
N1 N 0.0422(2) 0.6509(6) 0.6320(7)
O5 O 0.02979(14) 0.7378(6) 0.5333(6)
O6 O 0.00238(15) 0.6052(5) 0.7045(5)
#END
