
#######################################################################
#
#                 Cambridge Crystallographic Data Centre
#                                CCDC
#
#######################################################################
#
# If this CIF has been generated from an entry in the Cambridge
# Structural Database, then it will include bibliographic, chemical,
# crystal, experimental, refinement or atomic coordinate data resulting
# from the CCDC's data processing and validation procedures.
#
#######################################################################

data_CSD_CIF_WOTKIB
_audit_creation_date 2015-01-16
_audit_creation_method CSD-ConQuest-V1
_database_code_CSD WOTKIB
_database_code_depnum_ccdc_archive 'CCDC 1043985'
_chemical_formula_sum 'C8 H8 N4 O4'
_chemical_formula_moiety
;
C8 H8 N4 O4
;
_journal_coden_Cambridge 1078
_journal_year 2015
_journal_name_full 'CSD Communication(Private Communication) '
loop_
_publ_author_name
"Y.N.Tkachenko"
"E.B.Tsupak"
"Z.A.Starikova"
_chemical_name_systematic
;
1,3-dimethyl-7-nitro-1H-pyrrolo[3,2-d]pyrimidine-2,4(3H,5H)-dione
;
_cell_volume   1849.235
_exptl_crystal_colour 'light yellow'
_exptl_crystal_density_diffrn 1.603
_exptl_special_details
;
contribution from Department of Organic Chemistry, Southern Federal 
University, 7 ul. Zorge, 344090 Rostov-on-Don, Russian Federation
;
_exptl_crystal_description 'plate'
_exptl_crystal_preparation 'acetone'
_diffrn_ambient_temperature 163
_refine_special_details
;
O4 and O4A disordered over two sites with occupancies 0.75:0.25.

;
#These two values have been output from a single CSD field.
_refine_ls_R_factor_gt 0.0424
_refine_ls_wR_factor_gt 0.0424
_symmetry_cell_setting monoclinic
_symmetry_space_group_name_H-M 'C 2/c'
_symmetry_Int_Tables_number 15
loop_
_symmetry_equiv_pos_site_id
_symmetry_equiv_pos_as_xyz
1 x,y,z
2 -x,y,1/2-z
3 1/2+x,1/2+y,z
4 1/2-x,1/2+y,1/2-z
5 -x,-y,-z
6 x,-y,-1/2+z
7 -1/2-x,-1/2-y,-z
8 -1/2+x,-1/2-y,-1/2+z
_cell_length_a 19.825(13)
_cell_length_b 5.795(3)
_cell_length_c 16.489(9)
_cell_angle_alpha 90
_cell_angle_beta 102.53(5)
_cell_angle_gamma 90
_cell_formula_units_Z 8
loop_
_atom_type_symbol
_atom_type_radius_bond
C 0.68
H 0.23
N 0.68
O 0.68
loop_
_atom_site_label
_atom_site_type_symbol
_atom_site_fract_x
_atom_site_fract_y
_atom_site_fract_z
O1 O 0.29300(9) 0.0437(3) 0.78258(10)
O2 O 0.21335(8) -0.4821(3) 0.94382(9)
O3 O 0.53718(9) -0.7821(3) 0.91712(13)
O4 O 0.52565(12) -0.4273(5) 0.87278(17)
N1 N 0.36601(9) -0.2499(3) 0.83381(11)
N2 N 0.25566(9) -0.2093(3) 0.8683(1)
N3 N 0.34767(9) -0.7211(3) 0.96465(11)
H1 H 0.32370 -0.79900 0.99280
N4 N 0.50017(11) -0.6176(4) 0.89267(14)
C1 C 0.30479(11) -0.1292(4) 0.82543(13)
C2 C 0.26114(11) -0.4115(4) 0.91329(12)
C3 C 0.32603(11) -0.5226(4) 0.92065(12)
C4 C 0.41091(11) -0.7732(4) 0.95696(14)
H2 H 0.43660 -0.89940 0.98100
C5 C 0.43255(11) -0.6081(4) 0.90705(13)
C6 C 0.37745(11) -0.4458(4) 0.88292(12)
C7 C 0.19058(12) -0.0817(4) 0.85373(14)
H3 H 0.16060 -0.14940 0.88560
H4 H 0.16890 -0.08790 0.79580
H5 H 0.19950 0.07620 0.87020
C8 C 0.41388(13) -0.1707(4) 0.78293(16)
H6 H 0.43030 -0.30110 0.75680
H7 H 0.45230 -0.09320 0.81760
H8 H 0.39030 -0.06620 0.74110
O5? O 0.5020(4) -0.5754(14) 0.8131(5)
#END
