
#######################################################################
#
#                 Cambridge Crystallographic Data Centre
#                                CCDC
#
#######################################################################
#
# If this CIF has been generated from an entry in the Cambridge
# Structural Database, then it will include bibliographic, chemical,
# crystal, experimental, refinement or atomic coordinate data resulting
# from the CCDC's data processing and validation procedures.
#
#######################################################################

data_CSD_CIF_WOTQED
_audit_creation_date 2015-01-16
_audit_creation_method CSD-ConQuest-V1
_database_code_CSD WOTQED
_database_code_depnum_ccdc_archive 'CCDC 1042888'
_chemical_formula_sum 'C13 H10 N2 O3'
_chemical_formula_moiety
;
C13 H10 N2 O3
;
_journal_coeditor_code "hb7349"
_journal_coden_Cambridge 1828
_journal_volume 71
_journal_year 2015
_journal_page_first o113
_journal_name_full 'Acta Crystallogr.,Sect.E:Cryst.Commun. '
loop_
_publ_author_name
"Z.Atioglu"
"M.Akkurt"
"A.Jarrahpour"
"E.Ebrahimi"
"O.Buyukgungor"
_chemical_name_systematic
;
4-((4-Nitrobenzylidene)amino)phenol
;
_cell_volume   2282.650
_exptl_crystal_colour 'colorless'
_exptl_crystal_density_diffrn 1.41
_exptl_crystal_description 'prism'
_diffrn_ambient_temperature 296
_refine_special_details
;
C40A,C41A,C42A,C43A,C44A,C45A,C46A,C47A,C48A,C49A,C50A,C51A,C52A,N7A,N8A,O10A,
O11A,O12A and 
C40,C41,C42,C43,C44,C45,C46,C47,C48,C49,C50,C51,C52,N7,N8,O10,O11,O12 
disordered over two sites with occupancies 0.669:0.331.
;
#These two values have been output from a single CSD field.
_refine_ls_R_factor_gt 0.0697
_refine_ls_wR_factor_gt 0.0697
_symmetry_cell_setting triclinic
_symmetry_space_group_name_H-M 'P -1'
_symmetry_Int_Tables_number 2
loop_
_symmetry_equiv_pos_site_id
_symmetry_equiv_pos_as_xyz
1 x,y,z
2 -x,-y,-z
_cell_length_a 12.3449(6)
_cell_length_b 13.4266(6)
_cell_length_c 15.7404(7)
_cell_angle_alpha 72.926(4)
_cell_angle_beta 67.390(4)
_cell_angle_gamma 76.824(4)
_cell_formula_units_Z 8
loop_
_atom_type_symbol
_atom_type_radius_bond
C 0.68
H 0.23
N 0.68
O 0.68
loop_
_atom_site_label
_atom_site_type_symbol
_atom_site_fract_x
_atom_site_fract_y
_atom_site_fract_z
O1 O 0.50039(19) -0.36460(16) 0.28944(16)
O2 O 0.1795(2) 0.53357(19) -0.1317(2)
O3 O 0.0208(2) 0.47714(17) -0.10965(19)
N1 N 0.3541(2) 0.04251(18) 0.12063(16)
N2 N 0.1187(2) 0.4635(2) -0.10289(18)
C1 C 0.5013(2) -0.0934(2) 0.15946(19)
C2 C 0.5401(2) -0.1958(2) 0.1993(2)
C3 C 0.4587(2) -0.2649(2) 0.25257(19)
C4 C 0.3386(2) -0.2317(2) 0.26808(19)
C5 C 0.3021(2) -0.1315(2) 0.22690(19)
C6 C 0.3833(2) -0.0606(2) 0.16962(18)
C7 C 0.2659(2) 0.0614(2) 0.09237(18)
C8 C 0.2321(2) 0.1657(2) 0.04025(18)
C9 C 0.1387(2) 0.1805(2) 0.0077(2)
C10 C 0.1018(2) 0.2770(2) -0.0398(2)
C11 C 0.1614(2) 0.3603(2) -0.05649(19)
C12 C 0.2590(2) 0.3470(2) -0.0295(2)
C13 C 0.2926(3) 0.2508(2) 0.0190(2)
H1 H 0.55590 -0.04590 0.12530
H2 H 0.44750 -0.40100 0.31640
H3 H 0.62010 -0.21740 0.18990
H4 H 0.28340 -0.27760 0.30630
H5 H 0.22190 -0.11010 0.23710
H6 H 0.22210 0.00750 0.10530
H7 H 0.10040 0.12350 0.01830
H8 H 0.03810 0.28650 -0.06050
H9 H 0.30080 0.40290 -0.04430
H10 H 0.35720 0.24150 0.03850
O4 O 0.62408(19) 0.06613(17) 0.33983(17)
O5 O 0.1439(2) 0.88143(19) -0.10061(18)
O6 O 0.2621(2) 0.95766(17) -0.07833(19)
N3 N 0.4627(2) 0.4603(2) 0.15030(18)
N4 N 0.22268(19) 0.87913(19) -0.07013(16)
C14 C 0.5837(2) 0.3448(2) 0.2357(2)
C15 C 0.6250(2) 0.2482(2) 0.2825(2)
C16 C 0.5807(2) 0.1583(2) 0.29194(19)
C17 C 0.4949(2) 0.1654(2) 0.2526(2)
C18 C 0.4553(2) 0.2618(2) 0.20622(19)
C19 C 0.4968(2) 0.3534(2) 0.19782(18)
C20 C 0.3792(3) 0.4787(3) 0.1257(3)
C21 C 0.3415(3) 0.5865(2) 0.0741(2)
C22 C 0.3926(2) 0.6749(3) 0.0635(2)
C23 C 0.3554(2) 0.7735(2) 0.01514(19)
C24 C 0.2691(2) 0.7782(2) -0.02215(18)
C25 C 0.2217(2) 0.6907(2) -0.0134(2)
C26 C 0.2566(3) 0.5968(3) 0.0359(2)
H11 H 0.58390 0.02360 0.34280
H12 H 0.61460 0.40460 0.22960
H13 H 0.68310 0.24370 0.30790
H14 H 0.46490 0.10560 0.25770
H15 H 0.39870 0.26600 0.17940
H16 H 0.33560 0.42470 0.13870
H17 H 0.45140 0.66760 0.08890
H18 H 0.38710 0.83310 0.00830
H19 H 0.16580 0.69650 -0.04140
H20 H 0.22240 0.53820 0.04390
O7 O -0.10722(19) -0.36719(16) 0.78633(17)
O8 O 0.1778(2) 0.53834(18) 0.3923(2)
O9 O 0.35460(18) 0.47295(17) 0.38559(18)
N5 N 0.00532(19) 0.04052(17) 0.62254(16)
N6 N 0.2508(2) 0.46369(18) 0.40531(17)
C27 C 0.0410(2) -0.1359(2) 0.72341(19)
C28 C 0.0131(2) -0.2363(2) 0.7640(2)
C29 C -0.0768(2) -0.2677(2) 0.74937(19)
C30 C -0.1403(2) -0.1970(2) 0.6974(2)
C31 C -0.1132(2) -0.0948(2) 0.65762(19)
C32 C -0.0199(2) -0.0636(2) 0.66785(18)
C33 C 0.1125(2) 0.0584(2) 0.58926(19)
C34 C 0.1457(2) 0.1640(2) 0.54077(18)
C35 C 0.2643(2) 0.1772(2) 0.49720(19)
C36 C 0.3001(2) 0.2740(2) 0.45158(19)
C37 C 0.2141(2) 0.3600(2) 0.44933(19)
C38 C 0.0943(2) 0.3494(2) 0.4904(2)
C39 C 0.0611(2) 0.2517(2) 0.5364(2)
H21 H -0.06020 -0.39870 0.81320
H22 H 0.10170 -0.11560 0.73310
H23 H 0.05430 -0.28330 0.80120
H24 H -0.20170 -0.21750 0.68880
H25 H -0.15790 -0.04680 0.62380
H26 H 0.17150 0.00280 0.59590
H27 H 0.32130 0.11850 0.49910
H28 H 0.38010 0.28180 0.42290
H29 H 0.03760 0.40790 0.48660
H30 H -0.01880 0.24400 0.56500
O10 O -0.013(2) 0.073(2) 0.8503(14)
O11 O 0.3512(13) 0.9451(6) 0.4143(11)
O12 O 0.524(2) 0.871(2) 0.408(2)
N7 N 0.1472(4) 0.4600(5) 0.6493(3)
N8 N 0.416(3) 0.8789(18) 0.4259(18)
C40 C 0.20184(19) 0.2548(4) 0.7124(4)
C41 C 0.1522(3) 0.1631(3) 0.7650(4)
C42 C 0.0300(4) 0.1659(2) 0.8035(4)
C43 C -0.04275(19) 0.2603(3) 0.7893(4)
C44 C 0.0068(3) 0.3520(2) 0.7366(4)
C45 C 0.1291(4) 0.3493(3) 0.6982(4)
C46 C 0.2461(5) 0.4821(5) 0.6344(3)
C47 C 0.2851(6) 0.5852(3) 0.5794(2)
C48 C 0.4047(6) 0.5938(3) 0.5513(3)
C49 C 0.4460(5) 0.6894(4) 0.5002(5)
C50 C 0.3679(6) 0.7764(3) 0.4772(6)
C51 C 0.2484(5) 0.7678(4) 0.5053(5)
C52 C 0.2070(5) 0.6722(4) 0.5564(4)
H31 H 0.04250 0.02610 0.85250
H32 H 0.28370 0.25300 0.68660
H33 H 0.20090 0.10000 0.77450
H34 H -0.12460 0.26210 0.81500
H35 H -0.04180 0.41520 0.72710
H36 H 0.29820 0.43130 0.65890
H37 H 0.45690 0.53560 0.56660
H38 H 0.52600 0.69520 0.48140
H39 H 0.19610 0.82600 0.48990
H40 H 0.12700 0.66640 0.57520
O13? O -0.009(5) 0.077(5) 0.867(3)
O14? O 0.339(3) 0.9712(15) 0.410(3)
O15? O 0.510(5) 0.872(5) 0.396(5)
N9? N 0.2033(10) 0.4293(8) 0.6474(7)
N10? N 0.404(6) 0.862(4) 0.436(4)
C53? C 0.1942(4) 0.2784(7) 0.7093(8)
C54? C 0.1664(6) 0.1777(5) 0.7574(9)
C55? C 0.0488(7) 0.1596(4) 0.7991(9)
C56? C -0.0410(4) 0.2423(7) 0.7926(9)
C57? C -0.0132(6) 0.3431(5) 0.7445(9)
C58? C 0.1044(8) 0.3612(4) 0.7029(8)
C59? C 0.1522(7) 0.5239(11) 0.6291(6)
C60? C 0.2226(11) 0.6094(7) 0.5811(5)
C61? C 0.3447(11) 0.5931(4) 0.5595(6)
C62? C 0.4103(7) 0.6765(6) 0.5103(8)
C63? C 0.3539(7) 0.7762(5) 0.4827(9)
C64? C 0.2319(7) 0.7926(6) 0.5043(8)
C65? C 0.1662(7) 0.7092(9) 0.5535(6)
H41? H 0.03870 0.02400 0.87210
H42? H 0.27290 0.29050 0.68140
H43? H 0.22650 0.12230 0.76170
H44? H -0.11970 0.23030 0.82050
H45? H -0.07330 0.39850 0.74020
H46? H 0.07020 0.53720 0.64660
H47? H 0.38240 0.52640 0.57800
H48? H 0.49190 0.66560 0.49580
H49? H 0.19420 0.85930 0.48580
H50? H 0.08460 0.72010 0.56800
#END
