
#######################################################################
#
#                 Cambridge Crystallographic Data Centre
#                                CCDC
#
#######################################################################
#
# If this CIF has been generated from an entry in the Cambridge
# Structural Database, then it will include bibliographic, chemical,
# crystal, experimental, refinement or atomic coordinate data resulting
# from the CCDC's data processing and validation procedures.
#
#######################################################################

data_CSD_CIF_WOTRAA
_audit_creation_date 2015-01-16
_audit_creation_method CSD-ConQuest-V1
_database_code_CSD WOTRAA
_database_code_depnum_ccdc_archive 'CCDC 991338'
_chemical_formula_sum 'C21 H15 N1 O3'
_chemical_formula_moiety
;
C21 H15 N1 O3
;
_journal_coeditor_code "su5060"
_journal_coden_Cambridge 1828
_journal_volume 71
_journal_year 2015
_journal_page_first o119
_journal_name_full 'Acta Crystallogr.,Sect.E:Cryst.Commun. '
loop_
_publ_author_name
"D.Shanthi"
"T.Vidhyasagar"
"K.Rajeswari"
"M.Kayalvizhi"
"G.Vasuki"
"A.Thiruvalluvar"
_chemical_name_systematic
;
(E)-1-([1,1'-Biphenyl]-4-yl)-3-(3-nitrophenyl)prop-2-en-1-one
;
_chemical_melting_point 462.9
_cell_volume   3209.404
_exptl_crystal_colour 'yellow'
_exptl_crystal_density_diffrn 1.363
_exptl_crystal_description 'block'
_diffrn_ambient_temperature 296
#These two values have been output from a single CSD field.
_refine_ls_R_factor_gt 0.0486
_refine_ls_wR_factor_gt 0.0486
_symmetry_cell_setting monoclinic
_symmetry_space_group_name_H-M 'C 2/c'
_symmetry_Int_Tables_number 15
loop_
_symmetry_equiv_pos_site_id
_symmetry_equiv_pos_as_xyz
1 x,y,z
2 -x,y,1/2-z
3 1/2+x,1/2+y,z
4 1/2-x,1/2+y,1/2-z
5 -x,-y,-z
6 x,-y,-1/2+z
7 -1/2-x,-1/2-y,-z
8 -1/2+x,-1/2-y,-1/2+z
_cell_length_a 17.6546(5)
_cell_length_b 6.1464(2)
_cell_length_c 30.0234(9)
_cell_angle_alpha 90
_cell_angle_beta 99.899(4)
_cell_angle_gamma 90
_cell_formula_units_Z 8
loop_
_atom_type_symbol
_atom_type_radius_bond
C 0.68
H 0.23
N 0.68
O 0.68
loop_
_atom_site_label
_atom_site_type_symbol
_atom_site_fract_x
_atom_site_fract_y
_atom_site_fract_z
O1 O 0.57652(12) 0.4252(3) -0.19910(6)
O2 O 0.58837(11) 0.7332(3) -0.16537(6)
O3 O 0.39281(11) 1.0140(3) 0.01671(6)
N1 N 0.56468(10) 0.5469(3) -0.16914(6)
C1 C 0.51892(10) 0.4648(3) -0.13607(6)
C2 C 0.5049(1) 0.6028(3) -0.10237(6)
C3 C 0.45859(11) 0.5329(3) -0.07197(6)
C4 C 0.43071(12) 0.3208(3) -0.07611(7)
C5 C 0.44639(12) 0.1864(3) -0.10995(8)
C6 C 0.49053(12) 0.2569(4) -0.14085(7)
C7 C 0.43910(11) 0.6866(3) -0.03818(6)
C8 C 0.38646(11) 0.6597(3) -0.01229(7)
C9 C 0.37029(11) 0.8276(3) 0.01956(6)
C10 C 0.32643(10) 0.7680(3) 0.05601(6)
C11 C 0.31668(12) 0.9253(3) 0.08779(7)
C12 C 0.27956(12) 0.8788(3) 0.12315(7)
C13 C 0.25004(11) 0.6723(3) 0.12863(6)
C14 C 0.25952(11) 0.5155(3) 0.09672(6)
C15 C 0.29722(11) 0.5609(3) 0.06115(6)
C16 C 0.21041(11) 0.6233(3) 0.16715(6)
C17 C 0.16140(11) 0.7741(3) 0.18176(7)
C18 C 0.12348(13) 0.7254(4) 0.21715(7)
C19 C 0.13376(13) 0.5265(4) 0.23841(7)
C20 C 0.18328(13) 0.3770(4) 0.22494(7)
C21 C 0.22157(12) 0.4246(3) 0.18959(6)
H1 H 0.52615 0.74161 -0.09987
H2 H 0.40097 0.26912 -0.05564
H3 H 0.42694 0.04543 -0.11206
H4 H 0.50062 0.16684 -0.16403
H5 H 0.46667 0.81623 -0.03468
H6 H 0.35878 0.53030 -0.01430
H7 H 0.33570 1.06482 0.08500
H8 H 0.27398 0.98736 0.14392
H9 H 0.23999 0.37647 0.09938
H10 H 0.30313 0.45231 0.04045
H11 H 0.15406 0.90890 0.16762
H12 H 0.09084 0.82768 0.22665
H13 H 0.10733 0.49326 0.26179
H14 H 0.19103 0.24360 0.23963
H15 H 0.25507 0.32293 0.18074
#END
