
#######################################################################
#
#                 Cambridge Crystallographic Data Centre
#                                CCDC
#
#######################################################################
#
# If this CIF has been generated from an entry in the Cambridge
# Structural Database, then it will include bibliographic, chemical,
# crystal, experimental, refinement or atomic coordinate data resulting
# from the CCDC's data processing and validation procedures.
#
#######################################################################

data_CSD_CIF_WOTVAC
_audit_creation_date 2001-03-23
_audit_creation_method CSD-ConQuest-V1
_database_code_CSD WOTVAC
_database_code_depnum_ccdc_archive 'CCDC 152410'
_chemical_formula_sum 'C13 H18 N2 O4'
_chemical_formula_moiety
;
C13 H18 N2 O4
;
_journal_coeditor_code "IUCr AU0077"
_journal_coden_Cambridge 621
_journal_volume 53
_journal_year 1997
_journal_page_first 603
_journal_name_full 'Acta Crystallogr.,Sect.A:Found Crystallogr. '
loop_
_publ_author_name
"A.V.Yakimanski"
"U.Kolb"
"G.N.Matveeva"
"I.G.Voigt-Martin"
"A.V.Tenkovtsev"
_chemical_name_systematic
;
n-Hexyl 4-nitrophenylcarbamate
;
_chemical_name_common
;
N-(4-Nitrophenyl)-n-hexyl-urethane
;
_cell_volume    688.388
_exptl_crystal_colour 'colorless'
_exptl_crystal_density_diffrn 1.285
_exptl_crystal_description 'long needle'
_exptl_crystal_preparation 'ethanol'
_diffrn_ambient_temperature ?
_diffrn_special_details
;
The study was carried out at room temperature,in the range 283-303K

;
#These two values have been output from a single CSD field.
_refine_ls_R_factor_gt 0.0432
_refine_ls_wR_factor_gt 0.0432
_symmetry_cell_setting monoclinic
_symmetry_space_group_name_H-M 'P 21'
_symmetry_Int_Tables_number 4
loop_
_symmetry_equiv_pos_site_id
_symmetry_equiv_pos_as_xyz
1 x,y,z
2 -x,1/2+y,-z
_cell_length_a 5.607(1)
_cell_length_b 5.756(1)
_cell_length_c 21.487(4)
_cell_angle_alpha 90
_cell_angle_beta 96.94(1)
_cell_angle_gamma 90
_cell_formula_units_Z 2
loop_
_atom_type_symbol
_atom_type_radius_bond
C 0.68
H 0.23
N 0.68
O 0.68
loop_
_atom_site_label
_atom_site_type_symbol
_atom_site_fract_x
_atom_site_fract_y
_atom_site_fract_z
N1 N 0.8911(4) -0.5592(4) 0.3256(1)
H1 H 1.0431(4) -0.6100(4) 0.34984(10)
O1 O 0.9514(3) -0.8466(4) 0.26144(9)
C1 C 0.6163(4) 0.0210(5) 0.40701(12)
O2 O 0.6504(3) 0.3203(4) 0.47918(10)
N2 N 0.5247(4) 0.2244(4) 0.43665(11)
O3 O 0.3211(3) 0.2938(4) 0.41732(10)
C2 C 0.8372(4) -0.0690(5) 0.43130(12)
H2 H 0.9260(4) -0.0008(5) 0.46588(12)
C3 C 0.4830(4) -0.0787(5) 0.35613(13)
H3 H 0.3351(4) -0.0157(5) 0.34049(13)
C4 C 0.5682(4) -0.2712(5) 0.32840(13)
H4 H 0.4776(4) -0.3396(5) 0.29412(13)
C5 C 0.7905(4) -0.3644(5) 0.35158(12)
C6 C 0.8011(5) -0.6753(6) 0.27275(13)
C7 C 0.9223(4) -0.2609(5) 0.40324(12)
H5 H 1.0705(4) -0.3229(5) 0.41902(12)
C8 C 0.8796(6) -0.9782(7) 0.20477(14)
H6 H 0.8456(6) -0.8735(7) 0.16945(14)
H7 H 0.7351(6) -1.0662(7) 0.20923(14)
C9 C 1.2231(6) -1.4361(7) 0.1211(2)
H8 H 1.3666(6) -1.3438(7) 0.1189(2)
H9 H 1.2556(6) -1.5410(7) 0.1564(2)
O4 O 0.6186(4) -0.6332(5) 0.24018(11)
C10 C 1.0771(5) -1.1383(6) 0.19371(14)
H10 H 1.1058(5) -1.2453(6) 0.22869(14)
H11 H 1.2229(5) -1.0491(6) 0.19186(14)
C11 C 1.0218(6) -1.2758(6) 0.13347(14)
H12 H 0.8775(6) -1.3668(6) 0.13570(14)
H13 H 0.9901(6) -1.1685(6) 0.09865(14)
C12 C 1.1775(7) -1.5781(7) 0.0624(2)
H14 H 1.1525(7) -1.4739(7) 0.0267(2)
H15 H 1.0309(7) -1.6665(7) 0.0636(2)
C13 C 1.3779(7) -1.7431(8) 0.0529(2)
H16 H 1.3392(28) -1.8247(43) 0.0140(8)
H17 H 1.3982(40) -1.8526(36) 0.0868(9)
H18 H 1.5242(15) -1.6574(10) 0.0517(16)
#END
