
#######################################################################
#
#                 Cambridge Crystallographic Data Centre
#                                CCDC
#
#######################################################################
#
# If this CIF has been generated from an entry in the Cambridge
# Structural Database, then it will include bibliographic, chemical,
# crystal, experimental, refinement or atomic coordinate data resulting
# from the CCDC's data processing and validation procedures.
#
#######################################################################

data_CSD_CIF_WOVROO
_audit_creation_date 2001-03-23
_audit_creation_method CSD-ConQuest-V1
_database_code_CSD WOVROO
_database_code_depnum_ccdc_archive 'CCDC 158248'
_chemical_formula_sum 'C11 H12 N2 O2'
_chemical_formula_moiety
;
C11 H12 N2 O2
;
_journal_coeditor_code "IUCr GD1087"
_journal_coden_Cambridge 591
_journal_volume 57
_journal_year 2001
_journal_page_first 58
_journal_name_full 'Acta Crystallogr.,Sect.C:Cryst.Struct.Commun. '
loop_
_publ_author_name
"R.W.Janes"
"B.S.Potter"
"M.A.Naylor"
"A.C.Ferguson"
"K.B.Patel"
"M.R.L.Stratford"
"P.Wardman"
"S.A.Everett"
_chemical_name_systematic
;
(E)-5-Methoxy-1-methylindole-3-carboxaldehyde oxime
;
_cell_volume   2125.017
_exptl_crystal_colour 'colorless'
_exptl_crystal_density_diffrn 1.277
_exptl_crystal_description 'needle'
_exptl_crystal_preparation 'methanol'
_diffrn_ambient_temperature ?
_diffrn_special_details
;
The study was carried out at room temperature,in the range 283-303K

;
#These two values have been output from a single CSD field.
_refine_ls_R_factor_gt 0.054
_refine_ls_wR_factor_gt 0.054
_symmetry_cell_setting triclinic
_symmetry_space_group_name_H-M 'P -1'
_symmetry_Int_Tables_number 2
loop_
_symmetry_equiv_pos_site_id
_symmetry_equiv_pos_as_xyz
1 x,y,z
2 -x,-y,-z
_cell_length_a 8.2351(2)
_cell_length_b 15.8892(7)
_cell_length_c 17.8070(11)
_cell_angle_alpha 71.148(4)
_cell_angle_beta 81.245(4)
_cell_angle_gamma 75.124(3)
_cell_formula_units_Z 8
loop_
_atom_type_symbol
_atom_type_radius_bond
C 0.68
H 0.23
N 0.68
O 0.68
loop_
_atom_site_label
_atom_site_type_symbol
_atom_site_fract_x
_atom_site_fract_y
_atom_site_fract_z
C1 C 0.2798(6) 0.1015(3) 0.4897(3)
H1 H 0.38360 0.05630 0.49340
H2 H 0.21090 0.08700 0.53860
H3 H 0.30340 0.16030 0.48000
O1 O 0.1958(4) 0.1026(2) 0.4281(2)
C2 C 0.0366(4) 0.1559(2) 0.4164(2)
C3 C -0.0627(5) 0.1364(3) 0.3692(2)
H4 H -0.01950 0.08740 0.34880
C4 C -0.2192(4) 0.1869(2) 0.3529(2)
H5 H -0.28320 0.17410 0.32090
C5 C -0.2818(3) 0.25848(19) 0.38517(16)
C6 C -0.1856(3) 0.27979(16) 0.43241(14)
C7 C -0.0234(3) 0.22759(18) 0.44775(16)
H6 H 0.04260 0.24090 0.47850
N1 N -0.4375(3) 0.31834(18) 0.37950(15)
C8 C -0.5717(4) 0.3209(3) 0.3337(2)
H7 H -0.59700 0.26160 0.34910
H8 H -0.53620 0.33820 0.27800
H9 H -0.67060 0.36440 0.34390
C9 C -0.4403(3) 0.37657(19) 0.42097(17)
H10 H -0.53140 0.42370 0.42590
C10 C -0.2913(3) 0.35703(16) 0.45472(14)
C11 C -0.2581(3) 0.40740(18) 0.50208(15)
H11 H -0.34470 0.45370 0.51280
N2 N -0.1175(3) 0.39278(15) 0.53043(13)
O2 O -0.1247(3) 0.45155(15) 0.57653(14)
H12 H -0.03180 0.44260 0.59270
C12 C -0.1246(4) 0.6800(2) 0.7871(2)
H13 H -0.23650 0.71190 0.77250
H14 H -0.04850 0.72000 0.76450
H15 H -0.12320 0.66000 0.84400
O3 O -0.0736(2) 0.60327(14) 0.75792(13)
C13 C 0.0913(3) 0.55582(18) 0.76276(16)
C14 C 0.1995(3) 0.5649(2) 0.81181(16)
H16 H 0.16020 0.60510 0.84200
C15 C 0.3620(3) 0.5155(2) 0.81580(16)
H17 H 0.43350 0.52130 0.84870
C16 C 0.4180(3) 0.45656(17) 0.76965(15)
C17 C 0.3107(3) 0.44605(16) 0.72031(13)
C18 C 0.1459(3) 0.49641(16) 0.71765(14)
H18 H 0.07280 0.49020 0.68580
N3 N 0.5759(2) 0.40192(16) 0.76053(13)
C19 C 0.7229(4) 0.3936(3) 0.8009(2)
H19 H 0.70680 0.36110 0.85620
H20 H 0.73780 0.45320 0.79570
H21 H 0.82110 0.36080 0.77740
C20 C 0.5697(3) 0.35883(18) 0.70716(15)
H22 H 0.66070 0.31840 0.69080
C21 C 0.4124(3) 0.38231(17) 0.68027(14)
C22 C 0.3709(3) 0.34638(18) 0.62310(14)
H23 H 0.45590 0.30580 0.60360
N4 N 0.2261(3) 0.36631(15) 0.59734(12)
O4 O 0.2258(3) 0.31724(14) 0.54326(12)
H24 H 0.13240 0.33150 0.52630
C23 C 0.6215(5) 0.1051(3) 0.60024(19)
H25 H 0.53130 0.08370 0.58940
H26 H 0.72750 0.06790 0.58780
H27 H 0.61550 0.16730 0.56820
O5 O 0.6066(3) 0.10007(16) 0.68205(11)
C24 C 0.7317(3) 0.11950(18) 0.71208(14)
C25 C 0.8627(3) 0.1562(2) 0.66456(14)
H28 H 0.86960 0.16660 0.60980
C26 C 0.9813(3) 0.1772(2) 0.69749(13)
H29 H 1.06830 0.20200 0.66570
C27 C 0.9686(3) 0.16068(17) 0.77920(12)
C28 C 0.8380(3) 0.12268(16) 0.82832(11)
C29 C 0.7185(3) 0.10269(16) 0.79368(12)
H30 H 0.63060 0.07830 0.82490
N5 N 1.0707(3) 0.17415(16) 0.82718(12)
C30 C 1.2178(4) 0.2135(2) 0.80034(19)
H31 H 1.18380 0.27620 0.76950
H32 H 1.29480 0.18040 0.76810
H33 H 1.27220 0.21000 0.84560
C31 C 1.0085(3) 0.14496(18) 0.90371(13)
H34 H 1.05560 0.14700 0.94720
C32 C 0.8684(3) 0.11230(17) 0.90879(12)
C33 C 0.7832(3) 0.07139(18) 0.98329(13)
H35 H 0.82110 0.07080 1.03010
N6 N 0.6586(3) 0.03604(14) 0.98809(11)
O6 O 0.6038(3) -0.00210(16) 1.06859(10)
H36 H 0.51820 -0.02030 1.07040
C34 C 0.6362(7) 0.0596(3) 1.2327(2)
H37 H 0.52330 0.05620 1.25450
H38 H 0.70960 0.03950 1.27510
H39 H 0.67310 0.02120 1.19860
O7 O 0.6403(3) 0.15132(15) 1.18796(14)
C35 C 0.7878(4) 0.17145(18) 1.14763(17)
C36 C 0.9437(4) 0.11039(19) 1.15949(19)
H40 H 0.94980 0.05250 1.19560
C37 C 1.0876(4) 0.13441(18) 1.11874(19)
H41 H 1.19140 0.09350 1.12670
C38 C 1.0755(3) 0.22120(16) 1.06515(16)
C39 C 0.9186(3) 0.28396(15) 1.05226(14)
C40 C 0.7749(3) 0.25784(16) 1.09412(15)
H42 H 0.67040 0.29800 1.08640
N7 N 1.1984(3) 0.26227(17) 1.01692(16)
C41 C 1.3792(3) 0.2233(3) 1.0141(3)
H43 H 1.40020 0.16520 1.00460
H44 H 1.42110 0.21550 1.06390
H45 H 1.43530 0.26350 0.97200
C42 C 1.1243(3) 0.34815(18) 0.97538(18)
H46 H 1.18150 0.38950 0.93900
C43 C 0.9544(3) 0.36572(15) 0.99418(15)
C44 C 0.8455(3) 0.45320(15) 0.96149(16)
H47 H 0.89220 0.49830 0.92380
N8 N 0.6890(3) 0.47187(13) 0.98148(13)
O8 O 0.6150(2) 0.56374(12) 0.94160(14)
H48 H 0.51350 0.57400 0.95410
#END
