
#######################################################################
#
#                 Cambridge Crystallographic Data Centre
#                                CCDC
#
#######################################################################
#
# If this CIF has been generated from an entry in the Cambridge
# Structural Database, then it will include bibliographic, chemical,
# crystal, experimental, refinement or atomic coordinate data resulting
# from the CCDC's data processing and validation procedures.
#
#######################################################################

data_CSD_CIF_WOVRII
_audit_creation_date 2001-03-23
_audit_creation_method CSD-ConQuest-V1
_database_code_CSD WOVRII
_database_code_depnum_ccdc_archive 'CCDC 158247'
_chemical_formula_sum 'C10 H10 N2 O1'
_chemical_formula_moiety
;
C10 H10 N2 O1
;
_journal_coeditor_code "IUCr GD1087"
_journal_coden_Cambridge 591
_journal_volume 57
_journal_year 2001
_journal_page_first 58
_journal_name_full 'Acta Crystallogr.,Sect.C:Cryst.Struct.Commun. '
loop_
_publ_author_name
"R.W.Janes"
"B.S.Potter"
"M.A.Naylor"
"A.C.Ferguson"
"K.B.Patel"
"M.R.L.Stratford"
"P.Wardman"
"S.A.Everett"
_chemical_name_systematic
;
cis-1-Methylindole-3-carboxaldehyde oxime
;
_cell_volume    898.516
_exptl_crystal_colour 'colorless'
_exptl_crystal_density_diffrn 1.288
_exptl_crystal_description 'needle'
_exptl_crystal_preparation 'methanol'
_diffrn_ambient_temperature ?
_diffrn_special_details
;
The study was carried out at room temperature,in the range 283-303K

;
#These two values have been output from a single CSD field.
_refine_ls_R_factor_gt 0.049
_refine_ls_wR_factor_gt 0.049
_symmetry_cell_setting monoclinic
_symmetry_space_group_name_H-M 'P 21'
_symmetry_Int_Tables_number 4
loop_
_symmetry_equiv_pos_site_id
_symmetry_equiv_pos_as_xyz
1 x,y,z
2 -x,1/2+y,-z
_cell_length_a 13.462(4)
_cell_length_b 5.079(4)
_cell_length_c 14.127(4)
_cell_angle_alpha 90
_cell_angle_beta 111.53(4)
_cell_angle_gamma 90
_cell_formula_units_Z 4
loop_
_atom_type_symbol
_atom_type_radius_bond
C 0.68
H 0.23
N 0.68
O 0.68
loop_
_atom_site_label
_atom_site_type_symbol
_atom_site_fract_x
_atom_site_fract_y
_atom_site_fract_z
C1 C 0.5915(4) -0.0522(12) 0.4021(4)
H1 H 0.61740 -0.18590 0.44980
C2 C 0.5035(5) 0.0968(12) 0.4003(4)
H2 H 0.47270 0.06120 0.44810
C3 C 0.4612(4) 0.2920(11) 0.3312(4)
H3 H 0.40190 0.38810 0.33000
C4 C 0.5111(4) 0.3404(10) 0.2627(3)
C5 C 0.5993(4) 0.1984(11) 0.2623(3)
C6 C 0.6398(4) -0.0019(11) 0.3337(3)
H4 H 0.69870 -0.09980 0.33490
N1 N 0.4862(3) 0.5222(9) 0.1848(3)
C7 C 0.3985(4) 0.7108(13) 0.1589(4)
H5 H 0.33180 0.61800 0.13560
H6 H 0.40150 0.82580 0.10610
H7 H 0.40460 0.81280 0.21800
C8 C 0.5579(4) 0.4987(12) 0.1386(4)
H8 H 0.55820 0.60180 0.08430
C9 C 0.6292(4) 0.3043(11) 0.1822(4)
C10 C 0.7159(4) 0.2069(12) 0.1558(4)
H9 H 0.74190 0.04290 0.18300
N2 N 0.7636(4) 0.3104(10) 0.1005(3)
O1 O 0.7183(3) 0.5535(8) 0.0633(3)
H10 H 0.75470 0.62820 0.03590
C11 C 0.2078(5) -0.0388(13) 0.4410(4)
H11 H 0.25020 -0.17420 0.47930
C12 C 0.1470(5) 0.1116(14) 0.4822(4)
H12 H 0.15020 0.07580 0.54780
C13 C 0.0828(4) 0.3106(12) 0.4281(4)
H13 H 0.04260 0.41100 0.45590
C14 C 0.0796(4) 0.3584(11) 0.3296(4)
C15 C 0.1405(4) 0.2096(11) 0.2868(3)
C16 C 0.2059(4) 0.0100(12) 0.3445(4)
H14 H 0.24780 -0.08910 0.31820
N3 N 0.0238(3) 0.5404(9) 0.2585(3)
C17 C -0.0516(4) 0.7270(13) 0.2715(4)
H15 H -0.11320 0.63450 0.27280
H16 H -0.07280 0.84980 0.21600
H17 H -0.01860 0.82030 0.33440
C18 C 0.0479(4) 0.5174(12) 0.1741(4)
H18 H 0.01990 0.62160 0.11620
C19 C 0.1203(4) 0.3157(12) 0.1870(3)
C20 C 0.1646(4) 0.2138(12) 0.1169(4)
H19 H 0.19410 0.04670 0.13340
N4 N 0.1714(3) 0.3096(9) 0.0351(3)
O2 O 0.1212(3) 0.5558(8) 0.0115(3)
H20 H 0.14020 0.63070 -0.03040
#END
