
#######################################################################
#
#                 Cambridge Crystallographic Data Centre
#                                CCDC
#
#######################################################################
#
# If this CIF has been generated from an entry in the Cambridge
# Structural Database, then it will include bibliographic, chemical,
# crystal, experimental, refinement or atomic coordinate data resulting
# from the CCDC's data processing and validation procedures.
#
#######################################################################

data_CSD_CIF_WOVXUA
_audit_creation_date 2001-03-23
_audit_creation_method CSD-ConQuest-V1
_database_code_CSD WOVXUA
_database_code_depnum_ccdc_archive 'CCDC 158274'
_chemical_formula_sum 'C12 H9 N5 O2'
_chemical_formula_moiety
;
C12 H9 N5 O2
;
_journal_coeditor_code "IUCr DE1151"
_journal_coden_Cambridge 591
_journal_volume 57
_journal_year 2001
_journal_page_first 106
_journal_name_full 'Acta Crystallogr.,Sect.C:Cryst.Struct.Commun. '
loop_
_publ_author_name
"M.Kubicki"
"T.Borowiak"
"J.Suwinski"
"P.Wagner"
_chemical_name_systematic
;
4'-Nitro-1-phenyl-4,1'-bi-imidazole
;
_chemical_melting_point 482.15
_cell_volume   1131.866
_exptl_crystal_colour 'colorless'
_exptl_crystal_density_diffrn 1.498
_exptl_special_details
;
Melting point range 482.15-484.15K

;
_exptl_crystal_description 'plate'
_exptl_crystal_preparation 'methanol'
_diffrn_ambient_temperature ?
_diffrn_special_details
;
The study was carried out at room temperature,in the range 283-303K

;
#These two values have been output from a single CSD field.
_refine_ls_R_factor_gt 0.0456
_refine_ls_wR_factor_gt 0.0456
_symmetry_cell_setting monoclinic
_symmetry_space_group_name_H-M 'P 21/c'
_symmetry_Int_Tables_number 14
loop_
_symmetry_equiv_pos_site_id
_symmetry_equiv_pos_as_xyz
1 x,y,z
2 x,1/2-y,1/2+z
3 -x,-y,-z
4 -x,-1/2+y,-1/2-z
_cell_length_a 14.143(3)
_cell_length_b 3.888(1)
_cell_length_c 20.660(4)
_cell_angle_alpha 90
_cell_angle_beta 94.92(3)
_cell_angle_gamma 90
_cell_formula_units_Z 4
loop_
_atom_type_symbol
_atom_type_radius_bond
C 0.68
H 0.23
N 0.68
O 0.68
loop_
_atom_site_label
_atom_site_type_symbol
_atom_site_fract_x
_atom_site_fract_y
_atom_site_fract_z
N1 N 0.23611(11) 0.0437(4) 0.39758(7)
N2 N 0.01115(11) -0.3600(4) 0.37315(7)
C1 C -0.13052(14) -0.5578(6) 0.36235(9)
N3 N -0.09174(13) -0.6482(4) 0.30671(8)
C2 C 0.09675(15) -0.1879(5) 0.39356(10)
C3 C 0.16838(15) -0.1183(6) 0.35678(11)
N4 N 0.11439(13) -0.0749(5) 0.45543(8)
N5 N -0.22617(13) -0.6559(5) 0.37163(10)
C4 C 0.32471(14) 0.1763(5) 0.38106(10)
C5 C -0.06947(15) -0.3834(6) 0.40436(11)
O1 O -0.26021(10) -0.5573(5) 0.42069(8)
C6 C 0.19943(18) 0.0634(6) 0.45584(11)
C7 C -0.00587(18) -0.5220(6) 0.31513(10)
O2 O -0.26964(12) -0.8270(5) 0.32952(9)
C8 C 0.33392(17) 0.2862(6) 0.31788(11)
C9 C 0.40009(17) 0.1998(6) 0.42756(12)
C10 C 0.49497(19) 0.4421(7) 0.34865(14)
C11 C 0.41958(18) 0.4194(6) 0.30233(13)
C12 C 0.48545(19) 0.3308(7) 0.41093(15)
H1 H 0.3937(15) 0.111(5) 0.4708(11)
H2 H 0.2321(13) 0.173(5) 0.4928(9)
H3 H 0.1734(13) -0.159(5) 0.3134(10)
H4 H -0.0762(13) -0.283(5) 0.4459(10)
H5 H 0.0414(14) -0.534(5) 0.2846(9)
H6 H 0.2758(15) 0.271(5) 0.2842(10)
H7 H 0.5522(16) 0.532(6) 0.3366(10)
H8 H 0.4236(15) 0.500(6) 0.2571(11)
H9 H 0.5351(16) 0.347(5) 0.4434(11)
#END
