
#######################################################################
#
#                 Cambridge Crystallographic Data Centre
#                                CCDC
#
#######################################################################
#
# If this CIF has been generated from an entry in the Cambridge
# Structural Database, then it will include bibliographic, chemical,
# crystal, experimental, refinement or atomic coordinate data resulting
# from the CCDC's data processing and validation procedures.
#
#######################################################################

data_CSD_CIF_WOXXAK
_audit_creation_date 2015-01-20
_audit_creation_method CSD-ConQuest-V1
_database_code_CSD WOXXAK
_database_code_depnum_ccdc_archive 'CCDC 1032443'
_chemical_formula_sum 'C24 H26 N8 O2'
_chemical_formula_moiety
;
C24 H26 N8 O2
;
_journal_coden_Cambridge 151
_journal_volume 58
_journal_year 2015
_journal_page_first 1669
_journal_name_full 'J.Med.Chem. '
loop_
_publ_author_name
"H.Takahashi"
"D.Riether"
"A.Bartolozzi"
"T.Bosanac"
"V.Berger"
"R.Binetti"
"J.Broadwater"
"Zhidong Chen"
"R.Crux"
"S.De Lombaert"
"R.Dave"
"J.A.Dines"
"T.Fadra-Khan"
"A.Flegg"
"M.Garrigou"
"Ming-Hong Hao"
"J.Huber"
"J.Matthew Hutzler"
"S.Kerr"
"A.Kotey"
"Weimin Liu"
"Ho Yin Lo"
"Pui Leng Loke"
"P.E.Mahaney"
"T.M.Morwick"
"S.Napier"
"A.Olague"
"E.Pack"
"A.K.Padyana"
"D.S.Thomson"
"H.Tye"
"Lifen Wu"
"R.M.Zindell"
"A.Abeywardane"
"T.Simpson"
_chemical_name_systematic
;
2-(4-(3-(1-(4-(2-aminopyrimidin-5-yl)phenyl)-1-cyclopropylethyl)-1,2,4-oxadiaz
ol-5-yl)-1H-pyrazol-1-yl)-N,N-dimethylacetamide
;
_cell_volume   2237.324
_exptl_crystal_density_diffrn 1.361
_diffrn_ambient_temperature 100
#These two values have been output from a single CSD field.
_refine_ls_R_factor_gt 0.0236
_refine_ls_wR_factor_gt 0.0236
_symmetry_cell_setting orthorhombic
_symmetry_space_group_name_H-M 'P 21 21 21'
_symmetry_Int_Tables_number 19
loop_
_symmetry_equiv_pos_site_id
_symmetry_equiv_pos_as_xyz
1 x,y,z
2 1/2+x,1/2-y,-z
3 -x,1/2+y,1/2-z
4 1/2-x,-y,1/2+z
_cell_length_a 8.7331(4)
_cell_length_b 9.5640(4)
_cell_length_c 26.7868(12)
_cell_angle_alpha 90
_cell_angle_beta 90
_cell_angle_gamma 90
_cell_formula_units_Z 4
loop_
_atom_type_symbol
_atom_type_radius_bond
C 0.68
H 0.23
N 0.68
O 0.68
loop_
_atom_site_label
_atom_site_type_symbol
_atom_site_fract_x
_atom_site_fract_y
_atom_site_fract_z
O1 O 0.78375(11) 0.16878(10) -0.00242(3)
O2 O 0.54761(11) 0.51021(10) 0.16246(3)
N1 N 0.61479(13) 0.06671(12) -0.05469(4)
N2 N 0.59747(12) 0.15100(11) 0.07919(4)
N3 N 0.75632(13) 0.45393(11) 0.20511(4)
N4 N 0.91639(13) 0.42087(12) 0.53543(4)
N5 N 0.85302(15) 0.23850(12) 0.58727(4)
H1 H 0.817(2) 0.1564(12) 0.5925(6)
H2 H 0.896(2) 0.2848(17) 0.6110(5)
N6 N 0.67188(13) 0.06892(12) 0.11259(4)
N7 N 0.58024(13) 0.62489(11) 0.19406(4)
N8 N 0.77538(14) 0.22340(11) 0.50555(4)
C1 C 0.46546(16) 0.00466(18) -0.06450(5)
H3 H 0.46810 -0.09500 -0.05610
H4 H 0.44010 0.01570 -0.09990
H5 H 0.38770 0.05160 -0.04410
C2 C 0.65899(15) 0.11373(13) -0.00987(5)
C3 C 0.54195(15) 0.09621(14) 0.03208(5)
H6 H 0.44630 0.14530 0.02280
H7 H 0.51770 -0.00430 0.03610
C4 C 0.58273(15) 0.28234(14) 0.09471(5)
H8 H 0.53460 0.35670 0.07720
C5 C 0.65111(15) 0.28977(14) 0.14123(5)
C6 C 0.65881(15) 0.41507(13) 0.17120(5)
C7 C 0.70320(15) 0.58633(13) 0.21786(4)
C8 C 0.77987(15) 0.68244(13) 0.25489(5)
C9 C 0.79534(14) 0.60854(13) 0.30547(5)
C10 C 0.68599(15) 0.51348(15) 0.32172(5)
H9 H 0.60330 0.48960 0.30030
C11 C 0.69539(16) 0.45298(14) 0.36853(5)
H10 H 0.61830 0.38910 0.37890
C12 C 0.81597(15) 0.48399(13) 0.40087(5)
C13 C 0.82883(14) 0.41608(13) 0.45048(5)
C14 C 0.90562(16) 0.47751(14) 0.49035(5)
H11 H 0.95330 0.56550 0.48500
C15 C 0.84834(15) 0.29572(14) 0.54130(5)
C16 C 0.72864(17) 0.06292(17) -0.09464(5)
H12 H 0.75290 0.15860 -0.10510
H13 H 0.68750 0.01060 -0.12310
H14 H 0.82180 0.01700 -0.08250
C17 C 0.70365(15) 0.15339(14) 0.15039(5)
H15 H 0.75540 0.12530 0.17990
C18 C 0.76717(16) 0.28520(14) 0.46105(5)
H16 H 0.71610 0.23690 0.43490
C19 C 0.92430(15) 0.58056(14) 0.38485(5)
H17 H 1.00700 0.60480 0.40620
C20 C 0.91324(16) 0.64192(14) 0.33807(5)
H18 H 0.98810 0.70840 0.32810
C21 C 0.67818(16) 0.81312(14) 0.26195(5)
H19 H 0.67000 0.86350 0.23020
H20 H 0.72410 0.87450 0.28710
H21 H 0.57590 0.78430 0.27300
C22 C 0.93482(15) 0.73339(14) 0.23503(5)
H22 H 0.97980 0.81130 0.25520
C23 C 0.96776(17) 0.74518(15) 0.18023(5)
H23 H 1.02450 0.82860 0.16850
H24 H 0.88980 0.70930 0.15660
C24 C 1.05273(16) 0.64057(15) 0.21176(5)
H25 H 1.02700 0.54050 0.20750
H26 H 1.16170 0.65980 0.21940
#END
