
#######################################################################
#
#                 Cambridge Crystallographic Data Centre
#                                CCDC
#
#######################################################################
#
# If this CIF has been generated from an entry in the Cambridge
# Structural Database, then it will include bibliographic, chemical,
# crystal, experimental, refinement or atomic coordinate data resulting
# from the CCDC's data processing and validation procedures.
#
#######################################################################

data_CSD_CIF_WUBGOP
_audit_creation_date 2002-11-22
_audit_creation_method CSD-ConQuest-V1
_database_code_CSD WUBGOP
_database_code_depnum_ccdc_archive 'CCDC 193784'
_chemical_formula_sum 'C9 H12 N6 O5'
_chemical_formula_moiety
;
C9 H12 N6 O5
;
_journal_coeditor_code "IUCr BT6170"
_journal_coden_Cambridge 1370
_journal_volume 58
_journal_year 2002
_journal_page_first o942
_journal_name_full 'Acta Crystallogr.,Sect.E:Struct.Rep.Online '
loop_
_publ_author_name
"J.N.Low"
"A.Quesada"
"C.Glidewell"
"M.A.Fontecha"
"P.Arranz"
"M.L.Godino"
"R.Lopez"
_chemical_name_systematic
;
N-(6-Amino-3,4-dihydro-3-methyl-5-nitroso-4-oxopyrimidin-2-yl)glycylglycine
;
_chemical_name_common
;
PEPSEQ A=2 GLY*-GLY
;
_cell_volume    570.875
_exptl_crystal_colour 'pink'
_exptl_crystal_density_diffrn 1.654
_exptl_crystal_description 'lath'
_exptl_crystal_preparation 'water'
_diffrn_ambient_temperature 150.0
#These two values have been output from a single CSD field.
_refine_ls_R_factor_gt 0.0444
_refine_ls_wR_factor_gt 0.0444
_symmetry_cell_setting triclinic
_symmetry_space_group_name_H-M 'P -1'
_symmetry_Int_Tables_number 2
loop_
_symmetry_equiv_pos_site_id
_symmetry_equiv_pos_as_xyz
1 x,y,z
2 -x,-y,-z
_cell_length_a 7.4727(6)
_cell_length_b 8.2356(4)
_cell_length_c 9.6678(8)
_cell_angle_alpha 81.208(5)
_cell_angle_beta 88.722(3)
_cell_angle_gamma 76.169(4)
_cell_formula_units_Z 2
loop_
_atom_type_symbol
_atom_type_radius_bond
C 0.68
H 0.23
N 0.68
O 0.68
loop_
_atom_site_label
_atom_site_type_symbol
_atom_site_fract_x
_atom_site_fract_y
_atom_site_fract_z
N1 N 0.05280(18) 0.18922(17) 0.89256(15)
C1 C -0.0767(2) 0.14057(19) 0.82871(17)
N2 N -0.03039(19) 0.06320(17) 0.71766(15)
O1 O 0.19347(18) 0.13079(15) 0.42403(13)
C2 C 0.1581(2) 0.0233(2) 0.66617(19)
C3 C 0.1881(2) 0.1563(2) 0.54673(18)
C4 C 0.2292(2) 0.4355(2) 0.46741(18)
N3 N 0.20505(19) 0.30442(17) 0.57857(15)
C5 C 0.4118(2) 0.3857(2) 0.39476(18)
O2 O 0.40469(17) 0.46401(16) 0.26383(13)
O3 O 0.54798(17) 0.29061(15) 0.45079(13)
N4 N -0.25716(18) 0.16244(16) 0.87142(14)
C6 C -0.3936(2) 0.1091(2) 0.79169(19)
C7 C -0.3177(2) 0.2441(2) 0.98567(18)
O4 O -0.47819(17) 0.26204(16) 1.02333(14)
C8 C -0.1799(2) 0.3025(2) 1.05510(17)
N5 N -0.24506(19) 0.38923(17) 1.15932(15)
O5 O -0.13407(17) 0.44616(16) 1.22710(13)
C9 C 0.0068(2) 0.26640(19) 1.00554(18)
N6 N 0.13781(19) 0.30838(18) 1.07150(15)
H1 H -0.11700 0.03470 0.67320
H2 H 0.18380 -0.08820 0.63370
H3 H 0.24550 0.01570 0.74370
H4 H 0.22360 0.54090 0.50650
H5 H 0.12730 0.45840 0.39810
H6 H 0.20150 0.32170 0.66630
H7 H 0.53410 0.42050 0.22090
H8 H -0.39880 0.16550 0.69440
H9 H -0.51520 0.14030 0.83370
H10 H -0.35740 -0.01380 0.79400
H11 H 0.25170 0.28570 1.04120
H12 H 0.11130 0.35900 1.14580
#END
