
#######################################################################
#
#                 Cambridge Crystallographic Data Centre
#                                CCDC
#
#######################################################################
#
# If this CIF has been generated from an entry in the Cambridge
# Structural Database, then it will include bibliographic, chemical,
# crystal, experimental, refinement or atomic coordinate data resulting
# from the CCDC's data processing and validation procedures.
#
#######################################################################

data_CSD_CIF_WUCQER
_audit_creation_date 2010-06-17
_audit_creation_method CSD-ConQuest-V1
_database_code_CSD WUCQER
_database_code_depnum_ccdc_archive 'CCDC 727369'
_chemical_formula_sum 'C24 H19 N1 O6'
_chemical_formula_moiety
;
C24 H19 N1 O6
;
_journal_coden_Cambridge 16
_journal_volume 65
_journal_year 2009
_journal_page_first 9146
_journal_name_full 'Tetrahedron '
loop_
_publ_author_name
"Shaojin Chen"
"Jun Ren"
"Zhongwen Wang"
_chemical_name_systematic
;
Dimethyl 4-benzoyl-3-(1-naphthyl)-1,2-oxazole-5,5(4H)-dicarboxylate
;
_cell_volume   4045.822
_exptl_crystal_density_diffrn 1.371
_diffrn_ambient_temperature 113
#These two values have been output from a single CSD field.
_refine_ls_R_factor_gt 0.0449
_refine_ls_wR_factor_gt 0.0449
_symmetry_cell_setting monoclinic
_symmetry_space_group_name_H-M 'P 21/c'
_symmetry_Int_Tables_number 14
loop_
_symmetry_equiv_pos_site_id
_symmetry_equiv_pos_as_xyz
1 x,y,z
2 -x,1/2+y,1/2-z
3 -x,-y,-z
4 x,-1/2-y,-1/2+z
_cell_length_a 30.427(6)
_cell_length_b 8.4707(17)
_cell_length_c 15.705(3)
_cell_angle_alpha 90
_cell_angle_beta 91.78(3)
_cell_angle_gamma 90
_cell_formula_units_Z 8
loop_
_atom_type_symbol
_atom_type_radius_bond
C 0.68
H 0.23
N 0.68
O 0.68
loop_
_atom_site_label
_atom_site_type_symbol
_atom_site_fract_x
_atom_site_fract_y
_atom_site_fract_z
O1 O 0.38514(4) 0.22433(13) 0.55514(7)
O2 O 0.47107(3) 0.35577(13) 0.68394(7)
O3 O 0.46943(4) 0.08996(14) 0.67760(8)
O4 O 0.45851(3) 0.27227(13) 0.86895(7)
O5 O 0.40582(4) 0.45594(14) 0.84738(7)
O6 O 0.39957(3) 0.08320(13) 0.78088(7)
O7 O 0.11460(4) 0.27239(13) 0.94219(7)
O8 O 0.03276(4) 0.42642(13) 0.82031(7)
O9 O 0.02765(3) 0.16134(13) 0.81124(7)
O10 O 0.08996(4) 0.05281(14) 0.64920(7)
O11 O 0.04234(3) 0.25340(13) 0.62764(7)
O12 O 0.10440(3) 0.42387(12) 0.72018(7)
N1 N 0.35618(4) 0.04774(15) 0.75218(8)
N2 N 0.14825(4) 0.44766(16) 0.75199(8)
C1 C 0.38517(5) 0.5339(2) 0.48916(10)
H1 H 0.38070 0.45260 0.45000
C2 C 0.39039(5) 0.6871(2) 0.46100(12)
H2 H 0.38870 0.70920 0.40300
C3 C 0.39807(5) 0.8080(2) 0.51900(12)
H3 H 0.40180 0.91080 0.49970
C4 C 0.40026(5) 0.7768(2) 0.60516(12)
H4 H 0.40590 0.85820 0.64370
C5 C 0.39409(5) 0.62379(19) 0.63453(11)
H5 H 0.39500 0.60330 0.69270
C6 C 0.38654(5) 0.50080(18) 0.57668(10)
C7 C 0.38180(5) 0.33510(18) 0.60429(10)
C8 C 0.37238(5) 0.29849(18) 0.69788(9)
H6 H 0.36060 0.39230 0.72570
C9 C 0.41244(5) 0.23496(17) 0.74956(10)
C10 C 0.45446(5) 0.21379(18) 0.69867(10)
C11 C 0.51363(6) 0.3607(2) 0.64467(12)
H7 H 0.53570 0.31940 0.68370
H8 H 0.52070 0.46780 0.63070
H9 H 0.51270 0.29800 0.59370
C12 C 0.42445(5) 0.33763(19) 0.82764(10)
C13 C 0.47548(6) 0.3566(2) 0.94303(10)
H10 H 0.47950 0.46570 0.92880
H11 H 0.50320 0.31170 0.96130
H12 H 0.45500 0.34820 0.98810
C14 C 0.34072(5) 0.16099(18) 0.70567(9)
C15 C 0.29591(5) 0.16265(18) 0.6675(1)
C16 C 0.27999(5) 0.30464(19) 0.63598(10)
H13 H 0.29820 0.39280 0.63880
C17 C 0.23751(5) 0.3208(2) 0.59996(11)
H14 H 0.22800 0.41820 0.57920
C18 C 0.21020(5) 0.1931(2) 0.59554(11)
H15 H 0.18210 0.20360 0.57120
C19 C 0.22431(5) 0.0447(2) 0.62774(10)
C20 C 0.19511(5) -0.0858(2) 0.62623(11)
H16 H 0.16690 -0.07380 0.60250
C21 C 0.20759(6) -0.2284(2) 0.65894(12)
H17 H 0.18780 -0.31190 0.65910
C22 C 0.25051(6) -0.2487(2) 0.69237(11)
H18 H 0.25910 -0.34680 0.71360
C23 C 0.27990(5) -0.12611(19) 0.69418(10)
H19 H 0.30830 -0.14270 0.71570
C24 C 0.26765(5) 0.02551(19) 0.6638(1)
C25 C 0.11270(5) -0.0373(2) 1.00777(10)
H20 H 0.11790 0.04340 1.04700
C26 C 0.10656(5) -0.1901(2) 1.03585(11)
H21 H 0.10800 -0.21240 1.09390
C27 C 0.09820(5) -0.3104(2) 0.97760(12)
H22 H 0.09420 -0.41310 0.99670
C28 C 0.09576(5) -0.27807(19) 0.89122(12)
H23 H 0.08950 -0.35860 0.85250
C29 C 0.10268(5) -0.12571(19) 0.86236(10)
H24 H 0.10170 -0.10460 0.80420
C30 C 0.11117(5) -0.00383(18) 0.92044(10)
C31 C 0.11712(5) 0.16111(18) 0.8931(1)
C32 C 0.12683(5) 0.19748(18) 0.79951(9)
H25 H 0.13710 0.10240 0.77060
C33 C 0.08842(5) 0.27366(17) 0.74848(9)
C34 C 0.04647(5) 0.30052(18) 0.79864(9)
C35 C -0.01581(6) 0.1623(2) 0.84696(12)
H26 H -0.01740 0.24460 0.88880
H27 H -0.02130 0.06230 0.87330
H28 H -0.03750 0.18060 0.80240
C36 C 0.07452(5) 0.17709(19) 0.66908(10)
C37 C 0.02318(6) 0.1737(2) 0.55371(10)
H29 H 0.04460 0.16670 0.51030
H30 H -0.00190 0.23220 0.53240
H31 H 0.01410 0.06940 0.56950
C38 C 0.16090(5) 0.32728(18) 0.79570(9)
C39 C 0.20492(5) 0.31378(19) 0.83728(9)
C40 C 0.22433(5) 0.16702(19) 0.84032(10)
H32 H 0.20890 0.08050 0.81850
C41 C 0.26702(5) 0.1448(2) 0.87571(10)
H33 H 0.27970 0.04490 0.87610
C42 C 0.28962(5) 0.2703(2) 0.90945(11)
H34 H 0.31800 0.25580 0.93160
C43 C 0.27039(5) 0.4222(2) 0.91121(10)
C44 C 0.29287(6) 0.5507(2) 0.95064(11)
H35 H 0.32120 0.53590 0.97310
C45 C 0.27365(6) 0.6954(2) 0.95624(12)
H36 H 0.28880 0.77840 0.98240
C46 C 0.23098(6) 0.7189(2) 0.92256(11)
H37 H 0.21780 0.81740 0.92750
C47 C 0.20852(5) 0.59882(19) 0.88255(10)
H38 H 0.18050 0.61740 0.85950
C48 C 0.22731(5) 0.44678(19) 0.87562(10)
#END
