
#######################################################################
#
#                 Cambridge Crystallographic Data Centre
#                                CCDC
#
#######################################################################
#
# If this CIF has been generated from an entry in the Cambridge
# Structural Database, then it will include bibliographic, chemical,
# crystal, experimental, refinement or atomic coordinate data resulting
# from the CCDC's data processing and validation procedures.
#
#######################################################################

data_CSD_CIF_WUDJUC
_audit_creation_date 2015-05-22
_audit_creation_method CSD-ConQuest-V1
_database_code_CSD WUDJUC
_database_code_depnum_ccdc_archive 'CCDC 1402465'
_chemical_formula_sum 'C18 H23 N1 O4'
_chemical_formula_moiety
;
C18 H23 N1 O4
;
_journal_coden_Cambridge 1336
_journal_volume 17
_journal_year 2015
_journal_page_first 2314
_journal_name_full 'Org.Lett. '
loop_
_publ_author_name
"Cheng-Wei Lin"
"Bor-Cherng Hong"
"Wan-Chen Chang"
"Gene-Hsiang Lee"
_chemical_name_systematic
;
10-(butylidene(hydroxy)-\l^5^-azanyl)-9-hydroxy-9-methyl-6a,7,8,9,10,10a-hexah
ydro-6H-benzo[c]chromen-6-one
;
_cell_volume   1630.955
_exptl_crystal_colour 'colorless'
_exptl_crystal_density_diffrn 1.293
_exptl_special_details
;
Absolute configuration

;
_exptl_crystal_description 'needle'
_diffrn_ambient_temperature 150
#These two values have been output from a single CSD field.
_refine_ls_R_factor_gt 0.0415
_refine_ls_wR_factor_gt 0.0415
_symmetry_cell_setting orthorhombic
_symmetry_space_group_name_H-M 'P 21 21 21'
_symmetry_Int_Tables_number 19
loop_
_symmetry_equiv_pos_site_id
_symmetry_equiv_pos_as_xyz
1 x,y,z
2 1/2-x,-y,1/2+z
3 -x,1/2+y,1/2-z
4 1/2+x,1/2-y,-z
_cell_length_a 5.2667(2)
_cell_length_b 15.2534(6)
_cell_length_c 20.3019(8)
_cell_angle_alpha 90
_cell_angle_beta 90
_cell_angle_gamma 90
_cell_formula_units_Z 4
loop_
_atom_type_symbol
_atom_type_radius_bond
C 0.68
H 0.23
N 0.68
O 0.68
loop_
_atom_site_label
_atom_site_type_symbol
_atom_site_fract_x
_atom_site_fract_y
_atom_site_fract_z
O1 O 0.2631(3) 0.40406(8) 0.79758(6)
O2 O 0.1953(3) 0.29129(9) 0.86203(7)
O3 O 0.8921(2) 0.45091(9) 1.00881(7)
H1 H 0.95670 0.49810 0.99560
O4 O 0.8899(2) 0.60519(8) 0.94456(7)
N1 N 0.6445(3) 0.59244(10) 0.93445(7)
C1 C 0.4246(4) 0.46996(12) 0.77398(9)
C2 C 0.3594(4) 0.50653(14) 0.71401(9)
H2 H 0.21570 0.48570 0.69050
C3 C 0.5047(5) 0.57323(14) 0.68897(10)
H3 H 0.46160 0.59890 0.64780
C4 C 0.7154(5) 0.60358(13) 0.72369(10)
H4 H 0.81570 0.64990 0.70640
C5 C 0.7779(4) 0.56566(12) 0.78372(9)
H5 H 0.92230 0.58610 0.80720
C6 C 0.6318(3) 0.49812(12) 0.80997(8)
C7 C 0.6912(3) 0.45373(11) 0.87421(8)
H6 H 0.87910 0.45590 0.88110
C8 C 0.6107(4) 0.35738(12) 0.87078(9)
H7 H 0.72500 0.32840 0.83800
C9 C 0.3434(4) 0.34696(13) 0.84541(9)
C10 C 0.5626(3) 0.49943(11) 0.93308(8)
H8 H 0.37470 0.49780 0.92610
C11 C 0.6221(3) 0.45352(12) 0.99907(9)
C12 C 0.5306(4) 0.35946(12) 0.99416(9)
H9 H 0.34380 0.35920 0.98890
H10 H 0.57140 0.32850 1.03570
C13 C 0.6503(4) 0.30989(12) 0.93664(9)
H11 H 0.57470 0.25060 0.93390
H12 H 0.83460 0.30310 0.94480
C14 C 0.4966(4) 0.49989(14) 1.05693(9)
H13 H 0.54880 0.56150 1.05750
H14 H 0.54860 0.47160 1.09810
H15 H 0.31170 0.49630 1.05240
C15 C 0.4895(4) 0.65562(12) 0.92357(9)
H16 H 0.31480 0.64250 0.91750
C16 C 0.5723(4) 0.74840(12) 0.92014(12)
H17 H 0.73420 0.75190 0.89550
H18 H 0.60350 0.77040 0.96530
C17 C 0.3765(5) 0.80615(14) 0.88685(12)
H19 H 0.21680 0.80320 0.91250
H20 H 0.43710 0.86760 0.88830
C18 C 0.3197(6) 0.78314(18) 0.81734(13)
H21 H 0.24350 0.72460 0.81560
H22 H 0.47730 0.78360 0.79170
H23 H 0.20090 0.82610 0.79890
#END
