
#######################################################################
#
#                 Cambridge Crystallographic Data Centre
#                                CCDC
#
#######################################################################
#
# If this CIF has been generated from an entry in the Cambridge
# Structural Database, then it will include bibliographic, chemical,
# crystal, experimental, refinement or atomic coordinate data resulting
# from the CCDC's data processing and validation procedures.
#
#######################################################################

data_CSD_CIF_WUDKAJ
_audit_creation_date 2015-05-22
_audit_creation_method CSD-ConQuest-V1
_database_code_CSD WUDKAJ
_database_code_depnum_ccdc_archive 'CCDC 1402466'
_chemical_formula_sum 'C9 H17 N1 O2'
_chemical_formula_moiety
;
C9 H17 N1 O2
;
_journal_coden_Cambridge 1336
_journal_volume 17
_journal_year 2015
_journal_page_first 2314
_journal_name_full 'Org.Lett. '
loop_
_publ_author_name
"Cheng-Wei Lin"
"Bor-Cherng Hong"
"Wan-Chen Chang"
"Gene-Hsiang Lee"
_chemical_name_systematic
;
5-ethyl-2,4,4-trimethyl-3,4-dihydro-2H-pyrrol-2-ol 1-oxide
;
_cell_volume    977.123
_exptl_crystal_colour 'colorless'
_exptl_crystal_density_diffrn 1.164
_exptl_crystal_description 'block'
_diffrn_ambient_temperature 200
#These two values have been output from a single CSD field.
_refine_ls_R_factor_gt 0.0432
_refine_ls_wR_factor_gt 0.0432
_symmetry_cell_setting monoclinic
_symmetry_space_group_name_H-M 'P 21/c'
_symmetry_Int_Tables_number 14
loop_
_symmetry_equiv_pos_site_id
_symmetry_equiv_pos_as_xyz
1 x,y,z
2 -x,1/2+y,1/2-z
3 -x,-y,-z
4 x,-1/2-y,-1/2+z
_cell_length_a 5.9141(4)
_cell_length_b 13.5959(10)
_cell_length_c 12.3925(9)
_cell_angle_alpha 90
_cell_angle_beta 101.303(2)
_cell_angle_gamma 90
_cell_formula_units_Z 4
loop_
_atom_type_symbol
_atom_type_radius_bond
C 0.68
H 0.23
N 0.68
O 0.68
loop_
_atom_site_label
_atom_site_type_symbol
_atom_site_fract_x
_atom_site_fract_y
_atom_site_fract_z
O1 O 0.37147(14) 0.53135(6) 0.35258(7)
O2 O 0.63955(18) 0.37380(6) 0.46412(7)
N1 N 0.63975(17) 0.40160(7) 0.36377(7)
H1 H 0.383(3) 0.5551(13) 0.4177(14)
C1 C 0.5850(2) 0.50770(8) 0.33030(9)
C2 C 0.5705(2) 0.50141(9) 0.20624(10)
H2 H 0.65780 0.55620 0.18130
H3 H 0.40780 0.50620 0.16750
C3 C 0.6735(2) 0.40198(9) 0.18021(9)
C4 C 0.6877(2) 0.34667(8) 0.28628(9)
C5 C 0.7554(3) 0.24212(10) 0.30788(11)
H4 H 0.74540 0.20760 0.23680
H5 H 0.64520 0.21040 0.34760
C6 C 0.9973(4) 0.23089(13) 0.37495(16)
H6 H 1.10770 0.26090 0.33530
H7 H 1.03310 0.16090 0.38680
H8 H 1.00760 0.26370 0.44620
C7 C 0.7768(2) 0.57173(9) 0.39159(10)
H9 H 0.74870 0.64030 0.36840
H10 H 0.92440 0.55000 0.37520
H11 H 0.78170 0.56640 0.47090
C8 C 0.5166(2) 0.34976(11) 0.08473(11)
H12 H 0.58710 0.28730 0.06970
H13 H 0.49570 0.39150 0.01900
H14 H 0.36650 0.33710 0.10420
C9 C 0.9144(2) 0.41294(12) 0.15417(13)
H15 H 1.01630 0.44500 0.21610
H16 H 0.90560 0.45300 0.08780
H17 H 0.97580 0.34780 0.14200
#END
