
#######################################################################
#
#                 Cambridge Crystallographic Data Centre
#                                CCDC
#
#######################################################################
#
# If this CIF has been generated from an entry in the Cambridge
# Structural Database, then it will include bibliographic, chemical,
# crystal, experimental, refinement or atomic coordinate data resulting
# from the CCDC's data processing and validation procedures.
#
#######################################################################

data_CSD_CIF_WUDYOJ
_audit_creation_date 2003-02-14
_audit_creation_method CSD-ConQuest-V1
_database_code_CSD WUDYOJ
_chemical_formula_sum 'C23 H24 N2 O3'
_chemical_formula_moiety
;
C23 H24 N2 O3
;
_journal_coden_Cambridge 574
_journal_volume 52
_journal_year 2002
_journal_page_first 23
_journal_name_full 'Dyes Pigm. '
loop_
_publ_author_name
"Y.Abe"
"H.Ebara"
"S.Okada"
"R.Akaki"
"T.Horii"
"R.Nakao"
_chemical_name_systematic
;
4b,16-Dimethyl-12-nitro-4b,6,7,8,9,16-hexahydro-5H-chromeno(2',3':1,8)cyclo-oc
ta(1,2-b)indole
;
_cell_volume   1976.183
_exptl_crystal_density_diffrn 1.265
_exptl_special_details
;
dye

;
_diffrn_ambient_temperature ?
_diffrn_special_details
;
The study was carried out at room temperature,in the range 283-303K

;
#These two values have been output from a single CSD field.
_refine_ls_R_factor_gt 0.039
_refine_ls_wR_factor_gt 0.039
_symmetry_cell_setting monoclinic
_symmetry_space_group_name_H-M 'P 21/c'
_symmetry_Int_Tables_number 14
loop_
_symmetry_equiv_pos_site_id
_symmetry_equiv_pos_as_xyz
1 x,y,z
2 -x,1/2+y,1/2-z
3 -x,-y,-z
4 x,-1/2-y,-1/2+z
_cell_length_a 9.943(4)
_cell_length_b 11.511(3)
_cell_length_c 17.682(2)
_cell_angle_alpha 90
_cell_angle_beta 102.45(2)
_cell_angle_gamma 90
_cell_formula_units_Z 4
loop_
_atom_type_symbol
_atom_type_radius_bond
C 0.68
N 0.68
O 0.68
loop_
_atom_site_label
_atom_site_type_symbol
_atom_site_fract_x
_atom_site_fract_y
_atom_site_fract_z
O1 O 0.7693(5) 0.0823(5) 0.3462(3)
O2 O 0.6149(7) 0.5538(5) 0.4746(4)
O3 O 0.8283(7) 0.5460(5) 0.5279(3)
N1 N 0.6786(6) -0.0495(5) 0.2494(3)
N2 N 0.7257(9) 0.5047(7) 0.4866(4)
C1 C 0.6532(8) -0.0011(6) 0.3203(4)
C2 C 0.6798(8) -0.1064(7) 0.3781(4)
C3 C 0.8698(10) -0.2609(8) 0.3767(6)
C4 C 0.9531(9) -0.3120(8) 0.3333(7)
C5 C 0.9476(9) -0.2748(9) 0.2583(7)
C6 C 0.8611(9) -0.1866(9) 0.2251(6)
C7 C 0.7772(8) -0.1365(7) 0.2695(5)
C8 C 0.7838(8) -0.1722(7) 0.3455(5)
C9 C 0.681(1) 0.0295(10) 0.1844(6)
C10 C 0.738(2) -0.070(1) 0.4614(7)
C11 C 0.5531(10) -0.1864(8) 0.3708(6)
C12 C 0.433(1) -0.141(1) 0.4071(8)
C13 C 0.298(1) -0.134(1) 0.3501(9)
C14 C 0.274(1) -0.026(1) 0.3009(7)
C15 C 0.3878(9) 0.0042(8) 0.2582(6)
C16 C 0.5154(8) 0.0592(7) 0.3083(4)
C17 C 0.5071(8) 0.1625(8) 0.3412(4)
C18 C 0.6136(9) 0.3339(8) 0.4176(4)
C19 C 0.7329(10) 0.3910(8) 0.4514(4)
C20 C 0.861(1) 0.3474(8) 0.4504(5)
C21 C 0.8737(10) 0.2426(9) 0.4160(5)
C22 C 0.7533(9) 0.1838(7) 0.3823(4)
C23 C 0.6249(8) 0.2272(7) 0.3829(4)
#END
