
#######################################################################
#
#                 Cambridge Crystallographic Data Centre
#                                CCDC
#
#######################################################################
#
# If this CIF has been generated from an entry in the Cambridge
# Structural Database, then it will include bibliographic, chemical,
# crystal, experimental, refinement or atomic coordinate data resulting
# from the CCDC's data processing and validation procedures.
#
#######################################################################

data_CSD_CIF_WUDYID
_audit_creation_date 2003-02-14
_audit_creation_method CSD-ConQuest-V1
_database_code_CSD WUDYID
_chemical_formula_sum 'C21 H20 N2 O3'
_chemical_formula_moiety
;
C21 H20 N2 O3
;
_journal_coden_Cambridge 574
_journal_volume 52
_journal_year 2002
_journal_page_first 23
_journal_name_full 'Dyes Pigm. '
loop_
_publ_author_name
"Y.Abe"
"H.Ebara"
"S.Okada"
"R.Akaki"
"T.Horii"
"R.Nakao"
_chemical_name_systematic
;
4b,14-Dimethyl-10-nitro-4b,6,7,14-tetrahydro-5H-chromeno(3,2-j)carbazole
;
_cell_volume   1776.536
_exptl_crystal_density_diffrn 1.303
_exptl_special_details
;
dye

;
_diffrn_ambient_temperature ?
_diffrn_special_details
;
The study was carried out at room temperature,in the range 283-303K

;
#These two values have been output from a single CSD field.
_refine_ls_R_factor_gt 0.04
_refine_ls_wR_factor_gt 0.04
_symmetry_cell_setting monoclinic
_symmetry_space_group_name_H-M 'P 21/n'
_symmetry_Int_Tables_number 14
loop_
_symmetry_equiv_pos_site_id
_symmetry_equiv_pos_as_xyz
1 x,y,z
2 1/2-x,1/2+y,1/2-z
3 -x,-y,-z
4 -1/2+x,-1/2-y,-1/2+z
_cell_length_a 11.094(1)
_cell_length_b 12.265(1)
_cell_length_c 13.152(2)
_cell_angle_alpha 90
_cell_angle_beta 96.918(9)
_cell_angle_gamma 90
_cell_formula_units_Z 4
loop_
_atom_type_symbol
_atom_type_radius_bond
C 0.68
N 0.68
O 0.68
loop_
_atom_site_label
_atom_site_type_symbol
_atom_site_fract_x
_atom_site_fract_y
_atom_site_fract_z
O1 O 1.0228(1) -0.0234(1) 0.2623(1)
O2 O 0.9925(3) -0.5109(2) 0.3856(2)
O3 O 1.1764(2) -0.5034(2) 0.3506(2)
N1 N 0.8547(2) 0.0578(2) 0.1640(2)
N2 N 1.0778(3) -0.4606(2) 0.3591(2)
C1 C 0.9114(2) 0.0402(2) 0.2676(2)
C2 C 0.9541(2) 0.1560(2) 0.3037(2)
C3 C 1.0286(2) 0.3044(2) 0.1819(2)
C4 C 1.0227(3) 0.3395(2) 0.0807(3)
C5 C 0.9594(3) 0.2794(3) 0.0033(2)
C6 C 0.9013(3) 0.1826(2) 0.0233(2)
C7 C 0.9093(2) 0.1489(2) 0.1243(2)
C8 C 0.9726(2) 0.2086(2) 0.2031(2)
C9 C 0.8166(3) -0.0341(3) 0.0985(2)
C10 C 1.0663(2) 0.1546(2) 0.3818(2)
C11 C 0.8509(2) 0.2185(2) 0.3469(2)
C12 C 0.7856(3) 0.1545(2) 0.4211(2)
C13 C 0.7295(2) 0.0536(2) 0.3683(2)
C14 C 0.8269(2) -0.0163(2) 0.3323(2)
C15 C 0.8399(2) -0.1208(2) 0.3574(2)
C16 C 0.9575(2) -0.2938(2) 0.3547(2)
C17 C 1.0629(3) -0.3450(2) 0.3352(2)
C18 C 1.1540(2) -0.2899(3) 0.2932(2)
C19 C 1.1383(2) -0.1825(2) 0.2678(2)
C20 C 1.0320(2) -0.1301(2) 0.2861(2)
C21 C 0.9416(2) -0.1846(2) 0.3313(2)
#END
