
#######################################################################
#
#                 Cambridge Crystallographic Data Centre
#                                CCDC
#
#######################################################################
#
# If this CIF has been generated from an entry in the Cambridge
# Structural Database, then it will include bibliographic, chemical,
# crystal, experimental, refinement or atomic coordinate data resulting
# from the CCDC's data processing and validation procedures.
#
#######################################################################

data_CSD_CIF_WUFMEP
_audit_creation_date 2003-02-14
_audit_creation_method CSD-ConQuest-V1
_database_code_CSD WUFMEP
_database_code_depnum_ccdc_archive 'CCDC 190337'
_chemical_formula_sum 'C19 H28 N2 O2'
_chemical_formula_moiety
;
C19 H28 N2 O2
;
_journal_coden_Cambridge 1090
_journal_volume 13
_journal_year 2002
_journal_page_first 1849
_journal_name_full 'Tetrahedron:Asymm. '
loop_
_publ_author_name
"M.D.Squire"
"A.Burwell"
"G.M.Ferrence"
"S.R.Hitchcock"
_chemical_name_systematic
;
(1R,1'R,2S,2'S,4'R)-2-(1,7,7-Trimethylbicyclo(2.2.1)hept-2-yl-N-nitrosoamino)-
1-phenylpropan-1-ol
;
_chemical_melting_point 392
_cell_volume   1847.649
_exptl_crystal_colour 'pale brown'
_exptl_crystal_density_diffrn 1.138
_exptl_crystal_description 'plate'
_exptl_crystal_preparation 'hexanes'
_diffrn_ambient_temperature 293
#These two values have been output from a single CSD field.
_refine_ls_R_factor_gt 0.037
_refine_ls_wR_factor_gt 0.037
_symmetry_cell_setting orthorhombic
_symmetry_space_group_name_H-M 'P 21 21 21'
_symmetry_Int_Tables_number 19
loop_
_symmetry_equiv_pos_site_id
_symmetry_equiv_pos_as_xyz
1 x,y,z
2 1/2-x,-y,1/2+z
3 1/2+x,1/2-y,-z
4 -x,1/2+y,1/2-z
_cell_length_a 8.7419(15)
_cell_length_b 10.119(2)
_cell_length_c 20.887(3)
_cell_angle_alpha 90
_cell_angle_beta 90
_cell_angle_gamma 90
_cell_formula_units_Z 4
loop_
_atom_type_symbol
_atom_type_radius_bond
C 0.68
H 0.23
N 0.68
O 0.68
loop_
_atom_site_label
_atom_site_type_symbol
_atom_site_fract_x
_atom_site_fract_y
_atom_site_fract_z
C1 C 0.8057(2) -0.07425(17) 0.05037(8)
C2 C 0.77388(19) 0.03560(16) 0.10156(8)
H1 H 0.85940 0.03230 0.13190
C3 C 0.7931(2) 0.16554(18) 0.06318(9)
H2 H 0.69570 0.20980 0.05720
H3 H 0.86360 0.22530 0.08430
C4 C 0.8581(2) 0.1159(2) -0.00083(8)
H4 H 0.85530 0.18170 -0.03520
C5 C 1.0177(3) 0.0595(2) 0.01214(11)
H5 H 1.07640 0.11760 0.03970
H6 H 1.07350 0.04560 -0.02740
C6 C 0.9817(2) -0.0737(2) 0.04593(10)
H7 H 1.01840 -0.14790 0.02090
H8 H 1.02780 -0.07700 0.08810
C7 C 0.7611(2) -0.00794(18) -0.01418(8)
C8 C 0.5895(3) 0.0186(2) -0.02269(10)
H9 H 0.53730 -0.06320 -0.03070
H10 H 0.57430 0.07730 -0.05820
H11 H 0.54950 0.05840 0.01550
C9 C 0.8122(3) -0.0840(2) -0.07422(10)
H12 H 0.74740 -0.15960 -0.08020
H13 H 0.91620 -0.11260 -0.06900
H14 H 0.80490 -0.02730 -0.11090
C10 C 0.7390(3) -0.21006(18) 0.06353(11)
H15 H 0.62950 -0.20400 0.06570
H16 H 0.77790 -0.24270 0.10350
H17 H 0.76740 -0.26940 0.02970
N1 N 0.63334(17) 0.02204(14) 0.14003(6)
N2 N 0.63158(19) -0.05585(17) 0.19051(7)
O1 O 0.75112(16) -0.12059(14) 0.20021(6)
C11 C 0.4923(2) 0.1037(2) 0.13777(8)
H18 H 0.49820 0.15890 0.09930
C12 C 0.3511(3) 0.0169(3) 0.13127(11)
H19 H 0.36220 -0.03960 0.09460
H20 H 0.26230 0.07160 0.12600
H21 H 0.33980 -0.03610 0.16910
O2 O 0.35595(16) 0.28023(17) 0.18169(6)
H22 H 0.31830 0.30750 0.21510
C13 C 0.4825(2) 0.1973(2) 0.19591(8)
H23 H 0.45910 0.14540 0.23430
C14 C 0.6288(2) 0.27457(19) 0.20710(8)
C15 C 0.7452(2) 0.2255(2) 0.24519(10)
H24 H 0.73130 0.14590 0.26660
C16 C 0.8822(3) 0.2932(3) 0.25190(13)
H25 H 0.95980 0.25720 0.27690
C17 C 0.9048(3) 0.4123(3) 0.22222(14)
H26 H 0.99670 0.45750 0.22690
C18 C 0.7895(3) 0.4633(3) 0.18567(13)
H27 H 0.80310 0.54440 0.16550
C19 C 0.6528(3) 0.3961(2) 0.17816(9)
H28 H 0.57570 0.43310 0.15330
#END
