
#######################################################################
#
#                 Cambridge Crystallographic Data Centre
#                                CCDC
#
#######################################################################
#
# If this CIF has been generated from an entry in the Cambridge
# Structural Database, then it will include bibliographic, chemical,
# crystal, experimental, refinement or atomic coordinate data resulting
# from the CCDC's data processing and validation procedures.
#
#######################################################################

data_CSD_CIF_WUFNUI
_audit_creation_date 2015-05-25
_audit_creation_method CSD-ConQuest-V1
_database_code_CSD WUFNUI
_database_code_depnum_ccdc_archive 'CCDC 991799'
_chemical_formula_sum 'C22 H18 N2 O5'
_chemical_formula_moiety
;
C22 H18 N2 O5
;
_journal_coden_Cambridge 603
_journal_volume 34
_journal_year 2015
_journal_page_first 688
_journal_name_full 'Jiegou Huaxue(Chin.)(Chin.J.Struct.Chem.) '
loop_
_publ_author_name
"Xiao-Feng Liu"
"Yang Zhang"
"Jing Li"
"Jing-Si Zhao"
"Na Xi"
"Dian He"
_chemical_name_systematic
;
N-((3-(2-nitrophenyl)propanoyl)oxy)-N-phenylbenzamide
;
_cell_volume   1900.463
_exptl_crystal_colour 'light colorless'
_exptl_crystal_density_diffrn 1.364
_exptl_crystal_description 'block'
_diffrn_ambient_temperature 293
#These two values have been output from a single CSD field.
_refine_ls_R_factor_gt 0.053
_refine_ls_wR_factor_gt 0.053
_symmetry_cell_setting monoclinic
_symmetry_space_group_name_H-M 'P 21/n'
_symmetry_Int_Tables_number 14
loop_
_symmetry_equiv_pos_site_id
_symmetry_equiv_pos_as_xyz
1 x,y,z
2 1/2-x,1/2+y,1/2-z
3 -x,-y,-z
4 -1/2+x,-1/2-y,-1/2+z
_cell_length_a 14.4481(7)
_cell_length_b 8.0089(5)
_cell_length_c 16.6808(9)
_cell_angle_alpha 90
_cell_angle_beta 100.069(5)
_cell_angle_gamma 90
_cell_formula_units_Z 4
loop_
_atom_type_symbol
_atom_type_radius_bond
C 0.68
H 0.23
N 0.68
O 0.68
loop_
_atom_site_label
_atom_site_type_symbol
_atom_site_fract_x
_atom_site_fract_y
_atom_site_fract_z
O1 O 1.05187(11) -0.0257(2) 0.23869(9)
O2 O 0.93033(9) 0.1449(2) 0.05721(8)
O3 O 0.84196(11) 0.2415(2) 0.14718(9)
O4 O 0.62692(12) 0.4824(2) -0.05118(10)
O5 O 0.47746(12) 0.5004(2) -0.09439(10)
N1 N 1.00488(12) 0.1186(2) 0.12326(11)
N2 N 0.55063(14) 0.4193(3) -0.07872(10)
C1 C 1.04764(18) 0.4129(3) 0.12436(16)
H1 H 0.98500 0.44120 0.10650
C2 C 1.1153(2) 0.5362(4) 0.13874(17)
H2 H 1.09790 0.64770 0.13090
C3 C 1.2077(2) 0.4953(4) 0.16448(15)
H3 H 1.25300 0.57880 0.17460
C4 C 1.23350(18) 0.3312(4) 0.17532(15)
H4 H 1.29640 0.30360 0.19250
C5 C 1.16669(15) 0.2065(3) 0.16082(13)
H5 H 1.18440 0.09500 0.16730
C6 C 1.07305(15) 0.2489(3) 0.13651(12)
C7 C 0.99544(14) -0.0098(3) 0.17576(13)
C8 C 0.91389(14) -0.1254(3) 0.15311(12)
C9 C 0.85941(15) -0.1597(3) 0.21168(13)
H6 H 0.87440 -0.11180 0.26310
C10 C 0.78308(17) -0.2647(3) 0.19389(15)
H7 H 0.74630 -0.28630 0.23320
C11 C 0.76101(18) -0.3374(4) 0.11862(16)
H8 H 0.70880 -0.40670 0.10670
C12 C 0.81612(18) -0.3079(3) 0.06082(15)
H9 H 0.80220 -0.35990 0.01030
C13 C 0.89202(17) -0.2015(3) 0.07760(13)
H10 H 0.92870 -0.18060 0.03810
C14 C 0.84725(15) 0.2012(3) 0.07990(13)
C15 C 0.77180(14) 0.1962(3) 0.00681(13)
H11 H 0.78450 0.10580 -0.02840
H12 H 0.77250 0.29990 -0.02320
C16 C 0.67480(14) 0.1716(3) 0.02851(13)
H13 H 0.67740 0.08300 0.06850
H14 H 0.65560 0.27330 0.05260
C17 C 0.60323(14) 0.1275(3) -0.04583(13)
C18 C 0.54599(14) 0.2399(3) -0.09529(13)
C19 C 0.48177(16) 0.1907(3) -0.16253(14)
H15 H 0.44390 0.26940 -0.19350
C20 C 0.47447(19) 0.0259(3) -0.18306(16)
H16 H 0.43210 -0.00800 -0.22870
C21 C 0.52930(19) -0.0895(4) -0.13662(18)
H17 H 0.52450 -0.20190 -0.15080
C22 C 0.59211(17) -0.0388(3) -0.06836(16)
H18 H 0.62790 -0.11900 -0.03670
#END
