
#######################################################################
#
#                 Cambridge Crystallographic Data Centre
#                                CCDC
#
#######################################################################
#
# If this CIF has been generated from an entry in the Cambridge
# Structural Database, then it will include bibliographic, chemical,
# crystal, experimental, refinement or atomic coordinate data resulting
# from the CCDC's data processing and validation procedures.
#
#######################################################################

data_CSD_CIF_WUHDEI
_audit_creation_date 2003-02-14
_audit_creation_method CSD-ConQuest-V1
_database_code_CSD WUHDEI
_database_code_depnum_ccdc_archive 'CCDC 199897'
_database_code_depnum_ccdc_journal 1135/16
_chemical_formula_sum 'C7 H12 N2 O2'
_chemical_formula_moiety
;
C7 H12 N2 O2
;
_journal_coden_Cambridge 1135
_journal_year 2002
_journal_page_first 193
_journal_name_full 'Mendeleev Commun. '
loop_
_publ_author_name
"I.V.Vystorop"
"K.A.Lyssenko"
"V.N.Voznesensky"
"V.P.Lodygina"
"R.G.Kostyanovsky"
_chemical_name_systematic
;
(P,1R*,4S*)-4-Hydroxy-1,4-diazaspiro(4.4)nonan-3-one
;
_chemical_melting_point 426.15
_cell_volume    800.904
_exptl_crystal_colour 'colorless'
_exptl_crystal_density_diffrn 1.295
_exptl_special_details
;
Melting point range 426.15-427.15K

;
_exptl_crystal_description 'prism'
_exptl_crystal_preparation 'ethanol'
_diffrn_ambient_temperature 293
_refine_special_details
;
Atoms C8 and C9 are each disordered over two positions with occupancies 
0.77:0.23.
;
#These two values have been output from a single CSD field.
_refine_ls_R_factor_gt 0.0468
_refine_ls_wR_factor_gt 0.0468
_symmetry_cell_setting monoclinic
_symmetry_space_group_name_H-M 'P 21/n'
_symmetry_Int_Tables_number 14
loop_
_symmetry_equiv_pos_site_id
_symmetry_equiv_pos_as_xyz
1 x,y,z
2 1/2+x,1/2-y,1/2+z
3 -x,-y,-z
4 -1/2-x,-1/2+y,-1/2-z
_cell_length_a 9.938(2)
_cell_length_b 8.9441(18)
_cell_length_c 10.124(2)
_cell_angle_alpha 90
_cell_angle_beta 117.126(14)
_cell_angle_gamma 90
_cell_formula_units_Z 4
loop_
_atom_type_symbol
_atom_type_radius_bond
C 0.68
H 0.23
N 0.68
O 0.68
loop_
_atom_site_label
_atom_site_type_symbol
_atom_site_fract_x
_atom_site_fract_y
_atom_site_fract_z
O1 O 0.93440(11) 0.57690(11) 0.23745(12)
H1 H 1.000(2) 0.625(2) 0.326(2)
N1 N 0.63452(12) 0.82445(13) 0.00747(12)
H2 H 0.6720(18) 0.9092(19) 0.0598(18)
C1 C 0.76725(13) 0.73474(15) 0.02803(13)
O2 O 0.69408(16) 0.58444(16) 0.30944(17)
N2 N 0.81292(11) 0.67548(12) 0.17835(12)
C2 C 0.69574(17) 0.65755(17) 0.20867(17)
C3 C 0.56726(17) 0.74651(18) 0.0914(2)
H3 H 0.528(2) 0.816(2) 0.1361(19)
H4 H 0.491(2) 0.678(2) 0.027(2)
C4 C 0.72832(18) 0.60864(18) -0.08802(17)
H5 H 0.779(2) 0.517(2) -0.034(2)
H6 H 0.613(2) 0.5926(18) -0.1412(18)
C5 C 0.88904(17) 0.82859(18) 0.01442(17)
H7 H 0.967(3) 0.852(2) 0.110(3)
H8 H 0.841(2) 0.937(3) -0.026(2)
C6 C 0.9394(3) 0.7466(3) -0.0818(3)
H9 H 1.01660 0.67360 -0.02560
H10 H 0.97830 0.81440 -0.13100
C7 C 0.7943(3) 0.6707(3) -0.1932(3)
H11 H 0.81540 0.59040 -0.24540
H12 H 0.72570 0.74170 -0.26460
C8? C 0.8563(12) 0.7834(10) -0.1481(11)
H13? H 0.77630 0.84510 -0.22040
H14? H 0.94630 0.79610 -0.16140
C9? C 0.8074(6) 0.6165(7) -0.1676(6)
H15? H 0.74430 0.59190 -0.27110
H16? H 0.89440 0.55040 -0.12730
#END
