
#######################################################################
#
#                 Cambridge Crystallographic Data Centre
#                                CCDC
#
#######################################################################
#
# If this CIF has been generated from an entry in the Cambridge
# Structural Database, then it will include bibliographic, chemical,
# crystal, experimental, refinement or atomic coordinate data resulting
# from the CCDC's data processing and validation procedures.
#
#######################################################################

data_CSD_CIF_WUHNOC
_audit_creation_date 2003-02-14
_audit_creation_method CSD-ConQuest-V1
_database_code_CSD WUHNOC
_database_code_depnum_ccdc_archive 'CCDC 181870'
_chemical_formula_sum 'C10 H17 N1 O2'
_chemical_formula_moiety
;
C10 H17 N1 O2
;
_journal_coden_Cambridge 1090
_journal_volume 13
_journal_year 2002
_journal_page_first 1981
_journal_name_full 'Tetrahedron:Asymm. '
loop_
_publ_author_name
"S.W.Markowicz"
"K.Pokrzeptowicz"
"J.Karolak-Wojciechowska"
"R.Czylkowski"
"J.Omelanczuk"
"A.Sobczak"
_chemical_name_systematic
;
(+)-1S,2S-2-Hydroxy-2,6,6-trimethylbicyclo(3.1.1)heptan-3-one oxime
;
_chemical_melting_point 392.15
_cell_volume   1628.941
_exptl_crystal_density_diffrn 1.121
_exptl_crystal_preparation 'hexane/ether (10'
_diffrn_ambient_temperature 293
#These two values have been output from a single CSD field.
_refine_ls_R_factor_gt 0.0975
_refine_ls_wR_factor_gt 0.0975
loop_
_citation_database_id_CSD
_citation_special_details
WUHNUI "is a racemate of this entry"
_symmetry_cell_setting triclinic
_symmetry_space_group_name_H-M 'P 1'
_symmetry_Int_Tables_number 1
loop_
_symmetry_equiv_pos_site_id
_symmetry_equiv_pos_as_xyz
1 x,y,z
_cell_length_a 7.211(1)
_cell_length_b 12.917(3)
_cell_length_c 17.971(4)
_cell_angle_alpha 87.15(3)
_cell_angle_beta 81.64(3)
_cell_angle_gamma 79.70(3)
_cell_formula_units_Z 6
loop_
_atom_type_symbol
_atom_type_radius_bond
C 0.68
H 0.23
N 0.68
O 0.68
loop_
_atom_site_label
_atom_site_type_symbol
_atom_site_fract_x
_atom_site_fract_y
_atom_site_fract_z
N1 N 0.2991(5) 1.3147(2) -0.3739(2)
O1 O 0.3494(5) 1.2063(2) -0.36730(18)
H1 H 0.31730 1.18610 -0.32420
O2 O 0.4035(4) 1.5116(2) -0.43501(16)
H2 H 0.43370 1.48660 -0.39480
C1 C 0.0667(8) 1.5225(4) -0.3991(3)
H3 H 0.04320 1.59690 -0.40970
H4 H 0.09050 1.50990 -0.34800
H5 H -0.04240 1.49320 -0.40640
C2 C 0.2243(7) 1.4936(4) -0.5332(2)
H6 H 0.19490 1.56720 -0.54580
C3 C 0.2373(6) 1.4686(3) -0.4536(2)
C4 C 0.2815(6) 1.3501(3) -0.4391(2)
C5 C 0.3153(7) 1.2810(3) -0.5060(2)
H7 H 0.44170 1.24080 -0.50940
H8 H 0.22700 1.23270 -0.49780
C6 C 0.2857(7) 1.3430(4) -0.5801(2)
H9 H 0.30270 1.30170 -0.62430
C7 C 0.1021(8) 1.4223(4) -0.5665(3)
C8 C 0.3918(8) 1.4372(4) -0.5836(3)
H10 H 0.50760 1.42220 -0.56160
H11 H 0.41320 1.46700 -0.63350
C9 C 0.0409(10) 1.4760(5) -0.6449(3)
H12 H -0.03810 1.43600 -0.66590
H13 H 0.15470 1.47870 -0.67950
H14 H -0.02690 1.54620 -0.63560
C10 C -0.0738(3) 1.38645(17) -0.52241(11)
H15 H -0.04890 1.35280 -0.47510
H16 H -0.11580 1.33830 -0.55260
H17 H -0.17110 1.44750 -0.51360
N2 N 0.3675(3) 1.12017(17) -0.05531(11)
O3 O 0.3893(3) 1.16825(17) -0.21489(11)
H18 H 0.41450 1.22240 -0.20010
O4 O 0.4327(5) 1.0488(2) 0.00278(16)
H19 H 0.51900 1.06970 0.01950
C11 C 0.0920(8) 1.2423(3) -0.1460(3)
H20 H 0.05260 1.27940 -0.19030
H21 H 0.15460 1.28590 -0.11980
H22 H -0.01740 1.22550 -0.11380
C12 C 0.1411(7) 1.0753(3) -0.2158(2)
H23 H 0.09010 1.11190 -0.25820
C13 C 0.2264(6) 1.1416(3) -0.1691(2)
C14 C 0.2958(6) 1.0747(3) -0.1024(2)
C15 C 0.2838(7) 0.9612(3) -0.0954(3)
H24 H 0.40760 0.91840 -0.09680
H25 H 0.21090 0.94860 -0.04770
C16 C 0.1863(7) 0.9295(3) -0.1582(3)
H26 H 0.17160 0.85700 -0.15720
C17 C 0.2783(8) 0.9721(4) -0.2347(3)
H27 H 0.41070 0.97610 -0.23710
H28 H 0.25420 0.93800 -0.27770
C18 C 0.0000(6) 1.0091(4) -0.1660(3)
C19 C -0.1166(8) 0.9649(4) -0.2176(3)
H29 H -0.20250 0.92400 -0.18920
H30 H -0.03020 0.92110 -0.25370
H31 H -0.18770 1.02200 -0.24340
C20 C -0.1246(3) 1.04598(16) -0.09534(12)
H32 H -0.19620 0.99270 -0.07500
H33 H -0.21050 1.10880 -0.10650
H34 H -0.04770 1.06100 -0.05920
N3 N 0.4970(3) 1.33840(16) -0.13818(12)
O5 O 0.3886(3) 1.46376(16) -0.27763(12)
H35 H 0.37900 1.40560 -0.29140
O6 O 0.4436(5) 1.3274(3) -0.06047(17)
H36 H 0.41480 1.26910 -0.05070
C21 C 0.7105(8) 1.3749(4) -0.2808(3)
H37 H 0.67350 1.30690 -0.27340
H38 H 0.82740 1.37360 -0.26080
H39 H 0.72820 1.39240 -0.33360
C22 C 0.6074(6) 1.5677(3) -0.2493(3)
H40 H 0.65260 1.58590 -0.30030
C23 C 0.5562(6) 1.4557(3) -0.2410(2)
C24 C 0.5053(6) 1.4340(3) -0.1566(2)
C25 C 0.4712(8) 1.5235(4) -0.1022(3)
H41 H 0.34190 1.53700 -0.07780
H42 H 0.55300 1.50310 -0.06440
C26 C 0.5315(7) 1.6216(4) -0.1400(3)
H43 H 0.51860 1.68090 -0.10830
C27 C 0.7324(7) 1.5936(3) -0.1918(3)
C28 C 0.4397(7) 1.6503(4) -0.2146(3)
H44 H 0.31930 1.62750 -0.21240
H45 H 0.43450 1.72160 -0.23320
C29 C 0.8232(8) 1.6889(4) -0.2161(3)
H46 H 0.94610 1.67010 -0.24540
H47 H 0.83540 1.72560 -0.17240
H48 H 0.73950 1.73350 -0.24590
C30 C 0.8844(4) 1.51198(17) -0.16133(12)
H49 H 0.99950 1.50430 -0.19640
H50 H 0.83860 1.44630 -0.15550
H51 H 0.90950 1.53210 -0.11350
N4 N 0.6863(4) 1.08835(17) 0.26135(12)
O7 O 0.6268(4) 1.11740(17) 0.33787(12)
H52 H 0.63030 1.06420 0.36490
O8 O 0.6130(5) 1.1018(3) 0.10840(17)
H53 H 0.63740 1.03730 0.10890
C31 C 0.9510(8) 1.0616(4) 0.1193(3)
H54 H 0.98060 1.05140 0.06600
H55 H 0.93310 0.99600 0.14440
H56 H 1.05380 1.08660 0.13710
C32 C 0.7824(7) 1.2425(4) 0.0929(3)
H57 H 0.82260 1.23180 0.04010
C33 C 0.7660(7) 1.1426(4) 0.1364(2)
C34 C 0.7074(6) 1.1639(3) 0.2180(2)
C35 C 0.6677(10) 1.2802(4) 0.2437(3)
H58 H 0.54050 1.29780 0.26960
H59 H 0.75480 1.28760 0.27800
C36 C 0.7013(9) 1.3556(4) 0.1780(3)
H60 H 0.67430 1.42950 0.18790
C37 C 0.8869(8) 1.3189(4) 0.1287(3)
C38 C 0.5970(8) 1.3216(5) 0.1125(3)
H61 H 0.48610 1.29150 0.13090
H62 H 0.57250 1.37360 0.07350
C39 C 0.9368(10) 1.4061(4) 0.0704(3)
H63 H 0.99810 1.45430 0.09290
H64 H 0.82120 1.44340 0.05430
H65 H 1.02000 1.37480 0.02770
C40 C 1.0537(3) 1.27352(16) 0.16869(12)
H66 H 1.02360 1.21950 0.20470
H67 H 1.09090 1.32880 0.19380
H68 H 1.15630 1.24430 0.13140
N5 N 0.5132(3) 0.76265(16) 0.32079(12)
O9 O 0.6192(3) 0.90419(16) 0.19204(12)
H69 H 0.62470 0.94430 0.22530
O10 O 0.5581(5) 0.6660(2) 0.35950(17)
H70 H 0.59520 0.67610 0.39910
C41 C 0.2882(8) 0.9367(4) 0.2524(3)
H71 H 0.31710 0.95320 0.30050
H72 H 0.17490 0.90600 0.25940
H73 H 0.26870 0.99980 0.22200
C42 C 0.4033(7) 0.8307(3) 0.1323(2)
H74 H 0.36370 0.89080 0.10110
C43 C 0.4515(7) 0.8567(3) 0.2091(2)
C44 C 0.5001(6) 0.7570(3) 0.2535(2)
C45 C 0.5270(8) 0.6500(4) 0.2152(3)
H75 H 0.65570 0.61380 0.21470
H76 H 0.44330 0.60820 0.24400
C46 C 0.4704(7) 0.6663(4) 0.1355(3)
H77 H 0.48450 0.60360 0.10720
C47 C 0.2816(7) 0.7444(4) 0.1345(2)
C48 C 0.5723(8) 0.7503(4) 0.0948(3)
H78 H 0.69140 0.75490 0.11130
H79 H 0.58450 0.74940 0.04090
C49 C 0.1948(8) 0.7394(4) 0.0646(3)
H80 H 0.12140 0.68370 0.06900
H81 H 0.29450 0.72670 0.02280
H82 H 0.11370 0.80530 0.05660
C50 C 0.1184(3) 0.73022(15) 0.19938(12)
H83 H 0.06420 0.67040 0.18960
H84 H 0.02160 0.79200 0.20240
H85 H 0.16960 0.71880 0.24610
N6 N 0.6171(3) 0.73892(15) 0.49820(12)
O11 O 0.6146(3) 0.92256(15) 0.40337(12)
H86 H 0.56760 0.87590 0.38790
O12 O 0.5352(5) 0.6920(3) 0.56705(17)
H87 H 0.45830 0.65660 0.55740
C51 C 0.9172(9) 0.8033(5) 0.3942(3)
H88 H 0.86090 0.74690 0.37940
H89 H 1.02320 0.77470 0.42000
H90 H 0.96040 0.84260 0.35030
C52 C 0.8483(6) 0.9701(3) 0.4702(2)
H91 H 0.91520 1.00740 0.43050
C53 C 0.7662(7) 0.8765(3) 0.4433(3)
C54 C 0.6794(6) 0.8193(3) 0.5135(2)
C55 C 0.6595(7) 0.8676(4) 0.5892(3)
H92 H 0.52640 0.88710 0.60740
H93 H 0.71350 0.81600 0.62400
C56 C 0.7486(7) 0.9627(3) 0.5867(2)
H94 H 0.73760 0.99550 0.63430
C57 C 0.9544(7) 0.9400(4) 0.5402(3)
C58 C 0.6860(7) 1.0371(4) 0.5205(3)
H95 H 0.56130 1.03580 0.50820
H96 H 0.70620 1.10800 0.52450
C59 C 1.0806(9) 0.8371(4) 0.5508(4)
H97 H 1.20080 0.83400 0.51920
H98 H 1.01980 0.78100 0.53880
H99 H 1.10090 0.83000 0.60260
C60 C 1.0700(9) 1.0294(5) 0.5483(4)
H100 H 1.19320 1.01270 0.51890
H101 H 1.08460 1.03470 0.60020
H102 H 1.00420 1.09530 0.53070
#END
