
#######################################################################
#
#                 Cambridge Crystallographic Data Centre
#                                CCDC
#
#######################################################################
#
# If this CIF has been generated from an entry in the Cambridge
# Structural Database, then it will include bibliographic, chemical,
# crystal, experimental, refinement or atomic coordinate data resulting
# from the CCDC's data processing and validation procedures.
#
#######################################################################

data_CSD_CIF_WUHNOC01
_audit_creation_date 2003-03-19
_audit_creation_method CSD-ConQuest-V1
_database_code_CSD WUHNOC01
_database_code_depnum_ccdc_archive 'CCDC 203583'
_database_code_depnum_ccdc_journal 1267/866
_chemical_formula_sum 'C10 H17 N1 O2'
_chemical_formula_moiety
;
C10 H17 N1 O2
;
_journal_coden_Cambridge 1267
_journal_volume 217
_journal_year 2002
_journal_page_first 494
_journal_name_full 'Z.Kristallogr.-New Cryst.Struct. '
loop_
_publ_author_name
"L.-X.Zhang"
"M.-L.Hu"
"A.-J.Zhang"
"G.-Q.Xiang"
_chemical_name_systematic
;
2-Hydroxy-2,6,6-trimethylbicyclo(3.1.1)heptan-3-one oxime
;
_cell_volume   1627.548
_exptl_crystal_colour 'colorless'
_exptl_crystal_density_diffrn 1.122
_exptl_crystal_description 'plate'
_exptl_crystal_preparation 'ethyl acetate/petroleum'
_diffrn_ambient_temperature 298
#These two values have been output from a single CSD field.
_refine_ls_R_factor_gt 0.0348
_refine_ls_wR_factor_gt 0.0348
loop_
_citation_database_id_CSD
_citation_special_details
WUHNUI "is a racemate of this entry"
_symmetry_cell_setting triclinic
_symmetry_space_group_name_H-M 'P 1'
_symmetry_Int_Tables_number 1
loop_
_symmetry_equiv_pos_site_id
_symmetry_equiv_pos_as_xyz
1 x,y,z
_cell_length_a 7.197(2)
_cell_length_b 12.928(3)
_cell_length_c 17.966(4)
_cell_angle_alpha 87.14(1)
_cell_angle_beta 81.75(2)
_cell_angle_gamma 79.78(2)
_cell_formula_units_Z 6
loop_
_atom_type_symbol
_atom_type_radius_bond
C 0.68
H 0.23
N 0.68
O 0.68
loop_
_atom_site_label
_atom_site_type_symbol
_atom_site_fract_x
_atom_site_fract_y
_atom_site_fract_z
O1 O 0.4510(3) -0.19190(16) 1.51275(10)
H1 H 0.40290 -0.23230 1.49080
O2 O 0.4154(3) -0.07233(17) 1.29376(11)
H2 H 0.34950 -0.09940 1.26940
N1 N 0.4770(3) -0.14303(19) 1.35064(13)
C1 C 0.7042(4) -0.0971(2) 1.51178(15)
H3 H 0.75590 -0.13400 1.55530
C2 C 0.6161(4) -0.1645(2) 1.46479(15)
C3 C 0.5465(4) -0.0979(2) 1.39867(15)
C4 C 0.5581(5) 0.0181(2) 1.39322(17)
H4 H 0.62760 0.03390 1.34480
H5 H 0.43050 0.05880 1.39630
C5 C 0.6566(5) 0.0493(2) 1.45537(17)
H6 H 0.66850 0.12370 1.45490
C6 C 0.8401(5) -0.0290(2) 1.46371(17)
C7 C 0.5658(5) 0.0059(2) 1.53037(18)
H7 H 0.58740 0.04020 1.57440
H8 H 0.43240 0.00080 1.53200
C8 C 0.9663(6) 0.0104(3) 1.5135(2)
H9 H 1.05240 -0.04810 1.53100
H10 H 0.88800 0.04550 1.55580
H11 H 1.03780 0.05860 1.48500
C9 C 0.9660(5) -0.0698(3) 1.39311(19)
H12 H 1.01760 -0.01300 1.36610
H13 H 0.89230 -0.09960 1.36200
H14 H 1.06820 -0.12280 1.40630
C10 C 0.7505(5) -0.2651(2) 1.44242(18)
H15 H 0.77700 -0.30650 1.48670
H16 H 0.86710 -0.24860 1.41550
H17 H 0.69260 -0.30410 1.41080
O3 O 0.4545(3) -0.48811(15) 1.57356(12)
H18 H 0.45440 -0.43230 1.59340
O4 O 0.3997(4) -0.34995(18) 1.35638(11)
H19 H 0.42860 -0.29170 1.34680
N2 N 0.3508(4) -0.3625(2) 1.43470(13)
C11 C 0.2333(4) -0.5901(2) 1.54778(17)
H20 H 0.18630 -0.60950 1.59960
C12 C 0.2847(4) -0.4804(2) 1.53792(16)
C13 C 0.3374(5) -0.4579(2) 1.45431(16)
C14 C 0.3696(6) -0.5459(2) 1.39925(18)
H21 H 0.50350 -0.56100 1.37880
H22 H 0.29710 -0.52410 1.35790
C15 C 0.3093(5) -0.6445(2) 1.43710(17)
H23 H 0.32160 -0.70410 1.40400
C16 C 0.1139(5) -0.6171(2) 1.48729(17)
C17 C 0.3996(5) -0.6694(2) 1.50942(19)
H24 H 0.52340 -0.64870 1.50740
H25 H 0.40190 -0.74120 1.52820
C18 C 0.0261(6) -0.7146(3) 1.5114(2)
H26 H -0.07560 -0.69760 1.55200
H27 H 0.12180 -0.76910 1.52780
H28 H -0.02300 -0.73850 1.46960
C19 C -0.0385(6) -0.5356(3) 1.4569(2)
H29 H -0.08080 -0.56370 1.41510
H30 H 0.01350 -0.47350 1.44070
H31 H -0.14450 -0.51820 1.49580
C20 C 0.1314(5) -0.3966(2) 1.57672(17)
H32 H 0.12020 -0.40900 1.63020
H33 H 0.01180 -0.39920 1.55970
H34 H 0.16540 -0.32860 1.56480
O5 O 0.4384(3) -0.53402(17) 1.73308(12)
H35 H 0.42380 -0.52250 1.68880
O6 O 0.4928(4) -0.22943(15) 1.66474(12)
H36 H 0.50720 -0.20970 1.62050
N3 N 0.5444(4) -0.33952(18) 1.66946(13)
C21 C 0.6190(5) -0.5168(2) 1.83022(16)
H37 H 0.64830 -0.59200 1.84290
C22 C 0.6033(4) -0.4922(2) 1.74814(15)
C23 C 0.5593(4) -0.3735(2) 1.73628(16)
C24 C 0.5285(5) -0.3036(2) 1.80342(16)
H38 H 0.39950 -0.26440 1.80880
H39 H 0.61540 -0.25350 1.79490
C25 C 0.5601(5) -0.3662(2) 1.87551(16)
H40 H 0.54120 -0.32480 1.92110
C26 C 0.7424(5) -0.4474(3) 1.86441(19)
C27 C 0.4471(5) -0.4567(3) 1.87949(17)
H41 H 0.42200 -0.48740 1.92950
H42 H 0.33230 -0.44080 1.85570
C28 C 0.7993(8) -0.4964(4) 1.9398(2)
H43 H 0.83690 -0.44410 1.96780
H44 H 0.90380 -0.55370 1.93010
H45 H 0.69270 -0.52190 1.96830
C29 C 0.9175(6) -0.4125(4) 1.8181(3)
H46 H 0.88320 -0.37990 1.77170
H47 H 1.01580 -0.47260 1.80760
H48 H 0.96310 -0.36310 1.84610
C30 C 0.7747(5) -0.5451(3) 1.69615(19)
H49 H 0.78140 -0.62000 1.70020
H50 H 0.88860 -0.52710 1.71010
H51 H 0.76270 -0.52180 1.64520
O7 O 0.2291(4) -0.12496(18) 1.18748(13)
H52 H 0.23380 -0.06610 1.16900
O8 O 0.2197(5) -0.14122(17) 0.96005(11)
H53 H 0.22250 -0.08860 0.93280
N4 N 0.1536(4) -0.11148(19) 1.03381(13)
C31 C 0.0649(5) -0.2685(2) 1.20485(17)
H54 H 0.02750 -0.26050 1.25920
C32 C 0.0778(4) -0.1657(2) 1.16144(15)
C33 C 0.1365(4) -0.1894(2) 1.07849(15)
C34 C 0.1765(7) -0.3016(2) 1.05410(19)
H55 H 0.30760 -0.31850 1.03030
H56 H 0.09440 -0.30980 1.01720
C35 C 0.1439(6) -0.3774(2) 1.12007(19)
H57 H 0.17150 -0.45200 1.10780
C36 C -0.0439(6) -0.3421(3) 1.1691(2)
C37 C 0.2460(6) -0.3467(3) 1.1839(2)
H58 H 0.27190 -0.40190 1.22150
H59 H 0.35760 -0.31510 1.16660
C38 C -0.0952(8) -0.4296(4) 1.2264(3)
H60 H -0.20530 -0.40190 1.26090
H61 H 0.01010 -0.45430 1.25360
H62 H -0.12230 -0.48690 1.20010
C39 C -0.2146(7) -0.2989(4) 1.1297(3)
H63 H -0.17890 -0.25100 1.08990
H64 H -0.31460 -0.26270 1.16510
H65 H -0.25870 -0.35580 1.10900
C40 C -0.1021(6) -0.0837(3) 1.1761(2)
H66 H -0.13120 -0.07090 1.22900
H67 H -0.20620 -0.10880 1.15910
H68 H -0.08240 -0.01950 1.14940
O9 O 0.2225(3) 0.07355(16) 1.10495(12)
H69 H 0.21520 0.03550 1.07070
O10 O 0.2853(5) 0.31232(16) 0.93792(13)
H70 H 0.26690 0.30400 0.89480
N5 N 0.3326(4) 0.21381(18) 0.97347(14)
C41 C 0.4392(5) 0.1465(2) 1.16465(15)
H71 H 0.48040 0.08550 1.19660
C42 C 0.3941(5) 0.1192(2) 1.08780(16)
C43 C 0.3457(5) 0.2224(2) 1.04318(16)
C44 C 0.3163(6) 0.3257(2) 1.08131(18)
H72 H 0.18360 0.35860 1.08390
H73 H 0.39300 0.37180 1.05190
C45 C 0.3712(5) 0.3113(2) 1.16044(17)
H74 H 0.35860 0.37620 1.18800
C46 C 0.5621(5) 0.2354(2) 1.16117(16)
C47 C 0.2717(6) 0.2255(3) 1.20189(18)
H75 H 0.15010 0.22100 1.18610
H76 H 0.26240 0.22670 1.25620
C48 C 0.6459(6) 0.2389(3) 1.23486(19)
H77 H 0.74840 0.18070 1.23740
H78 H 0.54850 0.23450 1.27680
H79 H 0.69310 0.30360 1.23640
C49 C 0.7214(5) 0.2457(3) 1.09683(19)
H80 H 0.76870 0.30970 1.10160
H81 H 0.67280 0.24710 1.04970
H82 H 0.82290 0.18690 1.09870
C50 C 0.5487(5) 0.0397(2) 1.04602(18)
H83 H 0.56370 -0.02510 1.07480
H84 H 0.66660 0.06620 1.03880
H85 H 0.51380 0.02760 0.99800
O11 O 0.2287(4) 0.05288(16) 0.89513(12)
H86 H 0.26660 0.09920 0.91530
O12 O 0.3114(4) 0.28216(18) 0.72927(12)
H87 H 0.35510 0.33370 0.73880
N6 N 0.2264(4) 0.23949(19) 0.79621(13)
C51 C 0.0001(5) 0.0073(2) 0.82649(18)
H88 H -0.06570 -0.03190 0.86700
C52 C 0.0778(5) 0.0998(2) 0.85265(16)
C53 C 0.1673(4) 0.1554(2) 0.78418(15)
C54 C 0.1858(6) 0.1091(3) 0.70830(17)
H89 H 0.31970 0.09040 0.68870
H90 H 0.12700 0.16140 0.67430
C55 C 0.0929(5) 0.0126(3) 0.71108(19)
H91 H 0.10290 -0.02160 0.66290
C56 C -0.1059(5) 0.0325(3) 0.7558(2)
C57 C 0.1581(5) -0.0598(2) 0.77605(19)
H92 H 0.14070 -0.13200 0.77270
H93 H 0.28550 -0.05600 0.78630
C58 C -0.2222(6) -0.0536(3) 0.7473(3)
H94 H -0.33070 -0.04700 0.78570
H95 H -0.14430 -0.12140 0.75210
H96 H -0.26460 -0.04630 0.69870
C59 C -0.2328(6) 0.1384(3) 0.7459(3)
H97 H -0.25880 0.14720 0.69480
H98 H -0.16910 0.19360 0.75750
H99 H -0.35040 0.14110 0.77920
C60 C -0.0716(6) 0.1714(3) 0.9029(2)
H100 H -0.10210 0.13560 0.95000
H101 H -0.18420 0.19040 0.87890
H102 H -0.02340 0.23370 0.91170
#END
