
#######################################################################
#
#                 Cambridge Crystallographic Data Centre
#                                CCDC
#
#######################################################################
#
# If this CIF has been generated from an entry in the Cambridge
# Structural Database, then it will include bibliographic, chemical,
# crystal, experimental, refinement or atomic coordinate data resulting
# from the CCDC's data processing and validation procedures.
#
#######################################################################

data_CSD_CIF_WUHNUI
_audit_creation_date 2003-02-14
_audit_creation_method CSD-ConQuest-V1
_database_code_CSD WUHNUI
_database_code_depnum_ccdc_archive 'CCDC 181871'
_chemical_formula_sum 'C10 H17 N1 O2'
_chemical_formula_moiety
;
C10 H17 N1 O2
;
_journal_coden_Cambridge 1090
_journal_volume 13
_journal_year 2002
_journal_page_first 1981
_journal_name_full 'Tetrahedron:Asymm. '
loop_
_publ_author_name
"S.W.Markowicz"
"K.Pokrzeptowicz"
"J.Karolak-Wojciechowska"
"R.Czylkowski"
"J.Omelanczuk"
"A.Sobczak"
_chemical_name_systematic
;
rac-1S,2S-2-Hydroxy-2,6,6-trimethylbicyclo(3.1.1)heptan-3-one oxime
;
_cell_volume   1996.658
_exptl_crystal_density_diffrn 1.219
_diffrn_ambient_temperature 293
#These two values have been output from a single CSD field.
_refine_ls_R_factor_gt 0.0366
_refine_ls_wR_factor_gt 0.0366
loop_
_citation_database_id_CSD
_citation_special_details
WUHNOC "is a stereoisomer of this entry"
_symmetry_cell_setting monoclinic
_symmetry_space_group_name_H-M 'P 21/n'
_symmetry_Int_Tables_number 14
loop_
_symmetry_equiv_pos_site_id
_symmetry_equiv_pos_as_xyz
1 x,y,z
2 1/2+x,1/2-y,1/2+z
3 -x,-y,-z
4 -1/2-x,-1/2+y,-1/2-z
_cell_length_a 12.578(3)
_cell_length_b 11.753(2)
_cell_length_c 13.610(3)
_cell_angle_alpha 90
_cell_angle_beta 97.07(3)
_cell_angle_gamma 90
_cell_formula_units_Z 8
loop_
_atom_type_symbol
_atom_type_radius_bond
C 0.68
H 0.23
N 0.68
O 0.68
loop_
_atom_site_label
_atom_site_type_symbol
_atom_site_fract_x
_atom_site_fract_y
_atom_site_fract_z
C1 C 0.18273(11) 0.75039(12) 0.10037(11)
H1 H 0.23810 0.72650 0.15110
C2 C 0.09977(11) 0.65857(11) 0.06718(10)
O1 O 0.15495(8) 0.57465(8) 0.01361(8)
H2 H 0.12140 0.50510 0.01460
C3 C 0.01167(10) 0.71267(11) -0.00602(10)
N1 N -0.07496(9) 0.65616(11) -0.02700(9)
O2 O -0.14658(8) 0.71395(10) -0.09809(8)
H3 H -0.21530 0.68310 -0.08400
C4 C 0.02927(11) 0.82908(12) -0.04812(10)
H4 H -0.03240 0.87560 -0.04250
H5 H 0.03720 0.82190 -0.11710
C5 C 0.12809(11) 0.88652(12) 0.00559(11)
H6 H 0.14140 0.96260 -0.01550
C6 C 0.22342(12) 0.80379(13) 0.00802(13)
H7 H 0.22030 0.75370 -0.04800
H8 H 0.29230 0.83960 0.02120
C7 C 0.13207(12) 0.86951(12) 0.11956(11)
C8 C 0.21498(16) 0.94732(16) 0.17774(15)
H9 H 0.18260 1.01940 0.18880
H10 H 0.24020 0.91290 0.24030
H11 H 0.27410 0.95850 0.14040
C9 C 0.02838(14) 0.87908(14) 0.16623(12)
H12 H 0.00990 0.95780 0.17210
H13 H -0.02800 0.84060 0.12520
H14 H 0.03780 0.84470 0.23070
C10 C 0.05690(13) 0.60031(14) 0.15421(11)
H15 H 0.11550 0.56830 0.19720
H16 H 0.02030 0.65510 0.19010
H17 H 0.00800 0.54090 0.13030
C11 C -0.31342(12) 0.77661(13) 0.07808(11)
H18 H -0.26610 0.83040 0.05300
C12 C -0.40388(12) 0.73453(12) 0.00149(11)
O3 O -0.35625(8) 0.66810(9) -0.07180(8)
H19 H -0.37590 0.58750 -0.06940
C13 C -0.47772(11) 0.65814(12) 0.05459(10)
N2 N -0.56891(10) 0.63666(11) 0.00661(10)
O4 O -0.62930(8) 0.56504(9) 0.0632(1)
H20 H -0.69990 0.57540 0.03360
C14 C -0.44101(12) 0.61751(13) 0.15835(11)
H21 H -0.42650 0.53740 0.15750
H22 H -0.49740 0.62970 0.19880
C15 C -0.34177(12) 0.68094(14) 0.20362(11)
H23 H -0.31690 0.66190 0.27110
C16 C -0.25685(12) 0.67328(15) 0.13146(12)
H24 H -0.18500 0.68830 0.16120
H25 H -0.26040 0.60500 0.09260
C17 C -0.35151(14) 0.81029(14) 0.18028(12)
C18 C -0.2651(2) 0.8803(2) 0.24213(16)
H26 H -0.28830 0.90050 0.30440
H27 H -0.20110 0.83520 0.25360
H28 H -0.25070 0.94810 0.20680
C19 C -0.45993(18) 0.86703(16) 0.18630(15)
H29 H -0.46860 0.88090 0.25440
H30 H -0.46300 0.93790 0.15100
H31 H -0.51630 0.81800 0.15730
C20 C -0.46277(16) 0.83137(15) -0.05614(14)
H32 H -0.41290 0.87640 -0.08750
H33 H -0.51580 0.80030 -0.10560
H34 H -0.49710 0.87830 -0.01170
#END
