
#######################################################################
#
#                 Cambridge Crystallographic Data Centre
#                                CCDC
#
#######################################################################
#
# If this CIF has been generated from an entry in the Cambridge
# Structural Database, then it will include bibliographic, chemical,
# crystal, experimental, refinement or atomic coordinate data resulting
# from the CCDC's data processing and validation procedures.
#
#######################################################################

data_CSD_CIF_WUHWIF
_audit_creation_date 2003-02-14
_audit_creation_method CSD-ConQuest-V1
_database_code_CSD WUHWIF
_database_code_depnum_ccdc_archive 'CCDC 186410'
_chemical_formula_sum 'C30 H38 N2 O20'
_chemical_formula_moiety
;
C30 H38 N2 O20
;
_journal_coden_Cambridge 16
_journal_volume 58
_journal_year 2002
_journal_page_first 8505
_journal_name_full 'Tetrahedron '
loop_
_publ_author_name
"K.W.J.Baker"
"A.R.March"
"S.Parsons"
"R.M.Paton"
"G.W.Stewart"
_chemical_name_systematic
;
3,4-bis(2,3,4,6-Tetra-O-acetyl-\b-D-mannopyranosyl)-1,2,5-oxadiazole 2-oxide
;
_cell_volume    877.155
_exptl_crystal_colour 'colorless'
_exptl_crystal_density_diffrn 1.413
_exptl_crystal_description 'block'
_diffrn_ambient_temperature 150
_refine_special_details
;
The 2-oxide substituent of the 1,2,5-oxadiazole ring, O2, is disordered over 
two sites with occupancies of 0.851:0.149.
;
#These two values have been output from a single CSD field.
_refine_ls_R_factor_gt 0.0671
_refine_ls_wR_factor_gt 0.0671
_symmetry_cell_setting triclinic
_symmetry_space_group_name_H-M 'P 1'
_symmetry_Int_Tables_number 1
loop_
_symmetry_equiv_pos_site_id
_symmetry_equiv_pos_as_xyz
1 x,y,z
_cell_length_a 7.839(3)
_cell_length_b 8.6191(18)
_cell_length_c 13.229(3)
_cell_angle_alpha 97.803(11)
_cell_angle_beta 97.599(16)
_cell_angle_gamma 91.07(2)
_cell_formula_units_Z 1
loop_
_atom_type_symbol
_atom_type_radius_bond
C 0.68
H 0.23
N 0.68
O 0.68
loop_
_atom_site_label
_atom_site_type_symbol
_atom_site_fract_x
_atom_site_fract_y
_atom_site_fract_z
O1 O 1.6061(6) -0.4692(6) 0.2236(4)
N1 N 1.4815(7) -0.3921(6) 0.1555(4)
O2 O 1.4767(8) -0.4372(7) 0.0669(4)
O3? O 1.682(4) -0.488(3) 0.370(2)
C1 C 1.4100(7) -0.2877(7) 0.2178(5)
C2 C 1.4855(7) -0.2962(7) 0.3203(5)
N2 N 1.6002(7) -0.4048(6) 0.3226(4)
O4 O 1.1445(5) -0.1832(5) 0.2470(3)
C3 C 1.2798(7) -0.1753(7) 0.1854(5)
H1 H 1.33440 -0.06740 0.20110
C4 C 1.2040(7) -0.2032(7) 0.0709(5)
H2 H 1.29690 -0.20200 0.02590
O5 O 1.1106(5) -0.3539(5) 0.0525(3)
C5 C 1.1031(8) -0.4352(8) -0.0425(5)
O6 O 1.1644(7) -0.3901(6) -0.1115(4)
C6 C 1.0045(13) -0.5874(10) -0.0487(8)
H3 H 0.96550 -0.59540 0.01780
H4 H 1.07900 -0.67440 -0.06590
H5 H 0.90450 -0.59200 -0.10220
C7 C 1.0798(7) -0.0740(7) 0.0539(5)
H6 H 1.14500 0.02920 0.06920
O7 O 0.9963(5) -0.0930(5) -0.0509(3)
C8 C 1.0913(8) -0.0425(8) -0.1197(5)
O8 O 1.2294(6) 0.0218(6) -0.0952(4)
C9 C 0.9968(10) -0.0803(11) -0.2258(6)
H7 H 0.88650 -0.13390 -0.22310
H8 H 1.06580 -0.14860 -0.26840
H9 H 0.97590 0.01680 -0.25560
C10 C 0.9426(7) -0.0735(7) 0.1230(5)
H10 H 0.86740 -0.17080 0.10380
O9 O 0.8434(5) 0.0624(5) 0.1098(3)
C11 C 0.6691(7) 0.0430(8) 0.0965(5)
O10 O 0.5948(5) -0.0760(6) 0.1026(4)
C12 C 0.5863(11) 0.1919(10) 0.0756(9)
H11 H 0.67550 0.27240 0.07420
H12 H 0.51650 0.22680 0.13010
H13 H 0.51250 0.17430 0.00900
C13 C 1.0253(7) -0.0604(7) 0.2357(5)
H14 H 1.08930 0.04300 0.25530
C14 C 0.8964(8) -0.0748(8) 0.3098(5)
H15 H 0.78910 -0.02420 0.28570
H16 H 0.86790 -0.18710 0.31030
O11 O 0.9605(5) -0.0038(5) 0.4127(3)
C15 C 0.9279(8) 0.1521(8) 0.4354(5)
O12 O 0.8632(7) 0.2251(7) 0.3699(5)
C16 C 0.9856(10) 0.2143(9) 0.5447(6)
H17 H 1.03310 0.12960 0.58100
H18 H 0.88740 0.25710 0.57660
H19 H 1.07430 0.29730 0.54880
O13 O 1.4831(5) -0.0382(5) 0.3982(3)
C17 C 1.4400(7) -0.1964(7) 0.4128(4)
H20 H 1.31230 -0.20570 0.41100
C18 C 1.5235(6) -0.2348(7) 0.5174(4)
H21 H 1.48690 -0.34280 0.52740
O14 O 1.7077(5) -0.2227(5) 0.5201(3)
C19 C 1.7956(7) -0.3435(8) 0.5563(5)
O15 O 1.7305(7) -0.4408(7) 0.5954(5)
C20 C 1.9806(8) -0.3325(9) 0.5370(6)
H22 H 1.99870 -0.23940 0.50400
H23 H 2.00650 -0.42640 0.49170
H24 H 2.05690 -0.32450 0.60260
C21 C 1.4666(7) -0.1147(7) 0.5992(4)
H25 H 1.33970 -0.13010 0.59870
O16 O 1.5516(5) -0.1324(5) 0.6990(3)
C22 C 1.4830(8) -0.2461(8) 0.7438(5)
O17 O 1.3604(6) -0.3271(7) 0.7036(4)
C23 C 1.5868(11) -0.2603(11) 0.8468(6)
H26 H 1.68070 -0.18040 0.86150
H27 H 1.63480 -0.36460 0.84470
H28 H 1.51200 -0.24490 0.90080
C24 C 1.5035(7) 0.0530(7) 0.5808(5)
H29 H 1.63030 0.07650 0.58800
O18 O 1.4242(5) 0.1583(5) 0.6531(3)
C25 C 1.5236(10) 0.2340(8) 0.7352(5)
O19 O 1.6801(7) 0.2252(7) 0.7490(5)
C26 C 1.4213(12) 0.3288(10) 0.8066(6)
H30 H 1.29900 0.31810 0.77830
H31 H 1.45960 0.43920 0.81460
H32 H 1.43800 0.29150 0.87380
C27 C 1.4170(7) 0.0725(7) 0.4733(5)
H33 H 1.29020 0.05160 0.46940
C28 C 1.4476(8) 0.2344(7) 0.4454(5)
H34 H 1.41900 0.31540 0.50060
H35 H 1.57000 0.25050 0.43700
O20 O 1.3375(6) 0.2462(5) 0.3491(3)
C29 C 1.2515(7) 0.3801(7) 0.3440(5)
O21 O 1.2561(6) 0.4821(5) 0.4152(4)
C30 C 1.147(1) 0.3808(9) 0.2404(6)
H36 H 1.16550 0.28450 0.19520
H37 H 1.18280 0.47180 0.21000
H38 H 1.02470 0.38670 0.24820
#END
