
#######################################################################
#
#                 Cambridge Crystallographic Data Centre
#                                CCDC
#
#######################################################################
#
# If this CIF has been generated from an entry in the Cambridge
# Structural Database, then it will include bibliographic, chemical,
# crystal, experimental, refinement or atomic coordinate data resulting
# from the CCDC's data processing and validation procedures.
#
#######################################################################

data_CSD_CIF_WUHYED
_audit_creation_date 2003-02-14
_audit_creation_method CSD-ConQuest-V1
_database_code_CSD WUHYED
_database_code_depnum_ccdc_archive 'CCDC 155313'
_chemical_formula_sum 'C8 H10 N2 O5'
_chemical_formula_moiety
;
C8 H10 N2 O5
;
_journal_coden_Cambridge 1086
_journal_volume 13
_journal_year 2001
_journal_page_first 523
_journal_name_full 'Chirality '
loop_
_publ_author_name
"T.N.Johansen"
"T.S.Stensbol"
"B.Nielsen"
"S.B.Vogensen"
"K.Frydenvang"
"F.A.Slok"
"H.Brauner-Osborne"
"U.Madsen"
"P.Krogsgaard-Larsen"
_chemical_name_systematic
;
(-)-(R)-2-Amino-3-(3-carboxy-5-methyl-4-isoxazolyl)propionic acid
;
_chemical_melting_point 485.15
_cell_volume    904.036
_exptl_crystal_colour 'colorless'
_exptl_crystal_density_diffrn 1.574
_exptl_special_details
;
Melts with decomposition.
inactive against AMPA receptor of (S)-glutamic acid

;
_exptl_crystal_preparation 'water'
_diffrn_ambient_temperature 122
#These two values have been output from a single CSD field.
_refine_ls_R_factor_gt 0.0242
_refine_ls_wR_factor_gt 0.0242
_symmetry_cell_setting orthorhombic
_symmetry_space_group_name_H-M 'P 21 21 21'
_symmetry_Int_Tables_number 19
loop_
_symmetry_equiv_pos_site_id
_symmetry_equiv_pos_as_xyz
1 x,y,z
2 1/2-x,-y,1/2+z
3 -x,1/2+y,1/2-z
4 1/2+x,1/2-y,-z
_cell_length_a 5.734(1)
_cell_length_b 6.1676(9)
_cell_length_c 25.563(6)
_cell_angle_alpha 90
_cell_angle_beta 90
_cell_angle_gamma 90
_cell_formula_units_Z 4
loop_
_atom_type_symbol
_atom_type_radius_bond
C 0.68
H 0.23
N 0.68
O 0.68
loop_
_atom_site_label
_atom_site_type_symbol
_atom_site_fract_x
_atom_site_fract_y
_atom_site_fract_z
O1 O 0.16546(16) 0.15224(14) 0.21369(3)
O2 O -0.03499(17) 0.84422(15) 0.01951(4)
O3 O -0.41777(17) 0.00315(15) 0.12880(4)
H1 H -0.544(3) -0.002(3) 0.1020(7)
O4 O -0.30932(17) 0.27761(16) 0.07677(4)
O5 O 0.24892(16) 1.00393(15) 0.06472(4)
N1 N 0.13862(19) 0.44627(16) 0.03639(4)
H2 H 0.233(3) 0.477(3) 0.0080(6)
H3 H 0.166(3) 0.308(3) 0.0501(6)
H4 H -0.016(3) 0.457(3) 0.0249(6)
N2 N -0.02508(19) 0.06128(17) 0.18750(4)
C1 C 0.1316(2) 0.84057(19) 0.04992(5)
C2 C 0.2103(2) 0.3514(2) 0.19321(5)
C3 C -0.0848(2) 0.20591(19) 0.15223(4)
C4 C 0.0583(2) 0.39484(19) 0.15405(5)
C5 C -0.2825(2) 0.1646(2) 0.11542(5)
C6 C 0.1892(2) 0.62094(18) 0.07532(5)
H5 H 0.358(3) 0.612(3) 0.0849(6)
C7 C 0.0349(2) 0.6016(2) 0.12410(5)
H6 H 0.070(3) 0.717(3) 0.1478(6)
H7 H -0.130(3) 0.617(3) 0.1149(6)
C8 C 0.4062(2) 0.4744(2) 0.21666(5)
H8 H 0.386(3) 0.475(3) 0.2558(7)
H9 H 0.563(3) 0.417(3) 0.2093(7)
H10 H 0.406(3) 0.621(3) 0.2025(7)
#END
