
#######################################################################
#
#                 Cambridge Crystallographic Data Centre
#                                CCDC
#
#######################################################################
#
# If this CIF has been generated from an entry in the Cambridge
# Structural Database, then it will include bibliographic, chemical,
# crystal, experimental, refinement or atomic coordinate data resulting
# from the CCDC's data processing and validation procedures.
#
#######################################################################

data_CSD_CIF_WUKVUU
_audit_creation_date 2010-06-17
_audit_creation_method CSD-ConQuest-V1
_database_code_CSD WUKVUU
_database_code_depnum_ccdc_archive 'CCDC 754011'
_chemical_formula_sum 'C16 H17 N1 O6'
_chemical_formula_moiety
;
C16 H17 N1 O6
;
_journal_coden_Cambridge 1336
_journal_volume 11
_journal_year 2009
_journal_page_first 3498
_journal_name_full 'Org.Lett. '
loop_
_publ_author_name
"Silong Xu"
"Lili Zhou"
"San Zeng"
"Renqin Ma"
"Zhihong Wang"
"Zhengjie He"
_chemical_name_systematic
;
6-Ethyl 1-methyl 4-(3-nitrobenzylidene)hex-2-enedioate
;
_chemical_melting_point 342.15
_cell_volume    763.615
_exptl_crystal_density_diffrn 1.389
_exptl_special_details
;
Melting point range 342.15-343.15K

;
_diffrn_ambient_temperature 113
#These two values have been output from a single CSD field.
_refine_ls_R_factor_gt 0.0327
_refine_ls_wR_factor_gt 0.0327
_symmetry_cell_setting triclinic
_symmetry_space_group_name_H-M 'P -1'
_symmetry_Int_Tables_number 2
loop_
_symmetry_equiv_pos_site_id
_symmetry_equiv_pos_as_xyz
1 x,y,z
2 -x,-y,-z
_cell_length_a 8.2434(16)
_cell_length_b 9.3954(19)
_cell_length_c 10.116(2)
_cell_angle_alpha 82.63(3)
_cell_angle_beta 84.66(3)
_cell_angle_gamma 80.19(3)
_cell_formula_units_Z 2
loop_
_atom_type_symbol
_atom_type_radius_bond
C 0.68
H 0.23
N 0.68
O 0.68
loop_
_atom_site_label
_atom_site_type_symbol
_atom_site_fract_x
_atom_site_fract_y
_atom_site_fract_z
O1 O 0.50359(13) 1.31201(10) 0.54035(11)
O2 O 0.66907(12) 1.12586(10) 0.62605(11)
O3 O -0.10282(13) 0.69641(11) 0.78243(13)
O4 O -0.09485(11) 0.51419(9) 0.65785(10)
O5 O 0.40562(11) 0.21859(9) 1.01451(10)
O6 O 0.18529(10) 0.13835(9) 0.95268(9)
N1 N 0.53177(15) 1.18671(12) 0.59516(12)
C1 C 0.42094(16) 0.96581(13) 0.69052(13)
H1 H 0.52520 0.92600 0.71820
C2 C 0.39205(16) 1.10489(13) 0.62362(14)
C3 C 0.23980(17) 1.17047(13) 0.58305(14)
H2 H 0.22500 1.26340 0.53690
C4 C 0.10933(17) 1.09398(13) 0.61290(15)
H3 H 0.00450 1.13670 0.58860
C5 C 0.13352(16) 0.95411(13) 0.67879(14)
H4 H 0.04420 0.90450 0.69880
C6 C 0.28994(15) 0.88633(13) 0.71563(14)
C7 C 0.32171(15) 0.73804(13) 0.78491(14)
H5 H 0.39440 0.72340 0.85220
C8 C 0.25874(15) 0.62087(13) 0.76320(14)
C9 C 0.14797(15) 0.61769(13) 0.65278(13)
H6 H 0.15360 0.70240 0.58770
H7 H 0.18720 0.53180 0.60770
C10 C -0.02934(16) 0.61619(13) 0.70600(14)
C11 C -0.25706(17) 0.48813(15) 0.71610(16)
H8 H -0.32110 0.46610 0.64780
H9 H -0.31580 0.57430 0.75310
C12 C -0.23545(18) 0.36269(15) 0.82425(16)
H10 H -0.16950 0.27990 0.78860
H11 H -0.34160 0.33910 0.85780
H12 H -0.18140 0.38880 0.89560
C13 C 0.30095(15) 0.48596(13) 0.85013(14)
H13 H 0.38230 0.48370 0.90850
C14 C 0.23466(15) 0.36515(12) 0.85444(13)
H14 H 0.15430 0.36230 0.79650
C15 C 0.28656(16) 0.23624(13) 0.94936(14)
C16 C 0.22367(17) 0.00793(13) 1.04431(15)
H15 H 0.33210 -0.04130 1.01990
H16 H 0.14430 -0.05500 1.04030
H17 H 0.22000 0.03350 1.13350
#END
