
#######################################################################
#
#                 Cambridge Crystallographic Data Centre
#                                CCDC
#
#######################################################################
#
# If this CIF has been generated from an entry in the Cambridge
# Structural Database, then it will include bibliographic, chemical,
# crystal, experimental, refinement or atomic coordinate data resulting
# from the CCDC's data processing and validation procedures.
#
#######################################################################

data_CSD_CIF_WUKZIL
_audit_creation_date 2003-03-25
_audit_creation_method CSD-ConQuest-V1
_database_code_CSD WUKZIL
_chemical_formula_sum 'C6 H7 N3 O2'
_chemical_formula_moiety
;
C6 H7 N3 O2
;
_journal_coden_Cambridge 119
_journal_volume 605
_journal_year 2002
_journal_page_first 157
_journal_name_full 'J.Mol.Struct. '
loop_
_publ_author_name
"J.B.Kyziol"
"M.A.Broda"
"J.Zaleski"
"Z.Daszkiewicz"
_chemical_name_systematic
;
N-Methyl-N-(4-pyridyl)nitramine
;
_chemical_melting_point 328.15
_cell_volume   1412.327
_exptl_crystal_density_diffrn 1.44
_exptl_special_details
;
Melting point range 328.15-330.15K

;
_exptl_crystal_preparation 'n-hexane'
_diffrn_ambient_temperature 293
#These two values have been output from a single CSD field.
_refine_ls_R_factor_gt 0.0496
_refine_ls_wR_factor_gt 0.0496
_symmetry_cell_setting orthorhombic
_symmetry_space_group_name_H-M 'P b c a'
_symmetry_Int_Tables_number 61
loop_
_symmetry_equiv_pos_site_id
_symmetry_equiv_pos_as_xyz
1 x,y,z
2 1/2-x,-y,1/2+z
3 1/2+x,1/2-y,-z
4 -x,1/2+y,1/2-z
5 -x,-y,-z
6 -1/2+x,y,-1/2-z
7 -1/2-x,-1/2+y,z
8 x,-1/2-y,-1/2+z
_cell_length_a 12.029(2)
_cell_length_b 7.140(2)
_cell_length_c 16.444(4)
_cell_angle_alpha 90
_cell_angle_beta 90
_cell_angle_gamma 90
_cell_formula_units_Z 8
loop_
_atom_type_symbol
_atom_type_radius_bond
C 0.68
H 0.23
N 0.68
O 0.68
loop_
_atom_site_label
_atom_site_type_symbol
_atom_site_fract_x
_atom_site_fract_y
_atom_site_fract_z
N1 N 0.2098(1) 0.2297(2) 0.5318(1)
C1 C 0.2170(1) 0.2778(2) 0.6099(1)
C2 C 0.3158(1) 0.2938(2) 0.6524(1)
C3 C 0.4128(1) 0.2594(2) 0.6106(1)
C4 C 0.4090(1) 0.2111(2) 0.5293(1)
C5 C 0.3058(1) 0.1975(2) 0.4935(1)
N2 N 0.5172(1) 0.2855(2) 0.6512(1)
C6 C 0.5705(2) 0.4668(3) 0.6526(1)
N3 N 0.5795(1) 0.1317(2) 0.6645(1)
O1 O 0.6756(1) 0.1562(2) 0.6869(1)
O2 O 0.5358(1) -0.0224(2) 0.6563(1)
H1 H 0.3024(15) 0.1510(3) 0.4378(13)
H2 H 0.4779(16) 0.1820(3) 0.4991(13)
H3 H 0.3178(14) 0.3240(2) 0.7065(12)
H4 H 0.1536(18) 0.3050(3) 0.6386(13)
H5 H 0.6170(2) 0.4770(4) 0.6080(2)
H6 H 0.6140(2) 0.4650(4) 0.7020(2)
H7 H 0.5140(2) 0.5630(4) 0.6573(13)
#END
