
#######################################################################
#
#                 Cambridge Crystallographic Data Centre
#                                CCDC
#
#######################################################################
#
# If this CIF has been generated from an entry in the Cambridge
# Structural Database, then it will include bibliographic, chemical,
# crystal, experimental, refinement or atomic coordinate data resulting
# from the CCDC's data processing and validation procedures.
#
#######################################################################

data_CSD_CIF_WULKOF
_audit_creation_date 2015-05-27
_audit_creation_method CSD-ConQuest-V1
_database_code_CSD WULKOF
_database_code_depnum_ccdc_archive 'CCDC 1403387'
_database_code_depnum_ccdc_journal 1267/4212
_chemical_formula_sum 'C16 H13 N3 O4'
_chemical_formula_moiety
;
C16 H13 N3 O4
;
_journal_coden_Cambridge 1267
_journal_volume 229
_journal_year 2014
_journal_page_first 415
_journal_name_full 'Z.Kristallogr.-New Cryst.Struct. '
loop_
_publ_author_name
"M.Perez-Ferhmann"
"V.Kesternich"
"R.Fernandez"
"F.Verdugo"
"I.Brito"
"A.Cardenas"
"M.Bolte"
_chemical_name_systematic
;
3-(4-methoxy-2-nitrophenyl)-2-methylquinazolin-4(3H)-one
;
_cell_volume   1410.705
_exptl_crystal_colour 'colorless'
_exptl_crystal_density_diffrn 1.466
_exptl_crystal_description 'block'
_diffrn_ambient_temperature 173
#These two values have been output from a single CSD field.
_refine_ls_R_factor_gt 0.0407
_refine_ls_wR_factor_gt 0.0407
_symmetry_cell_setting monoclinic
_symmetry_space_group_name_H-M 'P 21/n'
_symmetry_Int_Tables_number 14
loop_
_symmetry_equiv_pos_site_id
_symmetry_equiv_pos_as_xyz
1 x,y,z
2 1/2-x,1/2+y,1/2-z
3 -x,-y,-z
4 -1/2+x,-1/2-y,-1/2+z
_cell_length_a 7.4973(4)
_cell_length_b 14.1515(7)
_cell_length_c 13.6198(8)
_cell_angle_alpha 90
_cell_angle_beta 102.514(4)
_cell_angle_gamma 90
_cell_formula_units_Z 4
loop_
_atom_type_symbol
_atom_type_radius_bond
C 0.68
H 0.23
N 0.68
O 0.68
loop_
_atom_site_label
_atom_site_type_symbol
_atom_site_fract_x
_atom_site_fract_y
_atom_site_fract_z
O1 O 0.29292(13) 0.28870(6) 0.46691(6)
N1 N 0.41022(12) 0.31409(6) 0.63357(6)
C1 C 0.44097(13) 0.37461(7) 0.71636(7)
N2 N 0.40730(12) 0.46411(6) 0.70954(6)
C2 C 0.33381(14) 0.50170(7) 0.61496(7)
C3 C 0.29661(16) 0.59877(8) 0.60624(8)
H1 H 0.32550 0.63810 0.66400
C4 C 0.21826(17) 0.63733(8) 0.51405(9)
H2 H 0.19270 0.70310 0.50890
C5 C 0.17601(17) 0.58070(8) 0.42794(8)
H3 H 0.12190 0.60800 0.36480
C6 C 0.21296(15) 0.48544(8) 0.43500(8)
H4 H 0.18490 0.44670 0.37670
C7 C 0.29206(13) 0.44580(7) 0.52838(7)
C8 C 0.32875(14) 0.34497(7) 0.53613(7)
C9 C 0.51316(16) 0.33142(8) 0.81700(8)
H5 H 0.63680 0.30730 0.82010
H6 H 0.43350 0.27930 0.82770
H7 H 0.51670 0.37930 0.86940
C10 C 0.45210(13) 0.21509(7) 0.64435(7)
C11 C 0.31722(13) 0.14611(7) 0.62934(7)
C12 C 0.35428(14) 0.05026(7) 0.62965(8)
H8 H 0.25820 0.00510 0.61710
C13 C 0.53629(15) 0.02196(7) 0.64886(8)
C14 C 0.67516(14) 0.08938(8) 0.66598(9)
H9 H 0.79940 0.06990 0.68080
C15 C 0.63257(14) 0.18455(8) 0.66150(8)
H10 H 0.72820 0.22990 0.67030
N3 N 0.12380(12) 0.17203(6) 0.61291(7)
O2 O 0.01286(11) 0.12484(7) 0.55397(6)
O3 O 0.08299(11) 0.23867(6) 0.66170(7)
O4 O 0.59078(12) -0.06952(6) 0.65257(7)
C16 C 0.45157(19) -0.13991(9) 0.62835(11)
H11 H 0.50820 -0.20240 0.62870
H12 H 0.37590 -0.12720 0.56150
H13 H 0.37510 -0.13850 0.67830
#END
