
#######################################################################
#
#                 Cambridge Crystallographic Data Centre
#                                CCDC
#
#######################################################################
#
# If this CIF has been generated from an entry in the Cambridge
# Structural Database, then it will include bibliographic, chemical,
# crystal, experimental, refinement or atomic coordinate data resulting
# from the CCDC's data processing and validation procedures.
#
#######################################################################

data_CSD_CIF_WULREA
_audit_creation_date 2003-03-25
_audit_creation_method CSD-ConQuest-V1
_database_code_CSD WULREA
_database_code_depnum_ccdc_archive 'CCDC 186385'
_chemical_formula_sum 'C19 H23 N1 O8'
_chemical_formula_moiety
;
C19 H23 N1 O8
;
_journal_coden_Cambridge 179
_journal_volume 41
_journal_year 2002
_journal_page_first 3898
_journal_name_full 'Angew.Chem.,Int.Ed. '
loop_
_publ_author_name
"P.Michel"
"S.V.Ley"
_chemical_name_systematic
;
2,3-Dimethyl-2,3-dimethoxy-5-(1-(4-nitrobenzoyloxy)but-2-ynyl)-1,4-dioxane
;
_cell_volume   1927.864
_exptl_crystal_colour 'colorless'
_exptl_crystal_density_diffrn 1.355
_diffrn_ambient_temperature 180
#These two values have been output from a single CSD field.
_refine_ls_R_factor_gt 0.0384
_refine_ls_wR_factor_gt 0.0384
_symmetry_cell_setting orthorhombic
_symmetry_space_group_name_H-M 'P 21 21 21'
_symmetry_Int_Tables_number 19
loop_
_symmetry_equiv_pos_site_id
_symmetry_equiv_pos_as_xyz
1 x,y,z
2 1/2-x,-y,1/2+z
3 -x,1/2+y,1/2-z
4 1/2+x,1/2-y,-z
_cell_length_a 6.994(1)
_cell_length_b 13.249(3)
_cell_length_c 20.805(4)
_cell_angle_alpha 90
_cell_angle_beta 90
_cell_angle_gamma 90
_cell_formula_units_Z 4
loop_
_atom_type_symbol
_atom_type_radius_bond
C 0.68
H 0.23
N 0.68
O 0.68
loop_
_atom_site_label
_atom_site_type_symbol
_atom_site_fract_x
_atom_site_fract_y
_atom_site_fract_z
O1 O 0.75877(18) 0.20438(11) 0.79107(7)
O2 O 0.83776(19) 0.26051(11) 0.91802(7)
O3 O 1.04693(19) 0.29134(11) 0.80482(7)
O4 O 0.8804(2) 0.08767(11) 0.90011(7)
O5 O 0.48049(19) 0.42586(11) 0.83748(7)
O6 O 0.6093(2) 0.58030(12) 0.82467(8)
O7 O -0.3238(2) 0.62376(15) 0.97468(9)
O8 O -0.2421(2) 0.77256(14) 0.94204(10)
N1 N -0.2132(3) 0.68236(18) 0.94795(9)
C1 C 0.9507(3) 0.19868(15) 0.81481(10)
C2 C 0.9551(3) 0.18529(15) 0.88852(10)
C3 C 0.6428(3) 0.25237(17) 0.89675(11)
H1 H 0.56390 0.30350 0.91920
H2 H 0.59250 0.18480 0.90800
C4 C 0.6274(3) 0.26808(15) 0.82484(11)
H3 H 0.49620 0.24570 0.81220
C5 C 1.1004(3) 0.31494(19) 0.73985(11)
H4 H 1.15260 0.38350 0.73810
H5 H 0.98770 0.31050 0.71200
H6 H 1.19750 0.26690 0.72510
C6 C 1.0382(3) 0.11128(16) 0.77908(11)
H7 H 1.01890 0.12050 0.73280
H8 H 0.97720 0.04830 0.79290
H9 H 1.17550 0.10820 0.78830
C7 C 1.1526(3) 0.19908(18) 0.91722(11)
H10 H 1.14480 0.19410 0.96410
H11 H 1.20260 0.26560 0.90520
H12 H 1.23810 0.14640 0.90080
C8 C 0.8679(4) 0.05748(19) 0.96594(12)
H13 H 0.80180 -0.00760 0.96880
H14 H 0.79640 0.10840 0.99030
H15 H 0.99690 0.05100 0.98390
C9 C 0.6442(3) 0.37869(16) 0.80516(10)
H16 H 0.76680 0.40800 0.82140
C10 C 0.6256(3) 0.39573(16) 0.73597(12)
C11 C 0.5999(3) 0.41464(16) 0.68076(13)
C12 C 0.5689(4) 0.44078(19) 0.61313(13)
H17 H 0.47460 0.49530 0.61020
H18 H 0.52150 0.38150 0.58990
H19 H 0.68980 0.46310 0.59400
C13 C 0.4789(3) 0.52745(16) 0.84148(10)
C14 C 0.2972(3) 0.56540(16) 0.87012(10)
C15 C 0.1497(3) 0.50008(16) 0.88729(10)
H20 H 0.16300 0.42950 0.88050
C16 C -0.0168(3) 0.53826(17) 0.91429(10)
H21 H -0.11720 0.49450 0.92730
C17 C -0.0325(3) 0.64079(17) 0.92167(10)
C18 C 0.1107(3) 0.70722(17) 0.90475(11)
H22 H 0.09540 0.77790 0.91050
C19 C 0.2771(3) 0.66794(16) 0.87915(11)
H23 H 0.37860 0.71200 0.86760
#END
