
#######################################################################
#
#                 Cambridge Crystallographic Data Centre
#                                CCDC
#
#######################################################################
#
# If this CIF has been generated from an entry in the Cambridge
# Structural Database, then it will include bibliographic, chemical,
# crystal, experimental, refinement or atomic coordinate data resulting
# from the CCDC's data processing and validation procedures.
#
#######################################################################

data_CSD_CIF_WULRAW
_audit_creation_date 2003-03-25
_audit_creation_method CSD-ConQuest-V1
_database_code_CSD WULRAW
_database_code_depnum_ccdc_archive 'CCDC 186384'
_chemical_formula_sum 'C18 H23 N1 O8'
_chemical_formula_moiety
;
C18 H23 N1 O8
;
_journal_coden_Cambridge 179
_journal_volume 41
_journal_year 2002
_journal_page_first 3898
_journal_name_full 'Angew.Chem.,Int.Ed. '
loop_
_publ_author_name
"P.Michel"
"S.V.Ley"
_chemical_name_systematic
;
2,3-Dimethyl-2,3-dimethoxy-5-(1-(4-nitrobenzoyloxy)prop-2-enyl)-1,4-dioxane
;
_cell_volume    941.159
_exptl_crystal_colour 'colorless'
_exptl_crystal_density_diffrn 1.346
_diffrn_ambient_temperature 180
#These two values have been output from a single CSD field.
_refine_ls_R_factor_gt 0.0451
_refine_ls_wR_factor_gt 0.0451
_symmetry_cell_setting monoclinic
_symmetry_space_group_name_H-M 'P 21'
_symmetry_Int_Tables_number 4
loop_
_symmetry_equiv_pos_site_id
_symmetry_equiv_pos_as_xyz
1 x,y,z
2 -x,1/2+y,-z
_cell_length_a 19.339(4)
_cell_length_b 6.300(2)
_cell_length_c 7.750(2)
_cell_angle_alpha 90
_cell_angle_beta 94.62(2)
_cell_angle_gamma 90
_cell_formula_units_Z 2
loop_
_atom_type_symbol
_atom_type_radius_bond
C 0.68
H 0.23
N 0.68
O 0.68
loop_
_atom_site_label
_atom_site_type_symbol
_atom_site_fract_x
_atom_site_fract_y
_atom_site_fract_z
O1 O 0.68261(12) 0.1231(4) -0.2584(4)
O2 O 0.60648(12) -0.1707(4) -0.0598(4)
O3 O 0.70863(12) -0.2377(4) -0.2781(4)
O4 O 0.54542(12) 0.0211(4) -0.2793(4)
O5 O 0.78471(11) 0.1811(4) 0.0415(4)
O6 O 0.85647(13) 0.4497(5) -0.0065(5)
O7 O 1.11297(14) -0.1268(5) 0.4528(5)
O8 O 1.06235(15) -0.4165(5) 0.3669(5)
N1 N 1.06559(16) -0.2229(7) 0.3743(5)
C1 C 0.65885(18) -0.0780(6) -0.3247(6)
C2 C 0.59332(17) -0.1483(6) -0.2417(6)
C3 C 0.65854(19) -0.0293(6) 0.0203(5)
H1 H 0.70350 -0.10490 0.03510
H2 H 0.64530 0.01130 0.13660
C4 C 0.66703(18) 0.1694(6) -0.0857(6)
H3 H 0.62240 0.25020 -0.09100
C5 C 0.77798(19) -0.1942(7) -0.3218(7)
H4 H 0.80900 -0.30820 -0.27740
H5 H 0.79370 -0.05890 -0.26990
H6 H 0.77860 -0.18570 -0.44790
C6 C 0.6476(2) -0.0499(7) -0.5181(5)
H7 H 0.69010 0.00490 -0.56260
H8 H 0.60960 0.05080 -0.54500
H9 H 0.63570 -0.18700 -0.57240
C7 C 0.5646(2) -0.3608(6) -0.3073(6)
H10 H 0.52820 -0.40760 -0.23500
H11 H 0.60190 -0.46620 -0.30200
H12 H 0.54500 -0.34550 -0.42740
C8 C 0.47959(19) -0.0032(8) -0.2114(7)
H13 H 0.45550 0.13380 -0.21440
H14 H 0.48620 -0.05380 -0.09160
H15 H 0.45180 -0.10650 -0.28160
C9 C 0.72476(16) 0.3143(6) -0.0067(6)
H16 H 0.73710 0.42040 -0.09510
C10 C 0.70301(19) 0.4284(6) 0.1496(6)
H17 H 0.66490 0.52330 0.13160
C11 C 0.7312(2) 0.4111(7) 0.3094(7)
H18 H 0.76940 0.31830 0.33450
H19 H 0.71320 0.49120 0.39960
C12 C 0.84739(18) 0.2734(6) 0.0431(6)
C13 C 0.90338(17) 0.1337(6) 0.1239(6)
C14 C 0.89100(18) -0.0726(6) 0.1739(6)
H20 H 0.84610 -0.13260 0.15200
C15 C 0.94422(19) -0.1919(7) 0.2561(6)
H21 H 0.93660 -0.33420 0.29040
C16 C 1.00817(18) -0.0988(6) 0.2867(6)
C17 C 1.02228(17) 0.1064(6) 0.2382(6)
H22 H 1.06720 0.16600 0.26210
C18 C 0.96923(18) 0.2226(6) 0.1538(6)
H23 H 0.97760 0.36310 0.11610
#END
