
#######################################################################
#
#                 Cambridge Crystallographic Data Centre
#                                CCDC
#
#######################################################################
#
# If this CIF has been generated from an entry in the Cambridge
# Structural Database, then it will include bibliographic, chemical,
# crystal, experimental, refinement or atomic coordinate data resulting
# from the CCDC's data processing and validation procedures.
#
#######################################################################

data_CSD_CIF_WULTUU
_audit_creation_date 2015-05-27
_audit_creation_method CSD-ConQuest-V1
_database_code_CSD WULTUU
_database_code_depnum_ccdc_archive 'CCDC 1403484'
_chemical_formula_sum 'C12 H11 N1 O3'
_chemical_formula_moiety
;
C12 H11 N1 O3
;
_journal_coden_Cambridge 1078
_journal_year 2015
_journal_name_full 'CSD Communication(Private Communication) '
loop_
_publ_author_name
"O.Rusin"
"R.M.Strongin"
"F.R.Fronczek"
_chemical_name_systematic
;
6-(4-nitrophenyl)hexa-3,5-dien-2-one
;
_cell_volume    520.184
_exptl_crystal_colour 'dark yellow'
_exptl_crystal_density_diffrn 1.387
_exptl_crystal_description 'lath'
_diffrn_ambient_temperature 102
#These two values have been output from a single CSD field.
_refine_ls_R_factor_gt 0.05
_refine_ls_wR_factor_gt 0.05
_symmetry_cell_setting triclinic
_symmetry_space_group_name_H-M 'P -1'
_symmetry_Int_Tables_number 2
loop_
_symmetry_equiv_pos_site_id
_symmetry_equiv_pos_as_xyz
1 x,y,z
2 -x,-y,-z
_cell_length_a 3.925(2)
_cell_length_b 10.387(6)
_cell_length_c 12.908(8)
_cell_angle_alpha 97.98(2)
_cell_angle_beta 93.14(2)
_cell_angle_gamma 91.07(4)
_cell_formula_units_Z 2
loop_
_atom_type_symbol
_atom_type_radius_bond
C 0.68
H 0.23
N 0.68
O 0.68
loop_
_atom_site_label
_atom_site_type_symbol
_atom_site_fract_x
_atom_site_fract_y
_atom_site_fract_z
O1 O 0.0505(3) -0.09268(10) 0.26718(8)
O2 O 1.1012(3) 0.74997(11) 0.86380(9)
O3 O 0.8422(3) 0.66185(12) 0.98113(9)
N1 N 0.9191(3) 0.66386(12) 0.89037(10)
C1 C 0.7888(3) 0.55816(14) 0.80943(11)
C2 C 0.8470(4) 0.56648(14) 0.70573(11)
H1 H 0.96630 0.63950 0.68710
C3 C 0.7275(4) 0.46600(15) 0.62981(11)
H2 H 0.76550 0.47040 0.55830
C4 C 0.5510(3) 0.35771(14) 0.65671(11)
C5 C 0.4925(4) 0.35440(14) 0.76274(11)
H3 H 0.36850 0.28290 0.78210
C6 C 0.6131(4) 0.45397(14) 0.83955(11)
H4 H 0.57600 0.45080 0.91130
C7 C 0.4194(4) 0.24916(14) 0.57890(11)
H5 H 0.26980 0.18800 0.60270
C8 C 0.4895(4) 0.22787(14) 0.47763(11)
H6 H 0.64020 0.28720 0.45210
C9 C 0.3471(4) 0.11898(14) 0.40533(11)
H7 H 0.19730 0.06030 0.43200
C10 C 0.4097(4) 0.09436(14) 0.30379(11)
H8 H 0.56150 0.15090 0.27550
C11 C 0.2492(4) -0.01857(14) 0.23394(11)
C12 C 0.3373(4) -0.03640(16) 0.12111(12)
H9 H 0.21060 -0.11230 0.08300
H10 H 0.58280 -0.04990 0.11690
H11 H 0.27580 0.04130 0.08980
#END
