
#######################################################################
#
#                 Cambridge Crystallographic Data Centre
#                                CCDC
#
#######################################################################
#
# If this CIF has been generated from an entry in the Cambridge
# Structural Database, then it will include bibliographic, chemical,
# crystal, experimental, refinement or atomic coordinate data resulting
# from the CCDC's data processing and validation procedures.
#
#######################################################################

data_CSD_CIF_WUMJAQ
_audit_creation_date 2010-06-29
_audit_creation_method CSD-ConQuest-V1
_database_code_CSD WUMJAQ
_database_code_depnum_ccdc_archive 'CCDC 739561'
_chemical_formula_sum 'C12 H19 N1 O3'
_chemical_formula_moiety
;
C12 H19 N1 O3
;
_journal_coden_Cambridge 1220
_journal_volume 15
_journal_year 2009
_journal_page_first 10330
_journal_name_full 'Chem.-Eur.J. '
loop_
_publ_author_name
"A.Kamimura"
"A.Kadowaki"
"T.Yoshida"
"R.Takeuchi"
"H.Uno"
_chemical_name_systematic
;
2-Cyclohexyl-1-nitro-3-oxabicyclo[4.1.0]heptane
;
_cell_volume    597.832
_exptl_crystal_colour 'colorless'
_exptl_crystal_density_diffrn 1.251
_exptl_crystal_description 'block'
_diffrn_ambient_temperature 293.1
#These two values have been output from a single CSD field.
_refine_ls_R_factor_gt 0.1418
_refine_ls_wR_factor_gt 0.1418
_symmetry_cell_setting triclinic
_symmetry_space_group_name_H-M 'P -1'
_symmetry_Int_Tables_number 2
loop_
_symmetry_equiv_pos_site_id
_symmetry_equiv_pos_as_xyz
1 x,y,z
2 -x,-y,-z
_cell_length_a 6.557(6)
_cell_length_b 8.415(7)
_cell_length_c 11.493(10)
_cell_angle_alpha 81.46(2)
_cell_angle_beta 72.54(2)
_cell_angle_gamma 89.41(2)
_cell_formula_units_Z 2
loop_
_atom_type_symbol
_atom_type_radius_bond
C 0.68
H 0.23
N 0.68
O 0.68
loop_
_atom_site_label
_atom_site_type_symbol
_atom_site_fract_x
_atom_site_fract_y
_atom_site_fract_z
O1 O 0.3037(7) -0.1445(4) 0.9132(3)
O2 O 0.6354(6) -0.0853(3) 0.8278(3)
O3 O 0.5346(4) 0.3868(2) 0.7405(2)
N1 N 0.4479(6) -0.0513(4) 0.8524(2)
C1 C 0.5951(5) 0.2198(4) 0.7384(3)
C2 C 0.6810(4) 0.1919(4) 0.6051(2)
C3 C 0.9022(6) 0.2756(6) 0.5446(3)
C4 C 0.5385(5) 0.2468(5) 0.5282(3)
C5 C 0.2306(6) 0.1897(6) 0.9233(4)
C6 C 0.8519(6) 0.3076(5) 0.3349(3)
C7 C 0.4016(5) 0.1202(4) 0.8193(3)
C8 C 0.4736(9) 0.4236(5) 0.8609(4)
C9 C 0.6371(7) 0.2248(6) 0.3914(3)
C10 C 0.1771(5) 0.1484(6) 0.8127(3)
C11 C 0.2468(10) 0.3560(6) 0.9388(4)
C12 C 1.0017(6) 0.2577(6) 0.4090(4)
H1 H 0.70690 0.20270 0.77520
H2 H 0.69980 0.07990 0.60470
H3 H 0.88670 0.38740 0.54770
H4 H 0.99590 0.23450 0.58990
H5 H 0.40900 0.18370 0.56100
H6 H 0.50860 0.35680 0.53300
H7 H 0.17500 0.11560 0.99700
H8 H 0.91290 0.29120 0.25170
H9 H 0.83290 0.41920 0.33770
H10 H 0.57100 0.37490 0.90090
H11 H 0.48080 0.53680 0.85820
H12 H 0.65630 0.11370 0.38640
H13 H 0.54490 0.26580 0.34500
H14 H 0.08490 0.05780 0.82230
H15 H 0.15110 0.23120 0.75360
H16 H 0.14530 0.41760 0.90930
H17 H 0.22040 0.36110 1.02400
H18 H 1.13580 0.31470 0.37500
H19 H 1.02180 0.14630 0.40550
#END
