
#######################################################################
#
#                 Cambridge Crystallographic Data Centre
#                                CCDC
#
#######################################################################
#
# If this CIF has been generated from an entry in the Cambridge
# Structural Database, then it will include bibliographic, chemical,
# crystal, experimental, refinement or atomic coordinate data resulting
# from the CCDC's data processing and validation procedures.
#
#######################################################################

data_CSD_CIF_WUMKOG
_audit_creation_date 2015-05-28
_audit_creation_method CSD-ConQuest-V1
_database_code_CSD WUMKOG
_database_code_depnum_ccdc_archive 'CCDC 1006859'
_chemical_formula_sum 'C20 H19 N3 O2'
_chemical_formula_moiety
;
C20 H19 N3 O2
;
_journal_coden_Cambridge 1267
_journal_volume 229
_journal_year 2014
_journal_page_first 307
_journal_name_full 'Z.Kristallogr.-New Cryst.Struct. '
loop_
_publ_author_name
"M.S.Almutairi"
"M.I.Attia"
"H.A.Ghabbour"
"S.W.Ghoneim"
"H.A.Abdel-Aziz"
"Hoong-Kun Fun"
_chemical_name_systematic
;
(((3-(1H-imidazol-1-yl)-1-phenylpropylidene)amino)oxy)(4-methylphenyl)methanon
e
;
_cell_volume   1752.264
_exptl_crystal_colour 'colorless'
_exptl_crystal_density_diffrn 1.264
_exptl_crystal_description 'block'
_diffrn_ambient_temperature 293
#These two values have been output from a single CSD field.
_refine_ls_R_factor_gt 0.0385
_refine_ls_wR_factor_gt 0.0385
_symmetry_cell_setting monoclinic
_symmetry_space_group_name_H-M 'P 21/c'
_symmetry_Int_Tables_number 14
loop_
_symmetry_equiv_pos_site_id
_symmetry_equiv_pos_as_xyz
1 x,y,z
2 -x,1/2+y,1/2-z
3 -x,-y,-z
4 x,-1/2-y,-1/2+z
_cell_length_a 16.3620(2)
_cell_length_b 8.1179(2)
_cell_length_c 14.4252(2)
_cell_angle_alpha 90
_cell_angle_beta 113.861(1)
_cell_angle_gamma 90
_cell_formula_units_Z 4
loop_
_atom_type_symbol
_atom_type_radius_bond
C 0.68
H 0.23
N 0.68
O 0.68
loop_
_atom_site_label
_atom_site_type_symbol
_atom_site_fract_x
_atom_site_fract_y
_atom_site_fract_z
O1 O -0.18331(8) 0.46986(13) 0.30933(8)
O2 O -0.24544(7) 0.22113(11) 0.25361(7)
N1 N -0.30477(8) 0.25674(14) 0.30222(9)
N2 N -0.25918(7) -0.18529(12) 0.41216(7)
N3 N -0.27554(9) -0.34509(16) 0.52731(10)
C1 C -0.06014(9) 0.40870(17) 0.21845(10)
H1 H -0.04400 0.49110 0.26740
C2 C -0.01087(9) 0.38506(19) 0.16155(11)
H2 H 0.03920 0.45030 0.17380
C3 C -0.03442(8) 0.26575(17) 0.0863(1)
C4 C -0.10780(8) 0.16716(16) 0.07211(10)
H3 H -0.12450 0.08620 0.02230
C5 C -0.15652(8) 0.18648(15) 0.13026(9)
H4 H -0.20440 0.11700 0.12070
C6 C -0.13381(8) 0.31013(15) 0.20317(8)
C7 C -0.18816(9) 0.34711(15) 0.26151(9)
C8 C 0.01819(11) 0.2431(2) 0.02223(13)
H5 H 0.03530 0.34890 0.00620
H6 H -0.01800 0.18700 -0.03930
H7 H 0.07070 0.17910 0.05900
C9 C -0.35123(8) 0.12782(15) 0.29902(8)
C10 C -0.41440(8) 0.14807(15) 0.34875(9)
C11 C -0.49420(9) 0.06070(17) 0.31677(11)
H8 H -0.50850 -0.01400 0.26360
C12 C -0.55241(10) 0.0841(2) 0.36338(13)
H9 H -0.60570 0.02530 0.34110
C13 C -0.5323(1) 0.1929(2) 0.44189(12)
H10 H -0.57140 0.20740 0.47340
C14 C -0.45368(10) 0.2808(2) 0.47405(11)
H11 H -0.44010 0.35570 0.52700
C15 C -0.39490(9) 0.25876(17) 0.42858(10)
H12 H -0.34180 0.31830 0.45140
C16 C -0.34400(9) -0.03300(16) 0.25123(9)
H13 H -0.34300 -0.01110 0.18560
H14 H -0.39670 -0.09870 0.24010
C17 C -0.26134(10) -0.13184(17) 0.31484(10)
H15 H -0.25820 -0.22820 0.27660
H16 H -0.20880 -0.06530 0.32670
C18 C -0.22689(9) -0.09980(18) 0.50084(10)
H17 H -0.20290 0.00590 0.51140
C19 C -0.23683(10) -0.1995(2) 0.57027(11)
H18 H -0.21970 -0.17270 0.63830
C20 C -0.28707(10) -0.33158(16) 0.43231(11)
H19 H -0.31180 -0.41390 0.38420
#END
