
#######################################################################
#
#                 Cambridge Crystallographic Data Centre
#                                CCDC
#
#######################################################################
#
# If this CIF has been generated from an entry in the Cambridge
# Structural Database, then it will include bibliographic, chemical,
# crystal, experimental, refinement or atomic coordinate data resulting
# from the CCDC's data processing and validation procedures.
#
#######################################################################

data_CSD_CIF_WUNJOG
_audit_creation_date 2015-05-28
_audit_creation_method CSD-ConQuest-V1
_database_code_CSD WUNJOG
_database_code_depnum_ccdc_archive 'CCDC 1042798'
_chemical_formula_sum 'C33 H51 N1 O7'
_chemical_formula_moiety
;
C33 H51 N1 O7
;
_journal_coden_Cambridge 1220
_journal_volume 21
_journal_year 2015
_journal_page_first 9877
_journal_name_full 'Chem.-Eur.J. '
loop_
_publ_author_name
"M.Holan"
"R.Pohl"
"I.Cisarova"
"B.Klepetarova"
"P.G.Jones"
"U.Jahn"
_chemical_name_systematic
;
3-t-butyl 1,1-diethyl 
3-methyl-2-phenyl-5-(((2,2,6,6-tetramethylpiperidin-1-yl)oxy)methyl)cyclopenta
ne-1,1,3-tricarboxylate
;
_cell_volume   3295.693
_exptl_crystal_colour 'colorless'
_exptl_crystal_density_diffrn 1.156
_exptl_crystal_description 'prism'
_diffrn_ambient_temperature 150
#These two values have been output from a single CSD field.
_refine_ls_R_factor_gt 0.0461
_refine_ls_wR_factor_gt 0.0461
_symmetry_cell_setting monoclinic
_symmetry_space_group_name_H-M 'P 21/n'
_symmetry_Int_Tables_number 14
loop_
_symmetry_equiv_pos_site_id
_symmetry_equiv_pos_as_xyz
1 x,y,z
2 1/2-x,1/2+y,1/2-z
3 -x,-y,-z
4 -1/2+x,-1/2-y,-1/2+z
_cell_length_a 16.8382(5)
_cell_length_b 11.3870(3)
_cell_length_c 17.4162(6)
_cell_angle_alpha 90
_cell_angle_beta 99.272(1)
_cell_angle_gamma 90
_cell_formula_units_Z 4
loop_
_atom_type_symbol
_atom_type_radius_bond
C 0.68
H 0.23
N 0.68
O 0.68
loop_
_atom_site_label
_atom_site_type_symbol
_atom_site_fract_x
_atom_site_fract_y
_atom_site_fract_z
C1 C 0.69685(8) 0.95783(12) 0.06773(8)
C2 C 0.78100(8) 0.92025(12) 0.11428(8)
H1 H 0.78340 0.83260 0.11150
C3 C 0.84426(8) 0.96888(13) 0.06369(8)
C4 C 0.79468(9) 1.03486(14) -0.00530(9)
H2 H 0.82350 1.10620 -0.01810
H3 H 0.78480 0.98390 -0.05190
C5 C 0.71536(8) 1.06773(12) 0.02120(8)
H4 H 0.72630 1.13460 0.05860
C6 C 0.65164(9) 1.10769(12) -0.04598(8)
H5 H 0.64010 1.04540 -0.08580
H6 H 0.60110 1.12920 -0.02730
C7 C 0.61752(9) 1.37912(13) -0.12407(8)
C8 C 0.57052(10) 1.43550(14) -0.19783(9)
H7 H 0.51760 1.39620 -0.21090
H8 H 0.56070 1.51920 -0.18730
C9 C 0.61465(10) 1.42705(16) -0.26721(9)
H9 H 0.58170 1.46260 -0.31360
H10 H 0.66620 1.47030 -0.25620
C10 C 0.63029(10) 1.29927(16) -0.28256(9)
H11 H 0.66010 1.29380 -0.32700
H12 H 0.57810 1.25870 -0.29760
C11 C 0.67828(9) 1.23599(14) -0.21254(8)
C12 C 0.76722(10) 1.27297(18) -0.20025(11)
H13 H 0.77090 1.35870 -0.20360
H14 H 0.79380 1.23710 -0.24050
H15 H 0.79370 1.24680 -0.14890
C13 C 0.67430(12) 1.10357(16) -0.2294(1)
H16 H 0.70950 1.06180 -0.18800
H17 H 0.69200 1.08830 -0.27940
H18 H 0.61880 1.07610 -0.23160
C14 C 0.69091(11) 1.45425(15) -0.09064(10)
H19 H 0.72480 1.41050 -0.04930
H20 H 0.67270 1.52720 -0.06930
H21 H 0.72200 1.47280 -0.13210
C15 C 0.56182(11) 1.37076(15) -0.06291(9)
H22 H 0.51620 1.31940 -0.08210
H23 H 0.54190 1.44920 -0.05290
H24 H 0.59170 1.33830 -0.01460
C16 C 0.88990(9) 0.86872(13) 0.03269(8)
C17 C 0.96062(10) 0.68593(14) 0.07093(10)
C18 C 0.90504(15) 0.6094(2) 0.0173(2)
H25 H 0.85440 0.60010 0.03750
H26 H 0.92990 0.53220 0.01360
H27 H 0.89430 0.64550 -0.03440
C19 C 1.03635(11) 0.71869(18) 0.03979(14)
H28 H 1.02260 0.74080 -0.01510
H29 H 1.07310 0.65140 0.04480
H30 H 1.06240 0.78510 0.06950
C20 C 0.9841(2) 0.6322(2) 0.15087(16)
H31 H 1.01610 0.68870 0.18530
H32 H 1.01590 0.56100 0.14690
H33 H 0.93540 0.61200 0.17220
C21 C 0.79707(8) 0.95240(13) 0.19999(8)
C22 C 0.78383(9) 1.06356(13) 0.22917(8)
H34 H 0.76280 1.12430 0.19430
C23 C 0.80093(10) 1.08668(15) 0.30850(9)
H35 H 0.79160 1.16290 0.32740
C24 C 0.83144(11) 0.99921(16) 0.36011(9)
H36 H 0.84290 1.01500 0.41430
C25 C 0.84505(10) 0.88855(16) 0.33213(9)
H37 H 0.86600 0.82810 0.36720
C26 C 0.82817(9) 0.86547(14) 0.25286(9)
H38 H 0.83800 0.78920 0.23430
C27 C 0.66634(8) 0.85606(12) 0.01311(8)
C28 C 0.55277(9) 0.77719(13) -0.06869(9)
H39 H 0.49360 0.77890 -0.07170
H40 H 0.57220 0.69980 -0.04770
C29 C 0.57329(12) 0.79183(16) -0.1483(1)
H41 H 0.55900 0.87140 -0.16720
H42 H 0.54330 0.73430 -0.18350
H43 H 0.63110 0.77940 -0.14660
C30 C 0.63508(8) 0.98159(12) 0.12075(8)
C31 C 0.56266(10) 0.88921(16) 0.21138(9)
H44 H 0.51670 0.83520 0.19640
H45 H 0.54140 0.97010 0.21270
C32 C 0.60616(15) 0.8570(3) 0.28863(12)
H46 H 0.62670 0.77670 0.28700
H47 H 0.56950 0.86160 0.32690
H48 H 0.65120 0.91120 0.30340
C33 C 0.90856(9) 1.04882(14) 0.10899(9)
H49 H 0.93360 1.00900 0.15670
H50 H 0.88350 1.12210 0.12250
H51 H 0.94970 1.06650 0.07680
N1 N 0.63583(7) 1.25556(10) -0.14440(6)
O1 O 0.68742(6) 1.20815(9) -0.07648(6)
O2 O 0.90336(8) 0.86279(12) -0.03279(6)
O3 O 0.91646(7) 0.79189(9) 0.08854(6)
O4 O 0.60758(7) 1.07631(9) 0.13168(7)
O5 O 0.61766(6) 0.88184(9) 0.15472(6)
O6 O 0.70673(7) 0.77513(10) -0.00211(7)
O7 O 0.58857(6) 0.86932(9) -0.01616(6)
#END
