
#######################################################################
#
#                 Cambridge Crystallographic Data Centre
#                                CCDC
#
#######################################################################
#
# If this CIF has been generated from an entry in the Cambridge
# Structural Database, then it will include bibliographic, chemical,
# crystal, experimental, refinement or atomic coordinate data resulting
# from the CCDC's data processing and validation procedures.
#
#######################################################################

data_CSD_CIF_WUNKAT
_audit_creation_date 2015-05-28
_audit_creation_method CSD-ConQuest-V1
_database_code_CSD WUNKAT
_database_code_depnum_ccdc_archive 'CCDC 1042800'
_chemical_formula_sum 'C25 H33 N3 O3'
_chemical_formula_moiety
;
C25 H33 N3 O3
;
_journal_coden_Cambridge 1220
_journal_volume 21
_journal_year 2015
_journal_page_first 9877
_journal_name_full 'Chem.-Eur.J. '
loop_
_publ_author_name
"M.Holan"
"R.Pohl"
"I.Cisarova"
"B.Klepetarova"
"P.G.Jones"
"U.Jahn"
_chemical_name_systematic
;
methyl 
3,3-dicyano-2-phenyl-4-(((2,2,6,6-tetramethylpiperidin-1-yl)oxy)methyl)cyclope
ntanecarboxylate
;
_cell_volume   4674.442
_exptl_crystal_colour 'colorless'
_exptl_crystal_density_diffrn 1.204
_exptl_crystal_description 'plate'
_diffrn_ambient_temperature 150
#These two values have been output from a single CSD field.
_refine_ls_R_factor_gt 0.0391
_refine_ls_wR_factor_gt 0.0391
_symmetry_cell_setting orthorhombic
_symmetry_space_group_name_H-M 'P c a 21'
_symmetry_Int_Tables_number 29
loop_
_symmetry_equiv_pos_site_id
_symmetry_equiv_pos_as_xyz
1 x,y,z
2 -x,-y,1/2+z
3 1/2-x,y,1/2+z
4 1/2+x,-y,z
_cell_length_a 12.6973(4)
_cell_length_b 17.5076(6)
_cell_length_c 21.0277(8)
_cell_angle_alpha 90
_cell_angle_beta 90
_cell_angle_gamma 90
_cell_formula_units_Z 8
loop_
_atom_type_symbol
_atom_type_radius_bond
C 0.68
H 0.23
N 0.68
O 0.68
loop_
_atom_site_label
_atom_site_type_symbol
_atom_site_fract_x
_atom_site_fract_y
_atom_site_fract_z
C1 C 0.03326(16) 0.35014(12) 0.54008(11)
C2 C -0.05276(16) 0.41170(12) 0.52373(11)
H1 H -0.12240 0.39220 0.53890
C3 C -0.02211(17) 0.48092(13) 0.56544(12)
H2 H -0.07720 0.49050 0.59780
H3 H -0.01480 0.52720 0.53880
C4 C 0.08387(16) 0.46212(11) 0.59825(11)
H4 H 0.07030 0.44180 0.64190
C5 C 0.13256(15) 0.39963(11) 0.55701(11)
H5 H 0.15680 0.42440 0.51670
C6 C 0.22505(15) 0.35611(11) 0.58372(11)
C7 C 0.31003(16) 0.33953(11) 0.54471(12)
H6 H 0.30860 0.35540 0.50150
C8 C 0.39685(17) 0.30035(12) 0.56732(13)
H7 H 0.45440 0.28970 0.53980
C9 C 0.39968(19) 0.27687(13) 0.62987(14)
H8 H 0.45930 0.25010 0.64570
C10 C 0.31570(18) 0.29238(13) 0.66939(13)
H9 H 0.31710 0.27550 0.71230
C11 C 0.22941(17) 0.33239(12) 0.64694(12)
H10 H 0.17270 0.34380 0.67480
C12 C 0.15377(16) 0.53161(12) 0.60236(11)
O1 O 0.22342(12) 0.54608(9) 0.56633(9)
O2 O 0.12466(12) 0.57651(8) 0.65037(8)
C13 C 0.17945(19) 0.64948(12) 0.65560(13)
H11 H 0.25560 0.64060 0.65710
H12 H 0.15710 0.67560 0.69450
H13 H 0.16250 0.68130 0.61870
C14 C -0.06294(16) 0.43048(12) 0.45357(12)
H14 H -0.08790 0.38490 0.43010
H15 H -0.11530 0.47180 0.44770
O3 O 0.03687(10) 0.45426(8) 0.42877(7)
N1 N 0.02289(14) 0.48705(10) 0.36506(10)
C15 C 0.06286(17) 0.56771(11) 0.36860(12)
C16 C 0.0568(2) 0.60091(13) 0.30145(13)
H16 H -0.01810 0.60620 0.28920
H17 H 0.08840 0.65260 0.30160
C17 C 0.1129(2) 0.55233(13) 0.25200(13)
H18 H 0.10350 0.57500 0.20920
H19 H 0.18920 0.55030 0.26150
C18 C 0.0668(2) 0.47274(14) 0.25342(13)
H20 H 0.10440 0.44070 0.22190
H21 H -0.00800 0.47540 0.24030
C19 C 0.07339(18) 0.43415(12) 0.31846(13)
C20 C 0.0057(2) 0.36204(13) 0.31551(13)
H22 H 0.01520 0.33240 0.35470
H23 H 0.02710 0.33110 0.27890
H24 H -0.06850 0.37640 0.31110
C21 C 0.18683(19) 0.41078(14) 0.33404(13)
H25 H 0.23350 0.45490 0.32870
H26 H 0.20900 0.36980 0.30530
H27 H 0.19050 0.39270 0.37810
C22 C -0.01421(19) 0.61231(12) 0.41008(13)
H28 H -0.08630 0.60300 0.39540
H29 H 0.00150 0.66700 0.40710
H30 H -0.00730 0.59560 0.45440
C23 C 0.17383(18) 0.57741(13) 0.39615(12)
H31 H 0.18030 0.54710 0.43510
H32 H 0.18620 0.63140 0.40590
H33 H 0.22590 0.55990 0.36500
C24 C 0.05572(17) 0.29466(12) 0.48928(12)
N2 N 0.07507(18) 0.24995(12) 0.45126(12)
C25 C -0.00199(17) 0.30682(12) 0.59715(13)
N3 N -0.03023(17) 0.27593(12) 0.64164(11)
C26 C 0.78094(16) 0.15547(11) 0.91968(11)
C27 C 0.69413(16) 0.09415(11) 0.93569(11)
H34 H 0.62530 0.11340 0.91910
C28 C 0.72710(17) 0.02428(13) 0.89478(12)
H35 H 0.73430 -0.02170 0.92190
H36 H 0.67330 0.01390 0.86180
C29 C 0.83361(16) 0.04397(11) 0.86336(11)
H37 H 0.82090 0.06470 0.81970
C30 C 0.88064(16) 0.10641(11) 0.90511(10)
H38 H 0.90250 0.08180 0.94590
C31 C 0.97593(16) 0.14803(11) 0.87930(11)
C32 C 0.98270(18) 0.17306(12) 0.81685(12)
H39 H 0.92510 0.16550 0.78870
C33 C 1.07343(19) 0.20908(12) 0.79527(12)
H40 H 1.07730 0.22650 0.75250
C34 C 1.15743(19) 0.21967(12) 0.83537(14)
H41 H 1.21950 0.24380 0.82020
C35 C 1.15186(18) 0.19531(13) 0.89760(13)
H42 H 1.20990 0.20270 0.92540
C36 C 1.06112(16) 0.15995(12) 0.91935(12)
H43 H 1.05720 0.14360 0.96240
C37 C 0.90377(17) -0.02518(12) 0.85907(11)
O4 O 0.97113(13) -0.04094(9) 0.89690(9)
O5 O 0.88051(12) -0.06809(8) 0.80870(8)
C38 C 0.9383(2) -0.13860(13) 0.80292(14)
H44 H 1.01370 -0.12740 0.79940
H45 H 0.91480 -0.16600 0.76480
H46 H 0.92570 -0.17030 0.84060
C39 C 0.68024(16) 0.07601(12) 1.00547(11)
H47 H 0.65220 0.12130 1.02800
H48 H 0.62910 0.03380 1.01050
O6 O 0.77908(11) 0.05449(7) 1.03250(7)
N4 N 0.76270(14) 0.02205(10) 1.0958(1)
C40 C 0.80553(19) 0.07703(12) 1.14304(13)
C41 C 0.7969(2) 0.03816(13) 1.20858(12)
H49 H 0.82920 0.07190 1.24090
H50 H 0.72150 0.03240 1.21950
C42 C 0.8488(2) -0.03899(14) 1.21202(13)
H51 H 0.83830 -0.06150 1.25470
H52 H 0.92550 -0.03390 1.20440
C43 C 0.8002(2) -0.08967(13) 1.16202(13)
H53 H 0.72510 -0.09790 1.17270
H54 H 0.83560 -0.14000 1.16310
C44 C 0.80745(17) -0.05734(12) 1.09418(12)
C45 C 0.7350(2) -0.10417(12) 1.05173(13)
H55 H 0.66180 -0.09700 1.06530
H56 H 0.75360 -0.15830 1.05500
H57 H 0.74280 -0.08740 1.00750
C46 C 0.92029(19) -0.06383(15) 1.06882(13)
H58 H 0.92720 -0.03340 1.02990
H59 H 0.93610 -0.11740 1.05940
H60 H 0.96970 -0.04480 1.10090
C47 C 0.7315(2) 0.14635(13) 1.14401(13)
H61 H 0.74380 0.17760 1.10610
H62 H 0.74530 0.17690 1.18220
H63 H 0.65820 0.12880 1.14440
C48 C 0.9184(2) 0.10479(16) 1.13106(14)
H64 H 0.96770 0.06250 1.13800
H65 H 0.93490 0.14660 1.16040
H66 H 0.92460 0.12290 1.08710
C49 C 0.80155(18) 0.21122(12) 0.97068(11)
N5 N 0.82068(19) 0.25461(12) 1.00917(11)
C50 C 0.74620(18) 0.19862(12) 0.86277(12)
N6 N 0.71582(17) 0.22835(12) 0.81784(12)
#END
