
#######################################################################
#
#                 Cambridge Crystallographic Data Centre
#                                CCDC
#
#######################################################################
#
# If this CIF has been generated from an entry in the Cambridge
# Structural Database, then it will include bibliographic, chemical,
# crystal, experimental, refinement or atomic coordinate data resulting
# from the CCDC's data processing and validation procedures.
#
#######################################################################

data_CSD_CIF_WUNYUZ
_audit_creation_date 2003-03-25
_audit_creation_method CSD-ConQuest-V1
_database_code_CSD WUNYUZ
_database_code_depnum_ccdc_archive 'CCDC 191372'
_chemical_formula_sum 'C21 H19 N5 O5'
_chemical_formula_moiety
;
C21 H19 N5 O5
;
_journal_coden_Cambridge 16
_journal_volume 58
_journal_year 2002
_journal_page_first 9567
_journal_name_full 'Tetrahedron '
loop_
_publ_author_name
"F.N.Burnett"
"R.S.Hosmane"
_chemical_name_systematic
;
1-benzyl-4-nitroimidazole-5-glyoxal 
(N^2^-benzyl-N^2^-methoxycarbonyl)hydrazone
;
_chemical_melting_point 401.15
_cell_volume   2079.420
_exptl_crystal_density_diffrn 1.37
_exptl_special_details
;
Melting point range 401.15-403.15K

;
_exptl_crystal_preparation 'toluene/petroleum ether'
_diffrn_ambient_temperature 230.15
#These two values have been output from a single CSD field.
_refine_ls_R_factor_gt 0.039
_refine_ls_wR_factor_gt 0.039
_symmetry_cell_setting monoclinic
_symmetry_space_group_name_H-M 'P 21/c'
_symmetry_Int_Tables_number 14
loop_
_symmetry_equiv_pos_site_id
_symmetry_equiv_pos_as_xyz
1 x,y,z
2 -x,1/2+y,1/2-z
3 -x,-y,-z
4 x,-1/2-y,-1/2+z
_cell_length_a 14.122(3)
_cell_length_b 8.560(2)
_cell_length_c 17.710(4)
_cell_angle_alpha 90
_cell_angle_beta 103.76(2)
_cell_angle_gamma 90
_cell_formula_units_Z 4
loop_
_atom_type_symbol
_atom_type_radius_bond
C 0.68
H 0.23
N 0.68
O 0.68
loop_
_atom_site_label
_atom_site_type_symbol
_atom_site_fract_x
_atom_site_fract_y
_atom_site_fract_z
N1 N 0.6037(2) 0.2734(3) 0.1556(2)
C1 C 0.5339(2) 0.3357(4) 0.1875(2)
N2 N 0.5490(2) 0.4820(3) 0.2071(2)
C2 C 0.6343(2) 0.5127(3) 0.1867(2)
C3 C 0.6705(2) 0.3885(3) 0.1550(2)
N3 N 0.6801(2) 0.6612(3) 0.2048(2)
O1 O 0.7644(2) 0.6735(3) 0.1999(1)
O2 O 0.6338(2) 0.7674(3) 0.2239(2)
C4 C 0.6061(3) 0.1117(4) 0.1297(2)
C5 C 0.6201(2) 0.0948(4) 0.0490(2)
C6 C 0.6733(3) -0.0260(5) 0.0313(3)
C7 C 0.6881(4) -0.0417(8) -0.0420(4)
C8 C 0.6505(4) 0.0617(10) -0.0979(4)
C9 C 0.5959(3) 0.1806(7) -0.0831(3)
C10 C 0.5795(3) 0.1990(5) -0.0100(3)
C11 C 0.7557(2) 0.3798(3) 0.1176(2)
O3 O 0.7562(1) 0.4627(3) 0.0623(1)
C12 C 0.8363(2) 0.2753(3) 0.1506(2)
N4 N 0.8281(2) 0.1975(3) 0.2107(1)
N5 N 0.8994(2) 0.1007(3) 0.2475(1)
C13 C 0.8812(2) 0.0163(3) 0.3092(2)
O4 O 0.9390(2) -0.0770(2) 0.3448(1)
O5 O 0.7945(2) 0.0469(2) 0.3217(1)
C14 C 0.7709(3) -0.0361(4) 0.3857(2)
C15 C 0.9937(2) 0.0856(4) 0.2270(2)
C16 C 0.9945(2) -0.0236(3) 0.1609(2)
C17 C 1.0735(2) -0.0241(4) 0.1270(2)
C18 C 1.0790(3) -0.1273(5) 0.0692(2)
C19 C 1.0053(3) -0.2317(4) 0.0433(2)
C20 C 0.9270(3) -0.2336(4) 0.0755(2)
C21 C 0.9217(2) -0.1297(4) 0.1338(2)
H1 H 0.4838(20) 0.2783(31) 0.1972(15)
H2 H 0.5469(20) 0.0649(30) 0.1345(15)
H3 H 0.6552(20) 0.0585(32) 0.1648(16)
H4 H 0.6958(21) -0.0998(33) 0.0690(16)
H5 H 0.7241(21) -0.1062(34) -0.0532(17)
H6 H 0.6619(20) 0.0705(32) -0.1465(18)
H7 H 0.5673(21) 0.2518(32) -0.1205(18)
H8 H 0.5438(19) 0.2823(32) 0.0058(16)
H9 H 0.8882(20) 0.2747(30) 0.1266(16)
H10 H 0.70700 -0.00710 0.39070
H11 H 0.77270 -0.14640 0.37640
H12 H 0.81790 -0.01050 0.43280
H13 H 1.0135(18) 0.1822(35) 0.2170(15)
H14 H 1.0367(20) 0.0471(31) 0.2740(16)
H15 H 1.1229(20) 0.0530(32) 0.1435(15)
H16 H 1.1344(20) -0.1202(30) 0.0462(15)
H17 H 1.0108(20) -0.2904(33) 0.0090(17)
H18 H 0.8783(19) -0.3086(34) 0.0590(16)
H19 H 0.8700(19) -0.1345(31) 0.1576(15)
#END
