
#######################################################################
#
#                 Cambridge Crystallographic Data Centre
#                                CCDC
#
#######################################################################
#
# If this CIF has been generated from an entry in the Cambridge
# Structural Database, then it will include bibliographic, chemical,
# crystal, experimental, refinement or atomic coordinate data resulting
# from the CCDC's data processing and validation procedures.
#
#######################################################################

data_CSD_CIF_WUPMAW
_audit_creation_date 2010-07-26
_audit_creation_method CSD-ConQuest-V1
_database_code_CSD WUPMAW
_database_code_depnum_ccdc_archive 'CCDC 753368'
_chemical_formula_sum 'C14 H8 N2 O4'
_chemical_formula_moiety
;
C14 H8 N2 O4
;
_journal_coden_Cambridge 182
_journal_volume 46
_journal_year 2010
_journal_page_first 3131
_journal_name_full 'Chem.Commun. '
loop_
_publ_author_name
"B.Panda"
"T.K.Sarkar"
_chemical_name_systematic
;
(5-Nitro-2,1-benzoxazol-3-yl)(phenyl)methanone
;
_cell_volume   2375.238
_exptl_crystal_density_diffrn 1.5
_diffrn_ambient_temperature 293
#These two values have been output from a single CSD field.
_refine_ls_R_factor_gt 0.0552
_refine_ls_wR_factor_gt 0.0552
_symmetry_cell_setting monoclinic
_symmetry_space_group_name_H-M 'I 2/a'
_symmetry_Int_Tables_number 15
loop_
_symmetry_equiv_pos_site_id
_symmetry_equiv_pos_as_xyz
1 x,y,z
2 1/2-x,y,-z
3 1/2+x,1/2+y,1/2+z
4 -x,1/2+y,1/2-z
5 -x,-y,-z
6 -1/2+x,-y,z
7 -1/2-x,-1/2-y,-1/2-z
8 x,-1/2-y,-1/2+z
_cell_length_a 13.064(1)
_cell_length_b 12.9928(10)
_cell_length_c 14.0524(11)
_cell_angle_alpha 90
_cell_angle_beta 95.245(6)
_cell_angle_gamma 90
_cell_formula_units_Z 8
loop_
_atom_type_symbol
_atom_type_radius_bond
C 0.68
H 0.23
N 0.68
O 0.68
loop_
_atom_site_label
_atom_site_type_symbol
_atom_site_fract_x
_atom_site_fract_y
_atom_site_fract_z
C1 C 0.12892(13) 0.86580(13) 0.12086(11)
C2 C 0.13001(14) 0.76747(14) 0.16406(12)
H1 H 0.13600 0.75950 0.23010
C3 C 0.12135(15) 0.87531(15) 0.01992(12)
O1 O 0.14251(13) 0.93620(11) 0.31360(9)
O2 O 0.12902(12) 1.0290(1) 0.07722(8)
C4 C 0.13239(14) 0.96575(14) 0.15317(12)
C5 C 0.13610(15) 1.00399(15) 0.25320(12)
N1 N 0.11981(14) 0.58243(13) 0.14631(13)
C6 C 0.11335(16) 0.78662(17) -0.03979(13)
H2 H 0.10830 0.79260 -0.10600
C7 C 0.12186(14) 0.68592(14) 0.10453(13)
N2 N 0.12193(15) 0.97276(14) -0.00791(11)
C8 C 0.13157(14) 1.11410(14) 0.27893(13)
O3 O 0.12483(14) 0.57361(11) 0.23320(11)
C9 C 0.14607(16) 1.13907(17) 0.37579(14)
H3 H 0.15780 1.08730 0.42120
C10 C 0.11295(16) 1.19370(15) 0.21309(15)
H4 H 0.10250 1.17870 0.14820
C11 C 0.11336(16) 0.69383(16) 0.00278(13)
H5 H 0.10780 0.63450 -0.03430
O4 O 0.11259(17) 0.50905(13) 0.09185(13)
C12 C 0.14300(17) 1.24078(19) 0.40431(17)
H6 H 0.15290 1.25690 0.46900
C13 C 0.10988(17) 1.29453(17) 0.24340(18)
H7 H 0.09700 1.34690 0.19870
C14 C 0.12553(16) 1.31840(19) 0.33841(19)
H8 H 0.12430 1.38660 0.35830
#END
