
#######################################################################
#
#                 Cambridge Crystallographic Data Centre
#                                CCDC
#
#######################################################################
#
# If this CIF has been generated from an entry in the Cambridge
# Structural Database, then it will include bibliographic, chemical,
# crystal, experimental, refinement or atomic coordinate data resulting
# from the CCDC's data processing and validation procedures.
#
#######################################################################

data_CSD_CIF_WURTEI
_audit_creation_date 2003-05-14
_audit_creation_method CSD-ConQuest-V1
_database_code_CSD WURTEI
_database_code_depnum_ccdc_archive 'CCDC 205304'
_chemical_formula_sum 'C13 H15 N3 O6'
_chemical_formula_moiety
;
C13 H15 N3 O6
;
_journal_coeditor_code "IUCr TA1405"
_journal_coden_Cambridge 591
_journal_volume 59
_journal_year 2003
_journal_page_first o60
_journal_name_full 'Acta Crystallogr.,Sect.C:Cryst.Struct.Commun. '
loop_
_publ_author_name
"L.Andrau"
"J.M.White"
_chemical_name_systematic
;
N-Methyl-4-piperidyl 2,4-dinitrobenzoate
;
_chemical_melting_point 341
_cell_volume   1418.484
_exptl_crystal_colour 'orange'
_exptl_crystal_density_diffrn 1.448
_exptl_special_details
;
Melting point range 341-342K

;
_exptl_crystal_description 'rod'
_exptl_crystal_preparation 'ether'
_diffrn_ambient_temperature 130.0
#These two values have been output from a single CSD field.
_refine_ls_R_factor_gt 0.051
_refine_ls_wR_factor_gt 0.051
_symmetry_cell_setting monoclinic
_symmetry_space_group_name_H-M 'P 21/c'
_symmetry_Int_Tables_number 14
loop_
_symmetry_equiv_pos_site_id
_symmetry_equiv_pos_as_xyz
1 x,y,z
2 -x,1/2+y,1/2-z
3 -x,-y,-z
4 x,-1/2-y,-1/2+z
_cell_length_a 6.040(3)
_cell_length_b 13.303(5)
_cell_length_c 17.699(7)
_cell_angle_alpha 90
_cell_angle_beta 94.096(8)
_cell_angle_gamma 90
_cell_formula_units_Z 4
loop_
_atom_type_symbol
_atom_type_radius_bond
C 0.68
H 0.23
N 0.68
O 0.68
loop_
_atom_site_label
_atom_site_type_symbol
_atom_site_fract_x
_atom_site_fract_y
_atom_site_fract_z
C1 C 0.5166(4) 0.58042(16) 0.37429(14)
C2 C 0.7151(4) 0.59858(18) 0.42946(16)
C3 C 0.7719(4) 0.71038(18) 0.42932(16)
C4 C 0.3909(4) 0.75462(18) 0.39534(15)
C5 C 0.3232(4) 0.64419(18) 0.39445(15)
C6 C 0.6440(5) 0.87898(19) 0.44762(17)
C7 C 0.5287(4) 0.41043(17) 0.33026(13)
C8 C 0.4029(4) 0.31227(17) 0.33187(13)
C9 C 0.4847(4) 0.22388(17) 0.36624(13)
C10 C 0.3691(4) 0.13469(18) 0.36076(13)
C11 C 0.1634(4) 0.13496(16) 0.32174(12)
C12 C 0.0744(4) 0.22087(18) 0.28761(13)
C13 C 0.1948(4) 0.30890(18) 0.29322(14)
N1 N 0.5832(3) 0.77231(14) 0.44892(11)
N2 N 0.6986(3) 0.22487(16) 0.41149(11)
N3 N 0.0317(3) 0.04132(15) 0.31820(11)
O1 O 0.4419(2) 0.47566(11) 0.37704(9)
O2 O 0.6703(3) 0.42739(12) 0.28798(9)
O3 O 0.7879(3) 0.30659(13) 0.42425(10)
O4 O 0.7777(3) 0.14396(13) 0.43376(9)
O5 O 0.1025(3) -0.03040(12) 0.35554(10)
O6 O -0.1423(3) 0.04116(13) 0.27776(10)
H1 H 0.558(4) 0.5948(17) 0.3217(13)
H2 H 0.842(4) 0.5577(17) 0.4169(12)
H3 H 0.682(4) 0.5762(19) 0.4790(16)
H4 H 0.889(4) 0.7261(16) 0.4664(13)
H5 H 0.818(4) 0.7298(19) 0.3766(16)
H6 H 0.420(4) 0.7760(18) 0.3414(16)
H7 H 0.269(4) 0.7947(17) 0.4102(13)
H8 H 0.286(3) 0.6235(15) 0.4466(12)
H9 H 0.196(4) 0.6338(16) 0.3589(13)
H10 H 0.678(4) 0.8990(18) 0.3949(15)
H11 H 0.771(4) 0.8896(18) 0.4832(14)
H12 H 0.516(4) 0.9206(19) 0.4643(14)
H13 H 0.423(3) 0.0770(17) 0.3838(12)
H14 H -0.069(4) 0.2177(18) 0.2611(14)
H15 H 0.135(4) 0.3702(17) 0.2696(12)
#END
