
#######################################################################
#
#                 Cambridge Crystallographic Data Centre
#                                CCDC
#
#######################################################################
#
# If this CIF has been generated from an entry in the Cambridge
# Structural Database, then it will include bibliographic, chemical,
# crystal, experimental, refinement or atomic coordinate data resulting
# from the CCDC's data processing and validation procedures.
#
#######################################################################

data_CSD_CIF_WUSPAB
_audit_creation_date 2003-05-15
_audit_creation_method CSD-ConQuest-V1
_database_code_CSD WUSPAB
_database_code_depnum_ccdc_archive 'CCDC 189718'
_chemical_formula_sum 'C3 H3 N3 O4'
_chemical_formula_moiety
;
C3 H3 N3 O4
;
_journal_coden_Cambridge 10
_journal_volume 85
_journal_year 2002
_journal_page_first 4468
_journal_name_full 'Helv.Chim.Acta '
loop_
_publ_author_name
"A.B.Charette"
"R.P.Wurz"
"T.Ollevier"
_chemical_name_systematic
;
Methyl \a-nitro-\a-diazoacetate
;
_cell_volume    583.616
_exptl_crystal_colour 'colorless'
_exptl_crystal_density_diffrn 1.651
_exptl_special_details
;
The space group is Pnma as given in the supplementary data, not P212121 as 
given in the paper
;
_exptl_crystal_description 'block'
_exptl_crystal_preparation 'chloroform'
_diffrn_ambient_temperature 293
#These two values have been output from a single CSD field.
_refine_ls_R_factor_gt 0.0406
_refine_ls_wR_factor_gt 0.0406
_symmetry_cell_setting orthorhombic
_symmetry_space_group_name_H-M 'P n m a'
_symmetry_Int_Tables_number 62
loop_
_symmetry_equiv_pos_site_id
_symmetry_equiv_pos_as_xyz
1 x,y,z
2 1/2-x,-y,1/2+z
3 1/2+x,1/2-y,1/2-z
4 -x,1/2+y,-z
5 -x,-y,-z
6 -1/2+x,y,-1/2-z
7 -1/2-x,-1/2+y,-1/2+z
8 x,-1/2-y,z
_cell_length_a 13.322(2)
_cell_length_b 5.949(2)
_cell_length_c 7.364(2)
_cell_angle_alpha 90
_cell_angle_beta 90
_cell_angle_gamma 90
_cell_formula_units_Z 4
loop_
_atom_type_symbol
_atom_type_radius_bond
C 0.68
H 0.23
N 0.68
O 0.68
loop_
_atom_site_label
_atom_site_type_symbol
_atom_site_fract_x
_atom_site_fract_y
_atom_site_fract_z
O1 O 0.21637(12) 0.25000 0.6977(2)
O2 O 0.07600(11) 0.25000 0.5251(2)
O3 O 0.35536(14) 0.25000 0.1810(3)
O4 O 0.38585(15) 0.25000 0.4693(3)
N1 N 0.16951(14) 0.25000 0.2270(3)
N2 N 0.12207(19) 0.25000 0.1029(3)
N3 N 0.32852(15) 0.25000 0.3417(3)
C1 C 0.17456(16) 0.25000 0.5526(3)
C2 C 0.22430(15) 0.25000 0.3775(3)
C3 C 0.01280(17) 0.25000 0.6843(3)
H1? H 0.01720 0.39340 0.74360
H2? H 0.03460 0.13430 0.76620
H3? H -0.05550 0.22230 0.64920
#END
