
#######################################################################
#
#                 Cambridge Crystallographic Data Centre
#                                CCDC
#
#######################################################################
#
# If this CIF has been generated from an entry in the Cambridge
# Structural Database, then it will include bibliographic, chemical,
# crystal, experimental, refinement or atomic coordinate data resulting
# from the CCDC's data processing and validation procedures.
#
#######################################################################

data_CSD_CIF_WUTCOE
_audit_creation_date 2010-11-12
_audit_creation_method CSD-ConQuest-V1
_database_code_CSD WUTCOE
_database_code_depnum_ccdc_archive 'CCDC 725383'
_chemical_formula_sum 'C16 H17 N1 O3'
_chemical_formula_moiety
;
C16 H17 N1 O3
;
_journal_coden_Cambridge 16
_journal_volume 66
_journal_year 2010
_journal_page_first 3754
_journal_name_full 'Tetrahedron '
loop_
_publ_author_name
"D.K.Barange"
"B.R.Raju"
"V.Kavala"
"Chun-Wei Kuo"
"Yu-Chen Tu"
"Ching Fa Yao"
_chemical_name_systematic
;
(Z)-2-(Hydroxyimino)-6,6-dimethyl-3-phenyl-3,5,6,7-tetrahydro-1-benzofuran-4(2
H)-one
;
_cell_volume   1358.092
_exptl_crystal_colour 'colorless'
_exptl_crystal_density_diffrn 1.327
_exptl_crystal_description 'prism'
_diffrn_ambient_temperature 200
#These two values have been output from a single CSD field.
_refine_ls_R_factor_gt 0.0472
_refine_ls_wR_factor_gt 0.0472
loop_
_citation_database_id_CSD
_citation_special_details
DPBFOO "is a stereoisomer of this entry"
_symmetry_cell_setting monoclinic
_symmetry_space_group_name_H-M 'P 21/c'
_symmetry_Int_Tables_number 14
loop_
_symmetry_equiv_pos_site_id
_symmetry_equiv_pos_as_xyz
1 x,y,z
2 -x,1/2+y,1/2-z
3 -x,-y,-z
4 x,-1/2-y,-1/2+z
_cell_length_a 12.2846(13)
_cell_length_b 5.9154(6)
_cell_length_c 19.468(2)
_cell_angle_alpha 90
_cell_angle_beta 106.264(6)
_cell_angle_gamma 90
_cell_formula_units_Z 4
loop_
_atom_type_symbol
_atom_type_radius_bond
C 0.68
H 0.23
N 0.68
O 0.68
loop_
_atom_site_label
_atom_site_type_symbol
_atom_site_fract_x
_atom_site_fract_y
_atom_site_fract_z
C1 C 0.08269(14) 0.7749(3) 0.15725(9)
C2 C 0.15244(14) 0.9890(3) 0.16719(9)
H1 H 0.10610 1.12060 0.17490
C3 C 0.26144(14) 0.9723(3) 0.22823(9)
C4 C 0.29038(16) 1.1414(3) 0.27872(10)
H2 H 0.24210 1.26870 0.27560
C5 C 0.38942(17) 1.1265(4) 0.33391(11)
H3 H 0.40870 1.24360 0.36860
C6 C 0.46022(16) 0.9437(4) 0.33897(10)
H4 H 0.52800 0.93370 0.37720
C7 C 0.43223(16) 0.7749(4) 0.28825(10)
H5 H 0.48110 0.64840 0.29130
C8 C 0.33322(15) 0.7891(3) 0.23288(10)
H6 H 0.31440 0.67260 0.19790
C9 C 0.12774(14) 0.8212(3) 0.05588(9)
C10 C 0.17132(14) 1.0023(3) 0.09393(9)
C11 C 0.22702(14) 1.1779(3) 0.06446(9)
C12 C 0.22654(15) 1.1395(3) -0.01226(9)
H7 H 0.29230 1.21980 -0.02080
H8 H 0.15700 1.20860 -0.04380
C13 C 0.23131(14) 0.8915(3) -0.03411(9)
C14 C 0.34613(16) 0.7910(3) 0.00639(11)
H9 H 0.35560 0.80050 0.05800
H10 H 0.40700 0.87570 -0.00550
H11 H 0.34940 0.63230 -0.00740
C15 C 0.21699(16) 0.8759(3) -0.11428(10)
H12 H 0.14340 0.93970 -0.14040
H13 H 0.22060 0.71720 -0.12790
H14 H 0.27780 0.96100 -0.12610
C16 C 0.13343(14) 0.7604(3) -0.01654(9)
H15 H 0.06070 0.79810 -0.05210
H16 H 0.14630 0.59570 -0.01900
N1 N 0.04139(12) 0.6881(3) 0.20382(8)
O1 O -0.01582(11) 0.4845(2) 0.17933(7)
H17 H -0.04260 0.43110 0.21110
O2 O 0.07128(10) 0.6787(2) 0.09093(6)
O3 O 0.26715(11) 1.3470(2) 0.09778(7)
#END
