
#######################################################################
#
#                 Cambridge Crystallographic Data Centre
#                                CCDC
#
#######################################################################
#
# If this CIF has been generated from an entry in the Cambridge
# Structural Database, then it will include bibliographic, chemical,
# crystal, experimental, refinement or atomic coordinate data resulting
# from the CCDC's data processing and validation procedures.
#
#######################################################################

data_CSD_CIF_WUTWOZ
_audit_creation_date 2015-10-14
_audit_creation_method CSD-ConQuest-V1
_database_code_CSD WUTWOZ
_database_code_depnum_ccdc_archive 'CCDC 984696'
_chemical_formula_sum 'C14 H15 N1 O2'
_chemical_formula_moiety
;
C14 H15 N1 O2
;
_journal_coden_Cambridge 35
_journal_volume 80
_journal_year 2015
_journal_page_first 9518
_journal_name_full 'J.Org.Chem. '
loop_
_publ_author_name
"Duangduan Chaiyaveij"
"A.S.Batsanov"
"M.A.Fox"
"T.B.Marder"
"Andrew Whiting"
_chemical_name_systematic
;
1-(2-Oxa-3-azabicyclo[2.2.2]oct-5-en-3-yl)-2-phenylethanone
;
_chemical_melting_point 348
_cell_volume   1169.526
_exptl_crystal_colour 'colorless'
_exptl_crystal_density_diffrn 1.302
_exptl_crystal_description 'tablet'
_exptl_crystal_preparation 'ether'
_diffrn_ambient_temperature 120
_refine_special_details
;
C3A,C4A,C6A,C7A,N1A,O2A and C3B,C4B,C6B,C7B,N1B,O2B disordered over two sites 
with occupancies 0.55:0.45.
;
#These two values have been output from a single CSD field.
_refine_ls_R_factor_gt 0.0668
_refine_ls_wR_factor_gt 0.0668
_symmetry_cell_setting monoclinic
_symmetry_space_group_name_H-M 'P 21/c'
_symmetry_Int_Tables_number 14
loop_
_symmetry_equiv_pos_site_id
_symmetry_equiv_pos_as_xyz
1 x,y,z
2 -x,1/2+y,1/2-z
3 -x,-y,-z
4 x,-1/2-y,-1/2+z
_cell_length_a 13.713(1)
_cell_length_b 5.8495(5)
_cell_length_c 14.8249(12)
_cell_angle_alpha 90
_cell_angle_beta 100.428(13)
_cell_angle_gamma 90
_cell_formula_units_Z 4
loop_
_atom_type_symbol
_atom_type_radius_bond
C 0.68
H 0.23
N 0.68
O 0.68
loop_
_atom_site_label
_atom_site_type_symbol
_atom_site_fract_x
_atom_site_fract_y
_atom_site_fract_z
O1 O 0.83641(11) 0.4082(3) 0.2979(1)
O2 O 0.7538(3) 0.2602(5) 0.0722(3)
N1 N 0.8145(5) 0.2751(6) 0.1608(4)
C1 C 0.78269(11) 0.3761(3) 0.22386(11)
C2 C 0.80328(12) 0.1100(3) 0.01232(11)
H1 H 0.76240 0.09000 -0.05020
C3 C 0.8286(3) -0.1116(6) 0.0597(3)
H2 H 0.80750 -0.25390 0.03200
C4 C 0.8841(3) -0.1002(6) 0.1459(3)
H3 H 0.90340 -0.22580 0.18580
C5 C 0.90993(11) 0.1390(3) 0.16705(12)
H4 H 0.95390 0.15750 0.22820
C6 C 0.9691(3) 0.2527(7) 0.1028(2)
H5 H 1.03260 0.17100 0.10400
H6 H 0.98380 0.41370 0.12100
C7 C 0.9026(3) 0.2375(8) 0.0098(3)
H7 H 0.93930 0.15620 -0.03220
H8 H 0.88840 0.39430 -0.01410
C8 C 0.68140(13) 0.4855(4) 0.19600(12)
H9 H 0.68530 0.60550 0.14970
H10 H 0.63370 0.36830 0.16710
C9 C 0.64340(11) 0.5899(3) 0.27556(11)
C10 C 0.67808(15) 0.7987(3) 0.31308(16)
H11 H 0.72700 0.88050 0.28840
C11 C 0.6405(2) 0.8883(4) 0.38775(17)
H12 H 0.66430 1.03070 0.41360
C12 C 0.56969(18) 0.7713(4) 0.42369(14)
H13 H 0.54510 0.83190 0.47470
C13 C 0.53480(15) 0.5687(4) 0.38619(13)
H14 H 0.48500 0.48900 0.41060
C14 C 0.57117(12) 0.4777(3) 0.31291(11)
H15 H 0.54620 0.33550 0.28770
O3? O 0.7416(4) 0.1673(7) 0.0803(4)
N2? N 0.8071(6) 0.1885(9) 0.1672(6)
C15? C 0.8818(4) 0.2755(9) 0.0087(4)
H16? H 0.89010 0.36180 -0.04370
C16? C 0.9408(4) 0.2817(8) 0.0929(3)
H17? H 0.99890 0.37370 0.10360
C17? C 0.9086(4) -0.1090(6) 0.1268(3)
H18? H 0.97680 -0.15360 0.12090
H19? H 0.88520 -0.21730 0.16960
C18? C 0.8427(3) -0.1324(6) 0.0336(3)
H20? H 0.78760 -0.24080 0.03550
H21? H 0.88040 -0.18430 -0.01360
#END
