
#######################################################################
#
#                 Cambridge Crystallographic Data Centre
#                                CCDC
#
#######################################################################
#
# If this CIF has been generated from an entry in the Cambridge
# Structural Database, then it will include bibliographic, chemical,
# crystal, experimental, refinement or atomic coordinate data resulting
# from the CCDC's data processing and validation procedures.
#
#######################################################################

data_CSD_CIF_WUTXOA
_audit_creation_date 2015-10-14
_audit_creation_method CSD-ConQuest-V1
_database_code_CSD WUTXOA
_database_code_depnum_ccdc_archive 'CCDC 984701'
_chemical_formula_sum 'C15 H18 N2 O2'
_chemical_formula_moiety
;
C15 H18 N2 O2
;
_journal_coden_Cambridge 35
_journal_volume 80
_journal_year 2015
_journal_page_first 9518
_journal_name_full 'J.Org.Chem. '
loop_
_publ_author_name
"Duangduan Chaiyaveij"
"A.S.Batsanov"
"M.A.Fox"
"T.B.Marder"
"Andrew Whiting"
_chemical_name_systematic
;
N-((R)-1-Phenylethyl)-2-oxa-3-azabicyclo[2.2.2]oct-5-ene-3-carboxamide
;
_cell_volume   5488.035
_exptl_crystal_colour 'colorless'
_exptl_crystal_density_diffrn 1.251
_exptl_crystal_description 'tablet'
_exptl_crystal_preparation 'ether'
_diffrn_ambient_temperature 120
#These two values have been output from a single CSD field.
_refine_ls_R_factor_gt 0.0402
_refine_ls_wR_factor_gt 0.0402
_symmetry_cell_setting tetragonal
_symmetry_space_group_name_H-M 'P 41 21 2'
_symmetry_Int_Tables_number 92
loop_
_symmetry_equiv_pos_site_id
_symmetry_equiv_pos_as_xyz
1 x,y,z
2 -x,-y,1/2+z
3 1/2-y,1/2+x,1/4+z
4 1/2+y,1/2-x,3/4+z
5 1/2-x,1/2+y,1/4-z
6 1/2+x,1/2-y,3/4-z
7 y,x,-z
8 -y,-x,1/2-z
_cell_length_a 10.2998(9)
_cell_length_b 10.2998(9)
_cell_length_c 51.732(3)
_cell_angle_alpha 90
_cell_angle_beta 90
_cell_angle_gamma 90
_cell_formula_units_Z 16
loop_
_atom_type_symbol
_atom_type_radius_bond
C 0.68
H 0.23
N 0.68
O 0.68
loop_
_atom_site_label
_atom_site_type_symbol
_atom_site_fract_x
_atom_site_fract_y
_atom_site_fract_z
O1 O 0.79158(14) 0.21603(14) 0.56535(3)
O2 O 0.60160(15) -0.06398(14) 0.56287(3)
N1 N 0.76789(17) 0.07896(16) 0.56773(3)
N2 N 0.55576(17) 0.15143(18) 0.56039(4)
H1 H 0.587(2) 0.229(3) 0.5583(4)
C1 C 0.6358(2) 0.0506(2) 0.56285(4)
C2 C 0.8811(2) 0.2442(2) 0.54414(4)
H2 H 0.88530 0.33980 0.54090
C3 C 1.0122(2) 0.1937(2) 0.55288(6)
H3 H 1.04150 0.24080 0.56850
H4 H 1.07760 0.20630 0.53910
C4 C 0.9965(2) 0.0499(2) 0.55881(5)
H5 H 1.01010 0.03460 0.57750
H6 H 1.06220 -0.00060 0.54920
C5 C 0.8602(2) 0.0050(2) 0.55110(4)
H7 H 0.84980 -0.09070 0.55350
C6 C 0.8324(2) 0.0445(2) 0.52356(4)
H8 H 0.81280 -0.01510 0.51010
C7 C 0.8386(2) 0.1740(3) 0.52029(4)
H9 H 0.81820 0.21640 0.50450
C8 C 0.41608(19) 0.1314(2) 0.55673(4)
H10 H 0.39850 0.03640 0.55870
C9 C 0.3768(2) 0.1699(3) 0.52932(4)
H11 H 0.39280 0.26280 0.52680
H12 H 0.28430 0.15160 0.52670
H13 H 0.42800 0.12000 0.51680
C10 C 0.33814(18) 0.2020(2) 0.57714(4)
C11 C 0.3288(2) 0.3369(2) 0.57745(4)
H14 H 0.37460 0.38690 0.56500
C12 C 0.2528(2) 0.3984(2) 0.59591(4)
H15 H 0.24560 0.49030 0.59580
C13 C 0.1874(2) 0.3272(2) 0.61441(4)
H16 H 0.13540 0.36990 0.62700
C14 C 0.1982(2) 0.1939(2) 0.61453(4)
H17 H 0.15430 0.14440 0.62730
C15 C 0.2729(2) 0.1318(2) 0.59599(4)
H18 H 0.27960 0.03980 0.59620
O3 O 0.78347(13) 0.70584(13) 0.57699(2)
O4 O 0.60734(15) 0.44413(13) 0.55166(3)
N3 N 0.75932(16) 0.57010(15) 0.57202(3)
N4 N 0.59533(17) 0.66397(17) 0.54681(3)
H19 H 0.624(2) 0.735(2) 0.5521(4)
C16 C 0.64588(19) 0.55467(19) 0.55655(3)
C17 C 0.7712(2) 0.7372(2) 0.60470(3)
H20 H 0.77270 0.83330 0.60740
C18 C 0.8879(2) 0.6738(2) 0.61768(4)
H21 H 0.88420 0.68700 0.63660
H22 H 0.96950 0.71220 0.61110
C19 C 0.8822(2) 0.5283(2) 0.61124(4)
H23 H 0.95680 0.50440 0.60010
H24 H 0.88740 0.47680 0.62740
C20 C 0.7547(2) 0.49796(19) 0.59714(3)
H25 H 0.74480 0.40250 0.59420
C21 C 0.6410(2) 0.5518(2) 0.61209(4)
H26 H 0.57170 0.50020 0.61850
C22 C 0.6487(2) 0.6801(2) 0.61532(4)
H27 H 0.58310 0.73020 0.62350
C23 C 0.49300(19) 0.6596(2) 0.52736(3)
H28 H 0.50290 0.57660 0.51750
C24 C 0.5122(2) 0.7717(2) 0.50833(4)
H29 H 0.60050 0.76840 0.50130
H30 H 0.49920 0.85450 0.51730
H31 H 0.44930 0.76400 0.49420
C25 C 0.35702(19) 0.66206(19) 0.53867(3)
C26 C 0.3241(2) 0.7399(2) 0.55971(4)
H32 H 0.38930 0.78870 0.56830
C27 C 0.1958(2) 0.7462(2) 0.56807(4)
H33 H 0.17410 0.79940 0.58240
C28 C 0.0996(2) 0.6759(2) 0.55577(4)
H34 H 0.01210 0.68170 0.56140
C29 C 0.1319(2) 0.5973(3) 0.53516(4)
H35 H 0.06650 0.54800 0.52670
C30 C 0.2600(2) 0.5901(2) 0.52681(4)
H36 H 0.28150 0.53490 0.51270
#END
