
#######################################################################
#
#                 Cambridge Crystallographic Data Centre
#                                CCDC
#
#######################################################################
#
# If this CIF has been generated from an entry in the Cambridge
# Structural Database, then it will include bibliographic, chemical,
# crystal, experimental, refinement or atomic coordinate data resulting
# from the CCDC's data processing and validation procedures.
#
#######################################################################

data_CSD_CIF_WUTXIU
_audit_creation_date 2015-10-14
_audit_creation_method CSD-ConQuest-V1
_database_code_CSD WUTXIU
_database_code_depnum_ccdc_archive 'CCDC 984700'
_chemical_formula_sum 'C9 H12 N2 O2'
_chemical_formula_moiety
;
C9 H12 N2 O2
;
_journal_coden_Cambridge 35
_journal_volume 80
_journal_year 2015
_journal_page_first 9518
_journal_name_full 'J.Org.Chem. '
loop_
_publ_author_name
"Duangduan Chaiyaveij"
"A.S.Batsanov"
"M.A.Fox"
"T.B.Marder"
"Andrew Whiting"
_chemical_name_systematic
;
(S)-1-Hydroxy-3-(1-phenylethyl)urea
;
_cell_volume   1905.467
_exptl_crystal_colour 'colorless'
_exptl_crystal_density_diffrn 1.256
_exptl_crystal_description 'prism'
_exptl_crystal_preparation 'diethyl ether'
_diffrn_ambient_temperature 120
#These two values have been output from a single CSD field.
_refine_ls_R_factor_gt 0.0397
_refine_ls_wR_factor_gt 0.0397
_symmetry_cell_setting orthorhombic
_symmetry_space_group_name_H-M 'P 21 21 21'
_symmetry_Int_Tables_number 19
loop_
_symmetry_equiv_pos_site_id
_symmetry_equiv_pos_as_xyz
1 x,y,z
2 1/2-x,-y,1/2+z
3 -x,1/2+y,1/2-z
4 1/2+x,1/2-y,-z
_cell_length_a 7.2202(3)
_cell_length_b 10.5445(5)
_cell_length_c 25.0280(13)
_cell_angle_alpha 90
_cell_angle_beta 90
_cell_angle_gamma 90
_cell_formula_units_Z 8
loop_
_atom_type_symbol
_atom_type_radius_bond
C 0.68
H 0.23
N 0.68
O 0.68
loop_
_atom_site_label
_atom_site_type_symbol
_atom_site_fract_x
_atom_site_fract_y
_atom_site_fract_z
O1 O 1.0788(2) 0.55044(13) 0.29602(6)
H1 H 1.047(4) 0.489(2) 0.2738(11)
O2 O 1.04027(19) 0.87319(12) 0.27043(5)
N1 N 1.0867(2) 0.66258(15) 0.26509(6)
H2 H 1.200(4) 0.680(2) 0.2540(9)
N2 N 0.8693(2) 0.74131(15) 0.32401(6)
H3 H 0.832(4) 0.660(3) 0.3286(10)
C1 C 0.6090(3) 0.77069(18) 0.38238(7)
C2 C 0.4204(3) 0.76939(19) 0.37136(7)
H4 H 0.37520 0.81070 0.34020
C3 C 0.2977(3) 0.7085(2) 0.40523(9)
H5 H 0.16910 0.70790 0.39710
C4 C 0.3612(3) 0.6486(2) 0.45076(9)
H6 H 0.27640 0.60840 0.47430
C5 C 0.5497(3) 0.6476(2) 0.46187(8)
H7 H 0.59450 0.60500 0.49270
C6 C 0.6722(3) 0.7086(2) 0.42797(8)
H8 H 0.80090 0.70810 0.43590
C7 C 0.7434(3) 0.83864(18) 0.34573(7)
H9 H 0.67210 0.87680 0.31550
C8 C 0.8477(3) 0.9442(2) 0.37452(9)
H10 H 0.91710 0.90830 0.40460
H11 H 0.75920 1.00720 0.38790
H12 H 0.93390 0.98500 0.34960
C9 C 0.9987(3) 0.76490(17) 0.28691(7)
O3 O 0.5708(2) 0.53243(12) 0.29485(6)
H13 H 0.540(4) 0.589(2) 0.2700(11)
O4 O 0.54879(19) 0.20649(12) 0.27551(5)
N3 N 0.5887(2) 0.41791(14) 0.26592(6)
H14 H 0.705(4) 0.401(2) 0.2581(10)
N4 N 0.3504(2) 0.34062(16) 0.31849(6)
H15 H 0.317(4) 0.421(2) 0.3238(10)
C10 C 0.3719(3) 0.20029(18) 0.39725(7)
C11 C 0.3515(3) 0.07834(19) 0.41721(8)
H16 H 0.26840 0.02130 0.40020
C12 C 0.4508(3) 0.0386(2) 0.46167(8)
H17 H 0.43680 -0.04550 0.47470
C13 C 0.5702(3) 0.1221(2) 0.48691(8)
H18 H 0.63770 0.09550 0.51750
C14 C 0.5910(4) 0.2435(2) 0.46763(9)
H19 H 0.67330 0.30060 0.48490
C15 C 0.4923(3) 0.2827(2) 0.42308(8)
H20 H 0.50710 0.36680 0.41010
C16 C 0.2575(3) 0.24134(18) 0.34909(7)
H21 H 0.24010 0.16610 0.32530
C17 C 0.0661(3) 0.2889(2) 0.36619(8)
H22 H 0.07930 0.36960 0.38520
H23 H 0.00810 0.22630 0.38980
H24 H -0.01150 0.30130 0.33450
C18 C 0.4972(3) 0.31606(17) 0.28761(7)
#END
