
#######################################################################
#
#                 Cambridge Crystallographic Data Centre
#                                CCDC
#
#######################################################################
#
# If this CIF has been generated from an entry in the Cambridge
# Structural Database, then it will include bibliographic, chemical,
# crystal, experimental, refinement or atomic coordinate data resulting
# from the CCDC's data processing and validation procedures.
#
#######################################################################

data_CSD_CIF_WUTXAM
_audit_creation_date 2015-10-14
_audit_creation_method CSD-ConQuest-V1
_database_code_CSD WUTXAM
_database_code_depnum_ccdc_archive 'CCDC 984698'
_chemical_formula_sum 'C7 H8 N2 O2'
_chemical_formula_moiety
;
C7 H8 N2 O2
;
_journal_coden_Cambridge 35
_journal_volume 80
_journal_year 2015
_journal_page_first 9518
_journal_name_full 'J.Org.Chem. '
loop_
_publ_author_name
"Duangduan Chaiyaveij"
"A.S.Batsanov"
"M.A.Fox"
"T.B.Marder"
"Andrew Whiting"
_chemical_name_systematic
;
1-Hydroxy-3-phenylurea
;
_cell_volume    713.639
_exptl_crystal_colour 'colorless'
_exptl_crystal_density_diffrn 1.416
_exptl_crystal_preparation 'ether/hexane'
_diffrn_ambient_temperature 120
#These two values have been output from a single CSD field.
_refine_ls_R_factor_gt 0.0383
_refine_ls_wR_factor_gt 0.0383
_symmetry_cell_setting triclinic
_symmetry_space_group_name_H-M 'P -1'
_symmetry_Int_Tables_number 2
loop_
_symmetry_equiv_pos_site_id
_symmetry_equiv_pos_as_xyz
1 x,y,z
2 -x,-y,-z
_cell_length_a 5.3049(4)
_cell_length_b 5.9648(5)
_cell_length_c 24.0989(18)
_cell_angle_alpha 94.598(18)
_cell_angle_beta 90.430(18)
_cell_angle_gamma 110.027(16)
_cell_formula_units_Z 4
loop_
_atom_type_symbol
_atom_type_radius_bond
C 0.68
H 0.23
N 0.68
O 0.68
loop_
_atom_site_label
_atom_site_type_symbol
_atom_site_fract_x
_atom_site_fract_y
_atom_site_fract_z
O1 O 1.2948(2) 0.6160(2) 0.47410(5)
H1 H 1.470(4) 0.688(4) 0.4608(9)
O2 O 0.7984(2) 0.8484(2) 0.44016(5)
N1 N 1.1773(3) 0.7936(3) 0.46812(7)
H2 H 1.176(4) 0.884(4) 0.4998(9)
N2 N 0.8926(3) 0.5227(3) 0.40205(6)
H3 H 0.995(3) 0.431(3) 0.4083(7)
C1 C 0.9443(3) 0.7220(3) 0.43707(7)
C2 C 0.6537(3) 0.4192(3) 0.36802(7)
C3 C 0.5578(3) 0.5568(3) 0.33577(7)
H4 H 0.65140 0.72410 0.33610
C4 C 0.3249(3) 0.4497(3) 0.30312(7)
H5 H 0.25860 0.54410 0.28110
C5 C 0.1881(3) 0.2053(3) 0.30233(8)
H6 H 0.02710 0.13240 0.28030
C6 C 0.2876(3) 0.0683(3) 0.33389(8)
H7 H 0.19640 -0.09970 0.33290
C7 C 0.5195(3) 0.1744(3) 0.36693(7)
H8 H 0.58630 0.07980 0.38880
O3 O 0.8044(2) 0.6363(2) 0.02562(5)
H9 H 0.973(4) 0.714(4) 0.0383(10)
O4 O 0.3195(2) 0.8926(2) 0.05987(5)
N3 N 0.6888(3) 0.8171(3) 0.03180(7)
H10 H 0.684(3) 0.890(3) 0.0029(8)
N4 N 0.4298(3) 0.5985(3) 0.09818(6)
H11 H 0.527(4) 0.507(3) 0.0931(8)
C8 C 0.4678(3) 0.7702(3) 0.06278(7)
C9 C 0.2031(3) 0.5183(3) 0.13205(7)
C10 C 0.1195(3) 0.6788(3) 0.16510(7)
H12 H 0.21360 0.84620 0.16550
C11 C -0.1020(3) 0.5933(3) 0.19742(7)
H13 H -0.16050 0.70310 0.21990
C12 C -0.2401(3) 0.3484(3) 0.19749(8)
H14 H -0.39200 0.29040 0.21980
C13 C -0.1525(3) 0.1916(3) 0.16461(8)
H15 H -0.24470 0.02410 0.16450
C14 C 0.0672(3) 0.2745(3) 0.13188(7)
H16 H 0.12480 0.16460 0.10930
#END
