
#######################################################################
#
#                 Cambridge Crystallographic Data Centre
#                                CCDC
#
#######################################################################
#
# If this CIF has been generated from an entry in the Cambridge
# Structural Database, then it will include bibliographic, chemical,
# crystal, experimental, refinement or atomic coordinate data resulting
# from the CCDC's data processing and validation procedures.
#
#######################################################################

data_CSD_CIF_WUTYAN
_audit_creation_date 2015-10-14
_audit_creation_method CSD-ConQuest-V1
_database_code_CSD WUTYAN
_database_code_depnum_ccdc_archive 'CCDC 984703'
_chemical_formula_sum 'C13 H16 N2 O2'
_chemical_formula_moiety
;
C13 H16 N2 O2
;
_journal_coden_Cambridge 35
_journal_volume 80
_journal_year 2015
_journal_page_first 9518
_journal_name_full 'J.Org.Chem. '
loop_
_publ_author_name
"Duangduan Chaiyaveij"
"A.S.Batsanov"
"M.A.Fox"
"T.B.Marder"
"Andrew Whiting"
_chemical_name_systematic
;
4,5-Dimethyl-N-phenyl-3,6-dihydro-2H-1,2-oxazine-2-carboxamide
;
_chemical_melting_point 374
_cell_volume   2455.350
_exptl_crystal_colour 'pale yellow'
_exptl_crystal_density_diffrn 1.257
_exptl_crystal_description 'block'
_exptl_crystal_preparation 'ether/hexane'
_diffrn_ambient_temperature 120
#These two values have been output from a single CSD field.
_refine_ls_R_factor_gt 0.0426
_refine_ls_wR_factor_gt 0.0426
_symmetry_cell_setting orthorhombic
_symmetry_space_group_name_H-M 'P b c a'
_symmetry_Int_Tables_number 61
loop_
_symmetry_equiv_pos_site_id
_symmetry_equiv_pos_as_xyz
1 x,y,z
2 1/2-x,-y,1/2+z
3 -x,1/2+y,1/2-z
4 1/2+x,1/2-y,-z
5 -x,-y,-z
6 -1/2+x,y,-1/2-z
7 x,-1/2-y,-1/2+z
8 -1/2-x,-1/2+y,z
_cell_length_a 13.5078(8)
_cell_length_b 9.1660(5)
_cell_length_c 19.8312(13)
_cell_angle_alpha 90
_cell_angle_beta 90
_cell_angle_gamma 90
_cell_formula_units_Z 8
loop_
_atom_type_symbol
_atom_type_radius_bond
C 0.68
H 0.23
N 0.68
O 0.68
loop_
_atom_site_label
_atom_site_type_symbol
_atom_site_fract_x
_atom_site_fract_y
_atom_site_fract_z
O1 O 0.64558(6) 0.40016(8) 0.44651(4)
O2 O 0.66406(5) 0.04583(8) 0.38126(4)
N1 N 0.63841(6) 0.24719(9) 0.44501(4)
N2 N 0.74516(6) 0.25877(10) 0.35421(4)
H1 H 0.7563(11) 0.3428(16) 0.3671(7)
C1 C 0.68127(7) 0.17589(10) 0.39109(5)
C2 C 0.56837(8) 0.46339(11) 0.40566(6)
H2 H 0.58470 0.44830 0.35750
H3 H 0.56620 0.56990 0.41390
C3 C 0.46807(8) 0.40003(12) 0.41955(5)
C4 C 0.45816(8) 0.27723(13) 0.45449(5)
C5 C 0.54846(8) 0.19357(12) 0.47645(5)
H4 H 0.55520 0.20080 0.52610
H5 H 0.53970 0.08930 0.46490
C6 C 0.36133(9) 0.20706(17) 0.47336(7)
H6 H 0.30810 0.27950 0.47040
H7 H 0.36540 0.16980 0.51960
H8 H 0.34740 0.12630 0.44240
C7 C 0.38412(10) 0.48448(18) 0.38882(7)
H9 H 0.37720 0.45750 0.34120
H10 H 0.39780 0.58920 0.39230
H11 H 0.32260 0.46180 0.41280
C8 C 0.80691(7) 0.20319(11) 0.30262(5)
C9 C 0.90038(8) 0.26659(11) 0.29495(6)
H12 H 0.91990 0.34470 0.32350
C10 C 0.96468(8) 0.21548(12) 0.24564(6)
H13 H 1.02800 0.25910 0.24050
C11 C 0.93701(9) 0.10137(13) 0.20392(6)
H14 H 0.98140 0.06560 0.17070
C12 C 0.84377(9) 0.03985(13) 0.21113(6)
H15 H 0.82460 -0.03840 0.18250
C13 C 0.77781(8) 0.09113(12) 0.25970(5)
H16 H 0.71350 0.04990 0.26350
H17? H 0.34880 0.55390 0.41780
H18? H 0.39870 0.53750 0.34710
H19? H 0.33210 0.41970 0.37180
#END
