
#######################################################################
#
#                 Cambridge Crystallographic Data Centre
#                                CCDC
#
#######################################################################
#
# If this CIF has been generated from an entry in the Cambridge
# Structural Database, then it will include bibliographic, chemical,
# crystal, experimental, refinement or atomic coordinate data resulting
# from the CCDC's data processing and validation procedures.
#
#######################################################################

data_CSD_CIF_WUVQIP
_audit_creation_date 2015-10-15
_audit_creation_method CSD-ConQuest-V1
_database_code_CSD WUVQIP
_database_code_depnum_ccdc_archive 'CCDC 1404872'
_chemical_formula_sum 'C23 H15 N3 O5'
_chemical_formula_moiety
;
C23 H15 N3 O5
;
_journal_coden_Cambridge 16
_journal_volume 71
_journal_year 2015
_journal_page_first 9095
_journal_name_full 'Tetrahedron '
loop_
_publ_author_name
"F.Albota"
"C.Draghici"
"M.R.Caira"
"F.Dumitrascu"
_chemical_name_systematic
;
4-((1-(methoxycarbonyl)pyrrolo[2,1-a]isoquinolin-3-yl)carbonyl)-5-oxo-3-phenyl
-5H-1,2,3-oxadiazol-3-ium-2-ide
;
_chemical_melting_point 500
_cell_volume   1909.431
_exptl_crystal_colour 'orange'
_exptl_crystal_density_diffrn 1.438
_exptl_special_details
;
Melting point range 500-501K

;
_exptl_crystal_description 'prism'
_exptl_crystal_preparation 'acetonitrile'
_diffrn_ambient_temperature 173
#These two values have been output from a single CSD field.
_refine_ls_R_factor_gt 0.037
_refine_ls_wR_factor_gt 0.037
_symmetry_cell_setting monoclinic
_symmetry_space_group_name_H-M 'P 21/n'
_symmetry_Int_Tables_number 14
loop_
_symmetry_equiv_pos_site_id
_symmetry_equiv_pos_as_xyz
1 x,y,z
2 1/2-x,1/2+y,1/2-z
3 -x,-y,-z
4 -1/2+x,-1/2-y,-1/2+z
_cell_length_a 11.2661(2)
_cell_length_b 8.1641(2)
_cell_length_c 20.8189(4)
_cell_angle_alpha 90
_cell_angle_beta 94.320(1)
_cell_angle_gamma 90
_cell_formula_units_Z 4
loop_
_atom_type_symbol
_atom_type_radius_bond
C 0.68
H 0.23
N 0.68
O 0.68
loop_
_atom_site_label
_atom_site_type_symbol
_atom_site_fract_x
_atom_site_fract_y
_atom_site_fract_z
N1 N 0.47940(8) 0.71286(11) 0.46052(4)
C1 C 0.57808(9) 0.80433(12) 0.44678(5)
C2 C 0.58881(10) 0.78942(13) 0.37974(5)
C3 C 0.49779(9) 0.68552(13) 0.35496(5)
H1 H 0.48520 0.65220 0.31130
C4 C 0.42910(9) 0.63909(13) 0.40403(5)
C5 C 0.43921(10) 0.70237(14) 0.52201(5)
H2 H 0.37040 0.63960 0.52920
C6 C 0.49824(11) 0.78152(14) 0.57119(6)
H3 H 0.46910 0.77710 0.61280
C7 C 0.66916(12) 0.94820(15) 0.61447(6)
H4 H 0.63970 0.94450 0.65600
C8 C 0.77410(13) 1.02715(15) 0.60621(7)
H5 H 0.81770 1.07620 0.64200
C9 C 0.81713(12) 1.03555(15) 0.54509(7)
H6 H 0.89040 1.08960 0.53970
C10 C 0.75447(11) 0.96632(14) 0.49268(6)
H7 H 0.78400 0.97500 0.45130
C11 C 0.64668(10) 0.88250(13) 0.49981(5)
C12 C 0.6041(1) 0.87222(13) 0.56204(5)
C13 C 0.66883(10) 0.87333(14) 0.33773(5)
O1 O 0.72352(9) 0.99898(11) 0.34983(4)
O2 O 0.67319(8) 0.79399(11) 0.28179(4)
C14 C 0.74488(13) 0.86776(19) 0.23489(6)
H8 H 0.71360 0.97680 0.22350
H9 H 0.74230 0.79910 0.19620
H10 H 0.82730 0.87740 0.25310
C15 C 0.32179(10) 0.54214(13) 0.40217(5)
O3 O 0.26084(7) 0.52432(12) 0.44836(4)
C16 C 0.28159(10) 0.45887(13) 0.34105(5)
C17 C 0.34317(10) 0.38452(14) 0.29165(5)
O4 O 0.44397(8) 0.37680(11) 0.27586(4)
O5 O 0.25248(8) 0.29617(12) 0.25504(4)
N2 N 0.14415(10) 0.31742(15) 0.27962(5)
N3 N 0.16620(8) 0.41106(12) 0.32965(4)
C18 C 0.06339(10) 0.46265(15) 0.36285(5)
C19 C 0.02343(10) 0.62048(15) 0.35302(6)
H11 H 0.06080 0.69190 0.32470
C20 C -0.07245(11) 0.67270(17) 0.38537(7)
H12 H -0.10110 0.78150 0.37960
C21 C -0.12659(12) 0.56775(19) 0.42594(7)
H13 H -0.19160 0.60490 0.44860
C22 C -0.08666(13) 0.4089(2) 0.43371(8)
H14 H -0.12550 0.33630 0.46100
C23 C 0.00971(12) 0.35435(18) 0.40202(7)
H15 H 0.03790 0.24510 0.40720
#END
