
#######################################################################
#
#                 Cambridge Crystallographic Data Centre
#                                CCDC
#
#######################################################################
#
# If this CIF has been generated from an entry in the Cambridge
# Structural Database, then it will include bibliographic, chemical,
# crystal, experimental, refinement or atomic coordinate data resulting
# from the CCDC's data processing and validation procedures.
#
#######################################################################

data_CSD_CIF_WUVSOV
_audit_creation_date 2003-05-15
_audit_creation_method CSD-ConQuest-V1
_database_code_CSD WUVSOV
_database_code_depnum_ccdc_archive 'CCDC 205137'
_chemical_formula_sum 'C17 H21 N1 O3'
_chemical_formula_moiety
;
C17 H21 N1 O3
;
_journal_coden_Cambridge 35
_journal_volume 68
_journal_year 2003
_journal_page_first 139
_journal_name_full 'J.Org.Chem. '
loop_
_publ_author_name
"Wenlin Lee"
"Kyung-Hee Kim"
"M.D.Surman"
"M.J.Miller"
_chemical_name_systematic
;
cis-1-(N-Hydroxyacetamido)-4-[(E)-1-hydroxy-2-methyl-3-phenylprop-2-enyl]cyclo
pent-2-ene
;
_cell_volume   1581.177
_exptl_crystal_density_diffrn 1.207
_diffrn_ambient_temperature 100
#These two values have been output from a single CSD field.
_refine_ls_R_factor_gt 0.0481
_refine_ls_wR_factor_gt 0.0481
_symmetry_cell_setting monoclinic
_symmetry_space_group_name_H-M 'P 21/c'
_symmetry_Int_Tables_number 14
loop_
_symmetry_equiv_pos_site_id
_symmetry_equiv_pos_as_xyz
1 x,y,z
2 -x,1/2+y,1/2-z
3 -x,-y,-z
4 x,-1/2-y,-1/2+z
_cell_length_a 10.3434(6)
_cell_length_b 14.6080(8)
_cell_length_c 10.4658(6)
_cell_angle_alpha 90
_cell_angle_beta 90.835(1)
_cell_angle_gamma 90
_cell_formula_units_Z 4
loop_
_atom_type_symbol
_atom_type_radius_bond
C 0.68
H 0.23
N 0.68
O 0.68
loop_
_atom_site_label
_atom_site_type_symbol
_atom_site_fract_x
_atom_site_fract_y
_atom_site_fract_z
O1 O 0.4232(1) 0.0026(1) 0.6992(1)
N1 N 0.5646(1) 0.1133(1) 0.6509(1)
C1 C 0.3649(1) 0.1044(1) 0.5268(1)
O2 O 0.5874(1) 0.1936(1) 0.5822(1)
C2 C 0.4511(1) 0.0696(1) 0.6324(1)
O3 O 0.7332(1) 0.3730(1) 0.8943(1)
C3 C 0.6535(1) 0.0970(1) 0.7584(1)
C4 C 0.6576(1) 0.1772(1) 0.8549(1)
C5 C 0.7947(1) 0.2190(1) 0.8495(1)
C6 C 0.7908(1) 0.0891(1) 0.7152(1)
C7 C 0.8661(1) 0.1536(1) 0.7643(1)
C8 C 0.7982(1) 0.3182(1) 0.8008(1)
C9 C 0.9368(1) 0.3484(1) 0.7836(1)
C10 C 0.9790(1) 0.3597(1) 0.6646(1)
C11 C 1.0163(1) 0.3561(1) 0.9039(1)
C12 C 1.1112(1) 0.3741(1) 0.6173(1)
C13 C 1.1245(2) 0.4166(1) 0.4983(2)
C14 C 1.2458(2) 0.4315(1) 0.4473(2)
C15 C 1.3539(2) 0.4034(1) 0.5114(2)
C16 C 1.3441(2) 0.3585(1) 0.6267(2)
C17 C 1.2225(1) 0.3436(1) 0.6804(2)
H1 H 0.34750 0.16430 0.53990
H2 H 0.29330 0.06990 0.52200
H3 H 0.40430 0.09920 0.44890
H4 H 0.63760 0.17790 0.52500
H5 H 0.69370 0.41850 0.85730
H6 H 0.62830 0.04370 0.79380
H7 H 0.59930 0.21890 0.83050
H8 H 0.64580 0.15570 0.93560
H9 H 0.83650 0.22050 0.93190
H10 H 0.82160 0.04330 0.65730
H11 H 0.95590 0.16080 0.74930
H12 H 0.75100 0.32130 0.72350
H13 H 0.91630 0.35950 0.59890
H14 H 1.08410 0.39400 0.89740
H15 H 0.96930 0.37770 0.97070
H16 H 1.05330 0.29870 0.93100
H17 H 1.04080 0.43790 0.44840
H18 H 1.25380 0.46520 0.36430
H19 H 1.44090 0.41280 0.47710
H20 H 1.40460 0.33460 0.68170
H21 H 1.21790 0.31280 0.75350
#END
