
#######################################################################
#
#                 Cambridge Crystallographic Data Centre
#                                CCDC
#
#######################################################################
#
# If this CIF has been generated from an entry in the Cambridge
# Structural Database, then it will include bibliographic, chemical,
# crystal, experimental, refinement or atomic coordinate data resulting
# from the CCDC's data processing and validation procedures.
#
#######################################################################

data_CSD_CIF_WUVWAL
_audit_creation_date 2003-05-15
_audit_creation_method CSD-ConQuest-V1
_database_code_CSD WUVWAL
_database_code_depnum_ccdc_archive 'CCDC 206787'
_chemical_formula_sum 'C13 H11 N3 O3'
_chemical_formula_moiety
;
C13 H11 N3 O3
;
_journal_coeditor_code "IUCr OM6130"
_journal_coden_Cambridge 1370
_journal_volume 59
_journal_year 2003
_journal_page_first o342
_journal_name_full 'Acta Crystallogr.,Sect.E:Struct.Rep.Online '
loop_
_publ_author_name
"Shang Shan"
"Duan-Jun Xu"
"Jing-Yun Wu"
"M.Y.Chiang"
_chemical_name_systematic
;
(E)-Salicylaldehyde 4-nitrophenylhydrazone
;
_cell_volume    602.864
_exptl_crystal_colour 'orange'
_exptl_crystal_density_diffrn 1.417
_exptl_crystal_description 'plate'
_exptl_crystal_preparation 'chloroform/acetone'
_diffrn_ambient_temperature 298
#These two values have been output from a single CSD field.
_refine_ls_R_factor_gt 0.032
_refine_ls_wR_factor_gt 0.032
_symmetry_cell_setting monoclinic
_symmetry_space_group_name_H-M 'P c'
_symmetry_Int_Tables_number 7
loop_
_symmetry_equiv_pos_site_id
_symmetry_equiv_pos_as_xyz
1 x,y,z
2 x,-y,1/2+z
_cell_length_a 5.0052(11)
_cell_length_b 9.9004(16)
_cell_length_c 12.1749(12)
_cell_angle_alpha 90
_cell_angle_beta 92.199(15)
_cell_angle_gamma 90
_cell_formula_units_Z 2
loop_
_atom_type_symbol
_atom_type_radius_bond
C 0.68
H 0.23
N 0.68
O 0.68
loop_
_atom_site_label
_atom_site_type_symbol
_atom_site_fract_x
_atom_site_fract_y
_atom_site_fract_z
O1 O 1.1219(6) 0.0500(3) 0.5900(2)
O2 O 1.1702(6) -0.1120(3) 0.4758(3)
O3 O -0.0249(5) 0.5120(2) 0.3978(2)
N1 N 1.0663(6) -0.0053(3) 0.5016(3)
N2 N 0.2966(5) 0.2283(3) 0.2189(2)
H1 H 0.27810 0.19810 0.15280
N3 N 0.1378(5) 0.3308(2) 0.2531(2)
C1 C 0.4849(6) 0.1739(3) 0.2897(3)
C2 C 0.6294(7) 0.0607(3) 0.2557(3)
H2 H 0.59520 0.02510 0.18590
C3 C 0.8191(6) 0.0024(3) 0.3237(3)
H3 H 0.91240 -0.07300 0.30060
C4 C 0.8723(7) 0.0565(3) 0.4277(3)
C5 C 0.7345(6) 0.1688(4) 0.4615(3)
H4 H 0.77240 0.20510 0.53080
C6 C 0.5424(6) 0.2272(3) 0.3939(3)
H5 H 0.45000 0.30270 0.41760
C7 C -0.0384(6) 0.3772(3) 0.1848(3)
H6 H -0.05310 0.34020 0.11460
C8 C -0.2189(6) 0.4873(3) 0.2140(3)
C9 C -0.2040(6) 0.5500(3) 0.3169(3)
C10 C -0.3793(8) 0.6534(4) 0.3392(4)
H7 H -0.36850 0.69610 0.40720
C11 C -0.5690(7) 0.6935(4) 0.2618(4)
H8 H -0.68640 0.76270 0.27840
C12 C -0.5887(7) 0.6337(4) 0.1604(3)
H9 H -0.71850 0.66170 0.10860
C13 C -0.4131(7) 0.5312(3) 0.1361(3)
H10 H -0.42410 0.49080 0.06720
H11 H 0.09430 0.44910 0.36580
#END
