
#######################################################################
#
#                 Cambridge Crystallographic Data Centre
#                                CCDC
#
#######################################################################
#
# If this CIF has been generated from an entry in the Cambridge
# Structural Database, then it will include bibliographic, chemical,
# crystal, experimental, refinement or atomic coordinate data resulting
# from the CCDC's data processing and validation procedures.
#
#######################################################################

data_CSD_CIF_WUVWAL01
_audit_creation_date 2009-12-22
_audit_creation_method CSD-ConQuest-V1
_database_code_CSD WUVWAL01
_database_code_depnum_ccdc_archive 'CCDC 684859'
_chemical_formula_sum 'C13 H11 N3 O3'
_chemical_formula_moiety
;
C13 H11 N3 O3
;
_journal_coden_Cambridge 893
_journal_volume 137
_journal_year 2009
_journal_page_first 447
_journal_name_full 'Sens.Actuators,B '
loop_
_publ_author_name
"You-Ming Zhang"
"Qi Lin"
"Tai-Bao Wei"
"Dan-Dan Wang"
"Hong Yao"
"Ya-Lin Wang"
_chemical_name_systematic
;
2-((2-(4-Nitrophenyl)hydrazono)methyl)phenol
;
_chemical_melting_point 503.15
_cell_volume    600.601
_exptl_crystal_density_diffrn 1.422
_exptl_special_details
;
Melting point range 503.15-504.15K

;
_diffrn_ambient_temperature 294
#These two values have been output from a single CSD field.
_refine_ls_R_factor_gt 0.0455
_refine_ls_wR_factor_gt 0.0455
_symmetry_cell_setting monoclinic
_symmetry_space_group_name_H-M 'P c'
_symmetry_Int_Tables_number 7
loop_
_symmetry_equiv_pos_site_id
_symmetry_equiv_pos_as_xyz
1 x,y,z
2 x,-y,1/2+z
_cell_length_a 5.004(3)
_cell_length_b 9.892(6)
_cell_length_c 12.142(7)
_cell_angle_alpha 90
_cell_angle_beta 92.150(8)
_cell_angle_gamma 90
_cell_formula_units_Z 2
loop_
_atom_type_symbol
_atom_type_radius_bond
C 0.68
H 0.23
N 0.68
O 0.68
loop_
_atom_site_label
_atom_site_type_symbol
_atom_site_fract_x
_atom_site_fract_y
_atom_site_fract_z
C1 C 0.0823(7) 0.0565(3) 0.2900(3)
C2 C 0.2190(6) 0.1680(4) 0.2564(3)
H1 H 0.18050 0.20450 0.18700
C3 C 0.4113(6) 0.2262(3) 0.3235(3)
H2 H 0.50410 0.30150 0.29960
C4 C 0.4681(6) 0.1729(3) 0.4278(3)
C5 C 0.3247(7) 0.0603(3) 0.4617(3)
H3 H 0.35930 0.02450 0.53160
C6 C 0.1334(6) 0.0019(3) 0.3934(3)
H4 H 0.03940 -0.07350 0.41630
C7 C 0.9936(6) 0.3768(3) 0.5333(3)
H5 H 1.00900 0.33940 0.60350
C8 C 1.1726(6) 0.4871(3) 0.5036(3)
C9 C 1.1576(7) 0.5490(3) 0.4006(3)
C10 C 1.3328(8) 0.6531(4) 0.3784(4)
H6 H 1.32120 0.69630 0.31030
C11 C 1.5231(8) 0.6931(4) 0.4559(4)
H7 H 1.64100 0.76210 0.43920
C12 C 1.5422(7) 0.6330(4) 0.5571(4)
H8 H 1.67190 0.66050 0.60920
C13 C 1.3664(7) 0.5310(3) 0.5808(3)
H9 H 1.37730 0.49050 0.65000
N1 N -0.1129(6) -0.0043(4) 0.2156(3)
N2 N 0.6593(5) 0.2274(3) 0.4983(2)
H10 H 0.68050 0.19630 0.56420
N3 N 0.8163(5) 0.3308(3) 0.4641(2)
O1 O -0.2166(6) -0.1117(3) 0.2420(2)
O2 O -0.1680(6) 0.0500(3) 0.1267(2)
O3 O 0.9775(5) 0.5125(2) 0.3202(2)
H11 H 0.88630 0.44980 0.34200
#END
