
#######################################################################
#
#                 Cambridge Crystallographic Data Centre
#                                CCDC
#
#######################################################################
#
# If this CIF has been generated from an entry in the Cambridge
# Structural Database, then it will include bibliographic, chemical,
# crystal, experimental, refinement or atomic coordinate data resulting
# from the CCDC's data processing and validation procedures.
#
#######################################################################

data_CSD_CIF_WUVXIU
_audit_creation_date 2003-05-15
_audit_creation_method CSD-ConQuest-V1
_database_code_CSD WUVXIU
_database_code_depnum_ccdc_archive 'CCDC 206793'
_chemical_formula_sum 'C10 H10 N2 O4'
_chemical_formula_moiety
;
C10 H10 N2 O4
;
_journal_coeditor_code "IUCr SU6013"
_journal_coden_Cambridge 1370
_journal_volume 59
_journal_year 2003
_journal_page_first o360
_journal_name_full 'Acta Crystallogr.,Sect.E:Struct.Rep.Online '
loop_
_publ_author_name
"S.V.V.Reddy"
"A.S.Devi"
"K.Vyas"
"V.V.Rao"
"Y.K.Rao"
"A.Venkateswarlu"
"P.K.Dubey"
_chemical_name_systematic
;
7-Nitro-1,2,3a,4-tetrahydrobenzo(b)(1,3)oxazolo(3,2-d)oxazine
;
_cell_volume   1944.695
_exptl_crystal_colour 'yellow'
_exptl_crystal_density_diffrn 1.518
_exptl_crystal_description 'block'
_exptl_crystal_preparation 'n-butanol/chloroform'
_diffrn_ambient_temperature 298.2
#These two values have been output from a single CSD field.
_refine_ls_R_factor_gt 0.0759
_refine_ls_wR_factor_gt 0.0759
_symmetry_cell_setting monoclinic
_symmetry_space_group_name_H-M 'P 21/c'
_symmetry_Int_Tables_number 14
loop_
_symmetry_equiv_pos_site_id
_symmetry_equiv_pos_as_xyz
1 x,y,z
2 x,1/2-y,1/2+z
3 -x,-y,-z
4 -x,-1/2+y,-1/2-z
_cell_length_a 12.164(2)
_cell_length_b 22.079(4)
_cell_length_c 7.373(2)
_cell_angle_alpha 90
_cell_angle_beta 100.86(2)
_cell_angle_gamma 90
_cell_formula_units_Z 8
loop_
_atom_type_symbol
_atom_type_radius_bond
C 0.68
H 0.23
N 0.68
O 0.68
loop_
_atom_site_label
_atom_site_type_symbol
_atom_site_fract_x
_atom_site_fract_y
_atom_site_fract_z
O1 O 0.6548(2) 0.21548(10) 0.9011(5)
O2 O 0.4842(3) 0.24644(10) 0.8424(6)
O3 O 0.25269(15) 0.06662(7) 0.6542(3)
O4 O 0.2666(2) -0.09694(8) 0.6910(3)
N1 N 0.5547(2) 0.20619(11) 0.8519(4)
N2 N 0.4022(2) -0.02843(9) 0.6698(3)
C1 C 0.4420(2) 0.02731(10) 0.7234(3)
C2 C 0.5564(2) 0.03956(12) 0.7866(4)
C3 C 0.5936(2) 0.09786(13) 0.8288(4)
C4 C 0.5167(2) 0.14498(11) 0.8070(4)
C5 C 0.4023(2) 0.13494(11) 0.7490(4)
C6 C 0.3663(2) 0.07653(10) 0.7105(3)
C7 C 0.2191(2) 0.00777(12) 0.7019(5)
C8 C 0.2832(3) -0.03962(11) 0.6198(4)
C9 C 0.3635(3) -0.13108(13) 0.6696(4)
C10 C 0.4607(3) -0.08576(11) 0.7097(4)
O5 O -0.01649(19) 0.07853(8) 0.6470(3)
O6 O -0.15667(17) 0.11282(8) 0.7561(3)
O7 O 0.21392(14) 0.25794(7) 0.5836(3)
O8 O 0.22258(19) 0.42080(8) 0.6650(3)
N3 N -0.07256(17) 0.12092(8) 0.6888(3)
N4 N 0.07491(18) 0.35619(8) 0.6048(3)
C11 C 0.03669(19) 0.29907(9) 0.6315(3)
C12 C -0.0706(2) 0.28824(10) 0.6671(3)
C13 C -0.10744(19) 0.22985(10) 0.6859(3)
C14 C -0.03709(19) 0.18198(9) 0.6640(3)
C15 C 0.06969(18) 0.19106(9) 0.6252(3)
C16 C 0.10731(18) 0.24923(9) 0.6140(3)
C17 C 0.2623(2) 0.31405(10) 0.6566(4)
C18 C 0.1887(2) 0.36560(11) 0.5767(4)
C19 C 0.1236(3) 0.45497(12) 0.6574(6)
C20 C 0.0321(3) 0.4114(1) 0.6750(4)
H1 H 0.60882 0.00719 0.80103
H2 H 0.67083 0.10574 0.87212
H3 H 0.35059 0.16763 0.73687
H4 H 0.23381 0.00365 0.83246
H5 H 0.14136 0.00261 0.65602
H6 H 0.26082 -0.03970 0.48911
H7 H 0.37544 -0.16377 0.75488
H8 H 0.35570 -0.14639 0.54742
H9 H 0.51302 -0.09216 0.63070
H10 H 0.49827 -0.08796 0.83478
H11 H -0.11847 0.32141 0.67917
H12 H -0.17969 0.22256 0.71255
H13 H 0.11543 0.15757 0.60722
H14 H 0.26858 0.31410 0.78707
H15 H 0.33452 0.31862 0.62682
H16 H 0.18925 0.36890 0.44830
H17 H 0.13291 0.48350 0.75557
H18 H 0.10601 0.47585 0.54266
H19 H -0.03724 0.42332 0.60133
H20 H 0.02342 0.40716 0.79980
#END
