
#######################################################################
#
#                 Cambridge Crystallographic Data Centre
#                                CCDC
#
#######################################################################
#
# If this CIF has been generated from an entry in the Cambridge
# Structural Database, then it will include bibliographic, chemical,
# crystal, experimental, refinement or atomic coordinate data resulting
# from the CCDC's data processing and validation procedures.
#
#######################################################################

data_CSD_CIF_WUWHIG
_audit_creation_date 2011-03-30
_audit_creation_method CSD-ConQuest-V1
_database_code_CSD WUWHIG
_database_code_depnum_ccdc_archive 'CCDC 783017'
_chemical_formula_sum 'C15 H12 N2 O6'
_chemical_formula_moiety
;
C15 H12 N2 O6
;
_journal_coden_Cambridge 1336
_journal_volume 12
_journal_year 2010
_journal_page_first 672
_journal_name_full 'Org.Lett. '
loop_
_publ_author_name
"S.F.Vanier"
"G.Larouche"
"R.P.Wurz"
"A.B.Charette"
_chemical_name_systematic
;
2-(1-Nitro-2-oxo-3-oxabicyclo[5.1.0]oct-5-yl)-1H-isoindole-1,3(2H)-dione
;
_cell_volume    672.890
_exptl_crystal_colour 'colorless'
_exptl_crystal_density_diffrn 1.561
_exptl_crystal_description 'chunk'
_diffrn_ambient_temperature 100
#These two values have been output from a single CSD field.
_refine_ls_R_factor_gt 0.0353
_refine_ls_wR_factor_gt 0.0353
loop_
_citation_database_id_CSD
_citation_special_details
WUWHOM "is a stereoisomer of this entry"
_symmetry_cell_setting triclinic
_symmetry_space_group_name_H-M 'P -1'
_symmetry_Int_Tables_number 2
loop_
_symmetry_equiv_pos_site_id
_symmetry_equiv_pos_as_xyz
1 x,y,z
2 -x,-y,-z
_cell_length_a 6.6993(2)
_cell_length_b 8.1796(2)
_cell_length_c 13.0249(4)
_cell_angle_alpha 76.378(1)
_cell_angle_beta 78.068(1)
_cell_angle_gamma 80.066(2)
_cell_formula_units_Z 2
loop_
_atom_type_symbol
_atom_type_radius_bond
C 0.68
H 0.23
N 0.68
O 0.68
loop_
_atom_site_label
_atom_site_type_symbol
_atom_site_fract_x
_atom_site_fract_y
_atom_site_fract_z
O1 O -0.1147(3) 0.5838(2) 0.25843(14)
O2 O 0.1832(3) 0.6218(2) 0.29105(13)
O3 O 0.7748(3) 0.9993(2) 0.18622(14)
O4 O 0.1113(3) 0.9493(2) 0.35526(13)
O5 O 0.2539(3) 0.3416(2) 0.14648(16)
O6 O 0.2890(3) 0.4682(2) -0.02235(17)
N1 N 0.2372(3) 0.4680(3) 0.0737(2)
N2 N 0.4441(3) 0.9365(3) 0.25929(16)
C1 C 0.0621(5) 0.6078(3) 0.2238(2)
C2 C 0.1512(4) 0.6302(3) 0.1065(2)
C3 C 0.2598(4) 0.7833(3) 0.0471(2)
H1 H 0.38060 0.76190 -0.00990
C4 C 0.2812(4) 0.9016(3) 0.1146(2)
H2 H 0.14530 0.93220 0.15740
H3 H 0.32720 1.00700 0.06740
C5 C 0.4348(4) 0.8230(3) 0.1899(2)
H4 H 0.57330 0.81200 0.14340
C6 C 0.3985(4) 0.6436(3) 0.2509(2)
H5 H 0.45810 0.56350 0.20290
H6 H 0.47310 0.61300 0.31240
C7 C 0.0550(4) 0.7663(3) 0.0254(2)
H7 H 0.05050 0.73880 -0.04400
H8 H -0.06530 0.84320 0.05240
C8 C 0.6174(4) 1.0176(3) 0.2506(2)
C9 C 0.5657(4) 1.1246(3) 0.3320(2)
C10 C 0.6844(4) 1.2188(3) 0.3631(2)
H9 H 0.82220 1.22930 0.32810
C11 C 0.5941(4) 1.2986(3) 0.4482(2)
H10 H 0.67240 1.36370 0.47240
C12 C 0.3930(4) 1.2846(3) 0.4979(2)
H11 H 0.33530 1.34060 0.55540
C13 C 0.2734(4) 1.1900(3) 0.4653(2)
H12 H 0.13450 1.18130 0.49890
C14 C 0.3633(4) 1.1097(3) 0.3831(2)
C15 C 0.2815(4) 0.9926(3) 0.3358(2)
#END
