
#######################################################################
#
#                 Cambridge Crystallographic Data Centre
#                                CCDC
#
#######################################################################
#
# If this CIF has been generated from an entry in the Cambridge
# Structural Database, then it will include bibliographic, chemical,
# crystal, experimental, refinement or atomic coordinate data resulting
# from the CCDC's data processing and validation procedures.
#
#######################################################################

data_CSD_CIF_WUWHUS
_audit_creation_date 2011-03-30
_audit_creation_method CSD-ConQuest-V1
_database_code_CSD WUWHUS
_database_code_depnum_ccdc_archive 'CCDC 783019'
_chemical_formula_sum 'C7 H10 N2 O4'
_chemical_formula_moiety
;
C7 H10 N2 O4
;
_journal_coden_Cambridge 1336
_journal_volume 12
_journal_year 2010
_journal_page_first 672
_journal_name_full 'Org.Lett. '
loop_
_publ_author_name
"S.F.Vanier"
"G.Larouche"
"R.P.Wurz"
"A.B.Charette"
_chemical_name_systematic
;
4-(Hydroxymethyl)-1-nitro-3-azabicyclo[4.1.0]heptan-2-one
;
_cell_volume   1668.568
_exptl_crystal_colour 'colorless'
_exptl_crystal_density_diffrn 1.482
_exptl_crystal_description 'Block'
_diffrn_ambient_temperature 150
#These two values have been output from a single CSD field.
_refine_ls_R_factor_gt 0.0374
_refine_ls_wR_factor_gt 0.0374
_symmetry_cell_setting monoclinic
_symmetry_space_group_name_H-M 'P 21/n'
_symmetry_Int_Tables_number 14
loop_
_symmetry_equiv_pos_site_id
_symmetry_equiv_pos_as_xyz
1 x,y,z
2 1/2-x,1/2+y,1/2-z
3 -x,-y,-z
4 -1/2+x,-1/2-y,-1/2+z
_cell_length_a 15.0235(6)
_cell_length_b 7.4290(3)
_cell_length_c 15.0658(5)
_cell_angle_alpha 90
_cell_angle_beta 97.107(2)
_cell_angle_gamma 90
_cell_formula_units_Z 8
loop_
_atom_type_symbol
_atom_type_radius_bond
C 0.68
H 0.23
N 0.68
O 0.68
loop_
_atom_site_label
_atom_site_type_symbol
_atom_site_fract_x
_atom_site_fract_y
_atom_site_fract_z
O1 O 0.92964(8) 0.96922(13) 0.80655(7)
O2 O 1.08418(9) 0.97910(17) 0.71184(10)
O3 O 1.01173(9) 1.11018(16) 0.59894(8)
O4 O 0.91615(7) 0.33119(12) 0.82015(7)
H1 H 0.92550 0.21980 0.81900
N1 N 0.87795(8) 0.69249(15) 0.76849(7)
H2 H 0.86330 0.67860 0.82290
N2 N 1.01854(9) 0.99592(16) 0.65650(8)
C1 C 0.91746(10) 0.84630(17) 0.75134(9)
C2 C 0.94566(10) 0.86336(17) 0.65974(9)
C3 C 0.87981(11) 0.8375(2) 0.57739(9)
H3 H 0.81720 0.80750 0.58570
H4 H 0.88630 0.91470 0.52500
C4 C 0.94986(10) 0.69773(19) 0.60199(9)
H5 H 1.00010 0.69470 0.56420
C5 C 0.92966(11) 0.52228(19) 0.64520(9)
H6 H 0.98480 0.47680 0.68090
H7 H 0.91050 0.43250 0.59810
C6 C 0.85633(10) 0.54338(18) 0.70563(9)
H8 H 0.79930 0.57390 0.66710
C7 C 0.84028(11) 0.37471(19) 0.75776(10)
H9 H 0.78750 0.39280 0.79010
H10 H 0.82700 0.27310 0.71570
O5 O 0.68817(8) 1.19622(13) 0.56242(7)
O6 O 0.84233(8) 1.24226(14) 0.47466(7)
O7 O 0.78134(9) 1.37572(16) 0.35523(7)
O8 O 0.69091(8) 0.57007(14) 0.52590(7)
H11 H 0.68920 0.46300 0.54360
N3 N 0.63536(8) 0.93202(16) 0.50384(8)
H12 H 0.61760 0.90520 0.55570
N4 N 0.78110(9) 1.26377(15) 0.41436(7)
C8 C 0.67632(10) 1.08989(17) 0.49867(9)
C9 C 0.70543(10) 1.13592(18) 0.41014(9)
C10 C 0.63836(12) 1.1341(2) 0.32753(10)
H13 H 0.57570 1.10110 0.33440
H14 H 0.64460 1.22660 0.28140
C11 C 0.70700(11) 0.9902(2) 0.33982(9)
H15 H 0.75640 1.00090 0.30130
C12 C 0.68845(11) 0.8025(2) 0.36959(10)
H16 H 0.74450 0.74990 0.40040
H17 H 0.66900 0.72750 0.31640
C13 C 0.61657(11) 0.79743(19) 0.43226(10)
H18 H 0.55760 0.82740 0.39700
C14 C 0.60883(12) 0.6139(2) 0.47452(10)
H19 H 0.56010 0.61520 0.51320
H20 H 0.59400 0.52220 0.42730
#END
