
#######################################################################
#
#                 Cambridge Crystallographic Data Centre
#                                CCDC
#
#######################################################################
#
# If this CIF has been generated from an entry in the Cambridge
# Structural Database, then it will include bibliographic, chemical,
# crystal, experimental, refinement or atomic coordinate data resulting
# from the CCDC's data processing and validation procedures.
#
#######################################################################

data_CSD_CIF_WUWHOM
_audit_creation_date 2011-03-30
_audit_creation_method CSD-ConQuest-V1
_database_code_CSD WUWHOM
_database_code_depnum_ccdc_archive 'CCDC 783018'
_chemical_formula_sum 'C15 H12 N2 O6'
_chemical_formula_moiety
;
C15 H12 N2 O6
;
_journal_coden_Cambridge 1336
_journal_volume 12
_journal_year 2010
_journal_page_first 672
_journal_name_full 'Org.Lett. '
loop_
_publ_author_name
"S.F.Vanier"
"G.Larouche"
"R.P.Wurz"
"A.B.Charette"
_chemical_name_systematic
;
2-(1-Nitro-2-oxo-3-oxabicyclo[5.1.0]oct-5-yl)-1H-isoindole-1,3(2H)-dione
;
_cell_volume   1368.206
_exptl_crystal_colour 'colorless'
_exptl_crystal_density_diffrn 1.535
_exptl_crystal_description 'needle'
_diffrn_ambient_temperature 203
#These two values have been output from a single CSD field.
_refine_ls_R_factor_gt 0.0455
_refine_ls_wR_factor_gt 0.0455
loop_
_citation_database_id_CSD
_citation_special_details
WUWHIG "is a stereoisomer of this entry"
_symmetry_cell_setting monoclinic
_symmetry_space_group_name_H-M 'P 21/c'
_symmetry_Int_Tables_number 14
loop_
_symmetry_equiv_pos_site_id
_symmetry_equiv_pos_as_xyz
1 x,y,z
2 -x,1/2+y,1/2-z
3 -x,-y,-z
4 x,-1/2-y,-1/2+z
_cell_length_a 14.9683(5)
_cell_length_b 11.3211(4)
_cell_length_c 8.1328(3)
_cell_angle_alpha 90
_cell_angle_beta 96.892(2)
_cell_angle_gamma 90
_cell_formula_units_Z 4
loop_
_atom_type_symbol
_atom_type_radius_bond
C 0.68
H 0.23
N 0.68
O 0.68
loop_
_atom_site_label
_atom_site_type_symbol
_atom_site_fract_x
_atom_site_fract_y
_atom_site_fract_z
O1 O 0.91457(10) 0.57094(14) 0.4556(2)
C1 C 0.94807(16) 0.5744(2) 0.3101(3)
O2 O 1.01979(12) 0.61982(16) 0.3015(2)
C2 C 0.89620(15) 0.51505(19) 0.1625(3)
C3 C 0.84719(16) 0.39775(19) 0.1713(3)
H1 H 0.79190 0.38800 0.09250
C4 C 0.84426(16) 0.34649(19) 0.3396(3)
H2 H 0.90600 0.33700 0.39340
H3 H 0.81700 0.26780 0.32790
C5 C 0.79152(15) 0.42120(19) 0.4513(3)
H4 H 0.80580 0.38990 0.56510
C6 C 0.81903(15) 0.55144(19) 0.4571(3)
H5 H 0.78640 0.59210 0.36170
H6 H 0.80060 0.58710 0.55750
C7 C 0.93352(16) 0.4029(2) 0.0965(3)
H7 H 0.93050 0.39420 -0.02400
H8 H 0.98710 0.36820 0.15940
N1 N 0.69297(12) 0.41406(15) 0.4105(2)
C8 C 0.63879(15) 0.47266(19) 0.2825(3)
O3 O 0.66536(11) 0.53746(15) 0.1804(2)
C9 C 0.54482(15) 0.4369(2) 0.2984(3)
C10 C 0.46498(16) 0.4736(2) 0.2099(3)
H9 H 0.46400 0.53220 0.12780
C11 C 0.38647(17) 0.4204(2) 0.2476(3)
H10 H 0.33100 0.44310 0.18960
C12 C 0.38826(17) 0.3342(2) 0.3691(4)
H11 H 0.33420 0.29820 0.39030
C13 C 0.46882(17) 0.3002(2) 0.4602(4)
H12 H 0.47030 0.24310 0.54440
C14 C 0.54616(15) 0.35356(19) 0.4219(3)
C15 C 0.64116(15) 0.33802(19) 0.4965(3)
O4 O 0.67082(11) 0.27486(16) 0.6093(2)
N2 N 0.85404(14) 0.5987(2) 0.0415(3)
O5 O 0.84286(15) 0.69919(18) 0.0938(3)
O6 O 0.82933(13) 0.5669(2) -0.0985(2)
#END
