
#######################################################################
#
#                 Cambridge Crystallographic Data Centre
#                                CCDC
#
#######################################################################
#
# If this CIF has been generated from an entry in the Cambridge
# Structural Database, then it will include bibliographic, chemical,
# crystal, experimental, refinement or atomic coordinate data resulting
# from the CCDC's data processing and validation procedures.
#
#######################################################################

data_CSD_CIF_WUWLIK
_audit_creation_date 2011-03-30
_audit_creation_method CSD-ConQuest-V1
_database_code_CSD WUWLIK
_database_code_depnum_ccdc_archive 'CCDC 783523'
_chemical_formula_sum 'C22 H23 N1 O3'
_chemical_formula_moiety
;
C22 H23 N1 O3
;
_journal_coden_Cambridge 1336
_journal_volume 12
_journal_year 2010
_journal_page_first 740
_journal_name_full 'Org.Lett. '
loop_
_publ_author_name
"A.J.Grenning"
"J.A.Tunge"
_chemical_name_systematic
;
Benzyl 6-nitro-6-(3-phenylprop-2-en-1-yl)cyclohex-2-en-1-yl ether
;
_cell_volume   1829.860
_exptl_crystal_colour 'colorless'
_exptl_crystal_density_diffrn 1.268
_exptl_crystal_description 'Triangular plate'
_diffrn_ambient_temperature 100
#These two values have been output from a single CSD field.
_refine_ls_R_factor_gt 0.0866
_refine_ls_wR_factor_gt 0.0866
_symmetry_cell_setting monoclinic
_symmetry_space_group_name_H-M 'P c'
_symmetry_Int_Tables_number 7
loop_
_symmetry_equiv_pos_site_id
_symmetry_equiv_pos_as_xyz
1 x,y,z
2 x,-y,1/2+z
_cell_length_a 5.857(3)
_cell_length_b 19.125(10)
_cell_length_c 16.336(9)
_cell_angle_alpha 90
_cell_angle_beta 90.26(1)
_cell_angle_gamma 90
_cell_formula_units_Z 4
loop_
_atom_type_symbol
_atom_type_radius_bond
C 0.68
H 0.23
N 0.68
O 0.68
loop_
_atom_site_label
_atom_site_type_symbol
_atom_site_fract_x
_atom_site_fract_y
_atom_site_fract_z
O1 O 0.2850(7) 0.1152(2) 0.4044(3)
O2 O 0.6443(7) 0.0106(2) 0.4801(3)
O3 O 0.3367(8) 0.0101(3) 0.5472(3)
N1 N 0.4365(10) 0.0049(3) 0.4834(3)
C1 C 0.145(1) 0.0544(3) 0.3931(4)
H1 H 0.02040 0.05440 0.43470
C2 C 0.0419(11) 0.0524(3) 0.3089(4)
H2 H -0.08700 0.08110 0.29770
C3 C 0.1242(12) 0.0116(3) 0.2481(4)
H3 H 0.04780 0.01210 0.19670
C4 C 0.3233(12) -0.0331(4) 0.2574(4)
H4 H 0.42220 -0.02770 0.20880
H5 H 0.27310 -0.08250 0.25970
C5 C 0.4611(10) -0.0161(3) 0.3341(3)
H6 H 0.54590 0.02810 0.32640
H7 H 0.57290 -0.05390 0.34510
C6 C 0.2968(9) -0.0092(3) 0.4063(3)
C7 C 0.1662(10) -0.0760(3) 0.4235(4)
H8 H 0.07100 -0.06870 0.47270
H9 H 0.06200 -0.08530 0.37690
C8 C 0.3107(10) -0.1381(3) 0.4367(3)
H10 H 0.42380 -0.13520 0.47840
C9 C 0.2967(11) -0.1979(3) 0.3953(3)
H11 H 0.17360 -0.20260 0.35760
C10 C 0.4537(10) -0.2572(3) 0.4025(3)
C11 C 0.4092(10) -0.3183(3) 0.3577(4)
H12 H 0.27370 -0.32190 0.32580
C12 C 0.5656(11) -0.3747(3) 0.3598(4)
H13 H 0.53410 -0.41580 0.32910
C13 C 0.7583(12) -0.3708(3) 0.4047(4)
H14 H 0.86450 -0.40830 0.40470
C14 C 0.8007(14) -0.3111(3) 0.4513(4)
H15 H 0.93390 -0.30890 0.48460
C15 C 0.6538(12) -0.2557(4) 0.4499(4)
H16 H 0.68780 -0.21540 0.48160
C16 C 0.1658(11) 0.1793(3) 0.3987(4)
H17 H 0.04110 0.18010 0.43930
H18 H 0.09690 0.18380 0.34350
C17 C 0.3237(10) 0.2393(3) 0.4139(3)
C18 C 0.5283(11) 0.2318(3) 0.4541(3)
H19 H 0.57520 0.18690 0.47250
C19 C 0.6670(11) 0.2892(4) 0.4680(4)
H20 H 0.80520 0.28420 0.49810
C20 C 0.6030(11) 0.3543(3) 0.4379(4)
H21 H 0.69940 0.39370 0.44600
C21 C 0.3979(12) 0.3617(3) 0.3960(4)
H22 H 0.35280 0.40590 0.37490
C22 C 0.2612(11) 0.3041(3) 0.3854(4)
H23 H 0.11940 0.30920 0.35750
O4 O 0.0139(7) 0.3584(2) 0.1516(3)
O5 O -0.3278(7) 0.4734(2) 0.2265(3)
O6 O -0.0347(8) 0.4514(3) 0.3008(3)
N2 N -0.1244(9) 0.4684(3) 0.2357(3)
C23 C 0.1741(9) 0.4136(3) 0.1506(4)
H24 H 0.28680 0.40750 0.19620
C24 C 0.2979(11) 0.4190(3) 0.0699(4)
H25 H 0.42260 0.38830 0.06070
C25 C 0.2436(11) 0.4639(3) 0.0111(4)
H26 H 0.33170 0.46310 -0.03750
C26 C 0.0549(11) 0.5151(3) 0.0163(4)
H27 H -0.03230 0.51470 -0.03580
H28 H 0.11930 0.56250 0.02380
C27 C -0.1074(10) 0.4988(3) 0.0873(3)
H29 H -0.20900 0.53930 0.09730
H30 H -0.20340 0.45790 0.07350
C28 C 0.0342(10) 0.4835(3) 0.1636(4)
C29 C 0.1874(11) 0.5410(3) 0.1907(4)
H31 H 0.31680 0.54470 0.15220
H32 H 0.25040 0.52950 0.24540
C30 C 0.064(1) 0.6121(3) 0.1951(3)
H33 H -0.07180 0.61370 0.22670
C31 C 0.1257(10) 0.6696(3) 0.1605(3)
H34 H 0.26110 0.66740 0.12880
C32 C 0.0152(10) 0.7368(3) 0.1640(4)
C33 C 0.1032(12) 0.7938(3) 0.1198(4)
H35 H 0.23950 0.78760 0.08940
C34 C 0.0004(16) 0.8574(4) 0.1192(5)
H36 H 0.07120 0.89530 0.09170
C35 C -0.2012(15) 0.8673(4) 0.1572(5)
H37 H -0.27930 0.91060 0.15200
C36 C -0.2934(13) 0.8140(3) 0.2037(5)
H38 H -0.42820 0.82180 0.23450
C37 C -0.1878(11) 0.7495(3) 0.2050(4)
H39 H -0.25640 0.71260 0.23490
C38 C 0.1166(11) 0.2914(3) 0.1580(4)
H40 H 0.21540 0.28980 0.20730
H41 H 0.21370 0.28280 0.10950
C39 C -0.0593(10) 0.2360(3) 0.1635(3)
C40 C -0.2447(10) 0.2423(4) 0.2149(4)
H42 H -0.25970 0.28280 0.24810
C41 C -0.4064(11) 0.1912(3) 0.2187(4)
H43 H -0.53160 0.19690 0.25490
C42 C -0.3939(11) 0.1318(4) 0.1718(4)
H44 H -0.51010 0.09720 0.17410
C43 C -0.2100(11) 0.1239(3) 0.1218(4)
H45 H -0.19670 0.08280 0.08950
C44 C -0.0414(12) 0.1750(3) 0.1173(4)
H46 H 0.08650 0.16830 0.08260
#END
