
#######################################################################
#
#                 Cambridge Crystallographic Data Centre
#                                CCDC
#
#######################################################################
#
# If this CIF has been generated from an entry in the Cambridge
# Structural Database, then it will include bibliographic, chemical,
# crystal, experimental, refinement or atomic coordinate data resulting
# from the CCDC's data processing and validation procedures.
#
#######################################################################

data_CSD_CIF_WUXFAX
_audit_creation_date 2010-11-04
_audit_creation_method CSD-ConQuest-V1
_database_code_CSD WUXFAX
_database_code_depnum_ccdc_archive 'CCDC 735818'
_chemical_formula_sum 'C15 H12 N2 O5'
_chemical_formula_moiety
;
C15 H12 N2 O5
;
_journal_coden_Cambridge 1147
_journal_volume 10
_journal_year 2010
_journal_page_first 2298
_journal_name_full 'Cryst.Growth Des. '
loop_
_publ_author_name
"S.Varughese"
"S.M.Draper"
_chemical_name_systematic
;
1,3-bis(4-nitrophenyl)acetone
;
_cell_volume   2837.617
_exptl_crystal_colour 'colorless'
_exptl_crystal_density_diffrn 1.406
_exptl_crystal_description 'acicular'
_diffrn_ambient_temperature 123
#These two values have been output from a single CSD field.
_refine_ls_R_factor_gt 0.0531
_refine_ls_wR_factor_gt 0.0531
_symmetry_cell_setting monoclinic
_symmetry_space_group_name_H-M 'P 2/c'
_symmetry_Int_Tables_number 13
loop_
_symmetry_equiv_pos_site_id
_symmetry_equiv_pos_as_xyz
1 x,y,z
2 -x,y,1/2-z
3 -x,-y,-z
4 x,-y,-1/2+z
_cell_length_a 23.489(5)
_cell_length_b 4.679(1)
_cell_length_c 34.741(5)
_cell_angle_alpha 90
_cell_angle_beta 131.997(9)
_cell_angle_gamma 90
_cell_formula_units_Z 8
loop_
_atom_type_symbol
_atom_type_radius_bond
C 0.68
H 0.23
N 0.68
O 0.68
loop_
_atom_site_label
_atom_site_type_symbol
_atom_site_fract_x
_atom_site_fract_y
_atom_site_fract_z
O1 O 0.78273(14) 0.2538(4) 0.52044(7)
O2 O 0.70302(17) 0.7095(6) 0.31154(10)
O3 O 0.58444(17) 0.6642(8) 0.26866(11)
O4 O 0.81888(16) 0.7544(5) 0.71350(9)
O5 O 0.93411(16) 0.6100(7) 0.75755(10)
N1 N 0.65071(18) 0.6107(6) 0.30581(10)
N2 N 0.86590(18) 0.6030(6) 0.7191(1)
C1 C 0.75454(15) 0.0194(5) 0.51192(9)
C2 C 0.71603(16) -0.1347(6) 0.46164(10)
H1 H 0.74940 -0.29350 0.46820
H2 H 0.66750 -0.21910 0.44910
C3 C 0.76063(16) -0.1396(6) 0.55202(10)
H3 H 0.79570 -0.30370 0.56440
H4 H 0.70960 -0.21640 0.53570
C4 C 0.69897(15) 0.0530(5) 0.42012(9)
C5 C 0.75735(15) 0.1635(6) 0.42418(10)
H5 H 0.80890 0.11210 0.45290
C6 C 0.74217(16) 0.3471(6) 0.38721(10)
H6 H 0.78270 0.42540 0.39070
C7 C 0.66751(16) 0.4145(6) 0.34541(10)
C8 C 0.60800(16) 0.3081(7) 0.33962(10)
H7 H 0.55650 0.35600 0.31020
C9 C 0.62458(15) 0.1298(7) 0.37744(10)
H8 H 0.58380 0.05710 0.37420
C10 C 0.78927(15) 0.0417(5) 0.59765(9)
C11 C 0.73822(15) 0.1718(6) 0.59919(10)
H9 H 0.68500 0.13520 0.57240
C12 C 0.76311(16) 0.3540(6) 0.63899(11)
H10 H 0.72740 0.44430 0.63950
C13 C 0.83978(16) 0.4030(6) 0.67757(10)
C14 C 0.89211(16) 0.2747(6) 0.67766(11)
H11 H 0.94540 0.30930 0.70490
C15 C 0.86603(15) 0.0942(6) 0.63739(10)
H12 H 0.90200 0.00380 0.63710
O6 O 0.76107(10) 0.2502(4) 0.74318(7)
O7 O 1.08353(14) 0.6464(7) 0.99702(10)
O8 O 1.09322(13) 0.7566(5) 0.94184(10)
O9 O 0.43099(15) 0.3790(9) 0.48994(12)
O10 O 0.40942(16) 0.6443(8) 0.53017(12)
N3 N 1.06377(14) 0.6226(6) 0.95468(11)
N4 N 0.44450(15) 0.4563(9) 0.52883(13)
C16 C 0.75183(13) 0.0234(5) 0.75457(9)
C17 C 0.67724(14) -0.1370(6) 0.71837(10)
H13 H 0.68680 -0.32460 0.71040
H14 H 0.65840 -0.17330 0.73630
C18 C 0.81460(14) -0.1246(5) 0.80524(9)
H15 H 0.79270 -0.20050 0.81960
H16 H 0.83320 -0.28920 0.79840
C19 C 0.88162(13) 0.0633(5) 0.84524(9)
C20 C 0.92785(15) 0.1733(6) 0.83753(10)
H17 H 0.91850 0.12170 0.80730
C21 C 0.98740(15) 0.3568(6) 0.87291(11)
H18 H 1.01830 0.43450 0.86700
C22 C 1.00090(14) 0.4243(6) 0.91676(10)
C23 C 0.95770(16) 0.3152(7) 0.92644(10)
H19 H 0.96880 0.36100 0.95750
C24 C 0.89744(15) 0.1368(6) 0.89004(10)
H20 H 0.86620 0.06310 0.89590
C25 C 0.61596(14) 0.0157(6) 0.66845(9)
C26 C 0.56568(15) 0.1971(6) 0.66414(10)
H21 H 0.56930 0.22150 0.69290
C27 C 0.51019(15) 0.3436(7) 0.61883(12)
H22 H 0.47630 0.47000 0.61640
C28 C 0.50469(15) 0.3046(7) 0.57766(11)
C29 C 0.55308(16) 0.1266(8) 0.58006(11)
H23 H 0.54820 0.10030 0.55080
C30 C 0.60952(15) -0.0148(7) 0.62623(11)
H24 H 0.64450 -0.13540 0.62880
#END
