
#######################################################################
#
#                 Cambridge Crystallographic Data Centre
#                                CCDC
#
#######################################################################
#
# If this CIF has been generated from an entry in the Cambridge
# Structural Database, then it will include bibliographic, chemical,
# crystal, experimental, refinement or atomic coordinate data resulting
# from the CCDC's data processing and validation procedures.
#
#######################################################################

data_CSD_CIF_WUXHUS
_audit_creation_date 2003-05-15
_audit_creation_method CSD-ConQuest-V1
_database_code_CSD WUXHUS
_database_code_depnum_ccdc_archive 'CCDC 208025'
_chemical_formula_sum 'C8 H5 N1 O6'
_chemical_formula_moiety
;
C8 H5 N1 O6
;
_journal_coeditor_code "IUCr SK1616"
_journal_coden_Cambridge 591
_journal_volume 59
_journal_year 2003
_journal_page_first o144
_journal_name_full 'Acta Crystallogr.,Sect.C:Cryst.Struct.Commun. '
loop_
_publ_author_name
"C.Glidewell"
"J.N.Low"
"J.M.S.Skakle"
"J.L.Wardell"
_chemical_name_systematic
;
3-Nitrophthalic acid
;
_cell_volume    806.174
_exptl_crystal_colour 'brown'
_exptl_crystal_density_diffrn 1.74
_exptl_crystal_description 'block'
_exptl_crystal_preparation 'ethanol'
_diffrn_ambient_temperature 120
#These two values have been output from a single CSD field.
_refine_ls_R_factor_gt 0.0338
_refine_ls_wR_factor_gt 0.0338
_symmetry_cell_setting monoclinic
_symmetry_space_group_name_H-M 'P 21/n'
_symmetry_Int_Tables_number 14
loop_
_symmetry_equiv_pos_site_id
_symmetry_equiv_pos_as_xyz
1 x,y,z
2 1/2+x,1/2-y,1/2+z
3 -x,-y,-z
4 -1/2-x,-1/2+y,-1/2-z
_cell_length_a 9.4972(2)
_cell_length_b 6.9014(2)
_cell_length_c 12.3077(3)
_cell_angle_alpha 90
_cell_angle_beta 92.0599(11)
_cell_angle_gamma 90
_cell_formula_units_Z 4
loop_
_atom_type_symbol
_atom_type_radius_bond
C 0.68
H 0.23
N 0.68
O 0.68
loop_
_atom_site_label
_atom_site_type_symbol
_atom_site_fract_x
_atom_site_fract_y
_atom_site_fract_z
C1 C 0.31621(12) 0.42340(17) 0.52082(10)
C2 C 0.21751(12) 0.46514(16) 0.43625(9)
C3 C 0.13797(12) 0.63375(17) 0.44588(9)
C4 C 0.15784(13) 0.76347(17) 0.53133(10)
C5 C 0.25745(13) 0.72129(19) 0.61288(10)
C6 C 0.33469(13) 0.55049(19) 0.60876(10)
C7 C 0.40129(13) 0.24112(18) 0.5158(1)
O1 O 0.39628(10) 0.13587(13) 0.43643(7)
O2 O 0.48057(11) 0.20781(14) 0.60382(8)
C8 C 0.20877(12) 0.33648(16) 0.33651(9)
O3 O 0.27612(9) 0.37307(12) 0.25687(7)
O4 O 0.12760(9) 0.18427(12) 0.34762(7)
N1 N 0.02428(10) 0.67570(14) 0.36443(8)
O5 O -0.04206(9) 0.82741(13) 0.37272(8)
O6 O -0.00067(10) 0.55423(13) 0.29332(7)
H1 H 0.10400 0.87930 0.53380
H2 H 0.27300 0.80900 0.67160
H3 H 0.40050 0.51980 0.66610
H4 H 0.52220 0.10130 0.59750
H5 H 0.14480 0.10260 0.29930
#END
