
#######################################################################
#
#                 Cambridge Crystallographic Data Centre
#                                CCDC
#
#######################################################################
#
# If this CIF has been generated from an entry in the Cambridge
# Structural Database, then it will include bibliographic, chemical,
# crystal, experimental, refinement or atomic coordinate data resulting
# from the CCDC's data processing and validation procedures.
#
#######################################################################

data_CSD_CIF_WUXHAY
_audit_creation_date 2003-05-15
_audit_creation_method CSD-ConQuest-V1
_database_code_CSD WUXHAY
_database_code_depnum_ccdc_archive 'CCDC 208021'
_chemical_formula_sum 'C13 H10 N4 O4'
_chemical_formula_moiety
;
C13 H10 N4 O4
;
_journal_coeditor_code "IUCr FR1407"
_journal_coden_Cambridge 591
_journal_volume 59
_journal_year 2003
_journal_page_first o135
_journal_name_full 'Acta Crystallogr.,Sect.C:Cryst.Struct.Commun. '
loop_
_publ_author_name
"Shang Shan"
"Duan-Jun Xu"
"Chen-Hsiung Hung"
"Jing-Yun Wu"
"M.Y.Chiang"
_chemical_name_systematic
;
1-Benzylidene-2-(2,4-dinitrophenyl)hydrazone
;
_cell_volume   1298.603
_exptl_crystal_colour 'orange'
_exptl_crystal_density_diffrn 1.464
_exptl_crystal_description 'prism'
_exptl_crystal_preparation 'chloroform/acetone'
_diffrn_ambient_temperature 298
#These two values have been output from a single CSD field.
_refine_ls_R_factor_gt 0.04
_refine_ls_wR_factor_gt 0.04
_symmetry_cell_setting monoclinic
_symmetry_space_group_name_H-M 'P 21/c'
_symmetry_Int_Tables_number 14
loop_
_symmetry_equiv_pos_site_id
_symmetry_equiv_pos_as_xyz
1 x,y,z
2 -x,1/2+y,1/2-z
3 -x,-y,-z
4 x,-1/2-y,-1/2+z
_cell_length_a 13.290(3)
_cell_length_b 6.825(3)
_cell_length_c 14.3316(18)
_cell_angle_alpha 90
_cell_angle_beta 92.596(15)
_cell_angle_gamma 90
_cell_formula_units_Z 4
loop_
_atom_type_symbol
_atom_type_radius_bond
C 0.68
H 0.23
N 0.68
O 0.68
loop_
_atom_site_label
_atom_site_type_symbol
_atom_site_fract_x
_atom_site_fract_y
_atom_site_fract_z
O1 O 1.01944(13) 0.1347(4) 0.25135(15)
O2 O 1.03126(14) 0.1295(4) 0.39982(15)
O3 O 0.74168(12) 0.0892(3) 0.57597(9)
O4 O 0.59199(10) 0.0913(2) 0.51373(10)
N1 N 0.98211(15) 0.1281(4) 0.32660(17)
N2 N 0.68439(12) 0.0935(3) 0.50696(10)
N3 N 0.56126(12) 0.0945(2) 0.33133(11)
H1 H 0.53010 0.08560 0.38240
N4 N 0.50861(12) 0.0994(2) 0.24659(11)
C1 C 0.66282(13) 0.1039(3) 0.33295(13)
C2 C 0.72528(14) 0.1011(3) 0.41597(12)
C3 C 0.82919(14) 0.1075(3) 0.41344(14)
H2 H 0.86880 0.10410 0.46860
C4 C 0.87289(15) 0.1188(3) 0.32939(15)
C5 C 0.81507(15) 0.1264(3) 0.24646(14)
H3 H 0.84600 0.13620 0.18970
C6 C 0.71319(15) 0.1193(3) 0.24841(14)
H4 H 0.67520 0.12470 0.19230
C7 C 0.41286(14) 0.0933(3) 0.24870(13)
H5 H 0.38260 0.08490 0.30580
C8 C 0.35017(14) 0.0992(3) 0.16234(13)
C9 C 0.24624(15) 0.1026(3) 0.16693(15)
H6 H 0.21710 0.09950 0.22470
C10 C 0.18576(17) 0.1104(3) 0.08584(17)
H7 H 0.11600 0.11250 0.08910
C11 C 0.22892(19) 0.1150(3) 0.00054(17)
H8 H 0.18820 0.12080 -0.05390
C12 C 0.33218(18) 0.1110(3) -0.00477(15)
H9 H 0.36090 0.11320 -0.06270
C13 C 0.39282(15) 0.1038(3) 0.07551(14)
H10 H 0.46250 0.10200 0.07170
#END
