
#######################################################################
#
#                 Cambridge Crystallographic Data Centre
#                                CCDC
#
#######################################################################
#
# If this CIF has been generated from an entry in the Cambridge
# Structural Database, then it will include bibliographic, chemical,
# crystal, experimental, refinement or atomic coordinate data resulting
# from the CCDC's data processing and validation procedures.
#
#######################################################################

data_CSD_CIF_WUXJOO
_audit_creation_date 2003-05-15
_audit_creation_method CSD-ConQuest-V1
_database_code_CSD WUXJOO
_database_code_depnum_ccdc_archive 'CCDC 208029'
_chemical_formula_sum 'C15 H10 N4 O9'
_chemical_formula_moiety
;
C15 H10 N4 O9
;
_journal_coeditor_code "IUCr NA1588"
_journal_coden_Cambridge 591
_journal_volume 59
_journal_year 2003
_journal_page_first o156
_journal_name_full 'Acta Crystallogr.,Sect.C:Cryst.Struct.Commun. '
loop_
_publ_author_name
"K.SethuSankar"
"S.Saravanan"
"D.Velmurugan"
"M.Parvez"
_chemical_name_systematic
;
4'-Methoxy-\a,2,3'4-tetranitrostilbene
;
_cell_volume   1704.714
_exptl_crystal_colour 'colorless'
_exptl_crystal_density_diffrn 1.521
_exptl_crystal_description 'block'
_exptl_crystal_preparation 'acetone'
_diffrn_ambient_temperature 293
#These two values have been output from a single CSD field.
_refine_ls_R_factor_gt 0.0509
_refine_ls_wR_factor_gt 0.0509
_symmetry_cell_setting monoclinic
_symmetry_space_group_name_H-M 'P 21/c'
_symmetry_Int_Tables_number 14
loop_
_symmetry_equiv_pos_site_id
_symmetry_equiv_pos_as_xyz
1 x,y,z
2 x,1/2-y,1/2+z
3 -x,-y,-z
4 -x,-1/2+y,-1/2-z
_cell_length_a 7.096(4)
_cell_length_b 8.550(3)
_cell_length_c 28.101(5)
_cell_angle_alpha 90
_cell_angle_beta 90.87(3)
_cell_angle_gamma 90
_cell_formula_units_Z 4
loop_
_atom_type_symbol
_atom_type_radius_bond
C 0.68
H 0.23
N 0.68
O 0.68
loop_
_atom_site_label
_atom_site_type_symbol
_atom_site_fract_x
_atom_site_fract_y
_atom_site_fract_z
O1 O 0.1874(2) 0.1860(2) 0.52822(6)
O2 O 0.4469(3) 0.2238(2) 0.56743(5)
O3 O 1.1528(3) -0.0702(3) 0.34689(7)
O4 O 1.2314(2) 0.0131(3) 0.41697(7)
O5 O 1.1444(3) 0.2907(3) 0.32908(8)
O6 O 1.1386(3) 0.2623(3) 0.25500(8)
O7 O 0.3657(4) -0.0256(3) 0.21271(7)
O8 O 0.5474(4) 0.1373(2) 0.17860(5)
O9 O 0.1993(2) 0.43552(17) 0.46735(5)
N1 N 0.3538(3) 0.22431(18) 0.53070(5)
N2 N 1.1235(2) 0.0062(2) 0.38283(7)
N3 N 1.0710(3) 0.2431(2) 0.29384(7)
N4 N 0.5007(4) 0.0607(2) 0.21280(6)
C1 C 0.6226(2) 0.19939(19) 0.47871(5)
H1 H 0.67850 0.13530 0.50160
C2 C 0.4501(2) 0.26703(19) 0.48702(5)
C3 C 0.3652(2) 0.37135(19) 0.45504(6)
C4 C 0.4622(3) 0.4054(2) 0.41373(6)
H2 H 0.41270 0.47790 0.39230
C5 C 0.6306(2) 0.3332(2) 0.40424(6)
H3 H 0.69090 0.35570 0.37590
C6 C 0.7133(2) 0.22707(19) 0.43592(5)
C7 C 0.8888(2) 0.1438(2) 0.42611(6)
H4 H 0.96960 0.12520 0.45190
C8 C 0.9433(2) 0.0922(2) 0.38397(6)
C9 C 0.8334(2) 0.09022(18) 0.33887(6)
C10 C 0.6604(2) 0.0123(2) 0.33830(6)
H5 H 0.61830 -0.03450 0.36610
C11 C 0.5508(3) 0.0032(2) 0.29757(6)
H6 H 0.43550 -0.04840 0.29770
C12 C 0.6152(3) 0.0721(2) 0.25666(6)
C13 C 0.7851(3) 0.1492(2) 0.25508(6)
H7 H 0.82680 0.19410 0.22700
C14 C 0.8908(3) 0.15779(19) 0.29608(6)
C15 C 0.1127(3) 0.5435(3) 0.43490(9)
H8 H 0.19390 0.63210 0.43080
H9 H -0.00550 0.57770 0.44740
H10 H 0.09160 0.49310 0.40470
#END
