
#######################################################################
#
#                 Cambridge Crystallographic Data Centre
#                                CCDC
#
#######################################################################
#
# If this CIF has been generated from an entry in the Cambridge
# Structural Database, then it will include bibliographic, chemical,
# crystal, experimental, refinement or atomic coordinate data resulting
# from the CCDC's data processing and validation procedures.
#
#######################################################################

data_CSD_CIF_WUYLUZ
_audit_creation_date 2015-10-16
_audit_creation_method CSD-ConQuest-V1
_database_code_CSD WUYLUZ
_database_code_depnum_ccdc_archive 'CCDC 949225'
_chemical_formula_sum 'C13 H14 N4 O2'
_chemical_formula_moiety
;
C13 H14 N4 O2
;
_journal_coden_Cambridge 34
_journal_volume 52
_journal_year 2015
_journal_page_first 1373
_journal_name_full 'J.Heterocycl.Chem. '
loop_
_publ_author_name
"W.Hamri"
"O.O.Shyshkina"
"T.M.Tarasiuk"
"T.A.Volovnenko"
"K.Mesbah"
"S.Rhouati"
"Y.M.Volovenko"
"V.V.Medviediev"
"O.V.Shishkin"
_chemical_name_systematic
;
3-amino-7-nitro-2-propyl-1,2-dihydroisoquinoline-4-carbonitrile
;
_cell_volume   1243.716
_exptl_crystal_density_diffrn 1.379
_diffrn_ambient_temperature 120
#These two values have been output from a single CSD field.
_refine_ls_R_factor_gt 0.0668
_refine_ls_wR_factor_gt 0.0668
_symmetry_cell_setting monoclinic
_symmetry_space_group_name_H-M 'P 21/c'
_symmetry_Int_Tables_number 14
loop_
_symmetry_equiv_pos_site_id
_symmetry_equiv_pos_as_xyz
1 x,y,z
2 -x,1/2+y,1/2-z
3 -x,-y,-z
4 x,-1/2-y,-1/2+z
_cell_length_a 12.516(6)
_cell_length_b 11.560(5)
_cell_length_c 8.620(4)
_cell_angle_alpha 90
_cell_angle_beta 94.274(8)
_cell_angle_gamma 90
_cell_formula_units_Z 4
loop_
_atom_type_symbol
_atom_type_radius_bond
C 0.68
H 0.23
N 0.68
O 0.68
loop_
_atom_site_label
_atom_site_type_symbol
_atom_site_fract_x
_atom_site_fract_y
_atom_site_fract_z
O1 O 0.57760(18) 0.2450(2) 0.2046(3)
O2 O 0.5649(2) 0.4259(2) 0.2534(4)
N1 N 0.5341(2) 0.3265(2) 0.2643(4)
N2 N 0.0469(2) 0.3925(2) 0.6861(4)
N3 N 0.0810(2) 0.0994(2) 0.7497(3)
H1 H 0.054(2) 0.0321(11) 0.764(4)
H2 H 0.045(2) 0.1559(15) 0.785(4)
N4 N 0.2159(2) 0.0359(2) 0.6017(3)
C1 C 0.4434(2) 0.3054(3) 0.3552(4)
C2 C 0.3899(3) 0.3971(3) 0.4160(4)
H3 H 0.41360 0.47410 0.40120
C3 C 0.3019(2) 0.3762(3) 0.4984(4)
H4 H 0.26580 0.43900 0.54260
C4 C 0.2654(2) 0.2632(2) 0.5175(4)
C5 C 0.3221(2) 0.1713(3) 0.4563(4)
C6 C 0.4116(2) 0.1926(3) 0.3753(4)
H5 H 0.45030 0.13040 0.33420
C7 C 0.2776(3) 0.0521(3) 0.4662(4)
H6 H 0.23100 0.03600 0.37080
H7 H 0.33730 -0.00420 0.47080
C8 C 0.1726(2) 0.2355(3) 0.5993(4)
C9 C 0.1044(3) 0.3231(3) 0.6480(4)
C10 C 0.1549(2) 0.1216(3) 0.6483(4)
C11 C 0.2117(3) -0.0830(3) 0.6589(4)
H8 H 0.18070 -0.08240 0.76130
H9 H 0.28570 -0.11320 0.67500
C12 C 0.1473(3) -0.1639(3) 0.5526(4)
H10 H 0.07050 -0.14330 0.55280
H11 H 0.16890 -0.15380 0.44520
C13 C 0.1615(3) -0.2881(3) 0.5988(5)
H12 H 0.11580 -0.33670 0.52840
H13 H 0.14150 -0.29840 0.70570
H14 H 0.23660 -0.31040 0.59250
#END
