
#######################################################################
#
#                 Cambridge Crystallographic Data Centre
#                                CCDC
#
#######################################################################
#
# If this CIF has been generated from an entry in the Cambridge
# Structural Database, then it will include bibliographic, chemical,
# crystal, experimental, refinement or atomic coordinate data resulting
# from the CCDC's data processing and validation procedures.
#
#######################################################################

data_CSD_CIF_XABCUZ
_audit_creation_date 2003-07-04
_audit_creation_method CSD-ConQuest-V1
_database_code_CSD XABCUZ
_database_code_depnum_ccdc_archive 'CCDC 196737'
_chemical_formula_sum 'C13 H16 N2 O3'
_chemical_formula_moiety
;
C13 H16 N2 O3
;
_journal_coden_Cambridge 1220
_journal_volume 9
_journal_year 2003
_journal_page_first 963
_journal_name_full 'Chem.-Eur.J. '
loop_
_publ_author_name
"P.M.Dominiak"
"E.Grech"
"G.Barr"
"S.Teat"
"P.Mallinson"
"K.Wozniak"
_chemical_name_systematic
;
3-Nitro-N-salicylidenocyclohexylamine
;
_cell_volume    610.592
_exptl_crystal_colour 'yellow'
_exptl_crystal_density_diffrn 1.35
_exptl_crystal_description 'prism'
_exptl_crystal_preparation 'acetonitrile'
_diffrn_ambient_temperature 100
_diffrn_radiation_probe x-ray
_diffrn_source synchrotron
#These two values have been output from a single CSD field.
_refine_ls_R_factor_gt 0.0351
_refine_ls_wR_factor_gt 0.0351
_symmetry_cell_setting triclinic
_symmetry_space_group_name_H-M 'P -1'
_symmetry_Int_Tables_number 2
loop_
_symmetry_equiv_pos_site_id
_symmetry_equiv_pos_as_xyz
1 x,y,z
2 -x,-y,-z
_cell_length_a 6.2451
_cell_length_b 10.0966
_cell_length_c 10.8726
_cell_angle_alpha 67.227
_cell_angle_beta 83.455
_cell_angle_gamma 75.03
_cell_formula_units_Z 2
loop_
_atom_type_symbol
_atom_type_radius_bond
C 0.68
H 0.23
N 0.68
O 0.68
loop_
_atom_site_label
_atom_site_type_symbol
_atom_site_fract_x
_atom_site_fract_y
_atom_site_fract_z
O1 O -0.07630(6) 0.16239(4) -0.04325(4)
O2 O 0.38313(7) 0.68094(4) -0.16832(4)
O3 O 0.08220(7) 0.79733(4) -0.28306(5)
N1 N 0.27596(6) 0.03192(4) 0.11391(4)
N2 N 0.20432(6) 0.68306(4) -0.20900(4)
C1 C 0.19280(6) 0.28690(4) -0.03363(4)
C2 C -0.00984(7) 0.28039(5) -0.08270(4)
C3 C -0.13255(7) 0.41730(5) -0.17781(4)
C4 C -0.06250(7) 0.54569(5) -0.21890(4)
C5 C 0.13666(6) 0.54631(4) -0.16863(4)
C6 C 0.26196(6) 0.41946(4) -0.07719(4)
C7 C 0.32246(6) 0.16064(4) 0.06614(4)
C8 C 0.39034(6) -0.09923(4) 0.22368(4)
C9 C 0.57605(7) -0.07211(5) 0.28381(5)
C10 C 0.67980(8) -0.21282(6) 0.40054(5)
C11 C 0.50628(8) -0.26931(6) 0.50554(4)
C12 C 0.32196(7) -0.29470(5) 0.44280(4)
C13 C 0.21549(6) -0.15363(4) 0.32873(4)
H1 H -0.28612 0.41801 -0.21503
H2 H -0.15360 0.64786 -0.29013
H3 H 0.40637 0.42538 -0.03533
H4 H 0.46349 0.17377 0.10634
H5 H 0.45881 -0.18014 0.17763
H6 H 0.50488 0.01390 0.31945
H7 H 0.69845 -0.03882 0.20528
H8 H 0.80267 -0.18664 0.44551
H9 H 0.76729 -0.29684 0.36128
H10 H 0.58178 -0.36959 0.58716
H11 H 0.43669 -0.19101 0.55422
H12 H 0.39428 -0.38324 0.40614
H13 H 0.19873 -0.33217 0.51930
H14 H 0.13449 -0.06970 0.36946
H15 H 0.09353 -0.17779 0.28132
H16 H 0.14555 0.02151 0.07099
#END
