
#######################################################################
#
#                 Cambridge Crystallographic Data Centre
#                                CCDC
#
#######################################################################
#
# If this CIF has been generated from an entry in the Cambridge
# Structural Database, then it will include bibliographic, chemical,
# crystal, experimental, refinement or atomic coordinate data resulting
# from the CCDC's data processing and validation procedures.
#
#######################################################################

data_CSD_CIF_XABCUB
_audit_creation_date 2016-01-13
_audit_creation_method CSD-ConQuest-V1
_database_code_CSD XABCUB
_database_code_depnum_ccdc_archive 'CCDC 1447110'
_chemical_formula_sum 'C12 H6 N8 O20'
_chemical_formula_moiety
;
C12 H6 N8 O20
;
_journal_coden_Cambridge 1078
_journal_year 2016
_journal_name_full 'CSD Communication(Private Communication) '
loop_
_publ_author_name
"Xu Zhen"
_chemical_name_systematic
;
bis(2,2,2-trinitroethyl) 2,5-dinitroterephthalate
;
_cell_volume   1071.637
_exptl_crystal_density_diffrn 1.804
_exptl_crystal_description 'sheet'
_diffrn_ambient_temperature 173
#These two values have been output from a single CSD field.
_refine_ls_R_factor_gt 0.0426
_refine_ls_wR_factor_gt 0.0426
_symmetry_cell_setting monoclinic
_symmetry_space_group_name_H-M 'P 21/c'
_symmetry_Int_Tables_number 14
loop_
_symmetry_equiv_pos_site_id
_symmetry_equiv_pos_as_xyz
1 x,y,z
2 -x,1/2+y,1/2-z
3 -x,-y,-z
4 x,-1/2-y,-1/2+z
_cell_length_a 12.9246(18)
_cell_length_b 10.0302(15)
_cell_length_c 8.6402(12)
_cell_angle_alpha 90
_cell_angle_beta 106.913(3)
_cell_angle_gamma 90
_cell_formula_units_Z 2
loop_
_atom_type_symbol
_atom_type_radius_bond
C 0.68
H 0.23
N 0.68
O 0.68
loop_
_atom_site_label
_atom_site_type_symbol
_atom_site_fract_x
_atom_site_fract_y
_atom_site_fract_z
C1 C 0.5146(2) 0.4026(2) 0.4002(3)
C2 C 0.41016(19) 0.4490(2) 0.3817(3)
C3 C 0.3962(2) 0.5487(2) 0.4838(3)
H1 H 0.32620 0.58330 0.47440
C4 C 0.3122(2) 0.3880(2) 0.2656(3)
C5 C 0.1852(2) 0.4038(3) 0.0141(3)
H2 H 0.12350 0.39020 0.05850
H3 H 0.20620 0.31650 -0.02110
C6 C 0.1550(2) 0.5007(3) -0.1265(3)
N1 N 0.53193(19) 0.2972(2) 0.2913(3)
N2 N 0.04531(17) 0.4624(2) -0.2399(3)
N3 N 0.14590(18) 0.6432(2) -0.0695(3)
N4 N 0.2331(2) 0.5030(2) -0.2271(3)
O1 O 0.61894(16) 0.2410(2) 0.3268(3)
O2 O 0.45847(18) 0.2742(3) 0.1702(3)
O3 O 0.27468(14) 0.46274(17) 0.1335(2)
O4 O 0.26933(18) 0.2888(2) 0.2901(3)
O5 O 0.03608(16) 0.3447(2) -0.2732(2)
O6 O -0.02169(17) 0.5491(2) -0.2872(3)
O7 O 0.18836(15) 0.73044(19) -0.1259(3)
O8 O 0.09432(16) 0.6543(2) 0.0278(2)
O9 O 0.32856(16) 0.5041(2) -0.1530(2)
O10 O 0.19348(19) 0.5060(3) -0.3730(2)
C1B C 0.4854(2) 0.5974(2) 0.5998(3)
C2B C 0.58984(19) 0.5510(2) 0.6183(3)
C3B C 0.6038(2) 0.4513(2) 0.5162(3)
H1B H 0.67380 0.41670 0.52560
C4B C 0.6878(2) 0.6120(2) 0.7344(3)
C5B C 0.8148(2) 0.5962(3) 0.9859(3)
H2B H 0.87650 0.60980 0.94150
H3B H 0.79380 0.68350 1.02110
C6B C 0.8450(2) 0.4993(3) 1.1265(3)
N1B N 0.46807(19) 0.7028(2) 0.7087(3)
N2B N 0.95469(17) 0.5376(2) 1.2399(3)
N3B N 0.85410(18) 0.3568(2) 1.0695(3)
N4B N 0.7669(2) 0.4970(2) 1.2271(3)
O1B O 0.38106(16) 0.7590(2) 0.6732(3)
O2B O 0.54153(18) 0.7258(3) 0.8298(3)
O3B O 0.72532(14) 0.53726(17) 0.8665(2)
O4B O 0.73067(18) 0.7112(2) 0.7099(3)
O5B O 0.96392(16) 0.6553(2) 1.2732(2)
O6B O 1.02169(17) 0.4509(2) 1.2872(3)
O7B O 0.81164(15) 0.26956(19) 1.1259(3)
O8B O 0.90568(16) 0.3457(2) 0.9722(2)
O9B O 0.67144(16) 0.4959(2) 1.1530(2)
O10B O 0.80652(19) 0.4940(3) 1.3730(2)
#END
