
#######################################################################
#
#                 Cambridge Crystallographic Data Centre
#                                CCDC
#
#######################################################################
#
# If this CIF has been generated from an entry in the Cambridge
# Structural Database, then it will include bibliographic, chemical,
# crystal, experimental, refinement or atomic coordinate data resulting
# from the CCDC's data processing and validation procedures.
#
#######################################################################

data_CSD_CIF_XACCOW
_audit_creation_date 2016-01-14
_audit_creation_method CSD-ConQuest-V1
_database_code_CSD XACCOW
_database_code_depnum_ccdc_archive 'CCDC 1447316'
_chemical_formula_sum 'C12 H5 N9 O22'
_chemical_formula_moiety
;
C12 H5 N9 O22
;
_journal_coden_Cambridge 1078
_journal_year 2016
_journal_name_full 'CSD Communication(Private Communication) '
loop_
_publ_author_name
"Xu Zhen"
_chemical_name_systematic
;
bis(2,2,2-trinitroethyl) 2,4,6-trinitroisophthalate
;
_cell_volume   2254.315
_exptl_crystal_density_diffrn 1.848
_exptl_crystal_description 'block'
_diffrn_ambient_temperature 173
#These two values have been output from a single CSD field.
_refine_ls_R_factor_gt 0.0398
_refine_ls_wR_factor_gt 0.0398
_symmetry_cell_setting monoclinic
_symmetry_space_group_name_H-M 'P 21/c'
_symmetry_Int_Tables_number 14
loop_
_symmetry_equiv_pos_site_id
_symmetry_equiv_pos_as_xyz
1 x,y,z
2 -x,1/2+y,1/2-z
3 -x,-y,-z
4 x,-1/2-y,-1/2+z
_cell_length_a 13.8583(10)
_cell_length_b 16.6279(13)
_cell_length_c 10.0771(6)
_cell_angle_alpha 90
_cell_angle_beta 103.879(2)
_cell_angle_gamma 90
_cell_formula_units_Z 4
loop_
_atom_type_symbol
_atom_type_radius_bond
C 0.68
H 0.23
N 0.68
O 0.68
loop_
_atom_site_label
_atom_site_type_symbol
_atom_site_fract_x
_atom_site_fract_y
_atom_site_fract_z
C1 C 0.50357(16) 0.26221(11) 0.2418(2)
C2 C 0.57291(15) 0.30356(12) 0.3406(2)
C3 C 0.56614(15) 0.38697(12) 0.3374(2)
C4 C 0.49545(16) 0.42817(12) 0.2412(2)
H1 H 0.49240 0.48520 0.24170
C5 C 0.42949(15) 0.38368(13) 0.1444(2)
C6 C 0.43123(15) 0.30005(12) 0.1410(2)
C7 C 0.64973(16) 0.26059(12) 0.4498(2)
C8 C 0.78842(16) 0.17674(13) 0.4855(2)
H2 H 0.75710 0.13810 0.53700
H3 H 0.83240 0.21290 0.55140
C9 C 0.84706(15) 0.13265(12) 0.3993(2)
C10 C 0.35923(15) 0.25224(12) 0.0329(2)
C11 C 0.22748(16) 0.16142(12) -0.0027(2)
H4 H 0.26490 0.11710 -0.03270
H5 H 0.19040 0.19100 -0.08440
C12 C 0.15718(16) 0.12908(12) 0.0784(2)
N1 N 0.50522(13) 0.17326(10) 0.2458(2)
N2 N 0.87501(13) 0.18686(11) 0.29363(19)
N3 N 0.94444(14) 0.10136(11) 0.48902(19)
N4 N 0.79084(15) 0.06083(12) 0.32483(19)
N5 N 0.64025(14) 0.43476(11) 0.43534(17)
N6 N 0.35234(15) 0.42770(12) 0.04571(18)
N7 N 0.06830(14) 0.08937(11) -0.01781(19)
N8 N 0.11847(14) 0.19684(12) 0.1527(2)
N9 N 0.20348(15) 0.06547(11) 0.18339(18)
O1 O 0.48417(12) 0.13775(9) 0.13651(17)
O2 O 0.52671(12) 0.14153(9) 0.35834(17)
O3 O 0.71377(10) 0.22243(8) 0.39184(13)
O4 O 0.65236(11) 0.26165(9) 0.56878(14)
O5 O 0.86795(13) 0.15933(10) 0.17997(16)
O6 O 0.90372(12) 0.25331(10) 0.33461(17)
O7 O 1.01303(12) 0.09386(10) 0.43523(17)
O8 O 0.94186(13) 0.08584(10) 0.60517(17)
O9 O 0.83298(14) -0.00287(10) 0.33549(19)
O10 O 0.70611(13) 0.07459(11) 0.26233(18)
O11 O 0.72647(12) 0.41155(10) 0.45868(17)
O12 O 0.61099(12) 0.49471(9) 0.48283(15)
O13 O 0.27320(12) 0.39257(10) 0.00122(16)
O14 O 0.37076(14) 0.49581(10) 0.01658(17)
O15 O 0.2938(1) 0.21453(8) 0.08914(13)
O16 O 0.36217(11) 0.24825(9) -0.08429(15)
O17 O -0.01227(12) 0.09981(11) 0.00276(18)
O18 O 0.09063(13) 0.04809(11) -0.10500(17)
O19 O 0.12817(12) 0.19016(10) 0.27452(17)
O20 O 0.08200(13) 0.25252(10) 0.07944(18)
O21 O 0.14698(13) 0.01954(10) 0.21833(16)
O22 O 0.29347(12) 0.06731(10) 0.22171(16)
#END
