
#######################################################################
#
#                 Cambridge Crystallographic Data Centre
#                                CCDC
#
#######################################################################
#
# If this CIF has been generated from an entry in the Cambridge
# Structural Database, then it will include bibliographic, chemical,
# crystal, experimental, refinement or atomic coordinate data resulting
# from the CCDC's data processing and validation procedures.
#
#######################################################################

data_CSD_CIF_XACDAJ
_audit_creation_date 2016-01-14
_audit_creation_method CSD-ConQuest-V1
_database_code_CSD XACDAJ
_database_code_depnum_ccdc_archive 'CCDC 1447320'
_chemical_formula_sum 'C6 H5 N5 O10'
_chemical_formula_moiety
;
C6 H5 N5 O10
;
_journal_coden_Cambridge 1078
_journal_year 2016
_journal_name_full 'CSD Communication(Private Communication) '
loop_
_publ_author_name
"Xu Zhen"
_chemical_name_systematic
;
2,2,2-trinitroethyl 4-methyl-1,2,5-oxadiazole-3-carboxylate 5-oxide
;
_cell_volume   2275.705
_exptl_crystal_density_diffrn 1.793
_exptl_crystal_description 'block'
_diffrn_ambient_temperature 173
#These two values have been output from a single CSD field.
_refine_ls_R_factor_gt 0.0371
_refine_ls_wR_factor_gt 0.0371
_symmetry_cell_setting monoclinic
_symmetry_space_group_name_H-M 'P 21/c'
_symmetry_Int_Tables_number 14
loop_
_symmetry_equiv_pos_site_id
_symmetry_equiv_pos_as_xyz
1 x,y,z
2 -x,1/2+y,1/2-z
3 -x,-y,-z
4 x,-1/2-y,-1/2+z
_cell_length_a 19.1602(13)
_cell_length_b 6.6496(4)
_cell_length_c 18.5136(11)
_cell_angle_alpha 90
_cell_angle_beta 105.251(2)
_cell_angle_gamma 90
_cell_formula_units_Z 8
loop_
_atom_type_symbol
_atom_type_radius_bond
C 0.68
H 0.23
N 0.68
O 0.68
loop_
_atom_site_label
_atom_site_type_symbol
_atom_site_fract_x
_atom_site_fract_y
_atom_site_fract_z
C1 C 0.33207(11) 0.8245(3) 0.09116(11)
C2 C 0.30969(11) 0.7042(3) 0.14399(11)
C3 C 0.36784(14) 1.0235(3) 0.09403(13)
H1 H 0.41910 1.01090 0.12080
H2 H 0.34440 1.11990 0.12020
H3 H 0.36360 1.07110 0.04300
C4 C 0.31307(11) 0.7427(3) 0.22406(11)
C5 C 0.36724(11) 0.9396(3) 0.32880(11)
H4 H 0.38020 0.82370 0.36330
H5 H 0.31960 0.99220 0.33140
C6 C 0.42443(11) 1.1018(3) 0.34938(11)
N1 N 0.31258(10) 0.7250(3) 0.02727(9)
N2 N 0.27887(10) 0.5367(3) 0.11453(10)
N3 N 0.40250(9) 1.3053(2) 0.31137(10)
N4 N 0.4438(1) 1.1463(3) 0.43279(9)
N5 N 0.49408(9) 1.0384(3) 0.3308(1)
O1 O 0.27957(8) 0.5371(2) 0.04110(8)
O2 O 0.31467(9) 0.7597(2) -0.03768(8)
O3 O 0.36495(7) 0.88014(19) 0.25332(7)
O4 O 0.27529(8) 0.6639(2) 0.25772(8)
O5 O 0.36952(8) 1.2986(2) 0.24641(8)
O6 O 0.42103(10) 1.4544(2) 0.34946(9)
O7 O 0.50687(8) 1.1893(2) 0.46258(8)
O8 O 0.39361(9) 1.1398(2) 0.46112(8)
O9 O 0.51966(9) 1.1498(3) 0.29275(9)
O10 O 0.51757(9) 0.8768(2) 0.35671(9)
C7 C 0.13698(11) 0.3659(3) 0.14863(11)
C8 C 0.18254(11) 0.2672(3) 0.21126(11)
C9 C 0.09171(13) 0.5493(3) 0.14019(12)
H6 H 0.12290 0.66830 0.14990
H7 H 0.06210 0.54520 0.17600
H8 H 0.06010 0.55570 0.08910
C10 C 0.19734(11) 0.3173(3) 0.29209(11)
C11 C 0.15784(12) 0.4994(3) 0.38117(11)
H9 H 0.20670 0.55880 0.39960
H10 H 0.15360 0.38360 0.41340
C12 C 0.10034(11) 0.6537(3) 0.38131(11)
N6 N 0.14458(9) 0.2651(3) 0.08953(10)
N7 N 0.2166(1) 0.1135(3) 0.19282(10)
N8 N 0.02609(10) 0.5842(3) 0.33553(10)
N9 N 0.11506(10) 0.8601(3) 0.3515(1)
N10 N 0.0945(1) 0.6913(3) 0.46067(9)
O11 O 0.19563(9) 0.1001(2) 0.11677(8)
O12 O 0.12078(9) 0.2809(3) 0.02130(8)
O13 O 0.14530(7) 0.4374(2) 0.30464(7)
O14 O 0.24832(8) 0.2595(2) 0.33988(8)
O15 O 0.00764(9) 0.4223(2) 0.35415(9)
O16 O -0.00654(8) 0.6920(2) 0.28512(9)
O17 O 0.09159(10) 1.0053(2) 0.37695(9)
O18 O 0.14817(11) 0.8590(2) 0.30438(10)
O19 O 0.15304(8) 0.7088(2) 0.50631(8)
O20 O 0.03499(9) 0.7054(3) 0.47104(9)
#END
