
#######################################################################
#
#                 Cambridge Crystallographic Data Centre
#                                CCDC
#
#######################################################################
#
# If this CIF has been generated from an entry in the Cambridge
# Structural Database, then it will include bibliographic, chemical,
# crystal, experimental, refinement or atomic coordinate data resulting
# from the CCDC's data processing and validation procedures.
#
#######################################################################

data_CSD_CIF_XACNAT
_audit_creation_date 2016-01-14
_audit_creation_method CSD-ConQuest-V1
_database_code_CSD XACNAT
_database_code_depnum_ccdc_archive 'CCDC 1434800'
_chemical_formula_sum 'C40 H35 N3 O10'
_chemical_formula_moiety
;
C40 H35 N3 O10
;
_journal_coden_Cambridge 177
_journal_volume 14
_journal_year 2016
_journal_page_first 2034
_journal_name_full 'Org.Biomol.Chem. '
loop_
_publ_author_name
"R.D.Giacometti"
"J.C.Salinas"
"M.E.stergaard"
"E.E.Swayze"
"P.P.Seth"
"S.Hanessian"
_chemical_name_systematic
;
(2R,3R,4aR,5R,8aS,9S)-3-(3-((Benzyloxy)methyl)-5-methyl-2,4-dioxo-3,4-dihydrop
yrimidin-1(2H)-yl)-9-(naphthalen-2-ylmethoxy)-3,5,8,8a-tetrahydro-2H-2,4a-meth
anobenzo(b)(1,4)dioxin-5-yl 4-nitrobenzoate
;
_cell_volume   1713.047
_exptl_crystal_colour 'colorless'
_exptl_crystal_density_diffrn 1.391
_exptl_crystal_description 'block'
_exptl_crystal_preparation 'Ethyl acetate/petroleum ether (65-110deg.C)'
_diffrn_ambient_temperature 100.2
_refine_special_details
;
C10A,C11A,C12A,C13A,C14A,C15A,C16A,C17A,C18A,C19A,C20A,C21A,C22A,C23A,C24A,C25
A,C33A,C34A,C35A,C36A,C37A,C38A,C39A,C40A,N2A,O10A,O8A,O9A and 
C10B,C11B,C12B,C13B,C14B,C15B,C16B,C17B,C18B,C19B,C20B,C21B,C22B,C23B,C24B,C25
B,C33B,C34B,C35B,C36B,C37B,C38B,C39B,C40B,N2B,O10B,O8B,O9B disordered over 
two sites with occupancies 0.822:0.178.
;
#These two values have been output from a single CSD field.
_refine_ls_R_factor_gt 0.0555
_refine_ls_wR_factor_gt 0.0555
_symmetry_cell_setting monoclinic
_symmetry_space_group_name_H-M 'P 21'
_symmetry_Int_Tables_number 4
loop_
_symmetry_equiv_pos_site_id
_symmetry_equiv_pos_as_xyz
1 x,y,z
2 -x,1/2+y,-z
_cell_length_a 14.2003(3)
_cell_length_b 7.6452(2)
_cell_length_c 17.2049(4)
_cell_angle_alpha 90
_cell_angle_beta 113.490(1)
_cell_angle_gamma 90
_cell_formula_units_Z 2
loop_
_atom_type_symbol
_atom_type_radius_bond
C 0.68
H 0.23
N 0.68
O 0.68
loop_
_atom_site_label
_atom_site_type_symbol
_atom_site_fract_x
_atom_site_fract_y
_atom_site_fract_z
O1 O 0.8066(3) -0.0960(18) 0.9556(2)
O2 O 0.9726(3) 0.1020(18) 1.0569(2)
O3 O 0.8069(3) 0.3456(18) 1.0265(2)
O4 O 0.6206(3) 0.0512(18) 0.9688(2)
O5 O 0.5216(3) -0.1433(18) 0.9986(3)
O6 O 0.1059(4) 0.2685(19) 0.6899(3)
O7 O 0.2089(3) 0.4155(18) 0.6522(3)
N1 N 0.8201(3) 0.0065(18) 0.8295(2)
N2 N 0.1919(4) 0.3015(19) 0.6953(3)
C1 C 0.8747(4) -0.0220(19) 0.9216(3)
H1 H 0.93550 -0.09980 0.93360
C2 C 0.9074(4) 0.1501(18) 0.9717(3)
H2 H 0.93710 0.23950 0.94550
C3 C 0.8057(4) 0.2018(18) 0.9756(3)
H3 H 0.74950 0.21160 0.91770
C4 C 0.8006(4) 0.0284(18) 1.0180(3)
C5 C 0.7103(4) -0.0159(19) 1.0381(3)
H4 H 0.70460 -0.14590 1.04060
C6 C 0.7209(4) 0.0621(19) 1.1221(3)
H5 H 0.66070 0.07200 1.13320
C7 C 0.8082(5) 0.1169(19) 1.1808(3)
H6 H 0.80730 0.15790 1.23260
C8 C 0.9088(4) 0.1195(19) 1.1717(3)
H7 H 0.96210 0.06540 1.22250
H8 H 0.92910 0.24240 1.16880
C9 C 0.9049(4) 0.0220(18) 1.0928(3)
H9 H 0.92540 -0.10270 1.10770
C10 C 0.5301(4) -0.0246(19) 0.9554(3)
C11 C 0.4437(4) 0.0527(19) 0.8838(3)
C12 C 0.3445(4) 0.0086(19) 0.8727(3)
H10 H 0.33380 -0.07620 0.90870
C13 C 0.2609(4) 0.0868(19) 0.8097(3)
H11 H 0.19260 0.05780 0.80190
C14 C 0.2806(5) 0.2101(19) 0.7582(3)
C15 C 0.3764(4) 0.2516(19) 0.7653(3)
H12 H 0.38650 0.33170 0.72710
C16 C 0.4587(4) 0.1751(19) 0.8291(3)
H13 H 0.52650 0.20550 0.83620
O8 O 0.9775(4) 0.0276(19) 0.8238(4)
O9 O 0.6915(5) 0.122(2) 0.5827(3)
O10 O 0.9023(5) -0.1239(19) 0.6218(4)
N3 N 0.8331(4) 0.0498(19) 0.6993(3)
C17 C 0.8839(5) 0.0276(19) 0.7874(4)
C18 C 0.7276(6) 0.080(2) 0.6573(4)
C19 C 0.6660(5) 0.047(2) 0.7068(4)
C20 C 0.7146(5) 0.007(3) 0.7882(6)
H14 H 0.67490 -0.02300 0.81960
C21 C 0.5521(6) 0.059(2) 0.6612(4)
H15 H 0.51930 0.01830 0.69840
H16 H 0.52950 -0.01380 0.61020
H17 H 0.53270 0.18100 0.64520
C22 C 0.8178(6) 0.512(2) 0.9900(4)
H18 H 0.88500 0.51530 0.98510
H19 H 0.81670 0.60830 1.02810
C23 C 0.7334(5) 0.540(2) 0.9038(4)
C24 C 0.7536(5) 0.524(2) 0.8316(4)
H20 H 0.82130 0.49780 0.83680
C25 C 0.6747(5) 0.545(2) 0.7507(4)
C26 C 0.6940(7) 0.524(2) 0.6780(4)
H21 H 0.76200 0.50360 0.68250
C27 C 0.6130(7) 0.534(2) 0.5985(4)
H22 H 0.62540 0.51350 0.54890
C28 C 0.5138(8) 0.574(2) 0.5909(5)
H23 H 0.45990 0.58460 0.53640
C29 C 0.4937(6) 0.597(2) 0.6627(4)
H24 H 0.42610 0.62310 0.65780
C30 C 0.5749(5) 0.582(2) 0.7431(4)
C31 C 0.5554(5) 0.606(2) 0.8161(4)
H25 H 0.48870 0.63890 0.81110
C32 C 0.6337(5) 0.581(2) 0.8961(4)
H26 H 0.61950 0.59200 0.94530
C33 C 0.8962(5) 0.048(2) 0.6487(4)
H27 H 0.86490 0.12570 0.59880
H28 H 0.96600 0.09260 0.68330
C34 C 0.8126(5) -0.179(2) 0.5504(4)
H29 H 0.79390 -0.08770 0.50600
H30 H 0.75460 -0.19110 0.56820
C35 C 0.8277(3) -0.3479(18) 0.5140(3)
C36 C 0.7443(3) -0.4152(19) 0.4460(3)
H31 H 0.68070 -0.35440 0.42510
C37 C 0.7540(4) -0.5714(19) 0.4086(3)
H32 H 0.69700 -0.61740 0.36210
C38 C 0.8471(4) -0.6604(18) 0.4391(3)
H33 H 0.85370 -0.76710 0.41350
C39 C 0.9305(3) -0.5931(19) 0.5071(4)
H34 H 0.99410 -0.65390 0.52800
C40 C 0.9208(3) -0.4368(19) 0.5446(3)
H35 H 0.97780 -0.39080 0.59110
O11? O 0.9678(14) 0.086(4) 0.8184(18)
O12? O 0.665(3) 0.153(6) 0.5863(15)
O13? O 0.8633(17) 0.033(3) 0.5865(12)
N4? N 0.8171(16) 0.114(3) 0.6996(11)
C41? C 0.8743(16) 0.070(4) 0.7845(13)
C42? C 0.7093(17) 0.113(6) 0.6615(16)
C43? C 0.6580(16) 0.070(7) 0.7179(18)
C44? C 0.7135(15) 0.010(11) 0.795(2)
H36? H 0.67870 -0.03210 0.82830
C45? C 0.543(2) 0.066(8) 0.681(3)
H37? H 0.51940 0.01370 0.72220
H38? H 0.51800 -0.00370 0.62900
H39? H 0.51650 0.18560 0.66820
C46? C 0.8143(19) 0.5121(5) 0.9883(13)
H40? H 0.88140 0.51890 0.98350
H41? H 0.81120 0.60870 1.02560
C47? C 0.7295(15) 0.53439(2) 0.9020(12)
C48? C 0.7522(16) 0.5337(8) 0.8302(14)
H42? H 0.82120 0.51900 0.83630
C49? C 0.6742(15) 0.5542(9) 0.7493(13)
C50? C 0.698(2) 0.5533(16) 0.6778(15)
H43? H 0.76680 0.53870 0.68370
C51? C 0.619(3) 0.5740(18) 0.5977(14)
H44? H 0.63460 0.57350 0.54890
C52? C 0.517(3) 0.5956(16) 0.5884(15)
H45? H 0.46440 0.60950 0.53350
C53? C 0.4936(18) 0.5966(15) 0.6596(16)
H46? H 0.42460 0.61120 0.65350
C54? C 0.5725(14) 0.5758(10) 0.7401(14)
C55? C 0.5500(17) 0.5765(14) 0.8122(16)
H47? H 0.48100 0.59110 0.80620
C56? C 0.6278(17) 0.5559(11) 0.8929(16)
H48? H 0.61170 0.55660 0.94140
C57? C 0.872(2) 0.164(4) 0.6462(15)
H49? H 0.84350 0.27480 0.61650
H50? H 0.94560 0.18330 0.68250
C58? C 0.916(3) -0.125(4) 0.621(2)
H51? H 0.90780 -0.15060 0.67390
H52? H 0.99050 -0.10480 0.63590
C59? C 0.8853(16) -0.282(3) 0.5660(12)
C60? C 0.7826(15) -0.311(4) 0.5143(16)
H53? H 0.73200 -0.22850 0.51340
C61? C 0.7538(16) -0.460(4) 0.4640(16)
H54? H 0.68350 -0.47930 0.42870
C62? C 0.828(2) -0.580(3) 0.4653(16)
H55? H 0.80800 -0.68210 0.43090
C63? C 0.930(2) -0.552(4) 0.517(2)
H56? H 0.98100 -0.63410 0.51780
C64? C 0.9592(14) -0.403(4) 0.5673(18)
H57? H 1.02950 -0.38330 0.60260
#END
