
#######################################################################
#
#                 Cambridge Crystallographic Data Centre
#                                CCDC
#
#######################################################################
#
# If this CIF has been generated from an entry in the Cambridge
# Structural Database, then it will include bibliographic, chemical,
# crystal, experimental, refinement or atomic coordinate data resulting
# from the CCDC's data processing and validation procedures.
#
#######################################################################

data_CSD_CIF_XACZIN
_audit_creation_date 2016-01-14
_audit_creation_method CSD-ConQuest-V1
_database_code_CSD XACZIN
_database_code_depnum_ccdc_archive 'CCDC 1414360'
_chemical_formula_sum 'C8 H7 N7 O6'
_chemical_formula_moiety
;
C8 H7 N7 O6
;
_journal_coden_Cambridge 1290
_journal_year 2016
_journal_page_first 138
_journal_name_full 'Eur.J.Inorg.Chem. '
loop_
_publ_author_name
"T.M.Klapotke"
"C.Pfluger"
"M.W.Reintinger"
_chemical_name_systematic
;
1-(5,7-Dinitro-1H-benzotriazol-1-yl)-N-methyl-N-nitromethanamine
;
_cell_volume   1130.522
_exptl_crystal_colour 'colorless'
_exptl_crystal_density_diffrn 1.746
_exptl_crystal_description 'rod-like'
_diffrn_ambient_temperature 123
#These two values have been output from a single CSD field.
_refine_ls_R_factor_gt 0.0282
_refine_ls_wR_factor_gt 0.0282
_symmetry_cell_setting orthorhombic
_symmetry_space_group_name_H-M 'P 21 21 21'
_symmetry_Int_Tables_number 19
loop_
_symmetry_equiv_pos_site_id
_symmetry_equiv_pos_as_xyz
1 x,y,z
2 1/2-x,-y,1/2+z
3 1/2+x,1/2-y,-z
4 -x,1/2+y,1/2-z
_cell_length_a 5.7625(2)
_cell_length_b 9.5536(3)
_cell_length_c 20.5353(6)
_cell_angle_alpha 90
_cell_angle_beta 90
_cell_angle_gamma 90
_cell_formula_units_Z 4
loop_
_atom_type_symbol
_atom_type_radius_bond
C 0.68
H 0.23
N 0.68
O 0.68
loop_
_atom_site_label
_atom_site_type_symbol
_atom_site_fract_x
_atom_site_fract_y
_atom_site_fract_z
O1 O 0.8333(2) 0.12874(15) 0.04515(7)
O2 O 1.0483(3) 0.39630(16) 0.09769(7)
O3 O 1.2418(3) 0.37430(17) 0.32683(8)
O4 O 0.8014(3) -0.08139(15) 0.00426(7)
N1 N 0.4961(3) 0.01869(18) 0.04822(8)
O5 O 0.6737(3) 0.41262(15) 0.08533(7)
N2 N 0.7214(3) 0.02109(18) 0.03148(8)
N3 N 0.8480(3) 0.37226(16) 0.11406(8)
O6 O 1.0931(4) 0.20779(19) 0.38383(8)
N4 N 0.3146(3) 0.06142(18) 0.18681(8)
N5 N 0.3967(3) 0.06082(18) 0.24532(8)
N6 N 0.4459(3) 0.14745(16) 0.14816(8)
N7 N 1.0998(3) 0.28135(18) 0.33558(8)
C1 C 0.3980(3) 0.1414(2) 0.07798(9)
H1 H 0.22810 0.14170 0.07090
H2 H 0.46300 0.22580 0.05680
C2 C 0.6221(3) 0.20257(19) 0.18421(9)
C3 C 0.7427(4) 0.1689(2) 0.29818(9)
H3 H 0.71920 0.12930 0.34010
C4 C 0.9279(3) 0.25332(19) 0.28446(9)
C5 C 0.8125(3) 0.29274(19) 0.17405(9)
C6 C 0.5905(3) 0.14488(19) 0.24657(9)
C7 C 0.9650(3) 0.3166(2) 0.22364(9)
H4 H 1.09560 0.37560 0.21700
C8 C 0.3719(4) -0.1128(2) 0.04018(10)
H5 H 0.36900 -0.13830 -0.00600
H6 H 0.21260 -0.10210 0.05610
H7 H 0.45060 -0.18640 0.06500
#END
