
#######################################################################
#
#                 Cambridge Crystallographic Data Centre
#                                CCDC
#
#######################################################################
#
# If this CIF has been generated from an entry in the Cambridge
# Structural Database, then it will include bibliographic, chemical,
# crystal, experimental, refinement or atomic coordinate data resulting
# from the CCDC's data processing and validation procedures.
#
#######################################################################

data_CSD_CIF_XAFVIK
_audit_creation_date 2005-01-11
_audit_creation_method CSD-ConQuest-V1
_database_code_CSD XAFVIK
_database_code_depnum_ccdc_archive 'CCDC 218251'
_chemical_formula_sum 'C18 H17 N3 O5'
_chemical_formula_moiety
;
C18 H17 N3 O5
;
_journal_coden_Cambridge 392
_journal_volume 63
_journal_year 2004
_journal_page_first 2019
_journal_name_full 'Heterocycles '
loop_
_publ_author_name
"J.Escalante"
"P.Flores"
"J.M.Priego"
_chemical_name_systematic
;
2,3-Dihydro-2(R)-(o-nitrophenyl)-3-((S)-(+)-methoxycarbonylethyl)-4(1H)-quinaz
olinone
;
_chemical_melting_point 429.15
_cell_volume    843.058
_exptl_crystal_colour 'colorless'
_exptl_crystal_density_diffrn 1.404
_exptl_special_details
;
Melting point range 429.15-431.15K

;
_exptl_crystal_description 'rectangular'
_exptl_crystal_preparation 'dichloromethane/hexane'
_diffrn_ambient_temperature 298
#These two values have been output from a single CSD field.
_refine_ls_R_factor_gt 0.0365
_refine_ls_wR_factor_gt 0.0365
_symmetry_cell_setting monoclinic
_symmetry_space_group_name_H-M 'P 21'
_symmetry_Int_Tables_number 4
loop_
_symmetry_equiv_pos_site_id
_symmetry_equiv_pos_as_xyz
1 x,y,z
2 -x,1/2+y,-z
_cell_length_a 7.9692(9)
_cell_length_b 7.2033(8)
_cell_length_c 15.1123(16)
_cell_angle_alpha 90
_cell_angle_beta 103.637(2)
_cell_angle_gamma 90
_cell_formula_units_Z 2
loop_
_atom_type_symbol
_atom_type_radius_bond
C 0.68
H 0.23
N 0.68
O 0.68
loop_
_atom_site_label
_atom_site_type_symbol
_atom_site_fract_x
_atom_site_fract_y
_atom_site_fract_z
H1 H -0.505(4) 1.040(5) 0.7123(19)
O1 O 0.1551(3) 0.5421(3) 0.65356(12)
N1 N 0.0566(3) 0.7798(3) 0.72315(14)
C1 C 0.1470(3) 1.0323(4) 0.60366(16)
C2 C -0.0956(3) 1.0244(3) 0.78387(17)
O2 O 0.3277(2) 0.6470(3) 0.84910(13)
N2 N 0.0483(3) 1.0857(3) 0.66318(16)
O3 O 0.1849(3) 0.9753(3) 0.94039(14)
C3 C 0.1887(3) 0.8448(3) 0.59891(17)
C4 C 0.0292(3) 0.6478(4) 0.79320(18)
C5 C 0.1910(4) 0.5372(4) 0.83068(17)
N3 N 0.0648(3) 1.0760(3) 0.94509(15)
C6 C 0.1975(4) 1.1586(4) 0.54542(18)
C7 C 0.1348(3) 0.7109(4) 0.65925(17)
C8 C -0.0955(3) 1.0681(3) 0.87395(16)
C9 C 0.2895(4) 1.0984(5) 0.4849(2)
C10 C 0.0616(3) 0.9809(3) 0.74670(17)
C11 C 0.2811(4) 0.7877(5) 0.5368(2)
C12 C -0.2568(4) 1.0214(4) 0.7235(2)
O4 O 0.1962(3) 0.3731(3) 0.84742(15)
C13 C 0.3323(4) 0.9127(5) 0.4800(2)
C14 C -0.2433(4) 1.1042(4) 0.9020(2)
O5 O 0.0725(3) 1.1832(3) 1.00826(15)
C15 C -0.1302(4) 0.5289(5) 0.7608(3)
C16 C -0.4002(4) 1.0951(5) 0.8400(3)
C17 C 0.4916(5) 0.5638(8) 0.8911(4)
C18 C -0.4055(4) 1.0544(5) 0.7512(3)
H2 H 0.195(2) 1.018(2) 0.7999(10)
H3 H 0.008(3) 0.723(3) 0.8486(16)
H4 H -0.262(3) 1.000(4) 0.6587(18)
H5 H -0.503(5) 1.115(5) 0.861(2)
H6 H -0.123(4) 0.452(6) 0.701(2)
H7 H -0.235(4) 0.594(4) 0.7494(18)
H8 H 0.313(4) 0.660(5) 0.5374(19)
H9 H -0.133(4) 0.456(5) 0.815(2)
H10 H 0.406(4) 0.873(5) 0.442(2)
H11 H -0.241(4) 1.136(5) 0.965(2)
H12 H 0.168(3) 1.286(5) 0.5516(16)
H13 H 0.578(6) 0.649(8) 0.899(3)
H14 H 0.321(3) 1.197(4) 0.4404(19)
H15 H 0.483(5) 0.476(8) 0.945(3)
H16 H 0.510(5) 0.477(7) 0.842(3)
H17 H 0.054(4) 1.201(5) 0.677(2)
#END
