
#######################################################################
#
#                 Cambridge Crystallographic Data Centre
#                                CCDC
#
#######################################################################
#
# If this CIF has been generated from an entry in the Cambridge
# Structural Database, then it will include bibliographic, chemical,
# crystal, experimental, refinement or atomic coordinate data resulting
# from the CCDC's data processing and validation procedures.
#
#######################################################################

data_CSD_CIF_XAGJIY
_audit_creation_date 2001-01-15
_audit_creation_method CSD-ConQuest-V1
_database_code_CSD XAGJIY
_database_code_depnum_ccdc_archive 'CCDC 141803'
_database_code_depnum_ccdc_journal 1267/326
_chemical_formula_sum 'C19 H18 N2 O3'
_chemical_formula_moiety
;
C19 H18 N2 O3
;
_journal_coden_Cambridge 1267
_journal_volume 215
_journal_year 2000
_journal_page_first 283
_journal_name_full 'Z.Kristallogr.-New Cryst.Struct. '
loop_
_publ_author_name
"E.Schmidt"
"H.-U.Reissig"
"O.Rademacher"
_chemical_name_systematic
;
3aS*,4S*,7aR*-4-ethoxy-3a,7a-dihydro-3,7-diphenyl-4H-1,5-dioxa-2,6-diazaindene
;
_chemical_melting_point 419
_cell_volume   3306.837
_exptl_crystal_colour 'light yellow'
_exptl_crystal_density_diffrn 1.295
_exptl_special_details
;
Melting point range 419-420K

;
_exptl_crystal_description 'prism'
_exptl_crystal_preparation 'hexene/dichloromethane'
_diffrn_ambient_temperature ?
_diffrn_special_details
;
The study was carried out at room temperature,in the range 283-303K

;
#These two values have been output from a single CSD field.
_refine_ls_R_factor_gt 0.0399
_refine_ls_wR_factor_gt 0.0399
_symmetry_cell_setting orthorhombic
_symmetry_space_group_name_H-M 'P b c a'
_symmetry_Int_Tables_number 61
loop_
_symmetry_equiv_pos_site_id
_symmetry_equiv_pos_as_xyz
1 x,y,z
2 1/2-x,-y,1/2+z
3 -x,1/2+y,1/2-z
4 1/2+x,1/2-y,-z
5 -x,-y,-z
6 -1/2+x,y,-1/2-z
7 x,-1/2-y,-1/2+z
8 -1/2-x,-1/2+y,z
_cell_length_a 15.957(3)
_cell_length_b 7.958(2)
_cell_length_c 26.041(5)
_cell_angle_alpha 90
_cell_angle_beta 90
_cell_angle_gamma 90
_cell_formula_units_Z 8
loop_
_atom_type_symbol
_atom_type_radius_bond
C 0.68
H 0.23
N 0.68
O 0.68
loop_
_atom_site_label
_atom_site_type_symbol
_atom_site_fract_x
_atom_site_fract_y
_atom_site_fract_z
O1 O 0.66391(9) -0.04099(17) 0.21709(5)
N1 N 0.65533(10) -0.1439(2) 0.26076(6)
C1 C 0.65287(11) -0.0541(2) 0.30149(7)
C2 C 0.65603(11) 0.1319(2) 0.29024(7)
H1 H 0.69850 0.18800 0.31140
C3 C 0.57222(13) 0.2179(2) 0.29503(6)
H2 H 0.52810 0.14930 0.27940
O2 O 0.57707(10) 0.38024(17) 0.27030(5)
N2 N 0.59056(12) 0.3722(2) 0.21665(6)
C4 C 0.63620(13) 0.2510(3) 0.20026(7)
C5 C 0.68184(13) 0.1289(2) 0.23416(7)
H3 H 0.74220 0.14950 0.23160
O3 O 0.55479(9) 0.24705(17) 0.34613(4)
C6 C 0.46965(15) 0.2936(3) 0.35689(9)
H4 H 0.43160 0.21640 0.33990
H5 H 0.45880 0.40580 0.34400
C7 C 0.45574(7) 0.28867(17) 0.41334(4)
H6 H 0.39860 0.31800 0.42070
H7 H 0.49260 0.36730 0.42980
H8 H 0.46700 0.17750 0.42590
C8 C 0.64743(7) -0.13539(17) 0.35219(4)
C9 C 0.65622(7) -0.04323(17) 0.39695(4)
H9 H 0.66380 0.07250 0.39530
C10 C 0.65377(15) -0.1228(3) 0.44409(8)
H10 H 0.65920 -0.05970 0.47400
C11 C 0.64342(15) -0.2931(3) 0.44743(9)
H11 H 0.64250 -0.34590 0.47930
C12 C 0.63441(14) -0.3854(3) 0.40304(8)
H12 H 0.62750 -0.50130 0.40500
C13 C 0.63561(13) -0.3077(3) 0.35599(8)
H13 H 0.62840 -0.37120 0.32630
C14 C 0.64605(13) 0.2383(2) 0.14362(7)
C15 C 0.71473(14) 0.1566(3) 0.12213(8)
H14 H 0.75560 0.11070 0.14340
C16 C 0.72257(17) 0.1433(3) 0.06958(9)
H15 H 0.76890 0.08870 0.05570
C17 C 0.66314(17) 0.2093(3) 0.03748(9)
H16 H 0.66900 0.19990 0.00210
C18 C 0.59449(16) 0.2899(3) 0.05826(8)
H17 H 0.55370 0.33490 0.03670
C19 C 0.58606(14) 0.3041(3) 0.11083(8)
H18 H 0.53950 0.35860 0.12440
#END
