
#######################################################################
#
#                 Cambridge Crystallographic Data Centre
#                                CCDC
#
#######################################################################
#
# If this CIF has been generated from an entry in the Cambridge
# Structural Database, then it will include bibliographic, chemical,
# crystal, experimental, refinement or atomic coordinate data resulting
# from the CCDC's data processing and validation procedures.
#
#######################################################################

data_CSD_CIF_XAGPAX
_audit_creation_date 2005-01-11
_audit_creation_method CSD-ConQuest-V1
_database_code_CSD XAGPAX
_database_code_depnum_ccdc_archive 'CCDC 235461'
_chemical_formula_sum 'C12 H12 N2 O5'
_chemical_formula_moiety
;
C12 H12 N2 O5
;
_journal_coden_Cambridge 1277
_journal_volume 108
_journal_year 2004
_journal_page_first 6365
_journal_name_full 'J.Phys.Chem.A '
loop_
_publ_author_name
"P.Bour"
"I.Raich"
"J.Kaminsky"
"R.Hrabal"
"J.Cejka"
"V.Sychrovsky"
_chemical_name_systematic
;
2,3-dideoxy-2,3-(4-nitrobenzoylepimino)-\a-L-erythrofuranoside
;
_cell_volume   2466.207
_exptl_crystal_colour 'colorless'
_exptl_crystal_density_diffrn 1.423
_exptl_crystal_description 'prism'
_diffrn_ambient_temperature 150
#These two values have been output from a single CSD field.
_refine_ls_R_factor_gt 0.0463
_refine_ls_wR_factor_gt 0.0463
_symmetry_cell_setting monoclinic
_symmetry_space_group_name_H-M 'P 21'
_symmetry_Int_Tables_number 4
loop_
_symmetry_equiv_pos_site_id
_symmetry_equiv_pos_as_xyz
1 x,y,z
2 -x,1/2+y,-z
_cell_length_a 7.728
_cell_length_b 15.197
_cell_length_c 21.18
_cell_angle_alpha 90
_cell_angle_beta 97.49
_cell_angle_gamma 90
_cell_formula_units_Z 8
loop_
_atom_type_symbol
_atom_type_radius_bond
C 0.68
H 0.23
N 0.68
O 0.68
loop_
_atom_site_label
_atom_site_type_symbol
_atom_site_fract_x
_atom_site_fract_y
_atom_site_fract_z
O1 O -0.5838(4) 0.0275(4) 0.18047(12)
C1 C -0.7119(5) 0.0538(4) 0.1294(2)
C2 C -0.7100(4) -0.0179(3) 0.08080(19)
C3 C -0.6159(4) -0.0922(3) 0.11316(17)
C4 C -0.5637(5) -0.0656(5) 0.18077(17)
O2 O -0.6656(3) 0.1341(3) 0.10495(14)
C5 C -0.6880(5) 0.2062(4) 0.1456(2)
N1 N -0.5336(3) -0.0404(2) 0.06863(12)
C6 C -0.4989(4) -0.0733(4) 0.01089(16)
O3 O -0.4507(4) -0.1495(3) 0.00513(12)
C7 C -0.5035(4) -0.0091(4) -0.04222(14)
C8 C -0.5643(4) 0.0766(4) -0.03800(15)
C9 C -0.5673(4) 0.1336(3) -0.08816(15)
C10 C -0.5060(5) 0.1084(4) -0.14243(15)
C11 C -0.4425(6) 0.0237(5) -0.14776(16)
C12 C -0.4396(5) -0.0345(3) -0.09780(16)
N2 N -0.5032(6) 0.1672(4) -0.19571(14)
O4 O -0.4308(6) 0.1433(3) -0.24092(14)
O5 O -0.5728(6) 0.2396(4) -0.19308(15)
H1 H -0.8315(5) 0.0606(4) 0.1420(2)
H2 H -0.8222(4) -0.0072(3) 0.05256(19)
H3 H -0.6317(4) -0.1570(3) 0.11831(17)
H4 H -0.6427(5) -0.0934(5) 0.20889(17)
H5 H -0.4402(5) -0.0827(5) 0.19573(17)
H6 H -0.6523(5) 0.2619(4) 0.1257(2)
H7 H -0.8133(5) 0.2104(4) 0.1525(2)
H8 H -0.6137(5) 0.1970(4) 0.1874(2)
H9 H -0.6062(4) 0.0970(4) 0.00226(15)
H10 H -0.6146(4) 0.1945(3) -0.08480(15)
H11 H -0.3965(6) 0.0049(5) -0.18766(16)
H12 H -0.3930(5) -0.0954(3) -0.10150(16)
O6 O -0.8661(4) -0.2602(3) -0.1727(1)
C13 C -0.7831(5) -0.2144(3) -0.11867(16)
C14 C -0.7422(4) -0.2834(3) -0.06843(16)
C15 C -0.7672(4) -0.3699(3) -0.09920(16)
C16 C -0.8195(5) -0.3507(4) -0.16867(16)
O7 O -0.8947(4) -0.1518(2) -0.09959(12)
C17 C -0.9329(7) -0.0824(4) -0.1446(2)
N3 N -0.8957(3) -0.3378(2) -0.06026(11)
C18 C -0.9235(4) -0.3754(5) -0.00328(15)
O8 O -0.9259(4) -0.4545(3) 0.00569(13)
C19 C -0.9650(4) -0.3094(4) 0.04628(15)
C20 C -1.0228(4) -0.2246(4) 0.03064(15)
C21 C -1.0588(4) -0.1672(3) 0.07791(15)
C22 C -1.0365(4) -0.1957(4) 0.13974(15)
C23 C -0.9788(5) -0.2801(4) 0.15655(16)
C24 C -0.9453(5) -0.3362(3) 0.10970(16)
N4 N -1.0724(4) -0.1327(4) 0.19031(16)
O9 O -1.1015(5) -0.0574(4) 0.17560(18)
O10 O -1.0738(4) -0.1614(3) 0.24370(12)
H13 H -0.6751(5) -0.1829(3) -0.12741(16)
H14 H -0.6517(4) -0.2527(3) -0.03821(16)
H15 H -0.7031(4) -0.4268(3) -0.10038(16)
H16 H -0.9209(5) -0.3883(4) -0.18607(16)
H17 H -0.7192(5) -0.3622(4) -0.19300(16)
H18 H -1.0143(7) -0.0395(4) -0.1280(2)
H19 H -0.9883(7) -0.1066(4) -0.1863(2)
H20 H -0.8217(7) -0.0518(4) -0.1507(2)
H21 H -1.0388(4) -0.2050(4) -0.01483(15)
H22 H -1.1004(4) -0.1061(3) 0.06695(15)
H23 H -0.9649(5) -0.2997(4) 0.20200(16)
H24 H -0.9039(5) -0.3972(3) 0.12111(16)
O11 O -0.2582(4) -0.5364(3) -0.31414(10)
C25 C -0.2098(4) -0.5801(3) -0.36754(15)
C26 C -0.1925(4) -0.5115(3) -0.41702(15)
C27 C -0.1937(4) -0.4259(3) -0.38552(15)
C28 C -0.2058(5) -0.4461(4) -0.31620(15)
O12 O -0.3366(3) -0.6416(2) -0.38913(12)
C29 C -0.3546(7) -0.7119(4) -0.3469(2)
N5 N -0.3475(3) -0.4557(2) -0.42659(11)
C30 C -0.4064(4) -0.4162(5) -0.48406(16)
O13 O -0.4115(4) -0.3365(3) -0.49231(13)
C31 C -0.4780(4) -0.4788(3) -0.53587(14)
C32 C -0.5366(4) -0.5612(4) -0.52271(14)
C33 C -0.5977(4) -0.6188(3) -0.57204(15)
C34 C -0.5981(4) -0.5898(4) -0.63320(15)
C35 C -0.5432(5) -0.5072(4) -0.64754(17)
C36 C -0.4832(5) -0.4525(3) -0.59840(16)
N6 N -0.6584(5) -0.6507(4) -0.68601(16)
O14 O -0.7056(6) -0.7237(4) -0.67341(17)
O15 O -0.6517(6) -0.6266(3) -0.74011(14)
H25 H -0.0980(4) -0.6132(3) -0.35669(15)
H26 H -0.1212(4) -0.5427(3) -0.44623(15)
H27 H -0.1252(4) -0.3699(3) -0.38299(15)
H28 H -0.0894(5) -0.4377(4) -0.29018(15)
H29 H -0.2936(5) -0.4069(4) -0.29968(15)
H30 H -0.4487(7) -0.7526(4) -0.3661(2)
H31 H -0.2420(7) -0.7448(4) -0.3384(2)
H32 H -0.3863(7) -0.6877(4) -0.3060(2)
H33 H -0.5335(4) -0.5808(4) -0.47749(14)
H34 H -0.6421(4) -0.6785(3) -0.56271(15)
H35 H -0.5450(5) -0.4886(4) -0.69291(17)
H36 H -0.4432(5) -0.3920(3) -0.60816(16)
O16 O -0.2028(4) -0.8184(4) -0.68133(12)
C37 C -0.2959(5) -0.8436(4) -0.63095(18)
C38 C -0.2604(4) -0.7714(3) -0.58207(17)
C39 C -0.1804(4) -0.6978(4) -0.61252(17)
C40 C -0.1759(6) -0.7245(5) -0.68020(18)
O17 O -0.2373(3) -0.9245(3) -0.60688(12)
C41 C -0.2830(5) -0.9971(4) -0.6495(2)
N7 N -0.0725(3) -0.7534(2) -0.56741(12)
C42 C 0.0011(5) -0.7207(4) -0.50841(16)
O18 O 0.0534(4) -0.6454(3) -0.50137(13)
C43 C 0.0215(4) -0.7862(4) -0.45579(14)
C44 C -0.0401(5) -0.8722(4) -0.46322(15)
C45 C -0.0215(5) -0.9310(3) -0.41258(16)
C46 C 0.0626(5) -0.9004(4) -0.35470(15)
C47 C 0.1279(6) -0.8158(4) -0.34600(17)
C48 C 0.1076(5) -0.7607(3) -0.39692(16)
N8 N 0.0827(6) -0.9626(5) -0.30098(16)
O19 O 0.0182(7) -1.0351(4) -0.30861(17)
O20 O 0.1553(7) -0.9356(3) -0.25029(15)
H37 H -0.4244(5) -0.8490(4) -0.64437(18)
H38 H -0.3575(4) -0.7806(3) -0.55581(17)
H39 H -0.1934(4) -0.6326(4) -0.61669(17)
H40 H -0.2703(6) -0.6944(5) -0.70911(18)
H41 H -0.0600(6) -0.7103(5) -0.69386(18)
H42 H -0.2364(5) -1.0529(4) -0.6288(2)
H43 H -0.2320(5) -0.9881(4) -0.6900(2)
H44 H -0.4130(5) -1.0010(4) -0.6590(2)
H45 H -0.1004(5) -0.8919(4) -0.50550(15)
H46 H -0.0643(5) -0.9930(3) -0.41802(16)
H47 H 0.1883(6) -0.7960(4) -0.30378(17)
H48 H 0.1562(5) -0.6997(3) -0.39177(16)
#END
