
#######################################################################
#
#                 Cambridge Crystallographic Data Centre
#                                CCDC
#
#######################################################################
#
# If this CIF has been generated from an entry in the Cambridge
# Structural Database, then it will include bibliographic, chemical,
# crystal, experimental, refinement or atomic coordinate data resulting
# from the CCDC's data processing and validation procedures.
#
#######################################################################

data_CSD_CIF_XAHGAP
_audit_creation_date 2005-01-11
_audit_creation_method CSD-ConQuest-V1
_database_code_CSD XAHGAP
_database_code_depnum_ccdc_archive 'CCDC 250044'
_chemical_formula_sum 'C16 H17 N1 O2'
_chemical_formula_moiety
;
C16 H17 N1 O2
;
_journal_coden_Cambridge 35
_journal_volume 69
_journal_year 2004
_journal_page_first 5595
_journal_name_full 'J.Org.Chem. '
loop_
_publ_author_name
"M.Atobe"
"N.Yamazaki"
"C.Kibayashi"
_chemical_name_systematic
;
4-Methylbenzaldehyde O-(2-hydroxy-1-phenylethyl)oxime
;
_cell_volume   1379.629
_exptl_crystal_colour 'colorless'
_exptl_crystal_density_diffrn 1.229
_exptl_crystal_description 'needle'
_diffrn_ambient_temperature 100
#These two values have been output from a single CSD field.
_refine_ls_R_factor_gt 0.0607
_refine_ls_wR_factor_gt 0.0607
_symmetry_cell_setting monoclinic
_symmetry_space_group_name_H-M 'P 21'
_symmetry_Int_Tables_number 4
loop_
_symmetry_equiv_pos_site_id
_symmetry_equiv_pos_as_xyz
1 x,y,z
2 -x,1/2+y,-z
_cell_length_a 5.5250(2)
_cell_length_b 30.9290(13)
_cell_length_c 8.1140(4)
_cell_angle_alpha 90
_cell_angle_beta 95.724(2)
_cell_angle_gamma 90
_cell_formula_units_Z 4
loop_
_atom_type_symbol
_atom_type_radius_bond
C 0.68
H 0.23
N 0.68
O 0.68
loop_
_atom_site_label
_atom_site_type_symbol
_atom_site_fract_x
_atom_site_fract_y
_atom_site_fract_z
C1 C -0.0212(8) -0.36853(14) -0.0039(5)
H1 H -0.15870 -0.35400 0.04540
C2 C -0.0314(9) -0.41696(14) 0.0285(6)
H2 H -0.17790 -0.42920 -0.03490
H3 H 0.11310 -0.43100 -0.01120
C3 C -0.0356(8) -0.35825(14) -0.1877(5)
C4 C 0.1469(8) -0.37234(14) -0.2826(5)
H4 H 0.28200 -0.38800 -0.23160
C5 C 0.1312(8) -0.36346(14) -0.4508(5)
H5 H 0.25580 -0.37320 -0.51450
C6 C -0.0630(8) -0.34068(14) -0.5266(6)
H6 H -0.07290 -0.33490 -0.64200
C7 C -0.2447(8) -0.32622(15) -0.4330(5)
H7 H -0.37880 -0.31030 -0.48440
C8 C -0.2298(8) -0.33503(14) -0.2639(6)
H8 H -0.35400 -0.32500 -0.20040
C9 C 0.4148(8) -0.29545(14) 0.1496(5)
H9 H 0.53160 -0.31590 0.19450
C10 C 0.4713(8) -0.24928(13) 0.1616(5)
C11 C 0.3099(9) -0.21789(15) 0.0964(6)
H10 H 0.15540 -0.22620 0.04410
C12 C 0.3720(9) -0.17428(15) 0.1068(7)
H11 H 0.25900 -0.15330 0.06130
C13 C 0.5958(8) -0.16101(13) 0.1823(6)
C14 C 0.7559(9) -0.19247(15) 0.2486(6)
H12 H 0.90910 -0.18400 0.30240
C15 C 0.6971(9) -0.23606(15) 0.2380(6)
H13 H 0.81080 -0.25700 0.28300
C16 C 0.6634(11) -0.11392(16) 0.1906(7)
H14 H 0.83270 -0.11090 0.23810
H15 H 0.55650 -0.09860 0.26030
H16 H 0.64510 -0.10160 0.07880
N1 N 0.2116(7) -0.30861(11) 0.0801(5)
O1 O 0.2045(6) -0.35479(10) 0.0824(4)
O2 O -0.0383(7) -0.42636(11) 0.1994(4)
H17 H 0.10320 -0.42520 0.24780
C17 C 0.5562(9) 0.01397(13) 0.4717(5)
H18 H 0.72780 0.02430 0.47200
C18 C 0.3994(9) 0.05053(14) 0.5262(6)
H19 H 0.37790 0.07260 0.43760
H20 H 0.23670 0.03920 0.54460
C19 C 0.4645(8) -0.00082(13) 0.2996(5)
C20 C 0.2413(8) -0.02177(15) 0.2655(6)
H21 H 0.14620 -0.02850 0.35340
C21 C 0.1578(9) -0.03280(16) 0.1047(6)
H22 H 0.00550 -0.04710 0.08370
C22 C 0.2929(8) -0.02338(15) -0.0274(6)
H23 H 0.23350 -0.03080 -0.13770
C23 C 0.5138(8) -0.00309(14) 0.0055(6)
H24 H 0.60850 0.00350 -0.08280
C24 C 0.5993(8) 0.00785(13) 0.1665(5)
H25 H 0.75330 0.02160 0.18690
C25 C 0.7095(8) -0.08231(14) 0.6709(5)
H26 H 0.58770 -0.08170 0.74560
C26 C 0.8717(8) -0.11993(14) 0.6695(6)
C27 C 0.8071(9) -0.15762(15) 0.7474(6)
H27 H 0.66990 -0.15760 0.80920
C28 C 0.9407(8) -0.19542(15) 0.7362(6)
H28 H 0.89140 -0.22100 0.78870
C29 C 1.1467(8) -0.19647(15) 0.6489(6)
C30 C 1.2148(9) -0.15805(15) 0.5747(6)
H29 H 1.35560 -0.15780 0.51640
C31 C 1.0807(8) -0.12016(15) 0.5847(6)
H30 H 1.13100 -0.09440 0.53400
C32 C 1.2893(10) -0.23752(17) 0.6346(8)
H31 H 1.39600 -0.24210 0.73700
H32 H 1.38800 -0.23520 0.54110
H33 H 1.17690 -0.26200 0.61650
N2 N 0.7301(7) -0.05020(12) 0.5724(4)
O3 O 0.5456(6) -0.01927(10) 0.5936(4)
O4 O 0.5074(7) 0.06988(11) 0.6741(4)
H34 H 0.40220 0.07270 0.74130
#END
