
#######################################################################
#
#                 Cambridge Crystallographic Data Centre
#                                CCDC
#
#######################################################################
#
# If this CIF has been generated from an entry in the Cambridge
# Structural Database, then it will include bibliographic, chemical,
# crystal, experimental, refinement or atomic coordinate data resulting
# from the CCDC's data processing and validation procedures.
#
#######################################################################

data_CSD_CIF_XAHMIE01
_audit_creation_date 2011-02-15
_audit_creation_method CSD-ConQuest-V1
_database_code_CSD XAHMIE01
_database_code_depnum_ccdc_archive 'CCDC 791222'
_chemical_formula_sum 'C4 H4 N8 O7'
_chemical_formula_moiety
;
C4 H4 N8 O7
;
_journal_coden_Cambridge 1135
_journal_volume 20
_journal_year 2010
_journal_page_first 249
_journal_name_full 'Mendeleev Commun. '
loop_
_publ_author_name
"A.B.Sheremetev"
"N.S.Aleksandrova"
"K.Yu.Suponitsky"
"M.Yu.Antipin"
"V.A.Tartakovsky"
_chemical_name_systematic
;
4,6,8-Trinitro-5,6,7,8-tetrahydro-4H-[1,2,5]oxadiazolo[3,4-f][1,3,5]triazepine
;
_cell_volume   3877.713
_exptl_crystal_colour 'colorless'
_exptl_crystal_density_diffrn 1.892
_exptl_crystal_description 'prism'
_diffrn_ambient_temperature 296
#These two values have been output from a single CSD field.
_refine_ls_R_factor_gt 0.0405
_refine_ls_wR_factor_gt 0.0405
_symmetry_cell_setting orthorhombic
_symmetry_space_group_name_H-M 'P b c a'
_symmetry_Int_Tables_number 61
loop_
_symmetry_equiv_pos_site_id
_symmetry_equiv_pos_as_xyz
1 x,y,z
2 1/2-x,-y,1/2+z
3 -x,1/2+y,1/2-z
4 1/2+x,1/2-y,-z
5 -x,-y,-z
6 -1/2+x,y,-1/2-z
7 x,-1/2-y,-1/2+z
8 -1/2-x,-1/2+y,z
_cell_length_a 12.174(11)
_cell_length_b 13.952(12)
_cell_length_c 22.83(2)
_cell_angle_alpha 90
_cell_angle_beta 90
_cell_angle_gamma 90
_cell_formula_units_Z 16
loop_
_atom_type_symbol
_atom_type_radius_bond
C 0.68
H 0.23
N 0.68
O 0.68
loop_
_atom_site_label
_atom_site_type_symbol
_atom_site_fract_x
_atom_site_fract_y
_atom_site_fract_z
O1 O 0.40663(11) 0.03641(9) 0.58861(6)
O2 O 0.20617(13) -0.01010(11) 0.45644(7)
O3 O 0.20198(16) 0.09889(13) 0.38908(6)
O4 O 0.03031(11) 0.24692(12) 0.46021(7)
O5 O 0.01708(11) 0.32119(11) 0.54318(7)
O6 O 0.11824(12) 0.30306(11) 0.66063(7)
O7 O 0.18181(11) 0.16156(10) 0.67905(6)
N1 N 0.36650(13) 0.11207(12) 0.61998(6)
N2 N 0.36982(12) 0.03755(10) 0.53179(6)
N3 N 0.25192(12) 0.13984(10) 0.47810(6)
N4 N 0.24438(11) 0.24001(10) 0.60066(6)
N5 N 0.18348(11) 0.29425(10) 0.50509(6)
N6 N 0.21794(13) 0.07031(12) 0.43831(6)
N7 N 0.06904(12) 0.28641(11) 0.50278(8)
N8 N 0.17560(12) 0.23424(12) 0.65072(6)
C1 C 0.30207(12) 0.15752(11) 0.58440(6)
C2 C 0.30439(12) 0.11092(11) 0.52910(6)
C3 C 0.24571(14) 0.24140(12) 0.46260(7)
H1 H 0.31930 0.26770 0.46020
H2 H 0.21160 0.24800 0.42440
C4 C 0.23235(14) 0.32005(11) 0.56028(8)
H3 H 0.18740 0.36900 0.57870
H4 H 0.30420 0.34760 0.55300
O8 O -0.14559(11) 0.24258(9) 0.70160(7)
O9 O 0.09491(12) 0.2355(1) 0.81490(7)
O10 O 0.13277(11) 0.10643(11) 0.86273(6)
O11 O 0.23380(11) -0.02062(12) 0.76317(7)
O12 O 0.20203(12) -0.06443(11) 0.67391(7)
O13 O 0.04637(14) -0.03382(11) 0.57408(6)
O14 O 0.03103(13) 0.12014(10) 0.57805(6)
N9 N -0.12568(13) 0.17484(11) 0.65908(8)
N10 N -0.09369(13) 0.22115(10) 0.75338(7)
N11 N 0.02813(10) 0.09695(9) 0.78291(5)
N12 N 0.06203(11) -0.05304(9) 0.73587(6)
N13 N -0.01919(12) 0.03269(9) 0.65511(6)
N14 N 0.08985(12) 0.15057(11) 0.82325(7)
N15 N 0.17362(12) -0.04507(10) 0.72334(7)
N16 N 0.02315(12) 0.04023(11) 0.59834(6)
C5 C -0.05874(12) 0.11439(11) 0.68350(7)
C6 C -0.03831(12) 0.14358(11) 0.74238(7)
C7 C 0.02469(13) -0.00690(11) 0.78860(6)
H5 H 0.07080 -0.02650 0.82110
H6 H -0.04990 -0.02700 0.79700
C8 C -0.01142(13) -0.05816(10) 0.68606(7)
H7 H -0.08400 -0.07690 0.69940
H8 H 0.01460 -0.10710 0.65930
#END
