
#######################################################################
#
#                 Cambridge Crystallographic Data Centre
#                                CCDC
#
#######################################################################
#
# If this CIF has been generated from an entry in the Cambridge
# Structural Database, then it will include bibliographic, chemical,
# crystal, experimental, refinement or atomic coordinate data resulting
# from the CCDC's data processing and validation procedures.
#
#######################################################################

data_CSD_CIF_XAHMIE
_audit_creation_date 2011-02-15
_audit_creation_method CSD-ConQuest-V1
_database_code_CSD XAHMIE
_database_code_depnum_ccdc_archive 'CCDC 791221'
_chemical_formula_sum 'C4 H4 N8 O7'
_chemical_formula_moiety
;
C4 H4 N8 O7
;
_journal_coden_Cambridge 1135
_journal_volume 20
_journal_year 2010
_journal_page_first 249
_journal_name_full 'Mendeleev Commun. '
loop_
_publ_author_name
"A.B.Sheremetev"
"N.S.Aleksandrova"
"K.Yu.Suponitsky"
"M.Yu.Antipin"
"V.A.Tartakovsky"
_chemical_name_systematic
;
4,6,8-Trinitro-5,6,7,8-tetrahydro-4H-[1,2,5]oxadiazolo[3,4-f][1,3,5]triazepine
;
_cell_volume   3745.592
_exptl_crystal_colour 'colorless'
_exptl_crystal_density_diffrn 1.959
_exptl_crystal_description 'prism'
_diffrn_ambient_temperature 100
#These two values have been output from a single CSD field.
_refine_ls_R_factor_gt 0.033
_refine_ls_wR_factor_gt 0.033
_symmetry_cell_setting orthorhombic
_symmetry_space_group_name_H-M 'P b c a'
_symmetry_Int_Tables_number 61
loop_
_symmetry_equiv_pos_site_id
_symmetry_equiv_pos_as_xyz
1 x,y,z
2 1/2-x,-y,1/2+z
3 -x,1/2+y,1/2-z
4 1/2+x,1/2-y,-z
5 -x,-y,-z
6 -1/2+x,y,-1/2-z
7 x,-1/2-y,-1/2+z
8 -1/2-x,-1/2+y,z
_cell_length_a 11.9614(5)
_cell_length_b 13.8190(5)
_cell_length_c 22.6601(9)
_cell_angle_alpha 90
_cell_angle_beta 90
_cell_angle_gamma 90
_cell_formula_units_Z 16
loop_
_atom_type_symbol
_atom_type_radius_bond
C 0.68
H 0.23
N 0.68
O 0.68
loop_
_atom_site_label
_atom_site_type_symbol
_atom_site_fract_x
_atom_site_fract_y
_atom_site_fract_z
O1 O 0.40899(6) 0.03233(5) 0.58905(3)
O2 O 0.20337(6) -0.01288(5) 0.45507(3)
O3 O 0.20545(7) 0.09813(6) 0.38671(3)
O4 O 0.02741(6) 0.24815(6) 0.45962(3)
O5 O 0.01420(6) 0.32263(5) 0.54400(3)
O6 O 0.11549(6) 0.30254(5) 0.66244(3)
O7 O 0.18168(6) 0.15945(5) 0.68139(3)
N1 N 0.36882(7) 0.10888(6) 0.62125(4)
N2 N 0.37077(7) 0.03397(6) 0.53168(4)
N3 N 0.25021(7) 0.13898(6) 0.47836(3)
N4 N 0.24474(7) 0.23928(5) 0.60224(3)
N5 N 0.18290(6) 0.29573(5) 0.50553(3)
N6 N 0.21778(7) 0.06902(6) 0.43697(4)
N7 N 0.06704(7) 0.28772(6) 0.50318(4)
N8 N 0.17478(6) 0.23326(6) 0.65221(3)
C1 C 0.30264(7) 0.15570(6) 0.58556(4)
C2 C 0.30416(7) 0.10873(6) 0.52920(4)
C3 C 0.24611(8) 0.24175(6) 0.46244(4)
H1 H 0.32310 0.26780 0.46020
H2 H 0.21100 0.24900 0.42310
C4 C 0.23267(7) 0.32102(6) 0.56144(4)
H3 H 0.18610 0.37130 0.58050
H4 H 0.30740 0.34930 0.55410
O8 O -0.14594(6) 0.24465(5) 0.70576(3)
O9 O 0.10007(6) 0.23357(5) 0.81972(4)
O10 O 0.13604(6) 0.10030(5) 0.86686(3)
O11 O 0.23987(6) -0.02019(6) 0.76071(3)
O12 O 0.20370(6) -0.06192(6) 0.67005(3)
O13 O 0.04198(7) -0.03351(5) 0.57225(3)
O14 O 0.03094(7) 0.12327(5) 0.57892(3)
N9 N -0.12792(7) 0.17702(6) 0.66220(4)
N10 N -0.09104(7) 0.22127(6) 0.75740(4)
N11 N 0.03350(6) 0.09385(5) 0.78472(3)
N12 N 0.06486(6) -0.05641(5) 0.73513(3)
N13 N -0.02145(7) 0.03208(5) 0.65555(3)
N14 N 0.09402(6) 0.14668(6) 0.82687(4)
N15 N 0.17690(7) -0.04494(6) 0.72087(4)
N16 N 0.02063(7) 0.04121(6) 0.59816(4)
C5 C -0.05921(7) 0.11431(6) 0.68539(4)
C6 C -0.03563(7) 0.14248(6) 0.74517(4)
C7 C 0.02899(7) -0.01144(6) 0.78964(4)
H5 H 0.07800 -0.03290 0.82230
H6 H -0.04840 -0.03180 0.79880
C8 C -0.01199(8) -0.06091(6) 0.68585(4)
H7 H -0.08670 -0.08080 0.70030
H8 H 0.01410 -0.11060 0.65750
#END
