
#######################################################################
#
#                 Cambridge Crystallographic Data Centre
#                                CCDC
#
#######################################################################
#
# If this CIF has been generated from an entry in the Cambridge
# Structural Database, then it will include bibliographic, chemical,
# crystal, experimental, refinement or atomic coordinate data resulting
# from the CCDC's data processing and validation procedures.
#
#######################################################################

data_CSD_CIF_XAHQUV
_audit_creation_date 2016-01-18
_audit_creation_method CSD-ConQuest-V1
_database_code_CSD XAHQUV
_database_code_depnum_ccdc_archive 'CCDC 1447826'
_chemical_formula_sum 'C19 H17 N3 O3'
_chemical_formula_moiety
;
C19 H17 N3 O3
;
_journal_coden_Cambridge 35
_journal_volume 81
_journal_year 2016
_journal_page_first 4340
_journal_name_full 'J.Org.Chem. '
loop_
_publ_author_name
"Yin Zheng"
"Lei Cui"
"Youming Wang"
"Zhenghong Zhou"
_chemical_name_systematic
;
3-methyl-5-nitro-1,4-diphenyl-1,4,5,6-tetrahydropyrano[2,3-c]pyrazole
;
_cell_volume   1629.575
_exptl_crystal_colour 'colorless'
_exptl_crystal_density_diffrn 1.367
_exptl_special_details
;
Absolute configuration

;
_exptl_crystal_description 'prism'
_diffrn_ambient_temperature 173
#These two values have been output from a single CSD field.
_refine_ls_R_factor_gt 0.0244
_refine_ls_wR_factor_gt 0.0244
_symmetry_cell_setting orthorhombic
_symmetry_space_group_name_H-M 'P 21 21 21'
_symmetry_Int_Tables_number 19
loop_
_symmetry_equiv_pos_site_id
_symmetry_equiv_pos_as_xyz
1 x,y,z
2 1/2+x,1/2-y,-z
3 -x,1/2+y,1/2-z
4 1/2-x,-y,1/2+z
_cell_length_a 8.308(2)
_cell_length_b 12.155(3)
_cell_length_c 16.137(4)
_cell_angle_alpha 90
_cell_angle_beta 90
_cell_angle_gamma 90
_cell_formula_units_Z 4
loop_
_atom_type_symbol
_atom_type_radius_bond
C 0.68
H 0.23
N 0.68
O 0.68
loop_
_atom_site_label
_atom_site_type_symbol
_atom_site_fract_x
_atom_site_fract_y
_atom_site_fract_z
O1 O 0.14703(12) 0.30534(8) 0.01426(6)
O2 O -0.00079(15) 0.06240(11) -0.01912(8)
O3 O -0.08338(14) 0.08214(13) 0.10623(8)
N1 N 0.03575(14) 0.43561(9) 0.10726(7)
N2 N -0.00014(14) 0.44384(10) 0.19066(7)
N3 N 0.02071(15) 0.08642(10) 0.05361(8)
C1 C 0.11056(16) 0.33846(11) 0.09199(8)
C2 C 0.12767(16) 0.28203(11) 0.16455(8)
C3 C 0.19552(17) 0.16712(11) 0.16778(8)
H1 H 0.12450 0.12040 0.20340
C4 C 0.19044(17) 0.12321(11) 0.07819(9)
H2 H 0.26330 0.05790 0.07470
C5 C 0.24667(17) 0.20741(12) 0.01496(9)
H3 H 0.35910 0.22860 0.02760
H4 H 0.24520 0.17360 -0.04080
C6 C 0.05650(17) 0.35183(11) 0.22437(9)
C7 C 0.0405(2) 0.33122(13) 0.31535(9)
H5 H -0.05300 0.37130 0.33680
H6 H 0.13800 0.35660 0.34380
H7 H 0.02620 0.25230 0.32510
C8 C -0.01837(17) 0.51790(11) 0.05071(9)
C9 C 0.06604(18) 0.53805(12) -0.02185(10)
H8 H 0.16170 0.49850 -0.03420
C10 C 0.0074(2) 0.61776(13) -0.07644(11)
H9 H 0.06320 0.63180 -0.12670
C11 C -0.1308(2) 0.67645(13) -0.05812(11)
H10 H -0.16860 0.73140 -0.09520
C12 C -0.2139(2) 0.65488(14) 0.01439(11)
H11 H -0.30930 0.69470 0.02670
C13 C -0.15860(19) 0.57536(12) 0.06923(9)
H12 H -0.21600 0.56040 0.11890
C14 C 0.36843(17) 0.15994(11) 0.20008(8)
C15 C 0.47953(19) 0.24422(12) 0.1882(1)
H13 H 0.44680 0.31020 0.16160
C16 C 0.6381(2) 0.23287(14) 0.2149(1)
H14 H 0.71290 0.29080 0.20600
C17 C 0.6869(2) 0.13723(14) 0.25437(10)
H15 H 0.79510 0.12930 0.27240
C18 C 0.5776(2) 0.05380(14) 0.26728(11)
H16 H 0.61040 -0.01140 0.29500
C19 C 0.41913(19) 0.06428(13) 0.23999(9)
H17 H 0.34510 0.00580 0.24860
#END
