
#######################################################################
#
#                 Cambridge Crystallographic Data Centre
#                                CCDC
#
#######################################################################
#
# If this CIF has been generated from an entry in the Cambridge
# Structural Database, then it will include bibliographic, chemical,
# crystal, experimental, refinement or atomic coordinate data resulting
# from the CCDC's data processing and validation procedures.
#
#######################################################################

data_CSD_CIF_XAHZIS
_audit_creation_date 2016-01-18
_audit_creation_method CSD-ConQuest-V1
_database_code_CSD XAHZIS
_database_code_depnum_ccdc_archive 'CCDC 1422568'
_chemical_formula_sum 'C14 H8 N4 O9'
_chemical_formula_moiety
;
C14 H8 N4 O9
;
_journal_coden_Cambridge 1385
_journal_volume 21
_journal_year 2017
_journal_page_first 811
_journal_name_full 'J.Saudi Chem.Soc. '
loop_
_publ_author_name
"Jiangfeng Huang"
"Yingting Wang"
"Zheng Hao"
"Xinhua Peng"
_chemical_name_systematic
;
2-(3-Nitrophenyl)-3-(2,4,6-trinitrophenyl)oxirane
;
_cell_volume   1585.480
_exptl_crystal_colour 'yellow'
_exptl_crystal_density_diffrn 1.576
_exptl_crystal_description 'block'
_diffrn_ambient_temperature 296
#These two values have been output from a single CSD field.
_refine_ls_R_factor_gt 0.0971
_refine_ls_wR_factor_gt 0.0971
_symmetry_cell_setting monoclinic
_symmetry_space_group_name_H-M 'P 21/c'
_symmetry_Int_Tables_number 14
loop_
_symmetry_equiv_pos_site_id
_symmetry_equiv_pos_as_xyz
1 x,y,z
2 -x,1/2+y,1/2-z
3 -x,-y,-z
4 x,-1/2-y,-1/2+z
_cell_length_a 8.467(4)
_cell_length_b 8.256(4)
_cell_length_c 22.681(7)
_cell_angle_alpha 90
_cell_angle_beta 90.11(3)
_cell_angle_gamma 90
_cell_formula_units_Z 4
loop_
_atom_type_symbol
_atom_type_radius_bond
C 0.68
H 0.23
N 0.68
O 0.68
loop_
_atom_site_label
_atom_site_type_symbol
_atom_site_fract_x
_atom_site_fract_y
_atom_site_fract_z
O1 O -0.2919(11) 0.6368(11) 0.0272(3)
O2 O -0.0865(10) 0.7345(8) 0.0717(4)
O3 O 0.3723(8) 0.0299(8) 0.0476(2)
O4 O 0.3860(9) -0.1975(8) 0.0956(4)
O5 O 0.6014(7) 0.5120(6) 0.1603(3)
O6 O 0.6410(7) 0.4496(7) 0.2529(2)
O7 O 0.9850(7) -0.0512(8) 0.2441(3)
O8 O 0.8777(8) -0.2613(8) 0.2046(3)
O9 O 0.3018(6) 0.3766(6) 0.1707(2)
C1 C -0.1065(10) 0.453(1) 0.0636(3)
C2 C -0.1879(10) 0.3239(13) 0.0372(3)
H1 H -0.27650 0.34180 0.01380
C3 C -0.1313(10) 0.1683(11) 0.0474(3)
H2 H -0.18170 0.08000 0.03020
C4 C -0.0037(9) 0.1444(9) 0.0822(3)
H3 H 0.03110 0.03920 0.08910
C5 C 0.0771(8) 0.2728(8) 0.1079(2)
C6 C 0.0209(9) 0.4324(9) 0.0985(3)
H4 H 0.07060 0.52070 0.11600
C7 C 0.2139(8) 0.2399(8) 0.1446(2)
H5 H 0.20720 0.14230 0.16910
C8 C 0.3751(9) 0.2839(8) 0.1240(3)
H6 H 0.38420 0.33550 0.08520
C9 C 0.5153(8) 0.1832(7) 0.1456(2)
C10 C 0.5307(9) 0.0187(8) 0.1307(3)
C11 C 0.6471(8) -0.0820(8) 0.1539(3)
H7 H 0.65290 -0.19120 0.14400
C12 C 0.7530(8) -0.0122(8) 0.1922(3)
C13 C 0.7470(9) 0.1515(7) 0.2097(3)
H8 H 0.81970 0.19600 0.23590
C14 C 0.6252(8) 0.2419(7) 0.1850(2)
N1 N -0.1697(11) 0.6230(12) 0.0535(3)
N2 N 0.4209(8) -0.0570(9) 0.0882(3)
N3 N 0.8826(8) -0.1157(8) 0.2148(2)
N4 N 0.6234(7) 0.4187(7) 0.2022(3)
#END
