
#######################################################################
#
#                 Cambridge Crystallographic Data Centre
#                                CCDC
#
#######################################################################
#
# If this CIF has been generated from an entry in the Cambridge
# Structural Database, then it will include bibliographic, chemical,
# crystal, experimental, refinement or atomic coordinate data resulting
# from the CCDC's data processing and validation procedures.
#
#######################################################################

data_CSD_CIF_XAJKAW
_audit_creation_date 2011-02-21
_audit_creation_method CSD-ConQuest-V1
_database_code_CSD XAJKAW
_database_code_depnum_ccdc_archive 'CCDC 782800'
_chemical_formula_sum 'C17 H14 N2 O8'
_chemical_formula_moiety
;
C17 H14 N2 O8
;
_journal_coden_Cambridge 1127
_journal_volume 20
_journal_year 2010
_journal_page_first 5638
_journal_name_full 'Bioorg.Med.Chem.Lett. '
loop_
_publ_author_name
"T.Saitoh"
"C.Shimada"
"M.Takeiri"
"M.Shiino"
"S.Ohba"
"R.Obata"
"Y.Ishikawa"
"K.Umezawa"
"S.Nishiyama"
_chemical_name_systematic
;
3-(((Allyloxy)carbonyl)amino)-5-oxo-7-oxabicyclo[4.1.0]hept-3-en-2-yl 
4-nitrobenzoate
;
_cell_volume   1687.151
_exptl_crystal_colour 'colorless'
_exptl_crystal_density_diffrn 1.473
_exptl_crystal_description 'prismatic'
_diffrn_ambient_temperature 297
#These two values have been output from a single CSD field.
_refine_ls_R_factor_gt 0.0515
_refine_ls_wR_factor_gt 0.0515
_symmetry_cell_setting monoclinic
_symmetry_space_group_name_H-M 'P 21/a'
_symmetry_Int_Tables_number 14
loop_
_symmetry_equiv_pos_site_id
_symmetry_equiv_pos_as_xyz
1 x,y,z
2 1/2-x,1/2+y,-z
3 -x,-y,-z
4 -1/2+x,-1/2-y,z
_cell_length_a 17.065(3)
_cell_length_b 14.071(3)
_cell_length_c 7.1425(14)
_cell_angle_alpha 90
_cell_angle_beta 100.352(16)
_cell_angle_gamma 90
_cell_formula_units_Z 4
loop_
_atom_type_symbol
_atom_type_radius_bond
C 0.68
H 0.23
N 0.68
O 0.68
loop_
_atom_site_label
_atom_site_type_symbol
_atom_site_fract_x
_atom_site_fract_y
_atom_site_fract_z
O1 O 0.34249(11) 0.77808(15) -0.0467(2)
O2 O 0.21278(15) 0.84453(17) -0.4426(2)
O3 O 0.09988(13) 1.03115(16) 0.3061(2)
O4 O 0.09943(16) 1.04015(16) -0.0078(3)
O5 O 0.16131(10) 0.71572(12) 0.1451(2)
O6 O 0.23768(12) 0.62268(16) 0.3608(3)
O7 O -0.09418(17) 0.33019(18) 0.2962(3)
O8 O -0.16773(15) 0.4483(2) 0.1838(4)
N1 N 0.16305(14) 0.92033(16) 0.1765(2)
N2 N -0.10293(17) 0.41174(19) 0.2431(3)
C1 C 0.27955(15) 0.7233(2) 0.0082(3)
C2 C 0.27518(15) 0.7496(2) -0.1913(3)
C3 C 0.22393(16) 0.8305(2) -0.2705(3)
C4 C 0.19086(17) 0.89107(19) -0.1406(3)
C5 C 0.19424(16) 0.86704(18) 0.0439(3)
C6 C 0.22945(15) 0.77508(18) 0.1277(3)
C7 C 0.11821(17) 1.00173(19) 0.1428(3)
C8 C 0.0477(2) 1.1127(2) 0.2987(5)
C9 C 0.0545(4) 1.1414(3) 0.5079(10)
C10 C 0.0137(5) 1.1603(4) 0.6004(8)
C11 C 0.17447(16) 0.64091(18) 0.2650(3)
C12 C 0.10079(14) 0.58318(17) 0.2589(3)
C13 C 0.10861(16) 0.49115(18) 0.3317(3)
C14 C 0.04267(17) 0.43384(18) 0.3258(3)
C15 C -0.03078(15) 0.47110(18) 0.2491(3)
C16 C -0.04104(16) 0.56225(19) 0.1778(3)
C17 C 0.02606(15) 0.61792(17) 0.1812(3)
H1 H 0.17370 0.89850 0.30440
H2 H 0.29170 0.65890 0.04080
H3 H 0.28460 0.70140 -0.27780
H4 H 0.16630 0.94920 -0.18620
H5 H 0.26000 0.78640 0.25050
H6 H 0.06360 1.16290 0.22480
H7 H -0.00580 1.09540 0.24860
H8 H 0.10780 1.14150 0.57500
H9 H 0.02910 1.17560 0.73140
H10 H -0.04100 1.16180 0.54260
H11 H 0.15990 0.46780 0.38640
H12 H 0.04730 0.37030 0.37120
H13 H -0.09290 0.58570 0.12950
H14 H 0.02110 0.68000 0.12820
#END
