
#######################################################################
#
#                 Cambridge Crystallographic Data Centre
#                                CCDC
#
#######################################################################
#
# If this CIF has been generated from an entry in the Cambridge
# Structural Database, then it will include bibliographic, chemical,
# crystal, experimental, refinement or atomic coordinate data resulting
# from the CCDC's data processing and validation procedures.
#
#######################################################################

data_CSD_CIF_XAJSAE
_audit_creation_date 2010-10-28
_audit_creation_method CSD-ConQuest-V1
_database_code_CSD XAJSAE
_database_code_depnum_ccdc_archive 'CCDC 749056'
_chemical_formula_sum 'C8 H5 N3 O4'
_chemical_formula_moiety
;
C8 H5 N3 O4
;
_journal_coden_Cambridge 95
_journal_year 2008
_journal_page_first 625
_journal_name_full 'Izv.Akad.Nauk SSSR,Ser.Khim.(Russ.)(Russ.Chem.Bull.) '
loop_
_publ_author_name
"M.S.Klenov"
"A.M.Churakov"
"O.V.Anikin"
"Yu.A.Strelenko"
"I.V.Fedyanin"
"K.A.Lyssenko"
"V.A.Tartakovsky"
_chemical_name_systematic
;
2-(Nitroamino)-1H-isoindole-1,3(2H)-dione
;
_chemical_name_common
;
N-Nitroaminophthalimide
;
_chemical_melting_point 355.15
_cell_volume   1729.056
_exptl_crystal_colour 'colorless'
_exptl_crystal_density_diffrn 1.592
_exptl_special_details
;
Melts with decomposition.

;
_exptl_crystal_description 'prism'
_exptl_crystal_preparation 'benzene'
_diffrn_ambient_temperature 100
#These two values have been output from a single CSD field.
_refine_ls_R_factor_gt 0.0354
_refine_ls_wR_factor_gt 0.0354
_symmetry_cell_setting monoclinic
_symmetry_space_group_name_H-M 'C 2/c'
_symmetry_Int_Tables_number 15
loop_
_symmetry_equiv_pos_site_id
_symmetry_equiv_pos_as_xyz
1 x,y,z
2 -x,y,1/2-z
3 1/2+x,1/2+y,z
4 1/2-x,1/2+y,1/2-z
5 -x,-y,-z
6 x,-y,-1/2+z
7 -1/2-x,-1/2-y,-z
8 -1/2+x,-1/2-y,-1/2+z
_cell_length_a 17.3341(11)
_cell_length_b 5.7354(4)
_cell_length_c 18.6716(12)
_cell_angle_alpha 90
_cell_angle_beta 111.337(5)
_cell_angle_gamma 90
_cell_formula_units_Z 8
loop_
_atom_type_symbol
_atom_type_radius_bond
C 0.68
H 0.23
N 0.68
O 0.68
loop_
_atom_site_label
_atom_site_type_symbol
_atom_site_fract_x
_atom_site_fract_y
_atom_site_fract_z
O1 O 0.11419(5) 0.61338(14) 0.21767(5)
O2 O 0.22374(5) -0.04037(13) 0.35965(4)
O3 O 0.12549(8) 0.0486(2) 0.09647(5)
O4 O 0.05394(5) 0.09736(15) 0.17011(6)
N1 N 0.17743(5) 0.27291(15) 0.27644(5)
N2 N 0.19241(5) 0.17765(15) 0.21579(5)
H1 H 0.21780 0.27180 0.19520
N3 N 0.11649(6) 0.10467(17) 0.15564(6)
C1 C 0.13209(6) 0.48290(18) 0.27161(7)
C2 C 0.11656(6) 0.49031(19) 0.34425(7)
C3 C 0.07575(7) 0.6567(2) 0.37097(9)
H2 H 0.05240 0.79170 0.34160
C4 C 0.07039(8) 0.6184(2) 0.44251(9)
H3 H 0.04290 0.72980 0.46250
C5 C 0.10444(7) 0.4201(2) 0.48560(8)
H4 H 0.10000 0.39930 0.53440
C6 C 0.14510(7) 0.2508(2) 0.45815(7)
H5 H 0.16790 0.11460 0.48710
C7 C 0.15041(6) 0.29077(18) 0.38731(6)
C8 C 0.18891(6) 0.14620(17) 0.34365(6)
#END
