
#######################################################################
#
#                 Cambridge Crystallographic Data Centre
#                                CCDC
#
#######################################################################
#
# If this CIF has been generated from an entry in the Cambridge
# Structural Database, then it will include bibliographic, chemical,
# crystal, experimental, refinement or atomic coordinate data resulting
# from the CCDC's data processing and validation procedures.
#
#######################################################################

data_CSD_CIF_XAKLIF
_audit_creation_date 2005-08-12
_audit_creation_method CSD-ConQuest-V1
_database_code_CSD XAKLIF
_database_code_depnum_ccdc_archive 'CCDC 210767'
_chemical_formula_sum 'C25 H24 N4 O4'
_chemical_formula_moiety
;
C25 H24 N4 O4
;
_journal_coden_Cambridge 1278
_journal_volume 109
_journal_year 2005
_journal_page_first 4377
_journal_name_full 'J.Phys.Chem.B '
loop_
_publ_author_name
"B.Bag"
"P.K.Bharadwaj"
_chemical_name_systematic
;
N,N-Dimethyl-N'-(anthracen-9-ylmethyl)-N'-(2,4-dinitrophenyl)ethylenediamine
;
_chemical_melting_point 438.15
_cell_volume   1091.483
_exptl_crystal_colour 'yellow'
_exptl_crystal_density_diffrn 1.352
_exptl_special_details
;
temperature published as 273 K

;
_exptl_crystal_description 'block'
_exptl_crystal_preparation 'acetonitrile or dichloromethane'
_diffrn_ambient_temperature 293
#These two values have been output from a single CSD field.
_refine_ls_R_factor_gt 0.0401
_refine_ls_wR_factor_gt 0.0401
_symmetry_cell_setting triclinic
_symmetry_space_group_name_H-M 'P -1'
_symmetry_Int_Tables_number 2
loop_
_symmetry_equiv_pos_site_id
_symmetry_equiv_pos_as_xyz
1 x,y,z
2 -x,-y,-z
_cell_length_a 9.8590(5)
_cell_length_b 10.8310(5)
_cell_length_c 11.3140(5)
_cell_angle_alpha 88.635(5)
_cell_angle_beta 69.452(5)
_cell_angle_gamma 75.314(5)
_cell_formula_units_Z 2
loop_
_atom_type_symbol
_atom_type_radius_bond
C 0.68
H 0.23
N 0.68
O 0.68
loop_
_atom_site_label
_atom_site_type_symbol
_atom_site_fract_x
_atom_site_fract_y
_atom_site_fract_z
O1 O 0.5647(3) 0.9268(2) 0.6926(2)
O2 O 0.6435(3) 1.0298(2) 0.5291(3)
O3 O 0.9277(2) 0.6187(2) 0.10234(19)
O4 O 0.8258(3) 0.8209(2) 0.1139(2)
N1 N 0.9308(3) 0.1761(2) 0.3060(2)
N2 N 0.7084(2) 0.50139(19) 0.27282(19)
N3 N 0.6212(3) 0.9316(3) 0.5787(3)
N4 N 0.8381(3) 0.7177(3) 0.1597(2)
C1 C 1.0863(4) 0.1287(3) 0.2957(4)
H1 H 1.10820 0.18310 0.34850
H2 H 1.15070 0.12860 0.20940
H3 H 1.10290 0.04320 0.32260
C2 C 0.8978(4) 0.0941(3) 0.2271(4)
H4 H 0.91880 0.00790 0.25160
H5 H 0.95890 0.09680 0.14020
H6 H 0.79380 0.12300 0.23680
C3 C 0.9008(3) 0.3071(2) 0.2737(3)
H7 H 0.95000 0.31010 0.18330
H8 H 0.94300 0.35510 0.31650
C4 C 0.7349(3) 0.3695(2) 0.3099(2)
H9 H 0.69180 0.32070 0.26880
H10 H 0.68570 0.36920 0.40070
C5 C 0.7139(3) 0.5981(2) 0.3430(2)
C6 C 0.6746(3) 0.5950(3) 0.4753(3)
H11 H 0.66850 0.51800 0.51230
C7 C 0.6455(3) 0.7023(3) 0.5503(3)
H12 H 0.61560 0.69840 0.63770
C8 C 0.6600(3) 0.8166(3) 0.4979(3)
C9 C 0.7140(3) 0.8219(3) 0.3695(3)
H13 H 0.72780 0.89830 0.33420
C10 C 0.7479(3) 0.7130(2) 0.2927(2)
C11 C 0.6779(3) 0.5229(2) 0.1546(2)
H14 H 0.76600 0.47850 0.08420
H15 H 0.65870 0.61360 0.14170
C12 C 0.5451(3) 0.4765(2) 0.1564(2)
C13 C 0.5644(3) 0.3643(2) 0.0863(2)
C14 C 0.7072(3) 0.2819(3) 0.0130(3)
H16 H 0.79400 0.30290 0.01040
C15 C 0.7195(4) 0.1746(3) -0.0524(3)
H17 H 0.81430 0.12250 -0.09760
C16 C 0.5926(4) 0.1399(3) -0.0536(3)
H18 H 0.60350 0.06660 -0.10100
C17 C 0.4546(4) 0.2129(3) 0.0138(3)
H19 H 0.37060 0.18880 0.01370
C18 C 0.4354(3) 0.3267(2) 0.0855(2)
C19 C 0.2937(3) 0.4015(3) 0.1553(3)
H20 H 0.21010 0.37770 0.15360
C20 C 0.2726(3) 0.5115(2) 0.2282(2)
C21 C 0.1275(3) 0.5847(3) 0.3020(3)
H21 H 0.04430 0.55920 0.30210
C22 C 0.1075(3) 0.6908(3) 0.3723(3)
H22 H 0.01080 0.73720 0.42080
C23 C 0.2313(3) 0.7323(3) 0.3732(3)
H23 H 0.21620 0.80610 0.42160
C24 C 0.3720(3) 0.6648(2) 0.3037(2)
H24 H 0.45290 0.69350 0.30480
C25 C 0.4000(3) 0.5510(2) 0.2287(2)
#END
