
#######################################################################
#
#                 Cambridge Crystallographic Data Centre
#                                CCDC
#
#######################################################################
#
# If this CIF has been generated from an entry in the Cambridge
# Structural Database, then it will include bibliographic, chemical,
# crystal, experimental, refinement or atomic coordinate data resulting
# from the CCDC's data processing and validation procedures.
#
#######################################################################

data_CSD_CIF_XAKLAZ
_audit_creation_date 2016-01-18
_audit_creation_method CSD-ConQuest-V1
_database_code_CSD XAKLAZ
_database_code_depnum_ccdc_archive 'CCDC 1430927'
_chemical_formula_sum 'C14 H13 N3 O2'
_chemical_formula_moiety
;
C14 H13 N3 O2
;
_journal_coden_Cambridge 35
_journal_volume 81
_journal_year 2016
_journal_page_first 689
_journal_name_full 'J.Org.Chem. '
loop_
_publ_author_name
"Su Jin Han"
"Hyun Tae Kim"
"Jung Min Joo"
_chemical_name_systematic
;
4-benzylidene-3-nitro-4,5,6,7-tetrahydropyrazolo[1,5-a]pyridine
;
_cell_volume   1238.605
_exptl_crystal_colour 'yellow'
_exptl_crystal_density_diffrn 1.369
_exptl_crystal_description 'block'
_diffrn_ambient_temperature 173
#These two values have been output from a single CSD field.
_refine_ls_R_factor_gt 0.0431
_refine_ls_wR_factor_gt 0.0431
_symmetry_cell_setting triclinic
_symmetry_space_group_name_H-M 'P -1'
_symmetry_Int_Tables_number 2
loop_
_symmetry_equiv_pos_site_id
_symmetry_equiv_pos_as_xyz
1 x,y,z
2 -x,-y,-z
_cell_length_a 6.8771(1)
_cell_length_b 12.2722(2)
_cell_length_c 15.4408(3)
_cell_angle_alpha 73.338(1)
_cell_angle_beta 84.595(1)
_cell_angle_gamma 83.906(1)
_cell_formula_units_Z 4
loop_
_atom_type_symbol
_atom_type_radius_bond
C 0.68
H 0.23
N 0.68
O 0.68
loop_
_atom_site_label
_atom_site_type_symbol
_atom_site_fract_x
_atom_site_fract_y
_atom_site_fract_z
O1 O 0.69807(14) 0.35875(8) 0.16199(6)
O2 O 0.67002(16) 0.53174(8) 0.17241(7)
N1 N 0.70245(19) 0.40738(11) 0.44168(9)
N2 N 0.71024(17) 0.29535(10) 0.44413(8)
N3 N 0.68407(15) 0.42714(9) 0.20725(8)
C1 C 0.6873(2) 0.46325(12) 0.35605(10)
H1 H 0.67830 0.54410 0.33310
C2 C 0.68619(17) 0.38824(11) 0.30303(9)
C3 C 0.70079(17) 0.27708(11) 0.36225(9)
C4 C 0.71154(18) 0.15908(11) 0.35635(9)
C5 C 0.7932(2) 0.07281(12) 0.43831(9)
H2 H 0.93580 0.07860 0.43790
H3 H 0.77290 -0.00520 0.43670
C6 C 0.6903(2) 0.09509(13) 0.52424(10)
H4 H 0.54710 0.09270 0.52310
H5 H 0.73570 0.03460 0.57780
C7 C 0.7329(3) 0.20994(14) 0.53166(10)
H6 H 0.64150 0.23180 0.57850
H7 H 0.86830 0.20600 0.54990
C8 C 0.63649(19) 0.13226(11) 0.28887(9)
H8 H 0.57570 0.19390 0.24470
C9 C 0.6375(2) 0.01814(11) 0.27532(9)
C10 C 0.4724(3) -0.00958(12) 0.24286(10)
H9 H 0.36350 0.04560 0.22990
C11 C 0.4631(4) -0.11522(14) 0.22912(12)
H10 H 0.34790 -0.13240 0.20800
C12 C 0.6193(4) -0.19496(15) 0.24587(13)
H11 H 0.61300 -0.26760 0.23640
C13 C 0.7861(4) -0.16981(15) 0.27652(12)
H12 H 0.89450 -0.22550 0.28810
C14 C 0.7978(3) -0.06321(13) 0.29079(11)
H13 H 0.91440 -0.04630 0.31090
O3 O 0.20694(19) 0.22689(10) 0.38049(8)
O4 O 0.2166(2) 0.30512(12) 0.48746(8)
N4 N 0.1725(2) 0.61380(12) 0.30710(9)
N5 N 0.17381(17) 0.5756(1) 0.23247(8)
N6 N 0.20371(17) 0.31191(11) 0.40729(8)
C15 C 0.1802(2) 0.52063(14) 0.37543(10)
H14 H 0.18110 0.51980 0.43710
C16 C 0.18710(18) 0.42342(12) 0.34566(9)
C17 C 0.18396(17) 0.46072(11) 0.25064(9)
C18 C 0.20104(17) 0.40987(11) 0.17446(8)
C19 C 0.2519(2) 0.49184(12) 0.08300(9)
H15 H 0.22470 0.45900 0.03430
H16 H 0.39340 0.50330 0.07720
C20 C 0.1328(2) 0.60585(13) 0.07249(10)
H17 H 0.16320 0.65740 0.01150
H18 H -0.00870 0.59440 0.07850
C21 C 0.1796(3) 0.65917(13) 0.14365(11)
H19 H 0.31160 0.68760 0.12890
H20 H 0.08330 0.72490 0.14460
C22 C 0.16283(18) 0.30206(11) 0.18552(9)
H21 H 0.11150 0.26220 0.24400
C23 C 0.1912(2) 0.23816(12) 0.11759(9)
C24 C 0.3554(2) 0.24453(13) 0.05667(10)
H22 H 0.44860 0.29730 0.05440
C25 C 0.3839(3) 0.17508(16) -0.00025(12)
H23 H 0.49680 0.18030 -0.04120
C26 C 0.2508(3) 0.09838(18) 0.00159(14)
H24 H 0.27050 0.05130 -0.03830
C27 C 0.0880(3) 0.09046(17) 0.06216(13)
H25 H -0.00420 0.03720 0.06420
C28 C 0.0587(2) 0.15908(13) 0.11949(11)
H26 H -0.05350 0.15240 0.16100
#END
