
#######################################################################
#
#                 Cambridge Crystallographic Data Centre
#                                CCDC
#
#######################################################################
#
# If this CIF has been generated from an entry in the Cambridge
# Structural Database, then it will include bibliographic, chemical,
# crystal, experimental, refinement or atomic coordinate data resulting
# from the CCDC's data processing and validation procedures.
#
#######################################################################

data_CSD_CIF_XAKLED
_audit_creation_date 2016-01-18
_audit_creation_method CSD-ConQuest-V1
_database_code_CSD XAKLED
_database_code_depnum_ccdc_archive 'CCDC 1430928'
_chemical_formula_sum 'C13 H11 N3 O2'
_chemical_formula_moiety
;
C13 H11 N3 O2
;
_journal_coden_Cambridge 35
_journal_volume 81
_journal_year 2016
_journal_page_first 689
_journal_name_full 'J.Org.Chem. '
loop_
_publ_author_name
"Su Jin Han"
"Hyun Tae Kim"
"Jung Min Joo"
_chemical_name_systematic
;
4-benzylidene-3-nitro-5,6-dihydro-4H-pyrrolo[1,2-b]pyrazole
;
_cell_volume   1138.983
_exptl_crystal_colour 'green'
_exptl_crystal_density_diffrn 1.407
_exptl_crystal_description 'Block'
_diffrn_ambient_temperature 173
#These two values have been output from a single CSD field.
_refine_ls_R_factor_gt 0.0453
_refine_ls_wR_factor_gt 0.0453
_symmetry_cell_setting monoclinic
_symmetry_space_group_name_H-M 'P 21/n'
_symmetry_Int_Tables_number 14
loop_
_symmetry_equiv_pos_site_id
_symmetry_equiv_pos_as_xyz
1 x,y,z
2 1/2-x,1/2+y,1/2-z
3 -x,-y,-z
4 -1/2+x,-1/2-y,-1/2+z
_cell_length_a 6.5358(2)
_cell_length_b 15.1093(4)
_cell_length_c 11.5347(4)
_cell_angle_alpha 90
_cell_angle_beta 90.698(2)
_cell_angle_gamma 90
_cell_formula_units_Z 4
loop_
_atom_type_symbol
_atom_type_radius_bond
C 0.68
H 0.23
N 0.68
O 0.68
loop_
_atom_site_label
_atom_site_type_symbol
_atom_site_fract_x
_atom_site_fract_y
_atom_site_fract_z
O1 O 0.2596(2) 0.56127(8) 0.41113(13)
O2 O -0.02472(19) 0.54244(7) 0.31863(13)
N1 N 0.31113(19) 0.29279(8) 0.42726(12)
N2 N 0.13587(17) 0.27875(7) 0.36622(10)
N3 N 0.1265(2) 0.51297(8) 0.36974(12)
C1 C 0.3202(2) 0.37974(10) 0.43587(14)
H1 H 0.42700 0.41090 0.47470
C2 C 0.1530(2) 0.42035(10) 0.38087(13)
C3 C 0.0325(2) 0.35173(9) 0.33549(12)
C4 C -0.1504(2) 0.32721(9) 0.27039(12)
C5 C -0.1459(2) 0.22657(9) 0.26135(13)
H2 H -0.14320 0.20800 0.17910
H3 H -0.26850 0.20070 0.29780
C6 C 0.0498(2) 0.19563(9) 0.32519(13)
H4 H 0.01720 0.15570 0.39050
H5 H 0.14400 0.16500 0.27190
C7 C -0.2886(2) 0.38500(9) 0.22865(13)
H6 H -0.25920 0.44530 0.24520
C8 C -0.4768(2) 0.37033(9) 0.16196(13)
C9 C -0.5844(2) 0.44596(10) 0.12745(15)
H7 H -0.53180 0.50250 0.14820
C10 C -0.7644(2) 0.44127(10) 0.06436(16)
H8 H -0.83280 0.49400 0.04140
C11 C -0.8454(2) 0.35982(10) 0.03454(15)
H9 H -0.97060 0.35600 -0.00790
C12 C -0.7418(2) 0.28402(10) 0.06728(14)
H10 H -0.79610 0.22780 0.04630
C13 C -0.5606(2) 0.28849(9) 0.13006(13)
H11 H -0.49210 0.23540 0.15180
#END
