
#######################################################################
#
#                 Cambridge Crystallographic Data Centre
#                                CCDC
#
#######################################################################
#
# If this CIF has been generated from an entry in the Cambridge
# Structural Database, then it will include bibliographic, chemical,
# crystal, experimental, refinement or atomic coordinate data resulting
# from the CCDC's data processing and validation procedures.
#
#######################################################################

data_CSD_CIF_XAKMAY
_audit_creation_date 2005-08-12
_audit_creation_method CSD-ConQuest-V1
_database_code_CSD XAKMAY
_database_code_depnum_ccdc_archive 'CCDC 268433'
_chemical_formula_sum 'C10 H14 N4 O4'
_chemical_formula_moiety
;
C10 H14 N4 O4
;
_journal_coden_Cambridge 1278
_journal_volume 109
_journal_year 2005
_journal_page_first 4377
_journal_name_full 'J.Phys.Chem.B '
loop_
_publ_author_name
"B.Bag"
"P.K.Bharadwaj"
_chemical_name_systematic
;
N,N-Dimethyl-N'-(2,4-dinitrophenyl)ethylenediamine
;
_chemical_melting_point 339.15
_cell_volume    585.016
_exptl_crystal_colour 'orange'
_exptl_crystal_density_diffrn 1.443
_exptl_special_details
;
temperature published as 273 K

;
_exptl_crystal_description 'rectangular parallelepiped'
_exptl_crystal_preparation 'ethanol'
_diffrn_ambient_temperature 293
#These two values have been output from a single CSD field.
_refine_ls_R_factor_gt 0.0852
_refine_ls_wR_factor_gt 0.0852
_symmetry_cell_setting triclinic
_symmetry_space_group_name_H-M 'P -1'
_symmetry_Int_Tables_number 2
loop_
_symmetry_equiv_pos_site_id
_symmetry_equiv_pos_as_xyz
1 x,y,z
2 -x,-y,-z
_cell_length_a 5.4860(2)
_cell_length_b 10.5560(2)
_cell_length_c 10.6300(2)
_cell_angle_alpha 83.381(4)
_cell_angle_beta 75.653(6)
_cell_angle_gamma 79.621(3)
_cell_formula_units_Z 2
loop_
_atom_type_symbol
_atom_type_radius_bond
C 0.68
H 0.23
N 0.68
O 0.68
loop_
_atom_site_label
_atom_site_type_symbol
_atom_site_fract_x
_atom_site_fract_y
_atom_site_fract_z
O1 O 0.5226(6) 0.0662(3) 0.6003(3)
O2 O 0.4566(6) 0.1788(3) 0.7633(3)
O3 O 1.0015(7) 0.4585(4) 0.7963(3)
O4 O 1.3213(6) 0.4890(3) 0.6416(3)
N1 N 0.6614(6) 0.2174(3) 0.1372(3)
N2 N 0.8642(6) 0.1151(3) 0.3858(3)
H1 H 0.74220 0.07190 0.42010
N3 N 1.1313(7) 0.4400(3) 0.6883(3)
N4 N 0.5770(6) 0.1503(3) 0.6555(3)
C1 C 0.5699(9) 0.3458(5) 0.0845(5)
H2 H 0.40340 0.34750 0.07010
H3 H 0.68460 0.36640 0.00360
H4 H 0.56140 0.40800 0.14520
C2 C 0.6704(9) 0.1219(5) 0.0475(5)
H5 H 0.50320 0.12460 0.03340
H6 H 0.72800 0.03750 0.08370
H7 H 0.78570 0.14040 -0.03390
C3 C 0.9110(7) 0.2136(4) 0.1591(4)
H8 H 0.91550 0.29320 0.19510
H9 H 1.03420 0.20940 0.07600
C4 C 0.9902(8) 0.1011(4) 0.2497(4)
H10 H 0.95340 0.02290 0.22360
H11 H 1.17290 0.09120 0.24050
C5 C 0.9276(7) 0.1919(4) 0.4613(4)
C6 C 1.1382(7) 0.2551(4) 0.4143(4)
H12 H 1.23670 0.24150 0.33080
C7 C 1.2044(7) 0.3359(4) 0.4862(4)
H13 H 1.34380 0.37810 0.45160
C8 C 1.0612(7) 0.3548(4) 0.6121(4)
C9 C 0.8581(7) 0.2961(4) 0.6635(4)
H14 H 0.76270 0.31140 0.74730
C10 C 0.7898(7) 0.2114(4) 0.5904(4)
#END
