
#######################################################################
#
#                 Cambridge Crystallographic Data Centre
#                                CCDC
#
#######################################################################
#
# If this CIF has been generated from an entry in the Cambridge
# Structural Database, then it will include bibliographic, chemical,
# crystal, experimental, refinement or atomic coordinate data resulting
# from the CCDC's data processing and validation procedures.
#
#######################################################################

data_CSD_CIF_XAKZOB
_audit_creation_date 2017-02-24
_audit_creation_method CSD-ConQuest-V1
_database_code_CSD XAKZOB
_database_code_depnum_ccdc_archive 'CCDC 1519147'
_chemical_formula_sum 'C17 H13 N1 O3'
_chemical_formula_moiety
;
C17 H13 N1 O3
;
_journal_coden_Cambridge 1336
_journal_volume 19
_journal_year 2017
_journal_page_first 754
_journal_name_full 'Org.Lett. '
loop_
_publ_author_name
"Jun Sun"
"Jiang-Kai Qiu"
"Ya-Nan Wu"
"Wen-Juan Hao"
"Cheng Guo"
"Guigen Li"
"Shu-Jiang Tu"
"Bo Jiang"
_chemical_name_systematic
;
3-(4-methylphenyl)-1-(nitromethylidene)-1H-2-benzopyran
;
_cell_volume   1362.651
_exptl_crystal_colour 'yellow'
_exptl_crystal_density_diffrn 1.361
_exptl_crystal_description 'block'
_diffrn_ambient_temperature 298
#These two values have been output from a single CSD field.
_refine_ls_R_factor_gt 0.0543
_refine_ls_wR_factor_gt 0.0543
_symmetry_cell_setting orthorhombic
_symmetry_space_group_name_H-M 'P 21 21 21'
_symmetry_Int_Tables_number 19
loop_
_symmetry_equiv_pos_site_id
_symmetry_equiv_pos_as_xyz
1 x,y,z
2 1/2-x,-y,1/2+z
3 -x,1/2+y,1/2-z
4 1/2+x,1/2-y,-z
_cell_length_a 5.8802(6)
_cell_length_b 14.1927(13)
_cell_length_c 16.3278(15)
_cell_angle_alpha 90
_cell_angle_beta 90
_cell_angle_gamma 90
_cell_formula_units_Z 4
loop_
_atom_type_symbol
_atom_type_radius_bond
C 0.68
H 0.23
N 0.68
O 0.68
loop_
_atom_site_label
_atom_site_type_symbol
_atom_site_fract_x
_atom_site_fract_y
_atom_site_fract_z
O1 O 0.1456(5) 0.24768(14) 0.83883(14)
O2 O 0.4983(5) 0.18478(16) 0.76132(15)
O3 O 0.6766(7) 0.28328(18) 0.6839(2)
N1 N 0.5266(6) 0.2645(2) 0.7339(2)
C1 C 0.3834(8) 0.3395(2) 0.7598(2)
H1 H 0.41820 0.39900 0.73950
C2 C 0.2053(7) 0.3341(2) 0.8097(2)
C3 C -0.0490(7) 0.2319(2) 0.8831(2)
C4 C -0.1882(7) 0.3021(2) 0.9030(2)
H2 H -0.32000 0.29010 0.93270
C5 C -0.1331(8) 0.3978(2) 0.8780(2)
C6 C 0.0620(7) 0.4143(2) 0.8332(2)
C7 C 0.1248(7) 0.5070(2) 0.8119(2)
H3 H 0.25960 0.51880 0.78400
C8 C -0.0188(8) 0.5800(2) 0.8335(2)
H4 H 0.01890 0.64150 0.81910
C9 C -0.2154(8) 0.5633(2) 0.8758(2)
H5 H -0.30960 0.61360 0.88940
C10 C -0.2770(7) 0.4727(2) 0.8989(2)
H6 H -0.41100 0.46190 0.92770
C11 C -0.0760(7) 0.1301(2) 0.9020(2)
C12 C -0.2727(8) 0.0969(2) 0.9376(2)
H7 H -0.38810 0.13900 0.95100
C13 C -0.3012(8) 0.0015(2) 0.9540(2)
H8 H -0.43440 -0.01940 0.97870
C14 C -0.1334(8) -0.0624(2) 0.9337(2)
C15 C 0.0616(7) -0.0298(2) 0.8970(2)
H9 H 0.17530 -0.07240 0.88310
C16 C 0.0937(7) 0.0660(2) 0.8799(2)
H10 H 0.22590 0.08670 0.85430
C17 C -0.1648(9) -0.1664(2) 0.9525(2)
H11 H -0.12610 -0.17820 1.00880
H12 H -0.06770 -0.20310 0.91760
H13 H -0.32040 -0.18380 0.94320
#END
