
#######################################################################
#
#                 Cambridge Crystallographic Data Centre
#                                CCDC
#
#######################################################################
#
# If this CIF has been generated from an entry in the Cambridge
# Structural Database, then it will include bibliographic, chemical,
# crystal, experimental, refinement or atomic coordinate data resulting
# from the CCDC's data processing and validation procedures.
#
#######################################################################

data_CSD_CIF_XALDUM
_audit_creation_date 2017-02-24
_audit_creation_method CSD-ConQuest-V1
_database_code_CSD XALDUM
_database_code_depnum_ccdc_archive 'CCDC 1522798'
_chemical_formula_sum 'C2 H2 N8 O2'
_chemical_formula_moiety
;
C2 H2 N8 O2
;
_journal_coden_Cambridge 179
_journal_volume 56
_journal_year 2017
_journal_page_first 3575
_journal_name_full 'Angew.Chem.,Int.Ed. '
loop_
_publ_author_name
"D.E.Chavez"
"D.A.Parrish"
"L.Mitchell"
"G.H.Imler"
_chemical_name_systematic
;
2,5-dioxo-2,5-tetrazolo[1,5-b][1,2,4,5]tetrazin-6-amine
;
_cell_volume    577.130
_exptl_crystal_colour 'orange'
_exptl_crystal_density_diffrn 1.958
_exptl_crystal_description 'plate'
_diffrn_ambient_temperature 150
#These two values have been output from a single CSD field.
_refine_ls_R_factor_gt 0.031
_refine_ls_wR_factor_gt 0.031
_symmetry_cell_setting monoclinic
_symmetry_space_group_name_H-M 'C c'
_symmetry_Int_Tables_number 9
loop_
_symmetry_equiv_pos_site_id
_symmetry_equiv_pos_as_xyz
1 x,y,z
2 x,-y,1/2+z
3 1/2+x,1/2+y,z
4 1/2+x,1/2-y,1/2+z
_cell_length_a 15.7269(4)
_cell_length_b 5.2733(2)
_cell_length_c 7.0768(2)
_cell_angle_alpha 90
_cell_angle_beta 100.468(2)
_cell_angle_gamma 90
_cell_formula_units_Z 4
loop_
_atom_type_symbol
_atom_type_radius_bond
C 0.68
H 0.23
N 0.68
O 0.68
loop_
_atom_site_label
_atom_site_type_symbol
_atom_site_fract_x
_atom_site_fract_y
_atom_site_fract_z
N1 N 0.61586(15) 0.3840(4) 0.4853(3)
N2 N 0.63238(15) 0.1805(4) 0.3831(3)
N3 N 0.56853(16) 0.0111(4) 0.3424(4)
N4 N 0.50704(15) 0.1196(4) 0.4251(3)
N5 N 0.42886(13) 0.0140(4) 0.4191(4)
C1 C 0.37780(17) 0.1559(5) 0.5024(4)
N6 N 0.40770(14) 0.3941(5) 0.5965(3)
N7 N 0.48508(15) 0.4852(4) 0.6006(4)
C2 C 0.53523(17) 0.3389(6) 0.5082(4)
N8 N 0.29799(14) 0.0966(6) 0.5111(4)
O1 O 0.35553(13) 0.5112(4) 0.6774(3)
O2 O 0.70319(14) 0.1506(4) 0.3275(3)
H1 H 0.277(2) -0.050(8) 0.464(6)
H2 H 0.263(2) 0.203(8) 0.572(5)
#END
