
#######################################################################
#
#                 Cambridge Crystallographic Data Centre
#                                CCDC
#
#######################################################################
#
# If this CIF has been generated from an entry in the Cambridge
# Structural Database, then it will include bibliographic, chemical,
# crystal, experimental, refinement or atomic coordinate data resulting
# from the CCDC's data processing and validation procedures.
#
#######################################################################

data_CSD_CIF_XAMLOO
_audit_creation_date 2012-02-24
_audit_creation_method CSD-ConQuest-V1
_database_code_CSD XAMLOO
_database_code_depnum_ccdc_archive 'CCDC 839217'
_chemical_formula_sum 'C14 H19 N1 O7'
_chemical_formula_moiety
;
C14 H19 N1 O7
;
_journal_coden_Cambridge 177
_journal_volume 10
_journal_year 2012
_journal_page_first 825
_journal_name_full 'Org.Biomol.Chem. '
loop_
_publ_author_name
"O.Nieto-Garcia"
"H.Lago-Santome"
"F.Cagide-Fagin"
"J.C.Ortiz-Lara"
"R.Alonso"
_chemical_name_systematic
;
6-(2-Furyl)-2-isopropyl-7-nitrohexahydro-1,3-benzodioxole-4,5-diol
;
_cell_volume   2380.678
_exptl_crystal_colour 'colorless'
_exptl_crystal_density_diffrn 1.311
_exptl_crystal_description 'prism'
_diffrn_ambient_temperature 90
_refine_special_details
;
The structure is disordered.

;
#These two values have been output from a single CSD field.
_refine_ls_R_factor_gt 0.0501
_refine_ls_wR_factor_gt 0.0501
_symmetry_cell_setting triclinic
_symmetry_space_group_name_H-M 'P -1'
_symmetry_Int_Tables_number 2
loop_
_symmetry_equiv_pos_site_id
_symmetry_equiv_pos_as_xyz
1 x,y,z
2 -x,-y,-z
_cell_length_a 13.063(2)
_cell_length_b 13.707(2)
_cell_length_c 13.950(2)
_cell_angle_alpha 99.713(2)
_cell_angle_beta 99.524(2)
_cell_angle_gamma 99.393(2)
_cell_formula_units_Z 6
loop_
_atom_type_symbol
_atom_type_radius_bond
C 0.68
H 0.23
N 0.68
O 0.68
loop_
_atom_site_label
_atom_site_type_symbol
_atom_site_fract_x
_atom_site_fract_y
_atom_site_fract_z
C1 C 0.7935(2) 0.22464(19) 0.8145(2)
H1 H 0.77690 0.19650 0.74150
O1 O 0.90141(15) 0.22190(14) 0.85324(15)
C2 C 0.9005(2) 0.1386(2) 0.9011(2)
H2 H 0.95130 0.09650 0.87890
C3 C 0.9278(2) 0.1758(2) 1.0125(2)
H3 H 0.88480 0.22730 1.03120
C4 C 0.9063(2) 0.0903(2) 1.0685(2)
H4 H 0.94180 0.03510 1.04240
C5 C 0.7860(2) 0.0497(2) 1.0434(2)
H5 H 0.77020 -0.00750 1.07810
C6 C 0.7502(2) 0.00966(19) 0.9321(2)
H6 H 0.78100 -0.05190 0.91620
C7 C 0.7873(2) 0.08005(19) 0.8668(2)
H7 H 0.77930 0.04010 0.79810
O2 O 0.73114(14) 0.16079(13) 0.86211(13)
C8 C 0.7724(2) 0.3296(2) 0.8324(2)
H8 H 0.78410 0.35570 0.90550
C9 C 0.6589(2) 0.3281(2) 0.7865(2)
H9 H 0.64240 0.28920 0.71820
H10 H 0.64890 0.39730 0.78620
H11 H 0.61170 0.29670 0.82530
C10 C 0.8486(3) 0.3978(3) 0.7886(3)
H12 H 0.92170 0.39590 0.81760
H13 H 0.83710 0.46720 0.80340
H14 H 0.83590 0.37420 0.71650
N1 N 1.04290(18) 0.22489(18) 1.03946(19)
O3 O 1.06750(17) 0.31616(15) 1.07063(19)
O4 O 1.10703(15) 0.17002(16) 1.02806(18)
C11 C 0.9474(2) 0.1221(2) 1.1765(2)
O5 O 0.9846(4) 0.0484(3) 1.2198(2)
C12 C 1.0127(5) 0.0887(4) 1.3186(3)
H15 H 1.03740 0.05390 1.36840
C13 C 1.0001(8) 0.1850(7) 1.3351(5)
H16 H 1.01700 0.22990 1.39780
C14 C 0.9560(4) 0.2096(4) 1.2405(4)
H17 H 0.93820 0.27130 1.22770
O6 O 0.73175(15) 0.12570(14) 1.07740(15)
H18 H 0.718(2) 0.111(2) 1.130(2)
O7 O 0.63868(15) -0.02199(14) 0.90323(15)
H19 H 0.626(2) -0.076(2) 0.933(2)
C15 C 0.7272(2) 0.8166(2) 0.3243(2)
H20 H 0.69160 0.74380 0.30730
O8 O 0.71203(16) 0.86144(15) 0.42138(14)
C16 C 0.6313(2) 0.9180(2) 0.4076(2)
H21 H 0.57710 0.90060 0.44810
C17 C 0.6805(2) 1.0304(2) 0.43624(19)
H22 H 0.74760 1.04200 0.41050
C18 C 0.6073(2) 1.0953(2) 0.3938(2)
H23 H 0.53730 1.07730 0.41310
C19 C 0.5915(2) 1.0641(2) 0.2796(2)
H24 H 0.54930 1.10930 0.24860
C20 C 0.5293(2) 0.9566(2) 0.24780(19)
H25 H 0.45850 0.95480 0.26670
C21 C 0.5835(2) 0.8841(2) 0.29711(19)
H26 H 0.53350 0.81780 0.28550
O9 O 0.67563(14) 0.86938(14) 0.25822(13)
C22 C 0.8410(3) 0.8249(3) 0.3183(3)
H27 H 0.87420 0.89740 0.33070
H28? H 0.910(16) 0.843(16) 0.388(15)
C23 C 0.8503(3) 0.7763(3) 0.2146(3)
H29 H 0.82310 0.81540 0.16690
H30 H 0.80900 0.70710 0.19710
H31 H 0.92480 0.77490 0.21290
C24 C 0.8984(5) 0.7782(7) 0.3932(5)
H32 H 0.97300 0.78620 0.38780
H33 H 0.86700 0.70620 0.38170
H34 H 0.89310 0.81120 0.45970
C25? C 0.9027(12) 0.9214(11) 0.3592(12)
H35? H 0.86690 0.97230 0.33440
H36? H 0.97190 0.92590 0.34010
H37? H 0.91240 0.93330 0.43170
N2 N 0.7071(2) 1.05709(18) 0.54780(18)
O10 O 0.63440(18) 1.05770(16) 0.59181(15)
O11 O 0.7996(2) 1.0739(2) 0.58830(18)
C26 C 0.6468(3) 1.2059(2) 0.4284(2)
O12 O 0.6036(10) 1.2529(9) 0.5027(11)
C27 C 0.6471(10) 1.3537(8) 0.5191(10)
H38 H 0.63610 1.40350 0.57060
C28 C 0.7054(8) 1.3718(5) 0.4546(5)
H39 H 0.74150 1.43600 0.44890
C29 C 0.7048(6) 1.2779(4) 0.3950(5)
H40 H 0.73950 1.26740 0.34050
O13? O 0.589(4) 1.240(4) 0.496(4)
C30? C 0.627(4) 1.342(4) 0.523(4)
H41? H 0.59390 1.38920 0.55910
C31? C 0.719(3) 1.3647(18) 0.4918(17)
H42? H 0.76230 1.42950 0.50100
C32? C 0.7373(16) 1.2690(16) 0.4408(17)
H43? H 0.80060 1.25540 0.42100
O14 O 0.69155(17) 1.07424(17) 0.24867(16)
H44 H 0.713(3) 1.011(3) 0.242(2)
O15 O 0.51319(16) 0.92145(16) 0.14398(14)
H45 H 0.461(3) 0.946(3) 0.117(2)
C33 C 0.3291(3) 0.3097(2) 0.2411(2)
H46 H 0.25010 0.29910 0.23050
O16 O 0.37231(18) 0.41265(14) 0.23694(15)
C34 C 0.4117(2) 0.4096(2) 0.1470(2)
H47 H 0.39030 0.46360 0.11250
C35 C 0.5314(2) 0.42130(19) 0.1687(2)
H48 H 0.55190 0.37500 0.21340
C36 C 0.5734(2) 0.39690(19) 0.0730(2)
H49 H 0.54220 0.43600 0.02520
C37 C 0.5303(2) 0.28397(19) 0.02950(19)
H50 H 0.55670 0.26550 -0.03310
C38 C 0.4107(2) 0.26425(19) 0.00512(19)
H51 H 0.38980 0.29610 -0.05260
C39 C 0.3579(2) 0.30617(19) 0.0866(2)
H52 H 0.28290 0.30750 0.05770
O17 O 0.35936(15) 0.24821(13) 0.16288(13)
C40 C 0.3728(3) 0.2845(2) 0.3390(2)
H53 H 0.45180 0.29660 0.34950
C41 C 0.3402(5) 0.3523(3) 0.4232(3)
H54 H 0.37590 0.42240 0.42920
H55 H 0.36060 0.33030 0.48570
H56 H 0.26340 0.34770 0.40860
C42 C 0.3303(4) 0.1736(2) 0.3363(3)
H57 H 0.25270 0.16050 0.32180
H58 H 0.35540 0.15740 0.40080
H59 H 0.35540 0.13160 0.28460
N3 N 0.5782(2) 0.52880(18) 0.22010(18)
O18 O 0.56353(16) 0.59524(14) 0.17413(15)
O19 O 0.6360(5) 0.5444(4) 0.3025(5)
C43 C 0.6905(2) 0.4250(2) 0.0880(2)
O20 O 0.7297(7) 0.5033(4) 0.0465(4)
C44 C 0.8380(8) 0.5140(8) 0.0660(8)
H60 H 0.88510 0.56310 0.04530
C45 C 0.8681(4) 0.4476(4) 0.1169(5)
H61 H 0.93870 0.44070 0.14000
C46 C 0.7739(4) 0.3886(4) 0.1301(4)
H62 H 0.76970 0.33310 0.16280
O21 O 0.56647(16) 0.22422(14) 0.09707(15)
H63 H 0.612(3) 0.194(2) 0.073(2)
O22 O 0.36629(16) 0.15939(14) -0.02439(14)
H64 H 0.400(3) 0.133(2) -0.061(2)
C47? C 1.0558(17) 0.1297(15) 1.3275(12)
C48? C 0.834(3) 0.515(3) 0.070(3)
C49? C 0.995(3) 0.199(2) 1.3445(19)
C50? C 0.8583(16) 0.4695(16) 0.1465(19)
C51? C 0.9221(16) 0.1879(14) 1.2497(15)
C52? C 0.7605(14) 0.4145(15) 0.1633(13)
H65? H 1.10850 0.11430 1.37510
H66? H 0.88320 0.56020 0.04630
H67? H 0.99800 0.24490 1.40470
H68? H 0.92720 0.47270 0.18330
H69? H 0.86460 0.22200 1.24030
H70? H 0.74960 0.37980 0.21530
O23? O 0.5860(17) 0.547(2) 0.3131(19)
O24? O 1.0272(12) 0.0856(11) 1.2283(10)
O25? O 0.729(3) 0.486(2) 0.0312(19)
#END
