
#######################################################################
#
#                 Cambridge Crystallographic Data Centre
#                                CCDC
#
#######################################################################
#
# If this CIF has been generated from an entry in the Cambridge
# Structural Database, then it will include bibliographic, chemical,
# crystal, experimental, refinement or atomic coordinate data resulting
# from the CCDC's data processing and validation procedures.
#
#######################################################################

data_CSD_CIF_XANLAC
_audit_creation_date 2017-02-27
_audit_creation_method CSD-ConQuest-V1
_database_code_CSD XANLAC
_database_code_depnum_ccdc_archive 'CCDC 1506177'
_chemical_formula_sum 'C14 H9 N3 O2'
_chemical_formula_moiety
;
C14 H9 N3 O2
;
_journal_coden_Cambridge 177
_journal_volume 15
_journal_year 2017
_journal_page_first 2259
_journal_name_full 'Org.Biomol.Chem. '
loop_
_publ_author_name
"K.Gopalaiah"
"A.Saini"
"S.N.Chandrudu"
"D.C.Rao"
"H.Yadav"
"B.Kumar"
_chemical_name_systematic
;
2-(4-nitrophenyl)quinoxaline
;
_cell_volume   1153.179
_exptl_crystal_density_diffrn 1.447
_exptl_crystal_description 'Block'
_diffrn_ambient_temperature 298.1
#These two values have been output from a single CSD field.
_refine_ls_R_factor_gt 0.0678
_refine_ls_wR_factor_gt 0.0678
_symmetry_cell_setting monoclinic
_symmetry_space_group_name_H-M 'P 21/c'
_symmetry_Int_Tables_number 14
loop_
_symmetry_equiv_pos_site_id
_symmetry_equiv_pos_as_xyz
1 x,y,z
2 -x,1/2+y,1/2-z
3 -x,-y,-z
4 x,-1/2-y,-1/2+z
_cell_length_a 6.3758(4)
_cell_length_b 12.4522(7)
_cell_length_c 14.7628(10)
_cell_angle_alpha 90
_cell_angle_beta 79.702(6)
_cell_angle_gamma 90
_cell_formula_units_Z 4
loop_
_atom_type_symbol
_atom_type_radius_bond
C 0.68
H 0.23
N 0.68
O 0.68
loop_
_atom_site_label
_atom_site_type_symbol
_atom_site_fract_x
_atom_site_fract_y
_atom_site_fract_z
O1 O 1.0814(3) 0.23752(18) -0.10178(14)
O2 O 0.9951(3) 0.07137(19) -0.08890(16)
N1 N 0.9568(3) 0.1661(2) -0.07416(14)
N2 N 0.0644(3) 0.37378(15) 0.11122(12)
N3 N -0.1811(3) 0.22869(16) 0.23247(14)
C1 C 0.7464(3) 0.1950(2) -0.02172(16)
C2 C 0.6741(4) 0.2975(2) -0.02602(16)
H1 H 0.75782 0.34930 -0.06066
C3 C 0.4748(3) 0.32283(19) 0.02182(16)
H2 H 0.42330 0.39234 0.01876
C4 C 0.3496(3) 0.24653(18) 0.07450(14)
C5 C 0.4294(4) 0.1442(2) 0.07787(17)
H3 H 0.34797 0.09220 0.11326
C6 C 0.6284(4) 0.1177(2) 0.02953(18)
H4 H 0.68109 0.04830 0.03186
C7 C 0.1346(3) 0.27703(18) 0.12528(15)
C8 C 0.0083(4) 0.2056(2) 0.18667(17)
H5 H 0.06357 0.13798 0.19499
C9 C -0.1323(3) 0.40106(17) 0.15796(15)
C10 C -0.2160(4) 0.50295(19) 0.14410(18)
H6 H -0.13642 0.55142 0.10396
C11 C -0.4137(4) 0.5307(2) 0.18942(18)
H7 H -0.46807 0.59830 0.18009
C12 C -0.5358(4) 0.4589(2) 0.24971(17)
H8 H -0.67063 0.47900 0.27997
C13 C -0.4597(3) 0.3602(2) 0.26455(16)
H9 H -0.54184 0.31321 0.30527
C14 C -0.2561(3) 0.32851(19) 0.21834(15)
#END
