
#######################################################################
#
#                 Cambridge Crystallographic Data Centre
#                                CCDC
#
#######################################################################
#
# If this CIF has been generated from an entry in the Cambridge
# Structural Database, then it will include bibliographic, chemical,
# crystal, experimental, refinement or atomic coordinate data resulting
# from the CCDC's data processing and validation procedures.
#
#######################################################################

data_CSD_CIF_XAPKEG
_audit_creation_date 2012-03-05
_audit_creation_method CSD-ConQuest-V1
_database_code_CSD XAPKEG
_database_code_depnum_ccdc_archive 'CCDC 789822'
_chemical_formula_sum 'C10 H11 N1 O3'
_chemical_formula_moiety
;
C10 H11 N1 O3
;
_journal_coden_Cambridge 24
_journal_volume 51
_journal_year 2010
_journal_page_first 2144
_journal_name_full 'Tetrahedron Lett. '
loop_
_publ_author_name
"Yong-Jin Wu"
"S.Huang"
"A.Ng"
"Qi Gao"
"S.R.Kimura"
"D.R.Langley"
_chemical_name_systematic
;
(E)-methyl 2-(methoxyimino)-2-phenylacetate
;
_chemical_name_common
;
Methyl (methoxyimino)(phenyl)acetate
;
_cell_volume   1018.287
_exptl_crystal_colour 'colorless'
_exptl_crystal_density_diffrn 1.26
_exptl_crystal_description 'plate'
_diffrn_ambient_temperature 293
#These two values have been output from a single CSD field.
_refine_ls_R_factor_gt 0.056
_refine_ls_wR_factor_gt 0.056
_symmetry_cell_setting monoclinic
_symmetry_space_group_name_H-M 'P 21/n'
_symmetry_Int_Tables_number 14
loop_
_symmetry_equiv_pos_site_id
_symmetry_equiv_pos_as_xyz
1 x,y,z
2 1/2-x,1/2+y,1/2-z
3 -x,-y,-z
4 -1/2+x,-1/2-y,-1/2+z
_cell_length_a 5.6386(3)
_cell_length_b 25.7679(13)
_cell_length_c 7.2748(3)
_cell_angle_alpha 90
_cell_angle_beta 105.553(2)
_cell_angle_gamma 90
_cell_formula_units_Z 4
loop_
_atom_type_symbol
_atom_type_radius_bond
C 0.68
H 0.23
N 0.68
O 0.68
loop_
_atom_site_label
_atom_site_type_symbol
_atom_site_fract_x
_atom_site_fract_y
_atom_site_fract_z
C1 C 0.1403(4) 0.10069(8) 0.6994(3)
C2 C -0.0651(4) 0.06210(9) 0.6526(3)
C3 C -0.2479(5) -0.01135(11) 0.7504(4)
H1 H -0.40450 0.00550 0.73180
H2 H -0.22140 -0.03450 0.85720
H3 H -0.24620 -0.03060 0.63790
O1 O -0.0547(3) 0.02727(6) 0.7869(2)
O2 O -0.2236(3) 0.06344(7) 0.5056(2)
N1 N 0.3172(4) 0.09078(8) 0.8472(3)
O3 O 0.4985(3) 0.12873(7) 0.8804(2)
C4 C 0.6826(5) 0.11659(13) 1.0531(4)
H4 H 0.61040 0.11730 1.15850
H5 H 0.81290 0.14170 1.07360
H6 H 0.74800 0.08260 1.04280
C5 C 0.2754(4) 0.15288(9) 0.4566(4)
H7 H 0.39840 0.12860 0.46030
C6 C 0.1190(4) 0.14681(8) 0.5715(3)
C7 C -0.0629(5) 0.18303(9) 0.5651(3)
H8 H -0.17040 0.17880 0.64110
C8 C 0.0686(5) 0.23162(10) 0.3308(4)
H9 H 0.05150 0.26010 0.24980
C9 C -0.0863(5) 0.22572(9) 0.4461(4)
H10 H -0.20720 0.25040 0.44420
C10 C 0.2492(5) 0.19541(10) 0.3350(4)
H11 H 0.35380 0.19930 0.25650
#END
