
#######################################################################
#
#                 Cambridge Crystallographic Data Centre
#                                CCDC
#
#######################################################################
#
# If this CIF has been generated from an entry in the Cambridge
# Structural Database, then it will include bibliographic, chemical,
# crystal, experimental, refinement or atomic coordinate data resulting
# from the CCDC's data processing and validation procedures.
#
#######################################################################

data_CSD_CIF_XAPKIK
_audit_creation_date 2012-03-05
_audit_creation_method CSD-ConQuest-V1
_database_code_CSD XAPKIK
_database_code_depnum_ccdc_archive 'CCDC 789823'
_chemical_formula_sum 'C9 H9 N1 O3'
_chemical_formula_moiety
;
C9 H9 N1 O3
;
_journal_coden_Cambridge 24
_journal_volume 51
_journal_year 2010
_journal_page_first 2144
_journal_name_full 'Tetrahedron Lett. '
loop_
_publ_author_name
"Yong-Jin Wu"
"S.Huang"
"A.Ng"
"Qi Gao"
"S.R.Kimura"
"D.R.Langley"
_chemical_name_systematic
;
(Z)-2-(methoxyimino)-2-phenylacetic acid
;
_chemical_name_common
;
(Methoxyimino)(phenyl)acetic acid
;
_cell_volume    927.067
_exptl_crystal_colour 'colorless'
_exptl_crystal_density_diffrn 1.284
_exptl_crystal_description 'needle'
_diffrn_ambient_temperature 293
#These two values have been output from a single CSD field.
_refine_ls_R_factor_gt 0.0649
_refine_ls_wR_factor_gt 0.0649
loop_
_citation_database_id_CSD
_citation_special_details
XAPKEG "is a stereoisomer of this entry"
_symmetry_cell_setting monoclinic
_symmetry_space_group_name_H-M 'P 21/n'
_symmetry_Int_Tables_number 14
loop_
_symmetry_equiv_pos_site_id
_symmetry_equiv_pos_as_xyz
1 x,y,z
2 1/2-x,1/2+y,1/2-z
3 -x,-y,-z
4 -1/2+x,-1/2-y,-1/2+z
_cell_length_a 5.5752(2)
_cell_length_b 10.7315(4)
_cell_length_c 15.6446(6)
_cell_angle_alpha 90
_cell_angle_beta 97.931(1)
_cell_angle_gamma 90
_cell_formula_units_Z 4
loop_
_atom_type_symbol
_atom_type_radius_bond
C 0.68
H 0.23
N 0.68
O 0.68
loop_
_atom_site_label
_atom_site_type_symbol
_atom_site_fract_x
_atom_site_fract_y
_atom_site_fract_z
O1 O 0.3463(3) 0.52046(15) 0.89678(9)
H1 H 0.36370 0.47970 0.94150
O2 O 0.6339(3) 0.63696(15) 0.97121(9)
O3 O 0.1873(3) 0.79512(15) 0.90543(9)
N1 N 0.3115(3) 0.80007(16) 0.8336(1)
C1 C 0.4580(3) 0.70813(17) 0.83335(11)
C2 C 0.4813(3) 0.61479(18) 0.90597(11)
C3 C 0.0227(5) 0.8965(2) 0.90142(18)
H2 H 0.11120 0.97280 0.91290
H3 H -0.08490 0.88500 0.94370
H4 H -0.06940 0.90020 0.84490
C4 C 0.6018(3) 0.69382(18) 0.76181(11)
C5 C 0.7957(4) 0.61197(19) 0.76826(13)
H5 H 0.83410 0.56430 0.81790
C6 C 0.9328(4) 0.6007(2) 0.70123(15)
H6 H 1.06350 0.54610 0.70620
C7 C 0.6840(4) 0.7511(3) 0.62035(15)
H7 H 0.64640 0.79810 0.57040
C8 C 0.5462(4) 0.7637(2) 0.68657(13)
H8 H 0.41630 0.81890 0.68110
C9 C 0.8759(4) 0.6700(2) 0.62737(15)
H9 H 0.96730 0.66190 0.58220
#END
