
#######################################################################
#
#                 Cambridge Crystallographic Data Centre
#                                CCDC
#
#######################################################################
#
# If this CIF has been generated from an entry in the Cambridge
# Structural Database, then it will include bibliographic, chemical,
# crystal, experimental, refinement or atomic coordinate data resulting
# from the CCDC's data processing and validation procedures.
#
#######################################################################

data_CSD_CIF_XAPKOQ
_audit_creation_date 2012-03-05
_audit_creation_method CSD-ConQuest-V1
_database_code_CSD XAPKOQ
_database_code_depnum_ccdc_archive 'CCDC 789824'
_chemical_formula_sum 'C9 H9 N1 O3'
_chemical_formula_moiety
;
C9 H9 N1 O3
;
_journal_coden_Cambridge 24
_journal_volume 51
_journal_year 2010
_journal_page_first 2144
_journal_name_full 'Tetrahedron Lett. '
loop_
_publ_author_name
"Yong-Jin Wu"
"S.Huang"
"A.Ng"
"Qi Gao"
"S.R.Kimura"
"D.R.Langley"
_chemical_name_systematic
;
(E)-2-(methoxyimino)-2-phenylacetic acid
;
_chemical_name_common
;
(Methoxyimino)(phenyl)acetic acid
;
_cell_volume   2282.335
_exptl_crystal_colour 'colorless'
_exptl_crystal_density_diffrn 1.304
_exptl_crystal_description 'prism'
_diffrn_ambient_temperature 293
#These two values have been output from a single CSD field.
_refine_ls_R_factor_gt 0.0584
_refine_ls_wR_factor_gt 0.0584
loop_
_citation_database_id_CSD
_citation_special_details
XAPKIK "is a stereoisomer of this entry"
_symmetry_cell_setting triclinic
_symmetry_space_group_name_H-M 'P -1'
_symmetry_Int_Tables_number 2
loop_
_symmetry_equiv_pos_site_id
_symmetry_equiv_pos_as_xyz
1 x,y,z
2 -x,-y,-z
_cell_length_a 8.8229(2)
_cell_length_b 16.0103(3)
_cell_length_c 18.0884(4)
_cell_angle_alpha 106.619(1)
_cell_angle_beta 100.916(1)
_cell_angle_gamma 103.973(1)
_cell_formula_units_Z 10
loop_
_atom_type_symbol
_atom_type_radius_bond
C 0.68
H 0.23
N 0.68
O 0.68
loop_
_atom_site_label
_atom_site_type_symbol
_atom_site_fract_x
_atom_site_fract_y
_atom_site_fract_z
O1 O 1.08867(16) 0.82089(12) 0.26538(8)
H1 H 1.09490 0.81280 0.21930
N1 N 1.03658(19) 0.83933(12) 0.40267(10)
O2 O 0.83169(15) 0.80608(10) 0.20912(8)
C1 C 0.7454(2) 0.82565(13) 0.35653(10)
C2 C 0.9408(2) 0.81704(12) 0.26751(11)
C3 C 0.9097(2) 0.82788(12) 0.34772(11)
O3 O 1.00655(18) 0.85145(12) 0.47693(8)
C4 C 0.6649(2) 0.76435(15) 0.38801(12)
H2 H 0.71390 0.72440 0.40340
C5 C 0.6694(3) 0.88362(15) 0.33318(14)
H3 H 0.72080 0.92410 0.31090
C6 C 0.4387(3) 0.82139(19) 0.37473(14)
H4 H 0.33650 0.82050 0.38150
C7 C 0.5121(3) 0.76270(18) 0.39638(14)
H5 H 0.45840 0.72110 0.41700
C8 C 0.5166(3) 0.88162(18) 0.34293(16)
H6 H 0.46670 0.92140 0.32780
C9 C 1.1559(3) 0.8710(2) 0.53504(15)
H7 H 1.19990 0.82130 0.52010
H8 H 1.13690 0.87810 0.58670
H9 H 1.23160 0.92670 0.53750
N2 N 1.07462(18) 0.22412(11) 0.07054(9)
O4 O 1.12279(16) 0.20470(12) -0.06808(8)
H10 H 1.13060 0.20260 -0.11300
O5 O 0.86895(16) 0.1984(1) -0.12062(8)
O6 O 1.04859(16) 0.23738(10) 0.14570(8)
C10 C 0.9512(2) 0.22029(12) 0.01788(11)
C11 C 0.9786(2) 0.20678(12) -0.06354(10)
C12 C 0.7921(2) 0.22893(13) 0.02894(10)
C13 C 1.1978(2) 0.25163(15) 0.20229(12)
H11 H 1.23810 0.20110 0.18420
H12 H 1.17920 0.25590 0.25360
H13 H 1.27620 0.30750 0.20710
C14 C 0.6919(2) 0.16586(15) 0.05180(12)
H14 H 0.72410 0.11760 0.06070
C15 C 0.5440(2) 0.17462(17) 0.06139(13)
H15 H 0.47690 0.13180 0.07640
C16 C 0.7418(3) 0.29991(17) 0.01622(15)
H16 H 0.80710 0.34230 0.00010
C17 C 0.4955(3) 0.24532(19) 0.04904(14)
H17 H 0.39570 0.25070 0.05540
C18 C 0.5948(3) 0.3084(2) 0.02726(17)
H18 H 0.56300 0.35750 0.01980
O7 O 0.86422(15) 0.00291(9) 0.04932(8)
N3 N 1.07989(18) 0.03320(11) 0.24091(9)
O8 O 1.12132(16) 0.01191(11) 0.09924(8)
H19 H 1.12790 0.01160 0.05460
C19 C 0.7980(2) 0.03833(13) 0.20087(11)
O9 O 1.05254(16) 0.04634(10) 0.31595(8)
C20 C 0.9546(2) 0.02821(12) 0.18780(11)
C21 C 0.9762(2) 0.01267(12) 0.10519(11)
C22 C 0.7945(3) 0.11870(15) 0.25482(12)
H20 H 0.89110 0.16620 0.28310
C23 C 1.1977(3) 0.05504(16) 0.37316(13)
H21 H 1.22580 -0.00050 0.35730
H22 H 1.17940 0.06580 0.42520
H23 H 1.28490 0.10560 0.37520
C24 C 0.6496(3) 0.12913(19) 0.26706(15)
H24 H 0.64860 0.18330 0.30340
C25 C 0.6532(2) -0.03128(16) 0.15869(14)
H25 H 0.65320 -0.08540 0.12180
C26 C 0.5067(3) 0.0593(2) 0.22541(16)
H26 H 0.40890 0.06610 0.23390
C27 C 0.5078(3) -0.0201(2) 0.17156(17)
H27 H 0.41060 -0.06700 0.14330
O10 O 0.14372(16) 0.39201(11) 0.56259(8)
O11 O -0.02948(16) 0.37390(11) 0.30174(8)
N4 N -0.06118(18) 0.37691(11) 0.37445(9)
C28 C 0.2273(2) 0.38305(13) 0.41673(10)
C29 C 0.0344(2) 0.38408(13) 0.50651(11)
C30 C 0.0638(2) 0.38108(12) 0.42699(11)
C31 C 0.4701(2) 0.45452(17) 0.38754(13)
H28 H 0.52960 0.50120 0.37370
O12 O -0.11393(16) 0.37795(14) 0.50997(9)
H29 H -0.12100 0.37840 0.55460
C32 C 0.2942(2) 0.31668(15) 0.42957(12)
H30 H 0.23610 0.27030 0.44420
C33 C 0.3169(2) 0.45231(14) 0.39556(12)
H31 H 0.27350 0.49720 0.38680
C34 C -0.1765(3) 0.36251(17) 0.24480(13)
H32 H -0.25310 0.30350 0.23390
H33 H -0.15330 0.36650 0.19590
H34 H -0.22170 0.40980 0.26640
C35 C 0.4471(3) 0.31939(18) 0.42060(14)
H35 H 0.49090 0.27430 0.42870
C36 C 0.5355(2) 0.38836(18) 0.39979(13)
H36 H 0.63870 0.39000 0.39410
N5 N -0.06991(18) 0.58104(11) 0.15239(9)
O13 O -0.11606(16) 0.60254(12) 0.29218(9)
H37 H -0.12110 0.60940 0.33820
O14 O 0.13784(16) 0.60912(10) 0.34429(8)
C37 C 0.0291(2) 0.60073(12) 0.28761(11)
O15 O -0.04175(17) 0.56682(11) 0.07786(8)
C38 C 0.0543(2) 0.58645(12) 0.20604(11)
C39 C 0.2138(2) 0.57960(13) 0.19489(11)
C40 C 0.3143(2) 0.64694(15) 0.17639(13)
H38 H 0.28140 0.69610 0.17020
C41 C -0.1870(3) 0.55576(17) 0.02039(13)
H39 H -0.26640 0.49850 0.01150
H40 H -0.16350 0.55610 -0.02920
H41 H -0.22870 0.60530 0.04020
C42 C 0.2646(3) 0.50738(17) 0.20383(15)
H42 H 0.19880 0.46240 0.21710
C43 C 0.4633(3) 0.64101(19) 0.16716(14)
H43 H 0.53080 0.68650 0.15510
C44 C 0.4131(3) 0.5016(2) 0.19308(17)
H44 H 0.44560 0.45180 0.19770
C45 C 0.5129(3) 0.5689(2) 0.17562(14)
H45 H 0.61390 0.56550 0.16960
#END
