
#######################################################################
#
#                 Cambridge Crystallographic Data Centre
#                                CCDC
#
#######################################################################
#
# If this CIF has been generated from an entry in the Cambridge
# Structural Database, then it will include bibliographic, chemical,
# crystal, experimental, refinement or atomic coordinate data resulting
# from the CCDC's data processing and validation procedures.
#
#######################################################################

data_CSD_CIF_XAQTUF
_audit_creation_date 2005-11-15
_audit_creation_method CSD-ConQuest-V1
_database_code_CSD XAQTUF
_database_code_depnum_ccdc_archive 'CCDC 269445'
_chemical_formula_sum 'C12 H16 N2 O4'
_chemical_formula_moiety
;
C12 H16 N2 O4
;
_journal_coden_Cambridge 1090
_journal_volume 16
_journal_year 2005
_journal_page_first 2257
_journal_name_full 'Tetrahedron:Asymm. '
loop_
_publ_author_name
"I.Kudyba"
"J.Jozwik"
"J.Romanski"
"J.Raczko"
"J.Jurczak"
_chemical_name_systematic
;
2-N-Glyoxyloyl-7,7-dimethylnorbornane-(1S,2R)-oxazolidinone oxime
;
_cell_volume   1234.246
_exptl_crystal_colour 'colorless'
_exptl_crystal_density_diffrn 1.358
_diffrn_ambient_temperature 100
#These two values have been output from a single CSD field.
_refine_ls_R_factor_gt 0.0247
_refine_ls_wR_factor_gt 0.0247
_symmetry_cell_setting orthorhombic
_symmetry_space_group_name_H-M 'P 21 21 21'
_symmetry_Int_Tables_number 19
loop_
_symmetry_equiv_pos_site_id
_symmetry_equiv_pos_as_xyz
1 x,y,z
2 1/2-x,-y,1/2+z
3 -x,1/2+y,1/2-z
4 1/2+x,1/2-y,-z
_cell_length_a 6.9310(4)
_cell_length_b 8.8942(5)
_cell_length_c 20.0216(11)
_cell_angle_alpha 90
_cell_angle_beta 90
_cell_angle_gamma 90
_cell_formula_units_Z 4
loop_
_atom_type_symbol
_atom_type_radius_bond
C 0.68
H 0.23
N 0.68
O 0.68
loop_
_atom_site_label
_atom_site_type_symbol
_atom_site_fract_x
_atom_site_fract_y
_atom_site_fract_z
O1 O 1.03774(17) 0.62625(12) 0.17270(6)
O2 O 0.84569(15) 0.19808(12) 0.20374(5)
O3 O 0.58146(16) 0.40737(12) 0.04401(5)
O4 O 0.51668(17) 0.17064(11) 0.01266(5)
N1 N 0.96578(18) 0.48678(14) 0.19011(6)
N2 N 0.70370(17) 0.20074(13) 0.10313(6)
C1 C 0.8118(2) 0.26882(17) 0.15313(7)
C2 C 0.8889(2) 0.42105(17) 0.14035(7)
C3 C 0.6482(2) 0.04195(16) 0.10494(7)
C4 C 0.5836(2) 0.02067(17) 0.03261(8)
C5 C 0.4284(3) -0.10285(19) 0.03594(8)
C6 C 0.4478(2) -0.15367(18) 0.10906(9)
C7 C 0.6511(2) -0.22301(18) 0.11837(9)
C8 C 0.7916(2) -0.08467(16) 0.11884(8)
C9 C 0.4664(2) -0.00265(17) 0.14720(7)
C10 C 0.5037(3) -0.0236(2) 0.22210(8)
C11 C 0.2941(2) 0.1042(2) 0.14067(10)
C12 C 0.6014(2) 0.27445(18) 0.05193(7)
H1 H 1.082(3) 0.667(2) 0.2118(11)
H2 H 0.880(2) 0.4626(17) 0.0980(9)
H3 H 0.684(3) -0.0038(18) 0.0020(8)
H4 H 0.455(3) -0.1806(18) 0.0032(8)
H5 H 0.300(3) -0.057(2) 0.0245(9)
H6 H 0.345(3) -0.2183(19) 0.1250(8)
H7 H 0.675(2) -0.2910(19) 0.0832(8)
H8 H 0.664(2) -0.2798(19) 0.1622(8)
H9 H 0.887(3) -0.0885(17) 0.0816(8)
H10 H 0.858(2) -0.0716(17) 0.1625(8)
H11 H 0.527(3) 0.074(2) 0.2440(9)
H12 H 0.618(3) -0.079(2) 0.2308(9)
H13 H 0.392(3) -0.081(2) 0.2422(10)
H14 H 0.185(3) 0.063(2) 0.1685(9)
H15 H 0.251(3) 0.117(2) 0.0955(10)
H16 H 0.328(3) 0.206(2) 0.1595(10)
#END
