
#######################################################################
#
#                 Cambridge Crystallographic Data Centre
#                                CCDC
#
#######################################################################
#
# If this CIF has been generated from an entry in the Cambridge
# Structural Database, then it will include bibliographic, chemical,
# crystal, experimental, refinement or atomic coordinate data resulting
# from the CCDC's data processing and validation procedures.
#
#######################################################################

data_CSD_CIF_XAQVIV
_audit_creation_date 2005-11-15
_audit_creation_method CSD-ConQuest-V1
_database_code_CSD XAQVIV
_database_code_depnum_ccdc_archive 'CCDC 269448'
_chemical_formula_sum 'C12 H21 N1 O3'
_chemical_formula_moiety
;
C12 H21 N1 O3
;
_journal_coden_Cambridge 1090
_journal_volume 16
_journal_year 2005
_journal_page_first 2257
_journal_name_full 'Tetrahedron:Asymm. '
loop_
_publ_author_name
"I.Kudyba"
"J.Jozwik"
"J.Romanski"
"J.Raczko"
"J.Jurczak"
_chemical_name_systematic
;
O-Glyoxyoyl-(1R)-menthyl oxime
;
_cell_volume    685.694
_exptl_crystal_density_diffrn 1.101
_diffrn_ambient_temperature 293
#These two values have been output from a single CSD field.
_refine_ls_R_factor_gt 0.0363
_refine_ls_wR_factor_gt 0.0363
_symmetry_cell_setting monoclinic
_symmetry_space_group_name_H-M 'P 21'
_symmetry_Int_Tables_number 4
loop_
_symmetry_equiv_pos_site_id
_symmetry_equiv_pos_as_xyz
1 x,y,z
2 -x,1/2+y,-z
_cell_length_a 7.2380(14)
_cell_length_b 11.293(2)
_cell_length_c 8.7830(18)
_cell_angle_alpha 90
_cell_angle_beta 107.23(3)
_cell_angle_gamma 90
_cell_formula_units_Z 2
loop_
_atom_type_symbol
_atom_type_radius_bond
C 0.68
H 0.23
N 0.68
O 0.68
loop_
_atom_site_label
_atom_site_type_symbol
_atom_site_fract_x
_atom_site_fract_y
_atom_site_fract_z
O1 O 0.2229(3) 1.11452(17) 0.2233(2)
O2 O 0.4625(4) 1.1481(2) 0.4453(3)
O3 O 0.2992(4) 1.4958(2) 0.3551(3)
N1 N 0.3711(4) 1.3832(2) 0.3999(3)
C1 C 0.2506(4) 0.9855(2) 0.2347(4)
C2 C 0.2122(4) 0.9391(3) 0.0674(3)
C3 C 0.2198(5) 0.8039(3) 0.0750(4)
C4 C 0.0836(6) 0.7535(3) 0.1589(4)
C5 C 0.1248(5) 0.8018(3) 0.3263(4)
C6 C 0.1158(5) 0.9348(3) 0.3198(4)
C7 C 0.3346(4) 1.1831(3) 0.3326(4)
C8 C 0.2776(5) 1.3072(3) 0.3032(4)
C9 C 0.3402(5) 0.9961(4) -0.0242(4)
C10 C 0.5547(6) 0.9704(7) 0.0484(7)
C11 C 0.2753(8) 0.9612(5) -0.1991(5)
C12 C -0.0119(9) 0.7504(5) 0.4115(7)
H1 H 0.381(4) 0.974(3) 0.293(3)
H2 H 0.081(4) 0.960(3) 0.007(3)
H3 H 0.360(5) 0.787(3) 0.132(4)
H4 H 0.191(5) 0.767(3) -0.032(4)
H5 H -0.048(5) 0.779(3) 0.093(4)
H6 H 0.101(4) 0.670(3) 0.169(4)
H7 H 0.255(5) 0.783(3) 0.382(4)
H8 H -0.023(5) 0.964(3) 0.261(4)
H9 H 0.138(4) 0.966(3) 0.422(4)
H10 H 0.181(5) 1.329(3) 0.200(4)
H11 H 0.323(4) 1.087(3) -0.016(3)
H12 H 0.631(6) 1.009(4) -0.020(5)
H13 H 0.605(6) 0.996(4) 0.166(5)
H14 H 0.563(6) 0.877(5) 0.037(5)
H15 H 0.144(6) 0.971(3) -0.253(4)
H16 H 0.348(7) 1.002(5) -0.258(6)
H17 H 0.311(8) 0.868(5) -0.190(5)
H18 H -0.160(9) 0.773(5) 0.352(7)
H19 H 0.006(6) 0.662(6) 0.424(5)
H20 H 0.036(6) 0.771(5) 0.528(7)
H21 H 0.370(6) 1.547(4) 0.420(5)
#END
