
#######################################################################
#
#                 Cambridge Crystallographic Data Centre
#                                CCDC
#
#######################################################################
#
# If this CIF has been generated from an entry in the Cambridge
# Structural Database, then it will include bibliographic, chemical,
# crystal, experimental, refinement or atomic coordinate data resulting
# from the CCDC's data processing and validation procedures.
#
#######################################################################

data_CSD_CIF_XARGOP
_audit_creation_date 2017-03-01
_audit_creation_method CSD-ConQuest-V1
_database_code_CSD XARGOP
_database_code_depnum_ccdc_archive 'CCDC 1533548'
_chemical_formula_sum 'C22 H18 N2 O3'
_chemical_formula_moiety
;
C22 H18 N2 O3
;
_journal_coeditor_code "pk4012"
_journal_coden_Cambridge 1959
_journal_volume 2
_journal_year 2017
_journal_page_first x170278
_journal_name_full 'IUCrData '
loop_
_publ_author_name
"N.El-Khatatneh"
"A.C.Vinayaka"
"Chandra"
"M.P.Sadashiva"
"S.Jeyaseelan"
"M.Mahendra"
_chemical_name_systematic
;
2-(4-(5-[(2H-1,3-benzodioxol-5-yl)methyl]-4,5-dihydro-1,2-oxazol-3-yl)phenyl)p
yridine
;
_cell_volume   1776.761
_exptl_crystal_colour 'colorless'
_exptl_crystal_density_diffrn 1.34
_exptl_crystal_description 'block'
_diffrn_ambient_temperature 293
_refine_special_details
;
C10,C11 and C10',C11' disordered over two sites with occupancies 0.887:0.113.

;
#These two values have been output from a single CSD field.
_refine_ls_R_factor_gt 0.0444
_refine_ls_wR_factor_gt 0.0444
_symmetry_cell_setting monoclinic
_symmetry_space_group_name_H-M 'P 21/c'
_symmetry_Int_Tables_number 14
loop_
_symmetry_equiv_pos_site_id
_symmetry_equiv_pos_as_xyz
1 x,y,z
2 -x,1/2+y,1/2-z
3 -x,-y,-z
4 x,-1/2-y,-1/2+z
_cell_length_a 17.548(5)
_cell_length_b 8.719(3)
_cell_length_c 12.237(4)
_cell_angle_alpha 90
_cell_angle_beta 108.380(9)
_cell_angle_gamma 90
_cell_formula_units_Z 4
loop_
_atom_type_symbol
_atom_type_radius_bond
C 0.68
H 0.23
N 0.68
O 0.68
loop_
_atom_site_label
_atom_site_type_symbol
_atom_site_fract_x
_atom_site_fract_y
_atom_site_fract_z
C1 C 0.47963(13) 0.9248(3) 0.34808(19)
H1 H 0.47646 1.03017 0.32153
H2 H 0.53235 0.90831 0.40350
O1 O 0.41886(8) 0.89620(18) 0.40031(11)
C2 C 0.3610(1) 0.8108(2) 0.31934(14)
C3 C 0.39006(10) 0.7669(2) 0.23254(15)
O2 O 0.46718(7) 0.82244(18) 0.25346(12)
C4 C 0.28619(10) 0.7700(2) 0.32070(14)
H3 H 0.26716 0.80130 0.37998
C5 C 0.26959(11) 0.6370(2) 0.14350(15)
H4 H 0.23772 0.57781 0.08307
C6 C 0.34576(11) 0.6787(2) 0.14300(15)
H5 H 0.36564 0.64798 0.08442
C7 C 0.23922(10) 0.67991(18) 0.23030(14)
C8 C 0.15409(14) 0.6325(3) 0.2197(2)
H6 H 0.11754 0.69213 0.15845
H7 H 0.14733 0.52564 0.19652
C9 C 0.12945(13) 0.6508(2) 0.3270(2)
H8 H 0.17028 0.60458 0.39277
O3 O 0.12162(6) 0.81353(11) 0.34924(10)
C10 C 0.04667(9) 0.58461(17) 0.31803(14)
H9 H 0.01315 0.57354 0.23853
H10 H 0.05105 0.48650 0.35691
N1 N 0.05736(8) 0.83097(14) 0.39460(12)
C11 C 0.01581(9) 0.70717(15) 0.37897(12)
C12 C -0.05616(8) 0.69760(15) 0.41597(12)
C13 C -0.07063(9) 0.80733(16) 0.49036(13)
H11 H -0.03378 0.88605 0.51774
C14 C -0.13835(9) 0.80089(16) 0.52372(13)
H12 H -0.14604 0.87413 0.57449
C15 C -0.19610(9) 0.68566(16) 0.48246(12)
C16 C -0.18195(9) 0.57667(17) 0.40750(12)
H13 H -0.21954 0.49959 0.37858
C17 C -0.11317(9) 0.58109(16) 0.37545(12)
H14 H -0.10462 0.50608 0.32654
C18 C -0.2685(1) 0.67674(18) 0.52005(14)
C19 C -0.27040(12) 0.7388(2) 0.62257(17)
H15 H -0.22589 0.79144 0.66914
C20 C -0.33721(13) 0.7237(3) 0.6566(2)
H16 H -0.33845 0.76502 0.72610
C21 C -0.40116(14) 0.6478(3) 0.5874(2)
H17 H -0.44740 0.63516 0.60812
C22 C -0.39649(14) 0.5894(3) 0.4855(2)
H18 H -0.44090 0.53717 0.43833
N2 N -0.33213(10) 0.6029(2) 0.44961(15)
C23? C 0.1723(11) 0.582(2) 0.276(2)
H19? H 0.15713 0.48800 0.23203
H20? H 0.19600 0.55475 0.35661
C24? C 0.1014(11) 0.6773(18) 0.2615(18)
H21? H 0.07424 0.70841 0.18171
H22? H 0.00306 0.53407 0.26005
H23? H 0.07751 0.50853 0.37176
#END
