
#######################################################################
#
#                 Cambridge Crystallographic Data Centre
#                                CCDC
#
#######################################################################
#
# If this CIF has been generated from an entry in the Cambridge
# Structural Database, then it will include bibliographic, chemical,
# crystal, experimental, refinement or atomic coordinate data resulting
# from the CCDC's data processing and validation procedures.
#
#######################################################################

data_CSD_CIF_XARNIN
_audit_creation_date 2001-02-05
_audit_creation_method CSD-ConQuest-V1
_database_code_CSD XARNIN
_database_code_depnum_ccdc_archive 'CCDC 132482'
_chemical_formula_sum 'C13 H15 N1 O1'
_chemical_formula_moiety
;
C13 H15 N1 O1
;
_journal_coden_Cambridge 580
_journal_volume 19
_journal_year 2000
_journal_page_first 569
_journal_name_full 'Polyhedron '
loop_
_publ_author_name
"C.E.Anson"
"S.Hartmann"
"R.D.Kelsey"
"G.R.Stephenson"
_chemical_name_systematic
;
4-Methyl-2-phenyl-3,6-dihydro-3,6-ethano-2H-1,2-oxazine
;
_cell_volume   1103.362
_exptl_crystal_colour 'colorless'
_exptl_crystal_density_diffrn 1.212
_exptl_crystal_description 'chunk'
_diffrn_ambient_temperature ?
_diffrn_special_details
;
The study was carried out at room temperature,in the range 283-303K

;
#These two values have been output from a single CSD field.
_refine_ls_R_factor_gt 0.0377
_refine_ls_wR_factor_gt 0.0377
_symmetry_cell_setting monoclinic
_symmetry_space_group_name_H-M 'P 21/n'
_symmetry_Int_Tables_number 14
loop_
_symmetry_equiv_pos_site_id
_symmetry_equiv_pos_as_xyz
1 x,y,z
2 1/2-x,1/2+y,1/2-z
3 -x,-y,-z
4 -1/2+x,-1/2-y,-1/2+z
_cell_length_a 8.964(3)
_cell_length_b 7.624(1)
_cell_length_c 16.312(6)
_cell_angle_alpha 90
_cell_angle_beta 98.21(3)
_cell_angle_gamma 90
_cell_formula_units_Z 4
loop_
_atom_type_symbol
_atom_type_radius_bond
C 0.68
H 0.23
N 0.68
O 0.68
loop_
_atom_site_label
_atom_site_type_symbol
_atom_site_fract_x
_atom_site_fract_y
_atom_site_fract_z
C1 C 0.3618(4) 0.2356(5) 0.1669(2)
H1 H 0.2901(36) 0.1488(41) 0.1409(20)
C2 C 0.3782(4) 0.3969(5) 0.1191(2)
H2 H 0.3143(35) 0.4208(38) 0.0696(20)
C3 C 0.4891(4) 0.4989(4) 0.1509(2)
C4 C 0.5765(4) 0.4158(4) 0.2262(2)
H3 H 0.6650(26) 0.4799(31) 0.2468(14)
C5 C 0.4768(4) 0.3820(5) 0.2928(2)
H4 H 0.4484(32) 0.4965(46) 0.3136(19)
H5 H 0.5370(32) 0.3108(38) 0.3363(18)
C6 C 0.3383(5) 0.2774(6) 0.2549(3)
H6 H 0.3265(34) 0.1701(47) 0.2831(19)
H7 H 0.2419(38) 0.3432(39) 0.2559(19)
C7 C 0.5359(6) 0.6714(6) 0.1199(4)
H8 H 0.6355(41) 0.6795(46) 0.1019(22)
H9 H 0.5315(55) 0.7752(71) 0.1576(30)
H10 H 0.4803(52) 0.6889(56) 0.0710(29)
O1 O 0.5029(3) 0.1327(3) 0.17356(14)
N1 N 0.6324(3) 0.2414(3) 0.20088(15)
C8 C 0.7292(3) 0.2476(4) 0.1390(2)
C9 C 0.7127(5) 0.1342(5) 0.0726(2)
H11 H 0.6260(33) 0.0578(42) 0.0679(19)
C10 C 0.8185(6) 0.1375(6) 0.0176(3)
H12 H 0.8000(37) 0.0631(44) -0.0245(22)
C11 C 0.9389(6) 0.2500(7) 0.0278(3)
H13 H 1.0080(47) 0.2503(54) -0.0078(25)
C12 C 0.9554(4) 0.3604(6) 0.0939(3)
H14 H 1.0464(42) 0.4426(50) 0.1016(22)
C13 C 0.8521(4) 0.3600(5) 0.1492(2)
H15 H 0.8661(31) 0.4385(40) 0.1936(18)
#END
