
#######################################################################
#
#                 Cambridge Crystallographic Data Centre
#                                CCDC
#
#######################################################################
#
# If this CIF has been generated from an entry in the Cambridge
# Structural Database, then it will include bibliographic, chemical,
# crystal, experimental, refinement or atomic coordinate data resulting
# from the CCDC's data processing and validation procedures.
#
#######################################################################

data_CSD_CIF_XARREN
_audit_creation_date 2001-02-05
_audit_creation_method CSD-ConQuest-V1
_database_code_CSD XARREN
_database_code_depnum_ccdc_archive 'CCDC 146368'
_chemical_formula_sum 'C19 H15 N1 O4'
_chemical_formula_moiety
;
C19 H15 N1 O4
;
_journal_coden_Cambridge 35
_journal_volume 65
_journal_year 2000
_journal_page_first 2287
_journal_name_full 'J.Org.Chem. '
loop_
_publ_author_name
"Shengming Ma"
"Aibin Zhang"
"Yihua Yu"
"Wei-Xia"
_chemical_name_systematic
;
(E)-p-Nitrobenzyl 6-phenylhex-5-yn-3(E)-enoate
;
_cell_volume   1623.555
_exptl_crystal_colour 'yellow'
_exptl_crystal_density_diffrn 1.315
_exptl_crystal_description 'prismatic'
_exptl_crystal_preparation 'petroleum ether/ethyl acetate'
_diffrn_ambient_temperature ?
_diffrn_special_details
;
The study was carried out at room temperature,in the range 283-303K

;
#These two values have been output from a single CSD field.
_refine_ls_R_factor_gt 0.047
_refine_ls_wR_factor_gt 0.047
_symmetry_cell_setting monoclinic
_symmetry_space_group_name_H-M 'P 21/a'
_symmetry_Int_Tables_number 14
loop_
_symmetry_equiv_pos_site_id
_symmetry_equiv_pos_as_xyz
1 x,y,z
2 1/2-x,1/2+y,-z
3 -x,-y,-z
4 -1/2+x,-1/2-y,z
_cell_length_a 9.133(2)
_cell_length_b 17.467(2)
_cell_length_c 10.186(2)
_cell_angle_alpha 90
_cell_angle_beta 92.36(1)
_cell_angle_gamma 90
_cell_formula_units_Z 4
loop_
_atom_type_symbol
_atom_type_radius_bond
C 0.68
H 0.23
N 0.68
O 0.68
loop_
_atom_site_label
_atom_site_type_symbol
_atom_site_fract_x
_atom_site_fract_y
_atom_site_fract_z
O1 O -0.0850(3) 0.8027(2) 0.5639(3)
O2 O 0.0998(2) 0.8783(1) 0.5162(2)
O3 O 0.7979(3) 0.9378(2) 0.3255(4)
O4 O 0.7497(3) 0.8758(2) 0.1463(4)
N1 N 0.7181(4) 0.8989(2) 0.2537(5)
C1 C -0.0233(4) 0.8618(2) 0.5775(4)
C2 C -0.0688(4) 0.9261(2) 0.6630(4)
C3 C -0.2092(4) 0.9083(2) 0.7272(4)
C4 C -0.3127(4) 0.9557(2) 0.7500(3)
C5 C -0.4495(4) 0.9350(2) 0.8029(3)
C6 C -0.5654(4) 0.9161(2) 0.8423(3)
C7 C -0.7024(3) 0.8874(2) 0.8875(3)
C8 C -0.7869(4) 0.9314(2) 0.9689(3)
C9 C -0.9164(4) 0.9015(2) 1.0146(4)
C10 C -0.9604(4) 0.8296(2) 0.9803(4)
C11 C -0.8778(4) 0.7861(2) 0.8979(4)
C12 C -0.7492(4) 0.8148(2) 0.8525(4)
C13 C 0.1538(4) 0.8186(2) 0.4324(4)
C14 C 0.3005(4) 0.8423(2) 0.3866(4)
C15 C 0.4000(4) 0.8804(2) 0.4672(4)
C16 C 0.5370(4) 0.8996(2) 0.4248(4)
C17 C 0.5717(4) 0.8790(2) 0.2999(4)
C18 C 0.4758(4) 0.8410(2) 0.2177(4)
C19 C 0.3399(4) 0.8221(2) 0.2616(4)
H1 H 0.00990 0.93380 0.72460
H2 H -0.08020 0.97030 0.61040
H3 H -0.22510 0.85500 0.73950
H4 H -0.30230 1.00570 0.71630
H5 H -0.74800 0.98190 0.99600
H6 H -0.97750 0.93630 1.07480
H7 H -1.04040 0.80880 1.00770
H8 H -0.90770 0.73700 0.87290
H9 H -0.68660 0.78590 0.79090
H10 H 0.16660 0.77120 0.48750
H11 H 0.08420 0.80450 0.36810
H12 H 0.37420 0.89470 0.55270
H13 H 0.60730 0.92260 0.48110
H14 H 0.50870 0.82650 0.13490
H15 H 0.27200 0.79840 0.20050
#END
