
#######################################################################
#
#                 Cambridge Crystallographic Data Centre
#                                CCDC
#
#######################################################################
#
# If this CIF has been generated from an entry in the Cambridge
# Structural Database, then it will include bibliographic, chemical,
# crystal, experimental, refinement or atomic coordinate data resulting
# from the CCDC's data processing and validation procedures.
#
#######################################################################

data_CSD_CIF_XARYOE
_audit_creation_date 2001-02-05
_audit_creation_method CSD-ConQuest-V1
_database_code_CSD XARYOE
_database_code_depnum_ccdc_archive 'CCDC 124104'
_chemical_formula_sum 'C16 H14 N4 O6'
_chemical_formula_moiety
;
C16 H14 N4 O6
;
_journal_coden_Cambridge 35
_journal_volume 64
_journal_year 1999
_journal_page_first 9254
_journal_name_full 'J.Org.Chem. '
loop_
_publ_author_name
"P.Sepulcri"
"J.C.Halle"
"R.Goumont"
"D.Riou"
"F.Terrier"
_chemical_name_systematic
;
17-Nitro-4,13,15-triaza-5,14-dioxatetracyclo(16.2.1.0^2,17^.0^3,11^.0^6,10^.0^
12,16^)henicosa-3,7,12,15,19-pentaene-4-oxide
;
_chemical_melting_point 457.15
_cell_volume   1534.521
_exptl_crystal_colour 'pale yellow'
_exptl_crystal_density_diffrn 1.551
_exptl_special_details
;
Melts with decomposition.

;
_exptl_crystal_preparation 'chloroform/pentane'
_diffrn_ambient_temperature ?
_diffrn_special_details
;
The study was carried out at room temperature,in the range 283-303K

;
#These two values have been output from a single CSD field.
_refine_ls_R_factor_gt 0.0383
_refine_ls_wR_factor_gt 0.0383
_symmetry_cell_setting monoclinic
_symmetry_space_group_name_H-M 'P 21/c'
_symmetry_Int_Tables_number 14
loop_
_symmetry_equiv_pos_site_id
_symmetry_equiv_pos_as_xyz
1 x,y,z
2 -x,1/2+y,1/2-z
3 -x,-y,-z
4 x,-1/2-y,-1/2+z
_cell_length_a 12.0262(2)
_cell_length_b 12.2022(2)
_cell_length_c 10.6340(1)
_cell_angle_alpha 90
_cell_angle_beta 100.469(1)
_cell_angle_gamma 90
_cell_formula_units_Z 4
loop_
_atom_type_symbol
_atom_type_radius_bond
C 0.68
H 0.23
N 0.68
O 0.68
loop_
_atom_site_label
_atom_site_type_symbol
_atom_site_fract_x
_atom_site_fract_y
_atom_site_fract_z
O1 O 0.52081(10) 0.11565(11) 0.22613(12)
N1 N 0.56811(11) 0.10086(11) 0.13159(13)
O2 O 0.94601(10) -0.11106(10) -0.04428(12)
O3 O 0.51154(9) 0.14897(10) 0.01501(12)
C1 C 0.71969(12) -0.00412(12) 0.24740(13)
H1 H 0.73101(12) 0.05341(12) 0.31278(13)
C2 C 0.65884(12) 0.04485(11) 0.12380(14)
O4 O 0.82040(13) -0.03533(11) -0.21257(12)
N2 N 0.95200(12) -0.11942(11) 0.08577(14)
C3 C 0.83664(12) -0.05964(12) 0.24373(14)
C4 C 0.79654(13) -0.02215(12) 0.00207(14)
C5 C 0.82544(14) -0.17602(13) 0.3022(2)
H2 H 0.88254(14) -0.23007(13) 0.2891(2)
C6 C 0.86396(12) -0.06667(11) 0.11203(15)
C7 C 0.69055(13) 0.04158(12) -0.00693(14)
H3 H 0.63056(13) 0.00345(12) -0.06540(14)
N3 N 0.84335(12) -0.04924(11) -0.09677(14)
C8 C 0.65325(14) -0.10226(13) 0.2973(2)
H4 H 0.57062(14) -0.09627(13) 0.2802(2)
C9 C 0.7085(2) -0.11610(15) 0.4365(2)
H5 H 0.6764(2) -0.09826(15) 0.5071(2)
C10 C 0.70266(14) -0.20107(13) 0.2371(2)
H6 H 0.69151(14) -0.19693(13) 0.1445(2)
H7 H 0.67538(14) -0.27064(13) 0.2635(2)
C11 C 0.8105(2) -0.15812(14) 0.4396(2)
H8 H 0.8635(2) -0.17381(14) 0.5126(2)
O5 O 0.92998(12) 0.10459(10) 0.31959(15)
O6 O 1.0148(1) -0.04821(12) 0.37821(13)
N4 N 0.93502(11) 0.00463(12) 0.32235(13)
C12 C 0.69904(15) 0.16095(13) -0.0559(2)
H9 H 0.70581(15) 0.15988(13) -0.1464(2)
C13 C 0.58890(14) 0.22119(14) -0.0400(2)
H10 H 0.55045(14) 0.24784(14) -0.1236(2)
C14 C 0.6283(2) 0.31657(15) 0.0438(2)
H11 H 0.5801(2) 0.36778(15) 0.0702(2)
C15 C 0.79698(15) 0.22808(15) 0.0214(2)
H12 H 0.84073(15) 0.18394(15) 0.0886(2)
H13 H 0.84677(15) 0.25555(15) -0.0337(2)
C16 C 0.7395(2) 0.32010(15) 0.0763(2)
H14 H 0.7781(2) 0.37436(15) 0.1282(2)
#END
