
#######################################################################
#
#                 Cambridge Crystallographic Data Centre
#                                CCDC
#
#######################################################################
#
# If this CIF has been generated from an entry in the Cambridge
# Structural Database, then it will include bibliographic, chemical,
# crystal, experimental, refinement or atomic coordinate data resulting
# from the CCDC's data processing and validation procedures.
#
#######################################################################

data_CSD_CIF_XASCIF
_audit_creation_date 2012-03-05
_audit_creation_method CSD-ConQuest-V1
_database_code_CSD XASCIF
_database_code_depnum_ccdc_archive 'CCDC 859072'
_chemical_formula_sum 'C12 H8 N4 O2'
_chemical_formula_moiety
;
C12 H8 N4 O2
;
_journal_coden_Cambridge 1078
_journal_year 2011
_journal_name_full 'CSD Communication(Private Communication) '
loop_
_publ_author_name
"J.G.Malecki"
_chemical_name_systematic
;
3,4-bis(pyridin-2-yl)-1,2,5-oxadiazole 2-oxide
;
_cell_volume   2265.970
_exptl_crystal_colour 'colorless'
_exptl_crystal_density_diffrn 1.408
_exptl_special_details
;
contribution from University of Silesia, Institute of Chemistry, Szkolna 9 
str, 40-006 Katowice, Poland
;
_exptl_crystal_description 'needle'
_diffrn_ambient_temperature 295
_refine_special_details
;
O2 disordered by symmetry over two sites with occupancy 0.50.

;
#These two values have been output from a single CSD field.
_refine_ls_R_factor_gt 0.0312
_refine_ls_wR_factor_gt 0.0312
_symmetry_cell_setting orthorhombic
_symmetry_space_group_name_H-M 'F d d 2'
_symmetry_Int_Tables_number 43
loop_
_symmetry_equiv_pos_site_id
_symmetry_equiv_pos_as_xyz
1 x,y,z
2 -x,-y,z
3 1/4-x,1/4+y,1/4+z
4 1/4+x,1/4-y,1/4+z
5 x,1/2+y,1/2+z
6 -x,1/2-y,1/2+z
7 1/4-x,3/4+y,3/4+z
8 1/4+x,3/4-y,3/4+z
9 1/2+x,y,1/2+z
10 1/2-x,-y,1/2+z
11 3/4-x,1/4+y,3/4+z
12 3/4+x,1/4-y,3/4+z
13 1/2+x,1/2+y,z
14 1/2-x,1/2-y,z
15 3/4-x,3/4+y,1/4+z
16 3/4+x,3/4-y,1/4+z
_cell_length_a 21.6713(18)
_cell_length_b 12.9407(13)
_cell_length_c 8.0800(8)
_cell_angle_alpha 90
_cell_angle_beta 90
_cell_angle_gamma 90
_cell_formula_units_Z 8
loop_
_atom_type_symbol
_atom_type_radius_bond
C 0.68
H 0.23
N 0.68
O 0.68
loop_
_atom_site_label
_atom_site_type_symbol
_atom_site_fract_x
_atom_site_fract_y
_atom_site_fract_z
C1 C 0.52037(6) -0.04311(16) 0.2255(2)
C2 C 0.54326(6) -0.10543(14) 0.3637(2)
C3 C 0.60146(8) -0.14893(17) 0.3631(3)
H1 H 0.62860 -0.13680 0.27600
C4 C 0.61821(9) -0.21001(19) 0.4929(3)
H2 H 0.65710 -0.24040 0.49550
C5 C 0.5776(1) -0.22618(16) 0.6190(3)
H3 H 0.58800 -0.26810 0.70830
C6 C 0.52120(9) -0.17911(16) 0.6106(3)
H4 H 0.49400 -0.18930 0.69820
N1 N 0.53339(8) -0.06883(16) 0.0730(2)
N2 N 0.50262(6) -0.11985(11) 0.4860(2)
O1 O 0.50000 0.00000 -0.0316(3)
O2 O 0.56704(15) -0.1409(3) 0.0075(4)
C1A C 0.47963(6) 0.04311(16) 0.2255(2)
C2A C 0.45674(6) 0.10543(14) 0.3637(2)
C3A C 0.39854(8) 0.14893(17) 0.3631(3)
H1A H 0.37140 0.13680 0.27600
C4A C 0.38179(9) 0.21001(19) 0.4929(3)
H2A H 0.34290 0.24040 0.49550
C5A C 0.4224(1) 0.22618(16) 0.6190(3)
H3A H 0.41200 0.26810 0.70830
C6A C 0.47880(9) 0.17911(16) 0.6106(3)
H4A H 0.50600 0.18930 0.69820
N1A N 0.46661(8) 0.06883(16) 0.0730(2)
N2A N 0.49738(6) 0.11985(11) 0.4860(2)
O2A O 0.43296(15) 0.1409(3) 0.0075(4)
#END
