
#######################################################################
#
#                 Cambridge Crystallographic Data Centre
#                                CCDC
#
#######################################################################
#
# If this CIF has been generated from an entry in the Cambridge
# Structural Database, then it will include bibliographic, chemical,
# crystal, experimental, refinement or atomic coordinate data resulting
# from the CCDC's data processing and validation procedures.
#
#######################################################################

data_CSD_CIF_XASCAX
_audit_creation_date 2012-03-05
_audit_creation_method CSD-ConQuest-V1
_database_code_CSD XASCAX
_database_code_depnum_ccdc_archive 'CCDC 859132'
_chemical_formula_sum 'C19 H21 N1 O2'
_chemical_formula_moiety
;
C19 H21 N1 O2
;
_journal_coden_Cambridge 1078
_journal_year 2011
_journal_name_full 'CSD Communication(Private Communication) '
loop_
_publ_author_name
"J.G.Malecki"
_chemical_name_systematic
;
3-mesityl-4-methyl-5-phenoxy-4,5-dihydro-1,2-oxazole
;
_cell_volume   1620.673
_exptl_crystal_colour 'colorless'
_exptl_crystal_density_diffrn 1.211
_exptl_crystal_description 'block'
_diffrn_ambient_temperature 295
#These two values have been output from a single CSD field.
_refine_ls_R_factor_gt 0.0517
_refine_ls_wR_factor_gt 0.0517
_symmetry_cell_setting monoclinic
_symmetry_space_group_name_H-M 'P 21/c'
_symmetry_Int_Tables_number 14
loop_
_symmetry_equiv_pos_site_id
_symmetry_equiv_pos_as_xyz
1 x,y,z
2 -x,1/2+y,1/2-z
3 -x,-y,-z
4 x,-1/2-y,-1/2+z
_cell_length_a 10.2939(9)
_cell_length_b 10.744(1)
_cell_length_c 14.9224(10)
_cell_angle_alpha 90
_cell_angle_beta 100.888(8)
_cell_angle_gamma 90
_cell_formula_units_Z 4
loop_
_atom_type_symbol
_atom_type_radius_bond
C 0.68
H 0.23
N 0.68
O 0.68
loop_
_atom_site_label
_atom_site_type_symbol
_atom_site_fract_x
_atom_site_fract_y
_atom_site_fract_z
C1 C 0.46850(16) 0.14585(17) 0.20412(11)
C2 C 0.50036(17) 0.28157(17) 0.19613(12)
H1 H 0.50230 0.32080 0.25560
C3 C 0.64140(18) 0.27132(18) 0.18074(12)
H2 H 0.69710 0.33630 0.21440
C4 C 0.4029(2) 0.3525(2) 0.12527(16)
H3 H 0.38970 0.30840 0.06830
H4 H 0.43740 0.43390 0.11720
H5 H 0.32010 0.36010 0.14540
C5 C 0.33520(17) 0.09148(16) 0.19854(11)
C6 C 0.26589(18) 0.10870(19) 0.26973(12)
C7 C 0.14048(18) 0.0573(2) 0.26159(13)
H6 H 0.09450 0.06810 0.30900
C8 C 0.08168(18) -0.00939(19) 0.18564(14)
C9 C 0.15161(19) -0.02412(18) 0.11618(14)
H7 H 0.11300 -0.06840 0.06440
C10 C 0.27762(19) 0.02474(17) 0.12057(13)
C11 C 0.3492(2) 0.0053(2) 0.04302(15)
H8 H 0.38840 0.08230 0.02920
H9 H 0.28780 -0.02280 -0.00970
H10 H 0.41720 -0.05610 0.05990
C12 C -0.0545(2) -0.0650(2) 0.17880(18)
H11 H -0.09520 -0.07390 0.11570
H12 H -0.10760 -0.01120 0.20860
H13 H -0.04740 -0.14510 0.20780
C13 C 0.3264(2) 0.1779(3) 0.35466(15)
H14 H 0.41520 0.14900 0.37570
H15 H 0.27500 0.16370 0.40110
H16 H 0.32770 0.26530 0.34160
C14 C 0.76135(17) 0.29619(17) 0.05954(12)
C15 C 0.7542(2) 0.3406(2) -0.02803(14)
H17 H 0.67250 0.35790 -0.06450
C16 C 0.8687(2) 0.3592(2) -0.06108(16)
H18 H 0.86410 0.38930 -0.12000
C17 C 0.9893(2) 0.3338(2) -0.00803(16)
H19 H 1.06640 0.34790 -0.03050
C18 C 0.99624(19) 0.2877(2) 0.07793(15)
H20 H 1.07830 0.26940 0.11360
C19 C 0.88225(19) 0.26790(19) 0.11260(13)
H21 H 0.88730 0.23590 0.17100
N1 N 0.56968(15) 0.07522(16) 0.21343(12)
O1 O 0.68451(12) 0.15138(14) 0.2138(1)
O2 O 0.64143(12) 0.27999(13) 0.08669(8)
#END
