
#######################################################################
#
#                 Cambridge Crystallographic Data Centre
#                                CCDC
#
#######################################################################
#
# If this CIF has been generated from an entry in the Cambridge
# Structural Database, then it will include bibliographic, chemical,
# crystal, experimental, refinement or atomic coordinate data resulting
# from the CCDC's data processing and validation procedures.
#
#######################################################################

data_CSD_CIF_XASCIF01
_audit_creation_date 2014-01-13
_audit_creation_method CSD-ConQuest-V1
_database_code_CSD XASCIF01
_database_code_depnum_ccdc_archive 'CCDC 973854'
_chemical_formula_sum 'C12 H8 N4 O2'
_chemical_formula_moiety
;
C12 H8 N4 O2
;
_journal_coden_Cambridge 1078
_journal_year 2013
_journal_name_full 'CSD Communication(Private Communication) '
loop_
_publ_author_name
"J.G.Malecki"
_chemical_name_systematic
;
3,4-bis(pyridin-2-yl)-1,2,5-oxadiazole 2-oxide
;
_cell_volume   2267.094
_exptl_crystal_colour 'colorless'
_exptl_crystal_density_diffrn 1.408
_exptl_crystal_description 'needle'
_diffrn_ambient_temperature 295
_refine_special_details
;
O2 disordered by symmetry over two configurations with occupancy 0.50.

;
#These two values have been output from a single CSD field.
_refine_ls_R_factor_gt 0.0313
_refine_ls_wR_factor_gt 0.0313
_symmetry_cell_setting orthorhombic
_symmetry_space_group_name_H-M 'F d d 2'
_symmetry_Int_Tables_number 43
loop_
_symmetry_equiv_pos_site_id
_symmetry_equiv_pos_as_xyz
1 x,y,z
2 -x,-y,z
3 1/4-x,1/4+y,1/4+z
4 1/4+x,1/4-y,1/4+z
5 x,1/2+y,1/2+z
6 -x,1/2-y,1/2+z
7 1/4-x,3/4+y,3/4+z
8 1/4+x,3/4-y,3/4+z
9 1/2+x,y,1/2+z
10 1/2-x,-y,1/2+z
11 3/4-x,1/4+y,3/4+z
12 3/4+x,1/4-y,3/4+z
13 1/2+x,1/2+y,z
14 1/2-x,1/2-y,z
15 3/4-x,3/4+y,1/4+z
16 3/4+x,3/4-y,1/4+z
_cell_length_a 21.6726(17)
_cell_length_b 12.9433(11)
_cell_length_c 8.0819(8)
_cell_angle_alpha 90
_cell_angle_beta 90
_cell_angle_gamma 90
_cell_formula_units_Z 8
loop_
_atom_type_symbol
_atom_type_radius_bond
C 0.68
H 0.23
N 0.68
O 0.68
loop_
_atom_site_label
_atom_site_type_symbol
_atom_site_fract_x
_atom_site_fract_y
_atom_site_fract_z
O1 O -0.50000 -0.50000 -2.1762(2)
O2 O -0.56709(14) -0.3590(2) -2.1371(4)
N1 N -0.53336(7) -0.43110(16) -2.07149(19)
N2 N -0.50264(6) -0.38016(10) -1.6584(2)
C1 C -0.52036(6) -0.45694(15) -1.9189(2)
C2 C -0.54327(6) -0.39472(13) -1.7807(2)
C3 C -0.60149(7) -0.35107(16) -1.7815(3)
H1 H -0.62860 -0.36310 -1.86850
C4 C -0.61822(9) -0.28989(18) -1.6516(3)
H2 H -0.65710 -0.25940 -1.64910
C5 C -0.57760(9) -0.27369(15) -1.5255(3)
H3 H -0.58790 -0.23170 -1.43630
C6 C -0.52113(8) -0.32089(15) -1.5337(3)
H4 H -0.49390 -0.31080 -1.44620
O2A O -0.43291(14) -0.6410(2) -2.1371(4)
N1A N -0.46664(7) -0.56890(16) -2.07149(19)
N2A N -0.49736(6) -0.61984(10) -1.6584(2)
C1A C -0.47964(6) -0.54306(15) -1.9189(2)
C2A C -0.45673(6) -0.60528(13) -1.7807(2)
C3A C -0.39851(7) -0.64893(16) -1.7815(3)
H1A H -0.37140 -0.63690 -1.86850
C4A C -0.38178(9) -0.71011(18) -1.6516(3)
H2A H -0.34290 -0.74060 -1.64910
C5A C -0.42240(9) -0.72631(15) -1.5255(3)
H3A H -0.41210 -0.76830 -1.43630
C6A C -0.47887(8) -0.67911(15) -1.5337(3)
H4A H -0.50610 -0.68920 -1.44620
#END
