
#######################################################################
#
#                 Cambridge Crystallographic Data Centre
#                                CCDC
#
#######################################################################
#
# If this CIF has been generated from an entry in the Cambridge
# Structural Database, then it will include bibliographic, chemical,
# crystal, experimental, refinement or atomic coordinate data resulting
# from the CCDC's data processing and validation procedures.
#
#######################################################################

data_CSD_CIF_XASQOX
_audit_creation_date 2001-02-05
_audit_creation_method CSD-ConQuest-V1
_database_code_CSD XASQOX
_database_code_depnum_ccdc_archive 'CCDC 151385'
_chemical_formula_sum 'C12 H12 N4 O4'
_chemical_formula_moiety
;
C12 H12 N4 O4
;
_journal_coden_Cambridge 1078
_journal_year 2000
_journal_name_full 'CSD Communication(Private Communication) '
loop_
_publ_author_name
"R.Stadler"
"U.Seidel"
"D.Schollmeyer"
_chemical_name_systematic
;
trans-1-(Buten-3-yl)-4-(p-nitrophenyl)-1,2,4-triazolidine-3,5-dione
;
_chemical_name_common
;
trans-1-(Buten-3-yl)-4-(p-nitrophenyl)urazole
;
_cell_volume    653.955
_exptl_crystal_colour 'pale yellow'
_exptl_crystal_density_diffrn 1.403
_exptl_special_details
;
contribution from thesis of U.Seidel (1995), Institut of Organic Chemistry, 
University of Mainz, Germany
;
_exptl_crystal_description 'prismatic'
_diffrn_ambient_temperature ?
_diffrn_special_details
;
The study was carried out at room temperature,in the range 283-303K

;
_refine_special_details
;
The but-3-enyl group is equally disordered over two sets of positions.

;
#These two values have been output from a single CSD field.
_refine_ls_R_factor_gt 0.0657
_refine_ls_wR_factor_gt 0.0657
_symmetry_cell_setting triclinic
_symmetry_space_group_name_H-M 'P -1'
_symmetry_Int_Tables_number 2
loop_
_symmetry_equiv_pos_site_id
_symmetry_equiv_pos_as_xyz
1 x,y,z
2 -x,-y,-z
_cell_length_a 6.4096(2)
_cell_length_b 8.8010(3)
_cell_length_c 12.4528(6)
_cell_angle_alpha 105.879(3)
_cell_angle_beta 92.969(4)
_cell_angle_gamma 102.857(3)
_cell_formula_units_Z 2
loop_
_atom_type_symbol
_atom_type_radius_bond
C 0.68
H 0.23
N 0.68
O 0.68
loop_
_atom_site_label
_atom_site_type_symbol
_atom_site_fract_x
_atom_site_fract_y
_atom_site_fract_z
O1 O 0.7873(2) 1.0336(2) 0.08824(13)
O2 O 0.3436(2) 0.5258(2) -0.08692(13)
C1 C 0.7078(3) 0.9017(2) 0.0190(2)
N1 N 0.7689(3) 0.8420(2) -0.08231(15)
H1 H 0.8973(3) 0.8715(2) -0.09984(15)
N2 N 0.6550(3) 0.6771(2) -0.12845(15)
C2 C 0.4921(3) 0.6474(2) -0.0655(2)
N3 N 0.5300(2) 0.7842(2) 0.02923(14)
C3 C 0.4117(3) 0.7970(2) 0.1235(2)
C4 C 0.1881(3) 0.7362(2) 0.1064(2)
H2 H 0.1291(3) 0.6861(2) 0.0203(2)
C5 C 0.0755(3) 0.7443(2) 0.1984(2)
H3 H -0.0828(3) 0.6949(2) 0.1806(2)
C6 C 0.1853(3) 0.8127(2) 0.3043(2)
C7 C 0.4077(3) 0.8733(3) 0.3225(2)
H4 H 0.4668(3) 0.9178(3) 0.3997(2)
C8 C 0.5193(3) 0.8651(2) 0.2313(2)
H5 H 0.6774(3) 0.9063(2) 0.2397(2)
N4 N 0.0662(3) 0.8167(2) 0.4020(2)
O3 O 0.1625(3) 0.8795(3) 0.4954(2)
O4 O -0.1281(3) 0.7548(3) 0.3842(2)
C9 C 0.6464(35) 0.6067(19) -0.2439(14)
H6 H 0.5840(35) 0.4888(19) -0.2534(14)
C10 C 0.8494(20) 0.6073(15) -0.2885(8)
H7 H 0.9283(20) 0.5612(15) -0.2435(8)
H8 H 0.9261(20) 0.7175(15) -0.2803(8)
H9 H 0.8338(20) 0.5441(15) -0.3660(8)
C11 C 0.4956(15) 0.6802(14) -0.3092(6)
H10 H 0.3753(15) 0.7086(14) -0.2787(6)
C12 C 0.5316(19) 0.7104(12) -0.3997(7)
H11 H 0.6506(19) 0.6838(12) -0.4327(7)
H12 H 0.4431(19) 0.7587(12) -0.4340(7)
C13? C 0.6153(32) 0.6044(18) -0.2558(12)
H13? H 0.5390(32) 0.4896(18) -0.2714(12)
C14? C 0.4853(30) 0.6812(24) -0.3124(14)
H14? H 0.4488(30) 0.6187(24) -0.3901(14)
H15? H 0.5622(30) 0.7903(24) -0.3071(14)
H16? H 0.3558(30) 0.6839(24) -0.2772(14)
C15? C 0.8517(34) 0.6053(20) -0.2896(17)
H17? H 0.9566(34) 0.5831(20) -0.2460(17)
C16? C 0.8922(11) 0.6391(15) -0.3750(7)
H18? H 0.7888(11) 0.6616(15) -0.4195(7)
H19? H 1.0288(11) 0.6399(15) -0.3971(7)
#END
