
#######################################################################
#
#                 Cambridge Crystallographic Data Centre
#                                CCDC
#
#######################################################################
#
# If this CIF has been generated from an entry in the Cambridge
# Structural Database, then it will include bibliographic, chemical,
# crystal, experimental, refinement or atomic coordinate data resulting
# from the CCDC's data processing and validation procedures.
#
#######################################################################

data_CSD_CIF_XASROB
_audit_creation_date 2017-03-02
_audit_creation_method CSD-ConQuest-V1
_database_code_CSD XASROB
_database_code_depnum_ccdc_archive 'CCDC 1500574'
_chemical_formula_sum 'C3 H4 N2 O7'
_chemical_formula_moiety
;
C3 H4 N2 O7
;
_journal_coden_Cambridge 29
_journal_volume 643
_journal_year 2017
_journal_page_first 149
_journal_name_full 'Z.Anorg.Allg.Chem. '
loop_
_publ_author_name
"T.S.Hermann"
"T.M.Klapotke"
"B.Krumm"
"J.Stierstorfer"
_chemical_name_systematic
;
2-oxopropane-1,3-diyl dinitrate
;
_chemical_name_common
;
1,3-dinitratoacetone
;
_cell_volume   1340.314
_exptl_crystal_colour 'colorless'
_exptl_crystal_density_diffrn 1.785
_exptl_crystal_description 'block'
_diffrn_ambient_temperature 173
#These two values have been output from a single CSD field.
_refine_ls_R_factor_gt 0.0276
_refine_ls_wR_factor_gt 0.0276
_symmetry_cell_setting orthorhombic
_symmetry_space_group_name_H-M 'F d d 2'
_symmetry_Int_Tables_number 43
loop_
_symmetry_equiv_pos_site_id
_symmetry_equiv_pos_as_xyz
1 x,y,z
2 -x,-y,z
3 1/4-x,1/4+y,1/4+z
4 1/4+x,1/4-y,1/4+z
5 x,1/2+y,1/2+z
6 -x,1/2-y,1/2+z
7 1/4-x,3/4+y,3/4+z
8 1/4+x,3/4-y,3/4+z
9 1/2+x,y,1/2+z
10 1/2-x,-y,1/2+z
11 3/4-x,1/4+y,3/4+z
12 3/4+x,1/4-y,3/4+z
13 1/2+x,1/2+y,z
14 1/2-x,1/2-y,z
15 3/4-x,3/4+y,1/4+z
16 3/4+x,3/4-y,1/4+z
_cell_length_a 13.2800(11)
_cell_length_b 20.4970(4)
_cell_length_c 4.9240(18)
_cell_angle_alpha 90
_cell_angle_beta 90
_cell_angle_gamma 90
_cell_formula_units_Z 8
loop_
_atom_type_symbol
_atom_type_radius_bond
C 0.68
H 0.23
N 0.68
O 0.68
loop_
_atom_site_label
_atom_site_type_symbol
_atom_site_fract_x
_atom_site_fract_y
_atom_site_fract_z
O1 O 0.50000 0.00000 0.2506(3)
O2 O 0.67632(7) 0.03060(5) 0.48209(17)
O3 O 0.72226(9) 0.10347(5) 0.1867(2)
C1 C 0.50000 0.00000 0.4949(4)
O4 O 0.59690(8) 0.12666(5) 0.4518(2)
N1 N 0.66255(8) 0.09223(6) 0.3643(2)
C2 C 0.59487(9) 0.01300(7) 0.6585(3)
H1 H 0.58313(16) 0.0464(4) 0.7807(14)
H2 H 0.6120(2) -0.0240(4) 0.7559(11)
O2A O 0.32368(7) -0.03060(5) 0.48209(17)
O3A O 0.27774(9) -0.10347(5) 0.1867(2)
O4A O 0.40310(8) -0.12666(5) 0.4518(2)
N1A N 0.33745(8) -0.09223(6) 0.3643(2)
C2A C 0.40513(9) -0.01300(7) 0.6585(3)
H1A H 0.41687(16) -0.0464(4) 0.7807(14)
H2A H 0.3880(2) 0.0240(4) 0.7559(11)
#END
