
#######################################################################
#
#                 Cambridge Crystallographic Data Centre
#                                CCDC
#
#######################################################################
#
# If this CIF has been generated from an entry in the Cambridge
# Structural Database, then it will include bibliographic, chemical,
# crystal, experimental, refinement or atomic coordinate data resulting
# from the CCDC's data processing and validation procedures.
#
#######################################################################

data_CSD_CIF_XASRUH
_audit_creation_date 2017-03-02
_audit_creation_method CSD-ConQuest-V1
_database_code_CSD XASRUH
_database_code_depnum_ccdc_archive 'CCDC 1500575'
_chemical_formula_sum 'C6 H8 N4 O14'
_chemical_formula_moiety
;
C6 H8 N4 O14
;
_journal_coden_Cambridge 29
_journal_volume 643
_journal_year 2017
_journal_page_first 149
_journal_name_full 'Z.Anorg.Allg.Chem. '
loop_
_publ_author_name
"T.S.Hermann"
"T.M.Klapotke"
"B.Krumm"
"J.Stierstorfer"
_chemical_name_systematic
;
2,5-bis((nitrooxy)methyl)-1,4-dioxane-2,5-diyl dinitrate
;
_cell_volume    653.570
_exptl_crystal_colour 'white'
_exptl_crystal_density_diffrn 1.83
_exptl_crystal_description 'plate'
_diffrn_ambient_temperature 173
#These two values have been output from a single CSD field.
_refine_ls_R_factor_gt 0.0648
_refine_ls_wR_factor_gt 0.0648
_symmetry_cell_setting triclinic
_symmetry_space_group_name_H-M 'P -1'
_symmetry_Int_Tables_number 2
loop_
_symmetry_equiv_pos_site_id
_symmetry_equiv_pos_as_xyz
1 x,y,z
2 -x,-y,-z
_cell_length_a 5.1866(6)
_cell_length_b 6.4475(7)
_cell_length_c 20.157(2)
_cell_angle_alpha 89.506(9)
_cell_angle_beta 87.640(9)
_cell_angle_gamma 76.03(1)
_cell_formula_units_Z 2
loop_
_atom_type_symbol
_atom_type_radius_bond
C 0.68
H 0.23
N 0.68
O 0.68
loop_
_atom_site_label
_atom_site_type_symbol
_atom_site_fract_x
_atom_site_fract_y
_atom_site_fract_z
O1 O 0.2662(5) 0.5776(4) 0.15911(11)
O2 O 0.0331(6) 0.7195(5) 0.25015(13)
O3 O -0.1532(4) 0.4135(3) 0.04662(10)
O4 O 0.4531(6) 0.7097(5) 0.23689(14)
O5 O 0.3135(4) 0.2977(3) 0.05750(11)
O6 O 0.1369(6) 0.0814(4) 0.12422(13)
O7 O 0.5378(6) -0.0212(4) 0.08115(14)
C1 C 0.1431(7) 0.6439(5) 0.02226(15)
N1 N 0.2451(7) 0.6789(5) 0.22133(14)
N2 N 0.3271(6) 0.1026(4) 0.09180(14)
C2 C 0.0744(6) 0.4706(5) 0.06664(15)
C3 C 0.0169(7) 0.5444(6) 0.13818(16)
H1 H 0.324(6) 0.664(4) 0.0302(13)
H2 H -0.001(6) 0.772(5) 0.0297(14)
H3 H -0.104(7) 0.658(6) 0.1389(15)
H4 H -0.034(7) 0.446(6) 0.1658(19)
O8 O 0.3664(4) 0.9130(3) 0.45231(10)
O9 O 0.8250(4) 1.0948(4) 0.34556(10)
O10 O 1.0465(5) 1.2239(5) 0.26931(13)
O11 O 0.6445(6) 1.2091(5) 0.24974(12)
O12 O 0.8375(4) 0.7988(3) 0.44336(10)
O13 O 1.0716(5) 0.4807(4) 0.41968(14)
O14 O 0.6871(5) 0.5830(4) 0.37533(13)
N3 N 0.8642(6) 0.6046(4) 0.40868(14)
N4 N 0.8363(6) 1.1843(5) 0.28204(14)
C4 C 0.3501(7) 0.8546(5) 0.52102(15)
C5 C 0.5988(6) 0.9714(5) 0.43402(15)
C6 C 0.5727(7) 1.0469(6) 0.36209(16)
H5 H 0.422(7) 1.168(6) 0.3599(15)
H6 H 0.159(6) 0.839(4) 0.5277(13)
H7 H 0.481(6) 0.729(5) 0.5294(14)
H8 H 0.544(6) 0.946(5) 0.3336(15)
O1A O -0.2662(5) 0.4224(4) -0.15911(11)
O2A O -0.0331(6) 0.2805(5) -0.25015(13)
O3A O 0.1532(4) 0.5865(3) -0.04662(10)
O4A O -0.4531(6) 0.2903(5) -0.23689(14)
O5A O -0.3135(4) 0.7023(3) -0.05750(11)
O6A O -0.1369(6) 0.9186(4) -0.12422(13)
O7A O -0.5378(6) 1.0212(4) -0.08115(14)
C1A C -0.1431(7) 0.3561(5) -0.02226(15)
N1A N -0.2451(7) 0.3211(5) -0.22133(14)
N2A N -0.3271(6) 0.8974(4) -0.09180(14)
C2A C -0.0744(6) 0.5294(5) -0.06664(15)
C3A C -0.0169(7) 0.4556(6) -0.13818(16)
H1A H -0.324(6) 0.336(4) -0.0302(13)
H2A H 0.001(6) 0.228(5) -0.0297(14)
H3A H 0.104(7) 0.342(6) -0.1389(15)
H4A H 0.034(7) 0.554(6) -0.1658(19)
O8A O 0.6336(4) 1.0870(3) 0.54769(10)
O9A O 0.1750(4) 0.9052(4) 0.65444(10)
O10A O -0.0465(5) 0.7761(5) 0.73069(13)
O11A O 0.3555(6) 0.7909(5) 0.75026(12)
O12A O 0.1625(4) 1.2012(3) 0.55664(10)
O13A O -0.0716(5) 1.5193(4) 0.58032(14)
O14A O 0.3129(5) 1.4170(4) 0.62467(13)
N3A N 0.1358(6) 1.3954(4) 0.59132(14)
N4A N 0.1637(6) 0.8157(5) 0.71796(14)
C4A C 0.6499(7) 1.1454(5) 0.47898(15)
C5A C 0.4012(6) 1.0286(5) 0.56598(15)
C6A C 0.4273(7) 0.9531(6) 0.63791(16)
H5A H 0.578(7) 0.832(6) 0.6401(15)
H6A H 0.841(6) 1.161(4) 0.4723(13)
H7A H 0.519(6) 1.271(5) 0.4706(14)
H8A H 0.456(6) 1.054(5) 0.6664(15)
#END
