
#######################################################################
#
#                 Cambridge Crystallographic Data Centre
#                                CCDC
#
#######################################################################
#
# If this CIF has been generated from an entry in the Cambridge
# Structural Database, then it will include bibliographic, chemical,
# crystal, experimental, refinement or atomic coordinate data resulting
# from the CCDC's data processing and validation procedures.
#
#######################################################################

data_CSD_CIF_XATWIA
_audit_creation_date 2012-03-05
_audit_creation_method CSD-ConQuest-V1
_database_code_CSD XATWIA
_database_code_depnum_ccdc_archive 'CCDC 864999'
_chemical_formula_sum 'C30 H41 N3 O8'
_chemical_formula_moiety
;
C30 H41 N3 O8
;
_journal_coden_Cambridge 4
_journal_volume 132
_journal_year 2010
_journal_page_first 16962
_journal_name_full 'J.Am.Chem.Soc. '
loop_
_publ_author_name
"L.A.Marcaurelle"
"E.Comer"
"S.Dandapani"
"J.R.Duvall"
"B.Gerard"
"S.Kesavan"
"M.D.Lee IV"
"Haibo Liu"
"J.T.Lowe"
"J.-C.Marie"
"C.A.Mulrooney"
"B.A.Pandya"
"A.Rowley"
"T.D.Ryba"
"Byung-Chul Suh"
"Jingqiang Wei"
"D.W.Young"
"L.B.Akella"
"N.T.Ross"
"Yan-Ling Zhang"
"D.M.Fass"
"S.A.Reis"
"Wen-Ning Zhao"
"S.J.Haggarty"
"M.Palmer"
"M.A.Foley"
_chemical_name_systematic
;
t-Butyl 
((5-(1-((4-methoxybenzyl)oxy)propan-2-yl)-3-methyl-9-nitro-6-oxo-2,3,4,5,6,7-h
exahydro-1,5-benzoxazonin-2-yl)methyl)methylcarbamate
;
_cell_volume   3059.891
_exptl_crystal_colour 'colorless'
_exptl_crystal_density_diffrn 1.241
_exptl_special_details
;
Absolute configuration

;
_exptl_crystal_description 'needle'
_diffrn_ambient_temperature 100
#These two values have been output from a single CSD field.
_refine_ls_R_factor_gt 0.0264
_refine_ls_wR_factor_gt 0.0264
_symmetry_cell_setting orthorhombic
_symmetry_space_group_name_H-M 'P 21 21 21'
_symmetry_Int_Tables_number 19
loop_
_symmetry_equiv_pos_site_id
_symmetry_equiv_pos_as_xyz
1 x,y,z
2 1/2-x,-y,1/2+z
3 -x,1/2+y,1/2-z
4 1/2+x,1/2-y,-z
_cell_length_a 9.6826(2)
_cell_length_b 16.0482(4)
_cell_length_c 19.6919(5)
_cell_angle_alpha 90
_cell_angle_beta 90
_cell_angle_gamma 90
_cell_formula_units_Z 4
loop_
_atom_type_symbol
_atom_type_radius_bond
C 0.68
H 0.23
N 0.68
O 0.68
loop_
_atom_site_label
_atom_site_type_symbol
_atom_site_fract_x
_atom_site_fract_y
_atom_site_fract_z
O1 O 0.20254(12) -0.10456(6) 0.94306(7)
O2 O 0.03910(12) -0.08329(6) 1.01636(6)
O3 O 0.04811(8) 0.26344(5) 0.87207(4)
O4 O 0.14851(9) 0.28108(5) 1.05996(4)
O5 O -0.03016(11) 0.10005(6) 0.68591(5)
O6 O 0.03457(9) 0.23661(5) 0.68142(4)
O7 O 0.25699(9) 0.42932(5) 0.90695(4)
O8 O 0.57579(10) 0.21798(7) 0.68976(5)
N1 N 0.11468(12) -0.06015(7) 0.96988(6)
N2 N 0.02983(10) 0.37321(6) 0.99523(5)
N3 N -0.10927(12) 0.19362(6) 0.76300(5)
C1 C 0.09897(13) 0.02536(8) 0.94448(7)
C2 C 0.02783(13) 0.08198(7) 0.98441(6)
H1 H -0.00940 0.06510 1.02690
C3 C 0.01119(12) 0.16354(7) 0.96213(6)
C4 C 0.06237(12) 0.18466(7) 0.89754(6)
C5 C 0.13728(13) 0.12719(8) 0.85905(7)
H2 H 0.17480 0.14330 0.81650
C6 C 0.15708(13) 0.04683(8) 0.88269(7)
H3 H 0.20910 0.00750 0.85720
C7 C -0.05353(12) 0.22758(7) 1.00872(6)
H4 H -0.08110 0.20070 1.05190
H5 H -0.13740 0.25090 0.98720
C8 C 0.04888(12) 0.29732(7) 1.02309(6)
C9 C -0.09614(12) 0.39785(7) 0.95857(6)
H6 H -0.11160 0.45790 0.96700
H7 H -0.17470 0.36750 0.97910
C10 C -0.10191(12) 0.38372(7) 0.88107(6)
H8 H -0.02450 0.41510 0.85920
C11 C -0.23996(14) 0.42128(8) 0.85741(7)
H9 H -0.23790 0.42920 0.80810
H10 H -0.25440 0.47510 0.87980
H11 H -0.31550 0.38340 0.86930
C12 C -0.09254(12) 0.29207(7) 0.86034(6)
H12 H -0.15800 0.25840 0.88840
C13 C 0.13245(13) 0.43893(8) 1.01113(6)
H13 H 0.21500 0.41060 1.03110
C14 C 0.07608(15) 0.49870(9) 1.06522(7)
H14 H -0.00150 0.53030 1.04630
H15 H 0.14920 0.53730 1.07920
H16 H 0.04460 0.46670 1.10470
C15 C 0.18112(13) 0.48548(8) 0.94853(7)
H17 H 0.10080 0.50760 0.92320
H18 H 0.24040 0.53300 0.96200
C16 C -0.12586(13) 0.28006(8) 0.78492(6)
H19 H -0.22220 0.29790 0.77640
H20 H -0.06430 0.31610 0.75760
C17 C -0.19993(15) 0.13036(8) 0.79272(7)
H21 H -0.26850 0.11290 0.75900
H22 H -0.24720 0.15370 0.83240
H23 H -0.14480 0.08210 0.80670
C18 C -0.03405(14) 0.17113(7) 0.70774(6)
C19 C 0.12071(14) 0.22695(8) 0.62031(6)
C20 C 0.23455(18) 0.16444(10) 0.63318(9)
H24 H 0.28200 0.17840 0.67560
H25 H 0.30070 0.16600 0.59550
H26 H 0.19470 0.10850 0.63670
C21 C 0.02985(19) 0.20445(10) 0.55995(7)
H27 H -0.01400 0.15030 0.56800
H28 H 0.08660 0.20140 0.51880
H29 H -0.04160 0.24710 0.55410
C22 C 0.18031(16) 0.31420(9) 0.61186(7)
H30 H 0.10480 0.35440 0.60680
H31 H 0.23910 0.31580 0.57140
H32 H 0.23530 0.32850 0.65200
C23 C 0.29623(15) 0.46496(9) 0.84368(7)
H33 H 0.35670 0.51380 0.85150
H34 H 0.21310 0.48400 0.81890
C24 C 0.37178(13) 0.40069(8) 0.80225(6)
C25 C 0.45738(13) 0.42432(9) 0.74865(6)
H35 H 0.46880 0.48190 0.73890
C26 C 0.52660(13) 0.36571(9) 0.70904(6)
H36 H 0.58290 0.38320 0.67220
C27 C 0.51247(13) 0.28170(9) 0.72393(6)
C28 C 0.42810(14) 0.25718(9) 0.77792(6)
H37 H 0.41970 0.19980 0.78890
C29 C 0.35681(13) 0.31570(9) 0.81544(6)
H38 H 0.29670 0.29790 0.85070
C30 C 0.65419(18) 0.23894(11) 0.63092(8)
H39 H 0.59580 0.26980 0.59900
H40 H 0.68760 0.18780 0.60920
H41 H 0.73310 0.27360 0.64410
#END
