
#######################################################################
#
#                 Cambridge Crystallographic Data Centre
#                                CCDC
#
#######################################################################
#
# If this CIF has been generated from an entry in the Cambridge
# Structural Database, then it will include bibliographic, chemical,
# crystal, experimental, refinement or atomic coordinate data resulting
# from the CCDC's data processing and validation procedures.
#
#######################################################################

data_CSD_CIF_XATZUO
_audit_creation_date 2005-11-15
_audit_creation_method CSD-ConQuest-V1
_database_code_CSD XATZUO
_database_code_depnum_ccdc_archive 'CCDC 282058'
_chemical_formula_sum 'C14 H11 N3 O3'
_chemical_formula_moiety
;
C14 H11 N3 O3
;
_journal_coden_Cambridge 82
_journal_volume 46
_journal_year 2005
_journal_page_first 378
_journal_name_full 'Zh.Strukt.Khim.(Russ.)(J.Struct.Chem.) '
loop_
_publ_author_name
"Yu.M.Chumakov"
"Z.A.Starikova"
"B.Ya.Antosyak"
"V.I.Tsapkov"
"N.M.Samus'"
"A.P.Gulya"
_chemical_name_systematic
;
N'-((4-Nitrophenyl)methylidene)benzenecarbohydrazide
;
_cell_volume   1292.805
_exptl_crystal_colour 'light yellow'
_exptl_crystal_density_diffrn 1.384
_exptl_crystal_description 'prism'
_exptl_crystal_preparation 'methanol'
_diffrn_ambient_temperature 295
#These two values have been output from a single CSD field.
_refine_ls_R_factor_gt 0.0382
_refine_ls_wR_factor_gt 0.0382
_symmetry_cell_setting monoclinic
_symmetry_space_group_name_H-M 'P 21/n'
_symmetry_Int_Tables_number 14
loop_
_symmetry_equiv_pos_site_id
_symmetry_equiv_pos_as_xyz
1 x,y,z
2 1/2-x,1/2+y,1/2-z
3 -x,-y,-z
4 -1/2+x,-1/2-y,-1/2+z
_cell_length_a 7.101(9)
_cell_length_b 25.48(3)
_cell_length_c 7.730(11)
_cell_angle_alpha 90
_cell_angle_beta 112.43(9)
_cell_angle_gamma 90
_cell_formula_units_Z 4
loop_
_atom_type_symbol
_atom_type_radius_bond
C 0.68
H 0.23
N 0.68
O 0.68
loop_
_atom_site_label
_atom_site_type_symbol
_atom_site_fract_x
_atom_site_fract_y
_atom_site_fract_z
N1 N 0.2570(2) 0.20981(5) 0.50889(17)
N2 N 0.2946(2) 0.24164(5) 0.66267(19)
N3 N 0.2497(3) 0.01254(7) -0.0161(2)
O1 O 0.09331(19) 0.30695(4) 0.48994(15)
O2 O 0.2268(3) 0.02742(7) -0.1713(2)
O3 O 0.2592(4) -0.03356(7) 0.0260(3)
C1 C 0.3117(3) 0.07123(7) 0.4404(2)
C2 C 0.2958(3) 0.03447(7) 0.3048(2)
C3 C 0.2654(3) 0.05179(7) 0.1280(2)
C4 C 0.2480(3) 0.10424(7) 0.0817(2)
C5 C 0.2607(3) 0.14059(7) 0.2178(2)
C6 C 0.2928(2) 0.12447(6) 0.3982(2)
C7 C 0.3149(3) 0.16235(7) 0.5473(2)
C8 C 0.2075(2) 0.28950(6) 0.6418(2)
C9 C 0.2564(2) 0.31961(6) 0.8184(2)
C10 C 0.2790(3) 0.37368(7) 0.8142(3)
C11 C 0.3205(3) 0.40284(9) 0.9741(3)
C12 C 0.3347(3) 0.37922(10) 1.1373(3)
C13 C 0.3114(3) 0.3256(1) 1.1442(3)
C14 C 0.2727(3) 0.29553(8) 0.9844(2)
H1 H 0.383(3) 0.2306(7) 0.771(3)
H2 H 0.340(3) 0.0624(7) 0.565(2)
H3 H 0.310(3) -0.0022(9) 0.335(2)
H4 H 0.226(3) 0.1136(8) -0.044(3)
H5 H 0.250(3) 0.1763(8) 0.189(2)
H6 H 0.373(3) 0.1506(6) 0.674(2)
H7 H 0.265(3) 0.3903(7) 0.697(3)
H8 H 0.342(3) 0.4410(9) 0.966(3)
H9 H 0.356(4) 0.4014(8) 1.258(3)
H10 H 0.320(3) 0.3077(7) 1.250(3)
H11 H 0.257(3) 0.2590(7) 0.988(2)
#END
