
#######################################################################
#
#                 Cambridge Crystallographic Data Centre
#                                CCDC
#
#######################################################################
#
# If this CIF has been generated from an entry in the Cambridge
# Structural Database, then it will include bibliographic, chemical,
# crystal, experimental, refinement or atomic coordinate data resulting
# from the CCDC's data processing and validation procedures.
#
#######################################################################

data_CSD_CIF_XAVMEM
_audit_creation_date 2001-02-05
_audit_creation_method CSD-ConQuest-V1
_database_code_CSD XAVMEM
_database_code_depnum_ccdc_archive 'CCDC 119384'
_chemical_formula_sum 'C7 H7 N1 O2'
_chemical_formula_moiety
;
C7 H7 N1 O2
;
_journal_coden_Cambridge 98
_journal_volume 65
_journal_year 2000
_journal_page_first 1273
_journal_name_full 'Collect.Czech.Chem.Commun. '
loop_
_publ_author_name
"J.Podlaha"
"I.Cisarova"
"L.Soukupova"
"Jan Schraml"
_chemical_name_systematic
;
Benzohydroxamic acid
;
_cell_volume   1270.107
_exptl_crystal_colour 'colorless'
_exptl_crystal_density_diffrn 1.434
_exptl_crystal_description 'leaflet'
_exptl_crystal_preparation 'nitromethane'
_diffrn_ambient_temperature 150
#These two values have been output from a single CSD field.
_refine_ls_R_factor_gt 0.0794
_refine_ls_wR_factor_gt 0.0794
_symmetry_cell_setting monoclinic
_symmetry_space_group_name_H-M 'P 21'
_symmetry_Int_Tables_number 4
loop_
_symmetry_equiv_pos_site_id
_symmetry_equiv_pos_as_xyz
1 x,y,z
2 -x,1/2+y,-z
_cell_length_a 6.591(4)
_cell_length_b 29.101(10)
_cell_length_c 6.624(2)
_cell_angle_alpha 90
_cell_angle_beta 88.55(4)
_cell_angle_gamma 90
_cell_formula_units_Z 8
loop_
_atom_type_symbol
_atom_type_radius_bond
C 0.68
H 0.23
N 0.68
O 0.68
loop_
_atom_site_label
_atom_site_type_symbol
_atom_site_fract_x
_atom_site_fract_y
_atom_site_fract_z
C1 C 0.1678(11) 0.3606(3) 0.2826(11)
C2 C 0.1195(12) 0.3999(3) 0.3885(13)
H1 H 0.0751(12) 0.3979(3) 0.5225(13)
C3 C 0.1368(13) 0.4425(3) 0.2961(13)
H2 H 0.1045(13) 0.4691(3) 0.3678(13)
C4 C 0.2030(12) 0.4452(3) 0.0953(14)
H3 H 0.2144(12) 0.4738(3) 0.0332(14)
C5 C 0.2513(12) 0.4064(3) -0.0120(12)
H4 H 0.2974(12) 0.4086(3) -0.1455(12)
C6 C 0.2311(12) 0.3637(3) 0.0798(12)
H5 H 0.2596(12) 0.3371(3) 0.0064(12)
C7 C 0.1555(11) 0.3159(3) 0.3930(11)
N1 N 0.1406(11) 0.2785(3) 0.2791(11)
H6 H 0.145(14) 0.2748(34) 0.142(17)
O1 O 0.1255(9) 0.2361(2) 0.3742(9)
H7 H 0.249(15) 0.2173(35) 0.340(14)
O2 O 0.1633(10) 0.3147(2) 0.5793(9)
C8 C 0.6905(12) 0.3610(3) 0.7730(12)
C9 C 0.7472(11) 0.3992(3) 0.8826(12)
H8 H 0.7903(11) 0.3961(3) 1.0145(12)
C10 C 0.7389(13) 0.4425(3) 0.7927(14)
H9 H 0.7760(13) 0.4683(3) 0.8659(14)
C11 C 0.6767(14) 0.4476(3) 0.5972(14)
H10 H 0.6722(14) 0.4767(3) 0.5393(14)
C12 C 0.6212(12) 0.4097(3) 0.4874(13)
H11 H 0.5783(12) 0.4131(3) 0.3556(13)
C13 C 0.6295(12) 0.3662(3) 0.5743(13)
H12 H 0.5942(12) 0.3405(3) 0.4995(13)
C14 C 0.6872(11) 0.3157(3) 0.8832(13)
N2 N 0.6549(10) 0.2784(2) 0.7736(11)
H13 H 0.6506(10) 0.2800(2) 0.6441(11)
O3 O 0.6281(9) 0.2369(2) 0.8723(9)
H14 H 0.729(15) 0.2184(34) 0.813(15)
O4 O 0.7144(10) 0.3147(2) 1.0698(9)
C15 C 0.2092(12) 0.1312(3) 0.8169(11)
C16 C 0.1024(13) 0.0913(3) 0.8661(13)
H15 H -0.0326(13) 0.0930(3) 0.9098(13)
C17 C 0.1971(15) 0.0494(3) 0.8500(14)
H16 H 0.1243(15) 0.0228(3) 0.8802(14)
C18 C 0.3990(14) 0.0461(3) 0.7894(13)
H17 H 0.4627(14) 0.0176(3) 0.7815(13)
C19 C 0.5043(13) 0.0856(3) 0.7410(12)
H18 H 0.6390(13) 0.0837(3) 0.6967(12)
C20 C 0.4129(13) 0.1277(3) 0.7573(13)
H19 H 0.4872(13) 0.1542(3) 0.7284(13)
C21 C 0.0954(12) 0.1757(3) 0.8287(11)
N3 N 0.2077(11) 0.2130(3) 0.8385(12)
H20 H 0.329(17) 0.2173(35) 0.851(15)
O5 O 0.1070(9) 0.2552(2) 0.8609(9)
H21 H 0.134(15) 0.2735(36) 0.761(16)
O6 O -0.0902(9) 0.1758(2) 0.8278(10)
C22 C 0.7013(13) 0.1314(3) 0.2948(12)
C23 C 0.5919(14) 0.0928(3) 0.2382(13)
H22 H 0.4600(14) 0.0961(3) 0.1936(13)
C24 C 0.6777(15) 0.0502(3) 0.2479(13)
H23 H 0.6026(15) 0.0245(3) 0.2120(13)
C25 C 0.8751(16) 0.0446(3) 0.3105(14)
H24 H 0.9325(16) 0.0155(3) 0.3154(14)
C26 C 0.9872(14) 0.0831(3) 0.3662(13)
H25 H 1.1194(14) 0.0798(3) 0.4099(13)
C27 C 0.8997(13) 0.1260(3) 0.3558(13)
H26 H 0.9750(13) 0.1517(3) 0.3903(13)
C28 C 0.5961(12) 0.1763(3) 0.2984(12)
N4 N 0.7096(10) 0.2137(2) 0.3317(11)
H27 H 0.839(1) 0.2114(2) 0.3424(11)
O7 O 0.6133(9) 0.2561(2) 0.3484(9)
H28 H 0.646(14) 0.2773(34) 0.191(15)
O8 O 0.4109(9) 0.1785(2) 0.2738(10)
#END
