
#######################################################################
#
#                 Cambridge Crystallographic Data Centre
#                                CCDC
#
#######################################################################
#
# If this CIF has been generated from an entry in the Cambridge
# Structural Database, then it will include bibliographic, chemical,
# crystal, experimental, refinement or atomic coordinate data resulting
# from the CCDC's data processing and validation procedures.
#
#######################################################################

data_CSD_CIF_XAVMOW
_audit_creation_date 2001-02-05
_audit_creation_method CSD-ConQuest-V1
_database_code_CSD XAVMOW
_database_code_depnum_ccdc_archive 'CCDC 119386'
_chemical_formula_sum 'C7 H6 N2 O4'
_chemical_formula_moiety
;
C7 H6 N2 O4
;
_journal_coden_Cambridge 98
_journal_volume 65
_journal_year 2000
_journal_page_first 1273
_journal_name_full 'Collect.Czech.Chem.Commun. '
loop_
_publ_author_name
"J.Podlaha"
"I.Cisarova"
"L.Soukupova"
"Jan Schraml"
_chemical_name_systematic
;
4-Nitrobenzohydroxamic acid
;
_chemical_melting_point 459.15
_cell_volume   1145.614
_exptl_crystal_colour 'pale yellow'
_exptl_crystal_density_diffrn 1.584
_exptl_crystal_description 'needle'
_exptl_crystal_preparation 'ethyl acetate'
_diffrn_ambient_temperature ?
_diffrn_special_details
;
The study was carried out at room temperature,in the range 283-303K

;
#These two values have been output from a single CSD field.
_refine_ls_R_factor_gt 0.0375
_refine_ls_wR_factor_gt 0.0375
_symmetry_cell_setting triclinic
_symmetry_space_group_name_H-M 'P -1'
_symmetry_Int_Tables_number 2
loop_
_symmetry_equiv_pos_site_id
_symmetry_equiv_pos_as_xyz
1 x,y,z
2 -x,-y,-z
_cell_length_a 3.742(1)
_cell_length_b 18.114(3)
_cell_length_c 18.692(2)
_cell_angle_alpha 114.77(1)
_cell_angle_beta 90.33(2)
_cell_angle_gamma 94.61(2)
_cell_formula_units_Z 6
loop_
_atom_type_symbol
_atom_type_radius_bond
C 0.68
H 0.23
N 0.68
O 0.68
loop_
_atom_site_label
_atom_site_type_symbol
_atom_site_fract_x
_atom_site_fract_y
_atom_site_fract_z
O1 O 0.2515(5) 0.54805(12) 0.66461(11)
H1 H 0.366(11) 0.5038(24) 0.6492(22)
O2 O 0.4040(5) 0.68450(11) 0.79421(10)
O3 O -0.3476(10) 0.6029(2) 1.1100(2)
O4 O -0.4198(7) 0.7275(2) 1.13840(13)
N1 N 0.1293(7) 0.55710(14) 0.73787(13)
H2 H -0.0414(81) 0.5213(18) 0.7367(17)
N2 N -0.3301(7) 0.6618(2) 1.09431(15)
C1 C 0.0682(6) 0.63476(15) 0.87555(14)
C2 C 0.0453(7) 0.7119(2) 0.9351(2)
H3 H 0.1196(7) 0.7578(2) 0.9267(2)
C3 C -0.0871(8) 0.7212(2) 1.0068(2)
H4 H -0.1083(8) 0.7728(2) 1.0467(2)
C4 C -0.1863(7) 0.6526(2) 1.0177(2)
C5 C -0.1641(8) 0.5755(2) 0.9609(2)
H5 H -0.2329(8) 0.5300(2) 0.9703(2)
C6 C -0.0364(8) 0.5671(2) 0.8890(2)
H6 H -0.0207(8) 0.5152(2) 0.8492(2)
C7 C 0.2132(7) 0.62848(15) 0.79912(15)
O5 O -0.1704(6) 0.61773(11) 0.59725(10)
H7 H -0.041(11) 0.5892(24) 0.6125(22)
O6 O 0.0008(6) 0.75984(11) 0.59363(11)
O7 O -0.2800(8) 1.06975(14) 0.97724(14)
O8 O -0.5331(8) 1.10661(14) 0.8965(2)
N3 N -0.2098(7) 0.69098(13) 0.66285(13)
H8 H -0.3394(72) 0.6857(16) 0.6986(16)
N4 N -0.3816(7) 1.05759(15) 0.9111(2)
C8 C -0.1966(6) 0.83639(14) 0.72296(14)
C9 C -0.3026(7) 0.9003(2) 0.7083(2)
H9 H -0.3301(7) 0.8943(2) 0.6566(2)
C10 C -0.3679(7) 0.9729(2) 0.7697(2)
H10 H -0.4441(7) 1.0158(2) 0.7604(2)
C11 C -0.3168(7) 0.97981(15) 0.8451(2)
C12 C -0.2062(7) 0.9182(2) 0.8619(2)
H11 H -0.1711(7) 0.9253(2) 0.9137(2)
C13 C -0.1488(7) 0.8456(2) 0.79957(15)
H12 H -0.0774(7) 0.8024(2) 0.80923(15)
C14 C -0.1270(7) 0.75899(15) 0.65367(15)
O9 O 0.3613(6) 0.56392(11) 0.47067(12)
H13 H 0.5073(92) 0.5805(20) 0.5103(20)
O10 O 0.4228(5) 0.57729(10) 0.33622(10)
O11 O 0.1724(8) 0.99259(15) 0.4153(2)
O12 O -0.1353(7) 0.9193(2) 0.3081(2)
N5 N 0.3022(6) 0.63613(13) 0.46463(13)
H14 H 0.1940(82) 0.6704(19) 0.5040(18)
N6 N 0.0494(7) 0.9270(2) 0.3650(2)
C15 C 0.2556(6) 0.71356(15) 0.38932(14)
C16 C 0.1182(8) 0.7088(2) 0.3186(2)
H15 H 0.0727(8) 0.6581(2) 0.2761(2)
C17 C 0.0480(8) 0.7786(2) 0.3105(2)
H16 H -0.0495(8) 0.7756(2) 0.2633(2)
C18 C 0.1252(7) 0.8524(2) 0.3735(2)
C19 C 0.2689(8) 0.8598(2) 0.4441(2)
H17 H 0.3221(8) 0.9108(2) 0.4857(2)
C20 C 0.3327(7) 0.78932(15) 0.45198(15)
H18 H 0.4278(7) 0.79275(15) 0.49947(15)
C21 C 0.3318(6) 0.63682(15) 0.39488(14)
#END
