
#######################################################################
#
#                 Cambridge Crystallographic Data Centre
#                                CCDC
#
#######################################################################
#
# If this CIF has been generated from an entry in the Cambridge
# Structural Database, then it will include bibliographic, chemical,
# crystal, experimental, refinement or atomic coordinate data resulting
# from the CCDC's data processing and validation procedures.
#
#######################################################################

data_CSD_CIF_XAVPEQ
_audit_creation_date 2005-11-15
_audit_creation_method CSD-ConQuest-V1
_database_code_CSD XAVPEQ
_database_code_depnum_ccdc_archive 'CCDC 287697'
_chemical_formula_sum 'C12 H9 N5 O4'
_chemical_formula_moiety
;
C12 H9 N5 O4
;
_journal_coeditor_code "IUCr RZ6111"
_journal_coden_Cambridge 1370
_journal_volume 61
_journal_year 2005
_journal_page_first o3342
_journal_name_full 'Acta Crystallogr.,Sect.E:Struct.Rep.Online '
loop_
_publ_author_name
"Ming Yu"
"Zhi Fan"
"Zuo-Liang Jing"
"Xin Chen"
"Chun-Hua Diao"
"Qi-Liang Deng"
_chemical_name_systematic
;
N-(2,4-Dinitrophenyl)-N'-(2-pyridylmethylene)hydrazine
;
_chemical_name_common
;
Pyridine-2-carbaldehyde 2,4-dinitrophenylhydrazone
;
_cell_volume   1266.210
_exptl_crystal_colour 'red'
_exptl_crystal_density_diffrn 1.507
_exptl_crystal_description 'block'
_exptl_crystal_preparation 'ethanol'
_diffrn_ambient_temperature 294
#These two values have been output from a single CSD field.
_refine_ls_R_factor_gt 0.0401
_refine_ls_wR_factor_gt 0.0401
_symmetry_cell_setting monoclinic
_symmetry_space_group_name_H-M 'P 21/c'
_symmetry_Int_Tables_number 14
loop_
_symmetry_equiv_pos_site_id
_symmetry_equiv_pos_as_xyz
1 x,y,z
2 -x,1/2+y,1/2-z
3 -x,-y,-z
4 x,-1/2-y,-1/2+z
_cell_length_a 8.5690(18)
_cell_length_b 6.3333(13)
_cell_length_c 23.340(5)
_cell_angle_alpha 90
_cell_angle_beta 91.532(4)
_cell_angle_gamma 90
_cell_formula_units_Z 4
loop_
_atom_type_symbol
_atom_type_radius_bond
C 0.68
H 0.23
N 0.68
O 0.68
loop_
_atom_site_label
_atom_site_type_symbol
_atom_site_fract_x
_atom_site_fract_y
_atom_site_fract_z
O1 O 0.26494(16) 0.2947(2) 0.23555(6)
O2 O 0.40822(19) 0.0197(3) 0.24571(6)
O3 O 0.6692(2) -0.1588(3) 0.41983(8)
O4 O 0.67334(18) 0.0620(3) 0.49017(7)
N1 N -0.06722(18) 1.1709(2) 0.31995(7)
N2 N 0.18293(17) 0.7369(2) 0.34905(7)
N3 N 0.23738(17) 0.5665(2) 0.31952(7)
N4 N 0.35286(18) 0.1818(3) 0.26474(7)
N5 N 0.6303(2) 0.0074(3) 0.44178(8)
C1 C -0.1236(2) 1.3413(3) 0.34645(11)
H1 H -0.18650 1.43290 0.32490
C2 C -0.0952(3) 1.3901(3) 0.40282(11)
H2 H -0.13770 1.51070 0.41890
C3 C -0.0030(3) 1.2570(4) 0.43476(10)
H3 H 0.01920 1.28610 0.47320
C4 C 0.0568(2) 1.0800(3) 0.40959(8)
H4 H 0.11890 0.98670 0.43090
C5 C 0.02352(19) 1.0417(3) 0.35219(8)
C6 C 0.0859(2) 0.8572(3) 0.32272(8)
H5 H 0.05490 0.82800 0.28510
C7 C 0.3331(2) 0.4275(3) 0.34758(7)
C8 C 0.39047(19) 0.2404(3) 0.32318(7)
C9 C 0.48744(19) 0.1024(3) 0.35370(8)
H6 H 0.52420 -0.01980 0.33660
C10 C 0.5279(2) 0.1491(3) 0.40914(8)
C11 C 0.4739(3) 0.3304(3) 0.43502(9)
H7 H 0.50240 0.35930 0.47290
C12 C 0.3794(2) 0.4666(3) 0.40538(8)
H8 H 0.34430 0.58790 0.42340
H9 H 0.209(2) 0.541(3) 0.2831(5)
#END
