
#######################################################################
#
#                 Cambridge Crystallographic Data Centre
#                                CCDC
#
#######################################################################
#
# If this CIF has been generated from an entry in the Cambridge
# Structural Database, then it will include bibliographic, chemical,
# crystal, experimental, refinement or atomic coordinate data resulting
# from the CCDC's data processing and validation procedures.
#
#######################################################################

data_CSD_CIF_XAXRIX
_audit_creation_date 2001-02-22
_audit_creation_method CSD-ConQuest-V1
_database_code_CSD XAXRIX
_database_code_depnum_ccdc_archive 'CCDC 153947'
_chemical_formula_sum 'C15 H14 N2 O3'
_chemical_formula_moiety
;
C15 H14 N2 O3
;
_journal_coeditor_code "IUCr QD0041"
_journal_data_validation_number IUC0000267
_journal_coden_Cambridge 591
_journal_volume 56
_journal_year 2000
_journal_page_first e520
_journal_name_full 'Acta Crystallogr.,Sect.C:Cryst.Struct.Commun. '
loop_
_publ_author_name
"A.Hergold-Brundic"
"G.Pavlovic"
"A.D.Mance"
"K.Jakopcic"
_chemical_name_systematic
;
N-(p-Tolyl)-N-(5-nitrofurfuryl)-N-(prop-2-ynyl)amine
;
_chemical_melting_point 357
_cell_volume    682.951
_exptl_crystal_colour 'pale orange'
_exptl_crystal_density_diffrn 1.314
_exptl_special_details
;
Melting point range 357-358K

;
_exptl_crystal_description 'prism'
_exptl_crystal_preparation 'ethanol'
_diffrn_ambient_temperature ?
_diffrn_special_details
;
The study was carried out at room temperature,in the range 283-303K

;
#These two values have been output from a single CSD field.
_refine_ls_R_factor_gt 0.039
_refine_ls_wR_factor_gt 0.039
_symmetry_cell_setting triclinic
_symmetry_space_group_name_H-M 'P -1'
_symmetry_Int_Tables_number 2
loop_
_symmetry_equiv_pos_site_id
_symmetry_equiv_pos_as_xyz
1 x,y,z
2 -x,-y,-z
_cell_length_a 8.8490(18)
_cell_length_b 9.2060(13)
_cell_length_c 9.8438(19)
_cell_angle_alpha 63.196(14)
_cell_angle_beta 76.908(15)
_cell_angle_gamma 73.937(13)
_cell_formula_units_Z 2
loop_
_atom_type_symbol
_atom_type_radius_bond
C 0.68
H 0.23
N 0.68
O 0.68
loop_
_atom_site_label
_atom_site_type_symbol
_atom_site_fract_x
_atom_site_fract_y
_atom_site_fract_z
O1 O 0.47394(9) 0.77179(11) 0.74520(9)
O2 O 0.67701(14) 0.47179(16) 0.61158(15)
O3 O 0.69057(13) 0.49415(15) 0.81856(14)
N1 N 0.11488(11) 1.07782(13) 0.75658(10)
N2 N 0.63536(13) 0.54186(15) 0.69909(14)
C1 C 0.28225(14) 1.01103(18) 0.76444(15)
H1 H 0.30050 0.94980 0.87120
H2 H 0.33800 1.10230 0.71950
C2 C 0.34977(13) 0.89850(16) 0.68373(13)
C3 C 0.31406(15) 0.88957(18) 0.56119(15)
H3 H 0.23430 0.96070 0.50060
C4 C 0.42096(16) 0.75164(18) 0.54272(15)
H4 H 0.42590 0.71360 0.46850
C5 C 0.51347(14) 0.68762(17) 0.65516(14)
C6 C 0.00588(13) 0.97352(14) 0.83140(11)
C7 C 0.05328(16) 0.80830(16) 0.93425(12)
H5 H 0.15970 0.76550 0.94820
C8 C -0.05664(19) 0.70851(18) 1.01507(13)
H6 H -0.02240 0.60010 1.08420
C9 C -0.2166(2) 0.7646(2) 0.99655(15)
C10 C -0.26237(16) 0.9274(2) 0.89053(15)
H7 H -0.36840 0.96820 0.87440
C11 C -0.15446(14) 1.03022(16) 0.80857(13)
H8 H -0.18870 1.13780 0.73780
C12 C -0.3384(3) 0.6570(3) 1.0887(2)
H9 H -0.38120 0.67470 1.18000
H10 H -0.28880 0.54220 1.11610
H11 H -0.42210 0.68600 1.02830
C13 C 0.06416(15) 1.25034(16) 0.65162(14)
H12 H 0.14130 1.31330 0.64030
H13 H -0.03610 1.29660 0.69580
C14 C 0.04568(16) 1.26957(17) 0.49896(14)
C15 C 0.0333(2) 1.2781(2) 0.37825(17)
H14 H 0.028(3) 1.283(3) 0.274(3)
#END
