
#######################################################################
#
#                 Cambridge Crystallographic Data Centre
#                                CCDC
#
#######################################################################
#
# If this CIF has been generated from an entry in the Cambridge
# Structural Database, then it will include bibliographic, chemical,
# crystal, experimental, refinement or atomic coordinate data resulting
# from the CCDC's data processing and validation procedures.
#
#######################################################################

data_CSD_CIF_XAXTOF
_audit_creation_date 2001-02-22
_audit_creation_method CSD-ConQuest-V1
_database_code_CSD XAXTOF
_database_code_depnum_ccdc_archive 'CCDC 153958'
_chemical_formula_sum 'C11 H9 N3 O2'
_chemical_formula_moiety
;
C11 H9 N3 O2
;
_journal_coeditor_code "IUCr QA0430"
_journal_data_validation_number IUC0000287
_journal_coden_Cambridge 591
_journal_volume 56
_journal_year 2000
_journal_page_first e535
_journal_name_full 'Acta Crystallogr.,Sect.C:Cryst.Struct.Commun. '
loop_
_publ_author_name
"D.E.Lynch"
"I.McClenaghan"
_chemical_name_systematic
;
4-Anilino-3-nitropyridine
;
_chemical_melting_point 387
_cell_volume   1956.122
_exptl_crystal_colour 'yellow'
_exptl_crystal_density_diffrn 1.462
_exptl_special_details
;
Melting point range 387-388K

;
_exptl_crystal_description 'block'
_diffrn_ambient_temperature 150
#These two values have been output from a single CSD field.
_refine_ls_R_factor_gt 0.044
_refine_ls_wR_factor_gt 0.044
_symmetry_cell_setting monoclinic
_symmetry_space_group_name_H-M 'P 21/c'
_symmetry_Int_Tables_number 14
loop_
_symmetry_equiv_pos_site_id
_symmetry_equiv_pos_as_xyz
1 x,y,z
2 -x,1/2+y,1/2-z
3 -x,-y,-z
4 x,-1/2-y,-1/2+z
_cell_length_a 9.9036(2)
_cell_length_b 19.9452(4)
_cell_length_c 13.6660(3)
_cell_angle_alpha 90
_cell_angle_beta 133.561(1)
_cell_angle_gamma 90
_cell_formula_units_Z 8
loop_
_atom_type_symbol
_atom_type_radius_bond
C 0.68
H 0.23
N 0.68
O 0.68
loop_
_atom_site_label
_atom_site_type_symbol
_atom_site_fract_x
_atom_site_fract_y
_atom_site_fract_z
N1 N -0.27770(15) 0.26138(5) -0.11988(14)
C1 C -0.13396(18) 0.30229(7) -0.05795(15)
H1 H -0.15810 0.34910 -0.07130
C2 C 0.05052(18) 0.28132(6) 0.02560(15)
N2 N 0.18796(15) 0.33360(5) 0.08462(13)
O1 O 0.13772(15) 0.39193(5) 0.05191(13)
O2 O 0.35416(13) 0.31784(5) 0.16729(12)
C3 C 0.09858(18) 0.21252(6) 0.05103(14)
C4 C -0.05793(18) 0.16999(6) -0.01723(16)
H2 H -0.04060 0.12280 -0.00810
C5 C -0.23285(19) 0.19553(6) -0.09567(16)
H3 H -0.33200 0.16450 -0.13700
N3 N 0.27452(16) 0.18850(5) 0.13343(13)
H4 H 0.368(3) 0.2173(9) 0.183(2)
C6 C 0.32538(18) 0.11938(6) 0.15920(15)
C7 C 0.46514(17) 0.09882(6) 0.29228(15)
H5 H 0.52210 0.13040 0.36330
C8 C 0.52205(19) 0.03260(6) 0.32202(16)
H6 H 0.61830 0.01880 0.41340
C9 C 0.4393(2) -0.01360(7) 0.21916(17)
H7 H 0.47700 -0.05920 0.23970
C10 C 0.3014(2) 0.00683(6) 0.08639(17)
H8 H 0.24520 -0.02490 0.01570
C11 C 0.24441(18) 0.07330(6) 0.05522(16)
H9 H 0.15090 0.08720 -0.03630
N4 N 0.74445(15) 0.75523(5) 0.62062(14)
C12 C 0.60329(19) 0.79626(6) 0.53326(16)
H10 H 0.63080 0.84230 0.53640
C13 C 0.41683(18) 0.77663(6) 0.43677(15)
N5 N 0.28238(15) 0.82911(5) 0.35577(13)
O3 O 0.33667(14) 0.88592(5) 0.36233(13)
O4 O 0.11555(13) 0.81565(4) 0.28263(12)
C14 C 0.36574(18) 0.70840(6) 0.42211(14)
C15 C 0.51869(19) 0.66589(6) 0.51846(16)
H11 H 0.49780 0.61940 0.51870
C16 C 0.69577(19) 0.69048(7) 0.61104(16)
H12 H 0.79290 0.65970 0.67390
N6 N 0.18844(16) 0.68528(5) 0.32711(13)
H13 H 0.101(2) 0.7142(8) 0.2864(19)
C17 C 0.13384(18) 0.61698(6) 0.29260(15)
C18 C -0.02872(17) 0.59715(6) 0.25887(15)
H14 H -0.09600 0.62840 0.26400
C19 C -0.09257(18) 0.53186(6) 0.21786(16)
H15 H -0.20330 0.51850 0.19520
C20 C 0.00433(19) 0.48623(7) 0.20977(16)
H16 H -0.03910 0.44140 0.18210
C21 C 0.1648(2) 0.50607(6) 0.24207(16)
H17 H 0.23100 0.47470 0.23610
C22 C 0.23022(19) 0.57110(6) 0.28309(16)
H18 H 0.34030 0.58430 0.30460
#END
