
#######################################################################
#
#                 Cambridge Crystallographic Data Centre
#                                CCDC
#
#######################################################################
#
# If this CIF has been generated from an entry in the Cambridge
# Structural Database, then it will include bibliographic, chemical,
# crystal, experimental, refinement or atomic coordinate data resulting
# from the CCDC's data processing and validation procedures.
#
#######################################################################

data_CSD_CIF_XAYKEO
_audit_creation_date 2006-03-08
_audit_creation_method CSD-ConQuest-V1
_database_code_CSD XAYKEO
_database_code_depnum_ccdc_archive 'CCDC 291983'
_database_code_depnum_ccdc_journal 1267/1524
_chemical_formula_sum 'C12 H12 N2 O2'
_chemical_formula_moiety
;
C12 H12 N2 O2
;
_journal_coden_Cambridge 1267
_journal_volume 220
_journal_year 2005
_journal_page_first 273
_journal_name_full 'Z.Kristallogr.-New Cryst.Struct. '
loop_
_publ_author_name
"M.Ramos Silva"
"A.Matos Beja"
"J.A.Paixao"
"A.M.T.D.V.Cabral"
"F.I.F.Barradas"
"C.Paliteiro"
"A.J.F.N.Sobral"
_chemical_name_systematic
;
2,5-Dimethyl-1-(4-nitrophenyl)-1H-pyrrole
;
_cell_volume   2292.394
_exptl_crystal_colour 'yellow'
_exptl_crystal_density_diffrn 1.253
_exptl_crystal_description 'plate'
_diffrn_ambient_temperature 293
#These two values have been output from a single CSD field.
_refine_ls_R_factor_gt 0.0747
_refine_ls_wR_factor_gt 0.0747
_symmetry_cell_setting monoclinic
_symmetry_space_group_name_H-M 'P 21/c'
_symmetry_Int_Tables_number 14
loop_
_symmetry_equiv_pos_site_id
_symmetry_equiv_pos_as_xyz
1 x,y,z
2 -x,1/2+y,1/2-z
3 -x,-y,-z
4 x,-1/2-y,-1/2+z
_cell_length_a 12.660(6)
_cell_length_b 13.8928(13)
_cell_length_c 13.448(8)
_cell_angle_alpha 90
_cell_angle_beta 104.26(5)
_cell_angle_gamma 90
_cell_formula_units_Z 8
loop_
_atom_type_symbol
_atom_type_radius_bond
C 0.68
H 0.23
N 0.68
O 0.68
loop_
_atom_site_label
_atom_site_type_symbol
_atom_site_fract_x
_atom_site_fract_y
_atom_site_fract_z
N1 N 0.3712(3) 0.2589(4) 0.2079(3)
C1 C 0.5828(5) 0.3789(4) 0.0495(5)
C2 C 0.5392(5) 0.3411(4) 0.2058(4)
H1 H 0.55740 0.34110 0.27720
C3 C 0.2741(4) 0.1508(5) 0.2644(4)
H2 H 0.24350 0.09300 0.27800
C4 C 0.4879(6) 0.3400(5) -0.0042(5)
H3 H 0.47110 0.33900 -0.07550
O1 O 0.6371(5) 0.4082(5) -0.0984(5)
C5 C 0.6097(5) 0.3806(4) 0.1539(5)
H4 H 0.67500 0.40820 0.18970
C6 C 0.4161(4) 0.3018(5) 0.0476(4)
H5 H 0.35000 0.27620 0.01120
C7 C 0.2523(4) 0.2422(5) 0.3002(4)
H6 H 0.20500 0.25480 0.34170
C8 C 0.3478(4) 0.1617(5) 0.2065(4)
C9 C 0.3116(5) 0.3081(5) 0.2642(4)
O2 O 0.7445(5) 0.4483(5) 0.0426(5)
N2 N 0.6604(6) 0.4150(5) -0.0063(6)
C10 C 0.3995(5) 0.0907(4) 0.1519(5)
H7 H 0.37750 0.10290 0.07950
H8 H 0.37730 0.02700 0.16570
H9 H 0.47730 0.09590 0.17510
C11 C 0.4424(4) 0.3017(4) 0.1530(4)
C12 C 0.3184(5) 0.4126(5) 0.2803(5)
H10 H 0.26680 0.43210 0.31800
H11 H 0.30230 0.44470 0.21500
H12 H 0.39070 0.42950 0.31820
O3 O 0.3863(4) 0.6027(4) 0.4819(4)
N3 N 0.2991(5) 0.6325(4) 0.4886(5)
C13 C -0.0374(5) 0.6142(5) 0.0455(5)
H13 H -0.09200 0.58960 -0.01150
H14 H -0.04620 0.58550 0.10780
H15 H 0.03360 0.59890 0.03640
C14 C 0.2230(5) 0.6661(4) 0.3934(5)
C15 C 0.0833(5) 0.7351(4) 0.2231(4)
C16 C -0.1125(5) 0.7841(6) -0.0132(4)
H16 H -0.16080 0.76870 -0.07530
C17 C -0.0490(5) 0.7210(5) 0.0512(5)
C18 C 0.0328(6) 0.9461(4) 0.1943(5)
H17 H 0.11060 0.94180 0.20650
H18 H 0.01210 0.93740 0.25770
H19 H 0.00890 1.00820 0.16630
C19 C 0.1253(5) 0.7009(4) 0.4010(4)
H20 H 0.10690 0.70140 0.46390
C20 C 0.1808(5) 0.6983(4) 0.2170(4)
H21 H 0.19900 0.69680 0.15410
N4 N 0.0100(4) 0.7737(4) 0.1335(3)
C21 C -0.0188(5) 0.8699(5) 0.1203(5)
C22 C 0.2525(5) 0.6635(4) 0.3027(5)
H22 H 0.31970 0.63870 0.29910
C23 C 0.0536(4) 0.7356(4) 0.3139(4)
H23 H -0.01430 0.75910 0.31710
O4 O 0.2716(4) 0.6345(4) 0.5676(4)
C24 C -0.0933(5) 0.8769(5) 0.0291(6)
H24 H -0.12620 0.93340 -0.00050
#END
