
#######################################################################
#
#                 Cambridge Crystallographic Data Centre
#                                CCDC
#
#######################################################################
#
# If this CIF has been generated from an entry in the Cambridge
# Structural Database, then it will include bibliographic, chemical,
# crystal, experimental, refinement or atomic coordinate data resulting
# from the CCDC's data processing and validation procedures.
#
#######################################################################

data_CSD_CIF_XAYRIY
_audit_creation_date 2005-06-09
_audit_creation_method CSD-ConQuest-V1
_database_code_CSD XAYRIY
_database_code_depnum_ccdc_archive 'CCDC 142685'
_chemical_formula_sum 'C15 H16 N4 O7'
_chemical_formula_moiety
;
C15 H16 N4 O7
;
_journal_coden_Cambridge 156
_journal_volume 340
_journal_year 2005
_journal_page_first 587
_journal_name_full 'Carbohydr.Res. '
loop_
_publ_author_name
"O.Schulze"
"J.Voss"
"G.Adiwidjaja"
_chemical_name_systematic
;
5-Azido-5-desoxy-1,2-O-isopropylidene-3-O-p-nitrobenzoyl-\a-D-xylofuranose
;
_chemical_melting_point 344
_cell_volume    865.843
_exptl_crystal_colour 'yellow'
_exptl_crystal_density_diffrn 1.397
_exptl_crystal_description 'needles'
_exptl_crystal_preparation 'ethanol/ether'
_diffrn_ambient_temperature 293
#These two values have been output from a single CSD field.
_refine_ls_R_factor_gt 0.0452
_refine_ls_wR_factor_gt 0.0452
_symmetry_cell_setting monoclinic
_symmetry_space_group_name_H-M 'P 21'
_symmetry_Int_Tables_number 4
loop_
_symmetry_equiv_pos_site_id
_symmetry_equiv_pos_as_xyz
1 x,y,z
2 -x,1/2+y,-z
_cell_length_a 6.776(1)
_cell_length_b 6.983(1)
_cell_length_c 18.299(1)
_cell_angle_alpha 90
_cell_angle_beta 90.23(1)
_cell_angle_gamma 90
_cell_formula_units_Z 2
loop_
_atom_type_symbol
_atom_type_radius_bond
C 0.68
H 0.23
N 0.68
O 0.68
loop_
_atom_site_label
_atom_site_type_symbol
_atom_site_fract_x
_atom_site_fract_y
_atom_site_fract_z
O1 O 0.8543(4) 0.3568(3) 0.57062(12)
O2 O 0.7091(3) 0.1623(2) 0.65199(10)
O3 O 0.6549(2) 0.5368(2) 0.78779(9)
O4 O 0.6199(3) 0.2792(3) 0.85957(10)
O5 O 0.7343(3) 0.6180(3) 0.63414(12)
O6 O 0.7856(4) 1.1083(3) 1.08680(14)
O7 O 0.8831(4) 0.8655(4) 1.14822(13)
N1 N 0.8188(3) 0.9388(4) 1.09332(14)
N2 N 0.2498(4) 0.6895(4) 0.71626(18)
N3 N 0.1637(4) 0.8112(4) 0.75172(15)
N4 N 0.0704(6) 0.9120(5) 0.7851(2)
C1 C 0.8598(4) 0.4583(4) 0.63714(16)
C2 C 0.7746(4) 0.3203(3) 0.69375(14)
C3 C 0.5972(4) 0.4249(3) 0.72489(13)
C4 C 0.5481(4) 0.5645(4) 0.66409(15)
C5 C 0.4417(5) 0.7454(4) 0.68611(18)
C6 C 0.8204(4) 0.1607(4) 0.58592(14)
C7 C 1.0117(4) 0.0552(4) 0.59558(14)
H1 H 1.08670 0.11340 0.63430
H2 H 1.08560 0.06070 0.55100
H3 H 0.98520 -0.07610 0.60770
C8 C 0.6964(4) 0.0762(4) 0.52644(14)
H4 H 0.57520 0.14660 0.52230
H5 H 0.66790 -0.05520 0.53780
H6 H 0.76650 0.08270 0.48100
C9 C 0.6555(3) 0.4466(3) 0.85250(13)
C10 C 0.7010(3) 0.5797(3) 0.91360(13)
C11 C 0.7297(4) 0.5014(4) 0.98223(15)
C12 C 0.7713(4) 0.6181(4) 1.04164(15)
C13 C 0.7794(3) 0.8120(4) 1.03000(14)
C14 C 0.7486(4) 0.8952(4) 0.96301(16)
C15 C 0.7107(3) 0.7763(4) 0.90392(13)
H7 H 0.993(4) 0.508(4) 0.6461(17)
H8 H 0.868(4) 0.291(4) 0.7308(17)
H9 H 0.499(4) 0.338(4) 0.7352(16)
H10 H 0.472(4) 0.497(4) 0.6315(16)
H11 H 0.429(5) 0.826(5) 0.644(2)
H12 H 0.519(4) 0.816(4) 0.7231(18)
H13 H 0.713(4) 0.366(5) 0.9927(18)
H14 H 0.790(5) 0.557(5) 1.088(2)
H15 H 0.755(4) 1.027(6) 0.9575(17)
H16 H 0.696(4) 0.835(4) 0.8576(18)
#END
