
#######################################################################
#
#                 Cambridge Crystallographic Data Centre
#                                CCDC
#
#######################################################################
#
# If this CIF has been generated from an entry in the Cambridge
# Structural Database, then it will include bibliographic, chemical,
# crystal, experimental, refinement or atomic coordinate data resulting
# from the CCDC's data processing and validation procedures.
#
#######################################################################

data_CSD_CIF_XAYXOM
_audit_creation_date 2012-08-21
_audit_creation_method CSD-ConQuest-V1
_database_code_CSD XAYXOM
_database_code_depnum_ccdc_archive 'CCDC 889689'
_chemical_formula_sum 'C25 H23 N1 O5'
_chemical_formula_moiety
;
C25 H23 N1 O5
;
_journal_coeditor_code "IUCr KP2411"
_journal_coden_Cambridge 1370
_journal_volume 68
_journal_year 2012
_journal_page_first o1987
_journal_name_full 'Acta Crystallogr.,Sect.E:Struct.Rep.Online '
loop_
_publ_author_name
"S.Paramasivam"
"J.Srinivasan"
"P.R.Seshadri"
"M.Bakthadoss"
_chemical_name_systematic
;
rac-Methyl 
3-(2-methoxyphenyl)-1-phenyl-3,3a,4,9b-tetrahydro-1H-chromeno[4,3-c]isoxazole-
3a-carboxylate
;
_cell_volume   2164.183
_exptl_crystal_colour 'colorless'
_exptl_crystal_density_diffrn 1.281
_exptl_crystal_description 'block'
_diffrn_ambient_temperature 298
#These two values have been output from a single CSD field.
_refine_ls_R_factor_gt 0.0503
_refine_ls_wR_factor_gt 0.0503
_symmetry_cell_setting monoclinic
_symmetry_space_group_name_H-M 'P 21/c'
_symmetry_Int_Tables_number 14
loop_
_symmetry_equiv_pos_site_id
_symmetry_equiv_pos_as_xyz
1 x,y,z
2 -x,1/2+y,1/2-z
3 -x,-y,-z
4 x,-1/2-y,-1/2+z
_cell_length_a 18.3791(7)
_cell_length_b 15.2466(6)
_cell_length_c 7.7235(3)
_cell_angle_alpha 90
_cell_angle_beta 90.514(2)
_cell_angle_gamma 90
_cell_formula_units_Z 4
loop_
_atom_type_symbol
_atom_type_radius_bond
C 0.68
H 0.23
N 0.68
O 0.68
loop_
_atom_site_label
_atom_site_type_symbol
_atom_site_fract_x
_atom_site_fract_y
_atom_site_fract_z
O1 O 0.70764(6) 0.09270(7) 0.44631(14)
O2 O 0.86302(8) -0.14409(10) 0.4169(2)
O3 O 0.73699(8) -0.14734(9) 0.68811(17)
O4 O 0.79918(8) -0.1036(1) 0.18406(17)
N1 N 0.65661(8) 0.03750(9) 0.35751(17)
O5 O 0.91863(8) 0.05907(11) 0.3191(2)
C1 C 0.76235(9) -0.04489(11) 0.4528(2)
C2 C 0.64690(9) 0.06345(11) 0.1815(2)
C3 C 0.68195(9) -0.05364(10) 0.3918(2)
H1 H 0.68060 -0.08660 0.28290
C4 C 0.66789(12) 0.14637(12) 0.1260(2)
H2 H 0.69400 0.18310 0.19980
C5 C 0.63369(10) -0.09929(10) 0.5208(2)
C6 C 0.77738(9) 0.05377(11) 0.4147(2)
H3 H 0.78990 0.06100 0.29240
C7 C 0.5587(1) -0.09931(11) 0.4991(2)
H4 H 0.53800 -0.06700 0.40920
C8 C 0.66301(11) -0.14728(11) 0.6568(2)
C9 C 0.83338(11) 0.09872(11) 0.5257(2)
C10 C 0.81416(10) -0.10354(11) 0.3522(2)
C11 C 0.76871(11) -0.06416(13) 0.6460(2)
H5 H 0.81960 -0.06420 0.68010
H6 H 0.74440 -0.01830 0.71040
C12 C 0.90540(11) 0.10027(12) 0.4729(3)
C13 C 0.60827(10) 0.00969(12) 0.0687(2)
H7 H 0.59340 -0.04570 0.10440
C14 C 0.51420(12) -0.14634(13) 0.6085(3)
H8 H 0.46400 -0.14520 0.59290
C15 C 0.64973(14) 0.17402(15) -0.0393(3)
H9 H 0.66330 0.22990 -0.07490
C16 C 0.59180(12) 0.03867(15) -0.0977(2)
H10 H 0.56660 0.00200 -0.17350
C17 C 0.81593(14) 0.13951(14) 0.6799(3)
H11 H 0.76780 0.13980 0.71620
C18 C 0.61227(14) 0.12089(16) -0.1515(3)
H12 H 0.60080 0.14010 -0.26270
C19 C 0.61876(13) -0.19588(13) 0.7667(3)
H13 H 0.63910 -0.22850 0.85650
C20 C 0.54475(14) -0.19499(15) 0.7408(3)
H14 H 0.51490 -0.22750 0.81330
C21 C 0.95828(13) 0.14082(15) 0.5751(4)
H15 H 1.00660 0.14130 0.54000
C22 C 0.86869(17) 0.17994(18) 0.7813(4)
H16 H 0.85620 0.20670 0.88510
C23 C 0.84555(15) -0.15710(19) 0.0768(3)
H17 H 0.83010 -0.15230 -0.04190
H18 H 0.84230 -0.21720 0.11310
H19 H 0.89500 -0.13740 0.08810
C24 C 0.93901(18) 0.18001(17) 0.7273(4)
H20 H 0.97450 0.20710 0.79510
C25 C 0.98762(16) 0.0700(2) 0.2409(5)
H21 H 0.98880 0.03790 0.13400
H22 H 1.02490 0.04830 0.31750
H23 H 0.99580 0.13110 0.21830
#END
