
#######################################################################
#
#                 Cambridge Crystallographic Data Centre
#                                CCDC
#
#######################################################################
#
# If this CIF has been generated from an entry in the Cambridge
# Structural Database, then it will include bibliographic, chemical,
# crystal, experimental, refinement or atomic coordinate data resulting
# from the CCDC's data processing and validation procedures.
#
#######################################################################

data_CSD_CIF_XAYZEE
_audit_creation_date 2012-08-21
_audit_creation_method CSD-ConQuest-V1
_database_code_CSD XAYZEE
_database_code_depnum_ccdc_archive 'CCDC 889697'
_chemical_formula_sum 'C17 H17 N1 O5'
_chemical_formula_moiety
;
C17 H17 N1 O5
;
_journal_coeditor_code "IUCr TK5106"
_journal_coden_Cambridge 1370
_journal_volume 68
_journal_year 2012
_journal_page_first o1997
_journal_name_full 'Acta Crystallogr.,Sect.E:Struct.Rep.Online '
loop_
_publ_author_name
"L.Servinis"
"B.L.Fox"
"P.C.Healy"
"L.C.Henderson"
_chemical_name_systematic
;
Methyl 3-(4-((4-nitrobenzyl)oxy)phenyl)propanoate
;
_cell_volume   1524.342
_exptl_crystal_colour 'colorless'
_exptl_crystal_density_diffrn 1.374
_exptl_crystal_description 'block'
_diffrn_ambient_temperature 223
#These two values have been output from a single CSD field.
_refine_ls_R_factor_gt 0.044
_refine_ls_wR_factor_gt 0.044
_symmetry_cell_setting triclinic
_symmetry_space_group_name_H-M 'P -1'
_symmetry_Int_Tables_number 2
loop_
_symmetry_equiv_pos_site_id
_symmetry_equiv_pos_as_xyz
1 x,y,z
2 -x,-y,-z
_cell_length_a 10.7434(5)
_cell_length_b 10.9408(5)
_cell_length_c 14.7225(6)
_cell_angle_alpha 100.085(4)
_cell_angle_beta 102.451(4)
_cell_angle_gamma 110.329(4)
_cell_formula_units_Z 4
loop_
_atom_type_symbol
_atom_type_radius_bond
C 0.68
H 0.23
N 0.68
O 0.68
loop_
_atom_site_label
_atom_site_type_symbol
_atom_site_fract_x
_atom_site_fract_y
_atom_site_fract_z
O1 O 0.38540(15) 0.44558(14) 0.75138(10)
O2 O 0.46341(14) 0.66419(13) 0.79376(9)
O3 O 0.77377(12) 0.46142(12) 0.43690(8)
O4 O 1.27684(16) 0.40392(16) 0.06737(10)
O5 O 1.20730(15) 0.54474(14) -0.00107(10)
N1 N 0.45760(15) 0.55726(15) 0.74593(10)
C1 C 0.54163(16) 0.56360(17) 0.67913(11)
C2 C 0.54634(17) 0.44504(17) 0.63167(12)
C3 C 0.63065(17) 0.45237(17) 0.57180(12)
C4 C 0.70756(16) 0.57620(17) 0.55938(11)
C5 C 0.69733(17) 0.69303(17) 0.60625(12)
C6 C 0.61555(17) 0.68788(17) 0.66726(11)
C7 C 0.80603(17) 0.59037(17) 0.49921(11)
C8 C 0.85805(16) 0.45517(17) 0.37967(11)
C9 C 0.82338(17) 0.32775(17) 0.31975(12)
C10 C 0.89918(18) 0.31117(17) 0.25746(12)
C11 C 1.01274(17) 0.41883(17) 0.25341(11)
C12 C 1.04699(17) 0.54498(17) 0.31516(12)
C13 C 0.97100(17) 0.56459(17) 0.37775(11)
C14 C 1.09481(18) 0.39482(18) 0.18584(12)
C15 C 1.1326(2) 0.49946(19) 0.13152(13)
C16 C 1.21374(19) 0.47485(18) 0.06437(12)
C17 C 1.2821(2) 0.5335(2) -0.07054(15)
O6 O 1.58768(17) 0.98754(15) -0.31164(11)
O7 O 1.61594(17) 1.19282(15) -0.30738(11)
O8 O 1.21905(13) 0.96352(12) 0.01260(8)
O9 O 0.8214(2) 0.88318(16) 0.45479(12)
O10 O 0.76481(17) 1.05413(17) 0.43287(11)
N2 N 1.57398(17) 1.09104(16) -0.27962(11)
C18 C 1.50153(17) 1.09276(17) -0.20589(12)
C19 C 1.46203(18) 0.98197(17) -0.16998(12)
C20 C 1.38825(17) 0.98116(17) -0.10369(11)
C21 C 1.35429(17) 1.09054(16) -0.07405(11)
C22 C 1.39757(19) 1.20163(17) -0.11081(13)
C23 C 1.4716(2) 1.20386(18) -0.17701(13)
C24 C 1.27354(18) 1.09383(17) -0.00279(12)
C25 C 1.14952(17) 0.95195(17) 0.08110(11)
C26 C 1.1068(2) 0.82765(18) 0.10146(13)
C27 C 1.0374(2) 0.80774(18) 0.17001(13)
C28 C 1.00838(17) 0.90992(17) 0.22033(11)
C29 C 1.05156(18) 1.03236(17) 0.19785(12)
C30 C 1.12121(19) 1.05475(17) 0.12914(12)
C31 C 0.93478(19) 0.88386(18) 0.29658(13)
C32 C 0.89227(19) 0.99506(18) 0.33696(12)
C33 C 0.82259(19) 0.96733(19) 0.41304(13)
C34 C 0.6981(3) 1.0422(3) 0.50823(17)
H1 H 0.49290 0.36040 0.64000
H2 H 0.63580 0.37210 0.53910
H3 H 0.74740 0.77740 0.59610
H4 H 0.61030 0.76790 0.70020
H5 H 0.74740 0.25190 0.32160
H6 H 0.87310 0.22360 0.21610
H7 H 1.12480 0.62020 0.31470
H8 H 0.99630 0.65220 0.41880
H9 H 0.89890 0.62510 0.54050
H10 H 0.79690 0.65080 0.46160
H11 H 1.04080 0.30910 0.14010
H12 H 1.18690 0.58520 0.17720
H13 H 1.04910 0.50070 0.09450
H14 H 1.27440 0.59180 -0.11030
H15 H 1.24360 0.44260 -0.10960
H16 H 1.37730 0.55870 -0.03740
H17 H 1.17840 0.39380 0.22290
H18 H 1.48510 0.90740 -0.19030
H19 H 1.36040 0.90540 -0.07820
H20 H 1.37600 1.27700 -0.09020
H21 H 1.50130 1.27990 -0.20200
H22 H 1.12520 0.75620 0.06840
H23 H 1.00860 0.72200 0.18330
H24 H 1.03290 1.10390 0.23060
H25 H 1.14920 1.14010 0.11530
H26 H 1.33320 1.15820 0.05670
H27 H 1.19920 1.11860 -0.02750
H28 H 0.85330 0.80260 0.26850
H29 H 0.99550 0.87260 0.34870
H30 H 0.97320 1.07690 0.36420
H31 H 0.82990 1.00540 0.28530
H32 H 0.61190 0.96540 0.48450
H33 H 0.75650 1.03200 0.56210
H34 H 0.68190 1.12150 0.52750
#END
