
#######################################################################
#
#                 Cambridge Crystallographic Data Centre
#                                CCDC
#
#######################################################################
#
# If this CIF has been generated from an entry in the Cambridge
# Structural Database, then it will include bibliographic, chemical,
# crystal, experimental, refinement or atomic coordinate data resulting
# from the CCDC's data processing and validation procedures.
#
#######################################################################

data_CSD_CIF_XAZFIO
_audit_creation_date 2006-03-08
_audit_creation_method CSD-ConQuest-V1
_database_code_CSD XAZFIO
_database_code_depnum_ccdc_archive 'CCDC 292454'
_chemical_formula_sum 'C14 H16 N2 O4'
_chemical_formula_moiety
;
C14 H16 N2 O4
;
_journal_coden_Cambridge 1336
_journal_volume 7
_journal_year 2005
_journal_page_first 4577
_journal_name_full 'Org.Lett. '
loop_
_publ_author_name
"S.Muthusamy"
"B.Gnanaprakasam"
"E.Suresh"
_chemical_name_systematic
;
6a-((4-nitrophenyl)amino)-3a-methyltetrahydro-2H-cyclopenta(b)furan-3(3aH)-one
;
_chemical_melting_point 382.15
_cell_volume   1374.401
_exptl_crystal_colour 'light yellow'
_exptl_crystal_density_diffrn 1.335
_exptl_special_details
;
Melting point range 382.15-383.15K

;
_exptl_crystal_description 'plates'
_diffrn_ambient_temperature 273
#These two values have been output from a single CSD field.
_refine_ls_R_factor_gt 0.0676
_refine_ls_wR_factor_gt 0.0676
_symmetry_cell_setting monoclinic
_symmetry_space_group_name_H-M 'P 21/n'
_symmetry_Int_Tables_number 14
loop_
_symmetry_equiv_pos_site_id
_symmetry_equiv_pos_as_xyz
1 x,y,z
2 1/2-x,1/2+y,1/2-z
3 -x,-y,-z
4 -1/2+x,-1/2-y,-1/2+z
_cell_length_a 12.4574(18)
_cell_length_b 7.9073(11)
_cell_length_c 14.806(2)
_cell_angle_alpha 90
_cell_angle_beta 109.547(3)
_cell_angle_gamma 90
_cell_formula_units_Z 4
loop_
_atom_type_symbol
_atom_type_radius_bond
C 0.68
H 0.23
N 0.68
O 0.68
loop_
_atom_site_label
_atom_site_type_symbol
_atom_site_fract_x
_atom_site_fract_y
_atom_site_fract_z
O1 O 0.1287(2) 0.1606(4) 0.2161(2)
N1 N -0.0017(3) 0.0977(4) 0.2959(3)
C1 C 0.1618(4) -0.2488(5) 0.5059(3)
C2 C 0.0560(3) -0.0171(5) 0.3648(3)
C3 C 0.2259(4) -0.1347(5) 0.4761(3)
H1 H 0.30490 -0.13580 0.50350
N2 N 0.2183(4) -0.3693(5) 0.5812(3)
C4 C 0.0480(3) 0.2296(5) 0.2564(3)
C5 C -0.0066(4) -0.1378(5) 0.3964(3)
H2 H -0.08540 -0.14030 0.36870
C6 C 0.1746(3) -0.0198(5) 0.4067(3)
H3 H 0.21860 0.05730 0.38700
C7 C -0.0388(3) 0.3213(5) 0.1726(3)
O2 O 0.1602(3) -0.4739(5) 0.6041(3)
O3 O 0.3207(4) -0.3639(5) 0.6184(3)
C8 C 0.0456(4) -0.2505(5) 0.4663(3)
H4 H 0.00280 -0.32810 0.48710
C9 C 0.1104(4) 0.3655(6) 0.3275(3)
H5 H 0.07110 0.39020 0.37250
H6 H 0.18780 0.33070 0.36280
C10 C -0.0316(4) 0.2255(6) 0.0865(3)
C11 C -0.1614(3) 0.3314(7) 0.1718(4)
H7 H -0.20500 0.40280 0.12010
H8 H -0.16240 0.37760 0.23150
H9 H -0.19420 0.22010 0.16340
O4 O -0.0927(4) 0.2407(6) 0.0069(2)
C12 C 0.1094(5) 0.5160(7) 0.2653(4)
H10 H 0.10190 0.61920 0.29810
H11 H 0.18010 0.52140 0.25140
C13 C 0.0677(4) 0.1080(6) 0.1215(3)
H12 H 0.04210 -0.00800 0.12100
H13 H 0.11520 0.11570 0.08140
C14 C 0.0143(4) 0.4990(6) 0.1774(4)
H14 H 0.04000 0.51530 0.12300
H15 H -0.04240 0.58460 0.17490
H16 H -0.072(3) 0.071(5) 0.271(2)
#END
