
#######################################################################
#
#                 Cambridge Crystallographic Data Centre
#                                CCDC
#
#######################################################################
#
# If this CIF has been generated from an entry in the Cambridge
# Structural Database, then it will include bibliographic, chemical,
# crystal, experimental, refinement or atomic coordinate data resulting
# from the CCDC's data processing and validation procedures.
#
#######################################################################

data_CSD_CIF_XAZJOA
_audit_creation_date 2017-07-19
_audit_creation_method CSD-ConQuest-V1
_database_code_CSD XAZJOA
_database_code_depnum_ccdc_archive 'CCDC 1024963'
_chemical_formula_sum 'C22 H16 N8 O6'
_chemical_formula_moiety
;
C22 H16 N8 O6
;
_journal_coden_Cambridge 206
_journal_volume 47
_journal_year 2017
_journal_page_first 660
_journal_name_full 'Synth.Commun. '
loop_
_publ_author_name
"Y.Durust"
"Elif Yildiz"
"H.Karakus"
"B.M.Kariuki"
_chemical_name_systematic
;
4-{5-[(4,6-dioxo-5-phenyl-4,5,6,6a-tetrahydropyrrolo[3,4-d][1,2,3]triazol-1(3a
H)-yl)methyl]-1,2,4-oxadiazol-3-yl}-3-(4-methoxyphenyl)-1,2,3-oxadiazol-3-ium-
5-olate
;
_cell_volume   1120.237
_exptl_crystal_colour 'colorless'
_exptl_crystal_density_diffrn 1.448
_exptl_crystal_description 'plate'
_diffrn_ambient_temperature 296
#These two values have been output from a single CSD field.
_refine_ls_R_factor_gt 0.0642
_refine_ls_wR_factor_gt 0.0642
_symmetry_cell_setting triclinic
_symmetry_space_group_name_H-M 'P -1'
_symmetry_Int_Tables_number 2
loop_
_symmetry_equiv_pos_site_id
_symmetry_equiv_pos_as_xyz
1 x,y,z
2 -x,-y,-z
_cell_length_a 6.1547(5)
_cell_length_b 9.0707(8)
_cell_length_c 21.202(2)
_cell_angle_alpha 79.438(8)
_cell_angle_beta 83.599(8)
_cell_angle_gamma 74.772(8)
_cell_formula_units_Z 2
loop_
_atom_type_symbol
_atom_type_radius_bond
C 0.68
H 0.23
N 0.68
O 0.68
loop_
_atom_site_label
_atom_site_type_symbol
_atom_site_fract_x
_atom_site_fract_y
_atom_site_fract_z
C1 C 1.3093(7) 0.9486(5) 0.1611(2)
H1 H 1.40810 0.97980 0.18520
H2 H 1.32530 0.99260 0.11660
H3 H 1.34790 0.83770 0.16540
C2 C 1.0261(5) 0.9586(4) 0.24850(18)
C3 C 1.1726(5) 0.8675(4) 0.2928(2)
H4 H 1.32350 0.83000 0.27990
C4 C 1.0980(5) 0.8308(4) 0.35636(19)
H5 H 1.19770 0.76980 0.38630
C5 C 0.8726(4) 0.8866(3) 0.37461(17)
C6 C 0.7239(5) 0.9760(4) 0.33025(19)
H6 H 0.57250 1.01240 0.34300
C7 C 0.7992(6) 1.0110(4) 0.2677(2)
H7 H 0.69840 1.07010 0.23770
C8 C 0.7519(4) 0.7320(3) 0.47868(16)
C9 C 0.7154(5) 0.7635(4) 0.5418(2)
C10 C 0.7569(4) 0.5894(3) 0.45652(16)
C11 C 0.7740(4) 0.4263(3) 0.39770(18)
C12 C 0.7964(6) 0.3343(4) 0.34538(19)
H8 H 0.92100 0.24340 0.35320
H9 H 0.66010 0.29910 0.34650
C13 C 1.0343(6) 0.4753(4) 0.26280(18)
H10 H 1.09880 0.50220 0.29810
C14 C 0.9359(10) 0.6147(4) 0.2133(3)
H11 H 0.95850 0.71010 0.22390
C15 C 1.0583(9) 0.5808(5) 0.1503(3)
C16 C 1.2042(5) 0.3656(4) 0.22453(17)
C17 C 1.3433(7) 0.3612(5) 0.10963(19)
C18 C 1.2458(10) 0.3499(6) 0.0558(2)
H12 H 1.09250 0.39290 0.05110
C19 C 1.3818(13) 0.2720(7) 0.0081(3)
H13 H 1.31850 0.26420 -0.02860
C20 C 1.6086(13) 0.2074(8) 0.0157(3)
H14 H 1.69750 0.15500 -0.01570
C21 C 1.7007(9) 0.2200(8) 0.0682(3)
H15 H 1.85370 0.17570 0.07270
C22 C 1.5726(8) 0.2980(6) 0.1164(2)
H16 H 1.63960 0.30730 0.15220
N1 N 0.7993(4) 0.8598(3) 0.44157(14)
N2 N 0.7880(5) 0.9728(3) 0.47291(18)
N3 N 0.7537(4) 0.4640(3) 0.49838(14)
N4 N 0.7680(4) 0.5724(3) 0.39326(13)
N5 N 0.8342(4) 0.4173(3) 0.28290(15)
N6 N 0.6491(6) 0.5126(6) 0.2540(2)
N7 N 0.6963(9) 0.6215(6) 0.2138(3)
N8 N 1.2064(5) 0.4344(4) 0.16008(15)
O1 O 1.0815(4) 1.0016(3) 0.18532(14)
O2 O 0.7330(4) 0.9181(3) 0.53552(15)
O3 O 0.6815(4) 0.6914(4) 0.59447(14)
O4 O 0.7646(3) 0.3530(2) 0.45870(12)
O5 O 1.0323(9) 0.6630(4) 0.0991(2)
O6 O 1.3097(4) 0.2401(3) 0.24564(13)
#END
