
#######################################################################
#
#                 Cambridge Crystallographic Data Centre
#                                CCDC
#
#######################################################################
#
# If this CIF has been generated from an entry in the Cambridge
# Structural Database, then it will include bibliographic, chemical,
# crystal, experimental, refinement or atomic coordinate data resulting
# from the CCDC's data processing and validation procedures.
#
#######################################################################

data_CSD_CIF_XAZJIU
_audit_creation_date 2017-07-19
_audit_creation_method CSD-ConQuest-V1
_database_code_CSD XAZJIU
_database_code_depnum_ccdc_archive 'CCDC 1019441'
_chemical_formula_sum 'C20 H15 N7 O4'
_chemical_formula_moiety
;
C20 H15 N7 O4
;
_journal_coden_Cambridge 206
_journal_volume 47
_journal_year 2017
_journal_page_first 660
_journal_name_full 'Synth.Commun. '
loop_
_publ_author_name
"Y.Durust"
"Elif Yildiz"
"H.Karakus"
"B.M.Kariuki"
_chemical_name_systematic
;
3-(4-methoxyphenyl)-4-{5-[(4-phenyl-1H-1,2,3-triazol-1-yl)methyl]-1,2,4-oxadia
zol-3-yl}-1,2,3-oxadiazol-3-ium-5-olate
;
_cell_volume   1903.134
_exptl_crystal_colour 'colorless'
_exptl_crystal_density_diffrn 1.457
_exptl_crystal_description 'plate'
_diffrn_ambient_temperature 296
_diffrn_special_details
;
twin

;
#These two values have been output from a single CSD field.
_refine_ls_R_factor_gt 0.0542
_refine_ls_wR_factor_gt 0.0542
_symmetry_cell_setting monoclinic
_symmetry_space_group_name_H-M 'P 21/c'
_symmetry_Int_Tables_number 14
loop_
_symmetry_equiv_pos_site_id
_symmetry_equiv_pos_as_xyz
1 x,y,z
2 -x,1/2+y,1/2-z
3 -x,-y,-z
4 x,-1/2-y,-1/2+z
_cell_length_a 18.8858(11)
_cell_length_b 6.3266(3)
_cell_length_c 16.4448(8)
_cell_angle_alpha 90
_cell_angle_beta 104.401(5)
_cell_angle_gamma 90
_cell_formula_units_Z 4
loop_
_atom_type_symbol
_atom_type_radius_bond
C 0.68
H 0.23
N 0.68
O 0.68
loop_
_atom_site_label
_atom_site_type_symbol
_atom_site_fract_x
_atom_site_fract_y
_atom_site_fract_z
C1 C 0.10594(15) 1.1168(6) 0.5699(2)
H1 H 0.13690 1.23450 0.59180
H2 H 0.06590 1.11160 0.59620
H3 H 0.08740 1.13280 0.51040
C2 C 0.20714(10) 0.9071(4) 0.55638(13)
C3 C 0.23049(12) 1.0611(4) 0.50856(14)
H4 H 0.20490 1.18730 0.49610
C4 C 0.29219(11) 1.0243(3) 0.47976(13)
H5 H 0.30840 1.12540 0.44750
C5 C 0.3293(1) 0.8369(3) 0.49926(12)
C6 C 0.30740(11) 0.6829(3) 0.54771(14)
H6 H 0.33360 0.55760 0.56060
C7 C 0.24613(11) 0.7197(4) 0.57611(15)
H7 H 0.23050 0.61860 0.60880
C8 C 0.46296(10) 0.7619(3) 0.50410(11)
C9 C 0.50091(11) 0.7536(3) 0.44007(12)
C10 C 0.49445(10) 0.7409(3) 0.59343(11)
C11 C 0.57303(10) 0.6796(3) 0.70334(12)
C12 C 0.63696(11) 0.6143(5) 0.77256(13)
H8 H 0.63480 0.68590 0.82400
H9 H 0.63470 0.46330 0.78180
C13 C 0.74738(11) 0.5450(4) 0.71581(13)
H10 H 0.73970 0.40470 0.69900
C14 C 0.80368(11) 0.6727(4) 0.70897(12)
C15 C 0.86814(11) 0.6288(4) 0.67618(13)
C16 C 0.92654(14) 0.7685(5) 0.69260(17)
H11 H 0.92470 0.89010 0.72380
C17 C 0.98782(15) 0.7275(6) 0.6627(2)
H12 H 1.02730 0.81990 0.67530
C18 C 0.99033(15) 0.5524(6) 0.61506(19)
H13 H 1.03100 0.52730 0.59410
C19 C 0.93328(17) 0.4147(6) 0.5983(2)
H14 H 0.93520 0.29510 0.56600
C20 C 0.87229(13) 0.4514(5) 0.62896(18)
H15 H 0.83380 0.35530 0.61750
N1 N 0.39240(9) 0.8024(2) 0.46521(10)
N2 N 0.37955(10) 0.8214(3) 0.3840(1)
N3 N 0.56633(8) 0.6819(3) 0.62337(9)
N4 N 0.45929(10) 0.7745(3) 0.65111(11)
N5 N 0.70533(9) 0.6656(3) 0.75198(11)
N6 N 0.73315(12) 0.8607(4) 0.76662(15)
N7 N 0.79325(12) 0.8655(4) 0.74055(15)
O1 O 0.14692(9) 0.9261(3) 0.58700(11)
O2 O 0.44566(8) 0.7958(2) 0.36600(9)
O3 O 0.56308(9) 0.7252(2) 0.43629(10)
O4 O 0.51298(8) 0.7339(3) 0.72621(9)
#END
