
#######################################################################
#
#                 Cambridge Crystallographic Data Centre
#                                CCDC
#
#######################################################################
#
# If this CIF has been generated from an entry in the Cambridge
# Structural Database, then it will include bibliographic, chemical,
# crystal, experimental, refinement or atomic coordinate data resulting
# from the CCDC's data processing and validation procedures.
#
#######################################################################

data_CSD_CIF_XAZKUH
_audit_creation_date 2017-07-19
_audit_creation_method CSD-ConQuest-V1
_database_code_CSD XAZKUH
_database_code_depnum_ccdc_archive 'CCDC 1479267'
_chemical_formula_sum 'C29 H29 N3 O4'
_chemical_formula_moiety
;
C29 H29 N3 O4
;
_journal_coden_Cambridge 917
_journal_volume 12
_journal_year 2016
_journal_page_first 2793
_journal_name_full 'Beilstein J.Org.Chem. '
loop_
_publ_author_name
"S.Giofre"
"S.Cirmi"
"R.Mancuso"
"f.nicolo"
"Ugo Chiacchio"
"L.Legnani"
"M.A.Chiacchio"
"M.Navarra"
"B.Gabriele"
"R.Romeo"
_chemical_name_systematic
;
(1RS,4'RS)-2,2'-dibenzyl-4'-(morpholine-4-carbonyl)spiro[isoindoline-1,5'-isox
azolidin]-3-one
;
_cell_volume   4887.780
_exptl_crystal_colour 'colorless'
_exptl_crystal_density_diffrn 1.314
_exptl_special_details
;
Compound 6a was synthesized by 1,3-dypolar cycloaddition of  
(Z)-2-benzyl-3-(2-morpholino-2-oxoethylidene)isoindolin-1-one (0.287 mmol)  
and N-methylene-1-phenylmethanamine oxide (0.287 mmol) in Toluene (5 mL)  
under MW irradiation.
;
_exptl_crystal_description 'irregular'
_diffrn_ambient_temperature 296
#These two values have been output from a single CSD field.
_refine_ls_R_factor_gt 0.041
_refine_ls_wR_factor_gt 0.041
_chemical_compound_source
;
chemical synthesys
;
_symmetry_cell_setting orthorhombic
_symmetry_space_group_name_H-M 'P b c a'
_symmetry_Int_Tables_number 61
loop_
_symmetry_equiv_pos_site_id
_symmetry_equiv_pos_as_xyz
1 x,y,z
2 1/2+x,1/2-y,-z
3 -x,1/2+y,1/2-z
4 1/2-x,-y,1/2+z
5 -x,-y,-z
6 -1/2-x,-1/2+y,z
7 x,-1/2-y,-1/2+z
8 -1/2+x,y,-1/2-z
_cell_length_a 16.6179(4)
_cell_length_b 12.1745(2)
_cell_length_c 24.1593(5)
_cell_angle_alpha 90
_cell_angle_beta 90
_cell_angle_gamma 90
_cell_formula_units_Z 8
loop_
_atom_type_symbol
_atom_type_radius_bond
C 0.68
H 0.23
N 0.68
O 0.68
loop_
_atom_site_label
_atom_site_type_symbol
_atom_site_fract_x
_atom_site_fract_y
_atom_site_fract_z
O1 O 0.04587(6) 0.74833(7) 0.41875(4)
O2 O 0.20297(7) 1.02000(9) 0.48571(5)
O3 O 0.09295(7) 0.55895(9) 0.55483(4)
O4 O 0.28676(9) 0.79590(11) 0.64826(5)
N1 N 0.07844(7) 0.64840(9) 0.39143(5)
N2 N 0.15799(7) 0.85694(9) 0.44983(5)
N3 N 0.19681(7) 0.67338(9) 0.57058(5)
C1 C 0.10047(12) 0.36118(18) 0.24638(9)
H1 H 0.11960 0.30730 0.22250
C2 C 0.10421(13) 0.46979(19) 0.23147(8)
H2 H 0.12610 0.48940 0.19740
C3 C 0.07569(11) 0.55008(15) 0.26673(7)
H3 H 0.07850 0.62350 0.25630
C4 C 0.04296(9) 0.52231(12) 0.31757(6)
C5 C 0.01227(9) 0.61036(12) 0.35584(6)
H4 H -0.00870 0.67140 0.33440
H5 H -0.03100 0.58140 0.37850
C6 C 0.09954(8) 0.77074(10) 0.46315(5)
C7 C 0.21803(8) 0.84994(12) 0.40563(6)
H6 H 0.22440 0.77360 0.39510
H7 H 0.26930 0.87550 0.41980
C8 C 0.19671(8) 0.91611(11) 0.35478(6)
C9 C 0.14484(10) 0.87432(14) 0.31552(6)
H8 H 0.12320 0.80450 0.32030
C10 C 0.12455(11) 0.93503(16) 0.26908(7)
H9 H 0.08870 0.90630 0.24330
C11 C 0.15693(11) 1.03692(16) 0.26102(7)
H10 H 0.14390 1.07720 0.22960
C12 C 0.06841(12) 0.33243(15) 0.29661(8)
H11 H 0.06600 0.25890 0.30690
C13 C 0.03969(10) 0.41270(13) 0.33205(7)
H12 H 0.01790 0.39260 0.36600
C14 C 0.15578(9) 0.94312(11) 0.48587(6)
C15 C 0.08802(9) 0.92185(11) 0.52410(6)
C16 C 0.05319(8) 0.82294(11) 0.50995(6)
C17 C -0.01466(9) 0.78446(13) 0.53681(7)
H13 H -0.03870 0.71840 0.52680
C18 C -0.04543(11) 0.84864(15) 0.57934(7)
H14 H -0.09140 0.82540 0.59790
C19 C -0.00937(11) 0.94621(16) 0.59467(7)
H15 H -0.03050 0.98640 0.62400
C20 C 0.05765(10) 0.98495(13) 0.56706(7)
H16 H 0.08160 1.05110 0.57690
C21 C 0.20874(11) 1.07943(15) 0.29952(8)
H17 H 0.23080 1.14890 0.29420
C22 C 0.22847(10) 1.01955(13) 0.34620(7)
H18 H 0.26360 1.04930 0.37220
C23 C 0.14074(8) 0.65758(10) 0.47619(5)
H19 H 0.19620 0.65940 0.46240
C24 C 0.09220(9) 0.57951(11) 0.44045(6)
H20 H 0.12250 0.51390 0.43140
H21 H 0.04200 0.55890 0.45810
C25 C 0.14184(8) 0.62552(11) 0.53706(6)
C26 C 0.26620(9) 0.73872(12) 0.55344(6)
H22 H 0.25750 0.76680 0.51640
H23 H 0.31390 0.69280 0.55280
C27 C 0.27888(12) 0.83307(14) 0.59281(7)
H24 H 0.32700 0.87290 0.58230
H25 H 0.23360 0.88310 0.59030
C28 C 0.21618(13) 0.73904(18) 0.66430(8)
H26 H 0.17040 0.78830 0.66180
H27 H 0.22130 0.71600 0.70260
C29 C 0.20119(12) 0.64014(14) 0.62860(6)
H28 H 0.24440 0.58740 0.63350
H29 H 0.15110 0.60530 0.63940
#END
