
#######################################################################
#
#                 Cambridge Crystallographic Data Centre
#                                CCDC
#
#######################################################################
#
# If this CIF has been generated from an entry in the Cambridge
# Structural Database, then it will include bibliographic, chemical,
# crystal, experimental, refinement or atomic coordinate data resulting
# from the CCDC's data processing and validation procedures.
#
#######################################################################

data_CSD_CIF_XEBCEO
_audit_creation_date 2012-07-19
_audit_creation_method CSD-ConQuest-V1
_database_code_CSD XEBCEO
_database_code_depnum_ccdc_archive 'CCDC 889812'
_chemical_formula_sum 'C15 H14 N4 O5'
_chemical_formula_moiety
;
C15 H14 N4 O5
;
_journal_coeditor_code "IUCr IS5147"
_journal_coden_Cambridge 1370
_journal_volume 68
_journal_year 2012
_journal_page_first o2144
_journal_name_full 'Acta Crystallogr.,Sect.E:Struct.Rep.Online '
loop_
_publ_author_name
"H.-K.Fun"
"S.Chantrapromma"
"B.Nilwanna"
"T.Kobkeatthawin"
_chemical_name_systematic
;
(E)-1-(2,4-Dinitrophenyl)-2-[1-(3-methoxyphenyl)ethylidene]hydrazine
;
_cell_volume   1488.423
_exptl_crystal_colour 'orange'
_exptl_crystal_density_diffrn 1.474
_exptl_crystal_description 'plate'
_diffrn_ambient_temperature 100
#These two values have been output from a single CSD field.
_refine_ls_R_factor_gt 0.0862
_refine_ls_wR_factor_gt 0.0862
_symmetry_cell_setting triclinic
_symmetry_space_group_name_H-M 'P -1'
_symmetry_Int_Tables_number 2
loop_
_symmetry_equiv_pos_site_id
_symmetry_equiv_pos_as_xyz
1 x,y,z
2 -x,-y,-z
_cell_length_a 7.5612(13)
_cell_length_b 10.4517(18)
_cell_length_c 19.516(3)
_cell_angle_alpha 76.034(4)
_cell_angle_beta 89.531(4)
_cell_angle_gamma 84.052(4)
_cell_formula_units_Z 4
loop_
_atom_type_symbol
_atom_type_radius_bond
C 0.68
H 0.23
N 0.68
O 0.68
loop_
_atom_site_label
_atom_site_type_symbol
_atom_site_fract_x
_atom_site_fract_y
_atom_site_fract_z
O1 O 0.5983(4) 0.0757(3) 0.79029(14)
O2 O 0.7040(4) -0.0325(3) 0.89291(14)
O3 O 0.6439(4) 0.1398(3) 1.09429(14)
O4 O 0.4793(4) 0.3241(3) 1.09095(15)
O5 O -0.0748(4) 0.8559(3) 0.67880(16)
N1 N 0.4046(4) 0.3030(3) 0.77458(15)
H1 H 0.442(6) 0.238(3) 0.756(2)
N2 N 0.3056(4) 0.4176(3) 0.73966(16)
N3 N 0.6176(4) 0.0642(3) 0.85475(16)
N4 N 0.5456(4) 0.2375(3) 1.06297(16)
C1 C 0.4380(5) 0.2851(4) 0.84447(18)
C2 C 0.5381(4) 0.1691(4) 0.88527(18)
C3 C 0.5721(4) 0.1543(4) 0.95672(18)
H2 H 0.63890 0.07870 0.98270
C4 C 0.5064(4) 0.2520(4) 0.98843(18)
C5 C 0.4078(5) 0.3681(4) 0.95041(19)
H3 H 0.36430 0.43350 0.97300
C6 C 0.3764(5) 0.3842(4) 0.87965(18)
H4 H 0.31310 0.46200 0.85420
C7 C 0.2916(5) 0.4404(4) 0.67163(18)
C8 C 0.3760(5) 0.3548(4) 0.62647(19)
H5 H 0.45290 0.28340 0.65520
H6 H 0.44420 0.40680 0.59050
H7 H 0.28530 0.31940 0.60480
C9 C 0.1823(5) 0.5658(4) 0.63623(18)
C10 C 0.1036(5) 0.6493(4) 0.67685(19)
H8 H 0.11730 0.62560 0.72570
C11 C 0.0055(5) 0.7671(4) 0.6442(2)
C12 C -0.0155(5) 0.8030(4) 0.5704(2)
H9 H -0.07970 0.88300 0.54830
C13 C 0.0596(6) 0.7191(4) 0.5309(2)
H10 H 0.04400 0.74240 0.48210
C14 C 0.1580(5) 0.6005(4) 0.56287(19)
H11 H 0.20750 0.54450 0.53570
C15 C -0.0621(5) 0.8217(4) 0.7541(2)
H12 H -0.13520 0.88620 0.77230
H13 H 0.05930 0.82000 0.76860
H14 H -0.10190 0.73580 0.77200
O6 O 0.3655(4) 0.3835(3) 0.45297(14)
O7 O 0.4931(4) 0.1929(3) 0.51179(14)
O8 O 0.8328(4) -0.0989(3) 0.39840(15)
O9 O 0.7842(4) -0.0858(3) 0.28765(15)
O10 O 0.1203(4) 0.6180(3) -0.00270(14)
N5 N 0.3221(4) 0.4301(3) 0.31624(16)
H15 H 0.288(6) 0.456(5) 0.3542(17)
N6 N 0.2573(4) 0.4970(3) 0.25056(16)
N7 N 0.4467(4) 0.2707(3) 0.45574(16)
N8 N 0.7603(4) -0.0432(3) 0.34084(17)
C16 C 0.4252(4) 0.3144(4) 0.32377(18)
C17 C 0.4874(5) 0.2337(4) 0.39022(18)
C18 C 0.5970(5) 0.1153(4) 0.39627(19)
H16 H 0.63830 0.06450 0.44020
C19 C 0.6422(4) 0.0759(4) 0.33599(18)
C20 C 0.5822(5) 0.1513(4) 0.26873(19)
H17 H 0.61290 0.12180 0.22850
C21 C 0.4787(5) 0.2677(4) 0.26357(18)
H18 H 0.44180 0.31850 0.21910
C22 C 0.1651(4) 0.6103(4) 0.24548(18)
C23 C 0.1308(5) 0.6726(4) 0.3065(2)
H19 H 0.10390 0.60610 0.34750
H20 H 0.03190 0.73990 0.29520
H21 H 0.23450 0.71170 0.31600
C24 C 0.0979(5) 0.6790(4) 0.17307(19)
C25 C 0.1345(5) 0.6197(4) 0.11704(19)
H22 H 0.20000 0.53690 0.12500
C26 C 0.0731(5) 0.6842(4) 0.0492(2)
C27 C -0.0255(5) 0.8084(4) 0.0359(2)
H23 H -0.06680 0.85090 -0.00950
C28 C -0.0604(5) 0.8667(4) 0.0919(2)
H24 H -0.12500 0.94980 0.08380
C29 C -0.0003(5) 0.8030(4) 0.1601(2)
H25 H -0.02590 0.84340 0.19710
C30 C 0.0306(6) 0.6672(4) -0.0701(2)
H26 H 0.06300 0.60790 -0.09980
H27 H 0.06450 0.75350 -0.09190
H28 H -0.09570 0.67300 -0.06350
#END
