
#######################################################################
#
#                 Cambridge Crystallographic Data Centre
#                                CCDC
#
#######################################################################
#
# If this CIF has been generated from an entry in the Cambridge
# Structural Database, then it will include bibliographic, chemical,
# crystal, experimental, refinement or atomic coordinate data resulting
# from the CCDC's data processing and validation procedures.
#
#######################################################################

data_CSD_CIF_XEBHET
_audit_creation_date 2012-07-19
_audit_creation_method CSD-ConQuest-V1
_database_code_CSD XEBHET
_database_code_depnum_ccdc_archive 'CCDC 889832'
_chemical_formula_sum 'C6 H10 N6 O4'
_chemical_formula_moiety
;
C6 H10 N6 O4
;
_journal_coeditor_code "IUCr XU5568"
_journal_coden_Cambridge 1370
_journal_volume 68
_journal_year 2012
_journal_page_first o2171
_journal_name_full 'Acta Crystallogr.,Sect.E:Struct.Rep.Online '
loop_
_publ_author_name
"Xiang-Zhi Li"
"Bo-Zhou Wang"
"Xue-Zhong Fan"
"Seik Weng Ng"
_chemical_name_systematic
;
2-t-Butyl-1-(4-nitroamino-1,2,5-oxadiazol-3-yl)diazene 1-oxide
;
_cell_volume   1064.322
_exptl_crystal_colour 'yellow'
_exptl_crystal_density_diffrn 1.437
_exptl_crystal_description 'prism'
_diffrn_ambient_temperature 293
#These two values have been output from a single CSD field.
_refine_ls_R_factor_gt 0.0503
_refine_ls_wR_factor_gt 0.0503
_symmetry_cell_setting monoclinic
_symmetry_space_group_name_H-M 'P 21/n'
_symmetry_Int_Tables_number 14
loop_
_symmetry_equiv_pos_site_id
_symmetry_equiv_pos_as_xyz
1 x,y,z
2 1/2-x,1/2+y,1/2-z
3 -x,-y,-z
4 -1/2+x,-1/2-y,-1/2+z
_cell_length_a 6.2509(5)
_cell_length_b 9.1327(8)
_cell_length_c 18.6566(16)
_cell_angle_alpha 90
_cell_angle_beta 92.134(2)
_cell_angle_gamma 90
_cell_formula_units_Z 4
loop_
_atom_type_symbol
_atom_type_radius_bond
C 0.68
H 0.23
N 0.68
O 0.68
loop_
_atom_site_label
_atom_site_type_symbol
_atom_site_fract_x
_atom_site_fract_y
_atom_site_fract_z
O1 O 0.0322(3) 0.3824(2) 0.18681(9)
O2 O 0.2815(3) 0.3201(2) 0.38149(7)
O3 O 0.8233(3) 0.0997(2) 0.34861(9)
O4 O 0.9040(3) 0.04877(19) 0.24053(10)
N1 N 0.3219(2) 0.25696(16) 0.15264(7)
N2 N 0.2040(2) 0.31596(16) 0.19716(7)
N3 N 0.1665(3) 0.3517(2) 0.32062(9)
N4 N 0.4710(3) 0.2504(2) 0.36761(8)
N5 N 0.6222(2) 0.17780(19) 0.25756(8)
N6 N 0.7946(3) 0.10260(19) 0.28501(10)
C1 C 0.4246(5) 0.1849(4) 0.03862(11)
H1 H 0.42770 0.08520 0.05490
H2 H 0.56090 0.22990 0.04930
H3 H 0.39480 0.18710 -0.01220
C2 C 0.0397(4) 0.1911(4) 0.06269(13)
H4 H -0.06920 0.24470 0.08640
H5 H 0.04710 0.09320 0.08130
H6 H 0.00560 0.18800 0.01210
C3 C 0.2466(4) 0.4235(3) 0.05127(11)
H7 H 0.13650 0.47440 0.07580
H8 H 0.21580 0.42700 0.00050
H9 H 0.38220 0.46940 0.06190
C4 C 0.2546(3) 0.2664(2) 0.07571(9)
C5 C 0.2791(3) 0.30095(19) 0.27008(9)
C6 C 0.4692(3) 0.23759(19) 0.29834(9)
H10 H 0.602(3) 0.170(2) 0.2114(5)
#END
