
#######################################################################
#
#                 Cambridge Crystallographic Data Centre
#                                CCDC
#
#######################################################################
#
# If this CIF has been generated from an entry in the Cambridge
# Structural Database, then it will include bibliographic, chemical,
# crystal, experimental, refinement or atomic coordinate data resulting
# from the CCDC's data processing and validation procedures.
#
#######################################################################

data_CSD_CIF_XEBNUN
_audit_creation_date 2001-02-22
_audit_creation_method CSD-ConQuest-V1
_database_code_CSD XEBNUN
_database_code_depnum_ccdc_archive 'CCDC 136523'
_chemical_formula_sum 'C42 H66 N2 O13'
_chemical_formula_moiety
;
C42 H66 N2 O13
;
_journal_coden_Cambridge 1090
_journal_volume 11
_journal_year 2000
_journal_page_first 375
_journal_name_full 'Tetrahedron:Asymm. '
loop_
_publ_author_name
"P.Allef"
"H.Kunz"
_chemical_name_systematic
;
N-Ethyl-N-(2,3,4,6-tetra-O-pivaloyl-\b-D-galactopyranosyl)-2,2-diethyl-3-(p-ni
trophenyl)-\b-alanine methyl ester
;
_chemical_melting_point 347.15
_cell_volume   2367.072
_exptl_crystal_colour 'colorless'
_exptl_crystal_density_diffrn 1.132
_exptl_crystal_description 'thick needle'
_diffrn_ambient_temperature ?
_diffrn_special_details
;
The study was carried out at room temperature,in the range 283-303K

;
_refine_special_details
;
The structure is disordered.

;
#These two values have been output from a single CSD field.
_refine_ls_R_factor_gt 0.0692
_refine_ls_wR_factor_gt 0.0692
_symmetry_cell_setting monoclinic
_symmetry_space_group_name_H-M 'P 21'
_symmetry_Int_Tables_number 4
loop_
_symmetry_equiv_pos_site_id
_symmetry_equiv_pos_as_xyz
1 x,y,z
2 -x,1/2+y,-z
_cell_length_a 15.416(4)
_cell_length_b 10.3458(8)
_cell_length_c 15.986(3)
_cell_angle_alpha 90
_cell_angle_beta 111.813(9)
_cell_angle_gamma 90
_cell_formula_units_Z 2
loop_
_atom_type_symbol
_atom_type_radius_bond
C 0.68
H 0.23
N 0.68
O 0.68
loop_
_atom_site_label
_atom_site_type_symbol
_atom_site_fract_x
_atom_site_fract_y
_atom_site_fract_z
O1 O 0.27087(15) 0.1235(2) 0.79865(13)
C1 C 0.2897(2) 0.1921(3) 0.8803(2)
H1 H 0.3519(2) 0.2278(3) 0.8998(2)
C2 C 0.2250(2) 0.3074(3) 0.8666(2)
H2 H 0.2382(2) 0.3656(3) 0.9191(2)
C3 C 0.2317(2) 0.3900(3) 0.7914(2)
H3 H 0.2932(2) 0.4341(3) 0.8002(2)
C4 C 0.2135(2) 0.3098(3) 0.7064(2)
H4 H 0.1510(2) 0.2731(3) 0.6905(2)
C5 C 0.2875(2) 0.2007(3) 0.7304(2)
H5 H 0.3515(2) 0.2405(3) 0.7601(2)
N1 N 0.2837(2) 0.1244(3) 0.6554(2)
C6 C 0.3692(2) 0.0536(3) 0.6604(2)
H6 H 0.3437(2) 0.0067(3) 0.6011(2)
C7 C 0.4506(3) 0.1405(4) 0.6521(3)
C8 C 0.5207(4) 0.0467(6) 0.6362(4)
H7 H 0.5422(4) -0.0141(6) 0.6859(4)
H8 H 0.4884(4) -0.0023(6) 0.5817(4)
C9 C 0.6049(9) 0.1119(19) 0.6274(10)
H9 H 0.6451(9) 0.0476(19) 0.6177(10)
H10 H 0.6384(9) 0.1588(19) 0.6817(10)
H11 H 0.5845(9) 0.1706(19) 0.5774(10)
C10 C 0.4089(5) 0.2362(7) 0.5737(5)
H12 H 0.3712(5) 0.1876(7) 0.5208(5)
H13 H 0.3672(5) 0.2939(7) 0.5886(5)
C11 C 0.4748(14) 0.3153(23) 0.5495(19)
H14 H 0.4410(14) 0.3709(23) 0.5001(19)
H15 H 0.5154(14) 0.2600(23) 0.5323(19)
H16 H 0.5114(14) 0.3668(23) 0.6004(19)
C12 C 0.5047(5) 0.2205(7) 0.7370(6)
O2 O 0.5727(5) 0.1658(8) 0.7953(3)
C13 C 0.6280(8) 0.2374(17) 0.8752(6)
H17 H 0.6774(8) 0.1833(17) 0.9136(6)
H18 H 0.5890(8) 0.2640(17) 0.9069(6)
H19 H 0.6543(8) 0.3122(17) 0.8580(6)
O3 O 0.4837(4) 0.3357(7) 0.7380(7)
C14 C 0.3994(2) -0.0532(3) 0.7315(2)
C15 C 0.4376(2) -0.0302(3) 0.8244(2)
H20 H 0.4488(2) 0.0543(3) 0.8455(2)
C16 C 0.4588(2) -0.1305(3) 0.8847(2)
H21 H 0.4840(2) -0.1139(3) 0.9463(2)
C17 C 0.4425(2) -0.2564(3) 0.8538(2)
C18 C 0.4068(3) -0.2836(3) 0.7633(2)
H22 H 0.3973(3) -0.3685(3) 0.7428(2)
C19 C 0.3854(3) -0.1813(4) 0.7036(2)
H23 H 0.3606(3) -0.1988(4) 0.6422(2)
N2 N 0.4656(2) -0.3626(3) 0.9193(2)
O4 O 0.4883(2) -0.3365(3) 0.9982(2)
O5 O 0.4621(2) -0.4736(3) 0.8906(2)
C20 C 0.1987(3) 0.0455(3) 0.6156(2)
H24 H 0.1491(3) 0.0837(3) 0.6310(2)
H25 H 0.2108(3) -0.0402(3) 0.6420(2)
C21 C 0.1656(4) 0.0332(6) 0.5141(3)
H26 H 0.1103(4) -0.0192(6) 0.4925(3)
H27 H 0.2137(4) -0.0066(6) 0.4982(3)
H28 H 0.1520(4) 0.1174(6) 0.4872(3)
C22 C 0.2814(3) 0.0935(4) 0.9469(2)
H29 H 0.2195(3) 0.0553(4) 0.9250(2)
H30 H 0.3271(3) 0.0251(4) 0.9559(2)
O6 O 0.2984(2) 0.1625(3) 1.03042(15)
C23 C 0.2541(4) 0.1255(7) 1.0816(3)
O7 O 0.2014(7) 0.0376(9) 1.0588(5)
C24 C 0.2709(4) 0.2042(8) 1.1645(3)
C25 C 0.1839(7) 0.2095(15) 1.1829(7)
H31 H 0.1346(7) 0.2451(15) 1.1316(7)
H32 H 0.1934(7) 0.2631(15) 1.2346(7)
H33 H 0.1671(7) 0.1239(15) 1.1944(7)
C26 C 0.3557(8) 0.1525(18) 1.2348(6)
H34 H 0.4065(8) 0.1548(18) 1.2138(6)
H35 H 0.3448(8) 0.0649(18) 1.2481(6)
H36 H 0.3711(8) 0.2041(18) 1.2883(6)
C27 C 0.2994(7) 0.346(1) 1.1505(6)
H37 H 0.2476(7) 0.388(1) 1.1051(6)
H38 H 0.3516(7) 0.3436(10) 1.1316(6)
H39 H 0.3162(7) 0.3929(10) 1.2061(6)
O8 O 0.13008(14) 0.2580(2) 0.84032(15)
C28 C 0.0746(3) 0.3097(4) 0.8795(3)
O9 O 0.1004(2) 0.3952(4) 0.9340(3)
C29 C -0.0205(3) 0.2478(5) 0.8472(4)
C30 C -0.0744(5) 0.2996(13) 0.9001(7)
H40 H -0.1352(5) 0.2602(13) 0.8796(7)
H41 H -0.0810(5) 0.3915(13) 0.8921(7)
H42 H -0.0419(5) 0.2804(13) 0.9628(7)
C31 C -0.0729(5) 0.2967(11) 0.7497(6)
H43 H -0.0415(5) 0.2664(11) 0.7116(6)
H44 H -0.0740(5) 0.3894(11) 0.7493(6)
H45 H -0.1358(5) 0.2643(11) 0.7277(6)
C32 C -0.0140(5) 0.1005(7) 0.8402(8)
H46 H 0.0224(5) 0.0798(7) 0.8046(8)
H47 H -0.0756(5) 0.0651(7) 0.8122(8)
H48 H 0.0153(5) 0.0645(7) 0.8994(8)
O10 O 0.16346(15) 0.4923(2) 0.76915(15)
C33 C 0.1892(3) 0.5974(3) 0.8233(3)
O11 O 0.2620(2) 0.6065(3) 0.8832(2)
C34 C 0.1132(3) 0.7015(4) 0.7985(3)
C35 C 0.1017(8) 0.7417(10) 0.8864(6)
H49 H 0.0774(8) 0.6703(10) 0.9093(6)
H50 H 0.0591(8) 0.8133(10) 0.8747(6)
H51 H 0.1612(8) 0.7668(10) 0.9301(6)
C36 C 0.0194(4) 0.6523(7) 0.7432(6)
H52 H 0.0052(4) 0.5785(7) 0.7721(6)
H53 H 0.0183(4) 0.6278(7) 0.6849(6)
H54 H -0.0262(4) 0.7187(7) 0.7366(6)
C37 C 0.1503(7) 0.8147(7) 0.7676(9)
H55 H 0.2114(7) 0.8346(7) 0.8105(9)
H56 H 0.1096(7) 0.8872(7) 0.7619(9)
H57 H 0.1540(7) 0.7963(7) 0.7102(9)
O12 O 0.22397(14) 0.3928(2) 0.63927(13)
C38 C 0.1487(3) 0.4098(4) 0.5633(2)
O13 O 0.0772(3) 0.3543(4) 0.5493(3)
C39 C 0.1638(4) 0.5082(4) 0.4996(3)
C40 C 0.0842(10) 0.5942(13) 0.4672(11)
H58 H 0.0278(10) 0.5443(13) 0.4444(11)
H59 H 0.089(1) 0.6476(13) 0.4200(11)
H60 H 0.0832(10) 0.6479(13) 0.5158(11)
C41 C 0.1658(8) 0.4285(9) 0.4175(5)
H61 H 0.2180(8) 0.3704(9) 0.4370(5)
H62 H 0.1715(8) 0.4862(9) 0.3728(5)
H63 H 0.1089(8) 0.3799(9) 0.3920(5)
C42 C 0.2533(7) 0.5727(9) 0.5359(4)
H64 H 0.3023(7) 0.5093(9) 0.5558(4)
H65 H 0.2557(7) 0.6259(9) 0.5859(4)
H66 H 0.2615(7) 0.6256(9) 0.4901(4)
C43? C 0.3829(14) 0.1567(27) 0.4806(8)
H67? H 0.3567(14) 0.2146(27) 0.4306(8)
H68? H 0.3382(14) 0.0906(27) 0.4778(8)
H69? H 0.4384(14) 0.1177(27) 0.4781(8)
#END
