
#######################################################################
#
#                 Cambridge Crystallographic Data Centre
#                                CCDC
#
#######################################################################
#
# If this CIF has been generated from an entry in the Cambridge
# Structural Database, then it will include bibliographic, chemical,
# crystal, experimental, refinement or atomic coordinate data resulting
# from the CCDC's data processing and validation procedures.
#
#######################################################################

data_CSD_CIF_XEBNAU
_audit_creation_date 2006-06-06
_audit_creation_method CSD-ConQuest-V1
_database_code_CSD XEBNAU
_database_code_depnum_ccdc_archive 'CCDC 258728'
_chemical_formula_sum 'C30 H49 N1 O3'
_chemical_formula_moiety
;
C30 H49 N1 O3
;
_journal_coden_Cambridge 1200
_journal_volume 14
_journal_year 2006
_journal_page_first 1889
_journal_name_full 'Bioorg.Med.Chem. '
loop_
_publ_author_name
"H.Parra-Delgado"
"C.M.Compadre"
"T.Ramirez-Apan"
"M.J.Munoz-Fambuena"
"R.L.Compadre"
"P.Ostrosky-Wegman"
"M.Martinez-Vazquez"
_chemical_name_systematic
;
(16\b,24R)-16,24-Epoxy-25-hydroxycycloartan-3-oxime
;
_chemical_name_common
;
Argentain B 3-oxime
;
_chemical_melting_point 497.15
_cell_volume   2764.755
_exptl_crystal_density_diffrn 1.133
_exptl_special_details
;
Melting point range 497.15-500.15K
Some activity against HCT-15, K562, PC-3 and U251 human cancer cell lines
;
_diffrn_ambient_temperature 293
#These two values have been output from a single CSD field.
_refine_ls_R_factor_gt 0.0541
_refine_ls_wR_factor_gt 0.0541
_symmetry_cell_setting orthorhombic
_symmetry_space_group_name_H-M 'P 21 21 21'
_symmetry_Int_Tables_number 19
loop_
_symmetry_equiv_pos_site_id
_symmetry_equiv_pos_as_xyz
1 x,y,z
2 1/2-x,-y,1/2+z
3 -x,1/2+y,1/2-z
4 1/2+x,1/2-y,-z
_cell_length_a 10.827(2)
_cell_length_b 13.366(3)
_cell_length_c 19.105(4)
_cell_angle_alpha 90
_cell_angle_beta 90
_cell_angle_gamma 90
_cell_formula_units_Z 4
loop_
_atom_type_symbol
_atom_type_radius_bond
C 0.68
H 0.23
N 0.68
O 0.68
loop_
_atom_site_label
_atom_site_type_symbol
_atom_site_fract_x
_atom_site_fract_y
_atom_site_fract_z
N1 N 0.5535(4) 0.9637(3) 0.6079(2)
O1 O 0.5912(4) 0.8706(3) 0.5776(2)
H1 H 0.656(5) 0.893(4) 0.535(3)
O2 O -0.2433(3) 1.0698(2) 0.97309(17)
O3 O -0.4833(5) 1.1645(4) 0.9389(2)
H2 H -0.530(5) 1.223(4) 0.943(3)
C1 C 0.3273(5) 0.8469(4) 0.7143(3)
H3 H 0.30880 0.78530 0.73810
H4 H 0.28360 0.84720 0.67060
C2 C 0.4649(5) 0.8554(4) 0.6988(3)
H5 H 0.49080 0.80110 0.66940
H6 H 0.50910 0.85100 0.74220
C3 C 0.4944(4) 0.9532(4) 0.6646(2)
C4 C 0.4500(5) 1.0487(3) 0.7005(2)
C5 C 0.3099(5) 1.0338(3) 0.7174(2)
H7 H 0.26990 1.02660 0.67280
C6 C 0.2481(6) 1.1230(4) 0.7518(3)
H8 H 0.26040 1.18180 0.72370
H9 H 0.28590 1.13410 0.79660
C7 C 0.1113(5) 1.1027(4) 0.7631(4)
H10 H 0.07520 1.08370 0.71920
H11 H 0.07100 1.16250 0.77910
C8 C 0.0894(5) 1.0204(4) 0.8147(3)
H12 H 0.12200 1.04700 0.85750
C9 C 0.1673(4) 0.9266(3) 0.8012(2)
C10 C 0.2831(4) 0.9354(4) 0.7570(2)
C11 C 0.1000(5) 0.8253(3) 0.7998(3)
H13 H 0.15870 0.77480 0.81280
H14 H 0.07550 0.81220 0.75230
C12 C -0.0136(5) 0.8121(4) 0.8473(3)
H15 H 0.00260 0.76110 0.88150
H16 H -0.08180 0.78990 0.81920
C13 C -0.0542(4) 0.9087(3) 0.8841(2)
C14 C -0.0474(4) 0.9959(4) 0.8308(2)
C15 C -0.1164(4) 1.0784(4) 0.8699(3)
H17 H -0.14400 1.12850 0.83740
H18 H -0.06480 1.10950 0.90450
C16 C -0.2248(4) 1.0258(3) 0.9057(2)
H19 H -0.29790 1.03510 0.87800
C17 C -0.1925(4) 0.9122(4) 0.9087(2)
H20 H -0.23970 0.87870 0.87310
C18 C 0.0312(4) 0.9263(4) 0.9467(2)
H21 H 0.11590 0.92320 0.93190
H22 H 0.01450 0.99110 0.96620
H23 H 0.01650 0.87590 0.98160
C19 C 0.2984(5) 0.9276(4) 0.8341(3)
H24 H 0.32990 0.86580 0.85250
H25 H 0.32390 0.98660 0.85880
C20 C -0.2267(5) 0.8629(4) 0.9777(3)
H26 H -0.18460 0.89850 1.01430
C21 C -0.1897(5) 0.7521(4) 0.9821(3)
H27 H -0.10300 0.74580 0.97280
H28 H -0.20730 0.72700 1.02810
H29 H -0.23550 0.71430 0.94810
C22 C -0.3660(5) 0.8669(4) 0.9924(3)
H30 H -0.37850 0.85000 1.04070
H31 H -0.40600 0.81650 0.96470
C23 C -0.4316(5) 0.9670(4) 0.9809(3)
H32 H -0.51360 0.96580 0.99990
H33 H -0.43820 0.97650 0.93130
C24 C -0.3608(4) 1.0560(4) 1.0088(3)
H34 H -0.34230 1.04110 1.05680
C25 C -0.4352(5) 1.1539(4) 1.0076(3)
C26 C -0.5408(6) 1.1480(5) 1.0607(3)
H35 H -0.58890 1.20830 1.05980
H36 H -0.59240 1.09210 1.04890
H37 H -0.50720 1.13860 1.10670
C27 C -0.3543(6) 1.2424(5) 1.0272(4)
H38 H -0.28730 1.24890 0.99460
H39 H -0.40160 1.30320 1.02770
H40 H -0.32180 1.22990 1.07310
C28 C -0.1177(5) 0.9722(5) 0.7622(3)
H41 H -0.20270 0.95790 0.77240
H42 H -0.11300 1.02810 0.73080
H43 H -0.08020 0.91480 0.74080
C29 C 0.5281(5) 1.0641(5) 0.7659(3)
H44 H 0.61330 1.07280 0.75330
H45 H 0.49950 1.12240 0.79030
H46 H 0.51990 1.00650 0.79550
C30 C 0.4660(6) 1.1394(4) 0.6522(3)
H47 H 0.55200 1.14930 0.64230
H48 H 0.42210 1.12810 0.60930
H49 H 0.43350 1.19780 0.67500
#END
