
#######################################################################
#
#                 Cambridge Crystallographic Data Centre
#                                CCDC
#
#######################################################################
#
# If this CIF has been generated from an entry in the Cambridge
# Structural Database, then it will include bibliographic, chemical,
# crystal, experimental, refinement or atomic coordinate data resulting
# from the CCDC's data processing and validation procedures.
#
#######################################################################

data_CSD_CIF_XEBPOM
_audit_creation_date 2017-07-20
_audit_creation_method CSD-ConQuest-V1
_database_code_CSD XEBPOM
_database_code_depnum_ccdc_archive 'CCDC 1476444'
_chemical_formula_sum 'C20 H27 N1 O6'
_chemical_formula_moiety
;
C20 H27 N1 O6
;
_journal_coden_Cambridge 4
_journal_volume 139
_journal_year 2017
_journal_page_first 8661
_journal_name_full 'J.Am.Chem.Soc. '
loop_
_publ_author_name
"S.L.Bartlett"
"Y.Sohtome"
"D.Hashizume"
"P.S.White"
"M.Sawamura"
"J.S.Johnson"
"M.Sodeoka"
_chemical_name_systematic
;
t-butyl 
4-(2-t-butoxy-2-oxoethyl)-5-hydroxy-3-phenyl-4,5-dihydro-1,2-oxazole-5-carboxy
late
;
_cell_volume   4112.130
_exptl_crystal_colour 'colorless'
_exptl_crystal_density_diffrn 1.219
_exptl_special_details
;
Absolute configuration

;
_exptl_crystal_description 'prism'
_diffrn_ambient_temperature 90
#These two values have been output from a single CSD field.
_refine_ls_R_factor_gt 0.0338
_refine_ls_wR_factor_gt 0.0338
_symmetry_cell_setting orthorhombic
_symmetry_space_group_name_H-M 'P 21 21 21'
_symmetry_Int_Tables_number 19
loop_
_symmetry_equiv_pos_site_id
_symmetry_equiv_pos_as_xyz
1 x,y,z
2 1/2+x,1/2-y,-z
3 -x,1/2+y,1/2-z
4 1/2-x,-y,1/2+z
_cell_length_a 10.67160(19)
_cell_length_b 11.1383(2)
_cell_length_c 34.5954(6)
_cell_angle_alpha 90
_cell_angle_beta 90
_cell_angle_gamma 90
_cell_formula_units_Z 8
loop_
_atom_type_symbol
_atom_type_radius_bond
C 0.68
H 0.23
N 0.68
O 0.68
loop_
_atom_site_label
_atom_site_type_symbol
_atom_site_fract_x
_atom_site_fract_y
_atom_site_fract_z
O1 O 0.45137(15) 0.48527(15) 0.71295(4)
H1 H 0.436(3) 0.427(3) 0.7276(9)
O2 O 0.24934(14) 0.56306(13) 0.70783(4)
O3 O 0.38539(16) 0.50488(15) 0.78740(4)
O4 O 0.30799(13) 0.69195(13) 0.77692(4)
O5 O 0.60045(14) 0.73915(15) 0.75868(4)
O6 O 0.75324(13) 0.66018(13) 0.72115(4)
N1 N 0.23596(16) 0.62582(16) 0.67222(5)
C1 C 0.37504(19) 0.58114(19) 0.72257(6)
C2 C 0.41963(19) 0.69534(19) 0.70194(6)
H2 H 0.40160 0.76630 0.71880
C3 C 0.33002(19) 0.69628(18) 0.66804(6)
C4 C 0.35789(19) 0.5883(2) 0.76675(6)
C5 C 0.2861(2) 0.7224(2) 0.81842(6)
C6 C 0.2424(3) 0.8513(2) 0.81604(7)
H3 H 0.16860 0.85620 0.79920
H4 H 0.30960 0.90120 0.80540
H5 H 0.22060 0.88000 0.84200
C7 C 0.4084(2) 0.7136(3) 0.84056(7)
H6 H 0.39890 0.75210 0.86590
H7 H 0.47490 0.75400 0.82600
H8 H 0.43050 0.62890 0.84410
C8 C 0.1830(2) 0.6417(2) 0.83394(6)
H9 H 0.16160 0.66610 0.86030
H10 H 0.21220 0.55820 0.83410
H11 H 0.10880 0.64850 0.81740
C9 C 0.55919(19) 0.6946(2) 0.69189(6)
H12 H 0.57960 0.62040 0.67750
H13 H 0.57870 0.76400 0.67510
C10 C 0.63791(19) 0.70079(19) 0.72803(6)
C11 C 0.8504(2) 0.6609(2) 0.75203(6)
C12 C 0.9650(2) 0.6142(2) 0.73085(7)
H14 H 1.03650 0.61190 0.74860
H15 H 0.98430 0.66730 0.70910
H16 H 0.94810 0.53310 0.72120
C13 C 0.8113(2) 0.5768(3) 0.78401(7)
H17 H 0.87990 0.56870 0.80270
H18 H 0.79150 0.49790 0.77310
H19 H 0.73710 0.60910 0.79710
C14 C 0.8729(2) 0.7887(2) 0.76538(8)
H20 H 0.88260 0.84110 0.74280
H21 H 0.94930 0.79180 0.78110
H22 H 0.80150 0.81590 0.78090
C15 C 0.34233(19) 0.76927(19) 0.63252(6)
C16 C 0.2893(2) 0.7291(2) 0.59795(6)
H23 H 0.24230 0.65670 0.59760
C17 C 0.3047(2) 0.7938(2) 0.56410(6)
H24 H 0.26900 0.76560 0.54060
C18 C 0.3723(2) 0.9000(2) 0.56457(7)
H25 H 0.38380 0.94430 0.54140
C19 C 0.4232(2) 0.9416(2) 0.59880(7)
H26 H 0.46900 1.01470 0.59900
C20 C 0.4081(2) 0.8778(2) 0.63280(6)
H27 H 0.44230 0.90770 0.65630
O7 O 0.02752(16) 0.35121(15) 0.47160(4)
H28 H -0.034(3) 0.345(3) 0.4850(8)
O8 O 0.10179(15) 0.52629(13) 0.50069(4)
O9 O 0.03065(16) 0.27776(16) 0.54437(5)
O10 O 0.21153(14) 0.37622(13) 0.55698(4)
O11 O 0.27551(15) 0.14851(13) 0.49376(4)
O12 O 0.20236(15) 0.09276(13) 0.43498(4)
N2 N 0.17032(18) 0.59050(17) 0.47170(5)
C21 C 0.1214(2) 0.39922(19) 0.49472(6)
C22 C 0.2468(2) 0.39323(18) 0.47308(6)
H29 H 0.31690 0.38400 0.49200
C23 C 0.2489(2) 0.51839(18) 0.45619(6)
C24 C 0.1161(2) 0.34253(19) 0.53530(6)
C25 C 0.2202(2) 0.3351(2) 0.59799(6)
C26 C 0.3429(2) 0.3891(2) 0.61106(7)
H30 H 0.34100 0.47620 0.60700
H31 H 0.41170 0.35410 0.59610
H32 H 0.35550 0.37220 0.63860
C27 C 0.2267(4) 0.1988(2) 0.59881(8)
H33 H 0.25260 0.17210 0.62460
H34 H 0.28760 0.17100 0.57960
H35 H 0.14400 0.16550 0.59280
C28 C 0.1103(3) 0.3859(3) 0.62052(7)
H36 H 0.12140 0.36870 0.64810
H37 H 0.03240 0.34890 0.61140
H38 H 0.10610 0.47300 0.61660
C29 C 0.2539(2) 0.29401(18) 0.44292(6)
H39 H 0.18450 0.30420 0.42420
H40 H 0.33380 0.30110 0.42860
C30 C 0.2456(2) 0.17110(19) 0.46076(6)
C31 C 0.1867(2) -0.03698(19) 0.44460(7)
C32 C 0.1298(2) -0.0855(2) 0.40747(8)
H41 H 0.10840 -0.17040 0.41090
H42 H 0.19040 -0.07740 0.38640
H43 H 0.05390 -0.04000 0.40120
C33 C 0.0967(3) -0.0510(2) 0.47821(9)
H44 H 0.07710 -0.13620 0.48180
H45 H 0.01940 -0.00660 0.47280
H46 H 0.13550 -0.01930 0.50180
C34 C 0.3137(2) -0.0927(2) 0.45202(7)
H47 H 0.36730 -0.08110 0.42930
H48 H 0.30370 -0.17870 0.45700
H49 H 0.35240 -0.05420 0.47450
C35 C 0.3304(2) 0.55970(18) 0.42425(6)
C36 C 0.2815(2) 0.63419(19) 0.39552(6)
H50 H 0.19510 0.65450 0.39580
C37 C 0.3587(2) 0.6787(2) 0.36657(6)
H51 H 0.32510 0.73010 0.34730
C38 C 0.4846(2) 0.6482(2) 0.36574(7)
H52 H 0.53770 0.68010 0.34620
C39 C 0.5329(2) 0.5710(2) 0.39348(7)
H53 H 0.61870 0.54860 0.39260
C40 C 0.4564(2) 0.5266(2) 0.42244(6)
H54 H 0.48990 0.47320 0.44120
#END
