
#######################################################################
#
#                 Cambridge Crystallographic Data Centre
#                                CCDC
#
#######################################################################
#
# If this CIF has been generated from an entry in the Cambridge
# Structural Database, then it will include bibliographic, chemical,
# crystal, experimental, refinement or atomic coordinate data resulting
# from the CCDC's data processing and validation procedures.
#
#######################################################################

data_CSD_CIF_XEBRIG
_audit_creation_date 2006-06-06
_audit_creation_method CSD-ConQuest-V1
_database_code_CSD XEBRIG
_database_code_depnum_ccdc_archive 'CCDC 268508'
_chemical_formula_sum 'C21 H22 N4 O3'
_chemical_formula_moiety
;
C21 H22 N4 O3
;
_journal_coden_Cambridge 1291
_journal_year 2006
_journal_page_first 782
_journal_name_full 'Eur.J.Org.Chem. '
loop_
_publ_author_name
"V.A.Ozeryanskii"
"A.F.Pozharskii"
"W.Schilf"
"B.Kamienski"
"W.Sawka-Dobrowolska"
"L.Sobczyk"
"E.Grech"
_chemical_name_systematic
;
1-N-(5'-Nitro-2'-hydroxybenzylideneamino)-4,5-bis(dimethylaminonaphthalene)
;
_chemical_melting_point 433.15
_cell_volume    910.432
_exptl_crystal_colour 'dark red'
_exptl_crystal_density_diffrn 1.38
_exptl_special_details
;
Melting point range 433.15-434.15K

;
_exptl_crystal_description 'needles'
_diffrn_ambient_temperature 100
#These two values have been output from a single CSD field.
_refine_ls_R_factor_gt 0.0445
_refine_ls_wR_factor_gt 0.0445
_symmetry_cell_setting triclinic
_symmetry_space_group_name_H-M 'P -1'
_symmetry_Int_Tables_number 2
loop_
_symmetry_equiv_pos_site_id
_symmetry_equiv_pos_as_xyz
1 x,y,z
2 -x,-y,-z
_cell_length_a 6.6200(13)
_cell_length_b 8.8200(18)
_cell_length_c 16.100(3)
_cell_angle_alpha 90.91(3)
_cell_angle_beta 95.12(3)
_cell_angle_gamma 103.33(3)
_cell_formula_units_Z 2
loop_
_atom_type_symbol
_atom_type_radius_bond
C 0.68
H 0.23
N 0.68
O 0.68
loop_
_atom_site_label
_atom_site_type_symbol
_atom_site_fract_x
_atom_site_fract_y
_atom_site_fract_z
O1 O 0.3605(3) 0.33008(17) -0.07260(9)
O2 O 1.0213(3) 0.07689(18) -0.24602(9)
O3 O 1.0756(3) -0.00482(17) -0.12134(9)
N1 N 0.2017(3) 0.2393(2) 0.40242(10)
N2 N 0.0362(3) 0.5012(2) 0.36103(11)
N3 N 0.4564(3) 0.26386(18) 0.07737(10)
H1 H 0.375(6) 0.310(5) 0.021(3)
N4 N 0.9805(3) 0.06251(19) -0.17251(11)
C1 C 0.2802(3) 0.2639(2) 0.32411(12)
C2 C 0.4426(4) 0.1995(2) 0.30407(12)
H2 H 0.51030 0.14920 0.34610
C3 C 0.5102(4) 0.2062(2) 0.22427(13)
H3 H 0.62830 0.16720 0.21380
C4 C 0.4075(3) 0.2685(2) 0.16108(12)
C5 C 0.1282(3) 0.3985(2) 0.11266(12)
H4 H 0.15800 0.38650 0.05660
C6 C -0.0248(4) 0.4704(2) 0.12915(13)
H5 H -0.10970 0.49980 0.08440
C7 C -0.0585(4) 0.5019(2) 0.21167(13)
H6 H -0.16030 0.55840 0.22210
C8 C 0.0534(3) 0.4523(2) 0.27821(13)
C9 C 0.1919(3) 0.3532(2) 0.26220(12)
C10 C 0.2436(3) 0.3412(2) 0.17785(12)
C11 C -0.0205(4) 0.1673(2) 0.39981(13)
H7 H -0.07300 0.19250 0.45210
H8 H -0.04250 0.05390 0.39270
H9 H -0.09550 0.20690 0.35290
C12 C 0.3204(4) 0.1687(3) 0.46477(13)
H10 H 0.26150 0.17040 0.51840
H11 H 0.46620 0.22760 0.47080
H12 H 0.31360 0.06070 0.44710
C13 C -0.1315(4) 0.5778(3) 0.37277(15)
H13 H -0.13990 0.59430 0.43260
H14 H -0.26370 0.51220 0.34760
H15 H -0.10410 0.67860 0.34600
C14 C 0.2308(4) 0.5860(2) 0.40693(13)
H16 H 0.21510 0.58460 0.46690
H17 H 0.26410 0.69410 0.38940
H18 H 0.34360 0.53610 0.39530
C15 C 0.6308(3) 0.1988(2) -0.03579(12)
C16 C 0.4999(4) 0.2643(2) -0.09558(13)
C17 C 0.5357(4) 0.2516(2) -0.18165(13)
H19 H 0.44990 0.28970 -0.22280
C18 C 0.6884(4) 0.1867(2) -0.20572(12)
H20 H 0.70980 0.18050 -0.26310
C19 C 0.8157(3) 0.1283(2) -0.14549(12)
C20 C 0.7863(3) 0.1329(2) -0.06249(12)
H21 H 0.87230 0.09110 -0.02310
C21 C 0.5983(4) 0.2001(2) 0.05025(13)
H22 H 0.685(4) 0.149(3) 0.0907(15)
#END
