
#######################################################################
#
#                 Cambridge Crystallographic Data Centre
#                                CCDC
#
#######################################################################
#
# If this CIF has been generated from an entry in the Cambridge
# Structural Database, then it will include bibliographic, chemical,
# crystal, experimental, refinement or atomic coordinate data resulting
# from the CCDC's data processing and validation procedures.
#
#######################################################################

data_CSD_CIF_XECYEK
_audit_creation_date 2006-06-06
_audit_creation_method CSD-ConQuest-V1
_database_code_CSD XECYEK
_database_code_depnum_ccdc_archive 'CCDC 261143'
_chemical_formula_sum 'C24 H22 N4 O3'
_chemical_formula_moiety
;
C24 H22 N4 O3
;
_journal_coden_Cambridge 35
_journal_volume 71
_journal_year 2006
_journal_page_first 744
_journal_name_full 'J.Org.Chem. '
loop_
_publ_author_name
"M.Tomasulo"
"S.Sortino"
"A.J.P.White"
"F.M.Raymo"
_chemical_name_systematic
;
2-(4'-Nitrophenylazo)-5a,6,6-trimethyl-5a,6-dihydro-12H-indolo(2,1-b)(1,3)benz
o-oxazine
;
_cell_volume   4187.944
_exptl_crystal_colour 'orange'
_exptl_crystal_density_diffrn 1.315
_exptl_crystal_description 'platy needles'
_diffrn_ambient_temperature 203
#These two values have been output from a single CSD field.
_refine_ls_R_factor_gt 0.0639
_refine_ls_wR_factor_gt 0.0639
_symmetry_cell_setting monoclinic
_symmetry_space_group_name_H-M 'P 21/c'
_symmetry_Int_Tables_number 14
loop_
_symmetry_equiv_pos_site_id
_symmetry_equiv_pos_as_xyz
1 x,y,z
2 -x,1/2+y,1/2-z
3 -x,-y,-z
4 x,-1/2-y,-1/2+z
_cell_length_a 22.661(4)
_cell_length_b 14.4660(18)
_cell_length_c 13.077(6)
_cell_angle_alpha 90
_cell_angle_beta 102.33(3)
_cell_angle_gamma 90
_cell_formula_units_Z 8
loop_
_atom_type_symbol
_atom_type_radius_bond
C 0.68
H 0.23
N 0.68
O 0.68
loop_
_atom_site_label
_atom_site_type_symbol
_atom_site_fract_x
_atom_site_fract_y
_atom_site_fract_z
N1 N 0.27273(12) 0.30928(19) 0.6400(2)
C1 C 0.31905(15) 0.3505(2) 0.5984(3)
C2 C 0.31585(18) 0.4231(2) 0.5277(3)
H1 H 0.27870 0.45020 0.49670
C3 C 0.3699(2) 0.4543(3) 0.5044(3)
H2 H 0.36910 0.50400 0.45780
C4 C 0.42455(19) 0.4136(3) 0.5485(3)
H3 H 0.46020 0.43490 0.53050
C5 C 0.42735(16) 0.3410(2) 0.6196(3)
H4 H 0.46460 0.31380 0.65000
C6 C 0.37456(16) 0.3096(2) 0.6450(3)
C7 C 0.36477(15) 0.2389(2) 0.7243(3)
C8 C 0.29546(15) 0.2209(2) 0.6835(3)
O1 O 0.29277(10) 0.15198(15) 0.59864(18)
C9 C 0.24464(15) 0.1565(2) 0.5154(3)
C10 C 0.24154(15) 0.0867(2) 0.4408(3)
H5 H 0.27190 0.04150 0.44840
C11 C 0.19380(16) 0.0846(3) 0.3563(3)
H6 H 0.19200 0.03860 0.30490
C12 C 0.14764(15) 0.1508(2) 0.3461(3)
C13 C 0.15207(15) 0.2221(2) 0.4191(3)
H7 H 0.12140 0.26700 0.41140
C14 C 0.20104(15) 0.2275(2) 0.5027(3)
C15 C 0.21009(15) 0.3071(3) 0.5792(3)
H8 H 0.20080 0.36540 0.54100
H9 H 0.18240 0.30060 0.62690
C16 C 0.37556(17) 0.2845(3) 0.8333(3)
H10 H 0.41840 0.29570 0.85840
H11 H 0.36110 0.24380 0.88160
H12 H 0.35390 0.34270 0.82850
C17 C 0.40334(16) 0.1522(3) 0.7284(3)
H13 H 0.44550 0.16800 0.75400
H14 H 0.39790 0.12590 0.65880
H15 H 0.39110 0.10740 0.77510
C18 C 0.26109(17) 0.1818(3) 0.7607(3)
H16 H 0.21900 0.17390 0.72660
H17 H 0.26400 0.22410 0.81920
H18 H 0.27820 0.12250 0.78600
N2 N 0.09960(13) 0.1382(2) 0.2581(2)
N3 N 0.05213(13) 0.1826(2) 0.2589(2)
C19 C 0.00589(15) 0.1638(2) 0.1671(3)
C20 C 0.01884(16) 0.1378(3) 0.0724(3)
H19 H 0.05920 0.13450 0.06530
C21 C -0.02761(17) 0.1166(3) -0.0121(3)
H20 H -0.01940 0.10070 -0.07740
C22 C -0.08656(16) 0.1193(2) 0.0022(3)
C23 C -0.10038(17) 0.1466(3) 0.0952(3)
H21 H -0.14070 0.14910 0.10260
C24 C -0.05335(16) 0.1704(3) 0.1779(3)
H22 H -0.06180 0.19100 0.24140
N4 N -0.13471(15) 0.0904(2) -0.0851(3)
O2 O -0.12353(14) 0.0837(2) -0.1721(2)
O3 O -0.18461(13) 0.0734(3) -0.0674(3)
N5 N 0.30675(12) 0.8259(2) 0.4373(2)
C25 C 0.34990(16) 0.8715(2) 0.3913(3)
C26 C 0.34184(18) 0.9345(2) 0.3099(3)
H23 H 0.30300 0.95210 0.27430
C27 C 0.3929(2) 0.9709(3) 0.2826(3)
H24 H 0.38830 1.01380 0.22740
C28 C 0.4506(2) 0.9458(3) 0.3343(4)
H25 H 0.48440 0.97180 0.31420
C29 C 0.45853(17) 0.8820(3) 0.4159(3)
H26 H 0.49760 0.86500 0.45150
C30 C 0.40842(16) 0.8442(2) 0.4438(3)
C31 C 0.40291(16) 0.7756(3) 0.5294(3)
C32 C 0.33647(16) 0.7442(2) 0.4882(3)
O4 O 0.33978(10) 0.67326(16) 0.40765(19)
C33 C 0.29052(14) 0.6625(2) 0.3275(3)
C34 C 0.29110(17) 0.5871(2) 0.2626(3)
H27 H 0.32430 0.54660 0.27490
C35 C 0.24336(17) 0.5709(3) 0.1802(3)
H28 H 0.24450 0.52080 0.13490
C36 C 0.19282(16) 0.6296(2) 0.1641(3)
C37 C 0.19269(15) 0.7065(2) 0.2280(3)
H29 H 0.15910 0.74630 0.21620
C38 C 0.24198(15) 0.7252(2) 0.3096(3)
C39 C 0.24514(16) 0.8113(3) 0.3766(3)
H30 H 0.23240 0.86500 0.33170
H31 H 0.21740 0.80490 0.42440
C40 C 0.4101(2) 0.8267(4) 0.6341(3)
H32 H 0.45180 0.84550 0.65800
H33 H 0.39860 0.78600 0.68550
H34 H 0.38430 0.88090 0.62490
C41 C 0.44769(17) 0.6958(3) 0.5399(3)
H35 H 0.48830 0.71890 0.56600
H36 H 0.44530 0.66720 0.47210
H37 H 0.43800 0.65040 0.58840
C42 C 0.30443(19) 0.7010(3) 0.5671(3)
H38 H 0.26360 0.68410 0.53260
H39 H 0.30300 0.74500 0.62250
H40 H 0.32620 0.64610 0.59680
N6 N 0.14532(14) 0.6050(2) 0.0782(2)
N7 N 0.09521(14) 0.6427(2) 0.0779(2)
C43 C 0.05001(16) 0.6180(2) -0.0123(3)
C44 C 0.06354(16) 0.5842(3) -0.1048(3)
H41 H 0.10400 0.57390 -0.10860
C45 C 0.01787(16) 0.5657(3) -0.1904(3)
H42 H 0.02670 0.54310 -0.25290
C46 C -0.04148(15) 0.5813(2) -0.1822(3)
C47 C -0.05649(16) 0.6116(3) -0.0904(3)
H43 H -0.09710 0.61850 -0.08600
C48 C -0.01022(17) 0.6315(3) -0.0054(3)
H44 H -0.01930 0.65400 0.05700
N8 N -0.08949(14) 0.5666(2) -0.2753(3)
O5 O -0.07586(13) 0.5648(2) -0.3610(2)
O6 O -0.14140(12) 0.5593(3) -0.2644(3)
#END
