
#######################################################################
#
#                 Cambridge Crystallographic Data Centre
#                                CCDC
#
#######################################################################
#
# If this CIF has been generated from an entry in the Cambridge
# Structural Database, then it will include bibliographic, chemical,
# crystal, experimental, refinement or atomic coordinate data resulting
# from the CCDC's data processing and validation procedures.
#
#######################################################################

data_CSD_CIF_XEDMIF
_audit_creation_date 2017-07-21
_audit_creation_method CSD-ConQuest-V1
_database_code_CSD XEDMIF
_database_code_depnum_ccdc_archive 'CCDC 1527955'
_chemical_formula_sum 'C29 H22 N2 O3'
_chemical_formula_moiety
;
C29 H22 N2 O3
;
_journal_coden_Cambridge 177
_journal_volume 15
_journal_year 2017
_journal_page_first 6328
_journal_name_full 'Org.Biomol.Chem. '
loop_
_publ_author_name
"Yulei Zhao"
"Yang Yuan"
"Murong Xu"
"Zhong Zheng"
"Runhua Zhang"
"Yanzhong Li"
_chemical_name_systematic
;
(7-methyl-1,3-diphenyl-5H-pyrrolo[1,2-a]azepin-8-yl)(4-nitrophenyl)methanone
;
_cell_volume   2260.882
_exptl_crystal_colour 'red'
_exptl_crystal_density_diffrn 1.312
_exptl_crystal_description 'block'
_diffrn_ambient_temperature 296
#These two values have been output from a single CSD field.
_refine_ls_R_factor_gt 0.0724
_refine_ls_wR_factor_gt 0.0724
_symmetry_cell_setting triclinic
_symmetry_space_group_name_H-M 'P -1'
_symmetry_Int_Tables_number 2
loop_
_symmetry_equiv_pos_site_id
_symmetry_equiv_pos_as_xyz
1 x,y,z
2 -x,-y,-z
_cell_length_a 10.396(3)
_cell_length_b 12.966(4)
_cell_length_c 16.944(5)
_cell_angle_alpha 81.864(6)
_cell_angle_beta 89.495(5)
_cell_angle_gamma 89.905(5)
_cell_formula_units_Z 4
loop_
_atom_type_symbol
_atom_type_radius_bond
C 0.68
H 0.23
N 0.68
O 0.68
loop_
_atom_site_label
_atom_site_type_symbol
_atom_site_fract_x
_atom_site_fract_y
_atom_site_fract_z
O1 O 0.9860(2) 1.0242(2) 0.65668(19)
O2 O 0.8924(5) 0.4985(3) 0.7754(4)
O3 O 0.7955(7) 0.4932(4) 0.6671(4)
N1 N 0.5026(3) 1.1574(2) 0.61596(18)
N2 N 0.8495(5) 0.5397(4) 0.7129(4)
C1 C 0.6023(3) 1.2250(3) 0.6408(3)
H1 H 0.63140 1.19720 0.69380
H2 H 0.56690 1.29390 0.64290
C2 C 0.7143(4) 1.2329(3) 0.5835(3)
H3 H 0.73060 1.29690 0.55270
C3 C 0.7909(3) 1.1537(3) 0.5744(2)
C4 C 0.7694(3) 1.0478(3) 0.6183(2)
C5 C 0.6509(3) 1.0070(3) 0.6354(2)
H4 H 0.65140 0.93810 0.65990
C6 C 0.5261(3) 1.0503(3) 0.6227(2)
C7 C 0.4077(3) 1.0000(3) 0.6194(2)
C8 C 0.3139(3) 1.0781(3) 0.6106(2)
H5 H 0.22600 1.06690 0.60690
C9 C 0.3721(3) 1.1755(3) 0.6082(2)
C10 C 0.3088(3) 1.2764(3) 0.5953(2)
C11 C 0.3675(4) 1.3650(3) 0.5569(3)
H6 H 0.45350 1.36220 0.54160
C12 C 0.3012(5) 1.4583(4) 0.5405(3)
H7 H 0.34260 1.51740 0.51490
C13 C 0.1738(5) 1.4631(4) 0.5625(3)
H8 H 0.12830 1.52520 0.55100
C14 C 0.1152(5) 1.3769(4) 0.6009(3)
H9 H 0.02930 1.38040 0.61590
C15 C 0.1809(4) 1.2838(4) 0.6182(2)
H10 H 0.13920 1.22580 0.64530
C16 C 0.8998(4) 1.1664(4) 0.5139(3)
H11 H 0.89480 1.23410 0.48270
H12 H 0.89300 1.11390 0.47950
H13 H 0.98060 1.15930 0.54110
C17 C 0.8828(3) 0.9844(3) 0.6445(2)
C18 C 0.8725(3) 0.8675(3) 0.6608(2)
C19 C 0.8186(4) 0.8094(3) 0.6073(3)
H14 H 0.78510 0.84340 0.55990
C20 C 0.8132(4) 0.7030(4) 0.6223(3)
H15 H 0.77910 0.66490 0.58500
C21 C 0.8591(4) 0.6535(3) 0.6939(3)
C22 C 0.9160(4) 0.7079(4) 0.7485(3)
H16 H 0.94820 0.67330 0.79600
C23 C 0.9241(4) 0.8151(3) 0.7309(2)
H17 H 0.96460 0.85280 0.76640
C24 C 0.3863(3) 0.8873(3) 0.6281(2)
C25 C 0.2799(4) 0.8450(3) 0.6713(3)
H18 H 0.22140 0.88910 0.69140
C26 C 0.2596(4) 0.7390(4) 0.6848(3)
H19 H 0.18770 0.71220 0.71360
C27 C 0.3453(5) 0.6730(4) 0.6558(3)
H20 H 0.33260 0.60130 0.66560
C28 C 0.4500(5) 0.7134(4) 0.6121(3)
H21 H 0.50820 0.66870 0.59220
C29 C 0.4700(4) 0.8201(3) 0.5974(2)
H22 H 0.54020 0.84650 0.56670
O4 O 0.5093(2) 1.0234(2) 0.8310(2)
O5 O 0.6149(5) 0.4904(3) 0.8653(4)
O6 O 0.6478(4) 0.4985(3) 0.9913(4)
N3 N 0.9967(3) 1.1407(2) 0.83833(18)
N4 N 0.6281(4) 0.5373(4) 0.9220(4)
C30 C 0.9004(3) 1.2067(3) 0.7929(2)
H23 H 0.86870 1.17190 0.74990
H24 H 0.93990 1.27180 0.76960
C31 C 0.7905(3) 1.2287(3) 0.8457(2)
H25 H 0.77820 1.29640 0.85630
C32 C 0.7098(3) 1.1546(3) 0.8779(2)
C33 C 0.7249(3) 1.0446(3) 0.8661(2)
C34 C 0.8413(3) 0.9968(3) 0.8636(2)
H26 H 0.83700 0.92580 0.86060
C35 C 0.9684(3) 1.0370(3) 0.8647(2)
C36 C 1.0829(3) 0.9842(3) 0.8847(2)
C37 C 1.1810(3) 1.0585(3) 0.8701(2)
H27 H 1.26820 1.04530 0.87820
C38 C 1.1284(3) 1.1544(3) 0.8416(2)
C39 C 1.1946(3) 1.2544(3) 0.8259(2)
C40 C 1.3247(4) 1.2552(3) 0.8048(2)
H28 H 1.36540 1.19340 0.79740
C41 C 1.3929(4) 1.3467(4) 0.7951(3)
H29 H 1.48040 1.34550 0.78340
C42 C 1.3348(5) 1.4392(4) 0.8022(3)
H30 H 1.38190 1.50080 0.79510
C43 C 1.2051(5) 1.4404(3) 0.8200(3)
H31 H 1.16440 1.50360 0.82320
C44 C 1.1351(4) 1.3495(3) 0.8331(3)
H32 H 1.04830 1.35130 0.84680
C45 C 0.6043(4) 1.1789(4) 0.9342(3)
H33 H 0.61230 1.24980 0.94380
H34 H 0.61140 1.13310 0.98360
H35 H 0.52220 1.16930 0.91080
C46 C 0.6098(3) 0.9826(3) 0.8564(2)
C47 C 0.6140(3) 0.8655(3) 0.8758(2)
C48 C 0.5677(3) 0.8059(3) 0.8205(2)
H36 H 0.53220 0.83860 0.77330
C49 C 0.5739(4) 0.6992(4) 0.8345(3)
H37 H 0.54750 0.65940 0.79600
C50 C 0.6197(4) 0.6522(3) 0.9065(3)
C51 C 0.6598(4) 0.7088(4) 0.9647(3)
H38 H 0.68670 0.67560 1.01400
C52 C 0.6590(3) 0.8152(3) 0.9480(2)
H39 H 0.68920 0.85450 0.98580
C53 C 1.0976(3) 0.8723(3) 0.9112(2)
C54 C 1.0060(4) 0.8140(3) 0.9584(2)
H40 H 0.93630 0.84770 0.97820
C55 C 1.0168(4) 0.7075(4) 0.9764(3)
H41 H 0.95260 0.66980 1.00620
C56 C 1.1212(5) 0.6567(4) 0.9507(3)
H42 H 1.12840 0.58480 0.96330
C57 C 1.2147(4) 0.7125(4) 0.9065(3)
H43 H 1.28660 0.67820 0.89000
C58 C 1.2041(4) 0.8188(3) 0.8859(2)
H44 H 1.26810 0.85530 0.85510
#END
