
#######################################################################
#
#                 Cambridge Crystallographic Data Centre
#                                CCDC
#
#######################################################################
#
# If this CIF has been generated from an entry in the Cambridge
# Structural Database, then it will include bibliographic, chemical,
# crystal, experimental, refinement or atomic coordinate data resulting
# from the CCDC's data processing and validation procedures.
#
#######################################################################

data_CSD_CIF_XEDSOP
_audit_creation_date 2006-06-06
_audit_creation_method CSD-ConQuest-V1
_database_code_CSD XEDSOP
_database_code_depnum_ccdc_archive 'CCDC 278524'
_database_code_depnum_ccdc_journal 1135/225
_chemical_formula_sum 'C15 H16 N4 O5'
_chemical_formula_moiety
;
C15 H16 N4 O5
;
_journal_coden_Cambridge 1135
_journal_year 2006
_journal_page_first 52
_journal_name_full 'Mendeleev Commun. '
loop_
_publ_author_name
"K.A.Krasnov"
"V.G.Kartsev"
"V.N.Khrustalev"
_chemical_name_systematic
;
1,3-dimethyl-5-(2-dimethylamino-4-nitrobenzylidene)barbituric acid
;
_chemical_melting_point 506.15
_cell_volume    750.531
_exptl_crystal_colour 'orange'
_exptl_crystal_density_diffrn 1.47
_exptl_special_details
;
Melting point range 506.15-507.15K

;
_exptl_crystal_description 'plate'
_diffrn_ambient_temperature 120
#These two values have been output from a single CSD field.
_refine_ls_R_factor_gt 0.0484
_refine_ls_wR_factor_gt 0.0484
_symmetry_cell_setting triclinic
_symmetry_space_group_name_H-M 'P -1'
_symmetry_Int_Tables_number 2
loop_
_symmetry_equiv_pos_site_id
_symmetry_equiv_pos_as_xyz
1 x,y,z
2 -x,-y,-z
_cell_length_a 8.208(5)
_cell_length_b 8.741(5)
_cell_length_c 11.540(7)
_cell_angle_alpha 102.827(11)
_cell_angle_beta 102.443(11)
_cell_angle_gamma 104.09(1)
_cell_formula_units_Z 2
loop_
_atom_type_symbol
_atom_type_radius_bond
C 0.68
H 0.23
N 0.68
O 0.68
loop_
_atom_site_label
_atom_site_type_symbol
_atom_site_fract_x
_atom_site_fract_y
_atom_site_fract_z
N1 N 0.13260(19) 0.59422(17) 0.90203(13)
C1 C 0.0537(2) 0.6994(2) 0.96023(16)
O1 O 0.13955(17) 0.81455(16) 1.05102(12)
N2 N -0.12612(19) 0.66566(17) 0.91358(13)
C2 C -0.2314(2) 0.5401(2) 0.80884(16)
O2 O -0.38644(18) 0.52651(17) 0.76887(13)
C3 C -0.1473(2) 0.4223(2) 0.75347(16)
C4 C 0.0436(2) 0.4561(2) 0.80011(16)
O3 O 0.12699(17) 0.37341(16) 0.75523(13)
C5 C 0.3239(3) 0.6381(3) 0.9494(2)
C6 C -0.2031(3) 0.7828(3) 0.9758(2)
C7 C -0.2519(2) 0.2968(2) 0.65288(16)
C8 C -0.2212(2) 0.1503(2) 0.58541(16)
C9 C -0.3037(2) 0.0777(2) 0.45472(16)
N3 N -0.3821(2) 0.16107(19) 0.38390(14)
C10 C -0.3008(2) -0.0825(2) 0.40102(17)
C11 C -0.2182(3) -0.1660(2) 0.46893(18)
C12 C -0.1337(2) -0.0909(2) 0.59475(16)
N4 N -0.0406(2) -0.17551(18) 0.66733(15)
O4 O 0.0486(2) -0.10066(17) 0.77499(13)
O5 O -0.0522(2) -0.31926(16) 0.61834(14)
C13 C -0.1349(2) 0.0642(2) 0.65209(17)
C14 C -0.4865(3) 0.0760(3) 0.25555(19)
C15 C -0.3221(3) 0.3404(3) 0.4100(2)
H1 H 0.370(3) 0.756(3) 0.963(2)
H2 H 0.371(3) 0.578(3) 0.888(2)
H3 H 0.365(3) 0.630(3) 1.035(2)
H4 H -0.327(4) 0.753(3) 0.937(2)
H5 H -0.164(3) 0.887(3) 0.960(2)
H6 H -0.172(3) 0.797(3) 1.065(2)
H7 H -0.370(2) 0.3047(19) 0.6214(14)
H8 H -0.347(3) -0.129(3) 0.315(2)
H9 H -0.212(2) -0.267(2) 0.4320(17)
H10 H -0.085(2) 0.107(2) 0.7391(17)
H11 H -0.561(3) 0.146(3) 0.227(2)
H12 H -0.564(3) -0.033(3) 0.248(2)
H13 H -0.412(3) 0.060(3) 0.197(2)
H14 H -0.218(3) 0.388(2) 0.4806(19)
H15 H -0.413(4) 0.389(3) 0.426(2)
H16 H -0.289(3) 0.368(3) 0.340(2)
#END
