
#######################################################################
#
#                 Cambridge Crystallographic Data Centre
#                                CCDC
#
#######################################################################
#
# If this CIF has been generated from an entry in the Cambridge
# Structural Database, then it will include bibliographic, chemical,
# crystal, experimental, refinement or atomic coordinate data resulting
# from the CCDC's data processing and validation procedures.
#
#######################################################################

data_CSD_CIF_XEDTAC
_audit_creation_date 2006-06-06
_audit_creation_method CSD-ConQuest-V1
_database_code_CSD XEDTAC
_database_code_depnum_ccdc_archive 'CCDC 295880'
_chemical_formula_sum 'C12 H17 N5 O3'
_chemical_formula_moiety
;
C12 H17 N5 O3
;
_journal_coden_Cambridge 1135
_journal_year 2006
_journal_page_first 26
_journal_name_full 'Mendeleev Commun. '
loop_
_publ_author_name
"G.L.Rusinov"
"P.A.Slepukhin"
"V.N.Charushin"
"O.A.Dyachenko"
"O.N.Kazheva"
"A.N.Chekhlov"
"E.V.Verbitsky"
"M.I.Kodess"
"O.N.Chupakhin"
_chemical_name_systematic
;
(5R*,6R*,10R*)-2,3-dicyano-1-ethyl-5-(1-nitro-n-propyl)-6-methoxy-1,4,5,6-tetr
ahydropyrazine
;
_chemical_melting_point 426.15
_cell_volume    748.413
_exptl_crystal_colour 'yellow'
_exptl_crystal_density_diffrn 1.239
_exptl_special_details
;
Melting point range 426.15-428.15K

;
_exptl_crystal_preparation 'methanol'
_diffrn_ambient_temperature 293
#These two values have been output from a single CSD field.
_refine_ls_R_factor_gt 0.039
_refine_ls_wR_factor_gt 0.039
loop_
_citation_database_id_CSD
_citation_special_details
REBPEU "is a stereoisomer of this entry"
_symmetry_cell_setting triclinic
_symmetry_space_group_name_H-M 'P -1'
_symmetry_Int_Tables_number 2
loop_
_symmetry_equiv_pos_site_id
_symmetry_equiv_pos_as_xyz
1 x,y,z
2 -x,-y,-z
_cell_length_a 8.710(4)
_cell_length_b 9.209(2)
_cell_length_c 10.336(4)
_cell_angle_alpha 65.25(2)
_cell_angle_beta 88.53(3)
_cell_angle_gamma 83.86(3)
_cell_formula_units_Z 2
loop_
_atom_type_symbol
_atom_type_radius_bond
C 0.68
H 0.23
N 0.68
O 0.68
loop_
_atom_site_label
_atom_site_type_symbol
_atom_site_fract_x
_atom_site_fract_y
_atom_site_fract_z
O1 O -0.00718(10) 0.32105(11) 0.73164(9)
O2 O -0.0373(2) 0.7800(3) 0.7698(2)
O3 O 0.1515(3) 0.6724(3) 0.9165(2)
N1 N 0.24697(12) 0.31744(13) 0.81286(10)
N2 N 0.57469(16) 0.11401(18) 0.74435(17)
N3 N 0.42310(16) 0.39296(17) 0.34843(14)
N4 N 0.17267(12) 0.54124(12) 0.53504(11)
N5 N 0.0928(2) 0.71431(19) 0.80026(18)
C1 C 0.46582(15) 0.20207(16) 0.72419(14)
C2 C 0.33151(13) 0.31471(13) 0.69915(12)
C3 C 0.29015(13) 0.41958(13) 0.56292(12)
C4 C 0.36496(14) 0.40468(15) 0.44460(13)
C5 C 0.09987(14) 0.56563(14) 0.65149(13)
C6 C 0.09515(14) 0.40100(15) 0.77864(13)
C7 C 0.3045(2) 0.2261(2) 0.96063(14)
C8 C 0.4236(4) 0.3065(4) 1.0017(3)
C9 C -0.0370(2) 0.1665(2) 0.83500(19)
C10 C 0.18341(16) 0.68331(16) 0.68859(15)
C11 C 0.1968(2) 0.84146(18) 0.56091(19)
C12 C 0.2725(4) 0.9626(3) 0.5946(3)
H1 H 0.1303(18) 0.5820(18) 0.4559(18)
H2 H -0.0058(17) 0.6156(16) 0.6213(15)
H3 H 0.0525(15) 0.4134(16) 0.8601(16)
H4 H 0.346(2) 0.115(2) 0.975(2)
H5 H 0.217(2) 0.210(2) 1.020(2)
H6 H 0.458(4) 0.245(4) 1.092(4)
H7 H 0.379(3) 0.419(4) 0.984(3)
H8 H 0.513(5) 0.326(5) 0.940(4)
H9 H -0.105(2) 0.117(2) 0.795(2)
H10 H -0.081(2) 0.173(3) 0.921(3)
H11 H 0.064(3) 0.087(3) 0.866(3)
H12 H 0.2827(17) 0.6335(17) 0.7315(15)
H13 H 0.095(2) 0.884(2) 0.520(2)
H14 H 0.258(2) 0.815(2) 0.492(2)
H15 H 0.278(3) 1.054(4) 0.510(3)
H16 H 0.377(3) 0.922(3) 0.634(3)
H17 H 0.205(3) 0.991(3) 0.661(3)
#END
