
#######################################################################
#
#                 Cambridge Crystallographic Data Centre
#                                CCDC
#
#######################################################################
#
# If this CIF has been generated from an entry in the Cambridge
# Structural Database, then it will include bibliographic, chemical,
# crystal, experimental, refinement or atomic coordinate data resulting
# from the CCDC's data processing and validation procedures.
#
#######################################################################

data_CSD_CIF_XEFCUG
_audit_creation_date 2001-02-28
_audit_creation_method CSD-ConQuest-V1
_database_code_CSD XEFCUG
_database_code_depnum_ccdc_archive 'CCDC 154430'
_chemical_formula_sum 'C19 H13 N1 O1'
_chemical_formula_moiety
;
C19 H13 N1 O1
;
_journal_coden_Cambridge 1037
_journal_volume 1
_journal_year 2000
_journal_page_first 684-5
_journal_name_full 'ARKIVOC '
loop_
_publ_author_name
"P.W.Groundwater"
"M.Nyerges"
"I.Fejes"
"D.E.Hibbs"
"D.Bendell"
"R.J.Anderson"
"A.McKillop"
"T.Sharif"
"Weimin Zhang"
_chemical_name_systematic
;
2,6-Diphenylbenzonitrile oxide
;
_chemical_melting_point 440.15
_cell_volume   1390.399
_exptl_crystal_colour 'white'
_exptl_crystal_density_diffrn 1.296
_exptl_special_details
;
Melting point range 440.15-442.15K

;
_diffrn_ambient_temperature 150
#These two values have been output from a single CSD field.
_refine_ls_R_factor_gt 0.0451
_refine_ls_wR_factor_gt 0.0451
_symmetry_cell_setting monoclinic
_symmetry_space_group_name_H-M 'P 21/m'
_symmetry_Int_Tables_number 11
loop_
_symmetry_equiv_pos_site_id
_symmetry_equiv_pos_as_xyz
1 x,y,z
2 -x,1/2+y,-z
3 -x,-y,-z
4 x,-1/2-y,z
_cell_length_a 9.839(2)
_cell_length_b 14.195(3)
_cell_length_c 10.0298(10)
_cell_angle_alpha 90
_cell_angle_beta 96.989
_cell_angle_gamma 90
_cell_formula_units_Z 4
loop_
_atom_type_symbol
_atom_type_radius_bond
C 0.68
H 0.23
N 0.68
O 0.68
loop_
_atom_site_label
_atom_site_type_symbol
_atom_site_fract_x
_atom_site_fract_y
_atom_site_fract_z
O1 O 0.4826(2) 0.25000 1.0020(2)
N1 N 0.3846(2) 0.25000 0.9133(2)
C1 C 0.2944(2) 0.25000 0.8304(2)
C2 C 0.1858(2) 0.25000 0.7207(2)
C3 C 0.1314(1) 0.1632(1) 0.6697(1)
C4 C 0.0212(2) 0.1655(1) 0.5679(1)
C5 C -0.0334(2) 0.25000 0.5170(2)
C6 C 0.1854(2) 0.0709(1) 0.7211(1)
C7 C 0.3260(2) 0.0504(1) 0.7357(1)
C8 C 0.3725(2) -0.0380(1) 0.7773(2)
C9 C 0.2809(2) -0.1072(1) 0.8055(2)
C10 C 0.1423(2) -0.0877(1) 0.7920(2)
C11 C 0.0949(2) 0.0008(1) 0.7504(2)
O2 O 1.0031(2) 0.25000 0.9827(2)
N2 N 0.9061(2) 0.25000 0.8929(2)
C12 C 0.8138(2) 0.25000 0.8114(2)
C13 C 0.7065(2) 0.25000 0.7012(2)
C14 C 0.6585(1) 0.1632(1) 0.6442(1)
C15 C 0.5682(1) 0.1657(1) 0.5259(1)
C16 C 0.5254(2) 0.25000 0.4657(2)
C17 C 0.7007(1) 0.0710(1) 0.7054(1)
C18 C 0.7095(2) 0.0564(1) 0.8436(2)
C19 C 0.7445(2) -0.0313(1) 0.8980(2)
C20 C 0.7695(2) -0.1061(1) 0.8151(2)
C21 C 0.7591(2) -0.0928(1) 0.6783(2)
C22 C 0.7257(1) -0.0052(1) 0.6234(2)
H1 H -0.01630 0.10910 0.53340
H2 H -0.10650 0.25000 0.44890
H3 H 0.38820 0.09650 0.71730
H4 H 0.46580 -0.05110 0.78650
H5 H 0.31250 -0.16660 0.83350
H6 H 0.08060 -0.13400 0.81090
H7 H 0.00150 0.01340 0.74190
H8 H 0.53590 0.10940 0.48660
H9 H 0.46800 0.25000 0.38490
H10 H 0.69180 0.10590 0.89980
H11 H 0.75120 -0.04010 0.99040
H12 H 0.79320 -0.16490 0.85190
H13 H 0.77460 -0.14290 0.62250
H14 H 0.71980 0.00310 0.53090
C4C C 0.0212(2) 0.3345(1) 0.5679(1)
C3C C 0.1314(1) 0.3368(1) 0.6697(1)
C6C C 0.1854(2) 0.4291(1) 0.7211(1)
C7C C 0.3260(2) 0.4496(1) 0.7357(1)
C8C C 0.3725(2) 0.5380(1) 0.7773(2)
C9C C 0.2809(2) 0.6072(1) 0.8055(2)
C10C C 0.1423(2) 0.5877(1) 0.7920(2)
C11C C 0.0949(2) 0.4992(1) 0.7504(2)
H7C H 0.00150 0.48660 0.74190
H6C H 0.08060 0.63400 0.81090
H5C H 0.31250 0.66660 0.83350
H4C H 0.46580 0.55110 0.78650
H3C H 0.38820 0.40350 0.71730
H1C H -0.01630 0.39090 0.53340
C15C C 0.5682(1) 0.3343(1) 0.5259(1)
C14C C 0.6585(1) 0.3368(1) 0.6442(1)
C17C C 0.7007(1) 0.4290(1) 0.7054(1)
C18C C 0.7095(2) 0.4436(1) 0.8436(2)
C19C C 0.7445(2) 0.5313(1) 0.8980(2)
C20C C 0.7695(2) 0.6061(1) 0.8151(2)
C21C C 0.7591(2) 0.5928(1) 0.6783(2)
C22C C 0.7257(1) 0.5052(1) 0.6234(2)
H14C H 0.71980 0.49690 0.53090
H13C H 0.77460 0.64290 0.62250
H12C H 0.79320 0.66490 0.85190
H11C H 0.75120 0.54010 0.99040
H10C H 0.69180 0.39410 0.89980
H8C H 0.53590 0.39060 0.48660
#END
