
#######################################################################
#
#                 Cambridge Crystallographic Data Centre
#                                CCDC
#
#######################################################################
#
# If this CIF has been generated from an entry in the Cambridge
# Structural Database, then it will include bibliographic, chemical,
# crystal, experimental, refinement or atomic coordinate data resulting
# from the CCDC's data processing and validation procedures.
#
#######################################################################

data_CSD_CIF_XEFJUQ
_audit_creation_date 2017-07-21
_audit_creation_method CSD-ConQuest-V1
_database_code_CSD XEFJUQ
_database_code_depnum_ccdc_archive 'CCDC 1563847'
_chemical_formula_sum 'C17 H19 N1 O2'
_chemical_formula_moiety
;
C17 H19 N1 O2
;
_journal_coden_Cambridge 1078
_journal_year 2017
_journal_name_full 'CSD Communication(Private Communication) '
loop_
_publ_author_name
"D.D.Dolliver"
"F.R.Fronczek"
_chemical_name_systematic
;
N-(1-phenylbutoxy)benzamide
;
_cell_volume   1486.272
_exptl_crystal_colour 'colorless'
_exptl_crystal_density_diffrn 1.204
_exptl_crystal_description 'lath'
_diffrn_ambient_temperature 90
#These two values have been output from a single CSD field.
_refine_ls_R_factor_gt 0.0666
_refine_ls_wR_factor_gt 0.0666
_symmetry_cell_setting monoclinic
_symmetry_space_group_name_H-M 'P 21'
_symmetry_Int_Tables_number 4
loop_
_symmetry_equiv_pos_site_id
_symmetry_equiv_pos_as_xyz
1 x,y,z
2 -x,1/2+y,-z
_cell_length_a 7.790(6)
_cell_length_b 21.277(18)
_cell_length_c 9.157(6)
_cell_angle_alpha 90
_cell_angle_beta 101.69(5)
_cell_angle_gamma 90
_cell_formula_units_Z 4
loop_
_atom_type_symbol
_atom_type_radius_bond
C 0.68
H 0.23
N 0.68
O 0.68
loop_
_atom_site_label
_atom_site_type_symbol
_atom_site_fract_x
_atom_site_fract_y
_atom_site_fract_z
O1 O 0.5871(9) 0.5675(3) 0.7202(6)
O2 O 0.5025(9) 0.4676(3) 0.8597(8)
N1 N 0.5410(12) 0.5123(4) 0.6451(9)
H1 H 0.533(12) 0.510(5) 0.547(3)
C1 C 0.7812(13) 0.5717(5) 0.7721(11)
H2 H 0.82580 0.53030 0.81560
C2 C 0.8135(13) 0.6213(5) 0.8957(10)
H3 H 0.74460 0.60970 0.97140
H4 H 0.93890 0.61980 0.94490
C3 C 0.7685(13) 0.6879(4) 0.8479(10)
H5 H 0.65020 0.68910 0.78310
H6 H 0.85340 0.70350 0.78910
C4 C 0.7724(14) 0.7308(5) 0.9826(11)
H7 H 0.74540 0.77400 0.94830
H8 H 0.88920 0.72950 1.04710
H9 H 0.68500 0.71650 1.03850
C5 C 0.8622(14) 0.5852(4) 0.6388(11)
C6 C 0.7818(13) 0.6209(4) 0.521(1)
H10 H 0.66870 0.63760 0.52090
C7 C 0.8597(14) 0.6332(4) 0.4029(10)
H11 H 0.79830 0.65690 0.32070
C8 C 1.0258(15) 0.6117(5) 0.4020(12)
H12 H 1.07940 0.62100 0.32010
C9 C 1.1156(15) 0.5763(5) 0.5216(12)
H13 H 1.23080 0.56140 0.52260
C10 C 1.0328(13) 0.5631(5) 0.6395(10)
H14 H 1.09230 0.53890 0.72150
C11 C 0.4856(13) 0.4646(6) 0.7212(12)
C12 C 0.4119(12) 0.4074(5) 0.6363(10)
C13 C 0.3599(13) 0.4060(5) 0.4811(10)
H15 H 0.37260 0.44220 0.42340
C14 C 0.2910(14) 0.3523(5) 0.4141(10)
H16 H 0.25720 0.35090 0.30840
C15 C 0.2694(13) 0.3001(5) 0.4960(11)
H17 H 0.22130 0.26290 0.44690
C16 C 0.3171(14) 0.3014(5) 0.6495(13)
H18 H 0.30140 0.26530 0.70630
C17 C 0.3876(13) 0.3554(5) 0.7199(10)
H19 H 0.41940 0.35690 0.82560
O3 O 0.5910(9) 0.4577(3) 0.2181(7)
O4 O 0.4435(8) 0.5514(3) 0.3447(7)
N2 N 0.5492(12) 0.5159(4) 0.1461(8)
H20 H 0.514(12) 0.504(4) 0.052(4)
C18 C 0.7670(14) 0.4570(5) 0.3021(11)
H21 H 0.77680 0.49280 0.37420
C19 C 0.9147(16) 0.4662(6) 0.2137(13)
H22 H 0.90010 0.50810 0.16590
H23 H 1.02850 0.46620 0.28540
C20 C 0.9226(18) 0.4204(6) 0.1014(12)
H24 H 0.81250 0.42110 0.02510
H25 H 0.93630 0.37790 0.14640
C21 C 1.0848(15) 0.4356(6) 0.0255(12)
H26 H 1.09020 0.40440 -0.05220
H27 H 1.19350 0.43410 0.10110
H28 H 1.07040 0.47760 -0.01920
C22 C 0.7874(13) 0.3980(5) 0.3934(11)
C23 C 0.8737(13) 0.3956(5) 0.5379(12)
H29 H 0.92460 0.43280 0.58510
C24 C 0.8891(15) 0.3389(6) 0.6189(13)
H30 H 0.95030 0.33800 0.71980
C25 C 0.8147(18) 0.2849(6) 0.5508(15)
H31 H 0.82670 0.24650 0.60490
C26 C 0.7270(15) 0.2858(6) 0.4115(14)
H32 H 0.67570 0.24840 0.36570
C27 C 0.7101(14) 0.3423(5) 0.3315(11)
H33 H 0.64400 0.34280 0.23220
C28 C 0.4609(12) 0.5573(5) 0.2134(11)
C29 C 0.3940(12) 0.6126(5) 0.1223(11)
C30 C 0.3510(12) 0.6122(5) -0.0304(11)
H34 H 0.36490 0.57460 -0.08290
C31 C 0.2870(13) 0.6663(6) -0.1099(12)
H35 H 0.25930 0.66530 -0.21580
C32 C 0.2641(13) 0.7208(5) -0.0354(12)
H36 H 0.21630 0.75700 -0.08950
C33 C 0.3109(14) 0.7228(5) 0.1187(11)
H37 H 0.30220 0.76090 0.17110
C34 C 0.3712(13) 0.6678(5) 0.1958(11)
H38 H 0.39740 0.66840 0.30170
#END
