
#######################################################################
#
#                 Cambridge Crystallographic Data Centre
#                                CCDC
#
#######################################################################
#
# If this CIF has been generated from an entry in the Cambridge
# Structural Database, then it will include bibliographic, chemical,
# crystal, experimental, refinement or atomic coordinate data resulting
# from the CCDC's data processing and validation procedures.
#
#######################################################################

data_CSD_CIF_XEFPOQ
_audit_creation_date 2017-07-22
_audit_creation_method CSD-ConQuest-V1
_database_code_CSD XEFPOQ
_database_code_depnum_ccdc_archive 'CCDC 1537015'
_chemical_formula_sum 'C42 H42 N4 O4'
_chemical_formula_moiety
;
C42 H42 N4 O4
;
_journal_coden_Cambridge 917
_journal_volume 13
_journal_year 2017
_journal_page_first 1396
_journal_name_full 'Beilstein J.Org.Chem. '
loop_
_publ_author_name
"R.Irgashev"
"N.Kazin"
"G.Rusinov"
"V.Charushin"
_chemical_name_systematic
;
5,11-dihexyl-2,8-dinitro-6,12-diphenyl-5,11-dihydroindolo[3,2-b]carbazole
;
_cell_volume   1752.289
_exptl_crystal_colour 'orange'
_exptl_crystal_density_diffrn 1.264
_exptl_crystal_description 'prism'
_diffrn_ambient_temperature 295
#These two values have been output from a single CSD field.
_refine_ls_R_factor_gt 0.0508
_refine_ls_wR_factor_gt 0.0508
_symmetry_cell_setting monoclinic
_symmetry_space_group_name_H-M 'P 21/c'
_symmetry_Int_Tables_number 14
loop_
_symmetry_equiv_pos_site_id
_symmetry_equiv_pos_as_xyz
1 x,y,z
2 -x,1/2+y,1/2-z
3 -x,-y,-z
4 x,-1/2-y,-1/2+z
_cell_length_a 14.8902(6)
_cell_length_b 7.4148(4)
_cell_length_c 15.9282(6)
_cell_angle_alpha 90
_cell_angle_beta 94.855(3)
_cell_angle_gamma 90
_cell_formula_units_Z 2
loop_
_atom_type_symbol
_atom_type_radius_bond
C 0.68
H 0.23
N 0.68
O 0.68
loop_
_atom_site_label
_atom_site_type_symbol
_atom_site_fract_x
_atom_site_fract_y
_atom_site_fract_z
N1 N 0.37458(8) 0.48162(17) 0.36151(7)
C1 C 0.27660(9) 0.4718(2) 0.34961(9)
H1 H 0.25460 0.40830 0.39700
H2 H 0.25950 0.40230 0.29920
C2 C 0.58523(10) 0.5173(2) 0.26973(9)
O1 O 0.70235(9) 0.56602(17) 0.15082(8)
C3 C 0.52144(9) 0.50368(19) 0.41763(8)
N2 N 0.62511(10) 0.52338(19) 0.12519(8)
C4 C 0.59310(9) 0.51361(19) 0.47978(8)
C5 C 0.4280(1) 0.49263(19) 0.29533(9)
C6 C 0.68704(9) 0.5227(2) 0.45353(9)
C7 C 0.42991(9) 0.48978(18) 0.43714(8)
C8 C 0.51945(9) 0.50543(18) 0.32673(8)
C9 C 0.55689(11) 0.5133(2) 0.18488(9)
C10 C 0.40124(11) 0.4913(2) 0.20903(10)
C11 C 0.23162(9) 0.6549(2) 0.34166(10)
H3 H 0.25080 0.71610 0.29240
H4 H 0.25080 0.72700 0.39080
C12 C 0.46691(12) 0.4993(2) 0.15402(10)
C13 C 0.73107(10) 0.3656(3) 0.43468(10)
H5 H 0.70330 0.25460 0.44090
C14 C 0.72922(10) 0.6867(3) 0.44323(10)
H6 H 0.70030 0.79360 0.45530
O2 O 0.60436(11) 0.4859(2) 0.05133(8)
C15 C 0.12968(11) 0.6405(3) 0.33391(14)
H7 H 0.11070 0.58210 0.38390
H8 H 0.11090 0.56480 0.28590
C16 C 0.08831(13) 0.9367(3) 0.40006(14)
H9 H 0.15110 0.94980 0.42080
H10 H 0.05750 0.87600 0.44330
C17 C 0.85787(13) 0.5347(4) 0.39669(15)
H11 H 0.91520 0.53860 0.37770
C18 C 0.81656(12) 0.3729(4) 0.40653(13)
H12 H 0.84600 0.26670 0.39430
C19 C 0.81492(13) 0.6913(4) 0.41483(12)
H13 H 0.84330 0.80150 0.40810
C20 C 0.08241(12) 0.8232(3) 0.32305(13)
H14 H 0.10860 0.88910 0.27850
H15 H 0.01930 0.80270 0.30510
C21 C 0.04746(17) 1.1219(4) 0.38498(17)
H16 H 0.07870 1.18400 0.34330
H17 H 0.05280 1.18930 0.43660
H18 H -0.01500 1.11000 0.36540
H19 H 0.6477(11) 0.530(2) 0.2892(11)
H20 H 0.3322(12) 0.484(2) 0.1902(11)
H21 H 0.4504(13) 0.498(2) 0.0979(14)
N1B N 0.62542(8) 0.51838(17) 0.63849(7)
C1B C 0.72340(9) 0.5282(2) 0.65039(9)
H1B H 0.74540 0.59170 0.60300
H2B H 0.74050 0.59770 0.70080
C2B C 0.41477(10) 0.4827(2) 0.73027(9)
O1B O 0.29765(9) 0.43398(17) 0.84918(8)
C3B C 0.47856(9) 0.49632(19) 0.58237(8)
N2B N 0.37489(10) 0.47662(19) 0.87481(8)
C4B C 0.40690(9) 0.48639(19) 0.52022(8)
C5B C 0.5720(1) 0.50737(19) 0.70467(9)
C6B C 0.31296(9) 0.4773(2) 0.54647(9)
C7B C 0.57009(9) 0.51022(18) 0.56286(8)
C8B C 0.48055(9) 0.49457(18) 0.67327(8)
C9B C 0.44311(11) 0.4867(2) 0.81512(9)
C10B C 0.59876(11) 0.5087(2) 0.79097(10)
C11B C 0.76838(9) 0.3451(2) 0.65834(10)
H3B H 0.74920 0.28390 0.70760
H4B H 0.74920 0.27300 0.60920
C12B C 0.53309(12) 0.5007(2) 0.84598(10)
C13B C 0.26893(10) 0.6344(3) 0.56532(10)
H5B H 0.29670 0.74540 0.55910
C14B C 0.27078(10) 0.3133(3) 0.55677(10)
H6B H 0.29970 0.20640 0.54470
O2B O 0.39564(11) 0.5141(2) 0.94867(8)
C15B C 0.87032(11) 0.3595(3) 0.66609(14)
H7B H 0.88930 0.41790 0.61610
H8B H 0.88910 0.43520 0.71410
C16B C 0.91169(13) 0.0633(3) 0.59994(14)
H9B H 0.84890 0.05020 0.57920
H10B H 0.94250 0.12400 0.55670
C17B C 0.14213(13) 0.4653(4) 0.60331(15)
H11B H 0.08480 0.46140 0.62230
C18B C 0.18344(12) 0.6271(4) 0.59347(13)
H12B H 0.15400 0.73330 0.60570
C19B C 0.18508(13) 0.3087(4) 0.58517(12)
H13B H 0.15670 0.19850 0.59190
C20B C 0.91759(12) 0.1768(3) 0.67695(13)
H14B H 0.89140 0.11090 0.72150
H15B H 0.98070 0.19730 0.69490
C21B C 0.95254(17) -0.1219(4) 0.61502(17)
H16B H 0.92130 -0.18400 0.65670
H17B H 0.94720 -0.18930 0.56340
H18B H 1.01500 -0.11000 0.63460
H19B H 0.3523(11) 0.470(2) 0.7108(11)
H20B H 0.6678(12) 0.516(2) 0.8098(11)
H21B H 0.5496(13) 0.502(2) 0.9021(14)
#END
