
#######################################################################
#
#                 Cambridge Crystallographic Data Centre
#                                CCDC
#
#######################################################################
#
# If this CIF has been generated from an entry in the Cambridge
# Structural Database, then it will include bibliographic, chemical,
# crystal, experimental, refinement or atomic coordinate data resulting
# from the CCDC's data processing and validation procedures.
#
#######################################################################

data_CSD_CIF_XEFPUW
_audit_creation_date 2017-07-22
_audit_creation_method CSD-ConQuest-V1
_database_code_CSD XEFPUW
_database_code_depnum_ccdc_archive 'CCDC 1537016'
_chemical_formula_sum 'C22 H18 N4 O4'
_chemical_formula_moiety
;
C22 H18 N4 O4
;
_journal_coden_Cambridge 917
_journal_volume 13
_journal_year 2017
_journal_page_first 1396
_journal_name_full 'Beilstein J.Org.Chem. '
loop_
_publ_author_name
"R.Irgashev"
"N.Kazin"
"G.Rusinov"
"V.Charushin"
_chemical_name_systematic
;
5,11-diethyl-6,12-dinitro-5,11-dihydroindolo[3,2-b]carbazole
;
_cell_volume    940.495
_exptl_crystal_colour 'red'
_exptl_crystal_density_diffrn 1.421
_exptl_crystal_description 'block'
_diffrn_ambient_temperature 293
#These two values have been output from a single CSD field.
_refine_ls_R_factor_gt 0.0679
_refine_ls_wR_factor_gt 0.0679
_symmetry_cell_setting monoclinic
_symmetry_space_group_name_H-M 'P 21/n'
_symmetry_Int_Tables_number 14
loop_
_symmetry_equiv_pos_site_id
_symmetry_equiv_pos_as_xyz
1 x,y,z
2 1/2-x,1/2+y,1/2-z
3 -x,-y,-z
4 -1/2+x,-1/2-y,-1/2+z
_cell_length_a 10.0099(16)
_cell_length_b 7.2367(8)
_cell_length_c 13.2682(12)
_cell_angle_alpha 90
_cell_angle_beta 101.894(12)
_cell_angle_gamma 90
_cell_formula_units_Z 2
loop_
_atom_type_symbol
_atom_type_radius_bond
C 0.68
H 0.23
N 0.68
O 0.68
loop_
_atom_site_label
_atom_site_type_symbol
_atom_site_fract_x
_atom_site_fract_y
_atom_site_fract_z
C1 C 0.9205(2) -0.0123(3) 0.57417(16)
N1 N 0.8219(2) 0.2948(3) 0.50207(15)
C2 C 1.0153(2) -0.1510(3) 0.56766(15)
C3 C 0.9041(2) 0.1386(3) 0.50885(16)
N2 N 0.8388(2) -0.0363(3) 0.65421(18)
C4 C 1.0507(2) -0.3226(3) 0.62265(16)
C5 C 0.8484(2) 0.4054(3) 0.42261(17)
C6 C 1.0071(3) -0.4125(4) 0.70324(18)
H1 H 0.94060 -0.36010 0.73400
C7 C 0.7236(2) 0.3407(4) 0.56551(19)
H2 H 0.72040 0.47380 0.57320
H3 H 0.75390 0.28760 0.63350
C8 C 0.5805(3) 0.2697(5) 0.5194(3)
H4 H 0.54580 0.33240 0.45560
H5 H 0.52140 0.29280 0.56660
H6 H 0.58410 0.13930 0.50700
C9 C 0.8370(3) 0.6615(4) 0.3099(2)
H7 H 0.80120 0.77600 0.28670
C10 C 0.7916(3) 0.5759(4) 0.3894(2)
H8 H 0.72540 0.63010 0.41960
C11 C 1.0647(3) -0.5804(4) 0.7363(2)
H9 H 1.03730 -0.64080 0.79050
O1 O 0.7279(2) -0.1105(4) 0.6294(2)
O2 O 0.8895(3) 0.0127(3) 0.74159(15)
C1B C 1.0795(2) 0.0123(3) 0.42583(16)
N1B N 1.1781(2) -0.2948(3) 0.49793(15)
C2B C 0.9847(2) 0.1510(3) 0.43234(15)
C3B C 1.0959(2) -0.1386(3) 0.49115(16)
N2B N 1.1612(2) 0.0363(3) 0.34579(18)
C4B C 0.9493(2) 0.3226(3) 0.37735(16)
C5B C 1.1516(2) -0.4054(3) 0.57739(17)
C6B C 0.9929(3) 0.4125(4) 0.29676(18)
H1B H 1.05940 0.36010 0.26600
C7B C 1.2764(2) -0.3407(4) 0.43449(19)
H2B H 1.27960 -0.47380 0.42680
H3B H 1.24610 -0.28760 0.36650
C8B C 1.4195(3) -0.2697(5) 0.4806(3)
H4B H 1.45420 -0.33240 0.54440
H5B H 1.47860 -0.29280 0.43340
H6B H 1.41590 -0.13930 0.49300
C9B C 1.1630(3) -0.6615(4) 0.6901(2)
H7B H 1.19880 -0.77600 0.71330
C10B C 1.2084(3) -0.5759(4) 0.6106(2)
H8B H 1.27460 -0.63010 0.58040
C11B C 0.9353(3) 0.5804(4) 0.2637(2)
H9B H 0.96270 0.64080 0.20950
O1B O 1.2721(2) 0.1105(4) 0.3706(2)
O2B O 1.1105(3) -0.0127(3) 0.25841(15)
#END
