
#######################################################################
#
#                 Cambridge Crystallographic Data Centre
#                                CCDC
#
#######################################################################
#
# If this CIF has been generated from an entry in the Cambridge
# Structural Database, then it will include bibliographic, chemical,
# crystal, experimental, refinement or atomic coordinate data resulting
# from the CCDC's data processing and validation procedures.
#
#######################################################################

data_CSD_CIF_XEFQEH
_audit_creation_date 2017-07-22
_audit_creation_method CSD-ConQuest-V1
_database_code_CSD XEFQEH
_database_code_depnum_ccdc_archive 'CCDC 1537018'
_chemical_formula_sum 'C23 H18 N4 O5'
_chemical_formula_moiety
;
C23 H18 N4 O5
;
_journal_coden_Cambridge 917
_journal_volume 13
_journal_year 2017
_journal_page_first 1396
_journal_name_full 'Beilstein J.Org.Chem. '
loop_
_publ_author_name
"R.Irgashev"
"N.Kazin"
"G.Rusinov"
"V.Charushin"
_chemical_name_systematic
;
5,11-diethyl-6,12-dinitro-5,11-dihydroindolo[3,2-b]carbazole-2-carbaldehyde
;
_cell_volume   1934.431
_exptl_crystal_colour 'red'
_exptl_crystal_density_diffrn 1.478
_exptl_crystal_description 'plate'
_diffrn_ambient_temperature 295
#These two values have been output from a single CSD field.
_refine_ls_R_factor_gt 0.0582
_refine_ls_wR_factor_gt 0.0582
_symmetry_cell_setting monoclinic
_symmetry_space_group_name_H-M 'P 21/c'
_symmetry_Int_Tables_number 14
loop_
_symmetry_equiv_pos_site_id
_symmetry_equiv_pos_as_xyz
1 x,y,z
2 -x,1/2+y,1/2-z
3 -x,-y,-z
4 x,-1/2-y,-1/2+z
_cell_length_a 16.122(8)
_cell_length_b 6.715(4)
_cell_length_c 18.426(13)
_cell_angle_alpha 90
_cell_angle_beta 104.13(5)
_cell_angle_gamma 90
_cell_formula_units_Z 4
loop_
_atom_type_symbol
_atom_type_radius_bond
C 0.68
H 0.23
N 0.68
O 0.68
loop_
_atom_site_label
_atom_site_type_symbol
_atom_site_fract_x
_atom_site_fract_y
_atom_site_fract_z
N1 N 0.1567(2) 0.7766(5) 0.41087(18)
N2 N 0.2378(3) 0.4244(6) 0.5100(2)
C1 C 0.1553(3) 0.8118(6) 0.2871(2)
N3 N 0.3232(2) 0.1645(5) 0.30264(18)
C2 C 0.2403(3) 0.4528(6) 0.4321(2)
C3 C 0.1993(3) 0.6149(6) 0.3918(2)
C4 C 0.3291(3) 0.1325(6) 0.4273(2)
C5 C 0.2829(3) 0.3271(6) 0.3230(2)
C6 C 0.2835(3) 0.3132(6) 0.4005(2)
N4 N 0.2412(3) 0.5166(6) 0.2035(2)
C7 C 0.2000(3) 0.6295(6) 0.3143(2)
C8 C 0.4024(3) -0.1313(7) 0.5020(2)
C9 C 0.3553(3) 0.0430(7) 0.4955(2)
C10 C 0.1359(3) 0.9070(8) 0.2186(2)
O1 O 0.1749(3) 0.4839(7) 0.15709(18)
C11 C 0.4241(3) -0.2157(7) 0.4396(3)
C12 C 0.3987(3) -0.1283(7) 0.3706(2)
C13 C 0.1311(3) 0.8955(7) 0.3472(2)
C14 C 0.2416(3) 0.4874(7) 0.2833(2)
C15 C 0.3391(3) 0.1184(6) 0.2305(2)
H1 H 0.29510 0.18030 0.19160
H2 H 0.33510 -0.02450 0.22280
C16 C 0.3533(3) 0.0475(7) 0.3659(2)
C17 C 0.0852(3) 1.0751(7) 0.3416(3)
H3 H 0.06780 1.12910 0.38190
O2 O 0.4828(3) -0.3598(5) 0.5900(2)
C18 C 0.0917(3) 1.0854(8) 0.2117(3)
H4 H 0.07820 1.15140 0.16590
O3 O 0.2965(3) 0.4764(8) 0.55837(17)
O4 O 0.3053(3) 0.5835(6) 0.18970(19)
C19 C 0.1432(3) 0.8261(7) 0.4836(2)
H5 H 0.14650 0.96940 0.49010
H6 H 0.18860 0.76720 0.52210
C20 C 0.0589(3) 0.7549(8) 0.4936(3)
H7 H 0.05440 0.78530 0.54340
H8 H 0.05450 0.61350 0.48580
H9 H 0.01350 0.82020 0.45810
O5 O 0.1768(3) 0.3491(6) 0.5229(2)
C21 C 0.0675(3) 1.1662(7) 0.2725(3)
H10 H 0.03810 1.28660 0.26650
C22 C 0.4351(4) -0.2138(8) 0.5763(3)
C23 C 0.4260(3) 0.1889(8) 0.2232(2)
H11 H 0.43310 0.15500 0.17440
H12 H 0.47000 0.12560 0.26070
H13 H 0.43000 0.33070 0.22970
H14 H 0.3425(18) 0.090(4) 0.5372(16)
H15 H 0.412(2) -0.196(5) 0.3224(17)
H16 H 0.151(2) 0.862(6) 0.175(2)
H17 H 0.444(2) -0.325(5) 0.448(2)
H18 H 0.416(3) -0.137(6) 0.632(2)
#END
