
#######################################################################
#
#                 Cambridge Crystallographic Data Centre
#                                CCDC
#
#######################################################################
#
# If this CIF has been generated from an entry in the Cambridge
# Structural Database, then it will include bibliographic, chemical,
# crystal, experimental, refinement or atomic coordinate data resulting
# from the CCDC's data processing and validation procedures.
#
#######################################################################

data_CSD_CIF_XEGDOD
_audit_creation_date 2006-06-06
_audit_creation_method CSD-ConQuest-V1
_database_code_CSD XEGDOD
_database_code_depnum_ccdc_archive 'CCDC 602035'
_chemical_formula_sum 'C16 H19 N1 O5'
_chemical_formula_moiety
;
C16 H19 N1 O5
;
_journal_coden_Cambridge 1336
_journal_volume 7
_journal_year 2005
_journal_page_first 5689
_journal_name_full 'Org.Lett. '
loop_
_publ_author_name
"K.Minami"
"Y.Kawamura"
"K.Koga"
"T.Hosokawa"
_chemical_name_systematic
;
(Z)-(R*,R*)-4-(4-Nitrobenzylidene)-2-(tetrahydro-2H-pyran-2-yloxy)tetrahydrofu
ran
;
_chemical_melting_point 365.15
_cell_volume   3058.883
_exptl_crystal_colour 'pale yellow'
_exptl_crystal_density_diffrn 1.326
_exptl_special_details
;
Melting point range 365.15-366.15K

;
_exptl_crystal_description 'rectangular'
_exptl_crystal_preparation 'diethyl ether/hexane'
_diffrn_ambient_temperature 298.2
#These two values have been output from a single CSD field.
_refine_ls_R_factor_gt 0.0523
_refine_ls_wR_factor_gt 0.0523
_symmetry_cell_setting monoclinic
_symmetry_space_group_name_H-M 'C 2/c'
_symmetry_Int_Tables_number 15
loop_
_symmetry_equiv_pos_site_id
_symmetry_equiv_pos_as_xyz
1 x,y,z
2 1/2+x,1/2+y,z
3 -x,y,1/2-z
4 1/2-x,1/2+y,1/2-z
5 -x,-y,-z
6 -1/2-x,-1/2-y,-z
7 x,-y,-1/2+z
8 -1/2+x,-1/2-y,-1/2+z
_cell_length_a 19.238(4)
_cell_length_b 12.755(3)
_cell_length_c 15.148(3)
_cell_angle_alpha 90
_cell_angle_beta 124.62(1)
_cell_angle_gamma 90
_cell_formula_units_Z 8
loop_
_atom_type_symbol
_atom_type_radius_bond
C 0.68
H 0.23
N 0.68
O 0.68
loop_
_atom_site_label
_atom_site_type_symbol
_atom_site_fract_x
_atom_site_fract_y
_atom_site_fract_z
O1 O 0.5013(3) 0.8420(3) 0.1224(4)
O2 O 0.6239(3) 0.8177(3) 0.1566(4)
O3 O 0.6824(2) 0.1562(2) 0.2181(2)
O4 O 0.6412(2) 0.1065(2) 0.3312(2)
O5 O 0.7465(2) -0.0225(3) 0.4049(2)
N1 N 0.5575(4) 0.7838(4) 0.1399(4)
C1 C 0.5268(3) 0.4544(4) 0.1369(4)
C2 C 0.4616(3) 0.5226(4) 0.1115(4)
C3 C 0.4711(3) 0.6298(4) 0.1129(4)
C4 C 0.5460(3) 0.6712(4) 0.1394(4)
C5 C 0.6127(3) 0.6059(4) 0.1656(4)
C6 C 0.6031(3) 0.4986(4) 0.1640(4)
C7 C 0.5117(3) 0.3423(4) 0.1330(4)
C8 C 0.6246(3) 0.0970(4) 0.2271(3)
C9 C 0.5397(3) 0.1482(4) 0.1490(4)
C10 C 0.5627(3) 0.2612(4) 0.1556(3)
C11 C 0.6549(3) 0.2631(4) 0.1976(4)
C12 C 0.7247(3) 0.0789(4) 0.4164(4)
C13 C 0.7306(3) 0.0946(4) 0.5195(3)
C14 C 0.6860(3) 0.0079(4) 0.5375(3)
C15 C 0.7132(3) -0.0979(4) 0.5227(4)
C16 C 0.6999(3) -0.1030(4) 0.4149(4)
H1 H 0.40410 0.48930 0.09270
H2 H 0.42070 0.67720 0.09280
H3 H 0.66710 0.63680 0.18490
H4 H 0.65130 0.44960 0.18190
H5 H 0.45070 0.32430 0.10490
H6 H 0.62600 0.02050 0.20800
H7 H 0.51000 0.12030 0.07560
H8 H 0.50020 0.13550 0.16960
H9 H 0.68860 0.31150 0.26130
H10 H 0.66410 0.30010 0.14490
H11 H 0.76750 0.13160 0.42020
H12 H 0.78990 0.09940 0.58350
H13 H 0.70620 0.16250 0.51920
H14 H 0.69870 0.01270 0.60860
H15 H 0.62760 0.01540 0.48680
H16 H 0.77250 -0.10980 0.57950
H17 H 0.68220 -0.15270 0.53100
H18 H 0.64090 -0.09840 0.36070
H19 H 0.71830 -0.17210 0.40730
#END
