
#######################################################################
#
#                 Cambridge Crystallographic Data Centre
#                                CCDC
#
#######################################################################
#
# If this CIF has been generated from an entry in the Cambridge
# Structural Database, then it will include bibliographic, chemical,
# crystal, experimental, refinement or atomic coordinate data resulting
# from the CCDC's data processing and validation procedures.
#
#######################################################################

data_CSD_CIF_XEGVIO
_audit_creation_date 2001-02-28
_audit_creation_method CSD-ConQuest-V1
_database_code_CSD XEGVIO
_database_code_depnum_ccdc_archive 'CCDC 156211'
_chemical_formula_sum 'C23 H33 N1 O3'
_chemical_formula_moiety
;
C23 H33 N1 O3
;
_journal_coeditor_code "IUCr QA0437"
_journal_data_validation_number IUC0000306
_journal_coden_Cambridge 591
_journal_volume 56
_journal_year 2000
_journal_page_first e582
_journal_name_full 'Acta Crystallogr.,Sect.C:Cryst.Struct.Commun. '
loop_
_publ_author_name
"H.Novoa de Armas"
"O.M.Peeters"
"N.M.Blaton"
"C.J.De Ranter"
"J.A.Ruiz Garcia"
"M.Reyes Moreno"
"Y.M.Alvarez Ginarte"
_chemical_name_systematic
;
20-Hydroxyimino-5\a-pregna-9(11),16-dien-3\b-yl acetate
;
_chemical_name_common
;
5alpha-9(11)(16)-Pregnadien-3beta-ol-20-oxime acetate
;
_chemical_melting_point 536
_cell_volume   2080.707
_exptl_crystal_colour 'colorless'
_exptl_crystal_density_diffrn 1.186
_exptl_special_details
;
Melting point range 536-538K

;
_exptl_crystal_description 'block'
_diffrn_ambient_temperature ?
_diffrn_special_details
;
The study was carried out at room temperature,in the range 283-303K

;
#These two values have been output from a single CSD field.
_refine_ls_R_factor_gt 0.0389
_refine_ls_wR_factor_gt 0.0389
_symmetry_cell_setting orthorhombic
_symmetry_space_group_name_H-M 'P 21 21 21'
_symmetry_Int_Tables_number 19
loop_
_symmetry_equiv_pos_site_id
_symmetry_equiv_pos_as_xyz
1 x,y,z
2 1/2-x,-y,1/2+z
3 1/2+x,1/2-y,-z
4 -x,1/2+y,1/2-z
_cell_length_a 7.0198(2)
_cell_length_b 12.0153(5)
_cell_length_c 24.669(2)
_cell_angle_alpha 90
_cell_angle_beta 90
_cell_angle_gamma 90
_cell_formula_units_Z 4
loop_
_atom_type_symbol
_atom_type_radius_bond
C 0.68
H 0.23
N 0.68
O 0.68
loop_
_atom_site_label
_atom_site_type_symbol
_atom_site_fract_x
_atom_site_fract_y
_atom_site_fract_z
C1 C 0.3880(4) 0.9005(2) 0.76941(9)
C2 C 0.3250(4) 0.9025(2) 0.82928(9)
C3 C 0.3601(4) 0.7922(2) 0.85715(9)
O1 O 0.3434(3) 0.8041(2) 0.91615(6)
C4 C 0.1732(4) 0.8186(2) 0.9387(1)
O2 O 0.0268(3) 0.8168(2) 0.91323(8)
C5 C 0.1857(5) 0.8363(3) 0.9987(1)
C6 C 0.5590(4) 0.7499(2) 0.84836(9)
C7 C 0.6210(4) 0.7509(2) 0.78885(9)
C8 C 0.8186(4) 0.7038(2) 0.7819(1)
C9 C 0.8748(4) 0.6972(2) 0.72286(9)
C10 C 0.8553(4) 0.8089(2) 0.69351(8)
C11 C 0.6609(4) 0.8620(2) 0.70305(8)
C12 C 0.5971(4) 0.8682(2) 0.76287(9)
C13 C 0.5675(4) 0.9116(2) 0.66255(9)
C14 C 0.6349(4) 0.9239(2) 0.60451(9)
C15 C 0.8492(4) 0.9010(2) 0.60067(8)
C16 C 0.8864(4) 0.7943(2) 0.63341(9)
C17 C 1.0768(4) 0.7504(2) 0.6123(1)
C18 C 1.0695(4) 0.7893(2) 0.5548(1)
C19 C 0.9396(4) 0.8682(2) 0.54646(9)
C20 C 0.9084(4) 0.9222(2) 0.49396(9)
N1 N 0.7764(4) 0.9960(2) 0.49128(8)
O3 O 0.7626(4) 1.0383(2) 0.43811(7)
C21 C 1.0264(5) 0.8888(3) 0.4462(1)
C22 C 0.9584(5) 1.0023(2) 0.6219(1)
C23 C 0.7241(4) 0.9571(2) 0.79038(9)
H1 H 0.30940 0.84790 0.74970
H2 H 0.36790 0.97360 0.75370
H3 H 0.39420 0.96050 0.84820
H4 H 0.19030 0.92010 0.83120
H5 H 0.26810 0.73690 0.84420
H6 H 0.08250 0.88300 1.01030
H7 H 0.30470 0.87140 1.00740
H8 H 0.17780 0.76580 1.01690
H9 H 0.56740 0.67440 0.86200
H10 H 0.64660 0.79540 0.86920
H11 H 0.53430 0.70090 0.76950
H12 H 0.82360 0.62990 0.79780
H13 H 0.90910 0.75040 0.80110
H14 H 0.79520 0.64240 0.70490
H15 H 1.00580 0.67210 0.72030
H16 H 0.95330 0.85940 0.70740
H17 H 0.44890 0.94160 0.67080
H18 H 0.60840 0.99870 0.59180
H19 H 0.56640 0.87210 0.58150
H20 H 0.79020 0.74060 0.62140
H21 H 1.18350 0.78290 0.63170
H22 H 1.08390 0.66990 0.61460
H23 H 1.14770 0.76130 0.52760
H24 H 0.66680 1.07690 0.43550
H25 H 0.96160 0.90920 0.41340
H26 H 1.04610 0.80980 0.44680
H27 H 1.14720 0.92610 0.44780
H28 H 0.94740 1.06240 0.59640
H29 H 1.09030 0.98330 0.62640
H30 H 0.90610 1.02490 0.65610
H31 H 0.69640 1.02890 0.77530
H32 H 0.85580 0.93940 0.78430
H33 H 0.69900 0.95810 0.82860
#END
