
#######################################################################
#
#                 Cambridge Crystallographic Data Centre
#                                CCDC
#
#######################################################################
#
# If this CIF has been generated from an entry in the Cambridge
# Structural Database, then it will include bibliographic, chemical,
# crystal, experimental, refinement or atomic coordinate data resulting
# from the CCDC's data processing and validation procedures.
#
#######################################################################

data_CSD_CIF_XEHHUN
_audit_creation_date 2001-02-28
_audit_creation_method CSD-ConQuest-V1
_database_code_CSD XEHHUN
_database_code_depnum_ccdc_archive 'CCDC 156663'
_chemical_formula_sum 'C17 H16 N4 O4'
_chemical_formula_moiety
;
C17 H16 N4 O4
;
_journal_coeditor_code "IUCr BM0031"
_journal_coden_Cambridge 622
_journal_volume 56
_journal_year 2000
_journal_page_first 1046
_journal_name_full 'Acta Crystallogr.,Sect.B:Struct.Sci. '
loop_
_publ_author_name
"G.Chisholm"
"A.R.Kennedy"
"S.Wilson"
"S.J.Teat"
_chemical_name_systematic
;
N-(2-Methylphenyl)-2-(4-nitrophenylhydrazono)-3-oxobutyramide
;
_cell_volume   1613.042
_exptl_crystal_colour 'light yellow'
_exptl_crystal_density_diffrn 1.401
_exptl_crystal_description 'plate'
_exptl_crystal_preparation 'toluene'
_diffrn_ambient_temperature 150
_diffrn_radiation_probe x-ray
_diffrn_source synchrotron
#These two values have been output from a single CSD field.
_refine_ls_R_factor_gt 0.0659
_refine_ls_wR_factor_gt 0.0659
_symmetry_cell_setting monoclinic
_symmetry_space_group_name_H-M 'P 21/n'
_symmetry_Int_Tables_number 14
loop_
_symmetry_equiv_pos_site_id
_symmetry_equiv_pos_as_xyz
1 x,y,z
2 1/2+x,1/2-y,1/2+z
3 -x,-y,-z
4 -1/2-x,-1/2+y,-1/2-z
_cell_length_a 14.111(6)
_cell_length_b 7.567(3)
_cell_length_c 15.338(6)
_cell_angle_alpha 90
_cell_angle_beta 99.967(10)
_cell_angle_gamma 90
_cell_formula_units_Z 4
loop_
_atom_type_symbol
_atom_type_radius_bond
C 0.68
H 0.23
N 0.68
O 0.68
loop_
_atom_site_label
_atom_site_type_symbol
_atom_site_fract_x
_atom_site_fract_y
_atom_site_fract_z
O1 O 0.09586(16) 0.7620(3) 0.03614(13)
O2 O -0.19376(18) 0.7401(4) -0.09218(16)
O3 O -0.0133(2) 0.2248(5) 0.51310(17)
O4 O 0.1373(2) 0.2916(4) 0.54092(16)
N1 N -0.0122(2) 0.8410(4) -0.08688(16)
H1 H -0.07380 0.83750 -0.10970
N2 N -0.05818(19) 0.5990(4) 0.10490(16)
N3 N 0.02814(19) 0.5886(4) 0.15595(16)
H2 H 0.07970 0.63050 0.13810
N4 N 0.0589(2) 0.2875(4) 0.49128(18)
C1 C 0.0467(3) 0.9254(5) -0.1393(2)
C2 C 0.0012(3) 1.0040(5) -0.2186(2)
C3 C 0.0559(3) 1.0795(5) -0.2731(2)
H3 H 0.02460 1.13190 -0.32670
C4 C 0.1564(3) 1.0833(6) -0.2534(2)
H4 H 0.19280 1.13960 -0.29210
C5 C 0.2016(3) 1.0031(5) -0.1764(2)
H5 H 0.26980 1.00110 -0.16260
C6 C 0.1477(2) 0.9256(5) -0.1193(2)
H6 H 0.17940 0.87200 -0.06620
C7 C 0.0118(2) 0.7648(5) -0.0071(2)
C8 C -0.0685(2) 0.6790(5) 0.0285(2)
C9 C -0.1710(2) 0.6745(5) -0.0188(2)
C10 C -0.2453(3) 0.5892(6) 0.0259(3)
H7 H -0.30930 0.60840 -0.00950
H8 H -0.24290 0.64120 0.08470
H9 H -0.23260 0.46200 0.03170
C11 C 0.0339(2) 0.5092(5) 0.2386(2)
C12 C 0.1231(2) 0.5148(5) 0.2954(2)
H10 H 0.17710 0.56890 0.27680
C13 C 0.1314(2) 0.4411(5) 0.3782(2)
H11 H 0.19120 0.44390 0.41770
C14 C 0.0526(2) 0.3634(5) 0.4032(2)
C15 C -0.0376(2) 0.3564(5) 0.3473(2)
H12 H -0.09130 0.30150 0.36580
C16 C -0.0448(2) 0.4316(5) 0.2655(2)
H13 H -0.10490 0.43050 0.22650
C17 C -0.1069(3) 0.9980(6) -0.2422(2)
H14 H -0.12730 1.04910 -0.30120
H15 H -0.13510 1.06600 -0.19860
H16 H -0.12870 0.87510 -0.24210
#END
