
#######################################################################
#
#                 Cambridge Crystallographic Data Centre
#                                CCDC
#
#######################################################################
#
# If this CIF has been generated from an entry in the Cambridge
# Structural Database, then it will include bibliographic, chemical,
# crystal, experimental, refinement or atomic coordinate data resulting
# from the CCDC's data processing and validation procedures.
#
#######################################################################

data_CSD_CIF_XEHZIT
_audit_creation_date 2001-02-28
_audit_creation_method CSD-ConQuest-V1
_database_code_CSD XEHZIT
_database_code_depnum_ccdc_archive 'CCDC 144440'
_chemical_formula_sum 'C12 H9 N1 O2'
_chemical_formula_moiety
;
C12 H9 N1 O2
;
_journal_coden_Cambridge 392
_journal_volume 53
_journal_year 2000
_journal_page_first 353
_journal_name_full 'Heterocycles '
loop_
_publ_author_name
"N.Abe"
"H.Matsuda"
"H.Fujii"
"A.Kakehi"
_chemical_name_systematic
;
4-Phenylimino-2-oxacyclohexa-2,5-diene N-oxide
;
_chemical_name_common
;
Phenylimino-p-benzoquinone-N-oxide
;
_cell_volume    959.361
_exptl_crystal_colour 'brown'
_exptl_crystal_density_diffrn 1.379
_exptl_crystal_description 'prism'
_diffrn_ambient_temperature ?
_diffrn_special_details
;
The study was carried out at room temperature,in the range 283-303K

;
#These two values have been output from a single CSD field.
_refine_ls_R_factor_gt 0.093
_refine_ls_wR_factor_gt 0.093
_symmetry_cell_setting monoclinic
_symmetry_space_group_name_H-M 'P 21/a'
_symmetry_Int_Tables_number 14
loop_
_symmetry_equiv_pos_site_id
_symmetry_equiv_pos_as_xyz
1 x,y,z
2 1/2-x,1/2+y,-z
3 -x,-y,-z
4 -1/2+x,-1/2-y,z
_cell_length_a 7.510(3)
_cell_length_b 12.6355(9)
_cell_length_c 10.302(2)
_cell_angle_alpha 90
_cell_angle_beta 101.08(2)
_cell_angle_gamma 90
_cell_formula_units_Z 4
loop_
_atom_type_symbol
_atom_type_radius_bond
C 0.68
H 0.23
N 0.68
O 0.68
loop_
_atom_site_label
_atom_site_type_symbol
_atom_site_fract_x
_atom_site_fract_y
_atom_site_fract_z
O1 O 0.3246(8) 0.1323(6) 0.6787(6)
O2 O -0.435(1) 0.1191(7) 0.3192(7)
N1 N 0.162(1) 0.1294(6) 0.7021(7)
C1 C 0.011(1) 0.1286(8) 0.6136(8)
C2 C -0.159(1) 0.1121(8) 0.647(1)
C3 C -0.310(1) 0.1051(9) 0.5483(9)
C4 C -0.299(1) 0.1212(8) 0.411(1)
C5 C -0.119(1) 0.1400(9) 0.3822(8)
C6 C 0.030(1) 0.142(1) 0.478(1)
C7 C 0.166(1) 0.1269(9) 0.8482(9)
C8 C 0.085(1) 0.2086(9) 0.907(1)
C9 C 0.092(1) 0.207(1) 1.038(1)
C10 C 0.194(1) 0.127(1) 1.113(1)
C11 C 0.271(1) 0.047(1) 1.055(1)
C12 C 0.253(1) 0.046(1) 0.916(1)
H1 H -0.16770 0.10570 0.73610
H2 H -0.42450 0.08790 0.57080
H3 H -0.10960 0.15220 0.29460
H4 H 0.14800 0.15350 0.45650
H5 H 0.02170 0.26390 0.85380
H6 H 0.03510 0.26140 1.08010
H7 H 0.20920 0.12770 1.20480
H8 H 0.33720 -0.00690 1.10810
H9 H 0.30270 -0.01160 0.87300
#END
