
#######################################################################
#
#                 Cambridge Crystallographic Data Centre
#                                CCDC
#
#######################################################################
#
# If this CIF has been generated from an entry in the Cambridge
# Structural Database, then it will include bibliographic, chemical,
# crystal, experimental, refinement or atomic coordinate data resulting
# from the CCDC's data processing and validation procedures.
#
#######################################################################

data_CSD_CIF_XEJLOP
_audit_creation_date 2013-04-04
_audit_creation_method CSD-ConQuest-V1
_database_code_CSD XEJLOP
_database_code_depnum_ccdc_archive 'CCDC 871315'
_chemical_formula_sum 'C19 H24 N4 O3'
_chemical_formula_moiety
;
C19 H24 N4 O3
;
_journal_coden_Cambridge 700
_journal_volume 67
_journal_year 2013
_journal_page_first 40
_journal_name_full 'Chem.Papers '
loop_
_publ_author_name
"J.Galeta"
"S.Man"
"A.Valouskova"
"M.Potacek"
_chemical_name_systematic
;
4-(2-(2-Methyl-1-((4-nitrobenzylidene)hydrazono)propan-2-yl)buta-2,3-dien-1-yl
)morpholine
;
_cell_volume   3834.098
_exptl_crystal_density_diffrn 1.235
_diffrn_ambient_temperature 120
#These two values have been output from a single CSD field.
_refine_ls_R_factor_gt 0.0507
_refine_ls_wR_factor_gt 0.0507
_symmetry_cell_setting monoclinic
_symmetry_space_group_name_H-M 'C 2/c'
_symmetry_Int_Tables_number 15
loop_
_symmetry_equiv_pos_site_id
_symmetry_equiv_pos_as_xyz
1 x,y,z
2 -x,y,1/2-z
3 1/2+x,1/2+y,z
4 1/2-x,1/2+y,1/2-z
5 -x,-y,-z
6 x,-y,-1/2+z
7 -1/2-x,-1/2-y,-z
8 -1/2+x,-1/2-y,-1/2+z
_cell_length_a 26.084(5)
_cell_length_b 7.5961(15)
_cell_length_c 23.102(5)
_cell_angle_alpha 90
_cell_angle_beta 123.11(3)
_cell_angle_gamma 90
_cell_formula_units_Z 8
loop_
_atom_type_symbol
_atom_type_radius_bond
C 0.68
H 0.23
N 0.68
O 0.68
loop_
_atom_site_label
_atom_site_type_symbol
_atom_site_fract_x
_atom_site_fract_y
_atom_site_fract_z
N1 N 0.19645(7) 0.5957(2) 0.06979(8)
N2 N 0.37915(8) 1.2241(2) 0.11043(9)
O1 O 0.34939(6) 1.35099(19) 0.07491(7)
N3 N 0.17555(7) 0.4260(2) 0.07318(8)
O2 O 0.43522(6) 1.22570(19) 0.14996(8)
N4 N 0.12440(7) 0.5333(2) 0.18816(8)
O3 O 0.14110(6) 0.84978(19) 0.26394(7)
C1 C 0.12141(8) 0.4309(2) 0.05992(9)
H1 H 0.10160 0.54150 0.05150
C2 C 0.28324(8) 1.0653(3) 0.07001(9)
H2 H 0.26120 1.17090 0.04930
C3 C 0.25378(9) 0.5959(2) 0.09448(10)
H3 H 0.27630 0.48940 0.11170
C4 C 0.07058(9) 0.2806(2) 0.11082(10)
C5 C 0.34629(8) 1.0618(2) 0.10502(9)
C6 C 0.25298(9) 0.9122(2) 0.06576(9)
H4 H 0.20960 0.91210 0.04160
C7 C 0.34895(8) 0.7577(3) 0.13121(10)
H5 H 0.37130 0.65250 0.15180
C8 C 0.28543(8) 0.7572(2) 0.09665(10)
C9 C 0.08788(8) 0.2668(2) 0.05711(10)
C10 C 0.03028(8) 0.2559(3) -0.01641(10)
H6 H 0.00520 0.36140 -0.02590
H7 H 0.00660 0.15120 -0.02040
H8 H 0.04230 0.24830 -0.04980
C11 C 0.01623(9) 0.2372(3) 0.09624(10)
C12 C 0.12699(9) 0.1022(2) 0.0717(1)
H9 H 0.16380 0.10890 0.11860
H10 H 0.13890 0.09480 0.03820
H11 H 0.10330 -0.00260 0.06770
C13 C 0.07617(9) 0.6058(3) 0.19587(10)
H12 H 0.07890 0.55140 0.23640
H13 H 0.03560 0.57680 0.15440
C14 C 0.37973(9) 0.9106(3) 0.1357(1)
H14 H 0.42310 0.91150 0.15940
C15 C 0.18445(9) 0.5873(3) 0.24716(10)
H15 H 0.21680 0.54640 0.24030
H16 H 0.19170 0.53230 0.28990
C16 C 0.12015(9) 0.3410(3) 0.1825(1)
H17 H 0.11160 0.29390 0.21630
H18 H 0.16000 0.29270 0.19420
C17 C 0.08246(9) 0.8030(3) 0.20515(11)
H19 H 0.07700 0.85780 0.16320
H20 H 0.05010 0.84860 0.21110
C18 C -0.03785(11) 0.1927(4) 0.08128(12)
C19 C 0.18756(10) 0.7847(3) 0.25477(12)
H21 H 0.22830 0.81870 0.29510
H22 H 0.18270 0.83900 0.21310
H23 H -0.046(1) 0.077(3) 0.0881(11)
H24 H -0.0716(10) 0.281(3) 0.0638(11)
#END
