
#######################################################################
#
#                 Cambridge Crystallographic Data Centre
#                                CCDC
#
#######################################################################
#
# If this CIF has been generated from an entry in the Cambridge
# Structural Database, then it will include bibliographic, chemical,
# crystal, experimental, refinement or atomic coordinate data resulting
# from the CCDC's data processing and validation procedures.
#
#######################################################################

data_CSD_CIF_XEKDUP
_audit_creation_date 2017-11-15
_audit_creation_method CSD-ConQuest-V1
_database_code_CSD XEKDUP
_database_code_depnum_ccdc_archive 'CCDC 1564103'
_chemical_formula_sum 'C43 H29 N3 O3'
_chemical_formula_moiety
;
C43 H29 N3 O3
;
_journal_coden_Cambridge 1336
_journal_volume 19
_journal_year 2017
_journal_page_first 5924
_journal_name_full 'Org.Lett. '
loop_
_publ_author_name
"A.Kumar"
"M.Rajeswara Rao"
"Way-Zen Lee"
"M.Ravikanth"
_chemical_name_systematic
;
7,21-bis(4-methylphenyl)-2-(4-nitrophenyl)-14-oxa-25,26-diazahexacyclo[20.2.1.
1^3,6^.0^8,13^.0^12,16^.0^15,20^]hexacosa-1(25),2,4,6,8,10,12,15,17,19,21,23-d
odecaene
;
_cell_volume   1544.568
_exptl_crystal_colour 'black'
_exptl_crystal_density_diffrn 1.367
_exptl_crystal_description 'prism'
_diffrn_ambient_temperature 200
#These two values have been output from a single CSD field.
_refine_ls_R_factor_gt 0.0462
_refine_ls_wR_factor_gt 0.0462
_symmetry_cell_setting triclinic
_symmetry_space_group_name_H-M 'P -1'
_symmetry_Int_Tables_number 2
loop_
_symmetry_equiv_pos_site_id
_symmetry_equiv_pos_as_xyz
1 x,y,z
2 -x,-y,-z
_cell_length_a 7.9250(4)
_cell_length_b 12.5953(5)
_cell_length_c 15.5199(6)
_cell_angle_alpha 87.325(1)
_cell_angle_beta 87.557(1)
_cell_angle_gamma 87.368(1)
_cell_formula_units_Z 2
loop_
_atom_type_symbol
_atom_type_radius_bond
C 0.68
H 0.23
N 0.68
O 0.68
loop_
_atom_site_label
_atom_site_type_symbol
_atom_site_fract_x
_atom_site_fract_y
_atom_site_fract_z
C1 C 0.8695(3) 0.66836(19) 0.36477(13)
C2 C 0.8183(3) 0.56622(19) 0.38337(14)
H1 H 0.84200 0.51170 0.34380
C3 C 0.7315(3) 0.54527(18) 0.46133(14)
H2 H 0.69530 0.47540 0.47490
C4 C 0.6959(3) 0.62422(18) 0.52027(14)
C5 C 0.7532(3) 0.72616(18) 0.49879(14)
H3 H 0.73260 0.78100 0.53840
C6 C 0.8390(3) 0.74857(19) 0.42129(14)
H4 H 0.87620 0.81810 0.40720
C7 C 0.5907(3) 0.60838(17) 0.60144(13)
C8 C 0.6061(3) 0.51768(18) 0.65512(13)
C9 C 0.6927(3) 0.41654(18) 0.63931(14)
H5 H 0.77710 0.40370 0.59520
C10 C 0.6336(3) 0.34367(19) 0.69768(14)
H6 H 0.66230 0.26960 0.69840
C11 C 0.5194(3) 0.39573(17) 0.75933(13)
C12 C 0.4453(3) 0.35050(17) 0.83249(13)
C13 C 0.4641(3) 0.23181(17) 0.84540(13)
C14 C 0.6196(3) 0.17725(18) 0.85217(14)
H7 H 0.72040 0.21530 0.84560
C15 C 0.6299(3) 0.06807(19) 0.86839(15)
H8 H 0.73790 0.03280 0.87290
C16 C 0.4866(3) 0.00913(18) 0.87821(14)
C17 C 0.4964(4) -0.10884(19) 0.90077(16)
H9 H 0.43100 -0.14590 0.86020
H10 H 0.44980 -0.12200 0.95960
H11 H 0.61460 -0.13520 0.89720
C18 C 0.3314(3) 0.06297(18) 0.86975(15)
H12 H 0.23110 0.02420 0.87430
C19 C 0.3199(3) 0.17248(18) 0.85477(14)
H13 H 0.21170 0.20760 0.85080
C20 C 0.3595(3) 0.40564(17) 0.90519(13)
C21 C 0.3785(3) 0.35678(19) 0.98771(14)
H14 H 0.43670 0.28920 0.99130
C22 C 0.3186(3) 0.39994(19) 1.06413(15)
H15 H 0.33730 0.36210 1.11750
C23 C 0.2320(3) 0.49722(19) 1.06329(14)
H16 H 0.18960 0.52750 1.11520
C24 C 0.2092(3) 0.54943(18) 0.98329(13)
C25 C 0.2692(3) 0.50425(17) 0.90695(13)
C26 C 0.1501(3) 0.66313(17) 0.86924(14)
C27 C 0.1338(3) 0.65162(18) 0.95893(14)
C28 C 0.0566(3) 0.73099(19) 1.00822(15)
H17 H 0.04470 0.72230 1.06930
C29 C -0.0021(3) 0.82261(19) 0.96528(15)
H18 H -0.05250 0.87940 0.99690
C30 C 0.0124(3) 0.83202(18) 0.87614(15)
H19 H -0.03120 0.89590 0.84880
C31 C 0.0871(3) 0.75375(17) 0.82309(14)
C32 C 0.0889(3) 0.77961(17) 0.72908(14)
C33 C -0.0577(3) 0.84849(17) 0.69958(14)
C34 C -0.2218(3) 0.81602(18) 0.71648(14)
H20 H -0.23930 0.74900 0.74540
C35 C -0.3598(3) 0.87964(18) 0.69185(14)
H21 H -0.47030 0.85520 0.70390
C36 C -0.3407(3) 0.97812(18) 0.65006(14)
C37 C -0.4943(3) 1.0469(2) 0.62658(17)
H22 H -0.47380 1.08250 0.56980
H23 H -0.51650 1.10050 0.66990
H24 H -0.59230 1.00250 0.62470
C38 C -0.1781(3) 1.0108(2) 0.63353(17)
H25 H -0.16150 1.07780 0.60460
C39 C -0.0384(3) 0.94801(19) 0.65814(17)
H26 H 0.07190 0.97320 0.64660
C40 C 0.2138(3) 0.75090(17) 0.67005(14)
C41 C 0.2186(3) 0.78122(19) 0.57819(15)
H27 H 0.13380 0.82150 0.54790
C42 C 0.3651(3) 0.74157(18) 0.54474(14)
H28 H 0.40640 0.75060 0.48660
C43 C 0.4493(3) 0.68168(17) 0.61473(14)
N1 N 0.9565(2) 0.69314(19) 0.28147(13)
N2 N 0.5123(2) 0.50260(14) 0.73095(11)
N3 N 0.3594(2) 0.68924(14) 0.68904(11)
O1 O 1.0073(2) 0.78352(15) 0.26773(11)
O2 O 0.9733(2) 0.62316(16) 0.22896(11)
O3 O 0.22958(18) 0.57168(11) 0.83574(9)
H29 H 0.43220 0.55970 0.75150
#END
