
#######################################################################
#
#                 Cambridge Crystallographic Data Centre
#                                CCDC
#
#######################################################################
#
# If this CIF has been generated from an entry in the Cambridge
# Structural Database, then it will include bibliographic, chemical,
# crystal, experimental, refinement or atomic coordinate data resulting
# from the CCDC's data processing and validation procedures.
#
#######################################################################

data_CSD_CIF_XEKGUS
_audit_creation_date 2017-11-15
_audit_creation_method CSD-ConQuest-V1
_database_code_CSD XEKGUS
_database_code_depnum_ccdc_archive 'CCDC 1585788'
_chemical_formula_sum 'C30 H27 N3 O4'
_chemical_formula_moiety
;
C30 H27 N3 O4
;
_journal_coden_Cambridge 1078
_journal_year 2017
_journal_name_full 'CSD Communication(Private Communication) '
loop_
_publ_author_name
"P.Petrov"
"B.Ivanova"
_chemical_name_systematic
;
5-nitro-2-(2,4,6-trimethylphenyl)-6-[(2,4,6-trimethylphenyl)amino]-1H-benzo[de
]isoquinoline-1,3(2H)-dione
;
_cell_volume   1275.074
_exptl_crystal_colour 'colorless'
_exptl_crystal_density_diffrn 1.285
_exptl_crystal_description 'plate'
_diffrn_ambient_temperature 199
#These two values have been output from a single CSD field.
_refine_ls_R_factor_gt 0.075
_refine_ls_wR_factor_gt 0.075
_symmetry_cell_setting triclinic
_symmetry_space_group_name_H-M 'P -1'
_symmetry_Int_Tables_number 2
loop_
_symmetry_equiv_pos_site_id
_symmetry_equiv_pos_as_xyz
1 x,y,z
2 -x,-y,-z
_cell_length_a 7.943(4)
_cell_length_b 9.590(4)
_cell_length_c 17.677(9)
_cell_angle_alpha 91.132(14)
_cell_angle_beta 98.579(14)
_cell_angle_gamma 106.324(16)
_cell_formula_units_Z 2
loop_
_atom_type_symbol
_atom_type_radius_bond
C 0.68
H 0.23
N 0.68
O 0.68
loop_
_atom_site_label
_atom_site_type_symbol
_atom_site_fract_x
_atom_site_fract_y
_atom_site_fract_z
N1 N 0.8676(4) 0.4913(3) 0.17039(16)
O1 O 0.9425(4) 0.6635(3) 0.26993(14)
O2 O 0.7815(4) 0.3180(3) 0.07312(15)
C1 C 1.0071(5) 0.4404(4) 0.29504(18)
C2 C 1.0709(5) 0.2047(4) 0.31065(19)
C3 C 0.9997(5) 0.3005(4) 0.26518(19)
C4 C 0.9115(5) 0.2499(4) 0.18964(19)
C5 C 1.1576(6) 0.3915(4) 0.41546(19)
C6 C 0.8168(5) 0.5963(4) 0.11845(19)
N2 N 1.2756(5) 0.1850(4) 0.42585(17)
H1 H 1.29910 0.20280 0.47590
O3 O 1.2239(5) 0.5669(3) 0.51435(15)
O4 O 1.3129(6) 0.3804(4) 0.53564(17)
C7 C 1.0769(5) 0.4809(4) 0.36980(19)
H2 H 1.07110 0.57050 0.39150
C8 C 0.8491(5) 0.3530(4) 0.1394(2)
N3 N 1.2336(5) 0.4499(4) 0.49245(17)
C9 C 0.7216(6) 0.7837(4) 0.0155(2)
C10 C 1.1712(5) 0.2581(4) 0.3865(2)
C11 C 0.6408(5) 0.5948(4) 0.10428(19)
C12 C 0.9382(5) 0.5436(4) 0.2474(2)
C13 C 0.5976(6) 0.6917(4) 0.0516(2)
H3 H 0.47760 0.69360 0.04050
C14 C 1.0355(5) 0.0592(4) 0.2821(2)
H4 H 1.07550 -0.00780 0.31370
C15 C 1.3519(6) 0.0820(4) 0.3953(2)
C16 C 0.9449(6) 0.0125(4) 0.2098(2)
H5 H 0.92120 -0.08610 0.19160
C17 C 1.3177(5) -0.0555(4) 0.4254(2)
C18 C 0.9452(5) 0.6875(5) 0.0840(2)
C19 C 1.3924(6) -0.1553(5) 0.3959(2)
H6 H 1.37290 -0.24840 0.41620
C20 C 1.4605(6) 0.1220(5) 0.3406(2)
C21 C 0.8880(6) 0.1105(4) 0.1633(2)
H7 H 0.83150 0.07960 0.11210
C22 C 1.5272(7) 0.0165(6) 0.3120(2)
H8 H 1.59870 0.04070 0.27290
C23 C 0.8942(6) 0.7811(5) 0.0319(2)
H9 H 0.98140 0.84460 0.00730
C24 C 0.5026(6) 0.4946(5) 0.1408(2)
H10 H 0.51080 0.39510 0.13450
H11 H 0.38490 0.49860 0.11650
H12 H 0.52060 0.52380 0.19550
C25 C 0.6688(7) 0.8862(5) -0.0415(2)
H13 H 0.65470 0.97070 -0.01370
H14 H 0.55610 0.83530 -0.07410
H15 H 0.76140 0.91900 -0.07350
C26 C 1.4942(7) -0.1236(5) 0.3380(3)
C27 C 1.1988(6) -0.0956(5) 0.4841(2)
H16 H 1.23270 -0.01770 0.52500
H17 H 1.21010 -0.18640 0.50580
H18 H 1.07540 -0.10890 0.46020
C28 C 1.5074(7) 0.2726(5) 0.3114(3)
H19 H 1.61510 0.28860 0.28800
H20 H 1.52850 0.34510 0.35420
H21 H 1.40910 0.28190 0.27310
C29 C 1.1375(6) 0.6877(7) 0.1015(3)
H22 H 1.18420 0.71980 0.15550
H23 H 1.20710 0.75440 0.06880
H24 H 1.14590 0.58920 0.09170
C30 C 1.5668(9) -0.2344(7) 0.3051(3)
H25 H 1.57700 -0.21670 0.25140
H26 H 1.48670 -0.33190 0.30830
H27 H 1.68430 -0.22750 0.33410
#END
