
#######################################################################
#
#                 Cambridge Crystallographic Data Centre
#                                CCDC
#
#######################################################################
#
# If this CIF has been generated from an entry in the Cambridge
# Structural Database, then it will include bibliographic, chemical,
# crystal, experimental, refinement or atomic coordinate data resulting
# from the CCDC's data processing and validation procedures.
#
#######################################################################

data_CSD_CIF_XEKLAB
_audit_creation_date 2006-10-31
_audit_creation_method CSD-ConQuest-V1
_database_code_CSD XEKLAB
_database_code_depnum_ccdc_archive 'CCDC 610231'
_chemical_formula_sum 'C18 H22 N4 O5'
_chemical_formula_moiety
;
C18 H22 N4 O5
;
_journal_coden_Cambridge 179
_journal_volume 45
_journal_year 2006
_journal_page_first 4929
_journal_name_full 'Angew.Chem.,Int.Ed. '
loop_
_publ_author_name
"S.A.Rodgen"
"S.E.Schaus"
_chemical_name_systematic
;
(1S,4R,4aR,8aR,E)-8-(2-(2,4-dinitrophenyl)hydrazono)-4-vinyldecahydro-naphthal
en-1-ol
;
_cell_volume    885.429
_exptl_crystal_colour 'yellow'
_exptl_crystal_density_diffrn 1.404
_exptl_crystal_description 'plate'
_exptl_crystal_preparation 'diethyl ether/pentanes'
_diffrn_ambient_temperature 173
#These two values have been output from a single CSD field.
_refine_ls_R_factor_gt 0.0334
_refine_ls_wR_factor_gt 0.0334
_symmetry_cell_setting monoclinic
_symmetry_space_group_name_H-M 'P 21'
_symmetry_Int_Tables_number 4
loop_
_symmetry_equiv_pos_site_id
_symmetry_equiv_pos_as_xyz
1 x,y,z
2 -x,1/2+y,-z
_cell_length_a 4.6914(3)
_cell_length_b 13.6019(9)
_cell_length_c 13.8958(9)
_cell_angle_alpha 90
_cell_angle_beta 93.090(3)
_cell_angle_gamma 90
_cell_formula_units_Z 2
loop_
_atom_type_symbol
_atom_type_radius_bond
C 0.68
H 0.23
N 0.68
O 0.68
loop_
_atom_site_label
_atom_site_type_symbol
_atom_site_fract_x
_atom_site_fract_y
_atom_site_fract_z
O1 O -0.3360(3) 0.62052(7) 0.28407(8)
O2 O 0.8381(3) 0.67976(9) -0.10357(9)
O3 O 0.7995(3) 0.56049(11) -0.20634(9)
O4 O -0.1282(2) 0.29800(8) -0.04685(8)
O5 O 0.2119(3) 0.28486(8) -0.14533(8)
N1 N -0.0880(2) 0.45492(8) 0.19194(8)
N2 N -0.0310(3) 0.41297(9) 0.10434(8)
H1 H -0.114(4) 0.3605(15) 0.0850(13)
N3 N 0.7382(3) 0.60021(10) -0.13130(9)
N4 N 0.0938(3) 0.32810(8) -0.08124(8)
C1 C -0.2042(3) 0.55777(9) 0.35554(9)
H2 H 0.013(3) 0.5598(11) 0.3524(10)
C2 C -0.2825(3) 0.5973(1) 0.45269(10)
H3 H -0.504(5) 0.6004(16) 0.4527(15)
H4 H -0.208(4) 0.6662(15) 0.4601(13)
C3 C -0.1654(4) 0.53352(11) 0.53552(11)
H5 H -0.217(4) 0.5601(13) 0.5965(13)
H6 H 0.059(4) 0.5360(13) 0.5376(13)
C4 C -0.2676(3) 0.42628(10) 0.52577(9)
H7 H -0.482(4) 0.4215(12) 0.5312(12)
C5 C -0.1980(3) 0.38402(9) 0.42648(10)
H8 H 0.004(4) 0.3782(12) 0.4233(11)
C6 C -0.3182(3) 0.27968(10) 0.41184(11)
H9 H -0.521(4) 0.2825(15) 0.4223(13)
H10 H -0.243(4) 0.2381(15) 0.4653(13)
C7 C -0.2537(4) 0.23679(10) 0.31421(11)
H11 H -0.037(4) 0.2262(14) 0.3098(13)
H12 H -0.346(4) 0.1695(14) 0.3080(13)
C8 C -0.3641(3) 0.30363(10) 0.23142(11)
H13 H -0.322(4) 0.2771(12) 0.1674(13)
H14 H -0.582(4) 0.3084(12) 0.2331(13)
C9 C -0.2438(3) 0.40551(9) 0.24774(9)
C10 C -0.3107(3) 0.45156(9) 0.34296(9)
H15 H -0.527(4) 0.4522(13) 0.3437(12)
C11 C -0.1385(4) 0.36498(12) 0.60634(11)
H16 H 0.066(5) 0.3670(16) 0.6122(16)
C12 C -0.2757(4) 0.31161(12) 0.66792(12)
H17 H -0.177(5) 0.2730(17) 0.7118(17)
H18 H -0.481(6) 0.3089(16) 0.6631(17)
C13 C 0.1501(3) 0.45868(9) 0.04621(9)
C14 C 0.2864(3) 0.54774(10) 0.07495(10)
H19 H 0.251(4) 0.5707(12) 0.1362(12)
C15 C 0.4731(3) 0.59324(10) 0.01725(10)
H20 H 0.553(5) 0.6518(15) 0.0409(15)
C16 C 0.5360(3) 0.55181(10) -0.07089(10)
C17 C 0.4127(3) 0.46466(10) -0.10197(9)
H21 H 0.456(4) 0.4413(13) -0.1586(14)
C18 C 0.2204(3) 0.41924(9) -0.04412(9)
H22 H -0.251(5) 0.6072(16) 0.2360(17)
#END
