
#######################################################################
#
#                 Cambridge Crystallographic Data Centre
#                                CCDC
#
#######################################################################
#
# If this CIF has been generated from an entry in the Cambridge
# Structural Database, then it will include bibliographic, chemical,
# crystal, experimental, refinement or atomic coordinate data resulting
# from the CCDC's data processing and validation procedures.
#
#######################################################################

data_CSD_CIF_XEKMAC
_audit_creation_date 2006-10-31
_audit_creation_method CSD-ConQuest-V1
_database_code_CSD XEKMAC
_database_code_depnum_ccdc_archive 'CCDC 602384'
_chemical_formula_sum 'C24 H20 N2 O8'
_chemical_formula_moiety
;
C24 H20 N2 O8
;
_journal_coden_Cambridge 1291
_journal_year 2006
_journal_page_first 3074
_journal_name_full 'Eur.J.Org.Chem. '
loop_
_publ_author_name
"Eun Jin Cho"
"Mansuk Kim"
"Daesung Lee"
_chemical_name_systematic
;
2,7-Dimethylocta-2,6-dien-4-yn-3,6-diyl bis(4-nitrobenzoate)
;
_cell_volume    538.999
_exptl_crystal_colour 'colorless'
_exptl_crystal_density_diffrn 1.431
_exptl_crystal_description 'block'
_diffrn_ambient_temperature 100
#These two values have been output from a single CSD field.
_refine_ls_R_factor_gt 0.0388
_refine_ls_wR_factor_gt 0.0388
_symmetry_cell_setting triclinic
_symmetry_space_group_name_H-M 'P -1'
_symmetry_Int_Tables_number 2
loop_
_symmetry_equiv_pos_site_id
_symmetry_equiv_pos_as_xyz
1 x,y,z
2 -x,-y,-z
_cell_length_a 6.9790(16)
_cell_length_b 7.3955(17)
_cell_length_c 11.868(3)
_cell_angle_alpha 75.150(3)
_cell_angle_beta 88.163(4)
_cell_angle_gamma 65.980(3)
_cell_formula_units_Z 1
loop_
_atom_type_symbol
_atom_type_radius_bond
C 0.68
H 0.23
N 0.68
O 0.68
loop_
_atom_site_label
_atom_site_type_symbol
_atom_site_fract_x
_atom_site_fract_y
_atom_site_fract_z
O1 O 0.3699(2) 0.2382(2) 0.71099(10)
O2 O 0.12113(18) 0.2671(2) 0.59628(10)
O3 O 1.00786(15) 0.21263(17) 0.25013(9)
O4 O 0.71075(15) 0.33870(15) 0.13113(8)
N1 N 0.2978(2) 0.2528(2) 0.61552(11)
C1 C 0.4324(2) 0.2536(2) 0.51691(12)
C2 C 0.6380(2) 0.2225(2) 0.53948(12)
H1 H 0.69280 0.19830 0.61680
C3 C 0.7620(2) 0.2275(2) 0.44627(12)
H2 H 0.90400 0.20640 0.45940
C4 C 0.6793(2) 0.2635(2) 0.33321(12)
C5 C 0.4732(2) 0.2897(2) 0.31372(12)
H3 H 0.41850 0.31050 0.23690
C6 C 0.3473(2) 0.2854(2) 0.40639(12)
H4 H 0.20600 0.30380 0.39410
C7 C 0.8215(2) 0.2675(2) 0.23615(12)
C8 C 0.8221(2) 0.3369(2) 0.02871(11)
C9 C 0.7882(2) 0.2432(2) -0.04571(12)
C10 C 0.8903(2) 0.2455(2) -0.15836(12)
H5 H 0.96890 0.33130 -0.16730
H6 H 0.78200 0.30150 -0.22360
H7 H 0.98690 0.10520 -0.15800
C11 C 0.6474(2) 0.1319(2) -0.02281(13)
H8 H 0.60880 0.11920 0.05800
H9 H 0.72150 -0.00530 -0.03500
H10 H 0.51990 0.20890 -0.07650
C12 C 0.9473(2) 0.4519(2) 0.01011(12)
O1A O 1.6301(2) 0.7618(2) -0.71099(10)
O2A O 1.87887(18) 0.7329(2) -0.59628(10)
O3A O 0.99214(15) 0.78737(17) -0.25013(9)
O4A O 1.28925(15) 0.66130(15) -0.13113(8)
N1A N 1.7022(2) 0.7472(2) -0.61552(11)
C1A C 1.5676(2) 0.7464(2) -0.51691(12)
C2A C 1.3620(2) 0.7775(2) -0.53948(12)
H1A H 1.30720 0.80170 -0.61680
C3A C 1.2380(2) 0.7725(2) -0.44627(12)
H2A H 1.09600 0.79360 -0.45940
C4A C 1.3207(2) 0.7365(2) -0.33321(12)
C5A C 1.5268(2) 0.7103(2) -0.31372(12)
H3A H 1.58150 0.68950 -0.23690
C6A C 1.6527(2) 0.7146(2) -0.40639(12)
H4A H 1.79400 0.69620 -0.39410
C7A C 1.1785(2) 0.7325(2) -0.23615(12)
C8A C 1.1779(2) 0.6631(2) -0.02871(11)
C9A C 1.2118(2) 0.7568(2) 0.04571(12)
C10A C 1.1097(2) 0.7545(2) 0.15836(12)
H5A H 1.03110 0.66870 0.16730
H6A H 1.21800 0.69850 0.22360
H7A H 1.01310 0.89480 0.15800
C11A C 1.3526(2) 0.8681(2) 0.02281(13)
H8A H 1.39120 0.88080 -0.05800
H9A H 1.27850 1.00530 0.03500
H10A H 1.48010 0.79110 0.07650
C12A C 1.0527(2) 0.5481(2) -0.01011(12)
#END
