
#######################################################################
#
#                 Cambridge Crystallographic Data Centre
#                                CCDC
#
#######################################################################
#
# If this CIF has been generated from an entry in the Cambridge
# Structural Database, then it will include bibliographic, chemical,
# crystal, experimental, refinement or atomic coordinate data resulting
# from the CCDC's data processing and validation procedures.
#
#######################################################################

data_CSD_CIF_XEKPUZ
_audit_creation_date 2006-10-31
_audit_creation_method CSD-ConQuest-V1
_database_code_CSD XEKPUZ
_database_code_depnum_ccdc_archive 'CCDC 274773'
_chemical_formula_sum 'C14 H17 N1 O4'
_chemical_formula_moiety
;
C14 H17 N1 O4
;
_journal_coden_Cambridge 1291
_journal_year 2006
_journal_page_first 3235
_journal_name_full 'Eur.J.Org.Chem. '
loop_
_publ_author_name
"F.M.Cordero"
"S.Bonollo"
"F.Machetti"
"A.Brandi"
_chemical_name_systematic
;
(2R,3aR,7R)-2-(Hydroxyethyl)-7-phenyltetrahydroisoxazolo[3,2-c][1,4]oxazin-4(2
H)-one
;
_chemical_melting_point 399.15
_cell_volume   1321.311
_exptl_crystal_colour 'colorless'
_exptl_crystal_density_diffrn 1.324
_exptl_special_details
;
Melting point range 399.15-401.15K

;
_exptl_crystal_description 'prismatic'
_exptl_crystal_preparation 'diisopropyl ether/ethyl acetate'
_diffrn_ambient_temperature 293
#These two values have been output from a single CSD field.
_refine_ls_R_factor_gt 0.0436
_refine_ls_wR_factor_gt 0.0436
_symmetry_cell_setting orthorhombic
_symmetry_space_group_name_H-M 'P 21 21 21'
_symmetry_Int_Tables_number 19
loop_
_symmetry_equiv_pos_site_id
_symmetry_equiv_pos_as_xyz
1 x,y,z
2 1/2-x,-y,1/2+z
3 1/2+x,1/2-y,-z
4 -x,1/2+y,1/2-z
_cell_length_a 5.013(1)
_cell_length_b 13.771(2)
_cell_length_c 19.140(2)
_cell_angle_alpha 90
_cell_angle_beta 90
_cell_angle_gamma 90
_cell_formula_units_Z 4
loop_
_atom_type_symbol
_atom_type_radius_bond
C 0.68
H 0.23
N 0.68
O 0.68
loop_
_atom_site_label
_atom_site_type_symbol
_atom_site_fract_x
_atom_site_fract_y
_atom_site_fract_z
N1 N -0.0511(5) -0.06144(15) -0.55529(11)
O1 O -0.3990(6) -0.27421(16) -0.62150(13)
O2 O -0.4792(5) -0.18985(13) -0.52757(12)
O3 O 0.0592(5) 0.01375(14) -0.59848(10)
O4 O -0.2751(10) 0.1654(3) -0.76186(16)
H1 H -0.36050 0.18130 -0.79660
C1 C -0.3419(7) -0.2048(2) -0.58514(17)
C2 C -0.3990(8) -0.11285(19) -0.48075(16)
H2 H -0.26410 -0.13740 -0.44900
H3 H -0.55160 -0.09300 -0.45310
C3 C -0.2898(6) -0.0258(2) -0.51875(15)
H4 H -0.421(7) -0.007(2) -0.5489(15)
C4 C -0.2227(6) 0.05369(19) -0.46796(15)
C5 C -0.3637(9) 0.1392(2) -0.4685(2)
H5 H -0.49970 0.14840 -0.50080
C6 C -0.3034(12) 0.2121(2) -0.4206(2)
H6 H -0.39800 0.27010 -0.42170
C7 C -0.1066(10) 0.1992(3) -0.3721(2)
H7 H -0.06910 0.24790 -0.33990
C8 C 0.0336(10) 0.1152(3) -0.37127(19)
H8 H 0.16870 0.10650 -0.33860
C9 C -0.0231(8) 0.0421(2) -0.41883(17)
H9 H 0.07410 -0.01540 -0.41760
C10 C -0.1012(9) 0.0196(3) -0.66042(18)
H10 H -0.241(10) 0.056(2) -0.6505(19)
C11 C 0.0649(9) 0.0654(3) -0.71734(17)
H11 H 0.15020 0.12300 -0.69870
H12 H 0.20450 0.02030 -0.73070
C12 C -0.0865(12) 0.0927(3) -0.78035(18)
H13 H 0.03390 0.11730 -0.81580
H14 H -0.17790 0.03630 -0.79910
C13 C -0.1989(12) -0.0822(3) -0.67381(18)
H15 H -0.11190 -0.11010 -0.71440
H16 H -0.39040 -0.08320 -0.68100
C14 C -0.1218(8) -0.1373(2) -0.60659(15)
H17 H 0.021(8) -0.178(2) -0.6155(16)
#END
