
#######################################################################
#
#                 Cambridge Crystallographic Data Centre
#                                CCDC
#
#######################################################################
#
# If this CIF has been generated from an entry in the Cambridge
# Structural Database, then it will include bibliographic, chemical,
# crystal, experimental, refinement or atomic coordinate data resulting
# from the CCDC's data processing and validation procedures.
#
#######################################################################

data_CSD_CIF_XEKWIW
_audit_creation_date 2017-11-15
_audit_creation_method CSD-ConQuest-V1
_database_code_CSD XEKWIW
_database_code_depnum_ccdc_archive 'CCDC 1530000; not CCDC 1469530 as published'
_chemical_formula_sum 'C7 H4 N2 O3'
_chemical_formula_moiety
;
C7 H4 N2 O3
;
_journal_coden_Cambridge 1563
_journal_volume 9
_journal_year 2017
_journal_page_first 8
_journal_name_full 'Der Pharma Chemica: J. Med. Chem. Pharm. Chem. Comput. Chem '
loop_
_publ_author_name
"Hema MK"
"K.CS"
"K.Kumara"
"Mallesha"
"Mallu"
"L.NK"
_chemical_name_systematic
;
1-isocyanato-4-nitrobenzene
;
_chemical_name_common
;
4-nitrophenyl isocyanate
;
_cell_volume    731.093
_exptl_crystal_colour 'yellow'
_exptl_crystal_density_diffrn 1.491
_exptl_crystal_description 'rectangle'
_exptl_crystal_preparation 'dichloromethane'
_diffrn_ambient_temperature 293
#These two values have been output from a single CSD field.
_refine_ls_R_factor_gt 0.0621
_refine_ls_wR_factor_gt 0.0621
_symmetry_cell_setting monoclinic
_symmetry_space_group_name_H-M 'P 21/n'
_symmetry_Int_Tables_number 14
loop_
_symmetry_equiv_pos_site_id
_symmetry_equiv_pos_as_xyz
1 x,y,z
2 1/2-x,1/2+y,1/2-z
3 -x,-y,-z
4 -1/2+x,-1/2-y,-1/2+z
_cell_length_a 3.7123(11)
_cell_length_b 13.120(3)
_cell_length_c 15.041(4)
_cell_angle_alpha 90
_cell_angle_beta 93.648(15)
_cell_angle_gamma 90
_cell_formula_units_Z 4
loop_
_atom_type_symbol
_atom_type_radius_bond
C 0.68
H 0.23
N 0.68
O 0.68
loop_
_atom_site_label
_atom_site_type_symbol
_atom_site_fract_x
_atom_site_fract_y
_atom_site_fract_z
C1 C 0.0071(5) 0.69709(15) 0.79916(12)
H1 H -0.10010 0.67700 0.74440
C2 C 0.1210(4) 0.62634(14) 0.86146(12)
C3 C 0.0541(5) 0.79839(16) 0.81912(13)
H2 H -0.01820 0.84800 0.77760
N1 N 0.2614(6) 0.92836(15) 0.92419(14)
N2 N 0.0737(5) 0.51835(13) 0.84061(13)
C4 C 0.2094(5) 0.82615(16) 0.90136(13)
C5 C 0.2780(5) 0.65262(17) 0.94312(13)
H3 H 0.35280 0.60270 0.98420
C6 C 0.3226(6) 0.75378(17) 0.96311(13)
H4 H 0.42870 0.77350 1.01810
O1 O 0.1997(6) 0.45553(14) 0.89256(15)
O2 O 0.1202(6) 1.09539(15) 0.88129(13)
O3 O -0.0906(6) 0.49546(13) 0.77125(13)
C7 C 0.1808(7) 1.0105(2) 0.89779(16)
#END
