
#######################################################################
#
#                 Cambridge Crystallographic Data Centre
#                                CCDC
#
#######################################################################
#
# If this CIF has been generated from an entry in the Cambridge
# Structural Database, then it will include bibliographic, chemical,
# crystal, experimental, refinement or atomic coordinate data resulting
# from the CCDC's data processing and validation procedures.
#
#######################################################################

data_CSD_CIF_XELBOF
_audit_creation_date 2001-06-11
_audit_creation_method CSD-ConQuest-V1
_database_code_CSD XELBOF
_database_code_depnum_ccdc_archive 'CCDC 148164'
_chemical_formula_sum 'C15 H23 N1 O6'
_chemical_formula_moiety
;
C15 H23 N1 O6
;
_journal_coden_Cambridge 35
_journal_volume 65
_journal_year 2000
_journal_page_first 7000
_journal_name_full 'J.Org.Chem. '
loop_
_publ_author_name
"M.Carda"
"R.Portoles"
"J.Murga"
"S.Uriel"
"J.A.Marco"
"L.R.Domingo"
"R.J.Zaragoza"
"H.Roper"
_chemical_name_systematic
;
Ethyl 
(3aS)-3a-((4R)-2,2-dimethyl-1,3-dioxolan-4-yl)-6,6-dimethyl-3a,4-dihydro(1,3)o
xazolo(3,4-b)isoxazole-3-carboxylate
;
_chemical_melting_point 332.15
_cell_volume   1646.333
_exptl_crystal_colour 'colorless'
_exptl_crystal_density_diffrn 1.268
_exptl_special_details
;
Melting point range 332.15-333.15K

;
_exptl_crystal_description 'plates'
_exptl_crystal_preparation 'hexanes/diethyl ether'
_diffrn_ambient_temperature ?
_diffrn_special_details
;
The study was carried out at room temperature,in the range 283-303K

;
#These two values have been output from a single CSD field.
_refine_ls_R_factor_gt 0.064
_refine_ls_wR_factor_gt 0.064
_symmetry_cell_setting monoclinic
_symmetry_space_group_name_H-M 'P 21'
_symmetry_Int_Tables_number 4
loop_
_symmetry_equiv_pos_site_id
_symmetry_equiv_pos_as_xyz
1 x,y,z
2 -x,1/2+y,-z
_cell_length_a 6.5197(18)
_cell_length_b 16.955(5)
_cell_length_c 15.047(4)
_cell_angle_alpha 90
_cell_angle_beta 98.195(7)
_cell_angle_gamma 90
_cell_formula_units_Z 4
loop_
_atom_type_symbol
_atom_type_radius_bond
C 0.68
N 0.68
O 0.68
loop_
_atom_site_label
_atom_site_type_symbol
_atom_site_fract_x
_atom_site_fract_y
_atom_site_fract_z
N1 N -0.1196(9) 0.0216(4) 0.1287(4)
O1 O -0.1412(10) -0.0230(4) 0.4109(4)
C1 C -0.312(2) 0.0301(7) 0.5255(8)
O2 O -0.410(1) -0.1004(4) 0.3606(4)
C2 C -0.180(2) -0.0311(7) 0.5038(8)
O3 O -0.2944(8) -0.0350(4) 0.1062(4)
C3 C -0.2744(16) -0.0566(5) 0.3442(7)
O4 O 0.1626(7) -0.0623(3) 0.1683(4)
C4 C -0.2306(12) -0.0340(5) 0.2583(6)
C5 C -0.3459(13) -0.0617(5) 0.1846(7)
O5 O -0.2125(10) 0.2268(4) 0.2402(5)
C6 C 0.0642(11) -0.0151(5) 0.0957(6)
C7 C 0.0114(13) -0.0680(5) 0.0150(6)
C8 C 0.2017(12) 0.0534(5) 0.0748(6)
C9 C 0.1495(11) -0.0187(5) 0.2485(5)
C10 C -0.0670(11) 0.0204(5) 0.2303(5)
C11 C -0.0777(12) 0.1008(5) 0.2707(6)
O6 O 0.0745(8) 0.1497(3) 0.2407(4)
C12 C -0.2765(13) 0.1469(5) 0.2406(6)
C13 C 0.0616(15) 0.2719(6) 0.1633(7)
C14 C 0.0927(16) 0.2676(6) 0.3300(7)
C15 C 0.0108(14) 0.2298(5) 0.2434(6)
O7 O -0.1174(8) 0.2952(3) 0.6354(4)
N2 N 0.3051(9) 0.1736(4) 0.8691(4)
C16 C -0.3617(15) 0.2574(6) 0.5056(6)
O8 O 0.1237(9) 0.2210(4) 0.5827(4)
C17 C -0.2063(13) 0.3167(5) 0.5456(5)
C18 C 0.0452(12) 0.2466(5) 0.6443(6)
O9 O 0.1421(7) 0.2305(3) 0.8879(4)
C19 C 0.1181(11) 0.2263(5) 0.7380(5)
O10 O 0.5679(7) 0.2551(3) 0.8338(4)
O11 O 0.1431(10) -0.0327(4) 0.7527(5)
C20 C 0.0487(11) 0.2559(5) 0.8085(6)
O12 O 0.4345(8) 0.0414(3) 0.7547(4)
C21 C 0.5099(11) 0.2084(5) 0.9054(6)
C22 C 0.5034(12) 0.2624(5) 0.9852(5)
C23 C 0.6571(12) 0.1400(5) 0.9284(6)
C24 C 0.5076(12) 0.2129(5) 0.7547(5)
C25 C 0.3001(11) 0.1757(4) 0.7678(5)
C26 C 0.2601(12) 0.0920(5) 0.7287(5)
C27 C 0.0883(12) 0.0463(5) 0.7615(6)
C28 C 0.3654(15) -0.0370(5) 0.7620(7)
C29 C 0.4180(18) -0.0855(6) 0.6857(8)
C30 C 0.4498(17) -0.0682(6) 0.8518(7)
#END
