
#######################################################################
#
#                 Cambridge Crystallographic Data Centre
#                                CCDC
#
#######################################################################
#
# If this CIF has been generated from an entry in the Cambridge
# Structural Database, then it will include bibliographic, chemical,
# crystal, experimental, refinement or atomic coordinate data resulting
# from the CCDC's data processing and validation procedures.
#
#######################################################################

data_CSD_CIF_XELBIZ
_audit_creation_date 2001-06-11
_audit_creation_method CSD-ConQuest-V1
_database_code_CSD XELBIZ
_database_code_depnum_ccdc_archive 'CCDC 148163'
_chemical_formula_sum 'C16 H23 N1 O8'
_chemical_formula_moiety
;
C16 H23 N1 O8
;
_journal_coden_Cambridge 35
_journal_volume 65
_journal_year 2000
_journal_page_first 7000
_journal_name_full 'J.Org.Chem. '
loop_
_publ_author_name
"M.Carda"
"R.Portoles"
"J.Murga"
"S.Uriel"
"J.A.Marco"
"L.R.Domingo"
"R.J.Zaragoza"
"H.Roper"
_chemical_name_systematic
;
Dimethyl 
(3aS)-3a-((4R)-2,2-dimethyl-1,3-dioxolan-4-yl)-6,6-dimethyl-3a,4-dihydro(1,3)o
xazolo(3,4-b)isoxazole-2,3-dicarboxylate
;
_chemical_melting_point 356.15
_cell_volume    896.408
_exptl_crystal_colour 'colorless'
_exptl_special_details
;
Melting point range 356.15-357.15K

;
_exptl_crystal_description 'cubes'
_exptl_crystal_preparation 'hexanes/diethyl ether'
_diffrn_ambient_temperature ?
_diffrn_special_details
;
The study was carried out at room temperature,in the range 283-303K

;
#These two values have been output from a single CSD field.
_refine_ls_R_factor_gt 0.0389
_refine_ls_wR_factor_gt 0.0389
_symmetry_cell_setting monoclinic
_symmetry_space_group_name_H-M 'P 21'
_symmetry_Int_Tables_number 4
loop_
_symmetry_equiv_pos_site_id
_symmetry_equiv_pos_as_xyz
1 x,y,z
2 -x,1/2+y,-z
_cell_length_a 10.3280(12)
_cell_length_b 7.4864(8)
_cell_length_c 12.2107(14)
_cell_angle_alpha 90
_cell_angle_beta 108.294
_cell_angle_gamma 90
_cell_formula_units_Z 2
loop_
_atom_type_symbol
_atom_type_radius_bond
C 0.68
N 0.68
O 0.68
loop_
_atom_site_label
_atom_site_type_symbol
_atom_site_fract_x
_atom_site_fract_y
_atom_site_fract_z
O1 O 0.1917(2) -0.3039(3) 0.2545(2)
N1 N 0.1570(2) -0.0183(3) 0.1722(2)
C1 C 0.1245(3) -0.2132(4) 0.1488(3)
C2 C 0.1868(4) -0.2644(6) 0.0553(3)
C3 C -0.0245(4) -0.2585(6) 0.1143(4)
O2 O 0.0437(2) 0.0652(3) 0.2047(2)
C4 C 0.3164(3) -0.2120(4) 0.3022(3)
O3 O -0.0532(3) 0.3361(4) 0.3393(2)
C5 C 0.2784(3) -0.0144(4) 0.2793(2)
O4 O -0.0554(2) 0.0758(3) 0.4266(2)
C6 C 0.2215(2) 0.0660(4) 0.3689(2)
O5 O 0.4125(2) 0.0291(4) 0.5329(2)
C7 C 0.2996(3) 0.0879(5) 0.4901(2)
O6 O 0.2304(2) 0.1766(4) 0.5466(2)
C8 C 0.2911(4) 0.1899(7) 0.6710(3)
C9 C 0.0904(3) 0.1026(4) 0.3174(2)
O7 O 0.4374(4) 0.3384(4) 0.1607(3)
C10 C -0.0141(3) 0.1886(5) 0.3616(2)
O8 O 0.4360(2) 0.0343(3) 0.1714(2)
C11 C -0.1427(4) 0.1478(7) 0.4894(4)
C12 C 0.3938(3) 0.1013(4) 0.2646(3)
C13 C 0.3566(4) 0.2933(5) 0.2302(3)
C14 C 0.4822(3) 0.1826(5) 0.1201(3)
C15 C 0.6357(4) 0.1825(8) 0.1581(4)
C16 C 0.4227(4) 0.1696(6) -0.0085(3)
#END
