
#######################################################################
#
#                 Cambridge Crystallographic Data Centre
#                                CCDC
#
#######################################################################
#
# If this CIF has been generated from an entry in the Cambridge
# Structural Database, then it will include bibliographic, chemical,
# crystal, experimental, refinement or atomic coordinate data resulting
# from the CCDC's data processing and validation procedures.
#
#######################################################################

data_CSD_CIF_XELBUL
_audit_creation_date 2001-06-11
_audit_creation_method CSD-ConQuest-V1
_database_code_CSD XELBUL
_database_code_depnum_ccdc_archive 'CCDC 148165'
_chemical_formula_sum 'C13 H20 N2 O4'
_chemical_formula_moiety
;
C13 H20 N2 O4
;
_journal_coden_Cambridge 35
_journal_volume 65
_journal_year 2000
_journal_page_first 7000
_journal_name_full 'J.Org.Chem. '
loop_
_publ_author_name
"M.Carda"
"R.Portoles"
"J.Murga"
"S.Uriel"
"J.A.Marco"
"L.R.Domingo"
"R.J.Zaragoza"
"H.Roper"
_chemical_name_systematic
;
(2S,3aS)-3a-((4R)-2,2-Dimethyl-1,3-dioxolan-4-yl)-6,6-dimethylperhydro(1,3)oxa
zolo(3,4-b)isoxazole-2-carbonitrile
;
_chemical_melting_point 368.15
_cell_volume   1450.015
_exptl_crystal_colour 'colorless'
_exptl_crystal_density_diffrn 1.229
_exptl_special_details
;
Melting point range 368.15-369.15K

;
_exptl_crystal_description 'needles'
_exptl_crystal_preparation 'hexanes/diethyl ether'
_diffrn_ambient_temperature ?
_diffrn_special_details
;
The study was carried out at room temperature,in the range 283-303K

;
#These two values have been output from a single CSD field.
_refine_ls_R_factor_gt 0.0521
_refine_ls_wR_factor_gt 0.0521
loop_
_citation_database_id_CSD
_citation_special_details
XELCAS "is a stereoisomer of this entry"
_symmetry_cell_setting orthorhombic
_symmetry_space_group_name_H-M 'P 21 21 21'
_symmetry_Int_Tables_number 19
loop_
_symmetry_equiv_pos_site_id
_symmetry_equiv_pos_as_xyz
1 x,y,z
2 1/2-x,-y,1/2+z
3 1/2+x,1/2-y,-z
4 -x,1/2+y,1/2-z
_cell_length_a 10.1007(7)
_cell_length_b 10.4780(7)
_cell_length_c 13.7007(8)
_cell_angle_alpha 90
_cell_angle_beta 90
_cell_angle_gamma 90
_cell_formula_units_Z 4
loop_
_atom_type_symbol
_atom_type_radius_bond
C 0.68
N 0.68
O 0.68
loop_
_atom_site_label
_atom_site_type_symbol
_atom_site_fract_x
_atom_site_fract_y
_atom_site_fract_z
O1 O 0.0849(2) 0.6224(2) 0.7658(1)
N1 N -0.0270(2) 0.6323(2) 0.6989(1)
C1 C -0.1176(2) 0.7300(2) 0.7416(2)
C2 C -0.0451(3) 0.7816(3) 0.8321(2)
C3 C 0.0955(3) 0.7409(2) 0.8170(2)
C4 C 0.1669(3) 0.7132(3) 0.9078(2)
N2 N 0.2209(3) 0.6922(4) 0.9787(2)
C5 C 0.0175(3) 0.6837(3) 0.6030(2)
C6 C -0.0682(4) 0.6190(3) 0.5259(2)
C7 C 0.1616(4) 0.6679(5) 0.5833(3)
O2 O -0.0105(2) 0.8193(2) 0.6075(2)
C8 C -0.1298(3) 0.8307(3) 0.6614(2)
C9 C -0.2512(3) 0.6741(3) 0.7720(2)
O3 O -0.3293(2) 0.6462(2) 0.6889(2)
C10 C -0.4044(3) 0.5360(3) 0.7105(3)
C11 C -0.5287(4) 0.5705(6) 0.7682(5)
C12 C -0.4316(5) 0.4672(5) 0.6182(4)
O4 O -0.3178(2) 0.4616(2) 0.7694(2)
C13 C -0.2443(3) 0.5485(3) 0.8278(2)
#END
