
#######################################################################
#
#                 Cambridge Crystallographic Data Centre
#                                CCDC
#
#######################################################################
#
# If this CIF has been generated from an entry in the Cambridge
# Structural Database, then it will include bibliographic, chemical,
# crystal, experimental, refinement or atomic coordinate data resulting
# from the CCDC's data processing and validation procedures.
#
#######################################################################

data_CSD_CIF_XELCAS
_audit_creation_date 2001-06-11
_audit_creation_method CSD-ConQuest-V1
_database_code_CSD XELCAS
_database_code_depnum_ccdc_archive 'CCDC 148166'
_chemical_formula_sum 'C13 H20 N2 O4'
_chemical_formula_moiety
;
C13 H20 N2 O4
;
_journal_coden_Cambridge 35
_journal_volume 65
_journal_year 2000
_journal_page_first 7000
_journal_name_full 'J.Org.Chem. '
loop_
_publ_author_name
"M.Carda"
"R.Portoles"
"J.Murga"
"S.Uriel"
"J.A.Marco"
"L.R.Domingo"
"R.J.Zaragoza"
"H.Roper"
_chemical_name_systematic
;
(2R,3aR)-3a-((4R)-2,2-Dimethyl-1,3-dioxolan-4-yl)-6,6-dimethylperhydro(1,3)oxa
zolo(3,4-b)isoxazole-2-carbonitrile
;
_chemical_melting_point 356.15
_cell_volume   1386.274
_exptl_crystal_colour 'colorless'
_exptl_crystal_density_diffrn 1.286
_exptl_special_details
;
Melting point range 356.15-357.15K

;
_exptl_crystal_description 'needles'
_exptl_crystal_preparation 'hexanes/diethyl ether'
_diffrn_ambient_temperature ?
_diffrn_special_details
;
The study was carried out at room temperature,in the range 283-303K

;
#These two values have been output from a single CSD field.
_refine_ls_R_factor_gt 0.0435
_refine_ls_wR_factor_gt 0.0435
loop_
_citation_database_id_CSD
_citation_special_details
XELBUL "is a stereoisomer of this entry"
_symmetry_cell_setting orthorhombic
_symmetry_space_group_name_H-M 'P 21 21 21'
_symmetry_Int_Tables_number 19
loop_
_symmetry_equiv_pos_site_id
_symmetry_equiv_pos_as_xyz
1 x,y,z
2 1/2-x,-y,1/2+z
3 1/2+x,1/2-y,-z
4 -x,1/2+y,1/2-z
_cell_length_a 5.7869(1)
_cell_length_b 8.3038(1)
_cell_length_c 28.8487(7)
_cell_angle_alpha 90
_cell_angle_beta 90
_cell_angle_gamma 90
_cell_formula_units_Z 4
loop_
_atom_type_symbol
_atom_type_radius_bond
C 0.68
N 0.68
O 0.68
loop_
_atom_site_label
_atom_site_type_symbol
_atom_site_fract_x
_atom_site_fract_y
_atom_site_fract_z
O1 O 0.5263(2) 0.1997(2) 0.9591(1)
N1 N 0.5872(3) 0.1848(2) 0.9090(1)
C1 C 0.8013(3) 0.0824(2) 0.9073(1)
C2 C 0.8392(3) 0.0275(3) 0.9577(1)
C3 C 0.6086(4) 0.0572(2) 0.9801(1)
C4 C 0.4442(4) -0.0778(3) 0.9731(1)
N2 N 0.3212(3) -0.1834(3) 0.9682(1)
C5 C 0.6626(3) 0.3476(2) 0.8940(1)
C6 C 0.6159(5) 0.3598(3) 0.8423(1)
C7 C 0.5476(5) 0.4849(3) 0.9193(1)
O2 O 0.9061(3) 0.3531(2) 0.9035(1)
C8 C 0.9902(4) 0.1984(3) 0.8908(1)
C9 C 0.7629(3) -0.0627(2) 0.8761(1)
O3 O 0.7082(3) -0.0127(2) 0.8301(1)
C10 C 0.7816(4) -0.1357(2) 0.7987(1)
C11 C 0.9217(7) -0.0582(4) 0.7610(1)
C12 C 0.5762(6) -0.2245(3) 0.7800(1)
O4 O 0.9174(3) -0.2450(2) 0.8251(1)
C13 C 0.9707(4) -0.1698(3) 0.8681(1)
#END
