
#######################################################################
#
#                 Cambridge Crystallographic Data Centre
#                                CCDC
#
#######################################################################
#
# If this CIF has been generated from an entry in the Cambridge
# Structural Database, then it will include bibliographic, chemical,
# crystal, experimental, refinement or atomic coordinate data resulting
# from the CCDC's data processing and validation procedures.
#
#######################################################################

data_CSD_CIF_XELDUO
_audit_creation_date 2006-10-31
_audit_creation_method CSD-ConQuest-V1
_database_code_CSD XELDUO
_database_code_depnum_ccdc_archive 'CCDC 619230'
_chemical_formula_sum 'C15 H18 N4 O6'
_chemical_formula_moiety
;
C15 H18 N4 O6
;
_journal_coden_Cambridge 1336
_journal_volume 8
_journal_year 2006
_journal_page_first 2635
_journal_name_full 'Org.Lett. '
loop_
_publ_author_name
"L.A.Paquette"
"D.G.Hilmey"
"J.C.Gallucci"
_chemical_name_systematic
;
2,2'-bi(tetrahydrofuran)-2-carbaldehyde 2,4-dinitrophenylhydrazone
;
_chemical_melting_point 436.15
_cell_volume   1599.590
_exptl_crystal_colour 'yellow'
_exptl_crystal_density_diffrn 1.455
_exptl_special_details
;
Melting point range 436.15-437.15K

;
_exptl_crystal_description 'rectangular plate'
_diffrn_ambient_temperature 150
_refine_special_details
;
The disorder model contains two superimposed enantiomers with the disordered 
atoms refined over two sites with occupancies 0.526:0.474 and 0.63:0.37.
;
#These two values have been output from a single CSD field.
_refine_ls_R_factor_gt 0.0456
_refine_ls_wR_factor_gt 0.0456
_symmetry_cell_setting monoclinic
_symmetry_space_group_name_H-M 'P 21'
_symmetry_Int_Tables_number 4
loop_
_symmetry_equiv_pos_site_id
_symmetry_equiv_pos_as_xyz
1 x,y,z
2 -x,1/2+y,-z
_cell_length_a 10.342(1)
_cell_length_b 7.731(1)
_cell_length_c 20.344(3)
_cell_angle_alpha 90
_cell_angle_beta 100.453(1)
_cell_angle_gamma 90
_cell_formula_units_Z 4
loop_
_atom_type_symbol
_atom_type_radius_bond
C 0.68
H 0.23
N 0.68
O 0.68
loop_
_atom_site_label
_atom_site_type_symbol
_atom_site_fract_x
_atom_site_fract_y
_atom_site_fract_z
O1 O 0.3022(2) 0.3205(3) 0.0333(1)
O2 O 0.3459(2) 0.6201(3) -0.0438(1)
O3 O 0.8181(2) 0.1402(3) -0.0818(1)
O4 O 0.9216(2) -0.0695(4) -0.1197(1)
O5 O 0.7512(2) -0.3337(3) -0.3258(1)
O6 O 0.5459(3) -0.3037(4) -0.3708(1)
N1 N 0.4245(6) 0.1769(9) -0.1056(4)
N2? N 0.4422(8) 0.2412(11) -0.1229(4)
N3 N 0.5580(2) 0.1492(3) -0.1141(1)
N4 N 0.8224(2) 0.0167(4) -0.1196(1)
N5 N 0.6406(3) -0.2757(4) -0.3256(1)
C1 C 0.2808(6) 0.3236(8) -0.0407(3)
C2? C 0.2226(8) 0.3649(11) -0.0284(4)
C3 C 0.1654(3) 0.1914(5) -0.0594(2)
C4 C 0.1677(4) 0.0811(6) 0.0028(2)
C5 C 0.2856(4) 0.1423(5) 0.0485(2)
C6 C 0.2351(6) 0.5046(8) -0.0625(3)
C7? C 0.3050(7) 0.4460(9) -0.0745(3)
C8 C 0.2128(4) 0.5065(5) -0.1408(2)
C9 C 0.3059(6) 0.6419(8) -0.1635(2)
C10? C 0.2300(6) 0.7038(7) -0.1516(3)
C11 C 0.3513(4) 0.7354(5) -0.0974(2)
C12 C 0.4131(6) 0.280(1) -0.0581(3)
C13? C 0.4290(8) 0.3355(11) -0.0734(4)
C14 C 0.5806(3) 0.0467(4) -0.1644(1)
C15 C 0.7042(3) -0.0242(4) -0.1682(1)
C16 C 0.7229(3) -0.1336(4) -0.2196(2)
C17 C 0.6185(3) -0.1690(4) -0.2698(1)
C18 C 0.4950(3) -0.1003(4) -0.2688(2)
C19 C 0.4754(3) 0.0049(5) -0.2175(2)
O7 O 1.1653(2) -0.0105(3) 0.5438(1)
O8 O 1.1053(2) 0.2933(3) 0.6189(1)
O9 O 0.8777(2) 0.4191(3) 0.3100(1)
O10 O 0.8431(2) 0.6068(4) 0.2305(1)
O11 O 1.1735(3) 0.9656(4) 0.1760(1)
O12 O 1.3754(3) 0.9379(3) 0.2281(1)
N6 N 1.1719(6) 0.4321(9) 0.4644(3)
N7? N 1.1821(12) 0.3647(17) 0.4509(6)
N8 N 1.0905(2) 0.4491(4) 0.4028(1)
N9 N 0.9150(2) 0.5398(4) 0.2779(1)
N10 N 1.2574(3) 0.9038(4) 0.2202(2)
C20 C 1.2586(5) 0.1081(8) 0.5741(3)
C21? C 1.2322(6) 0.1638(12) 0.5446(5)
C22 C 1.3720(3) 0.1065(5) 0.5347(2)
C23 C 1.3534(3) -0.0676(6) 0.4991(2)
C24 C 1.2115(4) -0.0959(6) 0.4900(2)
C25 C 1.2022(4) 0.2907(6) 0.5727(3)
C26? C 1.2337(10) 0.2555(13) 0.6118(7)
C27 C 1.3050(3) 0.4258(5) 0.6068(2)
C28 C 1.2250(5) 0.5525(7) 0.6381(3)
C29 C 1.1082(4) 0.4607(5) 0.6494(2)
C30 C 1.1253(7) 0.3336(11) 0.5049(3)
C31? C 1.1398(11) 0.2627(19) 0.4906(6)
C32 C 1.1301(3) 0.5542(4) 0.3569(1)
C33 C 1.0477(3) 0.6038(4) 0.2968(1)
C34 C 1.0894(3) 0.7196(4) 0.2528(1)
C35 C 1.2148(3) 0.7828(4) 0.2673(2)
C36 C 1.3007(3) 0.7333(5) 0.3245(2)
C37 C 1.2593(3) 0.6220(4) 0.3684(1)
H1 H 0.62120 0.15970 -0.07340
H2? H 0.15040 0.44490 -0.02130
H3 H 0.08030 0.25260 -0.07140
H4 H 0.17870 0.11880 -0.09760
H5? H 0.07480 0.20620 -0.08460
H6? H 0.22120 0.14110 -0.08920
H7 H 0.08760 0.09990 0.02210
H8 H 0.17490 -0.04330 -0.00740
H9 H 0.27420 0.12930 0.09550
H10 H 0.36360 0.07460 0.04200
H11 H 0.15570 0.54170 -0.04450
H12 H 0.23120 0.39060 -0.15760
H13 H 0.12020 0.53640 -0.15930
H14? H 0.23490 0.44180 -0.17930
H15? H 0.12010 0.48150 -0.13810
H16 H 0.38010 0.58660 -0.18010
H17 H 0.25850 0.72030 -0.19820
H18? H 0.24730 0.72980 -0.19680
H19? H 0.15300 0.77090 -0.14340
H20 H 0.44240 0.77770 -0.09500
H21 H 0.29390 0.83640 -0.09430
H22? H 0.43240 0.71500 -0.11570
H23? H 0.35210 0.85650 -0.08150
H24 H 0.48870 0.33690 -0.02890
H25 H 0.80670 -0.18340 -0.22010
H26 H 0.42370 -0.12650 -0.30380
H27 H 0.39030 0.05080 -0.21720
H28 H 1.00380 0.41280 0.40100
H29 H 1.29210 0.07250 0.62140
H30 H 1.36420 0.20330 0.50230
H31 H 1.45840 0.11320 0.56490
H32? H 1.40970 0.19220 0.50730
H33? H 1.43170 0.09490 0.57840
H34 H 1.38310 -0.06280 0.45550
H35 H 1.40220 -0.16010 0.52670
H36 H 1.16750 -0.04780 0.44660
H37 H 1.19220 -0.22120 0.49060
H38? H 1.27960 0.18400 0.64990
H39 H 1.37240 0.37020 0.64110
H40 H 1.34920 0.48340 0.57340
H41? H 1.39660 0.42060 0.63170
H42? H 1.30600 0.45630 0.55970
H43 H 1.27580 0.59550 0.68100
H44 H 1.20020 0.65250 0.60810
H45 H 1.10970 0.44830 0.69790
H46 H 1.02840 0.52670 0.62970
H47 H 1.03770 0.25760 0.49280
H48 H 1.03170 0.75430 0.21320
H49 H 1.38810 0.77660 0.33310
H50 H 1.31880 0.58920 0.40770
#END
