
#######################################################################
#
#                 Cambridge Crystallographic Data Centre
#                                CCDC
#
#######################################################################
#
# If this CIF has been generated from an entry in the Cambridge
# Structural Database, then it will include bibliographic, chemical,
# crystal, experimental, refinement or atomic coordinate data resulting
# from the CCDC's data processing and validation procedures.
#
#######################################################################

data_CSD_CIF_XELYUK
_audit_creation_date 2012-12-31
_audit_creation_method CSD-ConQuest-V1
_database_code_CSD XELYUK
_database_code_depnum_ccdc_archive 'CCDC 871400'
_chemical_formula_sum 'C21 H33 N2 O4'
_chemical_formula_moiety
;
C21 H33 N2 O4
;
_journal_coden_Cambridge 95
_journal_year 2011
_journal_page_first 2280
_journal_name_full 'Izv.Akad.Nauk SSSR,Ser.Khim.(Russ.)(Russ.Chem.Bull.) '
loop_
_publ_author_name
"E.V.Tret'yakov"
"S.E.Tolstikov"
"G.V.Romanenko"
"A.S.Bogomyakov"
"V.K.Cherkasov"
"D.V.Stas'"
"V.I.Ovcharenko"
_chemical_name_systematic
;
2-(3,6-Di-t-butyl-7-oxo-6,7-dihydrooxepin-2-yl)-4,4,5,5-tetramethyl-4,5-dihydr
o-1H-imidazol-3-oxide-1-oxyl
;
_chemical_melting_point 431.15
_cell_volume   4410.864
_exptl_crystal_colour 'crimson'
_exptl_crystal_density_diffrn 1.137
_exptl_special_details
;
Melting point range 431.15-432.15K

;
_exptl_crystal_description 'bulk'
_diffrn_ambient_temperature 240
#These two values have been output from a single CSD field.
_refine_ls_R_factor_gt 0.0439
_refine_ls_wR_factor_gt 0.0439
_symmetry_cell_setting orthorhombic
_symmetry_space_group_name_H-M 'P b c a'
_symmetry_Int_Tables_number 61
loop_
_symmetry_equiv_pos_site_id
_symmetry_equiv_pos_as_xyz
1 x,y,z
2 1/2-x,-y,1/2+z
3 -x,1/2+y,1/2-z
4 1/2+x,1/2-y,-z
5 -x,-y,-z
6 -1/2+x,y,-1/2-z
7 x,-1/2-y,-1/2+z
8 -1/2-x,-1/2+y,z
_cell_length_a 10.3434(13)
_cell_length_b 12.3847(16)
_cell_length_c 34.433(5)
_cell_angle_alpha 90
_cell_angle_beta 90
_cell_angle_gamma 90
_cell_formula_units_Z 8
loop_
_atom_type_symbol
_atom_type_radius_bond
C 0.68
H 0.23
N 0.68
O 0.68
loop_
_atom_site_label
_atom_site_type_symbol
_atom_site_fract_x
_atom_site_fract_y
_atom_site_fract_z
O1 O 0.21284(14) 0.30876(11) 0.31219(4)
N1 N 0.17974(16) 0.37445(12) 0.33900(5)
C1 C 0.25338(19) 0.47743(16) 0.34665(6)
O2 O -0.02330(14) 0.47148(12) 0.40913(5)
N2 N 0.06747(15) 0.45405(13) 0.38465(5)
C2 C 0.3973(3) 0.4540(3) 0.34660(12)
H1 H 0.418(3) 0.433(2) 0.3189(9)
H2 H 0.402(3) 0.404(2) 0.3721(8)
H3 H 0.445(2) 0.517(2) 0.3532(8)
O3 O 0.01087(12) 0.22532(11) 0.39649(4)
C3 C 0.2182(4) 0.5522(2) 0.31275(9)
H4 H 0.241(2) 0.518(2) 0.2875(8)
H5 H 0.272(2) 0.615(2) 0.3148(8)
H6 H 0.105(3) 0.568(2) 0.3159(8)
O4 O -0.02614(15) 0.16042(13) 0.45496(5)
C4 C 0.1940(2) 0.51287(16) 0.38578(6)
C5 C 0.1712(3) 0.6320(2) 0.39115(11)
H7 H 0.104(3) 0.651(2) 0.3613(8)
H8 H 0.250(2) 0.6673(16) 0.3908(6)
H9 H 0.140(2) 0.6378(18) 0.4178(7)
C6 C 0.2667(3) 0.4666(3) 0.42142(8)
H10 H 0.211(3) 0.478(2) 0.4477(9)
H11 H 0.359(3) 0.5043(19) 0.4237(7)
H12 H 0.289(2) 0.381(2) 0.4149(7)
C7 C 0.07031(19) 0.37084(15) 0.35961(6)
C8 C -0.02432(19) 0.28231(16) 0.36260(6)
C9 C -0.0711(2) 0.20800(17) 0.42803(7)
C10 C -0.20698(19) 0.24754(18) 0.42147(6)
H13 H -0.1951(16) 0.3203(14) 0.4089(5)
C11 C -0.2900(2) 0.26345(16) 0.45815(6)
C12 C -0.3238(3) 0.1577(2) 0.47840(9)
H14 H -0.376(2) 0.110(2) 0.4629(7)
H15 H -0.373(2) 0.1726(16) 0.5029(7)
H16 H -0.242(2) 0.1165(19) 0.4860(7)
C13 C -0.2183(3) 0.3368(3) 0.48678(9)
H17 H -0.277(2) 0.3585(17) 0.5083(7)
H18 H -0.188(2) 0.400(2) 0.4756(8)
H19 H -0.139(2) 0.3051(18) 0.4968(7)
C14 C -0.4137(3) 0.3215(3) 0.44559(10)
H20 H -0.453(2) 0.2781(19) 0.4250(7)
H21 H -0.383(2) 0.3909(19) 0.4317(6)
H22 H -0.477(3) 0.3372(19) 0.4676(8)
C15 C -0.2561(2) 0.17097(19) 0.39111(7)
H23 H -0.3167(19) 0.1205(16) 0.3991(6)
C16 C -0.2142(2) 0.17246(19) 0.35498(8)
H24 H -0.248(2) 0.1206(18) 0.3359(7)
C17 C -0.1235(2) 0.25422(17) 0.34003(6)
C18 C -0.1554(2) 0.3003(2) 0.29977(6)
C19 C -0.1186(5) 0.2133(4) 0.26994(10)
H25 H -0.141(2) 0.238(2) 0.2456(9)
H26 H -0.167(3) 0.149(3) 0.2752(9)
H27 H -0.018(4) 0.197(3) 0.2713(10)
C20 C -0.3000(3) 0.3270(4) 0.29786(13)
H28 H -0.316(3) 0.387(3) 0.3200(11)
H29 H -0.343(3) 0.253(2) 0.3022(8)
H30 H -0.312(3) 0.361(2) 0.2741(9)
C21 C -0.0818(3) 0.4026(3) 0.28967(9)
H31 H -0.093(2) 0.458(2) 0.3099(8)
H32 H -0.112(2) 0.4302(17) 0.2647(7)
H33 H 0.014(3) 0.386(2) 0.2870(7)
#END
