
#######################################################################
#
#                 Cambridge Crystallographic Data Centre
#                                CCDC
#
#######################################################################
#
# If this CIF has been generated from an entry in the Cambridge
# Structural Database, then it will include bibliographic, chemical,
# crystal, experimental, refinement or atomic coordinate data resulting
# from the CCDC's data processing and validation procedures.
#
#######################################################################

data_CSD_CIF_XELZAR
_audit_creation_date 2012-12-31
_audit_creation_method CSD-ConQuest-V1
_database_code_CSD XELZAR
_database_code_depnum_ccdc_archive 'CCDC 874779'
_chemical_formula_sum 'C21 H31 N2 O4'
_chemical_formula_moiety
;
C21 H31 N2 O4
;
_journal_coden_Cambridge 95
_journal_year 2011
_journal_page_first 2280
_journal_name_full 'Izv.Akad.Nauk SSSR,Ser.Khim.(Russ.)(Russ.Chem.Bull.) '
loop_
_publ_author_name
"E.V.Tret'yakov"
"S.E.Tolstikov"
"G.V.Romanenko"
"A.S.Bogomyakov"
"V.K.Cherkasov"
"D.V.Stas'"
"V.I.Ovcharenko"
_chemical_name_systematic
;
2-(2,5-Di-t-butyl-3,4-dioxocyclohexa-1,5-dienyl)-4,4,5,5-tetramethyl-4,5-dihyd
ro-1H-imidazol-3-oxide-1-oxyl
;
_chemical_melting_point 477.15
_cell_volume   1020.678
_exptl_crystal_colour 'red-brown'
_exptl_crystal_density_diffrn 1.222
_exptl_special_details
;
Melting point range 477.15-479.15K

;
_exptl_crystal_description 'needle'
_diffrn_ambient_temperature 240
#These two values have been output from a single CSD field.
_refine_ls_R_factor_gt 0.0438
_refine_ls_wR_factor_gt 0.0438
_symmetry_cell_setting monoclinic
_symmetry_space_group_name_H-M 'P 21/m'
_symmetry_Int_Tables_number 11
loop_
_symmetry_equiv_pos_site_id
_symmetry_equiv_pos_as_xyz
1 x,y,z
2 -x,1/2+y,-z
3 -x,-y,-z
4 x,-1/2-y,z
_cell_length_a 9.5529(16)
_cell_length_b 10.1119(18)
_cell_length_c 11.436(2)
_cell_angle_alpha 90
_cell_angle_beta 112.490(12)
_cell_angle_gamma 90
_cell_formula_units_Z 2
loop_
_atom_type_symbol
_atom_type_radius_bond
C 0.68
H 0.23
N 0.68
O 0.68
loop_
_atom_site_label
_atom_site_type_symbol
_atom_site_fract_x
_atom_site_fract_y
_atom_site_fract_z
O1 O 0.3287(2) 0.25000 0.72252(17)
C1 C 0.4227(3) 0.25000 0.6749(3)
C2 C 0.3842(3) 0.25000 0.5350(2)
C3 C 0.2166(3) 0.25000 0.4493(3)
C4 C 0.1419(3) 0.1248(3) 0.4764(3)
H1 H 0.145(3) 0.121(2) 0.567(2)
H2 H 0.031(3) 0.127(2) 0.418(2)
H3 H 0.190(2) 0.045(2) 0.4619(19)
C5 C 0.1889(4) 0.25000 0.3089(3)
H4 H 0.080(3) 0.25000 0.262(3)
H5 H 0.236(3) 0.165(2) 0.283(2)
C6 C 0.5052(3) 0.25000 0.5021(2)
C7 C 0.5014(3) 0.25000 0.3714(2)
N1 N 0.51343(17) 0.14255(16) 0.30900(14)
O2 O 0.5019(2) 0.02390(14) 0.34255(14)
C8 C 0.5366(2) 0.17249(17) 0.18932(17)
C9 C 0.6852(3) 0.1094(3) 0.2008(3)
H6 H 0.708(2) 0.129(2) 0.128(2)
H7 H 0.774(3) 0.144(2) 0.286(2)
H8 H 0.677(2) 0.013(2) 0.2096(19)
C10 C 0.4069(3) 0.1108(3) 0.0806(2)
H9 H 0.416(2) 0.1369(18) -0.0039(18)
H10 H 0.310(2) 0.142(2) 0.0795(19)
H11 H 0.420(2) 0.018(2) 0.0895(18)
C11 C 0.6629(3) 0.25000 0.5940(3)
H12 H 0.733(2) 0.25000 0.553(2)
C12 C 0.7116(3) 0.25000 0.7198(2)
C13 C 0.8773(3) 0.25000 0.8094(2)
C14 C 0.9818(4) 0.25000 0.7357(4)
H13 H 1.092(3) 0.25000 0.807(2)
H14 H 0.965(2) 0.165(3) 0.678(2)
C15 C 0.9116(3) 0.1260(3) 0.8924(3)
H15 H 1.021(3) 0.129(2) 0.9472(19)
H16 H 0.854(3) 0.131(2) 0.950(2)
H17 H 0.886(3) 0.044(3) 0.838(3)
C16 C 0.5908(3) 0.25000 0.7692(3)
O3 O 0.6129(2) 0.25000 0.88209(18)
C4C C 0.1419(3) 0.3752(3) 0.4764(3)
H1C H 0.145(3) 0.379(2) 0.567(2)
H2C H 0.031(3) 0.373(2) 0.418(2)
H3C H 0.190(2) 0.455(2) 0.4619(19)
H5C H 0.236(3) 0.335(2) 0.283(2)
N1C N 0.51343(17) 0.35745(16) 0.30900(14)
O2C O 0.5019(2) 0.47610(14) 0.34255(14)
C8C C 0.5366(2) 0.32751(17) 0.18932(17)
C9C C 0.6852(3) 0.3906(3) 0.2008(3)
H6C H 0.708(2) 0.371(2) 0.128(2)
H7C H 0.774(3) 0.356(2) 0.286(2)
H8C H 0.677(2) 0.487(2) 0.2096(19)
C10C C 0.4069(3) 0.3892(3) 0.0806(2)
H9C H 0.416(2) 0.3631(18) -0.0039(18)
H10C H 0.310(2) 0.358(2) 0.0795(19)
H11C H 0.420(2) 0.482(2) 0.0895(18)
H14C H 0.965(2) 0.335(3) 0.678(2)
C15C C 0.9116(3) 0.3740(3) 0.8924(3)
H15C H 1.021(3) 0.371(2) 0.9472(19)
H16C H 0.854(3) 0.369(2) 0.950(2)
H17C H 0.886(3) 0.456(3) 0.838(3)
#END
