
#######################################################################
#
#                 Cambridge Crystallographic Data Centre
#                                CCDC
#
#######################################################################
#
# If this CIF has been generated from an entry in the Cambridge
# Structural Database, then it will include bibliographic, chemical,
# crystal, experimental, refinement or atomic coordinate data resulting
# from the CCDC's data processing and validation procedures.
#
#######################################################################

data_CSD_CIF_XENCAV
_audit_creation_date 2006-10-31
_audit_creation_method CSD-ConQuest-V1
_database_code_CSD XENCAV
_database_code_depnum_ccdc_archive 'CCDC 621342'
_chemical_formula_sum 'C8 H8 N4 O4'
_chemical_formula_moiety
;
C8 H8 N4 O4
;
_journal_coeditor_code "IUCr HG2070"
_journal_coden_Cambridge 1370
_journal_volume 62
_journal_year 2006
_journal_page_first o3625
_journal_name_full 'Acta Crystallogr.,Sect.E:Struct.Rep.Online '
loop_
_publ_author_name
"Zhi-Gang Yin"
"Heng-Yu Qian"
"Jia Jia"
"Sheng-Min Liu"
"Ling-Qin Feng"
_chemical_name_systematic
;
Acetaldehyde 2,4-dinitrophenylhydrazone
;
_cell_volume   1025.600
_exptl_crystal_colour 'yellow'
_exptl_crystal_density_diffrn 1.452
_exptl_crystal_description 'block'
_exptl_crystal_preparation 'dichloromethane'
_diffrn_ambient_temperature 298
#These two values have been output from a single CSD field.
_refine_ls_R_factor_gt 0.0417
_refine_ls_wR_factor_gt 0.0417
_symmetry_cell_setting monoclinic
_symmetry_space_group_name_H-M 'P 21/c'
_symmetry_Int_Tables_number 14
loop_
_symmetry_equiv_pos_site_id
_symmetry_equiv_pos_as_xyz
1 x,y,z
2 -x,1/2+y,1/2-z
3 -x,-y,-z
4 x,-1/2-y,-1/2+z
_cell_length_a 5.353(1)
_cell_length_b 10.872(2)
_cell_length_c 17.725(3)
_cell_angle_alpha 90
_cell_angle_beta 96.160(4)
_cell_angle_gamma 90
_cell_formula_units_Z 4
loop_
_atom_type_symbol
_atom_type_radius_bond
C 0.68
H 0.23
N 0.68
O 0.68
loop_
_atom_site_label
_atom_site_type_symbol
_atom_site_fract_x
_atom_site_fract_y
_atom_site_fract_z
O1 O 1.0387(4) 0.71714(18) 0.25089(12)
O2 O 0.7968(4) 0.58125(17) 0.29564(11)
O3 O 0.1840(3) 0.70454(13) 0.45230(9)
O4 O 0.1116(3) 0.89524(13) 0.47687(8)
N1 N 0.2253(3) 0.81436(18) 0.44493(10)
N2 N 0.8626(4) 0.6876(2) 0.28634(12)
N3 N 0.3401(3) 1.07261(16) 0.41126(10)
N4 N 0.4084(4) 1.19253(17) 0.39546(10)
C1 C 0.4647(4) 0.97750(19) 0.38321(11)
C2 C 0.4158(4) 0.85239(18) 0.39675(11)
C3 C 0.5433(4) 0.75829(19) 0.36465(12)
H1 H 0.50560 0.67650 0.37370
C4 C 0.7260(4) 0.7882(2) 0.31932(13)
C5 C 0.7848(4) 0.9089(2) 0.30518(12)
H2 H 0.91090 0.92680 0.27460
C6 C 0.6586(4) 1.0021(2) 0.33586(12)
H3 H 0.69950 1.08310 0.32580
C7 C 0.2675(6) 1.2753(2) 0.41693(14)
H4 H 0.12710 1.25290 0.44040
C8 C 0.3196(6) 1.40763(19) 0.40577(15)
H5 H 0.46750 1.41610 0.38000
H6 H 0.34560 1.44780 0.45420
H7 H 0.17930 1.44460 0.37590
H8 H 0.217(3) 1.0512(18) 0.4393(10)
#END
