
#######################################################################
#
#                 Cambridge Crystallographic Data Centre
#                                CCDC
#
#######################################################################
#
# If this CIF has been generated from an entry in the Cambridge
# Structural Database, then it will include bibliographic, chemical,
# crystal, experimental, refinement or atomic coordinate data resulting
# from the CCDC's data processing and validation procedures.
#
#######################################################################

data_CSD_CIF_XENPUD
_audit_creation_date 2013-03-18
_audit_creation_method CSD-ConQuest-V1
_database_code_CSD XENPUD
_database_code_depnum_ccdc_archive 'CCDC 906040'
_chemical_formula_sum 'C29 H35 N3 O6'
_chemical_formula_moiety
;
C29 H35 N3 O6
;
_journal_coden_Cambridge 182
_journal_volume 49
_journal_year 2013
_journal_page_first 579
_journal_name_full 'Chem.Commun. '
loop_
_publ_author_name
"B.P.Waldron"
"D.Parker"
"C.Burchardt"
"D.S.Yufit"
"M.Zimny"
"F.Roesch"
_chemical_name_systematic
;
1,4-bis(2,4-dimethoxybenzyl)-6-nitro-6-phenyl-1,4-diazepane
;
_cell_volume   2616.017
_exptl_crystal_colour 'light colorless'
_exptl_crystal_density_diffrn 1.324
_exptl_crystal_description 'block'
_diffrn_ambient_temperature 120
#These two values have been output from a single CSD field.
_refine_ls_R_factor_gt 0.0478
_refine_ls_wR_factor_gt 0.0478
_symmetry_cell_setting monoclinic
_symmetry_space_group_name_H-M 'P 21/n'
_symmetry_Int_Tables_number 14
loop_
_symmetry_equiv_pos_site_id
_symmetry_equiv_pos_as_xyz
1 x,y,z
2 1/2-x,1/2+y,1/2-z
3 -x,-y,-z
4 -1/2+x,-1/2-y,-1/2+z
_cell_length_a 8.8932(2)
_cell_length_b 19.1927(5)
_cell_length_c 15.3402(3)
_cell_angle_alpha 90
_cell_angle_beta 92.411(2)
_cell_angle_gamma 90
_cell_formula_units_Z 4
loop_
_atom_type_symbol
_atom_type_radius_bond
C 0.68
H 0.23
N 0.68
O 0.68
loop_
_atom_site_label
_atom_site_type_symbol
_atom_site_fract_x
_atom_site_fract_y
_atom_site_fract_z
O1 O -0.05947(11) 0.61761(5) 0.53340(7)
O2 O 0.24345(11) 0.44626(5) 0.68062(6)
O3 O 0.20162(12) 0.55719(6) -0.06435(6)
O4 O 0.72968(12) 0.62329(6) -0.02479(7)
O5 O 0.06091(13) 0.85470(5) 0.22741(7)
O6 O 0.02617(13) 0.78915(6) 0.11390(7)
N1 N 0.12903(12) 0.66907(6) 0.36744(7)
N2 N 0.11858(12) 0.64745(6) 0.17535(7)
N3 N 0.02619(13) 0.79890(6) 0.19278(7)
C1 C 0.23572(16) 0.62455(7) 0.32253(9)
C2 C 0.17559(16) 0.59414(7) 0.23646(9)
C3 C -0.02976(15) 0.67186(7) 0.19956(9)
C4 C -0.01807(15) 0.73885(7) 0.25311(8)
C5 C 0.11269(15) 0.73690(7) 0.32353(9)
C6 C 0.18474(17) 0.68211(7) 0.45871(8)
C7 C 0.20147(15) 0.61752(7) 0.51425(8)
C8 C 0.07610(15) 0.58660(7) 0.55245(8)
C9 C 0.09427(15) 0.52906(7) 0.60689(8)
C10 C 0.23855(15) 0.50216(7) 0.62522(8)
C11 C 0.36345(16) 0.53165(7) 0.58867(9)
C12 C 0.34163(15) 0.58891(7) 0.53373(9)
C13 C -0.18786(17) 0.59002(9) 0.57423(10)
C14 C 0.38773(18) 0.41606(9) 0.69915(10)
C15 C 0.12464(15) 0.62506(7) 0.08417(8)
C16 C 0.28487(15) 0.62574(7) 0.05370(8)
C17 C 0.32076(15) 0.58970(7) -0.02202(8)
C18 C 0.46783(16) 0.58749(7) -0.05096(9)
C19 C 0.58095(16) 0.62289(7) -0.00328(9)
C20 C 0.54718(16) 0.66111(8) 0.07027(9)
C21 C 0.40060(16) 0.66204(7) 0.09761(9)
C22 C 0.2296(2) 0.52022(9) -0.14274(10)
C23 C 0.77405(19) 0.57628(9) -0.09119(11)
C24 C -0.17001(15) 0.75721(7) 0.28897(8)
C25 C -0.20520(16) 0.73425(8) 0.37187(9)
C26 C -0.34606(17) 0.74831(8) 0.40416(10)
C27 C -0.45273(17) 0.78467(8) 0.35437(10)
C28 C -0.41910(18) 0.80686(8) 0.27134(11)
C29 C -0.27862(16) 0.79335(8) 0.23847(10)
H1 H 0.2657(17) 0.5857(8) 0.362(1)
H2 H 0.3316(19) 0.6513(9) 0.3115(11)
H3 H 0.0977(18) 0.5568(8) 0.2473(10)
H4 H 0.2609(18) 0.5700(8) 0.2104(11)
H5 H -0.0826(18) 0.6378(8) 0.2366(10)
H6 H -0.0975(19) 0.6811(8) 0.1469(11)
H7 H 0.0930(18) 0.7715(8) 0.3653(11)
H8 H 0.2078(19) 0.7499(8) 0.2946(11)
H9 H 0.2855(19) 0.7055(8) 0.4592(11)
H10 H 0.1122(18) 0.7133(8) 0.4851(10)
H11 H 0.0101(19) 0.5072(9) 0.6318(11)
H12 H 0.463(2) 0.5141(9) 0.6022(11)
H13 H 0.425(2) 0.6080(9) 0.5096(12)
H14 H -0.207(2) 0.5415(9) 0.5580(12)
H15 H -0.176(2) 0.5917(9) 0.6378(13)
H16 H -0.268(2) 0.6201(10) 0.5536(12)
H17 H 0.454(2) 0.4498(10) 0.7277(12)
H18 H 0.369(2) 0.3764(9) 0.7398(12)
H19 H 0.435(2) 0.3997(9) 0.6425(12)
H20 H 0.0608(18) 0.6588(8) 0.0481(10)
H21 H 0.0822(17) 0.5767(8) 0.0745(10)
H22 H 0.490(2) 0.5612(10) -0.1054(12)
H23 H 0.627(2) 0.6854(9) 0.1022(11)
H24 H 0.378(2) 0.6890(9) 0.1479(12)
H25 H 0.135(2) 0.5009(11) -0.1630(13)
H26 H 0.273(2) 0.5527(9) -0.1851(12)
H27 H 0.302(2) 0.4809(10) -0.1312(12)
H28 H 0.7398(19) 0.5292(9) -0.0779(11)
H29 H 0.885(2) 0.5776(9) -0.0889(12)
H30 H 0.733(2) 0.5908(9) -0.1481(13)
H31 H -0.133(2) 0.7075(9) 0.4065(12)
H32 H -0.368(2) 0.7326(10) 0.4624(13)
H33 H -0.549(2) 0.7944(9) 0.3774(12)
H34 H -0.495(2) 0.8303(10) 0.2352(13)
H35 H -0.254(2) 0.8115(9) 0.1804(13)
#END
