
#######################################################################
#
#                 Cambridge Crystallographic Data Centre
#                                CCDC
#
#######################################################################
#
# If this CIF has been generated from an entry in the Cambridge
# Structural Database, then it will include bibliographic, chemical,
# crystal, experimental, refinement or atomic coordinate data resulting
# from the CCDC's data processing and validation procedures.
#
#######################################################################

data_CSD_CIF_XENWAQ
_audit_creation_date 2013-03-18
_audit_creation_method CSD-ConQuest-V1
_database_code_CSD XENWAQ
_database_code_depnum_ccdc_archive 'CCDC 894549'
_chemical_formula_sum 'C48 H62 N2 O8'
_chemical_formula_moiety
;
C48 H62 N2 O8
;
_journal_coden_Cambridge 440
_journal_volume 37
_journal_year 2013
_journal_page_first 220
_journal_name_full 'New J.Chem. '
loop_
_publ_author_name
"O.Hudecek"
"J.Budka"
"H.Dvoakova"
"P.Cuinova"
"I.Cisaova"
"P.Lhotak"
_chemical_name_systematic
;
5,17-di-t-butyl-11,23-dinitro-25,26,27,28-tetrakis(propoxy)calix(4)arene
;
_cell_volume   4542.428
_exptl_crystal_colour 'colorless'
_exptl_crystal_density_diffrn 1.162
_exptl_crystal_description 'prism'
_diffrn_ambient_temperature 150
#These two values have been output from a single CSD field.
_refine_ls_R_factor_gt 0.0609
_refine_ls_wR_factor_gt 0.0609
_symmetry_cell_setting monoclinic
_symmetry_space_group_name_H-M 'P 21/c'
_symmetry_Int_Tables_number 14
loop_
_symmetry_equiv_pos_site_id
_symmetry_equiv_pos_as_xyz
1 x,y,z
2 -x,1/2+y,1/2-z
3 -x,-y,-z
4 x,-1/2-y,-1/2+z
_cell_length_a 13.7360(4)
_cell_length_b 17.1360(5)
_cell_length_c 23.2760(3)
_cell_angle_alpha 90
_cell_angle_beta 123.9930(14)
_cell_angle_gamma 90
_cell_formula_units_Z 4
loop_
_atom_type_symbol
_atom_type_radius_bond
C 0.68
H 0.23
N 0.68
O 0.68
loop_
_atom_site_label
_atom_site_type_symbol
_atom_site_fract_x
_atom_site_fract_y
_atom_site_fract_z
C1 C 0.56292(16) 0.21367(13) 0.50209(10)
C2 C 0.55205(19) 0.29902(13) 0.51474(12)
H1 H 0.58010 0.30630 0.56390
H2 H 0.46840 0.31450 0.48570
C3 C 0.62231(19) 0.35119(13) 0.49804(10)
C4 C 0.5689(2) 0.40629(14) 0.44489(11)
H3 H 0.48650 0.41420 0.42070
C5 C 0.6321(2) 0.45000(14) 0.42614(12)
C6 C 0.7515(2) 0.43454(14) 0.46077(12)
H4 H 0.79580 0.46220 0.44750
C7 C 0.8087(2) 0.38023(12) 0.51410(11)
C8 C 0.9353(2) 0.35770(13) 0.54424(12)
H5 H 0.98310 0.36640 0.59500
H6 H 0.96750 0.39060 0.52370
C9 C 0.94105(18) 0.27238(12) 0.52891(11)
C10 C 0.87238(18) 0.24600(12) 0.46081(11)
H7 H 0.82830 0.28180 0.42380
C11 C 0.86923(16) 0.16715(12) 0.44778(10)
C12 C 0.93013(16) 0.11273(12) 0.49981(10)
H8 H 0.92450 0.05880 0.48900
C13 C 0.99985(16) 0.13778(12) 0.5683(1)
C14 C 1.06019(17) 0.07904(13) 0.62711(10)
H9 H 1.14160 0.09630 0.66170
H10 H 1.06380 0.02770 0.60880
C15 C 0.99392(16) 0.07096(12) 0.66161(10)
C16 C 1.04133(18) 0.09687(12) 0.7289(1)
H11 H 1.11860 0.11780 0.75460
C17 C 0.97903(19) 0.09307(13) 0.75981(10)
C18 C 0.86272(18) 0.06822(12) 0.71884(10)
H12 H 0.81650 0.06920 0.73760
C19 C 0.81199(17) 0.04192(12) 0.65108(10)
C20 C 0.68236(18) 0.02320(13) 0.60479(10)
H13 H 0.67170 -0.03080 0.58700
H14 H 0.64690 0.02660 0.63190
C21 C 0.62139(16) 0.07977(12) 0.54466(10)
C22 C 0.59208(16) 0.05744(13) 0.47966(10)
H15 H 0.59880 0.00440 0.47060
C23 C 0.55312(16) 0.11268(12) 0.42821(10)
C24 C 0.53973(17) 0.19044(13) 0.43842(10)
H16 H 0.51500 0.22740 0.40240
C25 C 0.60366(16) 0.15764(13) 0.55453(10)
C26 C 0.74320(18) 0.34089(12) 0.53423(10)
C27 C 1.00550(16) 0.21780(12) 0.58147(10)
C28 C 0.88202(17) 0.03949(11) 0.62506(9)
C29 C 0.53826(18) 0.17858(14) 0.62821(11)
H17 H 0.49790 0.12740 0.61340
H18 H 0.48070 0.21980 0.59950
C30 C 0.5868(2) 0.19223(18) 0.70282(13)
H19 H 0.63440 0.24060 0.71820
H20 H 0.63920 0.14840 0.73050
C31 C 0.4914(3) 0.1996(2) 0.71626(16)
H21 H 0.44120 0.24430 0.69050
H22 H 0.52720 0.20740 0.76590
H23 H 0.44400 0.15190 0.70110
C32 C 0.86496(19) 0.31503(14) 0.65592(10)
H24 H 0.92580 0.35020 0.66010
H25 H 0.90580 0.27060 0.68790
C33 C 0.7979(2) 0.35840(15) 0.67878(12)
H26 H 0.74200 0.32240 0.67930
H27 H 0.75200 0.40070 0.64530
C34 C 0.8793(3) 0.39315(16) 0.75038(13)
H28 H 0.91950 0.35110 0.78430
H29 H 0.83350 0.42440 0.76250
H30 H 0.93750 0.42650 0.75060
C35 C 1.1919(2) 0.26226(19) 0.67319(13)
H31 H 1.19220 0.31010 0.64950
H32 H 1.22740 0.21940 0.66230
C36 C 1.2617(2) 0.2756(2) 0.75042(15)
H33 H 1.25610 0.22850 0.77310
H34 H 1.34530 0.28310 0.76780
C37 C 1.2205(3) 0.3441(3) 0.7699(2)
H35 H 1.20850 0.38820 0.73980
H36 H 1.27940 0.35810 0.81820
H37 H 1.14620 0.33140 0.76450
C38 C 0.85330(19) -0.07532(13) 0.56151(10)
H38 H 0.82080 -0.10100 0.58540
H39 H 0.93820 -0.08750 0.58730
C39 C 0.79165(19) -0.10507(13) 0.48821(11)
H40 H 0.82740 -0.08100 0.46550
H41 H 0.70800 -0.08940 0.46200
C40 C 0.7996(2) -0.19298(15) 0.48597(13)
H42 H 0.88220 -0.20850 0.51010
H43 H 0.75700 -0.21030 0.43760
H44 H 0.76480 -0.21700 0.50870
C41 C 0.5720(3) 0.51341(17) 0.36988(14)
C42 C 0.4514(4) 0.4889(3) 0.3110(2)
H45 H 0.40070 0.48250 0.32800
H46 H 0.45660 0.43930 0.29190
H47 H 0.41830 0.52900 0.27480
C43 C 0.6402(5) 0.5310(3) 0.3387(2)
H48 H 0.65270 0.48270 0.32120
H49 H 0.71630 0.55370 0.37410
H50 H 0.59610 0.56810 0.30040
C44 C 0.5532(7) 0.5837(3) 0.4011(2)
H51 H 0.49340 0.61740 0.36410
H52 H 0.62700 0.61260 0.42920
H53 H 0.52680 0.56690 0.43050
C45 C 1.0340(2) 0.11647(15) 0.83575(11)
C46 C 1.0229(7) 0.0490(3) 0.87314(19)
H54 H 1.07870 0.00800 0.88070
H55 H 0.94280 0.02810 0.84510
H56 H 1.04000 0.06680 0.91790
C47 C 1.1586(4) 0.1338(5) 0.8733(2)
H57 H 1.17010 0.18230 0.85550
H58 H 1.19910 0.09090 0.86710
H59 H 1.19070 0.13990 0.92270
C48 C 0.9684(4) 0.1810(3) 0.84029(19)
H60 H 0.99060 0.18590 0.88810
H61 H 0.88400 0.17060 0.80960
H62 H 0.98690 0.22970 0.82620
N1 N 0.52909(15) 0.08787(12) 0.36111(9)
N2 N 0.79465(15) 0.14006(11) 0.37558(9)
O1 O 0.63433(12) 0.17987(9) 0.61960(7)
O2 O 0.79491(12) 0.28539(8) 0.58591(7)
O3 O 1.07308(12) 0.24232(9) 0.64963(7)
O4 O 0.83658(12) 0.00749(8) 0.55978(6)
O5 O 0.52084(15) 0.13854(10) 0.32136(8)
O6 O 0.51954(16) 0.01775(10) 0.34812(8)
O7 O 0.75311(16) 0.18854(10) 0.32930(8)
O8 O 0.77844(14) 0.06938(10) 0.36531(8)
#END
