
#######################################################################
#
#                 Cambridge Crystallographic Data Centre
#                                CCDC
#
#######################################################################
#
# If this CIF has been generated from an entry in the Cambridge
# Structural Database, then it will include bibliographic, chemical,
# crystal, experimental, refinement or atomic coordinate data resulting
# from the CCDC's data processing and validation procedures.
#
#######################################################################

data_CSD_CIF_XEPACP
_audit_creation_date 1975-02-01
_audit_creation_method CSD-ConQuest-V1
_database_code_CSD XEPACP
_chemical_formula_sum 'C15 H20 N2 O3'
_chemical_formula_moiety
;
C15 H20 N2 O3
;
_journal_coeditor_code "IUCr A11250"
_journal_coden_Cambridge 107
_journal_volume 30
_journal_year 1974
_journal_page_first 2237
_journal_name_full 'Acta Crystallogr.,Sect.B:Struct.Crystallogr.Cryst.Chem. '
loop_
_publ_author_name
"D.Tranqui"
"D.T.Cromer"
"A.Boucherle"
_chemical_name_systematic
;
1-p-(Oximinoethyl)-phenoxyacetyl-piperidine
;
_cell_volume   1420.064
_exptl_special_details
;
antiinflammatory agent, analgesic, antipyretic activity

;
_diffrn_ambient_temperature ?
_diffrn_special_details
;
The study was carried out at room temperature,in the range 283-303K

;
#These two values have been output from a single CSD field.
_refine_ls_R_factor_gt 0.05
_refine_ls_wR_factor_gt 0.05
_symmetry_cell_setting orthorhombic
_symmetry_space_group_name_H-M 'P 21 21 21'
_symmetry_Int_Tables_number 19
loop_
_symmetry_equiv_pos_site_id
_symmetry_equiv_pos_as_xyz
1 x,y,z
2 1/2+x,1/2-y,-z
3 -x,1/2+y,1/2-z
4 1/2-x,-y,1/2+z
_cell_length_a 28.75(2)
_cell_length_b 8.246(5)
_cell_length_c 5.990(3)
_cell_angle_alpha 90
_cell_angle_beta 90
_cell_angle_gamma 90
_cell_formula_units_Z 4
loop_
_atom_type_symbol
_atom_type_radius_bond
C 0.68
H 0.20
N 0.68
O 0.68
loop_
_atom_site_label
_atom_site_type_symbol
_atom_site_fract_x
_atom_site_fract_y
_atom_site_fract_z
C1 C 0.43430 -0.44200 -0.20750
C2 C 0.66420 -0.42880 0.51860
C3 C 0.66370 -0.71090 0.36230
C4 C 0.70560 -0.80370 0.27910
C5 C 0.73380 -0.87110 0.47170
C6 C 0.74670 -0.73680 0.63330
C7 C 0.70440 -0.64770 0.71270
C8 C 0.42630 -0.30470 -0.36830
C9 C 0.47690 -0.44390 -0.06340
C10 C 0.47530 -0.52560 0.14180
C11 C 0.51340 -0.52990 0.28140
C12 C 0.55420 -0.45100 0.21780
C13 C 0.55680 -0.37090 0.01520
C14 C 0.51770 -0.36840 -0.12410
C15 C 0.63140 -0.37700 0.33240
H1 H 0.35000 -0.65950 -0.30690
H2 H 0.64430 -0.40520 0.18500
H3 H 0.64650 -0.65990 0.23490
H4 H 0.64200 -0.78770 0.44010
H5 H 0.72580 -0.72770 0.18900
H6 H 0.69590 -0.89360 0.17880
H7 H 0.76300 -0.91900 0.40770
H8 H 0.71550 -0.95400 0.54980
H9 H 0.76890 -0.65770 0.56600
H10 H 0.76210 -0.79240 0.76560
H11 H 0.71180 -0.56650 0.82200
H12 H 0.39430 -0.28540 -0.40360
H13 H 0.68420 -0.73710 0.78790
H14 H 0.44650 -0.31660 -0.50100
H15 H 0.43740 -0.19990 -0.28700
H16 H 0.44820 -0.59860 0.17320
H17 H 0.51410 -0.60110 0.41580
H18 H 0.58540 -0.31470 -0.03650
H19 H 0.52190 -0.33990 -0.28690
H20 H 0.62560 -0.25870 0.34670
N1 N 0.40630 -0.55960 -0.17420
N2 N 0.67740 -0.58480 0.52240
O1 O 0.36580 -0.55020 -0.30860
O2 O 0.58950 -0.46410 0.37110
O3 O 0.67710 -0.33090 0.66090
#END
