
#######################################################################
#
#                 Cambridge Crystallographic Data Centre
#                                CCDC
#
#######################################################################
#
# If this CIF has been generated from an entry in the Cambridge
# Structural Database, then it will include bibliographic, chemical,
# crystal, experimental, refinement or atomic coordinate data resulting
# from the CCDC's data processing and validation procedures.
#
#######################################################################

data_CSD_CIF_XEPZID
_audit_creation_date 2013-03-18
_audit_creation_method CSD-ConQuest-V1
_database_code_CSD XEPZID
_database_code_depnum_ccdc_archive 'CCDC 831716'
_chemical_formula_sum 'C16 H11 N5 O7'
_chemical_formula_moiety
;
C16 H11 N5 O7
;
_journal_coden_Cambridge 1481
_journal_volume 3
_journal_year 2012
_journal_page_first 17
_journal_name_full 'Eur.J.Chem. '
loop_
_publ_author_name
"Huang Yuanyuan"
"Bai Fang"
"Gao Guowei"
"Men Jian"
_chemical_name_systematic
;
2-Methoxy-4,6-bis(4-nitrophenoxy)-1,3,5-triazine
;
_cell_volume   3330.038
_exptl_crystal_density_diffrn 1.537
_diffrn_ambient_temperature 113
#These two values have been output from a single CSD field.
_refine_ls_R_factor_gt 0.0489
_refine_ls_wR_factor_gt 0.0489
_symmetry_cell_setting monoclinic
_symmetry_space_group_name_H-M 'C 2/c'
_symmetry_Int_Tables_number 15
loop_
_symmetry_equiv_pos_site_id
_symmetry_equiv_pos_as_xyz
1 x,y,z
2 -x,y,1/2-z
3 1/2+x,1/2+y,z
4 1/2-x,1/2+y,1/2-z
5 -x,-y,-z
6 x,-y,-1/2+z
7 -1/2-x,-1/2-y,-z
8 -1/2+x,-1/2-y,-1/2+z
_cell_length_a 13.818(3)
_cell_length_b 7.8964(16)
_cell_length_c 30.718(6)
_cell_angle_alpha 90
_cell_angle_beta 96.52(3)
_cell_angle_gamma 90
_cell_formula_units_Z 8
loop_
_atom_type_symbol
_atom_type_radius_bond
C 0.68
H 0.23
N 0.68
O 0.68
loop_
_atom_site_label
_atom_site_type_symbol
_atom_site_fract_x
_atom_site_fract_y
_atom_site_fract_z
O1 O 1.09921(14) 0.8270(2) 0.18421(5)
O2 O 1.11237(18) 0.9638(2) 0.24459(6)
O3 O 1.16203(10) 0.22659(18) 0.31741(4)
O4 O 0.87401(9) 0.28668(17) 0.37272(5)
O5 O 1.07248(10) -0.16647(18) 0.40969(5)
O6 O 0.74567(12) -0.5071(3) 0.50475(7)
O7 O 0.83850(13) -0.4103(2) 0.56039(5)
N1 N 1.11148(13) 0.8323(2) 0.22396(6)
N2 N 1.01412(11) 0.2622(2) 0.34345(5)
N3 N 1.11891(11) 0.0290(2) 0.36359(5)
N4 N 0.96985(11) 0.05980(19) 0.39513(5)
N5 N 0.81799(13) -0.4307(2) 0.52091(6)
C1 C 1.14577(13) 0.3801(2) 0.29462(6)
C2 C 1.14796(15) 0.5311(3) 0.31719(6)
H1 H 1.15610 0.53200 0.34830
C3 C 1.13819(15) 0.6814(3) 0.29399(7)
H2 H 1.13980 0.78730 0.30870
C4 C 1.12592(14) 0.6734(2) 0.24866(7)
C5 C 1.12382(14) 0.5227(3) 0.22590(7)
H3 H 1.11540 0.52160 0.19480
C6 C 1.13425(14) 0.3730(2) 0.24943(6)
H4 H 1.13350 0.26710 0.23470
C7 C 1.09481(14) 0.1727(2) 0.34247(6)
C8 C 1.05195(13) -0.0187(2) 0.38841(6)
C9 C 0.95494(13) 0.1979(2) 0.37053(6)
C10 C 0.80633(14) 0.2223(3) 0.40139(7)
H5 H 0.79650 0.10070 0.39630
H6 H 0.74390 0.28130 0.39530
H7 H 0.83280 0.24130 0.43200
C11 C 1.00550(14) -0.2279(2) 0.43678(7)
C12 C 1.02986(15) -0.2143(3) 0.48126(7)
H8 H 1.08870 -0.16020 0.49270
C13 C 0.96739(15) -0.2808(3) 0.50918(7)
H9 H 0.98240 -0.27270 0.54010
C14 C 0.88292(14) -0.3588(2) 0.49107(7)
C15 C 0.85838(15) -0.3724(3) 0.44644(7)
H10 H 0.79950 -0.42610 0.43500
C16 C 0.92090(16) -0.3065(3) 0.41864(7)
H11 H 0.90610 -0.31510 0.38780
#END
