
#######################################################################
#
#                 Cambridge Crystallographic Data Centre
#                                CCDC
#
#######################################################################
#
# If this CIF has been generated from an entry in the Cambridge
# Structural Database, then it will include bibliographic, chemical,
# crystal, experimental, refinement or atomic coordinate data resulting
# from the CCDC's data processing and validation procedures.
#
#######################################################################

data_CSD_CIF_XEQXUP
_audit_creation_date 2017-11-20
_audit_creation_method CSD-ConQuest-V1
_database_code_CSD XEQXUP
_database_code_depnum_ccdc_archive 'CCDC 1576642'
_chemical_formula_sum 'C22 H22 N2 O8'
_chemical_formula_moiety
;
C22 H22 N2 O8
;
_journal_coden_Cambridge 1336
_journal_volume 19
_journal_year 2017
_journal_page_first 6136
_journal_name_full 'Org.Lett. '
loop_
_publ_author_name
"S.J.Gharpure"
"D.Anuradha"
_chemical_name_systematic
;
2-(5a,6,7,8,9,9a-hexahydro-11H-dibenzo[b,e][1,4]dioxepin-11-yl)ethyl 
3,5-dinitrobenzoate
;
_cell_volume   1016.656
_exptl_crystal_colour 'colorless'
_exptl_crystal_density_diffrn 1.445
_exptl_crystal_description 'prism'
_diffrn_ambient_temperature 100
#These two values have been output from a single CSD field.
_refine_ls_R_factor_gt 0.0594
_refine_ls_wR_factor_gt 0.0594
_symmetry_cell_setting triclinic
_symmetry_space_group_name_H-M 'P -1'
_symmetry_Int_Tables_number 2
loop_
_symmetry_equiv_pos_site_id
_symmetry_equiv_pos_as_xyz
1 x,y,z
2 -x,-y,-z
_cell_length_a 9.377(2)
_cell_length_b 10.292(2)
_cell_length_c 12.467(4)
_cell_angle_alpha 75.494(17)
_cell_angle_beta 70.702(16)
_cell_angle_gamma 64.502(15)
_cell_formula_units_Z 2
loop_
_atom_type_symbol
_atom_type_radius_bond
C 0.68
H 0.23
N 0.68
O 0.68
loop_
_atom_site_label
_atom_site_type_symbol
_atom_site_fract_x
_atom_site_fract_y
_atom_site_fract_z
O1 O 0.0366(2) 1.24005(18) 0.54712(14)
O2 O -0.15123(19) 1.27706(18) 0.46477(15)
O3 O -0.0518(2) 0.96092(19) 0.20192(15)
O4 O 0.1943(3) 0.8079(2) 0.13754(17)
O5 O 0.6064(2) 0.90356(19) 0.39367(16)
O6 O 0.62797(18) 0.73096(17) 0.30154(14)
O7 O 1.1116(2) 0.42428(18) 0.28238(14)
O8 O 1.3920(2) 0.3389(2) 0.07776(15)
N1 N -0.0117(3) 1.2154(2) 0.47664(17)
N2 N 0.0945(3) 0.9027(3) 0.19784(17)
C1 C 0.1048(3) 1.0995(3) 0.40522(19)
C2 C 0.0468(3) 1.0610(3) 0.3342(2)
C3 C 0.1552(3) 0.9485(3) 0.2718(2)
C4 C 0.3165(3) 0.8763(3) 0.2765(2)
C5 C 0.3722(3) 0.9200(3) 0.34703(19)
C6 C 0.2652(3) 1.0320(3) 0.41304(19)
C7 C 0.5473(3) 0.8520(3) 0.35164(19)
C8 C 0.8039(3) 0.6626(3) 0.2900(2)
C9 C 0.8652(3) 0.5389(3) 0.2213(2)
C10 C 1.0501(3) 0.4727(3) 0.1827(2)
C11 C 1.1162(3) 0.3505(3) 0.1098(2)
C12 C 1.0169(3) 0.3003(3) 0.08253(19)
C13 C 1.0823(4) 0.1903(3) 0.0144(2)
C14 C 1.2494(4) 0.1271(3) -0.0280(3)
C15 C 1.3515(4) 0.1762(3) -0.0039(3)
C16 C 1.2845(3) 0.2882(3) 0.0627(2)
C17 C 1.4047(3) 0.3163(3) 0.1939(2)
C18 C 1.5710(3) 0.3149(4) 0.1858(3)
C19 C 1.5947(4) 0.2977(3) 0.3039(3)
C20 C 1.4583(4) 0.4133(3) 0.3750(3)
C21 C 1.2930(4) 0.4109(3) 0.3834(3)
C22 C 1.2677(3) 0.4297(3) 0.2653(3)
H1 H -0.06310 1.11000 0.32880
H2 H 0.38790 0.79850 0.23270
H3 H 0.30150 1.06120 0.46220
H4 H 0.82720 0.62610 0.36620
H5 H 0.85670 0.73270 0.24970
H6 H 0.82050 0.57470 0.15310
H7 H 0.82460 0.46290 0.26840
H8 H 1.08870 0.55110 0.13570
H9 H 0.90170 0.34270 0.11160
H10 H 1.01220 0.15840 -0.00320
H11 H 1.29470 0.05030 -0.07360
H12 H 1.46650 0.13320 -0.03310
H13 H 1.40200 0.21880 0.23060
H14 H 1.65800 0.23390 0.14430
H15 H 1.58010 0.40670 0.14170
H16 H 1.70050 0.30360 0.29590
H17 H 1.59890 0.20070 0.34430
H18 H 1.46050 0.51000 0.33920
H19 H 1.47450 0.39520 0.45280
H20 H 1.28720 0.31750 0.42610
H21 H 1.20450 0.48980 0.42640
H22 H 1.26480 0.52780 0.22550
#END
