
#######################################################################
#
#                 Cambridge Crystallographic Data Centre
#                                CCDC
#
#######################################################################
#
# If this CIF has been generated from an entry in the Cambridge
# Structural Database, then it will include bibliographic, chemical,
# crystal, experimental, refinement or atomic coordinate data resulting
# from the CCDC's data processing and validation procedures.
#
#######################################################################

data_CSD_CIF_XEQXOH
_audit_creation_date 2007-02-02
_audit_creation_method CSD-ConQuest-V1
_database_code_CSD XEQXOH
_database_code_depnum_ccdc_archive 'CCDC 611018'
_chemical_formula_sum 'C26 H27 N1 O4'
_chemical_formula_moiety
;
C26 H27 N1 O4
;
_journal_coden_Cambridge 24
_journal_volume 47
_journal_year 2006
_journal_page_first 6979
_journal_name_full 'Tetrahedron Lett. '
loop_
_publ_author_name
"M.K.Gurjar"
"R.G.Borhade"
"V.G.Puranik"
"C.V.Ramana"
_chemical_name_systematic
;
1,4-Anhydro-2,3,5-tri-O-benzyl-1-deoxy-1-imino-L-arabitol N-oxide
;
_chemical_melting_point 355.15
_cell_volume   1109.565
_exptl_crystal_colour 'colorless'
_exptl_crystal_density_diffrn 1.25
_exptl_crystal_description 'needle'
_diffrn_ambient_temperature 293
#These two values have been output from a single CSD field.
_refine_ls_R_factor_gt 0.0696
_refine_ls_wR_factor_gt 0.0696
_symmetry_cell_setting monoclinic
_symmetry_space_group_name_H-M 'P 21'
_symmetry_Int_Tables_number 4
loop_
_symmetry_equiv_pos_site_id
_symmetry_equiv_pos_as_xyz
1 x,y,z
2 -x,1/2+y,-z
_cell_length_a 8.3581(7)
_cell_length_b 7.5875(6)
_cell_length_c 17.7297(15)
_cell_angle_alpha 90
_cell_angle_beta 99.307(1)
_cell_angle_gamma 90
_cell_formula_units_Z 2
loop_
_atom_type_symbol
_atom_type_radius_bond
C 0.68
H 0.23
N 0.68
O 0.68
loop_
_atom_site_label
_atom_site_type_symbol
_atom_site_fract_x
_atom_site_fract_y
_atom_site_fract_z
O1 O 0.5699(4) 0.3825(4) 0.50413(17)
O2 O 0.7437(4) 0.2819(4) 0.70263(19)
O3 O 0.2552(4) 0.1657(4) 0.65546(17)
O4 O 0.4516(4) 0.5658(4) 0.71950(17)
N1 N 0.5013(4) 0.3814(4) 0.56391(19)
C1 C 0.4187(6) 0.5064(6) 0.5888(2)
H1 H 0.39580 0.61370 0.56410
C2 C 0.3644(6) 0.4574(5) 0.6623(2)
H2 H 0.24760 0.47740 0.65890
C3 C 0.4028(5) 0.2590(5) 0.6704(2)
H3 H 0.45950 0.23250 0.72200
C4 C 0.5118(5) 0.2179(5) 0.6109(2)
H4 H 0.46220 0.12150 0.57850
C5 C 0.6817(6) 0.1708(6) 0.6394(3)
H5 H 0.68820 0.04840 0.65550
H6 H 0.74610 0.18520 0.59900
C6 C 0.9039(6) 0.2449(8) 0.7331(3)
H7 H 0.97490 0.29250 0.70000
H8 H 0.91960 0.11830 0.73600
C7 C 0.9466(6) 0.3226(7) 0.8106(3)
C8 C 0.8472(7) 0.4425(8) 0.8392(3)
H9 H 0.74870 0.47410 0.81010
C9 C 0.8937(9) 0.5163(10) 0.9114(4)
H10 H 0.82770 0.59990 0.92940
C10 C 1.0328(9) 0.4676(11) 0.9551(4)
H11 H 1.06070 0.51460 1.00390
C11 C 1.1340(8) 0.3494(11) 0.9286(4)
H12 H 1.23140 0.31770 0.95860
C12 C 1.0903(7) 0.2780(9) 0.8568(4)
H13 H 1.15930 0.19760 0.83890
C13 C 0.3943(7) 0.5616(7) 0.7909(2)
H14 H 0.43470 0.45720 0.81930
H15 H 0.27670 0.55780 0.78240
C14 C 0.4529(7) 0.7246(6) 0.8354(2)
C15 C 0.3697(9) 0.7805(8) 0.8936(3)
H16 H 0.28220 0.71610 0.90520
C16 C 0.4196(11) 0.9342(10) 0.9339(3)
H17 H 0.36600 0.97070 0.97320
C17 C 0.5442(12) 1.0306(10) 0.9167(4)
H18 H 0.57510 1.13360 0.94360
C18 C 0.6249(10) 0.9768(9) 0.8598(4)
H19 H 0.71170 1.04250 0.84840
C19 C 0.5778(7) 0.8241(7) 0.8190(3)
H20 H 0.63270 0.78960 0.77980
C20 C 0.2739(6) -0.0155(6) 0.6782(3)
H21 H 0.29250 -0.02390 0.73350
H22 H 0.36670 -0.06590 0.65950
C21 C 0.1246(5) -0.1142(5) 0.6463(3)
C22 C 0.0315(7) -0.1975(6) 0.6939(3)
H23 H 0.06050 -0.19150 0.74670
C23 C -0.1084(7) -0.2916(7) 0.6604(4)
H24 H -0.17210 -0.34830 0.69140
C24 C -0.1490(8) -0.2992(9) 0.5846(4)
H25 H -0.24260 -0.35940 0.56350
C25 C -0.0572(8) -0.2210(9) 0.5371(4)
H26 H -0.08660 -0.23020 0.48440
C26 C 0.0781(6) -0.1293(7) 0.5676(3)
H27 H 0.14050 -0.07570 0.53520
#END
