
#######################################################################
#
#                 Cambridge Crystallographic Data Centre
#                                CCDC
#
#######################################################################
#
# If this CIF has been generated from an entry in the Cambridge
# Structural Database, then it will include bibliographic, chemical,
# crystal, experimental, refinement or atomic coordinate data resulting
# from the CCDC's data processing and validation procedures.
#
#######################################################################

data_CSD_CIF_XERNAM
_audit_creation_date 2017-11-20
_audit_creation_method CSD-ConQuest-V1
_database_code_CSD XERNAM
_database_code_depnum_ccdc_archive 'CCDC 1563016'
_chemical_formula_sum 'C26 H23 N1 O5'
_chemical_formula_moiety
;
C26 H23 N1 O5
;
_journal_coden_Cambridge 1336
_journal_volume 19
_journal_year 2017
_journal_page_first 6448
_journal_name_full 'Org.Lett. '
loop_
_publ_author_name
"Gwang Seok Jang"
"Junggeun Lee"
"Jungseok Seo"
"Sang Kook Woo"
_chemical_name_systematic
;
dimethyl 2-benzyl-3,3-diphenyl-2,3-dihydro-1,2-oxazole-4,5-dicarboxylate
;
_chemical_name_common
;
dimethyl 2-benzyl-3,3-diphenyl-4-isoxazoline-4,5-dicarboxylate
;
_cell_volume   2163.007
_exptl_crystal_colour 'yellow'
_exptl_crystal_density_diffrn 1.319
_exptl_crystal_description 'Block'
_diffrn_ambient_temperature 172
#These two values have been output from a single CSD field.
_refine_ls_R_factor_gt 0.0435
_refine_ls_wR_factor_gt 0.0435
_symmetry_cell_setting monoclinic
_symmetry_space_group_name_H-M 'P 21/n'
_symmetry_Int_Tables_number 14
loop_
_symmetry_equiv_pos_site_id
_symmetry_equiv_pos_as_xyz
1 x,y,z
2 1/2-x,1/2+y,1/2-z
3 -x,-y,-z
4 -1/2+x,-1/2-y,-1/2+z
_cell_length_a 7.5299(1)
_cell_length_b 31.8477(6)
_cell_length_c 9.1473(2)
_cell_angle_alpha 90
_cell_angle_beta 99.5824(7)
_cell_angle_gamma 90
_cell_formula_units_Z 4
loop_
_atom_type_symbol
_atom_type_radius_bond
C 0.68
H 0.23
N 0.68
O 0.68
loop_
_atom_site_label
_atom_site_type_symbol
_atom_site_fract_x
_atom_site_fract_y
_atom_site_fract_z
O1 O 0.44748(12) 0.90817(3) 0.8608(1)
O2 O 0.3116(2) 0.97426(4) 1.02452(12)
O3 O 0.24045(13) 1.00222(3) 0.79807(10)
O4 O -0.04130(15) 0.92911(4) 0.49790(11)
O5 O -0.07202(12) 0.95199(3) 0.72436(10)
N1 N 0.40966(13) 0.86592(3) 0.79476(11)
C1 C 0.33404(15) 0.87502(4) 0.51367(12)
C2 C 0.38035(18) 0.91370(4) 0.46102(14)
H1 H 0.36140 0.93850 0.51410
C3 C 0.4540(2) 0.91671(5) 0.33172(15)
H2 H 0.48440 0.94350 0.29710
C4 C 0.48313(19) 0.88100(5) 0.25349(15)
H3 H 0.53290 0.88310 0.16490
C5 C 0.43929(17) 0.84222(4) 0.30508(14)
H4 H 0.46020 0.81750 0.25220
C6 C 0.36475(16) 0.83910(4) 0.43380(13)
H5 H 0.33440 0.81230 0.46780
C7 C 0.26232(15) 0.87153(4) 0.66095(12)
C8 C 0.12864(16) 0.83522(4) 0.66047(13)
C9 C -0.00981(17) 0.83068(4) 0.53977(14)
H6 H -0.01800 0.84960 0.45870
C10 C -0.13572(18) 0.79875(5) 0.53704(16)
H7 H -0.22930 0.79590 0.45410
C11 C -0.12555(18) 0.77102(4) 0.65472(17)
H8 H -0.21110 0.74900 0.65240
C12 C 0.00970(19) 0.77559(4) 0.77536(16)
H9 H 0.01640 0.75670 0.85650
C13 C 0.13641(17) 0.80753(4) 0.77944(14)
H10 H 0.22840 0.81050 0.86350
C14 C 0.58341(17) 0.85074(4) 0.76458(14)
H11 H 0.63920 0.87260 0.70990
H12 H 0.56400 0.82540 0.70100
C15 C 0.70915(16) 0.84014(4) 0.90550(13)
C16 C 0.68497(18) 0.80341(5) 0.98173(15)
H13 H 0.58350 0.78610 0.94890
C17 C 0.8075(2) 0.79188(5) 1.10499(16)
H14 H 0.79050 0.76660 1.15610
C18 C 0.9550(2) 0.81714(5) 1.15382(15)
H15 H 1.04010 0.80900 1.23770
C19 C 0.97879(19) 0.85403(5) 1.08113(16)
H16 H 1.07890 0.87160 1.11580
C20 C 0.85568(18) 0.86548(4) 0.95675(15)
H17 H 0.87230 0.89090 0.90650
C21 C 0.29644(17) 0.93043(4) 0.81333(13)
C22 C 0.28455(18) 0.97130(4) 0.89296(14)
C23 C 0.1975(2) 1.04185(4) 0.86227(17)
H18 H 0.16700 1.06270 0.78340
H19 H 0.30190 1.05160 0.93270
H20 H 0.09470 1.03800 0.91400
C24 C 0.18206(16) 0.91269(4) 0.70495(13)
C25 C 0.01318(17) 0.93156(4) 0.62850(14)
C26 C -0.2220(2) 0.97793(5) 0.65918(19)
H21 H -0.27550 0.99130 0.73800
H22 H -0.31260 0.96050 0.59800
H23 H -0.17940 0.99960 0.59730
#END
