
#######################################################################
#
#                 Cambridge Crystallographic Data Centre
#                                CCDC
#
#######################################################################
#
# If this CIF has been generated from an entry in the Cambridge
# Structural Database, then it will include bibliographic, chemical,
# crystal, experimental, refinement or atomic coordinate data resulting
# from the CCDC's data processing and validation procedures.
#
#######################################################################

data_CSD_CIF_XERTEW
_audit_creation_date 2017-11-20
_audit_creation_method CSD-ConQuest-V1
_database_code_CSD XERTEW
_database_code_depnum_ccdc_archive 'CCDC 1570579'
_chemical_formula_sum 'C22 H21 N1 O2'
_chemical_formula_moiety
;
C22 H21 N1 O2
;
_journal_coden_Cambridge 1336
_journal_volume 19
_journal_year 2017
_journal_page_first 6352
_journal_name_full 'Org.Lett. '
loop_
_publ_author_name
"Guiping Qin"
"Yong Wang"
"Hanmin Huang"
_chemical_name_systematic
;
N-methoxy-N-methyl-1-phenyl-2,3-dihydro-1H-phenalene-2-carboxamide
;
_cell_volume    891.730
_exptl_crystal_colour 'yellow'
_exptl_crystal_density_diffrn 1.234
_exptl_crystal_description 'block'
_diffrn_ambient_temperature 296
#These two values have been output from a single CSD field.
_refine_ls_R_factor_gt 0.0491
_refine_ls_wR_factor_gt 0.0491
_symmetry_cell_setting triclinic
_symmetry_space_group_name_H-M 'P -1'
_symmetry_Int_Tables_number 2
loop_
_symmetry_equiv_pos_site_id
_symmetry_equiv_pos_as_xyz
1 x,y,z
2 -x,-y,-z
_cell_length_a 8.732(2)
_cell_length_b 9.030(2)
_cell_length_c 12.650(3)
_cell_angle_alpha 92.176(4)
_cell_angle_beta 92.276(4)
_cell_angle_gamma 116.306(4)
_cell_formula_units_Z 2
loop_
_atom_type_symbol
_atom_type_radius_bond
C 0.68
H 0.23
N 0.68
O 0.68
loop_
_atom_site_label
_atom_site_type_symbol
_atom_site_fract_x
_atom_site_fract_y
_atom_site_fract_z
O1 O 0.7707(2) 0.6399(2) 0.48455(12)
O2 O 0.7274(2) 0.29564(18) 0.32971(14)
N1 N 0.7763(2) 0.4111(2) 0.41722(14)
C1 C 0.7139(3) 0.7906(2) 0.17078(15)
C2 C 0.8119(3) 0.9207(3) 0.11227(17)
H1 H 0.92380 0.99130 0.13660
C3 C 0.7453(4) 0.9490(3) 0.01569(19)
H2 H 0.81410 1.03770 -0.02270
C4 C 0.5829(4) 0.8491(3) -0.02195(19)
H3 H 0.54110 0.87090 -0.08520
C5 C 0.4769(3) 0.7124(3) 0.03364(17)
C6 C 0.5430(3) 0.6809(3) 0.13127(16)
C7 C 0.4367(3) 0.5406(3) 0.18608(18)
C8 C 0.2745(3) 0.4384(3) 0.1446(2)
H4 H 0.20670 0.34500 0.17960
C9 C 0.2086(4) 0.4715(4) 0.0506(2)
H5 H 0.09710 0.40210 0.02500
C10 C 0.3069(4) 0.6044(4) -0.0032(2)
H6 H 0.26160 0.62500 -0.06560
C11 C 0.7823(2) 0.7636(2) 0.27775(15)
H7 H 0.74570 0.81840 0.33260
C12 C 0.6988(2) 0.5777(2) 0.29695(15)
H8 H 0.73380 0.51920 0.24360
C13 C 0.5041(3) 0.5069(3) 0.28926(19)
H9 H 0.45450 0.38830 0.29610
H10 H 0.46870 0.55500 0.34750
C14 C 0.9754(2) 0.8399(2) 0.28916(15)
C15 C 1.0666(2) 0.7771(2) 0.22905(15)
H11 H 1.00730 0.68690 0.18100
C16 C 1.2426(3) 0.8457(3) 0.23944(18)
H12 H 1.30080 0.80100 0.19940
C17 C 1.3325(3) 0.9810(3) 0.3093(2)
H13 H 1.45140 1.02820 0.31590
C18 C 1.2464(3) 1.0457(3) 0.36904(19)
H14 H 1.30700 1.13680 0.41620
C19 C 1.0693(3) 0.9754(2) 0.35923(16)
H15 H 1.01220 1.02000 0.40040
C20 C 0.7512(3) 0.5473(3) 0.40622(17)
C21 C 0.7738(3) 0.3390(3) 0.5185(2)
H16 H 0.80500 0.42340 0.57480
H17 H 0.85380 0.29270 0.52010
H18 H 0.66080 0.25350 0.52730
C22 C 0.8775(4) 0.2915(4) 0.2904(2)
H19 H 0.95120 0.39780 0.26610
H20 H 0.84460 0.20910 0.23270
H21 H 0.93710 0.26470 0.34610
#END
