
#######################################################################
#
#                 Cambridge Crystallographic Data Centre
#                                CCDC
#
#######################################################################
#
# If this CIF has been generated from an entry in the Cambridge
# Structural Database, then it will include bibliographic, chemical,
# crystal, experimental, refinement or atomic coordinate data resulting
# from the CCDC's data processing and validation procedures.
#
#######################################################################

data_CSD_CIF_XERZUS
_audit_creation_date 2017-11-20
_audit_creation_method CSD-ConQuest-V1
_database_code_CSD XERZUS
_database_code_depnum_ccdc_archive 'CCDC 1561759'
_chemical_formula_sum 'C14 H17 N1 O5'
_chemical_formula_moiety
;
C14 H17 N1 O5
;
_journal_coden_Cambridge 1336
_journal_volume 19
_journal_year 2017
_journal_page_first 6416
_journal_name_full 'Org.Lett. '
loop_
_publ_author_name
"Yanan Li"
"Yekai Huang"
"Yang Gui"
"Jianan Sun"
"Jindong Li"
"Zhenggen Zha"
"Zhiyong Wang"
_chemical_name_systematic
;
(S,E)-isopropyl 2-hydroxy-2-(nitromethyl)-4-phenylbut-3-enoate
;
_chemical_melting_point 370.15
_cell_volume    739.694
_exptl_crystal_colour 'colorless'
_exptl_crystal_density_diffrn 1.254
_exptl_special_details
;
Melting point range 370.15-371.15K
Absolute configuration

;
_exptl_crystal_description 'block'
_exptl_crystal_preparation 'dichloromethane/petroleum ether'
_diffrn_ambient_temperature 292
#These two values have been output from a single CSD field.
_refine_ls_R_factor_gt 0.0287
_refine_ls_wR_factor_gt 0.0287
_symmetry_cell_setting monoclinic
_symmetry_space_group_name_H-M 'P 21'
_symmetry_Int_Tables_number 4
loop_
_symmetry_equiv_pos_site_id
_symmetry_equiv_pos_as_xyz
1 x,y,z
2 -x,1/2+y,-z
_cell_length_a 8.2913(1)
_cell_length_b 5.8012(1)
_cell_length_c 15.8364(2)
_cell_angle_alpha 90
_cell_angle_beta 103.813(1)
_cell_angle_gamma 90
_cell_formula_units_Z 2
loop_
_atom_type_symbol
_atom_type_radius_bond
C 0.68
H 0.23
N 0.68
O 0.68
loop_
_atom_site_label
_atom_site_type_symbol
_atom_site_fract_x
_atom_site_fract_y
_atom_site_fract_z
O1 O 0.48257(14) 0.4913(2) 0.16698(7)
O2 O 0.89618(14) 0.3055(2) 0.25810(8)
H1 H 0.87580 0.20930 0.21900
O3 O 0.61066(18) 0.1559(3) 0.15531(10)
N1 N 0.84426(19) 0.7210(3) 0.15424(10)
O4 O 0.7890(2) 0.5913(3) 0.09448(9)
O5 O 0.9383(2) 0.8798(3) 0.15062(12)
C1 C 0.6073(2) 0.3440(3) 0.18555(11)
C2 C 0.75415(19) 0.4410(3) 0.25499(10)
C3 C 0.7933(2) 0.6906(3) 0.23776(11)
H2 H 0.69600 0.78450 0.23650
H3 H 0.88190 0.74510 0.28520
C4 C 0.7078(2) 0.4399(3) 0.34197(11)
H4 H 0.62140 0.53500 0.34860
C5 C 0.3387(2) 0.4291(4) 0.09582(11)
H5 H 0.37500 0.33030 0.05370
C6 C 0.7483(2) 0.3114(4) 0.49582(11)
C7 C 0.7826(2) 0.3124(4) 0.40868(12)
H6 H 0.86520 0.21320 0.39990
C8 C 0.6891(3) 0.2937(5) 0.66165(13)
H7 H 0.66890 0.28760 0.71690
C9 C 0.6623(3) 0.4864(4) 0.52539(13)
H8 H 0.62340 0.61090 0.48930
C10 C 0.8036(2) 0.1272(4) 0.55131(14)
H9 H 0.86130 0.00730 0.53280
C11 C 0.6332(3) 0.4786(5) 0.60778(14)
H10 H 0.57610 0.59810 0.62690
C12 C 0.7741(3) 0.1197(5) 0.63342(14)
H11 H 0.81230 -0.00460 0.66980
C13 C 0.2143(3) 0.3048(7) 0.13277(19)
H12 H 0.26500 0.17130 0.16390
H13 H 0.12270 0.25800 0.08650
H14 H 0.17490 0.40510 0.17170
C14 C 0.2755(4) 0.6556(6) 0.05371(18)
H15 H 0.23780 0.75030 0.09480
H16 H 0.18510 0.62750 0.00430
H17 H 0.36350 0.73310 0.03520
#END
