
#######################################################################
#
#                 Cambridge Crystallographic Data Centre
#                                CCDC
#
#######################################################################
#
# If this CIF has been generated from an entry in the Cambridge
# Structural Database, then it will include bibliographic, chemical,
# crystal, experimental, refinement or atomic coordinate data resulting
# from the CCDC's data processing and validation procedures.
#
#######################################################################

data_CSD_CIF_XESBAZ
_audit_creation_date 2007-02-02
_audit_creation_method CSD-ConQuest-V1
_database_code_CSD XESBAZ
_database_code_depnum_ccdc_archive 'CCDC 609908'
_chemical_formula_sum 'C25 H24 N2 O2'
_chemical_formula_moiety
;
C25 H24 N2 O2
;
_journal_coden_Cambridge 471
_journal_volume 22
_journal_year 2006
_journal_page_first x223
_journal_name_full 'Anal.Sci.:X-Ray Struct.Anal.Online '
loop_
_publ_author_name
"J.Suresh"
"V.P.A.Raja"
"R.V.Krishnakumar"
"S.Perumal"
"K.Ravikumar"
"S.Natarajan"
_chemical_name_systematic
;
2,6-bis(p-Tolyl)-1-nitroso-3-phenylpiperidin-4-one
;
_chemical_melting_point 471
_cell_volume   1046.851
_exptl_crystal_colour 'colorless'
_exptl_crystal_density_diffrn 1.22
_exptl_special_details
;
Study temperature given as 273 K in the cif

;
_exptl_crystal_description 'block'
_exptl_crystal_preparation 'ethanol'
_diffrn_ambient_temperature 293
#These two values have been output from a single CSD field.
_refine_ls_R_factor_gt 0.0942
_refine_ls_wR_factor_gt 0.0942
_symmetry_cell_setting triclinic
_symmetry_space_group_name_H-M 'P -1'
_symmetry_Int_Tables_number 2
loop_
_symmetry_equiv_pos_site_id
_symmetry_equiv_pos_as_xyz
1 x,y,z
2 -x,-y,-z
_cell_length_a 8.0968(15)
_cell_length_b 10.0788(18)
_cell_length_c 13.196(2)
_cell_angle_alpha 83.209(3)
_cell_angle_beta 88.481(3)
_cell_angle_gamma 78.235(3)
_cell_formula_units_Z 2
loop_
_atom_type_symbol
_atom_type_radius_bond
C 0.68
H 0.23
N 0.68
O 0.68
loop_
_atom_site_label
_atom_site_type_symbol
_atom_site_fract_x
_atom_site_fract_y
_atom_site_fract_z
O1 O 0.4576(4) 0.4829(3) 0.6489(2)
C1 C 0.0854(5) 0.3352(4) 0.6583(3)
H1 H 0.01730 0.42430 0.63300
N1 N 0.1331(4) 0.2608(3) 0.5687(2)
C2 C -0.0218(4) 0.2668(4) 0.7341(3)
C3 C 0.2431(4) 0.3625(4) 0.7096(3)
H2 H 0.29620 0.27600 0.74860
C4 C 0.1942(4) 0.4631(4) 0.7858(3)
C5 C 0.3873(5) 0.0803(4) 0.6068(3)
C6 C 0.3751(5) 0.4007(4) 0.6328(3)
C7 C 0.3143(5) -0.0323(4) 0.6079(3)
H3 H 0.22010 -0.02650 0.56750
C8 C -0.1823(5) 0.3341(4) 0.7571(3)
H4 H -0.22560 0.41920 0.72210
C9 C 0.0367(5) 0.1398(4) 0.7863(3)
H5 H 0.14430 0.09210 0.77260
C10 C -0.0626(6) 0.0823(4) 0.8588(3)
H6 H -0.02110 -0.00430 0.89200
C11 C 0.2350(5) 0.4288(5) 0.8871(3)
H7 H 0.29150 0.34050 0.90930
O2 O -0.1237(5) 0.3219(5) 0.5173(3)
C12 C -0.2214(6) 0.1506(5) 0.8826(3)
C13 C 0.3109(5) 0.2105(4) 0.5405(3)
H8 H 0.31080 0.18760 0.47040
C14 C 0.1113(5) 0.5942(4) 0.7557(3)
H9 H 0.08350 0.62010 0.68730
C15 C 0.3771(5) -0.1521(4) 0.6669(4)
H10 H 0.32530 -0.22620 0.66580
C16 C 0.5929(6) -0.0542(5) 0.7242(4)
H11 H 0.68920 -0.06100 0.76290
C17 C 0.3996(6) 0.3310(4) 0.5382(3)
H12 H 0.51940 0.29880 0.52780
H13 H 0.35790 0.39700 0.48040
C18 C 0.5306(5) 0.0661(4) 0.6643(4)
H14 H 0.58590 0.13870 0.66260
C19 C 0.5165(6) -0.1645(4) 0.7282(3)
N2 N 0.0210(6) 0.2626(5) 0.4976(3)
C20 C 0.0684(6) 0.6882(5) 0.8245(4)
H15 H 0.01100 0.77630 0.80270
C21 C -0.2787(5) 0.2779(5) 0.8301(3)
H16 H -0.38540 0.32660 0.84470
C22 C 0.1945(6) 0.5214(6) 0.9562(4)
H17 H 0.22400 0.49590 1.02440
C23 C -0.3280(7) 0.0882(6) 0.9627(4)
H18 H -0.43590 0.08810 0.93420
H19 H -0.34340 0.14050 1.01970
H20 H -0.27260 -0.00390 0.98510
C24 C 0.1104(6) 0.6518(5) 0.9252(4)
H21 H 0.08210 0.71470 0.97210
C25 C 0.5812(7) -0.2941(5) 0.7965(4)
H22 H 0.70180 -0.31830 0.79060
H23 H 0.53220 -0.36610 0.77660
H24 H 0.55110 -0.28080 0.86600
#END
