
#######################################################################
#
#                 Cambridge Crystallographic Data Centre
#                                CCDC
#
#######################################################################
#
# If this CIF has been generated from an entry in the Cambridge
# Structural Database, then it will include bibliographic, chemical,
# crystal, experimental, refinement or atomic coordinate data resulting
# from the CCDC's data processing and validation procedures.
#
#######################################################################

data_CSD_CIF_XESMOZ
_audit_creation_date 2013-03-18
_audit_creation_method CSD-ConQuest-V1
_database_code_CSD XESMOZ
_database_code_depnum_ccdc_archive 'CCDC 867211'
_chemical_formula_sum 'C13 H16 N2 O6'
_chemical_formula_moiety
;
C13 H16 N2 O6
;
_journal_coden_Cambridge 917
_journal_volume 8
_journal_year 2012
_journal_page_first 567
_journal_name_full 'Beilstein J.Org.Chem. '
loop_
_publ_author_name
"P.Jakubec"
"D.M.Cockfield"
"M.Helliwell"
"J.Raftery"
"D.J.Dixon"
_chemical_name_systematic
;
Methyl 3-(1-(3-furyl)-2-nitroethyl)-1-methyl-2-oxopyrrolidine-3-carboxylate
;
_cell_volume   1367.917
_exptl_crystal_colour 'pale colorless'
_exptl_crystal_density_diffrn 1.439
_exptl_crystal_description 'plate'
_diffrn_ambient_temperature 150
#These two values have been output from a single CSD field.
_refine_ls_R_factor_gt 0.0356
_refine_ls_wR_factor_gt 0.0356
_symmetry_cell_setting monoclinic
_symmetry_space_group_name_H-M 'P 21/n'
_symmetry_Int_Tables_number 14
loop_
_symmetry_equiv_pos_site_id
_symmetry_equiv_pos_as_xyz
1 x,y,z
2 1/2-x,1/2+y,1/2-z
3 -x,-y,-z
4 -1/2+x,-1/2-y,-1/2+z
_cell_length_a 6.6527(1)
_cell_length_b 14.3997(2)
_cell_length_c 14.2861(2)
_cell_angle_alpha 90
_cell_angle_beta 91.7612(6)
_cell_angle_gamma 90
_cell_formula_units_Z 4
loop_
_atom_type_symbol
_atom_type_radius_bond
C 0.68
H 0.23
N 0.68
O 0.68
loop_
_atom_site_label
_atom_site_type_symbol
_atom_site_fract_x
_atom_site_fract_y
_atom_site_fract_z
O1 O 0.70440(14) 0.07194(6) 0.42170(6)
C1 C 0.66876(17) 0.15017(8) 0.44624(8)
O2 O 0.64739(13) 0.22185(6) 0.38749(6)
C2 C 0.6658(2) 0.20112(10) 0.28878(8)
C3 C 0.63510(17) 0.18147(8) 0.54698(8)
C4 C 0.66543(17) 0.09745(8) 0.61408(8)
C5 C 0.59216(17) 0.11422(8) 0.71135(8)
C6 C 0.44305(19) 0.06684(9) 0.75203(8)
O3 O 0.41743(14) 0.09682(7) 0.84189(6)
C7 C 0.55601(19) 0.16556(10) 0.85704(9)
C8 C 0.66559(19) 0.17904(10) 0.78068(9)
C9 C 0.88541(18) 0.06446(8) 0.61955(9)
N1 N 0.89163(16) -0.02847(8) 0.66666(8)
O4 O 0.98057(15) -0.03478(8) 0.74243(7)
O5 O 0.80651(19) -0.09311(7) 0.62725(10)
C10 C 0.77673(18) 0.26411(8) 0.56745(8)
O6 O 0.96046(13) 0.25772(6) 0.57985(6)
N2 N 0.67005(16) 0.34262(7) 0.56600(7)
C11 C 0.45800(19) 0.33063(9) 0.54081(9)
C12 C 0.42354(18) 0.22598(9) 0.55188(9)
C13 C 0.7634(2) 0.43376(9) 0.56709(10)
H1 H 0.65350 0.26080 0.25700
H2 H 0.79680 0.17280 0.27850
H3 H 0.55470 0.16020 0.26820
H4 H 0.58800 0.04560 0.58600
H5 H 0.35930 0.01750 0.72520
H6 H 0.56200 0.19680 0.91670
H7 H 0.77180 0.22410 0.77410
H8 H 0.96930 0.10550 0.65750
H9 H 0.93760 0.05650 0.55630
H10 H 0.37190 0.36710 0.58250
H11 H 0.43310 0.35040 0.47530
H12 H 0.36870 0.21300 0.61350
H13 H 0.33380 0.20170 0.50240
H14 H 0.69140 0.47440 0.60760
H15 H 0.90250 0.42670 0.58970
H16 H 0.76170 0.45960 0.50390
#END
