
#######################################################################
#
#                 Cambridge Crystallographic Data Centre
#                                CCDC
#
#######################################################################
#
# If this CIF has been generated from an entry in the Cambridge
# Structural Database, then it will include bibliographic, chemical,
# crystal, experimental, refinement or atomic coordinate data resulting
# from the CCDC's data processing and validation procedures.
#
#######################################################################

data_CSD_CIF_XESTEV
_audit_creation_date 2007-02-02
_audit_creation_method CSD-ConQuest-V1
_database_code_CSD XESTEV
_database_code_depnum_ccdc_archive 'CCDC 627307'
_chemical_formula_sum 'C18 H22 N4 O11'
_chemical_formula_moiety
;
C18 H22 N4 O11
;
_journal_coden_Cambridge 16
_journal_volume 62
_journal_year 2006
_journal_page_first 11916
_journal_name_full 'Tetrahedron '
loop_
_publ_author_name
"M.Fragoso-Serrano"
"R.Pereda-Miranda"
"C.M.Cerda-Garcia-Rojas"
_chemical_name_systematic
;
1-(2,3,4-Tri-O-acetyl-6-deoxy-\b-L-mannopyranosyl)-2-(2,4-dinitrophenyl)hydraz
ine
;
_chemical_melting_point 376.15
_cell_volume   2254.764
_exptl_crystal_colour 'yellow'
_exptl_crystal_density_diffrn 1.386
_exptl_special_details
;
Melting point range 376.15-378.15K

;
_exptl_crystal_description 'prism'
_exptl_crystal_preparation 'ethyl acetate/hexane'
_diffrn_ambient_temperature 293
#These two values have been output from a single CSD field.
_refine_ls_R_factor_gt 0.0565
_refine_ls_wR_factor_gt 0.0565
_symmetry_cell_setting monoclinic
_symmetry_space_group_name_H-M 'C 2'
_symmetry_Int_Tables_number 5
loop_
_symmetry_equiv_pos_site_id
_symmetry_equiv_pos_as_xyz
1 x,y,z
2 -x,y,-z
3 1/2+x,1/2+y,z
4 1/2-x,1/2+y,-z
_cell_length_a 21.017(2)
_cell_length_b 8.154(2)
_cell_length_c 13.591(2)
_cell_angle_alpha 90
_cell_angle_beta 104.517(8)
_cell_angle_gamma 90
_cell_formula_units_Z 4
loop_
_atom_type_symbol
_atom_type_radius_bond
C 0.68
H 0.23
N 0.68
O 0.68
loop_
_atom_site_label
_atom_site_type_symbol
_atom_site_fract_x
_atom_site_fract_y
_atom_site_fract_z
O1 O -0.18329(13) -0.4695(5) -0.8934(2)
O2 O -0.1040(2) -0.4812(5) -0.6878(2)
O3 O -0.29497(15) -0.3565(5) -0.8297(3)
C1 C -0.2414(2) -0.4371(8) -0.7597(3)
H1 H -0.2591(2) -0.5008(8) -0.7115(3)
C2 C -0.2051(2) -0.5527(7) -0.8141(3)
H2 H -0.2336(2) -0.6451(7) -0.8428(3)
C3 C -0.1964(2) -0.3045(7) -0.7013(3)
H3 H -0.1818(2) -0.2297(7) -0.7476(3)
C4 C 0.0308(2) -0.9980(8) -0.6932(4)
N1 N -0.0482(2) -0.7751(6) -0.7271(3)
H4 H -0.0254(2) -0.7187(6) -0.6770(3)
C5 C -0.0308(2) -0.9295(8) -0.7432(3)
C6 C 0.0050(2) -1.2455(8) -0.7837(4)
C7 C -0.0731(2) -1.0313(8) -0.8149(4)
H5 H -0.1140(2) -0.9916(8) -0.8498(4)
O4 O -0.2333(2) -0.2188(6) -0.6417(3)
O5 O -0.3560(2) -0.5814(7) -0.8313(3)
N2 N -0.1045(2) -0.7073(6) -0.7940(3)
C8 C 0.0480(2) -1.1532(9) -0.7137(4)
H6 H 0.0888(2) -1.1957(9) -0.6802(4)
C9 C -0.1430(2) -0.6158(8) -0.7400(4)
H7 H -0.1553(2) -0.6874(8) -0.6899(4)
C10 C -0.1381(2) -0.3867(9) -0.6286(3)
H8 H -0.1541(2) -0.4596(9) -0.5827(3)
O6 O 0.1337(2) -0.9644(9) -0.5888(3)
O7 O -0.2711(2) -0.5607(6) -1.0117(3)
C11 C -0.3511(2) -0.4417(10) -0.8596(4)
C12 C -0.0555(2) -1.1841(8) -0.8336(4)
H9 H -0.0844(2) -1.2491(8) -0.8807(4)
O8 O -0.0124(3) -1.4846(8) -0.8787(4)
O9 O 0.0642(3) -0.7722(9) -0.5897(4)
N3 N 0.0232(3) -1.4109(7) -0.8071(5)
C13 C -0.2357(3) -0.0526(10) -0.6478(4)
O10 O 0.0735(3) -1.4709(8) -0.7550(5)
O11 O -0.2062(2) 0.0241(7) -0.6955(3)
N4 N 0.0794(3) -0.9050(9) -0.6201(4)
C14 C -0.2189(3) -0.4922(8) -0.9908(4)
C15 C -0.1829(3) -0.4243(8) -1.0632(4)
H10 H -0.1387(7) -0.4656(42) -1.0464(21)
H11 H -0.1821(18) -0.3068(9) -1.0587(23)
H12 H -0.2047(13) -0.4569(44) -1.1312(5)
C16 C -0.0895(3) -0.2674(10) -0.5671(4)
H13 H -0.0552(13) -0.3266(11) -0.5207(26)
H14 H -0.1114(5) -0.1969(41) -0.5294(30)
H15 H -0.0708(18) -0.2025(42) -0.6117(5)
C17 C -0.4033(3) -0.3468(11) -0.9262(5)
H16 H -0.3873(7) -0.2999(49) -0.9802(22)
H17 H -0.4170(17) -0.2607(39) -0.8879(10)
H18 H -0.4400(9) -0.4172(17) -0.9543(28)
C18 C -0.2786(3) 0.0129(12) -0.5857(4)
H19 H -0.3214(10) -0.0361(57) -0.6073(32)
H20 H -0.2824(23) 0.1297(16) -0.5942(35)
H21 H -0.2599(16) -0.0124(65) -0.5154(7)
H22 H -0.0964(33) -0.6124(64) -0.8296(49)
#END
