
#######################################################################
#
#                 Cambridge Crystallographic Data Centre
#                                CCDC
#
#######################################################################
#
# If this CIF has been generated from an entry in the Cambridge
# Structural Database, then it will include bibliographic, chemical,
# crystal, experimental, refinement or atomic coordinate data resulting
# from the CCDC's data processing and validation procedures.
#
#######################################################################

data_CSD_CIF_XETJOX
_audit_creation_date 2013-05-20
_audit_creation_method CSD-ConQuest-V1
_database_code_CSD XETJOX
_database_code_depnum_ccdc_archive 'CCDC 895112'
_chemical_formula_sum 'C9 H7 N5 O5'
_chemical_formula_moiety
;
C9 H7 N5 O5
;
_journal_coden_Cambridge 1220
_journal_volume 19
_journal_year 2013
_journal_page_first 509
_journal_name_full 'Chem.-Eur.J. '
loop_
_publ_author_name
"A.S.Kumar"
"V.D.Ghule"
"S.Subramanyam"
"A.K.Sahoo"
_chemical_name_systematic
;
1-(5-Methoxy-2,4-dinitrophenyl)-1H-1,2,3-triazole
;
_cell_volume   1112.773
_exptl_crystal_density_diffrn 1.583
_diffrn_ambient_temperature 293
#These two values have been output from a single CSD field.
_refine_ls_R_factor_gt 0.0366
_refine_ls_wR_factor_gt 0.0366
_symmetry_cell_setting orthorhombic
_symmetry_space_group_name_H-M 'P 21 21 21'
_symmetry_Int_Tables_number 19
loop_
_symmetry_equiv_pos_site_id
_symmetry_equiv_pos_as_xyz
1 x,y,z
2 1/2-x,-y,1/2+z
3 1/2+x,1/2-y,-z
4 -x,1/2+y,1/2-z
_cell_length_a 5.6454(18)
_cell_length_b 13.486(7)
_cell_length_c 14.616(5)
_cell_angle_alpha 90
_cell_angle_beta 90
_cell_angle_gamma 90
_cell_formula_units_Z 4
loop_
_atom_type_symbol
_atom_type_radius_bond
C 0.68
H 0.23
N 0.68
O 0.68
loop_
_atom_site_label
_atom_site_type_symbol
_atom_site_fract_x
_atom_site_fract_y
_atom_site_fract_z
N1 N 0.0082(3) 0.70179(14) 0.79071(12)
N2 N -0.1159(4) 0.72051(15) 0.59519(13)
C1 C 0.1248(3) 0.64569(15) 0.72177(14)
O1 O 0.6064(3) 0.46325(12) 0.70835(11)
N3 N 0.4908(4) 0.47993(15) 0.52066(14)
C2 C 0.1779(4) 0.59356(16) 0.56657(16)
H1 H 0.13110 0.59450 0.50560
C3 C 0.4298(4) 0.52566(16) 0.68593(14)
O2 O -0.1252(3) 0.80296(13) 0.62913(12)
O3 O 0.6991(3) 0.45775(16) 0.53245(13)
C4 C 0.3648(4) 0.53356(15) 0.59359(14)
C5 C 0.3026(4) 0.58180(16) 0.74898(15)
H2 H 0.33820 0.57610 0.81090
C6 C 0.1035(4) 0.75594(16) 0.85795(16)
H3 H 0.26300 0.76770 0.86950
O4 O -0.2421(3) 0.69296(14) 0.53204(14)
O5 O 0.3781(4) 0.46058(15) 0.45148(12)
C7 C 0.0615(4) 0.65148(15) 0.62926(15)
C8 C -0.0864(5) 0.78961(18) 0.90541(18)
H4 H -0.07890 0.83080 0.95640
C9 C 0.6496(5) 0.44398(19) 0.80415(16)
H5 H 0.77140 0.39470 0.81010
H6 H 0.50670 0.42040 0.83230
H7 H 0.69950 0.50400 0.83370
N4 N -0.2331(3) 0.70077(17) 0.79642(16)
N5 N -0.2889(3) 0.75439(18) 0.86763(18)
#END
