
#######################################################################
#
#                 Cambridge Crystallographic Data Centre
#                                CCDC
#
#######################################################################
#
# If this CIF has been generated from an entry in the Cambridge
# Structural Database, then it will include bibliographic, chemical,
# crystal, experimental, refinement or atomic coordinate data resulting
# from the CCDC's data processing and validation procedures.
#
#######################################################################

data_CSD_CIF_XETJEN
_audit_creation_date 2013-05-20
_audit_creation_method CSD-ConQuest-V1
_database_code_CSD XETJEN
_database_code_depnum_ccdc_archive 'CCDC 895114'
_chemical_formula_sum 'C11 H11 N7 O1'
_chemical_formula_moiety
;
C11 H11 N7 O1
;
_journal_coden_Cambridge 1220
_journal_volume 19
_journal_year 2013
_journal_page_first 509
_journal_name_full 'Chem.-Eur.J. '
loop_
_publ_author_name
"A.S.Kumar"
"V.D.Ghule"
"S.Subramanyam"
"A.K.Sahoo"
_chemical_name_systematic
;
2,6-bis(1H-1,2,3-Triazol-1-ylmethyl)pyridine 1-oxide
;
_cell_volume   1182.712
_exptl_crystal_density_diffrn 1.445
_diffrn_ambient_temperature 298
#These two values have been output from a single CSD field.
_refine_ls_R_factor_gt 0.0504
_refine_ls_wR_factor_gt 0.0504
_symmetry_cell_setting monoclinic
_symmetry_space_group_name_H-M 'C 2/c'
_symmetry_Int_Tables_number 15
loop_
_symmetry_equiv_pos_site_id
_symmetry_equiv_pos_as_xyz
1 x,y,z
2 -x,y,1/2-z
3 1/2+x,1/2+y,z
4 1/2-x,1/2+y,1/2-z
5 -x,-y,-z
6 x,-y,-1/2+z
7 -1/2-x,-1/2-y,-z
8 -1/2+x,-1/2-y,-1/2+z
_cell_length_a 14.179(3)
_cell_length_b 7.7450(17)
_cell_length_c 10.792(2)
_cell_angle_alpha 90
_cell_angle_beta 93.667(4)
_cell_angle_gamma 90
_cell_formula_units_Z 4
loop_
_atom_type_symbol
_atom_type_radius_bond
C 0.68
H 0.23
N 0.68
O 0.68
loop_
_atom_site_label
_atom_site_type_symbol
_atom_site_fract_x
_atom_site_fract_y
_atom_site_fract_z
C1 C 0.43523(13) 0.0387(2) 0.31325(16)
N1 N 0.50000 0.1248(3) 0.25000
N2 N 0.29061(11) 0.0629(2) 0.42408(13)
O1 O 0.50000 0.2938(2) 0.25000
C2 C 0.50000 -0.2269(4) 0.25000
H1 H 0.50000 -0.34690 0.25000
C3 C 0.43480(13) -0.1371(2) 0.31308(17)
H2 H 0.39010 -0.19650 0.35590
N3 N 0.29213(13) 0.0146(2) 0.54328(14)
C4 C 0.15986(14) -0.0591(3) 0.45047(18)
H3 H 0.09940 -0.10460 0.43700
C5 C 0.20936(14) 0.0186(3) 0.36462(17)
H4 H 0.19080 0.03740 0.28150
N4 N 0.21144(13) -0.0606(2) 0.55861(15)
C6 C 0.36915(15) 0.1544(3) 0.3765(2)
H5 H 0.40380 0.21300 0.44460
H6 H 0.34510 0.24150 0.31820
C1A C 0.56477(13) 0.0387(2) 0.18675(16)
N2A N 0.70939(11) 0.0629(2) 0.07592(13)
C3A C 0.56520(13) -0.1371(2) 0.18692(17)
H2A H 0.60990 -0.19650 0.14410
N3A N 0.70787(13) 0.0146(2) -0.04328(14)
C4A C 0.84014(14) -0.0591(3) 0.04953(18)
H3A H 0.90060 -0.10460 0.06300
C5A C 0.79064(14) 0.0186(3) 0.13538(17)
H4A H 0.80920 0.03740 0.21850
N4A N 0.78856(13) -0.0606(2) -0.05861(15)
C6A C 0.63085(15) 0.1544(3) 0.1235(2)
H5A H 0.59620 0.21300 0.05540
H6A H 0.65490 0.24150 0.18180
#END
