
#######################################################################
#
#                 Cambridge Crystallographic Data Centre
#                                CCDC
#
#######################################################################
#
# If this CIF has been generated from an entry in the Cambridge
# Structural Database, then it will include bibliographic, chemical,
# crystal, experimental, refinement or atomic coordinate data resulting
# from the CCDC's data processing and validation procedures.
#
#######################################################################

data_CSD_CIF_XETJUD
_audit_creation_date 2013-05-20
_audit_creation_method CSD-ConQuest-V1
_database_code_CSD XETJUD
_database_code_depnum_ccdc_archive 'CCDC 895111'
_chemical_formula_sum 'C9 H7 N5 O5'
_chemical_formula_moiety
;
C9 H7 N5 O5
;
_journal_coden_Cambridge 1220
_journal_volume 19
_journal_year 2013
_journal_page_first 509
_journal_name_full 'Chem.-Eur.J. '
loop_
_publ_author_name
"A.S.Kumar"
"V.D.Ghule"
"S.Subramanyam"
"A.K.Sahoo"
_chemical_name_systematic
;
1-(3-Methoxy-2,6-dinitrophenyl)-1H-1,2,3-triazole
;
_cell_volume   2316.547
_exptl_crystal_density_diffrn 1.521
_diffrn_ambient_temperature 273
#These two values have been output from a single CSD field.
_refine_ls_R_factor_gt 0.0682
_refine_ls_wR_factor_gt 0.0682
_symmetry_cell_setting monoclinic
_symmetry_space_group_name_H-M 'P 21/c'
_symmetry_Int_Tables_number 14
loop_
_symmetry_equiv_pos_site_id
_symmetry_equiv_pos_as_xyz
1 x,y,z
2 -x,1/2+y,1/2-z
3 -x,-y,-z
4 x,-1/2-y,-1/2+z
_cell_length_a 10.8498(16)
_cell_length_b 12.1869(18)
_cell_length_c 18.249(3)
_cell_angle_alpha 90
_cell_angle_beta 106.253(2)
_cell_angle_gamma 90
_cell_formula_units_Z 8
loop_
_atom_type_symbol
_atom_type_radius_bond
C 0.68
H 0.23
N 0.68
O 0.68
loop_
_atom_site_label
_atom_site_type_symbol
_atom_site_fract_x
_atom_site_fract_y
_atom_site_fract_z
N1 N 0.1956(2) 0.9822(2) 0.15381(13)
C1 C 0.1386(3) 0.9195(2) 0.20145(16)
N2 N 0.3224(2) 0.9766(3) 0.16282(17)
N3 N 0.2655(3) 1.0288(3) 0.30838(17)
C2 C 0.1705(3) 0.9430(2) 0.27768(18)
C3 C 0.0495(3) 0.8367(3) 0.17428(19)
C4 C 0.1401(3) 1.0523(3) 0.09826(17)
H1 H 0.05380 1.07160 0.08130
C5 C 0.1137(4) 0.8911(3) 0.3281(2)
N4 N 0.3461(3) 1.0422(3) 0.11258(19)
O1 O 0.2381(3) 1.1217(2) 0.2878(2)
O2 O 0.1505(3) 0.9254(2) 0.40006(14)
N5 N 0.0146(4) 0.8010(3) 0.09446(19)
O3 O 0.3662(3) 1.0008(3) 0.35182(18)
C6 C 0.2367(3) 1.0886(3) 0.0723(2)
H2 H 0.22870 1.13830 0.03260
C7 C -0.0069(4) 0.7846(3) 0.2231(2)
H3 H -0.06720 0.72990 0.20440
O4 O 0.0828(4) 0.8256(3) 0.05550(18)
C8 C 0.0234(4) 0.8112(3) 0.2986(2)
H4 H -0.01700 0.77520 0.33040
O5 O -0.0799(3) 0.7447(3) 0.0725(2)
C9 C 0.0860(6) 0.8810(5) 0.4525(3)
H5 H -0.00430 0.89580 0.43400
H6 H 0.11960 0.91460 0.50170
H7 H 0.09980 0.80320 0.45700
N6 N 0.7031(2) 1.0083(2) 0.15044(14)
N7 N 0.8293(2) 1.0188(3) 0.15679(16)
N8 N 0.7640(3) 1.0747(3) 0.30116(17)
C10 C 0.6618(3) 0.9410(2) 0.20277(17)
C11 C 0.6915(3) 0.9730(3) 0.27754(17)
N9 N 0.8387(3) 1.0846(3) 0.10317(17)
C12 C 0.5917(3) 0.8458(3) 0.18189(18)
O6 O 0.6864(3) 0.9563(2) 0.40346(14)
O7 O 0.8710(3) 1.0672(3) 0.34510(16)
N10 N 0.5588(3) 0.8020(3) 0.10394(18)
O8 O 0.7135(3) 1.1602(2) 0.27435(18)
C13 C 0.5823(3) 0.8205(3) 0.3100(2)
H8 H 0.55480 0.77930 0.34540
C14 C 0.6531(3) 0.9148(3) 0.33337(19)
C15 C 0.6341(3) 1.0689(3) 0.09235(18)
H9 H 0.54540 1.07680 0.07600
C16 C 0.7212(3) 1.1159(3) 0.0628(2)
H10 H 0.70280 1.16280 0.02100
C17 C 0.5522(3) 0.7872(3) 0.2359(2)
H11 H 0.50410 0.72360 0.22150
O9 O 0.4697(3) 0.7390(3) 0.08536(17)
O10 O 0.6215(4) 0.8294(3) 0.06248(18)
C18 C 0.6404(5) 0.9047(5) 0.4612(2)
H12 H 0.54830 0.90400 0.44550
H13 H 0.67020 0.94490 0.50810
H14 H 0.67200 0.83080 0.46870
#END
