
#######################################################################
#
#                 Cambridge Crystallographic Data Centre
#                                CCDC
#
#######################################################################
#
# If this CIF has been generated from an entry in the Cambridge
# Structural Database, then it will include bibliographic, chemical,
# crystal, experimental, refinement or atomic coordinate data resulting
# from the CCDC's data processing and validation procedures.
#
#######################################################################

data_CSD_CIF_XETKAK
_audit_creation_date 2013-05-20
_audit_creation_method CSD-ConQuest-V1
_database_code_CSD XETKAK
_database_code_depnum_ccdc_archive 'CCDC 895110'
_chemical_formula_sum 'C9 H7 N5 O4'
_chemical_formula_moiety
;
C9 H7 N5 O4
;
_journal_coden_Cambridge 1220
_journal_volume 19
_journal_year 2013
_journal_page_first 509
_journal_name_full 'Chem.-Eur.J. '
loop_
_publ_author_name
"A.S.Kumar"
"V.D.Ghule"
"S.Subramanyam"
"A.K.Sahoo"
_chemical_name_systematic
;
1-(3,4-Dinitrobenzyl)-1H-1,2,3-triazole
;
_cell_volume   1074.677
_diffrn_ambient_temperature 293
#These two values have been output from a single CSD field.
_refine_ls_R_factor_gt 0.045
_refine_ls_wR_factor_gt 0.045
_symmetry_cell_setting monoclinic
_symmetry_space_group_name_H-M 'P 21/c'
_symmetry_Int_Tables_number 14
loop_
_symmetry_equiv_pos_site_id
_symmetry_equiv_pos_as_xyz
1 x,y,z
2 -x,1/2+y,1/2-z
3 -x,-y,-z
4 x,-1/2-y,-1/2+z
_cell_length_a 8.6097(7)
_cell_length_b 11.3982(8)
_cell_length_c 11.0544(7)
_cell_angle_alpha 90
_cell_angle_beta 97.843(7)
_cell_angle_gamma 90
_cell_formula_units_Z 4
loop_
_atom_type_symbol
_atom_type_radius_bond
C 0.68
H 0.23
N 0.68
O 0.68
loop_
_atom_site_label
_atom_site_type_symbol
_atom_site_fract_x
_atom_site_fract_y
_atom_site_fract_z
N1 N 0.37346(15) 0.26122(11) 0.17414(10)
C1 C 0.15327(16) -0.14291(12) 0.21198(12)
N2 N 0.24231(16) -0.11672(11) 0.43543(11)
N3 N 0.07047(16) -0.25221(11) 0.23283(12)
O1 O 0.13407(17) -0.31820(11) 0.31285(12)
O2 O -0.05238(14) -0.27281(12) 0.16779(11)
O3 O 0.11573(14) -0.12327(13) 0.47125(10)
C2 C 0.24521(16) -0.08449(12) 0.30637(12)
C3 C 0.33502(18) 0.01003(13) 0.28304(13)
C4 C 0.33406(18) 0.04793(13) 0.16242(14)
N4 N 0.41220(18) 0.30108(14) 0.28814(12)
C5 C 0.1500(2) -0.10427(14) 0.09328(14)
N5 N 0.33281(19) 0.39824(13) 0.29711(14)
O4 O 0.36715(15) -0.13111(15) 0.49921(11)
C6 C 0.4361(2) 0.15040(15) 0.1358(2)
C7 C 0.2682(2) 0.33280(16) 0.11124(16)
C8 C 0.2410(2) -0.00953(15) 0.06952(15)
C9 C 0.2444(2) 0.41886(16) 0.19009(17)
H1 H 0.536(2) 0.1427(19) 0.1836(18)
H2 H 0.239(2) 0.0156(18) -0.0097(18)
H3 H 0.0897(19) -0.1490(16) 0.0313(16)
H4 H 0.448(2) 0.1573(19) 0.055(2)
H5 H 0.3969(19) 0.0509(15) 0.3528(15)
H6 H 0.229(2) 0.3130(17) 0.0361(17)
H7 H 0.175(2) 0.4812(19) 0.1779(16)
#END
