
#######################################################################
#
#                 Cambridge Crystallographic Data Centre
#                                CCDC
#
#######################################################################
#
# If this CIF has been generated from an entry in the Cambridge
# Structural Database, then it will include bibliographic, chemical,
# crystal, experimental, refinement or atomic coordinate data resulting
# from the CCDC's data processing and validation procedures.
#
#######################################################################

data_CSD_CIF_XETNOA
_audit_creation_date 2007-02-02
_audit_creation_method CSD-ConQuest-V1
_database_code_CSD XETNOA
_database_code_depnum_ccdc_archive 'CCDC 286072'
_chemical_formula_sum 'C13 H11 N1 O2'
_chemical_formula_moiety
;
C13 H11 N1 O2
;
_journal_coden_Cambridge 1147
_journal_volume 6
_journal_year 2006
_journal_page_first 2007
_journal_name_full 'Cryst.Growth Des. '
loop_
_publ_author_name
"R.Yamasaki"
"A.Tanatani"
"I.Azumaya"
"H.Masu"
"K.Yamaguchi"
"H.Kagechika"
_chemical_name_systematic
;
trans-N-Phenylbenzohydroxamic acid
;
_cell_volume   1008.793
_exptl_crystal_colour 'colorless'
_exptl_crystal_density_diffrn 1.404
_exptl_crystal_description 'prismatic'
_exptl_crystal_preparation 'perdeuteroacetone'
_diffrn_ambient_temperature 100
#These two values have been output from a single CSD field.
_refine_ls_R_factor_gt 0.0285
_refine_ls_wR_factor_gt 0.0285
loop_
_citation_database_id_CSD
_citation_special_details
XERSOD "is a stereoisomer of this entry"
_symmetry_cell_setting monoclinic
_symmetry_space_group_name_H-M 'P 21'
_symmetry_Int_Tables_number 4
loop_
_symmetry_equiv_pos_site_id
_symmetry_equiv_pos_as_xyz
1 x,y,z
2 -x,1/2+y,-z
_cell_length_a 5.499(2)
_cell_length_b 15.170(6)
_cell_length_c 12.288(5)
_cell_angle_alpha 90
_cell_angle_beta 100.222(3)
_cell_angle_gamma 90
_cell_formula_units_Z 4
loop_
_atom_type_symbol
_atom_type_radius_bond
C 0.68
H 0.23
N 0.68
O 0.68
loop_
_atom_site_label
_atom_site_type_symbol
_atom_site_fract_x
_atom_site_fract_y
_atom_site_fract_z
C1 C 1.1247(4) 0.13892(14) 1.08319(18)
N1 N 0.9122(3) 0.15108(13) 0.89085(14)
C2 C 1.1288(4) 0.13468(14) 0.96190(17)
O1 O 0.7421(3) 0.20275(10) 0.93499(11)
H1 H 0.61070 0.17420 0.93350
O2 O 1.3192(3) 0.11387(10) 0.92804(11)
C3 C 0.9399(4) 0.09884(14) 1.13061(17)
H2 H 0.80180 0.07260 1.08460
C4 C 1.0207(4) 0.09464(14) 0.71640(18)
H3 H 1.16040 0.06500 0.75670
C5 C 0.6629(4) 0.18636(15) 0.71250(18)
H4 H 0.55740 0.22020 0.74970
C6 C 1.3252(4) 0.17733(14) 1.15158(17)
H5 H 1.45390 0.20340 1.12020
C7 C 0.7622(4) 0.13084(16) 0.54235(17)
H6 H 0.72730 0.12650 0.46400
C8 C 0.8671(4) 0.14493(15) 0.77253(18)
C9 C 0.9575(4) 0.09721(14) 1.24428(17)
H7 H 0.83360 0.06870 1.27640
C10 C 1.3382(4) 0.17777(14) 1.26512(18)
H8 H 1.47260 0.20600 1.31120
C11 C 1.1566(4) 0.13735(16) 1.31145(17)
H9 H 1.16750 0.13690 1.38950
C12 C 0.6108(4) 0.17885(15) 0.59776(19)
H10 H 0.46900 0.20720 0.55740
C13 C 0.9677(4) 0.08857(15) 0.60279(17)
H11 H 1.07280 0.05510 0.56510
C14 C 0.4646(4) 0.43447(14) 1.18370(17)
H12 H 0.33030 0.46450 1.13980
O3 O 0.2570(3) 0.33622(10) 0.98539(11)
H13 H 0.12760 0.36590 0.98430
O4 O 0.8353(3) 0.42475(10) 0.97857(11)
C15 C 0.3891(4) 0.39035(16) 0.82292(17)
C16 C 0.8385(4) 0.34917(14) 1.19828(16)
H14 H 0.96220 0.32190 1.16480
C17 C 0.4897(4) 0.43958(16) 0.65035(17)
H15 H 0.59630 0.47070 0.61090
C18 C 0.6765(4) 0.38619(16) 1.36127(17)
H16 H 0.68770 0.38360 1.43920
C19 C 0.1287(4) 0.35184(16) 0.65038(17)
H17 H -0.01240 0.32240 0.61100
N2 N 0.4300(3) 0.38655(13) 0.94090(13)
C20 C 0.6459(4) 0.40182(15) 1.01224(18)
C21 C 0.4828(4) 0.43155(15) 1.29708(18)
H18 H 0.36300 0.46050 1.33130
C22 C 0.5439(4) 0.43696(15) 0.76557(18)
H19 H 0.68500 0.46670 0.80450
C23 C 0.6434(4) 0.39328(14) 1.13313(16)
C24 C 0.8526(4) 0.34494(15) 1.31206(18)
H20 H 0.98390 0.31360 1.35620
C25 C 0.2827(4) 0.39753(16) 0.59260(17)
H21 H 0.24680 0.40000 0.51410
C26 C 0.1774(4) 0.34855(14) 0.76443(18)
H22 H 0.06830 0.31820 0.80330
#END
