
#######################################################################
#
#                 Cambridge Crystallographic Data Centre
#                                CCDC
#
#######################################################################
#
# If this CIF has been generated from an entry in the Cambridge
# Structural Database, then it will include bibliographic, chemical,
# crystal, experimental, refinement or atomic coordinate data resulting
# from the CCDC's data processing and validation procedures.
#
#######################################################################

data_CSD_CIF_XETXOL
_audit_creation_date 2013-05-20
_audit_creation_method CSD-ConQuest-V1
_database_code_CSD XETXOL
_database_code_depnum_ccdc_archive 'CCDC 894928'
_chemical_formula_sum 'C25 H20 N2 O2'
_chemical_formula_moiety
;
C25 H20 N2 O2
;
_journal_coden_Cambridge 1048
_journal_volume 15
_journal_year 2013
_journal_page_first 718
_journal_name_full 'Green Chemistry '
loop_
_publ_author_name
"Shengtao Xu"
"Yu Zhou"
"Jinyi Xu"
"Hualiang Jiang"
"Hong Liu"
_chemical_name_systematic
;
6-(4-Methylphenyl)-12-(nitromethyl)-5,12-dihydrobenzo[4,5]cyclohepta[1,2-b]ind
ole
;
_cell_volume   3947.212
_exptl_crystal_colour 'colorless'
_exptl_crystal_density_diffrn 1.28
_exptl_crystal_description 'Columnar'
_diffrn_ambient_temperature 100
#These two values have been output from a single CSD field.
_refine_ls_R_factor_gt 0.0383
_refine_ls_wR_factor_gt 0.0383
_symmetry_cell_setting monoclinic
_symmetry_space_group_name_H-M 'C 2/c'
_symmetry_Int_Tables_number 15
loop_
_symmetry_equiv_pos_site_id
_symmetry_equiv_pos_as_xyz
1 x,y,z
2 -x,y,1/2-z
3 1/2+x,1/2+y,z
4 1/2-x,1/2+y,1/2-z
5 -x,-y,-z
6 x,-y,-1/2+z
7 -1/2-x,-1/2-y,-z
8 -1/2+x,-1/2-y,-1/2+z
_cell_length_a 20.8671(8)
_cell_length_b 10.4343(4)
_cell_length_c 18.5300(7)
_cell_angle_alpha 90
_cell_angle_beta 101.947(2)
_cell_angle_gamma 90
_cell_formula_units_Z 8
loop_
_atom_type_symbol
_atom_type_radius_bond
C 0.68
H 0.23
N 0.68
O 0.68
loop_
_atom_site_label
_atom_site_type_symbol
_atom_site_fract_x
_atom_site_fract_y
_atom_site_fract_z
O1 O 0.07923(6) 1.00326(11) -0.20256(5)
O2 O 0.13082(5) 0.82937(11) -0.16285(6)
C1 C 0.06994(5) 1.19136(10) 0.05105(6)
N1 N 0.11293(4) 1.07036(9) 0.14996(5)
H1 H 0.12250 1.04070 0.19420
N2 N 0.09910(5) 0.92485(11) -0.15411(5)
C2 C 0.08560(5) 0.95047(12) -0.07927(6)
H2 H 0.09950 0.87780 -0.04720
H3 H 0.03900 0.96280 -0.08280
C3 C 0.12308(5) 1.07141(10) -0.04688(5)
H4 H 0.10510 1.14420 -0.07800
C4 C 0.11022(5) 1.09443(10) 0.02876(5)
C5 C 0.13459(5) 1.02033(10) 0.08983(5)
C6 C 0.17561(5) 0.9063(1) 0.09540(6)
C7 C 0.16790(5) 0.80844(10) 0.15158(5)
C8 C 0.10557(5) 0.77716(11) 0.16319(6)
H5 H 0.06910 0.82020 0.13700
C9 C 0.09759(6) 0.68279(12) 0.21323(7)
H6 H 0.05570 0.66310 0.21980
C10 C 0.15113(6) 0.61686(11) 0.25386(6)
C11 C 0.14215(7) 0.51561(14) 0.30896(8)
H7 H 0.12320 0.44040 0.28330
H8 H 0.11360 0.54750 0.33940
H9 H 0.18390 0.49440 0.33930
C12 C 0.02890(5) 1.28786(11) 0.01407(6)
H10 H 0.02510 1.30050 -0.03630
C13 C -0.00566(5) 1.36361(12) 0.05385(7)
H11 H -0.03400 1.42590 0.02950
C14 C 0.00119(6) 1.34826(12) 0.13053(7)
H12 H -0.02150 1.40270 0.15610
C15 C 0.04091(5) 1.25412(11) 0.16855(6)
H13 H 0.04560 1.24420 0.21920
C16 C 0.07376(5) 1.17459(10) 0.12772(6)
C17 C 0.21294(5) 0.64810(11) 0.24222(6)
H14 H 0.24940 0.60490 0.26850
C18 C 0.22141(5) 0.74250(11) 0.19226(6)
H15 H 0.26340 0.76200 0.18590
C19 C 0.21903(5) 0.88709(10) 0.05130(6)
H16 H 0.24060 0.80860 0.05730
C20 C 0.23713(5) 0.97189(10) -0.00454(6)
C21 C 0.19556(5) 1.06214(11) -0.04758(5)
C22 C 0.22014(6) 1.13914(12) -0.09723(6)
H17 H 0.19300 1.20010 -0.12470
C23 C 0.28414(6) 1.12682(13) -0.10656(7)
H18 H 0.29980 1.17980 -0.13940
C24 C 0.32459(6) 1.03502(13) -0.06663(6)
H19 H 0.36720 1.02450 -0.07350
C25 C 0.30136(5) 0.95898(12) -0.01648(6)
H20 H 0.32890 0.89760 0.01010
#END
