
#######################################################################
#
#                 Cambridge Crystallographic Data Centre
#                                CCDC
#
#######################################################################
#
# If this CIF has been generated from an entry in the Cambridge
# Structural Database, then it will include bibliographic, chemical,
# crystal, experimental, refinement or atomic coordinate data resulting
# from the CCDC's data processing and validation procedures.
#
#######################################################################

data_CSD_CIF_XETYUS
_audit_creation_date 2013-05-20
_audit_creation_method CSD-ConQuest-V1
_database_code_CSD XETYUS
_database_code_depnum_ccdc_archive 'CCDC 894884'
_chemical_formula_sum 'C10 H11 N5 O2'
_chemical_formula_moiety
;
C10 H11 N5 O2
;
_journal_coden_Cambridge 16
_journal_volume 69
_journal_year 2013
_journal_page_first 1669
_journal_name_full 'Tetrahedron '
loop_
_publ_author_name
"O.Mammoliti"
"E.M.Quinton"
"K.T.J.Loones"
"Anh Tho Nguyen"
"J.Wouters"
"Guy Van Lommen"
_chemical_name_systematic
;
3-Ethyl-1-(2-nitrophenyl)-1H-1,2,4-triazol-5-amine
;
_cell_volume   1121.103
_exptl_crystal_colour 'pale yellow'
_exptl_crystal_density_diffrn 1.382
_exptl_crystal_description 'needle'
_diffrn_ambient_temperature 293
#These two values have been output from a single CSD field.
_refine_ls_R_factor_gt 0.0405
_refine_ls_wR_factor_gt 0.0405
_symmetry_cell_setting triclinic
_symmetry_space_group_name_H-M 'P -1'
_symmetry_Int_Tables_number 2
loop_
_symmetry_equiv_pos_site_id
_symmetry_equiv_pos_as_xyz
1 x,y,z
2 -x,-y,-z
_cell_length_a 7.2891(4)
_cell_length_b 7.8977(5)
_cell_length_c 20.3356(13)
_cell_angle_alpha 90.572(5)
_cell_angle_beta 97.103(5)
_cell_angle_gamma 104.984(5)
_cell_formula_units_Z 4
loop_
_atom_type_symbol
_atom_type_radius_bond
C 0.68
H 0.23
N 0.68
O 0.68
loop_
_atom_site_label
_atom_site_type_symbol
_atom_site_fract_x
_atom_site_fract_y
_atom_site_fract_z
N1 N 0.73954(18) 0.07649(18) 0.36331(7)
N2 N 0.86555(19) -0.03001(18) 0.37347(7)
N3 N 0.67149(18) -0.06227(18) 0.45364(7)
N4 N 0.4887(2) 0.1352(2) 0.41800(8)
H1 H 0.42220 0.11390 0.45050
H2 H 0.46710 0.20890 0.38920
N5 N 1.0925(2) 0.2944(2) 0.32864(9)
O1 O 1.10506(19) 0.3430(2) 0.38619(8)
O2 O 1.22580(19) 0.2676(2) 0.30320(8)
C1 C 0.7399(2) 0.1771(2) 0.30629(8)
C2 C 0.9100(2) 0.2748(2) 0.28645(8)
C3 C 0.9142(3) 0.3594(2) 0.22758(9)
H3 H 1.03070 0.41810 0.21420
C4 C 0.7452(3) 0.3565(3) 0.18869(10)
H4 H 0.74600 0.41610 0.14950
C5 C 0.5745(3) 0.2643(3) 0.20835(10)
H5 H 0.45960 0.26380 0.18260
C6 C 0.5722(2) 0.1729(2) 0.26568(9)
H6 H 0.45600 0.10750 0.27720
C7 C 0.6262(2) 0.0533(2) 0.41229(9)
C8 C 0.8166(2) -0.1086(2) 0.42737(9)
C9 C 0.9067(3) -0.2443(2) 0.45685(10)
H7 H 0.94060 -0.21920 0.50420
H8 H 1.02370 -0.23870 0.43790
C10 C 0.7759(4) -0.4267(3) 0.44489(14)
H9 H 0.65510 -0.42990 0.45970
H10 H 0.83320 -0.50810 0.46900
H11 H 0.75620 -0.45840 0.39840
N6 N 1.23560(18) -0.22394(19) 0.11552(7)
N7 N 1.05174(19) -0.2839(2) 0.08074(7)
N8 N 1.2622(2) -0.14223(19) 0.01372(7)
N9 N 1.5428(2) -0.0617(2) 0.09185(8)
H12 H 1.61220 -0.00880 0.06310
H13 H 1.59300 -0.06530 0.13220
N10 N 1.0002(2) -0.1010(2) 0.19774(8)
O3 O 0.83898(19) -0.1564(2) 0.21200(8)
O4 O 1.0512(2) 0.0256(2) 0.16452(8)
C11 C 1.2650(2) -0.2379(2) 0.18454(8)
C12 C 1.1464(2) -0.1880(2) 0.22534(9)
C13 C 1.1654(2) -0.2100(2) 0.29247(9)
H14 H 1.08080 -0.18030 0.31830
C14 C 1.3121(3) -0.2769(2) 0.32093(10)
H15 H 1.32880 -0.29020 0.36650
C15 C 1.4333(3) -0.3238(3) 0.28201(11)
H16 H 1.53360 -0.36650 0.30150
C16 C 1.4079(2) -0.3082(2) 0.21418(10)
H17 H 1.48770 -0.34530 0.18820
C17 C 1.3564(2) -0.1383(2) 0.07374(9)
C18 C 1.0779(2) -0.2327(2) 0.02088(9)
C19 C 0.9218(3) -0.2687(3) -0.03589(10)
H18 H 0.95670 -0.33620 -0.07020
H19 H 0.91210 -0.15790 -0.05420
C20 C 0.7281(3) -0.3664(3) -0.01915(11)
H20 H 0.73440 -0.47850 -0.00260
H21 H 0.63590 -0.38320 -0.05830
H22 H 0.69050 -0.29990 0.01410
#END
