
#######################################################################
#
#                 Cambridge Crystallographic Data Centre
#                                CCDC
#
#######################################################################
#
# If this CIF has been generated from an entry in the Cambridge
# Structural Database, then it will include bibliographic, chemical,
# crystal, experimental, refinement or atomic coordinate data resulting
# from the CCDC's data processing and validation procedures.
#
#######################################################################

data_CSD_CIF_XEVFEL
_audit_creation_date 2013-05-20
_audit_creation_method CSD-ConQuest-V1
_database_code_CSD XEVFEL
_database_code_depnum_ccdc_archive 'CCDC 894734'
_chemical_formula_sum 'C24 H23 N3 O7'
_chemical_formula_moiety
;
C24 H23 N3 O7
;
_journal_coden_Cambridge 1500
_journal_volume 3
_journal_year 2013
_journal_page_first 4526
_journal_name_full 'RSC Advances '
loop_
_publ_author_name
"M.Saquib"
"I.Husain"
"R.Kant"
"S.Meena"
"H.M.Gauniyal"
"S.Sinha"
"P.R.Maulik"
"A.K.Shaw"
_chemical_name_systematic
;
((5R,7S)-7-Isopropoxy-3-(4-nitrophenyl)-4-oxo-2-phenyl-2,4,5,7-tetrahydropyran
o[3,4-c]pyrazol-5-yl)methyl acetate
;
_chemical_melting_point 200
_cell_volume   2191.804
_exptl_crystal_colour 'yellowish'
_exptl_crystal_density_diffrn 1.411
_exptl_crystal_description 'rectangular block'
_diffrn_ambient_temperature 100
#These two values have been output from a single CSD field.
_refine_ls_R_factor_gt 0.0464
_refine_ls_wR_factor_gt 0.0464
_symmetry_cell_setting orthorhombic
_symmetry_space_group_name_H-M 'P 21 21 21'
_symmetry_Int_Tables_number 19
loop_
_symmetry_equiv_pos_site_id
_symmetry_equiv_pos_as_xyz
1 x,y,z
2 1/2-x,-y,1/2+z
3 1/2+x,1/2-y,-z
4 -x,1/2+y,1/2-z
_cell_length_a 5.9798(9)
_cell_length_b 14.147(2)
_cell_length_c 25.909(4)
_cell_angle_alpha 90
_cell_angle_beta 90
_cell_angle_gamma 90
_cell_formula_units_Z 4
loop_
_atom_type_symbol
_atom_type_radius_bond
C 0.68
H 0.23
N 0.68
O 0.68
loop_
_atom_site_label
_atom_site_type_symbol
_atom_site_fract_x
_atom_site_fract_y
_atom_site_fract_z
C1 C -0.7234(5) 1.22633(19) 0.04076(10)
H1 H -0.68270 1.29050 0.03010
H2 H -0.88480 1.22310 0.04700
H3 H -0.68260 1.18160 0.01340
C2 C -0.6016(5) 1.20156(17) 0.0890(1)
C3 C -0.2654(5) 1.13585(18) 0.12246(9)
H4 H -0.35610 1.13700 0.15440
H5 H -0.14210 1.18200 0.12630
C4 C -0.1706(4) 1.03834(17) 0.11436(9)
H6 H -0.29420 0.99520 0.10340
C5 C -0.0717(4) 1.00145(16) 0.16476(9)
C6 C 0.1225(4) 0.94077(16) 0.15763(9)
C7 C 0.1999(4) 0.91786(16) 0.10816(9)
C8 C 0.0984(4) 0.95801(16) 0.06009(9)
H7 H 0.21850 0.97070 0.03420
C9 C -0.1405(4) 0.91325(18) -0.01060(9)
H8 H -0.16810 0.98280 -0.01310
C10 C -0.3584(5) 0.86119(19) -0.01517(10)
H9 H -0.45530 0.87800 0.01390
H10 H -0.33030 0.79290 -0.01480
H11 H -0.43200 0.87870 -0.04760
C11 C 0.0210(5) 0.88344(18) -0.05232(9)
H12 H 0.04130 0.81470 -0.05110
H13 H 0.16530 0.91470 -0.04680
H14 H -0.03880 0.90160 -0.08610
C12 C 0.2560(4) 0.89073(16) 0.19177(9)
C13 C 0.5699(4) 0.77365(16) 0.17629(9)
C14 C 0.7578(4) 0.76440(17) 0.14540(9)
H15 H 0.77370 0.80170 0.11510
C15 C 0.9218(5) 0.70040(17) 0.15909(10)
H16 H 1.05060 0.69380 0.13790
C16 C 0.9014(5) 0.64593(18) 0.20303(9)
H17 H 1.01640 0.60290 0.21240
C17 C 0.7119(5) 0.65459(18) 0.23328(10)
H18 H 0.69710 0.61690 0.26340
C18 C 0.5438(5) 0.71726(17) 0.22026(9)
H19 H 0.41270 0.72200 0.24080
C19 C 0.2527(4) 0.89101(16) 0.24890(9)
C20 C 0.0585(4) 0.86380(16) 0.27420(9)
H20 H -0.06550 0.84140 0.25480
C21 C 0.0441(5) 0.86905(16) 0.32754(9)
H21 H -0.08920 0.85170 0.34510
C22 C 0.2287(5) 0.90015(17) 0.35417(9)
C23 C 0.4269(5) 0.92543(17) 0.33043(9)
H22 H 0.55280 0.94480 0.35010
C24 C 0.4363(4) 0.92164(16) 0.27709(9)
H23 H 0.56920 0.94010 0.25970
N1 N 0.3687(4) 0.85692(14) 0.10984(7)
N2 N 0.4012(4) 0.84033(13) 0.16185(7)
N3 N 0.2157(4) 0.90728(15) 0.41077(8)
O1 O -0.6675(4) 1.21536(15) 0.13198(7)
O2 O -0.4032(3) 1.16160(13) 0.07884(7)
O3 O -0.0097(3) 1.04439(11) 0.07342(6)
O4 O -0.1609(3) 1.01959(12) 0.20625(7)
O5 O -0.0513(3) 0.89048(11) 0.04038(6)
O6 O 0.0297(4) 0.91848(14) 0.43015(7)
O7 O 0.3896(4) 0.90243(14) 0.43538(7)
#END
