
#######################################################################
#
#                 Cambridge Crystallographic Data Centre
#                                CCDC
#
#######################################################################
#
# If this CIF has been generated from an entry in the Cambridge
# Structural Database, then it will include bibliographic, chemical,
# crystal, experimental, refinement or atomic coordinate data resulting
# from the CCDC's data processing and validation procedures.
#
#######################################################################

data_CSD_CIF_XEVSID
_audit_creation_date 2018-04-06
_audit_creation_method CSD-ConQuest-V1
_database_code_CSD XEVSID
_database_code_depnum_ccdc_archive 'CCDC 1577361'
_chemical_formula_sum 'C26 H26 N4 O1'
_chemical_formula_moiety
;
C26 H26 N4 O1
;
_journal_coden_Cambridge 440
_journal_volume 42
_journal_year 2018
_journal_page_first 6889
_journal_name_full 'New J.Chem. '
loop_
_publ_author_name
"S.Ghosh"
"N.R.Kumar"
"S.S.Zade"
_chemical_name_systematic
;
12,13-dibutyl-12,13-dihydroindolo[2,3-a][1,2,5]oxadiazolo[3,4-c]carbazole
;
_cell_volume   1038.732
_exptl_crystal_colour 'green'
_exptl_crystal_density_diffrn 1.312
_exptl_crystal_description 'plate'
_diffrn_ambient_temperature 100.0
#These two values have been output from a single CSD field.
_refine_ls_R_factor_gt 0.096
_refine_ls_wR_factor_gt 0.096
_symmetry_cell_setting triclinic
_symmetry_space_group_name_H-M 'P -1'
_symmetry_Int_Tables_number 2
loop_
_symmetry_equiv_pos_site_id
_symmetry_equiv_pos_as_xyz
1 x,y,z
2 -x,-y,-z
_cell_length_a 8.5102(12)
_cell_length_b 11.3944(18)
_cell_length_c 11.7116(19)
_cell_angle_alpha 97.936(13)
_cell_angle_beta 96.991(13)
_cell_angle_gamma 110.090(14)
_cell_formula_units_Z 2
loop_
_atom_type_symbol
_atom_type_radius_bond
C 0.68
H 0.23
N 0.68
O 0.68
loop_
_atom_site_label
_atom_site_type_symbol
_atom_site_fract_x
_atom_site_fract_y
_atom_site_fract_z
O1 O 0.3150(3) 0.0031(3) 0.7659(2)
N1 N -0.3988(4) -0.2618(3) 0.5762(3)
N2 N 0.2959(4) -0.0136(3) 0.6440(3)
N3 N -0.1953(4) -0.2528(3) 0.3491(3)
N4 N 0.1615(4) -0.0577(3) 0.8026(3)
C1 C -0.1326(5) -0.1779(4) 0.6851(3)
C2 C -0.5593(5) -0.2545(4) 0.7442(3)
H1 H -0.66709 -0.28619 0.69767
C3 C -0.1374(5) -0.2079(4) 0.4699(3)
C4 C -0.2484(5) -0.1929(4) 0.7658(3)
C5 C -0.0500(5) -0.2317(4) 0.1725(3)
H2 H -0.14652 -0.28244 0.11757
C6 C -0.2253(5) -0.2193(3) 0.5698(3)
C7 C -0.5434(4) -0.2755(3) 0.4856(3)
H3 H -0.50065 -0.25276 0.41545
H4 H -0.59509 -0.21575 0.51295
C8 C -0.6815(5) -0.4103(4) 0.4531(3)
H5 H -0.63666 -0.46856 0.41272
H6 H -0.71286 -0.43947 0.52407
C9 C -0.4690(5) -0.3520(4) 0.1982(3)
H7 H -0.41036 -0.31543 0.13818
H8 H -0.51736 -0.29323 0.23337
C10 C 0.2477(5) -0.0782(4) 0.3404(4)
H9 H 0.34493 -0.02847 0.39512
C11 C 0.0388(5) -0.1342(3) 0.4881(3)
C12 C -0.4127(5) -0.2420(4) 0.6947(3)
C13 C -0.0570(5) -0.2075(3) 0.2922(3)
C14 C 0.1329(5) -0.0834(3) 0.6056(4)
C15 C -0.3424(4) -0.3693(3) 0.2916(3)
H10 H -0.40261 -0.40446 0.35159
H11 H -0.29962 -0.43145 0.25600
C16 C 0.1070(5) -0.1771(4) 0.1388(4)
H12 H 0.11477 -0.19065 0.05985
C17 C 0.0501(5) -0.1101(4) 0.7037(3)
C18 C -0.8397(5) -0.4110(4) 0.3741(3)
H13 H -0.89090 -0.35995 0.41829
H14 H -0.80486 -0.37139 0.30851
C19 C -0.9735(5) -0.5446(4) 0.3268(4)
H15 H -0.92635 -0.59389 0.27832
H16 H -1.07106 -0.53838 0.28135
H17 H -1.00684 -0.58522 0.39120
C20 C -0.2287(5) -0.1580(4) 0.8877(4)
H18 H -0.12156 -0.12764 0.93506
C21 C 0.0901(5) -0.1318(3) 0.3759(3)
C22 C 0.2544(5) -0.1013(4) 0.2227(4)
H19 H 0.35743 -0.06655 0.19798
C23 C -0.5370(5) -0.2180(4) 0.8646(3)
H20 H -0.63169 -0.22511 0.89926
C24 C -0.3739(6) -0.1701(4) 0.9362(4)
H21 H -0.36336 -0.14633 1.01683
C25 C -0.6134(5) -0.4803(4) 0.1416(3)
H22 H -0.56573 -0.53590 0.10012
H23 H -0.66376 -0.52079 0.20282
C26 C -0.7526(5) -0.4646(4) 0.0560(4)
H24 H -0.70603 -0.43307 -0.00928
H25 H -0.79512 -0.40531 0.09525
H26 H -0.84374 -0.54547 0.02831
#END
