
#######################################################################
#
#                 Cambridge Crystallographic Data Centre
#                                CCDC
#
#######################################################################
#
# If this CIF has been generated from an entry in the Cambridge
# Structural Database, then it will include bibliographic, chemical,
# crystal, experimental, refinement or atomic coordinate data resulting
# from the CCDC's data processing and validation procedures.
#
#######################################################################

data_CSD_CIF_XEVYII
_audit_creation_date 2013-05-20
_audit_creation_method CSD-ConQuest-V1
_database_code_CSD XEVYII
_database_code_depnum_ccdc_archive 'CCDC 894441'
_chemical_formula_sum 'C23 H29 N1 O3'
_chemical_formula_moiety
;
C23 H29 N1 O3
;
_journal_coden_Cambridge 24
_journal_volume 54
_journal_year 2013
_journal_page_first 1649
_journal_name_full 'Tetrahedron Lett. '
loop_
_publ_author_name
"Chien-Chih Chen"
"T.Hinoue"
"I.Hisaki"
"M.Miyata"
"N.Tohnai"
_chemical_name_systematic
;
1-Nitro-4-(2-(4-(nonyloxy)phenyl)vinyl)benzene
;
_cell_volume   2064.498
_exptl_crystal_colour 'yellow'
_exptl_crystal_density_diffrn 1.182
_exptl_crystal_description 'platelet'
_diffrn_ambient_temperature 213
#These two values have been output from a single CSD field.
_refine_ls_R_factor_gt 0.0972
_refine_ls_wR_factor_gt 0.0972
_symmetry_cell_setting monoclinic
_symmetry_space_group_name_H-M 'P 21/c'
_symmetry_Int_Tables_number 14
loop_
_symmetry_equiv_pos_site_id
_symmetry_equiv_pos_as_xyz
1 x,y,z
2 -x,1/2+y,1/2-z
3 -x,-y,-z
4 x,-1/2-y,-1/2+z
_cell_length_a 5.9326(6)
_cell_length_b 39.370(4)
_cell_length_c 8.8394(9)
_cell_angle_alpha 90
_cell_angle_beta 90.532(3)
_cell_angle_gamma 90
_cell_formula_units_Z 4
loop_
_atom_type_symbol
_atom_type_radius_bond
C 0.68
H 0.23
N 0.68
O 0.68
loop_
_atom_site_label
_atom_site_type_symbol
_atom_site_fract_x
_atom_site_fract_y
_atom_site_fract_z
O1 O -0.4872(14) 0.26196(16) 1.4812(10)
O2 O -0.2729(13) 0.29414(15) 1.3529(9)
O3 O 0.7405(8) 0.02887(10) 0.8916(5)
N1 N -0.3280(16) 0.2662(2) 1.3998(11)
C1 C -0.2070(15) 0.2369(2) 1.3466(10)
C2 C -0.2662(13) 0.2049(2) 1.3898(9)
C3 C -0.1489(17) 0.17737(18) 1.3357(10)
C4 C 0.0442(14) 0.18001(18) 1.2474(9)
C5 C 0.1006(15) 0.21268(18) 1.2092(10)
C6 C -0.0209(18) 0.2409(2) 1.2596(12)
C7 C 0.1594(15) 0.14936(16) 1.1980(8)
C8 C 0.3440(14) 0.14775(18) 1.1174(8)
C9 C 0.4564(15) 0.11661(16) 1.0636(8)
C10 C 0.3588(12) 0.08379(16) 1.0841(7)
C11 C 0.4640(14) 0.05576(17) 1.0272(8)
C12 C 0.6597(15) 0.05860(16) 0.9463(9)
C13 C 0.7558(12) 0.09034(17) 0.9244(7)
C14 C 0.6586(14) 0.11868(18) 0.9804(9)
C15 C 0.9463(12) 0.02925(15) 0.8048(7)
C16 C 0.9883(11) -0.00764(16) 0.7596(7)
C17 C 1.2050(12) -0.01311(15) 0.6650(7)
C18 C 1.2269(12) -0.04992(15) 0.6209(7)
C19 C 1.4349(12) -0.05935(15) 0.5309(8)
C20 C 1.4536(12) -0.09588(15) 0.4923(8)
C21 C 1.6573(12) -0.10685(15) 0.4014(8)
C22 C 1.6635(13) -0.14507(15) 0.3693(8)
C23 C 1.8628(13) -0.15603(16) 0.2759(8)
H1 H -0.38690 0.20170 1.45640
H2 H -0.20190 0.15550 1.35950
H3 H 0.22570 0.21620 1.14670
H4 H 0.02650 0.26290 1.23310
H5 H 0.09500 0.12860 1.22680
H6 H 0.41130 0.16850 1.09140
H7 H 0.22260 0.08150 1.13660
H8 H 0.40140 0.03420 1.04370
H9 H 0.89040 0.09210 0.86970
H10 H 0.72600 0.13990 0.96390
H11 H 1.07200 0.03790 0.86610
H12 H 0.92870 0.04360 0.71490
H13 H 0.85820 -0.01580 0.70090
H14 H 0.99920 -0.02150 0.85160
H15 H 1.19800 0.00100 0.57380
H16 H 1.33740 -0.00620 0.72450
H17 H 1.09330 -0.05630 0.56130
H18 H 1.22610 -0.06360 0.71340
H19 H 1.43430 -0.04620 0.43680
H20 H 1.56900 -0.05270 0.58920
H21 H 1.31780 -0.10240 0.43550
H22 H 1.45390 -0.10880 0.58700
H23 H 1.79460 -0.10050 0.45680
H24 H 1.65670 -0.09460 0.30500
H25 H 1.66740 -0.15730 0.46580
H26 H 1.52440 -0.15150 0.31600
H27 H 1.85850 -0.18050 0.26180
H28 H 2.00140 -0.14980 0.32780
H29 H 1.85640 -0.14490 0.17810
#END
