
#######################################################################
#
#                 Cambridge Crystallographic Data Centre
#                                CCDC
#
#######################################################################
#
# If this CIF has been generated from an entry in the Cambridge
# Structural Database, then it will include bibliographic, chemical,
# crystal, experimental, refinement or atomic coordinate data resulting
# from the CCDC's data processing and validation procedures.
#
#######################################################################

data_CSD_CIF_XEVYEE
_audit_creation_date 2013-05-20
_audit_creation_method CSD-ConQuest-V1
_database_code_CSD XEVYEE
_database_code_depnum_ccdc_archive 'CCDC 894442'
_chemical_formula_sum 'C25 H33 N1 O3'
_chemical_formula_moiety
;
C25 H33 N1 O3
;
_journal_coden_Cambridge 24
_journal_volume 54
_journal_year 2013
_journal_page_first 1649
_journal_name_full 'Tetrahedron Lett. '
loop_
_publ_author_name
"Chien-Chih Chen"
"T.Hinoue"
"I.Hisaki"
"M.Miyata"
"N.Tohnai"
_chemical_name_systematic
;
4-(2-(4-Nitrophenyl)vinyl)phenyl undecyl ether
;
_cell_volume   2236.360
_exptl_crystal_colour 'yellow'
_exptl_crystal_density_diffrn 1.175
_exptl_crystal_description 'prism'
_diffrn_ambient_temperature 213
#These two values have been output from a single CSD field.
_refine_ls_R_factor_gt 0.0603
_refine_ls_wR_factor_gt 0.0603
_symmetry_cell_setting monoclinic
_symmetry_space_group_name_H-M 'P 21/n'
_symmetry_Int_Tables_number 14
loop_
_symmetry_equiv_pos_site_id
_symmetry_equiv_pos_as_xyz
1 x,y,z
2 1/2-x,1/2+y,1/2-z
3 -x,-y,-z
4 -1/2+x,-1/2-y,-1/2+z
_cell_length_a 5.78842(12)
_cell_length_b 15.4772(3)
_cell_length_c 25.2299(6)
_cell_angle_alpha 90
_cell_angle_beta 98.3482(9)
_cell_angle_gamma 90
_cell_formula_units_Z 4
loop_
_atom_type_symbol
_atom_type_radius_bond
C 0.68
H 0.23
N 0.68
O 0.68
loop_
_atom_site_label
_atom_site_type_symbol
_atom_site_fract_x
_atom_site_fract_y
_atom_site_fract_z
O1 O -0.4021(5) -0.50853(14) 0.77775(10)
O2 O -0.1447(5) -0.58575(15) 0.74539(9)
O3 O 0.6294(4) 0.11211(12) 0.56824(9)
N1 N -0.2350(6) -0.51612(19) 0.75428(11)
C1 C -0.1339(6) -0.43672(19) 0.73464(11)
C2 C -0.2348(5) -0.3580(2) 0.74174(12)
C3 C -0.1447(5) -0.28550(19) 0.72126(12)
C4 C 0.0478(5) -0.28982(18) 0.69355(11)
C5 C 0.1448(5) -0.37101(19) 0.68778(12)
C6 C 0.0546(6) -0.44424(19) 0.70801(12)
C7 C 0.1369(6) -0.20990(18) 0.67354(12)
C8 C 0.3098(6) -0.20075(19) 0.64564(12)
C9 C 0.3965(5) -0.11924(18) 0.62564(11)
C10 C 0.3057(6) -0.0383(2) 0.63618(12)
C11 C 0.3891(6) 0.03513(19) 0.61702(13)
C12 C 0.5660(6) 0.03278(19) 0.58583(12)
C13 C 0.6632(5) -0.04555(19) 0.57462(12)
C14 C 0.5763(6) -0.12064(18) 0.59510(12)
C15 C 0.8119(6) 0.11775(18) 0.53592(12)
C16 C 0.8360(5) 0.21238(17) 0.52406(12)
C17 C 1.0263(5) 0.23424(18) 0.49162(11)
C18 C 1.0400(5) 0.33054(18) 0.48101(12)
C19 C 1.2292(5) 0.35910(17) 0.44951(12)
C20 C 1.2382(5) 0.45581(17) 0.44051(11)
C21 C 1.4241(5) 0.48558(17) 0.40836(12)
C22 C 1.4297(5) 0.58163(18) 0.39899(12)
C23 C 1.6180(5) 0.61224(18) 0.36755(12)
C24 C 1.6275(6) 0.70804(19) 0.35813(13)
C25 C 1.8230(6) 0.7356(2) 0.32747(12)
H1 H -0.36380 -0.35400 0.76040
H2 H -0.21370 -0.23160 0.72590
H3 H 0.27500 -0.37590 0.66960
H4 H 0.12170 -0.49860 0.70360
H5 H 0.06140 -0.15880 0.68160
H6 H 0.38650 -0.25160 0.63750
H7 H 0.18400 -0.03500 0.65700
H8 H 0.32570 0.08860 0.62510
H9 H 0.78480 -0.04810 0.55370
H10 H 0.64240 -0.17410 0.58790
H11 H 0.77120 0.08490 0.50270
H12 H 0.95820 0.09490 0.55520
H13 H 0.68710 0.23320 0.50480
H14 H 0.86560 0.24370 0.55810
H15 H 0.99780 0.20340 0.45730
H16 H 1.17640 0.21450 0.51080
H17 H 0.88920 0.34930 0.46170
H18 H 1.06320 0.36060 0.51560
H19 H 1.20510 0.33020 0.41460
H20 H 1.38050 0.34020 0.46850
H21 H 1.08580 0.47470 0.42210
H22 H 1.26420 0.48450 0.47550
H23 H 1.57690 0.46750 0.42700
H24 H 1.39960 0.45630 0.37350
H25 H 1.45140 0.61080 0.43380
H26 H 1.27760 0.59950 0.37990
H27 H 1.76970 0.59380 0.38660
H28 H 1.59540 0.58310 0.33270
H29 H 1.64760 0.73770 0.39280
H30 H 1.47790 0.72670 0.33810
H31 H 1.80250 0.79590 0.31720
H32 H 1.81900 0.70030 0.29560
H33 H 1.97230 0.72830 0.35010
#END
