
#######################################################################
#
#                 Cambridge Crystallographic Data Centre
#                                CCDC
#
#######################################################################
#
# If this CIF has been generated from an entry in the Cambridge
# Structural Database, then it will include bibliographic, chemical,
# crystal, experimental, refinement or atomic coordinate data resulting
# from the CCDC's data processing and validation procedures.
#
#######################################################################

data_CSD_CIF_XEWHUD
_audit_creation_date 2007-05-09
_audit_creation_method CSD-ConQuest-V1
_database_code_CSD XEWHUD
_database_code_depnum_ccdc_archive 'CCDC 622899'
_chemical_formula_sum 'C25 H30 N2 O6'
_chemical_formula_moiety
;
C25 H30 N2 O6
;
_journal_coden_Cambridge 24
_journal_volume 48
_journal_year 2007
_journal_page_first 381
_journal_name_full 'Tetrahedron Lett. '
loop_
_publ_author_name
"V.Caubert"
"J.Masse"
"P.Retailleau"
"N.Langlois"
_chemical_name_systematic
;
Methyl 
(3aR,6R,6aS)-6-(benzyloxymethyl)-5-(4-methoxybenzyl)-2,6a-dimethyl-4-oxohexahy
dro-2H-pyrrolo(3,4-d)isoxazole-6-carboxylate
;
_cell_volume   1211.367
_exptl_crystal_colour 'colorless'
_exptl_crystal_density_diffrn 1.246
_exptl_crystal_description 'prism'
_diffrn_ambient_temperature 293
#These two values have been output from a single CSD field.
_refine_ls_R_factor_gt 0.0529
_refine_ls_wR_factor_gt 0.0529
_symmetry_cell_setting triclinic
_symmetry_space_group_name_H-M 'P -1'
_symmetry_Int_Tables_number 2
loop_
_symmetry_equiv_pos_site_id
_symmetry_equiv_pos_as_xyz
1 x,y,z
2 -x,-y,-z
_cell_length_a 10.835(5)
_cell_length_b 11.153(5)
_cell_length_c 11.630(5)
_cell_angle_alpha 71.744(5)
_cell_angle_beta 83.677(5)
_cell_angle_gamma 65.216(5)
_cell_formula_units_Z 2
loop_
_atom_type_symbol
_atom_type_radius_bond
C 0.68
H 0.23
N 0.68
O 0.68
loop_
_atom_site_label
_atom_site_type_symbol
_atom_site_fract_x
_atom_site_fract_y
_atom_site_fract_z
O1 O 0.33487(13) 0.65656(15) 0.46919(14)
O2 O 0.34141(14) 0.40985(17) 0.81336(14)
O3 O 0.31391(15) 0.28326(16) 0.63702(17)
O4 O 0.1802(2) 0.8659(2) 1.0697(2)
O5 O -0.08727(15) 0.81656(18) 0.57525(16)
O6 O 0.08952(17) 0.39096(19) 0.65156(18)
N1 N 0.10304(16) 0.62416(18) 0.65741(16)
N2 N 0.25746(17) 0.79784(18) 0.47827(17)
C1 C 0.0253(2) 0.7277(2) 0.5650(2)
C2 C 0.0996(2) 0.7224(2) 0.4485(2)
H1 H 0.04810 0.71560 0.38840
C3 C 0.2368(2) 0.5974(2) 0.48297(19)
C4 C 0.22552(19) 0.5229(2) 0.62135(19)
C5 C 0.1400(2) 0.8438(2) 0.3998(2)
H2 H 0.16460 0.85690 0.31550
H3 H 0.06790 0.92870 0.40880
C6 C 0.3460(3) 0.8687(3) 0.4285(3)
H4 H 0.37140 0.86120 0.34850
H5 H 0.42610 0.82730 0.47930
H6 H 0.29900 0.96440 0.42480
C7 C 0.2826(3) 0.5047(3) 0.4015(2)
H7 H 0.28620 0.55840 0.31960
H8 H 0.21940 0.46380 0.40550
H9 H 0.37120 0.43310 0.42780
C8 C 0.1994(2) 0.3935(2) 0.6383(2)
C9 C 0.3003(3) 0.1557(3) 0.6527(3)
H10 H 0.24900 0.13740 0.72380
H11 H 0.38880 0.08120 0.66160
H12 H 0.25390 0.16370 0.58320
C10 C 0.0535(2) 0.6043(2) 0.7813(2)
H13 H 0.09010 0.50610 0.82360
H14 H -0.04470 0.63750 0.77810
C11 C 0.0904(2) 0.6765(2) 0.8531(2)
C12 C 0.1015(3) 0.6248(3) 0.9778(2)
H15 H 0.08930 0.54390 1.01590
C13 C 0.1302(3) 0.6901(3) 1.0468(3)
H16 H 0.13650 0.65340 1.13060
C14 C 0.1496(3) 0.8092(3) 0.9930(3)
C15 C 0.1402(3) 0.8633(3) 0.8689(3)
H17 H 0.15350 0.94380 0.83150
C16 C 0.1106(2) 0.7963(3) 0.7999(2)
H18 H 0.10420 0.83290 0.71610
C17 C 0.2123(4) 0.9815(4) 1.0183(3)
H19 H 0.29320 0.95610 0.97190
H20 H 0.22730 1.01250 1.08160
H21 H 0.13840 1.05450 0.96640
C18 C 0.3523(2) 0.4859(2) 0.6925(2)
H22 H 0.43230 0.43080 0.65630
H23 H 0.36100 0.56930 0.69130
C19 C 0.4611(3) 0.3537(4) 0.8813(2)
H24 H 0.49560 0.42390 0.87030
H25 H 0.52920 0.27900 0.85380
C20 C 0.4352(2) 0.2999(3) 1.0133(2)
C21 C 0.5055(3) 0.3079(3) 1.0998(2)
H26 H 0.56930 0.34600 1.07600
C22 C 0.4830(3) 0.2605(3) 1.2219(3)
H27 H 0.53180 0.26610 1.27960
C23 C 0.3885(3) 0.2054(3) 1.2570(3)
H28 H 0.37310 0.17330 1.33890
C24 C 0.3166(3) 0.1970(3) 1.1726(3)
H29 H 0.25180 0.16040 1.19680
C25 C 0.3406(3) 0.2434(3) 1.0509(3)
H30 H 0.29250 0.23640 0.99360
#END
