
#######################################################################
#
#                 Cambridge Crystallographic Data Centre
#                                CCDC
#
#######################################################################
#
# If this CIF has been generated from an entry in the Cambridge
# Structural Database, then it will include bibliographic, chemical,
# crystal, experimental, refinement or atomic coordinate data resulting
# from the CCDC's data processing and validation procedures.
#
#######################################################################

data_CSD_CIF_XEWLOA
_audit_creation_date 2001-09-06
_audit_creation_method CSD-ConQuest-V1
_database_code_CSD XEWLOA
_chemical_formula_sum 'C20 H12 N4 O2'
_chemical_formula_moiety
;
C20 H12 N4 O2
;
_journal_coden_Cambridge 1061
_journal_volume 16
_journal_year 2000
_journal_page_first 435
_journal_name_full 'Anal.Sci. '
loop_
_publ_author_name
"G.Yasuda"
"H.Kimoto"
_chemical_name_systematic
;
2-(2-Nitrophenyl)-2H-phenanthro(9,10-d)triazole
;
_chemical_melting_point 453.15
_cell_volume    798.853
_exptl_crystal_colour 'yellow'
_exptl_crystal_density_diffrn 1.415
_exptl_special_details
;
Melting point range 453.15-454.15K

;
_exptl_crystal_description 'prisms'
_exptl_crystal_preparation 'ethanol'
_diffrn_ambient_temperature 296
#These two values have been output from a single CSD field.
_refine_ls_R_factor_gt 0.047
_refine_ls_wR_factor_gt 0.047
_symmetry_cell_setting triclinic
_symmetry_space_group_name_H-M 'P -1'
_symmetry_Int_Tables_number 2
loop_
_symmetry_equiv_pos_site_id
_symmetry_equiv_pos_as_xyz
1 x,y,z
2 -x,-y,-z
_cell_length_a 10.0172(8)
_cell_length_b 10.141(1)
_cell_length_c 8.0396(7)
_cell_angle_alpha 100.679(7)
_cell_angle_beta 92.450(7)
_cell_angle_gamma 94.385(7)
_cell_formula_units_Z 2
loop_
_atom_type_symbol
_atom_type_radius_bond
C 0.68
N 0.68
O 0.68
loop_
_atom_site_label
_atom_site_type_symbol
_atom_site_fract_x
_atom_site_fract_y
_atom_site_fract_z
O1 O -0.3231(3) 0.1066(3) 0.5129(3)
O2 O -0.4996(3) 0.1592(3) 0.6477(4)
N1 N -0.2089(2) 0.3406(2) 0.7701(3)
N2 N -0.1426(2) 0.2458(2) 0.8261(3)
N3 N -0.0086(2) 0.2702(2) 0.8504(3)
N4 N -0.3889(3) 0.1186(3) 0.6377(4)
C1 C -0.1097(2) 0.4334(2) 0.7560(3)
C2 C 0.0130(3) 0.3899(3) 0.8056(3)
C3 C 0.1391(3) 0.4659(3) 0.7969(3)
C4 C 0.2622(3) 0.4202(3) 0.8391(4)
C5 C 0.3806(3) 0.4915(3) 0.8180(4)
C6 C 0.3772(3) 0.6103(3) 0.7578(4)
C7 C 0.2574(3) 0.6576(3) 0.7171(4)
C8 C 0.1341(3) 0.5870(3) 0.7346(3)
C9 C 0.0044(3) 0.6339(3) 0.6848(3)
C10 C -0.0028(2) 0.7537(3) 0.6211(4)
C11 C -0.1242(3) 0.7947(3) 0.5733(4)
C12 C -0.2431(3) 0.7186(3) 0.5847(4)
C13 C -0.2405(3) 0.6012(3) 0.6462(4)
C14 C -0.1183(3) 0.5583(3) 0.6966(3)
C15 C -0.2098(3) 0.1286(3) 0.8662(3)
C16 C -0.3316(3) 0.0719(3) 0.7856(3)
C17 C -0.4005(3) -0.0366(3) 0.8332(4)
C18 C -0.3449(3) -0.0932(3) 0.9603(4)
C19 C -0.2224(3) -0.0403(3) 1.0391(4)
C20 C -0.1552(3) 0.0710(3) 0.9939(4)
#END
