
#######################################################################
#
#                 Cambridge Crystallographic Data Centre
#                                CCDC
#
#######################################################################
#
# If this CIF has been generated from an entry in the Cambridge
# Structural Database, then it will include bibliographic, chemical,
# crystal, experimental, refinement or atomic coordinate data resulting
# from the CCDC's data processing and validation procedures.
#
#######################################################################

data_CSD_CIF_XEWQEV
_audit_creation_date 2001-09-05
_audit_creation_method CSD-ConQuest-V1
_database_code_CSD XEWQEV
_chemical_formula_sum 'C18 H18 N2 O3'
_chemical_formula_moiety
;
C18 H18 N2 O3
;
_journal_coden_Cambridge 154
_journal_volume 52
_journal_year 1999
_journal_page_first 977
_journal_name_full 'Aust.J.Chem. '
loop_
_publ_author_name
"A.D.Abell"
"M.D.Oldham"
"M.M.Moore"
"W.T.Robinson"
_chemical_name_systematic
;
(3R)-(+)-3-amino-3-benzyl-1-benzyloxysuccinimide
;
_chemical_melting_point 459.15
_cell_volume    787.140
_exptl_crystal_colour 'colorless'
_exptl_crystal_density_diffrn 1.309
_exptl_special_details
;
Melting point range 459.15-462.15K

;
_exptl_crystal_description 'plate'
_exptl_crystal_preparation 'ethyl acetate/petroleum ether'
_diffrn_ambient_temperature 130
#These two values have been output from a single CSD field.
_refine_ls_R_factor_gt 0.0448
_refine_ls_wR_factor_gt 0.0448
_symmetry_cell_setting monoclinic
_symmetry_space_group_name_H-M 'P 21'
_symmetry_Int_Tables_number 4
loop_
_symmetry_equiv_pos_site_id
_symmetry_equiv_pos_as_xyz
1 x,y,z
2 -x,1/2+y,-z
_cell_length_a 6.630(2)
_cell_length_b 7.790(3)
_cell_length_c 15.358(5)
_cell_angle_alpha 90
_cell_angle_beta 97.09(2)
_cell_angle_gamma 90
_cell_formula_units_Z 2
loop_
_atom_type_symbol
_atom_type_radius_bond
C 0.68
H 0.23
N 0.68
O 0.68
loop_
_atom_site_label
_atom_site_type_symbol
_atom_site_fract_x
_atom_site_fract_y
_atom_site_fract_z
O1 O 0.6686(5) 0.2070(5) 0.3868(2)
O2 O 1.0104(5) 0.0212(5) 0.4661(2)
O3 O 0.4087(5) 0.2636(5) 0.5157(2)
N1 N 0.7022(6) 0.1507(6) 0.4736(3)
N2 N 0.9092(6) -0.1340(6) 0.6362(3)
C1 C 0.8767(8) 0.0653(7) 0.5082(3)
C2 C 0.8634(7) 0.0391(7) 0.6054(3)
C3 C 0.6408(7) 0.0893(7) 0.6147(3)
C4 C 0.5636(8) 0.1799(7) 0.5326(3)
C5 C 0.5469(8) 0.0806(8) 0.3346(3)
C6 C 0.5316(7) 0.1343(7) 0.2408(3)
C7 C 0.6582(8) 0.0647(8) 0.1868(4)
C8 C 0.6469(9) 0.1121(9) 0.0995(4)
C9 C 0.5097(9) 0.2364(8) 0.0663(4)
C10 C 0.3823(9) 0.3095(8) 0.1208(4)
C11 C 0.3911(8) 0.2588(7) 0.2072(3)
C12 C 1.0170(8) 0.1670(8) 0.6548(3)
C13 C 1.0075(7) 0.1793(7) 0.7519(3)
C14 C 0.8893(8) 0.3047(8) 0.7839(4)
C15 C 0.8810(9) 0.3248(8) 0.8727(4)
C16 C 0.9941(8) 0.2158(8) 0.9311(4)
C17 C 1.1102(8) 0.0899(9) 0.8994(4)
C18 C 1.1158(8) 0.0725(8) 0.8099(4)
H1 H 0.8269(6) -0.2214(6) 0.5820(3)
H2 H 1.0511(6) -0.1809(6) 0.6193(3)
H3 H 0.5585(7) -0.0146(7) 0.6221(3)
H4 H 0.6357(7) 0.1648(7) 0.6662(3)
H5 H 0.4097(8) 0.0738(8) 0.3535(3)
H6 H 0.6114(8) -0.0339(8) 0.3422(3)
H7 H 0.7570(8) -0.0171(8) 0.2097(4)
H8 H 0.7333(9) 0.0595(9) 0.0623(4)
H9 H 0.5021(9) 0.2709(8) 0.0067(4)
H10 H 0.2884(9) 0.3957(8) 0.0986(4)
H11 H 0.3017(8) 0.3086(7) 0.2440(3)
H12 H 1.1560(8) 0.1316(8) 0.6453(3)
H13 H 0.9926(8) 0.2824(8) 0.6287(3)
H14 H 0.8118(8) 0.3790(8) 0.7436(4)
H15 H 0.7994(9) 0.4126(8) 0.8933(4)
H16 H 0.9910(8) 0.2277(8) 0.9925(4)
H17 H 1.1873(8) 0.0140(9) 0.9389(4)
H18 H 1.1968(8) -0.0151(8) 0.7889(4)
#END
