
#######################################################################
#
#                 Cambridge Crystallographic Data Centre
#                                CCDC
#
#######################################################################
#
# If this CIF has been generated from an entry in the Cambridge
# Structural Database, then it will include bibliographic, chemical,
# crystal, experimental, refinement or atomic coordinate data resulting
# from the CCDC's data processing and validation procedures.
#
#######################################################################

data_CSD_CIF_XEWQIZ
_audit_creation_date 2001-09-05
_audit_creation_method CSD-ConQuest-V1
_database_code_CSD XEWQIZ
_chemical_formula_sum 'C20 H20 N2 O4'
_chemical_formula_moiety
;
C20 H20 N2 O4
;
_journal_coden_Cambridge 154
_journal_volume 52
_journal_year 1999
_journal_page_first 977
_journal_name_full 'Aust.J.Chem. '
loop_
_publ_author_name
"A.D.Abell"
"M.D.Oldham"
"M.M.Moore"
"W.T.Robinson"
_chemical_name_systematic
;
(3R)-(+)-3-acetylamino-3-benzyl-1-benzyloxysuccinimide
;
_chemical_melting_point 459.15
_cell_volume   1821.510
_exptl_crystal_colour 'colorless'
_exptl_crystal_density_diffrn 1.285
_exptl_special_details
;
Melting point range 459.15-462.15K

;
_exptl_crystal_description 'irregular block'
_diffrn_ambient_temperature 168
#These two values have been output from a single CSD field.
_refine_ls_R_factor_gt 0.0531
_refine_ls_wR_factor_gt 0.0531
_symmetry_cell_setting monoclinic
_symmetry_space_group_name_H-M 'P 21'
_symmetry_Int_Tables_number 4
loop_
_symmetry_equiv_pos_site_id
_symmetry_equiv_pos_as_xyz
1 x,y,z
2 -x,1/2+y,-z
_cell_length_a 8.858(1)
_cell_length_b 16.557(2)
_cell_length_c 12.421(1)
_cell_angle_alpha 90
_cell_angle_beta 90.80(1)
_cell_angle_gamma 90
_cell_formula_units_Z 4
loop_
_atom_type_symbol
_atom_type_radius_bond
C 0.68
H 0.23
N 0.68
O 0.68
loop_
_atom_site_label
_atom_site_type_symbol
_atom_site_fract_x
_atom_site_fract_y
_atom_site_fract_z
O1 O 0.4419(3) -0.5906(2) -1.1347(2)
O2 O 0.4414(3) -0.4297(2) -1.2045(3)
O3 O 0.5998(4) -0.6840(2) -1.2842(3)
O4 O 0.3243(4) -0.5404(2) -1.4167(3)
N1 N 0.5268(4) -0.5603(3) -1.2177(3)
N2 N 0.4992(4) -0.4436(2) -1.4409(3)
C1 C 0.5345(6) -0.5967(4) -1.0371(4)
C2 C 0.5090(5) -0.4811(3) -1.2511(3)
C3 C 0.5990(5) -0.4731(3) -1.3557(3)
C4 C 0.6594(5) -0.5584(3) -1.3766(4)
C5 C 0.5955(5) -0.6116(3) -1.2914(4)
C6 C 0.7230(5) -0.4081(3) -1.3379(4)
C7 C 0.3696(5) -0.4809(3) -1.4673(4)
C8 C 0.2831(6) -0.4468(4) -1.5617(4)
C9 C 0.4279(6) -0.6165(3) -0.9500(4)
C10 C 0.3996(7) -0.6954(3) -0.9209(4)
C11 C 0.2862(10) -0.7098(5) -0.8419(6)
C12 C 0.2092(9) -0.6444(7) -0.8012(5)
C13 C 0.2410(9) -0.5694(6) -0.8310(6)
C14 C 0.3484(7) -0.5564(4) -0.9026(5)
C15 C 0.8437(5) -0.4338(3) -1.2562(4)
C16 C 0.8165(5) -0.4335(3) -1.1463(4)
C17 C 0.9258(6) -0.4610(4) -1.0743(4)
C18 C 1.0635(6) -0.4873(3) -1.1117(5)
C19 C 1.0915(5) -0.4877(3) -1.2200(5)
C20 C 0.9830(5) -0.4611(3) -1.2918(4)
H1 H 0.5247(4) -0.3998(2) -1.4763(3)
H2 H 0.5866(6) -0.5450(4) -1.0220(4)
H3 H 0.6112(6) -0.6398(4) -1.0443(4)
H4 H 0.6272(5) -0.5774(3) -1.4490(4)
H5 H 0.7711(5) -0.5588(3) -1.3726(4)
H6 H 0.7716(5) -0.3965(3) -1.4075(4)
H7 H 0.6751(5) -0.3576(3) -1.3127(4)
H8 H 0.3494(13) -0.4116(17) -1.6034(16)
H9 H 0.1971(24) -0.4154(18) -1.5357(4)
H10 H 0.2464(33) -0.4910(4) -1.6074(15)
H11 H 0.4536(7) -0.7388(3) -0.9522(4)
H12 H 0.2647(10) -0.7631(5) -0.8182(6)
H13 H 0.1314(9) -0.6533(7) -0.7506(5)
H14 H 0.1872(9) -0.5252(6) -0.8012(6)
H15 H 0.3707(7) -0.5022(4) -0.9216(5)
H16 H 0.7227(5) -0.4143(3) -1.1204(4)
H17 H 0.9060(6) -0.4619(4) -0.9993(4)
H18 H 1.1391(6) -0.5051(3) -1.0622(5)
H19 H 1.1859(5) -0.5064(3) -1.2454(5)
H20 H 1.0034(5) -0.4613(3) -1.3667(4)
O5 O -0.1481(4) -0.4775(2) -0.7522(3)
O6 O -0.0547(4) -0.3589(2) -0.6046(3)
O7 O -0.3529(4) -0.4065(2) -0.8988(3)
O8 O -0.3903(4) -0.3294(2) -0.5874(3)
N3 N -0.1800(4) -0.3962(2) -0.7590(3)
N4 N -0.2597(4) -0.2193(2) -0.6291(3)
C21 C -0.2623(7) -0.5162(4) -0.6867(6)
C22 C -0.1316(5) -0.3422(3) -0.6828(4)
C23 C -0.1868(5) -0.2586(3) -0.7185(4)
C24 C -0.2958(5) -0.2773(3) -0.8127(4)
C25 C -0.2860(6) -0.3666(3) -0.8338(4)
C26 C -0.0487(5) -0.2070(3) -0.7513(4)
C27 C -0.3595(6) -0.2586(3) -0.5686(4)
C28 C -0.4273(7) -0.2130(3) -0.4763(4)
C29 C -0.2144(6) -0.6003(3) -0.6659(4)
C30 C -0.0983(7) -0.6186(5) -0.5930(5)
C31 C -0.0590(12) -0.6956(9) -0.5726(7)
C32 C -0.1304(16) -0.7546(7) -0.6232(11)
C33 C -0.2461(12) -0.7424(5) -0.6947(7)
C34 C -0.2850(7) -0.6633(4) -0.7154(4)
C35 C 0.0443(6) -0.2418(3) -0.8406(4)
C36 C 0.1609(6) -0.2945(3) -0.8166(5)
C37 C 0.2465(7) -0.3257(4) -0.9000(7)
C38 C 0.2164(8) -0.3064(4) -1.0048(6)
C39 C 0.1028(7) -0.2524(5) -1.0290(5)
C40 C 0.0181(6) -0.2213(4) -0.9469(4)
H21 H -0.2380(4) -0.1686(2) -0.6144(3)
H22 H -0.3610(7) -0.5156(4) -0.7251(6)
H23 H -0.2731(7) -0.4868(4) -0.6178(6)
H24 H -0.4002(5) -0.2621(3) -0.7938(4)
H25 H -0.2666(5) -0.2465(3) -0.8775(4)
H26 H -0.0850(5) -0.1530(3) -0.7737(4)
H27 H 0.0175(5) -0.1996(3) -0.6871(4)
H28 H -0.4030(33) -0.1555(5) -0.4829(16)
H29 H -0.3860(31) -0.2338(15) -0.4082(4)
H30 H -0.5372(8) -0.2200(17) -0.4778(17)
H31 H -0.0462(7) -0.5760(5) -0.5572(5)
H32 H 0.0195(12) -0.7074(9) -0.5222(7)
H33 H -0.0995(16) -0.8086(7) -0.6090(11)
H34 H -0.2973(12) -0.7862(5) -0.7285(7)
H35 H -0.3639(7) -0.6525(4) -0.7660(4)
H36 H 0.1824(6) -0.3093(3) -0.7441(5)
H37 H 0.3277(7) -0.3612(4) -0.8836(7)
H38 H 0.2736(8) -0.3300(4) -1.0608(6)
H39 H 0.0830(7) -0.2369(5) -1.1014(5)
H40 H -0.0609(6) -0.1844(4) -0.9639(4)
#END
