
#######################################################################
#
#                 Cambridge Crystallographic Data Centre
#                                CCDC
#
#######################################################################
#
# If this CIF has been generated from an entry in the Cambridge
# Structural Database, then it will include bibliographic, chemical,
# crystal, experimental, refinement or atomic coordinate data resulting
# from the CCDC's data processing and validation procedures.
#
#######################################################################

data_CSD_CIF_XEWVUT
_audit_creation_date 2018-04-06
_audit_creation_method CSD-ConQuest-V1
_database_code_CSD XEWVUT
_database_code_depnum_ccdc_archive 'CCDC 1530735'
_chemical_formula_sum 'C25 H31 N3 O3'
_chemical_formula_moiety
;
C25 H31 N3 O3
;
_journal_coden_Cambridge 1291
_journal_volume 2018
_journal_year 2018
_journal_page_first 2048
_journal_name_full 'Eur.J.Org.Chem. '
loop_
_publ_author_name
"S.Diab"
"L.Noel-Duchesneau"
"M.Sanselme"
"Y.Kondo"
"Michael De Paolis"
"I.Chataigner"
_chemical_name_systematic
;
4a-(morpholin-4-yl)-1,2,3,4,4a,7,8,9,9a,16a-decahydro-6H-5a,16-epoxydibenzo[2,
3:7,8][1,4]oxazocino[5,6-f]isoquinoline
;
_cell_volume   1077.565
_exptl_crystal_colour 'colorless'
_exptl_crystal_density_diffrn 1.299
_exptl_crystal_description 'rod like'
_diffrn_ambient_temperature 293
#These two values have been output from a single CSD field.
_refine_ls_R_factor_gt 0.0445
_refine_ls_wR_factor_gt 0.0445
_symmetry_cell_setting triclinic
_symmetry_space_group_name_H-M 'P -1'
_symmetry_Int_Tables_number 2
loop_
_symmetry_equiv_pos_site_id
_symmetry_equiv_pos_as_xyz
1 x,y,z
2 -x,-y,-z
_cell_length_a 9.562(3)
_cell_length_b 11.121(3)
_cell_length_c 11.806(3)
_cell_angle_alpha 114.816(4)
_cell_angle_beta 93.786(5)
_cell_angle_gamma 105.149(4)
_cell_formula_units_Z 2
loop_
_atom_type_symbol
_atom_type_radius_bond
C 0.68
H 0.23
N 0.68
O 0.68
loop_
_atom_site_label
_atom_site_type_symbol
_atom_site_fract_x
_atom_site_fract_y
_atom_site_fract_z
N1 N 0.69095(11) 1.23038(11) 0.41793(10)
N2 N 0.96718(11) 1.09485(11) 0.26301(10)
N3 N 1.13989(17) 1.45105(14) 0.09671(15)
O1 O 0.45668(13) 1.33391(13) 0.37729(13)
O2 O 0.68841(9) 1.00862(9) 0.27723(8)
O3 O 0.91052(10) 0.95785(9) 0.25567(9)
C1 C 0.59802(19) 1.38008(17) 0.35217(17)
H1 H 0.65960 1.46210 0.42770
H2 H 0.58840 1.40660 0.28430
C2 C 0.67175(17) 1.26797(15) 0.31399(14)
H3 H 0.61140 1.18610 0.23770
H4 H 0.76730 1.30190 0.29540
C3 C 0.54425(16) 1.18464(17) 0.44535(17)
H5 H 0.55390 1.16300 0.51640
H6 H 0.48250 1.10040 0.37180
C4 C 0.4723(2) 1.2966(2) 0.4772(2)
H7 H 0.37550 1.26390 0.49430
H8 H 0.53130 1.37870 0.55390
C5 C 0.77123(13) 1.13021(13) 0.39462(11)
C6 C 0.78093(17) 1.09014(16) 0.50327(13)
H9 H 0.68160 1.04840 0.51080
H10 H 0.83090 1.02030 0.48230
C7 C 0.8632(2) 1.21412(18) 0.63149(14)
H11 H 0.79610 1.26440 0.66970
H12 H 0.89630 1.18000 0.68820
C8 C 0.99596(18) 1.31346(18) 0.61678(14)
H13 H 1.07560 1.35190 0.68990
H14 H 0.96890 1.39030 0.61340
C9 C 1.04855(16) 1.23659(17) 0.49537(13)
H15 H 1.06700 1.15470 0.49500
H16 H 1.14030 1.29730 0.49240
C10 C 0.93103(13) 1.19234(13) 0.37903(12)
H17 H 0.93460 1.27640 0.36950
C11 C 0.75383(14) 0.90482(13) 0.21149(12)
C12 C 0.69344(18) 0.77571(15) 0.23060(15)
H18 H 0.71510 0.80030 0.32050
H19 H 0.74050 0.70690 0.18550
C13 C 0.5270(2) 0.71436(17) 0.18074(17)
H20 H 0.49020 0.62850 0.18800
H21 H 0.47980 0.77950 0.23280
C14 C 0.4859(2) 0.68399(17) 0.04283(17)
H22 H 0.37910 0.65360 0.01770
H23 H 0.52020 0.60840 -0.01080
C15 C 0.55270(17) 0.81163(15) 0.02171(15)
H24 H 0.50850 0.88320 0.06590
H25 H 0.53170 0.78580 -0.06850
C16 C 0.71998(15) 0.86905(13) 0.07132(12)
H26 H 0.76050 0.79400 0.02490
C17 C 0.80094(14) 0.99391(13) 0.05395(12)
C18 C 0.91689(13) 1.09846(13) 0.14798(11)
C19 C 0.99666(14) 1.21651(13) 0.13321(12)
C20 C 1.12560(16) 1.32175(15) 0.21825(14)
H27 H 1.16580 1.31580 0.28890
C21 C 1.19044(19) 1.43192(17) 0.19586(17)
H28 H 1.27590 1.49910 0.25290
C22 C 1.02308(19) 1.35189(17) 0.01515(16)
H29 H 0.98780 1.36200 -0.05460
C23 C 0.94652(16) 1.23038(15) 0.02527(13)
C24 C 0.82746(17) 1.12227(16) -0.06976(14)
H30 H 0.79490 1.13030 -0.14150
C25 C 0.76027(16) 1.00658(15) -0.05688(13)
H31 H 0.68560 0.93370 -0.12250
#END
