
#######################################################################
#
#                 Cambridge Crystallographic Data Centre
#                                CCDC
#
#######################################################################
#
# If this CIF has been generated from an entry in the Cambridge
# Structural Database, then it will include bibliographic, chemical,
# crystal, experimental, refinement or atomic coordinate data resulting
# from the CCDC's data processing and validation procedures.
#
#######################################################################

data_CSD_CIF_XEXBUZ
_audit_creation_date 2013-05-20
_audit_creation_method CSD-ConQuest-V1
_database_code_CSD XEXBUZ
_database_code_depnum_ccdc_archive 'CCDC 893899'
_chemical_formula_sum 'C15 H17 N1 O5'
_chemical_formula_moiety
;
C15 H17 N1 O5
;
_journal_coden_Cambridge 1291
_journal_year 2013
_journal_page_first 2362
_journal_name_full 'Eur.J.Org.Chem. '
loop_
_publ_author_name
"C.Reddy"
"S.A.Babu"
"N.A.Aslam"
"V.Rajkumar"
_chemical_name_systematic
;
Ethyl 1-(4-nitrobenzyl)-2-oxocyclopentanecarboxylate
;
_cell_volume   2968.974
_exptl_crystal_density_diffrn 1.303
_diffrn_ambient_temperature 270
#These two values have been output from a single CSD field.
_refine_ls_R_factor_gt 0.0541
_refine_ls_wR_factor_gt 0.0541
_symmetry_cell_setting orthorhombic
_symmetry_space_group_name_H-M 'P c a 21'
_symmetry_Int_Tables_number 29
loop_
_symmetry_equiv_pos_site_id
_symmetry_equiv_pos_as_xyz
1 x,y,z
2 -x,-y,1/2+z
3 1/2-x,y,1/2+z
4 1/2+x,-y,z
_cell_length_a 31.066(4)
_cell_length_b 9.4648(13)
_cell_length_c 10.0974(12)
_cell_angle_alpha 90
_cell_angle_beta 90
_cell_angle_gamma 90
_cell_formula_units_Z 8
loop_
_atom_type_symbol
_atom_type_radius_bond
C 0.68
H 0.23
N 0.68
O 0.68
loop_
_atom_site_label
_atom_site_type_symbol
_atom_site_fract_x
_atom_site_fract_y
_atom_site_fract_z
H1 H -0.4275(12) 0.807(4) 1.237(4)
C1 C -0.37335(15) 0.7256(5) 0.9358(5)
H2 H -0.38120 0.65920 0.86820
H3 H -0.34990 0.78300 0.90500
H4 H -0.39760 0.78480 0.95600
C2 C -0.35992(14) 0.6482(5) 1.0570(4)
H5 H -0.38340 0.58990 1.08900
H6 H -0.33560 0.58730 1.03740
C3 C -0.33691(11) 0.7047(4) 1.2770(4)
C4 C -0.30819(13) 0.7707(4) 1.5015(4)
H7 H -0.31390 0.83400 1.57500
H8 H -0.31930 0.67770 1.52330
C5 C -0.32912(11) 0.8266(4) 1.3735(4)
C6 C -0.37127(11) 0.9109(4) 1.3938(4)
H9 H -0.36700 0.97800 1.46530
H10 H -0.37720 0.96450 1.31390
C7 C -0.40969(11) 0.8215(4) 1.4254(4)
C8 C -0.41892(13) 0.7768(5) 1.5507(4)
H11 H -0.40140 0.80530 1.62050
C9 C -0.45420(15) 0.6891(5) 1.5763(5)
H12 H -0.46030 0.65940 1.66210
C10 C -0.47954(12) 0.6481(4) 1.4723(5)
C11 C -0.26114(14) 0.7640(4) 1.4733(5)
H13 H -0.25380 0.67390 1.43360
H14 H -0.24480 0.77490 1.55450
C12 C -0.25122(15) 0.8824(4) 1.3794(5)
H15 H -0.23910 0.96240 1.42660
H16 H -0.23080 0.85190 1.31250
C13 C -0.29303(12) 0.9212(4) 1.3174(4)
C14 C -0.47212(13) 0.6924(5) 1.3457(5)
H17 H -0.49020 0.66580 1.27670
C15 C -0.43705(12) 0.7774(5) 1.3236(4)
N1 N -0.51773(13) 0.5565(5) 1.4976(7)
O1 O -0.34806(8) 0.7519(2) 1.1564(3)
O2 O -0.52556(14) 0.5273(6) 1.6102(7)
O3 O -0.33548(9) 0.5815(3) 1.3049(3)
O4 O -0.53894(14) 0.5168(6) 1.4022(6)
O5 O -0.29889(9) 1.0164(3) 1.2403(4)
C16 C -0.36932(10) 1.4060(4) 1.6304(4)
H18 H -0.37780 1.44310 1.71600
H19 H -0.36400 1.48570 1.57230
C17 C -0.37705(19) 1.2170(6) 2.0727(6)
H20 H -0.39970 1.27780 2.04200
H21 H -0.35500 1.27270 2.11380
H22 H -0.38840 1.15100 2.13580
C18 C -0.35875(14) 1.1395(5) 1.9600(4)
H23 H -0.33360 1.08660 1.98740
H24 H -0.37970 1.07410 1.92400
C19 C -0.33501(11) 1.1990(4) 1.7420(4)
C20 C -0.32717(11) 1.3213(4) 1.6468(4)
C21 C -0.40600(12) 1.3201(4) 1.5745(4)
C22 C -0.42996(12) 1.2318(4) 1.6513(4)
H25 H -0.42360 1.22380 1.74100
C23 C -0.46363(14) 1.1536(5) 1.5990(6)
H26 H -0.48000 1.09460 1.65280
C24 C -0.47223(14) 1.1649(5) 1.4678(6)
C25 C -0.29143(12) 1.4191(4) 1.7052(4)
C26 C -0.24944(15) 1.3828(5) 1.6388(5)
H27 H -0.23850 1.46320 1.58970
H28 H -0.22810 1.35490 1.70400
C27 C -0.25933(14) 1.2621(5) 1.5469(5)
H29 H -0.25260 1.17260 1.58880
H30 H -0.24260 1.27020 1.46610
C28 C -0.30687(12) 1.2714(4) 1.5168(4)
H31 H -0.31820 1.17990 1.49100
H32 H -0.31230 1.33850 1.44610
C29 C -0.41594(14) 1.3272(5) 1.4393(4)
H33 H -0.39960 1.38500 1.38440
C30 C -0.44919(17) 1.2512(6) 1.3863(5)
H34 H -0.45590 1.25820 1.29670
N2 N -0.51073(19) 1.0801(6) 1.4183(8)
O6 O -0.34702(8) 1.2454(3) 1.8608(3)
O7 O -0.33104(10) 1.0756(3) 1.7138(3)
O8 O -0.29708(10) 1.5115(3) 1.7835(4)
O9 O -0.52919(17) 1.0053(7) 1.4868(10)
O10 O -0.5191(2) 1.0987(6) 1.3024(7)
#END
