
#######################################################################
#
#                 Cambridge Crystallographic Data Centre
#                                CCDC
#
#######################################################################
#
# If this CIF has been generated from an entry in the Cambridge
# Structural Database, then it will include bibliographic, chemical,
# crystal, experimental, refinement or atomic coordinate data resulting
# from the CCDC's data processing and validation procedures.
#
#######################################################################

data_CSD_CIF_XEXMUJ
_audit_creation_date 2007-05-08
_audit_creation_method CSD-ConQuest-V1
_database_code_CSD XEXMUJ
_database_code_depnum_ccdc_archive 'CCDC 288270'
_chemical_formula_sum 'C11 H15 N1 O4'
_chemical_formula_moiety
;
C11 H15 N1 O4
;
_journal_coden_Cambridge 392
_journal_volume 68
_journal_year 2006
_journal_page_first 1685
_journal_name_full 'Heterocycles '
loop_
_publ_author_name
"Jian Song"
"Yongcheng Lin"
"Yau Shan Szeto"
"Wing Lai Chan"
_chemical_name_systematic
;
Ethyl 7-oxo-4a,5,6,7,8,8a-hexahydro-4H-1,2-benzoxazine-3-carboxylate
;
_chemical_melting_point 356.15
_cell_volume   1149.920
_exptl_crystal_colour 'colorless'
_exptl_crystal_density_diffrn 1.301
_exptl_special_details
;
Melting point range 356.15-357.15K

;
_exptl_crystal_description 'plate'
_diffrn_ambient_temperature 293
#These two values have been output from a single CSD field.
_refine_ls_R_factor_gt 0.0537
_refine_ls_wR_factor_gt 0.0537
_symmetry_cell_setting monoclinic
_symmetry_space_group_name_H-M 'P 21/c'
_symmetry_Int_Tables_number 14
loop_
_symmetry_equiv_pos_site_id
_symmetry_equiv_pos_as_xyz
1 x,y,z
2 -x,1/2+y,1/2-z
3 -x,-y,-z
4 x,-1/2-y,-1/2+z
_cell_length_a 20.220(9)
_cell_length_b 5.183(2)
_cell_length_c 11.235(5)
_cell_angle_alpha 90
_cell_angle_beta 102.410(8)
_cell_angle_gamma 90
_cell_formula_units_Z 4
loop_
_atom_type_symbol
_atom_type_radius_bond
C 0.68
H 0.23
N 0.68
O 0.68
loop_
_atom_site_label
_atom_site_type_symbol
_atom_site_fract_x
_atom_site_fract_y
_atom_site_fract_z
C1 C 0.07225(19) 0.7567(9) 0.5955(4)
H1 H 0.09150 0.91850 0.62700
H2 H 0.02700 0.78430 0.54930
H3 H 0.09930 0.68260 0.54380
C2 C 0.07049(15) 0.5853(9) 0.6942(4)
H4 H 0.05080 0.42150 0.66310
H5 H 0.04300 0.65830 0.74660
C3 C 0.14782(13) 0.3909(6) 0.8565(2)
C4 C 0.21961(11) 0.3677(5) 0.9242(2)
C5 C 0.23314(11) 0.2163(5) 1.0393(2)
H6 H 0.22660 0.03410 1.02060
H7 H 0.20140 0.26690 1.08870
C6 C 0.30505(10) 0.2616(4) 1.11009(18)
H8 H 0.31770 0.12160 1.16930
C7 C 0.3509(1) 0.2522(4) 1.02050(18)
H9 H 0.34680 0.08360 0.98000
C8 C 0.42462(10) 0.3070(4) 1.07564(19)
H10 H 0.44400 0.16100 1.12510
H11 H 0.44900 0.32710 1.01080
C9 C 0.43351(10) 0.5450(4) 1.15263(18)
C10 C 0.38715(12) 0.5669(5) 1.2399(2)
H12 H 0.39120 0.73840 1.27530
H13 H 0.40100 0.44360 1.30550
C11 C 0.31321(11) 0.5172(4) 1.1779(2)
H14 H 0.28570 0.51600 1.23880
H15 H 0.29720 0.65590 1.12100
N1 N 0.26320(9) 0.4802(4) 0.87392(17)
O1 O 0.13948(9) 0.5465(5) 0.76262(19)
O2 O 0.10298(10) 0.2765(5) 0.8866(2)
O3 O 0.33153(7) 0.4558(3) 0.92940(13)
O4 O 0.47598(9) 0.7044(3) 1.14640(17)
#END
