
#######################################################################
#
#                 Cambridge Crystallographic Data Centre
#                                CCDC
#
#######################################################################
#
# If this CIF has been generated from an entry in the Cambridge
# Structural Database, then it will include bibliographic, chemical,
# crystal, experimental, refinement or atomic coordinate data resulting
# from the CCDC's data processing and validation procedures.
#
#######################################################################

data_CSD_CIF_XEXPEX
_audit_creation_date 2013-05-20
_audit_creation_method CSD-ConQuest-V1
_database_code_CSD XEXPEX
_database_code_depnum_ccdc_archive 'CCDC 893672'
_chemical_formula_sum 'C24 H19 N1 O6'
_chemical_formula_moiety
;
C24 H19 N1 O6
;
_journal_coden_Cambridge 692
_journal_volume 45
_journal_year 2013
_journal_page_first 1191
_journal_name_full 'Synthesis '
loop_
_publ_author_name
"G.Pal"
"S.Paul"
"A.R.Das"
_chemical_name_systematic
;
10,10-Dimethyl-7-(3-nitrophenyl)-7,9,10,11-tetrahydro-6H,8H-chromeno[4,3-b]chr
omene-6,8-dione
;
_cell_volume   1980.524
_exptl_crystal_density_diffrn 1.4
_diffrn_ambient_temperature 293
#These two values have been output from a single CSD field.
_refine_ls_R_factor_gt 0.049
_refine_ls_wR_factor_gt 0.049
_symmetry_cell_setting orthorhombic
_symmetry_space_group_name_H-M 'P n a 21'
_symmetry_Int_Tables_number 33
loop_
_symmetry_equiv_pos_site_id
_symmetry_equiv_pos_as_xyz
1 x,y,z
2 -x,-y,1/2+z
3 1/2-x,1/2+y,1/2+z
4 1/2+x,1/2-y,z
_cell_length_a 19.0103(5)
_cell_length_b 17.7751(5)
_cell_length_c 5.8611(2)
_cell_angle_alpha 90
_cell_angle_beta 90
_cell_angle_gamma 90
_cell_formula_units_Z 4
loop_
_atom_type_symbol
_atom_type_radius_bond
C 0.68
H 0.23
N 0.68
O 0.68
loop_
_atom_site_label
_atom_site_type_symbol
_atom_site_fract_x
_atom_site_fract_y
_atom_site_fract_z
O1 O 0.36333(7) 0.19520(7) -0.3220(2)
O2 O 0.09031(6) 0.30191(7) 0.2662(3)
O3 O 0.24217(5) 0.13922(6) 0.35956(19)
O4 O 0.14746(7) 0.34897(8) -0.0296(3)
C1 C 0.20223(7) 0.24752(8) 0.1568(3)
O5 O 0.33172(8) 0.49983(9) -0.3795(4)
C2 C 0.31332(7) 0.31488(8) 0.0432(3)
C3 C 0.13700(7) 0.19747(8) 0.4835(3)
C4 C 0.33357(8) 0.05776(9) 0.2388(3)
H1 H 0.30180 0.01920 0.29450
H2 H 0.36790 0.06770 0.35750
N1 N 0.37676(8) 0.49086(8) -0.2345(4)
C5 C 0.19542(7) 0.19658(8) 0.3258(3)
C6 C 0.31970(7) 0.37354(9) -0.1115(3)
H3 H 0.29210 0.37500 -0.24250
C7 C 0.30299(7) 0.17553(8) 0.0209(3)
C8 C 0.26381(7) 0.24877(8) -0.0043(3)
C9 C 0.08569(7) 0.25173(9) 0.4433(3)
C10 C 0.29270(7) 0.12780(8) 0.1942(3)
C11 C 0.12931(8) 0.14839(10) 0.6668(3)
H4 H 0.16330 0.11200 0.69510
C12 C 0.36818(7) 0.43009(9) -0.0665(3)
C13 C 0.40673(8) 0.09361(10) -0.0968(4)
H5 H 0.44500 0.11250 -0.00340
H6 H 0.42680 0.07530 -0.23850
C14 C 0.14708(8) 0.30283(9) 0.1203(3)
C15 C 0.02663(8) 0.25671(10) 0.5826(4)
H7 H -0.00780 0.29260 0.55380
C16 C 0.35739(7) 0.15757(9) -0.1498(3)
C17 C 0.37179(8) 0.02812(10) 0.0267(3)
C18 C 0.07066(9) 0.15394(11) 0.8075(4)
H8 H 0.06550 0.12160 0.93110
C19 C 0.35451(10) 0.31599(10) 0.2389(4)
H9 H 0.35000 0.27720 0.34450
C20 C 0.01972(9) 0.20804(12) 0.7629(4)
H10 H -0.01960 0.21130 0.85660
C21 C 0.40990(9) 0.43123(10) 0.1248(4)
H11 H 0.44230 0.46960 0.14870
C22 C 0.4022(1) 0.37332(11) 0.2810(4)
H12 H 0.42900 0.37290 0.41390
C23 C 0.31866(12) -0.00990(12) -0.1355(5)
H13 H 0.34290 -0.02860 -0.26750
H14 H 0.28390 0.02610 -0.18200
H15 H 0.29610 -0.05090 -0.05800
C24 C 0.42678(11) -0.02967(12) 0.0978(5)
H16 H 0.44940 -0.04960 -0.03560
H17 H 0.40440 -0.06980 0.17990
H18 H 0.46120 -0.00610 0.19390
O6 O 0.42932(9) 0.52996(10) -0.2207(4)
H19 H 0.2457(9) 0.2526(10) -0.151(4)
#END
