
#######################################################################
#
#                 Cambridge Crystallographic Data Centre
#                                CCDC
#
#######################################################################
#
# If this CIF has been generated from an entry in the Cambridge
# Structural Database, then it will include bibliographic, chemical,
# crystal, experimental, refinement or atomic coordinate data resulting
# from the CCDC's data processing and validation procedures.
#
#######################################################################

data_CSD_CIF_XEXRIB
_audit_creation_date 2001-09-06
_audit_creation_method CSD-ConQuest-V1
_database_code_CSD XEXRIB
_chemical_formula_sum 'C12 H18 N2 O2'
_chemical_formula_moiety
;
C12 H18 N2 O2
;
_journal_coden_Cambridge 1096
_journal_volume 11
_journal_year 1999
_journal_page_first 1484
_journal_name_full 'Chem.Mater. '
loop_
_publ_author_name
"A.W.Marsman"
"E.D.Leussink"
"J.W.Zwikker"
"L.W.Jenneskens"
"W.J.J.Smeets"
"N.Veldman"
"A.L.Spek"
_chemical_name_systematic
;
meso-1,1'-Bicyclohexylidene-4,4'-dione dioxime
;
_cell_volume    572.545
_exptl_crystal_density_diffrn 1.289
_exptl_crystal_preparation 'methanol'
_diffrn_ambient_temperature 150
_refine_special_details
;
The oxygen atom, O1, is disordered over two sites with occupancies of 
0.69:0.31.
;
#These two values have been output from a single CSD field.
_refine_ls_R_factor_gt 0.0713
_refine_ls_wR_factor_gt 0.0713
_symmetry_cell_setting monoclinic
_symmetry_space_group_name_H-M 'P 21/c'
_symmetry_Int_Tables_number 14
loop_
_symmetry_equiv_pos_site_id
_symmetry_equiv_pos_as_xyz
1 x,y,z
2 -x,1/2+y,1/2-z
3 -x,-y,-z
4 x,-1/2-y,-1/2+z
_cell_length_a 7.5343(11)
_cell_length_b 9.222(2)
_cell_length_c 10.509(2)
_cell_angle_alpha 90
_cell_angle_beta 128.361(13)
_cell_angle_gamma 90
_cell_formula_units_Z 2
loop_
_atom_type_symbol
_atom_type_radius_bond
C 0.68
H 0.10
N 0.68
O 0.45
loop_
_atom_site_label
_atom_site_type_symbol
_atom_site_fract_x
_atom_site_fract_y
_atom_site_fract_z
O1 O 0.4394(7) 0.3334(6) -0.0472(5)
N1 N 0.5909(6) 0.3786(4) 0.1210(4)
C1 C 0.6623(7) 0.2754(4) 0.2225(5)
C2 C 0.6106(7) 0.1191(4) 0.1736(5)
C3 C 0.8291(7) 0.0312(4) 0.2654(5)
C4 C 0.9705(7) 0.0520(4) 0.4464(5)
C5 C 1.0291(7) 0.2115(4) 0.4895(5)
C6 C 0.8156(7) 0.3052(5) 0.4004(4)
O2? O 0.675(2) 0.5250(12) 0.1906(17)
H1 H 0.413(12) 0.419(11) -0.093(12)
H2 H 0.5307(7) 0.1105(4) 0.0578(5)
H3 H 0.7924(7) -0.0708(4) 0.2397(5)
H4 H 0.9161(7) 0.0606(4) 0.2302(5)
H5 H 1.1229(7) 0.2432(4) 0.4607(5)
H6 H 1.1153(7) 0.2239(4) 0.6057(5)
H7 H 0.7358(7) 0.2858(5) 0.4438(4)
H8 H 0.8581(7) 0.4068(5) 0.4189(4)
H9 H 0.5137(7) 0.0813(4) 0.1972(5)
C4B C 1.0295(7) -0.0520(4) 0.5536(5)
C3B C 1.1709(7) -0.0312(4) 0.7346(5)
C2B C 1.3894(7) -0.1191(4) 0.8264(5)
C1B C 1.3377(7) -0.2754(4) 0.7775(5)
N1B N 1.4091(6) -0.3786(4) 0.8790(4)
O1B O 1.5606(7) -0.3334(6) 1.0472(5)
H1B H 1.587(12) -0.419(11) 1.093(12)
C6B C 1.1844(7) -0.3052(5) 0.5996(4)
C5B C 0.9709(7) -0.2115(4) 0.5105(5)
H5B H 0.8771(7) -0.2432(4) 0.5393(5)
H6B H 0.8847(7) -0.2239(4) 0.3943(5)
H7B H 1.2642(7) -0.2858(5) 0.5562(4)
H8B H 1.1419(7) -0.4068(5) 0.5811(4)
H2B H 1.4693(7) -0.1105(4) 0.9422(5)
H9B H 1.4863(7) -0.0813(4) 0.8028(5)
H3B H 1.2076(7) 0.0708(4) 0.7603(5)
H4B H 1.0839(7) -0.0606(4) 0.7698(5)
#END
