
#######################################################################
#
#                 Cambridge Crystallographic Data Centre
#                                CCDC
#
#######################################################################
#
# If this CIF has been generated from an entry in the Cambridge
# Structural Database, then it will include bibliographic, chemical,
# crystal, experimental, refinement or atomic coordinate data resulting
# from the CCDC's data processing and validation procedures.
#
#######################################################################

data_CSD_CIF_XEXROH
_audit_creation_date 2001-09-06
_audit_creation_method CSD-ConQuest-V1
_database_code_CSD XEXROH
_chemical_formula_sum 'C12 H20 N2 O2'
_chemical_formula_moiety
;
C12 H20 N2 O2
;
_journal_coden_Cambridge 1096
_journal_volume 11
_journal_year 1999
_journal_page_first 1484
_journal_name_full 'Chem.Mater. '
loop_
_publ_author_name
"A.W.Marsman"
"E.D.Leussink"
"J.W.Zwikker"
"L.W.Jenneskens"
"W.J.J.Smeets"
"N.Veldman"
"A.L.Spek"
_chemical_name_systematic
;
meso-1,1'-Bicyclohexyl-4,4'-dione dioxime
;
_chemical_melting_point 503.15
_cell_volume    601.326
_exptl_crystal_density_diffrn 1.239
_exptl_special_details
;
Melts with decomposition.

;
_exptl_crystal_preparation 'methanol'
_diffrn_ambient_temperature 150.15
_refine_special_details
;
The oxygen atom, O1, is disordered over two sites with occupancies of 
0.63:0.37.
;
#These two values have been output from a single CSD field.
_refine_ls_R_factor_gt 0.0523
_refine_ls_wR_factor_gt 0.0523
_symmetry_cell_setting monoclinic
_symmetry_space_group_name_H-M 'P 21/c'
_symmetry_Int_Tables_number 14
loop_
_symmetry_equiv_pos_site_id
_symmetry_equiv_pos_as_xyz
1 x,y,z
2 -x,1/2+y,1/2-z
3 -x,-y,-z
4 x,-1/2-y,-1/2+z
_cell_length_a 7.7595(12)
_cell_length_b 9.5618(7)
_cell_length_c 10.5280(15)
_cell_angle_alpha 90
_cell_angle_beta 129.662(9)
_cell_angle_gamma 90
_cell_formula_units_Z 2
loop_
_atom_type_symbol
_atom_type_radius_bond
C 0.68
H 0.23
N 0.68
O 0.68
loop_
_atom_site_label
_atom_site_type_symbol
_atom_site_fract_x
_atom_site_fract_y
_atom_site_fract_z
O1 O 0.4133(3) 0.1595(2) -0.0546(2)
O2? O 0.7019(6) -0.0198(3) 0.1964(4)
N1 N 0.5814(2) 0.11836(13) 0.1185(2)
C1 C 0.6400(3) 0.2167(2) 0.2214(2)
C2 C 0.5586(3) 0.3637(2) 0.1698(2)
C3 C 0.7543(3) 0.4670(2) 0.2659(2)
C4 C 0.9040(3) 0.44642(14) 0.4527(2)
C5 C 0.9891(3) 0.2955(2) 0.4944(2)
C6 C 0.7974(3) 0.1892(2) 0.4022(2)
H1 H 0.812(3) 0.4596(15) 0.4858(19)
H2 H 0.380(4) 0.074(4) -0.103(4)
H3 H 0.465(3) 0.3746(19) 0.051(3)
H4 H 0.451(3) 0.3829(18) 0.196(2)
H5 H 0.691(3) 0.5619(19) 0.236(2)
H6 H 1.088(3) 0.2849(17) 0.467(2)
H7 H 1.086(3) 0.2768(17) 0.610(2)
H8 H 0.850(3) 0.4561(17) 0.239(2)
H9 H 0.856(3) 0.093(2) 0.426(2)
H10 H 0.710(3) 0.1983(17) 0.440(2)
C4B C 1.0960(3) 0.55358(14) 0.5473(2)
C3B C 1.2457(3) 0.5330(2) 0.7341(2)
C2B C 1.4414(3) 0.6363(2) 0.8302(2)
C1B C 1.3600(3) 0.7833(2) 0.7786(2)
N1B N 1.4186(2) 0.88164(13) 0.8815(2)
O1B O 1.5867(3) 0.8405(2) 1.0546(2)
H2B H 1.620(4) 0.926(4) 1.103(4)
C6B C 1.2026(3) 0.8108(2) 0.5978(2)
C5B C 1.0109(3) 0.7045(2) 0.5056(2)
H1B H 1.188(3) 0.5404(15) 0.5142(19)
H6B H 0.912(3) 0.7151(17) 0.533(2)
H7B H 0.914(3) 0.7232(17) 0.390(2)
H9B H 1.144(3) 0.907(2) 0.574(2)
H10B H 1.290(3) 0.8017(17) 0.560(2)
H3B H 1.535(3) 0.6254(19) 0.949(3)
H4B H 1.549(3) 0.6171(18) 0.804(2)
H5B H 1.309(3) 0.4381(19) 0.764(2)
H8B H 1.150(3) 0.5439(17) 0.761(2)
#END
