
#######################################################################
#
#                 Cambridge Crystallographic Data Centre
#                                CCDC
#
#######################################################################
#
# If this CIF has been generated from an entry in the Cambridge
# Structural Database, then it will include bibliographic, chemical,
# crystal, experimental, refinement or atomic coordinate data resulting
# from the CCDC's data processing and validation procedures.
#
#######################################################################

data_CSD_CIF_XEXWAA
_audit_creation_date 2013-05-20
_audit_creation_method CSD-ConQuest-V1
_database_code_CSD XEXWAA
_database_code_depnum_ccdc_archive 'CCDC 893393'
_chemical_formula_sum 'C16 H23 N2 O2'
_chemical_formula_moiety
;
C16 H23 N2 O2
;
_journal_coden_Cambridge 1295
_journal_volume 27
_journal_year 2013
_journal_page_first 31
_journal_name_full 'Inorg.Chem.Commun. '
loop_
_publ_author_name
"Yuan-yuan Gao"
"Ya-li Wang"
"Peng Hu"
"Ming-fang Yang"
"Yue Ma"
"Qing-lun Wang"
"Li-cun Li"
"Dai-zheng Liao"
_chemical_name_systematic
;
2-(4-Isopropylphenyl)-4,4,5,5-tetramethyl-4,5-dihydro-1H-3\l^5^-imidazole-1,3-
diol
;
_cell_volume   1580.994
_exptl_crystal_colour 'colorless'
_exptl_crystal_density_diffrn 1.157
_exptl_crystal_description 'prism'
_diffrn_ambient_temperature 293
#These two values have been output from a single CSD field.
_refine_ls_R_factor_gt 0.0705
_refine_ls_wR_factor_gt 0.0705
_symmetry_cell_setting monoclinic
_symmetry_space_group_name_H-M 'P 21/c'
_symmetry_Int_Tables_number 14
loop_
_symmetry_equiv_pos_site_id
_symmetry_equiv_pos_as_xyz
1 x,y,z
2 -x,1/2+y,1/2-z
3 -x,-y,-z
4 x,-1/2-y,-1/2+z
_cell_length_a 13.251(3)
_cell_length_b 10.909(2)
_cell_length_c 11.653(2)
_cell_angle_alpha 90
_cell_angle_beta 110.19(3)
_cell_angle_gamma 90
_cell_formula_units_Z 4
loop_
_atom_type_symbol
_atom_type_radius_bond
C 0.68
H 0.23
N 0.68
O 0.68
loop_
_atom_site_label
_atom_site_type_symbol
_atom_site_fract_x
_atom_site_fract_y
_atom_site_fract_z
O1 O 0.44500(16) 0.1419(2) 0.09266(19)
O2 O 0.13852(19) 0.0267(2) 0.1691(2)
N1 N 0.37407(18) 0.1289(2) 0.1436(2)
N2 N 0.2274(2) 0.0771(2) 0.1776(2)
C1 C 0.2830(2) 0.0618(2) 0.1016(2)
C2 C 0.3881(2) 0.1866(3) 0.2650(2)
C3 C 0.4315(3) 0.3144(3) 0.2687(3)
H1 H 0.50050 0.31120 0.25920
H2 H 0.43870 0.35170 0.34580
H3 H 0.38290 0.36200 0.20360
C4 C 0.4726(3) 0.1082(4) 0.3593(3)
H4 H 0.44570 0.02630 0.35820
H5 H 0.48780 0.14290 0.43930
H6 H 0.53720 0.10620 0.33970
C5 C 0.2756(3) 0.1753(3) 0.2701(3)
C6 C 0.2059(3) 0.2915(3) 0.2179(4)
H7 H 0.21080 0.31200 0.13980
H8 H 0.23180 0.35890 0.27320
H9 H 0.13230 0.27510 0.20850
C7 C 0.2638(4) 0.1461(4) 0.3891(3)
H10 H 0.18940 0.15110 0.38110
H11 H 0.30460 0.20370 0.44970
H12 H 0.28990 0.06470 0.41360
C8 C 0.2486(2) -0.0105(2) -0.0110(2)
C9 C 0.3231(2) -0.0651(2) -0.0538(3)
H13 H 0.39610 -0.05850 -0.00900
C10 C 0.2898(2) -0.1291(2) -0.1622(3)
H14 H 0.34090 -0.16650 -0.18870
C11 C 0.1815(2) -0.1393(2) -0.2333(2)
C12 C 0.1082(2) -0.0850(2) -0.1886(3)
H15 H 0.03520 -0.09090 -0.23370
C13 C 0.1402(2) -0.0223(2) -0.0790(3)
H16 H 0.08890 0.01200 -0.05070
C14 C 0.1493(2) -0.2035(3) -0.3556(3)
H17 H 0.19360 -0.27760 -0.34360
C15 C 0.0340(3) -0.2447(3) -0.4045(3)
H18 H 0.01810 -0.29210 -0.34330
H19 H 0.02240 -0.29400 -0.47610
H20 H -0.01230 -0.17430 -0.42520
C16 C 0.1758(4) -0.1263(4) -0.4479(3)
H21 H 0.13180 -0.05400 -0.46480
H22 H 0.16230 -0.17230 -0.52190
H23 H 0.25020 -0.10320 -0.41600
#END
