
#######################################################################
#
#                 Cambridge Crystallographic Data Centre
#                                CCDC
#
#######################################################################
#
# If this CIF has been generated from an entry in the Cambridge
# Structural Database, then it will include bibliographic, chemical,
# crystal, experimental, refinement or atomic coordinate data resulting
# from the CCDC's data processing and validation procedures.
#
#######################################################################

data_CSD_CIF_XEXWIG
_audit_creation_date 2001-09-05
_audit_creation_method CSD-ConQuest-V1
_database_code_CSD XEXWIG
_database_code_depnum_ccdc_archive 'CCDC 1296319'
_chemical_formula_sum 'C21 H19 N3 O2'
_chemical_formula_moiety
;
C21 H19 N3 O2
;
_journal_coden_Cambridge 34
_journal_volume 36
_journal_year 1999
_journal_page_first 849
_journal_name_full 'J.Heterocycl.Chem. '
loop_
_publ_author_name
"A.Sugimoto"
"H.Maruyama"
"W.Takahashi"
"K.Mizuno"
"K.Uehara"
"T.Adachi"
_chemical_name_systematic
;
5-Methyl-10-(p-nitrophenethyl)-5,10-dihydrophenazine
;
_chemical_melting_point 464.65
_cell_volume   1704.620
_exptl_crystal_colour 'dark violet'
_exptl_crystal_density_diffrn 1.346
_exptl_special_details
;
Melting point range 464.65-467.15K

;
_exptl_crystal_description 'prisms'
_exptl_crystal_preparation 'hexane'
_diffrn_ambient_temperature ?
_diffrn_special_details
;
The study was carried out at room temperature,in the range 283-303K

;
#These two values have been output from a single CSD field.
_refine_ls_R_factor_gt 0.045
_refine_ls_wR_factor_gt 0.045
_symmetry_cell_setting monoclinic
_symmetry_space_group_name_H-M 'P 21/a'
_symmetry_Int_Tables_number 14
loop_
_symmetry_equiv_pos_site_id
_symmetry_equiv_pos_as_xyz
1 x,y,z
2 1/2-x,1/2+y,-z
3 -x,-y,-z
4 -1/2+x,-1/2-y,z
_cell_length_a 7.679(2)
_cell_length_b 22.860(3)
_cell_length_c 9.932(2)
_cell_angle_alpha 90
_cell_angle_beta 102.12(2)
_cell_angle_gamma 90
_cell_formula_units_Z 4
loop_
_atom_type_symbol
_atom_type_radius_bond
C 0.68
N 0.68
O 0.68
loop_
_atom_site_label
_atom_site_type_symbol
_atom_site_fract_x
_atom_site_fract_y
_atom_site_fract_z
O1 O 0.4120(6) 0.0589(2) 0.0216(5)
O2 O 0.5991(6) 0.0554(2) 0.2176(5)
N1 N -0.2738(7) -0.1120(2) 0.4609(6)
N2 N -0.5019(7) -0.1730(2) 0.5799(7)
N3 N 0.4590(8) 0.0418(2) 0.1395(6)
C1 C -0.278(1) -0.1778(3) 0.796(1)
C2 C -0.112(1) -0.1631(3) 0.8737(8)
C3 C 0.001(1) -0.1312(3) 0.8120(9)
C4 C -0.048(1) -0.1151(3) 0.6756(8)
C5 C -0.4300(8) -0.1467(3) 0.2342(8)
C6 C -0.564(1) -0.1798(3) 0.1552(8)
C7 C -0.671(1) -0.2143(3) 0.217(1)
C8 C -0.644(1) -0.2149(3) 0.358(1)
C9 C -0.332(1) -0.1608(3) 0.6593(8)
C10 C -0.213(1) -0.1292(2) 0.5974(8)
C11 C -0.4067(8) -0.1464(2) 0.3754(8)
C12 C -0.5178(9) -0.1794(3) 0.4393(9)
C13 C -0.1546(7) -0.0768(2) 0.3963(6)
C14 C -0.0073(7) -0.1118(2) 0.3499(6)
C15 C 0.1168(7) -0.0724(2) 0.2943(7)
C16 C 0.2569(8) -0.0462(3) 0.3807(6)
C17 C 0.3686(7) -0.0088(3) 0.3304(7)
C18 C 0.3390(8) 0.0021(2) 0.1935(7)
C19 C 0.2032(9) -0.0240(3) 0.1039(6)
C20 C 0.0910(7) -0.0609(3) 0.1566(7)
C21 C -0.6281(9) -0.2027(3) 0.6474(7)
#END
