
#######################################################################
#
#                 Cambridge Crystallographic Data Centre
#                                CCDC
#
#######################################################################
#
# If this CIF has been generated from an entry in the Cambridge
# Structural Database, then it will include bibliographic, chemical,
# crystal, experimental, refinement or atomic coordinate data resulting
# from the CCDC's data processing and validation procedures.
#
#######################################################################

data_CSD_CIF_XEXWAY
_audit_creation_date 2001-09-05
_audit_creation_method CSD-ConQuest-V1
_database_code_CSD XEXWAY
_database_code_depnum_ccdc_archive 'CCDC 1296317'
_chemical_formula_sum 'C34 H29 N5 O2'
_chemical_formula_moiety
;
C34 H29 N5 O2
;
_journal_coden_Cambridge 34
_journal_volume 36
_journal_year 1999
_journal_page_first 849
_journal_name_full 'J.Heterocycl.Chem. '
loop_
_publ_author_name
"A.Sugimoto"
"H.Maruyama"
"W.Takahashi"
"K.Mizuno"
"K.Uehara"
"T.Adachi"
_chemical_name_systematic
;
1,2-bis(5-(10-Methyl-5,10-dihydrophenazinyl))-1-(4-nitrophenyl)ethane
;
_chemical_melting_point 403.15
_cell_volume   2750.469
_exptl_crystal_colour 'dark violet'
_exptl_crystal_density_diffrn 1.303
_exptl_special_details
;
Melts with decomposition.
Coordinates for only one molecule are given in the paper, given density and Z 
suggest Z'=2 in P-1
;
_exptl_crystal_description 'prisms'
_exptl_crystal_preparation 'hexane'
_diffrn_ambient_temperature ?
_diffrn_special_details
;
The study was carried out at room temperature,in the range 283-303K

;
#These two values have been output from a single CSD field.
_refine_ls_R_factor_gt 0.071
_refine_ls_wR_factor_gt 0.071
_symmetry_cell_setting triclinic
_symmetry_space_group_name_H-M 'P -1'
_symmetry_Int_Tables_number 2
loop_
_symmetry_equiv_pos_site_id
_symmetry_equiv_pos_as_xyz
1 x,y,z
2 -x,-y,-z
_cell_length_a 10.385(2)
_cell_length_b 27.731(4)
_cell_length_c 9.670(3)
_cell_angle_alpha 96.49(2)
_cell_angle_beta 90.31(2)
_cell_angle_gamma 83.75(1)
_cell_formula_units_Z 4
loop_
_atom_type_symbol
_atom_type_radius_bond
C 0.68
N 0.68
O 0.68
loop_
_atom_site_label
_atom_site_type_symbol
_atom_site_fract_x
_atom_site_fract_y
_atom_site_fract_z
O1 O 0.1971(6) 0.8539(2) -0.0871(6)
O2 O 0.2811(6) 0.7801(2) -0.0748(6)
N1 N 0.8671(6) 1.0152(2) 0.6714(7)
N2 N 0.6805(5) 0.9635(2) 0.5405(5)
N3 N 0.8914(6) 0.8197(2) 0.5967(7)
N4 N 0.7197(5) 0.8586(2) 0.4212(5)
N5 N 0.2768(6) 0.8234(3) -0.0414(6)
C1 C 0.6844(7) 1.0131(2) 0.3467(8)
C2 C 0.7292(9) 1.0508(3) 0.2854(9)
C3 C 0.819(1) 1.0777(3) 0.356(1)
C4 C 0.861(1) 1.0662(3) 0.486(1)
C5 C 0.8272(9) 0.9830(3) 0.8854(10)
C6 C 0.764(1) 0.9529(4) 0.9622(9)
C7 C 0.673(1) 0.9273(3) 0.8967(9)
C8 C 0.6425(8) 0.9310(3) 0.7614(8)
C9 C 0.7060(6) 0.9599(2) 0.6822(7)
C10 C 0.8014(7) 0.9859(2) 0.7478(8)
C11 C 0.8200(7) 1.0282(2) 0.5470(8)
C12 C 0.7271(6) 1.0011(2) 0.4764(7)
C13 C 0.9763(9) 1.0388(4) 0.735(1)
C14 C 0.5838(6) 0.9361(2) 0.4657(6)
C15 C 0.6412(6) 0.8967(2) 0.3560(6)
C16 C 0.8799(7) 0.8413(2) 0.2311(8)
C17 C 1.0054(8) 0.8258(3) 0.1872(9)
C18 C 1.0914(8) 0.8079(3) 0.277(1)
C19 C 1.0577(8) 0.8036(2) 0.411(1)
C20 C 0.715(1) 0.7901(2) 0.7249(8)
C21 C 0.583(1) 0.7895(3) 0.7432(8)
C22 C 0.4939(8) 0.8091(3) 0.6550(8)
C23 C 0.5399(7) 0.8311(2) 0.5444(7)
C24 C 0.6686(7) 0.8335(2) 0.5246(6)
C25 C 0.7590(8) 0.8141(2) 0.6154(7)
C26 C 0.9327(7) 0.8210(2) 0.4599(8)
C27 C 0.8437(6) 0.8403(2) 0.3679(7)
C28 C 0.9804(9) 0.8070(3) 0.7071(10)
C29 C 0.5438(6) 0.8780(2) 0.2522(6)
C30 C 0.4505(6) 0.9095(2) 0.1957(7)
C31 C 0.3651(7) 0.8913(3) 0.0991(7)
C32 C 0.3695(6) 0.8425(3) 0.0605(6)
C33 C 0.4610(7) 0.8099(2) 0.1117(7)
C34 C 0.5486(6) 0.8282(2) 0.2080(6)
#END
