
#######################################################################
#
#                 Cambridge Crystallographic Data Centre
#                                CCDC
#
#######################################################################
#
# If this CIF has been generated from an entry in the Cambridge
# Structural Database, then it will include bibliographic, chemical,
# crystal, experimental, refinement or atomic coordinate data resulting
# from the CCDC's data processing and validation procedures.
#
#######################################################################

data_CSD_CIF_XEXWEC
_audit_creation_date 2001-09-05
_audit_creation_method CSD-ConQuest-V1
_database_code_CSD XEXWEC
_database_code_depnum_ccdc_archive 'CCDC 1296318'
_chemical_formula_sum 'C42 H36 N6 O4'
_chemical_formula_moiety
;
C42 H36 N6 O4
;
_journal_coden_Cambridge 34
_journal_volume 36
_journal_year 1999
_journal_page_first 849
_journal_name_full 'J.Heterocycl.Chem. '
loop_
_publ_author_name
"A.Sugimoto"
"H.Maruyama"
"W.Takahashi"
"K.Mizuno"
"K.Uehara"
"T.Adachi"
_chemical_name_systematic
;
meso-1,4-bis(4-Nitrophenyl)-1,4-bis(5-(10-methyl-5,10-dihydrophenazinyl))butan
e
;
_chemical_melting_point 428.15
_cell_volume   1716.204
_exptl_crystal_colour 'dark red'
_exptl_crystal_density_diffrn 1.333
_exptl_special_details
;
Melts with decomposition.

;
_exptl_crystal_description 'prisms'
_exptl_crystal_preparation 'toluene/hexane'
_diffrn_ambient_temperature ?
_diffrn_special_details
;
The study was carried out at room temperature,in the range 283-303K

;
#These two values have been output from a single CSD field.
_refine_ls_R_factor_gt 0.071
_refine_ls_wR_factor_gt 0.071
loop_
_citation_database_id_CSD
_citation_special_details
XEXWOM "is a stereoisomer of this entry"
_symmetry_cell_setting monoclinic
_symmetry_space_group_name_H-M 'P 21/c'
_symmetry_Int_Tables_number 14
loop_
_symmetry_equiv_pos_site_id
_symmetry_equiv_pos_as_xyz
1 x,y,z
2 -x,1/2+y,1/2-z
3 -x,-y,-z
4 x,-1/2-y,-1/2+z
_cell_length_a 10.972(3)
_cell_length_b 11.210(2)
_cell_length_c 14.531(2)
_cell_angle_alpha 90
_cell_angle_beta 106.21(1)
_cell_angle_gamma 90
_cell_formula_units_Z 2
loop_
_atom_type_symbol
_atom_type_radius_bond
C 0.68
N 0.68
O 0.68
loop_
_atom_site_label
_atom_site_type_symbol
_atom_site_fract_x
_atom_site_fract_y
_atom_site_fract_z
O1 O 0.3533(9) 0.6812(7) 0.8657(7)
O2 O 0.536(1) 0.6557(7) 0.8435(7)
N1 N 0.2708(7) 0.0659(6) 0.8995(6)
N2 N 0.1347(8) -0.1349(7) 0.9003(6)
N3 N 0.441(1) 0.6164(8) 0.8584(7)
C1 C 0.1274(10) -0.0951(9) 1.0640(8)
C2 C 0.157(1) -0.0209(10) 1.1439(8)
C3 C 0.223(1) 0.0841(10) 1.1430(8)
C4 C 0.2571(10) 0.1165(9) 1.0615(8)
C5 C 0.2024(10) 0.0698(9) 0.7250(7)
C6 C 0.133(1) 0.0151(9) 0.6392(8)
C7 C 0.060(1) -0.0799(10) 0.6411(8)
C8 C 0.0563(10) -0.132(1) 0.7263(8)
C9 C 0.1285(9) -0.0838(9) 0.8133(8)
C10 C 0.1982(9) 0.0190(8) 0.8107(8)
C11 C 0.2319(9) 0.0429(9) 0.9825(7)
C12 C 0.1617(10) -0.0622(9) 0.9818(7)
C13 C 0.085(1) -0.253(1) 0.9073(8)
C14 C 0.3990(9) 0.1109(8) 0.9079(7)
C15 C 0.4066(10) 0.2465(8) 0.8954(7)
C16 C 0.514(1) 0.2941(9) 0.8757(7)
C17 C 0.525(1) 0.4173(9) 0.8644(7)
C18 C 0.428(1) 0.4888(9) 0.8724(7)
C19 C 0.3221(10) 0.4456(9) 0.8924(7)
C20 C 0.3086(10) 0.3221(9) 0.9021(7)
C21 C 0.500(1) 0.0697(9) 0.9973(8)
C21B C 0.500(1) -0.0697(9) 1.0027(8)
C14B C 0.6010(9) -0.1109(8) 1.0921(7)
N1B N 0.7292(7) -0.0659(6) 1.1005(6)
C10B C 0.8018(9) -0.0190(8) 1.1893(8)
C5B C 0.7976(10) -0.0698(9) 1.2750(7)
C6B C 0.867(1) -0.0151(9) 1.3608(8)
C7B C 0.940(1) 0.0799(10) 1.3589(8)
C8B C 0.9437(10) 0.132(1) 1.2737(8)
C9B C 0.8715(9) 0.0838(9) 1.1867(8)
N2B N 0.8653(8) 0.1349(7) 1.0997(6)
C12B C 0.8383(10) 0.0622(9) 1.0182(7)
C1B C 0.8726(10) 0.0951(9) 0.9360(8)
C2B C 0.843(1) 0.0209(10) 0.8561(8)
C3B C 0.777(1) -0.0841(10) 0.8570(8)
C4B C 0.7429(10) -0.1165(9) 0.9385(8)
C11B C 0.7681(9) -0.0429(9) 1.0175(7)
C13B C 0.915(1) 0.253(1) 1.0927(8)
C15B C 0.5934(10) -0.2465(8) 1.1046(7)
C16B C 0.486(1) -0.2941(9) 1.1243(7)
C17B C 0.475(1) -0.4173(9) 1.1356(7)
C18B C 0.572(1) -0.4888(9) 1.1276(7)
N3B N 0.559(1) -0.6164(8) 1.1416(7)
O1B O 0.6467(9) -0.6812(7) 1.1343(7)
O2B O 0.464(1) -0.6557(7) 1.1565(7)
C19B C 0.6779(10) -0.4456(9) 1.1076(7)
C20B C 0.6914(10) -0.3221(9) 1.0979(7)
#END
