
#######################################################################
#
#                 Cambridge Crystallographic Data Centre
#                                CCDC
#
#######################################################################
#
# If this CIF has been generated from an entry in the Cambridge
# Structural Database, then it will include bibliographic, chemical,
# crystal, experimental, refinement or atomic coordinate data resulting
# from the CCDC's data processing and validation procedures.
#
#######################################################################

data_CSD_CIF_XEYGOZ
_audit_creation_date 2013-05-20
_audit_creation_method CSD-ConQuest-V1
_database_code_CSD XEYGOZ
_database_code_depnum_ccdc_archive 'CCDC 893169'
_chemical_formula_sum 'C22 H17 N3 O6'
_chemical_formula_moiety
;
C22 H17 N3 O6
;
_journal_coden_Cambridge 1336
_journal_volume 15
_journal_year 2013
_journal_page_first 456
_journal_name_full 'Org.Lett. '
loop_
_publ_author_name
"Wen-Ming Shu"
"Yan Yang"
"Dong-Xue Zhang"
"Liu-Ming Wu"
"Yan-Ping Zhu"
"Guo-Dong Yin"
"An-Xin Wu"
_chemical_name_systematic
;
Ethyl 
5-amino-4-cyano-6a-(4-nitrophenyl)-2-phenyl-3a,6a-dihydrofuro[2,3-b]furan-3-ca
rboxylate
;
_cell_volume   1977.123
_exptl_crystal_density_diffrn 1.409
_exptl_crystal_description 'block'
_diffrn_ambient_temperature 296
#These two values have been output from a single CSD field.
_refine_ls_R_factor_gt 0.0508
_refine_ls_wR_factor_gt 0.0508
_symmetry_cell_setting monoclinic
_symmetry_space_group_name_H-M 'P 21/n'
_symmetry_Int_Tables_number 14
loop_
_symmetry_equiv_pos_site_id
_symmetry_equiv_pos_as_xyz
1 x,y,z
2 1/2-x,1/2+y,1/2-z
3 -x,-y,-z
4 -1/2+x,-1/2-y,-1/2+z
_cell_length_a 10.9383(18)
_cell_length_b 9.6552(16)
_cell_length_c 19.320(3)
_cell_angle_alpha 90
_cell_angle_beta 104.308(3)
_cell_angle_gamma 90
_cell_formula_units_Z 4
loop_
_atom_type_symbol
_atom_type_radius_bond
C 0.68
H 0.23
N 0.68
O 0.68
loop_
_atom_site_label
_atom_site_type_symbol
_atom_site_fract_x
_atom_site_fract_y
_atom_site_fract_z
C1 C 0.5663(2) 0.1681(2) 0.14153(12)
C2 C 0.6204(2) 0.2634(3) 0.19180(16)
H1 H 0.70770 0.26870 0.20790
C3 C 0.5443(2) 0.3518(3) 0.21845(14)
H2 H 0.58050 0.41670 0.25300
C4 C 0.41449(17) 0.3445(2) 0.19408(10)
C5 C 0.36197(18) 0.2489(2) 0.14169(11)
H3 H 0.27480 0.24410 0.12480
C6 C 0.4374(2) 0.1605(2) 0.11428(11)
H4 H 0.40240 0.09770 0.07840
C7 C 0.33077(17) 0.43076(19) 0.22838(10)
C8 C 0.28315(16) 0.36126(19) 0.28868(9)
H5 H 0.30350 0.26230 0.29290
C9 C 0.14194(17) 0.38655(19) 0.26413(10)
C10 C 0.11610(17) 0.45634(19) 0.20224(10)
C11 C 0.00434(18) 0.5221(2) 0.15545(11)
C12 C -0.1054(3) 0.5396(5) 0.17694(17)
H6 H -0.11320 0.50220 0.22000
C13 C -0.2050(4) 0.6139(6) 0.1338(2)
H7 H -0.27870 0.62570 0.14900
C14 C -0.1979(3) 0.6683(4) 0.07180(19)
H8 H -0.26590 0.71600 0.04350
C15 C -0.0906(3) 0.6530(4) 0.0509(2)
H9 H -0.08360 0.69230 0.00810
C16 C 0.0103(3) 0.5789(4) 0.09233(17)
H10 H 0.08320 0.56820 0.07640
C17 C 0.35439(17) 0.4422(2) 0.35324(10)
C18 C 0.41603(17) 0.5482(2) 0.33092(10)
C19 C 0.3607(2) 0.4160(2) 0.42519(11)
N1 N 0.6477(2) 0.0675(3) 0.11629(13)
N2 N 0.3685(2) 0.3975(3) 0.48478(11)
C20 C 0.05615(18) 0.3246(2) 0.30313(12)
O1 O 0.75659(19) 0.0564(3) 0.15147(15)
O2 O 0.6028(2) -0.0027(3) 0.06515(14)
O3 O 0.39870(13) 0.55365(13) 0.25896(7)
O4 O 0.22236(12) 0.47662(14) 0.17664(7)
N3 N 0.48786(17) 0.65079(18) 0.36686(10)
H11 H 0.528(3) 0.699(3) 0.3421(14)
O5 O 0.12139(14) 0.27394(17) 0.36510(8)
O6 O -0.05666(15) 0.3125(2) 0.28218(11)
C21 C 0.0510(3) 0.1991(3) 0.40770(17)
H12 H -0.00700 0.26150 0.42270
H13 H 0.00220 0.12580 0.37940
C22 C 0.1379(4) 0.1404(4) 0.46987(19)
H14 H 0.19350 0.07670 0.45470
H15 H 0.09120 0.09240 0.49850
H16 H 0.18650 0.21320 0.49750
H17 H 0.520(4) 0.641(5) 0.4137(11)
#END
