
#######################################################################
#
#                 Cambridge Crystallographic Data Centre
#                                CCDC
#
#######################################################################
#
# If this CIF has been generated from an entry in the Cambridge
# Structural Database, then it will include bibliographic, chemical,
# crystal, experimental, refinement or atomic coordinate data resulting
# from the CCDC's data processing and validation procedures.
#
#######################################################################

data_CSD_CIF_XEYJAP
_audit_creation_date 2018-04-08
_audit_creation_method CSD-ConQuest-V1
_database_code_CSD XEYJAP
_database_code_depnum_ccdc_archive 'CCDC 1574555'
_chemical_formula_sum 'C7 H6 N8 O8'
_chemical_formula_moiety
;
C7 H6 N8 O8
;
_journal_coden_Cambridge 1078
_journal_year 2018
_journal_name_full 'CSD Communication(Private Communication) '
loop_
_publ_author_name
"guan gxgxiaoge"
_chemical_name_systematic
;
N'-nitro-2-(2,4,6-trinitrophenyl)hydrazine-1-carboximidamide
;
_cell_volume   1244.134
_exptl_crystal_colour 'yellow'
_exptl_crystal_density_diffrn 1.763
_exptl_crystal_description 'block'
_diffrn_ambient_temperature 296
_refine_special_details
;
O5B and O5A disordered over two sites with occupancies 0.557:0.443.

;
#These two values have been output from a single CSD field.
_refine_ls_R_factor_gt 0.0431
_refine_ls_wR_factor_gt 0.0431
_symmetry_cell_setting monoclinic
_symmetry_space_group_name_H-M 'P 21/n'
_symmetry_Int_Tables_number 14
loop_
_symmetry_equiv_pos_site_id
_symmetry_equiv_pos_as_xyz
1 x,y,z
2 1/2-x,1/2+y,1/2-z
3 -x,-y,-z
4 -1/2+x,-1/2-y,-1/2+z
_cell_length_a 7.9463(17)
_cell_length_b 8.8839(19)
_cell_length_c 17.848(4)
_cell_angle_alpha 90
_cell_angle_beta 99.092(4)
_cell_angle_gamma 90
_cell_formula_units_Z 4
loop_
_atom_type_symbol
_atom_type_radius_bond
C 0.68
H 0.23
N 0.68
O 0.68
loop_
_atom_site_label
_atom_site_type_symbol
_atom_site_fract_x
_atom_site_fract_y
_atom_site_fract_z
O1 O 0.9613(3) 0.7642(2) 0.66124(10)
N1 N 0.9187(3) 0.8498(2) 0.60847(11)
C1 C 0.7264(2) 0.5831(2) 0.46002(11)
O2 O 0.9498(3) 0.9841(2) 0.61102(12)
N2 N 0.6938(2) 0.42001(19) 0.45768(10)
C2 C 0.8106(3) 0.6364(2) 0.52769(12)
H1 H 0.85700 0.57050 0.56590
O3 O 0.8127(2) 0.33577(18) 0.47803(12)
C3 C 0.6691(3) 0.8322(2) 0.41548(12)
O4 O 0.5322(2) 0.91073(17) 0.29740(9)
N3 N 0.5904(3) 0.9437(2) 0.36121(13)
O5 O 0.5267(15) 1.0603(6) 0.3892(3)
C4 C 0.8249(3) 0.7899(2) 0.53785(12)
O6 O 0.5462(2) 0.38042(17) 0.43970(9)
N4 N 0.5913(2) 0.62469(19) 0.3284(1)
H2 H 0.568(3) 0.692(2) 0.2940(11)
C5 C 0.7517(3) 0.8881(2) 0.48371(13)
H3 H 0.75720 0.99130 0.49260
N5 N 0.6370(2) 0.48388(18) 0.30445(10)
H4 H 0.738(2) 0.481(2) 0.2915(12)
C6 C 0.6598(2) 0.6769(2) 0.39841(11)
N6 N 0.3533(2) 0.4259(2) 0.27646(12)
H5 H 0.270(3) 0.368(2) 0.2522(13)
H6 H 0.332(3) 0.510(2) 0.3002(13)
N7 N 0.5723(2) 0.28200(18) 0.23036(9)
O7 O 0.51998(19) 0.08821(16) 0.15533(9)
C7 C 0.5103(3) 0.3955(2) 0.26842(11)
N8 N 0.4592(2) 0.19078(18) 0.18919(10)
O8 O 0.30104(19) 0.20539(17) 0.18322(10)
O9? O 0.671(2) 1.0746(6) 0.3692(5)
#END
