
#######################################################################
#
#                 Cambridge Crystallographic Data Centre
#                                CCDC
#
#######################################################################
#
# If this CIF has been generated from an entry in the Cambridge
# Structural Database, then it will include bibliographic, chemical,
# crystal, experimental, refinement or atomic coordinate data resulting
# from the CCDC's data processing and validation procedures.
#
#######################################################################

data_CSD_CIF_XEYVON
_audit_creation_date 2007-05-09
_audit_creation_method CSD-ConQuest-V1
_database_code_CSD XEYVON
_database_code_depnum_ccdc_archive 'CCDC 640304'
_chemical_formula_sum 'C11 H10 N2 O6'
_chemical_formula_moiety
;
C11 H10 N2 O6
;
_journal_coeditor_code "IUCr CS2029"
_journal_coden_Cambridge 1370
_journal_volume 63
_journal_year 2007
_journal_page_first o1115
_journal_name_full 'Acta Crystallogr.,Sect.E:Struct.Rep.Online '
loop_
_publ_author_name
"M.D.H.Bhuiyan"
"P.Jensen"
"P.Turner"
"A.C.Try"
_chemical_name_systematic
;
4-(2-Methoxy-4-nitrophenyl)morpholine-3,5-dione
;
_chemical_melting_point 486
_cell_volume    555.333
_exptl_crystal_colour 'yellow'
_exptl_crystal_density_diffrn 1.592
_exptl_crystal_description 'prism'
_diffrn_ambient_temperature 150
#These two values have been output from a single CSD field.
_refine_ls_R_factor_gt 0.0322
_refine_ls_wR_factor_gt 0.0322
_symmetry_cell_setting triclinic
_symmetry_space_group_name_H-M 'P -1'
_symmetry_Int_Tables_number 2
loop_
_symmetry_equiv_pos_site_id
_symmetry_equiv_pos_as_xyz
1 x,y,z
2 -x,-y,-z
_cell_length_a 7.526(2)
_cell_length_b 7.554(2)
_cell_length_c 10.259(3)
_cell_angle_alpha 100.460(4)
_cell_angle_beta 102.539(4)
_cell_angle_gamma 94.732(4)
_cell_formula_units_Z 2
loop_
_atom_type_symbol
_atom_type_radius_bond
C 0.68
H 0.23
N 0.68
O 0.68
loop_
_atom_site_label
_atom_site_type_symbol
_atom_site_fract_x
_atom_site_fract_y
_atom_site_fract_z
N1 N 0.79995(13) -0.32869(13) 0.13488(11)
N2 N 0.40014(12) 0.23002(12) 0.30811(9)
O1 O 0.93364(12) -0.35848(12) 0.21646(10)
O2 O 0.75368(12) -0.40508(12) 0.01449(9)
O3 O 0.24896(10) -0.02408(10) 0.07797(8)
O4 O 0.27752(11) 0.52558(11) 0.43958(8)
O5 O 0.19626(11) 0.04616(11) 0.37299(9)
O6 O 0.58401(11) 0.41966(11) 0.22981(9)
C1 C 0.68987(15) -0.18997(14) 0.18464(12)
C2 C 0.51785(15) -0.18451(14) 0.10317(11)
H1 H 0.46980 -0.27130 0.02070
C3 C 0.41798(14) -0.04716(14) 0.14657(11)
C4 C 0.49643(15) 0.07950(14) 0.26773(11)
C5 C 0.66624(15) 0.06711(15) 0.34738(12)
H2 H 0.71490 0.15290 0.43030
C6 C 0.76636(15) -0.07093(15) 0.30651(12)
H3 H 0.88280 -0.08250 0.36060
C7 C 0.24866(15) 0.19713(15) 0.36230(11)
C8 C 0.15673(16) 0.36161(16) 0.40643(13)
H4 H 0.05100 0.36910 0.33190
H5 H 0.10910 0.34630 0.48690
C9 C 0.35197(17) 0.55177(15) 0.32763(12)
H6 H 0.43370 0.66840 0.35330
H7 H 0.25100 0.55910 0.24960
C10 C 0.45934(15) 0.39991(15) 0.28422(11)
C11 C 0.15733(16) -0.16597(16) -0.03647(12)
H8 H 0.23040 -0.17850 -0.10520
H9 H 0.03610 -0.13530 -0.07640
H10 H 0.14310 -0.28070 -0.00570
#END
