
#######################################################################
#
#                 Cambridge Crystallographic Data Centre
#                                CCDC
#
#######################################################################
#
# If this CIF has been generated from an entry in the Cambridge
# Structural Database, then it will include bibliographic, chemical,
# crystal, experimental, refinement or atomic coordinate data resulting
# from the CCDC's data processing and validation procedures.
#
#######################################################################

data_CSD_CIF_XEZFIU
_audit_creation_date 2018-04-09
_audit_creation_method CSD-ConQuest-V1
_database_code_CSD XEZFIU
_database_code_depnum_ccdc_archive 'CCDC 1827704'
_chemical_formula_sum 'C18 H16 N2 O2'
_chemical_formula_moiety
;
C18 H16 N2 O2
;
_journal_coden_Cambridge 1127
_journal_volume 28
_journal_year 2018
_journal_page_first 1292
_journal_name_full 'Bioorg.Med.Chem.Lett. '
loop_
_publ_author_name
"S.Alnabulsi"
"B.Hussein"
"E.Santina"
"I.Alsalahat"
"M.Kadirvel"
"R.N.Magwaza"
"R.A.Bryce"
"C.H.Schwalbe"
"A.G.Baldwin"
"I.Russo"
"I.J.Stratford"
"S.Freeman"
_chemical_name_systematic
;
N'-hydroxy-4-(5-methyl-4-phenylfuran-2-yl)benzene-1-carboximidamide
;
_cell_volume   1439.870
_exptl_crystal_colour 'colorless'
_exptl_crystal_density_diffrn 1.349
_exptl_crystal_description 'Plate'
_exptl_crystal_preparation 'Ethanol'
_diffrn_ambient_temperature 100
_refine_special_details
;
C12,C13,C15,C16 and C12P,C13P,C15P,C16P disordered over two sites with 
occupancies 0.508:0.492.
;
#These two values have been output from a single CSD field.
_refine_ls_R_factor_gt 0.0598
_refine_ls_wR_factor_gt 0.0598
_symmetry_cell_setting monoclinic
_symmetry_space_group_name_H-M 'P 21/c'
_symmetry_Int_Tables_number 14
loop_
_symmetry_equiv_pos_site_id
_symmetry_equiv_pos_as_xyz
1 x,y,z
2 -x,1/2+y,1/2-z
3 -x,-y,-z
4 x,-1/2-y,-1/2+z
_cell_length_a 27.215(2)
_cell_length_b 4.9802(4)
_cell_length_c 10.6236(8)
_cell_angle_alpha 90
_cell_angle_beta 90.229(6)
_cell_angle_gamma 90
_cell_formula_units_Z 4
loop_
_atom_type_symbol
_atom_type_radius_bond
C 0.68
H 0.23
N 0.68
O 0.68
loop_
_atom_site_label
_atom_site_type_symbol
_atom_site_fract_x
_atom_site_fract_y
_atom_site_fract_z
O1 O 0.49892(6) 0.8102(4) -0.12435(15)
H1 H 0.5187(11) 0.939(6) -0.089(3)
O2 O 0.26201(6) 0.6151(4) 0.36507(15)
N1 N 0.45936(7) 0.7989(4) -0.03544(18)
N2 N 0.44571(8) 0.3905(5) -0.13845(19)
H2 H 0.4362(10) 0.229(6) -0.127(2)
H3 H 0.4764(10) 0.411(5) -0.179(2)
C1 C 0.39362(9) 0.5284(5) 0.0375(2)
C2 C 0.35786(10) 0.3384(5) 0.0083(2)
H4 H 0.36130 0.23170 -0.06520
C3 C 0.31758(10) 0.3029(6) 0.0848(2)
H5 H 0.29370 0.17130 0.06370
C4 C 0.31157(9) 0.4587(5) 0.1930(2)
C5 C 0.34786(9) 0.6447(5) 0.2241(2)
H6 H 0.34470 0.74990 0.29820
C6 C 0.38862(9) 0.6777(6) 0.1474(2)
H7 H 0.41330 0.80340 0.17030
C7 C 0.26647(9) 0.4384(5) 0.2659(2)
C8 C 0.22387(9) 0.3031(5) 0.2507(2)
H8 H 0.21750 0.16680 0.19020
C9 C 0.19009(9) 0.4022(5) 0.3422(2)
C10 C 0.21486(9) 0.5897(5) 0.4101(2)
C11 C 0.13784(9) 0.3265(6) 0.3532(2)
C12 C 0.12050(19) 0.0668(11) 0.3210(5)
H9 H 0.14320 -0.06310 0.29130
C13 C 0.07144(18) -0.0031(12) 0.3313(5)
H10 H 0.06070 -0.18020 0.31260
C14 C 0.03808(10) 0.1932(6) 0.3701(3)
H11 H 0.00470 0.14520 0.38270
C15 C 0.05208(19) 0.4469(12) 0.3898(5)
H12 H 0.02820 0.57860 0.41040
C16 C 0.10111(18) 0.5202(12) 0.3805(4)
H13 H 0.11020 0.70250 0.39250
C17 C 0.43583(9) 0.5756(5) -0.0479(2)
C18 C 0.20325(10) 0.7672(6) 0.5173(2)
H14 H 0.16920 0.73670 0.54370
H15 H 0.20730 0.95500 0.49170
H16 H 0.22560 0.72770 0.58750
C19? C 0.1123(2) 0.2626(11) 0.2523(5)
H17? H 0.12810 0.25920 0.17280
C20? C 0.0628(2) 0.2003(12) 0.2591(5)
H18? H 0.04550 0.16100 0.18350
C21? C 0.0655(2) 0.2526(12) 0.4809(5)
H19? H 0.04950 0.24930 0.56030
C22? C 0.11481(19) 0.3150(11) 0.4749(5)
H20? H 0.13320 0.34960 0.54940
#END
