
#######################################################################
#
#                 Cambridge Crystallographic Data Centre
#                                CCDC
#
#######################################################################
#
# If this CIF has been generated from an entry in the Cambridge
# Structural Database, then it will include bibliographic, chemical,
# crystal, experimental, refinement or atomic coordinate data resulting
# from the CCDC's data processing and validation procedures.
#
#######################################################################

data_CSD_CIF_XEZTAY
_audit_creation_date 2007-08-02
_audit_creation_method CSD-ConQuest-V1
_database_code_CSD XEZTAY
_database_code_depnum_ccdc_archive 'CCDC 630817'
_chemical_formula_sum 'C13 H13 N1 O4'
_chemical_formula_moiety
;
C13 H13 N1 O4
;
_journal_coden_Cambridge 1088
_journal_volume 2007
_journal_year 2007
_journal_page_first 717
_journal_name_full 'Synlett '
loop_
_publ_author_name
"M.Kummeter"
"C.M.Ruff"
"T.J.J.Muller"
_chemical_name_systematic
;
(4-((4-nitrophenyl)methylidene)tetrahydrofuran-3-yl)acetaldehyde
;
_chemical_melting_point 334.15
_cell_volume   1218.162
_exptl_crystal_colour 'colorless'
_exptl_crystal_density_diffrn 1.348
_exptl_special_details
;
Melting point range 334.15-339.15K

;
_exptl_crystal_description 'polyhedron'
_diffrn_ambient_temperature 200
_refine_special_details
;
Four C atoms and an O atom are disordered over two sites with occupancies of 
0.658:0.342.
;
#These two values have been output from a single CSD field.
_refine_ls_R_factor_gt 0.0339
_refine_ls_wR_factor_gt 0.0339
_symmetry_cell_setting monoclinic
_symmetry_space_group_name_H-M 'P 21/c'
_symmetry_Int_Tables_number 14
loop_
_symmetry_equiv_pos_site_id
_symmetry_equiv_pos_as_xyz
1 x,y,z
2 -x,1/2+y,1/2-z
3 -x,-y,-z
4 x,-1/2-y,-1/2+z
_cell_length_a 7.7810(15)
_cell_length_b 10.0731(19)
_cell_length_c 15.542(3)
_cell_angle_alpha 90
_cell_angle_beta 90.078(5)
_cell_angle_gamma 90
_cell_formula_units_Z 4
loop_
_atom_type_symbol
_atom_type_radius_bond
C 0.68
H 0.23
N 0.68
O 0.68
loop_
_atom_site_label
_atom_site_type_symbol
_atom_site_fract_x
_atom_site_fract_y
_atom_site_fract_z
C1 C 0.7893(3) 0.3121(2) -0.04694(14)
C2 C 0.8894(7) 0.4036(4) -0.1072(3)
H1 H 1.00490 0.42490 -0.08240
C3 C 0.772(2) 0.5250(7) -0.1040(6)
H2 H 0.83190 0.60530 -0.12550
H3 H 0.66610 0.51070 -0.13780
C4 C 0.9073(8) 0.3423(4) -0.1957(3)
H4 H 0.97270 0.25840 -0.19040
H5 H 0.79130 0.31990 -0.21760
C5 C 0.9942(12) 0.4280(8) -0.2597(6)
H6 H 1.01400 0.39030 -0.31490
O1 O 1.0415(10) 0.5384(7) -0.2493(6)
O2 O 0.7369(2) 0.53475(14) -0.01460(11)
C6 C 0.7051(3) 0.40368(19) 0.01549(14)
H7 H 0.58000 0.38620 0.01800
H8 H 0.75420 0.39150 0.07380
C7 C 0.8000(3) 0.1797(2) -0.04591(14)
H9 H 0.85880 0.14180 -0.09350
C8 C 0.7353(2) 0.08395(18) 0.01699(12)
C9 C 0.6413(3) 0.1169(2) 0.09063(12)
H10 H 0.61550 0.20740 0.10200
C10 C 0.5857(3) 0.02112(19) 0.14663(12)
H11 H 0.52170 0.04470 0.19630
C11 C 0.6238(3) -0.10923(19) 0.12997(12)
C12 C 0.7138(3) -0.14746(19) 0.05786(12)
H12 H 0.73730 -0.23840 0.04680
C13 C 0.7682(3) -0.05039(18) 0.00271(12)
H13 H 0.83080 -0.07540 -0.04720
N1 N 0.5673(3) -0.21105(19) 0.19096(12)
O3 O 0.6034(3) -0.32657(17) 0.17611(14)
O4 O 0.4831(3) -0.17719(16) 0.25292(11)
C14? C 0.8145(12) 0.3926(9) -0.1348(6)
H14? H 0.72600 0.37130 -0.17950
C15? C 0.800(5) 0.5329(15) -0.0993(11)
H15? H 0.91440 0.57560 -0.10060
H16? H 0.72200 0.58520 -0.13670
C16? C 0.9981(14) 0.370(1) -0.1652(7)
H17? H 1.07610 0.38860 -0.11630
H18? H 1.01070 0.27480 -0.17960
C17? C 1.058(2) 0.4482(17) -0.2396(11)
H19? H 1.16880 0.42890 -0.26160
O5? O 0.9772(18) 0.5338(18) -0.2745(11)
#END
