
#######################################################################
#
#                 Cambridge Crystallographic Data Centre
#                                CCDC
#
#######################################################################
#
# If this CIF has been generated from an entry in the Cambridge
# Structural Database, then it will include bibliographic, chemical,
# crystal, experimental, refinement or atomic coordinate data resulting
# from the CCDC's data processing and validation procedures.
#
#######################################################################

data_CSD_CIF_XEZWUU
_audit_creation_date 2001-09-05
_audit_creation_method CSD-ConQuest-V1
_database_code_CSD XEZWUU
_database_code_depnum_ccdc_archive 'CCDC 151350'
_chemical_formula_sum 'C20 H28 N4 O2'
_chemical_formula_moiety
;
C20 H28 N4 O2
;
_journal_coden_Cambridge 1220
_journal_volume 7
_journal_year 2001
_journal_page_first 2466
_journal_name_full 'Chem.-Eur.J. '
loop_
_publ_author_name
"L.Catala"
"J.Le Moigne"
"N.Kyritsakas"
"P.Rey"
"J.J.Novoa"
"P.Turek"
_chemical_name_systematic
;
1,3-bis(1-Oxy-4,4,5,5-tetramethylimidazolin-2-yl)benzene
;
_chemical_melting_point 418.15
_cell_volume   2054.533
_exptl_crystal_colour 'red'
_exptl_crystal_density_diffrn 1.15
_exptl_crystal_description 'prism'
_exptl_crystal_preparation 'dichloromethane/hexane'
_diffrn_ambient_temperature ?
_diffrn_special_details
;
The study was carried out at room temperature,in the range 283-303K

;
_refine_special_details
;
One imidazoline ring, N3-4, O2, C15-16 and C19-20 is equally disordered over 
two sites.
;
#These two values have been output from a single CSD field.
_refine_ls_R_factor_gt 0.136
_refine_ls_wR_factor_gt 0.136
_symmetry_cell_setting monoclinic
_symmetry_space_group_name_H-M 'P 21/n'
_symmetry_Int_Tables_number 14
loop_
_symmetry_equiv_pos_site_id
_symmetry_equiv_pos_as_xyz
1 x,y,z
2 1/2-x,1/2+y,1/2-z
3 -x,-y,-z
4 -1/2+x,-1/2-y,-1/2+z
_cell_length_a 7.1575(4)
_cell_length_b 25.553(2)
_cell_length_c 11.5030(7)
_cell_angle_alpha 90
_cell_angle_beta 102.430(5)
_cell_angle_gamma 90
_cell_formula_units_Z 4
loop_
_atom_type_symbol
_atom_type_radius_bond
C 0.68
H 0.23
N 0.68
O 0.68
loop_
_atom_site_label
_atom_site_type_symbol
_atom_site_fract_x
_atom_site_fract_y
_atom_site_fract_z
C1 C 0.820(1) 0.0688(3) 0.3804(7)
N1 N 1.0018(9) 0.0559(3) 0.3728(6)
C2 C 1.010(1) 0.0497(3) 0.2456(7)
C3 C 0.796(1) 0.0410(4) 0.1948(8)
N2 N 0.698(1) 0.0630(3) 0.2836(6)
O1 O 1.1443(9) 0.0503(3) 0.4598(6)
C4 C 1.090(2) 0.1001(5) 0.211(1)
C5 C 1.144(1) 0.0063(4) 0.2311(9)
C6 C 0.719(2) 0.0680(6) 0.075(1)
C7 C 0.744(2) -0.0175(5) 0.185(1)
C8 C 0.772(1) 0.0871(3) 0.4921(7)
C9 C 0.592(1) 0.0763(3) 0.5131(8)
C10 C 0.540(1) 0.0954(4) 0.6110(8)
C11 C 0.659(1) 0.1268(3) 0.6900(7)
C12 C 0.840(1) 0.1393(3) 0.6709(7)
C13 C 0.896(1) 0.1193(3) 0.5727(7)
C14 C 0.962(1) 0.1750(3) 0.7547(7)
N3 N 1.129(2) 0.1918(6) 0.751(1)
O2 O 1.125(2) 0.2166(7) 0.623(1)
C15 C 1.231(3) 0.2222(8) 0.854(2)
C16 C 1.037(2) 0.2372(5) 0.905(1)
N4 N 0.900(2) 0.1963(6) 0.848(1)
C17 C 1.350(2) 0.2666(7) 0.821(1)
C18 C 1.344(3) 0.1788(8) 0.950(2)
C19 C 1.040(3) 0.2379(9) 1.030(2)
C20 C 0.923(3) 0.285(1) 0.882(2)
H1 H 1.09900 0.09850 0.12970
H2 H 1.00880 0.12820 0.22160
H3 H 1.21410 0.10560 0.25930
H4 H 1.14730 0.00290 0.14930
H5 H 1.26830 0.01410 0.27590
H6 H 1.10020 -0.02550 0.25880
H7 H 0.78120 0.05410 0.01670
H8 H 0.58510 0.06200 0.05100
H9 H 0.74230 0.10450 0.08280
H10 H 0.80400 -0.03380 0.12880
H11 H 0.78620 -0.03370 0.26090
H12 H 0.60900 -0.02120 0.16080
H13 H 0.50540 0.05530 0.45840
H14 H 0.41720 0.08690 0.62490
H15 H 0.61870 0.14010 0.75780
H16 H 1.01960 0.12720 0.55950
N5? N 1.085(2) 0.2099(5) 0.720(1)
O3? O 1.231(4) 0.180(1) 0.675(3)
C21? C 1.174(2) 0.2421(6) 0.826(1)
C22? C 1.136(3) 0.2123(9) 0.927(2)
N6? N 0.978(2) 0.1735(6) 0.873(1)
C23? C 1.012(4) 0.293(1) 0.819(2)
C24? C 1.125(3) 0.2275(7) 1.046(2)
#END
