
#######################################################################
#
#                 Cambridge Crystallographic Data Centre
#                                CCDC
#
#######################################################################
#
# If this CIF has been generated from an entry in the Cambridge
# Structural Database, then it will include bibliographic, chemical,
# crystal, experimental, refinement or atomic coordinate data resulting
# from the CCDC's data processing and validation procedures.
#
#######################################################################

data_CSD_CIF_XEZXEF
_audit_creation_date 2001-09-06
_audit_creation_method CSD-ConQuest-V1
_database_code_CSD XEZXEF
_database_code_depnum_ccdc_archive 'CCDC 151352'
_chemical_formula_sum 'C22 H28 N4 O4'
_chemical_formula_moiety
;
C22 H28 N4 O4
;
_journal_coden_Cambridge 1220
_journal_volume 7
_journal_year 2001
_journal_page_first 2466
_journal_name_full 'Chem.-Eur.J. '
loop_
_publ_author_name
"L.Catala"
"J.Le Moigne"
"N.Kyritsakas"
"P.Rey"
"J.J.Novoa"
"P.Turek"
_chemical_name_systematic
;
1,3-bis(1-Oxyl-3-oxo-4,4,5,5-tetramethylimidazolin-2-yl)-5-ethynylbenzene
;
_cell_volume   2247.418
_exptl_crystal_colour 'green'
_exptl_crystal_density_diffrn 1.22
_exptl_crystal_description 'prism'
_exptl_crystal_preparation 'dichloromethane/hexane'
_diffrn_ambient_temperature ?
_diffrn_special_details
;
The study was carried out at room temperature,in the range 283-303K

;
#These two values have been output from a single CSD field.
_refine_ls_R_factor_gt 0.061
_refine_ls_wR_factor_gt 0.061
_symmetry_cell_setting monoclinic
_symmetry_space_group_name_H-M 'P 21/n'
_symmetry_Int_Tables_number 14
loop_
_symmetry_equiv_pos_site_id
_symmetry_equiv_pos_as_xyz
1 x,y,z
2 1/2+x,1/2-y,1/2+z
3 -x,-y,-z
4 -1/2-x,-1/2+y,-1/2-z
_cell_length_a 12.6111(4)
_cell_length_b 11.1302(9)
_cell_length_c 16.1534(8)
_cell_angle_alpha 90
_cell_angle_beta 97.604(4)
_cell_angle_gamma 90
_cell_formula_units_Z 4
loop_
_atom_type_symbol
_atom_type_radius_bond
C 0.68
H 0.23
N 0.68
O 0.68
loop_
_atom_site_label
_atom_site_type_symbol
_atom_site_fract_x
_atom_site_fract_y
_atom_site_fract_z
C1 C 0.5320(3) 0.2379(3) 0.2297(2)
N1 N 0.5768(2) 0.3474(3) 0.2354(2)
O1 O 0.5591(2) 0.4296(2) 0.2869(2)
C2 C 0.6620(3) 0.3601(4) 0.1789(3)
C3 C 0.6420(3) 0.2506(4) 0.1230(3)
N2 N 0.5752(2) 0.1748(3) 0.1715(2)
O2 O 0.5547(2) 0.0669(2) 0.1511(2)
C4 C 0.6683(7) 0.4771(5) 0.1459(5)
C5 C 0.7716(4) 0.3336(8) 0.2401(4)
C6 C 0.7280(4) 0.1849(5) 0.0922(3)
C7 C 0.5627(5) 0.2855(7) 0.0419(3)
C8 C 0.4480(2) 0.1959(3) 0.2773(2)
C9 C 0.3648(3) 0.2742(3) 0.2885(2)
C10 C 0.2822(2) 0.2361(3) 0.3308(2)
C11 C 0.2838(2) 0.1203(3) 0.3633(2)
C12 C 0.3675(2) 0.0425(3) 0.3536(2)
C13 C 0.4501(2) 0.0811(3) 0.3092(2)
C14 C 0.1945(3) 0.3146(3) 0.3407(2)
C15 C 0.1215(3) 0.3786(3) 0.3476(3)
C16 C 0.3695(2) -0.0783(3) 0.3898(2)
N3 N 0.2829(2) -0.1402(2) 0.4072(2)
O3 O 0.1853(2) -0.1059(2) 0.3942(2)
C17 C 0.3145(3) -0.2520(3) 0.4561(2)
C18 C 0.4287(2) -0.2717(3) 0.4341(2)
N4 N 0.4566(2) -0.1457(2) 0.4116(2)
O4 O 0.5540(2) -0.1137(2) 0.4098(2)
C19 C 0.3103(3) -0.2195(4) 0.5470(2)
C20 C 0.2355(3) -0.3529(3) 0.4294(3)
C21 C 0.5085(3) -0.3173(3) 0.5054(2)
C22 C 0.4337(3) -0.3465(3) 0.3554(2)
H1 H 0.72320 0.47960 0.11090
H2 H 0.60180 0.49740 0.11420
H3 H 0.68410 0.53280 0.19030
H4 H 0.83060 0.33970 0.20950
H5 H 0.77940 0.39060 0.28430
H6 H 0.76910 0.25490 0.26260
H7 H 0.76770 0.23790 0.06190
H8 H 0.77380 0.15200 0.13800
H9 H 0.69890 0.12190 0.05650
H10 H 0.59910 0.33470 0.00670
H11 H 0.53830 0.21450 0.01270
H12 H 0.50330 0.32810 0.05770
H13 H 0.36470 0.35370 0.26710
H14 H 0.22720 0.09410 0.39230
H15 H 0.50700 0.02820 0.30130
H16 H 0.06280 0.43010 0.35320
H17 H 0.32980 -0.28750 0.58120
H18 H 0.35870 -0.15560 0.56270
H19 H 0.23980 -0.19510 0.55380
H20 H 0.16770 -0.33340 0.44530
H21 H 0.22890 -0.36260 0.37050
H22 H 0.26070 -0.42570 0.45580
H23 H 0.49020 -0.39700 0.51920
H24 H 0.57820 -0.31670 0.48920
H25 H 0.50710 -0.26690 0.55270
H26 H 0.41660 -0.42770 0.36600
H27 H 0.38380 -0.31590 0.31130
H28 H 0.50380 -0.34240 0.34010
#END
