
#######################################################################
#
#                 Cambridge Crystallographic Data Centre
#                                CCDC
#
#######################################################################
#
# If this CIF has been generated from an entry in the Cambridge
# Structural Database, then it will include bibliographic, chemical,
# crystal, experimental, refinement or atomic coordinate data resulting
# from the CCDC's data processing and validation procedures.
#
#######################################################################

data_CSD_CIF_XIBTOU
_audit_creation_date 2018-04-10
_audit_creation_method CSD-ConQuest-V1
_database_code_CSD XIBTOU
_database_code_depnum_ccdc_archive 'CCDC 1586048'
_chemical_formula_sum 'C2 H4 N4 O5'
_chemical_formula_moiety
;
C2 H4 N4 O5
;
_journal_coden_Cambridge 1135
_journal_volume 28
_journal_year 2018
_journal_page_first 135
_journal_name_full 'Mendeleev Commun. '
loop_
_publ_author_name
"A.E.Frumkin"
"N.V.Yudin"
"K.Yu.Suponitsky"
"A.B.Sheremetev"
_chemical_name_systematic
;
N^1^-hydroxy-2,2-dinitroethene-1,1-diamine
;
_cell_volume   1113.041
_exptl_crystal_colour 'pale yellow'
_exptl_crystal_density_diffrn 1.959
_exptl_crystal_description 'plate'
_diffrn_ambient_temperature 100
#These two values have been output from a single CSD field.
_refine_ls_R_factor_gt 0.0441
_refine_ls_wR_factor_gt 0.0441
_symmetry_cell_setting orthorhombic
_symmetry_space_group_name_H-M 'P c a 21'
_symmetry_Int_Tables_number 29
loop_
_symmetry_equiv_pos_site_id
_symmetry_equiv_pos_as_xyz
1 x,y,z
2 -x,-y,1/2+z
3 1/2+x,-y,z
4 1/2-x,y,1/2+z
_cell_length_a 13.330(3)
_cell_length_b 4.8713(10)
_cell_length_c 17.141(4)
_cell_angle_alpha 90
_cell_angle_beta 90
_cell_angle_gamma 90
_cell_formula_units_Z 8
loop_
_atom_type_symbol
_atom_type_radius_bond
C 0.68
H 0.23
N 0.68
O 0.68
loop_
_atom_site_label
_atom_site_type_symbol
_atom_site_fract_x
_atom_site_fract_y
_atom_site_fract_z
O1 O 0.6692(3) 0.4682(8) 0.6320(2)
O2 O 0.5422(3) 0.7348(7) 0.6239(2)
O3 O 0.5645(3) -0.0090(7) 0.46501(19)
O4 O 0.6959(2) 0.1621(7) 0.5187(2)
O5 O 0.2958(2) 0.2612(7) 0.4568(2)
N1 N 0.5880(3) 0.5280(8) 0.6028(2)
N2 N 0.6031(3) 0.1624(8) 0.5094(2)
N3 N 0.3826(3) 0.5774(9) 0.5557(3)
N4 N 0.3936(3) 0.1990(8) 0.4803(2)
C1 C 0.5431(3) 0.3548(10) 0.5462(3)
C2 C 0.4371(3) 0.3803(10) 0.5268(3)
H1 H 0.325(3) 0.578(9) 0.544(3)
H2 H 0.403(3) 0.697(10) 0.589(3)
H3 H 0.436(4) 0.091(11) 0.450(3)
H4 H 0.264(4) 0.13(1) 0.481(3)
O6 O 0.0309(2) 1.1488(6) 0.23265(19)
O7 O 0.1590(2) 1.0648(7) 0.15966(18)
O8 O 0.1216(2) 0.5094(7) 0.36445(18)
O9 O -0.0057(2) 0.6840(7) 0.30435(19)
O10 O 0.3964(2) 0.7512(8) 0.3674(2)
N5 N 0.1095(3) 1.0293(8) 0.2201(2)
N6 N 0.0879(3) 0.6790(8) 0.3166(2)
N7 N 0.3155(3) 1.0381(9) 0.2561(2)
N8 N 0.2981(3) 0.6939(9) 0.3445(2)
C3 C 0.1521(4) 0.8455(10) 0.2765(3)
C4 C 0.2581(4) 0.8582(10) 0.2914(3)
H5 H 0.376(3) 1.044(9) 0.269(2)
H6 H 0.294(3) 1.116(9) 0.212(3)
H7 H 0.264(4) 0.568(11) 0.372(3)
H8 H 0.432(4) 0.639(12) 0.348(3)
#END
