
#######################################################################
#
#                 Cambridge Crystallographic Data Centre
#                                CCDC
#
#######################################################################
#
# If this CIF has been generated from an entry in the Cambridge
# Structural Database, then it will include bibliographic, chemical,
# crystal, experimental, refinement or atomic coordinate data resulting
# from the CCDC's data processing and validation procedures.
#
#######################################################################

data_CSD_CIF_XICBOB
_audit_creation_date 2007-08-03
_audit_creation_method CSD-ConQuest-V1
_database_code_CSD XICBOB
_database_code_depnum_ccdc_archive 'CCDC 646759'
_chemical_formula_sum 'C32 H28 N4 O4'
_chemical_formula_moiety
;
C32 H28 N4 O4
;
_journal_coeditor_code "IUCr BT2323"
_journal_coden_Cambridge 1370
_journal_volume 63
_journal_year 2007
_journal_page_first o2216
_journal_name_full 'Acta Crystallogr.,Sect.E:Struct.Rep.Online '
loop_
_publ_author_name
"D.Gayathri"
"D.Velmurugan"
"K.Ravikumar"
"K.Karthikeyan"
"P.T.Perumal"
_chemical_name_systematic
;
3-(3-(4-Ethoxyphenyl)-1-phenyl-1H-pyrazol-4-yl)-4-nitro-2,5-diphenylisoxazolid
ine
;
_cell_volume   2720.836
_exptl_crystal_colour 'colorless'
_exptl_crystal_density_diffrn 1.3
_exptl_crystal_description 'block'
_exptl_crystal_preparation 'chloroform'
_diffrn_ambient_temperature 273
#These two values have been output from a single CSD field.
_refine_ls_R_factor_gt 0.0512
_refine_ls_wR_factor_gt 0.0512
_symmetry_cell_setting monoclinic
_symmetry_space_group_name_H-M 'P 21/n'
_symmetry_Int_Tables_number 14
loop_
_symmetry_equiv_pos_site_id
_symmetry_equiv_pos_as_xyz
1 x,y,z
2 1/2-x,1/2+y,1/2-z
3 -x,-y,-z
4 -1/2+x,-1/2-y,-1/2+z
_cell_length_a 13.2463(7)
_cell_length_b 10.0112(6)
_cell_length_c 20.9518(12)
_cell_angle_alpha 90
_cell_angle_beta 101.688(1)
_cell_angle_gamma 90
_cell_formula_units_Z 4
loop_
_atom_type_symbol
_atom_type_radius_bond
C 0.68
H 0.23
N 0.68
O 0.68
loop_
_atom_site_label
_atom_site_type_symbol
_atom_site_fract_x
_atom_site_fract_y
_atom_site_fract_z
C1 C 0.82347(11) 0.75031(14) 0.20783(7)
C2 C 0.88236(10) 0.64658(13) 0.18798(6)
C3 C 0.85709(11) 0.65014(14) 0.12109(7)
H1 H 0.88240 0.59380 0.09270
C4 C 0.74164(12) 0.79249(15) 0.03997(7)
C5 C 0.65294(16) 0.8657(2) 0.02967(9)
H2 H 0.62160 0.88720 0.06420
C6 C 0.61008(19) 0.9075(3) -0.03313(10)
H3 H 0.54990 0.95800 -0.04020
C7 C 0.65397(17) 0.8766(2) -0.08436(9)
H4 H 0.62420 0.90520 -0.12620
C8 C 0.74188(18) 0.8034(2) -0.07375(9)
H5 H 0.77220 0.78080 -0.10860
C9 C 0.78676(15) 0.7620(2) -0.01163(8)
H6 H 0.84780 0.71320 -0.00470
C10 C 0.82407(11) 0.79573(14) 0.27500(7)
C11 C 0.81059(12) 0.70778(16) 0.32382(7)
H7 H 0.79800 0.61800 0.31400
C12 C 0.81568(14) 0.75232(18) 0.38705(8)
H8 H 0.80650 0.69260 0.41940
C13 C 0.83452(13) 0.88576(18) 0.40191(8)
C14 C 0.84713(13) 0.97433(17) 0.35360(8)
H9 H 0.85900 1.06430 0.36340
C15 C 0.84219(12) 0.92978(15) 0.29109(7)
H10 H 0.85110 0.99010 0.25890
C16 C 0.8606(2) 0.8570(3) 0.51703(10)
H11 H 0.92280 0.80560 0.51710
H12 H 0.80390 0.79540 0.51610
C17 C 0.8742(2) 0.9429(3) 0.57652(10)
H13 H 0.92660 1.00840 0.57510
H14 H 0.89430 0.88840 0.61470
H15 H 0.81040 0.98710 0.57800
C18 C 0.95975(10) 0.56158(13) 0.23191(6)
H16 H 0.95790 0.58350 0.27720
C19 C 0.94378(11) 0.41151(14) 0.22215(7)
H17 H 0.87410 0.39270 0.19750
C20 C 1.02588(12) 0.36874(14) 0.18225(7)
H18 H 1.08100 0.31870 0.21060
C21 C 0.98569(12) 0.28848(16) 0.12157(8)
C22 C 0.96503(18) 0.1540(2) 0.12763(12)
H19 H 0.97710 0.11460 0.16870
C23 C 0.9265(2) 0.0780(3) 0.07299(16)
H20 H 0.91220 -0.01200 0.07760
C24 C 0.90946(19) 0.1342(3) 0.01230(15)
H21 H 0.88350 0.08270 -0.02430
C25 C 0.93082(19) 0.2666(3) 0.00567(11)
H22 H 0.91950 0.30510 -0.03560
C26 C 0.96929(16) 0.3439(2) 0.06020(9)
H23 H 0.98410 0.43370 0.05520
C27 C 1.10916(11) 0.70041(14) 0.21514(7)
C28 C 1.17832(13) 0.71813(18) 0.17430(8)
H24 H 1.19370 0.64750 0.14910
C29 C 1.22437(15) 0.8416(2) 0.17128(10)
H25 H 1.27050 0.85360 0.14370
C30 C 1.20277(16) 0.9463(2) 0.20851(10)
H26 H 1.23360 1.02910 0.20590
C31 C 1.13527(15) 0.92827(18) 0.24973(9)
H27 H 1.12110 0.99890 0.27540
C32 C 1.08819(13) 0.80589(16) 0.25337(8)
H28 H 1.04260 0.79440 0.28140
N1 N 0.78884(9) 0.75030(12) 0.10406(6)
N2 N 0.76689(10) 0.81367(12) 0.15705(6)
N3 N 1.06731(9) 0.57279(11) 0.22290(6)
N4 N 0.96428(11) 0.33557(13) 0.28594(7)
O1 O 0.84005(13) 0.94125(15) 0.46225(6)
O2 O 0.98620(13) 0.39394(14) 0.33721(6)
O3 O 0.95819(15) 0.21518(13) 0.28165(7)
O4 O 1.06582(8) 0.49269(10) 0.16493(5)
#END
