
#######################################################################
#
#                 Cambridge Crystallographic Data Centre
#                                CCDC
#
#######################################################################
#
# If this CIF has been generated from an entry in the Cambridge
# Structural Database, then it will include bibliographic, chemical,
# crystal, experimental, refinement or atomic coordinate data resulting
# from the CCDC's data processing and validation procedures.
#
#######################################################################

data_CSD_CIF_XICFIZ
_audit_creation_date 2007-08-03
_audit_creation_method CSD-ConQuest-V1
_database_code_CSD XICFIZ
_database_code_depnum_ccdc_archive 'CCDC 647145'
_chemical_formula_sum 'C39 H38 N4 O6'
_chemical_formula_moiety
;
C39 H38 N4 O6
;
_journal_coeditor_code "IUCr CI2318"
_journal_coden_Cambridge 1370
_journal_volume 63
_journal_year 2007
_journal_page_first o2221
_journal_name_full 'Acta Crystallogr.,Sect.E:Struct.Rep.Online '
loop_
_publ_author_name
"G.T.Sruthi"
"D.Gayathri"
"D.Velmurugan"
"K.Ravikumar"
"N.Arumugam"
_chemical_name_systematic
;
Ethyl 
2-(1H-indol-3-yl)-5-(1-(4-methoxyphenyl)-4-oxo-3-phenylazetidin-2-yl)-4-nitro-
3-(p-tolyl)pyrrolidine-2-carboxylate
;
_cell_volume   3513.672
_exptl_crystal_colour 'colorless'
_exptl_crystal_density_diffrn 1.245
_exptl_crystal_description 'block'
_exptl_crystal_preparation 'ethyl acetate'
_diffrn_ambient_temperature 293
#These two values have been output from a single CSD field.
_refine_ls_R_factor_gt 0.0526
_refine_ls_wR_factor_gt 0.0526
_symmetry_cell_setting monoclinic
_symmetry_space_group_name_H-M 'C c'
_symmetry_Int_Tables_number 9
loop_
_symmetry_equiv_pos_site_id
_symmetry_equiv_pos_as_xyz
1 x,y,z
2 x,-y,1/2+z
3 1/2+x,1/2+y,z
4 1/2+x,1/2-y,1/2+z
_cell_length_a 11.2689(8)
_cell_length_b 35.612(2)
_cell_length_c 8.8848(6)
_cell_angle_alpha 90
_cell_angle_beta 99.785(1)
_cell_angle_gamma 90
_cell_formula_units_Z 4
loop_
_atom_type_symbol
_atom_type_radius_bond
C 0.68
H 0.23
N 0.68
O 0.68
loop_
_atom_site_label
_atom_site_type_symbol
_atom_site_fract_x
_atom_site_fract_y
_atom_site_fract_z
C1 C 0.5607(2) 0.09808(7) 0.6239(3)
C2 C 0.4572(2) 0.06998(7) 0.6594(3)
H1 H 0.49630 0.04660 0.69890
C3 C 0.4086(2) 0.08909(7) 0.7907(3)
H2 H 0.32040 0.08880 0.77240
C4 C 0.4569(2) 0.13011(7) 0.7897(3)
H3 H 0.40510 0.14330 0.70640
C5 C 0.5317(2) 0.11692(8) 0.4665(3)
H4 H 0.51300 0.09770 0.38860
H5 H 0.46110 0.13270 0.46300
C6 C 0.6350(2) 0.14048(8) 0.4320(3)
C7 C 0.6778(3) 0.17310(8) 0.5011(4)
H6 H 0.64540 0.18520 0.57740
C8 C 0.7981(3) 0.16114(8) 0.3337(3)
C9 C 0.8889(3) 0.16055(11) 0.2442(4)
H7 H 0.94730 0.17920 0.25370
C10 C 0.8897(3) 0.13176(13) 0.1425(5)
H8 H 0.94900 0.13110 0.08140
C11 C 0.8035(4) 0.10338(11) 0.1284(4)
H9 H 0.80610 0.08420 0.05790
C12 C 0.7145(3) 0.10328(9) 0.2173(3)
H10 H 0.65720 0.08420 0.20690
C13 C 0.7111(2) 0.13203(7) 0.3231(3)
C14 C 0.6807(2) 0.07714(8) 0.6373(3)
C15 C 0.7958(4) 0.03507(15) 0.5185(5)
H11 H 0.85450 0.05370 0.50050
H12 H 0.82530 0.02290 0.61530
C16 C 0.7802(6) 0.00776(18) 0.3974(8)
H13 H 0.72800 -0.01190 0.42070
H14 H 0.85700 -0.00270 0.38730
H15 H 0.74520 0.01970 0.30330
C17 C 0.3610(2) 0.06007(7) 0.5243(3)
C18 C 0.3767(3) 0.02870(8) 0.4378(4)
H16 H 0.44580 0.01420 0.46320
C19 C 0.2910(4) 0.01870(11) 0.3141(5)
H17 H 0.30410 -0.00230 0.25710
C20 C 0.1863(3) 0.03908(11) 0.2727(4)
C21 C 0.1706(3) 0.07023(12) 0.3596(5)
H18 H 0.10060 0.08440 0.33500
C22 C 0.2566(3) 0.08085(10) 0.4824(4)
H19 H 0.24420 0.10220 0.53770
C23 C 0.0926(5) 0.02713(19) 0.1372(7)
H20 H 0.13040 0.02430 0.04880
H21 H 0.03090 0.04590 0.11750
H22 H 0.05760 0.00370 0.15970
C24 C 0.4591(3) 0.15366(8) 0.9319(3)
H23 H 0.51100 0.14280 1.02100
C25 C 0.3338(3) 0.16696(9) 0.9692(4)
H24 H 0.32880 0.16280 1.07700
C26 C 0.2190(3) 0.1552(1) 0.8664(4)
C27 C 0.1818(4) 0.17296(12) 0.7266(5)
H25 H 0.22730 0.19260 0.69690
C28 C 0.0773(4) 0.16154(15) 0.6312(6)
H26 H 0.05310 0.17370 0.53850
C29 C 0.0102(4) 0.13284(16) 0.6715(6)
H27 H -0.05920 0.12520 0.60640
C30 C 0.0455(4) 0.11496(16) 0.8098(6)
H28 H -0.00010 0.09530 0.83830
C31 C 0.1492(3) 0.12648(13) 0.9063(5)
H29 H 0.17180 0.11450 0.99980
C32 C 0.3792(4) 0.20635(9) 0.9437(4)
C33 C 0.5897(3) 0.21341(8) 0.8833(4)
C34 C 0.5759(5) 0.24732(13) 0.8060(7)
H30 H 0.49930 0.25680 0.77110
C35 C 0.6751(5) 0.26671(13) 0.7813(8)
H31 H 0.66530 0.28940 0.72910
C36 C 0.7915(4) 0.25308(12) 0.8329(5)
C37 C 0.8034(4) 0.21860(13) 0.9044(6)
H32 H 0.87950 0.20840 0.93570
C38 C 0.7028(4) 0.19914(10) 0.9296(5)
H33 H 0.71190 0.17600 0.97890
C39 C 1.0005(5) 0.2577(2) 0.8122(8)
H34 H 1.03560 0.25330 0.91690
H35 H 1.05220 0.27380 0.76580
H36 H 0.99110 0.23420 0.75850
N1 N 0.5742(2) 0.12637(6) 0.7444(3)
H37 H 0.63870 0.13840 0.78120
N2 N 0.7755(3) 0.18543(7) 0.4419(3)
H38 H 0.81610 0.20550 0.46940
N3 N 0.4581(3) 0.07141(6) 0.9431(3)
N4 N 0.4852(2) 0.19376(7) 0.9102(3)
O1 O 0.7643(2) 0.08165(9) 0.7392(4)
O2 O 0.68003(19) 0.05323(6) 0.5243(3)
O3 O 0.5522(3) 0.05385(7) 0.9573(4)
O4 O 0.4039(3) 0.07666(10) 1.0473(4)
O5 O 0.3384(3) 0.23761(8) 0.9479(5)
O6 O 0.8856(4) 0.27505(10) 0.8052(5)
#END
