
#######################################################################
#
#                 Cambridge Crystallographic Data Centre
#                                CCDC
#
#######################################################################
#
# If this CIF has been generated from an entry in the Cambridge
# Structural Database, then it will include bibliographic, chemical,
# crystal, experimental, refinement or atomic coordinate data resulting
# from the CCDC's data processing and validation procedures.
#
#######################################################################

data_CSD_CIF_XICGIB
_audit_creation_date 2013-05-21
_audit_creation_method CSD-ConQuest-V1
_database_code_CSD XICGIB
_database_code_depnum_ccdc_archive 'CCDC 891786'
_chemical_formula_sum 'C29 H20 N2 O7'
_chemical_formula_moiety
;
C29 H20 N2 O7
;
_journal_coden_Cambridge 1336
_journal_volume 14
_journal_year 2012
_journal_page_first 5200
_journal_name_full 'Org.Lett. '
loop_
_publ_author_name
"H.Kelgtermans"
"Liliana Dobrzanska"
"L.Van Meervelt"
"Wim Dehaen"
_chemical_name_systematic
;
1-t-Butyl-10,13-dinitro-4H-benzo[2,3][1]benzofuro[5,4-c][1]benzofuro[3,2-f]chr
omene
;
_cell_volume   2376.346
_exptl_crystal_colour 'yellow'
_exptl_crystal_density_diffrn 1.421
_exptl_crystal_description 'prism'
_diffrn_ambient_temperature 100
#These two values have been output from a single CSD field.
_refine_ls_R_factor_gt 0.053
_refine_ls_wR_factor_gt 0.053
_symmetry_cell_setting triclinic
_symmetry_space_group_name_H-M 'P -1'
_symmetry_Int_Tables_number 2
loop_
_symmetry_equiv_pos_site_id
_symmetry_equiv_pos_as_xyz
1 x,y,z
2 -x,-y,-z
_cell_length_a 10.6771(4)
_cell_length_b 13.0878(5)
_cell_length_c 18.3378(6)
_cell_angle_alpha 83.667(2)
_cell_angle_beta 73.144(2)
_cell_angle_gamma 75.898(2)
_cell_formula_units_Z 4
loop_
_atom_type_symbol
_atom_type_radius_bond
C 0.68
H 0.23
N 0.68
O 0.68
loop_
_atom_site_label
_atom_site_type_symbol
_atom_site_fract_x
_atom_site_fract_y
_atom_site_fract_z
O1 O 0.59044(15) 0.26337(13) 0.01906(9)
C1 C 0.4618(2) 0.25105(16) 0.05448(12)
C2 C 0.3706(2) 0.26663(17) 0.01060(12)
H1 H 0.39910 0.28660 -0.04190
C3 C 0.2396(2) 0.25394(16) 0.04120(12)
C4 C 0.2109(2) 0.21739(16) 0.11770(12)
O2 O 0.09114(14) 0.18832(11) 0.15909(8)
C5 C 0.1088(2) 0.15015(16) 0.22920(12)
C6 C 0.0172(2) 0.10878(16) 0.28670(13)
H2 H -0.06890 0.10830 0.28180
C7 C 0.0554(2) 0.06777(16) 0.35203(12)
H3 H -0.00490 0.03950 0.39360
C8 C 0.1840(2) 0.06859(16) 0.35575(12)
C9 C 0.2752(2) 0.11157(16) 0.29912(12)
H4 H 0.36140 0.11140 0.30400
C10 C 0.2358(2) 0.15528(15) 0.23437(12)
C11 C 0.2990(2) 0.20285(15) 0.16266(12)
C12 C 0.4247(2) 0.22930(16) 0.13254(12)
C13 C 0.5146(2) 0.24161(16) 0.17648(12)
C14 C 0.4729(2) 0.28444(16) 0.24896(12)
C15 C 0.3465(2) 0.33877(16) 0.29874(12)
C16 C 0.2130(2) 0.37090(16) 0.29572(12)
H5 H 0.18560 0.35270 0.25490
C17 C 0.1229(2) 0.43016(17) 0.35438(13)
C18 C 0.1572(2) 0.46036(17) 0.41513(13)
H6 H 0.09100 0.50190 0.45370
C19 C 0.2892(2) 0.42916(17) 0.41878(12)
H7 H 0.31610 0.44780 0.45960
C20 C 0.3796(2) 0.36974(17) 0.36031(12)
O3 O 0.51516(15) 0.33954(12) 0.35268(9)
C21 C 0.5708(2) 0.29198(16) 0.28329(12)
C22 C 0.7074(2) 0.26512(18) 0.24914(13)
H8 H 0.77130 0.26930 0.27490
C23 C 0.7458(2) 0.23161(17) 0.17498(13)
H9 H 0.83850 0.21480 0.14840
C24 C 0.6512(2) 0.22203(17) 0.13852(13)
C25 C 0.6867(2) 0.19623(19) 0.05548(13)
H10 H 0.77790 0.20690 0.02910
H11 H 0.68660 0.12140 0.05180
N1 N 0.22617(19) 0.01811(15) 0.42278(11)
O4 O 0.14428(19) -0.01353(16) 0.4759(1)
O5 O 0.3425(2) 0.0103(2) 0.42312(12)
N2 N -0.01924(19) 0.46001(16) 0.35413(11)
O6 O -0.05311(17) 0.41873(16) 0.30772(11)
O7 O -0.09697(16) 0.52261(14) 0.40015(10)
C26 C 0.1343(2) 0.27932(19) -0.00399(13)
C27 C 0.1877(3) 0.3270(2) -0.08349(15)
H12 H 0.21600 0.39140 -0.07910
H13 H 0.11680 0.34420 -0.10980
H14 H 0.26450 0.27610 -0.11270
C28 C 0.0137(2) 0.36132(19) 0.03998(15)
H15 H -0.02520 0.33110 0.09040
H16 H -0.05410 0.38080 0.01160
H17 H 0.04380 0.42420 0.04590
C29 C 0.0904(2) 0.1783(2) -0.01223(14)
H18 H 0.16810 0.12720 -0.04050
H19 H 0.02150 0.19570 -0.03990
H20 H 0.05380 0.14780 0.03850
O8 O 0.93131(16) 0.29484(13) 0.48473(9)
C30 C 0.9544(2) 0.25307(16) 0.55318(13)
C31 C 1.0874(2) 0.22119(17) 0.55725(13)
H21 H 1.15790 0.22880 0.51280
C32 C 1.1201(2) 0.17840(17) 0.62465(14)
C33 C 1.0102(2) 0.16452(16) 0.68536(13)
O9 O 1.01676(16) 0.11621(12) 0.75647(9)
C34 C 0.8884(2) 0.10944(17) 0.79511(13)
C35 C 0.8511(2) 0.06095(18) 0.86698(13)
H22 H 0.91270 0.03670 0.89690
C36 C 0.7188(2) 0.04986(17) 0.89286(13)
H23 H 0.68790 0.01710 0.94150
C37 C 0.6321(2) 0.08687(17) 0.84726(13)
C38 C 0.6671(2) 0.14010(17) 0.77751(12)
H24 H 0.60440 0.16670 0.74860
C39 C 0.7984(2) 0.15270(16) 0.75185(12)
C40 C 0.8774(2) 0.19425(16) 0.68209(12)
C41 C 0.8463(2) 0.24942(16) 0.61665(12)
C42 C 0.7129(2) 0.30515(16) 0.61187(12)
C43 C 0.6123(2) 0.35901(16) 0.67142(12)
C44 C 0.6049(2) 0.39126(16) 0.74654(12)
C45 C 0.6964(2) 0.38420(16) 0.78892(12)
H25 H 0.78710 0.34690 0.77140
C46 C 0.6496(2) 0.43347(17) 0.85708(13)
C47 C 0.5177(2) 0.48997(17) 0.88569(12)
H26 H 0.49090 0.52220 0.93340
C48 C 0.4267(2) 0.49843(17) 0.84371(12)
H27 H 0.33620 0.53610 0.86140
C49 C 0.4737(2) 0.44939(17) 0.77462(12)
O10 O 0.39943(15) 0.45716(12) 0.72352(9)
C50 C 0.4872(2) 0.40645(17) 0.65968(13)
C51 C 0.4583(2) 0.40984(17) 0.59059(13)
H28 H 0.37120 0.44020 0.58480
C52 C 0.5645(2) 0.36610(17) 0.52989(13)
H29 H 0.55100 0.37030 0.48060
C53 C 0.6897(2) 0.31647(17) 0.53972(12)
C54 C 0.8094(2) 0.27352(18) 0.47509(12)
H30 H 0.81980 0.19650 0.47350
H31 H 0.79480 0.30650 0.42610
N3 N 0.4979(2) 0.06478(16) 0.87180(11)
O11 O 0.4643(2) 0.01768(18) 0.93217(11)
O12 O 0.4251(2) 0.0927(3) 0.83047(15)
N4 N 0.7449(2) 0.42496(17) 0.90304(11)
O13 O 0.8529(2) 0.3619(2) 0.88338(12)
O14 O 0.71129(18) 0.47793(14) 0.95888(9)
C55 C 1.2649(2) 0.1470(2) 0.63093(16)
C56 C 1.3008(3) 0.0275(2) 0.6496(2)
H32 H 1.39510 0.00630 0.65020
H33 H 1.28670 -0.01080 0.61070
H34 H 1.24350 0.01110 0.69970
C57 C 1.2733(3) 0.2094(3) 0.69539(18)
H35 H 1.24430 0.28510 0.68450
H36 H 1.36620 0.19360 0.69860
H37 H 1.21490 0.18900 0.74400
C58 C 1.3644(2) 0.1725(2) 0.55705(18)
H38 H 1.34140 0.24810 0.54390
H39 H 1.36060 0.13230 0.51600
H40 H 1.45520 0.15360 0.56360
#END
