
#######################################################################
#
#                 Cambridge Crystallographic Data Centre
#                                CCDC
#
#######################################################################
#
# If this CIF has been generated from an entry in the Cambridge
# Structural Database, then it will include bibliographic, chemical,
# crystal, experimental, refinement or atomic coordinate data resulting
# from the CCDC's data processing and validation procedures.
#
#######################################################################

data_CSD_CIF_XICJOJ
_audit_creation_date 2007-08-03
_audit_creation_method CSD-ConQuest-V1
_database_code_CSD XICJOJ
_database_code_depnum_ccdc_archive 'CCDC 647163'
_chemical_formula_sum 'C18 H16 N2 O5'
_chemical_formula_moiety
;
C18 H16 N2 O5
;
_journal_coeditor_code "IUCr CI2343"
_journal_coden_Cambridge 1370
_journal_volume 63
_journal_year 2007
_journal_page_first o2300
_journal_name_full 'Acta Crystallogr.,Sect.E:Struct.Rep.Online '
loop_
_publ_author_name
"D.Gayathri"
"D.Velmurugan"
"K.Ravikumar"
"K.Geetha"
"H.S.P.Rao"
_chemical_name_systematic
;
2-(2-(Methylamino)-3-nitro-4H-chromen-4-yl)phenyl acetate
;
_cell_volume   3193.690
_exptl_crystal_colour 'pale yellow'
_exptl_crystal_density_diffrn 1.416
_exptl_crystal_description 'block'
_exptl_crystal_preparation 'hexane-dichloromethane'
_diffrn_ambient_temperature 293
#These two values have been output from a single CSD field.
_refine_ls_R_factor_gt 0.043
_refine_ls_wR_factor_gt 0.043
_symmetry_cell_setting monoclinic
_symmetry_space_group_name_H-M 'C 2/c'
_symmetry_Int_Tables_number 15
loop_
_symmetry_equiv_pos_site_id
_symmetry_equiv_pos_as_xyz
1 x,y,z
2 1/2+x,1/2+y,z
3 -x,y,1/2-z
4 1/2-x,1/2+y,1/2-z
5 -x,-y,-z
6 -1/2-x,-1/2-y,-z
7 x,-y,-1/2+z
8 -1/2+x,-1/2-y,-1/2+z
_cell_length_a 23.7412(13)
_cell_length_b 8.3846(5)
_cell_length_c 16.1457(9)
_cell_angle_alpha 90
_cell_angle_beta 96.440(1)
_cell_angle_gamma 90
_cell_formula_units_Z 8
loop_
_atom_type_symbol
_atom_type_radius_bond
C 0.68
H 0.23
N 0.68
O 0.68
loop_
_atom_site_label
_atom_site_type_symbol
_atom_site_fract_x
_atom_site_fract_y
_atom_site_fract_z
C1 C 0.42696(5) 0.12224(14) -0.08563(8)
C2 C 0.45343(6) 0.18373(16) -0.15090(9)
H1 H 0.43940 0.16300 -0.20600
C3 C 0.50108(6) 0.27631(17) -0.13213(10)
H2 H 0.51930 0.32000 -0.17490
C4 C 0.52182(6) 0.30436(18) -0.05049(11)
H3 H 0.55420 0.36610 -0.03820
C5 C 0.49463(5) 0.24095(17) 0.01329(9)
H4 H 0.50910 0.26040 0.06830
C6 C 0.44589(5) 0.14839(14) -0.00332(8)
C7 C 0.41439(5) 0.08465(14) 0.06624(7)
H5 H 0.44090 0.01830 0.10220
C8 C 0.36606(5) -0.02023(13) 0.03169(7)
C9 C 0.34973(5) -0.03870(13) -0.05361(7)
C10 C 0.29442(7) -0.1457(2) -0.17822(9)
H6 H 0.29330 -0.04430 -0.20600
H7 H 0.25830 -0.19740 -0.18970
H8 H 0.32330 -0.21100 -0.19800
C11 C 0.39731(5) 0.22432(14) 0.11856(7)
C12 C 0.42461(6) 0.24920(19) 0.19836(8)
H9 H 0.45000 0.17310 0.22200
C13 C 0.41465(7) 0.3850(2) 0.24330(9)
H10 H 0.43370 0.40020 0.29620
C14 C 0.37687(7) 0.4964(2) 0.20985(10)
H11 H 0.37070 0.58850 0.23960
C15 C 0.34780(6) 0.47297(17) 0.13213(10)
H12 H 0.32130 0.54760 0.10980
C16 C 0.35833(5) 0.33763(15) 0.08762(8)
C17 C 0.32820(6) 0.41031(17) -0.05361(9)
C18 C 0.28639(7) 0.3624(2) -0.12467(10)
H13 H 0.28080 0.44890 -0.16360
H14 H 0.25100 0.33620 -0.10440
H15 H 0.30040 0.27100 -0.15180
N1 N 0.30695(4) -0.12197(13) -0.08906(6)
H16 H 0.28470 -0.16570 -0.05720
N2 N 0.33750(4) -0.09860(12) 0.08866(6)
O1 O 0.37860(4) 0.03261(12) -0.11002(5)
O2 O 0.29324(4) -0.17915(12) 0.06513(6)
O3 O 0.35495(5) -0.08877(13) 0.16421(6)
O4 O 0.32637(4) 0.30655(10) 0.01109(6)
O5 O 0.35963(6) 0.52058(15) -0.05145(8)
#END
