
#######################################################################
#
#                 Cambridge Crystallographic Data Centre
#                                CCDC
#
#######################################################################
#
# If this CIF has been generated from an entry in the Cambridge
# Structural Database, then it will include bibliographic, chemical,
# crystal, experimental, refinement or atomic coordinate data resulting
# from the CCDC's data processing and validation procedures.
#
#######################################################################

data_CSD_CIF_XICKUQ
_audit_creation_date 2007-08-03
_audit_creation_method CSD-ConQuest-V1
_database_code_CSD XICKUQ
_database_code_depnum_ccdc_archive 'CCDC 647475'
_chemical_formula_sum 'C14 H11 N5 O6'
_chemical_formula_moiety
;
C14 H11 N5 O6
;
_journal_coeditor_code "IUCr XU2232"
_journal_coden_Cambridge 1370
_journal_volume 63
_journal_year 2007
_journal_page_first o2246
_journal_name_full 'Acta Crystallogr.,Sect.E:Struct.Rep.Online '
loop_
_publ_author_name
"Gen-Rong Qiang"
"Zheng Fan"
"Shang Shan"
"Yu-Liang Tian"
"Xu-Chun Fu"
_chemical_name_systematic
;
(E)-4-Methylbenzaldehyde 2,4,6-trinitrophenylhydrazone
;
_cell_volume    763.595
_exptl_crystal_colour 'red'
_exptl_crystal_density_diffrn 1.502
_exptl_crystal_description 'platelet'
_exptl_crystal_preparation 'ethanol'
_diffrn_ambient_temperature 294
#These two values have been output from a single CSD field.
_refine_ls_R_factor_gt 0.066
_refine_ls_wR_factor_gt 0.066
_symmetry_cell_setting triclinic
_symmetry_space_group_name_H-M 'P -1'
_symmetry_Int_Tables_number 2
loop_
_symmetry_equiv_pos_site_id
_symmetry_equiv_pos_as_xyz
1 x,y,z
2 -x,-y,-z
_cell_length_a 7.1378(12)
_cell_length_b 7.4914(14)
_cell_length_c 14.9950(19)
_cell_angle_alpha 76.191(9)
_cell_angle_beta 79.469(7)
_cell_angle_gamma 83.606(6)
_cell_formula_units_Z 2
loop_
_atom_type_symbol
_atom_type_radius_bond
C 0.68
H 0.23
N 0.68
O 0.68
loop_
_atom_site_label
_atom_site_type_symbol
_atom_site_fract_x
_atom_site_fract_y
_atom_site_fract_z
N1 N 0.6114(4) 0.1892(4) 0.52131(18)
H1 H 0.72290 0.14080 0.53110
N2 N 0.5662(4) 0.2217(4) 0.43359(17)
N3 N 0.2153(4) 0.3276(4) 0.49666(18)
N4 N 0.0855(5) 0.3848(5) 0.8165(2)
N5 N 0.7168(4) 0.1386(4) 0.70487(19)
O1 O 0.2100(4) 0.4817(4) 0.44641(18)
O2 O 0.1511(4) 0.1950(4) 0.48287(17)
O3 O -0.0608(4) 0.4750(5) 0.7974(2)
O4 O 0.1261(5) 0.3399(6) 0.8947(2)
O5 O 0.7520(4) 0.1353(5) 0.78136(19)
O6 O 0.8365(4) 0.0825(4) 0.64516(17)
C1 C 0.4843(4) 0.2317(4) 0.5921(2)
C2 C 0.2939(5) 0.3045(4) 0.5833(2)
C3 C 0.1674(5) 0.3564(5) 0.6545(2)
H2 H 0.04550 0.40670 0.64530
C4 C 0.2227(5) 0.3334(5) 0.7401(2)
C5 C 0.4005(5) 0.2599(5) 0.7556(2)
H3 H 0.43420 0.24210 0.81430
C6 C 0.5303(5) 0.2120(4) 0.6830(2)
C7 C 0.7018(5) 0.1870(5) 0.3704(2)
H4 H 0.82240 0.14780 0.38580
C8 C 0.6721(5) 0.2072(5) 0.2746(2)
C9 C 0.4952(5) 0.2638(5) 0.2473(2)
H5 H 0.39240 0.29510 0.29000
C10 C 0.4718(6) 0.2736(6) 0.1565(3)
H6 H 0.35260 0.31110 0.13900
C11 C 0.6227(7) 0.2286(6) 0.0914(2)
C12 C 0.7975(6) 0.1746(6) 0.1189(3)
H7 H 0.90050 0.14530 0.07580
C13 C 0.8235(6) 0.1630(5) 0.2090(2)
H8 H 0.94310 0.12530 0.22600
C14 C 0.5946(9) 0.2396(8) -0.0075(3)
H9 H 0.67030 0.33260 -0.04930
H10 H 0.46220 0.27050 -0.01270
H11 H 0.63340 0.12260 -0.02330
#END
