
#######################################################################
#
#                 Cambridge Crystallographic Data Centre
#                                CCDC
#
#######################################################################
#
# If this CIF has been generated from an entry in the Cambridge
# Structural Database, then it will include bibliographic, chemical,
# crystal, experimental, refinement or atomic coordinate data resulting
# from the CCDC's data processing and validation procedures.
#
#######################################################################

data_CSD_CIF_XICRIK
_audit_creation_date 2002-05-23
_audit_creation_method CSD-ConQuest-V1
_database_code_CSD XICRIK
_chemical_formula_sum 'C25 H23 N5 O2'
_chemical_formula_moiety
;
C25 H23 N5 O2
;
_journal_coden_Cambridge 35
_journal_volume 66
_journal_year 2001
_journal_page_first 1607
_journal_name_full 'J.Org.Chem. '
loop_
_publ_author_name
"C.Pardo"
"E.Sesmilo"
"E.Gutierrez-Puebla"
"A.Monge"
"J.Elguero"
"A.Fruchier"
_chemical_name_systematic
;
syn-2-methyl-11-nitro-5\a,8\a,14\a,17\a-5,17:8,14-dimethano-5,8,14,17-tetraaza
-5,6,7,8,13,14,17,18-octahydrodibenzo[e,e']benzo[1,2-a:3,4-a']dicyclooctene
;
_chemical_melting_point 503.15
_cell_volume   4092.050
_exptl_crystal_density_diffrn 1.381
_exptl_special_details
;
Melts above 503.15K

;
_exptl_crystal_preparation 'chloroform/ethanol'
_diffrn_ambient_temperature 143
#These two values have been output from a single CSD field.
_refine_ls_R_factor_gt 0.0641
_refine_ls_wR_factor_gt 0.0641
_symmetry_cell_setting monoclinic
_symmetry_space_group_name_H-M 'C 2/c'
_symmetry_Int_Tables_number 15
loop_
_symmetry_equiv_pos_site_id
_symmetry_equiv_pos_as_xyz
1 x,y,z
2 -x,y,1/2-z
3 1/2+x,1/2+y,z
4 1/2-x,1/2+y,1/2-z
5 -x,-y,-z
6 x,-y,-1/2+z
7 -1/2-x,-1/2-y,-z
8 -1/2+x,-1/2-y,-1/2+z
_cell_length_a 20.273(3)
_cell_length_b 10.6934(14)
_cell_length_c 18.936(2)
_cell_angle_alpha 90
_cell_angle_beta 94.567(2)
_cell_angle_gamma 90
_cell_formula_units_Z 8
loop_
_atom_type_symbol
_atom_type_radius_bond
C 0.68
H 0.23
N 0.68
O 0.68
loop_
_atom_site_label
_atom_site_type_symbol
_atom_site_fract_x
_atom_site_fract_y
_atom_site_fract_z
C1 C 0.7403(2) 0.2563(4) 0.1542(2)
C2 C 0.7465(2) 0.1331(4) 0.1743(2)
C3 C 0.7145(2) 0.0438(4) 0.1308(2)
C4 C 0.6785(2) 0.0769(4) 0.0684(2)
C5 C 0.6716(2) 0.2024(3) 0.0491(2)
N1 N 0.6320(1) 0.2342(3) -0.0152(1)
C6 C 0.5603(2) 0.2200(4) -0.0080(2)
C7 C 0.5348(2) 0.3200(3) 0.0396(3)
C8 C 0.4733(2) 0.3052(3) 0.0679(2)
C9 C 0.4270(2) 0.1992(4) 0.0432(2)
N2 N 0.3707(1) 0.1842(3) 0.0874(2)
C10 C 0.3885(2) 0.1180(3) 0.1520(2)
C11 C 0.3918(2) -0.0128(4) 0.1495(2)
C12 C 0.4080(2) -0.0793(4) 0.2107(2)
C13 C 0.4209(2) -0.0147(3) 0.2737(2)
C14 C 0.4172(2) 0.1139(4) 0.2771(2)
C15 C 0.4007(2) 0.1816(3) 0.2163(2)
C16 C 0.3955(2) 0.3228(4) 0.2194(2)
N3 N 0.3905(1) 0.3821(3) 0.1483(2)
C17 C 0.4540(2) 0.3903(3) 0.1185(2)
C18 C 0.4953(2) 0.4904(3) 0.1385(2)
C19 C 0.5540(2) 0.5089(4) 0.1079(2)
C20 C 0.5739(2) 0.4246(3) 0.0575(2)
N4 N 0.6345(1) 0.4486(3) 0.0247(1)
C21 C 0.6934(2) 0.4298(3) 0.0750(2)
C22 C 0.7032(2) 0.2934(3) 0.0925(2)
C23 C 0.6428(2) 0.3652(3) -0.0347(2)
C24 C 0.3446(2) 0.3080(4) 0.1020(2)
N5 N 0.4384(2) -0.0846(3) 0.3389(2)
O1 O 0.4572(1) -0.0260(3) 0.3931(1)
O2 O 0.4354(2) -0.1977(3) 0.3365(2)
C25 C 0.7843(2) 0.0984(5) 0.2434(2)
H1 H 0.7623(18) 0.3169(35) 0.1804(20)
H2 H 0.7194(15) -0.0403(34) 0.1407(16)
H3 H 0.6579(18) 0.0137(36) 0.0371(20)
H4 H 0.5349(16) 0.2167(29) -0.0567(18)
H5 H 0.5544(17) 0.1361(35) 0.0105(18)
H6 H 0.4073(17) 0.2144(32) -0.0073(20)
H7 H 0.4516(16) 0.1215(32) 0.0463(16)
H8 H 0.3804(15) -0.0618(30) 0.1054(17)
H9 H 0.4097(20) -0.1651(42) 0.2104(21)
H10 H 0.4290(15) 0.1568(30) 0.3194(17)
H11 H 0.3556(21) 0.3423(36) 0.2448(21)
H12 H 0.4309(17) 0.3595(30) 0.2523(18)
H13 H 0.4798(17) 0.5489(33) 0.1705(19)
H14 H 0.5792(16) 0.5772(31) 0.1181(16)
H15 H 0.6860(17) 0.4770(33) 0.1192(19)
H16 H 0.7307(16) 0.4681(29) 0.0557(16)
H17 H 0.6872(16) 0.3757(27) -0.0493(16)
H18 H 0.6109(17) 0.386(3) -0.0725(19)
H19 H 0.3034(19) 0.2998(32) 0.1224(19)
H20 H 0.3369(16) 0.3485(31) 0.0583(19)
H21 H 0.7700(13) 0.0008(27) 0.2552(13)
H22 H 0.8019(13) 0.1774(27) 0.2711(14)
H23 H 0.8263(28) 0.0690(54) 0.2382(30)
#END
