
#######################################################################
#
#                 Cambridge Crystallographic Data Centre
#                                CCDC
#
#######################################################################
#
# If this CIF has been generated from an entry in the Cambridge
# Structural Database, then it will include bibliographic, chemical,
# crystal, experimental, refinement or atomic coordinate data resulting
# from the CCDC's data processing and validation procedures.
#
#######################################################################

data_CSD_CIF_XIDKIF
_audit_creation_date 2007-08-02
_audit_creation_method CSD-ConQuest-V1
_database_code_CSD XIDKIF
_database_code_depnum_ccdc_archive 'CCDC 639130'
_database_code_depnum_ccdc_journal 1135/268
_chemical_formula_sum 'C17 H16 N2 O3'
_chemical_formula_moiety
;
C17 H16 N2 O3
;
_journal_coden_Cambridge 1135
_journal_volume 17
_journal_year 2007
_journal_page_first 130
_journal_name_full 'Mendeleev Commun. '
loop_
_publ_author_name
"E.V.Babaev"
"A.V.Efimov"
"A.A.Tsisevich"
"A.A.Nevskaya"
"V.B.Rybakov"
_chemical_name_systematic
;
5-Isopropoxy-2-(4-nitrophenyl)indolizine
;
_chemical_melting_point 451.15
_cell_volume   1485.859
_exptl_crystal_colour 'red'
_exptl_crystal_density_diffrn 1.325
_exptl_special_details
;
Melting point range 451.15-452.15K

;
_exptl_crystal_description 'Prism'
_exptl_crystal_preparation 'isopropanol'
_diffrn_ambient_temperature 293
#These two values have been output from a single CSD field.
_refine_ls_R_factor_gt 0.0566
_refine_ls_wR_factor_gt 0.0566
_symmetry_cell_setting monoclinic
_symmetry_space_group_name_H-M 'P 21/c'
_symmetry_Int_Tables_number 14
loop_
_symmetry_equiv_pos_site_id
_symmetry_equiv_pos_as_xyz
1 x,y,z
2 -x,1/2+y,1/2-z
3 -x,-y,-z
4 x,-1/2-y,-1/2+z
_cell_length_a 11.1579(2)
_cell_length_b 11.2795(4)
_cell_length_c 12.2594(3)
_cell_angle_alpha 90
_cell_angle_beta 105.63
_cell_angle_gamma 90
_cell_formula_units_Z 4
loop_
_atom_type_symbol
_atom_type_radius_bond
C 0.68
H 0.23
N 0.68
O 0.68
loop_
_atom_site_label
_atom_site_type_symbol
_atom_site_fract_x
_atom_site_fract_y
_atom_site_fract_z
C1 C 0.7101(2) 0.1918(2) 0.7213(2)
C2 C 0.6188(2) 0.1115(2) 0.7266(2)
C3 C 0.6129(2) 0.0260(2) 0.6411(2)
C4 C 0.6996(2) 0.0541(2) 0.5844(2)
C5 C 0.7405(2) 0.0037(2) 0.4946(2)
C6 C 0.8331(2) 0.0549(2) 0.4615(2)
C7 C 0.8925(2) 0.1594(2) 0.5147(2)
C8 C 0.8560(2) 0.2090(2) 0.6010(2)
N1 N 0.75981(15) 0.15789(15) 0.63508(14)
C9 C 0.5410(2) 0.1161(2) 0.8059(2)
C10 C 0.5603(2) 0.2025(2) 0.8904(2)
C11 C 0.4869(2) 0.2088(2) 0.9638(2)
C12 C 0.3929(2) 0.1279(2) 0.9538(2)
C13 C 0.3708(2) 0.0400(2) 0.8724(2)
C14 C 0.4458(2) 0.0349(2) 0.7995(2)
O1 O 0.89781(14) 0.30687(14) 0.66172(14)
C15 C 1.0217(2) 0.3507(2) 0.6636(2)
C16 C 1.0237(3) 0.4780(3) 0.6973(3)
C17 C 1.1180(3) 0.2775(4) 0.7439(4)
N2 N 0.3149(2) 0.1342(2) 1.0318(2)
O2 O 0.2318(2) 0.0620(2) 1.0233(2)
O3 O 0.3390(3) 0.2105(2) 1.1057(2)
H1 H 0.7375(20) 0.2639(21) 0.7647(19)
H2 H 0.5581(21) -0.0388(21) 0.6248(19)
H3 H 0.6989(22) -0.0673(23) 0.4613(20)
H4 H 0.8627(21) 0.0205(21) 0.4036(21)
H5 H 0.9606(22) 0.1943(21) 0.489(2)
H6 H 0.6236(22) 0.2569(22) 0.8969(20)
H7 H 0.5000(22) 0.2701(22) 1.0218(21)
H8 H 0.3030(24) -0.0136(21) 0.8692(21)
H9 H 0.4342(21) -0.0261(21) 0.7469(20)
H10 H 1.0296(22) 0.3420(21) 0.5874(21)
H11 H 1.1019(25) 0.5098(21) 0.6933(21)
H12 H 1.0113(31) 0.4878(31) 0.7818(33)
H13 H 0.9577(30) 0.5191(26) 0.6449(26)
H14 H 1.2008(31) 0.3060(26) 0.7477(26)
H15 H 1.1004(26) 0.2873(26) 0.8175(27)
H16 H 1.1180(35) 0.1934(38) 0.7241(34)
#END
