
#######################################################################
#
#                 Cambridge Crystallographic Data Centre
#                                CCDC
#
#######################################################################
#
# If this CIF has been generated from an entry in the Cambridge
# Structural Database, then it will include bibliographic, chemical,
# crystal, experimental, refinement or atomic coordinate data resulting
# from the CCDC's data processing and validation procedures.
#
#######################################################################

data_CSD_CIF_XIDPEF
_audit_creation_date 2002-05-23
_audit_creation_method CSD-ConQuest-V1
_database_code_CSD XIDPEF
_database_code_depnum_ccdc_archive 'CCDC 102151'
_chemical_formula_sum 'C10 H10 N2 O3'
_chemical_formula_moiety
;
C10 H10 N2 O3
;
_journal_coden_Cambridge 1094
_journal_volume 9
_journal_year 1998
_journal_page_first 365
_journal_name_full 'Struct.Chem. '
loop_
_publ_author_name
"M.M.T.Moreno"
"R.H.A.Santos"
"M.T.P.Gambardella"
"A.J.Camargo"
"A.B.F.da Silva"
"M.Trsic"
_chemical_name_systematic
;
1-Acetyl-5-nitro-indoline
;
_cell_volume    982.957
_exptl_crystal_colour 'colorless'
_exptl_crystal_density_diffrn 1.39
_exptl_special_details
;
Coordinates of C10 were incorrect and have been calculated

;
_diffrn_ambient_temperature 295
#These two values have been output from a single CSD field.
_refine_ls_R_factor_gt 0.0624
_refine_ls_wR_factor_gt 0.0624
_symmetry_cell_setting monoclinic
_symmetry_space_group_name_H-M 'P 21/c'
_symmetry_Int_Tables_number 14
loop_
_symmetry_equiv_pos_site_id
_symmetry_equiv_pos_as_xyz
1 x,y,z
2 -x,1/2+y,1/2-z
3 -x,-y,-z
4 x,-1/2-y,-1/2+z
_cell_length_a 11.287(2)
_cell_length_b 12.017(2)
_cell_length_c 7.425(3)
_cell_angle_alpha 90
_cell_angle_beta 102.57(2)
_cell_angle_gamma 90
_cell_formula_units_Z 4
loop_
_atom_type_symbol
_atom_type_radius_bond
C 0.68
H 0.23
N 0.68
O 0.68
loop_
_atom_site_label
_atom_site_type_symbol
_atom_site_fract_x
_atom_site_fract_y
_atom_site_fract_z
O1 O 0.470(1) 0.859(1) 0.298(2)
O2 O -0.138(1) 0.709(1) -0.276(2)
O3 O -0.114(1) 0.887(1) -0.227(2)
N1 N 0.3826(9) 0.6940(9) 0.214(1)
N2 N -0.080(2) 0.789(2) -0.205(2)
C1 C 0.477(1) 0.759(2) 0.295(2)
C2 C 0.386(1) 0.571(1) 0.203(2)
C3 C 0.263(1) 0.535(1) 0.096(2)
C4 C 0.077(1) 0.659(1) -0.068(2)
C5 C 0.043(1) 0.766(2) -0.092(2)
C6 C 0.114(1) 0.858(1) -0.022(2)
C7 C 0.229(1) 0.842(1) 0.076(2)
C8 C 0.269(1) 0.730(1) 0.111(2)
C9 C 0.196(1) 0.642(1) 0.040(2)
C10 C 0.59600 0.70500 0.38500
H1 H 0.45700 0.54600 0.13400
H2 H 0.40400 0.53700 0.34000
H3 H 0.21700 0.48600 0.18100
H4 H 0.27200 0.48800 -0.02500
H5 H 0.08300 0.56900 -0.06800
H6 H 0.06000 0.92900 -0.06600
H7 H 0.30300 0.89500 0.14000
H8 H 0.58200 0.60800 0.37000
H9 H 0.61600 0.71900 0.52800
H10 H 0.66000 0.72600 0.31500
#END
