
#######################################################################
#
#                 Cambridge Crystallographic Data Centre
#                                CCDC
#
#######################################################################
#
# If this CIF has been generated from an entry in the Cambridge
# Structural Database, then it will include bibliographic, chemical,
# crystal, experimental, refinement or atomic coordinate data resulting
# from the CCDC's data processing and validation procedures.
#
#######################################################################

data_CSD_CIF_XIDXEQ
_audit_creation_date 2018-04-11
_audit_creation_method CSD-ConQuest-V1
_database_code_CSD XIDXEQ
_database_code_depnum_ccdc_archive 'CCDC 1826375'
_chemical_formula_sum 'C5 H5 N5 O2'
_chemical_formula_moiety
;
C5 H5 N5 O2
;
_journal_coden_Cambridge 440
_journal_volume 42
_journal_year 2018
_journal_page_first 7049
_journal_name_full 'New J.Chem. '
loop_
_publ_author_name
"N.A.Beliaev"
"M.Z.Shafikov"
"I.V.Efimov"
"T.V.Beryozkina"
"G.Lubec"
"Wim Dehaen"
"V.A.Bakulev"
_chemical_name_systematic
;
4-(diazomethyl)-1-methyl-5-nitro-1H-imidazole
;
_cell_volume    711.412
_exptl_crystal_colour 'orange'
_exptl_crystal_density_diffrn 1.561
_exptl_crystal_description 'prism'
_diffrn_ambient_temperature 295
#These two values have been output from a single CSD field.
_refine_ls_R_factor_gt 0.0439
_refine_ls_wR_factor_gt 0.0439
_symmetry_cell_setting triclinic
_symmetry_space_group_name_H-M 'P -1'
_symmetry_Int_Tables_number 2
loop_
_symmetry_equiv_pos_site_id
_symmetry_equiv_pos_as_xyz
1 x,y,z
2 -x,-y,-z
_cell_length_a 7.0876(8)
_cell_length_b 9.8869(13)
_cell_length_c 11.4194(15)
_cell_angle_alpha 89.761(16)
_cell_angle_beta 73.244(11)
_cell_angle_gamma 69.093(12)
_cell_formula_units_Z 4
loop_
_atom_type_symbol
_atom_type_radius_bond
C 0.68
H 0.23
N 0.68
O 0.68
loop_
_atom_site_label
_atom_site_type_symbol
_atom_site_fract_x
_atom_site_fract_y
_atom_site_fract_z
N1 N 0.21302(15) 0.68666(10) 0.54258(9)
C1 C 0.1913(2) 0.83498(14) 0.57494(13)
H1 H 0.20400 0.84340 0.65580
H2 H 0.05480 0.90160 0.57380
H3 H 0.30060 0.85780 0.51650
O1 O 0.1808(2) 0.82058(11) 0.3322(1)
C2 C 0.2372(2) 0.58144(15) 0.61592(13)
O2 O 0.22452(19) 0.61880(11) 0.23753(9)
N2 N 0.20937(19) 0.69091(13) 0.32969(11)
N3 N 0.26360(16) 0.45392(11) 0.56578(9)
C3 C 0.2779(2) 0.36295(14) 0.36503(13)
N4 N 0.29731(17) 0.23711(13) 0.40532(10)
C4 C 0.25639(18) 0.47629(13) 0.44926(11)
C5 C 0.22500(18) 0.62027(13) 0.43332(11)
N5 N 0.3149(2) 0.12975(14) 0.44189(12)
H4 H 0.2366(17) 0.6006(12) 0.6955(11)
H5 H 0.273(2) 0.3699(13) 0.2869(12)
N6 N 0.75999(17) 0.81711(11) 0.12529(9)
O3 O 0.82230(19) 0.68130(11) -0.10193(9)
C6 C 0.7775(3) 0.66932(14) 0.14949(14)
H6 H 0.76060 0.66020 0.23530
H7 H 0.91440 0.60200 0.10130
H8 H 0.66900 0.64810 0.12780
O4 O 0.78874(17) 0.88402(11) -0.18146(9)
N7 N 0.79338(17) 0.81177(13) -0.09401(10)
C7 C 0.7318(2) 0.92191(16) 0.20869(14)
N8 N 0.71654(18) 1.04829(11) 0.16665(10)
C8 C 0.7291(2) 1.13739(14) -0.03235(14)
C9 C 0.73646(18) 1.02590(13) 0.04573(11)
N9 N 0.70323(19) 1.26421(13) 0.01722(11)
C10 C 0.76406(19) 0.88297(13) 0.01829(11)
N10 N 0.6821(3) 1.37109(15) 0.06146(14)
H9 H 0.720(2) 0.8988(14) 0.2918(13)
H10 H 0.749(2) 1.1271(14) -0.1188(13)
#END
