
#######################################################################
#
#                 Cambridge Crystallographic Data Centre
#                                CCDC
#
#######################################################################
#
# If this CIF has been generated from an entry in the Cambridge
# Structural Database, then it will include bibliographic, chemical,
# crystal, experimental, refinement or atomic coordinate data resulting
# from the CCDC's data processing and validation procedures.
#
#######################################################################

data_CSD_CIF_XIFFEX
_audit_creation_date 2002-05-23
_audit_creation_method CSD-ConQuest-V1
_database_code_CSD XIFFEX
_database_code_depnum_ccdc_archive 'CCDC 150964'
_chemical_formula_sum 'C15 H16 N4 O4'
_chemical_formula_moiety
;
C15 H16 N4 O4
;
_journal_coden_Cambridge 294
_journal_volume 545
_journal_year 2001
_journal_page_first 75
_journal_name_full 'J.Mol.Struct.:THEOCHEM '
loop_
_publ_author_name
"O.Elias"
"L.Karolyhazy"
"G.Stajer"
"F.Fulop"
"K.Czako"
"V.Harmath"
"O.Barabas"
"K.Keseru"
"P.Matyus"
_chemical_name_systematic
;
5-Benzyl-8-methyl-6-nitro-2,3,4,5-tetrahydropyridazino(4,5-b)(1,5)oxazepine-9(
8H)-one
;
_chemical_melting_point 402.15
_cell_volume   2936.375
_exptl_crystal_colour 'yellow'
_exptl_crystal_density_diffrn 1.431
_exptl_special_details
;
Melting point range 402.15-403.15K

;
_diffrn_ambient_temperature 293
#These two values have been output from a single CSD field.
_refine_ls_R_factor_gt 0.0583
_refine_ls_wR_factor_gt 0.0583
_symmetry_cell_setting orthorhombic
_symmetry_space_group_name_H-M 'P b c a'
_symmetry_Int_Tables_number 61
loop_
_symmetry_equiv_pos_site_id
_symmetry_equiv_pos_as_xyz
1 x,y,z
2 1/2-x,1/2+y,z
3 x,1/2-y,1/2+z
4 1/2+x,y,1/2-z
5 -x,-y,-z
6 -1/2+x,-1/2-y,-z
7 -x,-1/2+y,-1/2-z
8 -1/2-x,-y,-1/2+z
_cell_length_a 14.480(4)
_cell_length_b 23.309(6)
_cell_length_c 8.700(3)
_cell_angle_alpha 90
_cell_angle_beta 90
_cell_angle_gamma 90
_cell_formula_units_Z 8
loop_
_atom_type_symbol
_atom_type_radius_bond
C 0.68
H 0.23
N 0.68
O 0.68
loop_
_atom_site_label
_atom_site_type_symbol
_atom_site_fract_x
_atom_site_fract_y
_atom_site_fract_z
O1 O 1.0625(2) 0.1399(1) -0.2394(3)
O2 O 0.9860(2) 0.00135(13) 0.2835(4)
O3 O 0.9985(2) 0.08766(14) 0.3580(3)
O4 O 1.2315(2) 0.09358(11) -0.2206(3)
N1 N 1.1964(2) 0.04784(11) 0.0005(3)
N2 N 1.1404(2) 0.03662(12) 0.1196(3)
N3 N 0.9476(2) 0.13518(11) 0.0431(3)
N4 N 1.0121(2) 0.05016(15) 0.2663(3)
C1 C 1.0636(2) 0.06395(14) 0.1242(4)
C2 C 1.0275(2) 0.10350(13) 0.0148(4)
C3 C 0.9428(2) 0.19052(14) -0.0343(4)
H1 H 1.0027(2) 0.20891(14) -0.0271(4)
H2 H 0.8988(2) 0.21454(14) 0.0197(4)
C4 C 0.9149(3) 0.1876(2) -0.2031(4)
H3 H 0.8490(3) 0.1809(2) -0.2109(4)
H4 H 0.9286(3) 0.2239(2) -0.2526(4)
C5 C 0.9658(3) 0.1406(2) -0.2824(4)
H5 H 0.9380(3) 0.1040(2) -0.2560(4)
H6 H 0.9607(3) 0.1456(2) -0.3927(4)
C6 C 1.0835(2) 0.10965(14) -0.1112(4)
C7 C 1.1749(2) 0.08509(15) -0.1177(4)
C8 C 1.2865(3) 0.0197(2) 0.0023(4)
H7 H 1.2909(3) -0.0047(2) 0.0910(4)
H8 H 1.3343(3) 0.0482(2) 0.0061(4)
H9 H 1.2935(3) -0.0030(2) -0.0891(4)
C9 C 0.8579(2) 0.10567(14) 0.0596(4)
H10 H 0.8668(2) 0.06984(14) 0.1143(4)
H11 H 0.8335(2) 0.09675(14) -0.0415(4)
C10 C 0.7898(2) 0.14207(13) 0.1450(4)
C11 C 0.8085(3) 0.1629(2) 0.2908(4)
H12 H 0.8635(3) 0.1529(2) 0.3391(4)
C12 C 0.7466(3) 0.1983(2) 0.3653(5)
H13 H 0.7598(3) 0.2120(2) 0.4632(5)
C13 C 0.6655(3) 0.2132(2) 0.2945(6)
H14 H 0.6243(3) 0.2378(2) 0.3433(6)
C14 C 0.6454(3) 0.1920(2) 0.1525(6)
H15 H 0.5897(3) 0.2016(2) 0.1059(6)
C15 C 0.7068(2) 0.1564(2) 0.0768(5)
H16 H 0.6922(2) 0.1420(2) -0.0200(5)
#END
