
#######################################################################
#
#                 Cambridge Crystallographic Data Centre
#                                CCDC
#
#######################################################################
#
# If this CIF has been generated from an entry in the Cambridge
# Structural Database, then it will include bibliographic, chemical,
# crystal, experimental, refinement or atomic coordinate data resulting
# from the CCDC's data processing and validation procedures.
#
#######################################################################

data_CSD_CIF_XIFFIB
_audit_creation_date 2002-05-23
_audit_creation_method CSD-ConQuest-V1
_database_code_CSD XIFFIB
_database_code_depnum_ccdc_archive 'CCDC 150965'
_chemical_formula_sum 'C15 H16 N4 O4'
_chemical_formula_moiety
;
C15 H16 N4 O4
;
_journal_coden_Cambridge 294
_journal_volume 545
_journal_year 2001
_journal_page_first 75
_journal_name_full 'J.Mol.Struct.:THEOCHEM '
loop_
_publ_author_name
"O.Elias"
"L.Karolyhazy"
"G.Stajer"
"F.Fulop"
"K.Czako"
"V.Harmath"
"O.Barabas"
"K.Keseru"
"P.Matyus"
_chemical_name_systematic
;
5-Benzyl-7-methyl-9-nitro-2,3,4,5-tetrahydropyridazino(4,5-b)(1,5)oxazepine-6(
7H)-one
;
_chemical_melting_point 380.15
_cell_volume   1502.651
_exptl_crystal_colour 'yellow'
_exptl_crystal_density_diffrn 1.398
_exptl_special_details
;
Melting point range 380.15-381.15K

;
_diffrn_ambient_temperature 293
_refine_special_details
;
The oxygen atoms of the nitro group are disordered over two sites with 
0.56:0.44 occupancies.
;
#These two values have been output from a single CSD field.
_refine_ls_R_factor_gt 0.0675
_refine_ls_wR_factor_gt 0.0675
_symmetry_cell_setting monoclinic
_symmetry_space_group_name_H-M 'P 21/n'
_symmetry_Int_Tables_number 14
loop_
_symmetry_equiv_pos_site_id
_symmetry_equiv_pos_as_xyz
1 x,y,z
2 1/2+x,1/2-y,1/2+z
3 -x,-y,-z
4 -1/2-x,-1/2+y,-1/2-z
_cell_length_a 8.759(2)
_cell_length_b 11.372(3)
_cell_length_c 15.292(3)
_cell_angle_alpha 90
_cell_angle_beta 99.421(5)
_cell_angle_gamma 90
_cell_formula_units_Z 4
loop_
_atom_type_symbol
_atom_type_radius_bond
C 0.68
H 0.23
N 0.68
O 0.68
loop_
_atom_site_label
_atom_site_type_symbol
_atom_site_fract_x
_atom_site_fract_y
_atom_site_fract_z
O1 O 0.1698(3) 0.5874(2) 0.16326(15)
O2 O -0.1281(8) 0.6647(8) 0.1016(5)
O3? O -0.1736(10) 0.7134(7) 0.0381(12)
O4 O -0.1224(9) 0.6827(7) -0.0349(4)
O5? O -0.0404(8) 0.5712(6) 0.0030(6)
O6 O 0.4650(3) 0.9290(2) 0.1181(2)
N1 N 0.2353(3) 0.8908(2) 0.0345(2)
N2 N 0.0999(3) 0.8329(2) 0.0159(2)
N3 N 0.4507(3) 0.7269(2) 0.2202(2)
N4 N -0.0591(4) 0.6807(3) 0.0375(3)
C1 C 0.0905(4) 0.7395(3) 0.0617(2)
C2 C 0.2022(4) 0.6921(3) 0.1275(2)
C3 C 0.2973(5) 0.5051(3) 0.1784(2)
H1 H 0.3605(5) 0.5145(3) 0.1324(2)
H2 H 0.2569(5) 0.4255(3) 0.1748(2)
C4 C 0.3954(5) 0.5233(3) 0.2670(3)
H3 H 0.4973(5) 0.4902(3) 0.2664(3)
H4 H 0.3495(5) 0.4823(3) 0.3119(3)
C5 C 0.4108(4) 0.6525(3) 0.2902(2)
H5 H 0.3136(4) 0.6798(3) 0.3056(2)
H6 H 0.4896(4) 0.6615(3) 0.3423(2)
C6 C 0.3371(4) 0.7547(3) 0.1500(2)
C7 C 0.3538(4) 0.8625(3) 0.1016(2)
C8 C 0.2432(4) 0.9984(3) -0.0162(3)
H7 H 0.1520(4) 1.0050(3) -0.0603(3)
H8 H 0.3330(4) 0.9961(3) -0.0447(3)
H9 H 0.2498(4) 1.0649(3) 0.0229(3)
C9 C 0.6120(4) 0.7201(3) 0.2073(2)
H10 H 0.6250(4) 0.7668(3) 0.1559(2)
H11 H 0.6364(4) 0.6392(3) 0.1951(2)
C10 C 0.7233(4) 0.7626(3) 0.2857(2)
C11 C 0.6973(4) 0.8639(3) 0.3316(2)
H12 H 0.6080(4) 0.9075(3) 0.3133(2)
C12 C 0.8010(5) 0.9007(3) 0.4035(3)
H13 H 0.7796(5) 0.9676(3) 0.4344(3)
C13 C 0.9356(4) 0.8400(4) 0.4303(3)
H14 H 1.0062(4) 0.8656(4) 0.4787(3)
C14 C 0.9643(5) 0.7413(4) 0.3847(3)
H15 H 1.0560(5) 0.7000(4) 0.4019(3)
C15 C 0.8599(4) 0.7023(3) 0.3140(3)
H16 H 0.8811(4) 0.6342(3) 0.2845(3)
#END
