
#######################################################################
#
#                 Cambridge Crystallographic Data Centre
#                                CCDC
#
#######################################################################
#
# If this CIF has been generated from an entry in the Cambridge
# Structural Database, then it will include bibliographic, chemical,
# crystal, experimental, refinement or atomic coordinate data resulting
# from the CCDC's data processing and validation procedures.
#
#######################################################################

data_CSD_CIF_XIFQIN
_audit_creation_date 2007-08-03
_audit_creation_method CSD-ConQuest-V1
_database_code_CSD XIFQIN
_database_code_depnum_ccdc_archive 'CCDC 654866'
_chemical_formula_sum 'C10 H8 N4 O4'
_chemical_formula_moiety
;
C10 H8 N4 O4
;
_journal_coeditor_code "IUCr KP2111"
_journal_coden_Cambridge 1370
_journal_volume 63
_journal_year 2007
_journal_page_first o3083
_journal_name_full 'Acta Crystallogr.,Sect.E:Struct.Rep.Online '
loop_
_publ_author_name
"P.Wagner"
"M.Kubicki"
_chemical_name_systematic
;
2-Methyl-4-nitro-1-(4-nitrophenyl)-1H-imidazole
;
_cell_volume   2150.550
_exptl_crystal_colour 'colorless'
_exptl_crystal_density_diffrn 1.533
_exptl_crystal_description 'needle'
_diffrn_ambient_temperature 100.0
#These two values have been output from a single CSD field.
_refine_ls_R_factor_gt 0.0383
_refine_ls_wR_factor_gt 0.0383
_symmetry_cell_setting orthorhombic
_symmetry_space_group_name_H-M 'P b c a'
_symmetry_Int_Tables_number 61
loop_
_symmetry_equiv_pos_site_id
_symmetry_equiv_pos_as_xyz
1 x,y,z
2 1/2-x,-y,1/2+z
3 1/2+x,1/2-y,-z
4 -x,1/2+y,1/2-z
5 -x,-y,-z
6 -1/2+x,y,-1/2-z
7 -1/2-x,-1/2+y,z
8 x,-1/2-y,-1/2+z
_cell_length_a 8.1416(9)
_cell_length_b 12.7121(10)
_cell_length_c 20.7789(13)
_cell_angle_alpha 90
_cell_angle_beta 90
_cell_angle_gamma 90
_cell_formula_units_Z 8
loop_
_atom_type_symbol
_atom_type_radius_bond
C 0.68
H 0.23
N 0.68
O 0.68
loop_
_atom_site_label
_atom_site_type_symbol
_atom_site_fract_x
_atom_site_fract_y
_atom_site_fract_z
N1 N 0.88142(17) 0.07302(11) 0.63572(7)
C1 C 0.7321(2) 0.09541(14) 0.60164(8)
C2 C 0.5883(2) 0.11064(14) 0.63618(9)
H1 H 0.58840 0.10740 0.68140
C3 C 0.4431(2) 0.13081(13) 0.60316(9)
H2 H 0.34890 0.14280 0.62620
C4 C 0.4484(2) 0.13426(13) 0.53655(9)
N2 N 0.29294(19) 0.14829(11) 0.50133(8)
O1 O 0.29927(17) 0.16023(10) 0.44276(6)
O2 O 0.16320(16) 0.14491(10) 0.53195(7)
C5 C 0.5904(2) 0.12051(13) 0.50162(9)
H3 H 0.58640 0.12340 0.45790
C6 C 0.7355(2) 0.10102(14) 0.53454(8)
H4 H 0.84110 0.09540 0.51200
C7 C 0.9542(2) 0.13460(13) 0.68233(9)
C8 C 0.8855(2) 0.23579(14) 0.70574(9)
H5 H 0.83620 0.27610 0.67110
H6 H 0.97110 0.27340 0.72320
H7 H 0.80290 0.22430 0.73890
N3 N 1.09046(17) 0.09022(12) 0.70367(7)
C9 C 1.1017(2) -0.00159(14) 0.66976(8)
N4 N 1.23301(18) -0.07395(12) 0.68067(7)
O3 O 1.32853(17) -0.05715(11) 0.72537(6)
O4 O 1.24362(16) -0.15076(10) 0.64383(6)
C10 C 0.9775(2) -0.01455(14) 0.62716(8)
H8 H 0.94420 -0.06860 0.59980
#END
