
#######################################################################
#
#                 Cambridge Crystallographic Data Centre
#                                CCDC
#
#######################################################################
#
# If this CIF has been generated from an entry in the Cambridge
# Structural Database, then it will include bibliographic, chemical,
# crystal, experimental, refinement or atomic coordinate data resulting
# from the CCDC's data processing and validation procedures.
#
#######################################################################

data_CSD_CIF_XIGFOK
_audit_creation_date 2013-09-02
_audit_creation_method CSD-ConQuest-V1
_database_code_CSD XIGFOK
_database_code_depnum_ccdc_archive 'CCDC 958608'
_chemical_formula_sum 'C31 H24 N2 O6'
_chemical_formula_moiety
;
C31 H24 N2 O6
;
_journal_coden_Cambridge 4
_journal_volume 135
_journal_year 2013
_journal_page_first 10829
_journal_name_full 'J.Am.Chem.Soc. '
loop_
_publ_author_name
"J.D.Dooley"
"S.R.Chidipudi"
"Hon Wai Lam"
_chemical_name_systematic
;
1'-Methyl-3-((1-methyl-2,5-dioxocyclopentyl)methyl)-2-(4-nitrophenyl)-2'H-spir
o[indene-1,3'-quinoline]-2',4'(1'H)-dione
;
_cell_volume   2540.777
_exptl_crystal_colour 'colorless'
_exptl_crystal_density_diffrn 1.361
_exptl_crystal_description 'plate'
_diffrn_ambient_temperature 120
_refine_special_details
;
C1,C10,C2,C3,C4,C5,C6,C7,C8,C9,N1,O1,O2 and 
C1',C10',C2',C3',C4',C5',C6',C7',C8',C9',N1',O1',O2' disordered over two 
sites with occupancies 0.791:0.209.
;
#These two values have been output from a single CSD field.
_refine_ls_R_factor_gt 0.0494
_refine_ls_wR_factor_gt 0.0494
_symmetry_cell_setting monoclinic
_symmetry_space_group_name_H-M 'P 21/n'
_symmetry_Int_Tables_number 14
loop_
_symmetry_equiv_pos_site_id
_symmetry_equiv_pos_as_xyz
1 x,y,z
2 1/2-x,1/2+y,1/2-z
3 -x,-y,-z
4 -1/2+x,-1/2-y,-1/2+z
_cell_length_a 11.8817(3)
_cell_length_b 18.9488(3)
_cell_length_c 12.1070(3)
_cell_angle_alpha 90
_cell_angle_beta 111.233(3)
_cell_angle_gamma 90
_cell_formula_units_Z 4
loop_
_atom_type_symbol
_atom_type_radius_bond
C 0.68
H 0.23
N 0.68
O 0.68
loop_
_atom_site_label
_atom_site_type_symbol
_atom_site_fract_x
_atom_site_fract_y
_atom_site_fract_z
O1 O 0.5121(9) 0.0347(5) 0.8281(6)
O2 O 0.1976(4) -0.1057(2) 0.5857(4)
N1 N 0.4370(3) 0.05630(15) 0.6299(3)
C1 C 0.4341(8) 0.0237(4) 0.7302(8)
C2 C 0.32174(14) -0.02114(8) 0.72102(14)
C3 C 0.2566(5) -0.0545(4) 0.5959(6)
C4 C 0.2685(3) -0.0133(2) 0.4965(3)
C5 C 0.1910(2) -0.03093(14) 0.3824(2)
H1 H 0.13160 -0.06650 0.37170
C6 C 0.1998(2) 0.00302(14) 0.2849(2)
H2 H 0.14640 -0.00860 0.20720
C7 C 0.2878(2) 0.05429(14) 0.3020(2)
H3 H 0.29500 0.07740 0.23530
C8 C 0.3656(3) 0.07242(17) 0.4150(3)
H4 H 0.42540 0.10760 0.42480
C9 C 0.3564(3) 0.03901(16) 0.5148(3)
C10 C 0.5335(3) 0.10758(15) 0.6426(3)
H5 H 0.49780 0.15300 0.60900
H6 H 0.58480 0.09040 0.60060
H7 H 0.58240 0.11370 0.72680
O3 O 0.83949(13) -0.25015(8) 1.01683(13)
O4 O 0.7658(2) -0.28906(14) 0.83990(17)
O5 O 0.2847(2) -0.25113(9) 0.8837(2)
O6 O -0.01440(13) -0.10368(8) 0.92058(14)
N2 N 0.75956(16) -0.25257(9) 0.91987(15)
C11 C 0.35006(14) -0.07312(8) 0.82304(14)
C12 C 0.27772(14) -0.06228(8) 0.88543(14)
C13 C 0.20405(14) 0.00117(8) 0.84034(14)
C14 C 0.12586(15) 0.03763(9) 0.88197(16)
H8 H 0.10730 0.02010 0.94690
C15 C 0.07544(16) 0.10048(9) 0.82616(18)
H9 H 0.02220 0.12610 0.85390
C16 C 0.10142(17) 0.12636(10) 0.73106(18)
H10 H 0.06580 0.16940 0.69460
C17 C 0.17938(16) 0.08995(9) 0.68809(17)
H11 H 0.19700 0.10730 0.62250
C18 C 0.22981(14) 0.02818(9) 0.74404(15)
C19 C 0.45159(14) -0.12322(8) 0.84858(14)
C20 C 0.46301(16) -0.16686(9) 0.76071(15)
H12 H 0.40160 -0.16700 0.68410
C21 C 0.56298(17) -0.21008(10) 0.78385(16)
H13 H 0.57090 -0.23970 0.72380
C22 C 0.65098(15) -0.20919(9) 0.89614(15)
C23 C 0.64226(16) -0.16699(9) 0.98569(15)
H14 H 0.70320 -0.16780 1.06260
C24 C 0.54248(15) -0.12359(9) 0.96058(15)
H15 H 0.53580 -0.09350 1.02070
C25 C 0.26875(16) -0.10652(9) 0.98490(15)
H16 H 0.25110 -0.07520 1.04200
H17 H 0.34810 -0.12890 1.02690
C26 C 0.17107(17) -0.16501(9) 0.94552(18)
C27 C 0.1949(2) -0.21540(11) 0.8580(3)
C28 C 0.0904(3) -0.21488(16) 0.7406(3)
H18 H 0.11970 -0.20550 0.67510
H19 H 0.04850 -0.26100 0.72630
C29 C 0.0058(3) -0.15701(17) 0.7475(2)
H20 H 0.01130 -0.11590 0.69920
H21 H -0.07870 -0.17410 0.71800
C30 C 0.04523(18) -0.13685(10) 0.87664(18)
C31 C 0.1720(2) -0.20526(12) 1.0556(2)
H22 H 0.10800 -0.24100 1.03230
H23 H 0.15810 -0.17220 1.11160
H24 H 0.25040 -0.22840 1.09320
O7? O 0.1796(15) -0.1157(9) 0.6146(14)
O8? O 0.508(4) 0.029(2) 0.801(2)
C32? C 0.2992(12) 0.0487(6) 0.3856(10)
H25? H 0.23550 0.03380 0.31590
C33? C 0.3783(12) 0.0974(8) 0.3782(13)
H26? H 0.36870 0.11650 0.30280
C34? C 0.4718(9) 0.1203(5) 0.4750(9)
H27? H 0.52760 0.15380 0.46630
C35? C 0.4857(10) 0.0941(5) 0.5887(13)
H28? H 0.54920 0.11050 0.65740
C36? C 0.4054(12) 0.0446(7) 0.5971(12)
C37? C 0.3104(13) 0.0190(7) 0.4989(9)
N3? N 0.2348(11) -0.0332(6) 0.5076(10)
C38? C 0.245(3) -0.055(2) 0.618(3)
C39? C 0.32174(14) -0.02114(8) 0.72102(14)
C40? C 0.414(3) 0.020(2) 0.715(4)
C41? C 0.1399(10) -0.0624(6) 0.3976(9)
H29? H 0.09900 -0.10210 0.41900
H30? H 0.17820 -0.07880 0.34280
H31? H 0.08090 -0.02550 0.35940
#END
