
#######################################################################
#
#                 Cambridge Crystallographic Data Centre
#                                CCDC
#
#######################################################################
#
# If this CIF has been generated from an entry in the Cambridge
# Structural Database, then it will include bibliographic, chemical,
# crystal, experimental, refinement or atomic coordinate data resulting
# from the CCDC's data processing and validation procedures.
#
#######################################################################

data_CSD_CIF_XIGQAG
_audit_creation_date 2007-11-23
_audit_creation_method CSD-ConQuest-V1
_database_code_CSD XIGQAG
_database_code_depnum_ccdc_archive 'CCDC 294571'
_chemical_formula_sum 'C25 H24 N4 O4'
_chemical_formula_moiety
;
C25 H24 N4 O4
;
_journal_coden_Cambridge 862
_journal_volume 126
_journal_year 2007
_journal_page_first 27
_journal_name_full 'J.Lumin. '
loop_
_publ_author_name
"B.Bag"
"P.K.Bharadwaj"
_chemical_name_systematic
;
N,N'-dimethyl-N-(9-anthracenylmethyl)-N'-(2,4-dinitrophenyl)ethylenediamine
;
_chemical_melting_point 400.15
_cell_volume   1083.687
_exptl_crystal_colour 'orange'
_exptl_crystal_density_diffrn 1.362
_exptl_special_details
;
fluorescent
light-sensitive

;
_exptl_crystal_description 'needle'
_exptl_crystal_preparation 'ethanol/dichloromethane'
_diffrn_ambient_temperature 293
#These two values have been output from a single CSD field.
_refine_ls_R_factor_gt 0.0622
_refine_ls_wR_factor_gt 0.0622
_symmetry_cell_setting triclinic
_symmetry_space_group_name_H-M 'P -1'
_symmetry_Int_Tables_number 2
loop_
_symmetry_equiv_pos_site_id
_symmetry_equiv_pos_as_xyz
1 x,y,z
2 -x,-y,-z
_cell_length_a 10.326(5)
_cell_length_b 10.845(5)
_cell_length_c 10.997(5)
_cell_angle_alpha 114.572(5)
_cell_angle_beta 102.109(5)
_cell_angle_gamma 92.326(5)
_cell_formula_units_Z 2
loop_
_atom_type_symbol
_atom_type_radius_bond
C 0.68
H 0.23
N 0.68
O 0.68
loop_
_atom_site_label
_atom_site_type_symbol
_atom_site_fract_x
_atom_site_fract_y
_atom_site_fract_z
O1 O 0.6742(7) 0.4407(8) 0.0016(7)
O2 O 0.5118(7) 0.2806(9) -0.1325(7)
O3 O 0.1483(6) 0.2934(8) 0.0865(8)
O4 O 0.1950(6) 0.3686(8) 0.3086(8)
N1 N 0.7986(6) 0.1068(7) 0.2072(7)
N2 N 0.7780(6) 0.3771(6) 0.2308(6)
N3 N 0.5808(8) 0.3577(9) -0.0171(8)
N4 N 0.2278(8) 0.3363(8) 0.1992(10)
C1 C 0.8845(8) 0.1692(9) 0.1543(8)
H1 H 0.90180 0.09850 0.07200
H2 H 0.96950 0.20820 0.22250
C2 C 0.8275(8) 0.2801(9) 0.1192(8)
H3 H 0.89640 0.32840 0.10070
H4 H 0.75500 0.23840 0.03620
C3 C 0.8698(9) 0.0219(9) 0.2671(9)
H5 H 0.90760 -0.04470 0.19810
H6 H 0.80570 -0.02810 0.28920
C4 C 0.9812(9) 0.1030(9) 0.3964(9)
C5 C 1.1176(9) 0.0975(10) 0.3946(10)
C6 C 1.1611(10) 0.0225(10) 0.2737(10)
H7 H 1.09820 -0.02630 0.19010
C7 C 1.2924(12) 0.0211(11) 0.2784(11)
H8 H 1.31860 -0.02900 0.19790
C8 C 1.3924(10) 0.0950(12) 0.4048(11)
H9 H 1.48280 0.09400 0.40690
C9 C 1.3534(10) 0.1647(10) 0.5182(10)
H10 H 1.41840 0.21100 0.60080
C10 C 1.2172(9) 0.1724(9) 0.5200(9)
C11 C 1.1821(9) 0.2488(9) 0.6418(9)
H11 H 1.24890 0.29680 0.72260
C12 C 1.0477(9) 0.2550(9) 0.6454(9)
C13 C 1.0116(12) 0.3359(10) 0.7704(10)
H12 H 1.07800 0.38530 0.85110
C14 C 0.8831(14) 0.3410(12) 0.7721(12)
H13 H 0.86060 0.39120 0.85490
C15 C 0.7793(11) 0.2699(12) 0.6478(13)
H14 H 0.69000 0.27570 0.64940
C16 C 0.8117(10) 0.1944(11) 0.5284(11)
H15 H 0.74370 0.14780 0.44830
C17 C 0.9469(9) 0.1842(9) 0.5218(9)
C18 C 0.6446(8) 0.3759(8) 0.2233(8)
C19 C 0.5467(8) 0.3521(8) 0.1023(8)
C20 C 0.4118(8) 0.3359(8) 0.0921(8)
H16 H 0.35020 0.31670 0.00930
C21 C 0.3689(8) 0.3486(9) 0.2075(9)
C22 C 0.4621(9) 0.3802(9) 0.3314(9)
H17 H 0.43300 0.39200 0.40950
C23 C 0.5959(8) 0.3940(8) 0.3393(8)
H18 H 0.65650 0.41600 0.42330
C24 C 0.6774(9) 0.0273(10) 0.105(1)
H19 H 0.62330 -0.01040 0.14580
H20 H 0.70000 -0.04570 0.02930
H21 H 0.62850 0.08530 0.07190
C25 C 0.8725(8) 0.4351(9) 0.3649(8)
H22 H 0.96190 0.42860 0.35320
H23 H 0.85500 0.38570 0.41600
H24 H 0.86320 0.52960 0.41440
#END
