
#######################################################################
#
#                 Cambridge Crystallographic Data Centre
#                                CCDC
#
#######################################################################
#
# If this CIF has been generated from an entry in the Cambridge
# Structural Database, then it will include bibliographic, chemical,
# crystal, experimental, refinement or atomic coordinate data resulting
# from the CCDC's data processing and validation procedures.
#
#######################################################################

data_CSD_CIF_XIHLIL
_audit_creation_date 2013-09-03
_audit_creation_method CSD-ConQuest-V1
_database_code_CSD XIHLIL
_database_code_depnum_ccdc_archive 'CCDC 958948'
_chemical_formula_sum 'C3 H3 N3 O3'
_chemical_formula_moiety
;
C3 H3 N3 O3
;
_journal_coden_Cambridge 34
_journal_volume 49
_journal_year 2012
_journal_page_first 227
_journal_name_full 'J.Heterocycl.Chem. '
loop_
_publ_author_name
"R.L.Willer"
"R.F.Storey"
"M.Frisch"
"J.R.Deschamps"
_chemical_name_systematic
;
4-Amino-1,2,5-oxadiazole-3-carboxylic acid
;
_cell_volume    900.621
_exptl_crystal_density_diffrn 1.859
_diffrn_ambient_temperature 100
#These two values have been output from a single CSD field.
_refine_ls_R_factor_gt 0.0549
_refine_ls_wR_factor_gt 0.0549
_symmetry_cell_setting triclinic
_symmetry_space_group_name_H-M 'P -1'
_symmetry_Int_Tables_number 2
loop_
_symmetry_equiv_pos_site_id
_symmetry_equiv_pos_as_xyz
1 x,y,z
2 -x,-y,-z
_cell_length_a 9.755(8)
_cell_length_b 9.775(8)
_cell_length_c 11.463(14)
_cell_angle_alpha 108.362(12)
_cell_angle_beta 105.613(12)
_cell_angle_gamma 108.118(8)
_cell_formula_units_Z 8
loop_
_atom_type_symbol
_atom_type_radius_bond
C 0.68
H 0.23
N 0.68
O 0.68
loop_
_atom_site_label
_atom_site_type_symbol
_atom_site_fract_x
_atom_site_fract_y
_atom_site_fract_z
N1 N 0.4498(5) 0.8458(4) -0.1408(4)
C1 C 0.3303(3) 0.7395(3) -0.1560(3)
N2 N 0.3522(2) 0.6674(3) -0.0668(3)
O1 O 0.2031(3) 0.5464(2) -0.0992(2)
N3 N 0.0890(2) 0.5437(3) -0.2084(2)
C2 C 0.1676(3) 0.6630(3) -0.2435(2)
C3 C 0.0949(4) 0.6902(4) -0.3492(4)
O2 O -0.0565(3) 0.6173(3) -0.4218(3)
O3 O 0.1939(3) 0.7973(3) -0.3643(3)
H1 H 0.44450 0.89440 -0.19360
H2 H 0.54110 0.87380 -0.07710
H3 H -0.08860 0.51910 -0.44250
N4 N -0.2626(5) 0.3325(5) -0.3663(5)
C4 C -0.3575(2) 0.2358(3) -0.3502(3)
N5 N -0.5205(3) 0.1658(3) -0.4353(2)
O4 O -0.6035(2) 0.0541(2) -0.3956(2)
N6 N -0.4917(3) 0.0551(3) -0.2860(2)
C5 C -0.3397(2) 0.1674(3) -0.2579(3)
C6 C -0.2109(4) 0.1931(4) -0.1517(4)
O5 O -0.2073(3) 0.1176(3) -0.0788(3)
O6 O -0.0882(3) 0.3103(3) -0.1352(3)
H4 H -0.29390 0.36020 -0.43100
H5 H -0.16160 0.37560 -0.31330
H6 H -0.28870 0.03030 -0.11790
N7 N 0.0633(3) 0.1608(3) 0.1435(3)
C7 C 0.1747(2) 0.2732(3) 0.1518(2)
N8 N 0.1665(2) 0.3542(3) 0.0686(2)
O7 O 0.3209(3) 0.4729(3) 0.1106(3)
N9 N 0.4244(2) 0.4653(3) 0.2198(2)
C8 C 0.3341(3) 0.3419(3) 0.2452(2)
C9 C 0.4216(6) 0.3230(6) 0.3508(5)
O8 O 0.5697(3) 0.4092(4) 0.4081(3)
O9 O 0.3244(3) 0.2137(4) 0.3667(3)
H7 H 0.07980 0.11650 0.19870
H8 H -0.03230 0.12530 0.08250
H9 H 0.60700 0.40240 0.48010
N10 N 0.7677(3) 0.6738(3) 0.3585(3)
C10 C 0.8726(2) 0.7764(3) 0.3495(2)
N11 N 1.0363(2) 0.8485(3) 0.4333(2)
O10 O 1.1163(2) 0.9595(3) 0.3916(2)
N12 N 1.0021(3) 0.9560(3) 0.2820(3)
C11 C 0.8515(2) 0.8429(3) 0.2560(2)
C12 C 0.7175(5) 0.8155(6) 0.1450(5)
O11 O 0.7477(4) 0.9123(3) 0.0895(3)
O12 O 0.5948(4) 0.6995(4) 0.1286(3)
H10 H 0.66840 0.63500 0.30310
H11 H 0.79280 0.64000 0.42020
H12 H 0.68390 0.86660 0.00840
#END
