
#######################################################################
#
#                 Cambridge Crystallographic Data Centre
#                                CCDC
#
#######################################################################
#
# If this CIF has been generated from an entry in the Cambridge
# Structural Database, then it will include bibliographic, chemical,
# crystal, experimental, refinement or atomic coordinate data resulting
# from the CCDC's data processing and validation procedures.
#
#######################################################################

data_CSD_CIF_XIJHUT
_audit_creation_date 2002-05-23
_audit_creation_method CSD-ConQuest-V1
_database_code_CSD XIJHUT
_database_code_depnum_ccdc_archive 'CCDC 180239'
_chemical_formula_sum 'C26 H32 N2 O1'
_chemical_formula_moiety
;
C26 H32 N2 O1
;
_journal_coden_Cambridge 1336
_journal_volume 4
_journal_year 2002
_journal_page_first 1047
_journal_name_full 'Org.Lett. '
loop_
_publ_author_name
"A.V.Malkov"
"M.Orsini"
"D.Pernazza"
"K.W.Muir"
"V.Langer"
"P.Meghani"
"P.Kocovsky"
_chemical_name_systematic
;
(S,6R,6'R,8R,8'R)-(-)-5,5',6,6',7,7',8,8'-Octahydro-3,3',7,7,7',7'-hexamethyl-
bi(6,8-methanoquinolin-2-yl)-1-oxide
;
_chemical_melting_point 496.15
_cell_volume   4594.111
_exptl_crystal_density_diffrn 1.123
_exptl_special_details
;
Melting point range 496.15-498.15K

;
_diffrn_ambient_temperature 183
#These two values have been output from a single CSD field.
_refine_ls_R_factor_gt 0.0534
_refine_ls_wR_factor_gt 0.0534
_symmetry_cell_setting orthorhombic
_symmetry_space_group_name_H-M 'P 21 21 21'
_symmetry_Int_Tables_number 19
loop_
_symmetry_equiv_pos_site_id
_symmetry_equiv_pos_as_xyz
1 x,y,z
2 1/2-x,-y,1/2+z
3 -x,1/2+y,1/2-z
4 1/2+x,1/2-y,-z
_cell_length_a 7.1507(1)
_cell_length_b 16.8300(1)
_cell_length_c 38.1741(1)
_cell_angle_alpha 90
_cell_angle_beta 90
_cell_angle_gamma 90
_cell_formula_units_Z 8
loop_
_atom_type_symbol
_atom_type_radius_bond
C 0.68
H 0.23
N 0.68
O 0.68
loop_
_atom_site_label
_atom_site_type_symbol
_atom_site_fract_x
_atom_site_fract_y
_atom_site_fract_z
O1 O 0.2765(2) 0.72116(11) 0.76937(4)
N1 N 0.0949(2) 0.72459(11) 0.76636(4)
C1 C -0.0154(3) 0.70476(12) 0.79468(5)
C2 C -0.2101(3) 0.70371(14) 0.79170(5)
C3 C -0.2919(3) 0.72696(14) 0.75986(5)
H1 H -0.42400 0.72630 0.75720
C4 C -0.1789(3) 0.75105(13) 0.73216(5)
C5 C 0.0152(3) 0.74832(12) 0.73552(5)
C6 C -0.2559(3) 0.77904(16) 0.69703(6)
H2 H -0.33600 0.82630 0.70070
H3 H -0.33420 0.73660 0.68670
C7 C -0.0963(4) 0.80011(15) 0.67155(6)
H4 H -0.13650 0.82070 0.64820
C8 C 0.0537(3) 0.73143(15) 0.67061(5)
C9 C 0.1339(3) 0.77273(14) 0.70487(5)
H5 H 0.27250 0.77120 0.70830
C10 C 0.0490(4) 0.85209(16) 0.69126(7)
H6 H -0.00520 0.88610 0.70980
H7 H 0.13320 0.88280 0.67570
C11 C -0.3287(4) 0.67734(19) 0.82239(6)
H8 H -0.30210 0.62150 0.82770
H9 H -0.46130 0.68330 0.81640
H10 H -0.29950 0.71020 0.84290
C12 C 0.1904(4) 0.7399(2) 0.63991(6)
H11 H 0.29550 0.70330 0.64320
H12 H 0.23730 0.79460 0.63900
H13 H 0.12580 0.72730 0.61800
C13 C -0.0106(4) 0.64552(15) 0.67304(6)
H14 H -0.07240 0.63030 0.65110
H15 H -0.09860 0.63980 0.69260
H16 H 0.09790 0.61100 0.67700
C14 C 0.0836(3) 0.69275(12) 0.82878(5)
N2 N 0.0703(3) 0.75645(10) 0.85044(4)
C15 C 0.1773(3) 0.62268(13) 0.83750(5)
C16 C 0.2579(4) 0.61874(14) 0.87098(6)
H17 H 0.32090 0.57180 0.87820
C17 C 0.2459(4) 0.68299(13) 0.89366(5)
C18 C 0.1526(3) 0.75185(13) 0.88202(5)
C19 C 0.3197(5) 0.68288(16) 0.93120(6)
H18 H 0.45580 0.67210 0.93110
H19 H 0.25760 0.64020 0.94470
C20 C 0.2821(6) 0.76376(16) 0.94875(6)
H20 H 0.33070 0.76900 0.97320
C21 C 0.0740(5) 0.79173(15) 0.94342(6)
C22 C 0.1446(4) 0.82165(14) 0.90665(6)
H21 H 0.08530 0.87120 0.89740
C23 C 0.3428(5) 0.83090(16) 0.92329(7)
H22 H 0.44720 0.81640 0.90750
H23 H 0.36490 0.88290 0.93470
C24 C 0.1911(5) 0.55415(15) 0.81196(7)
H24 H 0.06680 0.54250 0.80240
H25 H 0.23940 0.50710 0.82410
H26 H 0.27590 0.56850 0.79280
C25 C 0.0237(7) 0.86207(19) 0.96757(8)
H27 H -0.09910 0.88320 0.96100
H28 H 0.11820 0.90390 0.96510
H29 H 0.01990 0.84380 0.99190
C26 C -0.0847(6) 0.7311(2) 0.94459(9)
H30 H -0.09840 0.71090 0.96850
H31 H -0.05610 0.68690 0.92880
H32 H -0.20160 0.75660 0.93720
O2 O 0.2138(2) 0.0264(1) 0.89046(4)
N3 N 0.3958(2) 0.0177(1) 0.88833(4)
C27 C 0.5047(3) 0.04432(11) 0.91576(5)
C28 C 0.6992(3) 0.03719(12) 0.91461(5)
C29 C 0.7817(3) 0.00156(13) 0.88527(6)
H33 H 0.91370 -0.00390 0.88400
C30 C 0.6701(3) -0.02576(12) 0.85798(5)
C31 C 0.4755(3) -0.01731(12) 0.85969(5)
C32 C 0.7490(3) -0.06405(14) 0.82490(6)
H34 H 0.82410 -0.11120 0.83140
H35 H 0.83240 -0.02590 0.81290
C33 C 0.5915(4) -0.08914(15) 0.79993(6)
H36 H 0.63300 -0.11710 0.77820
C34 C 0.4457(4) -0.02096(17) 0.79431(6)
C35 C 0.3585(3) -0.04942(15) 0.83027(6)
H37 H 0.21970 -0.04520 0.83280
C36 C 0.4402(4) -0.13363(16) 0.82201(7)
H38 H 0.49030 -0.16200 0.84270
H39 H 0.35620 -0.16810 0.80810
C37 C 0.8176(3) 0.06885(17) 0.94436(7)
H40 H 0.79140 0.12550 0.94770
H41 H 0.95020 0.06170 0.93870
H42 H 0.78780 0.03990 0.96590
C38 C 0.3131(5) -0.0396(3) 0.76344(7)
H43 H 0.20740 -0.00250 0.76380
H44 H 0.26660 -0.09410 0.76560
H45 H 0.38110 -0.03390 0.74130
C39 C 0.5146(4) 0.06481(17) 0.79094(6)
H46 H 0.59010 0.07020 0.76960
H47 H 0.59090 0.07850 0.81140
H48 H 0.40700 0.10070 0.78960
C40 C 0.4016(3) 0.07866(12) 0.94629(5)
N4 N 0.3870(3) 0.03021(10) 0.97446(4)
C41 C 0.3290(3) 0.15629(12) 0.94515(5)
C42 C 0.2434(3) 0.18473(12) 0.97572(5)
H49 H 0.19560 0.23740 0.97640
C43 C 0.2281(3) 0.13638(13) 1.00510(5)
C44 C 0.2989(3) 0.05834(12) 1.00289(5)
C45 C 0.1409(4) 0.16267(16) 1.03954(6)
H50 H 0.01280 0.18270 1.03520
H51 H 0.21550 0.20650 1.04970
C46 C 0.1331(4) 0.09321(15) 1.06552(6)
H52 H 0.06930 0.10490 1.08830
C47 C 0.3270(4) 0.05020(14) 1.06869(6)
C48 C 0.2673(4) 0.00524(13) 1.03423(5)
H53 H 0.30960 -0.05110 1.03190
C49 C 0.0610(4) 0.01833(17) 1.04589(6)
H54 H -0.02630 0.03000 1.02640
H55 H 0.01120 -0.02380 1.06140
C50 C 0.3405(4) 0.20585(14) 0.91239(6)
H56 H 0.27420 0.17890 0.89330
H57 H 0.47190 0.21320 0.90590
H58 H 0.28290 0.25780 0.91670
C51 C 0.3316(6) -0.00630(19) 1.10053(6)
H59 H 0.44370 -0.03970 1.09930
H60 H 0.22000 -0.04010 1.10030
H61 H 0.33420 0.02500 1.12220
C52 C 0.5064(5) 0.0988(2) 1.06779(8)
H62 H 0.51210 0.13310 1.08850
H63 H 0.50820 0.13160 1.04660
H64 H 0.61430 0.06290 1.06770
#END
