
#######################################################################
#
#                 Cambridge Crystallographic Data Centre
#                                CCDC
#
#######################################################################
#
# If this CIF has been generated from an entry in the Cambridge
# Structural Database, then it will include bibliographic, chemical,
# crystal, experimental, refinement or atomic coordinate data resulting
# from the CCDC's data processing and validation procedures.
#
#######################################################################

data_CSD_CIF_XIJVUJ
_audit_creation_date 2013-09-04
_audit_creation_method CSD-ConQuest-V1
_database_code_CSD XIJVUJ
_database_code_depnum_ccdc_archive 'CCDC 959088'
_chemical_formula_sum 'C15 H25 N4 O4'
_chemical_formula_moiety
;
C15 H25 N4 O4
;
_journal_coden_Cambridge 95
_journal_year 2012
_journal_page_first 1454
_journal_name_full 'Izv.Akad.Nauk SSSR,Ser.Khim.(Russ.)(Russ.Chem.Bull.) '
loop_
_publ_author_name
"M.V.Varaksin"
"E.V.Tretyakov"
"I.A.Utepova"
"G.V.Romanenko"
"A.S.Bogomyakov"
"D.V.Stas"
"R.Z.Sagdeev"
"V.I.Ovcharenko"
"O.N.Chupakhin"
_chemical_name_systematic
;
4,4,5,5-Tetramethyl-2-(2,2,3,3-tetramethyl-1,4-dioxido-2,3-dihydropyrazin-5-yl
)-4,5-dihydro-1H-imidazol-1-oxyl 3-oxide radical
;
_chemical_melting_point 468.15
_cell_volume   1682.430
_exptl_crystal_density_diffrn 1.285
_exptl_special_details
;
Melting point range 468.15-470.15K

;
_exptl_crystal_description 'bulk'
_exptl_crystal_preparation 'dichloromethane/n-heptane'
_diffrn_ambient_temperature 240
#These two values have been output from a single CSD field.
_refine_ls_R_factor_gt 0.0369
_refine_ls_wR_factor_gt 0.0369
_symmetry_cell_setting monoclinic
_symmetry_space_group_name_H-M 'P 21/c'
_symmetry_Int_Tables_number 14
loop_
_symmetry_equiv_pos_site_id
_symmetry_equiv_pos_as_xyz
1 x,y,z
2 -x,1/2+y,1/2-z
3 -x,-y,-z
4 x,-1/2-y,-1/2+z
_cell_length_a 10.0384(9)
_cell_length_b 13.7959(12)
_cell_length_c 12.1488(10)
_cell_angle_alpha 90
_cell_angle_beta 90.408(5)
_cell_angle_gamma 90
_cell_formula_units_Z 4
loop_
_atom_type_symbol
_atom_type_radius_bond
C 0.68
H 0.23
N 0.68
O 0.68
loop_
_atom_site_label
_atom_site_type_symbol
_atom_site_fract_x
_atom_site_fract_y
_atom_site_fract_z
N1 N 0.20945(12) 0.25145(8) 0.86180(9)
N2 N 0.29140(12) 0.48119(8) 0.76038(9)
O1 O 0.29510(11) 0.20978(8) 0.80161(9)
O2 O 0.18032(10) 0.50727(8) 0.71806(8)
C1 C 0.30980(14) 0.40516(10) 0.82801(11)
C2 C 0.20370(14) 0.34661(10) 0.87437(10)
O3 O 0.48890(11) 0.33246(8) 0.91805(9)
N3 N 0.43932(12) 0.39528(8) 0.85265(9)
C3 C 0.11718(15) 0.18973(11) 0.93136(12)
C4 C 0.52349(14) 0.46238(10) 0.78449(10)
N4 N -0.00243(13) 0.34251(9) 0.96975(11)
C5 C -0.02035(15) 0.23891(10) 0.93165(11)
C6 C 0.41777(14) 0.5387(1) 0.74787(10)
C7 C -0.1164(2) 0.18810(15) 1.00905(15)
H1 H -0.078(2) 0.1775(15) 1.0833(18)
H2 H -0.1340(19) 0.1236(15) 0.9778(14)
H3 H -0.199(2) 0.2258(14) 1.0111(14)
C8 C 0.10124(16) 0.39089(12) 0.93617(13)
H4 H 0.1050(18) 0.4554(16) 0.9532(14)
C9 C 0.4055(2) 0.62465(12) 0.82658(15)
H5 H 0.324(2) 0.6592(14) 0.8072(14)
H6 H 0.3965(18) 0.6035(13) 0.9022(15)
H7 H 0.486(2) 0.6657(15) 0.8230(15)
O4 O -0.09716(13) 0.38024(9) 1.02567(13)
C10 C 0.63660(17) 0.50192(13) 0.85446(14)
H8 H 0.6849(18) 0.5466(14) 0.8102(14)
H9 H 0.6962(18) 0.4517(14) 0.8757(13)
H10 H 0.6058(18) 0.5350(13) 0.9176(15)
C11 C 0.57639(19) 0.39996(13) 0.69035(14)
H11 H 0.5028(19) 0.3749(12) 0.6423(14)
H12 H 0.6334(19) 0.4391(13) 0.6444(14)
H13 H 0.631(2) 0.3460(14) 0.7233(15)
C12 C -0.0822(2) 0.24703(15) 0.81660(14)
H14 H -0.172(2) 0.2831(14) 0.8236(15)
H15 H -0.102(2) 0.1811(17) 0.7863(17)
H16 H -0.015(2) 0.2728(14) 0.7652(16)
C13 C 0.4303(2) 0.57426(15) 0.63050(13)
H17 H 0.521(2) 0.6055(13) 0.6227(14)
H18 H 0.357(2) 0.6210(14) 0.6132(15)
H19 H 0.4215(18) 0.5200(14) 0.5804(15)
C14 C 0.1102(2) 0.08931(13) 0.8795(2)
H20 H 0.196(3) 0.0576(19) 0.8825(18)
H21 H 0.048(3) 0.0516(18) 0.9150(18)
H22 H 0.088(3) 0.0918(17) 0.797(2)
C15 C 0.1830(2) 0.18621(19) 1.04585(16)
H23 H 0.143(2) 0.1368(16) 1.0917(17)
H24 H 0.278(3) 0.1691(15) 1.0376(17)
H25 H 0.167(2) 0.2531(17) 1.0840(17)
#END
