
#######################################################################
#
#                 Cambridge Crystallographic Data Centre
#                                CCDC
#
#######################################################################
#
# If this CIF has been generated from an entry in the Cambridge
# Structural Database, then it will include bibliographic, chemical,
# crystal, experimental, refinement or atomic coordinate data resulting
# from the CCDC's data processing and validation procedures.
#
#######################################################################

data_CSD_CIF_XIJVIX
_audit_creation_date 2013-09-04
_audit_creation_method CSD-ConQuest-V1
_database_code_CSD XIJVIX
_database_code_depnum_ccdc_archive 'CCDC 959087'
_chemical_formula_sum 'C16 H27 N4 O3'
_chemical_formula_moiety
;
C16 H27 N4 O3
;
_journal_coden_Cambridge 95
_journal_year 2012
_journal_page_first 1454
_journal_name_full 'Izv.Akad.Nauk SSSR,Ser.Khim.(Russ.)(Russ.Chem.Bull.) '
loop_
_publ_author_name
"M.V.Varaksin"
"E.V.Tretyakov"
"I.A.Utepova"
"G.V.Romanenko"
"A.S.Bogomyakov"
"D.V.Stas"
"R.Z.Sagdeev"
"V.I.Ovcharenko"
"O.N.Chupakhin"
_chemical_name_systematic
;
4,4,5,5-Tetramethyl-2-(2,2,3,3,6-pentamethyl-1-oxido-2,3-dihydropyrazin-5-yl)-
4,5-dihydro-1H-imidazol-1-oxyl 3-oxide radical
;
_chemical_melting_point 459.15
_cell_volume   3537.958
_exptl_crystal_colour 'dark red'
_exptl_crystal_density_diffrn 1.214
_exptl_special_details
;
Melting point range 459.15-460.15K

;
_exptl_crystal_description 'stick'
_exptl_crystal_preparation 'dichloromethane/n-heptane'
_diffrn_ambient_temperature 240
_refine_special_details
;
The structure is disordered.

;
#These two values have been output from a single CSD field.
_refine_ls_R_factor_gt 0.0652
_refine_ls_wR_factor_gt 0.0652
_symmetry_cell_setting monoclinic
_symmetry_space_group_name_H-M 'P 21/n'
_symmetry_Int_Tables_number 14
loop_
_symmetry_equiv_pos_site_id
_symmetry_equiv_pos_as_xyz
1 x,y,z
2 1/2-x,1/2+y,1/2-z
3 -x,-y,-z
4 -1/2+x,-1/2-y,-1/2+z
_cell_length_a 10.2963(11)
_cell_length_b 18.681(2)
_cell_length_c 18.452(2)
_cell_angle_alpha 90
_cell_angle_beta 94.552(9)
_cell_angle_gamma 90
_cell_formula_units_Z 8
loop_
_atom_type_symbol
_atom_type_radius_bond
C 0.68
H 0.23
N 0.68
O 0.68
loop_
_atom_site_label
_atom_site_type_symbol
_atom_site_fract_x
_atom_site_fract_y
_atom_site_fract_z
O1 O 0.48756(18) 0.30025(13) 0.63511(13)
N1 N 0.6029(2) 0.30933(14) 0.66327(13)
C1 C 0.6381(3) 0.37337(19) 0.71026(17)
C2 C 0.6307(4) 0.4374(2) 0.6604(2)
H1 H 0.54060 0.44630 0.64330
H2 H 0.68110 0.42820 0.61910
H3 H 0.66570 0.47910 0.68660
C3 C 0.5406(3) 0.3802(2) 0.7658(2)
H4 H 0.45630 0.39280 0.74190
H5 H 0.56840 0.41730 0.80040
H6 H 0.53380 0.33500 0.79120
C4 C 0.7788(3) 0.3544(2) 0.74032(19)
C5 C 0.8809(3) 0.4100(3) 0.7346(4)
H7 H 0.96380 0.39190 0.75570
H8 H 0.85740 0.45260 0.76050
H9 H 0.88800 0.42160 0.68380
C6 C 0.7844(5) 0.3255(3) 0.8191(2)
H10 H 0.87390 0.31410 0.83550
H11 H 0.73150 0.28260 0.82040
H12 H 0.75140 0.36150 0.85070
N2 N 0.8081(2) 0.29174(15) 0.69473(14)
O2 O 0.9205(2) 0.26291(15) 0.69852(15)
C7 C 0.7045(2) 0.26711(17) 0.65494(15)
C8 C 0.7053(2) 0.20118(16) 0.61019(15)
N3 N 0.6789(2) 0.20941(12) 0.54172(12)
C9 C 0.6760(2) 0.14308(15) 0.49748(14)
C10 C 0.6998(3) 0.16752(17) 0.42060(15)
H13 H 0.63360 0.20190 0.40380
H14 H 0.69590 0.12650 0.38830
H15 H 0.78510 0.18960 0.42090
C11 C 0.5364(3) 0.11410(17) 0.49744(17)
H16 H 0.47540 0.15020 0.47810
H17 H 0.51780 0.10230 0.54680
H18 H 0.52770 0.07150 0.46740
C12 C 0.7788(2) 0.08883(16) 0.52769(16)
C13 C 0.7618(3) 0.01550(17) 0.4917(2)
H19 H 0.82820 -0.01690 0.51260
H20 H 0.77000 0.02010 0.43990
H21 H 0.67630 -0.00330 0.49970
C14 C 0.9186(3) 0.11439(18) 0.52377(17)
H22 H 0.92920 0.16080 0.54700
H23 H 0.93770 0.11830 0.47330
H24 H 0.97780 0.08030 0.54850
N4 N 0.7626(2) 0.07943(15) 0.60798(14)
O3 O 0.7892(2) 0.01718(13) 0.63584(14)
C15 C 0.7356(2) 0.13434(19) 0.64788(16)
C16 C 0.7335(3) 0.1256(2) 0.72788(16)
H25 H 0.75800 0.07690 0.74130
H26 H 0.64640 0.13530 0.74200
H27 H 0.79460 0.15880 0.75250
O4 O 0.6077(7) 0.0120(5) 0.9223(5)
N5 N 0.6149(8) 0.0868(5) 0.9355(4)
C17 C 0.7174(9) 0.1033(5) 0.9890(6)
C18 C 0.8261(5) 0.1195(4) 0.9360(4)
H28 H 0.85330 0.16900 0.94140
H29 H 0.79170 0.11100 0.88620
H30 H 0.90020 0.08840 0.94760
N6 N 0.5876(6) 0.2036(5) 0.9328(4)
O5 O 0.5496(6) 0.2648(4) 0.9087(4)
C19 C 0.5334(8) 0.1452(5) 0.9142(5)
C20 C 0.4214(8) 0.1118(5) 0.8627(5)
N7 N 0.4373(4) 0.0927(3) 0.8011(3)
C21 C 0.3267(5) 0.0827(3) 0.7462(3)
C22 C 0.2815(8) 0.0063(5) 0.7510(6)
H31 H 0.35370 -0.02570 0.74410
H32 H 0.21180 -0.00250 0.71350
H33 H 0.25000 -0.00220 0.79840
C23 C 0.3847(8) 0.0937(5) 0.6736(5)
H34 H 0.45100 0.05770 0.66780
H35 H 0.42340 0.14090 0.67240
H36 H 0.31650 0.08930 0.63440
C24 C 0.2161(5) 0.1398(4) 0.7569(3)
C25 C 0.0952(7) 0.1237(5) 0.7060(5)
H37 H 0.10180 0.14820 0.66010
H38 H 0.01810 0.14010 0.72810
H39 H 0.08890 0.07250 0.69750
C26 C 0.2512(9) 0.2202(4) 0.7480(5)
H40 H 0.25040 0.23170 0.69670
H41 H 0.33730 0.22920 0.77140
H42 H 0.18790 0.24970 0.77020
N8 N 0.2041(5) 0.0955(3) 0.8438(4)
O6 O 0.0940(4) 0.0743(3) 0.8647(3)
C27 C 0.2765(8) 0.1181(5) 0.8830(4)
C28 C 0.2409(7) 0.1295(6) 0.9643(5)
H43 H 0.14730 0.13460 0.96520
H44 H 0.28350 0.17240 0.98390
H45 H 0.27020 0.08860 0.99350
C29 C 0.7588(9) 0.0628(5) 1.0491(5)
H46 H 0.68970 0.04610 1.07770
H47 H 0.83200 0.07890 1.08130
H48 H 0.78650 0.02410 1.01890
C30 C 0.7201(11) 0.2441(6) 1.0311(7)
H49 H 0.72040 0.28980 1.00600
H50 H 0.80090 0.23850 1.06120
H51 H 0.64730 0.24260 1.06140
C31 C 0.6515(6) 0.1800(4) 1.0112(4)
C32 C 0.5825(8) 0.1741(5) 1.0762(4)
H52 H 0.52720 0.21570 1.08030
H53 H 0.52920 0.13120 1.07350
H54 H 0.64470 0.17140 1.11840
O7? O 0.5735(10) 0.0196(5) 0.9436(7)
N9? N 0.5948(8) 0.0752(6) 0.9537(5)
C33? C 0.7086(11) 0.1248(5) 1.0009(7)
C34? C 0.8282(7) 0.2009(8) 0.9284(6)
H55? H 0.91350 0.22130 0.92310
H56? H 0.83750 0.15700 0.95630
H57? H 0.77600 0.23480 0.95350
C35? C 0.7452(11) 0.2548(6) 1.0144(7)
H58? H 0.78300 0.26100 0.96830
H59? H 0.81430 0.25020 1.05300
H60? H 0.69190 0.29610 1.02370
N10? N 0.5476(6) 0.1872(5) 0.9502(4)
O8? O 0.4861(4) 0.2454(3) 0.9374(3)
C36? C 0.5215(10) 0.1196(5) 0.9180(6)
C37? C 0.4056(8) 0.1334(5) 0.8626(5)
N11? N 0.4366(4) 0.1476(3) 0.7953(3)
C38? C 0.3165(5) 0.1426(4) 0.7433(3)
C39? C 0.2579(10) 0.2135(7) 0.7438(7)
H61? H 0.22240 0.22160 0.79020
H62? H 0.18870 0.21680 0.70510
H63? H 0.32370 0.24940 0.73640
C40? C 0.3683(9) 0.1287(5) 0.6684(5)
H64? H 0.29560 0.12480 0.63180
H65? H 0.41790 0.08450 0.67000
H66? H 0.42400 0.16810 0.65610
C41? C 0.2273(6) 0.0851(4) 0.7649(3)
C42? C 0.2888(13) 0.0102(8) 0.7635(7)
H67? H 0.30500 -0.00210 0.71400
H68? H 0.22980 -0.02460 0.78210
H69? H 0.37040 0.01000 0.79360
C43? C 0.0919(8) 0.0859(5) 0.7223(5)
H70? H 0.05690 0.13410 0.72190
H71? H 0.03370 0.05390 0.74560
H72? H 0.10020 0.07010 0.67280
N12? N 0.1830(5) 0.1351(3) 0.8350(3)
O9? O 0.0662(3) 0.1457(3) 0.8482(2)
C44? C 0.2998(10) 0.1253(6) 0.8958(6)
C45? C 0.2831(9) 0.1243(5) 0.9697(5)
H73? H 0.19120 0.11970 0.97690
H74? H 0.31640 0.16840 0.99180
H75? H 0.33020 0.08400 0.99210
C46? C 0.8181(11) 0.0704(8) 1.0166(9)
H76? H 0.80570 0.01920 1.01040
H77? H 0.83150 0.08160 1.06790
H78? H 0.89380 0.08540 0.99230
C47? C 0.7089(8) 0.1936(5) 0.9846(4)
H79? H 0.57980 0.16430 1.10180
H80? H 0.71690 0.13140 1.08660
H81? H 0.60310 0.08060 1.10840
C48? C 0.6235(14) 0.1235(8) 1.0820(6)
#END
