
#######################################################################
#
#                 Cambridge Crystallographic Data Centre
#                                CCDC
#
#######################################################################
#
# If this CIF has been generated from an entry in the Cambridge
# Structural Database, then it will include bibliographic, chemical,
# crystal, experimental, refinement or atomic coordinate data resulting
# from the CCDC's data processing and validation procedures.
#
#######################################################################

data_CSD_CIF_XIJWEU
_audit_creation_date 2013-09-04
_audit_creation_method CSD-ConQuest-V1
_database_code_CSD XIJWEU
_database_code_depnum_ccdc_archive 'CCDC 959090'
_chemical_formula_sum 'C15 H26 N4 O3'
_chemical_formula_moiety
;
C15 H26 N4 O3
;
_journal_coden_Cambridge 95
_journal_year 2012
_journal_page_first 1454
_journal_name_full 'Izv.Akad.Nauk SSSR,Ser.Khim.(Russ.)(Russ.Chem.Bull.) '
loop_
_publ_author_name
"M.V.Varaksin"
"E.V.Tretyakov"
"I.A.Utepova"
"G.V.Romanenko"
"A.S.Bogomyakov"
"D.V.Stas"
"R.Z.Sagdeev"
"V.I.Ovcharenko"
"O.N.Chupakhin"
_chemical_name_systematic
;
5-(1-Hydroxy-4,4,5,5-tetramethyl-4,5-dihydro-1H-imidazol-2-yl)-2,2,3,3-tetrame
thyl-2,3-dihydropyrazine 1,4-dioxide
;
_chemical_melting_point 433.15
_cell_volume   3248.214
_exptl_crystal_colour 'colorless'
_exptl_crystal_density_diffrn 1.269
_exptl_special_details
;
Melting point range 433.15-435.15K

;
_exptl_crystal_description 'needle'
_exptl_crystal_preparation 'dichloromethane/n-heptane'
_diffrn_ambient_temperature 240
#These two values have been output from a single CSD field.
_refine_ls_R_factor_gt 0.0676
_refine_ls_wR_factor_gt 0.0676
_symmetry_cell_setting monoclinic
_symmetry_space_group_name_H-M 'C 2/c'
_symmetry_Int_Tables_number 15
loop_
_symmetry_equiv_pos_site_id
_symmetry_equiv_pos_as_xyz
1 x,y,z
2 -x,y,1/2-z
3 1/2+x,1/2+y,z
4 1/2-x,1/2+y,1/2-z
5 -x,-y,-z
6 x,-y,-1/2+z
7 -1/2-x,-1/2-y,-z
8 -1/2+x,-1/2-y,-1/2+z
_cell_length_a 43.572(3)
_cell_length_b 6.8063(5)
_cell_length_c 11.2344(9)
_cell_angle_alpha 90
_cell_angle_beta 102.855(5)
_cell_angle_gamma 90
_cell_formula_units_Z 8
loop_
_atom_type_symbol
_atom_type_radius_bond
C 0.68
H 0.23
N 0.68
O 0.68
loop_
_atom_site_label
_atom_site_type_symbol
_atom_site_fract_x
_atom_site_fract_y
_atom_site_fract_z
N1 N 0.16364(6) 0.4065(4) 0.2007(2)
O1 O 0.14549(6) 0.3135(4) 0.0960(2)
H1 H 0.15130 0.35190 0.03450
C1 C 0.18426(8) 0.2701(6) 0.2854(3)
C2 C 0.2126(1) 0.2112(6) 0.2361(4)
H2 H 0.20590 0.12630 0.16570
H3 H 0.22760 0.14170 0.29880
H4 H 0.22250 0.32790 0.21200
C3 C 0.16603(11) 0.0854(6) 0.3063(4)
H5 H 0.16210 0.00510 0.23310
H6 H 0.14610 0.12330 0.32480
H7 H 0.17830 0.01110 0.37400
C4 C 0.19131(9) 0.4076(6) 0.3996(3)
C5 C 0.19874(11) 0.2996(7) 0.5206(4)
H8 H 0.20310 0.39410 0.58690
H9 H 0.21700 0.21660 0.52460
H10 H 0.18090 0.21910 0.52770
C6 C 0.21719(9) 0.5600(7) 0.3954(4)
H11 H 0.22070 0.64070 0.46830
H12 H 0.21060 0.64260 0.32390
H13 H 0.23650 0.49270 0.39120
N2 N 0.16124(7) 0.5220(4) 0.3861(3)
C7 C 0.14743(8) 0.5122(5) 0.2726(3)
C8 C 0.11722(8) 0.6145(5) 0.2250(3)
N3 N 0.10922(6) 0.6779(5) 0.1142(2)
O2 O 0.12716(10) 0.6983(6) 0.0428(4)
C9 C 0.07905(8) 0.7900(5) 0.0742(3)
C10 C 0.08751(11) 1.0052(6) 0.1051(4)
H14 H 0.09420 1.02010 0.19290
H15 H 0.06920 1.08720 0.07480
H16 H 0.10450 1.04460 0.06710
C11 C 0.06841(10) 0.7678(7) -0.0651(3)
H17 H 0.06310 0.63160 -0.08520
H18 H 0.08530 0.80850 -0.10310
H19 H 0.05010 0.84950 -0.09480
C12 C 0.05401(8) 0.7111(5) 0.1384(3)
C13 C 0.0444(1) 0.4983(6) 0.1046(3)
H20 H 0.02850 0.45750 0.14790
H21 H 0.06270 0.41370 0.12730
H22 H 0.03590 0.48910 0.01740
C14 C 0.02507(10) 0.8404(7) 0.1182(4)
H23 H 0.00990 0.78440 0.16020
H24 H 0.01580 0.84880 0.03150
H25 H 0.03100 0.97080 0.15010
N4 N 0.06835(6) 0.7039(4) 0.2743(2)
O3 O 0.05016(6) 0.7311(4) 0.3479(2)
C15 C 0.09764(8) 0.6502(5) 0.3107(3)
H26 H 0.10620 0.63440 0.39460
#END
