
#######################################################################
#
#                 Cambridge Crystallographic Data Centre
#                                CCDC
#
#######################################################################
#
# If this CIF has been generated from an entry in the Cambridge
# Structural Database, then it will include bibliographic, chemical,
# crystal, experimental, refinement or atomic coordinate data resulting
# from the CCDC's data processing and validation procedures.
#
#######################################################################

data_CSD_CIF_XIJWUK
_audit_creation_date 2013-09-04
_audit_creation_method CSD-ConQuest-V1
_database_code_CSD XIJWUK
_database_code_depnum_ccdc_archive 'CCDC 903807'
_chemical_formula_sum 'C18 H16 N2 O2'
_chemical_formula_moiety
;
C18 H16 N2 O2
;
_journal_coden_Cambridge 122
_journal_year 2012
_journal_page_first 1651
_journal_name_full 'Khim.Get.Soedin.,SSSR(Russ.)(Chem.Heterocycl.Compd.) '
loop_
_publ_author_name
"D.A.Rudenko"
"P.A.Slepukhin"
"V.I.Karmanov"
"S.N.Shurov"
"M.I.Vakhrin"
"Yu.A.Shchurov"
_chemical_name_systematic
;
8,8-Dimethyl-5-phenyl-8,9-dihydro-3H,7H-[1,2]oxazino[5,4,3-de]quinolin-3-one
;
_cell_volume    751.918
_exptl_crystal_colour 'colorless'
_exptl_crystal_density_diffrn 1.291
_exptl_crystal_description 'prism'
_diffrn_ambient_temperature 295
#These two values have been output from a single CSD field.
_refine_ls_R_factor_gt 0.0428
_refine_ls_wR_factor_gt 0.0428
_symmetry_cell_setting triclinic
_symmetry_space_group_name_H-M 'P -1'
_symmetry_Int_Tables_number 2
loop_
_symmetry_equiv_pos_site_id
_symmetry_equiv_pos_as_xyz
1 x,y,z
2 -x,-y,-z
_cell_length_a 6.0405(6)
_cell_length_b 11.8451(11)
_cell_length_c 12.0501(12)
_cell_angle_alpha 117.838(10)
_cell_angle_beta 93.803(8)
_cell_angle_gamma 95.908(8)
_cell_formula_units_Z 2
loop_
_atom_type_symbol
_atom_type_radius_bond
C 0.68
H 0.23
N 0.68
O 0.68
loop_
_atom_site_label
_atom_site_type_symbol
_atom_site_fract_x
_atom_site_fract_y
_atom_site_fract_z
N1 N 0.36171(19) 0.43650(12) 0.29965(11)
C1 C 0.6606(2) 0.41306(15) 0.17513(13)
C2 C 0.5836(2) 0.28276(15) 0.10367(14)
C3 C 0.2896(2) 0.30829(14) 0.23156(13)
O1 O 0.89516(19) 0.26752(12) -0.01521(11)
C4 C 0.0904(2) 0.25777(14) 0.26935(14)
C5 C 0.5421(2) 0.48908(14) 0.27276(13)
C6 C 0.3960(2) 0.22838(15) 0.13046(14)
H1 H 0.34170 0.14070 0.08240
N2 N 0.9787(2) 0.40254(15) 0.06201(14)
C7 C 0.8635(2) 0.46790(16) 0.15015(15)
C8 C 0.6206(2) 0.63032(15) 0.35078(15)
H2 H 0.70770 0.64580 0.42850
H3 H 0.49080 0.67430 0.37360
C9 C 0.9511(2) 0.60724(16) 0.23394(16)
H4 H 1.03700 0.63990 0.18700
H5 H 1.05180 0.61620 0.30470
C10 C 0.7079(3) 0.20485(18) 0.00023(16)
C11 C -0.2132(3) 0.29863(17) 0.39630(15)
H6 H -0.28830 0.35700 0.45790
O2 O 0.6569(2) 0.09155(12) -0.07175(12)
C12 C -0.0251(2) 0.34258(15) 0.36093(14)
H7 H 0.02570 0.43090 0.39920
C13 C 0.7636(2) 0.68914(15) 0.28505(15)
C14 C -0.2895(3) 0.16914(18) 0.34077(17)
H8 H -0.41780 0.13930 0.36370
C15 C 0.0116(3) 0.12711(16) 0.21600(18)
H9 H 0.08690 0.06780 0.15540
C16 C 0.8686(3) 0.82689(16) 0.37928(18)
H10 H 0.95730 0.82700 0.44840
H11 H 0.75220 0.87870 0.41080
H12 H 0.96240 0.86190 0.33810
C17 C -0.1775(3) 0.08377(18) 0.25175(19)
H13 H -0.22870 -0.00440 0.21480
C18 C 0.6187(3) 0.68919(17) 0.17586(16)
H14 H 0.50150 0.74000 0.20830
H15 H 0.55350 0.60220 0.11610
H16 H 0.71030 0.72540 0.13470
#END
