
#######################################################################
#
#                 Cambridge Crystallographic Data Centre
#                                CCDC
#
#######################################################################
#
# If this CIF has been generated from an entry in the Cambridge
# Structural Database, then it will include bibliographic, chemical,
# crystal, experimental, refinement or atomic coordinate data resulting
# from the CCDC's data processing and validation procedures.
#
#######################################################################

data_CSD_CIF_XIKBIE
_audit_creation_date 2013-09-04
_audit_creation_method CSD-ConQuest-V1
_database_code_CSD XIKBIE
_database_code_depnum_ccdc_archive 'CCDC 883695'
_chemical_formula_sum 'C27 H22 N2 O3'
_chemical_formula_moiety
;
C27 H22 N2 O3
;
_journal_coden_Cambridge 35
_journal_volume 77
_journal_year 2012
_journal_page_first 8451
_journal_name_full 'J.Org.Chem. '
loop_
_publ_author_name
"C.Ramesh"
"Po-Min Lei"
"D.Janreddy"
"V.Kavala"
"Chun-Wei Kuo"
"Ching-Fa Yao"
_chemical_name_systematic
;
(E)-2-(2-Nitrobenzylidene)-3-(2-phenyl-1H-indol-3-yl)cyclohexanone
;
_cell_volume   2182.174
_exptl_crystal_colour 'yellow'
_exptl_crystal_density_diffrn 1.286
_exptl_crystal_description 'prism'
_diffrn_ambient_temperature 293
#These two values have been output from a single CSD field.
_refine_ls_R_factor_gt 0.0708
_refine_ls_wR_factor_gt 0.0708
loop_
_citation_database_id_CSD
_citation_special_details
XIKBEA "is a stereoisomer of this entry"
_symmetry_cell_setting monoclinic
_symmetry_space_group_name_H-M 'P 21/c'
_symmetry_Int_Tables_number 14
loop_
_symmetry_equiv_pos_site_id
_symmetry_equiv_pos_as_xyz
1 x,y,z
2 -x,1/2+y,1/2-z
3 -x,-y,-z
4 x,-1/2-y,-1/2+z
_cell_length_a 9.4871(4)
_cell_length_b 16.6809(7)
_cell_length_c 14.2027(8)
_cell_angle_alpha 90
_cell_angle_beta 103.861(2)
_cell_angle_gamma 90
_cell_formula_units_Z 4
loop_
_atom_type_symbol
_atom_type_radius_bond
C 0.68
H 0.23
N 0.68
O 0.68
loop_
_atom_site_label
_atom_site_type_symbol
_atom_site_fract_x
_atom_site_fract_y
_atom_site_fract_z
O1 O 0.2997(6) -0.0576(3) 0.0683(5)
O2 O 0.4517(5) 0.0327(2) 0.1074(3)
O3 O 0.6806(3) 0.2259(2) 0.1457(2)
N1 N 0.3382(6) 0.0095(3) 0.0602(4)
N2 N -0.0137(3) 0.18628(16) 0.1598(2)
H1 H -0.10450 0.17480 0.15010
C1 C 0.2489(5) 0.0614(2) -0.0134(3)
C2 C 0.1249(7) 0.0281(3) -0.0710(5)
H2 H 0.10250 -0.02530 -0.06310
C3 C 0.0343(6) 0.0743(3) -0.1404(4)
H3 H -0.04910 0.05210 -0.17990
C4 C 0.0680(5) 0.1534(3) -0.1509(3)
H4 H 0.00800 0.18490 -0.19790
C5 C 0.1907(4) 0.1856(2) -0.0914(3)
H5 H 0.21090 0.23950 -0.09890
C6 C 0.2855(4) 0.1418(2) -0.0211(3)
C7 C 0.4180(4) 0.1797(2) 0.0357(3)
H6 H 0.50470 0.15400 0.03480
C8 C 0.4291(3) 0.2462(2) 0.0881(2)
C9 C 0.5797(4) 0.2728(3) 0.1337(3)
C10 C 0.6076(4) 0.3576(3) 0.1642(4)
H7 H 0.67040 0.38110 0.12680
H8 H 0.66020 0.35840 0.23170
C11 C 0.4741(5) 0.4105(3) 0.1530(4)
H9 H 0.49720 0.45700 0.19490
H10 H 0.44280 0.42910 0.08650
C12 C 0.3547(4) 0.3631(2) 0.1796(3)
H11 H 0.27410 0.39860 0.18100
H12 H 0.38980 0.34090 0.24410
C13 C 0.3009(3) 0.29448(19) 0.1072(2)
H13 H 0.25000 0.31880 0.04560
C14 C 0.1942(3) 0.24219(17) 0.1412(2)
C15 C 0.2281(3) 0.18362(18) 0.2170(2)
C16 C 0.3567(4) 0.15766(19) 0.2796(2)
H14 H 0.44560 0.17770 0.27350
C17 C 0.3510(4) 0.1021(2) 0.3502(3)
H15 H 0.43640 0.08530 0.39270
C18 C 0.2188(5) 0.0710(2) 0.3588(3)
H16 H 0.21740 0.03350 0.40700
C19 C 0.0903(4) 0.0942(2) 0.2978(3)
H17 H 0.00250 0.07240 0.30330
C20 C 0.0954(3) 0.15120(19) 0.2275(2)
C21 C 0.0447(3) 0.24345(17) 0.1088(2)
C22 C -0.0538(3) 0.29006(19) 0.0332(2)
C23 C -0.1624(4) 0.2516(2) -0.0335(3)
H18 H -0.17150 0.19620 -0.03070
C24 C -0.2576(5) 0.2942(3) -0.1043(3)
H19 H -0.32950 0.26720 -0.14900
C25 C -0.2476(4) 0.3762(3) -0.1096(3)
H20 H -0.31090 0.40480 -0.15820
C26 C -0.1427(4) 0.4152(2) -0.0421(3)
H21 H -0.13640 0.47080 -0.04410
C27 C -0.0460(4) 0.3728(2) 0.0291(3)
H22 H 0.02470 0.40010 0.07440
#END
