
#######################################################################
#
#                 Cambridge Crystallographic Data Centre
#                                CCDC
#
#######################################################################
#
# If this CIF has been generated from an entry in the Cambridge
# Structural Database, then it will include bibliographic, chemical,
# crystal, experimental, refinement or atomic coordinate data resulting
# from the CCDC's data processing and validation procedures.
#
#######################################################################

data_CSD_CIF_XIKBEA
_audit_creation_date 2013-09-04
_audit_creation_method CSD-ConQuest-V1
_database_code_CSD XIKBEA
_database_code_depnum_ccdc_archive 'CCDC 883698'
_chemical_formula_sum 'C27 H22 N2 O3'
_chemical_formula_moiety
;
C27 H22 N2 O3
;
_journal_coden_Cambridge 35
_journal_volume 77
_journal_year 2012
_journal_page_first 8451
_journal_name_full 'J.Org.Chem. '
loop_
_publ_author_name
"C.Ramesh"
"Po-Min Lei"
"D.Janreddy"
"V.Kavala"
"Chun-Wei Kuo"
"Ching-Fa Yao"
_chemical_name_systematic
;
(Z)-2-(2-Nitrobenzylidene)-3-(2-phenyl-1H-indol-3-yl)cyclohexanone
;
_cell_volume   2144.525
_exptl_crystal_colour 'colorless'
_exptl_crystal_density_diffrn 1.308
_exptl_crystal_description 'prism'
_diffrn_ambient_temperature 200
_refine_special_details
;
O1 and O1' disordered over two sites with occupancies 0.52:0.48.

;
#These two values have been output from a single CSD field.
_refine_ls_R_factor_gt 0.0471
_refine_ls_wR_factor_gt 0.0471
loop_
_citation_database_id_CSD
_citation_special_details
XIKBIE "is a stereoisomer of this entry"
_symmetry_cell_setting monoclinic
_symmetry_space_group_name_H-M 'P 21/c'
_symmetry_Int_Tables_number 14
loop_
_symmetry_equiv_pos_site_id
_symmetry_equiv_pos_as_xyz
1 x,y,z
2 -x,1/2+y,1/2-z
3 -x,-y,-z
4 x,-1/2-y,-1/2+z
_cell_length_a 9.9265(3)
_cell_length_b 13.7635(5)
_cell_length_c 16.0077(6)
_cell_angle_alpha 90
_cell_angle_beta 101.314(2)
_cell_angle_gamma 90
_cell_formula_units_Z 4
loop_
_atom_type_symbol
_atom_type_radius_bond
C 0.68
H 0.23
N 0.68
O 0.68
loop_
_atom_site_label
_atom_site_type_symbol
_atom_site_fract_x
_atom_site_fract_y
_atom_site_fract_z
C1 C 1.2599(2) 0.51896(17) 0.06205(15)
C2 C 1.3569(2) 0.58114(19) 0.04057(15)
H1 H 1.40520 0.56400 -0.00300
C3 C 1.3828(2) 0.66784(17) 0.08281(15)
H2 H 1.44980 0.71110 0.06900
C4 C 1.3112(2) 0.69190(17) 0.14526(14)
H3 H 1.32730 0.75260 0.17370
C5 C 1.2160(2) 0.62807(15) 0.16688(14)
H4 H 1.16800 0.64580 0.21040
C6 C 1.18846(19) 0.53890(15) 0.12673(13)
C7 C 1.09310(19) 0.47149(15) 0.15885(14)
H5 H 0.99750 0.48390 0.14180
C8 C 1.12988(19) 0.39574(15) 0.20907(14)
C9 C 1.2778(2) 0.36736(16) 0.23335(19)
C10 C 1.3286(3) 0.3455(3) 0.3250(2)
H6 H 1.33820 0.40700 0.35780
H7 H 1.42050 0.31510 0.33240
C11 C 1.2328(3) 0.2784(2) 0.3596(2)
H8 H 1.26620 0.27000 0.42160
H9 H 1.23330 0.21390 0.33240
C12 C 1.0865(2) 0.31715(18) 0.34385(16)
H10 H 1.08460 0.37890 0.37520
H11 H 1.02690 0.27000 0.36610
C13 C 1.02933(19) 0.33465(15) 0.24818(14)
H12 H 1.02380 0.26960 0.21980
C14 C 0.88521(19) 0.37500(15) 0.23240(14)
C15 C 0.83915(19) 0.45869(15) 0.27339(14)
C16 C 0.9043(2) 0.53118(16) 0.32897(15)
H13 H 1.00120 0.53030 0.34810
C17 C 0.8262(2) 0.60332(17) 0.35535(17)
H14 H 0.86990 0.65190 0.39340
C18 C 0.6837(2) 0.60646(17) 0.32726(17)
H15 H 0.63260 0.65730 0.34640
C19 C 0.6163(2) 0.53735(16) 0.27249(16)
H16 H 0.51950 0.53950 0.25350
C20 C 0.69509(19) 0.46393(15) 0.24584(14)
C21 C 0.77084(19) 0.33484(15) 0.18089(13)
C22 C 0.7558(2) 0.25095(16) 0.12339(14)
C23 C 0.8516(2) 0.23131(17) 0.07229(14)
H17 H 0.92930 0.27240 0.07500
C24 C 0.8339(2) 0.15204(18) 0.01743(16)
H18 H 0.90040 0.13880 -0.01640
C25 C 0.7212(3) 0.09268(19) 0.01162(16)
H19 H 0.70990 0.03860 -0.02600
C26 C 0.6243(3) 0.11205(19) 0.06078(17)
H20 H 0.54550 0.07180 0.05630
C27 C 0.6421(2) 0.19001(18) 0.11645(15)
H21 H 0.57560 0.20220 0.15050
N1 N 1.2354(3) 0.4280(2) 0.01425(18)
N2 N 0.65598(16) 0.38842(13) 0.19082(12)
H22 H 0.57090 0.37560 0.16550
O1 O 1.3495(9) 0.3795(8) 0.0075(6)
O2 O 1.1203(2) 0.39151(16) 0.00325(13)
O3 O 1.35267(15) 0.36404(12) 0.18117(14)
O4? O 1.3086(13) 0.4111(9) -0.0363(7)
#END
