
#######################################################################
#
#                 Cambridge Crystallographic Data Centre
#                                CCDC
#
#######################################################################
#
# If this CIF has been generated from an entry in the Cambridge
# Structural Database, then it will include bibliographic, chemical,
# crystal, experimental, refinement or atomic coordinate data resulting
# from the CCDC's data processing and validation procedures.
#
#######################################################################

data_CSD_CIF_XIKQEP
_audit_creation_date 2013-09-04
_audit_creation_method CSD-ConQuest-V1
_database_code_CSD XIKQEP
_database_code_depnum_ccdc_archive 'CCDC 941171'
_chemical_formula_sum 'C22 H22 N4 O6'
_chemical_formula_moiety
;
C22 H22 N4 O6
;
_journal_coden_Cambridge 182
_journal_volume 49
_journal_year 2013
_journal_page_first 9329
_journal_name_full 'Chem.Commun. '
loop_
_publ_author_name
"Jinlong Zhang"
"Xihong Liu"
"Xiaojuan Ma"
"Rui Wang"
_chemical_name_systematic
;
t-Butyl 
2-(1-(4-cyanophenyl)-2-(3-methyl-4-nitro-1,2-oxazol-5-yl)ethyl)-5-oxo-2,5-dihy
dro-1H-pyrrole-1-carboxylate unknown solvate
;
_cell_volume   3562.464
_exptl_crystal_colour 'light colorless'
_exptl_crystal_density_diffrn 1.226
_exptl_crystal_description 'needle'
_diffrn_ambient_temperature 296.2
_refine_special_details
;
Disordered solvent molecules were not modelled and the disordered density was 
taken into account using the SQUEEZE/PLATON procedure.
;
#These two values have been output from a single CSD field.
_refine_ls_R_factor_gt 0.0869
_refine_ls_wR_factor_gt 0.0869
_symmetry_cell_setting hexagonal
_symmetry_space_group_name_H-M 'P 65'
_symmetry_Int_Tables_number 170
loop_
_symmetry_equiv_pos_site_id
_symmetry_equiv_pos_as_xyz
1 x,y,z
2 x-y,x,5/6+z
3 -y,x-y,2/3+z
4 -x,-y,1/2+z
5 -x+y,-x,1/3+z
6 y,-x+y,1/6+z
_cell_length_a 19.467(1)
_cell_length_b 19.467(1)
_cell_length_c 10.8548(6)
_cell_angle_alpha 90
_cell_angle_beta 90
_cell_angle_gamma 120
_cell_formula_units_Z 6
loop_
_atom_type_symbol
_atom_type_radius_bond
C 0.68
H 0.23
N 0.68
O 0.68
loop_
_atom_site_label
_atom_site_type_symbol
_atom_site_fract_x
_atom_site_fract_y
_atom_site_fract_z
O1 O -0.5487(3) -0.5758(3) -0.3331(4)
O2 O -0.5907(3) -0.8471(3) -0.7602(5)
O3 O -0.7529(4) -0.7995(5) -0.6050(9)
O4 O -0.8356(5) -0.9138(6) -0.6695(15)
O5 O -0.6878(2) -0.6088(3) -0.6464(4)
O6 O -0.6881(2) -0.6163(3) -0.4389(4)
N1 N -0.3479(4) -0.5900(3) -1.2520(5)
N2 N -0.6455(6) -0.9214(4) -0.8102(8)
N3 N -0.7679(4) -0.8593(5) -0.6582(9)
N4 N -0.5817(3) -0.5981(3) -0.5417(4)
C1 C -0.5427(3) -0.6276(3) -0.9489(5)
H1 H -0.58420 -0.61690 -0.94570
C2 C -0.5004(3) -0.6114(3) -1.0531(5)
H2 H -0.51340 -0.59090 -1.12080
C3 C -0.4369(3) -0.6253(3) -1.0596(5)
C4 C -0.4196(3) -0.6581(3) -0.9588(6)
H3 H -0.37790 -0.66850 -0.96270
C5 C -0.4647(3) -0.6751(3) -0.8527(5)
H4 H -0.45280 -0.69710 -0.78570
C6 C -0.5270(3) -0.6603(3) -0.8437(5)
C7 C -0.5746(3) -0.6721(3) -0.7273(4)
H5 H -0.62800 -0.68520 -0.75270
C8 C -0.5383(3) -0.5927(3) -0.6549(5)
H6 H -0.53790 -0.55190 -0.70820
C9 C -0.4563(4) -0.5645(4) -0.6097(7)
H7 H -0.41320 -0.55320 -0.65970
C10 C -0.4535(4) -0.5575(4) -0.4866(7)
H8 H -0.40830 -0.54180 -0.43910
C11 C -0.5311(3) -0.5779(3) -0.4374(6)
C12 C -0.5834(4) -0.7395(3) -0.6436(5)
H9 H -0.53110 -0.73070 -0.62310
H10 H -0.60900 -0.73850 -0.56750
C13 C -0.6296(4) -0.8176(3) -0.7005(5)
C14 C -0.7082(5) -0.8693(4) -0.7097(7)
C15 C -0.7157(6) -0.9356(4) -0.7843(9)
C16 C -0.7871(8) -1.0112(7) -0.8228(16)
H11 H -0.78450 -1.01890 -0.90970
H12 H -0.83400 -1.00870 -0.80470
H13 H -0.78850 -1.05470 -0.77890
C17 C -0.3888(4) -0.6055(3) -1.1675(6)
C18 C -0.6576(3) -0.6082(3) -0.5490(5)
C19 C -0.7670(4) -0.6221(4) -0.4188(6)
C20 C -0.8297(5) -0.6965(6) -0.4831(12)
H14 H -0.81190 -0.69910 -0.56450
H15 H -0.87830 -0.69510 -0.48830
H16 H -0.83870 -0.74240 -0.43700
C21 C -0.7660(5) -0.5490(5) -0.4675(9)
H17 H -0.72380 -0.50280 -0.42890
H18 H -0.81570 -0.55210 -0.44960
H19 H -0.75770 -0.54570 -0.55500
C22 C -0.7746(7) -0.6256(7) -0.2808(10)
H20 H -0.75590 -0.65920 -0.24840
H21 H -0.82930 -0.64680 -0.25850
H22 H -0.74360 -0.57320 -0.24730
#END
