
#######################################################################
#
#                 Cambridge Crystallographic Data Centre
#                                CCDC
#
#######################################################################
#
# If this CIF has been generated from an entry in the Cambridge
# Structural Database, then it will include bibliographic, chemical,
# crystal, experimental, refinement or atomic coordinate data resulting
# from the CCDC's data processing and validation procedures.
#
#######################################################################

data_CSD_CIF_XILXOI
_audit_creation_date 2018-09-07
_audit_creation_method CSD-ConQuest-V1
_database_code_CSD XILXOI
_database_code_depnum_ccdc_archive 'CCDC 1529649'
_chemical_formula_sum 'C16 H13 N3 O5'
_chemical_formula_moiety
;
C16 H13 N3 O5
;
_journal_coden_Cambridge 1475
_journal_volume 8
_journal_year 2017
_journal_page_first 4299
_journal_name_full 'Chemical Science '
loop_
_publ_author_name
"Li-Jie Cheng"
"A.P.N.Brown"
"C.J.Cordier"
_chemical_name_systematic
;
3,5-dinitro-1-(5-phenylpent-1-yn-3-yl)pyridin-2(1H)-one
;
_cell_volume    742.122
_exptl_crystal_colour 'colorless'
_exptl_crystal_density_diffrn 1.465
_exptl_special_details
;
Absolute configuration

;
_exptl_crystal_description 'platy needles'
_diffrn_ambient_temperature 173
#These two values have been output from a single CSD field.
_refine_ls_R_factor_gt 0.0293
_refine_ls_wR_factor_gt 0.0293
_symmetry_cell_setting monoclinic
_symmetry_space_group_name_H-M 'P 21'
_symmetry_Int_Tables_number 4
loop_
_symmetry_equiv_pos_site_id
_symmetry_equiv_pos_as_xyz
1 x,y,z
2 -x,1/2+y,-z
_cell_length_a 7.24510(14)
_cell_length_b 9.38179(17)
_cell_length_c 10.91846(19)
_cell_angle_alpha 90
_cell_angle_beta 90.4932(16)
_cell_angle_gamma 90
_cell_formula_units_Z 2
loop_
_atom_type_symbol
_atom_type_radius_bond
C 0.68
H 0.23
N 0.68
O 0.68
loop_
_atom_site_label
_atom_site_type_symbol
_atom_site_fract_x
_atom_site_fract_y
_atom_site_fract_z
N1 N 0.1520(3) 0.4081(2) 0.76630(16)
C1 C 0.1187(3) 0.3762(2) 0.89153(19)
O1 O 0.0678(2) 0.25798(18) 0.92113(15)
C2 C 0.1578(3) 0.4957(2) 0.97193(19)
C3 C 0.2311(3) 0.6211(2) 0.9347(2)
H1 H 0.26050 0.69450 0.99150
C4 C 0.2618(3) 0.6384(2) 0.8088(2)
C5 C 0.2186(3) 0.5336(2) 0.7279(2)
H2 H 0.23570 0.54930 0.64280
N2 N 0.1190(3) 0.4795(2) 1.10266(17)
O2 O -0.0110(3) 0.4044(2) 1.13258(16)
O3 O 0.2169(3) 0.5445(2) 1.17519(15)
N3 N 0.3455(3) 0.7686(2) 0.76394(19)
O4 O 0.4190(3) 0.8477(2) 0.83860(17)
O5 O 0.3423(3) 0.7901(2) 0.65324(16)
C6 C 0.1183(3) 0.2867(3) 0.6788(2)
H3 H -0.00130 0.24100 0.70160
C7 C 0.2706(3) 0.1723(3) 0.6898(2)
H4 H 0.28530 0.14720 0.77740
H5 H 0.22750 0.08570 0.64640
C8 C 0.4610(3) 0.2121(3) 0.6400(2)
H6 H 0.54240 0.12770 0.64770
H7 H 0.44740 0.23330 0.55150
C9 C 0.5570(3) 0.3373(3) 0.7005(2)
C10 C 0.6338(4) 0.4450(3) 0.6297(2)
H8 H 0.62530 0.43940 0.54300
C11 C 0.7224(4) 0.5605(3) 0.6833(2)
H9 H 0.77450 0.63260 0.63320
C12 C 0.7351(3) 0.5711(3) 0.8095(2)
H10 H 0.79480 0.65060 0.84640
C13 C 0.6597(3) 0.4645(3) 0.8815(2)
H11 H 0.66820 0.47090 0.96820
C14 C 0.5721(3) 0.3488(3) 0.8280(2)
H12 H 0.52170 0.27640 0.87840
C15 C 0.0985(3) 0.3416(3) 0.5537(2)
C16 C 0.0885(4) 0.3822(3) 0.4522(2)
H13 H 0.08050 0.41500 0.37000
#END
