
#######################################################################
#
#                 Cambridge Crystallographic Data Centre
#                                CCDC
#
#######################################################################
#
# If this CIF has been generated from an entry in the Cambridge
# Structural Database, then it will include bibliographic, chemical,
# crystal, experimental, refinement or atomic coordinate data resulting
# from the CCDC's data processing and validation procedures.
#
#######################################################################

data_CSD_CIF_XILZAU
_audit_creation_date 2007-11-23
_audit_creation_method CSD-ConQuest-V1
_database_code_CSD XILZAU
_database_code_depnum_ccdc_archive 'CCDC 664212'
_chemical_formula_sum 'C6 H7 N3 O1'
_chemical_formula_moiety
;
C6 H7 N3 O1
;
_journal_coeditor_code "IUCr LW2034"
_journal_coden_Cambridge 1370
_journal_volume 63
_journal_year 2007
_journal_page_first o4151
_journal_name_full 'Acta Crystallogr.,Sect.E:Struct.Rep.Online '
loop_
_publ_author_name
"Pin-liang Wang"
"Hai-ling Li"
"Hai-su Zeng"
"Si-shun Kang"
"Hai-bo Wang"
_chemical_name_systematic
;
N'-Hydroxynicotinamidine
;
_cell_volume    666.981
_exptl_crystal_colour 'colorless'
_exptl_crystal_density_diffrn 1.366
_exptl_crystal_description 'block'
_exptl_crystal_preparation 'ethanol'
_diffrn_ambient_temperature 293
#These two values have been output from a single CSD field.
_refine_ls_R_factor_gt 0.0595
_refine_ls_wR_factor_gt 0.0595
_symmetry_cell_setting monoclinic
_symmetry_space_group_name_H-M 'P 21/c'
_symmetry_Int_Tables_number 14
loop_
_symmetry_equiv_pos_site_id
_symmetry_equiv_pos_as_xyz
1 x,y,z
2 -x,1/2+y,1/2-z
3 -x,-y,-z
4 x,-1/2-y,-1/2+z
_cell_length_a 5.5220(11)
_cell_length_b 12.365(3)
_cell_length_c 9.797(2)
_cell_angle_alpha 90
_cell_angle_beta 94.38(3)
_cell_angle_gamma 90
_cell_formula_units_Z 4
loop_
_atom_type_symbol
_atom_type_radius_bond
C 0.68
H 0.23
N 0.68
O 0.68
loop_
_atom_site_label
_atom_site_type_symbol
_atom_site_fract_x
_atom_site_fract_y
_atom_site_fract_z
O1 O 0.6266(4) 0.85703(19) 0.2247(2)
H1 H 0.68000 0.86300 0.14920
N1 N -0.1856(5) 0.6347(2) 0.4713(3)
N2 N 0.4172(5) 0.8367(2) 0.4451(3)
H2 H 0.56970 0.87760 0.43550
H3 H 0.46640 0.81360 0.53870
N3 N 0.4391(5) 0.7778(2) 0.2184(3)
C1 C -0.2182(6) 0.5548(3) 0.3844(4)
H4 H -0.34600 0.50730 0.39530
C2 C -0.0749(6) 0.5366(3) 0.2776(4)
H5 H -0.10670 0.47940 0.21720
C3 C 0.1172(6) 0.6057(3) 0.2633(3)
H6 H 0.22060 0.59420 0.19410
C4 C 0.1560(6) 0.6916(2) 0.3512(3)
C5 C 0.0006(6) 0.7027(3) 0.4547(3)
H7 H 0.02590 0.75990 0.51580
C6 C 0.3564(5) 0.7710(2) 0.3388(3)
#END
