
#######################################################################
#
#                 Cambridge Crystallographic Data Centre
#                                CCDC
#
#######################################################################
#
# If this CIF has been generated from an entry in the Cambridge
# Structural Database, then it will include bibliographic, chemical,
# crystal, experimental, refinement or atomic coordinate data resulting
# from the CCDC's data processing and validation procedures.
#
#######################################################################

data_CSD_CIF_XIMROD
_audit_creation_date 2018-09-07
_audit_creation_method CSD-ConQuest-V1
_database_code_CSD XIMROD
_database_code_depnum_ccdc_archive 'CCDC 1861400'
_chemical_formula_sum 'C41 H43 N1 O9'
_chemical_formula_moiety
;
C41 H43 N1 O9
;
_journal_coden_Cambridge 1336
_journal_volume 20
_journal_year 2018
_journal_page_first 5905
_journal_name_full 'Org.Lett. '
loop_
_publ_author_name
"Ya-Jian Hu"
"Jian-Hong Fan"
"Shaoping Li"
"Jing Zhao"
"Chuang-Chuang Li"
_chemical_name_systematic
;
[10-(acetyloxy)-4,5-bis(benzyloxy)-5a,11a-dimethyl-5,5a,6,7,8,10,11,11a-octahy
dro-2,11-methanobenzo[5,6]cycloocta[1,2-b]furan-2(4H)-yl]methyl 
4-nitrobenzoate
;
_cell_volume   1758.903
_exptl_crystal_density_diffrn 1.31
_exptl_crystal_description 'block'
_diffrn_ambient_temperature 293.1
#These two values have been output from a single CSD field.
_refine_ls_R_factor_gt 0.044
_refine_ls_wR_factor_gt 0.044
_symmetry_cell_setting triclinic
_symmetry_space_group_name_H-M 'P -1'
_symmetry_Int_Tables_number 2
loop_
_symmetry_equiv_pos_site_id
_symmetry_equiv_pos_as_xyz
1 x,y,z
2 -x,-y,-z
_cell_length_a 9.3426(4)
_cell_length_b 10.9852(5)
_cell_length_c 17.3448(8)
_cell_angle_alpha 81.969(2)
_cell_angle_beta 86.542(2)
_cell_angle_gamma 88.124(2)
_cell_formula_units_Z 2
loop_
_atom_type_symbol
_atom_type_radius_bond
C 0.68
H 0.23
N 0.68
O 0.68
loop_
_atom_site_label
_atom_site_type_symbol
_atom_site_fract_x
_atom_site_fract_y
_atom_site_fract_z
O1 O -1.05995(14) -0.98233(11) -0.79889(8)
O2 O -0.83952(11) -0.35896(9) -0.91394(6)
O3 O -0.27377(10) -0.20176(9) -0.63695(5)
O4 O -1.02224(12) -0.95441(10) -0.92436(7)
O5 O -0.96553(12) -0.36151(11) -0.79862(7)
O6 O -0.56682(10) -0.22008(9) -0.92418(5)
O7 O -0.33933(10) -0.35690(9) -0.73925(6)
O8 O -0.52245(10) 0.17158(8) -0.85473(5)
O9 O -0.29365(12) 0.21833(11) -0.88980(7)
N1 N -1.02677(13) -0.91810(11) -0.86066(8)
C1 C -0.99013(14) -0.78934(12) -0.85750(8)
C2 C -1.02122(16) -0.74075(14) -0.78887(9)
H1 H -1.05890 -0.78920 -0.74450
C3 C -0.99447(15) -0.61765(14) -0.78827(8)
H2 H -1.01620 -0.58200 -0.74330
C4 C -0.93515(14) -0.54691(13) -0.85471(8)
C5 C -0.91582(14) -0.41313(13) -0.85133(8)
C6 C -0.82824(16) -0.22583(13) -0.92082(9)
H3 H -0.91390 -0.19200 -0.89640
H4 H -0.82360 -0.19190 -0.97560
C7 C -0.69918(14) -0.18705(12) -0.88382(8)
C8 C -0.67027(14) -0.23740(11) -0.79984(8)
H5 H -0.73720 -0.26850 -0.76080
C9 C -0.53021(14) -0.22797(11) -0.79346(7)
C10 C -0.44421(14) -0.26291(11) -0.72331(7)
H6 H -0.50820 -0.29510 -0.67880
C11 C -0.35899(13) -0.15684(12) -0.70141(7)
H7 H -0.29460 -0.12620 -0.74610
C12 C -0.13028(16) -0.23871(17) -0.65932(9)
H8 H -0.08990 -0.17770 -0.70000
H9 H -0.13150 -0.31640 -0.67980
C13 C -0.03945(14) -0.25204(13) -0.58983(8)
C14 C 0.0604(2) -0.34692(18) -0.58068(14)
H10 H 0.06750 -0.40350 -0.61600
C15 C 0.1507(3) -0.3590(2) -0.51916(17)
H11 H 0.21840 -0.42310 -0.51380
C16 C 0.1403(2) -0.27634(19) -0.46592(13)
H12 H 0.19990 -0.28520 -0.42440
C17 C -0.90093(14) -0.59959(13) -0.92219(8)
H13 H -0.85850 -0.55270 -0.96590
C18 C -0.93015(15) -0.72230(13) -0.92418(8)
H14 H -0.90990 -0.75830 -0.96920
C19 C -0.47049(14) -0.17117(12) -0.87426(7)
C20 C -0.40090(16) -0.46637(13) -0.75704(8)
H15 H -0.32440 -0.52200 -0.77160
H16 H -0.45940 -0.44540 -0.80150
C21 C -0.49188(15) -0.53158(12) -0.69010(8)
C22 C -0.43941(18) -0.55503(15) -0.61626(9)
H17 H -0.34860 -0.52900 -0.60800
C23 C -0.5214(2) -0.61710(16) -0.55465(10)
H18 H -0.48470 -0.63350 -0.50550
C24 C -0.6568(2) -0.65458(15) -0.56600(12)
H19 H -0.71140 -0.69670 -0.52470
C25 C -0.71107(19) -0.62952(16) -0.63859(13)
H20 H -0.80320 -0.65340 -0.64620
C26 C -0.62895(18) -0.56868(14) -0.70060(11)
H21 H -0.66620 -0.55270 -0.74960
C27 C -0.45212(14) -0.04655(12) -0.67714(7)
C28 C -0.54550(15) -0.09112(13) -0.60274(8)
H22 H -0.59700 -0.16300 -0.61110
H23 H -0.48360 -0.11550 -0.56000
C29 C -0.65308(16) 0.00685(13) -0.58000(8)
H24 H -0.70690 -0.02450 -0.53220
H25 H -0.60260 0.07880 -0.57090
C30 C -0.75530(15) 0.04205(14) -0.64497(8)
H26 H -0.82450 -0.02220 -0.64350
H27 H -0.80740 0.11720 -0.63630
C31 C -0.67762(14) 0.06080(12) -0.72396(8)
H28 H -0.72500 0.10690 -0.76430
C32 C -0.54632(14) 0.01690(11) -0.74119(7)
C33 C -0.47906(14) 0.04532(11) -0.82349(7)
H29 H -0.37440 0.04070 -0.82120
C34 C -0.52291(14) -0.03295(12) -0.88474(7)
H30 H -0.48320 0.00550 -0.93560
C35 C -0.68579(14) -0.04529(12) -0.89181(8)
H31 H -0.71620 -0.00550 -0.94190
H32 H -0.74110 -0.01130 -0.85040
C36 C -0.41933(15) 0.24647(12) -0.88788(8)
C37 C -0.48006(17) 0.36734(12) -0.92431(8)
H33 H -0.50090 0.36200 -0.97720
H34 H -0.41160 0.43040 -0.92350
H35 H -0.56670 0.38710 -0.89550
C38 C -0.34741(15) 0.05176(13) -0.66028(8)
H36 H -0.40120 0.12120 -0.64490
H37 H -0.28820 0.07760 -0.70650
H38 H -0.28800 0.01730 -0.61900
C39 C 0.04192(16) -0.18153(16) -0.4746(1)
H39 H 0.03440 -0.12540 -0.43900
C40 C -0.04664(16) -0.16919(15) -0.53658(9)
H40 H -0.11240 -0.10370 -0.54250
C41 C -0.31709(15) -0.19567(13) -0.90152(8)
H41 H -0.30390 -0.16670 -0.95620
H42 H -0.29600 -0.28240 -0.89240
H43 H -0.25380 -0.15350 -0.87320
#END
