
#######################################################################
#
#                 Cambridge Crystallographic Data Centre
#                                CCDC
#
#######################################################################
#
# If this CIF has been generated from an entry in the Cambridge
# Structural Database, then it will include bibliographic, chemical,
# crystal, experimental, refinement or atomic coordinate data resulting
# from the CCDC's data processing and validation procedures.
#
#######################################################################

data_CSD_CIF_XIMRIX
_audit_creation_date 2018-09-07
_audit_creation_method CSD-ConQuest-V1
_database_code_CSD XIMRIX
_database_code_depnum_ccdc_archive 'CCDC 1829417'
_chemical_formula_sum 'C21 H20 N2 O6'
_chemical_formula_moiety
;
C21 H20 N2 O6
;
_journal_coden_Cambridge 1336
_journal_volume 20
_journal_year 2018
_journal_page_first 5840
_journal_name_full 'Org.Lett. '
loop_
_publ_author_name
"Cheng-Ke Tang"
"Zhan-Yu Zhou"
"Ai-Bao Xia"
"Liang Bai"
"Jie Liu"
"Dan-Qian Xu"
"Zhen-Yuan Xu"
_chemical_name_systematic
;
t-butyl 
3-(nitromethyl)-2'-oxo-3H-spiro[1-benzofuran-2,3'-indole]-1'(2'H)-carboxylate
;
_cell_volume    987.967
_exptl_crystal_colour 'colorless'
_exptl_crystal_density_diffrn 1.332
_exptl_special_details
;
Absolute configuration

;
_exptl_crystal_description 'block'
_diffrn_ambient_temperature 296
#These two values have been output from a single CSD field.
_refine_ls_R_factor_gt 0.0413
_refine_ls_wR_factor_gt 0.0413
_symmetry_cell_setting monoclinic
_symmetry_space_group_name_H-M 'P 21'
_symmetry_Int_Tables_number 4
loop_
_symmetry_equiv_pos_site_id
_symmetry_equiv_pos_as_xyz
1 x,y,z
2 -x,1/2+y,-z
_cell_length_a 10.1833(9)
_cell_length_b 9.4729(9)
_cell_length_c 11.2556(10)
_cell_angle_alpha 90
_cell_angle_beta 114.506(5)
_cell_angle_gamma 90
_cell_formula_units_Z 2
loop_
_atom_type_symbol
_atom_type_radius_bond
C 0.68
H 0.23
N 0.68
O 0.68
loop_
_atom_site_label
_atom_site_type_symbol
_atom_site_fract_x
_atom_site_fract_y
_atom_site_fract_z
O1 O 0.1179(2) 0.5217(2) 0.8583(2)
O2 O 0.3456(3) 0.3351(3) 0.8605(2)
O3 O 0.3777(4) 0.2412(3) 0.6498(2)
O4 O 0.2848(3) 0.3825(2) 0.4742(2)
O5 O 0.5597(3) 0.6001(3) 0.8831(3)
O6 O 0.7082(3) 0.5148(3) 1.0659(3)
N1 N 0.2728(3) 0.4510(3) 0.6600(2)
N2 N 0.5906(3) 0.5611(3) 0.9945(3)
C1 C 0.2394(3) 0.5683(3) 0.8316(3)
C2 C 0.3450(3) 0.6464(3) 0.9579(3)
H1 H 0.37389 0.73640 0.93307
C3 C 0.2460(3) 0.6750(3) 1.0242(3)
C4 C 0.2631(4) 0.7605(4) 1.1285(3)
H2 H 0.34754 0.81191 1.17107
C5 C 0.1524(4) 0.7682(4) 1.1687(4)
H3 H 0.16237 0.82594 1.23882
C6 C 0.0272(4) 0.6917(4) 1.1065(4)
H4 H -0.04600 0.69869 1.13521
C7 C 0.0085(4) 0.6045(4) 1.0020(4)
H5 H -0.07521 0.55186 0.96017
C8 C 0.1201(3) 0.5996(3) 0.9628(3)
C9 C 0.2954(4) 0.4356(3) 0.7919(3)
C10 C 0.1887(3) 0.6567(3) 0.7118(3)
C11 C 0.2075(3) 0.5861(3) 0.6118(3)
C12 C 0.1648(3) 0.6465(4) 0.4900(3)
H6 H 0.17580 0.59901 0.42243
C13 C 0.1048(4) 0.7807(4) 0.4717(3)
H7 H 0.07366 0.82263 0.38986
C14 C 0.0902(4) 0.8534(4) 0.5714(3)
H8 H 0.05237 0.94430 0.55703
C15 C 0.1315(3) 0.7915(4) 0.6928(3)
H9 H 0.12109 0.83961 0.76037
C16 C 0.3184(4) 0.3458(4) 0.5961(3)
C17 C 0.3274(4) 0.2917(4) 0.3872(3)
C18 C 0.4891(5) 0.2808(8) 0.4428(5)
H10 H 0.53001 0.37367 0.45254
H11 H 0.51676 0.22646 0.38489
H12 H 0.52381 0.23534 0.52649
C19 C 0.2628(7) 0.3694(6) 0.2600(4)
H13 H 0.16153 0.38325 0.23569
H14 H 0.27624 0.31547 0.19372
H15 H 0.30931 0.45947 0.26914
C20 C 0.2567(5) 0.1498(5) 0.3717(4)
H16 H 0.29728 0.10014 0.45337
H17 H 0.27280 0.09662 0.30639
H18 H 0.15492 0.16197 0.34557
C21 C 0.4787(3) 0.5680(3) 1.0484(3)
H19 H 0.51909 0.61506 1.13253
H20 H 0.45227 0.47287 1.06185
#END
