
#######################################################################
#
#                 Cambridge Crystallographic Data Centre
#                                CCDC
#
#######################################################################
#
# If this CIF has been generated from an entry in the Cambridge
# Structural Database, then it will include bibliographic, chemical,
# crystal, experimental, refinement or atomic coordinate data resulting
# from the CCDC's data processing and validation procedures.
#
#######################################################################

data_CSD_CIF_XINFAE
_audit_creation_date 2018-09-09
_audit_creation_method CSD-ConQuest-V1
_database_code_CSD XINFAE
_database_code_depnum_ccdc_archive 'CCDC 1860180'
_chemical_formula_sum 'C16 H13 N5 O4'
_chemical_formula_moiety
;
C16 H13 N5 O4
;
_journal_coden_Cambridge 574
_journal_volume 160
_journal_year 2019
_journal_page_first 853
_journal_name_full 'Dyes Pigm. '
loop_
_publ_author_name
"Hui-Fen Qian"
"Jiao Geng"
"Dan Xu"
"Wei Huang"
_chemical_name_systematic
;
4-[2-(2-hydroxy-4-nitrophenyl)hydrazinylidene]-5-methyl-2-phenyl-2,4-dihydro-3
H-pyrazol-3-one
;
_cell_volume   1512.410
_exptl_crystal_colour 'red'
_exptl_crystal_density_diffrn 1.49
_exptl_crystal_description 'block'
_diffrn_ambient_temperature 291
#These two values have been output from a single CSD field.
_refine_ls_R_factor_gt 0.0677
_refine_ls_wR_factor_gt 0.0677
_symmetry_cell_setting monoclinic
_symmetry_space_group_name_H-M 'P 21/n'
_symmetry_Int_Tables_number 14
loop_
_symmetry_equiv_pos_site_id
_symmetry_equiv_pos_as_xyz
1 x,y,z
2 1/2-x,1/2+y,1/2-z
3 -x,-y,-z
4 -1/2+x,-1/2-y,-1/2+z
_cell_length_a 13.428(4)
_cell_length_b 7.338(2)
_cell_length_c 15.711(5)
_cell_angle_alpha 90
_cell_angle_beta 102.323(7)
_cell_angle_gamma 90
_cell_formula_units_Z 4
loop_
_atom_type_symbol
_atom_type_radius_bond
C 0.68
H 0.23
N 0.68
O 0.68
loop_
_atom_site_label
_atom_site_type_symbol
_atom_site_fract_x
_atom_site_fract_y
_atom_site_fract_z
O1 O 0.60993(14) 0.7091(3) 0.03305(13)
O2 O 0.70898(14) 0.9113(3) 0.25656(13)
H1 H 0.75740 0.88980 0.29680
O3 O 0.65302(17) 1.2185(4) 0.52953(15)
O4 O 0.49108(18) 1.2550(4) 0.50636(16)
N1 N 0.47751(16) 0.6639(3) -0.08998(15)
N2 N 0.37246(16) 0.7060(3) -0.11293(15)
N3 N 0.43857(17) 0.8956(3) 0.09628(15)
N4 N 0.52712(17) 0.8993(3) 0.15226(15)
H2 H 0.58260 0.85140 0.13850
N5 N 0.56809(19) 1.2063(4) 0.48335(17)
C1 C 0.5208(2) 0.7241(4) -0.00747(18)
C2 C 0.4368(2) 0.8130(4) 0.02201(19)
C3 C 0.3494(2) 0.7941(4) -0.04796(19)
C4 C 0.5265(2) 0.5811(4) -0.15249(19)
C5 C 0.4699(2) 0.5086(4) -0.22910(19)
H3 H 0.39910 0.50790 -0.23900
C6 C 0.5186(2) 0.4371(4) -0.2910(2)
H4 H 0.48020 0.39020 -0.34270
C7 C 0.6237(2) 0.4350(5) -0.2765(2)
H5 H 0.65640 0.38600 -0.31780
C8 C 0.6792(2) 0.5068(6) -0.1998(2)
H6 H 0.75000 0.50530 -0.18960
C9 C 0.6322(2) 0.5811(5) -0.1377(2)
H7 H 0.67080 0.63040 -0.08670
C10 C 0.2454(2) 0.8661(5) -0.0489(2)
H8 H 0.20370 0.85390 -0.10640
H9 H 0.25000 0.99240 -0.03260
H10 H 0.21550 0.79860 -0.00840
C11 C 0.5345(2) 0.9789(4) 0.23380(18)
C12 C 0.6321(2) 0.9854(4) 0.28867(19)
C13 C 0.6435(2) 1.0637(4) 0.37063(19)
H11 H 0.70730 1.07260 0.40760
C14 C 0.5573(2) 1.1281(4) 0.39592(18)
C15 C 0.4609(2) 1.1198(4) 0.34320(19)
H12 H 0.40460 1.16340 0.36260
C16 C 0.4502(2) 1.0455(4) 0.26119(19)
H13 H 0.38620 1.04010 0.22420
#END
