
#######################################################################
#
#                 Cambridge Crystallographic Data Centre
#                                CCDC
#
#######################################################################
#
# If this CIF has been generated from an entry in the Cambridge
# Structural Database, then it will include bibliographic, chemical,
# crystal, experimental, refinement or atomic coordinate data resulting
# from the CCDC's data processing and validation procedures.
#
#######################################################################

data_CSD_CIF_XINFUV
_audit_creation_date 2002-06-19
_audit_creation_method CSD-ConQuest-V1
_database_code_CSD XINFUV
_database_code_depnum_ccdc_archive 'CCDC 185631'
_chemical_formula_sum 'C10 H9 N3 O3'
_chemical_formula_moiety
;
C10 H9 N3 O3
;
_journal_coden_Cambridge 95
_journal_year 2001
_journal_page_first 1553
_journal_name_full 'Izv.Akad.Nauk SSSR,Ser.Khim.(Russ.)(Russ.Chem.Bull.) '
loop_
_publ_author_name
"A.G.Korepin"
"P.V.Galkin"
"N.M.Glushakova"
"V.P.Lodygina"
"I.L.Eremenko"
"S.E.Nefedov"
"L.T.Eremenko"
_chemical_name_systematic
;
N-((Isatin-1-yl)methyl)-N-nitrosomethylamine
;
_chemical_melting_point 440.15
_cell_volume   1033.877
_exptl_crystal_density_diffrn 1.408
_exptl_special_details
;
Melting point range 440.15-443.15K
air-sensitive

;
_diffrn_ambient_temperature 293
#These two values have been output from a single CSD field.
_refine_ls_R_factor_gt 0.068
_refine_ls_wR_factor_gt 0.068
_symmetry_cell_setting monoclinic
_symmetry_space_group_name_H-M 'P c'
_symmetry_Int_Tables_number 7
loop_
_symmetry_equiv_pos_site_id
_symmetry_equiv_pos_as_xyz
1 x,y,z
2 x,-y,1/2+z
_cell_length_a 10.829(2)
_cell_length_b 8.206(2)
_cell_length_c 11.705(2)
_cell_angle_alpha 90
_cell_angle_beta 96.29(3)
_cell_angle_gamma 90
_cell_formula_units_Z 4
loop_
_atom_type_symbol
_atom_type_radius_bond
C 0.68
H 0.23
N 0.68
O 0.68
loop_
_atom_site_label
_atom_site_type_symbol
_atom_site_fract_x
_atom_site_fract_y
_atom_site_fract_z
N1 N 1.21966 -0.42184(38) 1.20762
N2 N 1.01268(33) -0.45221(38) 1.12127(31)
N3 N 0.97627(35) -0.34176(42) 1.03573(33)
O1 O 0.86935(38) -0.29678(44) 1.04113(38)
O2 O 1.22290(38) -0.61752(39) 1.35068(30)
O3 O 1.36880(32) -0.36933(43) 1.48574(28)
C1 C 1.27012(34) -0.25429(37) 1.20347(33)
C2 C 1.25346(39) -0.15384(44) 1.10961(38)
C3 C 1.30456(42) 0.00368(46) 1.11987(39)
C4 C 1.36998(46) 0.04935(49) 1.22095(46)
C5 C 1.38932(44) -0.06030(47) 1.32491(45)
C6 C 1.33326(35) -0.21352(43) 1.30435(36)
C7 C 1.32911(36) -0.35998(44) 1.38469(33)
C8 C 1.25802(38) -0.48286(41) 1.31650(34)
C9 C 1.14253(39) -0.50008(42) 1.11916(35)
C10 C 0.94149(42) -0.51123(46) 1.20221(43)
H1 H 1.18140(56) -0.15069(56) 1.03129(56)
H2 H 1.28315(56) 0.08945(56) 1.05492(56)
H3 H 1.41157(56) 0.16093(56) 1.22345(56)
H4 H 1.43897(56) -0.03012(56) 1.39818(56)
H5 H 1.14988(56) -0.61232(56) 1.12294(56)
H6 H 1.16768(56) -0.46537(56) 1.04759(56)
H7 H 0.85991(56) -0.46554(56) 1.18712(56)
H8 H 0.93708(56) -0.62629(56) 1.19717(56)
H9 H 0.97762(56) -0.48297(56) 1.27482(56)
N4 N 0.72676(32) -0.08307(35) 1.28641(27)
N5 N 0.93795(33) -0.05633(38) 1.37786(31)
N6 N 0.98014(37) -0.16956(43) 1.43931(35)
O4 O 1.08778(34) -0.21362(44) 1.43108(36)
O5 O 0.72576(36) 0.11800(35) 1.14792(31)
O6 O 0.58153(36) -0.13237(43) 1.00964(29)
C11 C 0.61510(36) -0.28235(44) 1.18543(32)
C12 C 0.56700(38) -0.43626(47) 1.17631(39)
C13 C 0.57695(42) -0.54056(45) 1.25646(45)
C14 C 0.63855(46) -0.49828(46) 1.35804(45)
C15 C 0.69566(39) -0.34626(45) 1.38532(36)
C16 C 0.68373(34) -0.23562(44) 1.29348(31)
C17 C 0.70203(37) -0.01343(45) 1.18067(34)
C18 C 0.61961(36) -0.15810(45) 1.10918(34)
C19 C 0.80991(37) -0.00458(42) 1.37690(33)
C20 C 1.01837(41) 0.01301(50) 1.29123(42)
H10 H 0.52212(56) -0.46919(56) 1.10862(56)
H11 H 0.52339(56) -0.65245(56) 1.22229(56)
H12 H 0.64522(56) -0.58505(56) 1.41606(56)
H13 H 0.74956(56) -0.28805(56) 1.46473(56)
H14 H 0.78854(55) -0.05548(56) 1.45723(55)
H15 H 0.79306(56) 0.12986(56) 1.36231(56)
H16 H 1.09831(56) -0.02369(56) 1.30075(56)
H17 H 0.97917(56) -0.00123(56) 1.21580(56)
H18 H 1.02188(56) 0.13337(56) 1.29894(56)
#END
