
#######################################################################
#
#                 Cambridge Crystallographic Data Centre
#                                CCDC
#
#######################################################################
#
# If this CIF has been generated from an entry in the Cambridge
# Structural Database, then it will include bibliographic, chemical,
# crystal, experimental, refinement or atomic coordinate data resulting
# from the CCDC's data processing and validation procedures.
#
#######################################################################

data_CSD_CIF_XINGIN
_audit_creation_date 2018-09-09
_audit_creation_method CSD-ConQuest-V1
_database_code_CSD XINGIN
_database_code_depnum_ccdc_archive 'CCDC 1849103'
_chemical_formula_sum 'C23 H27 N1 O10'
_chemical_formula_moiety
;
C23 H27 N1 O10
;
_journal_coden_Cambridge 179
_journal_year 2018
_journal_name_full 'Angew.Chem.,Int.Ed. '
loop_
_publ_author_name
"P.V.Chouthaiwale"
"R.D.Aher"
"F.Tanaka"
_chemical_name_systematic
;
ethyl 
4-[ethoxy(oxo)acetyl]-1,4a-dihydroxy-3-(4-nitrophenyl)-8-oxodecahydronaphthale
ne-1-carboxylate
;
_cell_volume   4932.187
_exptl_crystal_colour 'colorless'
_exptl_crystal_density_diffrn 1.286
_exptl_crystal_description 'block'
_diffrn_ambient_temperature 100
_refine_special_details
;
C65A,C66A and C65B,C66B disordered over two sites with occupancies 
0.712:0.288; C88A,C89A and C88B,C89B disordered over two sites with 
occupancies 0.543:0.457; C91A,C92A and C91B,C92B disordered over two sites 
with occupancies 0.612:0.388.
;
#These two values have been output from a single CSD field.
_refine_ls_R_factor_gt 0.0485
_refine_ls_wR_factor_gt 0.0485
_symmetry_cell_setting triclinic
_symmetry_space_group_name_H-M 'P -1'
_symmetry_Int_Tables_number 2
loop_
_symmetry_equiv_pos_site_id
_symmetry_equiv_pos_as_xyz
1 x,y,z
2 -x,-y,-z
_cell_length_a 10.69164(5)
_cell_length_b 21.02355(14)
_cell_length_c 23.10217(13)
_cell_angle_alpha 72.8407(5)
_cell_angle_beta 87.0557(4)
_cell_angle_gamma 83.8652(4)
_cell_formula_units_Z 8
loop_
_atom_type_symbol
_atom_type_radius_bond
C 0.68
H 0.23
N 0.68
O 0.68
loop_
_atom_site_label
_atom_site_type_symbol
_atom_site_fract_x
_atom_site_fract_y
_atom_site_fract_z
O1 O 0.55933(15) 0.56433(6) 0.79209(8)
O2 O 0.36617(13) 0.56599(6) 0.76878(7)
O3 O 0.60521(9) 0.11560(5) 0.86470(5)
H1 H 0.61850 0.11650 0.90000
O4 O 0.38292(11) 0.01610(5) 0.97993(5)
O5 O 0.54761(9) 0.12409(5) 0.97645(5)
H2 H 0.55030 0.08280 0.99370
O6 O 0.66741(10) 0.25004(5) 0.77762(5)
O7 O 0.39219(11) 0.26056(6) 0.70077(5)
O8 O 0.59129(12) 0.27543(6) 0.66636(5)
O9 O 0.21441(10) 0.13510(6) 1.00152(5)
O10 O 0.37997(11) 0.12986(6) 1.06046(5)
N1 N 0.46724(15) 0.53620(7) 0.78845(7)
C1 C 0.50420(13) 0.24924(7) 0.87665(7)
H3 H 0.59330 0.23270 0.88820
C2 C 0.47027(13) 0.21995(7) 0.82616(6)
H4 H 0.38210 0.23740 0.81340
C3 C 0.47878(13) 0.14218(7) 0.84892(7)
C4 C 0.44409(15) 0.11311(7) 0.79937(7)
H5 H 0.35730 0.13080 0.78620
H6 H 0.50170 0.12720 0.76400
C5 C 0.45273(16) 0.03692(8) 0.82199(8)
H7 H 0.54120 0.01920 0.83150
H8 H 0.42640 0.01950 0.78950
C6 C 0.36977(15) 0.01233(7) 0.87846(8)
H9 H 0.28080 0.01930 0.86620
H10 H 0.39120 -0.03640 0.89620
C7 C 0.38282(13) 0.04637(7) 0.92604(7)
C8 C 0.38871(13) 0.12160(7) 0.90473(6)
H11 H 0.30250 0.14240 0.89130
C9 C 0.42253(13) 0.14899(7) 0.95603(7)
C10 C 0.41934(13) 0.22544(7) 0.93285(6)
H12 H 0.33170 0.24470 0.92290
H13 H 0.44660 0.24230 0.96550
C11 C 0.49438(13) 0.32503(7) 0.85356(6)
C12 C 0.59999(14) 0.35924(8) 0.85187(7)
H14 H 0.67800 0.33500 0.86610
C13 C 0.59211(15) 0.42834(8) 0.82955(8)
H15 H 0.66410 0.45170 0.82830
C14 C 0.47782(15) 0.46270(7) 0.80922(7)
C15 C 0.37170(15) 0.43033(8) 0.80941(8)
H16 H 0.29440 0.45490 0.79440
C16 C 0.38059(14) 0.36132(8) 0.83195(7)
H17 H 0.30840 0.33830 0.83270
C17 C 0.55830(13) 0.24317(7) 0.77242(7)
C18 C 0.50250(15) 0.26071(7) 0.70865(7)
C19 C 0.5495(2) 0.29368(11) 0.60412(8)
H18 H 0.48190 0.33100 0.59680
H19 H 0.51700 0.25510 0.59560
C20 C 0.6627(4) 0.3144(2) 0.56482(12)
H20 H 0.63950 0.32750 0.52210
H21 H 0.72860 0.27690 0.57260
H22 H 0.69400 0.35240 0.57410
C21 C 0.32508(14) 0.13504(7) 1.00829(7)
C22 C 0.29990(16) 0.13402(9) 1.11237(7)
H23 H 0.29480 0.08900 1.14130
H24 H 0.21390 0.15330 1.09910
C23 C 0.3585(2) 0.17827(12) 1.14162(9)
H25 H 0.30900 0.18110 1.17780
H26 H 0.36010 0.22310 1.11300
H27 H 0.44460 0.15950 1.15320
O11 O 1.08151(16) 0.55561(7) 0.66677(10)
O12 O 0.88381(14) 0.56014(7) 0.68617(9)
O13 O 1.1004(1) 0.10816(5) 0.83208(5)
H28 H 1.11470 0.10620 0.79650
O14 O 0.87850(11) 0.00963(5) 0.78109(5)
O15 O 1.04536(9) 0.11123(5) 0.71796(5)
H29 H 1.04020 0.07200 0.71680
O16 O 1.16446(10) 0.24342(6) 0.84428(5)
O17 O 0.87869(11) 0.26253(6) 0.91832(6)
O18 O 1.07577(11) 0.27506(6) 0.94094(6)
O19 O 0.71224(10) 0.12817(6) 0.70294(5)
O20 O 0.87376(10) 0.11951(6) 0.63841(5)
N2 N 0.98540(15) 0.52892(8) 0.68376(8)
C24 C 1.01025(13) 0.24154(7) 0.74883(7)
H30 H 1.09960 0.22370 0.74420
C25 C 0.96961(13) 0.21518(7) 0.81597(7)
H31 H 0.88110 0.23400 0.82080
C26 C 0.97423(13) 0.13740(7) 0.83699(7)
C27 C 0.93423(15) 0.11153(8) 0.90341(7)
H32 H 0.84830 0.13170 0.90920
H33 H 0.99180 0.12550 0.92860
C28 C 0.93591(16) 0.03550(8) 0.92428(7)
H34 H 0.90320 0.02120 0.96650
H35 H 1.02390 0.01540 0.92380
C29 C 0.85734(15) 0.00923(7) 0.88451(7)
H36 H 0.87880 -0.03960 0.89350
H37 H 0.76730 0.01690 0.89520
C30 C 0.87642(13) 0.04118(7) 0.81792(7)
C31 C 0.88566(13) 0.11626(7) 0.79655(7)
H38 H 0.79980 0.13840 0.80130
C32 C 0.92287(13) 0.14074(7) 0.72907(7)
C33 C 0.92798(14) 0.21697(7) 0.70868(7)
H39 H 0.84140 0.23900 0.70900
H40 H 0.96120 0.23070 0.66650
C34 C 1.00323(14) 0.31752(8) 0.73015(7)
C35 C 1.11219(15) 0.35017(8) 0.71383(8)
H41 H 1.19070 0.32480 0.71230
C36 C 1.10753(16) 0.41920(9) 0.69980(9)
H42 H 1.18210 0.44120 0.68910
C37 C 0.99255(16) 0.45534(8) 0.70164(9)
C38 C 0.88257(15) 0.42470(8) 0.71775(9)
H43 H 0.80440 0.45040 0.71910
C39 C 0.88870(15) 0.35575(8) 0.73190(8)
H44 H 0.81380 0.33410 0.74300
C40 C 1.05345(14) 0.23903(7) 0.85455(7)
C41 C 0.99054(15) 0.26023(8) 0.90860(7)
C42 C 1.0283(2) 0.29622(11) 0.99313(9)
H45 H 0.99670 0.25820 1.02490
H46 H 0.95860 0.33220 0.98120
C43 C 1.1359(3) 0.32130(15) 1.01608(13)
H47 H 1.10780 0.33600 1.05150
H48 H 1.16610 0.35900 0.98420
H49 H 1.20420 0.28530 1.02760
C44 C 0.82267(14) 0.12715(7) 0.69014(7)
C45 C 0.78942(16) 0.11335(10) 0.59360(8)
H50 H 0.70520 0.13610 0.59830
H51 H 0.78050 0.06560 0.59860
C46 C 0.8441(2) 0.14472(17) 0.53339(10)
H52 H 0.79900 0.13360 0.50240
H53 H 0.93310 0.12810 0.53210
H54 H 0.83670 0.19340 0.52560
O21 O 0.60069(14) 0.56386(7) 0.35845(10)
O22 O 0.40965(15) 0.57180(7) 0.33119(10)
O23 O 0.64158(9) 0.12721(5) 0.36570(5)
H55 H 0.64790 0.12020 0.40320
O24 O 0.40082(10) 0.02054(5) 0.46247(5)
O25 O 0.56497(9) 0.11869(5) 0.48080(5)
H56 H 0.56000 0.07810 0.49940
O26 O 0.71585(9) 0.26726(5) 0.29382(5)
O27 O 0.45342(10) 0.28598(6) 0.20550(5)
O28 O 0.65350(11) 0.30870(6) 0.17987(5)
O29 O 0.22862(10) 0.13550(6) 0.49019(5)
O30 O 0.3803(1) 0.11259(6) 0.55967(5)
N3 N 0.50822(15) 0.53882(8) 0.34982(9)
C47 C 0.53954(13) 0.25424(7) 0.39133(7)
H57 H 0.62650 0.23500 0.40470
C48 C 0.51290(13) 0.23511(7) 0.33388(6)
H58 H 0.42680 0.25530 0.31970
C49 C 0.51769(13) 0.15750(7) 0.34752(7)
C50 C 0.48901(14) 0.13789(7) 0.29143(7)
H59 H 0.40370 0.15770 0.27740
H60 H 0.55000 0.15620 0.25850
C51 C 0.49617(15) 0.06219(8) 0.30434(7)
H61 H 0.58380 0.04290 0.31410
H62 H 0.47310 0.05160 0.26750
C52 C 0.40865(14) 0.03008(7) 0.35704(7)
H63 H 0.32140 0.03760 0.34230
H64 H 0.43220 -0.01880 0.37030
C53 C 0.41174(13) 0.05640(7) 0.41070(7)
C54 C 0.42023(13) 0.13098(7) 0.39855(6)
H65 H 0.33620 0.15410 0.38380
C55 C 0.44485(13) 0.14856(7) 0.45673(7)
C56 C 0.44628(13) 0.22436(7) 0.44253(7)
H66 H 0.46820 0.23480 0.47960
H67 H 0.36070 0.24600 0.43100
C57 C 0.53162(14) 0.32941(7) 0.37989(7)
C58 C 0.63732(14) 0.36006(8) 0.38625(7)
H68 H 0.71510 0.33360 0.39700
C59 C 0.63067(15) 0.42854(8) 0.37714(8)
H69 H 0.70270 0.44930 0.38180
C60 C 0.51650(16) 0.46587(8) 0.36116(9)
C61 C 0.40960(15) 0.43716(8) 0.35440(9)
H70 H 0.33220 0.46390 0.34350
C62 C 0.41783(14) 0.36886(8) 0.36386(8)
H71 H 0.34530 0.34840 0.35940
C63 C 0.60764(13) 0.26289(7) 0.28430(7)
C64 C 0.56037(14) 0.28728(7) 0.21840(7)
C65 C 0.6187(7) 0.3318(4) 0.1161(2)
H72 H 0.55560 0.37120 0.10860
H73 H 0.58310 0.29590 0.10440
C66 C 0.7391(3) 0.3500(3) 0.08069(15)
H74 H 0.78150 0.37890 0.09820
H75 H 0.71940 0.37370 0.03840
H76 H 0.79440 0.30920 0.08250
C67 C 0.33760(14) 0.12983(7) 0.50322(7)
C68 C 0.28828(15) 0.09938(9) 0.60916(7)
H77 H 0.27430 0.05140 0.62230
H78 H 0.20710 0.12590 0.59600
C69 C 0.33874(17) 0.11856(12) 0.65996(9)
H79 H 0.28500 0.10390 0.69620
H80 H 0.33990 0.16720 0.64860
H81 H 0.42450 0.09710 0.66850
C70? C 0.6240(19) 0.3380(8) 0.1163(4)
H82? H 0.65880 0.38180 0.10000
H83? H 0.53180 0.34480 0.11080
C71? C 0.6837(14) 0.2890(6) 0.0845(4)
H84? H 0.77540 0.28590 0.08730
H85? H 0.66030 0.30420 0.04180
H86? H 0.65420 0.24490 0.10370
O31 O 0.13026(16) 0.56944(8) 0.11633(12)
O32 O -0.06418(18) 0.57746(8) 0.14057(12)
O33 O 0.15012(10) 0.13126(5) 0.32598(6)
H87 H 0.16020 0.12530 0.29160
O34 O -0.07791(12) 0.02606(6) 0.28576(7)
O35 O 0.08735(10) 0.12665(6) 0.21551(6)
H88 H 0.08240 0.08660 0.21680
O36 O 0.21241(10) 0.26928(6) 0.33264(5)
O37 O -0.06855(10) 0.28386(6) 0.41186(5)
O38 O 0.12732(12) 0.30326(8) 0.42851(7)
O39 O -0.24660(12) 0.14327(8) 0.20664(6)
O40 O -0.09152(14) 0.13087(8) 0.14026(7)
N4 N 0.03497(18) 0.54434(9) 0.13822(11)
C72 C 0.05616(13) 0.25949(7) 0.24074(7)
H89 H 0.14440 0.24000 0.23640
C73 C 0.01720(13) 0.23754(7) 0.30826(7)
H90 H -0.07130 0.25650 0.31290
C74 C 0.02386(13) 0.15973(7) 0.33228(7)
C75 C -0.01068(15) 0.13633(8) 0.39941(7)
H91 H -0.09740 0.15510 0.40600
H92 H 0.04700 0.15320 0.42240
C76 C -0.00245(17) 0.06037(9) 0.42296(9)
H93 H -0.02840 0.04700 0.46630
H94 H 0.08600 0.04200 0.41980
C77 C -0.08570(16) 0.03076(8) 0.38769(9)
H95 H -0.06310 -0.01820 0.39830
H96 H -0.17450 0.03830 0.40050
C78 C -0.07461(14) 0.05976(8) 0.32029(8)
C79 C -0.06704(13) 0.13496(7) 0.29557(7)
H97 H -0.15280 0.15700 0.30070
C80 C -0.03428(14) 0.15637(8) 0.22761(7)
C81 C -0.03009(14) 0.23234(7) 0.20437(7)
H98 H -0.11640 0.25430 0.20580
H99 H -0.00080 0.24450 0.16150
C82 C 0.05116(14) 0.33474(7) 0.21457(7)
C83 C 0.15932(15) 0.36502(8) 0.19085(8)
H100 H 0.23720 0.33830 0.19200
C84 C 0.15521(17) 0.43382(9) 0.16544(10)
H101 H 0.22930 0.45450 0.14940
C85 C 0.04101(18) 0.47132(9) 0.16413(10)
C86 C -0.06800(17) 0.44298(9) 0.18679(10)
H102 H -0.14570 0.47000 0.18490
C87 C -0.06276(15) 0.37442(8) 0.21245(8)
H103 H -0.13720 0.35420 0.22870
C88 C 0.10221(13) 0.26380(7) 0.34449(7)
C89 C 0.04152(14) 0.28509(8) 0.39895(7)
C90 C 0.0807(6) 0.3142(4) 0.4876(3)
H104 H 0.02250 0.28040 0.50790
H105 H 0.03410 0.35910 0.48000
C91 C 0.1907(5) 0.3084(3) 0.5276(2)
H106 H 0.23310 0.26300 0.53710
H107 H 0.16070 0.31810 0.56520
H108 H 0.25000 0.34060 0.50640
C92 C -0.13723(16) 0.14102(9) 0.19186(8)
C93 C -0.1756(4) 0.1030(3) 0.1099(2)
H109 H -0.26410 0.11740 0.11850
H110 H -0.16340 0.05350 0.12410
C94 C -0.1467(3) 0.12748(16) 0.04403(13)
H111 H -0.16150 0.17640 0.03030
H112 H -0.20110 0.10840 0.02200
H113 H -0.05840 0.11390 0.03630
C95? C 0.0820(8) 0.3390(3) 0.4717(3)
H114? H -0.00880 0.35430 0.46680
H115? H 0.12960 0.37800 0.46780
C96? C 0.1063(6) 0.2865(3) 0.5308(2)
H116? H 0.05740 0.24880 0.53350
H117? H 0.08120 0.30530 0.56420
H118? H 0.19610 0.27090 0.53350
C97? C -0.1825(9) 0.1304(4) 0.0938(4)
H119? H -0.13280 0.11450 0.06260
H120? H -0.23820 0.09520 0.11380
C98? C -0.2592(6) 0.1845(3) 0.0633(3)
H121? H -0.31170 0.20180 0.09240
H122? H -0.31310 0.17130 0.03660
H123? H -0.20800 0.21930 0.03900
#END
