
#######################################################################
#
#                 Cambridge Crystallographic Data Centre
#                                CCDC
#
#######################################################################
#
# If this CIF has been generated from an entry in the Cambridge
# Structural Database, then it will include bibliographic, chemical,
# crystal, experimental, refinement or atomic coordinate data resulting
# from the CCDC's data processing and validation procedures.
#
#######################################################################

data_CSD_CIF_XINJAF
_audit_creation_date 2002-06-19
_audit_creation_method CSD-ConQuest-V1
_database_code_CSD XINJAF
_database_code_depnum_ccdc_archive 'CCDC 185637'
_chemical_formula_sum 'C17 H13 N1 O5'
_chemical_formula_moiety
;
C17 H13 N1 O5
;
_journal_coden_Cambridge 95
_journal_year 2001
_journal_page_first 1548
_journal_name_full 'Izv.Akad.Nauk SSSR,Ser.Khim.(Russ.)(Russ.Chem.Bull.) '
loop_
_publ_author_name
"R.V.Linko"
"V.K.Belsky"
"A.V.Varlamov"
"B.E.Zaitsev"
"A.I.Chernyshev"
_chemical_name_systematic
;
10-Hydroxy-10-(2-oxopropyl)-2-nitro-9,10-dihydrophenanthren-9-one
;
_chemical_melting_point 444.15
_cell_volume   1395.846
_exptl_crystal_colour 'colorless'
_exptl_crystal_density_diffrn 1.481
_exptl_special_details
;
Melting point range 444.15-445.15K

;
_exptl_crystal_description 'prism'
_diffrn_ambient_temperature 293
#These two values have been output from a single CSD field.
_refine_ls_R_factor_gt 0.0302
_refine_ls_wR_factor_gt 0.0302
_symmetry_cell_setting monoclinic
_symmetry_space_group_name_H-M 'P 21/n'
_symmetry_Int_Tables_number 14
loop_
_symmetry_equiv_pos_site_id
_symmetry_equiv_pos_as_xyz
1 x,y,z
2 1/2+x,1/2-y,1/2+z
3 -x,-y,-z
4 -1/2-x,-1/2+y,-1/2-z
_cell_length_a 9.110(2)
_cell_length_b 16.423(3)
_cell_length_c 10.094(2)
_cell_angle_alpha 90
_cell_angle_beta 112.44(3)
_cell_angle_gamma 90
_cell_formula_units_Z 4
loop_
_atom_type_symbol
_atom_type_radius_bond
C 0.68
H 0.23
N 0.68
O 0.68
loop_
_atom_site_label
_atom_site_type_symbol
_atom_site_fract_x
_atom_site_fract_y
_atom_site_fract_z
O1 O 0.4132(2) 0.3129(1) 0.05188(19)
O2 O 0.7085(2) 0.26581(9) 0.20913(19)
O3 O 0.4740(2) 0.20921(10) 0.3147(2)
O4 O 1.2455(2) 0.35447(15) 0.3943(3)
O5 O 1.3100(2) 0.47968(12) 0.4300(2)
N1 N 1.2111(2) 0.42597(14) 0.3930(2)
C1 C 0.9325(3) 0.38530(14) 0.3173(2)
C2 C 1.0429(2) 0.44742(13) 0.3420(2)
C3 C 0.9994(3) 0.52779(14) 0.3193(2)
C4 C 0.8409(3) 0.54731(13) 0.2728(2)
C5 C 0.4999(3) 0.58722(14) 0.1962(3)
C6 C 0.3396(3) 0.60471(17) 0.1411(3)
C7 C 0.2285(3) 0.54403(17) 0.0858(3)
C8 C 0.2791(3) 0.46537(15) 0.0861(2)
C9 C 0.4924(3) 0.36191(12) 0.1388(2)
C10 C 0.6533(2) 0.33790(11) 0.2520(2)
C11 C 0.7729(2) 0.40551(12) 0.2710(2)
C12 C 0.7251(2) 0.48709(11) 0.2501(2)
C13 C 0.5541(3) 0.50792(12) 0.1988(2)
C14 C 0.4402(2) 0.44658(12) 0.1429(2)
C15 C 0.6389(3) 0.32595(13) 0.3984(2)
C16 C 0.5431(2) 0.25428(12) 0.4131(2)
C17 C 0.5426(4) 0.24163(18) 0.5586(3)
H1 H 0.625(5) 0.242(2) 0.159(5)
H2 H 0.970(3) 0.3292(15) 0.339(2)
H3 H 1.076(3) 0.5700(15) 0.335(3)
H4 H 0.806(3) 0.6016(16) 0.252(2)
H5 H 0.573(3) 0.6307(14) 0.227(2)
H6 H 0.304(3) 0.6610(17) 0.137(3)
H7 H 0.119(3) 0.5573(15) 0.051(3)
H8 H 0.203(3) 0.4208(14) 0.046(2)
H9 H 0.597(2) 0.3768(13) 0.426(2)
H10 H 0.744(3) 0.3203(13) 0.473(3)
H11 H 0.645(4) 0.2384(19) 0.635(4)
H12 H 0.516(4) 0.292(2) 0.599(4)
H13 H 0.488(5) 0.193(3) 0.573(4)
#END
