
#######################################################################
#
#                 Cambridge Crystallographic Data Centre
#                                CCDC
#
#######################################################################
#
# If this CIF has been generated from an entry in the Cambridge
# Structural Database, then it will include bibliographic, chemical,
# crystal, experimental, refinement or atomic coordinate data resulting
# from the CCDC's data processing and validation procedures.
#
#######################################################################

data_CSD_CIF_XINNAJ01
_audit_creation_date 2004-01-09
_audit_creation_method CSD-ConQuest-V1
_database_code_CSD XINNAJ01
_database_code_depnum_ccdc_archive 'CCDC 1296724'
_chemical_formula_sum 'C15 H18 N2 O7'
_chemical_formula_moiety
;
C15 H18 N2 O7
;
_journal_coden_Cambridge 392
_journal_volume 60
_journal_year 2003
_journal_page_first 1053
_journal_name_full 'Heterocycles '
loop_
_publ_author_name
"A.S.Mynzhasarovich"
"R.B.Bagdatovna"
"K.A.Tabylovich"
"S.Zareen"
"M.I.Choudhary"
"A.Rahman"
_chemical_name_systematic
;
1,10-Dihydro-1\a,10\a-dinitroachillin
;
_chemical_melting_point 493.15
_cell_volume   1581.431
_exptl_crystal_colour 'colorless'
_exptl_crystal_density_diffrn 1.421
_exptl_special_details
;
Melts with decomposition.

;
_exptl_crystal_preparation 'acetonitrile'
_diffrn_ambient_temperature ?
_diffrn_special_details
;
The study was carried out at room temperature,in the range 283-303K

;
#These two values have been output from a single CSD field.
_refine_ls_R_factor_gt 0.0339
_refine_ls_wR_factor_gt 0.0339
_chemical_compound_source
;
aerial parts of Achillea micrantha Wild
;
_symmetry_cell_setting orthorhombic
_symmetry_space_group_name_H-M 'P 21 21 21'
_symmetry_Int_Tables_number 19
loop_
_symmetry_equiv_pos_site_id
_symmetry_equiv_pos_as_xyz
1 x,y,z
2 1/2-x,-y,1/2+z
3 1/2+x,1/2-y,-z
4 -x,1/2+y,1/2-z
_cell_length_a 6.7727(3)
_cell_length_b 14.9825(11)
_cell_length_c 15.5849(8)
_cell_angle_alpha 90
_cell_angle_beta 90
_cell_angle_gamma 90
_cell_formula_units_Z 4
loop_
_atom_type_symbol
_atom_type_radius_bond
C 0.68
N 0.68
O 0.68
loop_
_atom_site_label
_atom_site_type_symbol
_atom_site_fract_x
_atom_site_fract_y
_atom_site_fract_z
C1 C 0.1817(3) 0.4738(1) 0.1177(1)
C2 C 0.1479(4) 0.4464(2) 0.2137(1)
C3 C 0.0363(4) 0.5155(2) 0.2541(1)
C4 C -0.0105(3) 0.5807(1) 0.2000(1)
C5 C 0.0910(3) 0.5698(1) 0.1137(1)
C6 C -0.0320(3) 0.5974(1) 0.0362(1)
C7 C 0.0574(3) 0.5759(1) -0.0515(1)
C8 C 0.0042(4) 0.4825(2) -0.0829(1)
C9 C 0.1223(4) 0.4082(1) -0.0399(1)
C10 C 0.0963(3) 0.3997(1) 0.0583(1)
C11 C -0.0129(4) 0.6550(2) -0.1063(2)
C12 C -0.0282(3) 0.7289(1) -0.0412(2)
C13 C -0.2117(6) 0.6438(2) -0.1505(2)
C14 C -0.1189(4) 0.3829(2) 0.0823(2)
C15 C -0.1412(5) 0.6582(2) 0.2186(2)
O1 O -0.0389(2) 0.6947(1) 0.0391(1)
O2 O -0.0350(3) 0.8080(1) -0.0526(1)
O3 O 0.1989(4) 0.3752(1) 0.2427(1)
O4 O 0.5002(3) 0.4996(2) 0.1714(2)
O5 O 0.4704(3) 0.4976(1) 0.0342(1)
O6 O 0.3913(3) 0.3165(1) 0.0832(2)
O7 O 0.1221(4) 0.2430(1) 0.0822(1)
N1 N 0.4045(3) 0.4894(1) 0.1060(1)
N2 N 0.2134(3) 0.3124(1) 0.0787(1)
#END
