
#######################################################################
#
#                 Cambridge Crystallographic Data Centre
#                                CCDC
#
#######################################################################
#
# If this CIF has been generated from an entry in the Cambridge
# Structural Database, then it will include bibliographic, chemical,
# crystal, experimental, refinement or atomic coordinate data resulting
# from the CCDC's data processing and validation procedures.
#
#######################################################################

data_CSD_CIF_XINNAJ
_audit_creation_date 2002-06-19
_audit_creation_method CSD-ConQuest-V1
_database_code_CSD XINNAJ
_database_code_depnum_ccdc_archive 'CCDC 185654'
_chemical_formula_sum 'C15 H18 N2 O7'
_chemical_formula_moiety
;
C15 H18 N2 O7
;
_journal_coden_Cambridge 371
_journal_year 2001
_journal_page_first 197
_journal_name_full 'Khim.Prir.Soedin(Russ.)(Chem.Nat.Compd.) '
loop_
_publ_author_name
"S.M.Adekenov"
"O.V.Alebastrov"
"V.A.Raldugin"
"I.Yu.Bagryanskaya"
"Yu.V.Gatilov"
"M.M.Shakirov"
"A.T.Kulyyasov"
"G.A.Tolstikov"
_chemical_name_systematic
;
1,10-Dihydro-1\a,10\a-dinitroachillin
;
_chemical_melting_point 493.15
_cell_volume   1581.431
_exptl_crystal_colour 'colorless'
_exptl_crystal_density_diffrn 1.421
_exptl_special_details
;
Melts with decomposition.

;
_exptl_crystal_description 'parallelepiped'
_exptl_crystal_preparation 'acetonitrile'
_diffrn_ambient_temperature 296
#These two values have been output from a single CSD field.
_refine_ls_R_factor_gt 0.0339
_refine_ls_wR_factor_gt 0.0339
_symmetry_cell_setting orthorhombic
_symmetry_space_group_name_H-M 'P 21 21 21'
_symmetry_Int_Tables_number 19
loop_
_symmetry_equiv_pos_site_id
_symmetry_equiv_pos_as_xyz
1 x,y,z
2 1/2-x,-y,1/2+z
3 -x,1/2+y,1/2-z
4 1/2+x,1/2-y,-z
_cell_length_a 6.7727(3)
_cell_length_b 14.9825(11)
_cell_length_c 15.5849(8)
_cell_angle_alpha 90
_cell_angle_beta 90
_cell_angle_gamma 90
_cell_formula_units_Z 4
loop_
_atom_type_symbol
_atom_type_radius_bond
C 0.68
H 0.23
N 0.68
O 0.68
loop_
_atom_site_label
_atom_site_type_symbol
_atom_site_fract_x
_atom_site_fract_y
_atom_site_fract_z
C1 C 0.1817(3) 0.47384(13) 0.11765(13)
C2 C 0.1479(4) 0.44635(15) 0.21365(14)
C3 C 0.0363(4) 0.51548(17) 0.25413(14)
C4 C -0.0105(3) 0.58073(14) 0.19996(13)
C5 C 0.0910(3) 0.56980(12) 0.11374(12)
C6 C -0.0320(3) 0.59744(12) 0.03624(13)
C7 C 0.0574(3) 0.57591(14) -0.05150(13)
C8 C 0.0042(4) 0.48250(15) -0.08293(14)
C9 C 0.1223(4) 0.40818(14) -0.03988(14)
C10 C 0.0963(3) 0.39973(12) 0.05834(13)
C11 C -0.0129(4) 0.65496(15) -0.10633(15)
C12 C -0.0282(3) 0.72890(14) -0.04119(15)
C13 C -0.2117(6) 0.6438(2) -0.1505(2)
C14 C -0.1189(4) 0.38292(15) 0.08226(16)
C15 C -0.1412(5) 0.65817(19) 0.21857(19)
O1 O -0.0389(2) 0.69471(9) 0.03907(10)
O2 O -0.0350(3) 0.80798(11) -0.05258(13)
O3 O 0.1989(4) 0.37515(12) 0.24273(12)
O4 O 0.5002(3) 0.49956(15) 0.17138(15)
O5 O 0.4704(3) 0.49759(12) 0.03420(13)
O6 O 0.3913(3) 0.31653(13) 0.08324(17)
O7 O 0.1221(4) 0.24302(10) 0.08220(13)
N1 N 0.4045(3) 0.48936(12) 0.10595(14)
N2 N 0.2134(3) 0.31242(12) 0.07868(13)
H1 H -0.010(5) 0.506(2) 0.314(2)
H2 H 0.201(4) 0.6084(16) 0.1140(14)
H3 H -0.164(4) 0.5746(13) 0.0385(13)
H4 H 0.196(4) 0.5806(14) -0.0454(13)
H5 H 0.033(5) 0.4792(19) -0.1446(19)
H6 H -0.140(4) 0.4709(16) -0.0756(15)
H7 H 0.076(4) 0.3488(15) -0.0615(14)
H8 H 0.268(4) 0.4155(17) -0.0505(16)
H9 H 0.076(5) 0.6725(18) -0.1465(19)
H10 H -0.323(6) 0.633(2) -0.108(2)
H11 H -0.242(6) 0.696(3) -0.180(2)
H12 H -0.204(6) 0.596(2) -0.195(2)
H13 H -0.179(6) 0.345(2) 0.043(2)
H14 H -0.120(6) 0.359(2) 0.139(2)
H15 H -0.204(5) 0.434(2) 0.0770(19)
H16 H -0.069(5) 0.711(2) 0.2058(17)
H17 H -0.178(6) 0.658(2) 0.275(2)
H18 H -0.265(5) 0.655(2) 0.185(2)
#END
