
#######################################################################
#
#                 Cambridge Crystallographic Data Centre
#                                CCDC
#
#######################################################################
#
# If this CIF has been generated from an entry in the Cambridge
# Structural Database, then it will include bibliographic, chemical,
# crystal, experimental, refinement or atomic coordinate data resulting
# from the CCDC's data processing and validation procedures.
#
#######################################################################

data_CSD_CIF_XIQBIL01
_audit_creation_date 2018-09-11
_audit_creation_method CSD-ConQuest-V1
_database_code_CSD XIQBIL01
_database_code_depnum_ccdc_archive 'CCDC 1514212'
_chemical_formula_sum 'C22 H16 N8 O2'
_chemical_formula_moiety
;
C22 H16 N8 O2
;
_journal_coden_Cambridge 191
_journal_volume 707
_journal_year 2018
_journal_page_first 80
_journal_name_full 'Chem.Phys.Lett. '
loop_
_publ_author_name
"Yusen Zheng"
"Dingfeng Zhang"
"Liang Xu"
"Quanqin Hu"
"Zier Jing"
"Zihua Chen"
"Zhaobin Chen"
"Wei Du"
"Yongsheng Guo"
"Xiao-Fang Jiang"
"Yibin Song"
"Fushen Lu"
_chemical_name_systematic
;
4-nitro-2,6-bis(1-phenyl-1H-1,2,3-triazol-4-yl)aniline
;
_cell_volume   1867.144
_exptl_crystal_colour 'yellow'
_exptl_crystal_density_diffrn 1.51
_exptl_special_details
;
monoclinic P21/c polymorph

;
_exptl_crystal_description 'rod'
_diffrn_ambient_temperature 173
#These two values have been output from a single CSD field.
_refine_ls_R_factor_gt 0.0679
_refine_ls_wR_factor_gt 0.0679
_symmetry_cell_setting monoclinic
_symmetry_space_group_name_H-M 'P 21/c'
_symmetry_Int_Tables_number 14
loop_
_symmetry_equiv_pos_site_id
_symmetry_equiv_pos_as_xyz
1 x,y,z
2 -x,1/2+y,1/2-z
3 -x,-y,-z
4 x,-1/2-y,-1/2+z
_cell_length_a 13.613(4)
_cell_length_b 5.5100(14)
_cell_length_c 25.428(7)
_cell_angle_alpha 90
_cell_angle_beta 101.777(4)
_cell_angle_gamma 90
_cell_formula_units_Z 4
loop_
_atom_type_symbol
_atom_type_radius_bond
C 0.68
H 0.23
N 0.68
O 0.68
loop_
_atom_site_label
_atom_site_type_symbol
_atom_site_fract_x
_atom_site_fract_y
_atom_site_fract_z
O1 O 0.18777(12) -0.0981(3) 0.46733(6)
O2 O 0.34952(12) -0.0720(3) 0.49363(6)
N1 N -0.07558(13) 0.6391(3) 0.30310(7)
N2 N -0.03157(14) 0.8595(4) 0.30352(8)
N3 N 0.06341(14) 0.8302(4) 0.32643(7)
N4 N 0.26905(14) 0.8183(4) 0.33739(7)
H1 H 0.21190 0.87430 0.31870
H2 H 0.32580 0.89080 0.33550
N5 N 0.26867(14) 0.0021(4) 0.46694(7)
N6 N 0.46876(14) 0.8524(4) 0.37211(8)
N7 N 0.56408(14) 0.9068(4) 0.37724(8)
N8 N 0.61644(13) 0.7252(3) 0.40543(7)
C1 C -0.18218(16) 0.6196(4) 0.28556(8)
C2 C -0.23175(17) 0.4267(4) 0.30330(9)
H3 H -0.19510 0.30350 0.32510
C3 C -0.33536(17) 0.4153(5) 0.28896(9)
H4 H -0.37010 0.28440 0.30130
C4 C -0.38871(17) 0.5926(5) 0.25685(9)
H5 H -0.45980 0.58360 0.24700
C5 C -0.33806(17) 0.7833(5) 0.23907(9)
H6 H -0.37470 0.90500 0.21690
C6 C -0.23474(17) 0.7989(4) 0.25325(8)
H7 H -0.20020 0.93050 0.24100
C7 C -0.00856(15) 0.4706(4) 0.32580(8)
H8 H -0.02030 0.30250 0.33000
C8 C 0.08052(16) 0.5936(4) 0.34161(8)
C9 C 0.17766(16) 0.5040(4) 0.37202(8)
C10 C 0.17878(16) 0.3026(4) 0.40440(8)
H9 H 0.11760 0.22470 0.40680
C11 C 0.26895(17) 0.2138(4) 0.43345(8)
C12 C 0.35965(16) 0.3233(4) 0.43091(8)
H10 H 0.42050 0.25930 0.45120
C13 C 0.36182(16) 0.5253(4) 0.39886(8)
C14 C 0.26954(16) 0.6213(4) 0.36895(8)
C15 C 0.45931(16) 0.6358(4) 0.39670(8)
C16 C 0.55423(16) 0.5542(4) 0.41793(8)
H11 H 0.57230 0.40820 0.43730
C17 C 0.72349(16) 0.7345(4) 0.41744(8)
C18 C 0.77125(17) 0.9321(5) 0.40060(9)
H12 H 0.73320 1.06000 0.38130
C19 C 0.87461(17) 0.9423(5) 0.41199(10)
H13 H 0.90770 1.07880 0.40080
C20 C 0.93006(18) 0.7568(5) 0.43939(9)
H14 H 1.00130 0.76340 0.44670
C21 C 0.88143(18) 0.5607(5) 0.45624(10)
H15 H 0.91960 0.43230 0.47530
C22 C 0.77767(17) 0.5487(5) 0.44575(9)
H16 H 0.74450 0.41460 0.45790
#END
