
#######################################################################
#
#                 Cambridge Crystallographic Data Centre
#                                CCDC
#
#######################################################################
#
# If this CIF has been generated from an entry in the Cambridge
# Structural Database, then it will include bibliographic, chemical,
# crystal, experimental, refinement or atomic coordinate data resulting
# from the CCDC's data processing and validation procedures.
#
#######################################################################

data_CSD_CIF_XIQBIL
_audit_creation_date 2018-09-11
_audit_creation_method CSD-ConQuest-V1
_database_code_CSD XIQBIL
_database_code_depnum_ccdc_archive 'CCDC 1514210'
_chemical_formula_sum 'C22 H16 N8 O2'
_chemical_formula_moiety
;
C22 H16 N8 O2
;
_journal_coden_Cambridge 191
_journal_volume 707
_journal_year 2018
_journal_page_first 80
_journal_name_full 'Chem.Phys.Lett. '
loop_
_publ_author_name
"Yusen Zheng"
"Dingfeng Zhang"
"Liang Xu"
"Quanqin Hu"
"Zier Jing"
"Zihua Chen"
"Zhaobin Chen"
"Wei Du"
"Yongsheng Guo"
"Xiao-Fang Jiang"
"Yibin Song"
"Fushen Lu"
_chemical_name_systematic
;
4-nitro-2,6-bis(1-phenyl-1H-1,2,3-triazol-4-yl)aniline
;
_cell_volume    951.598
_exptl_crystal_colour 'yellow'
_exptl_crystal_density_diffrn 1.481
_exptl_special_details
;
triclinic P-1 polymorph

;
_exptl_crystal_description 'plate'
_diffrn_ambient_temperature 173
#These two values have been output from a single CSD field.
_refine_ls_R_factor_gt 0.0595
_refine_ls_wR_factor_gt 0.0595
_symmetry_cell_setting triclinic
_symmetry_space_group_name_H-M 'P -1'
_symmetry_Int_Tables_number 2
loop_
_symmetry_equiv_pos_site_id
_symmetry_equiv_pos_as_xyz
1 x,y,z
2 -x,-y,-z
_cell_length_a 8.6421(15)
_cell_length_b 9.9016(19)
_cell_length_c 11.888(2)
_cell_angle_alpha 82.123(8)
_cell_angle_beta 71.410(7)
_cell_angle_gamma 82.883(9)
_cell_formula_units_Z 2
loop_
_atom_type_symbol
_atom_type_radius_bond
C 0.68
H 0.23
N 0.68
O 0.68
loop_
_atom_site_label
_atom_site_type_symbol
_atom_site_fract_x
_atom_site_fract_y
_atom_site_fract_z
O1 O 0.84664(18) 0.64415(15) 0.53264(13)
O2 O 0.65950(19) 0.79127(14) 0.62607(14)
N1 N 0.90430(17) 0.01150(14) 0.71684(12)
N2 N 0.78411(19) -0.03150(15) 0.81509(14)
N3 N 0.68397(19) 0.07621(16) 0.84809(14)
N4 N 0.44751(17) 0.26008(14) 0.96566(13)
H1 H 0.35910 0.27980 1.02480
H2 H 0.49590 0.17640 0.96420
N5 N 0.72242(19) 0.67299(16) 0.61543(14)
N6 N 0.19279(17) 0.44497(14) 1.06056(13)
N7 N 0.05998(18) 0.51020(14) 1.12560(13)
N8 N 0.05720(16) 0.64033(13) 1.07603(12)
C1 C 1.0383(2) -0.08268(17) 0.66208(15)
C2 C 1.1636(2) -0.03453(18) 0.56476(15)
H3 H 1.15890 0.05880 0.53300
C3 C 1.2962(2) -0.12455(19) 0.51440(17)
H4 H 1.38310 -0.09250 0.44790
C4 C 1.3031(2) -0.26013(19) 0.55987(18)
H5 H 1.39430 -0.32130 0.52480
C5 C 1.1765(2) -0.30665(19) 0.65694(19)
H6 H 1.18130 -0.40010 0.68840
C6 C 1.0425(2) -0.21827(18) 0.70893(17)
H7 H 0.95550 -0.25040 0.77540
C7 C 0.8800(2) 0.14670(16) 0.68703(15)
H8 H 0.94670 0.20130 0.62180
C8 C 0.7372(2) 0.18886(16) 0.77170(14)
C9 C 0.65452(19) 0.32752(16) 0.78148(14)
C10 C 0.7217(2) 0.43165(17) 0.69616(15)
H9 H 0.81870 0.41220 0.63290
C11 C 0.6480(2) 0.56447(17) 0.70259(14)
C12 C 0.5036(2) 0.59538(17) 0.79211(15)
H10 H 0.45430 0.68660 0.79390
C13 C 0.43147(19) 0.49456(16) 0.87835(14)
C14 C 0.50869(19) 0.35782(16) 0.87741(14)
C15 C 0.27633(19) 0.53288(16) 0.96874(14)
C16 C 0.1887(2) 0.65929(17) 0.97825(15)
H11 H 0.21490 0.74150 0.92740
C17 C -0.07415(19) 0.73815(16) 1.12783(15)
C18 C -0.1612(2) 0.71526(18) 1.24805(16)
H12 H -0.13450 0.63560 1.29500
C19 C -0.2874(2) 0.81025(19) 1.29848(17)
H13 H -0.34820 0.79550 1.38060
C20 C -0.3257(2) 0.92683(19) 1.22990(18)
H14 H -0.41190 0.99200 1.26510
C21 C -0.2380(2) 0.94792(18) 1.11037(17)
H15 H -0.26480 1.02740 1.06330
C22 C -0.1108(2) 0.85335(17) 1.05848(16)
H16 H -0.05000 0.86800 0.97640
#END
