
#######################################################################
#
#                 Cambridge Crystallographic Data Centre
#                                CCDC
#
#######################################################################
#
# If this CIF has been generated from an entry in the Cambridge
# Structural Database, then it will include bibliographic, chemical,
# crystal, experimental, refinement or atomic coordinate data resulting
# from the CCDC's data processing and validation procedures.
#
#######################################################################

data_CSD_CIF_XIQKIU
_audit_creation_date 2018-09-11
_audit_creation_method CSD-ConQuest-V1
_database_code_CSD XIQKIU
_database_code_depnum_ccdc_archive 'CCDC 1859819'
_chemical_formula_sum 'C17 H18 N2 O4'
_chemical_formula_moiety
;
C17 H18 N2 O4
;
_journal_coden_Cambridge 4
_journal_volume 140
_journal_year 2018
_journal_page_first 11608
_journal_name_full 'J.Am.Chem.Soc. '
loop_
_publ_author_name
"Pingluan Wang"
"Yang Gao"
"D.Ma"
_chemical_name_systematic
;
1-methoxy-3a',4',8',8a'-tetrahydro-1'H,6'H-spiro[indole-3,7'-[3,6]methanooxepi
no[4,3-b]pyrrole]-2,2'(1H,3'H)-dione
;
_chemical_name_common
;
(-)-gelsedilam
;
_cell_volume    765.030
_exptl_crystal_colour 'colorless'
_exptl_crystal_density_diffrn 1.365
_exptl_crystal_description 'prismatic'
_diffrn_ambient_temperature 296
#These two values have been output from a single CSD field.
_refine_ls_R_factor_gt 0.0698
_refine_ls_wR_factor_gt 0.0698
loop_
_citation_database_id_CSD
_citation_special_details
BAKKAC "is a racemate of this entry"
_symmetry_cell_setting monoclinic
_symmetry_space_group_name_H-M 'P 21'
_symmetry_Int_Tables_number 4
loop_
_symmetry_equiv_pos_site_id
_symmetry_equiv_pos_as_xyz
1 x,y,z
2 -x,1/2+y,-z
_cell_length_a 7.0225(2)
_cell_length_b 7.9430(2)
_cell_length_c 13.7152(4)
_cell_angle_alpha 90
_cell_angle_beta 90.007(2)
_cell_angle_gamma 90
_cell_formula_units_Z 2
loop_
_atom_type_symbol
_atom_type_radius_bond
C 0.68
H 0.23
N 0.68
O 0.68
loop_
_atom_site_label
_atom_site_type_symbol
_atom_site_fract_x
_atom_site_fract_y
_atom_site_fract_z
O1 O 0.4563(5) 0.3160(4) -0.0255(2)
O2 O 0.9072(4) 0.2228(4) 0.2682(2)
O3 O 0.3795(4) 0.4847(4) 0.1707(3)
O4 O 0.2508(4) 0.6821(5) 0.3246(3)
N1 N 0.7039(5) 0.4826(4) 0.0260(2)
H1 H 0.67280 0.57270 -0.00500
N2 N 0.4303(5) 0.6169(5) 0.3153(3)
C1 C 0.6066(6) 0.3367(5) 0.0189(3)
C2 C 0.7147(6) 0.2030(5) 0.0743(3)
H2 H 0.72550 0.09980 0.03550
C3 C 0.9104(6) 0.2820(5) 0.0905(3)
H3 H 0.98860 0.25800 0.03300
C4 C 1.0131(6) 0.2139(6) 0.1784(3)
H4 H 1.04590 0.09710 0.16610
H5 H 1.13110 0.27580 0.18650
C5 C 0.7094(5) 0.2628(5) 0.2578(3)
H6 H 0.64700 0.22140 0.31710
C6 C 0.6212(5) 0.1659(5) 0.1739(3)
H7 H 0.48690 0.19340 0.17010
H8 H 0.63160 0.04630 0.18730
C7 C 0.8666(5) 0.4722(5) 0.0911(3)
H9 H 0.97360 0.53130 0.06070
C8 C 0.8332(5) 0.5478(4) 0.1914(3)
H10 H 0.79020 0.66290 0.18260
H11 H 0.95490 0.55260 0.22480
C9 C 0.6886(5) 0.4571(4) 0.2599(2)
C10 C 0.4822(5) 0.5161(5) 0.2393(3)
C11 C 0.5652(6) 0.6233(6) 0.3900(3)
C12 C 0.7214(5) 0.5284(5) 0.3624(3)
C13 C 0.8742(6) 0.5172(7) 0.4237(3)
H12 H 0.98040 0.45380 0.40650
C14 C 0.8680(8) 0.6029(8) 0.5131(3)
H13 H 0.97060 0.59540 0.55570
C15 C 0.7124(9) 0.6977(8) 0.5384(3)
H14 H 0.71260 0.75470 0.59760
C16 C 0.5546(8) 0.7106(8) 0.4777(3)
H15 H 0.44820 0.77380 0.49470
C17 C 0.232(1) 0.8346(9) 0.2729(5)
H16 H 0.26290 0.81630 0.20550
H17 H 0.31710 0.91700 0.29990
H18 H 0.10330 0.87440 0.27800
#END
