
#######################################################################
#
#                 Cambridge Crystallographic Data Centre
#                                CCDC
#
#######################################################################
#
# If this CIF has been generated from an entry in the Cambridge
# Structural Database, then it will include bibliographic, chemical,
# crystal, experimental, refinement or atomic coordinate data resulting
# from the CCDC's data processing and validation procedures.
#
#######################################################################

data_CSD_CIF_XIQXEB
_audit_creation_date 2008-02-21
_audit_creation_method CSD-ConQuest-V1
_database_code_CSD XIQXEB
_database_code_depnum_ccdc_archive 'CCDC 636047'
_database_code_depnum_ccdc_journal 1267/2049
_chemical_formula_sum 'C20 H24 N2 O4'
_chemical_formula_moiety
;
C20 H24 N2 O4
;
_journal_coden_Cambridge 1267
_journal_volume 222
_journal_year 2007
_journal_page_first 289
_journal_name_full 'Z.Kristallogr.-New Cryst.Struct. '
loop_
_publ_author_name
"Wen-Kui Dong"
"Xue-Ni He"
"Chen-Ming Dong"
"Li Wang"
"Jin-Kui Zhong"
"Xiao Chen"
"Tian-Zhi Yu"
_chemical_name_systematic
;
2,2'-((1,4-butylene)dioxybis(nitrilethylidyne))diphenol
;
_chemical_melting_point 405.15
_cell_volume   1811.429
_exptl_crystal_colour 'colorless'
_exptl_crystal_density_diffrn 1.307
_exptl_special_details
;
Melting point range 405.15-406.15K

;
_exptl_crystal_description 'block'
_exptl_crystal_preparation 'tetrahydrofuran/methanol'
_diffrn_ambient_temperature 293
#These two values have been output from a single CSD field.
_refine_ls_R_factor_gt 0.0486
_refine_ls_wR_factor_gt 0.0486
_symmetry_cell_setting monoclinic
_symmetry_space_group_name_H-M 'C 2/c'
_symmetry_Int_Tables_number 15
loop_
_symmetry_equiv_pos_site_id
_symmetry_equiv_pos_as_xyz
1 x,y,z
2 1/2+x,1/2+y,z
3 -x,y,1/2-z
4 1/2-x,1/2+y,1/2-z
5 -x,-y,-z
6 -1/2-x,-1/2-y,-z
7 x,-y,-1/2+z
8 -1/2+x,-1/2-y,-1/2+z
_cell_length_a 19.441(3)
_cell_length_b 7.7452(18)
_cell_length_c 13.875(2)
_cell_angle_alpha 90
_cell_angle_beta 119.884(2)
_cell_angle_gamma 90
_cell_formula_units_Z 4
loop_
_atom_type_symbol
_atom_type_radius_bond
C 0.68
H 0.23
N 0.68
O 0.68
loop_
_atom_site_label
_atom_site_type_symbol
_atom_site_fract_x
_atom_site_fract_y
_atom_site_fract_z
N1 N 0.44371(9) 0.4936(2) 0.08361(14)
O1 O 0.36403(7) 0.44313(16) 0.02378(12)
O2 O 0.59459(8) 0.43671(17) 0.19750(13)
H1 H 0.54760 0.41040 0.16070
C1 C 0.35933(11) 0.2594(2) 0.03208(18)
H2 H 0.38500 0.22480 0.10950
H3 H 0.38570 0.20190 -0.00270
C2 C 0.27273(10) 0.2110(2) -0.02609(17)
H4 H 0.26840 0.08630 -0.02580
H5 H 0.24820 0.24810 -0.10300
C3 C 0.45304(11) 0.6586(2) 0.08673(16)
C4 C 0.53573(11) 0.7223(2) 0.14922(15)
C5 C 0.60175(11) 0.6110(2) 0.20216(16)
C6 C 0.67792(12) 0.6780(3) 0.26222(17)
H6 H 0.72100 0.60340 0.29710
C7 C 0.69050(12) 0.8542(3) 0.27078(17)
H7 H 0.74180 0.89750 0.31180
C8 C 0.62724(12) 0.9659(3) 0.21861(17)
H8 H 0.63570 1.08460 0.22330
C9 C 0.55116(12) 0.9003(3) 0.15919(17)
H9 H 0.50880 0.97670 0.12470
C10 C 0.38516(12) 0.7820(3) 0.03207(19)
H10 H 0.33620 0.71880 -0.00440
H11 H 0.39060 0.84980 -0.02170
H12 H 0.38510 0.85680 0.08720
N1E N 0.05629(9) 0.0064(2) -0.08361(14)
O1E O 0.13597(7) 0.05687(16) -0.02378(12)
O2E O -0.09459(8) 0.06329(17) -0.19750(13)
H1E H -0.04760 0.08960 -0.16070
C1E C 0.14067(11) 0.2406(2) -0.03208(18)
H2E H 0.11500 0.27520 -0.10950
H3E H 0.11430 0.29810 0.00270
C2E C 0.22727(10) 0.2890(2) 0.02609(17)
H4E H 0.23160 0.41370 0.02580
H5E H 0.25180 0.25190 0.10300
C3E C 0.04696(11) -0.1586(2) -0.08673(16)
C4E C -0.03573(11) -0.2223(2) -0.14922(15)
C5E C -0.10175(11) -0.1110(2) -0.20216(16)
C6E C -0.17792(12) -0.1780(3) -0.26222(17)
H6E H -0.22100 -0.10340 -0.29710
C7E C -0.19050(12) -0.3542(3) -0.27078(17)
H7E H -0.24180 -0.39750 -0.31180
C8E C -0.12724(12) -0.4659(3) -0.21861(17)
H8E H -0.13570 -0.58460 -0.22330
C9E C -0.05116(12) -0.4003(3) -0.15919(17)
H9E H -0.00880 -0.47670 -0.12470
C10E C 0.11484(12) -0.2820(3) -0.03207(19)
H10E H 0.16380 -0.21880 0.00440
H11E H 0.10940 -0.34980 0.02170
H12E H 0.11490 -0.35680 -0.08720
#END
