
#######################################################################
#
#                 Cambridge Crystallographic Data Centre
#                                CCDC
#
#######################################################################
#
# If this CIF has been generated from an entry in the Cambridge
# Structural Database, then it will include bibliographic, chemical,
# crystal, experimental, refinement or atomic coordinate data resulting
# from the CCDC's data processing and validation procedures.
#
#######################################################################

data_CSD_CIF_XIQXOL
_audit_creation_date 2008-02-21
_audit_creation_method CSD-ConQuest-V1
_database_code_CSD XIQXOL
_database_code_depnum_ccdc_archive 'CCDC 615802'
_database_code_depnum_ccdc_journal 1267/2051
_chemical_formula_sum 'C15 H9 N1 O6'
_chemical_formula_moiety
;
C15 H9 N1 O6
;
_journal_coden_Cambridge 1267
_journal_volume 222
_journal_year 2007
_journal_page_first 293
_journal_name_full 'Z.Kristallogr.-New Cryst.Struct. '
loop_
_publ_author_name
"Da-Jin Tan"
"Zun-Ting Zhang"
_chemical_name_systematic
;
3'-Nitro-4',7-dihydroxyisoflavone
;
_chemical_name_common
;
3'-Nitrodaidzein
;
_chemical_melting_point 418
_cell_volume    624.115
_exptl_crystal_colour 'yellow'
_exptl_crystal_density_diffrn 1.592
_exptl_special_details
;
potential biological activity

;
_exptl_crystal_description 'needle'
_exptl_crystal_preparation 'ethanol'
_diffrn_ambient_temperature 296
#These two values have been output from a single CSD field.
_refine_ls_R_factor_gt 0.0684
_refine_ls_wR_factor_gt 0.0684
_symmetry_cell_setting triclinic
_symmetry_space_group_name_H-M 'P -1'
_symmetry_Int_Tables_number 2
loop_
_symmetry_equiv_pos_site_id
_symmetry_equiv_pos_as_xyz
1 x,y,z
2 -x,-y,-z
_cell_length_a 7.886(3)
_cell_length_b 8.046(3)
_cell_length_c 11.116(4)
_cell_angle_alpha 87.853(6)
_cell_angle_beta 69.680(6)
_cell_angle_gamma 71.245(6)
_cell_formula_units_Z 2
loop_
_atom_type_symbol
_atom_type_radius_bond
C 0.68
H 0.23
N 0.68
O 0.68
loop_
_atom_site_label
_atom_site_type_symbol
_atom_site_fract_x
_atom_site_fract_y
_atom_site_fract_z
N1 N 0.5454(4) 1.2213(4) 0.1189(3)
O1 O 0.6549(5) 1.1603(4) 0.1758(3)
O2 O 0.5612(4) 1.3427(4) 0.0480(3)
O3 O 0.2608(4) 1.3595(4) -0.0025(3)
H1 H 0.34830 1.39550 -0.00580
O4 O 0.2491(4) 0.9197(3) 0.4906(2)
O5 O 0.2160(3) 0.5017(3) 0.31532(19)
O6 O 0.2644(4) 0.1524(3) 0.6603(2)
H2 H 0.27970 0.07480 0.60800
C1 C 0.3920(5) 1.1543(4) 0.1341(3)
C2 C 0.2615(5) 1.2251(4) 0.0732(3)
C3 C 0.1178(5) 1.1532(5) 0.0927(3)
H3 H 0.02820 1.19680 0.05290
C4 C 0.1067(5) 1.0175(5) 0.1705(3)
H4 H 0.00850 0.97140 0.18240
C5 C 0.2370(5) 0.9465(4) 0.2321(3)
C6 C 0.3809(5) 1.0164(4) 0.2123(3)
H5 H 0.47140 0.97140 0.25130
C7 C 0.2301(5) 0.7946(4) 0.3100(3)
C8 C 0.2157(5) 0.6523(4) 0.2596(3)
H6 H 0.20460 0.65920 0.17880
C9 C 0.2344(4) 0.4880(4) 0.4340(3)
C10 C 0.2425(4) 0.6283(4) 0.4976(3)
C11 C 0.2425(5) 0.7911(4) 0.4378(3)
C12 C 0.2407(5) 0.3285(4) 0.4837(3)
H7 H 0.23410 0.23800 0.43770
C13 C 0.2571(5) 0.3050(4) 0.6030(3)
C14 C 0.2616(5) 0.4438(5) 0.6721(3)
H8 H 0.26840 0.42930 0.75390
C15 C 0.2560(5) 0.6010(4) 0.6200(3)
H9 H 0.26130 0.69180 0.66640
#END
