
#######################################################################
#
#                 Cambridge Crystallographic Data Centre
#                                CCDC
#
#######################################################################
#
# If this CIF has been generated from an entry in the Cambridge
# Structural Database, then it will include bibliographic, chemical,
# crystal, experimental, refinement or atomic coordinate data resulting
# from the CCDC's data processing and validation procedures.
#
#######################################################################

data_CSD_CIF_XIQYAY
_audit_creation_date 2008-02-21
_audit_creation_method CSD-ConQuest-V1
_database_code_CSD XIQYAY
_database_code_depnum_ccdc_archive 'CCDC 670684'
_database_code_depnum_ccdc_journal 1267/2053
_chemical_formula_sum 'C17 H11 N3 O3'
_chemical_formula_moiety
;
C17 H11 N3 O3
;
_journal_coden_Cambridge 1267
_journal_volume 222
_journal_year 2007
_journal_page_first 297
_journal_name_full 'Z.Kristallogr.-New Cryst.Struct. '
loop_
_publ_author_name
"Jie Li"
"Dong Xue"
"Zun-Ting Zhang"
_chemical_name_systematic
;
3-Amino-5-(furan-2-yl)-2-nitrobiphenyl-4-carbonitrile
;
_chemical_melting_point 435
_cell_volume   6477.322
_exptl_crystal_colour 'yellow'
_exptl_crystal_density_diffrn 1.409
_exptl_crystal_description 'needle'
_exptl_crystal_preparation 'hexane'
_diffrn_ambient_temperature 296
#These two values have been output from a single CSD field.
_refine_ls_R_factor_gt 0.0416
_refine_ls_wR_factor_gt 0.0416
_symmetry_cell_setting rhombohedral
_symmetry_space_group_name_H-M 'R -3'
_symmetry_Int_Tables_number 148
loop_
_symmetry_equiv_pos_site_id
_symmetry_equiv_pos_as_xyz
1 x,y,z
2 -y,x-y,z
3 -x+y,-x,z
4 2/3+x,1/3+y,1/3+z
5 2/3-y,1/3+x-y,1/3+z
6 2/3-x+y,1/3-x,1/3+z
7 1/3+x,2/3+y,2/3+z
8 1/3-y,2/3+x-y,2/3+z
9 1/3-x+y,2/3-x,2/3+z
10 -x,-y,-z
11 y,-x+y,-z
12 x-y,x,-z
13 -2/3-x,-1/3-y,-1/3-z
14 -2/3+y,-1/3-x+y,-1/3-z
15 -2/3+x-y,-1/3+x,-1/3-z
16 -1/3-x,-2/3-y,-2/3-z
17 -1/3+y,-2/3-x+y,-2/3-z
18 -1/3+x-y,-2/3+x,-2/3-z
_cell_length_a 36.6123(16)
_cell_length_b 36.6123(16)
_cell_length_c 5.5797(3)
_cell_angle_alpha 90
_cell_angle_beta 90
_cell_angle_gamma 120
_cell_formula_units_Z 18
loop_
_atom_type_symbol
_atom_type_radius_bond
C 0.68
H 0.23
N 0.68
O 0.68
loop_
_atom_site_label
_atom_site_type_symbol
_atom_site_fract_x
_atom_site_fract_y
_atom_site_fract_z
C1 C 0.30307(7) 0.19711(7) -0.1338(4)
N1 N 0.28665(7) 0.12224(7) 0.0589(4)
N2 N 0.22808(5) 0.08323(6) 0.4411(4)
O1 O 0.27713(6) 0.25575(6) -0.1539(3)
O2 O 0.23102(6) 0.05680(5) 0.3212(3)
O3 O 0.22089(6) 0.07901(6) 0.6565(3)
C2 C 0.27922(8) 0.29408(7) -0.1796(5)
H1 H 0.29020 0.31150 -0.31280
C3 C 0.26365(7) 0.30260(7) 0.0098(5)
H2 H 0.26180 0.32670 0.03520
C4 C 0.25016(7) 0.26810(7) 0.1681(4)
H3 H 0.23770 0.26520 0.31730
C5 C 0.25874(5) 0.24044(5) 0.0627(3)
C6 C 0.25150(6) 0.19968(6) 0.1459(3)
C7 C 0.22045(6) 0.17907(6) 0.3214(3)
H4 H 0.20610 0.19210 0.38080
C8 C 0.21069(6) 0.13992(6) 0.4083(3)
C9 C 0.23387(6) 0.12134(6) 0.3256(3)
C10 C 0.26415(6) 0.13967(6) 0.1425(3)
C11 C 0.27240(6) 0.17950(6) 0.0550(3)
C12 C 0.17325(6) 0.11774(6) 0.5687(3)
C13 C 0.16806(7) 0.13845(7) 0.7613(3)
H5 H 0.18850 0.16620 0.79420
C14 C 0.13270(8) 0.11827(8) 0.9055(4)
H6 H 0.12970 0.13230 1.03610
C15 C 0.10229(8) 0.07787(8) 0.8564(4)
H7 H 0.07860 0.06440 0.95370
C16 C 0.10655(7) 0.05698(7) 0.6639(4)
H8 H 0.08560 0.02950 0.63070
C17 C 0.14186(7) 0.07668(7) 0.5189(4)
H9 H 0.14460 0.06240 0.38830
N3 N 0.32697(8) 0.20786(7) -0.2847(4)
H10 H 0.3020(7) 0.1329(7) -0.072(4)
H11 H 0.2772(8) 0.0951(9) 0.092(4)
#END
