
#######################################################################
#
#                 Cambridge Crystallographic Data Centre
#                                CCDC
#
#######################################################################
#
# If this CIF has been generated from an entry in the Cambridge
# Structural Database, then it will include bibliographic, chemical,
# crystal, experimental, refinement or atomic coordinate data resulting
# from the CCDC's data processing and validation procedures.
#
#######################################################################

data_CSD_CIF_XIRJEP02
_audit_creation_date 2018-03-27
_audit_creation_method CSD-ConQuest-V1
_database_code_CSD XIRJEP02
_database_code_depnum_ccdc_archive 'CCDC 1560149'
_chemical_formula_sum 'C27 H19 N3 O2'
_chemical_formula_moiety
;
C27 H19 N3 O2
;
_journal_coden_Cambridge 574
_journal_volume 156
_journal_year 2018
_journal_page_first 116
_journal_name_full 'Dyes Pigm. '
loop_
_publ_author_name
"S.Redon"
"G.Eucat"
"M.Ipuy"
"E.Jeanneau"
"I.Gautier-Luneau"
"A.Ibanez"
"C.Andraud"
"Y.Bretonniere"
_chemical_name_systematic
;
3-[4-(diphenylamino)phenyl]-2-(4-nitrophenyl)prop-2-enenitrile
;
_cell_volume   2091.344
_exptl_crystal_colour 'red'
_exptl_crystal_density_diffrn 1.326
_exptl_crystal_description 'block'
_diffrn_ambient_temperature 150
#These two values have been output from a single CSD field.
_refine_ls_R_factor_gt 0.05
_refine_ls_wR_factor_gt 0.05
_symmetry_cell_setting monoclinic
_symmetry_space_group_name_H-M 'P 21/c'
_symmetry_Int_Tables_number 14
loop_
_symmetry_equiv_pos_site_id
_symmetry_equiv_pos_as_xyz
1 x,y,z
2 -x,1/2+y,1/2-z
3 -x,-y,-z
4 x,-1/2-y,-1/2+z
_cell_length_a 11.1416(9)
_cell_length_b 7.5222(7)
_cell_length_c 25.148(2)
_cell_angle_alpha 90
_cell_angle_beta 97.129(8)
_cell_angle_gamma 90
_cell_formula_units_Z 4
loop_
_atom_type_symbol
_atom_type_radius_bond
C 0.68
H 0.23
N 0.68
O 0.68
loop_
_atom_site_label
_atom_site_type_symbol
_atom_site_fract_x
_atom_site_fract_y
_atom_site_fract_z
O1 O 0.0747(2) 1.1465(2) 0.43390(8)
N1 N 0.1494(2) 1.0548(3) 0.41435(9)
O2 O 0.2016(2) 1.1031(3) 0.37697(9)
C1 C 0.1791(2) 0.8800(3) 0.43836(9)
C2 C 0.1063(2) 0.8107(3) 0.47370(9)
C3 C 0.1361(2) 0.6463(3) 0.49692(8)
C4 C 0.23720(18) 0.5532(3) 0.48525(7)
C5 C 0.27064(17) 0.3787(3) 0.51042(7)
C6 C 0.3661(2) 0.2883(3) 0.48840(9)
N2 N 0.4416(2) 0.2192(3) 0.46903(10)
C7 C 0.21765(17) 0.3065(3) 0.55077(7)
C8 C 0.23917(17) 0.1399(2) 0.57996(7)
C9 C 0.16908(17) 0.1075(2) 0.62168(7)
C10 C 0.18514(16) -0.0432(2) 0.65323(7)
C11 C 0.27132(16) -0.1698(2) 0.64378(7)
N3 N 0.28702(13) -0.3260(2) 0.67488(6)
C12 C 0.18388(15) -0.4185(2) 0.68915(7)
C13 C 0.19203(17) -0.5138(2) 0.73689(7)
C14 C 0.09404(17) -0.6121(3) 0.74945(8)
C15 C -0.01343(17) -0.6138(3) 0.71527(8)
C16 C -0.02264(16) -0.5149(3) 0.66869(8)
C17 C 0.07538(16) -0.4186(2) 0.65538(7)
H1 H 0.06840 -0.35060 0.62310
H2 H -0.09750 -0.51380 0.64580
H3 H -0.08300 -0.68220 0.72470
H4 H 0.10160 -0.68170 0.78210
H5 H 0.26710 -0.51260 0.76180
C18 C 0.40178(15) -0.4140(2) 0.68135(7)
C19 C 0.40973(17) -0.5954(3) 0.67312(8)
C20 C 0.52100(17) -0.6785(3) 0.67892(8)
C21 C 0.62540(18) -0.5822(3) 0.69307(9)
C22 C 0.61755(18) -0.4020(3) 0.70133(9)
C23 C 0.50637(17) -0.3172(3) 0.69600(8)
H6 H 0.49910 -0.19440 0.70220
H7 H 0.69170 -0.33360 0.71040
H8 H 0.70460 -0.64000 0.69810
H9 H 0.52350 -0.80500 0.67290
H10 H 0.33470 -0.66390 0.66390
C24 C 0.34106(17) -0.1393(3) 0.60217(7)
C25 C 0.32586(17) 0.0118(3) 0.57148(7)
H11 H 0.37760 0.02930 0.54530
H12 H 0.39770 -0.22160 0.59470
H13 H 0.13670 -0.06310 0.68070
H14 H 0.10910 0.19380 0.62780
H15 H 0.15600 0.37680 0.56470
C26 C 0.3072(2) 0.6277(3) 0.44881(9)
C27 C 0.2785(3) 0.7924(3) 0.42565(9)
H16 H 0.32750 0.84350 0.40260
H17 H 0.37450 0.56430 0.44010
H18 H 0.08630 0.59950 0.52160
H19 H 0.03770 0.87400 0.48240
#END
