
#######################################################################
#
#                 Cambridge Crystallographic Data Centre
#                                CCDC
#
#######################################################################
#
# If this CIF has been generated from an entry in the Cambridge
# Structural Database, then it will include bibliographic, chemical,
# crystal, experimental, refinement or atomic coordinate data resulting
# from the CCDC's data processing and validation procedures.
#
#######################################################################

data_CSD_CIF_XIRJEP01
_audit_creation_date 2016-06-22
_audit_creation_method CSD-ConQuest-V1
_database_code_CSD XIRJEP01
_database_code_depnum_ccdc_archive 'CCDC 1428578'
_chemical_formula_sum 'C27 H19 N3 O2'
_chemical_formula_moiety
;
C27 H19 N3 O2
;
_journal_coden_Cambridge 1500
_journal_volume 6
_journal_year 2016
_journal_page_first 60022
_journal_name_full 'RSC Advances '
loop_
_publ_author_name
"Xin Zhang"
"Xiaoping Gan"
"Shun Yao"
"Weiju Zhu"
"Jianhua Yu"
"Zhichao Wu"
"Hongping Zhou"
"Yupeng Tian"
"Jieying Wu"
_chemical_name_systematic
;
3-(4-(diphenylamino)phenyl)-2-(4-nitrophenyl)acrylonitrile
;
_cell_volume   2151.698
_exptl_crystal_colour 'red'
_exptl_crystal_density_diffrn 1.289
_exptl_crystal_description 'block'
_diffrn_ambient_temperature 296
#These two values have been output from a single CSD field.
_refine_ls_R_factor_gt 0.0454
_refine_ls_wR_factor_gt 0.0454
_symmetry_cell_setting monoclinic
_symmetry_space_group_name_H-M 'P 21/c'
_symmetry_Int_Tables_number 14
loop_
_symmetry_equiv_pos_site_id
_symmetry_equiv_pos_as_xyz
1 x,y,z
2 -x,1/2+y,1/2-z
3 -x,-y,-z
4 x,-1/2-y,-1/2+z
_cell_length_a 11.165(5)
_cell_length_b 7.545(5)
_cell_length_c 25.708(5)
_cell_angle_alpha 90
_cell_angle_beta 96.505(5)
_cell_angle_gamma 90
_cell_formula_units_Z 4
loop_
_atom_type_symbol
_atom_type_radius_bond
C 0.68
H 0.23
N 0.68
O 0.68
loop_
_atom_site_label
_atom_site_type_symbol
_atom_site_fract_x
_atom_site_fract_y
_atom_site_fract_z
N1 N 0.71214(12) 1.31441(19) 0.82624(6)
C1 C 0.81490(15) 1.4060(2) 0.81162(7)
O1 O 0.9239(2) -0.1422(3) 1.06573(9)
C2 C 0.72823(17) 0.6206(2) 0.98950(7)
C3 C 0.77984(17) 0.6896(2) 0.94940(7)
H1 H 0.84050 0.61940 0.93830
C4 C 0.72725(15) 1.1596(2) 0.85697(7)
C5 C 0.82766(17) 0.8846(2) 0.87890(7)
H2 H 0.88580 0.80190 0.87230
C6 C 0.65785(17) 1.1310(2) 0.89773(8)
H3 H 0.60030 1.21460 0.90440
C7 C 0.76242(19) 0.4482(3) 1.01477(7)
C8 C 0.58784(17) 1.5793(3) 0.82823(8)
H4 H 0.65670 1.64500 0.83890
C9 C 0.81255(17) 1.0326(2) 0.84786(7)
H5 H 0.85960 1.04800 0.82060
C10 C 0.92284(15) 1.4072(2) 0.84413(7)
H6 H 0.92980 1.34410 0.87540
C11 C 0.80709(17) 1.4973(2) 0.76473(8)
H7 H 0.73640 1.49310 0.74180
C12 C 0.75872(16) 0.8537(2) 0.92007(7)
C13 C 0.59745(15) 1.4009(2) 0.81937(7)
C14 C 0.67221(18) 0.9825(2) 0.92835(8)
H8 H 0.62380 0.96660 0.95510
N2 N 0.8519(3) -0.0484(3) 1.08562(11)
C15 C 1.01990(17) 1.5021(3) 0.83009(9)
H9 H 1.09240 1.50130 0.85180
C16 C 0.49412(18) 1.3061(3) 0.80378(9)
H10 H 0.49860 1.18520 0.79720
C17 C 0.8219(3) 0.1248(3) 1.06130(9)
C18 C 0.90467(19) 1.5950(3) 0.75191(9)
H11 H 0.89800 1.65950 0.72090
C19 C 0.6340(2) 0.7118(3) 1.01129(9)
C20 C 0.47718(18) 1.6622(3) 0.82153(9)
H12 H 0.47210 1.78350 0.82740
C21 C 0.8611(2) 0.3517(3) 1.00224(9)
H13 H 0.90820 0.39660 0.97770
C22 C 0.8903(2) 0.1903(3) 1.02548(10)
H14 H 0.95650 0.12700 1.01660
C23 C 0.6964(2) 0.3776(3) 1.05189(9)
H15 H 0.63050 0.43990 1.06160
C24 C 1.01041(19) 1.5978(3) 0.78422(10)
H16 H 1.07550 1.66380 0.77530
C25 C 0.38390(19) 1.3910(4) 0.79800(11)
H17 H 0.31430 1.32580 0.78820
C26 C 0.7265(3) 0.2153(4) 1.07511(10)
H18 H 0.68100 0.16920 1.10010
N3 N 0.5593(3) 0.7801(4) 1.03024(11)
C27 C 0.37531(19) 1.5677(3) 0.80637(10)
H19 H 0.30070 1.62370 0.80180
O2 O 0.8027(3) -0.0923(3) 1.12307(11)
#END
