
#######################################################################
#
#                 Cambridge Crystallographic Data Centre
#                                CCDC
#
#######################################################################
#
# If this CIF has been generated from an entry in the Cambridge
# Structural Database, then it will include bibliographic, chemical,
# crystal, experimental, refinement or atomic coordinate data resulting
# from the CCDC's data processing and validation procedures.
#
#######################################################################

data_CSD_CIF_XIRJEP
_audit_creation_date 2014-01-16
_audit_creation_method CSD-ConQuest-V1
_database_code_CSD XIRJEP
_database_code_depnum_ccdc_archive 'CCDC 968917'
_chemical_formula_sum 'C27 H19 N3 O2'
_chemical_formula_moiety
;
C27 H19 N3 O2
;
_journal_coden_Cambridge 440
_journal_volume 38
_journal_year 2014
_journal_page_first 1045
_journal_name_full 'New J.Chem. '
loop_
_publ_author_name
"Xin Zhao"
"Pengchong Xue"
"Kai Wang"
"Peng Chen"
"Peng Zhang"
"Ran Lu"
_chemical_name_systematic
;
3-(4-(diphenylamino)phenyl)-2-(4-nitrophenyl)acrylonitrile
;
_cell_volume   2150.226
_exptl_crystal_colour 'red'
_exptl_crystal_density_diffrn 1.289
_exptl_crystal_description 'block'
_diffrn_ambient_temperature 295
#These two values have been output from a single CSD field.
_refine_ls_R_factor_gt 0.0542
_refine_ls_wR_factor_gt 0.0542
_symmetry_cell_setting monoclinic
_symmetry_space_group_name_H-M 'P 21/c'
_symmetry_Int_Tables_number 14
loop_
_symmetry_equiv_pos_site_id
_symmetry_equiv_pos_as_xyz
1 x,y,z
2 -x,1/2+y,1/2-z
3 -x,-y,-z
4 x,-1/2-y,-1/2+z
_cell_length_a 11.154(2)
_cell_length_b 7.5463(15)
_cell_length_c 25.707(5)
_cell_angle_alpha 90
_cell_angle_beta 96.42(3)
_cell_angle_gamma 90
_cell_formula_units_Z 4
loop_
_atom_type_symbol
_atom_type_radius_bond
C 0.68
H 0.23
N 0.68
O 0.68
loop_
_atom_site_label
_atom_site_type_symbol
_atom_site_fract_x
_atom_site_fract_y
_atom_site_fract_z
N1 N 0.28772(13) -0.31451(18) 0.17385(6)
C1 C 0.18492(16) -0.4059(2) 0.18840(7)
C2 C 0.17213(18) 0.1159(2) 0.12112(7)
H1 H 0.11390 0.19850 0.12780
C3 C 0.24141(17) 0.1465(2) 0.07990(7)
C4 C 0.22061(18) 0.3103(2) 0.05056(7)
H2 H 0.16010 0.38070 0.06180
C5 C 0.27189(18) 0.3794(2) 0.01048(7)
C6 C 0.18742(17) -0.0323(2) 0.15202(7)
H3 H 0.14020 -0.04760 0.17930
C7 C 0.27260(16) -0.1598(2) 0.14308(7)
C8 C 0.34198(18) -0.1311(2) 0.10234(7)
H4 H 0.39960 -0.21470 0.09570
C9 C 0.07690(16) -0.4076(2) 0.15596(7)
H5 H 0.06990 -0.34460 0.12470
C10 C 0.32766(18) 0.0175(2) 0.07156(8)
H6 H 0.37600 0.03300 0.04470
C11 C 0.40222(16) -0.4005(2) 0.18057(7)
C12 C 0.2373(2) 0.5518(2) -0.01488(7)
C13 C -0.0109(2) -0.5978(3) 0.21567(9)
H7 H -0.07590 -0.66430 0.22440
C14 C 0.0954(2) -0.5940(3) 0.24817(9)
H8 H 0.10190 -0.65730 0.27940
C15 C 0.41198(18) -0.5795(2) 0.17168(8)
H9 H 0.34310 -0.64540 0.16110
C16 C 0.50596(19) -0.3064(3) 0.19627(9)
H10 H 0.50160 -0.18560 0.20300
C17 C -0.01981(18) -0.5018(3) 0.16988(9)
H11 H -0.09220 -0.50080 0.14810
C18 C 0.19263(18) -0.4980(2) 0.23517(8)
H12 H 0.26360 -0.49500 0.25790
C19 C 0.1786(3) 0.8747(3) -0.06142(9)
C20 C 0.5230(2) -0.6620(3) 0.17829(9)
H13 H 0.52830 -0.78310 0.17230
C21 C 0.1390(2) 0.6479(3) -0.00242(9)
H14 H 0.09150 0.60240 0.02190
C22 C 0.6246(2) -0.5674(3) 0.19357(10)
H15 H 0.69930 -0.62330 0.19820
C23 C 0.6160(2) -0.3910(3) 0.20194(11)
H16 H 0.68570 -0.32590 0.21170
C24 C 0.1097(2) 0.8097(3) -0.02530(9)
H17 H 0.04380 0.87360 -0.01620
N2 N 0.1487(3) 1.0481(3) -0.08568(11)
C25 C 0.3658(3) 0.2877(3) -0.01159(10)
C26 C 0.2743(3) 0.7847(4) -0.07526(10)
H18 H 0.32010 0.83080 -0.10010
O1 O 0.0762(2) 1.1416(3) -0.06569(9)
C27 C 0.3036(3) 0.6228(3) -0.05204(9)
H19 H 0.36950 0.56030 -0.06170
O2 O 0.1978(3) 1.0924(3) -0.12339(10)
N3 N 0.4403(3) 0.2189(3) -0.03063(11)
#END
