
#######################################################################
#
#                 Cambridge Crystallographic Data Centre
#                                CCDC
#
#######################################################################
#
# If this CIF has been generated from an entry in the Cambridge
# Structural Database, then it will include bibliographic, chemical,
# crystal, experimental, refinement or atomic coordinate data resulting
# from the CCDC's data processing and validation procedures.
#
#######################################################################

data_CSD_CIF_XIRQUM
_audit_creation_date 2014-01-16
_audit_creation_method CSD-ConQuest-V1
_database_code_CSD XIRQUM
_database_code_depnum_ccdc_archive 'CCDC 958815'
_chemical_formula_sum 'C13 H12 N2 O7'
_chemical_formula_moiety
;
C13 H12 N2 O7
;
_journal_coeditor_code "IUCr bi5027"
_journal_coden_Cambridge 1743
_journal_volume 70
_journal_year 2014
_journal_page_first 172
_journal_name_full 'Acta Crystallogr.,Sect.B:Struct.Sci.,Cryst.Eng. and Mat. '
loop_
_publ_author_name
"G.M.Lombardo"
"A.Rescifina"
"U.Chiacchio"
"A.Bacchi"
"F.Punzo"
_chemical_name_systematic
;
Dimethyl 3-(4-nitrophenyl)-4,5-dihydro-1,2-oxazole-4,5-dicarboxylate
;
_chemical_name_common
;
Dimethyl 3-(4-nitrophenyl)-4,5-dihydroisoxazole-4,5-dicarboxylate
;
_cell_volume   1370.229
_exptl_crystal_colour 'colorless'
_exptl_crystal_density_diffrn 1.494
_exptl_crystal_description 'prism'
_diffrn_ambient_temperature 293
#These two values have been output from a single CSD field.
_refine_ls_R_factor_gt 0.0402
_refine_ls_wR_factor_gt 0.0402
_symmetry_cell_setting monoclinic
_symmetry_space_group_name_H-M 'P 21/c'
_symmetry_Int_Tables_number 14
loop_
_symmetry_equiv_pos_site_id
_symmetry_equiv_pos_as_xyz
1 x,y,z
2 -x,1/2+y,1/2-z
3 -x,-y,-z
4 x,-1/2-y,-1/2+z
_cell_length_a 7.2032(2)
_cell_length_b 6.9183(3)
_cell_length_c 27.515(2)
_cell_angle_alpha 90
_cell_angle_beta 92.134(4)
_cell_angle_gamma 90
_cell_formula_units_Z 4
loop_
_atom_type_symbol
_atom_type_radius_bond
C 0.68
H 0.23
N 0.68
O 0.68
loop_
_atom_site_label
_atom_site_type_symbol
_atom_site_fract_x
_atom_site_fract_y
_atom_site_fract_z
N1 N 0.1514(2) 0.1930(2) -0.06205(5)
N2 N 0.40842(18) 0.84188(19) 0.09400(5)
O1 O 0.1488(3) 0.0178(2) -0.05648(6)
O2 O 0.1104(2) 0.2730(2) -0.10048(5)
O3 O 0.43675(16) 0.93415(17) 0.13944(4)
O4 O 0.59575(17) 0.42401(19) 0.14255(4)
O5 O 0.5048(2) 0.4656(3) 0.21773(5)
O6 O 0.11028(19) 1.07368(18) 0.17241(5)
O7 O 0.05328(16) 0.79192(17) 0.20942(4)
C1 C 0.2054(2) 0.3150(2) -0.02012(5)
C2 C 0.2380(2) 0.5091(2) -0.02755(5)
C3 C 0.2866(2) 0.6236(2) 0.01190(5)
C4 C 0.29951(19) 0.5448(2) 0.05864(5)
C5 C 0.2636(2) 0.3482(2) 0.06492(6)
C6 C 0.2183(2) 0.2323(2) 0.02550(6)
C7 C 0.34806(18) 0.6699(2) 0.10043(5)
C8 C 0.3312(2) 0.6186(2) 0.15339(5)
C9 C 0.3426(2) 0.8226(2) 0.17495(5)
C10 C 0.4867(2) 0.4927(2) 0.17506(5)
C11 C 0.1549(2) 0.9142(2) 0.18422(5)
C12 C 0.7500(3) 0.3034(4) 0.15973(8)
C13 C -0.1297(3) 0.8578(3) 0.22185(8)
H1 H 0.220(3) 0.553(2) 0.1599(6)
H2 H 0.268(3) 0.293(3) 0.0972(7)
H3 H 0.230(3) 0.561(3) -0.0582(8)
H4 H 0.192(3) 0.099(3) 0.0300(7)
H5 H 0.314(3) 0.758(3) 0.0075(7)
H6 H 0.791(5) 0.229(5) 0.1359(10)
H7 H 0.704(4) 0.222(4) 0.1839(11)
H8 H -0.180(3) 0.757(4) 0.2416(10)
H9 H -0.201(3) 0.881(4) 0.1921(10)
H10 H -0.126(4) 0.983(4) 0.2392(10)
H11 H 0.836(4) 0.381(4) 0.1734(11)
H12 H 0.414(3) 0.827(3) 0.2054(7)
#END
