
#######################################################################
#
#                 Cambridge Crystallographic Data Centre
#                                CCDC
#
#######################################################################
#
# If this CIF has been generated from an entry in the Cambridge
# Structural Database, then it will include bibliographic, chemical,
# crystal, experimental, refinement or atomic coordinate data resulting
# from the CCDC's data processing and validation procedures.
#
#######################################################################

data_CSD_CIF_XIRROF
_audit_creation_date 2002-06-28
_audit_creation_method CSD-ConQuest-V1
_database_code_CSD XIRROF
_database_code_depnum_ccdc_archive 'CCDC 1296894'
_chemical_formula_sum 'C7 H11 N3 O2'
_chemical_formula_moiety
;
C7 H11 N3 O2
;
_journal_coden_Cambridge 1234
_journal_volume 348
_journal_year 2000
_journal_page_first 317
_journal_name_full 'Mol.Cryst.Liq.Cryst.Sci.Technol.,Sect.A '
loop_
_publ_author_name
"H.C.Devarajegowda"
"J.S.Prasada"
"M.A.Sridhar"
"M.M.M.Abdoh"
_chemical_name_systematic
;
1-Methyl-2-isopropyl-5-nitroimidazole
;
_chemical_melting_point 333.15
_cell_volume    867.601
_exptl_crystal_colour 'colorless'
_exptl_crystal_density_diffrn 1.295
_exptl_special_details
;
Melting point range 333.15-334.15K

;
_exptl_crystal_preparation 'chloroform/ethanol'
_diffrn_ambient_temperature ?
_diffrn_special_details
;
The study was carried out at room temperature,in the range 283-303K

;
#These two values have been output from a single CSD field.
_refine_ls_R_factor_gt 0.09
_refine_ls_wR_factor_gt 0.09
_symmetry_cell_setting monoclinic
_symmetry_space_group_name_H-M 'P 21/c'
_symmetry_Int_Tables_number 14
loop_
_symmetry_equiv_pos_site_id
_symmetry_equiv_pos_as_xyz
1 x,y,z
2 -x,1/2+y,1/2-z
3 -x,-y,-z
4 x,-1/2-y,-1/2+z
_cell_length_a 9.9582(2)
_cell_length_b 6.5240(4)
_cell_length_c 13.5560(3)
_cell_angle_alpha 90
_cell_angle_beta 99.8930(17)
_cell_angle_gamma 90
_cell_formula_units_Z 4
loop_
_atom_type_symbol
_atom_type_radius_bond
C 0.68
N 0.68
O 0.68
loop_
_atom_site_label
_atom_site_type_symbol
_atom_site_fract_x
_atom_site_fract_y
_atom_site_fract_z
O1 O 0.6322(4) 0.3195(6) 0.5955(3)
O2 O 0.7492(3) 0.0428(6) 0.6347(3)
N1 N 0.3907(3) 0.0989(5) 0.6053(2)
N2 N 0.6397(4) 0.1386(7) 0.6176(3)
N3 N 0.3837(3) -0.2210(5) 0.6608(2)
C1 C 0.1596(4) -0.0452(7) 0.6146(3)
C2 C 0.1160(6) 0.0615(9) 0.7032(4)
C3 C 0.0971(5) -0.2586(6) 0.5987(4)
C4 C 0.5221(3) 0.0237(7) 0.6280(3)
C5 C 0.3438(5) 0.3003(6) 0.5650(4)
C6 C 0.3101(4) -0.0579(5) 0.6263(3)
C7 C 0.5144(4) -0.1701(7) 0.6612(3)
#END
