
#######################################################################
#
#                 Cambridge Crystallographic Data Centre
#                                CCDC
#
#######################################################################
#
# If this CIF has been generated from an entry in the Cambridge
# Structural Database, then it will include bibliographic, chemical,
# crystal, experimental, refinement or atomic coordinate data resulting
# from the CCDC's data processing and validation procedures.
#
#######################################################################

data_CSD_CIF_XIRSAS
_audit_creation_date 2002-06-27
_audit_creation_method CSD-ConQuest-V1
_database_code_CSD XIRSAS
_database_code_depnum_ccdc_archive 'CCDC 1296896'
_chemical_formula_sum 'C19 H24 N4 O4'
_chemical_formula_moiety
;
C19 H24 N4 O4
;
_journal_coden_Cambridge 511
_journal_volume 71
_journal_year 1999
_journal_page_first 2225
_journal_name_full 'Pure Appl.Chem. '
loop_
_publ_author_name
"H.Hashimoto"
"T.Nakashima"
"K.Hattori"
"T.Yamada"
"T.Mizoguchi"
"Y.Koyama"
"T.Kobayashi"
_chemical_name_systematic
;
4-(2,6,6-Trimethylcyclohexenyl)but-3-en-2-one 2,4-dinitrophenylhydrazone
;
_chemical_name_common
;
beta-Ionylidene-2,4-dinitrophenylhydrazone
;
_cell_volume   3833.664
_exptl_crystal_colour 'red'
_exptl_crystal_density_diffrn 1.29
_exptl_crystal_description 'plate'
_diffrn_ambient_temperature 173.15
#These two values have been output from a single CSD field.
_refine_ls_R_factor_gt 0.114
_refine_ls_wR_factor_gt 0.114
_symmetry_cell_setting monoclinic
_symmetry_space_group_name_H-M 'P 21'
_symmetry_Int_Tables_number 4
loop_
_symmetry_equiv_pos_site_id
_symmetry_equiv_pos_as_xyz
1 x,y,z
2 -x,1/2+y,-z
_cell_length_a 8.597(4)
_cell_length_b 34.103(4)
_cell_length_c 13.170(3)
_cell_angle_alpha 90
_cell_angle_beta 96.85(3)
_cell_angle_gamma 90
_cell_formula_units_Z 8
loop_
_atom_type_symbol
_atom_type_radius_bond
C 0.68
H 0.23
N 0.68
O 0.68
loop_
_atom_site_label
_atom_site_type_symbol
_atom_site_fract_x
_atom_site_fract_y
_atom_site_fract_z
O1 O 0.6388(6) 0.1602(5) 0.2128(4)
O2 O 0.7225(8) 0.1083(6) 0.1551(4)
O3 O 1.100(1) 0.0293(6) 0.3471(6)
O4 O 1.2128(8) 0.0482(5) 0.4902(5)
N1 N 0.7328(8) 0.2082(5) 0.4857(5)
N2 N 0.7384(7) 0.1864(6) 0.3989(4)
N3 N 0.7221(9) 0.1319(6) 0.2236(6)
N4 N 1.111(1) 0.0489(6) 0.4190(7)
C1 C 0.4174(9) 0.3192(6) 0.7263(5)
C2 C 0.419(1) 0.3242(6) 0.8413(7)
C3 C 0.545(1) 0.3451(6) 0.8987(9)
C4 C 0.710(1) 0.3329(6) 0.8646(6)
C5 C 0.7119(8) 0.3167(5) 0.7680(6)
C6 C 0.5820(8) 0.3096(5) 0.6992(5)
C7 C 0.5875(8) 0.2936(6) 0.5977(5)
C8 C 0.6635(8) 0.2601(6) 0.5769(6)
C9 C 0.6699(9) 0.2395(6) 0.4804(5)
C10 C 0.310(1) 0.2830(6) 0.6912(7)
C11 C 0.344(1) 0.3566(6) 0.6824(8)
C12 C 0.8790(9) 0.3105(6) 0.7396(7)
C13 C 0.5919(9) 0.2585(6) 0.3790(6)
C14 C 0.8306(9) 0.1538(6) 0.4029(6)
C15 C 0.8309(10) 0.1282(5) 0.3229(7)
C16 C 0.9211(9) 0.0939(6) 0.3231(7)
C17 C 1.0086(10) 0.0868(6) 0.4067(7)
C18 C 1.0118(9) 0.1106(6) 0.4953(6)
C19 C 0.9198(9) 0.1437(6) 0.4899(6)
H1 H 0.33210 0.27460 0.62560
H2 H 0.33100 0.26220 0.73890
H3 H 0.20330 0.29040 0.68780
H4 H 0.25580 0.35050 0.63450
H5 H 0.31150 0.37210 0.73590
H6 H 0.419(1) 0.3708(6) 0.6491(6)
H7 H 0.32470 0.33750 0.85170
H8 H 0.41750 0.29860 0.86980
H9 H 0.54530 0.33930 0.96930
H10 H 0.52980 0.37240 0.88790
H11 H 0.77310 0.35590 0.86770
H12 H 0.75570 0.31430 0.91290
H13 H 0.93190 0.33500 0.74080
H14 H 0.93450 0.29320 0.78760
H15 H 0.87350 0.29950 0.67300
H16 H 0.55170 0.30650 0.52730
H17 H 0.74710 0.25400 0.63700
H18 H 0.54910 0.28330 0.39370
H19 H 0.66840 0.26190 0.33330
H20 H 0.51070 0.24190 0.34850
H21 H 0.70180 0.18560 0.34980
H22 H 0.92950 0.06690 0.25570
H23 H 1.07580 0.10390 0.55660
H24 H 0.91910 0.15970 0.54890
O5 O 0.1582(7) 0.1525(5) 0.7104(4)
O6 O 0.0447(8) 0.2064(5) 0.7266(5)
O7 O 0.155(1) 0.2903(6) 1.0179(6)
O8 O 0.333(1) 0.2734(6) 1.1391(6)
N5 N 0.4409(9) 0.0962(5) 0.9215(5)
N6 N 0.3483(7) 0.1240(6) 0.8690(4)
N7 N 0.1401(8) 0.1835(6) 0.7659(5)
N8 N 0.241(1) 0.2683(6) 1.0573(7)
C20 C 0.7060(9) -0.0657(6) 0.9093(6)
C21 C 0.771(2) -0.0984(6) 0.9796(8)
C22 C 0.883(2) -0.0910(7) 1.059(1)
C23 C 0.925(1) -0.0497(6) 1.0962(7)
C24 C 0.8328(9) -0.0187(6) 1.0425(6)
C25 C 0.7379(8) -0.0248(5) 0.9571(5)
C26 C 0.6496(8) 0.0059(6) 0.8962(5)
C27 C 0.5745(10) 0.0376(6) 0.9312(5)
C28 C 0.4904(8) 0.0680(6) 0.8729(5)
C29 C 0.533(1) -0.0704(6) 0.8890(8)
C30 C 0.774(1) -0.0679(5) 0.8079(7)
C31 C 0.867(1) 0.0197(6) 1.0919(6)
C32 C 0.451(1) 0.0629(6) 0.7552(6)
C33 C 0.3205(10) 0.1582(6) 0.9119(6)
C34 C 0.229(1) 0.1851(6) 0.8709(6)
C35 C 0.1939(8) 0.2218(6) 0.9152(7)
C36 C 0.254(1) 0.2286(6) 1.0058(6)
C37 C 0.3629(10) 0.2007(6) 1.0597(6)
C38 C 0.3874(10) 0.1654(6) 1.0123(6)
H25 H 0.490(1) -0.0504(6) 0.8435(9)
H26 H 0.488(1) -0.0684(6) 0.9515(7)
H27 H 0.509(1) -0.0953(6) 0.8592(6)
H28 H 0.7570(8) -0.0438(6) 0.7725(4)
H29 H 0.883(1) -0.0730(6) 0.8203(6)
H30 H 0.7244(6) -0.0885(5) 0.7675(4)
H31 H 0.6851(8) -0.1097(6) 1.0079(6)
H32 H 0.8146(9) -0.1173(6) 0.9377(5)
H33 H 0.9772(8) -0.1022(6) 1.0413(5)
H34 H 0.8514(8) -0.1045(5) 1.1163(5)
H35 H 1.02080 -0.05370 1.12070
H36 H 0.92370 -0.05440 1.17090
H37 H 0.9748(8) 0.0258(5) 1.0912(5)
H38 H 0.8439(7) 0.0187(6) 1.1605(4)
H39 H 0.8048(8) 0.0394(5) 1.0556(8)
H40 H 0.6442(8) 0.0034(5) 0.8241(5)
H41 H 0.57840 0.03980 1.00340
H42 H 0.40440 0.03780 0.74120
H43 H 0.54380 0.06490 0.72340
H44 H 0.37910 0.08270 0.72930
H45 H 0.30340 0.11880 0.80090
H46 H 0.1278(8) 0.2404(5) 0.8777(6)
H47 H 0.41570 0.20670 1.12540
H48 H 0.450(1) 0.1458(6) 1.0484(6)
O9 O 0.5656(8) 0.1021(6) 0.5410(5)
O10 O 0.7052(8) 0.0474(5) 0.5318(5)
O11 O 0.5962(9) -0.0356(6) 0.2407(6)
O12 O 0.4104(10) -0.0193(6) 0.1187(5)
N9 N 0.3045(7) 0.1597(5) 0.3346(4)
N10 N 0.4021(8) 0.1315(5) 0.3972(5)
N11 N 0.6085(7) 0.0748(6) 0.4969(5)
N12 N 0.498(1) -0.0132(6) 0.1999(6)
C39 C 0.0394(10) 0.3202(6) 0.3463(6)
C40 C -0.047(1) 0.3515(6) 0.2741(8)
C41 C -0.184(2) 0.3424(6) 0.212(1)
C42 C -0.172(1) 0.3042(6) 0.1515(7)
C43 C -0.089(1) 0.2730(5) 0.2135(6)
C44 C 0.0096(9) 0.2779(6) 0.2983(5)
C45 C 0.0968(9) 0.2463(6) 0.3622(6)
C46 C 0.162(1) 0.2133(6) 0.3253(7)
C47 C 0.264(1) 0.1878(6) 0.3900(6)
C48 C -0.018(1) 0.3243(6) 0.4492(6)
C49 C 0.211(1) 0.3302(6) 0.3540(7)
C50 C -0.124(1) 0.2308(6) 0.1662(7)
C51 C 0.2938(10) 0.1910(6) 0.5025(6)
C52 C 0.4345(8) 0.0977(6) 0.3445(5)
C53 C 0.5336(7) 0.0663(5) 0.3917(5)
C54 C 0.5571(10) 0.0313(5) 0.3460(6)
C55 C 0.4778(8) 0.0269(6) 0.2497(6)
C56 C 0.383(1) 0.0535(6) 0.1964(6)
C57 C 0.3562(10) 0.0909(6) 0.2393(6)
H49 H -0.126(1) 0.3181(6) 0.4437(8)
H50 H -0.002(1) 0.3506(6) 0.4726(7)
H51 H 0.0391(9) 0.3070(6) 0.4964(7)
H52 H 0.22950 0.35440 0.38920
H53 H 0.24190 0.33250 0.28730
H54 H 0.27070 0.31010 0.39040
H55 H -0.07210 0.37260 0.31650
H56 H 0.02520 0.36020 0.23000
H57 H -0.26560 0.33960 0.25440
H58 H -0.20770 0.36330 0.16560
H59 H -0.11680 0.30950 0.09460
H60 H -0.2748(9) 0.2954(6) 0.1278(6)
H61 H -0.1963(9) 0.2328(6) 0.1062(6)
H62 H -0.1662(9) 0.2146(6) 0.2147(6)
H63 H -0.0287(10) 0.2196(5) 0.1494(7)
H64 H 0.11460 0.25160 0.43620
H65 H 0.13860 0.20710 0.25480
H66 H 0.2511(9) 0.2149(6) 0.5239(6)
H67 H 0.2460(9) 0.1695(6) 0.5329(7)
H68 H 0.4035(10) 0.1906(6) 0.5230(7)
H69 H 0.42970 0.12760 0.44810
H70 H 0.62310 0.01140 0.37820
H71 H 0.32700 0.04760 0.12430
H72 H 0.29230 0.11030 0.20300
O13 O 0.1057(8) 0.0878(5) 0.0346(6)
O14 O 0.0273(7) 0.1433(5) 0.1028(4)
O15 O -0.353(1) 0.2251(6) -0.0906(6)
O16 O -0.4672(9) 0.2044(5) -0.2352(6)
N13 N 0.0052(7) 0.0447(5) -0.2338(5)
N14 N 0.0181(8) 0.0656(5) -0.1355(5)
N15 N 0.0258(7) 0.1173(6) 0.0315(4)
N16 N -0.3631(9) 0.2010(6) -0.1627(7)
C58 C 0.3444(8) -0.0630(6) -0.4659(6)
C59 C 0.345(1) -0.0629(6) -0.5841(7)
C60 C 0.224(1) -0.0892(6) -0.6374(7)
C61 C 0.057(1) -0.0727(6) -0.6238(6)
C62 C 0.0500(8) -0.0626(5) -0.5113(5)
C63 C 0.1719(8) -0.0567(5) -0.4434(5)
C64 C 0.1617(8) -0.0408(6) -0.3392(5)
C65 C 0.088(1) -0.0069(6) -0.3187(7)
C66 C 0.0860(9) 0.0105(6) -0.2229(6)
C67 C 0.402(1) -0.0996(6) -0.4146(7)
C68 C 0.4531(9) -0.0307(6) -0.4276(8)
C69 C -0.1216(9) -0.0565(6) -0.4877(6)
C70 C 0.1560(9) -0.0050(6) -0.1268(5)
C71 C -0.0718(8) 0.1008(5) -0.1484(5)
C72 C -0.0747(8) 0.1267(5) -0.0645(5)
C73 C -0.1743(8) 0.1588(6) -0.0676(5)
C74 C -0.2533(10) 0.1659(6) -0.1591(6)
C75 C -0.2658(9) 0.1431(6) -0.2416(6)
C76 C -0.1722(9) 0.1100(6) -0.2386(6)
H73 H 0.34040 -0.12100 -0.44210
H74 H 0.50840 -0.10370 -0.42530
H75 H 0.39520 -0.09760 -0.34330
H76 H 0.54910 -0.03340 -0.45600
H77 H 0.47260 -0.03200 -0.35520
H78 H 0.40700 -0.00610 -0.44730
H79 H 0.32620 -0.03700 -0.60860
H80 H 0.44510 -0.07140 -0.59910
H81 H 0.23620 -0.09030 -0.70810
H82 H 0.23520 -0.11470 -0.60890
H83 H -0.01970 -0.09190 -0.64510
H84 H 0.03800 -0.04970 -0.66420
H85 H -0.17820 -0.08030 -0.49910
H86 H -0.17020 -0.03670 -0.53120
H87 H -0.12110 -0.04880 -0.41840
H88 H 0.21960 -0.05330 -0.27690
H89 H 0.00370 0.00280 -0.38910
H90 H 0.19350 -0.03070 -0.13660
H91 H 0.08010 -0.00570 -0.08010
H92 H 0.24090 0.01130 -0.10020
H93 H 0.07680 0.05720 -0.07370
H94 H -0.18530 0.17450 -0.00930
H95 H -0.33630 0.14740 -0.31370
H96 H -0.18090 0.09220 -0.29480
#END
