
#######################################################################
#
#                 Cambridge Crystallographic Data Centre
#                                CCDC
#
#######################################################################
#
# If this CIF has been generated from an entry in the Cambridge
# Structural Database, then it will include bibliographic, chemical,
# crystal, experimental, refinement or atomic coordinate data resulting
# from the CCDC's data processing and validation procedures.
#
#######################################################################

data_CSD_CIF_XIRXED
_audit_creation_date 2014-01-16
_audit_creation_method CSD-ConQuest-V1
_database_code_CSD XIRXED
_database_code_depnum_ccdc_archive 'CCDC 960190'
_chemical_formula_sum 'C28 H24 N2 O4'
_chemical_formula_moiety
;
C28 H24 N2 O4
;
_journal_coden_Cambridge 1291
_journal_year 2014
_journal_page_first 1925
_journal_name_full 'Eur.J.Org.Chem. '
loop_
_publ_author_name
"Dana Ameen"
"T.J.Snape"
_chemical_name_systematic
;
N,N-Dibenzyl-2-(2-hydroxyphenyl)-2-(2-nitrophenyl)acetamide
;
_cell_volume   2285.846
_exptl_crystal_colour 'orange'
_exptl_crystal_density_diffrn 1.315
_exptl_crystal_description 'Blade'
_diffrn_ambient_temperature 100
#These two values have been output from a single CSD field.
_refine_ls_R_factor_gt 0.0471
_refine_ls_wR_factor_gt 0.0471
_symmetry_cell_setting monoclinic
_symmetry_space_group_name_H-M 'P 21/n'
_symmetry_Int_Tables_number 14
loop_
_symmetry_equiv_pos_site_id
_symmetry_equiv_pos_as_xyz
1 x,y,z
2 1/2-x,1/2+y,1/2-z
3 -x,-y,-z
4 -1/2+x,-1/2-y,-1/2+z
_cell_length_a 7.3807(14)
_cell_length_b 13.547(3)
_cell_length_c 22.864(5)
_cell_angle_alpha 90
_cell_angle_beta 90.834(10)
_cell_angle_gamma 90
_cell_formula_units_Z 4
loop_
_atom_type_symbol
_atom_type_radius_bond
C 0.68
H 0.23
N 0.68
O 0.68
loop_
_atom_site_label
_atom_site_type_symbol
_atom_site_fract_x
_atom_site_fract_y
_atom_site_fract_z
C1 C 0.39977(17) 0.22026(10) 0.08687(6)
C2 C 0.52988(17) 0.27568(10) 0.04658(6)
H1 H 0.61500 0.31500 0.07180
C3 C 0.42318(17) 0.34733(10) 0.00817(6)
C4 C 0.32143(18) 0.42652(10) 0.03009(6)
C5 C 0.22842(19) 0.49228(11) -0.00575(7)
H2 H 0.16280 0.54540 0.01090
C6 C 0.2314(2) 0.48043(12) -0.06554(7)
H3 H 0.16750 0.52490 -0.09050
C7 C 0.3282(2) 0.40319(12) -0.08869(7)
H4 H 0.33050 0.39420 -0.12990
C8 C 0.4224(2) 0.33849(11) -0.05240(6)
H5 H 0.48890 0.28620 -0.06960
C9 C 0.64120(18) 0.20122(10) 0.01271(6)
C10 C 0.83062(18) 0.20761(10) 0.01267(6)
C11 C 0.93223(19) 0.13821(11) -0.01779(6)
H6 H 1.06060 0.14300 -0.01770
C12 C 0.8474(2) 0.06290(11) -0.04791(6)
H7 H 0.91740 0.01580 -0.06850
C13 C 0.6608(2) 0.05565(11) -0.04823(6)
H8 H 0.60220 0.00370 -0.06900
C14 C 0.55956(18) 0.12433(10) -0.01816(6)
H9 H 0.43120 0.11890 -0.01860
C15 C 0.64641(19) 0.19430(11) 0.16088(6)
H10 H 0.63860 0.23810 0.19540
H11 H 0.72130 0.22800 0.13140
C16 C 0.73796(19) 0.09911(12) 0.17879(6)
C17 C 0.8183(2) 0.09123(14) 0.23382(7)
H12 H 0.81180 0.14500 0.26040
C18 C 0.9080(3) 0.00544(16) 0.25034(8)
H13 H 0.96490 0.00130 0.28780
C19 C 0.9149(2) -0.07319(15) 0.21293(8)
H14 H 0.97460 -0.13220 0.22470
C20 C 0.8348(2) -0.06674(13) 0.15784(8)
H15 H 0.83830 -0.12150 0.13190
C21 C 0.7496(2) 0.01994(12) 0.14072(7)
H16 H 0.69860 0.02510 0.10250
C22 C 0.3345(2) 0.12789(11) 0.17506(6)
H17 H 0.39460 0.06940 0.19260
H18 H 0.23010 0.10430 0.15130
C23 C 0.2657(2) 0.19362(12) 0.22361(6)
C24 C 0.3095(2) 0.17301(14) 0.28162(7)
H19 H 0.38540 0.11850 0.29110
C25 C 0.2412(3) 0.23291(18) 0.32613(8)
H20 H 0.27230 0.21930 0.36580
C26 C 0.1297(3) 0.31108(16) 0.31282(8)
H21 H 0.08320 0.35100 0.34330
C27 C 0.0853(3) 0.33180(14) 0.25552(9)
H22 H 0.00800 0.38590 0.24650
C28 C 0.1532(2) 0.27369(13) 0.21093(7)
H23 H 0.12280 0.28860 0.17140
N1 N 0.46366(15) 0.17857(9) 0.13642(5)
N2 N 0.30783(17) 0.44513(9) 0.09319(6)
O1 O 0.23901(12) 0.21057(7) 0.07169(4)
O2 O 0.91066(13) 0.28223(7) 0.04326(5)
H24 H 1.02050 0.26880 0.04920
O3 O 0.41563(14) 0.40708(8) 0.12702(4)
O4 O 0.1863(2) 0.49917(13) 0.10991(6)
#END
