
#######################################################################
#
#                 Cambridge Crystallographic Data Centre
#                                CCDC
#
#######################################################################
#
# If this CIF has been generated from an entry in the Cambridge
# Structural Database, then it will include bibliographic, chemical,
# crystal, experimental, refinement or atomic coordinate data resulting
# from the CCDC's data processing and validation procedures.
#
#######################################################################

data_CSD_CIF_XISGAI
_audit_creation_date 2008-02-21
_audit_creation_method CSD-ConQuest-V1
_database_code_CSD XISGAI
_database_code_depnum_ccdc_archive 'CCDC 674357'
_chemical_formula_sum 'C16 H13 N1 O3'
_chemical_formula_moiety
;
C16 H13 N1 O3
;
_journal_coeditor_code "IUCr CI2518"
_journal_coden_Cambridge 1370
_journal_volume 64
_journal_year 2008
_journal_page_first o1
_journal_name_full 'Acta Crystallogr.,Sect.E:Struct.Rep.Online '
loop_
_publ_author_name
"J.P.Jasinski"
"R.J.Butcher"
"B.Narayana"
"K.Lakshmana"
"H.S.Yathirajan"
_chemical_name_systematic
;
(2E)-3-(4-Methylphenyl)-1-(3-nitrophenyl)prop-2-en-1-one
;
_chemical_melting_point 414
_cell_volume   1300.779
_exptl_crystal_colour 'pale yellow'
_exptl_crystal_density_diffrn 1.365
_exptl_special_details
;
Melting point range 414-416K

;
_exptl_crystal_description 'Prism'
_exptl_crystal_preparation 'acetone'
_diffrn_ambient_temperature 296
#These two values have been output from a single CSD field.
_refine_ls_R_factor_gt 0.0465
_refine_ls_wR_factor_gt 0.0465
_symmetry_cell_setting triclinic
_symmetry_space_group_name_H-M 'P -1'
_symmetry_Int_Tables_number 2
loop_
_symmetry_equiv_pos_site_id
_symmetry_equiv_pos_as_xyz
1 x,y,z
2 -x,-y,-z
_cell_length_a 8.0951(3)
_cell_length_b 11.5088(5)
_cell_length_c 14.6970(5)
_cell_angle_alpha 80.351(3)
_cell_angle_beta 74.830(3)
_cell_angle_gamma 84.416(3)
_cell_formula_units_Z 4
loop_
_atom_type_symbol
_atom_type_radius_bond
C 0.68
H 0.23
N 0.68
O 0.68
loop_
_atom_site_label
_atom_site_type_symbol
_atom_site_fract_x
_atom_site_fract_y
_atom_site_fract_z
O1 O -0.10825(12) 0.78753(8) 0.47805(6)
O2 O -0.17664(12) 0.86596(9) 0.15922(6)
O3 O -0.03310(14) 0.76460(9) 0.05116(7)
N1 N -0.07106(13) 0.78738(9) 0.13266(7)
C1 C 0.05600(14) 0.67882(10) 0.35935(8)
C2 C 0.17987(15) 0.59163(10) 0.33036(8)
H1 H 0.23670 0.54880 0.37370
C3 C 0.22047(15) 0.56733(11) 0.23722(9)
H2 H 0.30270 0.50770 0.21910
C4 C 0.13914(15) 0.63148(11) 0.17161(8)
H3 H 0.16600 0.61650 0.10900
C5 C 0.01681(14) 0.71848(10) 0.20163(8)
C6 C -0.02749(14) 0.7435(1) 0.29349(8)
H4 H -0.11140 0.80230 0.31140
C7 C 0.00284(14) 0.70867(10) 0.45916(8)
C8 C 0.08663(15) 0.64361(10) 0.53138(8)
H5 H 0.17540 0.58770 0.51400
C9 C 0.03681(15) 0.66381(10) 0.62182(8)
H6 H -0.05540 0.71830 0.63590
C10 C 0.10965(14) 0.61071(10) 0.70091(8)
C11 C 0.24015(15) 0.52191(10) 0.69233(8)
H7 H 0.28160 0.49300 0.63470
C12 C 0.30868(15) 0.47626(11) 0.76861(8)
H8 H 0.39520 0.41660 0.76160
C13 C 0.25029(15) 0.51804(11) 0.85585(8)
C14 C 0.11819(16) 0.60523(12) 0.86462(8)
H9 H 0.07630 0.63360 0.92250
C15 C 0.04786(16) 0.65058(11) 0.78910(8)
H10 H -0.04150 0.70820 0.79700
C16 C 0.32905(19) 0.47144(14) 0.93769(9)
H11 H 0.37310 0.53540 0.95690
H12 H 0.42080 0.41440 0.91820
H13 H 0.24360 0.43480 0.99030
O4 O 0.39815(12) 0.28759(8) 0.17553(7)
O5 O 0.38505(13) 0.39995(8) 0.47951(7)
O6 O 0.47675(14) 0.27633(10) 0.58517(7)
N2 N 0.45688(13) 0.30623(10) 0.50460(7)
C17 C 0.55580(14) 0.17912(10) 0.27830(8)
C18 C 0.65291(15) 0.07736(11) 0.30205(9)
H14 H 0.69740 0.02690 0.25720
C19 C 0.68412(16) 0.05034(11) 0.39189(9)
H15 H 0.74780 -0.01850 0.40710
C20 C 0.62101(15) 0.12525(11) 0.45862(9)
H16 H 0.64260 0.10840 0.51870
C21 C 0.52520(14) 0.22563(10) 0.43411(8)
C22 C 0.48975(14) 0.25382(10) 0.34598(8)
H17 H 0.42290 0.32160 0.33210
C23 C 0.51234(15) 0.21124(11) 0.18375(8)
C24 C 0.60755(16) 0.15048(11) 0.10342(8)
H18 H 0.70490 0.10240 0.10840
C25 C 0.55435(15) 0.16429(10) 0.02373(8)
H19 H 0.45630 0.21340 0.02300
C26 C 0.63097(14) 0.1118(1) -0.06276(8)
C27 C 0.76586(15) 0.02570(11) -0.06979(9)
H20 H 0.80950 -0.00190 -0.01710
C28 C 0.83539(15) -0.01901(11) -0.15411(8)
H21 H 0.92570 -0.07600 -0.15740
C29 C 0.77214(16) 0.02004(11) -0.23457(9)
C30 C 0.63582(16) 0.10371(11) -0.22680(8)
H22 H 0.59060 0.13020 -0.27910
C31 C 0.56619(15) 0.14839(11) -0.14243(8)
H23 H 0.47420 0.20400 -0.13880
C32 C 0.84893(18) -0.02696(13) -0.32704(9)
H24 H 0.88710 0.03730 -0.37670
H25 H 0.76410 -0.06710 -0.34290
H26 H 0.94460 -0.08110 -0.32050
#END
