
#######################################################################
#
#                 Cambridge Crystallographic Data Centre
#                                CCDC
#
#######################################################################
#
# If this CIF has been generated from an entry in the Cambridge
# Structural Database, then it will include bibliographic, chemical,
# crystal, experimental, refinement or atomic coordinate data resulting
# from the CCDC's data processing and validation procedures.
#
#######################################################################

data_CSD_CIF_XISJAL
_audit_creation_date 2008-02-21
_audit_creation_method CSD-ConQuest-V1
_database_code_CSD XISJAL
_database_code_depnum_ccdc_archive 'CCDC 674367'
_chemical_formula_sum 'C9 H11 N1 O4'
_chemical_formula_moiety
;
C9 H11 N1 O4
;
_journal_coeditor_code "IUCr BT2633"
_journal_coden_Cambridge 1370
_journal_volume 64
_journal_year 2008
_journal_page_first o12
_journal_name_full 'Acta Crystallogr.,Sect.E:Struct.Rep.Online '
loop_
_publ_author_name
"Yang Liu"
"Wei-Na Xu"
"Xiao-Ling Zhang"
"Jian-Ping Ma"
"Dian-Shun Guo"
_chemical_name_systematic
;
1-(2-Methoxyethoxy)-4-nitrobenzene
;
_cell_volume    946.667
_exptl_crystal_colour 'colorless'
_exptl_crystal_density_diffrn 1.384
_exptl_crystal_description 'block'
_exptl_crystal_preparation 'anhydrous ethanol'
_diffrn_ambient_temperature 100
#These two values have been output from a single CSD field.
_refine_ls_R_factor_gt 0.0306
_refine_ls_wR_factor_gt 0.0306
_symmetry_cell_setting orthorhombic
_symmetry_space_group_name_H-M 'P n a 21'
_symmetry_Int_Tables_number 33
loop_
_symmetry_equiv_pos_site_id
_symmetry_equiv_pos_as_xyz
1 x,y,z
2 -x,-y,1/2+z
3 1/2+x,1/2-y,z
4 1/2-x,1/2+y,1/2+z
_cell_length_a 11.280(3)
_cell_length_b 20.430(5)
_cell_length_c 4.1079(10)
_cell_angle_alpha 90
_cell_angle_beta 90
_cell_angle_gamma 90
_cell_formula_units_Z 4
loop_
_atom_type_symbol
_atom_type_radius_bond
C 0.68
H 0.23
N 0.68
O 0.68
loop_
_atom_site_label
_atom_site_type_symbol
_atom_site_fract_x
_atom_site_fract_y
_atom_site_fract_z
C1 C -0.05088(16) 0.68859(9) -0.1216(7)
C2 C -0.08278(16) 0.62314(9) -0.1160(6)
H1 H -0.15220 0.60900 -0.21600
C3 C -0.00976(16) 0.57971(9) 0.0401(6)
H2 H -0.03030 0.53570 0.04900
C4 C 0.09501(15) 0.60085(8) 0.1858(6)
C5 C 0.12605(16) 0.66669(9) 0.1780(6)
H3 H 0.19560 0.68110 0.27620
C6 C 0.05189(18) 0.71044(9) 0.0221(7)
H4 H 0.07150 0.75460 0.01430
C7 C 0.27095(16) 0.57084(10) 0.4767(6)
H5 H 0.25880 0.60540 0.63540
H6 H 0.32590 0.58660 0.31270
C8 C 0.31983(17) 0.51107(10) 0.6395(6)
H7 H 0.38880 0.52280 0.76770
H8 H 0.26080 0.49280 0.78510
C9 C 0.3945(2) 0.40593(11) 0.5514(9)
H9 H 0.45920 0.41640 0.69390
H10 H 0.42120 0.37620 0.38580
H11 H 0.33190 0.38580 0.67440
N1 N -0.12710(18) 0.73499(9) -0.2931(7)
O1 O -0.21750(15) 0.71456(9) -0.4228(6)
O2 O -0.09783(16) 0.79250(8) -0.3004(9)
O3 O 0.16033(10) 0.55315(6) 0.3289(4)
O4 O 0.35171(11) 0.46405(7) 0.4039(4)
#END
