
#######################################################################
#
#                 Cambridge Crystallographic Data Centre
#                                CCDC
#
#######################################################################
#
# If this CIF has been generated from an entry in the Cambridge
# Structural Database, then it will include bibliographic, chemical,
# crystal, experimental, refinement or atomic coordinate data resulting
# from the CCDC's data processing and validation procedures.
#
#######################################################################

data_CSD_CIF_XISJUF
_audit_creation_date 2008-02-21
_audit_creation_method CSD-ConQuest-V1
_database_code_CSD XISJUF
_database_code_depnum_ccdc_archive 'CCDC 674371'
_chemical_formula_sum 'C11 H11 N1 O6'
_chemical_formula_moiety
;
C11 H11 N1 O6
;
_journal_coeditor_code "IUCr NG2384"
_journal_coden_Cambridge 1370
_journal_volume 64
_journal_year 2008
_journal_page_first o16
_journal_name_full 'Acta Crystallogr.,Sect.E:Struct.Rep.Online '
loop_
_publ_author_name
"G.M.Ziarani"
"A.Abbasi"
"A.Badiei"
"S.Ghorbi"
"F.Shahjafari"
_chemical_name_systematic
;
(3-Nitrophenyl)methanediyl diacetate
;
_cell_volume    595.551
_exptl_crystal_colour 'colorless'
_exptl_crystal_density_diffrn 1.412
_exptl_crystal_description 'block'
_exptl_crystal_preparation 'dichloromethane'
_diffrn_ambient_temperature 290
#These two values have been output from a single CSD field.
_refine_ls_R_factor_gt 0.0364
_refine_ls_wR_factor_gt 0.0364
_symmetry_cell_setting triclinic
_symmetry_space_group_name_H-M 'P -1'
_symmetry_Int_Tables_number 2
loop_
_symmetry_equiv_pos_site_id
_symmetry_equiv_pos_as_xyz
1 x,y,z
2 -x,-y,-z
_cell_length_a 7.8959(9)
_cell_length_b 8.4779(10)
_cell_length_c 9.7788(13)
_cell_angle_alpha 109.094(11)
_cell_angle_beta 98.031(10)
_cell_angle_gamma 99.963(10)
_cell_formula_units_Z 2
loop_
_atom_type_symbol
_atom_type_radius_bond
C 0.68
H 0.23
N 0.68
O 0.68
loop_
_atom_site_label
_atom_site_type_symbol
_atom_site_fract_x
_atom_site_fract_y
_atom_site_fract_z
O1 O 0.30507(14) 0.16974(14) -0.04836(12)
O2 O 0.59909(14) 0.22011(14) 0.05498(12)
O3 O 0.16732(19) 0.6263(2) 0.60185(17)
O4 O 0.43191(18) 0.23344(17) -0.22188(14)
O5 O 0.75926(17) 0.47383(18) 0.07041(18)
O6 O 0.1787(2) 0.7027(2) 0.4140(2)
N1 N 0.2009(2) 0.6066(2) 0.4801(2)
C1 C 0.4464(2) 0.2888(2) 0.06532(17)
H1 H 0.46760 0.40040 0.05330
C2 C 0.3243(2) 0.4433(2) 0.27690(19)
H2 H 0.31530 0.52600 0.23470
C3 C 0.2703(2) 0.4571(2) 0.40713(19)
C4 C 0.3077(3) 0.1635(2) -0.1894(2)
C5 C 0.3922(2) 0.3050(2) 0.20946(17)
C6 C 0.4043(2) 0.1838(2) 0.2739(2)
H3 H 0.44940 0.09010 0.22870
C7 C 0.7489(2) 0.3270(3) 0.0531(2)
C8 C 0.2821(2) 0.3387(3) 0.4739(2)
H4 H 0.24560 0.35120 0.56250
C9 C 0.3497(2) 0.2009(3) 0.4059(2)
H5 H 0.35870 0.11880 0.44870
C10 C 0.1372(3) 0.0604(3) -0.2909(2)
H6 H 0.15730 0.00300 -0.38750
H7 H 0.06000 0.13480 -0.29730
H8 H 0.08420 -0.02330 -0.25350
C11 C 0.8926(2) 0.2351(3) 0.0284(3)
H9 H 0.94360 0.22460 0.11920
H10 H 0.98120 0.29850 -0.00390
H11 H 0.84570 0.12280 -0.04590
#END
