
#######################################################################
#
#                 Cambridge Crystallographic Data Centre
#                                CCDC
#
#######################################################################
#
# If this CIF has been generated from an entry in the Cambridge
# Structural Database, then it will include bibliographic, chemical,
# crystal, experimental, refinement or atomic coordinate data resulting
# from the CCDC's data processing and validation procedures.
#
#######################################################################

data_CSD_CIF_XISKAM
_audit_creation_date 2008-02-21
_audit_creation_method CSD-ConQuest-V1
_database_code_CSD XISKAM
_database_code_depnum_ccdc_archive 'CCDC 674372'
_chemical_formula_sum 'C9 H8 N4 O3'
_chemical_formula_moiety
;
C9 H8 N4 O3
;
_journal_coeditor_code "IUCr LN2005"
_journal_coden_Cambridge 1370
_journal_volume 64
_journal_year 2008
_journal_page_first o17
_journal_name_full 'Acta Crystallogr.,Sect.E:Struct.Rep.Online '
loop_
_publ_author_name
"Jian Li"
_chemical_name_systematic
;
1-(4-Nitrophenoxymethyl)-1H-1,2,4-triazole
;
_chemical_melting_point 465
_cell_volume   1969.672
_exptl_crystal_colour 'colorless'
_exptl_crystal_density_diffrn 1.485
_exptl_special_details
;
Melts with decomposition.

;
_exptl_crystal_description 'block'
_exptl_crystal_preparation 'ethyl acetate'
_diffrn_ambient_temperature 296
#These two values have been output from a single CSD field.
_refine_ls_R_factor_gt 0.0532
_refine_ls_wR_factor_gt 0.0532
_symmetry_cell_setting monoclinic
_symmetry_space_group_name_H-M 'P 21/n'
_symmetry_Int_Tables_number 14
loop_
_symmetry_equiv_pos_site_id
_symmetry_equiv_pos_as_xyz
1 x,y,z
2 1/2-x,1/2+y,1/2-z
3 -x,-y,-z
4 -1/2+x,-1/2-y,-1/2+z
_cell_length_a 11.2344(4)
_cell_length_b 7.7197(3)
_cell_length_c 22.789(1)
_cell_angle_alpha 90
_cell_angle_beta 94.730(1)
_cell_angle_gamma 90
_cell_formula_units_Z 8
loop_
_atom_type_symbol
_atom_type_radius_bond
C 0.68
H 0.23
N 0.68
O 0.68
loop_
_atom_site_label
_atom_site_type_symbol
_atom_site_fract_x
_atom_site_fract_y
_atom_site_fract_z
C1 C 0.81377(17) 0.3196(3) 1.03182(8)
C2 C 0.93247(17) 0.3426(3) 1.04813(8)
H1 H 0.96700 0.45170 1.04610
C3 C 1.00048(18) 0.2022(3) 1.06769(9)
H2 H 1.08170 0.21550 1.07830
C4 C 0.94708(17) 0.0410(3) 1.07144(8)
C5 C 0.82669(17) 0.0197(3) 1.05410(9)
H3 H 0.79160 -0.08900 1.05590
C6 C 0.75967(18) 0.1595(3) 1.03423(9)
H4 H 0.67890 0.14660 1.02250
C7 C 1.12463(17) -0.0840(3) 1.1170(1)
H5 H 1.13010 0.01340 1.14400
H6 H 1.17680 -0.06230 1.08600
C8 C 1.15858(19) -0.2774(3) 1.20432(10)
H7 H 1.13360 -0.20110 1.23240
C9 C 1.22169(18) -0.4899(3) 1.16231(11)
H8 H 1.25150 -0.60030 1.15630
C10 C 0.1692(2) 0.7068(3) 0.80842(8)
C11 C 0.2882(2) 0.7309(3) 0.82472(9)
H9 H 0.32130 0.84130 0.82430
C12 C 0.35811(18) 0.5906(3) 0.84169(9)
H10 H 0.43900 0.60500 0.85290
C13 C 0.30677(17) 0.4276(3) 0.84194(9)
C14 C 0.18569(18) 0.4057(3) 0.82638(10)
H11 H 0.15150 0.29620 0.82780
C15 C 0.11677(19) 0.5457(3) 0.80901(10)
H12 H 0.03580 0.53230 0.79780
C16 C 0.49184(17) 0.2917(3) 0.87293(10)
H13 H 0.50600 0.35870 0.90880
H14 H 0.53220 0.34790 0.84210
C17 C 0.58384(17) 0.0123(3) 0.8448(1)
H15 H 0.59900 0.04080 0.80650
C18 C 0.5699(2) -0.1152(3) 0.92397(12)
H16 H 0.57550 -0.20180 0.95240
N1 N 0.74171(17) 0.4702(2) 1.01202(8)
N2 N 1.15923(14) -0.2405(2) 1.14761(7)
N3 N 1.20085(17) -0.3790(3) 1.11895(8)
N4 N 1.19720(17) -0.4338(3) 1.21593(9)
N5 N 0.0937(2) 0.8560(3) 0.79082(8)
N6 N 0.53437(14) 0.1182(2) 0.88181(7)
N7 N 0.52429(16) 0.0362(3) 0.93374(8)
N8 N 0.60847(16) -0.1386(3) 0.86990(9)
O1 O 0.79196(15) 0.6084(2) 1.00659(8)
O2 O 0.63420(14) 0.4506(2) 1.00168(8)
O3 O 0.13855(18) 0.9998(2) 0.79477(7)
O4 O -0.01089(19) 0.8306(3) 0.77307(8)
O5 O 0.36738(12) 0.27844(18) 0.85648(7)
O6 O 1.00523(12) -0.10510(18) 1.09272(6)
#END
