
#######################################################################
#
#                 Cambridge Crystallographic Data Centre
#                                CCDC
#
#######################################################################
#
# If this CIF has been generated from an entry in the Cambridge
# Structural Database, then it will include bibliographic, chemical,
# crystal, experimental, refinement or atomic coordinate data resulting
# from the CCDC's data processing and validation procedures.
#
#######################################################################

data_CSD_CIF_XITGOW
_audit_creation_date 2002-06-28
_audit_creation_method CSD-ConQuest-V1
_database_code_CSD XITGOW
_database_code_depnum_ccdc_archive 'CCDC 167751'
_chemical_formula_sum 'C29 H29 N1 O9'
_chemical_formula_moiety
;
C29 H29 N1 O9
;
_journal_coden_Cambridge 16
_journal_volume 58
_journal_year 2002
_journal_page_first 2127
_journal_name_full 'Tetrahedron '
loop_
_publ_author_name
"O.Renaudet"
"P.Dumy"
_chemical_name_systematic
;
Methyl 2,3,6-tri-O-benzoyl-4-deoxy-4-methoxyamino-\a-D-galactopyranoside
;
_chemical_melting_point 406.15
_cell_volume   1348.163
_exptl_crystal_density_diffrn 1.319
_exptl_crystal_preparation 'dichloromethane/petroleum ether'
_diffrn_ambient_temperature 293.2
_refine_special_details
;
The amide methoxy group was refined over two positions with s.o.f.s 
0.650:0.350.
;
#These two values have been output from a single CSD field.
_refine_ls_R_factor_gt 0.0326
_refine_ls_wR_factor_gt 0.0326
_symmetry_cell_setting monoclinic
_symmetry_space_group_name_H-M 'P 21'
_symmetry_Int_Tables_number 4
loop_
_symmetry_equiv_pos_site_id
_symmetry_equiv_pos_as_xyz
1 x,y,z
2 -x,1/2+y,-z
_cell_length_a 5.786(1)
_cell_length_b 16.071(2)
_cell_length_c 14.642(3)
_cell_angle_alpha 90
_cell_angle_beta 98.03(2)
_cell_angle_gamma 90
_cell_formula_units_Z 2
loop_
_atom_type_symbol
_atom_type_radius_bond
C 0.68
H 0.23
N 0.68
O 0.68
loop_
_atom_site_label
_atom_site_type_symbol
_atom_site_fract_x
_atom_site_fract_y
_atom_site_fract_z
O1 O 0.4040(2) 0.30370 0.3816(1)
O2 O 0.0976(2) 0.27350 0.4647(1)
O3 O 0.3706(3) 0.2886(1) 0.6288(1)
O4 O 0.5986(3) 0.1762(1) 0.6447(1)
O5 O 0.6049(3) 0.4361(1) 0.6184(1)
O6 O 0.4365(3) 0.5619(1) 0.6057(1)
O7? O 0.8243(7) 0.4799(3) 0.3794(3)
O8 O 0.8915(4) 0.4891(2) 0.4809(2)
O9 O 0.1864(3) 0.3849(1) 0.2166(1)
O10 O 0.2543(3) 0.4772(1) 0.1101(1)
N1 N 0.7520(3) 0.4304(1) 0.4378(2)
C1 C 0.3371(4) 0.2684(1) 0.4621(2)
C2 C 0.4651(4) 0.3121(1) 0.5472(1)
C3 C 0.4457(4) 0.4065(1) 0.5409(2)
C4 C 0.5061(4) 0.4380(1) 0.4488(1)
C5 C 0.3526(4) 0.3911(1) 0.3737(2)
C6 C -0.0340(4) 0.2227(2) 0.3952(2)
C7 C 0.4503(4) 0.2181(1) 0.6715(2)
C8 C 0.3282(4) 0.1989(2) 0.7505(1)
C9 C 0.1238(4) 0.2386(2) 0.7642(2)
C10 C 0.0109(4) 0.2140(2) 0.8373(2)
C11 C 0.0991(5) 0.1515(2) 0.8945(2)
C12 C 0.3016(6) 0.1125(2) 0.8812(2)
C13 C 0.4155(4) 0.1353(2) 0.8097(2)
C14 C 0.5862(4) 0.5164(2) 0.6425(2)
C15 C 0.7689(4) 0.5410(2) 0.7176(2)
C16 C 0.9744(5) 0.4973(2) 0.7365(2)
C17 C 1.1436(5) 0.5244(2) 0.8068(2)
C18 C 1.1041(6) 0.5947(2) 0.8565(2)
C19 C 0.9023(5) 0.6373(2) 0.8377(2)
C20 C 0.7347(5) 0.6115(2) 0.7679(2)
C21 C 0.9348(5) 0.5551(2) 0.4175(2)
C22 C 0.3823(4) 0.4186(2) 0.2786(2)
C23 C 0.1382(4) 0.4220(2) 0.1345(2)
C24 C -0.0715(4) 0.3865(2) 0.0790(2)
C25 C -0.1297(5) 0.4139(2) -0.0102(2)
C26 C -0.3238(6) 0.3848(2) -0.0644(2)
C27 C -0.4632(5) 0.3288(2) -0.0311(2)
C28 C -0.4086(5) 0.3002(2) 0.0580(2)
C29 C -0.2124(5) 0.3292(2) 0.1135(2)
H1 H 0.38120 0.21150 0.46440
H2 H 0.62510 0.29700 0.55430
H3 H 0.29150 0.42320 0.54770
H4 H 0.46570 0.49540 0.44350
H5 H 0.19420 0.39910 0.38210
H6 H -0.19550 0.22880 0.39840
H7 H 0.01000 0.16600 0.40540
H8 H -0.00140 0.23940 0.33610
H9 H 0.06180 0.28240 0.72440
H10 H -0.12930 0.24120 0.84750
H11 H 0.01930 0.13480 0.94390
H12 H 0.36330 0.06940 0.92200
H13 H 0.55510 0.10750 0.80010
H14 H 0.99910 0.44870 0.70180
H15 H 1.28680 0.49500 0.82030
H16 H 1.21970 0.61330 0.90450
H17 H 0.87570 0.68520 0.87310
H18 H 0.59490 0.64260 0.75380
H19 H 0.82860 0.37000 0.44420
H20 H 1.03300 0.59610 0.44870
H21? H 1.06680 0.54120 0.46020
H22 H 1.00070 0.53230 0.36830
H23? H 0.98190 0.57390 0.36860
H24 H 0.78980 0.57980 0.39220
H25? H 0.82710 0.58610 0.44700
H26 H 0.38090 0.47760 0.27540
H27 H 0.52450 0.39800 0.26260
H28 H -0.03200 0.45350 -0.03460
H29 H -0.36140 0.40480 -0.12580
H30 H -0.59790 0.30900 -0.06920
H31 H -0.50670 0.26040 0.08130
H32 H -0.17530 0.30940 0.17500
#END
