
#######################################################################
#
#                 Cambridge Crystallographic Data Centre
#                                CCDC
#
#######################################################################
#
# If this CIF has been generated from an entry in the Cambridge
# Structural Database, then it will include bibliographic, chemical,
# crystal, experimental, refinement or atomic coordinate data resulting
# from the CCDC's data processing and validation procedures.
#
#######################################################################

data_CSD_CIF_XITRUO
_audit_creation_date 2008-06-10
_audit_creation_method CSD-ConQuest-V1
_database_code_CSD XITRUO
_database_code_depnum_ccdc_archive 'CCDC 678799'
_chemical_formula_sum 'C27 H27 N1 O5'
_chemical_formula_moiety
;
C27 H27 N1 O5
;
_journal_coden_Cambridge 35
_journal_volume 72
_journal_year 2007
_journal_page_first 10251
_journal_name_full 'J.Org.Chem. '
loop_
_publ_author_name
"A.Karadeolian"
"M.A.Kerr"
_chemical_name_systematic
;
Dimethyl 5-methyl-2,3,6-triphenyl-1,2-oxazinane-4,4-dicarboxylate
;
_chemical_melting_point 434.15
_cell_volume   2406.021
_exptl_crystal_colour 'colorless'
_exptl_crystal_density_diffrn 1.23
_exptl_special_details
;
Melting point range 434.15-436.15K

;
_exptl_crystal_description 'plate'
_exptl_crystal_preparation 'dichloromethane/hexanes'
_diffrn_ambient_temperature 300
#These two values have been output from a single CSD field.
_refine_ls_R_factor_gt 0.0643
_refine_ls_wR_factor_gt 0.0643
loop_
_citation_database_id_CSD
_citation_special_details
XIZDIU "is a stereoisomer of this entry"
_symmetry_cell_setting monoclinic
_symmetry_space_group_name_H-M 'P 21/n'
_symmetry_Int_Tables_number 14
loop_
_symmetry_equiv_pos_site_id
_symmetry_equiv_pos_as_xyz
1 x,y,z
2 1/2-x,1/2+y,1/2-z
3 -x,-y,-z
4 -1/2+x,-1/2-y,-1/2+z
_cell_length_a 9.3258(4)
_cell_length_b 16.7640(11)
_cell_length_c 15.4111(8)
_cell_angle_alpha 90
_cell_angle_beta 93.006(3)
_cell_angle_gamma 90
_cell_formula_units_Z 4
loop_
_atom_type_symbol
_atom_type_radius_bond
C 0.68
H 0.23
N 0.68
O 0.68
loop_
_atom_site_label
_atom_site_type_symbol
_atom_site_fract_x
_atom_site_fract_y
_atom_site_fract_z
O1 O 0.2376(2) 0.17127(13) 0.53746(13)
N1 N 0.1405(3) 0.22472(16) 0.57731(16)
C1 C 0.2188(3) 0.27933(19) 0.63720(19)
H1 H 0.14630 0.31600 0.65800
C2 C 0.3176(3) 0.3316(2) 0.5805(2)
C3 C 0.4034(3) 0.2795(2) 0.5184(2)
H2 H 0.47540 0.25050 0.55470
C4 C 0.3069(3) 0.2170(2) 0.4732(2)
H3 H 0.23350 0.24410 0.43610
C5 C 0.0191(2) 0.18299(15) 0.60348(15)
C6 C -0.0112(3) 0.10655(15) 0.57279(15)
H4 H 0.05270 0.08070 0.53800
C7 C -0.1372(3) 0.06869(13) 0.59413(18)
H5 H -0.15750 0.01750 0.57360
C8 C -0.2329(2) 0.1073(2) 0.64617(19)
H6 H -0.31720 0.08200 0.66050
C9 C -0.2025(3) 0.1837(2) 0.67686(18)
H7 H -0.26650 0.20950 0.71170
C10 C -0.0765(3) 0.22158(14) 0.65552(18)
H8 H -0.05620 0.27270 0.67610
C11 C 0.2928(2) 0.24349(15) 0.71861(12)
C12 C 0.3795(3) 0.17604(15) 0.71910(15)
H9 H 0.39310 0.14880 0.66760
C13 C 0.4460(3) 0.14932(15) 0.7965(2)
H10 H 0.50410 0.10420 0.79690
C14 C 0.4258(3) 0.1901(2) 0.87351(15)
H11 H 0.47020 0.17220 0.92530
C15 C 0.3390(3) 0.25750(19) 0.87302(12)
H12 H 0.32550 0.28470 0.92450
C16 C 0.2725(3) 0.28421(14) 0.79557(17)
H13 H 0.21450 0.32930 0.79520
C17 C 0.4230(4) 0.3771(2) 0.6423(2)
O2 O 0.5470(3) 0.36248(17) 0.65518(17)
O3 O 0.3533(3) 0.43490(17) 0.68174(16)
C18 C 0.4376(5) 0.4824(3) 0.7447(3)
H14 H 0.37770 0.52260 0.76840
H15 H 0.51540 0.50740 0.71660
H16 H 0.47540 0.44850 0.79060
C19 C 0.2192(5) 0.3943(2) 0.5356(2)
O4 O 0.0931(3) 0.39920(16) 0.54213(17)
O5 O 0.2939(3) 0.44625(17) 0.49143(17)
C20 C 0.2132(5) 0.5124(3) 0.4517(3)
H17 H 0.27670 0.54550 0.42040
H18 H 0.17100 0.54330 0.49610
H19 H 0.13880 0.49200 0.41240
C21 C 0.4854(5) 0.3257(3) 0.4499(3)
H20 H 0.54840 0.36390 0.47840
H21 H 0.41810 0.35290 0.41100
H22 H 0.54080 0.28890 0.41750
C22 C 0.3830(3) 0.15704(14) 0.41963(16)
C23 C 0.3345(3) 0.14472(17) 0.33384(17)
H23 H 0.25590 0.17310 0.31060
C24 C 0.4036(4) 0.0899(2) 0.28272(13)
H24 H 0.37120 0.08170 0.22530
C25 C 0.5211(4) 0.04747(15) 0.3174(2)
H25 H 0.56730 0.01080 0.28320
C26 C 0.5696(3) 0.05979(16) 0.4032(2)
H26 H 0.64820 0.03140 0.42640
C27 C 0.5005(3) 0.11457(18) 0.45429(14)
H27 H 0.53300 0.12280 0.51170
#END
