
#######################################################################
#
#                 Cambridge Crystallographic Data Centre
#                                CCDC
#
#######################################################################
#
# If this CIF has been generated from an entry in the Cambridge
# Structural Database, then it will include bibliographic, chemical,
# crystal, experimental, refinement or atomic coordinate data resulting
# from the CCDC's data processing and validation procedures.
#
#######################################################################

data_CSD_CIF_XITSAV
_audit_creation_date 2008-06-10
_audit_creation_method CSD-ConQuest-V1
_database_code_CSD XITSAV
_database_code_depnum_ccdc_archive 'CCDC 678800'
_chemical_formula_sum 'C28 H29 N1 O5'
_chemical_formula_moiety
;
C28 H29 N1 O5
;
_journal_coden_Cambridge 35
_journal_volume 72
_journal_year 2007
_journal_page_first 10251
_journal_name_full 'J.Org.Chem. '
loop_
_publ_author_name
"A.Karadeolian"
"M.A.Kerr"
_chemical_name_systematic
;
Dimethyl 2-benzyl-5-methyl-3,6-diphenyl-1,2-oxazinane-4,4-dicarboxylate
;
_chemical_melting_point 398.15
_cell_volume   2508.043
_exptl_crystal_colour 'colorless'
_exptl_crystal_density_diffrn 1.217
_exptl_special_details
;
Melting point range 398.15-400.15K

;
_exptl_crystal_description 'rod'
_exptl_crystal_preparation 'methanol'
_diffrn_ambient_temperature 298
#These two values have been output from a single CSD field.
_refine_ls_R_factor_gt 0.0616
_refine_ls_wR_factor_gt 0.0616
loop_
_citation_database_id_CSD
_citation_special_details
XIZDOA "is a stereoisomer of this entry"
_symmetry_cell_setting monoclinic
_symmetry_space_group_name_H-M 'P 21/n'
_symmetry_Int_Tables_number 14
loop_
_symmetry_equiv_pos_site_id
_symmetry_equiv_pos_as_xyz
1 x,y,z
2 1/2-x,1/2+y,1/2-z
3 -x,-y,-z
4 -1/2+x,-1/2-y,-1/2+z
_cell_length_a 15.4820(4)
_cell_length_b 9.2541(3)
_cell_length_c 17.6066(7)
_cell_angle_alpha 90
_cell_angle_beta 96.144(2)
_cell_angle_gamma 90
_cell_formula_units_Z 4
loop_
_atom_type_symbol
_atom_type_radius_bond
C 0.68
H 0.23
N 0.68
O 0.68
loop_
_atom_site_label
_atom_site_type_symbol
_atom_site_fract_x
_atom_site_fract_y
_atom_site_fract_z
O1 O 0.95615(9) 0.18838(17) 0.12365(9)
N1 N 1.02874(11) 0.2850(2) 0.14579(11)
C1 C 1.00477(14) 0.3798(3) 0.20733(13)
H1 H 1.05420 0.44520 0.21880
C2 C 0.92827(14) 0.4774(2) 0.17253(13)
C3 C 0.85442(14) 0.3865(3) 0.12877(13)
H2 H 0.82580 0.33390 0.16740
C4 C 0.89193(13) 0.2734(3) 0.07896(13)
H3 H 0.91940 0.32240 0.03840
C5 C 1.10157(14) 0.1885(3) 0.16904(16)
H4 H 1.10230 0.11090 0.13210
H5 H 1.09340 0.14570 0.21810
C6 C 1.18791(8) 0.26660(19) 0.17527(10)
C7 C 1.20389(10) 0.3736(2) 0.12315(10)
H6 H 1.15970 0.40380 0.08670
C8 C 1.28597(12) 0.4353(2) 0.12550(12)
H7 H 1.29670 0.50690 0.09060
C9 C 1.35208(8) 0.3901(2) 0.17997(13)
H8 H 1.40700 0.43140 0.18150
C10 C 1.3361(1) 0.2831(3) 0.23209(12)
H9 H 1.38030 0.25290 0.26850
C11 C 1.25401(12) 0.2214(2) 0.22974(10)
H10 H 1.24330 0.14980 0.26460
C12 C 0.99126(12) 0.3072(2) 0.28336(8)
C13 C 0.93103(12) 0.1982(2) 0.29099(10)
H11 H 0.89570 0.16560 0.24840
C14 C 0.92361(13) 0.1378(2) 0.36230(12)
H12 H 0.88330 0.06490 0.36740
C15 C 0.97642(17) 0.1865(3) 0.42598(9)
H13 H 0.97150 0.14610 0.47370
C16 C 1.03665(17) 0.2955(3) 0.41835(9)
H14 H 1.07200 0.32810 0.46100
C17 C 1.04407(14) 0.3558(2) 0.34704(11)
H15 H 1.08440 0.42880 0.34190
C18 C 0.89138(18) 0.5576(3) 0.23753(16)
O2 O 0.82056(13) 0.5425(2) 0.25695(12)
O3 O 0.95108(14) 0.6461(2) 0.27236(13)
C19 C 0.9256(3) 0.7248(5) 0.3373(3)
H16 H 0.97290 0.78470 0.35830
H17 H 0.91080 0.65770 0.37540
H18 H 0.87610 0.78430 0.32130
C20 C 0.96513(15) 0.5924(3) 0.12194(14)
O4 O 1.03517(12) 0.5907(2) 0.10073(13)
O5 O 0.91014(12) 0.6981(2) 0.10502(13)
C21 C 0.9385(2) 0.8145(3) 0.0589(2)
H19 H 0.89330 0.88560 0.05080
H20 H 0.95140 0.77700 0.01050
H21 H 0.98970 0.85820 0.08470
C22 C 0.78405(17) 0.4727(3) 0.08159(18)
H22 H 0.74070 0.40780 0.05810
H23 H 0.80940 0.52580 0.04270
H24 H 0.75760 0.53880 0.11420
C23 C 0.82557(9) 0.16725(16) 0.04290(9)
C24 C 0.81429(11) 0.15268(19) -0.03611(8)
H25 H 0.84490 0.21190 -0.06640
C25 C 0.75718(12) 0.0496(2) -0.06982(8)
H26 H 0.74960 0.03980 -0.12270
C26 C 0.71136(11) -0.03897(19) -0.02451(11)
H27 H 0.67310 -0.10800 -0.04710
C27 C 0.72264(11) -0.02440(18) 0.05450(11)
H28 H 0.69200 -0.08360 0.08480
C28 C 0.77975(11) 0.07871(19) 0.08821(7)
H29 H 0.78730 0.08850 0.14110
#END
