
#######################################################################
#
#                 Cambridge Crystallographic Data Centre
#                                CCDC
#
#######################################################################
#
# If this CIF has been generated from an entry in the Cambridge
# Structural Database, then it will include bibliographic, chemical,
# crystal, experimental, refinement or atomic coordinate data resulting
# from the CCDC's data processing and validation procedures.
#
#######################################################################

data_CSD_CIF_XIVBUB
_audit_creation_date 2014-01-18
_audit_creation_method CSD-ConQuest-V1
_database_code_CSD XIVBUB
_database_code_depnum_ccdc_archive 'CCDC 952319'
_chemical_formula_sum 'C18 H15 N3 O3'
_chemical_formula_moiety
;
C18 H15 N3 O3
;
_journal_coeditor_code "su2673"
_journal_coden_Cambridge 1370
_journal_volume 70
_journal_year 2014
_journal_page_first o168
_journal_name_full 'Acta Crystallogr.,Sect.E:Struct.Rep.Online '
loop_
_publ_author_name
"E.Govindan"
"P.S.Yuvaraj"
"B.S.R.Reddy"
"S.Bangaru Sudarsan Alwar"
"A.SubbiahPandi"
_chemical_name_systematic
;
(4S)-3-Methyl-1',2',6,7,8,9-hexahydro-5H-spiro[[1,2]oxazolo[5,4-b]quinoline-4,
3'-indole]-2',5-dione
;
_cell_volume   1508.215
_exptl_crystal_colour 'colorless'
_exptl_crystal_density_diffrn 1.415
_exptl_crystal_description 'block'
_exptl_crystal_preparation 'ethanol'
_diffrn_ambient_temperature 293
#These two values have been output from a single CSD field.
_refine_ls_R_factor_gt 0.0467
_refine_ls_wR_factor_gt 0.0467
_symmetry_cell_setting monoclinic
_symmetry_space_group_name_H-M 'P 21/c'
_symmetry_Int_Tables_number 14
loop_
_symmetry_equiv_pos_site_id
_symmetry_equiv_pos_as_xyz
1 x,y,z
2 -x,1/2+y,1/2-z
3 -x,-y,-z
4 x,-1/2-y,-1/2+z
_cell_length_a 10.9160(3)
_cell_length_b 11.9027(3)
_cell_length_c 12.4848(4)
_cell_angle_alpha 90
_cell_angle_beta 111.602(1)
_cell_angle_gamma 90
_cell_formula_units_Z 4
loop_
_atom_type_symbol
_atom_type_radius_bond
C 0.68
H 0.23
N 0.68
O 0.68
loop_
_atom_site_label
_atom_site_type_symbol
_atom_site_fract_x
_atom_site_fract_y
_atom_site_fract_z
C1 C 0.75216(16) 1.11349(13) 0.22069(13)
C2 C 0.78149(13) 1.02411(12) 0.30195(12)
C3 C 0.90595(14) 0.99600(13) 0.31647(13)
C4 C 0.91557(13) 0.84446(12) 0.43585(12)
C5 C 0.99809(15) 0.74920(14) 0.50327(15)
H1 H 1.05270 0.72080 0.46310
H2 H 1.05590 0.77650 0.57800
C6 C 0.9153(2) 0.65604(17) 0.5196(2)
H3 H 0.97150 0.60240 0.57420
H4 H 0.87300 0.61750 0.44680
C7 C 0.8122(2) 0.69692(18) 0.5624(2)
H5 H 0.85410 0.71630 0.64320
H6 H 0.75080 0.63620 0.55650
C8 C 0.73613(14) 0.79727(13) 0.49828(13)
C9 C 0.78951(13) 0.86471(11) 0.42928(12)
C10 C 0.70456(12) 0.96318(11) 0.36267(11)
C11 C 0.56686(13) 0.93371(12) 0.27954(12)
C12 C 0.52498(16) 0.86478(14) 0.18423(13)
H7 H 0.58490 0.82220 0.16440
C13 C 0.39008(18) 0.86039(15) 0.11791(15)
H8 H 0.35980 0.81410 0.05350
C14 C 0.30162(17) 0.92411(16) 0.14721(16)
H9 H 0.21250 0.92010 0.10170
C15 C 0.34238(15) 0.99406(15) 0.24296(15)
H10 H 0.28250 1.03660 0.26280
C16 C 0.47563(13) 0.99759(12) 0.30727(12)
C17 C 0.67211(13) 1.04533(11) 0.44623(12)
C18 C 0.62743(19) 1.17717(16) 0.16867(16)
H11 H 0.64390 1.24520 0.13490
H12 H 0.59320 1.19530 0.22720
H13 H 0.56440 1.13220 0.11020
N1 N 0.85270(15) 1.13783(13) 0.19114(13)
N2 N 0.97711(12) 0.91031(12) 0.38120(12)
H14 H 1.05710 0.89790 0.38760
N3 N 0.54091(11) 1.06336(10) 0.40459(10)
H15 H 0.50200 1.10980 0.43430
O1 O 0.95520(11) 1.05973(11) 0.25399(11)
O2 O 0.63136(11) 0.82301(10) 0.50785(11)
O3 O 0.75076(10) 1.08902(10) 0.53253(9)
#END
