
#######################################################################
#
#                 Cambridge Crystallographic Data Centre
#                                CCDC
#
#######################################################################
#
# If this CIF has been generated from an entry in the Cambridge
# Structural Database, then it will include bibliographic, chemical,
# crystal, experimental, refinement or atomic coordinate data resulting
# from the CCDC's data processing and validation procedures.
#
#######################################################################

data_CSD_CIF_XIVCUC
_audit_creation_date 2014-01-18
_audit_creation_method CSD-ConQuest-V1
_database_code_CSD XIVCUC
_database_code_depnum_ccdc_archive 'CCDC 980846'
_chemical_formula_sum 'C14 H8 N4 O6'
_chemical_formula_moiety
;
C14 H8 N4 O6
;
_journal_coeditor_code "hg5375"
_journal_coden_Cambridge 1370
_journal_volume 70
_journal_year 2014
_journal_page_first o158
_journal_name_full 'Acta Crystallogr.,Sect.E:Struct.Rep.Online '
loop_
_publ_author_name
"E.R.T.Tiekink"
"J.L.Wardell"
_chemical_name_systematic
;
2-(2-Amino-4-nitrophenyl)-7-nitro-4H-3,1-benzoxazin-4-one
;
_cell_volume   1304.774
_exptl_crystal_colour 'yellow'
_exptl_crystal_density_diffrn 1.671
_exptl_crystal_description 'plate'
_diffrn_ambient_temperature 100
#These two values have been output from a single CSD field.
_refine_ls_R_factor_gt 0.0339
_refine_ls_wR_factor_gt 0.0339
_symmetry_cell_setting monoclinic
_symmetry_space_group_name_H-M 'P 21/n'
_symmetry_Int_Tables_number 14
loop_
_symmetry_equiv_pos_site_id
_symmetry_equiv_pos_as_xyz
1 x,y,z
2 1/2-x,1/2+y,1/2-z
3 -x,-y,-z
4 -1/2+x,-1/2-y,-1/2+z
_cell_length_a 7.0229(3)
_cell_length_b 8.6148(3)
_cell_length_c 21.5662(15)
_cell_angle_alpha 90
_cell_angle_beta 90.029(6)
_cell_angle_gamma 90
_cell_formula_units_Z 4
loop_
_atom_type_symbol
_atom_type_radius_bond
C 0.68
H 0.23
N 0.68
O 0.68
loop_
_atom_site_label
_atom_site_type_symbol
_atom_site_fract_x
_atom_site_fract_y
_atom_site_fract_z
O1 O 0.31373(16) 0.12873(11) -0.24884(4)
O2 O 0.46051(15) -0.04287(11) -0.19338(5)
O3 O 0.31958(12) 0.37682(9) 0.06796(4)
O4 O 0.33686(15) 0.36166(10) 0.17002(4)
O5 O 0.01987(14) 1.12855(10) 0.07508(4)
O6 O -0.00939(15) 1.12189(10) 0.17491(4)
N1 N 0.37678(15) 0.08006(12) -0.19950(5)
N2 N 0.19120(16) 0.56949(12) -0.11084(5)
H1 H 0.175(2) 0.6344(14) -0.0794(5)
H2 H 0.176(2) 0.5998(16) -0.1498(5)
N3 N 0.21171(14) 0.59740(11) 0.01426(4)
N4 N 0.03554(15) 1.06317(12) 0.12548(4)
C1 C 0.34836(16) 0.17765(13) -0.14391(5)
C2 C 0.28728(16) 0.32695(13) -0.15271(5)
H3 H 0.26530 0.36480 -0.19350
C3 C 0.25693(16) 0.42466(13) -0.10088(5)
C4 C 0.29441(16) 0.36214(13) -0.04081(5)
C5 C 0.35508(16) 0.20706(13) -0.03512(5)
H4 H 0.37740 0.16600 0.00510
C6 C 0.38315(16) 0.11279(13) -0.08591(5)
H5 H 0.42430 0.00830 -0.08150
C7 C 0.27046(16) 0.45587(13) 0.01513(5)
C8 C 0.29892(17) 0.44138(14) 0.12669(5)
C9 C 0.23325(16) 0.60264(13) 0.12738(5)
C10 C 0.19409(16) 0.67456(13) 0.07059(5)
C11 C 0.13195(16) 0.82896(13) 0.06998(5)
H6 H 0.10660 0.88110 0.03210
C12 C 0.10881(16) 0.90273(13) 0.12612(5)
C13 C 0.14479(17) 0.83313(14) 0.18319(5)
H7 H 0.12600 0.88820 0.22080
C14 C 0.20854(17) 0.68167(14) 0.18338(5)
H8 H 0.23560 0.63120 0.22150
#END
