
#######################################################################
#
#                 Cambridge Crystallographic Data Centre
#                                CCDC
#
#######################################################################
#
# If this CIF has been generated from an entry in the Cambridge
# Structural Database, then it will include bibliographic, chemical,
# crystal, experimental, refinement or atomic coordinate data resulting
# from the CCDC's data processing and validation procedures.
#
#######################################################################

data_CSD_CIF_XIVDIQ
_audit_creation_date 2008-06-10
_audit_creation_method CSD-ConQuest-V1
_database_code_CSD XIVDIQ
_database_code_depnum_ccdc_archive 'CCDC 678870'
_chemical_formula_sum 'C26 H29 N5 O9'
_chemical_formula_moiety
;
C26 H29 N5 O9
;
_journal_coden_Cambridge 1336
_journal_volume 10
_journal_year 2008
_journal_page_first 449
_journal_name_full 'Org.Lett. '
loop_
_publ_author_name
"Hui-Yi Shiao"
"Hsing-Pang Hsieh"
"Chun-Chen Liao"
_chemical_name_systematic
;
(1R*,3S*,5S*,8S*)-8-(3-((2,4-Dinitrophenyl)hydrazono)butyl)-1,5-dimethyl-6-oxa
bicyclo[3.2.1]oct-3-yl 4-nitrobenzoate
;
_cell_volume   2659.494
_exptl_crystal_colour 'yellow'
_exptl_crystal_density_diffrn 1.385
_exptl_crystal_description 'columnar'
_diffrn_ambient_temperature 273
#These two values have been output from a single CSD field.
_refine_ls_R_factor_gt 0.1052
_refine_ls_wR_factor_gt 0.1052
_symmetry_cell_setting triclinic
_symmetry_space_group_name_H-M 'P -1'
_symmetry_Int_Tables_number 2
loop_
_symmetry_equiv_pos_site_id
_symmetry_equiv_pos_as_xyz
1 x,y,z
2 -x,-y,-z
_cell_length_a 12.316(5)
_cell_length_b 12.554(5)
_cell_length_c 17.588(7)
_cell_angle_alpha 98.282(5)
_cell_angle_beta 94.186(5)
_cell_angle_gamma 97.013(5)
_cell_formula_units_Z 4
loop_
_atom_type_symbol
_atom_type_radius_bond
C 0.68
H 0.23
N 0.68
O 0.68
loop_
_atom_site_label
_atom_site_type_symbol
_atom_site_fract_x
_atom_site_fract_y
_atom_site_fract_z
C1 C 0.3246(4) 0.9904(4) 0.0855(3)
C2 C 0.3349(4) 1.1008(4) 0.0821(3)
H1 H 0.27290 1.13570 0.07760
C3 C 0.4378(5) 1.1573(4) 0.0857(3)
C4 C 0.5312(5) 1.1068(5) 0.0924(3)
H2 H 0.60020 1.14690 0.09350
C5 C 0.5228(4) 0.9986(4) 0.0975(3)
H3 H 0.58610 0.96590 0.10320
C6 C 0.4182(4) 0.9359(4) 0.0942(3)
C7 C 0.4902(4) 0.6755(5) 0.0993(3)
C8 C 0.3825(4) 0.6048(5) 0.0840(3)
H4 H 0.32470 0.64910 0.07980
H5 H 0.37180 0.56410 0.12570
H6 H 0.38140 0.55570 0.03670
C9 C 0.5922(4) 0.6222(4) 0.1082(3)
H7 H 0.59310 0.56790 0.06310
H8 H 0.58860 0.58480 0.15270
C10 C 0.7001(4) 0.6999(4) 0.1181(3)
H9 H 0.70060 0.74310 0.07660
H10 H 0.70330 0.74910 0.16630
C11 C 0.8027(4) 0.6422(5) 0.1181(3)
H11 H 0.78630 0.57570 0.08020
C12 C 0.9073(5) 0.7093(5) 0.0959(3)
C13 C 0.9327(4) 0.8160(5) 0.1519(3)
H12 H 0.99870 0.85690 0.13860
H13 H 0.87290 0.85850 0.14580
C14 C 0.9488(4) 0.8010(4) 0.2352(3)
H14 H 0.93630 0.86810 0.26730
C15 C 0.8740(4) 0.7082(5) 0.2569(3)
H15 H 0.80520 0.73310 0.26990
H16 H 0.90760 0.68520 0.30240
C16 C 0.8507(4) 0.6113(5) 0.1919(4)
C17 C 0.7847(5) 0.5157(5) 0.2222(5)
H17 H 0.76950 0.45440 0.18170
H18 H 0.71680 0.53700 0.23860
H19 H 0.82690 0.49630 0.26490
C18 C 0.9894(5) 0.6321(6) 0.1105(4)
H20 H 0.99160 0.58010 0.06430
H21 H 1.06230 0.67230 0.12420
C19 C 0.9015(5) 0.7333(7) 0.0136(4)
H22 H 0.96870 0.77580 0.00550
H23 H 0.84110 0.77310 0.00500
H24 H 0.89100 0.66630 -0.02170
C20 C 1.1400(4) 0.8689(5) 0.2650(3)
C21 C 1.2527(4) 0.8417(4) 0.2784(3)
C22 C 1.2745(4) 0.7348(4) 0.2741(3)
H25 H 1.21690 0.67800 0.26380
C23 C 1.3805(4) 0.7128(4) 0.2851(3)
H26 H 1.39510 0.64160 0.28340
C24 C 1.4647(4) 0.7978(4) 0.2986(3)
C25 C 1.4455(5) 0.9039(5) 0.3042(4)
H27 H 1.50330 0.96040 0.31480
C26 C 1.3388(5) 0.9249(5) 0.2937(4)
H28 H 1.32470 0.99640 0.29700
C27 C 0.0263(4) 0.1819(4) 0.4056(3)
C28 C 0.0450(4) 0.0781(4) 0.4148(3)
H29 H 0.00330 0.01840 0.38420
C29 C 0.1249(4) 0.0632(4) 0.4690(3)
C30 C 0.1846(4) 0.1518(5) 0.5182(3)
H30 H 0.23660 0.14080 0.55630
C31 C 0.1662(4) 0.2529(4) 0.5101(3)
H31 H 0.20430 0.31120 0.54420
C32 C 0.0904(4) 0.2738(4) 0.4511(3)
C33 C 0.1482(4) 0.5545(4) 0.4568(3)
C34 C 0.0668(4) 0.5784(4) 0.3961(3)
H32 H 0.01810 0.51330 0.37550
H33 H 0.10500 0.60460 0.35540
H34 H 0.02500 0.63270 0.41840
C35 C 0.2316(4) 0.6494(4) 0.4957(3)
H35 H 0.27510 0.67500 0.45650
H36 H 0.19180 0.70780 0.51560
C36 C 0.3091(4) 0.6289(4) 0.5603(3)
H37 H 0.26650 0.60580 0.60070
H38 H 0.34830 0.56960 0.54110
C37 C 0.3915(5) 0.7248(4) 0.5949(4)
H39 H 0.35760 0.79020 0.58920
C38 C 0.5032(7) 0.741(1) 0.5677(4)
C39 C 0.5599(7) 0.6539(12) 0.5697(8)
H40 H 0.63280 0.67350 0.55410
H41 H 0.52330 0.59440 0.53150
C40 C 0.5722(8) 0.6140(6) 0.6436(10)
H42 H 0.57960 0.53650 0.63390
C41 C 0.4830(9) 0.6296(9) 0.6927(5)
H43 H 0.51130 0.63500 0.74630
H44 H 0.42710 0.56660 0.68090
C42 C 0.4305(5) 0.7322(7) 0.6819(4)
C43 C 0.3392(7) 0.7527(17) 0.7309(7)
H45 H 0.36440 0.75440 0.78410
H46 H 0.27880 0.69570 0.71610
H47 H 0.31570 0.82120 0.72420
C44 C 0.5200(6) 0.8235(6) 0.6919(6)
H48 H 0.49340 0.88890 0.71550
H49 H 0.57950 0.80870 0.72640
C45 C 0.4941(9) 0.7817(19) 0.4902(6)
H50 H 0.46450 0.72240 0.45050
H51 H 0.56550 0.81140 0.47890
H52 H 0.44640 0.83690 0.49250
C46 C 0.7404(5) 0.6173(5) 0.7237(4)
C47 C 0.8409(4) 0.6813(5) 0.7659(3)
C48 C 0.8619(5) 0.7938(5) 0.7728(4)
H53 H 0.80990 0.83200 0.75210
C49 C 0.9604(4) 0.8497(5) 0.8106(4)
H54 H 0.97620 0.92480 0.81430
C50 C 1.0336(4) 0.7897(4) 0.8421(3)
C51 C 1.0129(4) 0.6783(5) 0.8368(3)
H55 H 1.06410 0.64020 0.85860
C52 C 0.9174(4) 0.6250(5) 0.7997(3)
H56 H 0.90260 0.55000 0.79670
N1 N 0.4473(5) 1.2730(4) 0.0829(3)
N2 N 0.2143(4) 0.9347(4) 0.0802(3)
N3 N 0.4085(3) 0.8274(4) 0.0965(2)
N4 N 0.5053(3) 0.7804(4) 0.1046(2)
N5 N 1.5780(4) 0.7753(4) 0.3109(3)
N6 N 0.1477(5) -0.0472(4) 0.4754(3)
N7 N -0.0613(4) 0.1904(4) 0.3495(3)
N8 N 0.0791(3) 0.3772(3) 0.4383(3)
N9 N 0.1561(3) 0.4620(3) 0.4779(2)
N10 N 1.1387(4) 0.8474(5) 0.8816(3)
O1 O 0.5398(4) 1.3235(3) 0.0812(2)
O2 O 0.3638(4) 1.3177(3) 0.0823(3)
O3 O 0.1362(3) 0.9831(3) 0.0649(2)
O4 O 0.1997(3) 0.8365(4) 0.0902(2)
O5 O 0.9558(3) 0.5763(3) 0.1728(3)
O6 O 1.0630(3) 0.7826(3) 0.2539(2)
O7 O 1.1210(3) 0.9615(3) 0.2638(2)
O8 O 1.5937(3) 0.6817(4) 0.3122(3)
O9 O 1.6531(3) 0.8515(3) 0.3184(2)
O10 O 0.2185(4) -0.0583(4) 0.5254(3)
O11 O 0.0927(4) -0.1243(3) 0.4323(2)
O12 O -0.1168(4) 0.1078(3) 0.3141(2)
O13 O -0.0806(3) 0.2833(3) 0.3387(2)
O14 O 0.5540(6) 0.8382(5) 0.6315(5)
O15 O 0.6729(4) 0.6742(4) 0.6928(5)
O16 O 0.7230(3) 0.5199(3) 0.7144(3)
O17 O 1.2011(3) 0.7946(4) 0.9128(2)
O18 O 1.1614(3) 0.9447(4) 0.8794(3)
#END
