
#######################################################################
#
#                 Cambridge Crystallographic Data Centre
#                                CCDC
#
#######################################################################
#
# If this CIF has been generated from an entry in the Cambridge
# Structural Database, then it will include bibliographic, chemical,
# crystal, experimental, refinement or atomic coordinate data resulting
# from the CCDC's data processing and validation procedures.
#
#######################################################################

data_CSD_CIF_XIVJES
_audit_creation_date 2008-06-09
_audit_creation_method CSD-ConQuest-V1
_database_code_CSD XIVJES
_database_code_depnum_ccdc_archive 'CCDC 640808'
_chemical_formula_sum 'C13 H13 N3 O5'
_chemical_formula_moiety
;
C13 H13 N3 O5
;
_journal_coden_Cambridge 643
_journal_volume 222
_journal_year 2007
_journal_page_first 705
_journal_name_full 'Z.Krist.Cryst.Mater. '
loop_
_publ_author_name
"M.Vega-Teijido"
"J.Zukerman-Schpector"
"F.M.Nunes"
"P.M.Gatti"
"H.A.Stefani"
"I.Caracelli"
_chemical_name_systematic
;
Methyl 
6-methyl-4-(3-nitrophenyl)-2-oxo-1,2,3,4-tetrahydropyrimidine-5-carboxylate
;
_cell_volume    657.304
_exptl_crystal_colour 'colorless'
_exptl_crystal_density_diffrn 1.472
_exptl_crystal_description 'irregular'
_diffrn_ambient_temperature 293
#These two values have been output from a single CSD field.
_refine_ls_R_factor_gt 0.0454
_refine_ls_wR_factor_gt 0.0454
_symmetry_cell_setting triclinic
_symmetry_space_group_name_H-M 'P -1'
_symmetry_Int_Tables_number 2
loop_
_symmetry_equiv_pos_site_id
_symmetry_equiv_pos_as_xyz
1 x,y,z
2 -x,-y,-z
_cell_length_a 7.4629(9)
_cell_length_b 7.9203(9)
_cell_length_c 12.126(2)
_cell_angle_alpha 86.804(5)
_cell_angle_beta 78.471(7)
_cell_angle_gamma 69.401(8)
_cell_formula_units_Z 2
loop_
_atom_type_symbol
_atom_type_radius_bond
C 0.68
H 0.23
N 0.68
O 0.68
loop_
_atom_site_label
_atom_site_type_symbol
_atom_site_fract_x
_atom_site_fract_y
_atom_site_fract_z
O1 O 0.3394(3) 0.2443(3) 0.21966(19)
O2 O 0.2074(3) 0.0583(3) 0.1643(2)
O3 O 1.1081(3) -0.3364(3) 0.01282(19)
O4 O 0.6924(6) 0.3342(4) 0.6229(3)
O5 O 0.7288(5) 0.4608(4) 0.4631(3)
N1 N 0.9001(4) -0.0806(3) 0.1064(2)
H1 H 1.00290 -0.02880 0.10160
N2 N 0.7932(4) -0.3123(3) 0.0795(2)
H2 H 0.81800 -0.43610 0.04580
N3 N 0.7162(5) 0.3339(5) 0.5206(3)
C1 C 0.5532(4) -0.0370(4) 0.1531(2)
C2 C 0.7130(4) 0.0279(4) 0.1736(2)
H3 H 0.68270 0.15290 0.14850
C3 C 0.9431(5) -0.2453(4) 0.0645(3)
C4 C 0.5993(4) -0.2054(4) 0.1126(2)
C5 C 0.4632(4) -0.2978(4) 0.0976(3)
H4 H 0.35410 -0.26660 0.15950
H5 H 0.53000 -0.42600 0.09530
H6 H 0.41770 -0.26050 0.02850
C6 C 0.3510(5) 0.0853(5) 0.1781(3)
C7 C 0.1467(5) 0.3778(5) 0.2469(3)
H7 H 0.08960 0.40360 0.18090
H8 H 0.15500 0.48610 0.27360
H9 H 0.06720 0.33270 0.30440
C8 C 0.7241(4) 0.0246(4) 0.2978(3)
C9 C 0.7137(4) 0.1776(4) 0.3521(3)
H10 H 0.69710 0.28510 0.31340
C10 C 0.7281(5) 0.1697(5) 0.4644(3)
C11 C 0.7535(5) 0.0140(5) 0.5246(3)
H11 H 0.76260 0.01190 0.60010
C12 C 0.7651(5) -0.1381(5) 0.4713(3)
H12 H 0.78260 -0.24540 0.51040
C13 C 0.7507(4) -0.1318(4) 0.3589(3)
H13 H 0.75930 -0.23630 0.32350
#END
