
#######################################################################
#
#                 Cambridge Crystallographic Data Centre
#                                CCDC
#
#######################################################################
#
# If this CIF has been generated from an entry in the Cambridge
# Structural Database, then it will include bibliographic, chemical,
# crystal, experimental, refinement or atomic coordinate data resulting
# from the CCDC's data processing and validation procedures.
#
#######################################################################

data_CSD_CIF_XIVNIZ
_audit_creation_date 2002-06-28
_audit_creation_method CSD-ConQuest-V1
_database_code_CSD XIVNIZ
_database_code_depnum_ccdc_archive 'CCDC 154117'
_chemical_formula_sum 'C23 H27 N1 O4'
_chemical_formula_moiety
;
C23 H27 N1 O4
;
_journal_coden_Cambridge 7
_journal_volume 74
_journal_year 2001
_journal_page_first 1445
_journal_name_full 'Bull.Chem.Soc.Jpn. '
loop_
_publ_author_name
"M.Oishi"
"H.Yamamoto"
_chemical_name_systematic
;
o-Neomenthylphenyl p-nitrobenzoate
;
_cell_volume   4286.236
_exptl_crystal_colour 'colorless'
_exptl_crystal_description 'platy'
_exptl_crystal_preparation 'ethanol'
_diffrn_ambient_temperature 298
#These two values have been output from a single CSD field.
_refine_ls_R_factor_gt 0.039
_refine_ls_wR_factor_gt 0.039
_symmetry_cell_setting orthorhombic
_symmetry_space_group_name_H-M 'P 21 21 21'
_symmetry_Int_Tables_number 19
loop_
_symmetry_equiv_pos_site_id
_symmetry_equiv_pos_as_xyz
1 x,y,z
2 1/2-x,-y,1/2+z
3 1/2+x,1/2-y,-z
4 -x,1/2+y,1/2-z
_cell_length_a 7.5290(2)
_cell_length_b 20.4320(15)
_cell_length_c 27.8630(21)
_cell_angle_alpha 90
_cell_angle_beta 90
_cell_angle_gamma 90
_cell_formula_units_Z 8
loop_
_atom_type_symbol
_atom_type_radius_bond
C 0.68
H 0.23
N 0.68
O 0.68
loop_
_atom_site_label
_atom_site_type_symbol
_atom_site_fract_x
_atom_site_fract_y
_atom_site_fract_z
O1 O 0.0910(2) -0.02950(9) 0.01816(6)
O2 O 0.4632(2) 0.10365(9) 0.14336(6)
O3 O 0.3033(2) -0.0420(1) 0.07482(7)
O4 O -0.3392(3) -0.1796(1) 0.2214(1)
O5 O 0.2318(2) 0.1317(1) 0.09662(7)
C1 C 0.1746(3) 0.0726(1) 0.1693(1)
C2 C 0.0049(3) -0.0746(1) 0.0935(1)
N1 N -0.3868(3) -0.1543(1) 0.1848(1)
C3 C -0.0748(3) -0.1283(1) 0.1672(1)
C4 C 0.2887(3) 0.1060(2) 0.1322(1)
C5 C 0.2740(3) -0.0484(1) -0.05167(9)
C6 C 0.2808(3) 0.0570(2) -0.0101(1)
C7 C 0.5813(3) 0.1322(1) 0.1097(1)
O6 O -0.3278(3) -0.0263(1) 0.2547(1)
C8 C -0.1726(3) -0.0730(1) 0.07925(9)
N2 N -0.1708(4) -0.0227(2) 0.2658(1)
C9 C -0.2495(3) -0.1258(1) 0.1522(1)
C10 C 0.0535(3) -0.1014(1) 0.1369(1)
C11 C 0.2215(3) -0.0064(2) -0.01523(9)
O7 O -0.1064(3) -0.0448(1) 0.3027(1)
C12 C 0.0079(3) -0.1123(1) -0.0803(1)
C13 C 0.4592(3) 0.0414(2) -0.0797(1)
C14 C 0.5741(3) 0.2345(1) 0.1604(1)
C15 C 0.6352(3) 0.0929(2) 0.0717(1)
C16 C 0.1931(3) -0.1167(1) -0.05510(9)
C17 C 0.2437(3) 0.0429(2) 0.2098(1)
C18 C 0.5718(3) 0.3099(1) 0.1568(1)
C19 C 0.1492(3) -0.0469(1) 0.0621(1)
C20 C 0.7563(4) 0.3420(1) 0.1656(1)
C21 C 0.6448(3) 0.1953(1) 0.11758(9)
C22 C 0.8481(4) 0.3140(2) 0.2109(1)
C23 C -0.3018(3) -0.0988(2) 0.1094(1)
C24 C -0.1199(3) 0.0411(2) 0.1927(1)
C25 C 0.7614(4) 0.1163(2) 0.0403(1)
C26 C 0.1309(4) 0.0117(2) 0.2421(1)
C27 C 0.7722(3) 0.2173(1) 0.0850(1)
C28 C -0.0493(4) 0.0124(1) 0.2320(1)
C29 C 0.4024(3) 0.0810(2) -0.0434(1)
C30 C 0.6725(3) 0.2120(1) 0.20665(9)
C31 C 0.3039(3) -0.1725(1) -0.0777(1)
C32 C 0.8580(3) 0.2398(2) 0.2107(1)
C33 C 0.8309(3) 0.1784(2) 0.0473(1)
C34 C 0.4953(3) -0.1790(2) -0.0573(1)
C35 C -0.0069(3) 0.0724(1) 0.1608(1)
C36 C 0.3031(3) -0.1730(2) -0.1330(1)
C37 C 0.4641(3) 0.4112(2) 0.1121(1)
C38 C 0.3955(3) -0.0219(2) -0.0842(1)
O8 O -0.5393(3) -0.1515(2) 0.1721(1)
C39 C 0.4809(3) 0.3361(2) 0.1117(1)
C40 C 0.0211(3) -0.1056(2) -0.1346(1)
C41 C 0.9555(4) 0.2141(2) 0.2555(1)
C42 C 0.1182(4) -0.1645(2) -0.1546(1)
C43 C -0.1644(4) -0.0988(2) -0.1569(1)
C44 C 0.2964(4) 0.3066(2) 0.1040(1)
C45 C 0.5028(4) -0.1741(2) -0.0028(1)
C46 C 0.5820(4) -0.2426(2) -0.0732(2)
H1 H -0.03989 -0.14924 0.19660
H2 H 0.23869 0.08543 0.01491
H3 H -0.20485 -0.05577 0.04835
H4 H 0.17547 -0.10034 0.14692
H5 H -0.05318 -0.07489 -0.06747
H6 H -0.05878 -0.15119 -0.07337
H7 H 0.54614 0.05782 -0.10189
H8 H 0.45483 0.21822 0.16283
H9 H 0.58388 0.05016 0.06759
H10 H 0.17355 -0.13342 -0.02330
H11 H 0.36968 0.04354 0.21509
H12 H 0.49909 0.32655 0.18230
H13 H 0.73870 0.38807 0.17054
H14 H 0.83040 0.33527 0.13804
H15 H 0.78098 0.32701 0.23862
H16 H 0.96588 0.33171 0.21302
H17 H -0.42583 -0.09634 0.10156
H18 H -0.24521 0.04009 0.18625
H19 H 0.80138 0.09008 0.01377
H20 H 0.82145 0.26052 0.08802
H21 H 0.44812 0.12474 -0.04032
H22 H 0.68041 0.16513 0.20655
H23 H 0.60561 0.22613 0.23415
H24 H 0.25118 -0.21394 -0.06977
H25 H 0.92283 0.22684 0.18260
H26 H 0.92023 0.19298 0.02520
H27 H 0.56253 -0.14323 -0.07030
H28 H -0.05375 0.09484 0.13330
H29 H 0.35133 -0.21443 -0.14291
H30 H 0.37963 -0.13833 -0.14371
H31 H 0.57881 0.43077 0.11660
H32 H 0.38721 0.42367 0.13800
H33 H 0.41441 0.42587 0.08230
H34 H 0.43010 -0.04793 -0.11132
H35 H 0.55585 0.32365 0.08539
H36 H 0.08893 -0.06693 -0.14145
H37 H 1.07287 0.23231 0.25714
H38 H 0.96307 0.16731 0.25374
H39 H 0.88997 0.22641 0.28374
H40 H 0.04816 -0.20270 -0.14792
H41 H 0.13006 -0.15930 -0.18872
H42 H -0.22693 -0.06138 -0.14474
H43 H -0.23073 -0.13778 -0.14994
H44 H -0.15043 -0.09458 -0.19104
H45 H 0.30758 0.25976 0.10335
H46 H 0.24688 0.32146 0.07415
H47 H 0.21968 0.31916 0.12985
H48 H 0.45177 -0.13348 0.00778
H49 H 0.62357 -0.17688 0.00798
H50 H 0.43587 -0.20998 0.01018
H51 H 0.58044 -0.24551 -0.10756
H52 H 0.51464 -0.27811 -0.05986
H53 H 0.70244 -0.24501 -0.06196
H54 H 0.17458 -0.00965 0.27037
#END
