
#######################################################################
#
#                 Cambridge Crystallographic Data Centre
#                                CCDC
#
#######################################################################
#
# If this CIF has been generated from an entry in the Cambridge
# Structural Database, then it will include bibliographic, chemical,
# crystal, experimental, refinement or atomic coordinate data resulting
# from the CCDC's data processing and validation procedures.
#
#######################################################################

data_CSD_CIF_XIVXEF
_audit_creation_date 2002-06-28
_audit_creation_method CSD-ConQuest-V1
_database_code_CSD XIVXEF
_database_code_depnum_ccdc_archive 'CCDC 172126'
_chemical_formula_sum 'C16 H18 N4 O6'
_chemical_formula_moiety
;
C16 H18 N4 O6
;
_journal_coden_Cambridge 16
_journal_volume 58
_journal_year 2002
_journal_page_first 3249
_journal_name_full 'Tetrahedron '
loop_
_publ_author_name
"R.Goumont"
"M.Sebban"
"P.Sepulcri"
"J.Marrot"
"F.Terrier"
_chemical_name_systematic
;
6,10-Dimethyl-3b,7b-dinitro-3b,4,7,7a,7b,8-hexahydrophenanthro(9,10-c)(1,2,5)o
xadiazol-1-oxyl
;
_chemical_melting_point 415.15
_cell_volume   1637.066
_exptl_crystal_colour 'colorless'
_exptl_crystal_density_diffrn 1.47
_exptl_crystal_description 'parallelepiped'
_diffrn_ambient_temperature 296
#These two values have been output from a single CSD field.
_refine_ls_R_factor_gt 0.057
_refine_ls_wR_factor_gt 0.057
_symmetry_cell_setting monoclinic
_symmetry_space_group_name_H-M 'P 21/c'
_symmetry_Int_Tables_number 14
loop_
_symmetry_equiv_pos_site_id
_symmetry_equiv_pos_as_xyz
1 x,y,z
2 x,1/2-y,1/2+z
3 -x,-y,-z
4 -x,-1/2+y,-1/2-z
_cell_length_a 10.9902(8)
_cell_length_b 9.2632(7)
_cell_length_c 16.3690(12)
_cell_angle_alpha 90
_cell_angle_beta 100.773(1)
_cell_angle_gamma 90
_cell_formula_units_Z 4
loop_
_atom_type_symbol
_atom_type_radius_bond
C 0.68
H 0.23
N 0.68
O 0.68
loop_
_atom_site_label
_atom_site_type_symbol
_atom_site_fract_x
_atom_site_fract_y
_atom_site_fract_z
O1 O 0.25202(16) 0.01153(17) 0.27098(10)
O2 O 0.26222(16) -0.04268(16) 0.13435(10)
O3 O 0.05901(17) 0.2803(2) 0.01209(12)
O4 O 0.13489(17) 0.4547(2) -0.04915(11)
O5 O 0.43001(17) 0.65750(18) 0.19207(10)
O6 O 0.44665(16) 0.49993(18) 0.28936(10)
N1 N 0.25884(17) 0.06066(19) 0.20189(11)
N2 N 0.14536(19) 0.3486(2) -0.00494(11)
N3 N 0.26945(19) 0.0356(2) 0.06408(12)
N4 N 0.39949(17) 0.54481(19) 0.22115(11)
C1 C 0.27874(19) 0.2974(2) 0.03102(12)
C2 C 0.35221(19) 0.4152(2) 0.08673(12)
H1 H 0.35420 0.50220 0.05290
C3 C 0.29449(18) 0.4568(2) 0.16414(12)
C4 C 0.25933(19) 0.3277(2) 0.21594(12)
H2 H 0.32160 0.32160 0.26720
C5 C 0.26293(19) 0.1896(2) 0.16956(12)
C6 C 0.2688(2) 0.1708(2) 0.08560(12)
C7 C 0.1313(2) 0.3476(2) 0.24087(15)
H3 H 0.06670 0.32620 0.19340
H4 H 0.12340 0.27980 0.28470
C8 C 0.1135(2) 0.4989(3) 0.27051(14)
C9 C 0.0647(2) 0.5169(3) 0.34964(15)
H5 H 0.12480 0.48200 0.39560
H6 H -0.01080 0.46310 0.34610
H7 H 0.04870 0.61730 0.35790
C10 C 0.1409(2) 0.6043(3) 0.22294(14)
H8 H 0.13170 0.70020 0.23750
C11 C 0.1875(2) 0.5670(2) 0.14461(13)
H9 H 0.21650 0.65370 0.12110
H10 H 0.12060 0.52640 0.10400
C12 C 0.3368(2) 0.2628(3) -0.04468(13)
H11 H 0.29770 0.17730 -0.07200
H12 H 0.32150 0.34230 -0.08380
C13 C 0.4727(2) 0.2380(2) -0.02141(13)
H13 H 0.51190 0.18940 -0.05890
C14 C 0.5406(2) 0.2812(2) 0.04968(13)
C15 C 0.6768(2) 0.2495(3) 0.07347(15)
H14 H 0.69130 0.18790 0.12150
H15 H 0.72150 0.33820 0.08610
H16 H 0.70450 0.20220 0.02810
C16 C 0.48625(19) 0.3611(2) 0.11401(12)
H17 H 0.53860 0.44370 0.13220
H18 H 0.48900 0.29830 0.16170
#END
