
#######################################################################
#
#                 Cambridge Crystallographic Data Centre
#                                CCDC
#
#######################################################################
#
# If this CIF has been generated from an entry in the Cambridge
# Structural Database, then it will include bibliographic, chemical,
# crystal, experimental, refinement or atomic coordinate data resulting
# from the CCDC's data processing and validation procedures.
#
#######################################################################

data_CSD_CIF_XIWHUG
_audit_creation_date 2002-07-26
_audit_creation_method CSD-ConQuest-V1
_database_code_CSD XIWHUG
_chemical_formula_sum 'C26 H46 N2 O2'
_chemical_formula_moiety
;
C26 H46 N2 O2
;
_journal_coden_Cambridge 35
_journal_volume 66
_journal_year 2001
_journal_page_first 4050
_journal_name_full 'J.Org.Chem. '
loop_
_publ_author_name
"G.Mansour"
"W.Creedon"
"P.C.Dorrestein"
"J.Maxka"
"J.C.MacDonald"
"R.Helburn"
_chemical_name_systematic
;
N,N-Di-n-decyl-p-nitroaniline
;
_chemical_melting_point 321.15
_cell_volume   2572.205
_exptl_crystal_colour 'yellow'
_exptl_crystal_density_diffrn 1.081
_exptl_special_details
;
Melting point range 321.15-323.15K

;
_exptl_crystal_preparation 'methanol'
_diffrn_ambient_temperature 203
#These two values have been output from a single CSD field.
_refine_ls_R_factor_gt 0.0777
_refine_ls_wR_factor_gt 0.0777
_symmetry_cell_setting monoclinic
_symmetry_space_group_name_H-M 'I 2/c'
_symmetry_Int_Tables_number 15
loop_
_symmetry_equiv_pos_site_id
_symmetry_equiv_pos_as_xyz
1 x,y,z
2 -x,y,1/2-z
3 1/2+x,1/2+y,1/2+z
4 1/2-x,1/2+y,-z
5 -x,-y,-z
6 x,-y,-1/2+z
7 -1/2-x,-1/2-y,-1/2-z
8 -1/2+x,-1/2-y,z
_cell_length_a 11.176(2)
_cell_length_b 10.6461(13)
_cell_length_c 21.693(3)
_cell_angle_alpha 90
_cell_angle_beta 94.745(2)
_cell_angle_gamma 90
_cell_formula_units_Z 4
loop_
_atom_type_symbol
_atom_type_radius_bond
C 0.68
H 0.23
N 0.68
O 0.68
loop_
_atom_site_label
_atom_site_type_symbol
_atom_site_fract_x
_atom_site_fract_y
_atom_site_fract_z
O1 O 0.5947(3) -0.0345(3) 0.2649(2)
N1 N 0.50000 0.0225(4) 0.25000
N2 N 0.50000 0.5472(4) 0.25000
C1 C 0.50000 0.1573(5) 0.25000
C2 C 0.4005(3) 0.2216(4) 0.2244(2)
C3 C 0.4003(3) 0.3500(4) 0.2239(2)
C4 C 0.50000 0.4206(5) 0.25000
C5 C 0.3934(4) 0.6204(4) 0.2295(2)
C6 C 0.3832(4) 0.6512(4) 0.1602(2)
C7 C 0.2779(4) 0.7360(4) 0.1420(2)
C8 C 0.2703(4) 0.7759(4) 0.0744(2)
C9 C 0.1733(4) 0.8714(4) 0.0567(2)
C10 C 0.1951(4) 0.9997(4) 0.0856(2)
C11 C 0.0998(4) 1.0973(4) 0.0671(2)
C12 C 0.1306(4) 1.2276(4) 0.0899(2)
C13 C 0.0378(4) 1.3267(4) 0.0712(2)
C14 C 0.0790(4) 1.4596(4) 0.0881(2)
H1 H 0.3330(3) 0.1770(4) 0.2074(2)
H2 H 0.3326(3) 0.3926(4) 0.2057(2)
H3 H 0.3947(31) 0.6991(36) 0.2529(16)
H4 H 0.3219(31) 0.5734(34) 0.2391(16)
H5 H 0.4574(35) 0.6922(33) 0.1497(17)
H6 H 0.3744(31) 0.5729(36) 0.1365(17)
H7 H 0.2839(31) 0.8113(34) 0.1680(17)
H8 H 0.2036(33) 0.6922(32) 0.1500(17)
H9 H 0.3479(34) 0.8111(36) 0.0654(17)
H10 H 0.2558(33) 0.7012(37) 0.0485(17)
H11 H 0.0966(34) 0.8391(35) 0.0689(18)
H12 H 0.1661(31) 0.8807(33) 0.0116(18)
H13 H 0.2728(36) 1.0310(37) 0.0743(19)
H14 H 0.2006(34) 0.9905(33) 0.1307(20)
H15 H 0.0869(32) 1.0992(34) 0.0218(19)
H16 H 0.0241(32) 1.0716(37) 0.0831(17)
H17 H 0.2070(37) 1.2524(36) 0.0743(18)
H18 H 0.1425(32) 1.2255(34) 0.1351(19)
H19 H -0.0356(37) 1.3085(37) 0.0914(19)
H20 H 0.0181(33) 1.3220(36) 0.0264(20)
H21 H 0.0158(4) 1.5186(4) 0.0749(2)
H22 H 0.1505(4) 1.4791(4) 0.0675(2)
H23 H 0.0968(4) 1.4656(4) 0.1325(2)
O1A O 0.4053(3) -0.0345(3) 0.2351(2)
C5A C 0.6066(4) 0.6204(4) 0.2705(2)
C6A C 0.6168(4) 0.6512(4) 0.3398(2)
C7A C 0.7221(4) 0.7360(4) 0.3580(2)
C8A C 0.7297(4) 0.7759(4) 0.4256(2)
C9A C 0.8267(4) 0.8714(4) 0.4433(2)
C10A C 0.8049(4) 0.9997(4) 0.4144(2)
C11A C 0.9002(4) 1.0973(4) 0.4329(2)
C12A C 0.8694(4) 1.2276(4) 0.4101(2)
C13A C 0.9622(4) 1.3267(4) 0.4288(2)
C14A C 0.9210(4) 1.4596(4) 0.4119(2)
H21A H 0.9842(4) 1.5186(4) 0.4251(2)
H22A H 0.8495(4) 1.4791(4) 0.4325(2)
H23A H 0.9032(4) 1.4656(4) 0.3675(2)
H19A H 1.0356(37) 1.3085(37) 0.4086(19)
H20A H 0.9819(33) 1.3220(36) 0.4736(20)
H17A H 0.7930(37) 1.2524(36) 0.4257(18)
H18A H 0.8575(32) 1.2255(34) 0.3649(19)
H15A H 0.9131(32) 1.0992(34) 0.4782(19)
H16A H 0.9759(32) 1.0716(37) 0.4169(17)
H13A H 0.7272(36) 1.0310(37) 0.4257(19)
H14A H 0.7994(34) 0.9905(33) 0.3693(20)
H11A H 0.9034(34) 0.8391(35) 0.4311(18)
H12A H 0.8339(31) 0.8807(33) 0.4884(18)
H9A H 0.6521(34) 0.8111(36) 0.4346(17)
H10A H 0.7442(33) 0.7012(37) 0.4515(17)
H7A H 0.7161(31) 0.8113(34) 0.3320(17)
H8A H 0.7964(33) 0.6922(32) 0.3500(17)
H5A H 0.5426(35) 0.6922(33) 0.3503(17)
H6A H 0.6256(31) 0.5729(36) 0.3635(17)
H3A H 0.6053(31) 0.6991(36) 0.2471(16)
H4A H 0.6781(31) 0.5734(34) 0.2609(16)
C3A C 0.5997(3) 0.3500(4) 0.2761(2)
C2A C 0.5995(3) 0.2216(4) 0.2756(2)
H1A H 0.6670(3) 0.1770(4) 0.2926(2)
H2A H 0.6674(3) 0.3926(4) 0.2943(2)
#END
