
#######################################################################
#
#                 Cambridge Crystallographic Data Centre
#                                CCDC
#
#######################################################################
#
# If this CIF has been generated from an entry in the Cambridge
# Structural Database, then it will include bibliographic, chemical,
# crystal, experimental, refinement or atomic coordinate data resulting
# from the CCDC's data processing and validation procedures.
#
#######################################################################

data_CSD_CIF_XIWHOA
_audit_creation_date 2002-07-26
_audit_creation_method CSD-ConQuest-V1
_database_code_CSD XIWHOA
_chemical_formula_sum 'C12 H18 N2 O2'
_chemical_formula_moiety
;
C12 H18 N2 O2
;
_journal_coden_Cambridge 35
_journal_volume 66
_journal_year 2001
_journal_page_first 4050
_journal_name_full 'J.Org.Chem. '
loop_
_publ_author_name
"G.Mansour"
"W.Creedon"
"P.C.Dorrestein"
"J.Maxka"
"J.C.MacDonald"
"R.Helburn"
_chemical_name_systematic
;
N,N-Di-n-propyl-p-nitroaniline
;
_chemical_melting_point 328.15
_cell_volume   1219.205
_exptl_crystal_colour 'yellow'
_exptl_crystal_density_diffrn 1.211
_exptl_special_details
;
Melting point range 328.15-329.15K

;
_exptl_crystal_preparation 'methanol'
_diffrn_ambient_temperature 293
#These two values have been output from a single CSD field.
_refine_ls_R_factor_gt 0.0356
_refine_ls_wR_factor_gt 0.0356
_symmetry_cell_setting monoclinic
_symmetry_space_group_name_H-M 'C c'
_symmetry_Int_Tables_number 9
loop_
_symmetry_equiv_pos_site_id
_symmetry_equiv_pos_as_xyz
1 x,y,z
2 x,-y,1/2+z
3 1/2+x,1/2+y,z
4 1/2+x,1/2-y,1/2+z
_cell_length_a 14.7361(12)
_cell_length_b 9.2073(9)
_cell_length_c 10.1036(7)
_cell_angle_alpha 90
_cell_angle_beta 117.205(5)
_cell_angle_gamma 90
_cell_formula_units_Z 4
loop_
_atom_type_symbol
_atom_type_radius_bond
C 0.68
H 0.23
N 0.68
O 0.68
loop_
_atom_site_label
_atom_site_type_symbol
_atom_site_fract_x
_atom_site_fract_y
_atom_site_fract_z
O1 O -0.0191(2) 0.2310(2) 0.5636(2)
O2 O -0.0598(1) 0.0197(2) 0.4593(2)
N1 N -0.0103(2) 0.0976(2) 0.5678(2)
N2 N 0.2695(1) -0.1626(2) 1.1007(2)
C1 C 0.0610(2) 0.0306(2) 0.7056(2)
C2 C 0.0758(2) -0.1195(2) 0.7111(2)
C3 C 0.1444(2) -0.1835(2) 0.8411(2)
C4 C 0.2008(2) -0.0997(2) 0.9719(2)
C5 C 0.1825(2) 0.0518(2) 0.9616(2)
C6 C 0.1142(2) 0.1153(2) 0.8308(2)
C7 C 0.2991(2) -0.3149(2) 1.1069(2)
C8 C 0.2294(2) -0.4193(2) 1.1345(3)
C9 C 0.2589(2) -0.5766(3) 1.1261(3)
C10 C 0.3179(2) -0.0812(2) 1.2409(2)
C11 C 0.4154(2) -0.0037(2) 1.2668(2)
C12 C 0.4555(2) 0.0862(3) 1.4091(2)
H1 H 0.03920 -0.17590 0.62690
H2 H 0.15420 -0.28340 0.84390
H3 H 0.21750 0.10950 1.04530
H4 H 0.10380 0.21520 0.82620
H5 H 0.36820 -0.32660 1.18570
H6 H 0.29910 -0.34040 1.01370
H7 H 0.15930 -0.40320 1.06070
H8 H 0.23410 -0.40080 1.23190
H9 H 0.21410 -0.64050 1.14360
H10 H 0.32800 -0.59300 1.20020
H11 H 0.25340 -0.59530 1.02920
H12 H 0.33310 -0.14790 1.32270
H13 H 0.26970 -0.01000 1.24200
H14 H 0.40230 0.05930 1.18300
H15 H 0.46640 -0.07440 1.27470
H16 H 0.51740 0.13420 1.42460
H17 H 0.46890 0.02360 1.49200
H18 H 0.40550 0.15740 1.40030
#END
