
#######################################################################
#
#                 Cambridge Crystallographic Data Centre
#                                CCDC
#
#######################################################################
#
# If this CIF has been generated from an entry in the Cambridge
# Structural Database, then it will include bibliographic, chemical,
# crystal, experimental, refinement or atomic coordinate data resulting
# from the CCDC's data processing and validation procedures.
#
#######################################################################

data_CSD_CIF_XIXQOL
_audit_creation_date 2008-06-10
_audit_creation_method CSD-ConQuest-V1
_database_code_CSD XIXQOL
_database_code_depnum_ccdc_archive 'CCDC 654504'
_chemical_formula_sum 'C1 H2 N4 O5'
_chemical_formula_moiety
;
C1 H2 N4 O5
;
_journal_coden_Cambridge 440
_journal_volume 32
_journal_year 2008
_journal_page_first 317
_journal_name_full 'New J.Chem. '
loop_
_publ_author_name
"Chengfeng Ye"
"Haixiang Gao"
"B.Twamley"
"J.M.Shreeve"
_chemical_name_systematic
;
N,N'-Dinitrourea
;
_cell_volume    964.565
_exptl_crystal_colour 'colorless'
_exptl_crystal_density_diffrn 2.067
_exptl_crystal_description 'needle'
_exptl_crystal_preparation 'diethyl ether/hexane'
_diffrn_ambient_temperature 90
#These two values have been output from a single CSD field.
_refine_ls_R_factor_gt 0.0236
_refine_ls_wR_factor_gt 0.0236
_symmetry_cell_setting orthorhombic
_symmetry_space_group_name_H-M 'F d d 2'
_symmetry_Int_Tables_number 43
loop_
_symmetry_equiv_pos_site_id
_symmetry_equiv_pos_as_xyz
1 x,y,z
2 -x,-y,z
3 1/4+x,1/4-y,1/4+z
4 1/4-x,1/4+y,1/4+z
5 x,1/2+y,1/2+z
6 -x,1/2-y,1/2+z
7 1/4+x,3/4-y,3/4+z
8 1/4-x,3/4+y,3/4+z
9 1/2+x,y,1/2+z
10 1/2-x,-y,1/2+z
11 3/4+x,1/4-y,3/4+z
12 3/4-x,1/4+y,3/4+z
13 1/2+x,1/2+y,z
14 1/2-x,1/2-y,z
15 3/4+x,3/4-y,1/4+z
16 3/4-x,3/4+y,1/4+z
_cell_length_a 12.0015(9)
_cell_length_b 17.6425(13)
_cell_length_c 4.5555(4)
_cell_angle_alpha 90
_cell_angle_beta 90
_cell_angle_gamma 90
_cell_formula_units_Z 8
loop_
_atom_type_symbol
_atom_type_radius_bond
C 0.68
H 0.23
N 0.68
O 0.68
loop_
_atom_site_label
_atom_site_type_symbol
_atom_site_fract_x
_atom_site_fract_y
_atom_site_fract_z
C1 C 1.00000 0.00000 0.3458(5)
O1 O 0.83007(9) 0.09249(6) 0.1687(3)
O2 O 0.74402(8) 0.07043(6) 0.5793(3)
O3 O 1.00000 0.00000 0.0808(4)
N1 N 0.82298(9) 0.06486(6) 0.4120(3)
N2 N 0.91170(9) 0.02257(7) 0.5221(3)
H1 H 0.91170 0.00980 0.70880
O1A O 1.16993(9) -0.09249(6) 0.1687(3)
O2A O 1.25598(8) -0.07043(6) 0.5793(3)
N1A N 1.17702(9) -0.06486(6) 0.4120(3)
N2A N 1.08830(9) -0.02257(7) 0.5221(3)
H1A H 1.08830 -0.00980 0.70880
#END
