
#######################################################################
#
#                 Cambridge Crystallographic Data Centre
#                                CCDC
#
#######################################################################
#
# If this CIF has been generated from an entry in the Cambridge
# Structural Database, then it will include bibliographic, chemical,
# crystal, experimental, refinement or atomic coordinate data resulting
# from the CCDC's data processing and validation procedures.
#
#######################################################################

data_CSD_CIF_XIYBEM
_audit_creation_date 2002-07-26
_audit_creation_method CSD-ConQuest-V1
_database_code_CSD XIYBEM
_database_code_depnum_ccdc_archive 'CCDC 187112'
_chemical_formula_sum 'C19 H21 N1 O4'
_chemical_formula_moiety
;
C19 H21 N1 O4
;
_journal_coden_Cambridge 1090
_journal_volume 13
_journal_year 2002
_journal_page_first 203
_journal_name_full 'Tetrahedron:Asymm. '
loop_
_publ_author_name
"T.Bako"
"P.Bako"
"A.Szollosy"
"M.Czugler"
"G.Keglevich"
"L.Toke"
_chemical_name_systematic
;
1-(4-Methoxyphenyl)-4-methyl-4-nitro-3-phenylpentan-1-one
;
_chemical_melting_point 378
_cell_volume   1691.285
_exptl_crystal_colour 'colorless'
_exptl_crystal_density_diffrn 1.286
_exptl_crystal_description 'plate'
_exptl_crystal_preparation 'ethanol'
_diffrn_ambient_temperature ?
_diffrn_special_details
;
The study was carried out at room temperature,in the range 283-303K

;
#These two values have been output from a single CSD field.
_refine_ls_R_factor_gt 0.0396
_refine_ls_wR_factor_gt 0.0396
_symmetry_cell_setting monoclinic
_symmetry_space_group_name_H-M 'P 21'
_symmetry_Int_Tables_number 4
loop_
_symmetry_equiv_pos_site_id
_symmetry_equiv_pos_as_xyz
1 x,y,z
2 -x,1/2+y,-z
_cell_length_a 14.698(1)
_cell_length_b 5.979(1)
_cell_length_c 20.14(2)
_cell_angle_alpha 90
_cell_angle_beta 107.14(1)
_cell_angle_gamma 90
_cell_formula_units_Z 4
loop_
_atom_type_symbol
_atom_type_radius_bond
C 0.68
H 0.23
N 0.68
O 0.68
loop_
_atom_site_label
_atom_site_type_symbol
_atom_site_fract_x
_atom_site_fract_y
_atom_site_fract_z
O1 O -0.34994(10) 0.1567(2) -0.16991(8)
O2 O -0.04185(10) 0.3507(3) -0.19829(8)
O3 O 0.00209(10) 0.6866(4) -0.17038(9)
O4 O -0.6622(1) 0.5595(2) -0.04963(8)
N1 N -0.05889(10) 0.5500(3) -0.19440(7)
C1 C -0.37390(11) 0.3527(3) -0.17120(9)
C2 C -0.32463(10) 0.5259(3) -0.20380(9)
H1 H -0.33940 0.67490 -0.19100
H2 H -0.34720 0.51360 -0.25400
C3 C -0.21626(10) 0.4878(3) -0.17839(7)
H3 H -0.20590 0.32940 -0.18630
C4 C -0.16374(11) 0.6232(3) -0.22197(8)
C5 C -0.17658(10) 0.5265(3) -0.10036(7)
C6 C -0.11317(11) 0.3715(3) -0.06047(8)
H4 H -0.09610 0.24790 -0.08220
C7 C -0.07451(12) 0.3962(3) 0.01090(9)
H5 H -0.03200 0.29060 0.03650
C8 C -0.09981(13) 0.5790(4) 0.04346(9)
H6 H -0.07380 0.59840 0.09110
C9 C -0.16339(15) 0.7317(4) 0.00514(10)
H7 H -0.18110 0.85330 0.02740
C10 C -0.20181(13) 0.7086(3) -0.06595(9)
H8 H -0.24460 0.81470 -0.09100
C11 C -0.45095(10) 0.4207(3) -0.14148(8)
C12 C -0.49710(12) 0.6254(3) -0.15396(9)
H9 H -0.47860 0.73020 -0.18160
C13 C -0.57037(12) 0.6773(3) -0.12604(10)
H10 H -0.60270 0.81240 -0.13680
C14 C -0.59478(11) 0.5264(3) -0.08213(9)
C15 C -0.54884(13) 0.3200(3) -0.06899(10)
H11 H -0.56580 0.21750 -0.04000
C16 C -0.47902(12) 0.2676(3) -0.09852(9)
H12 H -0.44960 0.12840 -0.09000
C17 C -0.16839(17) 0.8742(3) -0.21542(12)
H13 H -0.13520 0.94380 -0.24450
H14 H -0.13920 0.91690 -0.16790
H15 H -0.23370 0.92150 -0.22970
C18 C -0.19498(13) 0.5496(4) -0.29784(9)
H16 H -0.25910 0.59850 -0.31950
H17 H -0.19200 0.38950 -0.30020
H18 H -0.15350 0.61440 -0.32150
C19 C -0.71205(17) 0.7668(4) -0.05941(15)
H19 H -0.66720 0.88770 -0.04810
H20 H -0.75250 0.77260 -0.02970
H21 H -0.75010 0.77990 -0.10700
O5 O -0.61924(11) -0.0854(3) -0.30141(10)
O6 O -0.95651(11) 0.0550(3) -0.30287(9)
O7 O -0.99873(10) 0.3868(4) -0.34044(8)
O8 O -0.33614(10) 0.3121(3) -0.44755(8)
N2 N -0.93991(10) 0.2520(3) -0.30862(7)
C20 C -0.60880(11) 0.1146(3) -0.31082(9)
C21 C -0.67133(11) 0.2829(3) -0.28927(8)
H22 H -0.66160 0.42950 -0.30670
H23 H -0.65340 0.29090 -0.23890
C22 C -0.77732(10) 0.2190(3) -0.31749(7)
H24 H -0.78090 0.05750 -0.31030
C23 C -0.83698(11) 0.3321(3) -0.27448(8)
C24 C -0.81634(10) 0.2580(3) -0.39545(7)
C25 C -0.79914(13) 0.4515(4) -0.42807(9)
H25 H -0.76140 0.56410 -0.40200
C26 C -0.83792(15) 0.4777(4) -0.49921(10)
H26 H -0.82560 0.60780 -0.52040
C27 C -0.89468(14) 0.3131(4) -0.53919(9)
H27 H -0.92060 0.33240 -0.58690
C28 C -0.91238(14) 0.1205(4) -0.50755(9)
H28 H -0.95060 0.00900 -0.53390
C29 C -0.87321(11) 0.0928(3) -0.43640(8)
H29 H -0.88510 -0.03840 -0.41560
C30 C -0.53432(11) 0.1865(3) -0.34254(8)
C31 C -0.46252(13) 0.0355(3) -0.34365(10)
H30 H -0.45900 -0.10070 -0.32070
C32 C -0.39708(13) 0.0836(4) -0.37779(11)
H31 H -0.34900 -0.01840 -0.37700
C33 C -0.40201(12) 0.2842(4) -0.41372(9)
C34 C -0.47157(12) 0.4389(3) -0.41191(9)
H32 H -0.47520 0.57460 -0.43510
C35 C -0.53585(12) 0.3901(3) -0.37517(9)
H33 H -0.58070 0.49680 -0.37250
C36 C -0.81050(13) 0.2427(4) -0.20071(8)
H34 H -0.74940 0.30030 -0.17490
H35 H -0.80800 0.08230 -0.20160
H36 H -0.85740 0.28890 -0.17900
C37 C -0.83468(18) 0.5845(3) -0.27583(13)
H37 H -0.87400 0.64300 -0.24930
H38 H -0.85820 0.63580 -0.32300
H39 H -0.77040 0.63530 -0.25600
C38 C -0.33939(16) 0.5093(5) -0.48729(12)
H40 H -0.40140 0.52430 -0.52020
H41 H -0.29240 0.50050 -0.51170
H42 H -0.32660 0.63680 -0.45700
#END
