
#######################################################################
#
#                 Cambridge Crystallographic Data Centre
#                                CCDC
#
#######################################################################
#
# If this CIF has been generated from an entry in the Cambridge
# Structural Database, then it will include bibliographic, chemical,
# crystal, experimental, refinement or atomic coordinate data resulting
# from the CCDC's data processing and validation procedures.
#
#######################################################################

data_CSD_CIF_XIYWIL
_audit_creation_date 2002-07-26
_audit_creation_method CSD-ConQuest-V1
_database_code_CSD XIYWIL
_database_code_depnum_ccdc_archive 'CCDC 187124'
_chemical_formula_sum 'C80 H64 N4 O20'
_chemical_formula_moiety
;
C80 H64 N4 O20
;
_journal_coden_Cambridge 1336
_journal_volume 4
_journal_year 2002
_journal_page_first 1555
_journal_name_full 'Org.Lett. '
loop_
_publ_author_name
"A.Shivanyuk"
"A.R.Far"
"J.Rebek Junior"
_chemical_name_systematic
;
4,6,16,18-O,O'-tetrabenzoyloxy-12,22:10,24-O,O'-bis(4,6-dinitro-m-phenylenedio
xy)-2,8,14,20-tetrapropylcalix[4]arene unknown solvate
;
_chemical_name_common
;
4,6,16,18-O,O'-tetrabenzoyl-12,22:10,24-O,O'-bis(4,6-dinitro-m-phenylene)-2,8,
14,20-tetrapropylcalix[4]resorcinarene unknown solvate
;
_chemical_melting_point 523.15
_cell_volume   7444.684
_exptl_crystal_colour 'colorless'
_exptl_special_details
;
Melts above 523.15K

;
_exptl_crystal_description 'block'
_exptl_crystal_preparation 'methanol/dichloromethane/acetonitrile'
_diffrn_ambient_temperature 293
_refine_special_details
;
A methyl group. C15C, H15E-G, is disordered over two sites with occupancies 
of 0.34:0.66; the solvent oxygen atoms, OZ1 and OZ2 are disordered over two 
sites with respective occupancies of 0.60:0.40 and 0.50:0.50. The cell 
contains disordered solvent molecules which are unspecified and is 
represented by two oxygen atoms.
;
#These two values have been output from a single CSD field.
_refine_ls_R_factor_gt 0.1066
_refine_ls_wR_factor_gt 0.1066
_symmetry_cell_setting monoclinic
_symmetry_space_group_name_H-M 'P 21/n'
_symmetry_Int_Tables_number 14
loop_
_symmetry_equiv_pos_site_id
_symmetry_equiv_pos_as_xyz
1 x,y,z
2 1/2+x,1/2-y,1/2+z
3 -x,-y,-z
4 -1/2-x,-1/2+y,-1/2-z
_cell_length_a 22.191(9)
_cell_length_b 15.293(7)
_cell_length_c 22.856(11)
_cell_angle_alpha 90
_cell_angle_beta 106.303(8)
_cell_angle_gamma 90
_cell_formula_units_Z 4
loop_
_atom_type_symbol
_atom_type_radius_bond
C 0.68
H 0.23
N 0.68
O 0.68
loop_
_atom_site_label
_atom_site_type_symbol
_atom_site_fract_x
_atom_site_fract_y
_atom_site_fract_z
C1 C 0.6269(4) 0.4142(6) 0.4583(4)
H1 H 0.62670 0.38860 0.49760
C2 C 0.6271(4) 0.5133(6) 0.4672(4)
H2 H 0.63350 0.54110 0.43130
H3 H 0.58600 0.53090 0.47010
C3 C 0.6766(5) 0.5473(7) 0.5232(4)
H4 H 0.66590 0.52850 0.55950
H5 H 0.71690 0.52180 0.52420
C4 C 0.6826(6) 0.6462(8) 0.5242(6)
H6 H 0.70320 0.66430 0.49440
H7 H 0.70680 0.66480 0.56390
H8 H 0.64160 0.67200 0.51480
C5 C 0.6864(4) 0.3794(6) 0.4447(4)
C6 C 0.7022(5) 0.2917(7) 0.4562(4)
C7 C 0.7561(5) 0.2583(6) 0.4456(4)
H9 H 0.76570 0.19930 0.45250
C8 C 0.7954(5) 0.3116(7) 0.4250(4)
C9 C 0.7828(5) 0.4010(7) 0.4134(4)
C10 C 0.7269(5) 0.4311(6) 0.4243(4)
H10 H 0.71680 0.48990 0.41720
C11 C 0.8279(4) 0.4603(6) 0.3912(4)
H11 H 0.87040 0.44170 0.41340
C12 C 0.8242(5) 0.5578(6) 0.4041(5)
H12 H 0.84810 0.58910 0.38120
H13 H 0.78080 0.57600 0.38850
C13 C 0.8466(7) 0.5854(9) 0.4673(6)
H14 H 0.88610 0.55660 0.48670
H15 H 0.81640 0.56850 0.48880
C14 C 0.8560(9) 0.6877(10) 0.4710(8)
H16 H 0.87970 0.70540 0.44380
H17 H 0.87820 0.70390 0.51200
H18 H 0.81570 0.71590 0.45960
C15 C 0.8219(5) 0.4455(6) 0.3244(4)
C16 C 0.8742(5) 0.4507(6) 0.3019(5)
C17 C 0.8696(5) 0.4373(7) 0.2408(5)
H19 H 0.90520 0.43970 0.22690
C18 C 0.8125(5) 0.4206(7) 0.2018(4)
C19 C 0.7591(5) 0.4121(6) 0.2185(4)
C20 C 0.7649(4) 0.4271(6) 0.2805(5)
H20 H 0.72860 0.42470 0.29330
C21 C 0.6972(4) 0.3830(6) 0.1745(4)
H21 H 0.70810 0.35130 0.14160
C22 C 0.6577(5) 0.4638(7) 0.1443(4)
H22 H 0.63940 0.49090 0.17370
H23 H 0.68540 0.50630 0.13380
C23 C 0.6046(8) 0.4411(12) 0.0864(6)
H24? H 0.62380 0.41120 0.05880
H25 H 0.57750 0.39900 0.09820
C24? C 0.569(3) 0.501(3) 0.056(2)
H26? H 0.59370 0.54030 0.03900
H27? H 0.54970 0.53280 0.08170
H28? H 0.53710 0.47480 0.02300
C25 C 0.6243(18) 0.436(3) 0.0332(13)
H29 H 0.59560 0.46830 0.00110
H30 H 0.62530 0.37630 0.02120
H31 H 0.66560 0.46110 0.04090
C26 C 0.6632(5) 0.3191(7) 0.2035(4)
C27 C 0.6847(5) 0.2367(7) 0.2217(4)
C28 C 0.6523(5) 0.1756(6) 0.2457(4)
H32 H 0.66830 0.11970 0.25580
C29 C 0.5964(5) 0.1997(7) 0.2539(4)
C30 C 0.5699(5) 0.2825(7) 0.2379(4)
C31 C 0.6055(5) 0.3401(6) 0.2137(4)
H33 H 0.58990 0.39620 0.20370
C32 C 0.5065(5) 0.3093(7) 0.2445(4)
H34 H 0.48110 0.25590 0.23660
C33 C 0.4696(5) 0.3758(7) 0.1981(4)
H35 H 0.49490 0.42790 0.19950
H36 H 0.43180 0.39240 0.20870
C34 C 0.4514(6) 0.3379(10) 0.1325(5)
H37 H 0.48920 0.33090 0.11950
H38 H 0.43320 0.28030 0.13300
C35 C 0.4060(7) 0.3937(13) 0.0874(6)
H39 H 0.36600 0.39230 0.09570
H40 H 0.40160 0.37190 0.04700
H41 H 0.42120 0.45270 0.09040
C36 C 0.5087(5) 0.3352(6) 0.3093(4)
C37 C 0.4578(5) 0.3229(7) 0.3304(5)
C38 C 0.4583(5) 0.3389(7) 0.3914(5)
H42 H 0.42230 0.33220 0.40430
C39 C 0.5151(5) 0.3652(6) 0.4315(4)
C40 C 0.5663(5) 0.3833(6) 0.4125(4)
C41 C 0.5628(4) 0.3683(6) 0.3521(4)
H43 H 0.59790 0.38060 0.33900
C42 C 0.6214(5) 0.1830(6) 0.4402(4)
C43 C 0.5830(5) 0.1290(7) 0.4622(4)
C44 C 0.5398(5) 0.0770(7) 0.4224(5)
H44 H 0.51490 0.03890 0.43730
C45 C 0.5331(4) 0.0810(7) 0.3611(4)
C46 C 0.5717(4) 0.1327(6) 0.3385(5)
C47 C 0.6166(5) 0.1836(6) 0.3790(4)
H45 H 0.64360 0.21840 0.36440
C48 C 0.8497(5) 0.2388(6) 0.3637(4)
C49 C 0.9039(5) 0.2038(7) 0.3548(5)
C50 C 0.9026(5) 0.1681(7) 0.2997(6)
H46 H 0.93870 0.14160 0.29510
C51 C 0.8506(6) 0.1700(7) 0.2518(5)
C52 C 0.7949(5) 0.2058(6) 0.2599(4)
C53 C 0.7949(4) 0.2365(6) 0.3170(4)
H47 H 0.75760 0.25570 0.32370
C54 C 0.9858(6) 0.4356(8) 0.3444(5)
C55 C 1.0412(5) 0.4902(8) 0.3753(5)
C56 C 1.0352(5) 0.5623(8) 0.4100(5)
H48 H 0.99670 0.57660 0.41610
C57 C 1.0892(8) 0.6136(10) 0.4360(6)
H49 H 1.08720 0.66050 0.46120
C58 C 1.1441(9) 0.5935(13) 0.4237(7)
H50 H 1.17880 0.62920 0.43940
C59 C 1.1501(6) 0.5258(15) 0.3904(7)
H51 H 1.18850 0.51460 0.38320
C60 C 1.0976(7) 0.4689(10) 0.3650(5)
H52 H 1.10160 0.41970 0.34250
C61 C 0.7995(5) 0.4763(9) 0.1020(5)
C62 C 0.8078(5) 0.4578(8) 0.0421(5)
C63 C 0.7782(6) 0.5108(8) -0.0057(6)
H53 H 0.75170 0.55530 -0.00030
C64 C 0.7884(7) 0.4973(11) -0.0620(6)
H54 H 0.76790 0.53270 -0.09460
C65 C 0.8267(9) 0.4351(11) -0.0707(7)
H55 H 0.83290 0.42800 -0.10900
C66 C 0.8567(7) 0.3824(10) -0.0247(7)
H56 H 0.88430 0.33990 -0.03090
C67 C 0.8461(6) 0.3919(8) 0.0323(6)
H57 H 0.86490 0.35360 0.06380
C68 C 0.3697(7) 0.2234(10) 0.2929(6)
C69 C 0.3140(6) 0.2121(9) 0.2385(5)
C70 C 0.3027(6) 0.2577(10) 0.1879(6)
H58 H 0.32900 0.30390 0.18520
C71 C 0.2517(8) 0.2379(12) 0.1383(6)
H59 H 0.24390 0.27050 0.10260
C72 C 0.2128(7) 0.1691(14) 0.1427(9)
H60 H 0.17750 0.15700 0.11060
C73 C 0.2258(8) 0.1214(12) 0.1919(8)
H61 H 0.20010 0.07430 0.19470
C74 C 0.2763(8) 0.1403(12) 0.2386(6)
H62 H 0.28620 0.10350 0.27240
C75 C 0.5018(6) 0.3114(9) 0.5257(6)
C76 C 0.5154(5) 0.3339(9) 0.5917(5)
C77 C 0.5022(6) 0.2713(9) 0.6287(6)
H63 H 0.48690 0.21720 0.61260
C78 C 0.5116(7) 0.2879(12) 0.6913(7)
H64 H 0.50110 0.24670 0.71680
C79 C 0.5369(7) 0.3681(13) 0.7131(6)
H65 H 0.54470 0.37970 0.75450
C80 C 0.5504(6) 0.4282(9) 0.6784(6)
H66 H 0.56690 0.48150 0.69490
C81 C 0.5398(5) 0.4121(9) 0.6159(6)
H67 H 0.54950 0.45480 0.59100
N1 N 0.8516(5) 0.1313(9) 0.1933(5)
N2 N 0.9653(5) 0.2069(8) 0.4027(5)
N3 N 0.5852(5) 0.1246(7) 0.5269(4)
N4 N 0.4863(7) 0.0275(9) 0.3211(5)
O1 O 0.6646(3) 0.2364(4) 0.4798(3)
O2 O 0.8518(3) 0.2779(4) 0.4187(3)
O3 O 0.9309(4) 0.4767(5) 0.3444(3)
O4 O 0.8129(3) 0.4051(4) 0.1407(3)
O5 O 0.7420(3) 0.2092(4) 0.2107(3)
O6 O 0.5615(3) 0.1377(4) 0.2765(3)
O7 O 0.4019(3) 0.2960(5) 0.2873(3)
O8 O 0.5172(3) 0.3801(5) 0.4930(3)
O9 O 0.9874(3) 0.3672(6) 0.3198(4)
O10 O 0.7834(4) 0.5457(5) 0.1180(3)
O11 O 0.3842(5) 0.1830(8) 0.3390(4)
O12 O 0.4842(4) 0.2433(6) 0.5024(4)
O13 O 0.9721(4) 0.2531(9) 0.4456(5)
O14 O 1.0085(5) 0.1640(8) 0.3931(4)
O15 O 0.8778(5) 0.0620(7) 0.1964(4)
O16 O 0.8253(4) 0.1704(7) 0.1471(4)
O17 O 0.6169(4) 0.1771(6) 0.5622(3)
O18 O 0.5540(4) 0.0677(6) 0.5423(3)
O19 O 0.4852(7) -0.048(1) 0.3314(6)
O20 O 0.4607(6) 0.046(1) 0.2739(6)
O21? O 0.6601(8) 0.4327(12) 0.8309(8)
O22? O 1.2293(12) 0.3795(18) 0.2859(12)
O23? O 1.1681(11) 0.3692(16) 0.2239(11)
O24? O 0.6633(12) 0.3321(18) 0.8731(12)
#END
