
#######################################################################
#
#                 Cambridge Crystallographic Data Centre
#                                CCDC
#
#######################################################################
#
# If this CIF has been generated from an entry in the Cambridge
# Structural Database, then it will include bibliographic, chemical,
# crystal, experimental, refinement or atomic coordinate data resulting
# from the CCDC's data processing and validation procedures.
#
#######################################################################

data_CSD_CIF_XIYZOV
_audit_creation_date 2008-06-10
_audit_creation_method CSD-ConQuest-V1
_database_code_CSD XIYZOV
_database_code_depnum_ccdc_archive 'CCDC 688965'
_chemical_formula_sum 'C16 H20 N4 O1'
_chemical_formula_moiety
;
C16 H20 N4 O1
;
_journal_coeditor_code "IUCr SJ2473"
_journal_coden_Cambridge 1370
_journal_volume 64
_journal_year 2008
_journal_page_first o874
_journal_name_full 'Acta Crystallogr.,Sect.E:Struct.Rep.Online '
loop_
_publ_author_name
"G.J.Gainsford"
"M.D.H.Bhuiyan"
"A.J.Kay"
_chemical_name_systematic
;
bis(4-(Dimethylamino)phenyl)diazene oxide
;
_chemical_melting_point 523.15
_cell_volume   4327.037
_exptl_crystal_colour 'orange'
_exptl_crystal_density_diffrn 1.31
_exptl_special_details
;
Melting point range 523.15-525.15K
The structure has been modelled as a commensurate modulation of the P21/c 
group with 1/3 the b axis
;
_exptl_crystal_description 'needle'
_diffrn_ambient_temperature 99
_refine_special_details
;
Two of the six independent molecules in the structure are disordered over two 
sites with occupancies 0.724:0.276 and 0.674:0.326. The authors state a 
further two molecules may exhibit some disorder in the central diazene oxide 
group, but this has not been modelled.
;
#These two values have been output from a single CSD field.
_refine_ls_R_factor_gt 0.1089
_refine_ls_wR_factor_gt 0.1089
_symmetry_cell_setting monoclinic
_symmetry_space_group_name_H-M 'P 21'
_symmetry_Int_Tables_number 4
loop_
_symmetry_equiv_pos_site_id
_symmetry_equiv_pos_as_xyz
1 x,y,z
2 -x,1/2+y,-z
_cell_length_a 12.0080(6)
_cell_length_b 22.0379(11)
_cell_length_c 17.3408(8)
_cell_angle_alpha 90
_cell_angle_beta 109.450(3)
_cell_angle_gamma 90
_cell_formula_units_Z 12
loop_
_atom_type_symbol
_atom_type_radius_bond
C 0.68
H 0.23
N 0.68
O 0.68
loop_
_atom_site_label
_atom_site_type_symbol
_atom_site_fract_x
_atom_site_fract_y
_atom_site_fract_z
O1 O 0.2603(4) 0.1917(2) 0.2315(3)
N1 N 0.4478(5) 0.1429(3) 0.6120(4)
N2 N 0.2049(5) 0.1611(3) 0.2714(4)
N3 N 0.1027(5) 0.1379(2) 0.2445(3)
N4 N -0.2037(5) 0.1412(3) -0.0806(3)
C1 C 0.4004(7) 0.1082(4) 0.6655(5)
H1 H 0.32480 0.12570 0.66410
H2 H 0.45620 0.10960 0.72160
H3 H 0.38860 0.06600 0.64690
C2 C 0.5543(6) 0.1753(4) 0.6473(5)
H4 H 0.62040 0.15160 0.64200
H5 H 0.56660 0.18260 0.70540
H6 H 0.54970 0.21420 0.61910
C3 C 0.3877(5) 0.1446(3) 0.5288(4)
C4 C 0.4370(6) 0.1769(3) 0.4765(4)
H7 H 0.51160 0.19640 0.49850
C5 C 0.3754(6) 0.1797(3) 0.3941(4)
H8 H 0.40980 0.20060 0.35960
C6 C 0.2679(6) 0.1539(3) 0.3598(4)
C7 C 0.2170(6) 0.1222(3) 0.4099(4)
H9 H 0.14150 0.10400 0.38660
C8 C 0.2767(6) 0.1174(3) 0.4934(4)
H10 H 0.24210 0.09540 0.52680
C9 C 0.0346(6) 0.1450(3) 0.1614(4)
C10 C 0.0650(6) 0.1720(3) 0.0964(4)
H11 H 0.14120 0.18920 0.10730
C11 C -0.0159(6) 0.1735(3) 0.0168(4)
H12 H 0.00310 0.19460 -0.02500
C12 C -0.1269(5) 0.1432(3) -0.0017(3)
C13 C -0.1568(6) 0.1185(3) 0.0639(4)
H13 H -0.23390 0.10250 0.05390
C14 C -0.0770(6) 0.1169(3) 0.1416(4)
H14 H -0.09730 0.09640 0.18320
C15 C -0.3180(6) 0.1151(3) -0.1004(4)
H15 H -0.31360 0.07830 -0.06780
H16 H -0.34770 0.10480 -0.15870
H17 H -0.37160 0.14430 -0.08840
C16 C -0.1732(7) 0.1686(4) -0.1472(4)
H18 H -0.19490 0.21160 -0.15160
H19 H -0.21600 0.14790 -0.19850
H20 H -0.08800 0.16470 -0.13630
O2 O 0.7507(4) 0.3591(3) 0.7787(3)
N5 N 0.5621(5) 0.3088(3) 0.3987(4)
N6 N 0.8010(5) 0.3283(3) 0.7351(4)
N7 N 0.9052(5) 0.3045(3) 0.7629(4)
N8 N 1.2173(5) 0.3106(3) 1.0890(4)
C17 C 0.6101(7) 0.2753(4) 0.3452(5)
H21 H 0.55560 0.27790 0.28890
H22 H 0.62060 0.23270 0.36230
H23 H 0.68660 0.29260 0.34820
C18 C 0.4564(7) 0.3421(4) 0.3643(6)
H24 H 0.39420 0.32450 0.38220
H25 H 0.43240 0.34040 0.30450
H26 H 0.46950 0.38440 0.38230
C19 C 0.6200(6) 0.3111(3) 0.4801(5)
C20 C 0.5710(7) 0.3433(3) 0.5320(5)
H27 H 0.49660 0.36280 0.50950
C21 C 0.6305(6) 0.3464(4) 0.6145(4)
H28 H 0.59470 0.36620 0.64890
C22 C 0.7402(7) 0.3217(3) 0.6480(4)
C23 C 0.7936(7) 0.2906(3) 0.5994(5)
H29 H 0.86920 0.27260 0.62340
C24 C 0.7353(6) 0.2863(3) 0.5159(5)
H30 H 0.77260 0.26670 0.48230
C25 C 0.9751(6) 0.3115(3) 0.8476(4)
C26 C 0.9447(6) 0.3369(3) 0.9122(5)
H31 H 0.86740 0.35260 0.90160
C27 C 1.0259(6) 0.3395(3) 0.9919(5)
H32 H 1.00660 0.36090 1.03330
C28 C 1.1371(6) 0.3100(3) 1.0105(4)
C29 C 1.0861(7) 0.2834(3) 0.8665(5)
H33 H 1.10600 0.26290 0.82460
C30 C 1.1669(6) 0.2850(3) 0.9447(4)
H34 H 1.24390 0.26900 0.95460
C31 C 1.3306(7) 0.2831(4) 1.1090(5)
H35 H 1.32290 0.24340 1.08220
H36 H 1.36440 0.27790 1.16840
H37 H 1.38250 0.30910 1.09010
C32 C 1.1852(8) 0.3344(4) 1.1571(5)
H38 H 1.20020 0.37820 1.16190
H39 H 1.23270 0.31430 1.20780
H40 H 1.10130 0.32680 1.14740
O3 O 0.2305(5) 0.2080(3) 0.7569(4)
N9 N 0.0438(7) 0.2581(4) 0.3779(6)
N10 N 0.2833(6) 0.2369(3) 0.7173(4)
N11 N 0.3846(8) 0.2583(3) 0.7408(6)
N12 N 0.6924(5) 0.2553(3) 1.0709(4)
C33 C 0.0907(9) 0.2913(5) 0.3239(6)
H41 H 0.09540 0.33450 0.33800
H42 H 0.03880 0.28590 0.26720
H43 H 0.16980 0.27610 0.32970
C34 C -0.0663(8) 0.2233(5) 0.3395(7)
H44 H -0.12690 0.23670 0.36210
H45 H -0.05080 0.17990 0.35060
H46 H -0.09420 0.23010 0.28030
C35 C 0.1018(7) 0.2551(4) 0.4614(5)
C36 C 0.0536(7) 0.2251(4) 0.5129(6)
H47 H -0.02230 0.20720 0.49010
C37 C 0.1127(7) 0.2199(4) 0.5985(6)
H48 H 0.07810 0.19950 0.63320
C38 C 0.2245(8) 0.2465(4) 0.6288(6)
C39 C 0.2731(8) 0.2789(4) 0.5789(6)
H49 H 0.34810 0.29770 0.60170
C40 C 0.2120(7) 0.2837(4) 0.4962(6)
H50 H 0.24470 0.30650 0.46250
C41 C 0.4524(8) 0.2500(4) 0.8300(6)
C42 C 0.4268(7) 0.2212(3) 0.8940(6)
H51 H 0.35420 0.20010 0.88330
C43 C 0.5055(7) 0.2233(3) 0.9720(5)
H52 H 0.48400 0.20530 1.01480
C44 C 0.6153(7) 0.2506(3) 0.9911(6)
C45 C 0.6446(7) 0.2772(3) 0.9275(6)
H53 H 0.71910 0.29630 0.93820
C46 C 0.5644(8) 0.2757(4) 0.8484(6)
H54 H 0.58660 0.29270 0.80540
C47 C 0.8103(7) 0.2825(4) 1.0885(6)
H55 H 0.84830 0.26530 1.05140
H56 H 0.85850 0.27370 1.14520
H57 H 0.80240 0.32650 1.08060
C48 C 0.6622(8) 0.2286(5) 1.1377(6)
H58 H 0.59730 0.25150 1.14610
H59 H 0.73120 0.22980 1.18770
H60 H 0.63780 0.18640 1.12440
O4 O 0.7975(5) 0.3742(3) 0.2746(4)
N13 N 0.9841(6) 0.4259(4) 0.6541(4)
N14 N 0.7443(7) 0.4037(3) 0.3130(5)
N15 N 0.6439(7) 0.4265(3) 0.2899(5)
N16 N 0.3356(6) 0.4182(3) -0.0370(5)
C49 C 0.9366(7) 0.4595(4) 0.7077(5)
H61 H 0.93900 0.50300 0.69680
H62 H 0.98390 0.45120 0.76480
H63 H 0.85470 0.44700 0.69800
C50 C 1.0936(7) 0.3916(4) 0.6925(6)
H64 H 1.11460 0.39350 0.75210
H65 H 1.15740 0.40930 0.67630
H66 H 1.08180 0.34920 0.67460
C51 C 0.9267(6) 0.4240(3) 0.5705(5)
C52 C 0.9742(7) 0.3915(4) 0.5200(6)
H67 H 1.04740 0.37120 0.54360
C53 C 0.9170(8) 0.3880(4) 0.4349(6)
H68 H 0.95350 0.36910 0.40020
C54 C 0.8027(7) 0.4138(4) 0.4032(5)
C55 C 0.7565(7) 0.4461(4) 0.4530(6)
H69 H 0.68260 0.46590 0.42970
C56 C 0.8136(6) 0.4505(3) 0.5349(5)
H70 H 0.77760 0.47140 0.56830
C57 C 0.5769(8) 0.4172(4) 0.2026(6)
C58 C 0.6031(6) 0.3912(4) 0.1390(6)
H71 H 0.67950 0.37430 0.14950
C59 C 0.5249(7) 0.3885(3) 0.0613(6)
H72 H 0.54460 0.36670 0.02040
C60 C 0.4141(6) 0.4183(3) 0.0416(5)
C61 C 0.3850(7) 0.4432(3) 0.1062(5)
H73 H 0.30800 0.45920 0.09610
C62 C 0.4664(7) 0.4451(4) 0.1855(5)
H74 H 0.44690 0.46530 0.22770
C63 C 0.2199(7) 0.4465(4) -0.0554(5)
H75 H 0.16460 0.42800 -0.10470
H76 H 0.22640 0.49000 -0.06440
H77 H 0.19100 0.44040 -0.00930
C64 C 0.3707(8) 0.3947(4) -0.1030(5)
H78 H 0.42550 0.42320 -0.11500
H79 H 0.30080 0.38960 -0.15180
H80 H 0.40980 0.35540 -0.08720
O5 O 0.3067(6) 0.5245(4) 0.2846(4)
N17 N 0.4915(6) 0.4732(4) 0.6635(5)
N18 N 0.2534(6) 0.4933(3) 0.3272(5)
N19 N 0.1494(6) 0.4704(4) 0.2959(5)
N20 N -0.1486(6) 0.4743(3) -0.0247(4)
C65 C 0.4444(9) 0.4402(5) 0.7159(6)
H81 H 0.38090 0.46370 0.72530
H82 H 0.50680 0.43260 0.76820
H83 H 0.41280 0.40130 0.69030
C66 C 0.5992(8) 0.5067(6) 0.6998(6)
H84 H 0.58300 0.55030 0.69180
H85 H 0.65710 0.49490 0.67380
H86 H 0.63100 0.49780 0.75840
C67 C 0.4320(7) 0.4775(4) 0.5818(5)
C68 C 0.4811(8) 0.5084(4) 0.5292(6)
H87 H 0.55770 0.52550 0.55140
C69 C 0.4221(8) 0.5141(4) 0.4483(6)
H88 H 0.45520 0.53780 0.41550
C70 C 0.3148(8) 0.4861(4) 0.4128(5)
C71 C 0.2605(8) 0.4549(4) 0.4613(6)
H89 H 0.18410 0.43780 0.43750
C72 C 0.3211(7) 0.4493(4) 0.5454(5)
H90 H 0.28720 0.42620 0.57830
C73 C 0.0828(7) 0.4753(4) 0.2134(5)
C74 C 0.1170(8) 0.5044(4) 0.1516(5)
H91 H 0.19070 0.52480 0.16430
C75 C 0.0366(8) 0.5019(4) 0.0698(5)
H92 H 0.06040 0.51800 0.02690
C76 C -0.0766(7) 0.4765(4) 0.0504(5)
C77 C -0.1071(8) 0.4492(4) 0.1152(5)
H93 H -0.18170 0.43010 0.10390
C78 C -0.0298(8) 0.4505(4) 0.1936(5)
H94 H -0.05380 0.43380 0.23610
C79 C -0.2662(8) 0.4479(4) -0.0488(6)
H95 H -0.26550 0.41250 -0.01440
H96 H -0.29010 0.43530 -0.10620
H97 H -0.32220 0.47810 -0.04200
C80 C -0.1176(8) 0.5007(5) -0.0933(6)
H98 H -0.12630 0.54490 -0.09320
H99 H -0.17030 0.48420 -0.14510
H100 H -0.03570 0.49040 -0.08710
O6 O 0.7398(8) 0.0396(4) 0.2128(7)
N21 N 0.9297(8) 0.0927(4) 0.5843(5)
N22 N 0.6883(7) 0.0680(4) 0.2551(5)
N23 N 0.5853(10) 0.0893(5) 0.2278(8)
N24 N 0.2734(8) 0.0849(5) -0.0971(6)
C81 C 0.8824(10) 0.1239(6) 0.6478(8)
H101 H 0.83190 0.15830 0.62200
H102 H 0.94900 0.13850 0.69410
H103 H 0.83640 0.09460 0.66740
C82 C 1.0398(11) 0.0546(7) 0.6284(10)
H104 H 1.02360 0.02850 0.66910
H105 H 1.10600 0.08160 0.65560
H106 H 1.06010 0.02940 0.58840
C83 C 0.8699(9) 0.0878(5) 0.5080(6)
C84 C 0.9224(10) 0.0607(5) 0.4530(8)
H107 H 1.00190 0.04710 0.47370
C85 C 0.8603(9) 0.0541(5) 0.3712(7)
H108 H 0.89480 0.03330 0.33670
C86 C 0.7487(11) 0.0775(6) 0.3393(8)
C87 C 0.6967(11) 0.1085(5) 0.3937(9)
H109 H 0.61860 0.12400 0.37250
C88 C 0.7587(10) 0.1151(5) 0.4735(8)
H110 H 0.72690 0.13860 0.50710
C89 C 0.5198(8) 0.0830(5) 0.1439(7)
C90 C 0.5435(9) 0.0536(4) 0.0783(7)
H111 H 0.61430 0.03100 0.08850
C91 C 0.4656(9) 0.0575(4) 0.0008(7)
H112 H 0.49040 0.04210 -0.04200
C92 C 0.3493(8) 0.0829(4) -0.0215(6)
C93 C 0.3270(9) 0.1098(5) 0.0460(6)
H113 H 0.25390 0.13010 0.03660
C94 C 0.4052(10) 0.1081(5) 0.1241(7)
H114 H 0.38160 0.12450 0.16690
C95 C 0.1567(8) 0.1132(5) -0.1147(7)
H115 H 0.12190 0.10010 -0.07370
H116 H 0.10530 0.10080 -0.16920
H117 H 0.16530 0.15740 -0.11280
C96 C 0.3071(12) 0.0613(6) -0.1642(9)
H118 H 0.37040 0.08640 -0.17130
H119 H 0.23870 0.06210 -0.21450
H120 H 0.33510 0.01950 -0.15210
O7? O 0.7848(15) 0.0407(8) 0.2568(11)
N25? N 0.9709(17) 0.0889(9) 0.6398(12)
N26? N 0.7342(18) 0.0704(9) 0.3016(14)
N27? N 0.6248(18) 0.0929(10) 0.2716(13)
N28? N 0.3176(19) 0.0895(10) -0.0585(15)
C97? C 0.928(2) 0.1216(11) 0.6991(15)
C98? C 1.085(2) 0.0566(11) 0.6823(15)
C99? C 0.9297(8) 0.0927(4) 0.5843(5)
C100? C 0.955(2) 0.0575(11) 0.4994(15)
C101? C 0.897(2) 0.0515(11) 0.4145(18)
C102? C 0.784(2) 0.0811(11) 0.3878(15)
C103? C 0.744(2) 0.1132(12) 0.439(2)
C104? C 0.803(2) 0.1176(11) 0.5202(15)
C105? C 0.566(2) 0.0846(12) 0.1887(19)
C106? C 0.579(2) 0.0576(12) 0.1158(17)
C107? C 0.517(2) 0.0525(12) 0.0420(19)
C108? C 0.399(2) 0.0862(11) 0.0239(14)
C109? C 0.369(2) 0.1109(11) 0.0872(18)
C110? C 0.451(2) 0.1110(11) 0.1669(15)
C111? C 0.205(2) 0.1199(11) -0.0706(15)
C112? C 0.355(2) 0.0676(12) -0.1252(16)
O8? O 0.2568(15) 0.5270(8) 0.2269(11)
N29? N 0.450(2) 0.4766(11) 0.6105(17)
N30? N 0.1979(18) 0.4941(10) 0.2666(13)
N31? N 0.102(2) 0.4712(11) 0.2388(16)
N32? N -0.2127(18) 0.4776(10) -0.0865(12)
C113? C 0.396(2) 0.4413(12) 0.6636(16)
C114? C 0.548(2) 0.5087(11) 0.6387(15)
C115? C 0.378(2) 0.4779(12) 0.5188(15)
C116? C 0.443(3) 0.5115(13) 0.478(2)
C117? C 0.368(2) 0.5129(11) 0.3862(15)
C118? C 0.270(2) 0.4881(12) 0.3595(19)
C119? C 0.214(2) 0.4570(12) 0.4066(15)
C120? C 0.275(2) 0.4508(13) 0.492(2)
C121? C 0.028(2) 0.4783(12) 0.1540(15)
C122? C 0.065(3) 0.5061(13) 0.0922(19)
C123? C -0.025(2) 0.5085(11) 0.0060(15)
C124? C -0.167(2) 0.4549(11) 0.0545(15)
C125? C -0.075(3) 0.4494(13) 0.139(2)
C126? C -0.326(2) 0.4524(11) -0.1049(15)
C127? C -0.184(2) 0.5034(11) -0.1507(15)
#END
