
#######################################################################
#
#                 Cambridge Crystallographic Data Centre
#                                CCDC
#
#######################################################################
#
# If this CIF has been generated from an entry in the Cambridge
# Structural Database, then it will include bibliographic, chemical,
# crystal, experimental, refinement or atomic coordinate data resulting
# from the CCDC's data processing and validation procedures.
#
#######################################################################

data_CSD_CIF_XIZCUF
_audit_creation_date 2008-06-10
_audit_creation_method CSD-ConQuest-V1
_database_code_CSD XIZCUF
_database_code_depnum_ccdc_archive 'CCDC 688976'
_chemical_formula_sum 'C26 H33 N3 O4'
_chemical_formula_moiety
;
C26 H33 N3 O4
;
_journal_coeditor_code "IUCr IS2284"
_journal_coden_Cambridge 1370
_journal_volume 64
_journal_year 2008
_journal_page_first o889
_journal_name_full 'Acta Crystallogr.,Sect.E:Struct.Rep.Online '
loop_
_publ_author_name
"Fei Qiu"
"Min Hong"
"Dawei Jiang"
"Jin Zhu"
"Lequn Lee Huang"
_chemical_name_systematic
;
N-(2,4-Dinitrophenyl)dehydroabietylamine
;
_chemical_melting_point 408
_cell_volume   2401.504
_exptl_crystal_colour 'light yellow'
_exptl_crystal_density_diffrn 1.249
_exptl_special_details
;
Melting point range 408-409K

;
_exptl_crystal_description 'block'
_exptl_crystal_preparation 'methanol'
_diffrn_ambient_temperature 291
#These two values have been output from a single CSD field.
_refine_ls_R_factor_gt 0.0619
_refine_ls_wR_factor_gt 0.0619
_symmetry_cell_setting monoclinic
_symmetry_space_group_name_H-M 'P 21'
_symmetry_Int_Tables_number 4
loop_
_symmetry_equiv_pos_site_id
_symmetry_equiv_pos_as_xyz
1 x,y,z
2 -x,1/2+y,-z
_cell_length_a 14.119(7)
_cell_length_b 23.574(12)
_cell_length_c 7.309(4)
_cell_angle_alpha 90
_cell_angle_beta 99.191(9)
_cell_angle_gamma 90
_cell_formula_units_Z 4
loop_
_atom_type_symbol
_atom_type_radius_bond
C 0.68
H 0.23
N 0.68
O 0.68
loop_
_atom_site_label
_atom_site_type_symbol
_atom_site_fract_x
_atom_site_fract_y
_atom_site_fract_z
C1 C 0.6051(3) 1.03496(15) 0.3284(6)
C2 C 0.6497(3) 1.01296(18) 0.1815(5)
H1 H 0.65740 0.97380 0.17630
C3 C 0.6826(3) 1.0453(2) 0.0451(6)
H2 H 0.71010 1.02920 -0.05010
C4 C 0.6711(3) 1.1052(2) 0.0627(7)
C5 C 0.6347(3) 1.12950(17) 0.2041(6)
H3 H 0.63080 1.16880 0.21310
C6 C 0.6036(3) 1.09476(15) 0.3349(5)
C7 C 0.5823(3) 0.93895(15) 0.4645(6)
H4 H 0.64550 0.92860 0.52850
H5 H 0.57370 0.92150 0.34280
C8 C 0.5050(2) 0.91540(12) 0.5747(5)
C9 C 0.5037(3) 0.94785(13) 0.7600(5)
H6 H 0.56940 0.95270 0.82110
H7 H 0.47730 0.98540 0.73090
C10 C 0.4483(3) 0.92050(15) 0.8925(6)
H8 H 0.38170 0.91660 0.83590
H9 H 0.45090 0.94390 1.00240
C11 C 0.4910(3) 0.86223(14) 0.9458(5)
H10 H 0.45540 0.84450 1.03360
H11 H 0.55700 0.86660 1.00570
C12 C 0.4876(3) 0.82217(15) 0.7685(5)
C13 C 0.5412(3) 0.76731(14) 0.8357(5)
C14 C 0.5280(2) 0.74107(13) 0.9926(5)
H12 H 0.48510 0.75700 1.06230
C15 C 0.5761(3) 0.69012(16) 1.0579(5)
H13 H 0.56500 0.67370 1.16830
C16 C 0.6404(3) 0.66476(14) 0.9544(5)
C17 C 0.6516(3) 0.69130(14) 0.7860(5)
H14 H 0.69230 0.67520 0.71220
C18 C 0.6025(2) 0.74134(14) 0.7281(5)
C19 C 0.6249(3) 0.76646(14) 0.5425(5)
H15 H 0.68920 0.78220 0.56200
H16 H 0.62240 0.73650 0.45100
C20 C 0.5532(3) 0.81258(14) 0.4705(5)
H17 H 0.49140 0.79580 0.42360
H18 H 0.57520 0.83310 0.37010
C21 C 0.5437(3) 0.85369(13) 0.6321(5)
H19 H 0.60890 0.85900 0.69940
C22 C 0.4086(3) 0.91669(18) 0.4435(6)
H20 H 0.35730 0.92000 0.51470
H21 H 0.40100 0.88230 0.37230
H22 H 0.40720 0.94860 0.36150
C23 C 0.3848(3) 0.80579(14) 0.7005(5)
H23 H 0.37970 0.78960 0.57880
H24 H 0.34480 0.83890 0.69570
H25 H 0.36440 0.77850 0.78360
C24 C 0.6938(3) 0.61086(15) 1.0142(6)
H26 H 0.74510 0.60570 0.93990
C25 C 0.6235(3) 0.56052(16) 0.9783(6)
H27 H 0.65830 0.52680 0.95710
H28 H 0.57640 0.56840 0.87130
H29 H 0.59210 0.55510 1.08420
C26 C 0.7371(3) 0.61064(15) 1.2165(6)
H30 H 0.68790 0.60310 1.29010
H31 H 0.76550 0.64700 1.24990
H32 H 0.78540 0.58170 1.23860
C27 C 0.8660(3) 0.30147(16) 0.5585(5)
C28 C 0.8144(2) 0.28052(15) 0.6931(5)
H33 H 0.79320 0.24310 0.68480
C29 C 0.7940(3) 0.31439(17) 0.8397(6)
H34 H 0.76460 0.29910 0.93380
C30 C 0.8189(3) 0.37176(18) 0.8405(5)
C31 C 0.8630(3) 0.39573(17) 0.7035(6)
H35 H 0.87530 0.43450 0.70410
C32 C 0.8884(3) 0.36200(17) 0.5670(6)
C33 C 0.8782(3) 0.20752(18) 0.4190(7)
H36 H 0.81870 0.19870 0.33780
H37 H 0.87370 0.19280 0.54130
C34 C 0.9638(2) 0.17850(16) 0.3441(5)
C35 C 0.9616(3) 0.2017(2) 0.1400(6)
H38 H 0.89590 0.20090 0.07590
H39 H 0.98250 0.24090 0.14670
C36 C 1.0223(3) 0.16940(16) 0.0306(6)
H40 H 1.08860 0.17160 0.09080
H41 H 1.01810 0.18640 -0.09130
C37 C 0.9912(3) 0.10552(17) 0.0095(6)
H42 H 0.92660 0.10310 -0.05930
H43 H 1.03380 0.08550 -0.06010
C38 C 0.9944(3) 0.07674(16) 0.2038(5)
C39 C 0.9476(3) 0.01943(17) 0.1764(6)
C40 C 0.9525(3) -0.01538(18) 0.0191(6)
H44 H 0.98070 -0.00010 -0.07650
C41 C 0.9189(3) -0.06933(18) -0.0008(6)
H45 H 0.92990 -0.09200 -0.09950
C42 C 0.8665(3) -0.08959(17) 0.1350(6)
C43 C 0.8643(3) -0.05987(15) 0.2910(6)
H46 H 0.83870 -0.07680 0.38710
C44 C 0.8990(3) -0.00449(16) 0.3140(6)
C45 C 0.8833(3) 0.02884(19) 0.4823(5)
H47 H 0.81570 0.03820 0.47100
H48 H 0.89950 0.00500 0.59100
C46 C 0.9406(3) 0.08257(18) 0.5118(5)
H49 H 1.00630 0.07380 0.56590
H50 H 0.91370 0.10700 0.59710
C47 C 0.9395(3) 0.11368(17) 0.3245(5)
H51 H 0.87250 0.11220 0.26350
C48 C 1.0574(3) 0.19114(17) 0.4684(6)
H52 H 1.06320 0.23130 0.48920
H53 H 1.10980 0.17810 0.41020
H54 H 1.05890 0.17200 0.58470
C49 C 1.1003(3) 0.06585(17) 0.2926(6)
H55 H 1.10220 0.04900 0.41270
H56 H 1.13460 0.10120 0.30490
H57 H 1.12970 0.04070 0.21500
C50 C 0.8210(3) -0.15026(17) 0.1030(6)
H58 H 0.75200 -0.14750 0.10650
C51 C 0.8665(3) -0.18691(18) 0.2626(6)
H59 H 0.81730 -0.20520 0.31770
H60 H 0.90500 -0.16370 0.35370
H61 H 0.90630 -0.21510 0.21800
C52 C 0.8352(3) -0.18168(19) -0.0710(5)
H62 H 0.89880 -0.19720 -0.05520
H63 H 0.82660 -0.15590 -0.17400
H64 H 0.78910 -0.21180 -0.09410
N1 N 0.7052(2) 1.13979(16) -0.0758(5)
N2 N 0.5607(2) 1.12477(13) 0.4765(5)
N3 N 0.5767(3) 1.00406(13) 0.4424(5)
H65 H 0.549(3) 1.021(2) 0.523(7)
N4 N 0.7997(2) 0.40656(16) 0.9895(6)
N5 N 0.9317(3) 0.39006(16) 0.4270(6)
N6 N 0.8912(2) 0.26788(15) 0.4290(5)
H66 H 0.918(3) 0.284(2) 0.344(7)
O1 O 0.7368(2) 1.11758(13) -0.2038(4)
O2 O 0.70301(19) 1.19145(13) -0.0571(4)
O3 O 0.57835(17) 1.17599(9) 0.4971(4)
O4 O 0.5187(2) 1.09936(10) 0.5818(4)
O5 O 0.7625(2) 0.38555(12) 1.1176(4)
O6 O 0.8212(2) 0.45609(12) 0.9977(4)
O7 O 0.93068(18) 0.44089(12) 0.4172(4)
O8 O 0.9785(2) 0.35937(12) 0.3293(4)
#END
