
#######################################################################
#
#                 Cambridge Crystallographic Data Centre
#                                CCDC
#
#######################################################################
#
# If this CIF has been generated from an entry in the Cambridge
# Structural Database, then it will include bibliographic, chemical,
# crystal, experimental, refinement or atomic coordinate data resulting
# from the CCDC's data processing and validation procedures.
#
#######################################################################

data_CSD_CIF_XIZCOZ
_audit_creation_date 2008-06-10
_audit_creation_method CSD-ConQuest-V1
_database_code_CSD XIZCOZ
_database_code_depnum_ccdc_archive 'CCDC 688975'
_chemical_formula_sum 'C38 H37 N3 O7'
_chemical_formula_moiety
;
C38 H37 N3 O7
;
_journal_coeditor_code "IUCr BT2696"
_journal_coden_Cambridge 1370
_journal_volume 64
_journal_year 2008
_journal_page_first o887
_journal_name_full 'Acta Crystallogr.,Sect.E:Struct.Rep.Online '
loop_
_publ_author_name
"E.T.S.Kamala"
"S.Nirmala"
"L.Sudha"
"N.Arumugam"
"R.Raghunathan"
_chemical_name_systematic
;
Ethyl 
1-(4-methoxyphenyl)-2-nitro-3-(4-oxo-3-phenyl-1-(4-methoxyphenyl)azetidin-2-yl
;
_cell_volume   3335.431
_exptl_crystal_colour 'colorless'
_exptl_crystal_density_diffrn 1.29
_exptl_crystal_description 'prism'
_exptl_crystal_preparation 'ethyl acetate'
_diffrn_ambient_temperature 293
_refine_special_details
;
The carboxylate ethyl group is disordered over two sites with occupancies 
0.67:0.33.
;
#These two values have been output from a single CSD field.
_refine_ls_R_factor_gt 0.0339
_refine_ls_wR_factor_gt 0.0339
_symmetry_cell_setting orthorhombic
_symmetry_space_group_name_H-M 'P 21 21 21'
_symmetry_Int_Tables_number 19
loop_
_symmetry_equiv_pos_site_id
_symmetry_equiv_pos_as_xyz
1 x,y,z
2 1/2-x,-y,1/2+z
3 1/2+x,1/2-y,-z
4 -x,1/2+y,1/2-z
_cell_length_a 9.0149(3)
_cell_length_b 11.0865(4)
_cell_length_c 33.3731(11)
_cell_angle_alpha 90
_cell_angle_beta 90
_cell_angle_gamma 90
_cell_formula_units_Z 4
loop_
_atom_type_symbol
_atom_type_radius_bond
C 0.68
H 0.23
N 0.68
O 0.68
loop_
_atom_site_label
_atom_site_type_symbol
_atom_site_fract_x
_atom_site_fract_y
_atom_site_fract_z
C1 C 0.5650(3) 0.1895(2) 0.11810(7)
H1 H 0.60780 0.19970 0.14490
C2 C 0.6846(3) 0.2110(2) 0.08439(7)
H2 H 0.78110 0.23000 0.09640
C3 C 0.6714(3) 0.0759(2) 0.07673(7)
C4 C 0.4217(3) 0.26005(18) 0.11375(6)
H3 H 0.39560 0.26130 0.08530
C5 C 0.4352(3) 0.3919(2) 0.12799(7)
H4 H 0.46610 0.44350 0.10570
C6 C 0.2805(3) 0.4279(2) 0.14202(7)
H5 H 0.29110 0.47920 0.16580
C7 C 0.2091(3) 0.3061(2) 0.15540(6)
C8 C 0.0419(3) 0.2946(2) 0.14583(8)
H6 H -0.01440 0.34900 0.16280
H7 H 0.02400 0.31640 0.11810
C9 C -0.0065(3) 0.1674(2) 0.15306(7)
C10 C -0.1225(3) 0.1330(3) 0.17775(8)
H8 H -0.17900 0.19110 0.19080
C11 C -0.1538(4) 0.0124(3) 0.18292(9)
H9 H -0.23230 -0.01060 0.19930
C12 C -0.0702(4) -0.0739(3) 0.16414(10)
H10 H -0.09260 -0.15510 0.16770
C13 C 0.0469(4) -0.0409(3) 0.13991(9)
H11 H 0.10390 -0.09960 0.12730
C14 C 0.0792(3) 0.0797(2) 0.13448(7)
C15 C 0.2094(3) 0.1248(2) 0.11103(7)
H12 H 0.27170 0.05760 0.10320
H13 H 0.17520 0.16500 0.08690
C16 C 0.1960(3) 0.4982(2) 0.11054(7)
C17 C 0.0909(3) 0.5824(2) 0.12263(8)
H14 H 0.07440 0.59380 0.14990
C18 C 0.0110(4) 0.6489(2) 0.09578(9)
H15 H -0.06000 0.70330 0.10480
C19 C 0.0358(3) 0.6354(2) 0.05499(8)
C20 C 0.1387(3) 0.5535(3) 0.04209(8)
H16 H 0.15630 0.54370 0.01480
C21 C 0.2168(3) 0.4850(2) 0.06968(7)
H17 H 0.28520 0.42860 0.06050
C22 C 0.6510(3) 0.2965(2) 0.05059(7)
C23 C 0.7102(4) 0.4110(3) 0.05080(9)
H18 H 0.77700 0.43330 0.07070
C24 C 0.6704(4) 0.4931(3) 0.02139(11)
H19 H 0.71050 0.57040 0.02180
C25 C 0.5729(4) 0.4619(3) -0.00828(10)
H20 H 0.54480 0.51810 -0.02750
C26 C 0.5175(4) 0.3476(3) -0.00931(8)
H21 H 0.45310 0.32520 -0.02980
C27 C 0.5563(3) 0.2648(3) 0.01987(7)
H22 H 0.51820 0.18690 0.01880
C28 C 0.5268(3) -0.0417(2) 0.12839(7)
C29 C 0.4518(3) -0.0313(2) 0.16414(8)
H23 H 0.42390 0.04460 0.17330
C30 C 0.4176(3) -0.1326(2) 0.18659(8)
H24 H 0.36820 -0.12440 0.21090
C31 C 0.4563(4) -0.2445(2) 0.17306(8)
C32 C 0.5345(4) -0.2552(2) 0.13739(8)
H25 H 0.56350 -0.33110 0.12860
C33 C 0.5695(4) -0.1558(2) 0.11504(8)
H26 H 0.62140 -0.16420 0.09110
C34 C 0.3451(6) -0.3423(3) 0.22891(10)
H27 H 0.33170 -0.42150 0.23990
H28 H 0.25000 -0.30670 0.22360
H29 H 0.39840 -0.29300 0.24770
C35 C 0.2155(3) 0.2959(2) 0.20132(7)
C36 C 0.227(2) 0.1693(8) 0.2565(2)
H30 H 0.31780 0.13710 0.26770
H31 H 0.21320 0.24870 0.26810
C37? C 0.2763(18) 0.166(2) 0.2577(7)
H32? H 0.23700 0.23190 0.27370
H33? H 0.38010 0.15410 0.26410
C38 C 0.1243(12) 0.1053(17) 0.2693(3)
H34 H 0.13280 0.09770 0.29780
H35 H 0.13000 0.02690 0.25720
H36 H 0.03090 0.14190 0.26270
C39? C 0.182(4) 0.0452(14) 0.2633(4)
H37? H 0.17290 0.02720 0.29140
H38? H 0.23110 -0.02030 0.25000
H39? H 0.08490 0.05600 0.25200
C40 C -0.0228(5) 0.6993(3) -0.01129(10)
H40 H -0.08710 0.75430 -0.02520
H41 H -0.04310 0.61840 -0.01990
H42 H 0.07860 0.71900 -0.01710
N1 N 0.5645(2) 0.06099(17) 0.10584(6)
N2 N 0.2955(2) 0.20995(16) 0.13575(5)
N3 N 0.5465(3) 0.40018(18) 0.16171(7)
O1 O 0.7299(3) 0.00518(18) 0.05473(6)
O2 O 0.4270(3) -0.35051(16) 0.19254(5)
O3 O 0.2539(2) 0.18744(16) 0.21413(5)
O4 O 0.1785(3) 0.37724(19) 0.22274(6)
O5 O -0.0475(3) 0.70850(19) 0.03026(7)
O6 O 0.5102(2) 0.3667(2) 0.19483(6)
O7 O 0.6700(2) 0.4365(2) 0.15328(7)
#END
