
#######################################################################
#
#                 Cambridge Crystallographic Data Centre
#                                CCDC
#
#######################################################################
#
# If this CIF has been generated from an entry in the Cambridge
# Structural Database, then it will include bibliographic, chemical,
# crystal, experimental, refinement or atomic coordinate data resulting
# from the CCDC's data processing and validation procedures.
#
#######################################################################

data_CSD_CIF_XIZDIU
_audit_creation_date 2008-06-10
_audit_creation_method CSD-ConQuest-V1
_database_code_CSD XIZDIU
_database_code_depnum_ccdc_archive 'CCDC 678801'
_chemical_formula_sum 'C27 H27 N1 O5'
_chemical_formula_moiety
;
C27 H27 N1 O5
;
_journal_coden_Cambridge 35
_journal_volume 72
_journal_year 2007
_journal_page_first 10251
_journal_name_full 'J.Org.Chem. '
loop_
_publ_author_name
"A.Karadeolian"
"M.A.Kerr"
_chemical_name_systematic
;
Dimethyl 5-methyl-2,3,6-triphenyl-1,2-oxazinane-4,4-dicarboxylate
;
_chemical_melting_point 425.15
_cell_volume   4647.070
_exptl_crystal_colour 'colorless'
_exptl_crystal_density_diffrn 1.274
_exptl_special_details
;
Melting point range 425.15-426.15K

;
_exptl_crystal_description 'block'
_diffrn_ambient_temperature 301
_refine_special_details
;
A number of atoms from a phenyl ring and an oxazinane ring are disordered 
over two sites with occupancies 0.554:0.446.
;
#These two values have been output from a single CSD field.
_refine_ls_R_factor_gt 0.0562
_refine_ls_wR_factor_gt 0.0562
loop_
_citation_database_id_CSD
_citation_special_details
XITRUO "is a stereoisomer of this entry"
_symmetry_cell_setting monoclinic
_symmetry_space_group_name_H-M 'P 21/c'
_symmetry_Int_Tables_number 14
loop_
_symmetry_equiv_pos_site_id
_symmetry_equiv_pos_as_xyz
1 x,y,z
2 -x,1/2+y,1/2-z
3 -x,-y,-z
4 x,-1/2-y,-1/2+z
_cell_length_a 20.5050(8)
_cell_length_b 12.7125(4)
_cell_length_c 19.7289(6)
_cell_angle_alpha 90
_cell_angle_beta 115.362(2)
_cell_angle_gamma 90
_cell_formula_units_Z 8
loop_
_atom_type_symbol
_atom_type_radius_bond
C 0.68
H 0.23
N 0.68
O 0.68
loop_
_atom_site_label
_atom_site_type_symbol
_atom_site_fract_x
_atom_site_fract_y
_atom_site_fract_z
O1 O 0.39441(10) 0.45100(12) 0.38287(9)
N1 N 0.34576(12) 0.50477(15) 0.31431(11)
C1 C 0.39120(14) 0.56256(19) 0.28473(13)
H1 H 0.42220 0.61180 0.32330
C2 C 0.44047(14) 0.48387(18) 0.26712(13)
C3 C 0.47873(14) 0.40419(19) 0.33384(13)
H2 H 0.49650 0.34460 0.31500
C4 C 0.42405(15) 0.36271(18) 0.36049(14)
H3 H 0.38530 0.32630 0.31890
C5 C 0.30659(10) 0.57512(13) 0.34087(10)
C6 C 0.34067(8) 0.65176(15) 0.39479(11)
H4 H 0.39060 0.65830 0.41580
C7 C 0.30005(13) 0.71868(13) 0.41731(11)
H5 H 0.32290 0.77000 0.45340
C8 C 0.22536(13) 0.70897(16) 0.38592(13)
H6 H 0.19820 0.75370 0.40100
C9 C 0.19128(8) 0.6323(2) 0.33201(12)
H7 H 0.14130 0.62580 0.31100
C10 C 0.2319(1) 0.56541(16) 0.30948(9)
H8 H 0.20910 0.51410 0.27340
C11 C 0.33969(9) 0.62591(13) 0.21733(8)
C12 C 0.3574(1) 0.72854(14) 0.2075(1)
H9 H 0.39950 0.75900 0.24290
C13 C 0.31225(13) 0.78565(11) 0.14484(12)
H10 H 0.32410 0.85430 0.13830
C14 C 0.24939(12) 0.74012(16) 0.0920(1)
H11 H 0.21920 0.77830 0.05010
C15 C 0.23168(9) 0.63748(17) 0.10182(9)
H12 H 0.18960 0.60700 0.06650
C16 C 0.27683(10) 0.58038(11) 0.16449(10)
H13 H 0.26500 0.51170 0.17110
C17 C 0.39671(16) 0.4250(2) 0.19456(15)
O2 O 0.36715(12) 0.34225(16) 0.19016(10)
O3 O 0.39294(11) 0.47954(15) 0.1354(1)
C18 C 0.34154(19) 0.4433(3) 0.06266(15)
H14 H 0.34350 0.48810 0.02440
H15 H 0.29380 0.44530 0.06040
H16 H 0.35310 0.37250 0.05480
C19 C 0.49957(16) 0.5468(3) 0.25781(14)
O4 O 0.51037(12) 0.63840(16) 0.26801(12)
O5 O 0.54175(11) 0.48150(15) 0.23995(10)
C20 C 0.60441(17) 0.5285(3) 0.23616(18)
H17 H 0.63030 0.47580 0.22270
H18 H 0.63530 0.55770 0.28420
H19 H 0.58920 0.58330 0.19910
C21 C 0.54286(15) 0.4540(2) 0.39893(14)
H20 H 0.56460 0.40300 0.43810
H21 H 0.52660 0.51300 0.41790
H22 H 0.57770 0.47730 0.38170
C22 C 0.45575(10) 0.28916(13) 0.42758(8)
C23 C 0.4413(1) 0.30477(13) 0.48955(10)
H23 H 0.41290 0.36120 0.49050
C24 C 0.46932(12) 0.23598(17) 0.55005(9)
H24 H 0.45960 0.24640 0.59150
C25 C 0.51180(12) 0.15158(15) 0.54859(10)
H25 H 0.53050 0.10560 0.58910
C26 C 0.52625(11) 0.13597(13) 0.48663(13)
H26 H 0.55470 0.07950 0.48570
C27 C 0.49823(11) 0.20476(15) 0.42612(10)
H27 H 0.50790 0.19430 0.38470
O6 O 0.10584(18) 0.2563(3) 0.1979(2)
N2 N 0.1507(7) 0.2173(8) 0.1643(5)
O7? O 0.1454(2) 0.3305(3) 0.1663(2)
N3? N 0.1296(9) 0.2155(10) 0.1683(5)
C28 C 0.10743(16) 0.1758(2) 0.08986(14)
H28 H 0.07630 0.11940 0.09300
H29? H 0.07400 0.11780 0.08410
C29 C 0.05936(15) 0.26514(19) 0.03602(13)
C30 C 0.02305(16) 0.3346(2) 0.07535(14)
H30 H 0.00670 0.40130 0.04850
H31? H -0.00070 0.39020 0.03850
C31 C 0.0799(9) 0.3558(10) 0.1593(7)
H32 H 0.12120 0.39240 0.15750
C32? C 0.0810(11) 0.3924(15) 0.1389(9)
H33? H 0.09100 0.45730 0.11830
C33 C 0.18729(11) 0.14834(16) 0.22437(10)
C34 C 0.24079(13) 0.19382(15) 0.28795(13)
H34 H 0.24730 0.26640 0.29050
C35 C 0.28461(10) 0.1309(2) 0.34777(10)
H35 H 0.32040 0.16130 0.39030
C36 C 0.27494(11) 0.0224(2) 0.34401(11)
H36 H 0.30430 -0.01970 0.38400
C37 C 0.22144(14) -0.02303(14) 0.28043(14)
H37 H 0.21500 -0.09560 0.27790
C38 C 0.17762(11) 0.03992(17) 0.22061(10)
H38 H 0.14180 0.00950 0.17810
C39 C 0.16359(10) 0.13003(14) 0.06773(10)
C40 C 0.23074(11) 0.17689(13) 0.08895(10)
H39 H 0.24320 0.23560 0.12000
C41 C 0.27925(9) 0.13592(19) 0.06374(13)
H40 H 0.32420 0.16730 0.07790
C42 C 0.26061(12) 0.04810(19) 0.01730(13)
H41 H 0.29310 0.02070 0.00040
C43 C 0.19346(14) 0.00124(14) -0.00393(10)
H42 H 0.18100 -0.05750 -0.03500
C44 C 0.14495(10) 0.04220(14) 0.02129(10)
H43 H 0.10000 0.01080 0.00710
C45 C 0.10314(17) 0.3345(2) 0.00713(17)
O8 O 0.12706(17) 0.41793(19) 0.03075(15)
O9 O 0.11177(10) 0.28769(14) -0.04869(10)
C46 C -0.09867(18) 0.2461(3) -0.14878(17)
H44 H -0.12250 0.30420 -0.18090
H45 H -0.13230 0.20960 -0.13520
H46 H -0.08060 0.19870 -0.17470
C47 C -0.00066(17) 0.2120(3) -0.03152(16)
O10 O -0.01449(12) 0.12011(17) -0.03955(10)
O11 O -0.03911(11) 0.28478(16) -0.08168(11)
C48 C 0.16087(18) 0.3374(3) -0.07437(17)
H47 H 0.16220 0.29740 -0.11500
H48 H 0.20840 0.34020 -0.03390
H49 H 0.14450 0.40750 -0.09120
C49 C -0.03993(16) 0.2785(2) 0.08234(16)
H50 H -0.07130 0.24870 0.03470
H51 H -0.06640 0.32810 0.09760
H52 H -0.02150 0.22350 0.11910
C50 C 0.0542(6) 0.4191(7) 0.2045(5)
C51 C 0.0528(5) 0.3840(5) 0.2706(5)
H53 H 0.07110 0.31790 0.28950
C52 C 0.0241(5) 0.4476(7) 0.3083(4)
H54 H 0.02310 0.42410 0.35260
C53 C -0.0032(4) 0.5463(7) 0.2800(5)
H55 H -0.02250 0.58890 0.30530
C54 C -0.0018(4) 0.5814(6) 0.2139(5)
H56 H -0.02010 0.64740 0.19500
C55 C 0.0269(6) 0.5178(8) 0.1762(4)
H57 H 0.02790 0.54120 0.13200
C56? C 0.0540(7) 0.4247(9) 0.1983(5)
C57? C 0.0791(5) 0.3682(6) 0.2650(6)
H58? H 0.10890 0.31020 0.27180
C58? C 0.0598(4) 0.3984(6) 0.3216(4)
H59? H 0.07660 0.36060 0.36620
C59? C 0.0153(4) 0.4851(7) 0.3115(3)
H60? H 0.00230 0.50530 0.34940
C60? C -0.0099(5) 0.5416(7) 0.2449(4)
H61? H -0.03960 0.59970 0.23810
C61? C 0.0095(6) 0.5114(9) 0.1882(4)
H62? H -0.00730 0.54920 0.14360
#END
