
#######################################################################
#
#                 Cambridge Crystallographic Data Centre
#                                CCDC
#
#######################################################################
#
# If this CIF has been generated from an entry in the Cambridge
# Structural Database, then it will include bibliographic, chemical,
# crystal, experimental, refinement or atomic coordinate data resulting
# from the CCDC's data processing and validation procedures.
#
#######################################################################

data_CSD_CIF_XIZVAD
_audit_creation_date 2002-07-26
_audit_creation_method CSD-ConQuest-V1
_database_code_CSD XIZVAD
_database_code_depnum_ccdc_archive 'CCDC 182480'
_chemical_formula_sum 'C20 H11 N1 O7'
_chemical_formula_moiety
;
C20 H11 N1 O7
;
_journal_coden_Cambridge 35
_journal_volume 67
_journal_year 2002
_journal_page_first 2735
_journal_name_full 'J.Org.Chem. '
loop_
_publ_author_name
"A.G.M.Barrett"
"F.Blaney"
"A.D.Campbell"
"D.Hamprecht"
"T.Meyer"
"A.J.P.White"
"D.Witty"
"D.J.Williams"
_chemical_name_systematic
;
5-Hydroxy-6'-nitro-spiro((2,3-epoxynaphthalene)-1(2H),2'-(naphtho(1,8-de)(1,3)
dioxine))-4(3H)-one
;
_chemical_name_common
;
4'-Nitropalmarumycin C2
;
_chemical_melting_point 408.15
_cell_volume    784.346
_exptl_crystal_colour 'yellow'
_exptl_crystal_density_diffrn 1.598
_exptl_special_details
;
Melting point range 408.15-410.15K

;
_exptl_crystal_description 'plates'
_exptl_crystal_preparation 'ethyl acetate/pentane'
_diffrn_ambient_temperature 293
#These two values have been output from a single CSD field.
_refine_ls_R_factor_gt 0.0389
_refine_ls_wR_factor_gt 0.0389
_symmetry_cell_setting monoclinic
_symmetry_space_group_name_H-M 'P 21'
_symmetry_Int_Tables_number 4
loop_
_symmetry_equiv_pos_site_id
_symmetry_equiv_pos_as_xyz
1 x,y,z
2 -x,1/2+y,-z
_cell_length_a 5.0662(4)
_cell_length_b 12.6013(8)
_cell_length_c 12.2982(6)
_cell_angle_alpha 90
_cell_angle_beta 92.553(5)
_cell_angle_gamma 90
_cell_formula_units_Z 2
loop_
_atom_type_symbol
_atom_type_radius_bond
C 0.68
H 0.23
N 0.68
O 0.68
loop_
_atom_site_label
_atom_site_type_symbol
_atom_site_fract_x
_atom_site_fract_y
_atom_site_fract_z
C1 C 0.2371(8) 0.3901(3) 0.2874(3)
C2 C 0.0554(8) 0.4117(3) 0.3789(3)
H1 H -0.0523(8) 0.4762(3) 0.3723(3)
O1 O 0.1684(6) 0.3889(2) 0.4845(2)
C3 C -0.0516(9) 0.3258(3) 0.4420(3)
H2 H -0.2236(9) 0.3375(3) 0.4735(3)
C4 C 0.0249(9) 0.2143(3) 0.4191(3)
O2 O -0.0862(7) 0.1420(3) 0.4664(3)
C5 C 0.2341(8) 0.1954(3) 0.3425(3)
C6 C 0.3277(9) 0.0908(3) 0.3287(4)
C7 C 0.5301(10) 0.0719(3) 0.2568(4)
H3 H 0.5915(10) 0.0031(3) 0.2468(4)
C8 C 0.6368(10) 0.1543(4) 0.2017(4)
H4 H 0.7717(10) 0.1409(4) 0.1547(4)
C9 C 0.5475(8) 0.2586(3) 0.2143(3)
H5 H 0.6224(8) 0.3139(3) 0.1762(3)
C10 C 0.3468(8) 0.2784(3) 0.2841(3)
O3 O 0.2273(8) 0.0074(2) 0.3802(3)
H6 H 0.0906(89) 0.0371(54) 0.4132(52)
O4 O 0.0938(5) 0.4055(2) 0.1852(2)
C11 C 0.0285(8) 0.5086(3) 0.1591(3)
C12 C -0.1678(9) 0.5277(3) 0.0821(3)
H7 H -0.2550(9) 0.4722(3) 0.0460(3)
C13 C -0.2344(10) 0.6335(4) 0.0592(3)
H8 H -0.3673(10) 0.6479(4) 0.0066(3)
C14 C -0.1083(10) 0.7168(3) 0.1124(3)
C15 C 0.1044(9) 0.7006(3) 0.1902(3)
C16 C 0.254(1) 0.7785(3) 0.2497(4)
H9 H 0.2126(10) 0.8498(3) 0.2401(4)
C17 C 0.4548(10) 0.7510(3) 0.3200(4)
H10 H 0.5481(10) 0.8040(3) 0.3577(4)
C18 C 0.5271(9) 0.6434(3) 0.3376(4)
H11 H 0.6693(9) 0.6254(3) 0.3844(4)
C19 C 0.3830(8) 0.5677(3) 0.2843(3)
C20 C 0.1729(8) 0.5921(3) 0.2114(3)
O5 O 0.4550(6) 0.4611(2) 0.2970(2)
N1 N -0.2123(10) 0.8223(3) 0.0850(3)
O6 O -0.4205(10) 0.8286(4) 0.0321(3)
O7 O -0.0934(11) 0.9002(3) 0.1181(5)
#END
