
#######################################################################
#
#                 Cambridge Crystallographic Data Centre
#                                CCDC
#
#######################################################################
#
# If this CIF has been generated from an entry in the Cambridge
# Structural Database, then it will include bibliographic, chemical,
# crystal, experimental, refinement or atomic coordinate data resulting
# from the CCDC's data processing and validation procedures.
#
#######################################################################

data_CSD_CIF_XIZZEL
_audit_creation_date 2002-07-26
_audit_creation_method CSD-ConQuest-V1
_database_code_CSD XIZZEL
_database_code_depnum_ccdc_archive 'CCDC 187199'
_chemical_formula_sum 'C72 H88 N4 O4'
_chemical_formula_moiety
;
C72 H88 N4 O4
;
_journal_coden_Cambridge 4
_journal_volume 124
_journal_year 2002
_journal_page_first 5183
_journal_name_full 'J.Am.Chem.Soc. '
loop_
_publ_author_name
"G.P.Bartholomew"
"G.C.Bazan"
_chemical_name_systematic
;
4,7-bis(4'-(Di-n-hexylamino)styryl)-12,15-bis(4''-nitrostyryl)(2.2)paracycloph
ane
;
_cell_volume   3038.965
_exptl_crystal_density_diffrn 1.173
_exptl_special_details
;
The temperature is given as 293 K in the supplementary data

;
_diffrn_ambient_temperature 202
#These two values have been output from a single CSD field.
_refine_ls_R_factor_gt 0.0759
_refine_ls_wR_factor_gt 0.0759
_symmetry_cell_setting triclinic
_symmetry_space_group_name_H-M 'P -1'
_symmetry_Int_Tables_number 2
loop_
_symmetry_equiv_pos_site_id
_symmetry_equiv_pos_as_xyz
1 x,y,z
2 -x,-y,-z
_cell_length_a 10.201(3)
_cell_length_b 12.508(4)
_cell_length_c 24.779(8)
_cell_angle_alpha 101.804(6)
_cell_angle_beta 97.221(6)
_cell_angle_gamma 96.463(7)
_cell_formula_units_Z 2
loop_
_atom_type_symbol
_atom_type_radius_bond
C 0.68
H 0.23
N 0.68
O 0.68
loop_
_atom_site_label
_atom_site_type_symbol
_atom_site_fract_x
_atom_site_fract_y
_atom_site_fract_z
N1 N 1.5218(4) -0.5640(4) 0.0908(2)
O1 O 1.5213(4) -0.5001(4) 0.13524(15)
N2 N 0.3191(4) -0.6185(4) -0.5607(2)
O2 O 1.6105(4) -0.6196(3) 0.08114(14)
N3 N 0.9591(4) -0.0809(3) 0.0996(2)
O3 O 0.2312(4) -0.5616(3) -0.55083(15)
N4 N 1.0427(4) -0.8898(3) -0.62088(14)
O4 O 0.3354(4) -0.6623(3) -0.6073(2)
C1 C 1.4100(5) -0.5710(4) 0.0456(2)
C2 C 1.3105(5) -0.5095(4) 0.0542(2)
H1 H 1.3105(5) -0.4643(4) 0.0891(2)
C3 C 1.2084(5) -0.5142(4) 0.0109(2)
H2 H 1.1397(5) -0.4722(4) 0.0169(2)
C4 C 1.2077(4) -0.5816(4) -0.0421(2)
C5 C 1.3105(5) -0.6416(4) -0.0491(2)
H3 H 1.3124(5) -0.6858(4) -0.0840(2)
C6 C 1.4123(5) -0.6388(4) -0.0058(2)
H4 H 1.4805(5) -0.6815(4) -0.0113(2)
C7 C 1.1008(4) -0.5798(4) -0.0871(2)
H5 H 1.0344(4) -0.5373(4) -0.0778(2)
C8 C 1.0897(4) -0.6332(3) -0.1402(2)
H6 H 1.1567(4) -0.6752(3) -0.1492(2)
C9 C 0.4077(5) -0.6342(4) -0.5123(2)
C10 C 0.5204(5) -0.6794(4) -0.5216(2)
H7 H 0.5375(5) -0.7027(4) -0.5578(2)
C11 C 0.6102(4) -0.6906(4) -0.4762(2)
H8 H 0.6879(4) -0.7207(4) -0.4821(2)
C12 C 0.5832(5) -0.6565(3) -0.4220(2)
C13 C 0.4652(4) -0.6141(4) -0.4151(2)
H9 H 0.4444(4) -0.5938(4) -0.3792(2)
C14 C 0.3775(4) -0.6010(4) -0.4596(2)
H10 H 0.3000(4) -0.5705(4) -0.4540(2)
C15 C 0.6824(4) -0.6652(3) -0.3749(2)
H11 H 0.7557(4) -0.6992(3) -0.3839(2)
C16 C 0.6783(4) -0.6298(3) -0.3213(2)
H12 H 0.6025(4) -0.5998(3) -0.3121(2)
C17 C 0.9842(4) -0.6332(3) -0.1858(2)
C18 C 0.8832(4) -0.5702(3) -0.1794(2)
H13 H 0.8769(4) -0.5330(3) -0.1434(2)
C19 C 0.7888(4) -0.5579(4) -0.2231(2)
C20 C 0.7811(4) -0.6330(4) -0.2745(2)
C21 C 0.8829(4) -0.6973(3) -0.2819(2)
H14 H 0.8783(4) -0.7471(3) -0.3158(2)
C22 C 0.9911(4) -0.6902(3) -0.2407(2)
C23 C 1.1220(4) -0.7179(3) -0.2587(2)
H15 H 1.1044(4) -0.7649(3) -0.2959(2)
H16 H 1.1641(4) -0.7585(3) -0.2336(2)
C24 C 0.7268(4) -0.4531(3) -0.2184(2)
H17 H 0.7388(4) -0.4149(3) -0.1795(2)
H18 H 0.6317(4) -0.4714(3) -0.2317(2)
C25 C 1.0494(4) -0.2443(3) -0.0557(2)
C26 C 1.1299(5) -0.2412(4) -0.0063(2)
H19 H 1.2054(5) -0.2765(4) -0.0072(2)
C27 C 1.1018(5) -0.1870(4) 0.0448(2)
H20 H 1.1599(5) -0.1863(4) 0.0770(2)
C28 C 0.9917(5) -0.1348(4) 0.0494(2)
C29 C 0.9086(5) -0.1373(4) -0.0008(2)
H21 H 0.8330(5) -0.1021(4) 0.0000(2)
C30 C 0.9379(5) -0.1912(4) -0.0514(2)
H22 H 0.8805(5) -0.1919(4) -0.0837(2)
C31 C 1.0809(4) -0.3027(3) -0.1087(2)
H23 H 1.1547(4) -0.3399(3) -0.1070(2)
C32 C 1.0142(4) -0.3083(3) -0.1596(2)
H24 H 0.9467(4) -0.2643(3) -0.1612(2)
C33 C 1.0246(5) -0.8212(4) -0.5713(2)
C34 C 1.0701(5) -0.8447(4) -0.5192(2)
H25 H 1.1085(5) -0.9084(4) -0.5180(2)
C35 C 1.0577(4) -0.7737(4) -0.4700(2)
H26 H 1.0878(4) -0.7912(4) -0.4363(2)
C36 C 1.0026(4) -0.6780(4) -0.4691(2)
C37 C 0.9498(4) -0.6588(4) -0.5206(2)
H27 H 0.9064(4) -0.5975(4) -0.5214(2)
C38 C 0.9607(4) -0.7295(4) -0.5710(2)
H28 H 0.9246(4) -0.7146(4) -0.6045(2)
C39 C 0.9996(4) -0.5973(3) -0.4172(2)
H29 H 0.9424(4) -0.5450(3) -0.4196(2)
C40 C 1.0693(4) -0.5907(3) -0.3673(2)
H30 H 1.1308(4) -0.6398(3) -0.3653(2)
C41 C 1.0340(4) -0.3753(3) -0.2135(2)
C42 C 1.1385(4) -0.4372(3) -0.2177(2)
H31 H 1.2064(4) -0.4256(3) -0.1874(2)
C43 C 1.1457(4) -0.5159(3) -0.2655(2)
C44 C 1.0599(4) -0.5144(3) -0.3151(2)
C45 C 0.9559(4) -0.4521(3) -0.3104(2)
H32 H 0.8990(4) -0.4509(3) -0.3427(2)
C46 C 0.9329(4) -0.3915(3) -0.2599(2)
C47 C 1.2205(4) -0.6109(3) -0.2587(2)
H33 H 1.2822(4) -0.5903(3) -0.2240(2)
H34 H 1.2721(4) -0.6267(3) -0.2890(2)
C48 C 0.7914(4) -0.3743(3) -0.2534(2)
H35 H 0.7381(4) -0.3878(3) -0.2900(2)
H36 H 0.7905(4) -0.2982(3) -0.2349(2)
C49 C 1.0361(5) -0.0889(4) 0.1516(2)
H37 H 1.0660(5) -0.1607(4) 0.1467(2)
H38 H 0.9782(5) -0.0844(4) 0.1800(2)
C50 C 1.1581(5) 0.0002(4) 0.1727(2)
H39 H 1.2077(5) 0.0053(4) 0.1422(2)
H40 H 1.1279(5) 0.0709(4) 0.1847(2)
C51 C 1.2500(5) -0.0225(4) 0.2207(2)
H41 H 1.1979(5) -0.0396(4) 0.2487(2)
H42 H 1.3133(5) 0.0433(4) 0.2376(2)
C52 C 1.3259(6) -0.1181(5) 0.2015(2)
H43 H 1.2625(6) -0.1855(5) 0.1910(2)
H44 H 1.3612(6) -0.1073(5) 0.1682(2)
C53 C 1.4348(6) -0.1347(5) 0.2409(3)
H45 H 1.3988(6) -0.1534(5) 0.2727(3)
H46 H 1.4945(6) -0.0656(5) 0.2542(3)
C54 C 1.5156(6) -0.2241(5) 0.2179(3)
H47 H 1.5892(28) -0.2262(27) 0.2457(8)
H48 H 1.5491(41) -0.2081(22) 0.1854(12)
H49 H 1.4597(14) -0.2943(8) 0.2079(19)
C55 C 0.8606(5) -0.0073(4) 0.1024(2)
H50 H 0.8619(5) 0.0284(4) 0.0712(2)
H51 H 0.8873(5) 0.0499(4) 0.1362(2)
C56 C 0.7198(6) -0.0569(5) 0.1019(2)
H52 H 0.7131(6) -0.0865(5) 0.1349(2)
H53 H 0.6908(6) -0.1162(5) 0.0692(2)
C57 C 0.6248(8) 0.0444(7) 0.1010(5)
H54 H 0.6433(8) 0.0934(7) 0.1377(5)
H55 H 0.6549(8) 0.0866(7) 0.0749(5)
C58 C 0.4783(9) 0.0155(10) 0.0863(6)
H56 H 0.4400(9) -0.0224(10) 0.1124(6)
H57 H 0.4517(9) -0.0283(10) 0.0486(6)
C59 C 0.4449(8) 0.1284(6) 0.0920(3)
H58 H 0.5070(8) 0.1653(6) 0.0728(3)
H59 H 0.3577(8) 0.1206(6) 0.0697(3)
C60 C 0.4394(6) 0.2090(6) 0.1438(3)
H60 H 0.3698(29) 0.2527(24) 0.1374(5)
H61 H 0.5235(15) 0.2562(23) 0.1554(10)
H62 H 0.4213(42) 0.1706(6) 0.1725(6)
C61 C 1.1217(5) -0.9789(4) -0.6189(2)
H63 H 1.1040(5) -1.0299(4) -0.6550(2)
H64 H 1.0931(5) -1.0187(4) -0.5917(2)
C62 C 1.2731(5) -0.9407(4) -0.6038(2)
H65 H 1.3014(5) -0.9038(4) -0.6321(2)
H66 H 1.2893(5) -0.8863(4) -0.5688(2)
C63 C 1.3608(6) -1.0293(4) -0.5983(2)
H67 H 1.3433(6) -1.0846(4) -0.6330(2)
H68 H 1.3343(6) -1.0649(4) -0.5693(2)
C64 C 1.5150(6) -0.9894(5) -0.5843(3)
H69 H 1.5226(6) -0.9284(5) -0.5523(3)
H70 H 1.5331(6) -0.9554(5) -0.6149(3)
C65 C 1.6470(12) -1.0445(7) -0.5713(3)
H71 H 1.7280(12) -0.9929(7) -0.5671(3)
H72 H 1.6465(12) -1.0764(7) -0.5388(3)
C66 C 1.6283(11) -1.1267(7) -0.6219(4)
H73 H 1.649(12) -1.1953(27) -0.6138(7)
H74 H 1.6861(87) -1.1040(47) -0.6465(20)
H75 H 1.5371(30) -1.1362(71) -0.6395(26)
C67 C 1.0321(5) -0.8514(4) -0.6732(2)
H76 H 1.1148(5) -0.8581(4) -0.6883(2)
H77 H 1.0220(5) -0.7738(4) -0.6651(2)
C68 C 0.9175(6) -0.9135(4) -0.7170(2)
H78 H 0.9265(6) -0.8911(4) -0.7518(2)
H79 H 0.9240(6) -0.9917(4) -0.7231(2)
C69 C 0.7830(6) -0.8962(4) -0.7029(2)
H80 H 0.7821(6) -0.8987(4) -0.6641(2)
H81 H 0.7180(6) -0.9563(4) -0.7254(2)
C70 C 0.7410(5) -0.7872(4) -0.7121(2)
H82 H 0.8128(5) -0.7280(4) -0.6946(2)
H83 H 0.7277(5) -0.7896(4) -0.7518(2)
C71 C 0.6140(5) -0.7610(5) -0.6891(2)
H84 H 0.5403(5) -0.8165(5) -0.7092(2)
H85 H 0.6241(5) -0.7653(5) -0.6502(2)
C72 C 0.5806(5) -0.6492(5) -0.6937(3)
H86 H 0.6513(19) -0.5936(5) -0.6725(14)
H87 H 0.4988(22) -0.6381(15) -0.6793(16)
H88 H 0.5703(40) -0.6442(13) -0.7321(3)
#END
