
#######################################################################
#
#                 Cambridge Crystallographic Data Centre
#                                CCDC
#
#######################################################################
#
# If this CIF has been generated from an entry in the Cambridge
# Structural Database, then it will include bibliographic, chemical,
# crystal, experimental, refinement or atomic coordinate data resulting
# from the CCDC's data processing and validation procedures.
#
#######################################################################

data_CSD_CIF_XOBQEL
_audit_creation_date 2008-10-31
_audit_creation_method CSD-ConQuest-V1
_database_code_CSD XOBQEL
_database_code_depnum_ccdc_archive 'CCDC 686673'
_database_code_depnum_ccdc_journal 1135/09
_chemical_formula_sum 'C15 H13 N3 O4'
_chemical_formula_moiety
;
C15 H13 N3 O4
;
_journal_coden_Cambridge 1135
_journal_volume 18
_journal_year 2008
_journal_page_first 144
_journal_name_full 'Mendeleev Commun. '
loop_
_publ_author_name
"S.B.Alyabiev"
"D.V.Kravchenko"
"A.V.Ivachtchenko"
_chemical_name_systematic
;
Ethyl (4-oxo-3-phenylisoxazolo(5,4-d)pyrimidin-5(4H)-yl)acetate
;
_chemical_melting_point 432.15
_cell_volume   1357.088
_exptl_crystal_density_diffrn 1.465
_exptl_special_details
;
Melting point range 432.15-434.15K

;
_diffrn_ambient_temperature 120
#These two values have been output from a single CSD field.
_refine_ls_R_factor_gt 0.0523
_refine_ls_wR_factor_gt 0.0523
_symmetry_cell_setting monoclinic
_symmetry_space_group_name_H-M 'P 21/n'
_symmetry_Int_Tables_number 14
loop_
_symmetry_equiv_pos_site_id
_symmetry_equiv_pos_as_xyz
1 x,y,z
2 1/2-x,1/2+y,1/2-z
3 -x,-y,-z
4 -1/2+x,-1/2-y,-1/2+z
_cell_length_a 14.602(6)
_cell_length_b 4.9659(19)
_cell_length_c 19.499(8)
_cell_angle_alpha 90
_cell_angle_beta 106.299(10)
_cell_angle_gamma 90
_cell_formula_units_Z 4
loop_
_atom_type_symbol
_atom_type_radius_bond
C 0.68
H 0.23
N 0.68
O 0.68
loop_
_atom_site_label
_atom_site_type_symbol
_atom_site_fract_x
_atom_site_fract_y
_atom_site_fract_z
O1 O 0.2932(2) 0.2523(5) -0.0363(1)
O2 O 0.2111(2) 0.4626(5) 0.1716(1)
O3 O -0.0104(2) 0.4475(5) 0.0879(1)
O4 O -0.0598(2) 0.2039(4) 0.1688(1)
N1 N 0.1422(2) 0.1141(5) 0.0993(2)
N2 N 0.1745(2) -0.0050(6) -0.0098(2)
N3 N 0.3555(2) 0.4672(6) -0.0045(2)
C1 C 0.2076(2) 0.3339(7) 0.1171(2)
C2 C 0.1289(2) -0.0371(7) 0.0384(2)
C3 C 0.2385(2) 0.1997(7) 0.0071(2)
C4 C 0.2598(2) 0.3662(7) 0.0656(2)
C5 C 0.3372(2) 0.5292(7) 0.0556(2)
C6 C 0.0809(2) 0.0630(7) 0.1452(2)
C7 C -0.0005(2) 0.2630(7) 0.1302(2)
C8 C -0.1449(2) 0.3724(7) 0.1553(2)
C9 C -0.2075(3) 0.2509(8) 0.1966(2)
C10 C 0.3942(2) 0.7464(7) 0.0999(2)
C11 C 0.3729(2) 0.8459(7) 0.1602(2)
C12 C 0.4268(2) 1.0561(7) 0.1996(2)
C13 C 0.5023(3) 1.1637(7) 0.1795(2)
C14 C 0.5251(3) 1.0614(8) 0.1196(2)
C15 C 0.4726(2) 0.8525(7) 0.0801(2)
H1 H 0.08260 -0.17670 0.03060
H2 H 0.11870 0.07730 0.19590
H3 H 0.05490 -0.12210 0.13690
H4 H -0.17870 0.37570 0.10360
H5 H -0.12740 0.55920 0.17150
H6 H -0.26670 0.35470 0.18760
H7 H -0.17400 0.25470 0.24770
H8 H -0.22240 0.06420 0.18120
H9 H 0.32150 0.77100 0.17480
H10 H 0.41130 1.12470 0.24050
H11 H 0.53860 1.30680 0.20620
H12 H 0.57720 1.13570 0.10570
H13 H 0.48930 0.78160 0.04000
#END
