
#######################################################################
#
#                 Cambridge Crystallographic Data Centre
#                                CCDC
#
#######################################################################
#
# If this CIF has been generated from an entry in the Cambridge
# Structural Database, then it will include bibliographic, chemical,
# crystal, experimental, refinement or atomic coordinate data resulting
# from the CCDC's data processing and validation procedures.
#
#######################################################################

data_CSD_CIF_XOBZOE
_audit_creation_date 2008-10-31
_audit_creation_method CSD-ConQuest-V1
_database_code_CSD XOBZOE
_database_code_depnum_ccdc_archive 'CCDC 641192'
_chemical_formula_sum 'C7 H7 N1 O4'
_chemical_formula_moiety
;
C7 H7 N1 O4
;
_journal_coden_Cambridge 35
_journal_volume 73
_journal_year 2008
_journal_page_first 3745
_journal_name_full 'J.Org.Chem. '
loop_
_publ_author_name
"P.Martinez-Bescos"
"F.Cagide-Fagin"
"L.F.Roa"
"J.C.Ortiz-Lara"
"K.Kierus"
"L.Ozores-Viturro"
"M.Fernandez-Gonzalez"
"R.Alonso"
_chemical_name_systematic
;
(E)-3-(furan-2-yl)-2-nitroprop-2-en-1-ol
;
_chemical_melting_point 356.15
_cell_volume    731.381
_exptl_crystal_colour 'yellow'
_exptl_crystal_density_diffrn 1.536
_exptl_crystal_description 'prism'
_exptl_crystal_preparation 'ethyl acetate'
_diffrn_ambient_temperature 100
_refine_special_details
;
A nitro O atom and the hydroxymethyl group are disordered over two sites with 
occupancies of 0.506:0.494.
;
#These two values have been output from a single CSD field.
_refine_ls_R_factor_gt 0.0316
_refine_ls_wR_factor_gt 0.0316
_symmetry_cell_setting monoclinic
_symmetry_space_group_name_H-M 'C c'
_symmetry_Int_Tables_number 9
loop_
_symmetry_equiv_pos_site_id
_symmetry_equiv_pos_as_xyz
1 x,y,z
2 x,-y,1/2+z
3 1/2+x,1/2+y,z
4 1/2+x,1/2-y,1/2+z
_cell_length_a 4.2404(1)
_cell_length_b 22.1197(6)
_cell_length_c 7.9235(2)
_cell_angle_alpha 90
_cell_angle_beta 100.230(2)
_cell_angle_gamma 90
_cell_formula_units_Z 4
loop_
_atom_type_symbol
_atom_type_radius_bond
C 0.68
H 0.23
N 0.68
O 0.68
loop_
_atom_site_label
_atom_site_type_symbol
_atom_site_fract_x
_atom_site_fract_y
_atom_site_fract_z
O1 O 0.8507(3) 0.85635(5) 0.38744(17)
C1 C 0.9998(5) 0.87629(8) 0.2580(3)
H1 H 1.07220 0.85070 0.17640
C2 C 1.0300(5) 0.93644(8) 0.2614(3)
H2 H 1.12610 0.96070 0.18540
C3 C 0.8910(4) 0.95685(8) 0.4001(2)
H3 H 0.87440 0.99770 0.43490
C4 C 0.7858(4) 0.90750(8) 0.4743(2)
C5 C 0.6338(4) 0.90355(7) 0.6209(2)
H4 H 0.58800 0.94130 0.66860
C6 C 0.5460(4) 0.85484(8) 0.7013(2)
N1 N 0.3987(4) 0.86692(7) 0.8524(2)
O2 O 0.3480(3) 0.91914(6) 0.89265(19)
O3 O 0.2793(12) 0.8231(3) 0.9159(9)
C7 C 0.544(4) 0.7884(10) 0.646(2)
H5 H 0.32930 0.77060 0.64300
H6 H 0.60040 0.78500 0.53050
O4 O 0.7783(6) 0.75725(11) 0.7702(3)
O5? O 0.3905(15) 0.8234(4) 0.9537(9)
C8? C 0.606(4) 0.7903(10) 0.675(2)
H7? H 0.74640 0.78570 0.58880
H8? H 0.71660 0.77220 0.78430
O6? O 0.3027(6) 0.75938(11) 0.6176(4)
H9 H 0.997(15) 0.757(2) 0.721(8)
H10? H 0.304(14) 0.753(3) 0.511(9)
#END
