
#######################################################################
#
#                 Cambridge Crystallographic Data Centre
#                                CCDC
#
#######################################################################
#
# If this CIF has been generated from an entry in the Cambridge
# Structural Database, then it will include bibliographic, chemical,
# crystal, experimental, refinement or atomic coordinate data resulting
# from the CCDC's data processing and validation procedures.
#
#######################################################################

data_CSD_CIF_XOCDAU
_audit_creation_date 2002-07-26
_audit_creation_method CSD-ConQuest-V1
_database_code_CSD XOCDAU
_database_code_depnum_ccdc_archive 'CCDC 188894'
_chemical_formula_sum 'C8 H12 N3 O2'
_chemical_formula_moiety
;
C8 H12 N3 O2
;
_journal_coden_Cambridge 82
_journal_volume 42
_journal_year 2001
_journal_page_first 977
_journal_name_full 'Zh.Strukt.Khim.(Russ.)(J.Struct.Chem.) '
loop_
_publ_author_name
"O.V.Koreneva"
"G.V.Romanenko"
"V.N.Ikorskii"
"S.V.Fokin"
"V.I.Ovcharenko"
_chemical_name_systematic
;
2-Cyano-4,4,5,5-tetramethyl-3-oxo-2-imidazoline-1-oxyl radical
;
_cell_volume    473.419
_exptl_crystal_colour 'dark green'
_exptl_crystal_density_diffrn 1.278
_exptl_crystal_preparation 'dichloromethane/benzene'
_diffrn_ambient_temperature 293
#These two values have been output from a single CSD field.
_refine_ls_R_factor_gt 0.0367
_refine_ls_wR_factor_gt 0.0367
_symmetry_cell_setting tetragonal
_symmetry_space_group_name_H-M 'P -4 21 m'
_symmetry_Int_Tables_number 113
loop_
_symmetry_equiv_pos_site_id
_symmetry_equiv_pos_as_xyz
1 x,y,z
2 -x,-y,z
3 1/2+x,1/2-y,-z
4 1/2-x,1/2+y,-z
5 1/2+y,1/2+x,z
6 1/2-y,1/2-x,z
7 -y,x,-z
8 y,-x,-z
_cell_length_a 7.401(1)
_cell_length_b 7.401(1)
_cell_length_c 8.643(1)
_cell_angle_alpha 90
_cell_angle_beta 90
_cell_angle_gamma 90
_cell_formula_units_Z 2
loop_
_atom_type_symbol
_atom_type_radius_bond
C 0.68
H 0.23
N 0.68
O 0.68
loop_
_atom_site_label
_atom_site_type_symbol
_atom_site_fract_x
_atom_site_fract_y
_atom_site_fract_z
N1 N 0.50000 0.00000 1.3086(6)
C1 C 0.50000 0.00000 1.1785(6)
C2 C 0.50000 0.00000 1.0137(5)
N2 N 0.6041(3) -0.1041(3) 0.9280(3)
O1 O 0.7177(3) -0.2177(3) 0.9788(4)
C3 C 0.5750(3) -0.0750(3) 0.7588(4)
C4 C 0.7537(5) -0.0175(6) 0.6900(4)
H1 H 0.802(4) 0.094(5) 0.739(4)
H2 H 0.736(6) 0.015(6) 0.580(4)
H3 H 0.839(5) -0.112(5) 0.707(4)
C3A C 0.4250(3) 0.0750(3) 0.7588(4)
N2A N 0.3959(3) 0.1041(3) 0.9280(3)
O1A O 0.2823(3) 0.2177(3) 0.9788(4)
C4A C 0.2463(5) 0.0175(6) 0.6900(4)
H1A H 0.198(4) -0.094(5) 0.739(4)
H2A H 0.264(6) -0.015(6) 0.580(4)
H3A H 0.161(5) 0.112(5) 0.707(4)
C4D C 0.4825(5) 0.2537(6) 0.6900(4)
H1D H 0.594(4) 0.302(5) 0.739(4)
H2D H 0.515(6) 0.236(6) 0.580(4)
H3D H 0.388(5) 0.339(5) 0.707(4)
C4E C 0.5175(5) -0.2537(6) 0.6900(4)
H1E H 0.406(4) -0.302(5) 0.739(4)
H2E H 0.485(6) -0.236(6) 0.580(4)
H3E H 0.612(5) -0.339(5) 0.707(4)
#END
