
#######################################################################
#
#                 Cambridge Crystallographic Data Centre
#                                CCDC
#
#######################################################################
#
# If this CIF has been generated from an entry in the Cambridge
# Structural Database, then it will include bibliographic, chemical,
# crystal, experimental, refinement or atomic coordinate data resulting
# from the CCDC's data processing and validation procedures.
#
#######################################################################

data_CSD_CIF_XOCDAU01
_audit_creation_date 2002-09-17
_audit_creation_method CSD-ConQuest-V1
_database_code_CSD XOCDAU01
_database_code_depnum_ccdc_archive 'CCDC 175914'
_chemical_formula_sum 'C8 H12 N3 O2'
_chemical_formula_moiety
;
C8 H12 N3 O2
;
_journal_coden_Cambridge 1220
_journal_volume 8
_journal_year 2002
_journal_page_first 3157
_journal_name_full 'Chem.-Eur.J. '
loop_
_publ_author_name
"C.Hirel"
"D.Luneau"
"J.Pecaut"
"L.Ohrstrom"
"G.Bussiere"
"C.Reber"
_chemical_name_systematic
;
2-Cyano-4,4,5,5-tetramethylimidazoline-1-oxyl-3-oxide radical
;
_chemical_melting_point 422.15
_cell_volume    474.270
_exptl_crystal_density_diffrn 1.276
_diffrn_ambient_temperature 298
#These two values have been output from a single CSD field.
_refine_ls_R_factor_gt 0.0489
_refine_ls_wR_factor_gt 0.0489
_symmetry_cell_setting tetragonal
_symmetry_space_group_name_H-M 'P -4 21 m'
_symmetry_Int_Tables_number 113
loop_
_symmetry_equiv_pos_site_id
_symmetry_equiv_pos_as_xyz
1 x,y,z
2 -x,-y,z
3 y,-x,-z
4 -y,x,-z
5 1/2-x,1/2+y,-z
6 1/2+x,1/2-y,-z
7 1/2-y,1/2-x,z
8 1/2+y,1/2+x,z
_cell_length_a 7.4050(7)
_cell_length_b 7.4050(7)
_cell_length_c 8.6492(12)
_cell_angle_alpha 90
_cell_angle_beta 90
_cell_angle_gamma 90
_cell_formula_units_Z 2
loop_
_atom_type_symbol
_atom_type_radius_bond
C 0.68
H 0.23
N 0.68
O 0.68
loop_
_atom_site_label
_atom_site_type_symbol
_atom_site_fract_x
_atom_site_fract_y
_atom_site_fract_z
O1 O 0.7181(2) 0.2181(2) -0.0211(3)
N1 N 0.60523(19) 0.10523(19) -0.0713(2)
N2 N 0.50000 0.00000 0.3079(4)
C1 C 0.50000 0.00000 0.1786(3)
C2 C 0.50000 0.00000 0.0148(3)
C3 C 0.5742(2) 0.0742(2) -0.2423(2)
C4 C 0.7537(3) 0.0178(4) -0.3107(3)
H1 H 0.794(4) -0.086(5) -0.271(3)
H2 H 0.825(5) 0.109(5) -0.305(4)
H3 H 0.738(4) -0.004(4) -0.411(4)
N1A N 0.39477(19) -0.10523(19) -0.0713(2)
O1A O 0.2819(2) -0.2181(2) -0.0211(3)
C3A C 0.4258(2) -0.0742(2) -0.2423(2)
C4G C 0.5178(3) 0.2537(4) -0.3107(3)
H1G H 0.414(4) 0.294(5) -0.271(3)
H2G H 0.609(5) 0.325(5) -0.305(4)
H3G H 0.496(4) 0.238(4) -0.411(4)
C4A C 0.2463(3) -0.0178(4) -0.3107(3)
H1A H 0.206(4) 0.086(5) -0.271(3)
H2A H 0.175(5) -0.109(5) -0.305(4)
H3A H 0.262(4) 0.004(4) -0.411(4)
C4F C 0.4822(3) -0.2537(4) -0.3107(3)
H1F H 0.586(4) -0.294(5) -0.271(3)
H2F H 0.391(5) -0.325(5) -0.305(4)
H3F H 0.504(4) -0.238(4) -0.411(4)
#END
