
#######################################################################
#
#                 Cambridge Crystallographic Data Centre
#                                CCDC
#
#######################################################################
#
# If this CIF has been generated from an entry in the Cambridge
# Structural Database, then it will include bibliographic, chemical,
# crystal, experimental, refinement or atomic coordinate data resulting
# from the CCDC's data processing and validation procedures.
#
#######################################################################

data_CSD_CIF_XOCDID
_audit_creation_date 2008-10-31
_audit_creation_method CSD-ConQuest-V1
_database_code_CSD XOCDID
_database_code_depnum_ccdc_archive 'CCDC 676654'
_chemical_formula_sum 'C11 H11 N1 O5'
_chemical_formula_moiety
;
C11 H11 N1 O5
;
_journal_coden_Cambridge 35
_journal_volume 73
_journal_year 2008
_journal_page_first 3935
_journal_name_full 'J.Org.Chem. '
loop_
_publ_author_name
"S.Hajra"
"A.K.Giri"
_chemical_name_systematic
;
4-[hydroxy(3-nitrophenyl)methyl]dihydrofuran-2(3H)-one
;
_cell_volume    531.562
_exptl_crystal_colour 'yellow'
_exptl_crystal_density_diffrn 1.482
_exptl_crystal_description 'Block'
_diffrn_ambient_temperature 293
#These two values have been output from a single CSD field.
_refine_ls_R_factor_gt 0.049
_refine_ls_wR_factor_gt 0.049
_symmetry_cell_setting monoclinic
_symmetry_space_group_name_H-M 'P 21'
_symmetry_Int_Tables_number 4
loop_
_symmetry_equiv_pos_site_id
_symmetry_equiv_pos_as_xyz
1 x,y,z
2 -x,1/2+y,-z
_cell_length_a 6.065(1)
_cell_length_b 5.9654(9)
_cell_length_c 14.695(2)
_cell_angle_alpha 90
_cell_angle_beta 91.142(5)
_cell_angle_gamma 90
_cell_formula_units_Z 2
loop_
_atom_type_symbol
_atom_type_radius_bond
C 0.68
H 0.23
N 0.68
O 0.68
loop_
_atom_site_label
_atom_site_type_symbol
_atom_site_fract_x
_atom_site_fract_y
_atom_site_fract_z
C1 C 0.1351(4) 0.2201(4) 0.59227(16)
H1 H 0.00610 0.12450 0.59570
H2 H 0.08800 0.37520 0.59570
C2 C 0.5176(3) 0.1483(5) 0.61914(14)
H3 H 0.60730 0.28030 0.63070
H4 H 0.59930 0.01740 0.63970
O1 O 0.4643(3) 0.1300(3) 0.52353(10)
O2 O 0.1813(3) 0.1849(4) 0.42926(12)
C3 C 0.2528(3) 0.1789(4) 0.50633(15)
C4 C 0.5673(3) -0.2706(4) 0.78161(14)
H5 H 0.55300 -0.36550 0.73160
C5 C 0.7353(4) -0.3009(4) 0.84588(14)
C6 C 0.2427(4) -0.0447(4) 0.72329(16)
H6 H 0.10240 -0.02170 0.75390
O3 O 0.2220(3) -0.2325(3) 0.66387(15)
H7 H 0.19140 -0.34440 0.69350
C7 C 0.4205(3) -0.0943(4) 0.79402(15)
C8 C 0.2985(3) 0.1661(4) 0.66959(14)
H8 H 0.30620 0.29390 0.71140
C9 C 0.7643(4) -0.1653(5) 0.92029(16)
H9 H 0.88060 -0.18860 0.96140
O4 O 0.8490(4) -0.6239(4) 0.77144(14)
O5 O 1.0497(4) -0.5018(5) 0.88304(16)
C10 C 0.6166(5) 0.0063(6) 0.93256(16)
H10 H 0.63050 0.09930 0.98320
N1 N 0.8885(4) -0.4890(4) 0.83231(13)
C11 C 0.4477(4) 0.0405(5) 0.86969(15)
H11 H 0.34950 0.15780 0.87860
#END
