
#######################################################################
#
#                 Cambridge Crystallographic Data Centre
#                                CCDC
#
#######################################################################
#
# If this CIF has been generated from an entry in the Cambridge
# Structural Database, then it will include bibliographic, chemical,
# crystal, experimental, refinement or atomic coordinate data resulting
# from the CCDC's data processing and validation procedures.
#
#######################################################################

data_CSD_CIF_XOCROX
_audit_creation_date 2008-10-31
_audit_creation_method CSD-ConQuest-V1
_database_code_CSD XOCROX
_database_code_depnum_ccdc_archive 'CCDC 647649'
_chemical_formula_sum 'C18 H26 N2 O4'
_chemical_formula_moiety
;
C18 H26 N2 O4
;
_journal_coden_Cambridge 35
_journal_volume 73
_journal_year 2008
_journal_page_first 3318
_journal_name_full 'J.Org.Chem. '
loop_
_publ_author_name
"C.E.Katz"
"T.Ribelin"
"D.Withrow"
"Y.Basseri"
"A.K.Manukyan"
"A.Bermudez"
"C.G.Nuera"
"V.W.Day"
"D.R.Powell"
"J.L.Poutsma"
"J.Aube"
_chemical_name_systematic
;
5-t-Butyl-1-(2'-hydroxy-1'-(4''-nitrophenyl)ethyl)-azepan-2-one
;
_chemical_melting_point 433.55
_cell_volume   3511.360
_exptl_crystal_colour 'colorless'
_exptl_crystal_density_diffrn 1.265
_exptl_special_details
;
Melting point range 433.55-440.65K

;
_exptl_crystal_description 'Rectangular'
_diffrn_ambient_temperature 100
#These two values have been output from a single CSD field.
_refine_ls_R_factor_gt 0.0645
_refine_ls_wR_factor_gt 0.0645
_symmetry_cell_setting orthorhombic
_symmetry_space_group_name_H-M 'P c a 21'
_symmetry_Int_Tables_number 29
loop_
_symmetry_equiv_pos_site_id
_symmetry_equiv_pos_as_xyz
1 x,y,z
2 -x,-y,1/2+z
3 1/2+x,-y,z
4 1/2-x,y,1/2+z
_cell_length_a 22.6425(13)
_cell_length_b 6.5325(4)
_cell_length_c 23.7395(13)
_cell_angle_alpha 90
_cell_angle_beta 90
_cell_angle_gamma 90
_cell_formula_units_Z 8
loop_
_atom_type_symbol
_atom_type_radius_bond
C 0.68
H 0.23
N 0.68
O 0.68
loop_
_atom_site_label
_atom_site_type_symbol
_atom_site_fract_x
_atom_site_fract_y
_atom_site_fract_z
O1 O 0.39147(9) 0.5123(2) 0.42007(9)
O2 O 0.33740(9) 0.1719(3) 0.51245(9)
H1 H 0.3403(13) 0.128(5) 0.4792(16)
O3 O 0.08644(9) 1.1691(3) 0.46484(11)
O4 O 0.04041(9) 0.9422(4) 0.51392(11)
N1 N 0.33925(8) 0.6022(3) 0.49754(8)
N2 N 0.08334(11) 1.0010(3) 0.48764(14)
C1 C 0.38944(10) 0.5971(3) 0.46676(10)
C2 C 0.44345(10) 0.6909(4) 0.49303(11)
H2 H 0.43340 0.82900 0.50720
H3 H 0.47430 0.70670 0.46380
C3 C 0.46826(11) 0.5627(4) 0.54162(11)
H4 H 0.51110 0.59020 0.54470
H5 H 0.46350 0.41610 0.53210
C4 C 0.43957(11) 0.6017(4) 0.59946(11)
H6 H 0.44450 0.75110 0.60740
C5 C 0.37282(12) 0.5604(4) 0.59836(11)
H7 H 0.36650 0.41310 0.59070
H8 H 0.35660 0.58950 0.63620
C6 C 0.33786(10) 0.6843(4) 0.55511(10)
H9 H 0.29620 0.69180 0.56760
H10 H 0.35360 0.82560 0.55440
C7 C 0.28821(12) 0.4827(3) 0.47870(13)
H11 H 0.29550 0.44400 0.43850
C8 C 0.28374(11) 0.2834(4) 0.51261(11)
H12 H 0.27280 0.31620 0.55200
H13 H 0.25200 0.19710 0.49650
C9 C 0.47099(14) 0.4855(4) 0.64838(14)
C10 C 0.46428(15) 0.2512(4) 0.64377(13)
H14 H 0.48260 0.20360 0.60870
H15 H 0.42230 0.21540 0.64370
H16 H 0.48370 0.18580 0.67600
C11 C 0.44372(14) 0.5527(5) 0.70514(13)
H17 H 0.46760 0.49880 0.73620
H18 H 0.40340 0.49930 0.70810
H19 H 0.44290 0.70250 0.70710
C12 C 0.53625(13) 0.5370(6) 0.64985(14)
H20 H 0.55620 0.47120 0.61800
H21 H 0.55340 0.48740 0.68520
H22 H 0.54130 0.68570 0.64730
C13 C 0.23252(10) 0.6119(4) 0.47999(10)
C14 C 0.23202(10) 0.7973(4) 0.45099(10)
H23 H 0.26590 0.83740 0.43020
C15 C 0.18304(11) 0.9241(4) 0.45199(11)
H24 H 0.18280 1.04980 0.43190
C16 C 0.13434(11) 0.8632(4) 0.48306(11)
C17 C 0.13284(12) 0.6783(4) 0.51122(11)
H25 H 0.09860 0.63880 0.53170
C18 C 0.18173(12) 0.5510(4) 0.50929(13)
H26 H 0.18080 0.42230 0.52790
O5 O 0.36092(9) 0.0188(3) 0.40788(10)
O6 O 0.41501(8) -0.3449(3) 0.31510(8)
H27 H 0.406(2) -0.378(6) 0.348(2)
O7 O 0.66664(9) 0.6492(3) 0.36516(11)
O8 O 0.71525(9) 0.4164(3) 0.31976(11)
N3 N 0.41428(8) 0.0878(3) 0.32928(9)
N4 N 0.67032(11) 0.4795(3) 0.34411(13)
C19 C 0.36466(10) 0.0979(3) 0.35985(10)
C20 C 0.31197(10) 0.2030(4) 0.33389(11)
H28 H 0.32430 0.33880 0.31960
H29 H 0.28180 0.22550 0.36340
C21 C 0.28395(11) 0.0795(4) 0.28499(11)
H30 H 0.28430 -0.06730 0.29530
H31 H 0.24210 0.12160 0.28110
C22 C 0.31439(11) 0.1043(4) 0.22730(11)
H32 H 0.31440 0.25420 0.21860
C23 C 0.37905(11) 0.0376(4) 0.22974(11)
H33 H 0.39630 0.04940 0.19160
H34 H 0.38070 -0.10840 0.24080
C24 C 0.4168(1) 0.1624(4) 0.27086(10)
H35 H 0.45840 0.15940 0.25790
H36 H 0.40340 0.30660 0.27000
C25 C 0.46450(12) -0.0342(4) 0.34930(13)
H37 H 0.45620 -0.07190 0.38940
C26 C 0.46869(11) -0.2341(4) 0.31576(11)
H38 H 0.48030 -0.20220 0.27650
H39 H 0.50000 -0.32100 0.33240
C27 C 0.27992(15) -0.0027(4) 0.17847(16)
C28 C 0.27620(15) -0.2362(4) 0.18760(13)
H40 H 0.25640 -0.29970 0.15530
H41 H 0.25370 -0.26470 0.22200
H42 H 0.31610 -0.29250 0.19130
C29 C 0.30984(14) 0.0378(5) 0.12233(14)
H43 H 0.28390 -0.00700 0.09160
H44 H 0.34710 -0.03810 0.12060
H45 H 0.31780 0.18460 0.11850
C30 C 0.21686(13) 0.0865(5) 0.17480(13)
H46 H 0.19720 0.03390 0.14100
H47 H 0.21900 0.23620 0.17280
H48 H 0.19430 0.04610 0.20830
C31 C 0.52064(11) 0.0924(3) 0.34899(10)
C32 C 0.52100(11) 0.2783(4) 0.37823(10)
H49 H 0.48700 0.31840 0.39900
C33 C 0.57013(11) 0.4047(4) 0.37743(11)
H50 H 0.57020 0.53090 0.39730
C34 C 0.61890(11) 0.3424(4) 0.34704(11)
C35 C 0.62141(11) 0.1583(4) 0.31919(11)
H51 H 0.65620 0.11770 0.29970
C36 C 0.57152(12) 0.0320(4) 0.32020(12)
H52 H 0.57230 -0.09590 0.30110
#END
