
#######################################################################
#
#                 Cambridge Crystallographic Data Centre
#                                CCDC
#
#######################################################################
#
# If this CIF has been generated from an entry in the Cambridge
# Structural Database, then it will include bibliographic, chemical,
# crystal, experimental, refinement or atomic coordinate data resulting
# from the CCDC's data processing and validation procedures.
#
#######################################################################

data_CSD_CIF_XOCYOE
_audit_creation_date 2008-10-31
_audit_creation_method CSD-ConQuest-V1
_database_code_CSD XOCYOE
_database_code_depnum_ccdc_archive 'CCDC 675060'
_chemical_formula_sum 'C12 H11 N1 O6'
_chemical_formula_moiety
;
C12 H11 N1 O6
;
_journal_coden_Cambridge 177
_journal_volume 6
_journal_year 2008
_journal_page_first 2295
_journal_name_full 'Org.Biomol.Chem. '
loop_
_publ_author_name
"S.Grabowsky"
"T.Pfeuffer"
"W.Morgenroth"
"C.Paulmann"
"T.Schirmeister"
"P.Luger"
_chemical_name_systematic
;
Dimethyl 2-(4-nitrophenyl)ethene-1,1-dicarboxylate
;
_cell_volume    583.688
_exptl_crystal_colour 'colorless'
_exptl_crystal_density_diffrn 1.509
_exptl_crystal_description 'block'
_exptl_crystal_preparation 'dichloromethane/methanol'
_diffrn_ambient_temperature 9
_diffrn_radiation_probe x-ray
_diffrn_source synchrotron
#These two values have been output from a single CSD field.
_refine_ls_R_factor_gt 0.027
_refine_ls_wR_factor_gt 0.027
_symmetry_cell_setting triclinic
_symmetry_space_group_name_H-M 'P -1'
_symmetry_Int_Tables_number 2
loop_
_symmetry_equiv_pos_site_id
_symmetry_equiv_pos_as_xyz
1 x,y,z
2 -x,-y,-z
_cell_length_a 7.769(2)
_cell_length_b 7.865(1)
_cell_length_c 10.811(1)
_cell_angle_alpha 87.61(2)
_cell_angle_beta 85.41(4)
_cell_angle_gamma 62.43(1)
_cell_formula_units_Z 2
loop_
_atom_type_symbol
_atom_type_radius_bond
C 0.68
H 0.23
N 0.68
O 0.68
loop_
_atom_site_label
_atom_site_type_symbol
_atom_site_fract_x
_atom_site_fract_y
_atom_site_fract_z
O1 O -0.52357(5) 0.71299(5) -0.18990(3)
O2 O -0.41098(5) 0.48129(5) -0.32270(3)
O3 O 0.09381(5) 0.35765(5) 0.32816(3)
O4 O -0.01277(5) 0.13505(5) 0.34696(3)
O5 O 0.56259(5) -0.18143(5) 0.17079(3)
O6 O 0.43757(5) -0.07003(4) 0.36257(3)
N1 N -0.40670(5) 0.55028(5) -0.22390(3)
C1 C 0.21316(6) 0.08710(5) 0.07658(3)
C2 C 0.24200(5) 0.08068(5) 0.19811(3)
C3 C 0.04465(5) 0.21090(5) 0.00766(3)
C4 C -0.11545(5) 0.37841(5) 0.05375(3)
C5 C 0.04981(5) 0.15634(5) -0.11519(3)
C6 C -0.09913(5) 0.26493(5) -0.19085(3)
C7 C -0.26466(5) 0.49004(5) -0.02163(3)
C8 C -0.25338(5) 0.43115(5) -0.14257(3)
C9 C 0.10083(5) 0.20883(5) 0.29682(3)
C10 C -0.15082(5) 0.24285(5) 0.44727(3)
C11 C 0.43120(5) -0.07037(5) 0.23938(3)
C12 C 0.61700(6) -0.21158(5) 0.41080(3)
H1 H 0.33317 -0.01886 0.02081
H2 H -0.12331 0.42979 0.14647
H3 H 0.17261 0.02671 -0.15100
H4 H -0.09529 0.22143 -0.28519
H5 H -0.38509 0.62353 0.01130
H6 H -0.27979 0.34801 0.40833
H7 H -0.08693 0.30752 0.50022
H8 H -0.17958 0.13964 0.49942
H9 H 0.58569 -0.21351 0.50852
H10 H 0.65686 -0.34780 0.37124
H11 H 0.72571 -0.16585 0.39030
#END
