
#######################################################################
#
#                 Cambridge Crystallographic Data Centre
#                                CCDC
#
#######################################################################
#
# If this CIF has been generated from an entry in the Cambridge
# Structural Database, then it will include bibliographic, chemical,
# crystal, experimental, refinement or atomic coordinate data resulting
# from the CCDC's data processing and validation procedures.
#
#######################################################################

data_CSD_CIF_XOCZUL
_audit_creation_date 2008-10-31
_audit_creation_method CSD-ConQuest-V1
_database_code_CSD XOCZUL
_database_code_depnum_ccdc_archive 'CCDC 286926'
_chemical_formula_sum 'C10 H10 N16 O10'
_chemical_formula_moiety
;
C10 H10 N16 O10
;
_journal_coden_Cambridge 206
_journal_volume 38
_journal_year 2008
_journal_page_first 767
_journal_name_full 'Synth.Commun. '
loop_
_publ_author_name
"R.Duddu"
"P.R.Dave"
"R.Damavarapu"
"R.Surapaneni"
"R.Gilardi"
"D.Parrish"
_chemical_name_systematic
;
1,1'-(1,3,8,10-tetranitrohexahydro-1H-5,2,6-(epiminomethanetriylimino)imidazo(
4,5-b)pyrazine-4,7-diyl)bis(2-azidoethanone)
;
_chemical_name_common
;
Tetranitro-diazidoacetylhexaazaisowurtzitane; 
4,10-bis(2-Azidoethanone)-2,6,8,12-tetranitro-2,4,6,8,10,12-hexaazatetracyclo[
5.5.0$3,11!.0$5,9!]dodecane
;
_cell_volume   1821.302
_exptl_crystal_colour 'colorless'
_exptl_crystal_density_diffrn 1.876
_exptl_crystal_description 'prism'
_diffrn_ambient_temperature 93
#These two values have been output from a single CSD field.
_refine_ls_R_factor_gt 0.0378
_refine_ls_wR_factor_gt 0.0378
_symmetry_cell_setting monoclinic
_symmetry_space_group_name_H-M 'P 21/n'
_symmetry_Int_Tables_number 14
loop_
_symmetry_equiv_pos_site_id
_symmetry_equiv_pos_as_xyz
1 x,y,z
2 1/2-x,1/2+y,1/2-z
3 -x,-y,-z
4 -1/2+x,-1/2-y,-1/2+z
_cell_length_a 10.943(5)
_cell_length_b 12.186(6)
_cell_length_c 14.535(6)
_cell_angle_alpha 90
_cell_angle_beta 110.006(10)
_cell_angle_gamma 90
_cell_formula_units_Z 4
loop_
_atom_type_symbol
_atom_type_radius_bond
C 0.68
H 0.23
N 0.68
O 0.68
loop_
_atom_site_label
_atom_site_type_symbol
_atom_site_fract_x
_atom_site_fract_y
_atom_site_fract_z
C1 C -0.30387(11) 0.81644(10) 0.05120(9)
H1 H -0.32850 0.88860 0.07250
N1 N -0.26586(10) 0.73685(9) 0.13130(7)
N2 N -0.16975(10) 0.76118(9) 0.21791(8)
O1 O -0.13708(9) 0.85726(8) 0.23157(7)
O2 O -0.12907(9) 0.68490(8) 0.27445(7)
C2 C -0.27834(11) 0.62484(10) 0.09343(9)
H2 H -0.30690 0.57370 0.13590
N3 N -0.16135(9) 0.58563(8) 0.07990(7)
C3 C -0.08396(11) 0.50147(10) 0.13198(8)
O3 O 0.01817(8) 0.47982(8) 0.12125(6)
C4 C -0.13438(13) 0.43738(11) 0.20073(10)
H3 H -0.12480 0.48260 0.25940
H4 H -0.22820 0.42240 0.16770
N4 N -0.06590(12) 0.33355(10) 0.23142(9)
N5 N 0.05249(12) 0.34174(9) 0.27435(9)
N6 N 0.16059(13) 0.33565(11) 0.31377(10)
C5 C -0.11731(11) 0.64898(10) 0.01364(8)
H5 H -0.03890 0.61380 0.00580
N7 N -0.08629(9) 0.76218(8) 0.05092(7)
N8 N 0.03283(10) 0.80423(9) 0.04225(8)
O4 O 0.04774(9) 0.90234(8) 0.05273(7)
O5 O 0.10848(9) 0.73792(9) 0.03117(8)
C6 C -0.19886(11) 0.83011(10) -0.00024(9)
H6 H -0.17410 0.90870 -0.00300
N9 N -0.23922(10) 0.77854(8) -0.09663(7)
N10 N -0.33357(10) 0.82679(9) -0.17371(8)
O6 O -0.36204(10) 0.92093(8) -0.16199(7)
O7 O -0.37682(9) 0.77178(8) -0.24808(7)
C7 C -0.22788(11) 0.65958(10) -0.08828(9)
H7 H -0.19960 0.62830 -0.14130
N11 N -0.34505(9) 0.60645(9) -0.08628(7)
C8 C -0.40485(11) 0.51885(10) -0.14374(9)
O8 O -0.49234(9) 0.46964(8) -0.12880(7)
C9 C -0.35639(12) 0.48851(11) -0.22658(9)
H8 H -0.36150 0.55380 -0.26830
H9 H -0.26400 0.46620 -0.19870
N12 N -0.43169(11) 0.39911(9) -0.28716(9)
N13 N -0.54956(11) 0.41890(9) -0.32546(9)
N14 N -0.65768(13) 0.42623(11) -0.36512(10)
C10 C -0.38836(11) 0.64118(10) -0.00779(9)
H10 H -0.46790 0.59940 -0.00990
N15 N -0.41590(9) 0.76000(9) -0.01630(8)
N16 N -0.53873(10) 0.79088(10) -0.00839(8)
O9 O -0.5468(1) 0.88442(9) 0.01613(8)
O10 O -0.62391(9) 0.72229(9) -0.03304(8)
#END
