
#######################################################################
#
#                 Cambridge Crystallographic Data Centre
#                                CCDC
#
#######################################################################
#
# If this CIF has been generated from an entry in the Cambridge
# Structural Database, then it will include bibliographic, chemical,
# crystal, experimental, refinement or atomic coordinate data resulting
# from the CCDC's data processing and validation procedures.
#
#######################################################################

data_CSD_CIF_XODGAA
_audit_creation_date 2014-06-25
_audit_creation_method CSD-ConQuest-V1
_database_code_CSD XODGAA
_database_code_depnum_ccdc_archive 'CCDC 1010278'
_chemical_formula_sum 'C25 H27 N1 O6'
_chemical_formula_moiety
;
C25 H27 N1 O6
;
_journal_coden_Cambridge 1336
_journal_volume 16
_journal_year 2014
_journal_page_first 2986
_journal_name_full 'Org.Lett. '
loop_
_publ_author_name
"Jingyun Ren"
"Yuan Liu"
"Liyan Song"
"Rongbiao Tong"
_chemical_name_systematic
;
4-(5-Isopropyl-2-methyl-2-vinyl-6,8-dioxabicyclo[3.2.1]oct-7-yl)phenyl 
4-nitrobenzoate
;
_cell_volume   3337.451
_exptl_crystal_colour 'colorless'
_exptl_crystal_density_diffrn 1.306
_exptl_special_details
;
Absolute configuration

;
_exptl_crystal_description 'block'
_diffrn_ambient_temperature 100.0
#These two values have been output from a single CSD field.
_refine_ls_R_factor_gt 0.0389
_refine_ls_wR_factor_gt 0.0389
_symmetry_cell_setting triclinic
_symmetry_space_group_name_H-M 'P 1'
_symmetry_Int_Tables_number 1
loop_
_symmetry_equiv_pos_site_id
_symmetry_equiv_pos_as_xyz
1 x,y,z
_cell_length_a 12.9525(3)
_cell_length_b 12.9574(3)
_cell_length_c 22.2532(4)
_cell_angle_alpha 98.9531(17)
_cell_angle_beta 92.3957(18)
_cell_angle_gamma 114.359(2)
_cell_formula_units_Z 6
loop_
_atom_type_symbol
_atom_type_radius_bond
C 0.68
H 0.23
N 0.68
O 0.68
loop_
_atom_site_label
_atom_site_type_symbol
_atom_site_fract_x
_atom_site_fract_y
_atom_site_fract_z
O1 O 0.7678(2) 1.45948(17) 0.57287(9)
O2 O 0.79909(16) 1.59969(14) 0.52426(8)
O3 O 0.47456(17) 1.20410(15) 0.26605(8)
O4 O 0.41191(14) 1.07268(13) 0.32664(7)
O5 O 0.12117(13) 0.72955(12) 0.08005(6)
O6 O 0.17145(12) 0.59105(11) 0.10279(6)
N1 N 0.75502(17) 1.49767(17) 0.52744(9)
C1 C 0.68143(18) 1.41347(18) 0.47365(10)
C2 C 0.68293(18) 1.45060(18) 0.41856(10)
H1 H 0.72900 1.52840 0.41580
C3 C 0.61619(19) 1.37220(19) 0.36778(10)
H2 H 0.61640 1.39580 0.32940
C4 C 0.54861(18) 1.25886(18) 0.3723(1)
C5 C 0.54665(18) 1.22388(18) 0.4283(1)
H3 H 0.49860 1.14670 0.43140
C6 C 0.61475(19) 1.30147(19) 0.47987(10)
H4 H 0.61550 1.27820 0.51830
C7 C 0.47623(19) 1.17788(19) 0.31527(10)
C8 C 0.3365(2) 0.99052(18) 0.27723(10)
C9 C 0.3742(2) 0.92220(19) 0.23833(10)
H5 H 0.45220 0.93550 0.24220
C10 C 0.2961(2) 0.83434(19) 0.19387(10)
H6 H 0.32080 0.78690 0.16700
C11 C 0.18181(19) 0.81447(17) 0.18802(9)
C12 C 0.14666(19) 0.88591(18) 0.22675(10)
H7 H 0.06890 0.87350 0.22290
C13 C 0.2250(2) 0.97529(18) 0.27101(10)
H8 H 0.20160 1.02540 0.29670
C14 C 0.09398(18) 0.71553(17) 0.14112(9)
H9 H 0.01650 0.71290 0.14560
C15 C 0.09140(17) 0.59622(17) 0.14439(9)
H10 H 0.11910 0.59480 0.18680
C16 C -0.02695(18) 0.49499(17) 0.12270(9)
C17 C -0.06718(18) 0.50837(18) 0.05949(10)
H11 H -0.13260 0.43560 0.03980
H12 H -0.09380 0.57030 0.06500
C18 C 0.02715(18) 0.53739(17) 0.01738(9)
H13 H 0.00460 0.56460 -0.01790
H14 H 0.03760 0.46710 0.00140
C19 C 0.13971(18) 0.63092(17) 0.05192(9)
C20 C 0.23964(19) 0.67296(18) 0.01471(10)
H15 H 0.30410 0.73870 0.04200
C21 C 0.2809(2) 0.5801(2) -0.00607(11)
H16 H 0.30130 0.55390 0.02980
H17 H 0.34800 0.61190 -0.02780
H18 H 0.22000 0.51470 -0.03350
C22 C 0.2121(2) 0.7186(2) -0.04021(11)
H19 H 0.15600 0.65420 -0.07040
H20 H 0.28200 0.75660 -0.05880
H21 H 0.18060 0.77410 -0.02660
C23 C -0.01440(19) 0.38312(18) 0.12101(10)
H22 H 0.03380 0.38160 0.15390
C24 C -0.0624(2) 0.28850(19) 0.07948(11)
H23 H -0.11150 0.28490 0.04550
H24 H -0.04810 0.22340 0.08330
C25 C -0.1110(2) 0.4978(2) 0.1691(1)
H25 H -0.08010 0.49590 0.20970
H26 H -0.18440 0.43070 0.15630
H27 H -0.12190 0.56870 0.17090
O7 O 1.12632(17) 1.2061(2) 0.56946(10)
O8 O 1.15077(17) 1.28881(17) 0.49025(12)
O9 O 0.74797(15) 0.69542(13) 0.38499(7)
O10 O 0.74731(13) 0.79941(12) 0.31284(6)
O11 O 0.41004(12) 0.45678(11) 0.09193(6)
O12 O 0.44835(12) 0.30538(11) 0.10238(6)
N2 N 1.10660(18) 1.2056(2) 0.51470(12)
C26 C 1.02444(19) 1.0959(2) 0.47630(11)
C27 C 0.9670(2) 1.0030(2) 0.50408(11)
H28 H 0.98030 1.00890 0.54710
C28 C 0.88982(19) 0.9012(2) 0.46745(10)
H29 H 0.85070 0.83510 0.48490
C29 C 0.86984(18) 0.89623(18) 0.40472(10)
C30 C 0.9272(2) 0.99086(19) 0.37856(11)
H30 H 0.91230 0.98640 0.33580
C31 C 1.0070(2) 1.09292(19) 0.41481(12)
H31 H 1.04810 1.15850 0.39740
C32 C 0.78300(18) 0.78565(17) 0.36783(9)
C33 C 0.65581(19) 0.70278(17) 0.27644(9)
C34 C 0.67163(19) 0.60653(18) 0.25073(10)
H32 H 0.74180 0.60170 0.25950
C35 C 0.5821(2) 0.51743(18) 0.21186(10)
H33 H 0.59120 0.45060 0.19390
C36 C 0.47916(18) 0.52434(17) 0.19874(9)
C37 C 0.46635(19) 0.62148(18) 0.22641(10)
H34 H 0.39600 0.62630 0.21850
C38 C 0.55505(19) 0.71192(18) 0.26551(10)
H35 H 0.54610 0.77840 0.28420
C39 C 0.38415(18) 0.43280(17) 0.15230(9)
H36 H 0.30960 0.43490 0.16030
C40 C 0.37357(18) 0.30917(17) 0.14763(9)
H37 H 0.40180 0.29830 0.18760
C41 C 0.25287(19) 0.21429(18) 0.12415(10)
C42 C 0.21143(19) 0.2420(2) 0.06541(10)
H38 H 0.14290 0.17400 0.04410
H39 H 0.18950 0.30670 0.07660
C43 C 0.30374(18) 0.27481(18) 0.02191(9)
H40 H 0.30890 0.20430 0.00070
H41 H 0.28260 0.31120 -0.00950
C44 C 0.41934(17) 0.35817(16) 0.05703(9)
C45 C 0.51587(18) 0.39723(17) 0.01752(9)
H42 H 0.51570 0.32670 -0.00830
C46 C 0.63265(19) 0.46267(19) 0.05615(10)
H43 H 0.63120 0.52540 0.08650
H44 H 0.69140 0.49490 0.02940
H45 H 0.64990 0.40960 0.07720
C47 C 0.4982(2) 0.47096(19) -0.02565(10)
H46 H 0.42670 0.42570 -0.05270
H47 H 0.56200 0.49520 -0.05030
H48 H 0.49450 0.53920 -0.00160
C48 C 0.2606(2) 0.09927(19) 0.11395(11)
H49 H 0.30720 0.08900 0.14440
C49 C 0.2106(3) 0.0126(2) 0.06809(14)
H50 H 0.16300 0.01780 0.03620
H51 H 0.22200 -0.05560 0.06670
C50 C 0.1726(2) 0.2115(2) 0.17297(11)
H52 H 0.19950 0.19230 0.20970
H53 H 0.09540 0.15300 0.15710
H54 H 0.17150 0.28730 0.18340
O13 O 0.46491(14) 0.98181(12) 0.48042(7)
O14 O 0.46292(15) 0.87095(14) 0.54401(8)
O15 O 0.14083(14) 0.49009(13) 0.26346(7)
O16 O 0.06550(14) 0.40965(13) 0.34324(7)
O17 O -0.35941(13) -0.01171(13) 0.17413(7)
O18 O -0.27236(14) 0.01141(13) 0.08879(7)
N3 N 0.43411(15) 0.88626(15) 0.49427(8)
C51 C 0.35879(17) 0.78441(17) 0.4490(1)
C52 C 0.35229(18) 0.79426(18) 0.3880(1)
H55 H 0.39550 0.86520 0.37550
C53 C 0.28084(18) 0.69759(18) 0.34584(10)
H56 H 0.27560 0.70110 0.30360
C54 C 0.21632(17) 0.59481(17) 0.36528(9)
C55 C 0.22390(18) 0.58801(18) 0.42688(10)
H57 H 0.17900 0.51810 0.43980
C56 C 0.29719(18) 0.68351(18) 0.46941(10)
H58 H 0.30490 0.67970 0.51160
C57 C 0.13884(18) 0.49457(17) 0.31735(10)
C58 C -0.0128(2) 0.30942(18) 0.30255(9)
C59 C -0.1191(2) 0.30083(18) 0.28427(10)
H59 H -0.13870 0.36340 0.29640
C60 C -0.1978(2) 0.19833(18) 0.24746(10)
H60 H -0.27200 0.19070 0.23470
C61 C -0.16849(18) 0.10748(17) 0.22941(9)
C62 C -0.05915(19) 0.11974(19) 0.24901(9)
H61 H -0.03870 0.05770 0.23700
C63 C 0.01940(19) 0.22076(19) 0.28553(9)
H62 H 0.09360 0.22910 0.29860
C64 C -0.24843(18) -0.00594(17) 0.18897(9)
H63 H -0.25580 -0.07070 0.21030
C65 C -0.20657(18) -0.02587(17) 0.12562(9)
H64 H -0.12310 0.02380 0.12700
C66 C -0.23443(18) -0.15372(17) 0.10063(10)
C67 C -0.36307(19) -0.22381(18) 0.10595(11)
H65 H -0.38950 -0.30200 0.08070
H66 H -0.37250 -0.23230 0.14910
C68 C -0.4376(2) -0.1672(2) 0.08528(12)
H67 H -0.51250 -0.20120 0.10090
H68 H -0.45090 -0.18370 0.04000
C69 C -0.3823(2) -0.0358(2) 0.10828(10)
C70 C -0.4554(3) 0.0240(3) 0.08950(12)
H69 H -0.53150 -0.01350 0.10440
C71 C -0.4039(3) 0.1499(3) 0.11836(16)
H70 H -0.40930 0.15820 0.16250
H71 H -0.44530 0.18800 0.10000
H72 H -0.32360 0.18570 0.11140
C72 C -0.4750(3) 0.0076(3) 0.01991(13)
H73 H -0.40220 0.04750 0.00420
H74 H -0.52810 0.03970 0.00880
H75 H -0.50740 -0.07490 0.00200
C73 C -0.2121(2) -0.16574(18) 0.03431(10)
H76 H -0.25230 -0.14060 0.00770
C74 C -0.1433(3) -0.2071(2) 0.00936(13)
H77 H -0.10090 -0.23350 0.03380
H78 H -0.13600 -0.21050 -0.03310
C75 C -0.1618(2) -0.19268(19) 0.13903(11)
H79 H -0.08080 -0.14670 0.13610
H80 H -0.18140 -0.27440 0.12370
H81 H -0.17640 -0.18190 0.18190
O19 O 0.32378(16) 0.40424(15) 0.31406(8)
O20 O 0.29010(15) 0.26424(13) 0.36322(8)
O21 O 0.61704(14) 0.65737(13) 0.62109(7)
O22 O 0.67621(13) 0.79218(12) 0.56204(7)
O23 O 0.94859(12) 1.14154(12) 0.80954(6)
O24 O 1.11923(12) 1.14117(11) 0.79507(6)
N4 N 0.33613(16) 0.36681(15) 0.35985(8)
C76 C 0.40897(18) 0.45010(17) 0.4141(1)
C77 C 0.41007(18) 0.41112(17) 0.46848(10)
H82 H 0.36600 0.33260 0.47080
C78 C 0.47774(18) 0.49048(17) 0.5195(1)
H83 H 0.47960 0.46640 0.55760
C79 C 0.54284(17) 0.60471(17) 0.51548(9)
C80 C 0.54123(17) 0.64131(17) 0.45995(10)
H84 H 0.58630 0.71950 0.45740
C81 C 0.47354(18) 0.56320(18) 0.40827(10)
H85 H 0.47170 0.58670 0.37000
C82 C 0.61465(18) 0.68423(17) 0.57207(9)
C83 C 0.74594(19) 0.87742(17) 0.61228(9)
C84 C 0.71409(18) 0.96413(17) 0.63369(9)
H86 H 0.64310 0.96130 0.61850
C85 C 0.78898(18) 1.05664(17) 0.67844(9)
H87 H 0.76870 1.11770 0.69340
C86 C 0.89205(18) 1.06111(17) 0.70142(9)
C87 C 0.91902(19) 0.96938(18) 0.68041(10)
H88 H 0.98800 0.96970 0.69680
C88 C 0.8457(2) 0.87705(18) 0.63549(10)
H89 H 0.86450 0.81470 0.62110
C89 C 0.96978(18) 1.16524(17) 0.74891(9)
H90 H 0.95400 1.23290 0.74370
C90 C 1.09837(18) 1.19925(16) 0.74923(9)
H91 H 1.11500 1.16880 0.70850
C91 C 1.17389(17) 1.33021(16) 0.76849(9)
C92 C 1.13510(18) 1.37196(17) 0.82833(9)
H92 H 1.19290 1.45000 0.84750
H93 H 1.06240 1.37740 0.81870
C93 C 1.11839(18) 1.29012(16) 0.87378(9)
H94 H 1.07420 1.30710 0.90610
H95 H 1.19380 1.30370 0.89370
C94 C 1.05540(17) 1.16300(17) 0.84199(9)
C95 C 1.03652(18) 1.07824(17) 0.88554(9)
H96 H 1.11190 1.09860 0.90920
C96 C 0.9933(2) 0.95443(18) 0.85074(11)
H97 H 0.92170 0.93370 0.82510
H98 H 0.98000 0.90220 0.88000
H99 H 1.05030 0.94770 0.82480
C97 C 0.9551(2) 1.0877(2) 0.93148(10)
H100 H 0.98560 1.16690 0.95480
H101 H 0.94720 1.03440 0.95960
H102 H 0.88030 1.06780 0.90950
C98 C 1.29715(18) 1.34748(17) 0.77616(10)
H103 H 1.31560 1.29400 0.74980
C99 C 1.3810(2) 1.4275(2) 0.81485(11)
H104 H 1.36760 1.48340 0.84230
H105 H 1.45530 1.42980 0.81550
C100 C 1.1589(2) 1.39238(18) 0.71812(10)
H106 H 1.07800 1.37520 0.70960
H107 H 1.18580 1.36610 0.68080
H108 H 1.20330 1.47580 0.73160
O25 O -0.36683(16) 0.00686(14) 0.34404(7)
O26 O -0.37675(13) -0.09959(13) 0.41153(8)
O27 O -0.03845(13) 0.38917(13) 0.62311(7)
O28 O 0.04809(13) 0.46664(13) 0.54456(7)
O29 O 0.42481(13) 0.90716(11) 0.72707(6)
O30 O 0.37024(12) 0.81085(11) 0.80499(6)
N5 N -0.34081(15) -0.00554(15) 0.39511(8)
C101 C -0.26258(18) 0.09726(18) 0.43922(10)
C102 C -0.25794(18) 0.09088(18) 0.50074(10)
H109 H -0.30410 0.02190 0.51420
C103 C -0.18429(18) 0.18760(19) 0.54193(10)
H110 H -0.18130 0.18640 0.58450
C104 C -0.11425(18) 0.28703(18) 0.52144(10)
C105 C -0.11955(18) 0.29076(18) 0.45935(9)
H111 H -0.07120 0.35830 0.44550
C106 C -0.19634(19) 0.19458(18) 0.41759(10)
H112 H -0.20270 0.19630 0.37510
C107 C -0.03413(18) 0.38445(17) 0.56911(10)
C108 C 0.14079(18) 0.55022(18) 0.58684(9)
C109 C 0.13394(19) 0.64666(19) 0.61848(10)
H113 H 0.06570 0.65690 0.61370
C110 C 0.22826(19) 0.72915(18) 0.65757(10)
H114 H 0.22450 0.79640 0.67940
C111 C 0.32767(18) 0.71417(17) 0.66500(9)
C112 C 0.33247(19) 0.61578(17) 0.63194(9)
H115 H 0.40050 0.60510 0.63640
C113 C 0.23905(19) 0.53338(17) 0.59266(9)
H116 H 0.24260 0.46650 0.57020
C114 C 0.43053(17) 0.79868(16) 0.70965(9)
H117 H 0.50240 0.81020 0.69090
C115 C 0.43440(17) 0.75908(17) 0.77161(9)
H118 H 0.39490 0.67310 0.76590
C116 C 0.55616(18) 0.80468(18) 0.80566(9)
C117 C 0.61354(18) 0.93616(18) 0.80882(10)
H119 H 0.68280 0.97050 0.83890
H120 H 0.63760 0.95200 0.76830
C118 C 0.53396(19) 0.99355(17) 0.82716(10)
H121 H 0.52880 0.99940 0.87170
H122 H 0.56590 1.07260 0.81830
C119 C 0.41499(18) 0.92407(16) 0.79219(9)
C120 C 0.3291(2) 0.97457(19) 0.80410(11)
H123 H 0.25330 0.91570 0.78290
C121 C 0.3574(3) 1.0834(2) 0.77742(14)
H124 H 0.43160 1.14310 0.79720
H125 H 0.29840 1.11120 0.78470
H126 H 0.36050 1.06580 0.73330
C122 C 0.3165(2) 0.9975(2) 0.87252(12)
H127 H 0.30410 0.92840 0.88950
H128 H 0.25110 1.01640 0.87780
H129 H 0.38600 1.06220 0.89400
C123 C 0.54279(19) 0.77878(18) 0.86996(9)
H130 H 0.50110 0.81150 0.89410
C124 C 0.5830(2) 0.7158(2) 0.89570(11)
H131 H 0.62530 0.68110 0.87350
H132 H 0.56960 0.70500 0.93640
C125 C 0.6245(2) 0.7476(2) 0.77164(10)
H133 H 0.58590 0.66400 0.76910
H134 H 0.70120 0.77750 0.79370
H135 H 0.63030 0.76480 0.73020
O31 O -0.05664(18) -0.38405(16) 0.33376(9)
O32 O -0.06132(15) -0.45780(14) 0.41486(10)
O33 O 0.31650(14) 0.14920(12) 0.49820(7)
O34 O 0.32367(13) 0.06089(12) 0.57713(7)
O35 O 0.65637(13) 0.41788(13) 0.79485(7)
O36 O 0.81257(12) 0.39238(11) 0.76842(6)
N6 N -0.02923(17) -0.37624(17) 0.38803(10)
C126 C 0.04813(18) -0.26125(18) 0.42358(11)
C127 C 0.09776(19) -0.17231(19) 0.39264(10)
H136 H 0.08020 -0.18330 0.34960
C128 C 0.17418(19) -0.06610(19) 0.42598(10)
H137 H 0.20900 -0.00300 0.40570
C129 C 0.20013(18) -0.05123(17) 0.48865(10)
C130 C 0.14792(19) -0.14323(18) 0.51901(10)
H138 H 0.16520 -0.13280 0.56210
C131 C 0.0711(2) -0.24930(18) 0.48619(11)
H139 H 0.03490 -0.31250 0.50620
C132 C 0.28561(18) 0.06447(17) 0.52082(10)
C133 C 0.41334(18) 0.16200(17) 0.61166(9)
C134 C 0.5059(2) 0.1485(2) 0.63455(12)
H140 H 0.51060 0.07680 0.62420
C135 C 0.5929(2) 0.2416(2) 0.67321(12)
H141 H 0.65750 0.23320 0.68940
C136 C 0.58616(18) 0.34648(18) 0.6882(1)
C137 C 0.49214(19) 0.35723(18) 0.66391(9)
H142 H 0.48740 0.42910 0.67360
C138 C 0.40385(19) 0.26477(19) 0.62536(10)
H143 H 0.33900 0.27260 0.60900
C139 C 0.67398(19) 0.44524(18) 0.73462(9)
H144 H 0.66470 0.51760 0.73270
C140 C 0.79925(17) 0.46737(16) 0.73014(9)
H145 H 0.81120 0.44390 0.68700
C141 C 0.88455(18) 0.59235(17) 0.75699(9)
C142 C 0.85503(19) 0.62522(17) 0.82168(10)
H146 H 0.91820 0.69790 0.84340
H147 H 0.78550 0.63890 0.81790
C143 C 0.83517(18) 0.53080(17) 0.85929(9)
H148 H 0.90910 0.53150 0.87310
H149 H 0.79900 0.54540 0.89600
C144 C 0.75815(17) 0.41348(17) 0.82024(9)
C145 C 0.72351(19) 0.30959(17) 0.85174(10)
H150 H 0.68150 0.23920 0.81940
C146 C 0.6419(2) 0.31087(19) 0.89891(11)
H151 H 0.68160 0.37630 0.93280
H152 H 0.61500 0.23880 0.91460
H153 H 0.57650 0.31840 0.87960
C147 C 0.8254(2) 0.2976(2) 0.88037(11)
H154 H 0.87940 0.30210 0.85020
H155 H 0.79960 0.22300 0.89350
H156 H 0.86300 0.36000 0.91590
C148 C 1.00331(18) 0.59722(17) 0.75816(10)
H157 H 1.01560 0.54790 0.72580
C149 C 1.0916(2) 0.6627(2) 0.79934(11)
H158 H 1.08390 0.71360 0.83270
H159 H 1.16280 0.65900 0.79570
C150 C 0.8765(2) 0.67345(18) 0.71524(10)
H160 H 0.79940 0.66980 0.71270
H161 H 0.89320 0.64950 0.67420
H162 H 0.93190 0.75270 0.73220
#END
