
#######################################################################
#
#                 Cambridge Crystallographic Data Centre
#                                CCDC
#
#######################################################################
#
# If this CIF has been generated from an entry in the Cambridge
# Structural Database, then it will include bibliographic, chemical,
# crystal, experimental, refinement or atomic coordinate data resulting
# from the CCDC's data processing and validation procedures.
#
#######################################################################

data_CSD_CIF_XODPIQ
_audit_creation_date 2008-10-31
_audit_creation_method CSD-ConQuest-V1
_database_code_CSD XODPIQ
_database_code_depnum_ccdc_archive 'CCDC 604434'
_chemical_formula_sum 'C13 H21 N3 O1'
_chemical_formula_moiety
;
C13 H21 N3 O1
;
_journal_coden_Cambridge 36
_journal_volume 693
_journal_year 2008
_journal_page_first 2244
_journal_name_full 'J.Organomet.Chem. '
loop_
_publ_author_name
"S.Kocher"
"M.Lutz"
"A.L.Spek"
"B.Walfort"
"T.Ruffer"
"G.P.M.van Klink"
"G.van Koten"
"H.Lang"
_chemical_name_systematic
;
(E)-3,5-bis((Dimethylamino)methyl)benzaldehyde oxime
;
_chemical_melting_point 385.15
_cell_volume   2671.475
_exptl_crystal_colour 'colorless'
_exptl_crystal_density_diffrn 1.17
_exptl_crystal_description 'block'
_diffrn_ambient_temperature 150
#These two values have been output from a single CSD field.
_refine_ls_R_factor_gt 0.0402
_refine_ls_wR_factor_gt 0.0402
_symmetry_cell_setting orthorhombic
_symmetry_space_group_name_H-M 'P b c a'
_symmetry_Int_Tables_number 61
loop_
_symmetry_equiv_pos_site_id
_symmetry_equiv_pos_as_xyz
1 x,y,z
2 1/2-x,-y,1/2+z
3 1/2+x,1/2-y,-z
4 -x,1/2+y,1/2-z
5 -x,-y,-z
6 -1/2+x,y,-1/2-z
7 -1/2-x,-1/2+y,z
8 x,-1/2-y,-1/2+z
_cell_length_a 14.5429(1)
_cell_length_b 10.1344(1)
_cell_length_c 18.1260(2)
_cell_angle_alpha 90
_cell_angle_beta 90
_cell_angle_gamma 90
_cell_formula_units_Z 8
loop_
_atom_type_symbol
_atom_type_radius_bond
C 0.68
H 0.23
N 0.68
O 0.68
loop_
_atom_site_label
_atom_site_type_symbol
_atom_site_fract_x
_atom_site_fract_y
_atom_site_fract_z
O1 O -0.02224(8) 0.55057(10) 0.26734(6)
H1 H -0.05510 0.51570 0.22170
N1 N 0.01696(9) 0.43802(12) 0.29904(7)
N2 N 0.27074(9) 0.38480(12) 0.61127(7)
N3 N 0.10131(8) -0.06514(11) 0.35307(7)
C1 C 0.09203(9) 0.35865(14) 0.40802(8)
C2 C 0.11582(10) 0.38507(14) 0.48128(8)
H2 H 0.10410 0.47020 0.50110
C3 C 0.15618(10) 0.28964(14) 0.52569(8)
C4 C 0.17242(10) 0.16506(14) 0.49583(8)
H3 H 0.19830 0.09800 0.52600
C5 C 0.15131(10) 0.13693(14) 0.42216(8)
C6 C 0.11115(9) 0.23396(14) 0.37865(8)
H4 H 0.09660 0.21550 0.32860
C7 C 0.04809(11) 0.46285(14) 0.36400(8)
H5 H 0.03900 0.54720 0.38770
C8 C 0.18102(10) 0.32103(15) 0.60464(8)
H6 H 0.13340 0.37970 0.62580
H7 H 0.18130 0.23830 0.63370
C9 C 0.28018(14) 0.44044(17) 0.68519(9)
H8 H 0.23190 0.50640 0.69330
H9 H 0.34060 0.48240 0.69000
H10 H 0.27430 0.36990 0.72190
C10 C 0.34487(12) 0.29156(18) 0.59742(10)
H11 H 0.33930 0.25660 0.54720
H12 H 0.34110 0.21880 0.63290
H13 H 0.40420 0.33640 0.60280
C11 C 0.17671(10) 0.00297(14) 0.39098(8)
H14 H 0.22830 0.01440 0.35590
H15 H 0.19880 -0.05370 0.43180
C12 C 0.02710(12) -0.09788(17) 0.40435(10)
H16 H 0.05060 -0.15700 0.44280
H17 H -0.02280 -0.14180 0.37750
H18 H 0.00370 -0.01680 0.42710
C13 C 0.13733(12) -0.18696(15) 0.32008(9)
H19 H 0.16200 -0.24400 0.35900
H20 H 0.18630 -0.16510 0.28500
H21 H 0.08770 -0.23310 0.29420
#END
