
#######################################################################
#
#                 Cambridge Crystallographic Data Centre
#                                CCDC
#
#######################################################################
#
# If this CIF has been generated from an entry in the Cambridge
# Structural Database, then it will include bibliographic, chemical,
# crystal, experimental, refinement or atomic coordinate data resulting
# from the CCDC's data processing and validation procedures.
#
#######################################################################

data_CSD_CIF_XODWIW
_audit_creation_date 2002-09-13
_audit_creation_method CSD-ConQuest-V1
_database_code_CSD XODWIW
_database_code_depnum_ccdc_archive 'CCDC 174985'
_chemical_formula_sum 'C66 H96 N4 O6'
_chemical_formula_moiety
;
C66 H96 N4 O6
;
_journal_coden_Cambridge 1291
_journal_year 2002
_journal_page_first 1912
_journal_name_full 'Eur.J.Org.Chem. '
loop_
_publ_author_name
"S.Nakatsuji"
"M.Mizumoto"
"H.Ikemoto"
"H.Akutsu"
"J.Yamada"
_chemical_name_systematic
;
1,2-bis(N-((4'-(Decyloxy)biphenyl-4-yl)carbonyl)-N-(2,2,6,6-tetramethyl-1-oxyl
piperidin-4-yl)amino)ethane diradical
;
_chemical_melting_point 439.15
_cell_volume   3238.210
_exptl_crystal_colour 'orange'
_exptl_crystal_density_diffrn 1.068
_exptl_special_details
;
Melting point range 439.15-441.15K

;
_exptl_crystal_description 'needle'
_exptl_crystal_preparation 'ethanol/dichloromethane'
_diffrn_ambient_temperature 288
_refine_special_details
;
The terminal ethyl group of the decyl chain of one molecule is disordered.

;
#These two values have been output from a single CSD field.
_refine_ls_R_factor_gt 0.1
_refine_ls_wR_factor_gt 0.1
_symmetry_cell_setting triclinic
_symmetry_space_group_name_H-M 'P -1'
_symmetry_Int_Tables_number 2
loop_
_symmetry_equiv_pos_site_id
_symmetry_equiv_pos_as_xyz
1 x,y,z
2 -x,-y,-z
_cell_length_a 14.465(7)
_cell_length_b 23.19(1)
_cell_length_c 10.038(2)
_cell_angle_alpha 100.60(2)
_cell_angle_beta 94.02(4)
_cell_angle_gamma 100.27(3)
_cell_formula_units_Z 2
loop_
_atom_type_symbol
_atom_type_radius_bond
C 0.72
H 0.32
N 0.68
O 0.68
loop_
_atom_site_label
_atom_site_type_symbol
_atom_site_fract_x
_atom_site_fract_y
_atom_site_fract_z
O1 O 0.4991(5) 0.3850(3) 0.8225(7)
O2 O 1.0133(3) 0.1228(2) 0.4936(5)
O3 O 0.5546(4) -0.1139(3) 0.2847(5)
O4 O 0.4122(4) 0.3186(3) 1.3080(6)
O5 O 0.8106(3) -0.0034(2) 0.8887(4)
O6 O 1.2163(4) 0.2735(3) 1.0425(5)
N1 N 0.9008(4) 0.0376(3) 0.4611(5)
N2 N 0.6365(4) -0.0815(3) 0.3264(5)
N3 N 0.9444(4) 0.0644(2) 0.9723(5)
N4 N 1.1543(4) 0.2264(3) 1.0238(6)
C1 C -0.038(1) 0.6309(7) 1.438(2)
C2 C -0.0079(4) 0.568(2) 1.320(5)
C3? C 0.007(1) 0.562(1) 1.331(1)
C4 C 0.023(1) 0.5080(7) 1.240(1)
C5 C 0.122(1) 0.5024(7) 1.183(1)
C6 C 0.163(1) 0.4491(6) 1.128(1)
C7 C 0.244(1) 0.4614(5) 1.060(1)
C8 C 0.303(1) 0.4201(6) 1.001(2)
C9 C 0.3786(9) 0.4246(5) 0.940(1)
C10 C 0.4236(8) 0.3729(4) 0.873(1)
C11 C 0.5536(7) 0.3457(4) 0.7738(9)
C12 C 0.5261(6) 0.2834(4) 0.7615(8)
C13 C 0.6397(7) 0.3640(4) 0.739(1)
C14 C 0.5883(6) 0.2445(3) 0.7129(8)
C15 C 0.7033(6) 0.3260(4) 0.6922(9)
C16 C 0.6773(5) 0.2655(4) 0.6826(7)
C17 C 0.7435(5) 0.2234(3) 0.6328(7)
C18 C 0.7392(5) 0.1719(3) 0.6806(7)
C19 C 0.8120(5) 0.2362(4) 0.5451(8)
C20 C 0.7924(5) 0.1300(3) 0.6347(6)
C21 C 0.8651(5) 0.1933(4) 0.5026(6)
C22 C 0.8588(5) 0.1369(3) 0.5407(7)
C23 C 0.9290(5) 0.0999(4) 0.4977(6)
C24 C 0.9765(4) 0.0039(3) 0.4343(5)
C25 C 0.7999(4) 0.0096(3) 0.4302(6)
C26 C 0.7768(5) -0.0161(3) 0.2761(6)
C27 C 0.7727(4) -0.0419(3) 0.4987(6)
C28 C 0.6695(5) -0.0412(3) 0.2338(7)
C29 C 0.6679(5) -0.0711(3) 0.4716(7)
C30 C 0.6652(5) -0.0780(4) 0.0862(7)
C31 C 0.6098(5) 0.0066(4) 0.2327(7)
C32 C 0.6562(5) -0.1336(4) 0.5014(7)
C33 C 0.6039(5) -0.0364(3) 0.5535(6)
C34 C 0.154(1) 0.6748(6) 1.975(1)
C35 C 0.224(1) 0.654(1) 1.898(2)
C36 C 0.210(1) 0.651(1) 1.794(1)
C37 C 0.297(2) 0.604(1) 1.769(4)
C38 C 0.289(1) 0.5855(9) 1.661(2)
C39 C 0.328(1) 0.5338(8) 1.612(2)
C40 C 0.328(1) 0.4917(7) 1.549(2)
C41 C 0.379(1) 0.4402(8) 1.512(2)
C42 C 0.353(1) 0.3906(8) 1.457(2)
C43 C 0.4082(7) 0.3362(5) 1.436(1)
C44 C 0.4700(5) 0.2768(4) 1.259(1)
C45 C 0.4663(6) 0.2562(4) 1.1212(8)
C46 C 0.5274(5) 0.2543(4) 1.3594(7)
C47 C 0.5197(5) 0.2189(3) 1.0729(7)
C48 C 0.5852(5) 0.2162(4) 1.3054(7)
C49 C 0.5826(5) 0.1996(3) 1.1600(7)
C50 C 0.6485(5) 0.1595(3) 1.1015(6)
C51 C 0.6319(5) 0.1213(4) 0.9797(6)
C52 C 0.7405(5) 0.1634(3) 1.1830(6)
C53 C 0.6966(5) 0.0859(3) 0.9309(6)
C54 C 0.8042(5) 0.1272(3) 1.1264(7)
C55 C 0.7829(5) 0.0883(3) 0.9991(6)
C56 C 0.8487(5) 0.0485(3) 0.9469(6)
C57 C 0.9996(5) 0.0167(3) 0.9421(5)
C58 C 0.9948(5) 0.1264(3) 0.9924(6)
C59 C 1.0695(5) 0.1432(3) 1.1198(7)
C60 C 1.0488(5) 0.1401(3) 0.8685(6)
C61 C 1.1206(5) 0.2080(4) 1.1518(8)
C62 C 1.1002(5) 0.2054(4) 0.8816(7)
C63 C 1.2056(6) 0.2098(4) 1.2428(8)
C64 C 1.0547(6) 0.2475(4) 1.2095(7)
C65 C 1.1676(6) 0.2104(4) 0.7780(7)
C66 C 1.0284(6) 0.2467(4) 0.8660(7)
H1 H -0.05230 0.63600 1.52640
H2 H -0.02090 0.67150 1.41520
H3 H -0.11460 0.62460 1.38840
H4? H 0.06730 0.60180 1.35450
H5? H 0.01300 0.55860 1.43630
H6? H -0.07090 0.54020 1.31340
H7? H -0.00940 0.58110 1.23390
H8 H 0.03600 0.47940 1.30020
H9 H -0.01220 0.48280 1.15970
H10 H 0.12030 0.53060 1.11130
H11 H 0.16870 0.52790 1.25230
H12 H 0.15240 0.42400 1.18260
H13 H 0.10780 0.42820 1.04040
H14 H 0.24910 0.48820 1.00880
H15 H 0.29330 0.48010 1.14780
H16 H 0.30120 0.38720 1.06170
H17 H 0.24700 0.39010 0.92500
H18 H 0.37730 0.45620 0.88130
H19 H 0.43170 0.45010 1.01530
H20 H 0.36070 0.35060 0.79270
H21 H 0.40760 0.34190 0.92940
H22 H 0.46370 0.26500 0.79230
H23 H 0.65890 0.40830 0.74550
H24 H 0.56590 0.20060 0.70420
H25 H 0.76610 0.34130 0.66860
H26 H 0.69390 0.16210 0.75080
H27 H 0.81740 0.27440 0.50960
H28 H 0.78720 0.08860 0.66910
H29 H 0.91340 0.20690 0.43810
H30 H 0.95210 -0.02970 0.35820
H31 H 1.02700 0.02910 0.39880
H32 H 0.75910 0.03800 0.45600
H33 H 0.80070 0.01580 0.22430
H34 H 0.81250 -0.04710 0.24670
H35 H 0.81110 -0.07020 0.47030
H36 H 0.78790 -0.02700 0.59540
H37 H 0.60230 -0.08800 0.04330
H38 H 0.70540 -0.05850 0.03040
H39 H 0.68570 -0.11560 0.09200
H40 H 0.59610 0.02360 0.32450
H41 H 0.64470 0.04390 0.20320
H42 H 0.55320 -0.00490 0.17600
H43 H 0.65090 -0.13780 0.59660
H44 H 0.59270 -0.16130 0.45520
H45 H 0.70100 -0.15860 0.46970
H46 H 0.62420 0.00640 0.55360
H47 H 0.53970 -0.04730 0.51500
H48 H 0.60670 -0.03990 0.64720
H49 H 0.10470 0.69590 2.00020
H50 H 0.09790 0.63460 1.90280
H51 H 0.14140 0.64430 2.05280
H52? H 0.22720 0.72250 1.96260
H53 H 0.25860 0.66490 1.99080
H54 H 0.14810 0.63240 1.74580
H55 H 0.22570 0.68640 1.73520
H56 H 0.34450 0.64170 1.82530
H57 H 0.26880 0.59060 1.85510
H58 H 0.21140 0.56760 1.62050
H59 H 0.29570 0.61450 1.59510
H60? H 0.40330 0.54700 1.59510
H61? H 0.35250 0.51530 1.70080
H62 H 0.25070 0.47600 1.56570
H63 H 0.29690 0.50940 1.45930
H64 H 0.42210 0.45370 1.44320
H65 H 0.41490 0.44070 1.58870
H66 H 0.29300 0.38370 1.50900
H67 H 0.32410 0.39200 1.36790
H68 H 0.37490 0.30040 1.48990
H69 H 0.46990 0.34550 1.50480
H70 H 0.41550 0.26830 1.06460
H71 H 0.51850 0.26310 1.45830
H72 H 0.51240 0.20470 0.97210
H73 H 0.62940 0.20010 1.37060
H74 H 0.57300 0.11700 0.92370
H75 H 0.75280 0.18680 1.27450
H76 H 0.67790 0.05870 0.84000
H77 H 0.87010 0.13300 1.18010
H78 H 0.96890 -0.01220 0.86240
H79 H 1.06190 0.03380 0.91520
H80 H 0.95000 0.15630 1.00860
H81 H 1.03620 0.13040 1.19820
H82 H 1.11410 0.11730 1.10470
H83 H 1.09150 0.11230 0.85230
H84 H 1.00080 0.12600 0.78330
H85 H 1.23820 0.17750 1.21100
H86 H 1.25270 0.24670 1.23950
H87 H 1.20100 0.21110 1.33820
H88 H 1.08110 0.28910 1.21260
H89 H 0.99320 0.23920 1.15660
H90 H 1.03970 0.24590 1.30410
H91 H 1.21880 0.19030 0.79240
H92 H 1.13920 0.19340 0.68360
H93 H 1.19740 0.25180 0.77460
H94 H 1.05530 0.28500 0.84910
H95 H 0.97740 0.22870 0.79330
H96 H 0.99620 0.25430 0.94890
C24A C 1.0235(4) -0.0039(3) 0.5657(5)
N1A N 1.0992(4) -0.0376(3) 0.5389(5)
C23A C 1.0710(5) -0.0999(4) 0.5023(6)
O2A O 0.9867(3) -0.1228(2) 0.5064(5)
C22A C 1.1412(5) -0.1369(3) 0.4593(7)
C20A C 1.2076(5) -0.1300(3) 0.3653(6)
C18A C 1.2608(5) -0.1719(3) 0.3194(7)
C17A C 1.2565(5) -0.2234(3) 0.3672(7)
C16A C 1.3227(5) -0.2655(4) 0.3174(7)
C14A C 1.4117(6) -0.2445(3) 0.2871(8)
C12A C 1.4739(6) -0.2834(4) 0.2385(8)
C11A C 1.4464(7) -0.3457(4) 0.2262(9)
O1A O 1.5009(5) -0.3850(3) 0.1775(7)
C10A C 1.5764(8) -0.3729(4) 0.127(1)
C9A C 1.6214(9) -0.4246(5) 0.060(1)
C8A C 1.697(1) -0.4201(6) -0.001(2)
C7A C 1.756(1) -0.4614(5) -0.060(1)
C6A C 1.837(1) -0.4491(6) -0.128(1)
C5A C 1.878(1) -0.5024(7) -0.183(1)
C4A C 1.977(1) -0.5080(7) -0.240(1)
C2A C 2.0079(4) -0.568(2) -0.320(5)
C1A C 2.038(1) -0.6309(7) -0.438(2)
H1A H 2.05230 -0.63600 -0.52640
H2A H 2.02090 -0.67150 -0.41520
H3A H 2.11460 -0.62460 -0.38840
H8A H 1.96400 -0.47940 -0.30020
H9A H 2.01220 -0.48280 -0.15970
H10A H 1.87970 -0.53060 -0.11130
H11A H 1.83130 -0.52790 -0.25230
H12A H 1.84760 -0.42400 -0.18260
H13A H 1.89220 -0.42820 -0.04040
H14A H 1.75090 -0.48820 -0.00880
H15A H 1.70670 -0.48010 -0.14780
H16A H 1.69880 -0.38720 -0.06170
H17A H 1.75300 -0.39010 0.07500
H18A H 1.62270 -0.45620 0.11870
H19A H 1.56830 -0.45010 -0.01530
H20A H 1.63930 -0.35060 0.20730
H21A H 1.59240 -0.34190 0.07060
C13A C 1.3603(7) -0.3640(4) 0.261(1)
C15A C 1.2967(6) -0.3260(4) 0.3078(9)
H25A H 1.23390 -0.34130 0.33140
H23A H 1.34110 -0.40830 0.25450
H22A H 1.53630 -0.26500 0.20770
H24A H 1.43410 -0.20060 0.29580
C19A C 1.1880(5) -0.2362(4) 0.4549(8)
C21A C 1.1349(5) -0.1933(4) 0.4974(6)
H29A H 1.08660 -0.20690 0.56190
H27A H 1.18260 -0.27440 0.49040
H26A H 1.30610 -0.16210 0.24920
H28A H 1.21280 -0.08860 0.33090
C25A C 1.2001(4) -0.0096(3) 0.5698(6)
C26A C 1.2232(5) 0.0161(3) 0.7239(6)
C28A C 1.3305(5) 0.0412(3) 0.7662(7)
N2A N 1.3635(4) 0.0815(3) 0.6736(5)
O3A O 1.4454(4) 0.1139(3) 0.7153(5)
C29A C 1.3321(5) 0.0711(3) 0.5284(7)
C27A C 1.2273(4) 0.0419(3) 0.5013(6)
H32A H 1.24090 -0.03800 0.54400
H35A H 1.18890 0.07020 0.52970
H36A H 1.21210 0.02700 0.40460
C32A C 1.3438(5) 0.1336(4) 0.4986(7)
H43A H 1.34910 0.13780 0.40340
H44A H 1.40730 0.16130 0.54480
H45A H 1.29900 0.15860 0.53030
C33A C 1.3961(5) 0.0364(3) 0.4465(6)
H46A H 1.37580 -0.00640 0.44640
H47A H 1.46030 0.04730 0.48500
H48A H 1.39330 0.03990 0.35280
C30A C 1.3348(5) 0.0780(4) 0.9138(7)
H37A H 1.39770 0.08800 0.95670
H38A H 1.29460 0.05850 0.96960
H39A H 1.31430 0.11560 0.90800
C31A C 1.3902(5) -0.0066(4) 0.7673(7)
H40A H 1.40390 -0.02360 0.67550
H41A H 1.35530 -0.04390 0.79680
H42A H 1.44680 0.00490 0.82400
H33A H 1.19930 -0.01580 0.77570
H34A H 1.18750 0.04710 0.75330
H30A H 1.04790 0.02970 0.64180
H31A H 0.97300 -0.02910 0.60120
C57A C 1.0004(5) -0.0167(3) 1.0579(5)
N3A N 1.0556(4) -0.0644(2) 1.0277(5)
C56A C 1.1513(5) -0.0485(3) 1.0531(6)
O5A O 1.1894(3) 0.0034(2) 1.1113(4)
C55A C 1.2171(5) -0.0883(3) 1.0009(6)
C53A C 1.3034(5) -0.0859(3) 1.0691(6)
C51A C 1.3681(5) -0.1213(4) 1.0203(6)
C50A C 1.3515(5) -0.1595(3) 0.8985(6)
C49A C 1.4174(5) -0.1996(3) 0.8400(7)
C47A C 1.4803(5) -0.2189(3) 0.9271(7)
C45A C 1.5337(6) -0.2562(4) 0.8788(8)
C44A C 1.5300(5) -0.2768(4) 0.741(1)
O4A O 1.5878(4) -0.3186(3) 0.6920(6)
C43A C 1.5918(7) -0.3362(5) 0.564(1)
C42A C 1.647(1) -0.3906(8) 0.543(2)
C41A C 1.621(1) -0.4402(8) 0.488(2)
C40A C 1.672(1) -0.4917(7) 0.451(2)
C39A C 1.672(1) -0.5338(8) 0.388(2)
C38A C 1.711(1) -0.5855(9) 0.339(2)
C37A C 1.703(2) -0.604(1) 0.231(4)
C36A C 1.790(1) -0.651(1) 0.206(1)
C35A C 1.776(1) -0.654(1) 0.102(2)
C34A C 1.846(1) -0.6748(6) 0.025(1)
H49A H 1.89530 -0.69590 -0.00020
H50A H 1.90210 -0.63460 0.09720
H51A H 1.85860 -0.64430 -0.05280
H53A H 1.74140 -0.66490 0.00920
H54A H 1.85190 -0.63240 0.25420
H55A H 1.77430 -0.68640 0.26480
H56A H 1.65550 -0.64170 0.17470
H57A H 1.73120 -0.59060 0.14490
H58A H 1.78860 -0.56760 0.37950
H59A H 1.70430 -0.61450 0.40490
H62A H 1.74930 -0.47600 0.43430
H63A H 1.70310 -0.50940 0.54070
H64A H 1.57790 -0.45370 0.55680
H65A H 1.58510 -0.44070 0.41130
H66A H 1.70700 -0.38370 0.49100
H67A H 1.67590 -0.39200 0.63210
H68A H 1.62510 -0.30040 0.51010
H69A H 1.53010 -0.34550 0.49520
C46A C 1.4726(5) -0.2543(4) 0.6406(7)
C48A C 1.4148(5) -0.2162(4) 0.6946(7)
H73A H 1.37060 -0.20010 0.62940
H71A H 1.48150 -0.26310 0.54170
H70A H 1.58450 -0.26830 0.93540
H72A H 1.48760 -0.20470 1.02790
C52A C 1.2595(5) -0.1634(3) 0.8170(6)
C54A C 1.1958(5) -0.1272(3) 0.8736(7)
H77A H 1.12990 -0.13300 0.81990
H75A H 1.24720 -0.18680 0.72550
H74A H 1.42700 -0.11700 1.07630
H76A H 1.32210 -0.05870 1.16000
C58A C 1.0052(5) -0.1264(3) 1.0076(6)
C59A C 0.9305(5) -0.1432(3) 0.8802(7)
C61A C 0.8794(5) -0.2080(4) 0.8482(8)
N4A N 0.8457(4) -0.2264(3) 0.9762(6)
O6A O 0.7837(4) -0.2735(3) 0.9575(5)
C62A C 0.8998(5) -0.2054(4) 1.1184(7)
C60A C 0.9512(5) -0.1401(3) 1.1315(6)
H80A H 1.05000 -0.15630 0.99140
H83A H 0.90850 -0.11230 1.14770
H84A H 0.99920 -0.12600 1.21670
C65A C 0.8324(6) -0.2104(4) 1.2220(7)
H91A H 0.78120 -0.19030 1.20760
H92A H 0.86080 -0.19340 1.31640
H93A H 0.80260 -0.25180 1.22540
C66A C 0.9716(6) -0.2467(4) 1.1340(7)
H94A H 0.94470 -0.28500 1.15090
H95A H 1.02260 -0.22870 1.20670
H96A H 1.00380 -0.25430 1.05110
C63A C 0.7944(6) -0.2098(4) 0.7572(8)
H85A H 0.76180 -0.17750 0.78900
H86A H 0.74730 -0.24670 0.76050
H87A H 0.79900 -0.21110 0.66180
C64A C 0.9453(6) -0.2475(4) 0.7905(7)
H88A H 0.91890 -0.28910 0.78740
H89A H 1.00680 -0.23920 0.84340
H90A H 0.96030 -0.24590 0.69590
H81A H 0.96380 -0.13040 0.80180
H82A H 0.88590 -0.11730 0.89530
H78A H 1.03110 0.01220 1.13760
H79A H 0.93810 -0.03380 1.08480
#END
