
#######################################################################
#
#                 Cambridge Crystallographic Data Centre
#                                CCDC
#
#######################################################################
#
# If this CIF has been generated from an entry in the Cambridge
# Structural Database, then it will include bibliographic, chemical,
# crystal, experimental, refinement or atomic coordinate data resulting
# from the CCDC's data processing and validation procedures.
#
#######################################################################

data_CSD_CIF_XODWOC
_audit_creation_date 2002-09-13
_audit_creation_method CSD-ConQuest-V1
_database_code_CSD XODWOC
_database_code_depnum_ccdc_archive 'CCDC 174986'
_chemical_formula_sum 'C30 H43 N2 O2'
_chemical_formula_moiety
;
C30 H43 N2 O2
;
_journal_coden_Cambridge 1291
_journal_year 2002
_journal_page_first 1912
_journal_name_full 'Eur.J.Org.Chem. '
loop_
_publ_author_name
"S.Nakatsuji"
"M.Mizumoto"
"H.Ikemoto"
"H.Akutsu"
"J.Yamada"
_chemical_name_systematic
;
4-(N-((4'-Heptylbiphenyl-4-yl)carbonyl)methylamino)-2,2,6,6-tetramethylpiperid
ine 1-oxide radical
;
_chemical_melting_point 370.15
_cell_volume  11319.310
_exptl_crystal_colour 'orange'
_exptl_crystal_density_diffrn 1.088
_exptl_special_details
;
Melting point range 370.15-372.15K

;
_exptl_crystal_description 'prism'
_diffrn_ambient_temperature 288
_refine_special_details
;
The heptyl chains are disordered although the disorder has not been modelled.

;
#These two values have been output from a single CSD field.
_refine_ls_R_factor_gt 0.145
_refine_ls_wR_factor_gt 0.145
_symmetry_cell_setting monoclinic
_symmetry_space_group_name_H-M 'C 2/c'
_symmetry_Int_Tables_number 15
loop_
_symmetry_equiv_pos_site_id
_symmetry_equiv_pos_as_xyz
1 x,y,z
2 x,-y,1/2+z
3 1/2+x,1/2+y,z
4 1/2+x,1/2-y,1/2+z
5 -x,-y,-z
6 -x,y,-1/2-z
7 -1/2-x,-1/2-y,-z
8 -1/2-x,-1/2+y,-1/2-z
_cell_length_a 62.21(1)
_cell_length_b 11.206(6)
_cell_length_c 16.286(3)
_cell_angle_alpha 90
_cell_angle_beta 94.44(2)
_cell_angle_gamma 90
_cell_formula_units_Z 16
loop_
_atom_type_symbol
_atom_type_radius_bond
C 0.68
H 0.23
N 0.68
O 0.68
loop_
_atom_site_label
_atom_site_type_symbol
_atom_site_fract_x
_atom_site_fract_y
_atom_site_fract_z
O1 O 0.15093(7) -0.2904(4) 0.5192(3)
O2 O 0.19608(6) 0.2572(3) 0.7706(2)
O3 O 0.17149(5) 0.7801(3) 0.8972(3)
O4 O 0.26035(5) 0.5120(3) 0.8302(2)
N1 N 0.17055(7) -0.1393(4) 0.5804(3)
N2 N 0.19060(6) 0.1664(4) 0.7276(3)
N3 N 0.17297(6) 0.5784(4) 0.8733(2)
N4 N 0.23983(6) 0.5251(4) 0.8336(3)
C1 C -0.1058(2) 0.210(2) 0.6468(9)
C2 C -0.0908(3) 0.175(2) 0.636(2)
C3 C -0.0720(1) 0.2233(8) 0.6256(7)
C4 C -0.0492(2) 0.1575(9) 0.6260(7)
C5 C -0.0308(2) 0.221(1) 0.6169(7)
C6 C -0.0100(1) 0.1456(9) 0.6214(6)
C7 C 0.0079(2) 0.209(1) 0.6272(7)
C8 C 0.0275(1) 0.128(1) 0.6212(6)
C9 C 0.0333(2) 0.021(1) 0.6428(7)
C10 C 0.0431(2) 0.190(1) 0.6054(7)
C11 C 0.0523(1) -0.0322(9) 0.6304(7)
C12 C 0.0640(1) 0.1529(8) 0.5922(6)
C13 C 0.0681(1) 0.0368(7) 0.5953(5)
C14 C 0.0909(1) -0.0166(6) 0.5864(4)
C15 C 0.0950(1) -0.1227(8) 0.6171(4)
C16 C 0.1068(1) 0.0323(6) 0.5433(4)
C17 C 0.1151(1) -0.1835(6) 0.6137(6)
C18 C 0.1264(1) -0.0182(7) 0.5373(4)
C19 C 0.1313(1) -0.1281(5) 0.5627(3)
C20 C 0.1524(1) -0.1924(6) 0.5542(4)
C21 C 0.1893(1) -0.1983(6) 0.5598(4)
C22 C 0.17237(8) -0.0332(4) 0.6313(3)
C23 C 0.18416(8) -0.0592(4) 0.7115(3)
C24 C 0.18401(8) 0.0657(5) 0.5913(3)
C25 C 0.18500(8) 0.0583(6) 0.7760(4)
C26 C 0.18388(7) 0.1845(5) 0.6402(3)
C27 C 0.20194(8) 0.0355(5) 0.8415(3)
C28 C 0.16396(9) 0.0721(5) 0.8115(3)
C29 C 0.1989(1) 0.2744(6) 0.6088(4)
C30 C 0.16173(9) 0.2437(5) 0.6361(4)
C31 C -0.1127(1) 0.459(1) 0.8233(6)
C32 C -0.0912(2) 0.4565(9) 0.8228(9)
C33 C -0.0753(1) 0.5427(9) 0.8577(6)
C34 C -0.0513(1) 0.5427(8) 0.8610(4)
C35 C -0.0379(1) 0.6175(9) 0.8711(5)
C36 C -0.0137(1) 0.6068(8) 0.8685(5)
C37 C -0.0016(1) 0.7088(9) 0.8696(6)
C38 C 0.0232(1) 0.6888(8) 0.8815(6)
C39 C 0.0343(1) 0.7904(8) 0.8670(7)
C40 C 0.0342(1) 0.5848(7) 0.8942(6)
C41 C 0.0577(1) 0.7931(7) 0.8788(6)
C42 C 0.0568(1) 0.5816(7) 0.9015(5)
C43 C 0.06877(9) 0.6843(6) 0.8803(4)
C44 C 0.09274(9) 0.6781(6) 0.8842(4)
C45 C 0.10374(8) 0.7639(5) 0.8415(4)
C46 C 0.10405(9) 0.5944(5) 0.9268(4)
C47 C 0.12639(8) 0.7607(5) 0.8484(4)
C48 C 0.12608(9) 0.5880(6) 0.9275(3)
C49 C 0.13793(8) 0.6708(5) 0.8831(3)
C50 C 0.16270(7) 0.6895(5) 0.8861(3)
C51 C 0.16321(8) 0.4629(5) 0.8431(4)
C52 C 0.19692(7) 0.5894(4) 0.8698(3)
C53 C 0.20370(7) 0.5898(5) 0.7857(3)
C54 C 0.20799(7) 0.4832(4) 0.9141(3)
C55 C 0.22852(8) 0.6101(6) 0.7767(3)
C56 C 0.23299(7) 0.4969(5) 0.9177(3)
C57 C 0.23393(9) 0.5725(7) 0.6879(4)
C58 C 0.23545(8) 0.7415(5) 0.7991(3)
C59 C 0.24276(8) 0.3679(5) 0.9413(4)
C60 C 0.24201(8) 0.5868(5) 0.9824(4)
H1 H -0.11090 0.23450 0.70360
H2 H -0.10570 0.29560 0.62200
H3 H -0.11900 0.17830 0.61970
H4 H -0.08530 0.12250 0.70130
H5 H -0.09050 0.09360 0.60880
H6 H -0.07580 0.27460 0.57730
H7 H -0.06870 0.29120 0.67010
H8 H -0.05060 0.09010 0.66120
H9 H -0.05290 0.10860 0.56660
H10 H -0.03380 0.28780 0.58210
H11 H -0.03150 0.26950 0.67680
H12 H -0.01190 0.07670 0.65620
H13 H -0.01310 0.10170 0.56230
H14 H 0.00500 0.27890 0.58560
H15 H 0.00570 0.25740 0.67990
H16 H 0.02190 -0.03240 0.67140
H17 H 0.04570 0.29410 0.61860
H18 H 0.05440 -0.14370 0.63660
H19 H 0.07690 0.19700 0.56810
H20 H 0.08290 -0.16810 0.64460
H21 H 0.10390 0.11040 0.51550
H22 H 0.11680 -0.26320 0.64200
H23 H 0.13740 0.03440 0.50800
H24 H 0.19900 -0.22770 0.60980
H25 H 0.18740 -0.26850 0.52680
H26 H 0.19990 -0.14860 0.53200
H27 H 0.15800 -0.00400 0.64070
H28 H 0.17800 -0.13020 0.73670
H29 H 0.19910 -0.08510 0.70190
H30 H 0.19870 0.03650 0.58030
H31 H 0.17740 0.07280 0.53090
H32 H 0.19700 0.03900 0.89720
H33 H 0.20870 -0.04390 0.83890
H34 H 0.21370 0.09180 0.84170
H35 H 0.16410 0.07520 0.86840
H36 H 0.15730 0.14950 0.79030
H37 H 0.15340 0.01280 0.79070
H38 H 0.20680 0.31800 0.64950
H39 H 0.20920 0.23530 0.57440
H40 H 0.19140 0.33220 0.57060
H41 H 0.15600 0.26110 0.68700
H42 H 0.16130 0.32140 0.60530
H43 H 0.15040 0.19690 0.60370
H44 H -0.11750 0.53560 0.80690
H45 H -0.12100 0.39860 0.80420
H46 H -0.11630 0.46270 0.88810
H47 H -0.08530 0.37520 0.85800
H48 H -0.08720 0.42910 0.77000
H49 H -0.07990 0.60900 0.81980
H50 H -0.07970 0.56130 0.90930
H51 H -0.04730 0.48350 0.90500
H52 H -0.04810 0.49390 0.80990
H53 H -0.04240 0.68350 0.82230
H54 H -0.04060 0.66880 0.91730
H55 H -0.00830 0.54800 0.91180
H56 H -0.01080 0.54680 0.81630
H57 H -0.00650 0.74940 0.81070
H58 H -0.00780 0.76080 0.90510
H59 H 0.02720 0.86480 0.84100
H60 H 0.02460 0.51750 0.88900
H61 H 0.06610 0.86800 0.87430
H62 H 0.06380 0.50480 0.92830
H63 H 0.09630 0.81810 0.79700
H64 H 0.09620 0.52870 0.95530
H65 H 0.13390 0.83010 0.82620
H66 H 0.13480 0.52990 0.96360
H67 H 0.15380 0.42870 0.87900
H68 H 0.15350 0.47900 0.79020
H69 H 0.17330 0.40650 0.82680
H70 H 0.20180 0.66400 0.89460
H71 H 0.19940 0.51810 0.76110
H72 H 0.19580 0.65490 0.75620
H73 H 0.20300 0.47660 0.96670
H74 H 0.20400 0.41150 0.88300
H75 H 0.22680 0.49260 0.67200
H76 H 0.22940 0.62400 0.64450
H77 H 0.24920 0.55400 0.68300
H78 H 0.25060 0.75210 0.80220
H79 H 0.22900 0.79720 0.75940
H80 H 0.23050 0.76550 0.85240
H81 H 0.23850 0.33490 0.99010
H82 H 0.23760 0.30850 0.89640
H83 H 0.25810 0.36430 0.94070
H84 H 0.25740 0.58040 0.99210
H85 H 0.23930 0.66920 0.96300
H86 H 0.23580 0.57990 1.03350
#END
