
#######################################################################
#
#                 Cambridge Crystallographic Data Centre
#                                CCDC
#
#######################################################################
#
# If this CIF has been generated from an entry in the Cambridge
# Structural Database, then it will include bibliographic, chemical,
# crystal, experimental, refinement or atomic coordinate data resulting
# from the CCDC's data processing and validation procedures.
#
#######################################################################

data_CSD_CIF_XODXOF
_audit_creation_date 2014-06-25
_audit_creation_method CSD-ConQuest-V1
_database_code_CSD XODXOF
_database_code_depnum_ccdc_archive 'CCDC 1007508'
_chemical_formula_sum 'C25 H21 N3 O5'
_chemical_formula_moiety
;
C25 H21 N3 O5
;
_journal_coeditor_code "IUCr sj5411"
_journal_coden_Cambridge 1370
_journal_volume 70
_journal_year 2014
_journal_page_first o772
_journal_name_full 'Acta Crystallogr.,Sect.E:Struct.Rep.Online '
loop_
_publ_author_name
"Z.Atioglu"
"M.Akkurt"
"A.Jarrahpour"
"R.Heiran"
"N.Ozdemir"
_chemical_name_systematic
;
1-(morpholin-4-yl)-4-(2-nitrophenyl)-2H-spiro[azetidine-3,9'-xanthen]-2-one
;
_cell_volume   2199.973
_exptl_crystal_colour 'light yellow'
_exptl_crystal_density_diffrn 1.339
_exptl_crystal_description 'block'
_diffrn_ambient_temperature 296
#These two values have been output from a single CSD field.
_refine_ls_R_factor_gt 0.0446
_refine_ls_wR_factor_gt 0.0446
_symmetry_cell_setting monoclinic
_symmetry_space_group_name_H-M 'P 21/c'
_symmetry_Int_Tables_number 14
loop_
_symmetry_equiv_pos_site_id
_symmetry_equiv_pos_as_xyz
1 x,y,z
2 -x,1/2+y,1/2-z
3 -x,-y,-z
4 x,-1/2-y,-1/2+z
_cell_length_a 9.4272(5)
_cell_length_b 18.8525(8)
_cell_length_c 12.4345(6)
_cell_angle_alpha 90
_cell_angle_beta 95.443(4)
_cell_angle_gamma 90
_cell_formula_units_Z 4
loop_
_atom_type_symbol
_atom_type_radius_bond
C 0.68
H 0.23
N 0.68
O 0.68
loop_
_atom_site_label
_atom_site_type_symbol
_atom_site_fract_x
_atom_site_fract_y
_atom_site_fract_z
O1 O 0.56523(11) 0.77674(4) 0.39775(8)
O2 O 0.88039(12) 0.56659(6) 0.40826(8)
O3 O 0.59829(13) 0.48451(5) 0.40169(9)
O4 O 0.6611(2) 0.42173(8) 0.27221(13)
O5 O 0.05898(13) 0.80037(7) 0.43054(10)
N1 N 0.40654(11) 0.68165(5) 0.36241(8)
N2 N 0.26494(11) 0.70325(5) 0.37024(8)
N3 N 0.58819(15) 0.46781(6) 0.30725(11)
C1 C 0.53326(14) 0.71537(6) 0.38183(9)
C2 C 0.61723(13) 0.64499(6) 0.38092(9)
C3 C 0.46359(13) 0.60880(6) 0.36101(9)
C4 C 0.71522(13) 0.63736(6) 0.29281(9)
C5 C 0.68634(14) 0.66829(7) 0.19146(10)
C6 C 0.77624(16) 0.65986(8) 0.11144(11)
C7 C 0.89724(16) 0.61957(8) 0.13129(12)
C8 C 0.92974(16) 0.58875(8) 0.23033(12)
C9 C 0.83854(14) 0.59821(7) 0.3104(1)
C10 C 0.81733(15) 0.58925(7) 0.49807(10)
C11 C 0.88545(17) 0.56948(9) 0.59700(12)
C12 C 0.83068(17) 0.59109(8) 0.68992(12)
C13 C 0.71169(18) 0.63341(7) 0.68493(11)
C14 C 0.64380(16) 0.65115(7) 0.58589(10)
C15 C 0.69405(14) 0.62872(6) 0.48998(10)
C16 C 0.42467(13) 0.56881(6) 0.25733(10)
C17 C 0.48294(15) 0.50353(6) 0.23145(10)
C18 C 0.44357(19) 0.46854(8) 0.13552(12)
C19 C 0.34418(19) 0.49821(9) 0.06166(12)
C20 C 0.28575(18) 0.56245(10) 0.08314(12)
C21 C 0.32615(15) 0.59701(8) 0.17932(11)
C22 C 0.23610(17) 0.71132(8) 0.48318(11)
C23 C 0.08391(19) 0.73546(10) 0.48559(15)
C24 C 0.0851(2) 0.79149(11) 0.32138(15)
C25 C 0.23701(19) 0.77036(8) 0.31261(12)
H1 H 0.44030 0.58160 0.42410
H2 H 0.60420 0.69530 0.17750
H3 H 0.75520 0.68130 0.04450
H4 H 0.95760 0.61320 0.07710
H5 H 1.01210 0.56180 0.24380
H6 H 0.96750 0.54180 0.60040
H7 H 0.87440 0.57700 0.75670
H8 H 0.67740 0.64990 0.74800
H9 H 0.56200 0.67890 0.58290
H10 H 0.48450 0.42510 0.12130
H11 H 0.31650 0.47480 -0.00280
H12 H 0.21860 0.58300 0.03290
H13 H 0.28560 0.64080 0.19200
H14 H 0.30050 0.74600 0.51880
H15 H 0.25040 0.66650 0.52080
H16 H 0.02040 0.69950 0.45230
H17 H 0.06300 0.74100 0.56000
H18 H 0.06510 0.83550 0.28260
H19 H 0.02210 0.75530 0.28850
H20 H 0.25350 0.76480 0.23730
H21 H 0.30070 0.80690 0.34390
#END
