
#######################################################################
#
#                 Cambridge Crystallographic Data Centre
#                                CCDC
#
#######################################################################
#
# If this CIF has been generated from an entry in the Cambridge
# Structural Database, then it will include bibliographic, chemical,
# crystal, experimental, refinement or atomic coordinate data resulting
# from the CCDC's data processing and validation procedures.
#
#######################################################################

data_CSD_CIF_XOGZUO
_audit_creation_date 2002-09-13
_audit_creation_method CSD-ConQuest-V1
_database_code_CSD XOGZUO
_database_code_depnum_ccdc_archive 'CCDC 164582'
_chemical_formula_sum 'C21 H22 N2 O5'
_chemical_formula_moiety
;
C21 H22 N2 O5
;
_journal_coden_Cambridge 16
_journal_volume 58
_journal_year 2002
_journal_page_first 4825
_journal_name_full 'Tetrahedron '
loop_
_publ_author_name
"M.F.Brana"
"M.Garranzo"
"B.de Pascual-Teresa"
"J.Perez-Castells"
"M.R.Torres"
_chemical_name_systematic
;
Methyl (2S*,1'R*)-1-benzyl-2-(2'-nitro-1'-phenylethyl)pyroglutamate
;
_cell_volume   1942.038
_exptl_crystal_colour 'colorless'
_exptl_crystal_density_diffrn 1.308
_exptl_crystal_description 'prismatic'
_diffrn_ambient_temperature 296
#These two values have been output from a single CSD field.
_refine_ls_R_factor_gt 0.0436
_refine_ls_wR_factor_gt 0.0436
_symmetry_cell_setting monoclinic
_symmetry_space_group_name_H-M 'P 21/n'
_symmetry_Int_Tables_number 14
loop_
_symmetry_equiv_pos_site_id
_symmetry_equiv_pos_as_xyz
1 x,y,z
2 1/2+x,1/2-y,1/2+z
3 -x,-y,-z
4 -1/2-x,-1/2+y,-1/2-z
_cell_length_a 8.748(3)
_cell_length_b 18.698(7)
_cell_length_c 12.125(4)
_cell_angle_alpha 90
_cell_angle_beta 101.706(7)
_cell_angle_gamma 90
_cell_formula_units_Z 4
loop_
_atom_type_symbol
_atom_type_radius_bond
C 0.68
H 0.23
N 0.68
O 0.68
loop_
_atom_site_label
_atom_site_type_symbol
_atom_site_fract_x
_atom_site_fract_y
_atom_site_fract_z
C1 C 0.2414(4) 0.66080(18) 0.0050(3)
N1 N 0.3771(3) 0.67726(16) 0.0951(2)
C2 C 0.4347(5) 0.7444(2) 0.0903(3)
C3 C 0.3373(5) 0.7824(2) -0.0076(3)
H1 H 0.39930 0.79390 -0.06300
H2 H 0.29630 0.82650 0.01710
C4 C 0.2058(4) 0.73301(17) -0.0577(3)
H3 H 0.20110 0.72690 -0.13770
H4 H 0.10680 0.75210 -0.04690
C5 C 0.2774(4) 0.59821(16) -0.0720(3)
H5 H 0.29950 0.55570 -0.02420
C6 C 0.4211(4) 0.61176(17) -0.1226(3)
C7 C 0.5655(5) 0.58733(17) -0.0663(3)
H6 H 0.57420 0.56700 0.00480
C8 C 0.6965(4) 0.59217(18) -0.1123(3)
H7 H 0.79230 0.57580 -0.07250
C9 C 0.6845(5) 0.62160(19) -0.2185(4)
H8 H 0.77170 0.62410 -0.25130
C10 C 0.5426(5) 0.64719(18) -0.2754(3)
H9 H 0.53440 0.66770 -0.34620
C11 C 0.4114(4) 0.64241(17) -0.2273(3)
H10 H 0.31620 0.66000 -0.26620
C12 C 0.1317(4) 0.58181(18) -0.1612(3)
H11 H 0.04700 0.56920 -0.12420
H12 H 0.10090 0.62440 -0.20580
N2 N 0.1572(4) 0.52192(18) -0.2377(3)
O1 O 0.2532(3) 0.47653(14) -0.2025(2)
O2 O 0.0742(4) 0.52218(15) -0.3308(2)
C13 C 0.1108(4) 0.6343(2) 0.0651(3)
O3 O 0.0367(3) 0.68893(13) 0.1011(2)
C14 C -0.0786(5) 0.66966(18) 0.1676(3)
H13 H -0.12570 0.71230 0.18980
H14 H -0.02840 0.64390 0.23360
H15 H -0.15770 0.64010 0.12330
O4 O 0.0825(3) 0.57281(13) 0.07884(19)
C15 C 0.4457(4) 0.62829(18) 0.1847(3)
H16 H 0.55510 0.64040 0.20960
H17 H 0.44070 0.58020 0.15400
C16 C 0.3693(4) 0.6282(2) 0.2863(3)
C17 C 0.3534(5) 0.5651(2) 0.3416(4)
H18 H 0.38980 0.52270 0.31640
C18 C 0.2831(6) 0.5644(3) 0.4350(4)
H19 H 0.27310 0.52170 0.47210
C19 C 0.2293(6) 0.6264(3) 0.4717(4)
H20 H 0.17980 0.62560 0.53270
C20 C 0.2469(5) 0.6895(3) 0.4202(3)
H21 H 0.21270 0.73200 0.44680
C21 C 0.3168(4) 0.6895(2) 0.3273(3)
H22 H 0.32820 0.73270 0.29170
O5 O 0.5475(4) 0.76846(14) 0.1573(2)
#END
