
#######################################################################
#
#                 Cambridge Crystallographic Data Centre
#                                CCDC
#
#######################################################################
#
# If this CIF has been generated from an entry in the Cambridge
# Structural Database, then it will include bibliographic, chemical,
# crystal, experimental, refinement or atomic coordinate data resulting
# from the CCDC's data processing and validation procedures.
#
#######################################################################

data_CSD_CIF_XOHCEE
_audit_creation_date 2014-06-26
_audit_creation_method CSD-ConQuest-V1
_database_code_CSD XOHCEE
_database_code_depnum_ccdc_archive 'CCDC 957953'
_chemical_formula_sum 'C7 H11 N1 O4'
_chemical_formula_moiety
;
C7 H11 N1 O4
;
_journal_coden_Cambridge 1336
_journal_volume 16
_journal_year 2014
_journal_page_first 3166
_journal_name_full 'Org.Lett. '
loop_
_publ_author_name
"A.A.S.Gietter"
"P.G.Gildner"
"A.P.Cinderella"
"G.P.A.Yap"
"D.A.Watson"
_chemical_name_systematic
;
3-(1-Nitropropyl)dihydrofuran-2(3H)-one
;
_cell_volume    840.858
_exptl_crystal_colour 'colorless'
_exptl_crystal_density_diffrn 1.368
_exptl_crystal_description 'plate'
_diffrn_ambient_temperature 200
#These two values have been output from a single CSD field.
_refine_ls_R_factor_gt 0.0269
_refine_ls_wR_factor_gt 0.0269
_symmetry_cell_setting orthorhombic
_symmetry_space_group_name_H-M 'P 21 21 21'
_symmetry_Int_Tables_number 19
loop_
_symmetry_equiv_pos_site_id
_symmetry_equiv_pos_as_xyz
1 x,y,z
2 1/2+x,1/2-y,-z
3 -x,1/2+y,1/2-z
4 1/2-x,-y,1/2+z
_cell_length_a 5.8815(3)
_cell_length_b 8.9902(4)
_cell_length_c 15.9025(7)
_cell_angle_alpha 90
_cell_angle_beta 90
_cell_angle_gamma 90
_cell_formula_units_Z 4
loop_
_atom_type_symbol
_atom_type_radius_bond
C 0.68
H 0.23
N 0.68
O 0.68
loop_
_atom_site_label
_atom_site_type_symbol
_atom_site_fract_x
_atom_site_fract_y
_atom_site_fract_z
C1 C 0.7734(4) 0.6638(3) 0.05002(12)
H1 H 0.67780 0.58960 0.02060
H2 H 0.79350 0.75120 0.01290
C2 C 0.6648(3) 0.7094(2) 0.13261(10)
H3 H 0.49710 0.70150 0.13010
H4 H 0.70770 0.81210 0.14850
C3 C 0.7658(3) 0.59573(18) 0.19297(10)
H5 H 0.67210 0.50300 0.19020
C4 C 0.9961(3) 0.56385(16) 0.15407(11)
C5 C 0.7795(3) 0.64555(18) 0.28411(10)
H6 H 0.87510 0.73730 0.28760
C6 C 0.5458(3) 0.6783(2) 0.32117(11)
H7 H 0.47350 0.75790 0.28740
H8 H 0.45060 0.58810 0.31570
C7 C 0.5470(4) 0.7260(3) 0.41281(12)
H9 H 0.60590 0.64470 0.44760
H10 H 0.39170 0.75020 0.43050
H11 H 0.64400 0.81380 0.41950
N1 N 0.8879(2) 0.52461(16) 0.33639(9)
O1 O 0.9928(2) 0.59984(16) 0.07224(8)
O2 O 1.1619(2) 0.51300(15) 0.18733(8)
O3 O 0.8228(3) 0.39608(15) 0.32655(9)
O4 O 1.0290(2) 0.56078(18) 0.38887(9)
#END
