
#######################################################################
#
#                 Cambridge Crystallographic Data Centre
#                                CCDC
#
#######################################################################
#
# If this CIF has been generated from an entry in the Cambridge
# Structural Database, then it will include bibliographic, chemical,
# crystal, experimental, refinement or atomic coordinate data resulting
# from the CCDC's data processing and validation procedures.
#
#######################################################################

data_CSD_CIF_XOHDUT
_audit_creation_date 2002-09-13
_audit_creation_method CSD-ConQuest-V1
_database_code_CSD XOHDUT
_database_code_depnum_ccdc_archive 'CCDC 186716'
_chemical_formula_sum 'C13 H15 N1 O5'
_chemical_formula_moiety
;
C13 H15 N1 O5
;
_journal_coden_Cambridge 1090
_journal_volume 13
_journal_year 2002
_journal_page_first 1025
_journal_name_full 'Tetrahedron:Asymm. '
loop_
_publ_author_name
"A.C.Pinto"
"C.B.L.Freitas"
"A.G.Dias"
"V.L.P.Pereira"
"B.Tinant"
"J.-P.Declercq"
"P.P.R.Costa"
_chemical_name_systematic
;
(3R,4S,5S)-3-Benzyl-5-(hydroxymethyl)-4-(nitromethyl)dihydrofuran-2(3H)-one
;
_chemical_melting_point 376.15
_cell_volume    646.163
_exptl_crystal_density_diffrn 1.363
_exptl_special_details
;
Melting point range 376.15-377.15K

;
_exptl_crystal_description 'parallelepiped'
_diffrn_ambient_temperature 293
#These two values have been output from a single CSD field.
_refine_ls_R_factor_gt 0.0379
_refine_ls_wR_factor_gt 0.0379
_symmetry_cell_setting monoclinic
_symmetry_space_group_name_H-M 'P 21'
_symmetry_Int_Tables_number 4
loop_
_symmetry_equiv_pos_site_id
_symmetry_equiv_pos_as_xyz
1 x,y,z
2 -x,1/2+y,-z
_cell_length_a 6.241(2)
_cell_length_b 11.538(4)
_cell_length_c 9.128(2)
_cell_angle_alpha 90
_cell_angle_beta 100.56(3)
_cell_angle_gamma 90
_cell_formula_units_Z 2
loop_
_atom_type_symbol
_atom_type_radius_bond
C 0.68
H 0.23
N 0.68
O 0.68
loop_
_atom_site_label
_atom_site_type_symbol
_atom_site_fract_x
_atom_site_fract_y
_atom_site_fract_z
O1 O 0.8506(2) 0.2542(2) 0.2568(2)
C1 C 0.8506(3) 0.2174(2) 0.3952(3)
C2 C 1.0434(3) 0.2639(2) 0.5033(2)
C3 C 1.1199(3) 0.3633(2) 0.4131(2)
C4 C 1.0472(4) 0.3225(2) 0.2506(2)
O2 O 0.7051(3) 0.1573(2) 0.4223(2)
C5 C 0.9835(4) 0.2944(3) 0.6545(3)
C6 C 1.1744(3) 0.3402(2) 0.7643(2)
C7 C 1.3635(4) 0.2743(2) 0.8065(3)
C8 C 1.5417(4) 0.3203(3) 0.8993(3)
C9 C 1.5363(5) 0.4307(3) 0.9546(3)
C10 C 1.3475(5) 0.4958(3) 0.9174(3)
C11 C 1.1682(4) 0.4503(2) 0.8227(3)
C12 C 1.3597(3) 0.3902(2) 0.4593(2)
N1 N 1.4397(3) 0.4811(2) 0.3652(2)
O3 O 1.3099(3) 0.5344(2) 0.2732(2)
O4 O 1.6352(3) 0.4974(2) 0.3863(3)
C13 C 1.2017(4) 0.2461(3) 0.1852(3)
O5 O 1.2588(3) 0.1471(2) 0.2736(2)
H1 H 1.1412(56) 0.2042(37) 0.5124(37)
H2 H 1.0335(50) 0.4351(33) 0.4423(35)
H3 H 1.0073(46) 0.3834(36) 0.1860(36)
H4 H 0.8624(51) 0.3505(34) 0.6371(35)
H5 H 0.9291(55) 0.2272(37) 0.7067(39)
H6 H 1.3665(52) 0.1977(36) 0.7636(34)
H7 H 1.6845(52) 0.2833(33) 0.9203(35)
H8 H 1.6750(51) 0.4533(34) 1.0243(36)
H9 H 1.350(5) 0.5825(36) 0.9423(35)
H10 H 1.0386(51) 0.4961(35) 0.7879(34)
H11 H 1.4439(51) 0.3222(39) 0.4422(35)
H12 H 1.3995(52) 0.4255(33) 0.5534(39)
H13 H 1.3319(53) 0.2951(32) 0.1741(37)
H14 H 1.1256(52) 0.2178(35) 0.0815(38)
H15 H 1.4044(63) 0.1421(32) 0.3137(36)
#END
