
#######################################################################
#
#                 Cambridge Crystallographic Data Centre
#                                CCDC
#
#######################################################################
#
# If this CIF has been generated from an entry in the Cambridge
# Structural Database, then it will include bibliographic, chemical,
# crystal, experimental, refinement or atomic coordinate data resulting
# from the CCDC's data processing and validation procedures.
#
#######################################################################

data_CSD_CIF_XOHFAB
_audit_creation_date 2002-09-13
_audit_creation_method CSD-ConQuest-V1
_database_code_CSD XOHFAB
_database_code_depnum_ccdc_archive 'CCDC 186717'
_chemical_formula_sum 'C7 H11 N1 O5'
_chemical_formula_moiety
;
C7 H11 N1 O5
;
_journal_coden_Cambridge 1090
_journal_volume 13
_journal_year 2002
_journal_page_first 1025
_journal_name_full 'Tetrahedron:Asymm. '
loop_
_publ_author_name
"A.C.Pinto"
"C.B.L.Freitas"
"A.G.Dias"
"V.L.P.Pereira"
"B.Tinant"
"J.-P.Declercq"
"P.P.R.Costa"
_chemical_name_systematic
;
(3S,4S,5S)-5-(Hydroxymethyl)-3-methyl-4-(nitromethyl)dihydrofuran-2(3H)-one
;
_chemical_melting_point 344.15
_cell_volume    859.397
_exptl_crystal_density_diffrn 1.462
_exptl_special_details
;
Melting point range 344.15-345.15K

;
_exptl_crystal_description 'parallelepiped'
_diffrn_ambient_temperature 293
#These two values have been output from a single CSD field.
_refine_ls_R_factor_gt 0.0378
_refine_ls_wR_factor_gt 0.0378
_symmetry_cell_setting monoclinic
_symmetry_space_group_name_H-M 'P 21'
_symmetry_Int_Tables_number 4
loop_
_symmetry_equiv_pos_site_id
_symmetry_equiv_pos_as_xyz
1 x,y,z
2 -x,1/2+y,-z
_cell_length_a 6.524(1)
_cell_length_b 12.741(2)
_cell_length_c 10.437(2)
_cell_angle_alpha 90
_cell_angle_beta 97.86(2)
_cell_angle_gamma 90
_cell_formula_units_Z 4
loop_
_atom_type_symbol
_atom_type_radius_bond
C 0.68
H 0.23
N 0.68
O 0.68
loop_
_atom_site_label
_atom_site_type_symbol
_atom_site_fract_x
_atom_site_fract_y
_atom_site_fract_z
O1 O 0.1436(2) 0.06007(12) 0.86463(14)
C1 C 0.2113(3) -0.0255(2) 0.9323(2)
C2 C 0.2374(3) -0.0029(2) 1.0757(2)
C3 C 0.2504(3) 0.1180(2) 1.0802(2)
C4 C 0.1075(3) 0.1446(2) 0.9550(2)
O2 O 0.2416(3) -0.10690(14) 0.8795(2)
C5 C 0.1354(4) 0.2487(2) 0.8922(3)
O3 O -0.0250(4) 0.2598(2) 0.7876(2)
C6 C 0.4659(3) 0.1628(2) 1.0784(2)
N1 N 0.6065(3) 0.1465(2) 1.2030(2)
O4 O 0.7906(3) 0.1353(2) 1.1979(2)
O5 O 0.5323(3) 0.1479(2) 1.3040(2)
C7 C 0.4071(4) -0.0688(2) 1.1513(3)
H1 H 0.1007(43) -0.0134(24) 1.1025(28)
H2 H 0.1908(44) 0.1464(25) 1.1497(29)
H3 H -0.0247(49) 0.1381(24) 0.9665(28)
H4 H 0.2662(49) 0.2507(24) 0.8596(28)
H5 H 0.1306(43) 0.3012(26) 0.9520(31)
H6 H -0.0020(45) 0.3101(29) 0.7561(31)
H7 H 0.4682(45) 0.2377(26) 1.0660(28)
H8 H 0.5384(44) 0.1247(23) 1.0117(30)
H9 H 0.3711(43) -0.1424(27) 1.1409(28)
H10 H 0.5440(48) -0.0555(24) 1.1274(28)
H11 H 0.4149(45) -0.0550(24) 1.2411(32)
O6 O 0.7558(3) -0.12175(14) 1.7575(2)
C8 C 0.6672(3) -0.0303(2) 1.7821(2)
C9 C 0.5596(3) 0.0168(2) 1.6573(2)
C10 C 0.6803(3) -0.0342(2) 1.5558(2)
C11 C 0.7261(4) -0.1422(2) 1.6181(2)
O7 O 0.6778(3) 0.0030(2) 1.8908(2)
C12 C 0.9079(5) -0.2074(2) 1.5903(3)
O8 O 1.0999(3) -0.1551(2) 1.6150(2)
C13 C 0.8642(3) 0.0329(2) 1.5350(2)
N2 N 0.9754(3) -0.0067(2) 1.4280(2)
O9 O 0.8826(3) -0.0670(2) 1.3486(2)
O10 O 1.1492(3) 0.0261(2) 1.4227(2)
C14 C 0.5353(5) 0.1341(3) 1.6591(3)
H12 H 0.4248(47) -0.0095(24) 1.6414(27)
H13 H 0.5927(45) -0.0404(24) 1.4748(31)
H14 H 0.6044(45) -0.1786(24) 1.6030(29)
H15 H 0.8779(44) -0.2275(24) 1.5000(32)
H16 H 0.9247(45) -0.2720(26) 1.6429(30)
H17 H 1.1292(47) -0.1488(26) 1.6918(33)
H18 H 0.8217(45) 0.1013(26) 1.5063(28)
H19 H 0.9650(48) 0.0395(24) 1.6059(31)
H20 H 0.4427(47) 0.1466(25) 1.712(3)
H21 H 0.6687(48) 0.1682(25) 1.6821(29)
H22 H 0.4786(44) 0.1573(26) 1.5711(30)
#END
