
#######################################################################
#
#                 Cambridge Crystallographic Data Centre
#                                CCDC
#
#######################################################################
#
# If this CIF has been generated from an entry in the Cambridge
# Structural Database, then it will include bibliographic, chemical,
# crystal, experimental, refinement or atomic coordinate data resulting
# from the CCDC's data processing and validation procedures.
#
#######################################################################

data_CSD_CIF_XOHPIT
_audit_creation_date 2002-09-13
_audit_creation_method CSD-ConQuest-V1
_database_code_CSD XOHPIT
_database_code_depnum_ccdc_archive 'CCDC 178859'
_chemical_formula_sum 'C12 H18 N2 O2'
_chemical_formula_moiety
;
C12 H18 N2 O2
;
_journal_coden_Cambridge 207
_journal_year 2002
_journal_page_first 1494
_journal_name_full 'J.Chem.Soc.,Perkin Trans.1 '
loop_
_publ_author_name
"E.C.Davison"
"M.E.Fox"
"A.B.Holmes"
"S.D.Roughley"
"C.J.Smith"
"G.M.Williams"
"J.E.Davies"
"P.R.Raithby"
"J.P.Adams"
"I.T.Forbes"
"N.J.Press"
"M.J.Thompson"
_chemical_name_systematic
;
(1R,5S,8S,12R)-5-(Hydroxymethyl)-12-cyano-6-aza-7-oxatricyclo(6.3.1.0^1,6^)dod
ecane
;
_cell_volume   1171.388
_exptl_crystal_colour 'white'
_exptl_crystal_density_diffrn 1.26
_exptl_crystal_description 'block'
_exptl_crystal_preparation 'ether'
_diffrn_ambient_temperature 294
#These two values have been output from a single CSD field.
_refine_ls_R_factor_gt 0.0647
_refine_ls_wR_factor_gt 0.0647
_symmetry_cell_setting monoclinic
_symmetry_space_group_name_H-M 'P 21'
_symmetry_Int_Tables_number 4
loop_
_symmetry_equiv_pos_site_id
_symmetry_equiv_pos_as_xyz
1 x,y,z
2 -x,1/2+y,-z
_cell_length_a 6.949(2)
_cell_length_b 14.011(4)
_cell_length_c 12.055(3)
_cell_angle_alpha 90
_cell_angle_beta 93.60(2)
_cell_angle_gamma 90
_cell_formula_units_Z 4
loop_
_atom_type_symbol
_atom_type_radius_bond
C 0.68
H 0.23
N 0.68
O 0.68
loop_
_atom_site_label
_atom_site_type_symbol
_atom_site_fract_x
_atom_site_fract_y
_atom_site_fract_z
O1 O 0.1245(4) 0.2104(2) 0.0749(2)
O2 O 0.5986(5) 0.0808(2) 0.1242(3)
H1 H 0.594(7) 0.099(4) 0.1889(17)
N1 N 0.2830(4) 0.1936(2) 0.0016(2)
N2 N -0.2080(7) 0.2995(4) -0.2667(4)
C1 C -0.0438(5) 0.2478(3) 0.0105(3)
H2 H -0.16390 0.22070 0.03540
C2 C -0.0426(6) 0.3551(3) 0.0184(4)
H3 H -0.07620 0.37440 0.09200
H4 H -0.13830 0.38130 -0.03520
C3 C 0.1545(7) 0.3942(3) -0.0040(4)
H5 H 0.24000 0.38620 0.06210
H6 H 0.14350 0.46200 -0.01930
C4 C 0.2424(6) 0.3451(3) -0.1014(4)
H7 H 0.37990 0.35780 -0.09740
H8 H 0.18750 0.37290 -0.17000
C5 C 0.2110(5) 0.2364(3) -0.1060(3)
C6 C 0.3118(6) 0.1950(4) -0.2053(4)
H9 H 0.23920 0.21320 -0.27330
H10 H 0.43910 0.22330 -0.20680
C7 C 0.3328(7) 0.0867(4) -0.2030(4)
H11 H 0.20680 0.05710 -0.21370
H12 H 0.41040 0.06620 -0.26270
C8 C 0.4274(6) 0.0568(3) -0.0931(4)
H13 H 0.55490 0.08490 -0.08390
H14 H 0.44160 -0.01210 -0.09150
C9 C 0.3070(5) 0.0885(3) 0.0022(3)
H15 H 0.17920 0.05910 -0.00800
C10 C -0.0059(5) 0.2153(3) -0.1070(3)
H16 H -0.02680 0.14630 -0.11330
C11 C 0.3979(6) 0.0580(3) 0.1134(4)
H17 H 0.33270 0.08950 0.17210
H18 H 0.38170 -0.01030 0.12200
C12 C -0.1214(6) 0.2639(3) -0.1956(4)
O3 O 0.4604(4) 0.1368(2) 0.3833(2)
O4 O 0.5686(4) 0.2983(2) 0.1493(2)
H19 H 0.469(4) 0.274(4) 0.122(4)
N3 N 0.6469(4) 0.1675(2) 0.3442(3)
N4 N 0.8495(7) 0.0300(4) 0.6970(4)
C13 C 0.4907(6) 0.0888(4) 0.4899(3)
H20 H 0.39080 0.10650 0.54000
C14 C 0.4941(9) -0.0165(4) 0.4717(5)
H21 H 0.36570 -0.03870 0.44840
H22 H 0.53470 -0.04840 0.54060
C15 C 0.6322(10) -0.0405(4) 0.3832(5)
H23 H 0.66500 -0.10770 0.38880
H24 H 0.56770 -0.02990 0.31060
C16 C 0.8146(8) 0.0172(4) 0.3923(4)
H25 H 0.87330 0.01440 0.32140
H26 H 0.90320 -0.01270 0.44720
C17 C 0.7920(6) 0.1224(3) 0.4242(3)
C18 C 0.9871(6) 0.1727(4) 0.4261(5)
H27 H 1.05070 0.15520 0.35970
H28 H 1.06660 0.15010 0.48970
C19 C 0.9738(8) 0.2817(5) 0.4320(5)
H29 H 0.92550 0.30090 0.50230
H30 H 1.10040 0.30970 0.42620
C20 C 0.8382(7) 0.3155(4) 0.3368(4)
H31 H 0.88750 0.29610 0.26670
H32 H 0.83060 0.38460 0.33770
C21 C 0.6381(6) 0.2733(3) 0.3470(3)
H33 H 0.59210 0.29280 0.41880
C22 C 0.6887(6) 0.1270(3) 0.5327(3)
H34 H 0.67650 0.19380 0.55570
C23 C 0.4942(7) 0.3082(3) 0.2556(3)
H35 H 0.37570 0.27190 0.25780
H36 H 0.46420 0.37480 0.26830
C24 C 0.7790(6) 0.0715(4) 0.6243(4)
#END
