
#######################################################################
#
#                 Cambridge Crystallographic Data Centre
#                                CCDC
#
#######################################################################
#
# If this CIF has been generated from an entry in the Cambridge
# Structural Database, then it will include bibliographic, chemical,
# crystal, experimental, refinement or atomic coordinate data resulting
# from the CCDC's data processing and validation procedures.
#
#######################################################################

data_CSD_CIF_XOJCOO
_audit_creation_date 2002-09-13
_audit_creation_method CSD-ConQuest-V1
_database_code_CSD XOJCOO
_database_code_depnum_ccdc_archive 'CCDC 172245'
_chemical_formula_sum 'C19 H21 N1 O4'
_chemical_formula_moiety
;
C19 H21 N1 O4
;
_journal_coden_Cambridge 179
_journal_volume 41
_journal_year 2002
_journal_page_first 2132
_journal_name_full 'Angew.Chem.,Int.Ed. '
loop_
_publ_author_name
"E.Mainetti"
"V.Mouries"
"L.Fensterbank"
"M.Malacria"
"J.Marco-Contelles"
_chemical_name_systematic
;
4,4-Dimethyl-tetracyclo(4.4.0.0^1,3^.0^8,10^)decane-6-(4-nitrobenzoate)
;
_cell_volume   1659.839
_exptl_crystal_density_diffrn 1.31
_exptl_crystal_description 'box'
_diffrn_ambient_temperature 295
#These two values have been output from a single CSD field.
_refine_ls_R_factor_gt 0.0571
_refine_ls_wR_factor_gt 0.0571
_symmetry_cell_setting monoclinic
_symmetry_space_group_name_H-M 'P 21/a'
_symmetry_Int_Tables_number 14
loop_
_symmetry_equiv_pos_site_id
_symmetry_equiv_pos_as_xyz
1 x,y,z
2 1/2+x,1/2-y,z
3 -x,-y,-z
4 -1/2-x,-1/2+y,-z
_cell_length_a 12.435(3)
_cell_length_b 10.418(2)
_cell_length_c 13.083(4)
_cell_angle_alpha 90
_cell_angle_beta 101.67(2)
_cell_angle_gamma 90
_cell_formula_units_Z 4
loop_
_atom_type_symbol
_atom_type_radius_bond
C 0.68
H 0.23
N 0.68
O 0.68
loop_
_atom_site_label
_atom_site_type_symbol
_atom_site_fract_x
_atom_site_fract_y
_atom_site_fract_z
O1 O 0.1317(1) -0.0071(2) 0.7181(1)
O2 O 0.1701(2) -0.2132(2) 0.7644(2)
O3 O -0.2481(2) -0.1993(3) 1.0371(2)
O4 O -0.2859(2) -0.0071(3) 0.9886(2)
N1 N -0.2312(2) -0.1034(3) 0.9908(2)
C1 C 0.2047(3) 0.0974(3) 0.4267(2)
C2 C 0.1560(2) 0.1439(2) 0.5153(2)
C3 C 0.2281(2) 0.1350(2) 0.6222(2)
C4 C 0.2578(2) 0.2389(2) 0.7010(2)
C5 C 0.3456(2) 0.1792(2) 0.6528(2)
C6 C 0.4166(2) 0.0734(3) 0.7118(2)
C7 C 0.3331(2) -0.0247(2) 0.7384(2)
C8 C 0.2243(2) -0.0010(2) 0.6629(2)
C9 C 0.1946(2) -0.0818(2) 0.5622(2)
C10 C 0.1364(2) 0.0088(3) 0.4764(2)
C11 C 0.4868(2) 0.0134(3) 0.6405(3)
C12 C 0.4929(3) 0.1230(3) 0.8103(2)
C13 C 0.1171(2) -0.1169(2) 0.7667(2)
C14 C 0.0256(2) -0.1075(2) 0.8253(2)
C15 C 0.0018(2) -0.2175(2) 0.8773(2)
C16 C -0.0832(2) -0.2164(2) 0.9313(2)
C17 C -0.1410(2) -0.1049(2) 0.9328(2)
C18 C -0.1192(2) 0.0058(3) 0.8831(2)
C19 C -0.0346(2) 0.0034(2) 0.8284(2)
H1 H 0.28570 0.08340 0.43700
H2 H 0.17610 0.13030 0.35450
H3 H 0.11380 0.22360 0.52380
H4 H 0.25620 0.22190 0.77590
H5 H 0.23370 0.32910 0.68290
H6 H 0.40350 0.21830 0.61970
H7 H 0.32400 -0.01240 0.81190
H8 H 0.35920 -0.11420 0.72960
H9 H 0.14470 -0.15390 0.57230
H10 H 0.26270 -0.11740 0.54330
H11 H 0.07380 -0.04800 0.44430
H12 H 0.53360 -0.05630 0.67910
H13 H 0.53490 0.08070 0.61870
H14 H 0.43780 -0.02370 0.57730
H15 H 0.53770 0.05030 0.84630
H16 H 0.44820 0.16110 0.85820
H17 H 0.54270 0.19000 0.79080
H18 H 0.04620 -0.29720 0.87570
H19 H -0.10190 -0.29500 0.96800
H20 H -0.16310 0.08560 0.88630
H21 H -0.01710 0.08210 0.79130
#END
