
#######################################################################
#
#                 Cambridge Crystallographic Data Centre
#                                CCDC
#
#######################################################################
#
# If this CIF has been generated from an entry in the Cambridge
# Structural Database, then it will include bibliographic, chemical,
# crystal, experimental, refinement or atomic coordinate data resulting
# from the CCDC's data processing and validation procedures.
#
#######################################################################

data_CSD_CIF_XOJMIT01
_audit_creation_date 2009-05-05
_audit_creation_method CSD-ConQuest-V1
_database_code_CSD XOJMIT01
_database_code_depnum_ccdc_archive 'CCDC 676399'
_chemical_formula_sum 'C11 H10 N4 O2'
_chemical_formula_moiety
;
C11 H10 N4 O2
;
_journal_coden_Cambridge 1147
_journal_volume 8
_journal_year 2008
_journal_page_first 4021
_journal_name_full 'Cryst.Growth Des. '
loop_
_publ_author_name
"O-Pil Kwon"
"M.Jazbinsek"
"Hosup Yun"
"Jung-In Seo"
"Eun-Mi Kim"
"Yoon-Sup Lee"
"P.Gunter"
_chemical_name_systematic
;
2-((2-(4-Nitrophenyl)hydrazono)methyl)-1H-pyrrole
;
_cell_volume   1111.349
_exptl_crystal_density_diffrn 1.376
_exptl_special_details
;
polymorph II

;
_exptl_crystal_description 'needle'
_diffrn_ambient_temperature 293
#These two values have been output from a single CSD field.
_refine_ls_R_factor_gt 0.0536
_refine_ls_wR_factor_gt 0.0536
_symmetry_cell_setting orthorhombic
_symmetry_space_group_name_H-M 'P 21 21 21'
_symmetry_Int_Tables_number 19
loop_
_symmetry_equiv_pos_site_id
_symmetry_equiv_pos_as_xyz
1 x,y,z
2 1/2-x,-y,1/2+z
3 1/2+x,1/2-y,-z
4 -x,1/2+y,1/2-z
_cell_length_a 6.0209(4)
_cell_length_b 11.8038(8)
_cell_length_c 15.6375(12)
_cell_angle_alpha 90
_cell_angle_beta 90
_cell_angle_gamma 90
_cell_formula_units_Z 4
loop_
_atom_type_symbol
_atom_type_radius_bond
C 0.68
H 0.23
N 0.68
O 0.68
loop_
_atom_site_label
_atom_site_type_symbol
_atom_site_fract_x
_atom_site_fract_y
_atom_site_fract_z
C1 C 0.2237(5) 0.4288(2) 0.50153(15)
C2 C 0.0189(5) 0.3747(2) 0.49497(17)
H1 H -0.06210 0.35760 0.54390
C3 C -0.0618(5) 0.3469(2) 0.41649(16)
H2 H -0.19850 0.31070 0.41190
C4 C 0.0608(4) 0.3726(2) 0.34172(15)
C5 C 0.2703(4) 0.4239(2) 0.35014(16)
H3 H 0.35490 0.43900 0.30170
C6 C 0.3505(5) 0.4515(2) 0.42949(17)
H4 H 0.48920 0.48540 0.43500
C7 C -0.3055(4) 0.2985(2) 0.17691(17)
H5 H -0.23420 0.33470 0.13180
C8 C -0.5109(4) 0.2379(2) 0.16315(16)
C9 C -0.6018(4) 0.1718(2) 0.22572(14)
H6 H -0.54270 0.16220 0.28020
C10 C -0.7901(5) 0.1225(2) 0.1971(2)
H7 H -0.88150 0.07410 0.22810
C11 C -0.8226(5) 0.1563(3) 0.1147(2)
H8 H -0.93860 0.13440 0.07910
N1 N 0.3051(5) 0.4619(2) 0.58431(15)
N2 N -0.0221(4) 0.35311(19) 0.26230(13)
H9 H 0.05210 0.37340 0.21790
N3 N -0.2229(4) 0.30131(18) 0.25311(13)
N4 N -0.6498(5) 0.2300(3) 0.09353(18)
H10 H -0.63320 0.26440 0.04550
O1 O 0.4948(5) 0.4993(3) 0.59039(17)
O2 O 0.1839(5) 0.4547(2) 0.64676(14)
#END
