
#######################################################################
#
#                 Cambridge Crystallographic Data Centre
#                                CCDC
#
#######################################################################
#
# If this CIF has been generated from an entry in the Cambridge
# Structural Database, then it will include bibliographic, chemical,
# crystal, experimental, refinement or atomic coordinate data resulting
# from the CCDC's data processing and validation procedures.
#
#######################################################################

data_CSD_CIF_XOJMIT
_audit_creation_date 2009-05-05
_audit_creation_method CSD-ConQuest-V1
_database_code_CSD XOJMIT
_database_code_depnum_ccdc_archive 'CCDC 676398'
_chemical_formula_sum 'C11 H10 N4 O2'
_chemical_formula_moiety
;
C11 H10 N4 O2
;
_journal_coden_Cambridge 1147
_journal_volume 8
_journal_year 2008
_journal_page_first 4021
_journal_name_full 'Cryst.Growth Des. '
loop_
_publ_author_name
"O-Pil Kwon"
"M.Jazbinsek"
"Hosup Yun"
"Jung-In Seo"
"Eun-Mi Kim"
"Yoon-Sup Lee"
"P.Gunter"
_chemical_name_systematic
;
2-((2-(4-Nitrophenyl)hydrazono)methyl)-1H-pyrrole
;
_cell_volume   1122.316
_exptl_crystal_density_diffrn 1.363
_exptl_special_details
;
polymorph I

;
_exptl_crystal_description 'plate'
_diffrn_ambient_temperature 293
#These two values have been output from a single CSD field.
_refine_ls_R_factor_gt 0.0621
_refine_ls_wR_factor_gt 0.0621
_symmetry_cell_setting monoclinic
_symmetry_space_group_name_H-M 'P n'
_symmetry_Int_Tables_number 7
loop_
_symmetry_equiv_pos_site_id
_symmetry_equiv_pos_as_xyz
1 x,y,z
2 1/2+x,-y,1/2+z
_cell_length_a 11.0487(12)
_cell_length_b 5.8345(6)
_cell_length_c 17.495(2)
_cell_angle_alpha 90
_cell_angle_beta 95.648(3)
_cell_angle_gamma 90
_cell_formula_units_Z 4
loop_
_atom_type_symbol
_atom_type_radius_bond
C 0.68
H 0.23
N 0.68
O 0.68
loop_
_atom_site_label
_atom_site_type_symbol
_atom_site_fract_x
_atom_site_fract_y
_atom_site_fract_z
C1 C -0.0802(4) 0.8165(6) -0.3465(2)
C2 C -0.1926(4) 0.7128(7) -0.3666(3)
H1 H -0.24500 0.77060 -0.40680
C3 C -0.2248(4) 0.5249(7) -0.3263(3)
H2 H -0.29930 0.45400 -0.33960
C4 C -0.1463(4) 0.4385(6) -0.2652(2)
C5 C -0.0342(4) 0.5458(7) -0.2462(2)
H3 H 0.01840 0.48970 -0.20570
C6 C -0.0018(4) 0.7320(7) -0.2865(3)
H4 H 0.07300 0.80230 -0.27370
C7 C -0.1429(4) -0.0262(7) -0.1374(2)
H5 H -0.22200 -0.07520 -0.15180
C8 C -0.0690(4) -0.1505(7) -0.0807(2)
C9 C 0.0465(4) -0.0859(7) -0.0537(2)
H6 H 0.08570 0.04580 -0.06820
C10 C 0.0948(5) -0.2432(9) -0.0026(3)
H7 H 0.17230 -0.23720 0.02340
C11 C 0.0127(5) -0.4089(8) 0.0043(3)
H8 H 0.02280 -0.53740 0.03570
C12 C 0.4391(4) 0.7794(7) -0.3244(3)
C13 C 0.3903(4) 0.5684(7) -0.3047(2)
H9 H 0.42600 0.48430 -0.26330
C14 C 0.2892(4) 0.4894(7) -0.3475(2)
H10 H 0.25600 0.34930 -0.33510
C15 C 0.2344(4) 0.6151(7) -0.4097(2)
C16 C 0.2858(4) 0.8251(7) -0.4299(2)
H11 H 0.25070 0.90910 -0.47150
C17 C 0.3892(4) 0.9044(7) -0.3869(2)
H12 H 0.42500 1.04130 -0.40000
C18 C -0.0360(4) 0.5758(8) -0.5327(2)
H13 H -0.05980 0.43280 -0.51610
C19 C -0.1144(4) 0.6970(7) -0.5887(2)
C20 C -0.0845(4) 0.9064(7) -0.6172(2)
H14 H -0.01170 0.98390 -0.60480
C21 C -0.1787(5) 0.9821(10) -0.6666(3)
H15 H -0.18130 1.12070 -0.69300
C22 C -0.2683(4) 0.8224(8) -0.6710(3)
H16 H -0.34240 0.83110 -0.70110
N1 N -0.0457(4) 1.0135(6) -0.3878(2)
N2 N -0.1808(3) 0.2526(6) -0.2262(2)
H17 H -0.25230 0.19590 -0.23700
N3 N -0.1022(3) 0.1531(6) -0.1690(2)
N4 N -0.0903(5) -0.3532(8) -0.0442(3)
H18 H -0.15620 -0.43230 -0.05040
N5 N 0.5407(3) 0.8696(7) -0.2771(2)
N6 N 0.1305(3) 0.5312(6) -0.4492(2)
H19 H 0.10510 0.39640 -0.43890
N7 N 0.0670(3) 0.6594(6) -0.5046(2)
N8 N -0.2286(4) 0.6417(8) -0.6220(3)
H20 H -0.26850 0.51860 -0.61420
O1 O 0.0517(3) 1.1068(6) -0.3680(2)
O2 O -0.1173(4) 1.0887(7) -0.4419(2)
O3 O 0.5866(3) 1.0540(6) -0.2959(3)
O4 O 0.5784(3) 0.7696(7) -0.2170(2)
#END
