
#######################################################################
#
#                 Cambridge Crystallographic Data Centre
#                                CCDC
#
#######################################################################
#
# If this CIF has been generated from an entry in the Cambridge
# Structural Database, then it will include bibliographic, chemical,
# crystal, experimental, refinement or atomic coordinate data resulting
# from the CCDC's data processing and validation procedures.
#
#######################################################################

data_CSD_CIF_XOKTAS
_audit_creation_date 2002-10-14
_audit_creation_method CSD-ConQuest-V1
_database_code_CSD XOKTAS
_chemical_formula_sum 'C23 H19 N5 O2'
_chemical_formula_moiety
;
C23 H19 N5 O2
;
_journal_coden_Cambridge 603
_journal_volume 20
_journal_year 2001
_journal_page_first 501
_journal_name_full 'Jiegou Huaxue(Chin.)(Chin.J.Struct.Chem.) '
loop_
_publ_author_name
"Da-Qing Shi"
"Shu-Jiang Tu"
"Xiang-Shan Wang"
"Chang-Sheng Yao"
"Chen-Xia Yu"
"Yu-Cheng Wang"
_chemical_name_systematic
;
trans,trans-2-Amino-1,3,3-tricyano-5-nitro-4,6-bis(p-tolyl)cyclohexene
;
_chemical_melting_point 505.15
_cell_volume   2131.163
_exptl_crystal_density_diffrn 1.239
_exptl_special_details
;
Melting point range 505.15-507.15K

;
_diffrn_ambient_temperature ?
_diffrn_special_details
;
The study was carried out at room temperature,in the range 283-303K

;
#These two values have been output from a single CSD field.
_refine_ls_R_factor_gt 0.056
_refine_ls_wR_factor_gt 0.056
_symmetry_cell_setting monoclinic
_symmetry_space_group_name_H-M 'P 21/a'
_symmetry_Int_Tables_number 14
loop_
_symmetry_equiv_pos_site_id
_symmetry_equiv_pos_as_xyz
1 x,y,z
2 1/2-x,1/2+y,-z
3 -x,-y,-z
4 -1/2+x,-1/2-y,z
_cell_length_a 12.712(2)
_cell_length_b 13.071(4)
_cell_length_c 13.368(2)
_cell_angle_alpha 90
_cell_angle_beta 106.37(1)
_cell_angle_gamma 90
_cell_formula_units_Z 4
loop_
_atom_type_symbol
_atom_type_radius_bond
C 0.68
H 0.23
N 0.68
O 0.68
loop_
_atom_site_label
_atom_site_type_symbol
_atom_site_fract_x
_atom_site_fract_y
_atom_site_fract_z
O1 O 0.2407(3) 0.4600(2) 0.9910(2)
O2 O 0.3771(2) 0.4603(2) 0.9269(2)
N1 N 0.3019(3) 0.5016(2) 0.9501(2)
N2 N 0.0536(3) 0.7954(3) 0.8057(3)
N3 N 0.2513(4) 0.7918(3) 0.6014(3)
N4 N 0.3429(2) 0.9124(2) 0.8328(2)
N5 N 0.5344(3) 0.8972(2) 1.0759(2)
C1 C 0.2850(2) 0.6150(2) 0.9272(2)
C2 C 0.2779(2) 0.6328(2) 0.8124(2)
C3 C 0.2478(3) 0.7482(2) 0.7910(2)
C4 C 0.3313(3) 0.8168(2) 0.8682(2)
C5 C 0.3879(2) 0.7789(2) 0.9619(2)
C6 C 0.3813(2) 0.6709(2) 1.0018(2)
C7 C 0.1373(3) 0.7736(2) 0.7983(3)
C8 C 0.2502(3) 0.7721(3) 0.6832(3)
C9 C 0.4689(3) 0.8445(3) 1.0273(3)
C10 C 0.2004(3) 0.5600(2) 0.7380(2)
C11 C 0.0994(3) 0.5345(3) 0.7481(3)
C12 C 0.0345(3) 0.4631(3) 0.6822(3)
C13 C 0.0683(3) 0.4164(3) 0.6043(3)
C14 C 0.1694(3) 0.4421(3) 0.5950(3)
C15 C 0.2365(3) 0.5130(2) 0.6611(3)
C16 C -0.0024(4) 0.3379(3) 0.5343(3)
C17 C 0.3699(3) 0.6650(2) 1.1120(2)
C18 C 0.2945(3) 0.7219(3) 1.1433(3)
C19 C 0.2767(4) 0.7064(3) 1.2401(4)
C20 C 0.3333(4) 0.6324(4) 1.3070(3)
C21 C 0.4092(4) 0.5771(4) 1.2769(3)
C22 C 0.4292(3) 0.5923(3) 1.1809(3)
C23 C 0.3127(4) 0.6081(5) 1.4114(4)
H1 H 0.29160 0.93350 0.77590
H2 H 0.38100 0.96830 0.87710
#END
