
#######################################################################
#
#                 Cambridge Crystallographic Data Centre
#                                CCDC
#
#######################################################################
#
# If this CIF has been generated from an entry in the Cambridge
# Structural Database, then it will include bibliographic, chemical,
# crystal, experimental, refinement or atomic coordinate data resulting
# from the CCDC's data processing and validation procedures.
#
#######################################################################

data_CSD_CIF_XONVOL
_audit_creation_date 2002-10-15
_audit_creation_method CSD-ConQuest-V1
_database_code_CSD XONVOL
_database_code_depnum_ccdc_archive 'CCDC 184372'
_chemical_formula_sum 'C16 H21 N1 O5'
_chemical_formula_moiety
;
C16 H21 N1 O5
;
_journal_coden_Cambridge 1336
_journal_volume 4
_journal_year 2002
_journal_page_first 2345
_journal_name_full 'Org.Lett. '
loop_
_publ_author_name
"T.K.Hutton"
"K.Muir"
"D.J.Procter"
_chemical_name_systematic
;
2-Hydroxy-2,3,3-trimethylcyclopentylmethyl 4-nitrobenzoate
;
_cell_volume   1567.891
_exptl_crystal_colour 'colorless'
_exptl_crystal_density_diffrn 1.302
_exptl_crystal_description 'needle'
_diffrn_ambient_temperature 100
#These two values have been output from a single CSD field.
_refine_ls_R_factor_gt 0.0501
_refine_ls_wR_factor_gt 0.0501
_symmetry_cell_setting monoclinic
_symmetry_space_group_name_H-M 'P 21/c'
_symmetry_Int_Tables_number 14
loop_
_symmetry_equiv_pos_site_id
_symmetry_equiv_pos_as_xyz
1 x,y,z
2 x,1/2-y,1/2+z
3 -x,-y,-z
4 -x,-1/2+y,-1/2-z
_cell_length_a 10.4932(3)
_cell_length_b 13.0916(4)
_cell_length_c 12.2594(4)
_cell_angle_alpha 90
_cell_angle_beta 111.41
_cell_angle_gamma 90
_cell_formula_units_Z 4
loop_
_atom_type_symbol
_atom_type_radius_bond
C 0.68
H 0.23
N 0.68
O 0.68
loop_
_atom_site_label
_atom_site_type_symbol
_atom_site_fract_x
_atom_site_fract_y
_atom_site_fract_z
O1 O -0.18405(7) -0.00836(6) 0.82179(7)
O2 O 0.21350(7) -0.05225(7) 0.84245(7)
O3 O 0.31999(7) -0.07971(6) 1.03650(7)
O4 O 0.75820(8) -0.25461(7) 0.73505(7)
O5 O 0.87727(8) -0.25751(8) 0.92083(7)
N1 N 0.77209(9) -0.23918(7) 0.83753(8)
C1 C -0.13691(10) 0.06805(8) 0.75994(9)
C2 C -0.23987(10) 0.07386(8) 0.63127(10)
C3 C -0.21598(11) -0.03039(9) 0.58224(10)
C4 C -0.06283(12) -0.0555(1) 0.64580(11)
C5 C -0.00769(10) 0.02245(9) 0.74707(10)
C6 C 0.08911(10) -0.02172(10) 0.86152(10)
C7 C 0.31865(9) -0.08140(8) 0.93717(9)
C8 C 0.43676(9) -0.11913(8) 0.90743(9)
C9 C 0.43135(10) -0.12352(9) 0.79214(9)
C10 C 0.5412(1) -0.16309(8) 0.76821(9)
C11 C 0.65520(9) -0.19627(8) 0.86161(9)
C12 C 0.66364(10) -0.19186(8) 0.97665(9)
C13 C 0.55249(10) -0.15306(8) 0.99960(9)
C14 C -0.11161(12) 0.16835(9) 0.82687(11)
H1 H -0.19730 0.19620 0.82420
H2 H -0.06800 0.21570 0.79180
H3 H -0.05350 0.15650 0.90690
C15 C -0.38764(10) 0.08756(9) 0.62387(11)
H4 H -0.39610 0.15150 0.65900
H5 H -0.41150 0.03270 0.66480
H6 H -0.44800 0.08710 0.54320
C16 C -0.20325(12) 0.16028(10) 0.56345(11)
H7 H -0.26700 0.16050 0.48390
H8 H -0.11230 0.14980 0.56440
H9 H -0.20750 0.22460 0.59960
H10 H -0.2301(18) 0.0244(14) 0.8598(15)
H11 H -0.2735(15) -0.0866(12) 0.6003(14)
H12 H -0.2419(16) -0.0279(12) 0.4942(14)
H13 H -0.0130(16) -0.0522(13) 0.5927(15)
H14 H -0.0524(15) -0.1276(13) 0.6776(14)
H15 H 0.0420(13) 0.0796(10) 0.7228(12)
H16 H 0.1153(14) 0.0280(11) 0.9257(13)
H17 H 0.0524(14) -0.0834(11) 0.8847(13)
H18 H 0.3530(14) -0.1007(11) 0.7297(12)
H19 H 0.5405(14) -0.1670(11) 0.6893(13)
H20 H 0.7443(15) -0.2152(12) 1.0393(13)
H21 H 0.5525(14) -0.1512(11) 1.0799(12)
#END
