
#######################################################################
#
#                 Cambridge Crystallographic Data Centre
#                                CCDC
#
#######################################################################
#
# If this CIF has been generated from an entry in the Cambridge
# Structural Database, then it will include bibliographic, chemical,
# crystal, experimental, refinement or atomic coordinate data resulting
# from the CCDC's data processing and validation procedures.
#
#######################################################################

data_CSD_CIF_XOPCOV
_audit_creation_date 2009-05-05
_audit_creation_method CSD-ConQuest-V1
_database_code_CSD XOPCOV
_database_code_depnum_ccdc_archive 'CCDC 678831'
_chemical_formula_sum 'C25 H23 N1 O6'
_chemical_formula_moiety
;
C25 H23 N1 O6
;
_journal_coden_Cambridge 179
_journal_volume 47
_journal_year 2008
_journal_page_first 9887
_journal_name_full 'Angew.Chem.,Int.Ed. '
loop_
_publ_author_name
"H.Takikawa"
"K.Hikita"
"K.Suzuki"
_chemical_name_systematic
;
5a-(3-Acetyl-2-hydroxy-4-methoxyphenyl)-10-methoxy-4-methyl-3,4,5,5a-tetrahydr
o-6H-anthra(9,1-cd)(1,2)oxazol-6-one
;
_chemical_melting_point 543.15
_cell_volume   1033.143
_exptl_crystal_colour 'beige'
_exptl_crystal_density_diffrn 1.393
_exptl_special_details
;
Melts with decomposition.

;
_exptl_crystal_description 'block'
_exptl_crystal_preparation 'chloroform/diethyl ether'
_diffrn_ambient_temperature 173
#These two values have been output from a single CSD field.
_refine_ls_R_factor_gt 0.0597
_refine_ls_wR_factor_gt 0.0597
_symmetry_cell_setting triclinic
_symmetry_space_group_name_H-M 'P -1'
_symmetry_Int_Tables_number 2
loop_
_symmetry_equiv_pos_site_id
_symmetry_equiv_pos_as_xyz
1 x,y,z
2 -x,-y,-z
_cell_length_a 7.9229(17)
_cell_length_b 10.542(3)
_cell_length_c 13.156(4)
_cell_angle_alpha 86.505(13)
_cell_angle_beta 84.395(12)
_cell_angle_gamma 70.942(12)
_cell_formula_units_Z 2
loop_
_atom_type_symbol
_atom_type_radius_bond
C 0.68
H 0.23
N 0.68
O 0.68
loop_
_atom_site_label
_atom_site_type_symbol
_atom_site_fract_x
_atom_site_fract_y
_atom_site_fract_z
O1 O 0.20048(15) 0.09342(13) 0.5248(1)
O2 O -0.28693(17) 0.10405(14) 0.26685(11)
O3 O -0.29798(17) 0.34843(15) 0.66118(10)
O4 O -0.19039(18) 0.27127(14) 0.10856(11)
O5 O -0.13418(18) 0.70706(13) 0.11471(11)
O6 O -0.29438(19) 0.43882(15) -0.03002(11)
N1 N 0.02681(19) 0.16698(16) 0.57089(12)
C1 C 0.1933(2) 0.09489(17) 0.42202(14)
C2 C 0.3411(2) 0.01730(18) 0.34913(15)
H1 H 0.36240 -0.08020 0.36080
H2 H 0.45300 0.03600 0.35880
C3 C 0.2851(2) 0.06056(19) 0.23987(15)
H3 H 0.29550 0.15190 0.22470
C4 C 0.0904(2) 0.07003(18) 0.22916(15)
H4 H 0.07320 -0.01680 0.25070
H5 H 0.06460 0.08840 0.15660
C5 C -0.0421(2) 0.18355(17) 0.29560(13)
C6 C -0.2307(2) 0.17016(17) 0.31741(13)
C7 C -0.3440(2) 0.24718(17) 0.40810(14)
C8 C -0.5290(2) 0.29158(19) 0.40569(16)
H6 H -0.58150 0.27780 0.34720
C9 C -0.6370(2) 0.3561(2) 0.48899(17)
H7 H -0.76350 0.38690 0.48660
C10 C -0.5635(2) 0.37662(19) 0.57592(15)
H8 H -0.63930 0.42060 0.63250
C11 C -0.3801(2) 0.33278(17) 0.57944(13)
C12 C -0.2676(2) 0.26663(16) 0.49546(13)
C13 C -0.0730(2) 0.20615(17) 0.49348(13)
C14 C 0.0271(2) 0.16622(16) 0.39821(13)
C15 C 0.4106(3) -0.0346(3) 0.1606(2)
H9 H 0.51090 -0.00210 0.13740
H10 H 0.34430 -0.03760 0.10210
H11 H 0.45650 -0.12490 0.19160
C16 C -0.4111(3) 0.4121(2) 0.74843(15)
H12 H -0.43470 0.50930 0.74180
H13 H -0.35100 0.37730 0.81080
H14 H -0.52460 0.39300 0.75200
C17 C -0.0655(2) 0.32452(16) 0.24807(13)
C18 C -0.1426(2) 0.36247(17) 0.15393(13)
C19 C -0.1694(2) 0.49364(17) 0.10908(13)
C20 C -0.1103(2) 0.58455(17) 0.16004(14)
C21 C -0.0311(2) 0.54639(18) 0.25172(14)
H15 H 0.00940 0.60690 0.28540
C22 C -0.0119(2) 0.41864(18) 0.29335(13)
H16 H 0.04100 0.39450 0.35650
C23 C -0.0771(3) 0.80188(19) 0.16412(19)
H17 H -0.17570 0.85490 0.21060
H18 H -0.04220 0.86170 0.11250
H19 H 0.02560 0.75370 0.20300
C24 C -0.2609(2) 0.52785(19) 0.01374(13)
C25 C -0.3224(3) 0.6667(2) -0.03268(16)
H20 H -0.22770 0.67950 -0.08190
H21 H -0.34920 0.73230 0.02120
H22 H -0.43050 0.67920 -0.06780
H23 H -0.257(5) 0.324(4) 0.049(3)
#END
