
#######################################################################
#
#                 Cambridge Crystallographic Data Centre
#                                CCDC
#
#######################################################################
#
# If this CIF has been generated from an entry in the Cambridge
# Structural Database, then it will include bibliographic, chemical,
# crystal, experimental, refinement or atomic coordinate data resulting
# from the CCDC's data processing and validation procedures.
#
#######################################################################

data_CSD_CIF_XOPCIP
_audit_creation_date 2009-05-04
_audit_creation_method CSD-ConQuest-V1
_database_code_CSD XOPCIP
_database_code_depnum_ccdc_archive 'CCDC 678830'
_chemical_formula_sum 'C23 H21 N1 O4'
_chemical_formula_moiety
;
C23 H21 N1 O4
;
_journal_coden_Cambridge 179
_journal_volume 47
_journal_year 2008
_journal_page_first 9887
_journal_name_full 'Angew.Chem.,Int.Ed. '
loop_
_publ_author_name
"H.Takikawa"
"K.Hikita"
"K.Suzuki"
_chemical_name_systematic
;
5a-(Benzyloxy)-10-methoxy-4-methyl-3,4,5,5a-tetrahydro-6H-anthra(9,1-cd)(1,2)o
xazol-6-one
;
_chemical_melting_point 456.15
_cell_volume   1852.246
_exptl_crystal_colour 'light yellow'
_exptl_crystal_density_diffrn 1.346
_exptl_special_details
;
Melts with decomposition.

;
_exptl_crystal_description 'block'
_exptl_crystal_preparation 'chloroform/diethyl ether'
_diffrn_ambient_temperature 173
#These two values have been output from a single CSD field.
_refine_ls_R_factor_gt 0.0502
_refine_ls_wR_factor_gt 0.0502
_symmetry_cell_setting monoclinic
_symmetry_space_group_name_H-M 'P 21/c'
_symmetry_Int_Tables_number 14
loop_
_symmetry_equiv_pos_site_id
_symmetry_equiv_pos_as_xyz
1 x,y,z
2 -x,1/2+y,1/2-z
3 -x,-y,-z
4 x,-1/2-y,-1/2+z
_cell_length_a 11.869(5)
_cell_length_b 7.785(3)
_cell_length_c 20.046(6)
_cell_angle_alpha 90
_cell_angle_beta 90.160(17)
_cell_angle_gamma 90
_cell_formula_units_Z 4
loop_
_atom_type_symbol
_atom_type_radius_bond
C 0.68
H 0.23
N 0.68
O 0.68
loop_
_atom_site_label
_atom_site_type_symbol
_atom_site_fract_x
_atom_site_fract_y
_atom_site_fract_z
O1 O -0.01355(8) -0.20537(12) 0.04836(5)
O2 O 0.27719(7) 0.00848(12) 0.15349(5)
O3 O 0.28256(10) 0.34214(13) 0.06402(7)
O4 O -0.16492(9) 0.16141(14) 0.17613(5)
N1 N -0.06531(10) -0.06877(14) 0.08604(6)
C1 C 0.09834(11) -0.17733(16) 0.04659(6)
C2 C 0.17936(12) -0.27749(17) 0.00600(7)
H1 H 0.16530 -0.25750 -0.04210
H2 H 0.17070 -0.40170 0.01510
C3 C 0.29939(12) -0.21805(18) 0.02485(7)
H3 H 0.31850 -0.26850 0.06930
C4 C 0.30821(12) -0.02045(18) 0.03077(7)
H4 H 0.38760 0.01210 0.03930
H5 H 0.28450 0.03290 -0.01180
C5 C 0.23431(11) 0.04695(16) 0.08720(6)
C6 C 0.21443(11) 0.24236(17) 0.08788(7)
C7 C 0.11253(12) 0.30498(16) 0.12510(7)
C8 C 0.11436(14) 0.47374(18) 0.14925(7)
H6 H 0.17850 0.54440 0.14210
C9 C 0.02288(14) 0.53672(18) 0.18342(8)
H7 H 0.02460 0.65120 0.19980
C10 C -0.07171(14) 0.43649(19) 0.19432(7)
H8 H -0.13360 0.48150 0.21870
C11 C -0.07598(12) 0.26839(18) 0.16931(7)
C12 C 0.01673(11) 0.20122(16) 0.13474(7)
C13 C 0.01938(11) 0.03000(16) 0.10398(6)
C14 C 0.12338(11) -0.03611(16) 0.08198(6)
C15 C 0.38357(14) -0.2866(2) -0.02565(9)
H9 H 0.41110 -0.39910 -0.01100
H10 H 0.44710 -0.20670 -0.02930
H11 H 0.34670 -0.29820 -0.06920
C16 C 0.38746(11) 0.07405(19) 0.16945(7)
H12 H 0.40320 0.17810 0.14260
H13 H 0.44550 -0.01330 0.15910
C17 C 0.39047(10) 0.11731(16) 0.24278(6)
C18 C 0.30901(11) 0.22317(17) 0.27071(7)
H14 H 0.25100 0.26910 0.24320
C19 C 0.31129(12) 0.26274(18) 0.33843(8)
H15 H 0.25480 0.33450 0.35710
C20 C 0.39637(13) 0.19702(19) 0.37858(7)
H16 H 0.39830 0.22420 0.42480
C21 C 0.47845(13) 0.09176(19) 0.35144(8)
H17 H 0.53690 0.04730 0.37900
C22 C 0.47523(11) 0.05116(17) 0.28370(8)
H18 H 0.53110 -0.02200 0.26530
C23 C -0.26232(14) 0.2274(2) 0.20900(9)
H19 H -0.25640 0.20500 0.25700
H20 H -0.32980 0.17090 0.19120
H21 H -0.26760 0.35140 0.20130
#END
