
#######################################################################
#
#                 Cambridge Crystallographic Data Centre
#                                CCDC
#
#######################################################################
#
# If this CIF has been generated from an entry in the Cambridge
# Structural Database, then it will include bibliographic, chemical,
# crystal, experimental, refinement or atomic coordinate data resulting
# from the CCDC's data processing and validation procedures.
#
#######################################################################

data_CSD_CIF_XOPCUB
_audit_creation_date 2009-05-05
_audit_creation_method CSD-ConQuest-V1
_database_code_CSD XOPCUB
_database_code_depnum_ccdc_archive 'CCDC 678832'
_chemical_formula_sum 'C28 H25 N1 O6'
_chemical_formula_moiety
;
C28 H25 N1 O6
;
_journal_coden_Cambridge 179
_journal_volume 47
_journal_year 2008
_journal_page_first 9887
_journal_name_full 'Angew.Chem.,Int.Ed. '
loop_
_publ_author_name
"H.Takikawa"
"K.Hikita"
"K.Suzuki"
_chemical_name_systematic
;
5a-(1-Hydroxy-5,8-dimethoxy-2-naphthyl)-10-methoxy-4-methyl-3,4,5,5a-tetrahydr
o-6H-anthra(9,1-cd)(1,2)oxazol-6-one
;
_chemical_melting_point 568.15
_cell_volume   1152.148
_exptl_crystal_colour 'yellow'
_exptl_crystal_density_diffrn 1.359
_exptl_special_details
;
Melts with decomposition.

;
_exptl_crystal_description 'platelet'
_exptl_crystal_preparation 'chloroform/diethyl ether'
_diffrn_ambient_temperature 173
#These two values have been output from a single CSD field.
_refine_ls_R_factor_gt 0.051
_refine_ls_wR_factor_gt 0.051
_symmetry_cell_setting triclinic
_symmetry_space_group_name_H-M 'P -1'
_symmetry_Int_Tables_number 2
loop_
_symmetry_equiv_pos_site_id
_symmetry_equiv_pos_as_xyz
1 x,y,z
2 -x,-y,-z
_cell_length_a 8.845(4)
_cell_length_b 10.878(4)
_cell_length_c 12.575(3)
_cell_angle_alpha 96.015(11)
_cell_angle_beta 98.817(13)
_cell_angle_gamma 103.110(16)
_cell_formula_units_Z 2
loop_
_atom_type_symbol
_atom_type_radius_bond
C 0.68
H 0.23
N 0.68
O 0.68
loop_
_atom_site_label
_atom_site_type_symbol
_atom_site_fract_x
_atom_site_fract_y
_atom_site_fract_z
C1 C 0.5939(2) -0.07666(16) 0.34220(14)
C2 C 0.7411(2) -0.10429(19) 0.36236(17)
H1 H 0.76370 -0.15340 0.41820
C3 C 0.8539(2) -0.0607(2) 0.30172(19)
H2 H 0.95350 -0.08060 0.31600
C4 C 0.8247(2) 0.01144(17) 0.22061(17)
H3 H 0.90320 0.03990 0.17880
C5 C 0.67954(18) 0.04221(15) 0.20040(14)
C6 C 0.56213(17) -0.00245(14) 0.26072(13)
C7 C 0.5076(3) -0.1806(2) 0.48764(17)
H4 H 0.59560 -0.12480 0.54060
H5 H 0.53620 -0.25950 0.46360
H6 H 0.41400 -0.20100 0.52150
C8 C 0.41074(17) 0.02872(14) 0.22669(12)
C9 C 0.64953(19) 0.11752(14) 0.10848(13)
C10 C 0.40752(18) 0.12762(14) 0.16248(12)
C11 C 0.54420(18) 0.20949(14) 0.12649(12)
C12 C 0.4762(2) 0.25550(16) 0.02147(13)
H7 H 0.55730 0.32580 0.00430
H8 H 0.45070 0.18460 -0.03960
C13 C 0.3268(2) 0.30210(17) 0.03174(15)
H9 H 0.35380 0.37080 0.09580
C14 C 0.1892(2) 0.19580(18) 0.05075(15)
H10 H 0.10940 0.23370 0.07960
H11 H 0.13780 0.13980 -0.01860
C15 C 0.25432(19) 0.12115(15) 0.12964(13)
C16 C 0.2747(3) 0.3600(2) -0.06913(19)
H12 H 0.25450 0.29600 -0.13390
H13 H 0.35820 0.43370 -0.07580
H14 H 0.17800 0.38730 -0.06230
C17 C 0.63546(18) 0.32067(14) 0.21645(12)
C18 C 0.78265(18) 0.39382(14) 0.20797(12)
C19 C 0.86808(18) 0.49860(14) 0.28991(13)
C20 C 0.79896(19) 0.52495(14) 0.38180(13)
C21 C 0.6491(2) 0.45055(16) 0.38856(13)
H15 H 0.60220 0.46860 0.44960
C22 C 0.57044(19) 0.35225(15) 0.30775(13)
H16 H 0.46890 0.30400 0.31360
C23 C 1.0183(2) 0.57953(16) 0.28378(14)
C24 C 1.0918(2) 0.67882(18) 0.36386(17)
H17 H 1.18940 0.73310 0.35720
C25 C 1.0249(2) 0.70206(17) 0.45645(15)
H18 H 1.07910 0.77040 0.51240
C26 C 0.8832(2) 0.62725(16) 0.46631(14)
C27 C 0.8885(3) 0.7341(2) 0.64228(17)
H19 H 0.90100 0.81930 0.62070
H20 H 0.99280 0.71950 0.66690
H21 H 0.82830 0.72780 0.70160
C28 C 1.2246(3) 0.6323(2) 0.1780(2)
H22 H 1.31130 0.62500 0.23370
H23 H 1.21510 0.72070 0.18470
H24 H 1.24610 0.60740 0.10570
N1 N 0.26857(15) -0.03189(13) 0.23675(11)
O1 O 0.47392(15) -0.11725(12) 0.39605(10)
O2 O 0.70172(17) 0.10095(12) 0.02663(11)
O3 O 0.16567(13) 0.02772(11) 0.17323(10)
O4 O 0.84246(14) 0.36215(11) 0.1185(1)
H25 H 0.93050 0.41280 0.12090
O5 O 1.08041(15) 0.55023(12) 0.19222(11)
O6 O 0.80638(16) 0.64054(12) 0.55172(10)
#END
