
#######################################################################
#
#                 Cambridge Crystallographic Data Centre
#                                CCDC
#
#######################################################################
#
# If this CIF has been generated from an entry in the Cambridge
# Structural Database, then it will include bibliographic, chemical,
# crystal, experimental, refinement or atomic coordinate data resulting
# from the CCDC's data processing and validation procedures.
#
#######################################################################

data_CSD_CIF_XOPCEL
_audit_creation_date 2009-05-05
_audit_creation_method CSD-ConQuest-V1
_database_code_CSD XOPCEL
_database_code_depnum_ccdc_archive 'CCDC 678829'
_chemical_formula_sum 'C19 H19 N1 O3'
_chemical_formula_moiety
;
C19 H19 N1 O3
;
_journal_coden_Cambridge 179
_journal_volume 47
_journal_year 2008
_journal_page_first 9887
_journal_name_full 'Angew.Chem.,Int.Ed. '
loop_
_publ_author_name
"H.Takikawa"
"K.Hikita"
"K.Suzuki"
_chemical_name_systematic
;
10-Methoxy-4-methyl-5a-(prop-2-en-1-yl)-3,4,5,5a-tetrahydro-6H-anthra(9,1-cd)(
1,2)oxazol-6-one
;
_chemical_melting_point 400.65
_cell_volume   1594.184
_exptl_crystal_colour 'colorless'
_exptl_crystal_density_diffrn 1.289
_exptl_special_details
;
Melting point range 400.65-401.15K

;
_exptl_crystal_description 'block'
_exptl_crystal_preparation 'acetone/hexane'
_diffrn_ambient_temperature 173
#These two values have been output from a single CSD field.
_refine_ls_R_factor_gt 0.0568
_refine_ls_wR_factor_gt 0.0568
_symmetry_cell_setting monoclinic
_symmetry_space_group_name_H-M 'P 21/a'
_symmetry_Int_Tables_number 14
loop_
_symmetry_equiv_pos_site_id
_symmetry_equiv_pos_as_xyz
1 x,y,z
2 1/2-x,1/2+y,-z
3 -x,-y,-z
4 -1/2+x,-1/2-y,z
_cell_length_a 7.821(2)
_cell_length_b 19.514(8)
_cell_length_c 10.487(5)
_cell_angle_alpha 90
_cell_angle_beta 95.098(18)
_cell_angle_gamma 90
_cell_formula_units_Z 4
loop_
_atom_type_symbol
_atom_type_radius_bond
C 0.68
H 0.23
N 0.68
O 0.68
loop_
_atom_site_label
_atom_site_type_symbol
_atom_site_fract_x
_atom_site_fract_y
_atom_site_fract_z
O1 O 1.22596(15) 0.05728(6) -0.04421(11)
O2 O 0.80574(15) 0.03076(7) 0.34640(12)
O3 O 0.80707(14) 0.19491(6) -0.12621(11)
N1 N 1.07405(17) 0.09773(7) -0.07172(13)
C1 C 1.2426(2) 0.04297(8) 0.08291(15)
C2 C 1.3720(2) -0.00505(8) 0.14494(16)
H1 H 1.48900 0.01040 0.12960
H2 H 1.35430 -0.05150 0.10810
C3 C 1.3526(2) -0.00691(8) 0.29058(16)
H3 H 1.41540 0.03350 0.33010
C4 C 1.1647(2) -0.00223(8) 0.32393(16)
H4 H 1.09910 -0.04150 0.28490
H5 H 1.16170 -0.00530 0.41790
C5 C 1.0789(2) 0.06505(8) 0.27571(15)
C6 C 0.8839(2) 0.06622(8) 0.27674(15)
C7 C 0.78920(19) 0.11743(8) 0.18809(16)
C8 C 0.6377(2) 0.14527(9) 0.22719(18)
H6 H 0.59940 0.13300 0.30760
C9 C 0.5443(2) 0.19077(9) 0.1479(2)
H7 H 0.44190 0.21010 0.17480
C10 C 0.5974(2) 0.20866(9) 0.02980(18)
H8 H 0.53130 0.24000 -0.02360
C11 C 0.74762(19) 0.18077(8) -0.01104(16)
C12 C 0.84767(18) 0.13595(7) 0.06944(15)
C13 C 1.01132(19) 0.10479(7) 0.04017(15)
C14 C 1.11487(19) 0.07283(7) 0.13958(15)
C15 C 1.4375(3) -0.07141(10) 0.3495(2)
H9 H 1.35340 -0.10870 0.34660
H10 H 1.47980 -0.06230 0.43860
H11 H 1.53380 -0.08460 0.30100
C16 C 1.1448(2) 0.12911(8) 0.35589(16)
H12 H 1.27150 0.13110 0.35790
H13 H 1.09820 0.17110 0.31260
C17 C 1.0949(2) 0.12836(10) 0.49074(17)
H14 H 1.13810 0.09210 0.54480
C18 C 0.9967(3) 0.17368(13) 0.5394(2)
H15 H 0.95100 0.21070 0.48830
H16 H 0.97090 0.16970 0.62590
C19 C 0.7141(2) 0.24504(10) -0.20505(18)
H17 H 0.62430 0.22220 -0.26080
H18 H 0.79300 0.26880 -0.25760
H19 H 0.66140 0.27830 -0.15050
#END
