
#######################################################################
#
#                 Cambridge Crystallographic Data Centre
#                                CCDC
#
#######################################################################
#
# If this CIF has been generated from an entry in the Cambridge
# Structural Database, then it will include bibliographic, chemical,
# crystal, experimental, refinement or atomic coordinate data resulting
# from the CCDC's data processing and validation procedures.
#
#######################################################################

data_CSD_CIF_XOPROJ
_audit_creation_date 2002-10-14
_audit_creation_method CSD-ConQuest-V1
_database_code_CSD XOPROJ
_database_code_depnum_ccdc_archive 'CCDC 193949'
_chemical_formula_sum 'C16 H19 N1 O6'
_chemical_formula_moiety
;
C16 H19 N1 O6
;
_journal_coden_Cambridge 4
_journal_volume 124
_journal_year 2002
_journal_page_first 9718
_journal_name_full 'J.Am.Chem.Soc. '
loop_
_publ_author_name
"P.Y.Hayes"
"W.Kitching"
_chemical_name_systematic
;
(S)-1-((2S,3R)-3-Ethyl-5-oxotetrahydrofuran-2-yl)propyl 4-nitrobenzoate
;
_chemical_name_common
;
1-(3-ethyl-5-oxotetrahydrofuran-2-yl)propyl nitrobenzoate
;
_cell_volume   1638.175
_exptl_crystal_density_diffrn 1.303
_diffrn_ambient_temperature 293
#These two values have been output from a single CSD field.
_refine_ls_R_factor_gt 0.0413
_refine_ls_wR_factor_gt 0.0413
_symmetry_cell_setting monoclinic
_symmetry_space_group_name_H-M 'C 2'
_symmetry_Int_Tables_number 5
loop_
_symmetry_equiv_pos_site_id
_symmetry_equiv_pos_as_xyz
1 x,y,z
2 -x,y,-z
3 1/2+x,1/2+y,z
4 1/2-x,1/2+y,-z
_cell_length_a 14.930(1)
_cell_length_b 6.9429(5)
_cell_length_c 15.804(1)
_cell_angle_alpha 90
_cell_angle_beta 90.334(7)
_cell_angle_gamma 90
_cell_formula_units_Z 4
loop_
_atom_type_symbol
_atom_type_radius_bond
C 0.68
N 0.68
O 0.68
loop_
_atom_site_label
_atom_site_type_symbol
_atom_site_fract_x
_atom_site_fract_y
_atom_site_fract_z
C1 C 0.4699(3) 0.1351(8) 0.1129(3)
C2 C 0.5415(2) 0.2178(6) 0.1660(3)
C3 C 0.5446(2) 0.4300(6) 0.1417(2)
C4 C 0.4494(2) 0.4621(6) 0.1078(2)
C5 C 0.5780(3) 0.5683(7) 0.2081(3)
C6 C 0.6767(3) 0.5427(9) 0.2288(3)
C7 C 0.3788(2) 0.5368(6) 0.1680(2)
C8 C 0.2856(2) 0.5391(7) 0.1319(2)
C9 C 0.2745(3) 0.6669(8) 0.0551(3)
C10 C 0.3627(3) 0.4862(7) 0.3160(3)
C11 C 0.3666(3) 0.3438(6) 0.3861(2)
C12 C 0.3775(3) 0.1498(7) 0.3729(2)
C13 C 0.3821(3) 0.0247(7) 0.4400(2)
C14 C 0.3757(3) 0.0959(7) 0.5197(3)
C15 C 0.3646(4) 0.2890(9) 0.5356(3)
C16 C 0.3596(3) 0.4119(8) 0.4685(3)
N1 N 0.3799(3) -0.0351(7) 0.5929(2)
O1 O 0.4214(2) 0.2765(4) 0.0754(2)
O2 O 0.4513(3) -0.0307(6) 0.1009(3)
O3 O 0.3803(2) 0.4081(4) 0.2414(1)
O4 O 0.3458(3) 0.6537(5) 0.3267(2)
O5 O 0.3926(5) -0.2046(7) 0.5785(2)
O6 O 0.3736(4) 0.0268(7) 0.6626(2)
#END
