
#######################################################################
#
#                 Cambridge Crystallographic Data Centre
#                                CCDC
#
#######################################################################
#
# If this CIF has been generated from an entry in the Cambridge
# Structural Database, then it will include bibliographic, chemical,
# crystal, experimental, refinement or atomic coordinate data resulting
# from the CCDC's data processing and validation procedures.
#
#######################################################################

data_CSD_CIF_XOQLUM
_audit_creation_date 2014-11-20
_audit_creation_method CSD-ConQuest-V1
_database_code_CSD XOQLUM
_database_code_depnum_ccdc_archive 'CCDC 1001620'
_chemical_formula_sum 'C20 H26 N2 O2'
_chemical_formula_moiety
;
C20 H26 N2 O2
;
_journal_coden_Cambridge 1326
_journal_volume 17
_journal_year 2015
_journal_page_first 983
_journal_name_full 'Phys.Chem.Chem.Phys.(PCCP) '
loop_
_publ_author_name
"P.Ravat"
"M.Baumgarten"
_chemical_name_systematic
;
N,N'-([1,1'-biphenyl]-4,4'-diyl)bis(N-oxy-t-butylamine) biradical
;
_cell_volume    870.210
_exptl_crystal_colour 'black'
_exptl_crystal_density_diffrn 1.246
_exptl_special_details
;
Magnetic properties

;
_exptl_crystal_description 'plate'
_exptl_crystal_preparation 'dichloromethane'
_diffrn_ambient_temperature 120
#These two values have been output from a single CSD field.
_refine_ls_R_factor_gt 0.0577
_refine_ls_wR_factor_gt 0.0577
_symmetry_cell_setting monoclinic
_symmetry_space_group_name_H-M 'P 21/a'
_symmetry_Int_Tables_number 14
loop_
_symmetry_equiv_pos_site_id
_symmetry_equiv_pos_as_xyz
1 x,y,z
2 1/2-x,1/2+y,-z
3 -x,-y,-z
4 -1/2+x,-1/2-y,z
_cell_length_a 8.6143(5)
_cell_length_b 9.1073(7)
_cell_length_c 11.3382(9)
_cell_angle_alpha 90
_cell_angle_beta 101.959(4)
_cell_angle_gamma 90
_cell_formula_units_Z 2
loop_
_atom_type_symbol
_atom_type_radius_bond
C 0.68
H 0.23
N 0.68
O 0.68
loop_
_atom_site_label
_atom_site_type_symbol
_atom_site_fract_x
_atom_site_fract_y
_atom_site_fract_z
O1 O 0.51045(8) 0.65395(7) 0.37863(7)
N1 N 0.50243(8) 0.54121(8) 0.30968(7)
C1 C 0.07271(10) 0.50280(8) 0.04619(8)
C2 C 0.19972(10) 0.4064(1) 0.04645(7)
C3 C 0.34181(10) 0.41406(9) 0.13088(8)
C4 C 0.36127(10) 0.52051(9) 0.22266(8)
C5 C 0.23335(10) 0.61473(10) 0.22730(8)
C6 C 0.09464(10) 0.60664(10) 0.14114(8)
C7 C 0.6463(1) 0.44429(9) 0.32473(8)
C8 C 0.72243(11) 0.46508(10) 0.21477(9)
C9 C 0.60404(11) 0.28422(10) 0.34467(8)
C10 C 0.76438(11) 0.49576(10) 0.43607(9)
H1 H 0.18870 0.33400 -0.01510
H2 H 0.42740 0.34950 0.12740
H3 H 0.24410 0.68570 0.28990
H4 H 0.01260 0.67460 0.14620
H5 H 0.81300 0.40340 0.22310
H6 H 0.75380 0.56470 0.21130
H7 H 0.64900 0.44050 0.14270
H8 H 0.69700 0.22570 0.35340
H9 H 0.56300 0.27820 0.41610
H10 H 0.52670 0.24960 0.27820
H11 H 0.85650 0.43570 0.44790
H12 H 0.79290 0.59480 0.42510
H13 H 0.71740 0.48910 0.50460
O1B O -0.51045(8) 0.34605(7) -0.37863(7)
N1B N -0.50243(8) 0.45879(8) -0.30968(7)
C1B C -0.07271(10) 0.49720(8) -0.04619(8)
C2B C -0.19972(10) 0.5936(1) -0.04645(7)
C3B C -0.34181(10) 0.58594(9) -0.13088(8)
C4B C -0.36127(10) 0.47949(9) -0.22266(8)
C5B C -0.23335(10) 0.38527(10) -0.22730(8)
C6B C -0.09464(10) 0.39336(10) -0.14114(8)
C7B C -0.6463(1) 0.55571(9) -0.32473(8)
C8B C -0.72243(11) 0.53492(10) -0.21477(9)
C9B C -0.60404(11) 0.71578(10) -0.34467(8)
C10B C -0.76438(11) 0.50424(10) -0.43607(9)
H1B H -0.18870 0.66600 0.01510
H2B H -0.42740 0.65050 -0.12740
H3B H -0.24410 0.31430 -0.28990
H4B H -0.01260 0.32540 -0.14620
H5B H -0.81300 0.59660 -0.22310
H6B H -0.75380 0.43530 -0.21130
H7B H -0.64900 0.55950 -0.14270
H8B H -0.69700 0.77430 -0.35340
H9B H -0.56300 0.72180 -0.41610
H10B H -0.52670 0.75040 -0.27820
H11B H -0.85650 0.56430 -0.44790
H12B H -0.79290 0.40520 -0.42510
H13B H -0.71740 0.51090 -0.50460
#END
