
#######################################################################
#
#                 Cambridge Crystallographic Data Centre
#                                CCDC
#
#######################################################################
#
# If this CIF has been generated from an entry in the Cambridge
# Structural Database, then it will include bibliographic, chemical,
# crystal, experimental, refinement or atomic coordinate data resulting
# from the CCDC's data processing and validation procedures.
#
#######################################################################

data_CSD_CIF_XORHIW
_audit_creation_date 2009-09-22
_audit_creation_method CSD-ConQuest-V1
_database_code_CSD XORHIW
_database_code_depnum_ccdc_archive 'CCDC 724036'
_chemical_formula_sum 'C9 H15 N2 O3'
_chemical_formula_moiety
;
C9 H15 N2 O3
;
_journal_coden_Cambridge 388
_journal_volume 44
_journal_year 2008
_journal_page_first 1193
_journal_name_full 'Zh.Org.Khim.(Russ.)(Russ.J.Org.Chem.) '
loop_
_publ_author_name
"V.D.Sen'"
"G.V.Shilov"
"V.A.Golubev"
_chemical_name_systematic
;
3-(N-Hydroxycarbamoyl)-2,2,5,5-tetramethylpyrroline-1-oxyl
;
_chemical_melting_point 453.15
_cell_volume   2247.790
_exptl_crystal_colour 'yellow'
_exptl_crystal_density_diffrn 1.177
_exptl_special_details
;
Melts with decomposition.

;
_exptl_crystal_description 'prism'
_exptl_crystal_preparation 'acetonitrile'
_diffrn_ambient_temperature 295
#These two values have been output from a single CSD field.
_refine_ls_R_factor_gt 0.0451
_refine_ls_wR_factor_gt 0.0451
_symmetry_cell_setting orthorhombic
_symmetry_space_group_name_H-M 'P b c n'
_symmetry_Int_Tables_number 60
loop_
_symmetry_equiv_pos_site_id
_symmetry_equiv_pos_as_xyz
1 x,y,z
2 1/2-x,1/2-y,1/2+z
3 -x,y,1/2-z
4 1/2+x,1/2-y,-z
5 -x,-y,-z
6 -1/2+x,-1/2+y,-1/2-z
7 x,-y,-1/2+z
8 -1/2-x,-1/2+y,z
_cell_length_a 11.615(2)
_cell_length_b 11.768(1)
_cell_length_c 16.445(3)
_cell_angle_alpha 90
_cell_angle_beta 90
_cell_angle_gamma 90
_cell_formula_units_Z 8
loop_
_atom_type_symbol
_atom_type_radius_bond
C 0.68
H 0.23
N 0.68
O 0.68
loop_
_atom_site_label
_atom_site_type_symbol
_atom_site_fract_x
_atom_site_fract_y
_atom_site_fract_z
O1 O 0.06159(18) 0.02120(18) 0.33470(12)
H1 H 0.08760 -0.00570 0.29250
O2 O -0.13557(19) -0.0898(2) 0.29346(14)
N1 N -0.2578(2) -0.3199(2) 0.47740(16)
N2 N 0.0124(2) -0.0645(2) 0.38079(15)
H2 H 0.04700 -0.08880 0.42360
C1 C -0.1412(3) -0.1858(3) 0.4209(2)
O3 O -0.3329(2) -0.3982(2) 0.48650(14)
C2 C -0.0884(3) -0.1095(3) 0.3590(2)
C3 C -0.2226(3) -0.2796(3) 0.39543(19)
C4 C -0.2063(3) -0.2577(3) 0.5462(2)
C5 C -0.1314(3) -0.1768(3) 0.4999(2)
H3 H -0.08250 -0.12490 0.52500
C6 C -0.2976(4) -0.1954(4) 0.5951(3)
H4 H -0.34260 -0.14860 0.55940
H5 H -0.26100 -0.14860 0.63530
H6 H -0.34680 -0.24960 0.62140
C7 C -0.1609(4) -0.3751(3) 0.3508(3)
H7 H -0.09790 -0.40200 0.38330
H8 H -0.13200 -0.34720 0.29980
H9 H -0.21380 -0.43630 0.34100
C8 C -0.3292(3) -0.2419(4) 0.3501(3)
H10 H -0.38220 -0.30430 0.34620
H11 H -0.30820 -0.21720 0.29650
H12 H -0.36500 -0.18030 0.37880
C9 C -0.1405(4) -0.3397(4) 0.6005(3)
H13 H -0.08530 -0.38090 0.56860
H14 H -0.19340 -0.39220 0.62510
H15 H -0.10120 -0.29790 0.64230
#END
