
#######################################################################
#
#                 Cambridge Crystallographic Data Centre
#                                CCDC
#
#######################################################################
#
# If this CIF has been generated from an entry in the Cambridge
# Structural Database, then it will include bibliographic, chemical,
# crystal, experimental, refinement or atomic coordinate data resulting
# from the CCDC's data processing and validation procedures.
#
#######################################################################

data_CSD_CIF_XOSQON
_audit_creation_date 2014-11-20
_audit_creation_method CSD-ConQuest-V1
_database_code_CSD XOSQON
_database_code_depnum_ccdc_archive 'CCDC 988718'
_chemical_formula_sum 'C21 H20 N6 O7'
_chemical_formula_moiety
;
C21 H20 N6 O7
;
_journal_coden_Cambridge 315
_journal_volume 136
_journal_year 2015
_journal_page_first 1001
_journal_name_full 'Spectrochim.Acta,Part A '
loop_
_publ_author_name
"Tao Tao"
"Yin-Ge Wang"
"Yuan Dai"
"Hui-Fen Qian"
"Wei Huang"
_chemical_name_systematic
;
dimethyl 
2,2'-((3-acetamido-4-((2-cyano-4-nitrophenyl)diazenyl)phenyl)imino)diacetate
;
_cell_volume   2207.117
_exptl_crystal_colour 'red'
_exptl_crystal_density_diffrn 1.41
_exptl_crystal_description 'block'
_diffrn_ambient_temperature 291
#These two values have been output from a single CSD field.
_refine_ls_R_factor_gt 0.0464
_refine_ls_wR_factor_gt 0.0464
_symmetry_cell_setting monoclinic
_symmetry_space_group_name_H-M 'C c'
_symmetry_Int_Tables_number 9
loop_
_symmetry_equiv_pos_site_id
_symmetry_equiv_pos_as_xyz
1 x,y,z
2 x,-y,1/2+z
3 1/2+x,1/2+y,z
4 1/2+x,1/2-y,1/2+z
_cell_length_a 19.573(3)
_cell_length_b 13.605(3)
_cell_length_c 8.5737(17)
_cell_angle_alpha 90
_cell_angle_beta 104.823(5)
_cell_angle_gamma 90
_cell_formula_units_Z 4
loop_
_atom_type_symbol
_atom_type_radius_bond
C 0.68
H 0.23
N 0.68
O 0.68
loop_
_atom_site_label
_atom_site_type_symbol
_atom_site_fract_x
_atom_site_fract_y
_atom_site_fract_z
C1 C 0.8055(2) 0.7108(3) -0.0893(5)
C2 C 0.8236(2) 0.6145(4) -0.0629(5)
H1 H 0.86510 0.59090 -0.08310
C3 C 0.7794(2) 0.5512(3) -0.0054(5)
C4 C 0.71804(18) 0.5891(3) 0.0299(4)
C5 C 0.7012(2) 0.6878(3) 0.0025(5)
H2 H 0.66090 0.71310 0.02610
C6 C 0.7445(2) 0.7488(3) -0.0600(5)
H3 H 0.73270 0.81450 -0.08180
C7 C 0.7957(2) 0.4491(4) 0.0179(6)
C8 C 0.58269(18) 0.4978(3) 0.1931(4)
C9 C 0.57774(19) 0.3934(3) 0.1834(4)
C10 C 0.5293(2) 0.3454(3) 0.2471(4)
H4 H 0.52770 0.27710 0.24280
C11 C 0.48211(18) 0.3954(3) 0.3189(4)
C12 C 0.48450(18) 0.4987(3) 0.3208(4)
H5 H 0.45300 0.53410 0.36380
C13 C 0.53328(19) 0.5474(3) 0.2593(5)
H6 H 0.53380 0.61570 0.26130
C14 C 0.6210(2) 0.2438(3) 0.0685(5)
C15 C 0.6618(3) 0.2195(3) -0.0537(6)
H7 H 0.66860 0.14970 -0.05620
H8 H 0.70700 0.25160 -0.02420
H9 H 0.63590 0.24180 -0.15840
C16 C 0.4243(2) 0.2403(3) 0.3432(5)
H10 H 0.42290 0.23110 0.23030
H11 H 0.37840 0.22200 0.35730
C17 C 0.4783(2) 0.1719(4) 0.4410(6)
C18 C 0.5129(3) 0.0038(5) 0.4576(10)
H12 H 0.56090 0.02500 0.47120
H13 H 0.50450 -0.05400 0.39130
H14 H 0.50510 -0.01080 0.56120
C19 C 0.37836(19) 0.3926(3) 0.4289(5)
H15 H 0.39580 0.45210 0.48820
H16 H 0.36040 0.34970 0.49970
C20 C 0.31940(18) 0.4183(3) 0.2845(5)
C21 C 0.2030(2) 0.4772(4) 0.1994(7)
H17 H 0.21980 0.50980 0.11700
H18 H 0.17320 0.52110 0.24000
H19 H 0.17650 0.42000 0.15470
N1 N 0.8525(2) 0.7759(3) -0.1514(5)
N2 N 0.8114(3) 0.3688(4) 0.0347(7)
N3 N 0.67600(15) 0.5194(2) 0.0846(3)
N4 N 0.62816(15) 0.5594(2) 0.1422(3)
N5 N 0.62064(17) 0.3425(2) 0.1032(4)
H20 H 0.65090 0.37760 0.07110
N6 N 0.43603(15) 0.3440(2) 0.3821(4)
O1 O 0.9134(2) 0.7508(3) -0.1333(6)
O2 O 0.82724(19) 0.8512(3) -0.2190(4)
O3 O 0.59162(16) 0.1822(2) 0.1294(4)
O4 O 0.5268(2) 0.1923(3) 0.5517(5)
O5 O 0.46524(16) 0.0812(2) 0.3809(5)
O6 O 0.32292(15) 0.4111(2) 0.1484(3)
O7 O 0.26260(14) 0.4483(2) 0.3296(3)
#END
