
#######################################################################
#
#                 Cambridge Crystallographic Data Centre
#                                CCDC
#
#######################################################################
#
# If this CIF has been generated from an entry in the Cambridge
# Structural Database, then it will include bibliographic, chemical,
# crystal, experimental, refinement or atomic coordinate data resulting
# from the CCDC's data processing and validation procedures.
#
#######################################################################

data_CSD_CIF_XOSREC
_audit_creation_date 2002-10-24
_audit_creation_method CSD-ConQuest-V1
_database_code_CSD XOSREC
_database_code_depnum_ccdc_archive 'CCDC 183955'
_chemical_formula_sum 'C18 H19 N1 O3'
_chemical_formula_moiety
;
C18 H19 N1 O3
;
_journal_coden_Cambridge 182
_journal_year 2002
_journal_page_first 1754
_journal_name_full 'Chem.Commun. '
loop_
_publ_author_name
"T.Aftab"
"R.Grigg"
"M.Ladlow"
"V.Sridharan"
"M.Thornton-Pett"
_chemical_name_systematic
;
3a-(4-Methoxyphenyl)-1-methyl-1,3a,4,9b-tetrahydro-3H-chromeno(4,3-c)isoxazole
;
_cell_volume   1516.470
_exptl_crystal_colour 'pale yellow'
_exptl_crystal_density_diffrn 1.302
_exptl_crystal_description 'prism'
_diffrn_ambient_temperature 150
#These two values have been output from a single CSD field.
_refine_ls_R_factor_gt 0.0391
_refine_ls_wR_factor_gt 0.0391
_symmetry_cell_setting monoclinic
_symmetry_space_group_name_H-M 'P 21/c'
_symmetry_Int_Tables_number 14
loop_
_symmetry_equiv_pos_site_id
_symmetry_equiv_pos_as_xyz
1 x,y,z
2 x,1/2-y,1/2+z
3 -x,-y,-z
4 -x,-1/2+y,-1/2-z
_cell_length_a 12.6825(3)
_cell_length_b 11.2067(2)
_cell_length_c 11.1528(2)
_cell_angle_alpha 90
_cell_angle_beta 106.926(1)
_cell_angle_gamma 90
_cell_formula_units_Z 4
loop_
_atom_type_symbol
_atom_type_radius_bond
C 0.68
H 0.23
N 0.68
O 0.68
loop_
_atom_site_label
_atom_site_type_symbol
_atom_site_fract_x
_atom_site_fract_y
_atom_site_fract_z
O1 O 0.99776(7) 0.30639(9) 0.04558(8)
N1 N 0.96867(9) 0.33224(10) 0.16165(10)
C1 C 1.07049(11) 0.37516(14) 0.24952(13)
H1 H 1.12590 0.31160 0.26610
H2 H 1.05640 0.39860 0.32810
H3 H 1.09770 0.44420 0.21340
C2 C 0.88533(10) 0.42708(11) 0.11520(11)
H4 H 0.92040 0.49860 0.08900
C3 C 0.82744(10) 0.46235(10) 0.21035(11)
C4 C 0.87341(10) 0.54484(11) 0.30513(11)
H5 H 0.94330 0.57870 0.31060
C5 C 0.81926(12) 0.57829(12) 0.39121(12)
H6 H 0.85250 0.63360 0.45570
C6 C 0.71615(12) 0.53069(12) 0.38282(12)
H7 H 0.67930 0.55250 0.44250
C7 C 0.66726(11) 0.45167(11) 0.28765(12)
H8 H 0.59610 0.42050 0.28070
C8 C 0.72258(10) 0.41789(10) 0.20213(11)
O2 O 0.66704(7) 0.34163(7) 0.10856(8)
C9 C 0.73508(10) 0.27992(11) 0.04633(11)
H9 H 0.68750 0.23490 -0.02560
H10 H 0.78190 0.22170 0.10500
C10 C 0.80868(10) 0.36485(11) -0.00060(11)
C11 C 0.89283(11) 0.28885(12) -0.04523(12)
H11 H 0.87200 0.20350 -0.05010
H12 H 0.89520 0.31540 -0.12910
C12 C 0.73996(10) 0.44776(11) -0.10098(11)
C13 C 0.73034(10) 0.56947(11) -0.08445(11)
H13 H 0.76640 0.60400 -0.00530
C14 C 0.66914(10) 0.64245(11) -0.18101(11)
H14 H 0.66330 0.72550 -0.16730
C15 C 0.61697(9) 0.59310(11) -0.29708(11)
C16 C 0.62199(10) 0.47027(11) -0.31476(11)
H15 H 0.58430 0.43540 -0.39320
C17 C 0.68225(10) 0.39977(11) -0.21730(11)
H16 H 0.68460 0.31600 -0.22970
O3 O 0.55835(7) 0.65763(8) -0.39963(8)
C18 C 0.56516(12) 0.78470(12) -0.38861(13)
H17 H 0.52880 0.81120 -0.32690
H18 H 0.52870 0.82100 -0.47010
H19 H 0.64270 0.80900 -0.36130
#END
