
#######################################################################
#
#                 Cambridge Crystallographic Data Centre
#                                CCDC
#
#######################################################################
#
# If this CIF has been generated from an entry in the Cambridge
# Structural Database, then it will include bibliographic, chemical,
# crystal, experimental, refinement or atomic coordinate data resulting
# from the CCDC's data processing and validation procedures.
#
#######################################################################

data_CSD_CIF_XOTDEQ
_audit_creation_date 2009-09-22
_audit_creation_method CSD-ConQuest-V1
_database_code_CSD XOTDEQ
_database_code_depnum_ccdc_archive 'CCDC 684708'
_chemical_formula_sum 'C13 H17 N1 O3'
_chemical_formula_moiety
;
C13 H17 N1 O3
;
_journal_coden_Cambridge 661
_journal_volume 55
_journal_year 2008
_journal_page_first 1258
_journal_name_full 'J.Chin.Chem.Soc.(Taipei) '
loop_
_publ_author_name
"M.Struga"
"M.Krawiecka"
"J.Kossakowski"
"J.Stefanska"
"B.Miroslaw"
"A.E.Koziol"
_chemical_name_systematic
;
4-Hydroxy-1,7,8,9-tetramethyl-4-azatricyclo[5.2.1.0^2,6^]dec-8-ene-3,5-dione
;
_chemical_melting_point 459
_cell_volume   1270.630
_exptl_crystal_colour 'colorless'
_exptl_crystal_density_diffrn 1.23
_exptl_special_details
;
inactive against Gram-positive cocci, Gram-negative rods and Candida albicans

;
_exptl_crystal_description 'needle'
_diffrn_ambient_temperature 292
#These two values have been output from a single CSD field.
_refine_ls_R_factor_gt 0.0526
_refine_ls_wR_factor_gt 0.0526
_symmetry_cell_setting monoclinic
_symmetry_space_group_name_H-M 'P 21/c'
_symmetry_Int_Tables_number 14
loop_
_symmetry_equiv_pos_site_id
_symmetry_equiv_pos_as_xyz
1 x,y,z
2 -x,1/2+y,1/2-z
3 -x,-y,-z
4 x,-1/2-y,-1/2+z
_cell_length_a 11.549(2)
_cell_length_b 8.069(2)
_cell_length_c 13.635(3)
_cell_angle_alpha 90
_cell_angle_beta 90.05(3)
_cell_angle_gamma 90
_cell_formula_units_Z 4
loop_
_atom_type_symbol
_atom_type_radius_bond
C 0.68
H 0.23
N 0.68
O 0.68
loop_
_atom_site_label
_atom_site_type_symbol
_atom_site_fract_x
_atom_site_fract_y
_atom_site_fract_z
C1 C 0.31734(17) 0.3389(3) 0.27098(15)
H1 H 0.34580 0.41390 0.21990
N1 N 0.42308(14) 0.2812(2) 0.41267(12)
O1 O 0.46462(16) 0.2956(3) 0.50959(14)
H2 H 0.47840 0.19210 0.53130
C2 C 0.44119(17) 0.1443(3) 0.35458(15)
O2 O 0.50081(15) 0.0283(2) 0.37915(12)
C3 C 0.35109(18) 0.3997(3) 0.37120(16)
O3 O 0.32357(16) 0.5269(2) 0.41119(15)
C4 C 0.18472(17) 0.3019(3) 0.25679(16)
C5 C 0.14843(16) 0.2036(3) 0.34714(14)
C6 C 0.19839(17) 0.0557(3) 0.34305(15)
C7 C 0.26773(19) 0.0479(3) 0.24753(16)
C8 C 0.37382(17) 0.1665(3) 0.26177(15)
H3 H 0.42520 0.16220 0.20460
C9 C 0.1944(2) 0.1601(3) 0.18258(16)
H4 H 0.11990 0.11170 0.16660
H5 H 0.23430 0.19290 0.12310
C10 C 0.1134(2) 0.4506(3) 0.2280(2)
H6 H 0.03480 0.41690 0.21660
H7 H 0.14450 0.49840 0.16920
H8 H 0.11550 0.53100 0.27980
C11 C 0.0757(2) 0.2757(4) 0.42722(19)
H9 H 0.06760 0.19610 0.47910
H10 H 0.00060 0.30320 0.40170
H11 H 0.11220 0.37390 0.45220
C12 C 0.2000(3) -0.0781(4) 0.4183(2)
H12 H 0.14390 -0.05390 0.46830
H13 H 0.27570 -0.08460 0.44730
H14 H 0.18140 -0.18210 0.38790
C13 C 0.2985(3) -0.1226(4) 0.2087(2)
H15 H 0.22880 -0.18330 0.19510
H16 H 0.34340 -0.18100 0.25680
H17 H 0.34280 -0.11140 0.14950
H18? H 0.53160 0.35200 0.50490
#END
