
#######################################################################
#
#                 Cambridge Crystallographic Data Centre
#                                CCDC
#
#######################################################################
#
# If this CIF has been generated from an entry in the Cambridge
# Structural Database, then it will include bibliographic, chemical,
# crystal, experimental, refinement or atomic coordinate data resulting
# from the CCDC's data processing and validation procedures.
#
#######################################################################

data_CSD_CIF_XOTHIZ
_audit_creation_date 2014-11-20
_audit_creation_method CSD-ConQuest-V1
_database_code_CSD XOTHIZ
_database_code_depnum_ccdc_archive 'CCDC 977072'
_chemical_formula_sum 'C14 H11 N3 O5'
_chemical_formula_moiety
;
C14 H11 N3 O5
;
_journal_coden_Cambridge 315
_journal_volume 136
_journal_year 2015
_journal_page_first 1491
_journal_name_full 'Spectrochim.Acta,Part A '
loop_
_publ_author_name
"R.S.Heying"
"L.G.Nandi"
"A.J.Bortoluzzi"
"V.G.Machado"
_chemical_name_systematic
;
1-(2,4-dinitrophenyl)-N-(4-methoxyphenyl)methanimine
;
_cell_volume   1336.550
_exptl_crystal_colour 'yellow'
_exptl_crystal_density_diffrn 1.497
_exptl_crystal_description 'prism'
_exptl_crystal_preparation 'Chloroform/ethanol'
_diffrn_ambient_temperature 173
#These two values have been output from a single CSD field.
_refine_ls_R_factor_gt 0.0463
_refine_ls_wR_factor_gt 0.0463
_symmetry_cell_setting triclinic
_symmetry_space_group_name_H-M 'P -1'
_symmetry_Int_Tables_number 2
loop_
_symmetry_equiv_pos_site_id
_symmetry_equiv_pos_as_xyz
1 x,y,z
2 -x,-y,-z
_cell_length_a 7.4230(2)
_cell_length_b 11.8287(4)
_cell_length_c 15.6458(6)
_cell_angle_alpha 86.825(2)
_cell_angle_beta 80.129(2)
_cell_angle_gamma 81.100(2)
_cell_formula_units_Z 4
loop_
_atom_type_symbol
_atom_type_radius_bond
C 0.68
H 0.23
N 0.68
O 0.68
loop_
_atom_site_label
_atom_site_type_symbol
_atom_site_fract_x
_atom_site_fract_y
_atom_site_fract_z
O1 O 0.6217(2) 0.76411(9) 0.62108(8)
O2 O 0.68892(15) 0.77361(9) 0.74943(8)
O3 O 0.26326(18) 1.08858(11) 0.90090(7)
O4 O 0.30380(16) 1.25684(9) 0.84710(7)
O5 O 1.20968(12) 0.88316(7) 0.15031(5)
N1 N 0.63474(15) 0.81697(8) 0.68405(7)
N2 N 0.32244(15) 1.15228(10) 0.84243(7)
N3 N 0.76772(13) 1.02691(8) 0.46140(6)
C1 C 0.62005(14) 1.00792(9) 0.60727(7)
C2 C 0.57772(14) 0.94134(9) 0.68262(7)
C3 C 0.48087(14) 0.98560(9) 0.76002(7)
H1 H 0.45580 0.93790 0.81020
C4 C 0.42239(14) 1.10198(10) 0.76099(7)
C5 C 0.45555(15) 1.17267(9) 0.68823(8)
H2 H 0.41160 1.25240 0.69060
C6 C 0.55322(15) 1.12545(9) 0.61243(8)
H3 H 0.57590 1.17370 0.56240
C7 C 0.73625(16) 0.96269(10) 0.52739(8)
H4 H 0.78830 0.88410 0.52550
C8 C 0.88033(14) 0.98532(9) 0.38384(7)
C9 C 0.89542(15) 1.06282(9) 0.31373(7)
H5 H 0.83020 1.13830 0.32040
C10 C 1.00305(15) 1.03303(9) 0.23426(7)
H6 H 1.01240 1.08760 0.18740
C11 C 1.09685(14) 0.92217(9) 0.22430(7)
C12 C 1.08038(15) 0.84254(9) 0.29357(8)
H7 H 1.14230 0.76630 0.28620
C13 C 0.97516(15) 0.87355(9) 0.37238(7)
H8 H 0.96670 0.81900 0.41930
C14 C 1.23248(19) 0.96213(11) 0.07807(8)
H9 H 1.11360 0.98540 0.05820
H10 H 1.32270 0.92540 0.03080
H11 H 1.27680 1.02970 0.09570
O6 O 0.87189(12) 0.73097(8) 0.90759(6)
O7 O 0.58666(13) 0.73780(8) 0.96951(7)
O8 O 0.5624(2) 0.41993(10) 1.19095(7)
O9 O 0.71472(14) 0.25384(9) 1.15559(7)
O10 O 1.30670(13) 0.62095(7) 0.41495(5)
N4 N 0.73995(13) 0.68597(8) 0.94348(6)
N5 N 0.66500(15) 0.35529(9) 1.13964(7)
N6 N 1.03611(14) 0.46678(8) 0.74814(7)
C15 C 0.86172(14) 0.48989(9) 0.88967(7)
C16 C 0.76813(14) 0.56064(9) 0.95683(7)
C17 C 0.69917(15) 0.51926(9) 1.03857(7)
H12 H 0.63350 0.56910 1.08270
C18 C 0.73048(14) 0.40187(9) 1.05288(7)
C19 C 0.82010(15) 0.32736(9) 0.98901(8)
H13 H 0.83860 0.24710 1.00080
C20 C 0.88234(15) 0.37155(10) 0.90768(8)
H14 H 0.94050 0.32060 0.86290
C21 C 0.93067(15) 0.53309(10) 0.80209(8)
H15 H 0.89590 0.61100 0.78600
C22 C 1.10282(15) 0.50946(9) 0.66448(7)
C23 C 1.11279(17) 0.62519(9) 0.64314(8)
H16 H 1.07130 0.68080 0.68650
C24 C 1.18221(17) 0.65921(9) 0.55978(8)
H17 H 1.18860 0.73790 0.54620
C25 C 1.24299(15) 0.57853(9) 0.49538(7)
C26 C 1.23594(15) 0.46312(9) 0.51562(7)
H18 H 1.27800 0.40750 0.47230
C27 C 1.16654(15) 0.43032(9) 0.59996(8)
H19 H 1.16260 0.35140 0.61380
C28 C 1.37981(17) 0.53985(11) 0.34879(8)
H20 H 1.48400 0.48780 0.36640
H21 H 1.42220 0.58040 0.29450
H22 H 1.28330 0.49570 0.34010
#END
