
#######################################################################
#
#                 Cambridge Crystallographic Data Centre
#                                CCDC
#
#######################################################################
#
# If this CIF has been generated from an entry in the Cambridge
# Structural Database, then it will include bibliographic, chemical,
# crystal, experimental, refinement or atomic coordinate data resulting
# from the CCDC's data processing and validation procedures.
#
#######################################################################

data_CSD_CIF_XOVBUH
_audit_creation_date 2014-11-21
_audit_creation_method CSD-ConQuest-V1
_database_code_CSD XOVBUH
_database_code_depnum_ccdc_archive 'CCDC 978899'
_chemical_formula_sum 'C9 H13 N1 O4'
_chemical_formula_moiety
;
C9 H13 N1 O4
;
_journal_coden_Cambridge 156
_journal_volume 398
_journal_year 2014
_journal_page_first 13
_journal_name_full 'Carbohydr.Res. '
loop_
_publ_author_name
"A.Panda"
"S.Das"
"Shantanu Pal"
_chemical_name_systematic
;
(3aS,4S,4aS,7aR)-6,6-dimethyl-3a,4,4a,7a-tetrahydro-3H-[1,3]dioxolo[4',5':4,5]
cyclopenta[1,2-c]isoxazol-4-ol
;
_chemical_name_common
;
6,6-dimethyl-3a,4,4a,7a-tetrahydro-3H-[1,3]dioxolo[4,5]cyclopenta[1,2-c][1,2]o
xazol-4-ol
;
_chemical_melting_point 367
_cell_volume   1669.257
_exptl_crystal_density_diffrn 1.189
_exptl_crystal_preparation 'hexane/ethylacetate'
_diffrn_ambient_temperature 296
#These two values have been output from a single CSD field.
_refine_ls_R_factor_gt 0.041
_refine_ls_wR_factor_gt 0.041
_symmetry_cell_setting hexagonal
_symmetry_space_group_name_H-M 'P 65'
_symmetry_Int_Tables_number 170
loop_
_symmetry_equiv_pos_site_id
_symmetry_equiv_pos_as_xyz
1 x,y,z
2 -y,x-y,2/3+z
3 -x+y,-x,1/3+z
4 -x,-y,1/2+z
5 y,-x+y,1/6+z
6 x-y,x,5/6+z
_cell_length_a 15.154(3)
_cell_length_b 15.154(3)
_cell_length_c 8.3934(14)
_cell_angle_alpha 90
_cell_angle_beta 90
_cell_angle_gamma 120
_cell_formula_units_Z 6
loop_
_atom_type_symbol
_atom_type_radius_bond
C 0.68
H 0.23
N 0.68
O 0.68
loop_
_atom_site_label
_atom_site_type_symbol
_atom_site_fract_x
_atom_site_fract_y
_atom_site_fract_z
O1 O 0.3508(3) 0.2661(3) -0.0164(4)
O2 O 0.4743(2) 0.2267(2) 0.0143(3)
O3 O 0.6119(3) 0.3090(3) 0.2429(5)
H1 H 0.65270 0.34160 0.31360
O4 O 0.4233(3) 0.4573(3) 0.4211(6)
C1 C 0.5068(3) 0.3929(3) 0.2599(5)
H2 H 0.54260 0.43150 0.16450
N1 N 0.3485(3) 0.3744(4) 0.3313(5)
C2 C 0.3940(3) 0.3437(3) 0.2416(5)
C3 C 0.5166(3) 0.2974(3) 0.2800(5)
H3 H 0.49980 0.27370 0.39030
C4 C 0.4351(3) 0.2175(3) 0.1703(5)
H4 H 0.40740 0.14830 0.21250
C5 C 0.3507(3) 0.2469(3) 0.1496(5)
H5 H 0.28390 0.19450 0.18900
C6 C 0.3986(4) 0.2172(3) -0.0956(5)
C7 C 0.5216(3) 0.4628(4) 0.3992(6)
H6 H 0.54080 0.44010 0.49440
H7 H 0.57440 0.53210 0.37560
C8 C 0.4506(4) 0.2760(4) -0.2429(6)
H8 H 0.49790 0.34540 -0.21510
H9 H 0.40060 0.27400 -0.31540
H10 H 0.48650 0.24620 -0.29280
C9 C 0.3220(4) 0.1067(4) -0.1278(7)
H11 H 0.35580 0.07400 -0.17550
H12 H 0.27050 0.10250 -0.19900
H13 H 0.29100 0.07320 -0.02940
#END
