
#######################################################################
#
#                 Cambridge Crystallographic Data Centre
#                                CCDC
#
#######################################################################
#
# If this CIF has been generated from an entry in the Cambridge
# Structural Database, then it will include bibliographic, chemical,
# crystal, experimental, refinement or atomic coordinate data resulting
# from the CCDC's data processing and validation procedures.
#
#######################################################################

data_CSD_CIF_XOWDIW
_audit_creation_date 2002-10-24
_audit_creation_method CSD-ConQuest-V1
_database_code_CSD XOWDIW
_database_code_depnum_ccdc_archive 'CCDC 176704'
_chemical_formula_sum 'C14 H14 N2 O4'
_chemical_formula_moiety
;
C14 H14 N2 O4
;
_journal_coden_Cambridge 182
_journal_year 2002
_journal_page_first 2072
_journal_name_full 'Chem.Commun. '
loop_
_publ_author_name
"A.P.Lightfoot"
"R.G.Pritchard"
"H.Wan"
"J.E.Warren"
"A.Whiting"
_chemical_name_systematic
;
1,2-bis(2-Methoxyphenyl)diazene 1,2-dioxide
;
_chemical_name_common
;
2,2'-Dimethoxyazobenzene dioxide
;
_cell_volume   2673.585
_exptl_crystal_colour 'yellow'
_exptl_crystal_density_diffrn 1.363
_exptl_crystal_description 'plate'
_diffrn_ambient_temperature 150
#These two values have been output from a single CSD field.
_refine_ls_R_factor_gt 0.0463
_refine_ls_wR_factor_gt 0.0463
_symmetry_cell_setting monoclinic
_symmetry_space_group_name_H-M 'P 21/c'
_symmetry_Int_Tables_number 14
loop_
_symmetry_equiv_pos_site_id
_symmetry_equiv_pos_as_xyz
1 x,y,z
2 x,1/2-y,1/2+z
3 -x,-y,-z
4 -x,-1/2+y,-1/2-z
_cell_length_a 19.9465(3)
_cell_length_b 8.9822(1)
_cell_length_c 15.6262(2)
_cell_angle_alpha 90
_cell_angle_beta 107.259
_cell_angle_gamma 90
_cell_formula_units_Z 8
loop_
_atom_type_symbol
_atom_type_radius_bond
C 0.68
H 0.23
N 0.68
O 0.68
loop_
_atom_site_label
_atom_site_type_symbol
_atom_site_fract_x
_atom_site_fract_y
_atom_site_fract_z
N1 N 0.36086(7) 0.35280(16) 0.21428(9)
N2 N 0.38627(7) 0.48197(16) 0.24875(9)
O1 O 0.49678(6) 0.45957(14) 0.18343(8)
O2 O 0.24293(6) 0.47622(14) 0.11217(7)
O3 O 0.34965(7) 0.25141(15) 0.26405(8)
O4 O 0.39843(7) 0.50525(15) 0.33219(7)
C1 C 0.34097(9) 0.33302(18) 0.11795(10)
C2 C 0.38171(11) 0.2429(2) 0.08138(13)
C3 C 0.35933(13) 0.2190(2) -0.01080(15)
C4 C 0.29776(13) 0.2819(2) -0.06210(13)
C5 C 0.25637(12) 0.3684(2) -0.02520(12)
C6 C 0.27783(9) 0.39467(18) 0.06692(10)
C7 C 0.18091(12) 0.5528(3) 0.06098(16)
C8 C 0.40041(9) 0.59851(19) 0.19205(10)
C9 C 0.35824(10) 0.7241(2) 0.17647(12)
C10 C 0.37592(10) 0.8428(2) 0.13051(13)
C11 C 0.4351(1) 0.8326(2) 0.10219(13)
C12 C 0.47707(10) 0.7079(2) 0.11743(12)
C13 C 0.45995(9) 0.58762(19) 0.16333(11)
C14 C 0.55145(11) 0.4354(3) 0.14230(14)
H1 H 0.4258(9) 0.2054(19) 0.1195(11)
H2 H 0.3876(12) 0.161(3) -0.0345(16)
H3 H 0.2828(11) 0.268(2) -0.1291(16)
H4 H 0.2115(13) 0.409(3) -0.0646(16)
H5 H 0.1934(12) 0.621(3) 0.0144(17)
H6 H 0.1437(14) 0.475(3) 0.0282(17)
H7 H 0.1660(13) 0.616(3) 0.1054(17)
H8 H 0.3182(11) 0.725(2) 0.1990(13)
H9 H 0.3451(11) 0.937(2) 0.1199(13)
H10 H 0.4487(12) 0.919(3) 0.0688(15)
H11 H 0.5167(11) 0.704(2) 0.0996(13)
H12 H 0.5328(10) 0.452(2) 0.0748(14)
H13 H 0.5657(10) 0.327(3) 0.1573(14)
H14 H 0.5938(13) 0.506(3) 0.1676(15)
N3 N 0.09823(6) -0.12778(14) 0.30148(8)
N4 N 0.10841(7) -0.01275(14) 0.25435(8)
O5 O 0.01615(6) -0.15749(13) 0.11452(7)
O6 O 0.23672(6) -0.18541(12) 0.34413(8)
O7 O 0.07551(6) -0.10654(13) 0.36799(7)
O8 O 0.09983(6) 0.11781(12) 0.27987(8)
C15 C 0.12158(8) -0.27485(16) 0.28466(10)
C16 C 0.07253(9) -0.38590(18) 0.25429(11)
C17 C 0.09566(9) -0.52898(19) 0.24644(12)
C18 C 0.16691(9) -0.55796(19) 0.27010(11)
C19 C 0.21605(9) -0.44717(18) 0.30294(11)
C20 C 0.19365(8) -0.30292(17) 0.31114(10)
C21 C 0.30321(9) -0.2210(3) 0.40573(14)
C22 C 0.12396(8) -0.03464(16) 0.17042(10)
C23 C 0.18434(9) 0.03054(18) 0.16089(12)
C24 C 0.19678(10) 0.0255(2) 0.07838(13)
C25 C 0.14900(11) -0.0454(2) 0.00713(13)
C26 C 0.0889(1) -0.11091(19) 0.01667(12)
C27 C 0.07503(8) -0.10460(17) 0.0985(1)
C28 C -0.02719(11) -0.2580(2) 0.04971(14)
H15 H 0.0247(10) -0.365(2) 0.2393(12)
H16 H 0.0625(10) -0.609(2) 0.2249(12)
H17 H 0.1842(10) -0.661(2) 0.2642(12)
H18 H 0.2654(10) -0.4696(19) 0.3213(11)
H19 H 0.3239(10) -0.124(2) 0.4293(13)
H20 H 0.2957(13) -0.283(3) 0.4534(18)
H21 H 0.3313(12) -0.274(3) 0.3769(15)
H22 H 0.2159(10) 0.080(2) 0.2113(13)
H23 H 0.2390(11) 0.073(2) 0.0730(13)
H24 H 0.1555(10) -0.044(2) -0.0525(13)
H25 H 0.0562(10) -0.161(2) -0.0349(13)
H26 H 0.0003(10) -0.341(2) 0.0370(13)
H27 H -0.0493(10) -0.205(2) -0.0045(14)
H28 H -0.0625(11) -0.296(2) 0.0773(14)
#END
