
#######################################################################
#
#                 Cambridge Crystallographic Data Centre
#                                CCDC
#
#######################################################################
#
# If this CIF has been generated from an entry in the Cambridge
# Structural Database, then it will include bibliographic, chemical,
# crystal, experimental, refinement or atomic coordinate data resulting
# from the CCDC's data processing and validation procedures.
#
#######################################################################

data_CSD_CIF_XOWGIZ
_audit_creation_date 2002-11-19
_audit_creation_method CSD-ConQuest-V1
_database_code_CSD XOWGIZ
_chemical_formula_sum 'C54 H58 N4 O8'
_chemical_formula_moiety
;
C54 H58 N4 O8
;
_journal_coden_Cambridge 35
_journal_volume 67
_journal_year 2002
_journal_page_first 1372
_journal_name_full 'J.Org.Chem. '
loop_
_publ_author_name
"Jong Seung Kim"
"Ok Jae Shon"
"Jae Kwang Lee"
"Soo Heon Lee"
"Jong Yeol Kim"
"Ki-Min Park"
"Shim Sung Lee"
_chemical_name_systematic
;
25,27-(6-(4-((4-Nitrophenyl)azo)phenyl)-6-aza-3,9-dioxaundecane-1,11-dioxy)-26
,28-bis(propyloxy)calix(4)arene
;
_chemical_name_common
;
N-(4-((4-Nitrophenyl)azo)phenyl)-25,27-bis(propyloxy)calix(4)azacrown-5
;
_chemical_melting_point 526.15
_cell_volume   4760.781
_exptl_crystal_colour 'red'
_exptl_crystal_density_diffrn 1.243
_exptl_special_details
;
Melting point range 526.15-531.15K
1,3-alternate conformer

;
_exptl_crystal_preparation 'methanol/dichloromethane'
_diffrn_ambient_temperature 298
_refine_special_details
;
O4, C34 and O51 are disordered equally over two sites.

;
#These two values have been output from a single CSD field.
_refine_ls_R_factor_gt 0.0779
_refine_ls_wR_factor_gt 0.0779
_symmetry_cell_setting triclinic
_symmetry_space_group_name_H-M 'P -1'
_symmetry_Int_Tables_number 2
loop_
_symmetry_equiv_pos_site_id
_symmetry_equiv_pos_as_xyz
1 x,y,z
2 -x,-y,-z
_cell_length_a 13.8871(11)
_cell_length_b 16.3371(13)
_cell_length_c 21.9391(19)
_cell_angle_alpha 78.217(2)
_cell_angle_beta 79.035(2)
_cell_angle_gamma 82.381(2)
_cell_formula_units_Z 4
loop_
_atom_type_symbol
_atom_type_radius_bond
C 0.68
H 0.23
N 0.68
O 0.68
loop_
_atom_site_label
_atom_site_type_symbol
_atom_site_fract_x
_atom_site_fract_y
_atom_site_fract_z
O1 O 0.7862(2) 0.0733(2) 0.2197(2)
O2 O 0.6152(3) 0.0608(2) 0.1225(2)
O3 O 0.5902(3) -0.0241(2) 0.3648(2)
O4 O 0.4408(12) -0.0207(14) 0.2798(7)
O5? O 0.401(2) -0.0553(13) 0.2986(11)
O6 O -0.0963(4) -0.3601(4) -0.1148(3)
O7 O -0.1993(4) -0.2555(4) -0.0962(2)
N1 N 0.4218(3) -0.0201(2) 0.1501(2)
N2 N 0.1453(4) -0.1169(3) 0.0277(2)
N3 N 0.1739(3) -0.1753(3) 0.0015(2)
N4 N -0.1185(5) -0.2959(5) -0.0960(2)
C1 C 0.8772(3) 0.0965(3) 0.2219(2)
C2 C 0.9585(3) 0.0375(3) 0.2179(2)
C3 C 1.0472(3) 0.0606(4) 0.2262(2)
C4 C 1.0540(4) 0.1384(4) 0.2381(2)
C5 C 0.9732(4) 0.1949(3) 0.2419(2)
C6 C 0.8817(3) 0.1755(3) 0.2346(2)
C7 C 0.8319(3) -0.1117(3) 0.2950(3)
C8 C 0.7558(3) -0.1618(3) 0.3212(2)
C9 C 0.7206(4) -0.2009(3) 0.2799(3)
C10 C 0.7571(4) -0.1908(3) 0.2169(3)
C11 C 0.8326(4) -0.1409(3) 0.1926(3)
C12 C 0.8693(3) -0.0992(3) 0.2307(3)
C13 C 0.6391(4) -0.0379(3) 0.4145(2)
C14 C 0.7008(4) -0.1117(4) 0.4289(2)
C15 C 0.7479(4) -0.1226(4) 0.4804(3)
C16 C 0.7389(5) -0.0598(6) 0.5150(3)
C17 C 0.6842(6) 0.0145(5) 0.4982(3)
C18 C 0.6347(4) 0.0265(4) 0.4478(3)
C19 C 0.6777(4) 0.1782(3) 0.3341(3)
C20 C 0.5858(5) 0.1542(3) 0.3646(3)
C21 C 0.5081(4) 0.1778(4) 0.3308(4)
C22 C 0.5224(5) 0.2168(3) 0.2686(4)
C23 C 0.6152(4) 0.2357(3) 0.2396(3)
C24 C 0.6947(4) 0.2169(3) 0.2709(3)
C25 C 0.9556(3) -0.0476(3) 0.2009(2)
C26 C 0.7187(4) -0.1811(3) 0.3908(2)
C27 C 0.5689(5) 0.1082(4) 0.4326(3)
C28 C 0.7933(4) 0.2412(3) 0.2373(2)
C29 C 0.7580(3) 0.0852(3) 0.1612(3)
C30 C 0.5215(3) -0.0608(3) 0.1512(2)
C31 C 0.6010(3) -0.0152(3) 0.1058(2)
C32 C 0.6571(4) 0.0492(3) 0.1757(3)
C33 C 0.5163(4) -0.0775(4) 0.3677(3)
C34 C 0.4179(17) -0.0470(19) 0.3439(13)
C35? C 0.449(3) -0.011(2) 0.3314(16)
C36 C 0.3489(4) 0.0113(4) 0.2562(3)
C37 C 0.3921(4) 0.0441(3) 0.1888(3)
C38 C 0.3583(3) -0.0439(3) 0.1184(2)
C39 C 0.2611(3) -0.0064(3) 0.1191(2)
C40 C 0.1983(4) -0.0329(4) 0.0889(3)
C41 C 0.2244(4) -0.0967(4) 0.0553(2)
C42 C 0.3211(4) -0.1323(4) 0.0515(3)
C43 C 0.3853(4) -0.1070(4) 0.0819(2)
C44 C 0.0935(4) -0.2002(4) -0.0257(3)
C45 C -0.0015(5) -0.1572(4) -0.0216(2)
C46 C -0.0725(4) -0.1891(4) -0.0463(3)
C47 C -0.0447(4) -0.2599(4) -0.0724(2)
C48 C 0.0479(5) -0.2982(4) -0.0759(2)
C49 C 0.1171(4) -0.2680(4) -0.0534(3)
O8 O 0.7577(3) 0.1571(2) 0.3660(2)
C50 C 0.7822(8) 0.2188(5) 0.3942(4)
C51 C 0.8698(11) 0.1870(8) 0.4257(6)
C52 C 0.9389(10) 0.2259(8) 0.4215(6)
O9 O 0.8672(2) -0.0694(2) 0.3332(2)
C53 C 0.9552(4) -0.1058(3) 0.3545(3)
C54 C 0.9867(5) -0.0465(4) 0.3890(3)
C55 C 1.0831(7) -0.0677(6) 0.4042(4)
O10 O 0.2549(2) 0.6015(2) 0.1980(2)
O11 O 0.0744(3) 0.5970(3) 0.1460(2)
O12 O 0.1579(2) 0.4805(2) 0.3666(1)
O13 O -0.0348(3) 0.4348(2) 0.2961(2)
O14 O -0.6889(4) 0.2571(3) -0.0838(3)
O15 O -0.6780(4) 0.1477(3) -0.0133(2)
N5 N -0.1350(3) 0.5741(2) 0.1626(2)
N6 N -0.3582(3) 0.4245(3) 0.0372(2)
N7 N -0.4007(3) 0.3622(3) 0.0697(2)
N8 N -0.6565(3) 0.2178(4) -0.0383(3)
C56 C 0.3371(4) 0.6304(3) 0.2086(2)
C57 C 0.3298(4) 0.7078(4) 0.2264(2)
C58 C 0.4148(5) 0.7384(4) 0.2341(3)
C59 C 0.5043(5) 0.6889(6) 0.2254(3)
C60 C 0.5086(4) 0.6116(5) 0.2109(3)
C61 C 0.4261(4) 0.5793(4) 0.2034(2)
C62 C 0.3611(4) 0.4099(3) 0.2895(3)
C63 C 0.3705(4) 0.4290(3) 0.2255(3)
C64 C 0.3236(4) 0.3826(4) 0.1962(3)
C65 C 0.2668(5) 0.3208(4) 0.2289(4)
C66 C 0.2548(4) 0.3048(3) 0.2933(4)
C67 C 0.3005(4) 0.3495(3) 0.3260(3)
C68 C 0.1902(4) 0.4641(3) 0.4238(2)
C69 C 0.2562(4) 0.3933(4) 0.4380(3)
C70 C 0.2905(5) 0.3813(4) 0.4943(3)
C71 C 0.2623(5) 0.4363(5) 0.5349(3)
C72 C 0.1972(5) 0.5069(4) 0.5213(3)
C73 C 0.1618(4) 0.5212(4) 0.4638(2)
C74 C 0.1554(4) 0.6814(3) 0.3438(3)
C75 C 0.0790(4) 0.6435(3) 0.3853(2)
C76 C -0.0110(4) 0.6528(3) 0.3654(3)
C77 C -0.0217(4) 0.6930(3) 0.3057(3)
C78 C 0.0560(4) 0.7249(3) 0.2645(3)
C79 C 0.1479(4) 0.7198(3) 0.2816(2)
C80 C 0.4342(4) 0.4937(4) 0.1859(3)
C81 C 0.2872(5) 0.3275(4) 0.3968(3)
C82 C 0.0883(4) 0.5992(4) 0.4527(2)
C83 C 0.2323(4) 0.7608(3) 0.2363(3)
C84 C 0.2446(4) 0.6226(5) 0.1334(3)
C85 C 0.1723(5) 0.5761(6) 0.1199(3)
C86 C 0.0159(5) 0.6309(4) 0.1008(3)
C87 C -0.0860(4) 0.6481(3) 0.1323(3)
C88 C 0.0702(3) 0.4454(3) 0.3663(2)
C89 C 0.0544(3) 0.4672(3) 0.2989(2)
C90 C -0.0589(4) 0.4573(3) 0.2343(3)
C91 C -0.1226(4) 0.5405(3) 0.2277(2)
C92 C -0.1865(3) 0.5358(3) 0.1312(2)
C93 C -0.1865(3) 0.5590(3) 0.0661(2)
C94 C -0.2421(4) 0.5205(3) 0.0371(2)
C95 C -0.3011(3) 0.4591(3) 0.0703(2)
C96 C -0.2999(3) 0.4351(3) 0.1338(2)
C97 C -0.2456(3) 0.4720(3) 0.1643(2)
C98 C -0.4641(3) 0.3297(3) 0.0392(2)
C99 C -0.4989(3) 0.3714(3) -0.0149(2)
C100 C -0.5614(4) 0.3341(4) -0.0399(2)
C101 C -0.5890(3) 0.2568(4) -0.0113(3)
C102 C -0.5553(4) 0.2143(4) 0.0424(3)
C103 C -0.4931(4) 0.2515(3) 0.0667(3)
O16 O 0.4093(3) 0.4523(2) 0.3220(2)
C104 C 0.5071(5) 0.4142(4) 0.3267(4)
C105 C 0.5611(8) 0.4591(5) 0.3557(5)
C106 C 0.6508(11) 0.4203(10) 0.3701(8)
C107? C 0.5317(14) 0.4449(12) 0.4197(8)
O17 O 0.2478(3) 0.6751(4) 0.3650(2)
C108 C 0.2752(12) 0.7291(7) 0.3967(9)
C109 C 0.3546(10) 0.6609(9) 0.4128(9)
C110 C 0.4239(11) 0.7016(10) 0.4105(7)
H1 H 1.10480 0.02120 0.22360
H2 H 1.11600 0.15300 0.24370
H3 H 0.97910 0.24950 0.24990
H4 H 0.66830 -0.23640 0.29660
H5 H 0.73060 -0.21830 0.19000
H6 H 0.86010 -0.13480 0.14850
H7 H 0.78720 -0.17430 0.49220
H8 H 0.77120 -0.06810 0.55110
H9 H 0.68010 0.05870 0.52170
H10 H 0.44260 0.16650 0.35160
H11 H 0.46810 0.23060 0.24580
H12 H 0.62510 0.26290 0.19600
H13 H 1.01460 -0.08160 0.21060
H14 H 0.95940 -0.03900 0.15590
H15 H 0.76500 -0.22360 0.40920
H16 H 0.65780 -0.20580 0.39670
H17 H 0.50140 0.09580 0.44350
H18 H 0.57810 0.14560 0.45910
H19 H 0.80930 0.28460 0.25620
H20 H 0.78650 0.26610 0.19450
H21 H 0.80460 0.05550 0.13310
H22 H 0.75190 0.14380 0.14250
H23 H 0.52390 -0.11600 0.14180
H24 H 0.53560 -0.06730 0.19320
H25 H 0.66170 -0.05110 0.10450
H26 H 0.58400 -0.00340 0.06430
H27 H 0.66560 -0.00980 0.19270
H28 H 0.61390 0.07620 0.20690
H29 H 0.49980 -0.10340 0.41120
H30 H 0.54710 -0.12150 0.34540
H31? H 0.48570 -0.09780 0.41020
H32? H 0.54030 -0.12380 0.34630
H33 H 0.37610 -0.09180 0.35340
H34 H 0.38420 -0.00150 0.36370
H35? H 0.40100 0.01680 0.36010
H36? H 0.48620 0.02980 0.30240
H37 H 0.31320 0.05520 0.27700
H38 H 0.30730 -0.03240 0.25960
H39? H 0.33330 0.05900 0.27690
H40? H 0.28730 -0.00850 0.25520
H41 H 0.34440 0.08470 0.17020
H42 H 0.44850 0.07250 0.18840
H43 H 0.23880 0.03900 0.14160
H44 H 0.13240 -0.00580 0.09110
H45 H 0.34310 -0.17570 0.02690
H46 H 0.45170 -0.13330 0.07820
H47 H -0.01750 -0.10800 -0.00280
H48 H -0.13840 -0.16200 -0.04490
H49 H 0.06470 -0.34750 -0.09470
H50 H 0.18320 -0.29480 -0.05710
H51 H 0.72730 0.23450 0.42480
H52 H 0.79670 0.26780 0.36270
H53 H 0.84470 0.17240 0.47000
H54 H 0.89600 0.13530 0.41170
H55 H 0.98620 0.19260 0.44530
H56 H 0.91700 0.27670 0.43780
H57 H 0.96880 0.23970 0.37790
H58 H 1.00520 -0.11540 0.31930
H59 H 0.94470 -0.15870 0.38220
H60 H 0.98380 0.00880 0.36360
H61 H 0.94060 -0.04450 0.42740
H62 H 1.09730 -0.02720 0.42650
H63 H 1.13020 -0.06770 0.36600
H64 H 1.08670 -0.12250 0.43030
H65 H 0.41170 0.79270 0.24530
H66 H 0.56370 0.70980 0.22970
H67 H 0.57110 0.57850 0.20570
H68 H 0.33140 0.39440 0.15100
H69 H 0.23590 0.28910 0.20700
H70 H 0.21410 0.26190 0.31670
H71 H 0.33560 0.33300 0.50520
H72 H 0.28800 0.42590 0.57370
H73 H 0.17680 0.54500 0.55040
H74 H -0.06690 0.63070 0.39390
H75 H -0.08490 0.69870 0.29280
H76 H 0.04700 0.75160 0.22240
H77 H 0.42130 0.50190 0.14350
H78 H 0.50150 0.47030 0.18510
H79 H 0.34860 0.29910 0.40730
H80 H 0.23970 0.28700 0.40990
H81 H 0.02420 0.58350 0.47330
H82 H 0.10450 0.63990 0.47410
H83 H 0.21180 0.77980 0.19600
H84 H 0.24300 0.80960 0.25120
H85 H 0.30700 0.61080 0.10770
H86 H 0.22520 0.68170 0.12290
H87 H 0.17700 0.58420 0.07490
H88 H 0.18910 0.51740 0.13480
H89 H 0.01800 0.59220 0.07290
H90 H 0.04000 0.68200 0.07620
H91 H -0.08570 0.68150 0.16350
H92 H -0.12340 0.68080 0.10160
H93 H 0.01570 0.46920 0.39340
H94 H 0.07730 0.38560 0.38020
H95 H 0.04950 0.52700 0.28490
H96 H 0.10870 0.44250 0.27220
H97 H -0.09370 0.41440 0.22650
H98 H 0.00040 0.46180 0.20360
H99 H -0.18620 0.53300 0.25330
H100 H -0.09300 0.58030 0.24320
H101 H -0.14720 0.60220 0.04170
H102 H -0.24000 0.53690 -0.00770
H103 H -0.33850 0.39100 0.15760
H104 H -0.24770 0.45420 0.20900
H105 H -0.47960 0.42610 -0.03490
H106 H -0.58560 0.36260 -0.07760
H107 H -0.57520 0.15970 0.06230
H108 H -0.46860 0.22230 0.10410
H109 H 0.50360 0.35810 0.35060
H110 H 0.54210 0.41010 0.28510
H111 H 0.57240 0.51190 0.32820
H112 H 0.52040 0.47100 0.39400
H113? H 0.63020 0.44170 0.34600
H114? H 0.55090 0.51810 0.33920
H115 H 0.68150 0.45720 0.38780
H116 H 0.69260 0.40760 0.33240
H117 H 0.64050 0.36930 0.40020
H118? H 0.56640 0.47800 0.43820
H119? H 0.54600 0.38640 0.43650
H120? H 0.46210 0.46030 0.42940
H121 H 0.22750 0.74140 0.43230
H122 H 0.29880 0.77930 0.37030
H123 H 0.33660 0.62840 0.45420
H124 H 0.36960 0.62420 0.38250
H125 H 0.47900 0.66420 0.42320
H126 H 0.40460 0.74120 0.43850
H127 H 0.44230 0.73110 0.36810
#END
