
#######################################################################
#
#                 Cambridge Crystallographic Data Centre
#                                CCDC
#
#######################################################################
#
# If this CIF has been generated from an entry in the Cambridge
# Structural Database, then it will include bibliographic, chemical,
# crystal, experimental, refinement or atomic coordinate data resulting
# from the CCDC's data processing and validation procedures.
#
#######################################################################

data_CSD_CIF_XOWTUY
_audit_creation_date 2002-11-19
_audit_creation_method CSD-ConQuest-V1
_database_code_CSD XOWTUY
_chemical_formula_sum 'C27 H45 N1 O2'
_chemical_formula_moiety
;
C27 H45 N1 O2
;
_journal_coden_Cambridge 542
_journal_volume 36
_journal_year 2001
_journal_page_first 471
_journal_name_full 'Cryst.Res.Technol. '
loop_
_publ_author_name
"Rajnikant"
"V.K.Gupta"
"E.H.Khan"
"S.Shafi"
"J.Firoz"
"Shafiullah"
"R.Gupta"
_chemical_name_systematic
;
6-Nitrocholest-5-ene
;
_chemical_melting_point 392
_cell_volume   2547.825
_exptl_crystal_colour 'yellow'
_exptl_crystal_density_diffrn 1.084
_exptl_special_details
;
Melting point range 392-393K

;
_exptl_crystal_description 'plate'
_exptl_crystal_preparation 'methanol'
_diffrn_ambient_temperature ?
_diffrn_special_details
;
The study was carried out at room temperature,in the range 283-303K

;
#These two values have been output from a single CSD field.
_refine_ls_R_factor_gt 0.064
_refine_ls_wR_factor_gt 0.064
_symmetry_cell_setting monoclinic
_symmetry_space_group_name_H-M 'P 21'
_symmetry_Int_Tables_number 4
loop_
_symmetry_equiv_pos_site_id
_symmetry_equiv_pos_as_xyz
1 x,y,z
2 -x,1/2+y,-z
_cell_length_a 12.143(2)
_cell_length_b 10.835(2)
_cell_length_c 19.747(4)
_cell_angle_alpha 90
_cell_angle_beta 101.29(1)
_cell_angle_gamma 90
_cell_formula_units_Z 4
loop_
_atom_type_symbol
_atom_type_radius_bond
C 0.68
N 0.68
O 0.68
loop_
_atom_site_label
_atom_site_type_symbol
_atom_site_fract_x
_atom_site_fract_y
_atom_site_fract_z
C1 C 1.0540(4) -0.1245(6) -0.1342(3)
C2 C 1.0616(5) -0.1058(6) -0.2089(3)
C3 C 1.0042(5) -0.2127(7) -0.2524(3)
C4 C 0.8834(4) -0.2241(6) -0.2447(3)
C5 C 0.8675(4) -0.2309(4) -0.1708(2)
C6 C 0.7989(3) -0.3115(4) -0.1476(2)
N1 N 0.7342(3) -0.3995(4) -0.1956(2)
O1 O 0.6754(4) -0.3660(5) -0.2491(3)
O2 O 0.7389(5) -0.5070(5) -0.1791(3)
C7 C 0.7787(4) -0.3254(5) -0.0764(2)
C8 C 0.8244(3) -0.2181(4) -0.0294(2)
C9 C 0.9397(3) -0.1789(4) -0.0448(2)
C10 C 0.9331(4) -0.1370(4) -0.1202(2)
C11 C 0.8710(5) -0.0132(5) -0.1361(3)
C12 C 0.9982(5) -0.0863(5) 0.0094(3)
C13 C 1.0009(4) -0.1226(5) 0.0843(2)
C14 C 0.8845(4) -0.1517(4) 0.0980(2)
C15 C 0.8107(5) -0.0351(5) 0.0911(3)
C16 C 0.8358(3) -0.2533(4) 0.0460(2)
C17 C 0.7326(4) -0.3003(5) 0.0708(2)
C18 C 0.7643(4) -0.2877(6) 0.1500(3)
C19 C 0.8790(4) -0.2198(5) 0.1665(2)
C20 C 0.8969(5) -0.1458(5) 0.2350(2)
C21 C 1.0113(6) -0.0818(7) 0.2506(3)
C22 C 0.8843(5) -0.2319(6) 0.2955(3)
C23 C 0.8929(6) -0.1695(7) 0.3643(3)
C24 C 0.8715(6) -0.2525(7) 0.4202(3)
C25 C 0.8698(7) -0.1880(9) 0.4898(3)
C26 C 0.9695(7) -0.1167(11) 0.5180(4)
C27 C 0.8407(1) -0.2818(12) 0.5405(4)
C28 C 0.4642(5) 0.3630(7) 0.5943(3)
C29 C 0.4639(5) 0.3824(7) 0.6701(3)
C30 C 0.5624(6) 0.2763(7) 0.7117(3)
C31 C 0.6459(5) 0.2667(7) 0.6996(3)
C32 C 0.6512(4) 0.2588(5) 0.6239(3)
C33 C 0.7152(4) 0.1783(5) 0.5974(3)
N2 N 0.7831(4) 0.0894(5) 0.6433(3)
O3 O 0.8511(6) 0.1169(8) 0.6892(4)
O4 O 0.7740(7) -0.0150(7) 0.6288(5)
C34 C 0.7269(4) 0.1640(5) 0.5246(2)
C35 C 0.6784(3) 0.2727(5) 0.4793(2)
C36 C 0.5673(4) 0.3145(5) 0.4991(2)
C37 C 0.5815(4) 0.3541(5) 0.5765(3)
C38 C 0.6422(6) 0.4778(5) 0.5900(3)
C39 C 0.5006(5) 0.4106(6) 0.4482(3)
C40 C 0.4951(4) 0.3750(6) 0.3722(3)
C41 C 0.6062(4) 0.3401(4) 0.3530(2)
C42 C 0.6850(5) 0.4513(5) 0.3568(3)
C43 C 0.6563(4) 0.2360(4) 0.4038(2)
C44 C 0.7529(4) 0.1847(6) 0.3728(3)
C45 C 0.7096(4) 0.1942(5) 0.2941(3)
C46 C 0.5986(4) 0.2708(5) 0.2828(2)
C47 C 0.5819(4) 0.3476(5) 0.2157(3)
C48 C 0.4697(5) 0.4198(7) 0.2041(3)
C49 C 0.5864(5) 0.2658(6) 0.1531(3)
C50 C 0.5951(6) 0.3365(6) 0.0876(3)
C51 C 0.6169(6) 0.2561(6) 0.0303(3)
C52 C 0.6456(5) 0.3244(6) -0.0321(3)
C53 C 0.5498(5) 0.4019(8) -0.0698(3)
C54 C 0.6855(9) 0.2351(9) -0.0813(4)
#END
