
#######################################################################
#
#                 Cambridge Crystallographic Data Centre
#                                CCDC
#
#######################################################################
#
# If this CIF has been generated from an entry in the Cambridge
# Structural Database, then it will include bibliographic, chemical,
# crystal, experimental, refinement or atomic coordinate data resulting
# from the CCDC's data processing and validation procedures.
#
#######################################################################

data_CSD_CIF_XOYNOQ
_audit_creation_date 2014-11-24
_audit_creation_method CSD-ConQuest-V1
_database_code_CSD XOYNOQ
_database_code_depnum_ccdc_archive 'CCDC 1021032'
_chemical_formula_sum 'C22 H16 N4 O2'
_chemical_formula_moiety
;
C22 H16 N4 O2
;
_journal_coden_Cambridge 1500
_journal_volume 4
_journal_year 2014
_journal_page_first 64014
_journal_name_full 'RSC Advances '
loop_
_publ_author_name
"M.Mukherjee"
"B.Sen"
"S.Pal"
"S.Banerjee"
"S.Lohar"
"P.Chattopadhyay"
_chemical_name_systematic
;
6-(2-(2-nitrophenyl)vinyl)-5,6-dihydrobenzimidazo[1,2-c]quinazoline
;
_cell_volume   1811.972
_exptl_crystal_density_diffrn 1.35
_diffrn_ambient_temperature 293
#These two values have been output from a single CSD field.
_refine_ls_R_factor_gt 0.1016
_refine_ls_wR_factor_gt 0.1016
_symmetry_cell_setting monoclinic
_symmetry_space_group_name_H-M 'P 21/n'
_symmetry_Int_Tables_number 14
loop_
_symmetry_equiv_pos_site_id
_symmetry_equiv_pos_as_xyz
1 x,y,z
2 1/2-x,1/2+y,1/2-z
3 -x,-y,-z
4 -1/2+x,-1/2-y,-1/2+z
_cell_length_a 10.390(5)
_cell_length_b 16.287(5)
_cell_length_c 11.124(5)
_cell_angle_alpha 90
_cell_angle_beta 105.725(5)
_cell_angle_gamma 90
_cell_formula_units_Z 4
loop_
_atom_type_symbol
_atom_type_radius_bond
C 0.68
H 0.23
N 0.68
O 0.68
loop_
_atom_site_label
_atom_site_type_symbol
_atom_site_fract_x
_atom_site_fract_y
_atom_site_fract_z
O1 O 0.2636(9) 0.3057(7) 0.6371(8)
O2 O 0.2754(8) 0.3838(6) 0.4998(7)
N1 N 0.3889(8) 0.2348(5) 1.1271(7)
H1 H 0.456(10) 0.249(5) 1.194(9)
N2 N 0.1034(8) 0.1643(5) 0.8217(8)
N3 N 0.3135(7) 0.1633(5) 0.9448(6)
N4 N 0.3290(9) 0.3475(5) 0.5928(8)
C1 C 0.2687(8) 0.2843(6) 1.1023(9)
C2 C 0.2466(11) 0.3391(7) 1.1812(9)
H2 H 0.31410 0.35150 1.25290
C3 C 0.1302(11) 0.3768(6) 1.1604(9)
H3 H 0.11940 0.41580 1.21800
C4 C 0.0248(10) 0.3618(6) 1.059(1)
H4 H -0.05630 0.38890 1.04850
C5 C 0.0421(10) 0.3042(6) 0.9711(8)
H5 H -0.02590 0.29290 0.89940
C6 C 0.1696(10) 0.2634(5) 0.9965(8)
C7 C 0.1932(10) 0.1937(5) 0.9115(8)
C8 C 0.1793(12) 0.0987(6) 0.7794(10)
C9 C 0.1418(12) 0.0436(8) 0.6843(10)
H6 H 0.05460 0.04240 0.63340
C10 C 0.2354(16) -0.0096(6) 0.6660(11)
H7 H 0.21090 -0.04510 0.59810
C11 C 0.3632(14) -0.0142(6) 0.7412(12)
H8 H 0.42140 -0.05420 0.72730
C12 C 0.4059(10) 0.0421(6) 0.8397(10)
H9 H 0.49270 0.04290 0.89160
C13 C 0.3082(12) 0.0963(5) 0.8532(8)
C14 C 0.4336(7) 0.1986(5) 1.0254(7)
H10 H 0.49800 0.15480 1.05860
C15 C 0.4946(7) 0.2587(5) 0.9568(8)
H11 H 0.56890 0.28670 1.00480
C16 C 0.4601(8) 0.2768(5) 0.8438(9)
H12 H 0.38480 0.25010 0.79500
C17 C 0.5259(8) 0.3365(5) 0.7783(8)
C18 C 0.6567(9) 0.3604(6) 0.8310(9)
H13 H 0.70000 0.34190 0.91080
C19 C 0.7251(9) 0.4103(6) 0.7706(11)
H14 H 0.81220 0.42640 0.81020
C20 C 0.6647(11) 0.4363(5) 0.652(1)
H15 H 0.71050 0.46960 0.60960
C21 C 0.5368(11) 0.4128(5) 0.5967(8)
H16 H 0.49560 0.42910 0.51520
C22 C 0.4698(7) 0.3664(5) 0.6588(8)
#END
