
#######################################################################
#
#                 Cambridge Crystallographic Data Centre
#                                CCDC
#
#######################################################################
#
# If this CIF has been generated from an entry in the Cambridge
# Structural Database, then it will include bibliographic, chemical,
# crystal, experimental, refinement or atomic coordinate data resulting
# from the CCDC's data processing and validation procedures.
#
#######################################################################

data_CSD_CIF_XOYXAL
_audit_creation_date 2009-09-22
_audit_creation_method CSD-ConQuest-V1
_database_code_CSD XOYXAL
_database_code_depnum_ccdc_archive 'CCDC 744300'
_chemical_formula_sum 'C21 H24 N2 O4'
_chemical_formula_moiety
;
C21 H24 N2 O4
;
_journal_coeditor_code "IUCr CI2810"
_journal_coden_Cambridge 1370
_journal_volume 65
_journal_year 2009
_journal_page_first o1765
_journal_name_full 'Acta Crystallogr.,Sect.E:Struct.Rep.Online '
loop_
_publ_author_name
"T.Kavitha"
"M.Thenmozhi"
"S.Ponnuswamy"
"P.Sakthivel"
"M.N.Ponnuswamy"
_chemical_name_systematic
;
t-3-Ethyl-r-2,c-6-bis(4-methoxyphenyl)-1-nitrosopiperidin-4-one
;
_chemical_name_common
;
3-Ethyl-2,6-bis(4-methoxyphenyl)-1-nitroso-4-piperidinone
;
_cell_volume   1899.588
_exptl_crystal_colour 'colorless'
_exptl_crystal_density_diffrn 1.288
_exptl_crystal_description 'block'
_exptl_crystal_preparation 'ethanol'
_diffrn_ambient_temperature 293
#These two values have been output from a single CSD field.
_refine_ls_R_factor_gt 0.0398
_refine_ls_wR_factor_gt 0.0398
_symmetry_cell_setting orthorhombic
_symmetry_space_group_name_H-M 'P 21 21 21'
_symmetry_Int_Tables_number 19
loop_
_symmetry_equiv_pos_site_id
_symmetry_equiv_pos_as_xyz
1 x,y,z
2 1/2-x,-y,1/2+z
3 1/2+x,1/2-y,-z
4 -x,1/2+y,1/2-z
_cell_length_a 7.2742(4)
_cell_length_b 15.8459(7)
_cell_length_c 16.4800(7)
_cell_angle_alpha 90
_cell_angle_beta 90
_cell_angle_gamma 90
_cell_formula_units_Z 4
loop_
_atom_type_symbol
_atom_type_radius_bond
C 0.68
H 0.23
N 0.68
O 0.68
loop_
_atom_site_label
_atom_site_type_symbol
_atom_site_fract_x
_atom_site_fract_y
_atom_site_fract_z
O1 O 1.2631(2) 0.06968(12) 0.09708(10)
O2 O 0.56881(19) 0.08201(12) 0.27581(11)
O3 O 1.2829(2) -0.26039(11) 0.42094(11)
O4 O 0.96286(19) 0.17870(9) 0.59490(8)
N1 N 0.82220(18) 0.02169(10) 0.24151(9)
C1 C 0.9060(2) -0.04979(11) 0.19832(11)
H1 H 0.80440 -0.08520 0.17920
C2 C 1.0038(3) -0.01651(12) 0.12220(12)
H2 H 1.06930 -0.06330 0.09620
C3 C 1.1403(3) 0.05176(12) 0.14271(12)
C4 C 1.1176(2) 0.09628(12) 0.22290(12)
H3 H 1.16240 0.15360 0.21660
H4 H 1.19670 0.06860 0.26210
C5 C 0.9234(2) 0.10068(11) 0.25901(11)
H5 H 0.85830 0.14690 0.23190
N2 N 0.6402(2) 0.01792(13) 0.24877(11)
C6 C 1.0192(2) -0.10403(10) 0.25549(12)
C7 C 1.2088(3) -0.11160(12) 0.25259(13)
H6 H 1.27470 -0.08220 0.21340
C8 C 1.3015(3) -0.16248(13) 0.30744(13)
H7 H 1.42900 -0.16640 0.30510
C9 C 1.2061(3) -0.20718(12) 0.36542(13)
C10 C 1.0155(3) -0.20026(13) 0.36894(14)
H8 H 0.94960 -0.23030 0.40770
C11 C 0.9252(3) -0.14900(12) 0.31510(13)
H9 H 0.79800 -0.14410 0.31840
C12 C 0.9304(2) 0.12116(10) 0.34877(11)
C13 C 1.0182(2) 0.06863(11) 0.40442(12)
H10 H 1.07120 0.01860 0.38650
C14 C 1.0279(2) 0.08954(12) 0.48551(11)
H11 H 1.08710 0.05370 0.52180
C15 C 0.9491(2) 0.16428(11) 0.51316(11)
C16 C 0.8647(3) 0.21793(12) 0.45857(11)
H12 H 0.81420 0.26860 0.47620
C17 C 0.8557(2) 0.19574(11) 0.37750(12)
H13 H 0.79770 0.23200 0.34120
C18 C 1.4718(4) -0.28172(19) 0.41023(18)
H14 H 1.50950 -0.31960 0.45250
H15 H 1.54510 -0.23140 0.41250
H16 H 1.48810 -0.30850 0.35850
C19 C 0.8815(3) 0.25378(15) 0.62544(14)
H17 H 0.89980 0.25670 0.68310
H18 H 0.75210 0.25350 0.61390
H19 H 0.93750 0.30190 0.60000
C20 C 0.8639(4) 0.02004(17) 0.06142(14)
H20 H 0.75620 -0.01600 0.06040
H21 H 0.82550 0.07530 0.08020
C21 C 0.9381(5) 0.0281(2) -0.02394(16)
H22 H 0.84460 0.05120 -0.05860
H23 H 0.97370 -0.02650 -0.04360
H24 H 1.04300 0.06490 -0.02380
#END
