
#######################################################################
#
#                 Cambridge Crystallographic Data Centre
#                                CCDC
#
#######################################################################
#
# If this CIF has been generated from an entry in the Cambridge
# Structural Database, then it will include bibliographic, chemical,
# crystal, experimental, refinement or atomic coordinate data resulting
# from the CCDC's data processing and validation procedures.
#
#######################################################################

data_CSD_CIF_XOYZOB
_audit_creation_date 2009-09-22
_audit_creation_method CSD-ConQuest-V1
_database_code_CSD XOYZOB
_database_code_depnum_ccdc_archive 'CCDC 744314'
_chemical_formula_sum 'C30 H34 N2 O6'
_chemical_formula_moiety
;
C30 H34 N2 O6
;
_journal_coeditor_code "IUCr LH2852"
_journal_coden_Cambridge 1370
_journal_volume 65
_journal_year 2009
_journal_page_first o1784
_journal_name_full 'Acta Crystallogr.,Sect.E:Struct.Rep.Online '
loop_
_publ_author_name
"D.Margraf"
"D.Schuetz"
"T.F.Prisner"
"J.W.Bats"
_chemical_name_systematic
;
Biphenyl-4,4'-diyl 
bis(1-oxy-2,2,5,5-tetramethyl-2,5-dihydro-1H-pyrrole-3-carboxylate)
;
_cell_volume   1356.650
_exptl_crystal_colour 'yellow'
_exptl_crystal_density_diffrn 1.27
_exptl_crystal_description 'plate'
_exptl_crystal_preparation 'toluene/n-hexane'
_diffrn_ambient_temperature 169
#These two values have been output from a single CSD field.
_refine_ls_R_factor_gt 0.0489
_refine_ls_wR_factor_gt 0.0489
_symmetry_cell_setting monoclinic
_symmetry_space_group_name_H-M 'C 2/m'
_symmetry_Int_Tables_number 12
loop_
_symmetry_equiv_pos_site_id
_symmetry_equiv_pos_as_xyz
1 x,y,z
2 -x,y,-z
3 1/2+x,1/2+y,z
4 1/2-x,1/2+y,-z
5 -x,-y,-z
6 x,-y,z
7 -1/2-x,-1/2-y,-z
8 -1/2+x,-1/2-y,z
_cell_length_a 6.931(2)
_cell_length_b 9.461(3)
_cell_length_c 20.805(4)
_cell_angle_alpha 90
_cell_angle_beta 96.059(14)
_cell_angle_gamma 90
_cell_formula_units_Z 2
loop_
_atom_type_symbol
_atom_type_radius_bond
C 0.68
H 0.23
N 0.68
O 0.68
loop_
_atom_site_label
_atom_site_type_symbol
_atom_site_fract_x
_atom_site_fract_y
_atom_site_fract_z
O1 O 0.58234(19) 0.00000 0.29187(6)
O2 O 0.2989(2) 0.00000 0.33551(6)
O3 O -0.0951(2) 0.00000 0.09831(7)
N1 N 0.0672(2) 0.00000 0.13356(7)
C1 C 0.9329(3) 0.00000 0.46943(8)
C2 C 0.8678(2) 0.12604(16) 0.43958(6)
H1 H 0.90760 0.21350 0.45920
C3 C 0.7462(2) 0.12691(16) 0.38187(7)
H2 H 0.70360 0.21370 0.36220
C4 C 0.6887(3) 0.00000 0.35376(8)
C5 C 0.3862(3) 0.00000 0.28870(8)
C6 C 0.2971(2) 0.00000 0.22093(8)
C7 C 0.3911(3) 0.00000 0.16826(8)
H3 H 0.52850 0.00000 0.16960
C8 C 0.2570(3) 0.00000 0.10658(8)
C9 C 0.0794(2) 0.00000 0.20539(8)
C10 C 0.2784(2) 0.13302(16) 0.06612(7)
H4 H 0.17990 0.13250 0.02870
H5 H 0.40790 0.13480 0.05120
H6 H 0.26110 0.21690 0.09250
C11 C -0.01778(19) 0.13337(14) 0.22809(7)
H7 H -0.15350 0.13600 0.20930
H8 H 0.05030 0.21700 0.21420
H9 H -0.01250 0.13270 0.27530
O1A O 1.41766(19) 0.00000 0.70813(6)
O2A O 1.7011(2) 0.00000 0.66449(6)
O3A O 2.0951(2) 0.00000 0.90169(7)
N1A N 1.9328(2) 0.00000 0.86644(7)
C1A C 1.0671(3) 0.00000 0.53057(8)
C2A C 1.1322(2) 0.12604(16) 0.56042(6)
C2D C 1.1322(2) -0.12604(16) 0.56042(6)
C2E C 0.8678(2) -0.12604(16) 0.43958(6)
H1A H 1.09240 0.21350 0.54080
H1D H 1.09240 -0.21350 0.54080
H1E H 0.90760 -0.21350 0.45920
C3A C 1.2538(2) 0.12691(16) 0.61813(7)
C3D C 1.2538(2) -0.12691(16) 0.61813(7)
C3E C 0.7462(2) -0.12691(16) 0.38187(7)
H2A H 1.29640 0.21370 0.63780
H2D H 1.29640 -0.21370 0.63780
H2E H 0.70360 -0.21370 0.36220
C4A C 1.3113(3) 0.00000 0.64624(8)
C5A C 1.6138(3) 0.00000 0.71130(8)
C6A C 1.7029(2) 0.00000 0.77907(8)
C7A C 1.6089(3) 0.00000 0.83174(8)
H3A H 1.47150 0.00000 0.83040
C8A C 1.7430(3) 0.00000 0.89342(8)
C9A C 1.9206(2) 0.00000 0.79461(8)
C10A C 1.7216(2) 0.13302(16) 0.93388(7)
C10D C 1.7216(2) -0.13302(16) 0.93388(7)
C10E C 0.2784(2) -0.13302(16) 0.06612(7)
H4A H 1.82010 0.13250 0.97130
H4D H 1.82010 -0.13250 0.97130
H4E H 0.17990 -0.13250 0.02870
H5A H 1.59210 0.13480 0.94880
H5D H 1.59210 -0.13480 0.94880
H5E H 0.40790 -0.13480 0.05120
H6A H 1.73890 0.21690 0.90750
H6D H 1.73890 -0.21690 0.90750
H6E H 0.26110 -0.21690 0.09250
C11A C 2.01778(19) 0.13337(14) 0.77191(7)
C11D C 2.01778(19) -0.13337(14) 0.77191(7)
C11E C -0.01778(19) -0.13337(14) 0.22809(7)
H7A H 2.15350 0.13600 0.79070
H7D H 2.15350 -0.13600 0.79070
H7E H -0.15350 -0.13600 0.20930
H8A H 1.94970 0.21700 0.78580
H8D H 1.94970 -0.21700 0.78580
H8E H 0.05030 -0.21700 0.21420
H9A H 2.01250 0.13270 0.72470
H9D H 2.01250 -0.13270 0.72470
H9E H -0.01250 -0.13270 0.27530
#END
