
#######################################################################
#
#                 Cambridge Crystallographic Data Centre
#                                CCDC
#
#######################################################################
#
# If this CIF has been generated from an entry in the Cambridge
# Structural Database, then it will include bibliographic, chemical,
# crystal, experimental, refinement or atomic coordinate data resulting
# from the CCDC's data processing and validation procedures.
#
#######################################################################

data_CSD_CIF_XOZBUK01
_audit_creation_date 2010-09-15
_audit_creation_method CSD-ConQuest-V1
_database_code_CSD XOZBUK01
_database_code_depnum_ccdc_archive 'CCDC 788320'
_chemical_formula_sum 'C6 H5 N1 O3'
_chemical_formula_moiety
;
C6 H5 N1 O3
;
_journal_coeditor_code "IUCr RZ2466"
_journal_coden_Cambridge 1370
_journal_volume 66
_journal_year 2010
_journal_page_first o1914
_journal_name_full 'Acta Crystallogr.,Sect.E:Struct.Rep.Online '
loop_
_publ_author_name
"Lin Li"
"Bo Yu"
_chemical_name_systematic
;
(E)-2-(2-nitroethenyl)furan
;
_chemical_name_common
;
2-(2-Nitrovinyl)furan
;
_cell_volume   1914.869
_exptl_crystal_colour 'colorless'
_exptl_crystal_density_diffrn 1.448
_exptl_special_details
;
triclinic polymorph

;
_exptl_crystal_description 'block'
_exptl_crystal_preparation 'dichloromethane/hexane'
_diffrn_ambient_temperature 298
#These two values have been output from a single CSD field.
_refine_ls_R_factor_gt 0.0584
_refine_ls_wR_factor_gt 0.0584
_symmetry_cell_setting triclinic
_symmetry_space_group_name_H-M 'P -1'
_symmetry_Int_Tables_number 2
loop_
_symmetry_equiv_pos_site_id
_symmetry_equiv_pos_as_xyz
1 x,y,z
2 -x,-y,-z
_cell_length_a 9.8407(14)
_cell_length_b 13.4270(19)
_cell_length_c 15.300(2)
_cell_angle_alpha 91.105(1)
_cell_angle_beta 108.603(2)
_cell_angle_gamma 91.172(1)
_cell_formula_units_Z 12
loop_
_atom_type_symbol
_atom_type_radius_bond
C 0.68
H 0.23
N 0.68
O 0.68
loop_
_atom_site_label
_atom_site_type_symbol
_atom_site_fract_x
_atom_site_fract_y
_atom_site_fract_z
C1 C 0.9416(2) 0.92135(16) 0.24460(16)
H1 H 0.98310 0.95320 0.20560
C2 C 1.0123(2) 0.86624(16) 0.31429(16)
H2 H 1.10960 0.85280 0.33290
C3 C 0.9112(2) 0.83226(15) 0.35424(15)
H3 H 0.92880 0.79120 0.40470
C4 C 0.7841(2) 0.86944(14) 0.30671(14)
C5 C 0.6460(2) 0.85930(14) 0.31761(14)
H4 H 0.63870 0.82110 0.36610
C6 C 0.5279(2) 0.89934(15) 0.26493(14)
H5 H 0.53080 0.93820 0.21590
C7 C 0.7237(2) 0.63452(14) 0.18843(14)
C8 C 0.8029(2) 0.67212(15) 0.13981(16)
H6 H 0.77140 0.71460 0.09050
C9 C 0.9416(2) 0.63636(16) 0.17613(17)
H7 H 1.01960 0.65010 0.15600
C10 C 0.9392(2) 0.57880(16) 0.24518(17)
H8 H 1.01780 0.54520 0.28190
C11 C 0.5770(2) 0.64540(14) 0.18134(14)
H9 H 0.52390 0.68800 0.13680
C12 C 0.5094(2) 0.60051(15) 0.23223(15)
H10 H 0.55870 0.55730 0.27760
C13 C 0.8059(2) 0.37791(14) 0.10512(14)
C14 C 0.6775(2) 0.40843(14) 0.05235(15)
H11 H 0.65960 0.44240 -0.00240
C15 C 0.5752(2) 0.38043(15) 0.09389(16)
H12 H 0.47720 0.39150 0.07260
C16 C 0.6481(2) 0.33457(16) 0.17040(16)
H13 H 0.60700 0.30810 0.21210
C17 C 0.9454(2) 0.38754(14) 0.09616(14)
H14 H 0.95250 0.42010 0.04460
C18 C 1.0657(2) 0.35470(14) 0.15413(14)
H15 H 1.06310 0.32020 0.20570
C19 C 0.8813(2) 0.13701(14) 0.01911(15)
C20 C 0.9605(2) 0.15719(15) -0.03563(16)
H16 H 0.92670 0.18080 -0.09530
C21 C 1.1038(2) 0.13626(15) 0.01342(18)
H17 H 1.18260 0.14280 -0.00730
C22 C 1.1038(2) 0.10540(16) 0.09513(18)
H18 H 1.18520 0.08680 0.14180
C23 C 0.7319(2) 0.14092(14) 0.00502(15)
H19 H 0.67500 0.16620 -0.05040
C24 C 0.6664(2) 0.11183(15) 0.06361(15)
H20 H 0.71990 0.08660 0.12000
C25 C 0.7166(2) 0.11542(14) 0.39786(15)
C26 C 0.6371(2) 0.08594(15) 0.45004(16)
H21 H 0.67030 0.05330 0.50560
C27 C 0.4949(2) 0.11306(16) 0.40575(18)
H22 H 0.41610 0.10220 0.42580
C28 C 0.4967(2) 0.15721(17) 0.32982(19)
H23 H 0.41640 0.18290 0.28680
C29 C 0.8654(2) 0.10866(14) 0.40970(14)
H24 H 0.92030 0.07410 0.46040
C30 C 0.9330(2) 0.14664(15) 0.35584(15)
H25 H 0.88180 0.18190 0.30460
C31 C 0.6315(2) 0.36980(14) 0.48376(15)
C32 C 0.7617(2) 0.34777(16) 0.53904(15)
H26 H 0.78220 0.31930 0.59660
C33 C 0.8624(2) 0.37469(15) 0.49599(17)
H27 H 0.96130 0.36780 0.51860
C34 C 0.7873(3) 0.41190(17) 0.41671(17)
H28 H 0.82700 0.43610 0.37340
C35 C 0.4923(2) 0.35871(14) 0.49243(14)
H29 H 0.48680 0.32950 0.54590
C36 C 0.3707(2) 0.38543(15) 0.43283(15)
H30 H 0.37160 0.41500 0.37850
N1 N 0.39430(19) 0.88338(14) 0.28277(13)
N2 N 0.3605(2) 0.61778(13) 0.21816(13)
N3 N 1.19984(19) 0.37178(13) 0.13825(14)
N4 N 0.51390(19) 0.11858(12) 0.04148(14)
N5 N 1.08370(18) 0.13472(13) 0.37455(13)
N6 N 0.23663(19) 0.36992(13) 0.44974(14)
O1 O 0.80031(15) 0.92554(10) 0.23725(10)
O2 O 0.38865(17) 0.82959(14) 0.34471(12)
O3 O 0.29023(16) 0.92505(12) 0.23200(12)
O4 O 0.80683(15) 0.57538(10) 0.25532(10)
O5 O 0.30358(18) 0.57248(13) 0.26641(12)
O6 O 0.29579(16) 0.67661(12) 0.16014(11)
O7 O 0.79022(15) 0.33117(10) 0.17990(9)
O8 O 1.30633(16) 0.33720(12) 0.19333(12)
O9 O 1.20458(17) 0.41996(14) 0.07243(12)
O10 O 0.96849(15) 0.10452(10) 0.10184(10)
O11 O 0.44264(16) 0.15312(12) -0.03166(11)
O12 O 0.46063(17) 0.08859(13) 0.09852(12)
O13 O 0.63096(15) 0.16044(11) 0.32253(11)
O14 O 1.15176(16) 0.09038(12) 0.44346(11)
O15 O 1.13827(17) 0.17002(12) 0.32070(12)
O16 O 0.64420(16) 0.41055(11) 0.40583(10)
O17 O 0.23464(18) 0.33222(13) 0.52140(13)
O18 O 0.12831(16) 0.39605(12) 0.39036(11)
#END
