
#######################################################################
#
#                 Cambridge Crystallographic Data Centre
#                                CCDC
#
#######################################################################
#
# If this CIF has been generated from an entry in the Cambridge
# Structural Database, then it will include bibliographic, chemical,
# crystal, experimental, refinement or atomic coordinate data resulting
# from the CCDC's data processing and validation procedures.
#
#######################################################################

data_CSD_CIF_XOZJIG
_audit_creation_date 2009-09-22
_audit_creation_method CSD-ConQuest-V1
_database_code_CSD XOZJIG
_database_code_depnum_ccdc_archive 'CCDC 744502'
_chemical_formula_sum 'C14 H12 N2 O4'
_chemical_formula_moiety
;
C14 H12 N2 O4
;
_journal_coeditor_code "IUCr JH2095"
_journal_coden_Cambridge 1370
_journal_volume 65
_journal_year 2009
_journal_page_first o2018
_journal_name_full 'Acta Crystallogr.,Sect.E:Struct.Rep.Online '
loop_
_publ_author_name
"E.Golovnia"
"E.V.Prisyazhnaya"
"T.S.Iskenderov"
"M.Haukka"
"I.O.Fritsky"
_chemical_name_systematic
;
2,2'-Dihydroxy-1,1'-biphenyl-3,3'-dicarbaldehyde dioxime
;
_chemical_name_common
;
3,3'-Bis((hydroxyimino)methyl)-2,2'-biphenyldiol
;
_cell_volume   1222.229
_exptl_crystal_colour 'pale yellow'
_exptl_crystal_density_diffrn 1.48
_exptl_crystal_description 'block'
_exptl_crystal_preparation 'water/ethanol'
_diffrn_ambient_temperature 120
#These two values have been output from a single CSD field.
_refine_ls_R_factor_gt 0.0558
_refine_ls_wR_factor_gt 0.0558
_symmetry_cell_setting monoclinic
_symmetry_space_group_name_H-M 'C 2/c'
_symmetry_Int_Tables_number 15
loop_
_symmetry_equiv_pos_site_id
_symmetry_equiv_pos_as_xyz
1 x,y,z
2 -x,y,1/2-z
3 1/2+x,1/2+y,z
4 1/2-x,1/2+y,1/2-z
5 -x,-y,-z
6 x,-y,-1/2+z
7 -1/2-x,-1/2-y,-z
8 -1/2+x,-1/2-y,-1/2+z
_cell_length_a 24.2780(14)
_cell_length_b 3.9279(4)
_cell_length_c 16.6466(12)
_cell_angle_alpha 90
_cell_angle_beta 129.652(6)
_cell_angle_gamma 90
_cell_formula_units_Z 4
loop_
_atom_type_symbol
_atom_type_radius_bond
C 0.68
H 0.23
N 0.68
O 0.68
loop_
_atom_site_label
_atom_site_type_symbol
_atom_site_fract_x
_atom_site_fract_y
_atom_site_fract_z
O1 O 0.50535(8) 0.1656(4) 0.11701(11)
O2 O 0.64023(9) -0.1055(4) 0.07166(13)
N1 N 0.60748(10) 0.0232(5) 0.11062(14)
C1 C 0.55751(12) 0.2918(5) 0.21487(16)
C2 C 0.53803(11) 0.4208(6) 0.27199(16)
C3 C 0.59205(12) 0.5499(6) 0.37151(16)
H1 H 0.57950 0.64390 0.41050
C4 C 0.66275(12) 0.5455(6) 0.41490(17)
H2 H 0.69830 0.63290 0.48320
C5 C 0.68185(12) 0.4140(6) 0.35911(16)
H3 H 0.73080 0.41020 0.38930
C6 C 0.62978(11) 0.2855(6) 0.25813(16)
C7 C 0.65242(12) 0.1435(6) 0.20269(17)
H4 H 0.70190 0.14020 0.23580
H5 H 0.5270(14) 0.081(7) 0.0923(19)
H6 H 0.5979(18) -0.165(8) -0.002(3)
O1A O 0.49465(8) 0.1656(4) 0.38299(11)
O2A O 0.35977(9) -0.1055(4) 0.42834(13)
N1A N 0.39252(10) 0.0232(5) 0.38938(14)
C1A C 0.44249(12) 0.2918(5) 0.28513(16)
C2A C 0.46197(11) 0.4208(6) 0.22801(16)
C3A C 0.40795(12) 0.5499(6) 0.12849(16)
H1A H 0.42050 0.64390 0.08950
C4A C 0.33725(12) 0.5455(6) 0.08510(17)
H2A H 0.30170 0.63290 0.01680
C5A C 0.31815(12) 0.4140(6) 0.14089(16)
H3A H 0.26920 0.41020 0.11070
C6A C 0.37022(11) 0.2855(6) 0.24187(16)
C7A C 0.34758(12) 0.1435(6) 0.29731(17)
H4A H 0.29810 0.14020 0.26420
H5A H 0.4730(14) 0.081(7) 0.4077(19)
H6A H 0.4021(18) -0.165(8) 0.502(3)
#END
