
#######################################################################
#
#                 Cambridge Crystallographic Data Centre
#                                CCDC
#
#######################################################################
#
# If this CIF has been generated from an entry in the Cambridge
# Structural Database, then it will include bibliographic, chemical,
# crystal, experimental, refinement or atomic coordinate data resulting
# from the CCDC's data processing and validation procedures.
#
#######################################################################

data_CSD_CIF_XOZZAP01
_audit_creation_date 2015-04-02
_audit_creation_method CSD-ConQuest-V1
_database_code_CSD XOZZAP01
_database_code_depnum_ccdc_archive 'CCDC 1057516'
_chemical_formula_sum 'C13 H11 N3 O3'
_chemical_formula_moiety
;
C13 H11 N3 O3
;
_journal_coden_Cambridge 1078
_journal_year 2015
_journal_name_full 'CSD Communication(Private Communication) '
loop_
_publ_author_name
"Y.Durust"
"F.R.Fronczek"
_chemical_name_systematic
;
N-((4-nitrobenzyl)oxy)-1-(pyridin-2-yl)methanimine
;
_chemical_melting_point 352.5
_cell_volume   1240.617
_exptl_crystal_colour 'yellow'
_exptl_crystal_density_diffrn 1.377
_exptl_special_details
;
Melting point range 352.5-353.5K
contribution from Department of Chemistry, Louisiana State University, Baton 
Rouge, LA 70803, USA
;
_exptl_crystal_description 'lath'
_diffrn_ambient_temperature 110
#These two values have been output from a single CSD field.
_refine_ls_R_factor_gt 0.0535
_refine_ls_wR_factor_gt 0.0535
_symmetry_cell_setting orthorhombic
_symmetry_space_group_name_H-M 'P 21 21 21'
_symmetry_Int_Tables_number 19
loop_
_symmetry_equiv_pos_site_id
_symmetry_equiv_pos_as_xyz
1 x,y,z
2 1/2-x,-y,1/2+z
3 1/2+x,1/2-y,-z
4 -x,1/2+y,1/2-z
_cell_length_a 4.4206(10)
_cell_length_b 10.362(3)
_cell_length_c 27.084(9)
_cell_angle_alpha 90
_cell_angle_beta 90
_cell_angle_gamma 90
_cell_formula_units_Z 4
loop_
_atom_type_symbol
_atom_type_radius_bond
C 0.68
H 0.23
N 0.68
O 0.68
loop_
_atom_site_label
_atom_site_type_symbol
_atom_site_fract_x
_atom_site_fract_y
_atom_site_fract_z
O1 O 0.2401(6) 0.4311(2) 0.70282(8)
O2 O 0.8491(10) 0.3923(2) 0.4674(1)
O3 O 0.9464(9) 0.5928(2) 0.47183(10)
N1 N 0.4630(6) 0.4990(3) 0.72839(9)
N2 N 0.8317(8) 0.4960(3) 0.48829(9)
N3 N 0.8829(7) 0.3931(3) 0.83332(9)
C1 C 1.0760(8) 0.4395(3) 0.86713(11)
H1 H 1.13940 0.38310 0.89280
C2 C 1.1891(9) 0.5638(3) 0.86720(12)
H2 H 1.32550 0.59190 0.89210
C3 C 1.0974(9) 0.6457(3) 0.82992(12)
H3 H 1.17200 0.73160 0.82850
C4 C 0.8967(8) 0.6020(3) 0.79477(11)
H4 H 0.83010 0.65740 0.76900
C5 C 0.7930(7) 0.4750(3) 0.79761(10)
C6 C 0.5717(8) 0.4217(3) 0.76349(10)
H5 H 0.50670 0.33450 0.76620
C7 C 0.1266(8) 0.5187(3) 0.66499(11)
H6 H 0.12320 0.60780 0.67820
H7 H -0.08340 0.49450 0.65630
C8 C 0.3202(7) 0.5151(3) 0.61915(10)
C9 C 0.3826(9) 0.3973(3) 0.59686(11)
H8 H 0.30800 0.32010 0.61140
C10 C 0.5496(9) 0.3903(3) 0.55440(12)
H9 H 0.59100 0.30950 0.53930
C11 C 0.6563(8) 0.5034(3) 0.5341(1)
C12 C 0.6041(9) 0.6221(3) 0.55509(12)
H10 H 0.68320 0.69850 0.54060
C13 C 0.4328(9) 0.6274(3) 0.59797(11)
H11 H 0.39210 0.70840 0.61300
#END
