
#######################################################################
#
#                 Cambridge Crystallographic Data Centre
#                                CCDC
#
#######################################################################
#
# If this CIF has been generated from an entry in the Cambridge
# Structural Database, then it will include bibliographic, chemical,
# crystal, experimental, refinement or atomic coordinate data resulting
# from the CCDC's data processing and validation procedures.
#
#######################################################################

data_CSD_CIF_XUBCUS
_audit_creation_date 2002-11-19
_audit_creation_method CSD-ConQuest-V1
_database_code_CSD XUBCUS
_database_code_depnum_ccdc_archive 'CCDC 183744 (not 182398 as published)'
_chemical_formula_sum 'C10 H18 N2 O2'
_chemical_formula_moiety
;
C10 H18 N2 O2
;
_journal_coden_Cambridge 16
_journal_volume 58
_journal_year 2002
_journal_page_first 7715
_journal_name_full 'Tetrahedron '
loop_
_publ_author_name
"M.Blackwell"
"P.J.Dunn"
"A.B.Graham"
"R.Grigg"
"P.Higginson"
"I.S.Saba"
"M.Thornton-Pett"
_chemical_name_systematic
;
7-exo-t-Butyl-8-oxa-1-azabicyclo[3.2.1]octan-4-one oxime
;
_chemical_melting_point 404.15
_cell_volume   2142.528
_exptl_crystal_colour 'colorless'
_exptl_crystal_density_diffrn 1.229
_exptl_special_details
;
Melting point range 404.15-406.15K
data is for compound 5 in the paper, not 4e as stated
;
_exptl_crystal_description 'prism'
_exptl_crystal_preparation 'petroleum ether'
_diffrn_ambient_temperature 150
#These two values have been output from a single CSD field.
_refine_ls_R_factor_gt 0.0431
_refine_ls_wR_factor_gt 0.0431
_symmetry_cell_setting monoclinic
_symmetry_space_group_name_H-M 'C 2/c'
_symmetry_Int_Tables_number 15
loop_
_symmetry_equiv_pos_site_id
_symmetry_equiv_pos_as_xyz
1 x,y,z
2 1/2+x,1/2+y,z
3 x,-y,1/2+z
4 1/2+x,1/2-y,1/2+z
5 -x,-y,-z
6 -1/2-x,-1/2-y,-z
7 -x,y,-1/2-z
8 -1/2-x,-1/2+y,-1/2-z
_cell_length_a 34.309(3)
_cell_length_b 5.8733(5)
_cell_length_c 10.7105(5)
_cell_angle_alpha 90
_cell_angle_beta 96.918(4)
_cell_angle_gamma 90
_cell_formula_units_Z 8
loop_
_atom_type_symbol
_atom_type_radius_bond
C 0.68
H 0.23
N 0.68
O 0.68
loop_
_atom_site_label
_atom_site_type_symbol
_atom_site_fract_x
_atom_site_fract_y
_atom_site_fract_z
N1 N 0.14301(3) 0.1905(2) 0.06207(11)
O1 O 0.15879(3) 0.0077(2) 0.14521(10)
C1 C 0.17622(4) 0.3452(4) 0.05314(14)
H1 H 0.16700 0.47370 -0.00250
H2 H 0.19650 0.26260 0.01250
C2 C 0.19556(5) 0.4429(3) 0.17870(15)
H3 H 0.22290 0.48780 0.17000
H4 H 0.18110 0.58090 0.19990
C3 C 0.19561(4) 0.2732(3) 0.28238(13)
N2 N 0.22014(3) 0.2624(2) 0.38196(11)
O2 O 0.24891(3) 0.4343(2) 0.38524(11)
H5 H 0.26590 0.41350 0.44740
C4 C 0.16212(4) 0.1087(3) 0.26939(13)
H6 H 0.16570 -0.01080 0.33630
C5 C 0.12275(4) 0.2282(3) 0.26877(13)
H7 H 0.12520 0.36560 0.32270
H8 H 0.10290 0.12510 0.29820
C6 C 0.11178(4) 0.2922(3) 0.12908(12)
H9 H 0.11300 0.46160 0.12110
C7 C 0.07066(4) 0.2114(3) 0.07045(13)
C8 C 0.06781(5) -0.0459(3) 0.06829(15)
H10 H 0.04210 -0.09160 0.02590
H11 H 0.07100 -0.10400 0.15470
H12 H 0.08850 -0.10860 0.02280
C9 C 0.06326(5) 0.3028(3) -0.06436(14)
H13 H 0.03780 0.24740 -0.10440
H14 H 0.08410 0.24990 -0.11220
H15 H 0.06310 0.46970 -0.06260
C10 C 0.03961(4) 0.3130(4) 0.14628(16)
H16 H 0.04320 0.47830 0.15280
H17 H 0.04250 0.24620 0.23070
H18 H 0.01330 0.27930 0.10370
#END
