
#######################################################################
#
#                 Cambridge Crystallographic Data Centre
#                                CCDC
#
#######################################################################
#
# If this CIF has been generated from an entry in the Cambridge
# Structural Database, then it will include bibliographic, chemical,
# crystal, experimental, refinement or atomic coordinate data resulting
# from the CCDC's data processing and validation procedures.
#
#######################################################################

data_CSD_CIF_XUBDON
_audit_creation_date 2002-11-19
_audit_creation_method CSD-ConQuest-V1
_database_code_CSD XUBDON
_database_code_depnum_ccdc_archive 'CCDC 184184'
_chemical_formula_sum 'C19 H17 N3 O1'
_chemical_formula_moiety
;
C19 H17 N3 O1
;
_journal_coden_Cambridge 16
_journal_volume 58
_journal_year 2002
_journal_page_first 7635
_journal_name_full 'Tetrahedron '
loop_
_publ_author_name
"J.Eskildsen"
"N.Ostergaard"
"P.Vedso"
"M.Begtrup"
_chemical_name_systematic
;
2-Benzyl-3-ethylpyrazolo[3,4-c]quinoline 1-oxide
;
_chemical_melting_point 433.15
_cell_volume    750.536
_exptl_crystal_colour 'colorless'
_exptl_crystal_density_diffrn 1.342
_exptl_special_details
;
Melting point range 433.15-434.15K

;
_diffrn_ambient_temperature 180
#These two values have been output from a single CSD field.
_refine_ls_R_factor_gt 0.0788
_refine_ls_wR_factor_gt 0.0788
_symmetry_cell_setting triclinic
_symmetry_space_group_name_H-M 'P -1'
_symmetry_Int_Tables_number 2
loop_
_symmetry_equiv_pos_site_id
_symmetry_equiv_pos_as_xyz
1 x,y,z
2 -x,-y,-z
_cell_length_a 9.1214(3)
_cell_length_b 9.4197(2)
_cell_length_c 9.6335(3)
_cell_angle_alpha 66.058(2)
_cell_angle_beta 84.008(2)
_cell_angle_gamma 83.931(2)
_cell_formula_units_Z 2
loop_
_atom_type_symbol
_atom_type_radius_bond
C 0.68
H 0.23
N 0.68
O 0.68
loop_
_atom_site_label
_atom_site_type_symbol
_atom_site_fract_x
_atom_site_fract_y
_atom_site_fract_z
N1 N -0.3489(3) 0.1755(3) 0.3744(3)
N2 N -0.2393(3) 0.2794(3) 0.3153(3)
C1 C -0.1358(3) 0.2376(3) 0.4217(3)
C2 C -0.0014(3) 0.3031(3) 0.4210(3)
N3 N 0.0808(3) 0.2370(3) 0.5379(3)
C3 C 0.0386(3) 0.1051(3) 0.6613(3)
C4 C 0.1335(4) 0.0376(4) 0.7817(4)
H1 H 0.22370 0.08240 0.77570
C5 C 0.0958(4) -0.0929(4) 0.9077(4)
H2 H 0.16010 -0.13690 0.98840
C6 C -0.0362(4) -0.1616(4) 0.9185(4)
H3 H -0.06100 -0.25140 1.00640
C7 C -0.1823(3) 0.1051(3) 0.5456(3)
C8 C -0.0933(3) 0.0343(3) 0.6718(3)
C9 C -0.1300(4) -0.0992(4) 0.8022(4)
H4 H -0.21940 -0.14600 0.80960
C10 C -0.3163(3) 0.0695(4) 0.5114(3)
H5 H -0.37340 -0.01500 0.57460
O1 O -0.4598(3) 0.1906(3) 0.2965(3)
C11 C -0.2598(4) 0.4073(4) 0.1682(3)
H6 H -0.30580 0.36880 0.10270
H7 H -0.16170 0.44230 0.11910
C12 C -0.3545(3) 0.5451(3) 0.1774(3)
C13 C -0.4216(3) 0.6497(4) 0.0481(4)
H8 H -0.40950 0.63170 -0.04270
C14 C -0.5059(4) 0.7798(4) 0.0507(4)
H9 H -0.55080 0.85110 -0.03840
C15 C -0.5248(4) 0.8063(4) 0.1837(4)
H10 H -0.58340 0.89500 0.18600
C16 C -0.4580(4) 0.7027(4) 0.3127(4)
H11 H -0.47020 0.72070 0.40350
C17 C -0.3736(4) 0.5732(4) 0.3095(4)
H12 H -0.32810 0.50260 0.39850
C18 C 0.0505(4) 0.4471(4) 0.2892(4)
H13 H -0.02660 0.53330 0.27430
H14 H 0.06130 0.42650 0.19560
C19 C 0.1956(5) 0.4997(5) 0.3091(4)
H15 H 0.22250 0.59160 0.21840
H16 H 0.27320 0.41560 0.32330
H17 H 0.18490 0.52570 0.39850
#END
