
#######################################################################
#
#                 Cambridge Crystallographic Data Centre
#                                CCDC
#
#######################################################################
#
# If this CIF has been generated from an entry in the Cambridge
# Structural Database, then it will include bibliographic, chemical,
# crystal, experimental, refinement or atomic coordinate data resulting
# from the CCDC's data processing and validation procedures.
#
#######################################################################

data_CSD_CIF_XUBGUX
_audit_creation_date 2010-03-10
_audit_creation_method CSD-ConQuest-V1
_database_code_CSD XUBGUX
_database_code_depnum_ccdc_archive 'CCDC 713484'
_chemical_formula_sum 'C24 H26 N2 O6'
_chemical_formula_moiety
;
C24 H26 N2 O6
;
_journal_coden_Cambridge 4
_journal_volume 131
_journal_year 2009
_journal_page_first 6318
_journal_name_full 'J.Am.Chem.Soc. '
loop_
_publ_author_name
"Hongchao Guo"
"Qihai Xu"
"Ohyun Kwon"
_chemical_name_systematic
;
trans-diethyl 
2-(4-nitrobenzyl)-5-phenyl-1,4,5,6-tetrahydropyridine-3,4-dicarboxylate
;
_cell_volume   2188.396
_exptl_crystal_colour 'yellow'
_exptl_crystal_density_diffrn 1.331
_exptl_crystal_description 'rod'
_diffrn_ambient_temperature 100
#These two values have been output from a single CSD field.
_refine_ls_R_factor_gt 0.0467
_refine_ls_wR_factor_gt 0.0467
_symmetry_cell_setting monoclinic
_symmetry_space_group_name_H-M 'P 21/c'
_symmetry_Int_Tables_number 14
loop_
_symmetry_equiv_pos_site_id
_symmetry_equiv_pos_as_xyz
1 x,y,z
2 -x,1/2+y,1/2-z
3 -x,-y,-z
4 x,-1/2-y,-1/2+z
_cell_length_a 13.702(3)
_cell_length_b 9.152(2)
_cell_length_c 17.958(5)
_cell_angle_alpha 90
_cell_angle_beta 103.644(2)
_cell_angle_gamma 90
_cell_formula_units_Z 4
loop_
_atom_type_symbol
_atom_type_radius_bond
C 0.68
H 0.23
N 0.68
O 0.68
loop_
_atom_site_label
_atom_site_type_symbol
_atom_site_fract_x
_atom_site_fract_y
_atom_site_fract_z
O1 O -0.24410(9) 0.34643(14) -0.07232(7)
O2 O -0.09939(9) 0.23933(12) -0.04813(6)
O3 O 0.00649(7) 0.51331(11) 0.37147(6)
O4 O 0.16604(7) 0.50334(11) 0.44014(5)
O5 O 0.26880(8) 0.38756(12) 0.31305(6)
O6 O 0.38188(8) 0.48411(12) 0.41227(7)
N1 N -0.15847(9) 0.32880(13) -0.03298(7)
N2 N 0.12385(9) 0.79736(14) 0.22252(7)
H1 H 0.08680 0.83120 0.17910
C1 C 0.00393(10) 0.49122(15) 0.14388(8)
H2 H 0.07030 0.48120 0.17450
C2 C -0.02792(10) 0.40302(15) 0.07972(8)
H3 H 0.01570 0.33200 0.06660
C3 C -0.12449(10) 0.42074(15) 0.03536(8)
C4 C -0.19036(11) 0.52265(16) 0.05314(8)
H4 H -0.25630 0.53330 0.02170
C5 C -0.15778(10) 0.60866(16) 0.11786(8)
H5 H -0.20220 0.67830 0.13110
C6 C -0.06049(10) 0.59442(15) 0.16389(7)
C7 C -0.02987(10) 0.69016(16) 0.23448(8)
H6 H -0.05890 0.78870 0.22220
H7 H -0.05870 0.64890 0.27560
C8 C 0.0824(1) 0.70450(16) 0.26419(8)
C9 C 0.22789(11) 0.84367(17) 0.24683(8)
H8 H 0.23370 0.92260 0.28530
H9 H 0.25050 0.88280 0.20230
C10 C 0.29442(10) 0.71604(16) 0.28126(8)
H10 H 0.29250 0.64230 0.23980
C11 C 0.25373(10) 0.64183(15) 0.34570(8)
H11 H 0.27710 0.69760 0.39460
C12 C 0.13969(10) 0.63092(15) 0.32626(7)
C13 C 0.09502(10) 0.54583(15) 0.37786(7)
C14 C 0.13062(10) 0.41735(17) 0.49663(8)
H12 H 0.09810 0.32640 0.47320
H13 H 0.08120 0.47380 0.51720
C15 C 0.22130(11) 0.3822(2) 0.55939(9)
H14 H 0.26980 0.32750 0.53800
H15 H 0.20100 0.32310 0.59870
H16 H 0.25220 0.47320 0.58240
C16 C 0.30009(10) 0.48959(16) 0.35479(8)
C17 C 0.43928(13) 0.3480(2) 0.42451(14)
H17 H 0.40340 0.27130 0.38970
H18 H 0.44680 0.31430 0.47800
C18 C 0.53964(14) 0.3738(2) 0.40928(12)
H19 H 0.53180 0.40270 0.35560
H20 H 0.57950 0.28390 0.41930
H21 H 0.57390 0.45180 0.44280
C19 C 0.40237(11) 0.76773(16) 0.30918(8)
C20 C 0.47706(12) 0.71301(19) 0.27654(9)
H22 H 0.46120 0.63880 0.23860
C21 C 0.57505(12) 0.7656(2) 0.29873(10)
H23 H 0.62540 0.72700 0.27590
C22 C 0.59926(12) 0.87292(19) 0.35345(10)
H24 H 0.66590 0.90990 0.36760
C23 C 0.52631(13) 0.92720(19) 0.38805(10)
H25 H 0.54300 0.99990 0.42670
C24 C 0.42848(12) 0.87447(17) 0.36582(9)
H26 H 0.37870 0.91180 0.38960
#END
