
#######################################################################
#
#                 Cambridge Crystallographic Data Centre
#                                CCDC
#
#######################################################################
#
# If this CIF has been generated from an entry in the Cambridge
# Structural Database, then it will include bibliographic, chemical,
# crystal, experimental, refinement or atomic coordinate data resulting
# from the CCDC's data processing and validation procedures.
#
#######################################################################

data_CSD_CIF_XUBHAE
_audit_creation_date 2010-03-10
_audit_creation_method CSD-ConQuest-V1
_database_code_CSD XUBHAE
_database_code_depnum_ccdc_archive 'CCDC 713485'
_chemical_formula_sum 'C19 H24 N2 O6'
_chemical_formula_moiety
;
C19 H24 N2 O6
;
_journal_coden_Cambridge 4
_journal_volume 131
_journal_year 2009
_journal_page_first 6318
_journal_name_full 'J.Am.Chem.Soc. '
loop_
_publ_author_name
"Hongchao Guo"
"Qihai Xu"
"Ohyun Kwon"
_chemical_name_systematic
;
cis-diethyl 
2-(4-nitrobenzyl)-6-methyl-1,4,5,6-tetrahydropyridine-3,4-dicarboxylate
;
_cell_volume   1904.419
_exptl_crystal_colour 'yellow'
_exptl_crystal_density_diffrn 1.32
_exptl_special_details
;
Two H atoms appear to have been incorrectly placed on the nitro O atoms and 
they have suppressed in the 3D structure
;
_exptl_crystal_description 'platelet'
_diffrn_ambient_temperature 100
#These two values have been output from a single CSD field.
_refine_ls_R_factor_gt 0.0611
_refine_ls_wR_factor_gt 0.0611
_symmetry_cell_setting monoclinic
_symmetry_space_group_name_H-M 'P 21/c'
_symmetry_Int_Tables_number 14
loop_
_symmetry_equiv_pos_site_id
_symmetry_equiv_pos_as_xyz
1 x,y,z
2 -x,1/2+y,1/2-z
3 -x,-y,-z
4 x,-1/2-y,-1/2+z
_cell_length_a 11.1150(15)
_cell_length_b 10.6621(15)
_cell_length_c 16.808(2)
_cell_angle_alpha 90
_cell_angle_beta 107.044(2)
_cell_angle_gamma 90
_cell_formula_units_Z 4
loop_
_atom_type_symbol
_atom_type_radius_bond
C 0.68
H 0.23
N 0.68
O 0.68
loop_
_atom_site_label
_atom_site_type_symbol
_atom_site_fract_x
_atom_site_fract_y
_atom_site_fract_z
O1 O 0.01446(18) 0.51329(18) 0.14881(12)
O2 O 0.20685(17) 0.50994(18) 0.13094(12)
O3 O 0.4951(2) 0.5425(2) 0.24264(15)
O4 O 0.35812(19) 0.46564(18) 0.30639(12)
O5 O -0.0909(2) 0.2480(2) 0.49317(13)
H1? H -0.11450 0.18240 0.46520
O6 O -0.2664(2) 0.3453(2) 0.47762(15)
H2? H -0.30770 0.27850 0.46540
N1 N -0.1645(3) 0.3329(3) 0.46457(16)
C1 C -0.1273(3) 0.4270(3) 0.41277(17)
C2 C -0.0105(3) 0.4198(3) 0.40055(17)
H3 H 0.04650 0.35490 0.42600
C3 C 0.0229(3) 0.5085(3) 0.35057(17)
H4 H 0.10350 0.50450 0.34200
C4 C -0.0604(3) 0.6037(2) 0.31271(17)
C5 C -0.1771(3) 0.6080(3) 0.32711(18)
H5 H -0.23470 0.67240 0.30170
C6 C -0.2117(3) 0.5216(3) 0.37716(18)
H6 H -0.29150 0.52650 0.38710
C7 C -0.0307(3) 0.7008(3) 0.25504(18)
H7 H -0.07190 0.67510 0.19680
H8 H -0.06800 0.78190 0.26410
C8 C 0.1073(3) 0.7204(3) 0.26595(17)
C9 C 0.1791(3) 0.6476(3) 0.22980(17)
C10 C 0.3196(3) 0.6698(3) 0.25040(18)
H9 H 0.33590 0.71980 0.20430
C11 C 0.3676(3) 0.7455(3) 0.33195(19)
H10 H 0.36660 0.69160 0.37970
H11 H 0.45550 0.77220 0.33940
C12 C 0.2861(3) 0.8597(3) 0.33028(19)
H12 H 0.28970 0.91430 0.28260
N2 N 0.1571(2) 0.8174(2) 0.31633(15)
H13 H 0.10950 0.85680 0.34190
C13 C 0.3999(3) 0.5529(3) 0.26304(18)
C14 C 0.4378(3) 0.3544(3) 0.3289(2)
H14 H 0.52740 0.37900 0.35050
H15 H 0.42750 0.29980 0.27970
C15 C 0.3978(4) 0.2882(4) 0.3934(3)
H16 H 0.41350 0.34130 0.44300
H17 H 0.44540 0.20990 0.40780
H18 H 0.30770 0.26920 0.37250
C16 C 0.1221(3) 0.5531(3) 0.16792(17)
C17 C 0.1636(3) 0.4168(3) 0.06580(19)
H19 H 0.11960 0.45790 0.01240
H20 H 0.10470 0.35760 0.08030
C18 C 0.2784(3) 0.3482(3) 0.0586(2)
H21 H 0.33770 0.40840 0.04700
H22 H 0.25340 0.28710 0.01310
H23 H 0.31860 0.30440 0.11090
C19 C 0.3270(3) 0.9358(3) 0.4092(2)
H24 H 0.27130 1.00850 0.40450
H25 H 0.41360 0.96470 0.41820
H26 H 0.32260 0.88380 0.45640
#END
