
#######################################################################
#
#                 Cambridge Crystallographic Data Centre
#                                CCDC
#
#######################################################################
#
# If this CIF has been generated from an entry in the Cambridge
# Structural Database, then it will include bibliographic, chemical,
# crystal, experimental, refinement or atomic coordinate data resulting
# from the CCDC's data processing and validation procedures.
#
#######################################################################

data_CSD_CIF_XUBMEM
_audit_creation_date 2002-11-19
_audit_creation_method CSD-ConQuest-V1
_database_code_CSD XUBMEM
_database_code_depnum_ccdc_archive 'CCDC 167478'
_chemical_formula_sum 'C19 H23 N1 O8'
_chemical_formula_moiety
;
C19 H23 N1 O8
;
_journal_coden_Cambridge 504
_journal_volume 57
_journal_year 2002
_journal_page_first 159
_journal_name_full 'Pharmazie '
loop_
_publ_author_name
"K.Gorlitzer"
"J.Fabian"
"P.G.Jones"
"P.Frohberg"
"G.Drutkowski"
_chemical_name_systematic
;
4-t-Butyl-2-ethyl 
(2RS,3RS)-2-hydroxy-5-methyl-3-(2-nitrophenyl)-2,3-dihydro-2,4-furan-dicarboxy
late
;
_chemical_melting_point 411.15
_cell_volume   1980.789
_exptl_crystal_colour 'colorless'
_exptl_crystal_density_diffrn 1.319
_exptl_crystal_description 'tablet'
_diffrn_ambient_temperature 143
#These two values have been output from a single CSD field.
_refine_ls_R_factor_gt 0.0373
_refine_ls_wR_factor_gt 0.0373
_symmetry_cell_setting monoclinic
_symmetry_space_group_name_H-M 'P 21/c'
_symmetry_Int_Tables_number 14
loop_
_symmetry_equiv_pos_site_id
_symmetry_equiv_pos_as_xyz
1 x,y,z
2 x,1/2-y,1/2+z
3 -x,-y,-z
4 -x,-1/2+y,-1/2-z
_cell_length_a 9.4778(16)
_cell_length_b 23.822(4)
_cell_length_c 9.2679(14)
_cell_angle_alpha 90
_cell_angle_beta 108.807(4)
_cell_angle_gamma 90
_cell_formula_units_Z 4
loop_
_atom_type_symbol
_atom_type_radius_bond
C 0.68
H 0.23
N 0.68
O 0.68
loop_
_atom_site_label
_atom_site_type_symbol
_atom_site_fract_x
_atom_site_fract_y
_atom_site_fract_z
O1 O 0.65326(8) 0.07166(3) 0.43161(8)
O2 O 0.82150(9) 0.01535(3) 0.60885(9)
H1 H 0.86920 0.00050 0.55650
O3 O 0.89745(8) 0.14902(3) 0.48121(9)
O4 O 1.00543(9) 0.06500(3) 0.48293(9)
O5 O 0.58532(8) 0.17286(3) 0.81713(8)
O6 O 0.36358(10) 0.15231(5) 0.64065(10)
O7 O 1.11233(10) 0.13997(4) 1.07057(10)
O8 O 1.05857(9) 0.11976(4) 0.83037(9)
N1 N 1.03648(10) 0.11581(4) 0.95379(11)
C1 C 0.78906(11) 0.07007(4) 0.56401(11)
C2 C 0.75283(11) 0.10526(4) 0.69040(11)
H2 H 0.81090 0.14110 0.70820
C3 C 0.58948(11) 0.11753(4) 0.61525(11)
C4 C 0.54270(11) 0.09725(4) 0.47269(12)
C5 C 0.91105(11) 0.09439(4) 0.50611(11)
C6 C 1.01084(13) 0.17429(5) 0.42393(14)
H3 H 0.99590 0.16170 0.31820
H4 H 1.11180 0.16280 0.48850
C7 C 0.99473(16) 0.23662(5) 0.42847(18)
H5 H 0.89370 0.24740 0.36620
H6 H 1.06730 0.25460 0.38830
H7 H 1.01270 0.24870 0.53400
C8 C 0.39425(12) 0.09708(5) 0.35370(12)
H8 H 0.34590 0.06070 0.35390
H9 H 0.40600 0.10340 0.25370
H10 H 0.33260 0.12700 0.37480
C9 C 0.49752(12) 0.14853(5) 0.68861(12)
C10 C 0.52119(13) 0.19838(5) 0.92768(13)
C11 C 0.44009(18) 0.15368(6) 0.98455(17)
H11 H 0.35560 0.13990 0.89970
H12 H 0.40350 0.16950 1.06350
H13 H 0.50830 0.12250 1.02750
C12 C 0.65788(16) 0.21792(8) 1.05301(18)
H14 H 0.72430 0.18590 1.09180
H15 H 0.62810 0.23420 1.13590
H16 H 0.71010 0.24630 1.01270
C13 C 0.4218(2) 0.24764(7) 0.85748(19)
H17 H 0.47740 0.27430 0.81600
H18 H 0.38930 0.26620 0.93560
H19 H 0.33450 0.23420 0.77540
C14 C 0.78547(11) 0.07314(4) 0.83960(11)
C15 C 0.91507(12) 0.07946(4) 0.96419(12)
C16 C 0.93927(13) 0.05198(5) 1.10266(12)
H20 H 1.02800 0.05850 1.18530
C17 C 0.83276(14) 0.01518(5) 1.11826(13)
H21 H 0.84780 -0.00440 1.21140
C18 C 0.70331(14) 0.00702(5) 0.99619(13)
H22 H 0.63000 -0.01860 1.00570
C19 C 0.67985(12) 0.03597(5) 0.86034(12)
H23 H 0.58940 0.03030 0.77930
#END
