
#######################################################################
#
#                 Cambridge Crystallographic Data Centre
#                                CCDC
#
#######################################################################
#
# If this CIF has been generated from an entry in the Cambridge
# Structural Database, then it will include bibliographic, chemical,
# crystal, experimental, refinement or atomic coordinate data resulting
# from the CCDC's data processing and validation procedures.
#
#######################################################################

data_CSD_CIF_XUBMIQ
_audit_creation_date 2002-11-19
_audit_creation_method CSD-ConQuest-V1
_database_code_CSD XUBMIQ
_database_code_depnum_ccdc_archive 'CCDC 167479'
_chemical_formula_sum 'C14 H15 N1 O6'
_chemical_formula_moiety
;
C14 H15 N1 O6
;
_journal_coden_Cambridge 504
_journal_volume 57
_journal_year 2002
_journal_page_first 159
_journal_name_full 'Pharmazie '
loop_
_publ_author_name
"K.Gorlitzer"
"J.Fabian"
"P.G.Jones"
"P.Frohberg"
"G.Drutkowski"
_chemical_name_systematic
;
Ethyl 
(2RS,3RS)-2-hydroxy-5-methyl-3-(2-nitrophenyl)-2,3-dihydro-4-furancarboxylate
;
_chemical_melting_point 362.15
_cell_volume    705.395
_exptl_crystal_colour 'colorless'
_exptl_crystal_density_diffrn 1.381
_exptl_crystal_description 'lath'
_diffrn_ambient_temperature 143
#These two values have been output from a single CSD field.
_refine_ls_R_factor_gt 0.0401
_refine_ls_wR_factor_gt 0.0401
_symmetry_cell_setting triclinic
_symmetry_space_group_name_H-M 'P -1'
_symmetry_Int_Tables_number 2
loop_
_symmetry_equiv_pos_site_id
_symmetry_equiv_pos_as_xyz
1 x,y,z
2 -x,-y,-z
_cell_length_a 7.8419(14)
_cell_length_b 8.4750(14)
_cell_length_c 11.575(2)
_cell_angle_alpha 70.941(5)
_cell_angle_beta 88.601(5)
_cell_angle_gamma 76.346(5)
_cell_formula_units_Z 2
loop_
_atom_type_symbol
_atom_type_radius_bond
C 0.68
H 0.23
N 0.68
O 0.68
loop_
_atom_site_label
_atom_site_type_symbol
_atom_site_fract_x
_atom_site_fract_y
_atom_site_fract_z
O1 O 0.07224(15) 0.89691(15) 0.40581(10)
C1 C 0.1443(2) 0.7316(2) 0.47484(15)
C2 C 0.1580(2) 0.6202(2) 0.41261(14)
C3 C 0.0913(2) 0.7185(2) 0.28062(14)
H1 H 0.00160 0.66690 0.25640
C4 C 0.0024(2) 0.8978(2) 0.28833(16)
H2 H 0.04040 0.98780 0.21980
C5 C 0.1953(2) 0.7067(2) 0.60364(16)
H3 H 0.09430 0.69220 0.65420
H4 H 0.23310 0.80750 0.60700
H5 H 0.29210 0.60400 0.63470
C6 C 0.2301(2) 0.4366(2) 0.46145(15)
C7 C 0.3204(2) 0.1829(2) 0.40562(16)
H6 H 0.23920 0.11330 0.44990
H7 H 0.42780 0.15350 0.45910
C8 C 0.3661(3) 0.1479(3) 0.28872(17)
H8 H 0.25860 0.17640 0.23710
H9 H 0.42400 0.02580 0.30690
H10 H 0.44560 0.21830 0.24550
C9 C 0.2379(2) 0.7258(2) 0.19128(15)
C10 C 0.2171(2) 0.7393(2) 0.06885(15)
C11 C 0.3528(2) 0.7447(3) -0.00959(17)
H11 H 0.33310 0.75140 -0.09190
C12 C 0.5175(2) 0.7403(3) 0.03296(17)
H12 H 0.61190 0.74570 -0.02010
C13 C 0.5431(2) 0.7279(3) 0.15311(17)
H13 H 0.65570 0.72590 0.18290
C14 C 0.4067(2) 0.7186(2) 0.23065(16)
H14 H 0.42870 0.70680 0.31380
O2 O -0.17902(15) 0.93743(16) 0.28717(11)
H15 H -0.21250 0.85080 0.33080
O3 O 0.23690(15) 0.36512(15) 0.37311(10)
O4 O 0.28165(15) 0.35338(15) 0.56784(10)
O5 O -0.08660(17) 0.83599(19) 0.04955(12)
O6 O 0.03831(18) 0.6952(2) -0.06848(13)
N1 N 0.0440(2) 0.7559(2) 0.01376(14)
#END
