
#######################################################################
#
#                 Cambridge Crystallographic Data Centre
#                                CCDC
#
#######################################################################
#
# If this CIF has been generated from an entry in the Cambridge
# Structural Database, then it will include bibliographic, chemical,
# crystal, experimental, refinement or atomic coordinate data resulting
# from the CCDC's data processing and validation procedures.
#
#######################################################################

data_CSD_CIF_XUBZAV
_audit_creation_date 2002-11-19
_audit_creation_method CSD-ConQuest-V1
_database_code_CSD XUBZAV
_database_code_depnum_ccdc_archive 'CCDC 186703'
_chemical_formula_sum 'C26 H36 N4 O10'
_chemical_formula_moiety
;
C26 H36 N4 O10
;
_journal_coden_Cambridge 207
_journal_year 2002
_journal_page_first 1954
_journal_name_full 'J.Chem.Soc.,Perkin Trans.1 '
loop_
_publ_author_name
"T.Gunnlaugsson"
"H.Q.N.Gunaratne"
"M.Nieuwenhuyzen"
"J.P.Leonard"
_chemical_name_systematic
;
7,16-bis(2-Methoxy-4-nitrophenyl)-1,4,10,13-tetraoxa-7,16-diazacyclo-octadecan
e
;
_chemical_melting_point 420.15
_cell_volume    647.087
_exptl_crystal_colour 'yellow'
_exptl_crystal_density_diffrn 1.449
_exptl_special_details
;
Melting point range 420.15-422.15K

;
_exptl_crystal_description 'block'
_diffrn_ambient_temperature 153
#These two values have been output from a single CSD field.
_refine_ls_R_factor_gt 0.046
_refine_ls_wR_factor_gt 0.046
_symmetry_cell_setting triclinic
_symmetry_space_group_name_H-M 'P -1'
_symmetry_Int_Tables_number 2
loop_
_symmetry_equiv_pos_site_id
_symmetry_equiv_pos_as_xyz
1 x,y,z
2 -x,-y,-z
_cell_length_a 7.4201(17)
_cell_length_b 8.1588(19)
_cell_length_c 11.055(3)
_cell_angle_alpha 99.130(3)
_cell_angle_beta 100.381(3)
_cell_angle_gamma 93.595(3)
_cell_formula_units_Z 1
loop_
_atom_type_symbol
_atom_type_radius_bond
C 0.68
H 0.23
N 0.68
O 0.68
loop_
_atom_site_label
_atom_site_type_symbol
_atom_site_fract_x
_atom_site_fract_y
_atom_site_fract_z
C1 C -0.2726(2) -0.38498(19) -0.17160(15)
H1 H -0.232(2) -0.444(2) -0.0983(16)
H2 H -0.361(2) -0.463(2) -0.2286(16)
C2 C -0.3627(2) -0.2334(2) -0.12392(15)
H3 H -0.282(2) -0.159(2) -0.0573(16)
H4 H -0.474(2) -0.275(2) -0.0929(17)
O1 O -0.42003(15) -0.15015(13) -0.22633(10)
C3 C -0.4887(2) 0.0065(2) -0.19193(16)
H5 H -0.565(2) -0.003(2) -0.1277(17)
H6 H -0.566(2) 0.028(2) -0.2632(16)
C4 C -0.3412(2) 0.1486(2) -0.14488(15)
H7 H -0.257(2) 0.151(2) -0.1976(15)
H8 H -0.401(2) 0.258(2) -0.1384(15)
O2 O -0.24819(15) 0.13322(13) -0.02424(10)
C5 C -0.1002(2) 0.2577(2) 0.02707(15)
H9 H -0.008(2) 0.252(2) -0.0313(16)
H10 H -0.144(2) 0.369(2) 0.0366(16)
C6 C -0.0230(2) 0.21693(19) 0.15438(15)
H11 H 0.025(2) 0.105(2) 0.1395(15)
H12 H -0.122(2) 0.211(2) 0.1981(15)
N1 N -0.11493(17) -0.34590(15) -0.22996(12)
C7 C -0.1509(2) -0.34511(18) -0.35755(14)
C8 C -0.0958(2) -0.2065(2) -0.40682(16)
H13 H -0.042(2) -0.105(2) -0.3442(17)
C9 C -0.1196(2) -0.2083(2) -0.53353(15)
H14 H -0.089(3) -0.113(2) -0.5671(18)
C10 C -0.2010(2) -0.34969(19) -0.61391(14)
C11 C -0.2611(2) -0.49098(19) -0.57123(15)
H15 H -0.315(2) -0.584(2) -0.6295(17)
C12 C -0.2345(2) -0.48988(18) -0.44427(14)
O3 O -0.27808(15) -0.62565(13) -0.39366(10)
C13 C -0.3615(2) -0.7731(2) -0.47796(16)
H16 H -0.280(2) -0.810(2) -0.5360(16)
H17 H -0.374(2) -0.857(2) -0.4271(17)
H18 H -0.484(3) -0.756(2) -0.5294(18)
N2 N -0.22403(18) -0.35068(17) -0.74732(13)
O4 O -0.15584(18) -0.23022(15) -0.78320(11)
O5 O -0.31268(17) -0.47082(15) -0.81951(11)
N1A N 0.11493(17) 0.34590(15) 0.22996(12)
C1A C 0.2726(2) 0.38498(19) 0.17160(15)
H1A H 0.232(2) 0.444(2) 0.0983(16)
H2A H 0.361(2) 0.463(2) 0.2286(16)
C2A C 0.3627(2) 0.2334(2) 0.12392(15)
H3A H 0.282(2) 0.159(2) 0.0573(16)
H4A H 0.474(2) 0.275(2) 0.0929(17)
O1A O 0.42003(15) 0.15015(13) 0.22633(10)
C3A C 0.4887(2) -0.0065(2) 0.19193(16)
H5A H 0.565(2) 0.003(2) 0.1277(17)
H6A H 0.566(2) -0.028(2) 0.2632(16)
C4A C 0.3412(2) -0.1486(2) 0.14488(15)
H7A H 0.257(2) -0.151(2) 0.1976(15)
H8A H 0.401(2) -0.258(2) 0.1384(15)
O2A O 0.24819(15) -0.13322(13) 0.02424(10)
C5A C 0.1002(2) -0.2577(2) -0.02707(15)
H9A H 0.008(2) -0.252(2) 0.0313(16)
H10A H 0.144(2) -0.369(2) -0.0366(16)
C6A C 0.0230(2) -0.21693(19) -0.15438(15)
H11A H -0.025(2) -0.105(2) -0.1395(15)
H12A H 0.122(2) -0.211(2) -0.1981(15)
C7A C 0.1509(2) 0.34511(18) 0.35755(14)
C8A C 0.0958(2) 0.2065(2) 0.40682(16)
H13A H 0.042(2) 0.105(2) 0.3442(17)
C9A C 0.1196(2) 0.2083(2) 0.53353(15)
H14A H 0.089(3) 0.113(2) 0.5671(18)
C10A C 0.2010(2) 0.34969(19) 0.61391(14)
C11A C 0.2611(2) 0.49098(19) 0.57123(15)
H15A H 0.315(2) 0.584(2) 0.6295(17)
C12A C 0.2345(2) 0.48988(18) 0.44427(14)
O3A O 0.27808(15) 0.62565(13) 0.39366(10)
C13A C 0.3615(2) 0.7731(2) 0.47796(16)
H16A H 0.280(2) 0.810(2) 0.5360(16)
H17A H 0.374(2) 0.857(2) 0.4271(17)
H18A H 0.484(3) 0.756(2) 0.5294(18)
N2A N 0.22403(18) 0.35068(17) 0.74732(13)
O4A O 0.15584(18) 0.23022(15) 0.78320(11)
O5A O 0.31268(17) 0.47082(15) 0.81951(11)
#END
