
#######################################################################
#
#                 Cambridge Crystallographic Data Centre
#                                CCDC
#
#######################################################################
#
# If this CIF has been generated from an entry in the Cambridge
# Structural Database, then it will include bibliographic, chemical,
# crystal, experimental, refinement or atomic coordinate data resulting
# from the CCDC's data processing and validation procedures.
#
#######################################################################

data_CSD_CIF_XUCJEM
_audit_creation_date 2015-04-03
_audit_creation_method CSD-ConQuest-V1
_database_code_CSD XUCJEM
_database_code_depnum_ccdc_archive 'CCDC 875050'
_chemical_formula_sum 'C4 H5 N3 O2'
_chemical_formula_moiety
;
C4 H5 N3 O2
;
_journal_coden_Cambridge 1495
_journal_volume 9
_journal_year 2016
_journal_page_first 668
_journal_name_full 'Arab.J.Chem. '
loop_
_publ_author_name
"H.A.Shahid"
"Sajid Jahangir"
"S.Yousuf"
"M.Hanif"
"S.K.Sherwani"
_chemical_name_systematic
;
1-Methyl-4-nitro-1H-imidazole
;
_cell_volume    568.849
_exptl_crystal_colour 'colorless'
_exptl_crystal_density_diffrn 1.484
_exptl_special_details
;
monoclinic P21/c polymorph

;
_exptl_crystal_description 'plate'
_diffrn_ambient_temperature 273
#These two values have been output from a single CSD field.
_refine_ls_R_factor_gt 0.047
_refine_ls_wR_factor_gt 0.047
_symmetry_cell_setting monoclinic
_symmetry_space_group_name_H-M 'P 21/c'
_symmetry_Int_Tables_number 14
loop_
_symmetry_equiv_pos_site_id
_symmetry_equiv_pos_as_xyz
1 x,y,z
2 -x,1/2+y,1/2-z
3 -x,-y,-z
4 x,-1/2-y,-1/2+z
_cell_length_a 5.8223(15)
_cell_length_b 14.882(4)
_cell_length_c 6.5873(18)
_cell_angle_alpha 90
_cell_angle_beta 94.705(7)
_cell_angle_gamma 90
_cell_formula_units_Z 4
loop_
_atom_type_symbol
_atom_type_radius_bond
C 0.68
H 0.23
N 0.68
O 0.68
loop_
_atom_site_label
_atom_site_type_symbol
_atom_site_fract_x
_atom_site_fract_y
_atom_site_fract_z
O1 O 0.7081(3) -0.16483(11) 0.3069(3)
O2 O 0.3477(3) -0.12918(11) 0.2924(3)
N1 N 0.5510(3) -0.10982(12) 0.2882(3)
N2 N 0.4484(3) 0.04651(12) 0.2412(3)
N3 N 0.7966(3) 0.10403(11) 0.2165(3)
C1 C 0.9729(4) 0.17198(15) 0.1883(4)
H1 H 0.90120 0.22980 0.16990
H2 H 1.05180 0.15730 0.07020
H3 H 1.08130 0.17330 0.30620
C2 C 0.8284(3) 0.01428(14) 0.2468(3)
H4 H 0.96630 -0.01750 0.25570
C3 C 0.6135(3) -0.01792(13) 0.2609(3)
C4 C 0.5691(3) 0.11945(14) 0.2145(3)
H5 H 0.50360 0.17620 0.19620
#END
