
#######################################################################
#
#                 Cambridge Crystallographic Data Centre
#                                CCDC
#
#######################################################################
#
# If this CIF has been generated from an entry in the Cambridge
# Structural Database, then it will include bibliographic, chemical,
# crystal, experimental, refinement or atomic coordinate data resulting
# from the CCDC's data processing and validation procedures.
#
#######################################################################

data_CSD_CIF_XUCMIR
_audit_creation_date 2002-12-18
_audit_creation_method CSD-ConQuest-V1
_database_code_CSD XUCMIR
_database_code_depnum_ccdc_archive 'CCDC 1297924'
_chemical_formula_sum 'C25 H22 N6 O3'
_chemical_formula_moiety
;
C25 H22 N6 O3
;
_journal_coden_Cambridge 661
_journal_volume 48
_journal_year 2001
_journal_page_first 883
_journal_name_full 'J.Chin.Chem.Soc.(Taipei) '
loop_
_publ_author_name
"Mei-Hsiu Shih"
"Li-Hui Lu"
"Mou-Yung Yeh"
_chemical_name_systematic
;
3-(4'-Methoxyphenyl)-4-(1'-phenyl-5'-(4''-dimethylaminophenyl)-1',2',4'-triazo
l-3'-yl)sydnone
;
_chemical_melting_point 508.15
_cell_volume   2281.585
_exptl_crystal_colour 'yellow'
_exptl_crystal_density_diffrn 1.323
_exptl_special_details
;
Melting point range 508.15-509.15K

;
_diffrn_ambient_temperature 298
#These two values have been output from a single CSD field.
_refine_ls_R_factor_gt 0.044
_refine_ls_wR_factor_gt 0.044
_symmetry_cell_setting monoclinic
_symmetry_space_group_name_H-M 'P 21/n'
_symmetry_Int_Tables_number 14
loop_
_symmetry_equiv_pos_site_id
_symmetry_equiv_pos_as_xyz
1 x,y,z
2 1/2-x,1/2+y,1/2-z
3 -x,-y,-z
4 -1/2+x,-1/2-y,-1/2+z
_cell_length_a 12.692(2)
_cell_length_b 8.517(1)
_cell_length_c 21.254(3)
_cell_angle_alpha 90
_cell_angle_beta 96.75(1)
_cell_angle_gamma 90
_cell_formula_units_Z 4
loop_
_atom_type_symbol
_atom_type_radius_bond
C 0.68
N 0.68
O 0.68
loop_
_atom_site_label
_atom_site_type_symbol
_atom_site_fract_x
_atom_site_fract_y
_atom_site_fract_z
O1 O 0.3941(1) 0.1327(2) 0.50327(7)
O2 O 0.4478(1) 0.2210(2) 0.60285(7)
O3 O 0.7105(1) 0.3716(2) 0.23978(8)
N1 N 0.5112(1) 0.2298(2) 0.45142(8)
N2 N 0.4253(1) 0.1428(2) 0.44348(8)
N3 N 0.6663(1) 0.3917(2) 0.59255(8)
N4 N 0.7517(1) 0.4894(2) 0.59028(8)
N5 N 0.6885(1) 0.4531(2) 0.49120(8)
N6 N 1.0735(2) 0.8857(3) 0.4225(1)
C1 C 0.4642(2) 0.2165(3) 0.5482(1)
C2 C 0.5405(2) 0.2783(3) 0.51149(9)
C3 C 0.5632(2) 0.2607(3) 0.39535(9)
C4 C 0.6451(2) 0.1669(3) 0.3822(1)
C5 C 0.6971(2) 0.2001(3) 0.3299(1)
C6 C 0.6647(2) 0.3269(3) 0.2921(1)
C7 C 0.5806(2) 0.4187(3) 0.3058(1)
C8 C 0.5295(2) 0.3865(3) 0.3581(1)
C9 C 0.7995(2) 0.2847(4) 0.2246(1)
C10 C 0.6319(2) 0.3754(3) 0.53143(9)
C11 C 0.7645(2) 0.5248(3) 0.5294(1)
C12 C 0.8460(2) 0.6223(3) 0.5059(1)
C13 C 0.9441(2) 0.6572(3) 0.5392(1)
C14 C 1.0185(2) 0.7441(3) 0.5124(1)
C15 C 0.9991(2) 0.8017(3) 0.4504(1)
C16 C 0.8999(2) 0.7660(3) 0.4172(1)
C17 C 0.8265(2) 0.6783(3) 0.4443(1)
C18 C 1.1733(2) 0.9310(3) 0.4579(1)
C19 C 1.0453(2) 0.9662(4) 0.3632(1)
C20 C 0.8051(2) 0.5441(3) 0.6500(1)
C21 C 0.8799(2) 0.4511(4) 0.6824(1)
C22 C 0.9261(3) 0.4993(5) 0.7420(2)
C23 C 0.8958(3) 0.6366(5) 0.7667(1)
C24 C 0.8218(3) 0.7298(4) 0.7336(1)
C25 C 0.7750(2) 0.6833(3) 0.6741(1)
#END
