
#######################################################################
#
#                 Cambridge Crystallographic Data Centre
#                                CCDC
#
#######################################################################
#
# If this CIF has been generated from an entry in the Cambridge
# Structural Database, then it will include bibliographic, chemical,
# crystal, experimental, refinement or atomic coordinate data resulting
# from the CCDC's data processing and validation procedures.
#
#######################################################################

data_CSD_CIF_XUCNUE
_audit_creation_date 2002-12-18
_audit_creation_method CSD-ConQuest-V1
_database_code_CSD XUCNUE
_chemical_formula_sum 'C21 H23 N2 O5'
_chemical_formula_moiety
;
C21 H23 N2 O5
;
_journal_coden_Cambridge 603
_journal_volume 21
_journal_year 2002
_journal_page_first 99
_journal_name_full 'Jiegou Huaxue(Chin.)(Chin.J.Struct.Chem.) '
loop_
_publ_author_name
"Shu-Jiang Tu"
"Chen-Xia Yu"
"Xiao-Hong Liu"
"Chang-Sheng Yao"
"Fang Liu"
"Yuan Gao"
_chemical_name_systematic
;
2,7,7-Trimethyl-3-ethoxycarbonyl-4-(3-nitrophenyl)-5-oxo-1,4,5,6,7,8-hexahydro
quinoline
;
_cell_volume   3903.531
_exptl_crystal_density_diffrn 1.308
_diffrn_ambient_temperature ?
_diffrn_special_details
;
The study was carried out at room temperature,in the range 283-303K

;
_refine_special_details
;
The ethoxycarbonyl group is disordered over two sites.

;
#These two values have been output from a single CSD field.
_refine_ls_R_factor_gt 0.0493
_refine_ls_wR_factor_gt 0.0493
_symmetry_cell_setting orthorhombic
_symmetry_space_group_name_H-M 'P b c n'
_symmetry_Int_Tables_number 60
loop_
_symmetry_equiv_pos_site_id
_symmetry_equiv_pos_as_xyz
1 x,y,z
2 1/2-x,1/2-y,1/2+z
3 1/2+x,1/2-y,-z
4 -x,y,1/2-z
5 -x,-y,-z
6 -1/2+x,-1/2+y,-1/2-z
7 -1/2-x,-1/2+y,z
8 x,-y,-1/2+z
_cell_length_a 17.953(3)
_cell_length_b 15.206(4)
_cell_length_c 14.299(3)
_cell_angle_alpha 90
_cell_angle_beta 90
_cell_angle_gamma 90
_cell_formula_units_Z 8
loop_
_atom_type_symbol
_atom_type_radius_bond
C 0.68
N 0.68
O 0.68
loop_
_atom_site_label
_atom_site_type_symbol
_atom_site_fract_x
_atom_site_fract_y
_atom_site_fract_z
O1 O 0.1073(1) 0.0406(1) 0.6394(1)
O2 O 0.1468(12) -0.2675(5) 0.5960(5)
O3? O 0.1674(11) -0.2727(5) 0.5871(6)
O4 O 0.1282(8) -0.3408(9) 0.4636(17)
O5? O 0.1017(7) -0.3314(8) 0.4657(15)
O6 O 0.3523(2) 0.0250(2) 0.3117(2)
O7 O 0.4588(2) -0.0133(2) 0.3677(2)
N1 N 0.1088(1) -0.0825(1) 0.3400(1)
N2 N 0.3914(2) -0.0099(2) 0.3714(2)
C1 C 0.1024(2) -0.0119(2) 0.3981(2)
C2 C 0.0741(2) 0.0714(2) 0.3555(2)
C3 C 0.0938(2) 0.1529(2) 0.4120(2)
C4 C 0.0729(2) 0.1351(2) 0.5141(2)
C5 C 0.1015(2) 0.0501(2) 0.5540(2)
C6 C 0.1187(2) -0.0207(2) 0.4903(2)
C7 C 0.0487(2) 0.2308(2) 0.3750(2)
C8 C 0.1770(2) 0.1738(2) 0.4036(2)
C9 C 0.1564(2) -0.1031(2) 0.5253(2)
C10 C 0.1341(2) -0.1808(2) 0.4644(2)
C11 C 0.1167(2) -0.1675(2) 0.3736(2)
C12 C 0.1017(2) -0.2365(2) 0.3017(2)
C13 C 0.1337(2) -0.2698(2) 0.5028(2)
C14 C 0.1496(3) -0.3475(4) 0.6522(5)
C15? C 0.1717(4) -0.3625(4) 0.6216(4)
C16 C 0.2294(4) -0.3729(6) 0.6642(7)
C17? C 0.2219(3) -0.3547(5) 0.7047(4)
C18 C 0.2407(2) -0.0921(2) 0.5283(2)
C19 C 0.2830(2) -0.1151(2) 0.6053(2)
C20 C 0.3598(2) -0.1053(2) 0.6057(2)
C21 C 0.3967(2) -0.0726(2) 0.5294(2)
C22 C 0.3542(2) -0.0487(2) 0.4531(2)
C23 C 0.2783(2) -0.0580(2) 0.4514(2)
#END
