
#######################################################################
#
#                 Cambridge Crystallographic Data Centre
#                                CCDC
#
#######################################################################
#
# If this CIF has been generated from an entry in the Cambridge
# Structural Database, then it will include bibliographic, chemical,
# crystal, experimental, refinement or atomic coordinate data resulting
# from the CCDC's data processing and validation procedures.
#
#######################################################################

data_CSD_CIF_XUCPAO
_audit_creation_date 2015-04-03
_audit_creation_method CSD-ConQuest-V1
_database_code_CSD XUCPAO
_database_code_depnum_ccdc_archive 'CCDC 1057833'
_chemical_formula_sum 'C6 H5 N1 O3'
_chemical_formula_moiety
;
C6 H5 N1 O3
;
_journal_coden_Cambridge 1078
_journal_year 2015
_journal_name_full 'CSD Communication(Private Communication) '
loop_
_publ_author_name
"R.Ganduri"
"S.Cherukuvada"
"T.N.G.Row"
_chemical_name_systematic
;
1-oxo-1-pyridine-4-carboxylic acid
;
_chemical_name_common
;
Isonicotinicacid-N-oxide
;
_chemical_melting_point 548
_cell_volume   1153.622
_exptl_crystal_colour 'colorless'
_exptl_crystal_density_diffrn 1.602
_exptl_crystal_description 'plate'
_exptl_crystal_preparation 'Ethylacetate/ Water'
_diffrn_ambient_temperature 100
#These two values have been output from a single CSD field.
_refine_ls_R_factor_gt 0.068
_refine_ls_wR_factor_gt 0.068
_symmetry_cell_setting triclinic
_symmetry_space_group_name_H-M 'P -1'
_symmetry_Int_Tables_number 2
loop_
_symmetry_equiv_pos_site_id
_symmetry_equiv_pos_as_xyz
1 x,y,z
2 -x,-y,-z
_cell_length_a 3.7298(1)
_cell_length_b 15.2653(6)
_cell_length_c 21.3584(10)
_cell_angle_alpha 107.953(4)
_cell_angle_beta 93.684(3)
_cell_angle_gamma 90.951(3)
_cell_formula_units_Z 8
loop_
_atom_type_symbol
_atom_type_radius_bond
C 0.68
H 0.23
N 0.68
O 0.68
loop_
_atom_site_label
_atom_site_type_symbol
_atom_site_fract_x
_atom_site_fract_y
_atom_site_fract_z
C1 C 1.1234(8) -0.11415(19) 0.15785(14)
H1 H 1.21320 -0.13810 0.19060
C2 C 0.9773(8) -0.02836(19) 0.17507(14)
H2 H 0.97230 0.00620 0.21930
C3 C 0.8366(7) 0.00646(18) 0.12555(14)
C4 C 0.8462(7) -0.04770(19) 0.06029(14)
H3 H 0.74840 -0.02650 0.02670
C5 C 0.9991(8) -0.13234(19) 0.04482(14)
H4 H 1.00770 -0.16790 0.00090
C6 C 0.6873(8) 0.10137(19) 0.14480(14)
N1 N 1.1367(6) -0.16377(16) 0.09353(12)
O1 O 1.2972(6) -0.24369(14) 0.07758(11)
O2 O 0.7043(6) 0.15126(14) 0.2011(1)
O3 O 0.5380(6) 0.12189(14) 0.09329(10)
H5 H 0.467(14) 0.183(4) 0.109(2)
C7 C 1.0055(8) -0.18188(19) 0.44791(14)
H6 H 1.06680 -0.18140 0.49090
C8 C 0.8290(7) -0.10910(19) 0.43678(14)
H7 H 0.76940 -0.05990 0.47230
C9 C 0.7393(7) -0.10874(19) 0.37258(14)
C10 C 0.8224(8) -0.18514(19) 0.32072(14)
H8 H 0.76090 -0.18720 0.27740
C11 C 0.9953(8) -0.25766(19) 0.33339(14)
H9 H 1.04680 -0.30890 0.29870
C12 C 0.5549(7) -0.02994(19) 0.35790(14)
N2 N 1.0904(6) -0.25430(16) 0.39648(12)
O4 O 1.2767(6) -0.32172(14) 0.40782(11)
O5 O 0.4750(6) -0.03030(15) 0.30203(11)
O6 O 0.4916(6) 0.03670(14) 0.41195(10)
H10 H 0.355(13) 0.089(3) 0.403(2)
C13 C 0.3538(8) 0.4182(2) 0.17639(14)
H11 H 0.25880 0.40840 0.21300
C14 C 0.5059(8) 0.5032(2) 0.18114(14)
H12 H 0.51420 0.55070 0.22100
C15 C 0.6472(8) 0.51807(19) 0.12615(14)
C16 C 0.6325(8) 0.44573(19) 0.06723(14)
H13 H 0.72490 0.45420 0.03000
C17 C 0.4802(8) 0.3613(2) 0.06422(14)
H14 H 0.47140 0.31270 0.02500
C18 C 0.8200(8) 0.61019(19) 0.13219(14)
N3 N 0.3429(6) 0.34911(16) 0.11864(12)
O7 O 0.1845(6) 0.26861(14) 0.11409(11)
O8 O 0.8518(7) 0.67225(15) 0.18398(11)
O9 O 0.9315(6) 0.61450(14) 0.07574(10)
H15 H 1.049(16) 0.676(4) 0.080(3)
C19 C 0.4339(8) 0.3116(2) 0.44416(14)
H16 H 0.40020 0.30970 0.48650
C20 C 0.6067(8) 0.38721(19) 0.43562(14)
H17 H 0.68740 0.43650 0.47210
C21 C 0.6602(7) 0.38951(19) 0.37226(14)
C22 C 0.5448(8) 0.3136(2) 0.31894(14)
H18 H 0.58530 0.31280 0.27630
C23 C 0.3705(8) 0.2394(2) 0.32923(14)
H19 H 0.29210 0.18880 0.29350
C24 C 0.8436(8) 0.47177(19) 0.36078(14)
N4 N 0.3135(6) 0.24039(16) 0.39133(12)
O10 O 0.1313(6) 0.17013(13) 0.40067(10)
O11 O 0.9087(6) 0.47241(15) 0.30597(10)
O12 O 0.9226(6) 0.53926(14) 0.4159(1)
H20 H 1.030(12) 0.589(3) 0.410(2)
#END
