
#######################################################################
#
#                 Cambridge Crystallographic Data Centre
#                                CCDC
#
#######################################################################
#
# If this CIF has been generated from an entry in the Cambridge
# Structural Database, then it will include bibliographic, chemical,
# crystal, experimental, refinement or atomic coordinate data resulting
# from the CCDC's data processing and validation procedures.
#
#######################################################################

data_CSD_CIF_XUDREV
_audit_creation_date 2015-04-06
_audit_creation_method CSD-ConQuest-V1
_database_code_CSD XUDREV
_database_code_depnum_ccdc_archive 'CCDC 1058064'
_chemical_formula_sum 'C15 H15 N3 O2'
_chemical_formula_moiety
;
C15 H15 N3 O2
;
_journal_coden_Cambridge 1078
_journal_year 2015
_journal_name_full 'CSD Communication(Private Communication) '
loop_
_publ_author_name
"U.C.K.Serbest"
_chemical_name_systematic
;
1-((3-(hydroxyimino)butan-2-ylidene)carbonohydrazonoyl)-2-naphthol
;
_cell_volume   1536.249
_exptl_crystal_density_diffrn 1.281
_diffrn_ambient_temperature 293
#These two values have been output from a single CSD field.
_refine_ls_R_factor_gt 0.0747
_refine_ls_wR_factor_gt 0.0747
_symmetry_cell_setting monoclinic
_symmetry_space_group_name_H-M 'P 21/n'
_symmetry_Int_Tables_number 14
loop_
_symmetry_equiv_pos_site_id
_symmetry_equiv_pos_as_xyz
1 x,y,z
2 1/2-x,1/2+y,1/2-z
3 -x,-y,-z
4 -1/2+x,-1/2-y,-1/2+z
_cell_length_a 11(2)
_cell_length_b 5(9)
_cell_length_c 28(4)
_cell_angle_alpha 90
_cell_angle_beta 94(17)
_cell_angle_gamma 90
_cell_formula_units_Z 4
loop_
_atom_type_symbol
_atom_type_radius_bond
C 0.68
H 0.23
N 0.68
O 0.68
loop_
_atom_site_label
_atom_site_type_symbol
_atom_site_fract_x
_atom_site_fract_y
_atom_site_fract_z
N1 N 0.3332(2) 0.3265(5) 0.10702(9)
N2 N 0.3326(2) 0.1335(5) 0.06906(9)
C1 C 0.4390(3) 0.4575(6) 0.11411(10)
H1 H 0.50300 0.41470 0.09450
N3 N 0.1223(2) -0.3385(5) 0.01093(10)
C2 C 0.2279(3) -0.0030(6) 0.06043(11)
O1 O 0.1286(2) -0.5307(5) -0.02691(8)
H2 H 0.06030 -0.61050 -0.03200
C3 C 0.4630(3) 0.6673(6) 0.15098(10)
C4 C 0.2268(3) -0.2052(7) 0.02054(11)
C5 C 0.5811(3) 0.8200(6) 0.15603(11)
O2 O 0.2587(2) 0.5923(6) 0.17960(8)
H3 H 0.25440 0.48040 0.15710
C6 C 0.6017(4) 1.0189(7) 0.19390(13)
C7 C 0.3724(4) 0.7239(8) 0.18246(12)
C8 C 0.6774(3) 0.7853(8) 0.12520(13)
H4 H 0.66610 0.65760 0.09990
C9 C 0.7171(5) 1.1688(8) 0.19876(17)
H5 H 0.73080 1.30160 0.22320
C10 C 0.3951(4) 0.9226(8) 0.22022(12)
H6 H 0.33380 0.95790 0.24140
C11 C 0.3402(3) -0.2498(8) -0.00604(13)
H7 H 0.32190 -0.38850 -0.03080
H8 H 0.40840 -0.31690 0.01550
H9 H 0.36370 -0.07300 -0.02010
C12 C 0.5070(5) 1.0601(8) 0.22506(14)
H10 H 0.52180 1.18760 0.25020
C13 C 0.1124(3) 0.0319(7) 0.08707(13)
H11 H 0.12840 0.17020 0.11200
H12 H 0.09120 -0.14750 0.10080
H13 H 0.04360 0.09540 0.06550
C14 C 0.8086(5) 1.1231(11) 0.1684(2)
H14 H 0.88520 1.21910 0.17280
C15 C 0.7871(4) 0.9346(10) 0.13157(17)
H15 H 0.84890 0.90790 0.11030
#END
