
#######################################################################
#
#                 Cambridge Crystallographic Data Centre
#                                CCDC
#
#######################################################################
#
# If this CIF has been generated from an entry in the Cambridge
# Structural Database, then it will include bibliographic, chemical,
# crystal, experimental, refinement or atomic coordinate data resulting
# from the CCDC's data processing and validation procedures.
#
#######################################################################

data_CSD_CIF_XUDROF
_audit_creation_date 2015-04-06
_audit_creation_method CSD-ConQuest-V1
_database_code_CSD XUDROF
_database_code_depnum_ccdc_archive 'CCDC 1022697'
_chemical_formula_sum 'C4 H4 N10 O4'
_chemical_formula_moiety
;
C4 H4 N10 O4
;
_journal_coden_Cambridge 179
_journal_volume 54
_journal_year 2015
_journal_page_first 6260
_journal_name_full 'Angew.Chem.,Int.Ed. '
loop_
_publ_author_name
"Chunlin He"
"J.M.Shreeve"
_chemical_name_systematic
;
5,5'-dinitro-3H,3'H-4,4'-bi-1,2,3-triazole-3,3'-diamine
;
_chemical_name_common
;
3,3-Diamino-5,5-dinitro-4,4-bi-1,2,3-triazole
;
_cell_volume   1813.961
_exptl_crystal_colour 'colorless'
_exptl_crystal_density_diffrn 1.876
_exptl_crystal_description 'plate'
_diffrn_ambient_temperature 150
#These two values have been output from a single CSD field.
_refine_ls_R_factor_gt 0.0361
_refine_ls_wR_factor_gt 0.0361
_symmetry_cell_setting tetragonal
_symmetry_space_group_name_H-M 'I 41/a'
_symmetry_Int_Tables_number 88
loop_
_symmetry_equiv_pos_site_id
_symmetry_equiv_pos_as_xyz
1 x,y,z
2 1/2-x,-y,1/2+z
3 3/4-y,1/4+x,1/4+z
4 3/4+y,3/4-x,3/4+z
5 1/2+x,1/2+y,1/2+z
6 -x,1/2-y,z
7 1/4-y,3/4+x,3/4+z
8 1/4+y,1/4-x,1/4+z
9 -x,-y,-z
10 -1/2+x,y,-1/2-z
11 -3/4+y,-1/4-x,-1/4-z
12 -3/4-y,-3/4+x,-3/4-z
13 -1/2-x,-1/2-y,-1/2-z
14 x,-1/2+y,-z
15 -1/4+y,-3/4-x,-3/4-z
16 -1/4-y,-1/4+x,-1/4-z
_cell_length_a 10.2887(5)
_cell_length_b 10.2887(5)
_cell_length_c 17.1359(17)
_cell_angle_alpha 90
_cell_angle_beta 90
_cell_angle_gamma 90
_cell_formula_units_Z 8
loop_
_atom_type_symbol
_atom_type_radius_bond
C 0.68
H 0.23
N 0.68
O 0.68
loop_
_atom_site_label
_atom_site_type_symbol
_atom_site_fract_x
_atom_site_fract_y
_atom_site_fract_z
O1 O 0.69397(9) 0.97245(9) 0.57062(5)
O2 O 0.49805(8) 0.89397(8) 0.56139(5)
N1 N 0.76774(9) 0.84871(9) 0.43985(5)
N2 N 0.77042(9) 0.78626(9) 0.37320(5)
N3 N 0.65028(8) 0.73902(9) 0.36015(5)
N4 N 0.61063(9) 0.90573(8) 0.53891(5)
N5 N 0.61869(10) 0.66426(11) 0.29511(6)
H1 H 0.6213(17) 0.7199(18) 0.2512(12)
H2 H 0.680(2) 0.600(2) 0.2926(11)
C1 C 0.6462(1) 0.83915(9) 0.46843(6)
C2 C 0.56773(9) 0.76915(9) 0.41874(5)
O1E O 0.30603(9) 0.52755(9) 0.57062(5)
O2E O 0.50195(8) 0.60603(8) 0.56139(5)
N1E N 0.23226(9) 0.65129(9) 0.43985(5)
N2E N 0.22958(9) 0.71374(9) 0.37320(5)
N3E N 0.34972(8) 0.76098(9) 0.36015(5)
N4E N 0.38937(9) 0.59427(8) 0.53891(5)
N5E N 0.38131(10) 0.83574(11) 0.29511(6)
H1E H 0.3787(17) 0.7801(18) 0.2512(12)
H2E H 0.320(2) 0.900(2) 0.2926(11)
C1E C 0.3538(1) 0.66085(9) 0.46843(6)
C2E C 0.43227(9) 0.73085(9) 0.41874(5)
#END
