
#######################################################################
#
#                 Cambridge Crystallographic Data Centre
#                                CCDC
#
#######################################################################
#
# If this CIF has been generated from an entry in the Cambridge
# Structural Database, then it will include bibliographic, chemical,
# crystal, experimental, refinement or atomic coordinate data resulting
# from the CCDC's data processing and validation procedures.
#
#######################################################################

data_CSD_CIF_XUDRUL
_audit_creation_date 2015-04-06
_audit_creation_method CSD-ConQuest-V1
_database_code_CSD XUDRUL
_database_code_depnum_ccdc_archive 'CCDC 1022698'
_chemical_formula_sum 'C6 H6 N8 O4'
_chemical_formula_moiety
;
C6 H6 N8 O4
;
_journal_coden_Cambridge 179
_journal_volume 54
_journal_year 2015
_journal_page_first 6260
_journal_name_full 'Angew.Chem.,Int.Ed. '
loop_
_publ_author_name
"Chunlin He"
"J.M.Shreeve"
_chemical_name_systematic
;
2,3'-dimethyl-5,5'-dinitro-2H,3'H-4,4'-bi-1,2,3-triazole
;
_chemical_name_common
;
2,3-Dimethyl-5,5-dinitro-4,4-bi-1,2,3-triazole
;
_cell_volume   1015.408
_exptl_crystal_colour 'colorless'
_exptl_crystal_density_diffrn 1.663
_exptl_crystal_description 'plate'
_exptl_crystal_preparation 'Acetonitrile'
_diffrn_ambient_temperature 150
#These two values have been output from a single CSD field.
_refine_ls_R_factor_gt 0.0393
_refine_ls_wR_factor_gt 0.0393
_symmetry_cell_setting monoclinic
_symmetry_space_group_name_H-M 'P 21/c'
_symmetry_Int_Tables_number 14
loop_
_symmetry_equiv_pos_site_id
_symmetry_equiv_pos_as_xyz
1 x,y,z
2 -x,1/2+y,1/2-z
3 -x,-y,-z
4 x,-1/2-y,-1/2+z
_cell_length_a 6.9236(5)
_cell_length_b 9.3758(6)
_cell_length_c 15.9429(11)
_cell_angle_alpha 90
_cell_angle_beta 101.1440(14)
_cell_angle_gamma 90
_cell_formula_units_Z 4
loop_
_atom_type_symbol
_atom_type_radius_bond
C 0.68
H 0.23
N 0.68
O 0.68
loop_
_atom_site_label
_atom_site_type_symbol
_atom_site_fract_x
_atom_site_fract_y
_atom_site_fract_z
O1 O 0.58434(14) 0.53970(12) 0.41869(7)
O2 O 0.34248(14) 0.45650(11) 0.32394(7)
O3 O 0.05755(16) 0.34946(10) 0.42425(6)
O4 O -0.14598(16) 0.20968(10) 0.34166(7)
N1 N 0.04078(15) 0.78292(10) 0.41172(6)
N2 N 0.20372(17) 0.83761(11) 0.46178(7)
N3 N 0.35180(16) 0.75350(12) 0.45709(7)
N4 N -0.17047(14) 0.65735(10) 0.24768(6)
N5 N -0.28590(14) 0.55903(11) 0.20365(7)
N6 N -0.26583(14) 0.42806(11) 0.23409(6)
N7 N 0.41221(15) 0.53962(11) 0.38122(7)
N8 N -0.06740(16) 0.32513(11) 0.36032(7)
C1 C 0.28205(17) 0.64565(12) 0.40446(7)
C2 C 0.08329(16) 0.66074(11) 0.37422(7)
C3 C -0.06331(15) 0.58500(12) 0.31277(7)
C4 C -0.12538(16) 0.44351(12) 0.30346(7)
C5 C -0.14801(19) 0.85522(13) 0.40526(8)
H1 H -0.13160 0.93910 0.44270
H2 H -0.24340 0.78990 0.42280
H3 H -0.19590 0.88530 0.34600
C6 C -0.4257(2) 0.59776(16) 0.12624(9)
H4 H -0.52930 0.65820 0.14140
H5 H -0.48460 0.51110 0.09780
H6 H -0.35700 0.65000 0.08760
#END
