
#######################################################################
#
#                 Cambridge Crystallographic Data Centre
#                                CCDC
#
#######################################################################
#
# If this CIF has been generated from an entry in the Cambridge
# Structural Database, then it will include bibliographic, chemical,
# crystal, experimental, refinement or atomic coordinate data resulting
# from the CCDC's data processing and validation procedures.
#
#######################################################################

data_CSD_CIF_XUDSAS
_audit_creation_date 2015-04-06
_audit_creation_method CSD-ConQuest-V1
_database_code_CSD XUDSAS
_database_code_depnum_ccdc_archive 'CCDC 1058071'
_chemical_formula_sum 'C48 H24 N12 O12'
_chemical_formula_moiety
;
C48 H24 N12 O12
;
_journal_coden_Cambridge 1478
_journal_volume 6
_journal_year 2015
_journal_page_first 7586
_journal_name_full 'Polym.Chem. '
loop_
_publ_author_name
"Tian-Guang Zhan"
"Tian-You Zhou"
"Qiao-Yan Qi"
"Jian Wu"
"Guang-Yu Li"
"Xin Zhao"
_chemical_name_systematic
;
2,3,6,7,10,11-hexakis(4-nitrophenyl)dipyrazino[2,3-f:2',3'-h]quinoxaline 
unknown solvate
;
_cell_volume   6509.902
_exptl_crystal_colour 'yellow'
_exptl_crystal_density_diffrn 0.98
_exptl_crystal_description 'sheet'
_diffrn_ambient_temperature 293
_refine_special_details
;
Disordered solvent molecules were not modelled and the disordered density was 
taken into account using the SQUEEZE/PLATON procedure.
;
#These two values have been output from a single CSD field.
_refine_ls_R_factor_gt 0.0662
_refine_ls_wR_factor_gt 0.0662
_symmetry_cell_setting orthorhombic
_symmetry_space_group_name_H-M 'P b c n'
_symmetry_Int_Tables_number 60
loop_
_symmetry_equiv_pos_site_id
_symmetry_equiv_pos_as_xyz
1 x,y,z
2 1/2-x,1/2-y,1/2+z
3 -x,y,1/2-z
4 1/2+x,1/2-y,-z
5 -x,-y,-z
6 -1/2+x,-1/2+y,-1/2-z
7 x,-y,-1/2+z
8 -1/2-x,-1/2+y,z
_cell_length_a 7.235(2)
_cell_length_b 41.244(13)
_cell_length_c 21.816(7)
_cell_angle_alpha 90
_cell_angle_beta 90
_cell_angle_gamma 90
_cell_formula_units_Z 4
loop_
_atom_type_symbol
_atom_type_radius_bond
C 0.68
H 0.23
N 0.68
O 0.68
loop_
_atom_site_label
_atom_site_type_symbol
_atom_site_fract_x
_atom_site_fract_y
_atom_site_fract_z
N1 N 0.2308(7) -0.01265(13) 0.5120(3)
N2 N 0.6924(9) 0.14159(19) 0.3401(2)
N3 N 0.6314(7) 0.35780(12) 0.5689(3)
N4 N 0.4749(4) 0.10329(8) 0.68604(17)
N5 N 0.5360(4) 0.16052(8) 0.62451(17)
N6 N 0.5256(5) 0.21917(8) 0.68825(15)
O1 O 0.2470(8) -0.03699(10) 0.5399(3)
O2 O 0.1619(6) -0.00997(11) 0.4595(3)
O3 O 0.7819(9) 0.11960(13) 0.3164(2)
O4 O 0.6341(7) 0.16440(15) 0.31196(19)
O5 O 0.5902(6) 0.35532(10) 0.5138(2)
O6 O 0.6978(6) 0.38220(9) 0.5922(2)
C1 C 0.2979(7) 0.01815(12) 0.5425(3)
C2 C 0.4033(8) 0.01557(12) 0.5935(3)
H1 H 0.43230 -0.00450 0.61050
C3 C 0.4659(6) 0.04434(12) 0.6190(2)
H2 H 0.54320 0.04350 0.65310
C4 C 0.4177(6) 0.07374(11) 0.5959(2)
C5 C 0.3083(7) 0.07472(10) 0.5451(2)
H3 H 0.27460 0.09470 0.52900
C6 C 0.2455(6) 0.04655(12) 0.5167(2)
H4 H 0.17150 0.04720 0.48180
C7 C 0.4782(5) 0.10357(10) 0.6246(2)
C8 C 0.5271(6) 0.13267(10) 0.5938(2)
C9 C 0.5707(6) 0.1353(1) 0.5286(2)
C10 C 0.6630(7) 0.10985(11) 0.4993(2)
H5 H 0.69780 0.09170 0.52170
C11 C 0.7029(7) 0.11142(12) 0.4375(3)
H6 H 0.76160 0.09430 0.41770
C12 C 0.6538(7) 0.13885(14) 0.4063(2)
C13 C 0.5720(7) 0.16487(12) 0.4346(2)
H7 H 0.54480 0.18360 0.41250
C14 C 0.5305(6) 0.16295(12) 0.4964(2)
H8 H 0.47530 0.18040 0.51620
C15 C 0.5006(5) 0.13151(9) 0.71664(18)
C16 C 0.5136(5) 0.16044(10) 0.6863(2)
C17 C 0.5102(5) 0.19118(9) 0.71830(17)
C18 C 0.5188(6) 0.24664(9) 0.71848(18)
C19 C 0.5526(6) 0.27551(10) 0.6820(2)
C20 C 0.4838(6) 0.27678(10) 0.6218(2)
H9 H 0.41820 0.25920 0.60650
C21 C 0.5116(7) 0.30386(12) 0.5844(2)
H10 H 0.46550 0.30470 0.54470
C22 C 0.6092(7) 0.32912(11) 0.6088(3)
C23 C 0.6797(7) 0.32902(11) 0.6665(2)
H11 H 0.74400 0.34680 0.68160
C24 C 0.6530(7) 0.30142(10) 0.7025(2)
H12 H 0.70490 0.30060 0.74140
N1B N 0.7692(7) -0.01265(13) 0.9880(3)
N2B N 0.3076(9) 0.14159(19) 1.1599(2)
N3B N 0.3686(7) 0.35780(12) 0.9311(3)
N4B N 0.5251(4) 0.10329(8) 0.81396(17)
N5B N 0.4640(4) 0.16052(8) 0.87549(17)
N6B N 0.4744(5) 0.21917(8) 0.81175(15)
O1B O 0.7530(8) -0.03699(10) 0.9601(3)
O2B O 0.8381(6) -0.00997(11) 1.0405(3)
O3B O 0.2181(9) 0.11960(13) 1.1836(2)
O4B O 0.3659(7) 0.16440(15) 1.18804(19)
O5B O 0.4098(6) 0.35532(10) 0.9862(2)
O6B O 0.3022(6) 0.38220(9) 0.9078(2)
C1B C 0.7021(7) 0.01815(12) 0.9575(3)
C2B C 0.5967(8) 0.01557(12) 0.9065(3)
H1B H 0.56770 -0.00450 0.88950
C3B C 0.5341(6) 0.04434(12) 0.8810(2)
H2B H 0.45680 0.04350 0.84690
C4B C 0.5823(6) 0.07374(11) 0.9041(2)
C5B C 0.6917(7) 0.07472(10) 0.9549(2)
H3B H 0.72540 0.09470 0.97100
C6B C 0.7545(6) 0.04655(12) 0.9833(2)
H4B H 0.82850 0.04720 1.01820
C7B C 0.5218(5) 0.10357(10) 0.8754(2)
C8B C 0.4729(6) 0.13267(10) 0.9062(2)
C9B C 0.4293(6) 0.1353(1) 0.9714(2)
C10B C 0.3370(7) 0.10985(11) 1.0007(2)
H5B H 0.30220 0.09170 0.97830
C11B C 0.2971(7) 0.11142(12) 1.0625(3)
H6B H 0.23840 0.09430 1.08230
C12B C 0.3462(7) 0.13885(14) 1.0937(2)
C13B C 0.4280(7) 0.16487(12) 1.0654(2)
H7B H 0.45520 0.18360 1.08750
C14B C 0.4695(6) 0.16295(12) 1.0036(2)
H8B H 0.52470 0.18040 0.98380
C15B C 0.4994(5) 0.13151(9) 0.78336(18)
C16B C 0.4864(5) 0.16044(10) 0.8137(2)
C17B C 0.4898(5) 0.19118(9) 0.78170(17)
C18B C 0.4812(6) 0.24664(9) 0.78152(18)
C19B C 0.4474(6) 0.27551(10) 0.8180(2)
C20B C 0.5162(6) 0.27678(10) 0.8782(2)
H9B H 0.58180 0.25920 0.89350
C21B C 0.4884(7) 0.30386(12) 0.9156(2)
H10B H 0.53450 0.30470 0.95530
C22B C 0.3908(7) 0.32912(11) 0.8912(3)
C23B C 0.3203(7) 0.32902(11) 0.8335(2)
H11B H 0.25600 0.34680 0.81840
C24B C 0.3470(7) 0.30142(10) 0.7975(2)
H12B H 0.29510 0.30060 0.75860
#END
