
#######################################################################
#
#                 Cambridge Crystallographic Data Centre
#                                CCDC
#
#######################################################################
#
# If this CIF has been generated from an entry in the Cambridge
# Structural Database, then it will include bibliographic, chemical,
# crystal, experimental, refinement or atomic coordinate data resulting
# from the CCDC's data processing and validation procedures.
#
#######################################################################

data_CSD_CIF_XUDSIA
_audit_creation_date 2015-04-06
_audit_creation_method CSD-ConQuest-V1
_database_code_CSD XUDSIA
_database_code_depnum_ccdc_archive 'CCDC 1024259'
_chemical_formula_sum 'C3 H2 N6 O6'
_chemical_formula_moiety
;
C3 H2 N6 O6
;
_journal_coden_Cambridge 4
_journal_volume 137
_journal_year 2015
_journal_page_first 4778
_journal_name_full 'J.Am.Chem.Soc. '
loop_
_publ_author_name
"Ping Yin"
"D.A.Parrish"
"J.M.Shreeve"
_chemical_name_systematic
;
N,3,4-trinitro-1H-pyrazol-5-amine
;
_cell_volume    713.087
_exptl_crystal_colour 'colorless'
_exptl_crystal_density_diffrn 2.032
_exptl_crystal_description 'plate'
_exptl_crystal_preparation 'chloroform'
_diffrn_ambient_temperature 150
#These two values have been output from a single CSD field.
_refine_ls_R_factor_gt 0.0322
_refine_ls_wR_factor_gt 0.0322
_symmetry_cell_setting triclinic
_symmetry_space_group_name_H-M 'P -1'
_symmetry_Int_Tables_number 2
loop_
_symmetry_equiv_pos_site_id
_symmetry_equiv_pos_as_xyz
1 x,y,z
2 -x,-y,-z
_cell_length_a 6.4598(2)
_cell_length_b 9.7023(3)
_cell_length_c 11.5825(4)
_cell_angle_alpha 100.7250(16)
_cell_angle_beta 90.3140(15)
_cell_angle_gamma 91.1090(16)
_cell_formula_units_Z 4
loop_
_atom_type_symbol
_atom_type_radius_bond
C 0.68
H 0.23
N 0.68
O 0.68
loop_
_atom_site_label
_atom_site_type_symbol
_atom_site_fract_x
_atom_site_fract_y
_atom_site_fract_z
O1 O 0.20489(13) -0.12835(9) 0.21862(7)
O2 O 0.08370(12) -0.02459(8) 0.38701(7)
O3 O 0.70611(12) 0.17720(8) 0.47134(6)
O4 O 0.95143(12) 0.27505(8) 0.38519(7)
O5 O 0.98634(13) 0.19816(9) 0.02085(7)
O6 O 1.15455(12) 0.17012(8) 0.17810(7)
N1 N 0.40397(14) 0.02177(9) 0.34150(8)
N2 N 0.21801(14) -0.04737(9) 0.31332(8)
N3 N 0.99811(14) 0.16285(9) 0.11658(8)
N4 N 0.80164(13) 0.19470(9) 0.38325(7)
N5 N 0.53366(14) -0.01581(9) 0.14261(8)
N6 N 0.69230(14) 0.02565(9) 0.08057(7)
C1 C 0.54813(15) 0.03682(10) 0.25771(8)
C2 C 0.73235(15) 0.11573(10) 0.27391(8)
C3 C 0.81070(15) 0.1045(1) 0.15934(9)
H1 H 0.402(3) 0.0782(17) 0.4029(15)
H2 H 0.438(3) -0.0687(18) 0.1085(15)
O7 O -0.29687(13) 0.77755(9) 0.42102(7)
O8 O -0.26227(13) 0.72636(9) 0.23082(7)
O9 O 0.24152(12) 0.50599(8) 0.46526(6)
O10 O 0.43176(12) 0.34839(8) 0.35974(7)
O11 O 0.48266(13) 0.30089(8) 0.01073(7)
O12 O 0.65543(12) 0.39676(9) 0.16858(7)
N7 N -0.04390(14) 0.64218(9) 0.34857(8)
N8 N -0.21189(14) 0.72044(9) 0.33197(8)
N9 N 0.31456(13) 0.44746(9) 0.37111(7)
N10 N 0.49868(14) 0.37721(9) 0.10710(8)
N11 N 0.05332(14) 0.57770(9) 0.14376(8)
N12 N 0.19876(14) 0.50315(9) 0.07643(7)
C4 C 0.31657(16) 0.45508(10) 0.15163(9)
C5 C 0.25130(16) 0.49657(10) 0.26842(8)
C6 C 0.07779(16) 0.57719(10) 0.25884(8)
H3 H -0.037(3) 0.6155(17) 0.1137(14)
H4 H -0.015(3) 0.6448(17) 0.4172(16)
#END
