
#######################################################################
#
#                 Cambridge Crystallographic Data Centre
#                                CCDC
#
#######################################################################
#
# If this CIF has been generated from an entry in the Cambridge
# Structural Database, then it will include bibliographic, chemical,
# crystal, experimental, refinement or atomic coordinate data resulting
# from the CCDC's data processing and validation procedures.
#
#######################################################################

data_CSD_CIF_XUFFEL
_audit_creation_date 2015-04-07
_audit_creation_method CSD-ConQuest-V1
_database_code_CSD XUFFEL
_database_code_depnum_ccdc_archive 'CCDC 1048616'
_chemical_formula_sum 'C27 H30 N2 O3'
_chemical_formula_moiety
;
C27 H30 N2 O3
;
_journal_coden_Cambridge 182
_journal_volume 51
_journal_year 2015
_journal_page_first 7653
_journal_name_full 'Chem.Commun. '
loop_
_publ_author_name
"T.K.Beng"
"H.Takeuchi"
"M.Weber"
"R.Sarpong"
_chemical_name_systematic
;
(3-t-Butyl-4-methyl-2-(2-naphthyl)piperidin-1-yl)(4-nitrophenyl)methanone
;
_cell_volume   1118.425
_exptl_crystal_colour 'colorless'
_exptl_crystal_density_diffrn 1.278
_exptl_crystal_description 'rod'
_diffrn_ambient_temperature 100
#These two values have been output from a single CSD field.
_refine_ls_R_factor_gt 0.0371
_refine_ls_wR_factor_gt 0.0371
_symmetry_cell_setting triclinic
_symmetry_space_group_name_H-M 'P -1'
_symmetry_Int_Tables_number 2
loop_
_symmetry_equiv_pos_site_id
_symmetry_equiv_pos_as_xyz
1 x,y,z
2 -x,-y,-z
_cell_length_a 7.2150(2)
_cell_length_b 12.5739(4)
_cell_length_c 13.1379(4)
_cell_angle_alpha 70.358(1)
_cell_angle_beta 86.908(1)
_cell_angle_gamma 85.384(1)
_cell_formula_units_Z 2
loop_
_atom_type_symbol
_atom_type_radius_bond
C 0.68
H 0.23
N 0.68
O 0.68
loop_
_atom_site_label
_atom_site_type_symbol
_atom_site_fract_x
_atom_site_fract_y
_atom_site_fract_z
C1 C 0.5163(2) 0.65801(13) 0.54833(12)
H1 H 0.47740 0.58320 0.59560
H2 H 0.49510 0.66480 0.47250
C2 C 0.3997(2) 0.75066(13) 0.57668(12)
H3 H 0.26620 0.73980 0.57320
H4 H 0.42650 0.82520 0.52330
C3 C 0.4416(2) 0.74918(12) 0.69025(12)
H5 H 0.37770 0.81900 0.69960
C4 C 0.65190(19) 0.75253(12) 0.70700(11)
H6 H 0.66470 0.72560 0.78720
C5 C 0.7723(2) 0.66334(12) 0.66862(11)
H7 H 0.90190 0.68870 0.65790
C6 C 0.3619(2) 0.64755(14) 0.77786(13)
H8 H 0.22870 0.64700 0.76700
H9 H 0.38000 0.65320 0.84920
H10 H 0.42610 0.57750 0.77340
C7 C 0.7341(2) 0.87187(12) 0.66633(11)
C8 C 0.7791(2) 0.91701(13) 0.54452(12)
H11 H 0.82500 0.99280 0.52520
H12 H 0.66640 0.92090 0.50460
H13 H 0.87470 0.86620 0.52590
C9 C 0.5999(2) 0.95873(13) 0.69578(12)
H14 H 0.56370 0.92880 0.77260
H15 H 0.48880 0.97370 0.65210
H16 H 0.66130 1.02920 0.68150
C10 C 0.9141(2) 0.86408(13) 0.72682(13)
H17 H 1.00440 0.80910 0.71060
H18 H 0.88640 0.83970 0.80480
H19 H 0.96610 0.93840 0.70360
C11 C 0.78392(19) 0.54394(12) 0.75150(11)
C12 C 0.8260(2) 0.53121(12) 0.85963(11)
H20 H 0.84320 0.59650 0.87810
C13 C 0.8422(2) 0.42715(12) 0.93724(12)
H21 H 0.86850 0.42130 1.00910
C14 C 0.82050(19) 0.32766(12) 0.91256(12)
C15 C 0.8377(2) 0.21808(13) 0.99140(12)
H22 H 0.85890 0.21020 1.06440
C16 C 0.8243(2) 0.12407(13) 0.96332(13)
H23 H 0.83550 0.05110 1.01680
C17 C 0.7936(2) 0.13480(13) 0.85520(13)
H24 H 0.78630 0.06880 0.83610
C18 C 0.7742(2) 0.23907(13) 0.77750(13)
H25 H 0.75310 0.24490 0.70500
C19 C 0.78532(19) 0.33862(12) 0.80398(12)
C20 C 0.76705(19) 0.44857(12) 0.72554(11)
H26 H 0.74240 0.45610 0.65310
C21 C 0.8479(2) 0.66456(12) 0.48560(11)
C22 C 0.78592(19) 0.68843(12) 0.37187(11)
C23 C 0.7323(2) 0.79971(13) 0.31062(12)
H27 H 0.72240 0.85660 0.34360
C24 C 0.6934(2) 0.82820(13) 0.20249(12)
H28 H 0.65750 0.90400 0.16040
C25 C 0.70829(19) 0.74296(13) 0.15751(11)
C26 C 0.7581(2) 0.63191(12) 0.21618(12)
H29 H 0.76510 0.57520 0.18300
C27 C 0.79776(19) 0.60437(12) 0.32448(12)
H30 H 0.83290 0.52830 0.36620
N1 N 0.71499(16) 0.66567(10) 0.56184(9)
N2 N 0.67218(17) 0.77290(11) 0.04168(10)
O1 O 1.01568(14) 0.65265(9) 0.50307(8)
O2 O 0.67230(18) 0.6958(1) 0.00399(9)
O3 O 0.64491(17) 0.87322(10) -0.01183(9)
#END
