
#######################################################################
#
#                 Cambridge Crystallographic Data Centre
#                                CCDC
#
#######################################################################
#
# If this CIF has been generated from an entry in the Cambridge
# Structural Database, then it will include bibliographic, chemical,
# crystal, experimental, refinement or atomic coordinate data resulting
# from the CCDC's data processing and validation procedures.
#
#######################################################################

data_CSD_CIF_XUGKOB
_audit_creation_date 2015-04-07
_audit_creation_method CSD-ConQuest-V1
_database_code_CSD XUGKOB
_database_code_depnum_ccdc_archive 'CCDC 1045399'
_chemical_formula_sum 'C11 H16 N2 O1'
_chemical_formula_moiety
;
C11 H16 N2 O1
;
_journal_coden_Cambridge 1135
_journal_volume 25
_journal_year 2015
_journal_page_first 93
_journal_name_full 'Mendeleev Commun. '
loop_
_publ_author_name
"S.N.Bizyaev"
"Y.V.Gatilov"
"A.V.Tkachev"
_chemical_name_systematic
;
(1S,3S,6R,E)-4-Hydroxyimino-3,7,7-trimethylbicyclo[4.1.0]heptane-3-carbonitril
e
;
_chemical_name_common
;
(1S,3S,6R)-3-Cyanocaran-4-one E-oxime
;
_chemical_melting_point 342.05
_cell_volume   1114.176
_exptl_crystal_colour 'colorless'
_exptl_crystal_density_diffrn 1.146
_exptl_special_details
;
Melting point range 342.05-342.75K

;
_exptl_crystal_description 'plate'
_exptl_crystal_preparation 'light petroleum'
_diffrn_ambient_temperature 296
#These two values have been output from a single CSD field.
_refine_ls_R_factor_gt 0.0453
_refine_ls_wR_factor_gt 0.0453
_symmetry_cell_setting monoclinic
_symmetry_space_group_name_H-M 'P 21'
_symmetry_Int_Tables_number 4
loop_
_symmetry_equiv_pos_site_id
_symmetry_equiv_pos_as_xyz
1 x,y,z
2 -x,1/2+y,-z
_cell_length_a 9.5005(4)
_cell_length_b 11.4976(4)
_cell_length_c 10.2862(4)
_cell_angle_alpha 90
_cell_angle_beta 97.423(2)
_cell_angle_gamma 90
_cell_formula_units_Z 4
loop_
_atom_type_symbol
_atom_type_radius_bond
C 0.68
H 0.23
N 0.68
O 0.68
loop_
_atom_site_label
_atom_site_type_symbol
_atom_site_fract_x
_atom_site_fract_y
_atom_site_fract_z
O1 O 0.91389(19) 0.28456(19) 0.20570(15)
H1 H 0.837(2) 0.259(2) 0.179(2)
C1 C 1.2273(2) 0.40856(19) 0.59086(18)
H2 H 1.23570 0.35660 0.66700
N1 N 0.8753(3) 0.2817(3) 0.6571(2)
N2 N 0.88674(17) 0.33915(17) 0.32194(15)
C2 C 1.1095(2) 0.4955(2) 0.5836(2)
H3 H 1.13520 0.56370 0.53620
H4 H 1.09650 0.51970 0.67160
C3 C 0.9680(2) 0.44521(17) 0.51413(19)
C4 C 0.99370(19) 0.38847(17) 0.38454(17)
C5 C 1.1414(2) 0.3926(3) 0.34738(19)
H5 H 1.16410 0.47140 0.32390
H6 H 1.14730 0.34300 0.27200
C6 C 1.2464(2) 0.35170(19) 0.46169(19)
H7 H 1.26530 0.26790 0.46530
C7 C 1.3617(2) 0.42750(19) 0.53059(19)
C8 C 1.3971(3) 0.5435(3) 0.4771(3)
H8 H 1.47290 0.57860 0.53470
H9 H 1.31500 0.59290 0.47050
H10 H 1.42610 0.53350 0.39180
C9 C 1.4912(3) 0.3625(3) 0.5942(3)
H11 H 1.55920 0.41690 0.63590
H12 H 1.53270 0.31980 0.52860
H13 H 1.46370 0.30950 0.65860
C10 C 0.8556(3) 0.5418(3) 0.4920(3)
H14 H 0.76800 0.50970 0.45010
H15 H 0.88770 0.60120 0.43730
H16 H 0.84080 0.57490 0.57490
C11 C 0.9162(2) 0.3537(2) 0.59655(19)
O2 O 0.40881(18) 0.79867(15) 0.72176(15)
H17 H 0.322(3) 0.822(3) 0.688(3)
C12 C 0.7097(2) 0.52495(15) 1.01392(19)
H18 H 0.70690 0.43980 1.01640
N3 N 0.3641(3) 0.4059(2) 0.9214(2)
N4 N 0.37819(17) 0.73192(14) 0.83020(15)
C13 C 0.60813(19) 0.58645(17) 1.09202(17)
H19 H 0.64880 0.66030 1.12330
H20 H 0.59410 0.53970 1.16780
C14 C 0.46281(18) 0.60816(15) 1.00809(17)
C15 C 0.48643(18) 0.68023(15) 0.88691(15)
C16 C 0.63256(19) 0.6856(2) 0.84532(18)
H21 H 0.62350 0.69650 0.75110
H22 H 0.68210 0.75260 0.88610
C17 C 0.72023(19) 0.57836(17) 0.88076(17)
H23 H 0.72400 0.52260 0.80920
C18 C 0.84745(18) 0.57739(17) 0.98532(18)
C19 C 0.9043(2) 0.68794(19) 1.0503(2)
H24 H 0.98480 0.67040 1.11360
H25 H 0.83180 0.72410 1.09340
H26 H 0.93250 0.73990 0.98530
C20 C 0.9647(2) 0.4928(2) 0.9629(3)
H27 H 1.04040 0.49840 1.03410
H28 H 1.00010 0.51150 0.88220
H29 H 0.92770 0.41500 0.95840
C21 C 0.3571(2) 0.6654(2) 1.0898(2)
H30 H 0.26820 0.67760 1.03560
H31 H 0.39430 0.73870 1.12290
H32 H 0.34280 0.61550 1.16180
C22 C 0.4067(2) 0.49374(19) 0.9591(2)
#END
