
#######################################################################
#
#                 Cambridge Crystallographic Data Centre
#                                CCDC
#
#######################################################################
#
# If this CIF has been generated from an entry in the Cambridge
# Structural Database, then it will include bibliographic, chemical,
# crystal, experimental, refinement or atomic coordinate data resulting
# from the CCDC's data processing and validation procedures.
#
#######################################################################

data_CSD_CIF_XUGNES
_audit_creation_date 2002-12-18
_audit_creation_method CSD-ConQuest-V1
_database_code_CSD XUGNES
_database_code_depnum_ccdc_archive 'CCDC 197344'
_chemical_formula_sum 'C12 H9 N3 O3'
_chemical_formula_moiety
;
C12 H9 N3 O3
;
_journal_coeditor_code "IUCr GG1133"
_journal_coden_Cambridge 591
_journal_volume 58
_journal_year 2002
_journal_page_first o624
_journal_name_full 'Acta Crystallogr.,Sect.C:Cryst.Struct.Commun. '
loop_
_publ_author_name
"Xinjiang Huang"
"G.H.Kuhn"
"V.N.Nesterov"
"B.B.Averkiev"
"B.Penn"
"M.Yu.Antipin"
"T.V.Timofeeva"
_chemical_name_systematic
;
(E)-1-(4-Hydroxyphenyl)-2-(4-nitrophenyl)diazene
;
_chemical_melting_point 486
_cell_volume   2146.562
_exptl_crystal_colour 'yellow'
_exptl_crystal_density_diffrn 1.505
_exptl_crystal_description 'plate'
_exptl_crystal_preparation 'ethanol'
_diffrn_ambient_temperature 110
#These two values have been output from a single CSD field.
_refine_ls_R_factor_gt 0.055
_refine_ls_wR_factor_gt 0.055
_symmetry_cell_setting triclinic
_symmetry_space_group_name_H-M 'P -1'
_symmetry_Int_Tables_number 2
loop_
_symmetry_equiv_pos_site_id
_symmetry_equiv_pos_as_xyz
1 x,y,z
2 -x,-y,-z
_cell_length_a 7.290(4)
_cell_length_b 10.648(6)
_cell_length_c 28.353(16)
_cell_angle_alpha 93.685(10)
_cell_angle_beta 94.922(11)
_cell_angle_gamma 100.811(10)
_cell_formula_units_Z 8
loop_
_atom_type_symbol
_atom_type_radius_bond
C 0.68
H 0.23
N 0.68
O 0.68
loop_
_atom_site_label
_atom_site_type_symbol
_atom_site_fract_x
_atom_site_fract_y
_atom_site_fract_z
O1 O 0.0637(2) 0.49990(12) 0.23558(4)
H1 H -0.03050 0.45790 0.21850
O2 O 0.0480(2) 0.23444(12) 0.65306(5)
O3 O 0.2984(2) 0.37848(14) 0.67052(5)
N1 N 0.1713(2) 0.31876(14) 0.64195(5)
N2 N 0.1735(2) 0.44213(13) 0.45204(5)
N3 N 0.0589(2) 0.36998(13) 0.42149(5)
C1 C 0.1656(2) 0.34923(15) 0.59218(6)
C2 C 0.0250(2) 0.27990(15) 0.55950(6)
H2 H -0.06770 0.21390 0.56900
C3 C 0.0230(2) 0.30914(16) 0.51268(6)
H3 H -0.07210 0.26310 0.48960
C4 C 0.1604(2) 0.40613(15) 0.49923(6)
C5 C 0.2970(2) 0.47610(16) 0.53331(6)
H4 H 0.38770 0.54440 0.52430
C6 C 0.3012(2) 0.44666(16) 0.57998(6)
H5 H 0.39560 0.49270 0.60320
C7 C 0.0682(2) 0.40578(16) 0.37445(6)
C8 C -0.0566(2) 0.32882(16) 0.33966(6)
H6 H -0.13900 0.25550 0.34820
C9 C -0.0620(3) 0.35770(17) 0.29293(6)
H7 H -0.14790 0.30480 0.26940
C10 C 0.0591(3) 0.46460(17) 0.28055(6)
C11 C 0.1864(3) 0.54063(17) 0.31486(6)
H8 H 0.27100 0.61250 0.30600
C12 C 0.1909(3) 0.51272(16) 0.36155(6)
H9 H 0.27710 0.56580 0.38500
O4 O 0.09328(19) 0.13282(12) 0.74147(4)
H10 H 0.11180 0.19380 0.72400
O5 O 0.83062(18) 0.42569(11) 1.15294(4)
O6 O 0.7259(2) 0.23105(12) 1.16776(4)
N4 N 0.7416(2) 0.31699(13) 1.14099(5)
N5 N 0.40260(19) 0.19248(13) 0.95398(5)
N6 N 0.42434(19) 0.27785(13) 0.92494(5)
C13 C 0.6539(2) 0.28942(15) 1.09206(6)
C14 C 0.6722(2) 0.38609(15) 1.06129(6)
H11 H 0.73920 0.47010 1.07160
C15 C 0.5903(2) 0.35657(15) 1.01511(6)
H12 H 0.60230 0.42060 0.99310
C16 C 0.4901(2) 0.23332(15) 1.00069(6)
C17 C 0.4724(2) 0.13947(15) 1.03265(6)
H13 H 0.40220 0.05600 1.02290
C18 C 0.5564(2) 0.16702(15) 1.07855(6)
H14 H 0.54710 0.10270 1.10040
C19 C 0.3386(2) 0.23651(15) 0.87840(6)
C20 C 0.3606(2) 0.32641(16) 0.84480(6)
H15 H 0.43130 0.41020 0.85370
C21 C 0.2808(2) 0.29516(16) 0.79858(6)
H16 H 0.29570 0.35710 0.77580
C22 C 0.1785(2) 0.17226(16) 0.78575(6)
C23 C 0.1595(2) 0.08048(16) 0.81882(6)
H17 H 0.09260 -0.00420 0.80950
C24 C 0.2372(2) 0.11226(16) 0.86492(6)
H18 H 0.22220 0.05010 0.88760
O7 O 0.68874(18) 0.99896(12) 0.34847(4)
H19 H 0.61050 0.95330 0.32780
O8 O 0.53167(19) 0.65258(13) 0.75292(5)
O9 O 0.78189(19) 0.79158(12) 0.77738(4)
N7 N 0.6586(2) 0.73978(14) 0.74582(5)
N8 N 0.7027(2) 0.90688(13) 0.56232(5)
N9 N 0.5955(2) 0.84019(13) 0.52913(5)
C25 C 0.6661(2) 0.78405(16) 0.69812(6)
C26 C 0.5330(2) 0.72046(15) 0.66252(6)
H20 H 0.43910 0.65080 0.66910
C27 C 0.5396(2) 0.76056(16) 0.61732(6)
H21 H 0.44860 0.71900 0.59240
C28 C 0.6794(2) 0.86190(15) 0.60802(6)
C29 C 0.8083(2) 0.92530(16) 0.64476(6)
H22 H 0.90140 0.99590 0.63850
C30 C 0.8025(2) 0.88667(16) 0.69025(6)
H23 H 0.89040 0.92980 0.71550
C31 C 0.6225(2) 0.88454(15) 0.48366(6)
C32 C 0.5019(2) 0.81909(16) 0.44566(6)
H24 H 0.40710 0.74860 0.45100
C33 C 0.5188(2) 0.85594(16) 0.39991(6)
H25 H 0.43460 0.81170 0.37420
C34 C 0.6593(3) 0.95760(16) 0.39189(6)
C35 C 0.7805(2) 1.02350(16) 0.43001(6)
H26 H 0.87620 1.09340 0.42460
C36 C 0.7622(2) 0.98780(16) 0.47530(6)
H27 H 0.84470 1.03350 0.50110
O10 O -0.27924(18) 0.62093(12) -0.14721(4)
H28 H -0.25640 0.67430 -0.16750
O11 O 0.52516(18) 1.02984(12) 0.24777(4)
O12 O 0.4248(2) 0.84703(13) 0.27445(4)
N10 N 0.4331(2) 0.92001(14) 0.24240(5)
N11 N 0.06133(19) 0.73462(13) 0.06276(5)
N12 N 0.07701(19) 0.81176(13) 0.03072(5)
C37 C 0.3314(2) 0.87379(16) 0.19604(6)
C38 C 0.3369(2) 0.95936(16) 0.16096(6)
H29 H 0.40080 1.04590 0.16740
C39 C 0.2473(2) 0.91523(15) 0.11663(6)
H30 H 0.24910 0.97160 0.09200
C40 C 0.1539(2) 0.78815(15) 0.10784(6)
C41 C 0.1480(2) 0.70543(15) 0.14368(6)
H31 H 0.08210 0.61930 0.13760
C42 C 0.2385(2) 0.74848(16) 0.18852(6)
H32 H 0.23620 0.69260 0.21340
C43 C -0.0135(2) 0.75893(15) -0.01440(6)
C44 C -0.0038(2) 0.84056(15) -0.05084(6)
H33 H 0.06120 0.92690 -0.04480
C45 C -0.0889(2) 0.79619(16) -0.09601(6)
H34 H -0.08020 0.85160 -0.12100
C46 C -0.1868(2) 0.67081(16) -0.10459(6)
C47 C -0.1945(2) 0.58811(16) -0.06830(6)
H35 H -0.25900 0.50160 -0.07440
C48 C -0.1088(2) 0.63200(15) -0.02368(6)
H36 H -0.11440 0.57560 0.00100
#END
