
#######################################################################
#
#                 Cambridge Crystallographic Data Centre
#                                CCDC
#
#######################################################################
#
# If this CIF has been generated from an entry in the Cambridge
# Structural Database, then it will include bibliographic, chemical,
# crystal, experimental, refinement or atomic coordinate data resulting
# from the CCDC's data processing and validation procedures.
#
#######################################################################

data_CSD_CIF_XUGXAA
_audit_creation_date 2015-04-07
_audit_creation_method CSD-ConQuest-V1
_database_code_CSD XUGXAA
_database_code_depnum_ccdc_archive 'CCDC 998485'
_chemical_formula_sum 'C34 H37 N1 O8'
_chemical_formula_moiety
;
C34 H37 N1 O8
;
_journal_coden_Cambridge 1500
_journal_volume 5
_journal_year 2015
_journal_page_first 31700
_journal_name_full 'RSC Advances '
loop_
_publ_author_name
"Xiang Yu"
"Danfeng Shi"
"Xiaoyan Zhi"
"Qin Li"
"Xiaojun Yao"
"Hui Xu"
_chemical_name_systematic
;
8-(3-furyl)-1,1,5a,7a,11b-pentamethyl-12-(((3-methylbenzoyl)oxy)imino)-5a,5b,6
,7,7a,8,11b,12,13,13a-decahydrooxireno[4,4a]isochromeno[6,5-g][2]benzoxepine-3
,10(1H,10aH)-dione
;
_cell_volume   3026.534
_exptl_crystal_colour 'light colorless'
_exptl_crystal_density_diffrn 1.29
_exptl_crystal_description 'block'
_diffrn_ambient_temperature 293
_refine_special_details
;
C19,C20,C21,O4 and C19B,C20B,C21B,O20B disordered over two sites with 
occupancies 0.60:0.40.
;
#These two values have been output from a single CSD field.
_refine_ls_R_factor_gt 0.0603
_refine_ls_wR_factor_gt 0.0603
_symmetry_cell_setting orthorhombic
_symmetry_space_group_name_H-M 'P 21 21 21'
_symmetry_Int_Tables_number 19
loop_
_symmetry_equiv_pos_site_id
_symmetry_equiv_pos_as_xyz
1 x,y,z
2 1/2-x,-y,1/2+z
3 1/2+x,1/2-y,-z
4 -x,1/2+y,1/2-z
_cell_length_a 10.7476(9)
_cell_length_b 14.2825(12)
_cell_length_c 19.7165(17)
_cell_angle_alpha 90
_cell_angle_beta 90
_cell_angle_gamma 90
_cell_formula_units_Z 4
loop_
_atom_type_symbol
_atom_type_radius_bond
C 0.68
H 0.23
N 0.68
O 0.68
loop_
_atom_site_label
_atom_site_type_symbol
_atom_site_fract_x
_atom_site_fract_y
_atom_site_fract_z
O1 O -0.4118(3) -0.62665(18) -0.51758(13)
O2 O -0.2916(3) -0.7394(2) -0.41402(15)
O3 O -0.1303(3) -0.6478(2) -0.43177(17)
O4 O -0.4121(8) -0.9504(6) -0.2979(5)
O5 O -1.0886(3) -0.2791(2) -0.41915(18)
O6 O -0.8883(3) -0.25373(19) -0.42280(16)
O7 O -0.3463(3) -0.36628(18) -0.33272(15)
O8 O -0.2383(3) -0.4779(2) -0.27611(18)
N1 N -0.3839(3) -0.4423(2) -0.37604(17)
C1 C -0.7545(4) -0.4283(3) -0.4380(2)
C2 C -0.9666(4) -0.4047(3) -0.3829(2)
H1 H -1.02670 -0.43030 -0.35440
C3 C -0.6643(3) -0.5143(2) -0.4339(2)
H2 H -0.65580 -0.52680 -0.38520
C4 C -0.8699(4) -0.4575(3) -0.3989(2)
H3 H -0.87290 -0.51950 -0.38460
C5 C -0.3224(4) -0.5902(3) -0.4699(2)
H4 H -0.28460 -0.52970 -0.48090
C6 C -0.5032(4) -0.6682(2) -0.40714(19)
C7 C -0.4557(4) -0.5897(3) -0.45288(18)
C8 C -0.5283(4) -0.4961(3) -0.45882(19)
C9 C -0.4794(4) -0.4212(3) -0.4112(2)
C10 C -0.5538(4) -0.3311(3) -0.4101(2)
H5 H -0.54690 -0.30050 -0.45390
H6 H -0.51940 -0.28940 -0.37610
C11 C -0.6935(4) -0.3496(3) -0.3941(2)
H7 H -0.69350 -0.37470 -0.34780
C12 C -0.6420(4) -0.6885(3) -0.4256(2)
H8 H -0.64560 -0.74460 -0.45320
H9 H -0.68780 -0.70080 -0.38420
C13 C -0.9857(5) -0.3082(3) -0.4070(2)
C14 C -0.7069(4) -0.6078(3) -0.4643(2)
H10 H -0.68530 -0.61040 -0.51200
H11 H -0.79650 -0.61370 -0.46020
C15 C -0.7653(4) -0.2547(3) -0.3885(3)
C16 C -0.4253(4) -0.7566(3) -0.4234(2)
H12 H -0.43950 -0.77350 -0.47090
C17 C -0.2411(4) -0.6605(3) -0.4374(2)
C18 C -0.4521(5) -0.8412(3) -0.3802(3)
C19 C -0.5552(12) -0.8980(8) -0.3709(6)
H13 H -0.63100 -0.89080 -0.39310
C20 C -0.5293(15) -0.9657(10) -0.3245(6)
H14 H -0.58210 -1.01450 -0.31250
C21 C -0.3627(10) -0.8766(8) -0.3316(7)
H15 H -0.28340 -0.85230 -0.32460
C22 C -0.7903(4) -0.4014(3) -0.5113(2)
H16 H -0.73330 -0.35510 -0.52800
H17 H -0.87330 -0.37650 -0.51180
H18 H -0.78660 -0.45600 -0.53970
C23 C -0.5176(4) -0.4609(3) -0.5324(2)
H19 H -0.54810 -0.39780 -0.53510
H20 H -0.56610 -0.50040 -0.56160
H21 H -0.43210 -0.46260 -0.54640
C24 C -0.4884(4) -0.6427(3) -0.33096(19)
H22 H -0.40210 -0.63210 -0.32100
H23 H -0.51890 -0.69330 -0.30350
H24 H -0.53510 -0.58700 -0.32120
C25 C -0.7887(6) -0.2307(4) -0.3136(3)
H25 H -0.83080 -0.17160 -0.31060
H26 H -0.71060 -0.22700 -0.29010
H27 H -0.83920 -0.27860 -0.29340
C26 C -0.7034(6) -0.1729(4) -0.4250(5)
C27 C -0.2596(4) -0.3972(3) -0.2861(2)
C28 C -0.1963(4) -0.3177(3) -0.2524(2)
C29 C -0.2003(4) -0.2273(3) -0.2784(2)
H28 H -0.25230 -0.21420 -0.31490
C30 C -0.1278(4) -0.1561(3) -0.2509(2)
C31 C -0.0523(4) -0.1783(3) -0.1966(2)
H29 H -0.00130 -0.13220 -0.17840
C32 C -0.0499(5) -0.2673(3) -0.1684(2)
H30 H -0.00010 -0.27990 -0.13090
C33 C -0.1225(4) -0.3372(3) -0.1966(2)
H31 H -0.12180 -0.39710 -0.17810
C34 C -0.1263(6) -0.0590(3) -0.2818(2)
H32 H -0.14020 -0.06360 -0.32980
H33 H -0.04700 -0.03020 -0.27360
H34 H -0.19070 -0.02170 -0.26170
H35 H -0.624(2) -0.158(4) -0.408(3)
H36 H -0.754(4) -0.120(2) -0.418(3)
H37 H -0.693(7) -0.191(4) -0.4705(12)
O9? O -0.5385(15) -0.9826(10) -0.3655(8)
C35? C -0.4261(18) -0.8688(13) -0.3212(11)
H38? H -0.37960 -0.83370 -0.29060
C36? C -0.473(2) -0.9560(15) -0.3065(15)
H39? H -0.46430 -0.98990 -0.26650
C37? C -0.5279(15) -0.9136(10) -0.4107(9)
H40? H -0.56280 -0.91230 -0.45390
#END
