
#######################################################################
#
#                 Cambridge Crystallographic Data Centre
#                                CCDC
#
#######################################################################
#
# If this CIF has been generated from an entry in the Cambridge
# Structural Database, then it will include bibliographic, chemical,
# crystal, experimental, refinement or atomic coordinate data resulting
# from the CCDC's data processing and validation procedures.
#
#######################################################################

data_CSD_CIF_XUHREX
_audit_creation_date 2002-12-18
_audit_creation_method CSD-ConQuest-V1
_database_code_CSD XUHREX
_database_code_depnum_ccdc_archive 'CCDC 187049'
_chemical_formula_sum 'C8 H7 N3 O4'
_chemical_formula_moiety
;
C8 H7 N3 O4
;
_journal_coden_Cambridge 692
_journal_volume 2002
_journal_year 2002
_journal_page_first 2013
_journal_name_full 'Synthesis '
loop_
_publ_author_name
"Mao-Xi Zhang"
"P.E.Eaton"
"I.Steele"
"R.Gilardi"
_chemical_name_systematic
;
5-(5-Nitroisoxazolyl)-3-vinyl-4,5-dihydroisoxazole
;
_chemical_melting_point 357.15
_cell_volume    907.938
_exptl_crystal_colour 'white'
_exptl_crystal_density_diffrn 1.53
_exptl_special_details
;
Melting point range 357.15-358.15K

;
_exptl_crystal_description 'plate'
_exptl_crystal_preparation 'diethyl ether'
_diffrn_ambient_temperature 100
#These two values have been output from a single CSD field.
_refine_ls_R_factor_gt 0.0608
_refine_ls_wR_factor_gt 0.0608
_symmetry_cell_setting monoclinic
_symmetry_space_group_name_H-M 'P 21/n'
_symmetry_Int_Tables_number 14
loop_
_symmetry_equiv_pos_site_id
_symmetry_equiv_pos_as_xyz
1 x,y,z
2 1/2-x,1/2+y,1/2-z
3 -x,-y,-z
4 -1/2+x,-1/2-y,-1/2+z
_cell_length_a 5.5716(12)
_cell_length_b 14.765(3)
_cell_length_c 11.296(3)
_cell_angle_alpha 90
_cell_angle_beta 102.298(4)
_cell_angle_gamma 90
_cell_formula_units_Z 4
loop_
_atom_type_symbol
_atom_type_radius_bond
C 0.68
H 0.23
N 0.68
O 0.68
loop_
_atom_site_label
_atom_site_type_symbol
_atom_site_fract_x
_atom_site_fract_y
_atom_site_fract_z
C1 C 0.3000(4) 0.65035(17) 0.4497(2)
C2 C 0.4477(4) 0.61378(17) 0.5461(2)
H1 H 0.62210 0.61320 0.56640
C3 C 0.2799(4) 0.57593(17) 0.6112(2)
C4 C 0.3333(5) 0.52557(18) 0.7284(3)
H2 H 0.20490 0.47830 0.72840
C5 C 0.3544(5) 0.58588(18) 0.8388(2)
H3 H 0.32030 0.65000 0.81550
H4 H 0.24240 0.56600 0.89090
C6 C 0.6186(5) 0.57202(17) 0.8999(2)
C7 C 0.7412(5) 0.61452(18) 1.0131(3)
H5 H 0.91130 0.60320 1.04250
C8 C 0.6269(6) 0.66787(19) 1.0763(3)
H6 H 0.45680 0.68020 1.04860
H7 H 0.71440 0.69410 1.14970
N1 N 0.3504(4) 0.70095(15) 0.3490(2)
N2 N 0.0523(4) 0.59069(16) 0.5560(2)
N3 N 0.7337(4) 0.51649(15) 0.8448(2)
O1 O 0.5666(4) 0.71925(13) 0.35493(19)
O2 O 0.1792(4) 0.72201(14) 0.26709(19)
O3 O 0.0617(3) 0.63883(12) 0.44952(17)
O4 O 0.5744(3) 0.48273(13) 0.74047(18)
#END
