
#######################################################################
#
#                 Cambridge Crystallographic Data Centre
#                                CCDC
#
#######################################################################
#
# If this CIF has been generated from an entry in the Cambridge
# Structural Database, then it will include bibliographic, chemical,
# crystal, experimental, refinement or atomic coordinate data resulting
# from the CCDC's data processing and validation procedures.
#
#######################################################################

data_CSD_CIF_XUJQOI
_audit_creation_date 2002-12-18
_audit_creation_method CSD-ConQuest-V1
_database_code_CSD XUJQOI
_database_code_depnum_ccdc_archive 'CCDC 197003'
_database_code_depnum_ccdc_journal 1267/821
_chemical_formula_sum 'C16 H21 N1 O4'
_chemical_formula_moiety
;
C16 H21 N1 O4
;
_journal_coden_Cambridge 1267
_journal_volume 217
_journal_year 2002
_journal_page_first 283
_journal_name_full 'Z.Kristallogr.-New Cryst.Struct. '
loop_
_publ_author_name
"Z.Gultekin"
"W.Frey"
"V.Jager"
_chemical_name_systematic
;
(1S,2R,3S,4S,5R)-7-Benzyl-2,3-O-isopropylidene-6-oxa-7-aza-bicyclo[3.2.1]octan
-2,3,4-triol
;
_chemical_melting_point 399
_cell_volume   1518.439
_exptl_crystal_colour 'colorless'
_exptl_crystal_density_diffrn 1.274
_exptl_crystal_description 'plates'
_exptl_crystal_preparation 'ethyl acetate'
_diffrn_ambient_temperature 293
#These two values have been output from a single CSD field.
_refine_ls_R_factor_gt 0.055
_refine_ls_wR_factor_gt 0.055
_symmetry_cell_setting monoclinic
_symmetry_space_group_name_H-M 'C 2'
_symmetry_Int_Tables_number 5
loop_
_symmetry_equiv_pos_site_id
_symmetry_equiv_pos_as_xyz
1 x,y,z
2 -x,y,-z
3 1/2+x,1/2+y,z
4 1/2-x,1/2+y,-z
_cell_length_a 21.1727(8)
_cell_length_b 5.5793(3)
_cell_length_c 12.8757(6)
_cell_angle_alpha 90
_cell_angle_beta 93.320(4)
_cell_angle_gamma 90
_cell_formula_units_Z 4
loop_
_atom_type_symbol
_atom_type_radius_bond
C 0.68
H 0.23
N 0.68
O 0.68
loop_
_atom_site_label
_atom_site_type_symbol
_atom_site_fract_x
_atom_site_fract_y
_atom_site_fract_z
O1 O 0.70419(13) 0.2956(6) 0.08395(19)
N1 N 0.71962(14) 0.3623(7) 0.1937(2)
C1 C 0.6653(2) 0.4813(9) 0.0370(3)
H1 H 0.67510 0.50290 -0.03590
O2 O 0.57788(19) 0.2257(9) -0.0209(3)
H2 H 0.54730 0.26310 -0.05940
C2 C 0.6819(2) 0.7052(10) 0.0983(3)
H3 H 0.64920 0.82670 0.09030
H4 H 0.72220 0.77200 0.08120
O3 O 0.57961(11) 0.7214(6) 0.24575(19)
C3 C 0.68465(16) 0.5902(9) 0.2062(3)
H5 H 0.70580 0.69420 0.25880
O4 O 0.51761(12) 0.4200(6) 0.1765(2)
C4 C 0.61991(15) 0.5161(9) 0.2363(3)
H6 H 0.62350 0.43020 0.30270
C5 C 0.58278(15) 0.3657(8) 0.1565(3)
H7 H 0.59110 0.19550 0.17020
C6 C 0.59603(19) 0.4238(10) 0.0438(3)
H8 H 0.57100 0.56410 0.02130
C7 C 0.51557(17) 0.6375(9) 0.2385(3)
C8 C 0.4754(2) 0.821(1) 0.1821(4)
H9 H 0.43230 0.76730 0.17680
H10 H 0.49010 0.84410 0.11360
H11 H 0.47810 0.96970 0.21960
C9 C 0.4936(2) 0.5770(16) 0.3445(4)
H12 H 0.45060 0.52220 0.33800
H13 H 0.49620 0.71710 0.38780
H14 H 0.52000 0.45300 0.37530
C10 C 0.78862(16) 0.3937(12) 0.2016(3)
H15 H 0.80000 0.53700 0.16430
H16 H 0.80880 0.25760 0.17040
C11 C 0.81125(17) 0.4152(10) 0.3149(3)
C12 C 0.8487(2) 0.6039(11) 0.3487(4)
H17 H 0.85970 0.72070 0.30160
C13 C 0.8703(3) 0.6228(14) 0.4529(4)
H18 H 0.89540 0.75220 0.47500
C14 C 0.8548(3) 0.4525(14) 0.5213(4)
H19 H 0.86960 0.46360 0.59050
C15 C 0.8170(3) 0.2616(15) 0.4888(4)
H20 H 0.80610 0.14510 0.53620
C16 C 0.7956(2) 0.2445(12) 0.3867(4)
H21 H 0.77020 0.11570 0.36530
#END
