
#######################################################################
#
#                 Cambridge Crystallographic Data Centre
#                                CCDC
#
#######################################################################
#
# If this CIF has been generated from an entry in the Cambridge
# Structural Database, then it will include bibliographic, chemical,
# crystal, experimental, refinement or atomic coordinate data resulting
# from the CCDC's data processing and validation procedures.
#
#######################################################################

data_CSD_CIF_XUJQIC
_audit_creation_date 2002-12-18
_audit_creation_method CSD-ConQuest-V1
_database_code_CSD XUJQIC
_database_code_depnum_ccdc_archive 'CCDC 197002'
_database_code_depnum_ccdc_journal 1267/820
_chemical_formula_sum 'C9 H15 N1 O4'
_chemical_formula_moiety
;
C9 H15 N1 O4
;
_journal_coden_Cambridge 1267
_journal_volume 217
_journal_year 2002
_journal_page_first 279
_journal_name_full 'Z.Kristallogr.-New Cryst.Struct. '
loop_
_publ_author_name
"Z.Gultekin"
"W.Frey"
"V.Jager"
_chemical_name_systematic
;
(3aS,4R,5S,6R,6aS)-4,5,6-Trihydroxy-5,6-O-isopropylidene-3,3a,4,5,6,6a-hexahyd
ro-1H-cyclopent(c)isoxazole
;
_chemical_melting_point 405
_cell_volume    997.920
_exptl_crystal_colour 'colorless'
_exptl_crystal_density_diffrn 1.339
_exptl_special_details
;
Melting point range 405-406K

;
_exptl_crystal_description 'plates'
_exptl_crystal_preparation 'ethyl acetate'
_diffrn_ambient_temperature 293
#These two values have been output from a single CSD field.
_refine_ls_R_factor_gt 0.0451
_refine_ls_wR_factor_gt 0.0451
_symmetry_cell_setting orthorhombic
_symmetry_space_group_name_H-M 'P 21 21 2'
_symmetry_Int_Tables_number 18
loop_
_symmetry_equiv_pos_site_id
_symmetry_equiv_pos_as_xyz
1 x,y,z
2 -x,-y,z
3 1/2-x,1/2+y,-z
4 1/2+x,1/2-y,-z
_cell_length_a 8.8078(6)
_cell_length_b 21.2092(13)
_cell_length_c 5.3420(4)
_cell_angle_alpha 90
_cell_angle_beta 90
_cell_angle_gamma 90
_cell_formula_units_Z 4
loop_
_atom_type_symbol
_atom_type_radius_bond
C 0.68
H 0.23
N 0.68
O 0.68
loop_
_atom_site_label
_atom_site_type_symbol
_atom_site_fract_x
_atom_site_fract_y
_atom_site_fract_z
O1 O -0.1159(3) 0.75928(11) 0.9648(6)
N1 N -0.0464(3) 0.73673(12) 0.7338(7)
H1 H -0.123(4) 0.7107(17) 0.650(7)
C1 C -0.2305(4) 0.80325(17) 0.8848(9)
H2 H -0.25530 0.83240 1.01870
H3 H -0.32210 0.78120 0.83540
O2 O -0.1852(3) 0.93607(11) 0.8959(6)
H4 H -0.17780 0.97400 0.86890
C2 C -0.1621(4) 0.83838(15) 0.6624(7)
H5 H -0.23470 0.84180 0.52410
O3 O 0.1747(2) 0.93497(9) 0.7707(5)
C3 C -0.0257(4) 0.79505(14) 0.5924(8)
H6 H -0.02170 0.78700 0.41190
O4 O 0.1981(3) 0.85713(10) 0.4781(5)
C4 C 0.1165(4) 0.82923(13) 0.6835(7)
H7 H 0.18160 0.80170 0.78450
C5 C 0.0652(3) 0.88685(13) 0.8287(7)
H8 H 0.06150 0.87840 1.00890
C6 C -0.0915(4) 0.90246(13) 0.7257(8)
H9 H -0.08030 0.92710 0.57160
C7 C 0.2738(4) 0.91185(15) 0.5764(7)
C8 C 0.4249(4) 0.89456(19) 0.6918(11)
H10 H 0.47320 0.93190 0.75480
H11 H 0.48840 0.87540 0.56710
H12 H 0.40890 0.86540 0.82660
C9 C 0.2847(5) 0.96041(18) 0.3719(8)
H13 H 0.33550 0.99720 0.43460
H14 H 0.18450 0.97160 0.31690
H15 H 0.34110 0.94340 0.23380
#END
