
#######################################################################
#
#                 Cambridge Crystallographic Data Centre
#                                CCDC
#
#######################################################################
#
# If this CIF has been generated from an entry in the Cambridge
# Structural Database, then it will include bibliographic, chemical,
# crystal, experimental, refinement or atomic coordinate data resulting
# from the CCDC's data processing and validation procedures.
#
#######################################################################

data_CSD_CIF_XUJQEY
_audit_creation_date 2002-12-18
_audit_creation_method CSD-ConQuest-V1
_database_code_CSD XUJQEY
_database_code_depnum_ccdc_archive 'CCDC 197001'
_database_code_depnum_ccdc_journal 1267/819
_chemical_formula_sum 'C16 H21 N1 O4'
_chemical_formula_moiety
;
C16 H21 N1 O4
;
_journal_coden_Cambridge 1267
_journal_volume 217
_journal_year 2002
_journal_page_first 281
_journal_name_full 'Z.Kristallogr.-New Cryst.Struct. '
loop_
_publ_author_name
"Z.Gultekin"
"W.Frey"
"V.Jager"
_chemical_name_systematic
;
(3aS,4R,5S,6R,6aS)-1-Benzyl-4,5,6-trihydroxy-5,6-O-isopropylidene-3,3a,4,5,6,6
a-hexahydro-1H-cyclopent(c)isoxazole
;
_chemical_melting_point 366
_cell_volume   3059.352
_exptl_crystal_colour 'colorless'
_exptl_crystal_density_diffrn 1.265
_exptl_special_details
;
Melting point range 366-367K

;
_exptl_crystal_description 'plates'
_exptl_crystal_preparation 'ethyl acetate'
_diffrn_ambient_temperature 293
#These two values have been output from a single CSD field.
_refine_ls_R_factor_gt 0.068
_refine_ls_wR_factor_gt 0.068
_symmetry_cell_setting monoclinic
_symmetry_space_group_name_H-M 'C 2'
_symmetry_Int_Tables_number 5
loop_
_symmetry_equiv_pos_site_id
_symmetry_equiv_pos_as_xyz
1 x,y,z
2 -x,y,-z
3 1/2+x,1/2+y,z
4 1/2-x,1/2+y,-z
_cell_length_a 39.820(2)
_cell_length_b 5.3038(3)
_cell_length_c 15.4373(9)
_cell_angle_alpha 90
_cell_angle_beta 110.222(4)
_cell_angle_gamma 90
_cell_formula_units_Z 8
loop_
_atom_type_symbol
_atom_type_radius_bond
C 0.68
H 0.23
N 0.68
O 0.68
loop_
_atom_site_label
_atom_site_type_symbol
_atom_site_fract_x
_atom_site_fract_y
_atom_site_fract_z
O1 O 0.21743(11) 0.7750(9) 0.7344(2)
N1 N 0.23699(11) 0.5528(10) 0.7258(3)
C1 C 0.1827(2) 0.6935(16) 0.7302(4)
H1 H 0.1654(2) 0.8290(16) 0.7088(4)
H2 H 0.1831(2) 0.6391(16) 0.7905(4)
O2 O 0.12148(9) 0.7225(13) 0.5693(3)
H3 H 0.1016(3) 0.6746(93) 0.5362(51)
C2 C 0.17314(14) 0.4734(13) 0.6619(4)
H4 H 0.16375(14) 0.3300(13) 0.6864(4)
O3 O 0.20348(9) 0.3077(8) 0.4940(2)
C3 C 0.20956(13) 0.4101(12) 0.6530(3)
H5 H 0.21435(13) 0.2285(12) 0.6584(3)
C4 C 0.20788(11) 0.5114(11) 0.5583(3)
H6 H 0.22842(11) 0.6186(11) 0.5624(3)
O4 O 0.16001(9) 0.5888(9) 0.4202(2)
C5 C 0.17235(11) 0.6497(12) 0.5167(3)
H7 H 0.17552(11) 0.8321(12) 0.5263(3)
C6 C 0.14795(12) 0.5451(14) 0.5647(3)
H8 H 0.13605(12) 0.3931(14) 0.5323(3)
C7 C 0.18431(12) 0.4122(12) 0.4042(3)
C8 C 0.1640(2) 0.2028(16) 0.3433(4)
H9 H 0.1805(2) 0.0850(16) 0.3330(4)
H10 H 0.1489(2) 0.2710(16) 0.2853(4)
H11 H 0.1495(2) 0.1181(16) 0.3728(4)
C9 C 0.2094(2) 0.5464(17) 0.3659(4)
H12 H 0.2257(2) 0.4268(17) 0.3553(4)
H13 H 0.2227(2) 0.6713(17) 0.4093(4)
H14 H 0.1959(2) 0.6267(17) 0.3088(4)
C10 C 0.2488(2) 0.4180(13) 0.8139(3)
H15 H 0.2595(2) 0.2591(13) 0.8061(3)
H16 H 0.2282(2) 0.3803(13) 0.8311(3)
C11 C 0.27547(14) 0.5637(13) 0.8906(3)
C12 C 0.29410(15) 0.7688(15) 0.8751(4)
H17 H 0.29000(15) 0.8216(15) 0.8149(4)
C13 C 0.3187(2) 0.8971(16) 0.9474(4)
H18 H 0.3307(2) 1.0360(16) 0.9355(4)
C14 C 0.3255(2) 0.8207(20) 1.0362(4)
H19 H 0.3424(2) 0.9051(20) 1.0846(4)
C15 C 0.3076(2) 0.6217(20) 1.0533(4)
H20 H 0.3120(2) 0.5705(20) 1.1139(4)
C16 C 0.2827(2) 0.4933(17) 0.9815(3)
H21 H 0.2705(2) 0.3570(17) 0.9946(3)
O5 O -0.04485(9) 0.7381(7) 0.7741(2)
N2 N -0.03291(9) 0.5082(8) 0.8264(2)
C17 C -0.06860(12) 0.6651(12) 0.6836(3)
H22 H -0.06869(12) 0.7912(12) 0.6380(3)
H23 H -0.09283(12) 0.6436(12) 0.6833(3)
O6 O -0.05095(8) 0.5903(10) 0.5204(2)
H24 H -0.0429(14) 0.562(11) 0.4791(18)
C18 C -0.05361(11) 0.4143(10) 0.6633(3)
H25 H -0.07242(11) 0.2864(10) 0.6413(3)
O7 O 0.02959(8) 0.1946(8) 0.7387(2)
C19 C -0.02593(10) 0.3426(10) 0.7587(2)
H26 H -0.02723(10) 0.1638(10) 0.7733(2)
O8 O 0.03242(7) 0.4757(7) 0.6306(2)
C20 C 0.01049(11) 0.4133(10) 0.7518(3)
H27 H 0.02492(11) 0.5166(10) 0.8041(3)
C21 C 0.00317(10) 0.5466(11) 0.6596(2)
H28 H 0.00192(10) 0.7298(11) 0.6660(2)
C22 C -0.03246(10) 0.4390(11) 0.5990(2)
H29 H -0.02856(10) 0.2707(11) 0.5781(2)
C23 C 0.05271(12) 0.2821(12) 0.6923(3)
C24 C 0.0590(2) 0.0702(14) 0.6336(5)
H30 H 0.0746(2) 0.1281(14) 0.6022(5)
H31 H 0.0365(2) 0.0186(14) 0.5891(5)
H32 H 0.0699(2) -0.0702(14) 0.6724(5)
C25 C 0.08660(13) 0.3965(20) 0.7578(4)
H33 H 0.10133(13) 0.4527(20) 0.7238(4)
H34 H 0.09932(13) 0.2724(20) 0.8023(4)
H35 H 0.08074(13) 0.5372(20) 0.7890(4)
C26 C -0.06227(12) 0.4129(12) 0.8557(3)
H36 H -0.05431(12) 0.2637(12) 0.8936(3)
H37 H -0.08252(12) 0.3662(12) 0.8018(3)
C27 C -0.07363(12) 0.6116(12) 0.9098(3)
C28 C -0.0508(2) 0.6859(15) 0.9962(3)
H38 H -0.0287(2) 0.6078(15) 1.0224(3)
C29 C -0.0609(2) 0.8768(15) 1.0437(4)
H39 H -0.0454(2) 0.9268(15) 1.1015(4)
C30 C -0.0934(2) 0.9915(17) 1.0060(5)
H40 H -0.1001(2) 1.1178(17) 1.0386(5)
C31 C -0.1162(2) 0.9218(17) 0.9206(5)
H41 H -0.1382(2) 1.0012(17) 0.8947(5)
C32 C -0.10615(13) 0.7332(15) 0.8737(4)
H42 H -0.12176(13) 0.6859(15) 0.8157(4)
#END
