
#######################################################################
#
#                 Cambridge Crystallographic Data Centre
#                                CCDC
#
#######################################################################
#
# If this CIF has been generated from an entry in the Cambridge
# Structural Database, then it will include bibliographic, chemical,
# crystal, experimental, refinement or atomic coordinate data resulting
# from the CCDC's data processing and validation procedures.
#
#######################################################################

data_CSD_CIF_XUJZOS
_audit_creation_date 2010-03-26
_audit_creation_method CSD-ConQuest-V1
_database_code_CSD XUJZOS
_database_code_depnum_ccdc_archive 'CCDC 683365'
_chemical_formula_sum 'C34 H37 N1 O5'
_chemical_formula_moiety
;
C34 H37 N1 O5
;
_journal_coden_Cambridge 1003
_journal_volume 39
_journal_year 2009
_journal_page_first 494
_journal_name_full 'J.Chem.Cryst. '
loop_
_publ_author_name
"E.Racine"
"C.Philouze"
"S.Py"
_chemical_name_systematic
;
(2R,3R,4R,5R)-3,4,5-tris(Benzyloxy)-2-benzyloxymethyl-piperidin-1-ol
;
_chemical_name_common
;
N-Hydroxy-2,3,4,6-tetra-O-benzyl-1-deoxymannojirimycin
;
_chemical_melting_point 351.15
_cell_volume   1513.865
_exptl_crystal_colour 'colorless'
_exptl_crystal_density_diffrn 1.184
_exptl_special_details
;
Melting point range 351.15-353.15K

;
_exptl_crystal_description 'prism'
_exptl_crystal_preparation 'diethyl ether/pentane'
_diffrn_ambient_temperature 293
#These two values have been output from a single CSD field.
_refine_ls_R_factor_gt 0.0541
_refine_ls_wR_factor_gt 0.0541
_symmetry_cell_setting triclinic
_symmetry_space_group_name_H-M 'P 1'
_symmetry_Int_Tables_number 1
loop_
_symmetry_equiv_pos_site_id
_symmetry_equiv_pos_as_xyz
1 x,y,z
_cell_length_a 9.947(2)
_cell_length_b 12.155(2)
_cell_length_c 13.864(5)
_cell_angle_alpha 100.98(3)
_cell_angle_beta 97.94(2)
_cell_angle_gamma 109.50(1)
_cell_formula_units_Z 2
loop_
_atom_type_symbol
_atom_type_radius_bond
C 0.68
H 0.23
N 0.68
O 0.68
loop_
_atom_site_label
_atom_site_type_symbol
_atom_site_fract_x
_atom_site_fract_y
_atom_site_fract_z
O1 O -0.7895(2) 0.0228(2) -0.4950(1)
O2 O -0.4257(2) 0.1640(1) -0.4114(1)
O3 O -0.5008(2) 0.1520(2) -0.1697(1)
O4 O -0.5630(2) -0.0887(2) -0.1565(1)
O5 O -0.6085(2) -0.1962(2) -0.3645(1)
O6 O -0.5202(2) -0.0044(2) 0.3900(1)
O7 O -0.7378(2) 0.1489(1) 0.3266(1)
O8 O -0.8714(2) -0.0544(2) 0.1034(1)
O9 O -1.0462(2) -0.2825(2) 0.1244(1)
O10 O -0.9489(2) -0.2433(1) 0.3362(1)
N1 N -0.6996(2) -0.0144(2) -0.4273(1)
N2 N -0.6736(2) -0.0630(2) 0.3429(1)
C1 C -0.6309(2) 0.0890(2) -0.3391(2)
C2 C -0.5476(2) 0.0527(2) -0.2566(2)
C3 C -0.6463(3) -0.0596(2) -0.2323(2)
C4 C -0.7189(3) -0.1597(2) -0.3268(2)
C5 C -0.7995(3) -0.1183(3) -0.4028(2)
C6 C -0.5328(3) 0.1956(2) -0.3666(2)
C7 C -0.3168(3) 0.2634(2) -0.4270(2)
C8 C -0.2155(3) 0.2195(3) -0.4792(2)
C9 C -0.1596(3) 0.1414(3) -0.4444(3)
C10 C -0.0704(4) 0.0986(4) -0.4900(3)
C11 C -0.0324(4) 0.1304(4) -0.5727(3)
C12 C -0.0858(4) 0.2042(4) -0.6100(3)
C13 C -0.1783(4) 0.2492(4) -0.5625(3)
C14 C -0.3551(3) 0.1855(3) -0.1165(2)
C15 C -0.3398(3) 0.2494(2) -0.0096(2)
C16 C -0.2214(3) 0.2597(3) 0.0617(3)
C17 C -0.2090(4) 0.3149(3) 0.1619(3)
C18 C -0.3097(4) 0.3559(3) 0.1908(2)
C19 C -0.4262(4) 0.3461(3) 0.1213(2)
C20 C -0.4395(3) 0.2940(3) 0.0212(2)
C21 C -0.6342(4) -0.1257(5) -0.0834(2)
C22 C -0.5367(3) -0.1416(3) -0.0012(2)
C23 C -0.4449(4) -0.0453(4) 0.0734(3)
C24 C -0.3588(4) -0.0579(8) 0.1486(3)
C25 C -0.3641(6) -0.1717(7) 0.1503(4)
C26 C -0.4493(7) -0.2641(6) 0.0830(5)
C27 C -0.5394(6) -0.2527(4) 0.0035(4)
C28 C -0.6624(4) -0.3165(3) -0.4245(3)
C29 C -0.6592(3) -0.4070(3) -0.3631(3)
C30 C -0.7559(4) -0.5254(3) -0.3974(4)
C31 C -0.7457(6) -0.6082(3) -0.3450(5)
C32 C -0.6450(6) -0.5770(3) -0.2586(4)
C33 C -0.5477(6) -0.4615(4) -0.2237(3)
C34 C -0.5589(5) -0.3767(3) -0.2782(3)
C35 C -0.6947(2) -0.0244(2) 0.2487(2)
C36 C -0.8546(3) -0.0905(2) 0.1938(2)
C37 C -0.8955(3) -0.2267(2) 0.1715(2)
C38 C -0.8593(3) -0.2630(2) 0.2682(2)
C39 C -0.7021(3) -0.1917(2) 0.3218(2)
C40 C -0.6465(3) 0.1095(2) 0.2689(2)
C41 C -0.6779(4) 0.2729(2) 0.3749(2)
C42 C -0.6832(3) 0.3549(2) 0.3069(2)
C43 C -0.5856(3) 0.4724(2) 0.3323(2)
C44 C -0.5917(4) 0.5484(2) 0.2703(3)
C45 C -0.6974(4) 0.5077(3) 0.1851(3)
C46 C -0.7941(3) 0.3914(3) 0.1585(3)
C47 C -0.7881(3) 0.3164(3) 0.2192(2)
C48 C -1.0025(3) -0.0330(2) 0.0776(2)
C49 C -1.0068(3) 0.0042(2) -0.0184(2)
C50 C -1.1341(4) -0.0404(3) -0.0911(3)
C51 C -1.1335(4) -0.0027(4) -0.1821(3)
C52 C -1.0097(5) 0.0763(5) -0.1964(3)
C53 C -0.8870(5) 0.1221(4) -0.1238(3)
C54 C -0.8838(4) 0.0847(3) -0.0368(2)
C55 C -1.0891(4) -0.4054(3) 0.0674(2)
C56 C -1.0521(3) -0.4151(3) -0.0346(2)
C57 C -1.0648(5) -0.3378(3) -0.0926(3)
C58 C -1.0313(6) -0.3532(4) -0.1860(3)
C59 C -0.9954(5) -0.4428(4) -0.2255(3)
C60 C -0.9789(5) -0.5194(4) -0.1698(4)
C61 C -1.0064(4) -0.5055(3) -0.0736(3)
C62 C -1.0697(4) -0.3456(3) 0.3332(3)
C63 C -1.1472(3) -0.3201(3) 0.4121(2)
C64 C -1.1611(5) -0.3883(4) 0.4813(3)
C65 C -1.2286(8) -0.3711(7) 0.5568(3)
C66 C -1.2840(7) -0.2753(8) 0.5616(5)
C67 C -1.2728(6) -0.2097(7) 0.4955(6)
C68 C -1.2028(5) -0.2329(4) 0.4200(4)
H1 H -0.76960 -0.01610 -0.56110
H2 H -0.70590 0.10970 -0.31410
H3 H -0.46550 0.03980 -0.27680
H4 H -0.72070 -0.04040 -0.20530
H5 H -0.78660 -0.22620 -0.31080
H6 H -0.87260 -0.09660 -0.37600
H7 H -0.84410 -0.18200 -0.46220
H8 H -0.58890 0.22020 -0.41320
H9 H -0.48570 0.25990 -0.30790
H10 H -0.26380 0.31850 -0.36400
H11 H -0.36040 0.30260 -0.46740
H12 H -0.18500 0.11700 -0.38610
H13 H -0.03370 0.04520 -0.46350
H14 H 0.03190 0.10070 -0.60430
H15 H -0.06080 0.22620 -0.66920
H16 H -0.21550 0.30190 -0.58990
H17 H -0.29020 0.23760 -0.14700
H18 H -0.33240 0.11530 -0.11800
H19 H -0.14960 0.22960 0.04260
H20 H -0.12680 0.32360 0.21090
H21 H -0.30000 0.39170 0.25980
H22 H -0.49820 0.37510 0.14140
H23 H -0.52010 0.28910 -0.02730
H24 H -0.67120 -0.06690 -0.05610
H25 H -0.71290 -0.20040 -0.11330
H26 H -0.44240 0.03310 0.07160
H27 H -0.29470 0.01030 0.20030
H28 H -0.30180 -0.18140 0.20380
H29 H -0.45130 -0.34180 0.08710
H30 H -0.60270 -0.32200 -0.04740
H31 H -0.76040 -0.33630 -0.45830
H32 H -0.60410 -0.32170 -0.47270
H33 H -0.82920 -0.54920 -0.45720
H34 H -0.81110 -0.68980 -0.37010
H35 H -0.64220 -0.63540 -0.22240
H36 H -0.47400 -0.43840 -0.16430
H37 H -0.49290 -0.29530 -0.25350
H38 H -0.52830 0.02720 0.47050
H39 H -0.63620 -0.04950 0.20750
H40 H -0.91540 -0.06780 0.23420
H41 H -0.84040 -0.24930 0.12600
H42 H -0.87400 -0.34630 0.25160
H43 H -0.68350 -0.21310 0.38340
H44 H -0.63980 -0.20970 0.28050
H45 H -0.54790 0.14590 0.30550
H46 H -0.65430 0.13190 0.20700
H47 H -0.57860 0.29280 0.40570
H48 H -0.73040 0.28720 0.42520
H49 H -0.51320 0.50180 0.39310
H50 H -0.52200 0.62860 0.28750
H51 H -0.70410 0.56040 0.14370
H52 H -0.86600 0.36250 0.09750
H53 H -0.85750 0.23600 0.20050
H54 H -1.00530 0.02930 0.12950
H55 H -1.08440 -0.10470 0.07000
H56 H -1.22110 -0.09550 -0.08070
H57 H -1.22050 -0.03320 -0.23310
H58 H -1.00950 0.09970 -0.25800
H59 H -0.80200 0.18080 -0.13300
H60 H -0.79470 0.11500 0.01210
H61 H -1.04040 -0.44490 0.10410
H62 H -1.19170 -0.44430 0.05880
H63 H -1.09640 -0.27420 -0.06840
H64 H -1.03440 -0.29590 -0.22340
H65 H -0.98100 -0.45420 -0.29250
H66 H -0.94830 -0.58280 -0.19650
H67 H -0.99340 -0.55890 -0.03460
H68 H -1.03710 -0.40860 0.34290
H69 H -1.13460 -0.37030 0.26940
H70 H -1.12150 -0.44980 0.47530
H71 H -1.23920 -0.41890 0.60400
H72 H -1.33070 -0.25870 0.61480
H73 H -1.31210 -0.14810 0.50010
H74 H -1.19340 -0.18600 0.37200
#END
