
#######################################################################
#
#                 Cambridge Crystallographic Data Centre
#                                CCDC
#
#######################################################################
#
# If this CIF has been generated from an entry in the Cambridge
# Structural Database, then it will include bibliographic, chemical,
# crystal, experimental, refinement or atomic coordinate data resulting
# from the CCDC's data processing and validation procedures.
#
#######################################################################

data_CSD_CIF_XUKQEB
_audit_creation_date 2015-04-08
_audit_creation_method CSD-ConQuest-V1
_database_code_CSD XUKQEB
_database_code_depnum_ccdc_archive 'CCDC 1005072'
_chemical_formula_sum 'C37 H44 N6 O13'
_chemical_formula_moiety
;
C37 H44 N6 O13
;
_journal_coden_Cambridge 1417
_journal_volume 22
_journal_year 2015
_journal_page_first 369
_journal_name_full 'Chem.Biol. '
loop_
_publ_author_name
"S.Kumar"
"D.Schlamadinger"
"M.Brown"
"J.Dunn"
"B.Mercado"
"J.Hebda"
"I.Saraogi"
"E.Rhoades"
"A.Hamilton"
"A.Miranker"
_chemical_name_systematic
;
Methyl 
6-(2-t-butoxy-2-oxoethoxy)-5-(((5-(((6-(2-t-butoxy-2-oxoethoxy)-5-nitropyridin
-2-yl)carbonyl)amino)-6-(cyclohexyloxy)pyridin-2-yl)carbonyl)amino)pyridine-2-
carboxylate
;
_cell_volume   3960.265
_exptl_crystal_colour 'colorless'
_exptl_crystal_density_diffrn 1.31
_exptl_crystal_description 'Prism'
_diffrn_ambient_temperature 93
#These two values have been output from a single CSD field.
_refine_ls_R_factor_gt 0.0912
_refine_ls_wR_factor_gt 0.0912
_symmetry_cell_setting triclinic
_symmetry_space_group_name_H-M 'P -1'
_symmetry_Int_Tables_number 2
loop_
_symmetry_equiv_pos_site_id
_symmetry_equiv_pos_as_xyz
1 x,y,z
2 -x,-y,-z
_cell_length_a 16.0057(4)
_cell_length_b 16.5652(5)
_cell_length_c 17.9631(13)
_cell_angle_alpha 105.865(7)
_cell_angle_beta 104.047(7)
_cell_angle_gamma 110.924(8)
_cell_formula_units_Z 4
loop_
_atom_type_symbol
_atom_type_radius_bond
C 0.68
H 0.23
N 0.68
O 0.68
loop_
_atom_site_label
_atom_site_type_symbol
_atom_site_fract_x
_atom_site_fract_y
_atom_site_fract_z
O1 O -0.1913(4) -0.2735(4) 1.4391(4)
N1 N -0.1955(5) -0.3050(5) 1.3679(4)
O2 O -0.2495(4) -0.3835(4) 1.3220(4)
C1 C -0.1308(5) -0.2412(5) 1.3425(4)
C2 C -0.0527(5) -0.1591(5) 1.4042(4)
H1 H -0.04240 -0.14530 1.46160
C3 C 0.0087(5) -0.0987(5) 1.3813(4)
H2 H 0.06140 -0.04110 1.42210
C4 C -0.0074(4) -0.1233(4) 1.2977(4)
N2 N -0.0820(3) -0.2025(4) 1.2367(3)
C5 C -0.1425(5) -0.2608(5) 1.2584(4)
O3 O -0.2200(3) -0.3404(3) 1.1975(3)
O4 O 0.1298(3) 0.0150(3) 1.3253(2)
C6 C -0.2233(4) -0.3611(5) 1.1133(4)
H3 H -0.21650 -0.30530 1.10010
H4 H -0.28730 -0.41370 1.07420
C7 C -0.1446(4) -0.3876(4) 1.0988(5)
O5 O -0.1311(3) -0.3938(3) 1.0349(3)
O6 O -0.0985(3) -0.4018(3) 1.1614(3)
C8 C -0.0116(4) -0.4156(4) 1.1636(4)
C9 C 0.0226(5) -0.4184(5) 1.2480(4)
H5 H 0.03600 -0.35940 1.29140
H6 H 0.08170 -0.42610 1.25680
H7 H -0.02760 -0.47140 1.25090
C10 C 0.0625(4) -0.3306(4) 1.1595(4)
H8 H 0.03970 -0.33030 1.10380
H9 H 0.12410 -0.33370 1.17020
H10 H 0.07170 -0.27290 1.20180
C11 C -0.0391(4) -0.5070(4) 1.0936(4)
H11 H -0.09180 -0.55850 1.09580
H12 H 0.01700 -0.51960 1.10000
H13 H -0.06030 -0.50210 1.03980
C12 C 0.0600(4) -0.0570(5) 1.2714(4)
N3 N 0.0366(3) -0.0837(3) 1.1878(3)
H14 H -0.01410 -0.13820 1.15520
C13 C 0.0862(4) -0.0321(4) 1.1484(4)
C14 C 0.1663(4) 0.0528(4) 1.1871(4)
H15 H 0.19330 0.08330 1.24640
C15 C 0.2083(4) 0.0946(4) 1.1406(4)
H16 H 0.26480 0.15350 1.16730
C16 C 0.1675(4) 0.0499(4) 1.0544(4)
N4 N 0.0872(3) -0.0349(3) 1.0147(3)
C17 C 0.0484(4) -0.0745(4) 1.0591(4)
O7 O -0.0312(3) -0.1591(3) 1.0223(2)
C18 C -0.0576(4) -0.2126(4) 0.9328(3)
H17 H -0.05300 -0.16910 0.90310
C19 C 0.0118(4) -0.2535(4) 0.9226(3)
H18 H 0.00900 -0.29570 0.95270
H19 H 0.07870 -0.20210 0.94670
C20 C -0.0153(4) -0.3083(4) 0.8304(4)
H20 H 0.02810 -0.33760 0.82400
H21 H -0.00640 -0.26460 0.80160
C21 C -0.1195(4) -0.3846(4) 0.7898(4)
H22 H -0.12620 -0.43320 0.81310
H23 H -0.13660 -0.41510 0.72890
C22 C -0.1890(4) -0.3447(4) 0.8044(4)
H24 H -0.25510 -0.39700 0.78190
H25 H -0.18970 -0.30330 0.77380
C23 C -0.1604(4) -0.2882(4) 0.8977(3)
H26 H -0.20390 -0.25930 0.90490
H27 H -0.16640 -0.33060 0.92780
C24 C 0.2104(5) 0.0912(4) 1.0010(4)
O8 O 0.2838(3) 0.1656(3) 1.0295(2)
N5 N 0.1568(3) 0.0388(3) 0.9165(3)
H28 H 0.10310 -0.01190 0.90310
C25 C 0.1776(4) 0.0566(4) 0.8503(4)
C26 C 0.2562(4) 0.1340(4) 0.8573(4)
H29 H 0.30060 0.18220 0.91040
C27 C 0.2680(4) 0.1387(4) 0.7855(4)
H30 H 0.32120 0.19120 0.78890
C28 C 0.2043(4) 0.0688(4) 0.7085(4)
N6 N 0.1260(4) -0.0065(3) 0.7008(3)
C29 C 0.1139(4) -0.0103(4) 0.7689(4)
O9 O 0.0353(3) -0.0833(3) 0.7644(2)
C30 C -0.0188(4) -0.1590(4) 0.6830(4)
H31 H -0.03620 -0.13390 0.64070
H32 H -0.07930 -0.20460 0.68260
C31 C 0.0421(5) -0.2090(4) 0.6609(4)
O10 O 0.0080(3) -0.2604(3) 0.5816(3)
O11 O 0.1146(4) -0.1958(3) 0.7135(3)
C32 C 0.0608(6) -0.3079(5) 0.5460(4)
C33 C 0.0633(8) -0.3783(6) 0.5865(5)
H33 H 0.10840 -0.34380 0.64500
H34 H 0.08470 -0.42080 0.55630
H35 H -0.00150 -0.41510 0.58400
C34 C 0.1613(7) -0.2339(7) 0.5618(6)
H36 H 0.15570 -0.18240 0.54770
H37 H 0.18970 -0.26300 0.52690
H38 H 0.20290 -0.20890 0.62090
C35 C -0.0004(7) -0.3573(6) 0.4553(5)
H39 H -0.06680 -0.39690 0.44770
H40 H 0.02510 -0.39680 0.42720
H41 H 0.00000 -0.31090 0.43120
C36 C 0.2143(5) 0.0677(5) 0.6285(4)
O12 O 0.2859(3) 0.1472(3) 0.6377(2)
O13 O 0.1643(3) 0.0018(3) 0.5615(3)
C37 C 0.3039(5) 0.1491(5) 0.5631(4)
H42 H 0.24410 0.13430 0.51920
H43 H 0.32650 0.10240 0.54420
H44 H 0.35340 0.21190 0.57540
O14 O 0.6964(4) 0.4263(4) 0.6310(3)
N7 N 0.7169(5) 0.3604(6) 0.6267(4)
O15 O 0.7788(5) 0.3560(4) 0.6076(4)
C38 C 0.6534(5) 0.2835(5) 0.6455(4)
C39 C 0.5851(5) 0.2000(5) 0.5828(4)
H45 H 0.57810 0.18710 0.52610
C40 C 0.5257(5) 0.1342(5) 0.6053(4)
H46 H 0.47720 0.07420 0.56450
C41 C 0.5396(4) 0.1589(4) 0.6892(4)
N8 N 0.6102(4) 0.2417(4) 0.7506(3)
C42 C 0.6669(5) 0.3022(5) 0.7284(4)
O16 O 0.7401(3) 0.3849(3) 0.7880(3)
C43 C 0.7466(4) 0.4068(4) 0.8724(4)
H47 H 0.80910 0.46270 0.90970
H48 H 0.74600 0.35350 0.88740
C44 C 0.6646(5) 0.4269(4) 0.8878(5)
O17 O 0.6509(3) 0.4290(3) 0.9511(3)
O18 O 0.6180(3) 0.4422(3) 0.8262(3)
C45 C 0.5322(5) 0.4577(5) 0.8244(4)
C46 C 0.4564(5) 0.3698(6) 0.8236(5)
H49 H 0.44700 0.31410 0.77860
H50 H 0.39530 0.37360 0.81420
H51 H 0.47810 0.36500 0.87740
C47 C 0.5010(5) 0.4649(5) 0.7417(5)
H52 H 0.55290 0.51830 0.74090
H53 H 0.44290 0.47430 0.73330
H54 H 0.48670 0.40670 0.69670
C48 C 0.5589(5) 0.5452(6) 0.8978(5)
H55 H 0.57800 0.53580 0.94970
H56 H 0.50310 0.55820 0.89250
H57 H 0.61280 0.59850 0.89920
C49 C 0.4731(4) 0.0917(4) 0.7141(4)
O19 O 0.4027(3) 0.0176(3) 0.6610(2)
N9 N 0.4950(3) 0.1183(3) 0.7974(3)
H58 H 0.54610 0.17270 0.82960
C50 C 0.4472(4) 0.0709(4) 0.8376(4)
C51 C 0.3630(4) -0.0116(4) 0.8011(4)
H59 H 0.33270 -0.04130 0.74180
C52 C 0.3220(4) -0.0518(4) 0.8486(4)
H60 H 0.26380 -0.10910 0.82300
C53 C 0.3676(4) -0.0067(4) 0.9354(4)
N10 N 0.4506(3) 0.0740(3) 0.9734(3)
C54 C 0.4894(5) 0.1122(4) 0.9272(4)
O20 O 0.5717(3) 0.1926(3) 0.9625(2)
C55 C 0.6133(4) 0.2389(4) 1.0531(4)
H61 H 0.60800 0.19020 1.07700
C56 C 0.5606(5) 0.2920(5) 1.0846(4)
H62 H 0.49130 0.24820 1.06600
H63 H 0.56560 0.34100 1.06190
C57 C 0.6067(5) 0.3379(5) 1.1805(4)
H64 H 0.59590 0.28830 1.20290
H65 H 0.57560 0.37600 1.20200
C58 C 0.7162(6) 0.4014(5) 1.2112(4)
H66 H 0.72670 0.45640 1.19590
H67 H 0.74520 0.42520 1.27290
C59 C 0.7653(5) 0.3487(5) 1.1733(4)
H68 H 0.76210 0.29900 1.19460
H69 H 0.83430 0.39260 1.19080
C60 C 0.7189(4) 0.3043(4) 1.0789(4)
H70 H 0.72540 0.35390 1.05680
H71 H 0.75130 0.26860 1.05590
C61 C 0.3246(5) -0.0472(4) 0.9886(4)
O21 O 0.2469(3) -0.1179(3) 0.9609(2)
N11 N 0.3776(3) 0.0027(3) 1.0733(3)
H72 H 0.43190 0.05310 1.08750
C62 C 0.3569(4) -0.0159(4) 1.1381(4)
C63 C 0.2788(5) -0.0925(4) 1.1313(4)
H73 H 0.23350 -0.13860 1.07760
C64 C 0.2662(4) -0.1026(4) 1.2023(4)
H74 H 0.21340 -0.15620 1.19800
C65 C 0.3323(4) -0.0328(4) 1.2803(4)
N12 N 0.4092(4) 0.0424(3) 1.2886(3)
C66 C 0.4209(4) 0.0484(4) 1.2212(4)
O22 O 0.5002(3) 0.1214(3) 1.2269(2)
C67 C 0.5735(5) 0.1763(5) 1.3071(4)
H75 H 0.58540 0.13290 1.33170
H76 H 0.63350 0.21250 1.30040
C68 C 0.5582(7) 0.2400(5) 1.3650(6)
O23 O 0.6129(4) 0.2755(4) 1.4435(4)
O24 O 0.4866(4) 0.2573(3) 1.3360(3)
C69 C 0.4707(6) 0.3298(6) 1.3948(6)
C70 C 0.5562(7) 0.4281(5) 1.4263(5)
H77 H 0.60990 0.43540 1.47220
H78 H 0.53590 0.47650 1.44640
H79 H 0.57700 0.43500 1.38050
C71 C 0.4411(7) 0.3016(6) 1.4581(5)
H80 H 0.37450 0.29130 1.44800
H81 H 0.48390 0.35140 1.51370
H82 H 0.44520 0.24330 1.45510
C72 C 0.3824(6) 0.3253(6) 1.3318(5)
H83 H 0.39530 0.32920 1.28200
H84 H 0.37020 0.37800 1.35770
H85 H 0.32550 0.26570 1.31580
C73 C 0.3214(5) -0.0354(5) 1.3585(4)
O25 O 0.3709(3) 0.0283(3) 1.4272(3)
O26 O 0.2513(3) -0.1169(3) 1.3482(2)
C74 C 0.2343(5) -0.1241(5) 1.4223(4)
H86 H 0.18390 -0.18730 1.40770
H87 H 0.21340 -0.07730 1.44520
H88 H 0.29410 -0.11250 1.46430
#END
