
#######################################################################
#
#                 Cambridge Crystallographic Data Centre
#                                CCDC
#
#######################################################################
#
# If this CIF has been generated from an entry in the Cambridge
# Structural Database, then it will include bibliographic, chemical,
# crystal, experimental, refinement or atomic coordinate data resulting
# from the CCDC's data processing and validation procedures.
#
#######################################################################

data_CSD_CIF_XUKQAX
_audit_creation_date 2015-04-08
_audit_creation_method CSD-ConQuest-V1
_database_code_CSD XUKQAX
_database_code_depnum_ccdc_archive 'CCDC 1005071'
_chemical_formula_sum 'C43 H58 N6 O13'
_chemical_formula_moiety
;
C43 H58 N6 O13
;
_journal_coden_Cambridge 1417
_journal_volume 22
_journal_year 2015
_journal_page_first 369
_journal_name_full 'Chem.Biol. '
loop_
_publ_author_name
"S.Kumar"
"D.Schlamadinger"
"M.Brown"
"J.Dunn"
"B.Mercado"
"J.Hebda"
"I.Saraogi"
"E.Rhoades"
"A.Hamilton"
"A.Miranker"
_chemical_name_systematic
;
Methyl 
6-(2-t-butoxy-2-oxoethoxy)-5-(((5-(((6-(2-t-butoxy-2-oxoethoxy)-5-nitropyridin
-2-yl)carbonyl)amino)-6-(dodecyloxy)pyridin-2-yl)carbonyl)amino)pyridine-2-car
boxylate
;
_cell_volume   2238.606
_exptl_crystal_colour 'colorless'
_exptl_crystal_density_diffrn 1.286
_exptl_crystal_description 'Block'
_diffrn_ambient_temperature 93
_refine_special_details
;
O4A and O4B disordered over two sites with occupancies 0.53:0.47.

;
#These two values have been output from a single CSD field.
_refine_ls_R_factor_gt 0.0951
_refine_ls_wR_factor_gt 0.0951
_symmetry_cell_setting triclinic
_symmetry_space_group_name_H-M 'P -1'
_symmetry_Int_Tables_number 2
loop_
_symmetry_equiv_pos_site_id
_symmetry_equiv_pos_as_xyz
1 x,y,z
2 -x,-y,-z
_cell_length_a 10.9793(4)
_cell_length_b 11.6232(5)
_cell_length_c 18.9281(13)
_cell_angle_alpha 85.997(6)
_cell_angle_beta 81.209(6)
_cell_angle_gamma 69.708(5)
_cell_formula_units_Z 2
loop_
_atom_type_symbol
_atom_type_radius_bond
C 0.68
H 0.23
N 0.68
O 0.68
loop_
_atom_site_label
_atom_site_type_symbol
_atom_site_fract_x
_atom_site_fract_y
_atom_site_fract_z
O1 O -0.0202(4) 0.4681(5) 0.7497(2)
N1 N 0.0576(5) 0.5135(5) 0.7620(3)
O2 O 0.0775(5) 0.5220(5) 0.8228(3)
C1 C 0.1422(5) 0.5447(5) 0.7021(3)
N2 N 0.2808(4) 0.6580(4) 0.6533(3)
C2 C 0.1585(5) 0.4886(5) 0.6376(3)
H1 H 0.11650 0.43120 0.63240
C3 C 0.2380(5) 0.5190(5) 0.5807(3)
H2 H 0.25170 0.48250 0.53540
C4 C 0.2963(5) 0.6017(5) 0.5904(3)
C5 C 0.1989(5) 0.6342(6) 0.7077(3)
O3 O 0.1725(4) 0.6984(4) 0.7685(2)
C6 C 0.2259(5) 0.7957(5) 0.7708(3)
H3 H 0.25120 0.82190 0.72150
H4 H 0.30530 0.76540 0.79500
C7 C 0.1266(7) 0.9011(6) 0.8099(3)
O4 O 0.017(3) 0.906(3) 0.842(4)
O5 O 0.1829(4) 0.9809(4) 0.8205(2)
C8 C 0.1086(7) 1.1032(6) 0.8498(3)
C9 C 0.0517(8) 1.0900(7) 0.9264(4)
H5 H -0.01280 1.04870 0.92800
H6 H 0.00890 1.17140 0.94740
H7 H 0.12200 1.04130 0.95370
C10 C 0.0018(7) 1.1708(7) 0.8038(4)
H8 H 0.03960 1.16430 0.75330
H9 H -0.03570 1.25740 0.81690
H10 H -0.06730 1.13400 0.81180
C11 C 0.2092(7) 1.1650(7) 0.8443(4)
H11 H 0.28010 1.11690 0.87140
H12 H 0.16820 1.24750 0.86400
H13 H 0.24490 1.17090 0.79410
C12 C 0.3833(5) 0.6396(5) 0.5306(3)
O6 O 0.3930(3) 0.6062(3) 0.4690(2)
N3 N 0.4424(4) 0.7120(5) 0.5514(3)
H14 H 0.427(6) 0.732(6) 0.595(4)
C13 C 0.5245(5) 0.7689(5) 0.5109(3)
C14 C 0.5581(5) 0.7631(5) 0.4372(3)
H15 H 0.52640 0.71780 0.40920
C15 C 0.6403(5) 0.8264(5) 0.4059(3)
H16 H 0.66480 0.82540 0.35550
C16 C 0.6858(5) 0.8897(5) 0.4473(3)
N4 N 0.6516(4) 0.8981(4) 0.5195(2)
C17 C 0.5751(5) 0.8374(5) 0.5491(3)
O7 O 0.5362(3) 0.8404(3) 0.62091(19)
C18 C 0.5831(5) 0.9125(6) 0.6621(3)
H17 H 0.56220 0.99700 0.64200
H18 H 0.67940 0.87550 0.66060
C19 C 0.5167(5) 0.9149(6) 0.7381(3)
H19 H 0.42090 0.94190 0.73760
H20 H 0.53450 0.97680 0.76440
C20 C 0.5591(5) 0.7933(6) 0.7784(3)
H21 H 0.53820 0.73250 0.75290
H22 H 0.50610 0.80360 0.82630
C21 C 0.7048(5) 0.7404(6) 0.7882(3)
H23 H 0.71980 0.66340 0.81690
H24 H 0.75770 0.71930 0.74060
C22 C 0.7533(6) 0.8251(6) 0.8241(3)
H25 H 0.74580 0.89900 0.79320
H26 H 0.84730 0.78310 0.82820
C23 C 0.6793(6) 0.8655(6) 0.8984(4)
H27 H 0.58800 0.91740 0.89320
H28 H 0.72030 0.91720 0.91860
C24 C 0.6756(6) 0.7612(7) 0.9519(4)
H29 H 0.62480 0.79730 0.99770
H30 H 0.62870 0.71310 0.93360
C25 C 0.8092(6) 0.6753(7) 0.9660(4)
H31 H 0.85760 0.72370 0.98250
H32 H 0.85880 0.63640 0.92060
C26 C 0.8035(6) 0.5747(7) 1.0217(4)
H33 H 0.89260 0.53300 1.03460
H34 H 0.74630 0.61410 1.06530
C27 C 0.7536(7) 0.4780(7) 0.9990(4)
H35 H 0.80400 0.44530 0.95240
H36 H 0.66080 0.51810 0.99170
C28 C 0.7629(7) 0.3708(7) 1.0516(4)
H37 H 0.85640 0.32500 1.05540
H38 H 0.71940 0.40320 1.09940
C29 C 0.7007(7) 0.2831(7) 1.0301(4)
H39 H 0.74570 0.24790 0.98370
H40 H 0.60790 0.32760 1.02650
H41 H 0.70820 0.21720 1.06610
C30 C 0.7742(5) 0.9605(5) 0.4164(4)
O8 O 0.8144(4) 0.9586(4) 0.3524(2)
N5 N 0.8047(5) 1.0217(5) 0.4657(3)
H42 H 0.770(7) 1.017(7) 0.506(4)
C31 C 0.8811(5) 1.0941(5) 0.4541(3)
C32 C 0.9597(5) 1.1057(5) 0.3915(3)
H43 H 0.96570 1.05950 0.35080
C33 C 1.0293(5) 1.1849(5) 0.3885(3)
H44 H 1.07870 1.19750 0.34480
C34 C 1.0274(5) 1.2462(5) 0.4492(3)
N6 N 0.9541(4) 1.2319(4) 0.5125(2)
C35 C 0.8876(5) 1.1601(5) 0.5133(3)
O9 O 0.8114(3) 1.1441(3) 0.57533(19)
C36 C 0.8065(5) 1.2211(5) 0.6335(3)
H45 H 0.79210 1.30640 0.61600
H46 H 0.89020 1.19050 0.65380
C37 C 0.6948(6) 1.2169(6) 0.6897(3)
O10 O 0.6356(4) 1.1488(4) 0.6913(2)
O11 O 0.6799(3) 1.3018(4) 0.7375(2)
C38 C 0.5723(5) 1.3274(6) 0.7980(3)
C39 C 0.5912(6) 1.2146(7) 0.8467(3)
H47 H 0.58150 1.14850 0.82120
H48 H 0.52530 1.23490 0.88940
H49 H 0.67910 1.18790 0.86100
C40 C 0.4427(6) 1.3711(7) 0.7683(4)
H50 H 0.44420 1.43280 0.73040
H51 H 0.37120 1.40750 0.80660
H52 H 0.42910 1.30140 0.74860
C41 C 0.5919(7) 1.4286(7) 0.8351(4)
H53 H 0.68280 1.40290 0.84470
H54 H 0.53250 1.44620 0.88030
H55 H 0.57300 1.50250 0.80450
C42 C 1.0959(5) 1.3351(5) 0.4525(4)
O12 O 1.1440(3) 1.3637(4) 0.3857(2)
O13 O 1.1118(3) 1.3746(3) 0.5059(2)
C43 C 1.2032(5) 1.4568(5) 0.3826(3)
H56 H 1.22190 1.48120 0.33260
H57 H 1.28500 1.42450 0.40360
H58 H 1.14290 1.52820 0.40950
O14? O 0.011(3) 0.922(5) 0.810(5)
#END
