
#######################################################################
#
#                 Cambridge Crystallographic Data Centre
#                                CCDC
#
#######################################################################
#
# If this CIF has been generated from an entry in the Cambridge
# Structural Database, then it will include bibliographic, chemical,
# crystal, experimental, refinement or atomic coordinate data resulting
# from the CCDC's data processing and validation procedures.
#
#######################################################################

data_CSD_CIF_XULKUK
_audit_creation_date 2003-02-25
_audit_creation_method CSD-ConQuest-V1
_database_code_CSD XULKUK
_chemical_formula_sum 'C13 H11 N1 O1'
_chemical_formula_moiety
;
C13 H11 N1 O1
;
_journal_coden_Cambridge 444
_journal_volume 72
_journal_year 2002
_journal_page_first 956
_journal_name_full 'Zh.Obshch.Khim.(Russ.)(Russ.J.Gen.Chem.) '
loop_
_publ_author_name
"V.V.Sharutin"
"O.K.Sharutina"
"O.V.Molokova"
"E.N.Ettenko"
"D.B.Krivolapov"
"A.T.Gubaidullin"
"I.A.Litvinov"
_chemical_name_systematic
;
Benzophenone oxime
;
_cell_volume   2113.301
_exptl_crystal_density_diffrn 1.24
_diffrn_ambient_temperature 293
#These two values have been output from a single CSD field.
_refine_ls_R_factor_gt 0.0483
_refine_ls_wR_factor_gt 0.0483
_symmetry_cell_setting monoclinic
_symmetry_space_group_name_H-M 'P 21/n'
_symmetry_Int_Tables_number 14
loop_
_symmetry_equiv_pos_site_id
_symmetry_equiv_pos_as_xyz
1 x,y,z
2 1/2-x,1/2+y,1/2-z
3 -x,-y,-z
4 -1/2+x,-1/2-y,-1/2+z
_cell_length_a 9.466(2)
_cell_length_b 8.369(2)
_cell_length_c 26.710(5)
_cell_angle_alpha 90
_cell_angle_beta 92.89(3)
_cell_angle_gamma 90
_cell_formula_units_Z 8
loop_
_atom_type_symbol
_atom_type_radius_bond
C 0.68
N 0.68
O 0.68
loop_
_atom_site_label
_atom_site_type_symbol
_atom_site_fract_x
_atom_site_fract_y
_atom_site_fract_z
O1 O 0.3132(6) 0.2067(7) 0.4999(2)
N1 N 0.4610(6) 0.2320(7) 0.4963(2)
C1 C 0.5225(8) 0.2734(9) 0.5368(3)
C2 C 0.4501(8) 0.3057(10) 0.5831(3)
C3 C 0.4905(9) 0.2272(10) 0.6283(3)
C4 C 0.4211(12) 0.2608(13) 0.6716(3)
C5 C 0.3186(12) 0.3704(15) 0.6706(5)
C6 C 0.2786(10) 0.4491(12) 0.6280(5)
C7 C 0.3445(9) 0.4144(11) 0.5850(4)
C8 C 0.6775(3) 0.2955(9) 0.5366(3)
C9 C 0.7472(8) 0.4075(10) 0.5672(3)
C10 C 0.8871(10) 0.4307(10) 0.5667(3)
C11 C 0.9666(9) 0.3401(12) 0.5354(4)
C12 C 0.9018(10) 0.2276(11) 0.5048(3)
C13 C 0.7581(9) 0.2055(10) 0.5058(3)
O2 O 0.4705(5) 0.1853(7) 0.3947(2)
N2 N 0.3203(5) 0.1710(7) 0.3943(2)
C14 C 0.2590(7) 0.1622(7) 0.3503(3)
C15 C 0.1054(8) 0.1350(8) 0.3505(2)
C16 C 0.0480(8) 0.0263(10) 0.3835(3)
C17 C -0.0943(10) 0.0044(10) 0.3833(3)
C18 C -0.1849(9) 0.0891(12) 0.3508(4)
C19 C -0.1283(9) 0.1932(11) 0.3182(3)
C20 C 0.0137(8) 0.2188(9) 0.3171(3)
C21 C 0.3304(8) 0.1791(8) 0.3029(2)
C22 C 0.2792(8) 0.0928(9) 0.2615(3)
C23 C 0.3372(9) 0.1065(9) 0.2159(3)
C24 C 0.4481(9) 0.2062(11) 0.2099(3)
C25 C 0.5013(7) 0.2941(10) 0.2498(4)
C26 C 0.4444(7) 0.2813(9) 0.2967(3)
#END
