
#######################################################################
#
#                 Cambridge Crystallographic Data Centre
#                                CCDC
#
#######################################################################
#
# If this CIF has been generated from an entry in the Cambridge
# Structural Database, then it will include bibliographic, chemical,
# crystal, experimental, refinement or atomic coordinate data resulting
# from the CCDC's data processing and validation procedures.
#
#######################################################################

data_CSD_CIF_XUMRUT
_audit_creation_date 2010-09-20
_audit_creation_method CSD-ConQuest-V1
_database_code_CSD XUMRUT
_database_code_depnum_ccdc_archive 'CCDC 739028'
_chemical_formula_sum 'C15 H14 N4 O4'
_chemical_formula_moiety
;
C15 H14 N4 O4
;
_journal_coden_Cambridge 35
_journal_volume 74
_journal_year 2009
_journal_page_first 7947
_journal_name_full 'J.Org.Chem. '
loop_
_publ_author_name
"M.K.Agrawal"
"P.K.Ghosh"
_chemical_name_systematic
;
1-(2,4-Dinitrophenyl)-2-(2-(4-methylphenyl)ethylidene)hydrazine
;
_cell_volume   1492.590
_exptl_crystal_colour 'yellow'
_exptl_crystal_density_diffrn 1.399
_exptl_crystal_description 'plates'
_diffrn_ambient_temperature 293
#These two values have been output from a single CSD field.
_refine_ls_R_factor_gt 0.0834
_refine_ls_wR_factor_gt 0.0834
_symmetry_cell_setting monoclinic
_symmetry_space_group_name_H-M 'P 21/n'
_symmetry_Int_Tables_number 14
loop_
_symmetry_equiv_pos_site_id
_symmetry_equiv_pos_as_xyz
1 x,y,z
2 1/2-x,1/2+y,1/2-z
3 -x,-y,-z
4 -1/2+x,-1/2-y,-1/2+z
_cell_length_a 12.404(2)
_cell_length_b 6.0569(10)
_cell_length_c 19.995(3)
_cell_angle_alpha 90
_cell_angle_beta 96.491(3)
_cell_angle_gamma 90
_cell_formula_units_Z 4
loop_
_atom_type_symbol
_atom_type_radius_bond
C 0.68
H 0.23
N 0.68
O 0.68
loop_
_atom_site_label
_atom_site_type_symbol
_atom_site_fract_x
_atom_site_fract_y
_atom_site_fract_z
O1 O 0.8427(3) 0.9531(5) 1.21090(15)
O2 O 0.6696(3) 0.9964(5) 1.20111(14)
O3 O 0.4385(2) 0.4813(5) 1.07857(16)
O4 O 0.4973(2) 0.1850(5) 1.03782(14)
N1 N 0.8020(2) 0.0225(5) 1.01948(14)
N2 N 0.7067(3) 0.1208(5) 1.03436(15)
N3 N 0.7507(3) 0.8933(6) 1.19089(15)
N4 N 0.5133(2) 0.3616(6) 1.06729(15)
C1 C 0.8496(3) -0.5398(7) 0.8722(2)
C2 C 0.8481(3) -0.5975(8) 0.8054(2)
C3 C 0.8845(3) -0.4553(7) 0.7592(2)
C4 C 0.9207(3) -0.2510(8) 0.7824(2)
C5 C 0.9210(3) -0.1925(7) 0.84902(19)
C6 C 0.8869(3) -0.3371(6) 0.89538(17)
C7 C 0.8912(4) -0.2729(9) 0.9684(2)
C8 C 0.7929(3) -0.1518(7) 0.98531(19)
C9 C 0.7139(3) 0.3030(6) 1.07401(15)
C10 C 0.8156(3) 0.3814(7) 1.10220(18)
C11 C 0.8274(3) 0.5662(7) 1.13998(19)
C12 C 0.7377(3) 0.6882(6) 1.15199(16)
C13 C 0.6364(3) 0.6194(7) 1.12807(17)
C14 C 0.6231(3) 0.4272(6) 1.08960(15)
C15 C 0.8841(4) -0.5224(10) 0.6862(2)
H1 H 0.95520 -0.57190 0.67860
H2 H 0.86390 -0.39810 0.65770
H3 H 0.83280 -0.63980 0.67600
H4 H 0.827(3) -0.630(7) 0.906(2)
H5 H 0.823(4) -0.739(9) 0.793(2)
H6 H 0.646(3) 0.068(6) 1.0182(19)
H7 H 0.951(3) -0.158(7) 0.750(2)
H8 H 0.947(3) -0.050(7) 0.8642(19)
H9 H 0.959(4) -0.189(7) 0.984(2)
H10 H 0.891(3) -0.404(8) 0.994(2)
H11 H 0.730(3) -0.211(7) 0.9716(18)
H12 H 0.874(3) 0.290(6) 1.0966(16)
H13 H 0.889(3) 0.615(6) 1.1556(15)
H14 H 0.584(3) 0.690(6) 1.1374(16)
#END
