
#######################################################################
#
#                 Cambridge Crystallographic Data Centre
#                                CCDC
#
#######################################################################
#
# If this CIF has been generated from an entry in the Cambridge
# Structural Database, then it will include bibliographic, chemical,
# crystal, experimental, refinement or atomic coordinate data resulting
# from the CCDC's data processing and validation procedures.
#
#######################################################################

data_CSD_CIF_XUMRIH
_audit_creation_date 2010-09-20
_audit_creation_method CSD-ConQuest-V1
_database_code_CSD XUMRIH
_database_code_depnum_ccdc_archive 'CCDC 738835'
_chemical_formula_sum 'C15 H14 N4 O4'
_chemical_formula_moiety
;
C15 H14 N4 O4
;
_journal_coden_Cambridge 35
_journal_volume 74
_journal_year 2009
_journal_page_first 7947
_journal_name_full 'J.Org.Chem. '
loop_
_publ_author_name
"M.K.Agrawal"
"P.K.Ghosh"
_chemical_name_systematic
;
1-(2,4-Dinitrophenyl)-2-(1-phenylpropan-2-ylidene)hydrazine
;
_cell_volume   1491.718
_exptl_crystal_colour 'yellow'
_exptl_crystal_density_diffrn 1.4
_exptl_crystal_description 'plates'
_diffrn_ambient_temperature 293
#These two values have been output from a single CSD field.
_refine_ls_R_factor_gt 0.1092
_refine_ls_wR_factor_gt 0.1092
_symmetry_cell_setting monoclinic
_symmetry_space_group_name_H-M 'P 21/n'
_symmetry_Int_Tables_number 14
loop_
_symmetry_equiv_pos_site_id
_symmetry_equiv_pos_as_xyz
1 x,y,z
2 1/2-x,1/2+y,1/2-z
3 -x,-y,-z
4 -1/2+x,-1/2-y,-1/2+z
_cell_length_a 16.1007(18)
_cell_length_b 4.9477(5)
_cell_length_c 19.260(2)
_cell_angle_alpha 90
_cell_angle_beta 103.527(2)
_cell_angle_gamma 90
_cell_formula_units_Z 4
loop_
_atom_type_symbol
_atom_type_radius_bond
C 0.68
H 0.23
N 0.68
O 0.68
loop_
_atom_site_label
_atom_site_type_symbol
_atom_site_fract_x
_atom_site_fract_y
_atom_site_fract_z
N1 N 0.8615(2) 0.0930(8) 0.09728(19)
H1 H 0.822(3) 0.301(9) 0.167(2)
N2 N 0.8589(3) 0.1951(9) 0.1629(2)
N3 N 1.0525(3) -0.3048(11) 0.4085(3)
N4 N 0.8422(2) 0.3726(8) 0.3040(2)
O1 O 1.0958(3) -0.4970(11) 0.3998(2)
O2 O 1.0476(3) -0.2240(11) 0.4666(2)
O3 O 0.8342(3) 0.4102(8) 0.36412(19)
O4 O 0.8044(2) 0.5082(7) 0.25303(18)
C1 C 0.9102(3) 0.3786(11) -0.0739(3)
H2 H 0.95480 0.30410 -0.03970
C2 C 0.9271(4) 0.5790(12) -0.1194(3)
H3 H 0.98290 0.63800 -0.11550
C3 C 0.8619(4) 0.6888(11) -0.1698(3)
H4 H 0.87310 0.82330 -0.20010
C4 C 0.7803(4) 0.6013(11) -0.1757(3)
H5 H 0.73570 0.67530 -0.21010
C5 C 0.7639(3) 0.4022(11) -0.1304(2)
H6 H 0.70800 0.34320 -0.13490
C6 C 0.8280(3) 0.2895(9) -0.0789(2)
C7 C 0.8096(3) 0.078(1) -0.0285(2)
H7 H 0.85300 -0.06170 -0.02270
H8 H 0.75490 -0.00510 -0.04930
C8 C 0.8077(3) 0.1904(9) 0.0438(2)
C9 C 0.9063(3) 0.0846(9) 0.2231(2)
C10 C 0.9649(3) -0.1246(10) 0.2188(2)
H9 H 0.97090 -0.18110 0.17420
C11 C 1.0125(3) -0.2447(10) 0.2783(3)
H10 H 1.05160 -0.37860 0.27430
C12 C 1.0028(3) -0.1683(10) 0.3447(3)
C13 C 0.9479(3) 0.034(1) 0.3527(2)
H11 H 0.94300 0.08670 0.39790
C14 C 0.8997(3) 0.1587(9) 0.2922(2)
C15 C 0.7429(3) 0.4015(11) 0.0471(3)
H12 H 0.70610 0.33880 0.07640
H13 H 0.70950 0.43770 -0.00020
H14 H 0.77120 0.56400 0.06720
#END
