
#######################################################################
#
#                 Cambridge Crystallographic Data Centre
#                                CCDC
#
#######################################################################
#
# If this CIF has been generated from an entry in the Cambridge
# Structural Database, then it will include bibliographic, chemical,
# crystal, experimental, refinement or atomic coordinate data resulting
# from the CCDC's data processing and validation procedures.
#
#######################################################################

data_CSD_CIF_XUMSED
_audit_creation_date 2003-02-25
_audit_creation_method CSD-ConQuest-V1
_database_code_CSD XUMSED
_database_code_depnum_ccdc_archive 'CCDC 201140'
_database_code_depnum_ccdc_journal 1267/881
_chemical_formula_sum 'C11 H15 N1 O5'
_chemical_formula_moiety
;
C11 H15 N1 O5
;
_journal_coden_Cambridge 1267
_journal_volume 217
_journal_year 2002
_journal_page_first 405
_journal_name_full 'Z.Kristallogr.-New Cryst.Struct. '
loop_
_publ_author_name
"Z.Gultekin"
"W.Frey"
"V.Jager"
_chemical_name_systematic
;
(3aS,4R,5S,6R)-4-Acetoxy-5,6-isopropylidenedioxy-3a,4,5,6-tetrahydro-3H-cyclop
ent(c)isoxazole
;
_chemical_melting_point 436
_cell_volume   1210.721
_exptl_crystal_colour 'colorless'
_exptl_crystal_density_diffrn 1.323
_exptl_special_details
;
Melting point range 436-437K

;
_exptl_crystal_description 'needles'
_exptl_crystal_preparation 'ethyl acetate'
_diffrn_ambient_temperature 293
#These two values have been output from a single CSD field.
_refine_ls_R_factor_gt 0.052
_refine_ls_wR_factor_gt 0.052
loop_
_citation_database_id_CSD
_citation_special_details
EDAFUL "is a stereoisomer of this entry"
_symmetry_cell_setting orthorhombic
_symmetry_space_group_name_H-M 'P 21 21 21'
_symmetry_Int_Tables_number 19
loop_
_symmetry_equiv_pos_site_id
_symmetry_equiv_pos_as_xyz
1 x,y,z
2 1/2-x,-y,1/2+z
3 -x,1/2+y,1/2-z
4 1/2+x,1/2-y,-z
_cell_length_a 5.5206(6)
_cell_length_b 14.0083(9)
_cell_length_c 15.6557(9)
_cell_angle_alpha 90
_cell_angle_beta 90
_cell_angle_gamma 90
_cell_formula_units_Z 4
loop_
_atom_type_symbol
_atom_type_radius_bond
C 0.68
H 0.23
N 0.68
O 0.68
loop_
_atom_site_label
_atom_site_type_symbol
_atom_site_fract_x
_atom_site_fract_y
_atom_site_fract_z
N1 N 0.5632(7) 0.4096(2) 0.6108(2)
O1 O 0.6585(7) 0.3394(2) 0.5526(2)
C1 C 0.8946(9) 0.3722(3) 0.5222(3)
H1 H 0.88200 0.39870 0.46510
H2 H 1.01050 0.32010 0.52140
O2 O 0.7965(5) 0.5509(2) 0.76208(17)
C2 C 0.9693(6) 0.4477(2) 0.5855(2)
H3 H 1.09020 0.42220 0.62520
O3 O 1.1219(5) 0.61500(19) 0.69711(15)
C3 C 0.7351(7) 0.4648(2) 0.6305(2)
O4 O 0.8994(5) 0.57215(17) 0.48325(15)
C4 C 0.7280(7) 0.5589(2) 0.6748(2)
H4 H 0.57320 0.59210 0.66720
O5 O 1.1700(7) 0.6856(2) 0.4502(2)
C5 C 0.9442(7) 0.6123(2) 0.6314(2)
H5 H 0.89890 0.67630 0.61180
C6 C 1.0360(7) 0.5495(2) 0.55879(19)
H6 H 1.21070 0.55690 0.54970
C7 C 0.9956(8) 0.6130(3) 0.7765(2)
C8 C 0.9109(13) 0.7121(3) 0.8004(3)
H7 H 0.82650 0.70960 0.85400
H8 H 0.80410 0.73590 0.75700
H9 H 1.04840 0.75370 0.80550
C9 C 1.1603(10) 0.5698(5) 0.8418(3)
H10 H 1.07950 0.56790 0.89610
H11 H 1.30460 0.60770 0.84650
H12 H 1.20270 0.50620 0.82470
C10 C 0.9862(9) 0.6442(2) 0.4336(2)
C11 C 0.8181(12) 0.6629(3) 0.3610(3)
H13 H 0.68500 0.61890 0.36340
H14 H 0.90320 0.65490 0.30800
H15 H 0.75770 0.72710 0.36480
#END
