
#######################################################################
#
#                 Cambridge Crystallographic Data Centre
#                                CCDC
#
#######################################################################
#
# If this CIF has been generated from an entry in the Cambridge
# Structural Database, then it will include bibliographic, chemical,
# crystal, experimental, refinement or atomic coordinate data resulting
# from the CCDC's data processing and validation procedures.
#
#######################################################################

data_CSD_CIF_XUMYEL
_audit_creation_date 2015-09-15
_audit_creation_method CSD-ConQuest-V1
_database_code_CSD XUMYEL
_database_code_depnum_ccdc_archive 'CCDC 1053272'
_chemical_formula_sum 'C10 H6 N14 O12'
_chemical_formula_moiety
;
C10 H6 N14 O12
;
_journal_coden_Cambridge 1220
_journal_volume 21
_journal_year 2015
_journal_page_first 11401
_journal_name_full 'Chem.-Eur.J. '
loop_
_publ_author_name
"Yongxing Tang"
"Haixiang Gao"
"D.A.Parrish"
"J.M.Shreeve"
_chemical_name_systematic
;
3,5-bis((3,4,5-Trinitro-1H-pyrazol-1-yl)methyl)-4H-1,2,4-triazol-4-amine
;
_cell_volume   1846.104
_exptl_crystal_colour 'yellow'
_exptl_crystal_density_diffrn 1.85
_exptl_crystal_description 'irregular'
_diffrn_ambient_temperature 150
#These two values have been output from a single CSD field.
_refine_ls_R_factor_gt 0.0656
_refine_ls_wR_factor_gt 0.0656
_symmetry_cell_setting monoclinic
_symmetry_space_group_name_H-M 'P 21/n'
_symmetry_Int_Tables_number 14
loop_
_symmetry_equiv_pos_site_id
_symmetry_equiv_pos_as_xyz
1 x,y,z
2 1/2-x,1/2+y,1/2-z
3 -x,-y,-z
4 -1/2+x,-1/2-y,-1/2+z
_cell_length_a 10.5646(17)
_cell_length_b 16.861(3)
_cell_length_c 11.4862(19)
_cell_angle_alpha 90
_cell_angle_beta 115.540(2)
_cell_angle_gamma 90
_cell_formula_units_Z 4
loop_
_atom_type_symbol
_atom_type_radius_bond
C 0.68
H 0.23
N 0.68
O 0.68
loop_
_atom_site_label
_atom_site_type_symbol
_atom_site_fract_x
_atom_site_fract_y
_atom_site_fract_z
N1 N 0.8580(4) 0.3671(2) 0.3249(4)
N2 N 0.7687(4) 0.3092(2) 0.3180(4)
C1 C 0.6341(5) 0.3358(3) 0.2644(4)
C2 C 0.6359(5) 0.4139(3) 0.2346(4)
C3 C 0.7776(5) 0.4302(3) 0.2747(5)
N3 N 0.8394(5) 0.5054(3) 0.2665(5)
O1 O 0.9655(4) 0.5095(3) 0.3074(5)
O2 O 0.7557(4) 0.5593(2) 0.2190(4)
N4 N 0.5137(4) 0.4659(3) 0.1712(4)
O3 O 0.4396(4) 0.4525(3) 0.0572(4)
O4 O 0.4939(4) 0.5161(2) 0.2359(4)
N5 N 0.5143(4) 0.2878(3) 0.2483(4)
O5 O 0.4008(3) 0.3221(2) 0.2012(3)
O6 O 0.5334(4) 0.2182(2) 0.2818(4)
C4 C 0.8204(5) 0.2283(3) 0.3645(5)
H1 H 0.76900 0.18950 0.29550
H2 H 0.80130 0.21570 0.43960
C5 C 0.9730(5) 0.2206(3) 0.4025(4)
N6 N 1.0720(4) 0.2281(2) 0.5189(4)
N7 N 1.1985(4) 0.2119(2) 0.5148(4)
C6 C 1.1696(5) 0.1957(3) 0.3937(4)
N8 N 1.0295(4) 0.2003(2) 0.3192(4)
N9 N 0.9647(4) 0.1857(3) 0.1853(4)
H3 H 0.924(6) 0.225(4) 0.161(6)
H4 H 0.917(6) 0.143(4) 0.166(5)
C7 C 1.2761(5) 0.1818(3) 0.3439(4)
H5 H 1.36990 0.19540 0.41220
H6 H 1.25670 0.21760 0.26990
N10 N 1.2785(4) 0.0983(2) 0.3020(3)
N11 N 1.3317(4) 0.0419(2) 0.3928(4)
C8 C 1.3231(5) -0.0240(3) 0.3277(4)
C9 C 1.2634(5) -0.0123(3) 0.1936(4)
C10 C 1.2358(5) 0.0685(3) 0.1834(4)
N12 N 1.3823(4) -0.0965(3) 0.3997(4)
O7 O 1.3743(4) -0.1051(2) 0.5018(4)
O8 O 1.4390(5) -0.1420(2) 0.3550(4)
N13 N 1.2424(4) -0.0681(3) 0.0913(4)
O9 O 1.2207(4) -0.1369(2) 0.1083(4)
O10 O 1.2453(4) -0.0412(2) -0.0068(3)
N14 N 1.1669(4) 0.1145(2) 0.0652(4)
O11 O 1.2181(5) 0.1785(2) 0.0604(4)
O12 O 1.0632(4) 0.0854(2) -0.0197(3)
#END
