
#######################################################################
#
#                 Cambridge Crystallographic Data Centre
#                                CCDC
#
#######################################################################
#
# If this CIF has been generated from an entry in the Cambridge
# Structural Database, then it will include bibliographic, chemical,
# crystal, experimental, refinement or atomic coordinate data resulting
# from the CCDC's data processing and validation procedures.
#
#######################################################################

data_CSD_CIF_XUNYEL
_audit_creation_date 2010-09-24
_audit_creation_method CSD-ConQuest-V1
_database_code_CSD XUNYEL
_database_code_depnum_ccdc_archive 'CCDC 742688'
_chemical_formula_sum 'C41 H55 N5 O2'
_chemical_formula_moiety
;
C41 H55 N5 O2
;
_journal_coden_Cambridge 1145
_journal_volume 20
_journal_year 2010
_journal_page_first 2310
_journal_name_full 'J.Mater.Chem. '
loop_
_publ_author_name
"C.Martelli"
"J.Canning"
"T.Khoury"
"N.Skivesen"
"M.Kristensen"
"G.Huyang"
"P.Jensen"
"C.Neto"
"Tze Jing Sum"
"M.B.Hovgaard"
"B.C.Gibson"
"M.J.Crossley"
_chemical_name_systematic
;
5,10,15-Triheptyl-20-nitroporphyrin
;
_chemical_melting_point 471.15
_cell_volume   1986.427
_exptl_crystal_colour 'red'
_exptl_crystal_density_diffrn 1.087
_exptl_special_details
;
Melting point range 471.15-473.15K

;
_exptl_crystal_description 'needle'
_diffrn_ambient_temperature 150
_refine_special_details
;
A heptyl side-chain is equally disordered over four sites.

;
#These two values have been output from a single CSD field.
_refine_ls_R_factor_gt 0.0764
_refine_ls_wR_factor_gt 0.0764
_symmetry_cell_setting triclinic
_symmetry_space_group_name_H-M 'P -1'
_symmetry_Int_Tables_number 2
loop_
_symmetry_equiv_pos_site_id
_symmetry_equiv_pos_as_xyz
1 x,y,z
2 -x,-y,-z
_cell_length_a 10.485(2)
_cell_length_b 12.451(2)
_cell_length_c 15.458(2)
_cell_angle_alpha 94.241(4)
_cell_angle_beta 96.867(4)
_cell_angle_gamma 95.615(4)
_cell_formula_units_Z 2
loop_
_atom_type_symbol
_atom_type_radius_bond
C 0.68
H 0.23
N 0.68
O 0.68
loop_
_atom_site_label
_atom_site_type_symbol
_atom_site_fract_x
_atom_site_fract_y
_atom_site_fract_z
O1 O 0.1202(3) 0.0474(2) 0.3994(2)
O2 O 0.3285(3) 0.0635(2) 0.4313(2)
N1 N 0.2247(3) 0.1019(2) 0.4252(2)
N2 N 0.3229(2) 0.3973(2) 0.43030(18)
N3 N 0.3259(3) 0.6268(2) 0.47929(17)
H1 H 0.289(3) 0.561(2) 0.495(2)
N4 N 0.1266(3) 0.5724(2) 0.59150(17)
N5 N 0.1208(3) 0.3421(2) 0.54147(18)
H2 H 0.158(3) 0.407(3) 0.523(2)
C1 C 0.2240(3) 0.2174(3) 0.4506(2)
C2 C 0.3079(3) 0.2882(3) 0.4119(2)
C3 C 0.3909(3) 0.2552(3) 0.3469(2)
H3 H 0.39530 0.18370 0.32220
C4 C 0.4591(3) 0.3461(3) 0.3295(2)
H4 H 0.52250 0.35130 0.29040
C5 C 0.4177(3) 0.4353(3) 0.3817(2)
C6 C 0.4687(3) 0.5428(3) 0.3808(2)
C7 C 0.4208(3) 0.6312(3) 0.4251(2)
C8 C 0.4590(3) 0.7434(3) 0.4194(2)
H5 H 0.52350 0.77190 0.38670
C9 C 0.3873(3) 0.8027(3) 0.4688(2)
H6 H 0.39250 0.87950 0.47570
C10 C 0.3031(3) 0.7298(3) 0.5085(2)
C11 C 0.2173(3) 0.7581(3) 0.5678(2)
C12 C 0.1378(3) 0.6835(3) 0.6070(2)
C13 C 0.0518(3) 0.7154(3) 0.6684(2)
H7 H 0.04250 0.78730 0.69000
C14 C -0.0124(4) 0.6242(3) 0.6892(2)
H8 H -0.07600 0.61900 0.72810
C15 C 0.0343(3) 0.5347(3) 0.6405(2)
C16 C -0.0127(3) 0.4246(3) 0.6455(2)
C17 C 0.0323(3) 0.3370(3) 0.6013(2)
C18 C -0.0022(3) 0.2245(3) 0.6086(2)
H9 H -0.06110 0.19550 0.64520
C19 C 0.0628(3) 0.1663(3) 0.5549(2)
H10 H 0.05840 0.08960 0.54770
C20 C 0.1393(3) 0.2404(3) 0.5111(2)
C21 C 0.5817(3) 0.5695(3) 0.3311(2)
H11 H 0.63670 0.50920 0.33330
H12 H 0.63430 0.63530 0.36080
C22 C 0.5430(3) 0.5886(3) 0.2356(2)
H13 H 0.48740 0.64840 0.23290
H14 H 0.49190 0.52250 0.20520
C23 C 0.6603(3) 0.6168(3) 0.1880(2)
H15 H 0.70950 0.68430 0.21720
H16 H 0.71750 0.55820 0.19290
C24 C 0.6243(4) 0.6319(3) 0.0923(2)
H17 H 0.56840 0.69150 0.08780
H18 H 0.57280 0.56500 0.06380
C25 C 0.7391(4) 0.6577(4) 0.0416(2)
H19 H 0.79030 0.72520 0.06920
H20 H 0.79550 0.59850 0.04590
C26 C 0.6988(4) 0.6711(4) -0.0538(3)
H21 H 0.64270 0.73060 -0.05800
H22 H 0.64700 0.60380 -0.08120
C27 C 0.8133(5) 0.6963(5) -0.1052(3)
H23 H 0.86450 0.76340 -0.07900
H24 H 0.78080 0.70490 -0.16610
H25 H 0.86750 0.63650 -0.10330
C28 C 0.2157(4) 0.8776(3) 0.5925(2)
H26 H 0.12840 0.89080 0.60610
H27 H 0.23380 0.91830 0.54190
C29 C 0.3151(4) 0.9200(3) 0.6714(3)
H28 H 0.28990 0.88540 0.72340
H29 H 0.40010 0.89720 0.66070
C30 C 0.3300(11) 1.0402(7) 0.6918(6)
H30 H 0.24630 1.06900 0.67640
H31 H 0.39370 1.07450 0.65710
C31 C 0.3775(15) 1.0674(14) 0.7933(9)
H32 H 0.38400 1.14690 0.80680
H33 H 0.31110 1.03430 0.82670
C32 C 0.5054(17) 1.029(3) 0.8246(15)
H34 H 0.49780 0.94900 0.82530
H35 H 0.54000 1.06240 0.88390
C33 C 0.5915(17) 1.067(2) 0.7557(14)
H36 H 0.58660 1.14460 0.74700
H37 H 0.56770 1.02340 0.69880
C34 C 0.7273(18) 1.047(2) 0.7993(16)
H38 H 0.79190 1.06730 0.76090
H39 H 0.72790 0.97040 0.80930
H40 H 0.74780 1.09130 0.85530
C35 C -0.1176(3) 0.4002(3) 0.7025(2)
H41 H -0.17040 0.33210 0.67800
H42 H -0.17490 0.45890 0.70030
C36 C -0.0673(3) 0.3890(3) 0.7990(2)
H43 H -0.01270 0.32850 0.80220
H44 H -0.01310 0.45630 0.82390
C37 C -0.1785(3) 0.3678(3) 0.8528(2)
H45 H -0.23200 0.42900 0.84950
H46 H -0.23350 0.30160 0.82630
C38 C -0.1359(3) 0.3537(3) 0.9483(2)
H47 H -0.08060 0.41960 0.97500
H48 H -0.08330 0.29190 0.95180
C39 C -0.2488(3) 0.3335(3) 1.0003(2)
H49 H -0.30130 0.26540 0.97540
H50 H -0.30410 0.39320 0.99370
C40 C -0.2079(4) 0.3254(4) 1.0973(2)
H51 H -0.15300 0.26550 1.10410
H52 H -0.15520 0.39340 1.12240
C41 C -0.3221(4) 0.3056(4) 1.1484(3)
H53 H -0.37930 0.36270 1.13960
H54 H -0.29070 0.30650 1.21080
H55 H -0.37000 0.23500 1.12770
C42? C 0.3151(4) 0.9200(3) 0.6714(3)
C43? C 0.3151(4) 0.9200(3) 0.6714(3)
C44? C 0.3151(4) 0.9200(3) 0.6714(3)
C45? C 0.3300(11) 1.0402(7) 0.6918(6)
C46? C 0.2995(10) 1.0381(7) 0.7018(7)
C47? C 0.2995(10) 1.0381(7) 0.7018(7)
C48? C 0.4314(14) 1.0840(13) 0.7667(10)
C49? C 0.188(3) 1.055(4) 0.7548(18)
C50? C 0.176(3) 1.054(4) 0.743(2)
C51? C 0.5464(17) 1.034(3) 0.8091(16)
C52? C 0.224(3) 1.020(3) 0.8485(15)
C53? C 0.177(3) 1.005(3) 0.8324(16)
C54? C 0.6512(17) 1.068(2) 0.7531(15)
C55? C 0.099(2) 1.012(3) 0.8940(16)
C56? C 0.051(3) 1.026(3) 0.8717(17)
C57? C 0.7863(18) 1.044(2) 0.7933(16)
C58? C 0.149(4) 0.986(3) 0.9877(17)
C59? C 0.073(4) 0.970(3) 0.9569(19)
H56? H 0.28990 0.88540 0.72340
H57? H 0.40010 0.89720 0.66070
H58? H 0.40330 0.91570 0.65550
H59? H 0.30410 0.87380 0.72000
H60? H 0.40330 0.91570 0.65550
H61? H 0.30410 0.87380 0.72000
H62? H 0.24580 1.06240 0.70510
H63? H 0.35080 1.07460 0.63880
H64? H 0.38090 1.07000 0.73760
H65? H 0.28800 1.07910 0.64950
H66? H 0.37500 1.06670 0.74480
H67? H 0.30090 1.08170 0.65080
H68? H 0.38200 1.10250 0.81540
H69? H 0.46820 1.15410 0.74900
H70? H 0.10810 1.01100 0.72610
H71? H 0.17190 1.13200 0.75810
H72? H 0.10020 1.02000 0.70290
H73? H 0.16760 1.13280 0.75170
H74? H 0.52910 0.95460 0.80680
H75? H 0.57060 1.06410 0.87070
H76? H 0.25890 0.94860 0.84520
H77? H 0.29070 1.07350 0.88230
H78? H 0.25310 1.03820 0.87300
H79? H 0.18260 0.92600 0.82420
H80? H 0.65250 1.14650 0.74600
H81? H 0.63000 1.02870 0.69430
H82? H 0.05980 1.08080 0.89470
H83? H 0.03440 0.95290 0.86450
H84? H 0.04440 1.10450 0.88340
H85? H -0.02720 0.99220 0.83330
H86? H 0.85090 1.07070 0.75680
H87? H 0.78730 0.96600 0.79630
H88? H 0.80660 1.08110 0.85230
H89? H 0.07710 0.97830 1.02230
H90? H 0.21330 1.04510 1.01520
H91? H 0.18980 0.91820 0.98490
H92? H -0.00070 0.97690 0.98990
H93? H 0.15220 1.00410 0.99240
H94? H 0.08090 0.89300 0.94280
#END
