
#######################################################################
#
#                 Cambridge Crystallographic Data Centre
#                                CCDC
#
#######################################################################
#
# If this CIF has been generated from an entry in the Cambridge
# Structural Database, then it will include bibliographic, chemical,
# crystal, experimental, refinement or atomic coordinate data resulting
# from the CCDC's data processing and validation procedures.
#
#######################################################################

data_CSD_CIF_XUQKAW
_audit_creation_date 2010-09-20
_audit_creation_method CSD-ConQuest-V1
_database_code_CSD XUQKAW
_database_code_depnum_ccdc_archive 'CCDC 721577'
_chemical_formula_sum 'C16 H16 N6 O5'
_chemical_formula_moiety
;
C16 H16 N6 O5
;
_journal_coden_Cambridge 35
_journal_volume 74
_journal_year 2009
_journal_page_first 5810
_journal_name_full 'J.Org.Chem. '
loop_
_publ_author_name
"T.E.Storr"
"C.G.Baumann"
"R.J.Thatcher"
"S.De Ornellas"
"A.C.Whitwood"
"I.J.S.Fairlamb"
_chemical_name_systematic
;
2-(Hydroxymethyl)-5-(6-((4-nitrophenyl)amino)-9H-purin-9-yl)tetrahydrofuran-3-
ol
;
_chemical_name_common
;
N-(4-nitrophenyl)-2'-deoxyadenosine
;
_cell_volume    796.573
_exptl_crystal_colour 'colorless'
_exptl_crystal_density_diffrn 1.552
_exptl_crystal_description 'plate'
_diffrn_ambient_temperature 120
#These two values have been output from a single CSD field.
_refine_ls_R_factor_gt 0.0347
_refine_ls_wR_factor_gt 0.0347
_symmetry_cell_setting monoclinic
_symmetry_space_group_name_H-M 'P 21'
_symmetry_Int_Tables_number 4
loop_
_symmetry_equiv_pos_site_id
_symmetry_equiv_pos_as_xyz
1 x,y,z
2 -x,1/2+y,-z
_cell_length_a 11.53458(17)
_cell_length_b 4.57235(6)
_cell_length_c 15.5302(2)
_cell_angle_alpha 90
_cell_angle_beta 103.4584(15)
_cell_angle_gamma 90
_cell_formula_units_Z 2
loop_
_atom_type_symbol
_atom_type_radius_bond
C 0.68
H 0.23
N 0.68
O 0.68
loop_
_atom_site_label
_atom_site_type_symbol
_atom_site_fract_x
_atom_site_fract_y
_atom_site_fract_z
C1 C 0.81095(15) 0.0850(4) 0.25179(11)
H1 H 0.77250 -0.06230 0.27580
C2 C 0.82120(14) 0.3769(4) 0.14018(10)
C3 C 0.92797(14) 0.4979(4) 0.18648(11)
C4 C 0.97282(14) 0.3953(4) 0.27345(10)
C5 C 0.88762(15) 0.7003(4) 0.05916(11)
H2 H 0.89180 0.81790 0.01110
C6 C 0.69442(14) 0.4452(4) -0.01397(10)
H3 H 0.64510 0.29510 0.00510
C7 C 0.61626(14) 0.7026(4) -0.05200(11)
H4 H 0.66330 0.87580 -0.05590
H5 H 0.55860 0.74670 -0.01730
C8 C 0.55620(14) 0.5861(4) -0.14325(11)
H6 H 0.52520 0.74410 -0.18490
C9 C 0.65938(13) 0.4232(4) -0.16884(10)
H7 H 0.62880 0.24990 -0.20400
C10 C 0.72865(15) 0.6117(4) -0.21938(11)
H8 H 0.67660 0.67120 -0.27510
H9 H 0.75580 0.78680 -0.18540
C11 C 1.14809(14) 0.4023(4) 0.40264(11)
C12 C 1.11357(16) 0.1989(4) 0.45922(12)
H10 H 1.03620 0.12610 0.44630
C13 C 1.19499(15) 0.1062(5) 0.53457(11)
H11 H 1.17250 -0.02890 0.57240
C14 C 1.31028(16) 0.2162(5) 0.55317(11)
C15 C 1.34578(15) 0.4232(5) 0.49914(11)
H12 H 1.42300 0.49730 0.51300
C16 C 1.26435(15) 0.5168(4) 0.42444(12)
H13 H 1.28660 0.65730 0.38810
N1 N 0.91209(12) 0.1859(3) 0.30465(9)
N2 N 0.75805(12) 0.1666(3) 0.16976(9)
N3 N 0.79550(12) 0.5103(3) 0.05877(9)
N4 N 0.96927(12) 0.7006(4) 0.13378(9)
N5 N 1.07568(13) 0.5068(3) 0.32397(10)
H14 H 1.108(2) 0.652(7) 0.2950(16)
N6 N 1.39762(14) 0.1050(4) 0.62931(10)
O1 O 0.73928(10) 0.3335(3) -0.08576(7)
O2 O 0.46675(10) 0.3766(3) -0.13826(8)
H15 H 0.401(3) 0.488(8) -0.142(2)
O3 O 0.82856(11) 0.4602(3) -0.23643(8)
H16 H 0.878(2) 0.417(6) -0.1867(16)
O4 O 1.36509(14) -0.0696(5) 0.67818(10)
O5 O 1.50078(12) 0.1892(5) 0.64132(9)
#END
