
#######################################################################
#
#                 Cambridge Crystallographic Data Centre
#                                CCDC
#
#######################################################################
#
# If this CIF has been generated from an entry in the Cambridge
# Structural Database, then it will include bibliographic, chemical,
# crystal, experimental, refinement or atomic coordinate data resulting
# from the CCDC's data processing and validation procedures.
#
#######################################################################

data_CSD_CIF_XUQMON
_audit_creation_date 2015-09-16
_audit_creation_method CSD-ConQuest-V1
_database_code_CSD XUQMON
_database_code_depnum_ccdc_archive 'CCDC 1424849'
_chemical_formula_sum 'C23 H35 N1 O5'
_chemical_formula_moiety
;
C23 H35 N1 O5
;
_journal_coden_Cambridge 1336
_journal_volume 16
_journal_year 2014
_journal_page_first 1936
_journal_name_full 'Org.Lett. '
loop_
_publ_author_name
"Xiaofei Zhang"
"P.Cividino"
"J.-F.Poisson"
"P.Shpak-Kraievskyi"
"Mathieu Y.Laurent"
"A.Martel"
"G.Dujardin"
"Sandrine Py"
_chemical_name_systematic
;
dimethyl 2-(oxido(1-(2,4,6-triisopropylphenyl)ethyl)azanylidene)succinate
;
_cell_volume   4692.943
_exptl_crystal_colour 'colorless'
_exptl_crystal_density_diffrn 1.148
_exptl_crystal_description 'plate'
_diffrn_ambient_temperature 200
#These two values have been output from a single CSD field.
_refine_ls_R_factor_gt 0.0669
_refine_ls_wR_factor_gt 0.0669
_symmetry_cell_setting monoclinic
_symmetry_space_group_name_H-M 'P 21'
_symmetry_Int_Tables_number 4
loop_
_symmetry_equiv_pos_site_id
_symmetry_equiv_pos_as_xyz
1 x,y,z
2 -x,1/2+y,-z
_cell_length_a 15.553(5)
_cell_length_b 9.326(5)
_cell_length_c 32.444(5)
_cell_angle_alpha 90
_cell_angle_beta 94.255(5)
_cell_angle_gamma 90
_cell_formula_units_Z 8
loop_
_atom_type_symbol
_atom_type_radius_bond
C 0.68
H 0.23
N 0.68
O 0.68
loop_
_atom_site_label
_atom_site_type_symbol
_atom_site_fract_x
_atom_site_fract_y
_atom_site_fract_z
O1 O 0.3433(2) 0.3671(5) 0.03837(12)
O2 O 0.4858(3) 0.8660(5) 0.07181(14)
O3 O 0.4372(3) 0.3993(5) 0.09288(14)
O4 O 0.2193(3) 0.7228(5) 0.08436(13)
O5 O 0.4656(3) 0.6751(5) 0.03179(13)
N1 N 0.2504(3) 0.5989(5) 0.07839(13)
C1 C 0.3347(3) 0.5741(7) 0.08059(16)
C2 C 0.1965(3) 0.2099(7) 0.08210(16)
C3 C 0.2498(4) -0.0219(7) 0.17725(18)
H1 H 0.23380 -0.10930 0.16050
C4 C 0.1861(3) 0.4783(7) 0.07030(18)
H2 H 0.190(4) 0.462(5) 0.0411(19)
C5 C 0.1999(3) 0.3493(6) 0.09936(15)
C6 C 0.1751(5) 0.1798(8) 0.03684(18)
H3 H 0.186(5) 0.248(6) 0.022(2)
C7 C 0.2149(3) 0.3660(6) 0.14194(16)
C8 C 0.2283(3) 0.1079(6) 0.15045(17)
C9 C 0.2165(4) 0.5091(7) 0.16425(17)
H4 H 0.20510 0.58580 0.14300
C10 C 0.3931(4) 0.6936(7) 0.09427(18)
H5 H 0.42930 0.66310 0.11910
H6 H 0.35790 0.77640 0.10220
C11 C 0.3460(4) -0.0270(9) 0.1883(2)
H7 H 0.37640 -0.03140 0.16290
H8 H 0.36000 -0.11220 0.20520
H9 H 0.36380 0.05930 0.20390
C12 C 0.4510(3) 0.7407(7) 0.06138(18)
C13 C 0.1457(5) 0.5192(8) 0.1952(2)
H10 H 0.08940 0.49820 0.18080
H11 H 0.14510 0.61610 0.20680
H12 H 0.15760 0.44950 0.21750
C14 C 0.3049(5) 0.5389(8) 0.1867(2)
H13 H 0.31590 0.46930 0.20910
H14 H 0.30570 0.63610 0.19820
H15 H 0.34970 0.53040 0.16710
C15 C 0.2285(4) 0.2454(6) 0.16642(17)
H16 H 0.23850 0.25770 0.19550
C16 C 0.2117(3) 0.0940(6) 0.10852(17)
H17 H 0.21050 0.00040 0.09700
C17 C 0.2295(6) 0.0591(9) 0.0200(2)
H18 H 0.21520 -0.03180 0.03300
H19 H 0.29080 0.08030 0.02630
H20 H 0.21730 0.05180 -0.01000
C18 C 0.2007(4) -0.0268(8) 0.2163(2)
H21 H 0.21580 0.05720 0.23350
H22 H 0.21620 -0.11430 0.23190
H23 H 0.13850 -0.02660 0.20860
C19 C 0.0942(4) 0.5368(8) 0.0698(2)
H24 H 0.08720 0.61590 0.05000
H25 H 0.08340 0.57170 0.09750
H26 H 0.05310 0.46030 0.06180
C20 C 0.5453(5) 0.9237(9) 0.0438(3)
H27 H 0.51290 0.96480 0.01960
H28 H 0.58280 0.84680 0.03500
H29 H 0.58060 0.99850 0.05790
C21 C 0.3696(3) 0.4354(7) 0.06734(18)
C22 C 0.0791(6) 0.1433(12) 0.0291(3)
H30 H 0.06470 0.13190 -0.00060
H31 H 0.04440 0.22090 0.03970
H32 H 0.06680 0.05370 0.04340
C23 C 0.4784(5) 0.2661(9) 0.0827(3)
H33 H 0.49490 0.27030 0.05410
H34 H 0.43810 0.18640 0.08550
H35 H 0.52990 0.25130 0.10150
O6 O 0.8300(2) 0.3462(5) 0.56500(13)
O7 O 0.9756(3) -0.0164(5) 0.59837(13)
O8 O 0.7941(3) 0.3348(5) 0.63029(14)
O9 O 0.7708(2) -0.0195(5) 0.55236(13)
N2 N 0.9472(3) 0.1130(5) 0.59648(13)
O10 O 0.7500(4) -0.1928(6) 0.59738(18)
C24 C 1.1217(4) 0.1991(8) 0.70254(19)
H36 H 1.12790 0.10570 0.71630
H37 H 1.12690 0.27550 0.72330
H38 H 1.16690 0.21030 0.68330
C25 C 1.0195(4) 0.6094(7) 0.66172(18)
C26 C 1.0102(3) 0.2288(7) 0.58456(17)
H39 H 0.986(4) 0.245(5) 0.5560(18)
C27 C 1.0223(3) 0.3484(6) 0.65553(16)
C28 C 1.0119(3) 0.3606(6) 0.61220(15)
C29 C 1.0331(4) 0.2081(7) 0.67868(16)
H40 H 1.02890 0.12850 0.65800
C30 C 0.9940(4) 0.5232(8) 0.54762(18)
H41 H 0.973(4) 0.456(6) 0.535(2)
C31 C 0.9608(4) 0.1869(7) 0.70841(18)
H42 H 0.96530 0.09070 0.72050
H43 H 0.90450 0.19780 0.69310
H44 H 0.96680 0.25880 0.73050
C32 C 0.8300(3) 0.2846(6) 0.59730(19)
C33 C 0.8170(4) 0.0234(7) 0.62168(18)
H45 H 0.77070 0.06470 0.63730
H46 H 0.85520 -0.03300 0.64130
C34 C 0.8680(3) 0.1428(6) 0.60549(16)
C35 C 0.9369(5) 0.6516(8) 0.5358(2)
H47 H 0.88340 0.64500 0.54990
H48 H 0.92330 0.65220 0.50580
H49 H 0.96730 0.74020 0.54420
C36 C 1.0251(3) 0.4728(7) 0.67896(17)
H50 H 1.03110 0.46440 0.70820
C37 C 1.0990(4) 0.1618(7) 0.58309(19)
H51 H 1.13880 0.23230 0.57260
H52 H 1.09540 0.07820 0.56480
H53 H 1.12030 0.13180 0.61100
C38 C 0.9420(6) 0.7476(10) 0.7127(3)
H54 H 0.94000 0.66200 0.73020
H55 H 0.89020 0.75120 0.69360
H56 H 0.94450 0.83350 0.73020
C39 C 1.0040(3) 0.4971(6) 0.59361(16)
C40 C 0.7297(4) -0.1039(9) 0.5197(2)
H57 H 0.67330 -0.13610 0.52770
H58 H 0.76560 -0.18740 0.51460
H59 H 0.72200 -0.04580 0.49450
C41 C 1.1040(6) 0.753(1) 0.7150(3)
H60 H 1.10950 0.67030 0.73360
H61 H 1.10370 0.84150 0.73120
H62 H 1.15280 0.75460 0.69750
C42 C 0.7584(5) 0.4779(8) 0.6269(3)
H63 H 0.73140 0.50200 0.65230
H64 H 0.71510 0.48210 0.60340
H65 H 0.80460 0.54670 0.62260
C43 C 1.0215(5) 0.7416(8) 0.6882(2)
H66 H 1.01880 0.82620 0.66920
C44 C 1.0099(3) 0.6177(6) 0.61949(18)
H67 H 1.00720 0.71000 0.60710
C45 C 1.0807(5) 0.5364(10) 0.5295(2)
H68 H 1.11060 0.62190 0.54080
H69 H 1.07210 0.54470 0.49940
H70 H 1.11550 0.45110 0.53670
C46 C 0.7770(4) -0.0761(7) 0.5897(2)
O11 O 0.3329(2) 0.3607(6) 0.57505(14)
O12 O 0.4746(2) -0.0084(5) 0.60377(13)
O13 O 0.2951(3) 0.3406(5) 0.63960(14)
O14 O 0.2747(3) -0.0163(6) 0.56254(15)
N3 N 0.4476(3) 0.1208(5) 0.60197(14)
C47 C 0.5445(4) 0.6188(7) 0.66053(18)
C48 C 0.5495(4) 0.4834(7) 0.67845(16)
H71 H 0.56130 0.47670 0.70750
C49 C 0.5089(3) 0.2322(7) 0.58660(16)
H72 H 0.487(4) 0.247(5) 0.5594(17)
C50 C 0.4936(4) 0.5251(7) 0.54797(18)
H73 H 0.472(4) 0.453(6) 0.534(2)
C51 C 0.3708(3) 0.1528(6) 0.61381(17)
C52 C 0.5599(6) 0.7551(8) 0.6852(2)
H74 H 0.54670 0.83760 0.66610
C53 C 0.5955(3) 0.1605(7) 0.58147(17)
H75 H 0.62130 0.13060 0.60860
H76 H 0.63400 0.22850 0.56900
H77 H 0.58690 0.07640 0.56350
C54 C 0.5492(4) 0.2172(7) 0.67993(16)
H78 H 0.54040 0.13610 0.65990
C55 C 0.6403(4) 0.2063(8) 0.70094(19)
H79 H 0.64960 0.28400 0.72110
H80 H 0.68250 0.21410 0.68010
H81 H 0.64720 0.11370 0.71510
C56 C 0.5120(3) 0.5023(7) 0.59427(16)
C57 C 0.4811(5) 0.2054(8) 0.7119(2)
H82 H 0.48510 0.11090 0.72510
H83 H 0.42340 0.21770 0.69810
H84 H 0.49140 0.28010 0.73300
C58 C 0.5197(3) 0.3663(6) 0.61348(14)
O15 O 0.2583(4) -0.1868(6) 0.6083(3)
C59 C 0.5382(3) 0.3583(7) 0.65600(15)
C60 C 0.3227(4) 0.0339(7) 0.6315(2)
H85 H 0.27650 0.07480 0.64730
H86 H 0.36230 -0.02000 0.65110
C61 C 0.3320(3) 0.2966(7) 0.6066(2)
C62 C 0.5772(5) 0.5348(10) 0.5262(2)
H87 H 0.60900 0.62110 0.53540
H88 H 0.56360 0.53970 0.49620
H89 H 0.61270 0.44990 0.53290
C63 C 0.2827(4) -0.0691(8) 0.5998(3)
C64 C 0.4374(5) 0.6568(8) 0.5377(2)
H90 H 0.38680 0.65440 0.55390
H91 H 0.41870 0.65630 0.50820
H92 H 0.47080 0.74400 0.54430
C65 C 0.5260(4) 0.6245(6) 0.61841(18)
H93 H 0.52270 0.71560 0.60530
C66 C 0.2552(5) 0.4818(9) 0.6365(3)
H94 H 0.22890 0.50400 0.66220
H95 H 0.21070 0.48260 0.61340
H96 H 0.29910 0.55390 0.63160
C67 C 0.6548(7) 0.7663(10) 0.7008(3)
H97 H 0.66970 0.68680 0.71970
H98 H 0.66480 0.85760 0.71530
H99 H 0.69080 0.76170 0.67730
C68 C 0.2335(5) -0.1049(10) 0.5304(3)
H100 H 0.17650 -0.13440 0.53830
H101 H 0.26890 -0.19020 0.52650
H102 H 0.22720 -0.05050 0.50450
C69 C 0.5009(9) 0.7665(11) 0.7200(3)
H103 H 0.51310 0.68770 0.73950
H104 H 0.44080 0.76070 0.70870
H105 H 0.51060 0.85830 0.73420
O16 O 0.7730(3) 0.7276(5) 0.12975(14)
O17 O 0.9811(3) 0.7573(5) 0.13266(14)
O18 O 0.9334(3) 0.3520(6) 0.17768(14)
O19 O 0.9222(2) 0.3736(5) 0.10909(13)
N4 N 0.7990(3) 0.5989(6) 0.12721(14)
C70 C 0.6608(3) 0.4946(7) 0.18108(16)
H106 H 0.67990 0.57940 0.16530
O20 O 0.9657(4) 0.8849(6) 0.18976(17)
C71 C 0.6880(4) 0.1001(6) 0.16057(19)
C72 C 0.7238(3) 0.3575(7) 0.12060(15)
C73 C 0.7434(3) 0.2252(7) 0.10208(17)
C74 C 0.6852(3) 0.3608(7) 0.15858(16)
C75 C 0.7455(4) 0.4972(7) 0.09891(17)
H107 H 0.779(4) 0.487(6) 0.0758(18)
C76 C 0.7033(4) 0.5029(8) 0.22476(18)
H108 H 0.67910 0.42860 0.24190
H109 H 0.69270 0.59750 0.23650
H110 H 0.76560 0.48790 0.22410
C77 C 0.7246(3) 0.0991(7) 0.12286(19)
H111 H 0.73740 0.00960 0.11070
C78 C 1.0318(5) 0.8711(9) 0.1165(3)
H112 H 1.05570 0.83890 0.09100
H113 H 1.07900 0.89630 0.13690
H114 H 0.99520 0.95530 0.11070
C79 C 0.8662(4) 0.5553(7) 0.15071(17)
C80 C 0.6704(4) -0.0383(7) 0.1829(2)
H115 H 0.69340 -0.11870 0.16650
C81 C 0.6679(4) 0.5766(8) 0.08008(19)
H116 H 0.68680 0.65870 0.06420
H117 H 0.63300 0.61060 0.10210
H118 H 0.63320 0.51210 0.06170
C82 C 0.7807(4) 0.2134(8) 0.06005(18)
H119 H 0.816(4) 0.285(6) 0.0577(19)
C83 C 0.6689(3) 0.2306(6) 0.17728(17)
H120 H 0.64330 0.23190 0.20300
C84 C 0.8365(5) 0.0811(9) 0.0560(2)
H121 H 0.86500 0.08600 0.03000
H122 H 0.80040 -0.00500 0.05600
H123 H 0.88030 0.07690 0.07930
C85 C 0.7147(6) -0.0444(10) 0.2250(3)
H124 H 0.77640 -0.02660 0.22340
H125 H 0.70630 -0.13950 0.23690
H126 H 0.69040 0.02880 0.24240
C86 C 0.5620(4) 0.5026(8) 0.1824(2)
H127 H 0.53470 0.49070 0.15440
H128 H 0.54600 0.59600 0.19330
H129 H 0.54250 0.42620 0.20020
C87 C 0.9519(4) 0.7808(7) 0.1694(2)
C88 C 0.9011(4) 0.6552(7) 0.1832(2)
H130 H 0.93840 0.59970 0.20350
H131 H 0.85220 0.69240 0.19790
C89 C 0.7096(4) 0.2180(9) 0.02537(18)
H132 H 0.73520 0.22410 -0.00130
H133 H 0.67300 0.30200 0.02890
H134 H 0.67460 0.13070 0.02610
C90 C 0.9092(3) 0.4178(7) 0.14324(19)
C91 C 0.5735(5) -0.0609(10) 0.1839(3)
H135 H 0.54850 0.01930 0.19850
H136 H 0.56270 -0.15070 0.19830
H137 H 0.54700 -0.06570 0.15560
C92 C 0.9757(7) 0.2151(10) 0.1724(3)
H138 H 1.02460 0.22830 0.15540
H139 H 0.93460 0.14750 0.15870
H140 H 0.99640 0.17710 0.19950
#END
