
#######################################################################
#
#                 Cambridge Crystallographic Data Centre
#                                CCDC
#
#######################################################################
#
# If this CIF has been generated from an entry in the Cambridge
# Structural Database, then it will include bibliographic, chemical,
# crystal, experimental, refinement or atomic coordinate data resulting
# from the CCDC's data processing and validation procedures.
#
#######################################################################

data_CSD_CIF_XUQMUR
_audit_creation_date 2003-04-23
_audit_creation_method CSD-ConQuest-V1
_database_code_CSD XUQMUR
_database_code_depnum_ccdc_archive 'CCDC 194627'
_chemical_formula_sum 'C20 H24 N4 O4'
_chemical_formula_moiety
;
C20 H24 N4 O4
;
_journal_coden_Cambridge 24
_journal_volume 43
_journal_year 2002
_journal_page_first 8301
_journal_name_full 'Tetrahedron Lett. '
loop_
_publ_author_name
"G.Mehta"
"A.S.K.Murthy"
"J.D.Umarye"
_chemical_name_systematic
;
7-Methyloctahydrospiro(cyclopenta(a)pentalene-3,1'-cyclopropane)-4(2H)-one 
(2,4-dinitrophenyl)hydrazone
;
_cell_volume   1884.222
_exptl_crystal_density_diffrn 1.355
_diffrn_ambient_temperature 293
#These two values have been output from a single CSD field.
_refine_ls_R_factor_gt 0.0532
_refine_ls_wR_factor_gt 0.0532
_symmetry_cell_setting monoclinic
_symmetry_space_group_name_H-M 'P 21/c'
_symmetry_Int_Tables_number 14
loop_
_symmetry_equiv_pos_site_id
_symmetry_equiv_pos_as_xyz
1 x,y,z
2 x,1/2-y,1/2+z
3 -x,-y,-z
4 -x,-1/2+y,-1/2-z
_cell_length_a 11.715(4)
_cell_length_b 15.022(4)
_cell_length_c 10.731(3)
_cell_angle_alpha 90
_cell_angle_beta 93.844(5)
_cell_angle_gamma 90
_cell_formula_units_Z 4
loop_
_atom_type_symbol
_atom_type_radius_bond
C 0.68
H 0.23
N 0.68
O 0.68
loop_
_atom_site_label
_atom_site_type_symbol
_atom_site_fract_x
_atom_site_fract_y
_atom_site_fract_z
N1 N 0.58003(14) 0.15420(12) 0.84462(16)
N2 N 0.64584(13) 0.21376(10) 0.91691(15)
N3 N 0.46079(14) 0.02570(11) 0.68236(17)
O1 O 0.51537(15) -0.00333(10) 0.77551(16)
O2 O 0.41351(17) -0.02401(11) 0.60619(17)
O3 O 0.29533(15) 0.34843(13) 0.41228(16)
C1 C 0.78429(15) 0.23120(13) 1.09545(16)
C2 C 0.85781(15) 0.30118(12) 1.03322(16)
C3 C 0.97914(15) 0.25835(13) 1.03316(17)
N4 N 0.29799(15) 0.26848(16) 0.43487(17)
C4 C 0.49582(16) 0.27256(13) 0.71982(19)
C5 C 0.45273(15) 0.12045(12) 0.66419(17)
O4 O 0.24399(15) 0.21279(14) 0.37221(16)
C6 C 0.96137(16) 0.15971(13) 1.06372(18)
C7 C 0.51172(14) 0.18122(13) 0.74623(17)
C8 C 0.38298(16) 0.14937(14) 0.56276(19)
C9 C 0.86546(16) 0.15990(13) 1.15284(17)
C10 C 0.70562(15) 0.17719(13) 1.00690(16)
C11 C 0.7122(2) 0.07992(15) 1.0397(2)
C12 C 0.42689(16) 0.30015(15) 0.6204(2)
C13 C 1.05372(19) 0.31228(16) 1.1306(2)
C14 C 0.37110(15) 0.23809(14) 0.54176(18)
C15 C 0.7947(2) 0.07486(17) 1.1557(2)
C16 C 0.87409(16) 0.38548(13) 1.10914(17)
C17 C 0.7762(2) 0.44461(17) 1.1350(3)
C18 C 0.8622(2) 0.47510(15) 1.0476(2)
C19 C 0.9732(2) 0.36708(18) 1.2025(2)
C20 C 1.0675(2) 0.10736(19) 1.1090(3)
H1 H 0.7377(15) 0.2586(12) 1.1579(16)
H2 H 0.8217(15) 0.3138(12) 0.9479(17)
H3 H 0.5323(16) 0.3150(13) 0.7726(17)
H4 H 1.0091(15) 0.2637(13) 0.9502(18)
H5 H 0.4144(17) 0.3620(14) 0.6055(18)
H6 H 0.7059(19) 0.4268(15) 1.102(2)
H7 H 0.7399(18) 0.0491(15) 0.968(2)
H8 H 0.9002(15) 0.1754(12) 1.2368(18)
H9 H 0.3467(15) 0.1093(12) 0.5125(16)
H10 H 0.9303(16) 0.1313(12) 0.9885(18)
H11 H 0.5843(19) 0.0982(16) 0.859(2)
H12 H 0.7493(19) 0.0771(15) 1.230(2)
H13 H 1.004(2) 0.4185(17) 1.239(2)
H14 H 1.1041(19) 0.2763(15) 1.181(2)
H15 H 0.8387(19) 0.0208(16) 1.161(2)
H16 H 0.638(2) 0.0549(15) 1.0527(19)
H17 H 0.835(2) 0.4738(16) 0.955(2)
H18 H 1.123(3) 0.112(2) 1.051(3)
H19 H 1.105(2) 0.3530(17) 1.090(2)
H20 H 1.099(3) 0.130(2) 1.194(3)
H21 H 0.778(2) 0.4718(16) 1.219(2)
H22 H 1.048(2) 0.0435(19) 1.114(2)
H23 H 0.917(2) 0.5218(16) 1.078(2)
H24 H 0.942(2) 0.3347(16) 1.273(2)
#END
