
#######################################################################
#
#                 Cambridge Crystallographic Data Centre
#                                CCDC
#
#######################################################################
#
# If this CIF has been generated from an entry in the Cambridge
# Structural Database, then it will include bibliographic, chemical,
# crystal, experimental, refinement or atomic coordinate data resulting
# from the CCDC's data processing and validation procedures.
#
#######################################################################

data_CSD_CIF_XUQNAA
_audit_creation_date 2015-09-16
_audit_creation_method CSD-ConQuest-V1
_database_code_CSD XUQNAA
_database_code_depnum_ccdc_archive 'CCDC 1424851'
_chemical_formula_sum 'C28 H47 N1 O11'
_chemical_formula_moiety
;
C28 H47 N1 O11
;
_journal_coden_Cambridge 1336
_journal_volume 16
_journal_year 2014
_journal_page_first 1936
_journal_name_full 'Org.Lett. '
loop_
_publ_author_name
"Xiaofei Zhang"
"P.Cividino"
"J.-F.Poisson"
"P.Shpak-Kraievskyi"
"Mathieu Y.Laurent"
"A.Martel"
"G.Dujardin"
"Sandrine Py"
_chemical_name_systematic
;
t-butyl 
3-(2-t-butoxy-2-oxoethyl)-2-(6-(2,2-dimethyl-1,3-dioxolan-4-yl)-2,2-dimethylte
trahydrofuro[3,4-d][1,3]dioxol-4-yl)-5-ethoxy-1,2-oxazolidine-3-carboxylate
;
_cell_volume   3236.026
_exptl_crystal_colour 'brown'
_exptl_crystal_density_diffrn 1.171
_exptl_crystal_description 'needle'
_diffrn_ambient_temperature 296
#These two values have been output from a single CSD field.
_refine_ls_R_factor_gt 0.0541
_refine_ls_wR_factor_gt 0.0541
_symmetry_cell_setting monoclinic
_symmetry_space_group_name_H-M 'C 2'
_symmetry_Int_Tables_number 5
loop_
_symmetry_equiv_pos_site_id
_symmetry_equiv_pos_as_xyz
1 x,y,z
2 -x,y,-z
3 1/2+x,1/2+y,z
4 1/2-x,1/2+y,-z
_cell_length_a 26.5845(9)
_cell_length_b 9.3012(3)
_cell_length_c 14.1691(4)
_cell_angle_alpha 90
_cell_angle_beta 112.536(2)
_cell_angle_gamma 90
_cell_formula_units_Z 4
loop_
_atom_type_symbol
_atom_type_radius_bond
C 0.68
H 0.23
N 0.68
O 0.68
loop_
_atom_site_label
_atom_site_type_symbol
_atom_site_fract_x
_atom_site_fract_y
_atom_site_fract_z
O1 O 0.58842(8) 0.3983(2) 0.8543(2)
O2 O 0.78428(7) 0.2995(2) 0.73823(13)
O3 O 0.90335(9) 0.2879(2) 0.67187(18)
O4 O 0.88523(13) 0.5264(2) 0.6458(2)
O5 O 0.82175(7) 0.4398(2) 0.92951(14)
O6 O 0.81525(8) 0.5070(2) 1.08428(14)
O7 O 0.62673(9) 0.5989(3) 0.8271(2)
O8 O 0.66971(7) 0.3999(2) 0.69067(13)
O9 O 0.72463(10) 0.5918(3) 0.71326(16)
O10 O 0.81486(8) -0.0026(2) 0.87050(16)
O11 O 0.86043(10) 0.0424(2) 0.76633(19)
N1 N 0.77226(8) 0.3505(2) 0.89643(16)
C1 C 0.53604(15) 0.5781(5) 0.9020(3)
H1 H 0.49980 0.61110 0.88920
H2 H 0.55750 0.65660 0.89390
H3 H 0.55220 0.54140 0.97040
C2 C 0.53382(13) 0.4630(4) 0.8288(3)
C3 C 0.62943(11) 0.4748(3) 0.8514(2)
C4 C 0.68068(10) 0.3872(3) 0.88617(19)
H4 H 0.67250 0.29310 0.85440
H5 H 0.69340 0.37360 0.95950
C5 C 0.72637(10) 0.4556(3) 0.86074(18)
C6 C 0.77734(10) 0.2442(3) 0.82728(19)
H6 H 0.74450 0.18430 0.80450
C7 C 0.84122(11) 0.3018(3) 0.7574(2)
H7 H 0.85750 0.38860 0.79630
C8 C 0.84736(13) 0.3071(3) 0.6558(2)
H8 H 0.82480 0.23310 0.60960
C9 C 0.92531(15) 0.4216(4) 0.6566(3)
C10 C 0.9745(2) 0.4528(7) 0.7550(6)
H9 H 0.96230 0.47380 0.80910
H10 H 0.99410 0.53380 0.74460
H11 H 0.99800 0.37030 0.77320
C11 C 0.9392(3) 0.4100(5) 0.5628(5)
H12 H 0.95940 0.49330 0.55820
H13 H 0.90620 0.40400 0.50290
H14 H 0.96070 0.32530 0.56770
C12 C 0.83436(16) 0.4550(4) 0.6057(3)
H15 H 0.82120 0.44760 0.53190
H16 H 0.80740 0.50450 0.62420
C13 C 0.81026(11) 0.5507(3) 0.9867(2)
H17 H 0.83380 0.63370 0.99170
C14 C 0.86939(14) 0.4696(4) 1.1487(2)
H18 H 0.89400 0.54790 1.15150
H19 H 0.88100 0.38500 1.12230
C15 C 0.87042(19) 0.4396(6) 1.2538(3)
H20 H 0.84690 0.35980 1.25070
H21 H 0.85810 0.52300 1.27860
H22 H 0.90690 0.41680 1.29920
C16 C 0.75109(11) 0.5904(3) 0.9257(2)
H23 H 0.74870 0.67300 0.88240
H24 H 0.73240 0.61240 0.97090
C17 C 0.51121(19) 0.5178(9) 0.7204(4)
H25 H 0.53520 0.58930 0.71220
H26 H 0.47600 0.55940 0.70560
H27 H 0.50800 0.43940 0.67430
C18 C 0.70720(11) 0.4928(3) 0.7462(2)
C19 C 0.64054(14) 0.4161(4) 0.5783(2)
C20 C 0.6802(2) 0.3989(8) 0.5264(3)
H28 H 0.70730 0.47320 0.54930
H29 H 0.66110 0.40600 0.45380
H30 H 0.69750 0.30660 0.54310
C21 C 0.6000(2) 0.2955(6) 0.5532(3)
H31 H 0.57740 0.29820 0.48170
H32 H 0.57770 0.30590 0.59250
H33 H 0.61890 0.20530 0.56930
C22 C 0.6124(2) 0.5596(5) 0.5560(3)
H34 H 0.63910 0.63490 0.57690
H35 H 0.58880 0.56790 0.59270
H36 H 0.59130 0.56760 0.48400
C23 C 0.82698(11) 0.1461(3) 0.8807(2)
H37 H 0.84520 0.17240 0.95290
C24 C 0.82306(12) -0.0556(3) 0.7824(2)
C25 C 0.86496(11) 0.1705(3) 0.8237(2)
H38 H 0.90260 0.18740 0.87120
C26 C 0.84937(15) -0.2014(3) 0.8075(3)
H39 H 0.87990 -0.19700 0.87170
H40 H 0.86170 -0.23010 0.75480
H41 H 0.82340 -0.27000 0.81190
C27 C 0.77035(13) -0.0599(4) 0.6905(3)
H42 H 0.77660 -0.10020 0.63360
H43 H 0.75630 0.03590 0.67390
H44 H 0.74450 -0.11820 0.70530
C28 C 0.50101(12) 0.3399(7) 0.8408(3)
#END
