
#######################################################################
#
#                 Cambridge Crystallographic Data Centre
#                                CCDC
#
#######################################################################
#
# If this CIF has been generated from an entry in the Cambridge
# Structural Database, then it will include bibliographic, chemical,
# crystal, experimental, refinement or atomic coordinate data resulting
# from the CCDC's data processing and validation procedures.
#
#######################################################################

data_CSD_CIF_XUQTUZ
_audit_creation_date 2010-09-20
_audit_creation_method CSD-ConQuest-V1
_database_code_CSD XUQTUZ
_database_code_depnum_ccdc_archive 'CCDC 723644'
_chemical_formula_sum 'C18 H17 N1 O4'
_chemical_formula_moiety
;
C18 H17 N1 O4
;
_journal_coden_Cambridge 35
_journal_volume 74
_journal_year 2009
_journal_page_first 6163
_journal_name_full 'J.Org.Chem. '
loop_
_publ_author_name
"D.Almasi"
"D.A.Alonso"
"E.Gomez-Bengoa"
"C.Najera"
_chemical_name_systematic
;
(S)-2-[(R)-2-nitro-1-phenylethyl]-1-phenylbutane-1,3-dione
;
_cell_volume   1613.268
_exptl_crystal_colour 'colorless'
_exptl_crystal_density_diffrn 1.282
_exptl_crystal_description 'needle'
_diffrn_ambient_temperature 296
#These two values have been output from a single CSD field.
_refine_ls_R_factor_gt 0.0661
_refine_ls_wR_factor_gt 0.0661
_symmetry_cell_setting orthorhombic
_symmetry_space_group_name_H-M 'P 21 21 21'
_symmetry_Int_Tables_number 19
loop_
_symmetry_equiv_pos_site_id
_symmetry_equiv_pos_as_xyz
1 x,y,z
2 1/2-x,-y,1/2+z
3 1/2+x,1/2-y,-z
4 -x,1/2+y,1/2-z
_cell_length_a 5.673(3)
_cell_length_b 14.165(8)
_cell_length_c 20.076(11)
_cell_angle_alpha 90
_cell_angle_beta 90
_cell_angle_gamma 90
_cell_formula_units_Z 4
loop_
_atom_type_symbol
_atom_type_radius_bond
C 0.68
H 0.23
N 0.68
O 0.68
loop_
_atom_site_label
_atom_site_type_symbol
_atom_site_fract_x
_atom_site_fract_y
_atom_site_fract_z
N1 N 0.3437(15) 0.8401(4) 0.9808(3)
O1 O 0.1641(12) 0.8449(4) 1.0134(2)
O2 O 0.5368(11) 0.8615(4) 1.0015(3)
C1 C 0.3265(12) 0.8064(5) 0.9112(3)
H1 H 0.30330 0.73850 0.91110
H2 H 0.47340 0.81960 0.88820
C2 C 0.1209(11) 0.8540(5) 0.8731(3)
H3 H -0.02810 0.83380 0.89330
C3 C 0.1379(11) 0.9605(5) 0.8781(3)
C4 C 0.3275(13) 1.0086(5) 0.8502(3)
H4 H 0.44220 0.97570 0.82660
C5 C 0.3456(14) 1.1056(5) 0.8576(3)
H5 H 0.47440 1.13720 0.83960
C6 C 0.1769(14) 1.1557(5) 0.8911(3)
H6 H 0.19000 1.22090 0.89530
C7 C -0.0122(13) 1.1089(6) 0.9183(4)
H7 H -0.12740 1.14240 0.94130
C8 C -0.0306(12) 1.0126(6) 0.9116(3)
H8 H -0.15980 0.98170 0.93000
C9 C 0.1295(11) 0.8179(4) 0.8008(3)
H9 H 0.27880 0.83890 0.78110
C10 C -0.0679(12) 0.8605(5) 0.7608(3)
O3 O -0.2639(8) 0.8716(3) 0.7857(2)
C11 C -0.0329(12) 0.8825(5) 0.6882(3)
C12 C 0.1705(13) 0.8547(5) 0.6542(3)
H10 H 0.29140 0.82400 0.67680
C13 C 0.1911(14) 0.8729(5) 0.5870(4)
H11 H 0.32260 0.85160 0.56370
C14 C 0.0178(16) 0.9224(6) 0.5542(4)
H12 H 0.03390 0.93530 0.50900
C15 C -0.1800(15) 0.9533(5) 0.5879(4)
H13 H -0.29590 0.98760 0.56580
C16 C -0.2034(13) 0.9328(5) 0.6544(4)
H14 H -0.33690 0.95310 0.67720
C17 C 0.1186(13) 0.7106(6) 0.7952(3)
O4 O 0.288(1) 0.6679(4) 0.7746(3)
C18 C -0.0981(13) 0.6597(5) 0.8173(4)
H15 H -0.09580 0.59650 0.80010
H16 H -0.23500 0.69210 0.80080
H17 H -0.10310 0.65790 0.86500
#END
