
#######################################################################
#
#                 Cambridge Crystallographic Data Centre
#                                CCDC
#
#######################################################################
#
# If this CIF has been generated from an entry in the Cambridge
# Structural Database, then it will include bibliographic, chemical,
# crystal, experimental, refinement or atomic coordinate data resulting
# from the CCDC's data processing and validation procedures.
#
#######################################################################

data_CSD_CIF_XUSHUQ
_audit_creation_date 2015-09-16
_audit_creation_method CSD-ConQuest-V1
_database_code_CSD XUSHUQ
_database_code_depnum_ccdc_archive 'CCDC 1425167'
_chemical_formula_sum 'C20 H18 N6 O2'
_chemical_formula_moiety
;
C20 H18 N6 O2
;
_journal_coden_Cambridge 4
_journal_volume 136
_journal_year 2014
_journal_page_first 1132
_journal_name_full 'J.Am.Chem.Soc. '
loop_
_publ_author_name
"Hyun Jin Kim"
"M.J.Ajitha"
"Yongjae Lee"
"Jaeyune Ryu"
"Jin Kim"
"Yunho Lee"
"Yousung Jung"
"Sukbok Chang"
_chemical_name_systematic
;
2-(9-isopropyl-9H-purin-6-yl)-N-(3-nitrophenyl)aniline
;
_cell_volume   1792.312
_exptl_crystal_colour 'yellow'
_exptl_crystal_density_diffrn 1.388
_exptl_crystal_description 'block'
_diffrn_ambient_temperature 200
#These two values have been output from a single CSD field.
_refine_ls_R_factor_gt 0.0485
_refine_ls_wR_factor_gt 0.0485
_symmetry_cell_setting monoclinic
_symmetry_space_group_name_H-M 'P 21/c'
_symmetry_Int_Tables_number 14
loop_
_symmetry_equiv_pos_site_id
_symmetry_equiv_pos_as_xyz
1 x,y,z
2 -x,1/2+y,1/2-z
3 -x,-y,-z
4 x,-1/2-y,-1/2+z
_cell_length_a 12.439(2)
_cell_length_b 10.0614(17)
_cell_length_c 14.778(2)
_cell_angle_alpha 90
_cell_angle_beta 104.288(4)
_cell_angle_gamma 90
_cell_formula_units_Z 4
loop_
_atom_type_symbol
_atom_type_radius_bond
C 0.68
H 0.23
N 0.68
O 0.68
loop_
_atom_site_label
_atom_site_type_symbol
_atom_site_fract_x
_atom_site_fract_y
_atom_site_fract_z
C1 C 0.2251(2) 0.2994(3) 0.29094(18)
N1 N 0.1441(2) 0.3267(2) 0.21396(16)
C2 C 0.1408(3) 0.4454(3) 0.1718(2)
H1 H 0.08130 0.45770 0.11820
N2 N 0.2089(2) 0.5474(2) 0.19471(17)
C3 C 0.2890(2) 0.5192(3) 0.27163(19)
C4 C 0.3015(2) 0.4023(3) 0.32388(18)
N3 N 0.3925(2) 0.4157(2) 0.39991(16)
C5 C 0.4307(3) 0.5355(3) 0.3900(2)
H2 H 0.49400 0.57150 0.43250
N4 N 0.37269(19) 0.6035(2) 0.31451(16)
C6 C 0.3985(3) 0.7316(3) 0.2763(2)
H3 H 0.32760 0.78180 0.25350
C7 C 0.4479(3) 0.7071(3) 0.1946(2)
H4 H 0.51830 0.65930 0.21580
H5 H 0.46120 0.79230 0.16710
H6 H 0.39650 0.65370 0.14760
C8 C 0.4749(3) 0.8137(3) 0.3515(3)
H7 H 0.44270 0.82180 0.40540
H8 H 0.48400 0.90240 0.32690
H9 H 0.54740 0.77010 0.37070
C9 C 0.2257(2) 0.1670(3) 0.33502(18)
C10 C 0.3021(3) 0.1439(3) 0.42080(19)
H10 H 0.35470 0.21100 0.44610
C11 C 0.3032(3) 0.0269(3) 0.4696(2)
H11 H 0.35600 0.01420 0.52750
C12 C 0.2273(3) -0.0720(3) 0.4341(2)
H12 H 0.22670 -0.15190 0.46830
C13 C 0.1529(3) -0.0543(3) 0.3495(2)
H13 H 0.10180 -0.12340 0.32540
C14 C 0.1501(2) 0.0628(3) 0.2975(2)
N5 N 0.0707(2) 0.0813(2) 0.21453(16)
H14 H 0.10490 0.13450 0.17940
C15 C 0.0148(2) -0.0144(3) 0.15183(19)
C16 C -0.0832(2) 0.0266(3) 0.08975(18)
H15 H -0.11170 0.11320 0.09440
C17 C -0.1383(2) -0.0598(3) 0.0215(2)
C18 C -0.1022(3) -0.1874(3) 0.0127(2)
H16 H -0.14240 -0.24580 -0.03400
C19 C -0.0052(3) -0.2272(3) 0.0745(2)
H17 H 0.02210 -0.31440 0.06980
C20 C 0.0527(3) -0.1429(3) 0.1426(2)
H18 H 0.11950 -0.17270 0.18390
N6 N -0.2400(2) -0.0128(3) -0.04414(19)
O1 O -0.2886(2) -0.0890(3) -0.10526(16)
O2 O -0.2718(2) 0.1008(2) -0.03504(16)
#END
