
#######################################################################
#
#                 Cambridge Crystallographic Data Centre
#                                CCDC
#
#######################################################################
#
# If this CIF has been generated from an entry in the Cambridge
# Structural Database, then it will include bibliographic, chemical,
# crystal, experimental, refinement or atomic coordinate data resulting
# from the CCDC's data processing and validation procedures.
#
#######################################################################

data_CSD_CIF_XUSQUX
_audit_creation_date 2003-10-08
_audit_creation_method CSD-ConQuest-V1
_database_code_CSD XUSQUX
_database_code_depnum_ccdc_archive 'CCDC 201351'
_chemical_formula_sum 'C22 H25 N1 O5'
_chemical_formula_moiety
;
C22 H25 N1 O5
;
_journal_coden_Cambridge 1336
_journal_volume 5
_journal_year 2003
_journal_page_first 2295
_journal_name_full 'Org.Lett. '
loop_
_publ_author_name
"A.Srikrishna"
"D.H.Dethe"
_chemical_name_systematic
;
3-oxo-1,4,4,8-tetramethyltricyclo(6.3.0.0^2,6^)undec-2(6)-en-7-yl 
4-nitrobenzoate
;
_cell_volume   3134.985
_exptl_crystal_density_diffrn 1.225
_diffrn_ambient_temperature 293
#These two values have been output from a single CSD field.
_refine_ls_R_factor_gt 0.0524
_refine_ls_wR_factor_gt 0.0524
_symmetry_cell_setting monoclinic
_symmetry_space_group_name_H-M 'P 21'
_symmetry_Int_Tables_number 4
loop_
_symmetry_equiv_pos_site_id
_symmetry_equiv_pos_as_xyz
1 x,y,z
2 -x,1/2+y,-z
_cell_length_a 17.450(5)
_cell_length_b 11.560(3)
_cell_length_c 17.583(5)
_cell_angle_alpha 90
_cell_angle_beta 117.887(5)
_cell_angle_gamma 90
_cell_formula_units_Z 6
loop_
_atom_type_symbol
_atom_type_radius_bond
C 0.68
H 0.23
N 0.68
O 0.68
loop_
_atom_site_label
_atom_site_type_symbol
_atom_site_fract_x
_atom_site_fract_y
_atom_site_fract_z
C1 C 0.4813(3) 0.4985(4) 0.2579(4)
C2 C 0.2729(5) 0.1258(8) 0.7230(4)
H1 H 0.28490 0.16880 0.77410
H2 H 0.29140 0.16960 0.68820
H3 H 0.30360 0.05360 0.73870
C3 C 0.1442(5) 0.0354(6) 0.7265(4)
H4 H 0.17230 -0.03860 0.74110
H5 H 0.08260 0.02460 0.69430
H6 H 0.15750 0.07770 0.77820
C4 C 0.3366(4) 0.5852(5) 0.4852(4)
H7 H 0.38340 0.55510 0.48010
C5 C 0.1667(4) 0.7566(5) -0.0692(4)
H8 H 0.12330 0.74860 -0.12810
H9 H 0.22310 0.75850 -0.06610
H10 H 0.15710 0.82720 -0.04610
C6 C 0.2087(4) 0.1101(6) 0.4337(4)
H11 H 0.23720 0.18120 0.46010
H12 H 0.20120 0.10640 0.37610
H13 H 0.24330 0.04590 0.46640
C7 C 0.0758(4) 0.2764(5) 0.3236(3)
H14 H 0.03650 0.34050 0.30180
H15 H 0.06480 0.22340 0.27760
H16 H 0.13430 0.30400 0.34760
C8 C 0.0252(4) 0.4803(5) 0.1393(4)
H17 H 0.06150 0.44910 0.11610
H18 H -0.00490 0.41720 0.15030
C9 C 0.1799(4) 0.5429(5) -0.0494(4)
H19 H 0.17320 0.47990 -0.01740
H20 H 0.23820 0.54380 -0.04150
H21 H 0.14010 0.53330 -0.10940
C10 C 0.0783(4) 0.5490(4) 0.2202(3)
H22 H 0.13710 0.51930 0.24940
H23 H 0.05310 0.54300 0.25890
C11 C 0.1248(4) 0.2141(5) 0.6332(4)
H24 H 0.07030 0.21470 0.63540
H25 H 0.15820 0.28210 0.66250
C12 C 0.1101(3) 0.2082(4) 0.5418(3)
C13 C 0.2655(4) 0.7481(4) 0.5056(3)
H26 H 0.26420 0.82730 0.51440
C14 C 0.0625(3) 0.2149(4) 0.3931(3)
O1 O 0.3313(4) 1.4047(4) 0.3350(4)
C15 C 0.1759(4) 0.1027(6) 0.6725(4)
C16 C -0.0299(3) 0.1636(6) 0.3535(4)
H27 H -0.05520 0.17670 0.39150
H28 H -0.06650 0.20010 0.29860
C17 C 0.2641(3) 0.8698(5) 0.2622(3)
C18 C 0.2209(3) 0.6725(5) 0.0794(4)
H29 H 0.26040 0.60780 0.10340
H30 H 0.25420 0.74330 0.09050
C19 C 0.0657(6) 0.0025(5) 0.3798(4)
H31 H 0.08670 -0.06930 0.37450
C20 C -0.0377(3) 0.5666(5) 0.0790(4)
H32 H -0.08570 0.57780 0.09160
H33 H -0.06050 0.54100 0.01980
C21 C 0.1682(3) 0.7072(4) 0.2031(3)
H34 H 0.21480 0.66280 0.24890
O2 O 0.0610(3) 0.5243(3) 0.4672(4)
C22 C 0.0517(4) 0.7559(5) 0.2469(4)
H35 H 0.09500 0.75360 0.30620
H36 H -0.00280 0.73050 0.24200
H37 H 0.04600 0.83360 0.22580
C23 C -0.0414(3) 0.7853(5) 0.0598(3)
H38 H -0.00440 0.85200 0.07550
H39 H -0.08020 0.79130 0.08430
H40 H -0.07440 0.78100 -0.00170
O3 O 0.2475(4) 1.4094(4) 0.1997(4)
C24 C 0.0786(3) 0.6761(4) 0.1940(3)
O4 O 0.1796(3) -0.0715(4) 0.5957(2)
C25 C 0.2723(4) 0.5140(4) 0.4825(3)
H41 H 0.27550 0.43470 0.47520
C26 C 0.1613(3) 0.6557(4) -0.0179(3)
C27 C 0.2038(3) 0.5581(4) 0.4905(3)
C28 C 0.0779(3) 0.2916(4) 0.4699(3)
H42 H 0.02450 0.32960 0.46200
C29 C 0.0701(3) 0.6522(4) -0.0254(4)
O5 O 0.4630(3) 0.7323(4) 0.4999(2)
C30 C 0.0134(3) 0.6773(4) 0.0935(3)
C31 C 0.2009(4) 0.6763(4) 0.5023(3)
H43 H 0.15480 0.70760 0.50820
C32 C 0.1632(3) 0.0315(5) 0.5930(3)
O6 O 0.3844(3) 0.8825(4) 0.4909(3)
O7 O 0.0047(2) 0.6380(4) -0.0938(2)
C33 C 0.1996(3) 1.0624(5) 0.2044(3)
H44 H 0.14860 1.02670 0.16500
C34 C 0.1591(3) 0.6787(4) 0.1160(3)
C35 C 0.2067(3) 1.1818(5) 0.2050(3)
H45 H 0.16220 1.22670 0.16430
C36 C 0.3472(3) 1.1690(5) 0.3257(3)
H46 H 0.39600 1.20620 0.36750
C37 C 0.3420(3) 1.0507(4) 0.3238(3)
H47 H 0.38810 1.00700 0.36350
C38 C 0.1190(3) 0.1052(4) 0.4313(3)
N1 N 0.2873(4) 1.3586(5) 0.2685(5)
O8 O 0.3244(2) 0.8061(3) 0.2973(2)
N2 N 0.3984(4) 0.7770(5) 0.4956(3)
C39 C 0.3303(3) 0.7000(5) 0.4955(3)
O9 O 0.1469(2) 0.3748(3) 0.4876(2)
C40 C 0.1300(4) 0.4858(5) 0.4814(4)
C41 C 0.1316(3) 0.1094(4) 0.5213(3)
C42 C 0.2795(4) 1.2316(4) 0.2656(4)
O10 O 0.1830(2) 0.8319(3) 0.2151(2)
C43 C 0.0765(3) 0.6678(4) 0.0581(3)
C44 C 0.2680(3) 0.9963(4) 0.2623(3)
C45 C 0.6994(5) -0.0142(7) 0.2374(5)
H48 H 0.72490 -0.04150 0.20280
H49 H 0.65400 -0.06600 0.23170
H50 H 0.74290 -0.01110 0.29660
C46 C 0.3729(5) -0.0233(6) 0.0146(5)
H51 H 0.42250 -0.06260 0.05960
H52 H 0.33180 -0.08050 -0.02270
C47 C 0.4379(4) 0.2642(5) -0.0335(4)
H53 H 0.45230 0.33290 0.00110
H54 H 0.38320 0.27480 -0.08400
H55 H 0.48200 0.24930 -0.05020
C48 C 0.7322(4) 0.1973(8) 0.2259(5)
H56 H 0.77130 0.19970 0.28650
H57 H 0.70530 0.27160 0.20720
H58 H 0.76380 0.17800 0.19520
C49 C 0.3007(4) 0.2721(6) 0.0195(4)
H59 H 0.26730 0.27700 0.05000
H60 H 0.26340 0.25170 -0.03940
H61 H 0.32740 0.34550 0.02180
C50 C 0.3991(4) 0.0537(5) -0.0335(4)
H62 H 0.35020 0.07080 -0.08910
H63 H 0.44440 0.01840 -0.04290
C51 C 0.5116(4) 0.5460(5) 0.3388(4)
H64 H 0.52760 0.49780 0.38620
C52 C 0.3303(4) 0.0596(5) 0.0530(4)
H65 H 0.26830 0.06380 0.01540
H66 H 0.34010 0.03200 0.10890
O11 O 0.4654(4) 0.9173(4) 0.2291(4)
O12 O 0.5390(3) 0.8952(4) 0.3635(4)
C53 C 0.6622(3) 0.1055(5) 0.2078(3)
C54 C 0.6021(3) 0.1032(5) 0.1099(4)
N3 N 0.5010(4) 0.8565(5) 0.2924(5)
C55 C 0.4317(3) 0.1621(4) 0.0182(3)
C56 C 0.4591(3) 0.5691(5) 0.1882(4)
H67 H 0.44030 0.53690 0.13390
C57 C 0.4755(4) 0.3697(5) 0.2511(4)
C58 C 0.6040(3) 0.1451(4) 0.2477(3)
H68 H 0.60050 0.08620 0.28520
H69 H 0.62520 0.21650 0.27980
O13 O 0.6254(2) 0.0782(4) 0.0574(3)
C59 C 0.5182(4) 0.6628(5) 0.3499(4)
H70 H 0.53860 0.69540 0.40430
C60 C 0.4327(3) 0.2089(4) 0.1566(3)
H71 H 0.41420 0.17110 0.19520
C61 C 0.4942(4) 0.7301(5) 0.2796(4)
C62 C 0.3714(3) 0.1790(4) 0.0615(3)
O14 O 0.5010(3) 0.3055(3) 0.3118(3)
C63 C 0.5181(3) 0.1626(4) 0.1694(3)
C64 C 0.4643(3) 0.6877(5) 0.1978(4)
H72 H 0.44810 0.73670 0.15090
C65 C 0.5169(3) 0.1416(4) 0.0958(3)
O15 O 0.4399(2) 0.3328(3) 0.1697(2)
C66 C -0.0227(7) 0.0376(8) 0.3415(7)
H73 H -0.06970 -0.01170 0.31280
#END
