
#######################################################################
#
#                 Cambridge Crystallographic Data Centre
#                                CCDC
#
#######################################################################
#
# If this CIF has been generated from an entry in the Cambridge
# Structural Database, then it will include bibliographic, chemical,
# crystal, experimental, refinement or atomic coordinate data resulting
# from the CCDC's data processing and validation procedures.
#
#######################################################################

data_CSD_CIF_XUSSUB
_audit_creation_date 2015-09-16
_audit_creation_method CSD-ConQuest-V1
_database_code_CSD XUSSUB
_database_code_depnum_ccdc_archive 'CCDC 1425026'
_chemical_formula_sum 'C12 H13 N1 O4'
_chemical_formula_moiety
;
C12 H13 N1 O4
;
_journal_coden_Cambridge 1336
_journal_volume 16
_journal_year 2014
_journal_page_first 4634
_journal_name_full 'Org.Lett. '
loop_
_publ_author_name
"T.Takesue"
"M.Fujita"
"T.Sugimura"
"H.Akutsu"
_chemical_name_systematic
;
1-(methoxyimino)-3,4-dihydro-1H-isochromen-4-yl acetate
;
_cell_volume   1183.717
_exptl_crystal_colour 'colorless'
_exptl_crystal_density_diffrn 1.32
_exptl_crystal_description 'prism'
_diffrn_ambient_temperature 299
#These two values have been output from a single CSD field.
_refine_ls_R_factor_gt 0.0531
_refine_ls_wR_factor_gt 0.0531
_symmetry_cell_setting monoclinic
_symmetry_space_group_name_H-M 'P 21/n'
_symmetry_Int_Tables_number 14
loop_
_symmetry_equiv_pos_site_id
_symmetry_equiv_pos_as_xyz
1 x,y,z
2 1/2-x,1/2+y,1/2-z
3 -x,-y,-z
4 -1/2+x,-1/2-y,-1/2+z
_cell_length_a 11.684(3)
_cell_length_b 8.087(2)
_cell_length_c 12.813(4)
_cell_angle_alpha 90
_cell_angle_beta 102.115(5)
_cell_angle_gamma 90
_cell_formula_units_Z 4
loop_
_atom_type_symbol
_atom_type_radius_bond
C 0.68
H 0.23
N 0.68
O 0.68
loop_
_atom_site_label
_atom_site_type_symbol
_atom_site_fract_x
_atom_site_fract_y
_atom_site_fract_z
O1 O 0.6728(1) 0.13994(15) 0.23806(10)
O2 O 0.89478(9) 0.07039(13) 0.18789(10)
O3 O 1.06328(12) 0.16283(17) 0.15351(13)
O4 O 0.46455(11) 0.05994(18) 0.17536(13)
N1 N 0.51000(14) 0.1603(2) 0.10305(14)
C1 C 0.8008(2) 0.5041(3) -0.03770(17)
C2 C 0.6821(3) 0.4796(3) -0.07184(17)
C3 C 0.85940(18) 0.4256(3) 0.05322(16)
C4 C 0.62175(19) 0.3797(3) -0.01535(16)
C5 C 0.80040(15) 0.32340(19) 0.11087(14)
C6 C 0.67992(15) 0.3013(2) 0.07828(14)
C7 C 0.86146(15) 0.2390(2) 0.21159(14)
C8 C 0.61695(16) 0.1979(2) 0.14145(15)
C9 C 0.78007(15) 0.2215(3) 0.28712(14)
C10 C 0.99718(15) 0.0511(3) 0.15784(14)
C11 C 1.0161(2) -0.1245(3) 0.13072(17)
C12 C 0.34351(18) 0.0329(4) 0.1330(3)
H1 H 0.84100 0.57310 -0.07580
H2 H 0.64240 0.53130 -0.13380
H3 H 0.93960 0.44140 0.07620
H4 H 0.54170 0.36400 -0.03950
H5 H 0.93100 0.30210 0.24540
H6 H 0.81860 0.15850 0.34900
H7 H 0.76220 0.33020 0.31140
H8 H 0.99540 -0.19560 0.18390
H9 H 1.09700 -0.14090 0.12860
H10 H 0.96810 -0.15030 0.06220
H11 H 0.30130 0.13420 0.13530
H12 H 0.31450 -0.04980 0.17460
H13 H 0.33300 -0.00410 0.06040
#END
