
#######################################################################
#
#                 Cambridge Crystallographic Data Centre
#                                CCDC
#
#######################################################################
#
# If this CIF has been generated from an entry in the Cambridge
# Structural Database, then it will include bibliographic, chemical,
# crystal, experimental, refinement or atomic coordinate data resulting
# from the CCDC's data processing and validation procedures.
#
#######################################################################

data_CSD_CIF_XUSTIQ
_audit_creation_date 2015-09-16
_audit_creation_method CSD-ConQuest-V1
_database_code_CSD XUSTIQ
_database_code_depnum_ccdc_archive 'CCDC 1425028'
_chemical_formula_sum 'C15 H19 N1 O4'
_chemical_formula_moiety
;
C15 H19 N1 O4
;
_journal_coden_Cambridge 1336
_journal_volume 16
_journal_year 2014
_journal_page_first 4634
_journal_name_full 'Org.Lett. '
loop_
_publ_author_name
"T.Takesue"
"M.Fujita"
"T.Sugimura"
"H.Akutsu"
_chemical_name_systematic
;
1-(methoxyimino)-3-propyl-3,4-dihydro-1H-isochromen-4-yl acetate
;
_cell_volume   1518.091
_exptl_crystal_colour 'colorless'
_exptl_crystal_density_diffrn 1.213
_exptl_crystal_description 'needle'
_diffrn_ambient_temperature 296
#These two values have been output from a single CSD field.
_refine_ls_R_factor_gt 0.058
_refine_ls_wR_factor_gt 0.058
_symmetry_cell_setting monoclinic
_symmetry_space_group_name_H-M 'P 21/c'
_symmetry_Int_Tables_number 14
loop_
_symmetry_equiv_pos_site_id
_symmetry_equiv_pos_as_xyz
1 x,y,z
2 -x,1/2+y,1/2-z
3 -x,-y,-z
4 x,-1/2-y,-1/2+z
_cell_length_a 9.2395(16)
_cell_length_b 8.4743(13)
_cell_length_c 19.634(3)
_cell_angle_alpha 90
_cell_angle_beta 99.069(4)
_cell_angle_gamma 90
_cell_formula_units_Z 4
loop_
_atom_type_symbol
_atom_type_radius_bond
C 0.68
H 0.23
N 0.68
O 0.68
loop_
_atom_site_label
_atom_site_type_symbol
_atom_site_fract_x
_atom_site_fract_y
_atom_site_fract_z
O1 O 0.59274(14) 0.20103(15) 0.74194(7)
O2 O 0.37616(15) 0.14460(17) 0.83336(8)
O3 O 0.2232(2) 0.2537(3) 0.89704(10)
O4 O 0.81857(15) 0.10061(19) 0.70209(8)
N1 N 0.83917(18) 0.1533(3) 0.77126(9)
C1 C 0.7109(3) 0.3622(4) 0.99254(14)
C2 C 0.8422(3) 0.3227(4) 0.97193(14)
C3 C 0.5826(3) 0.3539(3) 0.94573(12)
C4 C 0.8470(3) 0.2739(3) 0.90584(13)
C5 C 0.5848(2) 0.3053(3) 0.87813(11)
C6 C 0.7177(2) 0.2642(3) 0.85783(11)
C7 C 0.4466(2) 0.2966(3) 0.82652(11)
C8 C 0.7191(2) 0.2065(3) 0.78742(11)
C9 C 0.4778(2) 0.3102(3) 0.75379(11)
C10 C 0.2650(3) 0.1394(3) 0.86997(11)
C11 C 0.2053(3) -0.0218(4) 0.87324(16)
C12 C 0.9562(3) 0.0537(5) 0.68574(18)
C13 C 0.3475(3) 0.2769(3) 0.69873(11)
C14 C 0.3713(3) 0.3113(4) 0.62595(13)
C15 C 0.2308(5) 0.2905(7) 0.57516(19)
H1 H 0.706(3) 0.390(4) 1.0381(16)
H2 H 0.935(3) 0.328(4) 1.0029(14)
H3 H 0.490(4) 0.380(4) 0.9614(14)
H4 H 0.937(3) 0.251(3) 0.8895(13)
H5 H 0.999(4) -0.032(4) 0.7163(15)
H6 H 1.031(5) 0.134(4) 0.6952(18)
H7 H 0.380(3) 0.381(3) 0.836(1)
H8 H 0.942(3) 0.025(4) 0.6348(15)
H9 H 0.5172(19) 0.416(3) 0.7489(9)
H10 H 0.28120 -0.09130 0.89460
H11 H 0.16940 -0.05830 0.82740
H12 H 0.12650 -0.02060 0.89980
H13 H 0.265(3) 0.344(3) 0.7101(12)
H14 H 0.320(3) 0.169(3) 0.7039(12)
H15 H 0.407(4) 0.420(5) 0.6206(17)
H16 H 0.450(4) 0.237(4) 0.6133(16)
H17 H 0.165(5) 0.379(6) 0.585(2)
H18 H 0.189(5) 0.174(6) 0.5781(19)
H19 H 0.255(5) 0.304(6) 0.532(3)
#END
