
#######################################################################
#
#                 Cambridge Crystallographic Data Centre
#                                CCDC
#
#######################################################################
#
# If this CIF has been generated from an entry in the Cambridge
# Structural Database, then it will include bibliographic, chemical,
# crystal, experimental, refinement or atomic coordinate data resulting
# from the CCDC's data processing and validation procedures.
#
#######################################################################

data_CSD_CIF_XUSTUC
_audit_creation_date 2015-09-16
_audit_creation_method CSD-ConQuest-V1
_database_code_CSD XUSTUC
_database_code_depnum_ccdc_archive 'CCDC 1425030'
_chemical_formula_sum 'C13 H15 N1 O4'
_chemical_formula_moiety
;
C13 H15 N1 O4
;
_journal_coden_Cambridge 1336
_journal_volume 16
_journal_year 2014
_journal_page_first 4634
_journal_name_full 'Org.Lett. '
loop_
_publ_author_name
"T.Takesue"
"M.Fujita"
"T.Sugimura"
"H.Akutsu"
_chemical_name_systematic
;
1-(methoxyimino)-3-methyl-3,4-dihydro-1H-isochromen-4-yl acetate
;
_cell_volume    635.507
_exptl_crystal_colour 'colorless'
_exptl_crystal_density_diffrn 1.303
_exptl_crystal_description 'block'
_diffrn_ambient_temperature 293
#These two values have been output from a single CSD field.
_refine_ls_R_factor_gt 0.0451
_refine_ls_wR_factor_gt 0.0451
_symmetry_cell_setting triclinic
_symmetry_space_group_name_H-M 'P -1'
_symmetry_Int_Tables_number 2
loop_
_symmetry_equiv_pos_site_id
_symmetry_equiv_pos_as_xyz
1 x,y,z
2 -x,-y,-z
_cell_length_a 6.954(3)
_cell_length_b 8.706(3)
_cell_length_c 10.605(4)
_cell_angle_alpha 86.060(13)
_cell_angle_beta 86.801(14)
_cell_angle_gamma 83.376(12)
_cell_formula_units_Z 2
loop_
_atom_type_symbol
_atom_type_radius_bond
C 0.68
H 0.23
N 0.68
O 0.68
loop_
_atom_site_label
_atom_site_type_symbol
_atom_site_fract_x
_atom_site_fract_y
_atom_site_fract_z
O1 O 0.52548(16) 0.43052(13) 0.79965(11)
O2 O 0.25420(17) 0.30822(12) 0.98872(10)
O3 O 0.2457(3) 0.10262(17) 1.12531(14)
O4 O 0.50965(19) 0.68755(14) 0.67853(13)
N1 N 0.3760(2) 0.58950(16) 0.64397(14)
C1 C -0.0008(3) 0.1340(3) 0.6592(2)
C2 C 0.0239(3) 0.2499(3) 0.5665(2)
C3 C 0.1073(3) 0.1206(2) 0.76477(19)
C4 C 0.1570(3) 0.3545(3) 0.57903(18)
C5 C 0.2407(3) 0.22448(18) 0.77981(15)
C6 C 0.2640(3) 0.34311(18) 0.68713(15)
C7 C 0.3604(3) 0.21433(19) 0.89344(15)
C8 C 0.3961(3) 0.45922(18) 0.70830(15)
C9 C 0.5532(3) 0.27492(19) 0.86028(16)
C10 C 0.2000(3) 0.2372(3) 1.09885(17)
C11 C 0.0819(4) 0.3464(4) 1.1817(3)
C12 C 0.4707(5) 0.8338(3) 0.6107(3)
C13 C 0.6776(4) 0.2837(3) 0.9704(3)
H1 H -0.091(4) 0.059(3) 0.650(2)
H2 H -0.047(3) 0.262(3) 0.491(2)
H3 H 0.094(3) 0.041(3) 0.8286(18)
H4 H 0.182(3) 0.437(3) 0.513(2)
H5 H 0.014(5) 0.294(4) 1.243(4)
H6 H 0.159(5) 0.407(4) 1.210(3)
H7 H 0.383(3) 0.107(2) 0.9259(16)
H8 H -0.006(4) 0.417(3) 1.132(3)
H9 H 0.619(3) 0.2036(18) 0.7985(17)
H10 H 0.562(4) 0.899(3) 0.634(3)
H11 H 0.338(4) 0.883(3) 0.639(3)
H12 H 0.474(5) 0.827(4) 0.512(3)
H13 H 0.713(3) 0.176(3) 1.012(2)
H14 H 0.613(4) 0.344(3) 1.030(3)
H15 H 0.801(4) 0.320(3) 0.945(2)
#END
