
#######################################################################
#
#                 Cambridge Crystallographic Data Centre
#                                CCDC
#
#######################################################################
#
# If this CIF has been generated from an entry in the Cambridge
# Structural Database, then it will include bibliographic, chemical,
# crystal, experimental, refinement or atomic coordinate data resulting
# from the CCDC's data processing and validation procedures.
#
#######################################################################

data_CSD_CIF_XUTPOT
_audit_creation_date 2015-09-16
_audit_creation_method CSD-ConQuest-V1
_database_code_CSD XUTPOT
_database_code_depnum_ccdc_archive 'CCDC 1416256'
_chemical_formula_sum 'C23 H21 N3 O4'
_chemical_formula_moiety
;
C23 H21 N3 O4
;
_journal_coden_Cambridge 1090
_journal_volume 26
_journal_year 2015
_journal_page_first 1189
_journal_name_full 'Tetrahedron:Asymm. '
loop_
_publ_author_name
"J.Cowell"
"R.W.Harrington"
"M.R.Probert"
"M.J.Hall"
_chemical_name_systematic
;
(3aS*,5S*,10bS*)-10-acetyl-5-(hydroxy(phenyl)amino)-2-methyl-4,5,10,10b-tetrah
ydropyrrolo[3,4-a]carbazole-1,3(2H,3aH)-dione
;
_cell_volume    986.791
_exptl_crystal_colour 'colorless'
_exptl_crystal_density_diffrn 1.358
_exptl_crystal_description 'needle'
_exptl_crystal_preparation 'chloroform'
_diffrn_ambient_temperature 150
#These two values have been output from a single CSD field.
_refine_ls_R_factor_gt 0.0452
_refine_ls_wR_factor_gt 0.0452
_symmetry_cell_setting triclinic
_symmetry_space_group_name_H-M 'P -1'
_symmetry_Int_Tables_number 2
loop_
_symmetry_equiv_pos_site_id
_symmetry_equiv_pos_as_xyz
1 x,y,z
2 -x,-y,-z
_cell_length_a 8.1162(8)
_cell_length_b 10.6439(8)
_cell_length_c 12.9645(8)
_cell_angle_alpha 112.463(7)
_cell_angle_beta 94.175(7)
_cell_angle_gamma 104.046(8)
_cell_formula_units_Z 2
loop_
_atom_type_symbol
_atom_type_radius_bond
C 0.68
H 0.23
N 0.68
O 0.68
loop_
_atom_site_label
_atom_site_type_symbol
_atom_site_fract_x
_atom_site_fract_y
_atom_site_fract_z
O1 O 0.2289(2) 0.60192(14) 0.48955(11)
O2 O 0.23799(19) 0.14969(14) 0.28616(11)
O3 O 0.05096(18) 0.67309(14) 0.30977(11)
O4 O 0.39802(16) 0.37760(14) 0.03173(11)
N1 N 0.2126(2) 0.36484(16) 0.40497(13)
N2 N 0.3403(2) 0.75036(15) 0.31952(12)
N3 N 0.57949(19) 0.44345(16) 0.08110(12)
C1 C 0.3689(2) 0.61491(19) 0.28287(15)
C2 C 0.2507(3) 0.48735(19) 0.28808(15)
H1 H 0.13370 0.46820 0.24470
C3 C 0.2317(3) 0.4992(2) 0.40730(16)
C4 C 0.2493(2) 0.2733(2) 0.30730(15)
C5 C 0.3105(2) 0.35332(19) 0.23655(15)
H2 H 0.25340 0.29640 0.15510
C6 C 0.5079(3) 0.38526(19) 0.24883(15)
H3 H 0.55840 0.41820 0.32980
H4 H 0.53520 0.29590 0.20580
C7 C 0.5940(2) 0.49753(18) 0.20697(14)
H5 H 0.71980 0.53300 0.24100
C8 C 0.5227(2) 0.62153(19) 0.24952(15)
C9 C 0.6017(2) 0.76591(19) 0.26406(15)
C10 C 0.7572(3) 0.8311(2) 0.24218(16)
H6 H 0.83490 0.77840 0.21250
C11 C 0.7968(3) 0.9735(2) 0.26423(16)
H7 H 0.90270 1.01950 0.24980
C12 C 0.6826(3) 1.0502(2) 0.30742(16)
H8 H 0.71220 1.14810 0.32180
C13 C 0.5274(3) 0.9883(2) 0.33001(16)
H9 H 0.45020 1.04170 0.35910
C14 C 0.4880(2) 0.84468(19) 0.30865(15)
C15 C 0.1619(3) 0.3243(2) 0.49606(16)
H10 H 0.05890 0.24150 0.46570
H11 H 0.13630 0.40380 0.55530
H12 H 0.25650 0.30050 0.52850
C16 C 0.1806(3) 0.7734(2) 0.34213(15)
C17 C 0.1777(3) 0.9222(2) 0.40653(17)
H13 H 0.07240 0.92130 0.43910
H14 H 0.17960 0.97010 0.35520
H15 H 0.27910 0.97310 0.46770
C18 C 0.6739(3) 0.34090(19) 0.03705(15)
C19 C 0.5938(3) 0.1967(2) -0.02266(16)
H16 H 0.47150 0.16020 -0.03590
C20 C 0.6939(3) 0.1059(2) -0.06310(18)
H17 H 0.63950 0.00670 -0.10370
C21 C 0.8703(3) 0.1575(2) -0.04519(18)
H18 H 0.93750 0.09420 -0.07310
C22 C 0.9506(3) 0.3023(2) 0.01378(17)
H19 H 1.07280 0.33860 0.02580
C23 C 0.8519(3) 0.3938(2) 0.05514(16)
H20 H 0.90660 0.49300 0.09590
H21 H 0.387(3) 0.424(3) -0.013(2)
#END
