
#######################################################################
#
#                 Cambridge Crystallographic Data Centre
#                                CCDC
#
#######################################################################
#
# If this CIF has been generated from an entry in the Cambridge
# Structural Database, then it will include bibliographic, chemical,
# crystal, experimental, refinement or atomic coordinate data resulting
# from the CCDC's data processing and validation procedures.
#
#######################################################################

data_CSD_CIF_XUVCOG
_audit_creation_date 2003-04-23
_audit_creation_method CSD-ConQuest-V1
_database_code_CSD XUVCOG
_database_code_depnum_ccdc_archive 'CCDC 204949'
_chemical_formula_sum 'C17 H25 N2 O4'
_chemical_formula_moiety
;
C17 H25 N2 O4
;
_journal_coden_Cambridge 4
_journal_volume 125
_journal_year 2003
_journal_page_first 1607
_journal_name_full 'J.Am.Chem.Soc. '
loop_
_publ_author_name
"D.A.Shultz"
"K.E.Vostrikova"
"S.H.Bodnar"
"Hyun-Joo Koo"
"Myung-Hwan Whangbo"
"M.L.Kirk"
"E.C.Depperman"
"J.W.Kampf"
_chemical_name_systematic
;
3-t-Butyl-5-(4,4,5,5-tetramethyl-3-oxido-1-oxylimidazolin-2-yl)catechol
;
_cell_volume    828.989
_exptl_crystal_colour 'dark red'
_exptl_crystal_density_diffrn 1.288
_exptl_crystal_description 'plates'
_exptl_crystal_preparation 'dichloromethane/hexanes'
_diffrn_ambient_temperature 148
#These two values have been output from a single CSD field.
_refine_ls_R_factor_gt 0.037
_refine_ls_wR_factor_gt 0.037
_symmetry_cell_setting triclinic
_symmetry_space_group_name_H-M 'P -1'
_symmetry_Int_Tables_number 2
loop_
_symmetry_equiv_pos_site_id
_symmetry_equiv_pos_as_xyz
1 x,y,z
2 -x,-y,-z
_cell_length_a 6.8165(6)
_cell_length_b 10.0414(9)
_cell_length_c 12.7020(13)
_cell_angle_alpha 86.415(9)
_cell_angle_beta 78.737(9)
_cell_angle_gamma 76.502(7)
_cell_formula_units_Z 2
loop_
_atom_type_symbol
_atom_type_radius_bond
C 0.68
H 0.23
N 0.68
O 0.68
loop_
_atom_site_label
_atom_site_type_symbol
_atom_site_fract_x
_atom_site_fract_y
_atom_site_fract_z
O1 O 0.24812(15) 0.05571(10) 0.41866(8)
O2 O -0.22370(15) 0.45252(10) 0.54406(8)
O3 O 0.50498(15) 0.05625(11) 0.75534(8)
O4 O 0.22064(16) 0.14351(10) 0.92101(7)
N1 N 0.10840(16) 0.16937(11) 0.42249(8)
N2 N -0.12170(17) 0.35245(11) 0.48418(9)
C1 C 0.02714(20) 0.24561(13) 0.51008(10)
C2 C 0.02999(20) 0.23505(14) 0.32406(10)
C3 C -0.17526(20) 0.32981(13) 0.37837(10)
C4 C 0.07997(20) 0.21763(13) 0.61643(10)
C5 C 0.2783(2) 0.14736(13) 0.62888(11)
C6 C 0.31965(20) 0.12443(13) 0.73154(10)
C7 C 0.1674(2) 0.16987(13) 0.82176(10)
C8 C -0.03299(20) 0.23736(13) 0.81123(10)
C9 C -0.0711(2) 0.26038(13) 0.70697(11)
C10 C 0.0057(2) 0.12648(15) 0.25236(11)
C11 C 0.1879(2) 0.31369(16) 0.26513(12)
C12 C -0.3530(2) 0.25628(16) 0.40554(12)
C13 C -0.2387(2) 0.46564(15) 0.32075(12)
C14 C -0.2024(2) 0.28161(13) 0.91013(10)
C15 C -0.1361(2) 0.37626(15) 0.98010(12)
C16 C -0.4045(2) 0.35884(15) 0.87748(11)
C17 C -0.2442(2) 0.15402(15) 0.97616(11)
H1 H 0.587(3) 0.017(2) 0.6990(17)
H2 H 0.347(3) 0.0984(20) 0.9063(15)
H3 H 0.382(2) 0.1145(15) 0.5666(13)
H4 H -0.203(2) 0.3066(16) 0.6951(12)
H5 H -0.066(3) 0.0582(17) 0.2923(14)
H6 H -0.073(3) 0.1744(19) 0.1982(15)
H7 H 0.142(3) 0.0741(18) 0.2159(14)
H8 H 0.323(3) 0.2463(17) 0.2439(13)
H9 H 0.198(3) 0.3850(18) 0.3110(14)
H10 H 0.146(3) 0.3534(17) 0.1986(14)
H11 H -0.307(3) 0.1690(19) 0.4430(14)
H12 H -0.470(3) 0.3200(18) 0.4518(15)
H13 H -0.399(3) 0.2371(19) 0.3408(15)
H14 H -0.245(3) 0.4451(18) 0.2476(15)
H15 H -0.369(3) 0.5170(18) 0.3603(14)
H16 H -0.132(3) 0.5201(18) 0.3144(14)
H17 H -0.243(3) 0.4033(17) 1.0448(14)
H18 H -0.119(3) 0.4658(18) 0.9390(14)
H19 H -0.009(3) 0.3332(18) 1.0045(14)
H20 H -0.459(3) 0.3029(17) 0.8322(14)
H21 H -0.509(3) 0.3829(17) 0.9409(14)
H22 H -0.390(2) 0.4456(17) 0.8390(13)
H23 H -0.284(3) 0.0889(17) 0.9307(14)
H24 H -0.117(3) 0.1029(18) 1.0042(14)
H25 H -0.358(3) 0.1811(17) 1.0397(14)
#END
