
#######################################################################
#
#                 Cambridge Crystallographic Data Centre
#                                CCDC
#
#######################################################################
#
# If this CIF has been generated from an entry in the Cambridge
# Structural Database, then it will include bibliographic, chemical,
# crystal, experimental, refinement or atomic coordinate data resulting
# from the CCDC's data processing and validation procedures.
#
#######################################################################

data_CSD_CIF_XUVCEY
_audit_creation_date 2015-09-17
_audit_creation_method CSD-ConQuest-V1
_database_code_CSD XUVCEY
_database_code_depnum_ccdc_archive 'CCDC 1404034'
_chemical_formula_sum 'C13 H13 N1 O3'
_chemical_formula_moiety
;
C13 H13 N1 O3
;
_journal_coden_Cambridge 24
_journal_volume 56
_journal_year 2015
_journal_page_first 5980
_journal_name_full 'Tetrahedron Lett. '
loop_
_publ_author_name
"I.V.Kulakov"
"E.B.Nikolaenkova"
"Y.V.Gatilov"
"A.Ya Tikhonov"
"A.S.Fisyuk"
_chemical_name_systematic
;
1-Hydroxy-6,6-dimethyl-3-phenyl-1,6-dihydropyridine-2,5-dione
;
_cell_volume    583.411
_exptl_crystal_colour 'orange'
_exptl_crystal_density_diffrn 1.316
_exptl_crystal_description 'prism'
_exptl_crystal_preparation 'propan-2-ol/hexane'
_diffrn_ambient_temperature 296
#These two values have been output from a single CSD field.
_refine_ls_R_factor_gt 0.0412
_refine_ls_wR_factor_gt 0.0412
_symmetry_cell_setting triclinic
_symmetry_space_group_name_H-M 'P -1'
_symmetry_Int_Tables_number 2
loop_
_symmetry_equiv_pos_site_id
_symmetry_equiv_pos_as_xyz
1 x,y,z
2 -x,-y,-z
_cell_length_a 7.3955(3)
_cell_length_b 9.0553(5)
_cell_length_c 10.1234(5)
_cell_angle_alpha 112.492(2)
_cell_angle_beta 106.309(2)
_cell_angle_gamma 96.116(2)
_cell_formula_units_Z 2
loop_
_atom_type_symbol
_atom_type_radius_bond
C 0.68
H 0.23
N 0.68
O 0.68
loop_
_atom_site_label
_atom_site_type_symbol
_atom_site_fract_x
_atom_site_fract_y
_atom_site_fract_z
O1 O 1.21339(11) 0.33687(12) 1.13811(10)
H1 H 1.265(3) 0.279(2) 1.078(2)
O2 O 1.09801(11) 0.10689(11) 0.86332(9)
O3 O 0.56149(13) 0.28537(15) 1.11061(11)
N1 N 1.01634(12) 0.26125(13) 1.05815(10)
C1 C 0.96939(14) 0.14642(13) 0.91543(12)
C2 C 0.75676(14) 0.06988(13) 0.82943(12)
C3 C 0.62764(15) 0.11364(16) 0.89891(13)
H2 H 0.49740 0.05910 0.84600
C4 C 0.68271(15) 0.24238(16) 1.05294(13)
C5 C 0.89486(14) 0.33289(13) 1.14503(12)
C6 C 0.69627(15) -0.05373(14) 0.66886(12)
C7 C 0.77462(17) -0.02769(16) 0.56722(13)
H3 H 0.87060 0.06690 0.60100
C8 C 0.70972(19) -0.14265(19) 0.41556(14)
H4 H 0.76150 -0.12420 0.34790
C9 C 0.5689(2) -0.28408(19) 0.36483(15)
H5 H 0.52610 -0.36080 0.26320
C10 C 0.4917(2) -0.31168(16) 0.46414(16)
H6 H 0.39760 -0.40770 0.42970
C11 C 0.55333(17) -0.19697(16) 0.61571(14)
H7 H 0.49910 -0.21580 0.68200
C12 C 0.9173(2) 0.51372(18) 1.1750(2)
H8 H 1.05230 0.56970 1.22290
H9 H 0.84830 0.56420 1.24080
H10 H 0.86530 0.52090 1.08000
C13 C 0.95179(18) 0.31381(18) 1.29422(14)
H11 H 0.93540 0.19910 1.27160
H12 H 0.87060 0.35970 1.35040
H13 H 1.08510 0.37070 1.35410
#END
