
#######################################################################
#
#                 Cambridge Crystallographic Data Centre
#                                CCDC
#
#######################################################################
#
# If this CIF has been generated from an entry in the Cambridge
# Structural Database, then it will include bibliographic, chemical,
# crystal, experimental, refinement or atomic coordinate data resulting
# from the CCDC's data processing and validation procedures.
#
#######################################################################

data_CSD_CIF_XUWCID
_audit_creation_date 2015-09-17
_audit_creation_method CSD-ConQuest-V1
_database_code_CSD XUWCID
_database_code_depnum_ccdc_archive 'CCDC 1425364'
_chemical_formula_sum 'C21 H14 N2 O4'
_chemical_formula_moiety
;
C21 H14 N2 O4
;
_journal_coden_Cambridge 1078
_journal_year 2015
_journal_name_full 'CSD Communication(Private Communication) '
loop_
_publ_author_name
"S.Kumari"
"Rajeswari M."
"J.M.Khurana"
_chemical_name_systematic
;
7-(4-methoxyphenyl)-8-methyl-6H-chromeno[4,3-b][1,2]oxazolo[4,5-e]pyridin-6-on
e
;
_cell_volume   3351.581
_exptl_crystal_colour 'white'
_exptl_crystal_density_diffrn 1.424
_exptl_special_details
;
The H atoms on the pyridine N atoms have been suppressed to give a charge 
balanced structure
;
_exptl_crystal_description 'needle'
_exptl_crystal_preparation 'dimethyl sulfoxide'
_diffrn_ambient_temperature 293
#These two values have been output from a single CSD field.
_refine_ls_R_factor_gt 0.0571
_refine_ls_wR_factor_gt 0.0571
_symmetry_cell_setting monoclinic
_symmetry_space_group_name_H-M 'P 21/n'
_symmetry_Int_Tables_number 14
loop_
_symmetry_equiv_pos_site_id
_symmetry_equiv_pos_as_xyz
1 x,y,z
2 1/2-x,1/2+y,1/2-z
3 -x,-y,-z
4 -1/2+x,-1/2-y,-1/2+z
_cell_length_a 20.1884(15)
_cell_length_b 7.2848(6)
_cell_length_c 24.560(2)
_cell_angle_alpha 90
_cell_angle_beta 111.890(9)
_cell_angle_gamma 90
_cell_formula_units_Z 8
loop_
_atom_type_symbol
_atom_type_radius_bond
C 0.68
H 0.23
N 0.68
O 0.68
loop_
_atom_site_label
_atom_site_type_symbol
_atom_site_fract_x
_atom_site_fract_y
_atom_site_fract_z
O1 O 0.01072(9) 0.1512(3) 0.59078(7)
N1 N 0.09002(11) 0.3142(3) 0.46509(8)
O2 O 0.19009(10) 0.3916(3) 0.44537(8)
C1 C 0.11363(13) 0.2179(3) 0.56476(10)
O3 O 0.11667(10) 0.0994(3) 0.65631(8)
C2 C -0.00992(13) 0.2492(3) 0.49216(10)
O4 O 0.40954(10) 0.0933(3) 0.79848(8)
C3 C 0.15930(14) 0.3296(4) 0.48221(11)
C4 C 0.18796(13) 0.2326(3) 0.58126(10)
C5 C 0.06683(13) 0.2610(3) 0.50691(10)
C6 C 0.21032(13) 0.2937(3) 0.53710(11)
C7 C 0.08354(14) 0.1524(3) 0.60754(11)
C8 C 0.24312(13) 0.1881(3) 0.63983(10)
C9 C -0.03506(14) 0.1997(3) 0.53510(11)
C10 C -0.05972(14) 0.2914(4) 0.43656(11)
H1 H -0.04420 0.32370 0.40670
C11 C -0.10704(14) 0.1937(4) 0.52499(12)
H2 H -0.12270 0.16040 0.55470
C12 C 0.35539(14) 0.1161(4) 0.74512(11)
C13 C -0.13148(15) 0.2856(4) 0.42564(12)
H3 H -0.16430 0.31370 0.38840
C14 C -0.15528(15) 0.2381(4) 0.46985(12)
H4 H -0.20400 0.23620 0.46230
C15 C 0.31003(15) 0.2619(4) 0.74116(11)
H5 H 0.31730 0.33640 0.77360
C16 C 0.34455(14) 0.0063(4) 0.69739(11)
H6 H 0.37430 -0.09350 0.70020
C17 C 0.25387(14) 0.2969(4) 0.68894(11)
H7 H 0.22300 0.39400 0.68660
N2 N 0.26577(13) 0.4009(4) 0.47881(11)
C18 C 0.27635(15) 0.3438(4) 0.53183(13)
C19 C 0.46361(16) -0.0370(5) 0.80181(13)
H8 H 0.49870 -0.03960 0.84100
H9 H 0.48600 -0.00270 0.77500
H10 H 0.44260 -0.15650 0.79160
C20 C 0.28923(14) 0.0444(4) 0.64508(11)
H11 H 0.28300 -0.02910 0.61260
C21 C 0.35017(15) 0.3459(5) 0.57645(14)
H12 H 0.38250 0.38840 0.55870
H13 H 0.36340 0.22400 0.59150
H14 H 0.35240 0.42650 0.60800
O5 O 0.59855(10) 0.1953(3) 0.42789(8)
N3 N 0.50260(11) 0.2235(3) 0.55025(9)
C22 C 0.60996(13) 0.1758(3) 0.53002(11)
C23 C 0.53621(13) 0.2164(3) 0.51238(11)
O6 O 0.95133(10) 0.0980(3) 0.70177(8)
O7 O 0.70023(10) 0.1053(3) 0.49290(8)
O8 O 0.51717(10) 0.1931(3) 0.64809(8)
C24 C 0.65273(13) 0.1505(3) 0.58939(11)
C25 C 0.54345(14) 0.1913(4) 0.60492(11)
C26 C 0.52784(15) 0.2480(4) 0.41128(12)
C27 C 0.61612(13) 0.1585(3) 0.62747(11)
C28 C 0.73184(13) 0.1287(3) 0.61456(10)
C29 C 0.42333(14) 0.3115(4) 0.43098(12)
H15 H 0.39970 0.31830 0.45700
C30 C 0.87951(14) 0.0983(4) 0.67244(11)
C31 C 0.64099(15) 0.1550(4) 0.48467(12)
C32 C 0.49458(14) 0.2577(3) 0.45133(11)
C33 C 0.63312(15) 0.1404(3) 0.68966(11)
C34 C 0.77414(15) 0.2822(4) 0.63374(12)
H16 H 0.75300 0.39770 0.62720
N4 N 0.57652(14) 0.1593(3) 0.70212(10)
C35 C 0.76521(15) -0.0401(4) 0.62341(13)
H17 H 0.73800 -0.14550 0.60990
C36 C 0.83846(14) -0.0555(4) 0.65204(12)
H18 H 0.85990 -0.17060 0.65750
C37 C 0.84671(14) 0.2681(4) 0.66221(12)
H19 H 0.87400 0.37380 0.67470
C38 C 0.42248(17) 0.3445(4) 0.33383(13)
H20 H 0.39830 0.37490 0.29460
C39 C 0.38747(16) 0.3548(4) 0.37278(12)
H21 H 0.33990 0.39080 0.35960
C40 C 0.70237(16) 0.1024(4) 0.73779(12)
H22 H 0.69570 0.09820 0.77450
H23 H 0.73570 0.19780 0.73910
H24 H 0.72060 -0.01350 0.73090
C41 C 0.49195(17) 0.2905(4) 0.35247(12)
H25 H 0.51510 0.28210 0.32610
C42 C 0.98929(15) -0.0702(4) 0.70476(14)
H26 H 1.03930 -0.05060 0.72640
H27 H 0.98220 -0.11070 0.66580
H28 H 0.97190 -0.16190 0.72410
H29? H 0.06160 0.33650 0.42970
H30? H 0.45780 0.24730 0.53950
#END
