
#######################################################################
#
#                 Cambridge Crystallographic Data Centre
#                                CCDC
#
#######################################################################
#
# If this CIF has been generated from an entry in the Cambridge
# Structural Database, then it will include bibliographic, chemical,
# crystal, experimental, refinement or atomic coordinate data resulting
# from the CCDC's data processing and validation procedures.
#
#######################################################################

data_CSD_CIF_XUXFIG
_audit_creation_date 2010-09-20
_audit_creation_method CSD-ConQuest-V1
_database_code_CSD XUXFIG
_database_code_depnum_ccdc_archive 'CCDC 701495'
_chemical_formula_sum 'C21 H32 N4 O6'
_chemical_formula_moiety
;
C21 H32 N4 O6
;
_journal_coden_Cambridge 1186
_journal_volume 21
_journal_year 2009
_journal_page_first 681
_journal_name_full 'Supramol.Chem. '
loop_
_publ_author_name
"S.Kar"
"A.Dutta"
"M.G.B.Drew"
"P.Koley"
"A.Pramanik"
_chemical_name_systematic
;
N-(t-Butoxycarbonyl)leucyl-2-methyl-N-(3-nitrophenyl)alaninamide
;
_chemical_name_common
;
PEPSEQ A=2 LEU*-AIB*
;
_cell_volume   2294.043
_exptl_crystal_colour 'white'
_exptl_crystal_density_diffrn 1.264
_exptl_crystal_description 'needle'
_diffrn_ambient_temperature 150
#These two values have been output from a single CSD field.
_refine_ls_R_factor_gt 0.0487
_refine_ls_wR_factor_gt 0.0487
_symmetry_cell_setting monoclinic
_symmetry_space_group_name_H-M 'P 21'
_symmetry_Int_Tables_number 4
loop_
_symmetry_equiv_pos_site_id
_symmetry_equiv_pos_as_xyz
1 x,y,z
2 -x,1/2+y,-z
_cell_length_a 10.8030(4)
_cell_length_b 18.6839(5)
_cell_length_c 11.7419(4)
_cell_angle_alpha 90
_cell_angle_beta 104.546(4)
_cell_angle_gamma 90
_cell_formula_units_Z 4
loop_
_atom_type_symbol
_atom_type_radius_bond
C 0.68
H 0.23
N 0.68
O 0.68
loop_
_atom_site_label
_atom_site_type_symbol
_atom_site_fract_x
_atom_site_fract_y
_atom_site_fract_z
C1 C 0.3340(2) 0.75872(14) 0.2769(2)
C2 C 0.3990(2) 0.71605(15) 0.3700(2)
H1 H 0.45490 0.68070 0.35780
C3 C 0.3796(2) 0.72671(15) 0.4802(2)
C4 C 0.2960(3) 0.77760(16) 0.5027(2)
H2 H 0.28290 0.78320 0.57750
C5 C 0.2325(2) 0.81997(15) 0.4093(2)
H3 H 0.17690 0.85520 0.42250
C6 C 0.2493(2) 0.81131(15) 0.2974(2)
H4 H 0.20490 0.84010 0.23610
C7 C 0.2862(2) 0.76858(14) 0.0609(2)
C8 C 0.3418(2) 0.75183(14) -0.0455(2)
C9 C 0.3652(2) 0.62320(13) -0.0053(2)
C10 C 0.4504(2) 0.55824(13) -0.0067(2)
H5 H 0.54010 0.57340 0.01550
C11 C 0.4539(2) 0.51840(14) 0.1904(2)
O1 O 0.42091(18) 0.46159(10) 0.24675(16)
C12 C 0.2336(2) 0.74691(16) -0.1574(2)
H6 H 0.17460 0.71020 -0.14820
H7 H 0.26830 0.73540 -0.22280
H8 H 0.18970 0.79200 -0.17140
C13 C 0.4319(2) 0.81263(15) -0.0562(3)
H9 H 0.50310 0.81310 0.01190
H10 H 0.38710 0.85740 -0.06170
H11 H 0.46240 0.80580 -0.12550
C14 C 0.4192(2) 0.52686(13) -0.1323(2)
H12 H 0.33760 0.50230 -0.14760
H13 H 0.41120 0.56570 -0.18850
C15 C 0.5210(2) 0.47466(15) -0.1507(2)
H14 H 0.54970 0.44600 -0.07900
C16 C 0.4632(3) 0.42361(18) -0.2530(3)
H15 H 0.39580 0.39620 -0.23410
H16 H 0.52830 0.39180 -0.26550
H17 H 0.42930 0.45090 -0.32310
C17 C 0.6362(3) 0.51340(19) -0.1726(3)
H18 H 0.70060 0.47910 -0.17830
H19 H 0.66990 0.54560 -0.10870
H20 H 0.61100 0.54000 -0.24470
C18 C 0.4403(2) 0.46089(15) 0.3746(2)
C19 C 0.3514(3) 0.51621(18) 0.4076(3)
H21 H 0.35600 0.51270 0.49020
H22 H 0.26520 0.50740 0.36330
H23 H 0.37700 0.56330 0.39020
C20 C 0.3989(3) 0.38598(16) 0.3973(3)
H24 H 0.41130 0.37900 0.48040
H25 H 0.44900 0.35170 0.36740
H26 H 0.31010 0.37970 0.35850
N1 N 0.4518(2) 0.68275(14) 0.57834(19)
N2 N 0.41644(17) 0.68579(11) -0.02564(18)
H27 H 0.49560 0.68710 -0.02710
N3 N 0.43090(19) 0.50412(11) 0.07422(18)
H28 H 0.40440 0.46240 0.04840
O2 O 0.5373(2) 0.64421(14) 0.56244(19)
O3 O 0.4240(2) 0.68646(16) 0.67283(19)
N4 N 0.35934(19) 0.74718(12) 0.16703(18)
H29 H 0.42830 0.72420 0.16680
O4 O 0.18738(17) 0.80250(11) 0.04792(17)
O5 O 0.25732(15) 0.61888(10) 0.01121(16)
O6 O 0.49928(16) 0.57491(10) 0.23553(16)
C21 C 0.5792(2) 0.47348(16) 0.4368(3)
H30 H 0.59150 0.46540 0.51970
H31 H 0.60210 0.52190 0.42380
H32 H 0.63210 0.44110 0.40650
C22 C 0.7863(2) 0.72918(13) 0.0548(2)
C23 C 0.8368(2) 0.74752(14) -0.0517(2)
C24 C 0.8401(2) 0.87863(14) -0.0270(2)
C25 C 0.9035(2) 0.94855(14) -0.0499(2)
H33 H 0.84430 0.96920 -0.11930
C26 C 0.9484(2) 0.98206(14) 0.1585(2)
O7 O 0.93324(17) 1.03984(10) 0.22395(17)
C27 C 0.9698(3) 1.03922(15) 0.3521(2)
C28 C 0.8295(2) 0.74407(15) 0.2715(2)
C29 C 0.7442(2) 0.69123(15) 0.2914(2)
H34 H 0.69890 0.66300 0.22970
C30 C 0.7286(2) 0.68184(15) 0.4043(2)
H35 H 0.67200 0.64710 0.41720
C31 C 0.7946(2) 0.72254(16) 0.4979(2)
H36 H 0.78270 0.71620 0.57310
C32 C 0.8793(2) 0.77319(15) 0.4759(2)
C33 C 0.8987(2) 0.78466(15) 0.3653(2)
H37 H 0.95700 0.81890 0.35400
C34 C 0.9376(2) 0.68982(14) -0.0583(3)
H38 H 1.00590 0.69150 0.01200
H39 H 0.97100 0.69880 -0.12540
H40 H 0.89830 0.64340 -0.06560
C35 C 0.7279(2) 0.74557(17) -0.1640(2)
H41 H 0.66720 0.78260 -0.16070
H42 H 0.68630 0.69980 -0.17050
H43 H 0.76190 0.75310 -0.23110
C36 C 1.0295(2) 0.94197(14) -0.0838(2)
H44 H 1.01780 0.90920 -0.14980
H45 H 1.09180 0.92080 -0.01840
C37 C 1.0848(2) 1.01225(14) -0.1175(3)
H46 H 1.10820 1.04260 -0.04720
C38 C 0.9915(3) 1.05349(18) -0.2130(3)
H47 H 1.03300 1.09520 -0.23360
H48 H 0.91920 1.06780 -0.18480
H49 H 0.96320 1.02360 -0.28110
C39 C 1.2068(3) 0.99513(16) -0.1566(3)
H50 H 1.26660 0.97090 -0.09410
H51 H 1.24430 1.03880 -0.17520
H52 H 1.18600 0.96490 -0.22490
C40 C 1.1121(3) 1.0275(2) 0.3974(3)
H53 H 1.13530 1.03070 0.48170
H54 H 1.15730 1.06340 0.36550
H55 H 1.13410 0.98100 0.37390
C41 C 0.9350(3) 1.11462(17) 0.3825(3)
H56 H 0.95340 1.11970 0.46650
H57 H 0.84560 1.12280 0.34900
H58 H 0.98420 1.14880 0.35140
C42 C 0.8903(4) 0.98510(19) 0.3983(3)
H59 H 0.90260 0.99170 0.48150
H60 H 0.91630 0.93760 0.38330
H61 H 0.80160 0.99160 0.35950
N5 N 0.90123(19) 0.81685(11) -0.03904(18)
H62 H 0.98070 0.81850 -0.03920
N6 N 0.90499(19) 0.99925(12) 0.04395(19)
H63 H 0.87710 1.04190 0.02580
N7 N 0.9544(2) 0.81483(14) 0.5759(2)
N8 N 0.8525(2) 0.75613(12) 0.15970(18)
H64 H 0.91580 0.78370 0.15800
O8 O 0.69534(16) 0.68753(11) 0.04415(16)
O9 O 0.73438(16) 0.87859(10) -0.00587(16)
O10 O 0.99358(17) 0.92435(11) 0.19731(17)
O11 O 1.0372(2) 0.85451(13) 0.55986(18)
O12 O 0.9299(2) 0.80716(15) 0.67278(18)
#END
