
#######################################################################
#
#                 Cambridge Crystallographic Data Centre
#                                CCDC
#
#######################################################################
#
# If this CIF has been generated from an entry in the Cambridge
# Structural Database, then it will include bibliographic, chemical,
# crystal, experimental, refinement or atomic coordinate data resulting
# from the CCDC's data processing and validation procedures.
#
#######################################################################

data_CSD_CIF_XUYRIU
_audit_creation_date 2016-01-13
_audit_creation_method CSD-ConQuest-V1
_database_code_CSD XUYRIU
_database_code_depnum_ccdc_archive 'CCDC 1446988'
_chemical_formula_sum 'C30 H21 N3 O5'
_chemical_formula_moiety
;
C30 H21 N3 O5
;
_journal_coden_Cambridge 182
_journal_volume 52
_journal_year 2016
_journal_page_first 6280
_journal_name_full 'Chem.Commun. '
loop_
_publ_author_name
"Rong-Guo Shi"
"Xiao-Hua Wang"
"Ruzhang Liu"
"Chao-Guo Yan"
_chemical_name_systematic
;
2-(5-methyl-3-((4-nitrophenyl)(pyridinium-1-yl)methyl)-2-oxo-2,3-dihydro-1H-in
dol-3-yl)-1,3-dioxo-2,3-dihydro-1H-inden-2-ide unknown solvate
;
_cell_volume   2858.260
_exptl_crystal_density_diffrn 1.17
_exptl_crystal_description 'block'
_diffrn_ambient_temperature 296
_refine_special_details
;
Disordered solvent molecules were not modelled and the disordered density was 
taken into account using the SQUEEZE/PLATON procedure.
;
#These two values have been output from a single CSD field.
_refine_ls_R_factor_gt 0.0659
_refine_ls_wR_factor_gt 0.0659
_symmetry_cell_setting monoclinic
_symmetry_space_group_name_H-M 'P 21/c'
_symmetry_Int_Tables_number 14
loop_
_symmetry_equiv_pos_site_id
_symmetry_equiv_pos_as_xyz
1 x,y,z
2 -x,1/2+y,1/2-z
3 -x,-y,-z
4 x,-1/2-y,-1/2+z
_cell_length_a 12.8577(7)
_cell_length_b 14.7678(8)
_cell_length_c 16.2529(8)
_cell_angle_alpha 90
_cell_angle_beta 112.1542(18)
_cell_angle_gamma 90
_cell_formula_units_Z 4
loop_
_atom_type_symbol
_atom_type_radius_bond
C 0.68
H 0.23
N 0.68
O 0.68
loop_
_atom_site_label
_atom_site_type_symbol
_atom_site_fract_x
_atom_site_fract_y
_atom_site_fract_z
C1 C 0.3685(3) 0.5190(2) 0.08349(19)
C2 C 0.4039(3) 0.4314(2) 0.1021(2)
H1 H 0.42320 0.40780 0.15900
C3 C 0.4103(3) 0.3789(2) 0.0335(2)
H2 H 0.43500 0.31930 0.04480
C4 C 0.3806(3) 0.4133(2) -0.0508(2)
H3 H 0.38550 0.37670 -0.09580
C5 C 0.3433(3) 0.5023(2) -0.0698(2)
H4 H 0.32220 0.52550 -0.12690
C6 C 0.3386(2) 0.5545(2) -0.00151(19)
C7 C 0.3228(2) 0.67251(19) 0.09024(17)
C8 C 0.2880(2) 0.7585(2) 0.12340(17)
C9 C 0.2927(2) 0.84325(19) 0.06723(18)
H5 H 0.22820 0.83710 0.01090
C10 C 0.4969(3) 0.8290(2) 0.0990(2)
H6 H 0.50780 0.80620 0.15510
C11 C 0.5878(3) 0.8412(2) 0.0740(2)
H7 H 0.66020 0.82880 0.11390
C12 C 0.5701(3) 0.8717(2) -0.0099(2)
H8 H 0.63050 0.87960 -0.02750
C13 C 0.4630(3) 0.8906(2) -0.0677(2)
H9 H 0.44980 0.91060 -0.12500
C14 C 0.3762(3) 0.8794(2) -0.03996(19)
H10 H 0.30350 0.89240 -0.07880
C15 C 0.2755(2) 0.9332(2) 0.10631(18)
C16 C 0.3619(3) 0.9830(2) 0.16597(19)
H11 H 0.43500 0.96090 0.18450
C17 C 0.3422(3) 1.0652(2) 0.1989(2)
H12 H 0.40100 1.09910 0.23810
C18 C 0.2344(3) 1.0944(2) 0.1720(2)
C19 C 0.1470(3) 1.0473(3) 0.1140(3)
H13 H 0.07400 1.06890 0.09710
C20 C 0.1682(3) 0.9671(3) 0.0806(3)
H14 H 0.10890 0.93510 0.03970
C21 C 0.3556(3) 0.77291(19) 0.22520(19)
C22 C 0.1707(3) 0.7647(2) 0.2058(2)
C23 C 0.1687(3) 0.7525(2) 0.1209(2)
C24 C 0.0691(3) 0.7345(2) 0.0517(2)
H15 H 0.06810 0.72530 -0.00520
C25 C -0.0303(3) 0.7300(3) 0.0670(3)
C26 C -0.0251(4) 0.7438(4) 0.1526(3)
H16 H -0.09140 0.74120 0.16310
C27 C 0.0743(4) 0.7614(3) 0.2234(3)
H17 H 0.07580 0.77070 0.28050
C28 C -0.1409(3) 0.7080(4) -0.0058(3)
H18 H -0.17270 0.65540 0.01050
H19 H -0.12940 0.69630 -0.05980
H20 H -0.19120 0.75830 -0.01440
C29 C 0.3051(2) 0.6518(2) 0.00070(18)
C30 C 0.3563(2) 0.5928(2) 0.14217(19)
N1 N 0.2801(2) 0.78021(18) 0.26476(16)
H21 H 0.30100 0.78630 0.32560
N2 N 0.3932(2) 0.84997(15) 0.04230(15)
N3 N 0.2101(3) 1.1815(2) 0.2064(2)
O1 O 0.3733(2) 0.58205(14) 0.22250(13)
O2 O 0.26913(19) 0.70180(14) -0.06676(13)
O3 O 0.45711(19) 0.77948(15) 0.26204(13)
O4 O 0.1128(3) 1.2047(2) 0.1848(2)
O5 O 0.2887(3) 1.2264(2) 0.2529(2)
#END
