
#######################################################################
#
#                 Cambridge Crystallographic Data Centre
#                                CCDC
#
#######################################################################
#
# If this CIF has been generated from an entry in the Cambridge
# Structural Database, then it will include bibliographic, chemical,
# crystal, experimental, refinement or atomic coordinate data resulting
# from the CCDC's data processing and validation procedures.
#
#######################################################################

data_CSD_CIF_XUZJUX
_audit_creation_date 2003-07-03
_audit_creation_method CSD-ConQuest-V1
_database_code_CSD XUZJUX
_database_code_depnum_ccdc_archive 'CCDC 166686'
_chemical_formula_sum 'C6 H7 N1 O2'
_chemical_formula_moiety
;
C6 H7 N1 O2
;
_journal_coden_Cambridge 36
_journal_volume 645
_journal_year 2002
_journal_page_first 118
_journal_name_full 'J.Organomet.Chem. '
loop_
_publ_author_name
"A.Gupta"
"R.K.Sharma"
"R.Bohra"
"V.K.Jain"
"J.E.Drake"
"M.B.Hursthouse"
"M.E.Light"
_chemical_name_systematic
;
1-(2-Furyl)ethanone oxime
;
_cell_volume   1386.961
_exptl_crystal_colour 'colorless'
_exptl_crystal_density_diffrn 1.348
_exptl_crystal_description 'block'
_diffrn_ambient_temperature 150
_diffrn_special_details
;
Twinned crystal with a BASF of 0.5123

;
#These two values have been output from a single CSD field.
_refine_ls_R_factor_gt 0.0585
_refine_ls_wR_factor_gt 0.0585
_symmetry_cell_setting hexagonal
_symmetry_space_group_name_H-M 'P 32'
_symmetry_Int_Tables_number 145
loop_
_symmetry_equiv_pos_site_id
_symmetry_equiv_pos_as_xyz
1 x,y,z
2 -y,x-y,2/3+z
3 -x+y,-x,1/3+z
_cell_length_a 14.016(2)
_cell_length_b 14.016(2)
_cell_length_c 8.1524(16)
_cell_angle_alpha 90
_cell_angle_beta 90
_cell_angle_gamma 120
_cell_formula_units_Z 9
loop_
_atom_type_symbol
_atom_type_radius_bond
C 0.68
H 0.23
N 0.68
O 0.68
loop_
_atom_site_label
_atom_site_type_symbol
_atom_site_fract_x
_atom_site_fract_y
_atom_site_fract_z
O1 O 0.0359(4) 0.1061(4) -0.1778(5)
O2 O 0.0830(4) 0.1803(4) 0.3077(6)
N1 N 0.0459(4) 0.1265(4) -0.0066(5)
C1 C 0.1013(7) 0.2329(5) 0.0244(11)
C2 C 0.1479(6) 0.3178(5) -0.1095(8)
C3 C 0.1246(5) 0.2626(6) 0.1985(10)
C4 C 0.1841(6) 0.3626(8) 0.2666(9)
C5 C 0.1816(6) 0.3426(5) 0.4398(9)
C6 C 0.1226(7) 0.2324(5) 0.4579(11)
H1 H -0.031(5) 0.038(5) -0.211(6)
H2 H 0.20880 0.31460 -0.16340
H3 H 0.17510 0.39120 -0.06230
H4 H 0.09030 0.30290 -0.19020
H5 H 0.22020 0.43170 0.21210
H6 H 0.21470 0.39610 0.52410
H7 H 0.10980 0.19520 0.55990
O3 O 0.7028(4) 0.4412(3) -0.1715(5)
O4 O 0.7648(4) 0.5134(4) 0.3128(5)
N2 N 0.7195(4) 0.4624(4) -0.0005(6)
C7 C 0.7795(6) 0.5663(6) 0.0342(10)
C8 C 0.8222(6) 0.6532(5) -0.1008(8)
C9 C 0.8035(6) 0.5949(7) 0.2015(10)
C10 C 0.8577(6) 0.6942(7) 0.2718(9)
C11 C 0.8578(5) 0.6733(5) 0.4500(8)
C12 C 0.8001(6) 0.5627(6) 0.4651(11)
H8 H 0.88810 0.65790 -0.15050
H9 H 0.84080 0.72480 -0.05390
H10 H 0.76520 0.63270 -0.18480
H11 H 0.88960 0.76370 0.21870
H12 H 0.89120 0.72620 0.53490
H13 H 0.78560 0.52400 0.56610
O5 O 0.4043(4) 0.7732(4) 0.6601(5)
O6 O 0.4199(5) 0.8461(4) 0.1750(6)
N3 N 0.4107(5) 0.7925(5) 0.4902(6)
C13 C 0.4570(6) 0.8966(6) 0.4653(9)
C14 C 0.5014(6) 0.9863(6) 0.5881(9)
C15 C 0.4657(6) 0.9325(6) 0.2948(10)
C16 C 0.5039(7) 1.0308(7) 0.2136(8)
C17 C 0.4826(8) 1.0060(6) 0.0470(8)
C18 C 0.4349(7) 0.8972(7) 0.028(1)
H14 H 0.44780 0.96770 0.67690
H15 H 0.51550 1.05500 0.53570
H16 H 0.57040 0.99550 0.63300
H17 H 0.53820 1.10210 0.26160
H18 H 0.49930 1.05800 -0.03850
H19 H 0.41420 0.86030 -0.07480
#END
