
#######################################################################
#
#                 Cambridge Crystallographic Data Centre
#                                CCDC
#
#######################################################################
#
# If this CIF has been generated from an entry in the Cambridge
# Structural Database, then it will include bibliographic, chemical,
# crystal, experimental, refinement or atomic coordinate data resulting
# from the CCDC's data processing and validation procedures.
#
#######################################################################

data_CSD_CIF_XUZNAI
_audit_creation_date 2011-02-15
_audit_creation_method CSD-ConQuest-V1
_database_code_CSD XUZNAI
_database_code_depnum_ccdc_archive 'CCDC 666798'
_chemical_formula_sum 'C15 H19 N4 O1'
_chemical_formula_moiety
;
C15 H19 N4 O1
;
_journal_coden_Cambridge 369
_journal_volume 35
_journal_year 2010
_journal_page_first 591
_journal_name_full 'Transition Met.Chem. '
loop_
_publ_author_name
"Yu-Fang Wang"
"Li-Ya Wang"
_chemical_name_systematic
;
4,4,5,5-Tetramethyl-2-(1-methyl-1H-benzimidazol-2-yl)-4,5-dihydro-1H-imidazol-
1-oxyl radical
;
_cell_volume   1494.713
_exptl_crystal_colour 'yellow'
_exptl_crystal_density_diffrn 1.206
_exptl_crystal_description 'block'
_exptl_crystal_preparation 'cyclohexane/ethyl acetate'
_diffrn_ambient_temperature 293
#These two values have been output from a single CSD field.
_refine_ls_R_factor_gt 0.0485
_refine_ls_wR_factor_gt 0.0485
_symmetry_cell_setting monoclinic
_symmetry_space_group_name_H-M 'P 21/c'
_symmetry_Int_Tables_number 14
loop_
_symmetry_equiv_pos_site_id
_symmetry_equiv_pos_as_xyz
1 x,y,z
2 -x,1/2+y,1/2-z
3 -x,-y,-z
4 x,-1/2-y,-1/2+z
_cell_length_a 6.2961(16)
_cell_length_b 18.897(5)
_cell_length_c 12.563(3)
_cell_angle_alpha 90
_cell_angle_beta 90
_cell_angle_gamma 90
_cell_formula_units_Z 4
loop_
_atom_type_symbol
_atom_type_radius_bond
C 0.68
H 0.23
N 0.68
O 0.68
loop_
_atom_site_label
_atom_site_type_symbol
_atom_site_fract_x
_atom_site_fract_y
_atom_site_fract_z
O1 O 0.6183(3) 0.36731(10) 0.09229(12)
N1 N 0.3234(3) 0.27993(9) 0.36515(13)
N2 N 0.2327(3) 0.30545(9) 0.19583(13)
N3 N 0.6246(3) 0.39719(9) 0.18283(13)
N4 N 0.5621(3) 0.41494(9) 0.35630(13)
C1 C 0.1501(4) 0.23788(11) 0.34083(17)
C2 C 0.0341(4) 0.19004(12) 0.4021(2)
H1 H 0.07310 0.17890 0.47150
C3 C -0.1389(5) 0.16045(14) 0.3552(3)
H2 H -0.22100 0.12870 0.39410
C4 C -0.1971(5) 0.17613(15) 0.2510(3)
H3 H -0.31620 0.15440 0.22200
C5 C -0.0828(4) 0.22305(14) 0.1898(2)
H4 H -0.12280 0.23350 0.12030
C6 C 0.0965(4) 0.25443(11) 0.23638(19)
C7 C 0.3621(3) 0.31901(10) 0.27547(16)
C8 C 0.4378(4) 0.27950(14) 0.46614(18)
H5 H 0.58750 0.28350 0.45290
H6 H 0.40960 0.23600 0.50300
H7 H 0.39160 0.31870 0.50900
C9 C 0.5185(3) 0.37642(11) 0.27501(15)
C10 C 0.7319(3) 0.46652(11) 0.20303(17)
C11 C 0.7345(3) 0.46507(11) 0.32674(17)
C12 C 0.9482(4) 0.46677(14) 0.1485(2)
H8 H 1.02880 0.42650 0.17170
H9 H 1.02290 0.50940 0.16660
H10 H 0.92900 0.46450 0.07270
C13 C 0.5877(5) 0.52326(13) 0.1562(2)
H11 H 0.57870 0.51710 0.08040
H12 H 0.64490 0.56920 0.17180
H13 H 0.44850 0.51920 0.18680
C14 C 0.6907(5) 0.53665(13) 0.3785(2)
H14 H 0.55200 0.55290 0.35820
H15 H 0.79550 0.57020 0.35550
H16 H 0.69720 0.53190 0.45460
C15 C 0.9358(4) 0.43350(15) 0.3737(2)
H17 H 0.91540 0.42500 0.44830
H18 H 1.05160 0.46590 0.36390
H19 H 0.96760 0.38970 0.33850
#END
