
#######################################################################
#
#                 Cambridge Crystallographic Data Centre
#                                CCDC
#
#######################################################################
#
# If this CIF has been generated from an entry in the Cambridge
# Structural Database, then it will include bibliographic, chemical,
# crystal, experimental, refinement or atomic coordinate data resulting
# from the CCDC's data processing and validation procedures.
#
#######################################################################

data_CSD_CIF_XUZNUB
_audit_creation_date 2003-07-04
_audit_creation_method CSD-ConQuest-V1
_database_code_CSD XUZNUB
_database_code_depnum_ccdc_archive 'CCDC 100585'
_chemical_formula_sum 'C15 H17 N1 O3'
_chemical_formula_moiety
;
C15 H17 N1 O3
;
_journal_coden_Cambridge 1090
_journal_volume 10
_journal_year 1999
_journal_page_first 2165
_journal_name_full 'Tetrahedron:Asymm. '
loop_
_publ_author_name
"T.Faitg"
"J.Soulie"
"J.-Y.Lallemand"
"L.Ricard"
_chemical_name_systematic
;
(1S,5R)-8-((2R)-2-Hydroxy-2-phenylacetyl)-9-oxa-8-azabicyclo(3.2.2)non-6-ene
;
_chemical_melting_point ?
_cell_volume   2577.190
_exptl_crystal_colour 'colorless'
_exptl_crystal_density_diffrn 1.34
_exptl_special_details
;
Sublimes at 424.15K

;
_exptl_crystal_description 'cube'
_exptl_crystal_preparation 'methanol'
_diffrn_ambient_temperature 123
#These two values have been output from a single CSD field.
_refine_ls_R_factor_gt 0.041
_refine_ls_wR_factor_gt 0.041
loop_
_citation_database_id_CSD
_citation_special_details
XUZPAJ "is a stereoisomer of this entry"
_symmetry_cell_setting orthorhombic
_symmetry_space_group_name_H-M 'P 21 21 21'
_symmetry_Int_Tables_number 19
loop_
_symmetry_equiv_pos_site_id
_symmetry_equiv_pos_as_xyz
1 x,y,z
2 1/2-x,-y,1/2+z
3 -x,1/2+y,1/2-z
4 1/2+x,1/2-y,-z
_cell_length_a 8.454(1)
_cell_length_b 10.930(1)
_cell_length_c 27.891(4)
_cell_angle_alpha 90
_cell_angle_beta 90
_cell_angle_gamma 90
_cell_formula_units_Z 8
loop_
_atom_type_symbol
_atom_type_radius_bond
C 0.68
H 0.23
N 0.68
O 0.68
loop_
_atom_site_label
_atom_site_type_symbol
_atom_site_fract_x
_atom_site_fract_y
_atom_site_fract_z
O1 O 1.0480(3) 0.5815(2) 0.26374(8)
O2 O 0.9720(3) 0.8122(2) 0.34748(8)
O3 O 0.6735(3) 0.7550(2) 0.30894(8)
N1 N 1.0793(3) 0.6770(3) 0.2971(1)
C1 C 1.1871(4) 0.5647(3) 0.2332(1)
C2 C 1.2457(4) 0.7099(4) 0.3078(1)
C3 C 1.3457(4) 0.5974(4) 0.3026(1)
C4 C 1.3214(5) 0.5260(4) 0.2651(2)
C5 C 1.2226(5) 0.6785(3) 0.2035(1)
C6 C 1.3406(5) 0.7668(3) 0.2247(1)
C7 C 1.2971(4) 0.8136(3) 0.2747(1)
C8 C 0.9543(4) 0.7255(3) 0.3197(1)
C9 C 0.7915(4) 0.6656(3) 0.3128(1)
C10 C 0.7748(4) 0.5782(3) 0.3550(1)
C11 C 0.8556(4) 0.4677(3) 0.3548(1)
C12 C 0.8488(4) 0.3895(3) 0.3935(1)
C13 C 0.7634(5) 0.4207(3) 0.4334(1)
C14 C 0.6843(5) 0.5304(3) 0.4350(1)
C15 C 0.6884(4) 0.6095(3) 0.3957(1)
O4 O 0.4780(3) 1.1729(2) 0.44554(8)
O5 O 0.5504(3) 0.9076(2) 0.37850(8)
O6 O 0.8500(3) 1.0104(2) 0.39286(8)
N2 N 0.4481(3) 1.0713(2) 0.4158(1)
C16 C 0.3638(4) 1.2700(3) 0.4343(1)
C17 C 0.2838(4) 1.0543(3) 0.3973(1)
C18 C 0.1700(4) 1.1116(3) 0.4314(1)
C19 C 0.2048(4) 1.2204(3) 0.4480(1)
C20 C 0.3770(5) 1.3114(3) 0.3822(1)
C21 C 0.2632(5) 1.2490(4) 0.3476(1)
C22 C 0.2730(5) 1.1098(4) 0.3471(1)
C23 C 0.5697(4) 0.9980(3) 0.4049(1)
C24 C 0.7304(4) 1.0246(3) 0.4271(1)
C25 C 0.7492(4) 0.9450(3) 0.4718(1)
C26 C 0.8572(4) 0.8503(3) 0.4732(1)
C27 C 0.8709(5) 0.7793(4) 0.5136(1)
C28 C 0.7794(5) 0.7994(3) 0.5536(1)
C29 C 0.6692(5) 0.8942(3) 0.5525(1)
C30 C 0.6567(4) 0.9668(3) 0.5121(1)
H1 H 1.155(3) 0.508(2) 0.2145(9)
H2 H 1.240(5) 0.742(3) 0.338(1)
H3 H 1.421(4) 0.581(3) 0.327(1)
H4 H 1.394(5) 0.444(4) 0.263(1)
H5 H 1.259(4) 0.644(3) 0.176(1)
H6 H 1.104(8) 0.722(6) 0.204(2)
H7 H 1.443(4) 0.733(3) 0.227(1)
H8 H 1.348(4) 0.832(3) 0.200(1)
H9 H 1.392(4) 0.859(3) 0.289(1)
H10 H 1.213(4) 0.877(3) 0.273(1)
H11 H 0.785(3) 0.623(2) 0.2838(8)
H12 H 0.677(4) 0.803(3) 0.329(1)
H13 H 0.916(5) 0.444(3) 0.330(1)
H14 H 0.900(5) 0.316(3) 0.392(1)
H15 H 0.756(4) 0.362(3) 0.458(1)
H16 H 0.615(4) 0.552(3) 0.462(1)
H17 H 0.637(4) 0.683(3) 0.395(1)
H18 H 0.413(4) 1.337(3) 0.453(1)
H19 H 0.265(5) 0.970(3) 0.398(1)
H20 H 0.063(7) 1.062(4) 0.441(2)
H21 H 0.138(4) 1.269(3) 0.467(1)
H22 H 0.491(4) 1.296(3) 0.370(1)
H23 H 0.350(5) 1.402(4) 0.377(1)
H24 H 0.280(5) 1.285(3) 0.316(1)
H25 H 0.141(6) 1.284(4) 0.356(2)
H26 H 0.362(4) 1.087(3) 0.333(1)
H27 H 0.189(6) 1.077(4) 0.322(2)
H28 H 0.736(4) 1.112(3) 0.435(1)
H29 H 0.850(4) 0.936(3) 0.380(1)
H30 H 0.933(4) 0.831(3) 0.445(1)
H31 H 0.933(5) 0.720(3) 0.514(1)
H32 H 0.790(4) 0.749(3) 0.582(1)
H33 H 0.607(4) 0.912(3) 0.579(1)
H34 H 0.572(4) 1.030(3) 0.512(1)
#END
