
#######################################################################
#
#                 Cambridge Crystallographic Data Centre
#                                CCDC
#
#######################################################################
#
# If this CIF has been generated from an entry in the Cambridge
# Structural Database, then it will include bibliographic, chemical,
# crystal, experimental, refinement or atomic coordinate data resulting
# from the CCDC's data processing and validation procedures.
#
#######################################################################

data_CSD_CIF_XZBTZO
_audit_creation_date 1980-07-01
_audit_creation_method CSD-ConQuest-V1
_database_code_CSD XZBTZO
_chemical_formula_sum 'C8 H4 N4 O2'
_chemical_formula_moiety
;
C8 H4 N4 O2
;
_journal_coden_Cambridge 188
_journal_year 1979
_journal_page_first 1751
_journal_name_full 'J.Chem.Soc.,Perkin Trans.2 '
loop_
_publ_author_name
"T.J.King"
"P.N.Preston"
"J.S.Suffolk"
"K.Turnbull"
_chemical_name_systematic
;
1,2,3-Oxadiazolo(4,3-c)(1,2,4)benzotriazinium-3-olate
;
_cell_volume   1534.272
_exptl_crystal_density_diffrn 1.634
_diffrn_ambient_temperature ?
_diffrn_special_details
;
The study was carried out at room temperature,in the range 283-303K

;
#These two values have been output from a single CSD field.
_refine_ls_R_factor_gt 0.034
_refine_ls_wR_factor_gt 0.034
_symmetry_cell_setting orthorhombic
_symmetry_space_group_name_H-M 'P b c a'
_symmetry_Int_Tables_number 61
loop_
_symmetry_equiv_pos_site_id
_symmetry_equiv_pos_as_xyz
1 x,y,z
2 1/2-x,1/2+y,z
3 x,1/2-y,1/2+z
4 1/2-x,-y,1/2+z
5 -x,-y,-z
6 -1/2+x,-1/2-y,-z
7 -x,-1/2+y,-1/2-z
8 -1/2+x,y,-1/2-z
_cell_length_a 18.682(2)
_cell_length_b 9.593(2)
_cell_length_c 8.561(2)
_cell_angle_alpha 90
_cell_angle_beta 90
_cell_angle_gamma 90
_cell_formula_units_Z 8
loop_
_atom_type_symbol
_atom_type_radius_bond
C 0.68
H 0.23
N 0.68
O 0.68
loop_
_atom_site_label
_atom_site_type_symbol
_atom_site_fract_x
_atom_site_fract_y
_atom_site_fract_z
N1 N 0.74680 0.93060 0.33070
N2 N 0.77860 1.02150 0.24110
N3 N 0.76830 0.73990 0.50940
N4 N 0.70040 0.71760 0.51900
O1 O 0.85120 0.99320 0.26530
O2 O 0.92000 0.84930 0.41210
C1 C 0.86150 0.88530 0.37220
C2 C 0.79050 0.84380 0.41090
C3 C 0.67280 0.91650 0.34850
C4 C 0.62390 1.00500 0.27740
C5 C 0.55290 0.97770 0.29930
C6 C 0.53070 0.86500 0.38970
C7 C 0.57900 0.78020 0.46080
C8 C 0.65260 0.80550 0.44320
H1 H 0.63600 1.08400 0.21500
H2 H 0.51900 1.03700 0.25100
H3 H 0.47900 0.84200 0.39600
H4 H 0.56600 0.70300 0.52400
#END
