
#######################################################################
#
#                 Cambridge Crystallographic Data Centre
#                                CCDC
#
#######################################################################
#
# If this CIF has been generated from an entry in the Cambridge
# Structural Database, then it will include bibliographic, chemical,
# crystal, experimental, refinement or atomic coordinate data resulting
# from the CCDC's data processing and validation procedures.
#
#######################################################################

data_CSD_CIF_YABCUA
_audit_creation_date 2004-12-09
_audit_creation_method CSD-ConQuest-V1
_database_code_CSD YABCUA
_database_code_depnum_ccdc_archive 'CCDC 233941'
_chemical_formula_sum 'C16 H21 N1 O4'
_chemical_formula_moiety
;
C16 H21 N1 O4
;
_journal_coden_Cambridge 24
_journal_volume 45
_journal_year 2004
_journal_page_first 5363
_journal_name_full 'Tetrahedron Lett. '
loop_
_publ_author_name
"C.Chevrier"
"D.LeNouen"
"M.Neuburger"
"A.Defoin"
"C.Tarnus"
_chemical_name_systematic
;
(3aS,3bS,5S,7S,7aR)-2,2,7-Trimethyl-5-phenoxy-hexahydro-1,3,6-trioxa-6a-aza-cy
clopenta(a)pentalene
;
_chemical_melting_point 383
_cell_volume   1574.106
_exptl_crystal_colour 'colorless'
_exptl_crystal_density_diffrn 1.229
_exptl_special_details
;
Melting point range 383-385K

;
_exptl_crystal_description 'plate'
_exptl_crystal_preparation 'di-isopropyl ether'
_diffrn_ambient_temperature 293
#These two values have been output from a single CSD field.
_refine_ls_R_factor_gt 0.0255
_refine_ls_wR_factor_gt 0.0255
_symmetry_cell_setting monoclinic
_symmetry_space_group_name_H-M 'P 21'
_symmetry_Int_Tables_number 4
loop_
_symmetry_equiv_pos_site_id
_symmetry_equiv_pos_as_xyz
1 x,y,z
2 -x,1/2+y,-z
_cell_length_a 9.7121(4)
_cell_length_b 9.3443(6)
_cell_length_c 17.5407(9)
_cell_angle_alpha 90
_cell_angle_beta 98.567(4)
_cell_angle_gamma 90
_cell_formula_units_Z 4
loop_
_atom_type_symbol
_atom_type_radius_bond
C 0.68
H 0.23
N 0.68
O 0.68
loop_
_atom_site_label
_atom_site_type_symbol
_atom_site_fract_x
_atom_site_fract_y
_atom_site_fract_z
O1 O 0.44356(13) 0.55338(12) 0.87593(6)
O2 O 0.43150(13) 0.77947(13) 0.91351(6)
O3 O 0.27022(11) 0.79859(12) 0.66299(6)
O4 O 0.26105(11) 0.60799(11) 0.57905(5)
N1 N 0.30822(12) 0.75620(13) 0.74424(6)
C1 C 0.46000(18) 0.6399(2) 0.94318(9)
C2 C 0.6063(2) 0.6279(3) 0.98555(11)
C3 C 0.3531(2) 0.5983(3) 0.9923(1)
C4 C 0.49515(15) 0.63462(17) 0.81815(8)
C5 C 0.49356(16) 0.78883(17) 0.84519(8)
C6 C 0.39554(14) 0.62840(16) 0.74268(8)
C7 C 0.46097(15) 0.64533(17) 0.66981(8)
C8 C 0.34715(16) 0.71596(15) 0.61650(8)
C9 C 0.40178(17) 0.86924(15) 0.78127(8)
C10 C 0.3210(2) 0.99465(18) 0.8048(1)
C11 C 0.16508(15) 0.64432(16) 0.51608(8)
C12 C 0.04729(19) 0.5616(2) 0.50306(11)
C13 C -0.0500(2) 0.5841(3) 0.43944(15)
C14 C -0.0302(3) 0.6905(3) 0.38893(14)
C15 C 0.0875(3) 0.7719(2) 0.4003(1)
C16 C 0.18751(19) 0.74976(18) 0.46433(9)
O5 O 0.92821(17) 0.44771(13) 0.76025(7)
O6 O 0.98446(12) 0.54199(14) 0.87792(6)
O7 O 0.77525(12) 0.89897(13) 0.75065(6)
O8 O 0.68632(11) 0.91381(12) 0.62085(6)
N2 N 0.82792(12) 0.76040(14) 0.77999(7)
C17 C 0.9681(2) 0.4104(2) 0.8392(1)
C18 C 1.1018(3) 0.3280(3) 0.85000(14)
C19 C 0.8493(3) 0.3316(3) 0.86573(14)
C20 C 0.98225(17) 0.58511(19) 0.74754(9)
C21 C 1.03430(16) 0.6432(2) 0.82840(9)
C22 C 0.86633(15) 0.68465(18) 0.71316(8)
C23 C 0.90377(17) 0.8015(2) 0.65988(9)
C24 C 0.80938(17) 0.9211(2) 0.67515(9)
C25 C 0.96172(16) 0.7857(2) 0.83085(9)
C26 C 0.9392(2) 0.8381(2) 0.90975(11)
C27 C 0.59675(16) 1.02830(17) 0.61586(9)
C28 C 0.5908(2) 1.12398(19) 0.67406(11)
C29 C 0.4955(2) 1.2348(2) 0.66359(15)
C30 C 0.4069(2) 1.2474(2) 0.59594(17)
C31 C 0.41320(19) 1.1504(2) 0.53758(14)
C32 C 0.50770(17) 1.04040(19) 0.5473(1)
H1 H 0.6187(2) 0.6874(3) 1.03348(11)
H2 H 0.6270(2) 0.5255(3) 0.99935(11)
H3 H 0.6712(2) 0.6622(3) 0.95028(11)
H4 H 0.3639(2) 0.6598(3) 1.0395(1)
H5 H 0.2577(2) 0.6116(3) 0.9627(1)
H6 H 0.3665(2) 0.4957(3) 1.0078(1)
H7 H 0.58923(15) 0.59858(17) 0.81081(8)
H8 H 0.58586(16) 0.83802(17) 0.85588(8)
H9 H 0.34775(14) 0.53332(16) 0.73860(8)
H10 H 0.48699(15) 0.55113(17) 0.64896(8)
H11 H 0.54547(15) 0.70754(17) 0.68023(8)
H12 H 0.38521(16) 0.77790(15) 0.57808(8)
H13 H 0.45958(17) 0.91692(15) 0.74599(8)
H14 H 0.3870(2) 1.07026(18) 0.8282(1)
H15 H 0.2600(2) 1.03472(18) 0.7588(1)
H16 H 0.2621(2) 0.96186(18) 0.8436(1)
H17 H 0.03674(19) 0.4805(2) 0.53894(11)
H18 H -0.1401(2) 0.5305(3) 0.43128(15)
H19 H -0.1031(3) 0.7115(3) 0.34377(14)
H20 H 0.1034(3) 0.8444(2) 0.3606(1)
H21 H 0.27634(19) 0.80549(18) 0.47358(9)
H22 H 1.1269(3) 0.3016(3) 0.90558(14)
H23 H 1.0911(3) 0.2390(3) 0.81793(14)
H24 H 1.1770(3) 0.3889(3) 0.83390(14)
H25 H 0.8748(3) 0.3018(3) 0.92077(14)
H26 H 0.8262(3) 0.2450(3) 0.83284(14)
H27 H 0.7666(3) 0.3966(3) 0.86076(14)
H28 H 1.05510(17) 0.57859(19) 0.71297(9)
H29 H 1.13752(16) 0.6549(2) 0.84115(9)
H30 H 0.79491(15) 0.62315(18) 0.68182(8)
H31 H 0.88481(17) 0.7719(2) 0.60451(9)
H32 H 1.00414(17) 0.8281(2) 0.67354(9)
H33 H 0.85431(17) 1.0166(2) 0.67155(9)
H34 H 1.02314(16) 0.8637(2) 0.81615(9)
H35 H 1.0289(2) 0.8567(2) 0.94437(11)
H36 H 0.8855(2) 0.7628(2) 0.93316(11)
H37 H 0.8833(2) 0.9283(2) 0.90307(11)
H38 H 0.6556(2) 1.11412(19) 0.72370(11)
H39 H 0.4891(2) 1.3050(2) 0.70597(15)
H40 H 0.3363(2) 1.3259(2) 0.58779(17)
H41 H 0.34685(19) 1.1590(2) 0.48841(14)
H42 H 0.51173(17) 0.97007(19) 0.5047(1)
#END
