
#######################################################################
#
#                 Cambridge Crystallographic Data Centre
#                                CCDC
#
#######################################################################
#
# If this CIF has been generated from an entry in the Cambridge
# Structural Database, then it will include bibliographic, chemical,
# crystal, experimental, refinement or atomic coordinate data resulting
# from the CCDC's data processing and validation procedures.
#
#######################################################################

data_CSD_CIF_YABFOZ
_audit_creation_date 2015-11-10
_audit_creation_method CSD-ConQuest-V1
_database_code_CSD YABFOZ
_database_code_depnum_ccdc_archive 'CCDC 1060573'
_chemical_formula_sum 'C17 H11 N3 O6'
_chemical_formula_moiety
;
C17 H11 N3 O6
;
_journal_coden_Cambridge 1475
_journal_volume 7
_journal_year 2016
_journal_page_first 984
_journal_name_full 'Chemical Science '
loop_
_publ_author_name
"M.Meazza"
"M.E.Light"
"A.Mazzanti"
"R.Rios"
_chemical_name_systematic
;
2-(6-nitro-1,3-benzoxazol-2-yl)-3-(4-nitrophenyl)cyclopropanecarbaldehyde
;
_cell_volume   1505.198
_exptl_crystal_colour 'colorless'
_exptl_crystal_density_diffrn 1.559
_diffrn_ambient_temperature 100
#These two values have been output from a single CSD field.
_refine_ls_R_factor_gt 0.1503
_refine_ls_wR_factor_gt 0.1503
_symmetry_cell_setting monoclinic
_symmetry_space_group_name_H-M 'P 21/c'
_symmetry_Int_Tables_number 14
loop_
_symmetry_equiv_pos_site_id
_symmetry_equiv_pos_as_xyz
1 x,y,z
2 -x,1/2+y,1/2-z
3 -x,-y,-z
4 x,-1/2-y,-1/2+z
_cell_length_a 9.9877(5)
_cell_length_b 15.1541(7)
_cell_length_c 10.2131(6)
_cell_angle_alpha 90
_cell_angle_beta 103.161(5)
_cell_angle_gamma 90
_cell_formula_units_Z 4
loop_
_atom_type_symbol
_atom_type_radius_bond
C 0.68
H 0.23
N 0.68
O 0.68
loop_
_atom_site_label
_atom_site_type_symbol
_atom_site_fract_x
_atom_site_fract_y
_atom_site_fract_z
O1 O 0.7961(6) 0.7628(3) 0.5898(5)
O2 O 0.7936(5) 0.6736(3) 0.7522(5)
O3 O 0.8271(4) 0.3736(2) 0.5347(5)
O4 O 0.9734(5) 0.0749(3) 0.3779(5)
O5 O 0.4651(5) -0.1386(4) 0.1269(6)
O6 O 0.4820(5) -0.1878(3) 0.3297(6)
N1 N 0.7980(5) 0.6882(3) 0.6360(5)
N2 N 0.8342(6) 0.3960(3) 0.3142(6)
N3 N 0.4973(5) -0.1309(4) 0.2500(7)
C1 C 0.8082(5) 0.6129(3) 0.5509(6)
C2 C 0.8111(6) 0.6303(4) 0.4168(6)
H1 H 0.80520 0.68940 0.38490
C3 C 0.8225(7) 0.5621(4) 0.3310(7)
H2 H 0.82750 0.57310 0.24060
C4 C 0.8264(6) 0.4773(4) 0.3806(7)
C5 C 0.8226(5) 0.4633(3) 0.5127(6)
C6 C 0.8151(6) 0.5294(3) 0.6058(6)
H3 H 0.81490 0.51810 0.69720
C7 C 0.8337(6) 0.3411(4) 0.4077(7)
C8 C 0.8361(6) 0.2439(4) 0.3952(7)
H4 H 0.84070 0.22110 0.30450
C9 C 0.7554(6) 0.1894(4) 0.4699(6)
H5 H 0.70680 0.22260 0.52990
C10 C 0.9117(6) 0.1907(4) 0.5117(6)
H6 H 0.95340 0.22390 0.59560
C11 C 0.9907(6) 0.1134(4) 0.4797(7)
H7 H 1.06350 0.09290 0.55000
C12 C 0.6827(6) 0.1074(4) 0.4045(7)
C13 C 0.6933(6) 0.0337(4) 0.4837(7)
H8 H 0.74400 0.03620 0.57440
C14 C 0.6311(6) -0.0441(4) 0.4329(6)
H9 H 0.64080 -0.09530 0.48780
C15 C 0.5560(5) -0.0473(4) 0.3043(6)
C16 C 0.5392(6) 0.0266(5) 0.2219(7)
H10 H 0.48570 0.02400 0.13230
C17 C 0.6029(7) 0.1045(4) 0.2743(8)
H11 H 0.59170 0.15630 0.22040
#END
