
#######################################################################
#
#                 Cambridge Crystallographic Data Centre
#                                CCDC
#
#######################################################################
#
# If this CIF has been generated from an entry in the Cambridge
# Structural Database, then it will include bibliographic, chemical,
# crystal, experimental, refinement or atomic coordinate data resulting
# from the CCDC's data processing and validation procedures.
#
#######################################################################

data_CSD_CIF_YABMIY
_audit_creation_date 2004-12-09
_audit_creation_method CSD-ConQuest-V1
_database_code_CSD YABMIY
_database_code_depnum_ccdc_archive 'CCDC 228520'
_chemical_formula_sum 'C17 H20 N2 O4'
_chemical_formula_moiety
;
C17 H20 N2 O4
;
_journal_coden_Cambridge 24
_journal_volume 45
_journal_year 2004
_journal_page_first 5287
_journal_name_full 'Tetrahedron Lett. '
loop_
_publ_author_name
"R.Deprez-Poulain"
"N.Willand"
"C.Boutillon"
"G.Nowogrocki"
"N.Azaroual"
"B.Deprez"
_chemical_name_systematic
;
(3S,6aR,7S,8R,9aR)-8-Methyl-7-(nitromethyl)-3-phenylhexahydrocyclopenta(2,3)py
rrolo(2,1-b)(1,3)oxazol-5(6H)-one
;
_cell_volume    806.796
_exptl_crystal_colour 'colorless'
_exptl_crystal_density_diffrn 1.302
_exptl_crystal_description 'irregular'
_diffrn_ambient_temperature 293
#These two values have been output from a single CSD field.
_refine_ls_R_factor_gt 0.0479
_refine_ls_wR_factor_gt 0.0479
loop_
_citation_database_id_CSD
_citation_special_details
YABMOE "is a stereoisomer of this entry"
_symmetry_cell_setting monoclinic
_symmetry_space_group_name_H-M 'P 21'
_symmetry_Int_Tables_number 4
loop_
_symmetry_equiv_pos_site_id
_symmetry_equiv_pos_as_xyz
1 x,y,z
2 -x,1/2+y,-z
_cell_length_a 8.8042(14)
_cell_length_b 7.1449(11)
_cell_length_c 13.140(2)
_cell_angle_alpha 90
_cell_angle_beta 102.559(3)
_cell_angle_gamma 90
_cell_formula_units_Z 2
loop_
_atom_type_symbol
_atom_type_radius_bond
C 0.68
H 0.23
N 0.68
O 0.68
loop_
_atom_site_label
_atom_site_type_symbol
_atom_site_fract_x
_atom_site_fract_y
_atom_site_fract_z
C1 C 0.6758(2) 0.0831(4) 0.76699(18)
C2 C 0.6578(3) -0.0244(3) 0.86348(19)
C3 C 0.4947(3) -0.1107(4) 0.83232(19)
C4 C 0.4020(3) 0.0539(4) 0.7762(2)
C5 C 0.5090(2) 0.1375(3) 0.71098(16)
C6 C 0.7652(3) 0.2666(5) 0.7826(3)
C7 C 0.6561(3) 0.4139(4) 0.72569(18)
O1 O 0.69120(18) 0.5701(2) 0.70347(13)
N1 N 0.50964(19) 0.3412(3) 0.70117(14)
O2 O 0.46939(17) 0.0751(2) 0.60597(11)
C8 C 0.7852(3) -0.1651(4) 0.9039(3)
N2 N 0.9324(3) -0.0652(4) 0.9511(2)
O3 O 0.9456(4) -0.0036(5) 1.0373(2)
O4 O 1.0262(3) -0.0436(5) 0.8986(3)
C9 C 0.4294(5) -0.1911(6) 0.9197(3)
C10 C 0.4045(3) 0.3970(3) 0.60229(17)
C11 C 0.3505(3) 0.2042(4) 0.5563(2)
C12 C 0.2746(2) 0.5256(3) 0.61276(17)
C13 C 0.1982(3) 0.5124(4) 0.6939(2)
C14 C 0.0761(3) 0.6291(4) 0.6996(3)
C15 C 0.0275(3) 0.7604(4) 0.6234(3)
C16 C 0.1003(3) 0.7779(4) 0.5426(3)
C17 C 0.2241(3) 0.6599(4) 0.5371(2)
H1 H 0.722(2) -0.003(3) 0.7223(16)
H2 H 0.655(2) 0.063(4) 0.9159(18)
H3 H 0.495(2) -0.204(3) 0.7773(17)
H4 H 0.391(3) 0.150(3) 0.8262(18)
H5 H 0.299(3) 0.017(4) 0.7397(19)
H6 H 0.802(3) 0.297(4) 0.852(2)
H7 H 0.852(5) 0.273(6) 0.752(3)
H8 H 0.815(3) -0.241(4) 0.849(2)
H9 H 0.759(3) -0.236(5) 0.957(2)
H10 H 0.320(4) -0.226(5) 0.891(2)
H11 H 0.490(4) -0.302(6) 0.953(3)
H12 H 0.432(5) -0.114(8) 0.970(4)
H13 H 0.467(2) 0.466(3) 0.5563(16)
H14 H 0.249(3) 0.175(3) 0.5706(16)
H15 H 0.340(3) 0.196(4) 0.479(2)
H16 H 0.233(3) 0.425(4) 0.745(2)
H17 H 0.029(3) 0.605(4) 0.754(2)
H18 H -0.057(4) 0.836(5) 0.628(2)
H19 H 0.081(4) 0.879(5) 0.492(2)
H20 H 0.281(3) 0.668(3) 0.4819(19)
#END
