
#######################################################################
#
#                 Cambridge Crystallographic Data Centre
#                                CCDC
#
#######################################################################
#
# If this CIF has been generated from an entry in the Cambridge
# Structural Database, then it will include bibliographic, chemical,
# crystal, experimental, refinement or atomic coordinate data resulting
# from the CCDC's data processing and validation procedures.
#
#######################################################################

data_CSD_CIF_YABRAU
_audit_creation_date 1992-12-16
_audit_creation_method CSD-ConQuest-V1
_database_code_CSD YABRAU
_chemical_formula_sum 'C10 H15 N1 O3'
_chemical_formula_moiety
;
C10 H15 N1 O3
;
_journal_coden_Cambridge 207
_journal_year 1992
_journal_page_first 831
_journal_name_full 'J.Chem.Soc.,Perkin Trans.1 '
loop_
_publ_author_name
"P.A.Hunt"
"C.J.Moody"
"A.M.Z.Slawin"
"D.J.Williams"
"P.L.Myers"
"C.Smith"
_chemical_name_systematic
;
(E)-5-exo,6-exo-Isopropylidenedioxybicyclo(2.2.1)heptan-2-one oxime
;
_chemical_melting_point 421.15
_cell_volume   2037.142
_exptl_crystal_density_diffrn 1.29
_diffrn_ambient_temperature ?
_diffrn_special_details
;
The study was carried out at room temperature,in the range 283-303K

;
#These two values have been output from a single CSD field.
_refine_ls_R_factor_gt 0.039
_refine_ls_wR_factor_gt 0.039
_symmetry_cell_setting monoclinic
_symmetry_space_group_name_H-M 'C 2/c'
_symmetry_Int_Tables_number 15
loop_
_symmetry_equiv_pos_site_id
_symmetry_equiv_pos_as_xyz
1 x,y,z
2 1/2+x,1/2+y,z
3 -x,y,1/2-z
4 1/2-x,1/2+y,1/2-z
5 -x,-y,-z
6 -1/2-x,-1/2-y,-z
7 x,-y,-1/2+z
8 -1/2+x,-1/2-y,-1/2+z
_cell_length_a 19.762(4)
_cell_length_b 8.936(2)
_cell_length_c 11.542(2)
_cell_angle_alpha 90
_cell_angle_beta 91.88(2)
_cell_angle_gamma 90
_cell_formula_units_Z 8
loop_
_atom_type_symbol
_atom_type_radius_bond
C 0.68
H 0.23
N 0.68
O 0.68
loop_
_atom_site_label
_atom_site_type_symbol
_atom_site_fract_x
_atom_site_fract_y
_atom_site_fract_z
C1 C 0.3837(1) 0.3031(2) 0.7468(1)
C2 C 0.3171(1) 0.3607(2) 0.6983(1)
N1 N 0.2869(1) 0.3076(2) 0.6088(1)
O1 O 0.2257(1) 0.3852(2) 0.5830(1)
C3 C 0.2971(1) 0.4903(2) 0.7733(1)
C4 C 0.3549(1) 0.4915(2) 0.8649(1)
C5 C 0.3479(1) 0.3537(2) 0.9402(1)
O2 O 0.3988(1) 0.3519(1) 1.0311(1)
C6 C 0.3677(1) 0.2234(2) 0.8599(1)
O3 O 0.4278(1) 0.1629(1) 0.9130(1)
C7 C 0.4151(1) 0.4493(2) 0.7924(1)
C8 C 0.4307(1) 0.2095(2) 1.0314(1)
C9 C 0.3930(1) 0.1012(3) 1.1061(2)
C10 C 0.5035(1) 0.2280(3) 1.0684(2)
H1 H 0.4094(6) 0.2467(15) 0.6931(10)
H2 H 0.2109(10) 0.3348(21) 0.5114(11)
H3 H 0.29530 0.58180 0.72980
H4 H 0.25410 0.47300 0.80730
H5 H 0.3601(8) 0.5818(11) 0.9092(12)
H6 H 0.30340 0.35010 0.97100
H7 H 0.33450 0.14590 0.84810
H8 H 0.45590 0.43360 0.83840
H9 H 0.42370 0.52020 0.73210
H10 H 0.41820 0.00950 1.10170
H11 H 0.34780 0.08550 1.07540
H12 H 0.39130 0.13250 1.18550
H13 H 0.50670 0.26860 1.14540
H14 H 0.52340 0.29660 1.01530
H15 H 0.52720 0.13420 1.06660
#END
