
#######################################################################
#
#                 Cambridge Crystallographic Data Centre
#                                CCDC
#
#######################################################################
#
# If this CIF has been generated from an entry in the Cambridge
# Structural Database, then it will include bibliographic, chemical,
# crystal, experimental, refinement or atomic coordinate data resulting
# from the CCDC's data processing and validation procedures.
#
#######################################################################

data_CSD_CIF_YABTEA
_audit_creation_date 1992-12-16
_audit_creation_method CSD-ConQuest-V1
_database_code_CSD YABTEA
_chemical_formula_sum 'C13 H7 N1 O6'
_chemical_formula_moiety
;
C13 H7 N1 O6
;
_journal_coden_Cambridge 151
_journal_volume 35
_journal_year 1992
_journal_page_first 258
_journal_name_full 'J.Med.Chem. '
loop_
_publ_author_name
"H.H.Lee"
"B.D.Palmer"
"M.Boyd"
"B.C.Baguley"
"W.A.Denny"
_chemical_name_systematic
;
6-Nitrodibenzo(1,4)dioxin-1-carboxylic acid
;
_chemical_melting_point 548.15
_cell_volume   2191.264
_exptl_crystal_colour 'yellow'
_exptl_special_details
;
Melting point range 548.15-550.15K
Illegible z coordinates for O1 and C13 have been re-calculated; no reply from 
authors
;
_diffrn_ambient_temperature ?
_diffrn_special_details
;
The study was carried out at room temperature,in the range 283-303K

;
#These two values have been output from a single CSD field.
_refine_ls_R_factor_gt 0.0655
_refine_ls_wR_factor_gt 0.0655
_symmetry_cell_setting monoclinic
_symmetry_space_group_name_H-M 'C 2/c'
_symmetry_Int_Tables_number 15
loop_
_symmetry_equiv_pos_site_id
_symmetry_equiv_pos_as_xyz
1 x,y,z
2 1/2+x,1/2+y,z
3 -x,y,1/2-z
4 1/2-x,1/2+y,1/2-z
5 -x,-y,-z
6 -1/2-x,-1/2-y,-z
7 x,-y,-1/2+z
8 -1/2+x,-1/2-y,-1/2+z
_cell_length_a 21.722(3)
_cell_length_b 7.084(2)
_cell_length_c 16.500(5)
_cell_angle_alpha 90
_cell_angle_beta 120.34(2)
_cell_angle_gamma 90
_cell_formula_units_Z 8
loop_
_atom_type_symbol
_atom_type_radius_bond
C 0.68
H 0.23
N 0.68
O 0.68
loop_
_atom_site_label
_atom_site_type_symbol
_atom_site_fract_x
_atom_site_fract_y
_atom_site_fract_z
C1 C -0.0075(2) 0.2631(7) 0.5407(3)
C2 C -0.0733(2) 0.2339(7) 0.4595(3)
C3 C -0.0807(2) 0.2721(8) 0.3726(3)
C4 C -0.0226(2) 0.2378(9) 0.3628(4)
C5 C 0.0434(2) 0.2278(7) 0.4428(3)
C6 C 0.0517(2) 0.2294(7) 0.5315(3)
C7 C 0.1679(2) 0.1206(7) 0.5944(3)
C8 C 0.1603(2) 0.1129(7) 0.5064(3)
C9 C 0.2150(2) 0.0349(7) 0.4977(3)
C10 C 0.2755(2) -0.0377(8) 0.5761(4)
C11 C 0.2797(12) -0.0348(8) 0.6606(4)
C12 C 0.2264(2) 0.0439(7) 0.6719(3)
C13 C -0.0036(2) 0.2718(7) 0.6312(3)
O1 O 0.11773(14) 0.2068(3) 0.6193(2)
O2 O 0.10134(16) 0.1911(5) 0.4337(2)
O3 O 0.03476(16) 0.2784(6) 0.7066(2)
O4 O -0.06167(16) 0.2734(7) 0.6320(3)
O5 O 0.26638(19) -0.0106(6) 0.4073(3)
O6 O 0.15670(19) 0.0503(8) 0.3366(3)
N1 N 0.2123(2) 0.0242(6) 0.4080(3)
H1 H -0.111(3) 0.339(7) 0.470(3)
H2 H -0.123(3) 0.306(7) 0.322(4)
H3 H -0.025(2) 0.235(8) 0.305(3)
H4 H 0.306(3) -0.096(8) 0.563(3)
H5 H 0.319(3) -0.091(7) 0.718(4)
H6 H 0.230(2) 0.053(7) 0.739(4)
H7 H 0.052(3) 0.278(9) 0.780(4)
#END
