
#######################################################################
#
#                 Cambridge Crystallographic Data Centre
#                                CCDC
#
#######################################################################
#
# If this CIF has been generated from an entry in the Cambridge
# Structural Database, then it will include bibliographic, chemical,
# crystal, experimental, refinement or atomic coordinate data resulting
# from the CCDC's data processing and validation procedures.
#
#######################################################################

data_CSD_CIF_YACBUZ
_audit_creation_date 1992-12-16
_audit_creation_method CSD-ConQuest-V1
_database_code_CSD YACBUZ
_chemical_formula_sum 'C21 H27 N1 O8'
_chemical_formula_moiety
;
C21 H27 N1 O8
;
_journal_coden_Cambridge 35
_journal_volume 57
_journal_year 1992
_journal_page_first 1733
_journal_name_full 'J.Org.Chem. '
loop_
_publ_author_name
"P.G.Klimko"
"D.A.Singleton"
_chemical_name_systematic
;
Methyl 
(1\a,2\b,3\b)-2-(methoxycarbonyl)-3-((2-((4-nitrophenyl)-carbonyl)oxy)ethyl)-\
a,\a-dimethylcyclopentane-acetate
;
_chemical_melting_point 324.15
_cell_volume   1036.199
_exptl_crystal_colour 'colorless'
_exptl_crystal_density_diffrn 1.351
_exptl_special_details
;
Melting point range 324.15-326.15K

;
_diffrn_ambient_temperature 193
#These two values have been output from a single CSD field.
_refine_ls_R_factor_gt 0.064
_refine_ls_wR_factor_gt 0.064
_symmetry_cell_setting triclinic
_symmetry_space_group_name_H-M 'P -1'
_symmetry_Int_Tables_number 2
loop_
_symmetry_equiv_pos_site_id
_symmetry_equiv_pos_as_xyz
1 x,y,z
2 -x,-y,-z
_cell_length_a 6.109(3)
_cell_length_b 8.318(4)
_cell_length_c 20.963(10)
_cell_angle_alpha 98.69(6)
_cell_angle_beta 98.21(4)
_cell_angle_gamma 94.78(4)
_cell_formula_units_Z 2
loop_
_atom_type_symbol
_atom_type_radius_bond
C 0.68
H 0.23
N 0.68
O 0.68
loop_
_atom_site_label
_atom_site_type_symbol
_atom_site_fract_x
_atom_site_fract_y
_atom_site_fract_z
O1 O -0.0243(3) 0.4985(3) 0.6433(1)
O2 O -0.3554(4) 0.4902(3) 0.5793(1)
O3 O 0.3552(4) -0.0149(3) 0.4059(1)
O4 O 0.0487(4) -0.0156(3) 0.3402(1)
O5 O -0.2193(5) 0.1318(3) 0.9256(1)
O6 O -0.3983(4) -0.1144(3) 0.9129(1)
O7 O -0.2119(4) 0.5027(3) 0.9029(1)
O8 O 0.1066(3) 0.4043(3) 0.8831(1)
N1 N 0.1695(5) 0.0268(3) 0.3932(1)
C1 C -0.2179(5) 0.2882(3) 0.8105(1)
C2 C -0.2404(5) 0.3812(4) 0.7507(1)
C3 C -0.4863(5) 0.4090(4) 0.7408(2)
C4 C -0.6006(5) 0.2494(4) 0.7527(2)
C5 C -0.4578(5) 0.2156(3) 0.8144(1)
C6 C -0.0756(5) 0.5343(3) 0.7565(1)
C7 C -0.0929(6) 0.6104(4) 0.6960(1)
C8 C -0.1724(5) 0.4492(4) 0.5884(2)
C9 C -0.2060(5) 0.2882(4) 0.4771(1)
C10 C -0.1256(5) 0.1854(4) 0.4295(2)
C11 C 0.0809(5) 0.1346(4) 0.4444(1)
C12 C 0.2136(5) 0.1813(4) 0.5051(2)
C13 C 0.1306(5) 0.2823(4) 0.5526(2)
C14 C -0.0773(5) 0.3363(4) 0.5390(1)
C15 C -0.4868(5) 0.0373(3) 0.8270(1)
C16 C -0.3527(5) 0.0257(4) 0.8932(2)
C17 C -0.2792(7) -0.1387(5) 0.9748(2)
C18 C -0.4068(6) -0.0846(4) 0.7745(2)
C19 C -0.7339(5) -0.0135(4) 0.8287(2)
C20 C -0.1134(5) 0.4076(4) 0.8713(1)
C21 C 0.2289(6) 0.5308(4) 0.9351(2)
H1 H -0.12620 0.20090 0.80350
H2 H -0.21690 0.30670 0.71320
H3 H -0.53630 0.42900 0.69750
H4 H -0.51310 0.49950 0.77190
H5 H -0.60040 0.16290 0.71680
H6 H -0.75110 0.26030 0.75960
H7 H -0.50360 0.28210 0.85060
H8 H 0.07290 0.50550 0.76670
H9 H -0.10200 0.61290 0.79240
H10 H -0.24310 0.63300 0.68350
H11 H 0.00190 0.71180 0.70430
H12 H -0.34950 0.32620 0.46810
H13 H -0.21190 0.15010 0.38690
H14 H 0.35870 0.14510 0.51330
H15 H 0.21610 0.31340 0.59550
H16 H -0.32980 -0.24490 0.98300
H17 H -0.12240 -0.13220 0.97340
H18 H -0.30770 -0.05660 1.00920
H19 H -0.42830 -0.19330 0.78430
H20 H -0.49000 -0.08050 0.73240
H21 H -0.25160 -0.05560 0.77410
H22 H -0.75310 -0.12460 0.83600
H23 H -0.78190 0.05720 0.86340
H24 H -0.82100 -0.00410 0.78770
H25 H 0.38450 0.51710 0.94010
H26 H 0.20710 0.63670 0.92380
H27 H 0.17490 0.52190 0.97530
#END
