
#######################################################################
#
#                 Cambridge Crystallographic Data Centre
#                                CCDC
#
#######################################################################
#
# If this CIF has been generated from an entry in the Cambridge
# Structural Database, then it will include bibliographic, chemical,
# crystal, experimental, refinement or atomic coordinate data resulting
# from the CCDC's data processing and validation procedures.
#
#######################################################################

data_CSD_CIF_YACFOX
_audit_creation_date 1992-11-25
_audit_creation_method CSD-ConQuest-V1
_database_code_CSD YACFOX
_chemical_formula_sum 'C9 H17 N1 O9'
_chemical_formula_moiety
;
C9 H17 N1 O9
;
_journal_coden_Cambridge 156
_journal_volume 224
_journal_year 1992
_journal_page_first 273
_journal_name_full 'Carbohydr.Res. '
loop_
_publ_author_name
"P.Koll"
"J.Kopf"
"M.Morf"
"B.Zimmer"
"M.Petrusova"
"L.Petrus"
_chemical_name_systematic
;
4,8-Anhydro-3-deoxy-3-nitro-D-lyxo-D-gluco-nonitol
;
_cell_volume    604.395
_exptl_crystal_density_diffrn 1.556
_diffrn_ambient_temperature ?
_diffrn_special_details
;
The study was carried out at room temperature,in the range 283-303K

;
#These two values have been output from a single CSD field.
_refine_ls_R_factor_gt 0.043
_refine_ls_wR_factor_gt 0.043
_symmetry_cell_setting monoclinic
_symmetry_space_group_name_H-M 'P 21'
_symmetry_Int_Tables_number 4
loop_
_symmetry_equiv_pos_site_id
_symmetry_equiv_pos_as_xyz
1 x,y,z
2 -x,1/2+y,-z
_cell_length_a 5.767(2)
_cell_length_b 13.388(6)
_cell_length_c 7.936(3)
_cell_angle_alpha 90
_cell_angle_beta 99.46(3)
_cell_angle_gamma 90
_cell_formula_units_Z 2
loop_
_atom_type_symbol
_atom_type_radius_bond
C 0.68
N 0.68
O 0.68
loop_
_atom_site_label
_atom_site_type_symbol
_atom_site_fract_x
_atom_site_fract_y
_atom_site_fract_z
O1 O 0.9973(6) 0.9086(3) 0.3824(5)
O2 O 0.7632(6) 0.8873(3) 0.6778(4)
O3 O 0.3786(5) 0.7455(3) 0.2463(4)
O4 O 0.8310(6) 0.5499(4) 0.3585(4)
O5 O 0.4986(6) 0.45850 0.0798(4)
O6 O 0.1016(6) 0.5747(3) 0.0927(4)
O7 O 0.1116(6) 0.8906(3) 0.0528(4)
O8 O 0.6979(8) 0.6307(4) 0.7122(5)
O9 O 0.3724(7) 0.7076(4) 0.6250(6)
N1 N 0.5803(8) 0.6910(4) 0.6201(5)
C1 C 0.7488(9) 0.9239(4) 0.3786(7)
C2 C 0.6518(8) 0.8596(4) 0.5078(6)
C3 C 0.6950(8) 0.7469(4) 0.4885(6)
C4 C 0.6088(8) 0.7064(4) 0.3070(6)
C5 C 0.6061(8) 0.5926(4) 0.2907(6)
C6 C 0.5272(8) 0.5660(4) 0.1000(5)
C7 C 0.2969(8) 0.6171(4) 0.0242(6)
C8 C 0.3135(7) 0.7292(4) 0.0639(5)
C9 C 0.0898(8) 0.7859(5) 0.0068(7)
#END
