
#######################################################################
#
#                 Cambridge Crystallographic Data Centre
#                                CCDC
#
#######################################################################
#
# If this CIF has been generated from an entry in the Cambridge
# Structural Database, then it will include bibliographic, chemical,
# crystal, experimental, refinement or atomic coordinate data resulting
# from the CCDC's data processing and validation procedures.
#
#######################################################################

data_CSD_CIF_YADHAP
_audit_creation_date 2016-12-07
_audit_creation_method CSD-ConQuest-V1
_database_code_CSD YADHAP
_database_code_depnum_ccdc_archive 'CCDC 1497003'
_chemical_formula_sum 'C31 H37 N5 O8'
_chemical_formula_moiety
;
C31 H37 N5 O8
;
_journal_coden_Cambridge 35
_journal_volume 81
_journal_year 2016
_journal_page_first 11802
_journal_name_full 'J.Org.Chem. '
loop_
_publ_author_name
"E.P.Kirar"
"U.Groselj"
"A.Golobic"
"F.Pozgan"
"S.Pusch"
"C.Weber"
"L.Andernach"
"B.Stefane"
"T.Opatz"
"J.Svete"
_chemical_name_systematic
;
benzyl 
(6-(2-((t-butoxycarbonyl)amino)propanoyl)-3-isopropyl-5-(4-nitrophenyl)-1-oxo-
2,3-dihydro-1H,5H-pyrazolo[1,2-a]pyrazol-2-yl)carbamate
;
_cell_volume   3505.878
_exptl_crystal_colour 'colorless'
_exptl_crystal_density_diffrn 1.151
_exptl_special_details
;
Absolute configuration

;
_exptl_crystal_description 'stick'
_diffrn_ambient_temperature 293
#These two values have been output from a single CSD field.
_refine_ls_R_factor_gt 0.0767
_refine_ls_wR_factor_gt 0.0767
_symmetry_cell_setting orthorhombic
_symmetry_space_group_name_H-M 'P 21 21 2'
_symmetry_Int_Tables_number 18
loop_
_symmetry_equiv_pos_site_id
_symmetry_equiv_pos_as_xyz
1 x,y,z
2 -x,-y,z
3 1/2+x,1/2-y,-z
4 1/2-x,1/2+y,-z
_cell_length_a 28.3091(10)
_cell_length_b 23.6454(8)
_cell_length_c 5.2375(1)
_cell_angle_alpha 90
_cell_angle_beta 90
_cell_angle_gamma 90
_cell_formula_units_Z 4
loop_
_atom_type_symbol
_atom_type_radius_bond
C 0.68
H 0.23
N 0.68
O 0.68
loop_
_atom_site_label
_atom_site_type_symbol
_atom_site_fract_x
_atom_site_fract_y
_atom_site_fract_z
C1 C 0.21375(13) 0.48790(14) 0.4173(6)
H1 H 0.23180 0.48850 0.57680
C2 C 0.24848(13) 0.48308(15) 0.1913(7)
H2 H 0.23100 0.47110 0.03910
C3 C 0.26540(15) 0.54369(17) 0.1534(8)
C4 C 0.23502(13) 0.62878(15) 0.3847(7)
H3 H 0.25600 0.65720 0.33790
C5 C 0.20389(12) 0.63270(14) 0.5743(6)
C6 C 0.17670(12) 0.57767(14) 0.5973(7)
H4 H 0.18570 0.55820 0.75510
C7 C 0.12356(12) 0.58429(15) 0.5866(7)
C8 C 0.09473(16) 0.5598(2) 0.7702(10)
H5 H 0.10830 0.53930 0.90290
C9 C 0.04576(17) 0.5656(2) 0.7584(12)
H6 H 0.02660 0.54860 0.88020
C10 C 0.02655(15) 0.5965(2) 0.5659(11)
C11 C 0.05316(17) 0.6223(2) 0.3866(10)
H7 H 0.03910 0.64390 0.25910
C12 C 0.10245(15) 0.6160(2) 0.3961(8)
H8 H 0.12110 0.63330 0.27270
C13 C 0.19584(11) 0.67927(14) 0.7540(6)
C14 C 0.21811(12) 0.73743(14) 0.7114(6)
H9 H 0.21280 0.75960 0.86680
C15 C 0.19310(15) 0.76780(17) 0.4949(7)
H10 H 0.20430 0.80600 0.48450
H11 H 0.15970 0.76790 0.52620
H12 H 0.19940 0.74870 0.33690
C16 C 0.29885(13) 0.73142(15) 0.8657(7)
C17 C 0.38362(14) 0.7259(2) 0.9639(7)
C18 C 0.37943(19) 0.6719(2) 1.1265(11)
H13 H 0.35710 0.67800 1.26140
H14 H 0.40970 0.66290 1.19840
H15 H 0.36890 0.64120 1.02090
C19 C 0.42560(17) 0.7224(4) 0.785(1)
H16 H 0.42230 0.68980 0.67710
H17 H 0.45410 0.71920 0.88300
H18 H 0.42690 0.75580 0.68140
C20 C 0.38612(19) 0.7785(2) 1.124(1)
H19 H 0.38610 0.81110 1.01500
H20 H 0.41460 0.77800 1.22370
H21 H 0.35930 0.77990 1.23570
C21 C 0.17510(15) 0.44291(16) 0.4382(8)
H22 H 0.15620 0.45270 0.58850
C22 C 0.1419(2) 0.4410(3) 0.2180(11)
H23 H 0.12730 0.47730 0.19730
H24 H 0.11810 0.41300 0.24900
H25 H 0.15900 0.43150 0.06570
C23 C 0.1958(2) 0.38481(19) 0.4889(13)
H26 H 0.21840 0.37580 0.35840
H27 H 0.17100 0.35710 0.48790
H28 H 0.21110 0.38470 0.65240
C24 C 0.31101(14) 0.42301(17) 0.0344(7)
C25 C 0.37932(17) 0.3707(2) -0.0726(9)
H29 H 0.39620 0.40080 -0.15890
H30 H 0.36160 0.34920 -0.19810
C26 C 0.41282(14) 0.33322(19) 0.0686(9)
C27 C 0.4441(2) 0.3552(2) 0.2481(13)
H31 H 0.44450 0.39390 0.27900
C28 C 0.4743(2) 0.3205(3) 0.3802(15)
H32 H 0.49600 0.33610 0.49330
C29 C 0.47284(19) 0.2630(3) 0.3467(12)
H33 H 0.49250 0.23950 0.44120
C30 C 0.4419(2) 0.2405(2) 0.1720(11)
H34 H 0.44110 0.20160 0.14650
C31 C 0.41227(18) 0.2748(2) 0.0348(10)
H35 H 0.39150 0.25890 -0.08240
N1 N 0.19336(10) 0.54479(12) 0.3730(5)
N2 N 0.23177(11) 0.57728(13) 0.2686(6)
N3 N -0.02509(16) 0.6047(2) 0.5555(14)
N4 N 0.26881(11) 0.73532(14) 0.6697(5)
H36 H 0.27970 0.73660 0.51640
N5 N 0.28662(12) 0.44447(15) 0.2338(6)
H37 H 0.29400 0.43490 0.38700
O1 O 0.30075(14) 0.55992(15) 0.0523(9)
O2 O -0.04867(16) 0.5802(3) 0.7230(16)
O3 O -0.04123(16) 0.6371(3) 0.4021(14)
O4 O 0.16918(10) 0.67240(12) 0.9331(5)
O5 O 0.28639(9) 0.72995(13) 1.0899(5)
O6 O 0.34357(9) 0.73016(15) 0.7832(5)
O7 O 0.30100(11) 0.42847(14) -0.1871(5)
O8 O 0.34822(11) 0.39336(14) 0.1211(6)
#END
