
#######################################################################
#
#                 Cambridge Crystallographic Data Centre
#                                CCDC
#
#######################################################################
#
# If this CIF has been generated from an entry in the Cambridge
# Structural Database, then it will include bibliographic, chemical,
# crystal, experimental, refinement or atomic coordinate data resulting
# from the CCDC's data processing and validation procedures.
#
#######################################################################

data_CSD_CIF_YADHIX
_audit_creation_date 2016-12-07
_audit_creation_method CSD-ConQuest-V1
_database_code_CSD YADHIX
_database_code_depnum_ccdc_archive 'CCDC 1497005'
_chemical_formula_sum 'C26 H28 N4 O6'
_chemical_formula_moiety
;
C26 H28 N4 O6
;
_journal_coden_Cambridge 35
_journal_volume 81
_journal_year 2016
_journal_page_first 11802
_journal_name_full 'J.Org.Chem. '
loop_
_publ_author_name
"E.P.Kirar"
"U.Groselj"
"A.Golobic"
"F.Pozgan"
"S.Pusch"
"C.Weber"
"L.Andernach"
"B.Stefane"
"T.Opatz"
"J.Svete"
_chemical_name_systematic
;
(-)-t-butyl 
(1-(1-(4-nitrophenyl)-5-oxo-7-phenyl-6,7-dihydro-1H,5H-pyrazolo[1,2-a]pyrazol-
2-yl)-1-oxopropan-2-yl)carbamate
;
_cell_volume   4003.946
_exptl_crystal_colour 'colorless'
_exptl_crystal_density_diffrn 1.226
_exptl_special_details
;
Absolute configuration

;
_exptl_crystal_description 'prism'
_diffrn_ambient_temperature 293
#These two values have been output from a single CSD field.
_refine_ls_R_factor_gt 0.0374
_refine_ls_wR_factor_gt 0.0374
loop_
_citation_database_id_CSD
_citation_special_details
YADHET "is a stereoisomer of this entry"
_symmetry_cell_setting hexagonal
_symmetry_space_group_name_H-M 'P 65'
_symmetry_Int_Tables_number 170
loop_
_symmetry_equiv_pos_site_id
_symmetry_equiv_pos_as_xyz
1 x,y,z
2 x-y,x,5/6+z
3 -y,x-y,2/3+z
4 -x,-y,1/2+z
5 -x+y,-x,1/3+z
6 y,-x+y,1/6+z
_cell_length_a 27.8709(6)
_cell_length_b 27.8709(6)
_cell_length_c 5.9519(2)
_cell_angle_alpha 90
_cell_angle_beta 90
_cell_angle_gamma 120
_cell_formula_units_Z 6
loop_
_atom_type_symbol
_atom_type_radius_bond
C 0.68
H 0.23
N 0.68
O 0.68
loop_
_atom_site_label
_atom_site_type_symbol
_atom_site_fract_x
_atom_site_fract_y
_atom_site_fract_z
C1 C -0.02170(8) 0.57787(8) 0.8363(4)
H1 H 0.01560 0.60400 0.85540
C2 C -0.05873(8) 0.58793(8) 0.7377(4)
C3 C -0.11503(8) 0.53518(8) 0.7306(4)
H2 H -0.12410 0.52130 0.57630
C4 C -0.11805(8) 0.44319(8) 0.7657(4)
H3 H -0.10960 0.44900 0.60480
C5 C -0.07600(8) 0.43124(9) 0.8828(5)
H4 H -0.08940 0.41430 1.02860
H5 H -0.06800 0.40720 0.79200
C6 C -0.02602(8) 0.48771(9) 0.9054(4)
C7 C -0.17754(7) 0.39804(8) 0.7975(4)
C8 C -0.20686(9) 0.39331(9) 0.9922(4)
H6 H -0.19080 0.41990 1.10440
C9 C -0.26000(9) 0.3491(1) 1.0200(5)
H7 H -0.27960 0.34630 1.15040
C10 C -0.28406(8) 0.30901(9) 0.8545(5)
H8 H -0.31950 0.27900 0.87530
C11 C -0.25583(9) 0.31350(9) 0.6609(5)
H9 H -0.27220 0.28680 0.54900
C12 C -0.20211(8) 0.35845(8) 0.6313(4)
H10 H -0.18290 0.36160 0.49920
C13 C -0.16065(8) 0.54362(8) 0.8274(4)
C14 C -0.20647(9) 0.53123(10) 0.6985(5)
H11 H -0.20990 0.51620 0.55580
C15 C -0.24772(10) 0.54088(11) 0.7790(6)
H12 H -0.27890 0.53200 0.69280
C16 C -0.24138(9) 0.56361(9) 0.9874(6)
C17 C -0.19571(10) 0.57701(11) 1.1203(5)
H13 H -0.19200 0.59280 1.26140
C18 C -0.15584(9) 0.56623(10) 1.0375(5)
H14 H -0.12510 0.57440 1.12540
C19 C -0.04955(9) 0.63843(9) 0.6276(4)
C20 C 0.0007(1) 0.69298(9) 0.6964(5)
H15 H 0.03370 0.68910 0.69190
C21 C -0.00750(18) 0.70744(13) 0.9348(6)
H16 H 0.02350 0.74260 0.97660
H17 H -0.01030 0.67940 1.03640
H18 H -0.04080 0.70950 0.94170
C22 C 0.05482(10) 0.7828(1) 0.5144(5)
C23 C 0.09344(14) 0.86833(11) 0.2908(6)
C24 C 0.13896(14) 0.86166(16) 0.1873(9)
H19 H 0.15630 0.85110 0.30120
H20 H 0.16600 0.89610 0.12100
H21 H 0.12370 0.83350 0.07350
C25 C 0.1137(2) 0.90764(13) 0.4937(9)
H22 H 0.08320 0.90980 0.55730
H23 H 0.14190 0.94380 0.44610
H24 H 0.12880 0.89380 0.60450
C26 C 0.0645(2) 0.88610(16) 0.1177(9)
H25 H 0.04590 0.85720 0.00870
H26 H 0.09160 0.91930 0.04370
H27 H 0.03800 0.89290 0.19260
N1 N -0.10539(6) 0.49645(7) 0.8721(3)
N2 N -0.04602(6) 0.52389(7) 0.9055(3)
N3 N -0.28464(10) 0.57345(10) 1.0762(6)
N4 N 0.00702(9) 0.73462(8) 0.5357(4)
H28 H -0.02060 0.72840 0.45140
O1 O 0.02264(6) 0.50144(7) 0.9200(3)
O2 O -0.32612(8) 0.55961(9) 0.9612(6)
O3 O -0.27894(11) 0.59409(13) 1.2576(7)
O4 O -0.08218(7) 0.63704(7) 0.4876(4)
O5 O 0.09681(8) 0.79485(9) 0.6178(4)
O6 O 0.04724(7) 0.81405(7) 0.3608(4)
#END
