
#######################################################################
#
#                 Cambridge Crystallographic Data Centre
#                                CCDC
#
#######################################################################
#
# If this CIF has been generated from an entry in the Cambridge
# Structural Database, then it will include bibliographic, chemical,
# crystal, experimental, refinement or atomic coordinate data resulting
# from the CCDC's data processing and validation procedures.
#
#######################################################################

data_CSD_CIF_YADHET
_audit_creation_date 2016-12-07
_audit_creation_method CSD-ConQuest-V1
_database_code_CSD YADHET
_database_code_depnum_ccdc_archive 'CCDC 1497004'
_chemical_formula_sum 'C26 H28 N4 O6'
_chemical_formula_moiety
;
C26 H28 N4 O6
;
_journal_coden_Cambridge 35
_journal_volume 81
_journal_year 2016
_journal_page_first 11802
_journal_name_full 'J.Org.Chem. '
loop_
_publ_author_name
"E.P.Kirar"
"U.Groselj"
"A.Golobic"
"F.Pozgan"
"S.Pusch"
"C.Weber"
"L.Andernach"
"B.Stefane"
"T.Opatz"
"J.Svete"
_chemical_name_systematic
;
(+)-t-butyl 
(1-(1-(4-nitrophenyl)-5-oxo-7-phenyl-6,7-dihydro-1H,5H-pyrazolo[1,2-a]pyrazol-
2-yl)-1-oxopropan-2-yl)carbamate
;
_cell_volume   4053.830
_exptl_crystal_colour 'colorless'
_exptl_crystal_density_diffrn 1.21
_exptl_crystal_description 'prism'
_diffrn_ambient_temperature 293
#These two values have been output from a single CSD field.
_refine_ls_R_factor_gt 0.1082
_refine_ls_wR_factor_gt 0.1082
loop_
_citation_database_id_CSD
_citation_special_details
YADHIX "is a stereoisomer of this entry"
_symmetry_cell_setting hexagonal
_symmetry_space_group_name_H-M 'P 61'
_symmetry_Int_Tables_number 169
loop_
_symmetry_equiv_pos_site_id
_symmetry_equiv_pos_as_xyz
1 x,y,z
2 -x,-y,1/2+z
3 -y,x-y,1/3+z
4 -x+y,-x,2/3+z
5 x-y,x,1/6+z
6 y,-x+y,5/6+z
_cell_length_a 28.490(5)
_cell_length_b 28.490(5)
_cell_length_c 5.767(5)
_cell_angle_alpha 90
_cell_angle_beta 90
_cell_angle_gamma 120
_cell_formula_units_Z 6
loop_
_atom_type_symbol
_atom_type_radius_bond
C 0.68
H 0.23
N 0.68
O 0.68
loop_
_atom_site_label
_atom_site_type_symbol
_atom_site_fract_x
_atom_site_fract_y
_atom_site_fract_z
C1 C 0.56593(13) 0.11746(12) 0.4997(7)
H1 H 0.56250 0.10880 0.66550
C2 C 0.51450(14) 0.07510(13) 0.3743(8)
H2 H 0.48220 0.06640 0.46290
H3 H 0.51160 0.08760 0.22140
C3 C 0.52314(15) 0.02712(13) 0.3593(8)
C4 C 0.60899(16) 0.02714(14) 0.4520(7)
H4 H 0.59960 -0.00910 0.43950
C5 C 0.65375(15) 0.06513(13) 0.5529(7)
C6 C 0.65487(14) 0.11909(13) 0.5483(7)
H5 H 0.64870 0.12830 0.70490
C7 C 0.70724(14) 0.16500(13) 0.4516(7)
C8 C 0.73707(16) 0.21210(14) 0.5787(8)
H6 H 0.72350 0.21630 0.71890
C9 C 0.78665(16) 0.25289(15) 0.5006(9)
H7 H 0.80650 0.28440 0.58650
C10 C 0.80582(15) 0.24576(15) 0.2936(9)
C11 C 0.77721(18) 0.19998(18) 0.1623(9)
H8 H 0.79100 0.19610 0.02190
C12 C 0.72749(17) 0.15958(16) 0.2419(9)
H9 H 0.70750 0.12850 0.15340
C13 C 0.57912(12) 0.17551(12) 0.4698(6)
C14 C 0.60462(15) 0.20560(14) 0.2732(7)
H10 H 0.61610 0.19080 0.15810
C15 C 0.61310(15) 0.25770(14) 0.2473(7)
H11 H 0.63030 0.27770 0.11540
C16 C 0.59608(14) 0.27960(13) 0.4169(8)
H12 H 0.60130 0.31430 0.39810
C17 C 0.57120(14) 0.25046(15) 0.6155(8)
H13 H 0.56010 0.26560 0.73090
C18 C 0.56293(14) 0.19849(14) 0.6411(7)
H14 H 0.54630 0.17880 0.77460
C19 C 0.69625(15) 0.06034(15) 0.6740(7)
C20 C 0.69619(16) 0.00663(16) 0.669(1)
H15 H 0.67960 -0.01280 0.52470
C21 C 0.6646(2) -0.0278(2) 0.8758(14)
H16 H 0.66220 -0.06260 0.86600
H17 H 0.62880 -0.03260 0.87550
H18 H 0.68280 -0.01010 1.01660
C22 C 0.7844(2) 0.0421(2) 0.4981(14)
C23 C 0.8805(3) 0.0972(3) 0.3975(19)
C24 C 0.9302(3) 0.1160(4) 0.546(2)
H19 H 0.92980 0.13860 0.66870
H20 H 0.96210 0.13620 0.45320
H21 H 0.93040 0.08510 0.61170
C25 C 0.8804(4) 0.0609(6) 0.207(2)
H22 H 0.88420 0.03210 0.27280
H23 H 0.91000 0.08170 0.10280
H24 H 0.84680 0.04590 0.12300
C26 C 0.8769(4) 0.1439(4) 0.309(3)
H25 H 0.84960 0.13180 0.19050
H26 H 0.91120 0.17020 0.24490
H27 H 0.86740 0.15990 0.43340
N1 N 0.60765(11) 0.10696(10) 0.3973(6)
N2 N 0.57823(12) 0.04825(10) 0.3680(6)
N3 N 0.75203(15) 0.01823(14) 0.6826(9)
H28 H 0.76400 0.01010 0.80430
N4 N 0.85905(16) 0.28931(17) 0.2142(10)
O1 O 0.49030(11) -0.02087(10) 0.3458(6)
O2 O 0.73121(14) 0.09895(13) 0.7801(7)
O3 O 0.76881(19) 0.0423(2) 0.3009(11)
O4 O 0.83640(13) 0.06323(15) 0.5574(10)
O5 O 0.88450(14) 0.32941(16) 0.3293(10)
O6 O 0.8741(2) 0.2840(2) 0.0263(15)
#END
