
#######################################################################
#
#                 Cambridge Crystallographic Data Centre
#                                CCDC
#
#######################################################################
#
# If this CIF has been generated from an entry in the Cambridge
# Structural Database, then it will include bibliographic, chemical,
# crystal, experimental, refinement or atomic coordinate data resulting
# from the CCDC's data processing and validation procedures.
#
#######################################################################

data_CSD_CIF_YADKOF
_audit_creation_date 2011-11-16
_audit_creation_method CSD-ConQuest-V1
_database_code_CSD YADKOF
_database_code_depnum_ccdc_archive 'CCDC 851745'
_chemical_formula_sum 'C7 H4 N2 O6'
_chemical_formula_moiety
;
C7 H4 N2 O6
;
_journal_coeditor_code "IUCr SK3415"
_journal_coden_Cambridge 591
_journal_volume 67
_journal_year 2011
_journal_page_first o397
_journal_name_full 'Acta Crystallogr.,Sect.C:Cryst.Struct.Commun. '
loop_
_publ_author_name
"M.Zeller"
"J.L.Stouffer"
"V.C.Solomon"
"L.S.Curtin"
_chemical_name_systematic
;
3,4-Dinitrobenzoic acid
;
_cell_volume   1610.324
_exptl_crystal_colour 'colorless'
_exptl_crystal_density_diffrn 1.75
_exptl_crystal_description 'rod'
_diffrn_ambient_temperature 100
#These two values have been output from a single CSD field.
_refine_ls_R_factor_gt 0.0623
_refine_ls_wR_factor_gt 0.0623
_symmetry_cell_setting triclinic
_symmetry_space_group_name_H-M 'P -1'
_symmetry_Int_Tables_number 2
loop_
_symmetry_equiv_pos_site_id
_symmetry_equiv_pos_as_xyz
1 x,y,z
2 -x,-y,-z
_cell_length_a 7.373(6)
_cell_length_b 13.06(1)
_cell_length_c 16.800(12)
_cell_angle_alpha 89.633(12)
_cell_angle_beta 88.194(12)
_cell_angle_gamma 84.838(11)
_cell_formula_units_Z 8
loop_
_atom_type_symbol
_atom_type_radius_bond
C 0.68
H 0.23
N 0.68
O 0.68
loop_
_atom_site_label
_atom_site_type_symbol
_atom_site_fract_x
_atom_site_fract_y
_atom_site_fract_z
C1 C -0.1748(6) 0.3161(3) 0.4909(2)
C2 C -0.0332(5) 0.2391(3) 0.5214(2)
C3 C -0.0812(6) 0.1502(3) 0.5586(2)
H1 H -0.20580 0.13750 0.56450
C4 C 0.0520(6) 0.0804(3) 0.5869(2)
C5 C 0.2346(6) 0.1005(3) 0.5777(3)
C6 C 0.2837(6) 0.1872(3) 0.5405(3)
H2 H 0.40870 0.19870 0.53380
C7 C 0.1499(6) 0.2583(3) 0.5126(2)
H3 H 0.18230 0.31980 0.48750
C8 C 0.7176(6) -0.0138(3) 0.1083(2)
C9 C 0.5747(6) 0.0529(3) 0.1506(2)
C10 C 0.6206(6) 0.1303(3) 0.2004(2)
H4 H 0.74470 0.13830 0.21030
C11 C 0.4850(6) 0.1945(3) 0.2350(2)
C12 C 0.3016(6) 0.1809(3) 0.2224(2)
C13 C 0.2568(6) 0.1034(3) 0.1751(2)
H5 H 0.13260 0.09350 0.16730
C14 C 0.3934(6) 0.0393(3) 0.1385(3)
H6 H 0.36290 -0.01440 0.10490
C15 C 0.9087(6) 0.1878(3) -0.0053(2)
C16 C 0.7653(6) 0.2655(3) 0.0249(2)
C17 C 0.8125(6) 0.3551(3) 0.0590(2)
H7 H 0.93680 0.36760 0.06300
C18 C 0.6772(6) 0.4254(3) 0.0868(2)
C19 C 0.4949(6) 0.4060(3) 0.0828(2)
C20 C 0.4483(6) 0.3167(3) 0.0484(2)
H8 H 0.32420 0.30310 0.04570
C21 C 0.5842(6) 0.2477(3) 0.0182(2)
H9 H 0.55370 0.18730 -0.00760
C22 C 0.4717(6) 0.4964(3) 0.3902(2)
C23 C 0.3322(6) 0.5598(3) 0.3452(2)
C24 C 0.3801(6) 0.6451(3) 0.3028(2)
H10 H 0.50290 0.66190 0.29970
C25 C 0.2451(6) 0.7050(3) 0.2655(2)
C26 C 0.0660(6) 0.6779(3) 0.2694(2)
C27 C 0.0197(6) 0.5930(3) 0.3103(2)
H11 H -0.10290 0.57580 0.31250
C28 C 0.1539(6) 0.5326(3) 0.3486(2)
H12 H 0.12460 0.47290 0.37700
N1 N -0.0013(5) -0.0088(3) 0.6303(2)
N2 N 0.3814(5) 0.0241(3) 0.6020(2)
N3 N 0.5386(5) 0.2818(3) 0.2794(2)
N4 N 0.1543(5) 0.2460(3) 0.2618(2)
N5 N 0.7358(5) 0.5192(3) 0.1224(2)
N6 N 0.3469(5) 0.4803(3) 0.1116(2)
N7 N 0.2907(5) 0.7989(3) 0.2250(2)
N8 N -0.0796(5) 0.7408(3) 0.2288(2)
O1 O -0.1239(4) 0.3942(2) 0.45596(18)
H13 H -0.226(3) 0.434(2) 0.438(3)
O2 O -0.3398(4) 0.2973(2) 0.50174(17)
O3 O -0.1339(5) -0.0484(2) 0.6085(2)
O4 O 0.0881(4) -0.0377(3) 0.6878(2)
O5 O 0.3854(5) -0.0613(3) 0.5745(2)
O6 O 0.4935(5) 0.0548(3) 0.6453(2)
O7 O 0.6778(4) -0.0780(2) 0.05976(18)
O8 O 0.8836(4) 0.0019(2) 0.12393(19)
H14 H 0.964(3) -0.046(3) 0.097(3)
O9 O 0.6498(4) 0.2651(3) 0.33030(19)
O10 O 0.4718(4) 0.3668(2) 0.25907(18)
O11 O 0.1795(5) 0.2772(2) 0.32821(19)
O12 O 0.0139(4) 0.2636(3) 0.2254(2)
O13 O 0.8676(4) 0.1124(2) -0.04249(18)
O14 O 1.0745(4) 0.2049(2) 0.00943(18)
H15 H 1.155(3) 0.156(3) -0.016(3)
O15 O 0.8151(5) 0.5749(2) 0.0772(2)
O16 O 0.7067(5) 0.5325(3) 0.1929(2)
O17 O 0.3770(4) 0.5703(2) 0.11290(19)
O18 O 0.2021(4) 0.4465(3) 0.1316(2)
O19 O 0.4206(4) 0.4250(2) 0.43327(18)
H16 H 0.516(4) 0.398(3) 0.463(2)
O20 O 0.6364(4) 0.5201(2) 0.38426(17)
O21 O 0.4215(4) 0.7928(2) 0.17913(19)
O22 O 0.1949(5) 0.8771(2) 0.24225(19)
O23 O -0.0465(4) 0.7665(3) 0.16074(19)
O24 O -0.2213(4) 0.7614(3) 0.2664(2)
#END
