
#######################################################################
#
#                 Cambridge Crystallographic Data Centre
#                                CCDC
#
#######################################################################
#
# If this CIF has been generated from an entry in the Cambridge
# Structural Database, then it will include bibliographic, chemical,
# crystal, experimental, refinement or atomic coordinate data resulting
# from the CCDC's data processing and validation procedures.
#
#######################################################################

data_CSD_CIF_YADWIK
_audit_creation_date 2004-12-09
_audit_creation_method CSD-ConQuest-V1
_database_code_CSD YADWIK
_database_code_depnum_ccdc_archive 'CCDC 240650'
_chemical_formula_sum 'C23 H15 N3 O7'
_chemical_formula_moiety
;
C23 H15 N3 O7
;
_journal_coden_Cambridge 1078
_journal_year 2004
_journal_name_full 'CSD Communication(Private Communication) '
loop_
_publ_author_name
"P.G.Jones"
"A.Chrapkowski"
_chemical_name_systematic
;
1-p-methoxyphenyl-8-(2,4,6-trinitrophenyl)naphthalene
;
_cell_volume   1929.244
_exptl_crystal_colour 'yellow'
_exptl_crystal_density_diffrn 1.533
_exptl_special_details
;
contribution from Institut fur Anorganische und Analytische Chemie, 
Technische Universitat Braunschweig, Postfach 3329, 38023 Braunschweig, 
Germany
;
_exptl_crystal_description 'tablet'
_diffrn_ambient_temperature 143
#These two values have been output from a single CSD field.
_refine_ls_R_factor_gt 0.0515
_refine_ls_wR_factor_gt 0.0515
_symmetry_cell_setting orthorhombic
_symmetry_space_group_name_H-M 'P 21 21 21'
_symmetry_Int_Tables_number 19
loop_
_symmetry_equiv_pos_site_id
_symmetry_equiv_pos_as_xyz
1 x,y,z
2 1/2-x,-y,1/2+z
3 -x,1/2+y,1/2-z
4 1/2+x,1/2-y,-z
_cell_length_a 7.088(2)
_cell_length_b 8.438(2)
_cell_length_c 32.257(7)
_cell_angle_alpha 90
_cell_angle_beta 90
_cell_angle_gamma 90
_cell_formula_units_Z 4
loop_
_atom_type_symbol
_atom_type_radius_bond
C 0.68
H 0.23
N 0.68
O 0.68
loop_
_atom_site_label
_atom_site_type_symbol
_atom_site_fract_x
_atom_site_fract_y
_atom_site_fract_z
C1 C 0.1284(5) 0.7457(4) 0.07808(9)
C2 C -0.0288(5) 0.7463(4) 0.05302(10)
H1 H -0.12630 0.67130 0.05780
C3 C -0.0477(6) 0.8558(4) 0.02045(10)
H2 H -0.15460 0.85260 0.00270
C4 C 0.0894(5) 0.9666(4) 0.0147(1)
H3 H 0.07290 1.04490 -0.00610
C5 C 0.2552(5) 0.9681(4) 0.03884(9)
C6 C 0.3929(6) 1.0868(4) 0.03217(10)
H4 H 0.37230 1.16530 0.01150
C7 C 0.5541(6) 1.0899(4) 0.05493(10)
H5 H 0.64310 1.17280 0.05100
C8 C 0.5892(5) 0.9706(4) 0.08419(10)
H6 H 0.70380 0.97310 0.09940
C9 C 0.4630(5) 0.8504(4) 0.09148(9)
C10 C 0.2845(5) 0.8499(4) 0.07043(9)
C11 C 0.1165(5) 0.6429(4) 0.11567(9)
C12 C 0.0874(5) 0.4806(4) 0.11469(9)
N1 N 0.0757(4) 0.3947(3) 0.07462(8)
O1 O 0.1888(4) 0.4277(3) 0.04767(7)
O2 O -0.0460(5) 0.2925(3) 0.07183(8)
C13 C 0.1249(5) 0.7069(4) 0.15569(10)
N2 N 0.1344(4) 0.8802(3) 0.16184(8)
O3 O 0.2439(4) 0.9290(3) 0.18822(8)
O4 O 0.0304(4) 0.9641(3) 0.14085(7)
C14 C 0.0754(5) 0.3834(4) 0.14941(10)
H7 H 0.05080 0.27300 0.14710
C15 C 0.1254(5) 0.6170(4) 0.19149(10)
H8 H 0.14170 0.66460 0.21790
C16 C 0.1012(5) 0.4560(4) 0.18742(10)
N3 N 0.0998(5) 0.3567(4) 0.22482(8)
O5 O 0.1360(5) 0.4205(3) 0.25780(7)
O6 O 0.0650(5) 0.2169(3) 0.22079(7)
C17 C 0.5246(5) 0.7182(4) 0.11942(10)
C18 C 0.5931(5) 0.7494(4) 0.15965(10)
H9 H 0.60650 0.85590 0.16880
C19 C 0.5212(5) 0.5623(4) 0.10644(10)
H10 H 0.48510 0.53950 0.07870
C20 C 0.6404(5) 0.6272(4) 0.18569(11)
H11 H 0.68610 0.64970 0.21280
C21 C 0.5686(5) 0.4382(4) 0.13252(10)
H12 H 0.56440 0.33190 0.12290
C22 C 0.6222(5) 0.4710(5) 0.17280(11)
O7 O 0.6619(4) 0.3584(3) 0.20199(8)
C23 C 0.6217(7) 0.1975(5) 0.19137(15)
H13 H 0.63840 0.13020 0.21590
H14 H 0.70790 0.16280 0.16940
H15 H 0.49130 0.18930 0.18150
#END
