
#######################################################################
#
#                 Cambridge Crystallographic Data Centre
#                                CCDC
#
#######################################################################
#
# If this CIF has been generated from an entry in the Cambridge
# Structural Database, then it will include bibliographic, chemical,
# crystal, experimental, refinement or atomic coordinate data resulting
# from the CCDC's data processing and validation procedures.
#
#######################################################################

data_CSD_CIF_YAFMEY
_audit_creation_date 2004-12-09
_audit_creation_method CSD-ConQuest-V1
_database_code_CSD YAFMEY
_database_code_depnum_ccdc_archive 'CCDC 246531'
_chemical_formula_sum 'C18 H15 N1 O6'
_chemical_formula_moiety
;
C18 H15 N1 O6
;
_journal_coden_Cambridge 1078
_journal_year 2004
_journal_name_full 'CSD Communication(Private Communication) '
loop_
_publ_author_name
"M.Nieger"
"M.Fischer"
"F.Vogtle"
_chemical_name_systematic
;
4-(4-Methoxyphenoxy)benzoic acid 2,5-dioxopyrrolidin-1-yl ester
;
_cell_volume   1655.149
_exptl_crystal_colour 'colorless'
_exptl_crystal_density_diffrn 1.37
_exptl_special_details
;
contribution from Department of Inorganic Chemistry, University of Bonn, 
Gerhard-Domagk-Str. 1, D-53121 Bonn, Germany
;
_exptl_crystal_description 'plates'
_diffrn_ambient_temperature 293
#These two values have been output from a single CSD field.
_refine_ls_R_factor_gt 0.0359
_refine_ls_wR_factor_gt 0.0359
_symmetry_cell_setting monoclinic
_symmetry_space_group_name_H-M 'P 21/c'
_symmetry_Int_Tables_number 14
loop_
_symmetry_equiv_pos_site_id
_symmetry_equiv_pos_as_xyz
1 x,y,z
2 x,1/2-y,1/2+z
3 -x,-y,-z
4 -x,-1/2+y,-1/2-z
_cell_length_a 15.089(1)
_cell_length_b 9.599(1)
_cell_length_c 11.433(1)
_cell_angle_alpha 90
_cell_angle_beta 91.78(1)
_cell_angle_gamma 90
_cell_formula_units_Z 4
loop_
_atom_type_symbol
_atom_type_radius_bond
C 0.68
H 0.23
N 0.68
O 0.68
loop_
_atom_site_label
_atom_site_type_symbol
_atom_site_fract_x
_atom_site_fract_y
_atom_site_fract_z
N1 N 0.38934(9) 0.48211(16) 1.05685(12)
O1 O 0.33187(7) 0.55811(13) 0.98457(10)
C1 C 0.24261(11) 0.53156(18) 1.00810(15)
O2 O 0.22314(9) 0.44508(15) 1.07699(13)
C2 C 0.18393(10) 0.62390(17) 0.94017(14)
C3 C 0.09479(11) 0.62275(19) 0.96584(16)
H1 H 0.07510 0.56430 1.02440
C4 C 0.03484(11) 0.70698(19) 0.90587(15)
H2 H -0.02490 0.70600 0.92380
C5 C 0.06519(12) 0.79301(19) 0.81849(15)
C6 C 0.15380(12) 0.7965(2) 0.79287(15)
H3 H 0.17340 0.85620 0.73510
C7 C 0.21322(11) 0.71196(18) 0.85245(14)
H4 H 0.27290 0.71350 0.83430
O3 O 0.01069(9) 0.87802(18) 0.75100(13)
C8 C -0.07704(12) 0.8953(2) 0.78672(18)
C9 C -0.14455(14) 0.8228(2) 0.73150(17)
H5 H -0.13240 0.75940 0.67260
C10 C -0.23046(13) 0.8446(2) 0.76392(17)
H6 H -0.27660 0.79640 0.72640
C11 C -0.24839(12) 0.93806(19) 0.85218(16)
C12 C -0.18006(13) 1.0098(2) 0.90716(18)
H7 H -0.19170 1.07220 0.96700
C13 C -0.09420(13) 0.9888(2) 0.87316(19)
H8 H -0.04790 1.03840 0.90910
O4 O -0.33610(8) 0.95317(15) 0.87748(13)
C14 C -0.35647(15) 1.0428(3) 0.9709(2)
H9 H -0.41950 1.04490 0.97990
H10 H -0.33560 1.13510 0.95450
H11 H -0.32810 1.00940 1.04180
C15 C 0.40904(12) 0.5248(2) 1.17066(16)
O5 O 0.37814(10) 0.62687(17) 1.21408(13)
C16 C 0.47385(13) 0.4210(2) 1.21871(17)
H12 H 0.45340 0.38210 1.29140
H13 H 0.53120 0.46420 1.23350
C17 C 0.48020(13) 0.3081(2) 1.12618(17)
H14 H 0.54130 0.29500 1.10460
H15 H 0.45760 0.22040 1.15510
C18 C 0.42518(11) 0.3574(2) 1.02336(17)
O6 O 0.41346(10) 0.30525(17) 0.92870(13)
#END
