
#######################################################################
#
#                 Cambridge Crystallographic Data Centre
#                                CCDC
#
#######################################################################
#
# If this CIF has been generated from an entry in the Cambridge
# Structural Database, then it will include bibliographic, chemical,
# crystal, experimental, refinement or atomic coordinate data resulting
# from the CCDC's data processing and validation procedures.
#
#######################################################################

data_CSD_CIF_YAFPOL
_audit_creation_date 2004-12-09
_audit_creation_method CSD-ConQuest-V1
_database_code_CSD YAFPOL
_database_code_depnum_ccdc_archive 'CCDC 246640'
_chemical_formula_sum 'C19 H13 N1 O4'
_chemical_formula_moiety
;
C19 H13 N1 O4
;
_journal_coden_Cambridge 1078
_journal_year 2004
_journal_name_full 'CSD Communication(Private Communication) '
loop_
_publ_author_name
"M.Nieger"
"M.Fischer"
"F.Vogtle"
_chemical_name_systematic
;
Anthracene-9-carboxylic acid 2,5-dioxopyrrolidin-1-yl ester
;
_cell_volume   1515.236
_exptl_crystal_colour 'colorless'
_exptl_crystal_density_diffrn 1.4
_exptl_special_details
;
contribution from Department of Inorganic Chemistry, University of Bonn, 
Gerhard-Domagk-Str. 1, D-53121 Bonn, Germany
;
_exptl_crystal_description 'plates'
_diffrn_ambient_temperature 200
#These two values have been output from a single CSD field.
_refine_ls_R_factor_gt 0.0527
_refine_ls_wR_factor_gt 0.0527
_symmetry_cell_setting triclinic
_symmetry_space_group_name_H-M 'P -1'
_symmetry_Int_Tables_number 2
loop_
_symmetry_equiv_pos_site_id
_symmetry_equiv_pos_as_xyz
1 x,y,z
2 -x,-y,-z
_cell_length_a 9.409(1)
_cell_length_b 11.203(1)
_cell_length_c 14.922(2)
_cell_angle_alpha 94.79(1)
_cell_angle_beta 96.79(1)
_cell_angle_gamma 102.49(1)
_cell_formula_units_Z 4
loop_
_atom_type_symbol
_atom_type_radius_bond
C 0.68
H 0.23
N 0.68
O 0.68
loop_
_atom_site_label
_atom_site_type_symbol
_atom_site_fract_x
_atom_site_fract_y
_atom_site_fract_z
C1 C 0.5693(3) 0.8833(2) 0.40959(15)
C2 C 0.7183(3) 0.9186(2) 0.39162(18)
H1 H 0.78870 0.87590 0.41540
C3 C 0.7597(4) 1.0114(3) 0.3415(2)
H2 H 0.85870 1.03250 0.32990
C4 C 0.6585(5) 1.0780(3) 0.3059(2)
H3 H 0.68990 1.14360 0.27110
C5 C 0.5187(4) 1.0489(3) 0.32109(19)
H4 H 0.45180 1.09450 0.29710
C6 C 0.4683(3) 0.9510(2) 0.37241(16)
C7 C 0.3220(3) 0.9192(2) 0.38767(17)
H5 H 0.25580 0.96560 0.36390
C8 C 0.2697(3) 0.8225(2) 0.43623(17)
C9 C 0.1182(3) 0.7867(3) 0.4491(2)
H6 H 0.05080 0.83150 0.42440
C10 C 0.0694(3) 0.6926(3) 0.4948(2)
H7 H -0.03170 0.67060 0.50180
C11 C 0.1674(3) 0.6255(3) 0.5327(2)
H8 H 0.13160 0.55820 0.56490
C12 C 0.3127(3) 0.6557(2) 0.52378(17)
H9 H 0.37680 0.60930 0.55020
C13 C 0.3699(2) 0.7548(2) 0.47598(16)
C14 C 0.5175(2) 0.7876(2) 0.46164(15)
C15 C 0.6265(2) 0.7234(2) 0.50259(16)
O1 O 0.70836(19) 0.67492(18) 0.46697(12)
O2 O 0.62742(17) 0.73192(15) 0.59665(10)
N1 N 0.7324(2) 0.67765(18) 0.63903(13)
C16 C 0.6957(3) 0.5584(2) 0.65993(16)
O3 O 0.5772(2) 0.49074(17) 0.63854(14)
C17 C 0.8339(3) 0.5378(3) 0.7126(2)
H10 H 0.87730 0.48080 0.67610
H11 H 0.81240 0.50270 0.76960
C18 C 0.9384(3) 0.6647(3) 0.7332(2)
H12 H 0.95740 0.69080 0.79940
H13 H 1.03330 0.66340 0.71110
C19 C 0.8632(3) 0.7502(3) 0.68449(18)
O4 O 0.9001(2) 0.85956(19) 0.68288(15)
C20 C 0.8406(3) 0.7718(2) 1.03823(16)
C21 C 0.8701(3) 0.6518(2) 1.03607(18)
H14 H 0.81310 0.58710 0.99270
C22 C 0.9794(3) 0.6299(3) 1.0960(2)
H15 H 0.99930 0.55020 1.09320
C23 C 1.0640(3) 0.7234(3) 1.1624(2)
H16 H 1.13950 0.70590 1.20390
C24 C 1.0384(3) 0.8371(3) 1.16732(19)
H17 H 1.09540 0.89890 1.21280
C25 C 0.9266(3) 0.8664(2) 1.10514(17)
C26 C 0.9027(3) 0.9842(2) 1.10703(17)
H18 H 0.95870 1.04570 1.15310
C27 C 0.7998(3) 1.0160(2) 1.04409(17)
C28 C 0.7773(3) 1.1381(2) 1.04539(19)
H19 H 0.83180 1.19980 1.09180
C29 C 0.6801(3) 1.1673(3) 0.9820(2)
H20 H 0.66800 1.24940 0.98330
C30 C 0.5961(3) 1.0761(2) 0.91356(19)
H21 H 0.52830 1.09790 0.86900
C31 C 0.6106(3) 0.9580(2) 0.91037(17)
H22 H 0.55150 0.89780 0.86450
C32 C 0.7141(3) 0.9234(2) 0.97539(16)
C33 C 0.7342(3) 0.8027(2) 0.97455(15)
C34 C 0.6480(3) 0.7081(2) 0.90155(16)
O5 O 0.6594(2) 0.69996(18) 0.82307(12)
O6 O 0.54219(18) 0.62587(14) 0.93642(11)
N2 N 0.4639(2) 0.53052(18) 0.87139(14)
C35 C 0.3389(3) 0.5399(3) 0.81473(18)
O7 O 0.2847(2) 0.6274(2) 0.81778(15)
C36 C 0.2954(3) 0.4218(3) 0.7526(2)
H23 H 0.30060 0.43810 0.68880
H24 H 0.19370 0.37830 0.75770
C37 C 0.4036(3) 0.3448(2) 0.7825(2)
H25 H 0.35380 0.27240 0.80990
H26 H 0.44760 0.31580 0.73010
C38 C 0.5187(3) 0.4278(2) 0.85087(18)
O8 O 0.6373(3) 0.41618(18) 0.88355(15)
#END
