
#######################################################################
#
#                 Cambridge Crystallographic Data Centre
#                                CCDC
#
#######################################################################
#
# If this CIF has been generated from an entry in the Cambridge
# Structural Database, then it will include bibliographic, chemical,
# crystal, experimental, refinement or atomic coordinate data resulting
# from the CCDC's data processing and validation procedures.
#
#######################################################################

data_CSD_CIF_YAGBAM
_audit_creation_date 2016-12-07
_audit_creation_method CSD-ConQuest-V1
_database_code_CSD YAGBAM
_database_code_depnum_ccdc_archive 'CCDC 1520847'
_chemical_formula_sum 'C22 H23 N1 O2'
_chemical_formula_moiety
;
C22 H23 N1 O2
;
_journal_coden_Cambridge 1078
_journal_year 2016
_journal_name_full 'CSD Communication(Private Communication) '
loop_
_publ_author_name
"liuruihua"
_chemical_name_systematic
;
6-[2-(4-methoxyphenyl)ethenyl]-2-phenyl-3,3a,4,5,6,6a-hexahydrocyclopenta[b]py
rrole 1-oxide
;
_cell_volume   1751.688
_exptl_crystal_colour 'light colorless'
_exptl_crystal_density_diffrn 1.264
_exptl_crystal_description 'block'
_diffrn_ambient_temperature 292.1
#These two values have been output from a single CSD field.
_refine_ls_R_factor_gt 0.0698
_refine_ls_wR_factor_gt 0.0698
_symmetry_cell_setting monoclinic
_symmetry_space_group_name_H-M 'P 21/n'
_symmetry_Int_Tables_number 14
loop_
_symmetry_equiv_pos_site_id
_symmetry_equiv_pos_as_xyz
1 x,y,z
2 1/2-x,1/2+y,1/2-z
3 -x,-y,-z
4 -1/2+x,-1/2-y,-1/2+z
_cell_length_a 12.2933(11)
_cell_length_b 9.3032(7)
_cell_length_c 16.174(2)
_cell_angle_alpha 90
_cell_angle_beta 108.742(11)
_cell_angle_gamma 90
_cell_formula_units_Z 4
loop_
_atom_type_symbol
_atom_type_radius_bond
C 0.68
H 0.23
N 0.68
O 0.68
loop_
_atom_site_label
_atom_site_type_symbol
_atom_site_fract_x
_atom_site_fract_y
_atom_site_fract_z
O1 O 0.4716(2) 0.1263(3) 0.29200(19)
O2 O -0.4007(2) 0.1180(2) 0.11415(19)
N1 N 0.4555(2) 0.1596(3) 0.3647(2)
C1 C 0.7091(3) 0.1353(3) 0.3994(3)
H1 H 0.66530 0.11570 0.34200
C2 C 0.8278(3) 0.1272(4) 0.4255(3)
H2 H 0.86280 0.10120 0.38470
C3 C 0.8949(3) 0.1558(4) 0.5084(3)
H3 H 0.97440 0.14850 0.52410
C4 C 0.8434(3) 0.1958(4) 0.5690(3)
H4 H 0.88860 0.21710 0.62590
C5 C 0.7261(3) 0.2045(4) 0.5462(3)
H5 H 0.69260 0.23140 0.58780
C6 C 0.6563(3) 0.1736(3) 0.4613(3)
C7 C 0.5321(3) 0.1818(3) 0.4413(3)
C8 C 0.4742(3) 0.2135(4) 0.5079(3)
H6 H 0.49760 0.30690 0.53430
H7 H 0.49390 0.14120 0.55360
C9 C 0.3431(3) 0.2114(4) 0.4579(3)
H8 H 0.30320 0.14220 0.48360
C10 C 0.3334(3) 0.1698(4) 0.3639(3)
H9 H 0.29280 0.07830 0.34710
C11 C 0.2721(3) 0.2913(3) 0.3042(3)
H10 H 0.30630 0.30520 0.25780
C12 C 0.2983(3) 0.4219(4) 0.3657(3)
H11 H 0.37520 0.45810 0.37430
H12 H 0.24340 0.49850 0.34290
C13 C 0.2875(3) 0.3617(4) 0.4497(3)
H13 H 0.20750 0.35470 0.44640
H14 H 0.32780 0.42190 0.49900
C14 C 0.1439(3) 0.2713(4) 0.2647(2)
H15 H 0.10340 0.35240 0.23800
C15 C 0.0812(3) 0.1566(4) 0.2624(3)
H16 H 0.12040 0.07440 0.28850
C16 C -0.0446(3) 0.1433(3) 0.2230(2)
C17 C -0.0994(3) 0.0124(4) 0.2179(3)
H17 H -0.05540 -0.06890 0.23940
C18 C -0.2173(3) -0.0021(4) 0.1821(3)
H18 H -0.25140 -0.09200 0.17900
C19 C -0.2836(3) 0.1178(4) 0.1510(2)
C20 C -0.2311(3) 0.2494(4) 0.1546(3)
H19 H -0.27530 0.33060 0.13330
C21 C -0.1146(3) 0.2616(4) 0.1892(3)
H20 H -0.08080 0.35130 0.19030
C22 C -0.4625(3) -0.0087(4) 0.1146(3)
H21 H -0.43910 -0.08180 0.08200
H22 H -0.54320 0.00960 0.08850
H23 H -0.44760 -0.04050 0.17370
#END
