
#######################################################################
#
#                 Cambridge Crystallographic Data Centre
#                                CCDC
#
#######################################################################
#
# If this CIF has been generated from an entry in the Cambridge
# Structural Database, then it will include bibliographic, chemical,
# crystal, experimental, refinement or atomic coordinate data resulting
# from the CCDC's data processing and validation procedures.
#
#######################################################################

data_CSD_CIF_YAGHEW
_audit_creation_date 2016-12-07
_audit_creation_method CSD-ConQuest-V1
_database_code_CSD YAGHEW
_database_code_depnum_ccdc_archive 'CCDC 744676'
_chemical_formula_sum 'C15 H15 N3 O4'
_chemical_formula_moiety
;
C15 H15 N3 O4
;
_journal_coden_Cambridge 1078
_journal_year 2016
_journal_name_full 'CSD Communication(Private Communication) '
loop_
_publ_author_name
"T.J.Snape"
_chemical_name_systematic
;
1-(4-methoxyphenyl)-1-methyl-3-(4-nitrophenyl)urea
;
_cell_volume   5598.665
_exptl_crystal_colour 'colorless'
_exptl_crystal_density_diffrn 1.43
_exptl_crystal_description 'plate'
_diffrn_ambient_temperature 100
#These two values have been output from a single CSD field.
_refine_ls_R_factor_gt 0.0385
_refine_ls_wR_factor_gt 0.0385
_symmetry_cell_setting monoclinic
_symmetry_space_group_name_H-M 'P 21/c'
_symmetry_Int_Tables_number 14
loop_
_symmetry_equiv_pos_site_id
_symmetry_equiv_pos_as_xyz
1 x,y,z
2 -x,1/2+y,1/2-z
3 -x,-y,-z
4 x,-1/2-y,-1/2+z
_cell_length_a 18.964(3)
_cell_length_b 20.561(3)
_cell_length_c 15.346(2)
_cell_angle_alpha 90
_cell_angle_beta 110.666(3)
_cell_angle_gamma 90
_cell_formula_units_Z 16
loop_
_atom_type_symbol
_atom_type_radius_bond
C 0.68
H 0.23
N 0.68
O 0.68
loop_
_atom_site_label
_atom_site_type_symbol
_atom_site_fract_x
_atom_site_fract_y
_atom_site_fract_z
O1 O 0.20843(9) 1.01040(7) 0.43421(10)
O2 O 0.04406(8) 0.66448(7) 0.34826(9)
O3 O -0.33100(9) 0.66831(8) 0.07655(13)
O4 O -0.34704(9) 0.77252(8) 0.06817(11)
N1 N 0.12742(10) 0.74854(8) 0.37663(12)
N2 N 0.00219(10) 0.76532(9) 0.28697(13)
H1 H 0.0188(10) 0.8055(9) 0.2868(13)
N3 N -0.30649(11) 0.72431(10) 0.09237(14)
C1 C 0.14318(12) 0.81694(10) 0.38743(15)
C2 C 0.18457(12) 0.84709(10) 0.34038(14)
H2 H 0.19880 0.82330 0.29620
C3 C 0.20521(12) 0.91163(10) 0.35749(14)
H3 H 0.23370 0.93200 0.32510
C4 C 0.18446(13) 0.9469(1) 0.42201(15)
C5 C 0.14309(13) 0.91769(11) 0.46883(15)
H4 H 0.12830 0.94170 0.51250
C6 C 0.12312(13) 0.85243(11) 0.45142(15)
H5 H 0.09510 0.83200 0.48430
C7 C 0.20135(13) 1.04460(11) 0.51137(15)
H6 H 0.14790 1.04890 0.50300
H7 H 0.22390 1.08790 0.51530
H8 H 0.22740 1.02050 0.56890
C8 C 0.18888(12) 0.70563(10) 0.43192(15)
H9 H 0.19600 0.71010 0.49810
H10 H 0.23550 0.71770 0.42210
H11 H 0.17610 0.66040 0.41250
C9 C 0.05716(13) 0.72229(11) 0.33863(14)
C10 C -0.07366(13) 0.75172(10) 0.23877(15)
C11 C -0.11967(12) 0.80372(10) 0.19222(14)
H12 H -0.09800 0.84550 0.19340
C12 C -0.19515(13) 0.79521(10) 0.14516(15)
H13 H -0.22600 0.83110 0.11570
C13 C -0.22617(12) 0.73381(10) 0.14088(15)
C14 C -0.18216(12) 0.68122(11) 0.18336(15)
H14 H -0.20380 0.63910 0.17840
C15 C -0.10651(12) 0.69037(10) 0.23307(15)
H15 H -0.07640 0.65450 0.26380
O5 O 0.65967(8) 0.52143(7) 0.20872(10)
O6 O 0.50485(8) 0.17766(6) 0.19231(9)
O7 O 0.11868(9) 0.21296(7) 0.03980(11)
O8 O 0.11517(8) 0.31146(7) 0.08730(11)
N4 N 0.59019(10) 0.26011(8) 0.23138(12)
N5 N 0.46583(10) 0.27974(9) 0.21522(12)
H16 H 0.4829(10) 0.3220(9) 0.2323(12)
N6 N 0.15011(11) 0.26235(9) 0.08039(13)
C16 C 0.60579(12) 0.32846(10) 0.22983(15)
C17 C 0.64973(12) 0.36047(10) 0.30945(15)
H17 H 0.66710 0.33780 0.36710
C18 C 0.66889(12) 0.42552(10) 0.30634(15)
H18 H 0.69880 0.44740 0.36150
C19 C 0.64384(12) 0.45802(10) 0.22196(16)
C20 C 0.59935(12) 0.42611(10) 0.14191(15)
H19 H 0.58170 0.44870 0.08420
C21 C 0.58059(12) 0.36181(10) 0.14560(15)
H20 H 0.55030 0.34010 0.09040
C22 C 0.70241(13) 0.55817(10) 0.28778(16)
H21 H 0.67840 0.55620 0.33470
H22 H 0.70500 0.60350 0.26950
H23 H 0.75350 0.54020 0.31390
C23 C 0.64967(12) 0.21678(10) 0.22579(15)
H24 H 0.63610 0.17160 0.23260
H25 H 0.69720 0.22750 0.27570
H26 H 0.65560 0.22230 0.16530
C24 C 0.51928(13) 0.2353(1) 0.21101(14)
C25 C 0.38782(12) 0.2696(1) 0.18685(14)
C26 C 0.34499(12) 0.31884(10) 0.20672(14)
H27 H 0.36990 0.35460 0.24410
C27 C 0.26820(12) 0.31648(10) 0.17347(14)
H28 H 0.23980 0.35080 0.18620
C28 C 0.23207(12) 0.26345(10) 0.12085(15)
C29 C 0.27312(13) 0.21256(10) 0.10468(15)
H29 H 0.24790 0.17550 0.07080
C30 C 0.35062(12) 0.21541(10) 0.13766(15)
H30 H 0.37880 0.18020 0.12670
O9 O -0.12265(9) 0.25883(7) 0.85803(10)
O10 O 0.01288(8) 0.58669(7) 0.73372(9)
O11 O 0.17040(9) 0.44869(7) 0.39249(10)
O12 O 0.21480(8) 0.54266(7) 0.44971(10)
N7 N -0.03342(10) 0.50954(8) 0.80561(12)
N8 N 0.0154(1) 0.47964(9) 0.69265(12)
H31 H -0.004(1) 0.4406(9) 0.6956(12)
N9 N 0.17557(10) 0.49440(9) 0.44646(12)
C31 C -0.05427(12) 0.44384(10) 0.81561(14)
C32 C -0.12952(12) 0.42553(10) 0.78029(14)
H32 H -0.16680 0.45590 0.74630
C33 C -0.15010(13) 0.36331(10) 0.79460(15)
H33 H -0.20160 0.35090 0.76990
C34 C -0.09625(13) 0.31851(10) 0.84485(15)
C35 C -0.02126(13) 0.33654(10) 0.87950(14)
H34 H 0.01610 0.30610 0.91300
C36 C -0.00070(12) 0.39915(10) 0.86521(14)
H35 H 0.05090 0.41150 0.88980
C37 C -0.06833(14) 0.21309(10) 0.91291(16)
H36 H -0.03440 0.20090 0.88010
H37 H -0.09430 0.17420 0.92330
H38 H -0.03910 0.23280 0.97300
C38 C -0.06028(13) 0.55882(10) 0.85514(15)
H39 H -0.03380 0.59990 0.85600
H40 H -0.05050 0.54430 0.91920
H41 H -0.11460 0.56530 0.82340
C39 C -0.00096(12) 0.52944(10) 0.74366(15)
C40 C 0.05595(12) 0.48557(10) 0.63234(14)
C41 C 0.05452(12) 0.43293(10) 0.57411(14)
H42 H 0.02680 0.39490 0.57660
C42 C 0.09330(12) 0.43579(10) 0.51283(14)
H43 H 0.09210 0.40010 0.47300
C43 C 0.13359(12) 0.4909(1) 0.51040(14)
C44 C 0.13614(11) 0.5434(1) 0.56776(14)
H44 H 0.16410 0.58120 0.56490
C45 C 0.09778(12) 0.54052(10) 0.62927(14)
H45 H 0.10000 0.57620 0.66960
O13 O 0.41193(8) 0.75778(7) 0.03046(10)
O14 O 0.47622(8) 0.42165(7) 0.26561(9)
O15 O 0.69137(8) 0.44506(7) 0.72482(10)
O16 O 0.71130(8) 0.54918(7) 0.7344(1)
N10 N 0.43577(10) 0.50156(8) 0.15730(12)
N11 N 0.50362(10) 0.52768(9) 0.31172(12)
H46 H 0.4951(10) 0.5678(9) 0.2944(12)
N12 N 0.68284(10) 0.50004(9) 0.69004(13)
C46 C 0.43235(12) 0.56841(10) 0.12895(14)
C47 C 0.49579(12) 0.59962(10) 0.12528(13)
H47 H 0.54260 0.57720 0.14350
C48 C 0.49140(12) 0.66408(10) 0.09484(13)
H48 H 0.53540 0.68610 0.09460
C49 C 0.42268(12) 0.69546(10) 0.06517(14)
C50 C 0.35855(12) 0.66352(10) 0.06742(14)
H49 H 0.31130 0.68520 0.04640
C51 C 0.36337(12) 0.60084(10) 0.09994(14)
H50 H 0.31970 0.57960 0.10270
C52 C 0.47717(12) 0.79011(10) 0.02611(15)
H51 H 0.51260 0.79800 0.08940
H52 H 0.46240 0.83170 -0.00650
H53 H 0.50140 0.76280 -0.00760
C53 C 0.40109(12) 0.45329(10) 0.08460(14)
H54 H 0.43980 0.43420 0.06380
H55 H 0.36260 0.47440 0.03180
H56 H 0.37770 0.41900 0.10950
C54 C 0.47262(12) 0.47985(10) 0.24585(15)
C55 C 0.54823(11) 0.51781(10) 0.40587(15)
C56 C 0.57092(12) 0.4567(1) 0.44466(15)
H57 H 0.55610 0.41870 0.40740
C57 C 0.61518(12) 0.45165(10) 0.53788(15)
H58 H 0.63070 0.41010 0.56480
C58 C 0.63673(11) 0.50662(10) 0.59144(14)
C59 C 0.61617(11) 0.5679(1) 0.55441(14)
H59 H 0.63240 0.60560 0.59190
C60 C 0.57135(11) 0.57303(10) 0.46132(14)
H60 H 0.55620 0.61480 0.43490
#END
