
#######################################################################
#
#                 Cambridge Crystallographic Data Centre
#                                CCDC
#
#######################################################################
#
# If this CIF has been generated from an entry in the Cambridge
# Structural Database, then it will include bibliographic, chemical,
# crystal, experimental, refinement or atomic coordinate data resulting
# from the CCDC's data processing and validation procedures.
#
#######################################################################

data_CSD_CIF_YAGHIA
_audit_creation_date 2016-12-07
_audit_creation_method CSD-ConQuest-V1
_database_code_CSD YAGHIA
_database_code_depnum_ccdc_archive 'CCDC 744675'
_chemical_formula_sum 'C17 H17 N3 O6'
_chemical_formula_moiety
;
C17 H17 N3 O6
;
_journal_coden_Cambridge 1078
_journal_year 2016
_journal_name_full 'CSD Communication(Private Communication) '
loop_
_publ_author_name
"T.J.Snape"
_chemical_name_systematic
;
Methyl ((4-methoxyphenyl)(methyl)carbamoyl)(4-nitrophenyl)carbamate
;
_cell_volume   1652.212
_exptl_crystal_colour 'colorless'
_exptl_crystal_density_diffrn 1.445
_exptl_crystal_description 'prismatic'
_diffrn_ambient_temperature 100
#These two values have been output from a single CSD field.
_refine_ls_R_factor_gt 0.0348
_refine_ls_wR_factor_gt 0.0348
_symmetry_cell_setting monoclinic
_symmetry_space_group_name_H-M 'P 21/n'
_symmetry_Int_Tables_number 14
loop_
_symmetry_equiv_pos_site_id
_symmetry_equiv_pos_as_xyz
1 x,y,z
2 1/2-x,1/2+y,1/2-z
3 -x,-y,-z
4 -1/2+x,-1/2-y,-1/2+z
_cell_length_a 8.5414(11)
_cell_length_b 12.7551(16)
_cell_length_c 15.1934(19)
_cell_angle_alpha 90
_cell_angle_beta 93.481(2)
_cell_angle_gamma 90
_cell_formula_units_Z 4
loop_
_atom_type_symbol
_atom_type_radius_bond
C 0.68
H 0.23
N 0.68
O 0.68
loop_
_atom_site_label
_atom_site_type_symbol
_atom_site_fract_x
_atom_site_fract_y
_atom_site_fract_z
O1 O 0.32081(11) 0.80556(8) 0.52310(6)
O2 O 0.09338(12) 0.82610(7) 0.45338(6)
O3 O 0.27578(11) 0.27649(7) 0.55456(6)
O4 O 0.21664(11) 0.16531(7) 0.44164(6)
O5 O -0.05213(10) 0.25869(7) 0.34948(6)
O6 O 0.75260(9) 0.46607(7) 0.24268(6)
N1 N 0.20277(14) 0.77094(9) 0.48257(7)
N2 N 0.16783(12) 0.33527(8) 0.42091(6)
N3 N 0.13737(11) 0.32482(8) 0.26637(6)
C1 C 0.17743(14) 0.44459(9) 0.43850(8)
C2 C 0.29692(14) 0.48621(10) 0.49515(8)
H1 H 0.37240 0.44120 0.52400
C3 C 0.30427(15) 0.59344(10) 0.50881(8)
H2 H 0.38530 0.62260 0.54680
C4 C 0.19336(15) 0.65766(10) 0.46697(8)
C5 C 0.07353(14) 0.61809(10) 0.41084(8)
H3 H -0.00170 0.66360 0.38240
C6 C 0.06601(14) 0.51116(10) 0.39710(8)
H4 H -0.01570 0.48260 0.35920
C7 C 0.22449(14) 0.25965(10) 0.48037(8)
C8 C 0.25755(18) 0.07796(11) 0.49943(9)
H5 H 0.37100 0.07790 0.51370
H6 H 0.22690 0.01220 0.46990
H7 H 0.20240 0.08470 0.55390
C9 C 0.07370(14) 0.30124(9) 0.34308(8)
C10 C 0.04398(15) 0.30167(11) 0.18423(8)
H8 H 0.06270 0.22910 0.16660
H9 H 0.07460 0.34930 0.13770
H10 H -0.06760 0.31120 0.19370
C11 C 0.29518(14) 0.3632(1) 0.26092(8)
C12 C 0.32020(15) 0.46342(10) 0.23008(8)
H11 H 0.23290 0.50700 0.21390
C13 C 0.47174(14) 0.5015(1) 0.22235(8)
H12 H 0.48810 0.57030 0.20080
C14 C 0.59838(14) 0.43728(10) 0.24665(8)
C15 C 0.57421(14) 0.33585(10) 0.27764(8)
H13 H 0.66130 0.29230 0.29410
C16 C 0.42302(15) 0.29905(10) 0.28430(8)
H14 H 0.40630 0.22980 0.30490
C17 C 0.78222(15) 0.57175(11) 0.21719(10)
H15 H 0.73220 0.58490 0.15850
H16 H 0.89560 0.58290 0.21590
H17 H 0.73920 0.62000 0.25980
#END
