
#######################################################################
#
#                 Cambridge Crystallographic Data Centre
#                                CCDC
#
#######################################################################
#
# If this CIF has been generated from an entry in the Cambridge
# Structural Database, then it will include bibliographic, chemical,
# crystal, experimental, refinement or atomic coordinate data resulting
# from the CCDC's data processing and validation procedures.
#
#######################################################################

data_CSD_CIF_YAGKEX
_audit_creation_date 2004-12-09
_audit_creation_method CSD-ConQuest-V1
_database_code_CSD YAGKEX
_database_code_depnum_ccdc_archive 'CCDC 251639'
_chemical_formula_sum 'C18 H16 N2 O4'
_chemical_formula_moiety
;
C18 H16 N2 O4
;
_journal_coeditor_code "IUCr LH6245"
_journal_coden_Cambridge 1370
_journal_volume 60
_journal_year 2004
_journal_page_first o1478
_journal_name_full 'Acta Crystallogr.,Sect.E:Struct.Rep.Online '
loop_
_publ_author_name
"Hai-Bo Wang"
"Jia-Hui Chen"
"Jin-Tang Wang"
_chemical_name_systematic
;
Methyl (2-((3-phenyl-1,2,4-oxadiazol-5-yl)methoxy)phenyl)acetate
;
_chemical_melting_point 354
_cell_volume    802.031
_exptl_crystal_colour 'colorless'
_exptl_crystal_density_diffrn 1.343
_exptl_special_details
;
Melting point range 354-355K
potential biological activity

;
_exptl_crystal_description 'block'
_exptl_crystal_preparation 'ethanol'
_diffrn_ambient_temperature 293
#These two values have been output from a single CSD field.
_refine_ls_R_factor_gt 0.0558
_refine_ls_wR_factor_gt 0.0558
_symmetry_cell_setting triclinic
_symmetry_space_group_name_H-M 'P -1'
_symmetry_Int_Tables_number 2
loop_
_symmetry_equiv_pos_site_id
_symmetry_equiv_pos_as_xyz
1 x,y,z
2 -x,-y,-z
_cell_length_a 8.7850(18)
_cell_length_b 9.848(2)
_cell_length_c 10.345(2)
_cell_angle_alpha 77.90(3)
_cell_angle_beta 79.12(3)
_cell_angle_gamma 67.39(3)
_cell_formula_units_Z 2
loop_
_atom_type_symbol
_atom_type_radius_bond
C 0.68
H 0.23
N 0.68
O 0.68
loop_
_atom_site_label
_atom_site_type_symbol
_atom_site_fract_x
_atom_site_fract_y
_atom_site_fract_z
O1 O 0.2479(3) 0.4841(2) -0.1489(2)
O2 O 0.2278(2) 0.1422(2) 0.05165(18)
O3 O 0.1390(2) -0.0864(3) 0.3905(2)
O4 O 0.3701(2) -0.2030(2) 0.26622(19)
N1 N 0.1397(4) 0.5793(3) -0.2430(3)
N2 N 0.0624(3) 0.3849(3) -0.1466(2)
C1 C -0.2137(5) 0.7279(4) -0.5191(4)
H1 H -0.21430 0.80410 -0.58970
C2 C -0.0981(4) 0.6836(4) -0.4302(3)
H2 H -0.02140 0.73030 -0.44110
C3 C -0.0962(4) 0.5703(3) -0.3254(3)
C4 C -0.2143(4) 0.5058(3) -0.3092(3)
H3 H -0.21610 0.43110 -0.23780
C5 C -0.3303(4) 0.5515(4) -0.3986(4)
H4 H -0.41000 0.50800 -0.38670
C6 C -0.3272(4) 0.6605(4) -0.5039(3)
H5 H -0.40250 0.68890 -0.56560
C7 C 0.0349(4) 0.5142(3) -0.2375(3)
C8 C 0.1926(3) 0.3738(3) -0.0985(3)
C9 C 0.2904(4) 0.2589(3) 0.0044(3)
H6 H 0.40530 0.21750 -0.03370
H7 H 0.28770 0.30600 0.07870
C10 C 0.2695(3) 0.0319(3) -0.0251(2)
C11 C 0.3642(3) 0.0286(3) -0.1483(3)
H8 H 0.40310 0.10540 -0.18570
C12 C 0.4007(4) -0.0896(3) -0.2154(3)
H9 H 0.46600 -0.09310 -0.29750
C13 C 0.3411(4) -0.2019(3) -0.1617(3)
H10 H 0.36460 -0.28040 -0.20790
C14 C 0.2466(4) -0.1981(3) -0.0393(3)
H11 H 0.20630 -0.27440 -0.00370
C15 C 0.2106(3) -0.0829(3) 0.0315(2)
C16 C 0.1145(3) -0.0810(4) 0.1682(3)
H12 H 0.03610 0.01910 0.17540
H13 H 0.05150 -0.14580 0.18010
C17 C 0.2243(3) -0.1305(3) 0.2768(3)
C18 C 0.2333(4) -0.1292(5) 0.5027(3)
H14 H 0.16050 -0.09330 0.57980
H15 H 0.31850 -0.08680 0.48250
H16 H 0.28340 -0.23570 0.52020
#END
