
#######################################################################
#
#                 Cambridge Crystallographic Data Centre
#                                CCDC
#
#######################################################################
#
# If this CIF has been generated from an entry in the Cambridge
# Structural Database, then it will include bibliographic, chemical,
# crystal, experimental, refinement or atomic coordinate data resulting
# from the CCDC's data processing and validation procedures.
#
#######################################################################

data_CSD_CIF_YAGQON
_audit_creation_date 2004-12-09
_audit_creation_method CSD-ConQuest-V1
_database_code_CSD YAGQON
_database_code_depnum_ccdc_archive 'CCDC 247487'
_chemical_formula_sum 'C31 H37 N1 O15'
_chemical_formula_moiety
;
C31 H37 N1 O15
;
_journal_coden_Cambridge 1078
_journal_year 2004
_journal_name_full 'CSD Communication(Private Communication) '
loop_
_publ_author_name
"S.Parsons"
"A.March"
"R.Paton"
"P.A.Wood"
_chemical_name_systematic
;
3-(2,3,4,6-Tetra-O-acetyl-\b-glucopyranosyl)-5-(6-benzoyloxy-2,2-dimethyltetra
hydrofuro(2,3-d)(1,3)dioxol-5-yl)-4,5-dihydroisoxazole
;
_cell_volume   1771.349
_exptl_crystal_colour 'colorless'
_exptl_crystal_density_diffrn 1.244
_exptl_special_details
;
contribution from School of Chemistry, The University of Edinburgh King's 
Buildings, West Mains Road, Edinburgh, Scotland EH9 3JJ
;
_exptl_crystal_description 'needle'
_exptl_crystal_preparation 'pentane/dichloromethane/ethyl acetate'
_diffrn_ambient_temperature 150
_diffrn_radiation_probe x-ray
_diffrn_source synchrotron
#These two values have been output from a single CSD field.
_refine_ls_R_factor_gt 0.0484
_refine_ls_wR_factor_gt 0.0484
_symmetry_cell_setting monoclinic
_symmetry_space_group_name_H-M 'P 21'
_symmetry_Int_Tables_number 4
loop_
_symmetry_equiv_pos_site_id
_symmetry_equiv_pos_as_xyz
1 x,y,z
2 -x,1/2+y,-z
_cell_length_a 5.4529(3)
_cell_length_b 12.3525(6)
_cell_length_c 26.2982(13)
_cell_angle_alpha 90
_cell_angle_beta 90.255(1)
_cell_angle_gamma 90
_cell_formula_units_Z 2
loop_
_atom_type_symbol
_atom_type_radius_bond
C 0.68
H 0.23
N 0.68
O 0.68
loop_
_atom_site_label
_atom_site_type_symbol
_atom_site_fract_x
_atom_site_fract_y
_atom_site_fract_z
O1 O 1.2619(3) 1.25470(13) 0.66105(6)
C1 C 1.3486(4) 1.15220(18) 0.64713(8)
H1 H 1.52290 1.15540 0.63560
O2 O 0.9840(3) 1.19273(13) 0.60408(6)
C2 C 1.1758(5) 1.11476(19) 0.60383(8)
H2 H 1.26000 1.10930 0.57020
C3 C 1.0746(4) 1.00669(18) 0.62232(7)
H3 H 0.90180 0.99400 0.61090
O3 O 1.3188(3) 1.07774(13) 0.68733(5)
C4 C 1.0962(4) 1.01894(17) 0.67983(7)
H4 H 0.95470 1.06210 0.69290
O4 O 0.8997(3) 0.84910(13) 0.69648(5)
C5 C 1.1162(4) 0.91416(17) 0.70880(7)
H5 H 1.26880 0.87470 0.69890
C6 C 1.1061(4) 0.92772(18) 0.76631(7)
H6 H 1.23250 0.88330 0.78360
H7 H 1.12590 1.00440 0.77640
C7 C 0.8542(4) 0.88748(16) 0.77715(7)
N1 N 0.7443(4) 0.84419(14) 0.73921(6)
O5 O 0.6902(3) 1.00865(10) 0.83596(5)
C8 C 0.7263(4) 0.89586(15) 0.82697(7)
H8 H 0.56350 0.85890 0.82460
C9 C 0.8739(3) 0.84760(15) 0.87120(7)
H9 H 1.04510 0.87670 0.87120
C10 C 0.7520(3) 0.87088(15) 0.92128(7)
H10 H 0.60120 0.82550 0.92490
C11 C 0.6878(4) 0.99033(15) 0.92693(7)
H11 H 0.83970 1.03440 0.93200
C12 C 0.5464(4) 1.02941(15) 0.87997(7)
H12 H 0.38750 0.98940 0.87730
C13 C 0.4978(4) 1.14829(16) 0.88119(8)
H13 H 0.44320 1.17060 0.91550
H14 H 0.64840 1.18900 0.87260
C14 C 1.0881(5) 1.29126(19) 0.62371(9)
O6 O 1.2364(3) 0.92062(13) 0.60786(5)
O7 O 1.0283(4) 0.90133(15) 0.53519(6)
C15 C 1.1836(5) 0.87026(18) 0.56377(7)
C16 C 1.3396(5) 0.7735(2) 0.55629(8)
C17 C 1.2761(5) 0.7007(2) 0.51810(8)
H15 H 1.13880 0.71520 0.49680
C18 C 1.4111(6) 0.6079(2) 0.51099(9)
H16 H 1.36520 0.55800 0.48510
C19 C 1.6114(6) 0.5870(2) 0.54104(11)
H17 H 1.70610 0.52370 0.53530
C20 C 1.6767(6) 0.6574(2) 0.57949(11)
H18 H 1.81410 0.64200 0.60060
C21 C 1.5403(5) 0.7508(2) 0.58715(10)
H19 H 1.58440 0.79940 0.61370
O8 O 0.8761(2) 0.73238(10) 0.86411(5)
C22 C 1.0952(4) 0.68356(17) 0.85703(8)
O9 O 1.2840(3) 0.73074(15) 0.85775(9)
C23 C 1.0618(5) 0.5652(2) 0.84913(10)
H20 H 0.88660 0.54760 0.84990
H21 H 1.14700 0.52540 0.87620
H22 H 1.12990 0.54450 0.81610
O10 O 0.9267(2) 0.84407(11) 0.96060(5)
C24 C 0.8410(4) 0.79212(15) 1.00237(7)
O11 O 0.6375(3) 0.75840(13) 1.00608(6)
C25 C 1.0361(4) 0.78709(17) 1.04237(7)
H23 H 1.18630 0.82080 1.02950
H24 H 1.06920 0.71130 1.05100
H25 H 0.98090 0.82580 1.07280
O12 O 0.5266(2) 1.00185(11) 0.96970(5)
C26 C 0.6228(4) 1.04088(16) 1.01396(7)
O13 O 0.8318(3) 1.06977(15) 1.01814(5)
C27 C 0.4368(4) 1.03864(18) 1.05523(7)
H26 H 0.28180 1.01010 1.04180
H27 H 0.41100 1.11220 1.06810
H28 H 0.49520 0.99220 1.08300
O14 O 0.3080(3) 1.16944(13) 0.84411(6)
C28 C 0.2922(6) 1.2713(2) 0.82721(9)
O15 O 0.4207(6) 1.34235(16) 0.84252(10)
C29 C 0.0896(7) 1.2808(3) 0.78778(10)
H29 H 0.07700 1.35610 0.77630
H30 H -0.06640 1.25830 0.80280
H31 H 0.12730 1.23420 0.75870
C30 C 0.8889(6) 1.3523(2) 0.65090(13)
H32 H 0.95570 1.42020 0.66440
H33 H 0.82630 1.30820 0.67900
H34 H 0.75520 1.36840 0.62700
C31 C 1.2197(6) 1.3523(3) 0.58252(11)
H35 H 1.28610 1.41980 0.59650
H36 H 1.10470 1.36890 0.55490
H37 H 1.35420 1.30780 0.56940
#END
