
#######################################################################
#
#                 Cambridge Crystallographic Data Centre
#                                CCDC
#
#######################################################################
#
# If this CIF has been generated from an entry in the Cambridge
# Structural Database, then it will include bibliographic, chemical,
# crystal, experimental, refinement or atomic coordinate data resulting
# from the CCDC's data processing and validation procedures.
#
#######################################################################

data_CSD_CIF_YAGYOU
_audit_creation_date 1993-04-29
_audit_creation_method CSD-ConQuest-V1
_database_code_CSD YAGYOU
_database_code_depnum_ccdc_archive 'CCDC 1298763'
_database_code_depnum_ccdc_fiz 'CSD 56184'
_chemical_formula_sum 'C16 H12 N4 O2'
_chemical_formula_moiety
;
C16 H12 N4 O2
;
_journal_coden_Cambridge 167
_journal_year 1992
_journal_page_first 547
_journal_name_full 'Liebigs Ann. '
loop_
_publ_author_name
"J.Lange"
"J.Karolak-Wojciechowska"
"H.Tondys"
_chemical_name_systematic
;
4,5-Dihydro-4,7-diphenylfurazano(3,4-d)pyridazine 1-oxide
;
_chemical_melting_point 417.15
_cell_volume    696.366
_exptl_crystal_colour 'greenish-yellow'
_exptl_crystal_density_diffrn 1.394
_exptl_special_details
;
Melting point range 417.15-418.15K

;
_diffrn_ambient_temperature ?
_diffrn_special_details
;
The study was carried out at room temperature,in the range 283-303K

;
#These two values have been output from a single CSD field.
_refine_ls_R_factor_gt 0.0495
_refine_ls_wR_factor_gt 0.0495
_symmetry_cell_setting triclinic
_symmetry_space_group_name_H-M 'P -1'
_symmetry_Int_Tables_number 2
loop_
_symmetry_equiv_pos_site_id
_symmetry_equiv_pos_as_xyz
1 x,y,z
2 -x,-y,-z
_cell_length_a 7.8337(5)
_cell_length_b 8.3097(9)
_cell_length_c 12.0461(13)
_cell_angle_alpha 79.887(8)
_cell_angle_beta 84.011(7)
_cell_angle_gamma 64.494(7)
_cell_formula_units_Z 2
loop_
_atom_type_symbol
_atom_type_radius_bond
C 0.68
H 0.23
N 0.68
O 0.68
loop_
_atom_site_label
_atom_site_type_symbol
_atom_site_fract_x
_atom_site_fract_y
_atom_site_fract_z
O1 O 0.2190(3) 0.6644(3) 0.2049(2)
O2 O 0.4165(3) 0.5243(3) 0.3532(2)
N1 N 0.3818(3) 0.6090(3) 0.2349(2)
N2 N 0.6083(3) 0.4597(4) 0.3704(2)
N3 N 0.9087(3) 0.4356(4) 0.1263(2)
N4 N 0.7847(3) 0.5599(3) 0.0474(2)
C1 C 0.6812(4) 0.5035(4) 0.2739(2)
C2 C 0.8841(4) 0.4651(4) 0.2455(2)
C3 C 0.6058(3) 0.6412(4) 0.0741(2)
C4 C 0.5472(3) 0.5971(4) 0.1890(2)
C5 C 1.0217(4) 0.3020(4) 0.3196(2)
C6 C 1.1149(4) 0.3319(5) 0.4011(3)
C7 C 1.2328(5) 0.1830(7) 0.4743(3)
C8 C 1.2540(5) 0.0155(6) 0.4661(3)
C9 C 1.1651(5) -0.0138(5) 0.3852(4)
C10 C 1.0469(4) 0.1301(5) 0.3108(3)
C11 C 0.4789(3) 0.7732(4) -0.0139(2)
C12 C 0.3114(4) 0.9140(4) 0.0143(3)
C13 C 0.1976(4) 1.0396(4) -0.0696(3)
C14 C 0.2499(5) 1.0244(5) -0.1812(3)
C15 C 0.4172(5) 0.8880(5) -0.2105(3)
C16 C 0.5306(4) 0.7606(4) -0.1264(3)
H1 H 0.905(4) 0.590(4) 0.259(2)
H2 H 1.020(4) 0.403(4) 0.097(3)
H3 H 1.091(5) 0.459(5) 0.411(3)
H4 H 1.289(5) 0.219(5) 0.530(3)
H5 H 1.344(5) -0.089(5) 0.521(3)
H6 H 1.168(5) -0.128(5) 0.377(3)
H7 H 0.978(5) 0.112(4) 0.251(3)
H8 H 0.276(4) 0.929(4) 0.092(2)
H9 H 0.079(4) 1.131(4) -0.048(3)
H10 H 0.179(5) 1.107(4) -0.242(3)
H11 H 0.452(5) 0.873(4) -0.290(3)
H12 H 0.646(4) 0.670(4) -0.147(3)
#END
