
#######################################################################
#
#                 Cambridge Crystallographic Data Centre
#                                CCDC
#
#######################################################################
#
# If this CIF has been generated from an entry in the Cambridge
# Structural Database, then it will include bibliographic, chemical,
# crystal, experimental, refinement or atomic coordinate data resulting
# from the CCDC's data processing and validation procedures.
#
#######################################################################

data_CSD_CIF_YAHJOH
_audit_creation_date 2004-12-09
_audit_creation_method CSD-ConQuest-V1
_database_code_CSD YAHJOH
_database_code_depnum_ccdc_archive 'CCDC 255123'
_chemical_formula_sum 'C7 H5 N3 O6'
_chemical_formula_moiety
;
C7 H5 N3 O6
;
_journal_coeditor_code "IUCr NA5014"
_journal_coden_Cambridge 622
_journal_volume 60
_journal_year 2004
_journal_page_first 609
_journal_name_full 'Acta Crystallogr.,Sect.B:Struct.Sci. '
loop_
_publ_author_name
"F.Demartin"
"G.Filippini"
"A.Gavezzotti"
"S.Rizzato"
_chemical_name_systematic
;
2,3,4-Trinitrotoluene
;
_cell_volume    461.399
_exptl_crystal_colour 'light yellow'
_exptl_crystal_density_diffrn 1.635
_exptl_crystal_description 'column'
_diffrn_ambient_temperature 293
#These two values have been output from a single CSD field.
_refine_ls_R_factor_gt 0.0368
_refine_ls_wR_factor_gt 0.0368
_symmetry_cell_setting triclinic
_symmetry_space_group_name_H-M 'P -1'
_symmetry_Int_Tables_number 2
loop_
_symmetry_equiv_pos_site_id
_symmetry_equiv_pos_as_xyz
1 x,y,z
2 -x,-y,-z
_cell_length_a 7.700(2)
_cell_length_b 8.329(2)
_cell_length_c 8.694(2)
_cell_angle_alpha 87.89(1)
_cell_angle_beta 65.10(1)
_cell_angle_gamma 67.33(1)
_cell_formula_units_Z 2
loop_
_atom_type_symbol
_atom_type_radius_bond
C 0.68
H 0.23
N 0.68
O 0.68
loop_
_atom_site_label
_atom_site_type_symbol
_atom_site_fract_x
_atom_site_fract_y
_atom_site_fract_z
C1 C 0.5306(3) 0.2715(3) 0.7162(3)
C2 C 0.4326(3) 0.2750(3) 0.6125(3)
C3 C 0.5364(3) 0.2471(3) 0.4362(3)
C4 C 0.7444(3) 0.2201(3) 0.3578(3)
C5 C 0.8458(4) 0.2176(3) 0.4567(4)
H1 H 0.98640 0.19910 0.40430
C6 C 0.7398(4) 0.2422(3) 0.6318(3)
H2 H 0.81130 0.23900 0.69620
C7 C 0.4228(4) 0.2909(4) 0.9079(3)
H3 H 0.27900 0.31050 0.94460
H4 H 0.42860 0.38910 0.95680
H5 H 0.49160 0.18550 0.94520
N1 N 0.2113(3) 0.3027(3) 0.6933(3)
O1 O 0.0856(3) 0.4387(3) 0.7903(3)
O2 O 0.1696(3) 0.1866(3) 0.6560(3)
N2 N 0.4223(3) 0.2403(3) 0.3377(3)
O3 O 0.2715(3) 0.3729(3) 0.3544(3)
O4 O 0.4827(3) 0.1017(3) 0.2528(3)
N3 N 0.8586(4) 0.2005(3) 0.1702(3)
O5 O 0.7567(4) 0.2705(3) 0.0919(3)
O6 O 1.0476(4) 0.1175(3) 0.1069(3)
#END
