
#######################################################################
#
#                 Cambridge Crystallographic Data Centre
#                                CCDC
#
#######################################################################
#
# If this CIF has been generated from an entry in the Cambridge
# Structural Database, then it will include bibliographic, chemical,
# crystal, experimental, refinement or atomic coordinate data resulting
# from the CCDC's data processing and validation procedures.
#
#######################################################################

data_CSD_CIF_YAHQAB
_audit_creation_date 2011-11-29
_audit_creation_method CSD-ConQuest-V1
_database_code_CSD YAHQAB
_database_code_depnum_ccdc_archive 'CCDC 852289'
_chemical_formula_sum 'C4 H5 N3 O2'
_chemical_formula_moiety
;
C4 H5 N3 O2
;
_journal_coeditor_code "IUCr XU5346"
_journal_coden_Cambridge 1370
_journal_volume 67
_journal_year 2011
_journal_page_first o3072
_journal_name_full 'Acta Crystallogr.,Sect.E:Struct.Rep.Online '
loop_
_publ_author_name
"Ying Diao"
"Wen-Yan Wang"
"Zhi-Hua Wei"
"Jian-Long Wang"
_chemical_name_systematic
;
1-Methyl-5-nitro-1H-imidazole
;
_cell_volume   1078.096
_exptl_crystal_colour 'colorless'
_exptl_crystal_density_diffrn 1.566
_exptl_crystal_description 'prism'
_diffrn_ambient_temperature 113
#These two values have been output from a single CSD field.
_refine_ls_R_factor_gt 0.0359
_refine_ls_wR_factor_gt 0.0359
_symmetry_cell_setting orthorhombic
_symmetry_space_group_name_H-M 'P b c a'
_symmetry_Int_Tables_number 61
loop_
_symmetry_equiv_pos_site_id
_symmetry_equiv_pos_as_xyz
1 x,y,z
2 1/2-x,-y,1/2+z
3 -x,1/2+y,1/2-z
4 1/2+x,1/2-y,-z
5 -x,-y,-z
6 -1/2+x,y,-1/2-z
7 x,-1/2-y,-1/2+z
8 -1/2-x,-1/2+y,z
_cell_length_a 5.323(3)
_cell_length_b 12.664(6)
_cell_length_c 15.993(8)
_cell_angle_alpha 90
_cell_angle_beta 90
_cell_angle_gamma 90
_cell_formula_units_Z 8
loop_
_atom_type_symbol
_atom_type_radius_bond
C 0.68
H 0.23
N 0.68
O 0.68
loop_
_atom_site_label
_atom_site_type_symbol
_atom_site_fract_x
_atom_site_fract_y
_atom_site_fract_z
O1 O 1.21610(15) 0.62227(7) 0.20073(5)
O2 O 1.10195(15) 0.47117(7) 0.14851(6)
N1 N 0.54173(19) 0.64301(8) 0.03187(6)
N2 N 0.80463(17) 0.72006(7) 0.12271(6)
N3 N 1.07644(17) 0.56758(8) 0.15745(6)
C1 C 0.6053(2) 0.73142(10) 0.07171(7)
H1 H 0.51830 0.79630 0.06480
C2 C 0.7109(2) 0.56985(9) 0.05864(7)
H2 H 0.71520 0.49800 0.04160
C3 C 0.87376(19) 0.61580(9) 0.11396(7)
C4 C 0.9175(2) 0.80490(9) 0.17239(7)
H3 H 1.08420 0.82170 0.15010
H4 H 0.93320 0.78190 0.23070
H5 H 0.81050 0.86780 0.16960
#END
