
#######################################################################
#
#                 Cambridge Crystallographic Data Centre
#                                CCDC
#
#######################################################################
#
# If this CIF has been generated from an entry in the Cambridge
# Structural Database, then it will include bibliographic, chemical,
# crystal, experimental, refinement or atomic coordinate data resulting
# from the CCDC's data processing and validation procedures.
#
#######################################################################

data_CSD_CIF_YAHQUU
_audit_creation_date 2005-07-12
_audit_creation_method CSD-ConQuest-V1
_database_code_CSD YAHQUU
_database_code_depnum_ccdc_archive 'CCDC 252127'
_chemical_formula_sum 'C16 H21 N1 O5'
_chemical_formula_moiety
;
C16 H21 N1 O5
;
_journal_coden_Cambridge 24
_journal_volume 46
_journal_year 2005
_journal_page_first 307
_journal_name_full 'Tetrahedron Lett. '
loop_
_publ_author_name
"D.M.Laventine"
"M.Davies"
"E.L.Evinson"
"P.R.Jenkins"
"P.M.Cullis"
"J.Fawcett"
_chemical_name_systematic
;
6-Methoxy-2-phenyloctahydro-7H-(1,3)dioxino(4',5':5,6)pyrano-(3,4-b)pyrrol-7-o
l
;
_cell_volume   1586.716
_exptl_crystal_colour 'colorless'
_exptl_crystal_density_diffrn 1.287
_exptl_special_details
;
weak inhibitor of beta-galactosidase

;
_exptl_crystal_description 'plate'
_diffrn_ambient_temperature 210
#These two values have been output from a single CSD field.
_refine_ls_R_factor_gt 0.0412
_refine_ls_wR_factor_gt 0.0412
_symmetry_cell_setting monoclinic
_symmetry_space_group_name_H-M 'P 21'
_symmetry_Int_Tables_number 4
loop_
_symmetry_equiv_pos_site_id
_symmetry_equiv_pos_as_xyz
1 x,y,z
2 -x,1/2+y,-z
_cell_length_a 11.8679(15)
_cell_length_b 8.1933(13)
_cell_length_c 16.417(2)
_cell_angle_alpha 90
_cell_angle_beta 96.296(11)
_cell_angle_gamma 90
_cell_formula_units_Z 4
loop_
_atom_type_symbol
_atom_type_radius_bond
C 0.68
H 0.23
N 0.68
O 0.68
loop_
_atom_site_label
_atom_site_type_symbol
_atom_site_fract_x
_atom_site_fract_y
_atom_site_fract_z
O1 O 0.51432(19) 0.3601(3) 0.23292(13)
O2 O 0.66832(19) 0.4522(3) 0.16725(13)
O3 O 0.76951(18) 0.1406(3) 0.31428(14)
O4 O 0.7115(2) -0.1220(4) 0.27289(15)
O5 O 0.6576(2) -0.0609(4) 0.50528(15)
H1 H 0.70450 -0.00030 0.54100
N1 N 0.6121(2) 0.0695(4) 0.45112(16)
C1 C 0.7245(3) -0.0105(5) 0.3381(2)
H2 H 0.77660 -0.05730 0.38240
C2 C 0.8140(3) -0.1545(6) 0.2366(2)
H3 H 0.79860 -0.23130 0.19260
H4 H 0.86980 -0.19920 0.27720
H5 H 0.84200 -0.05480 0.21560
C3 C 0.6078(3) 0.0039(5) 0.36731(19)
H6 H 0.57280 -0.10450 0.36600
C4 C 0.4912(3) 0.0929(5) 0.4623(2)
H7 H 0.48270 0.16570 0.50780
H8 H 0.45500 -0.01040 0.47190
C5 C 0.4413(3) 0.1684(5) 0.38123(19)
H9 H 0.43510 0.28590 0.38620
H10 H 0.36680 0.12370 0.36400
C6 C 0.5257(3) 0.1232(5) 0.31950(19)
H11 H 0.48550 0.06780 0.27200
C7 C 0.5883(3) 0.2694(5) 0.29162(19)
H12 H 0.61070 0.33930 0.33910
C8 C 0.5699(3) 0.4984(5) 0.2041(2)
H13 H 0.59110 0.57370 0.24960
C9 C 0.7488(3) 0.3698(5) 0.2234(2)
H14 H 0.77390 0.44080 0.26910
H15 H 0.81440 0.33900 0.19640
C10 C 0.6929(3) 0.2203(5) 0.2535(2)
H16 H 0.67220 0.14580 0.20760
C11 C 0.49170(18) 0.5816(3) 0.14007(12)
C12 C 0.4853(2) 0.7510(3) 0.13750(16)
H17 H 0.52880 0.81300 0.17670
C13 C 0.4147(3) 0.8270(3) 0.0769(2)
H18 H 0.41170 0.94040 0.07490
C14 C 0.3486(2) 0.7373(5) 0.01959(16)
H19 H 0.30030 0.78930 -0.02070
C15 C 0.3545(2) 0.5721(4) 0.02213(14)
H20 H 0.30970 0.51030 -0.01640
C16 C 0.4270(2) 0.4952(3) 0.08194(17)
H21 H 0.43150 0.38190 0.08230
O6 O 0.1158(2) 0.3680(3) 0.19620(12)
O7 O 0.0486(2) 0.1221(4) 0.24411(13)
O8 O 0.0732(2) 0.4188(3) 0.41106(13)
O9 O -0.0588(2) 0.6322(4) 0.39372(14)
O10 O 0.2634(2) 0.8050(4) 0.45383(16)
H22 H 0.29750 0.74990 0.49660
N2 N 0.2443(2) 0.6846(4) 0.38901(16)
C17 C 0.0548(3) 0.5892(5) 0.4163(2)
H23 H 0.07660 0.62450 0.47290
C18 C -0.1353(3) 0.5654(8) 0.4469(2)
H24 H -0.21130 0.59900 0.42840
H25 H -0.11490 0.60410 0.50170
H26 H -0.13080 0.44850 0.44610
C19 C 0.1227(3) 0.6871(5) 0.35940(19)
H27 H 0.09550 0.80010 0.35640
C20 C 0.3039(4) 0.7408(7) 0.3188(2)
H28 H 0.37570 0.68450 0.31840
H29 H 0.31830 0.85730 0.32270
C21 C 0.2260(3) 0.7018(5) 0.2416(2)
H30 H 0.26300 0.62910 0.20610
H31 H 0.20360 0.80060 0.21150
C22 C 0.1229(3) 0.6185(5) 0.27282(19)
H32 H 0.05310 0.64890 0.23870
C23 C 0.1351(3) 0.4349(5) 0.27708(19)
H33 H 0.21210 0.40720 0.30090
C24 C 0.1284(3) 0.1956(5) 0.1979(2)
H34 H 0.20520 0.16760 0.22200
C25 C 0.0614(3) 0.1767(5) 0.3279(2)
H35 H 0.13500 0.14430 0.35450
H36 H 0.00340 0.12790 0.35730
C26 C 0.0507(3) 0.3602(5) 0.32862(19)
H37 H -0.02630 0.39150 0.30640
C27 C 0.1117(2) 0.1383(4) 0.11125(10)
C28 C 0.0092(2) 0.0765(4) 0.07490(15)
H38 H -0.05100 0.06210 0.10600
C29 C -0.0034(2) 0.0365(5) -0.00745(16)
H39 H -0.07270 -0.00270 -0.03170
C30 C 0.0845(3) 0.0539(5) -0.05317(11)
H40 H 0.07560 0.02490 -0.10830
C31 C 0.1850(2) 0.1134(5) -0.01856(14)
H41 H 0.24490 0.12630 -0.05010
C32 C 0.19895(18) 0.1551(4) 0.06370(14)
H42 H 0.26850 0.19500 0.08700
#END
