
#######################################################################
#
#                 Cambridge Crystallographic Data Centre
#                                CCDC
#
#######################################################################
#
# If this CIF has been generated from an entry in the Cambridge
# Structural Database, then it will include bibliographic, chemical,
# crystal, experimental, refinement or atomic coordinate data resulting
# from the CCDC's data processing and validation procedures.
#
#######################################################################

data_CSD_CIF_YAHREG
_audit_creation_date 2011-12-12
_audit_creation_method CSD-ConQuest-V1
_database_code_CSD YAHREG
_database_code_depnum_ccdc_archive 'CCDC 852295'
_chemical_formula_sum 'C15 H10 N2 O3'
_chemical_formula_moiety
;
C15 H10 N2 O3
;
_journal_coeditor_code "IUCr HG5118"
_journal_coden_Cambridge 1370
_journal_volume 67
_journal_year 2011
_journal_page_first o3079
_journal_name_full 'Acta Crystallogr.,Sect.E:Struct.Rep.Online '
loop_
_publ_author_name
"S.B.Nasir"
"Z.A.Fairuz"
"Z.Abdullah"
"S.W.Ng"
"E.R.T.Tiekink"
_chemical_name_systematic
;
2-(Naphthalen-2-yloxy)-5-nitropyridine
;
_cell_volume   1262.857
_exptl_crystal_colour 'colorless'
_exptl_crystal_density_diffrn 1.4
_exptl_crystal_description 'block'
_diffrn_ambient_temperature 293
#These two values have been output from a single CSD field.
_refine_ls_R_factor_gt 0.0544
_refine_ls_wR_factor_gt 0.0544
_symmetry_cell_setting monoclinic
_symmetry_space_group_name_H-M 'P 21/c'
_symmetry_Int_Tables_number 14
loop_
_symmetry_equiv_pos_site_id
_symmetry_equiv_pos_as_xyz
1 x,y,z
2 -x,1/2+y,1/2-z
3 -x,-y,-z
4 x,-1/2-y,-1/2+z
_cell_length_a 6.7389(12)
_cell_length_b 8.9182(16)
_cell_length_c 21.072(4)
_cell_angle_alpha 90
_cell_angle_beta 94.289(3)
_cell_angle_gamma 90
_cell_formula_units_Z 4
loop_
_atom_type_symbol
_atom_type_radius_bond
C 0.68
H 0.23
N 0.68
O 0.68
loop_
_atom_site_label
_atom_site_type_symbol
_atom_site_fract_x
_atom_site_fract_y
_atom_site_fract_z
O1 O 0.5816(3) 0.6709(3) 0.69203(11)
O2 O 0.8327(5) 0.2782(3) 0.47200(13)
O3 O 0.5363(6) 0.1958(4) 0.48260(14)
N1 N 0.4532(4) 0.4809(3) 0.62772(12)
N2 N 0.6776(7) 0.2766(4) 0.49811(14)
C1 C 0.6029(5) 0.5686(4) 0.64546(14)
C2 C 0.7856(5) 0.5678(4) 0.61964(15)
H1 H 0.88680 0.63230 0.63470
C3 C 0.8131(5) 0.4702(4) 0.57165(15)
H2 H 0.93390 0.46530 0.55310
C4 C 0.6578(6) 0.3793(3) 0.55143(13)
C5 C 0.4845(6) 0.3863(3) 0.58025(15)
H3 H 0.38190 0.32190 0.56620
C6 C 0.41265(19) 0.58487(18) 0.78172(8)
H4 H 0.52130 0.52460 0.79410
C7 C 0.4128(2) 0.6695(2) 0.72633(7)
C8 C 0.2505(3) 0.75959(18) 0.70776(6)
H5 H 0.25060 0.81620 0.67070
C9 C 0.0879(2) 0.76505(16) 0.74459(7)
H6 H -0.02080 0.82530 0.73220
C10 C 0.08767(17) 0.68042(13) 0.79997(6)
C11 C 0.25006(17) 0.59033(13) 0.81854(6)
C12 C 0.2499(3) 0.50569(17) 0.87393(7)
H7 H 0.35850 0.44540 0.88630
C13 C 0.0873(3) 0.5111(2) 0.91075(7)
H8 H 0.08720 0.45450 0.94780
C14 C -0.0751(3) 0.6012(2) 0.89219(8)
H9 H -0.18390 0.60490 0.91680
C15 C -0.07492(19) 0.6859(2) 0.83680(9)
H10 H -0.18360 0.74610 0.82440
#END
