
#######################################################################
#
#                 Cambridge Crystallographic Data Centre
#                                CCDC
#
#######################################################################
#
# If this CIF has been generated from an entry in the Cambridge
# Structural Database, then it will include bibliographic, chemical,
# crystal, experimental, refinement or atomic coordinate data resulting
# from the CCDC's data processing and validation procedures.
#
#######################################################################

data_CSD_CIF_YAHRUW
_audit_creation_date 2011-12-12
_audit_creation_method CSD-ConQuest-V1
_database_code_CSD YAHRUW
_database_code_depnum_ccdc_archive 'CCDC 852298'
_chemical_formula_sum 'C14 H11 N5 O6'
_chemical_formula_moiety
;
C14 H11 N5 O6
;
_journal_coeditor_code "IUCr RZ2643"
_journal_coden_Cambridge 1370
_journal_volume 67
_journal_year 2011
_journal_page_first o3084
_journal_name_full 'Acta Crystallogr.,Sect.E:Struct.Rep.Online '
loop_
_publ_author_name
"B.Nilwanna"
"S.Chantrapromma"
"P.Jansrisewangwong"
"H.-K.Fun"
_chemical_name_systematic
;
(E)-1-(2,4-Dinitrophenyl)-2-[1-(2-nitrophenyl)ethylidene]hydrazine
;
_cell_volume   1456.609
_exptl_crystal_colour 'yellow'
_exptl_crystal_density_diffrn 1.574
_exptl_crystal_description 'block'
_exptl_crystal_preparation 'ethanol'
_diffrn_ambient_temperature 100
#These two values have been output from a single CSD field.
_refine_ls_R_factor_gt 0.0405
_refine_ls_wR_factor_gt 0.0405
_symmetry_cell_setting monoclinic
_symmetry_space_group_name_H-M 'P 21/c'
_symmetry_Int_Tables_number 14
loop_
_symmetry_equiv_pos_site_id
_symmetry_equiv_pos_as_xyz
1 x,y,z
2 -x,1/2+y,1/2-z
3 -x,-y,-z
4 x,-1/2-y,-1/2+z
_cell_length_a 11.9313(9)
_cell_length_b 8.6700(7)
_cell_length_c 15.2363(9)
_cell_angle_alpha 90
_cell_angle_beta 112.455(5)
_cell_angle_gamma 90
_cell_formula_units_Z 4
loop_
_atom_type_symbol
_atom_type_radius_bond
C 0.68
H 0.23
N 0.68
O 0.68
loop_
_atom_site_label
_atom_site_type_symbol
_atom_site_fract_x
_atom_site_fract_y
_atom_site_fract_z
O1 O 1.32132(8) 0.59779(12) 0.77977(6)
O2 O 1.14527(9) 0.70362(12) 0.74461(6)
O3 O 1.44309(8) 0.36901(13) 0.55130(7)
O4 O 1.33701(8) 0.39821(12) 0.40099(6)
O5 O 0.76820(8) 0.73691(11) 0.30121(6)
O6 O 0.87386(8) 0.93847(12) 0.29701(6)
N1 N 1.01173(9) 0.76742(13) 0.56858(7)
H1 H 1.02520 0.78600 0.62830
N2 N 0.91649(9) 0.83451(13) 0.49714(7)
N3 N 1.22384(9) 0.64213(13) 0.72129(7)
N4 N 1.35479(9) 0.42076(13) 0.48519(7)
N5 N 0.79296(9) 0.87393(13) 0.31434(7)
C1 C 1.09536(10) 0.68522(15) 0.54842(8)
C2 C 1.19951(11) 0.62140(14) 0.62097(8)
C3 C 1.28425(10) 0.53651(14) 0.59994(8)
H2 H 1.35230 0.49660 0.64830
C4 C 1.26628(10) 0.51219(15) 0.50638(8)
C5 C 1.16558(11) 0.57308(15) 0.43212(8)
H3 H 1.15550 0.55600 0.36930
C6 C 1.08201(11) 0.65806(16) 0.45296(8)
H4 H 1.01530 0.69870 0.40370
C7 C 0.83449(11) 0.89627(15) 0.52181(8)
C8 C 0.73396(10) 0.97562(15) 0.44578(8)
C9 C 0.71612(10) 0.97024(14) 0.34927(8)
C10 C 0.62471(11) 1.04965(15) 0.27935(9)
H5 H 0.61650 1.04300 0.21630
C11 C 0.54516(11) 1.13956(16) 0.30456(10)
H6 H 0.48350 1.19420 0.25850
C12 C 0.55861(11) 1.14699(17) 0.39886(10)
H7 H 0.50480 1.20560 0.41590
C13 C 0.65176(11) 1.06765(16) 0.46806(9)
H8 H 0.66000 1.07570 0.53110
C14 C 0.83892(12) 0.89321(17) 0.62186(9)
H9 H 0.87080 0.79590 0.65070
H10 H 0.75860 0.90670 0.62090
H11 H 0.89020 0.97500 0.65780
#END
