
#######################################################################
#
#                 Cambridge Crystallographic Data Centre
#                                CCDC
#
#######################################################################
#
# If this CIF has been generated from an entry in the Cambridge
# Structural Database, then it will include bibliographic, chemical,
# crystal, experimental, refinement or atomic coordinate data resulting
# from the CCDC's data processing and validation procedures.
#
#######################################################################

data_CSD_CIF_YAHYIP
_audit_creation_date 1993-06-03
_audit_creation_method CSD-ConQuest-V1
_database_code_CSD YAHYIP
_chemical_formula_sum 'C24 H23 N3 O1'
_chemical_formula_moiety
;
C24 H23 N3 O1
;
_journal_coden_Cambridge 207
_journal_year 1992
_journal_page_first 3069
_journal_name_full 'J.Chem.Soc.,Perkin Trans.1 '
loop_
_publ_author_name
"D.Korbonits"
"E.Tobias-Heja"
"K.Simon"
"G.Kramer"
"P.Kolonits"
_chemical_name_systematic
;
trans-6-Benzyl-3,5-diphenyl-5,6,7,8-tetrahydro-3H-(1,2,4)-oxadiazolo(4,3-c)pyr
imidine
;
_chemical_melting_point 380.15
_cell_volume    987.711
_exptl_crystal_colour 'white'
_exptl_crystal_density_diffrn 1.22
_exptl_special_details
;
Melting point range 380.15-382.15K

;
_diffrn_ambient_temperature ?
_diffrn_special_details
;
The study was carried out at room temperature,in the range 283-303K

;
#These two values have been output from a single CSD field.
_refine_ls_R_factor_gt 0.046
_refine_ls_wR_factor_gt 0.046
loop_
_citation_database_id_CSD
_citation_special_details
YAHYUB "is a stereoisomer of this entry"
YAHYIP01 "is a reinterpretation of this cif"
_symmetry_cell_setting triclinic
_symmetry_space_group_name_H-M 'P 1'
_symmetry_Int_Tables_number 1
loop_
_symmetry_equiv_pos_site_id
_symmetry_equiv_pos_as_xyz
1 x,y,z
_cell_length_a 5.947(1)
_cell_length_b 10.193(1)
_cell_length_c 17.533(2)
_cell_angle_alpha 96.14(1)
_cell_angle_beta 99.77(1)
_cell_angle_gamma 107.00(1)
_cell_formula_units_Z 2
loop_
_atom_type_symbol
_atom_type_radius_bond
C 0.68
H 0.23
N 0.68
O 0.68
loop_
_atom_site_label
_atom_site_type_symbol
_atom_site_fract_x
_atom_site_fract_y
_atom_site_fract_z
N1 N -0.1735(5) 0.6528(3) 0.0763(2)
O1 O -0.22190 0.75420 0.02930
C1 C -0.0185(6) 0.8805(4) 0.0493(2)
N2 N 0.1251(5) 0.8542(3) 0.1189(1)
C2 C 0.3823(5) 0.9313(3) 0.1472(2)
N3 N 0.4611(5) 0.8794(3) 0.2197(1)
C3 C 0.4152(6) 0.7281(3) 0.2018(2)
C4 C 0.1468(7) 0.6548(3) 0.1843(2)
C5 C 0.0267(6) 0.7171(3) 0.1239(2)
C6 C 0.1080(6) 0.9062(3) -0.0187(2)
C7 C 0.2183(8) 0.8145(4) -0.0469(2)
C8 C 0.3463(9) 0.8463(5) -0.1054(3)
C9 C 0.3634(9) 0.9681(5) -0.1352(2)
C10 C 0.2518(9) 1.0575(5) -0.1087(2)
C11 C 0.1232(8) 1.0262(4) -0.0497(2)
C12 C 0.4199(6) 1.0853(3) 0.1632(2)
C13 C 0.3233(7) 1.1394(4) 0.2203(3)
C14 C 0.3635(8) 1.2823(4) 0.2352(3)
C15 C 0.4968(9) 1.3675(4) 0.1912(3)
C16 C 0.5909(9) 1.3130(4) 0.1353(3)
C17 C 0.5528(7) 1.1728(4) 0.1201(2)
C18 C 0.7179(6) 0.9511(4) 0.2538(2)
C19 C 0.7798(6) 0.9275(3) 0.3369(2)
C20 C 0.6576(6) 0.9643(4) 0.3921(2)
C21 C 0.7145(7) 0.9445(4) 0.4686(2)
C22 C 0.8918(8) 0.8863(5) 0.4921(2)
C23 C 1.0165(8) 0.8516(5) 0.4373(3)
C24 C 0.9611(7) 0.8730(4) 0.3611(2)
N4 N 0.4793(5) 0.1526(3) 0.5763(2)
O2 O 0.5842(5) 0.2553(3) 0.5304(1)
C25 C 0.5233(6) 0.3802(4) 0.5491(2)
N5 N 0.4255(5) 0.3545(3) 0.6192(1)
C26 C 0.2709(6) 0.4302(3) 0.6475(2)
N6 N 0.2148(5) 0.3795(2) 0.7194(1)
C27 C 0.0915(6) 0.2288(3) 0.7023(2)
C28 C 0.2681(7) 0.1547(3) 0.6847(2)
C29 C 0.3897(6) 0.2175(3) 0.6234(2)
C30 C 0.3557(6) 0.4059(3) 0.4817(2)
C31 C 0.4303(7) 0.5264(4) 0.4501(2)
C32 C 0.2737(9) 0.5577(4) 0.3925(2)
C33 C 0.0451(9) 0.4666(5) 0.3655(3)
C34 C -0.0306(9) 0.3464(5) 0.3938(3)
C35 C 0.1261(8) 0.3150(4) 0.4532(2)
C36 C 0.4045(6) 0.5848(3) 0.6635(2)
C37 C 0.6127(7) 0.6398(4) 0.7206(3)
C38 C 0.7303(8) 0.7819(5) 0.7354(3)
C39 C 0.6389(9) 0.8673(4) 0.6918(3)
C40 C 0.4364(9) 0.8142(4) 0.6354(3)
C41 C 0.3156(7) 0.6733(4) 0.6201(2)
C42 C 0.0619(6) 0.4497(3) 0.7541(2)
C43 C 0.0594(6) 0.4267(3) 0.8364(2)
C44 C -0.1517(7) 0.3714(5) 0.8602(2)
C45 C -0.1525(8) 0.3501(5) 0.9373(2)
C46 C 0.0613(8) 0.3855(5) 0.9915(2)
C47 C 0.2754(7) 0.4436(4) 0.9691(2)
C48 C 0.2744(6) 0.4638(4) 0.8919(2)
H1 H -0.05500 0.96500 0.06000
H2 H 0.47400 0.91800 0.10900
H3 H 0.48000 0.70700 0.15800
H4 H 0.49100 0.69800 0.24600
H5 H 0.08800 0.66500 0.23100
H6 H 0.11500 0.55900 0.16600
H7 H 0.20500 0.73100 -0.02700
H8 H 0.42300 0.78400 -0.12500
H9 H 0.45600 0.99100 -0.17400
H10 H 0.26300 1.14100 -0.13000
H11 H 0.04400 1.08900 -0.03100
H12 H 0.23300 1.08000 0.25000
H13 H 0.30000 1.32300 0.27500
H14 H 0.52100 1.46400 0.19900
H15 H 0.68700 1.37500 0.10600
H16 H 0.61700 1.13500 0.08000
H17 H 0.75300 1.04900 0.25300
H18 H 0.81300 0.91700 0.22400
H19 H 0.53600 1.00500 0.37700
H20 H 0.62600 0.97000 0.50500
H21 H 0.92800 0.87200 0.54500
H22 H 1.14200 0.81400 0.45200
H23 H 1.04800 0.84800 0.32400
H24 H 0.65400 0.46500 0.55900
H25 H 0.12700 0.41600 0.60900
H26 H 0.03100 0.19900 0.74700
H27 H -0.03900 0.20700 0.65900
H28 H 0.18600 0.05900 0.66700
H29 H 0.38500 0.16500 0.73100
H30 H 0.59100 0.58900 0.46800
H31 H 0.32300 0.64100 0.37100
H32 H -0.06100 0.49100 0.32600
H33 H -0.18800 0.28500 0.37400
H34 H 0.07500 0.23200 0.47300
H35 H 0.67400 0.58100 0.75100
H36 H 0.87500 0.82200 0.77500
H37 H 0.71900 0.96400 0.70000
H38 H 0.37500 0.87600 0.60600
H39 H 0.17300 0.63600 0.58000
H40 H -0.09800 0.41500 0.72400
H41 H 0.12300 0.54700 0.75400
H42 H -0.30000 0.34600 0.82300
H43 H -0.30000 0.31300 0.95300
H44 H 0.06200 0.37100 1.04400
H45 H 0.42600 0.46800 1.00500
H46 H 0.42200 0.50500 0.87700
#END
