
#######################################################################
#
#                 Cambridge Crystallographic Data Centre
#                                CCDC
#
#######################################################################
#
# If this CIF has been generated from an entry in the Cambridge
# Structural Database, then it will include bibliographic, chemical,
# crystal, experimental, refinement or atomic coordinate data resulting
# from the CCDC's data processing and validation procedures.
#
#######################################################################

data_CSD_CIF_YAHYIP01
_audit_creation_date 2000-01-11
_audit_creation_method CSD-ConQuest-V1
_database_code_CSD YAHYIP01
_chemical_formula_sum 'C24 H23 N3 O1'
_chemical_formula_moiety
;
C24 H23 N3 O1
;
_journal_coeditor_code "IUCr BK0068"
_journal_coden_Cambridge 622
_journal_volume 55
_journal_year 1999
_journal_page_first 931
_journal_name_full 'Acta Crystallogr.,Sect.B:Struct.Sci. '
loop_
_publ_author_name
"R.E.Marsh"
_chemical_name_systematic
;
trans-6-Benzyl-3,5-diphenyl-5,6,7,8-tetrahydro-3H-(1,2,4)-oxadiazolo(4,3-c)pyr
imidine
;
_cell_volume   1975.386
_diffrn_ambient_temperature ?
_diffrn_special_details
;
The study was carried out at room temperature,in the range 283-303K

;
loop_
_citation_database_id_CSD
_citation_special_details
YAHYUB "is a stereoisomer of this entry"
YAHYIP "is reinterpreted by this entry"
_symmetry_cell_setting monoclinic
_symmetry_space_group_name_H-M 'C c'
_symmetry_Int_Tables_number 9
loop_
_symmetry_equiv_pos_site_id
_symmetry_equiv_pos_as_xyz
1 x,y,z
2 x,-y,1/2+z
3 1/2+x,1/2+y,z
4 1/2+x,1/2-y,1/2+z
_cell_length_a 19.495
_cell_length_b 5.947
_cell_length_c 18.374
_cell_angle_alpha 90
_cell_angle_beta 111.98
_cell_angle_gamma 90
_cell_formula_units_Z 4
loop_
_atom_type_symbol
_atom_type_radius_bond
C 0.68
N 0.68
O 0.68
loop_
_atom_site_label
_atom_site_type_symbol
_atom_site_fract_x
_atom_site_fract_y
_atom_site_fract_z
N1 N 0.28820 -0.07640 -0.07630
O1 O 0.36240 -0.15250 -0.02980
C1 C 0.41560 -0.02100 -0.04920
N2 N 0.36760 0.10000 -0.11900
C2 C 0.39170 0.30550 -0.14740
N3 N 0.33000 0.37310 -0.21960
C3 C 0.26320 0.41220 -0.20200
C4 C 0.23510 0.18940 -0.18400
C5 C 0.29680 0.06850 -0.12360
C6 C 0.46230 0.12620 0.01850
C7 C 0.43080 0.29620 0.04680
C8 C 0.47610 0.43830 0.10580
C9 C 0.55110 0.40900 0.13480
C10 C 0.58280 0.23940 0.10810
C11 C 0.53800 0.09640 0.04980
C12 C 0.46080 0.25760 -0.16340
C13 C 0.45960 0.10550 -0.22040
C14 C 0.52340 0.06660 -0.23530
C15 C 0.58800 0.17900 -0.19150
C16 C 0.58910 0.32760 -0.13540
C17 C 0.52650 0.36870 -0.12010
C18 C 0.34820 0.57770 -0.25400
C19 C 0.29520 0.60990 -0.33660
C20 C 0.28600 0.44140 -0.39200
C21 C 0.23760 0.46940 -0.46880
C22 C 0.19700 0.66490 -0.49180
C23 C 0.20680 0.83410 -0.43730
C24 C 0.25580 0.80580 -0.36060
#END
