
#######################################################################
#
#                 Cambridge Crystallographic Data Centre
#                                CCDC
#
#######################################################################
#
# If this CIF has been generated from an entry in the Cambridge
# Structural Database, then it will include bibliographic, chemical,
# crystal, experimental, refinement or atomic coordinate data resulting
# from the CCDC's data processing and validation procedures.
#
#######################################################################

data_CSD_CIF_YAJGUL
_audit_creation_date 1993-06-03
_audit_creation_method CSD-ConQuest-V1
_database_code_CSD YAJGUL
_database_code_depnum_ccdc_archive 'CCDC 1298895'
_chemical_formula_sum 'C26 H31 N3 O6'
_chemical_formula_moiety
;
C26 H31 N3 O6
;
_journal_coden_Cambridge 182
_journal_year 1992
_journal_page_first 1731
_journal_name_full 'Chem.Commun. '
loop_
_publ_author_name
"K.Okada"
"Y.Saito"
"M.Oda"
_chemical_name_systematic
;
(4,5-Spirobi(adamantyl))-N-(3,5-dinitrophenyl)-1,3,2-dioxazolidine
;
_chemical_melting_point 410.15
_cell_volume   1117.939
_exptl_crystal_colour 'yellow'
_exptl_crystal_density_diffrn 1.43
_diffrn_ambient_temperature ?
_diffrn_special_details
;
The study was carried out at room temperature,in the range 283-303K

;
#These two values have been output from a single CSD field.
_refine_ls_R_factor_gt 0.043
_refine_ls_wR_factor_gt 0.043
_symmetry_cell_setting triclinic
_symmetry_space_group_name_H-M 'P -1'
_symmetry_Int_Tables_number 2
loop_
_symmetry_equiv_pos_site_id
_symmetry_equiv_pos_as_xyz
1 x,y,z
2 -x,-y,-z
_cell_length_a 10.619(3)
_cell_length_b 11.523(2)
_cell_length_c 10.565(2)
_cell_angle_alpha 110.54(2)
_cell_angle_beta 92.60(2)
_cell_angle_gamma 68.12(2)
_cell_formula_units_Z 2
loop_
_atom_type_symbol
_atom_type_radius_bond
C 0.68
H 0.23
N 0.68
O 0.68
loop_
_atom_site_label
_atom_site_type_symbol
_atom_site_fract_x
_atom_site_fract_y
_atom_site_fract_z
O1 O 0.9131(1) 0.2083(1) 0.3202(1)
O2 O 1.0924(1) 0.2740(1) 0.3690(1)
O3 O 1.0154(2) -0.2531(1) 0.2535(1)
O4 O 1.2171(2) -0.3717(1) 0.2849(2)
O5 O 1.4801(2) -0.1541(2) 0.5809(2)
O6 O 1.4209(2) 0.0596(2) 0.6441(2)
N1 N 1.0103(1) 0.2203(1) 0.4172(1)
N2 N 1.1262(2) -0.2651(2) 0.2955(2)
N3 N 1.4045(2) -0.0437(2) 0.5821(2)
C1 C 1.0966(2) 0.0884(2) 0.4133(2)
C2 C 1.0679(2) -0.0241(2) 0.3498(2)
C3 C 1.1543(2) -0.1429(2) 0.3631(2)
C4 C 1.2649(2) -0.1535(2) 0.4365(2)
C5 C 1.2876(2) -0.0377(2) 0.5002(2)
C6 C 1.2063(2) 0.0834(2) 0.4910(2)
C7 C 0.9046(2) 0.3002(2) 0.2502(2)
C8 C 0.8217(2) 0.2570(2) 0.1319(2)
C9 C 0.7812(2) 0.3511(2) 0.0516(2)
C10 C 0.6971(2) 0.4937(2) 0.1445(2)
C11 C 0.7812(2) 0.5387(2) 0.2591(2)
C12 C 0.8190(2) 0.4460(2) 0.3416(2)
C13 C 0.6865(2) 0.4519(2) 0.3998(2)
C14 C 0.6036(2) 0.4052(2) 0.2851(2)
C15 C 0.6881(2) 0.2626(2) 0.1908(2)
C16 C 0.5662(2) 0.4986(2) 0.2044(3)
C17 C 1.0621(2) 0.2673(2) 0.2305(2)
C18 C 1.1199(2) 0.3667(2) 0.2145(2)
C19 C 1.2710(2) 0.3207(2) 0.2449(2)
C20 C 1.3537(2) 0.1807(2) 0.1437(2)
C21 C 1.2941(2) 0.0817(2) 0.1539(2)
C22 C 1.1442(2) 0.1271(2) 0.1246(2)
C23 C 1.1387(2) 0.1312(2) -0.0195(2)
C24 C 1.1996(2) 0.2284(2) -0.0314(2)
C25 C 1.1181(2) 0.3681(2) 0.0704(2)
C26 C 1.3486(2) 0.1825(2) 0.0001(2)
H1 H 0.995(2) -0.021(2) 0.300(2)
H2 H 1.318(2) -0.230(2) 0.447(2)
H3 H 1.219(2) 0.163(2) 0.537(2)
H4 H 0.876(2) 0.168(2) 0.073(2)
H5 H 0.861(2) 0.348(2) 0.005(2)
H6 H 0.731(2) 0.314(2) -0.022(2)
H7 H 0.674(2) 0.552(2) 0.092(2)
H8 H 0.726(2) 0.632(2) 0.323(2)
H9 H 0.863(2) 0.540(2) 0.220(2)
H10 H 0.873(2) 0.477(2) 0.415(2)
H11 H 0.634(2) 0.546(2) 0.459(2)
H12 H 0.710(2) 0.394(2) 0.457(2)
H13 H 0.523(2) 0.405(2) 0.326(2)
H14 H 0.708(2) 0.200(2) 0.238(2)
H15 H 0.637(2) 0.235(2) 0.115(2)
H16 H 0.512(2) 0.586(2) 0.260(2)
H17 H 0.510(2) 0.474(2) 0.131(2)
H18 H 1.069(2) 0.456(2) 0.278(2)
H19 H 1.277(2) 0.324(2) 0.340(2)
H20 H 1.307(2) 0.381(2) 0.235(2)
H21 H 1.448(2) 0.153(2) 0.164(2)
H22 H 1.343(2) -0.010(2) 0.087(2)
H23 H 1.305(2) 0.073(2) 0.242(2)
H24 H 1.106(2) 0.062(2) 0.131(2)
H25 H 1.043(2) 0.158(2) -0.042(2)
H26 H 1.189(2) 0.042(2) -0.082(2)
H27 H 1.196(2) 0.228(2) -0.126(2)
H28 H 1.161(2) 0.427(2) 0.069(2)
H29 H 1.025(2) 0.402(2) 0.044(2)
H30 H 1.387(2) 0.251(2) -0.005(2)
H31 H 1.401(2) 0.093(2) -0.069(2)
#END
