
#######################################################################
#
#                 Cambridge Crystallographic Data Centre
#                                CCDC
#
#######################################################################
#
# If this CIF has been generated from an entry in the Cambridge
# Structural Database, then it will include bibliographic, chemical,
# crystal, experimental, refinement or atomic coordinate data resulting
# from the CCDC's data processing and validation procedures.
#
#######################################################################

data_CSD_CIF_YAJGOH
_audit_creation_date 2011-11-29
_audit_creation_method CSD-ConQuest-V1
_database_code_CSD YAJGOH
_database_code_depnum_ccdc_archive 'CCDC 847161'
_chemical_formula_sum 'C17 H19 N1 O5'
_chemical_formula_moiety
;
C17 H19 N1 O5
;
_journal_coeditor_code "IUCr KP2333"
_journal_coden_Cambridge 1370
_journal_volume 67
_journal_year 2011
_journal_page_first o3018
_journal_name_full 'Acta Crystallogr.,Sect.E:Struct.Rep.Online '
loop_
_publ_author_name
"A.I.Ismiyev"
"A.M.Maharramov"
"B.A.Rashidov"
"G.Z.Mammadova"
"R.K.Askerov"
_chemical_name_systematic
;
rac-Ethyl 
6-hydroxy-6-methyl-3-oxo-4-phenyl-1,3,4,5,6,7-hexahydrobenzo[c][1,2]oxazole-5-
carboxylate
;
_chemical_name_common
;
Ethyl 
6-hydroxy-6-methyl-3-oxo-4-phenyl-1,3,4,5,6,7-hexahydro-2,1-benzoxazole-5-carb
oxylate
;
_cell_volume    816.395
_exptl_crystal_colour 'colorless'
_exptl_crystal_density_diffrn 1.291
_exptl_crystal_description 'prism'
_exptl_crystal_preparation 'ethanol'
_diffrn_ambient_temperature 296
_refine_special_details
;
C16 and C16' disordered over two sites with occupancies 0.60:0.40.

;
#These two values have been output from a single CSD field.
_refine_ls_R_factor_gt 0.0586
_refine_ls_wR_factor_gt 0.0586
_symmetry_cell_setting monoclinic
_symmetry_space_group_name_H-M 'P 21'
_symmetry_Int_Tables_number 4
loop_
_symmetry_equiv_pos_site_id
_symmetry_equiv_pos_as_xyz
1 x,y,z
2 -x,1/2+y,-z
_cell_length_a 6.0712(6)
_cell_length_b 13.4343(13)
_cell_length_c 10.0821(10)
_cell_angle_alpha 90
_cell_angle_beta 96.882(2)
_cell_angle_gamma 90
_cell_formula_units_Z 2
loop_
_atom_type_symbol
_atom_type_radius_bond
C 0.68
H 0.23
N 0.68
O 0.68
loop_
_atom_site_label
_atom_site_type_symbol
_atom_site_fract_x
_atom_site_fract_y
_atom_site_fract_z
N1 N 1.0157(4) 0.39444(17) 1.0327(2)
H1 H 1.144(6) 0.412(3) 1.008(4)
O1 O 1.0458(3) 0.29676(15) 1.08762(19)
O2 O 0.8411(3) 0.15884(16) 1.0854(2)
O3 O 0.0789(3) 0.33341(17) 0.7160(2)
O4 O 0.2738(4) 0.33256(18) 0.5417(2)
O5 O 0.3701(3) 0.47677(14) 0.90741(18)
H2 H 0.31540 0.53270 0.90280
C1 C 0.8575(4) 0.2429(2) 1.0425(3)
C2 C 0.7212(4) 0.30374(18) 0.9509(2)
C3 C 0.5086(4) 0.27814(19) 0.8668(3)
H3 H 0.38670 0.28490 0.92170
C4 C 0.4751(4) 0.35572(19) 0.7527(3)
H4 H 0.58900 0.34290 0.69370
C5 C 0.5070(4) 0.46411(19) 0.8025(3)
C6 C 0.7502(4) 0.4776(2) 0.8598(3)
H5 H 0.84120 0.48330 0.78740
H6 H 0.76650 0.53840 0.91190
C7 C 0.8259(4) 0.39149(19) 0.9458(3)
C8 C 0.5037(4) 0.17410(18) 0.8103(3)
C9 C 0.6769(5) 0.1395(2) 0.7449(3)
H7 H 0.80010 0.17990 0.73980
C10 C 0.6695(6) 0.0463(2) 0.6873(4)
H8 H 0.78570 0.02480 0.64210
C11 C 0.4910(6) -0.0146(2) 0.6965(3)
H9 H 0.48650 -0.07770 0.65840
C12 C 0.3196(5) 0.0175(2) 0.7619(3)
H10 H 0.19880 -0.02400 0.76870
C13 C 0.3256(5) 0.1115(2) 0.8177(3)
H11 H 0.20740 0.13290 0.86110
C14 C 0.2531(5) 0.3393(2) 0.6713(3)
C15 C 0.0727(7) 0.3158(3) 0.4504(4)
H12 H 0.08260 0.34500 0.36330
H13 H -0.05780 0.34120 0.48600
C16 C 0.074(2) 0.2027(3) 0.445(2)
H14 H 0.03660 0.17660 0.52840
H15 H 0.21920 0.17990 0.43100
H16 H -0.03240 0.18020 0.37360
C17 C 0.4449(5) 0.5384(2) 0.6916(3)
H17 H 0.28850 0.53430 0.66300
H18 H 0.52560 0.52370 0.61760
H19 H 0.48120 0.60440 0.72370
C18? C -0.009(4) 0.2095(5) 0.427(4)
H20? H 0.08200 0.17570 0.37020
H21? H -0.16010 0.21020 0.38620
H22? H -0.00110 0.17530 0.51150
#END
