
#######################################################################
#
#                 Cambridge Crystallographic Data Centre
#                                CCDC
#
#######################################################################
#
# If this CIF has been generated from an entry in the Cambridge
# Structural Database, then it will include bibliographic, chemical,
# crystal, experimental, refinement or atomic coordinate data resulting
# from the CCDC's data processing and validation procedures.
#
#######################################################################

data_CSD_CIF_YAJMAY
_audit_creation_date 2005-07-12
_audit_creation_method CSD-ConQuest-V1
_database_code_CSD YAJMAY
_database_code_depnum_ccdc_archive 'CCDC 252544'
_chemical_formula_sum 'C13 H12 N2 O4'
_chemical_formula_moiety
;
C13 H12 N2 O4
;
_journal_coden_Cambridge 1336
_journal_volume 6
_journal_year 2004
_journal_page_first 4289
_journal_name_full 'Org.Lett. '
loop_
_publ_author_name
"Han-Xun Wei"
"Chun Zhou"
"Sihyun Ham"
"J.M.White"
"D.M.Birney"
_chemical_name_systematic
;
5-(4-Nitrophenyl)-1-propyl-2,3-dihydropyrrole-2,3-dione
;
_cell_volume   2432.898
_exptl_crystal_colour 'red-orange'
_exptl_crystal_density_diffrn 1.421
_exptl_crystal_description 'obelisk'
_exptl_crystal_preparation 'ether'
_diffrn_ambient_temperature 173
#These two values have been output from a single CSD field.
_refine_ls_R_factor_gt 0.0537
_refine_ls_wR_factor_gt 0.0537
_symmetry_cell_setting monoclinic
_symmetry_space_group_name_H-M 'C 2/c'
_symmetry_Int_Tables_number 15
loop_
_symmetry_equiv_pos_site_id
_symmetry_equiv_pos_as_xyz
1 x,y,z
2 -x,y,1/2-z
3 1/2+x,1/2+y,z
4 1/2-x,1/2+y,1/2-z
5 -x,-y,-z
6 x,-y,-1/2+z
7 -1/2-x,-1/2-y,-z
8 -1/2+x,-1/2-y,-1/2+z
_cell_length_a 12.326(2)
_cell_length_b 11.255(2)
_cell_length_c 18.552(4)
_cell_angle_alpha 90
_cell_angle_beta 109.04(3)
_cell_angle_gamma 90
_cell_formula_units_Z 8
loop_
_atom_type_symbol
_atom_type_radius_bond
C 0.68
H 0.23
N 0.68
O 0.68
loop_
_atom_site_label
_atom_site_type_symbol
_atom_site_fract_x
_atom_site_fract_y
_atom_site_fract_z
O1 O 0.6725(2) 0.1336(2) 0.4222(1)
O2 O 0.8466(2) 0.1957(2) 0.4437(1)
O3 O 0.5456(1) 0.1341(1) -0.1112(1)
O4 O 0.7943(1) 0.0949(1) -0.0660(1)
N1 N 0.7534(2) 0.1621(2) 0.4008(1)
N2 N 0.7835(2) 0.1181(2) 0.0554(1)
C1 C 0.7377(2) 0.1527(2) 0.3190(1)
C2 C 0.6555(2) 0.0755(2) 0.2749(1)
C3 C 0.6417(2) 0.0678(2) 0.1980(1)
C4 C 0.7093(2) 0.1365(2) 0.1660(1)
C5 C 0.7913(2) 0.2139(2) 0.2125(1)
C6 C 0.8070(2) 0.2218(2) 0.2897(1)
C7 C 0.6895(2) 0.1276(2) 0.0836(1)
C8 C 0.5870(2) 0.1335(2) 0.0268(1)
C9 C 0.6082(2) 0.1279(2) -0.0450(1)
C10 C 0.7403(2) 0.1118(2) -0.0230(1)
C11 C 0.8976(2) 0.0699(2) 0.0982(1)
C12 C 0.8917(2) -0.0598(2) 0.1210(1)
C13 C 1.0110(3) -0.1107(3) 0.1574(2)
H1 H 0.61330 0.02170 0.30420
H2 H 0.58590 0.01120 0.15900
H3 H 0.84190 0.26830 0.19330
H4 H 0.86040 0.27990 0.32000
H5 H 0.51060 0.14870 0.03800
H6 H 0.93440 0.12200 0.14590
H7 H 0.94200 0.07910 0.05870
H8 H 0.84420 -0.10140 0.07600
H9 H 0.84940 -0.06140 0.15540
H10 H 1.01170 -0.19140 0.18050
H11 H 1.05800 -0.05720 0.19980
H12 H 1.03750 -0.11870 0.12340
#END
