
#######################################################################
#
#                 Cambridge Crystallographic Data Centre
#                                CCDC
#
#######################################################################
#
# If this CIF has been generated from an entry in the Cambridge
# Structural Database, then it will include bibliographic, chemical,
# crystal, experimental, refinement or atomic coordinate data resulting
# from the CCDC's data processing and validation procedures.
#
#######################################################################

data_CSD_CIF_YAJQEF
_audit_creation_date 2001-10-23
_audit_creation_method CSD-ConQuest-V1
_database_code_CSD YAJQEF
_chemical_formula_sum 'C11 H11 N1 O6'
_chemical_formula_moiety
;
C11 H11 N1 O6
;
_journal_coden_Cambridge 643
_journal_volume 215
_journal_year 2000
_journal_page_first 499
_journal_name_full 'Z.Krist.Cryst.Mater. '
loop_
_publ_author_name
"S.Ruhl"
"M.Bolte"
_chemical_name_systematic
;
p-Nitrobenzaldehyde diacetate
;
_cell_volume   1177.163
_exptl_crystal_colour 'colorless'
_exptl_crystal_density_diffrn 1.429
_exptl_crystal_preparation 'ethanol/toluene'
_diffrn_ambient_temperature ?
_diffrn_special_details
;
The study was carried out at room temperature,in the range 283-303K

;
#These two values have been output from a single CSD field.
_refine_ls_R_factor_gt 0.1108
_refine_ls_wR_factor_gt 0.1108
_symmetry_cell_setting monoclinic
_symmetry_space_group_name_H-M 'P 21/n'
_symmetry_Int_Tables_number 14
loop_
_symmetry_equiv_pos_site_id
_symmetry_equiv_pos_as_xyz
1 x,y,z
2 1/2-x,1/2+y,1/2-z
3 -x,-y,-z
4 -1/2+x,-1/2-y,-1/2+z
_cell_length_a 10.785(2)
_cell_length_b 7.420(2)
_cell_length_c 15.407(2)
_cell_angle_alpha 90
_cell_angle_beta 107.30(1)
_cell_angle_gamma 90
_cell_formula_units_Z 4
loop_
_atom_type_symbol
_atom_type_radius_bond
C 0.68
N 0.68
O 0.68
loop_
_atom_site_label
_atom_site_type_symbol
_atom_site_fract_x
_atom_site_fract_y
_atom_site_fract_z
C1 C 0.5773(2) 0.3360(4) 0.3792(2)
C2 C 0.7122(2) 0.3156(3) 0.4412(2)
C3 C 0.8091(3) 0.2475(4) 0.4090(2)
C4 C 0.9357(3) 0.2353(4) 0.4661(2)
N1 N 1.0963(2) 0.2881(4) 0.6139(2)
O1 O 1.1773(2) 0.2111(4) 0.5870(2)
O2 O 1.1203(2) 0.3620(3) 0.6879(1)
C5 C 0.9615(3) 0.2934(4) 0.5541(2)
C6 C 0.8661(3) 0.3587(4) 0.5884(2)
C7 C 0.7419(3) 0.3706(4) 0.5314(2)
O3 O 0.5413(2) 0.5222(2) 0.3752(1)
C8 C 0.5283(3) 0.6109(4) 0.2964(2)
O4 O 0.5417(2) 0.5412(3) 0.2302(1)
C9 C 0.4967(3) 0.8035(5) 0.3060(3)
O5 O 0.4923(2) 0.2432(2) 0.4193(1)
C10 C 0.3707(3) 0.2105(4) 0.3654(2)
O6 O 0.3338(2) 0.2556(4) 0.2877(1)
C11 C 0.2921(3) 0.1136(5) 0.4155(2)
#END
