
#######################################################################
#
#                 Cambridge Crystallographic Data Centre
#                                CCDC
#
#######################################################################
#
# If this CIF has been generated from an entry in the Cambridge
# Structural Database, then it will include bibliographic, chemical,
# crystal, experimental, refinement or atomic coordinate data resulting
# from the CCDC's data processing and validation procedures.
#
#######################################################################

data_CSD_CIF_YAJROR
_audit_creation_date 2005-07-12
_audit_creation_method CSD-ConQuest-V1
_database_code_CSD YAJROR
_database_code_depnum_ccdc_archive 'CCDC 267169'
_chemical_formula_sum 'C19 H20 N4 O4'
_chemical_formula_moiety
;
C19 H20 N4 O4
;
_journal_coden_Cambridge 1336
_journal_volume 7
_journal_year 2005
_journal_page_first 557
_journal_name_full 'Org.Lett. '
loop_
_publ_author_name
"Bor-Cherng Hong"
"Fon-Len Chen"
"Shang-Hung Chen"
"Ju-Hsiou Liao"
"Gene-Hsiang Lee"
_chemical_name_systematic
;
6-(2,4-Dinitrophenylhydrazono)-2-methylenetricyclo[7.2.1.0^1,7^]dodeca-10-ene
;
_chemical_melting_point 445.15
_cell_volume   1763.155
_exptl_crystal_colour 'yellow'
_exptl_crystal_density_diffrn 1.384
_exptl_special_details
;
Melting point range 445.15-446.15K

;
_diffrn_ambient_temperature 293
#These two values have been output from a single CSD field.
_refine_ls_R_factor_gt 0.0719
_refine_ls_wR_factor_gt 0.0719
_symmetry_cell_setting monoclinic
_symmetry_space_group_name_H-M 'P 21/n'
_symmetry_Int_Tables_number 14
loop_
_symmetry_equiv_pos_site_id
_symmetry_equiv_pos_as_xyz
1 x,y,z
2 1/2-x,1/2+y,1/2-z
3 -x,-y,-z
4 -1/2+x,-1/2-y,-1/2+z
_cell_length_a 9.795(1)
_cell_length_b 12.533(2)
_cell_length_c 15.010(2)
_cell_angle_alpha 90
_cell_angle_beta 106.89(1)
_cell_angle_gamma 90
_cell_formula_units_Z 4
loop_
_atom_type_symbol
_atom_type_radius_bond
C 0.68
H 0.23
N 0.68
O 0.68
loop_
_atom_site_label
_atom_site_type_symbol
_atom_site_fract_x
_atom_site_fract_y
_atom_site_fract_z
N1 N 0.3677(4) 1.0526(2) 0.2368(2)
N2 N 0.1255(4) 0.8089(3) -0.0088(2)
N3 N 0.2869(3) 0.6334(2) 0.1015(2)
N4 N 0.3710(3) 0.5544(2) 0.1543(2)
O1 O 0.2888(3) 1.1227(2) 0.1942(2)
O2 O 0.4614(3) 1.0681(2) 0.3094(2)
O3 O 0.0986(3) 0.7183(2) -0.0398(2)
O4 O 0.0687(5) 0.8864(3) -0.0509(3)
C1 C 0.3491(4) 0.9448(3) 0.1992(2)
C2 C 0.2489(4) 0.9261(3) 0.1158(2)
H1 H 0.19470 0.98180 0.08260
C3 C 0.2294(4) 0.8230(3) 0.0815(2)
C4 C 0.3079(4) 0.7363(3) 0.1312(2)
C5 C 0.4102(4) 0.7605(3) 0.2161(2)
H2 H 0.46510 0.70590 0.25060
C6 C 0.4304(4) 0.8622(3) 0.2489(3)
H3 H 0.49930 0.87640 0.30490
C7 C 0.3426(4) 0.4568(3) 0.1287(3)
C8 C 0.2220(4) 0.4242(3) 0.0464(3)
H4 H 0.14800 0.47080 0.01870
C9 C 0.2262(5) 0.3109(3) 0.0101(3)
H5 H 0.14340 0.30050 -0.04340
H6 H 0.21860 0.26120 0.05790
C10 C 0.3595(6) 0.2838(4) -0.0181(3)
H7 H 0.33560 0.22970 -0.06640
H8 H 0.39050 0.34690 -0.04420
C11 C 0.4806(5) 0.2439(3) 0.0611(3)
C12 C 0.5315(6) 0.1460(4) 0.0609(4)
H9 H 0.49210 0.10060 0.01100
H10 H 0.60660 0.12260 0.11060
C13 C 0.5458(4) 0.3214(3) 0.1380(3)
C14 C 0.6215(5) 0.4166(3) 0.1120(3)
H11 H 0.61030 0.44150 0.05200
C15 C 0.7055(5) 0.4578(4) 0.1887(3)
H12 H 0.76290 0.51780 0.19280
C16 C 0.5431(5) 0.4143(3) 0.2799(3)
H13 H 0.53050 0.49020 0.28760
H14 H 0.52900 0.37660 0.33300
C17 C 0.4396(4) 0.3731(3) 0.1876(3)
H15 H 0.38040 0.31640 0.20210
C18 C 0.6920(5) 0.3903(3) 0.2687(3)
H16 H 0.77210 0.39410 0.32570
C19 C 0.6642(5) 0.2818(3) 0.2222(3)
H17 H 0.63090 0.22970 0.25890
H18 H 0.74600 0.25420 0.20550
H19 H 0.225(5) 0.622(3) 0.053(3)
#END
