
#######################################################################
#
#                 Cambridge Crystallographic Data Centre
#                                CCDC
#
#######################################################################
#
# If this CIF has been generated from an entry in the Cambridge
# Structural Database, then it will include bibliographic, chemical,
# crystal, experimental, refinement or atomic coordinate data resulting
# from the CCDC's data processing and validation procedures.
#
#######################################################################

data_CSD_CIF_YAKCIW
_audit_creation_date 1993-08-06
_audit_creation_method CSD-ConQuest-V1
_database_code_CSD YAKCIW
_database_code_depnum_ccdc_archive 'CCDC 1298985'
_chemical_formula_sum 'C13 H21 N1 O3'
_chemical_formula_moiety
;
C13 H21 N1 O3
;
_journal_coden_Cambridge 7
_journal_volume 65
_journal_year 1992
_journal_page_first 2860
_journal_name_full 'Bull.Chem.Soc.Jpn. '
loop_
_publ_author_name
"N.Azuma"
"T.Ozawa"
"K.Yamawaki"
"R.Tamura"
_chemical_name_systematic
;
3,5,5-Trimethyl-2-(2-methyl-2-nitropropyl)-2-cyclohexen-1-one
;
_cell_volume   2685.329
_exptl_crystal_colour 'colorless'
_exptl_crystal_density_diffrn 1.184
_diffrn_ambient_temperature ?
_diffrn_special_details
;
The study was carried out at room temperature,in the range 283-303K

;
#These two values have been output from a single CSD field.
_refine_ls_R_factor_gt 0.04
_refine_ls_wR_factor_gt 0.04
_symmetry_cell_setting monoclinic
_symmetry_space_group_name_H-M 'P 21/c'
_symmetry_Int_Tables_number 14
loop_
_symmetry_equiv_pos_site_id
_symmetry_equiv_pos_as_xyz
1 x,y,z
2 -x,1/2+y,1/2-z
3 -x,-y,-z
4 x,-1/2-y,-1/2+z
_cell_length_a 26.797(2)
_cell_length_b 8.992(1)
_cell_length_c 11.398(2)
_cell_angle_alpha 90
_cell_angle_beta 102.11(1)
_cell_angle_gamma 90
_cell_formula_units_Z 8
loop_
_atom_type_symbol
_atom_type_radius_bond
C 0.68
H 0.23
N 0.68
O 0.68
loop_
_atom_site_label
_atom_site_type_symbol
_atom_site_fract_x
_atom_site_fract_y
_atom_site_fract_z
O1 O 0.3841(1) 0.4539(2) 0.1506(2)
O2 O 0.3804(1) 0.4380(3) 0.5736(2)
O3 O 0.3010(1) 0.4008(3) 0.5615(2)
N1 N 0.3393(1) 0.3902(3) 0.5221(2)
C1 C 0.3869(1) 0.5587(3) 0.2199(2)
C2 C 0.3513(1) 0.5727(3) 0.3024(2)
C3 C 0.3501(1) 0.7013(3) 0.3616(2)
C4 C 0.3884(1) 0.8231(3) 0.3607(2)
C5 C 0.4385(1) 0.7727(3) 0.3311(2)
C6 C 0.4243(1) 0.6817(3) 0.2166(2)
C7 C 0.3162(1) 0.4418(3) 0.3057(2)
C8 C 0.3356(1) 0.3190(3) 0.3980(2)
C9 C 0.3876(1) 0.2597(3) 0.3916(3)
C10 C 0.2969(1) 0.1941(4) 0.3871(3)
C11 C 0.3099(1) 0.7377(5) 0.4316(4)
C12 C 0.4692(1) 0.6778(3) 0.4323(2)
C13 C 0.4705(1) 0.9067(3) 0.3119(3)
H1 H 0.39580 0.86790 0.43790
H2 H 0.37350 0.89490 0.30260
H3 H 0.45460 0.63880 0.20090
H4 H 0.40990 0.74710 0.15300
H5 H 0.30960 0.39710 0.22840
H6 H 0.28520 0.47920 0.32230
H7 H 0.41160 0.33900 0.40330
H8 H 0.39770 0.18680 0.45230
H9 H 0.38620 0.21610 0.31510
H10 H 0.26480 0.23340 0.39460
H11 H 0.30800 0.12310 0.44880
H12 H 0.29350 0.14740 0.31110
H13 H 0.47750 0.73540 0.50360
H14 H 0.44950 0.59400 0.44570
H15 H 0.49970 0.64480 0.41060
H16 H 0.47830 0.96390 0.38350
H17 H 0.45190 0.96630 0.24870
H18 H 0.50130 0.87390 0.29130
H19 H 0.298(1) 0.834(5) 0.422(3)
H20 H 0.282(1) 0.672(4) 0.421(3)
H21 H 0.321(1) 0.743(4) 0.516(4)
O4 O 0.8832(1) 0.4519(2) 0.2354(2)
O5 O 0.8854(1) 0.4336(3) -0.1847(2)
O6 O 0.8066(1) 0.3981(3) -0.2596(2)
N2 N 0.8439(1) 0.3868(3) -0.1777(2)
C14 C 0.8863(1) 0.5559(3) 0.1681(2)
C15 C 0.8512(1) 0.5699(3) 0.0498(2)
C16 C 0.8502(1) 0.6986(3) -0.0110(2)
C17 C 0.8884(1) 0.8208(3) 0.0290(2)
C18 C 0.9386(1) 0.7694(3) 0.1081(2)
C19 C 0.9244(1) 0.6784(3) 0.2085(2)
C20 C 0.8161(1) 0.4396(3) 0.0105(2)
C21 C 0.8371(1) 0.3153(3) -0.0599(2)
C22 C 0.8881(1) 0.2546(3) 0.0032(3)
C23 C 0.7979(1) 0.1918(4) -0.0915(3)
C24 C 0.8109(1) 0.7352(5) -0.1210(4)
C25 C 0.9691(1) 0.6743(3) 0.0373(2)
C26 C 0.9708(1) 0.9030(3) 0.1599(3)
H22 H 0.87330 0.89160 0.07290
H23 H 0.89570 0.86670 -0.04040
H24 H 0.91040 0.74410 0.25850
H25 H 0.95470 0.63460 0.25360
H26 H 0.78570 0.47700 -0.03920
H27 H 0.80830 0.39600 0.08040
H28 H 0.91230 0.33340 0.01920
H29 H 0.88490 0.20950 0.07670
H30 H 0.89950 0.18250 -0.04640
H31 H 0.79280 0.14520 -0.02010
H32 H 0.76650 0.23230 -0.13380
H33 H 0.80980 0.12020 -0.14060
H34 H 0.97750 0.73180 -0.02580
H35 H 0.99950 0.64080 0.08910
H36 H 0.94920 0.59080 0.00440
H37 H 0.95220 0.96250 0.20480
H38 H 0.97880 0.96050 0.09630
H39 H 1.00140 0.86960 0.21080
H40 H 0.822(1) 0.745(4) -0.190(3)
H41 H 0.801(1) 0.832(5) -0.121(3)
H42 H 0.787(2) 0.669(5) -0.142(3)
#END
