
#######################################################################
#
#                 Cambridge Crystallographic Data Centre
#                                CCDC
#
#######################################################################
#
# If this CIF has been generated from an entry in the Cambridge
# Structural Database, then it will include bibliographic, chemical,
# crystal, experimental, refinement or atomic coordinate data resulting
# from the CCDC's data processing and validation procedures.
#
#######################################################################

data_CSD_CIF_YAKJID
_audit_creation_date 1993-08-05
_audit_creation_method CSD-ConQuest-V1
_database_code_CSD YAKJID
_database_code_depnum_ccdc_archive 'CCDC 1299009'
_chemical_formula_sum 'C18 H26 N6 O2'
_chemical_formula_moiety
;
C18 H26 N6 O2
;
_journal_coden_Cambridge 34
_journal_volume 28
_journal_year 1991
_journal_page_first 1677
_journal_name_full 'J.Heterocycl.Chem. '
loop_
_publ_author_name
"J.W.Fischer"
"R.A.Nissan"
"C.K.Lowe-Ma"
_chemical_name_systematic
;
4,8-bis(Cyclohexylmethyl)-bis(1,2,5)oxadiazolo(3,4-b:3',4'-e)pyrazine
;
_chemical_melting_point 495.15
_cell_volume    907.136
_exptl_crystal_colour 'white'
_exptl_crystal_density_diffrn 1.31
_exptl_special_details
;
Melting point range 495.15-496.15K

;
_diffrn_ambient_temperature ?
_diffrn_special_details
;
The study was carried out at room temperature,in the range 283-303K

;
#These two values have been output from a single CSD field.
_refine_ls_R_factor_gt 0.072
_refine_ls_wR_factor_gt 0.072
_symmetry_cell_setting monoclinic
_symmetry_space_group_name_H-M 'P 21/n'
_symmetry_Int_Tables_number 14
loop_
_symmetry_equiv_pos_site_id
_symmetry_equiv_pos_as_xyz
1 x,y,z
2 1/2-x,1/2+y,1/2-z
3 -x,-y,-z
4 -1/2+x,-1/2-y,-1/2+z
_cell_length_a 5.317(2)
_cell_length_b 20.65(1)
_cell_length_c 8.451(4)
_cell_angle_alpha 90
_cell_angle_beta 102.14(4)
_cell_angle_gamma 90
_cell_formula_units_Z 2
loop_
_atom_type_symbol
_atom_type_radius_bond
C 0.68
N 0.68
O 0.68
loop_
_atom_site_label
_atom_site_type_symbol
_atom_site_fract_x
_atom_site_fract_y
_atom_site_fract_z
C1 C 0.1512(10) 0.5533(2) 0.0266(6)
C2 C 0.2284(10) 0.4941(2) 0.1049(6)
C3 C -0.1580(11) 0.6233(3) -0.1582(6)
C4 C -0.0269(10) 0.6401(2) -0.2952(5)
C5 C -0.057(1) 0.5894(3) -0.4249(6)
C6 C 0.0718(10) 0.6088(3) -0.5621(6)
C7 C -0.0189(12) 0.6741(3) -0.6324(7)
C8 C 0.0100(13) 0.7252(3) -0.5052(7)
C9 C -0.1165(12) 0.7063(3) -0.3646(7)
N1 N -0.0804(8) 0.5614(2) -0.0801(5)
N2 N 0.3256(10) 0.5973(2) 0.0697(5)
N3 N 0.4516(8) 0.4994(3) 0.1995(5)
O1 O 0.5201(7) 0.5646(2) 0.1796(5)
N1B N 0.0804(8) 0.4386(2) 0.0801(5)
C2B C -0.2284(10) 0.5059(2) -0.1049(6)
C1B C -0.1512(10) 0.4467(2) -0.0266(6)
C3B C 0.1580(11) 0.3767(3) 0.1582(6)
N3B N -0.4516(8) 0.5006(3) -0.1995(5)
N2B N -0.3256(10) 0.4027(2) -0.0697(5)
C4B C 0.0269(10) 0.3599(2) 0.2952(5)
O1B O -0.5201(7) 0.4354(2) -0.1796(5)
C5B C 0.057(1) 0.4106(3) 0.4249(6)
C9B C 0.1165(12) 0.2937(3) 0.3646(7)
C6B C -0.0718(10) 0.3912(3) 0.5621(6)
C8B C -0.0100(13) 0.2748(3) 0.5052(7)
C7B C 0.0189(12) 0.3259(3) 0.6324(7)
#END
