
#######################################################################
#
#                 Cambridge Crystallographic Data Centre
#                                CCDC
#
#######################################################################
#
# If this CIF has been generated from an entry in the Cambridge
# Structural Database, then it will include bibliographic, chemical,
# crystal, experimental, refinement or atomic coordinate data resulting
# from the CCDC's data processing and validation procedures.
#
#######################################################################

data_CSD_CIF_YAKMUU
_audit_creation_date 2011-12-12
_audit_creation_method CSD-ConQuest-V1
_database_code_CSD YAKMUU
_database_code_depnum_ccdc_archive 'CCDC 733991'
_chemical_formula_sum 'C21 H18 N4 O6'
_chemical_formula_moiety
;
C21 H18 N4 O6
;
_journal_coden_Cambridge 1487
_journal_volume 53
_journal_year 2010
_journal_page_first 851
_journal_name_full 'Sci.China.Chem. '
loop_
_publ_author_name
"Jun Han"
"Chao Deng"
"Ru Fang"
"YiZhi Li"
"LeYong Wang"
"Yi Pan"
_chemical_name_systematic
;
tris(3-Nitrobenzyl)amine
;
_cell_volume   2032.682
_exptl_crystal_colour 'colorless'
_exptl_crystal_density_diffrn 1.38
_exptl_crystal_description 'prism'
_diffrn_ambient_temperature 291
#These two values have been output from a single CSD field.
_refine_ls_R_factor_gt 0.0573
_refine_ls_wR_factor_gt 0.0573
_symmetry_cell_setting monoclinic
_symmetry_space_group_name_H-M 'P 21/n'
_symmetry_Int_Tables_number 14
loop_
_symmetry_equiv_pos_site_id
_symmetry_equiv_pos_as_xyz
1 x,y,z
2 1/2-x,1/2+y,1/2-z
3 -x,-y,-z
4 -1/2+x,-1/2-y,-1/2+z
_cell_length_a 8.4264(13)
_cell_length_b 17.008(3)
_cell_length_c 14.497(2)
_cell_angle_alpha 90
_cell_angle_beta 101.943(2)
_cell_angle_gamma 90
_cell_formula_units_Z 4
loop_
_atom_type_symbol
_atom_type_radius_bond
C 0.68
H 0.23
N 0.68
O 0.68
loop_
_atom_site_label
_atom_site_type_symbol
_atom_site_fract_x
_atom_site_fract_y
_atom_site_fract_z
C1 C 1.0369(3) 0.24641(14) 0.12985(17)
H1 H 1.13760 0.23450 0.11040
H2 H 1.00500 0.29950 0.10960
C2 C 0.9077(3) 0.18969(14) 0.08367(15)
C3 C 0.9410(3) 0.12883(13) 0.02760(16)
H3 H 1.04580 0.12280 0.01750
C4 C 0.8215(3) 0.07662(14) -0.01391(18)
H4 H 0.84680 0.03570 -0.05090
C5 C 0.6651(3) 0.08514(14) -0.00063(18)
H5 H 0.58350 0.05030 -0.02770
C6 C 0.6341(3) 0.14676(15) 0.05396(17)
C7 C 0.7501(3) 0.19842(14) 0.09677(18)
H6 H 0.72400 0.23890 0.13420
C8 C 1.1518(3) 0.17079(14) 0.26895(18)
H7 H 1.26690 0.18000 0.27370
H8 H 1.11960 0.12800 0.22480
C9 C 1.1222(3) 0.14706(15) 0.36525(17)
C10 C 1.2459(3) 0.11716(15) 0.43467(18)
H9 H 1.35110 0.11490 0.42420
C11 C 1.2145(3) 0.09080(15) 0.51875(19)
H10 H 1.29840 0.07000 0.56410
C12 C 1.0610(4) 0.09478(15) 0.53669(19)
H11 H 1.03990 0.07710 0.59370
C13 C 0.9407(3) 0.12516(15) 0.46910(18)
C14 C 0.9683(3) 0.15216(13) 0.38352(17)
H12 H 0.88390 0.17350 0.33890
C15 C 1.1438(3) 0.31221(14) 0.27788(17)
H13 H 1.23430 0.32520 0.24880
H14 H 1.18650 0.30160 0.34410
C16 C 1.0291(3) 0.38112(15) 0.26875(17)
C17 C 1.0769(3) 0.45537(15) 0.24682(17)
H15 H 1.17970 0.46260 0.23420
C18 C 0.9735(3) 0.51897(17) 0.24336(18)
H16 H 1.00780 0.56850 0.22870
C19 C 0.8209(3) 0.50985(16) 0.26136(18)
H17 H 0.75130 0.55260 0.25930
C20 C 0.7740(3) 0.43574(15) 0.28253(17)
C21 C 0.8768(3) 0.37174(15) 0.28664(18)
H18 H 0.84240 0.32230 0.30160
N1 N 1.0622(2) 0.24154(12) 0.23280(14)
N2 N 0.6109(3) 0.42488(13) 0.29997(15)
N3 N 0.4681(3) 0.15710(12) 0.06827(15)
N4 N 0.7737(3) 0.12932(13) 0.48494(16)
O1 O 0.5710(2) 0.35853(11) 0.31857(12)
O2 O 0.5210(2) 0.48054(10) 0.29467(12)
O3 O 0.3643(2) 0.11101(10) 0.03142(12)
O4 O 0.4414(2) 0.21092(11) 0.11832(13)
O5 O 0.7488(2) 0.10101(11) 0.55766(13)
O6 O 0.6703(2) 0.16107(10) 0.42665(13)
#END
