
#######################################################################
#
#                 Cambridge Crystallographic Data Centre
#                                CCDC
#
#######################################################################
#
# If this CIF has been generated from an entry in the Cambridge
# Structural Database, then it will include bibliographic, chemical,
# crystal, experimental, refinement or atomic coordinate data resulting
# from the CCDC's data processing and validation procedures.
#
#######################################################################

data_CSD_CIF_YAKVOY
_audit_creation_date 2016-12-08
_audit_creation_method CSD-ConQuest-V1
_database_code_CSD YAKVOY
_database_code_depnum_ccdc_archive 'CCDC 1421406'
_chemical_formula_sum 'C41 H51 N3 O6'
_chemical_formula_moiety
;
C41 H51 N3 O6
;
_journal_coden_Cambridge 1591
_journal_volume 7
_journal_year 2016
_journal_page_first 305
_journal_name_full 'ACS Chemical Neuroscience '
loop_
_publ_author_name
"Hongli  Chen"
"Chaojun  Han"
"Jing  Wu"
"Xiaoyu  Liu"
"Yuexiong  Zhan"
"Jiakang  Chen"
"Yanke Chen"
"Ruinan Gu"
"Li Zhang"
"Shuangshuang Chen"
"Jia Jia"
"Xuechu Zhen"
"Long Tai Zheng"
"Biao  Jiang"
_chemical_name_systematic
;
17-((1-(t-butylamino)-1-oxo-3-phenylpropan-2-yl)(methyl)carbamoyl)androsta-5,1
6-dien-3-yl 4-nitrobenzoate
;
_cell_volume   3822.120
_exptl_crystal_density_diffrn 1.185
_exptl_special_details
;
inhibitory effects on LPS-induced NO generation was evaluated in BV-2 
microglial cells.
;
_diffrn_ambient_temperature 296
#These two values have been output from a single CSD field.
_refine_ls_R_factor_gt 0.0505
_refine_ls_wR_factor_gt 0.0505
_symmetry_cell_setting monoclinic
_symmetry_space_group_name_H-M 'C 2'
_symmetry_Int_Tables_number 5
loop_
_symmetry_equiv_pos_site_id
_symmetry_equiv_pos_as_xyz
1 x,y,z
2 -x,y,-z
3 1/2+x,1/2+y,z
4 1/2-x,1/2+y,-z
_cell_length_a 24.7866(19)
_cell_length_b 6.3141(5)
_cell_length_c 25.101(2)
_cell_angle_alpha 90
_cell_angle_beta 103.360(3)
_cell_angle_gamma 90
_cell_formula_units_Z 4
loop_
_atom_type_symbol
_atom_type_radius_bond
C 0.68
H 0.23
N 0.68
O 0.68
loop_
_atom_site_label
_atom_site_type_symbol
_atom_site_fract_x
_atom_site_fract_y
_atom_site_fract_z
O1 O 0.40297(10) -0.0064(4) 0.46221(11)
O2 O 0.23766(14) 0.7359(5) 0.80094(11)
O3 O 0.30689(11) 0.6396(5) 0.98783(12)
N1 N 0.32889(13) 0.7321(6) 0.90803(17)
O4 O 0.39879(15) 0.2812(5) 0.40955(14)
O5 O 0.51801(15) -0.5789(6) 0.28587(14)
C1 C 0.30380(16) 0.2796(6) 0.63441(16)
C2 C 0.26596(14) 0.3416(5) 0.73751(14)
N2 N 0.22793(11) 0.4962(4) 0.86427(12)
O6 O 0.52792(16) -0.2978(6) 0.24181(16)
N3 N 0.51177(14) -0.3908(7) 0.27787(16)
C3 C 0.48477(14) -0.2659(7) 0.31403(16)
C4 C 0.48023(16) -0.3551(7) 0.36207(17)
H1 H 0.49300 -0.49180 0.37120
C5 C 0.45631(16) -0.2383(6) 0.39691(17)
H2 H 0.45290 -0.29570 0.43010
C6 C 0.43721(14) -0.0334(7) 0.38223(17)
C7 C 0.41130(17) 0.0993(7) 0.41866(18)
C8 C 0.37156(16) 0.0993(6) 0.49698(16)
H3 H 0.34190 0.18350 0.47400
C9 C 0.40721(16) 0.2408(7) 0.53870(17)
H4 H 0.42220 0.35410 0.52040
H5 H 0.43800 0.16030 0.56020
C10 C 0.37310(16) 0.3338(6) 0.57609(17)
H6 H 0.34440 0.42310 0.55440
H7 H 0.39700 0.42330 0.60300
C11 C 0.34548(14) 0.1691(5) 0.60646(15)
C12 C 0.33155(17) 0.4399(6) 0.67890(16)
H8 H 0.36380 0.37270 0.70190
H9 H 0.34460 0.55890 0.66090
C13 C 0.29508(17) 0.5263(6) 0.71603(16)
H10 H 0.31790 0.60320 0.74650
H11 H 0.26770 0.62330 0.69550
C14 C 0.22202(16) 0.3878(6) 0.76911(14)
C15 C 0.22951(15) 0.5497(6) 0.81217(16)
C16 C 0.23305(13) 0.6663(6) 0.90569(15)
H12 H 0.22460 0.80040 0.88590
C17 C 0.19222(14) 0.6425(7) 0.94220(15)
H13 H 0.19610 0.50230 0.95850
H14 H 0.20100 0.74540 0.97160
C18 C 0.13313(15) 0.6739(6) 0.91090(15)
C19 C 0.10905(19) 0.8704(9) 0.9074(2)
H15 H 0.12940 0.98430 0.92510
C20 C 0.0558(2) 0.9025(11) 0.8784(3)
H16 H 0.04070 1.03790 0.87630
C21 C 0.0248(2) 0.7414(13) 0.8526(2)
H17 H -0.01130 0.76540 0.83290
C22 C 0.46619(16) -0.0667(7) 0.29840(17)
H18 H 0.46970 -0.01090 0.26510
C23 C 0.44206(16) 0.0501(6) 0.33341(17)
H19 H 0.42910 0.18610 0.32360
C24 C 0.26538(14) 0.1178(6) 0.65307(14)
H20 H 0.28850 0.01160 0.67620
C25 C 0.23064(13) 0.2291(6) 0.68698(14)
H21 H 0.21100 0.34210 0.66350
C26 C 0.30872(15) 0.1970(6) 0.77414(14)
H22 H 0.32540 0.27040 0.80730
H23 H 0.33680 0.15880 0.75520
H24 H 0.29070 0.07140 0.78280
C27 C 0.23547(18) 0.2784(6) 0.88489(16)
H25 H 0.23520 0.18330 0.85500
H26 H 0.20590 0.24220 0.90200
H27 H 0.27030 0.26710 0.91120
C28 C 0.0463(2) 0.5476(11) 0.8557(2)
H28 H 0.02490 0.43600 0.83810
C29 C 0.10052(19) 0.5095(8) 0.8849(2)
H29 H 0.11480 0.37280 0.88690
C30 C 0.29341(15) 0.6790(6) 0.93866(18)
C31 C 0.39007(16) 0.7396(8) 0.9243(2)
C32 C 0.4078(2) 0.8965(12) 0.9704(3)
H30 H 0.38950 1.02930 0.96020
H31 H 0.44720 0.91650 0.97750
H32 H 0.39800 0.84340 1.00270
C33 C 0.4119(2) 0.5240(11) 0.9421(3)
H33 H 0.39920 0.48220 0.97390
H34 H 0.45170 0.52690 0.95080
H35 H 0.39890 0.42460 0.91300
C34 C 0.4091(2) 0.7987(15) 0.8730(3)
H36 H 0.40460 0.67940 0.84860
H37 H 0.44750 0.83900 0.88270
H38 H 0.38730 0.91520 0.85510
C35 C 0.17937(17) 0.2535(7) 0.75370(16)
C36 C 0.18603(14) 0.1100(7) 0.70831(15)
H39 H 0.15180 0.09730 0.68040
H40 H 0.19860 -0.02970 0.72180
C37 C 0.23024(18) 0.0063(8) 0.60317(17)
C38 C 0.26373(18) -0.0544(7) 0.56309(17)
C39 C 0.31467(15) 0.0100(6) 0.56411(14)
C40 C 0.34620(17) -0.0749(6) 0.52448(17)
H41 H 0.32140 -0.15800 0.49680
H42 H 0.37540 -0.16790 0.54380
C41 C 0.39025(15) 0.0475(6) 0.64799(16)
H43 H 0.37280 -0.04140 0.67010
H44 H 0.41430 0.14650 0.67100
H45 H 0.41150 -0.03830 0.62870
H46 H 0.2466(16) -0.141(7) 0.5375(16)
H47 H 0.2132(16) -0.139(7) 0.6180(16)
H48 H 0.2016(14) 0.091(5) 0.5872(13)
H49 H 0.1454(16) 0.243(7) 0.7687(15)
H50 H 0.2804(13) 0.349(5) 0.6078(13)
H51 H 0.3138(17) 0.760(8) 0.8716(18)
#END
