
#######################################################################
#
#                 Cambridge Crystallographic Data Centre
#                                CCDC
#
#######################################################################
#
# If this CIF has been generated from an entry in the Cambridge
# Structural Database, then it will include bibliographic, chemical,
# crystal, experimental, refinement or atomic coordinate data resulting
# from the CCDC's data processing and validation procedures.
#
#######################################################################

data_CSD_CIF_YALBOD
_audit_creation_date 2005-07-12
_audit_creation_method CSD-ConQuest-V1
_database_code_CSD YALBOD
_database_code_depnum_ccdc_archive 'CCDC 267620'
_chemical_formula_sum 'C13 H17 N1 O7'
_chemical_formula_moiety
;
C13 H17 N1 O7
;
_journal_coden_Cambridge 35
_journal_volume 70
_journal_year 2005
_journal_page_first 2235
_journal_name_full 'J.Org.Chem. '
loop_
_publ_author_name
"I.N.N.Namboothiri"
"M.Ganesh"
"S.M.Mobin"
"M.Cojocaru"
_chemical_name_systematic
;
(5R,6R)-1,3,3a,4,5,6-Hexahydro-1-(nitromethyl)isobenzofuran-cis-5,6-diacetate
;
_chemical_melting_point 436.15
_cell_volume   1445.679
_exptl_crystal_colour 'colorless'
_exptl_crystal_density_diffrn 1.375
_exptl_special_details
;
Melting point range 436.15-438.15K

;
_exptl_crystal_description 'block'
_diffrn_ambient_temperature 293
#These two values have been output from a single CSD field.
_refine_ls_R_factor_gt 0.045
_refine_ls_wR_factor_gt 0.045
_symmetry_cell_setting monoclinic
_symmetry_space_group_name_H-M 'P 21/n'
_symmetry_Int_Tables_number 14
loop_
_symmetry_equiv_pos_site_id
_symmetry_equiv_pos_as_xyz
1 x,y,z
2 1/2-x,1/2+y,1/2-z
3 -x,-y,-z
4 -1/2+x,-1/2-y,-1/2+z
_cell_length_a 8.528(1)
_cell_length_b 10.6700(7)
_cell_length_c 16.310(1)
_cell_angle_alpha 90
_cell_angle_beta 103.067(7)
_cell_angle_gamma 90
_cell_formula_units_Z 4
loop_
_atom_type_symbol
_atom_type_radius_bond
C 0.68
H 0.23
N 0.68
O 0.68
loop_
_atom_site_label
_atom_site_type_symbol
_atom_site_fract_x
_atom_site_fract_y
_atom_site_fract_z
N1 N -0.5908(3) 1.1886(3) 0.84069(17)
O1 O -0.7268(3) 1.1740(3) 0.7981(2)
O2 O -0.5409(3) 1.2870(2) 0.87342(17)
O3 O -0.2826(2) 1.1668(2) 0.78402(13)
O4 O 0.1602(2) 0.72993(16) 0.89387(12)
O5 O 0.3861(2) 0.8400(2) 0.93697(15)
O6 O -0.0393(2) 0.75045(15) 1.01059(11)
O7 O -0.1846(3) 0.57540(19) 0.97767(13)
C1 C -0.4818(3) 1.0778(3) 0.8497(3)
C2 C -0.3090(3) 1.1123(3) 0.85998(18)
C3 C -0.1567(4) 1.1016(3) 0.75691(19)
C4 C -0.0640(3) 1.0307(2) 0.83316(16)
C5 C 0.0244(3) 0.9127(3) 0.81839(17)
C6 C 0.0651(3) 0.8402(2) 0.89978(17)
C7 C -0.0857(3) 0.7948(2) 0.92430(16)
C8 C -0.2086(3) 0.8970(2) 0.91731(17)
C9 C -0.1955(3) 1.0029(2) 0.87801(15)
C10 C 0.3216(3) 0.7419(3) 0.91593(18)
C11 C 0.4009(5) 0.6190(4) 0.9119(3)
C12 C -0.0950(3) 0.6377(2) 1.02871(18)
C13 C -0.0318(5) 0.6052(3) 1.1189(2)
H1 H -0.050(3) 0.857(2) 0.7752(15)
H2 H -0.132(3) 0.722(2) 0.8908(14)
H3 H -0.201(3) 1.038(3) 0.7132(17)
H4 H 0.121(3) 0.891(2) 0.9429(15)
H5 H 0.007(3) 1.089(2) 0.8668(16)
H6 H -0.283(3) 1.174(3) 0.9036(17)
H7 H -0.520(3) 1.027(3) 0.806(2)
H8 H 0.120(3) 0.929(2) 0.7992(17)
H9 H -0.046(4) 0.522(3) 1.1251(19)
H10 H -0.292(3) 0.880(2) 0.9458(16)
H11 H -0.091(3) 1.167(3) 0.7352(18)
H12 H -0.500(4) 1.034(3) 0.902(2)
H13 H 0.504(5) 0.631(3) 0.920(2)
H14 H 0.069(5) 0.635(3) 1.139(2)
H15 H 0.353(6) 0.580(4) 0.865(3)
H16 H -0.097(4) 0.647(3) 1.156(2)
H17 H 0.376(5) 0.568(4) 0.955(3)
#END
