
#######################################################################
#
#                 Cambridge Crystallographic Data Centre
#                                CCDC
#
#######################################################################
#
# If this CIF has been generated from an entry in the Cambridge
# Structural Database, then it will include bibliographic, chemical,
# crystal, experimental, refinement or atomic coordinate data resulting
# from the CCDC's data processing and validation procedures.
#
#######################################################################

data_CSD_CIF_YALBIX
_audit_creation_date 2005-07-12
_audit_creation_method CSD-ConQuest-V1
_database_code_CSD YALBIX
_database_code_depnum_ccdc_archive 'CCDC 229616'
_chemical_formula_sum 'C10 H13 N1 O5'
_chemical_formula_moiety
;
C10 H13 N1 O5
;
_journal_coden_Cambridge 35
_journal_volume 70
_journal_year 2005
_journal_page_first 2235
_journal_name_full 'J.Org.Chem. '
loop_
_publ_author_name
"I.N.N.Namboothiri"
"M.Ganesh"
"S.M.Mobin"
"M.Cojocaru"
_chemical_name_systematic
;
1-(\b-Nitromethyl)-4,4a,5,6-tetrahydro-3H-6,8a,7,8-diepoxyisochromene
;
_cell_volume   1007.871
_exptl_crystal_colour 'colorless'
_exptl_crystal_density_diffrn 1.497
_exptl_crystal_description 'block'
_diffrn_ambient_temperature 293
#These two values have been output from a single CSD field.
_refine_ls_R_factor_gt 0.0374
_refine_ls_wR_factor_gt 0.0374
_symmetry_cell_setting triclinic
_symmetry_space_group_name_H-M 'P -1'
_symmetry_Int_Tables_number 2
loop_
_symmetry_equiv_pos_site_id
_symmetry_equiv_pos_as_xyz
1 x,y,z
2 -x,-y,-z
_cell_length_a 8.1670(13)
_cell_length_b 10.7620(12)
_cell_length_c 11.823(2)
_cell_angle_alpha 103.069(13)
_cell_angle_beta 95.201(18)
_cell_angle_gamma 89.954(11)
_cell_formula_units_Z 4
loop_
_atom_type_symbol
_atom_type_radius_bond
C 0.68
H 0.23
N 0.68
O 0.68
loop_
_atom_site_label
_atom_site_type_symbol
_atom_site_fract_x
_atom_site_fract_y
_atom_site_fract_z
N1 N 0.7043(2) 1.01122(17) 0.13910(15)
N2 N 0.2008(2) 0.30321(19) 0.11824(16)
O1 O 0.6674(2) 1.09244(18) 0.08555(15)
O2 O 0.8428(2) 0.99735(19) 0.17948(18)
O3 O 0.53194(16) 1.07846(13) 0.33046(11)
O4 O 0.35964(16) 0.82140(12) 0.29726(11)
O5 O 0.23271(18) 0.73501(13) 0.09286(12)
O6 O 0.3404(2) 0.3300(2) 0.15874(18)
O7 O 0.1583(2) 0.19981(18) 0.05790(18)
O8 O 0.03549(17) 0.34152(14) 0.32033(12)
O9 O -0.13989(17) 0.57754(12) 0.28374(12)
O10 O -0.2588(2) 0.56083(15) 0.07732(13)
C1 C 0.5710(3) 0.9264(2) 0.15952(19)
C2 C 0.4460(2) 1.00723(18) 0.22639(16)
C3 C 0.3051(2) 0.92752(17) 0.24903(15)
C4 C 0.1889(2) 0.86319(18) 0.14402(16)
C5 C 0.1191(3) 0.7568(2) 0.18053(18)
C6 C 0.1982(3) 0.7702(2) 0.30353(18)
C7 C 0.1139(3) 0.8838(2) 0.3766(2)
C8 C 0.1950(2) 0.99801(19) 0.34158(16)
C9 C 0.2983(3) 1.0842(2) 0.44300(17)
C10 C 0.4252(3) 1.1610(2) 0.4012(2)
C11 C 0.0729(3) 0.4008(2) 0.1444(2)
C12 C -0.0511(2) 0.35661(18) 0.21481(16)
C13 C -0.1917(2) 0.44687(17) 0.23520(15)
C14 C -0.3052(2) 0.4582(2) 0.12863(17)
C15 C -0.3761(3) 0.5828(2) 0.16284(19)
C16 C -0.3015(3) 0.6302(2) 0.28663(19)
C17 C -0.3900(3) 0.5520(2) 0.3579(2)
C18 C -0.3039(2) 0.42281(19) 0.32663(16)
C19 C -0.2016(3) 0.3912(2) 0.43011(18)
C20 C -0.0721(3) 0.2957(2) 0.3926(2)
H1 H 0.117(2) 1.0491(17) 0.3064(16)
H2 H 0.133(2) 0.9121(19) 0.0962(17)
H3 H 0.402(2) 1.0624(19) 0.1819(16)
H4 H 0.357(3) 1.028(2) 0.491(2)
H5 H -0.099(2) 0.273(2) 0.1719(18)
H6 H -0.293(3) 0.723(2) 0.318(2)
H7 H -0.120(3) 0.211(2) 0.349(2)
H8 H 0.498(3) 1.208(2) 0.468(2)
H9 H 0.128(3) 0.475(2) 0.186(2)
H10 H -0.354(3) 0.385(2) 0.0786(18)
H11 H 0.625(3) 0.872(2) 0.2015(19)
H12 H 0.000(3) 0.282(2) 0.460(2)
H13 H -0.377(2) 0.3511(19) 0.2936(17)
H14 H 0.226(3) 1.146(2) 0.4911(19)
H15 H -0.271(3) 0.357(2) 0.4801(19)
H16 H 0.524(3) 0.880(2) 0.082(2)
H17 H 0.363(3) 1.220(2) 0.354(2)
H18 H 0.018(3) 0.411(2) 0.069(2)
H19 H -0.505(3) 0.548(2) 0.337(2)
H20 H 0.209(3) 0.694(2) 0.334(2)
H21 H 0.009(3) 0.726(2) 0.1578(19)
H22 H -0.490(3) 0.605(2) 0.138(2)
H23 H -0.146(3) 0.467(2) 0.476(2)
H24 H 0.139(3) 0.888(2) 0.458(2)
H25 H -0.370(3) 0.591(2) 0.439(2)
H26 H -0.003(3) 0.879(2) 0.356(2)
#END
