
#######################################################################
#
#                 Cambridge Crystallographic Data Centre
#                                CCDC
#
#######################################################################
#
# If this CIF has been generated from an entry in the Cambridge
# Structural Database, then it will include bibliographic, chemical,
# crystal, experimental, refinement or atomic coordinate data resulting
# from the CCDC's data processing and validation procedures.
#
#######################################################################

data_CSD_CIF_YALFID
_audit_creation_date 2016-12-08
_audit_creation_method CSD-ConQuest-V1
_database_code_CSD YALFID
_database_code_depnum_ccdc_archive 'CCDC 1056786'
_chemical_formula_sum 'C20 H16 N2 O6'
_chemical_formula_moiety
;
C20 H16 N2 O6
;
_journal_coden_Cambridge 2096
_journal_volume 9
_journal_year 2015
_journal_page_first 1001
_journal_name_full 'Express Polym. Lett. '
loop_
_publ_author_name
"A.R.Ashraf"
"Z.Akhter"
"V.McKee"
"M.Siddiq"
_chemical_name_systematic
;
1,4-bis((2-nitrophenoxy)methyl)benzene
;
_chemical_name_common
;
1,1'-(1,4-phenylenebis(methyleneoxy))bis(2-nitrobenzene)
;
_cell_volume    849.996
_exptl_crystal_colour 'orange'
_exptl_crystal_density_diffrn 1.486
_exptl_crystal_description 'block'
_diffrn_ambient_temperature 150
#These two values have been output from a single CSD field.
_refine_ls_R_factor_gt 0.0423
_refine_ls_wR_factor_gt 0.0423
_symmetry_cell_setting monoclinic
_symmetry_space_group_name_H-M 'P 21/n'
_symmetry_Int_Tables_number 14
loop_
_symmetry_equiv_pos_site_id
_symmetry_equiv_pos_as_xyz
1 x,y,z
2 1/2-x,1/2+y,1/2-z
3 -x,-y,-z
4 -1/2+x,-1/2-y,-1/2+z
_cell_length_a 7.4203(4)
_cell_length_b 11.7771(6)
_cell_length_c 9.7275(5)
_cell_angle_alpha 90
_cell_angle_beta 90.818(1)
_cell_angle_gamma 90
_cell_formula_units_Z 2
loop_
_atom_type_symbol
_atom_type_radius_bond
C 0.68
H 0.23
N 0.68
O 0.68
loop_
_atom_site_label
_atom_site_type_symbol
_atom_site_fract_x
_atom_site_fract_y
_atom_site_fract_z
O1 O 0.21032(10) 0.60900(7) 0.22648(7)
C1 C 0.07395(14) 0.62879(9) 0.13501(10)
C2 C 0.11749(14) 0.68220(9) 0.01099(10)
N1 N 0.30119(13) 0.72049(8) -0.01310(9)
O2 O 0.38314(12) 0.77094(8) 0.07881(9)
O3 O 0.36470(13) 0.70224(10) -0.12730(9)
C3 C -0.00892(16) 0.70103(9) -0.09281(11)
H1 H 0.02570 0.73550 -0.17670
C4 C -0.18613(16) 0.66904(10) -0.07284(13)
H2 H -0.27500 0.68250 -0.14220
C5 C -0.23234(16) 0.61711(10) 0.04950(14)
H3 H -0.35400 0.59520 0.06320
C6 C -0.10517(15) 0.59624(10) 0.15259(12)
H4 H -0.14010 0.55980 0.23520
C7 C 0.16681(14) 0.54793(9) 0.35016(11)
H5 H 0.10540 0.47570 0.32680
H6 H 0.08540 0.59390 0.40770
C8 C 0.34021(14) 0.52454(9) 0.42685(10)
C9 C 0.35890(14) 0.55443(9) 0.56516(10)
H7 H 0.26290 0.59180 0.61020
C10 C 0.48281(15) 0.47019(9) 0.36251(10)
H8 H 0.47190 0.44970 0.26830
O1B O 0.78968(10) 0.39100(7) 0.77352(7)
C1B C 0.92605(14) 0.37121(9) 0.86499(10)
C2B C 0.88251(14) 0.31780(9) 0.98901(10)
N1B N 0.69881(13) 0.27951(8) 1.01310(9)
O2B O 0.61686(12) 0.22906(8) 0.92119(9)
O3B O 0.63530(13) 0.29776(10) 1.12730(9)
C3B C 1.00892(16) 0.29897(9) 1.09281(11)
H1B H 0.97430 0.26450 1.17670
C4B C 1.18613(16) 0.33096(10) 1.07284(13)
H2B H 1.27500 0.31750 1.14220
C5B C 1.23234(16) 0.38289(10) 0.95050(14)
H3B H 1.35400 0.40480 0.93680
C6B C 1.10517(15) 0.40376(10) 0.84741(12)
H4B H 1.14010 0.44020 0.76480
C7B C 0.83319(14) 0.45207(9) 0.64984(11)
H5B H 0.89460 0.52430 0.67320
H6B H 0.91460 0.40610 0.59230
C8B C 0.65979(14) 0.47546(9) 0.57315(10)
C9B C 0.64110(14) 0.44557(9) 0.43484(10)
H7B H 0.73710 0.40820 0.38980
C10B C 0.51719(15) 0.52981(9) 0.63749(10)
H8B H 0.52810 0.55030 0.73170
#END
