
#######################################################################
#
#                 Cambridge Crystallographic Data Centre
#                                CCDC
#
#######################################################################
#
# If this CIF has been generated from an entry in the Cambridge
# Structural Database, then it will include bibliographic, chemical,
# crystal, experimental, refinement or atomic coordinate data resulting
# from the CCDC's data processing and validation procedures.
#
#######################################################################

data_CSD_CIF_YALZOA
_audit_creation_date 1993-12-06
_audit_creation_method CSD-ConQuest-V1
_database_code_CSD YALZOA
_database_code_depnum_ccdc_archive 'CCDC 1299171'
_chemical_formula_sum 'C14 H18 N2 O2'
_chemical_formula_moiety
;
C14 H18 N2 O2
;
_journal_coden_Cambridge 34
_journal_volume 29
_journal_year 1992
_journal_page_first 1481
_journal_name_full 'J.Heterocycl.Chem. '
loop_
_publ_author_name
"M.C.Schroeder"
"J.S.Kiely"
"E.Laborde"
"D.R.Johnson"
"D.L.Szotek"
"J.M.Domagala"
"T.M.Stickney"
"A.Michel"
"J.W.Kampf"
_chemical_name_systematic
;
(S-(R*,R*))-4-(1-(Hydroxyimino)ethyl)-1-(1-phenylethyl)-2-pyrrolidinone
;
_chemical_melting_point 382.15
_cell_volume   1370.382
_exptl_crystal_density_diffrn 1.177
_exptl_special_details
;
Melting point range 382.15-383.15K

;
_diffrn_ambient_temperature ?
_diffrn_special_details
;
The study was carried out at room temperature,in the range 283-303K

;
#These two values have been output from a single CSD field.
_refine_ls_R_factor_gt 0.019
_refine_ls_wR_factor_gt 0.019
loop_
_citation_database_id_CSD
_citation_special_details
YALZUG "is a stereoisomer of this entry"
_symmetry_cell_setting monoclinic
_symmetry_space_group_name_H-M 'P 21'
_symmetry_Int_Tables_number 4
loop_
_symmetry_equiv_pos_site_id
_symmetry_equiv_pos_as_xyz
1 x,y,z
2 -x,1/2+y,-z
_cell_length_a 11.9148(2)
_cell_length_b 8.7203(4)
_cell_length_c 13.7431(6)
_cell_angle_alpha 90
_cell_angle_beta 106.32(2)
_cell_angle_gamma 90
_cell_formula_units_Z 4
loop_
_atom_type_symbol
_atom_type_radius_bond
C 0.68
N 0.68
O 0.68
loop_
_atom_site_label
_atom_site_type_symbol
_atom_site_fract_x
_atom_site_fract_y
_atom_site_fract_z
O1 O 0.0977(3) 0.34713 0.10430(24)
O2 O -0.1286(4) 0.0843(6) -0.2353(3)
N1 N 0.1190(3) 0.4440(7) -0.0451(3)
N2 N -0.0958(4) 0.2036(7) -0.1629(3)
C1 C 0.0571(5) 0.4037(7) 0.0212(4)
C2 C -0.0671(5) 0.4373(8) -0.0230(4)
C3 C -0.0744(4) 0.4714(7) -0.1336(4)
C4 C 0.0509(5) 0.5199(8) -0.1340(4)
C5 C -0.1078(4) 0.3337(8) -0.2026(3)
C6 C -0.1474(7) 0.3647(9) -0.3119(5)
C7 C 0.2460(5) 0.4334(9) -0.0245(4)
C8 C 0.2789(6) 0.3185(12) -0.0962(8)
C9 C 0.3001(4) 0.5895(8) -0.0246(4)
C10 C 0.3148(6) 0.6593(12) -0.1095(5)
C11 C 0.3597(8) 0.8031(14) -0.1095(7)
C12 C 0.3959(6) 0.8811(11) -0.0207(8)
C13 C 0.3847(7) 0.8122(11) 0.0650(6)
C14 C 0.3351(5) 0.668(1) 0.0636(4)
O3 O 0.7479(3) 0.8526(7) 0.3544(3)
O4 O 0.9008(3) 0.0779(6) 0.3710(3)
N3 N 0.6864(3) 0.6293(6) 0.4087(3)
N4 N 0.8404(4) 0.2084(7) 0.3929(3)
C15 C 0.7603(5) 0.7132(8) 0.3726(4)
C16 C 0.8575(5) 0.6151(9) 0.3579(5)
C17 C 0.8507(5) 0.4743(8) 0.4239(4)
C18 C 0.7212(5) 0.4680(8) 0.4220(4)
C19 C 0.9012(7) 0.3277(8) 0.3979(4)
C20 C 1.0209(6) 0.3334(10) 0.3806(6)
C21 C 0.5754(5) 0.6861(8) 0.4248(4)
C22 C 0.4751(6) 0.6041(11) 0.3532(5)
C23 C 0.5739(4) 0.6757(7) 0.5353(4)
C24 C 0.4838(5) 0.6153(8) 0.5692(5)
C25 C 0.4831(6) 0.6114(11) 0.6677(6)
C26 C 0.5752(7) 0.6709(9) 0.7364(4)
C27 C 0.6711(6) 0.7355(9) 0.7047(5)
C28 C 0.6667(4) 0.7347(8) 0.6046(5)
#END
