
#######################################################################
#
#                 Cambridge Crystallographic Data Centre
#                                CCDC
#
#######################################################################
#
# If this CIF has been generated from an entry in the Cambridge
# Structural Database, then it will include bibliographic, chemical,
# crystal, experimental, refinement or atomic coordinate data resulting
# from the CCDC's data processing and validation procedures.
#
#######################################################################

data_CSD_CIF_YAMJOL
_audit_creation_date 1993-11-16
_audit_creation_method CSD-ConQuest-V1
_database_code_CSD YAMJOL
_chemical_formula_sum 'C11 H14 N2 O2'
_chemical_formula_moiety
;
C11 H14 N2 O2
;
_journal_coden_Cambridge 1001
_journal_volume 36
_journal_year 1991
_journal_page_first 95
_journal_name_full 'Bol.Soc.Chil.Quim. '
loop_
_publ_author_name
"I.Brito"
"V.Manriquez"
"M.I.Reyes-Parada"
"B.K.Cassels"
"M.L.Rodriguez"
_chemical_name_systematic
;
(E)-1-(4-Dimethylaminophenyl)-2-nitropropene
;
_cell_volume   1069.778
_exptl_crystal_density_diffrn 1.281
_diffrn_ambient_temperature ?
_diffrn_special_details
;
The study was carried out at room temperature,in the range 283-303K

;
#These two values have been output from a single CSD field.
_refine_ls_R_factor_gt 0.048
_refine_ls_wR_factor_gt 0.048
_symmetry_cell_setting monoclinic
_symmetry_space_group_name_H-M 'P 21/c'
_symmetry_Int_Tables_number 14
loop_
_symmetry_equiv_pos_site_id
_symmetry_equiv_pos_as_xyz
1 x,y,z
2 -x,1/2+y,1/2-z
3 -x,-y,-z
4 x,-1/2-y,-1/2+z
_cell_length_a 12.3402(8)
_cell_length_b 7.6692(4)
_cell_length_c 12.8082(8)
_cell_angle_alpha 90
_cell_angle_beta 118.05(6)
_cell_angle_gamma 90
_cell_formula_units_Z 4
loop_
_atom_type_symbol
_atom_type_radius_bond
C 0.68
N 0.68
O 0.68
loop_
_atom_site_label
_atom_site_type_symbol
_atom_site_fract_x
_atom_site_fract_y
_atom_site_fract_z
N1 N 0.8647(3) 0.2104(4) 0.2440(3)
N2 N 0.2333(2) 0.1468(3) -0.3608(2)
O1 O 0.9701(2) 0.1516(4) 0.2916(2)
O2 O 0.8302(3) 0.3153(4) 0.2957(2)
C1 C 0.5600(3) 0.1893(4) -0.0362(3)
C2 C 0.4514(3) 0.2776(4) -0.0583(3)
C3 C 0.3453(3) 0.2666(4) -0.1630(3)
C4 C 0.3385(3) 0.1607(4) -0.2566(3)
C5 C 0.4469(3) 0.0712(4) -0.2355(3)
C6 C 0.5531(3) 0.0858(4) -0.1305(3)
C7 C 0.6655(3) 0.2144(4) 0.0787(3)
C8 C 0.7802(3) 0.1522(4) 0.1236(3)
C9 C 0.8348(3) 0.0309(5) 0.0705(4)
C10 C 0.2218(3) 0.0196(5) -0.4502(3)
C11 C 0.1199(3) 0.2325(5) -0.3795(4)
#END
