
#######################################################################
#
#                 Cambridge Crystallographic Data Centre
#                                CCDC
#
#######################################################################
#
# If this CIF has been generated from an entry in the Cambridge
# Structural Database, then it will include bibliographic, chemical,
# crystal, experimental, refinement or atomic coordinate data resulting
# from the CCDC's data processing and validation procedures.
#
#######################################################################

data_CSD_CIF_YAMLOP
_audit_creation_date 2011-12-21
_audit_creation_method CSD-ConQuest-V1
_database_code_CSD YAMLOP
_database_code_depnum_ccdc_archive 'CCDC 818285'
_chemical_formula_sum 'C18 H24 N8 O3'
_chemical_formula_moiety
;
C18 H24 N8 O3
;
_journal_coden_Cambridge 222
_journal_volume 40
_journal_year 2011
_journal_page_first 9877
_journal_name_full 'Dalton Trans. '
loop_
_publ_author_name
"M.Pellei"
"G.Papini"
"A.Trasatti"
"M.Giorgetti"
"D.Tonelli"
"M.Minicucci"
"C.Marzano"
"V.Gandin"
"G.Aquilanti"
"A.Dolmella"
"C.Santini"
_chemical_name_systematic
;
2,2-bis(3,5-dimethyl-1H-pyrazol-1-yl)-N-(2-(2-methyl-5-nitro-1H-imidazol-1-yl)
ethyl)acetamide
;
_cell_volume   2004.041
_exptl_crystal_colour 'colorless'
_exptl_crystal_density_diffrn 1.327
_exptl_crystal_description 'plates'
_diffrn_ambient_temperature 297
#These two values have been output from a single CSD field.
_refine_ls_R_factor_gt 0.0587
_refine_ls_wR_factor_gt 0.0587
_symmetry_cell_setting monoclinic
_symmetry_space_group_name_H-M 'P 21/c'
_symmetry_Int_Tables_number 14
loop_
_symmetry_equiv_pos_site_id
_symmetry_equiv_pos_as_xyz
1 x,y,z
2 -x,1/2+y,1/2-z
3 -x,-y,-z
4 x,-1/2-y,-1/2+z
_cell_length_a 11.7813(14)
_cell_length_b 16.3076(11)
_cell_length_c 10.4320(14)
_cell_angle_alpha 90
_cell_angle_beta 90.818(12)
_cell_angle_gamma 90
_cell_formula_units_Z 4
loop_
_atom_type_symbol
_atom_type_radius_bond
C 0.68
H 0.23
N 0.68
O 0.68
loop_
_atom_site_label
_atom_site_type_symbol
_atom_site_fract_x
_atom_site_fract_y
_atom_site_fract_z
O1 O 0.67960(16) 0.25344(11) 0.45037(16)
O2 O 0.3476(2) 0.37794(18) 0.3203(3)
O3 O 0.2543(3) 0.3165(2) 0.4676(3)
N1 N 0.68505(15) 0.26835(11) 0.23679(18)
H1 H 0.71880 0.25350 0.16800
N2 N 0.42752(17) 0.22446(14) 0.2346(2)
N3 N 0.3741(2) 0.10363(18) 0.3109(3)
N4 N 0.3163(2) 0.3156(2) 0.3755(3)
N5 N 0.86663(15) 0.15975(11) 0.22347(18)
N6 N 0.78922(16) 0.11190(12) 0.15854(19)
N7 N 0.84846(16) 0.13546(11) 0.45048(19)
N8 N 0.94911(17) 0.13734(12) 0.5186(2)
C1 C 0.72348(19) 0.23982(12) 0.3482(2)
C2 C 0.58880(19) 0.32351(14) 0.2252(3)
H2 H 0.61170 0.37220 0.17880
H3 H 0.56620 0.34050 0.31020
C3 C 0.4876(2) 0.28495(17) 0.1566(2)
H4 H 0.43490 0.32790 0.13140
H5 H 0.51350 0.25850 0.07900
C4 C 0.4351(2) 0.14157(18) 0.2249(3)
C5 C 0.3239(3) 0.1636(2) 0.3797(3)
H6 H 0.27530 0.15500 0.44780
C6 C 0.3553(2) 0.23819(19) 0.3346(3)
C7 C 0.5021(3) 0.0983(2) 0.1267(3)
H7 H 0.46960 0.10860 0.04330
H8 H 0.50120 0.04040 0.14360
H9 H 0.57900 0.11780 0.12940
C8 C 0.83793(19) 0.19360(13) 0.3464(2)
H10 H 0.89580 0.23540 0.36410
C9 C 0.8432(2) 0.08739(15) 0.0558(2)
C10 C 0.9544(2) 0.11756(17) 0.0547(3)
H11 H 1.00830 0.10840 -0.00800
C11 C 0.9679(2) 0.16281(15) 0.1631(2)
C12 C 0.7832(3) 0.03478(19) -0.0427(3)
H12 H 0.82280 -0.01640 -0.05110
H13 H 0.78180 0.06270 -0.12380
H14 H 0.70690 0.02450 -0.01610
C13 C 1.0685(2) 0.2079(2) 0.2155(3)
H15 H 1.05490 0.26590 0.21040
H16 H 1.13420 0.19440 0.16640
H17 H 1.08130 0.19260 0.30340
C14 C 0.9401(2) 0.07638(15) 0.6020(2)
C15 C 0.8360(2) 0.03651(15) 0.5879(2)
H18 H 0.81020 -0.00730 0.63650
C16 C 0.7792(2) 0.07392(14) 0.4896(2)
C17 C 1.0364(3) 0.05737(19) 0.6936(3)
H19 H 1.10450 0.08340 0.66450
H20 H 1.04780 -0.00090 0.69730
H21 H 1.01840 0.07750 0.77730
C18 C 0.6666(2) 0.05383(17) 0.4293(3)
H22 H 0.62130 0.10260 0.42370
H23 H 0.62850 0.01380 0.48060
H24 H 0.67790 0.03220 0.34480
#END
