
#######################################################################
#
#                 Cambridge Crystallographic Data Centre
#                                CCDC
#
#######################################################################
#
# If this CIF has been generated from an entry in the Cambridge
# Structural Database, then it will include bibliographic, chemical,
# crystal, experimental, refinement or atomic coordinate data resulting
# from the CCDC's data processing and validation procedures.
#
#######################################################################

data_CSD_CIF_YAMMOR
_audit_creation_date 2016-12-08
_audit_creation_method CSD-ConQuest-V1
_database_code_CSD YAMMOR
_database_code_depnum_ccdc_archive 'CCDC 1008519'
_chemical_formula_sum 'C19 H14 N2 O2'
_chemical_formula_moiety
;
C19 H14 N2 O2
;
_journal_coden_Cambridge 1280
_journal_volume 17
_journal_year 2015
_journal_page_first 216
_journal_name_full 'Organic Electronics '
loop_
_publ_author_name
"P.Kautny"
"Zhongbin Wu"
"B.Stoger"
"A.Tissot"
"E.Horkel"
"Jiangshan Chen"
"Dongge Ma"
"H.Hagemann"
"J.Frohlich"
"D.Lumpi"
_chemical_name_systematic
;
9-(2-methyl-4-nitrophenyl)-9H-carbazole
;
_cell_volume   1467.016
_exptl_crystal_colour 'yellow'
_exptl_crystal_density_diffrn 1.368
_exptl_crystal_description 'block'
_diffrn_ambient_temperature 100
#These two values have been output from a single CSD field.
_refine_ls_R_factor_gt 0.044
_refine_ls_wR_factor_gt 0.044
_symmetry_cell_setting triclinic
_symmetry_space_group_name_H-M 'P -1'
_symmetry_Int_Tables_number 2
loop_
_symmetry_equiv_pos_site_id
_symmetry_equiv_pos_as_xyz
1 x,y,z
2 -x,-y,-z
_cell_length_a 7.7738(3)
_cell_length_b 12.6026(5)
_cell_length_c 15.4833(7)
_cell_angle_alpha 104.4551(18)
_cell_angle_beta 92.579(2)
_cell_angle_gamma 90.6132(18)
_cell_formula_units_Z 4
loop_
_atom_type_symbol
_atom_type_radius_bond
C 0.68
H 0.23
N 0.68
O 0.68
loop_
_atom_site_label
_atom_site_type_symbol
_atom_site_fract_x
_atom_site_fract_y
_atom_site_fract_z
O1 O 0.46543(11) 0.53769(6) 0.24303(6)
O2 O 0.57222(11) 0.52894(6) 0.11442(6)
N1 N 0.45395(10) 1.03652(6) 0.23747(5)
N2 N 0.51534(11) 0.58078(7) 0.18520(6)
C1 C 0.47236(11) 0.92229(7) 0.22819(6)
C2 C 0.41184(11) 0.87154(7) 0.29209(6)
C3 C 0.43067(12) 0.75819(7) 0.27724(6)
C4 C 0.50422(12) 0.70020(7) 0.20078(7)
C5 C 0.56423(12) 0.74916(8) 0.13674(7)
C6 C 0.54872(12) 0.86141(7) 0.15154(6)
C7 C 0.52831(11) 1.12147(7) 0.30528(6)
C8 C 0.62962(12) 1.11585(8) 0.38036(6)
C9 C 0.69042(13) 1.21440(8) 0.43692(6)
C10 C 0.65119(13) 1.31513(8) 0.41915(6)
C11 C 0.55364(12) 1.32021(7) 0.34326(6)
C12 C 0.49231(11) 1.22235(7) 0.28500(6)
C13 C 0.39599(11) 1.19747(7) 0.20009(6)
C14 C 0.32713(12) 1.26243(8) 0.14647(6)
C15 C 0.23445(13) 1.21142(8) 0.06820(7)
C16 C 0.21059(13) 1.09722(8) 0.04311(7)
C17 C 0.28020(13) 1.03116(8) 0.09455(6)
C18 C 0.37458(12) 1.08263(7) 0.17304(6)
C19 C 0.32493(13) 0.93243(8) 0.37373(6)
H1 H 0.39248 0.72091 0.32019
H2 H 0.61470 0.70667 0.08404
H3 H 0.59061 0.89802 0.10895
H4 H 0.65653 1.04676 0.39269
H5 H 0.76077 1.21315 0.48921
H6 H 0.69250 1.38177 0.46018
H7 H 0.52863 1.38955 0.33091
H8 H 0.34364 1.34063 0.16346
H9 H 0.18602 1.25487 0.03073
H10 H 0.14452 1.06398 -0.01095
H11 H 0.26414 0.95295 0.07689
H12 H 0.22389 0.89197 0.38146
H13 H 0.40262 0.94101 0.42510
H14 H 0.29263 1.00331 0.36690
O3 O 1.03181(11) 0.06937(6) 0.29532(6)
O4 O 0.85711(10) 0.03814(6) 0.17852(6)
N3 N 0.94545(10) 0.55073(6) 0.25518(5)
N4 N 0.94376(11) 0.10059(7) 0.23905(6)
C20 C 0.94368(11) 0.43772(7) 0.25353(6)
C21 C 0.84591(12) 0.36526(7) 0.18567(6)
C22 C 0.84559(12) 0.25389(7) 0.18004(6)
C23 C 0.94187(11) 0.21850(7) 0.24419(6)
C24 C 1.03838(12) 0.28883(7) 0.31247(6)
C25 C 1.04255(11) 0.40072(7) 0.31756(6)
C26 C 0.88130(11) 0.63624(7) 0.32057(6)
C27 C 0.79554(12) 0.63155(8) 0.39674(6)
C28 C 0.74590(13) 0.72995(8) 0.45171(7)
C29 C 0.78066(13) 0.83023(8) 0.43139(7)
C30 C 0.86147(12) 0.83412(7) 0.35421(7)
C31 C 0.91161(11) 0.73596(7) 0.29743(6)
C32 C 0.99402(11) 0.70962(7) 0.21310(6)
C33 C 1.05026(12) 0.77194(8) 0.15618(6)
C34 C 1.12989(12) 0.71882(8) 0.07936(6)
C35 C 1.15549(12) 0.60545(8) 0.05916(6)
C36 C 1.09817(12) 0.54188(7) 0.11390(6)
C37 C 1.01478(11) 0.59526(7) 0.18987(6)
C38 C 1.15412(13) 0.47800(8) 0.38801(7)
H15 H 0.77870 0.39276 0.14278
H16 H 0.78063 0.20298 0.13313
H17 H 1.10213 0.26066 0.35611
H18 H 0.77177 0.56290 0.41061
H19 H 0.68661 0.72942 0.50467
H20 H 0.74796 0.89724 0.47158
H21 H 0.88259 0.90290 0.34004
H22 H 1.03411 0.84968 0.16999
H23 H 1.16812 0.76036 0.03933
H24 H 1.21386 0.57116 0.00639
H25 H 1.11529 0.46424 0.09997
H26 H 1.22061 0.52431 0.36079
H27 H 1.08279 0.52234 0.43127
H28 H 1.23024 0.43671 0.41700
#END
