
#######################################################################
#
#                 Cambridge Crystallographic Data Centre
#                                CCDC
#
#######################################################################
#
# If this CIF has been generated from an entry in the Cambridge
# Structural Database, then it will include bibliographic, chemical,
# crystal, experimental, refinement or atomic coordinate data resulting
# from the CCDC's data processing and validation procedures.
#
#######################################################################

data_CSD_CIF_YAMPAG
_audit_creation_date 2016-12-08
_audit_creation_method CSD-ConQuest-V1
_database_code_CSD YAMPAG
_database_code_depnum_ccdc_archive 'CCDC 1012961'
_chemical_formula_sum 'C14 H12 N2 O4'
_chemical_formula_moiety
;
C14 H12 N2 O4
;
_journal_coden_Cambridge 388
_journal_volume 50
_journal_year 2014
_journal_page_first 1814
_journal_name_full 'Zh.Org.Khim.(Russ.)(Russ.J.Org.Chem.) '
loop_
_publ_author_name
"L.M.Gornostaev"
"Yu.G.Khalyavina"
"T.I.Lavrikova"
"Yu.V.Gatilov"
"G.A.Stashina"
"S.I.Firgang"
_chemical_name_systematic
;
4-nitro-2-propylnaphtho[2,1-d][1,3]oxazol-5-ol
;
_chemical_melting_point 394
_cell_volume   1918.070
_exptl_crystal_colour 'brown'
_exptl_crystal_density_diffrn 1.414
_exptl_crystal_description 'needle'
_diffrn_ambient_temperature 299
_refine_special_details
;
C13A and C13D disordered over two sites with occupancies 0.709:0.291.

;
#These two values have been output from a single CSD field.
_refine_ls_R_factor_gt 0.0584
_refine_ls_wR_factor_gt 0.0584
_symmetry_cell_setting triclinic
_symmetry_space_group_name_H-M 'P -1'
_symmetry_Int_Tables_number 2
loop_
_symmetry_equiv_pos_site_id
_symmetry_equiv_pos_as_xyz
1 x,y,z
2 -x,-y,-z
_cell_length_a 10.6183(4)
_cell_length_b 13.3033(6)
_cell_length_c 14.5230(7)
_cell_angle_alpha 98.087(2)
_cell_angle_beta 97.101(2)
_cell_angle_gamma 106.523(2)
_cell_formula_units_Z 6
loop_
_atom_type_symbol
_atom_type_radius_bond
C 0.68
H 0.23
N 0.68
O 0.68
loop_
_atom_site_label
_atom_site_type_symbol
_atom_site_fract_x
_atom_site_fract_y
_atom_site_fract_z
O1 O 0.94018(16) 0.31864(12) 0.18859(11)
N1 N 1.05556(19) 0.39765(15) 0.33303(14)
C1 C 1.0191(2) 0.41058(18) 0.24911(18)
C2 C 0.9989(2) 0.28923(17) 0.33119(15)
N2 N 1.07433(19) 0.27046(17) 0.49496(14)
O2 O 1.1376(2) 0.36440(17) 0.51316(14)
C3 C 1.00175(19) 0.22509(17) 0.40161(14)
O3 O 1.0710(2) 0.21320(16) 0.55605(12)
O4 O 0.93020(16) 0.04937(13) 0.43804(11)
H1 H 0.97250 0.08250 0.48980
C4 C 0.9343(2) 0.11641(17) 0.37720(14)
C5 C 0.86402(19) 0.06898(17) 0.28331(15)
C6 C 0.7986(2) -0.04193(18) 0.25831(18)
H2 H 0.80140 -0.08530 0.30290
C7 C 0.7315(3) -0.0853(2) 0.16895(19)
H3 H 0.68890 -0.15840 0.15320
C8 C 0.7254(3) -0.0225(2) 0.10090(18)
H4 H 0.67770 -0.05390 0.04060
C9 C 0.7886(2) 0.08474(19) 0.12175(15)
H5 H 0.78480 0.12630 0.07570
C10 C 0.85933(19) 0.13203(17) 0.21304(14)
C11 C 0.9291(2) 0.24167(17) 0.24320(14)
C12 C 1.0481(3) 0.5108(2) 0.2105(2)
H6 H 1.03160 0.49310 0.14210
H7 H 1.14170 0.55080 0.23090
C13 C 0.9652(3) 0.5791(2) 0.2415(2)
H8 H 0.97920 0.59470 0.31000
H9 H 0.87170 0.54020 0.21900
C14 C 1.0000(4) 0.6836(3) 0.2043(3)
H10 H 0.94520 0.72530 0.22570
H11 H 0.98450 0.66850 0.13660
H12 H 1.09220 0.72280 0.22740
O5 O 0.61270(16) 0.33347(13) 0.20055(12)
N3 N 0.4881(2) 0.17858(17) 0.10802(14)
C15 C 0.5395(3) 0.2794(2) 0.11373(18)
C16 C 0.5283(2) 0.15999(18) 0.19709(15)
O6 O 0.3759(2) -0.04055(17) 0.10070(15)
N4 N 0.4249(2) -0.03567(17) 0.18086(16)
C17 C 0.5038(2) 0.06594(17) 0.23657(15)
O7 O 0.4084(2) -0.11696(15) 0.21781(16)
O8 O 0.53940(17) -0.00987(14) 0.37419(12)
H13 H 0.49510 -0.06420 0.33680
C18 C 0.5557(2) 0.07365(18) 0.33096(16)
C19 C 0.6321(2) 0.17515(18) 0.38812(15)
C20 C 0.6806(2) 0.1832(2) 0.48468(17)
H14 H 0.66230 0.12260 0.51200
C21 C 0.7541(3) 0.2796(2) 0.53809(19)
H15 H 0.78580 0.28390 0.60160
C22 C 0.7826(3) 0.3717(2) 0.49945(19)
H16 H 0.83420 0.43660 0.53680
C23 C 0.7351(2) 0.3672(2) 0.40657(18)
H17 H 0.75330 0.42910 0.38120
C24 C 0.65889(19) 0.26919(18) 0.34918(15)
C25 C 0.6037(2) 0.25505(17) 0.25344(16)
C26 C 0.5251(3) 0.3448(3) 0.0402(2)
H18 H 0.47250 0.29720 -0.01710
H19 H 0.47490 0.39170 0.06110
C27 C 0.6491(5) 0.4099(4) 0.0169(3)
H20 H 0.69760 0.46210 0.07290
H21 H 0.62620 0.44890 -0.03090
C28 C 0.7411(5) 0.3521(4) -0.0179(3)
H22 H 0.81820 0.40240 -0.03140
H23 H 0.69580 0.30130 -0.07430
H24 H 0.76840 0.31560 0.02960
H25? H 0.55270 0.41930 0.07030
H26? H 0.43160 0.32510 0.01220
C29? C 0.6040(12) 0.3324(12) -0.0364(7)
H27? H 0.56590 0.25960 -0.07070
H28? H 0.58720 0.37820 -0.07980
H29? H 0.77300 0.33950 -0.07620
H30? H 0.76190 0.30560 0.02240
H31? H 0.78330 0.42500 0.01280
O9 O 0.39534(16) 0.38636(13) 0.36441(12)
N5 N 0.3450(2) 0.43747(17) 0.22762(17)
C30 C 0.4065(3) 0.4667(2) 0.3140(2)
C31 C 0.2865(2) 0.32754(19) 0.21788(18)
O10 O 0.1910(3) 0.3681(2) 0.04611(18)
N6 N 0.1635(3) 0.2740(2) 0.05283(17)
C32 C 0.2048(2) 0.2465(2) 0.14028(17)
O11 O 0.0971(3) 0.2019(2) -0.01396(16)
O12 O 0.09108(18) 0.06001(14) 0.08495(13)
H32 H 0.07350 0.08220 0.03660
C33 C 0.1645(2) 0.14167(19) 0.15247(17)
C34 C 0.1992(2) 0.11369(18) 0.24254(16)
C35 C 0.1548(2) 0.0074(2) 0.25645(19)
H33 H 0.10410 -0.04650 0.20670
C36 C 0.1865(3) -0.0160(2) 0.3433(2)
H34 H 0.15650 -0.08620 0.35210
C37 C 0.2625(3) 0.0628(2) 0.4187(2)
H35 H 0.28230 0.04490 0.47720
C38 C 0.3081(2) 0.1659(2) 0.40784(18)
H36 H 0.35970 0.21820 0.45860
C39 C 0.2774(2) 0.19345(18) 0.31977(16)
C40 C 0.3178(2) 0.29781(19) 0.30120(17)
C41 C 0.4858(4) 0.5758(2) 0.3667(3)
H37 H 0.56550 0.57130 0.40420
H38 H 0.43360 0.60070 0.40980
C42 C 0.5267(5) 0.6571(3) 0.3041(3)
H39 H 0.44930 0.65500 0.25980
H40 H 0.56130 0.72800 0.34250
C43 C 0.6312(5) 0.6351(4) 0.2506(4)
H41 H 0.65380 0.68640 0.21020
H42 H 0.59730 0.56470 0.21310
H43 H 0.70930 0.64030 0.29440
#END
