
#######################################################################
#
#                 Cambridge Crystallographic Data Centre
#                                CCDC
#
#######################################################################
#
# If this CIF has been generated from an entry in the Cambridge
# Structural Database, then it will include bibliographic, chemical,
# crystal, experimental, refinement or atomic coordinate data resulting
# from the CCDC's data processing and validation procedures.
#
#######################################################################

data_CSD_CIF_YAMRIP
_audit_creation_date 2011-12-21
_audit_creation_method CSD-ConQuest-V1
_database_code_CSD YAMRIP
_database_code_depnum_ccdc_archive 'CCDC 833443'
_chemical_formula_sum 'C11 H21 N1 O1'
_chemical_formula_moiety
;
C11 H21 N1 O1
;
_journal_coden_Cambridge 16
_journal_volume 67
_journal_year 2011
_journal_page_first 8229
_journal_name_full 'Tetrahedron '
loop_
_publ_author_name
"R.Sengupta"
"J.A.Witek"
"S.M.Weinreb"
_chemical_name_systematic
;
4-t-Butyl-N-hydroxy-2-methylcyclohexanimine
;
_cell_volume   4480.412
_exptl_crystal_colour 'colorless'
_exptl_crystal_density_diffrn 1.087
_exptl_crystal_description 'plate'
_exptl_crystal_preparation 'chloroform/ethyl acetate'
_diffrn_ambient_temperature 143
#These two values have been output from a single CSD field.
_refine_ls_R_factor_gt 0.1112
_refine_ls_wR_factor_gt 0.1112
_symmetry_cell_setting monoclinic
_symmetry_space_group_name_H-M 'C c'
_symmetry_Int_Tables_number 9
loop_
_symmetry_equiv_pos_site_id
_symmetry_equiv_pos_as_xyz
1 x,y,z
2 x,-y,1/2+z
3 1/2+x,1/2+y,z
4 1/2+x,1/2-y,1/2+z
_cell_length_a 14.026(6)
_cell_length_b 14.024(6)
_cell_length_c 22.793(10)
_cell_angle_alpha 90
_cell_angle_beta 92.091(9)
_cell_angle_gamma 90
_cell_formula_units_Z 16
loop_
_atom_type_symbol
_atom_type_radius_bond
C 0.68
H 0.23
N 0.68
O 0.68
loop_
_atom_site_label
_atom_site_type_symbol
_atom_site_fract_x
_atom_site_fract_y
_atom_site_fract_z
C1 C 0.1190(4) 0.3072(3) 0.5865(3)
C2 C 0.1777(4) 0.3415(4) 0.6389(2)
H1 H 0.21780 0.39590 0.62570
C3 C 0.1109(5) 0.3801(5) 0.6840(3)
H2 H 0.14940 0.40380 0.71830
H3 H 0.07050 0.32730 0.69770
C4 C 0.0464(4) 0.4606(3) 0.6611(2)
H4 H 0.08950 0.50980 0.64450
C5 C -0.0128(4) 0.4208(4) 0.6093(3)
H5 H -0.05720 0.37220 0.62400
H6 H -0.05160 0.47300 0.59150
C6 C 0.0463(4) 0.3760(3) 0.5621(2)
H7 H 0.00330 0.34230 0.53370
H8 H 0.07920 0.42710 0.54070
C7 C 0.2437(5) 0.2676(4) 0.6648(3)
H9 H 0.20630 0.21720 0.68290
H10 H 0.28620 0.29710 0.69470
H11 H 0.28170 0.24010 0.63380
C8 C -0.0116(4) 0.5121(4) 0.7077(3)
C9 C -0.0728(5) 0.4416(5) 0.7403(4)
H12 H -0.10530 0.47490 0.77160
H13 H -0.03220 0.39110 0.75730
H14 H -0.12030 0.41340 0.71280
C10 C 0.0550(5) 0.5593(6) 0.7526(3)
H15 H 0.01800 0.58460 0.78480
H16 H 0.08910 0.61160 0.73400
H17 H 0.10110 0.51240 0.76820
C11 C -0.0745(5) 0.5903(4) 0.6802(3)
H18 H -0.12630 0.56120 0.65640
H19 H -0.03600 0.63080 0.65510
H20 H -0.10130 0.62910 0.71130
N1 N 0.1344(4) 0.2224(4) 0.5673(2)
O1 O 0.0741(4) 0.2003(3) 0.5183(2)
H21 H 0.09250 0.14940 0.50290
C12 C 0.4663(4) 0.1597(4) 0.5014(3)
C13 C 0.4301(4) 0.1043(4) 0.4492(3)
H22 H 0.37760 0.06300 0.46320
C14 C 0.3842(6) 0.1722(5) 0.4038(4)
H23 H 0.35550 0.13400 0.37120
H24 H 0.43460 0.21250 0.38740
C15 C 0.3073(4) 0.2370(4) 0.4280(2)
H25 H 0.25850 0.19400 0.44480
C16 C 0.3515(4) 0.2928(4) 0.4794(3)
H26 H 0.39970 0.33750 0.46450
H27 H 0.30130 0.33120 0.49760
C17 C 0.3983(4) 0.2291(4) 0.5255(3)
H28 H 0.43260 0.26940 0.55500
H29 H 0.34810 0.19380 0.54580
C18 C 0.5016(5) 0.0382(5) 0.4231(3)
H30 H 0.55130 0.07570 0.40470
H31 H 0.46950 -0.00230 0.39350
H32 H 0.53060 -0.00180 0.45420
C19 C 0.2544(4) 0.2971(4) 0.3805(3)
C20 C 0.3202(5) 0.3616(6) 0.3481(4)
H33 H 0.35260 0.40500 0.37600
H34 H 0.28320 0.39870 0.31880
H35 H 0.36780 0.32310 0.32840
C21 C 0.1789(5) 0.3568(5) 0.4070(3)
H36 H 0.20840 0.41220 0.42650
H37 H 0.14510 0.31880 0.43580
H38 H 0.13360 0.37850 0.37610
C22 C 0.2055(6) 0.2278(5) 0.3358(3)
H39 H 0.15710 0.26240 0.31210
H40 H 0.17510 0.17580 0.35690
H41 H 0.25340 0.20150 0.31000
N2 N 0.5512(4) 0.1423(3) 0.5200(2)
O2 O 0.5772(4) 0.1993(3) 0.5697(2)
H42 H 0.58600 0.25580 0.55890
C23 C 0.3357(4) 0.5888(4) 0.5886(2)
C24 C 0.3704(4) 0.6475(4) 0.6401(2)
H43 H 0.42000 0.69200 0.62550
C25 C 0.4193(4) 0.5839(4) 0.6852(2)
H44 H 0.37060 0.54340 0.70330
H45 H 0.44850 0.62440 0.71660
C26 C 0.4968(4) 0.5192(3) 0.6611(3)
H46 H 0.54390 0.56260 0.64280
C27 C 0.4533(5) 0.4594(4) 0.6111(3)
H47 H 0.40530 0.41540 0.62680
H48 H 0.50390 0.42040 0.59370
C28 C 0.4060(4) 0.5218(4) 0.5635(3)
H49 H 0.45560 0.55870 0.54360
H50 H 0.37320 0.48060 0.53380
C29 C 0.2950(5) 0.7080(4) 0.6670(3)
H51 H 0.27480 0.75820 0.63940
H52 H 0.32090 0.73710 0.70330
H53 H 0.24000 0.66810 0.67600
C30 C 0.5537(4) 0.4610(4) 0.7083(3)
C31 C 0.4878(5) 0.3996(5) 0.7452(4)
H54 H 0.52650 0.36090 0.77290
H55 H 0.44960 0.35760 0.71920
H56 H 0.44540 0.44100 0.76700
C32 C 0.6261(6) 0.3979(7) 0.6795(4)
H57 H 0.66930 0.43740 0.65700
H58 H 0.59290 0.35270 0.65310
H59 H 0.66290 0.36270 0.70980
C33 C 0.6107(6) 0.5264(5) 0.7483(4)
H60 H 0.56770 0.57170 0.76670
H61 H 0.65720 0.56140 0.72550
H62 H 0.64430 0.48870 0.77880
N3 N 0.2510(3) 0.6019(4) 0.5692(2)
O3 O 0.2252(3) 0.5458(3) 0.5195(2)
H63 H 0.17380 0.56620 0.50420
C34 C 0.1842(4) 0.9409(4) 0.5012(2)
C35 C 0.1238(4) 0.9085(4) 0.4491(2)
H64 H 0.08160 0.85700 0.46380
C36 C 0.1848(4) 0.8623(4) 0.4038(3)
H65 H 0.22400 0.91230 0.38560
H66 H 0.14240 0.83490 0.37250
C37 C 0.2513(4) 0.7837(4) 0.4278(2)
H67 H 0.20930 0.73490 0.44570
C38 C 0.3131(4) 0.8251(4) 0.4782(3)
H68 H 0.35300 0.77380 0.49610
H69 H 0.35620 0.87410 0.46260
C39 C 0.2532(5) 0.8694(4) 0.5249(3)
H70 H 0.21780 0.81840 0.54480
H71 H 0.29600 0.90040 0.55470
C40 C 0.0579(5) 0.9840(4) 0.4228(3)
H72 H 0.01650 1.00830 0.45320
H73 H 0.01860 0.95600 0.39090
H74 H 0.09580 1.03640 0.40750
C41 C 0.3065(4) 0.7310(4) 0.3801(2)
C42 C 0.3641(7) 0.7972(5) 0.3435(4)
H75 H 0.32130 0.83290 0.31660
H76 H 0.40900 0.76000 0.32080
H77 H 0.39960 0.84180 0.36920
C43 C 0.3717(7) 0.6598(6) 0.4081(5)
H78 H 0.42180 0.69280 0.43130
H79 H 0.40070 0.62120 0.37770
H80 H 0.33560 0.61840 0.43390
C44 C 0.2362(5) 0.6766(6) 0.3401(4)
H81 H 0.19950 0.63210 0.36360
H82 H 0.27120 0.64100 0.31080
H83 H 0.19250 0.72180 0.32020
N4 N 0.1718(4) 1.0249(3) 0.5191(2)
O4 O 0.2307(3) 1.0511(3) 0.5687(2)
H84 H 0.27410 1.01030 0.57390
#END
