
#######################################################################
#
#                 Cambridge Crystallographic Data Centre
#                                CCDC
#
#######################################################################
#
# If this CIF has been generated from an entry in the Cambridge
# Structural Database, then it will include bibliographic, chemical,
# crystal, experimental, refinement or atomic coordinate data resulting
# from the CCDC's data processing and validation procedures.
#
#######################################################################

data_CSD_CIF_YANLAB
_audit_creation_date 2005-07-14
_audit_creation_method CSD-ConQuest-V1
_database_code_CSD YANLAB
_database_code_depnum_ccdc_archive 'CCDC 252032'
_chemical_formula_sum 'C15 H9 N1 O3'
_chemical_formula_moiety
;
C15 H9 N1 O3
;
_journal_coden_Cambridge 182
_journal_year 2005
_journal_page_first 1037
_journal_name_full 'Chem.Commun. '
loop_
_publ_author_name
"R.J.Cox"
"D.J.Ritson"
"T.A.Dane"
"J.Berge"
"J.P.H.Charmant"
"A.Kantacha"
_chemical_name_systematic
;
1-(4-Nitrophenyl)-1-oxo-3-phenylprop-2-yne
;
_cell_volume    594.199
_exptl_crystal_colour 'yellow'
_exptl_crystal_density_diffrn 1.404
_exptl_crystal_preparation 'ethyl acetate/petrol'
_diffrn_ambient_temperature 173
#These two values have been output from a single CSD field.
_refine_ls_R_factor_gt 0.031
_refine_ls_wR_factor_gt 0.031
_symmetry_cell_setting monoclinic
_symmetry_space_group_name_H-M 'P 21'
_symmetry_Int_Tables_number 4
loop_
_symmetry_equiv_pos_site_id
_symmetry_equiv_pos_as_xyz
1 x,y,z
2 -x,1/2+y,-z
_cell_length_a 7.6488(6)
_cell_length_b 7.1371(6)
_cell_length_c 10.9816(9)
_cell_angle_alpha 90
_cell_angle_beta 97.617(2)
_cell_angle_gamma 90
_cell_formula_units_Z 2
loop_
_atom_type_symbol
_atom_type_radius_bond
C 0.68
H 0.23
N 0.68
O 0.68
loop_
_atom_site_label
_atom_site_type_symbol
_atom_site_fract_x
_atom_site_fract_y
_atom_site_fract_z
C1 C 0.20093(16) 1.4311(2) 1.20358(12)
H1 H 0.23660 1.52740 1.15250
C2 C 0.20007(19) 1.4631(2) 1.32837(13)
H2 H 0.23610 1.58130 1.36270
C3 C 0.14681(19) 1.3229(3) 1.40280(13)
H3 H 0.14740 1.34490 1.48820
C4 C 0.09276(18) 1.1511(2) 1.35298(13)
H4 H 0.05500 1.05620 1.40430
C5 C 0.09325(17) 1.1163(2) 1.22892(13)
H5 H 0.05600 0.99810 1.19510
C6 C 0.14903(15) 1.25654(19) 1.15368(11)
C7 C 0.15838(16) 1.21887(18) 1.02639(12)
C8 C 0.17158(17) 1.18300(18) 0.92134(12)
C9 C 0.20059(16) 1.13376(19) 0.79678(11)
C10 C 0.28066(16) 0.94587(18) 0.78006(11)
C11 C 0.31446(17) 0.82039(19) 0.87778(11)
H6 H 0.28520 0.85350 0.95640
C12 C 0.39057(16) 0.64759(18) 0.86078(11)
H7 H 0.41470 0.56140 0.92680
C13 C 0.43026(16) 0.60475(18) 0.74453(11)
C14 C 0.39779(16) 0.7259(2) 0.64510(12)
H8 H 0.42630 0.69140 0.56650
C15 C 0.32279(17) 0.89800(19) 0.66364(11)
H9 H 0.29980 0.98390 0.59740
N1 N 0.51392(14) 0.42297(17) 0.72589(10)
O1 O 0.16344(13) 1.24304(15) 0.71154(9)
O2 O 0.56315(14) 0.32713(14) 0.81696(9)
O3 O 0.53135(15) 0.37730(16) 0.62038(9)
#END
