
#######################################################################
#
#                 Cambridge Crystallographic Data Centre
#                                CCDC
#
#######################################################################
#
# If this CIF has been generated from an entry in the Cambridge
# Structural Database, then it will include bibliographic, chemical,
# crystal, experimental, refinement or atomic coordinate data resulting
# from the CCDC's data processing and validation procedures.
#
#######################################################################

data_CSD_CIF_YANREM01
_audit_creation_date 2012-09-26
_audit_creation_method CSD-ConQuest-V1
_database_code_CSD YANREM01
_database_code_depnum_ccdc_archive 'CCDC 807688'
_chemical_formula_sum 'C1 H3 N7 O2'
_chemical_formula_moiety
;
C1 H3 N7 O2
;
_journal_coden_Cambridge 1003
_journal_volume 42
_journal_year 2012
_journal_page_first 816
_journal_name_full 'J.Chem.Cryst. '
loop_
_publ_author_name
"Long Liu"
"Chunlin He"
"Chunshan Li"
"Zengxi Li"
_chemical_name_systematic
;
(5-Amino-1H-tetrazol-4-ium-1-yl)(nitro)azanide
;
_cell_volume    525.144
_exptl_crystal_colour 'colorless'
_exptl_crystal_density_diffrn 1.835
_exptl_crystal_description 'block'
_diffrn_ambient_temperature 153
#These two values have been output from a single CSD field.
_refine_ls_R_factor_gt 0.0229
_refine_ls_wR_factor_gt 0.0229
_symmetry_cell_setting orthorhombic
_symmetry_space_group_name_H-M 'P n a 21'
_symmetry_Int_Tables_number 33
loop_
_symmetry_equiv_pos_site_id
_symmetry_equiv_pos_as_xyz
1 x,y,z
2 -x,-y,1/2+z
3 1/2+x,1/2-y,z
4 1/2-x,1/2+y,1/2+z
_cell_length_a 9.229(2)
_cell_length_b 5.5271(13)
_cell_length_c 10.295(2)
_cell_angle_alpha 90
_cell_angle_beta 90
_cell_angle_gamma 90
_cell_formula_units_Z 4
loop_
_atom_type_symbol
_atom_type_radius_bond
C 0.68
H 0.23
N 0.68
O 0.68
loop_
_atom_site_label
_atom_site_type_symbol
_atom_site_fract_x
_atom_site_fract_y
_atom_site_fract_z
O1 O 0.52226(13) 0.3445(2) 0.78249(12)
O2 O 0.48885(16) 0.4900(3) 0.58826(14)
N1 N 0.63526(15) 0.0930(3) 0.40204(15)
N2 N 0.68067(15) 0.1740(3) 0.29390(15)
N3 N 0.76430(14) 0.3741(2) 0.31566(14)
H1 H 0.794(3) 0.469(4) 0.252(2)
N4 N 0.68948(14) 0.2419(2) 0.49667(13)
N5 N 0.83526(16) 0.5964(3) 0.50365(16)
N6 N 0.66248(14) 0.2084(3) 0.62763(13)
N7 N 0.55221(15) 0.3558(3) 0.66526(14)
C1 C 0.76906(16) 0.4198(3) 0.44275(15)
H2 H 0.837(2) 0.597(4) 0.582(3)
H3 H 0.890(3) 0.690(4) 0.458(3)
#END
