
#######################################################################
#
#                 Cambridge Crystallographic Data Centre
#                                CCDC
#
#######################################################################
#
# If this CIF has been generated from an entry in the Cambridge
# Structural Database, then it will include bibliographic, chemical,
# crystal, experimental, refinement or atomic coordinate data resulting
# from the CCDC's data processing and validation procedures.
#
#######################################################################

data_CSD_CIF_YANREM
_audit_creation_date 2012-06-01
_audit_creation_method CSD-ConQuest-V1
_database_code_CSD YANREM
_database_code_depnum_ccdc_archive 'CCDC 824129'
_chemical_formula_sum 'C1 H3 N7 O2'
_chemical_formula_moiety
;
C1 H3 N7 O2
;
_journal_coden_Cambridge 1220
_journal_volume 18
_journal_year 2012
_journal_page_first 1487
_journal_name_full 'Chem.-Eur.J. '
loop_
_publ_author_name
"T.M.Klapotke"
"F.A.Martin"
"J.Stierstorfer"
_chemical_name_systematic
;
5-amino-1-((dioxidoiminio)amino)-1H-tetrazol-4-ium
;
_cell_volume    525.028
_exptl_crystal_colour 'colorless'
_exptl_crystal_density_diffrn 1.835
_exptl_crystal_description 'block'
_diffrn_ambient_temperature 200
#These two values have been output from a single CSD field.
_refine_ls_R_factor_gt 0.023
_refine_ls_wR_factor_gt 0.023
_symmetry_cell_setting orthorhombic
_symmetry_space_group_name_H-M 'P n a 21'
_symmetry_Int_Tables_number 33
loop_
_symmetry_equiv_pos_site_id
_symmetry_equiv_pos_as_xyz
1 x,y,z
2 -x,-y,1/2+z
3 1/2-x,1/2+y,1/2+z
4 1/2+x,1/2-y,z
_cell_length_a 9.2439(4)
_cell_length_b 5.5129(2)
_cell_length_c 10.3026(4)
_cell_angle_alpha 90
_cell_angle_beta 90
_cell_angle_gamma 90
_cell_formula_units_Z 4
loop_
_atom_type_symbol
_atom_type_radius_bond
C 0.68
H 0.23
N 0.68
O 0.68
loop_
_atom_site_label
_atom_site_type_symbol
_atom_site_fract_x
_atom_site_fract_y
_atom_site_fract_z
O1 O -0.0111(2) 0.9899(3) 0.21439(19)
O2 O 0.02241(17) 0.8444(3) 0.02050(15)
N1 N 0.18940(18) 0.7421(3) 0.30587(18)
N2 N 0.1350(2) 0.5933(3) 0.40057(19)
N3 N 0.1807(2) 0.6743(3) 0.5095(2)
N4 N 0.26384(19) 0.8741(3) 0.48723(16)
N5 N 0.16205(19) 0.7086(3) 0.17511(17)
N6 N 0.0524(2) 0.8555(3) 0.13809(19)
N7 N 0.3353(2) 1.0961(4) 0.2991(2)
C1 C 0.2688(2) 0.9198(3) 0.36026(18)
H1 H 0.294(3) 0.977(4) 0.558(3)
H2 H 0.340(3) 1.096(5) 0.213(3)
H3 H 0.387(3) 1.184(4) 0.343(3)
#END
