
#######################################################################
#
#                 Cambridge Crystallographic Data Centre
#                                CCDC
#
#######################################################################
#
# If this CIF has been generated from an entry in the Cambridge
# Structural Database, then it will include bibliographic, chemical,
# crystal, experimental, refinement or atomic coordinate data resulting
# from the CCDC's data processing and validation procedures.
#
#######################################################################

data_CSD_CIF_YAPGUU
_audit_creation_date 2017-05-10
_audit_creation_method CSD-ConQuest-V1
_database_code_CSD YAPGUU
_database_code_depnum_ccdc_archive 'CCDC 1532864'
_chemical_formula_sum 'C15 H20 N2 O7'
_chemical_formula_moiety
;
C15 H20 N2 O7
;
_journal_coden_Cambridge 1336
_journal_volume 19
_journal_year 2017
_journal_page_first 1358
_journal_name_full 'Org.Lett. '
loop_
_publ_author_name
"Chieh-Kai Chan"
"Yu-Lin Tsai"
"Meng-Yang Chang"
_chemical_name_systematic
;
3-(hydroxyimino)-1-{5-methoxy-2-nitro-4-[(propan-2-yl)oxy]phenyl}butan-2-yl 
formate
;
_cell_volume   3348.070
_exptl_crystal_colour 'colorless'
_exptl_crystal_density_diffrn 1.35
_exptl_crystal_description 'tabullar'
_diffrn_ambient_temperature 100
#These two values have been output from a single CSD field.
_refine_ls_R_factor_gt 0.0736
_refine_ls_wR_factor_gt 0.0736
_symmetry_cell_setting monoclinic
_symmetry_space_group_name_H-M 'P 21/c'
_symmetry_Int_Tables_number 14
loop_
_symmetry_equiv_pos_site_id
_symmetry_equiv_pos_as_xyz
1 x,y,z
2 -x,1/2+y,1/2-z
3 -x,-y,-z
4 x,-1/2-y,-1/2+z
_cell_length_a 10.6032(8)
_cell_length_b 14.4941(12)
_cell_length_c 21.7899(18)
_cell_angle_alpha 90
_cell_angle_beta 91.159(3)
_cell_angle_gamma 90
_cell_formula_units_Z 8
loop_
_atom_type_symbol
_atom_type_radius_bond
C 0.68
H 0.23
N 0.68
O 0.68
loop_
_atom_site_label
_atom_site_type_symbol
_atom_site_fract_x
_atom_site_fract_y
_atom_site_fract_z
C1 C 0.0696(3) 0.4516(2) 0.40807(15)
C2 C 0.0774(3) 0.3526(2) 0.38804(13)
H1 H 0.16300 0.32750 0.39840
C3 C -0.0223(3) 0.29421(19) 0.41822(14)
H2 H -0.01410 0.30160 0.46330
H3 H -0.10660 0.31720 0.40540
C4 C -0.0136(3) 0.1929(2) 0.40262(13)
C5 C 0.0626(3) 0.12767(19) 0.43241(13)
C6 C 0.0600(3) 0.0342(2) 0.41811(14)
H4 H 0.11280 -0.00750 0.44030
C7 C -0.0186(3) 0.0019(2) 0.37194(13)
C8 C -0.0965(3) 0.0665(2) 0.34011(13)
C9 C -0.0930(3) 0.1585(2) 0.35587(13)
H5 H -0.14660 0.20030 0.33420
C10 C -0.0342(4) 0.5120(2) 0.38313(19)
H6 H -0.06830 0.54930 0.41640
H7 H -0.10130 0.47340 0.36520
H8 H -0.00070 0.55270 0.35150
C11 C 0.1515(3) 0.3601(2) 0.28662(15)
H9 H 0.13660 0.35870 0.24350
C12 C -0.2533(3) 0.0916(2) 0.26122(16)
H10 H -0.30760 0.12450 0.28980
H11 H -0.30570 0.05620 0.23210
H12 H -0.20220 0.13620 0.23880
C13 C 0.0469(3) -0.1570(2) 0.38430(15)
H13 H 0.05520 -0.14260 0.42910
C14 C 0.1745(4) -0.1583(3) 0.35680(17)
H14 H 0.16660 -0.17260 0.31290
H15 H 0.22660 -0.20540 0.37730
H16 H 0.21430 -0.09770 0.36210
C15 C -0.0228(4) -0.2467(2) 0.37593(17)
H17 H -0.10800 -0.24060 0.39210
H18 H 0.02240 -0.29580 0.39810
H19 H -0.02830 -0.26210 0.33220
N1 N 0.1538(3) 0.47551(17) 0.44737(13)
N2 N 0.1498(2) 0.15393(16) 0.48247(11)
O1 O 0.1412(2) 0.56787(15) 0.46608(12)
H20 H 0.19170 0.57860 0.49540
O2 O 0.2585(3) 0.3741(2) 0.30480(12)
O3 O 0.0543(2) 0.34666(16) 0.3221(1)
O4 O 0.1867(2) 0.23434(15) 0.48595(10)
O5 O 0.1807(2) 0.09450(15) 0.51987(10)
O6 O -0.0311(2) -0.08714(14) 0.35409(10)
O7 O -0.1715(2) 0.02968(14) 0.29508(10)
C16 C 0.4259(3) 0.5372(2) 0.58831(15)
C17 C 0.4179(3) 0.6345(2) 0.61111(13)
H21 H 0.33040 0.65850 0.60380
C18 C 0.5121(3) 0.6981(2) 0.58053(14)
H22 H 0.59870 0.67750 0.59160
H23 H 0.50150 0.69280 0.53540
C19 C 0.4980(3) 0.7984(2) 0.59856(13)
C20 C 0.4087(3) 0.8606(2) 0.57484(13)
C21 C 0.4041(3) 0.9532(2) 0.59261(14)
H24 H 0.34200 0.99300 0.57510
C22 C 0.4895(3) 0.9868(2) 0.63553(14)
C23 C 0.5817(3) 0.9251(2) 0.66047(13)
C24 C 0.5836(3) 0.8344(2) 0.64171(13)
H25 H 0.64600 0.79450 0.65890
C25 C 0.5318(4) 0.4745(2) 0.60931(19)
H26 H 0.50230 0.43420 0.64220
H27 H 0.60280 0.51180 0.62470
H28 H 0.55920 0.43680 0.57470
C26 C 0.7641(3) 0.9074(2) 0.72549(16)
H29 H 0.72980 0.85600 0.74910
H30 H 0.81940 0.94480 0.75210
H31 H 0.81250 0.88320 0.69120
C27 C 0.4080(3) 1.1424(2) 0.63127(15)
H32 H 0.32140 1.11570 0.62640
C28 C 0.4552(3) 1.1719(3) 0.56992(17)
H33 H 0.54010 1.19790 0.57490
H34 H 0.39840 1.21870 0.55230
H35 H 0.45790 1.11840 0.54240
C29 C 0.4065(4) 1.2205(2) 0.67654(17)
H36 H 0.37820 1.19770 0.71630
H37 H 0.34880 1.26870 0.66160
H38 H 0.49170 1.24620 0.68130
C30 C 0.3519(3) 0.6357(2) 0.71432(15)
H39 H 0.37110 0.63360 0.75710
N3 N 0.3139(3) 0.83390(18) 0.52763(12)
N4 N 0.3381(3) 0.51449(18) 0.55049(13)
O8 O 0.3491(2) 0.42332(16) 0.52974(12)
H40 H 0.29830 0.41450 0.50020
O9 O 0.4473(2) 0.63539(17) 0.67657(10)
O10 O 0.2430(3) 0.6383(3) 0.69913(12)
O11 O 0.2945(2) 0.75217(15) 0.51738(10)
O12 O 0.2581(3) 0.89521(17) 0.50028(13)
O13 O 0.6627(2) 0.96344(14) 0.70212(10)
O14 O 0.4930(2) 1.07377(14) 0.65776(10)
#END
