
#######################################################################
#
#                 Cambridge Crystallographic Data Centre
#                                CCDC
#
#######################################################################
#
# If this CIF has been generated from an entry in the Cambridge
# Structural Database, then it will include bibliographic, chemical,
# crystal, experimental, refinement or atomic coordinate data resulting
# from the CCDC's data processing and validation procedures.
#
#######################################################################

data_CSD_CIF_YAPQEO
_audit_creation_date 2017-05-10
_audit_creation_method CSD-ConQuest-V1
_database_code_CSD YAPQEO
_database_code_depnum_ccdc_archive 'CCDC 1534995'
_chemical_formula_sum 'C17 H22 N2 O7'
_chemical_formula_moiety
;
C17 H22 N2 O7
;
_journal_coden_Cambridge 1336
_journal_volume 19
_journal_year 2017
_journal_page_first 1478
_journal_name_full 'Org.Lett. '
loop_
_publ_author_name
"S.Leisering"
"I.Riano"
"C.Depken"
"L.J.Gross"
"M.Weber"
"D.Lentz"
"R.Zimmer"
"C.B.W.Stark"
"A.Breder"
"M.Christmann"
_chemical_name_systematic
;
4-(2,2-dimethylcyclopropyl)-2-hydroxy-2-methylbutyl 3,5-dinitrobenzoate
;
_cell_volume   1823.438
_exptl_crystal_colour 'colorless'
_exptl_crystal_density_diffrn 1.335
_exptl_crystal_description 'needle'
_diffrn_ambient_temperature 100
#These two values have been output from a single CSD field.
_refine_ls_R_factor_gt 0.0469
_refine_ls_wR_factor_gt 0.0469
_symmetry_cell_setting monoclinic
_symmetry_space_group_name_H-M 'P 21'
_symmetry_Int_Tables_number 4
loop_
_symmetry_equiv_pos_site_id
_symmetry_equiv_pos_as_xyz
1 x,y,z
2 -x,1/2+y,-z
_cell_length_a 10.7132(6)
_cell_length_b 5.9764(3)
_cell_length_c 28.5202(17)
_cell_angle_alpha 90
_cell_angle_beta 93.062(4)
_cell_angle_gamma 90
_cell_formula_units_Z 4
loop_
_atom_type_symbol
_atom_type_radius_bond
C 0.68
H 0.23
N 0.68
O 0.68
loop_
_atom_site_label
_atom_site_type_symbol
_atom_site_fract_x
_atom_site_fract_y
_atom_site_fract_z
C1 C 1.0908(3) 0.0775(7) 0.07320(13)
C2 C 1.0020(4) -0.0856(7) 0.09400(15)
H1 H 1.02938 -0.24315 0.09760
H2 H 0.91143 -0.06513 0.08644
C3 C 1.0685(3) 0.0885(7) 0.12465(14)
H3 H 1.13857 0.02852 0.14555
C4 C 0.9936(4) 0.2724(7) 0.14644(13)
H4 H 0.91459 0.29531 0.12743
H5 H 1.04163 0.41388 0.14633
C5 C 0.9642(4) 0.2143(7) 0.19650(13)
H6 H 1.04408 0.20494 0.21551
H7 H 0.92580 0.06360 0.19636
C6 C 0.8777(3) 0.3749(7) 0.22113(14)
C7 C 0.8744(4) 0.2952(7) 0.27097(14)
H8 H 0.83909 0.14219 0.27158
H9 H 0.96029 0.29037 0.28555
C8 C 1.2149(4) -0.0183(8) 0.06005(16)
H10 H 1.20512 -0.08880 0.02904
H11 H 1.24314 -0.13025 0.08338
H12 H 1.27682 0.10213 0.05920
C9 C 1.0389(4) 0.2568(8) 0.04094(15)
H13 H 1.03491 0.20140 0.00856
H14 H 1.09323 0.38869 0.04334
H15 H 0.95481 0.29738 0.04986
C10 C 0.9206(4) 0.6147(7) 0.21859(15)
H16 H 0.92086 0.66146 0.18566
H17 H 1.00527 0.62781 0.23314
H18 H 0.86366 0.71067 0.23532
C11 C 0.7878(3) 0.3904(7) 0.34197(14)
C12 C 0.7154(3) 0.5595(7) 0.36790(13)
C13 C 0.6613(3) 0.7438(6) 0.34535(14)
H19 H 0.67041 0.76816 0.31279
C14 C 0.5939(3) 0.8911(6) 0.37142(14)
C15 C 0.5774(3) 0.8661(7) 0.41838(14)
H20 H 0.52977 0.96940 0.43538
C16 C 0.6348(3) 0.6796(7) 0.43989(14)
C17 C 0.7036(3) 0.5273(7) 0.41575(13)
H21 H 0.74211 0.40307 0.43145
N1 N 0.5378(3) 1.0893(6) 0.34789(11)
N2 N 0.6215(3) 0.6464(6) 0.49060(12)
O1 O 0.7572(2) 0.3511(6) 0.19752(10)
H22 H 0.70371 0.41917 0.21263
O2 O 0.7980(2) 0.4461(4) 0.29721(9)
O3 O 0.8307(2) 0.2231(5) 0.36022(10)
O4 O 0.5467(2) 1.1045(5) 0.30497(9)
O5 O 0.4858(2) 1.2285(4) 0.37154(10)
O6 O 0.5456(3) 0.7610(5) 0.51024(10)
O7 O 0.6884(3) 0.5047(5) 0.51038(10)
C18 C 0.6432(4) 0.8209(7) 0.07568(14)
C19 C 0.6698(3) 0.9459(7) 0.12085(14)
H23 H 0.67727 1.11081 0.11919
H24 H 0.72517 0.87367 0.14530
C20 C 0.5427(3) 0.8443(7) 0.11028(14)
H25 H 0.47590 0.95491 0.10093
C21 C 0.4992(4) 0.6524(7) 0.13975(14)
H26 H 0.57101 0.55426 0.14874
H27 H 0.43659 0.56250 0.12124
C22 C 0.4414(3) 0.7417(7) 0.18398(13)
H28 H 0.49955 0.85250 0.19893
H29 H 0.36319 0.82157 0.17442
C23 C 0.4115(3) 0.5657(7) 0.22067(14)
C24 C 0.3395(4) 0.6853(7) 0.25789(14)
H30 H 0.39327 0.80039 0.27369
H31 H 0.26530 0.76067 0.24297
C25 C 0.6279(4) 0.9568(8) 0.03099(15)
H32 H 0.71036 0.98942 0.01933
H33 H 0.58499 1.09742 0.03742
H34 H 0.57841 0.87156 0.00725
C26 C 0.7043(4) 0.5956(7) 0.06917(15)
H35 H 0.78560 0.61674 0.05558
H36 H 0.65071 0.50330 0.04804
H37 H 0.71623 0.52091 0.09967
C27 C 0.3395(4) 0.3666(7) 0.19972(15)
H38 H 0.38995 0.29155 0.17675
H39 H 0.26104 0.41878 0.18416
H40 H 0.32103 0.26127 0.22477
C28 C 0.2933(3) 0.5941(7) 0.33618(14)
C29 C 0.2259(3) 0.4305(7) 0.36540(14)
C30 C 0.1728(3) 0.2367(7) 0.34602(14)
H41 H 0.18411 0.19843 0.31420
C31 C 0.1029(3) 0.1005(7) 0.37406(14)
C32 C 0.0832(3) 0.1491(6) 0.42007(13)
H42 H 0.03288 0.05662 0.43850
C33 C 0.1406(3) 0.3403(7) 0.43817(14)
C34 C 0.2121(3) 0.4814(7) 0.41242(14)
H43 H 0.25086 0.60976 0.42638
N3 N 0.0452(3) -0.1005(6) 0.35317(12)
N4 N 0.1265(3) 0.3929(6) 0.48815(12)
O8 O 0.5298(2) 0.4930(5) 0.2419(1)
H44 H 0.51832 0.38320 0.25954
O9 O 0.3006(2) 0.5232(4) 0.29204(9)
O10 O 0.3300(2) 0.7729(5) 0.35095(10)
O11 O 0.0560(2) -0.1350(5) 0.31087(10)
O12 O -0.0108(2) -0.2263(5) 0.37872(10)
O13 O 0.0486(3) 0.2856(5) 0.50916(10)
O14 O 0.1937(3) 0.5378(5) 0.5065(1)
#END
