
#######################################################################
#
#                 Cambridge Crystallographic Data Centre
#                                CCDC
#
#######################################################################
#
# If this CIF has been generated from an entry in the Cambridge
# Structural Database, then it will include bibliographic, chemical,
# crystal, experimental, refinement or atomic coordinate data resulting
# from the CCDC's data processing and validation procedures.
#
#######################################################################

data_CSD_CIF_YAPRIT
_audit_creation_date 2017-05-10
_audit_creation_method CSD-ConQuest-V1
_database_code_CSD YAPRIT
_database_code_depnum_ccdc_archive 'CCDC 1520701'
_chemical_formula_sum 'C17 H17 N1 O1'
_chemical_formula_moiety
;
C17 H17 N1 O1
;
_journal_coden_Cambridge 179
_journal_volume 56
_journal_year 2017
_journal_page_first 2469
_journal_name_full 'Angew.Chem.,Int.Ed. '
loop_
_publ_author_name
"S.Sugita"
"N.Takeda"
"N.Tohnai"
"M.Miyata"
"O.Miyata"
"M.Ueda"
_chemical_name_systematic
;
1-oxo-2-phenyl-7a-(prop-2-en-1-yl)-7,7a-dihydro-6H-1-indole
;
_cell_volume   1353.877
_exptl_crystal_density_diffrn 1.233
_diffrn_ambient_temperature 213
#These two values have been output from a single CSD field.
_refine_ls_R_factor_gt 0.1184
_refine_ls_wR_factor_gt 0.1184
_symmetry_cell_setting triclinic
_symmetry_space_group_name_H-M 'P -1'
_symmetry_Int_Tables_number 2
loop_
_symmetry_equiv_pos_site_id
_symmetry_equiv_pos_as_xyz
1 x,y,z
2 -x,-y,-z
_cell_length_a 6.6073(5)
_cell_length_b 11.5317(9)
_cell_length_c 17.9568(14)
_cell_angle_alpha 97.864(4)
_cell_angle_beta 90.882(4)
_cell_angle_gamma 92.351(4)
_cell_formula_units_Z 4
loop_
_atom_type_symbol
_atom_type_radius_bond
C 0.68
H 0.23
N 0.68
O 0.68
loop_
_atom_site_label
_atom_site_type_symbol
_atom_site_fract_x
_atom_site_fract_y
_atom_site_fract_z
O1 O 0.0161(7) 0.6986(4) 0.5520(3)
N1 N 0.1914(8) 0.6852(4) 0.5203(3)
C1 C 0.4145(10) 0.6954(5) 0.6330(3)
C2 C 0.6119(10) 0.7226(5) 0.6598(4)
H1 H 0.71620 0.73420 0.62620
C3 C 0.6541(11) 0.7326(6) 0.7366(4)
H2 H 0.78730 0.75230 0.75450
C4 C 0.5056(11) 0.7145(6) 0.7870(4)
H3 H 0.53630 0.72150 0.83870
C5 C 0.3104(11) 0.6858(6) 0.7602(4)
H4 H 0.20830 0.67230 0.79420
C6 C 0.2617(10) 0.6764(5) 0.6843(4)
H5 H 0.12780 0.65740 0.66710
C7 C 0.3755(9) 0.6856(5) 0.5523(4)
C8 C 0.5213(10) 0.6716(5) 0.4925(4)
H6 H 0.66200 0.66830 0.49980
C9 C 0.4277(10) 0.6643(5) 0.4256(4)
C10 C 0.2052(10) 0.6794(5) 0.4363(3)
C11 C 0.0902(11) 0.5726(6) 0.3950(4)
H7 H -0.05560 0.57990 0.40240
H8 H 0.13140 0.50200 0.41500
C12 C 0.1362(11) 0.5623(6) 0.3103(4)
H9 H 0.09210 0.48400 0.28580
H10 H 0.05860 0.61960 0.28760
C13 C 0.3578(12) 0.5830(6) 0.2963(4)
H11 H 0.40400 0.56230 0.24720
C14 C 0.4938(11) 0.6293(6) 0.3496(4)
H12 H 0.63090 0.63890 0.33770
C15 C 0.1257(11) 0.7957(6) 0.4157(4)
H13 H 0.14360 0.79690 0.36170
H14 H -0.02000 0.79680 0.42500
C16 C 0.2244(16) 0.9038(7) 0.4571(5)
H15 H 0.24550 0.90110 0.50870
C17 C 0.2824(15) 0.9945(9) 0.4368(6)
H16 H 0.26750 1.00510 0.38610
H17 H 0.34270 1.05470 0.47170
O2 O 0.4966(7) 0.6966(4) 0.1345(3)
N2 N 0.6824(8) 0.7336(5) 0.1499(3)
C18 C 0.8638(9) 0.5539(6) 0.1063(3)
C19 C 1.0492(10) 0.5006(6) 0.1053(4)
H18 H 1.16530 0.54410 0.12560
C20 C 1.0652(11) 0.3846(6) 0.0747(4)
H19 H 1.19100 0.34950 0.07530
C21 C 0.8970(12) 0.3205(6) 0.0435(4)
H20 H 0.90860 0.24210 0.02210
C22 C 0.7126(11) 0.3709(6) 0.0436(4)
H21 H 0.59830 0.32670 0.02210
C23 C 0.6934(10) 0.4875(6) 0.0754(4)
H22 H 0.56620 0.52120 0.07590
C24 C 0.8556(10) 0.6774(6) 0.1381(4)
C25 C 1.023(1) 0.7586(6) 0.1632(4)
H23 H 1.16060 0.74080 0.16090
C26 C 0.9522(9) 0.8639(6) 0.1905(4)
C27 C 0.7282(10) 0.8597(5) 0.1819(4)
C28 C 0.6341(11) 0.8882(6) 0.2593(4)
H24 H 0.48610 0.88650 0.25400
H25 H 0.67020 0.82950 0.29130
C29 C 0.7122(11) 1.0097(6) 0.2957(4)
H26 H 0.63170 1.06880 0.27600
H27 H 0.69140 1.01650 0.35000
C30 C 0.9297(12) 1.0356(6) 0.2824(5)
H28 H 0.99140 1.10380 0.30960
C31 C 1.0447(11) 0.9683(6) 0.2342(5)
H29 H 1.18240 0.98860 0.22890
C32 C 0.6449(11) 0.9361(6) 0.1248(4)
H30 H 0.50210 0.91310 0.11360
H31 H 0.65160 1.01830 0.14800
C33 C 0.7581(15) 0.9260(8) 0.0524(5)
H32 H 0.89870 0.94130 0.05800
C34 C 0.6957(16) 0.9007(8) -0.0137(6)
H33 H 0.55690 0.88420 -0.02400
H34 H 0.78740 0.89810 -0.05330
#END
