
#######################################################################
#
#                 Cambridge Crystallographic Data Centre
#                                CCDC
#
#######################################################################
#
# If this CIF has been generated from an entry in the Cambridge
# Structural Database, then it will include bibliographic, chemical,
# crystal, experimental, refinement or atomic coordinate data resulting
# from the CCDC's data processing and validation procedures.
#
#######################################################################

data_CSD_CIF_YAPREP
_audit_creation_date 2017-05-10
_audit_creation_method CSD-ConQuest-V1
_database_code_CSD YAPREP
_database_code_depnum_ccdc_archive 'CCDC 1520700'
_chemical_formula_sum 'C17 H17 N1 O1'
_chemical_formula_moiety
;
C17 H17 N1 O1
;
_journal_coden_Cambridge 179
_journal_volume 56
_journal_year 2017
_journal_page_first 2469
_journal_name_full 'Angew.Chem.,Int.Ed. '
loop_
_publ_author_name
"S.Sugita"
"N.Takeda"
"N.Tohnai"
"M.Miyata"
"O.Miyata"
"M.Ueda"
_chemical_name_systematic
;
7-phenyl-5-oxa-6-azatetracyclo[7.4.0.0^1,6^.0^3,7^]trideca-8,10-diene
;
_chemical_name_common
;
3a-phenyl-3,3a,7,8-tetrahydro-2H-3,8a-methanoisoxazolo[2,3-a]indole
;
_cell_volume   2584.260
_exptl_crystal_density_diffrn 1.292
_diffrn_ambient_temperature 213
#These two values have been output from a single CSD field.
_refine_ls_R_factor_gt 0.092
_refine_ls_wR_factor_gt 0.092
_symmetry_cell_setting monoclinic
_symmetry_space_group_name_H-M 'P 21/n'
_symmetry_Int_Tables_number 14
loop_
_symmetry_equiv_pos_site_id
_symmetry_equiv_pos_as_xyz
1 x,y,z
2 1/2-x,1/2+y,1/2-z
3 -x,-y,-z
4 -1/2+x,-1/2-y,-1/2+z
_cell_length_a 5.78770(16)
_cell_length_b 41.2014(12)
_cell_length_c 10.9269(3)
_cell_angle_alpha 90
_cell_angle_beta 97.3454(15)
_cell_angle_gamma 90
_cell_formula_units_Z 8
loop_
_atom_type_symbol
_atom_type_radius_bond
C 0.68
H 0.23
N 0.68
O 0.68
loop_
_atom_site_label
_atom_site_type_symbol
_atom_site_fract_x
_atom_site_fract_y
_atom_site_fract_z
O1 O 0.5577(6) 0.78447(8) 0.1955(3)
N1 N 0.5191(8) 0.76654(9) 0.3076(4)
C1 C 0.2632(9) 0.81074(11) 0.3819(4)
C2 C 0.0534(10) 0.82765(12) 0.3667(5)
H1 H -0.07820 0.81830 0.32070
C3 C 0.0363(11) 0.85796(13) 0.4182(5)
H2 H -0.10620 0.86920 0.40600
C4 C 0.2277(11) 0.87210(13) 0.4882(5)
H3 H 0.21580 0.89270 0.52370
C5 C 0.4336(11) 0.85537(13) 0.5041(5)
H4 H 0.56390 0.86470 0.55130
C6 C 0.4549(9) 0.82489(12) 0.4523(5)
H5 H 0.59810 0.81380 0.46460
C7 C 0.2769(9) 0.77707(11) 0.3315(4)
C8 C 0.2217(9) 0.74999(11) 0.4154(4)
H6 H 0.12660 0.75160 0.47880
C9 C 0.3316(9) 0.72325(12) 0.3840(4)
C10 C 0.4478(8) 0.73232(11) 0.2718(4)
C11 C 0.6414(9) 0.70942(12) 0.2497(5)
H7 H 0.77560 0.71300 0.31250
H8 H 0.69020 0.71390 0.16880
C12 C 0.5628(11) 0.67403(12) 0.2546(5)
H9 H 0.46120 0.66890 0.17840
H10 H 0.69970 0.65990 0.25900
C13 C 0.4348(10) 0.66714(13) 0.3629(5)
H11 H 0.42650 0.64550 0.38940
C14 C 0.3322(10) 0.68996(11) 0.4235(5)
H12 H 0.25970 0.68430 0.49260
C15 C 0.2399(9) 0.73688(12) 0.1678(5)
H13 H 0.28940 0.73480 0.08570
H14 H 0.11450 0.72140 0.17590
C16 C 0.166(1) 0.77179(12) 0.1932(4)
H15 H -0.00240 0.77660 0.17440
C17 C 0.3287(9) 0.79331(13) 0.1310(5)
H16 H 0.31820 0.78860 0.04260
H17 H 0.29480 0.81630 0.14250
O2 O 0.5071(6) 0.56182(9) 0.2423(3)
N2 N 0.4035(8) 0.53684(10) 0.3147(4)
C18 C 0.1679(9) 0.57637(11) 0.4268(4)
C19 C -0.0285(10) 0.59516(12) 0.4305(5)
H18 H -0.15810 0.59220 0.37040
C20 C -0.0369(11) 0.61832(13) 0.5223(5)
H19 H -0.17240 0.63080 0.52400
C21 C 0.1527(11) 0.62310(13) 0.6109(5)
H20 H 0.14750 0.63890 0.67270
C22 C 0.3491(11) 0.60452(13) 0.6077(5)
H21 H 0.47860 0.60770 0.66770
C23 C 0.3593(10) 0.58116(12) 0.5176(5)
H22 H 0.49430 0.56850 0.51720
C24 C 0.1674(9) 0.54993(11) 0.3325(4)
C25 C 0.0478(10) 0.51915(11) 0.3618(5)
H23 H -0.07250 0.51730 0.41160
C26 C 0.1422(9) 0.49479(12) 0.3047(5)
C27 C 0.3116(9) 0.51010(12) 0.2275(5)
C28 C 0.4923(10) 0.48683(12) 0.1919(5)
H24 H 0.60160 0.48130 0.26500
H25 H 0.58060 0.49720 0.13190
C29 C 0.3783(10) 0.45584(13) 0.1360(5)
H26 H 0.30560 0.46040 0.05180
H27 H 0.49890 0.43940 0.13120
C30 C 0.1967(10) 0.44254(13) 0.2098(5)
H28 H 0.15570 0.42050 0.19990
C31 C 0.0896(10) 0.46051(12) 0.2893(5)
H29 H -0.01910 0.45080 0.33470
C32 C 0.1548(9) 0.52873(12) 0.1239(4)
H30 H 0.23720 0.53300 0.05260
H31 H 0.01040 0.51690 0.09690
C33 C 0.1077(10) 0.56026(12) 0.1924(4)
H32 H -0.04660 0.57040 0.16900
C34 C 0.3156(10) 0.58133(13) 0.1820(5)
H33 H 0.33410 0.58550 0.09550
H34 H 0.30350 0.60210 0.22450
#END
