
#######################################################################
#
#                 Cambridge Crystallographic Data Centre
#                                CCDC
#
#######################################################################
#
# If this CIF has been generated from an entry in the Cambridge
# Structural Database, then it will include bibliographic, chemical,
# crystal, experimental, refinement or atomic coordinate data resulting
# from the CCDC's data processing and validation procedures.
#
#######################################################################

data_CSD_CIF_YAQHUU
_audit_creation_date 2005-07-14
_audit_creation_method CSD-ConQuest-V1
_database_code_CSD YAQHUU
_database_code_depnum_ccdc_archive 'CCDC 256290'
_chemical_formula_sum 'C20 H23 N1 O12'
_chemical_formula_moiety
;
C20 H23 N1 O12
;
_journal_coden_Cambridge 156
_journal_volume 340
_journal_year 2005
_journal_page_first 1175
_journal_name_full 'Carbohydr.Res. '
loop_
_publ_author_name
"A.Temeriusz"
"T.Gubica"
"P.Rogowska"
"K.Paradowska"
"M.K.Cyranski"
_chemical_name_systematic
;
o-Nitrophenyl 2,3,4,6-tetra-O-acetyl-\b-D-galactopyranoside
;
_chemical_melting_point 448.15
_cell_volume   2164.530
_exptl_crystal_colour 'white'
_exptl_crystal_density_diffrn 1.44
_exptl_special_details
;
Melting point range 448.15-449.15K

;
_exptl_crystal_preparation 'ethanol'
_diffrn_ambient_temperature 110
#These two values have been output from a single CSD field.
_refine_ls_R_factor_gt 0.0596
_refine_ls_wR_factor_gt 0.0596
_symmetry_cell_setting monoclinic
_symmetry_space_group_name_H-M 'P 21'
_symmetry_Int_Tables_number 4
loop_
_symmetry_equiv_pos_site_id
_symmetry_equiv_pos_as_xyz
1 x,y,z
2 -x,1/2+y,-z
_cell_length_a 11.388(2)
_cell_length_b 8.1880(16)
_cell_length_c 23.867(5)
_cell_angle_alpha 90
_cell_angle_beta 103.44(3)
_cell_angle_gamma 90
_cell_formula_units_Z 4
loop_
_atom_type_symbol
_atom_type_radius_bond
C 0.68
H 0.23
N 0.68
O 0.68
loop_
_atom_site_label
_atom_site_type_symbol
_atom_site_fract_x
_atom_site_fract_y
_atom_site_fract_z
C1 C 0.3730(4) 0.4237(6) 0.04165(19)
H1 H 0.40940 0.53270 0.04480
O1 O 0.3808(3) 0.3502(4) -0.01073(14)
C2 C 0.2420(4) 0.4355(6) 0.0439(2)
H2 H 0.20430 0.32740 0.04110
O2 O 0.1829(3) 0.5388(4) -0.00230(14)
C3 C 0.2379(4) 0.5179(6) 0.09983(19)
H3 H 0.26660 0.63020 0.09810
O3 O 0.1151(3) 0.5259(4) 0.10409(14)
C4 C 0.3189(4) 0.4361(6) 0.1526(2)
H4 H 0.32720 0.50890 0.18590
O4 O 0.2681(3) 0.2825(4) 0.16541(13)
C5 C 0.4418(4) 0.4040(6) 0.1419(2)
H5 H 0.48390 0.50840 0.14200
O5 O 0.4333(3) 0.3255(4) 0.08705(13)
C6 C 0.5159(4) 0.2959(7) 0.1866(2)
H6 H 0.50980 0.33050 0.22470
H7 H 0.48790 0.18400 0.18080
O6 O 0.6405(3) 0.3083(4) 0.18114(14)
C7 C 0.4852(5) 0.3774(6) -0.0280(2)
C8 C 0.4812(4) 0.3676(6) -0.0858(2)
N1 N 0.3686(4) 0.3224(6) -0.12681(19)
O7 O 0.3250(4) 0.1918(6) -0.12212(19)
O8 O 0.3336(5) 0.4122(7) -0.1669(2)
C9 C 0.5804(5) 0.3970(7) -0.1080(2)
H8 H 0.57440 0.38980 -0.14750
C10 C 0.6883(5) 0.4369(7) -0.0714(2)
H9 H 0.75620 0.45710 -0.08570
C11 C 0.6946(5) 0.4466(7) -0.0134(2)
H10 H 0.76780 0.47250 0.01150
C12 C 0.5938(5) 0.4187(7) 0.0089(2)
H11 H 0.59940 0.42770 0.04830
C13 C 0.0732(5) 0.4933(7) -0.0335(2)
O9 O 0.0230(3) 0.3715(6) -0.02502(16)
C14 C 0.0257(5) 0.6146(8) -0.0796(2)
H12 H -0.05530 0.58560 -0.09880
H13 H 0.07580 0.61530 -0.10680
H14 H 0.02580 0.72110 -0.06280
C15 C 0.0860(5) 0.6548(7) 0.1341(2)
O10 O 0.1583(3) 0.7588(4) 0.15491(15)
C16 C -0.0415(5) 0.6456(8) 0.1384(2)
H15 H -0.05010 0.56030 0.16480
H16 H -0.09220 0.62260 0.10110
H17 H -0.06480 0.74800 0.15220
C17 C 0.2028(4) 0.2877(7) 0.2064(2)
O11 O 0.1731(3) 0.4133(5) 0.22539(15)
C18 C 0.1778(5) 0.1235(6) 0.2259(2)
H18 H 0.23300 0.09980 0.26200
H19 H 0.18760 0.04420 0.19770
H20 H 0.09650 0.11930 0.23080
C19 C 0.7246(4) 0.2488(6) 0.2254(2)
O12 O 0.6995(3) 0.1980(5) 0.26860(16)
C20 C 0.8472(4) 0.2546(7) 0.2145(2)
H21 H 0.90020 0.31300 0.24510
H22 H 0.84420 0.30920 0.17850
H23 H 0.87680 0.14540 0.21260
C21 C 0.1738(4) 0.0299(7) 0.5599(2)
H24 H 0.14170 -0.08040 0.56220
O13 O 0.1143(3) 0.1082(4) 0.50832(14)
C22 C 0.3048(4) 0.0244(6) 0.55957(19)
H25 H 0.33340 0.13370 0.55260
O14 O 0.3191(3) -0.0843(5) 0.51507(14)
C23 C 0.3776(4) -0.0419(6) 0.6162(2)
H26 H 0.35800 -0.15780 0.61880
O15 O 0.5017(3) -0.0285(4) 0.61342(14)
C24 C 0.3508(5) 0.0460(6) 0.6673(2)
H27 H 0.38780 -0.01220 0.70290
O16 O 0.4002(3) 0.2096(4) 0.66883(14)
C25 C 0.2155(5) 0.0566(6) 0.6606(2)
H28 H 0.18340 -0.05360 0.66290
O17 O 0.1573(3) 0.1277(4) 0.60648(14)
C26 C 0.1848(5) 0.1605(7) 0.7070(2)
H29 H 0.22970 0.12380 0.74450
H30 H 0.20600 0.27340 0.70200
O18 O 0.0566(3) 0.1469(4) 0.70311(15)
C27 C -0.0053(5) 0.0707(6) 0.4860(2)
C28 C -0.0456(4) 0.0882(6) 0.4270(2)
N2 N 0.0395(4) 0.1309(6) 0.39199(18)
O19 O 0.1296(3) 0.0480(5) 0.39548(16)
O20 O 0.0142(3) 0.2502(5) 0.35981(16)
C29 C -0.1647(4) 0.0654(6) 0.3989(2)
H31 H -0.19010 0.08020 0.35930
C30 C -0.2455(5) 0.0200(7) 0.4312(2)
H32 H -0.32630 0.00250 0.41360
C31 C -0.2050(5) 0.0009(7) 0.4902(2)
H33 H -0.25910 -0.03250 0.51160
C32 C -0.0876(5) 0.0298(7) 0.5177(2)
H34 H -0.06350 0.02190 0.55760
C33 C 0.3760(5) -0.0330(8) 0.4746(2)
O21 O 0.4153(4) 0.1041(6) 0.47467(17)
C34 C 0.3846(6) -0.1641(9) 0.4339(2)
H35 H 0.42040 -0.12220 0.40420
H36 H 0.30530 -0.20510 0.41700
H37 H 0.43380 -0.25080 0.45400
C35 C 0.5820(5) -0.1331(6) 0.6460(2)
O22 O 0.5554(3) -0.2219(5) 0.68084(16)
C36 C 0.7006(5) -0.1246(6) 0.6313(2)
H38 H 0.76340 -0.13790 0.66560
H39 H 0.70920 -0.02050 0.61420
H40 H 0.70640 -0.21000 0.60450
C37 C 0.4713(4) 0.2601(7) 0.7196(2)
O23 O 0.4923(4) 0.1776(5) 0.76222(17)
C38 C 0.5141(5) 0.4279(7) 0.7154(2)
H41 H 0.45060 0.50340 0.71740
H42 H 0.53710 0.44160 0.67950
H43 H 0.58250 0.44850 0.74670
C39 C -0.0037(5) 0.2816(7) 0.7102(2)
O24 O 0.0447(4) 0.4120(5) 0.7203(2)
C40 C -0.1349(4) 0.2517(7) 0.7029(2)
H44 H -0.15150 0.22590 0.73950
H45 H -0.15920 0.16200 0.67680
H46 H -0.17910 0.34780 0.68750
#END
