
#######################################################################
#
#                 Cambridge Crystallographic Data Centre
#                                CCDC
#
#######################################################################
#
# If this CIF has been generated from an entry in the Cambridge
# Structural Database, then it will include bibliographic, chemical,
# crystal, experimental, refinement or atomic coordinate data resulting
# from the CCDC's data processing and validation procedures.
#
#######################################################################

data_CSD_CIF_YARGON01
_audit_creation_date 1996-03-13
_audit_creation_method CSD-ConQuest-V1
_database_code_CSD YARGON01
_chemical_formula_sum 'C21 H24 N2 O7'
_chemical_formula_moiety
;
C21 H24 N2 O7
;
_journal_coden_Cambridge 151
_journal_volume 38
_journal_year 1995
_journal_page_first 2830
_journal_name_full 'J.Med.Chem. '
loop_
_publ_author_name
"R.Alajarin"
"J.J.Vaquero"
"J.Alvarez-Builla"
"M.Pastor"
"C.Sunkel"
"M.F.de Casa-Juana"
"J.Priego"
"P.R.Statkow"
"J.Sanz-Aparicio"
"I.Fonseca"
_chemical_name_systematic
;
(SS)(RR)-Methyl tetrahydrofuran-2-ylmethyl 
2,6-dimethyl-4-(2'-nitrophenyl)-1,4-dihydropyridine-3,5-dicarboxylate
;
_chemical_name_common
;
Furnidipine
;
_cell_volume   2233.557
_exptl_special_details
;
monoclinic polymorph
calcium channel antagonist activity

;
_diffrn_ambient_temperature ?
_diffrn_special_details
;
The study was carried out at room temperature,in the range 283-303K

;
#These two values have been output from a single CSD field.
_refine_ls_R_factor_gt 0.044
_refine_ls_wR_factor_gt 0.044
_symmetry_cell_setting monoclinic
_symmetry_space_group_name_H-M 'P 21/c'
_symmetry_Int_Tables_number 14
loop_
_symmetry_equiv_pos_site_id
_symmetry_equiv_pos_as_xyz
1 x,y,z
2 -x,1/2+y,1/2-z
3 -x,-y,-z
4 x,-1/2-y,-1/2+z
_cell_length_a 9.988(1)
_cell_length_b 16.602(2)
_cell_length_c 13.758(1)
_cell_angle_alpha 90
_cell_angle_beta 101.75
_cell_angle_gamma 90
_cell_formula_units_Z 4
loop_
_atom_type_symbol
_atom_type_radius_bond
C 0.68
H 0.23
N 0.68
O 0.68
loop_
_atom_site_label
_atom_site_type_symbol
_atom_site_fract_x
_atom_site_fract_y
_atom_site_fract_z
O1 O 0.4035(3) 0.6044(1) 0.5162(1)
O2 O 0.2798(2) 0.59562(9) 0.3597(1)
O3 O 0.3603(2) 0.5309(1) 0.1833(1)
O4 O 0.0542(2) 0.6335(1) 0.1696(1)
O5 O -0.1695(3) 0.6650(1) 0.0933(1)
O6 O 0.0327(3) 0.8173(1) 0.1672(1)
O7 O 0.1103(2) 0.9391(1) 0.2210(1)
N1 N 0.2390(2) 0.8451(1) 0.5076(1)
N2 N -0.0731(3) 0.6577(1) 0.1689(1)
C1 C 0.2923(2) 0.7672(1) 0.5177(2)
C2 C 0.2563(2) 0.7158(1) 0.4398(2)
C3 C 0.1439(2) 0.7400(1) 0.3461(2)
C4 C 0.1382(2) 0.8318(1) 0.3367(2)
C5 C 0.1746(2) 0.8790(1) 0.4180(2)
C6 C 0.1521(3) 0.9681(1) 0.4246(2)
C7 C 0.3883(3) 0.7503(2) 0.6181(2)
C8 C 0.3215(2) 0.6346(1) 0.4458(2)
C9 C 0.3384(3) 0.5147(2) 0.3542(2)
C10 C 0.2870(3) 0.4863(1) 0.2498(2)
C11 C 0.4699(4) 0.4798(2) 0.1540(3)
C12 C 0.4054(5) 0.3973(2) 0.1507(3)
C13 C 0.3271(4) 0.3973(2) 0.2386(3)
C14 C -0.0161(2) 0.7074(1) 0.3454(2)
C15 C -0.0744(3) 0.7153(1) 0.4317(2)
C16 C -0.2205(3) 0.6926(2) 0.4360(2)
C17 C -0.3169(3) 0.6625(2) 0.3534(3)
C18 C -0.2650(3) 0.6540(2) 0.2668(2)
C19 C -0.1172(3) 0.6752(1) 0.2638(2)
C20 C 0.0871(2) 0.8605(1) 0.2353(2)
C21 C 0.0709(5) 0.9674(2) 0.1203(2)
H1 H 0.257(4) 0.876(2) 0.558(3)
H2 H 0.180(3) 0.717(2) 0.289(2)
H3 H 0.235(4) 0.997(2) 0.416(3)
H4 H 0.151(4) 0.984(2) 0.491(3)
H5 H 0.059(4) 0.987(2) 0.386(3)
H6 H 0.379(4) 0.795(2) 0.668(3)
H7 H 0.490(5) 0.748(2) 0.612(3)
H8 H 0.371(4) 0.697(3) 0.640(3)
H9 H 0.305(4) 0.483(2) 0.401(3)
H10 H 0.451(4) 0.514(2) 0.373(3)
H11 H 0.180(4) 0.495(2) 0.229(2)
H12 H 0.567(4) 0.480(2) 0.210(2)
H13 H 0.494(3) 0.503(2) 0.102(3)
H14 H 0.323(3) 0.385(2) 0.081(2)
H15 H 0.480(4) 0.353(2) 0.161(2)
H16 H 0.240(5) 0.364(3) 0.224(3)
H17 H 0.391(5) 0.376(3) 0.299(3)
H18 H -0.007(4) 0.734(2) 0.491(3)
H19 H -0.252(4) 0.700(2) 0.493(3)
H20 H -0.419(5) 0.648(2) 0.356(3)
H21 H -0.329(4) 0.632(2) 0.210(3)
H22 H -0.017(5) 0.944(2) 0.086(3)
H23 H 0.112(4) 0.937(3) 0.077(3)
H24 H 0.060(4) 1.019(3) 0.119(3)
#END
