
#######################################################################
#
#                 Cambridge Crystallographic Data Centre
#                                CCDC
#
#######################################################################
#
# If this CIF has been generated from an entry in the Cambridge
# Structural Database, then it will include bibliographic, chemical,
# crystal, experimental, refinement or atomic coordinate data resulting
# from the CCDC's data processing and validation procedures.
#
#######################################################################

data_CSD_CIF_YARGON
_audit_creation_date 1994-03-15
_audit_creation_method CSD-ConQuest-V1
_database_code_CSD YARGON
_chemical_formula_sum 'C21 H24 N2 O7'
_chemical_formula_moiety
;
C21 H24 N2 O7
;
_journal_coden_Cambridge 1090
_journal_volume 4
_journal_year 1993
_journal_page_first 617
_journal_name_full 'Tetrahedron:Asymm. '
loop_
_publ_author_name
"R.Alajarin"
"J.Alvarez-Builla"
"J.J.Vaquero"
"C.Sunkel"
"M.F.de Casa-Juana"
"P.R.Statkow"
"J.Sanz-Aparicio"
_chemical_name_systematic
;
rac-Methyl tetrahydrofuran-2-ylmethyl 
2,6-dimethyl-4-(o-nitrophenyl)-1,4-dihydropyridine-3,5-dicarboxylate
;
_chemical_name_common
;
Furnidipine
;
_cell_volume   2040.934
_exptl_special_details
;
triclinic polymorph
calcium channel antagonist activity
Letter written to author concerning missing coordinates
;
_diffrn_ambient_temperature ?
_diffrn_special_details
;
The study was carried out at room temperature,in the range 283-303K

;
#These two values have been output from a single CSD field.
_refine_ls_R_factor_gt 0.155
_refine_ls_wR_factor_gt 0.155
_symmetry_cell_setting triclinic
_symmetry_space_group_name_H-M 'P -1'
_symmetry_Int_Tables_number 2
loop_
_symmetry_equiv_pos_site_id
_symmetry_equiv_pos_as_xyz
1 x,y,z
2 -x,-y,-z
_cell_length_a 8.127(1)
_cell_length_b 10.603(1)
_cell_length_c 25.506(3)
_cell_angle_alpha 99.819(1)
_cell_angle_beta 90.477(1)
_cell_angle_gamma 109.151(1)
_cell_formula_units_Z 4
loop_
_atom_type_symbol
_atom_type_radius_bond
C 0.68
H 0.23
N 0.68
O 0.68
loop_
_atom_site_label
_atom_site_type_symbol
_atom_site_fract_x
_atom_site_fract_y
_atom_site_fract_z
N1 N 0.1802(43) 0.3303(33) -0.0234(15)
H1 H 0.13050 0.33850 -0.05210
C1 C 0.2737(36) 0.4486(26) 0.0124(13)
C2 C 0.3318(45) 0.4475(34) 0.0615(16)
C3 C 0.3058(45) 0.3061(34) 0.0755(16)
H2 H 0.42130 0.30980 0.09630
C4 C 0.2564(55) 0.1919(43) 0.0227(20)
C5 C 0.1935(45) 0.2061(34) -0.0185(16)
C6 C 0.1366(51) 0.1078(39) -0.075(17)
H3 H 0.22080 0.17100 -0.10220
H4 H 0.01600 0.11130 0.08850
H5 H 0.14200 0.02630 -0.07470
C7 C 0.2661(57) 0.5683(43) -0.0110(19)
H6 H 0.14290 0.56970 -0.01640
H7 H 0.33270 0.57410 -0.04540
H8 H 0.33150 0.66160 0.01410
C8 C 0.4432(48) 0.5661(38) 0.0971(17)
O1 O 0.4477(41) 0.6709(32) 0.0964(14)
O2 O 0.5168(40) 0.5388(30) 0.1383(14)
C9 C 0.6487(51) 0.6511(38) 0.1742(18)
H9 H 0.60720 0.69300 0.20780
H10 H 0.69270 0.74010 0.15810
C10 C 0.7861(50) 0.6063(36) 0.1853(17)
H11 H 0.75520 0.51690 0.19690
O3 O 0.8864(46) 0.6188(34) 0.1374(15)
C11 C 1.0723(95) 0.6588(71) 0.1454(31)
H12 H 1.14380 0.69580 0.11470
H13 H 1.11010 0.56710 0.13860
C12 C 1.0920(56) 0.7392(41) 0.2046(19)
H14 H 1.18390 0.83750 0.20350
H15 H 0.07924(4) -0.0538(2) 0.99036(4)
C13 C 0.1992(43) -0.0936(38) 0.8166(43)
H16 H 0.11604(4) -0.12449(20) 0.76220(4)
C14 C 0.3196(42) -0.1254(37) 0.7724(42)
H17 H 0.33338(4) -0.18082(2) 0.68723(4)
H18 H 0.4436(44) -0.0718(41) 0.8452(45)
N2 N 0.5744(64) -0.0987(58) 0.7719(53)
O4 O 0.6499(51) -0.0283(46) 0.7786(45)
O5 O 0.5698(47) -0.2195(48) 0.7377(47)
C15 C 0.6142(42) -0.1936(39) 1.1662(46)
O6 O 0.6086(37) -0.2725(36) 1.2575(37)
C16 C 0.6594(32) 0.1921(30) 1.0429(35)
C17 C 0.7320(48) -0.3248(44) 1.0252(48)
H19 H 0.67646(4) -0.41201(2) 1.04702(4)
H20 H 0.81521(4) -0.33625(2) 1.08814(4)
H21 H 0.76678(4) 0.33866(2) 0.93194(4)
#END
