
#######################################################################
#
#                 Cambridge Crystallographic Data Centre
#                                CCDC
#
#######################################################################
#
# If this CIF has been generated from an entry in the Cambridge
# Structural Database, then it will include bibliographic, chemical,
# crystal, experimental, refinement or atomic coordinate data resulting
# from the CCDC's data processing and validation procedures.
#
#######################################################################

data_CSD_CIF_YARQEN
_audit_creation_date 2001-10-24
_audit_creation_method CSD-ConQuest-V1
_database_code_CSD YARQEN
_chemical_formula_sum 'C15 H24 N2 O3'
_chemical_formula_moiety
;
C15 H24 N2 O3
;
_journal_coden_Cambridge 35
_journal_volume 65
_journal_year 2000
_journal_page_first 5685
_journal_name_full 'J.Org.Chem. '
loop_
_publ_author_name
"D.S.Bohle"
"J.A.Imonigie"
_chemical_name_systematic
;
(Z)-1-(4-(2,6-Di-t-butyl-4-methylcyclohexadienonyl))diazen-1-ium-1,2-diolinic 
acid
;
_cell_volume   4785.057
_exptl_crystal_colour 'colorless'
_exptl_crystal_density_diffrn 1.168
_exptl_special_details
;
y(H8B) was reported as 0.150, we calculate 0.1150

;
_diffrn_ambient_temperature 173.15
#These two values have been output from a single CSD field.
_refine_ls_R_factor_gt 0.0366
_refine_ls_wR_factor_gt 0.0366
_symmetry_cell_setting monoclinic
_symmetry_space_group_name_H-M 'P 21/c'
_symmetry_Int_Tables_number 14
loop_
_symmetry_equiv_pos_site_id
_symmetry_equiv_pos_as_xyz
1 x,y,z
2 -x,1/2+y,1/2-z
3 -x,-y,-z
4 x,-1/2-y,-1/2+z
_cell_length_a 14.815(4)
_cell_length_b 19.355(4)
_cell_length_c 18.069(4)
_cell_angle_alpha 90
_cell_angle_beta 112.55(3)
_cell_angle_gamma 90
_cell_formula_units_Z 12
loop_
_atom_type_symbol
_atom_type_radius_bond
C 0.68
H 0.23
N 0.68
O 0.68
loop_
_atom_site_label
_atom_site_type_symbol
_atom_site_fract_x
_atom_site_fract_y
_atom_site_fract_z
O1 O 0.0851(1) 0.4856(1) 0.6841(2)
N1 N 0.1671(2) 0.4523(1) 0.7356(1)
N2 N 0.2046(1) 0.4189(1) 0.6948(1)
O2 O 0.1704(1) 0.4200(1) 0.6177(1)
O3 O 0.4498(1) 0.2972(1) 0.6088(1)
C1 C 0.4047(1) 0.3206(1) 0.6473(1)
C2 C 0.3248(1) 0.2792(1) 0.6579(1)
C3 C 0.2761(2) 0.3074(1) 0.6986(1)
C4 C 0.2967(1) 0.3768(1) 0.7369(1)
C5 C 0.3768(1) 0.4153(1) 0.7239(1)
C6 C 0.4289(1) 0.3908(1) 0.6839(1)
C7 C 0.3027(2) 0.2066(1) 0.6212(1)
C8 C 0.3925(2) 0.1605(1) 0.6591(2)
C9 C 0.2765(2) 0.2098(2) 0.5299(1)
C10 C 0.2186(2) 0.1730(1) 0.6375(2)
C11 C 0.3171(2) 0.3720(2) 0.8264(1)
C12 C 0.5117(1) 0.4326(1) 0.6737(1)
C13 C 0.6075(2) 0.3918(2) 0.7051(2)
C14 C 0.4840(2) 0.4503(2) 0.5855(2)
C15 C 0.5287(2) 0.5007(2) 0.7203(2)
O4 O 0.5907(1) 0.5395(1) -0.0166(1)
N3 N 0.5248(1) 0.5893(1) -0.0177(1)
N4 N 0.4477(1) 0.5816(1) -0.0803(1)
O5 O 0.4386(1) 0.5337(1) -0.1310(1)
O6 O 0.2126(1) 0.7012(1) 0.0401(1)
C16 C 0.2642(1) 0.6759(1) 0.0083(1)
C17 C 0.3535(1) 0.7131(1) 0.0098(1)
C18 C 0.3987(2) 0.6894(1) -0.0362(1)
C19 C 0.3629(1) 0.6302(1) -0.0925(1)
C20 C 0.2855(2) 0.5882(1) -0.0796(1)
C21 C 0.2386(1) 0.6078(1) -0.0335(1)
C22 C 0.3858(1) 0.7796(1) 0.0593(1)
C23 C 0.3128(2) 0.8368(1) 0.0169(2)
C24 C 0.4867(2) 0.8026(2) 0.0645(2)
C25 C 0.3917(2) 0.7694(2) 0.1448(2)
C26 C 0.3285(2) 0.6552(2) -0.1794(1)
C27 C 0.1586(2) 0.5633(1) -0.0219(1)
C28 C 0.0602(2) 0.6013(2) -0.0520(2)
C29 C 0.1908(2) 0.5461(2) 0.0669(2)
C30 C 0.1445(2) 0.4954(2) -0.0682(2)
O7 O -0.2494(1) 0.4385(1) 0.3613(1)
N5 N -0.1875(1) 0.3861(1) 0.3614(1)
N6 N -0.1074(1) 0.3921(1) 0.4211(1)
O8 O -0.0908(1) 0.4407(1) 0.4721(1)
O9 O 0.1055(1) 0.2920(1) 0.2737(1)
C31 C 0.0635(1) 0.3087(1) 0.3174(1)
C32 C 0.0964(1) 0.3701(1) 0.3704(1)
C33 C 0.0541(1) 0.3834(1) 0.4220(1)
C34 C -0.0268(1) 0.3411(1) 0.4292(1)
C35 C -0.0650(2) 0.2865(1) 0.3672(1)
C36 C -0.0227(1) 0.2678(1) 0.3173(1)
C37 C 0.1778(1) 0.4160(1) 0.3639(1)
C38 C 0.2723(2) 0.3747(2) 0.3831(2)
C39 C 0.1433(2) 0.4461(2) 0.2791(2)
C40 C 0.2001(2) 0.4767(2) 0.4226(2)
C41 C 0.0028(2) 0.3089(1) 0.5124(1)
C42 C -0.0566(2) 0.2054(1) 0.2614(1)
C43 C -0.0851(2) 0.2277(2) 0.1740(2)
C44 C -0.1464(2) 0.1718(2) 0.2676(2)
C45 C 0.0254(2) 0.1522(2) 0.2843(2)
H1 H 0.0887(26) 0.4711(19) 0.6358(21)
H2 H 0.2261(14) 0.2836(10) 0.7051(11)
H3 H 0.3884(12) 0.4588(11) 0.7459(11)
H4 H 0.4499(19) 0.1792(13) 0.6481(14)
H5 H 0.3761(17) 0.1150(15) 0.6371(15)
H6 H 0.4094(16) 0.1589(12) 0.7169(16)
H7 H 0.3254(18) 0.2285(13) 0.5144(14)
H8 H 0.2533(16) 0.1650(14) 0.5079(14)
H9 H 0.2180(18) 0.2426(13) 0.5051(14)
H10 H 0.2078(15) 0.1279(13) 0.6144(13)
H11 H 0.1541(17) 0.2021(12) 0.6109(13)
H12 H 0.2364(16) 0.1679(12) 0.6965(16)
H13 H 0.3794(18) 0.3439(12) 0.8501(14)
H14 H 0.2640(17) 0.3468(12) 0.8333(13)
H15 H 0.3274(16) 0.4155(14) 0.8508(14)
H16 H 0.6600(19) 0.4215(13) 0.7024(14)
H17 H 0.6029(19) 0.3480(16) 0.6760(16)
H18 H 0.6238(17) 0.3818(13) 0.7604(17)
H19 H 0.5377(19) 0.4766(14) 0.5789(15)
H20 H 0.4720(17) 0.4098(14) 0.5513(15)
H21 H 0.4224(20) 0.4811(14) 0.5658(15)
H22 H 0.5501(18) 0.4888(14) 0.7818(18)
H23 H 0.5799(18) 0.5253(12) 0.7117(13)
H24 H 0.4709(18) 0.5301(13) 0.7008(14)
H25 H 0.5511(17) 0.5123(13) -0.0683(15)
H26 H 0.4525(14) 0.7135(10) -0.0386(11)
H27 H 0.2696(13) 0.5481(11) -0.1080(11)
H28 H 0.3354(15) 0.8761(13) 0.0465(14)
H29 H 0.2481(16) 0.8251(11) 0.0154(12)
H30 H 0.3114(16) 0.8437(12) -0.0385(16)
H31 H 0.5379(17) 0.7660(13) 0.0906(14)
H32 H 0.4864(16) 0.8155(12) 0.0100(16)
H33 H 0.5059(14) 0.8429(12) 0.0980(12)
H34 H 0.3308(19) 0.7545(13) 0.1490(14)
H35 H 0.4166(16) 0.8112(13) 0.1735(14)
H36 H 0.4397(17) 0.7312(13) 0.1724(14)
H37 H 0.2668(17) 0.6831(12) -0.1910(13)
H38 H 0.3129(17) 0.6156(14) -0.2153(15)
H39 H 0.3785(17) 0.6861(12) -0.1856(13)
H40 H 0.0454(16) 0.6139(12) -0.1060(15)
H41 H 0.0622(17) 0.6446(15) -0.0213(15)
H42 H 0.0078(18) 0.5701(12) -0.0487(13)
H43 H 0.1419(18) 0.5179(13) 0.0763(14)
H44 H 0.1994(18) 0.5883(15) 0.1005(16)
H45 H 0.2557(19) 0.5178(13) 0.0867(14)
H46 H 0.1198(18) 0.5059(13) -0.1272(17)
H47 H 0.0980(17) 0.4691(12) -0.0546(13)
H48 H 0.2054(19) 0.4679(13) -0.0509(14)
H49 H -0.2098(20) 0.4636(15) 0.4054(17)
H50 H 0.0709(12) 0.4203(10) 0.4567(11)
H51 H -0.1166(14) 0.2618(10) 0.3682(11)
H52 H 0.2634(16) 0.3353(13) 0.3449(14)
H53 H 0.2935(16) 0.3578(12) 0.4372(16)
H54 H 0.3258(16) 0.4058(11) 0.3819(12)
H55 H 0.1290(15) 0.4095(12) 0.2375(14)
H56 H 0.0808(17) 0.4719(12) 0.2643(13)
H57 H 0.1951(18) 0.4759(13) 0.2777(14)
H58 H 0.2496(17) 0.5063(12) 0.4160(13)
H59 H 0.2247(16) 0.4600(12) 0.4795(16)
H60 H 0.1393(18) 0.5079(12) 0.4091(13)
H61 H 0.0576(18) 0.2769(13) 0.5215(13)
H62 H 0.0220(14) 0.3456(12) 0.5537(13)
H63 H -0.0508(16) 0.2809(11) 0.5159(13)
H64 H -0.1396(22) 0.2650(17) 0.1586(17)
H65 H -0.1053(18) 0.1895(15) 0.1442(16)
H66 H -0.0279(19) 0.2467(13) 0.1661(15)
H67 H -0.1666(17) 0.1316(14) 0.2327(15)
H68 H -0.2056(20) 0.2043(14) 0.2510(15)
H69 H -0.1299(17) 0.1537(13) 0.3225(16)
H70 H 0.0019(20) 0.1102(17) 0.2533(17)
H71 H 0.0373(22) 0.1386(16) 0.3411(20)
H72 H 0.0877(24) 0.1700(17) 0.2820(18)
#END
