
#######################################################################
#
#                 Cambridge Crystallographic Data Centre
#                                CCDC
#
#######################################################################
#
# If this CIF has been generated from an entry in the Cambridge
# Structural Database, then it will include bibliographic, chemical,
# crystal, experimental, refinement or atomic coordinate data resulting
# from the CCDC's data processing and validation procedures.
#
#######################################################################

data_CSD_CIF_YARQUD
_audit_creation_date 2001-10-24
_audit_creation_method CSD-ConQuest-V1
_database_code_CSD YARQUD
_chemical_formula_sum 'C21 H33 N1 O9'
_chemical_formula_moiety
;
C21 H33 N1 O9
;
_journal_coden_Cambridge 156
_journal_volume 322
_journal_year 1999
_journal_page_first 1
_journal_name_full 'Carbohydr.Res. '
loop_
_publ_author_name
"R.O.Gould"
"K.E.McGhie"
"R.M.Paton"
_chemical_name_systematic
;
(5R)-5-(2,3-O-Isopropylidene-1-O-methyl-\a-D-lyxo-tetrofuranos-4-yl)-3-(1,2:3,
4-di-O-isopropylidene-L-arabino-tetritol-1-yl)-4,5-dihydroisoxazole
;
_chemical_melting_point 361.15
_cell_volume   2362.409
_exptl_crystal_colour 'colorless'
_exptl_special_details
;
Melting point range 361.15-362.15K

;
_exptl_crystal_description 'plates'
_exptl_crystal_preparation 'hexane'
_diffrn_ambient_temperature ?
_diffrn_special_details
;
The study was carried out at room temperature,in the range 283-303K

;
#These two values have been output from a single CSD field.
_refine_ls_R_factor_gt 0.053
_refine_ls_wR_factor_gt 0.053
_symmetry_cell_setting monoclinic
_symmetry_space_group_name_H-M 'P 21'
_symmetry_Int_Tables_number 4
loop_
_symmetry_equiv_pos_site_id
_symmetry_equiv_pos_as_xyz
1 x,y,z
2 -x,1/2+y,-z
_cell_length_a 17.281(10)
_cell_length_b 5.409(4)
_cell_length_c 26.437(13)
_cell_angle_alpha 90
_cell_angle_beta 107.06(4)
_cell_angle_gamma 90
_cell_formula_units_Z 4
loop_
_atom_type_symbol
_atom_type_radius_bond
C 0.68
N 0.68
O 0.68
loop_
_atom_site_label
_atom_site_type_symbol
_atom_site_fract_x
_atom_site_fract_y
_atom_site_fract_z
C1 C 0.6080(5) 0.386(2) 0.6012(3)
O1 O 0.5421(4) 0.5383(16) 0.5914(3)
C2 C 0.6732(5) 0.492(2) 0.6467(4)
O2 O 0.7292(4) 0.3078(15) 0.6727(2)
C3 C 0.7238(5) 0.6594(16) 0.6209(3)
O3 O 0.8039(3) 0.5796(12) 0.6434(2)
C4 C 0.6916(5) 0.5909(18) 0.5624(3)
O4 O 0.6435(3) 0.3700(12) 0.5596(2)
C5 C 0.7548(5) 0.5366(19) 0.5351(3)
O5 O 0.8002(3) 0.7625(15) 0.5355(2)
C6 C 0.7223(5) 0.4672(19) 0.4768(3)
C7 C 0.7525(5) 0.6756(18) 0.4508(3)
N1 N 0.7939(4) 0.8359(17) 0.4834(3)
C8 C 0.7360(5) 0.7192(17) 0.3931(3)
O6 O 0.6540(3) 0.7892(12) 0.3718(2)
C9 C 0.7449(4) 0.4895(16) 0.3613(3)
O7 O 0.6854(3) 0.5389(12) 0.3117(2)
C10 C 0.8251(5) 0.4587(17) 0.3513(3)
O8 O 0.8819(3) 0.4018(3) 0.4013(2)
C11 C 0.8303(5) 0.2398(18) 0.3168(3)
O9 O 0.8909(4) 0.0879(13) 0.3490(3)
C12 C 0.4758(5) 0.454(3) 0.5504(4)
C13 C 0.8082(5) 0.401(2) 0.6838(3)
C14 C 0.8377(5) 0.522(2) 0.7368(3)
C15 C 0.8640(6) 0.199(2) 0.6767(4)
C16 C 0.6216(5) 0.6641(18) 0.3227(3)
C17 C 0.5573(5) 0.494(2) 0.3288(4)
C18 C 0.5879(5) 0.855(2) 0.2800(3)
C19 C 0.9383(5) 0.2278(18) 0.3917(3)
C20 C 1.0054(5) 0.362(2) 0.3791(3)
C21 C 0.9679(5) 0.0688(19) 0.4390(3)
C22 C 0.8763(6) 0.738(2) -0.1045(4)
O10 O 0.9498(4) 0.8528(16) -0.0841(3)
C23 C 0.8187(5) 0.923(2) -0.1396(4)
O11 O 0.7545(4) 0.7896(15) -0.1758(2)
C24 C 0.7750(5) 1.0464(17) -0.1034(3)
O12 O 0.6922(3) 1.0159(12) -0.1293(2)
C25 C 0.8037(5) 0.8971(19) -0.0522(3)
O13 O 0.8388(4) 0.6765(13) -0.0653(2)
C26 C 0.7378(5) 0.8257(18) -0.0278(3)
O14 O 0.7070(3) 1.0552(13) -0.0107(2)
C27 C 0.7663(6) 0.6712(18) 0.0223(3)
C28 C 0.7612(5) 0.8523(18) 0.0635(3)
N2 N 0.7295(4) 1.0574(16) 0.0452(3)
C29 C 0.7886(4) 0.8129(17) 0.1220(3)
O15 O 0.8735(3) 0.7625(12) 0.1369(2)
C30 C 0.7527(4) 0.5846(16) 0.1400(3)
O16 O 0.8175(4) 0.4932(12) 0.1828(2)
C31 C 0.6810(5) 0.6357(17) 0.1591(3)
O17 O 0.6202(4) 0.7473(12) 0.1171(2)
C32 C 0.6398(5) 0.4091(19) 0.1730(3)
O18 O 0.5562(3) 0.4720(12) 0.1555(2)
C33 C 1.0106(6) 0.695(3) -0.0535(4)
C34 C 0.6822(5) 0.909(2) -0.1798(3)
C35 C 0.6635(6) 1.105(2) -0.2218(4)
C36 C 0.6163(6) 0.720(2) -0.1898(4)
C37 C 0.8888(5) 0.620(2) 0.1839(4)
C38 C 0.9547(6) 0.447(2) 0.1868(4)
C39 C 0.9089(6) 0.796(2) 0.2309(4)
C40 C 0.5456(5) 0.6223(17) 0.1088(3)
C41 C 0.4789(5) 0.802(2) 0.1074(4)
C42 C 0.5288(6) 0.463(2) 0.0606(3)
#END
