
#######################################################################
#
#                 Cambridge Crystallographic Data Centre
#                                CCDC
#
#######################################################################
#
# If this CIF has been generated from an entry in the Cambridge
# Structural Database, then it will include bibliographic, chemical,
# crystal, experimental, refinement or atomic coordinate data resulting
# from the CCDC's data processing and validation procedures.
#
#######################################################################

data_CSD_CIF_YARQIR
_audit_creation_date 2001-10-24
_audit_creation_method CSD-ConQuest-V1
_database_code_CSD YARQIR
_chemical_formula_sum 'C16 H26 N2 O3'
_chemical_formula_moiety
;
C16 H26 N2 O3
;
_journal_coden_Cambridge 35
_journal_volume 65
_journal_year 2000
_journal_page_first 5685
_journal_name_full 'J.Org.Chem. '
loop_
_publ_author_name
"D.S.Bohle"
"J.A.Imonigie"
_chemical_name_systematic
;
O^2^-Methyl 
(Z)-1-(4-(2,6-di-t-butyl-4-methylcyclohexadienonyl))diazen-1-ium-1,2-diolate
;
_cell_volume   1710.468
_exptl_crystal_density_diffrn 1.143
_diffrn_ambient_temperature 173.15
#These two values have been output from a single CSD field.
_refine_ls_R_factor_gt 0.036
_refine_ls_wR_factor_gt 0.036
_symmetry_cell_setting monoclinic
_symmetry_space_group_name_H-M 'C c'
_symmetry_Int_Tables_number 9
loop_
_symmetry_equiv_pos_site_id
_symmetry_equiv_pos_as_xyz
1 x,y,z
2 x,-y,1/2+z
3 1/2+x,1/2+y,z
4 1/2+x,1/2-y,1/2+z
_cell_length_a 5.8217(7)
_cell_length_b 18.057(2)
_cell_length_c 16.310(2)
_cell_angle_alpha 90
_cell_angle_beta 93.953(10)
_cell_angle_gamma 90
_cell_formula_units_Z 4
loop_
_atom_type_symbol
_atom_type_radius_bond
C 0.68
H 0.23
N 0.68
O 0.68
loop_
_atom_site_label
_atom_site_type_symbol
_atom_site_fract_x
_atom_site_fract_y
_atom_site_fract_z
O1 O 1.0462(3) 0.5147(1) 0.5368(1)
C1 C 1.0918(4) 0.5641(1) 0.5856(1)
C2 C 1.2376(4) 0.5493(1) 0.6633(1)
C3 C 1.2727(4) 0.6039(1) 0.7177(1)
C4 C 1.1872(4) 0.6815(1) 0.7049(1)
C5 C 1.0462(4) 0.6928(1) 0.6264(1)
C6 C 1.0029(4) 0.6412(1) 0.5690(1)
C7 C 1.3307(4) 0.4706(1) 0.6796(1)
C8 C 1.4787(5) 0.4451(1) 0.6109(2)
C9 C 1.1301(5) 0.4167(1) 0.6863(2)
C10 C 1.4802(5) 0.4670(1) 0.7603(2)
C11 C 1.3876(4) 0.7357(1) 0.7130(2)
C12 C 0.8599(4) 0.6569(1) 0.4884(1)
C13 C 0.9991(5) 0.6396(2) 0.4142(1)
C14 C 0.6398(4) 0.6107(2) 0.4836(2)
C15 C 0.7882(6) 0.7385(1) 0.4827(2)
N1 N 0.9734(4) 0.6468(1) 0.8171(1)
O2 O 0.8230(3) 0.6716(1) 0.8728(1)
N2 N 1.0283(3) 0.7008(1) 0.7725(1)
O3 O 0.9599(3) 0.7667(1) 0.7781(1)
C16 C 0.7948(7) 0.6119(2) 0.9303(2)
H1 H 1.3579(4) 0.5928(1) 0.7680(1)
H2 H 0.9819(4) 0.7406(1) 0.6163(1)
H3 H 1.3873(5) 0.4468(1) 0.5582(2)
H4 H 1.5314(5) 0.3943(1) 0.6219(2)
H5 H 1.6123(5) 0.4779(1) 0.6087(2)
H6 H 1.0310(5) 0.4178(1) 0.6352(2)
H7 H 1.0405(5) 0.4312(1) 0.7324(2)
H8 H 1.1902(5) 0.3665(1) 0.6955(2)
H9 H 1.6105(5) 0.5011(1) 0.7577(2)
H10 H 1.5379(5) 0.4164(1) 0.7690(2)
H11 H 1.3881(5) 0.4812(1) 0.8059(2)
H12 H 1.4775(4) 0.7271(1) 0.7652(2)
H13 H 1.3282(4) 0.7565(1) 0.7118(2)
H14 H 1.4861(4) 0.7285(1) 0.6673(2)
H15 H 1.1403(5) 0.6693(2) 0.4173(1)
H16 H 0.9068(5) 0.6515(2) 0.3633(1)
H17 H 1.0392(5) 0.5869(2) 0.4144(1)
H18 H 0.6797(4) 0.5580(2) 0.4870(2)
H19 H 0.5517(4) 0.6205(2) 0.4313(2)
H20 H 0.5469(4) 0.6239(2) 0.5292(2)
H21 H 0.9260(6) 0.7698(1) 0.4856(2)
H22 H 0.6940(6) 0.7507(1) 0.5284(2)
H23 H 0.6988(6) 0.7473(1) 0.4304(2)
H24 H 0.6886(7) 0.6274(2) 0.9711(2)
H25 H 0.9445(7) 0.5996(2) 0.9581(2)
H26 H 0.7323(7) 0.5684(2) 0.9007(2)
#END
