
#######################################################################
#
#                 Cambridge Crystallographic Data Centre
#                                CCDC
#
#######################################################################
#
# If this CIF has been generated from an entry in the Cambridge
# Structural Database, then it will include bibliographic, chemical,
# crystal, experimental, refinement or atomic coordinate data resulting
# from the CCDC's data processing and validation procedures.
#
#######################################################################

data_CSD_CIF_YAVRIY
_audit_creation_date 2012-05-22
_audit_creation_method CSD-ConQuest-V1
_database_code_CSD YAVRIY
_database_code_depnum_ccdc_archive 'CCDC 827052'
_chemical_formula_sum 'C12 H12 N2 O3'
_chemical_formula_moiety
;
C12 H12 N2 O3
;
_journal_coeditor_code "IUCr BV2198"
_journal_coden_Cambridge 1370
_journal_volume 68
_journal_year 2012
_journal_page_first o1111
_journal_name_full 'Acta Crystallogr.,Sect.E:Struct.Rep.Online '
loop_
_publ_author_name
"Jun-Tao Zhao"
"Jing-Jing Qi"
"You-Jun Zhou"
"Jia-Guo Lv"
"Ju Zhu"
_chemical_name_systematic
;
Ethyl 5-(4-aminophenyl)-1,2-oxazole-3-carboxylate
;
_chemical_name_common
;
Ethyl 5-(4-aminophenyl)isoxazole-3-carboxylate
;
_cell_volume   1180.933
_exptl_crystal_colour 'yellow'
_exptl_crystal_density_diffrn 1.306
_exptl_crystal_description 'block'
_diffrn_ambient_temperature 293
#These two values have been output from a single CSD field.
_refine_ls_R_factor_gt 0.0435
_refine_ls_wR_factor_gt 0.0435
_symmetry_cell_setting triclinic
_symmetry_space_group_name_H-M 'P -1'
_symmetry_Int_Tables_number 2
loop_
_symmetry_equiv_pos_site_id
_symmetry_equiv_pos_as_xyz
1 x,y,z
2 -x,-y,-z
_cell_length_a 7.591(2)
_cell_length_b 11.303(4)
_cell_length_c 13.818(4)
_cell_angle_alpha 88.155(4)
_cell_angle_beta 87.008(4)
_cell_angle_gamma 86.233(4)
_cell_formula_units_Z 4
loop_
_atom_type_symbol
_atom_type_radius_bond
C 0.68
H 0.23
N 0.68
O 0.68
loop_
_atom_site_label
_atom_site_type_symbol
_atom_site_fract_x
_atom_site_fract_y
_atom_site_fract_z
N1 N 0.5335(2) -0.04171(15) 0.21800(13)
H1 H 0.54760 -0.10510 0.18500
H2 H 0.49060 -0.04500 0.27680
N2 N 0.8174(2) 0.50932(15) -0.07787(12)
O1 O 0.7833(2) 0.39375(12) -0.04673(10)
O2 O 0.85208(17) 0.74084(11) -0.09551(9)
O3 O 0.7322(2) 0.76842(12) 0.05446(10)
C1 C 0.5794(3) 0.06453(17) 0.17699(14)
C2 C 0.6487(3) 0.07114(18) 0.08224(14)
H3 H 0.66680 0.00210 0.04730
C3 C 0.6913(3) 0.17713(17) 0.03879(14)
H4 H 0.73800 0.17880 -0.02480
C4 C 0.6653(2) 0.28223(16) 0.08896(13)
C5 C 0.5955(3) 0.27542(17) 0.18384(14)
H5 H 0.57740 0.34440 0.21890
C6 C 0.5525(3) 0.16923(18) 0.22717(14)
H6 H 0.50500 0.16750 0.29060
C7 C 0.7110(2) 0.39554(17) 0.04488(13)
C8 C 0.6983(2) 0.50841(17) 0.07360(13)
H7 H 0.65490 0.53620 0.13340
C9 C 0.7640(2) 0.57479(17) -0.00509(13)
C10 C 0.7795(3) 0.70477(18) -0.01060(14)
C11 C 0.8622(3) 0.86764(17) -0.11021(14)
H8 H 0.94010 0.89780 -0.06470
H9 H 0.74600 0.90770 -0.10050
C12 C 0.9325(3) 0.8886(2) -0.21169(16)
H10 H 0.94060 0.97220 -0.22400
H11 H 0.85440 0.85830 -0.25600
H12 H 1.04770 0.84890 -0.22030
N3 N 0.0413(3) 0.56811(15) 0.72204(13)
H13 H 0.05320 0.63320 0.68910
H14 H -0.00110 0.56990 0.78100
N4 N 0.3229(2) 0.01690(15) 0.42390(11)
O4 O 0.2962(2) 0.13256(12) 0.45691(9)
O5 O 0.33623(18) -0.21554(12) 0.40201(9)
O6 O 0.2162(2) -0.24455(13) 0.55129(10)
C13 C 0.0896(3) 0.46186(17) 0.68074(14)
C14 C 0.1581(3) 0.45657(18) 0.58602(14)
H15 H 0.17500 0.52680 0.55080
C15 C 0.2013(3) 0.35068(17) 0.54298(14)
H16 H 0.24590 0.35040 0.47900
C16 C 0.1801(2) 0.24361(16) 0.59284(13)
C17 C 0.1131(3) 0.24851(17) 0.68872(13)
H17 H 0.09840 0.17810 0.72400
C18 C 0.0685(3) 0.35428(17) 0.73236(13)
H18 H 0.02410 0.35480 0.79640
C19 C 0.2207(2) 0.13038(16) 0.54784(13)
C20 C 0.1997(3) 0.01638(16) 0.57400(13)
H19 H 0.15170 -0.01240 0.63270
C21 C 0.2648(2) -0.04958(16) 0.49515(13)
C22 C 0.2698(3) -0.18029(18) 0.48701(14)
C23 C 0.3394(3) -0.34175(17) 0.38527(15)
H20 H 0.22140 -0.36950 0.39490
H21 H 0.41570 -0.38530 0.43010
C24 C 0.4079(3) -0.3605(2) 0.28296(16)
H22 H 0.41140 -0.44350 0.26950
H23 H 0.52480 -0.33300 0.27440
H24 H 0.33140 -0.31710 0.23930
#END
