
#######################################################################
#
#                 Cambridge Crystallographic Data Centre
#                                CCDC
#
#######################################################################
#
# If this CIF has been generated from an entry in the Cambridge
# Structural Database, then it will include bibliographic, chemical,
# crystal, experimental, refinement or atomic coordinate data resulting
# from the CCDC's data processing and validation procedures.
#
#######################################################################

data_CSD_CIF_YAWCEG01
_audit_creation_date 2016-02-04
_audit_creation_method CSD-ConQuest-V1
_database_code_CSD YAWCEG01
_database_code_depnum_ccdc_archive 'CCDC 1451883'
_chemical_formula_sum 'C10 H5 N3 O2'
_chemical_formula_moiety
;
C10 H5 N3 O2
;
_journal_coden_Cambridge 1078
_journal_year 2016
_journal_name_full 'CSD Communication(Private Communication) '
loop_
_publ_author_name
"R.D.Gandour"
"F.R.Fronczek"
_chemical_name_systematic
;
(4-nitrobenzylidene)malononitrile
;
_cell_volume    906.066
_exptl_crystal_colour 'colorless'
_exptl_crystal_density_diffrn 1.46
_diffrn_ambient_temperature 293
#These two values have been output from a single CSD field.
_refine_ls_R_factor_gt 0.0337
_refine_ls_wR_factor_gt 0.0337
_symmetry_cell_setting orthorhombic
_symmetry_space_group_name_H-M 'P n a 21'
_symmetry_Int_Tables_number 33
loop_
_symmetry_equiv_pos_site_id
_symmetry_equiv_pos_as_xyz
1 x,y,z
2 -x,-y,1/2+z
3 1/2-x,1/2+y,1/2+z
4 1/2+x,1/2-y,z
_cell_length_a 19.561(3)
_cell_length_b 3.870(1)
_cell_length_c 11.969(6)
_cell_angle_alpha 90
_cell_angle_beta 90
_cell_angle_gamma 90
_cell_formula_units_Z 4
loop_
_atom_type_symbol
_atom_type_radius_bond
C 0.68
H 0.23
N 0.68
O 0.68
loop_
_atom_site_label
_atom_site_type_symbol
_atom_site_fract_x
_atom_site_fract_y
_atom_site_fract_z
O1 O 0.17303(19) 0.9636(11) 0.2088(4)
O2 O 0.19543(18) 0.6900(12) 0.0571(3)
N1 N 0.5357(2) 0.0500(15) 0.0824(4)
N2 N 0.6202(2) 0.0187(13) 0.4166(4)
N3 N 0.20984(19) 0.7853(12) 0.1515(3)
C1 C 0.4654(2) 0.3683(11) 0.3329(3)
H1 H 0.46830 0.41390 0.40910
C2 C 0.5205(2) 0.2141(11) 0.2891(3)
C3 C 0.5290(2) 0.1230(14) 0.1728(4)
C4 C 0.5763(2) 0.1110(12) 0.3601(4)
C5 C 0.4015(2) 0.4764(11) 0.2809(3)
C6 C 0.3851(2) 0.4175(12) 0.1685(4)
H2 H 0.41670 0.31220 0.12160
C7 C 0.3223(2) 0.5149(12) 0.1274(4)
H3 H 0.31100 0.47310 0.05320
C8 C 0.2764(2) 0.6750(12) 0.1976(3)
C9 C 0.2909(2) 0.7408(13) 0.3085(4)
H4 H 0.25930 0.85030 0.35450
C10 C 0.3536(2) 0.6396(12) 0.3489(4)
H5 H 0.36420 0.68100 0.42340
#END
