
#######################################################################
#
#                 Cambridge Crystallographic Data Centre
#                                CCDC
#
#######################################################################
#
# If this CIF has been generated from an entry in the Cambridge
# Structural Database, then it will include bibliographic, chemical,
# crystal, experimental, refinement or atomic coordinate data resulting
# from the CCDC's data processing and validation procedures.
#
#######################################################################

data_CSD_CIF_YAWJEL
_audit_creation_date 1994-06-28
_audit_creation_method CSD-ConQuest-V1
_database_code_CSD YAWJEL
_chemical_formula_sum 'C14 H9 N3 O8'
_chemical_formula_moiety
;
C14 H9 N3 O8
;
_journal_coden_Cambridge 41
_journal_volume 38
_journal_year 1993
_journal_page_first 91
_journal_name_full 'Kristallografiya(Russ.)(Crystallogr.Rep.) '
loop_
_publ_author_name
"N.G.Furmanova"
"O.Yu.Rekhlova"
"Z.N.Budarina"
"L.P.Olekhnovich"
_chemical_name_systematic
;
O,O'-(2,4,6-Trinitrophenyl)-3-methyltropolone
;
_cell_volume   2835.116
_exptl_crystal_colour 'cherry-red'
_exptl_crystal_density_diffrn 1.635
_exptl_special_details
;
z(C14) is .2742, not .2472

;
_diffrn_ambient_temperature ?
_diffrn_special_details
;
The study was carried out at room temperature,in the range 283-303K

;
_refine_special_details
;
The 7-membered ring is disordered over 2 positions.

;
#These two values have been output from a single CSD field.
_refine_ls_R_factor_gt 0.059
_refine_ls_wR_factor_gt 0.059
_symmetry_cell_setting orthorhombic
_symmetry_space_group_name_H-M 'P b c a'
_symmetry_Int_Tables_number 61
loop_
_symmetry_equiv_pos_site_id
_symmetry_equiv_pos_as_xyz
1 x,y,z
2 1/2-x,1/2+y,z
3 x,1/2-y,1/2+z
4 1/2-x,-y,1/2+z
5 -x,-y,-z
6 -1/2+x,-1/2-y,-z
7 -x,-1/2+y,-1/2-z
8 -1/2+x,y,-1/2-z
_cell_length_a 10.122(3)
_cell_length_b 12.030(1)
_cell_length_c 23.283(5)
_cell_angle_alpha 90
_cell_angle_beta 90
_cell_angle_gamma 90
_cell_formula_units_Z 8
loop_
_atom_type_symbol
_atom_type_radius_bond
C 0.68
N 0.68
O 0.68
loop_
_atom_site_label
_atom_site_type_symbol
_atom_site_fract_x
_atom_site_fract_y
_atom_site_fract_z
O1 O 0.8214(3) 0.4457(3) 0.3548(1)
O2 O 0.9657(3) 0.3010(3) 0.3461(1)
O3 O 1.1487(3) 0.5707(3) 0.2709(1)
O4 O 1.0799(4) 0.5137(3) 0.3538(1)
O5 O 0.7856(4) 0.3343(4) 0.0996(1)
O6 O 0.9410(5) 0.4577(5) 0.0990(1)
O7 O 0.6995(4) 0.2438(3) 0.3568(1)
O8 O 0.6104(3) 0.2011(3) 0.2754(1)
N1 N 1.0734(4) 0.5154(3) 0.3008(2)
N2 N 0.8669(5) 0.3928(5) 0.1250(2)
N3 N 0.6942(4) 0.2497(3) 0.3040(2)
C1 C 0.8690(6) 0.4022(5) 0.4100(2)
C2 C 0.8209(6) 0.4506(5) 0.4595(3)
C3 C 0.8579(6) 0.4179(5) 0.5171(2)
C4 C 0.9486(8) 0.3323(7) 0.5334(3)
C5 C 1.0172(8) 0.2595(7) 0.4997(3)
C6 C 1.0218(7) 0.2459(6) 0.4424(3)
C7 C 0.9592(6) 0.3108(5) 0.4010(2)
C8 C 0.7273(8) 0.5463(6) 0.4533(3)
C9 C 0.8859(5) 0.3798(4) 0.3095(2)
C10 C 0.9732(4) 0.4483(4) 0.2729(2)
C11 C 0.9671(5) 0.4529(4) 0.2147(2)
C12 C 0.8738(5) 0.3882(4) 0.1866(2)
C13 C 0.7872(4) 0.3198(4) 0.2161(2)
C14 C 0.7902(4) 0.3180(3) 0.2742(2)
C15? C 0.9098(16) 0.3546(13) 0.4035(7)
C16? C 0.9609(23) 0.3024(19) 0.4528(10)
C17? C 0.9159(24) 0.3441(20) 0.5113(10)
C18? C 0.7540(33) 0.5049(26) 0.4984(12)
C19? C 0.7487(21) 0.5132(16) 0.4384(8)
C20? C 0.8200(22) 0.4524(19) 0.3970(9)
C21? C 1.0522(21) 0.2073(18) 0.4356(9)
#END
