
#######################################################################
#
#                 Cambridge Crystallographic Data Centre
#                                CCDC
#
#######################################################################
#
# If this CIF has been generated from an entry in the Cambridge
# Structural Database, then it will include bibliographic, chemical,
# crystal, experimental, refinement or atomic coordinate data resulting
# from the CCDC's data processing and validation procedures.
#
#######################################################################

data_CSD_CIF_YAWRAP
_audit_creation_date 1994-07-14
_audit_creation_method CSD-ConQuest-V1
_database_code_CSD YAWRAP
_chemical_formula_sum 'C13 H17 N3 O2'
_chemical_formula_moiety
;
C13 H17 N3 O2
;
_journal_coden_Cambridge 82
_journal_volume 33
_journal_year 1992
_journal_page_first 201-6
_journal_name_full 'Zh.Strukt.Khim.(Russ.)(J.Struct.Chem.) '
loop_
_publ_author_name
"Yu.V.Gatilov"
"I.Yu.Bagryanskaya"
"I.A.Grigor'ev"
"L.B.Volodarskii"
_chemical_name_systematic
;
1-Nitroso-4-phenyl-2,2,5,5-tetramethyl-3-imidazoline-3-oxide
;
_cell_volume   1302.886
_exptl_crystal_density_diffrn 1.26
_diffrn_ambient_temperature ?
_diffrn_special_details
;
The study was carried out at room temperature,in the range 283-303K

;
_refine_special_details
;
The nitrosyl I atom was refined over two positions with occupancies 0.61 and 
0.39 respectively.
;
#These two values have been output from a single CSD field.
_refine_ls_R_factor_gt 0.047
_refine_ls_wR_factor_gt 0.047
_symmetry_cell_setting monoclinic
_symmetry_space_group_name_H-M 'P 21/c'
_symmetry_Int_Tables_number 14
loop_
_symmetry_equiv_pos_site_id
_symmetry_equiv_pos_as_xyz
1 x,y,z
2 -x,1/2+y,1/2-z
3 -x,-y,-z
4 x,-1/2-y,-1/2+z
_cell_length_a 8.331(1)
_cell_length_b 13.680(2)
_cell_length_c 11.495(2)
_cell_angle_alpha 90
_cell_angle_beta 96.00(1)
_cell_angle_gamma 90
_cell_formula_units_Z 4
loop_
_atom_type_symbol
_atom_type_radius_bond
C 0.68
N 0.68
O 0.68
loop_
_atom_site_label
_atom_site_type_symbol
_atom_site_fract_x
_atom_site_fract_y
_atom_site_fract_z
N1 N 0.2242(3) 0.3578(2) 0.3571(2)
C1 C 0.2348(4) 0.4641(2) 0.3602(2)
N2 N 0.3853(3) 0.4760(2) 0.3008(2)
C2 C 0.4496(3) 0.3952(2) 0.2668(2)
C3 C 0.3575(3) 0.3072(2) 0.3054(2)
C4 C 0.2636(4) 0.5041(2) 0.4831(3)
C5 C 0.0966(4) 0.5131(2) 0.2868(3)
C6 C 0.5870(3) 0.3922(2) 0.1969(2)
C7 C 0.6250(4) 0.4728(2) 0.1314(3)
C8 C 0.7472(4) 0.4668(3) 0.0582(3)
C9 C 0.8335(4) 0.3833(2) 0.0490(3)
C10 C 0.7998(4) 0.3051(2) 0.1149(3)
C11 C 0.6772(4) 0.3080(2) 0.1874(3)
C12 C 0.4551(4) 0.2481(2) 0.4012(2)
C13 C 0.2895(4) 0.2440(2) 0.2022(2)
N3 N 0.1093(4) 0.3090(2) 0.4025(2)
O1 O 0.0127(4) 0.3462(3) 0.4467(3)
O2? O 0.0888(8) 0.2343(4) 0.3999(5)
O3 O 0.4320(2) 0.5650(1) 0.2882(2)
#END
