
#######################################################################
#
#                 Cambridge Crystallographic Data Centre
#                                CCDC
#
#######################################################################
#
# If this CIF has been generated from an entry in the Cambridge
# Structural Database, then it will include bibliographic, chemical,
# crystal, experimental, refinement or atomic coordinate data resulting
# from the CCDC's data processing and validation procedures.
#
#######################################################################

data_CSD_CIF_YAWXEZ
_audit_creation_date 1994-07-14
_audit_creation_method CSD-ConQuest-V1
_database_code_CSD YAWXEZ
_chemical_formula_sum 'C13 H15 N1 O8'
_chemical_formula_moiety
;
C13 H15 N1 O8
;
_journal_coden_Cambridge 207
_journal_year 1993
_journal_page_first 2737
_journal_name_full 'J.Chem.Soc.,Perkin Trans.1 '
loop_
_publ_author_name
"A.C.Forsyth"
"R.O.Gould"
"R.M.Paton"
"I.H.Sadler"
"I.Watt"
_chemical_name_systematic
;
(1R,2S,4R,7S,8R,9R,10R,11S,14R)-1-Hydroxy-9-nitro-5,13,16,17-tetraoxapentacycl
o(8.4.1.1^4,7^.1^11,14^.0^2,8^)heptadecan-3-one
;
_chemical_melting_point 517.15
_cell_volume    657.234
_exptl_crystal_colour 'colorless'
_exptl_crystal_density_diffrn 1.583
_exptl_special_details
;
Melting point range 517.15-518.15K

;
_diffrn_ambient_temperature ?
_diffrn_special_details
;
The study was carried out at room temperature,in the range 283-303K

;
#These two values have been output from a single CSD field.
_refine_ls_R_factor_gt 0.032
_refine_ls_wR_factor_gt 0.032
_symmetry_cell_setting monoclinic
_symmetry_space_group_name_H-M 'P 21'
_symmetry_Int_Tables_number 4
loop_
_symmetry_equiv_pos_site_id
_symmetry_equiv_pos_as_xyz
1 x,y,z
2 -x,1/2+y,-z
_cell_length_a 8.640(2)
_cell_length_b 9.453(2)
_cell_length_c 9.087(2)
_cell_angle_alpha 90
_cell_angle_beta 117.68(1)
_cell_angle_gamma 90
_cell_formula_units_Z 2
loop_
_atom_type_symbol
_atom_type_radius_bond
C 0.68
H 0.23
N 0.68
O 0.68
loop_
_atom_site_label
_atom_site_type_symbol
_atom_site_fract_x
_atom_site_fract_y
_atom_site_fract_z
C1 C 0.7873(5) 0.3418(6) 0.4719(4)
C2 C 0.6015(4) 0.3785(5) 0.4356(4)
C3 C 0.5145(4) 0.4977(4) 0.3086(3)
C4 C 0.3146(4) 0.4966(4) 0.2429(4)
C5 C 0.2283(4) 0.6321(4) 0.1427(4)
O1 O 0.0417(3) 0.6162(4) 0.0576(3)
C6 C -0.0020(4) 0.5636(5) -0.1071(4)
C7 C 0.1754(4) 0.5437(5) -0.1015(4)
C8 C 0.2589(4) 0.3998(4) -0.0281(4)
C9 C 0.4556(4) 0.3959(4) 0.0235(4)
C10 C 0.5748(4) 0.4917(5) 0.1703(4)
C11 C 0.7654(4) 0.4430(5) 0.2435(4)
C12 C 0.8892(5) 0.5318(6) 0.3903(5)
O2 O 0.8949(3) 0.4617(5) 0.5323(3)
O3 O 0.7836(3) 0.3049(4) 0.3198(3)
C13 C 0.2392(4) 0.3698(4) 0.1278(4)
O4 O 0.2749(3) 0.6536(4) 0.01525(24)
O5 O 0.5320(4) 0.3142(5) 0.5041(4)
O6 O 0.2671(3) 0.50000 0.3738(3)
N1 N 0.4764(4) 0.4305(4) -0.1305(3)
O7 O 0.5694(4) 0.5286(4) -0.1278(3)
O8 O 0.3954(4) 0.3554(4) -0.2517(3)
H1 H 0.819(5) 0.258(5) 0.548(5)
H2 H 0.559(5) 0.577(5) 0.371(5)
H3 H 0.332(5) 0.445(5) 0.443(5)
H4 H 0.260(5) 0.719(5) 0.217(5)
H5 H -0.084(5) 0.473(5) -0.130(5)
H6 H -0.065(5) 0.629(5) -0.183(5)
H7 H 0.177(5) 0.558(4) -0.202(5)
H8 H 0.204(5) 0.329(5) -0.107(5)
H9 H 0.494(5) 0.289(4) 0.049(5)
H10 H 0.566(5) 0.581(5) 0.127(5)
H11 H 0.808(5) 0.432(4) 0.157(5)
H12 H 0.999(5) 0.523(5) 0.403(5)
H13 H 0.838(5) 0.634(5) 0.372(5)
H14 H 0.302(5) 0.278(5) 0.182(5)
H15 H 0.110(5) 0.362(5) 0.102(5)
#END
