
#######################################################################
#
#                 Cambridge Crystallographic Data Centre
#                                CCDC
#
#######################################################################
#
# If this CIF has been generated from an entry in the Cambridge
# Structural Database, then it will include bibliographic, chemical,
# crystal, experimental, refinement or atomic coordinate data resulting
# from the CCDC's data processing and validation procedures.
#
#######################################################################

data_CSD_CIF_YAWZED
_audit_creation_date 2012-05-09
_audit_creation_method CSD-ConQuest-V1
_database_code_CSD YAWZED
_database_code_depnum_ccdc_archive 'CCDC 877244'
_chemical_formula_sum 'C16 H13 N3 O2'
_chemical_formula_moiety
;
C16 H13 N3 O2
;
_journal_coeditor_code "IUCr VM2159"
_journal_coden_Cambridge 1370
_journal_volume 68
_journal_year 2012
_journal_page_first o1080
_journal_name_full 'Acta Crystallogr.,Sect.E:Struct.Rep.Online '
loop_
_publ_author_name
"R.Moreno-Fuquen"
"A.E.Loaiza"
"J.Diaz-Velandia"
"A.R.Kennedy"
"C.A.Morrison"
_chemical_name_systematic
;
1-Phenyl-N-((3-(pyridin-3-yl)-1,2-oxazol-5-yl)methoxy)methanimine
;
_chemical_name_common
;
(E)-Benzaldehyde O-([3-(pyridin-3-yl)isoxazol-5-yl]methyl)oxime
;
_chemical_melting_point 322
_cell_volume   2743.583
_exptl_crystal_colour 'colorless'
_exptl_crystal_density_diffrn 1.352
_exptl_crystal_description 'needle'
_diffrn_ambient_temperature 100
#These two values have been output from a single CSD field.
_refine_ls_R_factor_gt 0.0591
_refine_ls_wR_factor_gt 0.0591
_symmetry_cell_setting orthorhombic
_symmetry_space_group_name_H-M 'P n a 21'
_symmetry_Int_Tables_number 33
loop_
_symmetry_equiv_pos_site_id
_symmetry_equiv_pos_as_xyz
1 x,y,z
2 -x,-y,1/2+z
3 1/2-x,1/2+y,1/2+z
4 1/2+x,1/2-y,z
_cell_length_a 19.364(12)
_cell_length_b 4.459(3)
_cell_length_c 31.775(19)
_cell_angle_alpha 90
_cell_angle_beta 90
_cell_angle_gamma 90
_cell_formula_units_Z 8
loop_
_atom_type_symbol
_atom_type_radius_bond
C 0.68
H 0.23
N 0.68
O 0.68
loop_
_atom_site_label
_atom_site_type_symbol
_atom_site_fract_x
_atom_site_fract_y
_atom_site_fract_z
O1 O 0.42469(12) 1.0263(6) -0.10487(8)
O2 O 0.54055(14) 0.8039(6) -0.04845(8)
O3 O 0.66365(12) 1.0298(6) 0.27422(8)
O4 O 0.78145(14) 0.8318(6) 0.21677(8)
N1 N 0.36765(16) 0.8518(7) -0.08969(10)
N2 N 0.56013(16) 0.6236(8) -0.01381(9)
N3 N 0.57737(19) 0.2015(7) 0.10467(11)
N4 N 0.60742(16) 0.8498(7) 0.25889(10)
N5 N 0.80334(18) 0.6730(8) 0.18076(10)
N6 N 0.82896(17) 0.3085(9) 0.05894(11)
C1 C 0.3367(2) 0.7268(9) -0.12076(13)
H1 H 0.35280 0.76380 -0.14850
C2 C 0.27783(18) 0.5302(8) -0.11453(11)
C3 C 0.25108(19) 0.3751(9) -0.14916(12)
H2 H 0.27160 0.40050 -0.17610
C4 C 0.1950(2) 0.1849(9) -0.14465(14)
H3 H 0.17740 0.08030 -0.16840
C5 C 0.1645(2) 0.147(1) -0.10568(13)
H4 H 0.12620 0.01560 -0.10270
C6 C 0.1894(2) 0.2993(10) -0.07096(13)
H5 H 0.16790 0.27540 -0.04430
C7 C 0.2467(2) 0.4896(9) -0.07537(12)
H6 H 0.26440 0.59170 -0.05150
C8 C 0.4554(2) 1.1802(9) -0.06927(12)
H7 H 0.42010 1.30900 -0.05580
H8 H 0.49320 1.31130 -0.07940
C9 C 0.48330(17) 0.9676(8) -0.03760(11)
C10 C 0.4652(2) 0.9032(9) 0.00232(11)
H9 H 0.42800 0.98510 0.01800
C11 C 0.51395(19) 0.6865(9) 0.01587(12)
C12 C 0.51848(18) 0.5373(9) 0.05737(12)
C13 C 0.47154(19) 0.6129(10) 0.08933(12)
H10 H 0.43550 0.75290 0.08420
C14 C 0.47866(19) 0.4803(10) 0.12829(13)
H11 H 0.44740 0.52660 0.15040
C15 C 0.5324(2) 0.2773(10) 0.13475(13)
H12 H 0.53730 0.18890 0.16180
C16 C 0.5701(2) 0.3278(9) 0.06674(12)
H13 H 0.60140 0.27250 0.04510
C17 C 0.5772(2) 0.7288(9) 0.29060(12)
H14 H 0.59290 0.77210 0.31830
C18 C 0.51797(18) 0.5220(8) 0.28453(11)
C19 C 0.4886(2) 0.4702(9) 0.24531(12)
H15 H 0.50600 0.56980 0.22110
C20 C 0.4334(2) 0.2713(9) 0.24168(13)
H16 H 0.41380 0.23290 0.21480
C21 C 0.40688(19) 0.1297(9) 0.27672(12)
H17 H 0.36890 -0.00380 0.27400
C22 C 0.4360(2) 0.183(1) 0.31618(12)
H18 H 0.41810 0.08570 0.34040
C23 C 0.4910(2) 0.3773(9) 0.31983(13)
H19 H 0.51090 0.41310 0.34670
C24 C 0.6926(2) 1.1897(9) 0.23951(12)
H20 H 0.72900 1.32590 0.25010
H21 H 0.65610 1.31470 0.22650
C25 C 0.72282(18) 0.9900(9) 0.20662(12)
C26 C 0.7059(2) 0.9344(9) 0.16578(12)
H22 H 0.66750 1.01060 0.15050
C27 C 0.7574(2) 0.7403(9) 0.15124(13)
C28 C 0.76501(19) 0.6134(9) 0.10804(12)
C29 C 0.7201(2) 0.7057(10) 0.07652(12)
H23 H 0.68320 0.83940 0.08240
C30 C 0.7309(2) 0.5954(10) 0.03557(13)
H24 H 0.70120 0.65260 0.01320
C31 C 0.7852(2) 0.4038(11) 0.02849(13)
H25 H 0.79240 0.33380 0.00060
C32 C 0.8173(2) 0.4122(10) 0.09790(12)
H26 H 0.84650 0.34410 0.11990
#END
