
#######################################################################
#
#                 Cambridge Crystallographic Data Centre
#                                CCDC
#
#######################################################################
#
# If this CIF has been generated from an entry in the Cambridge
# Structural Database, then it will include bibliographic, chemical,
# crystal, experimental, refinement or atomic coordinate data resulting
# from the CCDC's data processing and validation procedures.
#
#######################################################################

data_CSD_CIF_YAXGUZ
_audit_creation_date 1994-07-13
_audit_creation_method CSD-ConQuest-V1
_database_code_CSD YAXGUZ
_database_code_depnum_ccdc_archive 'CCDC 1300146'
_database_code_depnum_ccdc_fiz 'CSD 57438'
_chemical_formula_sum 'C19 H15 N3 O3'
_chemical_formula_moiety
;
C19 H15 N3 O3
;
_journal_coden_Cambridge 48
_journal_volume 126
_journal_year 1993
_journal_page_first 2317
_journal_name_full 'Chem.Ber. '
loop_
_publ_author_name
"G.Frenzen"
"M.Rischke"
"G.Seitz"
_chemical_name_systematic
;
Methyl 3-(2-oxido-5,6-diphenyl-1,2,4-triazin-3-yl)-propenoate
;
_chemical_melting_point 480.15
_cell_volume   1644.422
_exptl_crystal_colour 'yellow'
_exptl_crystal_density_diffrn 1.35
_exptl_special_details
;
Melting point range 480.15-482.15K

;
_diffrn_ambient_temperature ?
_diffrn_special_details
;
The study was carried out at room temperature,in the range 283-303K

;
#These two values have been output from a single CSD field.
_refine_ls_R_factor_gt 0.033
_refine_ls_wR_factor_gt 0.033
_symmetry_cell_setting monoclinic
_symmetry_space_group_name_H-M 'P 21/n'
_symmetry_Int_Tables_number 14
loop_
_symmetry_equiv_pos_site_id
_symmetry_equiv_pos_as_xyz
1 x,y,z
2 1/2-x,1/2+y,1/2-z
3 -x,-y,-z
4 -1/2+x,-1/2-y,-1/2+z
_cell_length_a 14.307(2)
_cell_length_b 6.774(1)
_cell_length_c 17.200(2)
_cell_angle_alpha 90
_cell_angle_beta 99.43(5)
_cell_angle_gamma 90
_cell_formula_units_Z 4
loop_
_atom_type_symbol
_atom_type_radius_bond
C 0.68
H 0.23
N 0.68
O 0.68
loop_
_atom_site_label
_atom_site_type_symbol
_atom_site_fract_x
_atom_site_fract_y
_atom_site_fract_z
C1 C -0.0087(4) 0.2119(8) 0.3116(3)
O1 O -0.0037(3) 0.2112(6) 0.3946(2)
C2 C 0.0702(5) 0.2999(10) 0.4350(4)
O2 O 0.1276(3) 0.3898(7) 0.4074(2)
C3 C 0.0678(4) 0.2831(9) 0.5216(3)
C4 C 0.1407(4) 0.3356(8) 0.5711(3)
C5 C 0.1428(5) 0.3266(9) 0.6566(4)
N1 N 0.0699(3) 0.2791(7) 0.6898(3)
N2 N 0.2262(4) 0.3693(7) 0.7014(3)
O3 O 0.3028(3) 0.3950(6) 0.6727(2)
N3 N 0.2401(3) 0.3958(7) 0.7813(3)
C6 C 0.1628(5) 0.3504(8) 0.8130(3)
C7 C 0.1800(4) 0.3912(8) 0.9005(3)
C8 C 0.1147(5) 0.4982(9) 0.9337(3)
C9 C 0.1339(5) 0.5364(9) 1.0130(4)
C10 C 0.2157(5) 0.4693(10) 1.0589(3)
C11 C 0.2801(5) 0.3676(9) 1.0255(3)
C12 C 0.2631(4) 0.3295(8) 0.9454(3)
C13 C 0.0781(4) 0.2827(8) 0.7688(3)
C14 C -0.0041(4) 0.2060(8) 0.8016(3)
C15 C -0.0957(4) 0.2484(8) 0.7643(3)
C16 C -0.1736(4) 0.1666(9) 0.7902(3)
C17 C -0.1598(5) 0.0383(9) 0.8529(4)
C18 C -0.0689(5) -0.0073(9) 0.8898(3)
C19 C 0.0086(4) 0.0768(8) 0.8663(3)
H1 H -0.06630 0.16100 0.28190
H2 H -0.00080 0.34690 0.29730
H3 H 0.04400 0.13570 0.30040
H4 H 0.01550 0.22570 0.54210
H5 H 0.19390 0.38840 0.55050
H6 H 0.05750 0.53880 0.90050
H7 H 0.08940 0.61170 1.03690
H8 H 0.22750 0.49730 1.11430
H9 H 0.33720 0.32180 1.05770
H10 H 0.30850 0.26490 0.91900
H11 H -0.10590 0.33330 0.71920
H12 H -0.23640 0.20530 0.76670
H13 H -0.21390 -0.02700 0.86730
H14 H -0.06200 -0.09110 0.93530
H15 H 0.07090 0.04490 0.89330
#END
