
#######################################################################
#
#                 Cambridge Crystallographic Data Centre
#                                CCDC
#
#######################################################################
#
# If this CIF has been generated from an entry in the Cambridge
# Structural Database, then it will include bibliographic, chemical,
# crystal, experimental, refinement or atomic coordinate data resulting
# from the CCDC's data processing and validation procedures.
#
#######################################################################

data_CSD_CIF_YAXPOF
_audit_creation_date 2017-05-11
_audit_creation_method CSD-ConQuest-V1
_database_code_CSD YAXPOF
_database_code_depnum_ccdc_archive 'CCDC 1506786'
_chemical_formula_sum 'C20 H18 N2 O3'
_chemical_formula_moiety
;
C20 H18 N2 O3
;
_journal_coden_Cambridge 179
_journal_volume 56
_journal_year 2017
_journal_page_first 3059
_journal_name_full 'Angew.Chem.,Int.Ed. '
loop_
_publ_author_name
"Jongwoo Son"
"Ki Hwan Kim"
"Dong-Liang Mo"
"D.J.Wink"
"L.L.Anderson"
_chemical_name_systematic
;
2-ethyl-6-(4-methoxyphenyl)-4-oxo-3-phenyl-2H-1,4-oxazine-5-carbonitrile
;
_cell_volume   1719.599
_exptl_crystal_colour 'yellow'
_exptl_crystal_density_diffrn 1.292
_exptl_crystal_description 'block'
_diffrn_ambient_temperature 298
#These two values have been output from a single CSD field.
_refine_ls_R_factor_gt 0.0531
_refine_ls_wR_factor_gt 0.0531
_symmetry_cell_setting monoclinic
_symmetry_space_group_name_H-M 'P 21/n'
_symmetry_Int_Tables_number 14
loop_
_symmetry_equiv_pos_site_id
_symmetry_equiv_pos_as_xyz
1 x,y,z
2 1/2-x,1/2+y,1/2-z
3 -x,-y,-z
4 -1/2+x,-1/2-y,-1/2+z
_cell_length_a 8.3106(9)
_cell_length_b 21.776(2)
_cell_length_c 9.5196(10)
_cell_angle_alpha 90
_cell_angle_beta 93.481(2)
_cell_angle_gamma 90
_cell_formula_units_Z 4
loop_
_atom_type_symbol
_atom_type_radius_bond
C 0.68
H 0.23
N 0.68
O 0.68
loop_
_atom_site_label
_atom_site_type_symbol
_atom_site_fract_x
_atom_site_fract_y
_atom_site_fract_z
O1 O 0.46349(18) 0.17236(7) 0.38511(16)
O2 O 0.4226(3) -0.10651(9) 0.2274(2)
O3 O 0.2408(2) 0.21910(8) 0.72608(19)
N1 N 0.2958(2) 0.21250(9) 0.6024(2)
N2 N 0.0592(4) 0.09003(13) 0.6656(3)
C1 C 0.4832(4) 0.43578(15) 0.6788(4)
H1 H 0.50720 0.47550 0.70920
C2 C 0.4118(4) 0.39578(16) 0.7648(3)
H2 H 0.38830 0.40850 0.85460
C3 C 0.3730(3) 0.33665(14) 0.7224(3)
H3 H 0.32310 0.31030 0.78320
C4 C 0.4082(3) 0.31617(11) 0.5888(2)
C5 C 0.3733(3) 0.25465(10) 0.5341(2)
C6 C 0.4174(3) 0.2363(1) 0.3885(2)
H4 H 0.51250 0.26040 0.36710
C7 C 0.3607(3) 0.13214(10) 0.4399(2)
C8 C 0.3717(3) 0.07033(11) 0.3821(3)
C9 C 0.4641(4) 0.06091(12) 0.2690(3)
H5 H 0.51490 0.09420 0.22950
C10 C 0.4832(4) 0.00238(12) 0.2120(3)
H6 H 0.54600 -0.00340 0.13540
C11 C 0.4077(4) -0.04637(12) 0.2709(3)
C12 C 0.5023(5) -0.11741(15) 0.1053(3)
H7 H 0.44580 -0.09730 0.02720
H8 H 0.50570 -0.16080 0.08770
H9 H 0.61020 -0.10170 0.11660
C13 C 0.5196(4) 0.41740(13) 0.5477(4)
H10 H 0.56850 0.44460 0.48820
C14 C 0.4839(4) 0.35851(12) 0.5035(3)
H11 H 0.51070 0.34640 0.41420
C15 C 0.2693(3) 0.15280(11) 0.5420(3)
C16 C 0.2869(3) 0.25087(12) 0.2758(3)
H12 H 0.19170 0.22700 0.29320
H13 H 0.25860 0.29390 0.28240
C17 C 0.3354(4) 0.23771(16) 0.1286(3)
H14 H 0.43470 0.25840 0.11320
H15 H 0.25270 0.25210 0.06180
H16 H 0.34950 0.19430 0.11720
C18 C 0.3186(3) -0.03841(13) 0.3844(3)
H17 H 0.27030 -0.07210 0.42470
C19 C 0.2997(3) 0.01886(12) 0.4395(3)
H18 H 0.23770 0.02370 0.51690
C20 C 0.1524(3) 0.11809(13) 0.6115(3)
#END
