
#######################################################################
#
#                 Cambridge Crystallographic Data Centre
#                                CCDC
#
#######################################################################
#
# If this CIF has been generated from an entry in the Cambridge
# Structural Database, then it will include bibliographic, chemical,
# crystal, experimental, refinement or atomic coordinate data resulting
# from the CCDC's data processing and validation procedures.
#
#######################################################################

data_CSD_CIF_YAXQAQ
_audit_creation_date 2006-01-19
_audit_creation_method CSD-ConQuest-V1
_database_code_CSD YAXQAQ
_database_code_depnum_ccdc_archive 'CCDC 231000'
_chemical_formula_sum 'C36 H38 N2 O8'
_chemical_formula_moiety
;
C36 H38 N2 O8
;
_journal_coden_Cambridge 960
_journal_volume 52
_journal_year 2005
_journal_page_first 119
_journal_name_full 'J.Inclusion Phenom.Macrocyclic Chem. '
loop_
_publ_author_name
"Gaosheng Yang"
"Chen Jin"
"Yizhi Li"
"Jing Hong"
"Ren Miao"
"Chuenmei Zhao"
"Zijian Guo"
"Longgen Zhu"
_chemical_name_systematic
;
5,17-Dinitro-26,28-dimethoxy-25,27-di-n-propoxycalix(4)arene
;
_cell_volume   3247.465
_exptl_crystal_colour 'yellow'
_exptl_crystal_density_diffrn 1.282
_exptl_special_details
;
partial cone conformation

;
_exptl_crystal_description 'block'
_exptl_crystal_preparation 'ethyl acetate/petroleum ether'
_diffrn_ambient_temperature 293
#These two values have been output from a single CSD field.
_refine_ls_R_factor_gt 0.0567
_refine_ls_wR_factor_gt 0.0567
_symmetry_cell_setting monoclinic
_symmetry_space_group_name_H-M 'P 21/c'
_symmetry_Int_Tables_number 14
loop_
_symmetry_equiv_pos_site_id
_symmetry_equiv_pos_as_xyz
1 x,y,z
2 -x,1/2+y,1/2-z
3 -x,-y,-z
4 x,-1/2-y,-1/2+z
_cell_length_a 13.6454(10)
_cell_length_b 12.4352(9)
_cell_length_c 20.2006(14)
_cell_angle_alpha 90
_cell_angle_beta 108.663(1)
_cell_angle_gamma 90
_cell_formula_units_Z 4
loop_
_atom_type_symbol
_atom_type_radius_bond
C 0.68
H 0.23
N 0.68
O 0.68
loop_
_atom_site_label
_atom_site_type_symbol
_atom_site_fract_x
_atom_site_fract_y
_atom_site_fract_z
C1 C 0.21023(18) 0.05936(19) 0.00352(12)
H1 H 0.25900 0.00020 0.01150
H2 H 0.14370 0.03370 -0.02640
C2 C 0.15005(18) 0.42885(18) -0.10372(12)
H3 H 0.13850 0.44620 -0.15240
H4 H 0.08330 0.41530 -0.09780
C3 C 0.31448(18) 0.58906(19) 0.13584(12)
H5 H 0.25350 0.57980 0.15000
H6 H 0.34920 0.65430 0.15760
C4 C 0.37879(18) 0.21876(19) 0.24235(12)
H7 H 0.43200 0.16380 0.25530
H8 H 0.36280 0.23950 0.28400
C5 C 0.09939(18) 0.15646(18) 0.14226(12)
C6 C 0.18590(17) 0.18812(18) 0.19579(12)
H9 H 0.17930 0.21880 0.23610
C7 C 0.28258(18) 0.17368(18) 0.18872(12)
C8 C 0.28875(18) 0.12424(18) 0.12805(12)
C9 C 0.20047(18) 0.09612(18) 0.07276(12)
C10 C 0.10513(18) 0.11251(18) 0.08109(12)
H10 H 0.04500 0.09390 0.04550
C11 C 0.42896(19) 0.00696(19) 0.14060(13)
H11 H 0.44570 -0.00180 0.19020
H12 H 0.49080 0.00090 0.12800
H13 H 0.38080 -0.04780 0.11700
C12 C 0.18102(18) 0.23662(19) -0.05954(12)
C13 C 0.24648(18) 0.14972(19) -0.03212(12)
C14 C 0.34681(18) 0.15393(19) -0.03488(12)
H14 H 0.39160 0.09670 -0.01770
C15 C 0.38072(19) 0.24153(19) -0.06268(12)
H15 H 0.44740 0.24220 -0.06560
C16 C 0.31653(18) 0.32861(19) -0.08629(12)
H16 H 0.34120 0.38840 -0.10360
C17 C 0.21624(18) 0.32852(19) -0.08459(12)
C18 C 0.00763(17) 0.1929(2) -0.12159(12)
H17 H 0.02410 0.11880 -0.12860
H18 H 0.01240 0.23480 -0.16100
C19 C -0.09844(17) 0.1994(2) -0.11789(13)
H19 H -0.11370 0.27350 -0.10980
H20 H -0.10270 0.15690 -0.07870
C20 C -0.17825(18) 0.1595(2) -0.18411(13)
H21 H -0.17250 0.19960 -0.22330
H22 H -0.24620 0.16890 -0.18060
H23 H -0.16660 0.08460 -0.19050
C21 C 0.22698(18) 0.51866(19) 0.01387(12)
C22 C 0.20150(18) 0.52321(19) -0.05855(12)
C23 C 0.22925(17) 0.61487(19) -0.08812(13)
H24 H 0.21240 0.62090 -0.13640
C24 C 0.28171(18) 0.69607(19) -0.04533(12)
C25 C 0.30862(18) 0.69095(19) 0.02617(12)
H25 H 0.34470 0.74740 0.05350
C26 C 0.28181(18) 0.60127(19) 0.05744(12)
C27 C 0.10909(18) 0.42406(19) 0.05726(13)
H26 H 0.09760 0.49150 0.07670
H27 H 0.11020 0.36730 0.08970
H28 H 0.05450 0.41130 0.01420
C28 C 0.35926(17) 0.40987(19) 0.19734(12)
C29 C 0.38620(18) 0.49419(19) 0.16147(12)
C30 C 0.47785(18) 0.48620(19) 0.14592(12)
H29 H 0.49760 0.54220 0.12240
C31 C 0.54001(18) 0.39690(19) 0.16459(12)
H30 H 0.60260 0.39410 0.15550
C32 C 0.50923(18) 0.31155(19) 0.19678(12)
H31 H 0.55020 0.25010 0.20760
C33 C 0.41860(18) 0.31585(19) 0.21315(12)
C34 C 0.28050(18) 0.46989(19) 0.27897(12)
H32 H 0.29610 0.54510 0.27450
H33 H 0.33700 0.43880 0.31630
C35 C 0.18192(17) 0.4601(2) 0.29580(12)
H34 H 0.17040 0.38470 0.30340
H35 H 0.18990 0.49780 0.33930
C36 C 0.08868(18) 0.5028(2) 0.24147(13)
H36 H 0.10120 0.57560 0.23050
H37 H 0.03080 0.50090 0.25870
H38 H 0.07390 0.45940 0.20010
N1 N -0.00365(15) 0.17803(16) 0.14812(11)
N2 N 0.31408(15) 0.79053(16) -0.07701(11)
O1 O -0.07917(12) 0.14324(13) 0.10357(9)
O2 O -0.00859(12) 0.23144(13) 0.19738(9)
O3 O 0.29477(12) 0.79071(13) -0.14048(9)
O4 O 0.35830(13) 0.86322(13) -0.03900(9)
O5 O 0.08028(12) 0.23328(12) -0.05815(8)
O6 O 0.26929(11) 0.41437(12) 0.21444(8)
O7 O 0.38403(12) 0.10974(12) 0.12082(8)
O8 O 0.20526(12) 0.42719(12) 0.04426(8)
#END
