
#######################################################################
#
#                 Cambridge Crystallographic Data Centre
#                                CCDC
#
#######################################################################
#
# If this CIF has been generated from an entry in the Cambridge
# Structural Database, then it will include bibliographic, chemical,
# crystal, experimental, refinement or atomic coordinate data resulting
# from the CCDC's data processing and validation procedures.
#
#######################################################################

data_CSD_CIF_YAYCIK
_audit_creation_date 1994-07-24
_audit_creation_method CSD-ConQuest-V1
_database_code_CSD YAYCIK
_database_code_depnum_ccdc_archive 'CCDC 1300224'
_chemical_formula_sum 'C23 H26 N2 O8'
_chemical_formula_moiety
;
C23 H26 N2 O8
;
_journal_coden_Cambridge 15
_journal_volume 71
_journal_year 1993
_journal_page_first 1463
_journal_name_full 'Can.J.Chem. '
loop_
_publ_author_name
"E.Piers"
"R.W.Friesen"
"P.Kao"
"S.J.Rettig"
"J.Trotter"
_chemical_name_systematic
;
(2R,4R,5R,9R)-1-(4-Nitrophenylcarboxylatomethyl)-3-nitro-6a-methoxycarbonyl-2,
3,3a,4,5,6,6a,7,8,9-decahydro-1H-phenalene
;
_chemical_melting_point 415.65
_cell_volume   1128.168
_exptl_crystal_colour 'colorless'
_exptl_crystal_density_diffrn 1.35
_exptl_special_details
;
Melting point range 415.65-416.65K

;
_diffrn_ambient_temperature ?
_diffrn_special_details
;
The study was carried out at room temperature,in the range 283-303K

;
#These two values have been output from a single CSD field.
_refine_ls_R_factor_gt 0.051
_refine_ls_wR_factor_gt 0.051
_symmetry_cell_setting triclinic
_symmetry_space_group_name_H-M 'P -1'
_symmetry_Int_Tables_number 2
loop_
_symmetry_equiv_pos_site_id
_symmetry_equiv_pos_as_xyz
1 x,y,z
2 -x,-y,-z
_cell_length_a 11.0580(5)
_cell_length_b 15.5119(7)
_cell_length_c 6.9053(5)
_cell_angle_alpha 78.415(4)
_cell_angle_beta 95.034(7)
_cell_angle_gamma 103.295(5)
_cell_formula_units_Z 2
loop_
_atom_type_symbol
_atom_type_radius_bond
C 0.68
H 0.23
N 0.68
O 0.68
loop_
_atom_site_label
_atom_site_type_symbol
_atom_site_fract_x
_atom_site_fract_y
_atom_site_fract_z
O1 O 0.7285(2) 0.3909(1) 0.6871(3)
O2 O 0.8874(2) 0.3266(2) 0.8065(4)
O3 O 0.3168(3) 0.4622(2) 0.8767(7)
O4 O 0.4028(3) 0.4096(2) 1.1487(7)
O5 O 0.2126(2) -0.0284(1) 0.9674(4)
O6 O 0.3849(2) 0.0704(2) 1.0267(4)
O7 O 1.2550(3) 0.7555(2) 0.7279(6)
O8 O 1.0938(4) 0.8111(2) 0.6437(6)
N1 N 0.3727(3) 0.4108(2) 0.9759(7)
N2 N 1.1445(4) 0.7483(3) 0.6902(5)
C1 C 0.4304(3) 0.2258(2) 0.6222(5)
C2 C 0.5222(3) 0.3164(2) 0.6057(5)
C3 C 0.4716(3) 0.3853(2) 0.6858(6)
C4 C 0.4072(3) 0.3405(2) 0.8774(5)
C5 C 0.2917(3) 0.2708(2) 0.8383(6)
C6 C 0.2210(3) 0.2227(2) 1.0225(6)
C7 C 0.1018(4) 0.1576(3) 0.9754(8)
C8 C 0.1100(3) 0.1205(3) 0.7892(7)
C9 C 0.2424(3) 0.1123(2) 0.7546(5)
C10 C 0.2458(5) 0.0706(3) 0.5722(6)
C11 C 0.3773(5) 0.0683(3) 0.5361(6)
C12 C 0.4616(4) 0.1625(3) 0.5034(6)
C13 C 0.3294(3) 0.2054(2) 0.7305(5)
C14 C 0.6444(3) 0.3027(2) 0.7080(5)
C15 C 0.2908(3) 0.0516(2) 0.9321(5)
C16 C 0.2543(4) -0.0952(2) 1.1200(7)
C17 C 0.8468(3) 0.3927(2) 0.7468(5)
C18 C 0.9219(3) 0.4865(2) 0.7278(4)
C19 C 0.8678(3) 0.5610(2) 0.6742(5)
C20 C 0.9403(3) 0.6463(2) 0.6623(5)
C21 C 1.0656(3) 0.6562(2) 0.7038(5)
C22 C 1.1220(3) 0.5843(3) 0.7566(5)
C23 C 1.0475(3) 0.4985(2) 0.7683(5)
H1 H 0.53700 0.34000 0.46500
H2 H 0.54000 0.43500 0.71100
H3 H 0.41200 0.40900 0.58800
H4 H 0.46500 0.31000 0.96700
H5 H 0.23600 0.30200 0.74800
H6 H 0.27400 0.18900 1.11300
H7 H 0.20000 0.26800 1.08700
H8 H 0.08500 0.10700 1.08700
H9 H 0.03300 0.18900 0.95600
H10 H 0.05500 0.06100 0.80100
H11 H 0.08200 0.16100 0.67500
H12 H 0.19500 0.00900 0.59400
H13 H 0.21200 0.10700 0.45600
H14 H 0.41000 0.03100 0.65100
H15 H 0.37700 0.04200 0.41900
H16 H 0.54700 0.15700 0.53900
H17 H 0.45500 0.18900 0.36300
H18 H 0.67800 0.26200 0.64600
H19 H 0.63300 0.27700 0.84800
H20 H 0.19900 -0.15400 1.11800
H21 H 0.33900 -0.09800 1.09500
H22 H 0.25300 -0.07900 1.24900
H23 H 0.77900 0.55300 0.64500
H24 H 0.90300 0.69900 0.62500
H25 H 1.21100 0.59300 0.78500
H26 H 1.08500 0.44600 0.80600
#END
