
#######################################################################
#
#                 Cambridge Crystallographic Data Centre
#                                CCDC
#
#######################################################################
#
# If this CIF has been generated from an entry in the Cambridge
# Structural Database, then it will include bibliographic, chemical,
# crystal, experimental, refinement or atomic coordinate data resulting
# from the CCDC's data processing and validation procedures.
#
#######################################################################

data_CSD_CIF_YAYCIM01
_audit_creation_date 2016-10-03
_audit_creation_method CSD-ConQuest-V1
_database_code_CSD YAYCIM01
_database_code_depnum_ccdc_archive 'CCDC 1507756'
_chemical_formula_sum 'C10 H12 N2 O3'
_chemical_formula_moiety
;
C10 H12 N2 O3
;
_journal_coden_Cambridge 1078
_journal_year 2016
_journal_name_full 'CSD Communication(Private Communication) '
loop_
_publ_author_name
"J.M.White"
"T.Fellows"
_chemical_name_systematic
;
4-(4-nitrophenyl)morpholine
;
_cell_volume   1909.974
_exptl_crystal_colour 'orange'
_exptl_crystal_density_diffrn 1.448
_exptl_crystal_description 'block'
_exptl_crystal_preparation 'Ethanol'
_diffrn_ambient_temperature 100
_diffrn_radiation_probe x-ray
_diffrn_source synchrotron
#These two values have been output from a single CSD field.
_refine_ls_R_factor_gt 0.0419
_refine_ls_wR_factor_gt 0.0419
_symmetry_cell_setting orthorhombic
_symmetry_space_group_name_H-M 'P b c a'
_symmetry_Int_Tables_number 61
loop_
_symmetry_equiv_pos_site_id
_symmetry_equiv_pos_as_xyz
1 x,y,z
2 1/2-x,-y,1/2+z
3 -x,1/2+y,1/2-z
4 1/2+x,1/2-y,-z
5 -x,-y,-z
6 -1/2+x,y,-1/2-z
7 x,-1/2-y,-1/2+z
8 -1/2-x,-1/2+y,z
_cell_length_a 14.193(3)
_cell_length_b 8.3590(17)
_cell_length_c 16.099(3)
_cell_angle_alpha 90
_cell_angle_beta 90
_cell_angle_gamma 90
_cell_formula_units_Z 8
loop_
_atom_type_symbol
_atom_type_radius_bond
C 0.68
H 0.23
N 0.68
O 0.68
loop_
_atom_site_label
_atom_site_type_symbol
_atom_site_fract_x
_atom_site_fract_y
_atom_site_fract_z
C1 C 0.37770(6) 0.71637(12) 0.45575(6)
C2 C 0.41193(7) 0.74276(12) 0.53570(6)
H1 H 0.43500 0.84520 0.55110
C3 C 0.41200(7) 0.61932(12) 0.59219(6)
H2 H 0.43530 0.63790 0.64670
C4 C 0.37813(6) 0.46493(11) 0.57102(6)
C5 C 0.34723(7) 0.44184(12) 0.48806(6)
H3 H 0.32680 0.33870 0.47110
C6 C 0.34627(7) 0.56580(12) 0.43158(6)
H4 H 0.32430 0.54850 0.37660
C7 C 0.42382(7) 0.36262(12) 0.70868(6)
H5 H 0.41940 0.47480 0.72800
H6 H 0.49130 0.33670 0.70060
C8 C 0.38244(7) 0.25290(13) 0.77349(6)
H7 H 0.41940 0.26200 0.82540
H8 H 0.31700 0.28640 0.78570
C9 C 0.32279(7) 0.07866(12) 0.67583(6)
H9 H 0.25860 0.11450 0.69110
H10 H 0.31880 -0.03460 0.65830
C10 C 0.35850(7) 0.17904(12) 0.60371(6)
H11 H 0.41850 0.13380 0.58300
H12 H 0.31210 0.17560 0.55780
N1 N 0.37601(6) 0.84771(11) 0.39749(6)
N2 N 0.37341(6) 0.34534(10) 0.62928(5)
O1 O 0.40554(6) 0.97969(9) 0.42019(5)
O2 O 0.34498(6) 0.82332(11) 0.32704(5)
O3 O 0.38257(6) 0.09053(9) 0.74645(5)
#END
