
#######################################################################
#
#                 Cambridge Crystallographic Data Centre
#                                CCDC
#
#######################################################################
#
# If this CIF has been generated from an entry in the Cambridge
# Structural Database, then it will include bibliographic, chemical,
# crystal, experimental, refinement or atomic coordinate data resulting
# from the CCDC's data processing and validation procedures.
#
#######################################################################

data_CSD_CIF_YAYDIN
_audit_creation_date 2012-05-22
_audit_creation_method CSD-ConQuest-V1
_database_code_CSD YAYDIN
_database_code_depnum_ccdc_archive 'CCDC 877364'
_chemical_formula_sum 'C10 H7 N3 O3'
_chemical_formula_moiety
;
C10 H7 N3 O3
;
_journal_coeditor_code "IUCr BT5859"
_journal_coden_Cambridge 1370
_journal_volume 68
_journal_year 2012
_journal_page_first o1240
_journal_name_full 'Acta Crystallogr.,Sect.E:Struct.Rep.Online '
loop_
_publ_author_name
"Y.Ouzidan"
"Y.Kandri Rodi"
"H.Zouihri"
"E.M.Essassi"
"S.W.Ng"
_chemical_name_systematic
;
5-Nitro-1-(prop-2-yn-1-yl)-2,3-dihydro-1H-1,3-benzodiazol-2-one
;
_cell_volume    986.204
_exptl_crystal_colour 'yellow'
_exptl_crystal_density_diffrn 1.463
_exptl_crystal_description 'prism'
_diffrn_ambient_temperature 293
#These two values have been output from a single CSD field.
_refine_ls_R_factor_gt 0.0451
_refine_ls_wR_factor_gt 0.0451
_symmetry_cell_setting triclinic
_symmetry_space_group_name_H-M 'P -1'
_symmetry_Int_Tables_number 2
loop_
_symmetry_equiv_pos_site_id
_symmetry_equiv_pos_as_xyz
1 x,y,z
2 -x,-y,-z
_cell_length_a 7.2541(2)
_cell_length_b 10.0362(2)
_cell_length_c 14.6793(3)
_cell_angle_alpha 100.978(1)
_cell_angle_beta 92.047(1)
_cell_angle_gamma 109.043(1)
_cell_formula_units_Z 4
loop_
_atom_type_symbol
_atom_type_radius_bond
C 0.68
H 0.23
N 0.68
O 0.68
loop_
_atom_site_label
_atom_site_type_symbol
_atom_site_fract_x
_atom_site_fract_y
_atom_site_fract_z
O1 O 0.4863(2) 0.28214(16) 0.32061(10)
O2 O 0.2729(3) 0.70175(19) -0.06407(12)
O3 O 0.4106(3) 0.84006(18) 0.06741(13)
O4 O 0.7053(2) 0.67457(15) 0.41638(10)
O5 O 1.0136(4) 0.2778(2) 0.79280(13)
O6 O 0.8109(3) 0.13338(17) 0.67890(13)
N1 N 0.4993(2) 0.47954(18) 0.25677(11)
N2 N 0.3361(2) 0.26206(16) 0.1738(1)
N3 N 0.3367(2) 0.72031(19) 0.01736(13)
N4 N 0.7143(2) 0.48027(17) 0.47997(11)
N5 N 0.8738(2) 0.70106(16) 0.55973(10)
N6 N 0.9101(3) 0.25456(19) 0.72058(13)
C1 C 0.4468(3) 0.3367(2) 0.25799(13)
C2 C 0.2539(3) 0.1058(2) 0.14690(15)
H1 H 0.30070 0.06440 0.19360
H2 H 0.29880 0.07340 0.08800
C3 C 0.0406(4) 0.0549(2) 0.13742(15)
C4 C -0.1296(5) 0.0194(3) 0.1295(2)
C5 C 0.3154(3) 0.35855(19) 0.12192(12)
C6 C 0.2169(3) 0.3381(2) 0.03563(13)
H3 H 0.14710 0.24610 0.00110
C7 C 0.2259(3) 0.4598(2) 0.00241(13)
H4 H 0.16280 0.45050 -0.05590
C8 C 0.3287(3) 0.5950(2) 0.05579(13)
C9 C 0.4281(3) 0.6184(2) 0.14315(13)
H5 H 0.49610 0.71070 0.17780
C10 C 0.4197(2) 0.49734(19) 0.17501(12)
C11 C 0.7577(3) 0.6231(2) 0.47796(13)
C12 C 0.9419(3) 0.8575(2) 0.58554(15)
H6 H 0.88990 0.88700 0.64300
H7 H 0.89160 0.89430 0.53720
C13 C 1.1548(4) 0.9205(2) 0.59851(15)
C14 C 1.3251(5) 0.9698(3) 0.6118(2)
C15 C 0.9034(3) 0.60770(18) 0.61264(12)
C16 C 1.0082(3) 0.6333(2) 0.69790(13)
H8 H 1.07560 0.72670 0.73100
C17 C 1.0092(3) 0.5145(2) 0.73252(13)
H9 H 1.07860 0.52710 0.78980
C18 C 0.9065(3) 0.3768(2) 0.68142(13)
C19 C 0.7999(3) 0.34865(19) 0.59536(12)
H10 H 0.73180 0.25520 0.56250
C20 C 0.8012(2) 0.46764(19) 0.56177(12)
H11 H 0.574(3) 0.554(3) 0.3093(17)
H12 H 0.645(3) 0.409(2) 0.4297(16)
H13 H -0.263(6) -0.002(4) 0.122(3)
H14 H 1.454(5) 1.011(3) 0.621(2)
#END
