
#######################################################################
#
#                 Cambridge Crystallographic Data Centre
#                                CCDC
#
#######################################################################
#
# If this CIF has been generated from an entry in the Cambridge
# Structural Database, then it will include bibliographic, chemical,
# crystal, experimental, refinement or atomic coordinate data resulting
# from the CCDC's data processing and validation procedures.
#
#######################################################################

data_CSD_CIF_YAYGAI
_audit_creation_date 2012-05-22
_audit_creation_method CSD-ConQuest-V1
_database_code_CSD YAYGAI
_database_code_depnum_ccdc_archive 'CCDC 877372'
_chemical_formula_sum 'C32 H31 N3 O4'
_chemical_formula_moiety
;
C32 H31 N3 O4
;
_journal_coeditor_code "IUCr RZ2725"
_journal_coden_Cambridge 1370
_journal_volume 68
_journal_year 2012
_journal_page_first o1249
_journal_name_full 'Acta Crystallogr.,Sect.E:Struct.Rep.Online '
loop_
_publ_author_name
"N.Wrobel"
"D.Schollmeyer"
"H.Detert"
_chemical_name_systematic
;
2,7-bis(2-Nitrophenyl)-9-octyl-9H-carbazole
;
_chemical_melting_point 411
_cell_volume   2741.572
_exptl_crystal_colour 'green'
_exptl_crystal_density_diffrn 1.264
_exptl_crystal_description 'needle'
_exptl_crystal_preparation 'methanol'
_diffrn_ambient_temperature 173
#These two values have been output from a single CSD field.
_refine_ls_R_factor_gt 0.0615
_refine_ls_wR_factor_gt 0.0615
_symmetry_cell_setting monoclinic
_symmetry_space_group_name_H-M 'P 21/c'
_symmetry_Int_Tables_number 14
loop_
_symmetry_equiv_pos_site_id
_symmetry_equiv_pos_as_xyz
1 x,y,z
2 -x,1/2+y,1/2-z
3 -x,-y,-z
4 x,-1/2-y,-1/2+z
_cell_length_a 8.722(2)
_cell_length_b 7.987(2)
_cell_length_c 39.508(11)
_cell_angle_alpha 90
_cell_angle_beta 95.044(6)
_cell_angle_gamma 90
_cell_formula_units_Z 4
loop_
_atom_type_symbol
_atom_type_radius_bond
C 0.68
H 0.23
N 0.68
O 0.68
loop_
_atom_site_label
_atom_site_type_symbol
_atom_site_fract_x
_atom_site_fract_y
_atom_site_fract_z
C1 C 0.1501(3) 0.0908(3) 0.07930(6)
H1 H 0.24970 0.06860 0.09010
C2 C 0.0823(3) -0.0170(3) 0.05459(6)
C3 C -0.0668(3) 0.0158(3) 0.03934(6)
H2 H -0.11280 -0.05930 0.02280
C4 C -0.1471(3) 0.1566(3) 0.04823(6)
H3 H -0.24740 0.17790 0.03770
C5 C -0.0806(3) 0.2665(3) 0.07251(6)
C6 C -0.1301(3) 0.4184(3) 0.08774(6)
C7 C -0.2635(3) 0.5156(4) 0.08451(7)
H4 H -0.34740 0.48410 0.06890
C8 C -0.2731(3) 0.6580(3) 0.10414(7)
H5 H -0.36350 0.72480 0.10150
C9 C -0.1520(3) 0.7057(3) 0.12791(6)
C10 C -0.0166(3) 0.6129(3) 0.13098(6)
H6 H 0.06810 0.64670 0.14620
C11 C -0.0080(3) 0.4701(3) 0.11135(6)
N1 N 0.1124(2) 0.3575(3) 0.11075(5)
C12 C 0.0684(3) 0.2310(3) 0.08774(6)
C13 C 0.2587(3) 0.3693(3) 0.13157(6)
H7 H 0.29810 0.48520 0.13050
H8 H 0.33440 0.29410 0.12210
C14 C 0.2451(3) 0.3226(4) 0.16865(6)
H9 H 0.17060 0.39870 0.17830
H10 H 0.20490 0.20710 0.16980
C15 C 0.3993(3) 0.3338(4) 0.18988(7)
H11 H 0.46650 0.24150 0.18340
H12 H 0.44980 0.44080 0.18490
C16 C 0.3825(3) 0.3236(4) 0.22768(7)
H13 H 0.32690 0.21910 0.23230
H14 H 0.31830 0.41870 0.23410
C17 C 0.5335(3) 0.3266(4) 0.25009(6)
H15 H 0.59260 0.22400 0.24580
H16 H 0.59500 0.42400 0.24370
C18 C 0.5117(3) 0.3369(4) 0.28762(6)
H17 H 0.44680 0.24160 0.29360
H18 H 0.45490 0.44110 0.29180
C19 C 0.6591(3) 0.3349(4) 0.31096(7)
H19 H 0.72670 0.42680 0.30440
H20 H 0.71350 0.22790 0.30790
C20 C 0.6310(4) 0.3547(4) 0.34818(7)
H21 H 0.58030 0.46220 0.35150
H22 H 0.72960 0.35120 0.36210
H23 H 0.56500 0.26340 0.35490
C21 C 0.1673(3) -0.1675(3) 0.04443(6)
C22 C 0.3244(3) -0.1658(3) 0.03964(6)
C23 C 0.4070(3) -0.3068(3) 0.03240(7)
H24 H 0.51440 -0.29990 0.03010
C24 C 0.3302(4) -0.4589(4) 0.02854(7)
H25 H 0.38470 -0.55760 0.02350
C25 C 0.1740(4) -0.4661(4) 0.03203(7)
H26 H 0.12050 -0.56930 0.02890
C26 C 0.0956(3) -0.3233(3) 0.04001(6)
H27 H -0.01140 -0.33140 0.04260
N2 N 0.4094(3) -0.0065(3) 0.04073(6)
O1 O 0.5191(2) 0.0084(3) 0.06205(6)
O2 O 0.3683(2) 0.1017(2) 0.01991(5)
C27 C -0.1633(3) 0.8555(3) 0.14989(7)
C28 C -0.1202(3) 0.8539(3) 0.18486(6)
C29 C -0.1115(3) 0.9962(4) 0.20483(7)
H28 H -0.07660 0.99000 0.22830
C30 C -0.1546(3) 1.1479(4) 0.19000(8)
H29 H -0.15020 1.24730 0.20330
C31 C -0.2040(4) 1.1544(4) 0.15588(8)
H30 H -0.23620 1.25810 0.14590
C32 C -0.2070(3) 1.0114(3) 0.13615(7)
H31 H -0.23980 1.01930 0.11260
N3 N -0.0912(3) 0.6934(3) 0.20279(6)
O3 O -0.1798(3) 0.5768(2) 0.19591(5)
O4 O 0.0185(3) 0.6880(3) 0.22437(6)
#END
