
#######################################################################
#
#                 Cambridge Crystallographic Data Centre
#                                CCDC
#
#######################################################################
#
# If this CIF has been generated from an entry in the Cambridge
# Structural Database, then it will include bibliographic, chemical,
# crystal, experimental, refinement or atomic coordinate data resulting
# from the CCDC's data processing and validation procedures.
#
#######################################################################

data_CSD_CIF_YAYKIU
_audit_creation_date 2012-06-19
_audit_creation_method CSD-ConQuest-V1
_database_code_CSD YAYKIU
_database_code_depnum_ccdc_archive 'CCDC 835835'
_chemical_formula_sum 'C17 H23 N1 O1'
_chemical_formula_moiety
;
C17 H23 N1 O1
;
_journal_coden_Cambridge 1086
_journal_volume 24
_journal_year 2012
_journal_page_first 307
_journal_name_full 'Chirality '
loop_
_publ_author_name
"U.Groselj"
"A.Golobic"
"K.Stare"
"J.Svete"
"B.Stanovnik"
_chemical_name_systematic
;
3-Benzyl-N-hydroxy-1,7,7-trimethylbicyclo[2.2.1]heptan-2-imine
;
_cell_volume   1556.998
_exptl_crystal_colour 'colorless'
_exptl_crystal_density_diffrn 1.098
_exptl_crystal_description 'prism'
_diffrn_ambient_temperature 293
#These two values have been output from a single CSD field.
_refine_ls_R_factor_gt 0.042
_refine_ls_wR_factor_gt 0.042
_symmetry_cell_setting monoclinic
_symmetry_space_group_name_H-M 'P 21'
_symmetry_Int_Tables_number 4
loop_
_symmetry_equiv_pos_site_id
_symmetry_equiv_pos_as_xyz
1 x,y,z
2 -x,1/2+y,-z
_cell_length_a 7.3685(2)
_cell_length_b 17.2628(4)
_cell_length_c 12.6524(3)
_cell_angle_alpha 90
_cell_angle_beta 104.6607(14)
_cell_angle_gamma 90
_cell_formula_units_Z 4
loop_
_atom_type_symbol
_atom_type_radius_bond
C 0.68
H 0.23
N 0.68
O 0.68
loop_
_atom_site_label
_atom_site_type_symbol
_atom_site_fract_x
_atom_site_fract_y
_atom_site_fract_z
O1 O 0.2857(2) 0.2756(6) 0.19203(15)
O2 O -0.2958(2) 0.1985(6) 0.26534(17)
N1 N 0.3240(3) 0.2021(6) 0.15247(16)
N2 N -0.3299(3) 0.2749(6) 0.29580(16)
C1 C 0.1953(4) 0.0927(6) 0.0378(3)
C2 C 0.1831(3) 0.1721(6) 0.08700(19)
C3 C -0.0185(3) 0.2002(6) 0.04705(19)
C4 C -0.1068(3) 0.1315(6) -0.0255(3)
C5 C -0.0320(6) 0.1310(7) -0.1280(3)
C6 C 0.1762(6) 0.1094(6) -0.0844(3)
C7 C -0.0036(4) 0.0609(6) 0.0384(3)
C8 C -0.0328(5) 0.0516(6) 0.1529(4)
C9 C -0.0507(6) -0.0157(7) -0.0233(5)
C10 C -0.1868(4) 0.3913(6) 0.3899(3)
C11 C -0.1862(3) 0.3066(6) 0.35679(18)
C12 C 0.0138(4) 0.2756(6) 0.3963(2)
C13 C 0.1110(4) 0.3492(6) 0.4570(3)
C14 C 0.1263(5) 0.4060(6) 0.3670(4)
C15 C -0.0764(5) 0.4341(6) 0.3206(3)
C16 C -0.0437(5) 0.3899(6) 0.5029(3)
C17 C -0.1081(8) 0.3415(7) 0.5879(3)
C18 C 0.0192(7) 0.4692(7) 0.5515(4)
C19 C 0.3643(5) 0.0452(6) 0.0945(4)
C20 C -0.0400(3) 0.2807(6) -0.0063(2)
C21 C -0.2417(3) 0.3036(6) -0.0544(2)
C22 C -0.3651(4) 0.3129(6) 0.0108(3)
C23 C -0.5497(5) 0.3359(6) -0.0344(4)
C24 C -0.6123(4) 0.3504(6) -0.1420(3)
C25 C -0.4906(6) 0.3409(6) -0.2080(3)
C26 C -0.3087(5) 0.3186(6) -0.1648(3)
C27 C -0.3766(5) 0.4243(7) 0.3882(4)
C28 C 0.0315(4) 0.1989(6) 0.4614(3)
C29 C 0.2349(4) 0.1748(6) 0.5058(2)
C30 C 0.3527(6) 0.1552(6) 0.4400(3)
C31 C 0.5334(5) 0.1328(7) 0.4850(4)
C32 C 0.6036(5) 0.1281(7) 0.5918(4)
C33 C 0.4961(7) 0.1458(7) 0.6604(3)
C34 C 0.3058(7) 0.1714(7) 0.6164(3)
H1 H 0.41506 0.28571 0.23725
H2 H -0.31967 0.29995 0.09374
H3 H -0.64022 0.34064 0.01665
H4 H -0.74995 0.36686 -0.17476
H5 H -0.54370 0.35044 -0.29013
H6 H -0.21915 0.31113 -0.21574
H7 H -0.08055 0.20695 0.11132
H8 H -0.25112 0.13572 -0.04780
H9 H -0.04478 0.18551 -0.16418
H10 H -0.10216 0.09048 -0.18537
H11 H 0.26612 0.15358 -0.09379
H12 H 0.21100 0.05924 -0.12390
H13 H 0.00858 0.10057 0.19789
H14 H 0.04551 0.00378 0.19121
H15 H -0.17478 0.04024 0.14699
H16 H -0.03486 -0.01176 -0.10214
H17 H -0.19049 -0.03197 -0.02726
H18 H 0.03664 -0.06040 0.01790
H19 H -0.42327 0.18548 0.22448
H20 H 0.30202 0.15823 0.35660
H21 H 0.61784 0.11514 0.43307
H22 H 0.74114 0.10990 0.62547
H23 H 0.54430 0.13895 0.74588
H24 H 0.22076 0.18292 0.66955
H25 H 0.06906 0.25839 0.33332
H26 H 0.24319 0.33404 0.50689
H27 H 0.17558 0.37652 0.30694
H28 H 0.21305 0.45092 0.39771
H29 H -0.12531 0.41665 0.23889
H30 H -0.08726 0.49151 0.32892
H31 H -0.15904 0.28693 0.55477
H32 H -0.22361 0.37004 0.60718
H33 H -0.00411 0.33397 0.65686
H34 H 0.05625 0.50253 0.49254
H35 H 0.13156 0.46260 0.61874
H36 H -0.09260 0.49496 0.57489
H37 H 0.48633 0.07435 0.09460
H38 H 0.36321 -0.00837 0.05484
H39 H 0.36060 0.03378 0.17574
H40 H 0.03076 0.27958 -0.06792
H41 H 0.02191 0.31997 0.05306
H42 H -0.45550 0.42700 0.30373
H43 H -0.36311 0.47904 0.41867
H44 H -0.44956 0.38884 0.42828
H45 H -0.02979 0.20357 0.52431
H46 H -0.03491 0.15480 0.40702
#END
