
#######################################################################
#
#                 Cambridge Crystallographic Data Centre
#                                CCDC
#
#######################################################################
#
# If this CIF has been generated from an entry in the Cambridge
# Structural Database, then it will include bibliographic, chemical,
# crystal, experimental, refinement or atomic coordinate data resulting
# from the CCDC's data processing and validation procedures.
#
#######################################################################

data_CSD_CIF_YAZSUQ
_audit_creation_date 2017-09-14
_audit_creation_method CSD-ConQuest-V1
_database_code_CSD YAZSUQ
_database_code_depnum_ccdc_archive 'CCDC 1556670'
_chemical_formula_sum 'C22 H25 N3 O10'
_chemical_formula_moiety
;
C22 H25 N3 O10
;
_journal_coden_Cambridge 177
_journal_volume 15
_journal_year 2017
_journal_page_first 8072
_journal_name_full 'Org.Biomol.Chem. '
loop_
_publ_author_name
"Yu Zhang"
"Jing Sun"
"Guo-Liang Shen"
"Chao-Guo Yan"
_chemical_name_systematic
;
3,5-diethyl 2-methyl 
3-cyano-2-(2-methoxy-2-oxoethyl)-4-(3-nitrophenyl)pyrrolidine-2,3,5-tricarboxy
late
;
_cell_volume   1197.840
_exptl_crystal_colour 'colorless'
_exptl_crystal_density_diffrn 1.363
_exptl_crystal_description 'block'
_diffrn_ambient_temperature 296
#These two values have been output from a single CSD field.
_refine_ls_R_factor_gt 0.0699
_refine_ls_wR_factor_gt 0.0699
_symmetry_cell_setting triclinic
_symmetry_space_group_name_H-M 'P -1'
_symmetry_Int_Tables_number 2
loop_
_symmetry_equiv_pos_site_id
_symmetry_equiv_pos_as_xyz
1 x,y,z
2 -x,-y,-z
_cell_length_a 8.2529(11)
_cell_length_b 10.4792(14)
_cell_length_c 14.724(2)
_cell_angle_alpha 90.680(5)
_cell_angle_beta 97.661(5)
_cell_angle_gamma 108.073(4)
_cell_formula_units_Z 2
loop_
_atom_type_symbol
_atom_type_radius_bond
C 0.68
H 0.23
N 0.68
O 0.68
loop_
_atom_site_label
_atom_site_type_symbol
_atom_site_fract_x
_atom_site_fract_y
_atom_site_fract_z
C1 C 0.4036(2) -0.0618(2) 0.31200(14)
H1 H 0.44120 -0.03090 0.25710
C2 C 0.4994(3) -0.1197(2) 0.37261(15)
C3 C 0.4500(3) -0.1665(2) 0.45528(16)
H2 H 0.51740 -0.20450 0.49480
C4 C 0.2976(3) -0.1550(3) 0.47739(16)
H3 H 0.26130 -0.18570 0.53260
C5 C 0.1988(3) -0.0981(2) 0.41815(14)
H4 H 0.09630 -0.09110 0.43390
C6 C 0.2504(2) -0.0507(2) 0.33459(13)
C7 C 0.1408(2) 0.0140(2) 0.27265(13)
H5 H 0.02340 -0.01950 0.28780
C8 C 0.1996(3) 0.1706(2) 0.28417(14)
C9 C 0.3886(3) 0.2267(2) 0.29470(15)
C10 C 0.1292(3) 0.2176(2) 0.36565(16)
C11 C 0.1630(6) 0.3956(5) 0.4725(3)
H6 H 0.08640 0.44010 0.44110
H7 H 0.09570 0.32630 0.50780
C12 C 0.2898(9) 0.4885(6) 0.5320(5)
H8 H 0.35710 0.44330 0.56920
H9 H 0.23730 0.53350 0.57080
H10 H 0.36300 0.55330 0.49740
C13 C 0.1201(3) 0.2078(2) 0.18771(15)
C14 C 0.2165(3) 0.3516(3) 0.16525(19)
C15 C 0.2555(6) 0.5800(4) 0.2004(5)
H11 H 0.37520 0.60180 0.22480
H12 H 0.20470 0.63530 0.23180
H13 H 0.24430 0.59580 0.13610
C16 C -0.0738(3) 0.1886(2) 0.18586(15)
H14 H -0.13020 0.09910 0.20460
H15 H -0.08710 0.25300 0.22980
C17 C -0.1606(3) 0.2064(3) 0.09256(17)
C18 C -0.4330(4) 0.1906(5) 0.0108(3)
H16 H -0.39260 0.28330 -0.00350
H17 H -0.55100 0.16760 0.02080
H18 H -0.42430 0.13490 -0.03930
C19 C 0.1301(3) -0.0150(2) 0.16798(14)
H19 H 0.22250 -0.05140 0.15760
C20 C -0.0430(3) -0.1178(2) 0.13005(14)
C21 C -0.2184(4) -0.3428(3) 0.1333(3)
H20 H -0.31630 -0.31320 0.14090
H21 H -0.22440 -0.36620 0.06880
C22 C -0.2220(6) -0.4566(5) 0.1860(5)
H22 H -0.12120 -0.48200 0.18100
H23 H -0.32300 -0.53010 0.16320
H24 H -0.22420 -0.43440 0.24910
N1 N 0.6610(2) -0.1299(2) 0.34786(16)
N2 N 0.5351(3) 0.2656(2) 0.30508(17)
N3 N 0.1622(2) 0.1146(2) 0.12931(13)
O1 O 0.6905(2) -0.1094(2) 0.26925(15)
O2 O 0.7603(3) -0.1581(3) 0.40729(18)
O3 O -0.0053(3) 0.1568(2) 0.38870(13)
O4 O 0.2317(3) 0.3324(2) 0.40420(16)
O5 O 0.3217(3) 0.3814(2) 0.11448(16)
O6 O 0.1681(3) 0.4397(2) 0.21304(19)
O7 O -0.0906(3) 0.2482(3) 0.02796(14)
O8 O -0.3300(2) 0.1698(2) 0.09214(14)
O9 O -0.1495(2) -0.09397(19) 0.07553(12)
O10 O -0.0576(2) -0.23506(17) 0.16530(12)
H25 H 0.127(4) 0.117(3) 0.067(2)
#END
