
#######################################################################
#
#                 Cambridge Crystallographic Data Centre
#                                CCDC
#
#######################################################################
#
# If this CIF has been generated from an entry in the Cambridge
# Structural Database, then it will include bibliographic, chemical,
# crystal, experimental, refinement or atomic coordinate data resulting
# from the CCDC's data processing and validation procedures.
#
#######################################################################

data_CSD_CIF_YAZZAD
_audit_creation_date 2017-09-14
_audit_creation_method CSD-ConQuest-V1
_database_code_CSD YAZZAD
_database_code_depnum_ccdc_archive 'CCDC 1523622'
_chemical_formula_sum 'C27 H22 N4 O2'
_chemical_formula_moiety
;
C27 H22 N4 O2
;
_journal_coden_Cambridge 122
_journal_volume 53
_journal_year 2017
_journal_page_first 451
_journal_name_full 'Khim.Get.Soedin.,SSSR(Russ.)(Chem.Heterocycl.Compd.) '
loop_
_publ_author_name
"A.Yi.Barkov"
"N.S.Zimnitskiy"
"V.Yu.Korotaev"
"I.B.Kutyashev"
"V.S.Moshkin"
"V.Ya.Sosnovskikh"
_chemical_name_systematic
;
1'-nitro-2'-phenyl-1',2',5',6',7',7a'-hexahydrospiro[indeno[1,2-b]quinoxaline-
11,3'-pyrrolizine]
;
_cell_volume   1052.305
_exptl_crystal_colour 'colorless'
_exptl_crystal_density_diffrn 1.371
_exptl_crystal_description 'prism'
_diffrn_ambient_temperature 295
#These two values have been output from a single CSD field.
_refine_ls_R_factor_gt 0.0442
_refine_ls_wR_factor_gt 0.0442
_symmetry_cell_setting triclinic
_symmetry_space_group_name_H-M 'P -1'
_symmetry_Int_Tables_number 2
loop_
_symmetry_equiv_pos_site_id
_symmetry_equiv_pos_as_xyz
1 x,y,z
2 -x,-y,-z
_cell_length_a 9.3085(13)
_cell_length_b 10.1859(13)
_cell_length_c 13.306(4)
_cell_angle_alpha 111.288(9)
_cell_angle_beta 90.512(2)
_cell_angle_gamma 114.329(14)
_cell_formula_units_Z 2
loop_
_atom_type_symbol
_atom_type_radius_bond
C 0.68
H 0.23
N 0.68
O 0.68
loop_
_atom_site_label
_atom_site_type_symbol
_atom_site_fract_x
_atom_site_fract_y
_atom_site_fract_z
N1 N 0.23285(14) 0.52004(13) 0.48545(10)
C1 C 0.19668(19) 0.44485(17) 0.83669(12)
C2 C 0.30177(17) 0.50228(16) 0.56125(12)
N2 N 0.46145(16) 0.75281(19) 1.03754(12)
O1 O 0.45623(18) 0.65207(17) 1.0657(1)
C3 C 0.33903(17) 0.60274(16) 0.67410(12)
N3 N 0.59581(14) 0.68537(13) 0.77926(10)
O2 O 0.48724(17) 0.88326(15) 1.10182(10)
N4 N 0.30170(15) 0.71864(13) 0.71306(10)
C4 C 0.0817(2) 0.4976(2) 0.85023(15)
H1 H 0.11050 0.60240 0.86420
C5 C 0.22672(18) 0.74052(16) 0.63560(13)
C6 C 0.1802(2) 0.86132(19) 0.66859(15)
H2 H 0.19920 0.92540 0.74270
C7 C 0.1080(2) 0.8858(2) 0.59372(18)
H3 H 0.07750 0.96670 0.61680
C8 C 0.0785(2) 0.7922(2) 0.48312(17)
H4 H 0.02960 0.81130 0.43230
C9 C 0.12037(19) 0.67321(19) 0.44837(14)
H5 H 0.09970 0.61060 0.37380
C10 C 0.19435(17) 0.64318(17) 0.52334(13)
C11 C 0.43004(18) 0.55726(16) 0.73930(12)
C12 C 0.37060(19) 0.54768(16) 0.84473(12)
C13 C 0.4365(2) 0.72006(17) 0.91919(13)
C14 C 0.5958(2) 0.80358(19) 0.88367(14)
C15 C 0.7517(2) 0.8581(2) 0.95789(17)
H6 H 0.80630 0.97200 0.99410
H7 H 0.73190 0.81490 1.01330
C16 C 0.8484(2) 0.7971(2) 0.88281(17)
H8 H 0.92410 0.78060 0.92130
H9 H 0.90640 0.86830 0.84890
C17 C 0.72280(19) 0.64511(19) 0.80005(15)
H10 H 0.76290 0.60840 0.73360
H11 H 0.68550 0.56470 0.82920
C18 C 0.33258(18) 0.25172(17) 0.45750(13)
H12 H 0.28800 0.23600 0.38880
C19 C 0.3817(2) 0.14844(18) 0.46904(14)
H13 H 0.37180 0.06180 0.40750
C20 C 0.4456(2) 0.17075(17) 0.57035(15)
H14 H 0.47640 0.09760 0.57670
C21 C 0.46518(18) 0.29929(17) 0.66298(13)
H15 H 0.50850 0.31350 0.73150
C22 C 0.41934(17) 0.40618(16) 0.65198(12)
C23 C 0.35029(17) 0.38036(16) 0.54996(12)
C24 C -0.0761(2) 0.3979(3) 0.84345(17)
H16 H -0.15220 0.43630 0.85400
C25 C -0.1212(3) 0.2445(3) 0.82151(17)
H17 H -0.22780 0.17710 0.81650
C26 C -0.0093(3) 0.1903(2) 0.80701(18)
H18 H -0.03960 0.08470 0.79130
C27 C 0.1480(2) 0.2890(2) 0.81522(15)
H19 H 0.22340 0.24980 0.80610
H20 H 0.4308(14) 0.5081(12) 0.8717(10)
H21 H 0.3679(17) 0.7683(15) 0.9108(12)
H22 H 0.5857(17) 0.8866(17) 0.8718(12)
#END
