
#######################################################################
#
#                 Cambridge Crystallographic Data Centre
#                                CCDC
#
#######################################################################
#
# If this CIF has been generated from an entry in the Cambridge
# Structural Database, then it will include bibliographic, chemical,
# crystal, experimental, refinement or atomic coordinate data resulting
# from the CCDC's data processing and validation procedures.
#
#######################################################################

data_CSD_CIF_YAZZIL
_audit_creation_date 2017-09-14
_audit_creation_method CSD-ConQuest-V1
_database_code_CSD YAZZIL
_database_code_depnum_ccdc_archive 'CCDC 1523624'
_chemical_formula_sum 'C24 H19 N5 O2'
_chemical_formula_moiety
;
C24 H19 N5 O2
;
_journal_coden_Cambridge 122
_journal_volume 53
_journal_year 2017
_journal_page_first 451
_journal_name_full 'Khim.Get.Soedin.,SSSR(Russ.)(Chem.Heterocycl.Compd.) '
loop_
_publ_author_name
"A.Yi.Barkov"
"N.S.Zimnitskiy"
"V.Yu.Korotaev"
"I.B.Kutyashev"
"V.S.Moshkin"
"V.Ya.Sosnovskikh"
_chemical_name_systematic
;
1'-methyl-3'-nitro-4'-phenylspiro[indeno[1,2-b]pyrido[3,2-e]pyrazine-6,2'-pyrr
olidine]
;
_cell_volume   2019.989
_exptl_crystal_colour 'light yellow'
_exptl_crystal_density_diffrn 1.346
_exptl_crystal_description 'block'
_diffrn_ambient_temperature 295
#These two values have been output from a single CSD field.
_refine_ls_R_factor_gt 0.0588
_refine_ls_wR_factor_gt 0.0588
_symmetry_cell_setting monoclinic
_symmetry_space_group_name_H-M 'P 21/n'
_symmetry_Int_Tables_number 14
loop_
_symmetry_equiv_pos_site_id
_symmetry_equiv_pos_as_xyz
1 x,y,z
2 1/2-x,1/2+y,1/2-z
3 -x,-y,-z
4 -1/2+x,-1/2-y,-1/2+z
_cell_length_a 11.2588(8)
_cell_length_b 11.0487(11)
_cell_length_c 16.3088(12)
_cell_angle_alpha 90
_cell_angle_beta 95.322(7)
_cell_angle_gamma 90
_cell_formula_units_Z 4
loop_
_atom_type_symbol
_atom_type_radius_bond
C 0.68
H 0.23
N 0.68
O 0.68
loop_
_atom_site_label
_atom_site_type_symbol
_atom_site_fract_x
_atom_site_fract_y
_atom_site_fract_z
O1 O 0.5851(2) 0.3433(2) 0.49188(11)
O2 O 0.42549(18) 0.2924(2) 0.41915(11)
N1 N 0.96982(18) 0.2227(2) 0.45616(11)
N2 N 0.52629(19) 0.3301(2) 0.42639(12)
N3 N 0.65596(17) 0.24217(18) 0.24371(10)
N4 N 0.85440(16) 0.40064(18) 0.34689(11)
N5 N 1.13689(19) 0.3452(2) 0.47470(13)
C1 C 0.8626(2) 0.2096(2) 0.41885(13)
C2 C 0.8052(2) 0.2987(2) 0.36508(12)
C3 C 0.9689(2) 0.4163(2) 0.38342(13)
C4 C 1.0315(2) 0.5218(3) 0.36764(15)
H1 H 0.99740 0.58050 0.33200
C5 C 1.1437(2) 0.5369(3) 0.40551(18)
H2 H 1.18710 0.60650 0.39680
C6 C 1.1917(2) 0.4458(3) 0.45742(17)
H3 H 1.26880 0.45710 0.48190
C7 C 1.0254(2) 0.3289(2) 0.43753(14)
C8 C 0.7794(2) 0.1094(2) 0.42521(13)
C9 C 0.7935(3) -0.0002(2) 0.46635(14)
H4 H 0.86510 -0.01880 0.49680
C10 C 0.7005(3) -0.0806(3) 0.46155(16)
H5 H 0.70940 -0.15470 0.48850
C11 C 0.5936(3) -0.0527(3) 0.41695(16)
H6 H 0.53030 -0.10680 0.41630
C12 C 0.5791(2) 0.0551(3) 0.37298(15)
H7 H 0.50820 0.07190 0.34100
C13 C 0.6729(2) 0.1367(2) 0.37801(13)
C14 C 0.6799(2) 0.2576(2) 0.33375(12)
C15 C 0.5873(2) 0.3586(2) 0.35107(12)
C16 C 0.5051(2) 0.3735(2) 0.27275(13)
C17 C 0.5944(2) 0.3489(2) 0.20985(14)
C18 C 0.7560(2) 0.1999(3) 0.20074(15)
H8 H 0.81700 0.26090 0.20360
H9 H 0.72930 0.18400 0.14410
H10 H 0.78770 0.12690 0.22620
C19 C 0.4378(2) 0.4913(2) 0.26160(13)
C20 C 0.3564(3) 0.5041(3) 0.19342(16)
H11 H 0.34310 0.43960 0.15710
C21 C 0.2947(3) 0.6105(4) 0.17818(19)
H12 H 0.23950 0.61650 0.13230
C22 C 0.3136(3) 0.7071(3) 0.22971(18)
H13 H 0.27560 0.78060 0.21760
C23 C 0.3889(3) 0.6938(3) 0.2990(2)
H14 H 0.39910 0.75740 0.33640
C24 C 0.4506(2) 0.5871(3) 0.31481(17)
H15 H 0.50200 0.58020 0.36260
H16 H 0.552(2) 0.325(2) 0.1543(14)
H17 H 0.447(2) 0.302(2) 0.2696(13)
H18 H 0.636(2) 0.436(2) 0.3646(13)
H19 H 0.647(2) 0.422(3) 0.2047(15)
#END
