
#######################################################################
#
#                 Cambridge Crystallographic Data Centre
#                                CCDC
#
#######################################################################
#
# If this CIF has been generated from an entry in the Cambridge
# Structural Database, then it will include bibliographic, chemical,
# crystal, experimental, refinement or atomic coordinate data resulting
# from the CCDC's data processing and validation procedures.
#
#######################################################################

data_CSD_CIF_YEBFEQ
_audit_creation_date 2001-10-24
_audit_creation_method CSD-ConQuest-V1
_database_code_CSD YEBFEQ
_database_code_depnum_ccdc_archive 'CCDC 160765'
_chemical_formula_sum 'C21 H22 N2 O9'
_chemical_formula_moiety
;
C21 H22 N2 O9
;
_journal_coden_Cambridge 182
_journal_year 2001
_journal_page_first 1340
_journal_name_full 'Chem.Commun. '
loop_
_publ_author_name
"Yua-Kuang Chen"
"R.K.Peddinti"
"Chun-Chen Liao"
_chemical_name_systematic
;
(10,10-Dimethoxy-tricyclo[6.2.2.0^3,8^]dodeca-11-en-9-on-7-yl) 
3,5-dinitrophenylcarboxylate
;
_cell_volume   1044.454
_exptl_crystal_colour 'colorless'
_exptl_crystal_density_diffrn 1.419
_exptl_crystal_description 'columnar'
_diffrn_ambient_temperature 293
#These two values have been output from a single CSD field.
_refine_ls_R_factor_gt 0.0523
_refine_ls_wR_factor_gt 0.0523
_symmetry_cell_setting triclinic
_symmetry_space_group_name_H-M 'P -1'
_symmetry_Int_Tables_number 2
loop_
_symmetry_equiv_pos_site_id
_symmetry_equiv_pos_as_xyz
1 x,y,z
2 -x,-y,-z
_cell_length_a 6.3649(3)
_cell_length_b 9.8499(4)
_cell_length_c 17.6830(7)
_cell_angle_alpha 82.19
_cell_angle_beta 85.973(1)
_cell_angle_gamma 72.060(1)
_cell_formula_units_Z 2
loop_
_atom_type_symbol
_atom_type_radius_bond
C 0.68
H 0.23
N 0.68
O 0.68
loop_
_atom_site_label
_atom_site_type_symbol
_atom_site_fract_x
_atom_site_fract_y
_atom_site_fract_z
O1 O 0.4070(2) 0.20108(16) 0.32509(8)
O2 O 0.5922(3) 0.0373(2) 0.41821(10)
O3 O 0.7590(3) 0.10903(18) 0.21791(10)
O4 O 0.6298(3) 0.25432(19) 0.05857(9)
O5 O 0.9725(3) 0.2441(2) 0.10262(10)
O6 O -0.0006(4) -0.2025(2) 0.17703(12)
O7 O 0.2479(4) -0.1006(3) 0.13811(12)
O8 O -0.1065(5) -0.3180(3) 0.44713(14)
O9 O -0.0008(3) -0.2070(2) 0.52621(11)
N1 N 0.1325(4) -0.1409(2) 0.18786(13)
N2 N -0.0113(4) -0.2354(2) 0.46201(14)
C1 C 0.7013(4) 0.2361(2) 0.19553(13)
C2 C 0.7415(4) 0.2970(3) 0.11219(13)
C3 C 0.6474(4) 0.4615(3) 0.10662(14)
C4 C 0.7708(4) 0.5159(3) 0.16205(16)
C5 C 0.7429(4) 0.4485(2) 0.24482(14)
C6 C 0.6512(5) 0.5602(3) 0.30024(17)
C7 C 0.6114(5) 0.4950(3) 0.38076(17)
C8 C 0.4595(5) 0.4014(3) 0.38158(15)
C9 C 0.5552(4) 0.2887(2) 0.32828(13)
C10 C 0.5866(3) 0.3519(2) 0.24649(12)
C11 C 0.3790(3) 0.4401(2) 0.20538(14)
C12 C 0.4102(4) 0.4952(3) 0.13475(15)
C13 C 0.4542(4) 0.0761(2) 0.37025(12)
C14 C 0.3144(4) -0.0128(2) 0.35360(12)
C15 C 0.2255(4) -0.0848(2) 0.41444(13)
C16 C 0.0950(4) -0.1655(2) 0.39825(13)
C17 C 0.0590(4) -0.1838(2) 0.32510(14)
C18 C 0.1579(4) -0.1161(2) 0.26656(13)
C19 C 0.2803(4) -0.0274(2) 0.27881(13)
C20 C 0.6814(5) 0.1025(3) 0.05555(17)
C21 C 1.0606(5) 0.2792(4) 0.02838(19)
H1 H 0.66370 0.50370 0.05290
H2 H 0.93180 0.49110 0.14300
H3 H 0.70880 0.62420 0.15630
H4 H 0.88870 0.38660 0.25960
H5 H 0.51230 0.62970 0.27710
H6 H 0.74440 0.62220 0.29920
H7 H 0.75580 0.43550 0.40040
H8 H 0.55050 0.56930 0.41230
H9 H 0.30130 0.46310 0.36390
H10 H 0.43990 0.35580 0.43030
H11 H 0.70020 0.21870 0.34350
H12 H 0.24320 0.45050 0.23050
H13 H 0.28890 0.55410 0.10020
H14 H 0.24920 -0.07510 0.46440
H15 H -0.03900 -0.23900 0.31110
H16 H 0.34510 0.01920 0.23630
H17 H 0.83380 0.05580 0.06220
H18 H 0.62300 0.09500 0.00520
H19 H 0.60000 0.06210 0.09420
H20 H 0.99040 0.24960 -0.01270
H21 H 1.20690 0.25480 0.03140
H22 H 1.00290 0.38510 0.01260
#END
