
#######################################################################
#
#                 Cambridge Crystallographic Data Centre
#                                CCDC
#
#######################################################################
#
# If this CIF has been generated from an entry in the Cambridge
# Structural Database, then it will include bibliographic, chemical,
# crystal, experimental, refinement or atomic coordinate data resulting
# from the CCDC's data processing and validation procedures.
#
#######################################################################

data_CSD_CIF_YEBQAX
_audit_creation_date 2001-10-24
_audit_creation_method CSD-ConQuest-V1
_database_code_CSD YEBQAX
_database_code_depnum_ccdc_archive 'CCDC 160764'
_chemical_formula_sum 'C20 H20 N2 O9'
_chemical_formula_moiety
;
C20 H20 N2 O9
;
_journal_coden_Cambridge 182
_journal_year 2001
_journal_page_first 1340
_journal_name_full 'Chem.Commun. '
loop_
_publ_author_name
"Yua-Kuang Chen"
"R.K.Peddinti"
"Chun-Chen Liao"
_chemical_name_systematic
;
(8,8-Dimethoxy-tricyclo[5.2.2.0^3,7^]undeca-10-en-9-on-6-yl) 
3,5-dinitrophenylcarboxylate
;
_cell_volume   3873.717
_exptl_crystal_colour 'colorless'
_exptl_crystal_density_diffrn 1.483
_exptl_crystal_description 'block'
_diffrn_ambient_temperature 295
#These two values have been output from a single CSD field.
_refine_ls_R_factor_gt 0.0502
_refine_ls_wR_factor_gt 0.0502
_symmetry_cell_setting monoclinic
_symmetry_space_group_name_H-M 'P 21/c'
_symmetry_Int_Tables_number 14
loop_
_symmetry_equiv_pos_site_id
_symmetry_equiv_pos_as_xyz
1 x,y,z
2 x,1/2-y,1/2+z
3 -x,-y,-z
4 -x,-1/2+y,-1/2-z
_cell_length_a 20.8010(1)
_cell_length_b 12.5757(2)
_cell_length_c 15.9854(2)
_cell_angle_alpha 90
_cell_angle_beta 112.123(1)
_cell_angle_gamma 90
_cell_formula_units_Z 8
loop_
_atom_type_symbol
_atom_type_radius_bond
C 0.68
H 0.23
N 0.68
O 0.68
loop_
_atom_site_label
_atom_site_type_symbol
_atom_site_fract_x
_atom_site_fract_y
_atom_site_fract_z
O1 O -0.02195(9) 0.14492(14) -0.17339(11)
O2 O 0.10829(7) 0.26798(12) -0.13778(8)
O3 O 0.00826(7) 0.36497(12) -0.15476(10)
O4 O 0.16104(8) 0.46680(12) 0.08929(9)
O5 O 0.17333(10) 0.61342(13) 0.01625(11)
O6 O 0.18691(12) 0.95505(15) 0.17174(14)
O7 O 0.17692(10) 0.96167(14) 0.30154(15)
O8 O 0.14694(13) 0.6384(2) 0.44406(13)
O9 O 0.13268(13) 0.4910(2) 0.37172(13)
C1 C 0.0959(1) 0.3209(2) -0.00122(12)
C2 C 0.15746(11) 0.3966(2) 0.01430(13)
H1 H 0.15179(11) 0.4373(2) -0.04032(13)
C3 C 0.22327(12) 0.3273(2) 0.0441(2)
H2 H 0.24667(12) 0.3357(2) 0.0023(2)
H3 H 0.25494(12) 0.3486(2) 0.1037(2)
C4 C 0.20155(12) 0.2121(2) 0.04556(15)
H4 H 0.19564(12) 0.1763(2) -0.01061(15)
H5 H 0.23524(12) 0.1734(2) 0.09539(15)
C5 C 0.13280(11) 0.2229(2) 0.05778(13)
H6 H 0.14431(11) 0.2441(2) 0.12074(13)
C6 C 0.08351(13) 0.1288(2) 0.0413(2)
H7 H 0.08626(13) 0.0988(2) 0.0985(2)
H8 H 0.09622(13) 0.0740(2) 0.0076(2)
C7 C 0.00834(12) 0.1682(2) -0.0133(2)
H9 H -0.02646(12) 0.1140(2) -0.0167(2)
C8 C 0.00980(11) 0.1934(2) -0.10487(14)
C9 C 0.05724(10) 0.2895(2) -0.10277(12)
C10 C 0.03836(11) 0.3499(2) 0.03065(13)
H10 H 0.03394(11) 0.4172(2) 0.05209(13)
C11 C -0.00504(12) 0.2714(2) 0.02538(15)
H11 H -0.04186(12) 0.2793(2) 0.04443(15)
C12 C 0.08525(13) 0.2419(2) -0.23209(14)
H12 H 0.12477(13) 0.2290(2) -0.24783(14)
H13 H 0.05879(13) 0.3001(2) -0.26736(14)
H14 H 0.05678(13) 0.1793(2) -0.24408(14)
C13 C 0.03282(14) 0.4659(2) -0.1708(2)
H15 H -0.00582(14) 0.5089(2) -0.2068(2)
H16 H 0.06368(14) 0.4559(2) -0.2021(2)
H17 H 0.05713(14) 0.5006(2) -0.1141(2)
C14 C 0.16764(10) 0.5714(2) 0.08037(14)
C15 C 0.16757(10) 0.6304(2) 0.16167(13)
C16 C 0.17431(10) 0.7406(2) 0.16223(14)
H18 H 0.17966(10) 0.7758(2) 0.11407(14)
C17 C 0.17289(10) 0.7968(2) 0.23600(15)
C18 C 0.16355(11) 0.7488(2) 0.30806(14)
H19 H 0.16200(11) 0.7880(2) 0.35659(14)
C19 C 0.15663(11) 0.6399(2) 0.30455(14)
C20 C 0.15897(10) 0.5795(2) 0.23349(13)
H20 H 0.15484(10) 0.5058(2) 0.23394(13)
N1 N 0.17906(10) 0.9133(2) 0.2360(2)
N2 N 0.14429(11) 0.5859(2) 0.37876(13)
O10 O 0.47623(9) 0.85709(15) 0.14599(12)
O11 O 0.60766(7) 0.73871(12) 0.24157(9)
O12 O 0.50877(8) 0.63744(13) 0.16359(10)
O13 O 0.66276(8) 0.53312(11) 0.07073(9)
O14 O 0.67054(9) 0.38770(12) 0.15616(10)
O15 O 0.70017(12) 0.04465(14) 0.02913(15)
O16 O 0.68089(12) 0.03003(15) -0.11262(15)
O17 O 0.63983(15) 0.3480(2) -0.29751(13)
O18 O 0.6430(2) 0.4984(2) -0.23744(14)
C21 C 0.59593(10) 0.6789(2) 0.09470(12)
C22 C 0.65778(11) 0.6044(2) 0.14152(13)
H21 H 0.65117(11) 0.5638(2) 0.19001(13)
C23 C 0.72318(12) 0.6745(2) 0.1785(2)
H22 H 0.74344(12) 0.6702(2) 0.2439(2)
H23 H 0.75739(12) 0.6506(2) 0.1549(2)
C24 C 0.70175(11) 0.7885(2) 0.14897(15)
H24 H 0.73569(11) 0.8234(2) 0.13019(15)
H25 H 0.69622(11) 0.8293(2) 0.19734(15)
C25 C 0.63268(11) 0.7758(2) 0.06986(13)
H26 H 0.64397(11) 0.7529(2) 0.01840(13)
C26 C 0.58336(12) 0.8701(2) 0.0367(2)
H27 H 0.58639(12) 0.8993(2) -0.0179(2)
H28 H 0.59573(12) 0.9255(2) 0.0822(2)
C27 C 0.50850(12) 0.8303(2) 0.01737(15)
H29 H 0.47366(12) 0.8838(2) -0.01468(15)
C28 C 0.50879(11) 0.8078(2) 0.11020(15)
C29 C 0.55715(10) 0.7132(2) 0.15715(13)
C30 C 0.53869(11) 0.6475(2) 0.00708(13)
H30 H 0.53439(11) 0.5793(2) -0.01693(13)
C31 C 0.49528(11) 0.7254(2) -0.03244(14)
H31 H 0.45873(11) 0.7162(2) -0.08765(14)
C32 C 0.58407(14) 0.7669(2) 0.3126(2)
H32 H 0.62335(14) 0.7826(2) 0.3667(2)
H33 H 0.55853(14) 0.7086(2) 0.3237(2)
H34 H 0.55463(14) 0.8283(2) 0.2949(2)
C33 C 0.53420(15) 0.5391(2) 0.2079(2)
H35 H 0.49590(15) 0.4960(2) 0.2072(2)
H36 H 0.56445(15) 0.5525(2) 0.2693(2)
H37 H 0.55937(15) 0.5025(2) 0.1772(2)
C34 C 0.66742(10) 0.4288(2) 0.08677(13)
C35 C 0.66769(10) 0.3669(2) 0.00667(13)
C36 C 0.67722(10) 0.2572(2) 0.01620(14)
H38 H 0.68384(10) 0.2242(2) 0.07092(14)
C37 C 0.67667(11) 0.1983(2) -0.0568(2)
C38 C 0.66561(11) 0.2425(2) -0.14004(15)
H39 H 0.66421(11) 0.2012(2) -0.18898(15)
C39 C 0.65671(11) 0.3515(2) -0.14668(13)
C40 C 0.65762(10) 0.4147(2) -0.07526(13)
H40 H 0.65157(10) 0.4879(2) -0.08228(13)
N3 N 0.68637(10) 0.0820(2) -0.0464(2)
N4 N 0.64540(11) 0.4029(2) -0.23373(13)
#END
