
#######################################################################
#
#                 Cambridge Crystallographic Data Centre
#                                CCDC
#
#######################################################################
#
# If this CIF has been generated from an entry in the Cambridge
# Structural Database, then it will include bibliographic, chemical,
# crystal, experimental, refinement or atomic coordinate data resulting
# from the CCDC's data processing and validation procedures.
#
#######################################################################

data_CSD_CIF_YECMEA
_audit_creation_date 2012-12-31
_audit_creation_method CSD-ConQuest-V1
_database_code_CSD YECMEA
_database_code_depnum_ccdc_archive 'CCDC 901825'
_chemical_formula_sum 'C64 H100 N2 O12'
_chemical_formula_moiety
;
C64 H100 N2 O12
;
_journal_coden_Cambridge 241
_journal_volume 39
_journal_year 2010
_journal_page_first 671
_journal_name_full 'Chem.Lett. '
loop_
_publ_author_name
"Y.Shibata"
"H.Akutsu"
"J.Yamada"
"M.Satoh"
"U.S.Hiremath"
"C.V.Yelamaggad"
"S.Nakatsuji"
_chemical_name_systematic
;
2,3,6,7-tetrakis(octyloxy)-9,10-dioxo-9,10-dihydroanthracene-1,5-diyl 
bis(1-oxy-2,2,5,5-tetramethylpyrrolidine-3-carboxylate)
;
_chemical_melting_point 404.15
_cell_volume   1613.631
_exptl_crystal_colour 'yellow'
_exptl_crystal_density_diffrn 1.121
_exptl_special_details
;
Melting point range 404.15-407.15K
air-sensitive

;
_exptl_crystal_description 'needle'
_exptl_crystal_preparation 'n-hexane'
_diffrn_ambient_temperature 293.1
#These two values have been output from a single CSD field.
_refine_ls_R_factor_gt 0.0899
_refine_ls_wR_factor_gt 0.0899
_symmetry_cell_setting triclinic
_symmetry_space_group_name_H-M 'P -1'
_symmetry_Int_Tables_number 2
loop_
_symmetry_equiv_pos_site_id
_symmetry_equiv_pos_as_xyz
1 x,y,z
2 -x,-y,-z
_cell_length_a 6.6836(10)
_cell_length_b 13.633(3)
_cell_length_c 19.2602(9)
_cell_angle_alpha 69.638(4)
_cell_angle_beta 84.4860(14)
_cell_angle_gamma 78.8880(16)
_cell_formula_units_Z 1
loop_
_atom_type_symbol
_atom_type_radius_bond
C 0.68
H 0.23
N 0.68
O 0.68
loop_
_atom_site_label
_atom_site_type_symbol
_atom_site_fract_x
_atom_site_fract_y
_atom_site_fract_z
O1 O -0.1281(7) 0.0778(4) 0.8935(2)
O2 O 0.3780(7) 0.1743(3) 0.6409(2)
O3 O 0.1531(5) 0.3211(2) 0.63033(17)
O4 O 0.4723(5) 0.4022(3) 0.64696(19)
O5 O -0.0678(5) 0.2852(3) 0.53391(19)
O6 O -0.0237(5) 0.3815(3) 0.38675(19)
N1 N 0.0220(7) 0.1066(4) 0.8504(2)
C1 C -0.946(2) 0.6608(11) -0.0371(6)
C2 C -0.7616(16) 0.6632(8) -0.0051(5)
C3 C -0.7022(11) 0.5744(7) 0.0655(4)
C4 C -0.5066(11) 0.5795(6) 0.0973(3)
C5 C -0.4503(10) 0.4963(5) 0.1692(3)
C6 C -0.2587(10) 0.5049(5) 0.2016(3)
C7 C -0.2058(9) 0.4239(4) 0.2775(3)
C8 C -0.0368(8) 0.4477(4) 0.3100(2)
C9 C -0.819(3) 0.1634(17) 0.2444(15)
C10 C -0.621(3) 0.202(2) 0.2432(15)
C11 C -0.484(4) 0.1369(19) 0.3070(16)
C12 C -0.507(2) 0.1766(12) 0.3706(9)
C13 C -0.319(2) 0.1373(9) 0.4219(8)
C14 C -0.343(2) 0.1829(11) 0.4800(6)
C15 C -0.2027(16) 0.1303(9) 0.5357(6)
C16 C -0.0325(10) 0.1862(5) 0.5178(3)
C17 C 0.0811(7) 0.3472(4) 0.5060(2)
C18 C 0.1054(7) 0.3990(4) 0.4298(2)
C19 C 0.2492(7) 0.4642(3) 0.4043(2)
C20 C 0.3697(7) 0.4791(3) 0.4531(2)
C21 C 0.3489(6) 0.4297(3) 0.5295(2)
C22 C 0.4813(7) 0.4466(3) 0.5802(2)
C23 C 0.1988(7) 0.3639(4) 0.5545(2)
C24 C 0.2600(9) 0.2266(5) 0.6695(3)
C25 C 0.2113(7) 0.2005(4) 0.7517(2)
C26 C 0.3496(9) 0.1066(5) 0.7997(3)
C27 C 0.2337(10) 0.0733(5) 0.8743(3)
C28 C 0.2734(13) 0.1302(8) 0.9249(4)
C29 C 0.2824(13) -0.0451(6) 0.9144(4)
C30 C -0.0073(8) 0.1745(5) 0.7736(2)
C31 C -0.0694(12) 0.1133(7) 0.7309(4)
C32 C -0.164(1) 0.2735(6) 0.7716(4)
H1 H -0.91670 0.61970 -0.06890
H2 H -1.01000 0.73060 -0.06420
H3 H -1.03390 0.62900 0.00270
H4 H -0.65300 0.65890 -0.04010
H5 H -0.77460 0.72840 0.00400
H6 H -0.81010 0.57780 0.10100
H7 H -0.68660 0.50870 0.05700
H8 H -0.39910 0.57500 0.06180
H9 H -0.52230 0.64610 0.10450
H10 H -0.56090 0.49870 0.20380
H11 H -0.42820 0.42990 0.16140
H12 H -0.14650 0.49730 0.16850
H13 H -0.27770 0.57360 0.20560
H14 H -0.32330 0.42480 0.30940
H15 H -0.16750 0.35550 0.27310
H16 H -0.06340 0.52040 0.30610
H17 H 0.08790 0.43350 0.28430
H18 H -0.79900 0.11490 0.21790
H19 H -0.92160 0.22200 0.22160
H20 H -0.86080 0.12880 0.29410
H21 H -0.60180 0.21650 0.19130
H22 H -0.69460 0.26300 0.25250
H23 H -0.38460 0.16850 0.27190
H24 H -0.44470 0.06190 0.32360
H25 H -0.52850 0.25200 0.35190
H26 H -0.62110 0.15320 0.40070
H27 H -0.29920 0.06210 0.44350
H28 H -0.20140 0.15760 0.39230
H29 H -0.33330 0.25600 0.45840
H30 H -0.47620 0.17610 0.50150
H31 H -0.26550 0.13750 0.58050
H32 H -0.16490 0.05720 0.54150
H33 H 0.00780 0.20010 0.46710
H34 H 0.07390 0.13890 0.54800
H35 H 0.26700 0.49850 0.35250
H36 H 0.22070 0.26050 0.76480
H37 H 0.36950 0.05140 0.77910
H38 H 0.47790 0.12410 0.80380
H39 H 0.32050 0.19370 0.89510
H40 H 0.37310 0.08770 0.96000
H41 H 0.14970 0.14740 0.95020
H42 H 0.24860 -0.06240 0.96590
H43 H 0.42330 -0.07020 0.90780
H44 H 0.20340 -0.07740 0.89300
H45 H 0.04850 0.08050 0.71060
H46 H -0.15520 0.15980 0.69210
H47 H -0.14140 0.06040 0.76320
H48 H -0.29740 0.26020 0.76970
H49 H -0.13830 0.33210 0.72930
H50 H -0.15340 0.28940 0.81520
O1A O 1.1281(7) 0.9222(4) 0.1065(2)
O2A O 0.6220(7) 0.8257(3) 0.3591(2)
O3A O 0.8469(5) 0.6789(2) 0.36967(17)
O4A O 0.5277(5) 0.5978(3) 0.35304(19)
O5A O 1.0678(5) 0.7148(3) 0.46609(19)
O6A O 1.0237(5) 0.6185(3) 0.61325(19)
N1A N 0.9780(7) 0.8934(4) 0.1496(2)
C1A C 1.946(2) 0.3392(11) 1.0371(6)
C2A C 1.7616(16) 0.3368(8) 1.0051(5)
C3A C 1.7022(11) 0.4256(7) 0.9345(4)
C4A C 1.5066(11) 0.4205(6) 0.9027(3)
C5A C 1.4503(10) 0.5037(5) 0.8308(3)
C6A C 1.2587(10) 0.4951(5) 0.7984(3)
C7A C 1.2058(9) 0.5761(4) 0.7225(3)
C8A C 1.0368(8) 0.5523(4) 0.6900(2)
C9A C 1.819(3) 0.8366(17) 0.7556(15)
C10A C 1.621(3) 0.798(2) 0.7568(15)
C11A C 1.484(4) 0.8631(19) 0.6930(16)
C12A C 1.507(2) 0.8234(12) 0.6294(9)
C13A C 1.319(2) 0.8627(9) 0.5781(8)
C14A C 1.343(2) 0.8171(11) 0.5200(6)
C15A C 1.2027(16) 0.8697(9) 0.4643(6)
C16A C 1.0325(10) 0.8138(5) 0.4822(3)
C17A C 0.9189(7) 0.6528(4) 0.4940(2)
C18A C 0.8946(7) 0.6010(4) 0.5702(2)
C19A C 0.7508(7) 0.5358(3) 0.5957(2)
C20A C 0.6303(7) 0.5209(3) 0.5469(2)
C21A C 0.6511(6) 0.5703(3) 0.4705(2)
C22A C 0.5187(7) 0.5534(3) 0.4198(2)
C23A C 0.8012(7) 0.6361(4) 0.4455(2)
C24A C 0.7400(9) 0.7734(5) 0.3305(3)
C25A C 0.7887(7) 0.7995(4) 0.2483(2)
C26A C 0.6504(9) 0.8934(5) 0.2003(3)
C27A C 0.7663(10) 0.9267(5) 0.1257(3)
C28A C 0.7266(13) 0.8698(8) 0.0751(4)
C29A C 0.7176(13) 1.0451(6) 0.0856(4)
C30A C 1.0073(8) 0.8255(5) 0.2264(2)
C31A C 1.0694(12) 0.8867(7) 0.2691(4)
C32A C 1.164(1) 0.7265(6) 0.2284(4)
H1A H 1.91670 0.38030 1.06890
H2A H 2.01000 0.26940 1.06420
H3A H 2.03390 0.37100 0.99730
H4A H 1.65300 0.34110 1.04010
H5A H 1.77460 0.27160 0.99600
H6A H 1.81010 0.42220 0.89900
H7A H 1.68660 0.49130 0.94300
H8A H 1.39910 0.42500 0.93820
H9A H 1.52230 0.35390 0.89550
H10A H 1.56090 0.50130 0.79620
H11A H 1.42820 0.57010 0.83860
H12A H 1.14650 0.50270 0.83150
H13A H 1.27770 0.42640 0.79440
H14A H 1.32330 0.57520 0.69060
H15A H 1.16750 0.64450 0.72690
H16A H 1.06340 0.47960 0.69390
H17A H 0.91210 0.56650 0.71570
H18A H 1.79900 0.88510 0.78210
H19A H 1.92160 0.77800 0.77840
H20A H 1.86080 0.87120 0.70590
H21A H 1.60180 0.78350 0.80870
H22A H 1.69460 0.73700 0.74750
H23A H 1.38460 0.83150 0.72810
H24A H 1.44470 0.93810 0.67640
H25A H 1.52850 0.74800 0.64810
H26A H 1.62110 0.84680 0.59930
H27A H 1.29920 0.93790 0.55650
H28A H 1.20140 0.84240 0.60770
H29A H 1.33330 0.74400 0.54160
H30A H 1.47620 0.82390 0.49850
H31A H 1.26550 0.86250 0.41950
H32A H 1.16490 0.94280 0.45850
H33A H 0.99220 0.79990 0.53290
H34A H 0.92610 0.86110 0.45200
H35A H 0.73300 0.50150 0.64750
H36A H 0.77930 0.73950 0.23520
H37A H 0.63050 0.94860 0.22090
H38A H 0.52210 0.87590 0.19620
H39A H 0.67950 0.80630 0.10490
H40A H 0.62690 0.91230 0.04000
H41A H 0.85030 0.85260 0.04980
H42A H 0.75140 1.06240 0.03410
H43A H 0.57670 1.07020 0.09220
H44A H 0.79660 1.07740 0.10700
H45A H 0.95150 0.91950 0.28940
H46A H 1.15520 0.84020 0.30790
H47A H 1.14140 0.93960 0.23680
H48A H 1.29740 0.73980 0.23030
H49A H 1.13830 0.66790 0.27070
H50A H 1.15340 0.71060 0.18480
#END
