
#######################################################################
#
#                 Cambridge Crystallographic Data Centre
#                                CCDC
#
#######################################################################
#
# If this CIF has been generated from an entry in the Cambridge
# Structural Database, then it will include bibliographic, chemical,
# crystal, experimental, refinement or atomic coordinate data resulting
# from the CCDC's data processing and validation procedures.
#
#######################################################################

data_CSD_CIF_YECMIE
_audit_creation_date 2012-12-31
_audit_creation_method CSD-ConQuest-V1
_database_code_CSD YECMIE
_database_code_depnum_ccdc_archive 'CCDC 901826'
_chemical_formula_sum 'C65 H102 N2 O12'
_chemical_formula_moiety
;
C65 H102 N2 O12
;
_journal_coden_Cambridge 241
_journal_volume 39
_journal_year 2010
_journal_page_first 671
_journal_name_full 'Chem.Lett. '
loop_
_publ_author_name
"Y.Shibata"
"H.Akutsu"
"J.Yamada"
"M.Satoh"
"U.S.Hiremath"
"C.V.Yelamaggad"
"S.Nakatsuji"
_chemical_name_systematic
;
5-(((1-oxy-2,2,5,5-tetramethylpyrrolidin-3-yl)carbonyl)oxy)-2,3,6,7-tetrakis(o
ctyloxy)-9,10-dioxo-9,10-dihydroanthracen-1-yl 
1-oxy-2,2,6,6-tetramethylpiperidine-4-carboxylate
;
_cell_volume   1617.594
_exptl_crystal_colour 'yellow'
_exptl_crystal_density_diffrn 1.133
_exptl_crystal_description 'needle'
_diffrn_ambient_temperature 293.1
#These two values have been output from a single CSD field.
_refine_ls_R_factor_gt 0.0903
_refine_ls_wR_factor_gt 0.0903
_symmetry_cell_setting triclinic
_symmetry_space_group_name_H-M 'P 1'
_symmetry_Int_Tables_number 1
loop_
_symmetry_equiv_pos_site_id
_symmetry_equiv_pos_as_xyz
1 x,y,z
_cell_length_a 5.8304(5)
_cell_length_b 15.406(2)
_cell_length_c 18.127(6)
_cell_angle_alpha 95.606(6)
_cell_angle_beta 90.121(6)
_cell_angle_gamma 93.364(6)
_cell_formula_units_Z 1
loop_
_atom_type_symbol
_atom_type_radius_bond
C 0.68
H 0.23
N 0.68
O 0.68
loop_
_atom_site_label
_atom_site_type_symbol
_atom_site_fract_x
_atom_site_fract_y
_atom_site_fract_z
O1 O -0.4402(4) 0.9489(3) 0.7034(3)
O2 O 0.2637(4) 0.6546(3) 0.7057(3)
O3 O 0.0666(4) 0.6394(3) 0.5965(3)
O4 O -0.2049(4) 0.5138(3) 0.6557(3)
O5 O -0.1320(4) 0.3422(3) 0.6329(3)
O6 O 0.4411(4) 0.6711(3) 0.5270(3)
O7 O 0.5551(4) 0.3274(3) 0.4683(3)
O8 O 1.1504(4) 0.6538(3) 0.3704(3)
O9 O 1.2305(4) 0.4854(3) 0.3409(3)
O10 O 0.9467(4) 0.3653(3) 0.3948(2)
O11 O 0.8307(4) 0.3472(3) 0.2795(3)
O12 O 1.3958(4) 0.0597(4) 0.2749(3)
N1 N -0.2956(4) 0.8857(3) 0.6911(3)
N2 N 1.2651(4) 0.1131(3) 0.3017(3)
C1 C -0.2243(2) 0.4945(2) 0.7349(2)
C2 C -0.4603(2) 0.4752(2) 0.7551(2)
C3 C -0.4802(2) 0.4547(2) 0.8376(2)
C4 C -0.7208(2) 0.4307(2) 0.8605(2)
C5 C -0.7328(2) 0.4059(2) 0.9425(2)
C6 C -0.9619(2) 0.3812(2) 0.9660(2)
C7 C -0.9754(2) 0.3624(2) 1.0481(2)
C8 C -1.1950(2) 0.3290(2) 1.0738(2)
C9 C -0.1271(2) 0.2540(2) 0.6089(2)
C10 C -0.3332(2) 0.2079(2) 0.6418(2)
C11 C -0.3076(2) 0.2048(2) 0.7196(2)
C12 C -0.5275(2) 0.1718(2) 0.7545(2)
C13 C 1.1450(2) 0.7511(2) 0.3920(2)
C14 C 1.3414(2) 0.7941(2) 0.3598(2)
C15 C 1.3396(2) 0.7922(2) 0.2735(2)
C16 C 1.5417(2) 0.8412(2) 0.2425(2)
C17 C 1.7611(2) 0.8857(2) 0.1357(2)
C18 C 1.2451(2) 0.5061(2) 0.2686(2)
C19 C 1.4875(2) 0.5363(2) 0.2500(2)
C20 C 1.5128(2) 0.5556(2) 0.1728(2)
C21 C 1.7381(2) 0.5899(2) 0.1467(2)
C22 C 1.7489(2) 0.6031(2) 0.0687(2)
C23 C 1.9927(2) 0.6470(2) 0.0418(2)
C24 C 1.9919(2) 0.6506(2) -0.0405(2)
C25 C 2.2250(2) 0.6800(2) -0.0677(2)
C26 C -0.0077(4) 0.4913(3) 0.6169(3)
C27 C 0.0074(4) 0.3965(3) 0.6041(3)
C28 C 0.1811(3) 0.3766(2) 0.5619(2)
C29 C 0.3446(4) 0.4282(3) 0.5301(3)
C30 C 0.5452(4) 0.4062(3) 0.4793(3)
C31 C 0.7115(4) 0.4709(3) 0.4525(3)
C32 C 0.8968(4) 0.4522(3) 0.4069(3)
C33 C 1.0476(4) 0.5119(3) 0.3781(3)
C34 C 0.9691(4) 0.5927(4) 0.3955(3)
C35 C 0.7890(3) 0.6262(3) 0.4413(3)
C36 C 0.6537(4) 0.5547(3) 0.4660(3)
C37 C 0.4730(4) 0.5922(3) 0.5093(3)
C38 C 0.3349(4) 0.5230(4) 0.5423(3)
C39 C 0.1429(4) 0.5526(3) 0.5896(3)
C40 C 0.1516(4) 0.6803(3) 0.6576(3)
C41 C 0.0304(3) 0.7690(3) 0.6753(3)
C42 C -0.0555(2) 0.8066(2) 0.6059(2)
C43 C -0.1742(4) 0.8964(4) 0.6225(3)
C44 C -0.0049(2) 0.97044(19) 0.62037(19)
C45 C -0.3477(2) 0.90137(19) 0.5580(2)
C46 C -0.2159(4) 0.8544(3) 0.7567(3)
C47 C -0.0320(2) 0.9262(2) 0.7993(2)
C48 C -0.4021(2) 0.8435(2) 0.81173(19)
C49 C -0.1195(2) 0.7725(2) 0.7364(2)
C50 C 0.9177(4) 0.3111(4) 0.3312(4)
C51 C 0.9655(3) 0.2201(3) 0.3331(3)
C52 C 1.0605(2) 0.1992(2) 0.4015(2)
C53 C 1.1722(4) 0.1120(3) 0.3824(3)
C54 C 0.9851(2) 0.0296(2) 0.3699(2)
C55 C 1.3638(2) 0.0984(2) 0.43267(19)
C56 C 1.1334(4) 0.1931(4) 0.2630(4)
C57 C 1.0050(2) 0.1464(2) 0.2019(2)
C58 C 1.3310(2) 0.2486(2) 0.2400(2)
H1 H -0.12520 0.45070 0.74630
H2 H -0.18090 0.54780 0.76370
H3 H -0.55390 0.52240 0.74880
H4 H -0.50740 0.42660 0.72100
H5 H -0.40810 0.40120 0.83960
H6 H -0.40250 0.49890 0.87020
H7 H -0.78940 0.48530 0.86280
H8 H -0.80360 0.38980 0.82630
H9 H -0.65930 0.35240 0.94240
H10 H -0.66150 0.44800 0.97840
H11 H -1.04630 0.43030 0.95780
H12 H -1.02870 0.33070 0.93790
H13 H -0.86250 0.32220 1.05630
H14 H -0.93630 0.41690 1.07570
H15 H -1.28560 0.37620 1.09050
H16 H -1.17150 0.29430 1.11340
H17 H -1.27210 0.29420 1.03410
H18 H -0.10990 0.24690 0.55660
H19 H 0.00070 0.23180 0.63180
H20 H -0.45900 0.24090 0.63050
H21 H -0.35990 0.14930 0.62070
H22 H -0.19130 0.16800 0.73210
H23 H -0.27060 0.26280 0.74090
H24 H -0.63910 0.21340 0.74960
H25 H -0.57370 0.11860 0.72590
H26 H 1.00440 0.77620 0.38220
H27 H 1.17510 0.75810 0.44390
H28 H 1.35980 0.85210 0.38310
H29 H 1.47720 0.76460 0.36660
H30 H 1.31680 0.73380 0.25130
H31 H 1.20410 0.82230 0.26770
H32 H 1.55310 0.90150 0.26000
H33 H 1.68240 0.81600 0.25180
H34 H 1.80230 0.94190 0.15990
H35 H 1.88960 0.85050 0.13520
H36 H 1.21590 0.45410 0.23650
H37 H 1.13610 0.54720 0.25910
H38 H 1.51520 0.59100 0.27860
H39 H 1.59930 0.49740 0.26220
H40 H 1.47140 0.50090 0.14570
H41 H 1.40510 0.59680 0.16250
H42 H 1.78230 0.64460 0.17310
H43 H 1.84780 0.54870 0.15540
H44 H 1.72110 0.54710 0.04220
H45 H 1.62590 0.63870 0.06000
H46 H 2.01910 0.70310 0.06810
H47 H 2.11550 0.61160 0.05130
H48 H 1.94480 0.59590 -0.06650
H49 H 1.88500 0.69260 -0.04970
H50 H 2.24020 0.74200 -0.06310
H51 H 2.24710 0.65840 -0.11800
H52 H 2.33690 0.65810 -0.03740
H53 H 0.19650 0.31530 0.55430
H54 H 0.73670 0.68350 0.45060
H55 H 0.15380 0.80900 0.69240
H56 H 0.07690 0.81160 0.57580
H57 H -0.16510 0.76540 0.58150
H58 H -0.07580 1.02110 0.60790
H59 H 0.11200 0.95640 0.58560
H60 H 0.06080 0.98140 0.66860
H61 H -0.38760 0.84550 0.53290
H62 H -0.29100 0.93960 0.52330
H63 H -0.47970 0.92420 0.58160
H64 H -0.42770 0.89720 0.84010
H65 H -0.35510 0.80240 0.84370
H66 H -0.54020 0.82160 0.78680
H67 H -0.25380 0.73670 0.72240
H68 H -0.05450 0.75360 0.77980
H69 H 0.83010 0.18240 0.32880
H70 H 1.17900 0.24350 0.41280
H71 H 0.95510 0.19930 0.44140
H72 H 0.83680 0.04220 0.35370
H73 H 0.97190 0.00240 0.41470
H74 H 1.05320 -0.00870 0.33310
H75 H 1.37470 0.03780 0.43660
H76 H 1.34060 0.12770 0.48040
H77 H 1.50190 0.12150 0.41240
H78 H 1.09520 0.13280 0.15930
H79 H 0.87790 0.17780 0.18890
H80 H 0.95080 0.09390 0.22120
C59 C 1.7283(2) 0.8819(2) 0.0491(2)
H81 H 1.60820 0.92070 0.04730
H82 H 1.68190 0.82710 0.02310
C60 C 1.9544(2) 0.9241(2) 0.0364(2)
C61 C -0.4740(2) 0.1584(2) 0.8394(2)
H83 H -0.38780 0.20200 0.87030
H84 H -0.37590 0.11450 0.82070
C62 C -0.6569(2) 0.1267(2) 0.8830(2)
H85 H -0.75500 0.17060 0.90180
H86 H -0.74310 0.08310 0.85210
C63 C -0.6443(2) 0.1025(2) 0.9650(2)
H87 H -0.76380 0.07710 0.99290
H88 H -0.54620 0.05850 0.94620
C64 C -0.4098(2) 0.1327(2) 0.9933(2)
C65 C 1.5299(2) 0.8448(2) 0.1600(2)
H89 H 1.40090 0.87640 0.14910
H90 H 1.50960 0.78660 0.13730
H91 H 0.02190 0.90550 0.84350
H92 H -0.10470 0.97930 0.81120
H93 H 0.09400 0.93610 0.76740
H94 H 1.27710 0.29660 0.21720
H95 H 1.42420 0.26960 0.28170
H96 H 1.41900 0.21430 0.20540
H97 H -0.39390 0.11910 1.04300
H98 H -0.38890 0.19410 0.99160
H99 H -0.29750 0.10430 0.96340
H100 H 1.97310 0.92900 -0.01510
H101 H 1.96550 0.98070 0.06260
H102 H 2.07090 0.89010 0.05340
#END
