
#######################################################################
#
#                 Cambridge Crystallographic Data Centre
#                                CCDC
#
#######################################################################
#
# If this CIF has been generated from an entry in the Cambridge
# Structural Database, then it will include bibliographic, chemical,
# crystal, experimental, refinement or atomic coordinate data resulting
# from the CCDC's data processing and validation procedures.
#
#######################################################################

data_CSD_CIF_YEDKEA
_audit_creation_date 2017-09-14
_audit_creation_method CSD-ConQuest-V1
_database_code_CSD YEDKEA
_database_code_depnum_ccdc_archive 'CCDC 1452790'
_chemical_formula_sum 'C14 H11 N3 O6'
_chemical_formula_moiety
;
C14 H11 N3 O6
;
_journal_coden_Cambridge 388
_journal_volume 53
_journal_year 2017
_journal_page_first 557
_journal_name_full 'Zh.Org.Khim.(Russ.)(Russ.J.Org.Chem.) '
loop_
_publ_author_name
"I.I.Ustinov"
"I.V.Blokhin"
"A.N.Shumskii"
"I.V.Fedyanin"
"P.V.Strashnov"
"M.A.Ryabov"
"Yu.M.Atroshchenko"
"I.V.Shakhkeldyan"
_chemical_name_systematic
;
3-(5,7-dinitroquinolin-8-yl)-4-hydroxypent-3-en-2-one
;
_cell_volume   2744.514
_exptl_crystal_colour 'yellow'
_exptl_crystal_density_diffrn 1.536
_exptl_crystal_description 'plate'
_exptl_crystal_preparation 'Ethanol'
_diffrn_ambient_temperature 120
_diffrn_special_details
;
twin

;
#These two values have been output from a single CSD field.
_refine_ls_R_factor_gt 0.0467
_refine_ls_wR_factor_gt 0.0467
_symmetry_cell_setting monoclinic
_symmetry_space_group_name_H-M 'C 2/c'
_symmetry_Int_Tables_number 15
loop_
_symmetry_equiv_pos_site_id
_symmetry_equiv_pos_as_xyz
1 x,y,z
2 -x,y,1/2-z
3 1/2+x,1/2+y,z
4 1/2-x,1/2+y,1/2-z
5 -x,-y,-z
6 x,-y,-1/2+z
7 -1/2-x,-1/2-y,-z
8 -1/2+x,-1/2-y,-1/2+z
_cell_length_a 27.9251(13)
_cell_length_b 13.7277(6)
_cell_length_c 7.2282(3)
_cell_angle_alpha 90
_cell_angle_beta 97.915(2)
_cell_angle_gamma 90
_cell_formula_units_Z 8
loop_
_atom_type_symbol
_atom_type_radius_bond
C 0.68
H 0.23
N 0.68
O 0.68
loop_
_atom_site_label
_atom_site_type_symbol
_atom_site_fract_x
_atom_site_fract_y
_atom_site_fract_z
O1 O 0.51926(6) 0.86742(13) 1.0150(3)
O2 O 0.53051(5) 0.71819(13) 1.1000(2)
O3 O 0.44022(5) 0.51349(10) 0.6144(2)
O4 O 0.37003(5) 0.48966(9) 0.7012(2)
O5 O 0.24481(4) 0.60404(8) 0.58169(16)
O6 O 0.27655(4) 0.67714(9) 0.30641(15)
H1 H 0.2559(11) 0.647(2) 0.381(4)
N1 N 0.33330(5) 0.85345(10) 0.78811(19)
N2 N 0.50548(5) 0.78356(13) 1.0247(2)
N3 N 0.40515(5) 0.53991(10) 0.6870(2)
C1 C 0.33666(7) 0.94087(12) 0.8647(3)
H2 H 0.30870 0.98100 0.85040
C2 C 0.37940(7) 0.97786(13) 0.9663(3)
H3 H 0.37990 1.04160 1.01760
C3 C 0.42004(7) 0.92205(13) 0.9910(3)
H4 H 0.44910 0.94630 1.05910
C4 C 0.41820(6) 0.82707(12) 0.9130(2)
C5 C 0.45682(6) 0.75816(12) 0.9324(2)
C6 C 0.45150(6) 0.66578(12) 0.8651(2)
H5 H 0.47730 0.62030 0.88640
C7 C 0.40704(6) 0.63932(11) 0.7636(2)
C8 C 0.36774(5) 0.70043(11) 0.7286(2)
C9 C 0.37333(6) 0.79573(11) 0.8115(2)
C10 C 0.32231(5) 0.67371(11) 0.6061(2)
C11 C 0.28235(6) 0.62884(11) 0.6841(2)
C12 C 0.28560(6) 0.61654(14) 0.8904(2)
H6 H 0.25970 0.57310 0.91870
H7 H 0.28210 0.68010 0.94870
H8 H 0.31700 0.58830 0.93920
C13 C 0.31638(5) 0.69802(11) 0.4199(2)
C14 C 0.35263(6) 0.75116(13) 0.3245(2)
H9 H 0.33750 0.80880 0.26140
H10 H 0.36440 0.70820 0.23230
H11 H 0.37980 0.77130 0.41710
#END
