
#######################################################################
#
#                 Cambridge Crystallographic Data Centre
#                                CCDC
#
#######################################################################
#
# If this CIF has been generated from an entry in the Cambridge
# Structural Database, then it will include bibliographic, chemical,
# crystal, experimental, refinement or atomic coordinate data resulting
# from the CCDC's data processing and validation procedures.
#
#######################################################################

data_CSD_CIF_YEDWEK
_audit_creation_date 2006-04-19
_audit_creation_method CSD-ConQuest-V1
_database_code_CSD YEDWEK
_database_code_depnum_ccdc_archive 'CCDC 298436'
_chemical_formula_sum 'C14 H16 N2 O4'
_chemical_formula_moiety
;
C14 H16 N2 O4
;
_journal_coeditor_code "IUCr ER2001"
_journal_coden_Cambridge 1370
_journal_volume 62
_journal_year 2006
_journal_page_first o666
_journal_name_full 'Acta Crystallogr.,Sect.E:Struct.Rep.Online '
loop_
_publ_author_name
"J.W.Bats"
"S.Schafer"
"A.S.K.Hashmi"
_chemical_name_systematic
;
N,N-Dimethyl-5-(2-(hydroxymethyl)-4-nitrophenyl)pent-4-ynamide
;
_cell_volume   1364.821
_exptl_crystal_colour 'yellow'
_exptl_crystal_density_diffrn 1.345
_exptl_crystal_description 'block'
_exptl_crystal_preparation 'methanol/ethyl acetate'
_diffrn_ambient_temperature 161
#These two values have been output from a single CSD field.
_refine_ls_R_factor_gt 0.0542
_refine_ls_wR_factor_gt 0.0542
_symmetry_cell_setting monoclinic
_symmetry_space_group_name_H-M 'P 21/c'
_symmetry_Int_Tables_number 14
loop_
_symmetry_equiv_pos_site_id
_symmetry_equiv_pos_as_xyz
1 x,y,z
2 -x,1/2+y,1/2-z
3 -x,-y,-z
4 x,-1/2-y,-1/2+z
_cell_length_a 12.877(3)
_cell_length_b 14.3165(18)
_cell_length_c 7.5960(15)
_cell_angle_alpha 90
_cell_angle_beta 102.934(8)
_cell_angle_gamma 90
_cell_formula_units_Z 4
loop_
_atom_type_symbol
_atom_type_radius_bond
C 0.68
H 0.23
N 0.68
O 0.68
loop_
_atom_site_label
_atom_site_type_symbol
_atom_site_fract_x
_atom_site_fract_y
_atom_site_fract_z
O1 O 0.43324(11) 0.78561(12) 0.2565(2)
O2 O 0.54783(12) 0.88071(11) 0.1852(2)
O3 O 0.87291(12) 0.77824(9) 0.0739(2)
O4 O 0.95538(11) 0.16151(9) 0.0455(2)
N1 N 0.51694(13) 0.80154(12) 0.2087(2)
N2 N 0.81251(12) 0.08568(10) 0.0948(2)
C1 C 0.58297(14) 0.72195(13) 0.1789(3)
C2 C 0.54586(16) 0.63216(15) 0.1949(3)
H1 H 0.47860 0.62200 0.22350
C3 C 0.60892(16) 0.55813(14) 0.1685(3)
H2 H 0.58490 0.49600 0.17830
C4 C 0.70829(15) 0.57381(12) 0.1271(3)
C5 C 0.74390(14) 0.66559(12) 0.1101(2)
C6 C 0.68009(14) 0.73994(12) 0.1356(2)
H3 H 0.70250 0.80240 0.12370
C7 C 0.84985(15) 0.68164(12) 0.0644(3)
H4 H 0.90600 0.64720 0.15040
H5 H 0.84820 0.65820 -0.05880
C8 C 0.77311(16) 0.49491(13) 0.1037(3)
C9 C 0.82512(16) 0.42758(13) 0.0885(3)
C10 C 0.88181(15) 0.33999(12) 0.0718(3)
H6 H 0.94600 0.33530 0.17140
H7 H 0.90490 0.33940 -0.04400
C11 C 0.80822(15) 0.25681(12) 0.0792(3)
H8 H 0.78250 0.25980 0.19260
H9 H 0.74540 0.26090 -0.02310
C12 C 0.86392(15) 0.16409(12) 0.0706(2)
C13 C 0.70244(15) 0.08227(14) 0.1139(3)
H10 H 0.67550 0.14600 0.11900
H11 H 0.69920 0.04910 0.22540
H12 H 0.65860 0.04940 0.01020
C14 C 0.86641(17) -0.00440(13) 0.0976(3)
H13 H 0.85470 -0.02910 -0.02550
H14 H 0.83770 -0.04830 0.17370
H15 H 0.94300 0.00380 0.14660
H16 H 0.928(2) 0.7874(16) 0.025(3)
#END
