
#######################################################################
#
#                 Cambridge Crystallographic Data Centre
#                                CCDC
#
#######################################################################
#
# If this CIF has been generated from an entry in the Cambridge
# Structural Database, then it will include bibliographic, chemical,
# crystal, experimental, refinement or atomic coordinate data resulting
# from the CCDC's data processing and validation procedures.
#
#######################################################################

data_CSD_CIF_YEFGOG
_audit_creation_date 2006-04-19
_audit_creation_method CSD-ConQuest-V1
_database_code_CSD YEFGOG
_database_code_depnum_ccdc_archive 'CCDC 231854'
_chemical_formula_sum 'C24 H18 N6 O5'
_chemical_formula_moiety
;
C24 H18 N6 O5
;
_journal_coden_Cambridge 1096
_journal_volume 17
_journal_year 2005
_journal_page_first 5394
_journal_name_full 'Chem.Mater. '
loop_
_publ_author_name
"P.Naumov"
"K.Sakurai"
"Y.Ohashi"
"S.W.Ng"
_chemical_name_systematic
;
trans-bis(3-Nitro-4-(2-pyridylmethyl)phenyl)diazene N-oxide
;
_cell_volume    536.592
_exptl_crystal_colour 'orange-yellow'
_exptl_crystal_density_diffrn 1.456
_exptl_special_details
;
photochromic
triclinic polymorph
light-sensitive

;
_exptl_crystal_description 'plate'
_diffrn_ambient_temperature 78
_refine_special_details
;
The central portion of the molecule is disordered by symmetry.

;
#These two values have been output from a single CSD field.
_refine_ls_R_factor_gt 0.0583
_refine_ls_wR_factor_gt 0.0583
_symmetry_cell_setting triclinic
_symmetry_space_group_name_H-M 'P -1'
_symmetry_Int_Tables_number 2
loop_
_symmetry_equiv_pos_site_id
_symmetry_equiv_pos_as_xyz
1 x,y,z
2 -x,-y,-z
_cell_length_a 7.2765(2)
_cell_length_b 7.5673(1)
_cell_length_c 11.2579(3)
_cell_angle_alpha 86.385(1)
_cell_angle_beta 80.176(2)
_cell_angle_gamma 61.485(1)
_cell_formula_units_Z 1
loop_
_atom_type_symbol
_atom_type_radius_bond
C 0.68
H 0.23
N 0.68
O 0.68
loop_
_atom_site_label
_atom_site_type_symbol
_atom_site_fract_x
_atom_site_fract_y
_atom_site_fract_z
O1 O 0.6043(5) 0.7016(4) 0.5060(3)
N1 N 0.4993(7) 0.6053(8) 0.5186(5)
N2? N 0.5587(7) 0.4296(8) 0.4832(5)
O2 O 0.0946(3) 1.2381(3) 0.73517(18)
O3 O -0.2224(3) 1.3609(2) 0.69473(14)
N3 N -0.0484(3) 1.2201(3) 0.70268(15)
N4 N -0.2458(3) 1.1133(3) 0.92365(15)
C1 C 0.2790(5) 0.7144(6) 0.5799(5)
C2 C 0.2075(6) 0.9122(5) 0.6155(4)
H1 H 0.30140 0.96820 0.60270
C3 C -0.0014(7) 1.0279(7) 0.6700(8)
C4 C -0.1387(7) 0.946(1) 0.6888(11)
C5 C -0.0672(6) 0.7482(9) 0.6531(8)
H2 H -0.16110 0.69220 0.66600
C6 C 0.1417(6) 0.6325(6) 0.5987(5)
H3 H 0.19050 0.49730 0.57430
C7 C -0.3745(18) 1.0671(19) 0.750(1)
H4 H -0.44990 1.17590 0.69520
H5 H -0.43800 0.97600 0.75660
C8? C 0.7742(5) 0.3115(6) 0.4223(5)
C9? C 0.8105(6) 0.1235(5) 0.3865(4)
H6? H 0.69830 0.09030 0.39980
C10? C 1.0111(7) -0.0157(7) 0.3312(8)
C11? C 1.1753(7) 0.0330(9) 0.3117(11)
C12? C 1.1389(5) 0.2209(9) 0.3475(8)
H7? H 1.25110 0.25420 0.33420
C13? C 0.9384(6) 0.3602(6) 0.4028(5)
H8? H 0.91350 0.48860 0.42730
C14? C 1.4038(18) -0.1144(19) 0.2563(9)
H9? H 1.49700 -0.05480 0.26250
H10? H 1.45380 -0.24040 0.30220
C15 C -0.4193(3) 1.1625(3) 0.87539(18)
C16 C -0.6241(3) 1.2746(4) 0.9386(2)
H11 H -0.74430 1.30530 0.90220
C17 C -0.6483(3) 1.3398(3) 1.0547(2)
H12 H -0.78570 1.41780 1.09930
C18 C -0.4703(3) 1.2901(3) 1.10526(19)
H13 H -0.48270 1.33270 1.18520
C19 C -0.2736(3) 1.1772(3) 1.03722(18)
H14 H -0.15150 1.14290 1.07260
O1A O 0.3957(5) 0.2984(4) 0.4940(3)
N1A N 0.5007(7) 0.3947(8) 0.4814(5)
O2A O 0.9054(3) -0.2381(3) 0.26483(18)
O3A O 1.2224(3) -0.3609(2) 0.30527(14)
N3A N 1.0484(3) -0.2201(3) 0.29732(15)
N4A N 1.2458(3) -0.1133(3) 0.07635(15)
C1A C 0.7210(5) 0.2856(6) 0.4201(5)
C2A C 0.7925(6) 0.0878(5) 0.3845(4)
H1A H 0.69860 0.03180 0.39730
C3A C 1.0014(7) -0.0279(7) 0.3300(8)
C4A C 1.1387(7) 0.054(1) 0.3112(11)
C5A C 1.0672(6) 0.2518(9) 0.3469(8)
H2A H 1.16110 0.30780 0.33400
C6A C 0.8583(6) 0.3675(6) 0.4013(5)
H3A H 0.80950 0.50270 0.42570
C7A C 1.3745(18) -0.0671(19) 0.250(1)
H4A H 1.44990 -0.17590 0.30480
H5A H 1.43800 0.02400 0.24340
C15A C 1.4193(3) -0.1625(3) 0.12461(18)
C16A C 1.6241(3) -0.2746(4) 0.0614(2)
H11A H 1.74430 -0.30530 0.09780
C17A C 1.6483(3) -0.3398(3) -0.0547(2)
H12A H 1.78570 -0.41780 -0.09930
C18A C 1.4703(3) -0.2901(3) -0.10526(19)
H13A H 1.48270 -0.33270 -0.18520
C19A C 1.2736(3) -0.1772(3) -0.03722(18)
H14A H 1.15150 -0.14290 -0.07260
#END
