
#######################################################################
#
#                 Cambridge Crystallographic Data Centre
#                                CCDC
#
#######################################################################
#
# If this CIF has been generated from an entry in the Cambridge
# Structural Database, then it will include bibliographic, chemical,
# crystal, experimental, refinement or atomic coordinate data resulting
# from the CCDC's data processing and validation procedures.
#
#######################################################################

data_CSD_CIF_YEFGOG01
_audit_creation_date 2006-04-19
_audit_creation_method CSD-ConQuest-V1
_database_code_CSD YEFGOG01
_database_code_depnum_ccdc_archive 'CCDC 231855'
_chemical_formula_sum 'C24 H18 N6 O5'
_chemical_formula_moiety
;
C24 H18 N6 O5
;
_journal_coden_Cambridge 1096
_journal_volume 17
_journal_year 2005
_journal_page_first 5394
_journal_name_full 'Chem.Mater. '
loop_
_publ_author_name
"P.Naumov"
"K.Sakurai"
"Y.Ohashi"
"S.W.Ng"
_chemical_name_systematic
;
trans-bis(3-Nitro-4-(2-pyridylmethyl)phenyl)diazene N-oxide
;
_cell_volume   1070.374
_exptl_crystal_colour 'colorless-yellow'
_exptl_crystal_density_diffrn 1.46
_exptl_special_details
;
photochromic
monoclinic polymorph
light-sensitive

;
_exptl_crystal_description 'needle'
_diffrn_ambient_temperature 78
_refine_special_details
;
The molecule is extensively disordered by symmetry.

;
#These two values have been output from a single CSD field.
_refine_ls_R_factor_gt 0.0986
_refine_ls_wR_factor_gt 0.0986
_symmetry_cell_setting monoclinic
_symmetry_space_group_name_H-M 'P 21/n'
_symmetry_Int_Tables_number 14
loop_
_symmetry_equiv_pos_site_id
_symmetry_equiv_pos_as_xyz
1 x,y,z
2 1/2-x,1/2+y,1/2-z
3 -x,-y,-z
4 -1/2+x,-1/2-y,-1/2+z
_cell_length_a 9.9484(5)
_cell_length_b 4.1968(2)
_cell_length_c 25.6637(13)
_cell_angle_alpha 90
_cell_angle_beta 92.623(2)
_cell_angle_gamma 90
_cell_formula_units_Z 2
loop_
_atom_type_symbol
_atom_type_radius_bond
C 0.68
H 0.23
N 0.58
O 0.68
loop_
_atom_site_label
_atom_site_type_symbol
_atom_site_fract_x
_atom_site_fract_y
_atom_site_fract_z
O1 O 0.6062(5) 0.6832(12) 0.55568(17)
O2? O 0.6149(11) 1.229(2) 0.3216(3)
O3? O 0.6173(8) 0.708(2) 0.3139(3)
N1? N 0.5684(9) 0.6391(17) 0.5086(4)
N2? N 0.6299(8) 0.969(2) 0.3309(4)
C1? C 0.6476(8) 0.796(2) 0.4703(3)
C2 C 0.6050(11) 0.800(4) 0.4179(4)
H1 H 0.52220 0.70250 0.40710
C3? C 0.6835(14) 0.946(4) 0.3815(3)
C4? C 0.8047(11) 1.089(3) 0.3973(2)
C5? C 0.8473(6) 1.0853(18) 0.4496(3)
H2? H 0.93010 1.18280 0.46050
C6? C 0.7688(7) 0.9388(15) 0.4861(2)
H3? H 0.79790 0.93620 0.52190
C7? C 0.8969(10) 1.261(3) 0.3580(3)
H4? H 0.84290 1.32230 0.32620
H5? H 0.93510 1.45730 0.37420
C8? C 1.0062(11) 1.047(3) 0.3441(3)
C9? C 1.0356(7) 0.9237(19) 0.2956(2)
H6? H 0.97870 0.97010 0.26590
C10? C 1.1484(8) 0.732(2) 0.2907(3)
H7? H 1.16850 0.64820 0.25760
C11? C 1.2318(12) 0.665(4) 0.3342(4)
H8? H 1.30880 0.53380 0.33090
C12? C 1.2023(17) 0.788(6) 0.3827(4)
H9? H 1.25930 0.74140 0.41240
N3? N 1.0895(17) 0.979(5) 0.3876(3)
O4 O 0.5072(5) 1.0149(17) 0.3195(2)
O5 O 0.7073(5) 0.9165(12) 0.29344(17)
N4 N 0.5319(8) 0.5226(19) 0.5086(4)
N5 N 0.6307(9) 0.9572(16) 0.3331(4)
C13 C 0.6117(8) 0.698(2) 0.4716(4)
C14? C 0.4170(12) 0.247(4) 0.5812(4)
H10? H 0.49480 0.33950 0.59790
C15 C 0.6681(14) 0.942(4) 0.3905(3)
C16 C 0.7820(11) 1.077(3) 0.4150(3)
C17 C 0.8106(6) 1.0226(18) 0.4678(3)
H11 H 0.88840 1.11480 0.48450
C18 C 0.7255(7) 0.8333(13) 0.4961(2)
H12 H 0.74510 0.79620 0.53210
C19 C 0.885(1) 1.267(3) 0.3834(4)
H13 H 0.92530 1.43540 0.40630
H14 H 0.83580 1.37460 0.35400
C20 C 0.9970(11) 1.073(3) 0.3620(3)
C21 C 0.9948(7) 1.002(2) 0.3091(2)
H15 H 0.92350 1.07790 0.28660
C22 C 1.0969(8) 0.818(2) 0.2891(3)
H16 H 1.09540 0.76980 0.25300
C23 C 1.2012(12) 0.707(4) 0.3221(4)
H17 H 1.27100 0.58170 0.30840
C24 C 1.2034(17) 0.778(6) 0.3750(4)
H18 H 1.27470 0.70170 0.39750
N6 N 1.1013(17) 0.961(5) 0.3950(3)
O1B O 0.3938(5) 0.3168(12) 0.44432(17)
C2B C 0.3950(11) 0.200(4) 0.5821(4)
H1B H 0.47780 0.29750 0.59290
O4B O 0.4928(5) -0.0149(17) 0.6805(2)
O5B O 0.2927(5) 0.0835(12) 0.70656(17)
N4B N 0.4681(8) 0.4774(19) 0.4914(4)
N5B N 0.3693(9) 0.0428(16) 0.6669(4)
C13B C 0.3883(8) 0.302(2) 0.5284(4)
C15B C 0.3319(14) 0.058(4) 0.6095(3)
C16B C 0.2180(11) -0.077(3) 0.5850(3)
C17B C 0.1894(6) -0.0226(18) 0.5322(3)
H11B H 0.11160 -0.11480 0.51550
C18B C 0.2745(7) 0.1667(13) 0.5039(2)
H12B H 0.25490 0.20380 0.46790
C19B C 0.115(1) -0.267(3) 0.6166(4)
H13B H 0.07470 -0.43540 0.59370
H14B H 0.16420 -0.37460 0.64600
C20B C 0.0030(11) -0.073(3) 0.6380(3)
C21B C 0.0052(7) -0.002(2) 0.6909(2)
H15B H 0.07650 -0.07790 0.71340
C22B C -0.0969(8) 0.182(2) 0.7109(3)
H16B H -0.09540 0.23020 0.74700
C23B C -0.2012(12) 0.293(4) 0.6779(4)
H17B H -0.27100 0.41830 0.69160
C24B C -0.2034(17) 0.222(6) 0.6250(4)
H18B H -0.27470 0.29830 0.60250
N6B N -0.1013(17) 0.039(5) 0.6050(3)
#END
