
#######################################################################
#
#                 Cambridge Crystallographic Data Centre
#                                CCDC
#
#######################################################################
#
# If this CIF has been generated from an entry in the Cambridge
# Structural Database, then it will include bibliographic, chemical,
# crystal, experimental, refinement or atomic coordinate data resulting
# from the CCDC's data processing and validation procedures.
#
#######################################################################

data_CSD_CIF_YEFNON
_audit_creation_date 2006-04-19
_audit_creation_method CSD-ConQuest-V1
_database_code_CSD YEFNON
_database_code_depnum_ccdc_archive 'CCDC 601790'
_chemical_formula_sum 'C15 H17 N5 O3'
_chemical_formula_moiety
;
C15 H17 N5 O3
;
_journal_coeditor_code "IUCr CV6644"
_journal_coden_Cambridge 1370
_journal_volume 62
_journal_year 2006
_journal_page_first o1126
_journal_name_full 'Acta Crystallogr.,Sect.E:Struct.Rep.Online '
loop_
_publ_author_name
"S.Balamurugan"
"A.Thiruvalluvar"
"B.Kalluraya"
_chemical_name_systematic
;
4-methylacetophenone ((2-oxo-4-nitro-1H-imidazol-1-yl)acetyl)hydrazone
;
_chemical_melting_point 524
_cell_volume   1600.877
_exptl_crystal_colour 'colorless'
_exptl_crystal_density_diffrn 1.308
_exptl_special_details
;
Melting point range 524-525K

;
_exptl_crystal_description 'Plate'
_exptl_crystal_preparation 'ethanol/dimethylformamide'
_diffrn_ambient_temperature 298
#These two values have been output from a single CSD field.
_refine_ls_R_factor_gt 0.0653
_refine_ls_wR_factor_gt 0.0653
_symmetry_cell_setting monoclinic
_symmetry_space_group_name_H-M 'P 21/c'
_symmetry_Int_Tables_number 14
loop_
_symmetry_equiv_pos_site_id
_symmetry_equiv_pos_as_xyz
1 x,y,z
2 -x,1/2+y,1/2-z
3 -x,-y,-z
4 x,-1/2-y,-1/2+z
_cell_length_a 8.423(2)
_cell_length_b 10.577(4)
_cell_length_c 17.97(3)
_cell_angle_alpha 90
_cell_angle_beta 89.46(8)
_cell_angle_gamma 90
_cell_formula_units_Z 4
loop_
_atom_type_symbol
_atom_type_radius_bond
C 0.68
H 0.23
N 0.68
O 0.68
loop_
_atom_site_label
_atom_site_type_symbol
_atom_site_fract_x
_atom_site_fract_y
_atom_site_fract_z
O1 O 0.4591(4) 1.0360(2) 0.08760(15)
O2 O -0.0500(4) 1.2251(3) 0.2636(3)
O3 O 0.1268(4) 1.3437(3) 0.31357(19)
N1 N 0.3216(3) 0.9911(2) 0.21945(14)
N2 N 0.3600(3) 1.1705(3) 0.27901(17)
N3 N 0.0868(4) 1.2472(3) 0.28163(18)
N4 N 0.4002(4) 0.8454(3) 0.03981(16)
N5 N 0.3374(3) 0.7258(2) 0.05162(16)
C1 C 0.4307(4) 1.0689(3) 0.25197(17)
C2 C 0.2055(4) 1.1548(3) 0.26327(19)
C3 C 0.1775(4) 1.0444(3) 0.22681(19)
C4 C 0.3546(4) 0.8815(3) 0.17312(18)
C5 C 0.4085(4) 0.9265(3) 0.09706(18)
C6 C 0.3305(4) 0.6525(3) -0.0052(2)
C7 C 0.3859(6) 0.6823(4) -0.0796(2)
C8 C 0.2593(4) 0.5240(3) 0.01097(19)
C9 C 0.2877(5) 0.4236(4) -0.0378(2)
C10 C 0.2214(6) 0.3092(4) -0.0232(3)
C11 C 0.1185(5) 0.2868(3) 0.0385(3)
C12 C 0.0926(5) 0.3889(4) 0.0839(3)
C13 C 0.1591(5) 0.5055(3) 0.0710(2)
C14 C 0.0406(7) 0.1624(4) 0.0473(4)
C15 C 0.6011(5) 1.0395(4) 0.2551(3)
H1 H 0.08064 1.01301 0.21064
H2 H 0.43694 0.83032 0.19555
H3 H 0.25981 0.83010 0.16862
H4 H 0.43347 0.86733 -0.00371
H5 H 0.49766 0.69985 -0.07857
H6 H 0.36662 0.61165 -0.11181
H7 H 0.33021 0.75506 -0.09768
H8 H 0.35144 0.43504 -0.07978
H9 H 0.24430 0.24228 -0.05519
H10 H 0.02693 0.37881 0.12538
H11 H 0.13630 0.57231 0.10303
H12 H 0.07799 0.10611 0.00903
H13 H 0.06537 0.12792 0.09519
H14 H -0.07231 0.17239 0.04325
H15 H 0.62064 0.95939 0.23157
H16 H 0.66027 1.10418 0.22965
H17 H 0.63366 1.03557 0.30611
#END
