
#######################################################################
#
#                 Cambridge Crystallographic Data Centre
#                                CCDC
#
#######################################################################
#
# If this CIF has been generated from an entry in the Cambridge
# Structural Database, then it will include bibliographic, chemical,
# crystal, experimental, refinement or atomic coordinate data resulting
# from the CCDC's data processing and validation procedures.
#
#######################################################################

data_CSD_CIF_YEFSIN
_audit_creation_date 2013-02-01
_audit_creation_method CSD-ConQuest-V1
_database_code_CSD YEFSIN
_database_code_depnum_ccdc_archive 'CCDC 874304'
_chemical_formula_sum 'C22 H25 N1 O6'
_chemical_formula_moiety
;
C22 H25 N1 O6
;
_journal_coden_Cambridge 179
_journal_volume 51
_journal_year 2012
_journal_page_first 8276
_journal_name_full 'Angew.Chem.,Int.Ed. '
loop_
_publ_author_name
"B.Maji"
"Li Ji"
"Siming Wang"
"S.Vedachalam"
"R.Ganguly"
"Xue-Wei Liu"
_chemical_name_systematic
;
Methyl 3-(2-methoxyphenyl)-6-(4-methoxyphenyl)-4-(nitromethyl)hex-5-enoate
;
_cell_volume   2075.537
_exptl_crystal_colour 'colorless'
_exptl_crystal_density_diffrn 1.278
_exptl_crystal_description 'block'
_diffrn_ambient_temperature 103
#These two values have been output from a single CSD field.
_refine_ls_R_factor_gt 0.0607
_refine_ls_wR_factor_gt 0.0607
_symmetry_cell_setting monoclinic
_symmetry_space_group_name_H-M 'P 21/n'
_symmetry_Int_Tables_number 14
loop_
_symmetry_equiv_pos_site_id
_symmetry_equiv_pos_as_xyz
1 x,y,z
2 1/2-x,1/2+y,1/2-z
3 -x,-y,-z
4 -1/2+x,-1/2-y,-1/2+z
_cell_length_a 9.4383(8)
_cell_length_b 9.5427(7)
_cell_length_c 23.068(2)
_cell_angle_alpha 90
_cell_angle_beta 92.592(2)
_cell_angle_gamma 90
_cell_formula_units_Z 4
loop_
_atom_type_symbol
_atom_type_radius_bond
C 0.68
H 0.23
N 0.68
O 0.68
loop_
_atom_site_label
_atom_site_type_symbol
_atom_site_fract_x
_atom_site_fract_y
_atom_site_fract_z
C1 C 0.1855(2) -0.36937(17) 0.35494(9)
H1 H 0.20020 -0.39870 0.39550
H2 H 0.20670 -0.44780 0.32930
H3 H 0.08660 -0.34040 0.34780
C2 C 0.26508(15) -0.14186(14) 0.37877(6)
C3 C 0.37264(15) -0.02979(14) 0.36589(6)
H4 H 0.37100 -0.01270 0.32350
H5 H 0.46870 -0.06320 0.37820
C4 C 0.34213(14) 0.10766(14) 0.39724(6)
H6 H 0.32170 0.08310 0.43820
C5 C 0.21270(14) 0.18531(14) 0.37174(6)
C6 C 0.11989(14) 0.25335(14) 0.40898(6)
C7 C 0.07690(16) 0.32116(16) 0.50674(6)
H7 H 0.08630 0.42020 0.49630
H8 H 0.11660 0.30620 0.54620
H9 H -0.02360 0.29490 0.50480
C8 C 0.00395(15) 0.33054(15) 0.38674(6)
H10 H -0.05740 0.37610 0.41230
C9 C -0.02120(16) 0.34026(16) 0.32691(7)
H11 H -0.10030 0.39230 0.31170
C10 C 0.06840(16) 0.27449(17) 0.28934(6)
H12 H 0.05100 0.28130 0.24860
C11 C 0.18430(15) 0.19822(16) 0.31201(6)
H13 H 0.24560 0.15380 0.28610
C12 C 0.47724(14) 0.20239(14) 0.39970(6)
H14 H 0.56030 0.14290 0.41230
C13 C 0.45832(15) 0.31502(15) 0.44614(6)
H15 H 0.37570 0.37470 0.43500
H16 H 0.44010 0.26980 0.48370
C14 C 0.50736(14) 0.26625(14) 0.34181(6)
H17 H 0.45540 0.34740 0.33000
C15 C 0.60234(14) 0.21608(15) 0.30611(6)
H18 H 0.65560 0.13690 0.31930
C16 C 0.63305(14) 0.27099(14) 0.24832(6)
C17 C 0.73784(15) 0.20551(15) 0.21652(6)
H19 H 0.78480 0.12510 0.23230
C18 C 0.77457(15) 0.25522(15) 0.16270(6)
H20 H 0.84600 0.20930 0.14210
C19 C 0.70600(14) 0.37319(14) 0.13900(6)
C20 C 0.66570(16) 0.52322(15) 0.05705(6)
H21 H 0.56630 0.49320 0.05430
H22 H 0.69950 0.53770 0.01800
H23 H 0.67360 0.61110 0.07890
C21 C 0.59934(14) 0.43900(14) 0.16925(6)
H24 H 0.55120 0.51830 0.15310
C22 C 0.56425(14) 0.38757(15) 0.22324(6)
H25 H 0.49180 0.43270 0.24360
N1 N 0.58915(14) 0.40362(14) 0.45241(6)
O1 O 0.18078(12) -0.13658(12) 0.41613(5)
O2 O 0.27848(13) -0.25281(11) 0.34342(5)
O3 O 0.15191(11) 0.23683(11) 0.46706(4)
O4 O 0.69618(14) 0.34990(16) 0.47410(8)
O5 O 0.58194(16) 0.52494(14) 0.43565(6)
O6 O 0.75023(11) 0.41706(11) 0.08626(4)
#END
