
#######################################################################
#
#                 Cambridge Crystallographic Data Centre
#                                CCDC
#
#######################################################################
#
# If this CIF has been generated from an entry in the Cambridge
# Structural Database, then it will include bibliographic, chemical,
# crystal, experimental, refinement or atomic coordinate data resulting
# from the CCDC's data processing and validation procedures.
#
#######################################################################

data_CSD_CIF_YEFWEO
_audit_creation_date 2017-09-16
_audit_creation_method CSD-ConQuest-V1
_database_code_CSD YEFWEO
_database_code_depnum_ccdc_archive 'CCDC 1489316'
_chemical_formula_sum 'C17 H17 N3 O2'
_chemical_formula_moiety
;
C17 H17 N3 O2
;
_journal_coden_Cambridge 1147
_journal_volume 17
_journal_year 2017
_journal_page_first 5145
_journal_name_full 'Cryst.Growth Des. '
loop_
_publ_author_name
"L.R.de Almeida"
"P.S.Carvalho Junior"
"H.B.Napolitano"
"S.S.Oliveira"
"A.J.Camargo"
"A.S.Figueredo"
"G.L.B.de Aquino"
"V.H.Carvalho-Silva"
_chemical_name_systematic
;
1-(4-isopropylbenzylidene)-2-(4-nitrobenzylidene)hydrazine
;
_cell_volume    735.456
_exptl_crystal_colour 'light yellow'
_exptl_crystal_density_diffrn 1.334
_exptl_crystal_description 'plate'
_exptl_crystal_preparation 'methanol'
_diffrn_ambient_temperature 120
#These two values have been output from a single CSD field.
_refine_ls_R_factor_gt 0.0483
_refine_ls_wR_factor_gt 0.0483
_symmetry_cell_setting triclinic
_symmetry_space_group_name_H-M 'P -1'
_symmetry_Int_Tables_number 2
loop_
_symmetry_equiv_pos_site_id
_symmetry_equiv_pos_as_xyz
1 x,y,z
2 -x,-y,-z
_cell_length_a 7.0745(10)
_cell_length_b 8.1086(11)
_cell_length_c 13.3297(19)
_cell_angle_alpha 95.469(4)
_cell_angle_beta 104.295(4)
_cell_angle_gamma 92.864(4)
_cell_formula_units_Z 2
loop_
_atom_type_symbol
_atom_type_radius_bond
C 0.68
H 0.23
N 0.68
O 0.68
loop_
_atom_site_label
_atom_site_type_symbol
_atom_site_fract_x
_atom_site_fract_y
_atom_site_fract_z
C1 C 0.6740(2) -0.3735(2) 0.71441(12)
N1 N 0.6528(2) -0.51860(18) 0.76926(11)
C2 C 0.8128(2) 0.3373(2) 0.29150(12)
C3 C 0.7104(2) -0.0817(2) 0.71600(13)
H1 H 0.72040 0.02470 0.75070
C4 C 0.7167(2) -0.1016(2) 0.61173(12)
N2 N 0.7906(2) 0.19467(17) 0.43714(11)
O1 O 0.65791(18) -0.49508(15) 0.86241(9)
C5 C 0.7901(2) 0.1877(2) 0.34074(13)
H2 H 0.77490 0.08470 0.30130
N3 N 0.7629(2) 0.03586(17) 0.46762(11)
O2 O 0.63152(18) -0.65688(14) 0.72063(9)
C6 C 0.8447(2) 0.4943(2) 0.34749(13)
H3 H 0.85720 0.50450 0.41900
C7 C 0.8580(2) 0.6341(2) 0.29860(13)
H4 H 0.87890 0.73770 0.33760
C8 C 0.6979(2) -0.2612(2) 0.55969(13)
H5 H 0.69980 -0.27540 0.48990
C9 C 0.8408(2) 0.6243(2) 0.19165(13)
C10 C 0.7447(2) 0.0459(2) 0.56090(13)
H6 H 0.74940 0.15020 0.59750
C11 C 0.6765(2) -0.3985(2) 0.61062(12)
H7 H 0.66410 -0.50520 0.57610
C12 C 0.7975(2) 0.3260(2) 0.18460(13)
H8 H 0.77760 0.22220 0.14580
C13 C 0.6896(2) -0.2174(2) 0.76818(13)
H9 H 0.68620 -0.20420 0.83780
C14 C 0.8114(2) 0.4673(2) 0.13583(13)
H10 H 0.80100 0.45730 0.06460
C15 C 0.8478(2) 0.7808(2) 0.13879(13)
H11 H 0.90040 0.87290 0.19330
C16 C 0.9815(3) 0.7729(2) 0.06499(13)
H12 H 1.10830 0.74410 0.10130
H13 H 0.99340 0.87920 0.04010
H14 H 0.92700 0.69040 0.00710
C17 C 0.6414(3) 0.8182(2) 0.08224(15)
H15 H 0.58400 0.72780 0.02990
H16 H 0.64770 0.91850 0.04990
H17 H 0.56290 0.83180 0.13140
#END
