
#######################################################################
#
#                 Cambridge Crystallographic Data Centre
#                                CCDC
#
#######################################################################
#
# If this CIF has been generated from an entry in the Cambridge
# Structural Database, then it will include bibliographic, chemical,
# crystal, experimental, refinement or atomic coordinate data resulting
# from the CCDC's data processing and validation procedures.
#
#######################################################################

data_CSD_CIF_YEFYEO
_audit_creation_date 2006-04-19
_audit_creation_method CSD-ConQuest-V1
_database_code_CSD YEFYEO
_database_code_depnum_ccdc_archive 'CCDC 285771'
_chemical_formula_sum 'C7 H11 N1 O6'
_chemical_formula_moiety
;
C7 H11 N1 O6
;
_journal_coden_Cambridge 156
_journal_volume 341
_journal_year 2006
_journal_page_first 332
_journal_name_full 'Carbohydr.Res. '
loop_
_publ_author_name
"Feng-Wu Liu"
"Lin Yan"
"Jing-Yu Zhang"
"Hong-Min Liu"
_chemical_name_systematic
;
2-C-Nitromethyl-1,4:3,6-dianhydromannitol
;
_chemical_name_common
;
2-C-Nitromethylisomannide
;
_chemical_melting_point 385.15
_cell_volume    885.675
_exptl_crystal_colour 'colorless'
_exptl_crystal_density_diffrn 1.539
_exptl_special_details
;
Melting point range 385.15-386.15K

;
_exptl_crystal_description 'prismatic'
_exptl_crystal_preparation 'ethanol'
_diffrn_ambient_temperature 291
#These two values have been output from a single CSD field.
_refine_ls_R_factor_gt 0.0627
_refine_ls_wR_factor_gt 0.0627
_symmetry_cell_setting orthorhombic
_symmetry_space_group_name_H-M 'P 21 21 21'
_symmetry_Int_Tables_number 19
loop_
_symmetry_equiv_pos_site_id
_symmetry_equiv_pos_as_xyz
1 x,y,z
2 1/2-x,-y,1/2+z
3 -x,1/2+y,1/2-z
4 1/2+x,1/2-y,-z
_cell_length_a 5.5093(11)
_cell_length_b 7.1832(14)
_cell_length_c 22.380(5)
_cell_angle_alpha 90
_cell_angle_beta 90
_cell_angle_gamma 90
_cell_formula_units_Z 4
loop_
_atom_type_symbol
_atom_type_radius_bond
C 0.68
H 0.23
N 0.68
O 0.68
loop_
_atom_site_label
_atom_site_type_symbol
_atom_site_fract_x
_atom_site_fract_y
_atom_site_fract_z
O1 O -0.1828(4) 0.2754(3) 0.14126(11)
O2 O 0.3592(4) 0.0505(3) 0.08764(10)
H1 H 0.31190 0.06610 0.05330
O3 O 0.2929(4) 0.4167(3) 0.06368(10)
O4 O -0.2262(5) 0.4420(4) 0.03382(10)
H2 H -0.403(13) 0.423(9) 0.047(3)
O5 O 0.0867(7) -0.1808(5) 0.20954(18)
O6 O 0.4679(9) -0.2000(5) 0.19275(19)
N1 N 0.2806(8) -0.1103(5) 0.19839(13)
C1 C -0.0613(6) 0.1193(5) 0.11459(18)
H3 H -0.09150 0.11520 0.07190
H4 H -0.11670 0.00350 0.13230
C2 C 0.2082(6) 0.1498(4) 0.12722(13)
C3 C 0.2272(6) 0.3642(4) 0.12324(13)
H5 H 0.33970 0.41500 0.15300
C4 C -0.0328(6) 0.4334(5) 0.13287(14)
H6 H -0.04000 0.51400 0.16820
C5 C -0.0902(6) 0.5480(5) 0.07577(15)
H7 H -0.17260 0.66500 0.08560
C6 C 0.1581(6) 0.5830(5) 0.05020(16)
H8 H 0.14940 0.60310 0.00740
H9 H 0.23260 0.69100 0.06870
C7 C 0.2894(7) 0.0958(4) 0.18986(14)
H10 H 0.45380 0.13960 0.19650
H11 H 0.18480 0.15550 0.21900
#END
