
#######################################################################
#
#                 Cambridge Crystallographic Data Centre
#                                CCDC
#
#######################################################################
#
# If this CIF has been generated from an entry in the Cambridge
# Structural Database, then it will include bibliographic, chemical,
# crystal, experimental, refinement or atomic coordinate data resulting
# from the CCDC's data processing and validation procedures.
#
#######################################################################

data_CSD_CIF_YEGFIZ
_audit_creation_date 1995-01-30
_audit_creation_method CSD-ConQuest-V1
_database_code_CSD YEGFIZ
_chemical_formula_sum 'C13 H12 N4 O8'
_chemical_formula_moiety
;
C13 H12 N4 O8
;
_journal_coden_Cambridge 154
_journal_volume 47
_journal_year 1994
_journal_page_first 1211
_journal_name_full 'Aust.J.Chem. '
loop_
_publ_author_name
"J.L.Calvert"
"L.Eberson"
"M.P.Hartshorn"
"R.G.A.R.Maclagan"
"W.T.Robinson"
_chemical_name_systematic
;
1,8-Dimethyl-r-1-nitro-4-trinitromethyl-1,4-dihydronaphthalene
;
_chemical_melting_point 392.15
_cell_volume    733.599
_exptl_crystal_density_diffrn 1.595
_exptl_special_details
;
Melting point range 392.15-394.15K

;
_diffrn_ambient_temperature 120
#These two values have been output from a single CSD field.
_refine_ls_R_factor_gt 0.0527
_refine_ls_wR_factor_gt 0.0527
_symmetry_cell_setting triclinic
_symmetry_space_group_name_H-M 'P -1'
_symmetry_Int_Tables_number 2
loop_
_symmetry_equiv_pos_site_id
_symmetry_equiv_pos_as_xyz
1 x,y,z
2 -x,-y,-z
_cell_length_a 8.932(2)
_cell_length_b 9.147(2)
_cell_length_c 9.815(2)
_cell_angle_alpha 81.00(1)
_cell_angle_beta 68.08(1)
_cell_angle_gamma 89.61(1)
_cell_formula_units_Z 2
loop_
_atom_type_symbol
_atom_type_radius_bond
C 0.68
H 0.23
N 0.68
O 0.68
loop_
_atom_site_label
_atom_site_type_symbol
_atom_site_fract_x
_atom_site_fract_y
_atom_site_fract_z
O1 O -0.2258(3) 0.5587(3) 0.9460(3)
O2 O -0.4014(4) 0.3836(3) 1.0887(3)
O3 O -0.3894(3) 0.1273(3) 0.8982(3)
O4 O -0.4169(3) 0.3517(3) 0.8024(3)
O5 O -0.1250(4) 0.2330(3) 1.0734(3)
O6 O -0.1040(3) 0.0921(3) 0.9096(3)
O7 O 0.5402(3) 0.2580(3) 0.5071(3)
O8 O 0.4138(3) 0.4241(3) 0.4185(3)
N1 N -0.2836(4) 0.4330(3) 0.9798(3)
N2 N -0.3497(4) 0.2581(3) 0.8574(3)
N3 N -0.1418(4) 0.2035(3) 0.9637(3)
N4 N 0.4167(3) 0.3167(3) 0.5068(3)
C1 C 0.2526(4) 0.2543(3) 0.6296(3)
C2 C 0.2133(4) 0.3724(4) 0.7260(3)
C3 C 0.0744(4) 0.4343(3) 0.7709(3)
C4 C -0.0652(4) 0.3948(3) 0.7308(3)
C5 C -0.1218(4) 0.2962(3) 0.5312(3)
C6 C -0.0829(4) 0.2228(3) 0.4113(3)
C7 C 0.0636(4) 0.1585(3) 0.3621(3)
C8 C 0.1741(4) 0.1664(3) 0.4295(3)
C9 C -0.0167(4) 0.3030(3) 0.6049(3)
C10 C 0.1342(4) 0.2396(3) 0.5540(3)
C11 C 0.2785(4) 0.1099(4) 0.7162(4)
C12 C -0.2047(4) 0.3218(3) 0.8753(3)
C13 C 0.3339(4) 0.0982(4) 0.3605(4)
H1 H 0.2932(4) 0.4039(4) 0.7559(3)
H2 H 0.0614(4) 0.5065(3) 0.8308(3)
H3 H -0.1032(4) 0.4881(3) 0.6946(3)
H4 H -0.2195(4) 0.3417(3) 0.5631(3)
H5 H -0.1549(4) 0.2165(3) 0.3640(3)
H6 H 0.0891(4) 0.1085(3) 0.2815(3)
H7 H 0.3187(27) 0.0393(9) 0.6501(7)
H8 H 0.1777(7) 0.0714(14) 0.7936(17)
H9 H 0.3553(22) 0.1278(6) 0.7596(22)
H10 H 0.3646(13) 0.0457(20) 0.4378(4)
H11 H 0.4152(7) 0.1750(4) 0.3013(20)
H12 H 0.3235(8) 0.0306(19) 0.2986(19)
#END
