
#######################################################################
#
#                 Cambridge Crystallographic Data Centre
#                                CCDC
#
#######################################################################
#
# If this CIF has been generated from an entry in the Cambridge
# Structural Database, then it will include bibliographic, chemical,
# crystal, experimental, refinement or atomic coordinate data resulting
# from the CCDC's data processing and validation procedures.
#
#######################################################################

data_CSD_CIF_YEHGIB
_audit_creation_date 1995-03-22
_audit_creation_method CSD-ConQuest-V1
_database_code_CSD YEHGIB
_chemical_formula_sum 'C13 H23 N1 O5'
_chemical_formula_moiety
;
C13 H23 N1 O5
;
_journal_coden_Cambridge 16
_journal_volume 50
_journal_year 1994
_journal_page_first 7417
_journal_name_full 'Tetrahedron '
loop_
_publ_author_name
"H.G.Aurich"
"G.Frenzen"
"M.G.Rohr"
_chemical_name_systematic
;
E-4,5-bis(Methoxycarbonyl)-2-t-butyl-3-ethylisoxazolidine
;
_chemical_melting_point 321.15
_cell_volume    748.103
_exptl_crystal_colour 'colorless'
_exptl_crystal_density_diffrn 1.213
_diffrn_ambient_temperature 188
#These two values have been output from a single CSD field.
_refine_ls_R_factor_gt 0.058
_refine_ls_wR_factor_gt 0.058
_symmetry_cell_setting triclinic
_symmetry_space_group_name_H-M 'P -1'
_symmetry_Int_Tables_number 2
loop_
_symmetry_equiv_pos_site_id
_symmetry_equiv_pos_as_xyz
1 x,y,z
2 -x,-y,-z
_cell_length_a 8.953(4)
_cell_length_b 9.369(3)
_cell_length_c 9.696(4)
_cell_angle_alpha 68.34(4)
_cell_angle_beta 83.35(3)
_cell_angle_gamma 83.06(3)
_cell_formula_units_Z 2
loop_
_atom_type_symbol
_atom_type_radius_bond
C 0.68
H 0.23
N 0.68
O 0.68
loop_
_atom_site_label
_atom_site_type_symbol
_atom_site_fract_x
_atom_site_fract_y
_atom_site_fract_z
N1 N 0.2775(2) 0.7696(2) 0.3203(2)
O1 O 0.3973(2) 0.6570(2) 0.4014(2)
C1 C 0.3191(2) 0.7902(2) 0.1602(2)
C2 C 0.4226(2) 0.6449(3) 0.1662(3)
C3 C 0.4120(2) 0.5469(3) 0.3326(3)
C4 C 0.2847(2) 0.9059(3) 0.3637(3)
C5 C 0.2435(3) 0.8547(3) 0.5299(3)
C6 C 0.4385(3) 0.9725(3) 0.3238(3)
C7 C 0.1642(3) 1.0290(3) 0.2811(3)
C8 C 0.1772(2) 0.8034(3) 0.0813(3)
C9 C 0.2109(3) 0.8512(3) -0.0857(3)
C10 C 0.5850(2) 0.6751(3) 0.1122(3)
O2 O 0.6394(2) 0.7954(2) 0.0785(2)
O3 O 0.6647(2) 0.5448(2) 0.1126(2)
C11 C 0.8228(3) 0.5536(3) 0.0711(4)
C12 C 0.2811(3) 0.4443(3) 0.3798(3)
O4 O 0.2274(3) 0.3971(2) 0.2992(2)
O5 O 0.2393(2) 0.4090(2) 0.5224(2)
C13 C 0.1232(3) 0.3031(3) 0.5826(4)
H1 H 0.37300 0.88050 0.11180
H2 H 0.38320 0.59300 0.11120
H3 H 0.50480 0.48360 0.35710
H4 H 0.31900 0.77760 0.58150
H5 H 0.23820 0.94150 0.56090
H6 H 0.14730 0.81230 0.55260
H7 H 0.51420 0.89560 0.37510
H8 H 0.46290 1.00320 0.21830
H9 H 0.43500 1.06040 0.35280
H10 H 0.06760 0.98750 0.30600
H11 H 0.16080 1.11690 0.31020
H12 H 0.18870 1.05970 0.17570
H13 H 0.10420 0.87810 0.10220
H14 H 0.13430 0.70590 0.11910
H15 H 0.11950 0.85830 -0.13160
H16 H 0.25210 0.94960 -0.12410
H17 H 0.28250 0.77580 -0.10710
H18 H 0.86850 0.45410 0.07530
H19 H 0.83700 0.62640 -0.02860
H20 H 0.86900 0.58640 0.13770
H21 H 0.10110 0.28540 0.68660
H22 H 0.03360 0.34600 0.53110
H23 H 0.15790 0.20730 0.57010
#END
