
#######################################################################
#
#                 Cambridge Crystallographic Data Centre
#                                CCDC
#
#######################################################################
#
# If this CIF has been generated from an entry in the Cambridge
# Structural Database, then it will include bibliographic, chemical,
# crystal, experimental, refinement or atomic coordinate data resulting
# from the CCDC's data processing and validation procedures.
#
#######################################################################

data_CSD_CIF_YEJCOH
_audit_creation_date 2012-12-31
_audit_creation_method CSD-ConQuest-V1
_database_code_CSD YEJCOH
_database_code_depnum_ccdc_archive 'CCDC 873030'
_database_code_depnum_ccdc_journal 1267/873030
_chemical_formula_sum 'C9 H10 N2 O4'
_chemical_formula_moiety
;
C9 H10 N2 O4
;
_journal_coden_Cambridge 1267
_journal_volume 227
_journal_year 2012
_journal_page_first 371
_journal_name_full 'Z.Kristallogr.-New Cryst.Struct. '
loop_
_publ_author_name
"Feng-Ting Wang"
"Shuang-Shuang Wang"
"Suo-Ping Xu"
"Shao-Song Qian"
_chemical_name_systematic
;
Methyl 4-(methylamino)-3-nitrobenzoate
;
_cell_volume    962.104
_exptl_crystal_colour 'yellow'
_exptl_crystal_density_diffrn 1.451
_exptl_crystal_description 'block'
_diffrn_ambient_temperature 298
#These two values have been output from a single CSD field.
_refine_ls_R_factor_gt 0.0437
_refine_ls_wR_factor_gt 0.0437
_symmetry_cell_setting monoclinic
_symmetry_space_group_name_H-M 'P 21/n'
_symmetry_Int_Tables_number 14
loop_
_symmetry_equiv_pos_site_id
_symmetry_equiv_pos_as_xyz
1 x,y,z
2 1/2-x,1/2+y,1/2-z
3 -x,-y,-z
4 -1/2+x,-1/2-y,-1/2+z
_cell_length_a 7.8167(7)
_cell_length_b 8.6045(8)
_cell_length_c 14.3211(11)
_cell_angle_alpha 90
_cell_angle_beta 92.758(1)
_cell_angle_gamma 90
_cell_formula_units_Z 4
loop_
_atom_type_symbol
_atom_type_radius_bond
C 0.68
H 0.23
N 0.68
O 0.68
loop_
_atom_site_label
_atom_site_type_symbol
_atom_site_fract_x
_atom_site_fract_y
_atom_site_fract_z
N1 N 0.8175(2) 0.5877(2) 0.44847(11)
N2 N 0.7787(2) 0.92223(19) 0.48992(11)
H1 H 0.82600 0.89410 0.43960
O1 O 0.50638(18) 0.32480(16) 0.69544(9)
O2 O 0.44912(19) 0.50261(17) 0.80415(10)
O3 O 0.8196(2) 0.44719(17) 0.43553(11)
O4 O 0.8850(2) 0.67939(16) 0.39471(9)
C1 C 0.5075(3) 0.4689(2) 0.72966(14)
C2 C 0.5863(2) 0.5832(2) 0.66754(12)
C3 C 0.6654(2) 0.5386(2) 0.58741(12)
H2 H 0.67260 0.43360 0.57260
C4 C 0.7344(2) 0.6486(2) 0.52873(12)
C5 C 0.7236(2) 0.8097(2) 0.54634(12)
C6 C 0.6449(3) 0.8506(2) 0.63072(13)
H3 H 0.63770 0.95490 0.64700
C7 C 0.5799(3) 0.7417(2) 0.68820(13)
H4 H 0.53000 0.77370 0.74260
C8 C 0.4347(3) 0.2067(2) 0.75438(15)
H5 H 0.50950 0.19090 0.80870
H6 H 0.42280 0.11110 0.72010
H7 H 0.32440 0.24000 0.77330
C9 C 0.7642(3) 1.0875(2) 0.50783(15)
H8 H 0.64560 1.11480 0.51110
H9 H 0.81350 1.14460 0.45820
H10 H 0.82400 1.11230 0.56610
#END
