
#######################################################################
#
#                 Cambridge Crystallographic Data Centre
#                                CCDC
#
#######################################################################
#
# If this CIF has been generated from an entry in the Cambridge
# Structural Database, then it will include bibliographic, chemical,
# crystal, experimental, refinement or atomic coordinate data resulting
# from the CCDC's data processing and validation procedures.
#
#######################################################################

data_CSD_CIF_YEJFEA
_audit_creation_date 2012-12-31
_audit_creation_method CSD-ConQuest-V1
_database_code_CSD YEJFEA
_database_code_depnum_ccdc_archive 'CCDC 903212'
_database_code_depnum_ccdc_journal 1267/3762
_chemical_formula_sum 'C19 H19 N1 O11'
_chemical_formula_moiety
;
C19 H19 N1 O11
;
_journal_coden_Cambridge 1267
_journal_volume 227
_journal_year 2012
_journal_page_first 299
_journal_name_full 'Z.Kristallogr.-New Cryst.Struct. '
loop_
_publ_author_name
"Peng-Cheng Fan"
"Lin-Lin Jing"
"Lei He"
"Xiao-Fei Fan"
"Zheng-Ping Jia"
_chemical_name_systematic
;
(1S,4S,5S,8R)-8-Nitrooxy-2,6-dioxabicyclo[3.3.0]octan-4-yl 
3-(3,4-diacetoxyphenyl)acrylate
;
_chemical_name_common
;
6-(Nitrooxy)hexahydrofuro[3,2-b]furan-3-yl 3-(3,4-diacetoxyphenyl)acrylate
;
_cell_volume    984.696
_exptl_crystal_colour 'colorless'
_exptl_crystal_density_diffrn 1.475
_exptl_crystal_description 'block'
_diffrn_ambient_temperature 296
#These two values have been output from a single CSD field.
_refine_ls_R_factor_gt 0.0877
_refine_ls_wR_factor_gt 0.0877
_symmetry_cell_setting monoclinic
_symmetry_space_group_name_H-M 'P 21'
_symmetry_Int_Tables_number 4
loop_
_symmetry_equiv_pos_site_id
_symmetry_equiv_pos_as_xyz
1 x,y,z
2 -x,1/2+y,-z
_cell_length_a 5.315(9)
_cell_length_b 11.63(2)
_cell_length_c 15.99(3)
_cell_angle_alpha 90
_cell_angle_beta 94.96(2)
_cell_angle_gamma 90
_cell_formula_units_Z 2
loop_
_atom_type_symbol
_atom_type_radius_bond
C 0.68
H 0.23
N 0.68
O 0.68
loop_
_atom_site_label
_atom_site_type_symbol
_atom_site_fract_x
_atom_site_fract_y
_atom_site_fract_z
C1 C -0.0732(15) 0.3417(6) 0.2960(4)
H1 H -0.04140 0.29920 0.24880
C2 C -0.2591(15) 0.3076(6) 0.3431(4)
C3 C -0.2953(15) 0.3651(7) 0.4159(4)
C4 C -0.1540(16) 0.4588(7) 0.4382(4)
H2 H -0.18450 0.49910 0.48650
C5 C 0.0338(15) 0.4950(6) 0.3906(4)
H3 H 0.13590 0.55720 0.40760
C6 C 0.0685(15) 0.4369(6) 0.3162(4)
C7 C 0.2616(15) 0.4745(7) 0.2620(4)
H4 H 0.30330 0.42130 0.22200
C8 C 0.3801(14) 0.5693(7) 0.2616(4)
H5 H 0.34780 0.62480 0.30120
C9 C 0.5657(14) 0.5949(7) 0.2015(4)
C10 C 0.8507(15) 0.7345(7) 0.1606(4)
H6 H 0.96670 0.67180 0.14990
C11 C 0.9854(19) 0.8361(8) 0.2008(5)
H7 H 1.01300 0.82540 0.26100
H8 H 1.14760 0.84700 0.17840
C12 C 0.6923(18) 0.9130(7) 0.1031(4)
H9 H 0.51290 0.93130 0.10510
C13 C 0.7316(16) 0.7869(7) 0.0807(4)
H10 H 0.57480 0.74830 0.05960
C14 C 0.865(3) 0.8839(8) -0.0281(4)
H11 H 0.72020 0.87040 -0.06840
H12 H 1.00910 0.90330 -0.05840
C15 C 0.8090(19) 0.9789(8) 0.0317(5)
H13 H 0.69120 1.03560 0.00520
C16 C -0.398(2) 0.1172(7) 0.3516(5)
C17 C -0.593(2) 0.0391(9) 0.3178(6)
H14 H -0.54530 -0.03850 0.33220
H15 H -0.61460 0.04670 0.25780
H16 H -0.74910 0.05720 0.34100
C18 C -0.4878(15) 0.2951(7) 0.5340(4)
C19 C -0.7272(16) 0.2741(10) 0.5634(6)
H17 H -0.82300 0.22430 0.52480
H18 H -0.81550 0.34560 0.56760
H19 H -0.70550 0.23830 0.61760
N1 N 1.017(2) 1.1271(6) 0.1079(4)
O1 O -0.5068(11) 0.3341(6) 0.4562(3)
O2 O -0.2864(11) 0.2847(7) 0.5734(4)
O3 O -0.4214(11) 0.2208(5) 0.3158(3)
O4 O -0.2465(18) 0.0983(6) 0.4083(5)
O5 O 0.6635(10) 0.7002(4) 0.2130(3)
O6 O 0.6184(13) 0.5333(5) 0.1461(3)
O7 O 0.8298(13) 0.9299(5) 0.1821(3)
O8 O 0.9157(13) 0.7865(5) 0.0223(3)
O9 O 1.0407(13) 1.0286(5) 0.0591(3)
O10 O 0.8162(18) 1.1673(7) 0.1127(5)
O11 O 1.2206(18) 1.1635(7) 0.1366(4)
#END
