
#######################################################################
#
#                 Cambridge Crystallographic Data Centre
#                                CCDC
#
#######################################################################
#
# If this CIF has been generated from an entry in the Cambridge
# Structural Database, then it will include bibliographic, chemical,
# crystal, experimental, refinement or atomic coordinate data resulting
# from the CCDC's data processing and validation procedures.
#
#######################################################################

data_CSD_CIF_YEJJEF
_audit_creation_date 2017-09-18
_audit_creation_method CSD-ConQuest-V1
_database_code_CSD YEJJEF
_database_code_depnum_ccdc_archive 'CCDC 1575179'
_chemical_formula_sum 'C15 H11 N1 O3'
_chemical_formula_moiety
;
C15 H11 N1 O3
;
_journal_coden_Cambridge 1078
_journal_year 2017
_journal_name_full 'CSD Communication(Private Communication) '
loop_
_publ_author_name
"W.Clegg"
"A.J.Scott"
_chemical_name_systematic
;
1-methoxy-4-[(4-nitrophenyl)ethynyl]benzene
;
_cell_volume   1871.114
_exptl_crystal_colour 'yellow'
_exptl_crystal_density_diffrn 1.348
_exptl_special_details
;
triclinic polymorph

;
_exptl_crystal_description 'Plate'
_exptl_crystal_preparation 'acetonitrile'
_diffrn_ambient_temperature 160
#These two values have been output from a single CSD field.
_refine_ls_R_factor_gt 0.0592
_refine_ls_wR_factor_gt 0.0592
_symmetry_cell_setting triclinic
_symmetry_space_group_name_H-M 'P -1'
_symmetry_Int_Tables_number 2
loop_
_symmetry_equiv_pos_site_id
_symmetry_equiv_pos_as_xyz
1 x,y,z
2 -x,-y,-z
_cell_length_a 11.6920(12)
_cell_length_b 12.0671(13)
_cell_length_c 14.6335(15)
_cell_angle_alpha 99.168(3)
_cell_angle_beta 112.429(3)
_cell_angle_gamma 92.636(2)
_cell_formula_units_Z 6
loop_
_atom_type_symbol
_atom_type_radius_bond
C 0.68
H 0.23
N 0.68
O 0.68
loop_
_atom_site_label
_atom_site_type_symbol
_atom_site_fract_x
_atom_site_fract_y
_atom_site_fract_z
C1 C 0.2872(3) 0.1275(3) 0.3580(2)
H1 H 0.25187 0.05623 0.30970
H2 H 0.30348 0.18551 0.32322
H3 H 0.22815 0.15165 0.38781
O1 O 0.40136(16) 0.11152(14) 0.43574(13)
C2 C 0.4670(2) 0.2046(2) 0.50702(18)
C3 C 0.5783(2) 0.1858(2) 0.58042(19)
H4 H 0.60314 0.11189 0.57931
C4 C 0.6526(2) 0.2742(2) 0.65465(19)
H5 H 0.72869 0.26079 0.70423
C5 C 0.6172(2) 0.3830(2) 0.65781(18)
C6 C 0.5047(2) 0.3998(2) 0.58415(19)
H6 H 0.47905 0.47342 0.58557
C7 C 0.4297(2) 0.3119(2) 0.50926(19)
H7 H 0.35338 0.32491 0.45973
C8 C 0.6920(2) 0.4750(2) 0.7363(2)
C9 C 0.7542(2) 0.5514(2) 0.8026(2)
C10 C 0.8326(2) 0.6409(2) 0.88200(18)
C11 C 0.9509(2) 0.6221(2) 0.94576(19)
H8 H 0.97776 0.54967 0.93624
C12 C 1.0295(2) 0.7063(2) 1.02221(19)
H9 H 1.11010 0.69318 1.06518
C13 C 0.9875(2) 0.8105(2) 1.03443(18)
C14 C 0.8715(2) 0.8330(2) 0.97293(19)
H10 H 0.84560 0.90581 0.98297
C15 C 0.7939(2) 0.7478(2) 0.89660(19)
H11 H 0.71367 0.76192 0.85368
N1 N 1.0690(2) 0.9000(2) 1.11664(17)
O2 O 1.1752(2) 0.88174(19) 1.16640(17)
O3 O 1.02832(19) 0.98912(16) 1.13409(15)
C16 C 1.0664(3) 0.9280(2) 0.3948(2)
H12 H 1.13586 0.96935 0.45490
H13 H 0.98813 0.93558 0.40392
H14 H 1.06280 0.95912 0.33597
O4 O 1.08437(17) 0.81134(16) 0.37956(13)
C17 C 0.9965(2) 0.7412(2) 0.29825(18)
C18 C 0.8941(2) 0.7755(2) 0.22687(19)
H15 H 0.88109 0.85297 0.23294
C19 C 0.8112(2) 0.6967(2) 0.14704(18)
H16 H 0.74123 0.72095 0.09859
C20 C 0.8278(2) 0.5829(2) 0.13599(18)
C21 C 0.9317(2) 0.5500(2) 0.20946(19)
H17 H 0.94473 0.47248 0.20406
C22 C 1.0145(2) 0.6278(2) 0.28884(19)
H18 H 1.08450 0.60398 0.33758
C23 C 0.7421(2) 0.5007(2) 0.05397(19)
C24 C 0.6700(2) 0.4301(2) -0.01426(19)
C25 C 0.5819(2) 0.3504(2) -0.09796(18)
C26 C 0.4815(2) 0.3875(2) -0.16978(18)
H19 H 0.47143 0.46571 -0.16253
C27 C 0.3964(2) 0.3122(2) -0.25132(19)
H20 H 0.32807 0.33779 -0.30028
C28 C 0.4125(2) 0.1997(2) -0.26016(19)
C29 C 0.5103(2) 0.1589(2) -0.1908(2)
H21 H 0.51909 0.08054 -0.19904
C30 C 0.5948(2) 0.2344(2) -0.10935(19)
H22 H 0.66233 0.20782 -0.06053
N2 N 0.3224(2) 0.1196(2) -0.34782(17)
O5 O 0.23067(18) 0.15560(18) -0.40502(15)
O6 O 0.3425(2) 0.02066(17) -0.36004(15)
C31 C 0.4589(3) 0.1304(3) 0.0552(2)
H23 H 0.39692 0.06549 0.01501
H24 H 0.53628 0.12137 0.04501
H25 H 0.42699 0.19992 0.03416
O7 O 0.48278(16) 0.13700(15) 0.15937(13)
C32 C 0.5640(2) 0.2269(2) 0.22509(19)
C33 C 0.6247(2) 0.3085(2) 0.19799(19)
H26 H 0.61325 0.30384 0.12959
C34 C 0.7021(2) 0.3969(2) 0.27091(18)
H27 H 0.74333 0.45301 0.25181
C35 C 0.7211(2) 0.4056(2) 0.37203(18)
C36 C 0.6608(2) 0.3208(2) 0.39846(19)
H28 H 0.67287 0.32444 0.46691
C37 C 0.5840(2) 0.2323(2) 0.32599(19)
H29 H 0.54449 0.17458 0.34482
C38 C 0.8000(2) 0.4986(2) 0.44709(19)
C39 C 0.8644(2) 0.5774(2) 0.50954(19)
C40 C 0.9435(2) 0.6668(2) 0.58849(18)
C41 C 1.0257(2) 0.7421(2) 0.57384(19)
H30 H 1.02733 0.73659 0.50886
C42 C 1.1051(2) 0.8249(2) 0.65214(19)
H31 H 1.16035 0.87682 0.64173
C43 C 1.1016(2) 0.8298(2) 0.74593(18)
C44 C 1.0191(2) 0.7592(2) 0.76320(19)
H32 H 1.01736 0.76597 0.82821
C45 C 0.9395(2) 0.6786(2) 0.68395(19)
H33 H 0.88078 0.63024 0.69412
N3 N 1.1911(2) 0.91175(18) 0.83145(17)
O8 O 1.24528(18) 0.99080(16) 0.81424(15)
O9 O 1.20947(18) 0.89706(16) 0.91709(14)
#END
