
#######################################################################
#
#                 Cambridge Crystallographic Data Centre
#                                CCDC
#
#######################################################################
#
# If this CIF has been generated from an entry in the Cambridge
# Structural Database, then it will include bibliographic, chemical,
# crystal, experimental, refinement or atomic coordinate data resulting
# from the CCDC's data processing and validation procedures.
#
#######################################################################

data_CSD_CIF_YEJKIK
_audit_creation_date 2017-09-18
_audit_creation_method CSD-ConQuest-V1
_database_code_CSD YEJKIK
_database_code_depnum_ccdc_archive 'CCDC 1575185'
_chemical_formula_sum 'C22 H12 N2 O4'
_chemical_formula_moiety
;
C22 H12 N2 O4
;
_journal_coden_Cambridge 1078
_journal_year 2017
_journal_name_full 'CSD Communication(Private Communication) '
loop_
_publ_author_name
"W.Clegg"
"A.J.Scott"
_chemical_name_systematic
;
1,1'-[1,4-phenylenebis(ethyne-2,1-diyl)]bis(4-nitrobenzene)
;
_cell_volume   2482.927
_exptl_crystal_colour 'yellow'
_exptl_crystal_density_diffrn 1.478
_exptl_crystal_description 'Block'
_exptl_crystal_preparation 'toluene'
_diffrn_ambient_temperature 160
_diffrn_special_details
;
twin

;
#These two values have been output from a single CSD field.
_refine_ls_R_factor_gt 0.0813
_refine_ls_wR_factor_gt 0.0813
_symmetry_cell_setting monoclinic
_symmetry_space_group_name_H-M 'P 21/n'
_symmetry_Int_Tables_number 14
loop_
_symmetry_equiv_pos_site_id
_symmetry_equiv_pos_as_xyz
1 x,y,z
2 1/2-x,1/2+y,1/2-z
3 -x,-y,-z
4 -1/2+x,-1/2-y,-1/2+z
_cell_length_a 17.016(3)
_cell_length_b 5.0614(9)
_cell_length_c 29.068(5)
_cell_angle_alpha 90
_cell_angle_beta 97.346(6)
_cell_angle_gamma 90
_cell_formula_units_Z 6
loop_
_atom_type_symbol
_atom_type_radius_bond
C 0.68
H 0.23
N 0.68
O 0.68
loop_
_atom_site_label
_atom_site_type_symbol
_atom_site_fract_x
_atom_site_fract_y
_atom_site_fract_z
N1 N -0.0584(3) 1.8786(10) 0.62532(16)
O1 O -0.1260(3) 1.9444(10) 0.62845(15)
O2 O -0.0161(3) 1.9752(10) 0.59767(15)
C1 C -0.0228(3) 1.6669(12) 0.65511(19)
C2 C -0.0644(3) 1.5765(13) 0.6901(2)
H1 H -0.11459 1.64923 0.69393
C3 C -0.0314(3) 1.3784(14) 0.7193(2)
H2 H -0.05955 1.31360 0.74311
C4 C 0.0418(4) 1.2743(13) 0.7142(2)
C5 C 0.0831(3) 1.3677(14) 0.6777(2)
H3 H 0.13310 1.29437 0.67367
C6 C 0.0504(3) 1.5657(13) 0.64802(19)
H4 H 0.07745 1.62967 0.62363
C7 C 0.0763(4) 1.0688(14) 0.7441(2)
C8 C 0.1034(4) 0.9015(14) 0.7699(2)
C9 C 0.1356(3) 0.6981(13) 0.8017(2)
C10 C 0.0944(4) 0.6176(14) 0.8387(2)
H5 H 0.04505 0.69742 0.84248
C11 C 0.1250(3) 0.4253(14) 0.8693(2)
H6 H 0.09674 0.37361 0.89398
C12 C 0.1980(4) 0.3043(14) 0.8643(2)
C13 C 0.2387(3) 0.3838(14) 0.8273(2)
H7 H 0.28793 0.30428 0.82331
C14 C 0.2070(4) 0.5772(14) 0.7970(2)
H8 H 0.23497 0.62866 0.77221
C15 C 0.2301(3) 0.1015(14) 0.8956(2)
C16 C 0.2572(3) -0.0666(14) 0.9217(2)
C17 C 0.2901(3) -0.2718(13) 0.9527(2)
C18 C 0.2510(4) -0.3680(13) 0.9883(2)
H9 H 0.20056 -0.29848 0.99264
C19 C 0.2847(4) -0.5644(14) 1.0176(2)
H10 H 0.25793 -0.62847 1.04208
C20 C 0.3574(3) -0.6659(12) 1.0110(2)
C21 C 0.3986(3) -0.5766(14) 0.97547(19)
H11 H 0.44849 -0.64949 0.97095
C22 C 0.3642(3) -0.3780(14) 0.9471(2)
H12 H 0.39166 -0.31156 0.92313
N2 N 0.3910(3) -0.8766(11) 1.04136(17)
O3 O 0.4600(3) -0.9448(10) 1.03808(15)
O4 O 0.3509(3) -0.9768(10) 1.06849(15)
N3 N 0.7250(3) -0.8785(11) 0.70836(16)
O5 O 0.7929(3) -0.9465(10) 0.70510(14)
O6 O 0.6837(3) -0.9774(10) 0.73527(15)
C23 C 0.6893(3) -0.6635(13) 0.67720(18)
C24 C 0.6166(4) -0.5642(14) 0.6847(2)
H13 H 0.58990 -0.63073 0.70905
C25 C 0.5838(3) -0.3659(13) 0.6561(2)
H14 H 0.53370 -0.29451 0.66049
C26 C 0.6236(4) -0.2692(13) 0.62061(18)
C27 C 0.6978(4) -0.3762(13) 0.6138(2)
H15 H 0.72489 -0.31384 0.58931
C28 C 0.7310(4) -0.5746(14) 0.6435(2)
H16 H 0.78166 -0.64593 0.64019
C29 C 0.5893(4) -0.0653(14) 0.5890(2)
C30 C 0.5645(4) 0.1020(14) 0.5629(2)
C31 C 0.5323(3) 0.3038(13) 0.5306(2)
C32 C 0.4590(4) 0.4223(14) 0.5365(2)
H17 H 0.43087 0.36915 0.56111
C33 C 0.5714(4) 0.3819(14) 0.4944(2)
H18 H 0.62029 0.30044 0.49038
N3B N 0.2750(3) 1.8785(11) 0.29164(16)
O5B O 0.2071(3) 1.9465(10) 0.29490(14)
O6B O 0.3163(3) 1.9774(10) 0.26473(15)
C23B C 0.3107(3) 1.6635(13) 0.32280(18)
C24B C 0.3834(4) 1.5642(14) 0.3153(2)
H13B H 0.41010 1.63073 0.29095
C25B C 0.4162(3) 1.3659(13) 0.3439(2)
H14B H 0.46630 1.29452 0.33951
C26B C 0.3764(4) 1.2692(13) 0.37939(18)
C27B C 0.3022(4) 1.3762(13) 0.3862(2)
H15B H 0.27511 1.31384 0.41069
C28B C 0.2690(4) 1.5746(14) 0.3565(2)
H16B H 0.21834 1.64593 0.35981
C29B C 0.4107(4) 1.0653(14) 0.4110(2)
C30B C 0.4355(4) 0.8980(14) 0.4371(2)
C31B C 0.4677(3) 0.6962(13) 0.4694(2)
C32B C 0.5410(4) 0.5777(14) 0.4635(2)
H17B H 0.56913 0.63085 0.43889
C33B C 0.4286(4) 0.6181(14) 0.5056(2)
H18B H 0.37971 0.69956 0.50962
#END
