
#######################################################################
#
#                 Cambridge Crystallographic Data Centre
#                                CCDC
#
#######################################################################
#
# If this CIF has been generated from an entry in the Cambridge
# Structural Database, then it will include bibliographic, chemical,
# crystal, experimental, refinement or atomic coordinate data resulting
# from the CCDC's data processing and validation procedures.
#
#######################################################################

data_CSD_CIF_YEJNAC
_audit_creation_date 2001-10-24
_audit_creation_method CSD-ConQuest-V1
_database_code_CSD YEJNAC
_database_code_depnum_ccdc_archive 'CCDC 170197'
_chemical_formula_sum 'C12 H9 N3 O3'
_chemical_formula_moiety
;
C12 H9 N3 O3
;
_journal_coeditor_code "IUCr NA1519"
_journal_coden_Cambridge 591
_journal_volume 57
_journal_year 2001
_journal_page_first 961
_journal_name_full 'Acta Crystallogr.,Sect.C:Cryst.Struct.Commun. '
loop_
_publ_author_name
"A.V.Yatsenko"
"K.A.Paseshnichenko"
_chemical_name_systematic
;
4-((2-Nitrophenyl)azo)phenol
;
_cell_volume   2235.471
_exptl_crystal_colour 'orange'
_exptl_crystal_density_diffrn 1.445
_exptl_special_details
;
monoclinic polymorph

;
_exptl_crystal_description 'needle'
_diffrn_ambient_temperature 293
#These two values have been output from a single CSD field.
_refine_ls_R_factor_gt 0.066
_refine_ls_wR_factor_gt 0.066
_symmetry_cell_setting monoclinic
_symmetry_space_group_name_H-M 'P 21/n'
_symmetry_Int_Tables_number 14
loop_
_symmetry_equiv_pos_site_id
_symmetry_equiv_pos_as_xyz
1 x,y,z
2 1/2+x,1/2-y,1/2+z
3 -x,-y,-z
4 -1/2-x,-1/2+y,-1/2-z
_cell_length_a 3.823(1)
_cell_length_b 23.014(8)
_cell_length_c 25.437(9)
_cell_angle_alpha 90
_cell_angle_beta 92.73(3)
_cell_angle_gamma 90
_cell_formula_units_Z 8
loop_
_atom_type_symbol
_atom_type_radius_bond
C 0.68
H 0.23
N 0.68
O 0.68
loop_
_atom_site_label
_atom_site_type_symbol
_atom_site_fract_x
_atom_site_fract_y
_atom_site_fract_z
O1 O 1.1222(10) -0.09985(15) 0.34897(14)
O2 O 0.6705(11) 0.34469(16) 0.24393(15)
O3 O 0.3855(12) 0.13177(18) 0.53379(15)
O4 O 1.4789(11) 0.12091(17) 0.06884(14)
O5 O 0.7184(12) 0.19259(19) 0.57452(14)
O6 O 1.1828(12) 0.05988(17) 0.02288(13)
N1 N 0.6712(9) 0.12359(14) 0.38991(14)
N2 N 1.1606(9) 0.12226(15) 0.20954(13)
N3 N 0.6877(9) 0.14127(14) 0.43656(14)
N4 N 1.1487(9) 0.10482(14) 0.16238(13)
N5 N 0.5367(13) 0.1782(2) 0.53684(18)
N6 N 1.3434(13) 0.07355(18) 0.06278(16)
C1 C 1.0228(12) -0.0444(2) 0.36164(18)
C2 C 0.7855(12) 0.28936(19) 0.23324(19)
C3 C 1.0744(13) -0.0219(2) 0.41173(19)
C4 C 0.7464(13) 0.2652(2) 0.18338(18)
C5 C 0.9648(12) 0.0335(2) 0.42221(17)
C6 C 0.8646(13) 0.2107(2) 0.17472(19)
C7 C 0.8006(11) 0.06676(19) 0.38299(16)
C8 C 1.0205(11) 0.17883(17) 0.21531(16)
C9 C 0.7531(13) 0.04426(19) 0.33286(18)
C10 C 1.0572(13) 0.2024(2) 0.26531(17)
C11 C 0.8604(13) -0.01182(19) 0.32249(18)
C12 C 0.9412(14) 0.2579(2) 0.27327(19)
C13 C 0.5622(11) 0.19913(18) 0.44222(17)
C14 C 1.2864(11) 0.04798(18) 0.15629(16)
C15 C 0.4996(13) 0.2188(2) 0.49205(18)
C16 C 1.3711(12) 0.03183(19) 0.10622(18)
C17 C 0.4036(14) 0.2753(2) 0.5024(2)
C18 C 1.4829(14) -0.0229(2) 0.0940(2)
C19 C 0.3603(15) 0.3129(2) 0.4610(2)
C20 C 1.5147(15) -0.0631(2) 0.1336(2)
C21 C 0.4207(13) 0.2947(2) 0.4110(2)
C22 C 1.4299(15) -0.0495(2) 0.1837(2)
C23 C 0.5177(13) 0.2379(2) 0.40111(19)
C24 C 1.3137(13) 0.0064(2) 0.1953(2)
H1 H 1.225(14) -0.115(2) 0.3728(18)
H2 H 1.195(9) -0.0455(14) 0.4385(12)
H3 H 0.994(9) 0.0495(15) 0.4582(13)
H4 H 0.624(10) 0.0676(15) 0.3052(13)
H5 H 0.840(9) -0.0306(14) 0.2876(12)
H6 H 0.349(11) 0.2875(17) 0.5386(15)
H7 H 0.315(10) 0.3522(15) 0.4696(13)
H8 H 0.394(10) 0.3245(16) 0.3820(14)
H9 H 0.586(9) 0.2260(15) 0.3670(13)
H10 H 0.566(11) 0.3543(18) 0.2179(14)
H11 H 0.646(9) 0.2901(13) 0.1545(11)
H12 H 0.846(9) 0.1899(15) 0.1415(13)
H13 H 1.146(10) 0.1783(15) 0.2939(13)
H14 H 0.951(10) 0.2741(15) 0.3076(14)
H15 H 1.561(11) -0.0299(18) 0.0593(15)
H16 H 1.585(11) -0.1020(17) 0.1262(15)
H17 H 1.433(11) -0.0768(16) 0.2123(14)
H18 H 1.253(11) 0.0155(18) 0.2285(15)
#END
