
#######################################################################
#
#                 Cambridge Crystallographic Data Centre
#                                CCDC
#
#######################################################################
#
# If this CIF has been generated from an entry in the Cambridge
# Structural Database, then it will include bibliographic, chemical,
# crystal, experimental, refinement or atomic coordinate data resulting
# from the CCDC's data processing and validation procedures.
#
#######################################################################

data_CSD_CIF_YEJNAC01
_audit_creation_date 2001-10-24
_audit_creation_method CSD-ConQuest-V1
_database_code_CSD YEJNAC01
_database_code_depnum_ccdc_archive 'CCDC 170196'
_chemical_formula_sum 'C12 H9 N3 O3'
_chemical_formula_moiety
;
C12 H9 N3 O3
;
_journal_coeditor_code "IUCr NA1519"
_journal_coden_Cambridge 591
_journal_volume 57
_journal_year 2001
_journal_page_first 961
_journal_name_full 'Acta Crystallogr.,Sect.C:Cryst.Struct.Commun. '
loop_
_publ_author_name
"A.V.Yatsenko"
"K.A.Paseshnichenko"
_chemical_name_systematic
;
4-((2-Nitrophenyl)azo)phenol
;
_cell_volume    549.428
_exptl_crystal_colour 'yellow-brown'
_exptl_crystal_density_diffrn 1.47
_exptl_special_details
;
triclinic polymorph

;
_exptl_crystal_description 'prism'
_diffrn_ambient_temperature 293
#These two values have been output from a single CSD field.
_refine_ls_R_factor_gt 0.038
_refine_ls_wR_factor_gt 0.038
_symmetry_cell_setting triclinic
_symmetry_space_group_name_H-M 'P -1'
_symmetry_Int_Tables_number 2
loop_
_symmetry_equiv_pos_site_id
_symmetry_equiv_pos_as_xyz
1 x,y,z
2 -x,-y,-z
_cell_length_a 7.114(2)
_cell_length_b 7.380(2)
_cell_length_c 10.849(4)
_cell_angle_alpha 96.68(2)
_cell_angle_beta 97.49(2)
_cell_angle_gamma 100.54(2)
_cell_formula_units_Z 2
loop_
_atom_type_symbol
_atom_type_radius_bond
C 0.68
H 0.23
N 0.68
O 0.68
loop_
_atom_site_label
_atom_site_type_symbol
_atom_site_fract_x
_atom_site_fract_y
_atom_site_fract_z
O1 O -0.11585(15) 0.09869(18) 0.11935(9)
O2 O 0.42739(15) 0.09597(17) 0.77164(10)
O3 O 0.53975(17) 0.2873(2) 0.93921(11)
N1 N 0.55694(16) 0.26659(17) 0.46467(10)
N2 N 0.54162(15) 0.26991(16) 0.57761(10)
N3 N 0.55263(17) 0.2176(2) 0.83473(11)
C1 C 0.04451(19) 0.1421(2) 0.20802(12)
C2 C 0.0354(2) 0.1219(2) 0.33272(13)
C3 C 0.2008(2) 0.1632(2) 0.41883(13)
C4 C 0.37845(19) 0.22757(18) 0.38277(12)
C5 C 0.3859(2) 0.2484(2) 0.25806(13)
C6 C 0.2206(2) 0.2066(2) 0.17076(13)
C7 C 0.72440(18) 0.30347(18) 0.65783(12)
C8 C 0.72971(18) 0.28328(19) 0.78406(12)
C9 C 0.8999(2) 0.3224(2) 0.86705(14)
C10 C 1.0711(2) 0.3820(2) 0.82508(14)
C11 C 1.0703(2) 0.4035(2) 0.70105(14)
C12 C 0.8998(2) 0.3654(2) 0.61888(14)
H1 H -0.219(3) 0.042(3) 0.1592(19)
H2 H 0.1982(18) 0.1473(19) 0.5012(13)
H3 H -0.093(2) 0.075(2) 0.3550(13)
H4 H 0.894(2) 0.377(2) 0.5325(16)
H5 H 0.5128(19) 0.2895(19) 0.2342(12)
H6 H 1.186(2) 0.448(2) 0.6670(13)
H7 H 1.188(2) 0.409(2) 0.8824(13)
H8 H 0.229(2) 0.221(2) 0.0833(14)
H9 H 0.896(2) 0.307(2) 0.9439(14)
#END
