
#######################################################################
#
#                 Cambridge Crystallographic Data Centre
#                                CCDC
#
#######################################################################
#
# If this CIF has been generated from an entry in the Cambridge
# Structural Database, then it will include bibliographic, chemical,
# crystal, experimental, refinement or atomic coordinate data resulting
# from the CCDC's data processing and validation procedures.
#
#######################################################################

data_CSD_CIF_YEKFUR
_audit_creation_date 2012-12-31
_audit_creation_method CSD-ConQuest-V1
_database_code_CSD YEKFUR
_database_code_depnum_ccdc_archive 'CCDC 771681'
_chemical_formula_sum 'C12 H21 N1 O6'
_chemical_formula_moiety
;
C12 H21 N1 O6
;
_journal_coden_Cambridge 1532
_journal_volume 87
_journal_year 2010
_journal_page_first 218
_journal_name_full 'Organic Syntheses '
loop_
_publ_author_name
"Lei Ju"
"J.W.Bode"
_chemical_name_systematic
;
(2,2-Dimethyl-1,3-dioxolan-4-yl)(5-((hydroxyimino)methyl)-2,2-dimethyl-1,3-dio
xolan-4-yl)methanol
;
_cell_volume   2825.606
_exptl_crystal_density_diffrn 1.294
_diffrn_ambient_temperature 143
#These two values have been output from a single CSD field.
_refine_ls_R_factor_gt 0.0259
_refine_ls_wR_factor_gt 0.0259
_symmetry_cell_setting orthorhombic
_symmetry_space_group_name_H-M 'P 21 21 21'
_symmetry_Int_Tables_number 19
loop_
_symmetry_equiv_pos_site_id
_symmetry_equiv_pos_as_xyz
1 x,y,z
2 1/2+x,1/2-y,-z
3 -x,1/2+y,1/2-z
4 1/2-x,-y,1/2+z
_cell_length_a 10.8192(17)
_cell_length_b 10.8801(18)
_cell_length_c 24.004(4)
_cell_angle_alpha 90
_cell_angle_beta 90
_cell_angle_gamma 90
_cell_formula_units_Z 8
loop_
_atom_type_symbol
_atom_type_radius_bond
C 0.68
H 0.23
N 0.68
O 0.68
loop_
_atom_site_label
_atom_site_type_symbol
_atom_site_fract_x
_atom_site_fract_y
_atom_site_fract_z
C1 C 0.93002(12) 0.67717(12) 0.63872(5)
H1 H 0.94930 0.73880 0.61020
C2 C 0.94021(12) 0.78314(12) 0.72055(6)
C3 C 0.79601(12) 0.69718(12) 0.66009(5)
H2 H 0.75240 0.75350 0.63500
C4 C 0.72043(12) 0.58013(12) 0.66725(5)
H3 H 0.70780 0.54260 0.63060
C5 C 0.59574(13) 0.60802(12) 0.69262(6)
H4 H 0.60640 0.63690 0.73100
C6 C 0.51577(13) 0.69879(15) 0.66020(7)
H5 H 0.51260 0.77740 0.67920
H6 H 0.54880 0.71140 0.62310
C7 C 0.39575(13) 0.53777(13) 0.69102(6)
C8 C 0.97441(15) 0.75752(13) 0.78000(6)
H7 H 0.93250 0.81460 0.80400
H8 H 1.06210 0.76640 0.78460
H9 H 0.95050 0.67520 0.78950
C9 C 0.96614(15) 0.91476(13) 0.70316(6)
H10 H 0.94470 0.92540 0.66470
H11 H 1.05240 0.93240 0.70820
H12 H 0.91780 0.96980 0.72560
C10 C 0.35018(16) 0.56709(18) 0.74899(7)
H13 H 0.34750 0.49310 0.77070
H14 H 0.26880 0.60200 0.74680
H15 H 0.40530 0.62480 0.76630
C11 C 0.31870(15) 0.44168(16) 0.66244(7)
H16 H 0.35220 0.42540 0.62610
H17 H 0.23530 0.47080 0.65880
H18 H 0.31940 0.36750 0.68410
C12 C 0.95835(12) 0.55170(13) 0.61668(6)
H19 H 1.00630 0.50100 0.63920
N1 N 0.92352(11) 0.50772(11) 0.57043(5)
O1 O 1.00493(8) 0.69745(8) 0.68633(4)
O2 O 0.81246(9) 0.75441(9) 0.71286(4)
O3 O 0.78705(9) 0.49676(8) 0.70123(4)
H20 H 0.77390 0.42630 0.69070
O4 O 0.39736(10) 0.64574(10) 0.65752(5)
O5 O 0.52153(8) 0.49777(8) 0.69222(4)
O6 O 0.84958(10) 0.59213(9) 0.54100(4)
H21 H 0.83080 0.56290 0.51070
C13 C 0.70710(13) 0.10482(12) 0.57911(5)
H22 H 0.62640 0.07540 0.59190
C14 C 0.76840(14) -0.03767(12) 0.51474(5)
C15 C 0.69291(13) 0.16377(12) 0.52058(5)
H23 H 0.60510 0.17650 0.51240
C16 C 0.76300(12) 0.28337(11) 0.51193(5)
H24 H 0.72380 0.34800 0.53420
C17 C 0.76216(12) 0.32171(11) 0.45132(5)
H25 H 0.81420 0.26580 0.42950
C18 C 0.63748(14) 0.33453(13) 0.42400(6)
H26 H 0.61040 0.25700 0.40820
H27 H 0.57600 0.36310 0.45040
C19 C 0.76367(14) 0.49511(12) 0.39530(5)
C20 C 0.88730(16) -0.09078(15) 0.49326(7)
H28 H 0.95240 -0.03160 0.49760
H29 H 0.87830 -0.11100 0.45450
H30 H 0.90730 -0.16370 0.51390
C21 C 0.66091(16) -0.12602(13) 0.51124(6)
H31 H 0.68080 -0.20000 0.53110
H32 H 0.64470 -0.14540 0.47290
H33 H 0.58890 -0.08880 0.52750
C22 C 0.85899(17) 0.47898(15) 0.35005(6)
H34 H 0.88280 0.39410 0.34800
H35 H 0.93020 0.52830 0.35840
H36 H 0.82460 0.50420 0.31500
C23 C 0.72823(17) 0.62712(13) 0.40507(6)
H37 H 0.70110 0.66310 0.37070
H38 H 0.79850 0.67160 0.41890
H39 H 0.66250 0.63080 0.43190
C24 C 0.76321(14) 0.18488(12) 0.62296(5)
H40 H 0.84440 0.16780 0.63310
N2 N 0.71074(12) 0.27414(10) 0.64783(5)
O7 O 0.78680(9) 0.00269(8) 0.57045(4)
O8 O 0.74167(11) 0.07207(8) 0.48427(4)
O9 O 0.88670(9) 0.26800(9) 0.53021(4)
H41 H 0.91280 0.33340 0.54240
O10 O 0.65848(11) 0.42332(10) 0.38157(4)
O11 O 0.80928(9) 0.44580(8) 0.44703(4)
O12 O 0.58946(9) 0.29152(10) 0.62794(4)
H42 H 0.55760 0.34970 0.64420
#END
