
#######################################################################
#
#                 Cambridge Crystallographic Data Centre
#                                CCDC
#
#######################################################################
#
# If this CIF has been generated from an entry in the Cambridge
# Structural Database, then it will include bibliographic, chemical,
# crystal, experimental, refinement or atomic coordinate data resulting
# from the CCDC's data processing and validation procedures.
#
#######################################################################

data_CSD_CIF_YEKQAG03
_audit_creation_date 2014-05-28
_audit_creation_method CSD-ConQuest-V1
_database_code_CSD YEKQAG03
_database_code_depnum_ccdc_archive 'CCDC 938305'
_chemical_formula_sum 'C4 H4 N6 O5'
_chemical_formula_moiety
;
C4 H4 N6 O5
;
_journal_coden_Cambridge 702
_journal_volume 30
_journal_year 2014
_journal_page_first 696
_journal_name_full 'Wuji Huaxue Xuebao(Chin.)(Chin.J.Inorg.Chem.) '
loop_
_publ_author_name
"Jin-jian Liu"
"Zu-liang Liu"
"Jian Cheng"
_chemical_name_systematic
;
2,6-Diamino-3,5-dinitropyrazine-1-oxide
;
_cell_volume    748.842
_exptl_crystal_density_diffrn 1.917
_diffrn_ambient_temperature 293
#These two values have been output from a single CSD field.
_refine_ls_R_factor_gt 0.0263
_refine_ls_wR_factor_gt 0.0263
_symmetry_cell_setting monoclinic
_symmetry_space_group_name_H-M 'P 21/n'
_symmetry_Int_Tables_number 14
loop_
_symmetry_equiv_pos_site_id
_symmetry_equiv_pos_as_xyz
1 x,y,z
2 1/2-x,1/2+y,1/2-z
3 -x,-y,-z
4 -1/2+x,-1/2-y,-1/2+z
_cell_length_a 5.7430(11)
_cell_length_b 15.825(3)
_cell_length_c 8.3930(17)
_cell_angle_alpha 90
_cell_angle_beta 100.97(3)
_cell_angle_gamma 90
_cell_formula_units_Z 4
loop_
_atom_type_symbol
_atom_type_radius_bond
C 0.68
H 0.23
N 0.68
O 0.68
loop_
_atom_site_label
_atom_site_type_symbol
_atom_site_fract_x
_atom_site_fract_y
_atom_site_fract_z
N1 N 0.65668(16) 0.40541(5) 0.0299(1)
O1 O 0.86311(14) 0.43812(5) 0.09829(9)
C1 C 0.5709(2) 0.42094(7) -0.13111(12)
N2 N 0.22577(16) 0.33899(5) -0.10697(11)
C2 C 0.3440(2) 0.38504(7) -0.19418(13)
O2 O 0.03500(16) 0.36541(6) -0.41029(9)
N3 N 0.70829(17) 0.46778(6) -0.20379(11)
H1 H 0.84120 0.48620 -0.15020
H2 H 0.66530 0.48000 -0.30500
O3 O 0.32485(17) 0.44623(6) -0.4433(1)
C3 C 0.3144(2) 0.32683(6) 0.04599(13)
C4 C 0.5360(2) 0.35942(7) 0.12601(12)
O4 O 0.00817(17) 0.23521(6) 0.06095(10)
N4 N 0.64129(17) 0.35193(6) 0.27895(11)
H3 H 0.77710 0.37520 0.31240
H4 H 0.57430 0.32380 0.34540
O5 O 0.20610(16) 0.28544(6) 0.28308(9)
N5 N 0.22626(18) 0.39940(6) -0.36034(11)
N6 N 0.16800(17) 0.27872(6) 0.13594(11)
#END
