
#######################################################################
#
#                 Cambridge Crystallographic Data Centre
#                                CCDC
#
#######################################################################
#
# If this CIF has been generated from an entry in the Cambridge
# Structural Database, then it will include bibliographic, chemical,
# crystal, experimental, refinement or atomic coordinate data resulting
# from the CCDC's data processing and validation procedures.
#
#######################################################################

data_CSD_CIF_YEKQAG01
_audit_creation_date 2004-01-22
_audit_creation_method CSD-ConQuest-V1
_database_code_CSD YEKQAG01
_database_code_depnum_ccdc_archive 'CCDC 273636'
_chemical_formula_sum 'C4 H4 N6 O5'
_chemical_formula_moiety
;
C4 H4 N6 O5
;
_journal_coden_Cambridge 119
_journal_volume 606
_journal_year 2002
_journal_page_first 139
_journal_name_full 'J.Mol.Struct. '
loop_
_publ_author_name
"B.B.Averkiev"
"M.Yu.Antipin"
"I.L.Yudin"
"A.B.Sheremetev"
_chemical_name_systematic
;
2,6-Diamino-3,5-dinitropyrazine-1-oxide
;
_chemical_melting_point 607.15
_cell_volume    746.912
_exptl_crystal_colour 'yellow'
_exptl_crystal_density_diffrn 1.922
_exptl_special_details
;
Melts with decomposition.

;
_exptl_crystal_description 'plate'
_exptl_crystal_preparation 'acetic acid'
_diffrn_ambient_temperature 293
#These two values have been output from a single CSD field.
_refine_ls_R_factor_gt 0.072
_refine_ls_wR_factor_gt 0.072
_symmetry_cell_setting monoclinic
_symmetry_space_group_name_H-M 'P 21/n'
_symmetry_Int_Tables_number 14
loop_
_symmetry_equiv_pos_site_id
_symmetry_equiv_pos_as_xyz
1 x,y,z
2 1/2-x,1/2+y,1/2-z
3 -x,-y,-z
4 -1/2+x,-1/2-y,-1/2+z
_cell_length_a 5.709(2)
_cell_length_b 15.844(8)
_cell_length_c 8.416(3)
_cell_angle_alpha 90
_cell_angle_beta 101.14(3)
_cell_angle_gamma 90
_cell_formula_units_Z 4
loop_
_atom_type_symbol
_atom_type_radius_bond
C 0.68
H 0.23
N 0.68
O 0.68
loop_
_atom_site_label
_atom_site_type_symbol
_atom_site_fract_x
_atom_site_fract_y
_atom_site_fract_z
N1 N -0.2242(5) 0.16100(16) 1.1086(3)
C1 C -0.3163(6) 0.1730(2) 0.9545(4)
C2 C -0.5373(6) 0.14024(19) 0.8754(4)
N2 N -0.6582(5) 0.09446(17) 0.9714(3)
C3 C -0.5700(6) 0.0796(2) 1.1323(4)
C4 C -0.3453(6) 0.11513(19) 1.1948(4)
N3 N -0.2242(5) 0.10052(18) 1.3615(3)
O1 O -0.3245(5) 0.05328(17) 1.4445(3)
O2 O -0.0335(5) 0.13475(18) 1.4116(3)
N4 N -0.1666(5) 0.22091(18) 0.8661(3)
O3 O -0.2059(5) 0.21498(19) 0.7189(3)
O4 O -0.0077(5) 0.26493(18) 0.9401(3)
N5 N -0.7076(5) 0.03241(17) 1.2054(3)
H1 H -0.85720 0.01800 1.14370
H2 H -0.65660 0.02270 1.31290
N6 N -0.6392(5) 0.14837(18) 0.7230(3)
H3 H -0.78820 0.12730 0.69030
H4 H -0.56540 0.17460 0.65540
O5 O -0.8632(4) 0.06190(16) 0.9026(3)
#END
