
#######################################################################
#
#                 Cambridge Crystallographic Data Centre
#                                CCDC
#
#######################################################################
#
# If this CIF has been generated from an entry in the Cambridge
# Structural Database, then it will include bibliographic, chemical,
# crystal, experimental, refinement or atomic coordinate data resulting
# from the CCDC's data processing and validation procedures.
#
#######################################################################

data_CSD_CIF_YEKTOY
_audit_creation_date 2006-09-07
_audit_creation_method CSD-ConQuest-V1
_database_code_CSD YEKTOY
_database_code_depnum_ccdc_archive 'CCDC 611196'
_chemical_formula_sum 'C20 H22 N2 O5'
_chemical_formula_moiety
;
C20 H22 N2 O5
;
_journal_coden_Cambridge 1336
_journal_volume 8
_journal_year 2006
_journal_page_first 1819
_journal_name_full 'Org.Lett. '
loop_
_publ_author_name
"H.M.Konig"
"R.Abbel"
"D.Schollmeyer"
"A.F.M.Kilbinger"
_chemical_name_systematic
;
N-hexyl-4-(4-nitrobenzamido)benzoic acid
;
_cell_volume   3827.314
_exptl_crystal_colour 'colorless'
_exptl_crystal_density_diffrn 1.286
_exptl_crystal_description 'plate'
_diffrn_ambient_temperature 193
#These two values have been output from a single CSD field.
_refine_ls_R_factor_gt 0.0835
_refine_ls_wR_factor_gt 0.0835
_symmetry_cell_setting monoclinic
_symmetry_space_group_name_H-M 'P 21/c'
_symmetry_Int_Tables_number 14
loop_
_symmetry_equiv_pos_site_id
_symmetry_equiv_pos_as_xyz
1 x,y,z
2 -x,1/2+y,1/2-z
3 -x,-y,-z
4 x,-1/2-y,-1/2+z
_cell_length_a 24.997(5)
_cell_length_b 8.6063(9)
_cell_length_c 19.087(4)
_cell_angle_alpha 90
_cell_angle_beta 111.239(8)
_cell_angle_gamma 90
_cell_formula_units_Z 8
loop_
_atom_type_symbol
_atom_type_radius_bond
C 0.68
H 0.23
N 0.68
O 0.68
loop_
_atom_site_label
_atom_site_type_symbol
_atom_site_fract_x
_atom_site_fract_y
_atom_site_fract_z
C1 C 0.0883(2) 0.6727(6) 0.3463(3)
C2 C 0.0459(2) 0.6439(6) 0.3760(3)
H1 H 0.00730 0.67340 0.34830
C3 C 0.0589(3) 0.5738(6) 0.4445(3)
H2 H 0.02970 0.55150 0.46380
C4 C 0.1158(3) 0.5356(6) 0.4855(3)
C5 C 0.1584(3) 0.5655(7) 0.4580(3)
H3 H 0.19710 0.53870 0.48650
C6 C 0.1448(2) 0.6340(6) 0.3894(3)
H4 H 0.17430 0.65570 0.37060
N1 N 0.1295(3) 0.4567(6) 0.5577(3)
O1 O 0.0894(2) 0.4145(5) 0.5766(3)
O2 O 0.1798(2) 0.4380(8) 0.5961(3)
C7 C 0.0698(2) 0.7477(6) 0.2713(3)
O3 O 0.04178(15) 0.8679(4) 0.2601(2)
N2 N 0.08596(18) 0.6793(5) 0.2179(3)
C8 C 0.1147(2) 0.5325(6) 0.2269(3)
C9 C 0.0909(2) 0.3998(5) 0.2461(3)
H5 H 0.05410 0.40420 0.24990
C10 C 0.12129(19) 0.2620(5) 0.2593(3)
H6 H 0.10560 0.17110 0.27270
C11 C 0.17454(19) 0.2573(5) 0.2530(3)
C12 C 0.1967(2) 0.3867(6) 0.2310(3)
H7 H 0.23280 0.38080 0.22510
C13 C 0.1670(2) 0.5243(6) 0.2176(3)
H8 H 0.18220 0.61340 0.20190
C14 C 0.2111(2) 0.1165(5) 0.2708(3)
O4 O 0.18877(14) -0.0041(4) 0.2922(2)
H9 H 0.21220 -0.07830 0.30240
O5 O 0.25949(14) 0.1160(4) 0.2692(2)
C15 C 0.0679(3) 0.7510(7) 0.1433(4)
H10 H 0.10120 0.75680 0.12700
H11 H 0.05470 0.85850 0.14640
C16 C 0.0204(3) 0.6625(8) 0.0858(4)
H12 H 0.03400 0.55590 0.08210
H13 H 0.01140 0.71310 0.03620
C17 C -0.0343(3) 0.6524(7) 0.1033(4)
H14 H -0.04720 0.75810 0.11040
H15 H -0.02690 0.59310 0.15030
C18 C -0.0809(3) 0.5717(8) 0.0384(4)
H16 H -0.08530 0.62670 -0.00890
H17 H -0.06840 0.46420 0.03400
C19 C -0.1360(3) 0.5664(9) 0.0467(5)
H18 H -0.14810 0.67360 0.05260
H19 H -0.13210 0.50820 0.09310
C20 C -0.1838(3) 0.4876(9) -0.0220(4)
H20 H -0.22020 0.48770 -0.01360
H21 H -0.17260 0.38030 -0.02720
H22 H -0.18830 0.54560 -0.06800
C21 C 0.4087(2) -0.7902(6) 0.2021(3)
C22 C 0.3498(2) -0.8028(6) 0.1806(3)
H23 H 0.33370 -0.83480 0.21630
C23 C 0.3140(2) -0.7695(7) 0.1078(3)
H24 H 0.27360 -0.78240 0.09230
C24 C 0.3388(2) -0.7170(6) 0.0585(3)
C25 C 0.3967(2) -0.6987(6) 0.0790(3)
H25 H 0.41260 -0.65890 0.04430
C26 C 0.4316(2) -0.7390(6) 0.1507(3)
H26 H 0.47210 -0.73140 0.16490
N3 N 0.3009(3) -0.6802(7) -0.0186(3)
O6 O 0.3178(2) -0.5810(6) -0.0524(3)
O7 O 0.2562(2) -0.7525(7) -0.0457(3)
C27 C 0.4472(2) -0.8465(6) 0.2777(3)
O8 O 0.48035(19) -0.9541(5) 0.2811(2)
N4 N 0.44213(18) -0.7806(5) 0.3392(3)
C28 C 0.4096(2) -0.6414(6) 0.3356(3)
C29 C 0.4245(2) -0.5061(6) 0.3087(3)
H27 H 0.45600 -0.50520 0.29210
C30 C 0.3936(2) -0.3721(6) 0.3059(3)
H28 H 0.40410 -0.27850 0.28780
C31 C 0.3474(2) -0.3735(6) 0.3295(3)
C32 C 0.3336(2) -0.5091(6) 0.3580(3)
H29 H 0.30260 -0.50960 0.37570
C33 C 0.3642(2) -0.6426(6) 0.3608(3)
H30 H 0.35430 -0.73560 0.37990
C34 C 0.3114(2) -0.2332(6) 0.3237(3)
O9 O 0.33224(15) -0.1070(4) 0.3047(2)
H31 H 0.30920 -0.03300 0.29980
O10 O 0.26574(14) -0.2368(4) 0.3331(2)
C35 C 0.4708(3) -0.8513(7) 0.4138(3)
H32 H 0.49570 -0.93710 0.40910
H33 H 0.44120 -0.89670 0.43090
C36 C 0.5066(3) -0.7395(8) 0.4726(4)
H34 H 0.52520 -0.79720 0.52010
H35 H 0.48090 -0.66100 0.48160
C37 C 0.5527(3) -0.6556(8) 0.4532(4)
H36 H 0.53410 -0.59750 0.40590
H37 H 0.57130 -0.57880 0.49330
C38 C 0.5977(3) -0.7569(9) 0.4443(5)
H38 H 0.57940 -0.83610 0.40530
H39 H 0.61790 -0.81180 0.49220
C39 C 0.6414(4) -0.6652(14) 0.4219(7)
H40 H 0.62050 -0.60730 0.37510
H41 H 0.65980 -0.58760 0.46170
C40 C 0.6848(4) -0.7526(12) 0.4102(7)
H42 H 0.71020 -0.68320 0.39590
H43 H 0.66750 -0.82830 0.37000
H44 H 0.70710 -0.80750 0.45660
#END
