
#######################################################################
#
#                 Cambridge Crystallographic Data Centre
#                                CCDC
#
#######################################################################
#
# If this CIF has been generated from an entry in the Cambridge
# Structural Database, then it will include bibliographic, chemical,
# crystal, experimental, refinement or atomic coordinate data resulting
# from the CCDC's data processing and validation procedures.
#
#######################################################################

data_CSD_CIF_YELGAY
_audit_creation_date 2006-09-07
_audit_creation_method CSD-ConQuest-V1
_database_code_CSD YELGAY
_database_code_depnum_ccdc_archive 'CCDC 610148'
_chemical_formula_sum 'C30 H20 N4 O4'
_chemical_formula_moiety
;
C30 H20 N4 O4
;
_journal_coden_Cambridge 1145
_journal_volume 16
_journal_year 2006
_journal_page_first 1831
_journal_name_full 'J.Mater.Chem. '
loop_
_publ_author_name
"Guey-Sheng Liou"
"Sheng-Huei Hsiao"
"Hwei-Wen Chen"
_chemical_name_systematic
;
4,4'-Dinitro-4''-N-carbazolyltriphenylamine
;
_chemical_melting_point 575.15
_cell_volume   1224.378
_exptl_crystal_colour 'orange-red'
_exptl_crystal_density_diffrn 1.358
_exptl_special_details
;
Melting point range 575.15-578.15K

;
_exptl_crystal_description 'needles'
_exptl_crystal_preparation 'DMF'
_diffrn_ambient_temperature 293
#These two values have been output from a single CSD field.
_refine_ls_R_factor_gt 0.0527
_refine_ls_wR_factor_gt 0.0527
_symmetry_cell_setting triclinic
_symmetry_space_group_name_H-M 'P -1'
_symmetry_Int_Tables_number 2
loop_
_symmetry_equiv_pos_site_id
_symmetry_equiv_pos_as_xyz
1 x,y,z
2 -x,-y,-z
_cell_length_a 9.254(6)
_cell_length_b 11.130(8)
_cell_length_c 12.368(8)
_cell_angle_alpha 100.153(12)
_cell_angle_beta 97.120(13)
_cell_angle_gamma 98.744(13)
_cell_formula_units_Z 2
loop_
_atom_type_symbol
_atom_type_radius_bond
C 0.68
H 0.23
N 0.68
O 0.68
loop_
_atom_site_label
_atom_site_type_symbol
_atom_site_fract_x
_atom_site_fract_y
_atom_site_fract_z
O1 O 0.5393(2) -0.6881(1) 0.3860(1)
O2 O 0.4366(3) -0.7846(2) 0.2236(1)
O3 O 0.0903(2) -0.2362(2) -0.2732(1)
O4 O -0.0502(2) -0.1168(2) -0.2035(1)
N1 N 0.2596(2) 0.1172(1) 0.5978(1)
N2 N 0.2222(2) -0.2727(1) 0.2301(1)
N3 N 0.4630(2) -0.6927(1) 0.2978(1)
N4 N 0.0393(2) -0.1853(2) -0.1944(1)
C1 C 0.2266(2) 0.2345(2) 0.5926(1)
C2 C 0.1843(2) 0.2834(2) 0.5006(2)
C3 C 0.1556(2) 0.4027(2) 0.5195(2)
C4 C 0.1658(3) 0.4717(2) 0.6266(2)
C5 C 0.2073(2) 0.4232(2) 0.7176(2)
C6 C 0.2393(2) 0.3037(2) 0.7017(2)
C7 C 0.2857(2) 0.2259(2) 0.7756(1)
C8 C 0.3225(2) 0.2433(2) 0.8911(2)
C9 C 0.3647(2) 0.1482(2) 0.9369(2)
C10 C 0.3731(2) 0.0359(2) 0.8698(2)
C11 C 0.3393(2) 0.0152(2) 0.7553(1)
C12 C 0.2957(2) 0.1114(2) 0.7097(1)
C13 C 0.2501(2) 0.0180(1) 0.5052(1)
C14 C 0.1664(2) -0.0970(2) 0.5023(1)
C15 C 0.1572(2) -0.1927(2) 0.4120(1)
C16 C 0.2301(2) -0.1727(2) 0.3237(1)
C17 C 0.3117(2) -0.0576(2) 0.3261(1)
C18 C 0.3240(2) 0.0373(2) 0.4171(1)
C19 C 0.2794(2) -0.3783(2) 0.2471(1)
C20 C 0.3895(2) -0.3709(2) 0.3368(1)
C21 C 0.4476(2) -0.4730(2) 0.3543(1)
C22 C 0.3975(2) -0.5848(2) 0.2811(1)
C23 C 0.2874(2) -0.5965(2) 0.1924(1)
C24 C 0.2273(2) -0.4943(2) 0.1762(1)
C25 C 0.1767(2) -0.2529(2) 0.1229(1)
C26 C 0.2463(2) -0.2944(2) 0.0331(1)
C27 C 0.2013(2) -0.2726(2) -0.0707(1)
C28 C 0.0876(2) -0.2075(2) -0.0842(1)
C29 C 0.0192(2) -0.1632(2) 0.0037(2)
C30 C 0.0635(2) -0.1856(2) 0.1070(1)
H1 H 0.17550 0.23750 0.42880
H2 H 0.12870 0.43820 0.45910
H3 H 0.14430 0.55150 0.63640
H4 H 0.21410 0.46940 0.78900
H5 H 0.31830 0.31860 0.93630
H6 H 0.38800 0.15880 1.01370
H7 H 0.40250 -0.02710 0.90300
H8 H 0.34550 -0.06000 0.71090
H9 H 0.11630 -0.11000 0.56110
H10 H 0.10210 -0.27030 0.41060
H11 H 0.35890 -0.04380 0.26610
H12 H 0.38170 0.11400 0.41930
H13 H 0.42410 -0.29530 0.38550
H14 H 0.52030 -0.46720 0.41500
H15 H 0.25400 -0.67250 0.14400
H16 H 0.15100 -0.50200 0.11750
H17 H 0.32400 -0.33730 0.04370
H18 H 0.24690 -0.30130 -0.13060
H19 H -0.05650 -0.11830 -0.00710
H20 H 0.01780 -0.15580 0.16650
#END
