
#######################################################################
#
#                 Cambridge Crystallographic Data Centre
#                                CCDC
#
#######################################################################
#
# If this CIF has been generated from an entry in the Cambridge
# Structural Database, then it will include bibliographic, chemical,
# crystal, experimental, refinement or atomic coordinate data resulting
# from the CCDC's data processing and validation procedures.
#
#######################################################################

data_CSD_CIF_YELMOR
_audit_creation_date 1995-03-22
_audit_creation_method CSD-ConQuest-V1
_database_code_CSD YELMOR
_database_code_depnum_ccdc_fiz 'CSD 58028'
_chemical_formula_sum 'C17 H20 N2 O9'
_chemical_formula_moiety
;
C17 H20 N2 O9
;
_journal_coden_Cambridge 643
_journal_volume 209
_journal_year 1994
_journal_page_first 808
_journal_name_full 'Z.Krist.Cryst.Mater. '
loop_
_publ_author_name
"P.Dokurno"
"J.Lubkowski"
"H.Myszka"
"Z.Smiatacz"
_chemical_name_systematic
;
N-p-Nitrophenyl-N-(2,3,4-tri-O-acetyl-\b-D-lyxopyranosyl)amine
;
_cell_volume   1926.043
_exptl_crystal_density_diffrn 1.367
_exptl_special_details
;
CSD 58028 not available

;
_diffrn_ambient_temperature ?
_diffrn_special_details
;
The study was carried out at room temperature,in the range 283-303K

;
#These two values have been output from a single CSD field.
_refine_ls_R_factor_gt 0.0501
_refine_ls_wR_factor_gt 0.0501
_symmetry_cell_setting orthorhombic
_symmetry_space_group_name_H-M 'P 21 21 21'
_symmetry_Int_Tables_number 19
loop_
_symmetry_equiv_pos_site_id
_symmetry_equiv_pos_as_xyz
1 x,y,z
2 1/2+x,1/2-y,-z
3 -x,1/2+y,1/2-z
4 1/2-x,-y,1/2+z
_cell_length_a 8.004(2)
_cell_length_b 10.603(2)
_cell_length_c 22.695(5)
_cell_angle_alpha 90
_cell_angle_beta 90
_cell_angle_gamma 90
_cell_formula_units_Z 4
loop_
_atom_type_symbol
_atom_type_radius_bond
C 0.68
N 0.68
O 0.68
loop_
_atom_site_label
_atom_site_type_symbol
_atom_site_fract_x
_atom_site_fract_y
_atom_site_fract_z
C1 C 0.8507(5) 0.5160(3) -0.0583(2)
C2 C 0.7797(4) 0.5714(3) -0.0023(2)
C3 C 0.8712(5) 0.5124(3) 0.0501(2)
C4 C 0.8585(5) 0.3697(3) 0.0472(2)
C5 C 0.9183(5) 0.3233(4) -0.0127(2)
O1 O 0.8272(4) 0.3821(2) -0.0591(1)
N1 N 0.7749(4) 0.5704(3) -0.1092(2)
C6 C 0.8506(5) 0.5671(4) -0.1637(2)
C7 C 0.9908(6) 0.4927(4) -0.1744(2)
C8 C 1.0664(6) 0.4938(5) -0.2285(2)
C9 C 1.0036(7) 0.5691(4) -0.2727(2)
C10 C 0.8666(7) 0.6430(5) -0.2638(2)
C11 C 0.7883(6) 0.6424(5) -0.2090(2)
N2 N 1.0852(8) 0.5681(5) -0.3307(2)
O2 O 1.2087(9) 0.5018(6) -0.3369(2)
O3 O 1.0300(7) 0.6364(4) -0.3690(2)
O4 O 0.6054(3) 0.5373(2) -0.0005(1)
C12 C 0.4983(5) 0.6205(4) 0.0240(2)
O5 O 0.5425(4) 0.7190(3) 0.0456(2)
C13 C 0.3233(5) 0.5742(5) 0.0200(3)
O6 O 0.8014(3) 0.5545(2) 0.1049(1)
C14 C 0.8572(6) 0.6668(4) 0.1253(2)
O7 O 0.9658(5) 0.7261(3) 0.1017(2)
C15 C 0.7614(9) 0.7044(6) 0.1790(2)
O8 O 0.9683(4) 0.3228(3) 0.0924(1)
C16 C 0.9287(7) 0.2136(5) 0.1181(2)
O9 O 0.8129(6) 0.1496(4) 0.1027(2)
C17 C 1.0461(9) 0.1866(6) 0.1670(3)
#END
