
#######################################################################
#
#                 Cambridge Crystallographic Data Centre
#                                CCDC
#
#######################################################################
#
# If this CIF has been generated from an entry in the Cambridge
# Structural Database, then it will include bibliographic, chemical,
# crystal, experimental, refinement or atomic coordinate data resulting
# from the CCDC's data processing and validation procedures.
#
#######################################################################

data_CSD_CIF_YELMUX
_audit_creation_date 1995-03-22
_audit_creation_method CSD-ConQuest-V1
_database_code_CSD YELMUX
_database_code_depnum_ccdc_fiz 'CSD 58028'
_chemical_formula_sum 'C17 H20 N2 O9'
_chemical_formula_moiety
;
C17 H20 N2 O9
;
_journal_coden_Cambridge 643
_journal_volume 209
_journal_year 1994
_journal_page_first 808
_journal_name_full 'Z.Krist.Cryst.Mater. '
loop_
_publ_author_name
"P.Dokurno"
"J.Lubkowski"
"H.Myszka"
"Z.Smiatacz"
_chemical_name_systematic
;
N-p-Nitrophenyl-N-(2,3,4-tri-O-acetyl-\a-L-arabinopyranosyl)amine
;
_cell_volume   3886.392
_exptl_crystal_density_diffrn 1.355
_exptl_special_details
;
CSD 58028 not available

;
_diffrn_ambient_temperature ?
_diffrn_special_details
;
The study was carried out at room temperature,in the range 283-303K

;
#These two values have been output from a single CSD field.
_refine_ls_R_factor_gt 0.0414
_refine_ls_wR_factor_gt 0.0414
_symmetry_cell_setting tetragonal
_symmetry_space_group_name_H-M 'P 43 21 2'
_symmetry_Int_Tables_number 96
loop_
_symmetry_equiv_pos_site_id
_symmetry_equiv_pos_as_xyz
1 x,y,z
2 1/2-y,1/2+x,3/4+z
3 -x,-y,1/2+z
4 1/2+y,1/2-x,1/4+z
5 y,x,-z
6 1/2+x,1/2-y,1/4-z
7 -y,-x,1/2-z
8 1/2-x,1/2+y,3/4-z
_cell_length_a 9.704(2)
_cell_length_b 9.704(2)
_cell_length_c 41.271(9)
_cell_angle_alpha 90
_cell_angle_beta 90
_cell_angle_gamma 90
_cell_formula_units_Z 8
loop_
_atom_type_symbol
_atom_type_radius_bond
C 0.68
N 0.68
O 0.68
loop_
_atom_site_label
_atom_site_type_symbol
_atom_site_fract_x
_atom_site_fract_y
_atom_site_fract_z
C1 C 0.5378(3) 0.9739(3) 0.0199(1)
C2 C 0.6083(3) 0.8609(3) 0.0391(1)
C3 C 0.6643(3) 0.9174(3) 0.0707(1)
C4 C 0.7591(3) 1.0395(3) 0.0643(1)
C5 C 0.6826(4) 1.1433(3) 0.0441(1)
O1 O 0.6334(2) 1.0836(2) 0.0145(1)
N1 N 0.4959(3) 0.9228(3) -0.0107(1)
C6 C 0.4212(3) 0.9986(3) -0.0330(1)
C7 C 0.3594(4) 1.1237(3) -0.0251(1)
C8 C 0.2858(4) 1.1953(3) -0.0479(1)
C9 C 0.2727(3) 1.1452(3) -0.0785(1)
C10 C 0.3330(3) 1.0216(3) -0.0871(1)
C11 C 0.4053(3) 0.9488(3) -0.0643(1)
N2 N 0.1982(3) 1.2265(3) -0.1023(1)
O2 O 0.1388(3) 1.3318(3) -0.0931(1)
O3 O 0.1961(3) 1.1878(3) -0.1304(1)
O4 O 0.5079(2) 0.7569(2) 0.0466(1)
C12 C 0.5468(3) 0.6252(3) 0.0446(1)
O5 O 0.6564(2) 0.5871(2) 0.0355(1)
C13 C 0.4382(5) 0.5312(4) 0.0566(2)
O6 O 0.7356(2) 0.8061(2) 0.0859(1)
C14 C 0.7460(3) 0.8088(3) 0.1185(1)
O7 O 0.6972(3) 0.8970(3) 0.1346(1)
C15 C 0.8245(4) 0.6860(4) 0.1302(1)
O8 O 0.8766(2) 0.9924(2) 0.0460(1)
C16 C 0.9904(3) 0.9557(3) 0.0627(1)
O9 O 1.0028(3) 0.9677(3) 0.0912(1)
C17 C 1.0990(4) 0.9018(5) 0.0405(1)
#END
