
#######################################################################
#
#                 Cambridge Crystallographic Data Centre
#                                CCDC
#
#######################################################################
#
# If this CIF has been generated from an entry in the Cambridge
# Structural Database, then it will include bibliographic, chemical,
# crystal, experimental, refinement or atomic coordinate data resulting
# from the CCDC's data processing and validation procedures.
#
#######################################################################

data_CSD_CIF_YELNAE
_audit_creation_date 1995-03-22
_audit_creation_method CSD-ConQuest-V1
_database_code_CSD YELNAE
_database_code_depnum_ccdc_fiz 'CSD 58028'
_chemical_formula_sum 'C19 H22 N2 O10'
_chemical_formula_moiety
;
C19 H22 N2 O10
;
_journal_coden_Cambridge 643
_journal_volume 209
_journal_year 1994
_journal_page_first 808
_journal_name_full 'Z.Krist.Cryst.Mater. '
loop_
_publ_author_name
"P.Dokurno"
"J.Lubkowski"
"H.Myszka"
"Z.Smiatacz"
_chemical_name_systematic
;
N-Acetyl-N-p-nitrophenyl-N-(2,3,4-tri-O-acetyl-\a-L-arabinopyranosyl)amine
;
_cell_volume   2186.189
_exptl_crystal_density_diffrn 1.332
_exptl_special_details
;
CSD 58028 not available

;
_diffrn_ambient_temperature ?
_diffrn_special_details
;
The study was carried out at room temperature,in the range 283-303K

;
#These two values have been output from a single CSD field.
_refine_ls_R_factor_gt 0.0584
_refine_ls_wR_factor_gt 0.0584
_symmetry_cell_setting orthorhombic
_symmetry_space_group_name_H-M 'P 21 21 21'
_symmetry_Int_Tables_number 19
loop_
_symmetry_equiv_pos_site_id
_symmetry_equiv_pos_as_xyz
1 x,y,z
2 1/2+x,1/2-y,-z
3 -x,1/2+y,1/2-z
4 1/2-x,-y,1/2+z
_cell_length_a 8.132(2)
_cell_length_b 12.705(2)
_cell_length_c 21.160(4)
_cell_angle_alpha 90
_cell_angle_beta 90
_cell_angle_gamma 90
_cell_formula_units_Z 4
loop_
_atom_type_symbol
_atom_type_radius_bond
C 0.68
N 0.68
O 0.68
loop_
_atom_site_label
_atom_site_type_symbol
_atom_site_fract_x
_atom_site_fract_y
_atom_site_fract_z
C1 C 0.4448(9) 0.5978(6) 0.0663(3)
C2 C 0.3781(9) 0.4996(5) 0.0334(3)
C3 C 0.4193(9) 0.5079(6) -0.0354(3)
C4 C 0.3401(9) 0.6062(5) -0.0635(3)
C5 C 0.3971(12) 0.7006(6) -0.0251(3)
O1 O 0.3634(7) 0.6869(4) 0.0402(2)
N1 N 0.4261(6) 0.5994(5) 0.1338(2)
C6 C 0.5393(10) 0.6571(6) 0.1675(3)
O2 O 0.6591(7) 0.6947(4) 0.1420(2)
C7 C 0.5050(12) 0.6733(7) 0.2365(3)
C8 C 0.2813(9) 0.5529(6) 0.1621(3)
C9 C 0.1273(10) 0.5950(7) 0.1512(3)
C10 C -0.0102(9) 0.5515(8) 0.1787(4)
C11 C 0.0107(10) 0.4656(6) 0.2173(3)
C12 C 0.1620(9) 0.4218(6) 0.2294(3)
C13 C 0.2982(9) 0.4676(6) 0.2005(3)
N2 N -0.1383(10) 0.4189(7) 0.2451(4)
O3 O -0.1161(8) 0.3473(5) 0.2841(3)
O4 O -0.2724(8) 0.4480(6) 0.2283(4)
O5 O 0.4551(6) 0.4080(4) 0.0591(2)
C14 C 0.3587(14) 0.3209(6) 0.0660(4)
O6 O 0.2126(9) 0.3221(5) 0.0578(3)
C15 C 0.4604(18) 0.2290(8) 0.0870(6)
O7 O 0.3708(6) 0.4136(4) -0.0669(2)
C16 C 0.4599(11) 0.3887(7) -0.1199(3)
O8 O 0.5689(7) 0.4417(5) -0.1393(3)
C17 C 0.3989(14) 0.2885(9) -0.1471(6)
O9 O 0.1654(6) 0.5990(4) -0.0568(2)
C18 C 0.0787(10) 0.5626(6) -0.1070(4)
O10 O 0.1400(9) 0.5302(5) -0.1538(3)
C19 C -0.104(1) 0.5704(8) -0.0939(5)
#END
