
#######################################################################
#
#                 Cambridge Crystallographic Data Centre
#                                CCDC
#
#######################################################################
#
# If this CIF has been generated from an entry in the Cambridge
# Structural Database, then it will include bibliographic, chemical,
# crystal, experimental, refinement or atomic coordinate data resulting
# from the CCDC's data processing and validation procedures.
#
#######################################################################

data_CSD_CIF_YELPOU
_audit_creation_date 1995-03-22
_audit_creation_method CSD-ConQuest-V1
_database_code_CSD YELPOU
_database_code_depnum_ccdc_fiz 'CSD 57581'
_chemical_formula_sum 'C19 H21 N3 O2'
_chemical_formula_moiety
;
C19 H21 N3 O2
;
_journal_coden_Cambridge 643
_journal_volume 209
_journal_year 1994
_journal_page_first 823
_journal_name_full 'Z.Krist.Cryst.Mater. '
loop_
_publ_author_name
"N.Sukumar"
"M.N.Ponnuswamy"
"R.Vijayalakshmi"
"R.Jeyaraman"
_chemical_name_systematic
;
3,5-Dimethyl-N-nitroso-4-oximino-2,6-diphenyl piperidin-4-one
;
_cell_volume    858.372
_exptl_crystal_colour 'colorless'
_exptl_crystal_density_diffrn 1.251
_exptl_special_details
;
CSD 57581 not available

;
_diffrn_ambient_temperature ?
_diffrn_special_details
;
The study was carried out at room temperature,in the range 283-303K

;
#These two values have been output from a single CSD field.
_refine_ls_R_factor_gt 0.058
_refine_ls_wR_factor_gt 0.058
_symmetry_cell_setting triclinic
_symmetry_space_group_name_H-M 'P -1'
_symmetry_Int_Tables_number 2
loop_
_symmetry_equiv_pos_site_id
_symmetry_equiv_pos_as_xyz
1 x,y,z
2 -x,-y,-z
_cell_length_a 9.877(2)
_cell_length_b 10.587(2)
_cell_length_c 8.309(2)
_cell_angle_alpha 96.96(1)
_cell_angle_beta 93.21(1)
_cell_angle_gamma 94.13(1)
_cell_formula_units_Z 2
loop_
_atom_type_symbol
_atom_type_radius_bond
C 0.68
N 0.68
O 0.68
loop_
_atom_site_label
_atom_site_type_symbol
_atom_site_fract_x
_atom_site_fract_y
_atom_site_fract_z
O1 O 0.8352(3) 0.5185(2) 1.0830(3)
O2 O 0.9584(2) -0.0250(2) 0.6760(3)
N1 N 0.7530(3) 0.3411(2) 0.9431(3)
N2 N 0.7787(3) 0.4110(3) 1.0891(4)
N3 N 0.9165(3) 0.0855(2) 0.6115(3)
C1 C 0.7160(3) 0.2044(3) 0.9531(4)
C2 C 0.8340(3) 0.1294(3) 0.8852(4)
C3 C 0.8532(3) 0.1565(3) 0.7150(4)
C4 C 0.7969(3) 0.2744(3) 0.6560(4)
C5 C 0.8065(3) 0.3864(3) 0.7971(4)
C6 C 0.8646(4) 0.3151(3) 0.5089(4)
C7 C 0.9653(4) 0.1679(4) 0.9903(4)
C8 C 0.7317(3) 0.4981(3) 0.7463(4)
C9 C 0.8067(4) 0.6033(3) 0.7064(5)
C10 C 0.7393(5) 0.7034(4) 0.6480(6)
C11 C 0.6012(5) 0.6950(4) 0.6318(5)
C12 C 0.5256(4) 0.5926(4) 0.6735(5)
C13 C 0.5924(4) 0.4913(3) 0.7296(4)
C14 C 0.5753(3) 0.1609(3) 0.8771(4)
C15 C 0.5438(4) 0.0522(4) 0.7683(5)
C16 C 0.4138(4) 0.0157(4) 0.7074(6)
C17 C 0.3094(4) 0.0887(4) 0.7533(6)
C18 C 0.3367(4) 0.1964(4) 0.8623(6)
C19 C 0.4666(4) 0.2324(3) 0.9246(5)
#END
