
#######################################################################
#
#                 Cambridge Crystallographic Data Centre
#                                CCDC
#
#######################################################################
#
# If this CIF has been generated from an entry in the Cambridge
# Structural Database, then it will include bibliographic, chemical,
# crystal, experimental, refinement or atomic coordinate data resulting
# from the CCDC's data processing and validation procedures.
#
#######################################################################

data_CSD_CIF_YELQOW
_audit_creation_date 2006-09-07
_audit_creation_method CSD-ConQuest-V1
_database_code_CSD YELQOW
_database_code_depnum_ccdc_archive 'CCDC 279637'
_chemical_formula_sum 'C6 H7 N1 O2'
_chemical_formula_moiety
;
C6 H7 N1 O2
;
_journal_coden_Cambridge 1147
_journal_volume 6
_journal_year 2006
_journal_page_first 1278
_journal_name_full 'Cryst.Growth Des. '
loop_
_publ_author_name
"B.K.Saha"
"A.Nangia"
"J.-F.Nicoud"
_chemical_name_systematic
;
3-Hydroxy-2-methylpyridine-N-oxide
;
_cell_volume    598.160
_exptl_crystal_colour 'colorless'
_exptl_crystal_density_diffrn 1.389
_exptl_crystal_description 'plate'
_diffrn_ambient_temperature 298
#These two values have been output from a single CSD field.
_refine_ls_R_factor_gt 0.0487
_refine_ls_wR_factor_gt 0.0487
_symmetry_cell_setting monoclinic
_symmetry_space_group_name_H-M 'P 21/c'
_symmetry_Int_Tables_number 14
loop_
_symmetry_equiv_pos_site_id
_symmetry_equiv_pos_as_xyz
1 x,y,z
2 -x,1/2+y,1/2-z
3 -x,-y,-z
4 x,-1/2-y,-1/2+z
_cell_length_a 4.6258(9)
_cell_length_b 10.3353(19)
_cell_length_c 12.677(2)
_cell_angle_alpha 90
_cell_angle_beta 99.270(3)
_cell_angle_gamma 90
_cell_formula_units_Z 4
loop_
_atom_type_symbol
_atom_type_radius_bond
C 0.68
H 0.23
N 0.68
O 0.68
loop_
_atom_site_label
_atom_site_type_symbol
_atom_site_fract_x
_atom_site_fract_y
_atom_site_fract_z
N1 N 0.1516(4) 0.20354(16) 0.21452(12)
O1 O -0.0946(3) 0.24939(16) -0.06375(11)
O2 O 0.0987(4) 0.12243(14) 0.29162(10)
C1 C 0.0016(4) 0.18613(19) 0.11479(14)
C2 C 0.0584(4) 0.2695(2) 0.03454(15)
C3 C 0.3529(5) 0.2972(2) 0.23823(16)
H1 H 0.45270 0.30570 0.30770
C4 C 0.2634(5) 0.3672(2) 0.05742(16)
H2 H 0.30120 0.42350 0.00410
C5 C 0.4107(5) 0.3799(2) 0.16046(17)
H3 H 0.54960 0.44490 0.17690
C6 C -0.2133(5) 0.0791(2) 0.09699(16)
H4 H -0.11190 -0.00220 0.10490
H5 H -0.32320 0.08540 0.02620
H6 H -0.34440 0.08470 0.14830
H7 H -0.026(7) 0.304(3) -0.120(2)
#END
