
#######################################################################
#
#                 Cambridge Crystallographic Data Centre
#                                CCDC
#
#######################################################################
#
# If this CIF has been generated from an entry in the Cambridge
# Structural Database, then it will include bibliographic, chemical,
# crystal, experimental, refinement or atomic coordinate data resulting
# from the CCDC's data processing and validation procedures.
#
#######################################################################

data_CSD_CIF_YELQIS
_audit_creation_date 2018-01-25
_audit_creation_method CSD-ConQuest-V1
_database_code_CSD YELQIS
_database_code_depnum_ccdc_archive 'CCDC 1589620'
_chemical_formula_sum 'C13 H10 N2 O6'
_chemical_formula_moiety
;
C13 H10 N2 O6
;
_journal_coden_Cambridge 1500
_journal_volume 8
_journal_year 2018
_journal_page_first 4773
_journal_name_full 'RSC Advances '
loop_
_publ_author_name
"R.G.M.Silva"
"M.J.V.da Silva"
"A.P.Jacomini"
"S.Moura"
"D.F.Back"
"E.A.Basso"
"F.A.Rosa"
_chemical_name_systematic
;
ethyl 4-formyl-5-(4-nitrophenyl)-1,2-oxazole-3-carboxylate
;
_cell_volume    624.558
_exptl_crystal_colour 'yellow'
_exptl_crystal_density_diffrn 1.543
_exptl_crystal_description 'block'
_diffrn_ambient_temperature 100
#These two values have been output from a single CSD field.
_refine_ls_R_factor_gt 0.056
_refine_ls_wR_factor_gt 0.056
_symmetry_cell_setting triclinic
_symmetry_space_group_name_H-M 'P -1'
_symmetry_Int_Tables_number 2
loop_
_symmetry_equiv_pos_site_id
_symmetry_equiv_pos_as_xyz
1 x,y,z
2 -x,-y,-z
_cell_length_a 5.8104(5)
_cell_length_b 8.2881(8)
_cell_length_c 13.1190(12)
_cell_angle_alpha 89.312(3)
_cell_angle_beta 82.695(3)
_cell_angle_gamma 85.322(3)
_cell_formula_units_Z 2
loop_
_atom_type_symbol
_atom_type_radius_bond
C 0.68
H 0.23
N 0.68
O 0.68
loop_
_atom_site_label
_atom_site_type_symbol
_atom_site_fract_x
_atom_site_fract_y
_atom_site_fract_z
O1 O 0.8431(2) 0.65307(16) 0.44238(10)
O2 O 1.1222(2) 0.80434(17) 0.16572(11)
O3 O 0.2463(2) 0.99076(16) 0.39248(11)
O4 O 0.7960(3) 0.96750(19) 0.16051(12)
O5 O 0.1631(3) 0.4726(2) 0.88019(12)
O6 O -0.1005(3) 0.6623(2) 0.85223(13)
N1 N 0.9688(3) 0.6922(2) 0.34828(13)
N2 N 0.0872(3) 0.5855(2) 0.82968(13)
C1 C 0.4891(3) 0.7034(2) 0.55103(15)
C2 C 0.1322(3) 0.7360(2) 0.66725(16)
H1 H -0.02200 0.78370 0.68450
C3 C 0.6322(3) 0.7390(2) 0.45429(15)
C4 C 0.5861(3) 0.5972(2) 0.62112(15)
H2 H 0.74140 0.55080 0.60530
C5 C 0.6137(3) 0.8349(2) 0.36860(15)
C6 C 0.8323(3) 0.7987(2) 0.30629(15)
C7 C 0.2616(3) 0.7726(2) 0.57482(15)
H3 H 0.19540 0.84480 0.52770
C8 C 0.4568(3) 0.5594(2) 0.71350(15)
H4 H 0.52130 0.48770 0.76140
C9 C 0.2315(3) 0.6291(2) 0.73371(15)
C10 C 0.9127(3) 0.8680(2) 0.20270(15)
C11 C 0.4261(3) 0.9494(2) 0.33969(16)
H5 H 0.44880 0.99530 0.27280
C12 C 1.2008(4) 0.8516(3) 0.05982(16)
H6 H 1.23620 0.96650 0.05730
H7 H 1.07780 0.83810 0.01560
C13 C 1.4132(4) 0.7458(3) 0.02328(18)
H8 H 1.46990 0.77480 -0.04760
H9 H 1.37610 0.63250 0.02590
H10 H 1.53390 0.76040 0.06740
#END
