
#######################################################################
#
#                 Cambridge Crystallographic Data Centre
#                                CCDC
#
#######################################################################
#
# If this CIF has been generated from an entry in the Cambridge
# Structural Database, then it will include bibliographic, chemical,
# crystal, experimental, refinement or atomic coordinate data resulting
# from the CCDC's data processing and validation procedures.
#
#######################################################################

data_CSD_CIF_YELSOY
_audit_creation_date 2006-09-07
_audit_creation_method CSD-ConQuest-V1
_database_code_CSD YELSOY
_database_code_depnum_ccdc_archive 'CCDC 260889'
_chemical_formula_sum 'C29 H27 N1 O7'
_chemical_formula_moiety
;
C29 H27 N1 O7
;
_journal_coden_Cambridge 179
_journal_volume 45
_journal_year 2006
_journal_page_first 3492
_journal_name_full 'Angew.Chem.,Int.Ed. '
loop_
_publ_author_name
"H.Takikawa"
"Y.Hachisu"
"J.W.Bode"
"K.Suzuki"
_chemical_name_systematic
;
9-Methoxy-3-methyl-5-oxo-4-phenyl-4,5-dihydronaphtha[1,2-c]isoxazol-4-yl 
4,7,7-trimethyl-3-oxo-2-oxabicyclo[2.2.1]heptane-1-carboxylate
;
_chemical_melting_point 503.15
_cell_volume   2533.458
_exptl_crystal_colour 'colorless'
_exptl_crystal_density_diffrn 1.315
_exptl_special_details
;
Melts with decomposition.

;
_diffrn_ambient_temperature 223.2
#These two values have been output from a single CSD field.
_refine_ls_R_factor_gt 0.074
_refine_ls_wR_factor_gt 0.074
_symmetry_cell_setting orthorhombic
_symmetry_space_group_name_H-M 'P 21 21 21'
_symmetry_Int_Tables_number 19
loop_
_symmetry_equiv_pos_site_id
_symmetry_equiv_pos_as_xyz
1 x,y,z
2 1/2-x,-y,1/2+z
3 1/2+x,1/2-y,-z
4 -x,1/2+y,1/2-z
_cell_length_a 10.404(10)
_cell_length_b 11.47(1)
_cell_length_c 21.23(2)
_cell_angle_alpha 90
_cell_angle_beta 90
_cell_angle_gamma 90
_cell_formula_units_Z 4
loop_
_atom_type_symbol
_atom_type_radius_bond
C 0.68
H 0.23
N 0.68
O 0.68
loop_
_atom_site_label
_atom_site_type_symbol
_atom_site_fract_x
_atom_site_fract_y
_atom_site_fract_z
O1 O -0.6891(3) -0.6792(2) -0.0259(1)
O2 O -0.9046(3) -0.4738(3) -0.2517(2)
O3 O -0.5352(3) -0.8476(3) -0.1778(1)
O4 O -0.9112(3) -0.4184(2) -0.1256(1)
O5 O -0.7084(3) -0.3784(2) -0.1576(2)
O6 O -0.9793(3) -0.2079(2) -0.1083(2)
O7 O -1.0919(4) -0.0652(3) -0.0613(2)
N1 N -0.6331(4) -0.7229(3) -0.0822(2)
C1 C -0.7029(4) -0.6772(3) -0.1275(2)
C2 C -0.8032(4) -0.6041(3) -0.1044(2)
C3 C -0.8977(4) -0.5408(3) -0.1448(2)
C4 C -0.8574(4) -0.5433(4) -0.2153(2)
C5 C -0.7658(4) -0.6346(4) -0.2377(2)
C6 C -0.7566(5) -0.6532(4) -0.3027(2)
C7 C -0.6703(5) -0.7338(4) -0.3254(2)
C8 C -0.5916(5) -0.7967(4) -0.2857(2)
C9 C -0.6034(4) -0.7836(4) -0.2207(2)
C10 C -0.6879(4) -0.7005(3) -0.1956(2)
C11 C -0.7915(5) -0.6093(3) -0.0411(2)
C12 C -0.8679(5) -0.5637(4) 0.0126(2)
C13 C -0.4488(5) -0.9344(4) -0.2008(3)
C14 C -1.0326(4) -0.5908(4) -0.1411(2)
C15 C -1.0506(5) -0.7107(4) -0.1364(2)
C16 C -1.1727(5) -0.7585(4) -0.1341(3)
C17 C -1.2785(5) -0.6876(4) -0.1373(2)
C18 C -1.2632(5) -0.5691(4) -0.1438(3)
C19 C -1.1411(5) -0.5194(4) -0.1463(2)
C20 C -0.8116(4) -0.3470(4) -0.1384(2)
C21 C -0.8440(4) -0.2203(4) -0.1247(2)
C22 C -0.8224(5) -0.1382(4) -0.1807(2)
C23 C -0.8334(5) -0.0150(4) -0.1482(2)
C24 C -0.8563(5) -0.0474(3) -0.0778(2)
C25 C -0.7749(5) -0.1605(3) -0.0693(2)
C26 C -0.9896(5) -0.1013(4) -0.0788(2)
C27 C -0.8412(6) 0.0514(4) -0.0309(3)
C28 C -0.7989(6) -0.2206(4) -0.0060(2)
C29 C -0.6308(5) -0.1432(5) -0.0786(3)
H1 H -0.81530 -0.60740 -0.33150
H2 H -0.65980 -0.74260 -0.37230
H3 H -0.52640 -0.85550 -0.30210
H4 H -0.93930 -0.51260 -0.00290
H5 H -0.81350 -0.51730 0.04180
H6 H -0.90700 -0.62950 0.03670
H7 H -0.49570 -0.99470 -0.22510
H8 H -0.40540 -0.97440 -0.16420
H9 H -0.38100 -0.89970 -0.22770
H10 H -0.97430 -0.76440 -0.13390
H11 H -1.18300 -0.84420 -0.13060
H12 H -1.36660 -0.72350 -0.13670
H13 H -1.33930 -0.51690 -0.14380
H14 H -1.12940 -0.43160 -0.15210
H15 H -0.88790 -0.15020 -0.21540
H16 H -0.73520 -0.15050 -0.20130
H17 H -0.90790 0.03090 -0.16590
H18 H -0.75450 0.03270 -0.15390
H19 H -0.75580 0.08550 -0.03090
H20 H -0.86040 0.02160 0.01360
H21 H -0.90700 0.11480 -0.03880
H22 H -0.89540 -0.23100 0.00070
H23 H -0.76670 -0.17360 0.03000
H24 H -0.75980 -0.29910 -0.00440
H25 H -0.58410 -0.22000 -0.07910
H26 H -0.59170 -0.09430 -0.04490
H27 H -0.61280 -0.10420 -0.12010
#END
