
#######################################################################
#
#                 Cambridge Crystallographic Data Centre
#                                CCDC
#
#######################################################################
#
# If this CIF has been generated from an entry in the Cambridge
# Structural Database, then it will include bibliographic, chemical,
# crystal, experimental, refinement or atomic coordinate data resulting
# from the CCDC's data processing and validation procedures.
#
#######################################################################

data_CSD_CIF_YEMKIK
_audit_creation_date 1995-05-01
_audit_creation_method CSD-ConQuest-V1
_database_code_CSD YEMKIK
_database_code_depnum_ccdc_archive 'CCDC 1301251'
_chemical_formula_sum 'C12 H16 N4 O8'
_chemical_formula_moiety
;
C12 H16 N4 O8
;
_journal_coden_Cambridge 599
_journal_volume 13
_journal_year 1994
_journal_page_first 193
_journal_name_full 'J.Carbohydr.Chem. '
loop_
_publ_author_name
"Z.Ciunik"
"R.Walczyna"
"Z.Smiatacz"
_chemical_name_systematic
;
3,4,6-Tri-O-acetyl-2-deoxy-2-hydroxyimino-\b-D-arabino-hexopyranosyl azide
;
_cell_volume    822.317
_exptl_crystal_density_diffrn 1.39
_diffrn_ambient_temperature ?
_diffrn_special_details
;
The study was carried out at room temperature,in the range 283-303K

;
#These two values have been output from a single CSD field.
_refine_ls_R_factor_gt 0.034
_refine_ls_wR_factor_gt 0.034
_symmetry_cell_setting monoclinic
_symmetry_space_group_name_H-M 'P 21'
_symmetry_Int_Tables_number 4
loop_
_symmetry_equiv_pos_site_id
_symmetry_equiv_pos_as_xyz
1 x,y,z
2 -x,1/2+y,-z
_cell_length_a 10.004(2)
_cell_length_b 8.256(1)
_cell_length_c 10.119(2)
_cell_angle_alpha 90
_cell_angle_beta 100.29(2)
_cell_angle_gamma 90
_cell_formula_units_Z 2
loop_
_atom_type_symbol
_atom_type_radius_bond
C 0.68
H 0.23
N 0.68
O 0.68
loop_
_atom_site_label
_atom_site_type_symbol
_atom_site_fract_x
_atom_site_fract_y
_atom_site_fract_z
O1 O 0.3951(2) 1.2766(3) 0.2757(1)
O2 O 0.6774(2) 0.8720(2) 0.2584(1)
O3 O 0.8632(1) 1.2428(2) 0.2204(1)
O4 O 0.5927(1) 1.05050 0.0095(1)
O5 O 0.7524(1) 1.1386(3) -0.1982(1)
O6 O 0.6482(2) 0.8669(3) 0.4713(2)
O7 O 1.0034(2) 1.1215(4) 0.3864(2)
O8 O 0.8925(2) 1.3510(3) -0.1436(2)
N1 N 0.3808(2) 1.0251(2) 0.0637(2)
N2 N 0.2783(2) 1.0945(3) 0.0097(2)
N3 N 0.1766(3) 1.1440(5) -0.0374(6)
N4 N 0.5193(2) 1.2017(3) 0.3243(1)
C1 C 0.5027(2) 1.1264(3) 0.0840(1)
C2 C 0.5671(2) 1.1305(3) 0.2315(1)
C3 C 0.6995(2) 1.0456(3) 0.2711(1)
C4 C 0.7982(2) 1.0904(3) 0.1775(2)
C5 C 0.7228(1) 1.1268(3) 0.0347(1)
C6 C 0.8033(2) 1.0680(3) -0.0698(2)
C7 C 0.6481(2) 0.7969(3) 0.3675(2)
C8 C 0.6158(4) 0.6216(4) 0.3410(3)
C9 C 0.9682(2) 1.2433(4) 0.3233(2)
C10 C 1.0261(4) 1.4086(6) 0.3478(4)
C11 C 0.8081(2) 1.2824(3) -0.2237(2)
C12 C 0.7463(3) 1.3456(2) -0.3597(2)
H1 H 0.4788(18) 1.2448(26) 0.0543(19)
H2 H 0.3649(30) 1.3067(48) 0.3588(31)
H3 H 0.7375(26) 1.0750(37) 0.3738(28)
H4 H 0.8648(25) 1.0126(33) 0.1705(24)
H5 H 0.7121(19) 1.2515(27) 0.0302(19)
H6 H 0.9025(24) 1.1005(30) -0.0447(22)
H7 H 0.7953(26) 0.9475(37) -0.0851(25)
H8 H 0.6400(31) 0.5492(39) 0.4157(26)
H9 H 0.6805(29) 0.6115(59) 0.2818(29)
H10 H 0.5268(19) 0.5948(48) 0.2932(32)
H11 H 1.0660(46) 1.4558(80) 0.4324(31)
H12 H 0.9552(53) 1.4780(77) 0.3029(51)
H13 H 1.0944(35) 1.396(8) 0.2929(42)
H14 H 0.8191(36) 1.3768(52) -0.4048(45)
H15 H 0.6815(31) 1.4320(35) -0.3653(54)
H16 H 0.7028(37) 1.2502(31) -0.4016(43)
#END
