
#######################################################################
#
#                 Cambridge Crystallographic Data Centre
#                                CCDC
#
#######################################################################
#
# If this CIF has been generated from an entry in the Cambridge
# Structural Database, then it will include bibliographic, chemical,
# crystal, experimental, refinement or atomic coordinate data resulting
# from the CCDC's data processing and validation procedures.
#
#######################################################################

data_CSD_CIF_YEMKEG
_audit_creation_date 1995-05-01
_audit_creation_method CSD-ConQuest-V1
_database_code_CSD YEMKEG
_database_code_depnum_ccdc_archive 'CCDC 1301250'
_chemical_formula_sum 'C14 H20 N2 O9'
_chemical_formula_moiety
;
C14 H20 N2 O9
;
_journal_coden_Cambridge 599
_journal_volume 13
_journal_year 1994
_journal_page_first 193
_journal_name_full 'J.Carbohydr.Chem. '
loop_
_publ_author_name
"Z.Ciunik"
"R.Walczyna"
"Z.Smiatacz"
_chemical_name_systematic
;
N-Acetyl-N-(3,4,6-tri-O-acetyl-2-deoxy-2-hydroxyimino-\b-D-arabino-hexopyranos
yl) amine
;
_cell_volume   1889.423
_exptl_crystal_density_diffrn 1.267
_diffrn_ambient_temperature ?
_diffrn_special_details
;
The study was carried out at room temperature,in the range 283-303K

;
#These two values have been output from a single CSD field.
_refine_ls_R_factor_gt 0.034
_refine_ls_wR_factor_gt 0.034
_symmetry_cell_setting orthorhombic
_symmetry_space_group_name_H-M 'P 21 21 21'
_symmetry_Int_Tables_number 19
loop_
_symmetry_equiv_pos_site_id
_symmetry_equiv_pos_as_xyz
1 x,y,z
2 1/2+x,1/2-y,-z
3 -x,1/2+y,1/2-z
4 1/2-x,-y,1/2+z
_cell_length_a 8.216(3)
_cell_length_b 14.702(2)
_cell_length_c 15.642(2)
_cell_angle_alpha 90
_cell_angle_beta 90
_cell_angle_gamma 90
_cell_formula_units_Z 4
loop_
_atom_type_symbol
_atom_type_radius_bond
C 0.68
H 0.23
N 0.68
O 0.68
loop_
_atom_site_label
_atom_site_type_symbol
_atom_site_fract_x
_atom_site_fract_y
_atom_site_fract_z
O1 O 0.2179(2) 0.7965(1) 1.0733(1)
O2 O 0.0236(2) 1.0594(1) 0.9966(1)
O3 O -0.2666(2) 0.9685(1) 1.1462(1)
O4 O -0.1534(2) 0.8984(1) 0.9361(1)
O5 O -0.4157(2) 1.0119(1) 0.9103(1)
O6 O -0.0065(2) 0.7297(1) 0.8378(1)
O7 O -0.0042(5) 1.1737(1) 1.0862(2)
O8 O -0.4768(3) 1.0637(2) 1.1312(2)
O9 O -0.6702(2) 0.9971(1) 0.8667(2)
N1 N 0.1058(2) 0.8518(1) 0.9008(1)
N2 N 0.1609(2) 0.8817(1) 1.0961(1)
C1 C -0.0121(2) 0.8554(1) 0.9685(1)
C2 C 0.0513(2) 0.9084(1) 1.0443(1)
C3 C -0.0284(3) 0.9973(1) 1.0635(1)
C4 C -0.2142(3) 0.9899(1) 1.0611(1)
C5 C -0.2708(2) 0.9125(1) 1.0021(1)
C6 C -0.4322(3) 0.9295(1) 0.9598(1)
C7 C 0.0964(3) 0.7895(1) 0.8386(1)
C8 C 0.2240(4) 0.7973(2) 0.7701(2)
C9 C 0.0360(4) 1.1466(2) 1.0170(2)
C10 C 0.0889(7) 1.2030(2) 0.9418(3)
C11 C -0.4038(4) 1.0096(2) 1.1739(2)
C12 C -0.4494(4) 0.9743(2) 1.2602(2)
C13 C -0.5450(3) 1.0373(1) 0.8655(1)
C14 C -0.5135(4) 1.1209(2) 0.8149(2)
H1 H 0.1793(39) 0.8885(21) 0.8941(18)
H2 H -0.0275(30) 0.7892(16) 0.9889(14)
H3 H 0.3153(68) 0.7959(32) 1.1148(32)
H4 H 0.0162(30) 1.0210(15) 1.1184(14)
H5 H -0.2681(30) 1.0476(16) 1.0419(15)
H6 H -0.2814(27) 0.8579(15) 1.0372(13)
H7 H -0.4582(31) 0.8790(17) 0.9232(15)
H8 H -0.5122(32) 0.9361(16) 1.0076(16)
H9 H 0.1734(39) 0.7808(20) 0.7170(11)
H10 H 0.3038(31) 0.7524(16) 0.7852(24)
H11 H 0.2757(37) 0.8555(11) 0.7643(18)
H12 H 0.0531(59) 1.2648(12) 0.9362(24)
H13 H 0.1161(49) 1.1792(24) 0.8865(11)
H14 H 0.1829(35) 1.2006(33) 0.9782(22)
H15 H -0.5614(12) 0.9929(20) 1.2588(23)
H16 H -0.3972(38) 1.002(19) 1.3094(15)
H17 H -0.4434(37) 0.9091(3) 1.2632(20)
H18 H -0.6045(27) 1.1359(23) 0.7790(17)
H19 H -0.4187(22) 1.1115(22) 0.7801(17)
H20 H -0.4939(35) 1.1698(14) 0.8543(15)
#END
