
#######################################################################
#
#                 Cambridge Crystallographic Data Centre
#                                CCDC
#
#######################################################################
#
# If this CIF has been generated from an entry in the Cambridge
# Structural Database, then it will include bibliographic, chemical,
# crystal, experimental, refinement or atomic coordinate data resulting
# from the CCDC's data processing and validation procedures.
#
#######################################################################

data_CSD_CIF_YEPVUL
_audit_creation_date 2006-12-18
_audit_creation_method CSD-ConQuest-V1
_database_code_CSD YEPVUL
_database_code_depnum_ccdc_archive 'CCDC 623006'
_chemical_formula_sum 'C25 H32 N4 O6'
_chemical_formula_moiety
;
C25 H32 N4 O6
;
_journal_coden_Cambridge 35
_journal_volume 71
_journal_year 2006
_journal_page_first 6851
_journal_name_full 'J.Org.Chem. '
loop_
_publ_author_name
"G.Baghdasarian"
"K.A.Woerpel"
_chemical_name_systematic
;
2-((2,4-Dinitrophenyl)hydrazono)-1-(4-benzyloxy-1-methoxycyclohexyl)-3-methylb
utane
;
_cell_volume   1200.360
_exptl_crystal_colour 'yellow'
_exptl_crystal_density_diffrn 1.341
_exptl_crystal_description 'cube'
_diffrn_ambient_temperature 163
#These two values have been output from a single CSD field.
_refine_ls_R_factor_gt 0.0364
_refine_ls_wR_factor_gt 0.0364
_symmetry_cell_setting triclinic
_symmetry_space_group_name_H-M 'P -1'
_symmetry_Int_Tables_number 2
loop_
_symmetry_equiv_pos_site_id
_symmetry_equiv_pos_as_xyz
1 x,y,z
2 -x,-y,-z
_cell_length_a 8.5415(11)
_cell_length_b 11.5119(15)
_cell_length_c 13.4368(18)
_cell_angle_alpha 113.890(2)
_cell_angle_beta 94.826(2)
_cell_angle_gamma 91.961(2)
_cell_formula_units_Z 2
loop_
_atom_type_symbol
_atom_type_radius_bond
C 0.68
H 0.23
N 0.68
O 0.68
loop_
_atom_site_label
_atom_site_type_symbol
_atom_site_fract_x
_atom_site_fract_y
_atom_site_fract_z
O1 O 0.93393(10) 0.09220(8) 0.43896(6)
O2 O 0.46903(11) 0.22719(8) 0.36201(7)
O3 O 0.43665(13) -0.70619(9) -0.30234(8)
O4 O 0.28555(12) -0.57033(10) -0.32748(8)
O5 O 0.48466(11) -0.07011(8) 0.07553(7)
O6 O 0.31307(11) -0.14525(9) -0.06751(8)
N1 N 0.83549(11) -0.23422(9) 0.15599(8)
N2 N 0.70066(12) -0.21002(10) 0.10499(8)
N3 N 0.39103(13) -0.5980(1) -0.27441(8)
N4 N 0.42466(12) -0.15844(9) -0.00997(8)
C1 C 0.83552(14) 0.08491(10) 0.34389(9)
C2 C 0.67595(14) 0.02789(11) 0.35324(9)
C3 C 0.60164(15) 0.11662(12) 0.45427(10)
C4 C 0.58348(15) 0.24747(12) 0.45328(10)
C5 C 0.74078(16) 0.30573(11) 0.44259(10)
C6 C 0.81572(15) 0.21670(11) 0.34265(10)
C7 C 0.90636(14) 0.00029(11) 0.23747(9)
C8 C 0.92788(14) -0.13649(11) 0.21940(9)
C9 C 1.07580(14) -0.16419(11) 0.27433(10)
C10 C 1.22195(16) -0.13687(14) 0.22621(12)
C11 C 1.07065(16) -0.30070(12) 0.26569(11)
C12 C 1.08400(16) 0.16120(14) 0.46283(11)
C13 C 0.39442(16) 0.33699(12) 0.36769(11)
C14 C 0.27080(14) 0.30069(11) 0.27141(10)
C15 C 0.26565(16) 0.18325(12) 0.18236(10)
C16 C 0.15073(17) 0.15140(13) 0.09413(11)
C17 C 0.04144(16) 0.23725(15) 0.09309(12)
C18 C 0.04638(16) 0.35481(14) 0.18110(12)
C19 C 0.15964(16) 0.38633(13) 0.26974(11)
C20 C 0.62314(13) -0.30318(11) 0.01532(9)
C21 C 0.67618(14) -0.42834(11) -0.02724(10)
C22 C 0.59999(15) -0.52338(12) -0.11924(10)
C23 C 0.46839(14) -0.49790(11) -0.17428(9)
C24 C 0.41256(14) -0.37877(11) -0.13778(9)
C25 C 0.48754(14) -0.28255(11) -0.04316(9)
H1 H 0.6650(19) -0.1357(16) 0.1270(13)
H2 H 0.6886(17) -0.0539(15) 0.3573(12)
H3 H 0.6038(15) 0.0125(12) 0.2870(11)
H4 H 0.4965(19) 0.0820(14) 0.4570(12)
H5 H 0.6674(17) 0.1272(13) 0.5204(12)
H6 H 0.5408(17) 0.3052(14) 0.5205(12)
H7 H 0.8135(17) 0.3231(13) 0.5101(12)
H8 H 0.7270(17) 0.3885(15) 0.4375(12)
H9 H 0.9175(18) 0.2568(14) 0.3394(12)
H10 H 0.7466(17) 0.2030(13) 0.2753(12)
H11 H 1.0097(18) 0.0403(14) 0.2384(11)
H12 H 0.8399(16) 0.0041(12) 0.1757(11)
H13 H 1.0852(16) -0.1069(13) 0.3525(12)
H14 H 1.2120(19) -0.1932(16) 0.1455(14)
H15 H 1.3176(19) -0.1520(15) 0.2644(12)
H16 H 1.233(2) -0.0525(18) 0.2311(14)
H17 H 1.1651(18) -0.3136(14) 0.3054(12)
H18 H 0.9796(19) -0.3210(15) 0.2970(13)
H19 H 1.0635(18) -0.3651(15) 0.1890(13)
H20 H 1.146(2) 0.1345(16) 0.3999(14)
H21 H 1.075(2) 0.2534(17) 0.4889(13)
H22 H 1.142(2) 0.1430(16) 0.5199(14)
H23 H 0.475(2) 0.4036(18) 0.3684(14)
H24 H 0.3453(19) 0.3723(15) 0.4356(13)
H25 H 0.3447(19) 0.1241(15) 0.1812(12)
H26 H 0.149(2) 0.0703(17) 0.0324(14)
H27 H -0.038(2) 0.2139(16) 0.0322(14)
H28 H -0.030(2) 0.4154(16) 0.1820(13)
H29 H 0.1619(18) 0.4692(16) 0.3329(13)
H30 H 0.7670(17) -0.4443(13) 0.0113(11)
H31 H 0.6387(17) -0.6065(15) -0.1491(12)
H32 H 0.3261(19) -0.3622(14) -0.1747(12)
#END
