
#######################################################################
#
#                 Cambridge Crystallographic Data Centre
#                                CCDC
#
#######################################################################
#
# If this CIF has been generated from an entry in the Cambridge
# Structural Database, then it will include bibliographic, chemical,
# crystal, experimental, refinement or atomic coordinate data resulting
# from the CCDC's data processing and validation procedures.
#
#######################################################################

data_CSD_CIF_YEPWEW
_audit_creation_date 2006-12-18
_audit_creation_method CSD-ConQuest-V1
_database_code_CSD YEPWEW
_database_code_depnum_ccdc_archive 'CCDC 623008'
_chemical_formula_sum 'C16 H22 N2 O5'
_chemical_formula_moiety
;
C16 H22 N2 O5
;
_journal_coden_Cambridge 35
_journal_volume 71
_journal_year 2006
_journal_page_first 6851
_journal_name_full 'J.Org.Chem. '
loop_
_publ_author_name
"G.Baghdasarian"
"K.A.Woerpel"
_chemical_name_systematic
;
4-Ethyl-4-methoxy-1-(4-nitrophenylaminocarbonyloxy)cyclohexane
;
_cell_volume   3266.840
_exptl_crystal_colour 'colorless'
_exptl_crystal_density_diffrn 1.311
_exptl_crystal_description 'plate'
_diffrn_ambient_temperature 171
#These two values have been output from a single CSD field.
_refine_ls_R_factor_gt 0.05
_refine_ls_wR_factor_gt 0.05
_symmetry_cell_setting monoclinic
_symmetry_space_group_name_H-M 'P 21/c'
_symmetry_Int_Tables_number 14
loop_
_symmetry_equiv_pos_site_id
_symmetry_equiv_pos_as_xyz
1 x,y,z
2 -x,1/2+y,1/2-z
3 -x,-y,-z
4 x,-1/2-y,-1/2+z
_cell_length_a 14.1248(18)
_cell_length_b 11.8471(15)
_cell_length_c 19.754(3)
_cell_angle_alpha 90
_cell_angle_beta 98.782(2)
_cell_angle_gamma 90
_cell_formula_units_Z 8
loop_
_atom_type_symbol
_atom_type_radius_bond
C 0.68
H 0.23
N 0.68
O 0.68
loop_
_atom_site_label
_atom_site_type_symbol
_atom_site_fract_x
_atom_site_fract_y
_atom_site_fract_z
O1 O 0.36424(12) -0.11663(13) 0.30418(8)
O2 O 0.13934(12) 0.01134(15) 0.13910(8)
O3 O 0.16809(13) 0.16035(17) 0.07292(9)
O4 O -0.18784(14) 0.50960(16) -0.08771(9)
O5 O -0.31057(14) 0.41451(18) -0.06678(11)
O6 O -0.09151(11) -0.06066(13) 0.14959(7)
O7 O 0.13408(11) -0.04884(13) 0.33122(7)
O8 O 0.11651(11) 0.06973(14) 0.41838(8)
O9 O 0.59125(13) 0.36000(16) 0.51192(10)
O10 O 0.48006(14) 0.41606(17) 0.5686(1)
N1 N 0.01695(14) 0.11741(17) 0.09529(10)
H1 H -0.01140 0.06300 0.11690
N2 N -0.22383(16) 0.42981(18) -0.06124(10)
N3 N 0.26410(14) 0.02643(16) 0.38945(9)
H2 H 0.29750 -0.01770 0.35710
N4 N 0.51013(15) 0.35277(18) 0.52734(10)
C1 C 0.40681(18) -0.1127(2) 0.24167(12)
C2 C 0.40015(18) 0.0116(2) 0.22154(13)
H3 H 0.43420 0.02320 0.18180
H4 H 0.43330 0.05710 0.26010
C3 C 0.29762(19) 0.0545(2) 0.20305(13)
H5 H 0.26610 0.05460 0.24450
H6 H 0.29860 0.13300 0.18610
C4 C 0.24078(18) -0.0191(2) 0.14855(12)
H7 H 0.26620 -0.01030 0.10430
C5 C 0.24456(18) -0.1416(2) 0.16956(13)
H8 H 0.20940 -0.18790 0.13220
H9 H 0.21310 -0.15120 0.21070
C6 C 0.34810(19) -0.1820(2) 0.18519(14)
H10 H 0.37790 -0.17680 0.14310
H11 H 0.34900 -0.26220 0.19930
C7 C 0.51048(19) -0.1551(3) 0.25560(13)
H12 H 0.53990 -0.14330 0.21380
H13 H 0.50940 -0.23750 0.26410
C8 C 0.5747(2) -0.0996(3) 0.31587(14)
H14 H 0.58430 -0.01990 0.30530
H15 H 0.63670 -0.13820 0.32380
H16 H 0.54400 -0.10500 0.35710
C9 C 0.3499(2) -0.2263(2) 0.33066(16)
H17 H 0.29940 -0.26540 0.29990
H18 H 0.33090 -0.21930 0.37620
H19 H 0.40950 -0.26960 0.33410
C10 C 0.11358(19) 0.1026(2) 0.09934(12)
C11 C -0.03913(17) 0.1975(2) 0.05570(11)
C12 C -0.13908(18) 0.1857(2) 0.04988(12)
H20 H -0.16520 0.12510 0.07250
C13 C -0.19974(18) 0.2610(2) 0.01176(12)
H21 H -0.26730 0.25260 0.00770
C14 C -0.16012(18) 0.3492(2) -0.02045(11)
C15 C -0.06229(18) 0.3628(2) -0.01563(12)
H22 H -0.03700 0.42380 -0.03840
C16 C -0.00147(18) 0.2876(2) 0.02244(11)
H23 H 0.06590 0.29680 0.02610
C17 C -0.13896(17) -0.09118(19) 0.20727(11)
C18 C -0.12490(17) 0.01314(19) 0.25320(11)
H24 H -0.16000 0.00240 0.29250
H25 H -0.15270 0.07950 0.22690
C19 C -0.01917(17) 0.03665(19) 0.28033(11)
H26 H 0.01410 0.05850 0.24170
H27 H -0.01460 0.10070 0.31280
C20 C 0.03001(16) -0.06551(19) 0.31609(11)
H28 H 0.00400 -0.07990 0.35960
C21 C 0.01708(17) -0.17011(19) 0.27124(12)
H29 H 0.04550 -0.23620 0.29760
H30 H 0.05070 -0.15980 0.23120
C22 C -0.08899(17) -0.19152(19) 0.24678(12)
H31 H -0.12110 -0.20770 0.28690
H32 H -0.09590 -0.25900 0.21690
C23 C -0.24446(17) -0.1200(2) 0.18384(13)
H33 H -0.24780 -0.19370 0.16000
H34 H -0.27590 -0.12910 0.22500
C24 C -0.3014(2) -0.0345(2) 0.13670(15)
H35 H -0.29670 0.03990 0.15870
H36 H -0.36870 -0.05780 0.12750
H37 H -0.27550 -0.03050 0.09350
C25 C -0.0849(2) -0.1463(2) 0.09993(13)
H38 H -0.05110 -0.21180 0.12220
H39 H -0.04960 -0.11720 0.06460
H40 H -0.14940 -0.16890 0.07880
C26 C 0.16675(17) 0.02113(19) 0.38334(11)
C27 C 0.32345(16) 0.1047(2) 0.42932(11)
C28 C 0.41794(18) 0.1106(2) 0.41761(12)
H41 H 0.44000 0.05900 0.38670
C29 C 0.48017(18) 0.1902(2) 0.45015(12)
H42 H 0.54460 0.19440 0.44180
C30 C 0.44632(17) 0.2641(2) 0.49533(11)
C31 C 0.35452(17) 0.2566(2) 0.51032(11)
H43 H 0.33380 0.30630 0.54290
C32 C 0.29280(17) 0.1764(2) 0.47765(11)
H44 H 0.22960 0.17000 0.48810
#END
