
#######################################################################
#
#                 Cambridge Crystallographic Data Centre
#                                CCDC
#
#######################################################################
#
# If this CIF has been generated from an entry in the Cambridge
# Structural Database, then it will include bibliographic, chemical,
# crystal, experimental, refinement or atomic coordinate data resulting
# from the CCDC's data processing and validation procedures.
#
#######################################################################

data_CSD_CIF_YEPXEX
_audit_creation_date 2006-12-18
_audit_creation_method CSD-ConQuest-V1
_database_code_CSD YEPXEX
_database_code_depnum_ccdc_archive 'CCDC 623013'
_chemical_formula_sum 'C17 H24 N2 O5'
_chemical_formula_moiety
;
C17 H24 N2 O5
;
_journal_coden_Cambridge 35
_journal_volume 71
_journal_year 2006
_journal_page_first 6851
_journal_name_full 'J.Org.Chem. '
loop_
_publ_author_name
"G.Baghdasarian"
"K.A.Woerpel"
_chemical_name_systematic
;
4-Methoxy-1-(-p-nitrophenylaminocarbonyloxy)-4-propylcyclohexane
;
_cell_volume   3339.313
_exptl_crystal_colour 'colorless'
_exptl_crystal_density_diffrn 1.338
_exptl_crystal_description 'plate'
_diffrn_ambient_temperature 163
#These two values have been output from a single CSD field.
_refine_ls_R_factor_gt 0.0405
_refine_ls_wR_factor_gt 0.0405
_symmetry_cell_setting orthorhombic
_symmetry_space_group_name_H-M 'P b c a'
_symmetry_Int_Tables_number 61
loop_
_symmetry_equiv_pos_site_id
_symmetry_equiv_pos_as_xyz
1 x,y,z
2 1/2-x,-y,1/2+z
3 -x,1/2+y,1/2-z
4 1/2+x,1/2-y,-z
5 -x,-y,-z
6 -1/2+x,y,-1/2-z
7 x,-1/2-y,-1/2+z
8 -1/2-x,-1/2+y,z
_cell_length_a 15.4190(9)
_cell_length_b 7.0236(4)
_cell_length_c 30.8348(18)
_cell_angle_alpha 90
_cell_angle_beta 90
_cell_angle_gamma 90
_cell_formula_units_Z 8
loop_
_atom_type_symbol
_atom_type_radius_bond
C 0.68
H 0.23
N 0.68
O 0.68
loop_
_atom_site_label
_atom_site_type_symbol
_atom_site_fract_x
_atom_site_fract_y
_atom_site_fract_z
O1 O 0.11541(6) 0.02513(14) 0.63379(3)
O2 O 0.25855(7) -0.00144(16) 0.64995(3)
O3 O -0.08845(6) 0.17463(15) 0.73227(3)
O4 O 0.58423(7) 0.2540(2) 0.51041(5)
O5 O 0.50922(7) 0.34047(19) 0.45529(4)
N1 N 0.21026(8) 0.09793(18) 0.58307(4)
N2 N 0.51440(8) 0.27623(19) 0.49211(5)
C1 C 0.09166(9) -0.0233(2) 0.67866(4)
C2 C 0.00189(9) -0.1111(2) 0.67624(5)
C3 C -0.06571(9) 0.0317(2) 0.66028(5)
C4 C -0.06763(9) 0.2148(2) 0.68731(4)
C5 C 0.02396(9) 0.2992(2) 0.68983(5)
C6 C 0.09201(9) 0.1568(2) 0.70564(5)
C7 C -0.16890(11) 0.0841(3) 0.74080(6)
C8 C -0.13256(10) 0.3610(2) 0.66945(5)
C9 C -0.12048(12) 0.4188(3) 0.62258(6)
C10 C -0.18464(12) 0.5653(3) 0.60677(6)
C11 C 0.20061(9) 0.0369(2) 0.62513(4)
C12 C 0.28792(8) 0.13371(19) 0.56135(4)
C13 C 0.36945(9) 0.1068(2) 0.58007(5)
C14 C 0.44285(10) 0.1542(2) 0.55692(5)
C15 C 0.43588(9) 0.2255(2) 0.51546(5)
C16 C 0.35583(9) 0.2506(2) 0.49592(5)
C17 C 0.28230(9) 0.2038(2) 0.51889(5)
H1 H 0.1650(11) 0.117(2) 0.5700(5)
H2 H 0.1342(10) -0.113(2) 0.6900(5)
H3 H -0.0128(9) -0.156(2) 0.7061(5)
H4 H 0.0035(10) -0.226(2) 0.6565(5)
H5 H -0.0513(9) 0.065(2) 0.6308(5)
H6 H -0.1235(11) -0.028(2) 0.6595(5)
H7 H 0.0213(9) 0.409(2) 0.7090(5)
H8 H 0.0411(10) 0.345(2) 0.6594(5)
H9 H 0.0794(10) 0.120(2) 0.7360(6)
H10 H 0.1491(10) 0.216(2) 0.7050(5)
H11 H -0.1731(10) 0.072(2) 0.7724(6)
H12 H -0.2167(13) 0.154(3) 0.7300(6)
H13 H -0.1706(13) -0.045(3) 0.7269(7)
H14 H -0.1302(12) 0.476(3) 0.6885(6)
H15 H -0.1908(11) 0.310(2) 0.6724(5)
H16 H -0.0633(16) 0.456(3) 0.6171(8)
H17 H -0.1240(15) 0.307(4) 0.6043(8)
H18 H -0.1759(12) 0.602(3) 0.5769(7)
H19 H -0.1834(15) 0.673(4) 0.6248(8)
H20 H -0.2432(16) 0.515(3) 0.6092(7)
H21 H 0.3736(11) 0.058(3) 0.6086(6)
H22 H 0.4997(12) 0.142(3) 0.5688(6)
H23 H 0.3529(10) 0.300(2) 0.4668(6)
H24 H 0.2273(11) 0.222(3) 0.5063(6)
#END
