
#######################################################################
#
#                 Cambridge Crystallographic Data Centre
#                                CCDC
#
#######################################################################
#
# If this CIF has been generated from an entry in the Cambridge
# Structural Database, then it will include bibliographic, chemical,
# crystal, experimental, refinement or atomic coordinate data resulting
# from the CCDC's data processing and validation procedures.
#
#######################################################################

data_CSD_CIF_YEQCAY
_audit_creation_date 2001-10-23
_audit_creation_method CSD-ConQuest-V1
_database_code_CSD YEQCAY
_database_code_depnum_ccdc_archive 'CCDC 155618'
_chemical_formula_sum 'C36 H26 N2 O4'
_chemical_formula_moiety
;
C36 H26 N2 O4
;
_journal_coden_Cambridge 392
_journal_volume 55
_journal_year 2001
_journal_page_first 763
_journal_name_full 'Heterocycles '
loop_
_publ_author_name
"F.Foti"
"G.Grassi"
"F.Risitano"
"G.Bruno"
"F.Nicolo"
_chemical_name_systematic
;
rac-N-(4-(Diphenylmethylene)-2-benzoyl-5-oxo-3-phenylisoxazolidin-3-yl)benzami
de
;
_chemical_melting_point 491.15
_cell_volume   5612.344
_exptl_crystal_colour 'colorless'
_exptl_crystal_density_diffrn 1.303
_exptl_crystal_description 'prism'
_exptl_crystal_preparation 'methanol'
_diffrn_ambient_temperature 298
#These two values have been output from a single CSD field.
_refine_ls_R_factor_gt 0.0535
_refine_ls_wR_factor_gt 0.0535
_symmetry_cell_setting monoclinic
_symmetry_space_group_name_H-M 'C 2/c'
_symmetry_Int_Tables_number 15
loop_
_symmetry_equiv_pos_site_id
_symmetry_equiv_pos_as_xyz
1 x,y,z
2 1/2+x,1/2+y,z
3 -x,y,1/2-z
4 1/2-x,1/2+y,1/2-z
5 -x,-y,-z
6 -1/2-x,-1/2-y,-z
7 x,-y,-1/2+z
8 -1/2+x,-1/2-y,-1/2+z
_cell_length_a 27.319(5)
_cell_length_b 11.177(2)
_cell_length_c 18.622(4)
_cell_angle_alpha 90
_cell_angle_beta 99.24(3)
_cell_angle_gamma 90
_cell_formula_units_Z 8
loop_
_atom_type_symbol
_atom_type_radius_bond
C 0.68
H 0.23
N 0.68
O 0.68
loop_
_atom_site_label
_atom_site_type_symbol
_atom_site_fract_x
_atom_site_fract_y
_atom_site_fract_z
N1 N 0.10866(10) -0.0355(3) 0.35243(17)
O1 O 0.07583(9) 0.0521(2) 0.37290(14)
C1 C 0.08669(13) 0.1600(4) 0.3433(2)
O2 O 0.06536(10) 0.2470(3) 0.35823(14)
C2 C 0.12423(11) 0.1408(3) 0.29610(19)
C3 C 0.14297(12) 0.0120(3) 0.30475(18)
N2 N 0.19339(10) 0.0013(3) 0.34112(15)
H1 H 0.21360 -0.04420 0.32290
C4 C 0.20955(14) 0.0617(3) 0.4037(2)
O3 O 0.18149(10) 0.1271(3) 0.43062(15)
C5 C 0.26274(14) 0.0476(3) 0.4367(2)
C6 C 0.29776(15) 0.0002(4) 0.4007(3)
H2 H 0.28850 -0.02970 0.35390
C7 C 0.34707(18) -0.0039(5) 0.4329(3)
H3 H 0.37070 -0.03540 0.40740
C8 C 0.36093(18) 0.0382(4) 0.5019(3)
H4 H 0.39370 0.03170 0.52460
C9 C 0.3268(2) 0.0894(5) 0.5371(3)
H5 H 0.33620 0.12130 0.58330
C10 C 0.27803(18) 0.0941(4) 0.5044(2)
H6 H 0.25480 0.13000 0.52900
C11 C 0.13445(13) -0.0548(3) 0.23266(19)
C12 C 0.17213(14) -0.0876(3) 0.1963(2)
H7 H 0.20490 -0.07220 0.21670
C13 C 0.16169(19) -0.1435(4) 0.1292(2)
H8 H 0.18740 -0.16620 0.10490
C14 C 0.1131(2) -0.1658(4) 0.0982(3)
H9 H 0.10620 -0.20390 0.05330
C15 C 0.07568(18) -0.1320(4) 0.1334(3)
H10 H 0.04290 -0.14540 0.11240
C16 C 0.08639(15) -0.0776(4) 0.2004(2)
H11 H 0.06050 -0.05570 0.22460
C17 C 0.10949(13) -0.1473(4) 0.38030(19)
O4 O 0.13891(9) -0.2180(2) 0.36166(14)
C18 C 0.07336(12) -0.1813(3) 0.42889(18)
C19 C 0.05439(14) -0.2959(3) 0.4197(2)
H12 H 0.06350 -0.34510 0.38380
C20 C 0.02191(15) -0.3373(4) 0.4636(2)
H13 H 0.00900 -0.41420 0.45670
C21 C 0.00867(14) -0.2673(4) 0.5167(2)
H14 H -0.01350 -0.29570 0.54580
C22 C 0.02793(14) -0.1549(4) 0.5273(2)
H15 H 0.01940 -0.10740 0.56430
C23 C 0.06017(13) -0.1110(3) 0.48322(19)
H16 H 0.07290 -0.03390 0.49040
C24 C 0.13581(12) 0.2231(3) 0.24942(19)
C25 C 0.17507(13) 0.2052(3) 0.2037(2)
C26 C 0.16219(15) 0.1956(4) 0.1290(2)
H17 H 0.12900 0.20010 0.10780
C27 C 0.19808(18) 0.1795(4) 0.0859(2)
H18 H 0.18900 0.16990 0.03590
C28 C 0.24706(18) 0.1773(4) 0.1162(3)
H19 H 0.27120 0.16780 0.08670
C29 C 0.26078(15) 0.1891(4) 0.1895(3)
H20 H 0.29410 0.18770 0.21000
C30 C 0.22479(13) 0.2032(3) 0.2334(2)
H21 H 0.23420 0.21140 0.28340
C31 C 0.10841(12) 0.3385(3) 0.23649(18)
C32 C 0.05956(13) 0.3399(3) 0.20266(19)
H22 H 0.04320 0.26800 0.19040
C33 C 0.03470(14) 0.4462(4) 0.1868(2)
H23 H 0.00200 0.44600 0.16310
C34 C 0.05830(16) 0.5520(4) 0.2061(2)
H24 H 0.04150 0.62390 0.19580
C35 C 0.10667(16) 0.5525(4) 0.2407(3)
H25 H 0.12250 0.62450 0.25430
C36 C 0.13169(14) 0.4458(3) 0.2550(2)
H26 H 0.16470 0.44650 0.27740
#END
