
#######################################################################
#
#                 Cambridge Crystallographic Data Centre
#                                CCDC
#
#######################################################################
#
# If this CIF has been generated from an entry in the Cambridge
# Structural Database, then it will include bibliographic, chemical,
# crystal, experimental, refinement or atomic coordinate data resulting
# from the CCDC's data processing and validation procedures.
#
#######################################################################

data_CSD_CIF_YEQGUW
_audit_creation_date 2001-10-24
_audit_creation_method CSD-ConQuest-V1
_database_code_CSD YEQGUW
_database_code_depnum_ccdc_archive 'CCDC 161019'
_chemical_formula_sum 'C11 H13 N1 O3'
_chemical_formula_moiety
;
C11 H13 N1 O3
;
_journal_coden_Cambridge 1320
_journal_year 2001
_journal_name_full 'Thesis '
loop_
_publ_author_name
"D.Raatz"
_chemical_name_systematic
;
2-(2-(Isopropoxycarbonyl)ethenyl)pyridine N-oxide
;
_cell_volume    516.507
_exptl_crystal_density_diffrn 1.332
_exptl_special_details
;
contribution from Thesis, Dirk Raatz, University of Regensburg, 2001

;
_exptl_crystal_description 'prism'
_diffrn_ambient_temperature 173
#These two values have been output from a single CSD field.
_refine_ls_R_factor_gt 0.0498
_refine_ls_wR_factor_gt 0.0498
_symmetry_cell_setting triclinic
_symmetry_space_group_name_H-M 'P -1'
_symmetry_Int_Tables_number 2
loop_
_symmetry_equiv_pos_site_id
_symmetry_equiv_pos_as_xyz
1 x,y,z
2 -x,-y,-z
_cell_length_a 6.2676(12)
_cell_length_b 7.6041(16)
_cell_length_c 11.309(2)
_cell_angle_alpha 99.17(2)
_cell_angle_beta 97.25(2)
_cell_angle_gamma 100.47(2)
_cell_formula_units_Z 2
loop_
_atom_type_symbol
_atom_type_radius_bond
C 0.68
H 0.23
N 0.68
O 0.68
loop_
_atom_site_label
_atom_site_type_symbol
_atom_site_fract_x
_atom_site_fract_y
_atom_site_fract_z
O1 O 0.81912(19) 0.75133(17) 0.90641(10)
O2 O -0.03896(18) 0.22859(16) 0.65648(9)
O3 O 0.28808(16) 0.35367(13) 0.60989(8)
N1 N 0.6826(2) 0.78077(17) 0.98171(10)
C1 C 0.7571(3) 0.9011(2) 1.08857(13)
C2 C 0.6213(3) 0.9348(2) 1.17127(13)
C3 C 0.4016(3) 0.8468(2) 1.14803(13)
C4 C 0.3261(2) 0.7276(2) 1.03851(13)
C5 C 0.4640(2) 0.69381(19) 0.95457(12)
C6 C 0.3967(2) 0.56919(19) 0.83782(12)
C7 C 0.1921(2) 0.4783(2) 0.79490(12)
C8 C 0.1324(2) 0.3412(2) 0.68077(12)
C9 C 0.2479(2) 0.2214(2) 0.49531(12)
C10 C 0.0985(3) 0.2831(3) 0.40124(14)
C11 C 0.4722(3) 0.2175(2) 0.46072(15)
H1 H 0.90360 0.96150 1.10550
H2 H 0.67620 1.01710 1.24350
H3 H 0.30830 0.86730 1.20420
H4 H 0.17900 0.66870 1.02080
H5 H 0.50440 0.55210 0.79010
H6 H 0.08100 0.50200 0.83860
H7 H 0.17930 0.10080 0.50800
H8 H -0.03850 0.29070 0.42930
H9 H 0.16750 0.40050 0.38860
H10 H 0.07170 0.19710 0.32630
H11 H 0.54010 0.33680 0.45060
H12 H 0.56190 0.18030 0.52350
H13 H 0.45730 0.13290 0.38600
#END
