
#######################################################################
#
#                 Cambridge Crystallographic Data Centre
#                                CCDC
#
#######################################################################
#
# If this CIF has been generated from an entry in the Cambridge
# Structural Database, then it will include bibliographic, chemical,
# crystal, experimental, refinement or atomic coordinate data resulting
# from the CCDC's data processing and validation procedures.
#
#######################################################################

data_CSD_CIF_YEQHUX
_audit_creation_date 2001-10-24
_audit_creation_method CSD-ConQuest-V1
_database_code_CSD YEQHUX
_database_code_depnum_ccdc_archive 'CCDC 162650'
_chemical_formula_sum 'C18 H20 N2 O6'
_chemical_formula_moiety
;
C18 H20 N2 O6
;
_journal_coden_Cambridge 1320
_journal_year 2001
_journal_name_full 'Thesis '
loop_
_publ_author_name
"D.Raatz"
_chemical_name_systematic
;
2-(1-((Benzyloxycarbonyl)amino)-2-(ethoxycarbonyl)-2-hydroxyethyl)pyridine 
N-oxide
;
_cell_volume   1780.576
_exptl_crystal_density_diffrn 1.344
_exptl_special_details
;
contribution from Thesis, Dirk Raatz, University of Regensburg, 2001

;
_diffrn_ambient_temperature 293
#These two values have been output from a single CSD field.
_refine_ls_R_factor_gt 0.0656
_refine_ls_wR_factor_gt 0.0656
_symmetry_cell_setting monoclinic
_symmetry_space_group_name_H-M 'P 21/c'
_symmetry_Int_Tables_number 14
loop_
_symmetry_equiv_pos_site_id
_symmetry_equiv_pos_as_xyz
1 x,y,z
2 -x,1/2+y,1/2-z
3 -x,-y,-z
4 x,-1/2-y,-1/2+z
_cell_length_a 12.955(2)
_cell_length_b 11.105(3)
_cell_length_c 13.587(2)
_cell_angle_alpha 90
_cell_angle_beta 114.367(13)
_cell_angle_gamma 90
_cell_formula_units_Z 4
loop_
_atom_type_symbol
_atom_type_radius_bond
C 0.68
H 0.23
N 0.68
O 0.68
loop_
_atom_site_label
_atom_site_type_symbol
_atom_site_fract_x
_atom_site_fract_y
_atom_site_fract_z
N1 N 0.4501(3) 0.4651(3) 0.1105(3)
O1 O 0.4993(2) 0.3711(2) 0.1718(2)
C1 C 0.4813(3) 0.5773(4) 0.1513(3)
O2 O 0.4344(2) 0.6384(3) 0.3388(3)
N2 N 0.6307(3) 0.6971(3) 0.2872(3)
C2 C 0.4309(4) 0.6737(4) 0.0868(4)
O3 O 0.6230(3) 0.6367(3) 0.5278(3)
C3 C 0.3514(4) 0.6584(5) -0.0176(4)
O4 O 0.6938(3) 0.4806(3) 0.4710(2)
C4 C 0.3222(4) 0.5436(5) -0.0564(4)
O5 O 0.7927(3) 0.6311(3) 0.2792(3)
C5 C 0.3717(4) 0.4479(4) 0.0082(4)
O6 O 0.7735(2) 0.8216(3) 0.3289(2)
C6 C 0.5719(3) 0.5833(3) 0.2646(3)
C7 C 0.5220(4) 0.5588(4) 0.3485(3)
C8 C 0.6172(5) 0.5645(5) 0.4604(4)
C9 C 0.7973(6) 0.4852(6) 0.5698(4)
C10 C 0.8859(6) 0.4284(8) 0.5529(5)
C11 C 0.7379(4) 0.7092(4) 0.2974(3)
C12 C 0.8877(4) 0.8478(4) 0.3447(4)
C13 C 0.9041(4) 0.9812(5) 0.3488(3)
C14 C 1.0093(4) 1.0244(6) 0.3617(4)
C15 C 1.0288(5) 1.1456(6) 0.3614(5)
C16 C 0.9445(6) 1.2269(6) 0.3491(5)
C17 C 0.8416(5) 1.1855(5) 0.3377(4)
C18 C 0.8216(5) 1.0625(5) 0.3381(4)
H1 H 0.4581(12) 0.7077(4) 0.3461(42)
H2 H 0.5958(3) 0.7600(3) 0.2945(3)
H3 H 0.4507(4) 0.7513(4) 0.1140(4)
H4 H 0.3182(4) 0.7246(5) -0.0610(4)
H5 H 0.2687(4) 0.5313(5) -0.1266(4)
H6 H 0.3516(4) 0.3701(4) -0.0180(4)
H7 H 0.6274(3) 0.5200(3) 0.2723(3)
H8 H 0.4911(4) 0.4769(4) 0.3369(3)
H9 H 0.8173(6) 0.5684(6) 0.5908(4)
H10 H 0.7855(6) 0.4450(6) 0.6277(4)
H11 H 0.9541(6) 0.4316(8) 0.6182(5)
H12 H 0.8979(6) 0.4690(8) 0.4961(5)
H13 H 0.8661(6) 0.3459(8) 0.5329(5)
H14 H 0.9024(4) 0.8142(4) 0.2859(4)
H15 H 0.9403(4) 0.8119(4) 0.4117(4)
H16 H 1.0674(4) 0.9704(6) 0.3708(4)
H17 H 1.0997(5) 1.1731(6) 0.3694(5)
H18 H 0.9577(6) 1.3092(6) 0.3486(5)
H19 H 0.7840(5) 1.2398(5) 0.3297(4)
H20 H 0.7509(5) 1.0355(5) 0.3309(4)
#END
