
#######################################################################
#
#                 Cambridge Crystallographic Data Centre
#                                CCDC
#
#######################################################################
#
# If this CIF has been generated from an entry in the Cambridge
# Structural Database, then it will include bibliographic, chemical,
# crystal, experimental, refinement or atomic coordinate data resulting
# from the CCDC's data processing and validation procedures.
#
#######################################################################

data_CSD_CIF_YEQHAD
_audit_creation_date 2001-10-24
_audit_creation_method CSD-ConQuest-V1
_database_code_CSD YEQHAD
_database_code_depnum_ccdc_archive 'CCDC 161020'
_chemical_formula_sum 'C11 H15 N1 O6'
_chemical_formula_moiety
;
C11 H15 N1 O6
;
_journal_coden_Cambridge 1320
_journal_year 2001
_journal_name_full 'Thesis '
loop_
_publ_author_name
"D.Raatz"
_chemical_name_systematic
;
2-(2-(Ethoxycarbonyl)-1,2-dihydroxyethyl)-3-methoxypyridine N-oxide
;
_cell_volume    604.979
_exptl_crystal_colour 'colorless'
_exptl_crystal_density_diffrn 1.412
_exptl_special_details
;
contribution from Thesis, Dirk Raatz, University of Regensburg, 2001

;
_exptl_crystal_description 'rod'
_diffrn_ambient_temperature 297
#These two values have been output from a single CSD field.
_refine_ls_R_factor_gt 0.0385
_refine_ls_wR_factor_gt 0.0385
_symmetry_cell_setting triclinic
_symmetry_space_group_name_H-M 'P 1'
_symmetry_Int_Tables_number 1
loop_
_symmetry_equiv_pos_site_id
_symmetry_equiv_pos_as_xyz
1 x,y,z
_cell_length_a 8.1522(5)
_cell_length_b 8.9851(8)
_cell_length_c 9.0506(8)
_cell_angle_alpha 96.691(7)
_cell_angle_beta 93.468(6)
_cell_angle_gamma 112.352(7)
_cell_formula_units_Z 2
loop_
_atom_type_symbol
_atom_type_radius_bond
C 0.68
H 0.23
N 0.68
O 0.68
loop_
_atom_site_label
_atom_site_type_symbol
_atom_site_fract_x
_atom_site_fract_y
_atom_site_fract_z
O1 O 0.0833(3) 0.4509(3) 0.3436(3)
O2 O -0.0007(2) 0.01856(18) 0.59816(18)
O3 O -0.23939(18) 0.26205(18) 0.40608(16)
O4 O 0.0391(2) 0.54426(18) 0.6261(2)
O5 O -0.2944(3) 0.5114(2) 0.6873(3)
O6 O -0.3382(2) 0.27411(19) 0.76735(19)
N1 N 0.1382(2) 0.3388(2) 0.3809(2)
C1 C 0.2844(3) 0.3286(3) 0.3249(3)
C2 C 0.3412(3) 0.2123(4) 0.3617(3)
C3 C 0.2502(3) 0.1039(3) 0.4504(3)
C4 C 0.1001(3) 0.1156(2) 0.5068(2)
C5 C 0.0435(2) 0.2363(2) 0.4712(2)
C6 C -0.1231(2) 0.2532(2) 0.5240(2)
C7 C -0.0767(3) 0.3916(2) 0.6556(2)
C8 C -0.2479(3) 0.4024(3) 0.7034(3)
C9 C -0.4898(4) 0.2838(5) 0.8394(3)
C10 C -0.5155(5) 0.1979(5) 0.9644(5)
C11 C 0.0270(5) -0.1279(3) 0.6169(3)
O7 O -0.1885(3) -0.4587(2) 0.2423(2)
O8 O -0.0016(3) -0.0069(2) -0.00071(19)
O9 O -0.0479(2) -0.47089(18) 0.00019(18)
O10 O 0.2261(2) -0.25045(17) 0.26012(15)
O11 O 0.3575(2) -0.4177(2) 0.05257(19)
O12 O 0.3644(2) -0.23791(19) -0.10226(17)
N2 N -0.1938(2) -0.3200(2) 0.2187(2)
C12 C -0.3020(3) -0.2654(4) 0.2967(3)
C13 C -0.3136(3) -0.1228(4) 0.2776(3)
C14 C -0.2176(3) -0.0308(3) 0.1778(3)
C15 C -0.1068(3) -0.0859(3) 0.0989(2)
C16 C -0.0950(3) -0.2334(3) 0.1180(2)
C17 C 0.0218(3) -0.2998(2) 0.0304(2)
C18 C 0.2139(3) -0.2301(2) 0.1090(2)
C19 C 0.3201(3) -0.3085(2) 0.0190(2)
C20 C 0.4599(4) -0.3068(3) -0.2027(3)
C21 C 0.5025(5) -0.2085(5) -0.3274(4)
C22 C -0.0148(5) 0.1405(4) -0.0351(4)
H1 H 0.34540 0.40050 0.26190
H2 H 0.44350 0.20680 0.32570
H3 H -0.19080 0.34640 0.37140
H4 H 0.28810 0.02290 0.47310
H5 H 0.02390 0.54930 0.53670
H6 H -0.18880 0.15250 0.56330
H7 H -0.01820 0.36370 0.73970
H8 H -0.46840 0.39690 0.87250
H9 H -0.59660 0.23720 0.76810
H10 H -0.53800 0.08570 0.93110
H11 H -0.41020 0.24510 1.03530
H12 H -0.61550 0.20490 1.01100
H13 H 0.00360 -0.19570 0.52160
H14 H 0.14830 -0.09960 0.65770
H15 H -0.05230 -0.18560 0.68400
H16 H -0.08670 -0.50850 0.07510
H17 H 0.17980 -0.34760 0.26690
H18 H -0.36890 -0.32690 0.36410
H19 H -0.38740 -0.08660 0.33280
H20 H -0.22680 0.06670 0.16360
H21 H 0.02720 -0.26050 -0.06650
H22 H 0.26540 -0.11300 0.10440
H23 H 0.56880 -0.30240 -0.14940
H24 H 0.38610 -0.41960 -0.24180
H25 H 0.56630 -0.25040 -0.39520
H26 H 0.39370 -0.21460 -0.38010
H27 H 0.57490 -0.09710 -0.28740
H28 H -0.13460 0.11730 -0.07670
H29 H 0.01500 0.21810 0.05480
H30 H 0.06630 0.18470 -0.10630
#END
