
#######################################################################
#
#                 Cambridge Crystallographic Data Centre
#                                CCDC
#
#######################################################################
#
# If this CIF has been generated from an entry in the Cambridge
# Structural Database, then it will include bibliographic, chemical,
# crystal, experimental, refinement or atomic coordinate data resulting
# from the CCDC's data processing and validation procedures.
#
#######################################################################

data_CSD_CIF_YEQYOL
_audit_creation_date 2018-01-29
_audit_creation_method CSD-ConQuest-V1
_database_code_CSD YEQYOL
_database_code_depnum_ccdc_archive 'CCDC 1581469'
_chemical_formula_sum 'C19 H23 N3 O2'
_chemical_formula_moiety
;
C19 H23 N3 O2
;
_journal_coden_Cambridge 1267
_journal_volume 233
_journal_year 2018
_journal_page_first 13
_journal_name_full 'Z.Kristallogr.-New Cryst.Struct. '
loop_
_publ_author_name
"Peng-Peng Li"
"Li Zhao"
"Ji-Xing Zhao"
"Zhao-Bin Zhu"
_chemical_name_systematic
;
(E)-1-(4-(((E)-4-(diethylamino)-2-hydroxybenzylidene)amino)phenyl)ethan-1-one 
oxime
;
_chemical_name_common
;
5-(diethylamino)-2-(((4-(N-hydroxyethanimidoyl)phenyl)imino)methyl)phenol
;
_cell_volume   3552.189
_exptl_crystal_colour 'light yellow'
_exptl_crystal_density_diffrn 1.217
_exptl_crystal_description 'block'
_diffrn_ambient_temperature 293
#These two values have been output from a single CSD field.
_refine_ls_R_factor_gt 0.0649
_refine_ls_wR_factor_gt 0.0649
_symmetry_cell_setting monoclinic
_symmetry_space_group_name_H-M 'P 21/n'
_symmetry_Int_Tables_number 14
loop_
_symmetry_equiv_pos_site_id
_symmetry_equiv_pos_as_xyz
1 x,y,z
2 1/2-x,1/2+y,1/2-z
3 -x,-y,-z
4 -1/2+x,-1/2-y,-1/2+z
_cell_length_a 17.8421(15)
_cell_length_b 9.4778(9)
_cell_length_c 22.116(2)
_cell_angle_alpha 90
_cell_angle_beta 108.23(1)
_cell_angle_gamma 90
_cell_formula_units_Z 8
loop_
_atom_type_symbol
_atom_type_radius_bond
C 0.68
H 0.23
N 0.68
O 0.68
loop_
_atom_site_label
_atom_site_type_symbol
_atom_site_fract_x
_atom_site_fract_y
_atom_site_fract_z
O1 O 0.71151(12) 0.7864(2) 0.09344(11)
O2 O 1.20727(12) 0.6934(3) 0.47063(11)
H1 H 1.20820 0.69370 0.50790
N1 N 0.44416(14) 0.6325(3) 0.03029(13)
N2 N 0.80871(14) 0.6938(3) 0.20193(12)
N3 N 1.12874(14) 0.6869(3) 0.43078(12)
C1 C 0.65467(17) 0.7138(3) 0.10506(14)
C2 C 0.57813(16) 0.7164(3) 0.06382(14)
H2 H 0.56620 0.77620 0.02880
C3 C 0.51790(17) 0.6323(3) 0.07285(15)
C4 C 0.5366(2) 0.5447(4) 0.12805(17)
H3 H 0.49790 0.48720 0.13510
C5 C 0.6100(2) 0.5451(4) 0.16996(17)
H4 H 0.62030 0.48820 0.20590
C6 C 0.67203(17) 0.6276(3) 0.16204(14)
C7 C 0.74625(18) 0.6233(4) 0.20672(15)
H5 H 0.75300 0.56730 0.24260
C8 C 0.88589(17) 0.6895(3) 0.24576(14)
C9 C 0.94488(19) 0.7528(4) 0.22766(15)
H6 H 0.93280 0.79720 0.18830
C10 C 1.02227(19) 0.7511(4) 0.26779(16)
H7 H 1.06160 0.79240 0.25440
C11 C 1.04201(17) 0.6889(4) 0.32751(14)
C12 C 0.98163(18) 0.6258(4) 0.34457(15)
H8 H 0.99360 0.58200 0.38410
C13 C 0.90410(18) 0.6253(4) 0.30518(15)
H9 H 0.86480 0.58270 0.31820
C14 C 1.12358(18) 0.6920(4) 0.37199(15)
C15 C 1.1930(2) 0.7038(5) 0.34810(18)
H10 H 1.17790 0.67450 0.30440
H11 H 1.23480 0.64440 0.37310
H12 H 1.21070 0.79990 0.35150
C16 C 0.42241(19) 0.7318(4) -0.02271(17)
H13 H 0.37490 0.69810 -0.05450
H14 H 0.46420 0.73410 -0.04210
C17 C 0.4083(2) 0.8782(4) -0.0039(2)
H15 H 0.39670 0.93890 -0.04040
H16 H 0.45460 0.91180 0.02830
H17 H 0.36450 0.87810 0.01260
C18 C 0.3819(2) 0.5382(4) 0.03603(19)
H18 H 0.40540 0.44940 0.05410
H19 H 0.34600 0.51890 -0.00620
C19 C 0.3360(3) 0.5959(6) 0.0761(2)
H20 H 0.31260 0.68420 0.05870
H21 H 0.37060 0.61040 0.11860
H22 H 0.29530 0.53050 0.07680
H23 H 0.748(5) 0.749(3) 0.125(3)
O3 O 1.30637(13) 1.3894(3) 0.35409(16)
H24 H 1.25990 1.37010 0.33630
O4 O 0.74617(12) 1.0546(3) 0.12949(14)
H25 H 0.73150 0.97630 0.11480
N4 N 1.55787(16) 1.1725(4) 0.43286(18)
N5 N 1.18722(14) 1.2407(3) 0.28582(13)
N6 N 0.82973(14) 1.0574(3) 0.15334(14)
C20 C 1.35082(18) 1.2724(4) 0.35771(17)
C21 C 1.42974(18) 1.2807(4) 0.39314(17)
H26 H 1.45010 1.36460 0.41350
C22 C 1.47921(18) 1.1636(4) 0.39849(17)
C23 C 1.44664(19) 1.0394(4) 0.36634(18)
H27 H 1.47840 0.96060 0.36840
C24 C 1.36802(19) 1.0338(4) 0.33186(17)
H28 H 1.34760 0.94990 0.31160
C25 C 1.31757(17) 1.1487(4) 0.32605(15)
C26 C 1.23508(17) 1.1368(4) 0.29151(15)
H29 H 1.21570 1.05100 0.27260
C27 C 1.10501(17) 1.2233(3) 0.25418(16)
C28 C 1.05433(18) 1.3096(4) 0.27315(18)
H30 H 1.07460 1.37720 0.30450
C29 C 0.97340(19) 1.2964(4) 0.24577(18)
H31 H 0.94010 1.35530 0.25920
C30 C 0.94111(17) 1.1975(4) 0.19888(17)
C31 C 0.99234(18) 1.1154(4) 0.17833(17)
H32 H 0.97210 1.05060 0.14580
C32 C 1.07367(18) 1.1279(4) 0.20539(17)
H33 H 1.10710 1.07200 0.19070
C33 C 0.85469(18) 1.1811(4) 0.17210(17)
C34 C 0.8015(2) 1.3053(4) 0.1698(2)
H34 H 0.75740 1.30110 0.13150
H35 H 0.83030 1.39110 0.17030
H36 H 0.78300 1.30300 0.20610
C35 C 1.5932(2) 1.2996(6) 0.4682(2)
H37 H 1.64960 1.29760 0.47530
H38 H 1.57210 1.38170 0.44230
C36 C 1.5795(3) 1.3152(6) 0.5290(3)
H39 H 1.52390 1.32170 0.52240
H40 H 1.60510 1.39930 0.54960
H41 H 1.60060 1.23490 0.55520
C37 C 1.6135(2) 1.0547(5) 0.4317(2)
H42 H 1.59810 1.01200 0.38970
H43 H 1.66650 1.09190 0.44050
C38 C 1.6127(3) 0.9501(6) 0.4783(3)
H44 H 1.56080 0.90990 0.46820
H45 H 1.62660 0.99310 0.51960
H46 H 1.65010 0.87720 0.47830
#END
