
#######################################################################
#
#                 Cambridge Crystallographic Data Centre
#                                CCDC
#
#######################################################################
#
# If this CIF has been generated from an entry in the Cambridge
# Structural Database, then it will include bibliographic, chemical,
# crystal, experimental, refinement or atomic coordinate data resulting
# from the CCDC's data processing and validation procedures.
#
#######################################################################

data_CSD_CIF_YERBEC
_audit_creation_date 1995-05-18
_audit_creation_method CSD-ConQuest-V1
_database_code_CSD YERBEC
_chemical_formula_sum 'C25 H21 N5 O2'
_chemical_formula_moiety
;
C25 H21 N5 O2
;
_journal_coden_Cambridge 122
_journal_year 1992
_journal_page_first 506
_journal_name_full 'Khim.Get.Soedin.,SSSR(Russ.)(Chem.Heterocycl.Compd.) '
loop_
_publ_author_name
"V.D.Orlov"
"N.N.Kolos"
"Kh.Kiroga"
"Z.Kaluski"
"E.Figas"
"K.A.Potekhin"
_chemical_name_systematic
;
6-Methyl-2,4-diphenyl-8-(4-nitrophenyl)-1H-2,3-dihydropyrazolo(4,5-b)-1,5-diaz
epine
;
_chemical_melting_point 438.15
_cell_volume   4408.368
_exptl_crystal_density_diffrn 1.37
_exptl_special_details
;
Dx reported as 1.37; we calculate 1.28

;
_diffrn_ambient_temperature ?
_diffrn_special_details
;
The study was carried out at room temperature,in the range 283-303K

;
#These two values have been output from a single CSD field.
_refine_ls_R_factor_gt 0.041
_refine_ls_wR_factor_gt 0.041
_symmetry_cell_setting monoclinic
_symmetry_space_group_name_H-M 'C 2/c'
_symmetry_Int_Tables_number 15
loop_
_symmetry_equiv_pos_site_id
_symmetry_equiv_pos_as_xyz
1 x,y,z
2 1/2+x,1/2+y,z
3 -x,y,1/2-z
4 1/2-x,1/2+y,1/2-z
5 -x,-y,-z
6 -1/2-x,-1/2-y,-z
7 x,-y,-1/2+z
8 -1/2+x,-1/2-y,-1/2+z
_cell_length_a 22.669(5)
_cell_length_b 9.935(2)
_cell_length_c 20.240(3)
_cell_angle_alpha 90
_cell_angle_beta 104.74(2)
_cell_angle_gamma 90
_cell_formula_units_Z 8
loop_
_atom_type_symbol
_atom_type_radius_bond
C 0.68
H 0.23
N 0.68
O 0.68
loop_
_atom_site_label
_atom_site_type_symbol
_atom_site_fract_x
_atom_site_fract_y
_atom_site_fract_z
O1 O 0.2090(1) -0.2633(2) 0.9131(1)
O2 O 0.2064(1) -0.2713(2) 0.8069(1)
N1 N 0.4348(1) 0.2176(2) 1.0120(1)
N2 N 0.5597(1) 0.3215(2) 0.9777(1)
N3 N 0.4636(1) 0.1004(2) 0.8559(1)
N4 N 0.4318(1) 0.1081(2) 0.9063(1)
N5 N 0.2276(1) -0.2295(2) 0.8646(1)
C1 C 0.4631(1) 0.3172(2) 1.0632(1)
C2 C 0.5319(1) 0.2899(2) 1.0866(1)
C3 C 0.5684(1) 0.3505(2) 1.0414(1)
C4 C 0.5139(1) 0.2324(2) 0.9445(1)
C5 C 0.5123(1) 0.1774(2) 0.8795(1)
C6 C 0.4606(1) 0.1891(2) 0.9593(1)
C7 C 0.3782(1) 0.0317(2) 0.8973(1)
C8 C 0.3621(1) -0.0267(2) 0.9525(1)
C9 C 0.3113(1) -0.1091(2) 0.9414(1)
C10 C 0.2787(1) -0.1343(2) 0.8756(1)
C11 C 0.2932(1) -0.0759(2) 0.8203(1)
C12 C 0.3430(1) 0.0080(2) 0.8309(1)
C13 C 0.5588(1) 0.1921(3) 0.8393(1)
C14 C 0.4323(1) 0.3108(2) 1.1211(1)
C15 C 0.4321(2) 0.1961(3) 1.1581(2)
C16 C 0.4037(2) 0.1903(3) 1.2109(2)
C17 C 0.3741(1) 0.3008(3) 1.2260(1)
C18 C 0.3748(1) 0.4151(3) 1.1911(1)
C19 C 0.4040(1) 0.4216(3) 1.1384(1)
C20 C 0.6168(1) 0.4512(2) 1.0700(1)
C21 C 0.6147(1) 0.5321(3) 1.1254(1)
C22 C 0.6593(1) 0.6287(3) 1.1494(1)
C23 C 0.7057(1) 0.6445(3) 1.1190(2)
C24 C 0.7094(1) 0.5650(3) 1.0646(2)
C25 C 0.6648(1) 0.4690(3) 1.0402(1)
H1 H 0.396(1) 0.226(3) 1.002(1)
H2 H 0.459(1) 0.410(2) 1.044(1)
H3 H 0.545(1) 0.323(1) 1.132(1)
H4 H 0.539(1) 0.189(2) 1.086(1)
H5 H 0.388(1) -0.012(2) 0.996(1)
H6 H 0.301(1) -0.150(2) 0.978(1)
H7 H 0.269(1) -0.095(2) 0.775(1)
H8 H 0.356(1) 0.047(2) 0.792(1)
H9 H 0.551(1) 0.135(2) 0.800(1)
H10 H 0.597(1) 0.157(3) 0.866(2)
H11 H 0.565(1) 0.277(3) 0.833(1)
H12 H 0.453(1) 0.126(2) 1.148(1)
H13 H 0.407(1) 0.100(3) 1.234(1)
H14 H 0.356(1) 0.299(2) 1.262(1)
H15 H 0.353(1) 0.496(2) 1.201(1)
H16 H 0.401(1) 0.499(2) 1.114(1)
H17 H 0.581(1) 0.525(2) 1.144(1)
H18 H 0.652(1) 0.684(2) 1.190(1)
H19 H 0.738(1) 0.708(2) 1.134(1)
H20 H 0.741(1) 0.575(3) 1.040(1)
H21 H 0.668(1) 0.418(2) 1.000(1)
#END
