
#######################################################################
#
#                 Cambridge Crystallographic Data Centre
#                                CCDC
#
#######################################################################
#
# If this CIF has been generated from an entry in the Cambridge
# Structural Database, then it will include bibliographic, chemical,
# crystal, experimental, refinement or atomic coordinate data resulting
# from the CCDC's data processing and validation procedures.
#
#######################################################################

data_CSD_CIF_YERTUL
_audit_creation_date 2006-12-18
_audit_creation_method CSD-ConQuest-V1
_database_code_CSD YERTUL
_database_code_depnum_ccdc_archive 'CCDC 624886'
_chemical_formula_sum 'C27 H25 N5 O8'
_chemical_formula_moiety
;
C27 H25 N5 O8
;
_journal_coeditor_code "IUCr IS2076"
_journal_coden_Cambridge 1370
_journal_volume 62
_journal_year 2006
_journal_page_first o4599
_journal_name_full 'Acta Crystallogr.,Sect.E:Struct.Rep.Online '
loop_
_publ_author_name
"Chun-Hua Diao"
"Zuo-Liang Jing"
_chemical_name_systematic
;
(E)-4-(4-(2-(2,4-Dinitrophenoxy)ethoxy)-3-methoxybenzylideneamino)-1,5-dimethy
l-2-phenyl-1H-pyrazol-3(2H)-one
;
_cell_volume   1292.994
_exptl_crystal_colour 'yellow'
_exptl_crystal_density_diffrn 1.406
_exptl_crystal_description 'block'
_exptl_crystal_preparation 'acetonitrile'
_diffrn_ambient_temperature 294
#These two values have been output from a single CSD field.
_refine_ls_R_factor_gt 0.0477
_refine_ls_wR_factor_gt 0.0477
_symmetry_cell_setting triclinic
_symmetry_space_group_name_H-M 'P -1'
_symmetry_Int_Tables_number 2
loop_
_symmetry_equiv_pos_site_id
_symmetry_equiv_pos_as_xyz
1 x,y,z
2 -x,-y,-z
_cell_length_a 9.032(4)
_cell_length_b 12.288(5)
_cell_length_c 13.054(5)
_cell_angle_alpha 63.883(7)
_cell_angle_beta 83.801(7)
_cell_angle_gamma 88.328(7)
_cell_formula_units_Z 2
loop_
_atom_type_symbol
_atom_type_radius_bond
C 0.68
H 0.23
N 0.68
O 0.68
loop_
_atom_site_label
_atom_site_type_symbol
_atom_site_fract_x
_atom_site_fract_y
_atom_site_fract_z
O1 O 0.1966(2) -0.11884(17) 0.60606(15)
O2 O 0.0386(2) 0.01617(17) 0.60561(15)
O3 O 0.2103(3) 0.43787(19) 0.38763(18)
O4 O 0.2569(2) 0.48046(15) 0.21038(15)
O5 O 0.49496(16) 0.34614(12) 0.20082(12)
O6 O 0.76461(17) 0.49172(13) 0.12811(12)
O7 O 0.8650(2) 0.59202(15) 0.24322(13)
O8 O 1.32700(18) 1.07466(15) -0.31314(14)
N1 N 0.1525(2) -0.0153(2) 0.56690(17)
N2 N 0.2503(2) 0.40974(18) 0.31061(19)
N3 N 1.2000(2) 0.95340(16) -0.05281(16)
N4 N 1.4461(2) 1.19720(16) -0.25385(16)
N5 N 1.4664(2) 1.19471(16) -0.14820(16)
C1 C 0.4463(2) 0.13228(19) 0.32334(19)
H1 H 0.52740 0.10990 0.28700
C2 C 0.3598(3) 0.0445(2) 0.41343(19)
H2 H 0.38150 -0.03690 0.43720
C3 C 0.2413(3) 0.0774(2) 0.46814(19)
C4 C 0.2058(2) 0.1963(2) 0.43438(19)
H3 H 0.12590 0.21770 0.47260
C5 C 0.2905(2) 0.28330(19) 0.34301(18)
C6 C 0.4133(2) 0.25454(19) 0.28611(18)
C7 C 0.6335(2) 0.31692(19) 0.15436(19)
H4 H 0.61520 0.26480 0.11860
H5 H 0.69650 0.27440 0.21510
C8 C 0.7089(2) 0.43251(19) 0.06731(18)
H6 H 0.78990 0.41540 0.02170
H7 H 0.63860 0.48370 0.01640
C9 C 0.8513(2) 0.59369(18) 0.06529(18)
C10 C 0.8834(2) 0.64507(19) -0.05188(19)
H8 H 0.84490 0.61040 -0.09420
C11 C 0.9734(2) 0.74887(19) -0.1073(2)
H9 H 0.99390 0.78370 -0.18670
C12 C 1.0325(2) 0.80076(19) -0.04542(19)
C13 C 0.9982(2) 0.7489(2) 0.0733(2)
H10 H 1.03730 0.78350 0.11550
C14 C 0.9076(3) 0.6476(2) 0.12879(19)
C15 C 0.9226(3) 0.6404(2) 0.3123(2)
H11 H 1.02940 0.63860 0.30370
H12 H 0.88600 0.59250 0.39120
H13 H 0.89120 0.72250 0.28840
C16 C 1.1299(2) 0.9080(2) -0.1056(2)
H14 H 1.14150 0.94470 -0.18540
C17 C 1.2959(2) 1.05284(18) -0.11653(19)
C18 C 1.3674(2) 1.11252(19) -0.0679(2)
C19 C 1.3479(3) 1.0968(2) 0.0518(2)
H15 H 1.44260 1.08150 0.08210
H16 H 1.28100 1.02950 0.09740
H17 H 1.30740 1.16910 0.05350
C20 C 1.3488(2) 1.10364(19) -0.2364(2)
C21 C 1.5177(3) 1.3055(2) -0.1483(2)
H18 H 1.44270 1.36580 -0.17370
H19 H 1.60780 1.33420 -0.19920
H20 H 1.53650 1.28970 -0.07210
C22 C 1.5591(3) 1.2469(2) -0.3487(2)
C23 C 1.7049(3) 1.2150(2) -0.3350(2)
H21 H 1.73230 1.16360 -0.26280
C24 C 1.8104(3) 1.2594(3) -0.4288(3)
H22 H 1.90950 1.23800 -0.42000
C25 C 1.7700(4) 1.3349(3) -0.5348(3)
H23 H 1.84150 1.36460 -0.59800
C26 C 1.6259(4) 1.3663(3) -0.5478(3)
H24 H 1.59880 1.41790 -0.62000
C27 C 1.5185(3) 1.3219(2) -0.4539(2)
H25 H 1.41950 1.34330 -0.46290
#END
