
#######################################################################
#
#                 Cambridge Crystallographic Data Centre
#                                CCDC
#
#######################################################################
#
# If this CIF has been generated from an entry in the Cambridge
# Structural Database, then it will include bibliographic, chemical,
# crystal, experimental, refinement or atomic coordinate data resulting
# from the CCDC's data processing and validation procedures.
#
#######################################################################

data_CSD_CIF_YESMUH
_audit_creation_date 2018-01-30
_audit_creation_method CSD-ConQuest-V1
_database_code_CSD YESMUH
_database_code_depnum_ccdc_archive 'CCDC 1583797'
_chemical_formula_sum 'C16 H12 N6 O2'
_chemical_formula_moiety
;
C16 H12 N6 O2
;
_journal_coden_Cambridge 1267
_journal_volume 233
_journal_year 2018
_journal_page_first 69
_journal_name_full 'Z.Kristallogr.-New Cryst.Struct. '
loop_
_publ_author_name
"Fei Liu"
"Huang Fang"
"Fang Zhang"
"Qifan Chen"
_chemical_name_systematic
;
3,3'-[ethane-1,2-diylbis(1,2,4-oxadiazole-5,3-diyl)]dipyridine
;
_cell_volume    728.764
_exptl_crystal_colour 'colorless'
_exptl_crystal_density_diffrn 1.46
_exptl_crystal_description 'block'
_diffrn_ambient_temperature 293
#These two values have been output from a single CSD field.
_refine_ls_R_factor_gt 0.0407
_refine_ls_wR_factor_gt 0.0407
_symmetry_cell_setting monoclinic
_symmetry_space_group_name_H-M 'P 21/c'
_symmetry_Int_Tables_number 14
loop_
_symmetry_equiv_pos_site_id
_symmetry_equiv_pos_as_xyz
1 x,y,z
2 -x,1/2+y,1/2-z
3 -x,-y,-z
4 x,-1/2-y,-1/2+z
_cell_length_a 4.791(5)
_cell_length_b 28.156(5)
_cell_length_c 5.747(5)
_cell_angle_alpha 90
_cell_angle_beta 109.941(5)
_cell_angle_gamma 90
_cell_formula_units_Z 2
loop_
_atom_type_symbol
_atom_type_radius_bond
C 0.68
H 0.23
N 0.68
O 0.68
loop_
_atom_site_label
_atom_site_type_symbol
_atom_site_fract_x
_atom_site_fract_y
_atom_site_fract_z
C1 C 0.6328(4) 0.00856(6) 0.6068(3)
H1 H 0.72944 -0.01838 0.70723
H2 H 0.77432 0.02339 0.54262
C2 C 0.5429(4) 0.04303(6) 0.7622(3)
C3 C 0.3589(4) 0.09646(6) 0.9171(3)
C4 C 0.1596(4) 0.13453(6) 0.9348(3)
C5 C 0.1986(4) 0.15872(7) 1.1536(4)
H3 H 0.35273 0.15072 1.29769
C6 C 0.0056(5) 0.19465(7) 1.1536(4)
H4 H 0.02892 0.21171 1.29754
C7 C -0.2214(5) 0.20515(7) 0.9400(4)
H5 H -0.35155 0.22939 0.94388
C8 C -0.0752(4) 0.14794(6) 0.7284(3)
H6 H -0.10223 0.13186 0.58092
N1 N 0.3221(3) 0.07196(5) 0.7006(3)
N2 N 0.5881(3) 0.08333(5) 1.1033(3)
N3 N -0.2663(4) 0.18266(5) 0.7273(3)
O1 O 0.7156(3) 0.04690(4) 1.0016(2)
C1B C 0.3672(4) -0.00856(6) 0.3932(3)
H1B H 0.27056 0.01838 0.29277
H2B H 0.22568 -0.02339 0.45738
C2B C 0.4571(4) -0.04303(6) 0.2378(3)
C3B C 0.6411(4) -0.09646(6) 0.0829(3)
C4B C 0.8404(4) -0.13453(6) 0.0652(3)
C5B C 0.8014(4) -0.15872(7) -0.1536(4)
H3B H 0.64727 -0.15072 -0.29769
C6B C 0.9944(5) -0.19465(7) -0.1536(4)
H4B H 0.97108 -0.21171 -0.29754
C7B C 1.2214(5) -0.20515(7) 0.0600(4)
H5B H 1.35155 -0.22939 0.05612
C8B C 1.0752(4) -0.14794(6) 0.2716(3)
H6B H 1.10223 -0.13186 0.41908
N1B N 0.6779(3) -0.07196(5) 0.2994(3)
N2B N 0.4119(3) -0.08333(5) -0.1033(3)
N3B N 1.2663(4) -0.18266(5) 0.2727(3)
O1B O 0.2844(3) -0.04690(4) -0.0016(2)
#END
