
#######################################################################
#
#                 Cambridge Crystallographic Data Centre
#                                CCDC
#
#######################################################################
#
# If this CIF has been generated from an entry in the Cambridge
# Structural Database, then it will include bibliographic, chemical,
# crystal, experimental, refinement or atomic coordinate data resulting
# from the CCDC's data processing and validation procedures.
#
#######################################################################

data_CSD_CIF_YESRAP
_audit_creation_date 1995-07-07
_audit_creation_method CSD-ConQuest-V1
_database_code_CSD YESRAP
_chemical_formula_sum 'C10 H11 N3 O7'
_chemical_formula_moiety
;
C10 H11 N3 O7
;
_journal_coden_Cambridge 95
_journal_year 1992
_journal_page_first 2624
_journal_name_full 'Izv.Akad.Nauk SSSR,Ser.Khim.(Russ.)(Russ.Chem.Bull.) '
loop_
_publ_author_name
"V.F.Rudchenko"
"S.M.Ignatov"
"I.I.Chervin"
"A.E.Aliev"
"M.O.Dekaprilevich"
"Yu.T.Struchkov"
"R.G.Kostyanovskii"
_chemical_name_systematic
;
(E)-1-(2-(p-Nitrobenzoyloxy)ethoxy)-2-methoxydiazene-1-oxide
;
_chemical_melting_point 357.15
_cell_volume    657.011
_exptl_crystal_density_diffrn 1.44
_exptl_special_details
;
Melting point range 357.15-358.15K

;
_diffrn_ambient_temperature ?
_diffrn_special_details
;
The study was carried out at room temperature,in the range 283-303K

;
_refine_special_details
;
The O-atoms of the nitro group are disordered with equal occupancies.

;
#These two values have been output from a single CSD field.
_refine_ls_R_factor_gt 0.062
_refine_ls_wR_factor_gt 0.062
_symmetry_cell_setting triclinic
_symmetry_space_group_name_H-M 'P -1'
_symmetry_Int_Tables_number 2
loop_
_symmetry_equiv_pos_site_id
_symmetry_equiv_pos_as_xyz
1 x,y,z
2 -x,-y,-z
_cell_length_a 6.177(6)
_cell_length_b 7.308(7)
_cell_length_c 14.733(11)
_cell_angle_alpha 94.03(7)
_cell_angle_beta 96.75(8)
_cell_angle_gamma 93.74(8)
_cell_formula_units_Z 2
loop_
_atom_type_symbol
_atom_type_radius_bond
C 0.68
H 0.23
N 0.68
O 0.68
loop_
_atom_site_label
_atom_site_type_symbol
_atom_site_fract_x
_atom_site_fract_y
_atom_site_fract_z
O1 O -0.2705(63) 0.6293(50) -0.2486(23)
O2 O -0.5168(24) 0.5419(38) -0.1500(17)
O3 O 0.4773(4) 0.9568(4) 0.1398(2)
O4 O 0.2472(4) 0.8134(3) 0.2229(1)
O5 O 0.0698(5) 0.9025(4) 0.3860(2)
O6 O 0.2670(5) 1.1563(4) 0.4612(2)
O7 O -0.0474(5) 1.3504(4) 0.4194(2)
N1 N -0.3133(6) 0.6248(4) -0.1664(2)
N2 N 0.0980(6) 1.0935(5) 0.4133(2)
N3 N -0.0751(6) 1.1689(5) 0.3839(2)
C1 C -0.1541(5) 0.6907(4) -0.0860(2)
C2 C 0.0509(6) 0.7675(4) -0.0990(2)
C3 C 0.1993(6) 0.8240(4) -0.0229(2)
C4 C 0.1418(5) 0.8028(4) 0.0645(2)
C5 C -0.0666(5) 0.7274(4) 0.0754(2)
C6 C -0.2159(6) 0.6711(4) 0.0003(2)
C7 C 0.3091(6) 0.8677(4) 0.1444(2)
C8 C 0.3953(7) 0.8737(6) 0.3060(2)
C9 C 0.2783(8) 0.8190(7) 0.3840(3)
C10 C -0.2422(10) 1.4410(8) 0.3867(4)
O8? O -0.2553(69) 0.6786(51) -0.2360(24)
O9? O -0.4555(25) 0.5421(33) -0.1576(17)
H1 H 0.088(5) 0.780(4) -0.153(2)
H2 H 0.342(5) 0.877(4) -0.028(2)
H3 H -0.111(5) 0.714(4) 0.133(2)
H4 H -0.349(5) 0.627(4) 0.003(2)
H5 H 0.527(7) 0.807(5) 0.302(3)
H6 H 0.419(6) 1.014(5) 0.311(2)
H7 H 0.229(7) 0.682(6) 0.377(3)
H8 H 0.366(7) 0.857(5) 0.440(3)
H9 H -0.378(11) 1.369(9) 0.391(5)
H10 H -0.231(8) 1.452(6) 0.327(3)
H11 H -0.218(9) 1.567(8) 0.415(4)
#END
