
#######################################################################
#
#                 Cambridge Crystallographic Data Centre
#                                CCDC
#
#######################################################################
#
# If this CIF has been generated from an entry in the Cambridge
# Structural Database, then it will include bibliographic, chemical,
# crystal, experimental, refinement or atomic coordinate data resulting
# from the CCDC's data processing and validation procedures.
#
#######################################################################

data_CSD_CIF_YESVEY
_audit_creation_date 2007-04-10
_audit_creation_method CSD-ConQuest-V1
_database_code_CSD YESVEY
_database_code_depnum_ccdc_archive 'CCDC 635657'
_database_code_depnum_ccdc_journal 1267/1823
_chemical_formula_sum 'C17 H16 N2 O2'
_chemical_formula_moiety
;
C17 H16 N2 O2
;
_journal_coden_Cambridge 1267
_journal_volume 221
_journal_year 2006
_journal_page_first 349
_journal_name_full 'Z.Kristallogr.-New Cryst.Struct. '
loop_
_publ_author_name
"W.Frey"
"S.Shiva"
"V.Jager"
_chemical_name_systematic
;
rel-(3aR,6aS)-6-methyl-3,6a-diphenyl-3a,4,6,6a-tetrahydro-isoxazolo(5,4-c)isox
azole
;
_chemical_melting_point 403
_cell_volume   2891.891
_exptl_crystal_colour 'colorless'
_exptl_crystal_density_diffrn 1.288
_exptl_special_details
;
Melting point range 403-405K

;
_exptl_crystal_description 'plate'
_exptl_crystal_preparation 'ethanol'
_diffrn_ambient_temperature 293
#These two values have been output from a single CSD field.
_refine_ls_R_factor_gt 0.0836
_refine_ls_wR_factor_gt 0.0836
_symmetry_cell_setting orthorhombic
_symmetry_space_group_name_H-M 'P c a 21'
_symmetry_Int_Tables_number 29
loop_
_symmetry_equiv_pos_site_id
_symmetry_equiv_pos_as_xyz
1 x,y,z
2 -x,-y,1/2+z
3 1/2+x,-y,z
4 1/2-x,y,1/2+z
_cell_length_a 5.6406(8)
_cell_length_b 30.292(4)
_cell_length_c 16.925(3)
_cell_angle_alpha 90
_cell_angle_beta 90
_cell_angle_gamma 90
_cell_formula_units_Z 8
loop_
_atom_type_symbol
_atom_type_radius_bond
C 0.68
H 0.23
N 0.68
O 0.68
loop_
_atom_site_label
_atom_site_type_symbol
_atom_site_fract_x
_atom_site_fract_y
_atom_site_fract_z
O1 O 0.6975(7) 0.37839(12) 0.2858(3)
N1 N 0.6961(9) 0.33187(15) 0.2950(3)
C1 C 0.9371(9) 0.39559(17) 0.2905(4)
O2 O 0.9748(10) 0.40150(16) 0.4225(3)
N2 N 0.9710(9) 0.42842(16) 0.3505(3)
C2 C 1.0842(11) 0.35561(18) 0.3171(4)
H1 H 1.22300 0.35060 0.28340
C3 C 0.9063(11) 0.31889(19) 0.3113(4)
C4 C 1.1527(14) 0.3694(2) 0.4020(4)
H2 H 1.14780 0.34430 0.43760
H3 H 1.31000 0.38220 0.40340
C5 C 0.7727(13) 0.4598(2) 0.3587(4)
H4 H 0.80840 0.48060 0.39970
H5 H 0.63080 0.44390 0.37200
H6 H 0.74980 0.47520 0.30970
C6 C 0.9986(11) 0.41524(18) 0.2100(4)
C7 C 1.2135(11) 0.4369(2) 0.1996(4)
H7 H 1.31780 0.43990 0.24170
C8 C 1.2717(14) 0.4540(2) 0.1263(5)
H8 H 1.41420 0.46900 0.12030
C9 C 1.1278(17) 0.4494(2) 0.0638(5)
H9 H 1.17090 0.46100 0.01500
C10 C 0.9203(17) 0.4278(2) 0.0720(5)
H10 H 0.82300 0.42410 0.02820
C11 C 0.8480(13) 0.4108(2) 0.1451(4)
H11 H 0.70210 0.39680 0.15030
C12 C 0.9590(12) 0.2719(2) 0.3211(4)
C13 C 0.7986(14) 0.2399(2) 0.2942(5)
H12 H 0.65760 0.24820 0.26990
C14 C 0.8536(15) 0.1957(2) 0.3044(6)
H13 H 0.74840 0.17430 0.28640
C15 C 1.0582(17) 0.1828(3) 0.3402(6)
H14 H 1.08940 0.15300 0.34800
C16 C 1.2190(16) 0.2141(2) 0.3647(5)
H15 H 1.36020 0.20510 0.38790
C17 C 1.1749(14) 0.2588(2) 0.3555(5)
H16 H 1.28540 0.27970 0.37180
O3 O 0.7539(8) 0.12293(12) 0.0360(3)
N3 N 0.7591(10) 0.16941(16) 0.0470(4)
C18 C 0.9881(10) 0.10469(17) 0.0358(4)
N4 N 1.020(1) 0.07146(16) 0.0971(3)
O4 O 1.0267(10) 0.09811(17) 0.1700(3)
C19 C 1.1460(11) 0.14389(19) 0.0646(4)
H17 H 1.28540 0.14860 0.03110
C20 C 0.9718(12) 0.18126(18) 0.0603(4)
C21 C 1.2112(15) 0.1298(2) 0.1493(4)
H18 H 1.36680 0.11630 0.15090
H19 H 1.20920 0.15490 0.18490
C22 C 0.8119(14) 0.0408(2) 0.1066(5)
H20 H 0.84470 0.01990 0.14780
H21 H 0.78480 0.02540 0.05790
H22 H 0.67340 0.05760 0.12010
C23 C 1.0479(11) 0.08563(19) -0.0437(4)
C24 C 0.8967(14) 0.0918(2) -0.1084(4)
H23 H 0.75530 0.10720 -0.10200
C25 C 0.9564(17) 0.0751(3) -0.1814(5)
H24 H 0.85600 0.07970 -0.22420
C26 C 1.1568(18) 0.0525(3) -0.1913(5)
H25 H 1.19570 0.04160 -0.24090
C27 C 1.3063(15) 0.0453(2) -0.1286(5)
H26 H 1.44350 0.02890 -0.13620
C28 C 1.2564(11) 0.0624(2) -0.0532(4)
H27 H 1.36010 0.05810 -0.01120
C29 C 1.0355(12) 0.22784(19) 0.0709(4)
C30 C 1.2486(14) 0.2402(2) 0.1073(5)
H28 H 1.35540 0.21880 0.12410
C31 C 1.2991(14) 0.2847(2) 0.1181(5)
H29 H 1.43620 0.29300 0.14470
C32 C 1.1485(16) 0.3163(3) 0.0897(5)
H30 H 1.18740 0.34590 0.09550
C33 C 0.9411(16) 0.3049(2) 0.0529(6)
H31 H 0.84070 0.32690 0.03430
C34 C 0.8788(14) 0.2609(2) 0.0430(5)
H32 H 0.73700 0.25330 0.01860
#END
