
#######################################################################
#
#                 Cambridge Crystallographic Data Centre
#                                CCDC
#
#######################################################################
#
# If this CIF has been generated from an entry in the Cambridge
# Structural Database, then it will include bibliographic, chemical,
# crystal, experimental, refinement or atomic coordinate data resulting
# from the CCDC's data processing and validation procedures.
#
#######################################################################

data_CSD_CIF_YETVEB
_audit_creation_date 2018-01-30
_audit_creation_method CSD-ConQuest-V1
_database_code_CSD YETVEB
_database_code_depnum_ccdc_archive 'CCDC 1042295'
_chemical_formula_sum 'C21 H18 N2 O3'
_chemical_formula_moiety
;
C21 H18 N2 O3
;
_journal_coden_Cambridge 2020
_journal_volume 3
_journal_year 2018
_journal_page_first 946
_journal_name_full 'Chem. Sel. '
loop_
_publ_author_name
"T.Shah"
"W.Raza"
"M.Muneer"
"N.A.Mir"
"M.Ahmad"
_chemical_name_systematic
;
2-((3,4-dimethyl-1,2-oxazol-5-yl)amino)-1,4-diphenylbut-2-ene-1,4-dione
;
_cell_volume    864.672
_exptl_crystal_colour 'yellow'
_exptl_crystal_density_diffrn 1.33
_exptl_crystal_description 'block'
_diffrn_ambient_temperature 100
#These two values have been output from a single CSD field.
_refine_ls_R_factor_gt 0.0517
_refine_ls_wR_factor_gt 0.0517
_symmetry_cell_setting triclinic
_symmetry_space_group_name_H-M 'P -1'
_symmetry_Int_Tables_number 2
loop_
_symmetry_equiv_pos_site_id
_symmetry_equiv_pos_as_xyz
1 x,y,z
2 -x,-y,-z
_cell_length_a 8.7077(7)
_cell_length_b 10.2137(7)
_cell_length_c 11.6317(8)
_cell_angle_alpha 64.685(4)
_cell_angle_beta 71.671(4)
_cell_angle_gamma 70.810(5)
_cell_formula_units_Z 2
loop_
_atom_type_symbol
_atom_type_radius_bond
C 0.68
H 0.23
N 0.68
O 0.68
loop_
_atom_site_label
_atom_site_type_symbol
_atom_site_fract_x
_atom_site_fract_y
_atom_site_fract_z
O1 O 0.52501(14) 0.46357(13) 0.17543(11)
O2 O 0.93948(15) 0.67119(13) -0.20283(11)
O3 O 0.43870(14) 0.82775(14) 0.10801(11)
N1 N 0.72697(17) 0.57096(15) 0.00361(13)
H1 H 0.80600 0.55940 -0.06280
N2 N 0.47852(19) 0.32284(17) 0.23699(14)
C1 C 0.65659(19) 0.45079(19) 0.07855(15)
C2 C 0.7002(2) 0.31521(19) 0.07013(15)
C3 C 0.5837(2) 0.2396(2) 0.17299(15)
C4 C 0.8356(2) 0.2598(2) -0.02596(18)
H2 H 0.79470 0.28800 -0.10470
H3 H 0.87050 0.15130 0.01180
H4 H 0.93030 0.30380 -0.04800
C5 C 0.5764(2) 0.0828(2) 0.21352(18)
H5 H 0.67690 0.01680 0.24540
H6 H 0.56880 0.06540 0.13910
H7 H 0.47850 0.06240 0.28290
C6 C 0.69486(19) 0.70415(18) 0.01502(15)
C7 C 0.77448(19) 0.81306(18) -0.07457(15)
H8 H 0.74620 0.90620 -0.06450
C8 C 0.90096(19) 0.79050(18) -0.18459(15)
C9 C 0.98877(19) 0.91066(18) -0.27761(15)
C10 C 0.9413(2) 1.05393(19) -0.27620(16)
H9 H 0.85070 1.07830 -0.21190
C11 C 1.0260(2) 1.16170(19) -0.36849(16)
H10 H 0.99310 1.25950 -0.36720
C12 C 1.1584(2) 1.1265(2) -0.46250(16)
H11 H 1.21540 1.20040 -0.52630
C13 C 1.2070(2) 0.9838(2) -0.46303(16)
H12 H 1.29870 0.95970 -0.52680
C14 C 1.1240(2) 0.87575(19) -0.37184(16)
H13 H 1.15850 0.77780 -0.37300
C15 C 0.56889(19) 0.73913(18) 0.12924(15)
C16 C 0.61801(19) 0.67462(17) 0.25632(15)
C17 C 0.7696(2) 0.57523(19) 0.27554(16)
H14 H 0.84360 0.54650 0.20620
C18 C 0.8130(2) 0.51804(19) 0.39522(17)
H15 H 0.91600 0.44930 0.40860
C19 C 0.7052(2) 0.56159(19) 0.49572(16)
H16 H 0.73510 0.52300 0.57780
C20 C 0.5540(2) 0.66106(19) 0.47710(16)
H17 H 0.48120 0.69070 0.54630
C21 C 0.5092(2) 0.71683(18) 0.35896(16)
H18 H 0.40490 0.78380 0.34680
#END
