
#######################################################################
#
#                 Cambridge Crystallographic Data Centre
#                                CCDC
#
#######################################################################
#
# If this CIF has been generated from an entry in the Cambridge
# Structural Database, then it will include bibliographic, chemical,
# crystal, experimental, refinement or atomic coordinate data resulting
# from the CCDC's data processing and validation procedures.
#
#######################################################################

data_CSD_CIF_YETVAX
_audit_creation_date 2018-01-30
_audit_creation_method CSD-ConQuest-V1
_database_code_CSD YETVAX
_database_code_depnum_ccdc_archive 'CCDC 1042294'
_chemical_formula_sum 'C20 H16 N2 O3'
_chemical_formula_moiety
;
C20 H16 N2 O3
;
_journal_coden_Cambridge 2020
_journal_volume 3
_journal_year 2018
_journal_page_first 946
_journal_name_full 'Chem. Sel. '
loop_
_publ_author_name
"T.Shah"
"W.Raza"
"M.Muneer"
"N.A.Mir"
"M.Ahmad"
_chemical_name_systematic
;
2-((5-methyl-1,2-oxazol-3-yl)amino)-1,4-diphenylbut-2-ene-1,4-dione
;
_cell_volume   1690.897
_exptl_crystal_colour 'colorless'
_exptl_crystal_density_diffrn 1.306
_exptl_crystal_description 'rectangular'
_diffrn_ambient_temperature 123
#These two values have been output from a single CSD field.
_refine_ls_R_factor_gt 0.04
_refine_ls_wR_factor_gt 0.04
_symmetry_cell_setting monoclinic
_symmetry_space_group_name_H-M 'P 21/c'
_symmetry_Int_Tables_number 14
loop_
_symmetry_equiv_pos_site_id
_symmetry_equiv_pos_as_xyz
1 x,y,z
2 -x,1/2+y,1/2-z
3 -x,-y,-z
4 x,-1/2-y,-1/2+z
_cell_length_a 18.636(6)
_cell_length_b 8.360(3)
_cell_length_c 10.914(4)
_cell_angle_alpha 90
_cell_angle_beta 96.05(2)
_cell_angle_gamma 90
_cell_formula_units_Z 4
loop_
_atom_type_symbol
_atom_type_radius_bond
C 0.68
H 0.23
N 0.68
O 0.68
loop_
_atom_site_label
_atom_site_type_symbol
_atom_site_fract_x
_atom_site_fract_y
_atom_site_fract_z
O1 O 0.45692(5) 0.15800(13) 0.90378(9)
O2 O 0.26624(5) 0.09631(11) 0.64533(8)
O3 O 0.14183(5) 0.27415(13) 1.00563(10)
N1 N 0.38328(6) 0.12561(15) 0.86190(11)
N2 N 0.27149(6) 0.17342(13) 0.9402(1)
H1 H 0.25030 0.21250 1.00210
C1 C 0.45949(7) 0.23266(17) 1.01431(13)
C2 C 0.39235(7) 0.25048(17) 1.04757(13)
H2 H 0.37870 0.29830 1.12060
C3 C 0.34667(7) 0.18200(15) 0.94930(12)
C4 C 0.53225(8) 0.2780(2) 1.07317(16)
H3 H 0.56280 0.18250 1.08310
H4 H 0.52780 0.32550 1.15410
H5 H 0.55400 0.35580 1.02100
C5 C 0.22765(7) 0.10984(15) 0.84391(12)
C6 C 0.15422(7) 0.11560(17) 0.83208(13)
H6 H 0.12900 0.06500 0.76250
C7 C 0.11191(7) 0.19451(16) 0.91945(13)
C8 C 0.03106(7) 0.17980(16) 0.90408(13)
C9 C -0.00847(8) 0.28126(19) 0.97288(15)
H7 H 0.01600 0.35800 1.02630
C10 C -0.08345(8) 0.2714(2) 0.96423(17)
H8 H -0.10990 0.34290 1.01010
C11 C -0.11935(8) 0.1579(2) 0.88912(15)
H9 H -0.17040 0.15010 0.88410
C12 C -0.08080(8) 0.0556(2) 0.82118(15)
H10 H -0.10550 -0.02290 0.76990
C13 C -0.00570(8) 0.06715(19) 0.82755(13)
H11 H 0.02030 -0.00230 0.77940
C14 C 0.26132(7) 0.02452(15) 0.74124(11)
C15 C 0.28052(7) -0.14752(15) 0.75563(11)
C16 C 0.25581(7) -0.24220(16) 0.84777(12)
H12 H 0.22920 -0.19510 0.90810
C17 C 0.27014(9) -0.40586(17) 0.85123(13)
H13 H 0.25250 -0.47070 0.91300
C18 C 0.31007(9) -0.47410(17) 0.76448(13)
H14 H 0.31930 -0.58590 0.76650
C19 C 0.33654(8) -0.37991(17) 0.67473(13)
H15 H 0.36490 -0.42670 0.61680
C20 C 0.32159(7) -0.21700(16) 0.66961(12)
H16 H 0.33930 -0.15280 0.60760
#END
