
#######################################################################
#
#                 Cambridge Crystallographic Data Centre
#                                CCDC
#
#######################################################################
#
# If this CIF has been generated from an entry in the Cambridge
# Structural Database, then it will include bibliographic, chemical,
# crystal, experimental, refinement or atomic coordinate data resulting
# from the CCDC's data processing and validation procedures.
#
#######################################################################

data_CSD_CIF_YEVJAK
_audit_creation_date 1995-07-06
_audit_creation_method CSD-ConQuest-V1
_database_code_CSD YEVJAK
_database_code_depnum_ccdc_archive 'CCDC 1301875'
_chemical_formula_sum 'C14 H17 N3 O9'
_chemical_formula_moiety
;
C14 H17 N3 O9
;
_journal_coden_Cambridge 179
_journal_volume 33
_journal_year 1995
_journal_page_first 2454
_journal_name_full 'Angew.Chem.,Int.Ed. '
loop_
_publ_author_name
"X.Ariza"
"V.Bou"
"J.Vilarrasa"
"V.Tereshko"
"J.L.Campos"
_chemical_name_systematic
;
3',5'-Di-O-acetyl-3-nitrothymidine
;
_chemical_melting_point 375.15
_cell_volume   3451.193
_exptl_crystal_density_diffrn 1.43
_exptl_special_details
;
Melting point range 375.15-376.15K

;
_diffrn_ambient_temperature ?
_diffrn_special_details
;
The study was carried out at room temperature,in the range 283-303K

;
#These two values have been output from a single CSD field.
_refine_ls_R_factor_gt 0.067
_refine_ls_wR_factor_gt 0.067
_symmetry_cell_setting orthorhombic
_symmetry_space_group_name_H-M 'P 21 21 21'
_symmetry_Int_Tables_number 19
loop_
_symmetry_equiv_pos_site_id
_symmetry_equiv_pos_as_xyz
1 x,y,z
2 1/2-x,-y,1/2+z
3 1/2+x,1/2-y,-z
4 -x,1/2+y,1/2-z
_cell_length_a 7.832(3)
_cell_length_b 15.695(2)
_cell_length_c 28.076(1)
_cell_angle_alpha 90
_cell_angle_beta 90
_cell_angle_gamma 90
_cell_formula_units_Z 8
loop_
_atom_type_symbol
_atom_type_radius_bond
C 0.68
N 0.68
O 0.68
loop_
_atom_site_label
_atom_site_type_symbol
_atom_site_fract_x
_atom_site_fract_y
_atom_site_fract_z
C1 C 0.5658(10) 0.6539(5) 0.9003(3)
C2 C 0.406(1) 0.6467(5) 0.9296(3)
O1 O 0.3191(7) 0.7267(3) 0.9289(2)
C3 C 0.2797(10) 0.5795(5) 0.9133(3)
C4 C 0.1289(11) 0.6294(5) 0.8959(3)
C5 C 0.1464(10) 0.7134(5) 0.9221(3)
O2 O 0.5190(7) 0.6631(4) 0.8511(2)
O3 O 0.7884(7) 0.6975(4) 0.8349(2)
C6 C 0.6477(11) 0.6825(5) 0.8217(3)
C7 C 0.5896(13) 0.6873(8) 0.7708(3)
O4 O 0.2289(7) 0.5273(3) 0.9529(2)
C8 C 0.3237(10) 0.4591(5) 0.9624(3)
O5 O 0.4467(9) 0.4410(4) 0.9407(2)
C9 C 0.2516(13) 0.4096(5) 1.0029(3)
N1 N 0.0753(8) 0.7862(4) 0.8951(2)
C10 C -0.0808(9) 0.8189(5) 0.9081(3)
O6 O -0.1591(7) 0.8002(3) 0.9426(2)
N2 N -0.1369(8) 0.8784(4) 0.8745(2)
N3 N -0.3098(10) 0.9120(5) 0.8837(3)
O7 O -0.4226(8) 0.8668(5) 0.8713(3)
O8 O -0.3148(10) 0.9798(5) 0.9003(3)
C11 C -0.0686(11) 0.9033(5) 0.8306(3)
O9 O -0.1471(9) 0.9490(4) 0.8045(2)
C12 C 0.1008(11) 0.8662(5) 0.8233(3)
C13 C 0.1903(14) 0.8927(7) 0.7784(4)
C14 C 0.1596(10) 0.8111(5) 0.8551(3)
C15 C 0.0482(11) 0.1352(6) 0.8652(3)
C16 C 0.2143(10) 0.1017(5) 0.8838(3)
O10 O 0.3549(7) 0.1464(4) 0.8627(2)
C17 C 0.2325(10) 0.1152(5) 0.9383(3)
C18 C 0.3392(10) 0.1945(5) 0.9406(3)
C19 C 0.4535(9) 0.1839(5) 0.8975(3)
O11 O 0.0467(7) 0.1226(4) 0.8152(2)
O12 O -0.208(1) 0.1844(6) 0.8117(3)
C20 C -0.0921(12) 0.1489(6) 0.7923(4)
C21 C -0.0880(13) 0.1271(7) 0.7409(3)
O13 O 0.3253(6) 0.0471(3) 0.9599(2)
C22 C 0.2384(12) -0.0259(5) 0.9667(3)
O14 O 0.0961(8) -0.0351(4) 0.9549(3)
C23 C 0.3488(13) -0.0919(5) 0.9888(3)
N4 N 0.5215(8) 0.2651(4) 0.8786(2)
C24 C 0.6764(10) 0.2923(5) 0.8955(3)
O15 O 0.7564(7) 0.2579(4) 0.9261(2)
N5 N 0.7311(8) 0.3659(4) 0.8728(2)
N6 N 0.8912(11) 0.3988(5) 0.8918(4)
O16 O 0.8756(11) 0.4461(5) 0.9250(3)
O17 O 1.0163(10) 0.3750(6) 0.8726(4)
C25 C 0.6458(13) 0.4195(5) 0.8408(3)
O18 O 0.7091(10) 0.4855(4) 0.8288(2)
C26 C 0.4823(11) 0.3843(5) 0.8273(3)
C27 C 0.3754(14) 0.4362(6) 0.7926(3)
C28 C 0.4315(11) 0.3112(5) 0.8460(3)
#END
