
#######################################################################
#
#                 Cambridge Crystallographic Data Centre
#                                CCDC
#
#######################################################################
#
# If this CIF has been generated from an entry in the Cambridge
# Structural Database, then it will include bibliographic, chemical,
# crystal, experimental, refinement or atomic coordinate data resulting
# from the CCDC's data processing and validation procedures.
#
#######################################################################

data_CSD_CIF_YEWBIM
_audit_creation_date 2007-04-11
_audit_creation_method CSD-ConQuest-V1
_database_code_CSD YEWBIM
_database_code_depnum_ccdc_archive 'CCDC 619524'
_chemical_formula_sum 'C16 H13 N1 O2'
_chemical_formula_moiety
;
C16 H13 N1 O2
;
_journal_coden_Cambridge 1291
_journal_year 2007
_journal_page_first 487
_journal_name_full 'Eur.J.Org.Chem. '
loop_
_publ_author_name
"C.Brule"
"K.K.Laali"
"T.Okazaki"
"T.Musafia"
"W.M.Baird"
_chemical_name_systematic
;
1,3-Dimethyl-4-nitrophenanthrene
;
_cell_volume    601.321
_exptl_crystal_colour 'colorless'
_exptl_crystal_density_diffrn 1.388
_exptl_crystal_description 'irregular'
_diffrn_ambient_temperature 273
#These two values have been output from a single CSD field.
_refine_ls_R_factor_gt 0.0314
_refine_ls_wR_factor_gt 0.0314
_symmetry_cell_setting triclinic
_symmetry_space_group_name_H-M 'P -1'
_symmetry_Int_Tables_number 2
loop_
_symmetry_equiv_pos_site_id
_symmetry_equiv_pos_as_xyz
1 x,y,z
2 -x,-y,-z
_cell_length_a 7.7881(11)
_cell_length_b 9.2769(13)
_cell_length_c 9.7062(13)
_cell_angle_alpha 63.706(2)
_cell_angle_beta 77.781(2)
_cell_angle_gamma 74.096(2)
_cell_formula_units_Z 2
loop_
_atom_type_symbol
_atom_type_radius_bond
C 0.68
H 0.23
N 0.68
O 0.68
loop_
_atom_site_label
_atom_site_type_symbol
_atom_site_fract_x
_atom_site_fract_y
_atom_site_fract_z
N1 N 0.23213(13) 0.77970(11) 0.62960(11)
O1 O 0.07277(12) 0.82937(11) 0.66093(10)
O2 O 0.35356(12) 0.78866(11) 0.68606(10)
C1 C 0.27826(14) 0.71161(14) 0.51170(13)
C2 C 0.33773(14) 0.81884(14) 0.36720(13)
C3 C 0.35901(15) 0.77115(14) 0.24529(13)
H1 H 0.40230 0.83920 0.14740
C4 C 0.31846(14) 0.62777(14) 0.26492(13)
C5 C 0.26460(14) 0.51663(14) 0.41620(13)
C6 C 0.22342(15) 0.36587(14) 0.43841(14)
H2 H 0.22900 0.34360 0.35290
C7 C 0.17682(15) 0.25566(14) 0.58004(14)
H3 H 0.14760 0.16050 0.59020
C8 C 0.17163(14) 0.28267(14) 0.71465(14)
C9 C 0.13724(16) 0.15821(14) 0.86211(14)
H4 H 0.11630 0.06090 0.86950
C10 C 0.13405(15) 0.17791(15) 0.99439(14)
H5 H 0.11010 0.09550 1.09070
C11 C 0.16740(16) 0.32388(15) 0.98242(14)
H6 H 0.16550 0.33830 1.07170
C12 C 0.20294(15) 0.44641(14) 0.84042(13)
H7 H 0.22610 0.54160 0.83590
C13 C 0.20523(14) 0.43176(13) 0.70122(13)
C14 C 0.24753(14) 0.55493(14) 0.54600(13)
C15 C 0.37488(16) 0.98158(14) 0.33802(13)
H8 H 0.26830 1.04660 0.36870
H9 H 0.41040 1.03850 0.23000
H10 H 0.46960 0.96340 0.39670
C16 C 0.33093(17) 0.59055(16) 0.12655(14)
H11 H 0.37420 0.67600 0.03570
H12 H 0.21430 0.58450 0.11430
H13 H 0.41220 0.48740 0.14150
#END
