
#######################################################################
#
#                 Cambridge Crystallographic Data Centre
#                                CCDC
#
#######################################################################
#
# If this CIF has been generated from an entry in the Cambridge
# Structural Database, then it will include bibliographic, chemical,
# crystal, experimental, refinement or atomic coordinate data resulting
# from the CCDC's data processing and validation procedures.
#
#######################################################################

data_CSD_CIF_YEWBOS
_audit_creation_date 2007-04-11
_audit_creation_method CSD-ConQuest-V1
_database_code_CSD YEWBOS
_database_code_depnum_ccdc_archive 'CCDC 619525'
_chemical_formula_sum 'C16 H13 N1 O4'
_chemical_formula_moiety
;
C16 H13 N1 O4
;
_journal_coden_Cambridge 1291
_journal_year 2007
_journal_page_first 487
_journal_name_full 'Eur.J.Org.Chem. '
loop_
_publ_author_name
"C.Brule"
"K.K.Laali"
"T.Okazaki"
"T.Musafia"
"W.M.Baird"
_chemical_name_systematic
;
2,4-Dimethoxy-1-nitrophenanthrene
;
_cell_volume   1287.350
_exptl_crystal_colour 'colorless'
_exptl_crystal_density_diffrn 1.462
_exptl_crystal_description 'block'
_diffrn_ambient_temperature 273
#These two values have been output from a single CSD field.
_refine_ls_R_factor_gt 0.0316
_refine_ls_wR_factor_gt 0.0316
_symmetry_cell_setting monoclinic
_symmetry_space_group_name_H-M 'P 21/n'
_symmetry_Int_Tables_number 14
loop_
_symmetry_equiv_pos_site_id
_symmetry_equiv_pos_as_xyz
1 x,y,z
2 1/2-x,1/2+y,1/2-z
3 -x,-y,-z
4 -1/2+x,-1/2-y,-1/2+z
_cell_length_a 10.2113(10)
_cell_length_b 7.5656(8)
_cell_length_c 16.7368(17)
_cell_angle_alpha 90
_cell_angle_beta 95.356(2)
_cell_angle_gamma 90
_cell_formula_units_Z 4
loop_
_atom_type_symbol
_atom_type_radius_bond
C 0.68
H 0.23
N 0.68
O 0.68
loop_
_atom_site_label
_atom_site_type_symbol
_atom_site_fract_x
_atom_site_fract_y
_atom_site_fract_z
C1 C 0.50049(12) 0.72323(17) -0.04230(8)
H1 H 0.43280 0.67170 -0.07540
C2 C 0.62018(13) 0.76109(16) -0.07292(8)
C3 C 0.71800(12) 0.83723(16) -0.02203(8)
C4 C 0.70255(12) 0.88016(16) 0.05816(7)
C5 C 0.80747(12) 0.96661(16) 0.10641(7)
H2 H 0.88630 0.99020 0.08480
C6 C 0.79279(12) 1.01367(17) 0.18236(8)
H3 H 0.86120 1.07230 0.21200
C7 C 0.67532(12) 0.97633(17) 0.21894(8)
C8 C 0.66704(13) 1.02422(18) 0.29981(8)
H4 H 0.73930 1.07600 0.32870
C9 C 0.55463(14) 0.99595(19) 0.33659(8)
H5 H 0.55050 1.02660 0.39010
C10 C 0.44614(13) 0.92022(19) 0.29222(8)
H6 H 0.36890 0.90260 0.31650
C11 C 0.45123(13) 0.87114(18) 0.21344(8)
H7 H 0.37720 0.82140 0.18560
C12 C 0.56635(12) 0.89451(16) 0.17364(8)
C13 C 0.58113(12) 0.84409(16) 0.09023(7)
C14 C 0.48158(12) 0.76162(17) 0.03665(8)
C15 C 0.26072(12) 0.64907(18) 0.01574(8)
H8 H 0.23680 0.73100 -0.02690
H9 H 0.18660 0.62940 0.04590
H10 H 0.28720 0.53910 -0.00640
C16 C 0.55279(13) 0.63316(19) -0.20069(8)
H11 H 0.53020 0.52220 -0.17780
H12 H 0.58690 0.61280 -0.25140
H13 H 0.47580 0.70620 -0.20840
N1 N 0.84561(10) 0.86716(15) -0.05337(6)
O1 O 0.36755(9) 0.72030(12) 0.06745(5)
O2 O 0.65059(9) 0.72028(13) -0.14754(5)
O3 O 0.85348(10) 0.98042(14) -0.10466(6)
O4 O 0.93876(9) 0.77563(14) -0.02624(6)
#END
