
#######################################################################
#
#                 Cambridge Crystallographic Data Centre
#                                CCDC
#
#######################################################################
#
# If this CIF has been generated from an entry in the Cambridge
# Structural Database, then it will include bibliographic, chemical,
# crystal, experimental, refinement or atomic coordinate data resulting
# from the CCDC's data processing and validation procedures.
#
#######################################################################

data_CSD_CIF_YEWZUW
_audit_creation_date 2007-04-11
_audit_creation_method CSD-ConQuest-V1
_database_code_CSD YEWZUW
_database_code_depnum_ccdc_archive 'CCDC 271700'
_chemical_formula_sum 'C19 H21 N3 O4'
_chemical_formula_moiety
;
C19 H21 N3 O4
;
_journal_coden_Cambridge 315
_journal_volume 66
_journal_year 2007
_journal_page_first 250
_journal_name_full 'Spectrochim.Acta,Part A '
loop_
_publ_author_name
"S.N.Podyachev"
"I.A.Litvinov"
"R.R.Shagidullin"
"B.I.Buzykin"
"I.Bauer"
"D.V.Osyanina"
"L.V.Avvakumova"
"S.N.Sudakova"
"W.D.Habicher"
"A.I.Konovalov"
_chemical_name_systematic
;
2-(4-t-Butylphenoxy)-N'-((4-nitrophenyl)methylene)acetohydrazide
;
_chemical_melting_point 457.15
_cell_volume    913.168
_exptl_crystal_colour 'light yellow'
_exptl_crystal_density_diffrn 1.293
_exptl_crystal_description 'prism'
_diffrn_ambient_temperature 293
_refine_special_details
;
The t-butyl group is disordered with occupancies 0.73:0.27.

;
#These two values have been output from a single CSD field.
_refine_ls_R_factor_gt 0.0514
_refine_ls_wR_factor_gt 0.0514
_symmetry_cell_setting monoclinic
_symmetry_space_group_name_H-M 'P a'
_symmetry_Int_Tables_number 7
loop_
_symmetry_equiv_pos_site_id
_symmetry_equiv_pos_as_xyz
1 x,y,z
2 1/2+x,-y,z
_cell_length_a 10.5296(10)
_cell_length_b 6.360(3)
_cell_length_c 14.389(9)
_cell_angle_alpha 90
_cell_angle_beta 108.62(5)
_cell_angle_gamma 90
_cell_formula_units_Z 2
loop_
_atom_type_symbol
_atom_type_radius_bond
C 0.68
H 0.23
N 0.68
O 0.68
loop_
_atom_site_label
_atom_site_type_symbol
_atom_site_fract_x
_atom_site_fract_y
_atom_site_fract_z
C1 C 0.6629(4) -0.5730(7) 0.5784(3)
C2 C 0.7283(5) -0.7626(8) 0.6394(4)
H1 H 0.71810 -0.75370 0.70390
H2 H 0.68510 -0.89050 0.60810
C3 C 0.9499(5) -0.8779(8) 0.7266(4)
C4 C 0.9215(5) -1.0755(9) 0.7555(4)
H3 H 0.84190 -1.14300 0.72140
C5 C 1.0116(5) -1.1699(8) 0.8345(4)
H4 H 0.99110 -1.30240 0.85300
C6 C 1.1314(5) -1.0791(8) 0.8883(3)
C7 C 1.1582(5) -0.8843(9) 0.8554(4)
H5 H 1.23880 -0.81820 0.88830
C8 C 1.0702(5) -0.7854(9) 0.7761(4)
H6 H 1.09210 -0.65540 0.75590
C9 C 1.2301(5) -1.1804(9) 0.9780(4)
C10 C 1.288(3) -1.031(3) 1.0599(14)
H7 H 1.34890 -1.10370 1.11420
H8 H 1.21660 -0.97110 1.07990
H9 H 1.33400 -0.92050 1.03850
C11 C 1.3396(13) -1.287(3) 0.9492(10)
H10 H 1.40170 -1.35170 1.00590
H11 H 1.38570 -1.18520 0.92260
H12 H 1.30110 -1.39280 0.90070
C12 C 1.1618(17) -1.369(3) 1.0173(14)
H13 H 1.22630 -1.43190 1.07340
H14 H 1.13020 -1.47270 0.96670
H15 H 1.08770 -1.31640 1.03560
C13 C 0.7842(5) -0.1536(8) 0.4777(4)
C14 C 0.7449(4) 0.0336(8) 0.4139(3)
C15 C 0.6159(5) 0.0648(8) 0.3526(4)
H16 H 0.55030 -0.03510 0.34970
C16 C 0.5835(5) 0.2443(9) 0.2953(4)
H17 H 0.49640 0.26770 0.25450
C17 C 0.6838(5) 0.3869(8) 0.3006(4)
C18 C 0.8135(5) 0.3590(8) 0.3585(4)
H18 H 0.87940 0.45650 0.35880
C19 C 0.8435(5) 0.1811(8) 0.4167(4)
H19 H 0.93060 0.16000 0.45820
N1 N 0.7469(4) -0.4426(6) 0.5536(3)
N2 N 0.6948(4) -0.2708(6) 0.4940(3)
N3 N 0.6504(5) 0.5815(7) 0.2420(3)
O1 O 0.5413(3) -0.5468(5) 0.5585(3)
O2 O 0.8655(3) -0.7677(6) 0.6482(3)
O3 O 0.5326(5) 0.6154(8) 0.2001(4)
O4 O 0.7387(5) 0.6962(7) 0.2379(4)
C20? C 1.300(12) -1.348(14) 0.948(6)
H20? H 1.33630 -1.29720 0.89910
H21? H 1.23950 -1.46150 0.92230
H22? H 1.37200 -1.39620 1.00420
C21? C 1.162(5) -1.22(2) 1.051(5)
H23? H 1.12080 -1.08940 1.06290
H24? H 1.22570 -1.26450 1.11170
H25? H 1.09380 -1.32320 1.02760
C22? C 1.340(9) -0.988(11) 1.029(4)
H26? H 1.29240 -0.87050 1.04460
H27? H 1.38460 -0.94350 0.98410
H28? H 1.40430 -1.03890 1.08820
H29 H 0.841(6) -0.473(9) 0.570(4)
H30 H 0.881(5) -0.183(8) 0.516(4)
#END
