
#######################################################################
#
#                 Cambridge Crystallographic Data Centre
#                                CCDC
#
#######################################################################
#
# If this CIF has been generated from an entry in the Cambridge
# Structural Database, then it will include bibliographic, chemical,
# crystal, experimental, refinement or atomic coordinate data resulting
# from the CCDC's data processing and validation procedures.
#
#######################################################################

data_CSD_CIF_YEYFEO
_audit_creation_date 2007-04-11
_audit_creation_method CSD-ConQuest-V1
_database_code_CSD YEYFEO
_database_code_depnum_ccdc_archive 'CCDC 636664'
_chemical_formula_sum 'C16 H13 N1 O4'
_chemical_formula_moiety
;
C16 H13 N1 O4
;
_journal_coeditor_code "IUCr HB2266"
_journal_coden_Cambridge 1370
_journal_volume 63
_journal_year 2007
_journal_page_first o808
_journal_name_full 'Acta Crystallogr.,Sect.E:Struct.Rep.Online '
loop_
_publ_author_name
"Ji-Long Ma"
_chemical_name_systematic
;
(E)-3-(4-Methoxyphenyl)-1-(3-nitrophenyl)prop-2-en-1-one
;
_cell_volume   2674.501
_exptl_crystal_colour 'yellow'
_exptl_crystal_density_diffrn 1.407
_exptl_crystal_description 'Block'
_diffrn_ambient_temperature 293
#These two values have been output from a single CSD field.
_refine_ls_R_factor_gt 0.0883
_refine_ls_wR_factor_gt 0.0883
_symmetry_cell_setting monoclinic
_symmetry_space_group_name_H-M 'P 21/c'
_symmetry_Int_Tables_number 14
loop_
_symmetry_equiv_pos_site_id
_symmetry_equiv_pos_as_xyz
1 x,y,z
2 -x,1/2+y,1/2-z
3 -x,-y,-z
4 x,-1/2-y,-1/2+z
_cell_length_a 13.252(3)
_cell_length_b 15.431(3)
_cell_length_c 13.974(3)
_cell_angle_alpha 90
_cell_angle_beta 110.62(3)
_cell_angle_gamma 90
_cell_formula_units_Z 8
loop_
_atom_type_symbol
_atom_type_radius_bond
C 0.68
H 0.23
N 0.68
O 0.68
loop_
_atom_site_label
_atom_site_type_symbol
_atom_site_fract_x
_atom_site_fract_y
_atom_site_fract_z
C1 C 0.2380(5) 0.6687(4) 0.8676(4)
C2 C 0.1471(5) 0.6454(4) 0.8869(4)
H1 H 0.12940 0.58750 0.89090
C3 C 0.0829(5) 0.7114(4) 0.9002(5)
H2 H 0.02020 0.69770 0.91250
C4 C 0.1101(4) 0.7974(4) 0.8957(4)
H3 H 0.06650 0.84090 0.90610
C5 C 0.2031(4) 0.8191(3) 0.8754(4)
C6 C 0.2673(4) 0.7531(3) 0.8622(4)
H4 H 0.33010 0.76590 0.84970
C7 C 0.2379(5) 0.9113(4) 0.8701(4)
C8 C 0.1657(4) 0.9820(3) 0.8718(4)
H5 H 0.10100 0.96980 0.88110
C9 C 0.1914(4) 1.0642(4) 0.8602(4)
H6 H 0.25630 1.07270 0.85000
C10 C 0.1297(4) 1.1419(4) 0.8616(4)
C11 C 0.0288(5) 1.1390(4) 0.8720(4)
H7 H -0.00230 1.08580 0.87640
C12 C -0.0251(4) 1.2147(4) 0.8757(4)
H8 H -0.09260 1.21210 0.88200
C13 C 0.0203(5) 1.2943(4) 0.8702(4)
C14 C 0.1195(5) 1.2984(3) 0.8583(4)
H9 H 0.15040 1.35160 0.85340
C15 C 0.1715(5) 1.2224(3) 0.8538(4)
H10 H 0.23780 1.22530 0.84510
C16 C 0.0081(5) 1.4486(3) 0.8774(4)
H11 H 0.07420 1.45130 0.93520
H12 H -0.04050 1.49240 0.88390
H13 H 0.02300 1.45810 0.81580
C17 C 0.7407(4) 0.8879(4) 0.8730(4)
C18 C 0.6427(4) 0.9111(4) 0.8789(4)
H14 H 0.62380 0.96910 0.87950
C19 C 0.5736(5) 0.8463(4) 0.8838(5)
H15 H 0.50650 0.86010 0.88680
C20 C 0.6043(5) 0.7600(4) 0.8845(4)
H16 H 0.55720 0.71640 0.88780
C21 C 0.7039(4) 0.7382(4) 0.8802(4)
C22 C 0.7728(4) 0.8040(3) 0.8739(4)
H17 H 0.83980 0.79090 0.87030
C23 C 0.7407(5) 0.6469(4) 0.8810(4)
C24 C 0.6720(5) 0.5751(4) 0.8868(4)
H18 H 0.60960 0.58760 0.90020
C25 C 0.6931(4) 0.4932(4) 0.8741(4)
H19 H 0.75670 0.48370 0.86160
C26 C 0.6321(5) 0.4160(4) 0.8766(4)
C27 C 0.5308(5) 0.4179(4) 0.8891(4)
H20 H 0.50050 0.47100 0.89540
C28 C 0.4764(5) 0.3433(4) 0.8920(4)
H21 H 0.41080 0.34600 0.90220
C29 C 0.5187(5) 0.2632(4) 0.8799(4)
C30 C 0.6162(5) 0.2590(4) 0.8667(4)
H22 H 0.64510 0.20570 0.85890
C31 C 0.6706(5) 0.3341(4) 0.8652(4)
H23 H 0.73660 0.33030 0.85600
C32 C 0.4996(5) 0.1105(4) 0.8790(5)
H24 H 0.51610 0.10490 0.81770
H25 H 0.44800 0.06700 0.87960
H26 H 0.56420 0.10310 0.93750
N1 N 0.3068(4) 0.5978(3) 0.8527(4)
N2 N 0.8148(5) 0.9579(3) 0.8701(4)
O1 O 0.3869(3) 0.6181(3) 0.8329(3)
O2 O 0.2810(4) 0.5234(3) 0.8614(3)
O3 O 0.3263(3) 0.9234(2) 0.8638(3)
O4 O -0.0401(3) 1.3648(2) 0.8735(3)
O5 O 0.8996(4) 0.9374(3) 0.8595(4)
O6 O 0.7891(4) 1.0329(2) 0.8778(3)
O7 O 0.8301(3) 0.6321(2) 0.8769(3)
O8 O 0.4557(3) 0.1940(3) 0.8821(3)
#END
