
#######################################################################
#
#                 Cambridge Crystallographic Data Centre
#                                CCDC
#
#######################################################################
#
# If this CIF has been generated from an entry in the Cambridge
# Structural Database, then it will include bibliographic, chemical,
# crystal, experimental, refinement or atomic coordinate data resulting
# from the CCDC's data processing and validation procedures.
#
#######################################################################

data_CSD_CIF_YEYFAK
_audit_creation_date 2007-04-10
_audit_creation_method CSD-ConQuest-V1
_database_code_CSD YEYFAK
_database_code_depnum_ccdc_archive 'CCDC 636663'
_chemical_formula_sum 'C16 H13 N1 O4'
_chemical_formula_moiety
;
C16 H13 N1 O4
;
_journal_coeditor_code "IUCr HB2264"
_journal_coden_Cambridge 1370
_journal_volume 63
_journal_year 2007
_journal_page_first o806
_journal_name_full 'Acta Crystallogr.,Sect.E:Struct.Rep.Online '
loop_
_publ_author_name
"Ji-Long Ma"
_chemical_name_systematic
;
(E)-3-(2-Methoxyphenyl)-1-(4-nitrophenyl)prop-2-en-1-one
;
_cell_volume   2763.400
_exptl_crystal_colour 'yellow'
_exptl_crystal_density_diffrn 1.362
_exptl_crystal_description 'Block'
_diffrn_ambient_temperature 293
#These two values have been output from a single CSD field.
_refine_ls_R_factor_gt 0.0782
_refine_ls_wR_factor_gt 0.0782
_symmetry_cell_setting orthorhombic
_symmetry_space_group_name_H-M 'P b c a'
_symmetry_Int_Tables_number 61
loop_
_symmetry_equiv_pos_site_id
_symmetry_equiv_pos_as_xyz
1 x,y,z
2 1/2-x,-y,1/2+z
3 1/2+x,1/2-y,-z
4 -x,1/2+y,1/2-z
5 -x,-y,-z
6 -1/2+x,y,-1/2-z
7 -1/2-x,-1/2+y,z
8 x,-1/2-y,-1/2+z
_cell_length_a 7.4880(8)
_cell_length_b 12.1608(11)
_cell_length_c 30.347(2)
_cell_angle_alpha 90
_cell_angle_beta 90
_cell_angle_gamma 90
_cell_formula_units_Z 8
loop_
_atom_type_symbol
_atom_type_radius_bond
C 0.68
H 0.23
N 0.68
O 0.68
loop_
_atom_site_label
_atom_site_type_symbol
_atom_site_fract_x
_atom_site_fract_y
_atom_site_fract_z
C1 C 0.8890(6) 0.9656(4) 1.12287(13)
C2 C 0.8091(6) 1.0406(4) 1.09556(13)
H1 H 0.77410 1.10920 1.10600
C3 C 0.7816(6) 1.0114(4) 1.05186(13)
H2 H 0.72920 1.06160 1.03270
C4 C 0.8311(5) 0.9089(4) 1.03636(13)
C5 C 0.9119(6) 0.8366(4) 1.06556(13)
H3 H 0.94710 0.76770 1.05550
C6 C 0.9416(6) 0.8633(4) 1.10875(14)
H4 H 0.99560 0.81380 1.12790
C7 C 0.7987(6) 0.8713(4) 0.98975(13)
C8 C 0.7269(6) 0.9502(4) 0.95810(12)
H5 H 0.69850 1.02050 0.96800
C9 C 0.7003(5) 0.9267(4) 0.91612(12)
H6 H 0.72890 0.85580 0.90710
C10 C 0.6307(5) 1.0006(4) 0.88238(12)
C11 C 0.5903(6) 1.1094(4) 0.89171(14)
H7 H 0.60950 1.13610 0.92000
C12 C 0.5226(7) 1.1785(4) 0.86013(17)
H8 H 0.49670 1.25140 0.86700
C13 C 0.4932(7) 1.1389(4) 0.81806(17)
H9 H 0.44510 1.18530 0.79680
C14 C 0.5341(6) 1.0317(4) 0.80715(14)
H10 H 0.51600 1.00610 0.77860
C15 C 0.6024(6) 0.9629(4) 0.83921(13)
C16 C 0.6377(8) 0.8168(4) 0.78727(13)
H11 H 0.51740 0.82280 0.77660
H12 H 0.67470 0.74130 0.78630
H13 H 0.71550 0.86020 0.76910
N1 N 0.9153(6) 0.9966(4) 1.16952(13)
O1 O 0.8325(5) 0.7766(3) 0.97987(10)
O2 O 0.8740(6) 1.0881(4) 1.18140(11)
O3 O 0.9773(6) 0.9270(4) 1.19423(11)
O4 O 0.6458(4) 0.8558(3) 0.83177(9)
#END
