
#######################################################################
#
#                 Cambridge Crystallographic Data Centre
#                                CCDC
#
#######################################################################
#
# If this CIF has been generated from an entry in the Cambridge
# Structural Database, then it will include bibliographic, chemical,
# crystal, experimental, refinement or atomic coordinate data resulting
# from the CCDC's data processing and validation procedures.
#
#######################################################################

data_CSD_CIF_YEYMAR
_audit_creation_date 2007-04-11
_audit_creation_method CSD-ConQuest-V1
_database_code_CSD YEYMAR
_database_code_depnum_ccdc_archive 'CCDC 638514'
_chemical_formula_sum 'C7 H7 N3 O3'
_chemical_formula_moiety
;
C7 H7 N3 O3
;
_journal_coeditor_code "IUCr HB2250"
_journal_coden_Cambridge 1370
_journal_volume 63
_journal_year 2007
_journal_page_first o489
_journal_name_full 'Acta Crystallogr.,Sect.E:Struct.Rep.Online '
loop_
_publ_author_name
"Zhi-Tao Xing"
"Wei-Lin Ding"
"Hai-Bo Wang"
"Pin-Liang Wang"
_chemical_name_systematic
;
4-Nitrobenzamidoxime
;
_cell_volume   1655.033
_exptl_crystal_colour 'yellow'
_exptl_crystal_density_diffrn 1.454
_exptl_crystal_description 'needle'
_exptl_crystal_preparation 'ethanol'
_diffrn_ambient_temperature 293
#These two values have been output from a single CSD field.
_refine_ls_R_factor_gt 0.0733
_refine_ls_wR_factor_gt 0.0733
_symmetry_cell_setting orthorhombic
_symmetry_space_group_name_H-M 'P b c a'
_symmetry_Int_Tables_number 61
loop_
_symmetry_equiv_pos_site_id
_symmetry_equiv_pos_as_xyz
1 x,y,z
2 1/2-x,-y,1/2+z
3 -x,1/2+y,1/2-z
4 1/2+x,1/2-y,-z
5 -x,-y,-z
6 -1/2+x,y,-1/2-z
7 x,-1/2-y,-1/2+z
8 -1/2-x,-1/2+y,z
_cell_length_a 11.320(2)
_cell_length_b 7.7760(16)
_cell_length_c 18.802(4)
_cell_angle_alpha 90
_cell_angle_beta 90
_cell_angle_gamma 90
_cell_formula_units_Z 8
loop_
_atom_type_symbol
_atom_type_radius_bond
C 0.68
H 0.23
N 0.68
O 0.68
loop_
_atom_site_label
_atom_site_type_symbol
_atom_site_fract_x
_atom_site_fract_y
_atom_site_fract_z
O1 O 0.9024(5) 0.6715(7) 0.7919(2)
O2 O 0.7158(4) 0.6684(7) 0.7834(2)
O3 O 0.9286(3) 0.0706(4) 0.42984(17)
H1 H 0.98040 -0.00310 0.42880
N1 N 0.8142(5) 0.6312(6) 0.7614(3)
N2 N 0.7734(4) 0.3039(6) 0.4462(2)
H2 H 0.77570 0.24250 0.40820
H3 H 0.72070 0.38270 0.45080
N3 N 0.9341(3) 0.1610(5) 0.4959(2)
C1 C 0.9424(4) 0.4292(6) 0.6009(3)
H4 H 1.01620 0.40800 0.58100
C2 C 0.9355(5) 0.5134(7) 0.6647(3)
H5 H 1.00300 0.55030 0.68840
C3 C 0.8240(5) 0.5413(6) 0.6923(3)
C4 C 0.7217(4) 0.4899(7) 0.6584(3)
H6 H 0.64790 0.51180 0.67820
C5 C 0.7323(4) 0.4057(6) 0.5947(2)
H7 H 0.66470 0.36910 0.57100
C6 C 0.8417(4) 0.3747(6) 0.5654(2)
C7 C 0.8521(4) 0.2766(6) 0.4983(3)
#END
