
#######################################################################
#
#                 Cambridge Crystallographic Data Centre
#                                CCDC
#
#######################################################################
#
# If this CIF has been generated from an entry in the Cambridge
# Structural Database, then it will include bibliographic, chemical,
# crystal, experimental, refinement or atomic coordinate data resulting
# from the CCDC's data processing and validation procedures.
#
#######################################################################

data_CSD_CIF_YEYNAS
_audit_creation_date 2007-04-11
_audit_creation_method CSD-ConQuest-V1
_database_code_CSD YEYNAS
_database_code_depnum_ccdc_archive 'CCDC 638518'
_chemical_formula_sum 'C17 H16 N4 O4'
_chemical_formula_moiety
;
C17 H16 N4 O4
;
_journal_coeditor_code "IUCr HG2169"
_journal_coden_Cambridge 1370
_journal_volume 63
_journal_year 2007
_journal_page_first o908
_journal_name_full 'Acta Crystallogr.,Sect.E:Struct.Rep.Online '
loop_
_publ_author_name
"M.D.H.Bhuiyan"
"P.Jensen"
"A.C.Try"
_chemical_name_systematic
;
2,8-Dimethyl-1,9-dinitro-6H,12H-5,11-methanodibenzo(b,f)(1,5)diazocine
;
_chemical_melting_point 515
_cell_volume    758.017
_exptl_crystal_colour 'yellow'
_exptl_crystal_density_diffrn 1.491
_exptl_special_details
;
Melting point range 515-517K

;
_exptl_crystal_description 'plate'
_exptl_crystal_preparation 'dichloromethane'
_diffrn_ambient_temperature 150
_refine_special_details
;
A nitro group was refined over two sites with occupancies 0.9:0.1.

;
#These two values have been output from a single CSD field.
_refine_ls_R_factor_gt 0.0357
_refine_ls_wR_factor_gt 0.0357
_symmetry_cell_setting triclinic
_symmetry_space_group_name_H-M 'P -1'
_symmetry_Int_Tables_number 2
loop_
_symmetry_equiv_pos_site_id
_symmetry_equiv_pos_as_xyz
1 x,y,z
2 -x,-y,-z
_cell_length_a 7.526(2)
_cell_length_b 8.057(2)
_cell_length_c 13.932(3)
_cell_angle_alpha 92.944(3)
_cell_angle_beta 92.930(3)
_cell_angle_gamma 115.649(2)
_cell_formula_units_Z 2
loop_
_atom_type_symbol
_atom_type_radius_bond
C 0.68
H 0.23
N 0.68
O 0.68
loop_
_atom_site_label
_atom_site_type_symbol
_atom_site_fract_x
_atom_site_fract_y
_atom_site_fract_z
O1 O -0.01103(15) -0.1972(2) 0.02878(8)
O2? O 0.0147(18) -0.1124(18) 0.0433(9)
O3 O -0.01913(15) -0.19894(18) 0.18330(9)
O4? O -0.0038(16) -0.2738(15) 0.1587(8)
O5 O 0.06708(13) 0.19032(13) 0.56714(7)
O6 O 0.20369(14) 0.03922(14) 0.63945(7)
N1 N 0.70888(13) 0.36496(13) 0.21301(7)
N2 N 0.40949(13) 0.36717(12) 0.26833(7)
N3 N 0.0688(2) -0.1660(6) 0.1102(3)
N4? N 0.099(2) -0.154(6) 0.109(3)
N5 N 0.20196(14) 0.14444(13) 0.57911(7)
C1 C 0.59338(15) 0.17717(15) 0.17533(8)
C2 C 0.69120(16) 0.07322(16) 0.14480(8)
H1 H 0.83160 0.12660 0.15230
C3 C 0.58740(17) -0.10570(16) 0.10391(8)
H2 H 0.65760 -0.17400 0.08490
C4 C 0.38173(16) -0.18797(15) 0.08993(8)
C5 C 0.26787(18) -0.38294(16) 0.04515(9)
H3 H 0.16970 -0.45580 0.08840
H4 H 0.35930 -0.43810 0.03460
H5 H 0.20060 -0.38170 -0.01670
C6 C 0.28955(15) -0.08134(15) 0.12190(8)
C7 C 0.38622(15) 0.09758(14) 0.16637(7)
C8 C 0.27549(15) 0.20231(15) 0.20629(8)
H6 H 0.21430 0.23990 0.15220
H7 H 0.16840 0.12020 0.24390
C9 C 0.58701(17) 0.46544(15) 0.21747(8)
H8 H 0.54720 0.48190 0.15120
H9 H 0.66600 0.58950 0.25100
C10 C 0.46148(15) 0.32154(14) 0.36063(8)
C11 C 0.31933(15) 0.26169(14) 0.42707(8)
H10 H 0.19090 0.25250 0.41140
C12 C 0.36602(15) 0.21547(14) 0.51619(8)
C13 C 0.55474(16) 0.23297(14) 0.54602(8)
C14 C 0.61572(17) 0.19382(17) 0.64373(8)
H11 H 0.75890 0.23340 0.64960
H12 H 0.54700 0.06100 0.65110
H13 H 0.58090 0.26160 0.69400
C15 C 0.69320(16) 0.29458(15) 0.47751(8)
H14 H 0.82370 0.31020 0.49450
C16 C 0.65032(15) 0.33442(14) 0.38539(8)
C17 C 0.80153(16) 0.38085(16) 0.31091(8)
H15 H 0.90570 0.50840 0.32640
H16 H 0.86490 0.29590 0.31330
#END
