
#######################################################################
#
#                 Cambridge Crystallographic Data Centre
#                                CCDC
#
#######################################################################
#
# If this CIF has been generated from an entry in the Cambridge
# Structural Database, then it will include bibliographic, chemical,
# crystal, experimental, refinement or atomic coordinate data resulting
# from the CCDC's data processing and validation procedures.
#
#######################################################################

data_CSD_CIF_YEYVOP
_audit_creation_date 2013-06-16
_audit_creation_method CSD-ConQuest-V1
_database_code_CSD YEYVOP
_database_code_depnum_ccdc_archive 'CCDC 946236'
_chemical_formula_sum 'C18 H25 N1 O5'
_chemical_formula_moiety
;
C18 H25 N1 O5
;
_journal_coden_Cambridge 4
_journal_volume 134
_journal_year 2012
_journal_page_first 16991
_journal_name_full 'J.Am.Chem.Soc. '
loop_
_publ_author_name
"Zhi Ren"
"Fanyang Mo"
"Guangbin Dong"
_chemical_name_systematic
;
(1-(((2,6-Dimethoxybenzylidene)amino)oxy)cyclohexyl)methyl acetate
;
_cell_volume   1736.229
_exptl_crystal_colour 'colorless'
_exptl_crystal_density_diffrn 1.283
_exptl_crystal_description 'plates'
_diffrn_ambient_temperature 100
#These two values have been output from a single CSD field.
_refine_ls_R_factor_gt 0.097
_refine_ls_wR_factor_gt 0.097
_symmetry_cell_setting orthorhombic
_symmetry_space_group_name_H-M 'P c a 21'
_symmetry_Int_Tables_number 29
loop_
_symmetry_equiv_pos_site_id
_symmetry_equiv_pos_as_xyz
1 x,y,z
2 -x,-y,1/2+z
3 1/2-x,y,1/2+z
4 1/2+x,-y,z
_cell_length_a 29.976(4)
_cell_length_b 7.7137(11)
_cell_length_c 7.5088(10)
_cell_angle_alpha 90
_cell_angle_beta 90
_cell_angle_gamma 90
_cell_formula_units_Z 4
loop_
_atom_type_symbol
_atom_type_radius_bond
C 0.68
H 0.23
N 0.68
O 0.68
loop_
_atom_site_label
_atom_site_type_symbol
_atom_site_fract_x
_atom_site_fract_y
_atom_site_fract_z
C1 C 0.3337(3) 0.6097(11) 0.3485(11)
C2 C 0.3189(3) 0.5757(11) 0.5424(13)
H1 H 0.33900 0.63930 0.62410
H2 H 0.28840 0.62150 0.55940
C3 C 0.3195(3) 0.3848(12) 0.5905(12)
H3 H 0.30690 0.36940 0.71140
H4 H 0.35070 0.34290 0.59230
C4 C 0.2924(3) 0.2771(12) 0.4570(13)
H5 H 0.26060 0.31110 0.46300
H6 H 0.29470 0.15260 0.48780
C5 C 0.3104(3) 0.3071(12) 0.2658(13)
H7 H 0.34180 0.26780 0.25830
H8 H 0.29260 0.23880 0.17980
C6 C 0.3077(3) 0.4951(12) 0.2201(13)
H9 H 0.27600 0.53120 0.22060
H10 H 0.31940 0.51250 0.09810
C7 C 0.3277(3) 0.8020(12) 0.3127(12)
H11 H 0.29600 0.83300 0.33110
H12 H 0.34570 0.86850 0.39960
C8 C 0.3081(4) 0.8897(10) 0.0200(13)
C9 C 0.3269(4) 0.9638(14) -0.1545(14)
H13 H 0.30390 0.95830 -0.24730
H14 H 0.35290 0.89570 -0.19150
H15 H 0.33580 1.08470 -0.13600
C10 C 0.4498(3) 0.6209(11) 0.3941(11)
H16 H 0.45550 0.52860 0.31350
C11 C 0.4873(3) 0.7055(12) 0.4719(10)
C12 C 0.5288(3) 0.6283(12) 0.4730(11)
C13 C 0.5677(3) 0.7071(12) 0.5308(12)
H17 H 0.59520 0.64600 0.53430
C14 C 0.5648(3) 0.8832(12) 0.5846(12)
H18 H 0.59090 0.94350 0.62170
C15 C 0.5242(3) 0.9664(12) 0.5830(12)
H19 H 0.52270 1.08290 0.62350
C16 C 0.4861(3) 0.8891(11) 0.5260(12)
C17 C 0.5707(3) 0.3747(12) 0.3891(14)
H20 H 0.58800 0.44470 0.30490
H21 H 0.56620 0.25850 0.33960
H22 H 0.58700 0.36580 0.50200
C18 C 0.4441(3) 1.1494(12) 0.5458(15)
H23 H 0.45170 1.17590 0.66980
H24 H 0.41390 1.19180 0.51980
H25 H 0.46550 1.20610 0.46630
N1 N 0.4094(3) 0.6599(9) 0.4247(10)
O1 O 0.3411(2) 0.8528(8) 0.1300(8)
O2 O 0.2692(2) 0.8789(8) 0.0503(9)
O3 O 0.3797(2) 0.5579(7) 0.3212(7)
O4 O 0.52810(19) 0.4556(8) 0.4197(9)
O5 O 0.4457(2) 0.9630(7) 0.5184(8)
#END
