
#######################################################################
#
#                 Cambridge Crystallographic Data Centre
#                                CCDC
#
#######################################################################
#
# If this CIF has been generated from an entry in the Cambridge
# Structural Database, then it will include bibliographic, chemical,
# crystal, experimental, refinement or atomic coordinate data resulting
# from the CCDC's data processing and validation procedures.
#
#######################################################################

data_CSD_CIF_YEYVIJ
_audit_creation_date 2013-06-16
_audit_creation_method CSD-ConQuest-V1
_database_code_CSD YEYVIJ
_database_code_depnum_ccdc_archive 'CCDC 946235'
_chemical_formula_sum 'C19 H29 N1 O3'
_chemical_formula_moiety
;
C19 H29 N1 O3
;
_journal_coden_Cambridge 4
_journal_volume 134
_journal_year 2012
_journal_page_first 16991
_journal_name_full 'J.Am.Chem.Soc. '
loop_
_publ_author_name
"Zhi Ren"
"Fanyang Mo"
"Guangbin Dong"
_chemical_name_systematic
;
1-(2,6-Dimethoxyphenyl)-N-((2-isopropyl-5-methylcyclohexyl)oxy)methanimine
;
_cell_volume   1830.811
_exptl_crystal_density_diffrn 1.159
_exptl_crystal_description 'prisms'
_diffrn_ambient_temperature 100
#These two values have been output from a single CSD field.
_refine_ls_R_factor_gt 0.0669
_refine_ls_wR_factor_gt 0.0669
_symmetry_cell_setting monoclinic
_symmetry_space_group_name_H-M 'P 21'
_symmetry_Int_Tables_number 4
loop_
_symmetry_equiv_pos_site_id
_symmetry_equiv_pos_as_xyz
1 x,y,z
2 -x,1/2+y,-z
_cell_length_a 6.8937(12)
_cell_length_b 15.987(3)
_cell_length_c 16.978(3)
_cell_angle_alpha 90
_cell_angle_beta 101.917(4)
_cell_angle_gamma 90
_cell_formula_units_Z 4
loop_
_atom_type_symbol
_atom_type_radius_bond
C 0.68
H 0.23
N 0.68
O 0.68
loop_
_atom_site_label
_atom_site_type_symbol
_atom_site_fract_x
_atom_site_fract_y
_atom_site_fract_z
O1 O 0.3077(4) 0.74297(16) 0.30846(15)
O2 O 0.0795(4) 0.78940(16) 0.04476(16)
O3 O 0.6787(4) 0.88503(16) 0.20179(16)
N1 N 0.4061(5) 0.79762(19) 0.2632(2)
C1 C 0.3931(6) 0.7525(2) 0.3929(2)
H1 H 0.54060 0.75580 0.40050
C2 C 0.3374(5) 0.6730(2) 0.4341(2)
H2 H 0.41030 0.67530 0.49140
C3 C 0.1157(5) 0.6723(3) 0.4353(3)
H3 H 0.03890 0.66420 0.37980
H4 H 0.08740 0.62440 0.46820
C4 C 0.0476(6) 0.7528(3) 0.4694(3)
H5 H -0.09720 0.75000 0.46650
H6 H 0.11380 0.75800 0.52680
C5 C 0.0944(7) 0.8296(3) 0.4238(3)
H7 H 0.02410 0.82370 0.36640
C6 C 0.3173(6) 0.8314(3) 0.4262(3)
H8 H 0.34770 0.88000 0.39470
H9 H 0.38880 0.83930 0.48260
C7 C 0.4037(5) 0.5925(2) 0.3980(2)
H10 H 0.32770 0.58820 0.34120
C8 C 0.6245(5) 0.5934(3) 0.3957(2)
H11 H 0.70260 0.60300 0.45010
H12 H 0.65060 0.63830 0.36000
H13 H 0.66170 0.53950 0.37560
C9 C 0.3560(7) 0.5148(2) 0.4430(3)
H14 H 0.21190 0.50830 0.43500
H15 H 0.41280 0.52100 0.50050
H16 H 0.41270 0.46530 0.42220
C10 C 0.0222(8) 0.9096(3) 0.4570(3)
H17 H 0.05990 0.95780 0.42780
H18 H 0.08270 0.91470 0.51430
H19 H -0.12240 0.90770 0.45010
C11 C 0.3203(6) 0.7928(2) 0.1886(2)
H20 H 0.20550 0.75850 0.17580
C12 C 0.3826(5) 0.8349(2) 0.1220(2)
C13 C 0.2565(5) 0.8288(2) 0.0458(2)
C14 C 0.3090(6) 0.8616(2) -0.0225(2)
H21 H 0.22390 0.85520 -0.07380
C15 C 0.4873(6) 0.9039(2) -0.0149(2)
H22 H 0.52390 0.92660 -0.06140
C16 C 0.6115(6) 0.9135(2) 0.0587(2)
H23 H 0.73180 0.94380 0.06290
C17 C 0.5626(6) 0.8794(2) 0.1270(2)
C18 C -0.0547(6) 0.7809(3) -0.0316(3)
H24 H 0.00840 0.74790 -0.06800
H25 H -0.08850 0.83640 -0.05480
H26 H -0.17560 0.75250 -0.02410
C19 C 0.8624(6) 0.9293(3) 0.2079(3)
H27 H 0.83560 0.98600 0.18650
H28 H 0.94630 0.89970 0.17700
H29 H 0.93060 0.93230 0.26450
O4 O 0.4588(4) 0.68529(16) -0.16464(15)
O5 O 0.0452(3) 0.57937(15) -0.05410(15)
O6 O 0.6592(4) 0.65813(17) 0.10268(16)
N2 N 0.3438(5) 0.64208(19) -0.11644(19)
C20 C 0.3511(5) 0.6865(2) -0.2469(2)
H30 H 0.28070 0.63200 -0.25980
C21 C 0.5052(6) 0.6972(2) -0.3001(2)
H31 H 0.43160 0.69410 -0.35730
C22 C 0.5980(6) 0.7846(2) -0.2878(3)
H32 H 0.68040 0.78830 -0.23270
H33 H 0.68610 0.79280 -0.32640
C23 C 0.4430(6) 0.8544(2) -0.2994(3)
H34 H 0.37190 0.85530 -0.35630
H35 H 0.51080 0.90890 -0.28730
C24 C 0.2929(6) 0.8431(3) -0.2452(2)
H36 H 0.36710 0.84610 -0.18810
C25 C 0.1996(6) 0.7572(2) -0.2583(2)
H37 H 0.11810 0.75410 -0.31350
H38 H 0.11020 0.74920 -0.22020
C26 C 0.6646(6) 0.6271(3) -0.2883(2)
H39 H 0.76190 0.63950 -0.23730
C27 C 0.7784(6) 0.6265(3) -0.3562(2)
H40 H 0.68930 0.61000 -0.40650
H41 H 0.88830 0.58660 -0.34350
H42 H 0.83100 0.68260 -0.36230
C28 C 0.5792(6) 0.5404(3) -0.2796(3)
H43 H 0.68460 0.49850 -0.27530
H44 H 0.47500 0.52830 -0.32690
H45 H 0.52310 0.53880 -0.23110
C29 C 0.1358(7) 0.9118(3) -0.2574(3)
H46 H 0.05090 0.90500 -0.21820
H47 H 0.05490 0.90800 -0.31200
H48 H 0.20080 0.96660 -0.25000
C30 C 0.4192(5) 0.6558(2) -0.0426(2)
H49 H 0.52660 0.69410 -0.03080
C31 C 0.3525(5) 0.6168(2) 0.0259(2)
C32 C 0.1650(5) 0.5780(2) 0.0202(2)
C33 C 0.1146(5) 0.5416(2) 0.0874(2)
H50 H -0.00990 0.51460 0.08270
C34 C 0.2438(6) 0.5447(2) 0.1605(2)
H51 H 0.20720 0.52000 0.20620
C35 C 0.4281(6) 0.5833(2) 0.1687(2)
H52 H 0.51680 0.58510 0.21950
C36 C 0.4804(5) 0.6191(2) 0.1015(2)
C37 C -0.1528(5) 0.5511(3) -0.0601(3)
H53 H -0.20940 0.57730 -0.01780
H54 H -0.15330 0.49020 -0.05380
H55 H -0.23210 0.56640 -0.11300
C38 C 0.7830(6) 0.6742(3) 0.1788(2)
H56 H 0.82420 0.62110 0.20600
H57 H 0.70990 0.70730 0.21160
H58 H 0.90040 0.70540 0.17140
#END
