
#######################################################################
#
#                 Cambridge Crystallographic Data Centre
#                                CCDC
#
#######################################################################
#
# If this CIF has been generated from an entry in the Cambridge
# Structural Database, then it will include bibliographic, chemical,
# crystal, experimental, refinement or atomic coordinate data resulting
# from the CCDC's data processing and validation procedures.
#
#######################################################################

data_CSD_CIF_YEYVON
_audit_creation_date 1995-07-20
_audit_creation_method CSD-ConQuest-V1
_database_code_CSD YEYVON
_chemical_formula_sum 'C21 H26 N2 O4'
_chemical_formula_moiety
;
C21 H26 N2 O4
;
_journal_coden_Cambridge 35
_journal_volume 59
_journal_year 1994
_journal_page_first 5633
_journal_name_full 'J.Org.Chem. '
loop_
_publ_author_name
"N.Uesaka"
"F.Saitoh"
"M.Mori"
"M.Shibasaki"
"K.Okamura"
"T.Date"
_chemical_name_systematic
;
(1S,4R,6S,11S)-6-Isopropyl-11-methyl-3-(p-nitrobenzoyl)-3-azatricyclo(6.2.1.0^
4,11^)undecan-9-one
;
_chemical_melting_point 419.15
_cell_volume   1929.395
_exptl_crystal_colour 'colorless'
_exptl_crystal_density_diffrn 1.274
_exptl_special_details
;
Melting point range 419.15-421.65K

;
_diffrn_ambient_temperature ?
_diffrn_special_details
;
The study was carried out at room temperature,in the range 283-303K

;
#These two values have been output from a single CSD field.
_refine_ls_R_factor_gt 0.056
_refine_ls_wR_factor_gt 0.056
_symmetry_cell_setting triclinic
_symmetry_space_group_name_H-M 'P -1'
_symmetry_Int_Tables_number 2
loop_
_symmetry_equiv_pos_site_id
_symmetry_equiv_pos_as_xyz
1 x,y,z
2 -x,-y,-z
_cell_length_a 12.085(2)
_cell_length_b 22.557(3)
_cell_length_c 7.55(2)
_cell_angle_alpha 96.95(2)
_cell_angle_beta 105.32(2)
_cell_angle_gamma 76.92(1)
_cell_formula_units_Z 4
loop_
_atom_type_symbol
_atom_type_radius_bond
C 0.68
N 0.68
O 0.68
loop_
_atom_site_label
_atom_site_type_symbol
_atom_site_fract_x
_atom_site_fract_y
_atom_site_fract_z
C1 C 0.9568(2) 0.7921(1) 0.0132(4)
C2 C 1.0199(3) 0.8322(1) 0.1663(4)
C3 C 1.1333(3) 0.7913(2) 0.2557(4)
C4 C 1.1310(3) 0.7254(1) 0.1894(5)
C5 C 1.0085(3) 0.7257(1) 0.0632(4)
C6 C 1.0063(4) 0.6880(1) -0.1195(4)
N1 N 0.9957(2) 0.7329(1) -0.2515(3)
C7 C 0.9881(3) 0.7956(1) -0.1709(4)
C8 C 1.1041(3) 0.8156(1) -0.1485(4)
C9 C 1.1114(3) 0.8778(1) -0.0394(4)
C10 C 1.0351(3) 0.8907(1) 0.0999(5)
C11 C 0.8235(3) 0.8073(2) -0.0142(5)
O1 O 1.2153(2) 0.8085(1) 0.3635(4)
C12 C 0.9822(3) 0.7221(1) -0.4332(4)
O2 O 0.9613(2) 0.7624(1) -0.5394(3)
C13 C 0.9937(3) 0.6564(1) -0.5095(4)
C14 C 1.0981(3) 0.6141(2) -0.4585(4)
C15 C 1.1085(3) 0.5555(1) -0.5446(4)
C16 C 1.0153(3) 0.5411(1) -0.6780(4)
C17 C 0.9116(3) 0.5817(1) -0.7275(4)
C18 C 0.9008(3) 0.6400(1) -0.6438(4)
N2 N 1.0280(3) 0.4797(1) -0.7705(4)
O3 O 1.1212(3) 0.4443(1) -0.7294(4)
O4 O 0.9433(3) 0.4667(1) -0.8850(4)
C19 C 1.0869(4) 0.9316(2) -0.1610(5)
C20 C 0.9720(6) 0.9380(2) -0.3045(7)
C21 C 1.1893(6) 0.9286(3) -0.2477(8)
C22 C 0.5797(3) 0.6898(1) 0.7873(4)
C23 C 0.4723(3) 0.6593(1) 0.7313(4)
C24 C 0.3925(3) 0.6929(1) 0.8521(4)
C25 C 0.4304(3) 0.7518(2) 0.9380(5)
C26 C 0.5318(3) 0.7562(1) 0.8560(4)
C27 C 0.4952(3) 0.7932(1) 0.6870(4)
N3 N 0.5643(2) 0.7582(1) 0.5597(3)
C28 C 0.6252(3) 0.6964(1) 0.6218(4)
C29 C 0.6094(3) 0.6436(1) 0.4786(4)
C30 C 0.4819(3) 0.6364(1) 0.3951(4)
C31 C 0.4046(3) 0.6647(2) 0.5285(4)
C32 C 0.6744(3) 0.6555(2) 0.9364(5)
O5 O 0.3104(2) 0.6758(1) 0.8764(3)
C33 C 0.6026(3) 0.7812(1) 0.4366(4)
O6 O 0.6767(2) 0.7509(1) 0.3607(4)
C34 C 0.5531(3) 0.8460(1) 0.3876(4)
C35 C 0.4357(3) 0.8724(2) 0.3526(5)
C36 C 0.3945(4) 0.9309(2) 0.2916(5)
C37 C 0.4758(4) 0.9615(2) 0.2685(5)
C38 C 0.5925(4) 0.9377(2) 0.3042(6)
C39 C 0.6322(4) 0.8789(2) 0.3617(5)
N4 N 0.4306(5) 1.0237(2) 0.2008(5)
O7 O 0.3272(4) 1.0433(2) 0.1637(7)
O8 O 0.5036(4) 1.0509(1) 0.1819(5)
C40 C 0.4773(4) 0.5685(2) 0.3402(5)
C41 C 0.5683(5) 0.5381(2) 0.2302(7)
C42 C 0.3554(5) 0.5611(3) 0.2275(8)
#END
