
#######################################################################
#
#                 Cambridge Crystallographic Data Centre
#                                CCDC
#
#######################################################################
#
# If this CIF has been generated from an entry in the Cambridge
# Structural Database, then it will include bibliographic, chemical,
# crystal, experimental, refinement or atomic coordinate data resulting
# from the CCDC's data processing and validation procedures.
#
#######################################################################

data_CSD_CIF_YEZNAT
_audit_creation_date 2007-07-26
_audit_creation_method CSD-ConQuest-V1
_database_code_CSD YEZNAT
_database_code_depnum_ccdc_archive 'CCDC 613281'
_chemical_formula_sum 'C22 H25 N1 O6'
_chemical_formula_moiety
;
C22 H25 N1 O6
;
_journal_coden_Cambridge 24
_journal_volume 47
_journal_year 2006
_journal_page_first 7381
_journal_name_full 'Tetrahedron Lett. '
loop_
_publ_author_name
"K.A.B.Austin"
"M.G.Banwell"
"G.J.Harfoot"
"A.C.Willis"
_chemical_name_systematic
;
Methyl 
4,6-dimethyl-2-(4-nitrobenzoyloxy)decahydro-2,6-methanocyclobuta(a)pentalene-4
-carboxylate
;
_cell_volume   2109.645
_exptl_crystal_colour 'colorless'
_exptl_crystal_density_diffrn 1.258
_exptl_crystal_description 'needle'
_exptl_crystal_preparation 'n-hexane'
_diffrn_ambient_temperature 200
#These two values have been output from a single CSD field.
_refine_ls_R_factor_gt 0.0333
_refine_ls_wR_factor_gt 0.0333
_symmetry_cell_setting orthorhombic
_symmetry_space_group_name_H-M 'P 21 21 21'
_symmetry_Int_Tables_number 19
loop_
_symmetry_equiv_pos_site_id
_symmetry_equiv_pos_as_xyz
1 x,y,z
2 1/2+x,1/2-y,-z
3 -x,1/2+y,1/2-z
4 1/2-x,-y,1/2+z
_cell_length_a 6.5823(2)
_cell_length_b 7.6057(2)
_cell_length_c 42.1398(11)
_cell_angle_alpha 90
_cell_angle_beta 90
_cell_angle_gamma 90
_cell_formula_units_Z 4
loop_
_atom_type_symbol
_atom_type_radius_bond
C 0.68
H 0.23
N 0.68
O 0.68
loop_
_atom_site_label
_atom_site_type_symbol
_atom_site_fract_x
_atom_site_fract_y
_atom_site_fract_z
O1 O 0.9605(4) 0.5806(3) 0.29085(7)
O2 O 0.7951(3) 0.3268(3) 0.29317(6)
O3 O 0.3950(3) 0.5627(2) 0.43223(3)
O4 O 0.3953(4) 0.7802(2) 0.46840(4)
O5 O 0.4090(4) 0.1402(3) 0.58497(4)
O6 O 0.4077(4) -0.0605(2) 0.54932(4)
N1 N 0.4061(3) 0.0938(3) 0.55719(4)
C1 C 0.3979(4) 0.6887(3) 0.40686(5)
C2 C 0.2313(5) 0.8267(4) 0.40164(7)
C3 C 0.3133(4) 0.8158(3) 0.36741(6)
C4 C 0.3535(4) 0.6167(3) 0.37327(5)
C5 C 0.5909(4) 0.7961(3) 0.40243(5)
C6 C 0.5420(4) 0.8661(3) 0.36840(6)
C7 C 0.6427(4) 0.7366(3) 0.34554(5)
C8 C 0.6119(5) 0.7691(3) 0.30974(5)
C9 C 0.5951(4) 0.5850(3) 0.29534(5)
C10 C 0.4605(4) 0.4916(3) 0.31965(5)
C11 C 0.5306(4) 0.5595(3) 0.35246(5)
C12 C 0.5946(7) 1.0591(3) 0.36331(7)
C13 C 0.8034(5) 0.5024(4) 0.29297(6)
C14 C 0.5018(5) 0.5831(4) 0.26187(5)
C15 C 0.9853(6) 0.2352(5) 0.28918(11)
C16 C 0.3955(4) 0.6261(3) 0.46206(5)
C17 C 0.3980(4) 0.4821(3) 0.48611(5)
C18 C 0.3991(4) 0.5312(3) 0.51809(5)
C19 C 0.4019(4) 0.4039(3) 0.54134(5)
C20 C 0.4023(4) 0.2289(3) 0.53235(5)
C21 C 0.4010(3) 0.1761(3) 0.50098(5)
C22 C 0.3989(4) 0.3049(3) 0.47784(5)
H1 H 0.2512(5) 0.9417(4) 0.41272(7)
H2 H 0.0885(5) 0.7856(4) 0.40486(7)
H3 H 0.2265(4) 0.8541(3) 0.34920(6)
H4 H 0.2304(4) 0.5402(3) 0.37176(5)
H5 H 0.6035(4) 0.8929(3) 0.41836(5)
H6 H 0.7161(4) 0.7218(3) 0.40295(5)
H7 H 0.7906(4) 0.7252(3) 0.35051(5)
H8 H 0.7307(5) 0.8336(3) 0.30060(5)
H9 H 0.4849(5) 0.8379(3) 0.30585(5)
H10 H 0.3143(4) 0.5214(3) 0.31600(5)
H11 H 0.4791(4) 0.3614(3) 0.31822(5)
H12 H 0.6206(4) 0.4730(3) 0.36351(5)
H13 H 0.7452(7) 1.0748(3) 0.36447(7)
H14 H 0.5280(7) 1.1318(3) 0.38013(7)
H15 H 0.5449(7) 1.0973(3) 0.34197(7)
H16 H 0.4953(5) 0.4594(4) 0.25392(5)
H17 H 0.3617(5) 0.6337(4) 0.26269(5)
H18 H 0.5879(5) 0.6551(4) 0.24726(5)
H19 H 0.9606(6) 0.1055(5) 0.28973(11)
H20 H 1.0801(6) 0.2684(5) 0.30673(11)
H21 H 1.0469(6) 0.2682(5) 0.26833(11)
H22 H 0.3980(4) 0.6585(3) 0.52407(5)
H23 H 0.4035(4) 0.4373(3) 0.56429(5)
H24 H 0.4015(3) 0.0486(3) 0.49519(5)
H25 H 0.3981(4) 0.2704(3) 0.45494(5)
#END
