
#######################################################################
#
#                 Cambridge Crystallographic Data Centre
#                                CCDC
#
#######################################################################
#
# If this CIF has been generated from an entry in the Cambridge
# Structural Database, then it will include bibliographic, chemical,
# crystal, experimental, refinement or atomic coordinate data resulting
# from the CCDC's data processing and validation procedures.
#
#######################################################################

data_CSD_CIF_YEZQEB
_audit_creation_date 2013-06-16
_audit_creation_method CSD-ConQuest-V1
_database_code_CSD YEZQEB
_database_code_depnum_ccdc_archive 'CCDC 944843'
_chemical_formula_sum 'C17 H23 N1 O2'
_chemical_formula_moiety
;
C17 H23 N1 O2
;
_journal_coden_Cambridge 4
_journal_volume 134
_journal_year 2012
_journal_page_first 20009
_journal_name_full 'J.Am.Chem.Soc. '
loop_
_publ_author_name
"Lijun Zhou"
"Zhiming Li"
"Yue Zou"
"Quanrui Wang"
"I.A.Sanhueza"
"F.Schoenebeck"
"A.Goeke"
_chemical_name_systematic
;
1-Methoxy-8-methyl-10-phenyl-3,4,5,6,9,10-hexahydroazecin-2(1H)-one
;
_cell_volume   1524.689
_exptl_crystal_colour 'colorless'
_exptl_crystal_density_diffrn 1.191
_exptl_crystal_description 'block'
_diffrn_ambient_temperature 293
#These two values have been output from a single CSD field.
_refine_ls_R_factor_gt 0.0412
_refine_ls_wR_factor_gt 0.0412
_symmetry_cell_setting orthorhombic
_symmetry_space_group_name_H-M 'P 21 21 21'
_symmetry_Int_Tables_number 19
loop_
_symmetry_equiv_pos_site_id
_symmetry_equiv_pos_as_xyz
1 x,y,z
2 1/2-x,-y,1/2+z
3 -x,1/2+y,1/2-z
4 1/2+x,1/2-y,-z
_cell_length_a 8.059(4)
_cell_length_b 12.224(5)
_cell_length_c 15.477(7)
_cell_angle_alpha 90
_cell_angle_beta 90
_cell_angle_gamma 90
_cell_formula_units_Z 4
loop_
_atom_type_symbol
_atom_type_radius_bond
C 0.68
H 0.23
N 0.68
O 0.68
loop_
_atom_site_label
_atom_site_type_symbol
_atom_site_fract_x
_atom_site_fract_y
_atom_site_fract_z
N1 N 0.13090(16) 0.53903(10) 0.70409(8)
O1 O 0.13943(16) 0.47182(9) 0.83908(7)
O2 O 0.22900(14) 0.57704(9) 0.63500(7)
C1 C 0.2136(2) 0.49315(13) 0.77298(10)
C2 C 0.3925(2) 0.45999(18) 0.75984(13)
H1 H 0.43610 0.49880 0.71010
H2 H 0.39640 0.38240 0.74690
C3 C 0.5038(3) 0.48273(19) 0.83732(12)
H3 H 0.44000 0.46920 0.88940
H4 H 0.59430 0.43040 0.83640
C4 C 0.5775(2) 0.5965(2) 0.84364(14)
H5 H 0.62350 0.61530 0.78760
H6 H 0.66910 0.59380 0.88430
C5 C 0.4613(3) 0.68874(17) 0.87133(12)
H7 H 0.40890 0.66880 0.92550
H8 H 0.52640 0.75430 0.88140
C6 C 0.3306(2) 0.71359(14) 0.8069(1)
H9 H 0.36690 0.72400 0.75050
C7 C 0.1684(2) 0.72293(12) 0.81945(10)
C8 C 0.0541(2) 0.72816(14) 0.74328(11)
H10 H 0.11260 0.75910 0.69420
H11 H -0.03910 0.77540 0.75660
C9 C -0.00969(18) 0.61309(12) 0.71986(9)
H12 H -0.06840 0.58510 0.77070
C10 C 0.0875(3) 0.71690(18) 0.90626(12)
H13 H 0.17130 0.71380 0.95030
H14 H 0.01970 0.65250 0.90930
H15 H 0.01970 0.78050 0.91490
C11 C -0.12987(18) 0.60793(12) 0.64516(9)
C12 C -0.1646(2) 0.69665(15) 0.59269(12)
H16 H -0.11630 0.76420 0.60420
C13 C -0.2708(3) 0.68507(19) 0.52329(14)
H17 H -0.29240 0.74490 0.48800
C14 C -0.3449(2) 0.58676(17) 0.50572(12)
H18 H -0.41610 0.57970 0.45880
C15 C -0.3127(2) 0.49868(17) 0.55817(12)
H19 H -0.36240 0.43150 0.54690
C16 C -0.2070(2) 0.50976(15) 0.62735(11)
H20 H -0.18710 0.44980 0.66290
C17 C 0.2188(3) 0.5017(2) 0.56424(10)
H21 H 0.26240 0.43210 0.58170
H22 H 0.28220 0.52930 0.51640
H23 H 0.10500 0.49340 0.54720
#END
