
#######################################################################
#
#                 Cambridge Crystallographic Data Centre
#                                CCDC
#
#######################################################################
#
# If this CIF has been generated from an entry in the Cambridge
# Structural Database, then it will include bibliographic, chemical,
# crystal, experimental, refinement or atomic coordinate data resulting
# from the CCDC's data processing and validation procedures.
#
#######################################################################

data_CSD_CIF_YIBNUV
_audit_creation_date 2018-06-12
_audit_creation_method CSD-ConQuest-V1
_database_code_CSD YIBNUV
_database_code_depnum_ccdc_archive 'CCDC 1547520'
_chemical_formula_sum 'C19 H21 N1 O5'
_chemical_formula_moiety
;
C19 H21 N1 O5
;
_journal_coden_Cambridge 177
_journal_volume 16
_journal_year 2018
_journal_page_first 4683
_journal_name_full 'Org.Biomol.Chem. '
loop_
_publ_author_name
"Rongxiang Chen"
"A.A.Ogunlana"
"Shangwen Fang"
"Wenhao Long"
"Hongmei Sun"
"Xiaoguang Bao"
"Xiaobing Wan"
_chemical_name_systematic
;
3-cyclohexyl 4-ethyl 5-phenyl-1,2-oxazole-3,4-dicarboxylate
;
_cell_volume    858.507
_exptl_crystal_density_diffrn 1.328
_exptl_crystal_description 'block'
_diffrn_ambient_temperature 120.0
#These two values have been output from a single CSD field.
_refine_ls_R_factor_gt 0.0368
_refine_ls_wR_factor_gt 0.0368
_symmetry_cell_setting triclinic
_symmetry_space_group_name_H-M 'P -1'
_symmetry_Int_Tables_number 2
loop_
_symmetry_equiv_pos_site_id
_symmetry_equiv_pos_as_xyz
1 x,y,z
2 -x,-y,-z
_cell_length_a 9.2521(5)
_cell_length_b 9.8028(5)
_cell_length_c 9.9294(5)
_cell_angle_alpha 75.679(1)
_cell_angle_beta 88.544(2)
_cell_angle_gamma 79.757(2)
_cell_formula_units_Z 2
loop_
_atom_type_symbol
_atom_type_radius_bond
C 0.68
H 0.23
N 0.68
O 0.68
loop_
_atom_site_label
_atom_site_type_symbol
_atom_site_fract_x
_atom_site_fract_y
_atom_site_fract_z
O1 O 0.29936(9) 0.15160(9) 0.98661(8)
O2 O 0.15191(9) 0.03720(9) 0.74748(8)
O3 O 0.05478(9) 0.23249(9) 0.95608(9)
O4 O 0.12472(11) 0.11192(10) 0.51433(9)
O5 O 0.28064(10) 0.46666(9) 0.60789(8)
N1 N 0.26705(12) 0.41898(11) 0.75366(10)
C1 C 0.15142(12) 0.13228(12) 0.62486(12)
C2 C 0.17871(13) 0.22392(12) 0.91594(12)
C3 C 0.28001(13) 0.06515(12) 1.12771(11)
H1 H 0.20210 0.11950 1.17550
C4 C 0.37292(14) 0.44580(13) 0.32961(13)
H2 H 0.45400 0.45030 0.38420
C5 C 0.23519(14) -0.07424(13) 1.11953(13)
H3 H 0.30620 -0.12300 1.06280
H4 H 0.13700 -0.05420 1.07420
C6 C 0.42609(13) 0.04271(14) 1.20273(13)
H5 H 0.44700 0.13600 1.21090
H6 H 0.50540 0.00050 1.14870
C7 C 0.12597(14) 0.40035(13) 0.31361(13)
H7 H 0.03940 0.37310 0.35730
C8 C 0.19261(12) 0.26496(12) 0.64437(12)
C9 C 0.24559(13) 0.40594(12) 0.39368(12)
C10 C 0.37931(15) -0.19791(14) 1.34039(13)
H8 H 0.37360 -0.25830 1.43570
H9 H 0.45530 -0.24980 1.29030
C11 C 0.21529(12) 0.30063(12) 0.77165(12)
C12 C 0.42240(14) -0.05685(14) 1.34759(13)
H10 H 0.52050 -0.07610 1.39300
H11 H 0.35100 -0.00930 1.40490
C13 C 0.23106(14) -0.17125(14) 1.26561(13)
H12 H 0.15390 -0.12590 1.31950
H13 H 0.20620 -0.26360 1.25930
C14 C 0.23628(12) 0.37303(12) 0.54571(12)
C15 C 0.11554(14) -0.10125(12) 0.74491(13)
H14 H 0.05080 -0.08980 0.66350
H15 H 0.06190 -0.13780 0.82990
C16 C 0.25313(16) -0.20654(14) 0.73690(16)
H16 H 0.30530 -0.17090 0.65190
H17 H 0.22730 -0.29890 0.73550
H18 H 0.31660 -0.21850 0.81810
C17 C 0.38024(16) 0.47879(14) 0.18585(13)
H19 H 0.46700 0.50510 0.14180
C18 C 0.13448(16) 0.43492(14) 0.16998(13)
H20 H 0.05310 0.43210 0.11490
C19 C 0.26148(17) 0.47361(14) 0.10620(13)
H21 H 0.26700 0.49660 0.00770
#END
