
#######################################################################
#
#                 Cambridge Crystallographic Data Centre
#                                CCDC
#
#######################################################################
#
# If this CIF has been generated from an entry in the Cambridge
# Structural Database, then it will include bibliographic, chemical,
# crystal, experimental, refinement or atomic coordinate data resulting
# from the CCDC's data processing and validation procedures.
#
#######################################################################

data_CSD_CIF_YIBWUE
_audit_creation_date 2018-06-12
_audit_creation_method CSD-ConQuest-V1
_database_code_CSD YIBWUE
_database_code_depnum_ccdc_archive 'CCDC 1834465'
_chemical_formula_sum 'C84 H63 N9 O12'
_chemical_formula_moiety
;
C84 H63 N9 O12
;
_journal_coden_Cambridge 1336
_journal_volume 20
_journal_year 2018
_journal_page_first 3719
_journal_name_full 'Org.Lett. '
loop_
_publ_author_name
"S.Varghese"
"B.Spierenburg"
"A.Swartjes"
"P.B.White"
"P.Tinnemans"
"J.A.A.W.Elemans"
"R.J.M.Nolte"
_chemical_name_systematic
;
5,10,15,20-(2,2',2'',2'''-[(1-nitro-6,13-dioxo-13b,13c-diphenyl-5,7,12,13b,13c
,14-hexahydro-6H,13H-5a,6a,12a,13a-tetraazabenzo[5,6]azuleno[2,1,8-ija]benzo[f
]azulene-2,3,9,10-tetrayl)tetrakis(oxyethane-2,1-diyloxy)]tetra(phenyl))porphy
rin unknown solvate
;
_cell_volume   4678.713
_exptl_crystal_colour 'purple'
_exptl_crystal_density_diffrn 0.986
_exptl_crystal_description 'block'
_diffrn_ambient_temperature 155
_refine_special_details
;
Disordered solvent molecules were not modelled and the disordered density was 
taken into account using the SQUEEZE/PLATON procedure.
;
#These two values have been output from a single CSD field.
_refine_ls_R_factor_gt 0.116
_refine_ls_wR_factor_gt 0.116
_symmetry_cell_setting triclinic
_symmetry_space_group_name_H-M 'P -1'
_symmetry_Int_Tables_number 2
loop_
_symmetry_equiv_pos_site_id
_symmetry_equiv_pos_as_xyz
1 x,y,z
2 -x,-y,-z
_cell_length_a 12.9727(10)
_cell_length_b 18.8129(15)
_cell_length_c 19.9387(15)
_cell_angle_alpha 96.375(3)
_cell_angle_beta 103.032(3)
_cell_angle_gamma 95.103(3)
_cell_formula_units_Z 2
loop_
_atom_type_symbol
_atom_type_radius_bond
C 0.68
H 0.23
N 0.68
O 0.68
loop_
_atom_site_label
_atom_site_type_symbol
_atom_site_fract_x
_atom_site_fract_y
_atom_site_fract_z
O1 O 0.8101(2) 0.79138(15) 0.14432(16)
O2 O 0.2415(4) 0.5115(3) -0.0170(2)
O3 O 0.6516(2) 0.66470(15) 0.09053(16)
O4 O 0.4396(3) 0.66229(15) 0.03043(16)
O5 O 0.8047(3) 0.74471(17) 0.52042(16)
O6 O 0.6768(3) 0.43090(18) 0.28855(18)
O7 O 0.3602(3) 0.83002(17) 0.08505(17)
O8 O 0.2944(3) 0.76091(17) 0.40056(18)
O9 O 0.2566(3) 0.46957(19) 0.18027(19)
O10 O 0.6247(3) 0.62716(18) 0.49932(19)
O11 O 0.4218(3) 0.64997(18) 0.47072(18)
O12 O 0.2537(4) 0.5985(3) 0.0662(3)
N1 N 0.5987(2) 0.92982(18) 0.22450(16)
N2 N 0.5931(2) 0.88899(17) 0.41975(16)
N3 N 0.2926(4) 0.5518(3) 0.0352(2)
N4 N 0.7553(2) 0.89610(17) 0.34245(15)
N5 N 0.3563(3) 0.38513(18) 0.14129(17)
N6 N 0.5434(3) 0.38626(18) 0.19107(17)
N7 N 0.4355(3) 0.92351(18) 0.30220(16)
N8 N 0.3468(3) 0.3957(2) 0.25142(18)
N9 N 0.5231(3) 0.36055(19) 0.29324(18)
C1 C 0.8666(3) 0.9133(2) 0.18433(18)
C2 C 0.6568(3) 0.9509(2) 0.12762(19)
H1 H 0.70280 0.95690 0.09720
C3 C 0.6180(3) 0.5432(2) 0.1191(2)
H2 H 0.69090 0.54290 0.14130
C4 C 0.5853(3) 0.6048(2) 0.0922(2)
C5 C 0.8701(3) 0.8037(2) 0.55798(19)
C6 C 0.4770(3) 0.6058(2) 0.0631(2)
C7 C 0.9226(3) 0.8814(2) 0.3282(2)
H3 H 0.98080 0.87770 0.30690
C8 C 0.2072(3) 1.0065(2) 0.0323(2)
H4 H 0.17180 1.04740 0.02160
C9 C 0.5146(3) 0.9456(2) 0.1751(2)
C10 C 0.3727(3) 0.9357(2) 0.2399(2)
C11 C 0.2640(3) 0.9339(3) 0.2461(2)
H5 H 0.20430 0.94090 0.21090
C12 C 0.9482(3) 0.8532(2) 0.0996(2)
H6 H 0.95350 0.81110 0.07010
C13 C 0.4392(3) 0.3449(2) 0.1729(2)
C14 C 0.3086(3) 0.8867(2) 0.0639(2)
C15 C 0.3992(4) 0.4714(2) 0.3663(2)
C16 C 0.5039(4) 0.4561(2) 0.3876(2)
C17 C 0.4401(3) 0.2730(2) 0.1301(2)
C18 C 1.0057(3) 0.9780(2) 0.1431(2)
H7 H 1.05070 1.02100 0.14430
C19 C 0.3712(4) 0.5363(2) 0.3932(2)
H8 H 0.29940 0.54610 0.37990
C20 C 0.5894(3) 0.3970(2) 0.2603(2)
C21 C 0.3598(3) 0.4153(2) 0.0770(2)
H9 H 0.28780 0.42710 0.05600
H10 H 0.37760 0.37770 0.04400
C22 C 0.9296(3) 0.9294(2) 0.5657(2)
H11 H 0.92680 0.97320 0.54620
C23 C 0.5802(4) 0.5080(2) 0.4307(2)
C24 C 0.1879(3) 0.7982(3) 0.4820(2)
H12 H 0.15250 0.75090 0.47760
C25 C 0.9400(3) 0.8020(2) 0.6220(2)
H13 H 0.94420 0.75820 0.64140
C26 C 0.2625(3) 0.9205(3) 0.3112(2)
H14 H 0.20180 0.91670 0.33030
C27 C 0.8762(3) 0.8515(2) 0.14186(19)
C28 C 0.8260(3) 0.7261(2) 0.1051(2)
H15 H 0.90250 0.71930 0.11670
H16 H 0.80440 0.72970 0.05490
C29 C 0.3506(4) 0.2416(2) 0.0794(2)
H17 H 0.28840 0.26550 0.07080
C30 C 0.5304(4) 0.2370(2) 0.1436(2)
H18 H 0.59170 0.25800 0.17830
C31 C 0.2898(4) 0.9365(3) 0.4948(2)
H19 H 0.32370 0.98420 0.49890
C32 C 0.7621(3) 0.6631(2) 0.1213(3)
H20 H 0.78550 0.61780 0.10300
H21 H 0.77320 0.66490 0.17230
C33 C 0.3154(4) 0.4185(3) 0.3153(2)
H22 H 0.30050 0.37560 0.33770
H23 H 0.24860 0.44110 0.30370
C34 C 1.0037(3) 0.8646(3) 0.6576(2)
H24 H 1.05050 0.86320 0.70150
C35 C 0.3573(4) 0.7687(2) 0.0370(2)
H25 H 0.37330 0.78230 -0.00640
H26 H 0.28660 0.73960 0.02570
C36 C 0.3659(4) 0.2677(2) 0.2575(2)
C37 C 0.6422(3) 0.8655(3) 0.5327(2)
H27 H 0.68440 0.85620 0.57560
C38 C 0.5300(5) 0.1697(3) 0.1055(3)
H28 H 0.59090 0.14460 0.11490
C39 C 0.5353(4) 0.3816(2) 0.3680(2)
H29 H 0.61060 0.38040 0.39200
H30 H 0.49140 0.34540 0.38530
C40 C 0.4414(5) 0.1399(3) 0.0543(3)
H31 H 0.44230 0.09480 0.02800
C41 C 0.2137(4) 0.9223(3) 0.5322(3)
H32 H 0.19690 0.95990 0.56240
C42 C 0.3520(5) 0.1751(3) 0.0412(3)
H33 H 0.29120 0.15410 0.00600
C43 C 0.2543(5) 0.2507(3) 0.2337(3)
H34 H 0.21280 0.28540 0.21340
C44 C 0.4435(4) 0.7275(3) 0.0748(3)
H35 H 0.51440 0.75590 0.08360
H36 H 0.42970 0.71730 0.11980
C45 C 0.2586(5) 0.6869(3) 0.4014(3)
H37 H 0.27140 0.65780 0.36020
H38 H 0.18080 0.68170 0.39770
C46 C 0.4259(6) 0.2164(3) 0.2849(3)
H39 H 0.50110 0.22670 0.30000
C47 C 0.8012(5) 0.6809(3) 0.5553(3)
H40 H 0.77170 0.69140 0.59660
H41 H 0.87440 0.66850 0.57150
C48 C 0.7339(4) 0.6181(3) 0.5079(3)
H42 H 0.75230 0.61450 0.46210
H43 H 0.74810 0.57300 0.52770
C49 C 0.3742(8) 0.1473(3) 0.2905(3)
H44 H 0.41520 0.11180 0.30960
C50 C 0.3131(4) 0.6577(3) 0.4660(3)
H45 H 0.30730 0.69030 0.50720
H46 H 0.27490 0.61010 0.46740
C51 C 0.6781(3) 0.8769(2) 0.47131(19)
C52 C 0.6851(3) 0.9303(2) 0.19631(19)
C53 C 0.7859(3) 0.91328(19) 0.22784(18)
C54 C 0.8175(3) 0.8972(2) 0.29510(19)
C55 C 0.1907(3) 0.9464(2) -0.0158(2)
H47 H 0.14470 0.94620 -0.06030
C56 C 0.4386(3) 0.4820(2) 0.08552(19)
C57 C 0.2399(3) 0.8858(2) -0.0007(2)
H48 H 0.22690 0.84400 -0.03430
C58 C 0.3170(3) 0.8818(2) 0.45146(19)
C59 C 0.4016(3) 0.8951(2) 0.41332(18)
C60 C 0.2768(3) 1.0075(2) 0.0976(2)
H49 H 0.28830 1.04920 0.13110
C61 C 0.8640(3) 0.8685(2) 0.52967(19)
C62 C 0.2646(3) 0.8123(2) 0.4452(2)
C63 C 0.7831(3) 0.8738(2) 0.46497(19)
C64 C 0.9320(3) 0.9764(2) 0.1843(2)
H50 H 0.92610 1.01910 0.21280
C65 C 0.4060(3) 0.5450(2) 0.0619(2)
C66 C 0.4083(3) 0.9462(2) 0.18027(19)
C67 C 0.8170(3) 0.8815(2) 0.40373(19)
C68 C 0.3706(3) 0.9132(2) 0.34607(19)
C69 C 0.5471(3) 0.4821(2) 0.1143(2)
C70 C 1.0124(3) 0.9168(2) 0.1008(2)
H51 H 1.06150 0.91790 0.07190
C71 C 0.9232(3) 0.8731(2) 0.3944(2)
H52 H 0.98220 0.86340 0.42860
C72 C 0.5056(3) 0.8861(2) 0.44762(19)
C73 C 0.3287(3) 0.9485(2) 0.11377(19)
C74 C 0.3148(3) 0.4226(2) 0.1907(2)
C75 C 0.5915(3) 0.4153(2) 0.1389(2)
H53 H 0.58080 0.37770 0.09830
H54 H 0.66920 0.42690 0.15840
C76 C 0.4174(3) 0.3404(2) 0.2478(2)
C77 C 0.1632(3) 0.8542(3) 0.5254(2)
H55 H 0.11060 0.84480 0.55060
C78 C 0.5528(4) 0.5744(2) 0.4560(2)
C79 C 0.5357(3) 0.8708(3) 0.5175(2)
H56 H 0.48970 0.86530 0.54790
C80 C 0.5518(3) 0.9599(2) 0.1146(2)
H57 H 0.51050 0.97330 0.07320
C81 C 0.4460(4) 0.5873(2) 0.4394(2)
C82 C 0.9993(3) 0.9282(2) 0.6296(2)
H58 H 1.04320 0.97070 0.65360
C83 C 0.2043(7) 0.1838(4) 0.2395(4)
H59 H 0.12910 0.17350 0.22400
C84 C 0.2642(8) 0.1325(4) 0.2679(4)
H60 H 0.23000 0.08700 0.27200
H61? H 0.59710 0.92100 0.26670
H62? H 0.59490 0.89700 0.37730
H63? H 0.68780 0.90350 0.33480
H64? H 0.50490 0.92250 0.31180
#END
