
#######################################################################
#
#                 Cambridge Crystallographic Data Centre
#                                CCDC
#
#######################################################################
#
# If this CIF has been generated from an entry in the Cambridge
# Structural Database, then it will include bibliographic, chemical,
# crystal, experimental, refinement or atomic coordinate data resulting
# from the CCDC's data processing and validation procedures.
#
#######################################################################

data_CSD_CIF_YIBYUD
_audit_creation_date 1995-07-25
_audit_creation_method CSD-ConQuest-V1
_database_code_CSD YIBYUD
_database_code_depnum_ccdc_archive 'CCDC 1302440'
_chemical_formula_sum 'C17 H11 N1 O5'
_chemical_formula_moiety
;
C17 H11 N1 O5
;
_journal_coden_Cambridge 34
_journal_volume 31
_journal_year 1994
_journal_page_first 1129
_journal_name_full 'J.Heterocycl.Chem. '
loop_
_publ_author_name
"N.A.Rodios"
"A.Bojilova"
"A.Terzis"
"C.P.Raptopoulou"
_chemical_name_systematic
;
4,5-Benzo-endo-7-benzoyl-1-nitro-3-oxa-cis-bicyclo(4.1.0)hept-4-en-2-one
;
_chemical_melting_point 473.15
_cell_volume   1415.077
_exptl_crystal_colour 'light yellow'
_exptl_special_details
;
Melting point range 473.15-475.15K
Z(O5) is 0.5691 not 0.0691

;
_exptl_crystal_description 'prismatic'
_exptl_crystal_preparation 'ethanol'
_diffrn_ambient_temperature ?
_diffrn_special_details
;
The study was carried out at room temperature,in the range 283-303K

;
#These two values have been output from a single CSD field.
_refine_ls_R_factor_gt 0.0795
_refine_ls_wR_factor_gt 0.0795
_symmetry_cell_setting monoclinic
_symmetry_space_group_name_H-M 'P 21/n'
_symmetry_Int_Tables_number 14
loop_
_symmetry_equiv_pos_site_id
_symmetry_equiv_pos_as_xyz
1 x,y,z
2 1/2-x,1/2+y,1/2-z
3 -x,-y,-z
4 -1/2+x,-1/2-y,-1/2+z
_cell_length_a 8.7838
_cell_length_b 17.139
_cell_length_c 9.7686
_cell_angle_alpha 90
_cell_angle_beta 105.797
_cell_angle_gamma 90
_cell_formula_units_Z 4
loop_
_atom_type_symbol
_atom_type_radius_bond
C 0.68
N 0.68
O 0.68
loop_
_atom_site_label
_atom_site_type_symbol
_atom_site_fract_x
_atom_site_fract_y
_atom_site_fract_z
C1 C -0.1702(3) 0.8953(2) 0.4503(3)
C2 C -0.2025(4) 0.9592(2) 0.5248(4)
C3 C -0.1053(4) 0.9770(2) 0.6559(4)
C4 C 0.0240(4) 0.9316(2) 0.7154(4)
C5 C 0.0583(4) 0.8676(2) 0.6425(3)
C6 C -0.0384(3) 0.8490(1) 0.5101(3)
C7 C -0.0064(3) 0.7812(2) 0.4276(3)
O1 O -0.0847(2) 0.7675(1) 0.3062(2)
C8 C 0.1309(3) 0.7304(1) 0.4967(3)
C9 C 0.1802(3) 0.6651(1) 0.4171(3)
C10 C 0.2832(3) 0.7351(1) 0.4501(3)
C11 C 0.2931(3) 0.7828(1) 0.3271(3)
C12 C 0.3841(3) 0.8511(2) 0.3424(3)
C13 C 0.3930(3) 0.8932(2) 0.2249(3)
C14 C 0.3116(3) 0.8684(2) 0.0897(3)
C15 C 0.2207(3) 0.8015(2) 0.0717(3)
C16 C 0.2140(3) 0.7596(1) 0.1914(2)
O2 O 0.1220(2) 0.6923(1) 0.1629(2)
C17 C 0.0956(3) 0.6460(2) 0.2660(3)
O3 O 0.0132(3) 0.5901(1) 0.2324(2)
N1 N 0.2359(3) 0.5926(1) 0.4992(2)
O4 O 0.3514(4) 0.5628(2) 0.4857(4)
O5 O 0.1625(4) 0.5647(2) 0.5691(4)
#END
