
#######################################################################
#
#                 Cambridge Crystallographic Data Centre
#                                CCDC
#
#######################################################################
#
# If this CIF has been generated from an entry in the Cambridge
# Structural Database, then it will include bibliographic, chemical,
# crystal, experimental, refinement or atomic coordinate data resulting
# from the CCDC's data processing and validation procedures.
#
#######################################################################

data_CSD_CIF_YIBZUF
_audit_creation_date 2007-07-26
_audit_creation_method CSD-ConQuest-V1
_database_code_CSD YIBZUF
_database_code_depnum_ccdc_archive 'CCDC 646711'
_chemical_formula_sum 'C14 H12 N2 O3'
_chemical_formula_moiety
;
C14 H12 N2 O3
;
_journal_coeditor_code "IUCr AT2261"
_journal_coden_Cambridge 1370
_journal_volume 63
_journal_year 2007
_journal_page_first o2324
_journal_name_full 'Acta Crystallogr.,Sect.E:Struct.Rep.Online '
loop_
_publ_author_name
"D.Gayathri"
"D.Velmurugan"
"K.Ravikumar"
"D.Saravanakumar"
"M.Kandaswamy"
_chemical_name_systematic
;
4-Methyl-2-((4-nitrophenylimino)methyl)phenol
;
_chemical_melting_point 417
_cell_volume   4920.253
_exptl_crystal_colour 'pink'
_exptl_crystal_density_diffrn 1.384
_exptl_crystal_description 'needle'
_exptl_crystal_preparation 'ethanol'
_diffrn_ambient_temperature 293
#These two values have been output from a single CSD field.
_refine_ls_R_factor_gt 0.0859
_refine_ls_wR_factor_gt 0.0859
_symmetry_cell_setting monoclinic
_symmetry_space_group_name_H-M 'C 2/c'
_symmetry_Int_Tables_number 15
loop_
_symmetry_equiv_pos_site_id
_symmetry_equiv_pos_as_xyz
1 x,y,z
2 1/2+x,1/2+y,z
3 -x,y,1/2-z
4 1/2-x,1/2+y,1/2-z
5 -x,-y,-z
6 -1/2-x,-1/2-y,-z
7 x,-y,-1/2+z
8 -1/2+x,-1/2-y,-1/2+z
_cell_length_a 28.698(2)
_cell_length_b 6.0051(5)
_cell_length_c 28.574(2)
_cell_angle_alpha 90
_cell_angle_beta 92.318(2)
_cell_angle_gamma 90
_cell_formula_units_Z 16
loop_
_atom_type_symbol
_atom_type_radius_bond
C 0.68
H 0.23
N 0.68
O 0.68
loop_
_atom_site_label
_atom_site_type_symbol
_atom_site_fract_x
_atom_site_fract_y
_atom_site_fract_z
C1 C 0.21916(9) 0.5365(5) 0.31631(12)
H1 H 0.24550 0.45100 0.32780
H2 H 0.21020 0.64010 0.33990
H3 H 0.22740 0.61660 0.28880
C2 C 0.17914(9) 0.3833(5) 0.30445(9)
C3 C 0.18640(9) 0.1766(5) 0.28422(10)
H4 H 0.21660 0.13560 0.27740
C4 C 0.15068(9) 0.0305(5) 0.27388(10)
H5 H 0.15700 -0.10550 0.25990
C5 C 0.10531(9) 0.0843(4) 0.28408(8)
C6 C 0.09649(8) 0.2925(4) 0.30413(8)
C7 C 0.13380(8) 0.4371(4) 0.31381(9)
H6 H 0.12780 0.57500 0.32710
C8 C 0.04980(8) 0.3579(4) 0.31493(8)
H7 H 0.04490 0.49970 0.32690
C9 C -0.03060(8) 0.2984(4) 0.31705(8)
C10 C -0.04753(8) 0.5039(4) 0.30270(8)
H8 H -0.02770 0.60590 0.28920
C11 C -0.09337(9) 0.5584(4) 0.30822(9)
H9 H -0.10480 0.69630 0.29850
C12 C -0.12205(8) 0.4062(5) 0.32837(9)
C13 C -0.10599(9) 0.2017(5) 0.34366(9)
H10 H -0.12580 0.10170 0.35780
C14 C -0.06028(9) 0.1492(4) 0.33758(9)
H11 H -0.04900 0.01110 0.34740
C15 C 0.46327(10) 0.1516(6) 0.43894(13)
H12 H 0.47710 0.10500 0.46850
H13 H 0.48570 0.23450 0.42200
H14 H 0.45360 0.02310 0.42110
C16 C 0.42167(9) 0.2960(5) 0.44726(9)
C17 C 0.42618(10) 0.5099(5) 0.46552(10)
H15 H 0.45590 0.56540 0.47240
C18 C 0.38864(10) 0.6413(5) 0.47369(10)
H16 H 0.39320 0.78300 0.48610
C19 C 0.34358(9) 0.5658(4) 0.46363(9)
C20 C 0.33736(9) 0.3509(4) 0.44540(8)
C21 C 0.37677(9) 0.2222(4) 0.43756(9)
H17 H 0.37260 0.07990 0.42520
C22 C 0.29152(9) 0.2589(4) 0.43603(8)
H18 H 0.28900 0.11300 0.42530
C23 C 0.20990(9) 0.2763(4) 0.43283(8)
C24 C 0.17206(9) 0.4018(5) 0.44538(9)
H19 H 0.17710 0.54060 0.45910
C25 C 0.12718(9) 0.3264(5) 0.43807(9)
H20 H 0.10190 0.41260 0.44650
C26 C 0.12054(9) 0.1206(5) 0.41808(9)
C27 C 0.15718(10) -0.0065(5) 0.40470(11)
H21 H 0.15180 -0.14490 0.39090
C28 C 0.20178(10) 0.0707(5) 0.41167(11)
H22 H 0.22680 -0.01470 0.40220
N1 N 0.01504(7) 0.2280(3) 0.30869(7)
N2 N -0.17098(8) 0.4624(5) 0.33365(9)
N3 N 0.25442(7) 0.3700(4) 0.44187(7)
N4 N 0.07299(9) 0.0356(5) 0.41075(9)
O1 O 0.07111(6) -0.0644(3) 0.27452(7)
H23 H 0.04610 -0.01260 0.28220
O2 O -0.18526(8) 0.6388(5) 0.31793(11)
O3 O -0.19543(7) 0.3340(5) 0.35453(10)
O4 O 0.30735(7) 0.6989(3) 0.47207(7)
H24 H 0.28290 0.63490 0.46450
O5 O 0.06795(8) -0.1495(5) 0.39346(10)
O6 O 0.04078(7) 0.1530(5) 0.42171(9)
#END
