
#######################################################################
#
#                 Cambridge Crystallographic Data Centre
#                                CCDC
#
#######################################################################
#
# If this CIF has been generated from an entry in the Cambridge
# Structural Database, then it will include bibliographic, chemical,
# crystal, experimental, refinement or atomic coordinate data resulting
# from the CCDC's data processing and validation procedures.
#
#######################################################################

data_CSD_CIF_YIBZEO
_audit_creation_date 1995-07-26
_audit_creation_method CSD-ConQuest-V1
_database_code_CSD YIBZEO
_chemical_formula_sum 'C12 H9 N5 O3'
_chemical_formula_moiety
;
C12 H9 N5 O3
;
_journal_coden_Cambridge 1003
_journal_volume 24
_journal_year 1994
_journal_page_first 483
_journal_name_full 'J.Chem.Cryst. '
loop_
_publ_author_name
"S.Ryng"
"Z.Machon"
"T.Glowiak"
_chemical_name_systematic
;
5-Benzoylmino-3-methyl-4-isoxazolocarboxylic acid azide
;
_chemical_melting_point 388.15
_cell_volume    612.557
_exptl_crystal_colour 'colorless'
_exptl_crystal_density_diffrn 1.47
_diffrn_ambient_temperature ?
_diffrn_special_details
;
The study was carried out at room temperature,in the range 283-303K

;
#These two values have been output from a single CSD field.
_refine_ls_R_factor_gt 0.032
_refine_ls_wR_factor_gt 0.032
_symmetry_cell_setting triclinic
_symmetry_space_group_name_H-M 'P -1'
_symmetry_Int_Tables_number 2
loop_
_symmetry_equiv_pos_site_id
_symmetry_equiv_pos_as_xyz
1 x,y,z
2 -x,-y,-z
_cell_length_a 7.179
_cell_length_b 8.135
_cell_length_c 11.61
_cell_angle_alpha 70.88
_cell_angle_beta 85.78
_cell_angle_gamma 73.03
_cell_formula_units_Z 2
loop_
_atom_type_symbol
_atom_type_radius_bond
C 0.68
H 0.23
N 0.68
O 0.68
loop_
_atom_site_label
_atom_site_type_symbol
_atom_site_fract_x
_atom_site_fract_y
_atom_site_fract_z
O1 O 0.2341(2) 0.5051(2) 0.5322(1)
O2 O 0.1329(2) 0.2815(2) 0.7347(1)
O3 O 0.3649(2) 0.1265(2) 0.3474(1)
N1 N 0.2748(3) 0.6543(2) 0.4353(1)
N2 N 0.2399(3) 0.2061(2) 0.5647(1)
N3 N 0.3767(3) 0.3702(2) 0.1766(1)
N4 N 0.3920(3) 0.2629(2) 0.1171(1)
N5 N 0.4026(4) 0.1798(3) 0.0559(2)
C1 C 0.2666(3) 0.3658(2) 0.4904(2)
C2 C 0.3233(3) 0.4097(2) 0.3724(2)
C3 C 0.3252(3) 0.5940(2) 0.3436(2)
C4 C 0.3799(5) 0.7182(3) 0.2288(2)
C5 C 0.1703(3) 0.1702(2) 0.6822(2)
C6 C 0.1467(3) -0.0154(2) 0.7386(2)
C7 C 0.1439(3) -0.1301(3) 0.6739(2)
C8 C 0.1209(3) -0.3006(3) 0.7340(2)
C9 C 0.1019(3) -0.3557(3) 0.8587(2)
C10 C 0.1023(4) -0.2421(3) 0.9237(2)
C11 C 0.1245(3) -0.0719(3) 0.8638(2)
C12 C 0.3575(3) 0.2869(2) 0.3031(2)
H1 H 0.268(3) 0.128(3) 0.528(2)
H2 H 0.159(3) -0.099(2) 0.591(2)
H3 H 0.117(3) -0.381(2) 0.683(2)
H4 H 0.094(3) -0.476(3) 0.898(2)
H5 H 0.092(3) -0.282(3) 1.013(2)
H6 H 0.128(3) 0.007(2) 0.906(2)
H7 H 0.304(4) 0.728(3) 0.158(2)
H8 H 0.376(3) 0.825(3) 0.240(2)
H9 H 0.513(4) 0.670(3) 0.203(2)
#END
