
#######################################################################
#
#                 Cambridge Crystallographic Data Centre
#                                CCDC
#
#######################################################################
#
# If this CIF has been generated from an entry in the Cambridge
# Structural Database, then it will include bibliographic, chemical,
# crystal, experimental, refinement or atomic coordinate data resulting
# from the CCDC's data processing and validation procedures.
#
#######################################################################

data_CSD_CIF_YICFAS
_audit_creation_date 2007-07-26
_audit_creation_method CSD-ConQuest-V1
_database_code_CSD YICFAS
_database_code_depnum_ccdc_archive 'CCDC 647324'
_chemical_formula_sum 'C11 H14 N2 O4'
_chemical_formula_moiety
;
C11 H14 N2 O4
;
_journal_coeditor_code "IUCr SG2154"
_journal_coden_Cambridge 1370
_journal_volume 63
_journal_year 2007
_journal_page_first o2202
_journal_name_full 'Acta Crystallogr.,Sect.E:Struct.Rep.Online '
loop_
_publ_author_name
"H.S.Yathirajan"
"S.Bindya"
"M.A.Ashok"
"B.Narayana"
"M.Bolte"
_chemical_name_systematic
;
N-(2-Nitro-4-propoxyphenyl)acetamide
;
_chemical_melting_point 365
_cell_volume   1140.424
_exptl_crystal_colour 'orange'
_exptl_crystal_density_diffrn 1.388
_exptl_crystal_description 'plate'
_exptl_crystal_preparation 'methanol'
_diffrn_ambient_temperature 173
#These two values have been output from a single CSD field.
_refine_ls_R_factor_gt 0.0385
_refine_ls_wR_factor_gt 0.0385
_symmetry_cell_setting monoclinic
_symmetry_space_group_name_H-M 'P 21/c'
_symmetry_Int_Tables_number 14
loop_
_symmetry_equiv_pos_site_id
_symmetry_equiv_pos_as_xyz
1 x,y,z
2 -x,1/2+y,1/2-z
3 -x,-y,-z
4 x,-1/2-y,-1/2+z
_cell_length_a 16.9055(15)
_cell_length_b 4.0057(2)
_cell_length_c 18.0989(16)
_cell_angle_alpha 90
_cell_angle_beta 111.490(7)
_cell_angle_gamma 90
_cell_formula_units_Z 4
loop_
_atom_type_symbol
_atom_type_radius_bond
C 0.68
H 0.23
N 0.68
O 0.68
loop_
_atom_site_label
_atom_site_type_symbol
_atom_site_fract_x
_atom_site_fract_y
_atom_site_fract_z
C1 C 0.19540(8) 0.6496(3) 0.32679(7)
C2 C 0.18324(7) 0.7025(3) 0.24623(7)
C3 C 0.24008(7) 0.5858(3) 0.21179(7)
H1 H 0.22960 0.62620 0.15730
C4 C 0.31185(8) 0.4108(3) 0.25839(7)
C5 C 0.32464(8) 0.3487(4) 0.33828(7)
H2 H 0.37320 0.22560 0.37020
C6 C 0.26813(8) 0.4630(4) 0.37135(7)
H3 H 0.27840 0.41510 0.42550
N1 N 0.13989(7) 0.7723(3) 0.36209(6)
H4 H 0.0892(13) 0.843(5) 0.3270(12)
C7 C 0.15802(8) 0.8339(3) 0.44170(7)
O1 O 0.22646(7) 0.7748(3) 0.49371(6)
C8 C 0.08455(9) 0.9816(4) 0.45886(8)
H5 H 0.04230 0.80750 0.45420
H6 H 0.05850 1.16030 0.42070
H7 H 0.10510 1.07300 0.51280
N2 N 0.11014(7) 0.8902(3) 0.19268(6)
O2 O 0.05055(7) 0.9612(4) 0.21426(6)
O3 O 0.10946(6) 0.9732(3) 0.12717(5)
O4 O 0.37262(6) 0.2863(3) 0.23315(5)
C9 C 0.36507(8) 0.3519(3) 0.15246(7)
H8 H 0.35340 0.59150 0.13980
H9 H 0.31800 0.21940 0.11490
C10 C 0.44905(8) 0.2530(3) 0.14636(7)
H10 H 0.46140 0.01670 0.16250
H11 H 0.49510 0.39160 0.18320
C11 C 0.44733(10) 0.2974(4) 0.06219(8)
H12 H 0.50190 0.22610 0.06000
H13 H 0.43760 0.53300 0.04700
H14 H 0.40150 0.16170 0.02550
#END
