
#######################################################################
#
#                 Cambridge Crystallographic Data Centre
#                                CCDC
#
#######################################################################
#
# If this CIF has been generated from an entry in the Cambridge
# Structural Database, then it will include bibliographic, chemical,
# crystal, experimental, refinement or atomic coordinate data resulting
# from the CCDC's data processing and validation procedures.
#
#######################################################################

data_CSD_CIF_YICPOP
_audit_creation_date 1995-08-02
_audit_creation_method CSD-ConQuest-V1
_database_code_CSD YICPOP
_chemical_formula_sum 'C11 H10 N4 O3'
_chemical_formula_moiety
;
C11 H10 N4 O3
;
_journal_coden_Cambridge 122
_journal_year 1992
_journal_page_first 895
_journal_name_full 'Khim.Get.Soedin.,SSSR(Russ.)(Chem.Heterocycl.Compd.) '
loop_
_publ_author_name
"G.F.Muzychenko"
"V.G.Kul'nevich"
"L.N.Zharkikh"
"V.E.Zavodnik"
"N.V.Komarov"
"I.V.Shustova"
"A.V.Ignatenko"
_chemical_name_systematic
;
4-Oxo-3-(4-nitrophenyl)-3,6,7-triazabicyclo(3.3.0)oct-6-ene
;
_chemical_melting_point 454.15
_cell_volume   2178.018
_exptl_crystal_colour 'colorless'
_exptl_special_details
;
Melting point range 454.15-456.15K
The structure contains 40% void space

;
_diffrn_ambient_temperature ?
_diffrn_special_details
;
The study was carried out at room temperature,in the range 283-303K

;
#These two values have been output from a single CSD field.
_refine_ls_R_factor_gt 0.029
_refine_ls_wR_factor_gt 0.029
_symmetry_cell_setting monoclinic
_symmetry_space_group_name_H-M 'P 1 1 2/a'
_symmetry_Int_Tables_number 13
loop_
_symmetry_equiv_pos_site_id
_symmetry_equiv_pos_as_xyz
1 x,y,z
2 1/2-x,-y,z
3 -x,-y,-z
4 -1/2+x,y,-z
_cell_length_a 12.957
_cell_length_b 21.496
_cell_length_c 8.407
_cell_angle_alpha 90
_cell_angle_beta 90
_cell_angle_gamma 111.54
_cell_formula_units_Z 8
loop_
_atom_type_symbol
_atom_type_radius_bond
C 0.68
N 0.68
O 0.68
loop_
_atom_site_label
_atom_site_type_symbol
_atom_site_fract_x
_atom_site_fract_y
_atom_site_fract_z
O1 O 0.3861(2) 0.0072(1) 0.4442(3)
O2 O 0.5270(3) 0.0698(1) 0.3134(4)
O3 O 0.2441(1) 0.2463(1) 0.8192(2)
N1 N 0.4516(2) 0.0621(1) 0.4076(2)
N2 N 0.3888(2) 0.2905(1) 0.6417(3)
N3 N 0.2128(2) 0.3677(1) 0.6693(4)
N4 N 0.2387(2) 0.4097(1) 0.5606(3)
C1 C 0.4394(2) 0.1210(1) 0.4781(3)
C2 C 0.3566(3) 0.1131(1) 0.5876(4)
C3 C 0.3397(3) 0.1689(1) 0.6469(4)
C4 C 0.4066(3) 0.2324(1) 0.5927(4)
C5 C 0.4912(2) 0.2389(1) 0.4851(2)
C6 C 0.5083(2) 0.1832(1) 0.4277(3)
C7 C 0.3090(2) 0.2929(1) 0.7453(3)
C8 C 0.3134(2) 0.3640(1) 0.7506(3)
C9 C 0.4109(2) 0.4058(1) 0.6516(3)
C10 C 0.4514(2) 0.3556(1) 0.5678(3)
C11 C 0.3605(2) 0.4439(1) 0.5442(4)
#END
