
#######################################################################
#
#                 Cambridge Crystallographic Data Centre
#                                CCDC
#
#######################################################################
#
# If this CIF has been generated from an entry in the Cambridge
# Structural Database, then it will include bibliographic, chemical,
# crystal, experimental, refinement or atomic coordinate data resulting
# from the CCDC's data processing and validation procedures.
#
#######################################################################

data_CSD_CIF_YICXUG
_audit_creation_date 2018-06-13
_audit_creation_method CSD-ConQuest-V1
_database_code_CSD YICXUG
_database_code_depnum_ccdc_archive 'CCDC 1838655'
_chemical_formula_sum 'C7 H11 N1 O4'
_chemical_formula_moiety
;
C7 H11 N1 O4
;
_journal_coden_Cambridge 182
_journal_volume 54
_journal_year 2018
_journal_page_first 7211
_journal_name_full 'Chem.Commun. '
loop_
_publ_author_name
"M.Riemer"
"V.V.Uzunova"
"N.Riemer"
"G.J.Clarkson"
"N.Pereira"
"R.Napier"
"M.Shipman"
_chemical_name_systematic
;
5-hydroxy-1,4-dimethoxy-5-methyl-1,5-dihydro-2H-pyrrol-2-one
;
_cell_volume    878.003
_exptl_crystal_colour 'colorless'
_exptl_crystal_density_diffrn 1.31
_exptl_crystal_description 'block'
_diffrn_ambient_temperature 150
#These two values have been output from a single CSD field.
_refine_ls_R_factor_gt 0.0382
_refine_ls_wR_factor_gt 0.0382
_symmetry_cell_setting monoclinic
_symmetry_space_group_name_H-M 'P 21/n'
_symmetry_Int_Tables_number 14
loop_
_symmetry_equiv_pos_site_id
_symmetry_equiv_pos_as_xyz
1 x,y,z
2 1/2-x,1/2+y,1/2-z
3 -x,-y,-z
4 -1/2+x,-1/2-y,-1/2+z
_cell_length_a 9.7222(3)
_cell_length_b 7.91107(17)
_cell_length_c 11.6743(3)
_cell_angle_alpha 90
_cell_angle_beta 102.086(3)
_cell_angle_gamma 90
_cell_formula_units_Z 4
loop_
_atom_type_symbol
_atom_type_radius_bond
C 0.68
H 0.23
N 0.68
O 0.68
loop_
_atom_site_label
_atom_site_type_symbol
_atom_site_fract_x
_atom_site_fract_y
_atom_site_fract_z
O1 O 0.90180(9) 0.64256(10) 0.24010(7)
O2 O 0.45236(9) 0.86048(10) 0.17486(8)
H1 H 0.49210 0.95300 0.19600
O3 O 0.66683(11) 0.66154(10) 0.06182(7)
O4 O 0.52091(9) 0.77498(12) 0.41927(8)
N1 N 0.67274(11) 0.72929(12) 0.17344(8)
C1 C 0.78789(12) 0.68802(13) 0.25959(10)
C2 C 0.60812(12) 0.74107(14) 0.34917(10)
C3 C 0.54238(12) 0.72749(14) 0.21909(10)
C4 C 0.74767(12) 0.71524(14) 0.3716(1)
H2 H 0.80890 0.71480 0.44660
C5 C 0.46063(13) 0.56367(15) 0.19043(11)
H3 H 0.37900 0.56420 0.22750
H4 H 0.52150 0.46770 0.22000
H5 H 0.42870 0.55350 0.10530
C6 C 0.68712(16) 0.79541(16) -0.01591(11)
H6 H 0.68410 0.74910 -0.09430
H7 H 0.77870 0.84880 0.01330
H8 H 0.61240 0.87970 -0.01990
C7 C 0.58851(17) 0.8005(2) 0.54050(12)
H9 H 0.65570 0.89410 0.54630
H10 H 0.63840 0.69720 0.57150
H11 H 0.51730 0.82760 0.58600
#END
