
#######################################################################
#
#                 Cambridge Crystallographic Data Centre
#                                CCDC
#
#######################################################################
#
# If this CIF has been generated from an entry in the Cambridge
# Structural Database, then it will include bibliographic, chemical,
# crystal, experimental, refinement or atomic coordinate data resulting
# from the CCDC's data processing and validation procedures.
#
#######################################################################

data_CSD_CIF_YIDPIM
_audit_creation_date 2013-06-16
_audit_creation_method CSD-ConQuest-V1
_database_code_CSD YIDPIM
_database_code_depnum_ccdc_archive 'CCDC 923952'
_chemical_formula_sum 'C13 H8 N4 O4'
_chemical_formula_moiety
;
C13 H8 N4 O4
;
_journal_coden_Cambridge 440
_journal_volume 37
_journal_year 2013
_journal_page_first 2384
_journal_name_full 'New J.Chem. '
loop_
_publ_author_name
"I.Alkorta"
"F.P.Cossio"
"J.Elguero"
"N.Fresno"
"L.Hernandez-Folgado"
"S.Garcia-Granda"
"L.Menendez-Taboada"
"R.Perez-Fernandez"
"F.Reviriego"
"L.Vazquez-Vinuela"
_chemical_name_systematic
;
2-(6-Nitro-1-oxido-2H-benzotriazol-2-yl)benzaldehyde
;
_cell_volume   1218.088
_exptl_crystal_colour 'colorless'
_exptl_crystal_density_diffrn 1.55
_exptl_crystal_description 'prism'
_diffrn_ambient_temperature 293
#These two values have been output from a single CSD field.
_refine_ls_R_factor_gt 0.0439
_refine_ls_wR_factor_gt 0.0439
_symmetry_cell_setting monoclinic
_symmetry_space_group_name_H-M 'P 21/c'
_symmetry_Int_Tables_number 14
loop_
_symmetry_equiv_pos_site_id
_symmetry_equiv_pos_as_xyz
1 x,y,z
2 -x,1/2+y,1/2-z
3 -x,-y,-z
4 x,-1/2-y,-1/2+z
_cell_length_a 13.0325(6)
_cell_length_b 15.3958(15)
_cell_length_c 6.1563(3)
_cell_angle_alpha 90
_cell_angle_beta 99.558(5)
_cell_angle_gamma 90
_cell_formula_units_Z 4
loop_
_atom_type_symbol
_atom_type_radius_bond
C 0.68
H 0.23
N 0.68
O 0.68
loop_
_atom_site_label
_atom_site_type_symbol
_atom_site_fract_x
_atom_site_fract_y
_atom_site_fract_z
O1 O 0.72042(12) -0.00010(11) 0.5768(3)
C1 C 0.80138(17) 0.03316(16) 0.6565(4)
H1 H 0.82480 0.02330 0.80550
C2 C 0.86680(15) 0.08819(14) 0.5390(3)
C3 C 0.97245(16) 0.09499(16) 0.6239(4)
H2 H 0.99760 0.07210 0.76230
C4 C 1.04050(17) 0.13507(18) 0.5061(5)
H3 H 1.11100 0.13800 0.56420
C5 C 1.00438(18) 0.17040(18) 0.3041(5)
H4 H 1.05070 0.19600 0.22370
C6 C 0.89893(17) 0.16831(17) 0.2182(4)
H5 H 0.87410 0.19400 0.08300
C7 C 0.83168(14) 0.12766(14) 0.3360(3)
N1 N 0.72418(11) 0.12746(12) 0.2442(2)
N2 N 0.65005(12) 0.15943(11) 0.3542(2)
O2 O 0.66948(11) 0.19049(11) 0.5463(2)
C8 C 0.55874(14) 0.14828(14) 0.2139(3)
C9 C 0.45676(14) 0.16581(14) 0.2448(3)
H6 H 0.44100 0.19060 0.37300
C10 C 0.38250(15) 0.14344(15) 0.0709(3)
N3 N 0.27356(14) 0.15689(14) 0.0967(4)
O3 O 0.25532(13) 0.20129(14) 0.2494(4)
O4 O 0.20595(12) 0.12213(14) -0.0377(3)
C11 C 0.40429(17) 0.10783(15) -0.1280(4)
H7 H 0.34980 0.09480 -0.24110
C12 C 0.50385(16) 0.09247(15) -0.1560(3)
H8 H 0.51870 0.06970 -0.28730
C13 C 0.58410(15) 0.11221(13) 0.0206(3)
N4 N 0.68721(13) 0.09950(12) 0.0404(3)
#END
