
#######################################################################
#
#                 Cambridge Crystallographic Data Centre
#                                CCDC
#
#######################################################################
#
# If this CIF has been generated from an entry in the Cambridge
# Structural Database, then it will include bibliographic, chemical,
# crystal, experimental, refinement or atomic coordinate data resulting
# from the CCDC's data processing and validation procedures.
#
#######################################################################

data_CSD_CIF_YIFCAU01
_audit_creation_date 2018-09-21
_audit_creation_method CSD-ConQuest-V1
_database_code_CSD YIFCAU01
_database_code_depnum_ccdc_archive 'CCDC 1835062'
_chemical_formula_sum 'C3 H2 N4 O4'
_chemical_formula_moiety
;
C3 H2 N4 O4
;
_journal_coden_Cambridge 1564
_journal_volume 83
_journal_year 2018
_journal_page_first 804
_journal_name_full 'ChemPlusChem '
loop_
_publ_author_name
"M.F.Bolter"
"A.Harter"
"T.M.Klapotke"
"J.Stierstorfer"
_chemical_name_systematic
;
3,5-dinitro-1H-pyrazole
;
_cell_volume   1154.165
_exptl_crystal_colour 'colorless'
_exptl_crystal_density_diffrn 1.82
_exptl_crystal_description 'block'
_diffrn_ambient_temperature 173
#These two values have been output from a single CSD field.
_refine_ls_R_factor_gt 0.0266
_refine_ls_wR_factor_gt 0.0266
_symmetry_cell_setting orthorhombic
_symmetry_space_group_name_H-M 'P c a 21'
_symmetry_Int_Tables_number 29
loop_
_symmetry_equiv_pos_site_id
_symmetry_equiv_pos_as_xyz
1 x,y,z
2 -x,-y,1/2+z
3 1/2-x,y,1/2+z
4 1/2+x,-y,z
_cell_length_a 10.6055(3)
_cell_length_b 10.3711(3)
_cell_length_c 10.4933(3)
_cell_angle_alpha 90
_cell_angle_beta 90
_cell_angle_gamma 90
_cell_formula_units_Z 8
loop_
_atom_type_symbol
_atom_type_radius_bond
C 0.68
H 0.23
N 0.68
O 0.68
loop_
_atom_site_label
_atom_site_type_symbol
_atom_site_fract_x
_atom_site_fract_y
_atom_site_fract_z
O1 O 0.32863(16) 0.53517(15) 0.36733(18)
O2 O 0.36779(16) 0.33307(17) 0.40241(19)
O3 O -0.11032(18) 0.49842(18) 0.07209(18)
O4 O -0.11597(16) 0.29410(19) 0.02545(19)
N1 N 0.17214(17) 0.25950(18) 0.26189(17)
N2 N 0.07164(16) 0.24604(18) 0.18606(18)
N3 N 0.30532(17) 0.42063(18) 0.35749(18)
N4 N -0.07197(16) 0.38744(19) 0.08062(18)
C1 C 0.19662(19) 0.38494(19) 0.2834(2)
C2 C 0.1095(2) 0.4598(2) 0.2218(2)
C3 C 0.03551(19) 0.3665(2) 0.16381(19)
H1 H 0.101(3) 0.548(3) 0.214(3)
H2 H 0.209(3) 0.194(3) 0.293(3)
O5 O 1.10410(19) 0.2118(2) 0.5864(2)
O6 O 1.12568(14) 0.0050(2) 0.61360(18)
O7 O 0.69934(17) 0.22601(15) 0.24618(18)
O8 O 0.61735(15) 0.03515(17) 0.26916(16)
N5 N 0.91617(17) -0.04194(18) 0.47995(19)
N6 N 0.81478(16) -0.04149(17) 0.40406(18)
N7 N 1.07165(17) 0.1001(2) 0.57207(19)
N8 N 0.69836(16) 0.11720(17) 0.29062(17)
C4 C 0.96054(19) 0.0786(2) 0.4961(2)
C5 C 0.88887(18) 0.1640(2) 0.4289(2)
C6 C 0.80084(18) 0.0822(2) 0.3742(2)
H3 H 0.900(2) 0.253(2) 0.422(3)
H4 H 0.945(2) -0.115(3) 0.521(3)
#END
