
#######################################################################
#
#                 Cambridge Crystallographic Data Centre
#                                CCDC
#
#######################################################################
#
# If this CIF has been generated from an entry in the Cambridge
# Structural Database, then it will include bibliographic, chemical,
# crystal, experimental, refinement or atomic coordinate data resulting
# from the CCDC's data processing and validation procedures.
#
#######################################################################

data_CSD_CIF_YIFMIK
_audit_creation_date 2007-07-26
_audit_creation_method CSD-ConQuest-V1
_database_code_CSD YIFMIK
_database_code_depnum_ccdc_archive 'CCDC 651412'
_chemical_formula_sum 'C11 H14 N2 O5'
_chemical_formula_moiety
;
C11 H14 N2 O5
;
_journal_coeditor_code "IUCr KP2103"
_journal_coden_Cambridge 1370
_journal_volume 63
_journal_year 2007
_journal_page_first o2865
_journal_name_full 'Acta Crystallogr.,Sect.E:Struct.Rep.Online '
loop_
_publ_author_name
"Yu-Yuan Ye"
_chemical_name_systematic
;
5-t-Butyl-2-methoxy-1,3-dinitrobenzene
;
_cell_volume   2534.772
_exptl_crystal_colour 'colorless'
_exptl_crystal_density_diffrn 1.332
_exptl_crystal_description 'prism'
_diffrn_ambient_temperature 298
#These two values have been output from a single CSD field.
_refine_ls_R_factor_gt 0.0513
_refine_ls_wR_factor_gt 0.0513
_symmetry_cell_setting monoclinic
_symmetry_space_group_name_H-M 'C 2/c'
_symmetry_Int_Tables_number 15
loop_
_symmetry_equiv_pos_site_id
_symmetry_equiv_pos_as_xyz
1 x,y,z
2 1/2+x,1/2+y,z
3 -x,y,1/2-z
4 1/2-x,1/2+y,1/2-z
5 -x,-y,-z
6 -1/2-x,-1/2-y,-z
7 x,-y,-1/2+z
8 -1/2+x,-1/2-y,-1/2+z
_cell_length_a 21.7800(18)
_cell_length_b 12.3756(10)
_cell_length_c 10.0521(8)
_cell_angle_alpha 90
_cell_angle_beta 110.686(3)
_cell_angle_gamma 90
_cell_formula_units_Z 8
loop_
_atom_type_symbol
_atom_type_radius_bond
C 0.68
H 0.23
N 0.68
O 0.68
loop_
_atom_site_label
_atom_site_type_symbol
_atom_site_fract_x
_atom_site_fract_y
_atom_site_fract_z
C1 C 0.41557(11) 0.0960(2) 0.7960(2)
H1 H 0.40190 0.02430 0.80930
H2 H 0.46140 0.09550 0.80910
H3 H 0.39070 0.12040 0.70160
C2 C 0.42528(11) 0.2866(2) 0.8843(3)
H4 H 0.40010 0.31160 0.79040
H5 H 0.47100 0.28660 0.89670
H6 H 0.41810 0.33370 0.95330
O1 O 0.19977(9) 0.33505(15) 0.55134(17)
O2 O 0.12433(9) 0.3218(2) 0.6367(3)
C3 C 0.08562(11) 0.0967(2) 0.6871(3)
H7 H 0.04170 0.09870 0.68770
H8 H 0.09970 0.02300 0.68960
H9 H 0.08680 0.13080 0.60220
C4 C 0.19258(7) 0.15762(12) 0.82339(16)
O3 O 0.12844(6) 0.15281(11) 0.80883(14)
C5 C 0.33051(7) 0.16977(12) 0.88046(15)
C6 C 0.30526(8) 0.10427(12) 0.96067(15)
H10 H 0.33360 0.06450 1.03590
C7 C 0.23849(8) 0.09782(12) 0.92962(16)
C8 C 0.28576(8) 0.22938(12) 0.77189(16)
H11 H 0.30100 0.27330 0.71520
N1 N 0.21527(8) 0.02213(12) 1.01381(17)
C9 C 0.21916(8) 0.22504(12) 0.74620(15)
O4 O 0.24253(9) 0.02423(13) 1.14221(15)
N2 N 0.17748(8) 0.29694(13) 0.63483(17)
C10 C 0.40392(8) 0.17216(13) 0.90428(17)
O5 O 0.17149(9) -0.04078(14) 0.95125(19)
C11 C 0.44524(9) 0.1347(2) 1.0536(2)
H12 H 0.43330 0.06200 1.06770
H13 H 0.43760 0.18140 1.12240
H14 H 0.49090 0.13690 1.06480
#END
