
#######################################################################
#
#                 Cambridge Crystallographic Data Centre
#                                CCDC
#
#######################################################################
#
# If this CIF has been generated from an entry in the Cambridge
# Structural Database, then it will include bibliographic, chemical,
# crystal, experimental, refinement or atomic coordinate data resulting
# from the CCDC's data processing and validation procedures.
#
#######################################################################

data_CSD_CIF_YIFPEJ
_audit_creation_date 2007-07-26
_audit_creation_method CSD-ConQuest-V1
_database_code_CSD YIFPEJ
_database_code_depnum_ccdc_archive 'CCDC 602592'
_chemical_formula_sum 'C17 H16 N4 O4'
_chemical_formula_moiety
;
C17 H16 N4 O4
;
_journal_coeditor_code "IUCr XU2251"
_journal_coden_Cambridge 1370
_journal_volume 63
_journal_year 2007
_journal_page_first o2881
_journal_name_full 'Acta Crystallogr.,Sect.E:Struct.Rep.Online '
loop_
_publ_author_name
"M.H.Habibi"
"R.Mokhtari"
"R.W.Harrington"
"W.Clegg"
_chemical_name_systematic
;
N,N'-bis(3-nitrobenzylidene)propane-1,3-diamine
;
_chemical_melting_point 390
_cell_volume   3253.742
_exptl_crystal_colour 'colorless'
_exptl_crystal_density_diffrn 1.39
_exptl_crystal_description 'block'
_exptl_crystal_preparation 'ethanol'
_diffrn_ambient_temperature 150
#These two values have been output from a single CSD field.
_refine_ls_R_factor_gt 0.039
_refine_ls_wR_factor_gt 0.039
_symmetry_cell_setting orthorhombic
_symmetry_space_group_name_H-M 'F d d 2'
_symmetry_Int_Tables_number 43
loop_
_symmetry_equiv_pos_site_id
_symmetry_equiv_pos_as_xyz
1 x,y,z
2 -x,-y,z
3 1/4+x,1/4-y,1/4+z
4 1/4-x,1/4+y,1/4+z
5 x,1/2+y,1/2+z
6 -x,1/2-y,1/2+z
7 1/4+x,3/4-y,3/4+z
8 1/4-x,3/4+y,3/4+z
9 1/2+x,y,1/2+z
10 1/2-x,-y,1/2+z
11 3/4+x,1/4-y,3/4+z
12 3/4-x,1/4+y,3/4+z
13 1/2+x,1/2+y,z
14 1/2-x,1/2-y,z
15 3/4+x,3/4-y,1/4+z
16 3/4-x,3/4+y,1/4+z
_cell_length_a 12.994(3)
_cell_length_b 35.859(12)
_cell_length_c 6.983(2)
_cell_angle_alpha 90
_cell_angle_beta 90
_cell_angle_gamma 90
_cell_formula_units_Z 8
loop_
_atom_type_symbol
_atom_type_radius_bond
C 0.68
H 0.23
N 0.68
O 0.68
loop_
_atom_site_label
_atom_site_type_symbol
_atom_site_fract_x
_atom_site_fract_y
_atom_site_fract_z
O1 O 0.06407(16) 0.18127(4) 0.6914(3)
O2 O 0.09163(14) 0.21456(5) 0.4384(3)
N1 N 0.08005(15) 0.18443(5) 0.5184(3)
N2 N 0.09255(14) 0.04422(5) 0.6668(3)
C1 C 0.08638(15) 0.15000(6) 0.4017(3)
C2 C 0.09912(17) 0.15330(7) 0.2039(4)
H1 H 0.10140 0.17700 0.14350
C3 C 0.10824(18) 0.12071(7) 0.0994(4)
H2 H 0.11620 0.12190 -0.03570
C4 C 0.10585(17) 0.08602(7) 0.1900(3)
H3 H 0.11300 0.06390 0.11610
C5 C 0.09300(15) 0.08339(6) 0.3882(3)
C6 C 0.08196(16) 0.11602(6) 0.4955(3)
H4 H 0.07160 0.11490 0.63000
C7 C 0.09518(17) 0.04671(6) 0.4865(4)
H5 H 0.09860 0.02460 0.41200
C8 C 0.09691(18) 0.00688(6) 0.7532(4)
H6 H 0.15850 0.00490 0.83610
H7 H 0.10240 -0.01220 0.65120
C9 C 0.00000 0.00000 0.8718(5)
H8 H 0.01180 -0.02190 0.95550
O1A O -0.06407(16) -0.18127(4) 0.6914(3)
O2A O -0.09163(14) -0.21456(5) 0.4384(3)
N1A N -0.08005(15) -0.18443(5) 0.5184(3)
N2A N -0.09255(14) -0.04422(5) 0.6668(3)
C1A C -0.08638(15) -0.15000(6) 0.4017(3)
C2A C -0.09912(17) -0.15330(7) 0.2039(4)
H1A H -0.10140 -0.17700 0.14350
C3A C -0.10824(18) -0.12071(7) 0.0994(4)
H2A H -0.11620 -0.12190 -0.03570
C4A C -0.10585(17) -0.08602(7) 0.1900(3)
H3A H -0.11300 -0.06390 0.11610
C5A C -0.09300(15) -0.08339(6) 0.3882(3)
C6A C -0.08196(16) -0.11602(6) 0.4955(3)
H4A H -0.07160 -0.11490 0.63000
C7A C -0.09518(17) -0.04671(6) 0.4865(4)
H5A H -0.09860 -0.02460 0.41200
C8A C -0.09691(18) -0.00688(6) 0.7532(4)
H6A H -0.15850 -0.00490 0.83610
H7A H -0.10240 0.01220 0.65120
H8A H -0.01180 0.02190 0.95550
#END
