
#######################################################################
#
#                 Cambridge Crystallographic Data Centre
#                                CCDC
#
#######################################################################
#
# If this CIF has been generated from an entry in the Cambridge
# Structural Database, then it will include bibliographic, chemical,
# crystal, experimental, refinement or atomic coordinate data resulting
# from the CCDC's data processing and validation procedures.
#
#######################################################################

data_CSD_CIF_YIFPOV
_audit_creation_date 2018-06-14
_audit_creation_method CSD-ConQuest-V1
_database_code_CSD YIFPOV
_database_code_depnum_ccdc_archive 'CCDC 1499618'
_chemical_formula_sum 'C22 H29 N1 O7'
_chemical_formula_moiety
;
C22 H29 N1 O7
;
_journal_coden_Cambridge 1291
_journal_year 2017
_journal_page_first 1086
_journal_name_full 'Eur.J.Org.Chem. '
loop_
_publ_author_name
"T.Malatinsky"
"M.Spisakova"
"M.Babjak"
"J.Dohanosova"
"J.Marek"
"J.Moncol"
"R.Fischer"
_chemical_name_systematic
;
(4-(2,2-dimethyl-1,3-dioxolan-4-yl)-2,2-dimethylhexahydro[1,3]dioxolo[3,4]pyrr
olo[1,2-b][1,2]oxazol-7-yl)methyl benzoate
;
_cell_volume   8485.835
_exptl_crystal_colour 'colorless'
_exptl_crystal_density_diffrn 1.313
_exptl_special_details
;
Absolute configuration

;
_exptl_crystal_description 'needle'
_diffrn_ambient_temperature 120
_refine_special_details
;
C10B,C11B,C7B,C8B,C9B,O4B,O5B and C10Y,C11Y,C7Y,C8Y,C9Y,O4Y,O5Y disordered 
over two sites with occupancies 0.623:0.377; C10C,C11C,C7C,C8C,C9C,O4C,O5C 
and C10X,C11X,C7X,C8X,C9X,O4X,O5X disordered over two sites with occupancies 
0.512:0.488.
;
#These two values have been output from a single CSD field.
_refine_ls_R_factor_gt 0.0488
_refine_ls_wR_factor_gt 0.0488
loop_
_citation_database_id_CSD
_citation_special_details
YIFYAQ "is a stereoisomer of this entry"
_symmetry_cell_setting monoclinic
_symmetry_space_group_name_H-M 'P 21'
_symmetry_Int_Tables_number 4
loop_
_symmetry_equiv_pos_site_id
_symmetry_equiv_pos_as_xyz
1 x,y,z
2 -x,1/2+y,-z
_cell_length_a 28.413(2)
_cell_length_b 10.4741(7)
_cell_length_c 28.792(2)
_cell_angle_alpha 90
_cell_angle_beta 97.966(1)
_cell_angle_gamma 90
_cell_formula_units_Z 16
loop_
_atom_type_symbol
_atom_type_radius_bond
C 0.68
H 0.23
N 0.68
O 0.68
loop_
_atom_site_label
_atom_site_type_symbol
_atom_site_fract_x
_atom_site_fract_y
_atom_site_fract_z
O1 O 0.27352(7) -0.47524(19) -0.56593(7)
O2 O 0.25343(8) -0.6531(2) -0.70311(7)
O3 O 0.20386(9) -0.7592(2) -0.66193(8)
O4 O 0.35605(7) -0.5086(2) -0.67271(7)
O5 O 0.41690(7) -0.4820(2) -0.61472(7)
O6 O 0.31503(8) -0.4445(2) -0.47278(7)
O7 O 0.34172(8) -0.5501(2) -0.40620(7)
N1 N 0.28456(8) -0.6073(2) -0.58024(8)
C1 C 0.24707(10) -0.5008(3) -0.52816(10)
H1 H 0.22867 -0.42307 -0.52151
C2 C 0.21264(10) -0.6081(3) -0.54656(10)
H2 H 0.20911 -0.67088 -0.52157
H3 H 0.18095 -0.57342 -0.55891
C3 C 0.23643(10) -0.6688(3) -0.5858(1)
H4 H 0.23983 -0.76292 -0.58050
C4 C 0.21349(10) -0.6425(3) -0.63664(10)
H5 H 0.18444 -0.58810 -0.63779
C5 C 0.25158(10) -0.5792(3) -0.66169(10)
H6 H 0.24395 -0.48771 -0.66920
C6 C 0.29758(10) -0.5932(3) -0.62758(10)
H7 H 0.31259 -0.67539 -0.63536
C7 C 0.33397(10) -0.4880(3) -0.6314(1)
H8 H 0.31746 -0.40341 -0.63387
C8 C 0.37557(11) -0.4829(3) -0.59165(10)
H9 H 0.37403 -0.40476 -0.57256
H10 H 0.37546 -0.55845 -0.57101
C9 C 0.40395(10) -0.5452(3) -0.65803(11)
C10 C 0.43361(12) -0.4949(4) -0.69361(12)
H11 H 0.42919 -0.40237 -0.69683
H12 H 0.42369 -0.53605 -0.72396
H13 H 0.46720 -0.51363 -0.68316
C11 C 0.40808(13) -0.6896(3) -0.65129(13)
H14 H 0.44167 -0.71428 -0.64717
H15 H 0.39127 -0.73273 -0.67894
H16 H 0.39395 -0.71438 -0.62345
C12 C 0.21394(12) -0.7360(3) -0.70851(11)
C13 C 0.22770(17) -0.8602(4) -0.72904(14)
H17 H 0.23672 -0.84480 -0.76021
H18 H 0.20071 -0.91922 -0.73170
H19 H 0.25466 -0.89749 -0.70861
C14 C 0.17265(13) -0.6678(4) -0.73807(12)
H20 H 0.16762 -0.58435 -0.72414
H21 H 0.14375 -0.71932 -0.73900
H22 H 0.18009 -0.65587 -0.77002
C15 C 0.27897(10) -0.5420(3) -0.48382(10)
H23 H 0.26007 -0.55148 -0.45761
H24 H 0.29404 -0.62515 -0.48892
C16 C 0.34493(10) -0.4624(3) -0.43324(10)
C17 C 0.38339(10) -0.3648(3) -0.42667(10)
C18 C 0.39317(12) -0.2891(3) -0.46396(11)
H25 H 0.37450 -0.29738 -0.49384
C19 C 0.43012(13) -0.2017(3) -0.45747(12)
H26 H 0.43663 -0.14951 -0.48282
C20 C 0.45754(12) -0.1904(3) -0.41397(12)
H27 H 0.48283 -0.13041 -0.40953
C21 C 0.44820(12) -0.2666(3) -0.37676(11)
H28 H 0.46724 -0.25931 -0.34704
C22 C 0.41111(11) -0.3530(3) -0.38317(10)
H29 H 0.40454 -0.40469 -0.35772
O8 O 0.52677(7) -0.52255(19) -0.32086(7)
O9 O 0.50269(8) -0.6756(2) -0.45817(7)
O10 O 0.45318(8) -0.7857(2) -0.41797(7)
O11 O 0.56342(8) -0.4698(2) -0.22752(7)
O12 O 0.59491(8) -0.5729(2) -0.16220(8)
N2 N 0.53600(8) -0.6577(2) -0.33366(8)
C23 C 0.49896(10) -0.5385(3) -0.28358(10)
H30 H 0.48081 -0.45854 -0.27934
C24 C 0.46411(10) -0.6486(3) -0.30004(10)
H31 H 0.46219 -0.71092 -0.27452
H32 H 0.43188 -0.61554 -0.31119
C25 C 0.48658(9) -0.7087(3) -0.34030(9)
H33 H 0.48742 -0.80363 -0.33663
C26 C 0.46454(10) -0.6740(3) -0.39057(10)
H34 H 0.43663 -0.61560 -0.39107
C27 C 0.50444(10) -0.6139(3) -0.41388(9)
H35 H 0.50061 -0.51921 -0.41739
C28 C 0.54977(10) -0.6495(3) -0.38119(10)
H36 H 0.55917 -0.73725 -0.39007
C29 C 0.5908(5) -0.565(3) -0.3840(7)
H37 H 0.57938 -0.47424 -0.38534
C30 C 0.6337(4) -0.5751(15) -0.3465(5)
H38 H 0.62892 -0.52630 -0.31814
H39 H 0.64058 -0.66531 -0.33776
O13 O 0.67098(15) -0.5213(6) -0.36861(14)
C31 C 0.6593(4) -0.5437(7) -0.4178(2)
O14 O 0.6117(5) -0.591(3) -0.4254(6)
C32 C 0.6635(2) -0.4164(5) -0.4416(2)
H40 H 0.64116 -0.35564 -0.43068
H41 H 0.65601 -0.42693 -0.47562
H42 H 0.69598 -0.38391 -0.43384
C33 C 0.6912(9) -0.6448(19) -0.4347(7)
H43 H 0.72411 -0.61422 -0.43044
H44 H 0.68092 -0.66222 -0.46801
H45 H 0.68917 -0.72334 -0.41658
C34 C 0.46332(12) -0.7583(3) -0.46424(11)
C35 C 0.47693(18) -0.8793(4) -0.48613(14)
H46 H 0.48598 -0.86094 -0.51707
H47 H 0.44990 -0.93833 -0.48955
H48 H 0.50385 -0.91830 -0.46616
C36 C 0.42235(15) -0.6859(6) -0.49272(14)
H49 H 0.41576 -0.60784 -0.47601
H50 H 0.39393 -0.74000 -0.49696
H51 H 0.43109 -0.66356 -0.52345
C37 C 0.52968(11) -0.5734(3) -0.23813(10)
H52 H 0.50991 -0.58329 -0.21261
H53 H 0.54659 -0.65466 -0.24166
C38 C 0.59456(10) -0.4829(3) -0.18877(10)
C39 C 0.62916(11) -0.3754(3) -0.18178(10)
C40 C 0.63191(14) -0.2855(4) -0.21700(12)
H54 H 0.61054 -0.29027 -0.24541
C41 C 0.66566(15) -0.1893(4) -0.21077(14)
H55 H 0.66788 -0.12919 -0.23510
C42 C 0.69617(14) -0.1809(4) -0.16892(13)
H56 H 0.71930 -0.11494 -0.16455
C43 C 0.69303(12) -0.2692(3) -0.13318(12)
H57 H 0.71372 -0.26302 -0.10438
C44 C 0.65941(11) -0.3662(3) -0.14003(11)
H58 H 0.65723 -0.42660 -0.11580
C45? C 0.5944(8) -0.562(6) -0.3796(12)
H59? H 0.58703 -0.46995 -0.37559
C46? C 0.6331(7) -0.611(3) -0.3420(9)
H60? H 0.63806 -0.55168 -0.31515
H61? H 0.62442 -0.69620 -0.33052
O15? O 0.6748(2) -0.6204(10) -0.3640(2)
C47? C 0.6637(7) -0.5693(13) -0.4103(4)
O16? O 0.6137(9) -0.588(5) -0.422(1)
C48? C 0.6772(3) -0.4303(9) -0.4090(4)
H62? H 0.65736 -0.38333 -0.38962
H63? H 0.67243 -0.39568 -0.44096
H64? H 0.71072 -0.42125 -0.39570
C49? C 0.6898(16) -0.644(3) -0.4438(12)
H65? H 0.72401 -0.64140 -0.43286
H66? H 0.68343 -0.60580 -0.47513
H67? H 0.67882 -0.73265 -0.44511
O17 O 0.44564(8) -0.5245(3) 0.09610(8)
O18 O 0.58322(7) -0.3578(2) 0.11951(7)
O19 O 0.54104(9) -0.2492(2) 0.16773(9)
O20 O 0.35125(8) -0.5737(2) 0.05700(8)
O21 O 0.28893(7) -0.4593(2) 0.02321(7)
N3 N 0.45776(10) -0.3885(3) 0.08707(9)
C50 C 0.40716(11) -0.5101(4) 0.12272(11)
H68 H 0.40231 -0.59077 0.14001
C51 C 0.42377(12) -0.4014(4) 0.15777(11)
H69 H 0.39754 -0.34102 0.16071
H70 H 0.43585 -0.43613 0.18914
C52 C 0.46344(11) -0.3367(3) 0.13572(10)
H71 H 0.45799 -0.24240 0.13457
C53 C 0.51496(11) -0.3641(3) 0.15753(10)
H72 H 0.51649 -0.42094 0.18562
C54 C 0.53963(10) -0.4243(3) 0.11854(10)
H73 H 0.54456 -0.51831 0.12332
C55 C 0.50574(11) -0.3950(4) 0.07342(11)
H74 H 0.51445 -0.31346 0.05867
O22 O 0.54754(18) -0.4862(5) 0.01416(17)
C56 C 0.5075(2) -0.5159(7) 0.0380(2)
H75 H 0.51201 -0.59855 0.05545
C57 C 0.4656(2) -0.5215(9) -0.0016(2)
H76 H 0.44416 -0.59341 0.00308
H77 H 0.44717 -0.44098 -0.00340
O23 O 0.4876(5) -0.540(2) -0.0438(6)
C58 C 0.5298(4) -0.4642(9) -0.0342(3)
C59 C 0.5202(3) -0.3262(7) -0.0433(3)
H78 H 0.52211 -0.28046 -0.01344
H79 H 0.48832 -0.31578 -0.06089
H80 H 0.54381 -0.29151 -0.06169
C60 C 0.5665(4) -0.5202(9) -0.0625(3)
H81 H 0.59539 -0.46784 -0.05789
H82 H 0.55352 -0.52110 -0.09586
H83 H 0.57428 -0.60762 -0.05194
C61 C 0.58835(12) -0.2748(3) 0.15878(12)
C62 C 0.61049(16) -0.1529(4) 0.14578(19)
H84 H 0.64063 -0.17142 0.13425
H85 H 0.61638 -0.09747 0.17341
H86 H 0.58896 -0.10972 0.12116
C63 C 0.61672(13) -0.3450(5) 0.19992(12)
H87 H 0.60189 -0.42785 0.20416
H88 H 0.61712 -0.29399 0.22851
H89 H 0.64935 -0.35810 0.19351
C64 C 0.36157(11) -0.4727(3) 0.09147(11)
H90 H 0.33516 -0.46367 0.11034
H91 H 0.36581 -0.39029 0.07570
C65 C 0.31382(10) -0.5542(3) 0.02435(10)
C66 C 0.30608(10) -0.6598(3) -0.01041(10)
C67 C 0.34083(11) -0.7520(3) -0.01385(12)
H92 H 0.36996 -0.74939 0.00679
C68 C 0.33289(13) -0.8477(3) -0.04748(12)
H93 H 0.35678 -0.90979 -0.05006
C69 C 0.29037(12) -0.8528(3) -0.07713(11)
H94 H 0.28478 -0.91906 -0.09976
C70 C 0.25571(12) -0.7607(3) -0.07381(11)
H95 H 0.22657 -0.76363 -0.09442
C71 C 0.26360(11) -0.6646(3) -0.04048(11)
H96 H 0.23983 -0.60200 -0.03827
H97? H 0.51293 -0.30364 0.06716
O24? O 0.54843(18) -0.4224(6) 0.00619(18)
C72? C 0.5083(2) -0.4561(7) 0.0285(2)
H98? H 0.51024 -0.55019 0.03434
C73? C 0.4675(2) -0.4343(10) -0.0105(2)
H99? H 0.43760 -0.47423 -0.00383
H100? H 0.46226 -0.34266 -0.01788
O25? O 0.4888(6) -0.502(2) -0.0469(6)
C74? C 0.5373(4) -0.4619(9) -0.0418(3)
C75? C 0.5555(3) -0.3627(8) -0.0722(3)
H101? H 0.54137 -0.27982 -0.06635
H102? H 0.54682 -0.38605 -0.10520
H103? H 0.59013 -0.35719 -0.06482
C76? C 0.5628(4) -0.5878(9) -0.0496(3)
H104? H 0.59723 -0.57551 -0.04244
H105? H 0.55477 -0.61443 -0.08241
H106? H 0.55267 -0.65387 -0.02904
O26 O 0.29884(7) -0.02292(18) -0.36047(7)
O27 O 0.16162(7) 0.1500(2) -0.37975(8)
O28 O 0.20813(7) 0.28859(19) -0.41452(7)
O29 O 0.19635(7) 0.0175(2) -0.27263(6)
O30 O 0.25778(7) -0.0470(2) -0.21960(7)
O31 O 0.39121(7) -0.06932(19) -0.31783(7)
O32 O 0.45760(8) 0.0336(2) -0.28656(9)
N4 N 0.28733(8) 0.1090(2) -0.34595(8)
C77 C 0.33821(10) 0.0015(3) -0.38509(10)
H107 H 0.34397 -0.07419 -0.40472
C78 C 0.32178(10) 0.1163(3) -0.4170(1)
H108 H 0.34837 0.17607 -0.41929
H109 H 0.30843 0.08775 -0.44889
C79 C 0.2835(1) 0.1785(3) -0.39181(9)
H110 H 0.29144 0.27057 -0.38592
C80 C 0.23149(10) 0.1667(3) -0.41502(10)
H111 H 0.22854 0.12834 -0.44710
C81 C 0.20585(9) 0.0880(3) -0.38110(9)
H112 H 0.20143 -0.00269 -0.39161
C82 C 0.23880(9) 0.0983(3) -0.33417(9)
H113 H 0.23118 0.18015 -0.31893
C83 C 0.23421(10) -0.0099(3) -0.29927(9)
H114 H 0.22715 -0.09149 -0.31687
C84 C 0.27785(11) -0.0288(3) -0.26206(10)
H115 H 0.29640 -0.10448 -0.26928
H116 H 0.29872 0.04728 -0.25989
C85 C 0.21605(10) 0.0289(3) -0.22427(9)
C86 C 0.18180(12) -0.0272(4) -0.19447(11)
H117 H 0.17668 -0.11765 -0.20231
H118 H 0.15147 0.01851 -0.20037
H119 H 0.19493 -0.01904 -0.16129
C87 C 0.22831(13) 0.1676(3) -0.21237(12)
H120 H 0.24494 0.17299 -0.18026
H121 H 0.19904 0.21812 -0.21495
H122 H 0.24884 0.20087 -0.23424
C88 C 0.15991(10) 0.2635(3) -0.40787(10)
C89 C 0.12904(12) 0.2408(5) -0.45429(12)
H123 H 0.14171 0.16869 -0.47039
H124 H 0.12887 0.31747 -0.47379
H125 H 0.09653 0.22135 -0.44876
C90 C 0.14229(12) 0.3719(3) -0.38045(13)
H126 H 0.11237 0.34723 -0.36961
H127 H 0.13702 0.44750 -0.40057
H128 H 0.16602 0.39159 -0.35334
C91 C 0.38279(10) 0.0329(3) -0.35201(11)
H129 H 0.41014 0.04082 -0.36970
H130 H 0.37880 0.11500 -0.33597
C92 C 0.43039(10) -0.0566(3) -0.28682(11)
C93 C 0.43749(10) -0.1609(3) -0.25148(10)
C94 C 0.40091(11) -0.2439(3) -0.24428(11)
H131 H 0.37097 -0.23800 -0.26347
C95 C 0.40817(12) -0.3355(3) -0.20901(12)
H132 H 0.38310 -0.39137 -0.20379
C96 C 0.45212(12) -0.3448(3) -0.18149(12)
H133 H 0.45714 -0.40756 -0.15748
C97 C 0.48885(12) -0.2631(3) -0.18884(12)
H134 H 0.51897 -0.27018 -0.17005
C98 C 0.48141(11) -0.1709(3) -0.22376(12)
H135 H 0.50642 -0.11446 -0.22869
O33 O 0.19425(6) -0.50762(17) -0.14926(7)
O34 O 0.33291(7) -0.3550(2) -0.12489(7)
O35 O 0.28745(7) -0.2088(2) -0.09192(7)
O36 O 0.29601(7) -0.4393(2) -0.23727(7)
O37 O 0.23964(8) -0.5467(2) -0.28722(7)
O38 O 0.10057(7) -0.55582(19) -0.18852(7)
O39 O 0.03353(7) -0.4556(2) -0.21900(7)
N5 N 0.20600(8) -0.3739(2) -0.16149(8)
C99 C 0.15575(9) -0.4887(3) -0.12306(9)
H136 H 0.15076 -0.56710 -0.10454
C100 C 0.17251(10) -0.3771(3) -0.08967(10)
H137 H 0.14599 -0.31805 -0.08630
H138 H 0.18607 -0.40896 -0.05828
C101 C 0.21066(10) -0.3113(3) -0.11415(9)
H139 H 0.20323 -0.21824 -0.11794
C102 C 0.26253(10) -0.3284(3) -0.09162(9)
H140 H 0.26551 -0.36834 -0.05980
C103 C 0.28681(9) -0.4061(3) -0.12646(9)
H141 H 0.28788 -0.49891 -0.11823
C104 C 0.25459(9) -0.3816(3) -0.17334(9)
H142 H 0.26304 -0.29616 -0.18530
C105 C 0.2587(1) -0.4797(3) -0.2116(1)
H143 H 0.26649 -0.56536 -0.19722
C106 C 0.21737(10) -0.4910(3) -0.25019(10)
H144 H 0.19226 -0.54724 -0.24094
H145 H 0.20355 -0.40634 -0.25931
C107 C 0.28602(10) -0.4915(3) -0.28342(10)
C108 C 0.28757(15) -0.3881(4) -0.31911(13)
H146 H 0.26589 -0.31916 -0.31313
H147 H 0.27783 -0.42299 -0.35056
H148 H 0.31999 -0.35460 -0.31700
C109 C 0.32128(12) -0.5964(4) -0.28861(12)
H149 H 0.35349 -0.56084 -0.28457
H150 H 0.31420 -0.63455 -0.31988
H151 H 0.31906 -0.66204 -0.26475
C110 C 0.33503(10) -0.2358(3) -0.09972(11)
C111 C 0.35098(11) -0.1324(3) -0.13076(12)
H152 H 0.32799 -0.12494 -0.15934
H153 H 0.38225 -0.15430 -0.13915
H154 H 0.35300 -0.05082 -0.11391
C112 C 0.36727(13) -0.2512(4) -0.05420(12)
H155 H 0.36755 -0.17191 -0.03607
H156 H 0.39955 -0.27028 -0.06052
H157 H 0.35579 -0.32134 -0.03625
C113 C 0.11028(10) -0.4538(3) -0.15442(10)
H158 H 0.08375 -0.44534 -0.13566
H159 H 0.11413 -0.37165 -0.17046
C114 C 0.06127(9) -0.5437(3) -0.21913(9)
C115 C 0.05521(10) -0.6500(3) -0.25417(10)
C116 C 0.09128(10) -0.7391(3) -0.25692(11)
H160 H 0.11989 -0.73496 -0.23555
C117 C 0.08518(12) -0.8336(3) -0.29100(11)
H161 H 0.10964 -0.89447 -0.29284
C118 C 0.04372(11) -0.8396(3) -0.32224(10)
H162 H 0.03980 -0.90437 -0.34557
C119 C 0.00757(11) -0.7508(3) -0.31963(10)
H163 H -0.02094 -0.75499 -0.34113
C120 C 0.01344(10) -0.6564(3) -0.28552(10)
H164 H -0.01115 -0.59605 -0.28358
O40 O 0.22787(7) -0.01026(18) 0.07170(6)
O41 O 0.28727(7) -0.31595(19) 0.15954(7)
O42 O 0.25443(8) -0.1743(2) 0.20676(7)
O43 O 0.14130(7) -0.0838(3) 0.17382(7)
O44 O 0.08834(8) 0.0185(3) 0.11861(8)
O45 O 0.18750(7) 0.04748(19) -0.02051(7)
O46 O 0.15589(8) -0.0522(2) -0.08653(7)
N6 N 0.21552(8) -0.1450(2) 0.08197(8)
C121 C 0.2537(1) -0.0272(3) 0.03289(9)
H165 H 0.27254 0.05148 0.02851
C122 C 0.28755(10) -0.1393(3) 0.04747(10)
H166 H 0.31957 -0.10847 0.06064
H167 H 0.29034 -0.19632 0.02056
C123 C 0.26320(9) -0.2079(3) 0.08508(9)
H168 H 0.25905 -0.30042 0.07691
C124 C 0.2869(1) -0.1944(3) 0.13621(9)
H169 H 0.31910 -0.15429 0.13892
C125 C 0.25212(10) -0.1184(3) 0.16169(9)
H170 H 0.26061 -0.02571 0.16377
C126 C 0.20435(9) -0.1404(3) 0.13052(9)
H171 H 0.19249 -0.22667 0.13821
C127 C 0.16575(10) -0.0453(3) 0.13568(9)
H172 H 0.18000 0.04120 0.14221
C128 C 0.12529(12) -0.0371(4) 0.09600(11)
H173 H 0.13351 0.01819 0.07041
H174 H 0.11610 -0.12260 0.08321
C129 C 0.09472(10) -0.0301(3) 0.16563(11)
C130 C 0.09201(14) 0.0822(4) 0.19833(13)
H175 H 0.11449 0.14832 0.19151
H176 H 0.10009 0.05385 0.23089
H177 H 0.05970 0.11719 0.19373
C131 C 0.05877(13) -0.1301(4) 0.17204(17)
H178 H 0.02689 -0.09251 0.16694
H179 H 0.06509 -0.16441 0.20397
H180 H 0.06071 -0.19920 0.14941
C132 C 0.28144(10) -0.2909(3) 0.20734(10)
C133 C 0.25234(13) -0.3974(3) 0.22451(11)
H181 H 0.22403 -0.41243 0.20158
H182 H 0.24266 -0.37335 0.25469
H183 H 0.27148 -0.47551 0.22838
C134 C 0.32843(12) -0.2722(4) 0.23734(12)
H184 H 0.34840 -0.34758 0.23500
H185 H 0.32339 -0.26011 0.27004
H186 H 0.34422 -0.19674 0.22659
C135 C 0.22119(10) -0.0572(3) -0.01192(9)
H187 H 0.23984 -0.06553 -0.03837
H188 H 0.20418 -0.13845 -0.00865
C136 C 0.1564(1) 0.0369(3) -0.05939(9)
C137 C 0.1219(1) 0.1440(3) -0.06606(9)
C138 C 0.11821(11) 0.2341(3) -0.03095(10)
H189 H 0.13933 0.23038 -0.00235
C139 C 0.08391(12) 0.3287(3) -0.03763(11)
H190 H 0.08149 0.38962 -0.01363
C140 C 0.05306(11) 0.3345(3) -0.07942(11)
H191 H 0.02929 0.39885 -0.08390
C141 C 0.05698(11) 0.2462(3) -0.11471(11)
H192 H 0.03617 0.25086 -0.14349
C142 C 0.09123(10) 0.1512(3) -0.10792(10)
H193 H 0.09373 0.09076 -0.13205
O47 O -0.01867(7) 0.01026(18) -0.17478(6)
O48 O 0.03678(7) -0.29906(19) -0.08539(7)
O49 O 0.00486(8) -0.1553(2) -0.03854(7)
O50 O -0.10626(7) -0.0372(2) -0.07231(7)
O51 O -0.16029(7) 0.0283(2) -0.13245(8)
O52 O -0.06071(7) 0.05663(19) -0.26715(7)
O53 O -0.08448(9) -0.0329(2) -0.33725(7)
N7 N -0.03231(8) -0.1220(2) -0.16304(8)
C143 C 0.00667(10) -0.0114(3) -0.21355(9)
H194 H 0.02597 0.06562 -0.21898
C144 C 0.03967(10) -0.1238(3) -0.19742(10)
H195 H 0.04267 -0.18271 -0.22373
H196 H 0.07169 -0.09329 -0.18407
C145 C 0.01471(9) -0.1890(3) -0.15983(9)
H197 H 0.00937 -0.28108 -0.16807
C146 C 0.0383(1) -0.1779(3) -0.10845(9)
H198 H 0.07107 -0.14114 -0.10545
C147 C 0.00454(10) -0.0982(3) -0.08329(9)
H199 H 0.01502 -0.00704 -0.08039
C148 C -0.04321(10) -0.1109(3) -0.11490(9)
H200 H -0.05768 -0.19366 -0.10688
C149 C -0.0796(1) -0.0057(3) -0.10981(10)
H201 H -0.06244 0.07666 -0.10229
C150 C -0.11740(11) 0.0138(4) -0.15216(10)
H202 H -0.11063 0.09100 -0.16993
H203 H -0.11917 -0.06102 -0.17336
C151 C -0.15479(11) -0.0489(3) -0.09160(11)
C152 C -0.18492(13) 0.0048(4) -0.05734(13)
H204 H -0.17678 0.09475 -0.05134
H205 H -0.17910 -0.04322 -0.02789
H206 H -0.21854 -0.00221 -0.07044
C153 C -0.16591(13) -0.1881(4) -0.10492(14)
H207 H -0.19954 -0.19604 -0.11788
H208 H -0.15914 -0.24198 -0.07697
H209 H -0.14616 -0.21538 -0.12844
C154 C 0.03014(11) -0.2749(3) -0.03763(10)
C155 C -0.00111(13) -0.3782(3) -0.02199(11)
H210 H -0.02935 -0.38849 -0.04542
H211 H -0.01086 -0.35441 0.00819
H212 H 0.01656 -0.45876 -0.01857
C156 C 0.07685(12) -0.2631(4) -0.00654(12)
H213 H 0.09553 -0.34093 -0.00889
H214 H 0.07123 -0.25122 0.02600
H215 H 0.09431 -0.18952 -0.01642
C157 C -0.02613(10) -0.0449(3) -0.25802(10)
H216 H -0.00768 -0.05339 -0.28461
H217 H -0.04234 -0.12703 -0.25403
C158 C -0.08868(10) 0.0490(3) -0.30838(9)
C159 C -0.12646(10) 0.1481(3) -0.31524(10)
C160 C -0.13842(11) 0.2214(3) -0.27807(10)
H218 H -0.12044 0.21392 -0.24782
C161 C -0.17656(12) 0.3051(3) -0.28536(11)
H219 H -0.18458 0.35520 -0.26010
C162 C -0.20296(11) 0.3159(3) -0.32936(12)
H220 H -0.22937 0.37227 -0.33418
C163 C -0.19075(12) 0.2441(3) -0.36641(11)
H221 H -0.20876 0.25188 -0.39664
C164 C -0.15245(11) 0.1610(3) -0.35954(10)
H222 H -0.14397 0.11295 -0.38511
O54 O -0.05541(6) -0.51022(17) -0.39028(6)
O55 O 0.08358(7) -0.34935(19) -0.37083(7)
O56 O 0.03831(7) -0.20500(19) -0.33722(7)
O57 O 0.04728(7) -0.4805(2) -0.47755(6)
O58 O -0.01458(7) -0.5460(2) -0.53064(7)
O59 O -0.14716(7) -0.55134(19) -0.43239(7)
O60 O -0.21369(7) -0.4521(2) -0.46496(7)
N8 N -0.04278(8) -0.3789(2) -0.40486(8)
C165 C -0.09435(9) -0.4833(3) -0.36514(9)
H223 H -0.10057 -0.55861 -0.34552
C166 C -0.07669(10) -0.3702(3) -0.33332(10)
H224 H -0.06315 -0.39989 -0.30162
H225 H -0.10274 -0.30916 -0.33050
C167 C -0.03820(9) -0.3093(2) -0.35892(9)
H226 H -0.04541 -0.21668 -0.36458
C168 C 0.01378(9) -0.3251(3) -0.33604(9)
H227 H 0.01662 -0.36269 -0.30384
C169 C 0.03836(9) -0.4063(2) -0.37005(9)
H228 H 0.04133 -0.49748 -0.35975
C170 C 0.00531(9) -0.3923(3) -0.41673(9)
H229 H 0.01372 -0.31102 -0.43183
C171 C 0.00776(9) -0.5006(3) -0.45194(9)
H230 H 0.01186 -0.58384 -0.43484
C172 C -0.03495(10) -0.5088(3) -0.49014(10)
H231 H -0.05805 -0.57324 -0.48222
H232 H -0.05111 -0.42516 -0.49498
C173 C 0.02958(10) -0.4798(3) -0.52675(9)
C174 C 0.06276(12) -0.5514(4) -0.55282(11)
H233 H 0.09440 -0.51256 -0.54692
H234 H 0.05115 -0.54849 -0.58648
H235 H 0.06459 -0.64045 -0.54225
C175 C 0.02127(13) -0.3428(3) -0.54301(13)
H236 H 0.00402 -0.29695 -0.52095
H237 H 0.00252 -0.34190 -0.57425
H238 H 0.05192 -0.30097 -0.54433
C176 C 0.08602(10) -0.2330(3) -0.34427(10)
C177 C 0.11730(12) -0.2532(4) -0.29799(11)
H239 H 0.10518 -0.32515 -0.28142
H240 H 0.11719 -0.17583 -0.27885
H241 H 0.14984 -0.27157 -0.30368
C178 C 0.10362(11) -0.1272(3) -0.37354(11)
H242 H 0.13383 -0.15270 -0.38356
H243 H 0.10830 -0.04901 -0.35475
H244 H 0.08009 -0.11144 -0.40119
C179 C -0.1388(1) -0.4499(3) -0.3981(1)
H245 H -0.16620 -0.44190 -0.38047
H246 H -0.13454 -0.36755 -0.41390
C180 C -0.18561(9) -0.5392(3) -0.46413(9)
C181 C -0.18999(9) -0.6456(3) -0.49946(9)
C182 C -0.15344(10) -0.7331(3) -0.50115(11)
H247 H -0.12585 -0.72978 -0.47841
C183 C -0.15738(11) -0.8254(3) -0.53623(12)
H248 H -0.13225 -0.88440 -0.53781
C184 C -0.19793(11) -0.8311(3) -0.56875(11)
H249 H -0.20057 -0.89414 -0.59268
C185 C -0.23490(11) -0.7451(3) -0.56672(10)
H250 H -0.26288 -0.75014 -0.58893
C186 C -0.23076(10) -0.6522(3) -0.53218(10)
H251 H -0.25583 -0.59295 -0.53084
#END
