
#######################################################################
#
#                 Cambridge Crystallographic Data Centre
#                                CCDC
#
#######################################################################
#
# If this CIF has been generated from an entry in the Cambridge
# Structural Database, then it will include bibliographic, chemical,
# crystal, experimental, refinement or atomic coordinate data resulting
# from the CCDC's data processing and validation procedures.
#
#######################################################################

data_CSD_CIF_YIFRAH
_audit_creation_date 2007-07-26
_audit_creation_method CSD-ConQuest-V1
_database_code_CSD YIFRAH
_database_code_depnum_ccdc_archive 'CCDC 651451'
_chemical_formula_sum 'C19 H14 N2 O2'
_chemical_formula_moiety
;
C19 H14 N2 O2
;
_journal_coeditor_code "IUCr NC2032"
_journal_coden_Cambridge 1370
_journal_volume 63
_journal_year 2007
_journal_page_first o2919
_journal_name_full 'Acta Crystallogr.,Sect.E:Struct.Rep.Online '
loop_
_publ_author_name
"Xiao-Yan Yang"
"Xiao-Lian He"
"Ying Li"
"Sai Bi"
_chemical_name_systematic
;
N-(3-(2-Nitrophenyl)allylidene)naphthalen-1-amine
;
_cell_volume   1484.808
_exptl_crystal_colour 'yellow'
_exptl_crystal_density_diffrn 1.352
_exptl_crystal_description 'plate'
_exptl_crystal_preparation 'ethanol/water'
_diffrn_ambient_temperature 293
#These two values have been output from a single CSD field.
_refine_ls_R_factor_gt 0.0466
_refine_ls_wR_factor_gt 0.0466
_symmetry_cell_setting monoclinic
_symmetry_space_group_name_H-M 'P 21/c'
_symmetry_Int_Tables_number 14
loop_
_symmetry_equiv_pos_site_id
_symmetry_equiv_pos_as_xyz
1 x,y,z
2 -x,1/2+y,1/2-z
3 -x,-y,-z
4 x,-1/2-y,-1/2+z
_cell_length_a 15.440(2)
_cell_length_b 7.4165(10)
_cell_length_c 14.598(2)
_cell_angle_alpha 90
_cell_angle_beta 117.347(2)
_cell_angle_gamma 90
_cell_formula_units_Z 4
loop_
_atom_type_symbol
_atom_type_radius_bond
C 0.68
H 0.23
N 0.68
O 0.68
loop_
_atom_site_label
_atom_site_type_symbol
_atom_site_fract_x
_atom_site_fract_y
_atom_site_fract_z
C1 C 0.18422(11) 0.8023(2) 0.42612(12)
C2 C -0.25313(11) 0.6242(2) 0.47210(13)
N1 N 0.02462(10) 0.7772(2) 0.41815(11)
N2 N -0.40204(11) 0.5240(2) 0.31629(12)
C3 C -0.35316(11) 0.5882(2) 0.42333(12)
C4 C 0.08469(11) 0.7471(2) 0.37018(13)
C5 C -0.21576(13) 0.6856(2) 0.57357(14)
H1 H -0.14930 0.70960 0.61010
C6 C -0.18684(11) 0.5971(2) 0.42695(13)
H2 H -0.19890 0.50050 0.38210
C7 C 0.05107(13) 0.6791(2) 0.27212(14)
H3 H -0.01350 0.64210 0.23610
C8 C 0.24596(11) 0.7850(2) 0.37904(13)
C9 C -0.41129(13) 0.6127(2) 0.47087(15)
H4 H -0.47750 0.58650 0.43580
C10 C 0.20743(13) 0.7164(3) 0.27765(14)
H5 H 0.24750 0.70660 0.24590
C11 C -0.04464(12) 0.6684(2) 0.40303(14)
H6 H -0.05280 0.56550 0.36350
C12 C 0.11219(13) 0.6645(3) 0.22567(14)
H7 H 0.08790 0.61920 0.15900
C13 C 0.22384(12) 0.8694(2) 0.52798(13)
H8 H 0.18390 0.88190 0.55960
C14 C 0.31968(13) 0.9160(2) 0.58045(14)
H9 H 0.34460 0.95970 0.64750
C15 C -0.27333(15) 0.7122(3) 0.62153(15)
H10 H -0.24580 0.75470 0.68900
C16 C 0.34514(12) 0.8360(2) 0.43613(15)
H11 H 0.38650 0.82640 0.40590
C17 C 0.38070(13) 0.8985(2) 0.53407(15)
H12 H 0.44620 0.92990 0.57060
O1 O -0.47769(10) 0.4391(2) 0.28762(11)
O2 O -0.36607(10) 0.5584(3) 0.25959(10)
C18 C -0.11034(12) 0.7017(2) 0.44595(14)
H13 H -0.09890 0.80090 0.48900
C19 C -0.37129(15) 0.6760(3) 0.57018(16)
H14 H -0.41030 0.69430 0.60250
#END
