
#######################################################################
#
#                 Cambridge Crystallographic Data Centre
#                                CCDC
#
#######################################################################
#
# If this CIF has been generated from an entry in the Cambridge
# Structural Database, then it will include bibliographic, chemical,
# crystal, experimental, refinement or atomic coordinate data resulting
# from the CCDC's data processing and validation procedures.
#
#######################################################################

data_CSD_CIF_YIFXOD
_audit_creation_date 2018-06-14
_audit_creation_method CSD-ConQuest-V1
_database_code_CSD YIFXOD
_database_code_depnum_ccdc_archive 'CCDC 1499614'
_chemical_formula_sum 'C12 H19 N1 O5'
_chemical_formula_moiety
;
C12 H19 N1 O5
;
_journal_coden_Cambridge 1291
_journal_year 2017
_journal_page_first 1086
_journal_name_full 'Eur.J.Org.Chem. '
loop_
_publ_author_name
"T.Malatinsky"
"M.Spisakova"
"M.Babjak"
"J.Dohanosova"
"J.Marek"
"J.Moncol"
"R.Fischer"
_chemical_name_systematic
;
4-(2,2-dimethyl-1,3-dioxolan-4-yl)-2,2-dimethyl-5-oxo-4,6a-dihydro-2H,3aH-5\l^
5^-[1,3]dioxolo[4,5-c]pyrrole
;
_cell_volume   1292.987
_exptl_crystal_colour 'colorless'
_exptl_crystal_density_diffrn 1.322
_exptl_special_details
;
Absolute configuration

;
_exptl_crystal_description 'needle'
_diffrn_ambient_temperature 100
_diffrn_special_details
;
twin

;
#These two values have been output from a single CSD field.
_refine_ls_R_factor_gt 0.0269
_refine_ls_wR_factor_gt 0.0269
loop_
_citation_database_id_CSD
_citation_special_details
YIFXUJ "is a stereoisomer of this entry"
_symmetry_cell_setting monoclinic
_symmetry_space_group_name_H-M 'P 21'
_symmetry_Int_Tables_number 4
loop_
_symmetry_equiv_pos_site_id
_symmetry_equiv_pos_as_xyz
1 x,y,z
2 -x,1/2+y,-z
_cell_length_a 6.0323(2)
_cell_length_b 10.1048(3)
_cell_length_c 21.2121(8)
_cell_angle_alpha 90
_cell_angle_beta 90.061(3)
_cell_angle_gamma 90
_cell_formula_units_Z 4
loop_
_atom_type_symbol
_atom_type_radius_bond
C 0.68
H 0.23
N 0.68
O 0.68
loop_
_atom_site_label
_atom_site_type_symbol
_atom_site_fract_x
_atom_site_fract_y
_atom_site_fract_z
O1 O 0.68460(18) 0.50651(13) 0.10170(6)
O2 O 0.4273(2) 0.22820(13) 0.22318(5)
O3 O 0.6212(2) 0.08412(13) 0.16186(5)
O4 O 0.16149(17) 0.34782(12) 0.04852(5)
O5 O 0.30622(18) 0.53633(12) 0.00641(5)
N1 N 0.5896(2) 0.39455(15) 0.11145(6)
C1 C 0.6574(3) 0.27669(18) 0.09599(7)
H1 H 0.78808 0.25994 0.07233
C2 C 0.5067(3) 0.17111(18) 0.11963(7)
H2 H 0.43114 0.12237 0.08466
C3 C 0.3422(3) 0.24840(18) 0.16123(7)
H3 H 0.18609 0.21655 0.15645
C4 C 0.3693(2) 0.39300(18) 0.14331(7)
H4 H 0.37361 0.44926 0.18208
C5 C 0.1851(3) 0.44008(17) 0.09932(7)
H5 H 0.04283 0.44332 0.12344
C6 C 0.2195(3) 0.57283(18) 0.06655(7)
H6 H 0.07770 0.62126 0.06210
H7 H 0.32603 0.62868 0.09010
C7 C 0.5308(3) 0.10102(18) 0.22402(8)
C8 C 0.3641(3) -0.0072(2) 0.23725(9)
H8 H 0.29985 0.00601 0.27919
H9 H 0.43817 -0.09346 0.23566
H10 H 0.24614 -0.00436 0.20546
C9 C 0.7192(3) 0.1056(2) 0.27066(9)
H11 H 0.81886 0.17877 0.25992
H12 H 0.80119 0.02195 0.26920
H13 H 0.65997 0.11908 0.31318
C10 C 0.1991(3) 0.41648(18) -0.01049(7)
C11 C 0.3548(3) 0.33460(19) -0.04996(8)
H14 H 0.49667 0.32495 -0.02787
H15 H 0.37920 0.37859 -0.09054
H16 H 0.28987 0.24699 -0.05716
C12 C -0.0218(3) 0.44333(19) -0.04255(8)
H17 H -0.09446 0.35913 -0.05250
H18 H 0.00327 0.49313 -0.08154
H19 H -0.11660 0.49502 -0.01427
O6 O 0.4622(3) 0.97739(16) 0.41236(7)
O7 O 0.6794(2) 0.65267(16) 0.28750(6)
O8 O 0.9824(2) 0.77267(14) 0.31093(5)
O9 O 0.7993(2) 0.77629(13) 0.50644(5)
O10 O 0.8343(3) 0.95466(15) 0.57199(6)
N2 N 0.5737(2) 0.87508(17) 0.39560(6)
C13 C 0.4970(3) 0.7685(2) 0.37056(8)
H20 H 0.34368 0.75357 0.36323
C14 C 0.6709(3) 0.6717(2) 0.35439(9)
H21 H 0.65482 0.58663 0.37800
C15 C 0.8866(3) 0.7453(2) 0.37091(8)
H22 H 0.98680 0.69062 0.39802
C16 C 0.8200(3) 0.8742(2) 0.40296(8)
H23 H 0.88438 0.95032 0.37907
C17 C 0.8946(3) 0.8820(2) 0.47159(8)
H24 H 1.05961 0.87282 0.47303
C18 C 0.8297(4) 1.0048(2) 0.50864(9)
H25 H 0.93814 1.07729 0.50272
H26 H 0.68001 1.03642 0.49681
C19 C 0.9033(3) 0.6732(2) 0.26831(8)
C20 C 0.9054(3) 0.7277(2) 0.20252(8)
H27 H 0.83246 0.66502 0.17397
H28 H 1.05899 0.74125 0.18897
H29 H 0.82616 0.81230 0.20164
C21 C 1.0379(5) 0.5475(3) 0.2752(1)
H30 H 1.03338 0.51779 0.31915
H31 H 1.19187 0.56482 0.26300
H32 H 0.97567 0.47863 0.24790
C22 C 0.7462(3) 0.82367(19) 0.56888(8)
C23 C 0.4967(3) 0.8238(2) 0.57604(10)
H33 H 0.43132 0.88489 0.54531
H34 H 0.45758 0.85229 0.61877
H35 H 0.43943 0.73437 0.56867
C24 C 0.8611(3) 0.7387(2) 0.61717(8)
H36 H 0.81071 0.64692 0.61283
H37 H 0.82568 0.77098 0.65954
H38 H 1.02174 0.74277 0.61058
#END
