
#######################################################################
#
#                 Cambridge Crystallographic Data Centre
#                                CCDC
#
#######################################################################
#
# If this CIF has been generated from an entry in the Cambridge
# Structural Database, then it will include bibliographic, chemical,
# crystal, experimental, refinement or atomic coordinate data resulting
# from the CCDC's data processing and validation procedures.
#
#######################################################################

data_CSD_CIF_YIFYAQ
_audit_creation_date 2018-06-14
_audit_creation_method CSD-ConQuest-V1
_database_code_CSD YIFYAQ
_database_code_depnum_ccdc_archive 'CCDC 1499616'
_chemical_formula_sum 'C22 H29 N1 O7'
_chemical_formula_moiety
;
C22 H29 N1 O7
;
_journal_coden_Cambridge 1291
_journal_year 2017
_journal_page_first 1086
_journal_name_full 'Eur.J.Org.Chem. '
loop_
_publ_author_name
"T.Malatinsky"
"M.Spisakova"
"M.Babjak"
"J.Dohanosova"
"J.Marek"
"J.Moncol"
"R.Fischer"
_chemical_name_systematic
;
(4-(2,2-dimethyl-1,3-dioxolan-4-yl)-2,2-dimethylhexahydro[1,3]dioxolo[3,4]pyrr
olo[1,2-b][1,2]oxazol-7-yl)methyl benzoate
;
_cell_volume   2163.064
_exptl_crystal_colour 'colorless'
_exptl_crystal_density_diffrn 1.288
_exptl_special_details
;
Absolute configuration

;
_exptl_crystal_description 'block'
_diffrn_ambient_temperature 120
#These two values have been output from a single CSD field.
_refine_ls_R_factor_gt 0.0426
_refine_ls_wR_factor_gt 0.0426
loop_
_citation_database_id_CSD
_citation_special_details
YIFPOV "is a stereoisomer of this entry"
_symmetry_cell_setting orthorhombic
_symmetry_space_group_name_H-M 'P 21 21 21'
_symmetry_Int_Tables_number 19
loop_
_symmetry_equiv_pos_site_id
_symmetry_equiv_pos_as_xyz
1 x,y,z
2 1/2+x,1/2-y,-z
3 -x,1/2+y,1/2-z
4 1/2-x,-y,1/2+z
_cell_length_a 10.2363(7)
_cell_length_b 10.4683(7)
_cell_length_c 20.1860(14)
_cell_angle_alpha 90
_cell_angle_beta 90
_cell_angle_gamma 90
_cell_formula_units_Z 4
loop_
_atom_type_symbol
_atom_type_radius_bond
C 0.68
H 0.23
N 0.68
O 0.68
loop_
_atom_site_label
_atom_site_type_symbol
_atom_site_fract_x
_atom_site_fract_y
_atom_site_fract_z
O1 O 0.66175(12) 0.47208(12) 0.40581(6)
C1 C 0.6499(2) 0.34420(19) 0.38278(11)
O2 O 0.70599(16) 0.26862(14) 0.43340(8)
C2 C 0.8118(2) 0.3398(2) 0.46018(12)
H1 H 0.8189(2) 0.3259(2) 0.50856(12)
H2 H 0.8952(2) 0.3148(2) 0.43901(12)
C3 C 0.77873(17) 0.4797(2) 0.44485(10)
H3 H 0.85039(17) 0.5183(2) 0.41777(10)
C4 C 0.5048(2) 0.3144(3) 0.37799(16)
H4 H 0.4633(4) 0.330(2) 0.4210(3)
H5 H 0.4645(5) 0.3697(14) 0.3445(8)
H6 H 0.4929(2) 0.2248(6) 0.3653(10)
C5 C 0.7221(2) 0.3254(2) 0.31820(12)
H7 H 0.6793(11) 0.3752(15) 0.2833(2)
H8 H 0.8126(6) 0.3543(17) 0.3232(3)
H9 H 0.7211(16) 0.2347(3) 0.3063(5)
C6 C 0.75430(16) 0.56180(18) 0.50580(9)
H10 H 0.83723(16) 0.56762(18) 0.53181(9)
C7 C 0.70779(16) 0.69688(19) 0.48980(9)
H11 H 0.72710(16) 0.72080(19) 0.44285(9)
C8 C 0.55934(16) 0.69845(19) 0.50431(9)
H12 H 0.50775(16) 0.71596(19) 0.46323(9)
C9 C 0.52718(16) 0.56575(19) 0.53292(10)
H13 H 0.47759(16) 0.51522(19) 0.49923(10)
N1 N 0.65361(14) 0.50021(15) 0.54750(8)
O3 O 0.76130(11) 0.78676(13) 0.53542(7)
C10 C 0.65982(17) 0.87215(18) 0.55502(10)
O4 O 0.54263(12) 0.79797(14) 0.55220(7)
C11 C 0.6819(3) 0.9106(3) 0.62565(12)
H14 H 0.694(2) 0.8341(3) 0.6529(2)
H15 H 0.7603(11) 0.9641(16) 0.62852(19)
H16 H 0.6062(9) 0.9590(17) 0.6417(3)
C12 C 0.6509(2) 0.9837(2) 0.50782(13)
H17 H 0.7336(7) 1.0309(11) 0.5081(7)
H18 H 0.6334(19) 0.9522(2) 0.4630(2)
H19 H 0.5799(13) 1.0405(10) 0.5217(6)
C13 C 0.45358(18) 0.5631(2) 0.59857(10)
H20 H 0.41475(18) 0.6475(2) 0.60859(10)
H21 H 0.38347(18) 0.4980(2) 0.59795(10)
C14 C 0.56029(19) 0.52835(19) 0.64928(10)
H22 H 0.55511(19) 0.58683(19) 0.68836(10)
O5 O 0.68200(12) 0.54648(13) 0.61532(6)
C15 C 0.54364(19) 0.3915(2) 0.67135(10)
H23 H 0.45984(19) 0.3813(2) 0.69526(10)
H24 H 0.54303(19) 0.3340(2) 0.63243(10)
O6 O 0.65175(14) 0.35973(13) 0.71460(7)
C16 C 0.65960(18) 0.23714(18) 0.73189(9)
O7 O 0.57759(15) 0.15779(14) 0.71761(8)
C17 C 0.78195(19) 0.20853(18) 0.76915(9)
C18 C 0.8645(2) 0.3047(2) 0.79014(10)
H25 H 0.8419(2) 0.3915(2) 0.78267(10)
C19 C 0.9808(2) 0.2744(3) 0.82225(11)
H26 H 1.0370(2) 0.3406(3) 0.83713(11)
C20 C 1.0145(2) 0.1487(3) 0.8325(1)
H27 H 1.0944(2) 0.1280(3) 0.8539(1)
C21 C 0.9310(3) 0.0521(2) 0.81135(12)
H28 H 0.9545(3) -0.0348(2) 0.81800(12)
C22 C 0.8142(2) 0.0816(2) 0.78076(10)
H29 H 0.7562(2) 0.0155(2) 0.7677(1)
#END
