
#######################################################################
#
#                 Cambridge Crystallographic Data Centre
#                                CCDC
#
#######################################################################
#
# If this CIF has been generated from an entry in the Cambridge
# Structural Database, then it will include bibliographic, chemical,
# crystal, experimental, refinement or atomic coordinate data resulting
# from the CCDC's data processing and validation procedures.
#
#######################################################################

data_CSD_CIF_YIHGOM
_audit_creation_date 2007-11-27
_audit_creation_method CSD-ConQuest-V1
_database_code_CSD YIHGOM
_database_code_depnum_ccdc_archive 'CCDC 206075'
_chemical_formula_sum 'C19 H20 N4 O2'
_chemical_formula_moiety
;
C19 H20 N4 O2
;
_journal_coden_Cambridge 1137
_journal_volume 20
_journal_year 2007
_journal_page_first 245
_journal_name_full 'J.Phys.Org.Chem. '
loop_
_publ_author_name
"S.Azzouzi"
"R.Jalal"
"M.El Messaoudi"
"L.R.Domingo"
"M.Esseffar"
"M.J.Aurell"
_chemical_name_systematic
;
3-mesityl-5-methyl-4,5,11,11a-tetrahydro-6H-1,2,4-oxadiazolo(5,4-b)(1,3,4)benz
otriazepin-6-one
;
_chemical_melting_point 482
_cell_volume   3335.855
_exptl_crystal_colour 'colorless'
_exptl_crystal_density_diffrn 1.34
_exptl_special_details
;
Melting point range 482-483K

;
_exptl_crystal_description 'prism'
_exptl_crystal_preparation 'ethyl acetate/hexane'
_diffrn_ambient_temperature 293
#These two values have been output from a single CSD field.
_refine_ls_R_factor_gt 0.0507
_refine_ls_wR_factor_gt 0.0507
_symmetry_cell_setting monoclinic
_symmetry_space_group_name_H-M 'C 2/c'
_symmetry_Int_Tables_number 15
loop_
_symmetry_equiv_pos_site_id
_symmetry_equiv_pos_as_xyz
1 x,y,z
2 1/2+x,1/2+y,z
3 -x,y,1/2-z
4 1/2-x,1/2+y,1/2-z
5 -x,-y,-z
6 -1/2-x,-1/2-y,-z
7 x,-y,-1/2+z
8 -1/2+x,-1/2-y,-1/2+z
_cell_length_a 14.6417(10)
_cell_length_b 8.0314(5)
_cell_length_c 28.6593(21)
_cell_angle_alpha 90
_cell_angle_beta 98.18(1)
_cell_angle_gamma 90
_cell_formula_units_Z 8
loop_
_atom_type_symbol
_atom_type_radius_bond
C 0.68
H 0.23
N 0.68
O 0.68
loop_
_atom_site_label
_atom_site_type_symbol
_atom_site_fract_x
_atom_site_fract_y
_atom_site_fract_z
C1 C 0.50834(14) 0.7594(3) 0.42982(7)
H1 H 0.4625(12) 0.7221(10) 0.4040(7)
C2 C 0.54558(16) 0.6469(3) 0.46369(7)
H2 H 0.5272(6) 0.527(3) 0.4613(1)
C3 C 0.60915(16) 0.7026(4) 0.50126(8)
H3 H 0.6351(8) 0.625(2) 0.5250(8)
C4 C 0.63503(15) 0.8670(3) 0.50462(7)
H4 H 0.6778(12) 0.9031(11) 0.5308(7)
C5 C 0.59952(12) 0.9814(3) 0.47030(6)
C6 C 0.53572(12) 0.9257(2) 0.43223(6)
C7 C 0.48610(12) 1.0424(2) 0.39689(6)
C8 C 0.66754(14) 1.2337(3) 0.44214(7)
C9 C 0.68996(12) 1.0834(2) 0.37663(6)
C10 C 0.66849(12) 0.9854(2) 0.33276(6)
C11 C 0.64489(13) 1.0670(2) 0.28908(6)
C12 C 0.62438(15) 0.9722(3) 0.24855(7)
H5 H 0.6069(5) 1.0300(14) 0.2176(8)
C13 C 0.62730(15) 0.8001(3) 0.24957(7)
C14 C 0.65418(15) 0.7228(2) 0.29253(7)
H6 H 0.65847(19) 0.601(3) 0.29343(7)
C15 C 0.67538(12) 0.8112(2) 0.33452(6)
C16 C 0.48289(17) 1.3183(3) 0.35996(9)
H7 H 0.46160 1.29090 0.32760
H8 H 0.52310 1.41320 0.36130
H9 H 0.43100 1.34390 0.37570
C17 C 0.64604(19) 1.2536(3) 0.28463(8)
H10 H 0.67510 1.28410 0.25790
H11 H 0.67980 1.30080 0.31270
H12 H 0.58390 1.29500 0.28050
C18 C 0.6029(2) 0.6991(4) 0.20496(9)
H13 H 0.53700 0.69680 0.19650
H14 H 0.62550 0.58750 0.21020
H15 H 0.63050 0.74900 0.17990
C19 C 0.70670(15) 0.7147(2) 0.37894(7)
H16 H 0.67490 0.60990 0.37770
H17 H 0.69320 0.77720 0.40570
H18 H 0.77200 0.69540 0.38170
N1 N 0.62056(12) 1.1524(2) 0.47533(6)
N2 N 0.53305(11) 1.17700(19) 0.38311(5)
N3 N 0.62822(10) 1.19174(18) 0.39395(5)
N4 N 0.76901(11) 1.0781(2) 0.40239(5)
O1 O 0.76208(9) 1.18677(18) 0.44205(5)
O2 O 0.40522(9) 1.0226(2) 0.38094(5)
H19 H 0.6687(14) 1.350(3) 0.4494(7)
H20 H 0.6389(18) 1.181(3) 0.5044(10)
#END
