
#######################################################################
#
#                 Cambridge Crystallographic Data Centre
#                                CCDC
#
#######################################################################
#
# If this CIF has been generated from an entry in the Cambridge
# Structural Database, then it will include bibliographic, chemical,
# crystal, experimental, refinement or atomic coordinate data resulting
# from the CCDC's data processing and validation procedures.
#
#######################################################################

data_CSD_CIF_YIHJAB
_audit_creation_date 2007-11-27
_audit_creation_method CSD-ConQuest-V1
_database_code_CSD YIHJAB
_database_code_depnum_ccdc_archive 'CCDC 198245'
_chemical_formula_sum 'C12 H15 N5 O1'
_chemical_formula_moiety
;
C12 H15 N5 O1
;
_journal_coden_Cambridge 1255
_journal_volume 12
_journal_year 2006
_journal_page_first 259
_journal_name_full 'Heterocyclic Communications '
loop_
_publ_author_name
"E.Abele"
"K.Rubina"
"S.Belyakov"
"M.Fleisher"
"J.Popelis"
_chemical_name_systematic
;
Acetophenone O-(3-(5-tetrazolyl)propyl)oxime
;
_chemical_melting_point 341.15
_cell_volume   2575.583
_exptl_crystal_colour 'colorless'
_exptl_crystal_density_diffrn 1.265
_exptl_special_details
;
Melting point range 341.15-343.15K

;
_exptl_crystal_description 'Needle'
_exptl_crystal_preparation 'diethyl ether'
_diffrn_ambient_temperature 298
#These two values have been output from a single CSD field.
_refine_ls_R_factor_gt 0.0631
_refine_ls_wR_factor_gt 0.0631
_symmetry_cell_setting orthorhombic
_symmetry_space_group_name_H-M 'P c a 21'
_symmetry_Int_Tables_number 29
loop_
_symmetry_equiv_pos_site_id
_symmetry_equiv_pos_as_xyz
1 x,y,z
2 -x,-y,1/2+z
3 1/2-x,y,1/2+z
4 1/2+x,-y,z
_cell_length_a 13.3695(7)
_cell_length_b 9.5821(5)
_cell_length_c 20.1048(13)
_cell_angle_alpha 90
_cell_angle_beta 90
_cell_angle_gamma 90
_cell_formula_units_Z 8
loop_
_atom_type_symbol
_atom_type_radius_bond
C 0.68
H 0.23
N 0.68
O 0.68
loop_
_atom_site_label
_atom_site_type_symbol
_atom_site_fract_x
_atom_site_fract_y
_atom_site_fract_z
O1 O 0.6114(4) 0.4120(5) 0.1839(3)
O2 O 0.6514(4) 0.9095(5) 0.4681(3)
N1 N 0.6186(4) 0.8135(6) 0.3124(3)
N2 N 0.5959(4) 1.0344(7) 0.3193(3)
C1 C 0.7254(5) 0.0745(8) 0.1591(4)
N3 N 0.6466(5) 0.7647(6) 0.4793(3)
N4 N 0.6402(4) 0.3147(6) 0.3426(4)
N5 N 0.6626(4) 0.5328(6) 0.3385(4)
H1 H 0.65140 0.62020 0.33260
N6 N 0.5202(5) 0.8443(7) 0.3014(4)
C2 C 0.5445(6) 0.5701(9) 0.4966(4)
C3 C 0.7107(5) 0.2239(8) 0.1725(4)
N7 N 0.5056(5) 0.9780(8) 0.3037(4)
N8 N 0.6216(5) 0.2673(7) 0.1694(3)
H2? H 0.57190 0.21450 0.15940
C4 C 0.5956(5) 0.4343(7) 0.3313(4)
N9 N 0.7371(4) 0.3453(7) 0.3586(4)
C5 C 0.6627(5) 0.9337(7) 0.3242(4)
N10 N 0.7507(5) 0.4791(7) 0.3564(4)
C6 C 0.6281(7) 0.4853(9) 0.5068(5)
H3 H 0.69210 0.52350 0.50670
C7 C 0.5554(6) 0.7237(9) 0.4848(4)
C8 C 0.5077(6) 0.4463(9) 0.1873(5)
H4 H 0.47450 0.41160 0.14770
H5 H 0.50050 0.54700 0.18790
C9 C 0.7705(5) 0.9570(9) 0.3380(5)
H6 H 0.78300 1.05660 0.34000
H7 H 0.80940 0.91940 0.30140
C10 C 0.8061(5) 0.8912(8) 0.4020(4)
H8 H 0.79470 0.79130 0.39960
H9 H 0.87760 0.90590 0.40600
C11 C 0.6147(10) 0.3436(10) 0.5169(5)
H10 H 0.66970 0.28690 0.52550
C12 C 0.4499(7) 0.5063(9) 0.4966(5)
H11 H 0.39300 0.55940 0.48860
C13 C 0.6452(7) -0.0156(8) 0.1545(5)
H12 H 0.58040 0.01950 0.15670
C14 C 0.4884(5) 0.4557(9) 0.3127(5)
H13 H 0.47570 0.55520 0.30960
H14 H 0.44660 0.41900 0.34800
C15 C 0.4578(5) 0.3869(8) 0.2471(5)
H15 H 0.47300 0.28810 0.24950
H16 H 0.38600 0.39610 0.24180
C16 C 0.4659(7) 0.8108(11) 0.4807(6)
H17 H 0.48500 0.90610 0.47350
H18 H 0.42900 0.80380 0.52160
H19 H 0.42480 0.77960 0.44450
C17 C 0.8200(8) 0.0187(11) 0.1523(6)
H20 H 0.87500 0.07810 0.15390
C18 C 0.756(1) -0.2106(10) 0.1387(5)
H21 H 0.76630 -0.30510 0.13050
C19 C 0.7977(7) 0.315(1) 0.1910(6)
H22 H 0.77470 0.40860 0.19850
H23 H 0.84570 0.31480 0.15550
H24 H 0.82840 0.27990 0.23080
C20 C 0.6601(9) -0.1596(11) 0.1463(5)
H25 H 0.60580 -0.22030 0.14610
C21 C 0.4416(12) 0.3707(15) 0.5080(7)
H26 H 0.37810 0.33180 0.51170
C22 C 0.5222(13) 0.2873(12) 0.5144(6)
H27 H 0.51410 0.19100 0.51710
C23 C 0.8356(9) -0.1221(11) 0.1431(5)
H28 H 0.90040 -0.15680 0.13990
C24 C 0.7556(7) 0.9473(9) 0.4634(5)
H29 H 0.79040 0.91250 0.50240
H30 H 0.76110 1.04830 0.46360
#END
