
#######################################################################
#
#                 Cambridge Crystallographic Data Centre
#                                CCDC
#
#######################################################################
#
# If this CIF has been generated from an entry in the Cambridge
# Structural Database, then it will include bibliographic, chemical,
# crystal, experimental, refinement or atomic coordinate data resulting
# from the CCDC's data processing and validation procedures.
#
#######################################################################

data_CSD_CIF_YIHJEE
_audit_creation_date 1995-08-02
_audit_creation_method CSD-ConQuest-V1
_database_code_CSD YIHJEE
_chemical_formula_sum 'C23 H30 N4 O6'
_chemical_formula_moiety
;
C23 H30 N4 O6
;
_journal_coden_Cambridge 151
_journal_volume 37
_journal_year 1994
_journal_page_first 4508
_journal_name_full 'J.Med.Chem. '
loop_
_publ_author_name
"A.D.Palkowitz"
"M.I.Steinberg"
"K.J.Thrasher"
"J.K.Reel"
"K.L.Hauser"
"K.M.Zimmerman"
"S.A.Wiest"
"C.A.Whitesitt"
"R.L.Simon"
"W.Pfeifer"
"S.L.Lifer"
"D.B.Boyd"
"C.J.Barnett"
"T.M.Wilson"
"J.B.Deeter"
"K.Takeuchi"
"R.E.Riley"
"W.D.Miller"
"W.S.Marshall"
_chemical_name_systematic
;
(S,S,S)-cis-4-Phenoxy-1-(1-oxo-2(S)-(4-nitro-1H-imidazol-1-yl)octyl)-L-proline
 methyl ester
;
_chemical_melting_point 371.15
_cell_volume   2467.657
_exptl_crystal_colour 'white'
_exptl_crystal_density_diffrn 1.233
_exptl_special_details
;
Melting point range 371.15-373.15K

;
_diffrn_ambient_temperature ?
_diffrn_special_details
;
The study was carried out at room temperature,in the range 283-303K

;
#These two values have been output from a single CSD field.
_refine_ls_R_factor_gt 0.0727
_refine_ls_wR_factor_gt 0.0727
_symmetry_cell_setting orthorhombic
_symmetry_space_group_name_H-M 'P 21 21 21'
_symmetry_Int_Tables_number 19
loop_
_symmetry_equiv_pos_site_id
_symmetry_equiv_pos_as_xyz
1 x,y,z
2 1/2-x,-y,1/2+z
3 1/2+x,1/2-y,-z
4 -x,1/2+y,1/2-z
_cell_length_a 9.089
_cell_length_b 10.694
_cell_length_c 25.388
_cell_angle_alpha 90
_cell_angle_beta 90
_cell_angle_gamma 90
_cell_formula_units_Z 4
loop_
_atom_type_symbol
_atom_type_radius_bond
C 0.68
H 0.23
N 0.68
O 0.68
loop_
_atom_site_label
_atom_site_type_symbol
_atom_site_fract_x
_atom_site_fract_y
_atom_site_fract_z
N1 N 0.8600(9) 0.7956(6) 0.7892(3)
C1 C 0.8422(11) 0.6739(8) 0.8170(4)
C2 C 0.6950(11) 0.6955(9) 0.8457(4)
C3 C 0.6912(11) 0.8324(9) 0.8573(4)
C4 C 0.7649(11) 0.8930(8) 0.8117(3)
C5 C 0.7696(14) 0.9655(12) 0.9291(4)
C6 C 0.8521(15) 0.9664(14) 0.9743(5)
C7 C 0.8568(25) 1.0842(20) 1.0032(6)
C8 C 0.7836(24) 1.1837(19) 0.9854(7)
C9 C 0.7051(18) 1.1753(13) 0.9411(6)
C10 C 0.6939(13) 1.0655(9) 0.9118(4)
N2 N 1.1944(9) 0.7509(6) 0.7202(3)
C11 C 1.3064(14) 0.7135(11) 0.7531(5)
N3 N 1.4322(11) 0.7622(10) 0.7405(4)
C12 C 1.4021(12) 0.8295(10) 0.6973(4)
C13 C 1.2596(12) 0.8283(8) 0.6836(4)
N4 N 1.5129(13) 0.8987(9) 0.6696(5)
O1 O 1.6350(11) 0.9099(11) 0.6882(4)
O2 O 1.480(1) 0.9410(7) 0.6261(3)
O3 O 0.7727(8) 0.8470(6) 0.9061(3)
C14 C 0.9691(14) 0.6496(8) 0.8526(3)
O4 O 1.0844(9) 0.7042(6) 0.8517(3)
O5 O 0.9414(8) 0.5524(5) 0.8840(2)
C15 C 1.0602(15) 0.514(1) 0.9179(4)
C16 C 0.9544(11) 0.8219(8) 0.7515(3)
O6 O 0.9719(7) 0.9312(5) 0.7349(2)
C17 C 1.0384(10) 0.7180(7) 0.7251(3)
C18 C 0.9707(11) 0.6902(8) 0.6714(3)
C19 C 0.8253(14) 0.6217(12) 0.6753(4)
C20 C 0.7593(22) 0.6093(13) 0.6223(7)
C21 C 0.7393(25) 0.4770(13) 0.6020(6)
C22 C 0.6896(20) 0.4702(14) 0.5487(6)
C23 C 0.7358(34) 0.3454(19) 0.5255(9)
H1 H 0.83440 0.60810 0.79140
H2 H 0.61450 0.67330 0.82310
H3 H 0.69080 0.64500 0.87700
H4 H 0.59210 0.86120 0.86190
H5 H 0.82320 0.96310 0.82280
H6 H 0.69390 0.92050 0.78620
H7 H 0.90590 0.89500 0.98660
H8 H 0.90970 1.09020 1.03580
H9 H 0.79270 1.26100 1.00430
H10 H 0.65260 1.24890 0.93040
H11 H 0.63430 1.06220 0.88060
H12 H 1.29190 0.65750 0.78220
H13 H 1.21190 0.86920 0.65460
H14 H 1.03320 0.44310 0.93890
H15 H 1.08770 0.58210 0.94050
H16 H 1.14180 0.49240 0.89570
H17 H 1.03080 0.64440 0.74660
H18 H 0.95740 0.76830 0.65330
H19 H 1.03740 0.63970 0.65120
H20 H 0.83990 0.54230 0.69210
H21 H 0.76080 0.67050 0.69700
H22 H 0.65570 0.62480 0.62520
H23 H 0.79890 0.66980 0.59820
H24 H 0.84300 0.46660 0.59660
H25 H 0.71100 0.41800 0.62860
H26 H 0.58670 0.46340 0.55660
H27 H 0.69970 0.53870 0.52460
H28 H 0.67480 0.33810 0.49490
H29 H 0.72180 0.27370 0.54770
H30 H 0.83700 0.35030 0.51500
#END
