
#######################################################################
#
#                 Cambridge Crystallographic Data Centre
#                                CCDC
#
#######################################################################
#
# If this CIF has been generated from an entry in the Cambridge
# Structural Database, then it will include bibliographic, chemical,
# crystal, experimental, refinement or atomic coordinate data resulting
# from the CCDC's data processing and validation procedures.
#
#######################################################################

data_CSD_CIF_YIHLEI
_audit_creation_date 2013-06-16
_audit_creation_method CSD-ConQuest-V1
_database_code_CSD YIHLEI
_database_code_depnum_ccdc_archive 'CCDC 917717'
_chemical_formula_sum 'C3 H4 N8 O1'
_chemical_formula_moiety
;
C3 H4 N8 O1
;
_journal_coden_Cambridge 29
_journal_volume 639
_journal_year 2013
_journal_page_first 899
_journal_name_full 'Z.Anorg.Allg.Chem. '
loop_
_publ_author_name
"D.Izsak"
"T.M.Klapotke"
"S.Reuter"
"T.Rosener"
_chemical_name_systematic
;
3-Azido-N'-hydroxy-1H-1,2,4-triazole-5-carboximidamide
;
_chemical_name_common
;
3-Azido-1H-1,2,4-triazole-5-carboxamide oxime
;
_cell_volume    708.494
_exptl_crystal_colour 'colorless'
_exptl_crystal_density_diffrn 1.576
_exptl_crystal_description 'block'
_diffrn_ambient_temperature 293
#These two values have been output from a single CSD field.
_refine_ls_R_factor_gt 0.0426
_refine_ls_wR_factor_gt 0.0426
_symmetry_cell_setting monoclinic
_symmetry_space_group_name_H-M 'P 21/c'
_symmetry_Int_Tables_number 14
loop_
_symmetry_equiv_pos_site_id
_symmetry_equiv_pos_as_xyz
1 x,y,z
2 -x,1/2+y,1/2-z
3 -x,-y,-z
4 x,-1/2-y,-1/2+z
_cell_length_a 10.616(3)
_cell_length_b 7.3524(19)
_cell_length_c 9.8450(19)
_cell_angle_alpha 90
_cell_angle_beta 112.78(3)
_cell_angle_gamma 90
_cell_formula_units_Z 4
loop_
_atom_type_symbol
_atom_type_radius_bond
C 0.68
H 0.23
N 0.68
O 0.68
loop_
_atom_site_label
_atom_site_type_symbol
_atom_site_fract_x
_atom_site_fract_y
_atom_site_fract_z
O1 O 0.78522(14) 0.4537(2) 0.47444(15)
N1 N 0.28057(15) 0.1339(2) 0.30402(15)
N2 N 0.65182(16) 0.3772(2) 0.41147(17)
N3 N 0.6843(2) 0.3420(3) 0.66034(18)
N4 N 0.41228(16) 0.1825(2) 0.54438(15)
C1 C 0.47790(18) 0.2415(3) 0.46189(18)
N5 N 0.40119(16) 0.2132(2) 0.31997(16)
C2 C 0.29410(19) 0.1194(3) 0.44292(19)
C3 C 0.61386(19) 0.3256(3) 0.51435(18)
N6 N 0.19539(18) 0.0425(3) 0.48817(19)
N7 N 0.0934(2) -0.0191(3) 0.3857(2)
N8 N -0.0032(2) -0.0800(4) 0.3052(3)
H1 H 0.649(2) 0.292(4) 0.723(3)
H2 H 0.419(2) 0.243(3) 0.241(2)
H3 H 0.761(2) 0.395(3) 0.690(2)
H4 H 0.792(3) 0.512(5) 0.393(3)
#END
