
#######################################################################
#
#                 Cambridge Crystallographic Data Centre
#                                CCDC
#
#######################################################################
#
# If this CIF has been generated from an entry in the Cambridge
# Structural Database, then it will include bibliographic, chemical,
# crystal, experimental, refinement or atomic coordinate data resulting
# from the CCDC's data processing and validation procedures.
#
#######################################################################

data_CSD_CIF_YIHSIU
_audit_creation_date 2018-06-16
_audit_creation_method CSD-ConQuest-V1
_database_code_CSD YIHSIU
_database_code_depnum_ccdc_archive 'CCDC 1847818'
_chemical_formula_sum 'C19 H16 N4 O3'
_chemical_formula_moiety
;
C19 H16 N4 O3
;
_journal_coeditor_code "hb4237"
_journal_coden_Cambridge 1959
_journal_volume 3
_journal_year 2018
_journal_page_first x180841
_journal_name_full 'IUCrData '
loop_
_publ_author_name
"G.A.El-Hiti"
"B.F.Abdel-Wahab"
"M.S.Mostafa"
"R.E.Khidre"
"A.S.Hegazy"
"B.M.Kariuki"
_chemical_name_systematic
;
1-[5-methyl-1-(4-methylphenyl)-1H-1,2,3-triazol-4-yl]-3-(4-nitrophenyl)prop-2-
en-1-one
;
_cell_volume   3404.913
_exptl_crystal_colour 'colorless'
_exptl_crystal_density_diffrn 1.359
_exptl_crystal_description 'plate'
_diffrn_ambient_temperature 298
#These two values have been output from a single CSD field.
_refine_ls_R_factor_gt 0.0756
_refine_ls_wR_factor_gt 0.0756
_symmetry_cell_setting monoclinic
_symmetry_space_group_name_H-M 'P 21/c'
_symmetry_Int_Tables_number 14
loop_
_symmetry_equiv_pos_site_id
_symmetry_equiv_pos_as_xyz
1 x,y,z
2 -x,1/2+y,1/2-z
3 -x,-y,-z
4 x,-1/2-y,-1/2+z
_cell_length_a 37.0489(16)
_cell_length_b 13.3154(7)
_cell_length_c 6.9170(4)
_cell_angle_alpha 90
_cell_angle_beta 93.771(4)
_cell_angle_gamma 90
_cell_formula_units_Z 8
loop_
_atom_type_symbol
_atom_type_radius_bond
C 0.68
H 0.23
N 0.68
O 0.68
loop_
_atom_site_label
_atom_site_type_symbol
_atom_site_fract_x
_atom_site_fract_y
_atom_site_fract_z
C1 C -0.07838(7) 0.12435(19) -0.2371(4)
C2 C -0.04399(8) 0.1502(2) -0.2812(5)
H1 H -0.03943 0.17210 -0.40489
C3 C -0.01634(8) 0.1429(2) -0.1384(5)
H2 H 0.00710 0.15975 -0.16656
C4 C -0.02302(7) 0.11057(19) 0.0478(4)
C5 C -0.05831(7) 0.0828(2) 0.0840(4)
H3 H -0.06309 0.05871 0.20598
C6 C -0.08603(8) 0.0902(2) -0.0567(5)
H4 H -0.10950 0.07258 -0.03073
C7 C 0.00480(7) 0.1046(2) 0.2058(4)
H5 H -0.00254 0.07872 0.32183
C8 C 0.03925(8) 0.1312(2) 0.2057(5)
H6 H 0.04787 0.15857 0.09385
C9 C 0.06411(8) 0.1186(2) 0.3780(5)
C10 C 0.10290(7) 0.1286(2) 0.3535(4)
C11 C 0.13136(7) 0.1187(2) 0.4903(4)
C12 C 0.13269(8) 0.0982(3) 0.7006(4)
H7 H 0.12970 0.02751 0.72156
H8 H 0.11361 0.13427 0.75743
H9 H 0.15561 0.11953 0.75930
C13 C 0.19821(8) 0.1305(2) 0.4518(4)
C14 C 0.21867(8) 0.2157(3) 0.4340(5)
H10 H 0.20814 0.27436 0.38362
C15 C 0.25505(9) 0.2132(3) 0.4920(5)
H11 H 0.26889 0.27085 0.47949
C16 C 0.27134(9) 0.1279(3) 0.5677(5)
C17 C 0.25024(10) 0.0440(3) 0.5858(5)
H12 H 0.26067 -0.01413 0.63884
C18 C 0.21388(9) 0.0441(3) 0.5269(5)
H13 H 0.20012 -0.01382 0.53795
C19 C 0.31105(9) 0.1268(3) 0.6318(6)
H14 H 0.32235 0.18634 0.58615
H15 H 0.32223 0.06866 0.57927
H16 H 0.31385 0.12457 0.77068
N1 N -0.10784(8) 0.13323(19) -0.3873(4)
N2 N 0.11600(7) 0.1475(2) 0.1767(4)
N3 N 0.15105(7) 0.1491(2) 0.1965(4)
N4 N 0.16083(6) 0.13206(18) 0.3880(3)
O1 O -0.13863(6) 0.1115(2) -0.3461(4)
O2 O -0.10091(7) 0.1614(2) -0.5489(4)
O3 O 0.05331(6) 0.0976(2) 0.5370(3)
C20 C 0.58057(8) -0.1266(2) 0.7190(5)
C21 C 0.58744(8) -0.0966(2) 0.5356(5)
H17 H 0.61089 -0.08199 0.50416
C22 C 0.55883(8) -0.0886(2) 0.3986(5)
H18 H 0.56306 -0.06648 0.27459
C23 C 0.52374(8) -0.1128(2) 0.4423(5)
C24 C 0.51790(8) -0.1418(2) 0.6319(5)
H19 H 0.49457 -0.15682 0.66497
C25 C 0.54634(8) -0.1486(2) 0.7709(5)
H20 H 0.54236 -0.16765 0.89710
C26 C 0.49517(8) -0.1071(2) 0.2878(5)
H21 H 0.50223 -0.08469 0.16866
C27 C 0.46064(8) -0.1294(2) 0.2946(5)
H22 H 0.45209 -0.15165 0.41058
C28 C 0.43530(8) -0.1200(2) 0.1224(5)
C29 C 0.39649(8) -0.1240(2) 0.1530(4)
C30 C 0.36728(8) -0.1201(2) 0.0187(4)
C31 C 0.36487(9) -0.1119(3) -0.1951(4)
H23 H 0.34163 -0.13538 -0.24560
H24 H 0.38352 -0.15187 -0.24677
H25 H 0.36789 -0.04295 -0.23152
C32 C 0.30061(8) -0.1231(2) 0.0704(4)
C33 C 0.27922(9) -0.0428(3) 0.1153(5)
H26 H 0.28930 0.01385 0.17603
C34 C 0.24234(10) -0.0485(3) 0.0680(6)
H27 H 0.22779 0.00554 0.09747
C35 C 0.22651(9) -0.1313(3) -0.0210(5)
C36 C 0.24885(8) -0.2099(3) -0.0643(5)
H28 H 0.23885 -0.26635 -0.12618
C37 C 0.28570(8) -0.2070(3) -0.0181(5)
H29 H 0.30023 -0.26125 -0.04660
C38 C 0.18607(9) -0.1370(4) -0.0680(6)
H30 H 0.17602 -0.18919 0.00787
H31 H 0.18135 -0.15166 -0.20317
H32 H 0.17520 -0.07392 -0.03834
N5 N 0.61118(8) -0.13453(19) 0.8654(5)
N6 N 0.38406(7) -0.12831(19) 0.3349(4)
N7 N 0.34928(7) -0.1266(2) 0.3210(4)
N8 N 0.33869(6) -0.12202(18) 0.1281(3)
O4 O 0.64161(7) -0.1192(2) 0.8154(4)
O5 O 0.60489(7) -0.1547(2) 1.0319(4)
O6 O 0.44557(6) -0.1070(2) -0.0403(4)
#END
