
#######################################################################
#
#                 Cambridge Crystallographic Data Centre
#                                CCDC
#
#######################################################################
#
# If this CIF has been generated from an entry in the Cambridge
# Structural Database, then it will include bibliographic, chemical,
# crystal, experimental, refinement or atomic coordinate data resulting
# from the CCDC's data processing and validation procedures.
#
#######################################################################

data_CSD_CIF_YIJBEY
_audit_creation_date 1995-07-26
_audit_creation_method CSD-ConQuest-V1
_database_code_CSD YIJBEY
_chemical_formula_sum 'C17 H15 N3 O2'
_chemical_formula_moiety
;
C17 H15 N3 O2
;
_journal_coden_Cambridge 122
_journal_year 1994
_journal_page_first 1117
_journal_name_full 'Khim.Get.Soedin.,SSSR(Russ.)(Chem.Heterocycl.Compd.) '
loop_
_publ_author_name
"V.D.Orlov"
"Z.Kaluski"
"N.P.Vorob'eva"
"E.Figas"
"A.A.Tishchenko"
"F.G.Yaremenko"
_chemical_name_systematic
;
5-Phenyl-7-(4-nitrophenyl)-1,4-diazabicyclo(4.1.0)hept-4-ene
;
_chemical_melting_point 411.15
_cell_volume   1471.199
_exptl_crystal_density_diffrn 1.33
_diffrn_ambient_temperature ?
_diffrn_special_details
;
The study was carried out at room temperature,in the range 283-303K

;
#These two values have been output from a single CSD field.
_refine_ls_R_factor_gt 0.073
_refine_ls_wR_factor_gt 0.073
_symmetry_cell_setting monoclinic
_symmetry_space_group_name_H-M 'P 21/n'
_symmetry_Int_Tables_number 14
loop_
_symmetry_equiv_pos_site_id
_symmetry_equiv_pos_as_xyz
1 x,y,z
2 1/2-x,1/2+y,1/2-z
3 -x,-y,-z
4 -1/2+x,-1/2-y,-1/2+z
_cell_length_a 9.057(2)
_cell_length_b 16.698(4)
_cell_length_c 9.952(2)
_cell_angle_alpha 90
_cell_angle_beta 102.18(2)
_cell_angle_gamma 90
_cell_formula_units_Z 4
loop_
_atom_type_symbol
_atom_type_radius_bond
C 0.68
H 0.23
N 0.68
O 0.68
loop_
_atom_site_label
_atom_site_type_symbol
_atom_site_fract_x
_atom_site_fract_y
_atom_site_fract_z
N1 N 0.5387(5) 0.1004(2) 0.4239(4)
N2 N 0.7531(4) 0.2145(3) 0.5783(4)
C1 C 0.6534(6) 0.0774(3) 0.5501(6)
C2 C 0.7045(6) 0.1449(3) 0.6451(5)
C3 C 0.6769(5) 0.2340(3) 0.4596(4)
C4 C 0.5492(5) 0.1847(3) 0.3832(5)
C5 C 0.4228(5) 0.1556(3) 0.4412(5)
C6 C 0.2693(5) 0.1433(3) 0.3503(4)
C7 C 0.1493(5) 0.1803(3) 0.3823(5)
C8 C 0.0060(5) 0.1726(3) 0.3008(5)
C9 C -0.0115(5) 0.1269(3) 0.1850(4)
C10 C 0.1062(4) 0.0876(3) 0.1493(4)
C11 C 0.2483(5) 0.0959(3) 0.2330(4)
C12 C 0.7196(5) 0.3065(3) 0.3928(4)
C13 C 0.8609(5) 0.3441(3) 0.4385(5)
C14 C 0.9022(6) 0.4106(3) 0.3799(5)
C15 C 0.8037(6) 0.4452(3) 0.2719(5)
C16 C 0.6638(6) 0.4114(3) 0.2212(5)
C17 C 0.6241(5) 0.3426(3) 0.2794(5)
N3 N -0.1636(4) 0.1207(2) 0.0942(4)
O1 O -0.1766(4) 0.0825(2) -0.0115(3)
O2 O -0.2677(4) 0.1538(2) 0.1299(4)
H1 H 0.531(6) 0.189(4) 0.260(6)
H2 H 0.457(2) 0.173(1) 0.548(2)
H3 H 0.609(5) 0.030(3) 0.600(5)
H4 H 0.765(6) 0.064(3) 0.516(5)
H5 H 0.774(5) 0.129(3) 0.717(4)
H6 H 0.593(4) 0.148(2) 0.671(4)
#END
