
#######################################################################
#
#                 Cambridge Crystallographic Data Centre
#                                CCDC
#
#######################################################################
#
# If this CIF has been generated from an entry in the Cambridge
# Structural Database, then it will include bibliographic, chemical,
# crystal, experimental, refinement or atomic coordinate data resulting
# from the CCDC's data processing and validation procedures.
#
#######################################################################

data_CSD_CIF_YIJBUO
_audit_creation_date 1995-07-25
_audit_creation_method CSD-ConQuest-V1
_database_code_CSD YIJBUO
_database_code_depnum_ccdc_archive 'CCDC 1302949'
_chemical_formula_sum 'C20 H23 N1 O7'
_chemical_formula_moiety
;
C20 H23 N1 O7
;
_journal_coden_Cambridge 392
_journal_volume 38
_journal_year 1994
_journal_page_first 2631
_journal_name_full 'Heterocycles '
loop_
_publ_author_name
"T.Tsuno"
"K.Sugiyama"
"H.Ago"
_chemical_name_systematic
;
(2S,3S,6S,7S,10R)-7-Isopropyl-10-methyl-2-(4-nitrophenyl)-1,5,12-trioxadispiro
(2.2.5.2)tridecane-4,13-dione
;
_chemical_melting_point 455.15
_cell_volume    493.432
_exptl_crystal_colour 'colorless'
_exptl_crystal_density_diffrn 1.31
_exptl_special_details
;
Melting point range 455.15-458.15K
x(C4) is -0.0395, not -0.395. y(N1) is 0.6576, not -0.6576
;
_diffrn_ambient_temperature ?
_diffrn_special_details
;
The study was carried out at room temperature,in the range 283-303K

;
#These two values have been output from a single CSD field.
_refine_ls_R_factor_gt 0.047
_refine_ls_wR_factor_gt 0.047
loop_
_citation_database_id_CSD
_citation_special_details
YIJCAV "is a stereoisomer of this entry"
_symmetry_cell_setting triclinic
_symmetry_space_group_name_H-M 'P 1'
_symmetry_Int_Tables_number 1
loop_
_symmetry_equiv_pos_site_id
_symmetry_equiv_pos_as_xyz
1 x,y,z
_cell_length_a 5.882(3)
_cell_length_b 7.740(3)
_cell_length_c 11.901(4)
_cell_angle_alpha 99.35(3)
_cell_angle_beta 98.59(3)
_cell_angle_gamma 109.01(3)
_cell_formula_units_Z 1
loop_
_atom_type_symbol
_atom_type_radius_bond
C 0.68
N 0.68
O 0.68
loop_
_atom_site_label
_atom_site_type_symbol
_atom_site_fract_x
_atom_site_fract_y
_atom_site_fract_z
O1 O -0.3644(8) -0.1069(6) -0.0621(4)
O2 O -0.0277(8) 0.0205(6) 0.2412(4)
O3 O -0.5629(8) 0.1328(7) 0.0591(4)
O4 O -0.389(1) 0.6431(8) -0.3165(6)
C1 C -0.146(1) 0.0476(8) -0.0551(5)
C2 C -0.1086(10) -0.0752(8) 0.1297(5)
C3 C -0.3751(10) 0.1213(8) 0.1079(5)
C4 C 0.011(1) 0.4607(8) 0.4418(5)
C5 C 0.177(1) 0.5478(8) 0.2679(5)
C6 C -0.1679(10) 0.2057(8) -0.1093(5)
C7 C 0.042(1) 0.5076(8) -0.1464(5)
C8 C -0.396(1) 0.3515(10) -0.2176(5)
C9 C 0.385(1) 0.6775(9) 0.2232(6)
C10 C -0.053(1) 0.115(1) 0.5769(6)
O5 O -0.0741(9) -0.2178(6) 0.0981(4)
O6 O -0.28130 0.20090 0.22050
O7 O 0.003(1) 0.7886(8) -0.2478(5)
N1 N -0.192(1) 0.6585(9) -0.2613(5)
C11 C -0.2447(10) 0.0079(7) 0.0513(5)
C12 C -0.0395(9) 0.2068(7) 0.2718(5)
C13 C -0.0007(10) 0.2595(8) 0.4032(5)
C14 C 0.211(1) 0.6001(8) 0.3985(6)
C15 C 0.162(1) 0.3461(8) 0.2281(5)
C16 C 0.049(1) 0.3584(9) -0.0980(5)
C17 C -0.180(1) 0.5005(9) -0.2048(5)
C18 C -0.389(1) 0.2032(8) -0.1675(5)
C19 C -0.182(1) 0.1150(8) 0.4560(5)
C20 C -0.422(1) 0.1452(9) 0.4615(6)
#END
