
#######################################################################
#
#                 Cambridge Crystallographic Data Centre
#                                CCDC
#
#######################################################################
#
# If this CIF has been generated from an entry in the Cambridge
# Structural Database, then it will include bibliographic, chemical,
# crystal, experimental, refinement or atomic coordinate data resulting
# from the CCDC's data processing and validation procedures.
#
#######################################################################

data_CSD_CIF_YIJPIQ
_audit_creation_date 2002-03-22
_audit_creation_method CSD-ConQuest-V1
_database_code_CSD YIJPIQ
_database_code_depnum_ccdc_archive 'CCDC 163374'
_chemical_formula_sum 'C12 H16 N2 O7'
_chemical_formula_moiety
;
C12 H16 N2 O7
;
_journal_coden_Cambridge 156
_journal_volume 332
_journal_year 2001
_journal_page_first 415
_journal_name_full 'Carbohydr.Res. '
loop_
_publ_author_name
"C.R.Ojala"
"J.M.Ostman"
"S.E.Hanson"
"W.H.Ojala"
_chemical_name_systematic
;
N-(p-Nitrophenyl)-\b-D-galactopyranosylamine
;
_chemical_melting_point 485.15
_cell_volume    643.524
_exptl_crystal_colour 'pale yellow'
_exptl_crystal_density_diffrn 1.55
_exptl_special_details
;
Melting point range 485.15-487.15K
isostructural with the p-chloro, p-bromo, p-iodo, phenyl analogues
;
_exptl_crystal_description 'sword shape'
_exptl_crystal_preparation 'ethanol'
_diffrn_ambient_temperature 296.2
#These two values have been output from a single CSD field.
_refine_ls_R_factor_gt 0.035
_refine_ls_wR_factor_gt 0.035
_symmetry_cell_setting monoclinic
_symmetry_space_group_name_H-M 'P 21'
_symmetry_Int_Tables_number 4
loop_
_symmetry_equiv_pos_site_id
_symmetry_equiv_pos_as_xyz
1 x,y,z
2 -x,1/2+y,-z
_cell_length_a 4.845(2)
_cell_length_b 8.361(1)
_cell_length_c 16.032(1)
_cell_angle_alpha 90
_cell_angle_beta 97.74(2)
_cell_angle_gamma 90
_cell_formula_units_Z 2
loop_
_atom_type_symbol
_atom_type_radius_bond
C 0.68
H 0.23
N 0.68
O 0.68
loop_
_atom_site_label
_atom_site_type_symbol
_atom_site_fract_x
_atom_site_fract_y
_atom_site_fract_z
O1 O 0.7935(4) -0.13230 0.6613(1)
O2 O 0.8281(4) 0.0678(3) 0.5245(1)
O3 O 0.3266(4) 0.2418(3) 0.53036(9)
O4 O 0.3604(3) 0.2069(3) 0.71189(9)
O5 O 0.4498(5) 0.6116(3) 0.6388(1)
O6 O 0.3076(5) 0.0532(3) 1.1508(1)
O7 O 0.0191(7) -0.1423(4) 1.1258(1)
N1 N 0.3613(5) -0.0502(3) 0.7656(1)
N2 N 0.1819(6) -0.0453(4) 1.1030(1)
C1 C 0.5237(5) 0.0632(3) 0.7276(1)
C2 C 0.6036(5) -0.0037(3) 0.6448(1)
C3 C 0.7508(5) 0.1274(3) 0.6022(1)
C4 C 0.5726(5) 0.2775(3) 0.5887(1)
C5 C 0.5044(5) 0.3316(3) 0.6747(1)
C6 C 0.3196(6) 0.4786(3) 0.6730(2)
C7 C 0.3174(5) -0.0430(4) 0.8489(1)
C8 C 0.1134(6) -0.1414(4) 0.8753(2)
C9 C 0.0692(7) -0.1430(4) 0.9584(2)
C10 C 0.2279(6) -0.0462(4) 1.0153(1)
C11 C 0.4283(6) 0.0524(4) 0.9908(2)
C12 C 0.4734(6) 0.0558(4) 0.9077(2)
H1 H 0.705(5) 0.093(3) 0.767(1)
H2 H 0.427(5) -0.032(3) 0.611(1)
H3 H 0.921(6) 0.163(3) 0.640(1)
H4 H 0.683(6) 0.360(3) 0.569(1)
H5 H 0.684(6) 0.353(3) 0.709(1)
H6 H 0.000(6) -0.201(3) 0.841(2)
H7 H -0.067(6) -0.206(3) 0.980(2)
H8 H 0.549(6) 0.113(3) 1.029(2)
H9 H 0.630(6) 0.123(4) 0.894(2)
H10 H 0.690(6) -0.221(4) 0.673(2)
H11 H 0.991(7) 0.104(4) 0.522(2)
H12 H 0.273(7) 0.317(4) 0.505(2)
H13 H 0.424(7) 0.621(4) 0.588(2)
H14 H 0.300(6) 0.505(3) 0.736(2)
H15 H 0.149(6) 0.452(4) 0.644(2)
H16 H 0.243(7) -0.090(4) 0.737(2)
#END
