
#######################################################################
#
#                 Cambridge Crystallographic Data Centre
#                                CCDC
#
#######################################################################
#
# If this CIF has been generated from an entry in the Cambridge
# Structural Database, then it will include bibliographic, chemical,
# crystal, experimental, refinement or atomic coordinate data resulting
# from the CCDC's data processing and validation procedures.
#
#######################################################################

data_CSD_CIF_YIJSAL
_audit_creation_date 1995-06-19
_audit_creation_method CSD-ConQuest-V1
_database_code_CSD YIJSAL
_chemical_formula_sum 'C11 H12 N2 O3'
_chemical_formula_moiety
;
C11 H12 N2 O3
;
_journal_coden_Cambridge 456
_journal_volume 67
_journal_year 1993
_journal_page_first 347
_journal_name_full 'Pol.J.Chem. '
loop_
_publ_author_name
"Z.Olejnik"
"T.Lis"
"R.Kowal"
"A.Miniewicz"
_chemical_name_systematic
;
2-(3-Nitrophenylamino)-2-penten-4-one
;
_cell_volume    550.818
_exptl_crystal_colour 'yellow'
_exptl_crystal_density_diffrn 1.328
_diffrn_ambient_temperature ?
_diffrn_special_details
;
The study was carried out at room temperature,in the range 283-303K

;
_refine_special_details
;
O2 is partially disordered.

;
#These two values have been output from a single CSD field.
_refine_ls_R_factor_gt 0.048
_refine_ls_wR_factor_gt 0.048
_symmetry_cell_setting triclinic
_symmetry_space_group_name_H-M 'P -1'
_symmetry_Int_Tables_number 2
loop_
_symmetry_equiv_pos_site_id
_symmetry_equiv_pos_as_xyz
1 x,y,z
2 -x,-y,-z
_cell_length_a 7.064(9)
_cell_length_b 8.000(9)
_cell_length_c 10.87(2)
_cell_angle_alpha 75.07(9)
_cell_angle_beta 84.85(9)
_cell_angle_gamma 68.13(9)
_cell_formula_units_Z 2
loop_
_atom_type_symbol
_atom_type_radius_bond
C 0.68
H 0.23
N 0.68
O 0.68
loop_
_atom_site_label
_atom_site_type_symbol
_atom_site_fract_x
_atom_site_fract_y
_atom_site_fract_z
O1 O 0.3857(3) 0.1122(3) 0.1016(2)
O2 O 0.7979(5) 0.3537(9) -0.5799(3)
O3? O 0.833(4) 0.205(6) -0.557(3)
O4 O 0.5466(4) 0.2924(4) -0.4742(2)
N1 N 0.6851(3) 0.2205(3) -0.0228(2)
N2 N 0.7130(4) 0.3066(4) -0.4795(3)
C1 C 0.2786(7) 0.1784(7) 0.3037(4)
C2 C 0.4099(4) 0.1806(4) 0.1868(3)
C3 C 0.5548(4) 0.2672(4) 0.1786(3)
C4 C 0.6827(4) 0.2874(4) 0.0798(3)
C5 C 0.8189(6) 0.3941(6) 0.0810(4)
C6 C 0.8005(4) 0.2347(4) -0.1348(2)
C7 C 0.7066(4) 0.2654(4) -0.2486(3)
C8 C 0.8161(4) 0.2760(4) -0.3592(2)
C9 C 1.0187(5) 0.2592(5) -0.3624(3)
C10 C 1.1109(5) 0.2245(5) -0.2494(3)
C11 C 1.0072(4) 0.2094(4) -0.1356(3)
H1 H 0.605(4) 0.159(4) -0.014(3)
H2 H 0.558(4) 0.315(3) 0.247(3)
H3 H 0.225(5) 0.301(5) 0.318(3)
H4 H 0.356(6) 0.125(6) 0.372(4)
H5 H 0.190(5) 0.127(4) 0.298(3)
H6 H 0.751(5) 0.476(5) 0.134(3)
H7 H 0.969(5) 0.292(4) 0.099(3)
H8 H 0.806(5) 0.484(5) 0.002(3)
H9 H 0.577(4) 0.273(4) -0.246(3)
H10 H 1.094(5) 0.253(4) -0.438(3)
H11 H 1.247(5) 0.203(4) -0.241(3)
H12 H 1.073(4) 0.191(4) -0.062(3)
#END
