
#######################################################################
#
#                 Cambridge Crystallographic Data Centre
#                                CCDC
#
#######################################################################
#
# If this CIF has been generated from an entry in the Cambridge
# Structural Database, then it will include bibliographic, chemical,
# crystal, experimental, refinement or atomic coordinate data resulting
# from the CCDC's data processing and validation procedures.
#
#######################################################################

data_CSD_CIF_YIKBUP
_audit_creation_date 1995-06-19
_audit_creation_method CSD-ConQuest-V1
_database_code_CSD YIKBUP
_chemical_formula_sum 'C4 H6 N2 O7'
_chemical_formula_moiety
;
C4 H6 N2 O7
;
_journal_coden_Cambridge 95
_journal_year 1992
_journal_page_first 2755
_journal_name_full 'Izv.Akad.Nauk SSSR,Ser.Khim.(Russ.)(Russ.Chem.Bull.) '
loop_
_publ_author_name
"B.S.Fedorov"
"N.I.Golovina"
"L.S.Barinova"
"V.V.Arakcheeva"
"G.V.Lagodzinskaya"
"M.V.Loginova"
"R.F.Trofimova"
"V.Z.Laishev"
"V.F.Lazarev"
"S.P.Smirnov"
"I.Sh.Abdrakhmanov"
"A.I.Firkin"
"L.O.Atovmyan"
_chemical_name_systematic
;
2,3-Dihydroxy-4,4-dinitrotetrahydrofuran
;
_chemical_melting_point 384.15
_cell_volume    719.320
_exptl_crystal_density_diffrn 1.791
_exptl_special_details
;
Melting point range 384.15-386.15K

;
_diffrn_ambient_temperature ?
_diffrn_special_details
;
The study was carried out at room temperature,in the range 283-303K

;
#These two values have been output from a single CSD field.
_refine_ls_R_factor_gt 0.07
_refine_ls_wR_factor_gt 0.07
_symmetry_cell_setting monoclinic
_symmetry_space_group_name_H-M 'P 1 1 21/n'
_symmetry_Int_Tables_number 14
loop_
_symmetry_equiv_pos_site_id
_symmetry_equiv_pos_as_xyz
1 x,y,z
2 1/2-x,1/2-y,1/2+z
3 -x,-y,-z
4 -1/2+x,-1/2+y,-1/2-z
_cell_length_a 10.516(2)
_cell_length_b 5.990(2)
_cell_length_c 11.445(9)
_cell_angle_alpha 90
_cell_angle_beta 90
_cell_angle_gamma 86.17(2)
_cell_formula_units_Z 4
loop_
_atom_type_symbol
_atom_type_radius_bond
C 0.68
H 0.23
N 0.68
O 0.68
loop_
_atom_site_label
_atom_site_type_symbol
_atom_site_fract_x
_atom_site_fract_y
_atom_site_fract_z
C1 C 0.1855(2) 1.0535(3) 0.1502(2)
C2 C 0.2718(2) 0.9861(3) 0.0469(2)
C3 C 0.3506(2) 1.1886(3) 0.0331(2)
C4 C 0.1773(2) 1.3087(3) 0.1500(2)
N1 N 0.0563(2) 0.9591(3) 0.1451(2)
N2 N 0.2469(2) 0.9556(3) 0.2616(1)
O1 O 0.0445(2) 0.8026(3) 0.0780(2)
O2 O -0.0265(2) 1.0425(3) 0.2061(2)
O3 O 0.2005(2) 0.7965(3) 0.3060(2)
O4 O 0.3431(2) 1.0372(4) 0.2922(2)
O5 O 0.3491(1) 0.7899(2) 0.0639(1)
O6 O 0.2599(2) 1.3726(2) 0.0603(1)
O7 O 0.3924(2) 1.2140(3) -0.0789(1)
H1 H 0.4088(36) 0.7783(64) 0.1124(37)
H2 H 0.2130(36) 0.9890(56) -0.027(4)
H3 H 0.4310(36) 1.1910(56) 0.0970(37)
H4 H 0.4833(30) 1.2104(50) -0.0793(27)
H5 H 0.0839(30) 1.3613(56) 0.1257(30)
H6 H 0.210(3) 1.3517(45) 0.2243(30)
#END
