
#######################################################################
#
#                 Cambridge Crystallographic Data Centre
#                                CCDC
#
#######################################################################
#
# If this CIF has been generated from an entry in the Cambridge
# Structural Database, then it will include bibliographic, chemical,
# crystal, experimental, refinement or atomic coordinate data resulting
# from the CCDC's data processing and validation procedures.
#
#######################################################################

data_CSD_CIF_YIKQUE
_audit_creation_date 2002-03-22
_audit_creation_method CSD-ConQuest-V1
_database_code_CSD YIKQUE
_database_code_depnum_ccdc_archive 'CCDC 178252'
_chemical_formula_sum 'C12 H11 N1 O2'
_chemical_formula_moiety
;
C12 H11 N1 O2
;
_journal_coden_Cambridge 15
_journal_volume 79
_journal_year 2001
_journal_page_first 1272
_journal_name_full 'Can.J.Chem. '
loop_
_publ_author_name
"S.Wolfe"
"Yih-Huang Hsieh"
"R.J.Batchelor"
"F.W.B.Einstein"
"I.D.Gay"
_chemical_name_systematic
;
2-Benzyloxypyridine-1-oxide
;
_cell_volume   2029.018
_exptl_crystal_colour 'colorless'
_exptl_crystal_density_diffrn 1.317
_exptl_crystal_description 'prism'
_exptl_crystal_preparation 'ethyl acetate'
_diffrn_ambient_temperature 293
#These two values have been output from a single CSD field.
_refine_ls_R_factor_gt 0.041
_refine_ls_wR_factor_gt 0.041
_symmetry_cell_setting monoclinic
_symmetry_space_group_name_H-M 'P 21/a'
_symmetry_Int_Tables_number 14
loop_
_symmetry_equiv_pos_site_id
_symmetry_equiv_pos_as_xyz
1 x,y,z
2 1/2+x,1/2-y,z
3 -x,-y,-z
4 -1/2-x,-1/2+y,-z
_cell_length_a 16.448(2)
_cell_length_b 6.3356(7)
_cell_length_c 20.941(3)
_cell_angle_alpha 90
_cell_angle_beta 111.597(9)
_cell_angle_gamma 90
_cell_formula_units_Z 8
loop_
_atom_type_symbol
_atom_type_radius_bond
C 0.68
H 0.23
N 0.68
O 0.68
loop_
_atom_site_label
_atom_site_type_symbol
_atom_site_fract_x
_atom_site_fract_y
_atom_site_fract_z
O1 O 0.81405(13) 0.5371(4) 0.46324(11)
O2 O 0.88217(14) 0.8966(4) 0.46805(13)
O3 O 0.84879(13) 0.4717(4) 0.04698(11)
O4 O 0.90888(14) 0.1155(4) 0.03022(12)
N1 N 0.91297(16) 0.7399(4) 0.44299(14)
N2 N 0.96443(17) 0.2699(5) 0.05653(13)
C1 C 0.87759(20) 0.5429(5) 0.43809(16)
C2 C 0.90925(21) 0.3817(6) 0.41064(17)
C3 C 0.97716(21) 0.4144(6) 0.38896(18)
C4 C 1.01268(22) 0.6092(7) 0.39508(18)
C5 C 0.98116(21) 0.7702(6) 0.42269(18)
C6 C 0.76526(21) 0.3419(5) 0.45484(17)
C7 C 0.70127(21) 0.3156(6) 0.38307(18)
C8 C 0.69078(24) 0.1254(6) 0.35003(19)
C9 C 0.6283(3) 0.1017(8) 0.28540(24)
C10 C 0.5754(3) 0.264(1) 0.25372(22)
C11 C 0.5859(3) 0.4577(8) 0.28548(23)
C12 C 0.64861(24) 0.4823(6) 0.34912(21)
C13 C 0.93559(20) 0.4623(6) 0.06674(16)
C14 C 0.99453(21) 0.6237(6) 0.09422(17)
C15 C 1.08213(21) 0.5904(7) 0.10982(18)
C16 C 1.10988(21) 0.3952(7) 0.09767(18)
C17 C 1.05075(20) 0.2393(6) 0.07056(18)
C18 C 0.80961(20) 0.6705(5) 0.05337(17)
C19 C 0.81455(19) 0.7106(6) 0.12490(18)
C20 C 0.7917(3) 0.5535(7) 0.1616(3)
C21 C 0.7905(3) 0.5931(12) 0.2255(3)
C22 C 0.8122(3) 0.7858(13) 0.2544(3)
C23 C 0.8360(3) 0.9423(9) 0.2199(3)
C24 C 0.83691(22) 0.9047(7) 0.15474(21)
H1 H 0.88378(21) 0.2453(6) 0.40656(17)
H2 H 0.99888(21) 0.3021(6) 0.36968(18)
H3 H 1.06022(22) 0.6336(7) 0.38057(18)
H4 H 1.00732(21) 0.9058(6) 0.42738(18)
H5 H 0.80502(21) 0.2267(5) 0.46590(17)
H6 H 0.73428(21) 0.3430(5) 0.48521(17)
H7 H 0.72666(24) 0.0088(6) 0.37172(19)
H8 H 0.6215(3) -0.0305(8) 0.26259(24)
H9 H 0.5313(3) 0.2454(10) 0.20952(22)
H10 H 0.5500(3) 0.5736(8) 0.26335(23)
H11 H 0.65637(24) 0.6162(6) 0.37093(21)
H12 H 0.97436(21) 0.7577(6) 0.10244(17)
H13 H 1.12301(21) 0.7010(7) 0.12862(18)
H14 H 1.17036(21) 0.3697(7) 0.10826(18)
H15 H 1.07027(20) 0.1058(6) 0.06126(18)
H16 H 0.83958(20) 0.7808(5) 0.04046(17)
H17 H 0.74996(20) 0.6700(5) 0.02345(17)
H18 H 0.7762(3) 0.4178(7) 0.1414(3)
H19 H 0.7746(3) 0.4834(12) 0.2495(3)
H20 H 0.8110(3) 0.8116(13) 0.2987(3)
H21 H 0.8519(3) 1.0769(9) 0.2407(3)
H22 H 0.85303(22) 1.0146(7) 0.13090(21)
#END
