
#######################################################################
#
#                 Cambridge Crystallographic Data Centre
#                                CCDC
#
#######################################################################
#
# If this CIF has been generated from an entry in the Cambridge
# Structural Database, then it will include bibliographic, chemical,
# crystal, experimental, refinement or atomic coordinate data resulting
# from the CCDC's data processing and validation procedures.
#
#######################################################################

data_CSD_CIF_YILDII
_audit_creation_date 2013-11-01
_audit_creation_method CSD-ConQuest-V1
_database_code_CSD YILDII
_database_code_depnum_ccdc_archive 'CCDC 837979'
_chemical_formula_sum 'C20 H17 N3 O3'
_chemical_formula_moiety
;
C20 H17 N3 O3
;
_journal_coden_Cambridge 493
_journal_volume 67
_journal_year 2013
_journal_page_first 166
_journal_name_full 'Eur.J.Med.Chem. '
loop_
_publ_author_name
"C.E.Rodrigues-Santos"
"L.L.Leon"
"A.J.Bortoluzzi"
"M.M.Canto-Cavalheiro"
"G.C.Machado"
"A.Echevarria"
_chemical_name_systematic
;
N-(4-Nitrophenyl)-N'-phenyl-4-methoxybenzamidine
;
_cell_volume   1796.039
_exptl_crystal_colour 'yellow'
_exptl_crystal_density_diffrn 1.285
_exptl_crystal_description 'prismatic'
_diffrn_ambient_temperature 293
#These two values have been output from a single CSD field.
_refine_ls_R_factor_gt 0.0534
_refine_ls_wR_factor_gt 0.0534
_symmetry_cell_setting triclinic
_symmetry_space_group_name_H-M 'P -1'
_symmetry_Int_Tables_number 2
loop_
_symmetry_equiv_pos_site_id
_symmetry_equiv_pos_as_xyz
1 x,y,z
2 -x,-y,-z
_cell_length_a 10.4554(15)
_cell_length_b 11.4787(16)
_cell_length_c 16.6234(18)
_cell_angle_alpha 78.403(9)
_cell_angle_beta 73.919(9)
_cell_angle_gamma 70.702(9)
_cell_formula_units_Z 4
loop_
_atom_type_symbol
_atom_type_radius_bond
C 0.68
H 0.23
N 0.68
O 0.68
loop_
_atom_site_label
_atom_site_type_symbol
_atom_site_fract_x
_atom_site_fract_y
_atom_site_fract_z
N1 N 0.3923(3) 0.9834(2) 0.86181(18)
C1 C 0.3324(3) 0.8896(3) 0.8925(2)
N2 N 0.2360(3) 0.8956(2) 0.96021(17)
C2 C 0.3746(3) 1.0900(3) 0.8987(2)
C3 C 0.3281(4) 1.0974(3) 0.9839(2)
H1 H 0.30550 1.03060 1.02040
C4 C 0.3151(4) 1.2045(4) 1.0153(3)
H2 H 0.28050 1.21030 1.07270
C5 C 0.3521(4) 1.3016(4) 0.9634(3)
H3 H 0.34540 1.37250 0.98520
C6 C 0.3989(4) 1.2939(3) 0.8796(3)
H4 H 0.42340 1.36030 0.84370
C7 C 0.4106(4) 1.1884(3) 0.8466(2)
H5 H 0.44300 1.18430 0.78880
C8 C 0.3867(3) 0.7862(2) 0.83860(17)
C9 C 0.2977(3) 0.7415(3) 0.8144(2)
H6 H 0.20220 0.77690 0.83180
C10 C 0.3467(3) 0.6454(3) 0.7650(2)
H7 H 0.28460 0.61690 0.74930
C11 C 0.4874(3) 0.5923(3) 0.73921(18)
C12 C 0.5779(3) 0.6343(3) 0.76346(18)
H8 H 0.67320 0.59710 0.74720
C13 C 0.5284(3) 0.7314(3) 0.81186(17)
H9 H 0.59100 0.76030 0.82670
O1 O 0.5474(2) 0.49568(19) 0.69148(14)
C14 C 0.4610(4) 0.4638(4) 0.6514(3)
H10 H 0.39350 0.43140 0.69350
H11 H 0.51740 0.40210 0.61470
H12 H 0.41410 0.53660 0.61910
C15 C 0.1901(3) 0.7937(3) 1.00172(19)
C16 C 0.0491(3) 0.8041(3) 1.0222(2)
H13 H -0.01360 0.87750 1.00480
C17 C 0.0016(3) 0.7073(3) 1.0678(2)
H14 H -0.09260 0.71360 1.08000
C18 C 0.0953(3) 0.6001(3) 1.09530(18)
C19 C 0.2339(3) 0.5885(3) 1.07886(18)
H15 H 0.29510 0.51650 1.09920
C20 C 0.2818(3) 0.6849(3) 1.03169(19)
H16 H 0.37630 0.67760 1.01960
N3 N 0.0423(4) 0.5008(3) 1.14655(18)
O2 O -0.0809(3) 0.5096(3) 1.1602(2)
O3 O 0.1232(3) 0.4104(2) 1.17877(16)
H17 H 0.437(3) 0.983(3) 0.8128(19)
C21 C 0.8607(3) 0.5402(3) 0.39335(19)
N4 N 0.7556(3) 0.5577(2) 0.45619(16)
C22 C 0.8904(3) 0.3125(3) 0.3987(2)
C23 C 0.8289(4) 0.2864(3) 0.4824(2)
H18 H 0.80020 0.34620 0.51910
C24 C 0.8104(4) 0.1692(4) 0.5110(3)
H19 H 0.76810 0.15140 0.56720
C25 C 0.8530(5) 0.0802(4) 0.4584(4)
H20 H 0.83980 0.00230 0.47850
C26 C 0.9146(4) 0.1058(3) 0.3768(3)
H21 H 0.94370 0.04500 0.34080
C27 C 0.9353(3) 0.2215(3) 0.3458(2)
H22 H 0.97920 0.23750 0.28960
C28 C 0.9265(3) 0.6364(2) 0.34288(18)
C29 C 1.0673(3) 0.6186(3) 0.32643(18)
H23 H 1.12370 0.54300 0.34630
C30 C 1.1279(3) 0.7092(3) 0.2815(2)
H24 H 1.22340 0.69560 0.27170
C31 C 1.0432(4) 0.8207(3) 0.25130(19)
C32 C 0.9029(4) 0.8403(3) 0.2663(2)
H25 H 0.84680 0.91560 0.24570
C33 C 0.8448(3) 0.7493(3) 0.3117(2)
H26 H 0.74920 0.76350 0.32170
O4 O 1.0905(3) 0.9188(2) 0.20649(17)
C34 C 1.2268(6) 0.9109(5) 0.1955(3)
H27 H 1.25170 0.88850 0.24910
H28 H 1.24130 0.98990 0.17050
H29 H 1.28350 0.84880 0.15910
C35 C 0.7101(3) 0.6640(3) 0.49712(18)
C36 C 0.7990(3) 0.7006(3) 0.52861(18)
H30 H 0.89350 0.65840 0.51750
C37 C 0.7493(3) 0.7985(3) 0.57606(18)
H31 H 0.80920 0.82250 0.59720
C38 C 0.6095(3) 0.8598(3) 0.59143(17)
C39 C 0.5187(3) 0.8269(3) 0.56077(19)
H32 H 0.42460 0.87070 0.57100
C40 C 0.5697(3) 0.7281(3) 0.5148(2)
H33 H 0.50870 0.70360 0.49500
N5 N 0.5548(4) 0.9607(3) 0.64453(17)
O5 O 0.6347(3) 0.9830(3) 0.67687(19)
O6 O 0.4301(3) 1.0133(2) 0.65932(17)
N6 N 0.9185(3) 0.4261(2) 0.36447(18)
H34 H 0.975(3) 0.428(2) 0.3130(18)
#END
