
#######################################################################
#
#                 Cambridge Crystallographic Data Centre
#                                CCDC
#
#######################################################################
#
# If this CIF has been generated from an entry in the Cambridge
# Structural Database, then it will include bibliographic, chemical,
# crystal, experimental, refinement or atomic coordinate data resulting
# from the CCDC's data processing and validation procedures.
#
#######################################################################

data_CSD_CIF_YILFII
_audit_creation_date 1995-07-26
_audit_creation_method CSD-ConQuest-V1
_database_code_CSD YILFII
_chemical_formula_sum 'C17 H10 N6 O8'
_chemical_formula_moiety
;
C17 H10 N6 O8
;
_journal_coden_Cambridge 188
_journal_year 1995
_journal_page_first 3
_journal_name_full 'J.Chem.Soc.,Perkin Trans.2 '
loop_
_publ_author_name
"I.F.Perepichka"
"A.F.Popov"
"T.V.Artyomova"
"A.N.Vdovichenko"
"M.R.Bryce"
"A.S.Batsanov"
"J.A.K.Howard"
"J.L.Megson"
_chemical_name_systematic
;
9-((Cyano)(dimethylamino)methylene)-2,4,5,7-tetranitrofluorene
;
_chemical_melting_point 569.15
_cell_volume   3475.478
_exptl_crystal_colour 'dark purple'
_exptl_crystal_density_diffrn 1.63
_exptl_special_details
;
Melting point range 569.15-571.15K

;
_diffrn_ambient_temperature 150
#These two values have been output from a single CSD field.
_refine_ls_R_factor_gt 0.0467
_refine_ls_wR_factor_gt 0.0467
_symmetry_cell_setting monoclinic
_symmetry_space_group_name_H-M 'C 2/c'
_symmetry_Int_Tables_number 15
loop_
_symmetry_equiv_pos_site_id
_symmetry_equiv_pos_as_xyz
1 x,y,z
2 -x,y,1/2-z
3 1/2+x,1/2+y,z
4 1/2-x,1/2+y,1/2-z
5 -x,-y,-z
6 x,-y,-1/2+z
7 -1/2-x,-1/2-y,-z
8 -1/2+x,-1/2-y,-1/2+z
_cell_length_a 19.313(6)
_cell_length_b 10.680(3)
_cell_length_c 17.036(5)
_cell_angle_alpha 90
_cell_angle_beta 98.48(3)
_cell_angle_gamma 90
_cell_formula_units_Z 8
loop_
_atom_type_symbol
_atom_type_radius_bond
C 0.68
H 0.23
N 0.68
O 0.68
loop_
_atom_site_label
_atom_site_type_symbol
_atom_site_fract_x
_atom_site_fract_y
_atom_site_fract_z
O1 O 0.1015(1) -0.5266(2) 0.6078(2)
O2 O 0.0500(1) -0.4481(3) 0.7015(2)
O3 O 0.0722(1) 0.0069(2) 0.7425(2)
O4 O 0.1828(1) 0.0509(2) 0.7728(1)
O5 O 0.1427(1) 0.1478(2) 0.6180(1)
O6 O 0.2084(1) 0.2890(2) 0.6850(2)
O7 O 0.4395(1) 0.3053(2) 0.6028(2)
O8 O 0.4764(1) 0.1466(2) 0.5406(2)
N1 N 0.2986(1) -0.5188(2) 0.5351(2)
N2 N 0.4211(1) -0.2986(2) 0.5880(2)
N3 N 0.0923(1) -0.4435(3) 0.6542(2)
N4 N 0.1338(1) -0.0100(3) 0.7369(2)
N5 N 0.1995(1) 0.1896(2) 0.6489(2)
N6 N 0.4343(2) 0.1968(3) 0.5774(2)
C1 C 0.1956(1) -0.3348(3) 0.6225(2)
C2 C 0.1339(2) -0.3274(3) 0.6534(2)
C3 C 0.1117(2) -0.2206(3) 0.6884(2)
C4 C 0.1521(2) -0.1147(3) 0.6876(2)
C5 C 0.2627(2) 0.1168(3) 0.6389(2)
C6 C 0.3186(2) 0.1860(3) 0.6211(2)
C7 C 0.3739(2) 0.1228(3) 0.5960(2)
C8 C 0.3756(2) -0.00500 0.5869(2)
C9 C 0.3065(1) -0.2086(2) 0.6011(2)
C10 C 0.2366(1) -0.2269(3) 0.6228(2)
C11 C 0.2132(1) -0.1116(3) 0.6515(2)
C12 C 0.2634(1) -0.0150(3) 0.6377(2)
C13 C 0.3209(1) -0.0753(2) 0.6098(2)
C14 C 0.3511(1) -0.3021(3) 0.5819(2)
C15 C 0.3209(1) -0.4223(3) 0.5541(2)
C16 C 0.4599(2) -0.3956(3) 0.5505(3)
C17 C 0.4651(2) -0.2276(3) 0.6491(2)
H1 H 0.2094(13) -0.4148(25) 0.6053(15)
H2 H 0.0722(17) -0.2223(30) 0.7141(19)
H3 H 0.3181(16) 0.273(3) 0.6220(19)
H4 H 0.4105(15) -0.0406(25) 0.5630(16)
H5 H 0.4286(20) -0.4205(34) 0.4971(23)
H6 H 0.4695(18) -0.4676(34) 0.5859(22)
H7 H 0.5035(18) -0.3528(30) 0.5388(19)
H8 H 0.4975(16) -0.2881(29) 0.6824(18)
H9 H 0.4920(16) -0.1655(28) 0.6242(18)
H10 H 0.4352(14) -0.1841(25) 0.6855(16)
#END
