
#######################################################################
#
#                 Cambridge Crystallographic Data Centre
#                                CCDC
#
#######################################################################
#
# If this CIF has been generated from an entry in the Cambridge
# Structural Database, then it will include bibliographic, chemical,
# crystal, experimental, refinement or atomic coordinate data resulting
# from the CCDC's data processing and validation procedures.
#
#######################################################################

data_CSD_CIF_YILKEJ
_audit_creation_date 1995-07-26
_audit_creation_method CSD-ConQuest-V1
_database_code_CSD YILKEJ
_chemical_formula_sum 'C17 H26 N2 O2'
_chemical_formula_moiety
;
C17 H26 N2 O2
;
_journal_coden_Cambridge 119
_journal_volume 323
_journal_year 1994
_journal_page_first 139
_journal_name_full 'J.Mol.Struct. '
loop_
_publ_author_name
"A.G.Giumanini"
"G.Verardo"
"S.Bruckner"
"L.Malpezzi"
"G.Cerioni"
_chemical_name_systematic
;
N-(3-Nitro-2,6-di-isopropylphenyl)piperidine
;
_chemical_melting_point 365.15
_cell_volume   1706.573
_exptl_crystal_colour 'yellow'
_exptl_crystal_density_diffrn 1.122
_diffrn_ambient_temperature ?
_diffrn_special_details
;
The study was carried out at room temperature,in the range 283-303K

;
_refine_special_details
;
The oxygens of the nitro group are disordered over 2 positions.

;
#These two values have been output from a single CSD field.
_refine_ls_R_factor_gt 0.057
_refine_ls_wR_factor_gt 0.057
_symmetry_cell_setting monoclinic
_symmetry_space_group_name_H-M 'P 21/c'
_symmetry_Int_Tables_number 14
loop_
_symmetry_equiv_pos_site_id
_symmetry_equiv_pos_as_xyz
1 x,y,z
2 -x,1/2+y,1/2-z
3 -x,-y,-z
4 x,-1/2-y,-1/2+z
_cell_length_a 12.727(3)
_cell_length_b 10.842(3)
_cell_length_c 12.377(3)
_cell_angle_alpha 90
_cell_angle_beta 92.22(3)
_cell_angle_gamma 90
_cell_formula_units_Z 4
loop_
_atom_type_symbol
_atom_type_radius_bond
C 0.68
N 0.68
O 0.68
loop_
_atom_site_label
_atom_site_type_symbol
_atom_site_fract_x
_atom_site_fract_y
_atom_site_fract_z
C1 C 0.2154(3) 0.0813(3) 0.7495(3)
C2 C 0.2621(3) -0.0005(3) 0.6769(3)
C3 C 0.2136(3) -0.0103(3) 0.5757(3)
C4 C 0.1241(3) 0.0529(4) 0.5440(3)
C5 C 0.0811(3) 0.1311(4) 0.6154(3)
C6 C 0.1243(3) 0.1475(3) 0.7185(3)
N1 N 0.2653(2) 0.0932(3) 0.8537(2)
C7 C 0.2164(4) 0.0354(4) 0.9439(3)
C8 C 0.2939(4) 0.0179(5) 1.0364(4)
C9 C 0.3500(4) 0.1335(6) 1.0679(4)
C10 C 0.3968(4) 0.1906(5) 0.9710(4)
C11 C 0.3211(4) 0.2057(4) 0.8788(3)
N2 N 0.2523(3) -0.0922(4) 0.4913(3)
O1 O 0.1966(4) -0.1745(5) 0.4577(4)
O2? O 0.2518(13) -0.1981(11) 0.4998(11)
O3 O 0.3369(4) -0.0740(5) 0.4580(4)
O4? O 0.2680(12) -0.0432(11) 0.3941(10)
C12 C 0.3620(3) -0.0707(4) 0.7123(4)
C13 C 0.3556(4) -0.2028(5) 0.7135(7)
C14 C 0.4588(4) -0.0060(6) 0.6821(5)
C15 C 0.0704(3) 0.2352(4) 0.7935(3)
C16 C -0.0375(4) 0.1898(5) 0.8227(5)
C17 C 0.0615(5) 0.3629(4) 0.7456(4)
#END
