
#######################################################################
#
#                 Cambridge Crystallographic Data Centre
#                                CCDC
#
#######################################################################
#
# If this CIF has been generated from an entry in the Cambridge
# Structural Database, then it will include bibliographic, chemical,
# crystal, experimental, refinement or atomic coordinate data resulting
# from the CCDC's data processing and validation procedures.
#
#######################################################################

data_CSD_CIF_YILLEM
_audit_creation_date 2013-11-01
_audit_creation_method CSD-ConQuest-V1
_database_code_CSD YILLEM
_database_code_depnum_ccdc_archive 'CCDC 918790'
_chemical_formula_sum 'C9 H8 N4 O2'
_chemical_formula_moiety
;
C9 H8 N4 O2
;
_journal_coden_Cambridge 24
_journal_volume 54
_journal_year 2013
_journal_page_first 3956
_journal_name_full 'Tetrahedron Lett. '
loop_
_publ_author_name
"A.Moghimia"
"H.R.Khavassib"
"R.H.khanmiria"
"A.Shaabanib"
_chemical_name_systematic
;
N'-Hydroxy-4-oxo-3,4-dihydroquinazoline-2-carboximidamide
;
_cell_volume    896.446
_exptl_crystal_colour 'colorless'
_exptl_crystal_density_diffrn 1.513
_exptl_crystal_description 'Needle'
_diffrn_ambient_temperature 298
#These two values have been output from a single CSD field.
_refine_ls_R_factor_gt 0.0753
_refine_ls_wR_factor_gt 0.0753
_symmetry_cell_setting monoclinic
_symmetry_space_group_name_H-M 'P 21/c'
_symmetry_Int_Tables_number 14
loop_
_symmetry_equiv_pos_site_id
_symmetry_equiv_pos_as_xyz
1 x,y,z
2 -x,1/2+y,1/2-z
3 -x,-y,-z
4 x,-1/2-y,-1/2+z
_cell_length_a 5.1502(5)
_cell_length_b 8.6637(8)
_cell_length_c 20.163(2)
_cell_angle_alpha 90
_cell_angle_beta 94.851(8)
_cell_angle_gamma 90
_cell_formula_units_Z 4
loop_
_atom_type_symbol
_atom_type_radius_bond
C 0.68
H 0.23
N 0.68
O 0.68
loop_
_atom_site_label
_atom_site_type_symbol
_atom_site_fract_x
_atom_site_fract_y
_atom_site_fract_z
C1 C 0.6260(4) 0.8860(3) 0.41514(11)
C2 C 0.8127(5) 0.9947(3) 0.40009(13)
H1 H 0.93850 1.02730 0.43290
C3 C 0.8097(5) 1.0532(3) 0.33666(13)
H2 H 0.93510 1.12510 0.32690
C4 C 0.6226(6) 1.0072(3) 0.28689(13)
H3 H 0.62340 1.04850 0.24430
C5 C 0.4363(5) 0.9006(3) 0.30048(12)
H4 H 0.31130 0.86940 0.26720
C6 C 0.4362(4) 0.8394(3) 0.36469(11)
C7 C 0.2421(4) 0.7256(3) 0.38045(11)
C8 C 0.4560(4) 0.7290(3) 0.49164(11)
C9 C 0.4574(4) 0.6598(3) 0.55899(11)
N1 N 0.6360(4) 0.8253(2) 0.47941(10)
N2 N 0.2578(4) 0.6821(2) 0.44605(9)
H5 H 0.146(5) 0.618(3) 0.4569(14)
N3 N 0.6663(5) 0.6928(3) 0.60196(12)
H6 H 0.676(6) 0.659(4) 0.6392(17)
H7 H 0.796(7) 0.744(5) 0.5857(19)
N4 N 0.2631(4) 0.5748(2) 0.57140(9)
O1 O 0.0756(3) 0.6716(2) 0.33962(8)
O2 O 0.3031(4) 0.5216(2) 0.63746(8)
H8 H 0.174(7) 0.457(4) 0.6432(16)
#END
