
#######################################################################
#
#                 Cambridge Crystallographic Data Centre
#                                CCDC
#
#######################################################################
#
# If this CIF has been generated from an entry in the Cambridge
# Structural Database, then it will include bibliographic, chemical,
# crystal, experimental, refinement or atomic coordinate data resulting
# from the CCDC's data processing and validation procedures.
#
#######################################################################

data_CSD_CIF_YILPEQ
_audit_creation_date 2013-11-01
_audit_creation_method CSD-ConQuest-V1
_database_code_CSD YILPEQ
_database_code_depnum_ccdc_archive 'CCDC 924422'
_chemical_formula_sum 'C8 H10 N4 O3'
_chemical_formula_moiety
;
C8 H10 N4 O3
;
_journal_coden_Cambridge 122
_journal_year 2013
_journal_page_first 819
_journal_name_full 'Khim.Get.Soedin.,SSSR(Russ.)(Chem.Heterocycl.Compd.) '
loop_
_publ_author_name
"E.B.Gorbunov"
"R.K.Novikova"
"P.V.Plekhanov"
"P.A.Slepukhin"
"G.L.Rusinov"
"V.L.Rusinov"
"V.N.Charushin"
"O.N.Chupakhin"
_chemical_name_systematic
;
4-(5-Nitropyrimidin-2-yl)morpholine
;
_cell_volume   1824.155
_exptl_crystal_colour 'light yellow'
_exptl_crystal_density_diffrn 1.531
_exptl_crystal_description 'prism'
_diffrn_ambient_temperature 295
#These two values have been output from a single CSD field.
_refine_ls_R_factor_gt 0.0333
_refine_ls_wR_factor_gt 0.0333
_symmetry_cell_setting monoclinic
_symmetry_space_group_name_H-M 'C 2/c'
_symmetry_Int_Tables_number 15
loop_
_symmetry_equiv_pos_site_id
_symmetry_equiv_pos_as_xyz
1 x,y,z
2 -x,y,1/2-z
3 1/2+x,1/2+y,z
4 1/2-x,1/2+y,1/2-z
5 -x,-y,-z
6 x,-y,-1/2+z
7 -1/2-x,-1/2-y,-z
8 -1/2+x,-1/2-y,-1/2+z
_cell_length_a 13.184
_cell_length_b 6.094(1)
_cell_length_c 22.709(4)
_cell_angle_alpha 90
_cell_angle_beta 91.14(2)
_cell_angle_gamma 90
_cell_formula_units_Z 8
loop_
_atom_type_symbol
_atom_type_radius_bond
C 0.68
H 0.23
N 0.68
O 0.68
loop_
_atom_site_label
_atom_site_type_symbol
_atom_site_fract_x
_atom_site_fract_y
_atom_site_fract_z
C1 C 0.85170(11) 0.2131(3) 0.43315(7)
C2 C 0.89143(11) 0.0743(3) 0.54158(6)
N1 N 0.88071(10) 0.3650(2) 0.47373(5)
O1 O 0.93895(10) 0.1313(2) 0.63757(5)
O2 O 0.86426(9) 0.3831(2) 0.26008(4)
N2 N 0.84017(9) -0.0029(2) 0.44402(5)
O3 O 0.90799(10) -0.1987(3) 0.60959(5)
N3 N 0.8329(1) 0.2822(2) 0.37860(5)
C3 C 0.86045(11) -0.0678(3) 0.49789(7)
H1 H 0.85360 -0.21580 0.50690
C4 C 0.89967(11) 0.2915(3) 0.52720(7)
H2 H 0.91940 0.39080 0.55630
N4 N 0.91473(10) -0.0024(3) 0.59988(6)
C5 C 0.79631(13) 0.1371(3) 0.33167(6)
H3 H 0.72650 0.17290 0.32140
H4 H 0.79860 -0.01400 0.34510
C6 C 0.84527(13) 0.5079(3) 0.35988(6)
H5 H 0.87900 0.59140 0.39090
H6 H 0.77930 0.57340 0.35220
C7 C 0.86108(13) 0.1632(3) 0.27900(7)
H7 H 0.92940 0.11380 0.28860
H8 H 0.83450 0.07210 0.24730
C8 C 0.90702(12) 0.5156(3) 0.30516(7)
H9 H 0.91110 0.66600 0.29140
H10 H 0.97540 0.46550 0.31430
#END
