
#######################################################################
#
#                 Cambridge Crystallographic Data Centre
#                                CCDC
#
#######################################################################
#
# If this CIF has been generated from an entry in the Cambridge
# Structural Database, then it will include bibliographic, chemical,
# crystal, experimental, refinement or atomic coordinate data resulting
# from the CCDC's data processing and validation procedures.
#
#######################################################################

data_CSD_CIF_YILPOY
_audit_creation_date 1995-08-02
_audit_creation_method CSD-ConQuest-V1
_database_code_CSD YILPOY
_database_code_depnum_ccdc_archive 'CCDC 1303194'
_chemical_formula_sum 'C13 H12 N4 O8'
_chemical_formula_moiety
;
C13 H12 N4 O8
;
_journal_coden_Cambridge 3
_journal_volume 48
_journal_year 1994
_journal_page_first 917
_journal_name_full 'Acta Chem.Scand. '
loop_
_publ_author_name
"J.L.Calvert"
"L.Eberson"
"M.P.Hartshorn"
"W.T.Robinson"
"D.J.Timmerman-Vaughan"
_chemical_name_systematic
;
trans-2,6-Dimethyl-1-nitro-4-trinitromethyl-1,4-dihydronaphthalene
;
_chemical_melting_point 377.15
_cell_volume    723.943
_exptl_crystal_colour 'colorless'
_exptl_crystal_density_diffrn 1.616
_exptl_special_details
;
Melts with decomposition.

;
_diffrn_ambient_temperature 130
#These two values have been output from a single CSD field.
_refine_ls_R_factor_gt 0.0368
_refine_ls_wR_factor_gt 0.0368
loop_
_citation_database_id_CSD
_citation_special_details
YILPUE "is a stereoisomer of this entry"
_symmetry_cell_setting triclinic
_symmetry_space_group_name_H-M 'P -1'
_symmetry_Int_Tables_number 2
loop_
_symmetry_equiv_pos_site_id
_symmetry_equiv_pos_as_xyz
1 x,y,z
2 -x,-y,-z
_cell_length_a 9.621
_cell_length_b 9.708
_cell_length_c 9.72
_cell_angle_alpha 101.03
_cell_angle_beta 117.6
_cell_angle_gamma 105.0
_cell_formula_units_Z 2
loop_
_atom_type_symbol
_atom_type_radius_bond
C 0.68
H 0.23
N 0.68
O 0.68
loop_
_atom_site_label
_atom_site_type_symbol
_atom_site_fract_x
_atom_site_fract_y
_atom_site_fract_z
O1 O 0.6045(2) 0.4669(2) 0.2415(2)
O2 O 0.4521(2) 0.3290(2) -0.0202(2)
O3 O 0.8793(2) 0.1109(2) 0.0469(2)
O4 O 0.8845(2) -0.0537(2) 0.1702(2)
O5 O 1.1569(2) 0.1432(2) 0.5695(2)
O6 O 1.2247(2) 0.0298(2) 0.4097(2)
O7 O 1.2140(2) 0.2307(2) 0.1635(2)
O8 O 1.3761(2) 0.3369(2) 0.4326(2)
N1 N 0.5776(2) 0.3732(2) 0.1194(2)
N2 N 0.9404(2) 0.0700(2) 0.1646(2)
N3 N 1.1647(2) 0.1153(2) 0.4475(2)
N4 N 1.2404(2) 0.2586(2) 0.3017(2)
C1 C 0.7097(3) 0.3051(2) 0.1422(2)
C2 C 0.7291(3) 0.2295(2) 0.2674(2)
C3 C 0.8818(3) 0.2402(2) 0.3802(2)
C4 C 1.0436(2) 0.3197(2) 0.3895(2)
C5 C 1.0307(2) 0.4321(2) 0.2999(2)
C6 C 1.1785(2) 0.5447(2) 0.3360(2)
C7 C 1.1727(3) 0.6512(2) 0.2587(2)
C8 C 1.0130(3) 0.6463(2) 0.1477(2)
C9 C 0.8657(3) 0.5375(2) 0.1130(2)
C10 C 0.8717(2) 0.4283(2) 0.1867(2)
C11 C 0.5692(3) 0.1369(3) 0.2537(3)
C12 C 1.3339(3) 0.7662(2) 0.2926(3)
C13 C 1.0948(2) 0.1951(2) 0.3254(2)
H1 H 0.6662(3) 0.2278(2) 0.0378(2)
H2 H 0.8893(3) 0.1938(2) 0.4608(2)
H3 H 1.1314(2) 0.3767(2) 0.5050(2)
H4 H 1.2876(2) 0.5485(2) 0.4164(2)
H5 H 1.0053(3) 0.7202(2) 0.0944(2)
H6 H 0.7569(3) 0.5369(2) 0.0365(2)
H7 H 0.5983(3) 0.0951(3) 0.3403(3)
H8 H 0.4949(3) 0.0550(3) 0.1471(3)
H9 H 0.5120(3) 0.2016(3) 0.2657(3)
H10 H 1.3057(3) 0.8302(2) 0.2289(3)
H11 H 1.3930(3) 0.7140(2) 0.2614(3)
H12 H 1.4061(3) 0.8283(2) 0.4092(3)
#END
