
#######################################################################
#
#                 Cambridge Crystallographic Data Centre
#                                CCDC
#
#######################################################################
#
# If this CIF has been generated from an entry in the Cambridge
# Structural Database, then it will include bibliographic, chemical,
# crystal, experimental, refinement or atomic coordinate data resulting
# from the CCDC's data processing and validation procedures.
#
#######################################################################

data_CSD_CIF_YILQER
_audit_creation_date 2013-11-01
_audit_creation_method CSD-ConQuest-V1
_database_code_CSD YILQER
_database_code_depnum_ccdc_archive 'CCDC 913338'
_chemical_formula_sum 'C12 H12 N4 O5'
_chemical_formula_moiety
;
C12 H12 N4 O5
;
_journal_coden_Cambridge 388
_journal_volume 49
_journal_year 2013
_journal_page_first 1223
_journal_name_full 'Zh.Org.Khim.(Russ.)(Russ.J.Org.Chem.) '
loop_
_publ_author_name
"V.A.Samsonov"
"Yu.V.Gatilov"
"V.A.Savelev"
_chemical_name_systematic
;
3,5-Dinitro-6-hydroxy-1,8-diazatricyclo[7.5.0.0^2,7^]tetradeca-2(7),3,5,8-tetr
aene
;
_chemical_name_common
;
2,4-Dinitro-5,6,7,8,9,10-hexahydroazepino[1,2-a]benzimidazol-11-ium-1-olate
;
_chemical_melting_point 573
_cell_volume   1240.490
_exptl_crystal_colour 'yellow'
_exptl_crystal_density_diffrn 1.565
_exptl_crystal_description 'plate'
_diffrn_ambient_temperature 200
#These two values have been output from a single CSD field.
_refine_ls_R_factor_gt 0.0422
_refine_ls_wR_factor_gt 0.0422
_symmetry_cell_setting triclinic
_symmetry_space_group_name_H-M 'P -1'
_symmetry_Int_Tables_number 2
loop_
_symmetry_equiv_pos_site_id
_symmetry_equiv_pos_as_xyz
1 x,y,z
2 -x,-y,-z
_cell_length_a 9.5446(13)
_cell_length_b 10.1673(13)
_cell_length_c 13.9813(14)
_cell_angle_alpha 108.069(4)
_cell_angle_beta 91.971(5)
_cell_angle_gamma 104.348(5)
_cell_formula_units_Z 4
loop_
_atom_type_symbol
_atom_type_radius_bond
C 0.68
H 0.23
N 0.68
O 0.68
loop_
_atom_site_label
_atom_site_type_symbol
_atom_site_fract_x
_atom_site_fract_y
_atom_site_fract_z
O1 O 0.69635(14) 0.94949(13) 0.31524(8)
N1 N 0.52511(15) 1.15872(16) 0.37046(11)
C1 C 0.68711(17) 1.01546(17) 0.40543(11)
O2 O 0.48838(15) 1.07199(15) 0.28417(9)
N2 N 0.71173(18) 1.27628(16) 0.72250(11)
C2 C 0.61623(18) 1.12901(18) 0.44194(12)
O3 O 0.48430(17) 1.26907(17) 0.39957(11)
C3 C 0.62756(18) 1.21276(18) 0.54310(12)
H1 H 0.58190 1.28870 0.56050
O4 O 0.6552(2) 1.37679(17) 0.74289(11)
C4 C 0.70305(18) 1.18862(17) 0.61868(11)
C5 C 0.76540(17) 1.07134(16) 0.59077(11)
O5 O 0.77587(18) 1.24605(16) 0.78741(9)
N3 N 0.84082(15) 1.01362(14) 0.6456(1)
H2 H 0.857(2) 1.039(2) 0.7120(16)
C6 C 0.87264(17) 0.89844(17) 0.58225(11)
C7 C 0.94285(19) 0.80141(18) 0.61393(12)
H3 H 0.97750 0.84420 0.68730
H4 H 1.02870 0.79250 0.57720
C8 C 0.8382(2) 0.65079(18) 0.59277(12)
H5 H 0.87910 0.60030 0.63230
H6 H 0.74390 0.66130 0.61680
C9 C 0.8110(2) 0.55881(18) 0.48132(13)
H7 H 0.75050 0.46160 0.47550
H8 H 0.90580 0.54860 0.45810
C10 C 0.7363(2) 0.61413(18) 0.40923(13)
H9 H 0.71310 0.53960 0.34140
H10 H 0.64300 0.62770 0.43340
C11 C 0.8252(2) 0.75487(18) 0.39853(11)
H11 H 0.92710 0.75110 0.39160
H12 H 0.78520 0.76610 0.33620
N4 N 0.82348(14) 0.88122(14) 0.48704(9)
C12 C 0.75456(17) 0.98871(16) 0.48962(11)
O6 O 0.11118(13) 0.00617(12) 0.17001(8)
N5 N -0.06628(15) -0.29476(14) 0.09101(10)
C13 C 0.10899(16) -0.07131(16) 0.08054(11)
O7 O -0.08190(17) -0.22892(15) 0.1774(1)
N6 N 0.12311(15) -0.33053(14) -0.22972(9)
C14 C 0.02884(17) -0.22128(16) 0.03350(11)
O8 O -0.13309(17) -0.42133(14) 0.04893(11)
C15 C 0.03452(17) -0.30244(16) -0.06568(11)
H13 H -0.01810 -0.40120 -0.09020
O9 O 0.05376(15) -0.45899(12) -0.25924(9)
C16 C 0.11487(17) -0.24290(16) -0.12937(11)
C17 C 0.19251(16) -0.09538(16) -0.09084(11)
O10 O 0.20072(14) -0.27278(13) -0.28279(8)
N7 N 0.28003(14) -0.00362(14) -0.13319(10)
H14 H 0.298(2) -0.019(2) -0.1968(15)
C18 C 0.32961(17) 0.12717(16) -0.06274(11)
C19 C 0.42960(19) 0.25325(18) -0.07907(12)
H15 H 0.38150 0.33180 -0.06610
H16 H 0.44840 0.22680 -0.15080
C20 C 0.57565(19) 0.30839(19) -0.01091(13)
H17 H 0.61460 0.22560 -0.01440
H18 H 0.64550 0.37360 -0.03790
C21 C 0.56721(19) 0.38814(18) 0.09994(12)
H19 H 0.52660 0.46980 0.10290
H20 H 0.66750 0.42870 0.13570
C22 C 0.4760(2) 0.29861(18) 0.15720(12)
H21 H 0.51270 0.21380 0.15120
H22 H 0.48990 0.35680 0.22990
C23 C 0.31421(19) 0.24715(17) 0.12002(12)
H23 H 0.26000 0.21910 0.17290
H24 H 0.28210 0.32730 0.10910
N8 N 0.27786(14) 0.12307(13) 0.02432(9)
C24 C 0.19003(16) -0.01603(15) 0.00898(11)
#END
