
#######################################################################
#
#                 Cambridge Crystallographic Data Centre
#                                CCDC
#
#######################################################################
#
# If this CIF has been generated from an entry in the Cambridge
# Structural Database, then it will include bibliographic, chemical,
# crystal, experimental, refinement or atomic coordinate data resulting
# from the CCDC's data processing and validation procedures.
#
#######################################################################

data_CSD_CIF_YILSUJ
_audit_creation_date 2013-11-01
_audit_creation_method CSD-ConQuest-V1
_database_code_CSD YILSUJ
_database_code_depnum_ccdc_archive 'CCDC 918221'
_chemical_formula_sum 'C11 H13 N1 O3'
_chemical_formula_moiety
;
C11 H13 N1 O3
;
_journal_coden_Cambridge 24
_journal_volume 54
_journal_year 2013
_journal_page_first 4397
_journal_name_full 'Tetrahedron Lett. '
loop_
_publ_author_name
"D.Dev"
"N.B.Palakurthy"
"N.Kumar"
"B.Mandal"
_chemical_name_systematic
;
Ethoxy(((1-phenylethylidene)amino)oxy)methanone
;
_cell_volume    542.334
_exptl_crystal_colour 'colorless'
_exptl_crystal_density_diffrn 1.269
_exptl_crystal_description 'cube'
_diffrn_ambient_temperature 296
#These two values have been output from a single CSD field.
_refine_ls_R_factor_gt 0.0639
_refine_ls_wR_factor_gt 0.0639
_symmetry_cell_setting triclinic
_symmetry_space_group_name_H-M 'P -1'
_symmetry_Int_Tables_number 2
loop_
_symmetry_equiv_pos_site_id
_symmetry_equiv_pos_as_xyz
1 x,y,z
2 -x,-y,-z
_cell_length_a 8.0634(5)
_cell_length_b 8.3096(6)
_cell_length_c 9.2464(6)
_cell_angle_alpha 75.560(4)
_cell_angle_beta 72.788(4)
_cell_angle_gamma 68.111(4)
_cell_formula_units_Z 2
loop_
_atom_type_symbol
_atom_type_radius_bond
C 0.68
H 0.23
N 0.68
O 0.68
loop_
_atom_site_label
_atom_site_type_symbol
_atom_site_fract_x
_atom_site_fract_y
_atom_site_fract_z
O1 O 0.11972(17) 0.43232(17) 0.75866(13)
C1 C 0.0134(3) 0.2788(2) 0.97750(19)
C2 C -0.1386(3) 0.2256(2) 1.09140(18)
C3 C -0.1028(3) 0.0751(3) 1.1994(2)
H1 H 0.01800 0.00750 1.20200
C4 C -0.3210(3) 0.3243(3) 1.0917(2)
H2 H -0.34830 0.42580 1.02040
C5 C -0.4625(3) 0.2735(3) 1.1966(2)
H3 H -0.58370 0.34150 1.19590
C6 C -0.4242(3) 0.1237(3) 1.3013(2)
H4 H -0.51920 0.08890 1.37090
N1 N -0.0364(2) 0.3906(2) 0.86287(16)
C7 C -0.2439(3) 0.0245(3) 1.3031(2)
H5 H -0.21750 -0.07700 1.37460
C8 C 0.0698(3) 0.5644(2) 0.6440(2)
O2 O -0.08270(17) 0.64700(19) 0.62966(14)
O3 O 0.22266(17) 0.58357(18) 0.55384(14)
C9 C 0.2023(3) 0.7200(3) 0.4212(2)
H6 H 0.12620 0.83230 0.45350
H7 H 0.14430 0.69390 0.35570
C10 C 0.3879(3) 0.7269(3) 0.3365(2)
H8 H 0.44350 0.75420 0.40180
H9 H 0.37780 0.81590 0.24760
H10 H 0.46230 0.61510 0.30540
C11 C 0.2047(3) 0.2018(3) 1.0029(2)
H11 H 0.25970 0.08620 0.97540
H12 H 0.20090 0.19490 1.10900
H13 H 0.27600 0.27490 0.94060
#END
