
#######################################################################
#
#                 Cambridge Crystallographic Data Centre
#                                CCDC
#
#######################################################################
#
# If this CIF has been generated from an entry in the Cambridge
# Structural Database, then it will include bibliographic, chemical,
# crystal, experimental, refinement or atomic coordinate data resulting
# from the CCDC's data processing and validation procedures.
#
#######################################################################

data_CSD_CIF_YILTEU
_audit_creation_date 2013-11-01
_audit_creation_method CSD-ConQuest-V1
_database_code_CSD YILTEU
_database_code_depnum_ccdc_archive 'CCDC 916492'
_chemical_formula_sum 'C20 H13 N5 O6'
_chemical_formula_moiety
;
C20 H13 N5 O6
;
_journal_coden_Cambridge 388
_journal_volume 49
_journal_year 2013
_journal_page_first 1388
_journal_name_full 'Zh.Org.Khim.(Russ.)(Russ.J.Org.Chem.) '
loop_
_publ_author_name
"A.V.Tkachuk"
"S.V.Kurbatov"
"O.N.Burov"
"M.E.Kletsky"
"Yu.P.Tavunova"
"P.G.Morozov"
"V.A.Voronina"
"V.I.Minkin"
_chemical_name_systematic
;
3'-Benzyl-5,7-dinitrospiro[2,1,3-benzoxadiazol-1-ide-4,2'-cyclohepta[d][1,3]ox
azol[3]ium]
;
_cell_volume   1847.109
_exptl_crystal_colour 'yellow'
_exptl_crystal_density_diffrn 1.508
_exptl_crystal_description 'prism'
_diffrn_ambient_temperature 293
#These two values have been output from a single CSD field.
_refine_ls_R_factor_gt 0.03
_refine_ls_wR_factor_gt 0.03
_symmetry_cell_setting monoclinic
_symmetry_space_group_name_H-M 'P 21/n'
_symmetry_Int_Tables_number 14
loop_
_symmetry_equiv_pos_site_id
_symmetry_equiv_pos_as_xyz
1 x,y,z
2 1/2-x,1/2+y,1/2-z
3 -x,-y,-z
4 -1/2+x,-1/2-y,-1/2+z
_cell_length_a 9.964(2)
_cell_length_b 9.559(2)
_cell_length_c 19.456(4)
_cell_angle_alpha 90
_cell_angle_beta 94.61(3)
_cell_angle_gamma 90
_cell_formula_units_Z 4
loop_
_atom_type_symbol
_atom_type_radius_bond
C 0.68
H 0.23
N 0.68
O 0.68
loop_
_atom_site_label
_atom_site_type_symbol
_atom_site_fract_x
_atom_site_fract_y
_atom_site_fract_z
O1 O 0.2887(2) 0.0582(2) 0.53973(12)
O2 O 0.43454(17) 0.41099(19) 0.63846(9)
O3 O 0.6804(2) 0.5358(2) 0.64266(13)
O4 O 0.7510(2) 0.5723(2) 0.54090(12)
O5 O 0.6506(3) 0.2616(3) 0.35821(12)
O6 O 0.4801(3) 0.1189(3) 0.35993(11)
N1 N 0.3502(3) 0.0818(3) 0.47800(14)
N2 N 0.3467(3) 0.1411(3) 0.59233(14)
N3 N 0.6005(2) 0.2532(2) 0.66472(11)
N4 N 0.6831(2) 0.5060(3) 0.58026(14)
N5 N 0.5580(4) 0.2088(3) 0.38666(14)
C1 C 0.5239(3) 0.3175(3) 0.60467(14)
C2 C 0.6052(3) 0.3902(3) 0.55563(15)
C3 C 0.6128(3) 0.3502(4) 0.48738(16)
C4 C 0.5375(3) 0.2448(4) 0.45642(15)
C5 C 0.4432(3) 0.1774(3) 0.49419(14)
C6 C 0.4380(3) 0.2125(3) 0.56396(14)
C7 C 0.4570(3) 0.4011(3) 0.70761(15)
C8 C 0.3861(3) 0.4803(4) 0.74909(18)
C9 C 0.3920(4) 0.4808(4) 0.82108(19)
C10 C 0.4723(4) 0.4008(4) 0.8654(2)
C11 C 0.5701(4) 0.3019(4) 0.85188(17)
C12 C 0.6089(4) 0.2596(4) 0.79011(16)
C13 C 0.5590(3) 0.3010(3) 0.72357(14)
C14 C 0.7115(3) 0.1548(4) 0.6549(2)
C15 C 0.8409(3) 0.2280(3) 0.64228(15)
C16 C 0.9125(4) 0.3010(4) 0.69483(18)
C17 C 1.0286(4) 0.3692(5) 0.6833(3)
C18 C 1.0735(4) 0.3692(5) 0.6177(3)
C19 C 1.0064(4) 0.2976(5) 0.5653(2)
C20 C 0.8909(4) 0.2287(5) 0.57834(19)
H1 H 0.681(3) 0.403(3) 0.4644(13)
H2 H 0.334(3) 0.541(3) 0.7267(12)
H3 H 0.329(3) 0.547(3) 0.8428(14)
H4 H 0.450(3) 0.413(3) 0.9122(16)
H5 H 0.611(3) 0.251(3) 0.8958(17)
H6 H 0.679(3) 0.193(3) 0.7913(13)
H7 H 0.689(2) 0.097(3) 0.6143(13)
H8 H 0.713(2) 0.098(3) 0.6998(14)
H9 H 0.882(3) 0.292(3) 0.7413(15)
H10 H 1.081(3) 0.414(4) 0.7184(18)
H11 H 1.151(3) 0.413(3) 0.6080(15)
H12 H 1.050(4) 0.299(4) 0.515(2)
H13 H 0.847(2) 0.176(3) 0.5486(13)
#END
