
#######################################################################
#
#                 Cambridge Crystallographic Data Centre
#                                CCDC
#
#######################################################################
#
# If this CIF has been generated from an entry in the Cambridge
# Structural Database, then it will include bibliographic, chemical,
# crystal, experimental, refinement or atomic coordinate data resulting
# from the CCDC's data processing and validation procedures.
#
#######################################################################

data_CSD_CIF_YIMPOB
_audit_creation_date 2013-11-01
_audit_creation_method CSD-ConQuest-V1
_database_code_CSD YIMPOB
_database_code_depnum_ccdc_archive 'CCDC 877865'
_chemical_formula_sum 'C10 H12 N2 O5'
_chemical_formula_moiety
;
C10 H12 N2 O5
;
_journal_coden_Cambridge 444
_journal_volume 83
_journal_year 2013
_journal_page_first 1440
_journal_name_full 'Zh.Obshch.Khim.(Russ.)(Russ.J.Gen.Chem.) '
loop_
_publ_author_name
"A.P.Gulea"
"Yu.M.Chumakov"
"V.O.Graur"
"V.I.Tsapkov"
_chemical_name_systematic
;
2-(((2,3-Dihydroxypropyl)iminio)methyl)-4-nitrophenolate
;
_cell_volume   1101.342
_exptl_crystal_density_diffrn 1.449
_diffrn_ambient_temperature 293
#These two values have been output from a single CSD field.
_refine_ls_R_factor_gt 0.0425
_refine_ls_wR_factor_gt 0.0425
_symmetry_cell_setting monoclinic
_symmetry_space_group_name_H-M 'P 21/c'
_symmetry_Int_Tables_number 14
loop_
_symmetry_equiv_pos_site_id
_symmetry_equiv_pos_as_xyz
1 x,y,z
2 -x,1/2+y,1/2-z
3 -x,-y,-z
4 x,-1/2-y,-1/2+z
_cell_length_a 7.063(3)
_cell_length_b 14.371(3)
_cell_length_c 10.8642(19)
_cell_angle_alpha 90
_cell_angle_beta 92.888(19)
_cell_angle_gamma 90
_cell_formula_units_Z 4
loop_
_atom_type_symbol
_atom_type_radius_bond
C 0.68
H 0.23
N 0.68
O 0.68
loop_
_atom_site_label
_atom_site_type_symbol
_atom_site_fract_x
_atom_site_fract_y
_atom_site_fract_z
H1 H 0.185(4) 0.195(2) 1.040(3)
C1 C 0.2504(5) 0.1345(2) 0.8937(3)
H2 H 0.27950 0.14530 0.81240
C2 C 0.2582(4) 0.0416(2) 0.9370(3)
C3 C 0.2239(4) 0.0178(2) 1.0626(3)
C4 C 0.2379(4) -0.0793(2) 1.0940(3)
H3 H 0.21870 -0.09790 1.17440
C5 C 0.2784(5) -0.1442(2) 1.0089(3)
H4 H 0.28710 -0.20650 1.03180
C6 C 0.3073(4) -0.1190(2) 0.8872(3)
C7 C 0.2989(4) -0.0276(2) 0.8519(3)
H5 H 0.32040 -0.01140 0.77080
C8 C 0.1841(6) 0.3001(2) 0.9085(3)
H6 H 0.25030 0.30410 0.83260
H7 H 0.05080 0.31200 0.88880
C9 C 0.2579(6) 0.3715(2) 0.9941(4)
H8 H 0.39040 0.35550 1.01520
C10 C 0.2586(6) 0.4673(2) 0.9342(3)
H9 H 0.27840 0.51410 0.99800
H10 H 0.36420 0.47090 0.88060
N1 N 0.2058(4) 0.2050(2) 0.9592(3)
N2 N 0.3474(5) -0.1890(2) 0.7965(4)
O1 O 0.1826(3) 0.08036(15) 1.14043(18)
O2 O 0.1606(4) 0.36879(17) 1.1063(2)
H11 H 0.08960 0.41380 1.10930
O3 O 0.0896(4) 0.48780(16) 0.8649(2)
H12 H 0.09020 0.46120 0.79820
O4 O 0.3630(5) -0.2698(2) 0.8307(3)
O5 O 0.3621(4) -0.16599(18) 0.6886(3)
#END
