
#######################################################################
#
#                 Cambridge Crystallographic Data Centre
#                                CCDC
#
#######################################################################
#
# If this CIF has been generated from an entry in the Cambridge
# Structural Database, then it will include bibliographic, chemical,
# crystal, experimental, refinement or atomic coordinate data resulting
# from the CCDC's data processing and validation procedures.
#
#######################################################################

data_CSD_CIF_YIMWIC02
_audit_creation_date 2016-11-17
_audit_creation_method CSD-ConQuest-V1
_database_code_CSD YIMWIC02
_database_code_depnum_ccdc_archive 'CCDC 1423242'
_chemical_formula_sum 'C12 H11 N1 O3'
_chemical_formula_moiety
;
C12 H11 N1 O3
;
_journal_coden_Cambridge 34
_journal_volume 54
_journal_year 2017
_journal_page_first 932
_journal_name_full 'J.Heterocycl.Chem. '
loop_
_publ_author_name
"A.D.Morozova"
"E.A.Muravyova"
"S.V.Shishkina"
"E.V.Vashchenko"
"Y.V.Sen'ko"
"V.A.Chebanov"
_chemical_name_systematic
;
4-(4-methoxybenzylidene)-3-methyl-1,2-oxazol-5(4H)-one
;
_cell_volume   1054.149
_exptl_crystal_colour 'colorless'
_exptl_crystal_density_diffrn 1.369
_exptl_crystal_description 'plate'
_diffrn_ambient_temperature 293
#These two values have been output from a single CSD field.
_refine_ls_R_factor_gt 0.0699
_refine_ls_wR_factor_gt 0.0699
_symmetry_cell_setting monoclinic
_symmetry_space_group_name_H-M 'P 21/c'
_symmetry_Int_Tables_number 14
loop_
_symmetry_equiv_pos_site_id
_symmetry_equiv_pos_as_xyz
1 x,y,z
2 -x,1/2+y,1/2-z
3 -x,-y,-z
4 x,-1/2-y,-1/2+z
_cell_length_a 12.8478(9)
_cell_length_b 6.9287(5)
_cell_length_c 12.8161(10)
_cell_angle_alpha 90
_cell_angle_beta 112.484(7)
_cell_angle_gamma 90
_cell_formula_units_Z 4
loop_
_atom_type_symbol
_atom_type_radius_bond
C 0.68
H 0.23
N 0.68
O 0.68
loop_
_atom_site_label
_atom_site_type_symbol
_atom_site_fract_x
_atom_site_fract_y
_atom_site_fract_z
O1 O 0.21145(19) 0.3805(3) 0.8140(2)
O2 O 0.39206(19) 0.3412(3) 0.92345(19)
O3 O 0.88299(18) 0.4060(3) 0.8883(2)
N1 N 0.1420(2) 0.4015(4) 0.6961(2)
C1 C 0.2108(3) 0.3987(4) 0.6434(3)
C2 C 0.3275(2) 0.3807(3) 0.7186(2)
C3 C 0.3210(3) 0.3657(4) 0.8287(3)
C4 C 0.4134(2) 0.3754(4) 0.6820(2)
H1 H 0.38930 0.37210 0.60370
C5 C 0.5340(2) 0.3738(3) 0.7388(2)
C6 C 0.5930(2) 0.3926(3) 0.8557(2)
H2 H 0.55330 0.39940 0.90290
C7 C 0.7062(3) 0.4008(4) 0.9005(3)
H3 H 0.74330 0.41290 0.97830
C8 C 0.7686(2) 0.3917(4) 0.8335(3)
C9 C 0.7151(2) 0.3707(4) 0.7184(3)
H4 H 0.75640 0.36330 0.67270
C10 C 0.5983(2) 0.3607(4) 0.6718(2)
H5 H 0.56170 0.34490 0.59420
C11 C 0.9504(2) 0.4150(5) 0.8208(3)
H6 H 0.94830 0.29230 0.78520
H7 H 1.02680 0.44570 0.86820
H8 H 0.92100 0.51280 0.76400
C12 C 0.1633(3) 0.4174(4) 0.5181(3)
H9 H 0.19250 0.53190 0.49690
H10 H 0.08270 0.42560 0.49120
H11 H 0.18420 0.30670 0.48540
#END
