
#######################################################################
#
#                 Cambridge Crystallographic Data Centre
#                                CCDC
#
#######################################################################
#
# If this CIF has been generated from an entry in the Cambridge
# Structural Database, then it will include bibliographic, chemical,
# crystal, experimental, refinement or atomic coordinate data resulting
# from the CCDC's data processing and validation procedures.
#
#######################################################################

data_CSD_CIF_YIMWIC01
_audit_creation_date 2016-05-05
_audit_creation_method CSD-ConQuest-V1
_database_code_CSD YIMWIC01
_database_code_depnum_ccdc_archive 'CCDC 1448261'
_chemical_formula_sum 'C12 H11 N1 O3'
_chemical_formula_moiety
;
C12 H11 N1 O3
;
_journal_coden_Cambridge 1350
_journal_volume 18
_journal_year 2016
_journal_page_first 3667
_journal_name_full 'CrystEngComm '
loop_
_publ_author_name
"Xinyuan Zhang"
"Xingxing Jiang"
"Pengxiang Liu"
"Yin Li"
"Heng Tu"
"Zheshuai Lin"
"Degang Xu"
"Guochun Zhang"
"Yicheng Wu"
"Jianquan Yao"
_chemical_name_systematic
;
4-(4-methoxybenzylidene)-3-methyl-1,2-oxazol-5(4H)-one
;
_cell_volume   1051.488
_exptl_crystal_colour 'orange'
_exptl_crystal_density_diffrn 1.372
_exptl_crystal_description 'bar'
_diffrn_ambient_temperature 296
#These two values have been output from a single CSD field.
_refine_ls_R_factor_gt 0.0377
_refine_ls_wR_factor_gt 0.0377
_symmetry_cell_setting monoclinic
_symmetry_space_group_name_H-M 'P 21/c'
_symmetry_Int_Tables_number 14
loop_
_symmetry_equiv_pos_site_id
_symmetry_equiv_pos_as_xyz
1 x,y,z
2 -x,1/2+y,1/2-z
3 -x,-y,-z
4 x,-1/2-y,-1/2+z
_cell_length_a 12.8234(7)
_cell_length_b 6.9230(4)
_cell_length_c 12.7631(7)
_cell_angle_alpha 90
_cell_angle_beta 111.874(1)
_cell_angle_gamma 90
_cell_formula_units_Z 4
loop_
_atom_type_symbol
_atom_type_radius_bond
C 0.68
H 0.23
N 0.68
O 0.68
loop_
_atom_site_label
_atom_site_type_symbol
_atom_site_fract_x
_atom_site_fract_y
_atom_site_fract_z
C1 C 0.54996(13) 0.0844(3) 0.67852(16)
H1 H 0.57590 -0.01860 0.73240
H2 H 0.47330 0.06080 0.63010
H3 H 0.55470 0.20450 0.71760
C2 C 0.73098(11) 0.10963(17) 0.66656(12)
C3 C 0.78549(11) 0.13158(18) 0.78253(12)
H4 H 0.74430 0.14050 0.82880
C4 C 0.90128(11) 0.14006(18) 0.82832(11)
H5 H 0.93730 0.15370 0.90600
C5 C 0.96617(10) 0.12877(16) 0.76115(10)
C6 C 0.90884(11) 0.11013(17) 0.64422(11)
H6 H 0.94940 0.10370 0.59720
C7 C 0.79420(11) 0.10122(18) 0.59833(11)
H7 H 0.75780 0.08940 0.52050
C8 C 1.08648(10) 0.12683(16) 0.8185(1)
H8 H 1.10930 0.12980 0.89670
C9 C 1.17362(11) 0.12161(16) 0.78234(10)
C10 C 1.17866(11) 0.13573(18) 0.66980(11)
C11 C 1.29030(11) 0.10215(18) 0.85638(11)
C12 C 1.33527(12) 0.0833(2) 0.98137(12)
H9 H 1.41590 0.08160 1.00930
H10 H 1.30850 -0.03470 1.00200
H11 H 1.31040 0.19080 1.01360
N1 N 1.35799(10) 0.09814(18) 0.80313(11)
O1 O 0.61838(8) 0.09392(15) 0.61231(9)
O2 O 1.10976(8) 0.16122(16) 0.57636(8)
O3 O 1.28962(8) 0.11951(15) 0.68459(9)
#END
