
#######################################################################
#
#                 Cambridge Crystallographic Data Centre
#                                CCDC
#
#######################################################################
#
# If this CIF has been generated from an entry in the Cambridge
# Structural Database, then it will include bibliographic, chemical,
# crystal, experimental, refinement or atomic coordinate data resulting
# from the CCDC's data processing and validation procedures.
#
#######################################################################

data_CSD_CIF_YIMWOI
_audit_creation_date 2013-11-04
_audit_creation_method CSD-ConQuest-V1
_database_code_CSD YIMWOI
_database_code_depnum_ccdc_archive 'CCDC 924675'
_chemical_formula_sum 'C14 H7 N3 O3'
_chemical_formula_moiety
;
C14 H7 N3 O3
;
_journal_coden_Cambridge 24
_journal_volume 54
_journal_year 2013
_journal_page_first 5031
_journal_name_full 'Tetrahedron Lett. '
loop_
_publ_author_name
"Qi Lin"
"Yong-Peng Fu"
"Pei Chen"
"Tai-Bao Wei"
"You-Ming Zhang"
_chemical_name_systematic
;
((5-(3-Nitrophenyl)-2-furyl)methylene)malononitrile
;
_cell_volume   1203.839
_exptl_crystal_colour 'yellow'
_exptl_crystal_density_diffrn 1.463
_exptl_crystal_description 'block'
_diffrn_ambient_temperature 296
#These two values have been output from a single CSD field.
_refine_ls_R_factor_gt 0.0403
_refine_ls_wR_factor_gt 0.0403
_symmetry_cell_setting monoclinic
_symmetry_space_group_name_H-M 'P 21/c'
_symmetry_Int_Tables_number 14
loop_
_symmetry_equiv_pos_site_id
_symmetry_equiv_pos_as_xyz
1 x,y,z
2 -x,1/2+y,1/2-z
3 -x,-y,-z
4 x,-1/2-y,-1/2+z
_cell_length_a 14.485(8)
_cell_length_b 8.317(5)
_cell_length_c 10.097(5)
_cell_angle_alpha 90
_cell_angle_beta 98.242(5)
_cell_angle_gamma 90
_cell_formula_units_Z 4
loop_
_atom_type_symbol
_atom_type_radius_bond
C 0.68
H 0.23
N 0.68
O 0.68
loop_
_atom_site_label
_atom_site_type_symbol
_atom_site_fract_x
_atom_site_fract_y
_atom_site_fract_z
C1 C 0.30933(12) 0.0347(2) 0.53414(16)
C2 C 0.35316(13) -0.0651(2) 0.45154(17)
H1 H 0.34600 -0.17590 0.45660
C3 C 0.40697(15) -0.0017(3) 0.36257(19)
H2 H 0.43470 -0.06990 0.30680
C4 C 0.42018(14) 0.1615(3) 0.35535(18)
H3 H 0.45730 0.20480 0.29650
C5 C 0.37695(12) 0.2586(2) 0.43751(16)
C6 C 0.32170(12) 0.1991(2) 0.52637(16)
H4 H 0.29310 0.26840 0.58030
C7 C 0.25236(12) -0.0336(2) 0.62730(16)
C8 C 0.23352(14) -0.1853(2) 0.66478(18)
H5 H 0.25540 -0.28020 0.63170
C9 C 0.17486(14) -0.1715(2) 0.76269(18)
H6 H 0.15090 -0.25600 0.80760
C10 C 0.15929(13) -0.0130(2) 0.78037(17)
C11 C 0.10472(13) 0.0672(2) 0.86451(17)
H7 H 0.07800 0.00190 0.92340
C12 C 0.08575(12) 0.2259(2) 0.87172(16)
C13 C 0.02738(14) 0.2803(2) 0.96515(18)
C14 C 0.11927(13) 0.3447(2) 0.78814(18)
N1 N 0.38973(11) 0.4334(2) 0.43142(16)
N2 N -0.01980(13) 0.3184(2) 1.04071(17)
N3 N 0.14475(14) 0.4402(2) 0.72107(17)
O1 O 0.20699(8) 0.07519(14) 0.69690(11)
O2 O 0.35266(12) 0.51741(17) 0.50726(16)
O3 O 0.43695(11) 0.48803(19) 0.35118(14)
#END
