
#######################################################################
#
#                 Cambridge Crystallographic Data Centre
#                                CCDC
#
#######################################################################
#
# If this CIF has been generated from an entry in the Cambridge
# Structural Database, then it will include bibliographic, chemical,
# crystal, experimental, refinement or atomic coordinate data resulting
# from the CCDC's data processing and validation procedures.
#
#######################################################################

data_CSD_CIF_YIPQEV
_audit_creation_date 2013-11-04
_audit_creation_method CSD-ConQuest-V1
_database_code_CSD YIPQEV
_database_code_depnum_ccdc_archive 'CCDC 930744'
_chemical_formula_sum 'C20 H21 N3 O5'
_chemical_formula_moiety
;
C20 H21 N3 O5
;
_journal_coden_Cambridge 16
_journal_volume 69
_journal_year 2013
_journal_page_first 9309
_journal_name_full 'Tetrahedron '
loop_
_publ_author_name
"M.Dagiliene"
"V.Martynaitis"
"Mikas Vengris"
"K.Redeckas"
"V.Voiciuk"
"Wolfgang Holzer"
"A.Sackus"
_chemical_name_systematic
;
1'-Ethyl-3',3'-dimethyl-5',6-dinitro-1',3,3',4-tetrahydrospiro[chromene-2,2'-i
ndole]
;
_cell_volume   1805.586
_exptl_crystal_colour 'yellow'
_exptl_crystal_density_diffrn 1.41
_exptl_crystal_description 'Prism'
_diffrn_ambient_temperature 173
#These two values have been output from a single CSD field.
_refine_ls_R_factor_gt 0.048
_refine_ls_wR_factor_gt 0.048
_symmetry_cell_setting monoclinic
_symmetry_space_group_name_H-M 'P 21/a'
_symmetry_Int_Tables_number 14
loop_
_symmetry_equiv_pos_site_id
_symmetry_equiv_pos_as_xyz
1 x,y,z
2 1/2-x,1/2+y,-z
3 -x,-y,-z
4 -1/2+x,-1/2-y,z
_cell_length_a 14.5537(4)
_cell_length_b 6.6086(2)
_cell_length_c 18.8774(6)
_cell_angle_alpha 90
_cell_angle_beta 96.0266(14)
_cell_angle_gamma 90
_cell_formula_units_Z 4
loop_
_atom_type_symbol
_atom_type_radius_bond
C 0.68
H 0.23
N 0.68
O 0.68
loop_
_atom_site_label
_atom_site_type_symbol
_atom_site_fract_x
_atom_site_fract_y
_atom_site_fract_z
O1 O 0.44719(9) 0.60534(18) 0.19866(6)
O2 O 0.24283(10) 0.6095(2) 0.51761(7)
O3 O 0.35095(10) 0.7720(2) 0.58186(7)
N1 N 0.32184(11) 0.6806(2) 0.52671(8)
N2 N 0.54007(10) 0.5862(2) 0.30547(8)
C1 C 0.38200(12) 0.6569(3) 0.47064(8)
C2 C 0.46591(13) 0.7570(3) 0.47700(9)
C3 C 0.48609(12) 0.4612(3) 0.25408(9)
C4 C 0.42425(13) 0.5405(3) 0.13084(9)
C5 C 0.54573(13) 0.3083(3) 0.22008(10)
C6 C 0.61834(13) 0.7080(3) 0.28775(9)
C7 C 0.35335(12) 0.5318(3) 0.41261(9)
C8 C 0.49461(12) 0.6228(3) 0.36465(9)
C9 C 0.52353(12) 0.7433(3) 0.42345(9)
C10 C 0.31033(13) 0.3781(3) 0.25299(10)
C11 C 0.40567(12) 0.3753(3) 0.29596(9)
C12 C 0.41144(12) 0.5148(3) 0.36014(9)
C13 C 0.42758(13) 0.1610(3) 0.32498(10)
C14 C 0.41522(14) 0.2965(3) 0.03697(10)
C15 C 0.44363(13) 0.3456(3) 0.10731(10)
C16 C 0.37949(14) 0.6825(3) 0.08468(10)
C17 C 0.49268(14) 0.1972(3) 0.15792(10)
C18 C 0.35147(15) 0.6314(4) 0.01490(11)
C19 C 0.71075(14) 0.6222(3) 0.31674(12)
N3 N 0.33830(13) 0.3784(4) -0.08135(9)
C20 C 0.36956(14) 0.4365(4) -0.00796(10)
O4 O 0.29237(13) 0.4999(3) -0.11920(8)
O5 O 0.35944(14) 0.2107(4) -0.10197(8)
H1 H 0.48171 0.84711 0.52060
H2 H 0.29735 0.45265 0.41321
H3 H 0.32207 0.73476 -0.01930
H4 H 0.58512 0.79993 0.43032
H5 H 0.59751 0.36882 0.20119
H6 H 0.57095 0.21959 0.26258
H7 H 0.36788 0.81566 0.10202
H8 H 0.49079 0.15456 0.35156
H9 H 0.42295 0.05845 0.28632
H10 H 0.61961 0.71438 0.23272
H11 H 0.29771 0.50422 0.23087
H12 H 0.30234 0.26685 0.21614
H13 H 0.38231 0.12603 0.35665
H14 H 0.26211 0.34195 0.28406
H15 H 0.61072 0.84414 0.30260
H16 H 0.42750 0.16433 0.01906
H17 H 0.53497 0.11953 0.13314
H18 H 0.44826 0.10835 0.17573
H19 H 0.75914 0.70849 0.30346
H20 H 0.71779 0.48940 0.29740
H21 H 0.71415 0.61397 0.36772
#END
