
#######################################################################
#
#                 Cambridge Crystallographic Data Centre
#                                CCDC
#
#######################################################################
#
# If this CIF has been generated from an entry in the Cambridge
# Structural Database, then it will include bibliographic, chemical,
# crystal, experimental, refinement or atomic coordinate data resulting
# from the CCDC's data processing and validation procedures.
#
#######################################################################

data_CSD_CIF_YIQTEY
_audit_creation_date 2008-02-19
_audit_creation_method CSD-ConQuest-V1
_database_code_CSD YIQTEY
_database_code_depnum_ccdc_archive 'CCDC 644785'
_chemical_formula_sum 'C18 H20 N2 O4'
_chemical_formula_moiety
;
C18 H20 N2 O4
;
_journal_coeditor_code "IUCr HG2302"
_journal_coden_Cambridge 1370
_journal_volume 63
_journal_year 2007
_journal_page_first o4517
_journal_name_full 'Acta Crystallogr.,Sect.E:Struct.Rep.Online '
loop_
_publ_author_name
"Li Wang"
"Xueni He"
"Yinxia Sun"
"Li Xu"
_chemical_name_systematic
;
2,2'-(1,1'-(Ethylenedioxydinitrilo)diethylidyne)diphenol
;
_chemical_melting_point 387
_cell_volume    846.002
_exptl_crystal_colour 'colorless'
_exptl_crystal_density_diffrn 1.289
_exptl_special_details
;
Melting point range 387-389K

;
_exptl_crystal_description 'prismatic'
_exptl_crystal_preparation 'ethanol'
_diffrn_ambient_temperature 298
#These two values have been output from a single CSD field.
_refine_ls_R_factor_gt 0.0575
_refine_ls_wR_factor_gt 0.0575
_symmetry_cell_setting monoclinic
_symmetry_space_group_name_H-M 'P 21/n'
_symmetry_Int_Tables_number 14
loop_
_symmetry_equiv_pos_site_id
_symmetry_equiv_pos_as_xyz
1 x,y,z
2 1/2-x,1/2+y,1/2-z
3 -x,-y,-z
4 -1/2+x,-1/2-y,-1/2+z
_cell_length_a 6.9018(12)
_cell_length_b 17.2184(18)
_cell_length_c 7.3063(14)
_cell_angle_alpha 90
_cell_angle_beta 103.003(2)
_cell_angle_gamma 90
_cell_formula_units_Z 2
loop_
_atom_type_symbol
_atom_type_radius_bond
C 0.68
H 0.23
N 0.68
O 0.68
loop_
_atom_site_label
_atom_site_type_symbol
_atom_site_fract_x
_atom_site_fract_y
_atom_site_fract_z
N1 N 0.7373(3) 0.04598(11) 0.7165(3)
O1 O 0.7376(2) 0.00177(11) 0.8782(2)
O2 O 0.8973(2) 0.09878(10) 0.4578(2)
H1 H 0.89280 0.07340 0.55160
C1 C 0.9323(4) -0.03004(15) 0.9451(4)
H2 H 0.98500 -0.04720 0.83950
H3 H 0.92500 -0.07470 1.02430
C2 C 0.3971(4) 0.07355(16) 0.7411(4)
H4 H 0.43790 0.04780 0.86000
H5 H 0.29320 0.04420 0.66130
H6 H 0.34880 0.12450 0.76000
C3 C 0.5701(3) 0.08004(13) 0.6508(3)
C4 C 0.5586(3) 0.12616(12) 0.4789(3)
C5 C 0.7196(3) 0.13387(13) 0.3919(3)
C6 C 0.7024(4) 0.17870(15) 0.2319(4)
H7 H 0.80990 0.18320 0.17530
C7 C 0.5280(5) 0.21646(16) 0.1564(4)
H8 H 0.51820 0.24710 0.04990
C8 C 0.3672(5) 0.20922(16) 0.2377(5)
H9 H 0.24840 0.23440 0.18530
C9 C 0.3829(4) 0.16474(15) 0.3962(4)
H10 H 0.27340 0.16020 0.45000
N1B N 1.2627(3) -0.04598(11) 1.2835(3)
O1B O 1.2624(2) -0.00177(11) 1.1218(2)
O2B O 1.1027(2) -0.09878(10) 1.5422(2)
H1B H 1.10720 -0.07340 1.44840
C1B C 1.0677(4) 0.03004(15) 1.0549(4)
H2B H 1.01500 0.04720 1.16050
H3B H 1.07500 0.07470 0.97570
C2B C 1.6029(4) -0.07355(16) 1.2589(4)
H4B H 1.56210 -0.04780 1.14000
H5B H 1.70680 -0.04420 1.33870
H6B H 1.65120 -0.12450 1.24000
C3B C 1.4299(3) -0.08004(13) 1.3492(3)
C4B C 1.4414(3) -0.12616(12) 1.5211(3)
C5B C 1.2804(3) -0.13387(13) 1.6081(3)
C6B C 1.2976(4) -0.17870(15) 1.7681(4)
H7B H 1.19010 -0.18320 1.82470
C7B C 1.4720(5) -0.21646(16) 1.8436(4)
H8B H 1.48180 -0.24710 1.95010
C8B C 1.6328(5) -0.20922(16) 1.7623(5)
H9B H 1.75160 -0.23440 1.81470
C9B C 1.6171(4) -0.16474(15) 1.6038(4)
H10B H 1.72660 -0.16020 1.55000
#END
