
#######################################################################
#
#                 Cambridge Crystallographic Data Centre
#                                CCDC
#
#######################################################################
#
# If this CIF has been generated from an entry in the Cambridge
# Structural Database, then it will include bibliographic, chemical,
# crystal, experimental, refinement or atomic coordinate data resulting
# from the CCDC's data processing and validation procedures.
#
#######################################################################

data_CSD_CIF_YIQZAA
_audit_creation_date 2008-02-19
_audit_creation_method CSD-ConQuest-V1
_database_code_CSD YIQZAA
_database_code_depnum_ccdc_archive 'CCDC 643352'
_chemical_formula_sum 'C12 H16 N4 O4'
_chemical_formula_moiety
;
C12 H16 N4 O4
;
_journal_coeditor_code "IUCr HG2345"
_journal_coden_Cambridge 1370
_journal_volume 63
_journal_year 2007
_journal_page_first o4685
_journal_name_full 'Acta Crystallogr.,Sect.E:Struct.Rep.Online '
loop_
_publ_author_name
"Liang-Zhong Xu"
"Zhong-Jie Xu"
"Wen-Zhao Bi"
_chemical_name_systematic
;
1-(2,3-Dimethoxybenzyl)-N-nitroimidazolidin-2-imine
;
_cell_volume   1346.157
_exptl_crystal_colour 'yellow'
_exptl_crystal_density_diffrn 1.383
_exptl_crystal_description 'block'
_exptl_crystal_preparation 'methanol'
_diffrn_ambient_temperature 294
#These two values have been output from a single CSD field.
_refine_ls_R_factor_gt 0.0467
_refine_ls_wR_factor_gt 0.0467
_symmetry_cell_setting monoclinic
_symmetry_space_group_name_H-M 'P 21/n'
_symmetry_Int_Tables_number 14
loop_
_symmetry_equiv_pos_site_id
_symmetry_equiv_pos_as_xyz
1 x,y,z
2 1/2-x,1/2+y,1/2-z
3 -x,-y,-z
4 -1/2+x,-1/2-y,-1/2+z
_cell_length_a 11.949(3)
_cell_length_b 9.152(2)
_cell_length_c 12.312(3)
_cell_angle_alpha 90
_cell_angle_beta 91.102(5)
_cell_angle_gamma 90
_cell_formula_units_Z 4
loop_
_atom_type_symbol
_atom_type_radius_bond
C 0.68
H 0.23
N 0.68
O 0.68
loop_
_atom_site_label
_atom_site_type_symbol
_atom_site_fract_x
_atom_site_fract_y
_atom_site_fract_z
O1 O 0.92476(15) 0.0235(2) 0.19671(15)
O2 O 0.71309(12) 0.11934(17) 0.16349(13)
O3 O 0.27319(15) 0.3031(2) 0.12564(17)
O4 O 0.27201(14) 0.1400(2) 0.00015(16)
N1 N 0.59195(15) 0.2334(2) -0.05226(16)
N2 N 0.45011(16) 0.1084(2) -0.11518(16)
H1 H 0.38300 0.07480 -0.12020
N3 N 0.42989(15) 0.2705(2) 0.04020(16)
N4 N 0.32161(17) 0.2346(2) 0.05378(17)
C1 C 0.77387(18) 0.2918(2) 0.0326(2)
C2 C 0.8612(2) 0.3547(3) -0.0246(2)
H2 H 0.84610 0.42830 -0.07490
C3 C 0.9694(2) 0.3082(3) -0.0071(2)
H3 H 1.02700 0.35260 -0.04460
C4 C 0.9941(2) 0.1975(3) 0.0650(2)
H4 H 1.06760 0.16570 0.07440
C5 C 0.9091(2) 0.1331(3) 0.1238(2)
C6 C 0.79974(19) 0.1834(3) 0.1064(2)
C7 C 1.0357(2) -0.0281(3) 0.2161(3)
H5 H 1.06630 -0.06250 0.14930
H6 H 1.03450 -0.10670 0.26770
H7 H 1.08120 0.05000 0.24450
C8 C 0.7121(2) 0.1560(4) 0.2768(2)
H8 H 0.78320 0.13220 0.30970
H9 H 0.65410 0.10170 0.31160
H10 H 0.69810 0.25870 0.28480
C9 C 0.65535(19) 0.3400(3) 0.0119(2)
H11 H 0.61900 0.35460 0.08080
H12 H 0.65550 0.43270 -0.02620
C10 C 0.6384(2) 0.1580(3) -0.1451(2)
H13 H 0.70050 0.09580 -0.12310
H14 H 0.66360 0.22680 -0.19930
C11 C 0.53989(19) 0.0677(3) -0.18826(18)
H15 H 0.52110 0.09320 -0.26290
H16 H 0.55580 -0.03610 -0.18400
C12 C 0.48429(19) 0.2028(2) -0.04067(18)
#END
