
#######################################################################
#
#                 Cambridge Crystallographic Data Centre
#                                CCDC
#
#######################################################################
#
# If this CIF has been generated from an entry in the Cambridge
# Structural Database, then it will include bibliographic, chemical,
# crystal, experimental, refinement or atomic coordinate data resulting
# from the CCDC's data processing and validation procedures.
#
#######################################################################

data_CSD_CIF_YIRDEK
_audit_creation_date 2013-11-05
_audit_creation_method CSD-ConQuest-V1
_database_code_CSD YIRDEK
_database_code_depnum_ccdc_archive 'CCDC 961434'
_chemical_formula_sum 'C16 H17 N1 O6'
_chemical_formula_moiety
;
C16 H17 N1 O6
;
_journal_coden_Cambridge 182
_journal_volume 49
_journal_year 2013
_journal_page_first 11665
_journal_name_full 'Chem.Commun. '
loop_
_publ_author_name
"R.Rohlmann"
"C.-G.Daniliuc"
"O.G.Mancheno"
_chemical_name_systematic
;
Dimethyl 3a,4-dihydro-3H,10H-[1]benzoxepino[4,3-c][1,2]oxazol-10-ylmalonate
;
_cell_volume    746.934
_exptl_crystal_colour 'colorless'
_exptl_crystal_density_diffrn 1.42
_exptl_crystal_description 'prism'
_diffrn_ambient_temperature 223
#These two values have been output from a single CSD field.
_refine_ls_R_factor_gt 0.0304
_refine_ls_wR_factor_gt 0.0304
_symmetry_cell_setting monoclinic
_symmetry_space_group_name_H-M 'P 21'
_symmetry_Int_Tables_number 4
loop_
_symmetry_equiv_pos_site_id
_symmetry_equiv_pos_as_xyz
1 x,y,z
2 -x,1/2+y,-z
_cell_length_a 8.2054(1)
_cell_length_b 10.5740(1)
_cell_length_c 8.6556(1)
_cell_angle_alpha 90
_cell_angle_beta 95.960(1)
_cell_angle_gamma 90
_cell_formula_units_Z 2
loop_
_atom_type_symbol
_atom_type_radius_bond
C 0.68
H 0.23
N 0.68
O 0.68
loop_
_atom_site_label
_atom_site_type_symbol
_atom_site_fract_x
_atom_site_fract_y
_atom_site_fract_z
O1 O 0.24500(14) 0.82356(12) 0.90648(13)
N1 N 0.17917(19) 0.64511(18) 0.48014(18)
O2 O 0.02702(17) 0.69881(17) 0.41787(17)
O3 O 0.72916(15) 0.68069(14) 0.79604(17)
O4 O 0.75683(14) 0.48790(11) 0.70025(14)
O5 O 0.5489(2) 0.78351(13) 0.43721(16)
O6 O 0.61313(15) 0.59070(12) 0.35915(13)
C1 C 0.35602(18) 0.62261(16) 0.83992(17)
C2 C 0.27957(18) 0.69748(17) 0.94324(19)
C3 C 0.2401(2) 0.6499(2) 1.0833(2)
H1 H 0.19110 0.70230 1.15300
C4 C 0.2732(2) 0.5247(2) 1.1200(2)
H2 H 0.24730 0.49200 1.21550
C5 C 0.3437(2) 0.44789(19) 1.0179(2)
H3 H 0.36380 0.36230 1.04250
C6 C 0.3853(2) 0.49647(17) 0.87849(19)
H4 H 0.43400 0.44340 0.80920
C7 C 0.39703(18) 0.68200(16) 0.68926(17)
H5 H 0.45030 0.76410 0.71680
C8 C 0.23780(19) 0.71132(16) 0.59397(18)
C9 C 0.13754(19) 0.82413(18) 0.6288(2)
H6 H 0.19160 0.90190 0.59590
C10 C -0.0159(2) 0.7991(2) 0.5193(2)
H7 H -0.10650 0.77300 0.57750
H8 H -0.04880 0.87520 0.45930
C11 C 0.1018(2) 0.83792(19) 0.7980(2)
H9 H 0.05390 0.92150 0.81230
H10 H 0.02070 0.77420 0.82040
C12 C 0.51903(19) 0.60483(15) 0.60488(18)
H11 H 0.47520 0.51920 0.57980
C13 C 0.67859(19) 0.59660(17) 0.71217(18)
C14 C 0.9102(2) 0.4777(2) 0.7994(2)
H12 H 0.98830 0.53800 0.76580
H13 H 0.95340 0.39270 0.79260
H14 H 0.89130 0.49550 0.90600
C15 C 0.55916(18) 0.67214(16) 0.45813(19)
C16 C 0.6632(2) 0.6433(2) 0.2167(2)
H15 H 0.57750 0.69820 0.16910
H16 H 0.68240 0.57520 0.14570
H17 H 0.76320 0.69170 0.24000
#END
