
#######################################################################
#
#                 Cambridge Crystallographic Data Centre
#                                CCDC
#
#######################################################################
#
# If this CIF has been generated from an entry in the Cambridge
# Structural Database, then it will include bibliographic, chemical,
# crystal, experimental, refinement or atomic coordinate data resulting
# from the CCDC's data processing and validation procedures.
#
#######################################################################

data_CSD_CIF_YIRSIC
_audit_creation_date 2008-02-19
_audit_creation_method CSD-ConQuest-V1
_database_code_CSD YIRSIC
_database_code_depnum_ccdc_archive 'CCDC 674498'
_chemical_formula_sum 'C13 H10 N2 O4'
_chemical_formula_moiety
;
C13 H10 N2 O4
;
_journal_coeditor_code "IUCr PV2054"
_journal_coden_Cambridge 1370
_journal_volume 64
_journal_year 2008
_journal_page_first o178
_journal_name_full 'Acta Crystallogr.,Sect.E:Struct.Rep.Online '
loop_
_publ_author_name
"U.Bohme"
"S.Fels"
_chemical_name_systematic
;
6-(2-Hydroxyanilinomethylene)-4-nitrocyclohexa-2,4-dien-1-one
;
_chemical_melting_point 528
_cell_volume   1178.908
_exptl_crystal_colour 'yellow'
_exptl_crystal_density_diffrn 1.455
_exptl_crystal_description 'Prism'
_exptl_crystal_preparation 'ethanol'
_diffrn_ambient_temperature 303
#These two values have been output from a single CSD field.
_refine_ls_R_factor_gt 0.0419
_refine_ls_wR_factor_gt 0.0419
_symmetry_cell_setting monoclinic
_symmetry_space_group_name_H-M 'P 21/n'
_symmetry_Int_Tables_number 14
loop_
_symmetry_equiv_pos_site_id
_symmetry_equiv_pos_as_xyz
1 x,y,z
2 1/2-x,1/2+y,1/2-z
3 -x,-y,-z
4 -1/2+x,-1/2-y,-1/2+z
_cell_length_a 6.3445(3)
_cell_length_b 23.7378(10)
_cell_length_c 7.8450(3)
_cell_angle_alpha 90
_cell_angle_beta 93.79(1)
_cell_angle_gamma 90
_cell_formula_units_Z 4
loop_
_atom_type_symbol
_atom_type_radius_bond
C 0.68
H 0.23
N 0.68
O 0.68
loop_
_atom_site_label
_atom_site_type_symbol
_atom_site_fract_x
_atom_site_fract_y
_atom_site_fract_z
O1 O 0.2616(2) -0.05887(5) 0.83707(17)
O2 O 0.0255(2) 0.06605(5) 0.94717(17)
H1 H -0.05970 0.07320 1.01840
O3 O 1.0149(2) -0.17158(6) 0.5016(2)
O4 O 1.0816(2) -0.08467(6) 0.45149(17)
N1 N 0.3820(2) 0.04592(6) 0.81241(17)
H2 H 0.28990 0.02160 0.84030
N2 N 0.9733(2) -0.12137(7) 0.51253(19)
C1 C 0.5465(3) 0.02556(7) 0.7441(2)
H3 H 0.65020 0.05060 0.71310
C2 C 0.5767(3) -0.03237(7) 0.7143(2)
C3 C 0.4260(3) -0.07387(7) 0.7635(2)
C4 C 0.4701(3) -0.13107(8) 0.7250(2)
H4 H 0.37610 -0.15890 0.75490
C5 C 0.6451(3) -0.14622(7) 0.6460(2)
H5 H 0.67010 -0.18400 0.62280
C6 C 0.7890(3) -0.10481(7) 0.5989(2)
C7 C 0.7560(3) -0.04926(7) 0.6329(2)
H6 H 0.85320 -0.02250 0.60180
C8 C 0.3340(3) 0.10296(7) 0.8472(2)
C9 C 0.1443(3) 0.11220(7) 0.9216(2)
C10 C 0.0879(3) 0.16669(8) 0.9629(2)
H7 H -0.03860 0.17340 1.01300
C11 C 0.2198(3) 0.21088(8) 0.9297(3)
H8 H 0.18230 0.24740 0.95840
C12 C 0.4076(3) 0.20149(8) 0.8538(3)
H9 H 0.49500 0.23170 0.83120
C13 C 0.4653(3) 0.14742(8) 0.8116(3)
H10 H 0.59080 0.14100 0.76000
#END
