
#######################################################################
#
#                 Cambridge Crystallographic Data Centre
#                                CCDC
#
#######################################################################
#
# If this CIF has been generated from an entry in the Cambridge
# Structural Database, then it will include bibliographic, chemical,
# crystal, experimental, refinement or atomic coordinate data resulting
# from the CCDC's data processing and validation procedures.
#
#######################################################################

data_CSD_CIF_YISCIM
_audit_creation_date 1995-07-20
_audit_creation_method CSD-ConQuest-V1
_database_code_CSD YISCIM
_database_code_depnum_ccdc_archive 'CCDC 1303594'
_chemical_formula_sum 'C14 H19 N2 O3'
_chemical_formula_moiety
;
C14 H19 N2 O3
;
_journal_coden_Cambridge 1145
_journal_volume 4
_journal_year 1994
_journal_page_first 1047
_journal_name_full 'J.Mater.Chem. '
loop_
_publ_author_name
"L.Angeloni"
"A.Caneschi"
"L.David"
"A.Fabretti"
"F.Ferraro"
"D.Gatteschi"
"A.le Lirzin"
"R.Sessoli"
_chemical_name_systematic
;
2-(m-Methoxyphenyl)-4,4,5,5-tetramethylimidazoline-1-oxyl-3-oxide
;
_cell_volume    699.011
_exptl_crystal_density_diffrn 1.25
_diffrn_ambient_temperature ?
_diffrn_special_details
;
The study was carried out at room temperature,in the range 283-303K

;
#These two values have been output from a single CSD field.
_refine_ls_R_factor_gt 0.049
_refine_ls_wR_factor_gt 0.049
_symmetry_cell_setting monoclinic
_symmetry_space_group_name_H-M 'P 21'
_symmetry_Int_Tables_number 4
loop_
_symmetry_equiv_pos_site_id
_symmetry_equiv_pos_as_xyz
1 x,y,z
2 -x,1/2+y,-z
_cell_length_a 6.391(1)
_cell_length_b 11.230(1)
_cell_length_c 10.228(1)
_cell_angle_alpha 90
_cell_angle_beta 107.78(1)
_cell_angle_gamma 90
_cell_formula_units_Z 2
loop_
_atom_type_symbol
_atom_type_radius_bond
C 0.68
H 0.23
N 0.68
O 0.68
loop_
_atom_site_label
_atom_site_type_symbol
_atom_site_fract_x
_atom_site_fract_y
_atom_site_fract_z
O1 O 0.8232(3) 0.3684(3) 0.2278(2)
O2 O 1.3175(3) 0.0646(3) 0.4083(2)
O3 O 0.8658(4) -0.1909(3) 0.0507(2)
N1 N 0.9912(3) 0.3097(3) 0.2988(2)
N2 N 1.2255(3) 0.1669(3) 0.3844(2)
C1 C 0.9543(2) -0.0019(2) 0.1720(2)
C2 C 0.8094(2) -0.0829(2) 0.0877(2)
C3 C 0.5866(2) -0.0554(2) 0.0361(2)
C4 C 0.5087(2) 0.0531(2) 0.0689(2)
C5 C 0.6537(2) 0.1341(2) 0.1533(2)
C6 C 0.8765(2) 0.1066(2) 0.2049(2)
C7 C 1.0273(3) 0.19180 0.2932(2)
C8 C 1.1895(4) 0.3750(3) 0.3871(2)
C9 C 1.3207(3) 0.2714(3) 0.4748(2)
C10 C 1.0890(6) -0.2274(4) 0.1026(4)
C11 C 1.2679(5) 0.2505(4) 0.6085(3)
C12 C 1.5674(3) 0.2766(3) 0.5004(3)
C13 C 1.3023(5) 0.4291(3) 0.2884(3)
C14 C 1.1205(5) 0.4719(3) 0.4678(3)
H1 H 1.1268(2) -0.0232(2) 0.2120(2)
H2 H 0.4744(2) -0.1181(2) -0.0292(2)
H3 H 0.3363(2) 0.0744(2) 0.0290(2)
H4 H 0.5934(2) 0.2181(2) 0.1787(2)
H5 H 1.1914(6) -0.1755(4) 0.0573(4)
H6 H 1.0962(6) -0.3200(4) 0.0757(4)
H7 H 1.1468(6) -0.2179(4) 0.2128(4)
H8 H 1.3322(5) 0.3230(4) 0.6784(3)
H9 H 1.3483(5) 0.1686(4) 0.6517(3)
H10 H 1.0934(5) 0.2424(4) 0.5922(3)
H11 H 1.6227(3) 0.3602(3) 0.5515(3)
H12 H 1.6105(3) 0.2726(3) 0.4062(3)
H13 H 1.6450(3) 0.2039(3) 0.5665(3)
H14 H 1.4410(5) 0.4830(3) 0.3432(3)
H15 H 1.1956(5) 0.4803(3) 0.2053(3)
H16 H 1.3597(5) 0.3513(3) 0.2474(3)
H17 H 1.2680(5) 0.5086(3) 0.5382(3)
H18 H 1.0223(5) 0.4312(3) 0.5249(3)
H19 H 1.0276(5) 0.5421(3) 0.4038(3)
#END
