
#######################################################################
#
#                 Cambridge Crystallographic Data Centre
#                                CCDC
#
#######################################################################
#
# If this CIF has been generated from an entry in the Cambridge
# Structural Database, then it will include bibliographic, chemical,
# crystal, experimental, refinement or atomic coordinate data resulting
# from the CCDC's data processing and validation procedures.
#
#######################################################################

data_CSD_CIF_YISCEI
_audit_creation_date 1995-07-20
_audit_creation_method CSD-ConQuest-V1
_database_code_CSD YISCEI
_database_code_depnum_ccdc_archive 'CCDC 1303593'
_chemical_formula_sum 'C14 H19 N2 O3'
_chemical_formula_moiety
;
C14 H19 N2 O3
;
_journal_coden_Cambridge 1145
_journal_volume 4
_journal_year 1994
_journal_page_first 1047
_journal_name_full 'J.Mater.Chem. '
loop_
_publ_author_name
"L.Angeloni"
"A.Caneschi"
"L.David"
"A.Fabretti"
"F.Ferraro"
"D.Gatteschi"
"A.le Lirzin"
"R.Sessoli"
_chemical_name_systematic
;
2-(p-Methoxyphenyl)-4,4,5,5-tetramethylimidazoline-1-oxyl-3-oxide
;
_cell_volume   1407.695
_exptl_crystal_density_diffrn 1.24
_diffrn_ambient_temperature ?
_diffrn_special_details
;
The study was carried out at room temperature,in the range 283-303K

;
#These two values have been output from a single CSD field.
_refine_ls_R_factor_gt 0.066
_refine_ls_wR_factor_gt 0.066
_symmetry_cell_setting monoclinic
_symmetry_space_group_name_H-M 'C c'
_symmetry_Int_Tables_number 9
loop_
_symmetry_equiv_pos_site_id
_symmetry_equiv_pos_as_xyz
1 x,y,z
2 1/2+x,1/2+y,z
3 x,-y,1/2+z
4 1/2+x,1/2-y,1/2+z
_cell_length_a 9.997(2)
_cell_length_b 19.347(3)
_cell_length_c 9.322(4)
_cell_angle_alpha 90
_cell_angle_beta 128.67(2)
_cell_angle_gamma 90
_cell_formula_units_Z 4
loop_
_atom_type_symbol
_atom_type_radius_bond
C 0.68
H 0.23
N 0.68
O 0.68
loop_
_atom_site_label
_atom_site_type_symbol
_atom_site_fract_x
_atom_site_fract_y
_atom_site_fract_z
C1 C -0.0256(11) 0.4039(3) -0.0704(11)
C2 C 0.0922(11) 0.3524(3) 0.0825(12)
C3 C 0.1521(15) 0.2905(5) 0.0527(17)
C4 C 0.0286(13) 0.3277(5) 0.1882(15)
C5 C -0.2004(12) 0.4064(5) -0.1230(19)
C6 C -0.019(3) 0.3905(5) -0.2236(16)
C7 C 0.21400 0.4646(3) 0.17520
C8 C 0.3231(8) 0.5225(2) 0.2869(8)
C9 C 0.4339(8) 0.5149(2) 0.4775(8)
C10 C 0.5388(8) 0.5698(2) 0.5893(8)
C11 C 0.5328(8) 0.6322(2) 0.5104(8)
C12 C 0.4220(8) 0.6397(2) 0.3198(8)
C13 C 0.3171(8) 0.5849(2) 0.2080(8)
C14 C 0.7406(12) 0.6815(4) 0.8075(12)
N1 N 0.2421(9) 0.3989(2) 0.2202(10)
N2 N 0.0558(9) 0.4709(3) 0.0054(8)
O1 O 0.3785(9) 0.3715(2) 0.3644(9)
O2 O -0.0145(9) 0.5273(2) -0.0791(9)
O3 O 0.6271(9) 0.6883(2) 0.6091(9)
H1 H 0.1843(15) 0.3139(5) -0.0273(17)
H2 H 0.0635(15) 0.2484(5) -0.0241(17)
H3 H 0.2670(15) 0.2709(5) 0.1800(17)
H4 H -0.0626(13) 0.3671(5) 0.1570(15)
H5 H 0.1056(13) 0.3141(5) 0.3318(15)
H6 H -0.0391(13) 0.2825(5) 0.1052(15)
H7 H -0.2471(12) 0.3541(5) -0.1433(19)
H8 H -0.2969(12) 0.4378(5) -0.2391(19)
H9 H -0.1720(12) 0.4273(5) 0.0008(19)
H10 H -0.049(3) 0.3377(5) -0.2711(16)
H11 H 0.067(3) 0.4116(5) -0.2459(16)
H12 H -0.135(3) 0.4207(5) -0.2986(16)
H13 H 0.4385(8) 0.4666(2) 0.5386(8)
H14 H 0.6246(8) 0.5640(2) 0.7369(8)
H15 H 0.4174(8) 0.6880(2) 0.2588(8)
H16 H 0.2313(8) 0.5907(2) 0.0605(8)
H17 H 0.7997(12) 0.7318(4) 0.8559(12)
H18 H 0.8388(12) 0.6426(4) 0.8608(12)
H19 H 0.6673(12) 0.6710(4) 0.8542(12)
#END
