
#######################################################################
#
#                 Cambridge Crystallographic Data Centre
#                                CCDC
#
#######################################################################
#
# If this CIF has been generated from an entry in the Cambridge
# Structural Database, then it will include bibliographic, chemical,
# crystal, experimental, refinement or atomic coordinate data resulting
# from the CCDC's data processing and validation procedures.
#
#######################################################################

data_CSD_CIF_YISYOO
_audit_creation_date 1995-07-20
_audit_creation_method CSD-ConQuest-V1
_database_code_CSD YISYOO
_chemical_formula_sum 'C17 H14 N4 O2'
_chemical_formula_moiety
;
C17 H14 N4 O2
;
_journal_coden_Cambridge 95
_journal_year 1993
_journal_page_first 355
_journal_name_full 'Izv.Akad.Nauk SSSR,Ser.Khim.(Russ.)(Russ.Chem.Bull.) '
loop_
_publ_author_name
"V.N.Nesterov"
"G.E.Khoroshilov"
"Yu.T.Struchkov"
"Yu.A.Sharanin"
_chemical_name_systematic
;
1-Amino-3-cyclopropyl-2,6-dicyano-5-(2-nitrophenyl)-1,3-cyclohexadiene
;
_chemical_melting_point 463.15
_cell_volume   1465.716
_exptl_crystal_density_diffrn 1.388
_exptl_special_details
;
Melting point range 463.15-464.15K

;
_diffrn_ambient_temperature ?
_diffrn_special_details
;
The study was carried out at room temperature,in the range 283-303K

;
#These two values have been output from a single CSD field.
_refine_ls_R_factor_gt 0.044
_refine_ls_wR_factor_gt 0.044
_symmetry_cell_setting monoclinic
_symmetry_space_group_name_H-M 'P 21/c'
_symmetry_Int_Tables_number 14
loop_
_symmetry_equiv_pos_site_id
_symmetry_equiv_pos_as_xyz
1 x,y,z
2 -x,1/2+y,1/2-z
3 -x,-y,-z
4 x,-1/2-y,-1/2+z
_cell_length_a 8.8770(7)
_cell_length_b 11.244(1)
_cell_length_c 14.690(1)
_cell_angle_alpha 90
_cell_angle_beta 91.551(6)
_cell_angle_gamma 90
_cell_formula_units_Z 4
loop_
_atom_type_symbol
_atom_type_radius_bond
C 0.68
H 0.23
N 0.68
O 0.68
loop_
_atom_site_label
_atom_site_type_symbol
_atom_site_fract_x
_atom_site_fract_y
_atom_site_fract_z
O1 O 0.6640(2) 0.0961(1) 0.8128(1)
O2 O 0.4902(2) 0.2170(2) 0.7750(1)
N1 N 0.8549(2) 0.5868(1) 1.1806(1)
N2 N 0.9664(1) 0.2853(1) 1.2067(1)
N3 N 0.9554(1) -0.0205(1) 1.1467(1)
N4 N 0.5582(2) 0.1565(1) 0.8312(1)
C1 C 0.7979(2) 0.4011(1) 0.9956(1)
C2 C 0.8410(2) 0.3939(1) 1.0846(1)
C3 C 0.8950(2) 0.2810(1) 1.1253(1)
C4 C 0.8672(2) 0.1783(1) 1.0782(1)
C5 C 0.7782(2) 0.1776(1) 0.9885(1)
C6 C 0.8165(2) 0.2925(1) 0.9381(1)
C7 C 0.7383(2) 0.5109(1) 0.9543(1)
C8 C 0.5957(2) 0.5056(1) 0.8954(1)
C9 C 0.7395(2) 0.5325(2) 0.8533(1)
C10 C 0.8454(2) 0.5004(1) 1.1394(1)
C11 C 0.9159(2) 0.0685(1) 1.1161(1)
C12 C 0.6080(2) 0.1644(1) 0.9994(1)
C13 C 0.5057(2) 0.1597(1) 0.9248(1)
C14 C 0.3519(2) 0.1585(2) 0.9335(1)
C15 C 0.2937(2) 0.1561(2) 1.0186(1)
C16 C 0.3882(2) 0.1579(2) 1.0932(1)
C17 C 0.5431(2) 0.1636(1) 1.0839(1)
H1 H 0.972(1) 0.344(1) 1.229(1)
H2 H 1.006(1) 0.227(1) 1.226(1)
H3 H 0.821(2) 0.112(1) 0.952(1)
H4 H 0.926(2) 0.289(1) 0.924(1)
H5 H 0.763(2) 0.298(1) 0.879(1)
H6 H 0.742(2) 0.576(1) 0.991(1)
H7 H 0.572(2) 0.568(1) 0.904(1)
H8 H 0.550(2) 0.428(2) 0.885(1)
H9 H 0.794(2) 0.473(1) 0.819(1)
H10 H 0.764(2) 0.611(1) 0.839(1)
H11 H 0.295(2) 0.158(1) 0.883(1)
H12 H 0.192(2) 0.155(2) 1.021(1)
H13 H 0.361(2) 0.158(1) 1.146(1)
H14 H 0.605(1) 0.170(1) 1.133(1)
#END
