
#######################################################################
#
#                 Cambridge Crystallographic Data Centre
#                                CCDC
#
#######################################################################
#
# If this CIF has been generated from an entry in the Cambridge
# Structural Database, then it will include bibliographic, chemical,
# crystal, experimental, refinement or atomic coordinate data resulting
# from the CCDC's data processing and validation procedures.
#
#######################################################################

data_CSD_CIF_YISZIJ
_audit_creation_date 1995-11-06
_audit_creation_method CSD-ConQuest-V1
_database_code_CSD YISZIJ
_chemical_formula_sum 'C30 H26 N6 O4'
_chemical_formula_moiety
;
C30 H26 N6 O4
;
_journal_coden_Cambridge 122
_journal_year 1993
_journal_page_first 360
_journal_name_full 'Khim.Get.Soedin.,SSSR(Russ.)(Chem.Heterocycl.Compd.) '
loop_
_publ_author_name
"V.D.Orlov"
"N.V.Getmanskii"
"O.V.Shishkin"
"E.E.Lakin"
"V.P.Kuznetsov"
_chemical_name_systematic
;
3-(5-(2-Nitrophenyl)-3-phenyl-2-pyrazolin-1-yl)-3-(2-nitrophenyl)propiophenyl 
ketone hydrazone
;
_chemical_melting_point 446.15
_cell_volume   2698.020
_exptl_crystal_colour 'yellow'
_exptl_crystal_density_diffrn 1.316
_exptl_special_details
;
z(C17) is 0.7493 not 0.0493

;
_diffrn_ambient_temperature ?
_diffrn_special_details
;
The study was carried out at room temperature,in the range 283-303K

;
#These two values have been output from a single CSD field.
_refine_ls_R_factor_gt 0.057
_refine_ls_wR_factor_gt 0.057
_symmetry_cell_setting monoclinic
_symmetry_space_group_name_H-M 'P 21/c'
_symmetry_Int_Tables_number 14
loop_
_symmetry_equiv_pos_site_id
_symmetry_equiv_pos_as_xyz
1 x,y,z
2 -x,1/2+y,1/2-z
3 -x,-y,-z
4 x,-1/2-y,-1/2+z
_cell_length_a 9.446
_cell_length_b 22.335
_cell_length_c 13.295
_cell_angle_alpha 90
_cell_angle_beta 105.87
_cell_angle_gamma 90
_cell_formula_units_Z 4
loop_
_atom_type_symbol
_atom_type_radius_bond
C 0.68
H 0.23
N 0.68
O 0.68
loop_
_atom_site_label
_atom_site_type_symbol
_atom_site_fract_x
_atom_site_fract_y
_atom_site_fract_z
N1 N 0.3119(3) 0.4024(2) 0.5870(2)
N2 N 0.2288(3) 0.4043(2) 0.4820(3)
N3 N 0.6427(4) 0.2727(2) 0.7394(3)
O1 O 0.6883(5) 0.2445(2) 0.8195(3)
O2 O 0.5751(4) 0.2489(1) 0.6572(3)
C1 C 0.2955(4) 0.3753(2) 0.4256(3)
C2 C 0.4357(4) 0.3469(2) 0.4869(3)
C3 C 0.4251(4) 0.3542(2) 0.6007(3)
C4 C 0.2383(4) 0.3749(2) 0.3108(3)
C5 C 0.3229(4) 0.3510(2) 0.2507(3)
C6 C 0.2732(5) 0.3492(3) 0.1430(3)
C7 C 0.1361(5) 0.3730(2) 0.0955(3)
C8 C 0.0506(5) 0.3973(2) 0.1537(4)
C9 C 0.1007(4) 0.3979(2) 0.2612(3)
C10 C 0.5680(4) 0.3749(2) 0.6757(3)
C11 C 0.6695(5) 0.3368(2) 0.7401(3)
C12 C 0.8005(5) 0.3563(2) 0.8079(4)
C13 C 0.8336(5) 0.4158(3) 0.8107(4)
C14 C 0.7355(5) 0.4555(3) 0.7493(4)
C15 C 0.6050(5) 0.4349(2) 0.6836(3)
N4 N 0.2753(4) 0.5515(2) 0.6248(3)
N5 N 0.2253(5) 0.5394(2) 0.5190(3)
N6 N 0.2503(5) 0.3037(2) 0.8249(3)
O3 O 0.2194(5) 0.2917(3) 0.9031(3)
O4 O 0.3755(4) 0.3119(2) 0.8218(3)
C16 C 0.2253(4) 0.4030(2) 0.6640(3)
C17 C 0.1396(4) 0.4613(2) 0.6570(3)
C18 C 0.2360(4) 0.5166(2) 0.6880(3)
C19 C 0.1219(4) 0.3487(2) 0.6522(3)
C20 C 0.1321(5) 0.3040(2) 0.7266(3)
C21 C 0.0325(5) 0.2575(2) 0.7164(4)
C22 C -0.0797(6) 0.2545(2) 0.6272(5)
C23 C -0.0972(5) 0.2969(3) 0.5503(4)
C24 C 0.0020(5) 0.3437(2) 0.5643(4)
C25 C 0.2830(4) 0.5345(2) 0.8001(3)
C26 C 0.3415(5) 0.5907(2) 0.8287(4)
C27 C 0.3844(5) 0.6077(2) 0.9319(4)
C28 C 0.3720(5) 0.5693(2) 1.0109(4)
C29 C 0.3114(5) 0.5135(2) 0.9831(4)
C30 C 0.2685(5) 0.4961(2) 0.8788(3)
H1 H 0.42900 0.305(8) 0.467(5)
H2 H 0.520(2) 0.362(2) 0.470(5)
H3 H 0.388(4) 0.310(1) 0.622(1)
H4 H 0.418(3) 0.337(2) 0.284(3)
H5 H 0.343(5) 0.333(2) 0.109(4)
H6 H 0.108(1) 0.370(6) 0.024(3)
H7 H -0.051(5) 0.412(7) 0.121(6)
H8 H 0.037(6) 0.413(7) 0.303(7)
H9 H 0.865(9) 0.32400 0.855(9)
H10 H 0.922(5) 0.430(5) 0.857(7)
H11 H 0.755(4) 0.49500 0.753(8)
H12 H 0.53400 0.466(5) 0.644(9)
H13 H 0.223(7) 0.501(4) 0.500(6)
H14 H 0.283(8) 0.564(2) 0.477(1)
H15 H 0.304(4) 0.402(1) 0.732(2)
H16 H 0.083(2) 0.464(1) 0.587(1)
H17 H 0.072(7) 0.461(9) 0.700(9)
H18 H 0.04100 0.227(9) 0.777(2)
H19 H -0.155(8) 0.226(2) 0.617(8)
H20 H -0.174(9) 0.293(3) 0.491(5)
H21 H -0.012(7) 0.370(7) 0.512(5)
H22 H 0.359(8) 0.62000 0.778(1)
H23 H 0.425(9) 0.644(1) 0.946(2)
H24 H 0.403(6) 0.58100 1.108(9)
H25 H 0.29300 0.478(6) 1.027(6)
H26 H 0.211(8) 0.456(2) 0.856(9)
#END
