
#######################################################################
#
#                 Cambridge Crystallographic Data Centre
#                                CCDC
#
#######################################################################
#
# If this CIF has been generated from an entry in the Cambridge
# Structural Database, then it will include bibliographic, chemical,
# crystal, experimental, refinement or atomic coordinate data resulting
# from the CCDC's data processing and validation procedures.
#
#######################################################################

data_CSD_CIF_YITBAF
_audit_creation_date 2008-05-23
_audit_creation_method CSD-ConQuest-V1
_database_code_CSD YITBAF
_database_code_depnum_ccdc_archive 'CCDC 676410'
_chemical_formula_sum 'C19 H20 N2 O3'
_chemical_formula_moiety
;
C19 H20 N2 O3
;
_journal_coden_Cambridge 1336
_journal_volume 9
_journal_year 2007
_journal_page_first 5445
_journal_name_full 'Org.Lett. '
loop_
_publ_author_name
"T.Vacas"
"E.Alvarez"
"J.L.Chiara"
_chemical_name_systematic
;
1-Benzyloxyamino-9b-hydroxy-1-methyl-1,2,3,9b-tetrahydropyrrolo(2,1-a)isoindol
-5-one
;
_chemical_melting_point 411.15
_cell_volume   1620.998
_exptl_crystal_colour 'colorless'
_exptl_crystal_density_diffrn 1.329
_exptl_special_details
;
Melting point range 411.15-413.15K

;
_exptl_crystal_description 'prism'
_diffrn_ambient_temperature 100
#These two values have been output from a single CSD field.
_refine_ls_R_factor_gt 0.0441
_refine_ls_wR_factor_gt 0.0441
_symmetry_cell_setting triclinic
_symmetry_space_group_name_H-M 'P -1'
_symmetry_Int_Tables_number 2
loop_
_symmetry_equiv_pos_site_id
_symmetry_equiv_pos_as_xyz
1 x,y,z
2 -x,-y,-z
_cell_length_a 9.5421(7)
_cell_length_b 11.3451(8)
_cell_length_c 15.2978(11)
_cell_angle_alpha 80.669(2)
_cell_angle_beta 82.832(2)
_cell_angle_gamma 87.598(2)
_cell_formula_units_Z 4
loop_
_atom_type_symbol
_atom_type_radius_bond
C 0.68
H 0.23
N 0.68
O 0.68
loop_
_atom_site_label
_atom_site_type_symbol
_atom_site_fract_x
_atom_site_fract_y
_atom_site_fract_z
O1 O 0.23145(11) 0.43044(9) 0.03783(7)
O2 O 0.06596(13) 0.05277(9) 0.07000(8)
O3 O -0.03449(11) -0.02718(9) 0.26436(7)
N1 N -0.13170(14) 0.04980(11) 0.21310(9)
N2 N 0.09554(14) 0.26316(11) 0.06025(9)
C1 C -0.05841(17) 0.16052(13) 0.17696(11)
C2 C -0.14609(18) 0.23337(14) 0.10784(11)
H1 H -0.18860 0.17970 0.07390
H2 H -0.22280 0.27930 0.13790
C3 C -0.04280(17) 0.31828(15) 0.04537(12)
H3 H -0.05980 0.32280 -0.01760
H4 H -0.05090 0.39960 0.06140
C4 C 0.08535(17) 0.14531(13) 0.11782(10)
C5 C 0.22433(16) 0.13701(13) 0.1568(1)
C6 C 0.29830(17) 0.24177(13) 0.12696(10)
C7 C 0.21027(17) 0.32467(13) 0.06984(10)
C8 C 0.28347(17) 0.04363(13) 0.21137(11)
H5 H 0.23420 -0.02850 0.23230
C9 C 0.41688(17) 0.05874(14) 0.23446(11)
H6 H 0.45940 -0.00450 0.27160
C10 C 0.48980(18) 0.16411(14) 0.20463(11)
H7 H 0.58090 0.17170 0.22180
C11 C 0.43120(17) 0.25815(13) 0.15015(10)
H8 H 0.47990 0.33060 0.12970
C12 C -0.04027(18) 0.22891(14) 0.25243(11)
H9 H -0.13290 0.24300 0.28510
H10 H 0.00350 0.30570 0.22760
H11 H 0.02030 0.18210 0.29310
C13 C -0.10912(18) -0.07292(15) 0.34924(11)
H12 H -0.18350 -0.12760 0.34180
H13 H -0.15460 -0.00660 0.37800
C14 C -0.00418(18) -0.13885(14) 0.40566(11)
C15 C 0.10983(18) -0.08002(14) 0.42679(11)
H14 H 0.12080 0.00290 0.40540
C16 C 0.20654(19) -0.14071(15) 0.47827(12)
H15 H 0.28400 -0.09950 0.49160
C17 C 0.1916(2) -0.26162(15) 0.51084(11)
H16 H 0.25880 -0.30340 0.54600
C18 C 0.07863(19) -0.32039(15) 0.49183(11)
H17 H 0.06670 -0.40270 0.51500
C19 C -0.01827(19) -0.25975(15) 0.43881(11)
H18 H -0.09480 -0.30160 0.42510
O4 O 0.28470(12) 0.07771(9) 0.92892(8)
O5 O 0.48770(12) 0.43301(9) 0.92801(7)
O6 O 0.65120(12) 0.51672(9) 0.73898(7)
N3 N 0.71556(14) 0.43093(11) 0.80496(9)
N4 N 0.44247(14) 0.22772(11) 0.92330(8)
C20 C 0.62723(16) 0.32655(13) 0.82623(10)
C21 C 0.68945(17) 0.24101(14) 0.90148(11)
H19 H 0.76990 0.19380 0.87660
H20 H 0.72290 0.28650 0.94460
C22 C 0.56922(17) 0.15866(13) 0.94709(11)
H21 H 0.57550 0.08180 0.92400
H22 H 0.57040 0.14270 1.01260
C23 C 0.47428(17) 0.34775(12) 0.87237(10)
C24 C 0.34831(16) 0.37277(13) 0.82078(10)
C25 C 0.25772(17) 0.27710(13) 0.84273(11)
C26 C 0.32405(17) 0.18124(13) 0.90311(10)
C27 C 0.31217(18) 0.47406(13) 0.76356(11)
H23 H 0.37320 0.54010 0.74770
C28 C 0.18234(18) 0.47500(14) 0.73023(11)
H24 H 0.15550 0.54280 0.69020
C29 C 0.09145(19) 0.37962(15) 0.75386(12)
H25 H 0.00290 0.38400 0.73100
C30 C 0.12860(17) 0.27803(14) 0.81052(11)
H26 H 0.06780 0.21180 0.82650
C31 C 0.62405(17) 0.26912(13) 0.74296(10)
H27 H 0.58550 0.32680 0.69660
H28 H 0.56440 0.19870 0.75760
H29 H 0.72020 0.24500 0.72110
C32 C 0.76046(19) 0.55278(17) 0.66806(12)
H30 H 0.80600 0.48190 0.64540
H31 H 0.83330 0.59670 0.68960
C33 C 0.69393(17) 0.63193(14) 0.59515(11)
C34 C 0.67247(19) 0.75292(15) 0.59689(12)
H32 H 0.69980 0.78700 0.64480
C35 C 0.6112(2) 0.82451(16) 0.52886(15)
H33 H 0.59530 0.90730 0.53070
C36 C 0.5734(2) 0.77547(18) 0.45821(13)
H34 H 0.53260 0.82470 0.41120
C37 C 0.59490(19) 0.65526(18) 0.45634(13)
H35 H 0.56940 0.62130 0.40790
C38 C 0.65363(18) 0.58405(15) 0.52505(12)
H36 H 0.66640 0.50080 0.52410
H37 H -0.1397(19) 0.0104(15) 0.1659(12)
H38 H 0.7038(17) 0.4677(14) 0.8534(11)
H39 H 0.137(2) 0.0564(17) 0.0253(14)
H40 H 0.405(2) 0.4382(18) 0.9622(15)
#END
