
#######################################################################
#
#                 Cambridge Crystallographic Data Centre
#                                CCDC
#
#######################################################################
#
# If this CIF has been generated from an entry in the Cambridge
# Structural Database, then it will include bibliographic, chemical,
# crystal, experimental, refinement or atomic coordinate data resulting
# from the CCDC's data processing and validation procedures.
#
#######################################################################

data_CSD_CIF_YITFEO
_audit_creation_date 2013-11-06
_audit_creation_method CSD-ConQuest-V1
_database_code_CSD YITFEO
_database_code_depnum_ccdc_archive 'CCDC 947885'
_chemical_formula_sum 'C19 H18 N4 O2'
_chemical_formula_moiety
;
C19 H18 N4 O2
;
_journal_coden_Cambridge 24
_journal_volume 54
_journal_year 2013
_journal_page_first 5984
_journal_name_full 'Tetrahedron Lett. '
loop_
_publ_author_name
"A.K.Verma"
"Rajeev Ranjan Jha"
"V.Kasi Sankar"
"Raj Pal Singh"
_chemical_name_systematic
;
1-Ethyl-3-methyl-4-(4-nitrophenyl)-4,5-dihydroimidazo[1,5-a]quinoxaline
;
_cell_volume   1602.036
_exptl_crystal_colour 'yellow'
_exptl_crystal_density_diffrn 1.386
_exptl_crystal_description 'prism'
_diffrn_ambient_temperature 173
#These two values have been output from a single CSD field.
_refine_ls_R_factor_gt 0.0511
_refine_ls_wR_factor_gt 0.0511
_symmetry_cell_setting monoclinic
_symmetry_space_group_name_H-M 'P 21/n'
_symmetry_Int_Tables_number 14
loop_
_symmetry_equiv_pos_site_id
_symmetry_equiv_pos_as_xyz
1 x,y,z
2 1/2-x,1/2+y,1/2-z
3 -x,-y,-z
4 -1/2+x,-1/2-y,-1/2+z
_cell_length_a 8.694(3)
_cell_length_b 20.560(7)
_cell_length_c 9.211(3)
_cell_angle_alpha 90
_cell_angle_beta 103.339(6)
_cell_angle_gamma 90
_cell_formula_units_Z 4
loop_
_atom_type_symbol
_atom_type_radius_bond
C 0.68
H 0.23
N 0.68
O 0.68
loop_
_atom_site_label
_atom_site_type_symbol
_atom_site_fract_x
_atom_site_fract_y
_atom_site_fract_z
C1 C 0.1862(2) 0.10745(9) 0.4440(2)
H1 H 0.23940 0.10310 0.54580
C2 C 0.0895(2) 0.05794(10) 0.3749(2)
H2 H 0.07700 0.01940 0.42780
C3 C 0.0113(2) 0.06545(9) 0.2273(2)
C4 C 0.0303(2) 0.12012(9) 0.1464(2)
H3 H -0.02300 0.12400 0.04440
C5 C 0.1289(2) 0.16929(9) 0.2172(2)
H4 H 0.14330 0.20720 0.16290
C6 C 0.20717(19) 0.16387(8) 0.36668(19)
C7 C 0.31748(19) 0.21684(8) 0.44955(18)
H5 H 0.40380 0.19460 0.52360
C8 C 0.30506(19) 0.30696(8) 0.27344(18)
C9 C 0.3354(2) 0.32799(9) 0.13886(19)
H6 H 0.41580 0.30720 0.10140
C10 C 0.2510(2) 0.37844(9) 0.05886(19)
H7 H 0.27420 0.39230 -0.03210
C11 C 0.1322(2) 0.40885(8) 0.11154(19)
H8 H 0.07340 0.44330 0.05610
C12 C 0.0993(2) 0.38908(8) 0.24516(18)
H9 H 0.01690 0.40960 0.28020
C13 C 0.18612(19) 0.33934(8) 0.32791(17)
C14 C 0.09360(19) 0.34724(8) 0.57299(18)
C15 C 0.0044(2) 0.41035(8) 0.55354(18)
H10 H -0.10030 0.40360 0.48520
H11 H 0.06270 0.44260 0.50710
C16 C -0.0186(2) 0.43725(8) 0.70124(19)
H12 H 0.08310 0.45250 0.76130
H13 H -0.06020 0.40300 0.75540
H14 H -0.09350 0.47360 0.68190
C17 C 0.20468(18) 0.25827(8) 0.67329(18)
C18 C 0.2565(2) 0.20872(9) 0.79264(19)
H15 H 0.34830 0.18510 0.77470
H16 H 0.17010 0.17800 0.79180
H17 H 0.28530 0.23040 0.88990
C19 C 0.23315(18) 0.26101(8) 0.53488(18)
N1 N -0.0963(2) 0.01380(8) 0.1551(2)
N2 N 0.39185(17) 0.25691(7) 0.35470(16)
H18 H 0.449(2) 0.2341(10) 0.309(2)
N3 N 0.16291(15) 0.31799(6) 0.46900(14)
N4 N 0.11614(16) 0.31179(7) 0.69527(15)
O1 O -0.15761(17) 0.01917(7) 0.02193(18)
O2 O -0.1217(2) -0.03175(9) 0.2322(2)
#END
