
#######################################################################
#
#                 Cambridge Crystallographic Data Centre
#                                CCDC
#
#######################################################################
#
# If this CIF has been generated from an entry in the Cambridge
# Structural Database, then it will include bibliographic, chemical,
# crystal, experimental, refinement or atomic coordinate data resulting
# from the CCDC's data processing and validation procedures.
#
#######################################################################

data_CSD_CIF_YITJUG
_audit_creation_date 1995-11-06
_audit_creation_method CSD-ConQuest-V1
_database_code_CSD YITJUG
_chemical_formula_sum 'C15 H14 N2 O5'
_chemical_formula_moiety
;
C15 H14 N2 O5
;
_journal_coden_Cambridge 1025
_journal_volume 43
_journal_year 1992
_journal_page_first 159
_journal_name_full 'Farm.Vestn.(Russ.)(Pharmaceut.Reports) '
loop_
_publ_author_name
"F.Lovren"
"I.D.Gaon"
"S.Vladimirov"
"B.Ribar"
"P.Engel"
_chemical_name_systematic
;
2-Methyl-3-ethoxycarbonyl-4-(4-nitrobenzylidene)-5-pyrrolinone
;
_chemical_melting_point 495.15
_cell_volume   1424.753
_exptl_crystal_density_diffrn 1.41
_exptl_special_details
;
Melting point range 495.15-497.15K
antifungal activity
y(C11) is 0.2863 not 0.3863
;
_diffrn_ambient_temperature ?
_diffrn_special_details
;
The study was carried out at room temperature,in the range 283-303K

;
#These two values have been output from a single CSD field.
_refine_ls_R_factor_gt 0.0555
_refine_ls_wR_factor_gt 0.0555
_symmetry_cell_setting monoclinic
_symmetry_space_group_name_H-M 'P 21/c'
_symmetry_Int_Tables_number 14
loop_
_symmetry_equiv_pos_site_id
_symmetry_equiv_pos_as_xyz
1 x,y,z
2 -x,1/2+y,1/2-z
3 -x,-y,-z
4 x,-1/2-y,-1/2+z
_cell_length_a 13.687
_cell_length_b 7.343
_cell_length_c 14.34
_cell_angle_alpha 90
_cell_angle_beta 98.67
_cell_angle_gamma 90
_cell_formula_units_Z 4
loop_
_atom_type_symbol
_atom_type_radius_bond
C 0.68
H 0.23
N 0.68
O 0.68
loop_
_atom_site_label
_atom_site_type_symbol
_atom_site_fract_x
_atom_site_fract_y
_atom_site_fract_z
O1 O 0.3722(2) 0.4041(5) 0.6445(2)
O2 O 0.5793(2) 0.1290(4) 0.3761(2)
O3 O 0.7125(2) 0.1285(4) 0.4862(2)
O4 O -0.0381(2) 0.3777(7) 0.2245(3)
O5 O -0.0621(2) 0.4697(6) 0.3601(2)
N1 N 0.5334(2) 0.3093(5) 0.6734(2)
N2 N -0.0083(3) 0.4131(6) 0.3067(3)
C1 C 0.6046(3) 0.2403(5) 0.6249(2)
C2 C 0.5651(2) 0.2242(5) 0.5316(2)
C3 C 0.4622(2) 0.2842(5) 0.5197(2)
C4 C 0.4453(3) 0.3414(5) 0.6167(2)
C5 C 0.3985(3) 0.2828(5) 0.4381(2)
C6 C 0.2944(2) 0.3291(5) 0.4102(2)
C7 C 0.2320(3) 0.4078(6) 0.4666(3)
C8 C 0.1331(3) 0.4372(7) 0.4325(3)
C9 C 0.0968(2) 0.3873(5) 0.3411(3)
C10 C 0.1568(3) 0.3150(6) 0.2829(3)
C11 C 0.2545(3) 0.2863(6) 0.3172(3)
C12 C 0.7027(3) 0.1973(8) 0.6791(3)
C13 C 0.6167(2) 0.1573(5) 0.4571(2)
C14 C 0.7721(3) 0.0619(10) 0.4191(3)
C15 C 0.8751(3) 0.0431(11) 0.4680(5)
H1 H 0.540(3) 0.333(5) 0.734(3)
H2 H 0.424(2) 0.244(5) 0.388(2)
H3 H 0.257(3) 0.449(6) 0.525(3)
H4 H 0.091(3) 0.484(6) 0.469(3)
H5 H 0.130(3) 0.279(5) 0.223(3)
H6 H 0.299(3) 0.236(5) 0.276(3)
H7 H 0.741(4) 0.113(8) 0.648(4)
H8 H 0.696(4) 0.147(7) 0.741(4)
H9 H 0.736(4) 0.307(8) 0.689(4)
H10 H 0.916(4) 0.016(8) 0.426(4)
H11 H 0.905(5) 0.16(1) 0.493(5)
H12 H 0.881(4) -0.042(8) 0.517(4)
H13 H 0.770(4) 0.164(7) 0.377(4)
H14 H 0.742(3) -0.042(6) 0.394(3)
#END
