
#######################################################################
#
#                 Cambridge Crystallographic Data Centre
#                                CCDC
#
#######################################################################
#
# If this CIF has been generated from an entry in the Cambridge
# Structural Database, then it will include bibliographic, chemical,
# crystal, experimental, refinement or atomic coordinate data resulting
# from the CCDC's data processing and validation procedures.
#
#######################################################################

data_CSD_CIF_YITMAR
_audit_creation_date 2013-11-06
_audit_creation_method CSD-ConQuest-V1
_database_code_CSD YITMAR
_database_code_depnum_ccdc_archive 'CCDC 956309'
_chemical_formula_sum 'C32 H25 N5 O5'
_chemical_formula_moiety
;
C32 H25 N5 O5
;
_journal_coden_Cambridge 177
_journal_volume 11
_journal_year 2013
_journal_page_first 8175
_journal_name_full 'Org.Biomol.Chem. '
loop_
_publ_author_name
"Jing-Xin Liu"
"Qing-Qing Zhou"
"Jin-Gen Deng"
"Ying-Chun Chen"
_chemical_name_systematic
;
6-(2-((2,4-Dinitrophenyl)hydrazono)ethyl)-7,9a-diphenyl-9,9a-dihydropyrido[1,2
-a]indol-10(6H)-one
;
_cell_volume   1346.173
_exptl_crystal_density_diffrn 1.38
_exptl_special_details
;
Absolute configuration

;
_diffrn_ambient_temperature 291
#These two values have been output from a single CSD field.
_refine_ls_R_factor_gt 0.034
_refine_ls_wR_factor_gt 0.034
_symmetry_cell_setting triclinic
_symmetry_space_group_name_H-M 'P 1'
_symmetry_Int_Tables_number 1
loop_
_symmetry_equiv_pos_site_id
_symmetry_equiv_pos_as_xyz
1 x,y,z
_cell_length_a 7.9810(2)
_cell_length_b 8.9970(2)
_cell_length_c 19.1833(5)
_cell_angle_alpha 78.855(2)
_cell_angle_beta 84.930(2)
_cell_angle_gamma 88.715(2)
_cell_formula_units_Z 2
loop_
_atom_type_symbol
_atom_type_radius_bond
C 0.68
H 0.23
N 0.68
O 0.68
loop_
_atom_site_label
_atom_site_type_symbol
_atom_site_fract_x
_atom_site_fract_y
_atom_site_fract_z
N1 N 0.01531(18) 0.52461(16) 0.27042(8)
C1 C -0.0768(2) 0.0035(2) 0.63376(10)
O1 O 0.44441(19) 0.6015(2) 0.21211(9)
O2 O -0.5268(2) -0.3242(2) 0.71838(10)
C2 C -0.0877(2) 0.26393(19) 0.28138(9)
N2 N -0.1926(2) 0.26034(18) 0.47091(9)
O3 O -0.3021(3) -0.3569(2) 0.77177(10)
C3 C 0.1708(2) 0.7189(2) 0.20023(9)
C4 C 0.3371(3) 0.5099(2) 0.44581(11)
H1 H 0.35760 0.58880 0.46880
C5 C 0.0091(2) 0.66584(19) 0.22742(9)
N3 N -0.0983(2) 0.20021(18) 0.52723(9)
H2 H -0.00130 0.23660 0.53080
C6 C -0.2221(3) 0.1460(2) 0.30178(10)
C7 C -0.1314(2) 0.42509(19) 0.28940(9)
H3 H -0.21200 0.46230 0.25420
C8 C -0.3089(2) -0.1604(2) 0.67534(10)
N4 N 0.0931(2) 0.0417(2) 0.64419(9)
O4 O 0.1675(2) -0.0413(2) 0.68918(12)
O5 O 0.1580(2) 0.1561(2) 0.60725(9)
C9 C -0.1277(2) 0.3697(2) 0.42534(10)
H4 H -0.02290 0.40680 0.43090
C10 C 0.1899(2) 0.4659(2) 0.2682(1)
C11 C 0.2522(2) 0.4248(2) 0.34238(10)
C12 C -0.1037(3) 0.8980(2) 0.16828(10)
H5 H -0.19600 0.95960 0.15640
C13 C -0.3276(3) 0.0316(2) 0.57170(12)
H6 H -0.38880 0.07980 0.53460
C14 C 0.1936(3) 0.8633(2) 0.15832(10)
H7 H 0.30110 0.89810 0.14130
C15 C 0.3370(3) 0.2472(2) 0.44415(12)
H8 H 0.35500 0.14750 0.46650
C16 C -0.3990(3) -0.0863(2) 0.61987(12)
H9 H -0.50760 -0.11690 0.61570
C17 C 0.2910(2) 0.6017(2) 0.22364(10)
C18 C -0.1634(2) 0.0829(2) 0.57627(10)
C19 C 0.3644(2) 0.3631(2) 0.47866(11)
H10 H 0.40140 0.34230 0.52420
C20 C -0.2207(2) 0.4378(2) 0.3630(1)
H11 H -0.24040 0.54420 0.36410
H12 H -0.32960 0.38930 0.36790
C21 C 0.0602(2) 0.2265(2) 0.25285(10)
H13 H 0.07840 0.12600 0.24860
C22 C 0.2827(2) 0.2775(2) 0.37612(11)
H14 H 0.26650 0.19790 0.35290
C23 C 0.2789(2) 0.5414(2) 0.37832(11)
H15 H 0.25760 0.64110 0.35700
C24 C -0.1491(2) -0.1169(2) 0.68252(10)
H16 H -0.08970 -0.16750 0.71970
C25 C -0.1318(2) 0.7567(2) 0.21056(10)
H17 H -0.24010 0.72320 0.22720
C26 C -0.3582(3) 0.1494(2) 0.26197(14)
H18 H -0.37250 0.23040 0.22470
N5 N -0.3848(2) -0.28780(18) 0.72554(9)
C27 C 0.2005(2) 0.3368(2) 0.22690(11)
H19 H 0.19430 0.37770 0.17650
H20 H 0.30760 0.28480 0.23270
C28 C 0.0564(3) 0.9529(2) 0.1426(1)
H21 H 0.06970 1.04960 0.11500
C29 C -0.4735(3) 0.0328(3) 0.27730(19)
H22 H -0.56310 0.03420 0.24930
C30 C -0.2080(4) 0.0263(3) 0.35757(15)
H23 H -0.11730 0.02270 0.38520
C31 C -0.3238(6) -0.0876(3) 0.37353(19)
H24 H -0.31190 -0.16720 0.41170
C32 C -0.4569(4) -0.0841(3) 0.3332(2)
H25 H -0.53600 -0.16130 0.34390
N6 N -0.23061(17) 0.14830(16) 0.97112(8)
O6 O -0.65974(18) 0.1988(2) 1.02729(9)
N7 N -0.1156(2) 0.32594(18) 0.71540(8)
H26 H -0.20380 0.27790 0.70980
C33 C -0.4212(2) -0.0646(2) 1.01519(10)
H27 H -0.41190 -0.06470 1.06530
H28 H -0.53050 -0.10490 1.01050
C34 C -0.4684(2) 0.2631(2) 0.85716(10)
H29 H -0.43130 0.34430 0.87510
O7 O 0.2951(3) 0.8599(2) 0.52129(11)
C35 C -0.4647(2) 0.11685(19) 0.89801(9)
O8 O -0.3694(2) 0.3587(2) 0.63228(9)
N8 N 0.1577(3) 0.8147(2) 0.51299(10)
N9 N -0.3121(2) 0.4784(2) 0.59784(9)
C36 C -0.0833(3) 0.3248(2) 1.03026(10)
H30 H 0.02470 0.29850 1.01440
C37 C -0.0042(3) -0.2159(2) 0.93815(10)
C38 C -0.2239(2) 0.25561(19) 1.01311(9)
N10 N -0.0297(2) 0.28628(18) 0.77607(8)
C39 C -0.0539(2) 0.4441(2) 0.66530(9)
C40 C -0.5175(2) -0.0023(2) 0.86941(11)
H31 H -0.51510 -0.10050 0.89590
C41 C -0.3860(2) 0.2956(2) 1.03898(9)
C42 C 0.0178(2) 0.1239(2) 0.88492(10)
H32 H 0.07290 0.21380 0.89240
H33 H 0.10530 0.05210 0.87550
C43 C -0.5269(2) 0.2879(2) 0.78997(11)
H34 H -0.53140 0.38600 0.76370
C44 C -0.0754(2) 0.1666(2) 0.81998(10)
H35 H -0.16350 0.10800 0.81190
C45 C -0.0718(3) 0.6393(2) 0.55793(10)
H36 H -0.13200 0.68680 0.52040
C46 C -0.1096(3) 0.4350(2) 1.07201(11)
H37 H -0.01680 0.48280 1.08360
C47 C -0.4055(2) 0.0969(2) 0.97262(10)
C48 C -0.5066(2) 0.2029(2) 1.01611(10)
C49 C -0.5787(2) 0.1682(2) 0.76166(11)
H38 H -0.61640 0.18500 0.71630
O9 O 0.0805(3) 0.8673(3) 0.46241(12)
C50 C -0.2853(2) -0.1623(2) 0.98827(10)
H39 H -0.30720 -0.26460 0.99150
C51 C -0.5738(2) 0.0230(2) 0.80178(11)
H40 H -0.60860 -0.05820 0.78320
C52 C -0.1352(2) -0.10996(19) 0.96001(9)
C53 C -0.0855(2) 0.05441(19) 0.95486(9)
H41 H -0.01100 0.05400 0.99290
O10 O -0.3923(2) 0.5656(2) 0.55590(11)
C54 C 0.1419(3) -0.2443(2) 0.97237(14)
H42 H 0.16230 -0.19210 1.00810
C55 C 0.1765(3) 0.6190(2) 0.62036(11)
H43 H 0.28360 0.65350 0.62430
C56 C -0.4085(3) 0.4069(2) 1.0808(1)
H44 H -0.51590 0.43350 1.09730
C57 C 0.1081(3) 0.5005(2) 0.66937(11)
H45 H 0.17030 0.45530 0.70670
C58 C -0.2699(3) 0.4763(2) 1.09714(10)
H46 H -0.28270 0.55070 1.12480
C59 C 0.2280(5) -0.4270(3) 0.9010(2)
H47 H 0.30670 -0.49660 0.88790
C60 C -0.1411(2) 0.5190(2) 0.60731(9)
C61 C -0.0331(4) -0.2961(3) 0.88582(14)
H48 H -0.13130 -0.27880 0.86270
C62 C 0.0846(3) 0.6873(2) 0.56472(10)
C63 C 0.0820(6) -0.4013(4) 0.86759(19)
H49 H 0.06080 -0.45520 0.83260
C64 C 0.2578(3) -0.3496(3) 0.9540(2)
H50 H 0.35570 -0.36810 0.97730
#END
