
#######################################################################
#
#                 Cambridge Crystallographic Data Centre
#                                CCDC
#
#######################################################################
#
# If this CIF has been generated from an entry in the Cambridge
# Structural Database, then it will include bibliographic, chemical,
# crystal, experimental, refinement or atomic coordinate data resulting
# from the CCDC's data processing and validation procedures.
#
#######################################################################

data_CSD_CIF_YIVGUG
_audit_creation_date 2008-05-23
_audit_creation_method CSD-ConQuest-V1
_database_code_CSD YIVGUG
_database_code_depnum_ccdc_archive 'CCDC 651332'
_chemical_formula_sum 'C12 H15 N5 O2'
_chemical_formula_moiety
;
C12 H15 N5 O2
;
_journal_coden_Cambridge 35
_journal_volume 73
_journal_year 2008
_journal_page_first 111
_journal_name_full 'J.Org.Chem. '
loop_
_publ_author_name
"G.B.W.L.Ligthart"
"Daiwei Guo"
"A.L.Spek"
"H.Kooijman"
"H.Zuilhof.R.P.Sijbesma"
_chemical_name_systematic
;
3-Butylureido-1,2,4-benzotriazine 1-oxyl
;
_cell_volume   2544.957
_exptl_crystal_colour 'yellow'
_exptl_crystal_density_diffrn 1.364
_exptl_crystal_description 'block'
_exptl_crystal_preparation 'chloroform'
_diffrn_ambient_temperature 150
_refine_special_details
;
The butylamino group, in one independent molecule, is disordered over two 
sites with occupancies 0.8:0.2.
;
#These two values have been output from a single CSD field.
_refine_ls_R_factor_gt 0.0409
_refine_ls_wR_factor_gt 0.0409
_symmetry_cell_setting monoclinic
_symmetry_space_group_name_H-M 'P 21/c'
_symmetry_Int_Tables_number 14
loop_
_symmetry_equiv_pos_site_id
_symmetry_equiv_pos_as_xyz
1 x,y,z
2 -x,1/2+y,1/2-z
3 -x,-y,-z
4 x,-1/2-y,-1/2+z
_cell_length_a 10.9164(10)
_cell_length_b 19.4699(10)
_cell_length_c 12.785(3)
_cell_angle_alpha 90
_cell_angle_beta 110.518(10)
_cell_angle_gamma 90
_cell_formula_units_Z 8
loop_
_atom_type_symbol
_atom_type_radius_bond
C 0.68
H 0.23
N 0.68
O 0.68
loop_
_atom_site_label
_atom_site_type_symbol
_atom_site_fract_x
_atom_site_fract_y
_atom_site_fract_z
O1 O 0.02172(10) 0.24980(5) 0.25479(7)
O2 O 0.57021(9) 0.35286(5) 0.65469(8)
N1 N 0.09031(10) 0.24219(5) 0.35578(8)
N2 N 0.19556(10) 0.28020(5) 0.39734(8)
N3 N 0.24112(10) 0.22773(5) 0.57825(8)
N4 N 0.37424(10) 0.31219(5) 0.54284(9)
N5 N 0.47387(16) 0.26574(10) 0.72367(14)
C1 C 0.05198(12) 0.19377(6) 0.42037(10)
C2 C -0.05813(13) 0.15244(7) 0.37144(12)
C3 C -0.08888(14) 0.10551(7) 0.43818(13)
C4 C -0.01309(14) 0.09989(7) 0.55149(13)
C5 C 0.09478(13) 0.14049(6) 0.59968(12)
C6 C 0.13094(11) 0.18846(6) 0.53322(10)
C7 C 0.26650(11) 0.27023(6) 0.50853(10)
C8 C 0.47833(12) 0.31323(7) 0.64428(11)
C9 C 0.58645(15) 0.25307(9) 0.82475(13)
C10 C 0.59021(15) 0.29613(9) 0.92439(13)
C11 C 0.7053(2) 0.27643(12) 1.02850(16)
C12 C 0.7164(3) 0.32218(13) 1.1269(2)
N6? N 0.4743(7) 0.2921(3) 0.7256(6)
C13? C 0.5868(6) 0.2991(4) 0.8339(6)
C14? C 0.5907(6) 0.2420(4) 0.9115(5)
C15? C 0.7077(9) 0.2500(4) 1.0241(8)
C16? C 0.6977(11) 0.3089(6) 1.0916(9)
O3 O 0.99015(10) 0.48532(5) 0.75462(7)
O4 O 0.40603(9) 0.40175(5) 0.38060(8)
N7 N 0.91034(10) 0.49869(5) 0.65904(8)
N8 N 0.80042(10) 0.46407(5) 0.62294(8)
N9 N 0.73718(10) 0.52458(5) 0.44709(8)
N10 N 0.60736(10) 0.43991(6) 0.48726(9)
N11 N 0.50320(11) 0.48102(6) 0.30618(9)
C17 C 0.94277(12) 0.54881(6) 0.59393(10)
C18 C 1.06164(12) 0.58427(7) 0.63533(11)
C19 C 1.09028(13) 0.63155(7) 0.56778(11)
C20 C 1.00160(12) 0.64369(7) 0.45963(11)
C21 C 0.88484(12) 0.60915(6) 0.41939(10)
C22 C 0.85239(11) 0.56002(6) 0.48651(10)
C23 C 0.71826(11) 0.47952(6) 0.51673(10)
C24 C 0.49909(12) 0.43999(6) 0.38788(10)
C25 C 0.39369(12) 0.48938(7) 0.20171(10)
C26 C 0.40621(12) 0.44664(6) 0.10671(10)
C27 C 0.30365(12) 0.46577(7) -0.00528(10)
C28 C 0.31310(15) 0.42458(8) -0.10262(12)
H1 H 0.14450 0.13630 0.67700
H2 H 0.66720 0.26190 0.80830
H3 H 0.58670 0.20400 0.84490
H4 H 0.50760 0.28980 0.93890
H5 H 0.59730 0.34520 0.90730
H6 H 0.69470 0.22820 1.04840
H7 H 0.78720 0.27950 1.01190
H8 H 0.72390 0.37020 1.10670
H9 H 0.79410 0.30930 1.19050
H10 H 0.63830 0.31670 1.14720
H11 H 0.3810(13) 0.3395(7) 0.4925(12)
H12 H 0.40120 0.24260 0.71280
H13 H -0.10980 0.15680 0.29460
H14 H -0.16260 0.07640 0.40710
H15 H -0.03680 0.06720 0.59620
H16? H 0.40290 0.27090 0.72530
H17? H 0.66970 0.29990 0.81870
H18? H 0.57910 0.34320 0.86960
H19? H 0.59910 0.19780 0.87610
H20? H 0.50780 0.24100 0.92650
H21? H 0.71440 0.20760 1.06860
H22? H 0.78940 0.25430 1.00760
H23? H 0.71450 0.35120 1.05750
H24? H 0.76230 0.30420 1.16720
H25? H 0.60970 0.31060 1.09550
H26 H 0.6001(14) 0.4144(7) 0.5395(12)
H27 H 0.5715(14) 0.5071(8) 0.3228(12)
H28 H 1.12120 0.57580 0.70870
H29 H 1.17040 0.65620 0.59430
H30 H 1.02270 0.67640 0.41340
H31 H 0.82570 0.61830 0.34610
H32 H 0.38660 0.53840 0.17990
H33 H 0.31200 0.47640 0.21380
H34 H 0.39680 0.39740 0.12190
H35 H 0.49440 0.45340 0.10290
H36 H 0.21570 0.45900 -0.00090
H37 H 0.31290 0.51510 -0.01960
H38 H 0.39950 0.43140 -0.10830
H39 H 0.24530 0.43990 -0.17180
H40 H 0.30060 0.37570 -0.09070
#END
