
#######################################################################
#
#                 Cambridge Crystallographic Data Centre
#                                CCDC
#
#######################################################################
#
# If this CIF has been generated from an entry in the Cambridge
# Structural Database, then it will include bibliographic, chemical,
# crystal, experimental, refinement or atomic coordinate data resulting
# from the CCDC's data processing and validation procedures.
#
#######################################################################

data_CSD_CIF_YIXHOC
_audit_creation_date 1995-11-06
_audit_creation_method CSD-ConQuest-V1
_database_code_CSD YIXHOC
_database_code_depnum_ccdc_archive 'CCDC 1303980'
_database_code_depnum_ccdc_fiz 'CSD 58721'
_chemical_formula_sum 'C17 H20 N2 O8'
_chemical_formula_moiety
;
C17 H20 N2 O8
;
_journal_coden_Cambridge 167
_journal_year 1995
_journal_page_first 19
_journal_name_full 'Liebigs Ann. '
loop_
_publ_author_name
"K.Ishii"
"M.Kotera"
"T.Nakano"
"T.Zenko"
"M.Sakamoto"
"I.Iida"
"T.Nishio"
_chemical_name_systematic
;
(1,7-Dioxaspiro(5.5)undecan-2-yl)methyl 3,5-dinitrobenzoate
;
_chemical_melting_point 359.15
_cell_volume    908.024
_exptl_crystal_colour 'colorless'
_exptl_crystal_density_diffrn 1.39
_exptl_special_details
;
Melting point range 359.15-361.15K
one enantiomer of (2RS,6RS)

;
_diffrn_ambient_temperature ?
_diffrn_special_details
;
The study was carried out at room temperature,in the range 283-303K

;
#These two values have been output from a single CSD field.
_refine_ls_R_factor_gt 0.108
_refine_ls_wR_factor_gt 0.108
_symmetry_cell_setting monoclinic
_symmetry_space_group_name_H-M 'P 21'
_symmetry_Int_Tables_number 4
loop_
_symmetry_equiv_pos_site_id
_symmetry_equiv_pos_as_xyz
1 x,y,z
2 -x,1/2+y,-z
_cell_length_a 10.801
_cell_length_b 5.617
_cell_length_c 15.056
_cell_angle_alpha 90
_cell_angle_beta 96.24
_cell_angle_gamma 90
_cell_formula_units_Z 2
loop_
_atom_type_symbol
_atom_type_radius_bond
C 0.68
H 0.23
N 0.68
O 0.68
loop_
_atom_site_label
_atom_site_type_symbol
_atom_site_fract_x
_atom_site_fract_y
_atom_site_fract_z
O1 O 0.655(1) 0.102(4) 0.7447(8)
O2 O 0.718(1) 0.415(4) 0.7044(6)
O3 O 0.583(1) -0.001(2) 1.0635(7)
O4 O 0.937(1) 0.940(3) 0.9238(7)
O5 O 0.901(1) 0.907(3) 1.0614(7)
O6 O 0.6279(9) 0.328(3) 1.1507(6)
O7 O 0.815(1) 0.674(2) 1.3730(6)
O8 O 0.7589(9) 0.309(3) 1.3211(6)
N1 N 0.888(1) 0.856(2) 0.9839(7)
N2 N 0.694(1) 0.310(3) 0.7601(7)
C1 C 0.719(1) 0.37700 0.8534(8)
C2 C 0.688(1) 0.334(3) 1.0069(8)
C3 C 1.016(1) 0.384(4) 1.3093(9)
C4 C 0.758(1) 0.526(3) 1.0271(9)
C5 C 0.570(1) 0.273(4) 1.391(1)
C6 C 0.626(1) 0.197(3) 1.0750(9)
C7 C 0.630(1) 0.354(3) 1.3082(8)
C8 C 0.827(1) 0.411(4) 1.3889(9)
C9 C 0.666(1) 0.251(3) 0.919(1)
C10 C 0.957(1) 0.357(3) 1.3933(9)
C11 C 0.995(1) 0.690(4) 1.291(1)
C12 C 0.791(1) 0.573(3) 0.8723(9)
C13 C 0.771(1) 0.371(4) 1.4776(8)
C14 C 0.577(1) 0.206(3) 1.2245(9)
C15 C 0.633(2) 0.402(5) 1.4690(9)
C16 C 0.863(2) 0.737(3) 1.292(1)
C17 C 0.811(1) 0.637(3) 0.9614(9)
H1 H 0.97450 0.29170 1.26210
H2 H 1.10150 0.34200 1.31730
H3 H 1.01930 0.73210 1.23390
H4 H 1.04220 0.77810 1.33590
H5 H 0.82490 0.66140 0.82520
H6 H 1.00280 0.45720 1.43880
H7 H 0.97050 0.19650 1.41160
H8 H 0.84760 0.90570 1.27980
H9 H 0.81570 0.65400 1.24170
H10 H 0.80690 0.48690 1.52230
H11 H 0.79040 0.21830 1.50040
H12 H 0.60270 0.35410 1.52290
H13 H 0.61530 0.56940 1.46010
H14 H 0.58330 0.10090 1.40140
H15 H 0.48250 0.29750 1.38640
H16 H 0.61250 0.51910 1.29650
H17 H 0.60390 0.04070 1.23050
H18 H 0.48660 0.20130 1.21830
H19 H 0.77150 0.58550 1.08860
H20 H 0.61050 0.11300 0.90320
#END
