
#######################################################################
#
#                 Cambridge Crystallographic Data Centre
#                                CCDC
#
#######################################################################
#
# If this CIF has been generated from an entry in the Cambridge
# Structural Database, then it will include bibliographic, chemical,
# crystal, experimental, refinement or atomic coordinate data resulting
# from the CCDC's data processing and validation procedures.
#
#######################################################################

data_CSD_CIF_YIXLEW
_audit_creation_date 1995-11-06
_audit_creation_method CSD-ConQuest-V1
_database_code_CSD YIXLEW
_database_code_depnum_ccdc_archive 'CCDC 112746'
_database_code_depnum_ccdc_fiz 'CSD 401170'
_chemical_formula_sum 'C27 H40 N2 O7'
_chemical_formula_moiety
;
C27 H40 N2 O7
;
_journal_coden_Cambridge 167
_journal_year 1995
_journal_page_first 161
_journal_name_full 'Liebigs Ann. '
loop_
_publ_author_name
"G.Maier"
"H.Rang"
"R.Emrich"
"S.Gries"
"H.Irngartinger"
_chemical_name_systematic
;
2,3,4-Tri-t-butyl-2-(3,5-dinitrophenylcarbonyloxy(t-butyl) methyl)-2H-oxete
;
_chemical_name_common
;
(2,2,-Dimethyl-1-(2,3,4-tri-t-butyl-2H-oxet-2-yl)propyl) 3,5-dinitrobenzoate
;
_chemical_melting_point 426.15
_cell_volume   2877.871
_exptl_crystal_colour 'yellow-green'
_exptl_crystal_density_diffrn 1.165
_diffrn_ambient_temperature ?
_diffrn_special_details
;
The study was carried out at room temperature,in the range 283-303K

;
#These two values have been output from a single CSD field.
_refine_ls_R_factor_gt 0.042
_refine_ls_wR_factor_gt 0.042
_symmetry_cell_setting orthorhombic
_symmetry_space_group_name_H-M 'P n a 21'
_symmetry_Int_Tables_number 33
loop_
_symmetry_equiv_pos_site_id
_symmetry_equiv_pos_as_xyz
1 x,y,z
2 -x,-y,1/2+z
3 1/2-x,1/2+y,1/2+z
4 1/2+x,1/2-y,z
_cell_length_a 30.706
_cell_length_b 10.224
_cell_length_c 9.167
_cell_angle_alpha 90
_cell_angle_beta 90
_cell_angle_gamma 90
_cell_formula_units_Z 4
loop_
_atom_type_symbol
_atom_type_radius_bond
C 0.68
H 0.23
N 0.68
O 0.68
loop_
_atom_site_label
_atom_site_type_symbol
_atom_site_fract_x
_atom_site_fract_y
_atom_site_fract_z
O1 O 0.81922(6) 0.0114(2) 0.40100
O2 O 0.92743(5) 0.0990(2) 0.2692(2)
O3 O 0.98741(6) 0.0217(2) 0.3875(3)
O4 O 0.95016(8) 0.3841(3) -0.1495(3)
O5 O 1.01242(8) 0.4663(3) -0.1914(4)
O6 O 1.12508(7) 0.4321(3) 0.1715(3)
O7 O 1.11018(8) 0.3413(3) 0.3756(4)
N1 N 0.98804(8) 0.4006(3) -0.1195(3)
N2 N 1.10116(7) 0.3680(3) 0.2496(4)
C1 C 0.80207(9) 0.1160(3) 0.3222(4)
C2 C 0.83701(9) 0.1919(3) 0.3163(3)
C3 C 0.86093(8) 0.0859(3) 0.4082(3)
C4 C 0.89835(8) 0.0037(2) 0.3383(3)
C5 C 0.7540(1) 0.1049(3) 0.2821(5)
C6 C 0.7269(1) 0.1809(5) 0.3949(7)
C7 C 0.7445(1) 0.1552(4) 0.1302(6)
C8 C 0.7403(1) -0.0387(4) 0.2867(7)
C9 C 0.8472(1) 0.3262(3) 0.2509(5)
C10 C 0.8532(1) 0.3149(4) 0.0868(5)
C11 C 0.8884(1) 0.3871(3) 0.3162(7)
C12 C 0.8096(1) 0.4213(3) 0.2836(7)
C13 C 0.8689(1) 0.1100(4) 0.5746(4)
C14 C 0.8338(2) 0.2020(5) 0.6367(5)
C15 C 0.8654(2) -0.0233(6) 0.6546(4)
C16 C 0.9139(2) 0.1689(5) 0.6042(5)
C17 C 0.8887(1) -0.1060(3) 0.2259(3)
C18 C 0.8648(1) -0.2199(3) 0.2981(5)
C19 C 0.9328(1) -0.1604(3) 0.1734(4)
C20 C 0.8632(1) -0.0584(3) 0.0929(4)
C21 C 0.97008(9) 0.0942(3) 0.3010(4)
C22 C 0.99530(8) 0.1940(3) 0.2146(4)
C23 C 1.03603(8) 0.2316(3) 0.2679(4)
C24 C 1.05924(8) 0.3241(3) 0.1910(4)
C25 C 1.04497(8) 0.3794(3) 0.0647(4)
C26 C 1.00470(9) 0.3396(3) 0.0154(4)
C27 C 0.97952(9) 0.2480(3) 0.0866(3)
H1 H 0.91000 -0.04800 0.42000
H2 H 1.04800 0.19300 0.35800
H3 H 1.06200 0.44400 0.01100
H4 H 0.95100 0.22200 0.04800
H5 H 0.69600 0.17400 0.37000
H6 H 0.73200 0.14400 0.49200
H7 H 0.73600 0.27300 0.39500
H8 H 0.71300 0.14600 0.11000
H9 H 0.75300 0.24800 0.12400
H10 H 0.76100 0.10500 0.05900
H11 H 0.70900 -0.04600 0.26100
H12 H 0.75800 -0.08900 0.21700
H13 H 0.74500 -0.07300 0.38500
H14 H 0.86000 0.40100 0.04600
H15 H 0.87700 0.25500 0.06600
H16 H 0.82700 0.28100 0.04300
H17 H 0.89400 0.47300 0.27100
H18 H 0.88500 0.39800 0.42200
H19 H 0.91300 0.33000 0.29700
H20 H 0.81600 0.50700 0.24100
H21 H 0.78300 0.38700 0.24100
H22 H 0.80600 0.43000 0.38900
H23 H 0.83900 0.21600 0.74100
H24 H 0.83500 0.28600 0.58500
H25 H 0.80500 0.16200 0.62400
H26 H 0.87000 -0.01000 0.75900
H27 H 0.83600 -0.06000 0.63900
H28 H 0.88700 -0.08400 0.61600
H29 H 0.91800 0.18200 0.70900
H30 H 0.93700 0.10900 0.56900
H31 H 0.91700 0.25300 0.55400
H32 H 0.85900 -0.28800 0.22500
H33 H 0.88300 -0.25600 0.37600
H34 H 0.83700 -0.18900 0.33900
H35 H 0.92800 -0.23000 0.10200
H36 H 0.95000 -0.09000 0.12800
H37 H 0.94900 -0.19600 0.25700
H38 H 0.85800 -0.13200 0.02600
H39 H 0.83500 -0.02200 0.12400
H40 H 0.88000 0.01000 0.04300
#END
