
#######################################################################
#
#                 Cambridge Crystallographic Data Centre
#                                CCDC
#
#######################################################################
#
# If this CIF has been generated from an entry in the Cambridge
# Structural Database, then it will include bibliographic, chemical,
# crystal, experimental, refinement or atomic coordinate data resulting
# from the CCDC's data processing and validation procedures.
#
#######################################################################

data_CSD_CIF_YIXPAY
_audit_creation_date 2014-03-31
_audit_creation_method CSD-ConQuest-V1
_database_code_CSD YIXPAY
_database_code_depnum_ccdc_archive 'CCDC 994737'
_chemical_formula_sum 'C13 H17 N1 O3'
_chemical_formula_moiety
;
C13 H17 N1 O3
;
_journal_coden_Cambridge 1078
_journal_year 2014
_journal_name_full 'CSD Communication(Private Communication) '
loop_
_publ_author_name
"L.J.Farrugia"
"P.Kocovsky"
_chemical_name_systematic
;
methyl 2-(5-phenyl-1,2-oxazolidin-3-yl)propanoate
;
_cell_volume   1276.823
_exptl_crystal_colour 'colorless'
_exptl_crystal_density_diffrn 1.224
_exptl_crystal_description 'prism'
_diffrn_ambient_temperature 100
#These two values have been output from a single CSD field.
_refine_ls_R_factor_gt 0.0488
_refine_ls_wR_factor_gt 0.0488
_symmetry_cell_setting monoclinic
_symmetry_space_group_name_H-M 'P 21'
_symmetry_Int_Tables_number 4
loop_
_symmetry_equiv_pos_site_id
_symmetry_equiv_pos_as_xyz
1 x,y,z
2 -x,1/2+y,-z
_cell_length_a 12.2830(7)
_cell_length_b 5.7791(3)
_cell_length_c 18.7551(11)
_cell_angle_alpha 90
_cell_angle_beta 106.451(3)
_cell_angle_gamma 90
_cell_formula_units_Z 4
loop_
_atom_type_symbol
_atom_type_radius_bond
C 0.68
H 0.23
N 0.68
O 0.68
loop_
_atom_site_label
_atom_site_type_symbol
_atom_site_fract_x
_atom_site_fract_y
_atom_site_fract_z
O1 O 0.3495(2) 0.6792(4) 0.47063(14)
O2 O 0.5602(2) 1.0123(5) 0.68386(15)
O3 O 0.6433(2) 0.6705(5) 0.68319(18)
N1 N 0.4598(3) 0.6254(7) 0.52126(19)
C1 C 0.2803(3) 0.4763(7) 0.4705(2)
H1 H 0.30300 0.35040 0.44100
C2 C 0.3131(3) 0.4082(7) 0.5525(2)
H2 H 0.31440 0.23780 0.55820
H3 H 0.25910 0.47410 0.57750
C3 C 0.4328(3) 0.5108(7) 0.5850(2)
H4 H 0.48840 0.38370 0.60460
C4 C 0.4388(3) 0.6888(7) 0.6457(2)
H5 H 0.38520 0.81840 0.62490
C5 C 0.4092(3) 0.5865(8) 0.7136(2)
H6 H 0.45830 0.45320 0.73230
H7 H 0.32960 0.53680 0.69900
H8 H 0.42070 0.70420 0.75260
C6 C 0.5577(4) 0.7827(8) 0.6717(2)
C7 C 0.6717(3) 1.1106(8) 0.7134(2)
H9 H 0.71380 1.02130 0.75690
H10 H 0.66480 1.27150 0.72810
H11 H 0.71230 1.10590 0.67540
C8 C 0.1574(3) 0.5334(7) 0.4372(2)
C9 C 0.0875(4) 0.3784(7) 0.3890(2)
H12 H 0.11880 0.24070 0.37530
C10 C -0.0273(4) 0.4223(8) 0.3607(2)
H13 H -0.07450 0.31440 0.32780
C11 C -0.0740(4) 0.6224(8) 0.3801(2)
H14 H -0.15300 0.65190 0.36080
C12 C -0.0045(4) 0.7794(8) 0.4278(2)
H15 H -0.03600 0.91740 0.44110
C13 C 0.1106(3) 0.7360(7) 0.4562(2)
H16 H 0.15780 0.84470 0.48870
H17 H 0.485(3) 0.513(6) 0.495(2)
O4 O 0.8603(2) 0.3032(5) 0.96951(14)
O5 O 1.0750(2) -0.0107(5) 0.84056(15)
O6 O 1.1576(2) 0.3329(5) 0.86454(18)
N2 N 0.9726(3) 0.3617(6) 0.9626(2)
C14 C 0.7929(3) 0.5091(7) 0.9466(2)
H18 H 0.81360 0.62680 0.98730
C15 C 0.8297(3) 0.5963(7) 0.8793(2)
H19 H 0.83440 0.76730 0.87920
H20 H 0.77610 0.54410 0.83200
C16 C 0.9483(3) 0.4855(7) 0.8908(2)
H21 H 1.00600 0.61040 0.89440
C17 C 0.9538(3) 0.3163(7) 0.8295(2)
H22 H 0.89890 0.18720 0.82770
C18 C 0.9270(3) 0.4320(7) 0.7531(2)
H23 H 0.84870 0.48950 0.73910
H24 H 0.93580 0.31900 0.71610
H25 H 0.97920 0.56150 0.75500
C19 C 1.0724(4) 0.2190(8) 0.8470(2)
C20 C 1.1882(3) -0.1074(7) 0.8525(2)
H26 H 1.22270 -0.04420 0.81550
H27 H 1.18290 -0.27620 0.84750
H28 H 1.23510 -0.06700 0.90250
C21 C 0.6687(3) 0.4520(7) 0.9296(2)
C22 C 0.6258(3) 0.2456(7) 0.8963(2)
H29 H 0.67580 0.13260 0.88640
C23 C 0.5104(3) 0.2026(8) 0.8773(2)
H30 H 0.48130 0.06140 0.85350
C24 C 0.4370(4) 0.3645(9) 0.8929(2)
H31 H 0.35770 0.33510 0.87960
C25 C 0.4798(4) 0.5674(8) 0.9276(2)
H32 H 0.42990 0.67800 0.93880
C26 C 0.5958(3) 0.6125(8) 0.9464(2)
H33 H 0.62490 0.75300 0.97080
H34 H 0.995(3) 0.471(6) 1.001(2)
#END
