
#######################################################################
#
#                 Cambridge Crystallographic Data Centre
#                                CCDC
#
#######################################################################
#
# If this CIF has been generated from an entry in the Cambridge
# Structural Database, then it will include bibliographic, chemical,
# crystal, experimental, refinement or atomic coordinate data resulting
# from the CCDC's data processing and validation procedures.
#
#######################################################################

data_CSD_CIF_YIXPIF
_audit_creation_date 2008-05-22
_audit_creation_method CSD-ConQuest-V1
_database_code_CSD YIXPIF
_database_code_depnum_ccdc_archive 'CCDC 684480'
_chemical_formula_sum 'C37 H41 N3 O6'
_chemical_formula_moiety
;
C37 H41 N3 O6
;
_journal_coeditor_code "IUCr FJ2103"
_journal_coden_Cambridge 1370
_journal_volume 64
_journal_year 2008
_journal_page_first o676
_journal_name_full 'Acta Crystallogr.,Sect.E:Struct.Rep.Online '
loop_
_publ_author_name
"P.Das"
"A.N.Biswas"
"S.Upreti"
"P.K.Mandal"
"P.Bandyopadhyay"
_chemical_name_systematic
;
1-Phenyl-3-(4-(4-(4-undecyloxybenzoyloxy)phenyloxycarbonyl)phenyl)-triazene 
1-oxide
;
_cell_volume   1651.598
_exptl_crystal_colour 'pale yellow'
_exptl_crystal_density_diffrn 1.254
_exptl_crystal_description 'needle'
_exptl_crystal_preparation 'dichloromethane/ethanol'
_diffrn_ambient_temperature 150
#These two values have been output from a single CSD field.
_refine_ls_R_factor_gt 0.0957
_refine_ls_wR_factor_gt 0.0957
_symmetry_cell_setting triclinic
_symmetry_space_group_name_H-M 'P -1'
_symmetry_Int_Tables_number 2
loop_
_symmetry_equiv_pos_site_id
_symmetry_equiv_pos_as_xyz
1 x,y,z
2 -x,-y,-z
_cell_length_a 5.674(3)
_cell_length_b 12.039(7)
_cell_length_c 24.931(15)
_cell_angle_alpha 101.779(10)
_cell_angle_beta 92.826(11)
_cell_angle_gamma 96.565(10)
_cell_formula_units_Z 2
loop_
_atom_type_symbol
_atom_type_radius_bond
C 0.68
H 0.23
N 0.68
O 0.68
loop_
_atom_site_label
_atom_site_type_symbol
_atom_site_fract_x
_atom_site_fract_y
_atom_site_fract_z
H1 H 0.607(9) 0.051(4) 0.963(2)
O1 O 0.6978(5) -0.0912(2) 0.99661(11)
O2 O 0.9170(5) 0.4217(2) 0.78920(11)
O3 O 0.5858(5) 0.4763(2) 0.82795(11)
O4 O 0.5943(5) 0.8656(2) 0.74197(12)
O5 O 0.3127(6) 0.9292(2) 0.79658(13)
O6 O 0.5596(5) 1.3488(2) 0.68317(11)
N1 N 0.8297(6) -0.0997(3) 0.95643(14)
N2 N 0.8428(6) -0.0295(3) 0.92334(13)
N3 N 0.6991(7) 0.0500(3) 0.93561(15)
C1 C 0.9117(9) -0.2881(4) 0.96356(18)
H2 H 0.77350 -0.29540 0.98320
C2 C 1.0507(10) -0.3763(4) 0.9521(2)
H3 H 1.00600 -0.44590 0.96340
C3 C 1.2551(9) -0.3635(4) 0.92428(19)
H4 H 1.35200 -0.42350 0.91750
C4 C 1.3173(8) -0.2634(4) 0.90638(17)
H5 H 1.45470 -0.25570 0.88650
C5 C 1.1826(8) -0.1756(4) 0.91715(17)
H6 H 1.22660 -0.10630 0.90540
C6 C 0.9815(7) -0.1889(3) 0.94531(16)
C7 C 0.7176(8) 0.1385(3) 0.90689(16)
C8 C 0.8969(8) 0.1530(4) 0.87256(18)
H7 H 1.01380 0.10190 0.86780
C9 C 0.9056(8) 0.2408(3) 0.84549(18)
H8 H 1.02870 0.24940 0.82160
C10 C 0.7403(8) 0.3177(3) 0.85173(16)
C11 C 0.5577(8) 0.3021(3) 0.88585(17)
H9 H 0.43950 0.35250 0.89010
C12 C 0.5485(8) 0.2143(4) 0.91320(17)
H10 H 0.42490 0.20500 0.93690
C13 C 0.7644(7) 0.4083(3) 0.81940(16)
C14 C 0.5992(7) 0.5729(3) 0.80380(16)
C15 C 0.7954(7) 0.6542(3) 0.81402(16)
H11 H 0.93270 0.64320 0.83470
C16 C 0.7896(7) 0.7526(3) 0.79363(16)
H12 H 0.92360 0.80990 0.80000
C17 C 0.5872(7) 0.7667(3) 0.76399(17)
C18 C 0.3911(7) 0.6858(3) 0.75446(17)
H13 H 0.25260 0.69740 0.73440
C19 C 0.3974(7) 0.5858(3) 0.77461(16)
H14 H 0.26420 0.52800 0.76810
C20 C 0.4459(8) 0.9433(3) 0.76209(17)
C21 C 0.4854(7) 1.0462(3) 0.73795(16)
C22 C 0.6686(8) 1.0670(3) 0.70587(18)
H15 H 0.77470 1.01150 0.69680
C23 C 0.7018(8) 1.1675(4) 0.68634(17)
H16 H 0.83020 1.18100 0.66450
C24 C 0.5457(8) 1.2473(3) 0.69914(17)
C25 C 0.3546(8) 1.2251(3) 0.72996(17)
H17 H 0.24530 1.27930 0.73810
C26 C 0.3238(8) 1.1258(3) 0.74858(17)
H18 H 0.19110 1.11060 0.76900
C27 C 0.7669(8) 1.3862(3) 0.65780(18)
H19 H 0.77100 1.33790 0.62070
H20 H 0.91270 1.38090 0.68010
C28 C 0.7526(8) 1.5068(3) 0.65407(18)
H21 H 0.75160 1.55310 0.69170
H22 H 0.59920 1.51030 0.63420
C29 C 0.9515(8) 1.5615(3) 0.62570(18)
H23 H 0.94330 1.52170 0.58660
H24 H 1.10710 1.55310 0.64320
C30 C 0.9318(8) 1.6876(3) 0.62928(18)
H25 H 0.94620 1.72620 0.66860
H26 H 0.77060 1.69440 0.61420
C31 C 1.1121(9) 1.7520(4) 0.5999(2)
H27 H 1.27440 1.74880 0.61550
H28 H 1.10100 1.71410 0.56050
C32 C 1.0726(8) 1.8755(4) 0.60495(18)
H29 H 1.09650 1.91360 0.64430
H30 H 0.90450 1.87740 0.59290
C33 C 1.2298(9) 1.9452(3) 0.57279(18)
H31 H 1.39780 1.94880 0.58650
H32 H 1.21380 1.90560 0.53360
C34 C 1.1690(8) 2.0658(4) 0.57715(18)
H33 H 1.18430 2.10480 0.61640
H34 H 1.00060 2.06170 0.56360
C35 C 1.3232(9) 2.1382(4) 0.54541(18)
H35 H 1.49120 2.14470 0.55970
H36 H 1.31170 2.09850 0.50630
C36 C 1.2542(9) 2.2568(3) 0.5491(2)
H37 H 1.26910 2.29690 0.58820
H38 H 1.08500 2.25010 0.53560
C37 C 1.4037(10) 2.3293(4) 0.5165(2)
H39 H 1.39810 2.28820 0.47810
H40 H 1.56880 2.34390 0.53220
H41 H 1.34020 2.40210 0.51810
#END
