
#######################################################################
#
#                 Cambridge Crystallographic Data Centre
#                                CCDC
#
#######################################################################
#
# If this CIF has been generated from an entry in the Cambridge
# Structural Database, then it will include bibliographic, chemical,
# crystal, experimental, refinement or atomic coordinate data resulting
# from the CCDC's data processing and validation procedures.
#
#######################################################################

data_CSD_CIF_YIXQAY
_audit_creation_date 2008-05-22
_audit_creation_method CSD-ConQuest-V1
_database_code_CSD YIXQAY
_database_code_depnum_ccdc_archive 'CCDC 684483'
_chemical_formula_sum 'C13 H9 N5 O7'
_chemical_formula_moiety
;
C13 H9 N5 O7
;
_journal_coeditor_code "IUCr CI2567"
_journal_coden_Cambridge 1370
_journal_volume 64
_journal_year 2008
_journal_page_first o679
_journal_name_full 'Acta Crystallogr.,Sect.E:Struct.Rep.Online '
loop_
_publ_author_name
"A.A.Tameem"
"B.Saad"
"A.M.Salhin"
"S.R.Jebas"
"Hoong-Kun Fun"
_chemical_name_systematic
;
2-Hydroxy-5-nitrobenzaldehyde 2,4-dinitrophenylhydrazone
;
_cell_volume   1335.942
_exptl_crystal_colour 'orange'
_exptl_crystal_density_diffrn 1.726
_exptl_crystal_description 'Block'
_diffrn_ambient_temperature 100.00
#These two values have been output from a single CSD field.
_refine_ls_R_factor_gt 0.0503
_refine_ls_wR_factor_gt 0.0503
_symmetry_cell_setting monoclinic
_symmetry_space_group_name_H-M 'P 21/n'
_symmetry_Int_Tables_number 14
loop_
_symmetry_equiv_pos_site_id
_symmetry_equiv_pos_as_xyz
1 x,y,z
2 1/2-x,1/2+y,1/2-z
3 -x,-y,-z
4 -1/2+x,-1/2-y,-1/2+z
_cell_length_a 12.7543(5)
_cell_length_b 8.1898(3)
_cell_length_c 13.8618(5)
_cell_angle_alpha 90
_cell_angle_beta 112.683(2)
_cell_angle_gamma 90
_cell_formula_units_Z 4
loop_
_atom_type_symbol
_atom_type_radius_bond
C 0.68
H 0.23
N 0.68
O 0.68
loop_
_atom_site_label
_atom_site_type_symbol
_atom_site_fract_x
_atom_site_fract_y
_atom_site_fract_z
O1 O 0.71240(8) 0.91583(13) 0.22343(8)
O2 O 0.61439(9) 1.12841(14) 0.22968(8)
O3 O 0.39947(10) 1.41385(15) -0.08171(9)
O4 O 0.45224(10) 1.41148(14) -0.21219(8)
O5 O 0.94762(8) 0.81549(12) -0.11896(7)
O6 O 1.34597(9) 0.33913(14) 0.11735(8)
O7 O 1.29887(9) 0.41281(13) 0.24496(8)
N1 N 0.80661(9) 0.91651(14) 0.08340(9)
N2 N 0.87737(9) 0.86266(13) 0.03680(8)
N3 N 0.66026(9) 1.04241(14) 0.18460(8)
N4 N 0.46053(10) 1.36459(15) -0.12555(9)
N5 N 1.28791(9) 0.41996(14) 0.15301(9)
C1 C 0.64902(11) 1.08800(16) 0.07968(9)
C2 C 0.56488(11) 1.20121(16) 0.02874(10)
H1 H 0.52090 1.24650 0.06200
C3 C 0.54779(10) 1.24505(16) -0.07199(10)
C4 C 0.61284(11) 1.17695(16) -0.12363(10)
H2 H 0.59930 1.20670 -0.19210
C5 C 0.69644(11) 1.06624(16) -0.07233(10)
H3 H 0.73920 1.02110 -0.10690
C6 C 0.71925(10) 1.01896(15) 0.03210(9)
C7 C 0.96469(10) 0.78013(15) 0.09632(9)
H4 H 0.97820 0.76780 0.16680
C8 C 1.04195(10) 0.70636(15) 0.05474(9)
C9 C 1.03109(10) 0.72528(15) -0.05001(9)
C10 C 1.10725(11) 0.64726(16) -0.08556(10)
H5 H 1.10090 0.66340 -0.15400
C11 C 1.19152(10) 0.54678(16) -0.02006(10)
H6 H 1.24120 0.49330 -0.04400
C12 C 1.20051(10) 0.52732(15) 0.08265(10)
C13 C 1.12875(10) 0.60635(15) 0.12052(10)
H7 H 1.13820 0.59300 0.19000
H8 H 0.8262(16) 0.891(2) 0.1508(16)
H9 H 0.905(2) 0.854(3) -0.082(2)
#END
