
#######################################################################
#
#                 Cambridge Crystallographic Data Centre
#                                CCDC
#
#######################################################################
#
# If this CIF has been generated from an entry in the Cambridge
# Structural Database, then it will include bibliographic, chemical,
# crystal, experimental, refinement or atomic coordinate data resulting
# from the CCDC's data processing and validation procedures.
#
#######################################################################

data_CSD_CIF_YIYDER01
_audit_creation_date 2014-10-01
_audit_creation_method CSD-ConQuest-V1
_database_code_CSD YIYDER01
_database_code_depnum_ccdc_archive 'CCDC 993139'
_chemical_formula_sum 'C22 H26 N2 O3'
_chemical_formula_moiety
;
C22 H26 N2 O3
;
_journal_coden_Cambridge 119
_journal_volume 1076
_journal_year 2014
_journal_page_first 94
_journal_name_full 'J.Mol.Struct. '
loop_
_publ_author_name
"M.Velayutham Pillai"
"K.Rajeswari"
"T.Vidhyasagar"
_chemical_name_systematic
;
methyl (((1,3-dimethyl-2,6-diphenylpiperidin-4-ylidene)amino)oxy)acetate
;
_cell_volume   1993.688
_exptl_crystal_colour 'colorless'
_exptl_crystal_density_diffrn 1.221
_exptl_crystal_description 'block'
_exptl_crystal_preparation 'ethanol/ ethyl acetate'
_diffrn_ambient_temperature 293
#These two values have been output from a single CSD field.
_refine_ls_R_factor_gt 0.0713
_refine_ls_wR_factor_gt 0.0713
_symmetry_cell_setting monoclinic
_symmetry_space_group_name_H-M 'P 21/c'
_symmetry_Int_Tables_number 14
loop_
_symmetry_equiv_pos_site_id
_symmetry_equiv_pos_as_xyz
1 x,y,z
2 -x,1/2+y,1/2-z
3 -x,-y,-z
4 x,-1/2-y,-1/2+z
_cell_length_a 8.1662(9)
_cell_length_b 15.0229(16)
_cell_length_c 16.2889(19)
_cell_angle_alpha 90
_cell_angle_beta 93.903(6)
_cell_angle_gamma 90
_cell_formula_units_Z 4
loop_
_atom_type_symbol
_atom_type_radius_bond
C 0.68
H 0.23
N 0.68
O 0.68
loop_
_atom_site_label
_atom_site_type_symbol
_atom_site_fract_x
_atom_site_fract_y
_atom_site_fract_z
O1 O 0.68977(19) 0.49995(10) 0.43999(8)
O2 O 0.7546(2) 0.43922(10) 0.65189(9)
O3 O 0.6248(2) 0.36381(11) 0.54968(10)
N1 N 0.83698(18) 0.48449(10) 0.16289(9)
N2 N 0.7999(2) 0.43901(11) 0.40538(10)
C1 C 0.5090(3) 0.55836(14) 0.10496(12)
C2 C 0.3910(3) 0.60714(17) 0.06143(13)
C3 C 0.3809(3) 0.69704(19) 0.07252(15)
C4 C 0.4887(3) 0.73784(16) 0.12720(17)
C5 C 0.6074(3) 0.68953(14) 0.17255(14)
C6 C 0.6190(2) 0.59865(12) 0.16163(11)
C7 C 0.7430(2) 0.54460(12) 0.21323(11)
C8 C 0.6541(2) 0.49215(14) 0.27705(11)
C9 C 0.7736(2) 0.43693(13) 0.32754(11)
C10 C 0.8732(2) 0.37623(12) 0.27849(11)
C11 C 0.9567(2) 0.43131(12) 0.21322(11)
C12 C 1.0538(3) 0.37151(13) 0.15962(12)
C13 C 1.2220(3) 0.37356(15) 0.16396(14)
C14 C 1.3111(3) 0.31608(18) 0.11732(17)
C15 C 1.2312(4) 0.25588(19) 0.06656(17)
C16 C 1.0624(4) 0.25213(18) 0.06119(15)
C17 C 0.9742(3) 0.30997(15) 0.10737(13)
C18 C 0.9212(3) 0.53774(15) 0.10310(13)
C19 C 0.9942(3) 0.31926(14) 0.32933(13)
C20 C 0.7357(3) 0.50883(14) 0.52479(11)
C21 C 0.6970(3) 0.42816(15) 0.57362(13)
C22 C 0.7303(3) 0.36794(16) 0.70832(15)
H1 H 0.51517 0.49729 0.09631
H2 H 0.31720 0.57886 0.02404
H3 H 0.30077 0.72999 0.04279
H4 H 0.48279 0.79915 0.13434
H5 H 0.67945 0.71831 0.21045
H6 H 0.81993 0.58569 0.24234
H7 H 0.59930 0.53296 0.31232
H8 H 0.57149 0.45413 0.24952
H9 H 0.79627 0.33561 0.24872
H10 H 1.03388 0.47245 0.24214
H11 H 1.27740 0.41420 0.19880
H12 H 1.42514 0.31870 0.12074
H13 H 1.29084 0.21721 0.03544
H14 H 1.00786 0.21087 0.02665
H15 H 0.86013 0.30759 0.10335
H16 H 0.99136 0.58048 0.13174
H17 H 0.84144 0.56824 0.06736
H18 H 0.98595 0.49935 0.07109
H19 H 1.08019 0.35618 0.35384
H20 H 1.04053 0.27561 0.29462
H21 H 0.93886 0.28981 0.37181
H22 H 0.67918 0.55973 0.54619
H23 H 0.85263 0.52040 0.53176
H24 H 0.64140 0.33102 0.68696
H25 H 0.70458 0.39208 0.76047
H26 H 0.82870 0.33301 0.71532
#END
