
#######################################################################
#
#                 Cambridge Crystallographic Data Centre
#                                CCDC
#
#######################################################################
#
# If this CIF has been generated from an entry in the Cambridge
# Structural Database, then it will include bibliographic, chemical,
# crystal, experimental, refinement or atomic coordinate data resulting
# from the CCDC's data processing and validation procedures.
#
#######################################################################

data_CSD_CIF_YIYLEZ
_audit_creation_date 2014-04-03
_audit_creation_method CSD-ConQuest-V1
_database_code_CSD YIYLEZ
_database_code_depnum_ccdc_archive 'CCDC 995130'
_chemical_formula_sum 'C18 H26 N4 O4'
_chemical_formula_moiety
;
C18 H26 N4 O4
;
_journal_coden_Cambridge 95
_journal_year 2014
_journal_page_first 291
_journal_name_full 'Izv.Akad.Nauk SSSR,Ser.Khim.(Russ.)(Russ.Chem.Bull.) '
loop_
_publ_author_name
"E.V.Tretyakov"
"A.O.Tkacheva"
"G.V.Romanenko"
"A.S.Kiryutin"
"V.I.Ovcharenko"
_chemical_name_systematic
;
1,4-dihydroxy-2,2,3,3,7,7,8,8-octamethyl-1,2,3,4,6,7,8,9-octahydropyrazino[2,3
-g]quinoxaline-5,10-dione
;
_cell_volume   1778.106
_exptl_crystal_colour 'dark violet'
_exptl_crystal_density_diffrn 1.354
_exptl_crystal_description 'plate'
_diffrn_ambient_temperature 240
_refine_special_details
;
C1B,C2B,C3BA,C4BA,C5B,C6BA and C1BA,C2BA,C3B,C4B,C5BA,C6B disordered over two 
sites with occupancies 0.50:0.50.
;
#These two values have been output from a single CSD field.
_refine_ls_R_factor_gt 0.0656
_refine_ls_wR_factor_gt 0.0656
_symmetry_cell_setting triclinic
_symmetry_space_group_name_H-M 'P -1'
_symmetry_Int_Tables_number 2
loop_
_symmetry_equiv_pos_site_id
_symmetry_equiv_pos_as_xyz
1 x,y,z
2 -x,-y,-z
_cell_length_a 6.8040(6)
_cell_length_b 11.6850(9)
_cell_length_c 22.522(2)
_cell_angle_alpha 83.440(6)
_cell_angle_beta 88.419(6)
_cell_angle_gamma 89.218(6)
_cell_formula_units_Z 4
loop_
_atom_type_symbol
_atom_type_radius_bond
C 0.68
H 0.23
N 0.68
O 0.68
loop_
_atom_site_label
_atom_site_type_symbol
_atom_site_fract_x
_atom_site_fract_y
_atom_site_fract_z
N1 N 0.0013(3) 0.18176(17) 0.05182(10)
O1 O 0.0374(3) 0.20264(18) -0.00395(10)
C1 C -0.0997(4) 0.2779(2) 0.08079(12)
C2 C -0.2570(4) 0.2227(2) 0.12497(12)
N2 N -0.1588(3) 0.13000(17) 0.16679(10)
O2 O -0.2347(4) 0.11486(18) 0.21916(10)
C3 C 0.0623(5) 0.3377(2) 0.11082(14)
H1 H 0.15680 0.37010 0.08070
H2 H 0.12790 0.28220 0.13910
H3 H 0.00500 0.39880 0.13170
O3 O 0.0081(3) -0.05870(15) 0.23890(8)
N3 N 0.2612(3) -0.20599(16) 0.19397(9)
H4 H 0.24440 -0.21040 0.23260
C4 C -0.1907(5) 0.3599(2) 0.03187(13)
H5 H -0.29320 0.32070 0.01320
H6 H -0.09040 0.38560 0.00210
H7 H -0.24690 0.42590 0.04900
O4 O 0.2645(3) 0.02265(14) 0.00861(8)
N4 N 0.4065(3) -0.15968(16) 0.07864(9)
H8 H 0.43080 -0.15560 0.04030
C5 C -0.4160(4) 0.1614(2) 0.09445(13)
H9 H -0.35500 0.10620 0.07040
H10 H -0.49100 0.21750 0.06900
H11 H -0.50300 0.12150 0.12460
C6 C -0.3482(5) 0.3112(2) 0.16331(13)
H12 H -0.24460 0.34930 0.18200
H13 H -0.43450 0.27230 0.19390
H14 H -0.42310 0.36790 0.13820
C7 C -0.0170(4) 0.06511(19) 0.14656(11)
C8 C 0.0581(4) -0.0360(2) 0.18583(12)
C9 C 0.1970(4) -0.11197(19) 0.15857(11)
C10 C 0.3593(4) -0.3004(2) 0.16639(11)
C11 C 0.2042(4) -0.3666(2) 0.13587(12)
H15 H 0.11060 -0.40100 0.16570
H16 H 0.26850 -0.42670 0.11580
H17 H 0.13580 -0.31390 0.10680
C12 C 0.4529(4) -0.3794(2) 0.21634(12)
H18 H 0.35110 -0.41260 0.24370
H19 H 0.54180 -0.33550 0.23770
H20 H 0.52570 -0.44050 0.19950
C13 C 0.5152(4) -0.2427(2) 0.11999(11)
C14 C 0.6148(4) -0.3300(2) 0.08316(12)
H21 H 0.70950 -0.29100 0.05510
H22 H 0.51640 -0.36610 0.06130
H23 H 0.68170 -0.38840 0.10960
C15 C 0.6708(4) -0.1788(2) 0.14999(13)
H24 H 0.76400 -0.14460 0.12000
H25 H 0.73920 -0.23240 0.17860
H26 H 0.60840 -0.11880 0.17050
C16 C 0.2677(4) -0.08922(19) 0.10059(11)
C17 C 0.1988(4) 0.0070(2) 0.05991(11)
C18 C 0.0534(4) 0.08703(19) 0.08506(11)
N5 N 0.0088(4) -0.64075(18) 0.42934(10)
O5 O -0.0017(3) -0.67811(16) 0.48479(9)
C19 C 0.1683(10) -0.6928(7) 0.3913(4)
C20 C 0.222(4) -0.8038(14) 0.4256(12)
H27 H 0.10810 -0.85370 0.42990
H28 H 0.26490 -0.79030 0.46480
H29 H 0.32720 -0.84040 0.40460
C21 C 0.355(4) -0.6370(17) 0.3900(11)
H30 H 0.46010 -0.67940 0.37200
H31 H 0.38890 -0.62620 0.43060
H32 H 0.33790 -0.56250 0.36690
C22 C 0.114(3) -0.6964(14) 0.3377(8)
C23 C 0.236(4) -0.751(2) 0.2895(9)
H33 H 0.35800 -0.71010 0.28150
H34 H 0.16160 -0.74740 0.25320
H35 H 0.26410 -0.83130 0.30360
O6 O 0.0298(4) -0.56905(16) 0.24849(10)
N6 N 0.0204(4) -0.58699(19) 0.30568(10)
O7 O -0.0408(3) -0.34962(13) 0.26734(8)
N7 N -0.2876(3) -0.22365(15) 0.32954(9)
H36 H -0.26760 -0.20250 0.29160
O8 O -0.2839(3) -0.51940(14) 0.48951(8)
N8 N -0.4304(3) -0.31506(16) 0.43992(9)
H37 H -0.45100 -0.33430 0.47800
C24 C -0.0489(4) -0.51258(19) 0.34093(11)
C25 C -0.0994(4) -0.39393(19) 0.31665(11)
C26 C -0.2288(3) -0.32981(18) 0.35366(11)
C27 C -0.3845(4) -0.14445(19) 0.36720(11)
C28 C -0.4795(5) -0.0493(2) 0.32577(13)
H38 H -0.37850 -0.00730 0.30140
H39 H -0.55080 0.00300 0.34930
H40 H -0.56980 -0.08260 0.30010
C29 C -0.2254(4) -0.0939(2) 0.40327(12)
H41 H -0.13380 -0.04990 0.37610
H42 H -0.15530 -0.15590 0.42630
H43 H -0.28640 -0.04380 0.43010
C30 C -0.5396(4) -0.21716(19) 0.40852(11)
C31 C -0.6323(4) -0.1481(2) 0.45586(12)
H44 H -0.72610 -0.19570 0.48030
H45 H -0.69920 -0.08070 0.43640
H46 H -0.53040 -0.12400 0.48090
C32 C -0.7003(4) -0.2634(2) 0.37252(13)
H47 H -0.79230 -0.30760 0.39940
H48 H -0.64200 -0.31250 0.34470
H49 H -0.76920 -0.19960 0.35050
C33 C -0.2981(4) -0.37482(18) 0.40923(11)
C34 C -0.2257(4) -0.48462(19) 0.43898(11)
C35 C -0.0833(4) -0.54886(19) 0.40408(11)
C36 C -0.134(3) -0.7775(9) 0.3459(9)
H50 H -0.21350 -0.73920 0.37430
H51 H -0.10400 -0.85550 0.36300
H52 H -0.20680 -0.77970 0.30950
C37? C 0.346(4) -0.6098(17) 0.3795(12)
H53? H 0.44630 -0.64460 0.35550
H54? H 0.40090 -0.59580 0.41730
H55? H 0.30270 -0.53740 0.35830
C38? C 0.0600(14) -0.7103(7) 0.3311(5)
C39? C 0.185(4) -0.769(2) 0.2870(11)
H56? H 0.31070 -0.73090 0.28100
H57? H 0.11860 -0.76500 0.24930
H58? H 0.20570 -0.84910 0.30250
C40? C 0.130(3) -0.7170(14) 0.3914(7)
C41? C 0.177(4) -0.8330(16) 0.4250(13)
H59? H 0.06100 -0.88090 0.42760
H60? H 0.21790 -0.82260 0.46500
H61? H 0.28220 -0.86990 0.40410
C42? C -0.124(3) -0.7724(14) 0.3334(10)
H62? H -0.22220 -0.74070 0.35930
H63? H -0.10620 -0.85390 0.34620
H64? H -0.16850 -0.76210 0.29250
#END
