
#######################################################################
#
#                 Cambridge Crystallographic Data Centre
#                                CCDC
#
#######################################################################
#
# If this CIF has been generated from an entry in the Cambridge
# Structural Database, then it will include bibliographic, chemical,
# crystal, experimental, refinement or atomic coordinate data resulting
# from the CCDC's data processing and validation procedures.
#
#######################################################################

data_CSD_CIF_YIZHOF
_audit_creation_date 2008-09-22
_audit_creation_method CSD-ConQuest-V1
_database_code_CSD YIZHOF
_database_code_depnum_ccdc_archive 'CCDC 248040'
_chemical_formula_sum 'C21 H17 N3 O5'
_chemical_formula_moiety
;
C21 H17 N3 O5
;
_journal_coden_Cambridge 34
_journal_volume 44
_journal_year 2007
_journal_page_first 1045
_journal_name_full 'J.Heterocycl.Chem. '
loop_
_publ_author_name
"A.Banerji"
"M.Gupta"
"P.K.Biswas"
"T.Prange"
"A.Neuman"
_chemical_name_systematic
;
3RS(3R*,4S*,5R*)-2,3-Diphenyl-5-(4-nitrophenyl)-4-nitroisoxazolidine
;
_chemical_melting_point 443.15
_cell_volume   1905.668
_exptl_crystal_colour 'yellow'
_exptl_crystal_density_diffrn 1.364
_exptl_crystal_description 'plate'
_diffrn_ambient_temperature 293
_refine_special_details
;
The oxygen atoms of the nitro group are each disordered with occupancies 
0.40:0.35:0.25.
;
#These two values have been output from a single CSD field.
_refine_ls_R_factor_gt 0.0644
_refine_ls_wR_factor_gt 0.0644
_symmetry_cell_setting monoclinic
_symmetry_space_group_name_H-M 'P 21/n'
_symmetry_Int_Tables_number 14
loop_
_symmetry_equiv_pos_site_id
_symmetry_equiv_pos_as_xyz
1 x,y,z
2 1/2-x,1/2+y,1/2-z
3 -x,-y,-z
4 -1/2+x,-1/2-y,-1/2+z
_cell_length_a 11.140(3)
_cell_length_b 18.123(3)
_cell_length_c 10.110(3)
_cell_angle_alpha 90
_cell_angle_beta 110.99(5)
_cell_angle_gamma 90
_cell_formula_units_Z 4
loop_
_atom_type_symbol
_atom_type_radius_bond
C 0.68
H 0.23
N 0.68
O 0.68
loop_
_atom_site_label
_atom_site_type_symbol
_atom_site_fract_x
_atom_site_fract_y
_atom_site_fract_z
O1 O 0.5042(2) 0.53001(13) 0.1545(2)
N1 N 0.4366(3) 0.59838(15) 0.1288(3)
C1 C 0.5332(3) 0.65152(18) 0.2104(3)
H1 H 0.49140 0.69400 0.23570
C2 C 0.6132(3) 0.60898(19) 0.3444(3)
H2 H 0.70480 0.61940 0.36770
C3 C 0.5854(3) 0.52746(19) 0.3025(3)
H3 H 0.53880 0.50470 0.35790
C4 C 0.3164(3) 0.5940(2) 0.1508(3)
C5 C 0.2459(3) 0.6576(2) 0.1426(4)
H4 H 0.28080 0.70330 0.13490
C6 C 0.1227(4) 0.6531(3) 0.1460(5)
H5 H 0.07560 0.69590 0.14210
C7 C 0.0700(4) 0.5857(3) 0.1549(4)
H6 H -0.01310 0.58290 0.15570
C8 C 0.1396(4) 0.5229(3) 0.1627(4)
H7 H 0.10390 0.47730 0.16930
C9 C 0.2625(4) 0.5265(2) 0.1608(4)
H8 H 0.30920 0.48340 0.16630
C10 C 0.6160(3) 0.67710(19) 0.1275(4)
C11 C 0.7202(4) 0.7229(2) 0.1933(4)
H9 H 0.73860 0.73760 0.28670
C12 C 0.7970(4) 0.7469(3) 0.1197(6)
H10 H 0.86680 0.77760 0.16400
C13 C 0.7702(5) 0.7257(3) -0.0174(6)
H11 H 0.82260 0.74130 -0.06570
C14 C 0.6673(5) 0.6817(3) -0.0836(5)
H12 H 0.64840 0.66830 -0.17770
C15 C 0.5906(4) 0.6568(2) -0.0112(4)
H13 H 0.52120 0.62610 -0.05670
N2 N 0.5746(4) 0.62721(18) 0.4706(3)
O2 O 0.5248(14) 0.6877(4) 0.4749(13)
O3 O 0.6090(13) 0.5820(5) 0.5685(9)
C16 C 0.7033(3) 0.48282(18) 0.3166(4)
C17 C 0.7427(4) 0.4716(2) 0.2035(4)
H14 H 0.69620 0.49250 0.11610
C18 C 0.8501(3) 0.4297(2) 0.2181(4)
H15 H 0.87560 0.42160 0.14130
C19 C 0.9182(3) 0.40020(19) 0.3479(4)
C20 C 0.8830(4) 0.4109(2) 0.4628(4)
H16 H 0.93130 0.39060 0.55020
C21 C 0.7749(4) 0.4521(2) 0.4471(4)
H17 H 0.74950 0.45940 0.52430
N3 N 1.0309(3) 0.35366(19) 0.3633(4)
O4 O 1.0525(3) 0.3384(2) 0.2560(4)
O5 O 1.0938(3) 0.3302(2) 0.4804(4)
O6? O 0.5886(15) 0.6944(3) 0.4918(18)
O7? O 0.524(3) 0.5847(7) 0.531(2)
O8? O 0.6651(10) 0.6101(14) 0.5800(11)
O9? O 0.4667(13) 0.647(2) 0.4655(15)
#END
