
#######################################################################
#
#                 Cambridge Crystallographic Data Centre
#                                CCDC
#
#######################################################################
#
# If this CIF has been generated from an entry in the Cambridge
# Structural Database, then it will include bibliographic, chemical,
# crystal, experimental, refinement or atomic coordinate data resulting
# from the CCDC's data processing and validation procedures.
#
#######################################################################

data_CSD_CIF_YOCWIX
_audit_creation_date 2008-09-23
_audit_creation_method CSD-ConQuest-V1
_database_code_CSD YOCWIX
_database_code_depnum_ccdc_archive 'CCDC 696526'
_chemical_formula_sum 'C11 H15 N3 O6'
_chemical_formula_moiety
;
C11 H15 N3 O6
;
_journal_coeditor_code "IUCr HG2406"
_journal_coden_Cambridge 1370
_journal_volume 64
_journal_year 2008
_journal_page_first o1253
_journal_name_full 'Acta Crystallogr.,Sect.E:Struct.Rep.Online '
loop_
_publ_author_name
"G.S.Khan"
"G.R.Clark"
"D.Barker"
_chemical_name_systematic
;
2,2'-(3,5-Dinitrobenzylimino)diethanol
;
_chemical_melting_point 350
_cell_volume   2608.673
_exptl_crystal_colour 'yellow'
_exptl_crystal_density_diffrn 1.453
_exptl_special_details
;
Melting point range 350-351K

;
_exptl_crystal_description 'block'
_exptl_crystal_preparation 'dichloromethane/chloroform'
_diffrn_ambient_temperature 84.0
#These two values have been output from a single CSD field.
_refine_ls_R_factor_gt 0.0465
_refine_ls_wR_factor_gt 0.0465
_symmetry_cell_setting triclinic
_symmetry_space_group_name_H-M 'P -1'
_symmetry_Int_Tables_number 2
loop_
_symmetry_equiv_pos_site_id
_symmetry_equiv_pos_as_xyz
1 x,y,z
2 -x,-y,-z
_cell_length_a 12.8042(3)
_cell_length_b 14.7498(3)
_cell_length_c 15.1282(4)
_cell_angle_alpha 104.141(1)
_cell_angle_beta 96.371(1)
_cell_angle_gamma 106.334(1)
_cell_formula_units_Z 8
loop_
_atom_type_symbol
_atom_type_radius_bond
C 0.68
H 0.23
N 0.68
O 0.68
loop_
_atom_site_label
_atom_site_type_symbol
_atom_site_fract_x
_atom_site_fract_y
_atom_site_fract_z
O1 O 0.22043(12) 0.88717(13) 0.52205(10)
O2 O 0.13995(11) 0.97382(10) 0.61100(9)
O3 O -0.25699(12) 0.90173(11) 0.52437(9)
O4 O -0.34809(11) 0.78156(11) 0.40131(10)
O5 O 0.20448(11) 0.95928(10) 0.24284(9)
H1 H 0.228(2) 0.9201(19) 0.2705(17)
O6 O 0.23610(11) 0.66199(10) 0.17337(9)
H2 H 0.271(2) 0.626(2) 0.1880(18)
N1 N 0.13972(13) 0.91221(12) 0.53943(11)
N2 N -0.26153(13) 0.83747(12) 0.45355(11)
N3 N 0.04351(12) 0.74465(11) 0.1860(1)
C1 C -0.05692(15) 0.76440(13) 0.31650(12)
C2 C 0.04103(15) 0.81190(13) 0.38236(12)
H3 H 0.10860 0.80820 0.36750
C3 C 0.03615(15) 0.86465(13) 0.47012(12)
C4 C -0.06087(15) 0.87488(13) 0.49663(12)
H4 H -0.06190 0.91170 0.55580
C5 C -0.15596(15) 0.82691(13) 0.42957(12)
C6 C -0.15707(15) 0.77181(13) 0.34075(12)
H5 H -0.22340 0.74030 0.29800
C7 C -0.05503(15) 0.70189(13) 0.22151(12)
H6 H -0.05700 0.63660 0.22500
H7 H -0.12090 0.69470 0.17840
C8 C 0.03299(15) 0.82865(13) 0.15390(12)
H8 H -0.00460 0.86450 0.19470
H9 H -0.01240 0.80400 0.09200
C9 C 0.14419(15) 0.89869(13) 0.15193(12)
H10 H 0.18840 0.86070 0.12280
H11 H 0.13250 0.94090 0.11420
C10 C 0.05911(15) 0.66762(13) 0.11017(12)
H12 H 0.10030 0.69880 0.06950
H13 H -0.01290 0.62490 0.07380
C11 C 0.12023(15) 0.60617(13) 0.14604(13)
H14 H 0.09190 0.58930 0.19880
H15 H 0.10940 0.54540 0.09790
O7 O 0.25171(11) 0.47448(12) 0.53893(10)
O8 O 0.17606(12) 0.46382(11) 0.65871(9)
O9 O -0.21833(12) 0.36844(12) 0.62284(9)
O10 O -0.32339(11) 0.30873(11) 0.48596(10)
O11 O 0.10813(11) 0.11492(10) 0.29582(9)
H16 H 0.146(2) 0.0764(19) 0.2885(17)
O12 O 0.21700(11) 0.35414(10) 0.16911(9)
H17 H 0.216(2) 0.339(2) 0.2213(19)
N4 N 0.17109(13) 0.45026(11) 0.57475(11)
N5 N -0.23257(13) 0.34262(12) 0.53779(11)
N6 N 0.00532(12) 0.24712(10) 0.22455(10)
C12 C -0.05081(15) 0.33808(12) 0.36058(12)
C13 C 0.05373(15) 0.37806(13) 0.41839(12)
H18 H 0.11760 0.38680 0.39320
C14 C 0.06095(15) 0.40445(13) 0.51366(12)
C15 C -0.03079(15) 0.39308(13) 0.55503(12)
H19 H -0.02420 0.41100 0.61930
C16 C -0.13292(15) 0.35360(13) 0.49594(12)
C17 C -0.14494(15) 0.32569(13) 0.39992(12)
H20 H -0.21520 0.29900 0.36240
C18 C -0.06015(15) 0.31195(13) 0.25610(12)
H21 H -0.13740 0.27910 0.22620
H22 H -0.03420 0.37190 0.23800
C19 C -0.05248(15) 0.14769(13) 0.22970(12)
H23 H -0.11850 0.11850 0.18130
H24 H -0.07630 0.15370 0.28900
C20 C 0.01553(15) 0.07838(13) 0.21962(12)
H25 H -0.03020 0.01320 0.21870
H26 H 0.04190 0.07300 0.16150
C21 C 0.02250(15) 0.24609(14) 0.12945(12)
H27 H -0.04760 0.23710 0.09100
H28 H 0.04700 0.19040 0.10350
C22 C 0.10692(15) 0.33980(14) 0.12651(13)
H29 H 0.10580 0.33910 0.06210
H30 H 0.08500 0.39550 0.15700
O13 O 0.71541(12) 0.14009(13) 0.03272(10)
O14 O 0.63713(11) 0.17727(10) 0.14992(9)
O15 O 0.23961(11) 0.11558(11) 0.09406(9)
O16 O 0.14677(11) 0.06031(12) -0.04668(10)
O17 O 0.59499(11) -0.10538(10) -0.23968(9)
H31 H 0.651(2) -0.0576(19) -0.2402(17)
O18 O 0.71965(11) 0.16752(10) -0.31633(9)
H32 H 0.742(2) 0.2218(19) -0.2704(17)
N7 N 0.63519(13) 0.15101(12) 0.06620(11)
N8 N 0.23376(13) 0.09121(11) 0.01026(10)
N9 N 0.50315(12) 0.04539(11) -0.2917(1)
C23 C 0.43479(16) 0.10726(14) -0.15105(12)
C24 C 0.53302(16) 0.12484(14) -0.09012(13)
H33 H 0.59960 0.13280 -0.11130
C25 C 0.53039(15) 0.13036(13) 0.00218(12)
C26 C 0.43423(15) 0.11927(12) 0.03818(12)
H34 H 0.43420 0.12400 0.10060
C27 C 0.33861(15) 0.10077(13) -0.02452(12)
C28 C 0.33649(15) 0.09387(13) -0.11784(12)
H35 H 0.26980 0.08040 -0.15780
C29 C 0.43702(17) 0.10559(15) -0.25104(12)
H36 H 0.36180 0.07900 -0.28670
H37 H 0.46820 0.17250 -0.25420
C30 C 0.44264(15) -0.05947(14) -0.30705(13)
H38 H 0.38390 -0.08160 -0.36140
H39 H 0.40830 -0.06680 -0.25410
C31 C 0.51532(16) -0.12435(14) -0.32084(13)
H40 H 0.46900 -0.19290 -0.33880
H41 H 0.55350 -0.11390 -0.37120
C32 C 0.52879(15) 0.06382(14) -0.37885(12)
H42 H 0.46120 0.06100 -0.41700
H43 H 0.55420 0.01150 -0.41200
C33 C 0.61517(15) 0.16122(14) -0.36682(13)
H44 H 0.62430 0.16970 -0.42740
H45 H 0.59040 0.21410 -0.33390
O19 O 0.26689(11) 0.2808(1) -0.05807(9)
O20 O 0.36713(12) 0.35765(11) -0.14003(9)
O21 O 0.76729(11) 0.52132(9) -0.00954(9)
O22 O 0.83655(11) 0.44537(11) 0.07628(10)
O23 O 0.36167(11) 0.5478(1) 0.21380(9)
H46 H 0.324(2) 0.4859(19) 0.2020(17)
O24 O 0.24153(11) 0.31012(10) 0.33530(9)
H47 H 0.194(2) 0.250(2) 0.3221(19)
N10 N 0.35569(13) 0.33096(11) -0.06984(10)
N11 N 0.75843(13) 0.46424(11) 0.03815(10)
N12 N 0.45683(12) 0.41919(11) 0.29645(10)
C34 C 0.53232(15) 0.36765(12) 0.15762(12)
C35 C 0.43934(15) 0.34551(12) 0.08910(12)
H48 H 0.36840 0.32180 0.10060
C36 C 0.45435(15) 0.35935(12) 0.00347(12)
C37 C 0.55746(15) 0.39844(12) -0.01705(12)
H49 H 0.56580 0.41080 -0.07370
C38 C 0.64670(15) 0.41768(12) 0.05248(12)
C39 C 0.63704(15) 0.40213(12) 0.13824(12)
H50 H 0.70000 0.41470 0.18230
C40 C 0.51909(15) 0.35664(13) 0.25278(12)
H51 H 0.48020 0.28820 0.24740
H52 H 0.59170 0.37500 0.29160
C41 C 0.51305(15) 0.52482(13) 0.30997(13)
H53 H 0.55710 0.53250 0.26250
H54 H 0.56270 0.55320 0.37000
C42 C 0.42915(17) 0.57882(15) 0.30486(14)
H55 H 0.38190 0.56700 0.34950
H56 H 0.46780 0.64920 0.32160
C43 C 0.43487(15) 0.40129(14) 0.38478(12)
H57 H 0.41320 0.45510 0.42010
H58 H 0.50290 0.40160 0.42030
C44 C 0.34582(15) 0.30534(15) 0.37407(13)
H59 H 0.36260 0.25140 0.33370
H60 H 0.34280 0.29340 0.43420
#END
