
#######################################################################
#
#                 Cambridge Crystallographic Data Centre
#                                CCDC
#
#######################################################################
#
# If this CIF has been generated from an entry in the Cambridge
# Structural Database, then it will include bibliographic, chemical,
# crystal, experimental, refinement or atomic coordinate data resulting
# from the CCDC's data processing and validation procedures.
#
#######################################################################

data_CSD_CIF_YOCXOE
_audit_creation_date 2008-09-23
_audit_creation_method CSD-ConQuest-V1
_database_code_CSD YOCXOE
_database_code_depnum_ccdc_archive 'CCDC 696535'
_chemical_formula_sum 'C28 H28 N2 O5'
_chemical_formula_moiety
;
C28 H28 N2 O5
;
_journal_coeditor_code "IUCr SG2245"
_journal_coden_Cambridge 1370
_journal_volume 64
_journal_year 2008
_journal_page_first o1262
_journal_name_full 'Acta Crystallogr.,Sect.E:Struct.Rep.Online '
loop_
_publ_author_name
"Chunbao Miao"
"Changsheng Yao"
"Shujiang Tu"
"Xiaoqiang Sun"
_chemical_name_systematic
;
3,3-Dimethyl-10-(4-methoxyphenyl)-9-(4-nitrophenyl)-1,2,3,4,5,6,7,8,9,10-decah
ydroacridine-1,8-dione
;
_chemical_melting_point 498
_cell_volume   2449.561
_exptl_crystal_colour 'yellow'
_exptl_crystal_density_diffrn 1.281
_exptl_crystal_description 'block'
_exptl_crystal_preparation 'acetone'
_diffrn_ambient_temperature 293
_refine_special_details
;
The nitro O atoms are disordered equally over two sites.

;
#These two values have been output from a single CSD field.
_refine_ls_R_factor_gt 0.0544
_refine_ls_wR_factor_gt 0.0544
_symmetry_cell_setting monoclinic
_symmetry_space_group_name_H-M 'P 21/c'
_symmetry_Int_Tables_number 14
loop_
_symmetry_equiv_pos_site_id
_symmetry_equiv_pos_as_xyz
1 x,y,z
2 -x,1/2+y,1/2-z
3 -x,-y,-z
4 x,-1/2-y,-1/2+z
_cell_length_a 12.463(2)
_cell_length_b 12.104(2)
_cell_length_c 16.408(3)
_cell_angle_alpha 90
_cell_angle_beta 98.251(5)
_cell_angle_gamma 90
_cell_formula_units_Z 4
loop_
_atom_type_symbol
_atom_type_radius_bond
C 0.68
H 0.23
N 0.68
O 0.68
loop_
_atom_site_label
_atom_site_type_symbol
_atom_site_fract_x
_atom_site_fract_y
_atom_site_fract_z
O1 O 0.08638(11) 1.24134(11) 0.47495(8)
O2 O 0.05773(12) 1.11707(12) 0.18637(8)
O3 O 0.5690(14) 1.4049(12) 0.3168(11)
O4? O 0.5542(16) 1.4082(13) 0.3017(12)
O5 O 0.6106(9) 1.2617(11) 0.2566(5)
O6? O 0.6318(8) 1.2452(10) 0.2980(5)
O7 O 0.35763(13) 0.47297(12) 0.51861(10)
N1 N 0.19057(12) 0.88250(11) 0.40821(8)
N2 N 0.55282(17) 1.3088(2) 0.30009(14)
C1 C 0.18027(13) 0.96528(14) 0.46587(10)
C2 C 0.15262(13) 1.06903(13) 0.44043(10)
C3 C 0.15223(13) 1.10285(13) 0.35148(10)
H1 H 0.09510 1.15820 0.33770
C4 C 0.12365(13) 1.00353(14) 0.29784(10)
C5 C 0.14825(13) 0.90001(14) 0.32513(10)
C6 C 0.11987(13) 1.14962(14) 0.49803(10)
C7 C 0.12427(16) 1.11571(16) 0.58669(11)
H2 H 0.05430 1.08590 0.59470
H3 H 0.13750 1.18070 0.62120
C8 C 0.21130(16) 1.03015(15) 0.61444(11)
C9 C 0.19433(16) 0.93206(14) 0.55494(11)
H4 H 0.25620 0.88290 0.56590
H5 H 0.13070 0.89130 0.56530
C10 C 0.32415(18) 1.08004(19) 0.61482(14)
H6 H 0.33240 1.10320 0.56010
H7 H 0.37820 1.02560 0.63350
H8 H 0.33270 1.14260 0.65110
C11 C 0.2002(2) 0.98929(19) 0.70144(12)
H9 H 0.25550 0.93560 0.71860
H10 H 0.13010 0.95620 0.70120
H11 H 0.20790 1.05060 0.73900
C12 C 0.07097(14) 1.02312(16) 0.21323(11)
C13 C 0.03387(17) 0.92376(17) 0.16216(12)
H12 H 0.02730 0.94270 0.10420
H13 H -0.03690 0.90090 0.17390
C14 C 0.11349(17) 0.82947(16) 0.18061(11)
H14 H 0.08670 0.76530 0.14860
H15 H 0.18250 0.85030 0.16430
C15 C 0.13000(16) 0.79997(15) 0.27115(11)
H16 H 0.06670 0.76060 0.28400
H17 H 0.19200 0.75110 0.28270
C16 C 0.25980(13) 1.15546(14) 0.33919(10)
C17 C 0.28131(16) 1.26474(15) 0.36177(12)
H18 H 0.22970 1.30490 0.38500
C18 C 0.37723(17) 1.31493(17) 0.35050(12)
H19 H 0.39070 1.38810 0.36590
C19 C 0.45231(15) 1.25482(17) 0.31624(12)
C20 C 0.43494(16) 1.14667(18) 0.29390(14)
H20 H 0.48720 1.10700 0.27110
C21 C 0.33872(15) 1.09742(16) 0.30581(13)
H21 H 0.32660 1.02380 0.29110
C22 C 0.23073(14) 0.77423(14) 0.43564(10)
C23 C 0.34019(15) 0.75163(16) 0.44032(13)
H22 H 0.38700 0.80520 0.42500
C24 C 0.38016(17) 0.64987(17) 0.46765(14)
H23 H 0.45370 0.63460 0.47040
C25 C 0.31091(17) 0.57056(15) 0.49100(12)
C26 C 0.20155(16) 0.59242(15) 0.48461(12)
H24 H 0.15450 0.53850 0.49890
C27 C 0.16152(15) 0.69446(15) 0.45690(11)
H25 H 0.08770 0.70900 0.45270
C28 C 0.2998(2) 0.40427(18) 0.56706(16)
H26 H 0.27840 0.44650 0.61160
H27 H 0.34530 0.34410 0.58890
H28 H 0.23640 0.37560 0.53350
#END
