
#######################################################################
#
#                 Cambridge Crystallographic Data Centre
#                                CCDC
#
#######################################################################
#
# If this CIF has been generated from an entry in the Cambridge
# Structural Database, then it will include bibliographic, chemical,
# crystal, experimental, refinement or atomic coordinate data resulting
# from the CCDC's data processing and validation procedures.
#
#######################################################################

data_CSD_CIF_YODBUO
_audit_creation_date 1995-11-27
_audit_creation_method CSD-ConQuest-V1
_database_code_CSD YODBUO
_chemical_formula_sum 'C14 H16 N3 O2'
_chemical_formula_moiety
;
C14 H16 N3 O2
;
_journal_coden_Cambridge 1145
_journal_volume 5
_journal_year 1995
_journal_page_first 41
_journal_name_full 'J.Mater.Chem. '
loop_
_publ_author_name
"Y.Hosokoshi"
"M.Tamura"
"H.Sawa"
"R.Kato"
"M.Kinoshita"
_chemical_name_systematic
;
2-(4-Cyanophenyl)-4,4,5,5-tetramethyl-4,5-dihydro-1H-imidazol-1-oxyl 
3-N-oxide radical
;
_cell_volume   2762.723
_exptl_crystal_density_diffrn 1.24
_diffrn_ambient_temperature ?
_diffrn_special_details
;
The study was carried out at room temperature,in the range 283-303K

;
#These two values have been output from a single CSD field.
_refine_ls_R_factor_gt 0.092
_refine_ls_wR_factor_gt 0.092
_symmetry_cell_setting orthorhombic
_symmetry_space_group_name_H-M 'I c 2 a'
_symmetry_Int_Tables_number 45
loop_
_symmetry_equiv_pos_site_id
_symmetry_equiv_pos_as_xyz
1 x,y,z
2 x,1/2+y,-z
3 -x,1/2+y,z
4 -x,y,-z
5 1/2+x,1/2+y,1/2+z
6 1/2+x,y,1/2-z
7 1/2-x,y,1/2+z
8 1/2-x,1/2+y,1/2-z
_cell_length_a 10.482
_cell_length_b 26.615
_cell_length_c 9.903
_cell_angle_alpha 90
_cell_angle_beta 90
_cell_angle_gamma 90
_cell_formula_units_Z 8
loop_
_atom_type_symbol
_atom_type_radius_bond
C 0.75
H 0.23
N 0.68
O 0.68
loop_
_atom_site_label
_atom_site_type_symbol
_atom_site_fract_x
_atom_site_fract_y
_atom_site_fract_z
O1 O -0.1297(9) 0.17516 0.186(1)
N1 N -0.0594(9) 0.1613(4) 0.0901(9)
C1 C 0.00000 0.1916(7) 0.00000
C2 C 0.00000 0.2463(6) 0.00000
C3 C -0.037(1) 0.2730(5) 0.115(1)
C4 C -0.036(1) 0.3250(5) 0.113(1)
C5 C 0.00000 0.3511(6) 0.00000
C6 C -0.029(2) 0.1075(5) 0.060(1)
C7 C -0.107(1) 0.0727(5) 0.138(1)
C8 C 0.137(2) 0.1011(7) 0.134(2)
C9 C 0.00000 0.4053(7) 0.00000
N2 N 0.00000 0.4483(6) 0.00000
O2 O 0.3050(7) 0.3752(4) 0.1082(8)
N3 N 0.4055(7) 0.3897(4) 0.0480(8)
C10 C 0.50000 0.3607(6) 0.00000
C11 C 0.50000 0.3057(7) 0.00000
C12 C 0.387(1) 0.2803(5) -0.014(1)
C13 C 0.386(2) 0.2266(5) -0.017(2)
C14 C 0.50000 0.2026(7) 0.00000
C15 C 0.4265(8) 0.4443(5) 0.0108(9)
C16 C 0.352(1) 0.4524(6) -0.117(2)
C17 C 0.382(1) 0.4776(6) 0.125(1)
C18 C 0.50000 0.1470(8) 0.00000
N4 N 0.50000 0.1053(8) 0.00000
H1 H -0.07(1) 0.253(4) 0.20(1)
H2 H -0.06(1) 0.343(4) 0.19(1)
H3 H 0.29(1) 0.307(5) -0.04(1)
H4? H 0.26(1) 0.098(5) -0.04(2)
H5? H 0.34(1) 0.499(6) -0.12(1)
H6 H 0.38(1) 0.484(7) -0.15(2)
H7 H 0.29(1) 0.456(6) -0.11(2)
H8 H 0.43(1) 0.473(5) 0.23(1)
H9 H 0.31(1) 0.480(6) 0.11(1)
H10 H 0.41(1) 0.515(5) 0.10(1)
N1C N 0.0594(9) 0.1613(4) -0.0901(9)
O1C O 0.1297(9) 0.17516 -0.186(1)
C6C C 0.029(2) 0.1075(5) -0.060(1)
C7C C 0.107(1) 0.0727(5) -0.138(1)
C8C C -0.137(2) 0.1011(7) -0.134(2)
C4C C 0.036(1) 0.3250(5) -0.113(1)
C3C C 0.037(1) 0.2730(5) -0.115(1)
H1C H 0.07(1) 0.253(4) -0.20(1)
H2C H 0.06(1) 0.343(4) -0.19(1)
N3C N 0.5945(7) 0.3897(4) -0.0480(8)
O2C O 0.6950(7) 0.3752(4) -0.1082(8)
C15C C 0.5735(8) 0.4443(5) -0.0108(9)
C16C C 0.648(1) 0.4524(6) 0.117(2)
H6C H 0.62(1) 0.484(7) 0.15(2)
H7C H 0.71(1) 0.456(6) 0.11(2)
C17C C 0.618(1) 0.4776(6) -0.125(1)
H8C H 0.57(1) 0.473(5) -0.23(1)
H9C H 0.69(1) 0.480(6) -0.11(1)
H10C H 0.59(1) 0.515(5) -0.10(1)
C13C C 0.614(2) 0.2266(5) 0.017(2)
C12C C 0.613(1) 0.2803(5) 0.014(1)
H3C H 0.71(1) 0.307(5) 0.04(1)
#END
