
#######################################################################
#
#                 Cambridge Crystallographic Data Centre
#                                CCDC
#
#######################################################################
#
# If this CIF has been generated from an entry in the Cambridge
# Structural Database, then it will include bibliographic, chemical,
# crystal, experimental, refinement or atomic coordinate data resulting
# from the CCDC's data processing and validation procedures.
#
#######################################################################

data_CSD_CIF_YODFUT
_audit_creation_date 2008-09-23
_audit_creation_method CSD-ConQuest-V1
_database_code_CSD YODFUT
_database_code_depnum_ccdc_archive 'CCDC 700518'
_chemical_formula_sum 'C12 H16 N2 O4'
_chemical_formula_moiety
;
C12 H16 N2 O4
;
_journal_coeditor_code "IUCr AT2590"
_journal_coden_Cambridge 1370
_journal_volume 64
_journal_year 2008
_journal_page_first o1501
_journal_name_full 'Acta Crystallogr.,Sect.E:Struct.Rep.Online '
loop_
_publ_author_name
"S.M.M.Maidin"
"A.S.A.Rahim"
"S.A.Hamid"
"R.Kia"
"Hoong-Kun Fun"
_chemical_name_systematic
;
Ethyl 3-nitro-4-(propylamino)benzoate
;
_cell_volume    611.567
_exptl_crystal_colour 'yellow'
_exptl_crystal_density_diffrn 1.37
_exptl_crystal_description 'Needle'
_exptl_crystal_preparation 'hexane'
_diffrn_ambient_temperature 100.00
#These two values have been output from a single CSD field.
_refine_ls_R_factor_gt 0.0759
_refine_ls_wR_factor_gt 0.0759
_symmetry_cell_setting triclinic
_symmetry_space_group_name_H-M 'P -1'
_symmetry_Int_Tables_number 2
loop_
_symmetry_equiv_pos_site_id
_symmetry_equiv_pos_as_xyz
1 x,y,z
2 -x,-y,-z
_cell_length_a 4.4914(4)
_cell_length_b 12.0828(9)
_cell_length_c 12.8763(9)
_cell_angle_alpha 62.494(4)
_cell_angle_beta 81.055(4)
_cell_angle_gamma 83.494(4)
_cell_formula_units_Z 2
loop_
_atom_type_symbol
_atom_type_radius_bond
C 0.68
H 0.23
N 0.68
O 0.68
loop_
_atom_site_label
_atom_site_type_symbol
_atom_site_fract_x
_atom_site_fract_y
_atom_site_fract_z
O1 O 0.2464(7) 0.4136(3) 0.5558(2)
O2 O 0.5971(6) 0.2725(2) 0.6301(2)
O3 O 0.8766(6) 0.1455(2) 1.0099(2)
O4 O 0.7178(6) 0.2578(2) 1.1092(2)
N1 N 0.0274(7) 0.5600(3) 0.6530(3)
N2 N 0.4117(7) 0.3535(3) 0.6346(3)
C1 C 0.3823(8) 0.3799(3) 0.7345(3)
C2 C 0.5528(8) 0.3013(3) 0.8258(3)
H1 H 0.67750 0.23740 0.81920
C3 C 0.5379(8) 0.3177(3) 0.9255(3)
C4 C 0.3490(8) 0.4159(3) 0.9327(3)
H2 H 0.33580 0.42740 0.99990
C5 C 0.1849(8) 0.4945(3) 0.8436(3)
H3 H 0.06500 0.55890 0.85120
C6 C 0.1917(8) 0.4809(3) 0.7389(3)
C7 C -0.1636(8) 0.6655(3) 0.6552(3)
H4 H -0.27550 0.63880 0.73300
H5 H -0.30860 0.68950 0.59910
C8 C 0.0108(8) 0.7792(3) 0.6262(3)
H6 H 0.15180 0.75720 0.68340
H7 H 0.12510 0.80650 0.54880
C9 C -0.2061(9) 0.8850(3) 0.6280(3)
H8 H -0.09320 0.95320 0.61690
H9 H -0.33040 0.85570 0.70250
H10 H -0.33130 0.91260 0.56570
C10 C 0.7166(8) 0.2397(3) 1.0240(3)
C11 C 1.0559(8) 0.0633(3) 1.1042(3)
H11 H 1.13450 0.11150 1.13580
H12 H 1.22570 0.02610 1.07280
C12 C 0.8678(9) -0.0386(3) 1.2015(3)
H13 H 0.99260 -0.09430 1.26070
H14 H 0.78370 -0.08430 1.16960
H15 H 0.70770 -0.00200 1.23610
H16 H 0.031(11) 0.547(4) 0.593(5)
#END
