
#######################################################################
#
#                 Cambridge Crystallographic Data Centre
#                                CCDC
#
#######################################################################
#
# If this CIF has been generated from an entry in the Cambridge
# Structural Database, then it will include bibliographic, chemical,
# crystal, experimental, refinement or atomic coordinate data resulting
# from the CCDC's data processing and validation procedures.
#
#######################################################################

data_CSD_CIF_YODHIJ01
_audit_creation_date 2010-01-11
_audit_creation_method CSD-ConQuest-V1
_database_code_CSD YODHIJ01
_database_code_depnum_ccdc_archive 'CCDC 271443'
_chemical_formula_sum 'C8 H8 N4 O2'
_chemical_formula_moiety
;
C8 H8 N4 O2
;
_journal_coden_Cambridge 746
_journal_volume 26
_journal_year 2007
_journal_page_first 63
_journal_name_full 'Iran J.Chem.Chem.Eng. '
loop_
_publ_author_name
"A.Kakanejadifard"
"A.Sharifi"
"F.Delfani"
"B.Ranjbar"
"N.Hossein"
_chemical_name_systematic
;
(2Z,3Z)-1,4-dihydroquinoxaline-2,3-dione dioxime
;
_chemical_melting_point 512.15
_cell_volume    814.253
_exptl_crystal_density_diffrn 1.568
_exptl_special_details
;
Melting point range 512.15-513.15K

;
_exptl_crystal_preparation 'ethanol'
_diffrn_ambient_temperature 120
#These two values have been output from a single CSD field.
_refine_ls_R_factor_gt 0.0671
_refine_ls_wR_factor_gt 0.0671
_symmetry_cell_setting triclinic
_symmetry_space_group_name_H-M 'P -1'
_symmetry_Int_Tables_number 2
loop_
_symmetry_equiv_pos_site_id
_symmetry_equiv_pos_as_xyz
1 x,y,z
2 -x,-y,-z
_cell_length_a 8.3998(16)
_cell_length_b 8.3888(13)
_cell_length_c 13.129(2)
_cell_angle_alpha 102.686(6)
_cell_angle_beta 102.666(4)
_cell_angle_gamma 108.316(3)
_cell_formula_units_Z 4
loop_
_atom_type_symbol
_atom_type_radius_bond
C 0.68
H 0.23
N 0.68
O 0.68
loop_
_atom_site_label
_atom_site_type_symbol
_atom_site_fract_x
_atom_site_fract_y
_atom_site_fract_z
C1 C 0.4091(3) 0.5657(3) 0.3017(2)
C2 C 0.7640(3) 0.1071(3) 0.1983(2)
C3 C 0.9346(3) 0.0909(3) 0.1983(2)
C4 C 0.3929(3) 0.7364(3) 0.3018(2)
C5 C 1.0233(3) 0.1786(3) 0.3977(2)
C6 C 0.2803(3) 0.6249(3) 0.1023(2)
C7 C 1.1434(3) 0.2041(4) 0.4969(2)
C8 C 0.2072(4) 0.6469(3) 0.0033(2)
C9 C 1.1198(3) 0.2758(4) 0.5942(2)
C10 C 0.1806(4) 0.5255(3) -0.0943(2)
C11 C 0.2254(4) 0.3807(3) -0.0943(2)
C12 C 0.9750(3) 0.3192(4) 0.5941(2)
C13 C 0.2960(4) 0.3565(3) 0.0032(3)
C14 C 0.8530(3) 0.2928(4) 0.4967(2)
C15 C 0.3219(3) 0.4775(3) 0.1024(2)
C16 C 0.8747(3) 0.2189(3) 0.3978(2)
N1 N 0.4449(3) 0.5358(2) 0.3946(2)
N2 N 0.6412(2) 0.0501(2) 0.1054(1)
O1 O 0.4898(2) 0.0807(2) 0.1210(1)
O2 O 0.4600(2) 0.3684(2) 0.3788(1)
N3 N 0.9645(2) 0.0557(2) 0.1056(1)
N4 N 0.4498(3) 0.8589(2) 0.3944(1)
O3 O 1.1311(2) 0.0404(2) 0.1211(1)
O4 O 0.4188(2) 1.0103(2) 0.3788(1)
N5 N 0.3150(3) 0.7499(2) 0.2034(1)
N6 N 1.0466(3) 0.1115(3) 0.2967(1)
N7 N 0.7503(2) 0.1851(3) 0.2969(1)
N8 N 0.3886(3) 0.4537(3) 0.2033(1)
H1 H 1.24230 0.17170 0.49740
H2 H 0.17540 0.74600 0.00310
H3 H 1.20370 0.29550 0.66200
H4 H 0.13130 0.54130 -0.16200
H5 H 0.20730 0.29740 -0.16200
H6 H 0.95900 0.36790 0.66180
H7 H 0.32710 0.25690 0.00270
H8 H 0.75430 0.32490 0.49720
H9 H 0.41570 0.04660 0.05580
H10 H 0.48050 0.35930 0.44440
H11 H 1.14080 0.02010 0.05800
H12 H 0.48130 1.07780 0.44290
H13 H 0.31360 0.87340 0.19490
H14 H 1.17950 0.11810 0.30450
H15 H 0.63170 0.19830 0.30050
H16 H 0.38470 0.33140 0.20270
#END
