
#######################################################################
#
#                 Cambridge Crystallographic Data Centre
#                                CCDC
#
#######################################################################
#
# If this CIF has been generated from an entry in the Cambridge
# Structural Database, then it will include bibliographic, chemical,
# crystal, experimental, refinement or atomic coordinate data resulting
# from the CCDC's data processing and validation procedures.
#
#######################################################################

data_CSD_CIF_YODHIJ
_audit_creation_date 2008-09-23
_audit_creation_method CSD-ConQuest-V1
_database_code_CSD YODHIJ
_database_code_depnum_ccdc_archive 'CCDC 700526'
_chemical_formula_sum 'C8 H8 N4 O2'
_chemical_formula_moiety
;
C8 H8 N4 O2
;
_journal_coeditor_code "IUCr HK2493"
_journal_coden_Cambridge 1370
_journal_volume 64
_journal_year 2008
_journal_page_first o1512
_journal_name_full 'Acta Crystallogr.,Sect.E:Struct.Rep.Online '
loop_
_publ_author_name
"A.Kakanejadifard"
"V.Amani"
_chemical_name_systematic
;
(2Z,3Z)-Quinoxaline-2,3(1H,4H)-dione dioxime
;
_chemical_melting_point 512
_cell_volume   3256.986
_exptl_crystal_colour 'light brown'
_exptl_crystal_density_diffrn 1.568
_exptl_crystal_description 'prism'
_exptl_crystal_preparation 'ethanol'
_diffrn_ambient_temperature 120
#These two values have been output from a single CSD field.
_refine_ls_R_factor_gt 0.0598
_refine_ls_wR_factor_gt 0.0598
_symmetry_cell_setting orthorhombic
_symmetry_space_group_name_H-M 'F d d d'
_symmetry_Int_Tables_number 70
loop_
_symmetry_equiv_pos_site_id
_symmetry_equiv_pos_as_xyz
1 x,y,z
2 x,1/2+y,1/2+z
3 x,1/4-y,1/4-z
4 1/2+x,y,1/2+z
5 1/4-x,y,1/4-z
6 1/2+x,1/2+y,z
7 1/4-x,1/4-y,z
8 3/4-x,3/4-y,z
9 3/4-x,y,3/4-z
10 x,3/4-y,3/4-z
11 3/4-x,1/4-y,1/2+z
12 3/4-x,1/2+y,1/4-z
13 1/4-x,3/4-y,1/2+z
14 1/2+x,3/4-y,1/4-z
15 1/4-x,1/2+y,3/4-z
16 1/2+x,1/4-y,3/4-z
17 -x,-y,-z
18 -x,-1/2-y,-1/2-z
19 -x,-1/4+y,-1/4+z
20 -1/2-x,-y,-1/2-z
21 -1/4+x,-y,-1/4+z
22 -1/2-x,-1/2-y,-z
23 -1/4+x,-1/4+y,-z
24 -3/4+x,-3/4+y,-z
25 -3/4+x,-y,-3/4+z
26 -x,-3/4+y,-3/4+z
27 -3/4+x,-1/4+y,-1/2-z
28 -3/4+x,-1/2-y,-1/4+z
29 -1/4+x,-3/4+y,-1/2-z
30 -1/2-x,-3/4+y,-1/4+z
31 -1/4+x,-1/2-y,-3/4+z
32 -1/2-x,-1/4+y,-3/4+z
_cell_length_a 9.831(2)
_cell_length_b 13.609(3)
_cell_length_c 24.344(5)
_cell_angle_alpha 90
_cell_angle_beta 90
_cell_angle_gamma 90
_cell_formula_units_Z 16
loop_
_atom_type_symbol
_atom_type_radius_bond
C 0.68
H 0.23
N 0.68
O 0.68
loop_
_atom_site_label
_atom_site_type_symbol
_atom_site_fract_x
_atom_site_fract_y
_atom_site_fract_z
O1 O 0.47468(17) -0.04564(12) 0.43944(6)
H1 H 0.454(3) -0.0611(18) 0.4723(4)
N1 N 0.54273(19) 0.04548(13) 0.44726(7)
N2 N 0.5691(2) 0.03307(14) 0.35156(7)
H2 H 0.53850 -0.02610 0.35130
C1 C 0.5867(2) 0.07818(15) 0.40084(8)
C2 C 0.5981(2) 0.07776(16) 0.30119(8)
C3 C 0.5745(2) 0.03025(19) 0.25164(9)
H3 H 0.54130 -0.03370 0.25140
C4 C 0.6000(3) 0.0776(2) 0.20291(9)
H4 H 0.58350 0.04570 0.16980
O1F O 0.77532(17) 0.29564(12) 0.43944(6)
H1F H 0.796(3) 0.3111(18) 0.4723(4)
N1F N 0.70727(19) 0.20452(13) 0.44726(7)
N2F N 0.6809(2) 0.21693(14) 0.35156(7)
H2F H 0.71150 0.27610 0.35130
C1F C 0.6633(2) 0.17182(15) 0.40084(8)
C2F C 0.6519(2) 0.17224(16) 0.30119(8)
C3F C 0.6755(2) 0.21975(19) 0.25164(9)
H3F H 0.70870 0.28370 0.25140
C4F C 0.6500(3) 0.1724(2) 0.20291(9)
H4F H 0.66650 0.20430 0.16980
#END
