
#######################################################################
#
#                 Cambridge Crystallographic Data Centre
#                                CCDC
#
#######################################################################
#
# If this CIF has been generated from an entry in the Cambridge
# Structural Database, then it will include bibliographic, chemical,
# crystal, experimental, refinement or atomic coordinate data resulting
# from the CCDC's data processing and validation procedures.
#
#######################################################################

data_CSD_CIF_YODHAC
_audit_creation_date 2014-04-04
_audit_creation_method CSD-ConQuest-V1
_database_code_CSD YODHAC
_database_code_depnum_ccdc_archive 'CCDC 979071'
_chemical_formula_sum 'C16 H19 N1 O5'
_chemical_formula_moiety
;
C16 H19 N1 O5
;
_journal_coden_Cambridge 1220
_journal_volume 20
_journal_year 2014
_journal_page_first 6112
_journal_name_full 'Chem.-Eur.J. '
loop_
_publ_author_name
"Zhongwen Sun"
"Mingtao Zhou"
"Xiang Li"
"Xueling Meng"
"Fangzhi Peng"
"Hongbin Zhang"
"Zhihui Shao"
_chemical_name_systematic
;
Ethyl (2-nitro-5-oxo-3-phenylcyclohexyl)acetat
;
_cell_volume    813.110
_exptl_crystal_colour 'colorless'
_exptl_crystal_density_diffrn 1.247
_exptl_crystal_description 'block'
_diffrn_ambient_temperature 298
#These two values have been output from a single CSD field.
_refine_ls_R_factor_gt 0.0663
_refine_ls_wR_factor_gt 0.0663
_symmetry_cell_setting monoclinic
_symmetry_space_group_name_H-M 'P 21'
_symmetry_Int_Tables_number 4
loop_
_symmetry_equiv_pos_site_id
_symmetry_equiv_pos_as_xyz
1 x,y,z
2 -x,1/2+y,-z
_cell_length_a 10.442(2)
_cell_length_b 6.0037(14)
_cell_length_c 13.450(3)
_cell_angle_alpha 90
_cell_angle_beta 105.350(3)
_cell_angle_gamma 90
_cell_formula_units_Z 2
loop_
_atom_type_symbol
_atom_type_radius_bond
C 0.68
H 0.23
N 0.68
O 0.68
loop_
_atom_site_label
_atom_site_type_symbol
_atom_site_fract_x
_atom_site_fract_y
_atom_site_fract_z
N1 N 0.7554(3) 0.4051(7) 0.2484(2)
O1 O 0.9550(3) 0.0789(5) -0.04061(18)
O2 O 0.5054(3) 0.2447(6) -0.09449(19)
O3 O 0.6383(3) 0.4496(6) -0.15882(19)
O4 O 0.7946(3) 0.5938(5) 0.24196(18)
O5 O 0.6743(3) 0.3571(7) 0.2932(2)
C1 C 0.9204(4) 0.0503(6) 0.0379(3)
C2 C 1.0109(3) 0.0840(7) 0.1433(2)
H1 H 1.09820 0.12720 0.13760
H2 H 1.01990 -0.05510 0.18120
C3 C 0.9573(3) 0.2644(6) 0.2027(2)
H3 H 0.96170 0.40750 0.16870
C4 C 0.8120(4) 0.2167(6) 0.1958(2)
H4 H 0.80860 0.07960 0.23450
C5 C 0.7212(4) 0.1844(5) 0.0870(2)
H5 H 0.63390 0.13670 0.09330
C6 C 0.7801(4) -0.0063(6) 0.0366(3)
H6 H 0.77840 -0.14380 0.07410
H7 H 0.72760 -0.02740 -0.03390
C7 C 1.0426(4) 0.2819(6) 0.3124(2)
C8 C 1.0446(4) 0.1163(7) 0.3837(2)
H8 H 0.99060 -0.00810 0.36470
C9 C 1.1250(5) 0.1322(9) 0.4820(3)
H9 H 1.12530 0.01760 0.52860
C10 C 1.2039(5) 0.3112(11) 0.5124(3)
H10 H 1.25750 0.32070 0.57960
C11 C 1.2040(5) 0.4796(9) 0.4429(4)
H11 H 1.25840 0.60330 0.46260
C12 C 1.1223(4) 0.4635(8) 0.3435(3)
H12 H 1.12180 0.57840 0.29700
C13 C 0.7018(3) 0.3928(6) 0.0196(2)
H13 H 0.66980 0.51350 0.05450
H14 H 0.78650 0.43750 0.00890
C14 C 0.6040(4) 0.3506(7) -0.0833(3)
C15 C 0.5495(5) 0.4107(13) -0.2623(3)
H15 H 0.54110 0.25200 -0.27600
H16 H 0.46200 0.46980 -0.26580
C16 C 0.5998(6) 0.512(2) -0.3335(4)
H17 H 0.60720 0.66890 -0.31990
H18 H 0.54190 0.48650 -0.40090
H19 H 0.68610 0.45160 -0.33010
#END
