
#######################################################################
#
#                 Cambridge Crystallographic Data Centre
#                                CCDC
#
#######################################################################
#
# If this CIF has been generated from an entry in the Cambridge
# Structural Database, then it will include bibliographic, chemical,
# crystal, experimental, refinement or atomic coordinate data resulting
# from the CCDC's data processing and validation procedures.
#
#######################################################################

data_CSD_CIF_YODHUV
_audit_creation_date 2008-09-23
_audit_creation_method CSD-ConQuest-V1
_database_code_CSD YODHUV
_database_code_depnum_ccdc_archive 'CCDC 700528'
_chemical_formula_sum 'C5 H11 N5 O2'
_chemical_formula_moiety
;
C5 H11 N5 O2
;
_journal_coeditor_code "IUCr HK2491"
_journal_coden_Cambridge 1370
_journal_volume 64
_journal_year 2008
_journal_page_first o1515
_journal_name_full 'Acta Crystallogr.,Sect.E:Struct.Rep.Online '
loop_
_publ_author_name
"Cong Zhao"
"Wen-ge Yang"
"Yong-hong Hu"
"Lei Shen"
"Xiu-tao Lu"
_chemical_name_systematic
;
1,5-Dimethyl-2-nitroimino-1,3,5-triazinane
;
_cell_volume   1609.432
_exptl_crystal_colour 'colorless'
_exptl_crystal_density_diffrn 1.43
_exptl_special_details
;
envelope conformer

;
_exptl_crystal_description 'block'
_exptl_crystal_preparation 'ethanol'
_diffrn_ambient_temperature 294
#These two values have been output from a single CSD field.
_refine_ls_R_factor_gt 0.0724
_refine_ls_wR_factor_gt 0.0724
_symmetry_cell_setting monoclinic
_symmetry_space_group_name_H-M 'P 21/n'
_symmetry_Int_Tables_number 14
loop_
_symmetry_equiv_pos_site_id
_symmetry_equiv_pos_as_xyz
1 x,y,z
2 1/2-x,1/2+y,1/2-z
3 -x,-y,-z
4 -1/2+x,-1/2-y,-1/2+z
_cell_length_a 6.6490(13)
_cell_length_b 30.103(6)
_cell_length_c 8.2940(17)
_cell_angle_alpha 90
_cell_angle_beta 104.19(3)
_cell_angle_gamma 90
_cell_formula_units_Z 8
loop_
_atom_type_symbol
_atom_type_radius_bond
C 0.68
H 0.23
N 0.68
O 0.68
loop_
_atom_site_label
_atom_site_type_symbol
_atom_site_fract_x
_atom_site_fract_y
_atom_site_fract_z
O1 O 0.4157(7) 0.16494(15) 0.6298(4)
O2 O 0.2294(5) 0.22215(11) 0.5490(4)
N1 N 0.3763(5) 0.19429(11) 1.0927(4)
N2 N 0.4955(5) 0.14315(11) 0.9359(4)
H1 H 0.50270 0.13340 0.84000
N3 N 0.6537(5) 0.14525(12) 1.2299(4)
N4 N 0.3096(5) 0.20872(11) 0.8150(4)
N5 N 0.3202(5) 0.19792(13) 0.6628(4)
C1 C 0.8312(7) 0.17403(17) 1.2213(7)
H2 H 0.86660 0.19250 1.31840
H3 H 0.79390 0.19240 1.12380
H4 H 0.94810 0.15590 1.21600
C2 C 0.2708(8) 0.23592(15) 1.1160(6)
H5 H 0.21300 0.24930 1.00970
H6 H 0.36880 0.25590 1.18350
H7 H 0.16170 0.22970 1.17010
C3 C 0.3970(6) 0.18117(13) 0.9446(5)
C4 C 0.5922(7) 0.11728(14) 1.0841(5)
H8 H 0.49510 0.09500 1.10290
H9 H 0.71320 0.10200 1.06570
C5 C 0.4757(8) 0.16943(17) 1.2470(5)
H10 H 0.51620 0.19020 1.33870
H11 H 0.37570 0.14890 1.27340
O3 O 0.0455(5) 0.07427(13) 0.2450(4)
O4 O 0.3371(5) 0.04202(11) 0.2690(4)
N6 N -0.1841(5) 0.09106(11) 0.7596(4)
N7 N -0.1239(4) 0.07164(11) 0.4938(4)
H12 H -0.15080 0.07880 0.39040
N8 N 0.0994(5) 0.04358(11) 0.7263(4)
N9 N 0.2160(5) 0.04411(11) 0.4922(4)
N10 N 0.1942(5) 0.05374(11) 0.3332(4)
C6 C -0.0729(8) 0.13372(16) 0.7715(7)
H13 H -0.01360 0.14070 0.88630
H14 H -0.16800 0.15670 0.72210
H15 H 0.03550 0.13160 0.71380
C7 C 0.2916(7) 0.02129(16) 0.8125(5)
H16 H 0.37450 0.01540 0.73510
H17 H 0.25870 -0.00620 0.85890
H18 H 0.36740 0.04010 0.90010
C8 C -0.0443(6) 0.05545(15) 0.8268(5)
H19 H -0.12530 0.02940 0.83910
H20 H 0.03520 0.06390 0.93690
C9 C -0.2774(6) 0.07940(15) 0.5863(5)
H21 H -0.36120 0.05290 0.58300
H22 H -0.36820 0.10330 0.53420
C10 C 0.0585(5) 0.05359(12) 0.5651(4)
#END
