
#######################################################################
#
#                 Cambridge Crystallographic Data Centre
#                                CCDC
#
#######################################################################
#
# If this CIF has been generated from an entry in the Cambridge
# Structural Database, then it will include bibliographic, chemical,
# crystal, experimental, refinement or atomic coordinate data resulting
# from the CCDC's data processing and validation procedures.
#
#######################################################################

data_CSD_CIF_YODKAE
_audit_creation_date 2008-09-23
_audit_creation_method CSD-ConQuest-V1
_database_code_CSD YODKAE
_database_code_depnum_ccdc_archive 'CCDC 700534'
_chemical_formula_sum 'C10 H5 N1 O5'
_chemical_formula_moiety
;
C10 H5 N1 O5
;
_journal_coeditor_code "IUCr AT2591"
_journal_coden_Cambridge 1370
_journal_volume 64
_journal_year 2008
_journal_page_first o1523
_journal_name_full 'Acta Crystallogr.,Sect.E:Struct.Rep.Online '
loop_
_publ_author_name
"D.T.-C.Tan"
"H.Osman"
"A.H.Kamaruddin"
"R.Kia"
"H.-K.Fun"
_chemical_name_systematic
;
5-Hydroxy-8-nitro-1,4-naphthoquinone
;
_cell_volume    889.020
_exptl_crystal_colour 'brown'
_exptl_crystal_density_diffrn 1.637
_exptl_crystal_description 'block'
_exptl_crystal_preparation 'chloroform'
_diffrn_ambient_temperature 100.00
#These two values have been output from a single CSD field.
_refine_ls_R_factor_gt 0.0405
_refine_ls_wR_factor_gt 0.0405
_symmetry_cell_setting monoclinic
_symmetry_space_group_name_H-M 'P 21/n'
_symmetry_Int_Tables_number 14
loop_
_symmetry_equiv_pos_site_id
_symmetry_equiv_pos_as_xyz
1 x,y,z
2 1/2-x,1/2+y,1/2-z
3 -x,-y,-z
4 -1/2+x,-1/2-y,-1/2+z
_cell_length_a 8.6809(2)
_cell_length_b 8.4250(2)
_cell_length_c 12.1845(3)
_cell_angle_alpha 90
_cell_angle_beta 93.946(1)
_cell_angle_gamma 90
_cell_formula_units_Z 4
loop_
_atom_type_symbol
_atom_type_radius_bond
C 0.68
H 0.23
N 0.68
O 0.68
loop_
_atom_site_label
_atom_site_type_symbol
_atom_site_fract_x
_atom_site_fract_y
_atom_site_fract_z
O1 O 0.60929(9) 0.14448(9) 0.47684(6)
O2 O 0.70729(9) 0.29533(9) 0.65117(6)
O3 O 1.13635(9) -0.14728(9) 0.74975(6)
O4 O 0.97394(10) -0.42986(9) 0.67891(6)
O5 O 1.11804(9) -0.37894(9) 0.54429(6)
N1 N 1.01058(10) -0.34927(10) 0.60140(7)
C1 C 0.71200(11) 0.03181(12) 0.50785(8)
C2 C 0.71889(11) -0.10405(12) 0.44177(8)
C3 C 0.81830(11) -0.22605(12) 0.47321(8)
C4 C 0.91370(11) -0.21081(11) 0.56968(8)
C5 C 0.91680(11) -0.07504(11) 0.63367(7)
C6 C 1.03288(11) -0.05166(12) 0.72840(8)
C7 C 1.02414(12) 0.09636(13) 0.79222(8)
C8 C 0.91880(12) 0.20847(12) 0.76649(8)
C9 C 0.80517(11) 0.19086(12) 0.67159(8)
C10 C 0.81225(11) 0.04769(11) 0.60319(8)
H1 H 0.9139(16) 0.3051(18) 0.8063(12)
H2 H 0.6513(17) -0.1106(19) 0.3752(12)
H3 H 0.8222(16) -0.3231(18) 0.4307(12)
H4 H 1.1034(18) 0.1097(19) 0.8530(13)
H5 H 0.620(2) 0.223(2) 0.5255(16)
#END
