
#######################################################################
#
#                 Cambridge Crystallographic Data Centre
#                                CCDC
#
#######################################################################
#
# If this CIF has been generated from an entry in the Cambridge
# Structural Database, then it will include bibliographic, chemical,
# crystal, experimental, refinement or atomic coordinate data resulting
# from the CCDC's data processing and validation procedures.
#
#######################################################################

data_CSD_CIF_YOFJAG
_audit_creation_date 2014-04-04
_audit_creation_method CSD-ConQuest-V1
_database_code_CSD YOFJAG
_database_code_depnum_ccdc_archive 'CCDC 949372'
_chemical_formula_sum 'C12 H11 N3 O3'
_chemical_formula_moiety
;
C12 H11 N3 O3
;
_journal_coden_Cambridge 35
_journal_volume 79
_journal_year 2014
_journal_page_first 2906
_journal_name_full 'J.Org.Chem. '
loop_
_publ_author_name
"V.O.I.A.Gevorgyan"
"O.Davydova"
"P.Langer"
_chemical_name_systematic
;
1-(3-(1-Methyl-4-nitro-1H-pyrazol-5-yl)phenyl)ethanone
;
_cell_volume   1165.215
_exptl_crystal_colour 'colorless'
_exptl_crystal_density_diffrn 1.398
_exptl_crystal_description 'plate'
_diffrn_ambient_temperature 173
#These two values have been output from a single CSD field.
_refine_ls_R_factor_gt 0.0564
_refine_ls_wR_factor_gt 0.0564
_symmetry_cell_setting monoclinic
_symmetry_space_group_name_H-M 'P 21/c'
_symmetry_Int_Tables_number 14
loop_
_symmetry_equiv_pos_site_id
_symmetry_equiv_pos_as_xyz
1 x,y,z
2 -x,1/2+y,1/2-z
3 -x,-y,-z
4 x,-1/2-y,-1/2+z
_cell_length_a 7.2879(12)
_cell_length_b 18.828(3)
_cell_length_c 8.5038(14)
_cell_angle_alpha 90
_cell_angle_beta 93.045(6)
_cell_angle_gamma 90
_cell_formula_units_Z 4
loop_
_atom_type_symbol
_atom_type_radius_bond
C 0.68
H 0.23
N 0.68
O 0.68
loop_
_atom_site_label
_atom_site_type_symbol
_atom_site_fract_x
_atom_site_fract_y
_atom_site_fract_z
N1 N 0.2591(2) 0.53992(7) 0.45729(16)
N2 N 0.2021(2) 0.47108(8) 0.46450(17)
N3 N 0.2912(2) 0.51619(8) 0.87189(17)
O1 O 0.2545(3) 0.46209(8) 0.94378(17)
O2 O 0.3397(2) 0.57128(7) 0.93688(15)
O3 O 0.8865(2) 0.78835(7) 0.7930(2)
C1 C 0.3058(2) 0.56855(9) 0.59939(18)
C2 C 0.2745(3) 0.51347(9) 0.70454(19)
C3 C 0.2118(3) 0.45513(9) 0.6156(2)
H1 H 0.18060 0.41030 0.65810
C4 C 0.2695(3) 0.57240(11) 0.3016(2)
H2 H 0.16250 0.60310 0.28050
H3 H 0.27090 0.53510 0.22140
H4 H 0.38210 0.60070 0.29880
C5 C 0.3816(2) 0.64095(9) 0.61826(19)
C6 C 0.5542(2) 0.65057(9) 0.69375(19)
H5 H 0.61780 0.61090 0.73910
C7 C 0.6347(2) 0.71764(9) 0.70355(19)
C8 C 0.5405(3) 0.77547(9) 0.6380(2)
H6 H 0.59470 0.82130 0.64320
C9 C 0.3677(3) 0.76639(10) 0.5652(2)
H7 H 0.30300 0.80630 0.52220
C10 C 0.2884(3) 0.69961(9) 0.5545(2)
H8 H 0.17010 0.69380 0.50360
C11 C 0.8225(3) 0.72882(10) 0.7799(2)
C12 C 0.9297(3) 0.66558(11) 0.8383(3)
H9 H 1.05820 0.67920 0.86080
H10 H 0.92340 0.62830 0.75770
H11 H 0.87790 0.64770 0.93470
#END
