
#######################################################################
#
#                 Cambridge Crystallographic Data Centre
#                                CCDC
#
#######################################################################
#
# If this CIF has been generated from an entry in the Cambridge
# Structural Database, then it will include bibliographic, chemical,
# crystal, experimental, refinement or atomic coordinate data resulting
# from the CCDC's data processing and validation procedures.
#
#######################################################################

data_CSD_CIF_YOFJEK
_audit_creation_date 2014-04-04
_audit_creation_method CSD-ConQuest-V1
_database_code_CSD YOFJEK
_database_code_depnum_ccdc_archive 'CCDC 949373'
_chemical_formula_sum 'C16 H14 N4 O2'
_chemical_formula_moiety
;
C16 H14 N4 O2
;
_journal_coden_Cambridge 35
_journal_volume 79
_journal_year 2014
_journal_page_first 2906
_journal_name_full 'J.Org.Chem. '
loop_
_publ_author_name
"V.O.I.A.Gevorgyan"
"O.Davydova"
"P.Langer"
_chemical_name_systematic
;
3-(1-(4-Methylbenzyl)-4-nitro-1H-pyrazol-5-yl)pyridine
;
_cell_volume   1469.532
_exptl_crystal_colour 'colorless'
_exptl_crystal_density_diffrn 1.33
_exptl_crystal_description 'block'
_diffrn_ambient_temperature 173
#These two values have been output from a single CSD field.
_refine_ls_R_factor_gt 0.046
_refine_ls_wR_factor_gt 0.046
_symmetry_cell_setting monoclinic
_symmetry_space_group_name_H-M 'P 21/n'
_symmetry_Int_Tables_number 14
loop_
_symmetry_equiv_pos_site_id
_symmetry_equiv_pos_as_xyz
1 x,y,z
2 1/2-x,1/2+y,1/2-z
3 -x,-y,-z
4 -1/2+x,-1/2-y,-1/2+z
_cell_length_a 11.8416(4)
_cell_length_b 6.0888(2)
_cell_length_c 21.1714(7)
_cell_angle_alpha 90
_cell_angle_beta 105.700(2)
_cell_angle_gamma 90
_cell_formula_units_Z 4
loop_
_atom_type_symbol
_atom_type_radius_bond
C 0.68
H 0.23
N 0.68
O 0.68
loop_
_atom_site_label
_atom_site_type_symbol
_atom_site_fract_x
_atom_site_fract_y
_atom_site_fract_z
N1 N 1.19520(8) 0.17122(16) 0.18509(4)
N2 N 1.01088(10) 0.80900(16) 0.07530(5)
N3 N 0.90686(8) 0.24346(16) 0.20132(4)
N4 N 0.94711(9) 0.09215(18) 0.24961(5)
O1 O 1.26975(8) 0.04347(19) 0.21651(5)
O2 O 1.21153(7) 0.29227(15) 0.14200(4)
C1 C 0.98759(8) 0.30104(16) 0.17002(5)
C2 C 1.08598(9) 0.17857(17) 0.20068(5)
C3 C 1.05646(10) 0.0529(2) 0.24929(5)
H1 H 1.10780 -0.04630 0.27790
C4 C 0.96361(9) 0.46208(16) 0.11623(5)
C5 C 1.02941(10) 0.65445(17) 0.12160(5)
H2 H 1.09100 0.67670 0.16050
C6 C 0.92415(11) 0.77319(19) 0.02059(6)
H3 H 0.90990 0.88130 -0.01300
C7 C 0.85447(10) 0.5876(2) 0.01048(5)
H4 H 0.79390 0.56940 -0.02910
C8 C 0.87438(9) 0.42859(18) 0.05901(5)
H5 H 0.82800 0.29910 0.05330
C9 C 0.78662(9) 0.32013(19) 0.19036(5)
H6 H 0.77770 0.46090 0.16610
H7 H 0.77150 0.34880 0.23340
C10 C 0.69577(9) 0.15977(18) 0.15241(5)
C11 C 0.72227(10) -0.03064(19) 0.12342(6)
H8 H 0.80170 -0.06610 0.12660
C12 C 0.63322(11) -0.1699(2) 0.08971(6)
H9 H 0.65290 -0.29900 0.06980
C13 C 0.51642(10) -0.1245(2) 0.08450(6)
C14 C 0.49081(11) 0.0670(3) 0.11279(8)
H10 H 0.41130 0.10280 0.10940
C15 C 0.57873(11) 0.2076(3) 0.14601(8)
H11 H 0.55860 0.33880 0.16470
C16 C 0.41991(13) -0.2759(3) 0.04814(9)
H12 H 0.35000 -0.25290 0.06370
H13 H 0.44590 -0.42870 0.05610
H14 H 0.40100 -0.24460 0.00100
#END
