
#######################################################################
#
#                 Cambridge Crystallographic Data Centre
#                                CCDC
#
#######################################################################
#
# If this CIF has been generated from an entry in the Cambridge
# Structural Database, then it will include bibliographic, chemical,
# crystal, experimental, refinement or atomic coordinate data resulting
# from the CCDC's data processing and validation procedures.
#
#######################################################################

data_CSD_CIF_YOFVUM
_audit_creation_date 2014-04-04
_audit_creation_method CSD-ConQuest-V1
_database_code_CSD YOFVUM
_database_code_depnum_ccdc_archive 'CCDC 905033'
_chemical_formula_sum 'C23 H35 N2 O4'
_chemical_formula_moiety
;
C23 H35 N2 O4
;
_journal_coden_Cambridge 371
_journal_year 2013
_journal_page_first 217
_journal_name_full 'Khim.Prir.Soedin(Russ.)(Chem.Nat.Compd.) '
loop_
_publ_author_name
"Yu.V.Yushkova"
"E.I.Chernyak"
"Yu.V.Polienko"
"Yu.V.Gatilov"
"S.V.Morozov"
"I.A.Grigorev"
_chemical_name_systematic
;
6-hydroxy-N-(1-oxyl-2,2,6,6-tetramethylpiperidin-4-yl)-2,5,7,8-tetramethylchro
mane-2-carboxamide
;
_chemical_melting_point 339
_cell_volume   2162.596
_exptl_crystal_colour 'yellow'
_exptl_crystal_density_diffrn 1.239
_exptl_crystal_description 'plate'
_exptl_crystal_preparation 'ethyl acetate/hexane'
_diffrn_ambient_temperature 200
#These two values have been output from a single CSD field.
_refine_ls_R_factor_gt 0.055
_refine_ls_wR_factor_gt 0.055
_symmetry_cell_setting monoclinic
_symmetry_space_group_name_H-M 'P 21/c'
_symmetry_Int_Tables_number 14
loop_
_symmetry_equiv_pos_site_id
_symmetry_equiv_pos_as_xyz
1 x,y,z
2 -x,1/2+y,1/2-z
3 -x,-y,-z
4 x,-1/2-y,-1/2+z
_cell_length_a 5.8779(3)
_cell_length_b 27.561(2)
_cell_length_c 13.6359(10)
_cell_angle_alpha 90
_cell_angle_beta 101.768(3)
_cell_angle_gamma 90
_cell_formula_units_Z 4
loop_
_atom_type_symbol
_atom_type_radius_bond
C 0.68
H 0.23
N 0.68
O 0.68
loop_
_atom_site_label
_atom_site_type_symbol
_atom_site_fract_x
_atom_site_fract_y
_atom_site_fract_z
O1 O 0.1281(2) 0.49690(5) 0.22154(10)
C1 C 0.2725(3) 0.50280(8) 0.31924(15)
C2 C 0.5208(4) 0.49231(8) 0.31516(18)
H1 H 0.62160 0.49890 0.38140
H2 H 0.57060 0.51380 0.26530
C3 C 0.5464(3) 0.43915(8) 0.28630(17)
H3 H 0.69690 0.43470 0.26550
H4 H 0.54650 0.41820 0.34530
C4 C 0.3682(3) 0.38045(7) 0.14971(15)
C5 C 0.1886(4) 0.36840(7) 0.06989(15)
C6 C -0.0045(4) 0.39835(8) 0.03989(14)
C7 C -0.0218(3) 0.44159(7) 0.09172(14)
C8 C 0.1566(3) 0.45332(7) 0.17298(14)
C9 C 0.3512(3) 0.42385(7) 0.20187(14)
C10 C 0.1785(4) 0.46952(8) 0.39339(16)
H5 H 0.02960 0.48220 0.40400
H6 H 0.29010 0.46860 0.45740
H7 H 0.15610 0.43670 0.36570
C11 C 0.5794(4) 0.34842(8) 0.18119(17)
H8 H 0.56790 0.32040 0.13610
H9 H 0.58740 0.33710 0.24990
H10 H 0.72000 0.36700 0.17790
C12 C -0.1960(4) 0.38365(9) -0.04646(17)
H11 H -0.19840 0.40580 -0.10280
H12 H -0.34580 0.38510 -0.02550
H13 H -0.16830 0.35050 -0.06710
C13 C -0.2265(4) 0.47517(8) 0.06041(16)
H14 H -0.24500 0.48280 -0.01100
H15 H -0.19980 0.50520 0.09960
H16 H -0.36770 0.45930 0.07220
O2 O 0.1956(3) 0.32665(6) 0.01384(12)
H17 H 0.275(5) 0.3040(12) 0.051(2)
C14 C 0.2460(3) 0.55512(7) 0.35290(16)
N1 N 0.0641(3) 0.58012(6) 0.30357(14)
H18 H -0.014(4) 0.5663(9) 0.2506(19)
C15 C 0.0077(3) 0.62891(7) 0.33510(15)
H19 H 0.14930 0.64990 0.34440
C16 C -0.1818(4) 0.65049(8) 0.25478(15)
H20 H -0.31980 0.62910 0.24530
H21 H -0.12700 0.65130 0.19080
C17 C -0.2539(3) 0.70180(7) 0.27892(15)
N2 N -0.2926(3) 0.70291(6) 0.38395(12)
C18 C -0.1455(3) 0.67632(7) 0.46961(14)
C19 C -0.0801(3) 0.62662(7) 0.43275(15)
H22 H 0.04190 0.61190 0.48510
H23 H -0.21800 0.60520 0.42310
O3 O -0.4098(3) 0.73935(5) 0.40660(11)
C20 C -0.0700(4) 0.73989(8) 0.26835(18)
H24 H -0.11970 0.77180 0.28790
H25 H -0.05140 0.74100 0.19860
H26 H 0.07860 0.73120 0.31190
C21 C -0.4825(4) 0.71424(8) 0.20858(17)
H27 H -0.60260 0.69120 0.21880
H28 H -0.46260 0.71230 0.13910
H29 H -0.52950 0.74720 0.22260
C22 C 0.0700(4) 0.70688(8) 0.51320(16)
H30 H 0.17460 0.70750 0.46570
H31 H 0.15090 0.69250 0.57650
H32 H 0.02210 0.74000 0.52520
C23 C -0.2912(4) 0.66885(8) 0.54947(16)
H33 H -0.34000 0.70040 0.57090
H34 H -0.19810 0.65190 0.60710
H35 H -0.42870 0.64940 0.52150
O4 O 0.3820(3) 0.57148(6) 0.42554(13)
#END
