
#######################################################################
#
#                 Cambridge Crystallographic Data Centre
#                                CCDC
#
#######################################################################
#
# If this CIF has been generated from an entry in the Cambridge
# Structural Database, then it will include bibliographic, chemical,
# crystal, experimental, refinement or atomic coordinate data resulting
# from the CCDC's data processing and validation procedures.
#
#######################################################################

data_CSD_CIF_YOHBIH
_audit_creation_date 2009-02-13
_audit_creation_method CSD-ConQuest-V1
_database_code_CSD YOHBIH
_database_code_depnum_ccdc_archive 'CCDC 703914'
_chemical_formula_sum 'C25 H23 N1 O6'
_chemical_formula_moiety
;
C25 H23 N1 O6
;
_journal_coden_Cambridge 35
_journal_volume 73
_journal_year 2008
_journal_page_first 6268
_journal_name_full 'J.Org.Chem. '
loop_
_publ_author_name
"S.R.Angle"
"Inchang Choi"
"F.S.Tham"
_chemical_name_systematic
;
(2R*,3R*,4S*,5R*)-(4-Nitrobenzoic 
acid)-2-(4-methoxyphenyl)-3-methyl-5-phenyltetrahydrofuran-4-yl ester
;
_chemical_melting_point 400.15
_cell_volume   1083.264
_exptl_crystal_colour 'colorless'
_exptl_crystal_density_diffrn 1.329
_exptl_special_details
;
Melting point range 400.15-402.15K

;
_exptl_crystal_description 'prism'
_diffrn_ambient_temperature 233
#These two values have been output from a single CSD field.
_refine_ls_R_factor_gt 0.0426
_refine_ls_wR_factor_gt 0.0426
_symmetry_cell_setting triclinic
_symmetry_space_group_name_H-M 'P -1'
_symmetry_Int_Tables_number 2
loop_
_symmetry_equiv_pos_site_id
_symmetry_equiv_pos_as_xyz
1 x,y,z
2 -x,-y,-z
_cell_length_a 9.8258(17)
_cell_length_b 10.8177(19)
_cell_length_c 11.603(2)
_cell_angle_alpha 65.954(5)
_cell_angle_beta 74.125(6)
_cell_angle_gamma 83.048(5)
_cell_formula_units_Z 2
loop_
_atom_type_symbol
_atom_type_radius_bond
C 0.68
H 0.23
N 0.68
O 0.68
loop_
_atom_site_label
_atom_site_type_symbol
_atom_site_fract_x
_atom_site_fract_y
_atom_site_fract_z
O1 O 0.33898(10) 0.76071(9) 0.21499(10)
C1 C 0.43813(12) 0.65244(12) 0.25250(12)
H1 H 0.51380 0.65820 0.17410
C2 C 0.50373(12) 0.68035(12) 0.34664(12)
H2 H 0.49250 0.60220 0.43140
C3 C 0.42391(13) 0.80444(12) 0.36160(12)
H3 H 0.33710 0.77230 0.43260
C4 C 0.37853(13) 0.87324(12) 0.23433(12)
H4 H 0.46040 0.91980 0.16300
C5 C 0.50182(16) 0.89354(15) 0.39505(15)
H5 H 0.58560 0.92990 0.32540
H6 H 0.52930 0.84020 0.47560
H7 H 0.44020 0.96740 0.40540
C6 C 0.25439(13) 0.96916(12) 0.23287(12)
C7 C 0.26259(15) 1.09964(13) 0.13859(13)
H8 H 0.34850 1.12990 0.07610
C8 C 0.14665(17) 1.18626(13) 0.13468(14)
H9 H 0.15460 1.27460 0.07000
C9 C 0.01980(15) 1.14394(13) 0.22493(13)
C10 C 0.00926(15) 1.01422(14) 0.31948(15)
H10 H -0.07690 0.98400 0.38160
C11 C 0.12652(15) 0.92880(14) 0.32233(15)
H11 H 0.11850 0.84070 0.38730
C12 C 0.36274(13) 0.52081(12) 0.30443(13)
C13 C 0.23962(16) 0.49450(16) 0.40204(15)
H12 H 0.20380 0.55760 0.43980
C14 C 0.16875(19) 0.37471(19) 0.44428(17)
H13 H 0.08510 0.35650 0.51120
C15 C 0.2200(2) 0.28189(17) 0.38889(18)
H14 H 0.17030 0.20170 0.41680
C16 C 0.3427(2) 0.30663(16) 0.29374(19)
H15 H 0.37860 0.24270 0.25700
C17 C 0.41439(16) 0.42558(14) 0.25121(15)
H16 H 0.49910 0.44210 0.18550
O2 O -0.08927(12) 1.23617(10) 0.21380(11)
C18 C -0.22051(17) 1.19571(17) 0.30557(18)
H17 H -0.25580 1.11950 0.29910
H18 H -0.28770 1.27040 0.28810
H19 H -0.20810 1.16950 0.39260
O3 O 0.70184(10) 0.49587(9) 0.32770(11)
O4 O 0.65116(9) 0.71544(8) 0.28496(9)
C19 C 0.73875(13) 0.61187(12) 0.28010(13)
C20 C 0.88512(13) 0.65785(12) 0.20619(13)
C21 C 0.98228(14) 0.56416(14) 0.17641(15)
H20 H 0.95590 0.47350 0.20680
C22 C 1.11730(15) 0.60401(15) 0.10241(15)
H21 H 1.18420 0.54170 0.08150
C23 C 1.15123(13) 0.73753(14) 0.06009(12)
C24 C 1.05876(14) 0.83202(13) 0.09039(14)
H22 H 1.08690 0.92190 0.06160
C25 C 0.92365(13) 0.79148(13) 0.16418(14)
H23 H 0.85790 0.85400 0.18600
N1 N 1.29314(13) 0.78243(14) -0.02197(12)
O5 O 1.38140(12) 0.69619(14) -0.03446(13)
O6 O 1.31520(13) 0.90391(13) -0.07413(12)
#END
