
#######################################################################
#
#                 Cambridge Crystallographic Data Centre
#                                CCDC
#
#######################################################################
#
# If this CIF has been generated from an entry in the Cambridge
# Structural Database, then it will include bibliographic, chemical,
# crystal, experimental, refinement or atomic coordinate data resulting
# from the CCDC's data processing and validation procedures.
#
#######################################################################

data_CSD_CIF_YOHCII
_audit_creation_date 2009-02-13
_audit_creation_method CSD-ConQuest-V1
_database_code_CSD YOHCII
_database_code_depnum_ccdc_archive 'CCDC 703919'
_chemical_formula_sum 'C22 H23 N1 O5'
_chemical_formula_moiety
;
C22 H23 N1 O5
;
_journal_coden_Cambridge 35
_journal_volume 73
_journal_year 2008
_journal_page_first 6312
_journal_name_full 'J.Org.Chem. '
loop_
_publ_author_name
"S.Tanaka"
"N.Tagashira"
"K.Chiba"
"M.Yasuda"
"A.Baba"
_chemical_name_systematic
;
3,3-dimethoxy-2-methyl-2-(naphthalen-2-yl)-1-(4-nitrophenyl)propan-1-ol
;
_cell_volume    996.530
_exptl_crystal_colour 'colorless'
_exptl_crystal_density_diffrn 1.271
_exptl_crystal_description 'prismatic'
_diffrn_ambient_temperature 296.1
#These two values have been output from a single CSD field.
_refine_ls_R_factor_gt 0.0528
_refine_ls_wR_factor_gt 0.0528
_symmetry_cell_setting triclinic
_symmetry_space_group_name_H-M 'P -1'
_symmetry_Int_Tables_number 2
loop_
_symmetry_equiv_pos_site_id
_symmetry_equiv_pos_as_xyz
1 x,y,z
2 -x,-y,-z
_cell_length_a 10.3715(15)
_cell_length_b 14.020(2)
_cell_length_c 7.6066(12)
_cell_angle_alpha 102.699(13)
_cell_angle_beta 97.108(14)
_cell_angle_gamma 109.078(12)
_cell_formula_units_Z 2
loop_
_atom_type_symbol
_atom_type_radius_bond
C 0.68
H 0.23
N 0.68
O 0.68
loop_
_atom_site_label
_atom_site_type_symbol
_atom_site_fract_x
_atom_site_fract_y
_atom_site_fract_z
O1 O 1.00215(18) 0.06065(14) 0.1716(2)
O2 O 1.38113(17) 0.33613(14) 0.2973(2)
O3 O 1.25288(17) 0.16760(14) 0.1132(2)
O4 O 0.6066(2) 0.1046(2) 0.8574(4)
O5 O 0.4970(2) 0.1272(2) 0.6181(3)
N1 N 0.5987(2) 0.1179(2) 0.7035(4)
C1 C 1.0618(2) 0.13074(18) 0.3531(2)
C2 C 1.1562(2) 0.24297(17) 0.3505(2)
C3 C 1.2916(2) 0.23542(19) 0.2942(2)
C4 C 0.9396(2) 0.12897(17) 0.4459(3)
C5 C 0.9491(2) 0.12558(19) 0.6283(3)
C6 C 0.8376(2) 0.1212(2) 0.7129(3)
C7 C 0.7186(2) 0.12297(19) 0.6150(3)
C8 C 0.7051(2) 0.1263(2) 0.4351(4)
C9 C 0.8163(2) 0.1282(2) 0.3498(3)
C10 C 1.0832(2) 0.2825(2) 0.2100(2)
C11 C 1.1956(2) 0.31681(16) 0.5464(2)
C12 C 1.2833(2) 0.30304(19) 0.6893(2)
C13 C 1.3189(2) 0.36794(19) 0.8651(3)
C14 C 1.2690(2) 0.45029(17) 0.9112(2)
C15 C 1.3043(2) 0.5193(2) 1.0912(3)
C16 C 1.2526(3) 0.5963(2) 1.1307(3)
C17 C 1.1633(4) 0.6093(2) 0.9929(4)
C18 C 1.1279(4) 0.5453(2) 0.8184(4)
C19 C 1.1799(2) 0.46388(18) 0.7719(3)
C20 C 1.1460(2) 0.39580(18) 0.5909(3)
C21 C 1.5229(3) 0.3667(2) 0.3775(4)
C22 C 1.3590(3) 0.1360(2) 0.0472(4)
H1 H 1.12750 0.09910 0.43670
H2 H 1.03470 0.11830 0.69480
H3 H 0.83730 0.11590 0.84550
H4 H 0.61930 0.13500 0.37050
H5 H 0.80410 0.12290 0.20800
H6 H 1.14310 0.35490 0.21620
H7 H 0.99310 0.28390 0.24820
H8 H 1.06510 0.23390 0.08120
H9 H 1.33470 0.24830 0.66300
H10 H 1.38280 0.35330 0.96490
H11 H 1.36840 0.50650 1.17770
H12 H 1.26440 0.63650 1.25830
H13 H 1.11940 0.66710 1.02650
H14 H 1.05860 0.54940 0.71120
H15 H 1.08180 0.41170 0.49210
H16 H 1.34240 0.20230 0.38590
H17 H 1.53920 0.40020 0.50540
H18 H 1.57750 0.41410 0.31940
H19 H 1.54810 0.30650 0.36140
H20 H 1.38840 0.10000 0.15190
H21 H 1.43740 0.19700 0.04190
H22 H 1.32240 0.08400 -0.07710
H23 H 1.08890 0.07530 0.12520
#END
