
#######################################################################
#
#                 Cambridge Crystallographic Data Centre
#                                CCDC
#
#######################################################################
#
# If this CIF has been generated from an entry in the Cambridge
# Structural Database, then it will include bibliographic, chemical,
# crystal, experimental, refinement or atomic coordinate data resulting
# from the CCDC's data processing and validation procedures.
#
#######################################################################

data_CSD_CIF_YOHLIS
_audit_creation_date 2014-08-22
_audit_creation_method CSD-ConQuest-V1
_database_code_CSD YOHLIS
_database_code_depnum_ccdc_archive 'CCDC 1020026'
_chemical_formula_sum 'C17 H14 N2 O6'
_chemical_formula_moiety
;
C17 H14 N2 O6
;
_journal_coeditor_code "hg5406"
_journal_coden_Cambridge 1370
_journal_volume 70
_journal_year 2014
_journal_page_first o1051
_journal_name_full 'Acta Crystallogr.,Sect.E:Struct.Rep.Online '
loop_
_publ_author_name
"I.Caracelli"
"S.H.Maganhi"
"P.J.S.Moran"
"B.R.S.de Paula"
"F.N.Delling"
"E.R.T.Tiekink"
_chemical_name_systematic
;
(3E)-3-(2,4-dinitrophenoxymethyl)-4-phenylbut-3-en-2-one
;
_cell_volume   1624.821
_exptl_crystal_colour 'colorless'
_exptl_crystal_density_diffrn 1.399
_exptl_crystal_description 'irregular'
_diffrn_ambient_temperature 290
#These two values have been output from a single CSD field.
_refine_ls_R_factor_gt 0.0367
_refine_ls_wR_factor_gt 0.0367
_symmetry_cell_setting monoclinic
_symmetry_space_group_name_H-M 'P 21/c'
_symmetry_Int_Tables_number 14
loop_
_symmetry_equiv_pos_site_id
_symmetry_equiv_pos_as_xyz
1 x,y,z
2 -x,1/2+y,1/2-z
3 -x,-y,-z
4 x,-1/2-y,-1/2+z
_cell_length_a 12.8459(6)
_cell_length_b 7.6983(4)
_cell_length_c 19.4283(8)
_cell_angle_alpha 90
_cell_angle_beta 122.254(2)
_cell_angle_gamma 90
_cell_formula_units_Z 4
loop_
_atom_type_symbol
_atom_type_radius_bond
C 0.68
H 0.23
N 0.68
O 0.68
loop_
_atom_site_label
_atom_site_type_symbol
_atom_site_fract_x
_atom_site_fract_y
_atom_site_fract_z
C1 C 0.93401(11) 0.15407(17) 0.37127(8)
C2 C 0.99377(11) 0.00425(16) 0.36899(7)
C3 C 1.08837(11) 0.01022(18) 0.35523(8)
H1 H 1.12390 -0.09120 0.35100
C4 C 1.12866(12) 0.17061(19) 0.34788(8)
C5 C 1.07599(14) 0.3221(2) 0.35327(9)
H2 H 1.10620 0.42920 0.34960
C6 C 0.97836(14) 0.31403(18) 0.3641(1)
H3 H 0.94180 0.41610 0.36660
C7 C 0.76361(13) 0.28733(18) 0.36901(10)
H4 H 0.73310 0.34220 0.31670
H5 H 0.81400 0.37050 0.41150
C8 C 0.65850(12) 0.22873(19) 0.37591(9)
C9 C 0.68382(13) 0.2244(2) 0.46004(9)
C10 C 0.58981(16) 0.1491(3) 0.47503(11)
H6 H 0.62290 0.14580 0.53250
H7 H 0.56940 0.03340 0.45340
H8 H 0.51710 0.21990 0.44880
C11 C 0.54588(13) 0.18897(19) 0.31208(9)
H9 H 0.48770 0.16280 0.32510
C12 C 0.50092(13) 0.18058(18) 0.22527(9)
C13 C 0.57329(14) 0.1286(2) 0.19522(9)
H10 H 0.65570 0.10120 0.23120
C14 C 0.52360(15) 0.1174(2) 0.11257(10)
H11 H 0.57290 0.08300 0.09330
C15 C 0.40169(16) 0.1568(2) 0.05828(10)
H12 H 0.36900 0.14960 0.00260
C16 C 0.32823(15) 0.2069(2) 0.08653(10)
H13 H 0.24580 0.23370 0.05000
C17 C 0.37725(14) 0.2172(2) 0.16927(10)
H14 H 0.32680 0.24920 0.18800
N1 N 1.22919(11) 0.1784(2) 0.33327(8)
N2 N 0.95589(10) -0.16711(15) 0.38003(7)
O1 O 0.83551(8) 0.13359(12) 0.37729(6)
O2 O 0.78088(11) 0.27977(19) 0.51669(7)
O3 O 1.26869(11) 0.0420(2) 0.32347(8)
O4 O 1.26880(12) 0.32170(19) 0.33128(9)
O5 O 0.95090(13) -0.28306(15) 0.33557(8)
O6 O 0.93475(11) -0.18635(15) 0.43354(8)
#END
