
#######################################################################
#
#                 Cambridge Crystallographic Data Centre
#                                CCDC
#
#######################################################################
#
# If this CIF has been generated from an entry in the Cambridge
# Structural Database, then it will include bibliographic, chemical,
# crystal, experimental, refinement or atomic coordinate data resulting
# from the CCDC's data processing and validation procedures.
#
#######################################################################

data_CSD_CIF_YOJNUI
_audit_creation_date 2014-08-25
_audit_creation_method CSD-ConQuest-V1
_database_code_CSD YOJNUI
_database_code_depnum_ccdc_archive 'CCDC 885491'
_chemical_formula_sum 'C31 H37 N3 O3'
_chemical_formula_moiety
;
C31 H37 N3 O3
;
_journal_coden_Cambridge 1137
_journal_volume 25
_journal_year 2012
_journal_page_first 1027
_journal_name_full 'J.Phys.Org.Chem. '
loop_
_publ_author_name
"Young-Gi Lee"
"J.P.Moerdyk"
"C.W.Bielawski"
_chemical_name_systematic
;
N-((2,6-dimethoxyphenyl)(1-mesityl-1,4,5,6-tetrahydropyrimidin-2-yl)methylene)
-N-mesitylamine oxide
;
_cell_volume   5429.054
_exptl_crystal_colour 'colorless'
_exptl_crystal_density_diffrn 1.223
_exptl_crystal_description 'block'
_diffrn_ambient_temperature 120
#These two values have been output from a single CSD field.
_refine_ls_R_factor_gt 0.0548
_refine_ls_wR_factor_gt 0.0548
_symmetry_cell_setting monoclinic
_symmetry_space_group_name_H-M 'I 2/a'
_symmetry_Int_Tables_number 15
loop_
_symmetry_equiv_pos_site_id
_symmetry_equiv_pos_as_xyz
1 x,y,z
2 1/2-x,y,-z
3 1/2+x,1/2+y,1/2+z
4 -x,1/2+y,1/2-z
5 -x,-y,-z
6 -1/2+x,-y,z
7 -1/2-x,-1/2-y,-1/2-z
8 x,-1/2-y,-1/2+z
_cell_length_a 16.714(6)
_cell_length_b 18.866(6)
_cell_length_c 18.125(5)
_cell_angle_alpha 90
_cell_angle_beta 108.21(2)
_cell_angle_gamma 90
_cell_formula_units_Z 8
loop_
_atom_type_symbol
_atom_type_radius_bond
C 0.68
H 0.23
N 0.68
O 0.68
loop_
_atom_site_label
_atom_site_type_symbol
_atom_site_fract_x
_atom_site_fract_y
_atom_site_fract_z
O1 O 0.94959(8) 0.33134(6) 0.00103(7)
N1 N 1.02384(10) 0.32279(8) 0.27499(8)
C1 C 1.00367(11) 0.28106(9) 0.20773(10)
O2 O 0.81596(8) 0.30634(7) 0.14403(8)
N2 N 1.00243(10) 0.21245(8) 0.20590(8)
C2 C 1.03352(16) 0.28835(10) 0.35053(11)
H1 H 1.00300 0.31540 0.37860
H2 H 1.09260 0.28820 0.38120
O3 O 1.02199(8) 0.45666(6) 0.10527(7)
N3 N 0.98241(9) 0.29875(7) 0.06717(8)
C3 C 1.00128(18) 0.21397(11) 0.34048(13)
H3 H 0.94020 0.21430 0.32340
H4 H 1.02070 0.18920 0.38980
C4 C 1.03195(15) 0.17623(10) 0.28167(11)
H5 H 1.09300 0.17480 0.29950
H6 H 1.01140 0.12780 0.27600
C5 C 1.06774(12) 0.38967(9) 0.28126(10)
C6 C 1.14888(12) 0.39125(9) 0.27364(10)
C7 C 1.19169(12) 0.45622(10) 0.28336(10)
H7 H 1.24410 0.45820 0.27570
C8 C 1.15806(12) 0.51797(9) 0.30411(10)
C9 C 1.07877(12) 0.51432(9) 0.3141(1)
H8 H 1.05610 0.55490 0.32880
C10 C 1.03205(12) 0.45110(9) 0.30257(10)
C11 C 0.94664(13) 0.45039(10) 0.31424(11)
H9 H 0.91200 0.41500 0.28140
H10 H 0.92070 0.49600 0.30130
H11 H 0.95290 0.43970 0.36750
C12 C 1.20725(13) 0.5872(1) 0.31780(13)
H12 H 1.16900 0.62620 0.30110
H13 H 1.24650 0.58690 0.28880
H14 H 1.23730 0.59210 0.37210
C13 C 1.19203(13) 0.3240(1) 0.26006(12)
H15 H 1.15810 0.30150 0.21320
H16 H 1.19920 0.29230 0.30310
H17 H 1.24610 0.33560 0.25520
C14 C 1.02840(11) 0.23437(9) 0.0590(1)
C15 C 1.11110(12) 0.24005(10) 0.05875(10)
C16 C 1.15212(12) 0.17668(10) 0.05049(10)
H18 H 1.20820 0.17850 0.05190
C17 C 1.11121(13) 0.11133(10) 0.04028(10)
C18 C 1.02646(12) 0.10961(9) 0.03612(10)
H19 H 0.99840 0.06640 0.02770
C19 C 0.98234(12) 0.17023(9) 0.04417(10)
C20 C 0.89021(12) 0.16830(9) 0.03604(11)
H20 H 0.87040 0.12030 0.02820
H21 H 0.85960 0.19660 -0.00770
H22 H 0.88170 0.18680 0.08240
C21 C 1.15591(14) 0.04339(11) 0.03075(12)
H23 H 1.21570 0.05000 0.05160
H24 H 1.14130 0.03170 -0.02340
H25 H 1.13900 0.00560 0.05800
C22 C 1.15472(13) 0.31115(11) 0.06170(12)
H26 H 1.12580 0.34650 0.08180
H27 H 1.15400 0.32430 0.01030
H28 H 1.21200 0.30760 0.09480
C23 C 0.97235(11) 0.32145(9) 0.13272(10)
C24 C 0.91723(11) 0.38478(9) 0.12612(10)
C25 C 0.94266(12) 0.45288(9) 0.11073(10)
C26 C 0.88766(13) 0.51081(10) 0.10210(11)
H29 H 0.90460 0.55610 0.09320
C27 C 0.80773(14) 0.49908(11) 0.10718(13)
H30 H 0.77100 0.53730 0.10080
C28 C 0.78036(14) 0.43236(11) 0.12144(13)
H31 H 0.72640 0.42590 0.12480
C29 C 0.83605(12) 0.37509(10) 0.13066(11)
C30 C 0.73141(13) 0.29243(12) 0.14234(13)
H32 H 0.72460 0.24260 0.14910
H33 H 0.69320 0.30730 0.09330
H34 H 0.71960 0.31810 0.18350
C31 C 1.05348(14) 0.52534(10) 0.09351(12)
H35 H 1.10710 0.52010 0.08510
H36 H 1.05980 0.55420 0.13860
H37 H 1.01450 0.54750 0.04900
#END
