
#######################################################################
#
#                 Cambridge Crystallographic Data Centre
#                                CCDC
#
#######################################################################
#
# If this CIF has been generated from an entry in the Cambridge
# Structural Database, then it will include bibliographic, chemical,
# crystal, experimental, refinement or atomic coordinate data resulting
# from the CCDC's data processing and validation procedures.
#
#######################################################################

data_CSD_CIF_YOJPUK
_audit_creation_date 2014-08-25
_audit_creation_method CSD-ConQuest-V1
_database_code_CSD YOJPUK
_database_code_depnum_ccdc_archive 'CCDC 877777'
_chemical_formula_sum 'C33 H37 N3 O5'
_chemical_formula_moiety
;
C33 H37 N3 O5
;
_journal_coden_Cambridge 1137
_journal_volume 25
_journal_year 2012
_journal_page_first 1027
_journal_name_full 'J.Phys.Org.Chem. '
loop_
_publ_author_name
"Young-Gi Lee"
"J.P.Moerdyk"
"C.W.Bielawski"
_chemical_name_systematic
;
2-((2,6-dimethoxyphenyl)(nitroso)methylene)-1,3-dimesityl-5,5-dimethyldihydrop
yrimidine-4,6(1H,5H)-dione
;
_cell_volume   2896.442
_exptl_crystal_colour 'green'
_exptl_crystal_density_diffrn 1.274
_exptl_crystal_description 'plate'
_diffrn_ambient_temperature 120
#These two values have been output from a single CSD field.
_refine_ls_R_factor_gt 0.0289
_refine_ls_wR_factor_gt 0.0289
_symmetry_cell_setting orthorhombic
_symmetry_space_group_name_H-M 'P c a 21'
_symmetry_Int_Tables_number 29
loop_
_symmetry_equiv_pos_site_id
_symmetry_equiv_pos_as_xyz
1 x,y,z
2 -x,-y,1/2+z
3 1/2-x,y,1/2+z
4 1/2+x,-y,z
_cell_length_a 22.451(2)
_cell_length_b 8.3546(8)
_cell_length_c 15.4420(14)
_cell_angle_alpha 90
_cell_angle_beta 90
_cell_angle_gamma 90
_cell_formula_units_Z 4
loop_
_atom_type_symbol
_atom_type_radius_bond
C 0.68
H 0.23
N 0.68
O 0.68
loop_
_atom_site_label
_atom_site_type_symbol
_atom_site_fract_x
_atom_site_fract_y
_atom_site_fract_z
O1 O 0.44457(5) 0.02441(13) 0.88645(7)
N1 N 0.46404(5) 0.21648(14) 0.78679(8)
C1 C 0.44427(6) 0.34166(17) 0.73381(10)
O2 O 0.29240(4) 0.34416(14) 0.79763(8)
C2 C 0.34535(6) 0.31713(18) 0.80053(10)
N2 N 0.38254(5) 0.36918(14) 0.73331(8)
O3 O 0.49815(5) 0.60655(13) 0.57978(8)
N3 N 0.46221(5) 0.51338(16) 0.61409(8)
C3 C 0.37412(6) 0.23881(18) 0.87757(10)
O4 O 0.52189(5) 0.58440(13) 0.83240(7)
C4 C 0.42941(6) 0.14813(18) 0.85173(10)
O5 O 0.57029(4) 0.31208(12) 0.57835(6)
C5 C 0.32959(7) 0.1277(2) 0.92208(12)
H1 H 0.31990 0.04070 0.88400
H2 H 0.29410 0.18640 0.93580
H3 H 0.34680 0.08630 0.97440
C6 C 0.39357(7) 0.3725(2) 0.94041(11)
H4 H 0.42120 0.44230 0.91180
H5 H 0.41230 0.32570 0.99020
H6 H 0.35930 0.43270 0.95830
C7 C 0.51897(6) 0.13078(17) 0.76666(9)
C8 C 0.52066(7) 0.03391(17) 0.69304(10)
C9 C 0.57369(7) -0.04631(18) 0.67506(11)
H7 H 0.57550 -0.11290 0.62690
C10 C 0.62364(7) -0.03013(18) 0.72644(11)
C11 C 0.61875(7) 0.05944(19) 0.80157(10)
H8 H 0.65160 0.06700 0.83800
C12 C 0.56663(6) 0.13863(18) 0.82485(10)
C13 C 0.56228(7) 0.2235(2) 0.90985(10)
H9 H 0.60060 0.26550 0.92530
H10 H 0.54920 0.14980 0.95360
H11 H 0.53420 0.30980 0.90520
C14 C 0.68232(8) -0.1035(2) 0.70078(12)
H12 H 0.67540 -0.19180 0.66230
H13 H 0.70270 -0.14090 0.75160
H14 H 0.70630 -0.02460 0.67210
C15 C 0.46855(7) 0.0151(2) 0.63364(11)
H15 H 0.43230 0.02210 0.66640
H16 H 0.47060 -0.08730 0.60560
H17 H 0.46930 0.09830 0.59080
C16 C 0.35394(6) 0.47959(18) 0.67305(10)
C17 C 0.32848(6) 0.4188(2) 0.59797(10)
C18 C 0.30232(7) 0.5278(2) 0.54121(11)
H18 H 0.28530 0.49030 0.49020
C19 C 0.30087(6) 0.6907(2) 0.55869(12)
C20 C 0.32428(7) 0.7441(2) 0.63570(11)
H19 H 0.32220 0.85270 0.64860
C21 C 0.35089(7) 0.64150(19) 0.69493(11)
C22 C 0.37604(8) 0.70412(19) 0.77806(12)
H20 H 0.37190 0.81850 0.77960
H21 H 0.41740 0.67620 0.78190
H22 H 0.35490 0.65790 0.82590
C23 C 0.27440(8) 0.8083(2) 0.49511(14)
H23 H 0.26230 0.75260 0.44370
H24 H 0.30360 0.88770 0.48050
H25 H 0.24040 0.85940 0.52080
C24 C 0.32967(7) 0.2437(2) 0.57756(12)
H26 H 0.31430 0.18460 0.62590
H27 H 0.36990 0.21100 0.56630
H28 H 0.30560 0.22340 0.52740
C25 C 0.48458(6) 0.43056(18) 0.68571(9)
C26 C 0.54859(6) 0.44428(17) 0.70725(9)
C27 C 0.59203(7) 0.38671(17) 0.65007(10)
C28 C 0.65203(7) 0.40447(19) 0.66830(11)
H29 H 0.68070 0.36400 0.63070
C29 C 0.66874(7) 0.4831(2) 0.74313(12)
H30 H 0.70900 0.49430 0.75580
C30 C 0.62705(7) 0.5456(2) 0.79951(11)
H31 H 0.63910 0.59940 0.84930
C31 C 0.56682(6) 0.52694(18) 0.78087(10)
C32 C 0.53873(8) 0.6787(2) 0.90586(11)
H32 H 0.50360 0.71640 0.93490
H33 H 0.56200 0.76850 0.88700
H34 H 0.56180 0.61450 0.94500
C33 C 0.61239(7) 0.2277(2) 0.52684(10)
H35 H 0.59190 0.16950 0.48230
H36 H 0.63420 0.15420 0.56270
H37 H 0.63950 0.30230 0.50080
#END
