
#######################################################################
#
#                 Cambridge Crystallographic Data Centre
#                                CCDC
#
#######################################################################
#
# If this CIF has been generated from an entry in the Cambridge
# Structural Database, then it will include bibliographic, chemical,
# crystal, experimental, refinement or atomic coordinate data resulting
# from the CCDC's data processing and validation procedures.
#
#######################################################################

data_CSD_CIF_YOJQAR
_audit_creation_date 2014-08-25
_audit_creation_method CSD-ConQuest-V1
_database_code_CSD YOJQAR
_database_code_depnum_ccdc_archive 'CCDC 877776'
_chemical_formula_sum 'C38 H36 N6 O8'
_chemical_formula_moiety
;
C38 H36 N6 O8
;
_journal_coden_Cambridge 1137
_journal_volume 25
_journal_year 2012
_journal_page_first 1027
_journal_name_full 'J.Phys.Org.Chem. '
loop_
_publ_author_name
"Young-Gi Lee"
"J.P.Moerdyk"
"C.W.Bielawski"
_chemical_name_systematic
;
6,10-dimesityl-8,8-dimethyl-3-(3-nitrophenyl)-2-((3-nitrophenyl)imino)-1-oxa-3
,6,10-triazaspiro[4.5]decane-4,7,9-trione
;
_cell_volume   3563.858
_exptl_crystal_colour 'colorless'
_exptl_crystal_density_diffrn 1.313
_exptl_crystal_description 'needles'
_diffrn_ambient_temperature 150
#These two values have been output from a single CSD field.
_refine_ls_R_factor_gt 0.0479
_refine_ls_wR_factor_gt 0.0479
_symmetry_cell_setting monoclinic
_symmetry_space_group_name_H-M 'P 21/c'
_symmetry_Int_Tables_number 14
loop_
_symmetry_equiv_pos_site_id
_symmetry_equiv_pos_as_xyz
1 x,y,z
2 -x,1/2+y,1/2-z
3 -x,-y,-z
4 x,-1/2-y,-1/2+z
_cell_length_a 12.8201(19)
_cell_length_b 12.922(2)
_cell_length_c 21.701(3)
_cell_angle_alpha 90
_cell_angle_beta 97.549(3)
_cell_angle_gamma 90
_cell_formula_units_Z 4
loop_
_atom_type_symbol
_atom_type_radius_bond
C 0.68
H 0.23
N 0.68
O 0.68
loop_
_atom_site_label
_atom_site_type_symbol
_atom_site_fract_x
_atom_site_fract_y
_atom_site_fract_z
O1 O 0.71856(11) -0.10578(12) -0.05292(6)
N1 N 0.75204(12) -0.08867(12) 0.05151(7)
C1 C 0.80592(15) -0.12284(15) 0.11006(9)
O2 O 0.99906(11) -0.28246(12) 0.05268(7)
N2 N 0.90368(12) -0.17446(13) 0.10486(7)
C2 C 0.76183(15) -0.13846(16) -0.00376(9)
O3 O 0.87164(11) 0.04565(11) 0.15076(6)
N3 N 0.77332(13) -0.05955(12) 0.20625(7)
C3 C 0.82894(16) -0.23659(16) 0.00032(9)
O4 O 0.73766(10) -0.19245(10) 0.14112(6)
N4 N 0.68136(13) -0.19996(13) 0.23996(8)
C4 C 0.91858(16) -0.23366(15) 0.05380(9)
O5 O 0.62384(15) 0.27933(13) 0.25701(10)
N5 N 0.67677(16) 0.25630(15) 0.30624(11)
C5 C 0.8734(2) -0.2527(2) -0.06094(10)
H1 H 0.91300 -0.19270 -0.06990
H2 H 0.81670 -0.26320 -0.09380
H3 H 0.91860 -0.31220 -0.05760
N6 N 0.45311(16) -0.45345(16) 0.11830(11)
O6 O 0.68319(16) 0.30976(14) 0.35340(9)
C6 C 0.75722(19) -0.32950(18) 0.01234(11)
H4 H 0.72560 -0.31690 0.04940
H5 H 0.79870 -0.39150 0.01740
H6 H 0.70310 -0.33740 -0.02240
C7 C 0.97713(15) -0.18355(16) 0.16199(9)
O7 O 0.39708(13) -0.52921(13) 0.11950(9)
C8 C 0.96646(16) -0.26617(16) 0.2027(1)
O8 O 0.4527(2) -0.39872(19) 0.0729(1)
C9 C 1.02847(18) -0.26447(19) 0.2599(1)
H7 H 1.02010 -0.31700 0.28820
C10 C 1.10210(18) -0.18837(19) 0.27685(10)
C11 C 1.11684(17) -0.11339(18) 0.23308(10)
H8 H 1.16930 -0.06420 0.24290
C12 C 1.05608(16) -0.10907(16) 0.17512(9)
C13 C 1.07995(18) -0.02637(18) 0.13042(11)
H9 H 1.15190 -0.03230 0.12300
H10 H 1.06880 0.04040 0.14780
H11 H 1.03440 -0.03440 0.09190
C14 C 1.1668(2) -0.1874(2) 0.34023(12)
H12 H 1.23050 -0.14910 0.33830
H13 H 1.18380 -0.25710 0.35310
H14 H 1.12710 -0.15530 0.36960
C15 C 0.89658(18) -0.35800(17) 0.18601(12)
H15 H 0.87330 -0.35760 0.14210
H16 H 0.83670 -0.35460 0.20820
H17 H 0.93510 -0.42050 0.19700
C16 C 0.68963(15) 0.00613(15) 0.05129(9)
C17 C 0.59013(16) 0.00323(16) 0.07056(9)
C18 C 0.54037(17) 0.09770(18) 0.07786(10)
H18 H 0.47510 0.09750 0.09210
C19 C 0.58436(18) 0.19148(18) 0.06475(10)
C20 C 0.67917(18) 0.18997(17) 0.04052(10)
H19 H 0.70670 0.25200 0.02800
C21 C 0.73430(16) 0.09900(16) 0.03429(9)
C22 C 0.83942(19) 0.10414(18) 0.01104(11)
H20 H 0.83280 0.14180 -0.02740
H21 H 0.86380 0.03530 0.00440
H22 H 0.88890 0.13870 0.04120
C23 C 0.5303(2) 0.2922(2) 0.07553(14)
H23 H 0.46430 0.27820 0.09040
H24 H 0.51790 0.33010 0.03720
H25 H 0.57410 0.33230 0.10590
C24 C 0.53285(16) -0.09427(17) 0.08252(10)
H26 H 0.56380 -0.15150 0.06330
H27 H 0.46020 -0.08790 0.06540
H28 H 0.53790 -0.10590 0.12650
C25 C 0.82312(15) -0.03224(15) 0.15669(9)
C26 C 0.77881(16) 0.00393(15) 0.26106(9)
C27 C 0.72301(15) 0.09533(15) 0.25731(9)
H29 H 0.67890 0.11370 0.22150
C28 C 0.73555(16) 0.15854(16) 0.30907(10)
C29 C 0.80026(18) 0.13408(18) 0.36256(10)
H30 H 0.80740 0.17870 0.39650
C30 C 0.85451(18) 0.04149(18) 0.3647(1)
H31 H 0.89840 0.02310 0.40060
C31 C 0.84420(16) -0.02398(17) 0.31401(10)
H32 H 0.88090 -0.08620 0.31560
C32 C 0.72579(15) -0.15662(15) 0.19862(9)
C33 C 0.63256(16) -0.29855(16) 0.23150(9)
C34 C 0.57156(16) -0.32958(16) 0.17706(10)
H33 H 0.56410 -0.28710 0.14220
C35 C 0.52208(17) -0.42481(17) 0.17554(11)
C36 C 0.53311(18) -0.49227(17) 0.22506(11)
H34 H 0.49990 -0.55640 0.22250
C37 C 0.59515(19) -0.46121(18) 0.27862(11)
H35 H 0.60500 -0.50550 0.31270
C38 C 0.64297(18) -0.36476(17) 0.28228(10)
H36 H 0.68250 -0.34420 0.31930
#END
