
#######################################################################
#
#                 Cambridge Crystallographic Data Centre
#                                CCDC
#
#######################################################################
#
# If this CIF has been generated from an entry in the Cambridge
# Structural Database, then it will include bibliographic, chemical,
# crystal, experimental, refinement or atomic coordinate data resulting
# from the CCDC's data processing and validation procedures.
#
#######################################################################

data_CSD_CIF_YOJQOF
_audit_creation_date 2014-08-25
_audit_creation_method CSD-ConQuest-V1
_database_code_CSD YOJQOF
_database_code_depnum_ccdc_archive 'CCDC 849125'
_chemical_formula_sum 'C22 H26 N8 O6'
_chemical_formula_moiety
;
C22 H26 N8 O6
;
_journal_coden_Cambridge 1816
_journal_volume 1
_journal_year 2013
_journal_page_first 1530
_journal_name_full 'ACS Sustain.Chem.Eng. '
loop_
_publ_author_name
"S.Das"
"S.J.Kalita"
"P.Bjarali"
"B.K.Konwar"
"B.Das"
"A.J.Thakur"
_chemical_name_systematic
;
N'-(5-((6-Amino-1,3-dimethyl-2,4-dioxo-1,2,3,4-tetrahydropyrimidin-5-yl)(4-nit
rophenyl)methyl)-1,3-dimethyl-2,6-dioxo-1,2,3,6-tetrahydropyrimidin-4-yl)-N,N-
dimethylimidoformamide
;
_cell_volume   4814.213
_exptl_crystal_colour 'colorless'
_exptl_crystal_density_diffrn 1.376
_exptl_crystal_description 'needles'
_diffrn_ambient_temperature 296
#These two values have been output from a single CSD field.
_refine_ls_R_factor_gt 0.0521
_refine_ls_wR_factor_gt 0.0521
_symmetry_cell_setting orthorhombic
_symmetry_space_group_name_H-M 'P b c a'
_symmetry_Int_Tables_number 61
loop_
_symmetry_equiv_pos_site_id
_symmetry_equiv_pos_as_xyz
1 x,y,z
2 1/2-x,-y,1/2+z
3 -x,1/2+y,1/2-z
4 1/2+x,1/2-y,-z
5 -x,-y,-z
6 -1/2+x,y,-1/2-z
7 x,-1/2-y,-1/2+z
8 -1/2-x,-1/2+y,z
_cell_length_a 9.7878(5)
_cell_length_b 15.0944(7)
_cell_length_c 32.5855(16)
_cell_angle_alpha 90
_cell_angle_beta 90
_cell_angle_gamma 90
_cell_formula_units_Z 8
loop_
_atom_type_symbol
_atom_type_radius_bond
C 0.68
H 0.23
N 0.68
O 0.68
loop_
_atom_site_label
_atom_site_type_symbol
_atom_site_fract_x
_atom_site_fract_y
_atom_site_fract_z
C1 C 0.6620(2) 0.92521(14) 0.62155(7)
H1 H 0.60030 0.95550 0.64070
C2 C 0.7097(2) 0.84426(14) 0.64614(7)
C3 C 0.8355(2) 0.80084(15) 0.63590(8)
C4 C 0.8097(3) 0.70290(17) 0.69513(8)
C5 C 0.6449(2) 0.82024(14) 0.68171(7)
C6 C 0.4212(3) 0.86855(18) 0.68298(9)
H2 H 0.40790 0.83940 0.65820
C7 C 0.3398(5) 0.9665(3) 0.73534(13)
H3 H 0.37560 0.93020 0.75700
H4 H 0.25500 0.99250 0.74400
H5 H 0.40400 1.01260 0.72900
C8 C 0.1889(4) 0.9197(3) 0.67796(15)
H6 H 0.17510 0.97990 0.66940
H7 H 0.11600 0.90230 0.69590
H8 H 0.19010 0.88170 0.65440
C9 C 0.9984(3) 0.6800(2) 0.6483(1)
H9 H 1.02930 0.64470 0.67100
H10 H 1.06940 0.72020 0.64030
H11 H 0.97590 0.64200 0.62560
C10 C 0.6246(4) 0.7238(2) 0.74335(10)
H12 H 0.55460 0.68160 0.73660
H13 H 0.58410 0.77460 0.75620
H14 H 0.68900 0.69700 0.76180
C11 C 0.7763(2) 0.99217(14) 0.61545(7)
C12 C 0.8495(3) 1.01965(17) 0.64925(8)
H15 H 0.82910 0.99600 0.67490
C13 C 0.9529(3) 1.08178(18) 0.64585(10)
H16 H 1.00100 1.10040 0.66890
C14 C 0.9830(3) 1.11541(15) 0.60769(11)
C15 C 0.9097(3) 1.09186(18) 0.57426(10)
H17 H 0.92940 1.11680 0.54880
C16 C 0.8060(3) 1.03098(16) 0.57796(8)
H18 H 0.75500 1.01560 0.55500
C17 C 0.5708(2) 0.90776(14) 0.58423(7)
C18 C 0.6061(2) 0.86036(16) 0.54987(7)
C19 C 0.3782(3) 0.87220(16) 0.52171(8)
C20 C 0.4379(2) 0.94673(15) 0.58594(7)
C21 C 0.2041(3) 0.9563(2) 0.55709(10)
H19 H 0.17720 0.98140 0.53120
H20 H 0.19740 1.00060 0.57810
H21 H 0.14510 0.90750 0.56370
C22 C 0.5511(3) 0.8004(3) 0.48069(8)
H22 H 0.55950 0.73810 0.48610
H23 H 0.63700 0.82290 0.47100
H24 H 0.48220 0.80980 0.46020
N1 N 0.8767(2) 0.73042(13) 0.66061(6)
N2 N 0.6955(2) 0.75130(13) 0.70564(7)
N3 N 0.5390(2) 0.86440(13) 0.69992(6)
N4 N 0.3168(3) 0.91276(17) 0.69927(8)
N5 N 1.0975(3) 1.17665(17) 0.60392(14)
N6 N 0.3465(2) 0.92462(13) 0.55434(6)
N7 N 0.5126(2) 0.84661(14) 0.51847(6)
N8 N 0.7304(2) 0.82608(16) 0.54339(7)
H25 H 0.79380 0.83320 0.56140
H26 H 0.74680 0.79690 0.52130
O1 O 0.91023(17) 0.82212(12) 0.60680(5)
O2 O 0.8479(2) 0.63974(12) 0.71569(6)
O3 O 0.39683(18) 0.99594(12) 0.61345(6)
O4 O 0.2934(2) 0.85043(13) 0.49628(6)
O5 O 1.1264(3) 1.20389(18) 0.56957(13)
O6 O 1.1612(3) 1.19698(18) 0.63487(12)
#END
