
#######################################################################
#
#                 Cambridge Crystallographic Data Centre
#                                CCDC
#
#######################################################################
#
# If this CIF has been generated from an entry in the Cambridge
# Structural Database, then it will include bibliographic, chemical,
# crystal, experimental, refinement or atomic coordinate data resulting
# from the CCDC's data processing and validation procedures.
#
#######################################################################

data_CSD_CIF_YOJQOF01
_audit_creation_date 2015-03-10
_audit_creation_method CSD-ConQuest-V1
_database_code_CSD YOJQOF01
_database_code_depnum_ccdc_archive 'CCDC 980840'
_chemical_formula_sum 'C22 H26 N8 O6'
_chemical_formula_moiety
;
C22 H26 N8 O6
;
_journal_coden_Cambridge 16
_journal_volume 70
_journal_year 2014
_journal_page_first 6931
_journal_name_full 'Tetrahedron '
loop_
_publ_author_name
"S.Roy"
"A.Bauza"
"R.Banik"
"S.C.Biswas"
"A.Frontera"
"S.Das"
_chemical_name_systematic
;
N'-(5-((6-amino-1,3-dimethyl-2,4-dioxo-1,2,3,4-tetrahydropyrimidin-5-yl)(4-nit
rophenyl)methyl)-1,3-dimethyl-2,6-dioxo-1,2,3,6-tetrahydropyrimidin-4-yl)-N,N-
dimethylimidoformamide
;
_cell_volume   4814.213
_exptl_crystal_colour 'colorless'
_exptl_crystal_density_diffrn 1.376
_exptl_crystal_description 'block'
_diffrn_ambient_temperature 296.1
#These two values have been output from a single CSD field.
_refine_ls_R_factor_gt 0.0589
_refine_ls_wR_factor_gt 0.0589
_symmetry_cell_setting orthorhombic
_symmetry_space_group_name_H-M 'P b c a'
_symmetry_Int_Tables_number 61
loop_
_symmetry_equiv_pos_site_id
_symmetry_equiv_pos_as_xyz
1 x,y,z
2 1/2-x,-y,1/2+z
3 -x,1/2+y,1/2-z
4 1/2+x,1/2-y,-z
5 -x,-y,-z
6 -1/2+x,y,-1/2-z
7 x,-1/2-y,-1/2+z
8 -1/2-x,-1/2+y,z
_cell_length_a 9.7878(5)
_cell_length_b 15.0944(7)
_cell_length_c 32.5855(16)
_cell_angle_alpha 90
_cell_angle_beta 90
_cell_angle_gamma 90
_cell_formula_units_Z 8
loop_
_atom_type_symbol
_atom_type_radius_bond
C 0.68
H 0.23
N 0.68
O 0.68
loop_
_atom_site_label
_atom_site_type_symbol
_atom_site_fract_x
_atom_site_fract_y
_atom_site_fract_z
O1 O 1.1265(3) 1.20392(16) 0.56944(12)
O2 O 1.1612(2) 1.19698(16) 0.63478(11)
O3 O 0.91025(16) 0.82213(10) 0.60677(5)
O4 O 0.8480(2) 0.63976(11) 0.71569(6)
O5 O 0.39688(16) 0.99596(11) 0.61342(5)
O6 O 0.29335(18) 0.85045(12) 0.49628(5)
N1 N 1.0976(3) 1.17668(15) 0.60378(12)
N2 N 0.3168(2) 0.91268(16) 0.69931(8)
N3 N 0.5390(2) 0.86440(12) 0.69990(6)
N4 N 0.6956(2) 0.75134(12) 0.70565(6)
N5 N 0.87677(19) 0.73039(11) 0.66059(6)
N6 N 0.34650(18) 0.92460(12) 0.55433(6)
N7 N 0.51258(19) 0.84667(12) 0.51845(5)
N8 N 0.7304(2) 0.82605(15) 0.54336(6)
H1 H 0.79390 0.83320 0.56130
H2 H 0.74680 0.79680 0.52120
C1 C 0.1889(4) 0.9199(3) 0.67787(13)
H3 H 0.17530 0.98010 0.66930
H4 H 0.11580 0.90230 0.69570
H5 H 0.19030 0.88200 0.65420
C2 C 0.3398(4) 0.9665(3) 0.73534(11)
H6 H 0.37970 0.93080 0.75660
H7 H 0.25440 0.99020 0.74470
H8 H 0.40060 1.01420 0.72860
C3 C 0.4211(3) 0.86860(16) 0.68296(8)
H9 H 0.40780 0.83950 0.65810
C4 C 0.6449(2) 0.82026(13) 0.68168(6)
C5 C 0.8096(2) 0.70292(15) 0.69508(8)
C6 C 0.8355(2) 0.80087(13) 0.63584(7)
C7 C 0.7097(2) 0.84426(12) 0.64613(6)
C8 C 0.6618(2) 0.92520(12) 0.62153(6)
H10 H 0.60020 0.95550 0.64060
C9 C 0.7763(2) 0.99216(12) 0.61541(6)
C10 C 0.8496(2) 1.01974(15) 0.64922(7)
H11 H 0.82910 0.99610 0.67490
C11 C 0.9529(3) 1.08183(16) 0.64579(9)
H12 H 1.00110 1.10040 0.66880
C12 C 0.9829(2) 1.11542(14) 0.60764(10)
C13 C 0.9098(3) 1.09188(16) 0.57423(9)
H13 H 0.92950 1.11680 0.54880
C14 C 0.8061(2) 1.03094(15) 0.57795(7)
H14 H 0.75520 1.01550 0.55490
C15 C 0.9983(3) 0.67996(18) 0.64825(9)
H15 H 1.02850 0.64400 0.67080
H16 H 1.06980 0.72020 0.64060
H17 H 0.97610 0.64270 0.62530
C16 C 0.6245(3) 0.7238(2) 0.74334(9)
H18 H 0.55440 0.68180 0.73660
H19 H 0.58390 0.77470 0.75620
H20 H 0.68870 0.69700 0.76180
C17 C 0.2042(3) 0.9565(2) 0.55700(9)
H21 H 0.17710 0.98090 0.53100
H22 H 0.19780 1.00140 0.57780
H23 H 0.14510 0.90800 0.56390
C18 C 0.4379(2) 0.94671(14) 0.58593(7)
C19 C 0.3783(2) 0.87216(14) 0.52171(7)
C20 C 0.5511(3) 0.8004(2) 0.48066(7)
H24 H 0.55900 0.73810 0.48610
H25 H 0.63710 0.82270 0.47100
H26 H 0.48240 0.81000 0.46010
C21 C 0.5708(2) 0.90778(12) 0.58423(6)
C22 C 0.6061(2) 0.86031(14) 0.54986(6)
#END
