
#######################################################################
#
#                 Cambridge Crystallographic Data Centre
#                                CCDC
#
#######################################################################
#
# If this CIF has been generated from an entry in the Cambridge
# Structural Database, then it will include bibliographic, chemical,
# crystal, experimental, refinement or atomic coordinate data resulting
# from the CCDC's data processing and validation procedures.
#
#######################################################################

data_CSD_CIF_YOJXIG
_audit_creation_date 2014-08-25
_audit_creation_method CSD-ConQuest-V1
_database_code_CSD YOJXIG
_database_code_depnum_ccdc_archive 'CCDC 992171'
_chemical_formula_sum 'C10 H14 N2 O4'
_chemical_formula_moiety
;
C10 H14 N2 O4
;
_journal_coden_Cambridge 16
_journal_volume 70
_journal_year 2014
_journal_page_first 6522
_journal_name_full 'Tetrahedron '
loop_
_publ_author_name
"H.Asahara"
"Kyo Muto"
"N.N.Asahrara"
"Kyo Muto"
"N.Nishiwaki"
_chemical_name_systematic
;
2-nitro-5-oxo-2-(3-oxobutyl)hexanenitrile
;
_cell_volume    568.193
_exptl_crystal_colour 'yellow'
_exptl_crystal_density_diffrn 1.322
_exptl_crystal_description 'block'
_exptl_crystal_preparation 'hexane/chloroform'
_diffrn_ambient_temperature 153
#These two values have been output from a single CSD field.
_refine_ls_R_factor_gt 0.0684
_refine_ls_wR_factor_gt 0.0684
_symmetry_cell_setting orthorhombic
_symmetry_space_group_name_H-M 'P m n 21'
_symmetry_Int_Tables_number 31
loop_
_symmetry_equiv_pos_site_id
_symmetry_equiv_pos_as_xyz
1 x,y,z
2 -x,y,z
3 1/2+x,-y,1/2+z
4 1/2-x,-y,1/2+z
_cell_length_a 15.2722(6)
_cell_length_b 6.5381(3)
_cell_length_c 5.6904(2)
_cell_angle_alpha 90
_cell_angle_beta 90
_cell_angle_gamma 90
_cell_formula_units_Z 2
loop_
_atom_type_symbol
_atom_type_radius_bond
C 0.68
H 0.23
N 0.68
O 0.68
loop_
_atom_site_label
_atom_site_type_symbol
_atom_site_fract_x
_atom_site_fract_y
_atom_site_fract_z
O1 O 0.24314(11) 0.3157(4) 0.1002(6)
O2 O 0.00000 0.0922(5) 0.8366(6)
O3 O 0.00000 0.4222(5) 0.7785(5)
N1 N 0.00000 -0.1787(5) 0.3565(8)
N2 N 0.00000 0.2467(5) 0.7094(7)
C1 C 0.33467(17) 0.2271(5) 0.4230(9)
C2 C 0.24811(14) 0.2628(5) 0.3055(7)
C3 C 0.16774(15) 0.2228(4) 0.4522(6)
C4 C 0.08400(13) 0.3073(4) 0.3443(6)
C5 C 0.00000 0.2130(5) 0.4443(7)
C6 C 0.00000 -0.0142(6) 0.4046(7)
H1 H 0.33430 0.29030 0.57920
H2 H 0.38140 0.28790 0.32800
H3 H 0.34490 0.07970 0.43860
H4 H 0.17610 0.28480 0.60930
H5 H 0.16120 0.07330 0.47400
H6 H 0.08550 0.28330 0.17260
H7 H 0.08230 0.45710 0.37000
O1A O -0.24314(11) 0.3157(4) 0.1002(6)
C1A C -0.33467(17) 0.2271(5) 0.4230(9)
C2A C -0.24811(14) 0.2628(5) 0.3055(7)
C3A C -0.16774(15) 0.2228(4) 0.4522(6)
C4A C -0.08400(13) 0.3073(4) 0.3443(6)
H1A H -0.33430 0.29030 0.57920
H2A H -0.38140 0.28790 0.32800
H3A H -0.34490 0.07970 0.43860
H4A H -0.17610 0.28480 0.60930
H5A H -0.16120 0.07330 0.47400
H6A H -0.08550 0.28330 0.17260
H7A H -0.08230 0.45710 0.37000
#END
