
#######################################################################
#
#                 Cambridge Crystallographic Data Centre
#                                CCDC
#
#######################################################################
#
# If this CIF has been generated from an entry in the Cambridge
# Structural Database, then it will include bibliographic, chemical,
# crystal, experimental, refinement or atomic coordinate data resulting
# from the CCDC's data processing and validation procedures.
#
#######################################################################

data_CSD_CIF_YOKNAO
_audit_creation_date 2009-02-13
_audit_creation_method CSD-ConQuest-V1
_database_code_CSD YOKNAO
_database_code_depnum_ccdc_archive 'CCDC 684089'
_chemical_formula_sum 'C19 H22 N2 O2'
_chemical_formula_moiety
;
C19 H22 N2 O2
;
_journal_coden_Cambridge 580
_journal_volume 27
_journal_year 2008
_journal_page_first 2757
_journal_name_full 'Polyhedron '
loop_
_publ_author_name
"Shao-wu Wang"
"Hui-min Qian"
"Wei Yao"
"Li-jun Zhang"
"Shuang-liu Zhou"
"Gao-sheng Yang"
"Xian-cui Zhu"
"Jia-xi Fan"
"Yu-yu Liu"
"Guo-dong Chen"
"Hai-bin Song"
_chemical_name_systematic
;
N-(4-Nitrophenylmethylidene)-2,6-di-isopropylaniline
;
_cell_volume   1739.559
_exptl_crystal_density_diffrn 1.185
_diffrn_ambient_temperature 293
#These two values have been output from a single CSD field.
_refine_ls_R_factor_gt 0.045
_refine_ls_wR_factor_gt 0.045
_symmetry_cell_setting monoclinic
_symmetry_space_group_name_H-M 'P 21/c'
_symmetry_Int_Tables_number 14
loop_
_symmetry_equiv_pos_site_id
_symmetry_equiv_pos_as_xyz
1 x,y,z
2 -x,1/2+y,1/2-z
3 -x,-y,-z
4 x,-1/2-y,-1/2+z
_cell_length_a 8.4963(2)
_cell_length_b 28.2166(7)
_cell_length_c 8.1526(2)
_cell_angle_alpha 90
_cell_angle_beta 117.122(2)
_cell_angle_gamma 90
_cell_formula_units_Z 4
loop_
_atom_type_symbol
_atom_type_radius_bond
C 0.68
H 0.23
N 0.68
O 0.68
loop_
_atom_site_label
_atom_site_type_symbol
_atom_site_fract_x
_atom_site_fract_y
_atom_site_fract_z
C1 C 0.4413(2) 0.16012(6) 0.5586(2)
C2 C 0.4286(3) 0.18570(6) 0.6999(2)
C3 C 0.7365(3) 0.20533(7) 0.8206(3)
H1 H 0.83660 0.22030 0.90950
C4 C 0.5998(3) 0.15763(6) 0.5455(2)
C5 C 0.5796(3) 0.20779(7) 0.8301(3)
H2 H 0.57450 0.22460 0.92570
C6 C 0.7460(3) 0.18078(7) 0.6801(3)
H3 H 0.85300 0.17960 0.67490
C7 C 0.2563(3) 0.18741(7) 0.7121(3)
H4 H 0.16110 0.18140 0.58800
C8 C 0.6165(3) 0.13122(7) 0.3926(3)
H5 H 0.49700 0.12240 0.30070
C9 C 0.2200(4) 0.23532(9) 0.7722(4)
H6 H 0.30380 0.24100 0.89830
H7 H 0.10240 0.23570 0.76080
H8 H 0.23080 0.25960 0.69560
C10 C 0.7217(4) 0.08573(8) 0.4632(3)
H9 H 0.83960 0.09320 0.55430
H10 H 0.72630 0.06920 0.36260
H11 H 0.66560 0.06610 0.51730
C11 C 0.2501(4) 0.14776(10) 0.8346(4)
H12 H 0.27460 0.11810 0.79320
H13 H 0.13470 0.14660 0.82880
H14 H 0.33710 0.15350 0.95940
C12 C 0.6969(4) 0.16153(9) 0.2959(3)
H15 H 0.81930 0.16730 0.37810
H16 H 0.63490 0.19120 0.26030
H17 H 0.68720 0.14530 0.18830
N1 N 0.28410(19) 0.13966(5) 0.41817(19)
C13 C 0.2575(3) 0.09618(7) 0.4220(3)
H18 H 0.34200 0.07820 0.51680
C14 C -0.1979(3) 0.02665(6) 0.0327(2)
C15 C 0.0987(2) 0.07223(6) 0.2834(2)
C16 C -0.0222(3) 0.09584(6) 0.1271(3)
H19 H -0.00200 0.12720 0.10750
C17 C -0.1715(3) 0.07306(7) 0.0012(3)
H20 H -0.25300 0.08880 -0.10340
C18 C -0.0816(3) 0.00249(7) 0.1852(3)
H21 H -0.10300 -0.02890 0.20420
C19 C 0.0682(3) 0.02562(6) 0.3103(3)
H22 H 0.14950 0.00950 0.41390
O1 O -0.4539(3) 0.02221(7) -0.2401(3)
O2 O -0.3822(3) -0.03830(6) -0.0679(3)
N2 N -0.3561(3) 0.00175(7) -0.1014(3)
#END
