
#######################################################################
#
#                 Cambridge Crystallographic Data Centre
#                                CCDC
#
#######################################################################
#
# If this CIF has been generated from an entry in the Cambridge
# Structural Database, then it will include bibliographic, chemical,
# crystal, experimental, refinement or atomic coordinate data resulting
# from the CCDC's data processing and validation procedures.
#
#######################################################################

data_CSD_CIF_YOKPOF
_audit_creation_date 2014-08-25
_audit_creation_method CSD-ConQuest-V1
_database_code_CSD YOKPOF
_database_code_depnum_ccdc_archive 'CCDC 949977'
_chemical_formula_sum 'C30 H24 N2 O4'
_chemical_formula_moiety
;
C30 H24 N2 O4
;
_journal_coden_Cambridge 1241
_journal_volume 24
_journal_year 2013
_journal_page_first 1957
_journal_name_full 'J.Braz.Chem.Soc. '
loop_
_publ_author_name
"Y.Sarrafi"
"A.Asghari"
"M.Hamzehloueian"
"K.Alimohammadi"
"M.Sadatshahabi"
_chemical_name_systematic
;
2'-(4-methoxyphenyl)-1'-nitro-1',5',6',10b'-tetrahydro-2H,2'H-spiro[acenaphthy
lene-1,3'-pyrrolo[2,1-a]isoquinolin]-2-one
;
_cell_volume   2387.661
_exptl_crystal_colour 'yellow'
_exptl_crystal_density_diffrn 1.326
_exptl_crystal_description 'block'
_diffrn_ambient_temperature 298
#These two values have been output from a single CSD field.
_refine_ls_R_factor_gt 0.0874
_refine_ls_wR_factor_gt 0.0874
_symmetry_cell_setting monoclinic
_symmetry_space_group_name_H-M 'P 21/c'
_symmetry_Int_Tables_number 14
loop_
_symmetry_equiv_pos_site_id
_symmetry_equiv_pos_as_xyz
1 x,y,z
2 -x,1/2+y,1/2-z
3 -x,-y,-z
4 x,-1/2-y,-1/2+z
_cell_length_a 15.6575(17)
_cell_length_b 14.2478(13)
_cell_length_c 11.3666(11)
_cell_angle_alpha 90
_cell_angle_beta 109.676(8)
_cell_angle_gamma 90
_cell_formula_units_Z 4
loop_
_atom_type_symbol
_atom_type_radius_bond
C 0.68
H 0.23
N 0.68
O 0.68
loop_
_atom_site_label
_atom_site_type_symbol
_atom_site_fract_x
_atom_site_fract_y
_atom_site_fract_z
C1 C 0.82986(18) 0.47015(19) 0.9203(2)
C2 C 0.8255(2) 0.37850(19) 0.9789(3)
C3 C 0.8623(2) 0.2922(2) 0.9717(3)
H1 H 0.89770 0.28260 0.92150
C4 C 0.8445(3) 0.2184(2) 1.0436(4)
H2 H 0.86840 0.15920 1.03920
C5 C 0.7932(3) 0.2307(3) 1.1192(4)
H3 H 0.78460 0.18030 1.16600
C6 C 0.7533(2) 0.3179(2) 1.1278(3)
C7 C 0.6991(3) 0.3423(3) 1.2008(3)
H4 H 0.68580 0.29750 1.25160
C8 C 0.6664(3) 0.4312(3) 1.1968(3)
H5 H 0.63020 0.44560 1.24450
C9 C 0.6854(2) 0.5022(2) 1.1231(3)
H6 H 0.66230 0.56240 1.12240
C10 C 0.73825(19) 0.48147(19) 1.0528(2)
C11 C 0.7718(2) 0.39013(19) 1.0551(3)
C12 C 0.76971(17) 0.54115(17) 0.9651(2)
C13 C 0.68977(16) 0.58509(17) 0.8560(2)
H7 H 0.63770 0.58890 0.88530
C14 C 0.65943(16) 0.52870(16) 0.7367(2)
C15 C 0.59195(18) 0.46183(19) 0.7190(2)
H8 H 0.56430 0.45510 0.77920
C16 C 0.56451(18) 0.40457(19) 0.6139(3)
H9 H 0.51900 0.36030 0.60400
C17 C 0.60534(17) 0.41409(18) 0.5244(2)
C18 C 0.5253(2) 0.2852(2) 0.4043(3)
H10 H 0.46800 0.30810 0.40550
H11 H 0.54970 0.24140 0.47140
H12 H 0.51710 0.25450 0.32610
C19 C 0.67109(18) 0.48204(18) 0.5394(2)
H13 H 0.69750 0.49000 0.47800
C20 C 0.69786(17) 0.53789(18) 0.6436(2)
H14 H 0.74260 0.58280 0.65210
C21 C 0.71952(17) 0.68721(17) 0.8439(2)
H15 H 0.71500 0.70040 0.75740
C22 C 0.81870(16) 0.69174(17) 0.9300(2)
H16 H 0.85650 0.66710 0.88370
C23 C 0.85818(16) 0.78463(17) 0.9864(2)
C24 C 0.83907(18) 0.86683(18) 0.9156(3)
H17 H 0.80070 0.86480 0.83290
C25 C 0.8768(2) 0.9513(2) 0.9674(3)
H18 H 0.86380 1.00590 0.91980
C26 C 0.9334(2) 0.9543(2) 1.0896(4)
H19 H 0.95810 1.01130 1.12520
C27 C 0.9537(2) 0.8738(2) 1.1590(3)
H20 H 0.99280 0.87660 1.24120
C28 C 0.91694(18) 0.7874(2) 1.1091(3)
C29 C 0.9412(2) 0.7001(2) 1.1886(3)
H21 H 0.91320 0.70360 1.25270
H22 H 1.00640 0.69840 1.23000
C30 C 0.91163(19) 0.6102(2) 1.1158(3)
H23 H 0.95310 0.59450 1.07180
H24 H 0.91170 0.55910 1.17220
N1 N 0.82057(14) 0.62414(14) 1.02699(19)
N2 N 0.66230(16) 0.75600(17) 0.8864(3)
O1 O 0.87438(15) 0.49068(15) 0.8554(2)
O2 O 0.58586(14) 0.36100(15) 0.41888(19)
O3 O 0.63236(15) 0.82365(15) 0.8189(3)
O4 O 0.64971(17) 0.74155(18) 0.9845(3)
#END
