
#######################################################################
#
#                 Cambridge Crystallographic Data Centre
#                                CCDC
#
#######################################################################
#
# If this CIF has been generated from an entry in the Cambridge
# Structural Database, then it will include bibliographic, chemical,
# crystal, experimental, refinement or atomic coordinate data resulting
# from the CCDC's data processing and validation procedures.
#
#######################################################################

data_CSD_CIF_YOKWEB
_audit_creation_date 2009-02-13
_audit_creation_method CSD-ConQuest-V1
_database_code_CSD YOKWEB
_database_code_depnum_ccdc_archive 'CCDC 688699'
_chemical_formula_sum 'C20 H31 N1 O6'
_chemical_formula_moiety
;
C20 H31 N1 O6
;
_journal_coden_Cambridge 179
_journal_volume 47
_journal_year 2008
_journal_page_first 7539
_journal_name_full 'Angew.Chem.,Int.Ed. '
loop_
_publ_author_name
"D.Enders"
"Chuan Wang"
"J.W.Bats"
_chemical_name_systematic
;
(S,R)-(2-(nitromethyl)-1-propylcyclopentyl)methyl 
4,7,7-trimethyl-3-oxo-2-oxabicyclo[2.2.1]heptane-1-carboxylate
;
_cell_volume   4090.104
_exptl_crystal_colour 'colorless'
_exptl_crystal_density_diffrn 1.239
_exptl_crystal_description 'block'
_diffrn_ambient_temperature 161
#These two values have been output from a single CSD field.
_refine_ls_R_factor_gt 0.1067
_refine_ls_wR_factor_gt 0.1067
_symmetry_cell_setting orthorhombic
_symmetry_space_group_name_H-M 'P 21 21 21'
_symmetry_Int_Tables_number 19
loop_
_symmetry_equiv_pos_site_id
_symmetry_equiv_pos_as_xyz
1 x,y,z
2 1/2-x,-y,1/2+z
3 1/2+x,1/2-y,-z
4 -x,1/2+y,1/2-z
_cell_length_a 8.0020(18)
_cell_length_b 8.0050(16)
_cell_length_c 63.852(16)
_cell_angle_alpha 90
_cell_angle_beta 90
_cell_angle_gamma 90
_cell_formula_units_Z 8
loop_
_atom_type_symbol
_atom_type_radius_bond
C 0.68
H 0.23
N 0.68
O 0.68
loop_
_atom_site_label
_atom_site_type_symbol
_atom_site_fract_x
_atom_site_fract_y
_atom_site_fract_z
O1 O 0.8824(6) 0.5872(6) 0.44999(8)
O2 O 0.3310(7) 0.6585(6) 0.29986(7)
O3 O 0.5036(7) 1.0587(6) 0.31268(8)
O4 O 1.2791(6) 0.7603(7) 0.43658(9)
C1 C 0.4998(9) 0.8763(8) 0.31253(11)
O5 O 1.1376(7) 0.4680(7) 0.44727(10)
O6 O 0.6673(8) 1.2475(7) 0.32797(11)
N1 N 0.5752(8) 0.2940(9) 0.2617(1)
O7 O 0.2113(7) 0.9116(7) 0.30281(11)
N2 N 0.5186(8) 0.8266(8) 0.4885(1)
C2 C 0.6279(8) 0.4270(8) 0.45623(10)
O8 O 1.4627(7) 0.9277(8) 0.42043(12)
C3 C 1.0967(8) 0.7594(9) 0.43812(10)
C4 C 0.1754(8) 0.4008(8) 0.29312(10)
C5 C 0.5774(8) 0.4593(9) 0.43307(10)
H1 H 0.45550 0.44120 0.43180
H2 H 0.59940 0.57820 0.42980
O9 O 0.6330(9) 0.1614(8) 0.26749(11)
C6 C 1.0468(8) 0.5868(9) 0.44523(11)
C7 C 0.1785(9) 0.5935(8) 0.29055(11)
H3 H 0.17420 0.62310 0.27550
H4 H 0.07990 0.64330 0.29750
C8 C 0.5329(8) 0.5501(9) 0.47099(11)
H5 H 0.41960 0.56960 0.46480
C9 C 0.5709(10) 0.2489(9) 0.46427(13)
H6 H 0.50860 0.18910 0.45320
H7 H 0.66930 0.18100 0.46830
C10 C 1.1592(9) 0.9720(9) 0.41725(12)
C11 C 0.3318(10) 0.8213(9) 0.30478(11)
C12 C 0.5480(11) 0.8335(10) 0.33568(11)
O10 O 0.3868(8) 0.8804(10) 0.48259(12)
C13 C 1.0488(9) 0.8140(9) 0.41582(11)
C14 C 0.6174(10) 0.7206(9) 0.47353(11)
H8 H 0.73240 0.70530 0.47890
H9 H 0.62440 0.77690 0.45980
C15 C 0.0001(9) 0.3471(10) 0.28458(12)
H10 H -0.06200 0.28390 0.29540
H11 H -0.06630 0.44670 0.28070
C16 C 0.4698(9) 0.3951(9) 0.27626(11)
H12 H 0.45560 0.50940 0.27060
H13 H 0.52490 0.40320 0.29010
C17 C 0.7065(11) 0.9444(10) 0.33434(13)
C18 C 0.2036(10) 0.3513(9) 0.31615(10)
H14 H 0.32190 0.37370 0.31970
H15 H 0.18540 0.22940 0.31750
C19 C 0.0918(10) 0.4409(10) 0.33245(12)
H16 H 0.11420 0.56250 0.33200
H17 H -0.02720 0.42310 0.32890
C20 C 0.5097(12) 0.4525(10) 0.49140(12)
H18 H 0.42130 0.50290 0.50020
H19 H 0.61510 0.44700 0.49950
C21 C 0.7995(10) 0.8708(10) 0.31490(16)
H20 H 0.87260 0.95560 0.30830
H21 H 0.86770 0.77250 0.31880
C22 C 0.2985(9) 0.3102(8) 0.27857(10)
H22 H 0.31800 0.19630 0.28450
C23 C 1.0524(10) 0.9073(9) 0.45245(11)
H23 H 1.12130 0.90790 0.46530
H24 H 0.93260 0.90710 0.45630
C24 C 0.6302(10) 1.1030(9) 0.32540(13)
O11 O 0.5745(13) 0.8546(11) 0.50558(11)
C25 C 0.206(1) 0.2881(10) 0.25763(12)
H25 H 0.25730 0.19910 0.24900
H26 H 0.20280 0.39350 0.24950
C26 C 0.8163(9) 0.4335(9) 0.45901(11)
H27 H 0.84420 0.42850 0.47410
H28 H 0.86810 0.33590 0.45200
C27 C 0.8594(10) 0.8547(12) 0.41321(13)
H29 H 0.83740 0.88830 0.39870
H30 H 0.82880 0.94610 0.42270
H31 H 0.79310 0.75540 0.41660
C28 C 0.1254(16) 0.3748(13) 0.35446(12)
H32 H 0.05380 0.43350 0.36450
H33 H 0.24290 0.39360 0.35810
H34 H 0.10120 0.25490 0.35490
C29 C 0.4577(14) 0.279(1) 0.48345(14)
H35 H 0.33830 0.27780 0.47940
H36 H 0.47670 0.19280 0.49430
C30 C 0.6542(9) 0.8206(10) 0.30009(12)
H37 H 0.66180 0.87980 0.28650
H38 H 0.65300 0.69860 0.29750
C31 C 0.0305(11) 0.2376(13) 0.26541(14)
H39 H -0.05480 0.25890 0.25450
H40 H 0.02750 0.11780 0.26920
C32 C 0.6634(11) 0.3545(10) 0.41687(11)
H41 H 0.64280 0.23510 0.42000
H42 H 0.78530 0.37400 0.41770
C33 C 1.0966(11) 1.0566(10) 0.43774(14)
H43 H 0.99690 1.12650 0.43500
H44 H 1.18510 1.12720 0.44400
O12 O 0.6053(11) 0.3490(11) 0.24453(10)
C34 C 1.1716(14) 1.0863(13) 0.39802(16)
H45 H 1.24560 1.18050 0.40120
H46 H 1.06020 1.12840 0.39440
H47 H 1.21680 1.02300 0.38620
C35 C 1.3199(10) 0.8909(10) 0.42390(14)
C36 C 0.5815(14) 0.6467(11) 0.33997(14)
H48 H 0.61060 0.63140 0.35480
H49 H 0.67420 0.60840 0.33120
H50 H 0.48100 0.58180 0.33670
C37 C 0.4168(14) 0.9016(13) 0.35113(13)
H51 H 0.39700 1.02030 0.34830
H52 H 0.45780 0.88860 0.36550
H53 H 0.31210 0.83950 0.34950
C38 C 1.1003(13) 0.6908(13) 0.39904(13)
H54 H 1.21940 0.66480 0.40050
H55 H 1.08010 0.73970 0.38520
H56 H 1.03470 0.58810 0.40050
C39 C 0.8131(17) 0.9689(14) 0.35356(19)
H57 H 0.74460 1.01500 0.36490
H58 H 0.90440 1.04640 0.35030
H59 H 0.85970 0.86120 0.35790
C40 C 0.6038(16) 0.3927(15) 0.39458(13)
H60 H 0.66370 0.32120 0.38460
H61 H 0.62590 0.51020 0.39130
H62 H 0.48350 0.37100 0.39350
#END
