
#######################################################################
#
#                 Cambridge Crystallographic Data Centre
#                                CCDC
#
#######################################################################
#
# If this CIF has been generated from an entry in the Cambridge
# Structural Database, then it will include bibliographic, chemical,
# crystal, experimental, refinement or atomic coordinate data resulting
# from the CCDC's data processing and validation procedures.
#
#######################################################################

data_CSD_CIF_YOLMUH
_audit_creation_date 1996-01-25
_audit_creation_method CSD-ConQuest-V1
_database_code_CSD YOLMUH
_chemical_formula_sum 'C17 H15 N1 O5'
_chemical_formula_moiety
;
C17 H15 N1 O5
;
_journal_coden_Cambridge 122
_journal_year 1993
_journal_page_first 616
_journal_name_full 'Khim.Get.Soedin.,SSSR(Russ.)(Chem.Heterocycl.Compd.) '
loop_
_publ_author_name
"A.V.Butin"
"G.D.Grapivin"
"V.E.Zavodnik"
"V.G.Kul'nevich"
_chemical_name_systematic
;
3-(5-Methyl-2-furyl)-5-nitro-2-(3-oxobutyl)benzo(b)furan
;
_chemical_melting_point 394.15
_cell_volume   3068.468
_exptl_special_details
;
Melting point range 394.15-395.15K

;
_diffrn_ambient_temperature ?
_diffrn_special_details
;
The study was carried out at room temperature,in the range 283-303K

;
#These two values have been output from a single CSD field.
_refine_ls_R_factor_gt 0.029
_refine_ls_wR_factor_gt 0.029
_symmetry_cell_setting monoclinic
_symmetry_space_group_name_H-M 'A 1 1 2/a'
_symmetry_Int_Tables_number 15
loop_
_symmetry_equiv_pos_site_id
_symmetry_equiv_pos_as_xyz
1 x,y,z
2 1/2-x,-y,z
3 x,1/2+y,1/2+z
4 1/2-x,1/2-y,1/2+z
5 -x,-y,-z
6 -1/2+x,y,-z
7 -x,-1/2-y,-1/2-z
8 -1/2+x,-1/2+y,-1/2-z
_cell_length_a 16.311(5)
_cell_length_b 17.730(5)
_cell_length_c 10.678(3)
_cell_angle_alpha 90
_cell_angle_beta 90
_cell_angle_gamma 96.45(2)
_cell_formula_units_Z 8
loop_
_atom_type_symbol
_atom_type_radius_bond
C 0.68
N 0.68
O 0.68
loop_
_atom_site_label
_atom_site_type_symbol
_atom_site_fract_x
_atom_site_fract_y
_atom_site_fract_z
O1 O 0.1319(2) 0.4988(2) 0.2406(3)
O2 O 0.2445(2) 0.2339(2) -0.0712(4)
O3 O 0.2104(3) 0.3083(2) -0.2166(4)
O4 O 0.0339(3) 0.7274(3) 0.3972(5)
O5 O 0.1344(2) 0.5569(2) -0.1795(4)
N1 N 0.2175(3) 0.2916(3) -0.1068(5)
C1 C 0.1683(3) 0.4117(3) -0.0509(6)
C2 C 0.1948(3) 0.3456(3) -0.0115(6)
C3 C 0.1803(4) 0.3760(4) 0.2047(7)
C4 C 0.2013(3) 0.3268(4) 0.1141(6)
C5 C 0.1535(3) 0.4423(3) 0.1638(6)
C6 C 0.1095(3) 0.5555(3) 0.1612(6)
C7 C 0.1166(3) 0.5363(3) 0.0397(5)
C8 C 0.1462(3) 0.4623(3) 0.0393(5)
C9 C 0.0874(4) 0.6232(3) 0.2264(7)
C10 C 0.0076(4) 0.6097(4) 0.2972(7)
C11 C -0.0118(4) 0.6700(4) 0.3861(6)
C12 C -0.0878(5) 0.6568(6) 0.4606(10)
C13 C 0.0986(3) 0.5784(3) -0.0700(5)
C14 C 0.0538(4) 0.6363(4) -0.0968(8)
C15 C 0.0631(5) 0.6507(5) -0.2268(8)
C16 C 0.1106(4) 0.6027(3) -0.2745(6)
C17 C 0.1450(7) 0.5892(6) -0.3993(7)
#END
