
#######################################################################
#
#                 Cambridge Crystallographic Data Centre
#                                CCDC
#
#######################################################################
#
# If this CIF has been generated from an entry in the Cambridge
# Structural Database, then it will include bibliographic, chemical,
# crystal, experimental, refinement or atomic coordinate data resulting
# from the CCDC's data processing and validation procedures.
#
#######################################################################

data_CSD_CIF_YOLNAO
_audit_creation_date 1996-01-25
_audit_creation_method CSD-ConQuest-V1
_database_code_CSD YOLNAO
_chemical_formula_sum 'C22 H19 N1 O5'
_chemical_formula_moiety
;
C22 H19 N1 O5
;
_journal_coden_Cambridge 122
_journal_year 1993
_journal_page_first 616
_journal_name_full 'Khim.Get.Soedin.,SSSR(Russ.)(Chem.Heterocycl.Compd.) '
loop_
_publ_author_name
"A.V.Butin"
"G.D.Grapivin"
"V.E.Zavodnik"
"V.G.Kul'nevich"
_chemical_name_systematic
;
5,6-Dihydro-2,4-dimethyl-4-(5-methyl-2-furyl)-10-nitro-4H-benzo(b)furo(2,3-h)c
yclohepta(b)furan
;
_chemical_melting_point 445.15
_cell_volume    911.990
_exptl_special_details
;
Melting point range 445.15-446.15K

;
_diffrn_ambient_temperature ?
_diffrn_special_details
;
The study was carried out at room temperature,in the range 283-303K

;
#These two values have been output from a single CSD field.
_refine_ls_R_factor_gt 0.032
_refine_ls_wR_factor_gt 0.032
_symmetry_cell_setting triclinic
_symmetry_space_group_name_H-M 'P -1'
_symmetry_Int_Tables_number 2
loop_
_symmetry_equiv_pos_site_id
_symmetry_equiv_pos_as_xyz
1 x,y,z
2 -x,-y,-z
_cell_length_a 9.256(2)
_cell_length_b 12.071(2)
_cell_length_c 8.683(1)
_cell_angle_alpha 97.25(1)
_cell_angle_beta 107.39(1)
_cell_angle_gamma 94.24(1)
_cell_formula_units_Z 2
loop_
_atom_type_symbol
_atom_type_radius_bond
C 0.68
N 0.68
O 0.68
loop_
_atom_site_label
_atom_site_type_symbol
_atom_site_fract_x
_atom_site_fract_y
_atom_site_fract_z
O1 O 0.9253(1) 0.6228(1) 0.6258(1)
O2 O 0.5795(2) 0.1428(1) 0.5088(2)
O3 O 0.4395(2) 0.2142(1) 0.3129(2)
O4 O 0.4825(1) 0.5879(1) 0.1889(1)
O5 O 0.9738(1) 0.9166(1) 0.2176(1)
N1 N 0.5502(2) 0.2205(1) 0.4327(2)
C1 C 0.6130(2) 0.4157(1) 0.4050(2)
C2 C 0.6516(2) 0.3268(1) 0.4877(2)
C3 C 0.7828(3) 0.3320(2) 0.6210(2)
C4 C 0.8813(2) 0.4297(2) 0.6744(2)
C5 C 0.8425(2) 0.5189(2) 0.5918(2)
C6 C 0.7109(2) 0.5150(1) 0.4593(2)
C7 C 0.7161(2) 0.6250(1) 0.4096(2)
C8 C 0.8448(2) 0.6856(2) 0.5120(2)
C9 C 0.9143(2) 0.8028(2) 0.5249(2)
C10 C 0.8039(2) 0.8813(1) 0.4448(2)
C11 C 0.7306(2) 0.8597(1) 0.2566(2)
C12 C 0.6563(2) 0.9631(2) 0.2056(3)
C13 C 0.6095(2) 0.6625(1) 0.2735(2)
C14 C 0.6101(2) 0.7566(1) 0.2023(2)
C15 C 0.4746(2) 0.7379(2) 0.0643(2)
C16 C 0.4018(2) 0.6369(1) 0.0603(2)
C17 C 0.2585(2) 0.5704(2) -0.0471(2)
C18 C 0.8479(2) 0.8372(1) 0.1716(2)
C19 C 0.8578(2) 0.7600(1) 0.0504(2)
C20 C 0.9959(2) 0.7921(2) 0.0185(2)
C21 C 1.0638(2) 0.8866(2) 0.1216(2)
C22 C 1.2062(2) 0.9608(2) 0.1510(3)
#END
