
#######################################################################
#
#                 Cambridge Crystallographic Data Centre
#                                CCDC
#
#######################################################################
#
# If this CIF has been generated from an entry in the Cambridge
# Structural Database, then it will include bibliographic, chemical,
# crystal, experimental, refinement or atomic coordinate data resulting
# from the CCDC's data processing and validation procedures.
#
#######################################################################

data_CSD_CIF_YOMQUN
_audit_creation_date 2009-08-17
_audit_creation_method CSD-ConQuest-V1
_database_code_CSD YOMQUN
_database_code_depnum_ccdc_archive 'CCDC 686644'
_chemical_formula_sum 'C17 H28 N2 O1'
_chemical_formula_moiety
;
C17 H28 N2 O1
;
_journal_coden_Cambridge 1090
_journal_volume 19
_journal_year 2008
_journal_page_first 2462
_journal_name_full 'Tetrahedron:Asymm. '
loop_
_publ_author_name
"J.Kulhanek"
"F.Bures"
"P.Simon"
"W.B.Schweizer"
_chemical_name_systematic
;
(1S,4R)-3-(Cyclohexylmethylimino)-4,7,7-trimethylbicyclo(2.2.1)heptan-2-one 
oxime
;
_chemical_melting_point 400.15
_cell_volume   6572.735
_exptl_crystal_density_diffrn 1.117
_exptl_special_details
;
Melting point range 400.15-402.15K

;
_diffrn_ambient_temperature 293
#These two values have been output from a single CSD field.
_refine_ls_R_factor_gt 0.0755
_refine_ls_wR_factor_gt 0.0755
_symmetry_cell_setting orthorhombic
_symmetry_space_group_name_H-M 'P 21 21 21'
_symmetry_Int_Tables_number 19
loop_
_symmetry_equiv_pos_site_id
_symmetry_equiv_pos_as_xyz
1 x,y,z
2 1/2-x,-y,1/2+z
3 1/2+x,1/2-y,-z
4 -x,1/2+y,1/2-z
_cell_length_a 13.272(2)
_cell_length_b 21.560(3)
_cell_length_c 22.970(2)
_cell_angle_alpha 90
_cell_angle_beta 90
_cell_angle_gamma 90
_cell_formula_units_Z 16
loop_
_atom_type_symbol
_atom_type_radius_bond
C 0.68
H 0.23
N 0.68
O 0.68
loop_
_atom_site_label
_atom_site_type_symbol
_atom_site_fract_x
_atom_site_fract_y
_atom_site_fract_z
O1 O 0.4212(3) 0.43052(18) -0.44944(15)
H1 H 0.45470 0.40800 -0.47070
O2 O 0.2226(3) 0.32917(18) -0.17215(15)
H2 H 0.23710 0.33610 -0.20620
N1 N 0.3912(3) 0.3977(2) -0.40003(18)
N2 N 0.4394(3) 0.3787(2) -0.03112(18)
N3 N 0.5929(3) 0.4005(2) 0.09917(19)
N4 N 0.6886(3) 0.3565(2) 0.36516(17)
C1 C 0.4422(4) 0.4870(3) -0.0706(2)
H3 H 0.47010 0.50110 -0.03340
N5 N 0.2980(3) 0.3530(2) -0.13586(18)
N6 N 0.6838(4) 0.3686(2) 0.21973(18)
C2 C 0.7045(4) 0.3373(2) 0.4165(2)
O3 O 0.7656(3) 0.33919(18) 0.32710(15)
H4 H 0.75200 0.35070 0.29400
N7 N 0.5588(3) 0.3823(2) 0.47396(18)
O4 O 0.5690(3) 0.4312(2) 0.04735(17)
H5 H 0.52510 0.41160 0.03020
C3 C 0.5232(4) 0.4228(3) 0.4268(2)
H6 H 0.45030 0.42060 0.42470
H7 H 0.54990 0.40820 0.39000
C4 C 0.6565(4) 0.4329(2) 0.1287(2)
C5 C 0.2931(4) 0.3290(2) -0.0852(2)
N8 N 0.2900(4) 0.3613(2) -0.28245(18)
C6 C 0.6960(4) 0.4152(2) 0.1872(2)
C7 C 0.3672(4) 0.3409(2) -0.0371(2)
C8 C 0.6781(4) 0.3080(2) 0.5150(2)
C9 C 0.6349(4) 0.3473(2) 0.4669(2)
C10 C 0.4281(5) 0.2907(3) -0.2540(2)
H8 H 0.38980 0.27920 -0.21910
C11 C 0.3320(4) 0.4298(2) -0.3690(2)
C12 C 0.2819(4) 0.5196(2) -0.3169(2)
C13 C 0.2221(4) 0.2920(3) 0.0029(2)
C14 C 0.7310(4) 0.2551(2) 0.4809(2)
C15 C 0.4701(4) 0.4193(3) -0.0782(2)
H9 H 0.43960 0.40430 -0.11390
H10 H 0.54270 0.41630 -0.08260
H11? H 0.43960 0.40430 -0.11390
H12? H 0.54270 0.41630 -0.08260
C16 C 0.5583(4) 0.2906(3) 0.2507(2)
H13 H 0.60550 0.27880 0.28160
C17 C 0.7019(4) 0.4938(2) 0.1141(2)
H14 H 0.70480 0.50340 0.07240
C18 C 0.8449(4) 0.3415(3) 0.4839(3)
H15 H 0.90770 0.32260 0.49620
H16 H 0.85910 0.38190 0.46710
C19 C 0.2238(4) 0.2785(2) -0.0632(2)
H17 H 0.15750 0.27640 -0.08190
C20 C 0.7713(4) 0.3465(3) 0.5352(2)
H18 H 0.75270 0.38940 0.54210
H19 H 0.79990 0.32950 0.57060
C21 C 0.8055(4) 0.4890(2) 0.1446(2)
C22 C 0.5537(4) 0.4900(3) 0.4353(3)
H20 H 0.53220 0.50340 0.47410
C23 C 0.3534(5) 0.3091(3) -0.3010(3)
H21 H 0.38980 0.32070 -0.33600
H22 H 0.31090 0.27390 -0.31040
C24 C 0.1720(5) 0.3527(3) 0.0176(3)
H23 H 0.20260 0.38550 -0.00450
H24 H 0.18030 0.36070 0.05840
H25 H 0.10150 0.35060 0.00850
C25 C 0.3377(4) 0.2932(2) 0.0091(2)
C26 C 0.1721(5) 0.2402(3) 0.0381(3)
H26 H 0.20310 0.20120 0.02870
H27 H 0.10170 0.23850 0.02870
H28 H 0.18010 0.24840 0.07890
C27 C 0.2291(5) 0.5820(3) -0.3134(3)
H29 H 0.16660 0.58010 -0.33440
H30 H 0.27140 0.61340 -0.33010
H31 H 0.21600 0.59180 -0.27340
C28 C 0.2832(4) 0.4097(2) -0.3126(2)
C29 C 0.7885(4) 0.2995(2) 0.4404(2)
H32 H 0.83090 0.27930 0.41110
C30 C 0.3311(4) 0.4976(3) -0.0707(3)
H33 H 0.30340 0.47860 -0.03600
H34 H 0.30110 0.47740 -0.10420
H35? H 0.30340 0.47860 -0.03600
H36? H 0.30110 0.47740 -0.10420
C31 C 0.2934(5) 0.4951(3) -0.3793(2)
H37 H 0.33550 0.52050 -0.40490
C32 C 0.2160(4) 0.4640(3) -0.2970(2)
C33 C 0.6674(5) 0.4992(3) 0.4309(4)
H38 H 0.69030 0.48250 0.39400
H39 H 0.70080 0.47640 0.46180
C34 C 0.6194(6) 0.3164(3) 0.2011(2)
H40 H 0.661(5) 0.284(3) 0.185(3)
H41 H 0.574(5) 0.330(3) 0.171(3)
C35 C 0.6468(4) 0.5410(3) 0.1517(3)
H42 H 0.57430 0.53710 0.14810
H43 H 0.66680 0.58280 0.14140
C36 C 0.7599(4) 0.4712(3) 0.2043(2)
C37 C 0.2874(5) 0.2194(3) -0.0673(3)
H44 H 0.31820 0.21560 -0.10550
H45 H 0.24770 0.18260 -0.05930
C38 C 0.3807(4) 0.5235(3) -0.2845(3)
H46 H 0.41440 0.48420 -0.28680
H47 H 0.36790 0.53350 -0.24440
H48 H 0.42240 0.55500 -0.30150
C39 C 0.6568(5) 0.2136(3) 0.4491(3)
H49 H 0.62310 0.18690 0.47630
H50 H 0.69240 0.18890 0.42100
H51 H 0.60800 0.23900 0.42940
C40 C 0.3682(5) 0.2307(2) -0.0196(3)
H52 H 0.43510 0.23350 -0.03640
H53 H 0.36730 0.19740 0.00880
C41 C 0.4861(5) 0.3375(3) 0.2750(3)
H54 H 0.44090 0.35090 0.24430
H55 H 0.52310 0.37350 0.28860
C42 C 0.5007(6) 0.5293(4) 0.3892(4)
H56 H 0.516(5) 0.513(3) 0.351(3)
H57 H 0.428(6) 0.527(3) 0.395(3)
C43 C 0.6826(5) 0.5240(3) 0.2133(3)
H58 H 0.62630 0.51050 0.23710
H59 H 0.71460 0.55920 0.23210
C44 C 0.8004(6) 0.2140(3) 0.5175(3)
H60 H 0.84740 0.23990 0.53800
H61 H 0.83650 0.18610 0.49260
H62 H 0.76150 0.19060 0.54510
C45 C 0.4983(5) 0.3418(4) -0.2387(3)
H63 H 0.45890 0.37550 -0.22250
H64 H 0.53080 0.35710 -0.27370
C46 C 0.6068(5) 0.2905(3) 0.5638(2)
H65 H 0.64190 0.26600 0.59220
H66 H 0.55150 0.26700 0.54830
H67 H 0.58160 0.32760 0.58180
C47 C 0.8317(6) 0.4609(4) 0.2543(3)
H68 H 0.86880 0.49840 0.26120
H69 H 0.87770 0.42800 0.24510
H70 H 0.79420 0.45020 0.28860
C48 C 0.8712(4) 0.4385(3) 0.1183(3)
H71 H 0.83470 0.40010 0.11770
H72 H 0.93110 0.43380 0.14130
H73 H 0.88940 0.44980 0.07920
C49 C 0.1775(6) 0.4649(3) -0.2356(3)
H74 H 0.13660 0.50110 -0.22960
H75 H 0.23370 0.46580 -0.20930
H76 H 0.13800 0.42840 -0.22840
C50 C 0.1846(5) 0.4863(3) -0.3995(3)
H77 H 0.17950 0.45560 -0.43020
H78 H 0.15640 0.52520 -0.41320
C51 C 0.3025(6) 0.5645(3) -0.0706(3)
H79 H 0.22990 0.56840 -0.07320
H80 H 0.32390 0.58350 -0.03440
H81? H 0.22990 0.56840 -0.07320
H82? H 0.32390 0.58350 -0.03440
C52 C 0.6448(7) 0.6032(3) 0.3861(3)
H83 H 0.66230 0.64680 0.38910
H84 H 0.66710 0.58830 0.34840
C53 C 0.5033(6) 0.2324(3) 0.2321(3)
H85 H 0.55100 0.20180 0.21810
H86 H 0.45830 0.24300 0.20040
C54 C 0.3837(5) 0.3036(3) 0.0685(2)
H87 H 0.36140 0.27160 0.09460
H88 H 0.36360 0.34340 0.08340
H89 H 0.45570 0.30220 0.06520
C55 C 0.3507(5) 0.5985(3) -0.1202(3)
H90 H 0.32470 0.58220 -0.15660
H91 H 0.33320 0.64210 -0.11810
H92? H 0.32470 0.58220 -0.15660
H93? H 0.33320 0.64210 -0.11810
C56 C 0.6959(6) 0.5675(3) 0.4343(4)
H94 H 0.67670 0.58390 0.47200
H95 H 0.76830 0.57170 0.43020
C57 C 0.4918(5) 0.5242(3) -0.1189(3)
H96 H 0.47350 0.50610 -0.15610
H97 H 0.56440 0.52130 -0.11510
C58 C 0.8649(4) 0.5486(3) 0.1450(3)
H98 H 0.82450 0.58100 0.16160
H99 H 0.88250 0.55940 0.10570
H100 H 0.92520 0.54360 0.16760
C59 C 0.4595(6) 0.5910(3) -0.1193(3)
H101 H 0.48610 0.61090 -0.08480
H102 H 0.48820 0.61140 -0.15310
H103? H 0.48610 0.61090 -0.08480
H104? H 0.48820 0.61140 -0.15310
C60 C 0.4873(6) 0.2337(3) -0.2744(3)
H105 H 0.44040 0.20000 -0.28110
H106 H 0.52070 0.24290 -0.31100
C61 C 0.1326(5) 0.4645(3) -0.3439(3)
H107 H 0.10460 0.42340 -0.34920
H108 H 0.07870 0.49270 -0.33310
C62 C 0.5329(7) 0.5967(4) 0.3912(4)
H109 H 0.501(6) 0.619(4) 0.360(3)
H110 H 0.511(6) 0.615(4) 0.428(4)
C63 C 0.4396(7) 0.2062(4) 0.2816(4)
H111 H 0.40240 0.17020 0.26820
H112 H 0.48500 0.19300 0.31220
C64 C 0.3688(7) 0.2538(7) 0.3056(4)
H113 H 0.333(7) 0.236(4) 0.339(4)
H114 H 0.319(7) 0.264(5) 0.276(4)
C65 C 0.5771(6) 0.3228(4) -0.1938(4)
H115 H 0.54600 0.31430 -0.15640
H116 H 0.62460 0.35660 -0.18860
C66 C 0.4236(6) 0.3121(6) 0.3247(4)
H117 H 0.467(7) 0.303(4) 0.357(4)
H118 H 0.375(7) 0.343(4) 0.337(4)
C67 C 0.5643(8) 0.2139(5) -0.2302(4)
H119 H 0.60210 0.17910 -0.24550
H120 H 0.53040 0.20030 -0.19500
C68 C 0.6340(7) 0.2657(6) -0.2156(4)
H121 H 0.67310 0.27630 -0.24980
H122 H 0.68040 0.25180 -0.18560
#END
