
#######################################################################
#
#                 Cambridge Crystallographic Data Centre
#                                CCDC
#
#######################################################################
#
# If this CIF has been generated from an entry in the Cambridge
# Structural Database, then it will include bibliographic, chemical,
# crystal, experimental, refinement or atomic coordinate data resulting
# from the CCDC's data processing and validation procedures.
#
#######################################################################

data_CSD_CIF_YOMWAA
_audit_creation_date 2014-08-26
_audit_creation_method CSD-ConQuest-V1
_database_code_CSD YOMWAA
_database_code_depnum_ccdc_archive 'CCDC 987516'
_chemical_formula_sum 'C11 H12 N2 O2'
_chemical_formula_moiety
;
C11 H12 N2 O2
;
_journal_coden_Cambridge 182
_journal_volume 50
_journal_year 2014
_journal_page_first 11822
_journal_name_full 'Chem.Commun. '
loop_
_publ_author_name
"S.Wiechmann"
"T.Freese"
"M.H.H.Drafz"
"E.G.Hubner"
"J.C.Namyslo"
"M.Nieger"
"A.Schmidt"
_chemical_name_systematic
;
3-Mesityl-1,2,3-oxadiazol-3-ium-5-olate
;
_cell_volume    512.871
_exptl_crystal_colour 'colorless'
_exptl_crystal_density_diffrn 1.322
_exptl_crystal_description 'blocks'
_diffrn_ambient_temperature 123
#These two values have been output from a single CSD field.
_refine_ls_R_factor_gt 0.0494
_refine_ls_wR_factor_gt 0.0494
_symmetry_cell_setting triclinic
_symmetry_space_group_name_H-M 'P -1'
_symmetry_Int_Tables_number 2
loop_
_symmetry_equiv_pos_site_id
_symmetry_equiv_pos_as_xyz
1 x,y,z
2 -x,-y,-z
_cell_length_a 7.423(1)
_cell_length_b 8.934(2)
_cell_length_c 9.001(2)
_cell_angle_alpha 118.77(1)
_cell_angle_beta 97.71(1)
_cell_angle_gamma 93.62(1)
_cell_formula_units_Z 2
loop_
_atom_type_symbol
_atom_type_radius_bond
C 0.68
H 0.23
N 0.68
O 0.68
loop_
_atom_site_label
_atom_site_type_symbol
_atom_site_fract_x
_atom_site_fract_y
_atom_site_fract_z
O1 O 0.09931(13) -0.02430(12) 0.14908(13)
N1 N 0.07280(16) 0.14583(15) 0.23446(16)
N2 N 0.21619(15) 0.22844(15) 0.21963(14)
C1 C 0.33387(18) 0.12822(17) 0.13106(17)
H1 H 0.44360 0.16510 0.10680
C2 C 0.26288(18) -0.04205(18) 0.08123(17)
O2 O 0.30877(14) -0.18438(13) 0.00302(13)
C3 C 0.23405(18) 0.41559(17) 0.30634(17)
C4 C 0.23630(19) 0.49744(18) 0.20754(18)
C5 C 0.25044(19) 0.67699(18) 0.29566(19)
H2 H 0.25310 0.73670 0.23240
C6 C 0.26071(19) 0.77127(18) 0.47327(19)
C7 C 0.26085(18) 0.68288(18) 0.56561(18)
H3 H 0.26920 0.74690 0.68710
C8 C 0.24920(17) 0.50461(18) 0.48598(17)
C9 C 0.2561(2) 0.41605(19) 0.59279(18)
H4 H 0.29860 0.50200 0.71480
H5 H 0.34110 0.33100 0.55570
H6 H 0.13310 0.35770 0.57720
C10 C 0.2706(2) 0.96498(19) 0.5657(2)
H7 H 0.15920 0.99670 0.61390
H8 H 0.28050 1.00680 0.48400
H9 H 0.37850 1.01730 0.65910
C11 C 0.2255(2) 0.4013(2) 0.01465(19)
H10 H 0.19660 0.47790 -0.03190
H11 H 0.12910 0.30080 -0.03820
H12 H 0.34390 0.36270 -0.01110
#END
