
#######################################################################
#
#                 Cambridge Crystallographic Data Centre
#                                CCDC
#
#######################################################################
#
# If this CIF has been generated from an entry in the Cambridge
# Structural Database, then it will include bibliographic, chemical,
# crystal, experimental, refinement or atomic coordinate data resulting
# from the CCDC's data processing and validation procedures.
#
#######################################################################

data_CSD_CIF_YOMYUU01
_audit_creation_date 1998-02-12
_audit_creation_method CSD-ConQuest-V1
_database_code_CSD YOMYUU01
_chemical_formula_sum 'C13 H17 N2 O4'
_chemical_formula_moiety
;
C13 H17 N2 O4
;
_journal_coden_Cambridge 4
_journal_volume 119
_journal_year 1997
_journal_page_first 4369
_journal_name_full 'J.Am.Chem.Soc. '
loop_
_publ_author_name
"M.M.Matsushita"
"A.Izuoka"
"T.Sugawara"
"T.Kobayashi"
"N.Wada"
"N.Takeda"
"M.Ishikawa"
_chemical_name_systematic
;
2-(3',5'-Dihydroxyphenyl)-4,4,5,5-tetramethyl-4,5-dihydro-1H-imidazolyl-1-oxyl
-3-oxide
;
_chemical_melting_point 348.15
_cell_volume   1293.343
_exptl_crystal_colour 'blue'
_exptl_crystal_density_diffrn 1.366
_exptl_crystal_description 'plate'
_diffrn_ambient_temperature ?
_diffrn_special_details
;
The study was carried out at room temperature,in the range 283-303K

;
#These two values have been output from a single CSD field.
_refine_ls_R_factor_gt 0.047
_refine_ls_wR_factor_gt 0.047
_symmetry_cell_setting monoclinic
_symmetry_space_group_name_H-M 'P 21/n'
_symmetry_Int_Tables_number 14
loop_
_symmetry_equiv_pos_site_id
_symmetry_equiv_pos_as_xyz
1 x,y,z
2 1/2-x,1/2+y,1/2-z
3 -x,-y,-z
4 -1/2+x,-1/2-y,-1/2+z
_cell_length_a 9.817(2)
_cell_length_b 19.817(4)
_cell_length_c 6.993(1)
_cell_angle_alpha 90
_cell_angle_beta 108.07(1)
_cell_angle_gamma 90
_cell_formula_units_Z 4
loop_
_atom_type_symbol
_atom_type_radius_bond
C 0.68
H 0.23
N 0.68
O 0.68
loop_
_atom_site_label
_atom_site_type_symbol
_atom_site_fract_x
_atom_site_fract_y
_atom_site_fract_z
O1 O 0.8878(2) 0.4142(1) 0.0317(2)
O2 O 0.4911(2) 0.4440(1) 0.2457(3)
N1 N 0.7673(2) 0.4052(1) 0.0629(2)
N2 N 0.5828(2) 0.4174(1) 0.1708(2)
C1 C 0.7106(2) 0.4446(1) 0.1767(3)
C2 C 0.6661(2) 0.3511(1) -0.0462(3)
C3 C 0.5642(2) 0.3472(1) 0.0850(3)
C4 C 0.5942(2) 0.3790(1) -0.2568(3)
C5 C 0.7477(3) 0.2869(1) -0.0551(4)
C6 C 0.6168(3) 0.2995(1) 0.2650(4)
C7 C 0.4088(2) 0.3334(1) -0.0314(4)
O3 O 0.7660(2) 0.6061(1) 0.7236(2)
O4 O 1.0542(2) 0.6302(1) 0.3063(3)
C8 C 0.7771(2) 0.5046(1) 0.2897(3)
C9 C 0.8836(2) 0.5392(1) 0.2355(3)
C10 C 0.9487(2) 0.5942(1) 0.3490(3)
C11 C 0.9096(2) 0.6154(1) 0.5135(3)
C12 C 0.8021(2) 0.5815(1) 0.5636(3)
C13 C 0.7354(2) 0.5261(1) 0.4543(3)
H1 H 0.912(2) 0.525(1) 0.121(3)
H2 H 0.954(2) 0.652(1) 0.593(3)
H3 H 0.662(2) 0.504(1) 0.492(3)
H4 H 0.525(3) 0.347(1) -0.333(4)
H5 H 0.670(3) 0.386(1) -0.322(4)
H6 H 0.534(3) 0.423(1) -0.255(4)
H7 H 0.811(3) 0.295(1) -0.137(4)
H8 H 0.683(3) 0.251(1) -0.104(4)
H9 H 0.812(3) 0.271(1) 0.090(5)
H10 H 0.615(3) 0.251(1) 0.226(4)
H11 H 0.719(3) 0.306(1) 0.347(4)
H12 H 0.553(3) 0.303(1) 0.346(4)
H13 H 0.404(3) 0.293(1) -0.104(4)
H14 H 0.358(3) 0.329(1) 0.066(4)
H15 H 0.365(3) 0.371(1) -0.133(4)
H16 H 1.067(3) 0.615(2) 0.191(5)
H17 H 0.684(3) 0.588(1) 0.729(4)
#END
