
#######################################################################
#
#                 Cambridge Crystallographic Data Centre
#                                CCDC
#
#######################################################################
#
# If this CIF has been generated from an entry in the Cambridge
# Structural Database, then it will include bibliographic, chemical,
# crystal, experimental, refinement or atomic coordinate data resulting
# from the CCDC's data processing and validation procedures.
#
#######################################################################

data_CSD_CIF_YONDOV
_audit_creation_date 2009-08-17
_audit_creation_method CSD-ConQuest-V1
_database_code_CSD YONDOV
_database_code_depnum_ccdc_archive 'CCDC 694744'
_chemical_formula_sum 'C13 H16 N2 O4'
_chemical_formula_moiety
;
C13 H16 N2 O4
;
_journal_coden_Cambridge 644
_journal_volume 63
_journal_year 2008
_journal_page_first 1402
_journal_name_full 'Z.Naturforsch.,B:Chem.Sci. '
loop_
_publ_author_name
"M.Simon"
"C.Csunderlik"
"P.G.Jones"
_chemical_name_systematic
;
2-Nitrophenyl cyclohexylcarbamate
;
_cell_volume   2629.912
_exptl_crystal_colour 'colorless'
_exptl_crystal_density_diffrn 1.335
_exptl_crystal_description 'lath'
_exptl_crystal_preparation 'toluene'
_diffrn_ambient_temperature 133
#These two values have been output from a single CSD field.
_refine_ls_R_factor_gt 0.0338
_refine_ls_wR_factor_gt 0.0338
_symmetry_cell_setting monoclinic
_symmetry_space_group_name_H-M 'P 21'
_symmetry_Int_Tables_number 4
loop_
_symmetry_equiv_pos_site_id
_symmetry_equiv_pos_as_xyz
1 x,y,z
2 -x,1/2+y,-z
_cell_length_a 13.6763(12)
_cell_length_b 9.2727(8)
_cell_length_c 20.795(2)
_cell_angle_alpha 90
_cell_angle_beta 94.244(4)
_cell_angle_gamma 90
_cell_formula_units_Z 8
loop_
_atom_type_symbol
_atom_type_radius_bond
C 0.68
H 0.23
N 0.68
O 0.68
loop_
_atom_site_label
_atom_site_type_symbol
_atom_site_fract_x
_atom_site_fract_y
_atom_site_fract_z
C1 C 0.54460(12) 0.66651(18) 0.48399(8)
C2 C 0.66306(12) 0.62519(17) 0.40880(8)
C3 C 0.62976(11) 0.69532(17) 0.35237(8)
C4 C 0.69410(12) 0.74591(19) 0.30904(8)
H1 H 0.67020 0.79550 0.27110
C5 C 0.79381(12) 0.7231(2) 0.32188(8)
H2 H 0.83860 0.75560 0.29220
C6 C 0.82824(13) 0.6530(2) 0.37797(9)
H3 H 0.89660 0.63750 0.38660
C7 C 0.76322(12) 0.6056(2) 0.42141(8)
H4 H 0.78740 0.55940 0.46010
C8 C 0.42818(12) 0.67433(19) 0.56787(8)
H5 H 0.41100 0.77170 0.54970
C9 C 0.33346(12) 0.5904(2) 0.57473(9)
H6 H 0.34950 0.49070 0.58890
H7 H 0.29560 0.58530 0.53230
C10 C 0.27107(14) 0.6626(2) 0.62362(10)
H8 H 0.24850 0.75780 0.60690
H9 H 0.21240 0.60270 0.62930
C11 C 0.32825(16) 0.6824(2) 0.68840(9)
H10 H 0.34550 0.58680 0.70720
H11 H 0.28690 0.73330 0.71830
C12 C 0.42157(15) 0.7687(2) 0.68103(9)
H12 H 0.45900 0.77760 0.72350
H13 H 0.40430 0.86690 0.66530
C13 C 0.48476(13) 0.6939(2) 0.63338(8)
H14 H 0.54430 0.75230 0.62810
H15 H 0.50580 0.59850 0.65070
N1 N 0.48788(11) 0.59817(16) 0.52260(7)
H16 H 0.4925(15) 0.5044(17) 0.5254(9)
N2 N 0.52479(10) 0.71882(17) 0.33593(7)
O1 O 0.55034(9) 0.79562(13) 0.47441(6)
O2 O 0.60221(9) 0.56914(12) 0.45320(6)
O3 O 0.46665(9) 0.62715(15) 0.35209(6)
O4 O 0.50092(9) 0.82844(15) 0.30570(6)
C14 C 0.96459(12) 0.52389(19) 0.01550(8)
C15 C 0.85556(12) 0.55285(17) 0.09659(8)
C16 C 0.88083(12) 0.51440(19) 0.16018(8)
C17 C 0.81156(13) 0.4647(2) 0.20028(8)
H17 H 0.83000 0.44030 0.24390
C18 C 0.71559(13) 0.4511(2) 0.17582(9)
H18 H 0.66740 0.41570 0.20240
C19 C 0.68939(13) 0.4892(2) 0.11229(9)
H19 H 0.62320 0.47950 0.09550
C20 C 0.75904(13) 0.5411(2) 0.07317(8)
H20 H 0.74020 0.56880 0.03000
C21 C 1.08212(12) 0.52330(19) -0.06698(8)
H21 H 1.08880 0.41850 -0.05630
C22 C 1.18464(13) 0.5873(2) -0.06865(9)
H22 H 1.22130 0.57360 -0.02620
H23 H 1.17970 0.69210 -0.07730
C23 C 1.24002(14) 0.5143(3) -0.12123(11)
H24 H 1.30480 0.56100 -0.12340
H25 H 1.25120 0.41160 -0.10990
C24 C 1.18322(16) 0.5244(2) -0.18676(10)
H26 H 1.17870 0.62660 -0.20040
H27 H 1.21870 0.47090 -0.21900
C25 C 1.08097(15) 0.4626(2) -0.18438(9)
H28 H 1.08550 0.35810 -0.17500
H29 H 1.04440 0.47510 -0.22690
C26 C 1.02546(13) 0.5373(2) -0.13263(8)
H30 H 1.01650 0.64060 -0.14360
H31 H 0.95980 0.49310 -0.13100
N3 N 1.03057(11) 0.59369(17) -0.01629(7)
H32 H 1.0356(14) 0.6848(17) -0.0108(9)
N4 N 0.98255(10) 0.52669(17) 0.18644(7)
O5 O 0.93865(9) 0.39934(13) 0.00951(6)
O6 O 0.92450(9) 0.61536(13) 0.05952(6)
O7 O 1.04702(9) 0.47876(17) 0.15417(7)
O8 O 0.99784(9) 0.58213(15) 0.23999(6)
C27 C 0.47798(12) 0.7447(2) 0.01775(8)
C28 C 0.35648(13) 0.78832(18) 0.09005(8)
C29 C 0.39155(12) 0.7307(2) 0.14905(8)
C30 C 0.32833(13) 0.6846(2) 0.19392(8)
H33 H 0.35360 0.64560 0.23400
C31 C 0.22803(13) 0.6959(2) 0.17981(9)
H34 H 0.18400 0.66570 0.21040
C32 C 0.19232(13) 0.7515(2) 0.12081(9)
H35 H 0.12350 0.75820 0.11090
C33 C 0.25594(13) 0.7975(2) 0.07615(8)
H36 H 0.23060 0.83550 0.03590
C34 C 0.60059(13) 0.7377(2) -0.06253(8)
H37 H 0.61000 0.63720 -0.04570
C35 C 0.69979(14) 0.8136(2) -0.05707(10)
H38 H 0.69120 0.91520 -0.07100
H39 H 0.72630 0.81330 -0.01150
C36 C 0.77242(16) 0.7396(3) -0.09847(12)
H40 H 0.83490 0.79380 -0.09570
H41 H 0.78600 0.64090 -0.08200
C37 C 0.7318(2) 0.7318(3) -0.16804(12)
H42 H 0.77840 0.67870 -0.19360
H43 H 0.72480 0.83060 -0.18580
C38 C 0.6329(2) 0.6567(3) -0.17416(10)
H44 H 0.64140 0.55460 -0.16100
H45 H 0.60670 0.65850 -0.21980
C39 C 0.55932(16) 0.7291(3) -0.13236(9)
H46 H 0.54440 0.82740 -0.14880
H47 H 0.49750 0.67320 -0.13490
N5 N 0.53305(11) 0.81233(17) -0.02266(7)
H48 H 0.5315(13) 0.9072(17) -0.0239(9)
N6 N 0.49683(11) 0.71697(18) 0.16725(7)
O9 O 0.47696(10) 0.61738(13) 0.03117(6)
O10 O 0.41584(9) 0.84201(13) 0.04445(6)
O11 O 0.55225(10) 0.80945(19) 0.14914(7)
O12 O 0.52305(10) 0.61370(17) 0.20109(6)
C40 C 0.01426(14) 0.36999(19) 0.49170(9)
C41 C 0.13192(12) 0.33085(18) 0.41741(8)
C42 C 0.10788(12) 0.34516(18) 0.35151(8)
C43 C 0.17695(12) 0.3894(2) 0.31032(8)
H49 H 0.16040 0.39540 0.26520
C44 C 0.27022(13) 0.4247(2) 0.33543(9)
H50 H 0.31790 0.45670 0.30760
C45 C 0.29448(13) 0.4134(2) 0.40141(9)
H51 H 0.35820 0.44010 0.41870
C46 C 0.22593(13) 0.36345(19) 0.44194(8)
H52 H 0.24360 0.35160 0.48670
C47 C -0.11301(12) 0.37719(18) 0.56836(8)
H53 H -0.11160 0.48230 0.55770
C48 C -0.21826(13) 0.3241(2) 0.55604(8)
H54 H -0.24050 0.34010 0.51020
H55 H -0.22080 0.21920 0.56470
C49 C -0.28668(13) 0.4024(2) 0.59874(9)
H56 H -0.35390 0.36360 0.59090
H57 H -0.28830 0.50630 0.58770
C50 C -0.25247(13) 0.3839(2) 0.66954(9)
H58 H -0.25710 0.28090 0.68150
H59 H -0.29590 0.43950 0.69640
C51 C -0.14727(14) 0.4352(2) 0.68307(9)
H60 H -0.12560 0.41580 0.72870
H61 H -0.14420 0.54060 0.67600
C52 C -0.07821(13) 0.3592(2) 0.63937(8)
H62 H -0.01140 0.39970 0.64700
H63 H -0.07500 0.25520 0.65020
N7 N -0.04914(12) 0.30187(17) 0.52618(7)
H64 H -0.0524(14) 0.2095(17) 0.5247(10)
N8 N 0.00893(11) 0.31275(17) 0.32370(7)
O13 O 0.02955(12) 0.49767(15) 0.48893(8)
O14 O 0.06588(9) 0.27142(12) 0.45740(6)
O15 O -0.06095(9) 0.34535(18) 0.35443(7)
O16 O 0.00114(10) 0.25810(16) 0.26975(7)
#END
