
#######################################################################
#
#                 Cambridge Crystallographic Data Centre
#                                CCDC
#
#######################################################################
#
# If this CIF has been generated from an entry in the Cambridge
# Structural Database, then it will include bibliographic, chemical,
# crystal, experimental, refinement or atomic coordinate data resulting
# from the CCDC's data processing and validation procedures.
#
#######################################################################

data_CSD_CIF_YONDIP
_audit_creation_date 2009-08-17
_audit_creation_method CSD-ConQuest-V1
_database_code_CSD YONDIP
_database_code_depnum_ccdc_archive 'CCDC 694743'
_chemical_formula_sum 'C10 H12 N2 O4'
_chemical_formula_moiety
;
C10 H12 N2 O4
;
_journal_coden_Cambridge 644
_journal_volume 63
_journal_year 2008
_journal_page_first 1402
_journal_name_full 'Z.Naturforsch.,B:Chem.Sci. '
loop_
_publ_author_name
"M.Simon"
"C.Csunderlik"
"P.G.Jones"
_chemical_name_systematic
;
2-Nitrophenyl isopropylcarbamate
;
_cell_volume   2239.212
_exptl_crystal_colour 'colorless'
_exptl_crystal_density_diffrn 1.33
_exptl_crystal_description 'tablet'
_exptl_crystal_preparation 'dichloromethane/n-heptane'
_diffrn_ambient_temperature 133
#These two values have been output from a single CSD field.
_refine_ls_R_factor_gt 0.0371
_refine_ls_wR_factor_gt 0.0371
_symmetry_cell_setting monoclinic
_symmetry_space_group_name_H-M 'P 21/c'
_symmetry_Int_Tables_number 14
loop_
_symmetry_equiv_pos_site_id
_symmetry_equiv_pos_as_xyz
1 x,y,z
2 -x,1/2+y,1/2-z
3 -x,-y,-z
4 x,-1/2-y,-1/2+z
_cell_length_a 19.704(2)
_cell_length_b 12.6758(12)
_cell_length_c 8.9795(8)
_cell_angle_alpha 90
_cell_angle_beta 93.221(4)
_cell_angle_gamma 90
_cell_formula_units_Z 8
loop_
_atom_type_symbol
_atom_type_radius_bond
C 0.68
H 0.23
N 0.68
O 0.68
loop_
_atom_site_label
_atom_site_type_symbol
_atom_site_fract_x
_atom_site_fract_y
_atom_site_fract_z
C1 C 0.26296(6) 0.51649(10) 0.43113(13)
C2 C 0.18070(7) 0.64981(10) 0.49672(14)
H1 H 0.20560 0.69420 0.42560
C3 C 0.11175(7) 0.62236(13) 0.42300(18)
H2 H 0.11800 0.58210 0.33160
H3 H 0.08670 0.68740 0.39830
H4 H 0.08610 0.57980 0.49150
C4 C 0.17508(10) 0.71191(13) 0.63928(17)
H5 H 0.15250 0.66880 0.71230
H6 H 0.14850 0.77610 0.61830
H7 H 0.22060 0.73120 0.67960
C5 C 0.33485(6) 0.3703(1) 0.39554(13)
C6 C 0.39914(6) 0.41266(10) 0.38064(13)
C7 C 0.44769(7) 0.35967(10) 0.30430(14)
H8 H 0.49130 0.39000 0.29420
C8 C 0.43210(8) 0.26172(11) 0.24267(15)
H9 H 0.46510 0.22420 0.19070
C9 C 0.36838(8) 0.21905(11) 0.25715(15)
H10 H 0.35780 0.15190 0.21500
C10 C 0.31997(7) 0.2729(1) 0.33219(14)
H11 H 0.27610 0.24300 0.34040
N1 N 0.22037(5) 0.55408(9) 0.52713(12)
H12 H 0.2168(7) 0.5192(12) 0.6098(17)
N2 N 0.41837(5) 0.51458(8) 0.44807(11)
O1 O 0.28102(4) 0.55818(7) 0.31851(9)
O2 O 0.28519(4) 0.41726(7) 0.47586(9)
O3 O 0.45846(5) 0.56955(7) 0.38275(11)
O4 O 0.39480(5) 0.53873(7) 0.56684(10)
C11 C 0.23351(7) 0.47352(11) 0.94470(14)
C12 C 0.33891(6) 0.57417(11) 0.92209(15)
H13 H 0.32970 0.55860 0.81370
C13 C 0.34656(9) 0.69200(13) 0.9411(2)
H14 H 0.30570 0.72730 0.89850
H15 H 0.38630 0.71620 0.88960
H16 H 0.35270 0.70900 1.04750
C14 C 0.40352(8) 0.51847(13) 0.97499(17)
H17 H 0.41550 0.53830 1.07860
H18 H 0.44030 0.53890 0.91190
H19 H 0.39660 0.44200 0.96880
C15 C 0.14437(6) 0.36295(11) 1.00992(14)
C16 C 0.08622(7) 0.38860(11) 0.92372(15)
C17 C 0.03986(7) 0.31122(14) 0.87966(17)
H20 H 0.00050 0.32860 0.81860
C18 C 0.05125(9) 0.20863(14) 0.9252(2)
H21 H 0.01990 0.15480 0.89490
C19 C 0.10773(9) 0.18422(13) 1.0139(2)
H22 H 0.11470 0.11380 1.04760
C20 C 0.15415(8) 0.26024(13) 1.05439(18)
H23 H 0.19370 0.24190 1.11410
N3 N 0.28171(6) 0.53557(11) 1.00324(14)
H24 H 0.2816(8) 0.5439(12) 1.0935(18)
N4 N 0.07244(7) 0.49682(12) 0.87589(17)
O5 O 0.22271(4) 0.44868(7) 0.81497(9)
O6 O 0.19386(5) 0.43540(9) 1.0551(1)
O7 O 0.03983(7) 0.50807(13) 0.75592(18)
O8 O 0.09372(9) 0.56883(10) 0.95416(18)
#END
