
#######################################################################
#
#                 Cambridge Crystallographic Data Centre
#                                CCDC
#
#######################################################################
#
# If this CIF has been generated from an entry in the Cambridge
# Structural Database, then it will include bibliographic, chemical,
# crystal, experimental, refinement or atomic coordinate data resulting
# from the CCDC's data processing and validation procedures.
#
#######################################################################

data_CSD_CIF_YONJIU01
_audit_creation_date 1998-04-30
_audit_creation_method CSD-ConQuest-V1
_database_code_CSD YONJIU01
_chemical_formula_sum 'C26 H31 N1 O3'
_chemical_formula_moiety
;
C26 H31 N1 O3
;
_journal_coden_Cambridge 35
_journal_volume 62
_journal_year 1997
_journal_page_first 4610
_journal_name_full 'J.Org.Chem. '
loop_
_publ_author_name
"S.E.Denmark"
"V.Guagnano"
"J.A.Dixon"
"A.Stolle"
_chemical_name_systematic
;
(1R*,6R*,7S*,8S*)-3-Aza-7-methyl-2,4-dioxa-8-phenyl-1-((1S,2R)-(2-phenylcycloh
exyl)oxy)tricyclo(4.3.1.0^3,7^)decane
;
_chemical_melting_point 411.15
_cell_volume   1086.727
_exptl_crystal_colour 'white'
_exptl_crystal_density_diffrn 1.239
_exptl_special_details
;
Melting point range 411.15-412.15K

;
_exptl_crystal_preparation 'hexane/ethyl acetate'
_diffrn_ambient_temperature 198
#These two values have been output from a single CSD field.
_refine_ls_R_factor_gt 0.0614
_refine_ls_wR_factor_gt 0.0614
_symmetry_cell_setting triclinic
_symmetry_space_group_name_H-M 'P -1'
_symmetry_Int_Tables_number 2
loop_
_symmetry_equiv_pos_site_id
_symmetry_equiv_pos_as_xyz
1 x,y,z
2 -x,-y,-z
_cell_length_a 5.648(2)
_cell_length_b 10.118(3)
_cell_length_c 19.990(5)
_cell_angle_alpha 78.43(2)
_cell_angle_beta 87.59(2)
_cell_angle_gamma 76.18(2)
_cell_formula_units_Z 2
loop_
_atom_type_symbol
_atom_type_radius_bond
C 0.68
H 0.23
N 0.68
O 0.68
loop_
_atom_site_label
_atom_site_type_symbol
_atom_site_fract_x
_atom_site_fract_y
_atom_site_fract_z
N1 N 0.3632(6) -0.0622(3) 0.8859(2)
O1 O 0.4523(6) 0.0296(3) 0.9189(1)
C1 C 0.7165(8) 0.0021(5) 0.9134(2)
C2 C 0.7826(7) -0.1082(4) 0.8704(2)
C3 C 0.7583(7) -0.0433(4) 0.7934(2)
C4 C 0.5116(7) -0.0433(4) 0.7679(2)
C5 C 0.4897(7) -0.1884(4) 0.7669(2)
C6 C 0.5370(7) -0.2758(4) 0.8402(2)
C7 C 0.5776(7) -0.1843(4) 0.8895(2)
O2 O 0.3232(5) 0.0110(3) 0.8139(1)
O3 O 0.4724(5) 0.0470(3) 0.7036(1)
C8 C 0.2247(7) 0.1032(4) 0.6779(2)
C9 C 0.1593(8) 0.2558(4) 0.6823(2)
C10 C -0.0903(8) 0.3301(4) 0.6507(2)
C11 C -0.0951(8) 0.3151(4) 0.5762(2)
C12 C -0.0336(8) 0.1620(4) 0.5716(2)
C13 C 0.2131(7) 0.0813(4) 0.6043(2)
C14 C 0.2643(7) -0.0708(4) 0.6013(2)
C15 C 0.0975(8) -0.1497(4) 0.6258(2)
C16 C 0.1464(8) -0.2907(4) 0.6260(2)
C17 C 0.3636(9) -0.3547(5) 0.5999(2)
C18 C 0.5300(8) -0.2787(5) 0.5743(2)
C19 C 0.4815(7) -0.1372(4) 0.5749(2)
C20 C 0.7430(8) -0.4056(4) 0.8453(2)
C21 C 0.9590(8) -0.4050(4) 0.8089(2)
C22 C 1.1476(8) -0.5232(5) 0.8153(2)
C23 C 1.1218(10) -0.6436(5) 0.8600(3)
C24 C 0.9106(10) -0.6449(5) 0.8966(2)
C25 C 0.7233(9) -0.5278(4) 0.8890(2)
C26 C 0.5943(8) -0.2616(4) 0.9639(2)
H1 H 0.7943(8) 0.0319(5) 0.9591(2)
H2 H 0.7686(8) 0.0870(5) 0.8911(2)
H3 H 0.9473(7) -0.1707(4) 0.8824(2)
H4 H 0.7789(7) 0.0530(4) 0.7858(2)
H5 H 0.8872(7) -0.0973(4) 0.7679(2)
H6 H 0.6104(7) -0.2300(4) 0.7351(2)
H7 H 0.3246(7) -0.1864(4) 0.7513(2)
H8 H 0.3848(7) -0.3073(4) 0.8550(2)
H9 H 0.1119(7) 0.0543(4) 0.7074(2)
H10 H 0.2846(8) 0.3012(4) 0.6583(2)
H11 H 0.1591(8) 0.2642(4) 0.7308(2)
H12 H -0.1247(8) 0.4296(4) 0.6531(2)
H13 H -0.2180(8) 0.2897(4) 0.6766(2)
H14 H -0.2589(8) 0.3607(4) 0.5564(2)
H15 H 0.0247(8) 0.3613(4) 0.5496(2)
H16 H -0.0315(8) 0.1545(4) 0.5229(2)
H17 H -0.1633(8) 0.1188(4) 0.5944(2)
H18 H 0.3428(7) 0.1205(4) 0.5777(2)
H19 H -0.0541(8) -0.1059(4) 0.6430(2)
H20 H 0.0308(8) -0.3428(4) 0.6439(2)
H21 H 0.3981(9) -0.4513(5) 0.5997(2)
H22 H 0.6792(8) -0.3227(5) 0.5560(2)
H23 H 0.5983(7) -0.0857(4) 0.5571(2)
H24 H 0.9773(8) -0.3222(4) 0.7792(2)
H25 H 1.2925(8) -0.5222(5) 0.7895(2)
H26 H 1.2504(10) -0.7249(5) 0.8653(3)
H27 H 0.894(1) -0.7270(5) 0.9273(2)
H28 H 0.5774(9) -0.5305(4) 0.9142(2)
H29 H 0.7466(20) -0.3337(14) 0.9710(3)
H30 H 0.4555(23) -0.3047(19) 0.9742(4)
H31 H 0.5915(40) -0.1961(6) 0.9941(2)
#END
