
#######################################################################
#
#                 Cambridge Crystallographic Data Centre
#                                CCDC
#
#######################################################################
#
# If this CIF has been generated from an entry in the Cambridge
# Structural Database, then it will include bibliographic, chemical,
# crystal, experimental, refinement or atomic coordinate data resulting
# from the CCDC's data processing and validation procedures.
#
#######################################################################

data_CSD_CIF_YONJIU
_audit_creation_date 1996-01-18
_audit_creation_method CSD-ConQuest-V1
_database_code_CSD YONJIU
_chemical_formula_sum 'C26 H31 N1 O3'
_chemical_formula_moiety
;
C26 H31 N1 O3
;
_journal_coden_Cambridge 4
_journal_volume 117
_journal_year 1995
_journal_page_first 2100
_journal_name_full 'J.Am.Chem.Soc. '
loop_
_publ_author_name
"S.E.Denmark"
"A.Stolle"
"J.A.Dixon"
"V.Guagnano"
_chemical_name_systematic
;
rel-(4R,6R,8S,9S)-1-aza-2,10-dioxa-6-((1R,2S)-2-(phenylcyclohexyl)oxy)-9-methy
l-8-phenyltricyclo(4.3.1.0^4,9^)decane
;
_chemical_melting_point 411.15
_cell_volume   1086.727
_exptl_crystal_colour 'white'
_exptl_special_details
;
Melting point range 411.15-412.15K
Cell angles supplied by the author

;
_diffrn_ambient_temperature ?
_diffrn_special_details
;
The study was carried out at room temperature,in the range 283-303K

;
#These two values have been output from a single CSD field.
_refine_ls_R_factor_gt 0.061
_refine_ls_wR_factor_gt 0.061
_symmetry_cell_setting triclinic
_symmetry_space_group_name_H-M 'P -1'
_symmetry_Int_Tables_number 2
loop_
_symmetry_equiv_pos_site_id
_symmetry_equiv_pos_as_xyz
1 x,y,z
2 -x,-y,-z
_cell_length_a 5.648
_cell_length_b 10.118
_cell_length_c 19.99
_cell_angle_alpha 78.43
_cell_angle_beta 87.59
_cell_angle_gamma 76.18
_cell_formula_units_Z 2
loop_
_atom_type_symbol
_atom_type_radius_bond
C 0.68
H 0.23
N 0.68
O 0.68
loop_
_atom_site_label
_atom_site_type_symbol
_atom_site_fract_x
_atom_site_fract_y
_atom_site_fract_z
N1 N 0.3632(6) -0.0622(3) -0.1186(3)
O1 O 0.4523(6) 0.0296(3) -0.0811(1)
C1 C 0.7165(8) 0.0021(5) -0.0866(2)
H1 H 0.79430 -0.03200 -0.04090
H2 H 0.76860 0.08700 -0.10890
C2 C 0.7826(7) -0.1082(4) -0.1296(2)
H3 H 0.94730 -0.17070 -0.11760
C3 C 0.7583(7) -0.0778(4) -0.2066(2)
H4? H 0.77890 -0.05300 -0.21420
H5? H 0.88720 0.09740 -0.23210
C4 C 0.5116(7) -0.0433(4) -0.2321(2)
C5 C 0.4898(7) -0.1884(4) -0.2331(2)
H6 H 0.61040 -0.23000 -0.26490
H7 H 0.32460 -0.18640 -0.24870
C6 C 0.5370(7) -0.2758(4) -0.1598(2)
H8 H 0.38480 -0.30730 -0.14500
C7 C 0.5776(7) -0.1844(4) -0.1105(2)
O2 O 0.3232(5) 0.0110(3) -0.1861(1)
O3 O 0.4724(5) 0.0470(3) -0.2964(1)
C8 C 0.2248(7) 0.1032(4) -0.3220(2)
H9 H 0.11190 0.05430 -0.29260
C9 C 0.1593(8) 0.2558(4) -0.3177(2)
H10 H 0.28460 0.30120 -0.34170
H11 H 0.15910 0.26420 -0.26920
C10 C -0.0903(8) 0.3301(4) -0.3493(2)
H12 H -0.12470 0.42960 -0.34690
H13 H -0.21800 0.28970 -0.32340
C11 C -0.0951(8) 0.3151(4) -0.4238(2)
H14 H -0.25890 0.36070 -0.44360
H15 H 0.02470 0.36130 -0.45040
C12 C -0.0336(8) 0.1620(4) -0.4284(2)
H16 H -0.03150 0.15450 -0.47710
H17 H -0.16330 0.11880 -0.40560
C13 C 0.2131(7) 0.0813(4) -0.3957(2)
H18 H 0.34290 0.12050 -0.42230
C14 C 0.2643(8) -0.0708(4) -0.3987(2)
C15 C 0.0975(8) -0.1497(4) -0.3742(2)
H19 H -0.05410 -0.10590 -0.35700
C16 C 0.1464(8) -0.2907(4) -0.3740(2)
H20 H 0.03080 -0.34280 -0.35602
C17 C 0.3636(9) -0.3547(5) -0.4000(2)
H21 H 0.39810 -0.45130 -0.40020
C18 C 0.5301(8) -0.2787(5) -0.4257(2)
H22 H 0.67920 -0.32270 -0.44400
C19 C 0.4815(8) -0.1372(4) -0.4251(2)
H23 H 0.59830 -0.08570 -0.44290
C20 C 0.7430(8) -0.4056(4) -0.1547(2)
C21 C 0.9590(8) -0.4050(4) -0.1911(2)
H24 H 0.97730 -0.32220 -0.22080
C22 C 1.1476(9) -0.5232(5) -0.1847(2)
H25 H 1.29250 -0.52220 -0.21050
C23 C 1.122(1) -0.6436(5) -0.1399(3)
H26 H 1.25050 -0.72490 -0.13470
C24 C 0.911(1) -0.6449(5) -0.1034(3)
H27 H 0.89400 -0.72700 -0.07270
C25 C 0.7233(9) -0.5278(4) -0.1109(2)
H28 H 0.57750 -0.53050 -0.08580
C26 C 0.5943(8) -0.2616(4) -0.0361(2)
H29 H 0.74660 -0.33370 -0.02900
H30 H 0.45550 -0.30470 -0.02580
H31 H 0.59150 -0.19610 -0.00590
#END
