
#######################################################################
#
#                 Cambridge Crystallographic Data Centre
#                                CCDC
#
#######################################################################
#
# If this CIF has been generated from an entry in the Cambridge
# Structural Database, then it will include bibliographic, chemical,
# crystal, experimental, refinement or atomic coordinate data resulting
# from the CCDC's data processing and validation procedures.
#
#######################################################################

data_CSD_CIF_YOPREA
_audit_creation_date 1996-01-03
_audit_creation_method CSD-ConQuest-V1
_database_code_CSD YOPREA
_database_code_depnum_ccdc_archive 'CCDC 1305354'
_database_code_depnum_ccdc_fiz 'CSD 58305'
_chemical_formula_sum 'C8 H4 N2 O5'
_chemical_formula_moiety
;
C8 H4 N2 O5
;
_journal_coden_Cambridge 392
_journal_volume 40
_journal_year 1995
_journal_page_first 717
_journal_name_full 'Heterocycles '
loop_
_publ_author_name
"H.R.Pfaendler"
"F.Weisner"
_chemical_name_systematic
;
3-Nitroisatoic anhydride
;
_chemical_melting_point 443.35
_cell_volume    809.380
_exptl_crystal_colour 'yellow'
_exptl_crystal_density_diffrn 1.708
_exptl_special_details
;
Melting point range 443.35-444.95K

;
_exptl_crystal_description 'stick'
_diffrn_ambient_temperature ?
_diffrn_special_details
;
The study was carried out at room temperature,in the range 283-303K

;
#These two values have been output from a single CSD field.
_refine_ls_R_factor_gt 0.0604
_refine_ls_wR_factor_gt 0.0604
_symmetry_cell_setting orthorhombic
_symmetry_space_group_name_H-M 'P 21 21 21'
_symmetry_Int_Tables_number 19
loop_
_symmetry_equiv_pos_site_id
_symmetry_equiv_pos_as_xyz
1 x,y,z
2 1/2-x,-y,1/2+z
3 1/2+x,1/2-y,-z
4 -x,1/2+y,1/2-z
_cell_length_a 5.066(2)
_cell_length_b 11.499(2)
_cell_length_c 13.894(4)
_cell_angle_alpha 90
_cell_angle_beta 90
_cell_angle_gamma 90
_cell_formula_units_Z 4
loop_
_atom_type_symbol
_atom_type_radius_bond
C 0.68
H 0.23
N 0.68
O 0.68
loop_
_atom_site_label
_atom_site_type_symbol
_atom_site_fract_x
_atom_site_fract_y
_atom_site_fract_z
O1 O 0.4063(7) 0.4262(3) 0.9592(2)
O2 O 0.1294(7) 0.3151(3) 1.0385(2)
O3 O 0.7169(8) 0.5269(3) 0.8864(3)
O4 O -0.1627(7) 0.1838(3) 0.6147(2)
O5 O -0.1367(8) 0.1564(3) 0.7669(3)
N1 N 0.1275(8) 0.3023(3) 0.8763(2)
N2 N -0.0667(8) 0.2053(3) 0.6933(3)
C1 C 0.2132(10) 0.3449(4) 0.9611(3)
C2 C 0.5348(10) 0.4615(4) 0.8769(3)
C3 C 0.4364(10) 0.4135(4) 0.7869(3)
C4 C 0.5515(11) 0.4495(4) 0.6996(4)
C5 C 0.4583(11) 0.4054(4) 0.6142(3)
C6 C 0.2565(10) 0.3265(4) 0.6145(3)
C7 C 0.1476(9) 0.2899(3) 0.6989(3)
C8 C 0.2350(8) 0.3329(3) 0.7879(3)
H1 H -0.00630 0.25090 0.87700
H2 H 0.69370 0.50470 0.69990
H3 H 0.53590 0.42970 0.55450
H4 H 0.19130 0.29640 0.55460
#END
