
#######################################################################
#
#                 Cambridge Crystallographic Data Centre
#                                CCDC
#
#######################################################################
#
# If this CIF has been generated from an entry in the Cambridge
# Structural Database, then it will include bibliographic, chemical,
# crystal, experimental, refinement or atomic coordinate data resulting
# from the CCDC's data processing and validation procedures.
#
#######################################################################

data_CSD_CIF_YORCIR
_audit_creation_date 1996-01-03
_audit_creation_method CSD-ConQuest-V1
_database_code_CSD YORCIR
_database_code_depnum_ccdc_fiz 'CSD 58607'
_chemical_formula_sum 'C18 H25 N1 O6'
_chemical_formula_moiety
;
C18 H25 N1 O6
;
_journal_coden_Cambridge 24
_journal_volume 35
_journal_year 1994
_journal_page_first 7609
_journal_name_full 'Tetrahedron Lett. '
loop_
_publ_author_name
"H.von der Emde"
"A.Langels"
"M.Noltemeyer"
"R.Bruckner"
_chemical_name_systematic
;
2-(2,2,4,5-Tetramethyl-1,3-dioxacyclohex-6-yl)propyl p-nitrobenzoate
;
_cell_volume   1895.260
_exptl_crystal_density_diffrn 1.232
_diffrn_ambient_temperature ?
_diffrn_special_details
;
The study was carried out at room temperature,in the range 283-303K

;
#These two values have been output from a single CSD field.
_refine_ls_R_factor_gt 0.0557
_refine_ls_wR_factor_gt 0.0557
_symmetry_cell_setting orthorhombic
_symmetry_space_group_name_H-M 'P 21 21 21'
_symmetry_Int_Tables_number 19
loop_
_symmetry_equiv_pos_site_id
_symmetry_equiv_pos_as_xyz
1 x,y,z
2 1/2-x,-y,1/2+z
3 1/2+x,1/2-y,-z
4 -x,1/2+y,1/2-z
_cell_length_a 5.994(3)
_cell_length_b 7.788(6)
_cell_length_c 40.60(3)
_cell_angle_alpha 90
_cell_angle_beta 90
_cell_angle_gamma 90
_cell_formula_units_Z 4
loop_
_atom_type_symbol
_atom_type_radius_bond
C 0.68
H 0.23
N 0.68
O 0.68
loop_
_atom_site_label
_atom_site_type_symbol
_atom_site_fract_x
_atom_site_fract_y
_atom_site_fract_z
O1 O -0.6322(9) -0.2209(7) -0.0857(1)
C1 C -0.7077(15) -0.1255(11) -0.1142(2)
C2 C -0.5080(14) -0.0371(11) -0.1294(2)
C3 C -0.3321(16) -0.1655(14) -0.1410(2)
O2 O -0.9166(10) 0.1991(8) -0.2005(1)
C4 C -0.7756(15) 0.0581(11) -0.2096(2)
C5 C -0.9292(18) -0.0700(13) -0.2257(2)
C6 C -0.5890(18) 0.1144(13) -0.2317(2)
O3 O -0.6965(10) -0.0246(6) -0.1805(1)
C7 C -0.5827(14) 0.0853(10) -0.1571(2)
C8 C -0.7347(16) 0.235(1) -0.1477(2)
C9 C -0.6170(22) 0.3589(12) -0.1251(2)
C10 C -0.8177(19) 0.3221(11) -0.1790(2)
C11 C -0.9960(23) 0.4570(13) -0.1736(3)
O4 O -0.988(1) -0.2613(10) -0.0711(2)
C12 C -0.7906(14) -0.2839(10) -0.0670(2)
C13 C -0.7018(13) -0.3826(9) -0.0381(2)
C14 C -0.4880(13) -0.4513(10) -0.0377(2)
C15 C -0.4123(13) -0.5395(11) -0.0103(2)
C16 C -0.5532(13) -0.5597(10) 0.0163(2)
C17 C -0.7684(13) -0.4934(10) 0.0167(2)
C18 C -0.8403(13) -0.4057(10) -0.0111(2)
N1 N -0.4721(16) -0.6465(10) 0.0459(2)
O5 O -0.6041(14) -0.6957(10) 0.0661(2)
O6 O -0.2690(13) -0.6638(10) 0.0486(2)
H1 H -0.8169(15) -0.0420(11) -0.1077(2)
H2 H -0.7749(15) -0.2018(11) -0.1299(2)
H3 H -0.4407(14) 0.0321(11) -0.1125(2)
H4 H -0.2905(16) -0.2388(14) -0.1230(2)
H5 H -0.3920(16) -0.2338(14) -0.1586(2)
H6 H -0.2031(16) -0.1044(14) -0.1487(2)
H7 H -1.0451(18) -0.1016(13) -0.2106(2)
H8 H -0.9944(18) -0.0195(13) -0.2450(2)
H9 H -0.8460(18) -0.1704(13) -0.2319(2)
H10 H -0.4965(18) 0.1955(13) -0.2203(2)
H11 H -0.5014(18) 0.0164(13) -0.2379(2)
H12 H -0.6498(18) 0.1673(13) -0.2511(2)
H13 H -0.4518(14) 0.1311(10) -0.1676(2)
H14 H -0.8615(16) 0.1893(10) -0.1362(2)
H15 H -0.7161(22) 0.4514(12) -0.1196(2)
H16 H -0.5729(22) 0.3003(12) -0.1053(2)
H17 H -0.4872(22) 0.4040(12) -0.1359(2)
H18 H -0.6931(19) 0.3740(11) -0.1900(2)
H19 H -1.0392(23) 0.5053(13) -0.1944(3)
H20 H -1.1236(23) 0.4056(13) -0.1632(3)
H21 H -0.9344(23) 0.5459(13) -0.1596(3)
H22 H -0.3926(13) -0.4378(10) -0.0565(2)
H23 H -0.2639(13) -0.5858(11) -0.0098(2)
H24 H -0.8637(13) -0.5077(10) 0.0355(2)
H25 H -0.9890(13) -0.3601(10) -0.0116(2)
#END
