
#######################################################################
#
#                 Cambridge Crystallographic Data Centre
#                                CCDC
#
#######################################################################
#
# If this CIF has been generated from an entry in the Cambridge
# Structural Database, then it will include bibliographic, chemical,
# crystal, experimental, refinement or atomic coordinate data resulting
# from the CCDC's data processing and validation procedures.
#
#######################################################################

data_CSD_CIF_YORDUE
_audit_creation_date 1996-01-03
_audit_creation_method CSD-ConQuest-V1
_database_code_CSD YORDUE
_database_code_depnum_ccdc_archive 'CCDC 1305404'
_chemical_formula_sum 'C19 H27 N5 O4'
_chemical_formula_moiety
;
C19 H27 N5 O4
;
_journal_coden_Cambridge 241
_journal_year 1994
_journal_page_first 2353
_journal_name_full 'Chem.Lett. '
loop_
_publ_author_name
"H.Oshio"
"A.Ohto"
"J.Fujiswawa"
"T.Watanabe"
"T.Ito"
"K.Isobe"
_chemical_name_systematic
;
(2,6-bis(1'-Oxyl-3'-oxido-4',4',5',5'-tetramethyl-4',5'-dihydro-1'H-imidazol-2
'-yl)pyridine)
;
_cell_volume   1995.489
_diffrn_ambient_temperature ?
_diffrn_special_details
;
The study was carried out at room temperature,in the range 283-303K

;
#These two values have been output from a single CSD field.
_refine_ls_R_factor_gt 0.049
_refine_ls_wR_factor_gt 0.049
_symmetry_cell_setting monoclinic
_symmetry_space_group_name_H-M 'P 21/a'
_symmetry_Int_Tables_number 14
loop_
_symmetry_equiv_pos_site_id
_symmetry_equiv_pos_as_xyz
1 x,y,z
2 1/2-x,1/2+y,-z
3 -x,-y,-z
4 -1/2+x,-1/2-y,z
_cell_length_a 12.062(1)
_cell_length_b 10.387(1)
_cell_length_c 16.344(2)
_cell_angle_alpha 90
_cell_angle_beta 102.967(9)
_cell_angle_gamma 90
_cell_formula_units_Z 4
loop_
_atom_type_symbol
_atom_type_radius_bond
C 0.68
N 0.68
O 0.68
loop_
_atom_site_label
_atom_site_type_symbol
_atom_site_fract_x
_atom_site_fract_y
_atom_site_fract_z
O1 O 0.2660(2) 1.0194(2) 0.2672(1)
O2 O 0.3853(2) 0.8441(2) 0.0423(1)
O3 O 0.1461(2) 0.4793(2) 0.2316(1)
O4 O 0.3852(2) 0.5806(2) 0.4854(1)
N1 N 0.3104(2) 0.7261(2) 0.2564(1)
N2 N 0.2810(2) 1.0023(2) 0.1930(1)
N3 N 0.3405(2) 0.9215(2) 0.0865(1)
N4 N 0.1917(2) 0.4820(2) 0.3098(1)
N5 N 0.3083(2) 0.5254(2) 0.4302(1)
C1 C 0.3801(2) 0.7893(2) 0.2165(1)
C2 C 0.4933(2) 0.7565(3) 0.2223(2)
C3 C 0.5383(2) 0.6555(3) 0.2736(2)
C4 C 0.4692(2) 0.5916(3) 0.3165(2)
C5 C 0.3567(2) 0.6276(2) 0.3049(2)
C6 C 0.3327(2) 0.9022(2) 0.1664(2)
C7 C 0.3010(3) 1.0530(2) 0.0562(2)
C8 C 0.2353(2) 1.0940(3) 0.1227(2)
C9 C 0.2356(4) 1.0472(4) -0.0337(2)
C10 C 0.4108(4) 1.1315(3) 0.0626(3)
C11 C 0.1077(3) 1.0614(4) 0.0960(2)
C12 C 0.2486(4) 1.2296(3) 0.1527(2)
C13 C 0.2827(2) 0.5510(2) 0.3473(2)
C14 C 0.1417(2) 0.4105(2) 0.3735(2)
C15 C 0.2455(2) 0.4076(2) 0.4486(2)
C16 C 0.0992(3) 0.2789(3) 0.3410(2)
C17 C 0.0441(2) 0.4927(3) 0.3890(2)
C18 C 0.2183(2) 0.4173(3) 0.5347(2)
C19 C 0.3265(3) 0.2958(3) 0.4464(2)
#END
