
#######################################################################
#
#                 Cambridge Crystallographic Data Centre
#                                CCDC
#
#######################################################################
#
# If this CIF has been generated from an entry in the Cambridge
# Structural Database, then it will include bibliographic, chemical,
# crystal, experimental, refinement or atomic coordinate data resulting
# from the CCDC's data processing and validation procedures.
#
#######################################################################

data_CSD_CIF_YORKEW
_audit_creation_date 2009-08-17
_audit_creation_method CSD-ConQuest-V1
_database_code_CSD YORKEW
_database_code_depnum_ccdc_archive 'CCDC 686009'
_chemical_formula_sum 'C17 H17 N1 O5'
_chemical_formula_moiety
;
C17 H17 N1 O5
;
_journal_coden_Cambridge 542
_journal_volume 43
_journal_year 2008
_journal_page_first 1323
_journal_name_full 'Cryst.Res.Technol. '
loop_
_publ_author_name
"S.Franklin"
"T.Balasubramanian"
"V.Padmini"
"N.Sulochana"
_chemical_name_systematic
;
4-Nitrophenyl 4-butoxybenzoate
;
_cell_volume   1557.241
_exptl_crystal_colour 'pale yellow'
_exptl_crystal_density_diffrn 1.345
_exptl_crystal_description 'plate'
_exptl_crystal_preparation 'ethanol'
_diffrn_ambient_temperature 293
#These two values have been output from a single CSD field.
_refine_ls_R_factor_gt 0.043
_refine_ls_wR_factor_gt 0.043
_symmetry_cell_setting monoclinic
_symmetry_space_group_name_H-M 'P 21/c'
_symmetry_Int_Tables_number 14
loop_
_symmetry_equiv_pos_site_id
_symmetry_equiv_pos_as_xyz
1 x,y,z
2 -x,1/2+y,1/2-z
3 -x,-y,-z
4 x,-1/2-y,-1/2+z
_cell_length_a 17.994(5)
_cell_length_b 4.0592(9)
_cell_length_c 21.625(5)
_cell_angle_alpha 90
_cell_angle_beta 99.634(5)
_cell_angle_gamma 90
_cell_formula_units_Z 4
loop_
_atom_type_symbol
_atom_type_radius_bond
C 0.68
H 0.23
N 0.68
O 0.68
loop_
_atom_site_label
_atom_site_type_symbol
_atom_site_fract_x
_atom_site_fract_y
_atom_site_fract_z
C1 C 0.5641(2) 1.0513(12) 0.18083(19)
H1 H 0.56930 1.12970 0.22320
H2 H 0.58370 1.21300 0.15540
H3 H 0.59170 0.84920 0.18000
C2 C 0.4819(2) 0.9916(11) 0.15542(17)
H4 H 0.45450 1.19640 0.15710
H5 H 0.46210 0.83440 0.18230
C3 C 0.4673(2) 0.863(1) 0.08877(16)
H6 H 0.48530 1.02250 0.06140
H7 H 0.49530 0.66030 0.08660
C4 C 0.3858(2) 0.7995(10) 0.06635(17)
H8 H 0.36580 0.65850 0.09580
H9 H 0.35810 1.00540 0.06290
C5 C 0.3087(2) 0.552(1) -0.02231(17)
C6 C 0.2426(2) 0.6146(9) 0.00054(16)
H10 H 0.24420 0.72680 0.03820
C7 C 0.1746(2) 0.5111(9) -0.03250(16)
H11 H 0.13040 0.55910 -0.01730
C8 C 0.1707(2) 0.3370(9) -0.08793(15)
C9 C 0.2377(2) 0.2744(10) -0.11017(17)
H12 H 0.23640 0.16050 -0.14770
C10 C 0.3046(2) 0.3776(10) -0.07776(18)
H13 H 0.34870 0.33030 -0.09310
C11 C 0.1009(2) 0.2104(10) -0.12348(18)
C12 C -0.03154(19) 0.1836(9) -0.12426(16)
C13 C -0.0737(2) 0.009(1) -0.08812(16)
H14 H -0.05320 -0.04940 -0.04720
C14 C -0.1461(2) -0.0785(9) -0.11257(17)
H15 H -0.17530 -0.19590 -0.08850
C15 C -0.17495(19) 0.0084(9) -0.17261(16)
C16 C -0.1334(2) 0.1819(9) -0.20933(16)
H16 H -0.15410 0.23810 -0.25030
C17 C -0.0609(2) 0.2713(9) -0.18454(17)
H17 H -0.03200 0.39060 -0.20850
N1 N -0.25206(19) -0.0882(10) -0.19831(19)
O1 O 0.37794(14) 0.6424(7) 0.00615(11)
O2 O 0.09341(14) 0.0549(8) -0.17094(12)
O3 O 0.03974(14) 0.2818(6) -0.09523(10)
O4 O -0.28722(18) -0.2492(10) -0.16577(17)
O5 O -0.27788(17) -0.0013(10) -0.25131(16)
#END
