
#######################################################################
#
#                 Cambridge Crystallographic Data Centre
#                                CCDC
#
#######################################################################
#
# If this CIF has been generated from an entry in the Cambridge
# Structural Database, then it will include bibliographic, chemical,
# crystal, experimental, refinement or atomic coordinate data resulting
# from the CCDC's data processing and validation procedures.
#
#######################################################################

data_CSD_CIF_YORSAB
_audit_creation_date 2014-08-28
_audit_creation_method CSD-ConQuest-V1
_database_code_CSD YORSAB
_database_code_depnum_ccdc_archive 'CCDC 1007231'
_chemical_formula_sum 'C19 H16 N2 O5'
_chemical_formula_moiety
;
C19 H16 N2 O5
;
_journal_coden_Cambridge 35
_journal_volume 79
_journal_year 2014
_journal_page_first 7232
_journal_name_full 'J.Org.Chem. '
loop_
_publ_author_name
"Jie-Ping Wan"
"Yunfang Lin"
"Qing Huang"
"Yunyun Liu"
_chemical_name_systematic
;
Methyl 
3-(4-nitrophenyl)-4,4a-dihydro-3H-pyrido[2,1-b][1,3]benzoxazole-2-carboxylate
;
_cell_volume   3312.427
_exptl_crystal_colour 'yellow'
_exptl_crystal_density_diffrn 1.413
_exptl_crystal_description 'block'
_diffrn_ambient_temperature 295
#These two values have been output from a single CSD field.
_refine_ls_R_factor_gt 0.072
_refine_ls_wR_factor_gt 0.072
_symmetry_cell_setting orthorhombic
_symmetry_space_group_name_H-M 'P c c n'
_symmetry_Int_Tables_number 56
loop_
_symmetry_equiv_pos_site_id
_symmetry_equiv_pos_as_xyz
1 x,y,z
2 1/2-x,1/2-y,z
3 -x,1/2+y,1/2-z
4 1/2+x,-y,1/2-z
5 -x,-y,-z
6 -1/2+x,-1/2+y,-z
7 x,-1/2-y,-1/2+z
8 -1/2-x,y,-1/2+z
_cell_length_a 14.761(3)
_cell_length_b 31.143(6)
_cell_length_c 7.2056(14)
_cell_angle_alpha 90
_cell_angle_beta 90
_cell_angle_gamma 90
_cell_formula_units_Z 8
loop_
_atom_type_symbol
_atom_type_radius_bond
C 0.68
H 0.23
N 0.68
O 0.68
loop_
_atom_site_label
_atom_site_type_symbol
_atom_site_fract_x
_atom_site_fract_y
_atom_site_fract_z
N1 N 0.4767(2) 0.34729(9) 0.1804(4)
N2 N 0.8432(3) 0.49702(12) -0.1608(5)
O1 O 0.3967(2) 0.40342(9) 0.3038(4)
O2 O 0.9166(2) 0.47881(12) -0.1517(6)
O3 O 0.8363(3) 0.53527(11) -0.1826(6)
O4 O 0.5928(3) 0.27926(12) -0.2499(5)
O5 O 0.6108(2) 0.34054(9) -0.4105(4)
C1 C 0.4135(3) 0.29088(13) 0.3984(6)
H1 H 0.44430 0.26750 0.34870
C2 C 0.3534(3) 0.28633(15) 0.5478(6)
H2 H 0.34410 0.25930 0.59960
C3 C 0.3080(3) 0.32123(16) 0.6187(6)
H3 H 0.26850 0.31720 0.71780
C4 C 0.3190(3) 0.36222(15) 0.5474(6)
H4 H 0.28790 0.38570 0.59570
C5 C 0.3781(3) 0.36634(12) 0.4022(6)
C6 C 0.4245(3) 0.33154(12) 0.3295(5)
C7 C 0.5225(3) 0.39270(12) -0.1512(6)
H5 H 0.49820 0.39590 -0.27700
C8 C 0.4682(3) 0.39387(11) 0.1759(6)
H6 H 0.52470 0.40700 0.21910
C9 C 0.4486(3) 0.40828(13) -0.0175(6)
H7 H 0.44540 0.43940 -0.02100
H8 H 0.39040 0.39700 -0.05660
C10 C 0.5393(3) 0.34534(12) -0.1221(5)
C11 C 0.5116(3) 0.32551(13) 0.0337(5)
H9 H 0.51670 0.29580 0.04120
C12 C 0.6069(3) 0.42062(12) -0.1404(5)
C13 C 0.6033(3) 0.46372(13) -0.1941(6)
H10 H 0.54810 0.47530 -0.23060
C14 C 0.6787(3) 0.48936(13) -0.1945(6)
H11 H 0.67460 0.51820 -0.22650
C15 C 0.7599(3) 0.47152(11) -0.1467(5)
C16 C 0.7678(3) 0.42976(12) -0.0886(5)
H12 H 0.82360 0.41860 -0.05370
C17 C 0.6902(3) 0.40456(12) -0.0831(5)
H13 H 0.69410 0.37640 -0.04030
C18 C 0.5832(3) 0.31757(17) -0.2633(6)
C19 C 0.6580(4) 0.31341(19) -0.5505(7)
H14 H 0.71610 0.30490 -0.50310
H15 H 0.66610 0.32950 -0.66290
H16 H 0.62230 0.28830 -0.57590
#END
