
#######################################################################
#
#                 Cambridge Crystallographic Data Centre
#                                CCDC
#
#######################################################################
#
# If this CIF has been generated from an entry in the Cambridge
# Structural Database, then it will include bibliographic, chemical,
# crystal, experimental, refinement or atomic coordinate data resulting
# from the CCDC's data processing and validation procedures.
#
#######################################################################

data_CSD_CIF_YORYEJ
_audit_creation_date 1996-01-08
_audit_creation_method CSD-ConQuest-V1
_database_code_CSD YORYEJ
_chemical_formula_sum 'C4 H7 N3 O5'
_chemical_formula_moiety
;
C4 H7 N3 O5
;
_journal_coden_Cambridge 388
_journal_volume 28
_journal_year 1992
_journal_page_first 1396
_journal_name_full 'Zh.Org.Khim.(Russ.)(Russ.J.Org.Chem.) '
loop_
_publ_author_name
"N.I.Golovina"
"A.G.Korepin"
"G.V.Lagodzinskaya"
"S.A.Eksanov"
"L.O.Atovmyan"
"L.T.Eremenko"
_chemical_name_systematic
;
N-(2,2-Dinitropropyl)formamide
;
_chemical_melting_point 337.15
_cell_volume    756.490
_exptl_crystal_density_diffrn 1.554
_exptl_special_details
;
Melting point range 337.15-338.15K

;
_diffrn_ambient_temperature ?
_diffrn_special_details
;
The study was carried out at room temperature,in the range 283-303K

;
#These two values have been output from a single CSD field.
_refine_ls_R_factor_gt 0.065
_refine_ls_wR_factor_gt 0.065
_symmetry_cell_setting monoclinic
_symmetry_space_group_name_H-M 'P 1 1 21/b'
_symmetry_Int_Tables_number 14
loop_
_symmetry_equiv_pos_site_id
_symmetry_equiv_pos_as_xyz
1 x,y,z
2 -x,1/2-y,1/2+z
3 -x,-y,-z
4 x,-1/2+y,-1/2-z
_cell_length_a 6.133(1)
_cell_length_b 9.779(2)
_cell_length_c 12.617(3)
_cell_angle_alpha 90
_cell_angle_beta 90
_cell_angle_gamma 88.65(2)
_cell_formula_units_Z 4
loop_
_atom_type_symbol
_atom_type_radius_bond
C 0.68
H 0.23
N 0.68
O 0.68
loop_
_atom_site_label
_atom_site_type_symbol
_atom_site_fract_x
_atom_site_fract_y
_atom_site_fract_z
O1 O 0.7800(2) 0.0551(2) 0.3816(1)
O2 O 0.9444(3) 0.3730(2) 0.3973(2)
O3 O 0.9896(3) 0.2852(2) 0.5527(1)
O4 O 1.3796(3) 0.4640(2) 0.3801(1)
O5 O 1.4141(3) 0.3043(2) 0.2639(1)
N1 N 1.0805(3) 0.1092(2) 0.2894(1)
N2 N 1.0493(2) 0.3093(2) 0.4629(1)
N3 N 1.3602(3) 0.3468(2) 0.3501(1)
C1 C 0.8701(3) 0.0795(2) 0.2987(2)
C2 C 1.2272(3) 0.1075(2) 0.3785(1)
C3 C 1.2687(2) 0.2455(2) 0.4296(1)
C4 C 1.4218(3) 0.2348(2) 0.5224(2)
H1 H 0.8028(36) 0.0751(22) 0.2307(18)
H2 H 1.1196(33) 0.1253(21) 0.2254(17)
H3 H 1.3631(32) 0.0743(21) 0.3582(18)
H4 H 1.1659(38) 0.0503(25) 0.4336(19)
H5 H 1.5675(41) 0.1976(26) 0.4985(20)
H6 H 1.3579(41) 0.1694(27) 0.5743(21)
H7 H 1.4356(39) 0.3134(25) 0.5498(22)
#END
