
#######################################################################
#
#                 Cambridge Crystallographic Data Centre
#                                CCDC
#
#######################################################################
#
# If this CIF has been generated from an entry in the Cambridge
# Structural Database, then it will include bibliographic, chemical,
# crystal, experimental, refinement or atomic coordinate data resulting
# from the CCDC's data processing and validation procedures.
#
#######################################################################

data_CSD_CIF_YOSJUN
_audit_creation_date 2015-02-13
_audit_creation_method CSD-ConQuest-V1
_database_code_CSD YOSJUN
_database_code_depnum_ccdc_archive 'CCDC 1049434'
_chemical_formula_sum 'C33 H26 N4 O13'
_chemical_formula_moiety
;
C33 H26 N4 O13
;
_journal_coden_Cambridge 1336
_journal_volume 16
_journal_year 2014
_journal_page_first 5200
_journal_name_full 'Org.Lett. '
loop_
_publ_author_name
"R.F.de la Pradilla"
"M.Velado"
"I.Colomer"
"C.Simal"
"A.Viso"
"H.Gornitzka"
"C.Hemmert"
_chemical_name_systematic
;
1-phenyl-1-(1-phenylethoxy)pent-2-ene-4,5-diyl bis(3,5-dinitrobenzoate)
;
_cell_volume   3251.099
_exptl_crystal_colour 'colorless'
_exptl_crystal_density_diffrn 1.403
_exptl_crystal_description 'plate'
_diffrn_ambient_temperature 173
#These two values have been output from a single CSD field.
_refine_ls_R_factor_gt 0.0491
_refine_ls_wR_factor_gt 0.0491
_symmetry_cell_setting monoclinic
_symmetry_space_group_name_H-M 'C 2'
_symmetry_Int_Tables_number 5
loop_
_symmetry_equiv_pos_site_id
_symmetry_equiv_pos_as_xyz
1 x,y,z
2 -x,y,-z
3 1/2+x,1/2+y,z
4 1/2-x,1/2+y,-z
_cell_length_a 31.994(4)
_cell_length_b 6.1028(7)
_cell_length_c 16.831(2)
_cell_angle_alpha 90
_cell_angle_beta 98.394(6)
_cell_angle_gamma 90
_cell_formula_units_Z 4
loop_
_atom_type_symbol
_atom_type_radius_bond
C 0.68
H 0.23
N 0.68
O 0.68
loop_
_atom_site_label
_atom_site_type_symbol
_atom_site_fract_x
_atom_site_fract_y
_atom_site_fract_z
C1 C 0.60288(15) 0.9976(9) 0.6637(3)
H1 H 0.57810 0.92580 0.68140
H2 H 0.60930 1.13270 0.69570
C2 C 0.64007(14) 0.8463(8) 0.6757(3)
H3 H 0.63650 0.72620 0.63490
C3 C 0.64603(14) 0.7538(9) 0.7585(3)
H4 H 0.64300 0.84980 0.80180
C4 C 0.65524(14) 0.5474(9) 0.7754(3)
H5 H 0.65740 0.45210 0.73160
C5 C 0.66260(16) 0.4496(8) 0.8583(3)
H6 H 0.65620 0.56260 0.89780
C6 C 0.70797(16) 0.3798(9) 0.8794(3)
C7 C 0.73709(19) 0.5275(9) 0.9176(3)
H7 H 0.72760 0.66540 0.93420
C8 C 0.7793(2) 0.4783(11) 0.9319(3)
H8 H 0.79860 0.58190 0.95840
C9 C 0.79384(19) 0.2794(11) 0.9082(3)
H9 H 0.82320 0.24700 0.91730
C10 C 0.76562(19) 0.1289(10) 0.8713(3)
H10 H 0.77530 -0.00920 0.85540
C11 C 0.72274(18) 0.1794(9) 0.8572(3)
H11 H 0.70330 0.07420 0.83200
O1 O 0.63465(11) 0.2649(6) 0.8617(2)
C12 C 0.59340(16) 0.3281(10) 0.8774(3)
H12 H 0.58320 0.45270 0.84110
C13 C 0.5644(2) 0.1375(12) 0.8578(4)
H13 H 0.56030 0.11160 0.79970
H14 H 0.53710 0.16910 0.87510
H15 H 0.57680 0.00680 0.88580
C14 C 0.59441(17) 0.4012(9) 0.9633(3)
C15 C 0.5725(3) 0.5791(12) 0.9823(5)
H16 H 0.55650 0.66290 0.94100
C16 C 0.5735(4) 0.6408(18) 1.0644(8)
H17 H 0.55880 0.76640 1.07890
C17 C 0.5968(4) 0.510(3) 1.1221(7)
H18 H 0.59780 0.54840 1.17710
C18 C 0.6174(3) 0.336(2) 1.1038(5)
H19 H 0.63300 0.25010 1.14490
C19 C 0.61633(19) 0.2788(13) 1.0242(4)
H20 H 0.63110 0.15180 1.01120
O2 O 0.67695(10) 0.9858(5) 0.66532(18)
C20 C 0.70633(16) 0.8949(9) 0.6274(3)
O3 O 0.70415(10) 0.7123(6) 0.5991(2)
C21 C 0.74317(14) 1.0418(8) 0.6232(3)
C22 C 0.74945(15) 1.2398(7) 0.6647(3)
H21 H 0.72890 1.29390 0.69520
C23 C 0.78606(16) 1.3550(8) 0.6607(3)
C24 C 0.81638(14) 1.2843(8) 0.6164(3)
H22 H 0.84140 1.36640 0.61430
C25 C 0.80892(15) 1.0898(8) 0.5755(3)
C26 C 0.77334(14) 0.9667(8) 0.5784(3)
H23 H 0.76940 0.83180 0.55010
N1 N 0.79386(15) 1.5586(7) 0.7063(3)
O4 O 0.76676(13) 1.6254(6) 0.7446(2)
O5 O 0.82732(13) 1.6547(6) 0.7033(2)
N2 N 0.84146(13) 1.0082(8) 0.5293(2)
O6 O 0.87114(11) 1.1291(6) 0.5217(2)
O7 O 0.83677(11) 0.8233(7) 0.5000(2)
O8 O 0.59388(10) 1.0513(5) 0.57900(19)
C27 C 0.57366(16) 1.2390(9) 0.5602(4)
O9 O 0.56540(12) 1.3716(6) 0.6094(2)
C28 C 0.56188(14) 1.2684(8) 0.4720(3)
C29 C 0.57117(15) 1.1164(9) 0.4164(3)
H24 H 0.58640 0.98700 0.43340
C30 C 0.55792(16) 1.1555(9) 0.3356(3)
C31 C 0.53445(16) 1.3371(11) 0.3090(4)
H25 H 0.52490 1.35980 0.25350
C32 C 0.52552(16) 1.4837(10) 0.3657(4)
C33 C 0.53952(15) 1.4561(9) 0.4467(4)
H26 H 0.53390 1.56410 0.48440
N3 N 0.56753(16) 0.9937(9) 0.2768(3)
O10 O 0.58667(12) 0.8260(7) 0.3021(2)
O11 O 0.55549(16) 1.0331(8) 0.2059(3)
N4 N 0.49977(16) 1.6789(10) 0.3397(5)
O12 O 0.48629(14) 1.6954(8) 0.2683(4)
O13 O 0.49322(13) 1.8096(7) 0.3917(4)
#END
