
#######################################################################
#
#                 Cambridge Crystallographic Data Centre
#                                CCDC
#
#######################################################################
#
# If this CIF has been generated from an entry in the Cambridge
# Structural Database, then it will include bibliographic, chemical,
# crystal, experimental, refinement or atomic coordinate data resulting
# from the CCDC's data processing and validation procedures.
#
#######################################################################

data_CSD_CIF_YOTJEY
_audit_creation_date 2015-02-16
_audit_creation_method CSD-ConQuest-V1
_database_code_CSD YOTJEY
_database_code_depnum_ccdc_archive 'CCDC 1012862'
_chemical_formula_sum 'C20 H26 N2 O5'
_chemical_formula_moiety
;
C20 H26 N2 O5
;
_journal_coden_Cambridge 1336
_journal_volume 16
_journal_year 2014
_journal_page_first 4766
_journal_name_full 'Org.Lett. '
loop_
_publ_author_name
"C.V.S.Kumar"
"C.V.Ramana"
_chemical_name_systematic
;
t-Butyl 
8-methoxy-4,4-dimethyl-11-oxo-3a,4-dihydro-1H,11H-pyrrolo[3',4':3,4][1,2]oxazo
lo[2,3-a]indole-2(3H)-carboxylate
;
_cell_volume    940.845
_exptl_crystal_density_diffrn 1.322
_diffrn_ambient_temperature 296
#These two values have been output from a single CSD field.
_refine_ls_R_factor_gt 0.0938
_refine_ls_wR_factor_gt 0.0938
_symmetry_cell_setting triclinic
_symmetry_space_group_name_H-M 'P -1'
_symmetry_Int_Tables_number 2
loop_
_symmetry_equiv_pos_site_id
_symmetry_equiv_pos_as_xyz
1 x,y,z
2 -x,-y,-z
_cell_length_a 7.9804(7)
_cell_length_b 9.8900(9)
_cell_length_c 12.2837(11)
_cell_angle_alpha 77.070(5)
_cell_angle_beta 84.753(5)
_cell_angle_gamma 87.947(5)
_cell_formula_units_Z 2
loop_
_atom_type_symbol
_atom_type_radius_bond
C 0.68
H 0.23
N 0.68
O 0.68
loop_
_atom_site_label
_atom_site_type_symbol
_atom_site_fract_x
_atom_site_fract_y
_atom_site_fract_z
O1 O 0.7732(4) -0.0099(3) 0.9503(3)
O2 O 0.6570(3) 0.8561(3) 0.4290(2)
O3 O 0.6618(4) 0.6573(3) 0.8355(2)
O4 O 1.0708(3) 0.4224(3) 0.6674(2)
O5 O 0.9271(3) 0.9300(3) 0.3745(2)
N1 N 0.8891(4) 0.4314(3) 0.6835(2)
N2 N 0.8612(4) 0.7633(3) 0.5319(3)
C1 C 0.8966(5) -0.0861(4) 0.8956(4)
H1 H 0.87450 -0.07500 0.81860
H2 H 0.89160 -0.18260 0.93210
H3 H 1.00650 -0.05190 0.89940
C2 C 0.7637(5) 0.1290(4) 0.9114(3)
C3 C 0.8539(5) 0.2007(4) 0.8148(3)
H4 H 0.93060 0.15590 0.77270
C4 C 0.8238(4) 0.3419(4) 0.7847(3)
C5 C 0.8425(4) 0.5763(4) 0.6908(3)
C6 C 0.7469(5) 0.6555(4) 0.5926(3)
H5 H 0.72050 0.59440 0.54500
H6 H 0.64310 0.69580 0.61960
C7 C 0.8238(5) 0.8559(4) 0.4381(3)
C8 C 0.5823(5) 0.9365(4) 0.3283(3)
C9 C 0.6241(6) 1.0889(4) 0.3060(4)
H7 H 0.60750 1.12030 0.37480
H8 H 0.55200 1.14130 0.25290
H9 H 0.73940 1.10180 0.27630
C10 C 0.6460(5) 0.1981(4) 0.9746(3)
H10 H 0.58390 0.14690 1.03710
C11 C 0.6227(5) 0.3377(4) 0.9454(3)
H11 H 0.54830 0.38310 0.98860
C12 C 0.7136(5) 0.4123(4) 0.8485(3)
C13 C 0.7273(5) 0.5604(4) 0.8017(3)
C14 C 1.1386(5) 0.5301(4) 0.7147(3)
C15 C 1.0124(4) 0.6504(4) 0.6815(3)
H12 H 1.00900 0.71310 0.73320
C16 C 1.0334(5) 0.7312(4) 0.5600(3)
H13 H 1.09630 0.81530 0.55310
H14 H 1.09070 0.67530 0.51210
C17 C 0.6377(6) 0.8706(5) 0.2308(3)
H15 H 0.75770 0.87690 0.21560
H16 H 0.58430 0.91820 0.16580
H17 H 0.60630 0.77490 0.24920
C18 C 0.3948(5) 0.9183(5) 0.3621(4)
H18 H 0.36920 0.82130 0.38030
H19 H 0.33230 0.96500 0.30110
H20 H 0.36460 0.95710 0.42630
C19 C 1.3155(5) 0.5542(4) 0.6596(4)
H21 H 1.38030 0.46960 0.67670
H22 H 1.36670 0.62470 0.68730
H23 H 1.31170 0.58350 0.57990
C20 C 1.1444(5) 0.4845(4) 0.8412(4)
H24 H 1.03180 0.47170 0.87630
H25 H 1.19820 0.55440 0.86820
H26 H 1.20670 0.39870 0.85880
#END
