
#######################################################################
#
#                 Cambridge Crystallographic Data Centre
#                                CCDC
#
#######################################################################
#
# If this CIF has been generated from an entry in the Cambridge
# Structural Database, then it will include bibliographic, chemical,
# crystal, experimental, refinement or atomic coordinate data resulting
# from the CCDC's data processing and validation procedures.
#
#######################################################################

data_CSD_CIF_YOTLAV
_audit_creation_date 2009-08-17
_audit_creation_method CSD-ConQuest-V1
_database_code_CSD YOTLAV
_database_code_depnum_ccdc_archive 'CCDC 738180'
_chemical_formula_sum 'C27 H43 N1 O2'
_chemical_formula_moiety
;
C27 H43 N1 O2
;
_journal_coeditor_code "IUCr FB2138"
_journal_coden_Cambridge 1370
_journal_volume 65
_journal_year 2009
_journal_page_first o1262
_journal_name_full 'Acta Crystallogr.,Sect.E:Struct.Rep.Online '
loop_
_publ_author_name
"A.Froelich"
"O.B.Kazakova"
"G.Tolstikov"
"A.K.Gzella"
_chemical_name_systematic
;
(3E,3aS,5aR,5bR,7aR,11R,11aR,11bR,13aR,13bR)-5a,5b,10,10,13b-Pentamethylicosah
ydro-1H-11,7a-(epoxymethano)cyclopenta(a)chrysen-3-one oxime
;
_chemical_name_common
;
(E)-17beta,19-Epoxymethano-17,23,24-tridemethyl-4-nor-5beta,18alpha-olean-3-on
e oxime
;
_cell_volume   2425.440
_exptl_crystal_colour 'colorless'
_exptl_crystal_density_diffrn 1.133
_exptl_crystal_description 'needle'
_exptl_crystal_preparation 'ethanol'
_diffrn_ambient_temperature 293
#These two values have been output from a single CSD field.
_refine_ls_R_factor_gt 0.0308
_refine_ls_wR_factor_gt 0.0308
_symmetry_cell_setting orthorhombic
_symmetry_space_group_name_H-M 'P 21 21 21'
_symmetry_Int_Tables_number 19
loop_
_symmetry_equiv_pos_site_id
_symmetry_equiv_pos_as_xyz
1 x,y,z
2 1/2+x,1/2-y,-z
3 -x,1/2+y,1/2-z
4 1/2-x,-y,1/2+z
_cell_length_a 12.5887(16)
_cell_length_b 13.2550(11)
_cell_length_c 14.5355(12)
_cell_angle_alpha 90
_cell_angle_beta 90
_cell_angle_gamma 90
_cell_formula_units_Z 4
loop_
_atom_type_symbol
_atom_type_radius_bond
C 0.68
H 0.23
N 0.68
O 0.68
loop_
_atom_site_label
_atom_site_type_symbol
_atom_site_fract_x
_atom_site_fract_y
_atom_site_fract_z
O1 O 0.50319(13) 0.77700(17) 0.33765(13)
H1 H 0.491(2) 0.762(2) 0.395(2)
O2 O 0.06258(10) 1.29692(10) 0.00744(9)
N1 N 0.40209(14) 0.75851(15) 0.29992(12)
C1 C 0.43803(18) 0.79829(17) 0.05510(15)
H2 H 0.45120 0.73430 0.02480
H3 H 0.46660 0.85190 0.01700
C2 C 0.49002(17) 0.7997(2) 0.15037(16)
H4 H 0.54840 0.75210 0.15370
H5 H 0.51620 0.86660 0.16540
C3 C 0.40138(16) 0.76952(16) 0.21323(14)
C4 C 0.30026(17) 0.75334(15) 0.16039(14)
H6 H 0.29660 0.68170 0.14410
C5 C 0.19970(17) 0.77938(18) 0.21268(15)
H7 H 0.13840 0.75870 0.17690
H8 H 0.19850 0.74250 0.27030
C6 C 0.19268(16) 0.89107(17) 0.23218(13)
H9 H 0.25130 0.91030 0.27180
H10 H 0.12720 0.90460 0.26520
C7 C 0.19556(13) 0.95683(15) 0.14448(11)
C8 C 0.29594(14) 0.92829(13) 0.08732(11)
H11 H 0.35620 0.95140 0.12450
C9 C 0.31736(16) 0.81371(14) 0.07022(13)
C10 C 0.30140(16) 0.99102(13) -0.00084(11)
H12 H 0.36570 0.97400 -0.03410
H13 H 0.24130 0.97430 -0.03970
C11 C 0.30058(14) 1.10370(13) 0.01892(12)
H14 H 0.29660 1.14020 -0.03880
H15 H 0.36670 1.12210 0.04880
C12 C 0.20788(13) 1.13561(13) 0.08002(11)
H16 H 0.14260 1.12000 0.04620
C13 C 0.20485(13) 1.07304(15) 0.17054(10)
C14 C 0.10814(16) 1.10874(19) 0.22730(13)
H17 H 0.04370 1.09220 0.19400
H18 H 0.10670 1.07220 0.28510
C15 C 0.10920(18) 1.2219(2) 0.24743(13)
H19 H 0.04340 1.23990 0.27810
H20 H 0.16710 1.23650 0.28940
C16 C 0.12164(15) 1.28729(17) 0.16219(13)
C17 C 0.20859(14) 1.24982(14) 0.09614(12)
H21 H 0.27860 1.27140 0.11800
C18 C 0.17728(14) 1.31005(14) 0.01104(14)
H22 H 0.21030 1.28090 -0.04390
C19 C 0.20282(19) 1.42351(16) 0.01733(18)
C20 C 0.1451(2) 1.46632(19) 0.1015(2)
H23 H 0.17740 1.53040 0.11770
H24 H 0.07180 1.47940 0.08490
C21 C 0.14688(19) 1.3980(2) 0.18554(18)
H25 H 0.09540 1.42240 0.22990
H26 H 0.21650 1.40160 0.21390
C22 C 0.2534(2) 0.76839(18) -0.00933(16)
H27 H 0.27740 0.70080 -0.02090
H28 H 0.26340 0.80860 -0.06360
H29 H 0.17940 0.76730 0.00660
C23 C 0.09170(15) 0.93677(17) 0.09073(15)
H30 H 0.08620 0.86610 0.07700
H31 H 0.09240 0.97460 0.03440
H32 H 0.03200 0.95720 0.12740
C24 C 0.30490(15) 1.09487(17) 0.22921(12)
H33 H 0.36660 1.06940 0.19810
H34 H 0.29810 1.06240 0.28790
H35 H 0.31200 1.16630 0.23800
C25 C 0.02439(14) 1.28226(19) 0.09950(14)
H36 H -0.01030 1.21720 0.10510
H37 H -0.02610 1.33460 0.11570
C26 C 0.3229(2) 1.43864(18) 0.0252(2)
H38 H 0.33950 1.50880 0.01750
H39 H 0.35810 1.40000 -0.02160
H40 H 0.34650 1.41660 0.08470
C27 C 0.1626(2) 1.47527(18) -0.0701(2)
H41 H 0.17190 1.54690 -0.06460
H42 H 0.08860 1.46030 -0.07840
H43 H 0.20200 1.45100 -0.12220
#END
