
#######################################################################
#
#                 Cambridge Crystallographic Data Centre
#                                CCDC
#
#######################################################################
#
# If this CIF has been generated from an entry in the Cambridge
# Structural Database, then it will include bibliographic, chemical,
# crystal, experimental, refinement or atomic coordinate data resulting
# from the CCDC's data processing and validation procedures.
#
#######################################################################

data_CSD_CIF_YOTMEA
_audit_creation_date 2009-08-17
_audit_creation_method CSD-ConQuest-V1
_database_code_CSD YOTMEA
_database_code_depnum_ccdc_archive 'CCDC 738186'
_chemical_formula_sum 'C23 H33 N1 O8'
_chemical_formula_moiety
;
C23 H33 N1 O8
;
_journal_coeditor_code "IUCr BT2943"
_journal_coden_Cambridge 1370
_journal_volume 65
_journal_year 2009
_journal_page_first o1271
_journal_name_full 'Acta Crystallogr.,Sect.E:Struct.Rep.Online '
loop_
_publ_author_name
"R.M.A.Pinto"
"A.M.Beja"
"J.A.R.Salvador"
"J.A.Paixao"
_chemical_name_systematic
;
16\a,17\a-Epoxy-5\a-hydroxy-6\b-nitrooxy-20-oxopregnan-3\b-yl acetate
;
_chemical_melting_point 455
_cell_volume   1163.814
_exptl_crystal_colour 'colorless'
_exptl_crystal_density_diffrn 1.288
_exptl_crystal_description 'truncated pyramid'
_exptl_crystal_preparation 'methanol'
_diffrn_ambient_temperature 223
#These two values have been output from a single CSD field.
_refine_ls_R_factor_gt 0.0431
_refine_ls_wR_factor_gt 0.0431
_symmetry_cell_setting triclinic
_symmetry_space_group_name_H-M 'P 1'
_symmetry_Int_Tables_number 1
loop_
_symmetry_equiv_pos_site_id
_symmetry_equiv_pos_as_xyz
1 x,y,z
_cell_length_a 10.9740(3)
_cell_length_b 11.0721(3)
_cell_length_c 11.1686(3)
_cell_angle_alpha 77.2135(15)
_cell_angle_beta 73.2087(14)
_cell_angle_gamma 64.3465(14)
_cell_formula_units_Z 2
loop_
_atom_type_symbol
_atom_type_radius_bond
C 0.68
H 0.23
N 0.68
O 0.68
loop_
_atom_site_label
_atom_site_type_symbol
_atom_site_fract_x
_atom_site_fract_y
_atom_site_fract_z
O1 O 0.06020(16) 0.62076(15) 0.97526(17)
O2 O 0.25633(16) 0.83696(15) 0.69606(17)
H1 H 0.19100 0.84720 0.66760
O3 O 0.48378(19) 0.5008(2) 0.6049(2)
O4 O 0.3044(3) 0.4890(4) 0.5533(3)
O5 O 0.4744(3) 0.3104(4) 0.6076(4)
O6 O 0.81145(17) 0.95570(17) 0.41953(15)
O7 O 1.02169(17) 0.84865(19) 0.62988(16)
O8 O -0.1011(2) 0.80189(19) 1.0641(2)
N1 N 0.4134(4) 0.4278(4) 0.5858(3)
C1 C 0.3439(2) 0.7488(2) 0.9258(2)
H2 H 0.40330 0.73840 0.98020
H3 H 0.29460 0.84460 0.90430
C2 C 0.2381(3) 0.6876(3) 0.9985(2)
H4 H 0.28660 0.59460 1.03010
H5 H 0.17970 0.73700 1.07000
C3 C 0.1494(2) 0.6932(2) 0.9148(2)
H6 H 0.09190 0.78760 0.89180
C4 C 0.2359(2) 0.6276(2) 0.7965(2)
H7 H 0.17580 0.63520 0.74390
H8 H 0.28830 0.53260 0.81840
C5 C 0.3353(2) 0.6952(2) 0.7239(2)
C6 C 0.4110(2) 0.6457(3) 0.5945(2)
H9 H 0.34190 0.67070 0.54440
C7 C 0.5159(3) 0.7067(3) 0.5227(2)
H10 H 0.46640 0.80020 0.49310
H11 H 0.57150 0.65930 0.44950
C8 C 0.6127(2) 0.7006(2) 0.60137(19)
H12 H 0.67440 0.60660 0.61980
C9 C 0.5271(2) 0.7617(2) 0.72606(18)
H13 H 0.46330 0.85320 0.70260
C10 C 0.4350(2) 0.6846(2) 0.80441(19)
C11 C 0.6170(2) 0.7770(3) 0.8001(2)
H14 H 0.67310 0.68820 0.83480
H15 H 0.55660 0.82810 0.87000
C12 C 0.7133(2) 0.8475(2) 0.7209(2)
H16 H 0.65830 0.94120 0.69700
H17 H 0.77390 0.84490 0.77070
C13 C 0.8004(2) 0.7773(2) 0.60263(18)
C14 C 0.6984(2) 0.7818(2) 0.53019(18)
H18 H 0.63250 0.87590 0.52280
C15 C 0.7847(3) 0.7533(3) 0.3968(2)
H19 H 0.83640 0.65740 0.39140
H20 H 0.72690 0.79060 0.33550
C16 C 0.8799(3) 0.8247(3) 0.3783(2)
H21 H 0.96280 0.80470 0.30970
C17 C 0.8868(2) 0.8440(2) 0.5022(2)
C18 C 0.9024(2) 0.6327(2) 0.6365(2)
H22 H 0.95260 0.58970 0.56110
H23 H 0.85170 0.58220 0.69180
H24 H 0.96620 0.63620 0.67760
C19 C 0.5259(2) 0.5372(2) 0.8420(2)
H25 H 0.57550 0.53410 0.90150
H26 H 0.59060 0.49770 0.76860
H27 H 0.46820 0.48770 0.87950
C20 C 1.0047(2) 0.8640(2) 0.5232(2)
C21 C 1.0994(3) 0.9042(3) 0.4129(3)
H28 H 1.15120 0.93920 0.44120
H29 H 1.04600 0.97240 0.35710
H30 H 1.16200 0.82710 0.36930
C22 C -0.0654(2) 0.6892(2) 1.0404(2)
C23 C -0.1511(3) 0.6078(3) 1.0851(3)
H31 H -0.10860 0.53160 1.14160
H32 H -0.15800 0.57700 1.01440
H33 H -0.24200 0.66230 1.12820
O9 O 0.03807(17) 0.2481(2) 0.42055(18)
O10 O 0.30588(15) 0.31642(16) 0.07748(15)
H34 H 0.24680 0.31320 0.04860
O11 O 0.49821(17) -0.04860(16) 0.14594(16)
O12 O 0.3139(2) -0.0808(2) 0.13150(19)
O13 O 0.4702(3) -0.2329(2) 0.2290(2)
O14 O 0.91153(17) 0.29534(16) -0.21292(14)
O15 O 1.10024(18) 0.26700(19) 0.00177(17)
O16 O -0.1340(2) 0.4244(3) 0.3654(4)
N2 N 0.4192(3) -0.1261(2) 0.1694(2)
C24 C 0.3450(2) 0.3480(3) 0.3030(2)
H35 H 0.39500 0.36740 0.35010
H36 H 0.31380 0.42520 0.24160
C25 C 0.2177(3) 0.3285(3) 0.3940(3)
H37 H 0.24760 0.25800 0.46120
H38 H 0.15630 0.41120 0.43140
C26 C 0.1406(2) 0.2911(3) 0.3268(2)
H39 H 0.09410 0.36880 0.27070
C27 C 0.2338(2) 0.1719(3) 0.2531(2)
H40 H 0.18080 0.15620 0.20650
H41 H 0.26760 0.09190 0.31100
C28 C 0.3569(2) 0.1962(2) 0.16149(19)
C29 C 0.4437(2) 0.0847(2) 0.0747(2)
H42 H 0.38540 0.08280 0.02380
C30 C 0.5691(2) 0.1061(2) -0.0130(2)
H43 H 0.53770 0.18080 -0.07650
H44 H 0.62740 0.02610 -0.05570
C31 C 0.6561(2) 0.1351(2) 0.05285(19)
H45 H 0.70230 0.05410 0.10610
C32 C 0.5642(2) 0.2522(2) 0.13436(18)
H46 H 0.52050 0.33050 0.07720
C33 C 0.4443(2) 0.2234(2) 0.23346(19)
C34 C 0.6523(2) 0.2916(2) 0.1920(2)
H47 H 0.59230 0.37100 0.23500
H48 H 0.69140 0.21890 0.25430
C35 C 0.7707(2) 0.3208(2) 0.0949(2)
H49 H 0.73220 0.40250 0.04040
H50 H 0.82750 0.33510 0.13810
C36 C 0.8598(2) 0.2044(2) 0.01604(19)
C37 C 0.7641(2) 0.17770(19) -0.04354(18)
H51 H 0.71180 0.26490 -0.08590
C38 C 0.8623(2) 0.0906(2) -0.1492(2)
H52 H 0.90320 -0.00360 -0.11690
H53 H 0.81520 0.09900 -0.21380
C39 C 0.9698(2) 0.1512(2) -0.1981(2)
H54 H 1.05860 0.10200 -0.25260
C40 C 0.9659(2) 0.2245(2) -0.1007(2)
C41 C 0.9412(2) 0.0794(2) 0.0968(2)
H55 H 0.99800 0.10120 0.13240
H56 H 0.99890 0.00760 0.04510
H57 H 0.87750 0.05140 0.16320
C42 C 0.5032(2) 0.1046(3) 0.3303(2)
H58 H 0.53920 0.13210 0.38350
H59 H 0.57620 0.03100 0.28730
H60 H 0.43100 0.07630 0.38070
C43 C 1.0865(2) 0.2525(3) -0.0962(2)
C44 C 1.1848(4) 0.2674(5) -0.2163(3)
H61 H 1.24570 0.30150 -0.20190
H62 H 1.13390 0.32920 -0.27700
H63 H 1.23830 0.18120 -0.24770
C45 C -0.0931(2) 0.3207(3) 0.4269(2)
C46 C -0.1833(3) 0.2606(3) 0.5197(3)
H64 H -0.23770 0.31830 0.58510
H65 H -0.12740 0.17390 0.55570
H66 H -0.24370 0.25040 0.47890
#END
