
#######################################################################
#
#                 Cambridge Crystallographic Data Centre
#                                CCDC
#
#######################################################################
#
# If this CIF has been generated from an entry in the Cambridge
# Structural Database, then it will include bibliographic, chemical,
# crystal, experimental, refinement or atomic coordinate data resulting
# from the CCDC's data processing and validation procedures.
#
#######################################################################

data_CSD_CIF_YOTSUV
_audit_creation_date 1996-01-30
_audit_creation_method CSD-ConQuest-V1
_database_code_CSD YOTSUV
_chemical_formula_sum 'C4 H4 N2 O4'
_chemical_formula_moiety
;
C4 H4 N2 O4
;
_journal_coden_Cambridge 188
_journal_year 1995
_journal_page_first 645
_journal_name_full 'J.Chem.Soc.,Perkin Trans.2 '
loop_
_publ_author_name
"J.Calvert"
"L.Eberson"
"M.P.Hartshorn"
"J.O.Svensson"
_chemical_name_systematic
;
N-Nitrosuccinimide
;
_chemical_melting_point 359.15
_cell_volume   1161.642
_exptl_crystal_colour 'colorless'
_exptl_crystal_density_diffrn 1.648
_exptl_special_details
;
Melting point range 359.15-360.15K

;
_diffrn_ambient_temperature 131
#These two values have been output from a single CSD field.
_refine_ls_R_factor_gt 0.0782
_refine_ls_wR_factor_gt 0.0782
_symmetry_cell_setting orthorhombic
_symmetry_space_group_name_H-M 'P b c a'
_symmetry_Int_Tables_number 61
loop_
_symmetry_equiv_pos_site_id
_symmetry_equiv_pos_as_xyz
1 x,y,z
2 1/2-x,-y,1/2+z
3 1/2+x,1/2-y,-z
4 -x,1/2+y,1/2-z
5 -x,-y,-z
6 -1/2+x,y,-1/2-z
7 -1/2-x,-1/2+y,z
8 x,-1/2-y,-1/2+z
_cell_length_a 10.463(2)
_cell_length_b 8.210(3)
_cell_length_c 13.523(3)
_cell_angle_alpha 90
_cell_angle_beta 90
_cell_angle_gamma 90
_cell_formula_units_Z 8
loop_
_atom_type_symbol
_atom_type_radius_bond
C 0.68
H 0.23
N 0.68
O 0.68
loop_
_atom_site_label
_atom_site_type_symbol
_atom_site_fract_x
_atom_site_fract_y
_atom_site_fract_z
O1 O 1.0559(6) -0.0483(7) 0.7130(4)
O2 O 0.6948(6) 0.2640(7) 0.7212(3)
O3 O 0.7754(6) 0.0831(8) 0.5535(3)
O4 O 0.9740(6) 0.1587(7) 0.5534(4)
N1 N 0.8767(8) 0.1127(9) 0.6966(3)
N2 N 0.8754(8) 0.1189(9) 0.5922(4)
C1 C 0.9694(10) 0.0265(10) 0.7507(6)
C2 C 0.9386(7) 0.0547(10) 0.8565(5)
C3 C 0.8090(7) 0.1403(10) 0.8583(4)
C4 C 0.7813(10) 0.1865(10) 0.7540(4)
H1 H 1.0047(7) 0.1239(10) 0.8879(5)
H2 H 0.9341(7) -0.050(1) 0.8926(5)
H3 H 0.7421(7) 0.0663(10) 0.8840(4)
H4 H 0.8125(7) 0.2383(10) 0.9008(4)
#END
