
#######################################################################
#
#                 Cambridge Crystallographic Data Centre
#                                CCDC
#
#######################################################################
#
# If this CIF has been generated from an entry in the Cambridge
# Structural Database, then it will include bibliographic, chemical,
# crystal, experimental, refinement or atomic coordinate data resulting
# from the CCDC's data processing and validation procedures.
#
#######################################################################

data_CSD_CIF_YOTTOR
_audit_creation_date 2009-08-17
_audit_creation_method CSD-ConQuest-V1
_database_code_CSD YOTTOR
_database_code_depnum_ccdc_archive 'CCDC 738245'
_chemical_formula_sum 'C13 H15 N1 O3'
_chemical_formula_moiety
;
C13 H15 N1 O3
;
_journal_coeditor_code "IUCr BT2958"
_journal_coden_Cambridge 1370
_journal_volume 65
_journal_year 2009
_journal_page_first o1346
_journal_name_full 'Acta Crystallogr.,Sect.E:Struct.Rep.Online '
loop_
_publ_author_name
"Ping Chen"
"Lin Xia"
"Ai-Xi Hu"
"Jiao Ye"
_chemical_name_systematic
;
4,4-Dimethyl-1-(3-nitrophenyl)pent-1-en-3-one
;
_chemical_melting_point 363
_cell_volume   1221.716
_exptl_crystal_colour 'colorless'
_exptl_crystal_density_diffrn 1.268
_exptl_crystal_description 'block'
_exptl_crystal_preparation 'ethanol'
_diffrn_ambient_temperature 173
#These two values have been output from a single CSD field.
_refine_ls_R_factor_gt 0.0405
_refine_ls_wR_factor_gt 0.0405
_symmetry_cell_setting orthorhombic
_symmetry_space_group_name_H-M 'P n m a'
_symmetry_Int_Tables_number 62
loop_
_symmetry_equiv_pos_site_id
_symmetry_equiv_pos_as_xyz
1 x,y,z
2 1/2-x,-y,1/2+z
3 -x,1/2+y,-z
4 1/2+x,1/2-y,1/2-z
5 -x,-y,-z
6 -1/2+x,y,-1/2-z
7 x,-1/2-y,z
8 -1/2-x,-1/2+y,-1/2+z
_cell_length_a 11.3375(9)
_cell_length_b 7.2163(6)
_cell_length_c 14.9327(12)
_cell_angle_alpha 90
_cell_angle_beta 90
_cell_angle_gamma 90
_cell_formula_units_Z 4
loop_
_atom_type_symbol
_atom_type_radius_bond
C 0.68
H 0.23
N 0.68
O 0.68
loop_
_atom_site_label
_atom_site_type_symbol
_atom_site_fract_x
_atom_site_fract_y
_atom_site_fract_z
C1 C 0.64133(19) 0.25000 0.12364(15)
H1 H 0.72490 0.25000 0.12810
C2 C 0.5825(2) 0.25000 0.19956(15)
H2 H 0.49870 0.25000 0.19830
C3 C 0.6446(2) 0.25000 0.28774(15)
C4 C 0.56797(18) 0.25000 0.37208(15)
C5 C 0.6474(2) 0.25000 0.45437(16)
H3 H 0.59870 0.25000 0.50860
H4 H 0.69730 0.36090 0.45370
C6 C 0.48919(15) 0.0777(3) 0.37212(12)
H5 H 0.53850 -0.03380 0.37010
H6 H 0.43740 0.08030 0.31960
H7 H 0.44120 0.07610 0.42670
C7 C 0.59173(19) 0.25000 0.03248(15)
C8 C 0.66910(19) 0.25000 -0.03967(15)
H8 H 0.75190 0.25000 -0.02990
C9 C 0.62418(18) 0.25000 -0.12592(14)
C10 C 0.5051(2) 0.25000 -0.14355(15)
H9 H 0.47640 0.25000 -0.20330
C11 C 0.42813(19) 0.25000 -0.07129(16)
H10 H 0.34540 0.25000 -0.08140
C12 C 0.47098(19) 0.25000 0.01538(15)
H11 H 0.41710 0.25000 0.06410
N1 N 0.70773(17) 0.25000 -0.20150(12)
O1 O 0.66864(16) 0.25000 -0.27777(11)
O2 O 0.81309(15) 0.25000 -0.18457(12)
O3 O 0.75145(14) 0.25000 0.29171(11)
H4F H 0.69730 0.13910 0.45370
C6F C 0.48919(15) 0.4223(3) 0.37212(12)
H5F H 0.53850 0.53380 0.37010
H6F H 0.43740 0.41970 0.31960
H7F H 0.44120 0.42390 0.42670
#END
