
#######################################################################
#
#                 Cambridge Crystallographic Data Centre
#                                CCDC
#
#######################################################################
#
# If this CIF has been generated from an entry in the Cambridge
# Structural Database, then it will include bibliographic, chemical,
# crystal, experimental, refinement or atomic coordinate data resulting
# from the CCDC's data processing and validation procedures.
#
#######################################################################

data_CSD_CIF_YOVCIW
_audit_creation_date 2009-08-17
_audit_creation_method CSD-ConQuest-V1
_database_code_CSD YOVCIW
_database_code_depnum_ccdc_archive 'CCDC 738306'
_chemical_formula_sum 'C21 H24 N2 O4'
_chemical_formula_moiety
;
C21 H24 N2 O4
;
_journal_coeditor_code "IUCr CI2805"
_journal_coden_Cambridge 1370
_journal_volume 65
_journal_year 2009
_journal_page_first o1420
_journal_name_full 'Acta Crystallogr.,Sect.E:Struct.Rep.Online '
loop_
_publ_author_name
"T.Kavitha"
"S.Ponnuswamy"
"P.Sakthivel"
"K.Karthik"
"M.N.Ponnuswamy"
_chemical_name_systematic
;
r-2,c-6-bis(4-methoxyphenyl)-c-3,t-3-dimethyl-1-nitrosopiperidin-4-one
;
_cell_volume   1863.642
_exptl_crystal_colour 'colorless'
_exptl_crystal_density_diffrn 1.313
_exptl_crystal_description 'block'
_exptl_crystal_preparation 'ethanol'
_diffrn_ambient_temperature 293
#These two values have been output from a single CSD field.
_refine_ls_R_factor_gt 0.0386
_refine_ls_wR_factor_gt 0.0386
_symmetry_cell_setting orthorhombic
_symmetry_space_group_name_H-M 'P 21 21 21'
_symmetry_Int_Tables_number 19
loop_
_symmetry_equiv_pos_site_id
_symmetry_equiv_pos_as_xyz
1 x,y,z
2 1/2-x,-y,1/2+z
3 1/2+x,1/2-y,-z
4 -x,1/2+y,1/2-z
_cell_length_a 7.2540(3)
_cell_length_b 15.0469(6)
_cell_length_c 17.0741(7)
_cell_angle_alpha 90
_cell_angle_beta 90
_cell_angle_gamma 90
_cell_formula_units_Z 4
loop_
_atom_type_symbol
_atom_type_radius_bond
C 0.68
H 0.23
N 0.68
O 0.68
loop_
_atom_site_label
_atom_site_type_symbol
_atom_site_fract_x
_atom_site_fract_y
_atom_site_fract_z
N1 N 0.0483(2) 0.52808(12) 0.21105(9)
C1 C 0.1305(2) 0.58054(13) 0.27489(10)
H1 H 0.02760 0.60150 0.30720
C2 C 0.2206(3) 0.66398(14) 0.23982(11)
C3 C 0.3709(3) 0.63719(14) 0.18259(11)
C4 C 0.3450(3) 0.54846(14) 0.14164(11)
H2 H 0.42350 0.50540 0.16750
H3 H 0.38980 0.55470 0.08840
C5 C 0.1494(3) 0.50917(13) 0.13767(10)
H4 H 0.08400 0.53920 0.09500
N2 N -0.1331(2) 0.51769(14) 0.21570(12)
C6 C 0.2461(3) 0.52025(13) 0.32719(10)
C7 C 0.4369(3) 0.51945(15) 0.33242(11)
H5 H 0.50480 0.55890 0.30200
C8 C 0.5290(3) 0.46138(15) 0.38177(12)
H6 H 0.65710 0.46200 0.38370
C9 C 0.4317(3) 0.40259(13) 0.42807(12)
C10 C 0.2405(3) 0.40122(16) 0.42284(13)
H7 H 0.17300 0.36110 0.45280
C11 C 0.1513(3) 0.45897(15) 0.37357(12)
H8 H 0.02330 0.45730 0.37100
C12 C 0.2886(4) 0.72672(16) 0.30428(13)
H9 H 0.34450 0.77810 0.28090
H10 H 0.37770 0.69650 0.33620
H11 H 0.18630 0.74490 0.33610
C13 C 0.0774(3) 0.71461(16) 0.18933(14)
H12 H 0.13370 0.76660 0.16730
H13 H -0.02510 0.73190 0.22150
H14 H 0.03470 0.67670 0.14790
C14 C 0.1535(2) 0.41093(12) 0.11881(10)
C15 C 0.2309(3) 0.34891(14) 0.16965(10)
H15 H 0.27930 0.36770 0.21730
C16 C 0.2366(3) 0.26016(14) 0.15030(11)
H16 H 0.28890 0.21950 0.18480
C17 C 0.1647(2) 0.23100(12) 0.07945(10)
C18 C 0.0887(3) 0.29189(13) 0.02797(11)
H17 H 0.04140 0.27310 -0.01990
C19 C 0.0838(3) 0.38045(14) 0.04814(10)
H18 H 0.03220 0.42100 0.01340
C20 C 0.7010(4) 0.34767(19) 0.49303(17)
H19 H 0.73490 0.30450 0.53180
H20 H 0.73580 0.40590 0.51070
H21 H 0.76320 0.33460 0.44480
C21 C 0.1004(4) 0.10995(15) -0.00595(14)
H22 H 0.11520 0.04660 -0.00890
H23 H 0.16380 0.13740 -0.04900
H24 H -0.02830 0.12450 -0.00850
O1 O 0.5033(3) 0.68301(12) 0.16938(12)
O2 O -0.2050(2) 0.48520(14) 0.15739(11)
O3 O 0.5071(3) 0.34479(11) 0.48087(10)
O4 O 0.1751(2) 0.14144(9) 0.06582(8)
#END
