
#######################################################################
#
#                 Cambridge Crystallographic Data Centre
#                                CCDC
#
#######################################################################
#
# If this CIF has been generated from an entry in the Cambridge
# Structural Database, then it will include bibliographic, chemical,
# crystal, experimental, refinement or atomic coordinate data resulting
# from the CCDC's data processing and validation procedures.
#
#######################################################################

data_CSD_CIF_YOVJOK
_audit_creation_date 2015-02-16
_audit_creation_method CSD-ConQuest-V1
_database_code_CSD YOVJOK
_database_code_depnum_ccdc_archive 'CCDC 958690'
_chemical_formula_sum 'C22 H21 N3 O4'
_chemical_formula_moiety
;
C22 H21 N3 O4
;
_journal_coden_Cambridge 917
_journal_volume 10
_journal_year 2014
_journal_page_first 3019
_journal_name_full 'Beilstein J.Org.Chem. '
loop_
_publ_author_name
"V.V.Tkachenko"
"E.A.Muravyova"
"S.M.Desenko"
"O.V.Shishkin"
"S.V.Shishkina"
"D.O.Sysoiev"
"T.J.J.Muller"
"V.A.Chebanov"
_chemical_name_systematic
;
N-(2-methoxyphenyl)-9,14-dimethyl-8,12-dioxa-10,13-diazatetracyclo[7.6.1.0^2,7
^.0^11,15^]hexadeca-2,4,6,11(15),13-pentaene-16-carboxamide
;
_cell_volume   1980.579
_exptl_crystal_density_diffrn 1.313
_diffrn_ambient_temperature 293
_refine_special_details
;
N3A,O3A and N3B,O3B disordered over two sites with occupancies 0.50:0.50.

;
#These two values have been output from a single CSD field.
_refine_ls_R_factor_gt 0.0491
_refine_ls_wR_factor_gt 0.0491
_symmetry_cell_setting monoclinic
_symmetry_space_group_name_H-M 'P 21/n'
_symmetry_Int_Tables_number 14
loop_
_symmetry_equiv_pos_site_id
_symmetry_equiv_pos_as_xyz
1 x,y,z
2 1/2-x,1/2+y,1/2-z
3 -x,-y,-z
4 -1/2+x,-1/2-y,-1/2+z
_cell_length_a 12.3582(4)
_cell_length_b 8.9291(2)
_cell_length_c 18.5899(5)
_cell_angle_alpha 90
_cell_angle_beta 105.094(3)
_cell_angle_gamma 90
_cell_formula_units_Z 4
loop_
_atom_type_symbol
_atom_type_radius_bond
C 0.68
H 0.23
N 0.68
O 0.68
loop_
_atom_site_label
_atom_site_type_symbol
_atom_site_fract_x
_atom_site_fract_y
_atom_site_fract_z
O1 O 0.29381(9) 0.64046(12) 0.74822(5)
O2 O 0.16963(8) 0.48504(12) 0.52274(5)
O3 O 0.5329(5) 0.3304(7) 0.5724(3)
N1 N 0.5004(4) 0.3814(5) 0.6805(2)
H1 H 0.471(2) 0.414(2) 0.6911(16)
O4 O 0.47342(11) 0.33433(16) 0.81143(6)
N2 N 0.25207(11) 0.46272(14) 0.65269(7)
H2 H 0.2129(15) 0.410(2) 0.6774(10)
N3 N 0.35975(12) 0.77520(16) 0.76288(7)
C1 C 0.30130(11) 0.59107(15) 0.68169(7)
C2 C 0.40041(13) 0.79428(17) 0.70506(8)
C3 C 0.36632(11) 0.68046(14) 0.65163(7)
C4 C 0.37817(11) 0.64632(14) 0.57509(7)
H3 H 0.44900 0.68550 0.56850
C5 C 0.37200(11) 0.47392(14) 0.56518(6)
H4 H 0.36490 0.45610 0.51210
C6 C 0.26084(11) 0.41946(15) 0.57934(7)
C7 C 0.27971(12) 0.70945(15) 0.51707(7)
C8 C 0.28289(14) 0.84942(17) 0.48499(8)
H5 H 0.34770 0.90700 0.49920
C9 C 0.19045(17) 0.9042(2) 0.43198(9)
H6 H 0.19300 0.99850 0.41130
C10 C 0.09483(17) 0.8180(2) 0.41021(9)
H7 H 0.03310 0.85420 0.37440
C11 C 0.09009(14) 0.67894(19) 0.44105(9)
H8 H 0.02570 0.62090 0.42600
C12 C 0.18219(12) 0.62597(16) 0.49484(7)
C13 C 0.47748(11) 0.39190(14) 0.60635(7)
C14 C 0.58315(12) 0.29375(15) 0.72901(7)
C15 C 0.67767(14) 0.23656(19) 0.71162(9)
H9 H 0.68930 0.25300 0.66480
C16 C 0.75471(18) 0.1546(2) 0.76469(11)
H10 H 0.81800 0.11580 0.75310
C17 C 0.73876(19) 0.1303(2) 0.83354(11)
H11 H 0.79080 0.07450 0.86840
C18 C 0.64574(17) 0.1880(2) 0.85198(9)
H12 H 0.63530 0.17120 0.89910
C19 C 0.56851(13) 0.27058(17) 0.80031(8)
C20 C 0.44648(19) 0.3061(3) 0.88012(10)
H13 H 0.37730 0.35510 0.88000
H14 H 0.50520 0.34400 0.92050
H15 H 0.43870 0.20020 0.88620
C21 C 0.24229(15) 0.25220(17) 0.56994(9)
H16 H 0.16740 0.22830 0.57210
H17 H 0.29510 0.20060 0.60920
H18 H 0.25260 0.22170 0.52270
C22 C 0.47337(19) 0.9259(2) 0.70215(12)
H19 H 0.54230 0.89230 0.69290
H20 H 0.48910 0.97830 0.74880
H21 H 0.43570 0.99190 0.66280
O5? O 0.5491(5) 0.3677(6) 0.5733(3)
N4? N 0.4947(5) 0.3561(5) 0.6772(2)
H22? H 0.430(3) 0.380(2) 0.7036(19)
#END
