
#######################################################################
#
#                 Cambridge Crystallographic Data Centre
#                                CCDC
#
#######################################################################
#
# If this CIF has been generated from an entry in the Cambridge
# Structural Database, then it will include bibliographic, chemical,
# crystal, experimental, refinement or atomic coordinate data resulting
# from the CCDC's data processing and validation procedures.
#
#######################################################################

data_CSD_CIF_YOVJUP
_audit_creation_date 2009-08-17
_audit_creation_method CSD-ConQuest-V1
_database_code_CSD YOVJUP
_database_code_depnum_ccdc_archive 'CCDC 741637'
_chemical_formula_sum 'C6 H7 N3 O2'
_chemical_formula_moiety
;
C6 H7 N3 O2
;
_journal_coeditor_code "IUCr HB5007"
_journal_coden_Cambridge 1370
_journal_volume 65
_journal_year 2009
_journal_page_first o1615
_journal_name_full 'Acta Crystallogr.,Sect.E:Struct.Rep.Online '
loop_
_publ_author_name
"M.A.Khan"
"M.N.Tahir"
"A.Q.Ather"
"M.Shaheen"
"R.A.Khan"
_chemical_name_systematic
;
4-Methyl-3-nitropyridin-2-amine
;
_cell_volume    679.454
_exptl_crystal_colour 'yellow'
_exptl_crystal_density_diffrn 1.497
_exptl_crystal_description 'needle'
_diffrn_ambient_temperature 296
#These two values have been output from a single CSD field.
_refine_ls_R_factor_gt 0.0555
_refine_ls_wR_factor_gt 0.0555
_symmetry_cell_setting monoclinic
_symmetry_space_group_name_H-M 'P 21/n'
_symmetry_Int_Tables_number 14
loop_
_symmetry_equiv_pos_site_id
_symmetry_equiv_pos_as_xyz
1 x,y,z
2 1/2-x,1/2+y,1/2-z
3 -x,-y,-z
4 -1/2+x,-1/2-y,-1/2+z
_cell_length_a 7.3776(6)
_cell_length_b 12.8673(11)
_cell_length_c 7.3884(6)
_cell_angle_alpha 90
_cell_angle_beta 104.364(4)
_cell_angle_gamma 90
_cell_formula_units_Z 4
loop_
_atom_type_symbol
_atom_type_radius_bond
C 0.68
H 0.23
N 0.68
O 0.68
loop_
_atom_site_label
_atom_site_type_symbol
_atom_site_fract_x
_atom_site_fract_y
_atom_site_fract_z
O1 O 0.9915(3) -0.20091(18) 0.2978(3)
O2 O 1.2249(3) -0.11801(19) 0.4483(4)
N1 N 0.7197(3) 0.06783(18) 0.0831(3)
N2 N 0.6845(4) -0.1039(2) 0.1310(3)
N3 N 1.0759(3) -0.11908(19) 0.3358(3)
C1 C 0.8004(4) -0.0221(2) 0.1552(3)
C2 C 0.9935(3) -0.0238(2) 0.2507(3)
C3 C 1.1041(3) 0.0656(2) 0.2608(3)
C4 C 1.0135(4) 0.1542(2) 0.1803(4)
C5 C 0.8246(4) 0.1511(2) 0.0979(4)
C6 C 1.3108(4) 0.0719(3) 0.3480(4)
H1 H 0.570(5) -0.089(2) 0.066(4)
H2 H 0.730(4) -0.164(2) 0.156(4)
H3 H 1.07986 0.21582 0.18170
H4 H 0.76702 0.21275 0.04899
H5 H 1.35738 0.13785 0.31888
H6 H 1.37365 0.01708 0.29973
H7 H 1.33334 0.06475 0.48107
#END
