
#######################################################################
#
#                 Cambridge Crystallographic Data Centre
#                                CCDC
#
#######################################################################
#
# If this CIF has been generated from an entry in the Cambridge
# Structural Database, then it will include bibliographic, chemical,
# crystal, experimental, refinement or atomic coordinate data resulting
# from the CCDC's data processing and validation procedures.
#
#######################################################################

data_CSD_CIF_YOVKAW
_audit_creation_date 2009-08-17
_audit_creation_method CSD-ConQuest-V1
_database_code_CSD YOVKAW
_database_code_depnum_ccdc_archive 'CCDC 741638'
_chemical_formula_sum 'C13 H16 N2 O3'
_chemical_formula_moiety
;
C13 H16 N2 O3
;
_journal_coeditor_code "IUCr HB2995"
_journal_coden_Cambridge 1370
_journal_volume 65
_journal_year 2009
_journal_page_first o1618
_journal_name_full 'Acta Crystallogr.,Sect.E:Struct.Rep.Online '
loop_
_publ_author_name
"Jun-Ling Wang"
"Shuang-Ming Meng"
"Mao-Zhong Tian"
"Feng Feng"
_chemical_name_systematic
;
1-(1-(Hydroxyimino)ethyl)-N-(2-methoxyphenyl)cyclopropanecarboxamide
;
_chemical_name_common
;
1-(N-Hydroxyethanimidoyl)-N-(2-methoxyphenyl)cyclopropanecarboxamide
;
_cell_volume   1235.693
_exptl_crystal_colour 'colorless'
_exptl_crystal_density_diffrn 1.335
_exptl_crystal_description 'block'
_diffrn_ambient_temperature 293
#These two values have been output from a single CSD field.
_refine_ls_R_factor_gt 0.0732
_refine_ls_wR_factor_gt 0.0732
_symmetry_cell_setting monoclinic
_symmetry_space_group_name_H-M 'P 21/c'
_symmetry_Int_Tables_number 14
loop_
_symmetry_equiv_pos_site_id
_symmetry_equiv_pos_as_xyz
1 x,y,z
2 -x,1/2+y,1/2-z
3 -x,-y,-z
4 x,-1/2-y,-1/2+z
_cell_length_a 16.062(6)
_cell_length_b 5.483(2)
_cell_length_c 14.250(6)
_cell_angle_alpha 90
_cell_angle_beta 100.055(6)
_cell_angle_gamma 90
_cell_formula_units_Z 4
loop_
_atom_type_symbol
_atom_type_radius_bond
C 0.68
H 0.23
N 0.68
O 0.68
loop_
_atom_site_label
_atom_site_type_symbol
_atom_site_fract_x
_atom_site_fract_y
_atom_site_fract_z
C1 C 0.3277(2) -0.2371(7) 1.1123(2)
H1 H 0.28780 -0.22490 1.15500
H2 H 0.38260 -0.18740 1.14470
H3 H 0.33030 -0.40290 1.09140
C2 C 0.3509(2) -0.0767(6) 0.9634(2)
C3 C 0.4169(2) -0.2323(6) 0.9573(3)
H4 H 0.43050 -0.35610 1.00200
C4 C 0.4628(2) -0.2049(7) 0.8849(3)
H5 H 0.50750 -0.30990 0.88120
C5 C 0.4432(2) -0.0246(6) 0.8182(2)
H6 H 0.47450 -0.00760 0.76960
C6 C 0.3768(2) 0.1321(6) 0.8233(2)
H7 H 0.36370 0.25480 0.77810
C7 C 0.3297(2) 0.1078(5) 0.8954(2)
C8 C 0.21464(19) 0.4042(5) 0.8447(2)
C9 C 0.14682(19) 0.5534(5) 0.8782(2)
C10 C 0.0684(2) 0.5852(6) 0.8000(2)
H8 H 0.06710 0.49750 0.74060
H9 H 0.01390 0.60220 0.81980
C11 C 0.1292(2) 0.7886(6) 0.8211(2)
H10 H 0.11160 0.92990 0.85370
H11 H 0.16470 0.82520 0.77450
C12 C 0.13045(19) 0.5525(5) 0.9782(2)
C13 C 0.0787(2) 0.7537(6) 1.0116(3)
H12 H 0.07400 0.72630 1.07700
H13 H 0.02330 0.75530 0.97310
H14 H 0.10590 0.90760 1.00590
N1 N 0.16185(17) 0.3782(4) 1.03227(17)
O1 O 0.30181(15) -0.0837(4) 1.03230(16)
O2 O 0.22453(15) 0.4164(4) 0.76124(15)
O3 O 0.14111(17) 0.3914(4) 1.12368(16)
H15 H 0.176(2) 0.300(7) 1.159(3)
N2 N 0.26309(17) 0.2616(4) 0.90914(18)
H16 H 0.2470(19) 0.254(6) 0.9632(16)
#END
