
#######################################################################
#
#                 Cambridge Crystallographic Data Centre
#                                CCDC
#
#######################################################################
#
# If this CIF has been generated from an entry in the Cambridge
# Structural Database, then it will include bibliographic, chemical,
# crystal, experimental, refinement or atomic coordinate data resulting
# from the CCDC's data processing and validation procedures.
#
#######################################################################

data_CSD_CIF_YOVLOL
_audit_creation_date 2009-08-17
_audit_creation_method CSD-ConQuest-V1
_database_code_CSD YOVLOL
_database_code_depnum_ccdc_archive 'CCDC 741646'
_chemical_formula_sum 'C7 H6 N2 O4'
_chemical_formula_moiety
;
C7 H6 N2 O4
;
_journal_coeditor_code "IUCr HB5009"
_journal_coden_Cambridge 1370
_journal_volume 65
_journal_year 2009
_journal_page_first o1630
_journal_name_full 'Acta Crystallogr.,Sect.E:Struct.Rep.Online '
loop_
_publ_author_name
"A.R.Raza"
"M.Danish"
"M.N.Tahir"
"B.Nisar"
"M.S.Iqbal"
_chemical_name_systematic
;
2-Hydroxy-3-nitrobenzamide
;
_cell_volume    780.157
_exptl_crystal_colour 'brown'
_exptl_crystal_density_diffrn 1.551
_exptl_crystal_description 'prism'
_diffrn_ambient_temperature 296
_refine_special_details
;
In one of the independent molecules, two nitro O atoms are disordered over 
two sites with occupancies 0.517:0.483.
;
#These two values have been output from a single CSD field.
_refine_ls_R_factor_gt 0.0478
_refine_ls_wR_factor_gt 0.0478
_symmetry_cell_setting triclinic
_symmetry_space_group_name_H-M 'P -1'
_symmetry_Int_Tables_number 2
loop_
_symmetry_equiv_pos_site_id
_symmetry_equiv_pos_as_xyz
1 x,y,z
2 -x,-y,-z
_cell_length_a 3.8390(2)
_cell_length_b 13.0347(8)
_cell_length_c 16.0409(9)
_cell_angle_alpha 98.207(3)
_cell_angle_beta 95.658(2)
_cell_angle_gamma 98.365(3)
_cell_formula_units_Z 4
loop_
_atom_type_symbol
_atom_type_radius_bond
C 0.68
H 0.23
N 0.68
O 0.68
loop_
_atom_site_label
_atom_site_type_symbol
_atom_site_fract_x
_atom_site_fract_y
_atom_site_fract_z
O1 O 1.3003(4) 0.14269(11) 0.28007(10)
O2 O 1.0846(17) 0.2123(3) 0.1437(3)
O3 O 0.9012(16) 0.0976(4) 0.0315(3)
O4 O 1.4309(4) 0.06126(12) 0.40897(9)
N1 N 0.9800(5) 0.12260(17) 0.11120(12)
N2 N 1.1499(6) -0.09612(17) 0.42380(13)
C1 C 1.0438(5) -0.03373(16) 0.28965(12)
C2 C 1.1008(5) 0.05167(16) 0.24507(12)
C3 C 0.9365(5) 0.03748(17) 0.16144(13)
C4 C 0.7300(6) -0.05660(19) 0.12321(14)
C5 C 0.6838(6) -0.1393(2) 0.16654(14)
C6 C 0.8391(6) -0.12754(18) 0.24892(14)
C7 C 1.2174(5) -0.02094(17) 0.37827(13)
O5 O 1.1680(4) 0.64772(12) 0.23085(10)
O6 O 1.6092(5) 0.69953(13) 0.37229(11)
O7 O 1.3820(6) 0.64564(16) 0.47695(12)
O8 O 0.7934(4) 0.56454(13) 0.09498(10)
N3 N 1.4064(5) 0.63841(15) 0.40149(12)
N4 N 0.5075(6) 0.40043(18) 0.07421(14)
C8 C 0.8539(5) 0.47141(16) 0.21067(13)
C9 C 1.0752(5) 0.55872(16) 0.26058(13)
C10 C 1.1871(5) 0.54999(16) 0.34496(13)
C11 C 1.0917(6) 0.45937(19) 0.37779(15)
C12 C 0.8859(6) 0.37445(19) 0.32808(15)
C13 C 0.7662(6) 0.38048(18) 0.24564(14)
C14 C 0.7143(6) 0.48026(19) 0.12263(14)
H1 H 0.984(7) -0.1544(19) 0.4054(15)
H2 H 1.38739 0.13813 0.32790
H3 H 0.533(7) -0.208(2) 0.1414(15)
H4 H 0.808(6) -0.1821(18) 0.2792(14)
H5 H 0.632(6) -0.0653(17) 0.0674(15)
H6 H 1.260(7) -0.0911(19) 0.4746(17)
H7 H 1.07785 0.64178 0.18153
H8 H 0.444(7) 0.347(2) 0.0911(17)
H9 H 0.420(6) 0.4100(19) 0.0199(17)
H10 H 1.161(6) 0.4557(17) 0.4324(15)
H11 H 0.820(6) 0.3154(19) 0.3482(15)
H12 H 0.614(6) 0.3254(18) 0.2137(14)
O9? O 0.7212(15) 0.1376(4) 0.0676(4)
O10? O 1.2731(16) 0.1761(5) 0.1186(3)
#END
