
#######################################################################
#
#                 Cambridge Crystallographic Data Centre
#                                CCDC
#
#######################################################################
#
# If this CIF has been generated from an entry in the Cambridge
# Structural Database, then it will include bibliographic, chemical,
# crystal, experimental, refinement or atomic coordinate data resulting
# from the CCDC's data processing and validation procedures.
#
#######################################################################

data_CSD_CIF_YOVLAX
_audit_creation_date 2009-08-17
_audit_creation_method CSD-ConQuest-V1
_database_code_CSD YOVLAX
_database_code_depnum_ccdc_archive 'CCDC 741643'
_chemical_formula_sum 'C31 H34 N2 O4'
_chemical_formula_moiety
;
C31 H34 N2 O4
;
_journal_coeditor_code "IUCr AT2813"
_journal_coden_Cambridge 1370
_journal_volume 65
_journal_year 2009
_journal_page_first o1627
_journal_name_full 'Acta Crystallogr.,Sect.E:Struct.Rep.Online '
loop_
_publ_author_name
"Wen-Kui Dong"
"Jian-Chao Wu"
"Yin-Xia Sun"
"Jun-Feng Tong"
"Shang-Sheng Gong"
_chemical_name_systematic
;
2,2'-[1,1'-(Heptane-1,7-diyldioxydinitrilo)diethylidyne]di-1-naphthol
;
_chemical_name_common
;
2,2'-(4,12-Dioxa-3,13-diazapentadeca-2,13-diene-2,14-diyl)di(1-naphthol)
;
_chemical_melting_point 388.5
_cell_volume   2666.337
_exptl_crystal_colour 'colorless'
_exptl_crystal_density_diffrn 1.242
_exptl_special_details
;
Melting point range 388.5-390.5K

;
_exptl_crystal_description 'needle'
_exptl_crystal_preparation 'dichloromethane/ethanol'
_diffrn_ambient_temperature 298
#These two values have been output from a single CSD field.
_refine_ls_R_factor_gt 0.0436
_refine_ls_wR_factor_gt 0.0436
_symmetry_cell_setting monoclinic
_symmetry_space_group_name_H-M 'C c'
_symmetry_Int_Tables_number 9
loop_
_symmetry_equiv_pos_site_id
_symmetry_equiv_pos_as_xyz
1 x,y,z
2 x,-y,1/2+z
3 1/2+x,1/2+y,z
4 1/2+x,1/2-y,1/2+z
_cell_length_a 11.1670(12)
_cell_length_b 30.992(3)
_cell_length_c 8.0562(10)
_cell_angle_alpha 90
_cell_angle_beta 106.999(2)
_cell_angle_gamma 90
_cell_formula_units_Z 4
loop_
_atom_type_symbol
_atom_type_radius_bond
C 0.68
H 0.23
N 0.68
O 0.68
loop_
_atom_site_label
_atom_site_type_symbol
_atom_site_fract_x
_atom_site_fract_y
_atom_site_fract_z
N1 N 0.5072(4) -0.01344(13) 0.4193(6)
N2 N 0.3241(4) 0.34282(14) 0.1038(7)
O1 O 0.5541(3) 0.02813(10) 0.4627(5)
O2 O 0.2551(4) 0.33008(11) 0.2159(6)
O3 O 0.3391(3) -0.06591(10) 0.2602(5)
H1 H 0.37080 -0.04220 0.28930
O4 O 0.4023(4) 0.32932(10) -0.1543(6)
H2 H 0.36720 0.32340 -0.08090
C1 C 0.4564(5) 0.05779(15) 0.3800(8)
H3 H 0.38400 0.05290 0.42100
H4 H 0.43140 0.05330 0.25540
C2 C 0.5032(5) 0.10340(15) 0.4216(8)
H5 H 0.57810 0.10780 0.38580
H6 H 0.52450 0.10830 0.54580
C3 C 0.4027(5) 0.13488(14) 0.3276(8)
H7 H 0.38480 0.13000 0.20380
H8 H 0.32690 0.12850 0.35850
C4 C 0.4333(5) 0.18204(15) 0.3637(8)
H9 H 0.45310 0.18720 0.48750
H10 H 0.50680 0.18920 0.32830
C5 C 0.3270(5) 0.21085(15) 0.2698(7)
H11 H 0.25500 0.20400 0.30930
H12 H 0.30490 0.20410 0.14700
C6 C 0.3514(6) 0.25888(16) 0.2920(9)
H13 H 0.37620 0.26600 0.41450
H14 H 0.41970 0.26660 0.24600
C7 C 0.2364(6) 0.28434(16) 0.1993(10)
H15 H 0.21160 0.27680 0.07720
H16 H 0.16850 0.27640 0.24560
C8 C 0.7100(5) -0.03440(16) 0.6125(9)
H17 H 0.73850 -0.00710 0.58240
H18 H 0.76720 -0.05670 0.60220
H19 H 0.70610 -0.03330 0.72990
C9 C 0.5832(5) -0.04386(16) 0.4933(7)
C10 C 0.4203(4) -0.09722(15) 0.3404(7)
C11 C 0.5372(4) -0.08821(15) 0.4514(7)
C12 C 0.6146(5) -0.12319(17) 0.5284(8)
H20 H 0.69400 -0.11780 0.60330
C13 C 0.5745(5) -0.16512(16) 0.4945(8)
H21 H 0.62720 -0.18760 0.54640
C14 C 0.4557(5) -0.17435(15) 0.3833(7)
C15 C 0.3764(4) -0.14046(15) 0.3028(7)
C16 C 0.2572(5) -0.14951(17) 0.1906(8)
H22 H 0.20500 -0.12710 0.13600
C17 C 0.2182(6) -0.1910(2) 0.1617(9)
H23 H 0.13830 -0.19690 0.08930
C18 C 0.2957(6) -0.22464(19) 0.2384(9)
H24 H 0.26720 -0.25290 0.21620
C19 C 0.4118(6) -0.21739(15) 0.3449(8)
H25 H 0.46320 -0.24050 0.39330
C20 C 0.3147(5) 0.41367(17) 0.2330(8)
H26 H 0.26080 0.43560 0.16630
H27 H 0.38810 0.42690 0.30900
H28 H 0.27100 0.39810 0.30050
C21 C 0.3522(4) 0.38312(17) 0.1130(8)
C22 C 0.4417(5) 0.37085(14) -0.1341(8)
C23 C 0.4214(5) 0.39749(16) -0.0081(8)
C24 C 0.4688(5) 0.44061(15) 0.0014(9)
H29 H 0.45550 0.45920 0.08500
C25 C 0.5314(5) 0.45511(19) -0.1051(9)
H30 H 0.56200 0.48320 -0.09310
C26 C 0.5518(5) 0.4283(2) -0.2361(9)
C27 C 0.5071(4) 0.38519(17) -0.2497(8)
C28 C 0.5259(5) 0.35823(19) -0.3813(9)
H31 H 0.49460 0.33020 -0.39310
C29 C 0.5895(6) 0.3728(2) -0.4915(10)
H32 H 0.60240 0.35480 -0.57690
C30 C 0.6349(5) 0.4149(3) -0.4751(10)
H33 H 0.67870 0.42460 -0.54990
C31 C 0.6171(5) 0.4419(2) -0.3538(10)
H34 H 0.64810 0.46990 -0.34690
#END
