
#######################################################################
#
#                 Cambridge Crystallographic Data Centre
#                                CCDC
#
#######################################################################
#
# If this CIF has been generated from an entry in the Cambridge
# Structural Database, then it will include bibliographic, chemical,
# crystal, experimental, refinement or atomic coordinate data resulting
# from the CCDC's data processing and validation procedures.
#
#######################################################################

data_CSD_CIF_YOWCIW
_audit_creation_date 1996-01-08
_audit_creation_method CSD-ConQuest-V1
_database_code_CSD YOWCIW
_chemical_formula_sum 'C10 H11 N1 O5'
_chemical_formula_moiety
;
C10 H11 N1 O5
;
_journal_coden_Cambridge 122
_journal_year 1993
_journal_page_first 737
_journal_name_full 'Khim.Get.Soedin.,SSSR(Russ.)(Chem.Heterocycl.Compd.) '
loop_
_publ_author_name
"K.I.Dikovskaya"
"T.V.Mazur"
"A.F.Mishnev"
"I.V.Turovskii"
"Ya.F.Freimanis"
_chemical_name_systematic
;
(+)-4-(Carboxymethyloxyiminomethyl)-2-oxabicyclo(3.3.0)-6-octen-3-one
;
_chemical_melting_point 383.15
_cell_volume   1046.734
_exptl_crystal_density_diffrn 1.42
_exptl_special_details
;
Melting point range 383.15-384.15K

;
_diffrn_ambient_temperature ?
_diffrn_special_details
;
The study was carried out at room temperature,in the range 283-303K

;
#These two values have been output from a single CSD field.
_refine_ls_R_factor_gt 0.074
_refine_ls_wR_factor_gt 0.074
_symmetry_cell_setting orthorhombic
_symmetry_space_group_name_H-M 'P 21 21 21'
_symmetry_Int_Tables_number 19
loop_
_symmetry_equiv_pos_site_id
_symmetry_equiv_pos_as_xyz
1 x,y,z
2 1/2-x,-y,1/2+z
3 1/2+x,1/2-y,-z
4 -x,1/2+y,1/2-z
_cell_length_a 4.724(1)
_cell_length_b 12.188(4)
_cell_length_c 18.180(5)
_cell_angle_alpha 90
_cell_angle_beta 90
_cell_angle_gamma 90
_cell_formula_units_Z 4
loop_
_atom_type_symbol
_atom_type_radius_bond
C 0.68
N 0.68
O 0.68
loop_
_atom_site_label
_atom_site_type_symbol
_atom_site_fract_x
_atom_site_fract_y
_atom_site_fract_z
C1 C -0.0139(12) 0.1989(5) -0.1940(3)
O1 O -0.2292(9) 0.2164(4) -0.2515(2)
C2 C -0.2951(13) 0.3217(5) -0.2592(2)
C3 C -0.1117(10) 0.3910(4) -0.2087(2)
C4 C -0.0012(11) 0.3095(4) -0.1525(3)
C5 C -0.1971(14) 0.2898(5) -0.0888(2)
C6 C -0.2636(19) 0.1840(5) -0.0819(3)
C7 C -0.1219(21) 0.1139(5) -0.1404(5)
O2 O -0.4738(11) 0.3546(5) -0.3003(2)
C8 C -0.2655(10) 0.4907(4) -0.1825(3)
N1 N -0.1764(10) 0.5619(3) -0.1371(2)
O3 O 0.0963(8) 0.5361(3) -0.1136(2)
C9 C 0.1880(12) 0.6184(4) -0.0632(3)
C10 C 0.0573(11) 0.6045(4) 0.0118(3)
O4 O -0.1219(10) 0.5401(4) 0.0274(2)
O5 O 0.1712(10) 0.6765(4) 0.0579(2)
#END
