
#######################################################################
#
#                 Cambridge Crystallographic Data Centre
#                                CCDC
#
#######################################################################
#
# If this CIF has been generated from an entry in the Cambridge
# Structural Database, then it will include bibliographic, chemical,
# crystal, experimental, refinement or atomic coordinate data resulting
# from the CCDC's data processing and validation procedures.
#
#######################################################################

data_CSD_CIF_YOWXAK01
_audit_creation_date 2009-11-24
_audit_creation_method CSD-ConQuest-V1
_database_code_CSD YOWXAK01
_database_code_depnum_ccdc_archive 'CCDC 715929'
_chemical_formula_sum 'C12 H16 N3 O3'
_chemical_formula_moiety
;
C12 H16 N3 O3
;
_journal_coden_Cambridge 35
_journal_volume 74
_journal_year 2009
_journal_page_first 2870
_journal_name_full 'J.Org.Chem. '
loop_
_publ_author_name
"O.N.Chupakhin"
"I.A.Utepova"
"M.V.Varaksin"
"E.V.Tretyakov"
"G.V.Romanenko"
"D.V.Stass"
"V.I.Ovcharenko"
_chemical_name_systematic
;
4,4,5,5-Tetramethyl-2-(1-oxidopyridin-2-yl)-3-oxido-4,5-dihydro-1H-imidazole-1
-oxyl
;
_chemical_melting_point 445.15
_cell_volume   1289.876
_exptl_crystal_colour 'claret red'
_exptl_crystal_density_diffrn 1.289
_exptl_special_details
;
Melting point range 445.15-447.15K
magnetic study
beta polymorph

;
_exptl_crystal_preparation 'n-heptane/dichloromethane'
_diffrn_ambient_temperature 295
#These two values have been output from a single CSD field.
_refine_ls_R_factor_gt 0.0682
_refine_ls_wR_factor_gt 0.0682
_symmetry_cell_setting monoclinic
_symmetry_space_group_name_H-M 'P 21/n'
_symmetry_Int_Tables_number 14
loop_
_symmetry_equiv_pos_site_id
_symmetry_equiv_pos_as_xyz
1 x,y,z
2 1/2-x,1/2+y,1/2-z
3 -x,-y,-z
4 -1/2+x,-1/2-y,-1/2+z
_cell_length_a 6.3148(12)
_cell_length_b 19.953(4)
_cell_length_c 10.259(2)
_cell_angle_alpha 90
_cell_angle_beta 93.738(3)
_cell_angle_gamma 90
_cell_formula_units_Z 4
loop_
_atom_type_symbol
_atom_type_radius_bond
C 0.68
H 0.23
N 0.68
O 0.68
loop_
_atom_site_label
_atom_site_type_symbol
_atom_site_fract_x
_atom_site_fract_y
_atom_site_fract_z
N1 N -0.3433(3) 0.09124(10) 0.19968(19)
O1 O -0.3662(4) 0.02745(9) 0.1978(2)
C1 C -0.4106(4) 0.13411(13) 0.0836(2)
N2 N -0.2493(4) 0.19168(11) 0.2679(2)
O2 O -0.1753(5) 0.23823(11) 0.3426(2)
C2 C -0.2713(9) 0.1134(2) -0.0252(4)
H1 H -0.297(7) 0.064(2) -0.048(4)
H2 H -0.108(9) 0.122(3) 0.012(5)
H3 H -0.309(7) 0.139(2) -0.095(5)
N3 N 0.0215(3) 0.09584(10) 0.46392(19)
O3 O 0.1619(3) 0.11255(10) 0.38375(18)
C3 C -0.6403(7) 0.1185(2) 0.0458(5)
H4 H -0.646(6) 0.074(2) 0.012(4)
H5 H -0.698(7) 0.146(2) -0.022(5)
H6 H -0.745(9) 0.124(3) 0.109(6)
C4 C -0.3676(4) 0.20673(13) 0.1389(2)
C5 C -0.2273(7) 0.2503(2) 0.0597(4)
H7 H -0.184(6) 0.290(2) 0.111(4)
H8 H -0.307(6) 0.2620(19) -0.021(4)
H9 H -0.097(7) 0.227(2) 0.048(4)
C6 C -0.5669(6) 0.2443(2) 0.1716(4)
H10 H -0.518(6) 0.288(2) 0.219(4)
H11 H -0.652(6) 0.215(2) 0.229(4)
H12 H -0.636(6) 0.2585(18) 0.092(4)
C7 C -0.2512(4) 0.12684(12) 0.2981(2)
C8 C -0.1895(4) 0.09984(12) 0.4282(2)
C9 C 0.0806(4) 0.07203(13) 0.5863(2)
H13 H 0.234(5) 0.0694(14) 0.605(3)
C10 C -0.0654(5) 0.05100(14) 0.6693(3)
H14 H -0.014(5) 0.0352(16) 0.754(3)
C11 C -0.2779(5) 0.05366(16) 0.6337(3)
H15 H -0.390(5) 0.0384(15) 0.680(3)
C12 C -0.3388(4) 0.07880(15) 0.5102(3)
H16 H -0.488(5) 0.0846(14) 0.477(3)
#END
