
#######################################################################
#
#                 Cambridge Crystallographic Data Centre
#                                CCDC
#
#######################################################################
#
# If this CIF has been generated from an entry in the Cambridge
# Structural Database, then it will include bibliographic, chemical,
# crystal, experimental, refinement or atomic coordinate data resulting
# from the CCDC's data processing and validation procedures.
#
#######################################################################

data_CSD_CIF_YOWXUE
_audit_creation_date 2009-11-24
_audit_creation_method CSD-ConQuest-V1
_database_code_CSD YOWXUE
_database_code_depnum_ccdc_archive 'CCDC 715933'
_chemical_formula_sum 'C16 H18 N3 O3'
_chemical_formula_moiety
;
C16 H18 N3 O3
;
_journal_coden_Cambridge 35
_journal_volume 74
_journal_year 2009
_journal_page_first 2870
_journal_name_full 'J.Org.Chem. '
loop_
_publ_author_name
"O.N.Chupakhin"
"I.A.Utepova"
"M.V.Varaksin"
"E.V.Tretyakov"
"G.V.Romanenko"
"D.V.Stass"
"V.I.Ovcharenko"
_chemical_name_systematic
;
4,4,5,5-Tetramethyl-2-(2-oxidoisoquinolin-1-yl)-3-oxido-4,5-dihydro-1H-imidazo
le-1-oxyl
;
_chemical_melting_point 483.15
_cell_volume   1537.664
_exptl_crystal_colour 'purple-brown'
_exptl_crystal_density_diffrn 1.297
_exptl_special_details
;
Melting point range 483.15-483.65K
magnetic study

;
_exptl_crystal_preparation 'n-heptane/dichloromethane'
_diffrn_ambient_temperature 218
#These two values have been output from a single CSD field.
_refine_ls_R_factor_gt 0.086
_refine_ls_wR_factor_gt 0.086
_symmetry_cell_setting monoclinic
_symmetry_space_group_name_H-M 'P 21/c'
_symmetry_Int_Tables_number 14
loop_
_symmetry_equiv_pos_site_id
_symmetry_equiv_pos_as_xyz
1 x,y,z
2 -x,1/2+y,1/2-z
3 -x,-y,-z
4 x,-1/2-y,-1/2+z
_cell_length_a 12.243(5)
_cell_length_b 11.512(4)
_cell_length_c 11.624(4)
_cell_angle_alpha 90
_cell_angle_beta 110.187(7)
_cell_angle_gamma 90
_cell_formula_units_Z 4
loop_
_atom_type_symbol
_atom_type_radius_bond
C 0.68
H 0.23
N 0.68
O 0.68
loop_
_atom_site_label
_atom_site_type_symbol
_atom_site_fract_x
_atom_site_fract_y
_atom_site_fract_z
O1 O 0.8783(2) 0.3697(2) 0.4021(2)
N1 N 0.7745(2) 0.3296(2) 0.3644(3)
C1 C 0.6694(3) 0.4075(3) 0.3419(3)
C2 C 0.6882(4) 0.4939(4) 0.4452(4)
C3 C 0.6569(4) 0.4717(4) 0.2234(4)
C4 C 0.5731(3) 0.3141(3) 0.3273(3)
C5 C 0.5580(4) 0.2814(4) 0.4490(5)
C6 C 0.4562(3) 0.3409(4) 0.2294(5)
N2 N 0.6269(2) 0.2115(2) 0.2896(3)
O2 O 0.5675(2) 0.1208(2) 0.2419(2)
C7 C 0.7422(3) 0.2223(3) 0.3224(3)
C8 C 0.8187(3) 0.1306(3) 0.3077(3)
C9 C 0.8373(3) 0.0247(3) 0.3752(3)
C10 C 0.7847(3) 0.0014(3) 0.4631(3)
C11 C 0.8059(4) -0.1024(3) 0.5245(4)
C12 C 0.8802(3) -0.1852(3) 0.5030(4)
C13 C 0.9335(3) -0.1649(3) 0.4195(4)
C14 C 0.9125(3) -0.0599(3) 0.3535(3)
C15 C 0.9633(3) -0.0345(3) 0.2632(3)
C16 C 0.9401(3) 0.0666(3) 0.2008(4)
N3 N 0.8675(2) 0.1487(2) 0.2218(3)
O3 O 0.8440(2) 0.2428(2) 0.1562(2)
H1 H 0.971(3) 0.086(3) 0.142(3)
H2 H 0.991(3) -0.213(3) 0.405(3)
H3 H 0.738(3) 0.053(3) 0.482(3)
H4 H 1.013(3) -0.091(3) 0.246(3)
H5 H 0.618(4) 0.545(4) 0.420(4)
H6 H 0.419(3) 0.413(4) 0.251(3)
H7 H 0.759(4) 0.542(4) 0.449(4)
H8 H 0.588(3) 0.532(3) 0.199(3)
H9 H 0.407(3) 0.279(3) 0.223(3)
H10 H 0.761(3) -0.121(3) 0.578(3)
H11 H 0.523(3) 0.340(3) 0.471(3)
H12 H 0.466(3) 0.355(3) 0.150(4)
H13 H 0.648(3) 0.414(3) 0.154(3)
H14 H 0.725(4) 0.515(3) 0.238(3)
H15 H 0.511(4) 0.209(4) 0.432(4)
H16 H 0.638(4) 0.267(3) 0.513(4)
H17 H 0.885(3) -0.256(3) 0.542(3)
H18 H 0.702(3) 0.454(3) 0.517(4)
#END
