
#######################################################################
#
#                 Cambridge Crystallographic Data Centre
#                                CCDC
#
#######################################################################
#
# If this CIF has been generated from an entry in the Cambridge
# Structural Database, then it will include bibliographic, chemical,
# crystal, experimental, refinement or atomic coordinate data resulting
# from the CCDC's data processing and validation procedures.
#
#######################################################################

data_CSD_CIF_YOWXOY
_audit_creation_date 2009-11-24
_audit_creation_method CSD-ConQuest-V1
_database_code_CSD YOWXOY
_database_code_depnum_ccdc_archive 'CCDC 715932'
_chemical_formula_sum 'C22 H22 N5 O3'
_chemical_formula_moiety
;
C22 H22 N5 O3
;
_journal_coden_Cambridge 35
_journal_volume 74
_journal_year 2009
_journal_page_first 2870
_journal_name_full 'J.Org.Chem. '
loop_
_publ_author_name
"O.N.Chupakhin"
"I.A.Utepova"
"M.V.Varaksin"
"E.V.Tretyakov"
"G.V.Romanenko"
"D.V.Stass"
"V.I.Ovcharenko"
_chemical_name_systematic
;
4,4,5,5-Tetramethyl-2-(4-oxido-3,6-diphenyl-1,2,4-triazin-5-yl)-3-oxido-4,5-di
hydro-1H-imidazole-1-oxyl
;
_chemical_melting_point 468.15
_cell_volume   2054.759
_exptl_crystal_colour 'red'
_exptl_crystal_density_diffrn 1.307
_exptl_special_details
;
Melting point range 468.15-469.15K
magnetic study

;
_exptl_crystal_description 'needle'
_exptl_crystal_preparation 'n-heptane/dichloromethane'
_diffrn_ambient_temperature 295
#These two values have been output from a single CSD field.
_refine_ls_R_factor_gt 0.0655
_refine_ls_wR_factor_gt 0.0655
_symmetry_cell_setting orthorhombic
_symmetry_space_group_name_H-M 'P 21 21 21'
_symmetry_Int_Tables_number 19
loop_
_symmetry_equiv_pos_site_id
_symmetry_equiv_pos_as_xyz
1 x,y,z
2 1/2-x,-y,1/2+z
3 -x,1/2+y,1/2-z
4 1/2+x,1/2-y,-z
_cell_length_a 10.323(4)
_cell_length_b 11.378(5)
_cell_length_c 17.494(7)
_cell_angle_alpha 90
_cell_angle_beta 90
_cell_angle_gamma 90
_cell_formula_units_Z 4
loop_
_atom_type_symbol
_atom_type_radius_bond
C 0.68
H 0.23
N 0.68
O 0.68
loop_
_atom_site_label
_atom_site_type_symbol
_atom_site_fract_x
_atom_site_fract_y
_atom_site_fract_z
N1 N 0.3459(3) 0.0624(3) 0.0062(3)
O1 O 0.2299(3) 0.0917(3) -0.0101(3)
C1 C 0.3831(4) -0.0575(4) 0.0329(3)
C2 C 0.3438(5) -0.0598(5) 0.1179(3)
H1 H 0.25100 -0.06060 0.12190
H2 H 0.37720 0.00870 0.14300
H3 H 0.37850 -0.12910 0.14160
C3 C 0.3087(4) -0.1487(4) -0.0101(4)
H4 H 0.33400 -0.14730 -0.06290
H5 H 0.21770 -0.13250 -0.00610
H6 H 0.32660 -0.22480 0.01100
C4 C 0.5297(4) -0.0558(3) 0.0202(3)
C5 C 0.5713(4) -0.1048(4) -0.0566(3)
H7 H 0.66390 -0.10130 -0.06080
H8 H 0.53290 -0.05920 -0.09690
H9 H 0.54330 -0.18500 -0.06090
C6 C 0.6125(4) -0.1079(4) 0.0817(3)
H10 H 0.58530 -0.07820 0.13050
H11 H 0.70140 -0.08690 0.07300
H12 H 0.60390 -0.19190 0.08110
N2 N 0.5548(3) 0.0748(3) 0.0159(2)
O2 O 0.6672(3) 0.1184(3) 0.0205(2)
C7 C 0.4464(4) 0.1344(3) 0.0045(2)
C8 C 0.4436(4) 0.2629(3) -0.0034(3)
N3 N 0.4223(3) 0.3210(3) 0.0629(2)
O3 O 0.4028(3) 0.2665(3) 0.1249(2)
C9 C 0.4302(4) 0.4417(4) 0.0616(3)
C10 C 0.4121(4) 0.5072(4) 0.1338(3)
C11 C 0.3049(4) 0.4917(4) 0.1799(3)
H13 H 0.24310 0.43530 0.16770
C12 C 0.2898(5) 0.5610(5) 0.2446(3)
H14 H 0.21590 0.55250 0.27450
C13 C 0.3816(6) 0.6410(5) 0.2651(3)
H15 H 0.37160 0.68600 0.30910
C14 C 0.4888(6) 0.6542(5) 0.2199(3)
H16 H 0.55150 0.70900 0.23340
C15 C 0.5055(5) 0.5882(4) 0.1550(3)
H17 H 0.57950 0.59780 0.12540
N4 N 0.4542(3) 0.5000(3) -0.0012(3)
N5 N 0.4700(3) 0.4443(3) -0.0687(2)
C16 C 0.4640(4) 0.3284(4) -0.0695(3)
C17 C 0.4832(5) 0.2674(4) -0.1430(3)
C18 C 0.5847(5) 0.2985(4) -0.1896(3)
H18 H 0.64140 0.35700 -0.17360
C19 C 0.6048(7) 0.2450(6) -0.2596(3)
H19 H 0.67510 0.26610 -0.28990
C20 C 0.5197(9) 0.1606(7) -0.2834(4)
H20 H 0.53030 0.12540 -0.33100
C21 C 0.4186(8) 0.1277(6) -0.2372(4)
H21 H 0.36230 0.06860 -0.25270
C22 C 0.4012(5) 0.1821(5) -0.1685(3)
H22 H 0.33120 0.16040 -0.13810
#END
