
#######################################################################
#
#                 Cambridge Crystallographic Data Centre
#                                CCDC
#
#######################################################################
#
# If this CIF has been generated from an entry in the Cambridge
# Structural Database, then it will include bibliographic, chemical,
# crystal, experimental, refinement or atomic coordinate data resulting
# from the CCDC's data processing and validation procedures.
#
#######################################################################

data_CSD_CIF_YOWXAK
_audit_creation_date 2009-11-24
_audit_creation_method CSD-ConQuest-V1
_database_code_CSD YOWXAK
_database_code_depnum_ccdc_archive 'CCDC 715928'
_chemical_formula_sum 'C12 H16 N3 O3'
_chemical_formula_moiety
;
C12 H16 N3 O3
;
_journal_coden_Cambridge 35
_journal_volume 74
_journal_year 2009
_journal_page_first 2870
_journal_name_full 'J.Org.Chem. '
loop_
_publ_author_name
"O.N.Chupakhin"
"I.A.Utepova"
"M.V.Varaksin"
"E.V.Tretyakov"
"G.V.Romanenko"
"D.V.Stass"
"V.I.Ovcharenko"
_chemical_name_systematic
;
4,4,5,5-Tetramethyl-2-(1-oxidopyridin-2-yl)-3-oxido-4,5-dihydro-1H-imidazole-1
-oxyl
;
_cell_volume   1292.956
_exptl_crystal_density_diffrn 1.286
_exptl_special_details
;
magnetic study
alpha polymorph

;
_exptl_crystal_preparation 'toluene/dichloromethane'
_diffrn_ambient_temperature 240
#These two values have been output from a single CSD field.
_refine_ls_R_factor_gt 0.029
_refine_ls_wR_factor_gt 0.029
_symmetry_cell_setting orthorhombic
_symmetry_space_group_name_H-M 'P 21 21 21'
_symmetry_Int_Tables_number 19
loop_
_symmetry_equiv_pos_site_id
_symmetry_equiv_pos_as_xyz
1 x,y,z
2 1/2-x,-y,1/2+z
3 -x,1/2+y,1/2-z
4 1/2+x,1/2-y,-z
_cell_length_a 10.419(4)
_cell_length_b 11.019(5)
_cell_length_c 11.262(5)
_cell_angle_alpha 90
_cell_angle_beta 90
_cell_angle_gamma 90
_cell_formula_units_Z 4
loop_
_atom_type_symbol
_atom_type_radius_bond
C 0.68
H 0.23
N 0.68
O 0.68
loop_
_atom_site_label
_atom_site_type_symbol
_atom_site_fract_x
_atom_site_fract_y
_atom_site_fract_z
N1 N -0.1367(1) 0.52030(9) -0.03746(9)
O1 O -0.19971(10) 0.46189(11) -0.11540(9)
C1 C -0.17671(12) 0.52261(11) 0.09062(10)
O2 O 0.12450(9) 0.68105(9) 0.05842(9)
N2 N 0.01818(9) 0.62443(9) 0.04560(9)
C2 C -0.15540(17) 0.39428(13) 0.13729(14)
H1 H -0.2092(17) 0.3398(14) 0.0944(16)
H2 H -0.1740(15) 0.3896(13) 0.2208(15)
H3 H -0.0679(19) 0.3638(15) 0.1286(16)
N3 N 0.12019(9) 0.49132(10) -0.19924(10)
O3 O 0.14127(10) 0.40442(9) -0.12358(9)
C3 C -0.31742(12) 0.55757(15) 0.09617(13)
H4 H -0.3311(16) 0.6343(15) 0.0564(15)
H5 H -0.3446(15) 0.5651(14) 0.1770(15)
H6 H -0.3643(17) 0.4939(15) 0.0546(15)
C4 C -0.08094(11) 0.61886(11) 0.14219(10)
C5 C -0.01592(14) 0.58438(18) 0.25784(12)
H7 H 0.0461(17) 0.6482(14) 0.2785(15)
H8 H 0.034(2) 0.5096(18) 0.2486(17)
H9 H -0.0760(17) 0.5820(16) 0.3201(16)
C6 C -0.13627(18) 0.74687(15) 0.1503(2)
H10 H -0.0683(19) 0.7966(17) 0.1685(17)
H11 H -0.179(2) 0.7643(18) 0.0763(19)
H12 H -0.198(3) 0.752(2) 0.216(2)
C7 C -0.02391(11) 0.57487(11) -0.05492(10)
C8 C 0.03895(11) 0.58357(11) -0.17086(10)
C9 C 0.17788(13) 0.49160(16) -0.30747(14)
H13 H 0.2315(16) 0.4272(15) -0.3189(16)
C10 C 0.15622(15) 0.58333(18) -0.38709(13)
H14 H 0.1958(19) 0.5821(17) -0.4605(19)
C11 C 0.07437(17) 0.67678(16) -0.35955(14)
H15 H 0.065(2) 0.7431(16) -0.4161(18)
C12 C 0.01542(14) 0.67599(13) -0.25035(13)
H16 H -0.0414(19) 0.7377(16) -0.2297(18)
#END
