
#######################################################################
#
#                 Cambridge Crystallographic Data Centre
#                                CCDC
#
#######################################################################
#
# If this CIF has been generated from an entry in the Cambridge
# Structural Database, then it will include bibliographic, chemical,
# crystal, experimental, refinement or atomic coordinate data resulting
# from the CCDC's data processing and validation procedures.
#
#######################################################################

data_CSD_CIF_YOWYAL
_audit_creation_date 2009-11-24
_audit_creation_method CSD-ConQuest-V1
_database_code_CSD YOWYAL
_database_code_depnum_ccdc_archive 'CCDC 715934'
_chemical_formula_sum 'C15 H17 N4 O3'
_chemical_formula_moiety
;
C15 H17 N4 O3
;
_journal_coden_Cambridge 35
_journal_volume 74
_journal_year 2009
_journal_page_first 2870
_journal_name_full 'J.Org.Chem. '
loop_
_publ_author_name
"O.N.Chupakhin"
"I.A.Utepova"
"M.V.Varaksin"
"E.V.Tretyakov"
"G.V.Romanenko"
"D.V.Stass"
"V.I.Ovcharenko"
_chemical_name_systematic
;
4,4,5,5-Tetramethyl-2-(2-oxidophthalazin-1-yl)-3-oxido-4,5-dihydro-1H-imidazol
e-1-oxyl
;
_chemical_melting_point 458.15
_cell_volume   5943.437
_exptl_crystal_colour 'brown'
_exptl_crystal_density_diffrn 1.347
_exptl_special_details
;
Melts with decomposition.
magnetic study

;
_exptl_crystal_preparation 'n-heptane/dichloromethane'
_diffrn_ambient_temperature 218
#These two values have been output from a single CSD field.
_refine_ls_R_factor_gt 0.0614
_refine_ls_wR_factor_gt 0.0614
_symmetry_cell_setting monoclinic
_symmetry_space_group_name_H-M 'C 2/c'
_symmetry_Int_Tables_number 15
loop_
_symmetry_equiv_pos_site_id
_symmetry_equiv_pos_as_xyz
1 x,y,z
2 -x,y,1/2-z
3 1/2+x,1/2+y,z
4 1/2-x,1/2+y,1/2-z
5 -x,-y,-z
6 x,-y,-1/2+z
7 -1/2-x,-1/2-y,-z
8 -1/2+x,-1/2-y,-1/2+z
_cell_length_a 22.275(4)
_cell_length_b 11.815(2)
_cell_length_c 22.584(4)
_cell_angle_alpha 90
_cell_angle_beta 90.470(3)
_cell_angle_gamma 90
_cell_formula_units_Z 16
loop_
_atom_type_symbol
_atom_type_radius_bond
C 0.68
H 0.23
N 0.68
O 0.68
loop_
_atom_site_label
_atom_site_type_symbol
_atom_site_fract_x
_atom_site_fract_y
_atom_site_fract_z
N1 N 0.18475(8) 0.52284(15) 0.40561(7)
O1 O 0.18905(8) 0.44634(14) 0.44533(7)
C1 C 0.23346(10) 0.54547(18) 0.36106(9)
C2 C 0.28259(13) 0.6087(3) 0.39490(13)
H1 H 0.2958(13) 0.559(2) 0.4254(13)
H2 H 0.2678(13) 0.682(3) 0.4132(12)
H3 H 0.3131(12) 0.629(2) 0.3696(11)
C3 C 0.25664(14) 0.4349(2) 0.33642(13)
H4 H 0.2789(11) 0.395(2) 0.3673(10)
H5 H 0.2842(12) 0.448(2) 0.3062(11)
H6 H 0.2237(13) 0.387(2) 0.3229(11)
C4 C 0.19913(10) 0.62070(18) 0.31557(9)
C5 C 0.16711(13) 0.5549(2) 0.26646(11)
H7 H 0.1437(12) 0.605(2) 0.2432(11)
H8 H 0.1439(10) 0.4878(19) 0.2834(10)
H9 H 0.1967(12) 0.529(2) 0.2377(11)
C6 C 0.23486(15) 0.7172(2) 0.28933(14)
H10 H 0.2079(13) 0.760(2) 0.2652(12)
H11 H 0.2673(12) 0.689(2) 0.2678(11)
H12 H 0.2528(13) 0.760(2) 0.3177(13)
N2 N 0.14989(8) 0.66658(15) 0.35400(8)
O2 O 0.11602(8) 0.74802(14) 0.33880(8)
C7 C 0.1412(1) 0.60049(18) 0.40147(9)
C8 C 0.08923(10) 0.61471(17) 0.43938(9)
C9 C 0.0301(1) 0.58999(17) 0.41954(9)
C10 C 0.01752(11) 0.5409(2) 0.3641(1)
H13 H 0.0483(11) 0.520(2) 0.3377(10)
C11 C -0.04061(12) 0.5187(2) 0.34851(12)
H14 H -0.0472(12) 0.488(2) 0.3132(11)
C12 C -0.08822(13) 0.5424(2) 0.38704(12)
H15 H -0.1277(13) 0.523(2) 0.3751(11)
C13 C -0.07683(11) 0.5894(2) 0.44111(12)
H16 H -0.1080(12) 0.600(2) 0.4666(11)
C14 C -0.01746(10) 0.61431(17) 0.45789(10)
C15 C -0.00126(12) 0.6609(2) 0.51352(10)
H17 H -0.0351(13) 0.675(2) 0.5401(12)
N3 N 0.05289(10) 0.68425(16) 0.53160(8)
N4 N 0.09888(9) 0.66093(15) 0.49298(8)
O3 O 0.15103(8) 0.68733(15) 0.51069(7)
N5 N 0.10203(8) 1.11635(15) 0.39610(8)
O4 O 0.05281(8) 1.16705(15) 0.40556(7)
C16 C 0.13744(11) 1.06101(19) 0.44487(10)
C17 C 0.14158(16) 1.1418(3) 0.49720(12)
H18 H 0.1015(13) 1.142(2) 0.5150(12)
H19 H 0.1557(12) 1.218(3) 0.4848(11)
H20 H 0.1716(14) 1.116(2) 0.5295(13)
C18 C 0.10362(14) 0.9534(2) 0.46092(13)
H21 H 0.0661(13) 0.971(2) 0.4718(11)
H22 H 0.1259(13) 0.911(2) 0.4953(12)
H23 H 0.0997(11) 0.904(2) 0.4287(12)
C19 C 0.19798(10) 1.03940(18) 0.41324(9)
C20 C 0.24210(14) 1.1385(3) 0.41767(16)
H24 H 0.2777(15) 1.122(3) 0.3883(13)
H25 H 0.2571(14) 1.142(2) 0.4565(14)
H26 H 0.2213(13) 1.209(2) 0.4091(11)
C21 C 0.22926(14) 0.9287(2) 0.42794(13)
H27 H 0.2660(13) 0.925(2) 0.4049(11)
H28 H 0.2015(12) 0.864(2) 0.4251(11)
H29 H 0.2452(12) 0.932(2) 0.4678(13)
N6 N 0.17766(8) 1.03851(16) 0.34961(8)
O5 O 0.21104(8) 1.00509(16) 0.30783(7)
C22 C 0.12529(10) 1.09375(18) 0.34308(9)
C23 C 0.10004(10) 1.12654(19) 0.28579(10)
C24 C 0.08389(10) 1.04884(19) 0.2410(1)
C25 C 0.08561(12) 0.9314(2) 0.24891(11)
H30 H 0.0996(11) 0.901(2) 0.2851(11)
C26 C 0.06911(14) 0.8622(3) 0.20369(13)
H31 H 0.0689(13) 0.784(3) 0.2105(12)
C27 C 0.05081(14) 0.9062(3) 0.14833(13)
H32 H 0.0384(14) 0.855(3) 0.1188(14)
C28 C 0.04863(13) 1.0183(3) 0.13987(12)
H33 H 0.0372(13) 1.052(2) 0.1068(12)
C29 C 0.06467(11) 1.0932(2) 0.18632(10)
C30 C 0.06200(13) 1.2112(3) 0.18143(13)
H34 H 0.0511(12) 1.249(2) 0.1462(12)
N7 N 0.07588(11) 1.28351(19) 0.22366(11)
N8 N 0.09604(10) 1.23881(17) 0.27636(9)
O6 O 0.11129(10) 1.31000(15) 0.31530(9)
#END
