
#######################################################################
#
#                 Cambridge Crystallographic Data Centre
#                                CCDC
#
#######################################################################
#
# If this CIF has been generated from an entry in the Cambridge
# Structural Database, then it will include bibliographic, chemical,
# crystal, experimental, refinement or atomic coordinate data resulting
# from the CCDC's data processing and validation procedures.
#
#######################################################################

data_CSD_CIF_YOWYEP
_audit_creation_date 2009-11-24
_audit_creation_method CSD-ConQuest-V1
_database_code_CSD YOWYEP
_database_code_depnum_ccdc_archive 'CCDC 715935'
_chemical_formula_sum 'C15 H17 N4 O3'
_chemical_formula_moiety
;
C15 H17 N4 O3
;
_journal_coden_Cambridge 35
_journal_volume 74
_journal_year 2009
_journal_page_first 2870
_journal_name_full 'J.Org.Chem. '
loop_
_publ_author_name
"O.N.Chupakhin"
"I.A.Utepova"
"M.V.Varaksin"
"E.V.Tretyakov"
"G.V.Romanenko"
"D.V.Stass"
"V.I.Ovcharenko"
_chemical_name_systematic
;
4,4,5,5-Tetramethyl-2-(1-oxidoquinoxalin-2-yl)-3-oxido-4,5-dihydro-1H-imidazol
e-1-oxyl
;
_chemical_melting_point 466.15
_cell_volume   1439.029
_exptl_crystal_colour 'green-brown'
_exptl_crystal_density_diffrn 1.391
_exptl_special_details
;
Melting point range 466.15-467.15K
magnetic study

;
_exptl_crystal_preparation 'n-heptane/dichloromethane'
_diffrn_ambient_temperature 218
#These two values have been output from a single CSD field.
_refine_ls_R_factor_gt 0.0787
_refine_ls_wR_factor_gt 0.0787
_symmetry_cell_setting triclinic
_symmetry_space_group_name_H-M 'P -1'
_symmetry_Int_Tables_number 2
loop_
_symmetry_equiv_pos_site_id
_symmetry_equiv_pos_as_xyz
1 x,y,z
2 -x,-y,-z
_cell_length_a 10.803(4)
_cell_length_b 11.128(5)
_cell_length_c 14.440(6)
_cell_angle_alpha 68.789(7)
_cell_angle_beta 68.106(6)
_cell_angle_gamma 67.542(6)
_cell_formula_units_Z 4
loop_
_atom_type_symbol
_atom_type_radius_bond
C 0.68
H 0.23
N 0.68
O 0.68
loop_
_atom_site_label
_atom_site_type_symbol
_atom_site_fract_x
_atom_site_fract_y
_atom_site_fract_z
O1 O 0.3309(3) 0.5261(2) 0.08643(19)
N1 N 0.3571(3) 0.4056(3) 0.0859(2)
C1 C 0.4240(3) 0.2874(3) 0.1612(2)
O2 O 0.3624(3) 0.1631(2) -0.0091(2)
N2 N 0.3760(3) 0.2323(3) 0.0382(2)
C2 C 0.3103(4) 0.2697(4) 0.2613(3)
H1 H 0.273(4) 0.349(5) 0.283(3)
H2 H 0.338(3) 0.191(3) 0.314(3)
H3 H 0.225(5) 0.255(4) 0.255(4)
O3 O 0.0739(2) 0.5540(2) 0.05837(17)
C3 C 0.5398(4) 0.3167(4) 0.1753(3)
H4 H 0.493(5) 0.390(5) 0.210(4)
H5 H 0.600(4) 0.348(4) 0.108(4)
H6 H 0.603(5) 0.230(5) 0.217(4)
C4 C 0.4714(3) 0.1746(3) 0.1064(2)
C5 C 0.6183(4) 0.1577(4) 0.0330(3)
H7 H 0.635(3) 0.087(3) -0.008(3)
H8 H 0.696(5) 0.115(5) 0.072(4)
H9 H 0.624(4) 0.257(4) -0.015(3)
C6 C 0.4558(4) 0.0394(4) 0.1768(3)
H10 H 0.498(4) -0.034(4) 0.130(3)
H11 H 0.355(4) 0.056(3) 0.222(3)
H12 H 0.496(5) 0.015(4) 0.226(4)
C7 C 0.3247(3) 0.3649(3) 0.0237(3)
C8 C 0.2592(3) 0.4534(3) -0.0571(2)
C9 C 0.3200(4) 0.4443(4) -0.1598(3)
H13 H 0.391(4) 0.383(3) -0.170(3)
N3 N 0.2752(3) 0.5288(3) -0.2384(2)
C10 C 0.1610(4) 0.6340(3) -0.2160(3)
C11 C 0.1081(4) 0.7310(4) -0.2967(3)
H14 H 0.159(4) 0.721(4) -0.367(3)
C12 C -0.0044(4) 0.8362(4) -0.2773(3)
H15 H -0.042(4) 0.899(4) -0.328(3)
C13 C -0.0721(4) 0.8466(4) -0.1766(3)
H16 H -0.141(4) 0.914(4) -0.170(3)
C14 C -0.0275(4) 0.7532(4) -0.0957(3)
H17 H -0.066(4) 0.752(4) -0.031(3)
C15 C 0.0903(3) 0.6475(3) -0.1159(3)
N4 N 0.1403(3) 0.5496(3) -0.0346(2)
O4 O 0.8224(3) 0.0361(2) 0.21114(19)
O5 O 0.8787(3) -0.3246(3) 0.49006(19)
O6 O 0.5715(2) 0.0492(2) 0.37731(18)
N5 N 0.8881(3) -0.2569(3) 0.3966(2)
N6 N 0.8584(3) -0.0843(3) 0.2632(2)
C16 C 0.9811(4) -0.3121(3) 0.3067(3)
C17 C 1.1285(5) -0.3242(5) 0.3025(4)
H18 H 1.159(6) -0.393(6) 0.357(4)
H19 H 1.130(5) -0.211(5) 0.300(4)
H20 H 1.198(5) -0.368(4) 0.245(4)
C18 C 0.9701(5) -0.4505(4) 0.3216(3)
H21 H 1.012(4) -0.520(4) 0.382(3)
H22 H 1.030(4) -0.488(4) 0.259(3)
H23 H 0.878(5) -0.457(4) 0.326(3)
C19 C 0.9264(3) -0.2005(3) 0.2170(3)
C20 C 1.0393(4) -0.1678(4) 0.1185(3)
H24 H 0.996(4) -0.099(4) 0.068(4)
H25 H 1.099(5) -0.258(5) 0.095(4)
H26 H 1.106(4) -0.132(3) 0.131(3)
C21 C 0.8136(4) -0.2246(4) 0.1929(3)
H27 H 0.770(4) -0.139(4) 0.152(3)
H28 H 0.729(3) -0.226(3) 0.256(2)
H29 H 0.868(4) -0.316(4) 0.162(3)
C22 C 0.8315(3) -0.1248(3) 0.3660(3)
C23 C 0.7664(4) -0.0355(3) 0.4340(3)
C24 C 0.8336(4) -0.0350(4) 0.4997(3)
H30 H 0.919(4) -0.101(4) 0.504(3)
N7 N 0.7892(3) 0.0508(3) 0.5545(2)
C25 C 0.6671(4) 0.1465(3) 0.5448(3)
C26 C 0.4663(4) 0.2513(4) 0.4748(3)
H31 H 0.423(5) 0.242(4) 0.436(4)
C27 C 0.4194(4) 0.3477(4) 0.5260(3)
H32 H 0.340(4) 0.412(3) 0.523(3)
C28 C 0.4934(5) 0.3454(4) 0.5878(3)
H33 H 0.464(4) 0.406(4) 0.616(3)
C29 C 0.6141(4) 0.2475(4) 0.5974(3)
H34 H 0.670(4) 0.240(4) 0.641(3)
C30 C 0.5911(3) 0.1515(3) 0.4825(2)
N8 N 0.6413(3) 0.0534(3) 0.4293(2)
#END
