
#######################################################################
#
#                 Cambridge Crystallographic Data Centre
#                                CCDC
#
#######################################################################
#
# If this CIF has been generated from an entry in the Cambridge
# Structural Database, then it will include bibliographic, chemical,
# crystal, experimental, refinement or atomic coordinate data resulting
# from the CCDC's data processing and validation procedures.
#
#######################################################################

data_CSD_CIF_YOYHUQ
_audit_creation_date 2009-11-24
_audit_creation_method CSD-ConQuest-V1
_database_code_CSD YOYHUQ
_database_code_depnum_ccdc_archive 'CCDC 717888'
_chemical_formula_sum 'C25 H26 N2 O1'
_chemical_formula_moiety
;
C25 H26 N2 O1
;
_journal_coden_Cambridge 1127
_journal_volume 19
_journal_year 2009
_journal_page_first 2981
_journal_name_full 'Bioorg.Med.Chem.Lett. '
loop_
_publ_author_name
"P.Parthiban"
"G.Aridoss"
"P.Rathika"
"V.Ramkumar"
"S.Kabilan"
_chemical_name_systematic
;
t-3-Methyl-r-2,c-6-diphenylpiperidin-4-one O-benzyloxime
;
_chemical_name_common
;
N-(Benzyloxy)-3-methyl-2,6-diphenyl-4-piperidinimine
;
_chemical_melting_point 369.15
_cell_volume   2131.457
_exptl_crystal_colour 'colorless'
_exptl_crystal_density_diffrn 1.155
_exptl_special_details
;
Antimicrobial activity. Tested in-vitro against four bacterial and six fungal 
strains, with poor to negligible activity in all cases
;
_exptl_crystal_description 'prism'
_exptl_crystal_preparation 'ethanol'
_diffrn_ambient_temperature 293
#These two values have been output from a single CSD field.
_refine_ls_R_factor_gt 0.0551
_refine_ls_wR_factor_gt 0.0551
_symmetry_cell_setting triclinic
_symmetry_space_group_name_H-M 'P -1'
_symmetry_Int_Tables_number 2
loop_
_symmetry_equiv_pos_site_id
_symmetry_equiv_pos_as_xyz
1 x,y,z
2 -x,-y,-z
_cell_length_a 10.8698(3)
_cell_length_b 11.9958(3)
_cell_length_c 16.9692(4)
_cell_angle_alpha 77.381(1)
_cell_angle_beta 80.832(1)
_cell_angle_gamma 87.331(1)
_cell_formula_units_Z 4
loop_
_atom_type_symbol
_atom_type_radius_bond
C 0.68
H 0.23
N 0.68
O 0.68
loop_
_atom_site_label
_atom_site_type_symbol
_atom_site_fract_x
_atom_site_fract_y
_atom_site_fract_z
C1 C 1.0687(2) 0.57567(18) 0.07595(13)
H1 H 1.02820 0.60840 0.03200
C2 C 1.1499(2) 0.4854(2) 0.06990(15)
H2 H 1.16300 0.45700 0.02240
C3 C 1.2111(2) 0.43735(19) 0.13361(16)
H3 H 1.26650 0.37670 0.12940
C4 C 1.1909(3) 0.4787(2) 0.20322(15)
H4 H 1.23240 0.44600 0.24670
C5 C 1.1091(2) 0.56864(19) 0.20964(13)
H5 H 1.09600 0.59610 0.25750
C6 C 1.04643(18) 0.61859(16) 0.14606(11)
C7 C 0.96040(18) 0.71947(16) 0.15197(12)
H6 H 0.94220 0.72610 0.20920
C8 C 1.02049(19) 0.82997(16) 0.10079(13)
H7 H 1.09290 0.84580 0.12320
H8 H 1.04810 0.82100 0.04530
C9 C 0.93041(19) 0.92751(17) 0.10008(12)
C10 C 0.80606(19) 0.90960(18) 0.07657(13)
H9 H 0.82110 0.89850 0.02030
C11 C 0.75353(18) 0.79623(17) 0.13267(11)
H10 H 0.74210 0.80480 0.18950
C12 C 0.62977(18) 0.76583(18) 0.11376(12)
C13 C 0.5217(2) 0.7699(2) 0.16736(15)
H11 H 0.52440 0.79170 0.21640
C14 C 0.4094(2) 0.7422(3) 0.14958(18)
H12 H 0.33720 0.74520 0.18680
C15 C 0.4029(2) 0.7107(3) 0.07843(18)
H13 H 0.32660 0.69310 0.06630
C16 C 0.5092(3) 0.7051(3) 0.02495(17)
H14 H 0.50580 0.68300 -0.02390
C17 C 0.6218(2) 0.7319(2) 0.04287(15)
H15 H 0.69400 0.72690 0.00610
C18 C 0.7161(2) 1.0094(2) 0.07922(17)
H16 H 0.75260 1.07680 0.04320
H17 H 0.69850 1.02160 0.13400
H18 H 0.64010 0.99300 0.06210
C19 C 1.0755(2) 1.1334(2) 0.1623(2)
H19 H 1.00230 1.15030 0.19880
H20 H 1.08210 1.19150 0.11210
C20 C 1.1894(2) 1.13327(17) 0.20134(14)
C21 C 1.3015(3) 1.0978(2) 0.16760(17)
H21 H 1.30800 1.06900 0.12040
C22 C 1.4064(3) 1.1039(3) 0.2027(2)
H22 H 1.48300 1.07840 0.17960
C23 C 1.3973(4) 1.1470(3) 0.2708(3)
H23 H 1.46810 1.15210 0.29420
C24 C 1.2874(5) 1.1824(3) 0.3044(2)
H24 H 1.28180 1.21240 0.35090
C25 C 1.1830(3) 1.1745(2) 0.27068(18)
H25 H 1.10630 1.19760 0.29540
C26 C 0.7922(2) 0.3917(2) 0.24220(14)
H26 H 0.86380 0.38950 0.26620
C27 C 0.8001(3) 0.3661(2) 0.16500(16)
H27 H 0.87630 0.34530 0.13830
C28 C 0.6963(4) 0.3714(3) 0.12888(18)
H28 H 0.70070 0.35180 0.07840
C29 C 0.5865(4) 0.4056(4) 0.1669(2)
H29 H 0.51620 0.41350 0.14120
C30 C 0.5791(3) 0.4286(3) 0.24303(18)
H30 H 0.50270 0.45080 0.26870
C31 C 0.6805(2) 0.42005(18) 0.28257(12)
C32 C 0.66900(19) 0.45118(17) 0.36468(12)
H31 H 0.58220 0.44130 0.39150
C33 C 0.7050(2) 0.57559(17) 0.35553(13)
H32 H 0.78860 0.58810 0.32530
H33 H 0.64820 0.62570 0.32510
C34 C 0.69999(19) 0.60264(16) 0.43739(13)
C35 C 0.77243(19) 0.52343(16) 0.49484(12)
H34 H 0.86050 0.53060 0.47060
C36 C 0.73478(18) 0.39947(16) 0.49942(11)
H35 H 0.64690 0.39020 0.52400
C37 C 0.81159(19) 0.31330(16) 0.55052(12)
C38 C 0.7595(2) 0.25074(18) 0.62600(13)
H36 H 0.67570 0.26110 0.64530
C39 C 0.8308(3) 0.1731(2) 0.67295(16)
H37 H 0.79440 0.13090 0.72330
C40 C 0.9529(4) 0.1581(2) 0.64611(19)
H38 H 1.00040 0.10600 0.67830
C41 C 1.0072(3) 0.2189(2) 0.57188(19)
H39 H 1.09140 0.20870 0.55370
C42 C 0.9360(2) 0.29624(19) 0.52363(15)
H40 H 0.97260 0.33680 0.47280
C43 C 0.7611(3) 0.5506(2) 0.57889(14)
H41 H 0.78760 0.62750 0.57360
H42 H 0.81270 0.49860 0.61130
H43 H 0.67590 0.54300 0.60500
C44 C 0.5256(2) 0.8500(2) 0.4320(2)
H44 H 0.49070 0.83030 0.48950
H45 H 0.46000 0.88540 0.40200
C45 C 0.6285(2) 0.93351(18) 0.42012(15)
C46 C 0.6782(3) 0.9888(3) 0.34351(19)
H46 H 0.64720 0.97380 0.29890
C47 C 0.7694(5) 1.0635(4) 0.3305(3)
H47 H 0.80120 1.09940 0.27730
C48 C 0.8162(4) 1.0878(3) 0.3930(4)
H48 H 0.87940 1.14110 0.38300
C49 C 0.7711(3) 1.0341(3) 0.4721(3)
H49 H 0.80400 1.04930 0.51590
C50 C 0.6748(3) 0.9563(2) 0.48450(17)
H50 H 0.64200 0.91980 0.53740
N1 N 0.74856(15) 0.37896(13) 0.41660(9)
H51 H 0.79920 0.32870 0.40010
N2 N 0.63695(17) 0.68270(15) 0.46390(12)
O1 O 0.56881(16) 0.74770(13) 0.40457(12)
N3 N 0.84378(14) 0.70492(14) 0.12373(9)
H52 H 0.82960 0.64770 0.10360
N4 N 0.94581(17) 1.02097(15) 0.12026(12)
O2 O 1.06471(14) 1.02437(12) 0.14513(10)
#END
