
#######################################################################
#
#                 Cambridge Crystallographic Data Centre
#                                CCDC
#
#######################################################################
#
# If this CIF has been generated from an entry in the Cambridge
# Structural Database, then it will include bibliographic, chemical,
# crystal, experimental, refinement or atomic coordinate data resulting
# from the CCDC's data processing and validation procedures.
#
#######################################################################

data_CSD_CIF_YUBMAK
_audit_creation_date 2009-11-24
_audit_creation_method CSD-ConQuest-V1
_database_code_CSD YUBMAK
_database_code_depnum_ccdc_archive 'CCDC 710264'
_chemical_formula_sum 'C10 H11 N1 O5'
_chemical_formula_moiety
;
C10 H11 N1 O5
;
_journal_coden_Cambridge 1220
_journal_volume 15
_journal_year 2009
_journal_page_first 4516
_journal_name_full 'Chem.-Eur.J. '
loop_
_publ_author_name
"D.B.Ramachary"
"R.Sakthidevi"
_chemical_name_systematic
;
(+)-4-Hydroxy-4-(2-hydroxy-5-nitrophenyl)-2-butanone
;
_cell_volume    515.844
_exptl_crystal_colour 'yellow'
_exptl_crystal_density_diffrn 1.45
_exptl_crystal_description 'block'
_diffrn_ambient_temperature 298
#These two values have been output from a single CSD field.
_refine_ls_R_factor_gt 0.0515
_refine_ls_wR_factor_gt 0.0515
_symmetry_cell_setting triclinic
_symmetry_space_group_name_H-M 'P -1'
_symmetry_Int_Tables_number 2
loop_
_symmetry_equiv_pos_site_id
_symmetry_equiv_pos_as_xyz
1 x,y,z
2 -x,-y,-z
_cell_length_a 6.732(2)
_cell_length_b 7.855(3)
_cell_length_c 10.996(3)
_cell_angle_alpha 79.085(5)
_cell_angle_beta 84.319(5)
_cell_angle_gamma 64.645(5)
_cell_formula_units_Z 2
loop_
_atom_type_symbol
_atom_type_radius_bond
C 0.68
H 0.23
N 0.68
O 0.68
loop_
_atom_site_label
_atom_site_type_symbol
_atom_site_fract_x
_atom_site_fract_y
_atom_site_fract_z
O1 O -0.00232(17) 0.53127(18) 0.84557(11)
O2 O 0.6405(2) 0.45908(19) 0.84008(11)
C1 C 0.2322(2) 0.4453(2) 0.83961(14)
H1 H 0.28980 0.44780 0.91740
C2 C 0.1980(3) 0.6398(2) 0.62700(15)
H2 H 0.06320 0.63600 0.62080
C3 C 0.5210(2) 0.5549(2) 0.73762(14)
O3 O 0.1973(2) 0.15941(19) 1.03102(12)
C4 C 0.3174(2) 0.5498(2) 0.73283(14)
C5 C 0.5934(3) 0.6565(3) 0.64016(17)
H3 H 0.72710 0.66250 0.64560
C6 C 0.2754(3) 0.7355(2) 0.53008(15)
N1 N 0.1432(3) 0.8267(2) 0.41943(15)
C7 C 0.3025(3) 0.2409(2) 0.82315(15)
H4 H 0.23380 0.24110 0.74960
H5 H 0.46020 0.18470 0.80830
C8 C 0.2488(3) 0.1156(2) 0.92925(16)
C9 C 0.4705(3) 0.7479(3) 0.53621(16)
H6 H 0.51860 0.81680 0.47130
O4 O 0.2039(3) 0.9222(3) 0.33755(14)
O5 O -0.0245(3) 0.8046(3) 0.41396(15)
C10 C 0.2657(4) -0.0691(3) 0.9022(2)
H7 H 0.26880 -0.15290 0.97860
H8 H 0.39820 -0.12710 0.85500
H9 H 0.14110 -0.04630 0.85550
H10 H 0.755(4) 0.476(3) 0.837(2)
H11 H -0.053(3) 0.629(3) 0.8786(19)
#END
