
#######################################################################
#
#                 Cambridge Crystallographic Data Centre
#                                CCDC
#
#######################################################################
#
# If this CIF has been generated from an entry in the Cambridge
# Structural Database, then it will include bibliographic, chemical,
# crystal, experimental, refinement or atomic coordinate data resulting
# from the CCDC's data processing and validation procedures.
#
#######################################################################

data_CSD_CIF_YUBVAU
_audit_creation_date 2015-02-20
_audit_creation_method CSD-ConQuest-V1
_database_code_CSD YUBVAU
_database_code_depnum_ccdc_archive 'CCDC 1045692'
_chemical_formula_sum 'C24 H39 N1 O3'
_chemical_formula_moiety
;
C24 H39 N1 O3
;
_journal_coeditor_code "IUCr hb7343"
_journal_coden_Cambridge 1828
_journal_volume 71
_journal_year 2015
_journal_page_first 275
_journal_name_full 'Acta Crystallogr.,Sect.E:Cryst.Commun. '
loop_
_publ_author_name
"E..Viktorsson"
"O.A.H.Astrand"
"R.S.Haseeb"
"C.H.Gorbitz"
"P.Rongved"
_chemical_name_systematic
;
(S)-2-((3S,8S,9S,10R,13S,14S,17R)-3-hydroxy-10,13-dimethyl-2,3,4,7,8,9,10,11,1
2,13,14,15,16,17-tetradecahydro-1H-cyclopenta[a]phenanthren-17-yl)-N-methoxy-N
-methylpropanamide
;
_chemical_name_common
;
2-(3-hydroxy-10,13-dimethyl-2,3,4,7,8,9,10,11,12,13,14,15,16,17-tetradecahydro
-1H-cyclopenta[a]phenanthren-17-yl)-N-methoxy-N-methylpropanamide
;
_cell_volume   4377.304
_exptl_crystal_colour 'colorless'
_exptl_crystal_density_diffrn 1.182
_exptl_crystal_description 'flat needle'
_diffrn_ambient_temperature 105
#These two values have been output from a single CSD field.
_refine_ls_R_factor_gt 0.0476
_refine_ls_wR_factor_gt 0.0476
_symmetry_cell_setting orthorhombic
_symmetry_space_group_name_H-M 'P 21 21 21'
_symmetry_Int_Tables_number 19
loop_
_symmetry_equiv_pos_site_id
_symmetry_equiv_pos_as_xyz
1 x,y,z
2 1/2-x,-y,1/2+z
3 -x,1/2+y,1/2-z
4 1/2+x,1/2-y,-z
_cell_length_a 7.7256(4)
_cell_length_b 19.0030(9)
_cell_length_c 29.8162(15)
_cell_angle_alpha 90
_cell_angle_beta 90
_cell_angle_gamma 90
_cell_formula_units_Z 8
loop_
_atom_type_symbol
_atom_type_radius_bond
C 0.68
H 0.23
N 0.68
O 0.68
loop_
_atom_site_label
_atom_site_type_symbol
_atom_site_fract_x
_atom_site_fract_y
_atom_site_fract_z
O1 O 0.8266(3) 0.67664(11) 0.71479(7)
O2 O 0.7377(3) 0.50014(11) 0.73658(6)
O3 O 0.7896(3) 0.69062(13) 0.28850(7)
H1 H 0.893(6) 0.697(2) 0.2790(13)
N1 N 0.8127(4) 0.56722(14) 0.74205(8)
C1 C 0.6249(5) 0.67785(17) 0.40586(10)
H2 H 0.50990 0.66330 0.41710
H3 H 0.64380 0.72720 0.41530
C2 C 0.6223(5) 0.67502(18) 0.3544(1)
H4 H 0.59280 0.62680 0.34440
H5 H 0.53270 0.70750 0.34280
C3 C 0.7964(5) 0.69551(17) 0.33605(10)
H6 H 0.82100 0.74540 0.34460
C4 C 0.9375(5) 0.64851(17) 0.35544(10)
H7 H 0.92150 0.60010 0.34400
H8 H 1.05150 0.66550 0.34490
C5 C 0.9374(5) 0.64668(16) 0.40622(10)
C6 C 1.0815(5) 0.65764(16) 0.42912(11)
H9 H 1.18320 0.66850 0.41260
C7 C 1.0964(4) 0.65414(17) 0.47918(10)
H10 H 1.11220 0.70230 0.49110
H11 H 1.20050 0.62640 0.48720
C8 C 0.9385(4) 0.62097(16) 0.50128(10)
H12 H 0.94380 0.56890 0.49680
C9 C 0.7721(4) 0.64902(16) 0.47901(10)
H13 H 0.77850 0.70150 0.48110
C10 C 0.7637(4) 0.63144(15) 0.42821(10)
C11 C 0.6082(4) 0.62733(18) 0.50481(10)
H14 H 0.50890 0.65430 0.49280
H15 H 0.58550 0.57690 0.49900
C12 C 0.6168(4) 0.63881(17) 0.55576(10)
H16 H 0.61760 0.68990 0.56210
H17 H 0.51220 0.61840 0.56990
C13 C 0.7778(4) 0.60512(15) 0.57639(10)
C14 C 0.9350(4) 0.63605(16) 0.55146(10)
H18 H 0.92550 0.68830 0.55450
C15 C 1.0903(4) 0.61434(16) 0.57969(10)
H19 H 1.18810 0.64730 0.57540
H20 H 1.12890 0.56620 0.57190
C16 C 1.0214(4) 0.61751(17) 0.62834(11)
H21 H 1.07350 0.65780 0.64450
H22 H 1.05080 0.57370 0.64460
C17 C 0.8214(4) 0.62640(16) 0.62533(10)
H23 H 0.79480 0.67760 0.62870
C18 C 0.7693(5) 0.52436(15) 0.57226(10)
H24 H 0.76300 0.51120 0.54050
H25 H 0.66640 0.50690 0.58790
H26 H 0.87320 0.50360 0.58570
C19 C 0.7198(5) 0.55331(16) 0.42009(10)
H27 H 0.73650 0.54200 0.38830
H28 H 0.59910 0.54450 0.42840
H29 H 0.79610 0.52370 0.43840
C20 C 0.7291(4) 0.58734(16) 0.66317(10)
H30 H 0.75720 0.53610 0.66080
C21 C 0.5318(4) 0.59589(18) 0.66345(11)
H31 H 0.48330 0.57500 0.63620
H32 H 0.50250 0.64600 0.66450
H33 H 0.48360 0.57210 0.68980
C22 C 0.7925(4) 0.61417(17) 0.7082(1)
C23 C 0.8338(5) 0.58740(19) 0.78883(11)
H34 H 0.91190 0.55410 0.80370
H35 H 0.72090 0.58680 0.80380
H36 H 0.88290 0.63490 0.79050
C24 C 0.8716(5) 0.44840(17) 0.73243(12)
H37 H 0.82050 0.40120 0.73370
H38 H 0.95450 0.45400 0.75700
H39 H 0.93140 0.45460 0.70370
O4 O 0.3248(3) 0.29218(11) 0.34061(7)
O5 O 0.1000(3) 0.43877(11) 0.30237(7)
O6 O 0.3740(3) 0.28938(12) 0.75771(7)
H40 H 0.308(5) 0.2590(19) 0.7683(11)
N2 N 0.2268(4) 0.38484(12) 0.30187(8)
C25 C 0.1604(4) 0.30886(16) 0.64465(9)
H41 H 0.04110 0.32240 0.63620
H42 H 0.18080 0.26060 0.63330
C26 C 0.1737(4) 0.30804(17) 0.69563(10)
H43 H 0.14480 0.35520 0.70760
H44 H 0.08970 0.27390 0.70800
C27 C 0.3537(4) 0.28808(16) 0.70983(10)
H45 H 0.37980 0.23960 0.69870
C28 C 0.4852(4) 0.33881(16) 0.69055(10)
H46 H 0.60310 0.32200 0.69800
H47 H 0.46950 0.38550 0.70470
C29 C 0.4690(4) 0.34639(16) 0.63992(10)
C30 C 0.6090(4) 0.34157(15) 0.61433(10)
H48 H 0.71650 0.33310 0.62880
C31 C 0.6103(4) 0.34850(16) 0.5642(1)
H49 H 0.63460 0.30180 0.55080
H50 H 0.70530 0.38060 0.55540
C32 C 0.4407(4) 0.37637(15) 0.54505(10)
H51 H 0.43770 0.42870 0.54870
C33 C 0.2861(4) 0.34433(15) 0.56994(9)
H52 H 0.29730 0.29220 0.56660
C34 C 0.2883(4) 0.35925(15) 0.62135(9)
C35 C 0.1142(4) 0.36437(16) 0.54751(9)
H53 H 0.09260 0.41510 0.55250
H54 H 0.01940 0.33790 0.56220
C36 C 0.1090(4) 0.34958(17) 0.49675(10)
H55 H 0.11250 0.29810 0.49170
H56 H -0.00130 0.36750 0.48430
C37 C 0.2603(4) 0.38405(15) 0.4719(1)
C38 C 0.4271(4) 0.35862(16) 0.49529(10)
H57 H 0.42380 0.30610 0.49370
C39 C 0.5736(4) 0.38110(16) 0.46425(10)
H58 H 0.67390 0.34890 0.46700
H59 H 0.61190 0.42960 0.47110
C40 C 0.4928(4) 0.37679(17) 0.41675(10)
H60 H 0.50380 0.42250 0.40110
H61 H 0.55160 0.34020 0.39870
C41 C 0.2998(4) 0.35775(15) 0.42354(9)
H62 H 0.29240 0.30520 0.42420
C42 C 0.2422(5) 0.46448(14) 0.47231(10)
H63 H 0.23990 0.48130 0.50340
H64 H 0.13440 0.47790 0.45720
H65 H 0.34070 0.48560 0.45660
C43 C 0.2362(5) 0.43602(15) 0.63154(10)
H66 H 0.11180 0.44200 0.62640
H67 H 0.30070 0.46790 0.61180
H68 H 0.26320 0.44700 0.66290
C44 C 0.1861(4) 0.38264(15) 0.38456(10)
H69 H 0.19630 0.43490 0.38190
C45 C -0.0056(4) 0.36319(18) 0.38993(10)
H70 H -0.01590 0.31270 0.39610
H71 H -0.06800 0.37450 0.36220
H72 H -0.05540 0.38990 0.41490
C46 C 0.2502(4) 0.34904(16) 0.34128(10)
C47 C 0.2346(5) 0.34870(17) 0.25866(10)
H73 H 0.31610 0.30930 0.26060
H74 H 0.27350 0.38170 0.23550
H75 H 0.11940 0.33090 0.25090
C48 C 0.1771(5) 0.50416(17) 0.28946(11)
H76 H 0.26260 0.51820 0.31200
H77 H 0.08720 0.54040 0.28720
H78 H 0.23420 0.49870 0.26030
#END
