
#######################################################################
#
#                 Cambridge Crystallographic Data Centre
#                                CCDC
#
#######################################################################
#
# If this CIF has been generated from an entry in the Cambridge
# Structural Database, then it will include bibliographic, chemical,
# crystal, experimental, refinement or atomic coordinate data resulting
# from the CCDC's data processing and validation procedures.
#
#######################################################################

data_CSD_CIF_YUCRUK
_audit_creation_date 2009-11-24
_audit_creation_method CSD-ConQuest-V1
_database_code_CSD YUCRUK
_database_code_depnum_ccdc_archive 'CCDC 749724'
_chemical_formula_sum 'C18 H19 N1 O1'
_chemical_formula_moiety
;
C18 H19 N1 O1
;
_journal_coeditor_code "IUCr FA3200"
_journal_coden_Cambridge 591
_journal_volume 65
_journal_year 2009
_journal_page_first o465
_journal_name_full 'Acta Crystallogr.,Sect.C:Cryst.Struct.Commun. '
loop_
_publ_author_name
"S.L.Gomez"
"C.M.Sanabria"
"A.Palma"
"A.Bahsas"
"J.Cobo"
"C.Glidewell"
_chemical_name_systematic
;
(2SR,4RS)-7-Methyl-2-exo-(4-methylphenyl)-2,3,4,5-tetrahydro-1H-1,4-epoxy-1-be
nzazepine
;
_chemical_melting_point 374
_cell_volume   1361.138
_exptl_crystal_colour 'colorless'
_exptl_crystal_density_diffrn 1.295
_exptl_special_details
;
Melting point range 374-376K

;
_exptl_crystal_description 'block'
_exptl_crystal_preparation 'heptane'
_diffrn_ambient_temperature 120
#These two values have been output from a single CSD field.
_refine_ls_R_factor_gt 0.0626
_refine_ls_wR_factor_gt 0.0626
_symmetry_cell_setting monoclinic
_symmetry_space_group_name_H-M 'P 21/n'
_symmetry_Int_Tables_number 14
loop_
_symmetry_equiv_pos_site_id
_symmetry_equiv_pos_as_xyz
1 x,y,z
2 1/2-x,1/2+y,1/2-z
3 -x,-y,-z
4 -1/2+x,-1/2-y,-1/2+z
_cell_length_a 9.7687(9)
_cell_length_b 10.3022(17)
_cell_length_c 14.239(2)
_cell_angle_alpha 90
_cell_angle_beta 108.222(10)
_cell_angle_gamma 90
_cell_formula_units_Z 4
loop_
_atom_type_symbol
_atom_type_radius_bond
C 0.68
H 0.23
N 0.68
O 0.68
loop_
_atom_site_label
_atom_site_type_symbol
_atom_site_fract_x
_atom_site_fract_y
_atom_site_fract_z
N1 N 0.5776(2) 0.74452(19) 0.11344(14)
C1 C 0.4350(2) 0.8051(2) 0.06260(17)
H1 H 0.43910 0.89890 0.08140
C2 C 0.4205(2) 0.7951(3) -0.04817(17)
H2 H 0.32880 0.75250 -0.08560
H3 H 0.42450 0.88210 -0.07680
C3 C 0.5488(3) 0.7131(2) -0.04985(18)
H4 H 0.52040 0.64970 -0.10580
C4 C 0.6774(3) 0.7917(3) -0.05328(18)
H5 H 0.75220 0.73310 -0.06290
H6 H 0.64830 0.85270 -0.10970
C5 C 0.7380(2) 0.8664(2) 0.04163(17)
C6 C 0.8399(2) 0.9631(2) 0.05250(18)
H7 H 0.87380 0.98280 -0.00150
C7 C 0.8940(2) 1.0321(2) 0.13958(18)
C8 C 0.8469(2) 0.9994(2) 0.21876(18)
H8 H 0.88410 1.04430 0.27980
C9 C 0.7467(2) 0.9025(2) 0.20966(17)
H9 H 0.71580 0.88010 0.26450
C10 C 0.6909(2) 0.8376(2) 0.12113(17)
O1 O 0.58803(17) 0.64596(16) 0.04384(12)
C11 C 0.3162(2) 0.7410(2) 0.09166(17)
C12 C 0.2453(3) 0.8088(2) 0.14585(17)
H10 H 0.27320 0.89570 0.16510
C13 C 0.1343(2) 0.7532(3) 0.17280(18)
H11 H 0.08650 0.80240 0.20960
C14 C 0.0923(3) 0.6271(3) 0.14689(19)
C15 C 0.1652(3) 0.5583(3) 0.0938(2)
H12 H 0.13910 0.47070 0.07620
C16 C 0.2748(3) 0.6139(2) 0.0658(2)
H13 H 0.32210 0.56490 0.02850
C17 C -0.0301(3) 0.5662(3) 0.1741(2)
H14 H -0.04430 0.61290 0.23040
H15 H -0.00730 0.47520 0.19220
H16 H -0.11840 0.57100 0.11760
C18 C 0.9999(3) 1.1401(3) 0.1486(2)
H17 H 1.09810 1.10600 0.17520
H18 H 0.98430 1.20690 0.19310
H19 H 0.98670 1.17810 0.08320
#END
