
#######################################################################
#
#                 Cambridge Crystallographic Data Centre
#                                CCDC
#
#######################################################################
#
# If this CIF has been generated from an entry in the Cambridge
# Structural Database, then it will include bibliographic, chemical,
# crystal, experimental, refinement or atomic coordinate data resulting
# from the CCDC's data processing and validation procedures.
#
#######################################################################

data_CSD_CIF_YUCTEW
_audit_creation_date 2009-11-24
_audit_creation_method CSD-ConQuest-V1
_database_code_CSD YUCTEW
_database_code_depnum_ccdc_archive 'CCDC 749733'
_chemical_formula_sum 'C20 H23 N3 O6'
_chemical_formula_moiety
;
C20 H23 N3 O6
;
_journal_coeditor_code "IUCr SF3112"
_journal_coden_Cambridge 591
_journal_volume 65
_journal_year 2009
_journal_page_first o483
_journal_name_full 'Acta Crystallogr.,Sect.C:Cryst.Struct.Commun. '
loop_
_publ_author_name
"B.Insuasty"
"Yu.Caldfas"
"J.Cobo"
"C.Glidewell"
_chemical_name_systematic
;
2-((2-((3-(4-Methoxyphenyl)-3-oxopropyl)amino)-4-nitrophenyl)amino)ethyl 
acetate
;
_chemical_name_common
;
2-(2-[2-(4-Methoxybenzoyl)ethylamino]-4-nitroanilino)ethyl acetate
;
_chemical_melting_point 420
_cell_volume   3824.594
_exptl_crystal_colour 'colorless'
_exptl_crystal_density_diffrn 1.394
_exptl_special_details
;
Melting point range 420-421K

;
_exptl_crystal_description 'block'
_exptl_crystal_preparation 'ethanol'
_diffrn_ambient_temperature 120
#These two values have been output from a single CSD field.
_refine_ls_R_factor_gt 0.062
_refine_ls_wR_factor_gt 0.062
_symmetry_cell_setting monoclinic
_symmetry_space_group_name_H-M 'C 2/c'
_symmetry_Int_Tables_number 15
loop_
_symmetry_equiv_pos_site_id
_symmetry_equiv_pos_as_xyz
1 x,y,z
2 -x,y,1/2-z
3 1/2+x,1/2+y,z
4 1/2-x,1/2+y,1/2-z
5 -x,-y,-z
6 x,-y,-1/2+z
7 -1/2-x,-1/2-y,-z
8 -1/2+x,-1/2-y,-1/2+z
_cell_length_a 34.3729(17)
_cell_length_b 8.7718(5)
_cell_length_c 13.6662(9)
_cell_angle_alpha 90
_cell_angle_beta 111.847(2)
_cell_angle_gamma 90
_cell_formula_units_Z 8
loop_
_atom_type_symbol
_atom_type_radius_bond
C 0.68
H 0.23
N 0.68
O 0.68
loop_
_atom_site_label
_atom_site_type_symbol
_atom_site_fract_x
_atom_site_fract_y
_atom_site_fract_z
C1 C 0.39925(7) 0.6292(3) 0.07222(18)
C2 C 0.44539(7) 0.6517(3) 0.10322(19)
H1 H 0.45690 0.70140 0.17320
H2 H 0.45060 0.72010 0.05170
C3 C 0.46773(7) 0.5025(3) 0.10757(19)
H3 H 0.46350 0.43530 0.16090
H4 H 0.45580 0.45110 0.03830
O1 O 0.38381(5) 0.50220(18) 0.05695(15)
C4 C 0.37250(8) 0.7666(2) 0.05992(19)
C5 C 0.32922(8) 0.7487(3) 0.0259(2)
H5 H 0.31750 0.64930 0.01210
C6 C 0.30337(8) 0.8715(3) 0.0121(2)
H6 H 0.27390 0.85710 -0.01130
C7 C 0.32010(8) 1.0178(3) 0.03217(19)
C8 C 0.36314(8) 1.0390(3) 0.06675(19)
H7 H 0.37480 1.13850 0.08160
C9 C 0.38883(8) 0.9136(3) 0.07934(19)
H8 H 0.41830 0.92790 0.10170
O2 O 0.29174(5) 1.13241(18) 0.01432(14)
C10 C 0.30757(8) 1.2842(3) 0.0360(2)
H9 H 0.32670 1.29170 0.10980
H10 H 0.28420 1.35540 0.02300
H11 H 0.32270 1.30980 -0.01000
N1 N 0.51222(6) 0.5278(2) 0.13441(16)
H12 H 0.5184(8) 0.603(3) 0.1106(19)
C11 C 0.53793(7) 0.4028(2) 0.14179(17)
C12 C 0.58141(7) 0.4245(2) 0.16573(18)
C13 C 0.60708(8) 0.2976(3) 0.17581(19)
H13 H 0.63610 0.31210 0.19040
C14 C 0.59121(8) 0.1519(3) 0.16506(19)
H14 H 0.60900 0.06630 0.17230
C15 C 0.54920(8) 0.1323(2) 0.14366(19)
C16 C 0.52242(8) 0.2559(2) 0.13165(18)
H15 H 0.49340 0.23930 0.11650
N2 N 0.59710(6) 0.5697(2) 0.17618(16)
H16 H 0.5814(8) 0.644(3) 0.1785(18)
C17 C 0.64093(7) 0.5996(2) 0.2013(2)
H17 H 0.65030 0.54650 0.15010
H18 H 0.65740 0.55940 0.27250
C18 C 0.64880(7) 0.7683(3) 0.1984(2)
H19 H 0.63250 0.81090 0.12780
H20 H 0.64090 0.82290 0.25160
O3 O 0.69300(5) 0.78192(17) 0.22183(13)
C19 C 0.70827(8) 0.9251(3) 0.23526(19)
O4 O 0.68710(6) 1.03572(19) 0.22861(15)
C20 C 0.75417(8) 0.9257(3) 0.2580(2)
H21 H 0.76630 1.02260 0.29110
H22 H 0.75890 0.91340 0.19200
H23 H 0.76750 0.84140 0.30580
N3 N 0.53187(7) -0.0186(2) 0.13245(17)
O5 O 0.55510(6) -0.12968(19) 0.14112(16)
O6 O 0.49434(6) -0.03361(19) 0.11417(17)
#END
