
#######################################################################
#
#                 Cambridge Crystallographic Data Centre
#                                CCDC
#
#######################################################################
#
# If this CIF has been generated from an entry in the Cambridge
# Structural Database, then it will include bibliographic, chemical,
# crystal, experimental, refinement or atomic coordinate data resulting
# from the CCDC's data processing and validation procedures.
#
#######################################################################

data_CSD_CIF_YUDLOY
_audit_creation_date 1996-01-25
_audit_creation_method CSD-ConQuest-V1
_database_code_CSD YUDLOY
_database_code_depnum_ccdc_fiz 'CSD 58677'
_chemical_formula_sum 'C14 H15 N1 O1'
_chemical_formula_moiety
;
C14 H15 N1 O1
;
_journal_coden_Cambridge 644
_journal_volume 50
_journal_year 1995
_journal_page_first 699
_journal_name_full 'Z.Naturforsch.,B:Chem.Sci. '
loop_
_publ_author_name
"N.W.Mitzel"
"J.Riede"
"K.Angermaier"
"H.Schmidbaur"
_chemical_name_systematic
;
N,N-Dibenzylhydroxylamine
;
_cell_volume   1185.195
_exptl_crystal_density_diffrn 1.2
_diffrn_ambient_temperature ?
_diffrn_special_details
;
The study was carried out at room temperature,in the range 283-303K

;
#These two values have been output from a single CSD field.
_refine_ls_R_factor_gt 0.0517
_refine_ls_wR_factor_gt 0.0517
_symmetry_cell_setting monoclinic
_symmetry_space_group_name_H-M 'P 21/n'
_symmetry_Int_Tables_number 14
loop_
_symmetry_equiv_pos_site_id
_symmetry_equiv_pos_as_xyz
1 x,y,z
2 1/2-x,1/2+y,1/2-z
3 -x,-y,-z
4 -1/2+x,-1/2-y,-1/2+z
_cell_length_a 9.292(1)
_cell_length_b 10.397(1)
_cell_length_c 12.309(1)
_cell_angle_alpha 90
_cell_angle_beta 94.68(1)
_cell_angle_gamma 90
_cell_formula_units_Z 4
loop_
_atom_type_symbol
_atom_type_radius_bond
C 0.68
H 0.23
N 0.68
O 0.68
loop_
_atom_site_label
_atom_site_type_symbol
_atom_site_fract_x
_atom_site_fract_y
_atom_site_fract_z
O1 O 0.0461(1) 0.8560(1) 0.4602(1)
N1 N 0.1236(1) 0.9125(1) 0.5561(1)
C1 C 0.0903(2) 0.8295(2) 0.6485(2)
C2 C 0.1407(2) 0.8891(2) 0.7558(1)
C3 C 0.0626(2) 0.9895(2) 0.7972(2)
C4 C 0.1084(3) 1.0459(2) 0.8954(2)
C5 C 0.2327(3) 1.0036(2) 0.9536(2)
C6 C 0.3101(2) 0.9043(2) 0.9139(2)
C7 C 0.2645(2) 0.8468(2) 0.8158(2)
C8 C 0.2774(2) 0.9031(2) 0.5364(2)
C9 C 0.3138(2) 0.9833(2) 0.4408(1)
C10 C 0.3587(2) 0.9264(2) 0.3476(2)
C11 C 0.3892(2) 1.0000(3) 0.2594(2)
C12 C 0.3738(2) 1.1307(3) 0.2610(2)
C13 C 0.3308(2) 1.1887(2) 0.3528(2)
C14 C 0.3023(2) 1.1158(2) 0.4430(2)
H1 H -0.019(3) 0.917(3) 0.449(2)
H2 H -0.018(2) 0.823(2) 0.646(2)
H3 H 0.135(2) 0.745(2) 0.638(2)
H4 H -0.028(2) 1.014(2) 0.759(2)
H5 H 0.047(3) 1.116(3) 0.924(2)
H6 H 0.258(3) 1.042(3) 1.023(2)
H7 H 0.394(3) 0.879(2) 0.958(2)
H8 H 0.318(2) 0.773(2) 0.786(2)
H9 H 0.304(2) 0.810(2) 0.523(2)
H10 H 0.334(2) 0.931(2) 0.602(2)
H11 H 0.366(2) 0.830(2) 0.349(2)
H12 H 0.420(3) 0.956(2) 0.197(2)
H13 H 0.395(3) 1.186(3) 0.201(2)
H14 H 0.316(3) 1.279(3) 0.360(2)
H15 H 0.277(3) 1.153(2) 0.506(2)
#END
