
#######################################################################
#
#                 Cambridge Crystallographic Data Centre
#                                CCDC
#
#######################################################################
#
# If this CIF has been generated from an entry in the Cambridge
# Structural Database, then it will include bibliographic, chemical,
# crystal, experimental, refinement or atomic coordinate data resulting
# from the CCDC's data processing and validation procedures.
#
#######################################################################

data_CSD_CIF_YUDMAL
_audit_creation_date 1996-01-25
_audit_creation_method CSD-ConQuest-V1
_database_code_CSD YUDMAL
_database_code_depnum_ccdc_archive 'CCDC 1306343'
_database_code_depnum_ccdc_fiz 'CSD 58754'
_chemical_formula_sum 'C12 H11 N1 O3'
_chemical_formula_moiety
;
C12 H11 N1 O3
;
_journal_coden_Cambridge 167
_journal_year 1995
_journal_page_first 477
_journal_name_full 'Liebigs Ann. '
loop_
_publ_author_name
"S.Stverkova"
"Z.Zak"
"J.Jonas"
_chemical_name_systematic
;
3-Phenyl-1,7-dioxa-2-azaspiro(4.4)non-2-en-6-one
;
_chemical_melting_point 405.15
_cell_volume   1042.806
_exptl_crystal_density_diffrn 1.384
_exptl_special_details
;
Melting point range 405.15-406.15K

;
_diffrn_ambient_temperature ?
_diffrn_special_details
;
The study was carried out at room temperature,in the range 283-303K

;
#These two values have been output from a single CSD field.
_refine_ls_R_factor_gt 0.0328
_refine_ls_wR_factor_gt 0.0328
_symmetry_cell_setting orthorhombic
_symmetry_space_group_name_H-M 'P 21 21 21'
_symmetry_Int_Tables_number 19
loop_
_symmetry_equiv_pos_site_id
_symmetry_equiv_pos_as_xyz
1 x,y,z
2 1/2-x,-y,1/2+z
3 1/2+x,1/2-y,-z
4 -x,1/2+y,1/2-z
_cell_length_a 5.552(2)
_cell_length_b 9.054(4)
_cell_length_c 20.745(7)
_cell_angle_alpha 90
_cell_angle_beta 90
_cell_angle_gamma 90
_cell_formula_units_Z 4
loop_
_atom_type_symbol
_atom_type_radius_bond
C 0.68
H 0.23
N 0.68
O 0.68
loop_
_atom_site_label
_atom_site_type_symbol
_atom_site_fract_x
_atom_site_fract_y
_atom_site_fract_z
O1 O 0.2092(3) 0.6568(1) 0.5229(1)
N1 N 0.2902(3) 0.7087(2) 0.5836(1)
C1 C 0.4774(4) 0.6359(2) 0.6007(1)
C2 C 0.5580(4) 0.5244(2) 0.5516(1)
C3 C 0.3432(4) 0.5218(2) 0.5070(1)
C4 C 0.1644(4) 0.3974(2) 0.5211(1)
O2 O 0.0570(3) 0.3557(2) 0.4664(1)
C5 C 0.1474(5) 0.4413(3) 0.4122(1)
C6 C 0.3798(4) 0.5109(2) 0.4352(1)
O3 O 0.1129(3) 0.3459(2) 0.5724(1)
C7 C 0.5978(4) 0.6647(2) 0.6623(1)
C8 C 0.5036(5) 0.7656(2) 0.7067(1)
C9 C 0.6180(6) 0.7866(3) 0.7648(1)
C10 C 0.8240(6) 0.7098(3) 0.7806(1)
C11 C 0.9178(5) 0.6115(3) 0.7372(1)
C12 C 0.8073(4) 0.5891(2) 0.6782(1)
H1 H 0.5861(4) 0.4285(2) 0.5710(1)
H2 H 0.7026(4) 0.5565(2) 0.5294(1)
H3 H 0.0323(5) 0.5168(3) 0.3999(1)
H4 H 0.1768(5) 0.3778(3) 0.3754(1)
H5 H 0.5172(4) 0.4490(2) 0.4249(1)
H6 H 0.4030(4) 0.6077(2) 0.4161(1)
H7 H 0.3644(5) 0.8182(2) 0.6970(1)
H8 H 0.5549(6) 0.8541(3) 0.7941(1)
H9 H 0.8984(6) 0.7246(3) 0.8203(1)
H10 H 1.0569(5) 0.5593(3) 0.7475(1)
H11 H 0.8739(4) 0.5229(2) 0.6489(1)
#END
