
#######################################################################
#
#                 Cambridge Crystallographic Data Centre
#                                CCDC
#
#######################################################################
#
# If this CIF has been generated from an entry in the Cambridge
# Structural Database, then it will include bibliographic, chemical,
# crystal, experimental, refinement or atomic coordinate data resulting
# from the CCDC's data processing and validation procedures.
#
#######################################################################

data_CSD_CIF_YUFLAM
_audit_creation_date 1996-01-18
_audit_creation_method CSD-ConQuest-V1
_database_code_CSD YUFLAM
_database_code_depnum_ccdc_archive 'CCDC 110513'
_database_code_depnum_ccdc_fiz 'CSD 57570'
_chemical_formula_sum 'C11 H11 N3 O1'
_chemical_formula_moiety
;
C11 H11 N3 O1
;
_journal_coden_Cambridge 643
_journal_volume 210
_journal_year 1995
_journal_page_first 282
_journal_name_full 'Z.Krist.Cryst.Mater. '
loop_
_publ_author_name
"I.Vickovic"
"L.Pavlic"
"D.Mrvos-Sermek"
"M.Mesic"
_chemical_name_systematic
;
2-Hydroxyiminomethyl-1-benzylimidazole
;
_cell_volume   1031.136
_exptl_crystal_density_diffrn 1.296
_diffrn_ambient_temperature ?
_diffrn_special_details
;
The study was carried out at room temperature,in the range 283-303K

;
#These two values have been output from a single CSD field.
_refine_ls_R_factor_gt 0.0364
_refine_ls_wR_factor_gt 0.0364
_symmetry_cell_setting orthorhombic
_symmetry_space_group_name_H-M 'P 21 21 21'
_symmetry_Int_Tables_number 19
loop_
_symmetry_equiv_pos_site_id
_symmetry_equiv_pos_as_xyz
1 x,y,z
2 1/2-x,-y,1/2+z
3 1/2+x,1/2-y,-z
4 -x,1/2+y,1/2-z
_cell_length_a 9.496(3)
_cell_length_b 9.850(4)
_cell_length_c 11.024(8)
_cell_angle_alpha 90
_cell_angle_beta 90
_cell_angle_gamma 90
_cell_formula_units_Z 4
loop_
_atom_type_symbol
_atom_type_radius_bond
C 0.68
N 0.68
O 0.68
loop_
_atom_site_label
_atom_site_type_symbol
_atom_site_fract_x
_atom_site_fract_y
_atom_site_fract_z
O1 O 0.3589(3) -0.0860(2) 0.9637(2)
N1 N 0.1009(3) 0.1701(2) 0.6942(2)
N2 N 0.0678(2) 0.2371(2) 0.8833(2)
N3 N 0.2582(3) 0.0161(2) 0.9542(2)
C1 C 0.1392(3) 0.1522(3) 0.8084(2)
C2 C -0.0199(3) 0.3140(3) 0.8112(3)
C3 C 0.0009(3) 0.2708(3) 0.6953(3)
C4 C 0.2414(3) 0.0499(3) 0.8441(2)
C5 C 0.0753(3) 0.2495(3) 1.0151(3)
C6 C -0.0239(3) 0.1521(3) 1.0803(2)
C7 C -0.0951(3) 0.0488(3) 1.0231(3)
C8 C -0.1814(4) -0.0380(4) 1.0873(3)
C9 C -0.1989(3) -0.0201(3) 1.2108(3)
C10 C -0.1288(4) 0.0821(4) 1.2690(3)
C11 C -0.0421(3) 0.1684(3) 1.2048(3)
#END
