
#######################################################################
#
#                 Cambridge Crystallographic Data Centre
#                                CCDC
#
#######################################################################
#
# If this CIF has been generated from an entry in the Cambridge
# Structural Database, then it will include bibliographic, chemical,
# crystal, experimental, refinement or atomic coordinate data resulting
# from the CCDC's data processing and validation procedures.
#
#######################################################################

data_CSD_CIF_YUFRUO
_audit_creation_date 2015-06-30
_audit_creation_method CSD-ConQuest-V1
_database_code_CSD YUFRUO
_database_code_depnum_ccdc_archive 'CCDC 1053758'
_chemical_formula_sum 'C4 H6 N4 O8'
_chemical_formula_moiety
;
C4 H6 N4 O8
;
_journal_coden_Cambridge 35
_journal_volume 80
_journal_year 2015
_journal_page_first 6329
_journal_name_full 'J.Org.Chem. '
loop_
_publ_author_name
"Q.J.Axthammer"
"B.Krumm"
"T.M.Klapotke"
_chemical_name_systematic
;
2,2-dinitropropyl nitrocarbamate
;
_cell_volume    906.550
_exptl_crystal_colour 'colorless'
_exptl_crystal_density_diffrn 1.745
_exptl_crystal_description 'plate'
_diffrn_ambient_temperature 173
#These two values have been output from a single CSD field.
_refine_ls_R_factor_gt 0.0312
_refine_ls_wR_factor_gt 0.0312
_symmetry_cell_setting monoclinic
_symmetry_space_group_name_H-M 'P 21/c'
_symmetry_Int_Tables_number 14
loop_
_symmetry_equiv_pos_site_id
_symmetry_equiv_pos_as_xyz
1 x,y,z
2 -x,1/2+y,1/2-z
3 -x,-y,-z
4 x,-1/2-y,-1/2+z
_cell_length_a 15.4551(6)
_cell_length_b 6.2566(2)
_cell_length_c 9.7445(4)
_cell_angle_alpha 90
_cell_angle_beta 105.824(4)
_cell_angle_gamma 90
_cell_formula_units_Z 4
loop_
_atom_type_symbol
_atom_type_radius_bond
C 0.68
H 0.23
N 0.68
O 0.68
loop_
_atom_site_label
_atom_site_type_symbol
_atom_site_fract_x
_atom_site_fract_y
_atom_site_fract_z
H1 H 0.3897(12) 0.825(3) 0.2655(19)
H2 H 0.4168(13) 0.731(3) 0.4208(19)
H3 H 0.3194(12) 0.837(3) 0.3513(17)
H4 H 0.2685(10) 0.644(2) 0.0725(16)
H5 H 0.2344(10) 0.418(2) 0.0992(15)
H6 H 0.0543(11) 0.760(3) 0.2422(18)
C1 C 0.36803(11) 0.7518(3) 0.33473(17)
C2 C 0.33122(9) 0.5407(2) 0.27202(13)
C3 C 0.25298(9) 0.5545(2) 0.13862(14)
C4 C 0.10617(9) 0.6855(2) 0.08578(13)
N1 N 0.40667(8) 0.41466(19) 0.23732(12)
N2 N 0.30137(8) 0.40019(18) 0.37968(12)
N3 N 0.04329(8) 0.7517(2) 0.15352(13)
N4 N -0.04418(7) 0.80605(18) 0.08282(12)
O1 O 0.41132(7) 0.42129(18) 0.11552(10)
O2 O 0.45925(8) 0.3243(3) 0.33544(13)
O3 O 0.27533(8) 0.22204(16) 0.33883(12)
O4 O 0.30368(8) 0.47569(18) 0.49542(10)
O5 O 0.18198(6) 0.64807(15) 0.18839(9)
O6 O 0.09683(7) 0.66328(17) -0.03906(9)
O7 O -0.06741(7) 0.80391(18) -0.04622(10)
O8 O -0.09003(7) 0.8528(2) 0.16060(11)
#END
