
#######################################################################
#
#                 Cambridge Crystallographic Data Centre
#                                CCDC
#
#######################################################################
#
# If this CIF has been generated from an entry in the Cambridge
# Structural Database, then it will include bibliographic, chemical,
# crystal, experimental, refinement or atomic coordinate data resulting
# from the CCDC's data processing and validation procedures.
#
#######################################################################

data_CSD_CIF_YUFSAV
_audit_creation_date 2015-06-30
_audit_creation_method CSD-ConQuest-V1
_database_code_CSD YUFSAV
_database_code_depnum_ccdc_archive 'CCDC 1053759'
_chemical_formula_sum 'C5 H7 N5 O10'
_chemical_formula_moiety
;
C5 H7 N5 O10
;
_journal_coden_Cambridge 35
_journal_volume 80
_journal_year 2015
_journal_page_first 6329
_journal_name_full 'J.Org.Chem. '
loop_
_publ_author_name
"Q.J.Axthammer"
"B.Krumm"
"T.M.Klapotke"
_chemical_name_systematic
;
4,4,4-trinitrobutyl nitrocarbamate
;
_cell_volume   2363.428
_exptl_crystal_colour 'colorless'
_exptl_crystal_density_diffrn 1.67
_exptl_crystal_description 'needle'
_diffrn_ambient_temperature 173
#These two values have been output from a single CSD field.
_refine_ls_R_factor_gt 0.076
_refine_ls_wR_factor_gt 0.076
_symmetry_cell_setting orthorhombic
_symmetry_space_group_name_H-M 'P 21 21 21'
_symmetry_Int_Tables_number 19
loop_
_symmetry_equiv_pos_site_id
_symmetry_equiv_pos_as_xyz
1 x,y,z
2 1/2-x,-y,1/2+z
3 1/2+x,1/2-y,-z
4 -x,1/2+y,1/2-z
_cell_length_a 8.569(1)
_cell_length_b 10.8030(8)
_cell_length_c 25.5310(5)
_cell_angle_alpha 90
_cell_angle_beta 90
_cell_angle_gamma 90
_cell_formula_units_Z 8
loop_
_atom_type_symbol
_atom_type_radius_bond
C 0.68
H 0.23
N 0.68
O 0.68
loop_
_atom_site_label
_atom_site_type_symbol
_atom_site_fract_x
_atom_site_fract_y
_atom_site_fract_z
O1 O -0.0297(7) 0.5935(6) 0.1677(3)
O2 O -0.0671(13) 0.4607(7) 0.1019(4)
O3 O -0.1459(6) 0.7189(5) 0.0592(3)
O4 O 0.0427(7) 0.8417(4) 0.0734(3)
O5 O 0.1975(10) 0.4724(6) 0.0423(3)
O6 O 0.0904(8) 0.6082(5) -0.0009(2)
O7 O 0.4608(3) 0.8379(2) 0.15352(12)
O8 O 0.7091(3) 0.8512(3) 0.18097(13)
O9 O 0.7281(4) 1.0264(4) 0.25687(16)
O10 O 0.5026(5) 1.0859(4) 0.28493(17)
N1 N -0.0174(7) 0.5604(5) 0.1246(3)
N2 N -0.0116(6) 0.7406(4) 0.0719(2)
N3 N 0.1210(7) 0.5583(5) 0.0403(3)
N4 N 0.5101(4) 0.9764(3) 0.21320(15)
N5 N 0.5877(4) 1.0309(4) 0.25414(16)
C1 C 0.0896(6) 0.6313(4) 0.0893(2)
C2 C 0.2379(6) 0.6657(4) 0.11718(18)
H1 H 0.28170 0.59030 0.13360
H2 H 0.21220 0.72450 0.14560
C3 C 0.3624(6) 0.7234(4) 0.08281(18)
H3 H 0.38890 0.66570 0.05400
H4 H 0.32140 0.80050 0.06700
C4 C 0.5064(5) 0.7522(4) 0.11372(17)
H5 H 0.54920 0.67580 0.12970
H6 H 0.58720 0.78910 0.09080
C5 C 0.5750(5) 0.8834(4) 0.18296(17)
H7 H 0.395(8) 0.986(9) 0.217(4)
O11 O 0.3675(7) 0.1754(5) 0.0489(3)
O12 O 0.5093(6) 0.0458(3) 0.08886(16)
O13 O 0.3197(5) 0.3327(6) 0.1326(2)
O14 O 0.4822(4) 0.2754(4) 0.19116(16)
O15 O 0.5708(8) 0.4597(4) 0.0852(3)
O16 O 0.5925(7) 0.3307(5) 0.0215(2)
O17 O 0.9569(3) 0.0473(3) 0.14887(12)
O18 O 1.2056(3) 0.0469(3) 0.17812(13)
O19 O 1.0057(5) -0.2088(4) 0.27618(17)
O20 O 1.2240(4) -0.1238(4) 0.25615(16)
N6 N 0.4467(5) 0.2943(4) 0.14689(19)
N7 N 0.4720(5) 0.1488(4) 0.07755(17)
N8 N 0.5755(5) 0.3597(4) 0.0658(2)
N9 N 1.0129(5) -0.0847(4) 0.20896(19)
N10 N 1.0877(4) -0.1405(4) 0.25026(17)
C6 C 0.5603(5) 0.2522(3) 0.10437(18)
C7 C 0.7184(5) 0.2182(4) 0.12601(17)
H8 H 0.70450 0.15130 0.15210
H9 H 0.76120 0.29100 0.14470
C8 C 0.8385(5) 0.1756(4) 0.08530(18)
H10 H 0.79860 0.10140 0.06690
H11 H 0.85410 0.24180 0.05900
C9 C 0.9919(5) 0.1455(4) 0.11091(16)
H12 H 1.06840 0.11640 0.08460
H13 H 1.03500 0.21930 0.12880
C10 C 1.0737(5) 0.0101(4) 0.17895(18)
H14 H 0.930(8) -0.079(5) 0.203(3)
#END
