
#######################################################################
#
#                 Cambridge Crystallographic Data Centre
#                                CCDC
#
#######################################################################
#
# If this CIF has been generated from an entry in the Cambridge
# Structural Database, then it will include bibliographic, chemical,
# crystal, experimental, refinement or atomic coordinate data resulting
# from the CCDC's data processing and validation procedures.
#
#######################################################################

data_CSD_CIF_YUFSOJ
_audit_creation_date 2015-06-30
_audit_creation_method CSD-ConQuest-V1
_database_code_CSD YUFSOJ
_database_code_depnum_ccdc_archive 'CCDC 1056977'
_chemical_formula_sum 'C16 H17 N1 O8'
_chemical_formula_moiety
;
C16 H17 N1 O8
;
_journal_coden_Cambridge 35
_journal_volume 80
_journal_year 2015
_journal_page_first 6336
_journal_name_full 'J.Org.Chem. '
loop_
_publ_author_name
"K.Lippur"
"S.Kaabel"
"Ivar Jarving"
"K.Rissanen"
"T.Kanger"
_chemical_name_systematic
;
Dimethyl (S)-2-(1-(4-nitrophenyl)-1,4-dioxopentan-3-yl)malonate
;
_cell_volume   1634.728
_exptl_crystal_colour 'pale yellow'
_exptl_crystal_density_diffrn 1.427
_exptl_special_details
;
Absolute configuration

;
_exptl_crystal_description 'block'
_diffrn_ambient_temperature 123.0
#These two values have been output from a single CSD field.
_refine_ls_R_factor_gt 0.0241
_refine_ls_wR_factor_gt 0.0241
_symmetry_cell_setting orthorhombic
_symmetry_space_group_name_H-M 'P 21 21 21'
_symmetry_Int_Tables_number 19
loop_
_symmetry_equiv_pos_site_id
_symmetry_equiv_pos_as_xyz
1 x,y,z
2 1/2-x,-y,1/2+z
3 1/2+x,1/2-y,-z
4 -x,1/2+y,1/2-z
_cell_length_a 7.48247(10)
_cell_length_b 12.22704(13)
_cell_length_c 17.86813(19)
_cell_angle_alpha 90
_cell_angle_beta 90
_cell_angle_gamma 90
_cell_formula_units_Z 4
loop_
_atom_type_symbol
_atom_type_radius_bond
C 0.68
H 0.23
N 0.68
O 0.68
loop_
_atom_site_label
_atom_site_type_symbol
_atom_site_fract_x
_atom_site_fract_y
_atom_site_fract_z
O1 O -0.34713(16) 0.74645(10) 0.72505(7)
N1 N -0.19030(19) 0.76482(11) 0.74076(7)
O2 O 0.78477(16) 0.35770(9) 0.53877(6)
O3 O -0.14212(17) 0.83868(10) 0.78237(7)
O4 O 0.50096(15) 0.49274(10) 0.64503(6)
O5 O 0.66189(17) 0.37547(10) 0.36976(6)
O6 O 0.35117(17) 0.63594(9) 0.49243(7)
C1 C 0.0246(2) 0.53883(13) 0.63420(8)
H1 H -0.00830 0.47920 0.60310
O7 O 0.76990(17) 0.54586(10) 0.38493(7)
C2 C 0.3105(2) 0.40661(12) 0.55694(8)
H2 H 0.21360 0.43630 0.52510
H3 H 0.26880 0.33640 0.57830
C3 C 0.3497(2) 0.48650(12) 0.62011(8)
O8 O 0.31592(19) 0.54629(13) 0.38324(7)
C4 C 0.2535(2) 0.64591(14) 0.69532(9)
H4 H 0.37610 0.65850 0.70610
C5 C -0.0526(2) 0.69344(13) 0.70814(8)
C6 C 0.1245(2) 0.71498(13) 0.72462(9)
H5 H 0.15670 0.77540 0.75520
C7 C 0.2043(2) 0.55794(12) 0.65000(8)
C8 C -0.1062(2) 0.60656(13) 0.66377(9)
H6 H -0.22920 0.59370 0.65390
C9 C 0.3936(2) 0.55959(13) 0.44135(10)
C10 C 0.6305(2) 0.33061(12) 0.55021(8)
C11 C 0.4773(2) 0.38610(12) 0.50855(8)
H7 H 0.44010 0.33470 0.46790
C12 C 0.6650(2) 0.46101(13) 0.40273(9)
C13 C 0.5839(2) 0.23631(14) 0.60076(10)
H8 H 0.69290 0.19620 0.61380
H9 H 0.50080 0.18720 0.57490
H10 H 0.52770 0.26420 0.64650
C14 C 0.5479(2) 0.49001(12) 0.46949(8)
H11 H 0.61970 0.53360 0.50610
C15 C 0.8785(3) 0.53130(16) 0.3182(1)
H12 H 0.80050 0.52140 0.27470
H13 H 0.95460 0.46660 0.32420
H14 H 0.95360 0.59600 0.31070
C16 C 0.1907(3) 0.69887(17) 0.47711(12)
H15 H 0.20670 0.74050 0.43070
H16 H 0.16830 0.74950 0.51860
H17 H 0.08880 0.64910 0.47170
#END
