
#######################################################################
#
#                 Cambridge Crystallographic Data Centre
#                                CCDC
#
#######################################################################
#
# If this CIF has been generated from an entry in the Cambridge
# Structural Database, then it will include bibliographic, chemical,
# crystal, experimental, refinement or atomic coordinate data resulting
# from the CCDC's data processing and validation procedures.
#
#######################################################################

data_CSD_CIF_YUGDUB
_audit_creation_date 2015-06-30
_audit_creation_method CSD-ConQuest-V1
_database_code_CSD YUGDUB
_database_code_depnum_ccdc_archive 'CCDC 1053062'
_chemical_formula_sum 'C16 H19 N3 O9'
_chemical_formula_moiety
;
C16 H19 N3 O9
;
_journal_coden_Cambridge 1220
_journal_volume 21
_journal_year 2015
_journal_page_first 8701
_journal_name_full 'Chem.-Eur.J. '
loop_
_publ_author_name
"M.Skoupi"
"C.Vaxelaire"
"M.Christmann"
"C.Strohmann"
"C.M.Niemeyer"
_chemical_name_systematic
;
5-Nitro-8-oxononan-2-yl 3,5-dinitrobenzoate
;
_cell_volume   1971.374
_exptl_crystal_colour 'colorless'
_exptl_crystal_density_diffrn 1.339
_exptl_crystal_description 'block'
_exptl_crystal_preparation 'diethyl ether'
_diffrn_ambient_temperature 173.2
_refine_special_details
;
The SQUEEZE/PLATON program may have been used.

;
#These two values have been output from a single CSD field.
_refine_ls_R_factor_gt 0.0352
_refine_ls_wR_factor_gt 0.0352
_symmetry_cell_setting monoclinic
_symmetry_space_group_name_H-M 'C 2'
_symmetry_Int_Tables_number 5
loop_
_symmetry_equiv_pos_site_id
_symmetry_equiv_pos_as_xyz
1 x,y,z
2 -x,y,-z
3 1/2+x,1/2+y,z
4 1/2-x,1/2+y,-z
_cell_length_a 29.705(2)
_cell_length_b 5.3107(4)
_cell_length_c 12.4977(7)
_cell_angle_alpha 90
_cell_angle_beta 90.801(5)
_cell_angle_gamma 90
_cell_formula_units_Z 4
loop_
_atom_type_symbol
_atom_type_radius_bond
C 0.68
H 0.23
N 0.68
O 0.68
loop_
_atom_site_label
_atom_site_type_symbol
_atom_site_fract_x
_atom_site_fract_y
_atom_site_fract_z
C1 C 0.28184(12) 0.0154(7) 0.3136(2)
H1 H 0.28950 -0.11670 0.36180
C2 C 0.24272(12) 0.1508(7) 0.3257(2)
C3 C 0.23043(13) 0.3465(7) 0.2590(3)
H2 H 0.20360 0.43990 0.26970
C4 C 0.25875(13) 0.3997(7) 0.1766(2)
C5 C 0.29796(12) 0.2697(7) 0.1602(3)
H3 H 0.31680 0.31170 0.10190
C6 C 0.30986(12) 0.0760(7) 0.2297(2)
C7 C 0.35406(13) -0.0485(7) 0.2160(3)
C8 C 0.41257(12) -0.2647(7) 0.3151(2)
H4 H 0.43320 -0.13760 0.28300
C9 C 0.41869(15) -0.5156(7) 0.2622(3)
H5 H 0.39870 -0.63930 0.29500
H6 H 0.45000 -0.57040 0.27140
H7 H 0.41140 -0.50100 0.18580
C10 C 0.41981(13) -0.2756(7) 0.4357(2)
H8 H 0.45110 -0.32990 0.45120
H9 H 0.39940 -0.40370 0.46580
C11 C 0.41153(12) -0.0256(7) 0.4909(2)
H10 H 0.38170 0.03890 0.46780
H11 H 0.43450 0.09660 0.46710
C12 C 0.41297(12) -0.0386(7) 0.6125(2)
H12 H 0.39360 -0.18130 0.63650
C13 C 0.39655(13) 0.2019(7) 0.6628(2)
H13 H 0.41460 0.34340 0.63490
H14 H 0.36490 0.22980 0.63960
C14 C 0.39870(13) 0.2096(8) 0.7831(2)
H15 H 0.38270 0.06110 0.81160
H16 H 0.43060 0.19790 0.80680
C15 C 0.37845(14) 0.4437(8) 0.8295(3)
C16 C 0.38748(17) 0.4906(9) 0.9462(3)
H17 H 0.41830 0.55390 0.95610
H18 H 0.38400 0.33300 0.98600
H19 H 0.36610 0.61560 0.97270
N1 N 0.21316(11) 0.0879(8) 0.4145(2)
N2 N 0.24689(12) 0.6069(6) 0.1042(2)
N3 N 0.46067(12) -0.0862(7) 0.6486(2)
O1 O 0.21678(10) -0.1225(6) 0.4538(2)
O2 O 0.18657(10) 0.2467(6) 0.44468(18)
O3 O 0.20871(11) 0.6870(6) 0.1062(2)
O4 O 0.27598(9) 0.6879(5) 0.04498(18)
O5 O 0.48861(11) 0.0744(6) 0.6334(2)
O6 O 0.46881(11) -0.2845(7) 0.6931(3)
O7 O 0.35644(10) 0.5865(5) 0.77539(19)
O8 O 0.37755(9) -0.0219(5) 0.13823(17)
O9 O 0.36546(8) -0.1824(5) 0.30258(16)
#END
