
#######################################################################
#
#                 Cambridge Crystallographic Data Centre
#                                CCDC
#
#######################################################################
#
# If this CIF has been generated from an entry in the Cambridge
# Structural Database, then it will include bibliographic, chemical,
# crystal, experimental, refinement or atomic coordinate data resulting
# from the CCDC's data processing and validation procedures.
#
#######################################################################

data_CSD_CIF_YUGFAJ
_audit_creation_date 2015-06-30
_audit_creation_method CSD-ConQuest-V1
_database_code_CSD YUGFAJ
_database_code_depnum_ccdc_archive 'CCDC 1053753'
_chemical_formula_sum 'C5 H8 N4 O8'
_chemical_formula_moiety
;
C5 H8 N4 O8
;
_journal_coden_Cambridge 35
_journal_volume 80
_journal_year 2015
_journal_page_first 6329
_journal_name_full 'J.Org.Chem. '
loop_
_publ_author_name
"Q.J.Axthammer"
"B.Krumm"
"T.M.Klapotke"
_chemical_name_systematic
;
2,2-Dinitropropane-1,3-diyl dicarbamate
;
_cell_volume    980.503
_exptl_crystal_colour 'colorless'
_exptl_crystal_density_diffrn 1.708
_exptl_crystal_description 'needle'
_diffrn_ambient_temperature 173
#These two values have been output from a single CSD field.
_refine_ls_R_factor_gt 0.042
_refine_ls_wR_factor_gt 0.042
_symmetry_cell_setting orthorhombic
_symmetry_space_group_name_H-M 'P n a 21'
_symmetry_Int_Tables_number 33
loop_
_symmetry_equiv_pos_site_id
_symmetry_equiv_pos_as_xyz
1 x,y,z
2 -x,-y,1/2+z
3 1/2+x,1/2-y,z
4 1/2-x,1/2+y,1/2+z
_cell_length_a 15.3762(12)
_cell_length_b 9.3483(7)
_cell_length_c 6.8213(6)
_cell_angle_alpha 90
_cell_angle_beta 90
_cell_angle_gamma 90
_cell_formula_units_Z 4
loop_
_atom_type_symbol
_atom_type_radius_bond
C 0.68
H 0.23
N 0.68
O 0.68
loop_
_atom_site_label
_atom_site_type_symbol
_atom_site_fract_x
_atom_site_fract_y
_atom_site_fract_z
C1 C 0.05285(12) 0.3031(2) 0.2517(3)
C2 C 0.17026(13) 0.2639(2) 0.0346(3)
C3 C 0.25625(12) 0.34263(18) 0.0604(3)
C4 C 0.32807(13) 0.2599(2) -0.0408(4)
C5 C 0.45159(12) 0.30645(19) -0.2294(3)
N1 N -0.00385(11) 0.4006(2) 0.3111(3)
N2 N 0.27726(11) 0.36994(16) 0.2757(3)
N3 N 0.24943(11) 0.49129(17) -0.0311(2)
N4 N 0.51083(12) 0.4028(2) -0.2798(3)
O1 O 0.06295(9) 0.18388(13) 0.3193(2)
O2 O 0.09869(8) 0.34986(13) 0.0920(2)
O3 O 0.2186(1) 0.41432(17) 0.3788(2)
O4 O 0.35119(10) 0.34678(17) 0.3303(3)
O5 O 0.22126(11) 0.49409(16) -0.1966(3)
O6 O 0.27429(9) 0.59452(14) 0.0620(2)
O7 O 0.39808(9) 0.35537(13) -0.0849(2)
O8 O 0.44427(9) 0.18594(14) -0.2957(2)
H1 H -0.0299(15) 0.381(3) 0.429(4)
H2 H 0.003(2) 0.488(3) 0.264(4)
H3 H 0.1721(13) 0.176(2) 0.109(4)
H4 H 0.1634(13) 0.245(2) -0.104(4)
H5 H 0.3447(12) 0.184(2) 0.043(3)
H6 H 0.3053(15) 0.222(2) -0.158(4)
H7 H 0.5033(18) 0.487(3) -0.245(3)
H8 H 0.5433(14) 0.389(2) -0.383(4)
#END
