
#######################################################################
#
#                 Cambridge Crystallographic Data Centre
#                                CCDC
#
#######################################################################
#
# If this CIF has been generated from an entry in the Cambridge
# Structural Database, then it will include bibliographic, chemical,
# crystal, experimental, refinement or atomic coordinate data resulting
# from the CCDC's data processing and validation procedures.
#
#######################################################################

data_CSD_CIF_YUGKUI
_audit_creation_date 2015-06-30
_audit_creation_method CSD-ConQuest-V1
_database_code_CSD YUGKUI
_database_code_depnum_ccdc_archive 'CCDC 1402191'
_chemical_formula_sum 'C21 H19 N1 O6'
_chemical_formula_moiety
;
C21 H19 N1 O6
;
_journal_coden_Cambridge 1748
_journal_volume 2
_journal_year 2015
_journal_page_first 1048
_journal_name_full 'Org.Chem.Front. '
loop_
_publ_author_name
"Jindian Duan"
"Jing Cheng"
"Pengfei Li"
_chemical_name_systematic
;
6-Hydroxy-2-(4-methoxyphenyl)-3-nitrospiro[cyclohexane-1,2'-indene]-1',3'-dion
e
;
_cell_volume   3753.179
_exptl_crystal_colour 'colorless'
_exptl_crystal_density_diffrn 1.35
_exptl_special_details
;
Absolute configuration

;
_exptl_crystal_description 'block'
_diffrn_ambient_temperature 293
#These two values have been output from a single CSD field.
_refine_ls_R_factor_gt 0.0978
_refine_ls_wR_factor_gt 0.0978
_symmetry_cell_setting orthorhombic
_symmetry_space_group_name_H-M 'P 21 21 21'
_symmetry_Int_Tables_number 19
loop_
_symmetry_equiv_pos_site_id
_symmetry_equiv_pos_as_xyz
1 x,y,z
2 1/2+x,1/2-y,-z
3 -x,1/2+y,1/2-z
4 1/2-x,-y,1/2+z
_cell_length_a 10.8569(1)
_cell_length_b 14.9130(2)
_cell_length_c 23.1808(16)
_cell_angle_alpha 90
_cell_angle_beta 90
_cell_angle_gamma 90
_cell_formula_units_Z 8
loop_
_atom_type_symbol
_atom_type_radius_bond
C 0.68
H 0.23
N 0.68
O 0.68
loop_
_atom_site_label
_atom_site_type_symbol
_atom_site_fract_x
_atom_site_fract_y
_atom_site_fract_z
C1 C 0.0815(9) 0.1427(6) -0.0446(2)
H1 H 0.11100 0.14330 -0.08230
C2 C 0.1625(7) 0.1634(5) 0.0003(2)
H2 H 0.24490 0.17690 -0.00650
C3 C 0.1137(5) 0.1629(3) 0.0557(2)
C4 C 0.1766(5) 0.1822(4) 0.1114(2)
C5 C 0.0828(5) 0.1676(3) 0.15974(19)
C6 C 0.0703(4) 0.2525(3) 0.19747(18)
H3 H 0.15100 0.26310 0.21510
C7 C 0.1323(5) 0.3949(3) 0.1476(2)
H4 H 0.21220 0.38390 0.16020
C8 C 0.1089(5) 0.4707(3) 0.1132(2)
H5 H 0.17290 0.50920 0.10330
C9 C -0.0081(5) 0.4874(3) 0.09428(19)
C10 C 0.0514(8) 0.6121(5) 0.0388(3)
H6 H 0.04910 0.66790 0.05950
H7 H 0.03980 0.62330 -0.00160
H8 H 0.12970 0.58370 0.04480
C11 C -0.0085(6) 0.1421(3) 0.0647(2)
C12 C -0.0871(7) 0.1207(5) 0.0196(3)
H9 H -0.16910 0.10620 0.02630
C13 C -0.0403(9) 0.1215(7) -0.0352(3)
H10 H -0.09100 0.10770 -0.06630
C14 C -0.0350(5) 0.1434(4) 0.1271(2)
C15 C 0.1281(8) 0.0874(4) 0.1968(2)
H11 H 0.20980 0.10220 0.21200
C16 C 0.0433(10) 0.0705(5) 0.2470(3)
H12 H 0.07690 0.02250 0.27050
H13 H -0.03620 0.05110 0.23260
C17 C 0.0261(8) 0.1541(4) 0.2844(2)
H14 H 0.10370 0.17010 0.30240
H15 H -0.03330 0.14190 0.31460
C18 C -0.0195(6) 0.2321(3) 0.24678(17)
H16 H -0.10070 0.21760 0.23090
C19 C -0.0790(4) 0.3572(3) 0.1442(2)
H17 H -0.14370 0.31930 0.15400
C20 C -0.1036(5) 0.4313(4) 0.1117(2)
H18 H -0.18430 0.44440 0.10110
C21 C 0.0384(4) 0.3360(3) 0.16316(16)
N1 N -0.0293(4) 0.3144(3) 0.28484(16)
O1 O -0.0421(4) 0.5563(3) 0.05883(18)
O2 O 0.2799(4) 0.2048(3) 0.1181(2)
O3 O -0.1338(4) 0.1301(4) 0.14832(19)
O4 O 0.1412(7) 0.0153(3) 0.1577(2)
H19 H 0.117(10) -0.028(5) 0.179(3)
O5 O 0.0622(4) 0.3516(4) 0.3012(2)
O6 O -0.1318(4) 0.3402(3) 0.2966(2)
C22 C 0.4035(9) 0.1245(7) 0.5408(3)
H20 H 0.35590 0.11400 0.57350
C23 C 0.3487(8) 0.1236(5) 0.4874(3)
H21 H 0.26500 0.11170 0.48320
C24 C 0.4231(6) 0.1412(4) 0.4396(2)
C25 C 0.3892(6) 0.1416(4) 0.3779(3)
C26 C 0.5039(5) 0.1585(3) 0.3425(2)
C27 C 0.4811(5) 0.2396(3) 0.30270(18)
H22 H 0.40320 0.22870 0.28260
C28 C 0.4669(4) 0.3276(3) 0.33531(18)
C29 C 0.5627(5) 0.3802(4) 0.3542(2)
H23 H 0.64280 0.36260 0.34570
C30 C 0.5449(5) 0.4592(4) 0.3857(2)
H24 H 0.61130 0.49360 0.39810
C31 C 0.4236(5) 0.4843(3) 0.3980(2)
C32 C 0.4894(7) 0.6108(5) 0.4537(3)
H25 H 0.56620 0.57930 0.45030
H26 H 0.47310 0.62310 0.49360
H27 H 0.49420 0.66620 0.43270
C33 C 0.3485(5) 0.3581(4) 0.3477(2)
H28 H 0.28160 0.32510 0.33450
C34 C 0.3272(5) 0.4339(4) 0.3781(3)
H29 H 0.24670 0.45180 0.38560
C35 C 0.5815(6) 0.2431(4) 0.25702(19)
H30 H 0.66070 0.25470 0.27590
C36 C 0.5919(7) 0.1571(4) 0.2211(2)
H31 H 0.51390 0.14380 0.20270
H32 H 0.65420 0.16410 0.19150
C37 C 0.6274(9) 0.0820(5) 0.2625(3)
H33 H 0.63620 0.02620 0.24130
H34 H 0.70580 0.09570 0.28050
C38 C 0.5305(8) 0.0717(4) 0.3078(2)
H35 H 0.45400 0.05160 0.28940
C39 C 0.6051(5) 0.1729(3) 0.3878(2)
C40 C 0.5486(5) 0.1581(4) 0.4458(2)
C41 C 0.6003(8) 0.1591(5) 0.4994(2)
H36 H 0.68350 0.17190 0.50440
C42 C 0.5244(10) 0.1402(7) 0.5466(3)
H37 H 0.55910 0.13850 0.58320
N2 N 0.5534(5) 0.3196(3) 0.21609(18)
O7 O 0.3931(4) 0.5573(3) 0.43070(19)
O8 O 0.7107(4) 0.1920(3) 0.37832(19)
O9 O 0.2889(5) 0.1302(4) 0.3582(2)
O10 O 0.5689(7) 0.0047(3) 0.34921(19)
H38 H 0.60590 0.02910 0.37580
O11 O 0.4492(5) 0.3324(4) 0.2000(2)
O12 O 0.6369(5) 0.3664(4) 0.2007(3)
#END
