
#######################################################################
#
#                 Cambridge Crystallographic Data Centre
#                                CCDC
#
#######################################################################
#
# If this CIF has been generated from an entry in the Cambridge
# Structural Database, then it will include bibliographic, chemical,
# crystal, experimental, refinement or atomic coordinate data resulting
# from the CCDC's data processing and validation procedures.
#
#######################################################################

data_CSD_CIF_YUGROI
_audit_creation_date 2010-08-06
_audit_creation_method CSD-ConQuest-V1
_database_code_CSD YUGROI
_database_code_depnum_ccdc_archive 'CCDC 734095'
_chemical_formula_sum 'C21 H32 N4 O6'
_chemical_formula_moiety
;
C21 H32 N4 O6
;
_journal_coden_Cambridge 1037
_journal_volume 10
_journal_year 2009
_journal_page_first 43-12
_journal_name_full 'ARKIVOC '
loop_
_publ_author_name
"S.Kar"
"M.G.B.Drew"
"A.Pramanik"
_chemical_name_systematic
;
N-(t-Butoxycarbonyl)-leucyl-\a-aminoisobutyric acid N-(4-nitrophenyl)amide
;
_chemical_name_common
;
PEPSEQ A=2 LEU*-AIB*
;
_cell_volume   4865.259
_exptl_crystal_colour 'white'
_exptl_crystal_density_diffrn 1.192
_exptl_crystal_description 'needle'
_exptl_crystal_preparation 'acetone'
_diffrn_ambient_temperature 150
#These two values have been output from a single CSD field.
_refine_ls_R_factor_gt 0.0756
_refine_ls_wR_factor_gt 0.0756
_symmetry_cell_setting orthorhombic
_symmetry_space_group_name_H-M 'P b c a'
_symmetry_Int_Tables_number 61
loop_
_symmetry_equiv_pos_site_id
_symmetry_equiv_pos_as_xyz
1 x,y,z
2 1/2-x,-y,1/2+z
3 1/2+x,1/2-y,-z
4 -x,1/2+y,1/2-z
5 -x,-y,-z
6 -1/2+x,y,-1/2-z
7 -1/2-x,-1/2+y,z
8 x,-1/2-y,-1/2+z
_cell_length_a 19.1499(15)
_cell_length_b 10.8592(8)
_cell_length_c 23.396(2)
_cell_angle_alpha 90
_cell_angle_beta 90
_cell_angle_gamma 90
_cell_formula_units_Z 8
loop_
_atom_type_symbol
_atom_type_radius_bond
C 0.68
H 0.23
N 0.68
O 0.68
loop_
_atom_site_label
_atom_site_type_symbol
_atom_site_fract_x
_atom_site_fract_y
_atom_site_fract_z
O1 O 0.46668(12) 0.6001(2) -0.12075(10)
C1 C 0.52108(16) 0.6442(3) -0.09216(14)
O2 O 0.57621(12) 0.6781(2) -0.11278(10)
N1 N 0.50689(12) 0.6472(2) -0.03535(11)
H1 H 0.46630 0.62640 -0.02290
C2 C 0.56015(18) 0.6854(3) 0.00361(15)
H2 H 0.57670 0.76610 -0.00940
C3 C 0.62252(15) 0.5992(3) 0.00280(13)
C4 C 0.5313(2) 0.7028(4) 0.0609(2)
H3 H 0.56960 0.70650 0.08800
H4 H 0.50330 0.63120 0.07050
C5 C 0.4853(2) 0.8203(3) 0.06868(17)
H5 H 0.45460 0.82640 0.03530
C6 C 0.4408(3) 0.7845(5) 0.1188(2)
H6 H 0.47010 0.76930 0.15140
H7 H 0.41510 0.71120 0.10970
H8 H 0.40890 0.85000 0.12740
C7 C 0.5198(3) 0.9455(5) 0.0769(3)
H9 H 0.48440 1.00760 0.08060
H10 H 0.54860 0.96370 0.04440
H11 H 0.54800 0.94400 0.11080
O3 O 0.61673(11) 0.4856(2) -0.00273(10)
N2 N 0.68496(12) 0.6537(2) 0.00878(10)
H12 H 0.68690 0.73260 0.00630
C8 C 0.75002(15) 0.5868(3) 0.01934(13)
C9 C 0.80802(18) 0.6826(3) 0.02438(17)
H13 H 0.80810 0.73380 -0.00910
H14 H 0.85230 0.64170 0.02770
H15 H 0.80020 0.73250 0.05760
C10 C 0.7447(2) 0.5145(4) 0.07619(16)
H16 H 0.73990 0.57130 0.10740
H17 H 0.78610 0.46600 0.08140
H18 H 0.70470 0.46130 0.07500
C11 C 0.76858(16) 0.5025(3) -0.03004(13)
O4 O 0.80889(13) 0.4159(2) -0.02105(10)
N3 N 0.74280(13) 0.5273(2) -0.08223(11)
H19 H 0.71600 0.59060 -0.08490
C12 C 0.75490(15) 0.4614(3) -0.13287(13)
C13 C 0.7075(2) 0.4753(4) -0.17756(17)
H20 H 0.67000 0.52900 -0.17320
C14 C 0.7146(2) 0.4134(4) -0.22663(18)
H21 H 0.68150 0.42240 -0.25540
C15 C 0.7708(2) 0.3362(3) -0.23451(16)
C16 C 0.81867(19) 0.3234(3) -0.19159(16)
H22 H 0.85680 0.27160 -0.19660
C17 C 0.81099(17) 0.3858(3) -0.14147(15)
H23 H 0.84430 0.37680 -0.11280
N4 N 0.7798(2) 0.2661(4) -0.28724(17)
O5 O 0.8301(3) 0.2073(4) -0.29377(18)
O6 O 0.7351(2) 0.2717(3) -0.32317(17)
C18 C 0.46135(17) 0.6149(3) -0.18354(14)
C19 C 0.5189(2) 0.5479(4) -0.21346(19)
H24 H 0.56050 0.59730 -0.21300
H25 H 0.50550 0.53210 -0.25230
H26 H 0.52770 0.47120 -0.19430
C20 C 0.4582(3) 0.7501(4) -0.1961(2)
H27 H 0.41590 0.78380 -0.18070
H28 H 0.45910 0.76270 -0.23670
H29 H 0.49770 0.79040 -0.17910
C21 C 0.3914(2) 0.5548(4) -0.19491(19)
H30 H 0.39480 0.46790 -0.18800
H31 H 0.37810 0.56880 -0.23390
H32 H 0.35680 0.58970 -0.17000
#END
