
#######################################################################
#
#                 Cambridge Crystallographic Data Centre
#                                CCDC
#
#######################################################################
#
# If this CIF has been generated from an entry in the Cambridge
# Structural Database, then it will include bibliographic, chemical,
# crystal, experimental, refinement or atomic coordinate data resulting
# from the CCDC's data processing and validation procedures.
#
#######################################################################

data_CSD_CIF_YUHVOM
_audit_creation_date 1995-10-09
_audit_creation_method CSD-ConQuest-V1
_database_code_CSD YUHVOM
_chemical_formula_sum 'C13 H9 N1 O5'
_chemical_formula_moiety
;
C13 H9 N1 O5
;
_journal_coeditor_code "IUCr CR1151"
_journal_coden_Cambridge 591
_journal_volume 51
_journal_year 1995
_journal_page_first 1141
_journal_name_full 'Acta Crystallogr.,Sect.C:Cryst.Struct.Commun. '
loop_
_publ_author_name
"G.L.Bryant Junior"
"J.A.King Junior"
_chemical_name_systematic
;
2-Nitrophenyl phenoxyformate
;
_cell_volume   2382.727
_exptl_crystal_colour 'colorless'
_exptl_crystal_density_diffrn 1.445
_exptl_special_details
;
Moisture-sensitive

;
_diffrn_ambient_temperature 213.9
#These two values have been output from a single CSD field.
_refine_ls_R_factor_gt 0.066
_refine_ls_wR_factor_gt 0.066
_symmetry_cell_setting monoclinic
_symmetry_space_group_name_H-M 'P 21/n'
_symmetry_Int_Tables_number 14
loop_
_symmetry_equiv_pos_site_id
_symmetry_equiv_pos_as_xyz
1 x,y,z
2 1/2-x,1/2+y,1/2-z
3 -x,-y,-z
4 -1/2+x,-1/2-y,-1/2+z
_cell_length_a 14.445(3)
_cell_length_b 5.767(1)
_cell_length_c 28.603(5)
_cell_angle_alpha 90
_cell_angle_beta 90.27(2)
_cell_angle_gamma 90
_cell_formula_units_Z 8
loop_
_atom_type_symbol
_atom_type_radius_bond
C 0.68
H 0.23
N 0.68
O 0.68
loop_
_atom_site_label
_atom_site_type_symbol
_atom_site_fract_x
_atom_site_fract_y
_atom_site_fract_z
C1 C 0.1441(3) 0.0329(10) 0.1409(2)
O1 O 0.1856(2) 0.0156(7) 0.1056(1)
O2 O 0.1776(2) 0.0521(7) 0.1847(1)
C2 C 0.2754(3) 0.0423(10) 0.1897(2)
C3 C 0.3276(4) 0.2245(10) 0.1763(2)
C4 C 0.4225(4) 0.2214(12) 0.1843(2)
C5 C 0.4605(4) 0.0339(12) 0.2071(2)
C6 C 0.4067(4) -0.1467(13) 0.2212(2)
C7 C 0.3119(4) -0.1463(11) 0.2123(2)
O3 O 0.0516(2) 0.0466(7) 0.1462(1)
C8 C -0.0039(3) 0.0116(10) 0.1064(2)
C9 C 0.0018(3) -0.1756(11) 0.0777(2)
C10 C -0.0593(4) -0.1980(13) 0.0394(2)
C11 C -0.1252(4) -0.0323(15) 0.0320(3)
C12 C -0.1313(4) 0.1536(14) 0.0616(3)
C13 C -0.0700(4) 0.1831(11) 0.0984(2)
N1 N 0.0679(3) -0.3673(10) 0.0855(2)
O4 O 0.0979(3) -0.4704(9) 0.0513(2)
O5 O 0.0881(3) -0.4132(8) 0.1260(2)
H1 H 0.29610 0.36220 0.16600
H2 H 0.45890 0.34410 0.17110
H3 H 0.52580 0.02930 0.21370
H4 H 0.43110 -0.28600 0.23490
H5 H 0.27150 -0.25930 0.22600
H6 H -0.05580 -0.32980 0.01900
H7 H -0.16700 -0.03920 0.00580
H8 H -0.17730 0.26970 0.05530
H9 H -0.07730 0.30180 0.12160
C14 C 0.6069(3) -0.2304(10) 0.1277(2)
O6 O 0.5987(2) -0.3756(7) 0.1563(1)
O7 O 0.6687(2) -0.0588(6) 0.1256(1)
C15 C 0.7402(3) -0.0612(10) 0.1605(2)
C16 C 0.7454(3) 0.1296(10) 0.1886(2)
C17 C 0.8176(4) 0.1367(11) 0.2220(2)
C18 C 0.8803(4) -0.0439(11) 0.2239(2)
C19 C 0.8734(3) -0.2313(11) 0.1944(2)
C20 C 0.8014(3) -0.2421(11) 0.1618(2)
O8 O 0.5508(2) -0.1954(6) 0.0900(1)
C21 C 0.4868(3) -0.3661(10) 0.0796(2)
C22 C 0.5115(3) -0.5763(10) 0.0586(2)
C23 C 0.4440(4) -0.7325(10) 0.0444(2)
C24 C 0.3518(4) -0.6792(12) 0.0525(2)
C25 C 0.3268(4) -0.4733(12) 0.0727(2)
C26 C 0.3942(3) -0.3196(11) 0.0871(2)
N2 N 0.6080(3) -0.6387(9) 0.0486(2)
O9 O 0.6226(3) -0.8037(8) 0.0229(1)
O10 O 0.6710(3) -0.5191(8) 0.0652(1)
H10 H 0.69780 0.24560 0.18910
H11 H 0.82640 0.27080 0.24140
H12 H 0.92990 -0.03680 0.24630
H13 H 0.91780 -0.35480 0.19640
H14 H 0.79520 -0.37070 0.14070
H15 H 0.46310 -0.87760 0.03110
H16 H 0.30580 -0.77830 0.03870
H17 H 0.26430 -0.44180 0.08200
H18 H 0.38000 -0.16560 0.09750
#END
