
#######################################################################
#
#                 Cambridge Crystallographic Data Centre
#                                CCDC
#
#######################################################################
#
# If this CIF has been generated from an entry in the Cambridge
# Structural Database, then it will include bibliographic, chemical,
# crystal, experimental, refinement or atomic coordinate data resulting
# from the CCDC's data processing and validation procedures.
#
#######################################################################

data_CSD_CIF_YUJFOA
_audit_creation_date 2015-06-30
_audit_creation_method CSD-ConQuest-V1
_database_code_CSD YUJFOA
_database_code_depnum_ccdc_archive 'CCDC 1409676'
_chemical_formula_sum 'C13 H15 N3 O2'
_chemical_formula_moiety
;
C13 H15 N3 O2
;
_journal_coden_Cambridge 1078
_journal_year 2015
_journal_name_full 'CSD Communication(Private Communication) '
loop_
_publ_author_name
"D.Bandyopadhyay"
_chemical_name_systematic
;
2-cyclohexyl-5-nitro-1H-benzimidazole
;
_cell_volume   2482.187
_exptl_crystal_colour 'colorless'
_exptl_crystal_density_diffrn 1.313
_exptl_crystal_description 'small block'
_exptl_crystal_preparation 'Re-crystallisation from solvent'
_diffrn_ambient_temperature 110
_diffrn_special_details
;
twin

;
#These two values have been output from a single CSD field.
_refine_ls_R_factor_gt 0.053
_refine_ls_wR_factor_gt 0.053
_symmetry_cell_setting monoclinic
_symmetry_space_group_name_H-M 'P 21'
_symmetry_Int_Tables_number 4
loop_
_symmetry_equiv_pos_site_id
_symmetry_equiv_pos_as_xyz
1 x,y,z
2 -x,1/2+y,-z
_cell_length_a 10.2459(3)
_cell_length_b 12.3643(4)
_cell_length_c 19.6948(5)
_cell_angle_alpha 90
_cell_angle_beta 95.810(2)
_cell_angle_gamma 90
_cell_formula_units_Z 8
loop_
_atom_type_symbol
_atom_type_radius_bond
C 0.68
H 0.23
N 0.68
O 0.68
loop_
_atom_site_label
_atom_site_type_symbol
_atom_site_fract_x
_atom_site_fract_y
_atom_site_fract_z
C1 C 1.0585(3) 0.0676(3) 0.03517(18)
C2 C 1.0616(3) 0.1001(3) 0.10298(18)
H1 H 1.13450 0.08230 0.13470
C3 C 0.9582(3) 0.1584(3) 0.12367(16)
H2 H 0.95680 0.18080 0.16970
C4 C 0.8549(3) 0.1832(3) 0.07382(15)
C5 C 0.8559(3) 0.1536(3) 0.00481(16)
C6 C 0.9597(3) 0.0932(3) -0.01567(17)
H3 H 0.96270 0.07100 -0.06170
C7 C 0.6763(3) 0.2406(3) 0.01300(15)
C8 C 0.5436(3) 0.2900(3) -0.00269(14)
H4 H 0.54080 0.32400 -0.04890
C9 C 0.5128(3) 0.3782(3) 0.04767(17)
H5 H 0.57970 0.43610 0.04810
H6 H 0.51650 0.34730 0.09420
C10 C 0.3767(3) 0.4263(3) 0.02797(19)
H7 H 0.35690 0.47990 0.06290
H8 H 0.37650 0.46470 -0.01620
C11 C 0.2701(3) 0.3399(3) 0.02184(18)
H9 H 0.18490 0.37330 0.00540
H10 H 0.26210 0.30780 0.06730
C12 C 0.3030(3) 0.2515(3) -0.02771(18)
H11 H 0.30260 0.28250 -0.07410
H12 H 0.23490 0.19450 -0.02940
C13 C 0.4376(3) 0.2011(3) -0.00622(17)
H13 H 0.45730 0.14510 -0.03960
H14 H 0.43710 0.16620 0.03900
N1 N 1.1675(3) 0.0009(3) 0.01618(16)
N2 N 0.7389(2) 0.2365(2) 0.07747(13)
H15 H 0.71000 0.26330 0.11450
N3 N 0.7425(3) 0.1927(2) -0.03237(13)
O1 O 1.2594(3) -0.0180(3) 0.05999(15)
O2 O 1.1628(3) -0.0332(3) -0.04208(16)
C14 C 1.0301(3) 0.4547(3) 0.25701(18)
C15 C 1.0304(3) 0.4517(3) 0.32789(18)
H16 H 1.10160 0.48230 0.35610
C16 C 0.9279(3) 0.4045(3) 0.35699(16)
H17 H 0.92550 0.40230 0.40510
C17 C 0.8283(3) 0.3603(3) 0.31260(15)
C18 C 0.8301(3) 0.3620(3) 0.24110(15)
C19 C 0.9324(3) 0.4104(3) 0.21162(16)
H18 H 0.93550 0.41310 0.16360
C20 C 0.6542(3) 0.2783(3) 0.26187(15)
C21 C 0.5246(3) 0.2219(3) 0.25225(16)
H19 H 0.52380 0.17680 0.21000
C22 C 0.5018(3) 0.1463(3) 0.31070(18)
H20 H 0.50330 0.18820 0.35360
H21 H 0.57320 0.09210 0.31640
C23 C 0.3685(4) 0.0879(3) 0.2968(2)
H22 H 0.37080 0.03900 0.25710
H23 H 0.35240 0.04350 0.33690
C24 C 0.2569(4) 0.1700(4) 0.2823(2)
H24 H 0.17330 0.13090 0.27060
H25 H 0.24820 0.21320 0.32400
C25 C 0.2817(3) 0.2447(4) 0.2245(2)
H26 H 0.20930 0.29780 0.21730
H27 H 0.28380 0.20230 0.18200
C26 C 0.4121(3) 0.3047(3) 0.24011(18)
H28 H 0.40880 0.35040 0.28120
H29 H 0.42760 0.35240 0.20130
N4 N 1.1423(3) 0.5056(3) 0.22895(15)
N5 N 0.7141(3) 0.3075(3) 0.32373(13)
H30 H 0.68540 0.29500 0.36360
N6 N 0.7189(3) 0.3099(3) 0.21052(13)
O3 O 1.1482(3) 0.5045(3) 0.16719(14)
O4 O 1.2277(3) 0.5463(3) 0.26946(15)
C27 C -0.0713(3) 0.9337(3) 0.21915(18)
C28 C -0.0830(3) 0.8915(3) 0.15274(18)
H31 H -0.16070 0.90410 0.12320
C29 C 0.0178(3) 0.8317(3) 0.13008(16)
H32 H 0.01230 0.80360 0.08500
C30 C 0.1283(3) 0.8143(3) 0.17663(15)
C31 C 0.1376(3) 0.8548(3) 0.24395(16)
C32 C 0.0362(3) 0.9166(3) 0.26609(17)
H33 H 0.04080 0.94530 0.31100
C33 C 0.3160(3) 0.7669(3) 0.23265(15)
C34 C 0.4483(3) 0.7154(3) 0.24860(15)
H34 H 0.44490 0.67160 0.29110
C35 C 0.4846(3) 0.6388(3) 0.19281(17)
H35 H 0.49070 0.68000 0.15020
H36 H 0.41500 0.58360 0.18380
C36 C 0.6161(4) 0.5828(4) 0.21399(19)
H37 H 0.64020 0.53700 0.17600
H38 H 0.60710 0.53530 0.25370
C37 C 0.7253(3) 0.6660(4) 0.23261(19)
H39 H 0.80680 0.62780 0.25010
H40 H 0.74310 0.70640 0.19110
C38 C 0.6875(3) 0.7452(4) 0.28636(19)
H41 H 0.75700 0.80060 0.29470
H42 H 0.68040 0.70610 0.32970
C39 C 0.5562(3) 0.8009(3) 0.26355(19)
H43 H 0.53240 0.85030 0.29990
H44 H 0.56470 0.84440 0.22200
N7 N -0.1783(3) 1.0013(3) 0.23902(17)
N8 N 0.2433(3) 0.7600(2) 0.17112(13)
H45 H 0.26590 0.72680 0.13460
N9 N 0.2567(3) 0.8227(2) 0.27835(13)
O5 O -0.1656(3) 1.0442(4) 0.29542(18)
O6 O -0.2764(3) 1.0141(3) 0.19814(16)
C40 C -0.0310(3) 0.6375(3) 0.50072(18)
C41 C -0.0522(4) 0.6537(3) 0.43089(19)
H46 H -0.13050 0.62820 0.40610
C42 C 0.0414(4) 0.7071(3) 0.39742(17)
H47 H 0.03000 0.71910 0.34950
C43 C 0.1537(3) 0.7426(3) 0.43787(17)
C44 C 0.1729(3) 0.7260(3) 0.50861(16)
C45 C 0.0798(3) 0.6712(3) 0.54198(17)
H48 H 0.09090 0.65760 0.58970
C46 C 0.3389(3) 0.8165(3) 0.48181(15)
C47 C 0.4651(3) 0.8788(3) 0.48220(16)
H49 H 0.44930 0.94030 0.44940
C48 C 0.5730(4) 0.8083(4) 0.4573(2)
H50 H 0.54350 0.77930 0.41150
H51 H 0.59120 0.74650 0.48880
C49 C 0.6986(4) 0.8753(4) 0.4540(2)
H52 H 0.76890 0.82830 0.43940
H53 H 0.68200 0.93360 0.41980
C50 C 0.7431(4) 0.9245(4) 0.52309(19)
H54 H 0.82140 0.97010 0.51920
H55 H 0.76820 0.86590 0.55610
C51 C 0.6357(4) 0.9927(4) 0.5494(2)
H56 H 0.61720 1.05570 0.51890
H57 H 0.66610 1.02010 0.59550
C52 C 0.5095(3) 0.9271(3) 0.55260(17)
H58 H 0.43970 0.97440 0.56730
H59 H 0.52530 0.86820 0.58650
N10 N -0.1327(3) 0.5796(3) 0.53356(16)
N11 N 0.2607(3) 0.7986(3) 0.42210(13)
H60 H 0.27690 0.81960 0.38110
N12 N 0.2906(3) 0.7733(3) 0.53519(13)
O7 O -0.1144(3) 0.5585(4) 0.59410(16)
O8 O -0.2336(3) 0.5549(4) 0.49810(18)
#END
