
#######################################################################
#
#                 Cambridge Crystallographic Data Centre
#                                CCDC
#
#######################################################################
#
# If this CIF has been generated from an entry in the Cambridge
# Structural Database, then it will include bibliographic, chemical,
# crystal, experimental, refinement or atomic coordinate data resulting
# from the CCDC's data processing and validation procedures.
#
#######################################################################

data_CSD_CIF_YUKDOY
_audit_creation_date 2010-08-06
_audit_creation_method CSD-ConQuest-V1
_database_code_CSD YUKDOY
_database_code_depnum_ccdc_archive 'CCDC 684103'
_chemical_formula_sum 'C25 H36 N4 O4'
_chemical_formula_moiety
;
C25 H36 N4 O4
;
_journal_coden_Cambridge 315
_journal_volume 74
_journal_year 2009
_journal_page_first 719
_journal_name_full 'Spectrochim.Acta,Part A '
loop_
_publ_author_name
"Wen-Kui Dong"
"Xiao Chen"
"Yin-Xia Sun"
"Yu-Hua Yang"
"Li-Zhao"
"Tian-Zhi Yu"
_chemical_name_systematic
;
2,2'-(3,7-Dioxa-2,8-diazanona-1,8-diene-1,9-diyl)bis(5-(diethylamino)phenol)
;
_chemical_name_common
;
5,5'-bis(N,N'-Diethylamino)-2,2'-((1,3-propylene)dioxybis(nitromethylidyne))di
phenol
;
_chemical_melting_point 358.15
_cell_volume   2469.694
_exptl_crystal_colour 'colorless'
_exptl_crystal_density_diffrn 1.228
_exptl_special_details
;
Melting point range 358.15-359.15K

;
_exptl_crystal_description 'needle'
_exptl_crystal_preparation 'ethanol'
_diffrn_ambient_temperature 298
#These two values have been output from a single CSD field.
_refine_ls_R_factor_gt 0.0555
_refine_ls_wR_factor_gt 0.0555
_symmetry_cell_setting monoclinic
_symmetry_space_group_name_H-M 'C 2/c'
_symmetry_Int_Tables_number 15
loop_
_symmetry_equiv_pos_site_id
_symmetry_equiv_pos_as_xyz
1 x,y,z
2 -x,y,1/2-z
3 1/2+x,1/2+y,z
4 1/2-x,1/2+y,1/2-z
5 -x,-y,-z
6 x,-y,-1/2+z
7 -1/2-x,-1/2-y,-z
8 -1/2+x,-1/2-y,-1/2+z
_cell_length_a 29.922(3)
_cell_length_b 4.9686(5)
_cell_length_c 16.8353(17)
_cell_angle_alpha 90
_cell_angle_beta 99.345(2)
_cell_angle_gamma 90
_cell_formula_units_Z 4
loop_
_atom_type_symbol
_atom_type_radius_bond
C 0.68
H 0.23
N 0.68
O 0.68
loop_
_atom_site_label
_atom_site_type_symbol
_atom_site_fract_x
_atom_site_fract_y
_atom_site_fract_z
N1 N 0.05988(10) 1.3796(7) 0.3870(2)
N2 N 0.16409(11) 0.4691(7) 0.6182(2)
O1 O 0.02597(8) 1.5670(5) 0.35652(16)
O2 O 0.13526(8) 1.0945(6) 0.40327(16)
H1 H 0.11690 1.20790 0.38330
C1 C 0.03960(12) 1.7011(8) 0.2890(2)
H2 H 0.04790 1.57050 0.25110
H3 H 0.06550 1.81580 0.30670
C2 C 0.00000 1.8669(11) 0.25000
H4 H -0.00980 1.98210 0.29040
C3 C 0.05163(12) 1.2686(8) 0.4513(3)
H5 H 0.02600 1.32110 0.47210
C4 C 0.08072(12) 1.0639(8) 0.4929(2)
C5 C 0.12089(13) 0.9828(8) 0.4685(2)
C6 C 0.14786(12) 0.7875(8) 0.5094(2)
H6 H 0.17430 0.73700 0.49100
C7 C 0.13679(13) 0.6630(8) 0.5778(2)
C8 C 0.09648(13) 0.7444(8) 0.6026(2)
H7 H 0.08770 0.66590 0.64780
C9 C 0.06979(13) 0.9382(8) 0.5610(2)
H8 H 0.04320 0.98790 0.57910
C10 C 0.15359(14) 0.3425(8) 0.6911(3)
H9 H 0.16940 0.17160 0.69860
H10 H 0.12140 0.30530 0.68370
C11 C 0.16611(16) 0.5074(9) 0.7659(3)
H11 H 0.19780 0.55090 0.77300
H12 H 0.15990 0.40660 0.81160
H13 H 0.14860 0.67040 0.76120
C12 C 0.20551(15) 0.3780(9) 0.5910(3)
H14 H 0.20030 0.37130 0.53270
H15 H 0.21230 0.19670 0.61070
C13 C 0.24500(14) 0.5506(10) 0.6181(3)
H16 H 0.23920 0.72840 0.59650
H17 H 0.27110 0.47720 0.59950
H18 H 0.25040 0.55880 0.67580
N1A N -0.05988(10) 1.3796(7) 0.1130(2)
N2A N -0.16409(11) 0.4691(7) -0.1182(2)
O1A O -0.02597(8) 1.5670(5) 0.14348(16)
O2A O -0.13526(8) 1.0945(6) 0.09673(16)
H1A H -0.11690 1.20790 0.11670
C1A C -0.03960(12) 1.7011(8) 0.2110(2)
H2A H -0.04790 1.57050 0.24890
H3A H -0.06550 1.81580 0.19330
H4A H 0.00980 1.98210 0.20960
C3A C -0.05163(12) 1.2686(8) 0.0487(3)
H5A H -0.02600 1.32110 0.02790
C4A C -0.08072(12) 1.0639(8) 0.0071(2)
C5A C -0.12089(13) 0.9828(8) 0.0315(2)
C6A C -0.14786(12) 0.7875(8) -0.0094(2)
H6A H -0.17430 0.73700 0.00900
C7A C -0.13679(13) 0.6630(8) -0.0778(2)
C8A C -0.09648(13) 0.7444(8) -0.1026(2)
H7A H -0.08770 0.66590 -0.14780
C9A C -0.06979(13) 0.9382(8) -0.0610(2)
H8A H -0.04320 0.98790 -0.07910
C10A C -0.15359(14) 0.3425(8) -0.1911(3)
H9A H -0.16940 0.17160 -0.19860
H10A H -0.12140 0.30530 -0.18370
C11A C -0.16611(16) 0.5074(9) -0.2659(3)
H11A H -0.19780 0.55090 -0.27300
H12A H -0.15990 0.40660 -0.31160
H13A H -0.14860 0.67040 -0.26120
C12A C -0.20551(15) 0.3780(9) -0.0910(3)
H14A H -0.20030 0.37130 -0.03270
H15A H -0.21230 0.19670 -0.11070
C13A C -0.24500(14) 0.5506(10) -0.1181(3)
H16A H -0.23920 0.72840 -0.09650
H17A H -0.27110 0.47720 -0.09950
H18A H -0.25040 0.55880 -0.17580
#END
