
#######################################################################
#
#                 Cambridge Crystallographic Data Centre
#                                CCDC
#
#######################################################################
#
# If this CIF has been generated from an entry in the Cambridge
# Structural Database, then it will include bibliographic, chemical,
# crystal, experimental, refinement or atomic coordinate data resulting
# from the CCDC's data processing and validation procedures.
#
#######################################################################

data_CSD_CIF_YUKVOP
_audit_creation_date 1996-01-30
_audit_creation_method CSD-ConQuest-V1
_database_code_CSD YUKVOP
_chemical_formula_sum 'C10 H14 N2 O3'
_chemical_formula_moiety
;
C10 H14 N2 O3
;
_journal_coden_Cambridge 207
_journal_year 1995
_journal_page_first 1281
_journal_name_full 'J.Chem.Soc.,Perkin Trans.1 '
loop_
_publ_author_name
"A.S.Batsanov"
"M.J.Begley"
"R.J.Fletcher"
"J.A.Murphy"
"M.S.Sherburn"
_chemical_name_systematic
;
2-((1S,5R,6S)-3,3-Dimethyl-2,4-dioxabicyclo(3.3.0)octan-6-yl)-2-(hydroxyimino)
acetonitrile
;
_chemical_melting_point 399.15
_cell_volume   1129.366
_exptl_crystal_density_diffrn 1.24
_exptl_special_details
;
Melting point range 399.15-403.15K

;
_diffrn_ambient_temperature ?
_diffrn_special_details
;
The study was carried out at room temperature,in the range 283-303K

;
#These two values have been output from a single CSD field.
_refine_ls_R_factor_gt 0.041
_refine_ls_wR_factor_gt 0.041
_symmetry_cell_setting orthorhombic
_symmetry_space_group_name_H-M 'P 21 21 21'
_symmetry_Int_Tables_number 19
loop_
_symmetry_equiv_pos_site_id
_symmetry_equiv_pos_as_xyz
1 x,y,z
2 1/2-x,-y,1/2+z
3 1/2+x,1/2-y,-z
4 -x,1/2+y,1/2-z
_cell_length_a 8.097(2)
_cell_length_b 9.148(1)
_cell_length_c 15.247(1)
_cell_angle_alpha 90
_cell_angle_beta 90
_cell_angle_gamma 90
_cell_formula_units_Z 4
loop_
_atom_type_symbol
_atom_type_radius_bond
C 0.68
H 0.23
N 0.68
O 0.68
loop_
_atom_site_label
_atom_site_type_symbol
_atom_site_fract_x
_atom_site_fract_y
_atom_site_fract_z
O1 O 0.3945(3) 0.3877(2) 0.6105(1)
O2 O -0.0120(2) 0.4422(2) 0.8256(1)
O3 O -0.0327(2) 0.5727(2) 0.9494(1)
N1 N 0.3511(4) 0.2518(3) 0.8059(2)
N2 N 0.3178(3) 0.5104(2) 0.6448(1)
C1 C 0.3173(3) 0.3571(3) 0.7704(2)
C2 C 0.2772(3) 0.4912(3) 0.7250(2)
C3 C 0.1961(4) 0.6143(3) 0.7732(2)
C4 C 0.0153(4) 0.5895(3) 0.7992(2)
C5 C -0.0089(4) 0.6815(3) 0.8831(2)
C6 C 0.1522(4) 0.7603(3) 0.8986(2)
C7 C 0.2799(4) 0.6599(3) 0.8591(2)
C8 C -0.0952(3) 0.4429(3) 0.9080(2)
C9 C -0.0392(5) 0.3125(4) 0.9603(2)
C10 C -0.2788(4) 0.4538(4) 0.8961(2)
H1 H 0.4235(47) 0.4129(42) 0.5610(27)
H2 H 0.1983(4) 0.6995(3) 0.7343(2)
H3 H -0.0608(4) 0.6194(3) 0.7525(2)
H4 H -0.1025(4) 0.7490(3) 0.8786(2)
H5 H 0.1530(4) 0.8547(3) 0.8696(2)
H6 H 0.1722(4) 0.7747(3) 0.9607(2)
H7 H 0.3007(4) 0.5761(3) 0.8965(2)
H8 H 0.3830(4) 0.7107(3) 0.8482(2)
H9 H -0.0731(23) 0.2245(4) 0.9311(7)
H10 H -0.0877(21) 0.3160(13) 1.0177(5)
H11 H 0.0790(5) 0.3138(13) 0.9654(12)
H12 H -0.3309(4) 0.4629(23) 0.9524(2)
H13 H -0.3187(5) 0.3675(11) 0.8672(13)
H14 H -0.3043(4) 0.5381(14) 0.8611(12)
#END
