
#######################################################################
#
#                 Cambridge Crystallographic Data Centre
#                                CCDC
#
#######################################################################
#
# If this CIF has been generated from an entry in the Cambridge
# Structural Database, then it will include bibliographic, chemical,
# crystal, experimental, refinement or atomic coordinate data resulting
# from the CCDC's data processing and validation procedures.
#
#######################################################################

data_CSD_CIF_YUKYUA
_audit_creation_date 2015-07-01
_audit_creation_method CSD-ConQuest-V1
_database_code_CSD YUKYUA
_database_code_depnum_ccdc_archive 'CCDC 1056064'
_chemical_formula_sum 'C12 H12 N2 O3'
_chemical_formula_moiety
;
C12 H12 N2 O3
;
_journal_coden_Cambridge 16
_journal_volume 71
_journal_year 2015
_journal_page_first 5217
_journal_name_full 'Tetrahedron '
loop_
_publ_author_name
"P.A.Nikitina"
"A.S.Peregudov"
"T.Yu.Koldaeva"
"L.G.Kuz'mina"
"E.I.Adiulin"
"I.I.Tkach"
"V.P.Perevalov"
_chemical_name_systematic
;
1-(1-hydroxy-2-(2-hydroxyphenyl)-4-methyl-1H-imidazol-5-yl)ethanone
;
_cell_volume   1079.998
_exptl_crystal_density_diffrn 1.428
_diffrn_ambient_temperature 173.2
#These two values have been output from a single CSD field.
_refine_ls_R_factor_gt 0.0414
_refine_ls_wR_factor_gt 0.0414
_symmetry_cell_setting monoclinic
_symmetry_space_group_name_H-M 'P 21/n'
_symmetry_Int_Tables_number 14
loop_
_symmetry_equiv_pos_site_id
_symmetry_equiv_pos_as_xyz
1 x,y,z
2 1/2-x,1/2+y,1/2-z
3 -x,-y,-z
4 -1/2+x,-1/2-y,-1/2+z
_cell_length_a 7.9232(6)
_cell_length_b 11.0300(8)
_cell_length_c 12.3616(9)
_cell_angle_alpha 90
_cell_angle_beta 91.390(1)
_cell_angle_gamma 90
_cell_formula_units_Z 4
loop_
_atom_type_symbol
_atom_type_radius_bond
C 0.68
H 0.23
N 0.68
O 0.68
loop_
_atom_site_label
_atom_site_type_symbol
_atom_site_fract_x
_atom_site_fract_y
_atom_site_fract_z
O1 O 0.31225(12) 0.32221(7) -0.10673(6)
H1 H 0.30430 0.24630 -0.10720
O2 O 0.22634(13) 0.11840(8) -0.02896(8)
O3 O 0.17854(11) 0.72632(7) 0.08669(7)
H2 H 0.15030 0.65970 0.11370
N1 N 0.24222(11) 0.36727(8) -0.01399(7)
N2 N 0.15485(10) 0.49254(8) 0.10969(7)
C1 C 0.23529(11) 0.48449(9) 0.01421(7)
C2 C 0.16831(12) 0.29587(9) 0.06434(8)
C3 C 0.11394(12) 0.37867(10) 0.14111(8)
C4 C 0.02498(15) 0.35651(12) 0.24374(9)
H3 H 0.09890 0.31070 0.29360
H4 H -0.07820 0.30990 0.22860
H5 H -0.00430 0.43430 0.27670
C5 C 0.16614(14) 0.16572(10) 0.05276(9)
C6 C 0.09450(17) 0.08831(11) 0.13982(11)
H6 H 0.10100 0.00290 0.11860
H7 H -0.02370 0.11060 0.15040
H8 H 0.15930 0.10080 0.20740
C7 C 0.29980(12) 0.58856(9) -0.04386(8)
C8 C 0.26828(13) 0.70609(9) -0.00364(8)
C9 C 0.32896(15) 0.80721(10) -0.05842(10)
H9 H 0.30840 0.88630 -0.03120
C10 C 0.41880(15) 0.79294(11) -0.15199(11)
H10 H 0.45870 0.86240 -0.18890
C11 C 0.45150(14) 0.67792(11) -0.19267(9)
H11 H 0.51340 0.66870 -0.25700
C12 C 0.39316(13) 0.57711(10) -0.13869(8)
H12 H 0.41650 0.49860 -0.16610
#END
