
#######################################################################
#
#                 Cambridge Crystallographic Data Centre
#                                CCDC
#
#######################################################################
#
# If this CIF has been generated from an entry in the Cambridge
# Structural Database, then it will include bibliographic, chemical,
# crystal, experimental, refinement or atomic coordinate data resulting
# from the CCDC's data processing and validation procedures.
#
#######################################################################

data_CSD_CIF_YULCOZ
_audit_creation_date 2015-07-01
_audit_creation_method CSD-ConQuest-V1
_database_code_CSD YULCOZ
_database_code_depnum_ccdc_archive 'CCDC 1056927'
_chemical_formula_sum 'C12 H9 N1 O3'
_chemical_formula_moiety
;
C12 H9 N1 O3
;
_journal_coden_Cambridge 177
_journal_volume 13
_journal_year 2015
_journal_page_first 8048
_journal_name_full 'Org.Biomol.Chem. '
loop_
_publ_author_name
"O.K.Rasheed"
"I.R.Hardcastle"
"J.Raftery"
"P.Quayle"
_chemical_name_systematic
;
4'-nitrobiphenyl-2-ol
;
_chemical_melting_point 383.65
_cell_volume   2953.704
_exptl_crystal_colour 'bright yellow'
_exptl_crystal_density_diffrn 1.452
_exptl_special_details
;
Melting point range 383.65-386.15K

;
_exptl_crystal_description 'block'
_diffrn_ambient_temperature 100
#These two values have been output from a single CSD field.
_refine_ls_R_factor_gt 0.0441
_refine_ls_wR_factor_gt 0.0441
_symmetry_cell_setting monoclinic
_symmetry_space_group_name_H-M 'C c'
_symmetry_Int_Tables_number 9
loop_
_symmetry_equiv_pos_site_id
_symmetry_equiv_pos_as_xyz
1 x,y,z
2 x,-y,1/2+z
3 1/2+x,1/2+y,z
4 1/2+x,1/2-y,1/2+z
_cell_length_a 20.5236(9)
_cell_length_b 7.6948(3)
_cell_length_c 18.8253(9)
_cell_angle_alpha 90
_cell_angle_beta 96.529(2)
_cell_angle_gamma 90
_cell_formula_units_Z 12
loop_
_atom_type_symbol
_atom_type_radius_bond
C 0.68
H 0.23
N 0.68
O 0.68
loop_
_atom_site_label
_atom_site_type_symbol
_atom_site_fract_x
_atom_site_fract_y
_atom_site_fract_z
C1 C 0.69018(13) 0.3541(3) 0.21767(16)
C2 C 0.68257(12) 0.4116(3) 0.28752(15)
C3 C 0.67561(13) 0.5900(3) 0.29829(16)
H1 H 0.67060 0.63110 0.34490
C4 C 0.67584(14) 0.7091(4) 0.24278(16)
H2 H 0.67150 0.82990 0.25150
C5 C 0.68242(14) 0.6491(4) 0.17490(16)
H3 H 0.68190 0.72930 0.13650
C6 C 0.68973(13) 0.4728(4) 0.16215(15)
H4 H 0.69440 0.43330 0.11520
C7 C 0.68373(12) 0.2882(4) 0.34792(15)
C8 C 0.64986(12) 0.1302(3) 0.34035(14)
H5 H 0.62440 0.10400 0.29630
C9 C 0.65268(12) 0.0115(3) 0.39585(15)
H6 H 0.63020 -0.09640 0.39010
C10 C 0.68912(12) 0.0540(3) 0.46005(15)
C11 C 0.72126(12) 0.2119(3) 0.47102(15)
H7 H 0.74450 0.23980 0.51610
C12 C 0.71860(13) 0.3279(3) 0.41449(15)
H8 H 0.74070 0.43620 0.42090
N1 N 0.69386(10) -0.0729(3) 0.51785(12)
O1 O 0.70029(10) 0.1813(2) 0.20866(11)
H9 H 0.70230 0.16050 0.16520
O2 O 0.71303(10) -0.0212(3) 0.57855(11)
O3 O 0.67824(10) -0.2252(2) 0.50364(12)
C13 C 0.52308(12) 0.1455(3) 0.61742(16)
C14 C 0.52915(12) 0.0889(3) 0.54771(16)
C15 C 0.53476(13) -0.0908(3) 0.53651(15)
H10 H 0.53840 -0.13250 0.48960
C16 C 0.53510(13) -0.2089(4) 0.59224(16)
H11 H 0.53930 -0.32970 0.58350
C17 C 0.52933(14) -0.1496(4) 0.66096(16)
H12 H 0.52970 -0.22970 0.69940
C18 C 0.52309(14) 0.0275(4) 0.67333(17)
H13 H 0.51880 0.06810 0.72020
C19 C 0.52759(12) 0.2117(3) 0.48706(16)
C20 C 0.49022(13) 0.1743(3) 0.42171(15)
H14 H 0.46760 0.06660 0.41570
C21 C 0.48588(12) 0.2922(3) 0.36582(15)
H15 H 0.46020 0.26730 0.32180
C22 C 0.51992(13) 0.4479(4) 0.37564(15)
C23 C 0.55895(13) 0.4870(3) 0.43862(15)
H16 H 0.58240 0.59350 0.44370
C24 C 0.56289(12) 0.3683(3) 0.49359(15)
H17 H 0.59000 0.39260 0.53680
N2 N 0.51244(11) 0.5777(3) 0.31904(13)
O4 O 0.51497(10) 0.3195(2) 0.62781(11)
H18 H 0.51080 0.33820 0.67100
O5 O 0.48891(11) 0.5314(3) 0.25862(11)
O6 O 0.52974(11) 0.7271(2) 0.33330(12)
C25 C 0.83021(13) 0.8650(4) 0.41254(16)
C26 C 0.85913(12) 0.8907(4) 0.48306(15)
C27 C 0.89316(13) 1.0459(3) 0.49767(16)
H19 H 0.91450 1.06520 0.54450
C28 C 0.89688(14) 1.1722(3) 0.44639(17)
H20 H 0.92100 1.27570 0.45800
C29 C 0.86551(14) 1.1484(4) 0.37773(17)
H21 H 0.86650 1.23700 0.34270
C30 C 0.83263(14) 0.9937(4) 0.36092(16)
H22 H 0.81160 0.97540 0.31390
C31 C 0.85543(12) 0.7610(3) 0.54130(15)
C32 C 0.85779(13) 0.5818(3) 0.52916(15)
H23 H 0.86010 0.54070 0.48190
C33 C 0.85680(13) 0.4634(4) 0.58400(16)
H24 H 0.85880 0.34210 0.57500
C34 C 0.85275(14) 0.5254(3) 0.65296(15)
C35 C 0.85088(15) 0.7014(3) 0.66746(19)
H25 H 0.84870 0.74150 0.71490
C36 C 0.85220(13) 0.8191(3) 0.61136(15)
H26 H 0.85090 0.94030 0.62070
N3 N 0.85120(13) 0.4008(3) 0.71068(14)
O7 O 0.85219(14) 0.2455(3) 0.69681(14)
O8 O 0.84807(13) 0.4567(3) 0.77126(12)
O9 O 0.79913(11) 0.7129(3) 0.39582(12)
H27 H 0.79940 0.69280 0.35200
#END
