
#######################################################################
#
#                 Cambridge Crystallographic Data Centre
#                                CCDC
#
#######################################################################
#
# If this CIF has been generated from an entry in the Cambridge
# Structural Database, then it will include bibliographic, chemical,
# crystal, experimental, refinement or atomic coordinate data resulting
# from the CCDC's data processing and validation procedures.
#
#######################################################################

data_CSD_CIF_YULDAM
_audit_creation_date 2015-07-01
_audit_creation_method CSD-ConQuest-V1
_database_code_CSD YULDAM
_database_code_depnum_ccdc_archive 'CCDC 1056929'
_chemical_formula_sum 'C13 H10 N2 O5'
_chemical_formula_moiety
;
C13 H10 N2 O5
;
_journal_coden_Cambridge 177
_journal_volume 13
_journal_year 2015
_journal_page_first 8048
_journal_name_full 'Org.Biomol.Chem. '
loop_
_publ_author_name
"O.K.Rasheed"
"I.R.Hardcastle"
"J.Raftery"
"P.Quayle"
_chemical_name_systematic
;
5-methyl-2',3-dinitrobiphenyl-2-ol
;
_chemical_melting_point 466.15
_cell_volume   2410.033
_exptl_crystal_colour 'yellow'
_exptl_crystal_density_diffrn 1.512
_exptl_special_details
;
Melting point range 466.15-467.15K

;
_exptl_crystal_description 'block'
_diffrn_ambient_temperature 100
#These two values have been output from a single CSD field.
_refine_ls_R_factor_gt 0.0448
_refine_ls_wR_factor_gt 0.0448
_symmetry_cell_setting monoclinic
_symmetry_space_group_name_H-M 'P 21/n'
_symmetry_Int_Tables_number 14
loop_
_symmetry_equiv_pos_site_id
_symmetry_equiv_pos_as_xyz
1 x,y,z
2 1/2-x,1/2+y,1/2-z
3 -x,-y,-z
4 -1/2+x,-1/2-y,-1/2+z
_cell_length_a 15.6137(4)
_cell_length_b 7.7484(2)
_cell_length_c 21.2252(5)
_cell_angle_alpha 90
_cell_angle_beta 110.192(1)
_cell_angle_gamma 90
_cell_formula_units_Z 8
loop_
_atom_type_symbol
_atom_type_radius_bond
C 0.68
H 0.23
N 0.68
O 0.68
loop_
_atom_site_label
_atom_site_type_symbol
_atom_site_fract_x
_atom_site_fract_y
_atom_site_fract_z
C1 C 0.59808(12) 1.0577(2) 0.09708(10)
C2 C 0.87580(12) 1.0754(2) 0.28709(9)
C3 C 0.91676(12) 1.0929(2) 0.35703(9)
C4 C 0.87453(12) 1.0361(2) 0.40158(9)
H1 H 0.90480 1.04840 0.44860
C5 C 0.78886(12) 0.9622(2) 0.37733(9)
C6 C 0.74735(12) 0.9462(2) 0.30761(9)
H2 H 0.68800 0.89710 0.29040
C7 C 0.78875(12) 0.9985(2) 0.26255(9)
C8 C 0.74048(13) 0.9003(3) 0.42356(10)
H3 H 0.78450 0.89000 0.46930
H4 H 0.71270 0.78740 0.40830
H5 H 0.69280 0.98320 0.42310
C9 C 0.73787(12) 0.9843(2) 0.18910(9)
C10 C 0.76857(11) 0.9094(2) 0.14048(9)
C11 C 0.71653(12) 0.9060(2) 0.07273(9)
H6 H 0.73950 0.85210 0.04160
C12 C 0.63083(12) 0.9817(2) 0.05067(9)
H7 H 0.59490 0.98150 0.00430
H8 H 0.53950 1.11030 0.08240
C13 C 0.65039(12) 1.0573(2) 0.16483(9)
H9 H 0.62610 1.10820 0.19580
N1 N 1.00602(10) 1.1728(2) 0.38556(8)
N2 N 0.85757(10) 0.82166(19) 0.15886(7)
O1 O 0.91173(8) 1.12926(17) 0.24140(6)
H10 H 0.96430 1.16860 0.26110
O2 O 1.04624(9) 1.2205(2) 0.34719(7)
O3 O 1.03987(9) 1.19057(19) 0.44657(7)
O4 O 0.89216(8) 0.76516(16) 0.21612(6)
O5 O 0.89210(9) 0.8054(2) 0.11542(7)
C14 C 0.15558(12) 0.9176(2) 0.27953(9)
C15 C 0.18140(12) 0.8991(2) 0.34939(9)
C16 C 0.26641(12) 0.9545(2) 0.39303(9)
H11 H 0.28120 0.94260 0.44020
C17 C 0.32873(12) 1.0260(2) 0.36803(9)
C18 C 0.30377(12) 1.0432(2) 0.29822(9)
H12 H 0.34670 1.09090 0.28040
C19 C 0.21902(12) 0.9934(2) 0.25411(9)
C20 C 0.42146(13) 1.0866(3) 0.41342(10)
H13 H 0.42310 1.08820 0.46000
H14 H 0.43290 1.20310 0.40020
H15 H 0.46850 1.00780 0.40950
C21 C 0.19810(12) 1.0083(2) 0.18033(9)
C22 C 0.11891(12) 1.0817(2) 0.13427(9)
C23 C 0.10097(13) 1.0801(2) 0.06552(9)
H16 H 0.04620 1.12950 0.03580
C24 C 0.16347(13) 1.0061(3) 0.04054(10)
H17 H 0.15140 1.00280 -0.00650
C25 C 0.24385(13) 0.9369(2) 0.08473(10)
H18 H 0.28770 0.88880 0.06800
C26 C 0.26025(12) 0.9376(2) 0.15322(9)
H19 H 0.31530 0.88870 0.18260
N3 N 0.11929(11) 0.8229(2) 0.37863(8)
N4 N 0.05083(10) 1.1705(2) 0.15646(8)
O6 O 0.07566(8) 0.86681(16) 0.23442(6)
H20 H 0.04200 0.82790 0.25460
O7 O 0.14144(10) 0.8148(2) 0.43988(7)
O8 O 0.04440(9) 0.7680(2) 0.34080(7)
O9 O 0.07594(9) 1.23378(16) 0.21309(6)
O10 O -0.02747(9) 1.1812(2) 0.11664(7)
#END
