
#######################################################################
#
#                 Cambridge Crystallographic Data Centre
#                                CCDC
#
#######################################################################
#
# If this CIF has been generated from an entry in the Cambridge
# Structural Database, then it will include bibliographic, chemical,
# crystal, experimental, refinement or atomic coordinate data resulting
# from the CCDC's data processing and validation procedures.
#
#######################################################################

data_CSD_CIF_YULTEG
_audit_creation_date 2015-07-01
_audit_creation_method CSD-ConQuest-V1
_database_code_CSD YULTEG
_database_code_depnum_ccdc_archive 'CCDC 1045435'
_chemical_formula_sum 'C13 H13 N5 O1'
_chemical_formula_moiety
;
C13 H13 N5 O1
;
_journal_coden_Cambridge 580
_journal_volume 101
_journal_year 2015
_journal_page_first 37
_journal_name_full 'Polyhedron '
loop_
_publ_author_name
"S.Ouizem"
"D.Rosario-Amorin"
"D.A.Dickie"
"B.P.Hay"
"R.T.Paine"
_chemical_name_systematic
;
2,6-bis((1H-pyrazol-1-yl)methyl)pyridine 1-oxide
;
_chemical_melting_point 401
_cell_volume   2499.095
_exptl_crystal_colour 'colorless'
_exptl_crystal_density_diffrn 1.357
_exptl_crystal_description 'rod'
_exptl_crystal_preparation 'Dichloromethane'
_diffrn_ambient_temperature 100
#These two values have been output from a single CSD field.
_refine_ls_R_factor_gt 0.0457
_refine_ls_wR_factor_gt 0.0457
_symmetry_cell_setting orthorhombic
_symmetry_space_group_name_H-M 'P b c n'
_symmetry_Int_Tables_number 60
loop_
_symmetry_equiv_pos_site_id
_symmetry_equiv_pos_as_xyz
1 x,y,z
2 1/2-x,1/2-y,1/2+z
3 -x,y,1/2-z
4 1/2+x,1/2-y,-z
5 -x,-y,-z
6 -1/2+x,-1/2+y,-1/2-z
7 x,-y,-1/2+z
8 -1/2-x,-1/2+y,z
_cell_length_a 22.023(6)
_cell_length_b 7.6072(18)
_cell_length_c 14.917(3)
_cell_angle_alpha 90
_cell_angle_beta 90
_cell_angle_gamma 90
_cell_formula_units_Z 8
loop_
_atom_type_symbol
_atom_type_radius_bond
C 0.68
H 0.23
N 0.68
O 0.68
loop_
_atom_site_label
_atom_site_type_symbol
_atom_site_fract_x
_atom_site_fract_y
_atom_site_fract_z
O1 O 0.27916(6) 0.37366(18) 0.78864(8)
N1 N 0.32860(7) 0.3877(2) 0.7394(1)
N2 N 0.30377(8) 0.0106(2) 0.59029(10)
N3 N 0.34336(8) -0.1213(2) 0.60927(10)
N4 N 0.40051(8) 0.7583(2) 0.85492(10)
N5 N 0.44432(8) 0.7055(3) 0.91313(10)
C1 C 0.36921(9) 0.5183(3) 0.75721(12)
C2 C 0.42056(10) 0.5336(3) 0.70554(12)
H1 H 0.44880 0.62510 0.71740
C3 C 0.43149(10) 0.4165(3) 0.63616(12)
H2 H 0.46720 0.42620 0.60080
C4 C 0.38964(9) 0.2858(3) 0.61939(12)
H3 H 0.39650 0.20500 0.57190
C5 C 0.33803(9) 0.2714(3) 0.67085(12)
C6 C 0.28878(9) 0.1372(3) 0.65940(12)
H4 H 0.28240 0.07480 0.71690
H5 H 0.25040 0.19730 0.64340
C7 C 0.28662(10) 0.0105(3) 0.50336(13)
H6 H 0.25980 0.09150 0.47540
C8 C 0.31514(10) -0.1285(3) 0.46335(13)
H7 H 0.31220 -0.16470 0.40260
C9 C 0.34951(9) -0.2055(3) 0.53134(13)
H8 H 0.37440 -0.30620 0.52310
C10 C 0.35186(10) 0.6396(3) 0.83257(12)
H9 H 0.31560 0.70840 0.81490
H10 H 0.34110 0.56910 0.88610
C11 C 0.41235(11) 0.9171(3) 0.82029(14)
H11 H 0.38830 0.97840 0.77770
C12 C 0.46528(12) 0.9747(4) 0.85749(15)
H12 H 0.48550 1.08300 0.84680
C13 C 0.48288(11) 0.8406(4) 0.91410(15)
H13 H 0.51860 0.84420 0.94980
#END
