
#######################################################################
#
#                 Cambridge Crystallographic Data Centre
#                                CCDC
#
#######################################################################
#
# If this CIF has been generated from an entry in the Cambridge
# Structural Database, then it will include bibliographic, chemical,
# crystal, experimental, refinement or atomic coordinate data resulting
# from the CCDC's data processing and validation procedures.
#
#######################################################################

data_CSD_CIF_YULXAF
_audit_creation_date 2010-08-06
_audit_creation_method CSD-ConQuest-V1
_database_code_CSD YULXAF
_database_code_depnum_ccdc_archive 'CCDC 762945'
_chemical_formula_sum 'C24 H16 N2 O4'
_chemical_formula_moiety
;
C24 H16 N2 O4
;
_journal_coden_Cambridge 1336
_journal_volume 11
_journal_year 2009
_journal_page_first 5254
_journal_name_full 'Org.Lett. '
loop_
_publ_author_name
"G.Raffa"
"M.Rusch"
"G.Balme"
"N.Monteiro"
_chemical_name_systematic
;
9-Methyl-3-(4-nitrophenyl)-2-phenylfuro[2,3-b]quinolin-4(9H)-one
;
_cell_volume   1893.070
_exptl_crystal_colour 'colorless'
_exptl_crystal_density_diffrn 1.391
_exptl_crystal_description 'plate'
_diffrn_ambient_temperature 293
#These two values have been output from a single CSD field.
_refine_ls_R_factor_gt 0.044
_refine_ls_wR_factor_gt 0.044
_symmetry_cell_setting monoclinic
_symmetry_space_group_name_H-M 'P 21/c'
_symmetry_Int_Tables_number 14
loop_
_symmetry_equiv_pos_site_id
_symmetry_equiv_pos_as_xyz
1 x,y,z
2 -x,1/2+y,1/2-z
3 -x,-y,-z
4 x,-1/2-y,-1/2+z
_cell_length_a 15.538(2)
_cell_length_b 7.3010(8)
_cell_length_c 16.871(2)
_cell_angle_alpha 90
_cell_angle_beta 98.46(1)
_cell_angle_gamma 90
_cell_formula_units_Z 4
loop_
_atom_type_symbol
_atom_type_radius_bond
C 0.68
H 0.23
N 0.68
O 0.68
loop_
_atom_site_label
_atom_site_type_symbol
_atom_site_fract_x
_atom_site_fract_y
_atom_site_fract_z
O1 O 0.38982(7) 0.06065(18) 0.11195(7)
C1 C 0.43816(10) 0.0665(2) 0.18489(10)
N1 N 0.52545(8) 0.0717(2) 0.19050(9)
C2 C 0.57156(11) 0.0703(2) 0.26815(12)
C3 C 0.52649(10) 0.0753(2) 0.33448(11)
C4 C 0.43030(11) 0.0813(3) 0.32695(10)
C5 C 0.3880(1) 0.0674(2) 0.24548(10)
C6 C 0.29897(10) 0.0614(2) 0.20494(9)
C7 C 0.30284(10) 0.0555(2) 0.12542(10)
C8 C 0.24098(10) 0.0347(2) 0.05173(10)
C9 C 0.25924(12) 0.1118(3) -0.01999(10)
C10 C 0.20265(13) 0.0879(3) -0.08952(11)
C11 C 0.12677(14) -0.0092(3) -0.08956(12)
C12 C 0.10715(12) -0.0857(3) -0.01923(12)
C13 C 0.16444(11) -0.0652(3) 0.05106(10)
H1 H 0.15320 -0.12180 0.09750
H2 H 0.05520 -0.15470 -0.01760
H3 H 0.08650 -0.02290 -0.13770
H4 H 0.21600 0.13640 -0.13840
H5 H 0.31130 0.18040 -0.01980
C14 C 0.21864(10) 0.0677(2) 0.24285(9)
C15 C 0.14750(9) 0.1714(3) 0.20812(9)
C16 C 0.07205(10) 0.1775(3) 0.24193(9)
C17 C 0.06817(10) 0.0815(3) 0.31151(10)
N2 N -0.01236(10) 0.0892(3) 0.34714(10)
O2 O -0.07318(10) 0.1764(3) 0.31243(10)
O3 O -0.01695(10) 0.0045(3) 0.40803(10)
C18 C 0.13716(11) -0.0214(3) 0.34823(10)
C19 C 0.21212(10) -0.0282(3) 0.31293(10)
H6 H 0.25780 -0.10030 0.33610
H7 H 0.13260 -0.07980 0.39750
H8 H 0.02310 0.24580 0.21610
H9 H 0.15120 0.24090 0.16210
O4 O 0.39240(8) 0.0950(2) 0.38621(7)
C20 C 0.57475(12) 0.0731(3) 0.41174(13)
C21 C 0.66435(14) 0.0665(3) 0.42295(16)
C22 C 0.70772(13) 0.0621(3) 0.35712(17)
C23 C 0.66329(12) 0.0641(3) 0.28100(15)
H10 H 0.69170 0.05950 0.23400
H11 H 0.76950 0.05790 0.36750
H12 H 0.69470 0.06370 0.47490
H13 H 0.54420 0.07520 0.45350
C24 C 0.56723(13) 0.0768(3) 0.11777(13)
H14 H 0.60640 0.17640 0.11960
H15 H 0.52350 0.09200 0.07110
H16 H 0.59780 -0.03500 0.11460
#END
