
#######################################################################
#
#                 Cambridge Crystallographic Data Centre
#                                CCDC
#
#######################################################################
#
# If this CIF has been generated from an entry in the Cambridge
# Structural Database, then it will include bibliographic, chemical,
# crystal, experimental, refinement or atomic coordinate data resulting
# from the CCDC's data processing and validation procedures.
#
#######################################################################

data_CSD_CIF_YUMBOY
_audit_creation_date 2010-08-06
_audit_creation_method CSD-ConQuest-V1
_database_code_CSD YUMBOY
_database_code_depnum_ccdc_archive 'CCDC 746716'
_chemical_formula_sum 'C21 H21 N1 O4'
_chemical_formula_moiety
;
C21 H21 N1 O4
;
_journal_coden_Cambridge 1336
_journal_volume 11
_journal_year 2009
_journal_page_first 5246
_journal_name_full 'Org.Lett. '
loop_
_publ_author_name
"Bor-Cherng Hong"
"Rei-Hau Jan"
"Chih-Wei Tsai"
"R.Y.Nimje"
"Ju-Hsiou Liao"
"Gene-Hsiang Lee"
_chemical_name_systematic
;
Ethyl 5-nitro-4,6-diphenylcyclohex-1-ene-1-carboxylate
;
_cell_volume    914.003
_exptl_crystal_colour 'colorless'
_exptl_crystal_density_diffrn 1.277
_exptl_crystal_description 'parallelepiped'
_diffrn_ambient_temperature 293
#These two values have been output from a single CSD field.
_refine_ls_R_factor_gt 0.0779
_refine_ls_wR_factor_gt 0.0779
loop_
_citation_database_id_CSD
_citation_special_details
YUMBUE "is a stereoisomer of this entry"
_symmetry_cell_setting monoclinic
_symmetry_space_group_name_H-M 'P 21'
_symmetry_Int_Tables_number 4
loop_
_symmetry_equiv_pos_site_id
_symmetry_equiv_pos_as_xyz
1 x,y,z
2 -x,1/2+y,-z
_cell_length_a 12.2127(10)
_cell_length_b 6.0204(5)
_cell_length_c 13.4972(11)
_cell_angle_alpha 90
_cell_angle_beta 112.925(1)
_cell_angle_gamma 90
_cell_formula_units_Z 2
loop_
_atom_type_symbol
_atom_type_radius_bond
C 0.68
H 0.23
N 0.68
O 0.68
loop_
_atom_site_label
_atom_site_type_symbol
_atom_site_fract_x
_atom_site_fract_y
_atom_site_fract_z
C1 C 0.7061(3) 0.3697(8) 0.1137(3)
H1 H 0.74320 0.45910 0.07980
C2 C 0.7033(3) 0.4341(7) 0.2101(3)
H2 H 0.73900 0.56660 0.24180
C3 C 0.6477(3) 0.3037(6) 0.2600(3)
H3 H 0.64570 0.34970 0.32500
C4 C 0.5948(3) 0.1053(6) 0.2150(2)
C5 C 0.5996(3) 0.0413(6) 0.1182(3)
H4 H 0.56550 -0.09240 0.08660
C6 C 0.6550(3) 0.1757(8) 0.0678(3)
H5 H 0.65700 0.13230 0.00240
C7 C 0.5295(3) -0.0422(5) 0.2669(2)
H6 H 0.54410 -0.19600 0.25140
C8 C 0.5770(3) -0.0223(5) 0.3881(2)
C9 C 0.5094(3) -0.0001(5) 0.4439(2)
H7 H 0.54690 0.01400 0.51820
C10 C 0.3772(3) 0.0035(6) 0.3953(2)
H8 H 0.34970 0.15560 0.39200
H9 H 0.34670 -0.08020 0.44050
C11 C 0.3290(3) -0.0962(5) 0.2820(2)
H10 H 0.34890 -0.25450 0.29210
C12 C 0.3938(3) -0.0073(5) 0.2133(2)
H11 H 0.36430 -0.08900 0.14510
C13 C 0.1943(3) -0.0877(6) 0.2238(3)
C14 C 0.1281(3) 0.0821(7) 0.2406(3)
H12 H 0.16600 0.19950 0.28580
C15 C 0.0046(3) 0.0791(9) 0.1902(4)
H13 H -0.03940 0.19120 0.20470
C16 C -0.0524(3) -0.0854(9) 0.1202(3)
H14 H -0.13490 -0.08630 0.08650
C17 C 0.0134(3) -0.2496(8) 0.1000(3)
H15 H -0.02460 -0.36170 0.05130
C18 C 0.1356(3) -0.2505(6) 0.1510(3)
H16 H 0.17900 -0.36300 0.13600
C19 C 0.7086(3) -0.0562(5) 0.4435(2)
C20 C 0.8849(3) 0.0540(7) 0.5885(3)
H17 H 0.91560 -0.08940 0.57890
H18 H 0.90920 0.08020 0.66500
C21 C 0.9339(4) 0.2301(10) 0.5410(4)
H19 H 0.91480 0.19750 0.46640
H20 H 1.01870 0.23610 0.57860
H21 H 0.90010 0.37070 0.54710
N1 N 0.3639(2) 0.2331(5) 0.1884(2)
O1 O 0.7642(2) -0.1682(5) 0.4074(2)
O2 O 0.75560(18) 0.0534(4) 0.53660(17)
O3 O 0.3992(3) 0.3665(5) 0.2611(2)
O4 O 0.3033(3) 0.2804(6) 0.0963(2)
#END
