
#######################################################################
#
#                 Cambridge Crystallographic Data Centre
#                                CCDC
#
#######################################################################
#
# If this CIF has been generated from an entry in the Cambridge
# Structural Database, then it will include bibliographic, chemical,
# crystal, experimental, refinement or atomic coordinate data resulting
# from the CCDC's data processing and validation procedures.
#
#######################################################################

data_CSD_CIF_YUMNIE
_audit_creation_date 2010-02-16
_audit_creation_method CSD-ConQuest-V1
_database_code_CSD YUMNIE
_database_code_depnum_ccdc_archive 'CCDC 676668'
_chemical_formula_sum 'C23 H25 N3 O4'
_chemical_formula_moiety
;
C23 H25 N3 O4
;
_journal_coden_Cambridge 1088
_journal_year 2009
_journal_page_first 1014
_journal_name_full 'Synlett '
loop_
_publ_author_name
"M.Bakthadoss"
"N.Sivakumar"
_chemical_name_systematic
;
1'-(4-Ethylphenyl)-2'-(hydroxymethyl)-2'-nitro-1',2',5',6',7',7a'-hexahydrospi
ro(indole-3,3'-pyrrolizin)-2(1H)-one
;
_cell_volume   4170.878
_exptl_crystal_colour 'colorless'
_exptl_crystal_density_diffrn 1.298
_exptl_crystal_description 'plate'
_diffrn_ambient_temperature 293
#These two values have been output from a single CSD field.
_refine_ls_R_factor_gt 0.041
_refine_ls_wR_factor_gt 0.041
_symmetry_cell_setting orthorhombic
_symmetry_space_group_name_H-M 'P c a 21'
_symmetry_Int_Tables_number 29
loop_
_symmetry_equiv_pos_site_id
_symmetry_equiv_pos_as_xyz
1 x,y,z
2 -x,-y,1/2+z
3 1/2-x,y,1/2+z
4 1/2+x,-y,z
_cell_length_a 14.8538(5)
_cell_length_b 11.1963(4)
_cell_length_c 25.0793(10)
_cell_angle_alpha 90
_cell_angle_beta 90
_cell_angle_gamma 90
_cell_formula_units_Z 8
loop_
_atom_type_symbol
_atom_type_radius_bond
C 0.68
H 0.23
N 0.68
O 0.68
loop_
_atom_site_label
_atom_site_type_symbol
_atom_site_fract_x
_atom_site_fract_y
_atom_site_fract_z
C1 C 0.1972(2) 1.2037(3) 0.41919(15)
C2 C 0.1547(3) 1.2927(4) 0.44679(19)
H1 H 0.16580 1.37270 0.43940
C3 C 0.0943(3) 1.2590(4) 0.48625(19)
H2 H 0.06390 1.31760 0.50540
C4 C 0.0784(3) 1.1415(4) 0.49757(16)
H3 H 0.03790 1.12100 0.52430
C5 C 0.1230(3) 1.0522(3) 0.46913(15)
H4 H 0.11170 0.97210 0.47640
C6 C 0.1836(2) 1.0837(3) 0.43024(14)
C7 C 0.2425(2) 1.0103(3) 0.39259(14)
C8 C 0.2881(2) 1.1102(3) 0.35985(15)
C9 C 0.3091(2) 0.9212(3) 0.42116(13)
C10 C 0.4011(2) 0.9067(3) 0.39434(15)
H5 H 0.43210 0.98290 0.39500
H6 H 0.43670 0.85040 0.41480
C11 C 0.2520(2) 0.8063(3) 0.42587(13)
H7 H 0.20670 0.82140 0.45350
C12 C 0.2025(2) 0.8055(3) 0.37277(14)
H8 H 0.23670 0.75830 0.34690
C13 C 0.1047(3) 0.7648(4) 0.37254(18)
H9 H 0.07520 0.78280 0.40610
H10 H 0.09980 0.67990 0.36540
C14 C 0.0657(3) 0.8388(4) 0.3270(2)
H11 H 0.08090 0.80450 0.29270
H12 H 0.00070 0.84510 0.32990
C15 C 0.1097(2) 0.9578(4) 0.33437(17)
H13 H 0.11380 1.00010 0.30070
H14 H 0.07610 1.00640 0.35950
C16 C 0.2971(2) 0.6898(3) 0.43994(13)
C17 C 0.2786(3) 0.6352(3) 0.48805(14)
H15 H 0.24120 0.67340 0.51240
C18 C 0.3145(3) 0.5247(3) 0.50078(15)
H16 H 0.30050 0.49000 0.53340
C19 C 0.3705(3) 0.4653(3) 0.46612(16)
C20 C 0.3889(3) 0.5192(3) 0.41843(16)
H17 H 0.42670 0.48070 0.39440
C21 C 0.3531(3) 0.6294(3) 0.40483(16)
H18 H 0.36680 0.66310 0.37190
C22 C 0.4115(3) 0.3470(3) 0.48044(18)
H19 H 0.36970 0.30350 0.50290
H20 H 0.42010 0.30100 0.44810
C23 C 0.4995(4) 0.3567(5) 0.5087(2)
H21 H 0.54180 0.39830 0.48650
H22 H 0.52190 0.27810 0.51630
H23 H 0.49140 0.39980 0.54140
C24 C 0.4468(2) 0.2792(3) 0.19911(15)
C25 C 0.4901(3) 0.1885(3) 0.17228(17)
H24 H 0.47880 0.10870 0.18000
C26 C 0.5513(3) 0.2215(4) 0.13330(18)
H25 H 0.58250 0.16270 0.11470
C27 C 0.5667(3) 0.3393(4) 0.12181(16)
H26 H 0.60740 0.35940 0.09510
C28 C 0.5228(3) 0.4279(3) 0.14905(16)
H27 H 0.53410 0.50760 0.14110
C29 C 0.4616(2) 0.3983(3) 0.18841(14)
C30 C 0.4025(2) 0.4736(3) 0.22509(13)
C31 C 0.3547(2) 0.3740(3) 0.25806(15)
C32 C 0.3369(2) 0.5616(3) 0.19549(13)
C33 C 0.2440(2) 0.5764(3) 0.22194(15)
H28 H 0.20850 0.63200 0.20100
H29 H 0.21320 0.50010 0.22150
C34 C 0.3933(2) 0.6772(3) 0.19194(13)
H30 H 0.43950 0.66370 0.16470
C35 C 0.4410(2) 0.6790(3) 0.24553(13)
H31 H 0.40530 0.72530 0.27110
C36 C 0.5386(3) 0.7197(4) 0.24768(17)
H32 H 0.56980 0.70190 0.21470
H33 H 0.54300 0.80460 0.25490
C37 C 0.5752(3) 0.6465(4) 0.29351(18)
H34 H 0.64030 0.64220 0.29230
H35 H 0.55690 0.67970 0.32760
C38 C 0.5337(2) 0.5256(3) 0.28469(16)
H36 H 0.56890 0.47890 0.25970
H37 H 0.52850 0.48190 0.31790
C39 C 0.3457(2) 0.7924(3) 0.17741(14)
C40 C 0.2934(2) 0.8562(3) 0.21363(15)
H38 H 0.28320 0.82530 0.24750
C41 C 0.2566(3) 0.9646(3) 0.19972(19)
H39 H 0.22200 1.00530 0.22470
C42 C 0.2690(3) 1.0146(3) 0.1505(2)
C43 C 0.3204(3) 0.9519(4) 0.11511(18)
H40 H 0.33020 0.98350 0.08130
C44 C 0.3585(3) 0.8431(3) 0.12793(16)
H41 H 0.39330 0.80340 0.10270
C45 C 0.2274(4) 1.1345(4) 0.1365(3)
H42 H 0.23360 1.18750 0.16680
H43 H 0.26090 1.16910 0.10710
C46 C 0.1312(4) 1.1286(4) 0.1215(2)
H44 H 0.12420 1.07760 0.09090
H45 H 0.10990 1.20730 0.11300
H46 H 0.09690 1.09700 0.15070
N1 N 0.2600(2) 1.2159(3) 0.37772(13)
N2 N 0.33364(19) 0.9703(3) 0.47553(12)
N3 N 0.19885(17) 0.9304(2) 0.35498(10)
N4 N 0.3823(2) 0.2677(3) 0.24012(13)
N5 N 0.3155(2) 0.5111(2) 0.14138(12)
N6 N 0.44509(18) 0.5537(2) 0.26289(11)
O1 O 0.33809(17) 1.0941(2) 0.32146(11)
O2 O 0.3702(2) 1.0674(2) 0.47602(11)
O3 O 0.3215(2) 0.9095(2) 0.51472(11)
O4 O 0.39601(16) 0.8666(2) 0.34128(10)
H47 H 0.36710 0.91460 0.32350
O5 O 0.30511(17) 0.3904(2) 0.29652(10)
O6 O 0.2730(2) 0.4185(2) 0.13951(12)
O7 O 0.3397(2) 0.5649(3) 0.10183(11)
O8 O 0.24814(17) 0.6179(2) 0.27467(11)
H48 H 0.26910 0.56550 0.29380
H49 H 0.369(3) 0.204(3) 0.2521(16)
H50 H 0.271(3) 1.288(2) 0.3606(15)
#END
