
#######################################################################
#
#                 Cambridge Crystallographic Data Centre
#                                CCDC
#
#######################################################################
#
# If this CIF has been generated from an entry in the Cambridge
# Structural Database, then it will include bibliographic, chemical,
# crystal, experimental, refinement or atomic coordinate data resulting
# from the CCDC's data processing and validation procedures.
#
#######################################################################

data_CSD_CIF_YUMPIG
_audit_creation_date 2010-02-16
_audit_creation_method CSD-ConQuest-V1
_database_code_CSD YUMPIG
_database_code_depnum_ccdc_archive 'CCDC 729414'
_chemical_formula_sum 'C4 H2 N4 O4'
_chemical_formula_moiety
;
C4 H2 N4 O4
;
_journal_coden_Cambridge 1135
_journal_volume 19
_journal_year 2009
_journal_page_first 144
_journal_name_full 'Mendeleev Commun. '
loop_
_publ_author_name
"I.V.Ovchinnikov"
"K.A.Lyssenko"
"N.N.Makhova"
_chemical_name_systematic
;
3,3'-Bi-1,2,4-oxadiazole-5,5'(4H,4'H)-dione
;
_chemical_melting_point 593.15
_cell_volume    297.456
_exptl_crystal_colour 'colorless'
_exptl_crystal_density_diffrn 1.899
_exptl_special_details
;
Melts above 593.15K

;
_exptl_crystal_description 'prism'
_diffrn_ambient_temperature 100
#These two values have been output from a single CSD field.
_refine_ls_R_factor_gt 0.0336
_refine_ls_wR_factor_gt 0.0336
_symmetry_cell_setting monoclinic
_symmetry_space_group_name_H-M 'P 21/n'
_symmetry_Int_Tables_number 14
loop_
_symmetry_equiv_pos_site_id
_symmetry_equiv_pos_as_xyz
1 x,y,z
2 1/2-x,1/2+y,1/2-z
3 -x,-y,-z
4 -1/2+x,-1/2-y,-1/2+z
_cell_length_a 4.7465(4)
_cell_length_b 5.4001(4)
_cell_length_c 11.6671(9)
_cell_angle_alpha 90
_cell_angle_beta 95.912(6)
_cell_angle_gamma 90
_cell_formula_units_Z 2
loop_
_atom_type_symbol
_atom_type_radius_bond
C 0.68
H 0.23
N 0.68
O 0.68
loop_
_atom_site_label
_atom_site_type_symbol
_atom_site_fract_x
_atom_site_fract_y
_atom_site_fract_z
C1 C 0.4573(2) 0.8926(2) 0.96513(9)
N1 N 0.5865(2) 0.81734(19) 0.87211(8)
C2 C 0.4462(2) 0.6115(2) 0.83012(10)
O1 O 0.23883(18) 0.56582(16) 0.90088(7)
N2 N 0.2482(2) 0.75213(19) 0.98764(9)
O2 O 0.48133(18) 0.48084(17) 0.74851(7)
H1 H 0.721(4) 0.889(4) 0.8385(16)
C1B C 0.5427(2) 1.1074(2) 1.03487(9)
N1B N 0.4135(2) 1.18266(19) 1.12789(8)
C2B C 0.5538(2) 1.3885(2) 1.16988(10)
O1B O 0.76117(18) 1.43418(16) 1.09912(7)
N2B N 0.7518(2) 1.24787(19) 1.01236(9)
O2B O 0.51867(18) 1.51916(17) 1.25149(7)
H1B H 0.279(4) 1.111(4) 1.1615(16)
#END
