
#######################################################################
#
#                 Cambridge Crystallographic Data Centre
#                                CCDC
#
#######################################################################
#
# If this CIF has been generated from an entry in the Cambridge
# Structural Database, then it will include bibliographic, chemical,
# crystal, experimental, refinement or atomic coordinate data resulting
# from the CCDC's data processing and validation procedures.
#
#######################################################################

data_CSD_CIF_YUNJOG
_audit_creation_date 1996-01-30
_audit_creation_method CSD-ConQuest-V1
_database_code_CSD YUNJOG
_chemical_formula_sum 'C13 H12 N2 O3'
_chemical_formula_moiety
;
C13 H12 N2 O3
;
_journal_coden_Cambridge 1208
_journal_volume 195
_journal_year 1994
_journal_page_first 2791
_journal_name_full 'Macromol.Chem.Phys. '
loop_
_publ_author_name
"M.Vlasse"
"M.S.Paley"
_chemical_name_systematic
;
6-(2-Methyl-4-nitroanilino)-2,4-hexadiyn-1-ol
;
_chemical_melting_point 433.15
_cell_volume   4753.797
_exptl_crystal_colour 'yellow'
_exptl_crystal_density_diffrn 1.365
_exptl_special_details
;
Melting point range 433.15-435.15K
Turns to orange-red on exposure to air

;
_diffrn_ambient_temperature ?
_diffrn_special_details
;
The study was carried out at room temperature,in the range 283-303K

;
#These two values have been output from a single CSD field.
_refine_ls_R_factor_gt 0.063
_refine_ls_wR_factor_gt 0.063
_symmetry_cell_setting orthorhombic
_symmetry_space_group_name_H-M 'F d d 2'
_symmetry_Int_Tables_number 43
loop_
_symmetry_equiv_pos_site_id
_symmetry_equiv_pos_as_xyz
1 x,y,z
2 -x,-y,z
3 1/4-x,1/4+y,1/4+z
4 3/4+x,3/4-y,1/4+z
5 x,1/2+y,1/2+z
6 -x,1/2-y,1/2+z
7 1/4-x,3/4+y,3/4+z
8 3/4+x,1/4-y,3/4+z
9 1/2+x,y,1/2+z
10 1/2-x,-y,1/2+z
11 3/4-x,1/4+y,3/4+z
12 1/4+x,3/4-y,3/4+z
13 1/2+x,1/2+y,z
14 1/2-x,1/2-y,z
15 3/4-x,3/4+y,1/4+z
16 1/4+x,1/4-y,1/4+z
_cell_length_a 42.815(6)
_cell_length_b 22.224(5)
_cell_length_c 4.996(1)
_cell_angle_alpha 90
_cell_angle_beta 90
_cell_angle_gamma 90
_cell_formula_units_Z 16
loop_
_atom_type_symbol
_atom_type_radius_bond
C 0.68
H 0.23
N 0.68
O 0.68
loop_
_atom_site_label
_atom_site_type_symbol
_atom_site_fract_x
_atom_site_fract_y
_atom_site_fract_z
O1 O 0.7527(1) 0.4737(2) 0.805(1)
O2 O 0.8744(1) -0.0001(2) 0.855(1)
O3 O 0.8247(1) -0.0038(2) 0.917(1)
N1 N 0.83308(9) 0.1926(2) 0.017(1)
N2 N 0.8478(1) 0.0160(2) 0.799(1)
C1 C 0.7730(2) 0.4284(3) 0.873(2)
C2 C 0.7762(1) 0.3839(2) 0.667(1)
C3 C 0.7808(1) 0.3447(2) 0.503(1)
C4 C 0.7879(1) 0.3035(2) 0.309(1)
C5 C 0.7943(1) 0.2660(2) 0.152(1)
C6 C 0.8041(1) 0.2211(2) -0.053(1)
C7 C 0.8362(1) 0.1484(2) 0.209(1)
C8 C 0.8659(1) 0.1238(2) 0.256(1)
C9 C 0.8690(1) 0.0806(2) 0.449(1)
C10 C 0.8432(1) 0.0611(2) 0.597(1)
C11 C 0.8141(1) 0.0855(2) 0.551(1)
C12 C 0.8105(1) 0.1288(2) 0.362(1)
C13 C 0.8938(1) 0.1437(2) 0.099(1)
H1 H 0.851(1) 0.208(2) -0.109(13)
H2 H 0.769(1) 0.508(3) 0.673(19)
H3 H 0.76600 0.41000 1.03400
H4 H 0.79300 0.44600 0.90200
H5 H 0.78800 0.19100 -0.06800
H6 H 0.80600 0.24100 -0.22100
H7 H 0.88900 0.06400 0.48400
H8 H 0.79700 0.07200 0.65000
H9 H 0.79100 0.14600 0.33300
H10 H 0.88800 0.14800 -0.08400
H11 H 0.91000 0.11400 0.11600
H12 H 0.90100 0.18100 0.16500
#END
