
#######################################################################
#
#                 Cambridge Crystallographic Data Centre
#                                CCDC
#
#######################################################################
#
# If this CIF has been generated from an entry in the Cambridge
# Structural Database, then it will include bibliographic, chemical,
# crystal, experimental, refinement or atomic coordinate data resulting
# from the CCDC's data processing and validation procedures.
#
#######################################################################

data_CSD_CIF_YUPSOT
_audit_creation_date 2015-07-02
_audit_creation_method CSD-ConQuest-V1
_database_code_CSD YUPSOT
_database_code_depnum_ccdc_archive 'CCDC 1410312'
_chemical_formula_sum 'C12 H17 N1 O2'
_chemical_formula_moiety
;
C12 H17 N1 O2
;
_journal_coden_Cambridge 1078
_journal_year 2015
_journal_name_full 'CSD Communication(Private Communication) '
loop_
_publ_author_name
"F.White"
"R.Gordon"
"P.Tasker"
_chemical_name_systematic
;
2-((Hydroxyimino)methyl)-4-(2-methylbutan-2-yl)phenol
;
_chemical_name_common
;
2-Hydroxy-5-(2-methylbutan-2-yl)benzaldehyde oxime
;
_cell_volume   2306.294
_exptl_crystal_colour 'colorless'
_exptl_crystal_density_diffrn 1.194
_exptl_crystal_description 'tablet'
_diffrn_ambient_temperature 150
#These two values have been output from a single CSD field.
_refine_ls_R_factor_gt 0.0509
_refine_ls_wR_factor_gt 0.0509
_symmetry_cell_setting monoclinic
_symmetry_space_group_name_H-M 'P 21/c'
_symmetry_Int_Tables_number 14
loop_
_symmetry_equiv_pos_site_id
_symmetry_equiv_pos_as_xyz
1 x,y,z
2 -x,1/2+y,1/2-z
3 -x,-y,-z
4 x,-1/2-y,-1/2+z
_cell_length_a 19.3272(12)
_cell_length_b 9.3666(6)
_cell_length_c 13.5947(8)
_cell_angle_alpha 90
_cell_angle_beta 110.427(4)
_cell_angle_gamma 90
_cell_formula_units_Z 8
loop_
_atom_type_symbol
_atom_type_radius_bond
C 0.68
H 0.23
N 0.68
O 0.68
loop_
_atom_site_label
_atom_site_type_symbol
_atom_site_fract_x
_atom_site_fract_y
_atom_site_fract_z
O1 O -0.01644(8) 1.00854(17) 0.29333(11)
H1 H -0.0025(4) 1.099(3) 0.3000(2)
C1 C 0.02688(11) 0.9364(2) 0.38148(17)
O2 O 0.08046(9) 1.37992(16) 0.40124(13)
H2 H 0.0630(6) 1.4201(13) 0.336(2)
C2 C 0.07939(11) 1.0068(2) 0.46431(16)
C3 C 0.12116(11) 0.9263(2) 0.55118(18)
H3 H 0.15640 0.97430 0.60850
C4 C 0.11363(12) 0.7793(2) 0.55777(17)
C5 C 0.06009(12) 0.7144(2) 0.47310(18)
H4 H 0.05300 0.61420 0.47480
C6 C 0.01676(12) 0.7914(2) 0.38636(18)
H5 H -0.01990 0.74410 0.33030
C7 C 0.09184(11) 1.1600(2) 0.46512(18)
H6 H 0.12370 1.20430 0.52730
N1 N 0.06077(10) 1.23559(19) 0.38374(14)
C8 C 0.16479(12) 0.6926(2) 0.64987(18)
C9 C 0.12248(14) 0.5686(3) 0.6769(2)
H7 H 0.08060 0.60640 0.69370
H8 H 0.15550 0.51640 0.73760
H9 H 0.10430 0.50390 0.61670
C10 C 0.19725(15) 0.7834(3) 0.74846(19)
H10 H 0.22940 0.85700 0.73620
H11 H 0.22610 0.72260 0.80710
H12 H 0.15720 0.82900 0.76540
C11 C 0.22745(13) 0.6288(2) 0.6177(2)
H13 H 0.26160 0.57670 0.67880
H14 H 0.20550 0.55800 0.56130
C12 C 0.27242(13) 0.7343(3) 0.5797(2)
H15 H 0.24020 0.78190 0.51600
H16 H 0.31170 0.68330 0.56420
H17 H 0.29440 0.80570 0.63440
O3 O 0.49037(8) 0.46601(16) 0.19628(11)
H18 H 0.5011(3) 0.380(3) 0.19824(13)
C13 C 0.53257(11) 0.5362(2) 0.14856(16)
O4 O 0.58522(8) 0.09358(15) 0.18599(14)
H19 H 0.5675(5) 0.0498(13) 0.2331(14)
C14 C 0.58553(11) 0.4655(2) 0.11833(16)
C15 C 0.62684(11) 0.5449(2) 0.07134(17)
H20 H 0.66230 0.49650 0.04970
C16 C 0.61840(11) 0.6911(2) 0.05480(17)
C17 C 0.56412(12) 0.7563(2) 0.08530(17)
H21 H 0.55630 0.85610 0.07470
C18 C 0.52142(12) 0.6810(2) 0.13042(17)
H22 H 0.48440 0.72870 0.14900
C19 C 0.59842(11) 0.3127(2) 0.13281(17)
H23 H 0.63160 0.26770 0.10500
N2 N 0.56601(9) 0.23826(18) 0.18214(14)
C20 C 0.66689(12) 0.7794(2) 0.00981(18)
C21 C 0.70913(14) 0.6856(3) -0.0423(2)
H24 H 0.74260 0.62200 0.01030
H25 H 0.73780 0.74630 -0.07260
H26 H 0.67400 0.62840 -0.09790
C22 C 0.61901(13) 0.8831(3) -0.0742(2)
H27 H 0.58180 0.82910 -0.12940
H28 H 0.65030 0.93600 -0.10480
H29 H 0.59440 0.95040 -0.04190
C23 C 0.72136(12) 0.8694(2) 0.09791(19)
H30 H 0.75240 0.92570 0.06750
H31 H 0.69270 0.93780 0.12390
C24 C 0.77197(14) 0.7853(3) 0.19105(19)
H32 H 0.74220 0.73240 0.22410
H33 H 0.80490 0.85120 0.24220
H34 H 0.80150 0.71810 0.16680
#END
