
#######################################################################
#
#                 Cambridge Crystallographic Data Centre
#                                CCDC
#
#######################################################################
#
# If this CIF has been generated from an entry in the Cambridge
# Structural Database, then it will include bibliographic, chemical,
# crystal, experimental, refinement or atomic coordinate data resulting
# from the CCDC's data processing and validation procedures.
#
#######################################################################

data_CSD_CIF_YUPZIT
_audit_creation_date 2010-08-30
_audit_creation_method CSD-ConQuest-V1
_database_code_CSD YUPZIT
_database_code_depnum_ccdc_archive 'CCDC 786696'
_chemical_formula_sum 'C9 H8 N2 O4'
_chemical_formula_moiety
;
C9 H8 N2 O4
;
_journal_coeditor_code "IUCr RZ2463"
_journal_coden_Cambridge 1370
_journal_volume 66
_journal_year 2010
_journal_page_first o1781
_journal_name_full 'Acta Crystallogr.,Sect.E:Struct.Rep.Online '
loop_
_publ_author_name
"Jian-Ke Yang"
"Mei Zheng"
"Shu-Ping Luo"
"Zhao-Bo Li"
_chemical_name_systematic
;
1-Nitro-3-(2-nitroprop-1-en-1-yl)benzene
;
_chemical_name_common
;
1-Nitro-4-(2-nitroprop-1-enyl)benzene
;
_cell_volume   1941.481
_exptl_crystal_colour 'yellow'
_exptl_crystal_density_diffrn 1.424
_exptl_crystal_description 'chunk'
_diffrn_ambient_temperature 296
#These two values have been output from a single CSD field.
_refine_ls_R_factor_gt 0.0528
_refine_ls_wR_factor_gt 0.0528
_symmetry_cell_setting monoclinic
_symmetry_space_group_name_H-M 'P 21/c'
_symmetry_Int_Tables_number 14
loop_
_symmetry_equiv_pos_site_id
_symmetry_equiv_pos_as_xyz
1 x,y,z
2 -x,1/2+y,1/2-z
3 -x,-y,-z
4 x,-1/2-y,-1/2+z
_cell_length_a 13.3621(11)
_cell_length_b 9.7648(7)
_cell_length_c 14.8835(11)
_cell_angle_alpha 90
_cell_angle_beta 91.290(2)
_cell_angle_gamma 90
_cell_formula_units_Z 8
loop_
_atom_type_symbol
_atom_type_radius_bond
C 0.68
H 0.23
N 0.68
O 0.68
loop_
_atom_site_label
_atom_site_type_symbol
_atom_site_fract_x
_atom_site_fract_y
_atom_site_fract_z
N1 N 0.91640(18) 0.3305(3) 0.05652(17)
O1 O 0.98875(16) 0.3688(2) 0.10125(17)
O2 O 0.90989(18) 0.2158(2) 0.02430(17)
C1 C 0.77860(18) 0.6710(2) 0.05586(16)
O3 O 0.96098(19) 0.2340(2) 0.31850(17)
N2 N 0.8836(2) 0.2846(3) 0.29171(18)
C2 C 0.84789(17) 0.5546(3) 0.06249(16)
H1 H 0.91180 0.57440 0.08490
C3 C 0.59839(19) 0.7663(3) 0.31450(16)
C4 C 0.83112(17) 0.4254(3) 0.04069(16)
C5 C 0.86722(19) 0.4327(2) 0.30718(17)
C6 C 0.77664(18) 0.4791(2) 0.28873(17)
H2 H 0.73040 0.41420 0.26860
C7 C 0.67661(18) 0.6603(2) 0.06964(16)
H3 H 0.64800 0.57530 0.08090
O4 O 0.8201(2) 0.2192(2) 0.2511(2)
C8 C 0.73898(18) 0.6202(2) 0.29576(16)
C9 C 0.7965(2) 0.7370(3) 0.28421(18)
H4 H 0.86460 0.72810 0.27390
C10 C 0.63788(18) 0.6371(2) 0.31073(16)
H5 H 0.59700 0.56110 0.31820
C11 C 0.8177(2) 0.8007(3) 0.04022(18)
H6 H 0.88610 0.81030 0.03160
C12 C 0.7547(2) 0.8658(3) 0.28776(19)
H7 H 0.79480 0.94260 0.27980
N3 N 0.4902(2) 0.7794(3) 0.32987(19)
N4 N 0.51053(19) 0.7625(3) 0.08429(18)
C13 C 0.6181(2) 0.7759(3) 0.06654(17)
O5 O 0.47832(17) 0.6518(3) 0.0982(3)
O6 O 0.45844(19) 0.8608(3) 0.0844(2)
O7 O 0.4434(2) 0.6811(3) 0.3488(3)
C14 C 0.6543(2) 0.8819(3) 0.30301(18)
H8 H 0.62540 0.96850 0.30540
C15 C 0.9567(2) 0.5036(3) 0.3453(2)
H9 H 1.00440 0.51760 0.29890
H10 H 0.98640 0.44860 0.39230
H11 H 0.93730 0.59060 0.36940
C16 C 0.6564(2) 0.9036(3) 0.05062(18)
H12 H 0.61520 0.98040 0.04890
C17 C 0.7576(2) 0.9148(3) 0.0372(2)
H13 H 0.78550 1.00020 0.02610
C18 C 0.7418(2) 0.3607(3) -0.0012(2)
H14 H 0.69860 0.43020 -0.02610
H15 H 0.70670 0.30970 0.04330
H16 H 0.76210 0.30000 -0.04820
O8 O 0.45068(18) 0.8883(3) 0.3199(2)
#END
