
#######################################################################
#
#                 Cambridge Crystallographic Data Centre
#                                CCDC
#
#######################################################################
#
# If this CIF has been generated from an entry in the Cambridge
# Structural Database, then it will include bibliographic, chemical,
# crystal, experimental, refinement or atomic coordinate data resulting
# from the CCDC's data processing and validation procedures.
#
#######################################################################

data_CSD_CIF_YUPZUF
_audit_creation_date 2010-08-30
_audit_creation_method CSD-ConQuest-V1
_database_code_CSD YUPZUF
_database_code_depnum_ccdc_archive 'CCDC 786698'
_chemical_formula_sum 'C14 H17 N3 O1'
_chemical_formula_moiety
;
C14 H17 N3 O1
;
_journal_coeditor_code "IUCr JH2170"
_journal_coden_Cambridge 1370
_journal_volume 66
_journal_year 2010
_journal_page_first o1783
_journal_name_full 'Acta Crystallogr.,Sect.E:Struct.Rep.Online '
loop_
_publ_author_name
"A.M.Asiri"
"S.A.Khan"
"K.W.Tan"
"S.W.Ng"
_chemical_name_systematic
;
N-(4-(Dimethylamino)benzylidene)-3,4-dimethyl-1,2-oxazol-5-amine
;
_chemical_name_common
;
N-[4-(Dimethylamino)benzylidene]-3,4-dimethylisoxazol-5-amine
;
_cell_volume    628.858
_exptl_crystal_colour 'yellow'
_exptl_crystal_density_diffrn 1.285
_exptl_crystal_description 'prism'
_diffrn_ambient_temperature 100
#These two values have been output from a single CSD field.
_refine_ls_R_factor_gt 0.039
_refine_ls_wR_factor_gt 0.039
_symmetry_cell_setting triclinic
_symmetry_space_group_name_H-M 'P -1'
_symmetry_Int_Tables_number 2
loop_
_symmetry_equiv_pos_site_id
_symmetry_equiv_pos_as_xyz
1 x,y,z
2 -x,-y,-z
_cell_length_a 6.5772(6)
_cell_length_b 9.1246(9)
_cell_length_c 10.538(1)
_cell_angle_alpha 92.995(1)
_cell_angle_beta 95.183(1)
_cell_angle_gamma 90.873(1)
_cell_formula_units_Z 2
loop_
_atom_type_symbol
_atom_type_radius_bond
C 0.68
H 0.23
N 0.68
O 0.68
loop_
_atom_site_label
_atom_site_type_symbol
_atom_site_fract_x
_atom_site_fract_y
_atom_site_fract_z
O1 O 0.34307(12) 0.64426(8) 0.20359(7)
N1 N 0.46514(14) 0.43648(10) 0.31374(9)
N2 N 0.41200(15) 0.73832(10) 0.11248(9)
N3 N 0.13966(15) 0.02064(10) 0.73244(9)
C1 C -0.06808(18) -0.00795(14) 0.76262(12)
H1 H -0.12580 0.08310 0.79590
H2 H -0.06730 -0.08160 0.82710
H3 H -0.15110 -0.04460 0.68520
C2 C 0.17610(17) 0.11519(11) 0.6404(1)
C3 C 0.29986(19) -0.07284(12) 0.78465(12)
H4 H 0.32700 -0.14990 0.72040
H5 H 0.25610 -0.11790 0.86040
H6 H 0.42450 -0.01380 0.80840
C4 C 0.37269(17) 0.13022(12) 0.59705(10)
H7 H 0.47970 0.06990 0.62930
C5 C 0.41094(17) 0.23055(12) 0.5092(1)
H8 H 0.54470 0.23910 0.48270
C6 C 0.25736(16) 0.32079(12) 0.45762(10)
C7 C 0.06149(17) 0.30343(12) 0.49799(11)
H9 H -0.04570 0.36220 0.46340
C8 C 0.01988(17) 0.20356(12) 0.58643(11)
H10 H -0.11480 0.19410 0.61130
C9 C 0.29510(17) 0.42739(12) 0.36576(10)
H11 H 0.19030 0.49390 0.34240
C10 C 0.49005(17) 0.54187(12) 0.22757(10)
C11 C 0.64745(16) 0.56405(11) 0.15557(10)
C12 C 0.83736(17) 0.47749(13) 0.14888(11)
H12 H 0.84860 0.40970 0.21820
H13 H 0.95640 0.54440 0.15740
H14 H 0.83180 0.42150 0.06670
C13 C 0.58994(17) 0.68813(12) 0.08652(10)
C14 C 0.71023(19) 0.76199(13) -0.00676(11)
H15 H 0.71540 0.69720 -0.08350
H16 H 0.84930 0.78330 0.03200
H17 H 0.64480 0.85380 -0.02990
#END
