
#######################################################################
#
#                 Cambridge Crystallographic Data Centre
#                                CCDC
#
#######################################################################
#
# If this CIF has been generated from an entry in the Cambridge
# Structural Database, then it will include bibliographic, chemical,
# crystal, experimental, refinement or atomic coordinate data resulting
# from the CCDC's data processing and validation procedures.
#
#######################################################################

data_CSD_CIF_YUQFEX
_audit_creation_date 2015-11-05
_audit_creation_method CSD-ConQuest-V1
_database_code_CSD YUQFEX
_database_code_depnum_ccdc_archive 'CCDC 1409749'
_chemical_formula_sum 'C11 H9 N5 O5'
_chemical_formula_moiety
;
C11 H9 N5 O5
;
_journal_coden_Cambridge 1268
_journal_volume 20
_journal_year 2015
_journal_page_first 14365
_journal_name_full 'Molecules '
loop_
_publ_author_name
"Anna Kwiecien"
"Z.Ciunik"
_chemical_name_systematic
;
(2,4-dinitrophenyl)(pyrimidin-2-ylamino)methanol
;
_cell_volume    634.145
_exptl_crystal_colour 'yellow'
_exptl_crystal_density_diffrn 1.525
_exptl_crystal_description 'block'
_diffrn_ambient_temperature 296
#These two values have been output from a single CSD field.
_refine_ls_R_factor_gt 0.0476
_refine_ls_wR_factor_gt 0.0476
_symmetry_cell_setting triclinic
_symmetry_space_group_name_H-M 'P -1'
_symmetry_Int_Tables_number 2
loop_
_symmetry_equiv_pos_site_id
_symmetry_equiv_pos_as_xyz
1 x,y,z
2 -x,-y,-z
_cell_length_a 5.509(3)
_cell_length_b 10.866(4)
_cell_length_c 11.475(4)
_cell_angle_alpha 69.55(3)
_cell_angle_beta 89.43(3)
_cell_angle_gamma 80.60(3)
_cell_formula_units_Z 2
loop_
_atom_type_symbol
_atom_type_radius_bond
C 0.68
H 0.23
N 0.68
O 0.68
loop_
_atom_site_label
_atom_site_type_symbol
_atom_site_fract_x
_atom_site_fract_y
_atom_site_fract_z
C1 C 1.07427(17) 0.47259(9) 0.74367(8)
C2 C 0.90288(18) 0.46476(10) 0.83515(9)
C3 C 0.8936(2) 0.34997(12) 0.93653(10)
H1 H 0.77420 0.34690 0.99480
C4 C 1.0701(2) 0.2403(1) 0.94690(9)
C5 C 1.2462(2) 0.24174(10) 0.86133(10)
H2 H 1.36330 0.16630 0.87110
C6 C 1.2458(2) 0.35828(10) 0.75965(10)
H3 H 1.36360 0.35980 0.70080
N1 N 0.72364(19) 0.58264(11) 0.83146(9)
O1 O 0.8021(2) 0.68653(10) 0.81172(10)
O2 O 0.5105(2) 0.56839(14) 0.85229(13)
N2 N 1.0692(3) 0.11731(11) 1.05525(10)
O3 O 0.9079(3) 0.11564(14) 1.12657(13)
O4 O 1.2308(3) 0.02315(11) 1.06752(11)
C7 C 1.06953(16) 0.59690(8) 0.62784(9)
H4 H 1.10890 0.66950 0.65230
O5 O 1.24651(14) 0.56926(7) 0.54687(7)
H5 H 1.313(3) 0.6370(18) 0.5124(16)
N3 N 0.82163(15) 0.63283(7) 0.57305(8)
H6 H 0.765(3) 0.5707(14) 0.5530(12)
N4 N 0.50476(14) 0.77628(8) 0.44229(7)
C8 C 0.72940(15) 0.75991(8) 0.49606(8)
N5 N 0.86284(15) 0.85589(8) 0.48192(8)
C9 C 0.7643(2) 0.97688(10) 0.40366(10)
H7 H 0.85080 1.04660 0.39210
C10 C 0.5416(2) 1.00368(10) 0.33936(10)
H8 H 0.47950 1.08800 0.28280
C11 C 0.41514(18) 0.89868(10) 0.36323(9)
H9 H 0.26180 0.91350 0.32290
#END
