
#######################################################################
#
#                 Cambridge Crystallographic Data Centre
#                                CCDC
#
#######################################################################
#
# If this CIF has been generated from an entry in the Cambridge
# Structural Database, then it will include bibliographic, chemical,
# crystal, experimental, refinement or atomic coordinate data resulting
# from the CCDC's data processing and validation procedures.
#
#######################################################################

data_CSD_CIF_YUQFAT
_audit_creation_date 2015-11-05
_audit_creation_method CSD-ConQuest-V1
_database_code_CSD YUQFAT
_database_code_depnum_ccdc_archive 'CCDC 1409748'
_chemical_formula_sum 'C11 H10 N4 O3'
_chemical_formula_moiety
;
C11 H10 N4 O3
;
_journal_coden_Cambridge 1268
_journal_volume 20
_journal_year 2015
_journal_page_first 14365
_journal_name_full 'Molecules '
loop_
_publ_author_name
"Anna Kwiecien"
"Z.Ciunik"
_chemical_name_systematic
;
(2-nitrophenyl)(pyrimidin-2-ylamino)methanol
;
_cell_volume   2201.814
_exptl_crystal_colour 'colorless'
_exptl_crystal_density_diffrn 1.486
_exptl_crystal_description 'block'
_diffrn_ambient_temperature 100
#These two values have been output from a single CSD field.
_refine_ls_R_factor_gt 0.0528
_refine_ls_wR_factor_gt 0.0528
_symmetry_cell_setting monoclinic
_symmetry_space_group_name_H-M 'P 21/c'
_symmetry_Int_Tables_number 14
loop_
_symmetry_equiv_pos_site_id
_symmetry_equiv_pos_as_xyz
1 x,y,z
2 -x,1/2+y,1/2-z
3 -x,-y,-z
4 x,-1/2-y,-1/2+z
_cell_length_a 16.321(5)
_cell_length_b 9.583(4)
_cell_length_c 14.482(6)
_cell_angle_alpha 90
_cell_angle_beta 103.57(3)
_cell_angle_gamma 90
_cell_formula_units_Z 8
loop_
_atom_type_symbol
_atom_type_radius_bond
C 0.68
H 0.23
N 0.68
O 0.68
loop_
_atom_site_label
_atom_site_type_symbol
_atom_site_fract_x
_atom_site_fract_y
_atom_site_fract_z
C1 C 0.36920(11) 0.58817(18) 0.17099(12)
C2 C 0.44335(12) 0.6509(2) 0.21856(12)
N1 N 0.4576(1) 0.68707(19) 0.32004(11)
O1 O 0.43622(9) 0.60183(18) 0.37364(9)
O2 O 0.49233(9) 0.79850(16) 0.34632(10)
C3 C 0.50710(12) 0.6913(2) 0.17417(13)
H1 H 0.55720 0.73450 0.20930
C4 C 0.49523(13) 0.6665(2) 0.07767(13)
H2 H 0.53780 0.69110 0.04580
C5 C 0.42128(13) 0.6062(2) 0.02825(13)
H3 H 0.41260 0.59090 -0.03820
C6 C 0.35961(13) 0.56772(19) 0.07422(13)
H4 H 0.30920 0.52610 0.03860
C7 C 0.29784(11) 0.54690(18) 0.21853(12)
H5 H 0.32100 0.48440 0.27380
O3 O 0.23215(8) 0.47586(14) 0.15345(9)
H6 H 0.2505(14) 0.384(3) 0.1588(15)
N2 N 0.26461(10) 0.67205(16) 0.25226(11)
H7 H 0.2710(13) 0.752(2) 0.2289(14)
N3 N 0.21135(9) 0.55458(15) 0.36645(9)
C8 C 0.22448(11) 0.67502(18) 0.32445(11)
N4 N 0.20128(9) 0.80299(15) 0.34839(10)
C9 C 0.16013(12) 0.8067(2) 0.41768(13)
H8 H 0.14200 0.89470 0.43560
C10 C 0.14244(12) 0.6895(2) 0.46478(13)
H9 H 0.11270 0.69440 0.51380
C11 C 0.17050(11) 0.56541(19) 0.43643(12)
H10 H 0.16040 0.48260 0.46810
C12 C 0.11962(11) 0.15604(18) 0.32008(12)
C13 C 0.05441(11) 0.08325(19) 0.26028(12)
N5 N 0.05904(10) 0.04709(19) 0.16273(11)
O4 O 0.08468(9) 0.13543(16) 0.11529(9)
O5 O 0.03500(12) -0.06795(18) 0.13346(11)
C14 C -0.01726(12) 0.0400(2) 0.28774(14)
H11 H -0.05930 -0.01300 0.24570
C15 C -0.02676(12) 0.0749(2) 0.37691(14)
H12 H -0.07680 0.05020 0.39570
C16 C 0.03655(12) 0.1456(2) 0.43856(13)
H13 H 0.03040 0.16830 0.50040
C17 C 0.10935(12) 0.18422(18) 0.41116(12)
H14 H 0.15300 0.23080 0.45530
C18 C 0.19937(11) 0.19993(17) 0.28981(11)
H15 H 0.18340 0.26380 0.23390
O6 O 0.25715(8) 0.26925(14) 0.36337(8)
H16 H 0.2448(14) 0.363(3) 0.3592(15)
N6 N 0.23798(10) 0.07769(16) 0.26231(10)
H17 H 0.2290(13) 0.007(2) 0.2875(14)
N7 N 0.28995(9) 0.19619(14) 0.14845(9)
C19 C 0.28013(10) 0.07536(18) 0.19201(11)
N8 N 0.30740(9) -0.05081(15) 0.17093(10)
C20 C 0.34891(11) -0.05286(19) 0.10133(12)
H18 H 0.36930 -0.13980 0.08450
C21 C 0.36346(11) 0.06462(19) 0.05315(12)
H19 H 0.39370 0.06100 0.00460
C22 C 0.33195(11) 0.18699(18) 0.07896(11)
H20 H 0.34010 0.26980 0.04620
#END
