
#######################################################################
#
#                 Cambridge Crystallographic Data Centre
#                                CCDC
#
#######################################################################
#
# If this CIF has been generated from an entry in the Cambridge
# Structural Database, then it will include bibliographic, chemical,
# crystal, experimental, refinement or atomic coordinate data resulting
# from the CCDC's data processing and validation procedures.
#
#######################################################################

data_CSD_CIF_YUQGOH
_audit_creation_date 2010-08-30
_audit_creation_method CSD-ConQuest-V1
_database_code_CSD YUQGOH
_database_code_depnum_ccdc_archive 'CCDC 786722'
_chemical_formula_sum 'C15 H14 N2 O2'
_chemical_formula_moiety
;
C15 H14 N2 O2
;
_journal_coeditor_code "IUCr SU2187"
_journal_coden_Cambridge 1370
_journal_volume 66
_journal_year 2010
_journal_page_first o1817
_journal_name_full 'Acta Crystallogr.,Sect.E:Struct.Rep.Online '
loop_
_publ_author_name
"M.N.Tahir"
"M.I.Tariq"
"S.Ahmad"
"M.Sarfraz"
"A.Q.Ather"
_chemical_name_systematic
;
(E)-2,3-Dimethyl-N-(2-nitrobenzylidene)aniline
;
_cell_volume   1305.457
_exptl_crystal_colour 'pale pink'
_exptl_crystal_density_diffrn 1.294
_exptl_crystal_description 'rod'
_diffrn_ambient_temperature 296
#These two values have been output from a single CSD field.
_refine_ls_R_factor_gt 0.0409
_refine_ls_wR_factor_gt 0.0409
_symmetry_cell_setting monoclinic
_symmetry_space_group_name_H-M 'P 21/c'
_symmetry_Int_Tables_number 14
loop_
_symmetry_equiv_pos_site_id
_symmetry_equiv_pos_as_xyz
1 x,y,z
2 -x,1/2+y,1/2-z
3 -x,-y,-z
4 x,-1/2-y,-1/2+z
_cell_length_a 12.2910(6)
_cell_length_b 15.1422(9)
_cell_length_c 7.3384(3)
_cell_angle_alpha 90
_cell_angle_beta 107.091(2)
_cell_angle_gamma 90
_cell_formula_units_Z 4
loop_
_atom_type_symbol
_atom_type_radius_bond
C 0.68
H 0.23
N 0.68
O 0.68
loop_
_atom_site_label
_atom_site_type_symbol
_atom_site_fract_x
_atom_site_fract_y
_atom_site_fract_z
O1 O 0.57216(14) 0.48517(10) 0.7186(2)
O2 O 0.66972(12) 0.41328(10) 0.5671(3)
N1 N 0.72326(11) 0.16848(9) 0.60756(19)
N2 N 0.59423(13) 0.41809(10) 0.6438(2)
C1 C 0.84205(12) 0.1524(1) 0.6480(2)
C2 C 0.88063(13) 0.06562(10) 0.6889(2)
C3 C 0.99754(14) 0.04808(12) 0.7314(2)
C4 C 1.07104(15) 0.11659(15) 0.7281(3)
C5 C 1.03219(15) 0.20131(14) 0.6825(3)
C6 C 0.91756(14) 0.21936(12) 0.6413(3)
C7 C 0.79775(11) -0.00684(9) 0.6917(3)
C8 C 1.04291(11) -0.04434(9) 0.7794(3)
C9 C 0.69105(12) 0.23778(11) 0.6723(2)
C10 C 0.56911(12) 0.25563(10) 0.6417(2)
C11 C 0.52334(13) 0.34016(11) 0.6387(2)
C12 C 0.41029(14) 0.35494(13) 0.6243(3)
C13 C 0.33943(15) 0.28376(14) 0.6115(3)
C14 C 0.38193(15) 0.19944(13) 0.6158(3)
C15 C 0.49477(14) 0.18559(11) 0.6304(2)
H1 H 1.14863 0.10520 0.75744
H2 H 1.08312 0.24631 0.67951
H3 H 0.89095 0.27645 0.60905
H4 H 0.79909 -0.01850 0.82093
H5 H 0.81863 -0.05936 0.63677
H6 H 0.72254 0.01102 0.61921
H7 H 1.12430 -0.04385 0.80782
H8 H 1.01086 -0.08255 0.67275
H9 H 1.02244 -0.06541 0.88832
H10 H 0.74495 0.27808 0.74006
H11 H 0.38266 0.41218 0.62325
H12 H 0.26279 0.29245 0.59991
H13 H 0.33385 0.15133 0.60884
H14 H 0.52174 0.12810 0.63275
H15? H 0.74650 0.01276 0.75999
H16? H 0.83851 -0.05791 0.75358
H17? H 0.75525 -0.02168 0.56333
#END
