
#######################################################################
#
#                 Cambridge Crystallographic Data Centre
#                                CCDC
#
#######################################################################
#
# If this CIF has been generated from an entry in the Cambridge
# Structural Database, then it will include bibliographic, chemical,
# crystal, experimental, refinement or atomic coordinate data resulting
# from the CCDC's data processing and validation procedures.
#
#######################################################################

data_CSD_CIF_YUQJOK
_audit_creation_date 2010-08-30
_audit_creation_method CSD-ConQuest-V1
_database_code_CSD YUQJOK
_database_code_depnum_ccdc_archive 'CCDC 786732'
_chemical_formula_sum 'C10 H9 N3 O2'
_chemical_formula_moiety
;
C10 H9 N3 O2
;
_journal_coeditor_code "IUCr HB5504"
_journal_coden_Cambridge 1370
_journal_volume 66
_journal_year 2010
_journal_page_first o1830
_journal_name_full 'Acta Crystallogr.,Sect.E:Struct.Rep.Online '
loop_
_publ_author_name
"R.M.Ghalib"
"R.Hashim"
"S.H.Mehdi"
"J.H.Goh"
"H.-K.Fun"
_chemical_name_systematic
;
2,3-Dimethyl-6-nitroquinoxaline
;
_cell_volume   1878.396
_exptl_crystal_colour 'brown'
_exptl_crystal_density_diffrn 1.437
_exptl_crystal_description 'block'
_diffrn_ambient_temperature 100
#These two values have been output from a single CSD field.
_refine_ls_R_factor_gt 0.045
_refine_ls_wR_factor_gt 0.045
_symmetry_cell_setting monoclinic
_symmetry_space_group_name_H-M 'P 21/c'
_symmetry_Int_Tables_number 14
loop_
_symmetry_equiv_pos_site_id
_symmetry_equiv_pos_as_xyz
1 x,y,z
2 -x,1/2+y,1/2-z
3 -x,-y,-z
4 x,-1/2-y,-1/2+z
_cell_length_a 7.1125(7)
_cell_length_b 22.490(2)
_cell_length_c 12.9596(10)
_cell_angle_alpha 90
_cell_angle_beta 115.026(4)
_cell_angle_gamma 90
_cell_formula_units_Z 8
loop_
_atom_type_symbol
_atom_type_radius_bond
C 0.68
H 0.23
N 0.68
O 0.68
loop_
_atom_site_label
_atom_site_type_symbol
_atom_site_fract_x
_atom_site_fract_y
_atom_site_fract_z
O1 O 0.42483(15) 0.54231(3) 0.13432(7)
O2 O 0.40149(14) 0.57864(4) 0.28272(7)
N1 N 0.46872(13) 0.81176(4) 0.03295(7)
N2 N 0.50093(12) 0.79631(4) 0.25642(7)
N3 N 0.41730(13) 0.58434(4) 0.19278(7)
C1 C 0.49512(15) 0.85691(4) 0.10172(8)
C2 C 0.45607(13) 0.75638(4) 0.07370(8)
C3 C 0.42621(14) 0.70659(4) 0.00252(8)
H1 H 0.41600 0.71160 -0.07090
C4 C 0.41210(14) 0.65075(4) 0.04132(8)
H2 H 0.39150 0.61770 -0.00530
C5 C 0.42934(14) 0.64452(4) 0.15257(8)
C6 C 0.45822(14) 0.69133(4) 0.22529(8)
H3 H 0.46860 0.68550 0.29850
C7 C 0.47173(13) 0.74866(4) 0.18519(7)
C8 C 0.51266(14) 0.84900(4) 0.21625(8)
C9 C 0.54442(18) 0.90164(5) 0.29221(9)
H4 H 0.56500 0.88840 0.36670
H5 H 0.42440 0.92690 0.26130
H6 H 0.66420 0.92340 0.29750
C10 C 0.5085(2) 0.91790(5) 0.05931(10)
H7 H 0.48900 0.91560 -0.01860
H8 H 0.64250 0.93460 0.10490
H9 H 0.40270 0.94260 0.06430
O3 O 1.02498(14) 0.88142(4) 0.11899(7)
O4 O 1.01367(14) 0.86371(3) 0.28010(7)
N4 N 0.91353(13) 0.60539(4) 0.08423(7)
N5 N 0.96057(12) 0.64557(4) 0.30076(7)
N6 N 1.00834(13) 0.84739(4) 0.18868(8)
C11 C 0.91658(15) 0.56851(4) 0.16330(8)
C12 C 0.93380(13) 0.66464(4) 0.11081(8)
C13 C 0.92863(15) 0.70603(4) 0.02753(8)
H10 H 0.90910 0.69280 -0.04430
C14 C 0.95218(14) 0.76554(4) 0.05198(8)
H11 H 0.94960 0.79300 -0.00220
C15 C 0.98036(14) 0.78392(4) 0.16108(8)
C16 C 0.98399(14) 0.74548(4) 0.24403(8)
H12 H 1.00230 0.75950 0.31520
C17 C 0.95944(13) 0.68435(4) 0.21894(8)
C18 C 0.93904(15) 0.58899(4) 0.27364(8)
C19 C 0.93881(19) 0.54547(5) 0.36108(9)
H13 H 0.95540 0.56640 0.42890
H14 H 1.05120 0.51790 0.37860
H15 H 0.80970 0.52420 0.33180
C20 C 0.8977(2) 0.50367(5) 0.13618(11)
H16 H 0.88900 0.49780 0.06090
H17 H 0.77470 0.48830 0.13990
H18 H 1.01710 0.48320 0.19030
#END
