
#######################################################################
#
#                 Cambridge Crystallographic Data Centre
#                                CCDC
#
#######################################################################
#
# If this CIF has been generated from an entry in the Cambridge
# Structural Database, then it will include bibliographic, chemical,
# crystal, experimental, refinement or atomic coordinate data resulting
# from the CCDC's data processing and validation procedures.
#
#######################################################################

data_CSD_CIF_YUQMAZ
_audit_creation_date 2010-08-16
_audit_creation_method CSD-ConQuest-V1
_database_code_CSD YUQMAZ
_database_code_depnum_ccdc_archive 'CCDC 786744'
_chemical_formula_sum 'C13 H10 N2 O4'
_chemical_formula_moiety
;
C13 H10 N2 O4
;
_journal_coeditor_code "IUCr GK2288"
_journal_coden_Cambridge 1370
_journal_volume 66
_journal_year 2010
_journal_page_first o1852
_journal_name_full 'Acta Crystallogr.,Sect.E:Struct.Rep.Online '
loop_
_publ_author_name
"A.R.Raza"
"B.Nisar"
"M.N.Tahir"
_chemical_name_systematic
;
2-Hydroxy-5-nitro-N-phenylbenzamide
;
_cell_volume    578.564
_exptl_crystal_colour 'colorless'
_exptl_crystal_density_diffrn 1.482
_exptl_crystal_description 'needle'
_diffrn_ambient_temperature 296
#These two values have been output from a single CSD field.
_refine_ls_R_factor_gt 0.0287
_refine_ls_wR_factor_gt 0.0287
_symmetry_cell_setting monoclinic
_symmetry_space_group_name_H-M 'P c'
_symmetry_Int_Tables_number 7
loop_
_symmetry_equiv_pos_site_id
_symmetry_equiv_pos_as_xyz
1 x,y,z
2 x,-y,1/2+z
_cell_length_a 9.9012(2)
_cell_length_b 4.7821(1)
_cell_length_c 12.3369(4)
_cell_angle_alpha 90
_cell_angle_beta 97.919(1)
_cell_angle_gamma 90
_cell_formula_units_Z 2
loop_
_atom_type_symbol
_atom_type_radius_bond
C 0.68
H 0.23
N 0.68
O 0.68
loop_
_atom_site_label
_atom_site_type_symbol
_atom_site_fract_x
_atom_site_fract_y
_atom_site_fract_z
O1 O 0.87642(17) 0.9971(4) -0.04316(13)
O2 O 1.3304(2) 1.6021(5) 0.27212(18)
O3 O 1.2680(2) 1.2889(5) 0.38093(16)
O4 O 0.88497(17) 0.7133(3) 0.27868(13)
N1 N 1.25998(19) 1.4015(5) 0.29149(17)
N2 N 0.78477(17) 0.6615(4) 0.10417(14)
C1 C 0.9697(2) 1.0963(5) 0.03785(17)
C2 C 1.0633(2) 1.2998(5) 0.01674(19)
C3 C 1.1591(2) 1.4007(5) 0.09772(19)
C4 C 1.1606(2) 1.2957(5) 0.20283(19)
C5 C 1.0696(2) 1.0964(5) 0.22608(17)
C6 C 0.9712(2) 0.9923(4) 0.14475(17)
C7 C 0.8756(2) 0.7790(4) 0.18042(17)
C8 C 0.6844(2) 0.4564(4) 0.11679(19)
C9 C 0.6723(3) 0.3201(5) 0.2141(2)
C10 C 0.5716(3) 0.1191(5) 0.2159(2)
C11 C 0.4843(3) 0.0530(5) 0.1231(3)
C12 C 0.4959(2) 0.1904(5) 0.0268(2)
C13 C 0.5957(3) 0.3893(5) 0.0230(2)
H1 H 0.88228 1.08314 -0.09982
H2 H 1.06061 1.36856 -0.05404
H3 H 0.78731 0.71755 0.03824
H4 H 1.22149 1.53593 0.08284
H5 H 1.07351 1.02973 0.29727
H6 H 0.73090 0.36301 0.27744
H7 H 0.56322 0.02735 0.28111
H8 H 0.41778 -0.08347 0.12537
H9 H 0.43598 0.14877 -0.03597
H10 H 0.60379 0.47916 -0.04261
#END
