
#######################################################################
#
#                 Cambridge Crystallographic Data Centre
#                                CCDC
#
#######################################################################
#
# If this CIF has been generated from an entry in the Cambridge
# Structural Database, then it will include bibliographic, chemical,
# crystal, experimental, refinement or atomic coordinate data resulting
# from the CCDC's data processing and validation procedures.
#
#######################################################################

data_CSD_CIF_YUQSEJ
_audit_creation_date 2010-08-16
_audit_creation_method CSD-ConQuest-V1
_database_code_CSD YUQSEJ
_database_code_depnum_ccdc_archive 'CCDC 773074'
_chemical_formula_sum 'C18 H23 N3 O3'
_chemical_formula_moiety
;
C18 H23 N3 O3
;
_journal_coeditor_code "IUCr SU2175"
_journal_coden_Cambridge 1370
_journal_volume 66
_journal_year 2010
_journal_page_first o1576
_journal_name_full 'Acta Crystallogr.,Sect.E:Struct.Rep.Online '
loop_
_publ_author_name
"Lin Liu"
"Guangxin Xia"
"Xuejun Liu"
"Jieshu Xie"
"Jingkang Shen"
_chemical_name_systematic
;
(S)-t-Butyl 3-(3-phenyl-1,2,4-oxadiazol-5-yl)piperidine-1-carboxylate
;
_cell_volume   1763.312
_exptl_crystal_colour 'colorless'
_exptl_crystal_density_diffrn 1.241
_exptl_crystal_description 'rod'
_exptl_crystal_preparation 'ethanol'
_diffrn_ambient_temperature 293
#These two values have been output from a single CSD field.
_refine_ls_R_factor_gt 0.0728
_refine_ls_wR_factor_gt 0.0728
_symmetry_cell_setting monoclinic
_symmetry_space_group_name_H-M 'P 21'
_symmetry_Int_Tables_number 4
loop_
_symmetry_equiv_pos_site_id
_symmetry_equiv_pos_as_xyz
1 x,y,z
2 -x,1/2+y,-z
_cell_length_a 6.464(3)
_cell_length_b 15.515(8)
_cell_length_c 17.847(9)
_cell_angle_alpha 90
_cell_angle_beta 99.880(7)
_cell_angle_gamma 90
_cell_formula_units_Z 4
loop_
_atom_type_symbol
_atom_type_radius_bond
C 0.68
H 0.23
N 0.68
O 0.68
loop_
_atom_site_label
_atom_site_type_symbol
_atom_site_fract_x
_atom_site_fract_y
_atom_site_fract_z
O1 O 0.4355(6) 0.9886(3) 0.68689(18)
O2 O 1.1738(6) 0.7663(3) 0.79331(18)
O3 O 1.2986(7) 0.7271(3) 0.6870(2)
N1 N 0.5574(6) 0.9308(3) 0.7976(2)
N2 N 0.3265(7) 1.0282(3) 0.7402(2)
N3 N 1.0660(7) 0.8361(3) 0.6855(2)
C1 C 0.3287(8) 1.0093(3) 0.8751(3)
C2 C 0.1341(9) 1.0467(4) 0.8740(3)
C3 C 0.0626(11) 1.0639(4) 0.9411(3)
C4 C 0.1837(11) 1.0425(4) 1.0097(3)
C5 C 0.3769(12) 1.0042(4) 1.0113(3)
C6 C 0.4488(9) 0.9868(4) 0.9447(3)
C7 C 0.4026(7) 0.9904(3) 0.8048(3)
C8 C 0.5670(7) 0.9310(3) 0.7267(3)
C9 C 0.6996(8) 0.8775(4) 0.6851(3)
C10 C 0.6740(9) 0.8942(5) 0.6013(3)
C11 C 0.8260(9) 0.8384(5) 0.5657(3)
C12 C 1.0481(9) 0.8513(4) 0.6046(3)
C13 C 0.9262(8) 0.8882(4) 0.7234(2)
C14 C 1.1864(8) 0.7715(4) 0.7210(3)
C15 C 1.2965(10) 0.7014(4) 0.8439(3)
C16 C 1.2285(14) 0.7220(6) 0.9186(3)
C17 C 1.2262(15) 0.6118(5) 0.8167(4)
C18 C 1.5243(11) 0.7145(5) 0.8480(4)
O4 O 0.6093(6) 0.1946(3) 0.82130(18)
O5 O -0.2882(7) 0.4596(3) 0.8012(2)
O6 O -0.1493(6) 0.4210(3) 0.69793(18)
N4 N 0.7414(7) 0.1666(4) 0.7705(2)
N5 N 0.4557(7) 0.2334(3) 0.7072(2)
N6 N 0.0024(7) 0.3759(3) 0.8124(2)
C19 C 0.7234(8) 0.1768(3) 0.6348(3)
C20 C 0.9211(9) 0.1437(4) 0.6355(3)
C21 C 0.9925(10) 0.1274(4) 0.5684(3)
C22 C 0.8669(11) 0.1471(4) 0.4995(3)
C23 C 0.6724(10) 0.1798(4) 0.4977(3)
C24 C 0.5980(9) 0.1963(4) 0.5641(3)
C25 C 0.6435(8) 0.1934(3) 0.7043(2)
C26 C 0.4423(8) 0.2318(3) 0.7778(3)
C27 C 0.2658(9) 0.2633(3) 0.8154(3)
C28 C 0.3205(9) 0.2705(4) 0.9012(3)
C29 C 0.127(1) 0.2999(4) 0.9314(3)
C30 C 0.0361(10) 0.3818(4) 0.8946(3)
C31 C 0.1823(9) 0.3471(4) 0.7790(3)
C32 C -0.1542(9) 0.4222(4) 0.7715(3)
C33 C -0.2846(9) 0.4763(4) 0.6425(3)
C34 C -0.2377(13) 0.5693(5) 0.6619(4)
C35 C -0.2098(11) 0.4529(5) 0.5692(3)
C36 C -0.5115(10) 0.4536(5) 0.6379(4)
H1 H 0.05080 1.06050 0.82770
H2 H -0.06750 1.08990 0.93990
H3 H 0.13540 1.05380 1.05490
H4 H 0.45900 0.99000 1.05770
H5 H 0.57800 0.95980 0.94620
H6 H 0.66130 0.81720 0.69160
H7 H 0.70080 0.95460 0.59260
H8 H 0.53080 0.88150 0.57760
H9 H 0.78820 0.77820 0.56920
H10 H 0.81450 0.85280 0.51230
H11 H 1.13950 0.81190 0.58350
H12 H 1.09210 0.90970 0.59590
H13 H 0.96590 0.94840 0.72190
H14 H 0.94070 0.87100 0.77630
H15 H 1.26510 0.78050 0.93250
H16 H 1.29790 0.68390 0.95720
H17 H 1.07920 0.71480 0.91360
H18 H 1.26240 0.60190 0.76740
H19 H 1.07690 0.60700 0.81350
H20 H 1.29500 0.56980 0.85190
H21 H 1.55570 0.77500 0.85240
H22 H 1.56650 0.69220 0.80270
H23 H 1.59900 0.68480 0.89160
H24 H 1.00750 0.13220 0.68170
H25 H 1.12460 0.10330 0.56930
H26 H 0.91670 0.13770 0.45430
H27 H 0.58780 0.19140 0.45120
H28 H 0.46540 0.22030 0.56240
H29 H 0.15230 0.22090 0.80430
H30 H 0.36690 0.21510 0.92300
H31 H 0.43330 0.31180 0.91510
H32 H 0.02150 0.25480 0.92260
H33 H 0.16320 0.30870 0.98580
H34 H -0.09650 0.39390 0.91100
H35 H 0.13090 0.42930 0.91090
H36 H 0.29170 0.39050 0.78690
H37 H 0.13950 0.33890 0.72460
H38 H -0.29080 0.58380 0.70740
H39 H -0.30370 0.60510 0.62080
H40 H -0.08860 0.57840 0.67010
H41 H -0.06140 0.46290 0.57470
H42 H -0.28190 0.48780 0.52850
H43 H -0.23880 0.39320 0.55790
H44 H -0.55900 0.47250 0.68330
H45 H -0.52850 0.39230 0.63280
H46 H -0.59270 0.48150 0.59450
#END
