
#######################################################################
#
#                 Cambridge Crystallographic Data Centre
#                                CCDC
#
#######################################################################
#
# If this CIF has been generated from an entry in the Cambridge
# Structural Database, then it will include bibliographic, chemical,
# crystal, experimental, refinement or atomic coordinate data resulting
# from the CCDC's data processing and validation procedures.
#
#######################################################################

data_CSD_CIF_YUQZUG
_audit_creation_date 2010-08-06
_audit_creation_method CSD-ConQuest-V1
_database_code_CSD YUQZUG
_database_code_depnum_ccdc_archive 'CCDC 712120'
_chemical_formula_sum 'C24 H26 N6 O4'
_chemical_formula_moiety
;
C24 H26 N6 O4
;
_journal_coden_Cambridge 493
_journal_volume 44
_journal_year 2009
_journal_page_first 4985
_journal_name_full 'Eur.J.Med.Chem. '
loop_
_publ_author_name
"H.A.Abdel-Aziz"
"A.A.I.Mekawey"
_chemical_name_systematic
;
(1E,2E)-1-(Piperidin-1-yl)-1-((4-nitrophenyl)hydrazono)-2-((3-methylbenzofuran
-2-oyl)hydrazono)propane
;
_chemical_melting_point 505.15
_cell_volume   2407.454
_exptl_crystal_colour 'pink'
_exptl_crystal_density_diffrn 1.276
_exptl_special_details
;
Melting point range 505.15-507.15K
tested for antibacterial and antifungal activity
;
_exptl_crystal_description 'Cube'
_diffrn_ambient_temperature 298
#These two values have been output from a single CSD field.
_refine_ls_R_factor_gt 0.044
_refine_ls_wR_factor_gt 0.044
_symmetry_cell_setting triclinic
_symmetry_space_group_name_H-M 'P -1'
_symmetry_Int_Tables_number 2
loop_
_symmetry_equiv_pos_site_id
_symmetry_equiv_pos_as_xyz
1 x,y,z
2 -x,-y,-z
_cell_length_a 9.6172(4)
_cell_length_b 14.1813(5)
_cell_length_c 18.7384(9)
_cell_angle_alpha 72.960(3)
_cell_angle_beta 84.802(2)
_cell_angle_gamma 80.492(2)
_cell_formula_units_Z 4
loop_
_atom_type_symbol
_atom_type_radius_bond
C 0.68
H 0.23
N 0.68
O 0.68
loop_
_atom_site_label
_atom_site_type_symbol
_atom_site_fract_x
_atom_site_fract_y
_atom_site_fract_z
O1 O 0.3422(5) 0.7958(4) 0.3189(2)
O2 O 0.5358(7) 0.6222(3) 0.1391(3)
O3 O 0.2529(5) 0.5531(4) 0.3457(3)
N1 N 0.4656(7) 0.6095(4) 0.3168(3)
O4 O 0.1826(7) 0.7417(4) 0.1285(2)
N2 N 0.5321(8) 0.5126(4) 0.3259(3)
O5 O 0.3502(6) 0.0624(5) 0.6954(3)
O6 O 0.3486(5) 0.2106(4) 0.7087(3)
N3 N 0.3257(6) 0.5638(5) 0.1663(3)
N4 N 0.3536(6) 0.1519(6) 0.6697(4)
N5 N 0.3912(6) 0.3140(4) 0.3611(4)
O7 O 0.9966(6) 0.4102(4) -0.1220(3)
N6 N 0.3935(6) 0.4669(6) 0.1870(3)
N7 N 0.7684(6) 0.3517(4) 0.2637(4)
N8 N 0.4301(6) 0.2529(4) 0.3137(4)
N9 N 0.7326(6) 0.4165(4) 0.1935(4)
O8 O 1.1452(7) 0.2958(5) -0.0524(3)
N10 N 1.0371(8) 0.3587(6) -0.0606(5)
N11 N 0.7297(6) 0.3317(5) 0.3907(4)
C1 C 0.8408(9) 0.4430(5) -0.0010(4)
C2 C 0.8067(8) 0.4004(5) 0.1322(5)
C3 C 0.9281(8) 0.3284(5) 0.1389(4)
C4 C 0.3226(10) 0.6211(6) 0.3299(4)
C5 C 0.3825(7) 0.2717(6) 0.4352(5)
C6 C 0.3641(7) 0.1938(7) 0.5894(5)
C7 C 0.9579(8) 0.3718(6) 0.0065(5)
C8 C 1.0002(8) 0.3144(5) 0.0765(6)
C9 C 0.3661(7) 0.3348(5) 0.4816(5)
N12 N 0.4509(8) 0.2503(5) 0.1930(4)
C10 C 0.3583(7) 0.2959(6) 0.5574(5)
C11 C 0.2565(9) 0.7255(5) 0.3201(3)
C12 C 0.6626(10) 0.4977(5) 0.3061(4)
C13 C 0.7658(7) 0.4591(5) 0.0607(5)
C14 C 0.7255(7) 0.3907(6) 0.3178(5)
C15 C 0.4013(8) 0.2972(5) 0.2444(5)
C16 C 0.3204(9) 0.3999(7) 0.2208(4)
C17 C 0.3928(9) 0.2763(5) 0.1213(6)
C18 C 0.3914(8) 0.1690(6) 0.4677(5)
C19 C 0.1155(9) 0.8702(6) 0.3039(4)
C20 C 0.3811(7) 0.1300(5) 0.5444(5)
C21 C 0.7573(8) 0.5735(5) 0.2719(4)
C22 C 0.4070(11) 0.6379(6) 0.1438(4)
C23 C 0.2505(10) 0.8844(6) 0.3100(4)
C24 C 0.3283(11) 0.7384(7) 0.1268(4)
C25 C 0.1658(9) 0.4128(5) 0.2435(4)
C26 C 0.5502(11) 0.1574(6) 0.2125(4)
C27 C 0.1209(9) 0.7655(6) 0.3115(3)
C28 C 0.3648(12) 0.8287(8) 0.1145(4)
C29 C -0.0020(8) 0.7162(5) 0.3088(4)
C30 C 0.0078(8) 0.9524(7) 0.2944(4)
C31 C 0.2897(8) 0.9742(7) 0.3089(4)
C32 C 0.0452(10) 1.0427(7) 0.2923(5)
C33 C 0.1300(12) 0.8398(8) 0.1147(4)
C34 C 0.7493(10) 0.3717(6) 0.4521(4)
C35 C 0.6578(10) 0.1525(6) 0.1573(6)
C36 C 0.7843(11) 0.2278(6) 0.4058(4)
C37 C 0.2354(15) 0.8977(7) 0.1052(4)
C38 C 0.5001(13) 0.2725(8) 0.0631(5)
C39 C 0.9007(12) 0.3579(9) 0.4700(5)
C40 C 0.5137(12) 0.8493(6) 0.1111(4)
C41 C 0.9667(10) 0.2485(9) 0.4850(6)
C42 C 0.9393(12) 0.2080(7) 0.4226(6)
C43 C -0.0110(13) 0.8784(8) 0.1092(4)
C44 C 0.1832(11) 1.0536(6) 0.2988(5)
C45 C 0.6024(11) 0.1763(8) 0.0804(5)
C46 C 0.057(2) 1.0386(9) 0.0866(7)
C47 C 0.2001(16) 1.0006(9) 0.0920(5)
C48 C -0.0454(15) 0.9791(12) 0.0943(7)
H1 H 0.95500 0.29068 0.18842
H2 H 1.08105 0.26372 0.08034
H3 H 0.36162 0.40496 0.45767
H4 H 0.34795 0.33577 0.59155
H5 H 0.68291 0.50837 0.05381
H6 H 0.33315 0.22849 0.12081
H7 H 0.33764 0.34122 0.11252
H8 H 0.40257 0.12653 0.43542
H9 H 0.38518 0.06008 0.56939
H10 H 0.85016 0.54138 0.26242
H11 H 0.76217 0.61245 0.30558
H12 H 0.71987 0.61627 0.22582
H13 H 0.13752 0.34885 0.26799
H14 H 0.11251 0.44412 0.19965
H15 H 0.14876 0.45384 0.27686
H16 H 0.59148 0.15195 0.25856
H17 H 0.50185 0.10125 0.21860
H18 H -0.08541 0.76497 0.30119
H19 H -0.01204 0.66655 0.35564
H20 H 0.01109 0.68515 0.26900
H21 H -0.08767 0.94392 0.28985
H22 H -0.02621 1.10014 0.28545
H23 H 0.70782 0.44049 0.43984
H24 H 0.70177 0.33464 0.49608
H25 H 0.71674 0.20155 0.15583
H26 H 0.71301 0.08748 0.16957
H27 H 0.73429 0.19008 0.44852
H28 H 0.77147 0.20662 0.36294
H29 H 0.45905 0.28419 0.01590
H30 H 0.55409 0.32472 0.06050
H31 H 0.94772 0.39399 0.42543
H32 H 0.91179 0.38466 0.51029
H33 H 0.50962 0.92003 0.10106
H34 H 0.536(8) 0.877(6) 0.062(4)
H35 H 0.523(8) 0.859(5) 0.158(4)
H36 H 1.06492 0.23814 0.49525
H37 H 0.91513 0.21367 0.52838
H38 H 0.97518 0.13820 0.43349
H39 H 0.98930 0.24420 0.37926
H40 H 0.20280 1.11833 0.29755
H41 H 0.67697 0.17915 0.04244
H42 H 0.54922 0.12441 0.08088
H43 H 0.02497 1.10884 0.07634
H44 H -0.14197 1.01005 0.08889
H45 H 0.38720 0.97780 0.31362
H46 H 0.27321 1.04090 0.08716
H47 H -0.07696 0.83209 0.11663
H48 H 0.52186 0.66261 0.30201
H49 H 0.65684 0.47052 0.19086
H50 H 0.22444 0.57520 0.16879
H51 H 0.37228 0.38484 0.33919
H52 H 0.81388 0.48067 -0.05056
#END
