
#######################################################################
#
#                 Cambridge Crystallographic Data Centre
#                                CCDC
#
#######################################################################
#
# If this CIF has been generated from an entry in the Cambridge
# Structural Database, then it will include bibliographic, chemical,
# crystal, experimental, refinement or atomic coordinate data resulting
# from the CCDC's data processing and validation procedures.
#
#######################################################################

data_CSD_CIF_YURGUO
_audit_creation_date 2010-11-04
_audit_creation_method CSD-ConQuest-V1
_database_code_CSD YURGUO
_database_code_depnum_ccdc_archive 'CCDC 741054'
_chemical_formula_sum 'C24 H26 N2 O5'
_chemical_formula_moiety
;
C24 H26 N2 O5
;
_journal_coden_Cambridge 1350
_journal_volume 12
_journal_year 2010
_journal_page_first 1027
_journal_name_full 'CrystEngComm '
loop_
_publ_author_name
"C.B.Aakeroy"
"E.P.Hurley"
"J.Desper"
"M.Natali"
"A.Douglawi"
"S.Giordani"
_chemical_name_systematic
;
Ethyl 4-(3',3'-dimethyl-6-nitrospiro[chromene-2,2'-indol]-1'(3'H)-yl)butanoate
;
_cell_volume   8675.967
_exptl_crystal_colour 'colorless'
_exptl_crystal_density_diffrn 1.294
_exptl_crystal_description 'plate'
_diffrn_ambient_temperature 120
#These two values have been output from a single CSD field.
_refine_ls_R_factor_gt 0.0849
_refine_ls_wR_factor_gt 0.0849
_symmetry_cell_setting monoclinic
_symmetry_space_group_name_H-M 'P 21/c'
_symmetry_Int_Tables_number 14
loop_
_symmetry_equiv_pos_site_id
_symmetry_equiv_pos_as_xyz
1 x,y,z
2 -x,1/2+y,1/2-z
3 -x,-y,-z
4 x,-1/2-y,-1/2+z
_cell_length_a 23.033(3)
_cell_length_b 14.036(2)
_cell_length_c 27.135(4)
_cell_angle_alpha 90
_cell_angle_beta 98.508(3)
_cell_angle_gamma 90
_cell_formula_units_Z 16
loop_
_atom_type_symbol
_atom_type_radius_bond
C 0.68
H 0.23
N 0.68
O 0.68
loop_
_atom_site_label
_atom_site_type_symbol
_atom_site_fract_x
_atom_site_fract_y
_atom_site_fract_z
N1 N 0.86537(13) 0.14177(19) 0.13019(12)
C1 C 0.87553(15) 0.2100(2) 0.17088(15)
C2 C 0.87794(15) 0.1470(2) 0.21922(15)
C3 C 0.89747(15) 0.0529(2) 0.19994(16)
C4 C 0.91872(17) -0.0279(3) 0.22568(19)
H1 H 0.92430 -0.02900 0.26110
C5 C 0.93191(18) -0.1082(3) 0.1987(2)
H2 H 0.94590 -0.16450 0.21600
C6 C 0.92480(18) -0.1064(3) 0.1480(2)
H3 H 0.93480 -0.16110 0.13040
C7 C 0.90325(16) -0.0259(2) 0.12146(18)
H4 H 0.89820 -0.02480 0.08610
C8 C 0.88925(15) 0.0532(2) 0.14849(16)
C9 C 0.91857(19) 0.1881(3) 0.26382(17)
H5 H 0.91540 0.14990 0.29350
H6 H 0.90720 0.25400 0.26950
H7 H 0.95920 0.18670 0.25700
C10 C 0.81592(18) 0.1356(3) 0.23382(17)
H8 H 0.78820 0.11700 0.20440
H9 H 0.80340 0.19630 0.24670
H10 H 0.81680 0.08650 0.25960
C11 C 0.87111(16) 0.1739(2) 0.07987(15)
H11 H 0.90960 0.15290 0.07170
H12 H 0.87040 0.24440 0.07910
C12 C 0.82208(17) 0.1356(3) 0.03983(16)
H13 H 0.82960 0.15750 0.00670
H14 H 0.82360 0.06510 0.04000
C13 C 0.76021(17) 0.1676(2) 0.04764(17)
H15 H 0.73090 0.12610 0.02760
H16 H 0.75600 0.15880 0.08310
C14 C 0.74683(17) 0.2697(3) 0.03342(16)
O1 O 0.78140(13) 0.3297(2) 0.02423(14)
O2 O 0.68953(12) 0.28839(16) 0.03244(11)
C15 C 0.67053(18) 0.3862(2) 0.02214(17)
H17 H 0.68860 0.41210 -0.00590
H18 H 0.68240 0.42660 0.05180
C16 C 0.6049(2) 0.3850(3) 0.0090(2)
H19 H 0.59070 0.45000 0.00160
H20 H 0.58750 0.35980 0.03720
H21 H 0.59370 0.34440 -0.02020
C17 C 0.83113(15) 0.2886(2) 0.16470(15)
H22 H 0.79210 0.27400 0.16950
C18 C 0.84317(15) 0.3776(2) 0.15283(15)
H23 H 0.81260 0.42360 0.14830
C19 C 0.94750(15) 0.3366(2) 0.15689(14)
O3 O 0.93625(10) 0.24740(15) 0.17234(10)
C20 C 1.00562(15) 0.3582(2) 0.15275(14)
H24 H 1.03530 0.31120 0.15990
C21 C 1.01959(16) 0.4483(2) 0.13813(14)
H25 H 1.05910 0.46410 0.13540
C22 C 0.97540(16) 0.5160(2) 0.12736(14)
N2 N 0.98982(15) 0.61075(19) 0.11157(13)
O4 O 1.04184(12) 0.63111(17) 0.11242(11)
O5 O 0.94976(13) 0.66714(17) 0.09733(13)
C23 C 0.91741(16) 0.4955(2) 0.13160(15)
H26 H 0.88810 0.54300 0.12420
C24 C 0.90232(15) 0.4054(2) 0.14667(15)
N3 N 0.61799(13) 0.12332(18) 0.15325(12)
C25 C 0.62822(15) 0.0448(2) 0.18817(14)
C26 C 0.63352(15) 0.0938(2) 0.24080(14)
C27 C 0.65690(15) 0.1903(2) 0.22803(15)
C28 C 0.68223(16) 0.2625(2) 0.25874(16)
H27 H 0.68930 0.25370 0.29380
C29 C 0.69717(17) 0.3479(2) 0.23786(18)
H28 H 0.71470 0.39760 0.25870
C30 C 0.68654(16) 0.3607(2) 0.18679(18)
H29 H 0.69690 0.41940 0.17290
C31 C 0.66067(16) 0.2885(2) 0.15500(16)
H30 H 0.65360 0.29700 0.11990
C32 C 0.64584(15) 0.2039(2) 0.17688(15)
C33 C 0.67249(17) 0.0386(3) 0.28099(15)
H31 H 0.67250 0.07000 0.31320
H32 H 0.71260 0.03670 0.27310
H33 H 0.65750 -0.02650 0.28260
C34 C 0.57130(17) 0.1076(3) 0.25515(16)
H34 H 0.57390 0.14760 0.28500
H35 H 0.55480 0.04540 0.26190
H36 H 0.54590 0.13860 0.22760
C35 C 0.61599(16) 0.1053(2) 0.10044(14)
H37 H 0.62050 0.03600 0.09520
H38 H 0.64950 0.13790 0.08870
C36 C 0.55963(16) 0.1386(2) 0.06954(14)
H39 H 0.55470 0.20780 0.07460
H40 H 0.52590 0.10530 0.08070
C37 C 0.56004(17) 0.1187(2) 0.01445(15)
H41 H 0.59180 0.15690 0.00320
H42 H 0.56980 0.05070 0.01060
C38 C 0.50423(18) 0.1398(3) -0.01888(15)
O6 O 0.47994(14) 0.08847(19) -0.05116(11)
O7 O 0.48282(11) 0.22617(17) -0.00865(10)
C39 C 0.43015(17) 0.2558(3) -0.04132(16)
H43 H 0.39740 0.21170 -0.03820
H44 H 0.43720 0.25590 -0.07650
C40 C 0.4156(2) 0.3546(3) -0.02564(19)
H45 H 0.38230 0.37940 -0.04870
H46 H 0.44970 0.39620 -0.02610
H47 H 0.40530 0.35260 0.00810
C41 C 0.58298(15) -0.0315(2) 0.17767(14)
H48 H 0.54310 -0.01450 0.17790
C42 C 0.59483(15) -0.1217(2) 0.16804(14)
H49 H 0.56390 -0.16700 0.16320
C43 C 0.69924(15) -0.0824(2) 0.17175(14)
O8 O 0.68835(10) 0.00886(15) 0.18387(10)
C44 C 0.75737(15) -0.1052(2) 0.16667(14)
H50 H 0.78660 -0.05700 0.17030
C45 C 0.77203(16) -0.1976(2) 0.15646(14)
H51 H 0.81140 -0.21410 0.15360
C46 C 0.72770(16) -0.2662(2) 0.15048(14)
N4 N 0.74209(15) -0.3640(2) 0.13956(13)
O9 O 0.79492(12) -0.38522(18) 0.14130(12)
O10 O 0.70266(13) -0.42214(17) 0.12907(12)
C47 C 0.67004(15) -0.2447(2) 0.15425(14)
H52 H 0.64100 -0.29320 0.14960
C48 C 0.65466(15) -0.1520(2) 0.16483(13)
N5 N 0.36689(12) 0.10265(18) 0.11053(11)
C49 C 0.37381(14) 0.1902(2) 0.13924(14)
C50 C 0.37281(15) 0.1567(2) 0.19432(14)
C51 C 0.39776(15) 0.0575(2) 0.19170(14)
C52 C 0.42075(16) -0.0036(2) 0.22958(16)
H53 H 0.42390 0.01570 0.26340
C53 C 0.43937(16) -0.0944(2) 0.21734(17)
H54 H 0.45520 -0.13740 0.24290
C54 C 0.43459(16) -0.1211(2) 0.16796(16)
H55 H 0.44700 -0.18310 0.16000
C55 C 0.41198(15) -0.0597(2) 0.12921(15)
H56 H 0.40960 -0.07810 0.09530
C56 C 0.39317(15) 0.0296(2) 0.14265(14)
C57 C 0.40796(17) 0.2232(2) 0.23275(15)
H57 H 0.40590 0.19950 0.26640
H58 H 0.39140 0.28750 0.22920
H59 H 0.44900 0.22490 0.22720
C58 C 0.30890(16) 0.1501(2) 0.20523(16)
H60 H 0.30870 0.12300 0.23850
H61 H 0.28600 0.10910 0.18030
H62 H 0.29150 0.21390 0.20380
C59 C 0.37362(16) 0.1040(2) 0.05799(14)
H63 H 0.41230 0.07680 0.05410
H64 H 0.37280 0.17090 0.04630
C60 C 0.32582(16) 0.0481(2) 0.02581(15)
H65 H 0.32570 -0.01820 0.03840
H66 H 0.33480 0.04570 -0.00870
C61 C 0.26462(16) 0.0918(2) 0.02548(16)
H67 H 0.23440 0.04480 0.01180
H68 H 0.25880 0.10640 0.06010
C62 C 0.25688(17) 0.1816(3) -0.00531(15)
O11 O 0.28760(12) 0.2074(2) -0.03508(11)
O12 O 0.20882(11) 0.23069(17) 0.00393(10)
C63 C 0.19350(17) 0.3152(3) -0.02624(17)
H69 H 0.15170 0.33080 -0.02580
H70 H 0.19850 0.30160 -0.06120
C64 C 0.23070(19) 0.4000(3) -0.0078(2)
H71 H 0.21930 0.45490 -0.02940
H72 H 0.27220 0.38510 -0.00850
H73 H 0.22480 0.41520 0.02630
C65 C 0.32908(15) 0.2652(2) 0.12001(15)
H74 H 0.28910 0.24700 0.11200
C66 C 0.34354(15) 0.3563(2) 0.11385(15)
H75 H 0.31350 0.40180 0.10400
C67 C 0.44807(15) 0.3168(2) 0.13346(13)
O13 O 0.43428(10) 0.22289(14) 0.13577(10)
C68 C 0.50766(15) 0.3399(2) 0.14247(14)
H76 H 0.53630 0.29130 0.14980
C69 C 0.52450(16) 0.4342(2) 0.14054(14)
H77 H 0.56480 0.45150 0.14650
C70 C 0.48089(15) 0.5037(2) 0.12964(14)
N6 N 0.49850(15) 0.6034(2) 0.12983(13)
O14 O 0.55014(14) 0.62311(18) 0.14642(12)
O15 O 0.46167(13) 0.66387(16) 0.11419(12)
C71 C 0.42190(16) 0.4812(2) 0.12026(14)
H78 H 0.39350 0.53010 0.11270
C72 C 0.40432(15) 0.3864(2) 0.12200(14)
N7 N 0.10596(13) 0.11733(18) 0.10931(12)
C73 C 0.11875(15) 0.0379(2) 0.14288(15)
C74 C 0.12301(16) 0.0831(2) 0.19608(15)
C75 C 0.14439(15) 0.1829(2) 0.18495(15)
C76 C 0.16862(16) 0.2539(2) 0.21671(16)
H79 H 0.17510 0.24380 0.25170
C77 C 0.18344(17) 0.3407(2) 0.19683(17)
H80 H 0.19920 0.39040 0.21850
C78 C 0.17539(17) 0.3551(2) 0.14598(17)
H81 H 0.18720 0.41370 0.13310
C79 C 0.14979(16) 0.2838(2) 0.11278(16)
H82 H 0.14370 0.29370 0.07780
C80 C 0.13369(14) 0.1979(2) 0.13348(15)
C81 C 0.16410(18) 0.0291(3) 0.23563(16)
H83 H 0.16310 0.05840 0.26830
H84 H 0.20420 0.03180 0.22770
H85 H 0.15150 -0.03750 0.23640
C82 C 0.06187(17) 0.0917(3) 0.21176(16)
H86 H 0.03470 0.12010 0.18450
H87 H 0.06410 0.13220 0.24140
H88 H 0.04780 0.02830 0.21940
C83 C 0.10164(17) 0.1014(2) 0.05587(15)
H89 H 0.10950 0.03340 0.04990
H90 H 0.13230 0.13940 0.04290
C84 C 0.04169(17) 0.1280(2) 0.02704(16)
H91 H 0.04030 0.10930 -0.00830
H92 H 0.01080 0.09200 0.04080
C85 C 0.02908(17) 0.2346(2) 0.02986(16)
H93 H 0.03380 0.25360 0.06540
H94 H 0.05880 0.26980 0.01420
C86 C -0.03067(17) 0.2645(3) 0.00530(15)
O16 O -0.06742(12) 0.21310(18) -0.01713(11)
O17 O -0.03883(11) 0.35850(17) 0.01212(11)
C87 C -0.09500(18) 0.3987(3) -0.00892(19)
H95 H -0.12440 0.38640 0.01350
H96 H -0.10900 0.36920 -0.04170
C88 C -0.08721(19) 0.5029(3) -0.01486(18)
H97 H -0.12430 0.53110 -0.03070
H98 H -0.05670 0.51440 -0.03580
H99 H -0.07550 0.53200 0.01790
C89 C 0.07629(16) -0.0425(2) 0.13348(15)
H100 H 0.03570 -0.02890 0.13250
C90 C 0.09187(16) -0.1323(2) 0.12632(15)
H101 H 0.06290 -0.18100 0.12300
C91 C 0.19404(15) -0.0823(2) 0.12740(14)
O18 O 0.17987(10) 0.00821(15) 0.13732(10)
C92 C 0.25207(16) -0.0988(2) 0.12059(15)
H102 H 0.27910 -0.04740 0.12270
C93 C 0.27018(16) -0.1894(2) 0.11078(14)
H103 H 0.30950 -0.20100 0.10580
C94 C 0.22968(16) -0.2641(2) 0.10823(14)
N8 N 0.24877(15) -0.36068(19) 0.09990(13)
O19 O 0.30057(13) -0.37298(17) 0.09374(11)
O20 O 0.21341(13) -0.42624(16) 0.09896(12)
C95 C 0.17185(16) -0.2489(2) 0.11510(14)
H104 H 0.14530 -0.30100 0.11410
C96 C 0.15281(15) -0.1565(2) 0.12352(15)
#END
