
#######################################################################
#
#                 Cambridge Crystallographic Data Centre
#                                CCDC
#
#######################################################################
#
# If this CIF has been generated from an entry in the Cambridge
# Structural Database, then it will include bibliographic, chemical,
# crystal, experimental, refinement or atomic coordinate data resulting
# from the CCDC's data processing and validation procedures.
#
#######################################################################

data_CSD_CIF_YURHAV
_audit_creation_date 2010-11-04
_audit_creation_method CSD-ConQuest-V1
_database_code_CSD YURHAV
_database_code_depnum_ccdc_archive 'CCDC 741056'
_chemical_formula_sum 'C21 H22 N2 O5'
_chemical_formula_moiety
;
C21 H22 N2 O5
;
_journal_coden_Cambridge 1350
_journal_volume 12
_journal_year 2010
_journal_page_first 1027
_journal_name_full 'CrystEngComm '
loop_
_publ_author_name
"C.B.Aakeroy"
"E.P.Hurley"
"J.Desper"
"M.Natali"
"A.Douglawi"
"S.Giordani"
_chemical_name_systematic
;
2-(2-(1-(2-Hydroxyethyl)-3,3-dimethyl-3H-indolium-2-yl)vinyl)-6-methoxy-4-nitr
ophenolate
;
_cell_volume   1922.081
_exptl_crystal_colour 'green'
_exptl_crystal_density_diffrn 1.321
_exptl_crystal_description 'prism'
_diffrn_ambient_temperature 120
#These two values have been output from a single CSD field.
_refine_ls_R_factor_gt 0.0408
_refine_ls_wR_factor_gt 0.0408
_symmetry_cell_setting monoclinic
_symmetry_space_group_name_H-M 'P 21/n'
_symmetry_Int_Tables_number 14
loop_
_symmetry_equiv_pos_site_id
_symmetry_equiv_pos_as_xyz
1 x,y,z
2 1/2-x,1/2+y,1/2-z
3 -x,-y,-z
4 -1/2+x,-1/2-y,-1/2+z
_cell_length_a 6.7336(3)
_cell_length_b 30.1846(12)
_cell_length_c 9.5144(4)
_cell_angle_alpha 90
_cell_angle_beta 96.314(2)
_cell_angle_gamma 90
_cell_formula_units_Z 4
loop_
_atom_type_symbol
_atom_type_radius_bond
C 0.68
H 0.23
N 0.68
O 0.68
loop_
_atom_site_label
_atom_site_type_symbol
_atom_site_fract_x
_atom_site_fract_y
_atom_site_fract_z
N1 N 0.19002(12) 0.14656(3) 0.26963(8)
C1 C 0.33014(13) 0.11589(3) 0.30358(10)
C2 C 0.29041(14) 0.07556(3) 0.20776(9)
C3 C 0.10918(14) 0.09084(3) 0.1124(1)
C4 C 0.00231(15) 0.07036(4) -0.00243(10)
H1 H 0.03490 0.04120 -0.02960
C5 C -0.15421(15) 0.09361(4) -0.07722(11)
H2 H -0.22990 0.08000 -0.15570
C6 C -0.20087(16) 0.13630(4) -0.03869(12)
H3 H -0.30620 0.15160 -0.09290
C7 C -0.09718(15) 0.15739(4) 0.07758(12)
H4 H -0.12960 0.18660 0.10490
C8 C 0.05635(14) 0.13321(3) 0.15107(10)
C9 C 0.46498(15) 0.06675(4) 0.11990(11)
H5 H 0.49540 0.09390 0.06980
H6 H 0.42780 0.04320 0.05120
H7 H 0.58290 0.05760 0.18280
C10 C 0.24237(15) 0.03404(3) 0.29202(10)
H8 H 0.12900 0.04030 0.34530
H9 H 0.35920 0.02600 0.35780
H10 H 0.20840 0.00940 0.22660
C11 C 0.17279(16) 0.18913(3) 0.34245(11)
H11 H 0.21740 0.18520 0.44440
H12 H 0.03070 0.19820 0.33330
C12 C 0.29526(19) 0.22561(3) 0.28424(12)
H13 H 0.28520 0.25310 0.33970
H14 H 0.43750 0.21670 0.29080
O1 O 0.22115(18) 0.23295(3) 0.14242(9)
H15 H 0.255(3) 0.2605(6) 0.1229(19)
C13 C 0.49195(14) 0.12484(3) 0.40743(10)
H16 H 0.49550 0.15310 0.45180
C14 C 0.64405(14) 0.09592(3) 0.44898(9)
H17 H 0.62980 0.06640 0.41510
C15 C 0.86967(14) 0.15102(3) 0.58907(10)
O2 O 0.75567(12) 0.18368(2) 0.56137(10)
C16 C 1.06280(14) 0.15721(3) 0.67314(10)
O3 O 1.09536(11) 0.20009(2) 0.71422(8)
C17 C 1.19403(14) 0.12322(3) 0.70284(10)
H18 H 1.31990 0.12830 0.75600
C18 C 1.13905(13) 0.08025(3) 0.65289(9)
N2 N 1.27650(12) 0.04458(3) 0.68603(9)
O4 O 1.43877(12) 0.05268(3) 0.7549(1)
O5 O 1.22923(11) 0.00653(2) 0.64504(8)
C19 C 0.95955(13) 0.07186(3) 0.57391(9)
H19 H 0.92770 0.04260 0.54270
C20 C 0.82282(13) 0.10638(3) 0.53905(9)
C21 C 1.27557(18) 0.20895(4) 0.80324(14)
H20 H 1.27850 0.24020 0.83150
H21 H 1.39050 0.20260 0.75170
H22 H 1.28150 0.19020 0.88760
#END
