
#######################################################################
#
#                 Cambridge Crystallographic Data Centre
#                                CCDC
#
#######################################################################
#
# If this CIF has been generated from an entry in the Cambridge
# Structural Database, then it will include bibliographic, chemical,
# crystal, experimental, refinement or atomic coordinate data resulting
# from the CCDC's data processing and validation procedures.
#
#######################################################################

data_CSD_CIF_YUTMOR
_audit_creation_date 2015-11-06
_audit_creation_method CSD-ConQuest-V1
_database_code_CSD YUTMOR
_database_code_depnum_ccdc_archive 'CCDC 1424019'
_chemical_formula_sum 'C18 H15 N1 O5'
_chemical_formula_moiety
;
C18 H15 N1 O5
;
_journal_coden_Cambridge 179
_journal_volume 54
_journal_year 2015
_journal_page_first 15400
_journal_name_full 'Angew.Chem.,Int.Ed. '
loop_
_publ_author_name
"Yaxi Yang"
"Xuan Wang"
"Yuanchao Li"
"Bing Zhou"
_chemical_name_systematic
;
dimethyl 2-phenyl-3H-indole-3,3-dicarboxylate 1-oxide
;
_cell_volume   1499.252
_exptl_crystal_colour 'colorless'
_exptl_crystal_density_diffrn 1.441
_exptl_crystal_description 'plate'
_diffrn_ambient_temperature 296
#These two values have been output from a single CSD field.
_refine_ls_R_factor_gt 0.0826
_refine_ls_wR_factor_gt 0.0826
_symmetry_cell_setting monoclinic
_symmetry_space_group_name_H-M 'C c'
_symmetry_Int_Tables_number 9
loop_
_symmetry_equiv_pos_site_id
_symmetry_equiv_pos_as_xyz
1 x,y,z
2 x,-y,1/2+z
3 1/2+x,1/2+y,z
4 1/2+x,1/2-y,1/2+z
_cell_length_a 12.5420(7)
_cell_length_b 13.9557(7)
_cell_length_c 8.7711(4)
_cell_angle_alpha 90
_cell_angle_beta 102.428(2)
_cell_angle_gamma 90
_cell_formula_units_Z 4
loop_
_atom_type_symbol
_atom_type_radius_bond
C 0.68
H 0.23
N 0.68
O 0.68
loop_
_atom_site_label
_atom_site_type_symbol
_atom_site_fract_x
_atom_site_fract_y
_atom_site_fract_z
O1 O 0.8225(3) 0.3416(2) 0.3524(4)
O2 O 0.7828(4) 0.4644(3) 0.1861(5)
O3 O 0.6627(3) 0.06632(17) 0.1630(4)
O4 O 0.5471(4) 0.4573(3) 0.1363(5)
O5 O 0.5064(3) 0.3429(3) -0.0433(4)
C1 C 0.4095(4) 0.3975(3) -0.1190(7)
H1 H 0.35610 0.39530 -0.05540
H2 H 0.37930 0.37000 -0.21940
H3 H 0.42960 0.46290 -0.13190
C2 C 0.5187(4) 0.2263(4) 0.6123(6)
H4 H 0.48930 0.22560 0.70110
C3 C 0.5357(5) 0.1468(5) 0.5498(6)
H5 H 0.51770 0.09100 0.59640
C4 C 0.5794(4) 0.1369(4) 0.4164(5)
H6 H 0.59150 0.07740 0.37540
C5 C 0.6044(4) 0.2267(5) 0.3465(6)
C6 C 0.6512(4) 0.2326(3) 0.2047(6)
C7 C 0.6776(5) 0.3228(3) 0.1258(7)
C8 C 0.7647(5) 0.3856(3) 0.2276(6)
C9 C 0.9134(5) 0.3951(4) 0.4391(6)
H7 H 0.95310 0.42320 0.36830
H8 H 0.96070 0.35300 0.50970
H9 H 0.88720 0.44470 0.49740
N1 N 0.6712(5) 0.1560(3) 0.1406(9)
C10 C 0.7179(4) 0.1887(5) -0.0057(6)
C11 C 0.7490(5) 0.1273(4) -0.1055(6)
H10 H 0.74280 0.06150 -0.09300
C12 C 0.7887(4) 0.1623(6) -0.2221(6)
H11 H 0.81170 0.12210 -0.29330
C13 C 0.7952(5) 0.2719(5) -0.2353(6)
H12 H 0.82290 0.30160 -0.31350
C14 C 0.7571(5) 0.3234(4) -0.1235(7)
H13 H 0.75770 0.39000 -0.12800
C15 C 0.7205(4) 0.2821(4) -0.0122(6)
C16 C 0.5415(5) 0.3100(5) 0.5548(7)
H14 H 0.52880 0.36620 0.60510
C17 C 0.5828(5) 0.3154(4) 0.4246(7)
H15 H 0.59730 0.37470 0.38510
C18 C 0.5694(5) 0.3850(3) 0.0773(7)
#END
