
#######################################################################
#
#                 Cambridge Crystallographic Data Centre
#                                CCDC
#
#######################################################################
#
# If this CIF has been generated from an entry in the Cambridge
# Structural Database, then it will include bibliographic, chemical,
# crystal, experimental, refinement or atomic coordinate data resulting
# from the CCDC's data processing and validation procedures.
#
#######################################################################

data_CSD_CIF_YUTSUD
_audit_creation_date 2015-11-06
_audit_creation_method CSD-ConQuest-V1
_database_code_CSD YUTSUD
_database_code_depnum_ccdc_archive 'CCDC 1434730'
_chemical_formula_sum 'C19 H17 N1 O7'
_chemical_formula_moiety
;
C19 H17 N1 O7
;
_journal_coeditor_code "qm2113"
_journal_coden_Cambridge 1828
_journal_volume 71
_journal_year 2015
_journal_page_first o917
_journal_name_full 'Acta Crystallogr.,Sect.E:Cryst.Commun. '
loop_
_publ_author_name
"S.K.Mohamed"
"J.T.Mague"
"M.Akkurt"
"E.A.Ahmed"
"M.R.Albayati"
_chemical_name_systematic
;
ethyl 
2-(2-((1Z)-1-hydroxy-3-(4-nitrophenyl)-3-oxoprop-1-en-1-yl)phenoxy)acetate
;
_cell_volume   1697.361
_exptl_crystal_colour 'pale yellow'
_exptl_crystal_density_diffrn 1.453
_exptl_crystal_description 'column'
_diffrn_ambient_temperature 150
#These two values have been output from a single CSD field.
_refine_ls_R_factor_gt 0.0721
_refine_ls_wR_factor_gt 0.0721
_symmetry_cell_setting monoclinic
_symmetry_space_group_name_H-M 'P 21/n'
_symmetry_Int_Tables_number 14
loop_
_symmetry_equiv_pos_site_id
_symmetry_equiv_pos_as_xyz
1 x,y,z
2 1/2-x,1/2+y,1/2-z
3 -x,-y,-z
4 -1/2+x,-1/2-y,-1/2+z
_cell_length_a 4.7818(10)
_cell_length_b 16.260(3)
_cell_length_c 21.948(5)
_cell_angle_alpha 90
_cell_angle_beta 95.933(3)
_cell_angle_gamma 90
_cell_formula_units_Z 4
loop_
_atom_type_symbol
_atom_type_radius_bond
C 0.68
H 0.23
N 0.68
O 0.68
loop_
_atom_site_label
_atom_site_type_symbol
_atom_site_fract_x
_atom_site_fract_y
_atom_site_fract_z
O1 O 1.3713(6) 0.88831(19) 0.52969(13)
O2 O 1.3341(6) 0.75575(19) 0.52420(12)
O3 O 0.2970(5) 0.93367(15) 0.30167(11)
O4 O -0.0854(5) 0.88128(16) 0.23034(12)
H1 H 0.05130 0.90930 0.24850
O5 O -0.0494(5) 0.63587(13) 0.28606(10)
O6 O 0.3347(6) 0.58820(15) 0.37708(13)
O7 O 0.1989(6) 0.45723(15) 0.36325(12)
N1 N 1.2619(7) 0.8252(2) 0.50788(14)
C1 C 0.5850(7) 0.8492(2) 0.36892(15)
C2 C 0.7260(7) 0.9186(2) 0.39276(17)
H2 H 0.67030 0.97150 0.37750
C3 C 0.9464(8) 0.9116(2) 0.43836(17)
H3 H 1.04100 0.95910 0.45510
C4 C 1.0263(7) 0.8345(2) 0.45906(15)
C5 C 0.8938(7) 0.7638(2) 0.43615(16)
H4 H 0.95350 0.71120 0.45100
C6 C 0.6703(7) 0.7720(2) 0.39061(15)
H5 H 0.57530 0.72440 0.37420
C7 C 0.3471(7) 0.8596(2) 0.31935(15)
C8 C 0.1895(7) 0.7929(2) 0.29482(15)
H6 H 0.23330 0.73880 0.30910
C9 C -0.0329(7) 0.8058(2) 0.24920(15)
C10 C -0.2205(7) 0.7428(2) 0.21933(15)
C11 C -0.4082(7) 0.7682(2) 0.16947(15)
H7 H -0.40630 0.82410 0.15680
C12 C -0.5941(7) 0.7148(2) 0.13854(16)
H8 H -0.71850 0.73390 0.10490
C13 C -0.6003(8) 0.6340(2) 0.15610(16)
H9 H -0.72870 0.59690 0.13470
C14 C -0.4184(8) 0.6064(2) 0.20538(16)
H10 H -0.42330 0.55050 0.21770
C15 C -0.2297(7) 0.6604(2) 0.23651(15)
C16 C -0.0496(8) 0.5517(2) 0.30174(16)
H11 H -0.01990 0.51760 0.26560
H12 H -0.23240 0.53630 0.31600
C17 C 0.1850(8) 0.5374(2) 0.35214(16)
C18 C 0.4091(8) 0.4278(2) 0.41157(17)
H13 H 0.56340 0.46830 0.41860
H14 H 0.48990 0.37510 0.39900
C19 C 0.2724(9) 0.4159(3) 0.46874(18)
H15 H 0.19490 0.46830 0.48120
H16 H 0.41170 0.39590 0.50130
H17 H 0.12050 0.37550 0.46150
H18? H 0.15390 0.93680 0.27460
#END
