
#######################################################################
#
#                 Cambridge Crystallographic Data Centre
#                                CCDC
#
#######################################################################
#
# If this CIF has been generated from an entry in the Cambridge
# Structural Database, then it will include bibliographic, chemical,
# crystal, experimental, refinement or atomic coordinate data resulting
# from the CCDC's data processing and validation procedures.
#
#######################################################################

data_CSD_CIF_YUTTOY
_audit_creation_date 2015-11-06
_audit_creation_method CSD-ConQuest-V1
_database_code_CSD YUTTOY
_database_code_depnum_ccdc_archive 'CCDC 1435489'
_chemical_formula_sum 'C27 H29 N3 O2'
_chemical_formula_moiety
;
C27 H29 N3 O2
;
_journal_coden_Cambridge 1078
_journal_year 2015
_journal_name_full 'CSD Communication(Private Communication) '
loop_
_publ_author_name
"H.K.T.Ishida"
_chemical_name_systematic
;
4-(9-anthryl)-N,N'-di-t-butylpyridine-2,6-diamine N,N'-dioxide
;
_chemical_melting_point 453
_cell_volume   1134.471
_exptl_crystal_colour 'red'
_exptl_crystal_density_diffrn 1.252
_exptl_special_details
;
Melts above 453K
Magnetic properties

;
_exptl_crystal_description 'platelet'
_exptl_crystal_preparation 'Re-crystallisation from solvent'
_diffrn_ambient_temperature 100
#These two values have been output from a single CSD field.
_refine_ls_R_factor_gt 0.0691
_refine_ls_wR_factor_gt 0.0691
_symmetry_cell_setting triclinic
_symmetry_space_group_name_H-M 'P -1'
_symmetry_Int_Tables_number 2
loop_
_symmetry_equiv_pos_site_id
_symmetry_equiv_pos_as_xyz
1 x,y,z
2 -x,-y,-z
_cell_length_a 9.465(5)
_cell_length_b 10.057(7)
_cell_length_c 13.3196(13)
_cell_angle_alpha 73.15(10)
_cell_angle_beta 69.93(9)
_cell_angle_gamma 79.28(10)
_cell_formula_units_Z 2
loop_
_atom_type_symbol
_atom_type_radius_bond
C 0.68
H 0.23
N 0.68
O 0.68
loop_
_atom_site_label
_atom_site_type_symbol
_atom_site_fract_x
_atom_site_fract_y
_atom_site_fract_z
O1 O -0.28624(16) 0.74638(17) 0.71793(11)
O2 O 0.45894(16) 0.6494(2) 0.41456(12)
N1 N -0.19179(18) 0.75223(17) 0.62156(13)
N2 N 0.32448(18) 0.69853(18) 0.41289(13)
N3 N 0.06709(17) 0.72692(16) 0.51720(12)
C1 C -0.0383(2) 0.71229(18) 0.61635(15)
C2 C -0.0051(3) 0.65872(19) 0.71640(16)
C3 C 0.1440(2) 0.61649(18) 0.71305(15)
C4 C 0.2542(3) 0.6269(2) 0.61176(15)
C5 C 0.2102(2) 0.68504(19) 0.51604(15)
C6 C -0.2539(2) 0.7836(2) 0.52614(16)
C7 C -0.4236(3) 0.8196(3) 0.57017(19)
C8 C -0.1853(3) 0.9091(3) 0.43680(18)
C9 C -0.2235(3) 0.6531(3) 0.48287(18)
C10 C 0.3027(3) 0.7720(3) 0.30172(15)
C11 C 0.1924(3) 0.6991(3) 0.28004(17)
C12 C 0.2494(3) 0.9259(3) 0.30075(19)
C13 C 0.4570(3) 0.7619(3) 0.21438(18)
C14 C 0.1858(2) 0.56170(19) 0.81776(15)
C15 C 0.1695(2) 0.4225(2) 0.87704(15)
C16 C 0.1070(3) 0.3277(3) 0.84523(17)
C17 C 0.0947(3) 0.1924(3) 0.90445(19)
C18 C 0.1452(3) 0.1416(3) 0.99860(19)
C19 C 0.2063(3) 0.2265(2) 1.03163(16)
C20 C 0.2188(3) 0.3701(2) 0.97333(15)
C21 C 0.2817(3) 0.4601(2) 1.00655(15)
C22 C 0.2943(2) 0.5988(2) 0.94967(15)
C23 C 0.3579(3) 0.6907(3) 0.98312(16)
C24 C 0.3689(3) 0.8264(3) 0.92775(17)
C25 C 0.3139(3) 0.8813(3) 0.83485(17)
C26 C 0.2540(3) 0.7977(2) 0.79951(16)
C27 C 0.2435(2) 0.6522(2) 0.85383(15)
H1 H -0.086(3) 0.650(3) 0.786(2)
H2 H 0.357(3) 0.600(3) 0.6085(17)
H3 H -0.443(4) 0.913(4) 0.598(3)
H4 H -0.469(3) 0.836(3) 0.512(3)
H5 H -0.473(3) 0.747(3) 0.625(3)
H6 H -0.079(3) 0.895(3) 0.4011(18)
H7 H -0.232(3) 0.936(3) 0.376(2)
H8 H -0.203(3) 0.992(3) 0.463(3)
H9 H -0.278(3) 0.580(3) 0.539(3)
H10 H -0.270(3) 0.678(3) 0.423(3)
H11 H -0.116(3) 0.622(3) 0.461(2)
H12 H 0.087(3) 0.703(2) 0.3370(17)
H13 H 0.188(3) 0.754(3) 0.202(2)
H14 H 0.229(3) 0.600(3) 0.2838(17)
H15 H 0.337(3) 0.968(3) 0.304(2)
H16 H 0.225(4) 0.976(3) 0.231(3)
H17 H 0.157(3) 0.937(3) 0.363(3)
H18 H 0.487(3) 0.666(4) 0.215(3)
H19 H 0.442(3) 0.806(3) 0.1397(19)
H20 H 0.530(3) 0.805(3) 0.2228(19)
H21 H 0.073(3) 0.371(3) 0.7785(18)
H22 H 0.052(4) 0.135(4) 0.879(3)
H23 H 0.132(3) 0.043(4) 1.038(3)
H24 H 0.241(3) 0.184(3) 1.097(2)
H25 H 0.321(3) 0.421(3) 1.073(2)
H26 H 0.396(3) 0.648(3) 1.047(3)
H27 H 0.413(3) 0.892(3) 0.945(2)
H28 H 0.318(3) 0.983(3) 0.7978(19)
H29 H 0.218(3) 0.839(3) 0.738(2)
#END
