
#######################################################################
#
#                 Cambridge Crystallographic Data Centre
#                                CCDC
#
#######################################################################
#
# If this CIF has been generated from an entry in the Cambridge
# Structural Database, then it will include bibliographic, chemical,
# crystal, experimental, refinement or atomic coordinate data resulting
# from the CCDC's data processing and validation procedures.
#
#######################################################################

data_CSD_CIF_YUXCEA
_audit_creation_date 2010-12-02
_audit_creation_method CSD-ConQuest-V1
_database_code_CSD YUXCEA
_database_code_depnum_ccdc_archive 'CCDC 776602'
_chemical_formula_sum 'C13 H20 N2 O3'
_chemical_formula_moiety
;
C13 H20 N2 O3
;
_journal_coden_Cambridge 644
_journal_volume 65
_journal_year 2010
_journal_page_first 821
_journal_name_full 'Z.Naturforsch.,B:Chem.Sci. '
loop_
_publ_author_name
"V.Jager"
"W.Frey"
"Y.Bathich"
"S.Shiva"
"M.Ibrahim"
"M.Hennebohle"
"P.-Y.LeRoy"
"M.Imerhasan"
_chemical_name_systematic
;
3-(1,4-Dioxaspiro[4.5]dec-2-yl)-2-methyl-1,2-oxazolidine-3-carbonitrile
;
_cell_volume   1350.188
_exptl_crystal_colour 'colorless'
_exptl_crystal_density_diffrn 1.241
_exptl_crystal_description 'block'
_diffrn_ambient_temperature 293
#These two values have been output from a single CSD field.
_refine_ls_R_factor_gt 0.0378
_refine_ls_wR_factor_gt 0.0378
_symmetry_cell_setting monoclinic
_symmetry_space_group_name_H-M 'P 21'
_symmetry_Int_Tables_number 4
loop_
_symmetry_equiv_pos_site_id
_symmetry_equiv_pos_as_xyz
1 x,y,z
2 -x,1/2+y,-z
_cell_length_a 10.381(2)
_cell_length_b 9.365(1)
_cell_length_c 13.903(2)
_cell_angle_alpha 90
_cell_angle_beta 92.64(1)
_cell_angle_gamma 90
_cell_formula_units_Z 4
loop_
_atom_type_symbol
_atom_type_radius_bond
C 0.68
H 0.23
N 0.68
O 0.68
loop_
_atom_site_label
_atom_site_type_symbol
_atom_site_fract_x
_atom_site_fract_y
_atom_site_fract_z
C1 C 0.45173(18) 0.8526(2) 0.53183(13)
C2 C 0.58881(19) 0.8176(3) 0.50054(15)
H1 H 0.60100 0.71530 0.49440
H2 H 0.60590 0.86300 0.43970
C3 C 0.6751(2) 0.8786(3) 0.58234(18)
H3 H 0.73530 0.80670 0.60710
H4 H 0.72370 0.95960 0.56000
O1 O 0.59085(15) 0.9216(2) 0.65513(11)
N1 N 0.47613(16) 0.97180(19) 0.59972(12)
C4 C 0.3808(2) 0.9962(3) 0.67213(17)
H5 H 0.40900 1.07320 0.71350
H6 H 0.37150 0.91110 0.70970
H7 H 0.29940 1.02030 0.64070
C5 C 0.36436(19) 0.9004(2) 0.44535(14)
H8 H 0.40200 0.98490 0.41590
C6 C 0.3423(2) 0.7848(3) 0.36849(16)
H9 H 0.35120 0.82360 0.30440
H10 H 0.40280 0.70670 0.37850
O2 O 0.21357(14) 0.73880(18) 0.38136(12)
C7 C 0.1455(2) 0.8570(2) 0.41705(15)
O3 O 0.23915(15) 0.93462(19) 0.47542(11)
C8 C 0.0892(2) 0.9513(3) 0.33724(17)
H11 H 0.15710 0.98040 0.29580
H12 H 0.05300 1.03660 0.36500
C9 C -0.0156(3) 0.8732(4) 0.27754(19)
H13 H 0.02250 0.79380 0.24420
H14 H -0.05330 0.93780 0.22950
C10 C -0.1209(2) 0.8176(4) 0.3406(2)
H15 H -0.16540 0.89740 0.36870
H16 H -0.18340 0.76330 0.30160
C11 C -0.0633(2) 0.7235(4) 0.4200(2)
H17 H -0.02690 0.63870 0.39170
H18 H -0.13080 0.69340 0.46140
C12 C 0.0416(2) 0.8007(3) 0.48021(19)
H19 H 0.00370 0.87950 0.51430
H20 H 0.07980 0.73550 0.52760
C13 C 0.3947(2) 0.7277(2) 0.58034(15)
N2 N 0.3509(2) 0.6362(2) 0.62112(16)
C14 C 0.4081(2) 1.1039(3) 0.09695(14)
C15 C 0.5577(2) 1.1087(4) 0.1107(2)
H21 H 0.59740 1.12440 0.04980
H22 H 0.58490 1.18370 0.15530
C16 C 0.5920(2) 0.9636(4) 0.1511(2)
H23 H 0.67030 0.92790 0.12410
H24 H 0.60440 0.96750 0.22060
O4 O 0.48484(16) 0.8755(2) 0.12358(13)
N3 N 0.37654(18) 0.9677(2) 0.14445(13)
C17 C 0.2633(2) 0.8913(3) 0.10517(18)
H25 H 0.25270 0.80440 0.14060
H26 H 0.27470 0.86920 0.03870
H27 H 0.18820 0.95000 0.11040
C18 C 0.3453(2) 1.2278(3) 0.14901(15)
H28 H 0.37820 1.23000 0.21620
C19 C 0.3653(3) 1.3741(3) 0.10334(19)
H29 H 0.38340 1.44610 0.15230
H30 H 0.43580 1.37160 0.05990
O5 O 0.24603(17) 1.4022(2) 0.05221(12)
C20 C 0.1490(2) 1.3351(3) 0.10399(16)
O6 O 0.20916(14) 1.2110(2) 0.14639(12)
C21 C 0.0992(3) 1.4290(3) 0.18301(19)
H31 H 0.06470 1.51680 0.15520
H32 H 0.16970 1.45360 0.22810
C22 C -0.0061(3) 1.3519(4) 0.2363(2)
H33 H 0.03180 1.27150 0.27130
H34 H -0.04120 1.41670 0.28280
C23 C -0.1143(3) 1.2987(4) 0.1691(2)
H35 H -0.17350 1.24190 0.20520
H36 H -0.16160 1.37960 0.14180
C24 C -0.0631(3) 1.2094(4) 0.0887(2)
H37 H -0.13380 1.18510 0.04350
H38 H -0.02810 1.12110 0.11540
C25 C 0.0414(3) 1.2865(4) 0.03501(19)
H39 H 0.07580 1.22280 -0.01250
H40 H 0.00420 1.36850 0.00140
C26 C 0.3676(2) 1.1026(3) -0.00721(15)
N4 N 0.3349(3) 1.0958(4) -0.08585(15)
#END
