
#######################################################################
#
#                 Cambridge Crystallographic Data Centre
#                                CCDC
#
#######################################################################
#
# If this CIF has been generated from an entry in the Cambridge
# Structural Database, then it will include bibliographic, chemical,
# crystal, experimental, refinement or atomic coordinate data resulting
# from the CCDC's data processing and validation procedures.
#
#######################################################################

data_CSD_CIF_YUXCIE
_audit_creation_date 2010-12-02
_audit_creation_method CSD-ConQuest-V1
_database_code_CSD YUXCIE
_database_code_depnum_ccdc_archive 'CCDC 776603'
_chemical_formula_sum 'C7 H11 N1 O4'
_chemical_formula_moiety
;
C7 H11 N1 O4
;
_journal_coden_Cambridge 644
_journal_volume 65
_journal_year 2010
_journal_page_first 821
_journal_name_full 'Z.Naturforsch.,B:Chem.Sci. '
loop_
_publ_author_name
"V.Jager"
"W.Frey"
"Y.Bathich"
"S.Shiva"
"M.Ibrahim"
"M.Hennebohle"
"P.-Y.LeRoy"
"M.Imerhasan"
_chemical_name_systematic
;
9-Hydroxy-1-methyl-2,7-dioxa-1-azaspiro[4.4]nonan-6-one
;
_cell_volume    409.592
_exptl_crystal_colour 'colorless'
_exptl_crystal_density_diffrn 1.404
_exptl_crystal_description 'block'
_diffrn_ambient_temperature 293
#These two values have been output from a single CSD field.
_refine_ls_R_factor_gt 0.0286
_refine_ls_wR_factor_gt 0.0286
_symmetry_cell_setting monoclinic
_symmetry_space_group_name_H-M 'P 21'
_symmetry_Int_Tables_number 4
loop_
_symmetry_equiv_pos_site_id
_symmetry_equiv_pos_as_xyz
1 x,y,z
2 -x,1/2+y,-z
_cell_length_a 8.0372(10)
_cell_length_b 6.2067(7)
_cell_length_c 8.6679(7)
_cell_angle_alpha 90
_cell_angle_beta 108.690(7)
_cell_angle_gamma 90
_cell_formula_units_Z 2
loop_
_atom_type_symbol
_atom_type_radius_bond
C 0.68
H 0.23
N 0.68
O 0.68
loop_
_atom_site_label
_atom_site_type_symbol
_atom_site_fract_x
_atom_site_fract_y
_atom_site_fract_z
N1 N 0.44859(17) 0.9377(3) -0.25282(16)
O1 O 0.05650(17) 0.9160(3) -0.1430(2)
C1 C 0.1609(2) 1.0102(3) -0.2181(2)
O2 O 0.14549(19) 1.1949(3) -0.2572(2)
C2 C 0.28627(18) 0.8391(3) -0.24315(18)
O3 O 0.41948(18) 0.7866(2) 0.04206(15)
H1 H 0.454(3) 0.687(6) 0.101(3)
C3 C 0.30361(19) 0.6901(3) -0.09874(19)
H2 H 0.34000 0.54410 -0.11680
O4 O 0.3974(2) 1.0121(3) -0.41939(16)
C4 C 0.1159(3) 0.6981(4) -0.0942(3)
H3 H 0.04280 0.59380 -0.16900
H4 H 0.11270 0.66800 0.01460
C5 C 0.2794(3) 0.8544(5) -0.5200(2)
H5 H 0.34290 0.75800 -0.56930
H6 H 0.18760 0.92520 -0.60600
C6 C 0.2012(3) 0.7305(3) -0.4106(2)
H7 H 0.23180 0.57900 -0.40720
H8 H 0.07430 0.74470 -0.44620
C7 C 0.5917(2) 0.7800(4) -0.2300(3)
H9 H 0.68800 0.84670 -0.25460
H10 H 0.54990 0.65960 -0.30140
H11 H 0.63040 0.73100 -0.11910
#END
