
#######################################################################
#
#                 Cambridge Crystallographic Data Centre
#                                CCDC
#
#######################################################################
#
# If this CIF has been generated from an entry in the Cambridge
# Structural Database, then it will include bibliographic, chemical,
# crystal, experimental, refinement or atomic coordinate data resulting
# from the CCDC's data processing and validation procedures.
#
#######################################################################

data_CSD_CIF_YUXJUY
_audit_creation_date 2015-11-09
_audit_creation_method CSD-ConQuest-V1
_database_code_CSD YUXJUY
_database_code_depnum_ccdc_archive 'CCDC 1435701'
_chemical_formula_sum 'C15 H12 N2 O1'
_chemical_formula_moiety
;
C15 H12 N2 O1
;
_journal_coden_Cambridge 1500
_journal_volume 6
_journal_year 2016
_journal_page_first 13581
_journal_name_full 'RSC Advances '
loop_
_publ_author_name
"Zhi Hong"
"Jian-Jun Li"
"Guang Chen"
"Hua-Jiang Jiang"
"Xiao-Feng Yang"
"Heng Pan"
"Wei-Ke Su"
_chemical_name_systematic
;
\a-(3-methyl-4-(hydroxyimino)-2,5-cyclohexadien-1-ylidene)benzeneacetonitrile
;
_chemical_name_common
;
(4-(hydroxyimino)-3-methylcyclohexa-2,5-dien-1-ylidene)(phenyl)acetonitrile
;
_chemical_melting_point 433.55
_cell_volume   1258.699
_exptl_crystal_colour 'colorless'
_exptl_crystal_density_diffrn 1.247
_exptl_special_details
;
Melting point range 433.55-435.05K

;
_exptl_crystal_description 'needle'
_diffrn_ambient_temperature 296
_refine_special_details
;
C10',C11',C12',C13',C15',C8',C9',N2',O1' and C10,C11,C12,C13,C15,C8,C9,N2,O1 
disordered over two sites with occupancies 0.534:0.466.
;
#These two values have been output from a single CSD field.
_refine_ls_R_factor_gt 0.0784
_refine_ls_wR_factor_gt 0.0784
_symmetry_cell_setting monoclinic
_symmetry_space_group_name_H-M 'P 21/c'
_symmetry_Int_Tables_number 14
loop_
_symmetry_equiv_pos_site_id
_symmetry_equiv_pos_as_xyz
1 x,y,z
2 -x,1/2+y,1/2-z
3 -x,-y,-z
4 x,-1/2-y,-1/2+z
_cell_length_a 6.958(5)
_cell_length_b 3.937(3)
_cell_length_c 45.96(3)
_cell_angle_alpha 90
_cell_angle_beta 91.278(9)
_cell_angle_gamma 90
_cell_formula_units_Z 4
loop_
_atom_type_symbol
_atom_type_radius_bond
C 0.68
H 0.23
N 0.68
O 0.68
loop_
_atom_site_label
_atom_site_type_symbol
_atom_site_fract_x
_atom_site_fract_y
_atom_site_fract_z
C1 C 0.3379(4) 0.7123(7) 0.16794(6)
C2 C 0.4591(5) 0.5748(8) 0.18957(7)
H1 H 0.58680 0.53080 0.18530
C3 C 0.3951(7) 0.5036(9) 0.21665(8)
H2 H 0.47850 0.41130 0.23060
C4 C 0.2049(9) 0.5691(12) 0.22338(8)
H3 H 0.16010 0.51750 0.24180
C5 C 0.0834(6) 0.7102(12) 0.20276(8)
H4 H -0.04340 0.75690 0.20740
C6 C 0.1481(5) 0.7837(9) 0.17509(7)
H5 H 0.06500 0.88060 0.16130
C7 C 0.4125(4) 0.7888(7) 0.13890(6)
C8 C 0.341(2) 0.740(5) 0.1096(3)
C9 C 0.157(2) 0.578(4) 0.1057(3)
H6 H 0.09200 0.50550 0.12210
C10 C 0.074(2) 0.527(4) 0.0789(3)
C11 C 0.1719(18) 0.631(4) 0.0537(3)
C12 C 0.3609(17) 0.790(4) 0.0569(3)
H7 H 0.42690 0.85890 0.04060
C13 C 0.437(2) 0.835(5) 0.0829(3)
H8 H 0.55830 0.93230 0.08440
N1 N 0.0832(10) 0.568(3) 0.0295(2)
O1 O -0.1102(5) 0.3952(12) 0.03001(7)
H9 H -0.10440 0.21330 0.02140
C14 C -0.1095(13) 0.387(3) 0.07508(19)
H10 H -0.19800 0.56090 0.06890
H11 H -0.15050 0.29130 0.09310
H12 H -0.10590 0.21180 0.06060
C15 C 0.6008(5) 0.9433(9) 0.13909(6)
N2 N 0.7489(4) 1.0762(9) 0.14005(7)
C16? C 0.309(3) 0.716(6) 0.1146(4)
C17? C 0.126(2) 0.543(5) 0.1116(3)
H13? H 0.06420 0.46830 0.12820
C18? C 0.043(2) 0.487(5) 0.0856(3)
H14? H -0.07540 0.37890 0.08460
C19? C 0.130(2) 0.586(4) 0.0591(3)
C20? C 0.316(2) 0.757(5) 0.0608(4)
C21? C 0.398(2) 0.817(5) 0.0884(3)
H15? H 0.51560 0.92710 0.08970
N3? N 0.070(3) 0.557(5) 0.0299(3)
O2? O 0.2026(12) 0.683(3) 0.00346(16)
H16? H 0.31420 0.70290 0.00930
C22? C 0.4309(7) 0.8700(15) 0.03183(10)
H17? H 0.35560 1.03290 0.02100
H18? H 0.45290 0.67400 0.01990
H19? H 0.55190 0.96960 0.03750
C1B C -0.3379(4) 0.2877(7) -0.16794(6)
C2B C -0.4591(5) 0.4252(8) -0.18957(7)
H1B H -0.58680 0.46920 -0.18530
C3B C -0.3951(7) 0.4964(9) -0.21665(8)
H2B H -0.47850 0.58870 -0.23060
C4B C -0.2049(9) 0.4309(12) -0.22338(8)
H3B H -0.16010 0.48250 -0.24180
C5B C -0.0834(6) 0.2898(12) -0.20276(8)
H4B H 0.04340 0.24310 -0.20740
C6B C -0.1481(5) 0.2163(9) -0.17509(7)
H5B H -0.06500 0.11940 -0.16130
C7B C -0.4125(4) 0.2112(7) -0.13890(6)
C8B C -0.341(2) 0.260(5) -0.1096(3)
C9B C -0.157(2) 0.422(4) -0.1057(3)
H6B H -0.09200 0.49450 -0.12210
C10B C -0.074(2) 0.473(4) -0.0789(3)
C11B C -0.1719(18) 0.369(4) -0.0537(3)
C12B C -0.3609(17) 0.210(4) -0.0569(3)
H7B H -0.42690 0.14110 -0.04060
C13B C -0.437(2) 0.165(5) -0.0829(3)
H8B H -0.55830 0.06770 -0.08440
N1B N -0.0832(10) 0.432(3) -0.0295(2)
O1B O 0.1102(5) 0.6048(12) -0.03001(7)
H9B H 0.10440 0.78670 -0.02140
C14B C 0.1095(13) 0.613(3) -0.07508(19)
H10B H 0.19800 0.43910 -0.06890
H11B H 0.15050 0.70870 -0.09310
H12B H 0.10590 0.78820 -0.06060
C15B C -0.6008(5) 0.0567(9) -0.13909(6)
N2B N -0.7489(4) -0.0762(9) -0.14005(7)
#END
