
#######################################################################
#
#                 Cambridge Crystallographic Data Centre
#                                CCDC
#
#######################################################################
#
# If this CIF has been generated from an entry in the Cambridge
# Structural Database, then it will include bibliographic, chemical,
# crystal, experimental, refinement or atomic coordinate data resulting
# from the CCDC's data processing and validation procedures.
#
#######################################################################

data_CSD_CIF_YUXLUY
_audit_creation_date 1996-03-20
_audit_creation_method CSD-ConQuest-V1
_database_code_CSD YUXLUY
_chemical_formula_sum 'C18 H14 N2 O2'
_chemical_formula_moiety
;
C18 H14 N2 O2
;
_journal_coden_Cambridge 93
_journal_volume 340
_journal_year 1995
_journal_page_first 67
_journal_name_full 'Dokl.Akad.Nauk SSSR(Russ.)(Proc.Nat.Acad.Sci.USSR) '
loop_
_publ_author_name
"A.N.Chekhlov"
"S.S.Mochalov"
"N.S.Zefirov"
_chemical_name_systematic
;
trans-1,2-bis(Benz(c)isoxazol-3-yl)cyclobutane
;
_cell_volume   2900.921
_exptl_crystal_colour 'colorless'
_exptl_crystal_density_diffrn 1.329
_diffrn_ambient_temperature ?
_diffrn_special_details
;
The study was carried out at room temperature,in the range 283-303K

;
#These two values have been output from a single CSD field.
_refine_ls_R_factor_gt 0.039
_refine_ls_wR_factor_gt 0.039
_symmetry_cell_setting monoclinic
_symmetry_space_group_name_H-M 'P 21/n'
_symmetry_Int_Tables_number 14
loop_
_symmetry_equiv_pos_site_id
_symmetry_equiv_pos_as_xyz
1 x,y,z
2 1/2-x,1/2+y,1/2-z
3 -x,-y,-z
4 -1/2+x,-1/2-y,-1/2+z
_cell_length_a 23.408(5)
_cell_length_b 5.885(3)
_cell_length_c 23.496(6)
_cell_angle_alpha 90
_cell_angle_beta 116.33(2)
_cell_angle_gamma 90
_cell_formula_units_Z 8
loop_
_atom_type_symbol
_atom_type_radius_bond
C 0.68
H 0.23
N 0.68
O 0.68
loop_
_atom_site_label
_atom_site_type_symbol
_atom_site_fract_x
_atom_site_fract_y
_atom_site_fract_z
O1 O 0.19368(6) 0.5998(2) 0.59674(5)
O2 O 0.19550(6) -0.1366(3) 0.47417(6)
N1 N 0.15926(7) 0.7202(3) 0.62328(7)
N2 N 0.14310(9) -0.2797(3) 0.43880(8)
C1 C 0.24562(7) 0.2435(3) 0.59967(7)
C2 C 0.22286(8) 0.2292(4) 0.52639(8)
C3 C 0.29360(9) 0.2073(5) 0.5407(1)
C4 C 0.31133(8) 0.3209(4) 0.60490(9)
C5 C 0.21004(7) 0.3911(3) 0.62342(8)
C6 C 0.18798(7) 0.3696(3) 0.66787(7)
C7 C 0.15672(8) 0.5791(3) 0.66552(8)
C8 C 0.12695(8) 0.6134(4) 0.70603(9)
C9 C 0.13038(9) 0.4461(4) 0.74606(8)
C10 C 0.16273(9) 0.2379(4) 0.74947(8)
C11 C 0.19085(8) 0.1969(3) 0.71155(8)
C12 C 0.17530(8) 0.0580(3) 0.48986(7)
C13 C 0.11047(8) 0.0504(3) 0.46653(7)
C14 C 0.0931(1) -0.1645(4) 0.43527(8)
C15 C 0.0274(1) -0.2292(4) 0.4056(1)
C16 C -0.0150(1) -0.0813(5) 0.4080(1)
C17 C 0.0026(1) 0.1314(5) 0.4391(1)
C18 C 0.06407(9) 0.1980(4) 0.46784(9)
H1 H 0.2478(7) 0.086(3) 0.6189(7)
H2 H 0.2092(7) 0.369(3) 0.5084(7)
H3 H 0.304(1) 0.049(4) 0.543(1)
H4 H 0.3076(9) 0.281(4) 0.509(1)
H5 H 0.3109(8) 0.490(3) 0.5987(7)
H6 H 0.3504(9) 0.263(4) 0.6397(9)
H7 H 0.1053(8) 0.743(3) 0.7031(7)
H8 H 0.1114(9) 0.454(4) 0.7723(8)
H9 H 0.1644(9) 0.131(3) 0.7812(9)
H10 H 0.2096(7) 0.063(3) 0.7104(7)
H11 H 0.016(1) -0.378(4) 0.383(1)
H12 H -0.060(1) -0.123(5) 0.385(1)
H13 H -0.0344(9) 0.234(4) 0.4380(9)
H14 H 0.0752(8) 0.330(3) 0.4914(8)
O3 O 0.09159(6) 0.5931(2) 0.19411(6)
O4 O -0.03492(6) -0.1339(3) 0.19244(6)
N3 N 0.11838(7) 0.7133(3) 0.15996(8)
N4 N -0.06960(8) -0.2743(3) 0.13862(8)
C19 C 0.09426(8) 0.2365(4) 0.24557(8)
C20 C 0.02087(8) 0.2252(4) 0.22342(8)
C21 C 0.03535(9) 0.1964(5) 0.29321(8)
C22 C 0.10048(9) 0.3063(5) 0.31200(9)
C23 C 0.11875(8) 0.3863(3) 0.21119(8)
C24 C 0.16375(7) 0.3629(3) 0.18956(7)
C25 C 0.16124(8) 0.5714(4) 0.15801(8)
C26 C 0.20267(9) 0.6092(4) 0.12906(9)
C27 C 0.24311(9) 0.4395(4) 0.13362(9)
C28 C 0.24676(9) 0.2323(4) 0.16609(9)
C29 C 0.20810(8) 0.1913(4) 0.19376(8)
C30 C -0.01619(7) 0.0598(3) 0.17472(8)
C31 C -0.03726(7) 0.0557(3) 0.11008(8)
C32 C -0.06954(8) -0.1548(4) 0.09076(9)
C33 C -0.09763(9) -0.2171(4) 0.0254(1)
C34 C -0.0921(1) -0.0698(4) -0.0154(1)
C35 C -0.05971(9) 0.1434(4) 0.00438(9)
C36 C -0.03260(8) 0.2068(4) 0.06579(8)
H15 H 0.1097(6) 0.087(3) 0.2470(6)
H16 H 0.0080(8) 0.358(3) 0.2106(8)
H17 H 0.0375(9) 0.026(4) 0.3024(8)
H18 H 0.0103(9) 0.266(4) 0.3091(8)
H19 H 0.0985(9) 0.485(4) 0.3117(9)
H20 H 0.1350(9) 0.243(4) 0.3453(9)
H21 H 0.2007(7) 0.762(3) 0.1074(7)
H22 H 0.2712(9) 0.440(4) 0.1131(8)
H23 H 0.281(1) 0.112(4) 0.1666(9)
H24 H 0.2093(7) 0.049(3) 0.2173(7)
H25 H -0.116(1) -0.356(4) 0.013(1)
H26 H -0.113(1) -0.102(4) -0.0588(9)
H27 H -0.0565(8) 0.244(4) -0.0281(8)
H28 H -0.0094(8) 0.353(3) 0.0801(8)
#END
