
#######################################################################
#
#                 Cambridge Crystallographic Data Centre
#                                CCDC
#
#######################################################################
#
# If this CIF has been generated from an entry in the Cambridge
# Structural Database, then it will include bibliographic, chemical,
# crystal, experimental, refinement or atomic coordinate data resulting
# from the CCDC's data processing and validation procedures.
#
#######################################################################

data_CSD_CIF_YUXMEK
_audit_creation_date 2010-12-02
_audit_creation_method CSD-ConQuest-V1
_database_code_CSD YUXMEK
_database_code_depnum_ccdc_archive 'CCDC 746427'
_chemical_formula_sum 'C17 H16 N2 O7'
_chemical_formula_moiety
;
C17 H16 N2 O7
;
_journal_coden_Cambridge 4
_journal_volume 132
_journal_year 2010
_journal_page_first 5869
_journal_name_full 'J.Am.Chem.Soc. '
loop_
_publ_author_name
"Yan Yan"
"Bo Qin"
"Changliang Ren"
"Xiuying Chen"
"Yeow Kwan Yip"
"Ruijuan Ye"
"Dawei Zhang"
"Haibin Su"
"Huaqiang Zeng"
_chemical_name_systematic
;
Methyl 2-methoxy-3-((2-methoxy-3-nitrobenzoyl)amino)benzoate
;
_cell_volume   1626.939
_exptl_crystal_colour 'colorless'
_exptl_crystal_density_diffrn 1.471
_exptl_crystal_description 'block'
_diffrn_ambient_temperature 223
#These two values have been output from a single CSD field.
_refine_ls_R_factor_gt 0.0491
_refine_ls_wR_factor_gt 0.0491
_symmetry_cell_setting monoclinic
_symmetry_space_group_name_H-M 'P 21/c'
_symmetry_Int_Tables_number 14
loop_
_symmetry_equiv_pos_site_id
_symmetry_equiv_pos_as_xyz
1 x,y,z
2 -x,1/2+y,1/2-z
3 -x,-y,-z
4 x,-1/2-y,-1/2+z
_cell_length_a 6.9923(4)
_cell_length_b 28.3844(18)
_cell_length_c 8.1995(5)
_cell_angle_alpha 90
_cell_angle_beta 91.323(2)
_cell_angle_gamma 90
_cell_formula_units_Z 4
loop_
_atom_type_symbol
_atom_type_radius_bond
C 0.68
H 0.23
N 0.68
O 0.68
loop_
_atom_site_label
_atom_site_type_symbol
_atom_site_fract_x
_atom_site_fract_y
_atom_site_fract_z
O1 O 0.2795(2) 0.53359(4) 0.31326(14)
O2 O 0.24616(15) 0.57005(4) 0.80589(12)
O3 O 0.1669(3) 0.64707(5) 0.99068(18)
O4 O 0.3210(3) 0.70884(5) 0.9218(2)
O5 O 0.26932(16) 0.44843(4) 0.82172(13)
O6 O 0.1952(3) 0.30152(4) 0.74915(19)
O7 O 0.3147(2) 0.35293(5) 0.92720(18)
N1 N 0.24791(19) 0.50502(4) 0.56847(16)
H1 H 0.246(3) 0.5127(8) 0.669(3)
N2 N 0.2509(2) 0.67018(5) 0.8911(2)
C1 C 0.2658(2) 0.54020(5) 0.45959(18)
C2 C 0.2693(2) 0.59023(5) 0.52403(18)
C3 C 0.2642(2) 0.60374(5) 0.68886(18)
C4 C 0.2699(2) 0.65224(5) 0.7237(2)
C5 C 0.2823(2) 0.68596(6) 0.6025(2)
H2 H 0.28910 0.71810 0.63010
C6 C 0.2846(3) 0.67240(6) 0.4422(2)
H3 H 0.29070 0.69510 0.35910
C7 C 0.2780(2) 0.62501(6) 0.4038(2)
H4 H 0.27930 0.61590 0.29360
C8 C 0.4019(2) 0.56461(6) 0.92452(19)
H5 H 0.48500 0.53920 0.89080
H6 H 0.35020 0.55730 1.03030
H7 H 0.47450 0.59370 0.93170
C9 C 0.2413(2) 0.45641(5) 0.53669(18)
C10 C 0.2479(2) 0.42663(5) 0.67376(18)
C11 C 0.2381(2) 0.37768(5) 0.6529(2)
C12 C 0.2214(2) 0.35954(6) 0.4949(2)
H8 H 0.21350 0.32680 0.47980
C13 C 0.2164(2) 0.38870(6) 0.3614(2)
H9 H 0.20670 0.37580 0.25610
C14 C 0.2256(2) 0.43709(6) 0.38113(19)
H10 H 0.22130 0.45690 0.28930
C15 C 0.1083(3) 0.44609(8) 0.9260(2)
H11 H -0.00610 0.45580 0.86570
H12 H 0.12910 0.46690 1.01850
H13 H 0.09270 0.41400 0.96430
C16 C 0.2553(2) 0.34446(5) 0.7926(2)
C17 C 0.2098(5) 0.26573(8) 0.8732(4)
H14 H 0.34190 0.26290 0.91060
H15 H 0.16640 0.23580 0.82840
H16 H 0.13070 0.27440 0.96420
#END
