
#######################################################################
#
#                 Cambridge Crystallographic Data Centre
#                                CCDC
#
#######################################################################
#
# If this CIF has been generated from an entry in the Cambridge
# Structural Database, then it will include bibliographic, chemical,
# crystal, experimental, refinement or atomic coordinate data resulting
# from the CCDC's data processing and validation procedures.
#
#######################################################################

data_CSD_CIF_YUXNAH
_audit_creation_date 2010-12-02
_audit_creation_method CSD-ConQuest-V1
_database_code_CSD YUXNAH
_database_code_depnum_ccdc_archive 'CCDC 746518'
_chemical_formula_sum 'C18 H18 N2 O8'
_chemical_formula_moiety
;
C18 H18 N2 O8
;
_journal_coden_Cambridge 4
_journal_volume 132
_journal_year 2010
_journal_page_first 5869
_journal_name_full 'J.Am.Chem.Soc. '
loop_
_publ_author_name
"Yan Yan"
"Bo Qin"
"Changliang Ren"
"Xiuying Chen"
"Yeow Kwan Yip"
"Ruijuan Ye"
"Dawei Zhang"
"Haibin Su"
"Huaqiang Zeng"
_chemical_name_systematic
;
Methyl 2,5-dimethoxy-3-((2-methoxy-3-nitrobenzoyl)amino)benzoate
;
_cell_volume   3503.904
_exptl_crystal_colour 'colorless'
_exptl_crystal_density_diffrn 1.48
_exptl_crystal_description 'block'
_diffrn_ambient_temperature 223
_refine_special_details
;
C25B,O9B and C25A,O9A disordered over two sites with occupancies 0.560:0.440.

;
#These two values have been output from a single CSD field.
_refine_ls_R_factor_gt 0.0457
_refine_ls_wR_factor_gt 0.0457
_symmetry_cell_setting monoclinic
_symmetry_space_group_name_H-M 'P 21/c'
_symmetry_Int_Tables_number 14
loop_
_symmetry_equiv_pos_site_id
_symmetry_equiv_pos_as_xyz
1 x,y,z
2 -x,1/2+y,1/2-z
3 -x,-y,-z
4 x,-1/2-y,-1/2+z
_cell_length_a 11.1282(4)
_cell_length_b 25.3958(10)
_cell_length_c 12.4272(5)
_cell_angle_alpha 90
_cell_angle_beta 93.902(1)
_cell_angle_gamma 90
_cell_formula_units_Z 8
loop_
_atom_type_symbol
_atom_type_radius_bond
C 0.68
H 0.23
N 0.68
O 0.68
loop_
_atom_site_label
_atom_site_type_symbol
_atom_site_fract_x
_atom_site_fract_y
_atom_site_fract_z
O1 O 0.32839(9) 0.58515(4) 0.03042(7)
O2 O 0.46495(10) 0.72400(4) 0.16684(8)
O3 O 0.42019(15) 0.68745(6) 0.00765(9)
O4 O 0.14834(11) 0.66114(5) 0.40329(9)
O5 O 0.03891(11) 0.49754(5) 0.24427(9)
O6 O 0.22911(9) 0.46009(4) -0.02333(8)
O7 O 0.27733(10) 0.35845(5) -0.11556(10)
O8 O 0.11592(13) 0.34312(6) -0.21674(11)
O9 O 0.37033(12) 0.64028(5) 0.66260(9)
O10 O 0.2091(2) 0.50424(12) 0.5073(2)
C1 C 0.2192(3) 0.47628(14) 0.6060(3)
H1 H 0.24950 0.44110 0.59380
H2 H 0.14060 0.47390 0.63510
H3 H 0.27430 0.49460 0.65690
O11 O 0.22945(17) 0.58002(7) 0.67496(14)
O12 O 0.57664(10) 0.60989(4) 0.32812(9)
O13 O 0.43797(12) 0.44325(5) 0.21458(10)
O14 O 0.17887(10) 0.37864(5) 0.40599(9)
O15 O 0.11174(12) 0.26896(6) 0.4397(1)
O16 O -0.02186(11) 0.26424(6) 0.30633(12)
N1 N 0.17509(11) 0.52785(5) 0.13205(10)
H4 H 0.2111(16) 0.5211(7) 0.0745(13)
N2 N 0.16840(12) 0.36135(5) -0.13570(11)
N3 N 0.32518(12) 0.45838(5) 0.35573(10)
H5 H 0.2741(16) 0.4437(8) 0.3940(15)
N4 N 0.07605(13) 0.27827(5) 0.34680(11)
C2 C 0.28923(12) 0.60651(5) 0.12383(10)
C3 C 0.32368(12) 0.65599(5) 0.16165(10)
C4 C 0.27811(13) 0.67550(6) 0.25647(11)
H6 H 0.30230 0.70870 0.28330
C5 C 0.19764(13) 0.64555(6) 0.31009(11)
C6 C 0.16073(12) 0.59637(6) 0.27212(11)
H7 H 0.10510 0.57660 0.30910
C7 C 0.20641(12) 0.57651(5) 0.17924(11)
C8 C 0.45036(14) 0.56616(7) 0.03961(13)
H8 H 0.50220 0.59250 0.07510
H9 H 0.47690 0.55920 -0.03180
H10 H 0.45430 0.53400 0.08170
C9 C 0.40623(13) 0.68953(6) 0.10187(11)
C10 C 0.55014(15) 0.75738(7) 0.11786(14)
H11 H 0.62290 0.73760 0.10720
H12 H 0.56950 0.78720 0.16460
H13 H 0.51550 0.76980 0.04880
C11 C 0.18344(18) 0.71121(8) 0.44580(15)
H14 H 0.27020 0.71210 0.46020
H15 H 0.14470 0.71730 0.51230
H16 H 0.15940 0.73840 0.39390
C12 C 0.09362(12) 0.49247(6) 0.16295(11)
C13 C 0.13276(12) 0.43032(5) 0.00194(11)
C14 C 0.06833(12) 0.44530(5) 0.09066(11)
C15 C -0.02990(12) 0.41472(6) 0.11680(11)
H17 H -0.07170 0.42400 0.17720
C16 C -0.06760(13) 0.37130(6) 0.05677(12)
H18 H -0.13570 0.35220 0.07490
C17 C -0.00488(13) 0.35614(6) -0.02975(13)
H19 H -0.02990 0.32690 -0.07170
C18 C 0.09577(12) 0.38474(6) -0.05397(12)
C19 C 0.24372(15) 0.47304(6) -0.13503(13)
H20 H 0.30000 0.44860 -0.16440
H21 H 0.27450 0.50860 -0.13980
H22 H 0.16650 0.47050 -0.17580
C20 C 0.31757(14) 0.52787(7) 0.48384(13)
C21 C 0.35851(14) 0.57530(6) 0.52795(11)
C22 C 0.44716(13) 0.60362(6) 0.47788(11)
H23 H 0.47530 0.63580 0.50730
C23 C 0.49328(13) 0.58437(6) 0.38532(11)
C24 C 0.45654(13) 0.53579(6) 0.34349(11)
H24 H 0.49100 0.52230 0.28220
C25 C 0.36944(13) 0.50740(6) 0.39193(11)
C26 C 0.31046(16) 0.59743(7) 0.62797(14)
C27 C 0.3355(2) 0.66169(8) 0.76365(14)
H25 H 0.25280 0.67400 0.75500
H26 H 0.38800 0.69090 0.78500
H27 H 0.34220 0.63460 0.81870
C28 C 0.61829(16) 0.65970(7) 0.36792(13)
H28 H 0.55080 0.68380 0.36980
H29 H 0.67660 0.67380 0.32090
H30 H 0.65590 0.65550 0.44010
C29 C 0.35953(14) 0.42931(6) 0.27257(11)
C30 C 0.20849(13) 0.35447(6) 0.31338(11)
C31 C 0.29534(13) 0.37743(6) 0.25095(11)
C32 C 0.32541(15) 0.35112(7) 0.15827(12)
H31 H 0.38530 0.36550 0.11710
C33 C 0.27032(17) 0.30466(7) 0.12468(13)
H32 H 0.29160 0.28840 0.06080
C34 C 0.18432(16) 0.28220(7) 0.18471(13)
H33 H 0.14500 0.25100 0.16200
C35 C 0.15751(14) 0.30686(6) 0.27919(12)
C36 C 0.05237(18) 0.38751(9) 0.4208(2)
H34 H 0.03630 0.42510 0.42090
H35 H 0.03220 0.37240 0.48890
H36 H 0.00390 0.37100 0.36230
C37? C 0.1270(4) 0.50742(19) 0.5302(4)
H37? H 0.12040 0.54460 0.54680
H38? H 0.08030 0.48710 0.57870
H39? H 0.09650 0.50120 0.45640
O17? O 0.2518(3) 0.49157(12) 0.5433(3)
#END
