
#######################################################################
#
#                 Cambridge Crystallographic Data Centre
#                                CCDC
#
#######################################################################
#
# If this CIF has been generated from an entry in the Cambridge
# Structural Database, then it will include bibliographic, chemical,
# crystal, experimental, refinement or atomic coordinate data resulting
# from the CCDC's data processing and validation procedures.
#
#######################################################################

data_CSD_CIF_YUXNIP
_audit_creation_date 2010-12-02
_audit_creation_method CSD-ConQuest-V1
_database_code_CSD YUXNIP
_database_code_depnum_ccdc_archive 'CCDC 746520'
_chemical_formula_sum 'C19 H20 N2 O9'
_chemical_formula_moiety
;
C19 H20 N2 O9
;
_journal_coden_Cambridge 4
_journal_volume 132
_journal_year 2010
_journal_page_first 5869
_journal_name_full 'J.Am.Chem.Soc. '
loop_
_publ_author_name
"Yan Yan"
"Bo Qin"
"Changliang Ren"
"Xiuying Chen"
"Yeow Kwan Yip"
"Ruijuan Ye"
"Dawei Zhang"
"Haibin Su"
"Huaqiang Zeng"
_chemical_name_systematic
;
Methyl 3-((2,5-dimethoxy-3-nitrobenzoyl)amino)-2,5-dimethoxybenzoate
;
_cell_volume    957.545
_exptl_crystal_colour 'colorless'
_exptl_crystal_density_diffrn 1.458
_exptl_crystal_description 'block'
_diffrn_ambient_temperature 223
#These two values have been output from a single CSD field.
_refine_ls_R_factor_gt 0.0497
_refine_ls_wR_factor_gt 0.0497
_symmetry_cell_setting triclinic
_symmetry_space_group_name_H-M 'P -1'
_symmetry_Int_Tables_number 2
loop_
_symmetry_equiv_pos_site_id
_symmetry_equiv_pos_as_xyz
1 x,y,z
2 -x,-y,-z
_cell_length_a 7.4447(4)
_cell_length_b 11.7593(7)
_cell_length_c 12.3555(7)
_cell_angle_alpha 108.336(1)
_cell_angle_beta 104.011(1)
_cell_angle_gamma 100.246(1)
_cell_formula_units_Z 2
loop_
_atom_type_symbol
_atom_type_radius_bond
C 0.68
H 0.23
N 0.68
O 0.68
loop_
_atom_site_label
_atom_site_type_symbol
_atom_site_fract_x
_atom_site_fract_y
_atom_site_fract_z
O1 O 0.25853(17) 0.27528(10) 0.58095(9)
O2 O 0.17859(18) 0.02885(10) 0.43243(11)
O3 O 0.3554(2) 0.01212(13) 0.30936(16)
O4 O 0.2544(2) 0.37359(12) 0.17256(10)
O5 O 0.23173(18) 0.6648(1) 0.52675(9)
O6 O 0.23364(17) 0.52037(10) 0.79715(9)
O7 O 0.26073(19) 1.01606(10) 0.88813(11)
O8 O 0.3572(3) 0.61751(15) 1.04525(12)
O9 O 0.1737(2) 0.73003(14) 1.10194(11)
N1 N 0.24667(18) 0.49699(11) 0.57816(11)
H1 H 0.250(3) 0.4720(17) 0.6310(17)
N2 N 0.2568(2) 0.68638(14) 1.03172(11)
C1 C 0.2567(2) 0.29124(13) 0.47531(12)
C2 C 0.2621(2) 0.19843(13) 0.37382(13)
C3 C 0.2627(2) 0.22305(14) 0.27016(13)
H2 H 0.26880 0.16100 0.20220
C4 C 0.2544(2) 0.33854(14) 0.26807(13)
C5 C 0.2471(2) 0.43182(13) 0.36874(12)
H3 H 0.24090 0.51020 0.36630
C6 C 0.24907(19) 0.40877(13) 0.47169(12)
C7 C 0.4426(3) 0.2754(2) 0.65188(18)
H4 H 0.42970 0.20000 0.66920
H5 H 0.48910 0.34750 0.72670
H6 H 0.53340 0.27870 0.60760
C8 C 0.2732(2) 0.07142(14) 0.36859(16)
C9 C 0.1812(3) -0.09474(16) 0.4304(2)
H7 H 0.16290 -0.14980 0.34910
H8 H 0.07830 -0.12660 0.45760
H9 H 0.30410 -0.09060 0.48330
C10 C 0.2629(3) 0.28366(19) 0.06674(14)
H10 H 0.37130 0.25070 0.08740
H11 H 0.27850 0.32270 0.00990
H12 H 0.14460 0.21630 0.03080
C11 C 0.23926(19) 0.61556(12) 0.60039(12)
C12 C 0.2370(2) 0.64175(13) 0.81700(12)
C13 C 0.24307(19) 0.68897(12) 0.72668(12)
C14 C 0.2539(2) 0.81419(13) 0.74984(12)
H13 H 0.26110 0.84570 0.68940
C15 C 0.2542(2) 0.89362(13) 0.86029(13)
C16 C 0.2487(2) 0.84829(14) 0.95046(13)
H14 H 0.24840 0.90080 1.02560
C17 C 0.2437(2) 0.72526(14) 0.92867(12)
C18 C 0.0734(3) 0.44181(16) 0.80934(19)
H15 H -0.00430 0.49230 0.84270
H16 H 0.12130 0.40070 0.86260
H17 H -0.00460 0.37960 0.73100
C19 C 0.2791(3) 1.06724(15) 0.79965(16)
H18 H 0.39560 1.05730 0.78040
H19 H 0.28590 1.15510 0.83080
H20 H 0.16840 1.02410 0.72760
#END
