
#######################################################################
#
#                 Cambridge Crystallographic Data Centre
#                                CCDC
#
#######################################################################
#
# If this CIF has been generated from an entry in the Cambridge
# Structural Database, then it will include bibliographic, chemical,
# crystal, experimental, refinement or atomic coordinate data resulting
# from the CCDC's data processing and validation procedures.
#
#######################################################################

data_CSD_CIF_YUXNOV
_audit_creation_date 2010-12-02
_audit_creation_method CSD-ConQuest-V1
_database_code_CSD YUXNOV
_database_code_depnum_ccdc_archive 'CCDC 746521'
_chemical_formula_sum 'C28 H29 N3 O12'
_chemical_formula_moiety
;
C28 H29 N3 O12
;
_journal_coden_Cambridge 4
_journal_volume 132
_journal_year 2010
_journal_page_first 5869
_journal_name_full 'J.Am.Chem.Soc. '
loop_
_publ_author_name
"Yan Yan"
"Bo Qin"
"Changliang Ren"
"Xiuying Chen"
"Yeow Kwan Yip"
"Ruijuan Ye"
"Dawei Zhang"
"Haibin Su"
"Huaqiang Zeng"
_chemical_name_systematic
;
Methyl 
3-((3-((2,5-dimethoxy-3-nitrobenzoyl)amino)-2,5-dimethoxybenzoyl)amino)-2,5-di
methoxybenzoate
;
_cell_volume   1385.154
_exptl_crystal_colour 'yellow'
_exptl_crystal_density_diffrn 1.437
_exptl_crystal_description 'block'
_diffrn_ambient_temperature 295
#These two values have been output from a single CSD field.
_refine_ls_R_factor_gt 0.0559
_refine_ls_wR_factor_gt 0.0559
_symmetry_cell_setting triclinic
_symmetry_space_group_name_H-M 'P -1'
_symmetry_Int_Tables_number 2
loop_
_symmetry_equiv_pos_site_id
_symmetry_equiv_pos_as_xyz
1 x,y,z
2 -x,-y,-z
_cell_length_a 7.6819(6)
_cell_length_b 12.8663(9)
_cell_length_c 15.3441(11)
_cell_angle_alpha 70.197(1)
_cell_angle_beta 84.768(2)
_cell_angle_gamma 76.122(2)
_cell_formula_units_Z 2
loop_
_atom_type_symbol
_atom_type_radius_bond
C 0.68
H 0.23
N 0.68
O 0.68
loop_
_atom_site_label
_atom_site_type_symbol
_atom_site_fract_x
_atom_site_fract_y
_atom_site_fract_z
O1 O -0.03280(18) 0.59870(11) 0.28867(9)
O2 O -0.2262(2) 0.32877(12) 0.48872(11)
O3 O -0.0708(3) 0.37544(13) 0.35767(11)
O4 O -0.3904(2) 0.65422(12) 0.60385(9)
O5 O -0.1518(2) 0.93726(12) 0.37859(10)
O6 O 0.17373(18) 0.81821(10) 0.18510(9)
O7 O -0.0710(2) 1.27920(11) 0.10373(10)
O8 O 0.2809(2) 1.10404(11) -0.10328(9)
O9 O 0.46558(19) 0.75478(11) 0.02910(9)
O10 O 0.6288(2) 0.97304(12) -0.33683(9)
O11 O 0.7401(3) 0.56763(13) -0.11922(13)
O12 O 0.7659(3) 0.59764(14) 0.00760(12)
N1 N -0.0983(2) 0.79734(14) 0.31432(12)
H1 H -0.055(3) 0.7818(17) 0.2687(14)
N2 N 0.2672(2) 0.95671(14) 0.02701(11)
H2 H 0.302(3) 0.8882(19) 0.0476(14)
N3 N 0.7150(2) 0.62840(14) -0.07154(13)
C1 C -0.1318(2) 0.60604(16) 0.36662(12)
C2 C -0.1889(2) 0.51502(15) 0.43219(12)
C3 C -0.2768(3) 0.52937(16) 0.51300(13)
H3 H -0.31450 0.46890 0.55730
C4 C -0.3074(3) 0.63231(16) 0.52691(13)
C5 C -0.2534(3) 0.72376(17) 0.46109(13)
H4 H -0.27740 0.79360 0.47030
C6 C -0.1643(2) 0.71081(16) 0.38214(12)
C7 C -0.1332(3) 0.6085(2) 0.21069(14)
H5 H -0.20970 0.55540 0.22970
H6 H -0.05210 0.59240 0.16310
H7 H -0.20510 0.68400 0.18720
C8 C -0.1533(3) 0.40148(16) 0.41980(13)
C9 C -0.2075(4) 0.21687(18) 0.48256(18)
H8 H -0.23890 0.22340 0.42150
H9 H -0.28560 0.17760 0.52730
H10 H -0.08560 0.17540 0.49490
C10 C -0.4135(3) 0.56072(19) 0.68174(14)
H11 H -0.49290 0.52230 0.66640
H12 H -0.46380 0.58690 0.73220
H13 H -0.29940 0.50950 0.69950
C11 C -0.0921(3) 0.90070(16) 0.31583(13)
C12 C 0.1038(2) 0.93306(14) 0.16873(13)
C13 C -0.0135(3) 0.97353(16) 0.22969(13)
C14 C -0.0729(2) 1.09028(16) 0.21005(13)
H14 H -0.14700 1.11880 0.25190
C15 C -0.0213(3) 1.16341(15) 0.12834(13)
C16 C 0.0864(2) 1.12347(15) 0.06382(13)
H15 H 0.11450 1.17370 0.00750
C17 C 0.1518(2) 1.00795(15) 0.08412(12)
C18 C 0.3207(3) 0.77109(19) 0.24772(18)
H16 H 0.42680 0.79300 0.21640
H17 H 0.34010 0.69000 0.26950
H18 H 0.29410 0.79870 0.29940
C19 C -0.1754(4) 1.32647(18) 0.16789(16)
H19 H -0.28650 1.30220 0.17980
H20 H -0.19940 1.40760 0.14260
H21 H -0.11080 1.30160 0.22470
C20 C 0.3226(2) 1.00346(15) -0.06008(12)
C21 C 0.5091(2) 0.80563(15) -0.06144(12)
C22 C 0.4426(2) 0.92261(15) -0.10467(12)
C23 C 0.4891(2) 0.97272(15) -0.19614(12)
H22 H 0.44660 1.05030 -0.22380
C24 C 0.5957(3) 0.91214(16) -0.24787(12)
C25 C 0.6626(3) 0.79749(17) -0.20673(13)
H23 H 0.73330 0.75460 -0.24040
C26 C 0.6221(3) 0.74763(15) -0.11420(13)
C27 C 0.3839(3) 0.65884(18) 0.05173(16)
H24 H 0.26410 0.67810 0.07450
H25 H 0.45290 0.59590 0.09850
H26 H 0.38030 0.63860 -0.00270
C28 C 0.7318(5) 0.9135(2) -0.39333(18)
H27 H 0.85190 0.88330 -0.37030
H28 H 0.73430 0.96420 -0.45570
H29 H 0.67910 0.85260 -0.39240
#END
