
#######################################################################
#
#                 Cambridge Crystallographic Data Centre
#                                CCDC
#
#######################################################################
#
# If this CIF has been generated from an entry in the Cambridge
# Structural Database, then it will include bibliographic, chemical,
# crystal, experimental, refinement or atomic coordinate data resulting
# from the CCDC's data processing and validation procedures.
#
#######################################################################

data_CSD_CIF_YUYFIH
_audit_creation_date 1995-10-18
_audit_creation_method CSD-ConQuest-V1
_database_code_CSD YUYFIH
_database_code_depnum_ccdc_archive 'CCDC 1022254'
_chemical_formula_sum 'C11 H17 N1 O3'
_chemical_formula_moiety
;
C11 H17 N1 O3
;
_journal_coeditor_code "IUCr NA1129"
_journal_coden_Cambridge 591
_journal_volume 51
_journal_year 1995
_journal_page_first 1314
_journal_name_full 'Acta Crystallogr.,Sect.C:Cryst.Struct.Commun. '
loop_
_publ_author_name
"A.Alvarez-Larena"
"J.F.Piniella"
"P.Cid"
"P.de March"
"M.Figueredo"
"J.Font"
"S.Milan"
"A.Soria"
_chemical_name_systematic
;
(5aRS,11aRS,11bRS)-Decahydro-1H-oxepino(3',4':4,5)isoxazolo(2,3-a)pyridin-1-on
e.
;
_cell_volume   1078.291
_exptl_crystal_colour 'Colorless'
_exptl_crystal_density_diffrn 1.301
_diffrn_ambient_temperature ?
_diffrn_special_details
;
The study was carried out at room temperature,in the range 283-303K

;
#These two values have been output from a single CSD field.
_refine_ls_R_factor_gt 0.0367
_refine_ls_wR_factor_gt 0.0367
_symmetry_cell_setting monoclinic
_symmetry_space_group_name_H-M 'P 21/n'
_symmetry_Int_Tables_number 14
loop_
_symmetry_equiv_pos_site_id
_symmetry_equiv_pos_as_xyz
1 x,y,z
2 1/2-x,1/2+y,1/2-z
3 -x,-y,-z
4 -1/2+x,-1/2-y,-1/2+z
_cell_length_a 6.0456(7)
_cell_length_b 16.735(3)
_cell_length_c 10.786(2)
_cell_angle_alpha 90
_cell_angle_beta 98.84(1)
_cell_angle_gamma 90
_cell_formula_units_Z 4
loop_
_atom_type_symbol
_atom_type_radius_bond
C 0.68
H 0.23
N 0.68
O 0.68
loop_
_atom_site_label
_atom_site_type_symbol
_atom_site_fract_x
_atom_site_fract_y
_atom_site_fract_z
C1 C 0.2531(3) 0.08231(9) 0.51460(14)
H1 H 0.3156(3) 0.03222(9) 0.55187(14)
O1 O 0.1079(2) 0.06517(8) 0.40013(10)
N1 N 0.2673(2) 0.05636(8) 0.31134(12)
C2 C 0.1403(3) 0.05405(13) 0.1847(2)
H2 H 0.0445(3) 0.10064(13) 0.1698(2)
H3 H 0.0476(3) 0.00653(13) 0.1736(2)
C3 C 0.3110(3) 0.05316(12) 0.0948(2)
H4 H 0.3968(3) 0.00402(12) 0.1063(2)
H5 H 0.2330(3) 0.05406(12) 0.0092(2)
C4 C 0.4692(3) 0.12361(12) 0.1149(2)
H6 H 0.3883(3) 0.17214(12) 0.0877(2)
H7 H 0.5871(3) 0.11679(12) 0.0641(2)
C5 C 0.5732(3) 0.13198(12) 0.2523(2)
H8 H 0.6743(3) 0.08776(12) 0.2767(2)
H9 H 0.6579(3) 0.18133(12) 0.2647(2)
C6 C 0.3874(3) 0.13228(9) 0.33126(14)
H10 H 0.2841(3) 0.17621(9) 0.30403(14)
C7 C 0.4449(3) 0.13353(9) 0.47375(14)
H11 H 0.5877(3) 0.10584(9) 0.49862(14)
C8 C 0.4638(3) 0.21730(11) 0.5258(2)
O2 O 0.4534(3) 0.27652(8) 0.46210(13)
O3 O 0.5001(3) 0.22624(8) 0.65122(11)
C9 C 0.4938(4) 0.15686(12) 0.7310(2)
H12 H 0.5653(4) 0.16968(12) 0.8154(2)
H13 H 0.5770(4) 0.11356(12) 0.7001(2)
C10 C 0.2574(3) 0.13021(12) 0.7343(2)
H14 H 0.1852(3) 0.16838(12) 0.7827(2)
H15 H 0.2602(3) 0.07899(12) 0.7766(2)
C11 C 0.1198(3) 0.12239(11) 0.6038(2)
H16 H -0.0140(3) 0.09140(11) 0.6091(2)
H17 H 0.0738(3) 0.17503(11) 0.5722(2)
#END
