
#######################################################################
#
#                 Cambridge Crystallographic Data Centre
#                                CCDC
#
#######################################################################
#
# If this CIF has been generated from an entry in the Cambridge
# Structural Database, then it will include bibliographic, chemical,
# crystal, experimental, refinement or atomic coordinate data resulting
# from the CCDC's data processing and validation procedures.
#
#######################################################################

data_CSD_CIF_YUYFAZ
_audit_creation_date 1995-10-18
_audit_creation_method CSD-ConQuest-V1
_database_code_CSD YUYFAZ
_database_code_depnum_ccdc_archive 'CCDC 1022252'
_chemical_formula_sum 'C9 H13 N1 O3'
_chemical_formula_moiety
;
C9 H13 N1 O3
;
_journal_coeditor_code "IUCr NA1129"
_journal_coden_Cambridge 591
_journal_volume 51
_journal_year 1995
_journal_page_first 1314
_journal_name_full 'Acta Crystallogr.,Sect.C:Cryst.Struct.Commun. '
loop_
_publ_author_name
"A.Alvarez-Larena"
"J.F.Piniella"
"P.Cid"
"P.de March"
"M.Figueredo"
"J.Font"
"S.Milan"
"A.Soria"
_chemical_name_systematic
;
(3aRS,9aSR,9bSR)-Octahydro-1H-furo(3',4':4,5)isoxazolo(2,3-a)-pyridin-1-one
;
_cell_volume   1780.178
_exptl_crystal_colour 'Colorless'
_exptl_crystal_density_diffrn 1.367
_diffrn_ambient_temperature ?
_diffrn_special_details
;
The study was carried out at room temperature,in the range 283-303K

;
#These two values have been output from a single CSD field.
_refine_ls_R_factor_gt 0.0378
_refine_ls_wR_factor_gt 0.0378
_symmetry_cell_setting orthorhombic
_symmetry_space_group_name_H-M 'P b c a'
_symmetry_Int_Tables_number 61
loop_
_symmetry_equiv_pos_site_id
_symmetry_equiv_pos_as_xyz
1 x,y,z
2 1/2-x,-y,1/2+z
3 1/2+x,1/2-y,-z
4 -x,1/2+y,1/2-z
5 -x,-y,-z
6 -1/2+x,y,-1/2-z
7 -1/2-x,-1/2+y,z
8 x,-1/2-y,-1/2+z
_cell_length_a 8.653(1)
_cell_length_b 11.418(5)
_cell_length_c 18.018(2)
_cell_angle_alpha 90
_cell_angle_beta 90
_cell_angle_gamma 90
_cell_formula_units_Z 8
loop_
_atom_type_symbol
_atom_type_radius_bond
C 0.68
H 0.23
N 0.68
O 0.68
loop_
_atom_site_label
_atom_site_type_symbol
_atom_site_fract_x
_atom_site_fract_y
_atom_site_fract_z
C1 C 0.0400(2) 0.5197(2) 0.19147(12)
H1 H -0.0609(2) 0.5464(2) 0.17352(12)
O1 O 0.1574(2) 0.54123(12) 0.13788(9)
N1 N 0.2580(2) 0.4360(2) 0.14051(9)
C2 C 0.3465(3) 0.4390(2) 0.07098(12)
H2 H 0.4257(3) 0.3790(2) 0.07335(12)
H3 H 0.3985(3) 0.5141(2) 0.06769(12)
C3 C 0.2542(3) 0.4210(2) 0.00074(13)
H4 H 0.1851(3) 0.4869(2) -0.00668(13)
H5 H 0.3236(3) 0.4168(2) -0.04146(13)
C4 C 0.1614(3) 0.3093(2) 0.00593(14)
H6 H 0.2304(3) 0.2428(2) 0.01098(14)
H7 H 0.1008(3) 0.2988(2) -0.03886(14)
C5 C 0.0550(3) 0.3165(2) 0.07301(12)
H8 H -0.0203(3) 0.3782(2) 0.06511(12)
H9 H -0.0006(3) 0.2432(2) 0.07814(12)
C6 C 0.1433(2) 0.3409(2) 0.14379(11)
H10 H 0.1937(2) 0.2688(2) 0.16067(11)
C7 C 0.0398(2) 0.3874(2) 0.20494(11)
H11 H -0.0645(2) 0.3542(2) 0.20256(11)
C8 C 0.1111(2) 0.3731(2) 0.28018(12)
O2 O 0.1479(2) 0.28292(14) 0.31043(9)
O3 O 0.1378(2) 0.47724(13) 0.31223(8)
C9 C 0.0754(3) 0.5704(2) 0.26696(14)
H12 H 0.1499(3) 0.6335(2) 0.26252(14)
H13 H -0.0180(3) 0.6014(2) 0.28933(14)
#END
