
#######################################################################
#
#                 Cambridge Crystallographic Data Centre
#                                CCDC
#
#######################################################################
#
# If this CIF has been generated from an entry in the Cambridge
# Structural Database, then it will include bibliographic, chemical,
# crystal, experimental, refinement or atomic coordinate data resulting
# from the CCDC's data processing and validation procedures.
#
#######################################################################

data_CSD_CIF_YUYJUY
_audit_creation_date 2010-11-24
_audit_creation_method CSD-ConQuest-V1
_database_code_CSD YUYJUY
_database_code_depnum_ccdc_archive 'CCDC 785652'
_chemical_formula_sum 'C44 H56 N2 O12'
_chemical_formula_moiety
;
C44 H56 N2 O12
;
_journal_coden_Cambridge 4
_journal_volume 132
_journal_year 2010
_journal_page_first 5300
_journal_name_full 'J.Am.Chem.Soc. '
loop_
_publ_author_name
"M.A.Boone"
"Rongbiao Tong"
"F.E.McDonald"
"S.Lense"
"Rui Cao"
"K.I.Hardcastle"
_chemical_name_systematic
;
4,4,7a,12,12,15a,19b-Heptamethyl-8,17-dioxodocosahydro-2H-oxepino[2',3':6,7]cy
cloundeca[1,2-g][1]benzoxepine-3,13-diyl bis(4-nitrobenzoate) unknown solvate
;
_chemical_melting_point 416.15
_cell_volume   4795.607
_exptl_crystal_colour 'colorless'
_exptl_crystal_density_diffrn 1.115
_exptl_special_details
;
Melting point range 416.15-419.15K
Absolute configuration

;
_exptl_crystal_description 'needle'
_diffrn_ambient_temperature 173
_refine_special_details
;
The SQUEEZE/PLATON program has been used to model some disorder. The unit 
cell was found to contain 4 voids. Two voids of 370 A$3! and 418 A$3! were 
both found to contain 33 electrons. Two voids of 28 A3! each hold 2 
electrons. Neither the paper nor deposited cif give details of the origin of 
the SQUEEZEd electron density.
;
#These two values have been output from a single CSD field.
_refine_ls_R_factor_gt 0.0905
_refine_ls_wR_factor_gt 0.0905
_symmetry_cell_setting monoclinic
_symmetry_space_group_name_H-M 'P 21'
_symmetry_Int_Tables_number 4
loop_
_symmetry_equiv_pos_site_id
_symmetry_equiv_pos_as_xyz
1 x,y,z
2 -x,1/2+y,-z
_cell_length_a 16.924(14)
_cell_length_b 7.236(6)
_cell_length_c 39.64(3)
_cell_angle_alpha 90
_cell_angle_beta 98.926(10)
_cell_angle_gamma 90
_cell_formula_units_Z 4
loop_
_atom_type_symbol
_atom_type_radius_bond
C 0.68
H 0.23
N 0.68
O 0.68
loop_
_atom_site_label
_atom_site_type_symbol
_atom_site_fract_x
_atom_site_fract_y
_atom_site_fract_z
C1 C -0.2720(9) 0.1719(17) -0.7201(4)
C2 C -0.1875(10) 0.1495(18) -0.7087(4)
H1 H -0.16270 0.19610 -0.68720
C3 C -0.1435(9) 0.0566(18) -0.7304(4)
H2 H -0.08800 0.03470 -0.72370
C4 C -0.1832(8) -0.0045(17) -0.7626(3)
C5 C -0.2634(8) 0.0207(16) -0.7712(3)
H3 H -0.28930 -0.02800 -0.79240
C6 C -0.3085(9) 0.1131(17) -0.7509(3)
H4 H -0.36380 0.13510 -0.75820
C7 C -0.1299(8) -0.1001(18) -0.7816(3)
C8 C -0.1274(8) -0.2623(17) -0.8355(3)
H5 H -0.06930 -0.26760 -0.82580
C9 C -0.1380(7) -0.1613(16) -0.8695(3)
H6 H -0.12390 -0.24880 -0.88690
H7 H -0.09810 -0.06020 -0.86760
C10 C -0.2197(6) -0.0776(16) -0.8836(3)
H8 H -0.21320 0.00420 -0.90300
H9 H -0.23700 0.00050 -0.86560
C11 C -0.2881(8) -0.2199(19) -0.8960(4)
C12 C -0.2947(7) -0.3550(18) -0.8691(3)
H10 H -0.29120 -0.28910 -0.84670
C13 C -0.1656(8) -0.4775(18) -0.8379(5)
C14 C -0.1975(9) -0.549(2) -0.8040(3)
H11 H -0.21710 -0.67560 -0.80750
H12 H -0.24100 -0.46840 -0.79920
H13 H -0.15370 -0.54520 -0.78470
C15 C -0.0973(8) -0.5879(17) -0.8497(3)
H14 H -0.11250 -0.71840 -0.85220
H15 H -0.04880 -0.57590 -0.83280
H16 H -0.08700 -0.53970 -0.87170
C16 C -0.3709(7) -0.4730(13) -0.8747(3)
H17 H -0.35530 -0.60470 -0.87200
H18 H -0.39760 -0.45560 -0.89850
C17 C -0.4317(8) -0.4306(16) -0.8505(3)
H19 H -0.45090 -0.54930 -0.84240
H20 H -0.40360 -0.36390 -0.83040
C18 C -0.5045(8) -0.3167(18) -0.8659(4)
C19 C -0.5606(7) -0.2203(16) -0.8463(3)
C20 C -0.5987(7) -0.0498(13) -0.8642(3)
H21 H -0.61700 -0.08840 -0.88830
C21 C -0.5370(7) 0.1009(14) -0.8660(3)
H22 H -0.56570 0.22010 -0.86970
H23 H -0.50250 0.10810 -0.84350
C22 C -0.4840(7) 0.0827(18) -0.8926(3)
H24 H -0.47150 0.20770 -0.90040
H25 H -0.51340 0.01570 -0.91250
C23 C -0.4064(9) -0.0183(15) -0.8804(4)
C24 C -0.3668(7) -0.1169(19) -0.9088(3)
H26 H -0.40560 -0.20640 -0.92070
H27 H -0.35620 -0.02300 -0.92570
C25 C -0.2686(8) -0.313(2) -0.9291(3)
H28 H -0.31040 -0.40290 -0.93730
H29 H -0.21690 -0.37600 -0.92420
H30 H -0.26630 -0.21830 -0.94660
C26 C -0.5174(6) -0.1957(14) -0.8078(3)
H31 H -0.47460 -0.10380 -0.80700
H32 H -0.49460 -0.31420 -0.79920
H33 H -0.55650 -0.15390 -0.79360
C27 C -0.6235(8) -0.3722(16) -0.8439(3)
H34 H -0.59770 -0.47560 -0.83000
H35 H -0.64280 -0.42030 -0.86700
C28 C -0.6970(7) -0.3028(15) -0.8277(3)
H36 H -0.67960 -0.26580 -0.80360
H37 H -0.73720 -0.40270 -0.82810
C29 C -0.7345(7) -0.1325(15) -0.8491(3)
H38 H -0.75750 -0.17340 -0.87270
C30 C -0.6752(7) 0.0237(14) -0.8509(3)
C31 C -0.6603(6) 0.1279(15) -0.8155(3)
H39 H -0.71160 0.16870 -0.80960
H40 H -0.62600 0.23550 -0.81720
H41 H -0.63410 0.04400 -0.79780
C32 C -0.7176(6) 0.1551(15) -0.8785(3)
H42 H -0.68210 0.26300 -0.87950
H43 H -0.72140 0.09050 -0.90070
C33 C -0.7996(7) 0.2283(16) -0.8756(3)
H44 H -0.81150 0.33160 -0.89200
H45 H -0.79810 0.28000 -0.85240
C34 C -0.8689(8) 0.0895(16) -0.8821(3)
H46 H -0.92000 0.16090 -0.88680
C35 C -0.8737(8) -0.0344(19) -0.8530(4)
C36 C -0.9135(7) -0.2283(16) -0.8633(3)
H47 H -0.88380 -0.29040 -0.87940
H48 H -0.96910 -0.20980 -0.87410
H49 H -0.91240 -0.30470 -0.84280
C37 C -0.9226(7) 0.0540(16) -0.8255(3)
H50 H -0.89910 0.17380 -0.81790
H51 H -0.92000 -0.02900 -0.80580
H52 H -0.97850 0.07150 -0.83580
C38 C -0.8834(8) 0.0628(18) -0.9413(4)
C39 C -0.8873(7) -0.0605(17) -0.9720(3)
C40 C -0.8910(7) -0.2611(17) -0.9659(3)
H53 H -0.88820 -0.30830 -0.94340
C41 C -0.8985(8) -0.3811(17) -0.9942(3)
H54 H -0.89870 -0.51170 -0.99170
C42 C -0.9055(6) -0.3003(18) -1.0252(3)
C43 C -0.9023(7) -0.1106(19) -1.0321(3)
H55 H -0.90420 -0.06510 -1.05470
C44 C -0.8960(7) 0.0073(16) -1.0041(3)
H56 H -0.89800 0.13730 -1.00750
C45 C -0.6911(10) 0.045(2) -0.5689(4)
C46 C -0.6326(9) 0.135(2) -0.5825(4)
H57 H -0.60460 0.23690 -0.57110
C47 C -0.6157(8) 0.0721(19) -0.6142(4)
H58 H -0.57320 0.12340 -0.62420
C48 C -0.6654(8) -0.0739(16) -0.6309(3)
C49 C -0.7249(8) -0.1540(15) -0.6175(3)
H59 H -0.75610 -0.24990 -0.62930
C50 C -0.7399(8) -0.0900(17) -0.5847(4)
H60 H -0.78240 -0.13980 -0.57450
C51 C -0.6483(9) -0.1267(18) -0.6649(4)
C52 C -0.6982(8) -0.2961(15) -0.7189(3)
H61 H -0.65130 -0.23460 -0.72680
C53 C -0.7757(8) -0.2341(15) -0.7393(3)
H62 H -0.77990 -0.29520 -0.76190
H63 H -0.77050 -0.10000 -0.74340
C54 C -0.8548(9) -0.2618(16) -0.7270(3)
H64 H -0.84970 -0.21100 -0.70360
H65 H -0.89510 -0.18570 -0.74160
C55 C -0.8871(8) -0.4512(14) -0.7263(3)
C56 C -0.8244(7) -0.5744(15) -0.7046(3)
H66 H -0.80200 -0.50690 -0.68320
C57 C -0.6866(7) -0.5098(16) -0.7160(3)
C58 C -0.6437(7) -0.5747(16) -0.6819(3)
H67 H -0.64010 -0.70980 -0.68190
H68 H -0.67340 -0.53470 -0.66380
H69 H -0.58980 -0.52170 -0.67780
C59 C -0.6376(7) -0.5572(15) -0.7438(3)
H70 H -0.62810 -0.69080 -0.74390
H71 H -0.58620 -0.49220 -0.73950
H72 H -0.66680 -0.51930 -0.76610
C60 C -0.9107(7) -0.5299(15) -0.7636(3)
H73 H -0.86250 -0.54250 -0.77430
H74 H -0.94810 -0.44490 -0.77710
H75 H -0.93610 -0.65110 -0.76260
C61 C -0.8542(7) -0.7697(14) -0.6949(3)
H76 H -0.81520 -0.86460 -0.69960
H77 H -0.90600 -0.79710 -0.70940
C62 C -0.8649(8) -0.7805(16) -0.6562(3)
H78 H -0.84230 -0.89950 -0.64690
H79 H -0.83260 -0.68070 -0.64370
C63 C -0.9482(8) -0.7653(16) -0.6485(4)
C64 C -0.9612(8) -0.7328(16) -0.6115(3)
C65 C -1.0408(8) -0.6292(13) -0.6112(3)
H80 H -1.08030 -0.68700 -0.62960
C66 C -1.0368(7) -0.4206(15) -0.6208(3)
H81 H -0.98700 -0.36720 -0.60810
H82 H -1.08240 -0.35560 -0.61330
C67 C -1.0386(7) -0.3819(18) -0.6605(3)
H83 H -1.07620 -0.47160 -0.67320
H84 H -1.06190 -0.25750 -0.66540
C68 C -0.9647(8) -0.3896(18) -0.6750(5)
C69 C -0.9654(8) -0.4374(16) -0.7106(3)
H85 H -0.99990 -0.34560 -0.72440
H86 H -0.99280 -0.55820 -0.71440
C70 C -0.8861(6) -0.6312(15) -0.5912(3)
H87 H -0.83790 -0.70390 -0.59260
H88 H -0.89300 -0.61770 -0.56720
H89 H -0.88080 -0.50870 -0.60110
C71 C -0.9696(7) -0.9310(15) -0.5980(3)
H90 H -1.00870 -0.99910 -0.61460
H91 H -0.91740 -0.99450 -0.59670
C72 C -0.9960(8) -0.9415(17) -0.5635(3)
H92 H -0.95700 -0.87660 -0.54630
H93 H -0.99900 -1.07210 -0.55640
C73 C -1.0784(8) -0.8503(15) -0.5659(3)
H94 H -1.11810 -0.92240 -0.58210
C74 C -1.0770(7) -0.6446(13) -0.5787(3)
C75 C -1.1699(7) -0.5944(15) -0.5868(3)
H95 H -1.17340 -0.46120 -0.59250
H96 H -1.19210 -0.66200 -0.60790
C76 C -1.2271(8) -0.6291(15) -0.5608(3)
H97 H -1.20360 -0.57350 -0.53870
H98 H -1.27820 -0.56460 -0.56880
C77 C -1.2445(7) -0.8272(17) -0.5551(3)
H99 H -1.29510 -0.83430 -0.54500
C78 C -1.1796(10) -0.9245(16) -0.5312(3)
C79 C -1.1844(8) -1.1317(14) -0.5345(3)
H100 H -1.17790 -1.16780 -0.55770
H101 H -1.23660 -1.17410 -0.52980
H102 H -1.14190 -1.18820 -0.51810
C80 C -1.1880(8) -0.8800(18) -0.4931(3)
H103 H -1.18950 -0.74570 -0.49000
H104 H -1.14220 -0.93160 -0.47790
H105 H -1.23750 -0.93480 -0.48780
C81 C -1.3315(12) -0.960(2) -0.6019(4)
C82 C -1.3345(11) -1.0689(18) -0.6363(4)
C83 C -1.2645(8) -1.1521(17) -0.6445(4)
H106 H -1.21670 -1.14250 -0.62860
C84 C -1.2618(9) -1.2462(18) -0.6744(4)
H107 H -1.21600 -1.30390 -0.68080
C85 C -1.3386(12) -1.2425(18) -0.6938(4)
C86 C -1.4057(10) -1.170(2) -0.6863(4)
H108 H -1.45440 -1.18020 -0.70180
C87 C -1.4033(9) -1.084(2) -0.6571(4)
H109 H -1.45060 -1.03230 -0.65090
C88 C -1.0375(6) -0.5260(13) -0.5471(3)
H110 H -0.98070 -0.55760 -0.54140
H111 H -1.06440 -0.55250 -0.52740
H112 H -1.04300 -0.39430 -0.55270
N1 N -0.3223(11) 0.2690(19) -0.6964(4)
N2 N -0.9215(7) -0.4284(17) -1.0559(3)
N3 N -0.7110(9) 0.1175(16) -0.5349(3)
N4 N -1.3366(11) -1.3432(17) -0.7292(4)
O1 O -0.2842(7) 0.3238(13) -0.6677(3)
O2 O -0.3899(8) 0.2826(16) -0.7064(3)
O3 O -0.0614(5) -0.1362(14) -0.7747(2)
O4 O -0.1703(5) -0.1588(10) -0.8123(2)
O5 O -0.9221(6) -0.5877(15) -1.0487(2)
O6 O -0.9305(5) -0.3554(13) -1.0841(2)
O7 O -0.8987(5) 0.2296(12) -0.9455(2)
O8 O -0.8623(5) -0.0167(9) -0.9110(2)
O9 O -0.7973(5) -0.0767(10) -0.83100(18)
O10 O -0.5224(5) -0.3257(10) -0.8978(2)
O11 O -0.3743(5) -0.016(1) -0.8508(2)
O12 O -0.2266(5) -0.4892(10) -0.8672(2)
O13 O -0.6676(6) 0.2266(18) -0.5209(3)
O14 O -0.7726(8) 0.0605(15) -0.5252(3)
O15 O -0.5921(6) -0.0729(14) -0.6777(2)
O16 O -0.7072(5) -0.2360(11) -0.6818(2)
O17 O -0.7607(5) -0.6067(10) -0.72466(18)
O18 O -0.8987(5) -0.3471(9) -0.65597(19)
O19 O -1.0064(5) -0.7979(10) -0.6701(2)
O20 O -1.0999(6) -0.8584(10) -0.5327(2)
O21 O -1.2557(6) -0.9312(12) -0.5863(2)
O22 O -1.3883(7) -0.9082(18) -0.5912(3)
O23 O -1.2725(9) -1.4126(15) -0.7343(3)
O24 O -1.4019(8) -1.3516(17) -0.7474(3)
#END
