
#######################################################################
#
#                 Cambridge Crystallographic Data Centre
#                                CCDC
#
#######################################################################
#
# If this CIF has been generated from an entry in the Cambridge
# Structural Database, then it will include bibliographic, chemical,
# crystal, experimental, refinement or atomic coordinate data resulting
# from the CCDC's data processing and validation procedures.
#
#######################################################################

data_CSD_CIF_YUYJUX
_audit_creation_date 1995-10-19
_audit_creation_method CSD-ConQuest-V1
_database_code_CSD YUYJUX
_chemical_formula_sum 'C15 H19 N3 O7'
_chemical_formula_moiety
;
C15 H19 N3 O7
;
_journal_coeditor_code "IUCr KA1102"
_journal_coden_Cambridge 591
_journal_volume 51
_journal_year 1995
_journal_page_first 1347
_journal_name_full 'Acta Crystallogr.,Sect.C:Cryst.Struct.Commun. '
loop_
_publ_author_name
"L.Van Meervelt"
"P.Kong Thoo Lin"
"D.M.Brown"
_chemical_name_systematic
;
6-(3,5-Di-O-acetyl-\b-D-2-deoxyribofuranosyl)-3,4-dihydro-8H-pyrimido(4,5-c)(1
,2)oxazin-7(6H)-one
;
_cell_volume   1671.051
_exptl_crystal_colour 'white'
_exptl_crystal_density_diffrn 1.404
_diffrn_ambient_temperature ?
_diffrn_special_details
;
The study was carried out at room temperature,in the range 283-303K

;
_refine_special_details
;
O4B1 and C7B1 of the oxazine ring are disordered and were refined at half 
occupancy.
;
#These two values have been output from a single CSD field.
_refine_ls_R_factor_gt 0.0692
_refine_ls_wR_factor_gt 0.0692
_symmetry_cell_setting monoclinic
_symmetry_space_group_name_H-M 'P 21'
_symmetry_Int_Tables_number 4
loop_
_symmetry_equiv_pos_site_id
_symmetry_equiv_pos_as_xyz
1 x,y,z
2 -x,1/2+y,-z
_cell_length_a 14.662(3)
_cell_length_b 5.419(1)
_cell_length_c 21.475(4)
_cell_angle_alpha 90
_cell_angle_beta 101.66(3)
_cell_angle_gamma 90
_cell_formula_units_Z 4
loop_
_atom_type_symbol
_atom_type_radius_bond
C 0.68
H 0.23
N 0.68
O 0.68
loop_
_atom_site_label
_atom_site_type_symbol
_atom_site_fract_x
_atom_site_fract_y
_atom_site_fract_z
N1 N 0.3420(2) 0.05010 0.20934(12)
C1 C 0.3935(3) 0.2388(8) 0.24522(15)
N2 N 0.3764(2) 0.2614(7) 0.30448(11)
H1 H 0.4086(2) 0.3802(7) 0.32884(11)
C2 C 0.3124(3) 0.1260(8) 0.33145(14)
C3 C 0.2667(2) -0.0732(8) 0.29375(14)
C4 C 0.2814(2) -0.0977(9) 0.2350(2)
H2 H 0.2492(2) -0.2210(9) 0.2095(2)
O1 O 0.4477(2) 0.3609(6) 0.22321(10)
N3 N 0.3090(2) 0.2008(8) 0.38743(14)
O2 O 0.2416(2) 0.0558(7) 0.41490(12)
C5 C 0.2337(3) -0.1846(9) 0.3941(2)
H3 H 0.1916(3) -0.2707(9) 0.4161(2)
H4 H 0.2942(3) -0.2630(9) 0.4059(2)
C6 C 0.1998(3) -0.2149(10) 0.32499(15)
H5 H 0.1372(3) -0.1495(10) 0.31220(15)
H6 H 0.1992(3) -0.3879(10) 0.31332(15)
C7 C 0.3481(2) 0.0204(8) 0.1421(2)
H7 H 0.3948(2) 0.1345(8) 0.1318(2)
C8 C 0.3683(3) -0.2368(8) 0.12240(14)
H8 H 0.3450(3) -0.3584(8) 0.14844(14)
H9 H 0.4347(3) -0.2613(8) 0.12609(14)
C9 C 0.3179(2) -0.2555(8) 0.05396(13)
H10 H 0.2990(2) -0.4252(8) 0.04188(13)
C10 C 0.2360(2) -0.0870(9) 0.0509(2)
H11 H 0.2293(2) 0.0106(9) 0.0118(2)
O3 O 0.2572(2) 0.0808(6) 0.10421(11)
O4 O 0.3808(2) -0.1542(7) 0.0152(1)
C11 C 0.3604(3) -0.2132(11) -0.0474(2)
O5 O 0.2902(2) -0.3066(8) -0.07063(14)
C12 C 0.4304(3) -0.1031(11) -0.0809(2)
H12 H 0.4229(14) -0.1729(43) -0.1227(6)
H13 H 0.4920(3) -0.1378(50) -0.0573(8)
H14 H 0.4214(14) 0.0722(13) -0.0842(13)
C13 C 0.1448(2) -0.2115(9) 0.0507(2)
H15 H 0.0963(2) -0.0886(9) 0.0492(2)
H16 H 0.1283(2) -0.3160(9) 0.0135(2)
O6 O 0.1526(2) -0.3579(6) 0.10736(11)
C14 C 0.0985(3) -0.5528(8) 0.1089(2)
O7 O 0.0441(2) -0.6203(8) 0.06143(15)
C15 C 0.1073(3) -0.6646(10) 0.1706(2)
H17 H 0.1715(4) -0.7033(48) 0.1873(6)
H18 H 0.0710(16) -0.8133(28) 0.1670(3)
H19 H 0.0853(18) -0.5520(22) 0.1988(4)
N4 N 0.3325(2) 0.5674(8) 0.71771(13)
C16 C 0.4031(3) 0.4251(10) 0.7541(2)
N5 N 0.4544(2) 0.2902(8) 0.72021(12)
H20 H 0.4996(2) 0.1928(8) 0.74177(12)
C17 C 0.4461(2) 0.3013(10) 0.6540(2)
C18 C 0.3779(3) 0.4689(9) 0.6203(2)
C19 C 0.3247(3) 0.5899(9) 0.6519(2)
H21 H 0.2797(3) 0.6955(9) 0.6296(2)
O8 O 0.4096(2) 0.4041(7) 0.81080(11)
N6 N 0.5045(2) 0.1606(7) 0.63359(12)
O9 O 0.5112(3) 0.2192(13) 0.5681(2)
C20 C 0.4432(4) 0.3381(18) 0.5282(3)
H22 H 0.4096(4) 0.2145(18) 0.4998(3)
H23 H 0.4734(4) 0.4451(18) 0.5023(3)
O10? O 0.4870(4) 0.1351(14) 0.5644(2)
C21? C 0.4052(5) 0.2348(14) 0.5360(3)
H24? H 0.3572(5) 0.1226(14) 0.5437(3)
H25? H 0.4036(5) 0.2297(14) 0.4906(3)
C22 C 0.3749(3) 0.4842(10) 0.5498(2)
H26 H 0.3137(3) 0.4328(10) 0.5274(2)
H27 H 0.3832(3) 0.6551(10) 0.5387(2)
C23 C 0.2676(3) 0.6941(8) 0.7482(2)
H28 H 0.2809(3) 0.6569(8) 0.7938(2)
C24 C 0.2578(2) 0.9667(8) 0.7381(2)
H29 H 0.2695(2) 1.0125(8) 0.6968(2)
H30 H 0.3010(2) 1.0552(8) 0.7707(2)
C25 C 0.1582(2) 1.0235(8) 0.7424(2)
H31 H 0.1337(2) 1.1606(8) 0.7142(2)
C26 C 0.1056(2) 0.7907(8) 0.7220(2)
H32 H 0.0687(2) 0.7441(8) 0.7535(2)
O11 O 0.1751(2) 0.5997(6) 0.71856(14)
O12 O 0.1588(2) 1.0863(7) 0.80889(12)
C27 C 0.0895(3) 1.238(1) 0.8201(2)
O13 O 0.0256(2) 1.2851(7) 0.78081(13)
C28 C 0.1104(3) 1.3075(11) 0.8878(2)
H33 H 0.0756(16) 1.4525(34) 0.8939(3)
H34 H 0.1758(5) 1.3408(56) 0.9009(4)
H35 H 0.0935(20) 1.1746(24) 0.9128(2)
C29 C 0.0434(3) 0.8047(10) 0.6568(2)
H36 H 0.0195(3) 0.6416(10) 0.6439(2)
H37 H -0.0091(3) 0.9118(10) 0.6583(2)
O14 O 0.0937(2) 0.8976(7) 0.61145(12)
C30 C 0.0639(3) 1.0868(10) 0.5740(2)
O15 O -0.0101(2) 1.1834(8) 0.5770(2)
C31 C 0.1239(3) 1.1564(11) 0.5315(2)
H38 H 0.1197(19) 1.3312(15) 0.5243(14)
H39 H 0.1050(16) 1.0712(52) 0.4918(6)
H40 H 0.1870(5) 1.1132(61) 0.5501(8)
#END
