
#######################################################################
#
#                 Cambridge Crystallographic Data Centre
#                                CCDC
#
#######################################################################
#
# If this CIF has been generated from an entry in the Cambridge
# Structural Database, then it will include bibliographic, chemical,
# crystal, experimental, refinement or atomic coordinate data resulting
# from the CCDC's data processing and validation procedures.
#
#######################################################################

data_CSD_CIF_YUYYIA
_audit_creation_date 1995-10-19
_audit_creation_method CSD-ConQuest-V1
_database_code_CSD YUYYIA
_chemical_formula_sum 'C15 H21 N3 O7'
_chemical_formula_moiety
;
C15 H21 N3 O7
;
_journal_coeditor_code "IUCr CR1159"
_journal_coden_Cambridge 591
_journal_volume 51
_journal_year 1995
_journal_page_first 1462
_journal_name_full 'Acta Crystallogr.,Sect.C:Cryst.Struct.Commun. '
loop_
_publ_author_name
"B.M.Burkhart"
"A.Papchikhin"
"J.Chattopadhyaya"
"M.Sundaralingam"
_chemical_name_systematic
;
2',3'-Dideoxy-3'-C,2'-N-((3R,5R)-5-ethoxycarbonyl-2-methyl-1,2-isoxazolidine)-
ribothymidine
;
_chemical_name_common
;
Ethyl 
4-(2-hydroxymethyl)-1-methyl-6-(5-methyl-2,4-dioxo-1,2,3,4-tetrahydro-1-pyrimi
dinyl)-1,3,3a,6a-tetrahydro-4H,6H-furano(3,4-c)(1,2)isoxazole-3-carboxylate
;
_cell_volume    837.983
_exptl_crystal_colour 'colorless'
_exptl_crystal_density_diffrn 1.408
_exptl_special_details
;
z(O5''A) appears to be 0.3051 not 0.3015

;
_diffrn_ambient_temperature ?
_diffrn_special_details
;
The study was carried out at room temperature,in the range 283-303K

;
_refine_special_details
;
The ethyl ester moiety is disordered and was refined over two positions with 
occupancies 0.874 and 0.126 respectively.
;
#These two values have been output from a single CSD field.
_refine_ls_R_factor_gt 0.0369
_refine_ls_wR_factor_gt 0.0369
_symmetry_cell_setting monoclinic
_symmetry_space_group_name_H-M 'P 21'
_symmetry_Int_Tables_number 4
loop_
_symmetry_equiv_pos_site_id
_symmetry_equiv_pos_as_xyz
1 x,y,z
2 -x,1/2+y,-z
_cell_length_a 5.502(1)
_cell_length_b 15.384(1)
_cell_length_c 9.918(2)
_cell_angle_alpha 90
_cell_angle_beta 93.43(2)
_cell_angle_gamma 90
_cell_formula_units_Z 2
loop_
_atom_type_symbol
_atom_type_radius_bond
C 0.68
H 0.23
N 0.68
O 0.68
loop_
_atom_site_label
_atom_site_type_symbol
_atom_site_fract_x
_atom_site_fract_y
_atom_site_fract_z
C1 C 0.0701(5) 0.8156(2) 0.7464(3)
H1 H 0.2135(54) 0.7828(12) 0.7238(9)
C2 C -0.1569(6) 0.7657(2) 0.6944(3)
H2 H -0.2946(48) 0.7758(4) 0.7506(20)
C3 C -0.2028(6) 0.8039(2) 0.5513(3)
H3 H -0.3716(55) 0.8020(2) 0.5224(10)
C4 C -0.1088(6) 0.8963(2) 0.5606(3)
H4 H -0.0295(32) 0.9094(6) 0.4821(32)
O1 O 0.0693(4) 0.8969(2) 0.6760(2)
C5 C -0.2996(7) 0.9640(3) 0.5808(4)
H5 H -0.2223(22) 1.0200(16) 0.5951(5)
H6 H -0.4075(31) 0.9679(3) 0.5004(23)
O2 O -0.4374(5) 0.9435(2) 0.6936(3)
H7 H -0.5763(89) 0.9381(33) 0.6693(18)
C6 C -0.3274(9) 0.6231(3) 0.6558(5)
H8 H -0.2858(12) 0.5641(15) 0.6391(28)
H9 H -0.4197(36) 0.6458(13) 0.5794(26)
H10 H -0.4216(36) 0.6260(15) 0.7332(23)
N1 N -0.1052(5) 0.6741(2) 0.6798(3)
O3 O 0.0313(5) 0.6722(2) 0.5580(2)
C7 C -0.0533(7) 0.7417(2) 0.4698(3)
H11 H 0.0970(59) 0.7751(13) 0.4406(12)
C8 C -0.1931(7) 0.7091(3) 0.3424(3)
O4 O -0.3438(10) 0.7521(4) 0.2842(4)
O5 O -0.1229(8) 0.6321(3) 0.3051(3)
C9 C -0.2284(12) 0.5992(4) 0.1729(4)
H12 H -0.3957(74) 0.6165(8) 0.1621(6)
H13 H -0.2226(12) 0.5370(27) 0.1733(4)
C10 C -0.0975(11) 0.6323(4) 0.0591(5)
H14 H -0.1247(62) 0.6937(6) 0.0499(27)
H15 H -0.1555(55) 0.6034(20) -0.0223(8)
H16 H 0.0736(14) 0.6214(25) 0.0753(20)
O6? O -0.4014(19) 0.7157(20) 0.308(3)
O7? O -0.0235(24) 0.6755(16) 0.2685(16)
C11? C -0.0908(52) 0.6546(20) 0.1277(16)
H17? H 0.0541(52) 0.6385(20) 0.0825(16)
H18? H -0.1604(52) 0.7057(20) 0.0830(16)
C12? C -0.2665(79) 0.583(3) 0.116(4)
H19? H -0.203(25) 0.5341(71) 0.166(26)
H20? H -0.295(44) 0.568(14) 0.0228(48)
H21? H -0.417(19) 0.6015(70) 0.152(29)
N2 N 0.0879(5) 0.8341(2) 0.8906(2)
C13 C 0.2818(6) 0.7984(2) 0.9681(3)
O8 O 0.4308(4) 0.7500(2) 0.9237(2)
N3 N 0.2926(5) 0.8240(2) 1.1009(3)
H22 H 0.4112(52) 0.8017(10) 1.1525(22)
C14 C 0.1402(6) 0.8806(2) 1.1633(3)
O9 O 0.1812(5) 0.8982(2) 1.2825(2)
C15 C -0.0610(6) 0.9142(2) 1.0766(3)
C16 C -0.2368(7) 0.9754(3) 1.1377(4)
H23 H -0.1450(22) 1.0273(14) 1.1776(24)
H24 H -0.3224(39) 0.9443(9) 1.2113(24)
H25 H -0.3614(40) 0.9958(14) 1.0654(17)
C17 C -0.0762(6) 0.8892(2) 0.9475(3)
H26 H -0.2166(46) 0.9120(8) 0.8875(20)
#END
