
#######################################################################
#
#                 Cambridge Crystallographic Data Centre
#                                CCDC
#
#######################################################################
#
# If this CIF has been generated from an entry in the Cambridge
# Structural Database, then it will include bibliographic, chemical,
# crystal, experimental, refinement or atomic coordinate data resulting
# from the CCDC's data processing and validation procedures.
#
#######################################################################

data_CSD_CIF_ZABMIB
_audit_creation_date 2016-01-06
_audit_creation_method CSD-ConQuest-V1
_database_code_CSD ZABMIB
_database_code_depnum_ccdc_archive 'CCDC 1401001'
_chemical_formula_sum 'C12 H8 N4 O4'
_chemical_formula_moiety
;
C12 H8 N4 O4
;
_journal_coden_Cambridge 1147
_journal_volume 16
_journal_year 2016
_journal_page_first 541
_journal_name_full 'Cryst.Growth Des. '
loop_
_publ_author_name
"O.S.Bushuyev"
"T.Friscic"
"C.J.Barrett"
_chemical_name_systematic
;
trans-4,4'-dinitroazobenzene
;
_chemical_name_common
;
bis(4-nitrophenyl)diazene
;
_cell_volume    554.624
_exptl_crystal_colour 'orange'
_exptl_crystal_density_diffrn 1.636
_exptl_crystal_description 'needle'
_diffrn_ambient_temperature 100
#These two values have been output from a single CSD field.
_refine_ls_R_factor_gt 0.0521
_refine_ls_wR_factor_gt 0.0521
_symmetry_cell_setting triclinic
_symmetry_space_group_name_H-M 'P -1'
_symmetry_Int_Tables_number 2
loop_
_symmetry_equiv_pos_site_id
_symmetry_equiv_pos_as_xyz
1 x,y,z
2 -x,-y,-z
_cell_length_a 4.9571(17)
_cell_length_b 9.132(3)
_cell_length_c 12.281(4)
_cell_angle_alpha 86.786(4)
_cell_angle_beta 88.105(4)
_cell_angle_gamma 88.623(4)
_cell_formula_units_Z 2
loop_
_atom_type_symbol
_atom_type_radius_bond
C 0.68
H 0.23
N 0.68
O 0.68
loop_
_atom_site_label
_atom_site_type_symbol
_atom_site_fract_x
_atom_site_fract_y
_atom_site_fract_z
C1 C 0.3517(4) 0.6939(2) 0.12494(18)
C2 C 0.4088(5) 0.6862(2) 0.01454(18)
H1 H 0.31400 0.62170 -0.02790
C3 C 0.6082(5) 0.7751(2) -0.03262(18)
H2 H 0.65210 0.77150 -0.10830
C4 C 0.7437(4) 0.8691(2) 0.02982(18)
C5 C 0.6840(4) 0.8746(2) 0.14144(18)
H3 H 0.77890 0.93870 0.18410
C6 C 0.4863(5) 0.7863(2) 0.18958(18)
H4 H 0.44330 0.78870 0.26540
N1 N 0.1377(4) 0.6037(2) 0.17590(15)
N2 N 0.9431(4) 0.9562(2) -0.02882(15)
O1 O 0.0463(3) 0.50806(18) 0.12272(13)
O2 O 0.0595(3) 0.62893(18) 0.26868(13)
C7 C 0.8498(4) 0.3037(2) 0.36773(17)
C8 C 0.9455(5) 0.2038(2) 0.29379(18)
H5 H 0.87530 0.20340 0.22280
C9 C 1.1451(5) 0.1056(2) 0.32658(18)
H6 H 1.21470 0.03620 0.27740
C10 C 1.2460(5) 0.1064(2) 0.43030(18)
C11 C 0.9443(5) 0.3073(2) 0.47217(18)
H7 H 0.87410 0.37700 0.52090
C12 C 1.1445(5) 0.2064(2) 0.50396(19)
H8 H 1.21210 0.20550 0.57550
N3 N 0.6374(4) 0.4093(2) 0.33275(15)
N4 N 1.4548(4) -0.0023(2) 0.45353(15)
O3 O 0.5258(3) 0.38950(17) 0.24752(13)
O4 O 0.5848(3) 0.51231(17) 0.39025(12)
C1A C 1.6483(4) 1.3061(2) -0.12494(18)
C2A C 1.5912(5) 1.3138(2) -0.01454(18)
H1A H 1.68600 1.37830 0.02790
C3A C 1.3918(5) 1.2249(2) 0.03262(18)
H2A H 1.34790 1.22850 0.10830
C4A C 1.2563(4) 1.1309(2) -0.02982(18)
C5A C 1.3160(4) 1.1254(2) -0.14144(18)
H3A H 1.22110 1.06130 -0.18410
C6A C 1.5137(5) 1.2137(2) -0.18958(18)
H4A H 1.55670 1.21130 -0.26540
N1A N 1.8623(4) 1.3963(2) -0.17590(15)
N2A N 1.0569(4) 1.0438(2) 0.02882(15)
O1A O 1.9537(3) 1.49194(18) -0.12272(13)
O2A O 1.9405(3) 1.37107(18) -0.26868(13)
C7A C 2.1502(4) -0.3037(2) 0.63227(17)
C8A C 2.0545(5) -0.2038(2) 0.70621(18)
H5A H 2.12470 -0.20340 0.77720
C9A C 1.8549(5) -0.1056(2) 0.67342(18)
H6A H 1.78530 -0.03620 0.72260
C10A C 1.7540(5) -0.1064(2) 0.56970(18)
C11A C 2.0557(5) -0.3073(2) 0.52783(18)
H7A H 2.12590 -0.37700 0.47910
C12A C 1.8555(5) -0.2064(2) 0.49604(19)
H8A H 1.78790 -0.20550 0.42450
N3A N 2.3626(4) -0.4093(2) 0.66725(15)
N4A N 1.5452(4) 0.0023(2) 0.54647(15)
O3A O 2.4742(3) -0.38950(17) 0.75248(13)
O4A O 2.4152(3) -0.51231(17) 0.60975(12)
#END
