
#######################################################################
#
#                 Cambridge Crystallographic Data Centre
#                                CCDC
#
#######################################################################
#
# If this CIF has been generated from an entry in the Cambridge
# Structural Database, then it will include bibliographic, chemical,
# crystal, experimental, refinement or atomic coordinate data resulting
# from the CCDC's data processing and validation procedures.
#
#######################################################################

data_CSD_CIF_ZACCOV
_audit_creation_date 1996-03-20
_audit_creation_method CSD-ConQuest-V1
_database_code_CSD ZACCOV
_chemical_formula_sum 'C18 H18 N4 O8'
_chemical_formula_moiety
;
C18 H18 N4 O8
;
_journal_coden_Cambridge 4
_journal_volume 111
_journal_year 1989
_journal_page_first 4125
_journal_name_full 'J.Am.Chem.Soc. '
loop_
_publ_author_name
"J.H.Rigby"
"P.Ch.Kierkus"
_chemical_name_systematic
;
3,3-Dimethyl-7a-methoxycarbonyl-3a,4,7,7a-tetrahydroindazol-7-yl 
3,5-dinitrobenzoate
;
_cell_volume   1934.126
_exptl_crystal_colour 'colorless'
_exptl_crystal_density_diffrn 1.437
_diffrn_ambient_temperature ?
_diffrn_special_details
;
The study was carried out at room temperature,in the range 283-303K

;
#These two values have been output from a single CSD field.
_refine_ls_R_factor_gt 0.027
_refine_ls_wR_factor_gt 0.027
_symmetry_cell_setting monoclinic
_symmetry_space_group_name_H-M 'P 21/n'
_symmetry_Int_Tables_number 14
loop_
_symmetry_equiv_pos_site_id
_symmetry_equiv_pos_as_xyz
1 x,y,z
2 1/2-x,1/2+y,1/2-z
3 -x,-y,-z
4 -1/2+x,-1/2-y,-1/2+z
_cell_length_a 11.421(2)
_cell_length_b 13.305(3)
_cell_length_c 13.013(3)
_cell_angle_alpha 90
_cell_angle_beta 102.01(2)
_cell_angle_gamma 90
_cell_formula_units_Z 4
loop_
_atom_type_symbol
_atom_type_radius_bond
C 0.68
H 0.23
N 0.68
O 0.68
loop_
_atom_site_label
_atom_site_type_symbol
_atom_site_fract_x
_atom_site_fract_y
_atom_site_fract_z
C1 C 0.6216(9) 0.3170(9) -0.2121(8)
C2 C 0.562(1) 0.3382(8) -0.3147(8)
C3 C 0.539(1) 0.257(1) -0.384(1)
C4 C 0.575(1) 0.160(1) -0.356(1)
C5 C 0.634(1) 0.146(1) -0.253(1)
C6 C 0.659(1) 0.2218(9) -0.1781(8)
C7 C 0.639(1) 0.4070(9) -0.1368(8)
C8 C 0.695(1) 0.4505(8) 0.0416(8)
C9 C 0.808(1) 0.5097(8) 0.0669(8)
C10 C 0.823(1) 0.5668(9) 0.152(1)
C11 C 0.726(1) 0.5648(8) 0.2174(9)
C12 C 0.6887(9) 0.4556(7) 0.2382(8)
C13 C 0.672(1) 0.3917(8) 0.1365(8)
C14 C 0.551(1) 0.3383(9) 0.1022(9)
C15 C 0.4167(9) 0.2385(7) 0.1719(8)
C16 C 0.782(1) 0.3954(9) 0.3172(9)
C17 C 0.7242(9) 0.3404(8) 0.3997(7)
C18 C 0.8935(9) 0.4516(8) 0.3761(7)
O1 O 0.438(1) 0.3601(8) -0.5152(7)
O2 O 0.4585(9) 0.2036(7) -0.5513(6)
O3 O 0.6442(8) -0.0237(5) -0.2888(7)
O4 O 0.714(1) 0.0283(7) -0.1277(7)
O5 O 0.5992(7) 0.4885(5) -0.1620(5)
O6 O 0.6986(6) 0.3790(5) -0.0421(5)
O7 O 0.4839(6) 0.3429(6) 0.0222(5)
O8 O 0.5304(6) 0.2866(5) 0.1869(5)
N1 N 0.474(1) 0.276(1) -0.492(1)
N2 N 0.668(1) 0.041(1) -0.2199(9)
N3 N 0.7675(8) 0.3099(6) 0.1612(7)
N4 N 0.8244(8) 0.3139(6) 0.2531(7)
H1 H 0.53916 0.41592 -0.34166
H2 H 0.55348 0.09627 -0.41027
H3 H 0.70148 0.20801 -0.09741
H4 H 0.62390 0.50470 0.01643
H5 H 0.87475 0.50859 0.01693
H6 H 0.90564 0.61019 0.17924
H7 H 0.75968 0.60229 0.29103
H8 H 0.65054 0.60550 0.17322
H9 H 0.60646 0.46615 0.26945
H10 H 0.40070 0.19831 0.24504
H11 H 0.39582 0.18434 0.10945
H12 H 0.33911 0.29440 0.15685
H13 H 0.69215 0.39406 0.44834
H14 H 0.78731 0.28976 0.44777
H15 H 0.64854 0.29534 0.35805
H16 H 0.86493 0.51430 0.42076
H17 H 0.93873 0.48888 0.31728
H18 H 0.95630 0.40680 0.42583
#END
