
#######################################################################
#
#                 Cambridge Crystallographic Data Centre
#                                CCDC
#
#######################################################################
#
# If this CIF has been generated from an entry in the Cambridge
# Structural Database, then it will include bibliographic, chemical,
# crystal, experimental, refinement or atomic coordinate data resulting
# from the CCDC's data processing and validation procedures.
#
#######################################################################

data_CSD_CIF_ZACFIV
_audit_creation_date 2016-01-06
_audit_creation_method CSD-ConQuest-V1
_database_code_CSD ZACFIV
_database_code_depnum_ccdc_archive 'CCDC 1431649'
_chemical_formula_sum 'C23 H24 N2 O5'
_chemical_formula_moiety
;
C23 H24 N2 O5
;
_journal_coden_Cambridge 4
_journal_volume 137
_journal_year 2015
_journal_page_first 16016
_journal_name_full 'J.Am.Chem.Soc. '
loop_
_publ_author_name
"T.Hashimoto"
"A.O.Galvez"
"K.Maruoka"
_chemical_name_systematic
;
N-(8-(Benzoylamino)-10-methyl-1,4-dioxaspiro[4.5]dec-9-en-6-yl)-N-hydroxybenza
mide
;
_cell_volume   2022.089
_exptl_crystal_colour 'colorless'
_exptl_crystal_density_diffrn 1.342
_exptl_crystal_description 'needle'
_diffrn_ambient_temperature 93
_refine_special_details
;
C19,C20,C22,C23 and C19A,C20A,C22A,C23A disordered over two sites with 
occupancies 0.509:0.491.
;
#These two values have been output from a single CSD field.
_refine_ls_R_factor_gt 0.0945
_refine_ls_wR_factor_gt 0.0945
_symmetry_cell_setting orthorhombic
_symmetry_space_group_name_H-M 'P 21 21 21'
_symmetry_Int_Tables_number 19
loop_
_symmetry_equiv_pos_site_id
_symmetry_equiv_pos_as_xyz
1 x,y,z
2 1/2-x,-y,1/2+z
3 1/2+x,1/2-y,-z
4 -x,1/2+y,1/2-z
_cell_length_a 5.16869(12)
_cell_length_b 18.3651(5)
_cell_length_c 21.3023(5)
_cell_angle_alpha 90
_cell_angle_beta 90
_cell_angle_gamma 90
_cell_formula_units_Z 4
loop_
_atom_type_symbol
_atom_type_radius_bond
C 0.68
H 0.23
N 0.68
O 0.68
loop_
_atom_site_label
_atom_site_type_symbol
_atom_site_fract_x
_atom_site_fract_y
_atom_site_fract_z
O1 O 0.3694(12) 0.4658(4) 0.1584(3)
O2 O -0.0151(11) 0.4228(3) 0.1958(3)
O3 O 0.0657(12) 0.2677(3) 0.2106(3)
H1 H -0.06200 0.28360 0.19040
O4 O 0.6588(12) 0.2946(4) 0.1342(3)
O5 O 0.8945(11) 0.3965(3) 0.4250(3)
N1 N 0.4641(13) 0.3906(4) 0.4044(3)
H2 H 0.30830 0.38540 0.42050
N2 N 0.2918(12) 0.3038(4) 0.1906(4)
C1 C 0.4876(17) 0.4052(5) 0.3369(4)
H3 H 0.67560 0.40680 0.32580
C2 C 0.371(3) 0.4763(5) 0.3212(5)
H4 H 0.37540 0.51370 0.35200
C3 C 0.260(3) 0.4908(5) 0.2658(5)
C4 C 0.2452(18) 0.4348(5) 0.2135(5)
C5 C 0.3825(16) 0.3630(4) 0.2299(4)
H5 H 0.57040 0.37000 0.22040
C6 C 0.3613(17) 0.3449(4) 0.2995(4)
H6 H 0.17710 0.34030 0.31160
H7 H 0.44860 0.29800 0.30830
C7 C 0.137(4) 0.5620(5) 0.2491(6)
H8 H 0.19760 0.59980 0.27800
H9 H -0.05140 0.55750 0.25220
H10 H 0.18450 0.57520 0.20600
C8 C 0.1977(19) 0.4613(8) 0.1065(6)
H11 H 0.19410 0.50800 0.08330
H12 H 0.25290 0.42230 0.07740
C9 C -0.048(2) 0.4456(7) 0.1315(4)
H13 H -0.13130 0.40650 0.10690
H14 H -0.15890 0.48950 0.12960
C10 C 0.6692(15) 0.3850(4) 0.4427(4)
C11 C 0.6130(15) 0.3613(4) 0.5093(3)
C12 C 0.4052(16) 0.3174(4) 0.5235(4)
H15 H 0.28460 0.30410 0.49190
C13 C 0.3731(18) 0.2922(5) 0.5856(4)
H16 H 0.23160 0.26140 0.59580
C14 C 0.5464(18) 0.3122(5) 0.6312(4)
H17 H 0.52320 0.29550 0.67300
C15 C 0.752(2) 0.3561(5) 0.6171(4)
H18 H 0.87010 0.36980 0.64920
C16 C 0.7914(16) 0.3811(4) 0.5551(4)
H19 H 0.93610 0.41080 0.54490
C17 C 0.4398(17) 0.2700(5) 0.1467(4)
C18 C 0.3366(16) 0.2066(5) 0.1112(4)
C19 C 0.192(2) 0.0859(6) 0.0416(6)
H20 H 0.15540 0.04450 0.01640
C20 C 0.316(4) 0.2127(11) 0.0515(9)
H21 H 0.34830 0.25760 0.03070
C21 C 0.244(5) 0.1509(11) 0.0185(9)
H22 H 0.23130 0.15590 -0.02580
C22 C 0.265(3) 0.1445(8) 0.1478(8)
H23 H 0.26540 0.14510 0.19240
C23 C 0.197(3) 0.0841(11) 0.1139(8)
H24 H 0.15180 0.04050 0.13520
C24? C 0.092(4) 0.1933(11) 0.0842(9)
H25? H -0.03480 0.23000 0.09130
C25? C 0.011(4) 0.1350(11) 0.0493(10)
H26? H -0.15860 0.13050 0.03250
C26? C 0.458(4) 0.0921(10) 0.0506(9)
H27? H 0.57820 0.05810 0.03400
C27? C 0.531(4) 0.1515(8) 0.0856(8)
H28? H 0.70980 0.15860 0.09420
#END
