
#######################################################################
#
#                 Cambridge Crystallographic Data Centre
#                                CCDC
#
#######################################################################
#
# If this CIF has been generated from an entry in the Cambridge
# Structural Database, then it will include bibliographic, chemical,
# crystal, experimental, refinement or atomic coordinate data resulting
# from the CCDC's data processing and validation procedures.
#
#######################################################################

data_CSD_CIF_ZACHAP
_audit_creation_date 2016-01-06
_audit_creation_method CSD-ConQuest-V1
_database_code_CSD ZACHAP
_database_code_depnum_ccdc_archive 'CCDC 1441187'
_chemical_formula_sum 'C21 H26 N2 O6'
_chemical_formula_moiety
;
C21 H26 N2 O6
;
_journal_coden_Cambridge 4
_journal_volume 137
_journal_year 2015
_journal_page_first 16016
_journal_name_full 'J.Am.Chem.Soc. '
loop_
_publ_author_name
"T.Hashimoto"
"A.O.Galvez"
"K.Maruoka"
_chemical_name_systematic
;
t-Butyl 
(7'-benzoyl-5'-methylspiro[1,3-dioxolane-2,8'-[6]oxa[7]azabicyclo[3.2.1]oct[3]
en]-3'-yl)carbamate
;
_cell_volume   2042.687
_exptl_crystal_colour 'colorless'
_exptl_crystal_density_diffrn 1.309
_exptl_crystal_description 'block'
_diffrn_ambient_temperature 123
#These two values have been output from a single CSD field.
_refine_ls_R_factor_gt 0.0467
_refine_ls_wR_factor_gt 0.0467
_symmetry_cell_setting orthorhombic
_symmetry_space_group_name_H-M 'P 21 21 21'
_symmetry_Int_Tables_number 19
loop_
_symmetry_equiv_pos_site_id
_symmetry_equiv_pos_as_xyz
1 x,y,z
2 1/2-x,-y,1/2+z
3 1/2+x,1/2-y,-z
4 -x,1/2+y,1/2-z
_cell_length_a 6.32790(13)
_cell_length_b 10.2173(2)
_cell_length_c 31.5941(6)
_cell_angle_alpha 90
_cell_angle_beta 90
_cell_angle_gamma 90
_cell_formula_units_Z 4
loop_
_atom_type_symbol
_atom_type_radius_bond
C 0.68
H 0.23
N 0.68
O 0.68
loop_
_atom_site_label
_atom_site_type_symbol
_atom_site_fract_x
_atom_site_fract_y
_atom_site_fract_z
O1 O 0.7323(4) 0.5055(2) 0.89972(7)
O2 O 1.0273(4) 0.4810(2) 0.85840(7)
O3 O 0.1491(4) 0.1833(2) 0.82437(7)
O4 O 0.2609(4) -0.0144(2) 0.95868(7)
O5 O 0.4905(5) 0.1496(2) 0.97645(7)
O6 O 0.4517(4) -0.0468(2) 0.88213(7)
N1 N 0.3257(5) 0.0653(3) 0.87145(8)
N2 N 0.8439(5) 0.3063(3) 0.87402(9)
H1 H 0.94150 0.26980 0.85810
C1 C 0.8539(6) 0.4393(3) 0.87925(10)
C2 C 0.2625(6) 0.0870(3) 0.83159(10)
C3 C 0.5207(6) -0.0591(3) 0.79122(11)
H2 H 0.63060 -0.03950 0.81070
C4 C 0.6914(6) 0.2231(3) 0.89195(10)
C5 C 0.3198(6) -0.0075(3) 0.79691(10)
C6 C 0.4103(6) 0.0739(3) 0.94234(10)
C7 C 0.5811(6) 0.0010(3) 0.91756(10)
C8 C 0.3195(6) 0.1600(3) 0.90677(11)
H3 H 0.17250 0.19010 0.91310
C9 C 0.1593(6) -0.0361(3) 0.76858(10)
H4 H 0.02350 0.00200 0.77210
C10 C 0.5595(6) -0.1402(4) 0.75662(11)
H5 H 0.69770 -0.17370 0.75210
C11 C 0.3989(7) -0.1723(4) 0.72889(11)
H6 H 0.42630 -0.22940 0.70580
C12 C 1.0907(6) 0.6209(3) 0.85887(12)
C13 C 0.1980(7) -0.1215(4) 0.73467(11)
H7 H 0.08700 -0.14430 0.71580
C14 C 0.7425(6) 0.0978(3) 0.90074(11)
H8 H 0.88370 0.06940 0.89630
C15 C 0.9161(7) 0.7043(4) 0.83977(13)
H9 H 0.95870 0.79650 0.84020
H10 H 0.89060 0.67670 0.81050
H11 H 0.78630 0.69340 0.85630
C16 C 0.4696(6) 0.2741(3) 0.89838(11)
H12 H 0.42320 0.32230 0.87280
H13 H 0.46700 0.33530 0.92270
C17 C 0.6750(7) -0.1161(3) 0.93926(12)
H14 H 0.76240 -0.08700 0.96310
H15 H 0.56130 -0.17260 0.94970
H16 H 0.76260 -0.16490 0.91910
C18 C 1.1477(7) 0.6594(3) 0.90383(13)
H17 H 1.18980 0.75160 0.90450
H18 H 1.02500 0.64640 0.92230
H19 H 1.26510 0.60490 0.91380
C19 C 1.2839(7) 0.6213(4) 0.83094(14)
H20 H 1.34000 0.71050 0.82900
H21 H 1.39160 0.56350 0.84310
H22 H 1.24570 0.59020 0.80260
C20 C 0.3872(7) 0.1072(4) 1.01448(12)
H23 H 0.34830 0.18280 1.03250
H24 H 0.47910 0.04750 1.03090
C21 C 0.1926(8) 0.0367(4) 0.99878(12)
H25 H 0.15100 -0.03450 1.01830
H26 H 0.07230 0.09780 0.99530
#END
