
#######################################################################
#
#                 Cambridge Crystallographic Data Centre
#                                CCDC
#
#######################################################################
#
# If this CIF has been generated from an entry in the Cambridge
# Structural Database, then it will include bibliographic, chemical,
# crystal, experimental, refinement or atomic coordinate data resulting
# from the CCDC's data processing and validation procedures.
#
#######################################################################

data_CSD_CIF_ZACNEZ
_audit_creation_date 2016-01-06
_audit_creation_method CSD-ConQuest-V1
_database_code_CSD ZACNEZ
_database_code_depnum_ccdc_archive 'CCDC 1425275'
_chemical_formula_sum 'C10 H10 N4 O6'
_chemical_formula_moiety
;
C10 H10 N4 O6
;
_journal_coden_Cambridge 29
_journal_volume 642
_journal_year 2016
_journal_page_first 48
_journal_name_full 'Z.Anorg.Allg.Chem. '
loop_
_publ_author_name
"D.Izsak"
"T.M.Klapotke"
"A.Preimesser"
"J.Stierstorfer"
_chemical_name_systematic
;
N,N'-(2,3-Dinitro-1,4-phenylene)diacetamide
;
_chemical_name_common
;
1,4-Diacetamido-2,3-dinitrobenzene
;
_cell_volume    615.002
_exptl_crystal_colour 'yellow'
_exptl_crystal_density_diffrn 1.524
_exptl_crystal_description 'needle'
_diffrn_ambient_temperature 298
#These two values have been output from a single CSD field.
_refine_ls_R_factor_gt 0.0637
_refine_ls_wR_factor_gt 0.0637
_symmetry_cell_setting triclinic
_symmetry_space_group_name_H-M 'P -1'
_symmetry_Int_Tables_number 2
loop_
_symmetry_equiv_pos_site_id
_symmetry_equiv_pos_as_xyz
1 x,y,z
2 -x,-y,-z
_cell_length_a 7.7535(16)
_cell_length_b 8.0847(11)
_cell_length_c 10.7662(19)
_cell_angle_alpha 84.878(13)
_cell_angle_beta 70.272(17)
_cell_angle_gamma 75.493(15)
_cell_formula_units_Z 2
loop_
_atom_type_symbol
_atom_type_radius_bond
C 0.68
H 0.23
N 0.68
O 0.68
loop_
_atom_site_label
_atom_site_type_symbol
_atom_site_fract_x
_atom_site_fract_y
_atom_site_fract_z
O1 O 0.5514(3) 0.0886(3) 0.1865(3)
O2 O -0.1112(3) 0.3876(3) 0.3420(3)
O3 O -0.1659(3) 0.1543(3) 0.4424(3)
O4 O -0.2905(3) 0.3275(3) 0.6802(2)
O5 O -0.1717(3) 0.0833(3) 0.7545(3)
O6 O -0.1109(3) 0.3947(3) 0.8721(2)
N1 N 0.2860(4) 0.2980(4) 0.2512(3)
N2 N -0.0805(4) 0.2679(4) 0.4147(3)
N3 N -0.1590(4) 0.2122(4) 0.6871(3)
N4 N 0.1443(4) 0.1777(4) 0.7974(3)
C1 C 0.2474(4) 0.2692(4) 0.3893(3)
C2 C 0.0693(4) 0.2591(4) 0.4708(3)
C3 C 0.0323(4) 0.2278(4) 0.6061(3)
C4 C 0.1732(4) 0.2061(4) 0.6614(3)
C5 C 0.3531(5) 0.2148(4) 0.5770(3)
C6 C 0.3883(5) 0.2438(5) 0.4448(4)
C7 C 0.4398(4) 0.2087(4) 0.1585(3)
C8 C 0.4656(6) 0.2658(6) 0.0179(4)
C9 C 0.0058(4) 0.2737(4) 0.8945(3)
C10 C 0.0021(7) 0.2238(6) 1.0325(4)
H1 H 0.201(4) 0.386(4) 0.229(3)
H2 H 0.451(4) 0.206(4) 0.622(3)
H3 H 0.003(5) 0.326(6) 1.077(4)
H4 H 0.241(4) 0.095(4) 0.816(3)
H5 H 0.112(5) 0.125(5) 1.034(4)
H6 H 0.511(4) 0.249(4) 0.394(3)
H7 H 0.477(6) 0.172(7) -0.030(5)
H8 H 0.372(6) 0.364(6) 0.005(4)
H9 H 0.599(7) 0.283(6) -0.011(4)
H10 H -0.110(6) 0.210(6) 1.082(4)
#END
