
#######################################################################
#
#                 Cambridge Crystallographic Data Centre
#                                CCDC
#
#######################################################################
#
# If this CIF has been generated from an entry in the Cambridge
# Structural Database, then it will include bibliographic, chemical,
# crystal, experimental, refinement or atomic coordinate data resulting
# from the CCDC's data processing and validation procedures.
#
#######################################################################

data_CSD_CIF_ZACNAV
_audit_creation_date 2016-01-06
_audit_creation_method CSD-ConQuest-V1
_database_code_CSD ZACNAV
_database_code_depnum_ccdc_archive 'CCDC 1425274'
_chemical_formula_sum 'C6 H3 N5 O5'
_chemical_formula_moiety
;
C6 H3 N5 O5
;
_journal_coden_Cambridge 29
_journal_volume 642
_journal_year 2016
_journal_page_first 48
_journal_name_full 'Z.Anorg.Allg.Chem. '
loop_
_publ_author_name
"D.Izsak"
"T.M.Klapotke"
"A.Preimesser"
"J.Stierstorfer"
_chemical_name_systematic
;
3-Amino-6-diazonio-2,4-dinitrophenolate
;
_cell_volume    781.867
_exptl_crystal_colour 'orange'
_exptl_crystal_density_diffrn 1.913
_exptl_crystal_description 'block'
_diffrn_ambient_temperature 173
_refine_special_details
;
O1 disordered by symmetry over two configurations with occupancy 0.50.

;
#These two values have been output from a single CSD field.
_refine_ls_R_factor_gt 0.038
_refine_ls_wR_factor_gt 0.038
_symmetry_cell_setting orthorhombic
_symmetry_space_group_name_H-M 'P n m a'
_symmetry_Int_Tables_number 62
loop_
_symmetry_equiv_pos_site_id
_symmetry_equiv_pos_as_xyz
1 x,y,z
2 1/2-x,-y,1/2+z
3 1/2+x,1/2-y,1/2-z
4 -x,1/2+y,-z
5 -x,-y,-z
6 -1/2+x,y,-1/2-z
7 -1/2-x,-1/2+y,-1/2+z
8 x,-1/2-y,z
_cell_length_a 16.2313(6)
_cell_length_b 10.6548(4)
_cell_length_c 4.5210(2)
_cell_angle_alpha 90
_cell_angle_beta 90
_cell_angle_gamma 90
_cell_formula_units_Z 4
loop_
_atom_type_symbol
_atom_type_radius_bond
C 0.68
H 0.23
N 0.68
O 0.68
loop_
_atom_site_label
_atom_site_type_symbol
_atom_site_fract_x
_atom_site_fract_y
_atom_site_fract_z
N1 N 0.21699(14) 0.25000 0.1606(5)
O1 O 0.19405(9) 0.00950(13) 0.1368(3)
O2 O 0.12863(8) -0.08088(12) 0.4902(3)
N2 N 0.14991(8) 0.01468(13) 0.3590(3)
N3 N -0.04175(13) 0.25000 0.9413(5)
N4 N -0.09801(15) 0.25000 1.0762(5)
C1 C 0.15539(14) 0.25000 0.3515(5)
C2 C 0.12104(10) 0.13454(15) 0.4644(4)
C3 C 0.05748(10) 0.13119(17) 0.6777(4)
C4 C 0.02633(14) 0.25000 0.7634(5)
O3 O 0.02805(16) 0.0340(3) 0.8266(7)
H1 H 0.2365(14) 0.182(2) 0.107(5)
H2? H 0.034(3) 0.048(5) 0.709(11)
O1G O 0.19405(9) 0.49050(13) 0.1368(3)
O2G O 0.12863(8) 0.58088(12) 0.4902(3)
N2G N 0.14991(8) 0.48532(13) 0.3590(3)
C2G C 0.12104(10) 0.36546(15) 0.4644(4)
C3G C 0.05748(10) 0.36881(17) 0.6777(4)
O3G O 0.02805(16) 0.4660(3) 0.8266(7)
H1G H 0.2365(14) 0.318(2) 0.107(5)
#END
