
#######################################################################
#
#                 Cambridge Crystallographic Data Centre
#                                CCDC
#
#######################################################################
#
# If this CIF has been generated from an entry in the Cambridge
# Structural Database, then it will include bibliographic, chemical,
# crystal, experimental, refinement or atomic coordinate data resulting
# from the CCDC's data processing and validation procedures.
#
#######################################################################

data_CSD_CIF_ZADVIM
_audit_creation_date 2016-01-06
_audit_creation_method CSD-ConQuest-V1
_database_code_CSD ZADVIM
_database_code_depnum_ccdc_archive 'CCDC 807911'
_database_code_depnum_ccdc_journal 1267/4361
_chemical_formula_sum 'C31 H33 N2 O3'
_chemical_formula_moiety
;
C31 H33 N2 O3
;
_journal_coden_Cambridge 1267
_journal_volume 230
_journal_year 2015
_journal_page_first 375
_journal_name_full 'Z.Kristallogr.-New Cryst.Struct. '
loop_
_publ_author_name
"Lin-Lin Jing"
"Hui-Ping Ma"
"Xiao-Li Sun"
"Hai-Bo Wang"
_chemical_name_systematic
;
2-(2,2'-diethoxy-1,1'-binaphthalen-6-yl)-4,4,5,5-tetramethyl-4,5-dihydro-1H-im
idazol-1-ol
;
_chemical_name_common
;
(S)-2-(2,2'-diethoxy-[1,1'-binaphthalen]-6-yl)-4,4,5,5-tetramethyl-2-iotamidaz
oline-1-oxyle
;
_cell_volume   2763.785
_exptl_crystal_colour 'red'
_exptl_crystal_density_diffrn 1.157
_exptl_crystal_description 'block'
_diffrn_ambient_temperature 273
#These two values have been output from a single CSD field.
_refine_ls_R_factor_gt 0.0574
_refine_ls_wR_factor_gt 0.0574
_symmetry_cell_setting orthorhombic
_symmetry_space_group_name_H-M 'P 21 21 21'
_symmetry_Int_Tables_number 19
loop_
_symmetry_equiv_pos_site_id
_symmetry_equiv_pos_as_xyz
1 x,y,z
2 1/2-x,-y,1/2+z
3 -x,1/2+y,1/2-z
4 1/2+x,1/2-y,-z
_cell_length_a 7.8122(11)
_cell_length_b 12.2682(18)
_cell_length_c 28.837(4)
_cell_angle_alpha 90
_cell_angle_beta 90
_cell_angle_gamma 90
_cell_formula_units_Z 4
loop_
_atom_type_symbol
_atom_type_radius_bond
C 0.68
H 0.23
N 0.68
O 0.68
loop_
_atom_site_label
_atom_site_type_symbol
_atom_site_fract_x
_atom_site_fract_y
_atom_site_fract_z
C1 C 1.0133(6) 0.4742(4) 0.28517(17)
H1 H 0.89910 0.49820 0.29190
H2 H 1.09160 0.50660 0.30680
H3 H 1.01910 0.39630 0.28770
C2 C 1.0405(6) 0.6318(4) 0.23092(18)
H4 H 0.92620 0.65220 0.23950
H5 H 1.06150 0.65270 0.19930
H6 H 1.12080 0.66810 0.25090
C3 C 1.0615(6) 0.5085(4) 0.23580(16)
C4 C 1.2273(6) 0.4595(4) 0.21772(16)
C5 C 1.3555(6) 0.4268(4) 0.25490(16)
H7 H 1.30220 0.37730 0.27630
H8 H 1.39340 0.49060 0.27120
H9 H 1.45200 0.39180 0.24060
C6 C 1.3203(6) 0.5281(4) 0.18210(18)
H10 H 1.41490 0.48750 0.16970
H11 H 1.36190 0.59350 0.19650
H12 H 1.24310 0.54680 0.15750
C7 C 1.0099(6) 0.3665(3) 0.18457(14)
C8 C 0.9117(5) 0.2834(3) 0.15767(13)
C9 C 1.0016(5) 0.2190(3) 0.12543(14)
H13 H 1.11640 0.23370 0.11970
C10 C 0.9239(5) 0.1355(3) 0.10250(13)
H14 H 0.98690 0.09430 0.08150
C11 C 0.7511(5) 0.1104(3) 0.10995(12)
C12 C 0.6570(5) 0.1754(3) 0.14199(13)
C13 C 0.7438(6) 0.2627(3) 0.16497(13)
H15 H 0.68310 0.30640 0.18550
C14 C 0.4844(5) 0.1512(4) 0.15060(14)
H16 H 0.42280 0.19360 0.17150
C15 C 0.4057(5) 0.0662(3) 0.12867(14)
H17 H 0.29120 0.05100 0.13470
C16 C 0.4974(5) 0.0022(3) 0.09719(13)
C17 C 0.6654(5) 0.0218(3) 0.08750(12)
C18 C 0.2547(5) -0.1177(4) 0.08373(16)
H18 H 0.20870 -0.15800 0.05760
H19 H 0.18050 -0.05570 0.08930
C19 C 0.2559(6) -0.1883(4) 0.12507(17)
H20 H 0.33570 -0.24680 0.12050
H21 H 0.14340 -0.21760 0.12990
H22 H 0.28940 -0.14640 0.15170
C20 C 0.844(1) 0.2685(7) -0.0236(2)
H23 H 0.72370 0.28430 -0.02440
H24 H 0.90210 0.31160 -0.04640
H25 H 0.88830 0.28550 0.00660
C21 C 0.8723(10) 0.1478(5) -0.0338(2)
H26 H 0.82900 0.12820 -0.06420
H27 H 0.99250 0.12860 -0.03180
C22 C 0.8146(6) -0.0110(4) 0.01201(17)
C23 C 0.7608(5) -0.0494(3) 0.05403(14)
C24 C 0.7963(5) -0.1605(4) 0.06529(16)
C25 C 0.7452(5) -0.2062(4) 0.10744(17)
H28 H 0.68980 -0.16230 0.12900
C26 C 0.7743(6) -0.3147(5) 0.1182(2)
H29 H 0.73700 -0.34380 0.14620
C27 C 0.8610(8) -0.3794(5) 0.0860(3)
H30 H 0.88150 -0.45230 0.09280
C28 C 0.9156(7) -0.3384(5) 0.0453(2)
H31 H 0.97520 -0.38320 0.02490
C29 C 0.8837(5) -0.2259(4) 0.0326(2)
C30 C 0.9364(7) -0.1808(5) -0.0096(2)
H32 H 0.99500 -0.22420 -0.03070
C31 C 0.9041(6) -0.0756(5) -0.02027(17)
H33 H 0.94030 -0.04650 -0.04840
N1 N 0.9327(5) 0.4563(3) 0.20435(12)
N2 N 1.1742(4) 0.3594(3) 0.19200(12)
O1 O 0.7768(4) 0.4838(3) 0.20190(12)
O2 O 0.7739(4) 0.0964(3) 0.00283(10)
O3 O 0.4225(3) -0.0794(2) 0.07236(9)
#END
