
#######################################################################
#
#                 Cambridge Crystallographic Data Centre
#                                CCDC
#
#######################################################################
#
# If this CIF has been generated from an entry in the Cambridge
# Structural Database, then it will include bibliographic, chemical,
# crystal, experimental, refinement or atomic coordinate data resulting
# from the CCDC's data processing and validation procedures.
#
#######################################################################

data_CSD_CIF_ZAFMIF
_audit_creation_date 2016-01-06
_audit_creation_method CSD-ConQuest-V1
_database_code_CSD ZAFMIF
_database_code_depnum_ccdc_archive 'CCDC 1414480'
_chemical_formula_sum 'C19 H22 N4 O8'
_chemical_formula_moiety
;
C19 H22 N4 O8
;
_journal_coden_Cambridge 179
_journal_volume 54
_journal_year 2015
_journal_page_first 15294
_journal_name_full 'Angew.Chem.,Int.Ed. '
loop_
_publ_author_name
"Hee Nam Lim"
"Guangbin Dong"
_chemical_name_systematic
;
dimethyl 
4-((2,4-dinitrophenyl)hydrazono)-3-methylhexahydropentalene-1,1(2H)-dicarboxyl
ate
;
_cell_volume   4068.858
_exptl_crystal_colour 'orange'
_exptl_crystal_density_diffrn 1.418
_exptl_crystal_description 'prisms'
_diffrn_ambient_temperature 100
#These two values have been output from a single CSD field.
_refine_ls_R_factor_gt 0.0357
_refine_ls_wR_factor_gt 0.0357
_symmetry_cell_setting monoclinic
_symmetry_space_group_name_H-M 'I 2/a'
_symmetry_Int_Tables_number 15
loop_
_symmetry_equiv_pos_site_id
_symmetry_equiv_pos_as_xyz
1 x,y,z
2 1/2-x,y,-z
3 1/2+x,1/2+y,1/2+z
4 -x,1/2+y,1/2-z
5 -x,-y,-z
6 -1/2+x,-y,z
7 -1/2-x,-1/2-y,-1/2-z
8 x,-1/2-y,-1/2+z
_cell_length_a 22.942(2)
_cell_length_b 7.8150(12)
_cell_length_c 23.175(3)
_cell_angle_alpha 90
_cell_angle_beta 101.693(3)
_cell_angle_gamma 90
_cell_formula_units_Z 8
loop_
_atom_type_symbol
_atom_type_radius_bond
C 0.68
H 0.23
N 0.68
O 0.68
loop_
_atom_site_label
_atom_site_type_symbol
_atom_site_fract_x
_atom_site_fract_y
_atom_site_fract_z
C1 C 0.08502(5) 0.08653(14) 0.39598(5)
C2 C 0.09712(5) 0.27939(14) 0.40707(4)
H1 H 0.07820 0.32210 0.43960
C3 C 0.16409(5) 0.32049(14) 0.41948(5)
H2 H 0.18100 0.31750 0.46230
H3 H 0.18590 0.23790 0.39930
C4 C 0.16743(5) 0.50058(14) 0.39490(5)
H4 H 0.16080 0.58830 0.42370
H5 H 0.20650 0.52120 0.38420
C5 C 0.11792(5) 0.50193(14) 0.34104(5)
C6 C 0.07078(5) 0.37124(14) 0.34777(5)
H6 H 0.03340 0.43230 0.35150
C7 C 0.05515(5) 0.22565(15) 0.30070(5)
H7 H 0.01140 0.20410 0.29530
C8 C 0.08681(5) 0.06641(14) 0.33042(4)
H8 H 0.12840 0.06140 0.32480
H9 H 0.06580 -0.03900 0.31410
C9 C 0.13189(5) -0.01883(13) 0.43654(5)
C10 C 0.16990(6) -0.08028(17) 0.53706(5)
H10 H 0.16870 -0.20390 0.52980
H11 H 0.16100 -0.05740 0.57590
H12 H 0.20960 -0.03640 0.53580
C11 C 0.02459(5) 0.03357(15) 0.40775(5)
C12 C -0.03464(6) -0.2058(2) 0.41988(6)
H13 H -0.03790 -0.16730 0.45930
H14 H -0.03320 -0.33100 0.41910
H15 H -0.06930 -0.16560 0.39110
C13 C 0.06824(6) 0.25753(17) 0.23968(5)
H16 H 0.11100 0.27660 0.24300
H17 H 0.04630 0.35870 0.22220
H18 H 0.05580 0.15780 0.21450
C14 C 0.15993(5) 0.80227(14) 0.24600(5)
C15 C 0.20300(5) 0.93021(14) 0.24203(5)
C16 C 0.20318(5) 1.01836(14) 0.18988(5)
H19 H 0.23210 1.10420 0.18830
C17 C 0.16099(5) 0.97945(14) 0.14084(5)
C18 C 0.11830(5) 0.85241(15) 0.14193(5)
H20 H 0.08970 0.82630 0.10730
C19 C 0.11804(5) 0.76590(14) 0.19323(5)
H21 H 0.08910 0.67920 0.19360
N1 N 0.11215(4) 0.59717(12) 0.29521(4)
N2 N 0.15790(4) 0.71453(12) 0.29587(4)
N3 N 0.25027(4) 0.97321(12) 0.29156(4)
N4 N 0.16147(4) 1.06997(13) 0.08595(4)
O1 O 0.16957(4) -0.10578(10) 0.42158(4)
O2 O 0.12614(4) 0.00378(11) 0.49222(3)
O3 O -0.01305(4) 0.12887(13) 0.41777(4)
O4 O 0.01914(4) -0.13688(12) 0.40528(4)
O5 O 0.25157(4) 0.89908(12) 0.33890(4)
O6 O 0.28784(4) 1.07951(11) 0.28459(4)
O7 O 0.19828(4) 1.18345(12) 0.08583(4)
O8 O 0.12462(4) 1.02670(13) 0.04195(4)
H22 H 0.1819(7) 0.747(2) 0.3291(7)
#END
