
#######################################################################
#
#                 Cambridge Crystallographic Data Centre
#                                CCDC
#
#######################################################################
#
# If this CIF has been generated from an entry in the Cambridge
# Structural Database, then it will include bibliographic, chemical,
# crystal, experimental, refinement or atomic coordinate data resulting
# from the CCDC's data processing and validation procedures.
#
#######################################################################

data_CSD_CIF_ZAFYUA
_audit_creation_date 1996-03-13
_audit_creation_method CSD-ConQuest-V1
_database_code_CSD ZAFYUA
_chemical_formula_sum 'C26 H21 N1 O4'
_chemical_formula_moiety
;
C26 H21 N1 O4
;
_journal_coden_Cambridge 182
_journal_year 1995
_journal_page_first 1469
_journal_name_full 'Chem.Commun. '
loop_
_publ_author_name
"S.Satake"
"Y.Ushigoe"
"M.Nojima"
"K.J.McCullough"
_chemical_name_systematic
;
2-Benzyl-3-phenyl-((8,9,10-ij)naphthaleno)-1,5,6,11-tetraoxa-3-azabicyclo(5.3.
1)undecane
;
_chemical_melting_point 456.15
_cell_volume    995.617
_exptl_crystal_colour 'colorless'
_exptl_crystal_density_diffrn 1.372
_exptl_special_details
;
Melting point range 456.15-458.15K

;
_diffrn_ambient_temperature 120
#These two values have been output from a single CSD field.
_refine_ls_R_factor_gt 0.0507
_refine_ls_wR_factor_gt 0.0507
_symmetry_cell_setting triclinic
_symmetry_space_group_name_H-M 'P -1'
_symmetry_Int_Tables_number 2
loop_
_symmetry_equiv_pos_site_id
_symmetry_equiv_pos_as_xyz
1 x,y,z
2 -x,-y,-z
_cell_length_a 7.996(2)
_cell_length_b 11.751(2)
_cell_length_c 11.765(2)
_cell_angle_alpha 108.42(3)
_cell_angle_beta 90.17(3)
_cell_angle_gamma 107.30(3)
_cell_formula_units_Z 2
loop_
_atom_type_symbol
_atom_type_radius_bond
C 0.68
H 0.23
N 0.68
O 0.68
loop_
_atom_site_label
_atom_site_type_symbol
_atom_site_fract_x
_atom_site_fract_y
_atom_site_fract_z
O1 O 0.1047(2) 0.4286(2) 0.6210(1)
O2 O 0.1814(2) 0.3495(2) 0.5241(1)
O3 O 0.1575(2) 0.2828(2) 0.7394(1)
O4 O -0.0997(2) 0.2334(2) 0.6109(1)
N1 N 0.2364(3) 0.2200(2) 0.6357(2)
C1 C -0.0782(3) 0.3570(2) 0.6130(2)
C2 C 0.3136(3) 0.3157(2) 0.5775(2)
C3 C -0.0286(3) 0.2248(2) 0.7178(2)
C4 C -0.1048(3) 0.2900(2) 0.8264(2)
C5 C -0.1209(3) 0.2522(2) 0.9263(2)
C6 C -0.1902(3) 0.3165(2) 1.0278(2)
C7 C -0.2425(3) 0.4176(2) 1.0281(2)
C8 C -0.2304(3) 0.4590(2) 0.9265(2)
C9 C -0.2829(3) 0.5622(2) 0.9215(2)
C10 C -0.2668(3) 0.5994(3) 0.8219(2)
C11 C -0.1974(3) 0.5343(2) 0.7209(2)
C12 C -0.1469(3) 0.4330(2) 0.7202(2)
C13 C -0.1602(3) 0.3930(2) 0.8239(2)
C14 C 0.3755(3) 0.1876(2) 0.6913(2)
C15 C 0.2861(3) 0.0908(2) 0.7500(2)
C16 C 0.3168(4) 0.1177(3) 0.8739(2)
C17 C 0.2236(4) 0.0336(3) 0.9288(2)
C18 C 0.0990(4) -0.0789(3) 0.8607(3)
C19 C 0.0722(4) -0.1083(3) 0.7370(2)
C20 C 0.1650(3) -0.0237(2) 0.6824(2)
C21 C 0.3965(3) 0.2591(2) 0.4667(2)
C22 C 0.3236(3) 0.1329(2) 0.3963(2)
C23 C 0.3899(4) 0.0845(3) 0.2885(2)
C24 C 0.5264(3) 0.1633(3) 0.2504(2)
C25 C 0.5988(3) 0.2891(2) 0.3195(2)
C26 C 0.5338(3) 0.3366(2) 0.4275(2)
H1 H -0.1248(15) 0.3520(3) 0.5389(23)
H2 H 0.3865(18) 0.3945(20) 0.6410(16)
H3 H -0.0576(8) 0.1330(22) 0.7010(5)
H4 H -0.0858(3) 0.1837(2) 0.9269(2)
H5 H -0.2005(3) 0.2902(2) 1.0949(2)
H6 H -0.2867(3) 0.4598(2) 1.0961(2)
H7 H -0.3293(3) 0.6057(2) 0.9874(2)
H8 H -0.3018(3) 0.6678(3) 0.8209(2)
H9 H -0.1858(3) 0.5609(2) 0.6539(2)
H10 H 0.4555(13) 0.2647(12) 0.7527(10)
H11 H 0.4467(12) 0.1523(6) 0.6286(10)
H12 H 0.4005(4) 0.1928(3) 0.9200(2)
H13 H 0.2446(4) 0.0526(3) 1.0115(2)
H14 H 0.0338(4) -0.1342(3) 0.8978(3)
H15 H -0.0082(4) -0.1849(3) 0.6906(2)
H16 H 0.1459(3) -0.0439(2) 0.5993(2)
H17 H 0.2301(3) 0.0805(2) 0.4213(2)
H18 H 0.3427(4) -0.0004(3) 0.2424(2)
H19 H 0.5697(3) 0.1315(3) 0.1778(2)
H20 H 0.6908(3) 0.3417(2) 0.2937(2)
H21 H 0.5828(3) 0.4212(2) 0.4740(2)
#END
