
#######################################################################
#
#                 Cambridge Crystallographic Data Centre
#                                CCDC
#
#######################################################################
#
# If this CIF has been generated from an entry in the Cambridge
# Structural Database, then it will include bibliographic, chemical,
# crystal, experimental, refinement or atomic coordinate data resulting
# from the CCDC's data processing and validation procedures.
#
#######################################################################

data_CSD_CIF_ZAGGET
_audit_creation_date 1996-03-13
_audit_creation_method CSD-ConQuest-V1
_database_code_CSD ZAGGET
_chemical_formula_sum 'C36 H44 N4 O12'
_chemical_formula_moiety
;
C36 H44 N4 O12
;
_journal_coden_Cambridge 4
_journal_volume 117
_journal_year 1995
_journal_page_first 6390
_journal_name_full 'J.Am.Chem.Soc. '
loop_
_publ_author_name
"Byeang Hyean Kim"
"Eun Jeong Jeong"
"Won Hee Jung"
_chemical_name_systematic
;
bis(Benzene-1,4-diyl)-bis(1,4,7,10-tetraoxadecane-1,10-diyl-bis(5-(1,2-oxazacy
clopent-2-en-3-yl)))
;
_chemical_melting_point 421.45
_cell_volume   1765.218
_exptl_crystal_colour 'white'
_exptl_crystal_density_diffrn 1.369
_exptl_special_details
;
Melting point range 421.45-422.35K

;
_diffrn_ambient_temperature ?
_diffrn_special_details
;
The study was carried out at room temperature,in the range 283-303K

;
#These two values have been output from a single CSD field.
_refine_ls_R_factor_gt 0.06
_refine_ls_wR_factor_gt 0.06
_symmetry_cell_setting monoclinic
_symmetry_space_group_name_H-M 'P 21/c'
_symmetry_Int_Tables_number 14
loop_
_symmetry_equiv_pos_site_id
_symmetry_equiv_pos_as_xyz
1 x,y,z
2 -x,1/2+y,1/2-z
3 -x,-y,-z
4 x,-1/2-y,-1/2+z
_cell_length_a 19.591(5)
_cell_length_b 9.937(1)
_cell_length_c 9.107(3)
_cell_angle_alpha 90
_cell_angle_beta 95.34(2)
_cell_angle_gamma 90
_cell_formula_units_Z 2
loop_
_atom_type_symbol
_atom_type_radius_bond
C 0.68
N 0.68
O 0.68
loop_
_atom_site_label
_atom_site_type_symbol
_atom_site_fract_x
_atom_site_fract_y
_atom_site_fract_z
O1 O 0.0989(2) 0.3831(5) 0.4177(4)
O2 O 0.5783(2) 0.5282(5) 0.2349(6)
O3 O 0.6395(2) 0.3325(4) 0.2165(5)
O4 O 0.7856(2) 0.3631(5) 0.0081(5)
O5 O 0.9155(2) 0.4868(4) 0.0569(5)
O6 O 0.1142(2) 0.3943(4) 0.6725(4)
N1 N 0.1615(2) 0.4195(5) 0.3618(5)
N2 N 0.5064(3) 0.5207(6) 0.2317(7)
C1 C 0.1149(3) 0.3089(6) 0.5516(7)
C2 C 0.1862(3) 0.2586(6) 0.5406(6)
C3 C 0.2099(3) 0.3507(5) 0.4286(5)
C4 C 0.2806(3) 0.3662(5) 0.3922(5)
C5 C 0.3324(3) 0.2872(6) 0.4628(6)
C6 C 0.4011(3) 0.2991(6) 0.4348(6)
C7 C 0.4167(3) 0.3956(6) 0.3353(6)
C8 C 0.3656(3) 0.4741(6) 0.2606(6)
C9 C 0.2996(3) 0.4591(6) 0.2878(6)
C10 C 0.4922(3) 0.4217(6) 0.3090(7)
C11 C 0.5503(3) 0.3436(6) 0.3770(7)
C12 C 0.6090(3) 0.4156(6) 0.3117(7)
C13 C 0.6975(4) 0.3954(7) 0.1583(8)
C14 C 0.7332(4) 0.2992(8) 0.0769(9)
C15 C 0.8456(4) 0.2839(7) 0.0046(8)
C16 C 0.9009(4) 0.3708(7) -0.0361(7)
C17 C 0.9499(3) 0.4535(7) 0.1927(7)
C18 C 0.0476(3) 0.4287(7) 0.7081(7)
C18B C 0.9524(3) 0.5713(7) 0.2919(7)
C17B C 0.0501(3) 0.5465(7) 0.8073(7)
O6B O 0.8858(2) 0.6057(4) 0.3275(4)
O5B O 0.0845(2) 0.5132(4) 0.9431(5)
C1B C 0.8851(3) 0.6911(6) 0.4484(7)
C16B C 0.0991(4) 0.6292(7) 1.0361(7)
O1B O 0.9011(2) 0.6169(5) 0.5823(4)
C2B C 0.8138(3) 0.7414(6) 0.4594(6)
C15B C 0.1544(4) 0.7161(7) 0.9954(8)
N1B N 0.8385(2) 0.5805(5) 0.6382(5)
C3B C 0.7901(3) 0.6493(5) 0.5714(5)
O4B O 0.2144(2) 0.6369(5) 0.9919(5)
C4B C 0.7194(3) 0.6338(5) 0.6078(5)
C14B C 0.2668(4) 0.7008(8) 0.9231(9)
C5B C 0.6676(3) 0.7128(6) 0.5372(6)
C9B C 0.7004(3) 0.5409(6) 0.7122(6)
C13B C 0.3025(4) 0.6046(7) 0.8417(8)
C6B C 0.5989(3) 0.7009(6) 0.5652(6)
C8B C 0.6344(3) 0.5259(6) 0.7394(6)
O3B O 0.3605(2) 0.6675(4) 0.7835(5)
C7B C 0.5833(3) 0.6044(6) 0.6647(6)
C12B C 0.3910(3) 0.5844(6) 0.6883(7)
C10B C 0.5078(3) 0.5783(6) 0.6910(7)
O2B O 0.4217(2) 0.4718(5) 0.7651(6)
C11B C 0.4497(3) 0.6564(6) 0.6230(7)
N2B N 0.4936(3) 0.4793(6) 0.7683(7)
#END
