
#######################################################################
#
#                 Cambridge Crystallographic Data Centre
#                                CCDC
#
#######################################################################
#
# If this CIF has been generated from an entry in the Cambridge
# Structural Database, then it will include bibliographic, chemical,
# crystal, experimental, refinement or atomic coordinate data resulting
# from the CCDC's data processing and validation procedures.
#
#######################################################################

data_CSD_CIF_ZAGKAW
_audit_creation_date 2016-01-07
_audit_creation_method CSD-ConQuest-V1
_database_code_CSD ZAGKAW
_database_code_depnum_ccdc_archive 'CCDC 1058144'
_chemical_formula_sum 'C4 H2 N12 O8'
_chemical_formula_moiety
;
C4 H2 N12 O8
;
_journal_coden_Cambridge 179
_journal_volume 54
_journal_year 2015
_journal_page_first 14513
_journal_name_full 'Angew.Chem.,Int.Ed. '
loop_
_publ_author_name
"Ping Yin"
"J.M.Shreeve"
_chemical_name_systematic
;
N,N',5,5'-tetranitro-2H,2'H-3,3'-bi-1,2,4-triazole-2,2'-diamine
;
_cell_volume    599.389
_exptl_crystal_colour 'colorless'
_exptl_crystal_density_diffrn 1.918
_diffrn_ambient_temperature 100
#These two values have been output from a single CSD field.
_refine_ls_R_factor_gt 0.0305
_refine_ls_wR_factor_gt 0.0305
_symmetry_cell_setting monoclinic
_symmetry_space_group_name_H-M 'P 21/n'
_symmetry_Int_Tables_number 14
loop_
_symmetry_equiv_pos_site_id
_symmetry_equiv_pos_as_xyz
1 x,y,z
2 1/2-x,1/2+y,1/2-z
3 -x,-y,-z
4 -1/2+x,-1/2-y,-1/2+z
_cell_length_a 6.2558(3)
_cell_length_b 12.7153(6)
_cell_length_c 7.5353(4)
_cell_angle_alpha 90
_cell_angle_beta 90.117(2)
_cell_angle_gamma 90
_cell_formula_units_Z 2
loop_
_atom_type_symbol
_atom_type_radius_bond
C 0.68
H 0.23
N 0.68
O 0.68
loop_
_atom_site_label
_atom_site_type_symbol
_atom_site_fract_x
_atom_site_fract_y
_atom_site_fract_z
O1 O 0.26777(12) 0.41023(6) 0.6284(1)
O2 O -0.07801(12) 0.43346(6) 0.64603(10)
O3 O 0.90681(11) 0.73294(6) 0.68483(10)
O4 O 0.61675(12) 0.79539(6) 0.56221(10)
N1 N 0.33186(11) 0.56723(6) 0.82909(9)
N2 N 0.38377(12) 0.64424(6) 0.71315(10)
N3 N 0.66998(12) 0.59781(6) 0.88451(10)
N4 N 0.13341(12) 0.52284(6) 0.83038(10)
H1 H 0.029(2) 0.5682(12) 0.8251(19)
N5 N 0.10702(13) 0.45037(6) 0.68651(10)
N6 N 0.71339(13) 0.73528(6) 0.6604(1)
C1 C 0.50333(13) 0.54002(6) 0.93077(11)
C2 C 0.58535(14) 0.65819(6) 0.75519(11)
O1B O 0.73223(12) 0.58977(6) 1.3716(1)
O2B O 1.07801(12) 0.56654(6) 1.35397(10)
O3B O 0.09319(11) 0.26706(6) 1.31517(10)
O4B O 0.38325(12) 0.20461(6) 1.43779(10)
N1B N 0.66814(11) 0.43277(6) 1.17091(9)
N2B N 0.61623(12) 0.35576(6) 1.28685(10)
N3B N 0.33002(12) 0.40219(6) 1.11549(10)
N4B N 0.86659(12) 0.47716(6) 1.16962(10)
H1B H 0.971(2) 0.4318(12) 1.1749(19)
N5B N 0.89298(13) 0.54963(6) 1.31349(10)
N6B N 0.28661(13) 0.26472(6) 1.3396(1)
C1B C 0.49667(13) 0.45998(6) 1.06923(11)
C2B C 0.41465(14) 0.34181(6) 1.24481(11)
#END
