
#######################################################################
#
#                 Cambridge Crystallographic Data Centre
#                                CCDC
#
#######################################################################
#
# If this CIF has been generated from an entry in the Cambridge
# Structural Database, then it will include bibliographic, chemical,
# crystal, experimental, refinement or atomic coordinate data resulting
# from the CCDC's data processing and validation procedures.
#
#######################################################################

data_CSD_CIF_ZAGMID
_audit_creation_date 1996-03-13
_audit_creation_method CSD-ConQuest-V1
_database_code_CSD ZAGMID
_chemical_formula_sum 'C26 H38 N2 O2'
_chemical_formula_moiety
;
C26 H38 N2 O2
;
_journal_coden_Cambridge 4
_journal_volume 117
_journal_year 1995
_journal_page_first 6789
_journal_name_full 'J.Am.Chem.Soc. '
loop_
_publ_author_name
"R.Wolf"
"Ming Wah Wong"
"C.H.L.Kennard"
"C.Wentrup"
_chemical_name_systematic
;
4-(N-(2,4,6-Tri-t-butylphenyl)iminomethylene)-3-t-butylisoxazol-5(4H)-one
;
_chemical_melting_point 493.15
_cell_volume   2575.808
_exptl_crystal_colour 'pale yellow'
_exptl_crystal_density_diffrn 1.059
_diffrn_ambient_temperature ?
_diffrn_special_details
;
The study was carried out at room temperature,in the range 283-303K

;
_refine_special_details
;
The t-butyl group is disordered over two sites with occupancies of 0.66 and 
0.33.
;
#These two values have been output from a single CSD field.
_refine_ls_R_factor_gt 0.054
_refine_ls_wR_factor_gt 0.054
_symmetry_cell_setting monoclinic
_symmetry_space_group_name_H-M 'P 21/a'
_symmetry_Int_Tables_number 14
loop_
_symmetry_equiv_pos_site_id
_symmetry_equiv_pos_as_xyz
1 x,y,z
2 1/2-x,1/2+y,-z
3 -x,-y,-z
4 -1/2+x,-1/2-y,z
_cell_length_a 10.106(5)
_cell_length_b 27.024(2)
_cell_length_c 10.256(5)
_cell_angle_alpha 90
_cell_angle_beta 113.13(2)
_cell_angle_gamma 90
_cell_formula_units_Z 4
loop_
_atom_type_symbol
_atom_type_radius_bond
C 0.68
H 0.23
N 0.68
O 0.68
loop_
_atom_site_label
_atom_site_type_symbol
_atom_site_fract_x
_atom_site_fract_y
_atom_site_fract_z
N1 N 0.8876(3) 0.6180(1) 0.0768(3)
C1 C 0.7726(5) 0.6045(2) 0.0106(4)
C2 C 1.0287(4) 0.6344(1) 0.1587(4)
C3 C 1.0854(4) 0.6234(1) 0.3045(4)
C4 C 1.2220(4) 0.6425(2) 0.3817(5)
C5 C 1.2977(4) 0.6701(2) 0.3208(6)
C6 C 1.2353(4) 0.6782(2) 0.1764(6)
C7 C 1.1003(4) 0.6617(1) 0.0894(4)
C8 C 1.0039(4) 0.5940(2) 0.3788(4)
C9 C 0.9615(5) 0.5420(2) 0.3124(5)
C10 C 1.0975(5) 0.5860(2) 0.5364(4)
C11 C 0.8692(5) 0.6221(2) 0.3698(5)
C12 C 1.4461(5) 0.6914(2) 0.4144(6)
C13 C 1.5503(11) 0.6499(5) 0.4764(23)
C14 C 1.432(1) 0.7220(8) 0.5303(17)
C15 C 1.5094(16) 0.7250(8) 0.3285(13)
C16? C 1.5111(50) 0.6698(19) 0.5682(41)
C17? C 1.4368(24) 0.7466(8) 0.4149(62)
C18? C 1.5450(28) 0.6739(24) 0.3418(56)
C19 C 1.0350(4) 0.6730(2) -0.0704(5)
C20 C 1.0029(5) 0.6252(2) -0.1578(5)
C21 C 0.8983(4) 0.7053(2) -0.1077(5)
C22 C 1.1386(5) 0.7033(2) -0.1150(5)
C23 C 0.6320(4) 0.5935(2) -0.0619(4)
C24 C 0.5613(5) 0.5517(2) -0.1449(5)
N2 N 0.4226(4) 0.5568(2) -0.1912(5)
O1 O 0.3960(3) 0.6037(2) -0.1399(5)
C25 C 0.5223(5) 0.6271(2) -0.0602(6)
O2 O 0.5254(4) 0.6664(2) -0.0042(5)
C26 C 0.6215(5) 0.5065(2) -0.1871(6)
C27 C 0.7556(6) 0.4891(2) -0.0668(6)
C28 C 0.6603(6) 0.5214(2) -0.3120(6)
C29 C 0.5065(6) 0.4658(2) -0.2365(7)
H1 H 1.2641(4) 0.6365(2) 0.4787(5)
H2 H 1.2877(4) 0.6959(2) 0.1352(6)
H3 H 1.0452(5) 0.5256(2) 0.3110(5)
H4 H 0.8909(5) 0.5452(2) 0.2173(5)
H5 H 0.9222(5) 0.5230(2) 0.3678(5)
H6 H 1.1849(5) 0.5695(2) 0.5458(4)
H7 H 1.0461(5) 0.5661(2) 0.5784(4)
H8 H 1.1201(5) 0.6174(2) 0.5837(4)
H9 H 0.8095(5) 0.6286(2) 0.2722(5)
H10 H 0.8968(5) 0.6529(2) 0.4200(5)
H11 H 0.8167(5) 0.6026(2) 0.4115(5)
H12 H 1.5220(11) 0.6313(5) 0.5411(23)
H13 H 1.6450(11) 0.6632(5) 0.5262(23)
H14 H 1.5507(11) 0.6285(5) 0.4018(23)
H15 H 1.4028(10) 0.7013(8) 0.5901(17)
H16 H 1.3613(10) 0.7474(8) 0.4893(17)
H17 H 1.5231(10) 0.7370(8) 0.5855(17)
H18 H 1.5932(16) 0.7418(8) 0.3929(13)
H19 H 1.4385(16) 0.7488(8) 0.2749(13)
H20 H 1.5354(16) 0.7048(8) 0.2651(13)
H21? H 1.4512(50) 0.6788(19) 0.6174(41)
H22? H 1.6061(50) 0.6829(19) 0.6178(41)
H23? H 1.516(5) 0.6344(19) 0.5638(41)
H24? H 1.3589(24) 0.7563(8) 0.4406(62)
H25? H 1.4202(24) 0.7591(8) 0.3221(62)
H26? H 1.5254(24) 0.7599(8) 0.4822(62)
H27? H 1.5090(28) 0.6860(24) 0.2461(56)
H28? H 1.5474(28) 0.6384(24) 0.3412(56)
H29? H 1.6404(28) 0.6864(24) 0.3927(56)
H30 H 0.9459(5) 0.6036(2) -0.1264(5)
H31 H 1.0917(5) 0.6091(2) -0.1455(5)
H32 H 0.9510(5) 0.6330(2) -0.2562(5)
H33 H 0.8293(4) 0.6882(2) -0.0814(5)
H34 H 0.8574(4) 0.7118(2) -0.2078(5)
H35 H 0.9234(4) 0.7361(2) -0.0571(5)
H36 H 1.1575(5) 0.7345(2) -0.0663(5)
H37 H 1.0960(5) 0.7089(2) -0.2155(5)
H38 H 1.2271(5) 0.6854(2) -0.0911(5)
H39 H 0.7882(6) 0.4588(2) -0.0930(6)
H40 H 0.7350(6) 0.4837(2) 0.0158(6)
H41 H 0.8293(6) 0.5139(2) -0.0465(6)
H42 H 0.5772(6) 0.5351(2) -0.3864(6)
H43 H 0.6924(6) 0.4927(2) -0.3468(6)
H44 H 0.7358(6) 0.5456(2) -0.2810(6)
H45 H 0.4324(6) 0.4752(2) -0.3256(7)
H46 H 0.4655(6) 0.4615(2) -0.1672(7)
H47 H 0.5497(6) 0.4353(2) -0.2476(7)
#END
