
#######################################################################
#
#                 Cambridge Crystallographic Data Centre
#                                CCDC
#
#######################################################################
#
# If this CIF has been generated from an entry in the Cambridge
# Structural Database, then it will include bibliographic, chemical,
# crystal, experimental, refinement or atomic coordinate data resulting
# from the CCDC's data processing and validation procedures.
#
#######################################################################

data_CSD_CIF_ZAHPUW
_audit_creation_date 2016-01-07
_audit_creation_method CSD-ConQuest-V1
_database_code_CSD ZAHPUW
_database_code_depnum_ccdc_archive 'CCDC 1020634'
_chemical_formula_sum 'C19 H21 N3 O2'
_chemical_formula_moiety
;
C19 H21 N3 O2
;
_journal_coden_Cambridge 985
_journal_volume 9
_journal_year 2015
_journal_page_first 17
_journal_name_full 'Chem.Cent.J. '
loop_
_publ_author_name
"M.Velusamy"
"S.Sreenivasan"
"R.Kandasamy"
"P.Subbu"
"S.Paramasivam"
"P.M.Nanjappagounder"
_chemical_name_systematic
;
3,6-dimethyl-1-nitroso-2,7-diphenyl-1,4-diazepan-5-one
;
_cell_volume   1772.913
_exptl_crystal_colour 'white'
_exptl_crystal_density_diffrn 1.212
_exptl_crystal_description 'Block'
_diffrn_ambient_temperature 293
_refine_special_details
;
O2A and O2A' disordered over two sites with occupancies 0.792:0.208.

;
#These two values have been output from a single CSD field.
_refine_ls_R_factor_gt 0.057
_refine_ls_wR_factor_gt 0.057
_symmetry_cell_setting triclinic
_symmetry_space_group_name_H-M 'P -1'
_symmetry_Int_Tables_number 2
loop_
_symmetry_equiv_pos_site_id
_symmetry_equiv_pos_as_xyz
1 x,y,z
2 -x,-y,-z
_cell_length_a 9.1789(6)
_cell_length_b 12.7776(9)
_cell_length_c 16.0615(10)
_cell_angle_alpha 89.255(4)
_cell_angle_beta 86.758(4)
_cell_angle_gamma 70.507(4)
_cell_formula_units_Z 4
loop_
_atom_type_symbol
_atom_type_radius_bond
C 0.68
H 0.23
N 0.68
O 0.68
loop_
_atom_site_label
_atom_site_type_symbol
_atom_site_fract_x
_atom_site_fract_y
_atom_site_fract_z
O1 O 0.5046(4) 1.1725(2) 0.27878(17)
C1 C 0.4034(3) 0.9359(2) 0.26281(13)
H1 H 0.29720 0.98820 0.26680
C2 C 0.4109(3) 0.8632(2) 0.18580(13)
H2 H 0.49550 0.79280 0.19160
C3 C 0.4440(3) 0.9185(2) 0.10598(13)
C4 C 0.7048(2) 0.8866(2) 0.15527(13)
H3 H 0.70340 0.81620 0.17970
C5 C 0.6683(2) 0.97414(19) 0.22447(13)
H4 H 0.68130 1.04040 0.19830
C6 C 0.7815(3) 0.94222(19) 0.29277(13)
C7 C 0.8144(3) 0.8428(2) 0.33417(16)
H5 H 0.75910 0.79550 0.32430
C8 C 0.9300(4) 0.8130(3) 0.39060(18)
H6 H 0.95220 0.74550 0.41810
C9 C 1.0117(3) 0.8819(3) 0.40616(17)
H7 H 1.08940 0.86120 0.44390
C10 C 0.9790(3) 0.9804(3) 0.36647(18)
H8 H 1.03320 1.02800 0.37760
C11 C 0.8651(3) 1.0104(2) 0.30945(15)
H9 H 0.84460 1.07780 0.28190
C12 C 0.4250(3) 0.8757(2) 0.34614(14)
C13 C 0.3884(3) 0.9388(3) 0.41862(15)
H10 H 0.35050 1.01580 0.41510
C14 C 0.4071(4) 0.8895(4) 0.49602(17)
H11 H 0.38240 0.93330 0.54400
C15 C 0.4611(5) 0.7783(4) 0.5021(2)
H12 H 0.47510 0.74530 0.55430
C16 C 0.4952(5) 0.7142(3) 0.4325(2)
H13 H 0.53150 0.63730 0.43730
C17 C 0.4764(4) 0.7626(3) 0.35360(18)
H14 H 0.49870 0.71790 0.30610
C18 C 0.2598(3) 0.8379(3) 0.18240(18)
H15 H 0.17600 0.90560 0.17440
H16 H 0.24050 0.80430 0.23380
H17 H 0.26810 0.78790 0.13690
C19 C 0.8628(3) 0.8690(3) 0.11254(16)
H18 H 0.88050 0.81630 0.06780
H19 H 0.94100 0.84130 0.15210
H20 H 0.86680 0.93830 0.09060
N1 N 0.5034(2) 1.00637(15) 0.25407(10)
N2 N 0.4300(4) 1.1118(2) 0.27613(15)
N3 N 0.5877(2) 0.92144(17) 0.09383(10)
H21 H 0.61260 0.94540 0.04670
O2 O 0.34559(19) 0.95595(17) 0.05429(10)
O3? O 0.3034(9) 1.1470(8) 0.3014(6)
C20 C 0.1234(4) 1.4952(2) 0.23339(16)
H22 H 0.11470 1.57370 0.23190
C21 C 0.2238(5) 1.4460(3) 0.30671(18)
H23 H 0.26560 1.36520 0.29920
C22 C 0.1299(5) 1.4707(3) 0.38909(18)
C23 C -0.0041(6) 1.3426(3) 0.34629(18)
H24 H 0.09340 1.28790 0.32500
C24 C -0.0929(4) 1.4046(3) 0.27347(17)
H25 H -0.19890 1.44140 0.29630
C25 C -0.1067(4) 1.3283(3) 0.20491(16)
C26 C 0.0127(4) 1.2371(3) 0.17685(18)
H26 H 0.10810 1.22030 0.20040
C27 C -0.0041(5) 1.1691(3) 0.11465(19)
H27 H 0.07980 1.10800 0.09680
C28 C -0.1383(6) 1.1901(4) 0.0801(3)
H28 H -0.14870 1.14520 0.03730
C29 C -0.2571(7) 1.2756(6) 0.1073(5)
H29 H -0.35240 1.28920 0.08430
C30 C -0.2436(5) 1.3464(5) 0.1699(4)
H30 H -0.32930 1.40640 0.18750
C31 C 0.1951(4) 1.4486(3) 0.14847(16)
C32 C 0.1521(7) 1.5114(4) 0.0812(2)
H31 H 0.08340 1.58350 0.08720
C33 C 0.2108(10) 1.4682(6) 0.0009(3)
H32 H 0.18070 1.51270 -0.04560
C34 C 0.3086(6) 1.3650(5) -0.0091(3)
H33 H 0.34620 1.33700 -0.06220
C35 C 0.3505(4) 1.3043(4) 0.0558(2)
H34 H 0.41920 1.23220 0.04940
C36 C 0.2948(4) 1.3448(3) 0.13450(19)
H35 H 0.32730 1.29870 0.18000
C37 C 0.3578(6) 1.4892(5) 0.3062(3)
H36 H 0.31940 1.56800 0.31540
H37 H 0.41480 1.47300 0.25330
H38 H 0.42450 1.45410 0.34980
C38 C -0.1007(10) 1.2835(5) 0.3935(2)
H39 H -0.03640 1.22880 0.42940
H40 H -0.14480 1.24770 0.35460
H41 H -0.18210 1.33640 0.42640
N4 N -0.0371(3) 1.49471(17) 0.24413(12)
N5 N -0.1344(4) 1.5955(3) 0.22194(17)
N6 N 0.0291(5) 1.4192(2) 0.40357(15)
H42 H -0.02220 1.43150 0.45100
O4 O 0.1511(4) 1.5364(2) 0.43949(13)
O5 O -0.2668(4) 1.5998(2) 0.22452(17)
#END
