
#######################################################################
#
#                 Cambridge Crystallographic Data Centre
#                                CCDC
#
#######################################################################
#
# If this CIF has been generated from an entry in the Cambridge
# Structural Database, then it will include bibliographic, chemical,
# crystal, experimental, refinement or atomic coordinate data resulting
# from the CCDC's data processing and validation procedures.
#
#######################################################################

data_CSD_CIF_ZAKDOH
_audit_creation_date 2017-02-13
_audit_creation_method CSD-ConQuest-V1
_database_code_CSD ZAKDOH
_database_code_depnum_ccdc_archive 'CCDC 1532484'
_chemical_formula_sum 'C22 H24 N2 O8'
_chemical_formula_moiety
;
C22 H24 N2 O8
;
_journal_coden_Cambridge 1336
_journal_volume 19
_journal_year 2017
_journal_page_first 206
_journal_name_full 'Org.Lett. '
loop_
_publ_author_name
"Fan Liu"
"P.M.Wright"
"A.G.Myers"
_chemical_name_systematic
;
3-(benzyloxy)-10-(dimethylamino)-4a-hydroxy-7,7-dimethyl-5a,8a,9a,10-tetrahydr
o-4H,7H-[1,3]dioxolo[5,6]pyrano[3,2-f][1,2]benzoxazole-4,5(4aH)-dione
;
_cell_volume   2093.915
_exptl_crystal_colour 'colorless'
_exptl_crystal_density_diffrn 1.41
_exptl_special_details
;
Absolute configuration

;
_exptl_crystal_description 'needle'
_diffrn_ambient_temperature 100
#These two values have been output from a single CSD field.
_refine_ls_R_factor_gt 0.0282
_refine_ls_wR_factor_gt 0.0282
_symmetry_cell_setting monoclinic
_symmetry_space_group_name_H-M 'P 21'
_symmetry_Int_Tables_number 4
loop_
_symmetry_equiv_pos_site_id
_symmetry_equiv_pos_as_xyz
1 x,y,z
2 -x,1/2+y,-z
_cell_length_a 9.5161(2)
_cell_length_b 17.6610(3)
_cell_length_c 13.0462(2)
_cell_angle_alpha 90
_cell_angle_beta 107.255(1)
_cell_angle_gamma 90
_cell_formula_units_Z 4
loop_
_atom_type_symbol
_atom_type_radius_bond
C 0.68
H 0.23
N 0.68
O 0.68
loop_
_atom_site_label
_atom_site_type_symbol
_atom_site_fract_x
_atom_site_fract_y
_atom_site_fract_z
C1 C 0.6883(2) 0.15361(11) 1.03280(14)
C2 C 0.7669(2) 0.22008(11) 1.01959(15)
C3 C 0.7896(2) 0.25582(11) 0.92601(14)
C4 C 0.9065(2) 0.31962(10) 0.95382(14)
C5 C 0.8757(2) 0.37278(10) 0.85801(14)
C6 C 0.7461(2) 0.42713(10) 0.84175(14)
H1 H 0.65640 0.40350 0.79150
C7 C 0.8361(2) 0.54719(11) 0.88830(15)
C8 C 0.7132(2) 0.44869(10) 0.94593(14)
H2 H 0.60640 0.46140 0.92920
C9 C 0.8954(2) 0.36474(11) 1.05232(14)
H3 H 0.96770 0.40740 1.06750
C10 C 0.9179(2) 0.31555(11) 1.15434(14)
H4 H 1.02090 0.29570 1.17320
C11 C 0.8182(2) 0.24835(11) 1.12083(14)
C12 C 0.5699(2) 0.03573(11) 0.97937(16)
H5 H 0.46390 0.04220 0.97170
H6 H 0.62100 0.02150 1.05460
C13 C 0.5906(2) -0.02495(12) 0.90447(15)
C14 C 0.5783(3) -0.01019(13) 0.79721(16)
H7 H 0.55840 0.03980 0.77000
C15 C 0.5952(3) -0.06820(15) 0.72978(17)
H8 H 0.58660 -0.05750 0.65680
C16 C 0.6240(2) -0.14051(14) 0.76767(17)
H9 H 0.63440 -0.18000 0.72100
C17 C 0.6378(2) -0.15573(13) 0.87334(16)
H10 H 0.65800 -0.20590 0.90000
C18 C 0.6222(2) -0.09806(12) 0.94131(15)
H11 H 0.63360 -0.10910 1.01460
C19 C 1.0018(2) 0.54826(15) 0.91513(19)
H12 H 1.03010 0.57320 0.85710
H13 H 1.03920 0.49620 0.92340
H14 H 1.04370 0.57610 0.98230
C20 C 0.7675(3) 0.62431(11) 0.86201(16)
H15 H 0.81480 0.65980 0.91970
H16 H 0.66220 0.62120 0.85480
H17 H 0.78080 0.64220 0.79440
C21 C 1.0092(2) 0.41557(11) 1.28306(15)
H18 H 1.10740 0.39750 1.28550
H19 H 1.01030 0.43350 1.35440
H20 H 0.98070 0.45720 1.23140
C22 C 0.7564(2) 0.38003(14) 1.24760(16)
H21 H 0.73280 0.42650 1.20480
H22 H 0.75410 0.39030 1.32090
H23 H 0.68390 0.34080 1.21530
N1 N 0.68714(18) 0.14390(9) 1.13186(13)
N2 N 0.90362(17) 0.35386(9) 1.25027(12)
O1 O 0.63050(15) 0.10610(8) 0.95249(10)
O2 O 0.72808(16) 0.23817(8) 0.83339(10)
O3 O 1.04563(14) 0.28511(7) 0.97568(10)
O4 O 0.94919(15) 0.37171(8) 0.79736(10)
O5 O 0.77155(14) 0.49751(7) 0.79986(9)
O6 O 0.79706(15) 0.51544(7) 0.97837(10)
O7 O 0.74892(14) 0.39398(7) 1.02653(9)
O8 O 0.77362(15) 0.20631(8) 1.18988(10)
H24 H 1.064(3) 0.2733(16) 0.914(2)
C23 C 0.32800(19) 0.42419(10) 0.67178(14)
C24 C 0.26071(19) 0.35468(10) 0.62818(14)
C25 C 0.2425(2) 0.31616(10) 0.52599(14)
C26 C 0.1240(2) 0.25336(10) 0.50374(14)
C27 C 0.1516(2) 0.19911(10) 0.42072(14)
C28 C 0.2755(2) 0.14197(10) 0.45893(14)
H25 H 0.36970 0.16460 0.45430
C29 C 0.1705(2) 0.02378(10) 0.45110(14)
C30 C 0.2943(2) 0.11496(10) 0.57312(14)
H26 H 0.39560 0.09390 0.60410
C31 C 0.1299(2) 0.20756(10) 0.60632(13)
H27 H 0.04920 0.16910 0.58880
C32 C 0.1171(2) 0.2570(1) 0.70117(14)
H28 H 0.01300 0.27530 0.68120
C33 C 0.2107(2) 0.32567(10) 0.70660(13)
C34 C 0.4173(2) 0.54847(11) 0.66701(15)
H29 H 0.52320 0.55020 0.70780
H30 H 0.35970 0.55760 0.71770
C35 C 0.38300(19) 0.60850(11) 0.58167(15)
C36 C 0.3482(2) 0.59202(11) 0.47256(15)
H31 H 0.34010 0.54090 0.44900
C37 C 0.3254(2) 0.65052(12) 0.39820(15)
H32 H 0.30180 0.63900 0.32390
C38 C 0.3366(2) 0.72483(12) 0.43097(17)
H33 H 0.32210 0.76440 0.37960
C39 C 0.3691(2) 0.74194(12) 0.53944(16)
H34 H 0.37550 0.79320 0.56230
C40 C 0.3921(2) 0.68421(11) 0.61410(15)
H35 H 0.41430 0.69610 0.68820
C41 C 0.0088(2) 0.01992(13) 0.39328(17)
H36 H -0.00630 -0.00350 0.32270
H37 H -0.03250 0.07120 0.38410
H38 H -0.04050 -0.01040 0.43530
C42 C 0.2456(3) -0.05250(11) 0.45952(17)
H39 H 0.19340 -0.08930 0.49110
H40 H 0.34760 -0.04800 0.50510
H41 H 0.24440 -0.06960 0.38780
C43 C 0.0521(2) 0.15236(12) 0.79867(16)
H42 H -0.05130 0.16640 0.76650
H43 H 0.06550 0.13170 0.87060
H44 H 0.07990 0.11410 0.75380
C44 C 0.2999(2) 0.20084(12) 0.86340(14)
H45 H 0.32790 0.15450 0.83310
H46 H 0.31070 0.19300 0.93970
H47 H 0.36370 0.24250 0.85530
N3 N 0.32547(17) 0.43460(9) 0.77103(12)
N4 N 0.14529(17) 0.21963(9) 0.80623(12)
O9 O 0.38073(15) 0.47442(7) 0.61699(10)
O10 O 0.30590(15) 0.33289(7) 0.46106(10)
O11 O -0.01350(14) 0.28938(8) 0.46558(10)
O12 O 0.07784(15) 0.20237(8) 0.32816(10)
O13 O 0.24642(14) 0.07466(7) 0.39913(10)
O14 O 0.18974(15) 0.05518(7) 0.55674(10)
O15 O 0.26816(13) 0.16973(7) 0.64265(9)
O16 O 0.24786(14) 0.37000(7) 0.79320(9)
H48 H -0.034(3) 0.2918(15) 0.396(2)
#END
