
#######################################################################
#
#                 Cambridge Crystallographic Data Centre
#                                CCDC
#
#######################################################################
#
# If this CIF has been generated from an entry in the Cambridge
# Structural Database, then it will include bibliographic, chemical,
# crystal, experimental, refinement or atomic coordinate data resulting
# from the CCDC's data processing and validation procedures.
#
#######################################################################

data_CSD_CIF_ZAKMUW
_audit_creation_date 2017-02-13
_audit_creation_method CSD-ConQuest-V1
_database_code_CSD ZAKMUW
_database_code_depnum_ccdc_archive 'CCDC 1522907'
_chemical_formula_sum 'C28 H19 N3 O2'
_chemical_formula_moiety
;
C28 H19 N3 O2
;
_journal_coden_Cambridge 182
_journal_volume 53
_journal_year 2017
_journal_page_first 2606
_journal_name_full 'Chem.Commun. '
loop_
_publ_author_name
"Chuan Zhu"
"Chao Feng"
"M.Yamane"
_chemical_name_systematic
;
3-[3-(4-nitrophenyl)-1-phenylpropadienyl]-2-phenyl-2H-indazole
;
_cell_volume   2179.746
_exptl_crystal_colour 'yellow'
_exptl_crystal_density_diffrn 1.309
_exptl_crystal_description 'block'
_diffrn_ambient_temperature 103
#These two values have been output from a single CSD field.
_refine_ls_R_factor_gt 0.0543
_refine_ls_wR_factor_gt 0.0543
_symmetry_cell_setting monoclinic
_symmetry_space_group_name_H-M 'P 21/c'
_symmetry_Int_Tables_number 14
loop_
_symmetry_equiv_pos_site_id
_symmetry_equiv_pos_as_xyz
1 x,y,z
2 -x,1/2+y,1/2-z
3 -x,-y,-z
4 x,-1/2-y,-1/2+z
_cell_length_a 11.5198(7)
_cell_length_b 16.0676(12)
_cell_length_c 12.8839(7)
_cell_angle_alpha 90
_cell_angle_beta 113.931(2)
_cell_angle_gamma 90
_cell_formula_units_Z 4
loop_
_atom_type_symbol
_atom_type_radius_bond
C 0.68
H 0.23
N 0.68
O 0.68
loop_
_atom_site_label
_atom_site_type_symbol
_atom_site_fract_x
_atom_site_fract_y
_atom_site_fract_z
C1 C 0.26363(15) 0.36015(9) 0.32515(11)
H1 H 0.34700 0.34180 0.37170
C2 C 0.16002(16) 0.32256(10) 0.33422(12)
H2 H 0.17260 0.27890 0.38750
C3 C 0.03810(16) 0.34837(11) 0.26600(13)
H3 H -0.03270 0.32250 0.27250
C4 C 0.01911(15) 0.41227(11) 0.18778(13)
H4 H -0.06460 0.42970 0.14050
C5 C 0.12317(14) 0.45053(10) 0.17900(11)
H5 H 0.11020 0.49430 0.12580
C6 C 0.24617(13) 0.42510(8) 0.24765(10)
C7 C 0.35789(13) 0.46888(9) 0.24302(10)
C8 C 0.34572(13) 0.51373(8) 0.13888(10)
C9 C 0.30381(13) 0.48736(9) 0.02575(10)
C10 C 0.23824(14) 0.41731(9) -0.03682(11)
H6 H 0.21020 0.37430 -0.00190
C11 C 0.21630(15) 0.41336(9) -0.14989(11)
H7 H 0.17190 0.36690 -0.19360
C12 C 0.25844(15) 0.47717(10) -0.20312(11)
H8 H 0.24360 0.47130 -0.28090
C13 C 0.31960(14) 0.5465(1) -0.14547(11)
H9 H 0.34630 0.58920 -0.18200
C14 C 0.34191(13) 0.55245(9) -0.02890(11)
C15 C 0.44376(13) 0.64706(9) 0.23624(10)
C16 C 0.55640(14) 0.68948(9) 0.25954(11)
H10 H 0.60500 0.67890 0.21650
C17 C 0.59699(14) 0.74755(10) 0.34659(12)
H11 H 0.67400 0.77700 0.36330
C18 C 0.52588(15) 0.76302(9) 0.40971(11)
H12 H 0.55430 0.80290 0.46930
C19 C 0.41300(15) 0.71996(9) 0.38543(11)
H13 H 0.36440 0.73050 0.42850
C20 C 0.37116(14) 0.66173(9) 0.29862(11)
H14 H 0.29420 0.63220 0.28180
C21 C 0.46970(14) 0.47091(9) 0.33001(11)
C22 C 0.58003(14) 0.48413(9) 0.41421(11)
H15 H 0.58750 0.53260 0.45870
C23 C 0.69323(13) 0.43119(9) 0.44644(10)
C24 C 0.80943(14) 0.46104(11) 0.52566(12)
H16 H 0.81330 0.51400 0.55980
C25 C 0.91905(15) 0.41394(11) 0.55486(12)
H17 H 0.99830 0.43410 0.60820
C26 C 0.91019(14) 0.33693(10) 0.50446(11)
C27 C 0.79620(15) 0.30491(10) 0.42697(12)
H18 H 0.79280 0.25140 0.39450
C28 C 0.68772(14) 0.35250(9) 0.39809(11)
H19 H 0.60880 0.33170 0.34500
N1 N 0.39884(12) 0.61572(8) 0.04276(9)
N2 N 0.39907(11) 0.58990(7) 0.14317(9)
N3 N 1.02584(14) 0.2874(1) 0.53272(11)
O1 O 1.01875(13) 0.22129(8) 0.48342(11)
O2 O 1.12570(13) 0.31531(11) 0.60315(11)
#END
