
#######################################################################
#
#                 Cambridge Crystallographic Data Centre
#                                CCDC
#
#######################################################################
#
# If this CIF has been generated from an entry in the Cambridge
# Structural Database, then it will include bibliographic, chemical,
# crystal, experimental, refinement or atomic coordinate data resulting
# from the CCDC's data processing and validation procedures.
#
#######################################################################

data_CSD_CIF_ZAKNEE
_audit_creation_date 1996-03-20
_audit_creation_method CSD-ConQuest-V1
_database_code_CSD ZAKNEE
_database_code_depnum_ccdc_archive 'CCDC 108566; CCDC 401564'
_database_code_depnum_ccdc_fiz 'CSD 401564'
_chemical_formula_sum 'C23 H17 N1 O3'
_chemical_formula_moiety
;
C23 H17 N1 O3
;
_journal_coden_Cambridge 179
_journal_volume 34
_journal_year 1995
_journal_page_first 1485
_journal_name_full 'Angew.Chem.,Int.Ed. '
loop_
_publ_author_name
"A.Bahl"
"W.Grahn"
"S.Stadler"
"F.Feiner"
"G.Bourhill"
"C.Brauchle"
"A.Reisner"
"P.G.Jones"
_chemical_name_systematic
;
1-(4-Nitrophenyl)-8-(4-methoxyphenyl)naphthalene
;
_chemical_melting_point 456.15
_cell_volume   1779.097
_exptl_crystal_colour 'yellow'
_exptl_special_details
;
Melting point range 456.15-457.15K

;
_diffrn_ambient_temperature 173.15
#These two values have been output from a single CSD field.
_refine_ls_R_factor_gt 0.042
_refine_ls_wR_factor_gt 0.042
_symmetry_cell_setting monoclinic
_symmetry_space_group_name_H-M 'P 21'
_symmetry_Int_Tables_number 4
loop_
_symmetry_equiv_pos_site_id
_symmetry_equiv_pos_as_xyz
1 x,y,z
2 -x,1/2+y,-z
_cell_length_a 8.4593(10)
_cell_length_b 14.351(2)
_cell_length_c 14.655(2)
_cell_angle_alpha 90
_cell_angle_beta 90.207(10)
_cell_angle_gamma 90
_cell_formula_units_Z 4
loop_
_atom_type_symbol
_atom_type_radius_bond
C 0.68
H 0.23
N 0.68
O 0.68
loop_
_atom_site_label
_atom_site_type_symbol
_atom_site_fract_x
_atom_site_fract_y
_atom_site_fract_z
C1 C 0.4607(4) 0.5422(2) 0.4429(2)
C2 C 0.5644(4) 0.6154(3) 0.4371(2)
H1 H 0.5448(4) 0.6694(3) 0.4728(2)
C3 C 0.6974(4) 0.6139(3) 0.3811(2)
H2 H 0.7654(4) 0.6665(3) 0.3782(2)
C4 C 0.7288(4) 0.5369(3) 0.3310(2)
H3 H 0.8194(4) 0.5359(3) 0.2929(2)
C5 C 0.6289(4) 0.4579(2) 0.3346(2)
C6 C 0.6675(4) 0.3795(3) 0.2807(2)
H4 H 0.7596(4) 0.3804(3) 0.2439(2)
C7 C 0.5731(4) 0.3029(3) 0.2814(2)
H5 H 0.5976(4) 0.2510(3) 0.2438(2)
C8 C 0.4395(4) 0.3006(2) 0.3377(2)
H6 H 0.3754(4) 0.2462(2) 0.3377(2)
C9 C 0.3976(4) 0.3741(2) 0.3930(2)
C10 C 0.4910(4) 0.4582(2) 0.3918(2)
C11 C 0.3197(4) 0.5580(2) 0.5020(2)
C12 C 0.3412(4) 0.5765(3) 0.5952(2)
H7 H 0.4451(4) 0.5779(3) 0.6200(2)
C13 C 0.2128(5) 0.5929(3) 0.6517(2)
H8 H 0.2280(5) 0.6055(3) 0.7148(2)
C14 C 0.0638(4) 0.5907(3) 0.6148(2)
C15 C 0.0374(4) 0.5753(3) 0.5229(2)
H9 H -0.0668(4) 0.5753(3) 0.4985(2)
C16 C 0.1667(4) 0.5601(2) 0.4675(2)
H10 H 0.1504(4) 0.5508(2) 0.4039(2)
N1 N -0.0744(4) 0.6054(3) 0.6730(2)
O1 O -0.0538(4) 0.6349(4) 0.7500(2)
O2 O -0.2069(3) 0.5916(3) 0.6423(2)
C17 C 0.2544(4) 0.3604(2) 0.4504(2)
C18 C 0.2611(4) 0.3607(2) 0.5457(2)
H11 H 0.3603(4) 0.3685(2) 0.5754(2)
C19 C 0.1268(4) 0.3499(2) 0.5974(2)
H12 H 0.1339(4) 0.3499(2) 0.6621(2)
C20 C -0.0185(4) 0.3391(2) 0.5552(2)
C21 C -0.0281(4) 0.3342(2) 0.4608(2)
H13 H -0.1270(4) 0.3243(2) 0.4314(2)
C22 C 0.1083(4) 0.3441(3) 0.4099(2)
H14 H 0.1019(4) 0.3396(3) 0.3454(2)
O3 O -0.1467(3) 0.3326(2) 0.6132(2)
C23 C -0.2974(4) 0.3292(5) 0.5701(3)
H15 H -0.3176(18) 0.3884(10) 0.5388(20)
H16 H -0.3792(6) 0.3187(25) 0.6161(4)
H17 H -0.2993(15) 0.2782(16) 0.5256(18)
C24 C 0.9604(4) 0.4373(2) 1.0559(2)
C25 C 1.0645(4) 0.3645(2) 1.0613(2)
H18 H 1.0450(4) 0.3105(2) 1.0255(2)
C26 C 1.1996(4) 0.3665(3) 1.1178(2)
H19 H 1.2688(4) 0.3145(3) 1.1204(2)
C27 C 1.2297(4) 0.4435(3) 1.1683(2)
H20 H 1.3200(4) 0.4446(3) 1.2070(2)
C28 C 1.1300(4) 0.5219(2) 1.1646(2)
C29 C 1.1669(4) 0.6007(3) 1.2181(2)
H21 H 1.2599(4) 0.6003(3) 1.2547(2)
C30 C 1.0725(4) 0.6769(3) 1.2185(2)
H22 H 1.0964(4) 0.7286(3) 1.2567(2)
C31 C 0.9382(4) 0.6784(3) 1.1613(2)
H23 H 0.8731(4) 0.7324(3) 1.1613(2)
C32 C 0.8974(4) 0.6052(2) 1.1056(2)
C33 C 0.9907(4) 0.5213(2) 1.1071(2)
C34 C 0.8188(4) 0.4211(2) 0.9962(2)
C35 C 0.6666(4) 0.4190(2) 1.0319(2)
H24 H 0.6512(4) 0.4283(2) 1.0954(2)
C36 C 0.5369(4) 0.4035(3) 0.9755(2)
H25 H 0.4326(4) 0.4040(3) 0.9994(2)
C37 C 0.5632(4) 0.3873(3) 0.8840(2)
C38 C 0.7120(4) 0.3855(3) 0.8468(2)
H26 H 0.7267(4) 0.3730(3) 0.7838(2)
C39 C 0.8398(4) 0.4024(3) 0.9035(2)
H27 H 0.9436(4) 0.4012(3) 0.8790(2)
N2 N 0.4235(4) 0.3724(3) 0.8256(2)
O4 O 0.4450(4) 0.3431(4) 0.7490(2)
O5 O 0.2923(3) 0.3871(3) 0.8562(2)
C40 C 0.7542(4) 0.6192(2) 1.0482(2)
C41 C 0.6079(4) 0.6348(3) 1.0889(2)
H28 H 0.6015(4) 0.6383(3) 1.1535(2)
C42 C 0.4717(4) 0.6453(3) 1.0372(2)
H29 H 0.3731(4) 0.6556(3) 1.0663(2)
C43 C 0.4799(4) 0.6406(2) 0.9427(2)
C44 C 0.6252(4) 0.6289(2) 0.9007(2)
H30 H 0.6316(4) 0.6279(2) 0.8360(2)
C45 C 0.7601(4) 0.6189(2) 0.9525(2)
H31 H 0.8591(4) 0.6115(2) 0.9229(2)
O6 O 0.3521(3) 0.6463(2) 0.8855(2)
C46 C 0.2011(4) 0.6494(5) 0.9273(3)
H32 H 0.1814(17) 0.5904(10) 0.9591(20)
H33 H 0.1197(6) 0.6589(25) 0.8805(4)
H34 H 0.1979(14) 0.7008(15) 0.9712(18)
#END
