
#######################################################################
#
#                 Cambridge Crystallographic Data Centre
#                                CCDC
#
#######################################################################
#
# If this CIF has been generated from an entry in the Cambridge
# Structural Database, then it will include bibliographic, chemical,
# crystal, experimental, refinement or atomic coordinate data resulting
# from the CCDC's data processing and validation procedures.
#
#######################################################################

data_CSD_CIF_ZAKQIL10
_audit_creation_date 1996-04-05
_audit_creation_method CSD-ConQuest-V1
_database_code_CSD ZAKQIL10
_database_code_depnum_ccdc_archive 'CCDC 126221'
_chemical_formula_sum 'C17 H22 N2 O5'
_chemical_formula_moiety
;
C17 H22 N2 O5
;
_journal_coeditor_code "IUCr KA1119"
_journal_coden_Cambridge 591
_journal_volume 52
_journal_year 1996
_journal_page_first 199
_journal_name_full 'Acta Crystallogr.,Sect.C:Cryst.Struct.Commun. '
loop_
_publ_author_name
"A.Tomas"
"P.Lemoine"
"B.Viossat"
"S.Robin"
"Jiarong Zhu"
"H.Galons"
_chemical_name_systematic
;
(S)-3-((1,1-Dimethylethyl)oxycarbonylamino)-1-(phenylmethyloxy)piperidine-2,6-
dione
;
_chemical_name_common
;
(S)-t-Butyl 2,6-dioxo-1-benzyloxypiperdidine-3-carbamate
;
_cell_volume   1735.020
_exptl_crystal_colour 'brown'
_exptl_crystal_density_diffrn 1.28
_diffrn_ambient_temperature ?
_diffrn_special_details
;
The study was carried out at room temperature,in the range 283-303K

;
#These two values have been output from a single CSD field.
_refine_ls_R_factor_gt 0.058
_refine_ls_wR_factor_gt 0.058
_symmetry_cell_setting monoclinic
_symmetry_space_group_name_H-M 'P 21'
_symmetry_Int_Tables_number 4
loop_
_symmetry_equiv_pos_site_id
_symmetry_equiv_pos_as_xyz
1 x,y,z
2 -x,1/2+y,-z
_cell_length_a 10.260(7)
_cell_length_b 10.819(5)
_cell_length_c 16.266(9)
_cell_angle_alpha 90
_cell_angle_beta 106.07(7)
_cell_angle_gamma 90
_cell_formula_units_Z 4
loop_
_atom_type_symbol
_atom_type_radius_bond
C 0.68
H 0.23
N 0.68
O 0.68
loop_
_atom_site_label
_atom_site_type_symbol
_atom_site_fract_x
_atom_site_fract_y
_atom_site_fract_z
O1 O 0.2064(6) 0.9894(6) 0.9469(4)
N1 N 0.3294(8) 1.0299(8) 1.0013(5)
O2 O 0.3485(6) 0.8459(7) 1.0674(4)
C1 C 0.3959(8) 0.9468(11) 1.0664(6)
C2 C 0.5243(9) 0.9980(9) 1.1249(6)
C3 C 0.5219(11) 1.1387(9) 1.1321(6)
C4 C 0.4979(10) 1.1941(9) 1.0431(8)
O3 O 0.3026(8) 1.2088(6) 0.9216(5)
C5 C 0.3704(10) 1.1507(11) 0.9824(7)
C6 C 0.2259(10) 0.9271(11) 0.8710(6)
C7 C 0.0973(9) 0.9457(11) 0.8034(6)
C8 C 0.0093(13) 0.8489(12) 0.7739(9)
C9 C -0.1147(13) 0.8551(16) 0.7115(12)
C10 C -0.1479(14) 0.976(2) 0.6796(8)
C11 C -0.0592(14) 1.0786(14) 0.7052(7)
C12 C 0.0632(11) 1.0559(12) 0.7658(8)
N2 N 0.5538(8) 0.9326(8) 1.2064(5)
O4 O 0.3557(7) 0.9871(7) 1.2376(4)
C13 C 0.4692(10) 0.9472(9) 1.2583(7)
O5 O 0.5336(6) 0.8983(7) 1.3341(4)
C14 C 0.4713(11) 0.8996(11) 1.4025(7)
C15 C 0.3384(15) 0.8185(16) 1.3816(8)
C16 C 0.4443(16) 1.0217(13) 1.4307(9)
C17 C 0.5782(17) 0.8383(16) 1.4772(10)
O6 O 0.7007(6) 0.9405(7) 0.9371(4)
N3 N 0.8253(7) 0.9055(9) 0.9901(5)
O7 O 0.8085(7) 1.0648(7) 1.0817(4)
C18 C 0.8556(8) 0.9682(10) 1.0671(6)
C19 C 0.9680(8) 0.8964(9) 1.1378(6)
C20 C 1.075(1) 0.8409(11) 1.1047(7)
O8 O 0.8529(7) 0.9227(7) 1.2717(5)
C21 C 1.0137(12) 0.7560(12) 1.0302(8)
O9 O 0.8245(9) 0.7467(8) 0.9030(6)
C22 C 0.8793(13) 0.7938(11) 0.9698(9)
C23 C 0.7098(12) 1.0232(10) 0.8683(9)
C24 C 0.5768(10) 1.0122(10) 0.7956(6)
C25 C 0.4925(12) 1.1103(10) 0.7753(8)
C26 C 0.3728(13) 1.0900(14) 0.7136(8)
C27 C 0.3458(12) 0.9799(13) 0.6668(7)
C28 C 0.4336(16) 0.8898(13) 0.6887(8)
C29 C 0.5472(13) 0.8990(12) 0.7531(8)
N4 N 1.0238(8) 0.9717(8) 1.2141(5)
C30 C 0.9564(12) 0.9773(10) 1.2723(6)
O10 O 1.0272(6) 1.0524(6) 1.3380(4)
C31 C 0.9818(11) 1.0737(9) 1.4142(7)
C32 C 0.8519(13) 1.1342(14) 1.3929(9)
C33 C 0.9665(14) 0.9470(12) 1.4586(7)
C34 C 1.0954(12) 1.1406(12) 1.4713(6)
H1 H 0.58930 0.96840 1.08970
H2 H 0.59280 1.15300 1.18700
H3 H 0.44310 1.17350 1.15210
H4 H 0.56510 1.17860 1.00630
H5 H 0.49110 1.28860 1.05860
H6 H 0.30410 0.98530 0.86660
H7 H 0.25100 0.84120 0.90130
H8 H -0.01000 0.76670 0.80250
H9 H -0.16680 0.76790 0.70280
H10 H -0.24210 0.95400 0.63720
H11 H -0.07600 1.16730 0.67920
H12 H 0.13230 1.12760 0.79090
H13 H 0.63510 0.87750 1.22450
H14 H 0.28480 0.81140 1.31680
H15 H 0.33270 0.80200 1.44420
H16 H 0.31140 0.73510 1.34750
H17 H 0.38960 1.04410 1.47360
H18 H 0.40430 1.05510 1.36890
H19 H 0.51140 1.09570 1.43100
H20 H 0.61020 0.76050 1.45590
H21 H 0.65810 0.89250 1.50150
H22 H 0.53470 0.81800 1.52350
H23 H 0.90710 0.83540 1.15840
H24 H 0.53090 1.18460 0.81620
H25 H 0.29800 1.12300 0.66350
H26 H 0.27140 0.92720 0.62380
H27 H 0.41000 0.81980 0.64300
H28 H 0.60980 0.82330 0.75190
H29 H 1.12270 0.96470 1.22140
H30 H 1.11620 0.91130 1.08110
H31 H 1.15760 0.81230 1.15130
H32 H 1.06370 0.74480 0.98460
H33 H 0.96940 0.69810 1.06240
H34 H 0.71490 1.09900 0.90960
H35 H 0.78920 1.00700 0.84370
H36 H 0.78140 1.14670 1.42730
H37 H 0.76440 1.09370 1.35370
H38 H 0.86710 1.22290 1.37300
H39 H 0.98820 0.94280 1.52570
H40 H 1.06030 0.90260 1.46320
H41 H 0.90510 0.87950 1.41910
H42 H 1.17820 1.08720 1.48520
H43 H 1.11390 1.22180 1.44070
H44 H 1.07220 1.16260 1.52530
#END
