
#######################################################################
#
#                 Cambridge Crystallographic Data Centre
#                                CCDC
#
#######################################################################
#
# If this CIF has been generated from an entry in the Cambridge
# Structural Database, then it will include bibliographic, chemical,
# crystal, experimental, refinement or atomic coordinate data resulting
# from the CCDC's data processing and validation procedures.
#
#######################################################################

data_CSD_CIF_ZALVEQ
_audit_creation_date 2017-02-14
_audit_creation_method CSD-ConQuest-V1
_database_code_CSD ZALVEQ
_database_code_depnum_ccdc_archive 'CCDC 1476849'
_chemical_formula_sum 'C9 H9 N1 O4'
_chemical_formula_moiety
;
C9 H9 N1 O4
;
_journal_coden_Cambridge 1220
_journal_volume 22
_journal_year 2016
_journal_page_first 16187
_journal_name_full 'Chem.-Eur.J. '
loop_
_publ_author_name
"D.F.Schrempp"
"E.Kaifer"
"H.Wadepohl"
"H.-J.Himmel"
_chemical_name_systematic
;
2,2-dimethyl-5-nitro-1,3-benzodioxole
;
_cell_volume    885.193
_exptl_crystal_colour 'colorless'
_exptl_crystal_density_diffrn 1.464
_exptl_crystal_description 'needle'
_diffrn_ambient_temperature 100
#These two values have been output from a single CSD field.
_refine_ls_R_factor_gt 0.0414
_refine_ls_wR_factor_gt 0.0414
_symmetry_cell_setting orthorhombic
_symmetry_space_group_name_H-M 'P b c m'
_symmetry_Int_Tables_number 57
loop_
_symmetry_equiv_pos_site_id
_symmetry_equiv_pos_as_xyz
1 x,y,z
2 -x,-y,1/2+z
3 -x,1/2+y,1/2-z
4 x,1/2-y,-z
5 -x,-y,-z
6 x,y,-1/2-z
7 x,-1/2-y,-1/2+z
8 -x,-1/2+y,z
_cell_length_a 9.3680(19)
_cell_length_b 13.164(3)
_cell_length_c 7.1780(14)
_cell_angle_alpha 90
_cell_angle_beta 90
_cell_angle_gamma 90
_cell_formula_units_Z 4
loop_
_atom_type_symbol
_atom_type_radius_bond
C 0.68
H 0.23
N 0.68
O 0.68
loop_
_atom_site_label
_atom_site_type_symbol
_atom_site_fract_x
_atom_site_fract_y
_atom_site_fract_z
O1 O 1.08620(14) 0.31557(10) 0.25000
O2 O 0.92209(14) 0.43142(9) 0.25000
O3 O 0.46320(12) 0.22780(8) 0.25000
O4 O 0.52830(12) 0.05718(9) 0.25000
N1 N 0.96017(15) 0.34198(11) 0.25000
C1 C 0.84950(16) 0.26362(12) 0.25000
C2 C 0.70656(17) 0.29525(12) 0.25000
H1 H 0.68070 0.36350 0.25000
C3 C 0.60786(17) 0.21869(12) 0.25000
C4 C 0.64689(18) 0.11632(11) 0.25000
C5 C 0.78752(18) 0.08605(12) 0.25000
H2 H 0.81260 0.01770 0.25000
C6 C 0.89073(18) 0.16236(13) 0.25000
H3 H 0.98710 0.14540 0.25000
C7 C 0.40417(18) 0.12508(11) 0.25000
C8 C 0.32090(14) 0.10920(9) 0.07376(17)
H4 H 0.38230 0.11950 -0.03170
H5 H 0.24330 0.15670 0.06890
H6 H 0.28390 0.04120 0.07130
C8E C 0.32090(14) 0.10920(9) 0.42624(17)
H4E H 0.38230 0.11950 0.53170
H5E H 0.24330 0.15670 0.43110
H6E H 0.28390 0.04120 0.42870
#END
