
#######################################################################
#
#                 Cambridge Crystallographic Data Centre
#                                CCDC
#
#######################################################################
#
# If this CIF has been generated from an entry in the Cambridge
# Structural Database, then it will include bibliographic, chemical,
# crystal, experimental, refinement or atomic coordinate data resulting
# from the CCDC's data processing and validation procedures.
#
#######################################################################

data_CSD_CIF_ZAMKAZ
_audit_creation_date 1995-10-19
_audit_creation_method CSD-ConQuest-V1
_database_code_CSD ZAMKAZ
_chemical_formula_sum 'C10 H20 N2 O3'
_chemical_formula_moiety
;
C10 H20 N2 O3
;
_journal_coeditor_code "IUCr PA1103"
_journal_coden_Cambridge 591
_journal_volume 51
_journal_year 1995
_journal_page_first 1577
_journal_name_full 'Acta Crystallogr.,Sect.C:Cryst.Struct.Commun. '
loop_
_publ_author_name
"A.Aubry"
"V.Dupont"
"M.Marraud"
_chemical_name_systematic
;
N-Hydroxy-N-pivaloylglycine isopropylamide
;
_cell_volume   1236.297
_exptl_crystal_colour 'colorless'
_exptl_crystal_density_diffrn 1.16
_diffrn_ambient_temperature ?
_diffrn_special_details
;
The study was carried out at room temperature,in the range 283-303K

;
#These two values have been output from a single CSD field.
_refine_ls_R_factor_gt 0.074
_refine_ls_wR_factor_gt 0.074
_symmetry_cell_setting triclinic
_symmetry_space_group_name_H-M 'P -1'
_symmetry_Int_Tables_number 2
loop_
_symmetry_equiv_pos_site_id
_symmetry_equiv_pos_as_xyz
1 x,y,z
2 -x,-y,-z
_cell_length_a 9.598(1)
_cell_length_b 11.636(2)
_cell_length_c 12.759(2)
_cell_angle_alpha 110.64(2)
_cell_angle_beta 107.07(2)
_cell_angle_gamma 96.58(2)
_cell_formula_units_Z 4
loop_
_atom_type_symbol
_atom_type_radius_bond
C 0.68
H 0.23
N 0.68
O 0.68
loop_
_atom_site_label
_atom_site_type_symbol
_atom_site_fract_x
_atom_site_fract_y
_atom_site_fract_z
C1 C 0.9617(6) 0.0516(5) 0.6618(5)
C2 C 0.6869(6) 0.0134(4) 0.6249(5)
C3 C 0.8057(7) 0.1288(6) 0.5238(5)
C4 C 0.8244(4) 0.1064(3) 0.6381(3)
C5 C 0.8636(5) 0.2311(3) 0.7565(4)
O1 O 0.9632(3) 0.2576(3) 0.8443(3)
N1 N 0.7618(3) 0.3069(3) 0.7473(3)
O2 O 0.6393(3) 0.2853(3) 0.6437(3)
C6 C 0.7841(4) 0.4235(3) 0.8494(4)
C7 C 0.8675(4) 0.5402(3) 0.8467(3)
O3 O 0.9890(3) 0.5447(2) 0.8322(3)
N2 N 0.8083(3) 0.6386(3) 0.8701(3)
C8 C 0.8878(4) 0.7663(3) 0.8963(4)
C9 C 0.8177(5) 0.8598(4) 0.9680(5)
C10 C 0.8881(6) 0.7813(5) 0.7834(5)
H1 H 0.556(4) 0.254(4) 0.670(4)
H2 H 0.707(4) 0.625(4) 0.882(4)
C11 C 0.1849(5) 0.6286(5) 0.6453(5)
C12 C 0.2731(6) 0.4405(5) 0.5370(4)
C13 C 0.4508(6) 0.6505(6) 0.6597(5)
C14 C 0.3153(4) 0.5613(4) 0.6505(3)
C15 C 0.3580(4) 0.5288(3) 0.7595(3)
O4 O 0.4878(2) 0.5680(2) 0.8363(2)
N3 N 0.2567(3) 0.4544(3) 0.7763(3)
O5 O 0.1118(3) 0.3984(2) 0.6918(2)
C16 C 0.3020(4) 0.3958(4) 0.8603(4)
C17 C 0.3936(4) 0.3013(3) 0.8227(3)
O6 O 0.3960(3) 0.2585(2) 0.7204(2)
N4 N 0.4669(3) 0.2677(3) 0.9090(3)
C18 C 0.5496(4) 0.1672(3) 0.8890(4)
C19 C 0.4432(6) 0.0398(4) 0.8349(5)
C20 C 0.6689(6) 0.1915(5) 1.0067(5)
H3 H 0.052(4) 0.440(3) 0.744(3)
H4 H 0.468(4) 0.320(4) 0.993(4)
H5 H 0.986(4) 0.045(3) 0.740(4)
H6 H 1.049(4) 0.127(3) 0.673(3)
H7 H 0.933(4) -0.023(4) 0.602(4)
H8 H 0.606(4) 0.060(4) 0.610(3)
H9 H 0.703(4) -0.004(3) 0.704(4)
H10 H 0.659(4) -0.061(4) 0.561(4)
H11 H 0.734(4) 0.155(4) 0.510(4)
H12 H 0.815(4) 0.051(3) 0.465(3)
H13 H 0.919(4) 0.215(3) 0.553(3)
H14 H 0.687(4) 0.433(3) 0.849(3)
H15 H 0.861(4) 0.415(3) 0.931(3)
H16 H 0.996(4) 0.767(3) 0.944(3)
H17 H 0.876(4) 0.950(3) 0.979(3)
H18 H 0.847(4) 0.842(3) 1.062(3)
H19 H 0.728(4) 0.844(4) 0.918(4)
H20 H 0.952(4) 0.869(4) 0.814(3)
H21 H 0.777(4) 0.782(3) 0.737(3)
H22 H 0.973(4) 0.714(3) 0.764(3)
H23 H 0.078(4) 0.576(3) 0.637(3)
H24 H 0.159(4) 0.665(3) 0.576(3)
H25 H 0.213(4) 0.722(4) 0.724(3)
H26 H 0.256(4) 0.471(3) 0.467(4)
H27 H 0.172(4) 0.378(3) 0.527(3)
H28 H 0.361(4) 0.408(3) 0.546(3)
H29 H 0.440(4) 0.672(3) 0.596(4)
H30 H 0.539(4) 0.612(3) 0.666(3)
H31 H 0.492(4) 0.730(4) 0.735(4)
H32 H 0.352(4) 0.455(3) 0.938(4)
H33 H 0.210(4) 0.344(3) 0.860(3)
H34 H 0.606(4) 0.184(3) 0.836(3)
H35 H 0.501(4) -0.030(4) 0.815(3)
H36 H 0.361(4) 0.016(4) 0.768(4)
H37 H 0.407(4) 0.033(3) 0.902(4)
H38 H 0.716(4) 0.124(3) 1.004(3)
#END
