
#######################################################################
#
#                 Cambridge Crystallographic Data Centre
#                                CCDC
#
#######################################################################
#
# If this CIF has been generated from an entry in the Cambridge
# Structural Database, then it will include bibliographic, chemical,
# crystal, experimental, refinement or atomic coordinate data resulting
# from the CCDC's data processing and validation procedures.
#
#######################################################################

data_CSD_CIF_ZAMLEE
_audit_creation_date 1995-10-19
_audit_creation_method CSD-ConQuest-V1
_database_code_CSD ZAMLEE
_database_code_depnum_ccdc_archive 'CCDC 1308881'
_chemical_formula_sum 'C12 H11 N1 O2'
_chemical_formula_moiety
;
C12 H11 N1 O2
;
_journal_coeditor_code "IUCr KA1113"
_journal_coden_Cambridge 591
_journal_volume 51
_journal_year 1995
_journal_page_first 1590
_journal_name_full 'Acta Crystallogr.,Sect.C:Cryst.Struct.Commun. '
loop_
_publ_author_name
"I.Wolska"
"M.Kubicki"
"M.Gawron"
"T.Borowiak"
"W.Z.Antkowiak"
_chemical_name_systematic
;
2-(2-Methoxyphenyl)pyridine-N-oxide
;
_cell_volume   1024.487
_exptl_crystal_colour 'colorless'
_exptl_crystal_density_diffrn 1.305
_diffrn_ambient_temperature ?
_diffrn_special_details
;
The study was carried out at room temperature,in the range 283-303K

;
#These two values have been output from a single CSD field.
_refine_ls_R_factor_gt 0.0398
_refine_ls_wR_factor_gt 0.0398
_symmetry_cell_setting orthorhombic
_symmetry_space_group_name_H-M 'P 21 21 21'
_symmetry_Int_Tables_number 19
loop_
_symmetry_equiv_pos_site_id
_symmetry_equiv_pos_as_xyz
1 x,y,z
2 1/2-x,-y,1/2+z
3 1/2+x,1/2-y,-z
4 -x,1/2+y,1/2-z
_cell_length_a 7.032(1)
_cell_length_b 7.443(1)
_cell_length_c 19.574(4)
_cell_angle_alpha 90
_cell_angle_beta 90
_cell_angle_gamma 90
_cell_formula_units_Z 4
loop_
_atom_type_symbol
_atom_type_radius_bond
C 0.68
H 0.23
N 0.68
O 0.68
loop_
_atom_site_label
_atom_site_type_symbol
_atom_site_fract_x
_atom_site_fract_y
_atom_site_fract_z
N1 N 1.0982(4) 0.1325(3) 0.31704(11)
O1 O 0.9167(3) 0.1522(3) 0.30461(10)
C1 C 1.1606(4) -0.0099(4) 0.35479(13)
C2 C 1.3552(5) -0.0325(5) 0.3636(2)
H1 H 1.392(5) -0.137(4) 0.389(2)
C3 C 1.4839(5) 0.0881(6) 0.3369(2)
H2 H 1.635(6) 0.066(5) 0.344(2)
C4 C 1.4163(5) 0.2327(5) 0.3010(2)
H3 H 1.504(5) 0.323(5) 0.283(2)
C5 C 1.2241(5) 0.2540(4) 0.29109(15)
H4 H 1.180(4) 0.353(5) 0.264(2)
C6 C 1.0179(4) -0.1367(4) 0.38241(12)
C7 C 0.8935(4) -0.0864(3) 0.43394(12)
O2 O 0.9103(3) 0.0861(2) 0.45742(9)
C8 C 0.7807(7) 0.1451(6) 0.5082(2)
H5 H 0.812(7) 0.266(8) 0.515(3)
H6 H 0.799(6) 0.067(5) 0.547(2)
H7 H 0.633(9) 0.130(8) 0.490(3)
C9 C 0.7616(5) -0.2084(4) 0.46000(15)
H8 H 0.669(5) -0.172(4) 0.499(2)
C10 C 0.7583(6) -0.3818(4) 0.4340(2)
H9 H 0.672(6) -0.472(6) 0.452(2)
C11 C 0.8805(6) -0.4359(4) 0.3837(2)
H10 H 0.883(5) -0.556(5) 0.363(2)
C12 C 1.0131(5) -0.3120(4) 0.35869(15)
H11 H 1.100(6) -0.355(5) 0.323(2)
#END
