
#######################################################################
#
#                 Cambridge Crystallographic Data Centre
#                                CCDC
#
#######################################################################
#
# If this CIF has been generated from an entry in the Cambridge
# Structural Database, then it will include bibliographic, chemical,
# crystal, experimental, refinement or atomic coordinate data resulting
# from the CCDC's data processing and validation procedures.
#
#######################################################################

data_CSD_CIF_ZAMLII
_audit_creation_date 1995-10-19
_audit_creation_method CSD-ConQuest-V1
_database_code_CSD ZAMLII
_chemical_formula_sum 'C13 H13 N1 O2'
_chemical_formula_moiety
;
C13 H13 N1 O2
;
_journal_coeditor_code "IUCr KA1113"
_journal_coden_Cambridge 591
_journal_volume 51
_journal_year 1995
_journal_page_first 1590
_journal_name_full 'Acta Crystallogr.,Sect.C:Cryst.Struct.Commun. '
loop_
_publ_author_name
"I.Wolska"
"M.Kubicki"
"M.Gawron"
"T.Borowiak"
"W.Z.Antkowiak"
_chemical_name_systematic
;
2-(2-Methoxyphenyl)-3-methylpyridine-N-oxide
;
_cell_volume   1117.055
_exptl_crystal_colour 'colorless'
_exptl_crystal_density_diffrn 1.28
_diffrn_ambient_temperature ?
_diffrn_special_details
;
The study was carried out at room temperature,in the range 283-303K

;
#These two values have been output from a single CSD field.
_refine_ls_R_factor_gt 0.0371
_refine_ls_wR_factor_gt 0.0371
_symmetry_cell_setting monoclinic
_symmetry_space_group_name_H-M 'P 21/c'
_symmetry_Int_Tables_number 14
loop_
_symmetry_equiv_pos_site_id
_symmetry_equiv_pos_as_xyz
1 x,y,z
2 -x,1/2+y,1/2-z
3 -x,-y,-z
4 x,-1/2-y,-1/2+z
_cell_length_a 10.677(2)
_cell_length_b 7.750(1)
_cell_length_c 13.961(3)
_cell_angle_alpha 90
_cell_angle_beta 104.77(1)
_cell_angle_gamma 90
_cell_formula_units_Z 4
loop_
_atom_type_symbol
_atom_type_radius_bond
C 0.68
H 0.23
N 0.68
O 0.68
loop_
_atom_site_label
_atom_site_type_symbol
_atom_site_fract_x
_atom_site_fract_y
_atom_site_fract_z
N1 N 0.86813(14) 0.3236(2) 0.88232(10)
O1 O 0.88111(14) 0.3168(2) 0.97800(9)
C1 C 0.8010(2) 0.1971(2) 0.82183(12)
C2 C 0.7873(2) 0.2064(2) 0.71996(13)
C3 C 0.7157(2) 0.0677(3) 0.6528(2)
H1 H 0.716(3) 0.093(4) 0.587(2)
H2 H 0.630(3) 0.048(3) 0.658(2)
H3 H 0.759(3) -0.043(4) 0.675(2)
C4 C 0.8416(2) 0.3447(3) 0.68159(14)
H4 H 0.831(2) 0.351(3) 0.611(2)
C5 C 0.9092(2) 0.4690(3) 0.74442(14)
H5 H 0.949(2) 0.569(3) 0.722(1)
C6 C 0.9226(2) 0.4565(3) 0.84435(15)
H6 H 0.968(2) 0.532(3) 0.892(1)
C7 C 0.7507(2) 0.0526(2) 0.87182(12)
C8 C 0.6184(2) 0.0391(2) 0.86649(13)
O2 O 0.54097(12) 0.1655(2) 0.81422(10)
C9 C 0.4051(2) 0.1308(3) 0.7858(2)
H7 H 0.367(2) 0.227(3) 0.743(2)
H8 H 0.370(2) 0.125(3) 0.845(2)
H9 H 0.390(2) 0.017(4) 0.750(2)
C10 C 0.5735(2) -0.0971(3) 0.91259(14)
H10 H 0.486(2) -0.106(3) 0.909(1)
C11 C 0.6579(2) -0.2202(3) 0.9629(2)
H11 H 0.624(2) -0.318(3) 0.994(2)
C12 C 0.7887(2) -0.2099(3) 0.96852(15)
H12 H 0.846(2) -0.295(3) 1.001(2)
C13 C 0.8340(2) -0.0734(3) 0.92299(14)
H13 H 0.926(2) -0.061(3) 0.927(2)
#END
