
#######################################################################
#
#                 Cambridge Crystallographic Data Centre
#                                CCDC
#
#######################################################################
#
# If this CIF has been generated from an entry in the Cambridge
# Structural Database, then it will include bibliographic, chemical,
# crystal, experimental, refinement or atomic coordinate data resulting
# from the CCDC's data processing and validation procedures.
#
#######################################################################

data_CSD_CIF_ZAMVEO
_audit_creation_date 1995-10-19
_audit_creation_method CSD-ConQuest-V1
_database_code_CSD ZAMVEO
_chemical_formula_sum 'C12 H12 N2 O3'
_chemical_formula_moiety
;
C12 H12 N2 O3
;
_journal_coeditor_code "IUCr BK1107"
_journal_coden_Cambridge 591
_journal_volume 51
_journal_year 1995
_journal_page_first 1661
_journal_name_full 'Acta Crystallogr.,Sect.C:Cryst.Struct.Commun. '
loop_
_publ_author_name
"Kin-Shan Huang"
"D.Britton"
"M.C.Etter"
_chemical_name_systematic
;
3-(3-Nitroanilino)cyclohex-2-en-1-one
;
_cell_volume    555.424
_exptl_crystal_colour 'yellow'
_exptl_crystal_density_diffrn 1.388
_diffrn_ambient_temperature ?
_diffrn_special_details
;
The study was carried out at room temperature,in the range 283-303K

;
#These two values have been output from a single CSD field.
_refine_ls_R_factor_gt 0.062
_refine_ls_wR_factor_gt 0.062
_symmetry_cell_setting triclinic
_symmetry_space_group_name_H-M 'P -1'
_symmetry_Int_Tables_number 2
loop_
_symmetry_equiv_pos_site_id
_symmetry_equiv_pos_as_xyz
1 x,y,z
2 -x,-y,-z
_cell_length_a 7.312(3)
_cell_length_b 8.349(4)
_cell_length_c 10.358(2)
_cell_angle_alpha 98.82(3)
_cell_angle_beta 96.98(3)
_cell_angle_gamma 114.70(4)
_cell_formula_units_Z 2
loop_
_atom_type_symbol
_atom_type_radius_bond
C 0.68
H 0.23
N 0.68
O 0.68
loop_
_atom_site_label
_atom_site_type_symbol
_atom_site_fract_x
_atom_site_fract_y
_atom_site_fract_z
O1 O 0.8954(4) 0.3478(3) 0.5624(2)
O2 O 1.1504(3) 0.4954(3) 0.7307(2)
O3 O 0.2450(3) 0.7949(3) 1.1479(2)
N1 N 0.9824(4) 0.4627(3) 0.6677(2)
N2 N 0.8581(3) 0.7853(3) 1.0473(2)
C1 C 0.7396(4) 0.5914(3) 0.6313(2)
C2 C 0.8752(3) 0.5648(3) 0.7197(2)
C3 C 0.9171(3) 0.6283(3) 0.8565(2)
C4 C 0.8121(3) 0.7221(3) 0.9085(2)
C5 C 0.6781(3) 0.7550(3) 0.8209(2)
C6 C 0.6431(4) 0.6902(4) 0.6847(2)
C7 C 0.4291(3) 0.8302(3) 1.1821(2)
C8 C 0.5451(4) 0.9352(4) 1.3211(3)
C9 C 0.7158(4) 0.8884(4) 1.3678(2)
C10 C 0.8561(3) 0.9140(3) 1.2697(2)
C11 C 0.7398(3) 0.8197(3) 1.1293(2)
C12 C 0.5359(3) 0.7759(3) 1.0922(2)
H1 H 0.978(4) 0.792(4) 1.083(3)
H2 H 0.55080 0.71320 0.62660
H3 H 0.71080 0.54350 0.53630
H4 H 1.01630 0.61050 0.91460
H5 H 0.60850 0.82290 0.85460
H6 H 0.46100 0.70550 1.00320
H7 H 0.95330 0.87000 1.29280
H8 H 0.92860 1.04090 1.27310
H9 H 0.65910 0.76450 1.37590
H10 H 0.79430 0.96290 1.45470
H11 H 0.60400 1.06350 1.32100
H12 H 0.45150 0.91400 1.37980
#END
