
#######################################################################
#
#                 Cambridge Crystallographic Data Centre
#                                CCDC
#
#######################################################################
#
# If this CIF has been generated from an entry in the Cambridge
# Structural Database, then it will include bibliographic, chemical,
# crystal, experimental, refinement or atomic coordinate data resulting
# from the CCDC's data processing and validation procedures.
#
#######################################################################

data_CSD_CIF_ZAMWIT
_audit_creation_date 1995-10-19
_audit_creation_method CSD-ConQuest-V1
_database_code_CSD ZAMWIT
_chemical_formula_sum 'C11 H11 N3 O2'
_chemical_formula_moiety
;
C11 H11 N3 O2
;
_journal_coeditor_code "IUCr AB1197"
_journal_coden_Cambridge 591
_journal_volume 51
_journal_year 1995
_journal_page_first 1670
_journal_name_full 'Acta Crystallogr.,Sect.C:Cryst.Struct.Commun. '
loop_
_publ_author_name
"A.Kowalski"
_chemical_name_systematic
;
2-Methyl-1-(p-methylphenyl)-4-nitroimidazole
;
_cell_volume   1051.048
_exptl_crystal_colour 'Colorless'
_exptl_crystal_density_diffrn 1.373
_diffrn_ambient_temperature ?
_diffrn_special_details
;
The study was carried out at room temperature,in the range 283-303K

;
#These two values have been output from a single CSD field.
_refine_ls_R_factor_gt 0.0466
_refine_ls_wR_factor_gt 0.0466
_symmetry_cell_setting monoclinic
_symmetry_space_group_name_H-M 'P 21/c'
_symmetry_Int_Tables_number 14
loop_
_symmetry_equiv_pos_site_id
_symmetry_equiv_pos_as_xyz
1 x,y,z
2 -x,1/2+y,1/2-z
3 -x,-y,-z
4 x,-1/2-y,-1/2+z
_cell_length_a 8.259(2)
_cell_length_b 7.805(2)
_cell_length_c 16.774(3)
_cell_angle_alpha 90
_cell_angle_beta 103.58(3)
_cell_angle_gamma 90
_cell_formula_units_Z 4
loop_
_atom_type_symbol
_atom_type_radius_bond
C 0.68
H 0.23
N 0.68
O 0.68
loop_
_atom_site_label
_atom_site_type_symbol
_atom_site_fract_x
_atom_site_fract_y
_atom_site_fract_z
O1 O 0.2281(3) 0.5272(3) 0.59776(12)
O2 O 0.4628(3) 0.3992(3) 0.63850(13)
N1 N 0.2384(2) 0.3150(2) 0.37683(11)
N2 N 0.4369(2) 0.2593(3) 0.48751(13)
N3 N 0.3395(3) 0.4348(3) 0.58565(13)
C1 C 0.3848(3) 0.2285(3) 0.40852(15)
C2 C 0.3213(3) 0.3667(3) 0.50573(14)
C3 C 0.1979(3) 0.4022(3) 0.43919(15)
C4 C 0.1448(3) 0.3201(3) 0.29307(14)
C5 C -0.0223(3) 0.2822(3) 0.2752(2)
C6 C -0.1135(4) 0.2940(4) 0.1949(2)
C7 C -0.0403(3) 0.3417(3) 0.1327(2)
C8 C 0.1291(3) 0.3760(3) 0.1525(2)
C9 C 0.2210(3) 0.3662(3) 0.23210(15)
C10 C 0.4672(5) 0.1143(5) 0.3607(2)
C11 C -0.1412(5) 0.3599(5) 0.0463(2)
H1 H 0.1032(29) 0.4734(31) 0.4338(14)
H2 H -0.0802(33) 0.2604(35) 0.3159(18)
H3 H -0.2261(43) 0.2668(38) 0.1828(19)
H4 H 0.1904(31) 0.3988(31) 0.1085(17)
H5 H 0.3391(37) 0.3952(34) 0.2454(17)
H6 H 0.5197(46) 0.0151(57) 0.3958(24)
H7 H 0.3810(48) 0.0746(48) 0.3075(28)
H8 H 0.5440(49) 0.1728(50) 0.3433(23)
H9 H -0.0829(52) 0.3210(56) 0.0104(30)
H10 H -0.1626(44) 0.4832(65) 0.0338(25)
H11 H -0.2436(54) 0.3165(49) 0.0447(23)
#END
