
#######################################################################
#
#                 Cambridge Crystallographic Data Centre
#                                CCDC
#
#######################################################################
#
# If this CIF has been generated from an entry in the Cambridge
# Structural Database, then it will include bibliographic, chemical,
# crystal, experimental, refinement or atomic coordinate data resulting
# from the CCDC's data processing and validation procedures.
#
#######################################################################

data_CSD_CIF_ZANBEY
_audit_creation_date 2017-02-14
_audit_creation_method CSD-ConQuest-V1
_database_code_CSD ZANBEY
_database_code_depnum_ccdc_archive 'CCDC 1509125'
_chemical_formula_sum 'C23 H14 N2 O2'
_chemical_formula_moiety
;
C23 H14 N2 O2
;
_journal_coden_Cambridge 1291
_journal_year 2017
_journal_page_first 1052
_journal_name_full 'Eur.J.Org.Chem. '
loop_
_publ_author_name
"M.D.Kilde"
"Mia Harring Hansen"
"S.L.Broman"
"K.V.Mikkelsen"
"M.B.Nielsen"
_chemical_name_systematic
;
2-(4-nitrophenyl)-3-phenylazulene-1-carbonitrile
;
_cell_volume   3476.629
_exptl_crystal_density_diffrn 1.339
_diffrn_ambient_temperature 122
#These two values have been output from a single CSD field.
_refine_ls_R_factor_gt 0.1342
_refine_ls_wR_factor_gt 0.1342
_symmetry_cell_setting monoclinic
_symmetry_space_group_name_H-M 'P 21/n'
_symmetry_Int_Tables_number 14
loop_
_symmetry_equiv_pos_site_id
_symmetry_equiv_pos_as_xyz
1 x,y,z
2 1/2-x,1/2+y,1/2-z
3 -x,-y,-z
4 -1/2+x,-1/2-y,-1/2+z
_cell_length_a 11.3651(12)
_cell_length_b 17.7258(16)
_cell_length_c 17.8096(18)
_cell_angle_alpha 90
_cell_angle_beta 104.303(4)
_cell_angle_gamma 90
_cell_formula_units_Z 8
loop_
_atom_type_symbol
_atom_type_radius_bond
C 0.68
H 0.23
N 0.68
O 0.68
loop_
_atom_site_label
_atom_site_type_symbol
_atom_site_fract_x
_atom_site_fract_y
_atom_site_fract_z
O1 O 0.8618(4) 0.1979(3) 0.2966(3)
C1 C -0.0299(5) -0.0367(3) 0.4036(3)
H1 H -0.10700 -0.05700 0.40420
O2 O 0.8847(4) 0.2484(3) 0.4105(3)
C2 C 0.0768(4) 0.0876(3) 0.4097(3)
H2 H 0.06590 0.13990 0.41780
N1 N 0.8285(4) 0.2088(2) 0.3565(3)
C3 C 0.7157(4) 0.1722(3) 0.3638(3)
C4 C 0.6541(4) 0.1258(3) 0.3042(3)
H3 H 0.68480 0.11660 0.26010
C5 C 0.5462(4) 0.0934(3) 0.3112(3)
H4 H 0.50270 0.06080 0.27160
C6 C 0.5007(4) 0.1084(2) 0.3762(3)
C7 C 0.3853(4) 0.0749(2) 0.3828(2)
C8 C 0.3517(4) -0.0016(2) 0.3729(3)
C9 C 0.2329(4) -0.0090(2) 0.3847(2)
C10 C 0.1737(5) -0.0774(3) 0.3873(3)
H5 H 0.21830 -0.12140 0.38150
C11 C 0.0569(5) -0.0895(3) 0.3973(3)
H6 H 0.03420 -0.14080 0.40020
C12 C 0.6749(4) 0.1870(3) 0.4295(3)
H7 H 0.71990 0.21840 0.46970
C13 C 0.5659(4) 0.1543(3) 0.4348(3)
H8 H 0.53590 0.16360 0.47920
C14 C 0.4294(4) -0.0632(2) 0.3572(3)
C15 C 0.5480(4) -0.0719(3) 0.4034(3)
H9 H 0.57760 -0.03860 0.44570
C16 C 0.6219(5) -0.1287(3) 0.3878(3)
H10 H 0.70170 -0.13470 0.41970
C17 C 0.5795(5) -0.1772(3) 0.3253(3)
H11 H 0.63060 -0.21590 0.31440
C18 C 0.4640(5) -0.1690(3) 0.2797(3)
H12 H 0.43580 -0.20210 0.23710
C19 C 0.3869(5) -0.1125(3) 0.2948(3)
H13 H 0.30670 -0.10760 0.26320
C20 C 0.1901(4) 0.0666(2) 0.3996(2)
C21 C -0.0219(4) 0.0415(3) 0.4093(3)
H14 H -0.09390 0.06670 0.41330
C22 C 0.2871(4) 0.1166(2) 0.3985(2)
C23 C 0.2796(4) 0.1964(3) 0.4025(3)
N2 N 0.2729(4) 0.2609(2) 0.4043(3)
O3 O 1.3165(3) 0.1815(2) 0.2145(2)
C24 C 0.9907(5) -0.1320(3) 0.1366(4)
H15 H 1.05220 -0.13980 0.10970
O4 O 1.2577(3) 0.2383(2) 0.1038(2)
C25 C 0.3204(5) -0.0230(4) 0.0779(3)
H16 H 0.23990 -0.04140 0.07090
N3 N 1.2385(4) 0.1972(2) 0.1553(2)
C26 C 1.1175(4) 0.1646(2) 0.1447(3)
C27 C 1.0959(4) 0.1184(3) 0.2026(3)
H17 H 1.15910 0.10690 0.24690
C28 C 0.9806(4) 0.0893(3) 0.1945(2)
H18 H 0.96440 0.05730 0.23360
C29 C 0.8869(4) 0.1069(2) 0.1288(2)
C30 C 0.7637(4) 0.0772(2) 0.1199(2)
C31 C 0.7316(4) 0.0024(3) 0.1331(3)
C32 C 0.8169(4) -0.0612(3) 0.1539(3)
C33 C 0.9086(5) -0.0735(3) 0.1152(3)
H19 H 0.91440 -0.04120 0.07370
C34 C 0.9830(6) -0.1796(3) 0.1978(4)
H20 H 1.04010 -0.21920 0.21330
C35 C 1.0286(4) 0.1824(2) 0.0790(3)
H21 H 1.04640 0.21380 0.04010
C36 C 0.9120(4) 0.1532(3) 0.0709(3)
H22 H 0.84960 0.16470 0.02610
C37 C 0.8105(5) -0.1100(3) 0.2150(3)
H23 H 0.74960 -0.10270 0.24250
C38 C 0.8929(6) -0.1688(3) 0.2353(3)
H24 H 0.88660 -0.20210 0.27590
C39 C 0.6029(4) -0.0024(3) 0.1162(3)
C40 C 0.5538(4) 0.0735(3) 0.0937(3)
C41 C 0.6556(4) 0.1203(3) 0.0969(3)
C42 C 0.6451(4) 0.1995(3) 0.0814(3)
N4 N 0.6322(4) 0.2632(3) 0.0690(3)
C43 C 0.4334(4) 0.0975(3) 0.0722(3)
H25 H 0.42120 0.14960 0.06040
C44 C 0.3288(5) 0.0546(4) 0.0658(3)
H26 H 0.25400 0.08130 0.05140
C45 C 0.4098(5) -0.0772(3) 0.0984(3)
H27 H 0.38200 -0.12750 0.10140
C46 C 0.5366(5) -0.0679(3) 0.1155(3)
H28 H 0.58310 -0.11270 0.12840
#END
