
#######################################################################
#
#                 Cambridge Crystallographic Data Centre
#                                CCDC
#
#######################################################################
#
# If this CIF has been generated from an entry in the Cambridge
# Structural Database, then it will include bibliographic, chemical,
# crystal, experimental, refinement or atomic coordinate data resulting
# from the CCDC's data processing and validation procedures.
#
#######################################################################

data_CSD_CIF_ZANZOF
_audit_creation_date 2012-07-11
_audit_creation_method CSD-ConQuest-V1
_database_code_CSD ZANZOF
_database_code_depnum_ccdc_archive 'CCDC 880136'
_chemical_formula_sum 'C14 H13 N1 O4'
_chemical_formula_moiety
;
C14 H13 N1 O4
;
_journal_coeditor_code "IUCr KP2400"
_journal_coden_Cambridge 1370
_journal_volume 68
_journal_year 2012
_journal_page_first o1292
_journal_name_full 'Acta Crystallogr.,Sect.E:Struct.Rep.Online '
loop_
_publ_author_name
"Xin-Min Li"
"Yan-Jun Hou"
"Wen-Yi Chu"
"Zhi-Zhong Sun"
_chemical_name_systematic
;
3,4-Dimethoxy-4'-nitro-1,1'-biphenyl
;
_cell_volume   2519.853
_exptl_crystal_colour 'colorless'
_exptl_crystal_density_diffrn 1.367
_exptl_crystal_description 'block'
_diffrn_ambient_temperature 295
#These two values have been output from a single CSD field.
_refine_ls_R_factor_gt 0.0377
_refine_ls_wR_factor_gt 0.0377
_symmetry_cell_setting monoclinic
_symmetry_space_group_name_H-M 'P 21/c'
_symmetry_Int_Tables_number 14
loop_
_symmetry_equiv_pos_site_id
_symmetry_equiv_pos_as_xyz
1 x,y,z
2 -x,1/2+y,1/2-z
3 -x,-y,-z
4 x,-1/2-y,-1/2+z
_cell_length_a 16.2714(14)
_cell_length_b 7.6529(7)
_cell_length_c 20.2448(18)
_cell_angle_alpha 90
_cell_angle_beta 91.691(1)
_cell_angle_gamma 90
_cell_formula_units_Z 8
loop_
_atom_type_symbol
_atom_type_radius_bond
C 0.68
H 0.23
N 0.68
O 0.68
loop_
_atom_site_label
_atom_site_type_symbol
_atom_site_fract_x
_atom_site_fract_y
_atom_site_fract_z
O1 O 0.22448(7) 0.63104(14) 0.23783(5)
O2 O 0.27112(7) 0.37343(14) 0.31153(5)
C1 C 0.46025(9) 0.64220(19) 0.32340(7)
N1 N 0.54229(9) 0.36706(18) -0.07790(8)
C2 C 0.62073(9) 0.37383(19) -0.04093(8)
O3 O 1.05775(7) 0.44259(16) 0.18817(6)
C3 C 0.40531(9) 0.50427(19) 0.33426(7)
H1 H 0.42160 0.41180 0.36140
C4 C 0.32767(9) 0.50402(19) 0.30529(7)
C5 C 0.69556(9) 0.3404(2) 0.06001(7)
H2 H 0.69680 0.31500 0.10500
C6 C 0.84677(9) 0.3872(2) 0.06898(7)
C7 C 0.76892(9) 0.37979(19) 0.02932(7)
C8 C 0.56002(10) 0.5714(2) 0.41620(7)
H3 H 0.51660 0.52680 0.43990
C9 C 0.90164(9) 0.5261(2) 0.06122(7)
H4 H 0.89090 0.60940 0.02870
C10 C 0.43361(10) 0.7800(2) 0.28437(7)
H5 H 0.46880 0.87330 0.27710
O4 O 1.02683(7) 0.67505(15) 0.09849(6)
C11 C 0.54441(9) 0.63894(18) 0.35348(7)
N2 N 0.78555(10) 0.6281(2) 0.43826(9)
C12 C 0.30184(9) 0.6445(2) 0.26520(7)
C13 C 0.86516(10) 0.2620(2) 0.11649(8)
H6 H 0.82960 0.16830 0.12190
O5 O 0.48073(7) 0.31992(18) -0.04893(7)
C14 C 0.97134(9) 0.5411(2) 0.10119(7)
C15 C 0.70214(10) 0.6327(2) 0.40854(8)
C16 C 0.63842(10) 0.5688(2) 0.44434(8)
H7 H 0.64780 0.52460 0.48670
C17 C 0.68964(10) 0.7008(2) 0.34608(8)
H8 H 0.73350 0.74360 0.32250
C18 C 0.69146(10) 0.4127(2) -0.07351(8)
H9 H 0.68960 0.43590 -0.11860
C19 C 0.98862(9) 0.4140(2) 0.14981(8)
C20 C 0.62188(10) 0.3381(2) 0.02565(8)
H10 H 0.57340 0.31280 0.04690
C21 C 0.35498(10) 0.7815(2) 0.25574(7)
H11 H 0.33810 0.87600 0.22990
C22 C 0.61105(10) 0.7044(2) 0.31925(8)
H12 H 0.60200 0.75160 0.27730
C23 C 0.76529(10) 0.4165(2) -0.03812(7)
H13 H 0.81330 0.44400 -0.05960
O6 O 0.54103(9) 0.4053(2) -0.13626(7)
O7 O 0.79437(9) 0.5829(2) 0.49556(8)
C24 C 0.93586(10) 0.2746(2) 0.15612(8)
H14 H 0.94780 0.18810 0.18720
C25 C 0.19155(11) 0.7810(2) 0.20433(9)
H15 H 0.18970 0.87750 0.23460
H16 H 0.13700 0.75560 0.18770
H17 H 0.22590 0.81080 0.16820
C26 C 0.29085(11) 0.2330(2) 0.35539(9)
H18 H 0.33970 0.17540 0.34120
H19 H 0.24610 0.15110 0.35520
H20 H 0.30000 0.27780 0.39930
O8 O 0.84249(9) 0.6716(2) 0.40461(9)
C27 C 1.00852(12) 0.8142(2) 0.05341(10)
H21 H 1.00460 0.76880 0.00920
H22 H 1.05150 0.90000 0.05630
H23 H 0.95720 0.86710 0.06440
C28 C 1.07699(12) 0.3182(3) 0.23870(9)
H24 H 1.03250 0.31220 0.26880
H25 H 1.12640 0.35320 0.26230
H26 H 1.08500 0.20550 0.21910
#END
