
#######################################################################
#
#                 Cambridge Crystallographic Data Centre
#                                CCDC
#
#######################################################################
#
# If this CIF has been generated from an entry in the Cambridge
# Structural Database, then it will include bibliographic, chemical,
# crystal, experimental, refinement or atomic coordinate data resulting
# from the CCDC's data processing and validation procedures.
#
#######################################################################

data_CSD_CIF_ZAPDUR
_audit_creation_date 2012-07-11
_audit_creation_method CSD-ConQuest-V1
_database_code_CSD ZAPDUR
_database_code_depnum_ccdc_archive 'CCDC 880152'
_chemical_formula_sum 'C14 H12 N4 O3'
_chemical_formula_moiety
;
C14 H12 N4 O3
;
_journal_coeditor_code "IUCr HB6724"
_journal_coden_Cambridge 1370
_journal_volume 68
_journal_year 2012
_journal_page_first o1320
_journal_name_full 'Acta Crystallogr.,Sect.E:Struct.Rep.Online '
loop_
_publ_author_name
"Shu-Qing Xu"
_chemical_name_systematic
;
(E)-4-Amino-N'-(3-nitrobenzylidene)benzohydrazide
;
_cell_volume   1293.709
_exptl_crystal_colour 'yellow'
_exptl_crystal_density_diffrn 1.46
_exptl_crystal_description 'prism'
_diffrn_ambient_temperature 296
#These two values have been output from a single CSD field.
_refine_ls_R_factor_gt 0.0573
_refine_ls_wR_factor_gt 0.0573
_symmetry_cell_setting monoclinic
_symmetry_space_group_name_H-M 'P 21/n'
_symmetry_Int_Tables_number 14
loop_
_symmetry_equiv_pos_site_id
_symmetry_equiv_pos_as_xyz
1 x,y,z
2 1/2-x,1/2+y,1/2-z
3 -x,-y,-z
4 -1/2+x,-1/2-y,-1/2+z
_cell_length_a 7.8909(16)
_cell_length_b 11.153(2)
_cell_length_c 14.709(3)
_cell_angle_alpha 90
_cell_angle_beta 92.00(3)
_cell_angle_gamma 90
_cell_formula_units_Z 4
loop_
_atom_type_symbol
_atom_type_radius_bond
C 0.68
H 0.23
N 0.68
O 0.68
loop_
_atom_site_label
_atom_site_type_symbol
_atom_site_fract_x
_atom_site_fract_y
_atom_site_fract_z
O1 O 0.13734(17) 0.68729(12) 0.42167(9)
O2 O -0.0202(2) 0.28779(13) 0.14494(10)
O3 O 0.00112(17) 0.09872(13) 0.11390(9)
N1 N 0.3895(2) 0.95096(15) 0.79084(11)
H1 H 0.37830 1.02860 0.77800
H2 H 0.47960 0.93060 0.82550
N2 N 0.2130(2) 0.52763(13) 0.50999(10)
H3 H 0.24000 0.50320 0.56400
N3 N 0.18734(19) 0.44493(14) 0.44124(10)
N4 N 0.02597(19) 0.18540(14) 0.16438(10)
C1 C 0.3493(2) 0.87791(17) 0.71707(12)
C2 C 0.2528(2) 0.92102(17) 0.64211(12)
H4 H 0.22010 1.00110 0.64020
C3 C 0.2060(2) 0.84555(16) 0.57111(12)
H5 H 0.14130 0.87560 0.52220
C4 C 0.2540(2) 0.72489(16) 0.57130(12)
C5 C 0.3551(2) 0.68367(17) 0.64523(12)
H6 H 0.39210 0.60450 0.64590
C6 C 0.4007(2) 0.75809(17) 0.71689(12)
H7 H 0.46630 0.72820 0.76550
C7 C 0.1965(2) 0.64721(16) 0.49378(12)
C8 C 0.2188(2) 0.33609(17) 0.46441(12)
H8 H 0.25240 0.31870 0.52420
C9 C 0.2025(2) 0.23928(16) 0.39805(12)
C10 C 0.1297(2) 0.25889(16) 0.31199(12)
H9 H 0.09240 0.33500 0.29490
C11 C 0.1133(2) 0.16422(16) 0.25250(12)
C12 C 0.1707(2) 0.04973(17) 0.27327(13)
H10 H 0.15960 -0.01230 0.23120
C13 C 0.2455(3) 0.03068(17) 0.35892(14)
H11 H 0.28620 -0.04500 0.37480
C14 C 0.2596(2) 0.12410(18) 0.42087(13)
H12 H 0.30780 0.11000 0.47850
#END
