
#######################################################################
#
#                 Cambridge Crystallographic Data Centre
#                                CCDC
#
#######################################################################
#
# If this CIF has been generated from an entry in the Cambridge
# Structural Database, then it will include bibliographic, chemical,
# crystal, experimental, refinement or atomic coordinate data resulting
# from the CCDC's data processing and validation procedures.
#
#######################################################################

data_CSD_CIF_ZAPKOS
_audit_creation_date 2012-07-11
_audit_creation_method CSD-ConQuest-V1
_database_code_CSD ZAPKOS
_database_code_depnum_ccdc_archive 'CCDC 880175'
_chemical_formula_sum 'C14 H11 N3 O4'
_chemical_formula_moiety
;
C14 H11 N3 O4
;
_journal_coeditor_code "IUCr QM2061"
_journal_coden_Cambridge 1370
_journal_volume 68
_journal_year 2012
_journal_page_first o1352
_journal_name_full 'Acta Crystallogr.,Sect.E:Struct.Rep.Online '
loop_
_publ_author_name
"Jin-Long Hou"
_chemical_name_systematic
;
4-Hydroxy-N'-(3-nitrobenzylidene)benzohydrazide
;
_cell_volume   1286.463
_exptl_crystal_colour 'yellow'
_exptl_crystal_density_diffrn 1.473
_exptl_crystal_description 'block'
_diffrn_ambient_temperature 298
#These two values have been output from a single CSD field.
_refine_ls_R_factor_gt 0.0348
_refine_ls_wR_factor_gt 0.0348
_symmetry_cell_setting monoclinic
_symmetry_space_group_name_H-M 'P 21/n'
_symmetry_Int_Tables_number 14
loop_
_symmetry_equiv_pos_site_id
_symmetry_equiv_pos_as_xyz
1 x,y,z
2 1/2-x,1/2+y,1/2-z
3 -x,-y,-z
4 -1/2+x,-1/2-y,-1/2+z
_cell_length_a 8.018(2)
_cell_length_b 11.156(2)
_cell_length_c 14.389(2)
_cell_angle_alpha 90
_cell_angle_beta 91.773(2)
_cell_angle_gamma 90
_cell_formula_units_Z 4
loop_
_atom_type_symbol
_atom_type_radius_bond
C 0.68
H 0.23
N 0.68
O 0.68
loop_
_atom_site_label
_atom_site_type_symbol
_atom_site_fract_x
_atom_site_fract_y
_atom_site_fract_z
N1 N 0.18378(15) 0.04393(11) 0.44521(8)
N2 N 0.21274(16) -0.03537(12) 0.51683(8)
N3 N 0.02101(16) 0.30324(12) 0.15979(9)
O1 O -0.00751(15) 0.39126(11) 0.11049(8)
O2 O -0.01799(18) 0.20157(11) 0.13697(9)
O3 O 0.14307(14) -0.19871(10) 0.43108(7)
O4 O 0.43051(15) -0.43925(11) 0.80509(8)
H1 H 0.49810 -0.40320 0.83860
C1 C 0.18748(18) 0.24891(14) 0.39868(10)
C2 C 0.11420(18) 0.22848(13) 0.31117(10)
H2 H 0.07330 0.15320 0.29460
C3 C 0.10429(18) 0.32288(13) 0.25017(10)
C4 C 0.1649(2) 0.43600(15) 0.27064(12)
H3 H 0.15760 0.49740 0.22700
C5 C 0.2364(2) 0.45524(15) 0.35766(13)
H4 H 0.27800 0.53060 0.37350
C6 C 0.2463(2) 0.36266(15) 0.42129(12)
H5 H 0.29300 0.37670 0.48020
C7 C 0.20456(19) 0.15322(14) 0.46738(10)
H6 H 0.23130 0.17270 0.52890
C8 C 0.20226(17) -0.15485(14) 0.50337(9)
C9 C 0.26711(17) -0.22804(13) 0.58334(9)
C10 C 0.22900(19) -0.34905(14) 0.58765(10)
H7 H 0.16490 -0.38390 0.53990
C11 C 0.2843(2) -0.41868(14) 0.66141(11)
H8 H 0.25740 -0.49970 0.66330
C12 C 0.38050(18) -0.36750(14) 0.73294(10)
C13 C 0.4214(2) -0.24795(15) 0.72935(11)
H9 H 0.48620 -0.21350 0.77700
C14 C 0.3661(2) -0.17939(15) 0.65496(11)
H10 H 0.39560 -0.09890 0.65260
H11 H 0.231(2) -0.0045(16) 0.5739(8)
#END
