
#######################################################################
#
#                 Cambridge Crystallographic Data Centre
#                                CCDC
#
#######################################################################
#
# If this CIF has been generated from an entry in the Cambridge
# Structural Database, then it will include bibliographic, chemical,
# crystal, experimental, refinement or atomic coordinate data resulting
# from the CCDC's data processing and validation procedures.
#
#######################################################################

data_CSD_CIF_ZAPSOA
_audit_creation_date 2012-06-01
_audit_creation_method CSD-ConQuest-V1
_database_code_CSD ZAPSOA
_database_code_depnum_ccdc_archive 'CCDC 880208'
_chemical_formula_sum 'C8 H10 N2 O2'
_chemical_formula_moiety
;
C8 H10 N2 O2
;
_journal_coeditor_code "IUCr ZJ2069"
_journal_coden_Cambridge 1370
_journal_volume 68
_journal_year 2012
_journal_page_first o1392
_journal_name_full 'Acta Crystallogr.,Sect.E:Struct.Rep.Online '
loop_
_publ_author_name
"Hu-Kui Chen"
_chemical_name_systematic
;
2,4-Dimethyl-6-nitroaniline
;
_cell_volume   1629.015
_exptl_crystal_colour 'red'
_exptl_crystal_density_diffrn 1.355
_exptl_crystal_description 'block'
_exptl_crystal_preparation 'methanol'
_diffrn_ambient_temperature 163
#These two values have been output from a single CSD field.
_refine_ls_R_factor_gt 0.0487
_refine_ls_wR_factor_gt 0.0487
_symmetry_cell_setting monoclinic
_symmetry_space_group_name_H-M 'P 21/c'
_symmetry_Int_Tables_number 14
loop_
_symmetry_equiv_pos_site_id
_symmetry_equiv_pos_as_xyz
1 x,y,z
2 -x,1/2+y,1/2-z
3 -x,-y,-z
4 x,-1/2-y,-1/2+z
_cell_length_a 6.997(2)
_cell_length_b 14.919(4)
_cell_length_c 15.907(5)
_cell_angle_alpha 90
_cell_angle_beta 101.176(4)
_cell_angle_gamma 90
_cell_formula_units_Z 8
loop_
_atom_type_symbol
_atom_type_radius_bond
C 0.68
H 0.23
N 0.68
O 0.68
loop_
_atom_site_label
_atom_site_type_symbol
_atom_site_fract_x
_atom_site_fract_y
_atom_site_fract_z
O1 O 0.45092(17) 0.90397(8) 0.58620(8)
O2 O 0.44448(18) 0.76422(8) 0.61993(7)
O3 O 0.1904(2) 0.44185(8) 0.46076(8)
O4 O 0.28094(19) 0.46393(7) 0.59626(8)
N1 N 0.32759(19) 0.64184(9) 0.50283(9)
N2 N 0.42024(17) 0.82485(8) 0.56491(8)
N3 N 0.29546(19) 0.33074(9) 0.70576(9)
N4 N 0.22429(19) 0.41310(8) 0.53454(9)
C1 C 0.31439(18) 0.71292(9) 0.44965(9)
C2 C 0.25692(19) 0.69862(9) 0.35968(9)
C3 C 0.2419(2) 0.77019(9) 0.30489(10)
H1 H 0.20370 0.75910 0.24520
C4 C 0.28002(19) 0.85946(9) 0.33221(10)
C5 C 0.33876(19) 0.87389(9) 0.41793(10)
H2 H 0.36810 0.93310 0.43840
C6 C 0.35645(18) 0.80271(9) 0.47637(9)
C7 C 0.2177(2) 0.60435(10) 0.32704(11)
H3 H 0.19680 0.60430 0.26430
H4 H 0.10130 0.58120 0.34530
H5 H 0.32960 0.56620 0.35020
C8 C 0.2570(2) 0.93525(10) 0.26839(11)
H6 H 0.12470 0.95950 0.26100
H7 H 0.28000 0.91290 0.21330
H8 H 0.35140 0.98260 0.28940
C9 C 0.24075(18) 0.28267(9) 0.63273(9)
C10 C 0.21597(19) 0.18803(9) 0.63927(10)
C11 C 0.15958(19) 0.13826(9) 0.56628(10)
H9 H 0.14580 0.07530 0.57210
C12 C 0.12098(19) 0.17490(9) 0.48338(10)
C13 C 0.14163(19) 0.26569(9) 0.47631(9)
H10 H 0.11610 0.29300 0.42130
C14 C 0.20012(19) 0.31878(9) 0.54949(9)
C15 C 0.2515(2) 0.14538(10) 0.72614(11)
H11 H 0.22340 0.08110 0.72030
H12 H 0.16640 0.17300 0.76100
H13 H 0.38790 0.15410 0.75400
C16 C 0.0600(2) 0.11639(11) 0.40631(11)
H14 H -0.07910 0.10270 0.39930
H15 H 0.13510 0.06050 0.41400
H16 H 0.08430 0.14770 0.35520
H17 H 0.284(3) 0.5869(14) 0.4823(13)
H18 H 0.325(3) 0.3907(14) 0.6975(13)
H19 H 0.350(3) 0.3063(13) 0.7554(14)
H20 H 0.355(3) 0.6534(11) 0.5569(13)
#END
