
#######################################################################
#
#                 Cambridge Crystallographic Data Centre
#                                CCDC
#
#######################################################################
#
# If this CIF has been generated from an entry in the Cambridge
# Structural Database, then it will include bibliographic, chemical,
# crystal, experimental, refinement or atomic coordinate data resulting
# from the CCDC's data processing and validation procedures.
#
#######################################################################

data_CSD_CIF_ZAPTAN
_audit_creation_date 2012-06-01
_audit_creation_method CSD-ConQuest-V1
_database_code_CSD ZAPTAN
_database_code_depnum_ccdc_archive 'CCDC 880210'
_chemical_formula_sum 'C14 H17 N1 O6'
_chemical_formula_moiety
;
C14 H17 N1 O6
;
_journal_coeditor_code "IUCr ZS2196"
_journal_coden_Cambridge 1370
_journal_volume 68
_journal_year 2012
_journal_page_first o1395
_journal_name_full 'Acta Crystallogr.,Sect.E:Struct.Rep.Online '
loop_
_publ_author_name
"Jun-Song Song"
"De-Cai Wang"
"Xue-Jun He"
"Jiang-Kai Qiu"
"Ping-Kai Ou-yang"
_chemical_name_systematic
;
rac-Methyl 2-(2-formyl-4-nitrophenoxy)hexanoate
;
_cell_volume   1495.699
_exptl_crystal_colour 'colorless'
_exptl_crystal_density_diffrn 1.311
_exptl_crystal_description 'block'
_exptl_crystal_preparation 'methanol'
_diffrn_ambient_temperature 293
#These two values have been output from a single CSD field.
_refine_ls_R_factor_gt 0.0759
_refine_ls_wR_factor_gt 0.0759
_symmetry_cell_setting monoclinic
_symmetry_space_group_name_H-M 'P 21/n'
_symmetry_Int_Tables_number 14
loop_
_symmetry_equiv_pos_site_id
_symmetry_equiv_pos_as_xyz
1 x,y,z
2 1/2-x,1/2+y,1/2-z
3 -x,-y,-z
4 -1/2+x,-1/2-y,-1/2+z
_cell_length_a 14.918(3)
_cell_length_b 4.922(1)
_cell_length_c 20.928(4)
_cell_angle_alpha 90
_cell_angle_beta 103.26(3)
_cell_angle_gamma 90
_cell_formula_units_Z 4
loop_
_atom_type_symbol
_atom_type_radius_bond
C 0.68
H 0.23
N 0.68
O 0.68
loop_
_atom_site_label
_atom_site_type_symbol
_atom_site_fract_x
_atom_site_fract_y
_atom_site_fract_z
N1 N -0.0326(2) 0.6463(8) 0.59117(19)
C1 C 0.2020(3) 0.5437(8) 0.56249(18)
H1 H 0.23890 0.61480 0.53630
O1 O -0.0535(2) 0.8534(7) 0.55953(18)
C2 C 0.1162(3) 0.6501(9) 0.55803(19)
H2 H 0.09460 0.79420 0.53000
O2 O -0.0834(2) 0.5218(8) 0.61742(19)
C3 C 0.0617(3) 0.5338(9) 0.59740(18)
O3 O 0.16665(19) -0.0836(7) 0.72916(13)
O4 O 0.31794(16) 0.2096(6) 0.61157(12)
C4 C 0.0913(2) 0.3232(7) 0.64028(16)
H3 H 0.05330 0.24960 0.66540
C5 C 0.1794(2) 0.2243(8) 0.64485(17)
O5 O 0.2966(2) 0.0517(6) 0.48813(13)
C6 C 0.2353(3) 0.3330(8) 0.60504(17)
O6 O 0.3773(2) 0.3910(8) 0.46304(16)
C7 C 0.2119(3) 0.0063(8) 0.69327(17)
H4 H 0.27040 -0.06510 0.69610
C8 C 0.3791(3) 0.3212(9) 0.5738(2)
H5 H 0.38390 0.51830 0.58030
C9 C 0.3496(3) 0.2609(11) 0.5030(2)
C10 C 0.2656(3) -0.0163(11) 0.41826(19)
H6 H 0.22680 -0.17410 0.41350
H7 H 0.31800 -0.05290 0.40030
H8 H 0.23150 0.13370 0.39530
C11 C 0.4715(3) 0.1900(12) 0.6028(2)
H9 H 0.46520 -0.00340 0.59410
H10 H 0.51530 0.25880 0.57900
C12 C 0.5116(4) 0.2243(12) 0.6721(3)
H11 H 0.46670 0.17030 0.69670
H12 H 0.56420 0.10400 0.68460
C13 C 0.5406(4) 0.4958(13) 0.6900(3)
H13 H 0.48810 0.60340 0.69490
H14 H 0.56560 0.57680 0.65550
C14 C 0.6167(4) 0.4976(13) 0.7569(3)
H15 H 0.63670 0.68070 0.76760
H16 H 0.66830 0.38910 0.75210
H17 H 0.59120 0.42410 0.79130
#END
