
#######################################################################
#
#                 Cambridge Crystallographic Data Centre
#                                CCDC
#
#######################################################################
#
# If this CIF has been generated from an entry in the Cambridge
# Structural Database, then it will include bibliographic, chemical,
# crystal, experimental, refinement or atomic coordinate data resulting
# from the CCDC's data processing and validation procedures.
#
#######################################################################

data_CSD_CIF_ZAQNEK
_audit_creation_date 1996-03-13
_audit_creation_method CSD-ConQuest-V1
_database_code_CSD ZAQNEK
_chemical_formula_sum 'C31 H32 N2 O4'
_chemical_formula_moiety
;
C31 H32 N2 O4
;
_journal_coden_Cambridge 35
_journal_volume 60
_journal_year 1995
_journal_page_first 3184
_journal_name_full 'J.Org.Chem. '
loop_
_publ_author_name
"M.Atfani"
"W.D.Lubell"
_chemical_name_systematic
;
(2S)-Methyl 
2-(N-(9-(9-phenylfluorenyl))amino)-3-(2-methyl-3-t-butyl-5-oxo-2H-isoxazol-4-y
l)propionate
;
_chemical_melting_point 437.15
_cell_volume   2740.433
_exptl_crystal_density_diffrn 1.204
_exptl_special_details
;
Melting point range 437.15-439.15K

;
_diffrn_ambient_temperature ?
_diffrn_special_details
;
The study was carried out at room temperature,in the range 283-303K

;
#These two values have been output from a single CSD field.
_refine_ls_R_factor_gt 0.066
_refine_ls_wR_factor_gt 0.066
_symmetry_cell_setting triclinic
_symmetry_space_group_name_H-M 'P 1'
_symmetry_Int_Tables_number 1
loop_
_symmetry_equiv_pos_site_id
_symmetry_equiv_pos_as_xyz
1 x,y,z
_cell_length_a 10.922(2)
_cell_length_b 15.685(2)
_cell_length_c 16.934(3)
_cell_angle_alpha 85.00(1)
_cell_angle_beta 84.89(1)
_cell_angle_gamma 71.86(1)
_cell_formula_units_Z 4
loop_
_atom_type_symbol
_atom_type_radius_bond
C 0.68
H 0.23
N 0.68
O 0.68
loop_
_atom_site_label
_atom_site_type_symbol
_atom_site_fract_x
_atom_site_fract_y
_atom_site_fract_z
O1 O 0.50270 0.56510 0.11460
N1 N 0.5807(10) 0.4774(7) 0.1395(8)
C1 C 0.6885(17) 0.4741(11) 0.1504(20)
C2 C 0.4972(11) 0.4281(8) 0.1620(7)
C3 C 0.3745(11) 0.4773(7) 0.1529(7)
C4 C 0.3770(13) 0.5648(8) 0.1229(7)
O2 O 0.2911(8) 0.6319(5) 0.1028(5)
C5 C 0.5602(13) 0.3300(8) 0.1883(9)
C6 C 0.6536(29) 0.2796(9) 0.1324(11)
C7 C 0.6116(21) 0.3187(11) 0.2663(11)
C8 C 0.4608(22) 0.2861(13) 0.2036(27)
C9 C 0.2486(12) 0.4569(7) 0.1642(6)
C10 C 0.2113(10) 0.4210(7) 0.0933(6)
C11 C 0.0945(11) 0.3903(7) 0.1222(7)
O3 O -0.0145(7) 0.4370(5) 0.1326(5)
O4 O 0.1340(8) 0.3023(5) 0.1374(6)
C12 C 0.0307(14) 0.2675(9) 0.1646(11)
N2 N 0.1817(8) 0.4916(5) 0.0313(5)
C13 C 0.2085(10) 0.4627(7) -0.0510(6)
C14 C 0.1199(12) 0.4062(7) -0.0673(7)
C15 C -0.0113(13) 0.4281(10) -0.0608(8)
C16 C -0.0645(18) 0.3626(11) -0.080(1)
C17 C 0.0073(24) 0.2824(12) -0.0998(10)
C18 C 0.1393(20) 0.2551(9) -0.1066(8)
C19 C 0.1885(15) 0.3224(9) -0.0882(7)
C20 C 0.3245(13) 0.3182(8) -0.0899(6)
C21 C 0.4414(19) 0.2491(10) -0.1090(9)
C22 C 0.5532(16) 0.2674(12) -0.1062(10)
C23 C 0.5719(14) 0.3428(12) -0.0823(8)
C24 C 0.4559(12) 0.4126(9) -0.0625(7)
C25 C 0.3420(12) 0.3978(8) -0.0680(7)
C26 C 0.1763(9) 0.5506(7) -0.1070(6)
C27 C 0.2394(11) 0.5499(9) -0.1821(7)
C28 C 0.2078(14) 0.6295(10) -0.2313(7)
C29 C 0.1184(16) 0.7039(8) -0.2089(10)
C30 C 0.0578(14) 0.7038(9) -0.1353(8)
C31 C 0.0838(12) 0.6243(8) -0.0856(7)
O5 O 0.4703(7) 0.5286(5) 0.3705(5)
N3 N 0.4831(9) 0.6145(6) 0.3448(8)
C32 C 0.5738(15) 0.6282(12) 0.3764(14)
C33 C 0.3627(10) 0.6643(7) 0.3207(6)
C34 C 0.2812(10) 0.6154(7) 0.3269(6)
C35 C 0.3506(11) 0.5270(7) 0.3583(7)
O6 O 0.3209(7) 0.4581(5) 0.3715(5)
C36 C 0.3453(12) 0.7623(8) 0.2933(8)
C37 C 0.4480(16) 0.7707(10) 0.2301(9)
C38 C 0.3421(17) 0.8186(9) 0.3574(9)
C39 C 0.2218(15) 0.8008(10) 0.2438(10)
C40 C 0.1402(11) 0.6353(7) 0.3122(6)
C41 C 0.0492(9) 0.6737(6) 0.3820(6)
C42 C -0.0857(11) 0.7008(7) 0.3535(6)
O7 O -0.1499(7) 0.6534(5) 0.3510(5)
O8 O -0.1241(7) 0.7881(5) 0.3275(5)
C43 C -0.2522(13) 0.8191(9) 0.2971(10)
N4 N 0.0642(8) 0.6092(5) 0.4487(5)
C44 C 0.0353(9) 0.6431(7) 0.5274(6)
C45 C -0.0958(11) 0.7139(7) 0.5379(6)
C46 C -0.2180(12) 0.7059(8) 0.5309(7)
C47 C -0.3234(12) 0.7862(9) 0.5415(9)
C48 C -0.3032(16) 0.8628(10) 0.5650(9)
C49 C -0.1807(17) 0.8663(8) 0.5770(9)
C50 C -0.0775(12) 0.7937(6) 0.5598(7)
C51 C 0.0599(13) 0.7802(7) 0.5681(6)
C52 C 0.1297(15) 0.8363(8) 0.5907(7)
C53 C 0.2619(15) 0.7987(10) 0.5874(8)
C54 C 0.3265(15) 0.7135(10) 0.5663(9)
C55 C 0.2569(13) 0.6613(8) 0.5466(7)
C56 C 0.1249(10) 0.6940(7) 0.5453(6)
C57 C 0.0469(10) 0.5616(6) 0.5867(6)
C58 C 0.1246(12) 0.4757(7) 0.5681(7)
C59 C 0.1400(13) 0.4042(8) 0.6241(8)
C60 C 0.0848(13) 0.4176(8) 0.6978(7)
C61 C 0.0106(13) 0.4998(8) 0.7175(7)
C62 C -0.0100(12) 0.5717(7) 0.6621(7)
O9 O 0.5642(9) 0.2131(6) 0.5823(6)
N5 N 0.5465(11) 0.3020(7) 0.5990(7)
C63 C 0.4952(18) 0.3591(12) 0.5320(11)
C64 C 0.6668(11) 0.3028(8) 0.6261(6)
C65 C 0.7477(12) 0.2189(7) 0.6367(7)
C66 C 0.6810(12) 0.1615(8) 0.6093(7)
O10 O 0.7166(12) 0.0807(6) 0.6071(8)
C67 C 0.6697(13) 0.3926(9) 0.6496(8)
C68 C 0.7209(29) 0.4446(12) 0.5843(13)
C69 C 0.7638(17) 0.3768(12) 0.7145(11)
C70 C 0.5425(19) 0.4465(12) 0.6928(12)
C71 C 0.8776(13) 0.1790(7) 0.6632(7)
C72 C 0.9904(11) 0.1735(7) 0.5979(5)
C73 C 1.1140(11) 0.1213(8) 0.6354(6)
O11 O 1.1495(8) 0.0418(5) 0.6497(5)
O12 O 1.1781(8) 0.1748(5) 0.6538(5)
C74 C 1.2979(15) 0.1330(11) 0.6897(9)
N6 N 0.9644(8) 0.1300(5) 0.5334(5)
C75 C 1.0274(10) 0.1438(6) 0.4548(6)
C76 C 1.1745(10) 0.1261(7) 0.4513(6)
C77 C 1.2662(11) 0.0450(9) 0.4711(7)
C78 C 1.3972(13) 0.0467(11) 0.4647(8)
C79 C 1.4289(12) 0.1214(12) 0.4500(9)
C80 C 1.3361(14) 0.2021(11) 0.4291(7)
C81 C 1.2007(12) 0.2081(9) 0.4313(6)
C82 C 1.0859(12) 0.2787(7) 0.4120(6)
C83 C 1.0663(13) 0.3685(9) 0.3832(8)
C84 C 0.9443(16) 0.4167(8) 0.3685(7)
C85 C 0.8467(15) 0.3846(7) 0.3829(8)
C86 C 0.8643(11) 0.2969(8) 0.4126(7)
C87 C 0.985(1) 0.2444(7) 0.4281(5)
C88 C 0.9924(10) 0.0894(7) 0.3966(7)
C89 C 0.8960(16) 0.0522(12) 0.4123(10)
C90 C 0.8651(18) 0.0041(16) 0.3563(12)
C91 C 0.9217(14) -0.0017(10) 0.2805(9)
C92 C 1.0138(14) 0.0386(9) 0.2643(7)
C93 C 1.0485(11) 0.0818(8) 0.3216(7)
O13 O 0.3175(8) -0.1035(6) 0.9079(6)
N7 N 0.3867(11) -0.1921(7) 0.8850(8)
C94 C 0.3484(17) -0.2497(12) 0.9366(13)
C95 C 0.5065(12) -0.1893(8) 0.8586(8)
C96 C 0.5140(11) -0.1045(8) 0.8537(6)
C97 C 0.3940(12) -0.0499(9) 0.8842(9)
O14 O 0.3448(9) 0.0328(6) 0.8900(6)
C98 C 0.6062(14) -0.2752(9) 0.8329(9)
C99 C 0.6476(28) -0.3465(15) 0.8917(13)
C100 C 0.7200(22) -0.2618(15) 0.7936(21)
C101 C 0.5490(22) -0.3049(14) 0.7669(14)
C102 C 0.6152(13) -0.0607(9) 0.8260(7)
C103 C 0.7035(11) -0.0631(7) 0.8896(6)
C104 C 0.8028(10) -0.0126(7) 0.8554(6)
O15 O 0.7748(8) 0.0654(5) 0.8376(5)
O16 O 0.9174(7) -0.0703(5) 0.8471(5)
C105 C 1.0198(12) -0.0324(9) 0.8148(9)
N8 N 0.6295(7) -0.0188(6) 0.9600(5)
C106 C 0.6909(10) -0.0389(6) 1.0355(6)
C107 C 0.8109(10) -0.0091(7) 1.0375(6)
C108 C 0.8263(12) 0.0713(8) 1.0228(8)
C109 C 0.9437(16) 0.0821(10) 1.0245(8)
C110 C 1.0506(14) 0.0090(12) 1.0403(9)
C111 C 1.0348(12) -0.074(1) 1.0562(8)
C112 C 0.9140(11) -0.0856(8) 1.0561(6)
C113 C 0.8694(11) -0.1642(7) 1.0708(6)
C114 C 0.9374(12) -0.2542(9) 1.0904(7)
C115 C 0.8684(14) -0.3136(9) 1.1013(8)
C116 C 0.7396(13) -0.2901(8) 1.0900(8)
C117 C 0.6703(10) -0.2006(7) 1.0680(7)
C118 C 0.7386(10) -0.1382(6) 1.0582(6)
C119 C 0.5842(10) 0.0037(7) 1.1018(7)
C120 C 0.4585(13) 0.0235(11) 1.0903(10)
C121 C 0.3687(15) 0.0507(13) 1.1555(12)
C122 C 0.4052(14) 0.065(1) 1.2269(10)
C123 C 0.5303(15) 0.0472(9) 1.2365(8)
C124 C 0.6172(12) 0.0150(8) 1.1742(7)
H1 H 0.72600 0.41700 0.17800
H2 H 0.68800 0.52100 0.18300
H3 H 0.73600 0.47900 0.10200
H4 H 0.68700 0.22000 0.15400
H5 H 0.61400 0.28000 0.08500
H6 H 0.72100 0.30600 0.12300
H7 H 0.64900 0.25600 0.28000
H8 H 0.67500 0.34900 0.26500
H9 H 0.54300 0.34300 0.30400
H10 H 0.50100 0.22400 0.21700
H11 H 0.40000 0.31400 0.24100
H12 H 0.42200 0.28900 0.15300
H13 H 0.25400 0.41300 0.20800
H14 H 0.18200 0.51100 0.17700
H15 H 0.28000 0.37100 0.07600
H16 H 0.06400 0.20400 0.17500
H17 H -0.01000 0.29500 0.21200
H18 H -0.03000 0.28100 0.12500
H19 H 0.14900 0.55000 0.04200
H20 H -0.06400 0.48500 -0.04400
H21 H -0.15600 0.37700 -0.07900
H22 H -0.03600 0.24100 -0.11000
H23 H 0.19200 0.19800 -0.12200
H24 H 0.44000 0.19200 -0.12300
H25 H 0.62900 0.22200 -0.12300
H26 H 0.65500 0.34900 -0.07900
H27 H 0.45900 0.46800 -0.04600
H28 H 0.30200 0.49700 -0.20000
H29 H 0.25200 0.63000 -0.28200
H30 H 0.09700 0.75600 -0.24400
H31 H -0.00200 0.75800 -0.11700
H32 H 0.03500 0.62300 -0.03600
H33 H 0.55100 0.69100 0.37900
H34 H 0.65200 0.60600 0.34400
H35 H 0.58300 0.59800 0.42700
H36 H 0.43400 0.83200 0.21400
H37 H 0.53000 0.74600 0.25100
H38 H 0.44200 0.73900 0.18600
H39 H 0.33100 0.87800 0.33600
H40 H 0.27200 0.81700 0.39500
H41 H 0.42100 0.79700 0.38300
H42 H 0.21200 0.86200 0.22700
H43 H 0.23200 0.76700 0.19900
H44 H 0.14800 0.79700 0.27600
H45 H 0.12600 0.58100 0.30100
H46 H 0.12100 0.67800 0.26800
H47 H 0.06700 0.72600 0.39600
H48 H -0.27200 0.88100 0.28000
H49 H -0.25400 0.78500 0.25400
H50 H -0.31400 0.81100 0.33800
H51 H 0.09100 0.55000 0.44200
H52 H -0.23000 0.65100 0.52000
H53 H -0.40800 0.78700 0.53200
H54 H -0.37600 0.91500 0.57300
H55 H -0.17000 0.91800 0.59700
H56 H 0.08800 0.89500 0.60700
H57 H 0.31200 0.83500 0.60100
H58 H 0.41800 0.69100 0.56600
H59 H 0.30000 0.60100 0.53300
H60 H 0.16700 0.46600 0.51600
H61 H 0.19000 0.34500 0.61000
H62 H 0.09800 0.36900 0.73700
H63 H -0.02800 0.50800 0.77000
H64 H -0.06500 0.62900 0.67600
H65 H 0.53700 0.32700 0.48700
H66 H 0.51500 0.41300 0.53600
H67 H 0.40500 0.37000 0.53800
H68 H 0.72100 0.50000 0.60300
H69 H 0.80800 0.41100 0.56900
H70 H 0.67000 0.45500 0.54100
H71 H 0.76600 0.43300 0.72900
H72 H 0.73600 0.34500 0.75900
H73 H 0.84700 0.34300 0.69500
H74 H 0.55000 0.50200 0.70600
H75 H 0.47400 0.45700 0.65900
H76 H 0.52600 0.41300 0.74000
H77 H 0.88800 0.21400 0.70400
H78 H 0.88500 0.12000 0.68400
H79 H 0.99200 0.23300 0.58100
H80 H 1.33500 0.17700 0.70000
H81 H 1.28200 0.10100 0.73800
H82 H 1.35500 0.09200 0.65500
H83 H 0.91200 0.09500 0.54100
H84 H 1.24400 -0.00800 0.48800
H85 H 1.46400 -0.00900 0.47100
H86 H 1.51600 0.12000 0.45400
H87 H 1.36200 0.25400 0.41300
H88 H 1.13500 0.39400 0.37400
H89 H 0.92800 0.47700 0.34700
H90 H 0.76200 0.42200 0.37300
H91 H 0.79300 0.27400 0.42200
H92 H 0.84900 0.05900 0.46200
H93 H 0.80300 -0.02600 0.37100
H94 H 0.89700 -0.03200 0.24200
H95 H 1.05600 0.03700 0.21200
H96 H 1.11600 0.10800 0.30800
H97 H 0.42200 -0.28100 0.96500
H98 H 0.31900 -0.28700 0.90700
H99 H 0.27900 -0.21500 0.97000
H100 H 0.71000 -0.39600 0.86700
H101 H 0.68600 -0.32600 0.93100
H102 H 0.57600 -0.36400 0.91400
H103 H 0.77800 -0.31900 0.78100
H104 H 0.69900 -0.22400 0.74900
H105 H 0.75900 -0.23700 0.83000
H106 H 0.60800 -0.35900 0.74900
H107 H 0.47000 -0.31500 0.78700
H108 H 0.53400 -0.26000 0.72500
H109 H 0.66500 -0.09100 0.78200
H110 H 0.57400 0.00000 0.80900
H111 H 0.75000 -0.12400 0.90400
H112 H 1.10000 -0.07900 0.81100
H113 H 1.00000 -0.00400 0.76400
H114 H 1.02600 0.01000 0.84900
H115 H 0.54900 0.01900 0.95700
H116 H 0.75400 0.12200 1.01100
H117 H 0.95300 0.14000 1.01500
H118 H 1.13400 0.01700 1.04000
H119 H 1.10700 -0.12500 1.06700
H120 H 1.02800 -0.27300 1.09600
H121 H 0.91200 -0.37400 1.11800
H122 H 0.69700 -0.33500 1.09700
H123 H 0.58100 -0.18300 1.06000
H124 H 0.43000 0.01900 1.04000
H125 H 0.28000 0.05900 1.14900
H126 H 0.34200 0.08700 1.26900
H127 H 0.55900 0.05700 1.28500
H128 H 0.70700 -0.00100 1.18300
#END
