
#######################################################################
#
#                 Cambridge Crystallographic Data Centre
#                                CCDC
#
#######################################################################
#
# If this CIF has been generated from an entry in the Cambridge
# Structural Database, then it will include bibliographic, chemical,
# crystal, experimental, refinement or atomic coordinate data resulting
# from the CCDC's data processing and validation procedures.
#
#######################################################################

data_CSD_CIF_ZAQQUG
_audit_creation_date 2017-02-15
_audit_creation_method CSD-ConQuest-V1
_database_code_CSD ZAQQUG
_database_code_depnum_ccdc_archive 'CCDC 1532975'
_chemical_formula_sum 'C26 H31 N3 O7'
_chemical_formula_moiety
;
C26 H31 N3 O7
;
_journal_coden_Cambridge 1336
_journal_volume 19
_journal_year 2017
_journal_page_first 492
_journal_name_full 'Org.Lett. '
loop_
_publ_author_name
"M.Berthet"
"B.Legrand"
"J.Martinez"
"I.Parrot"
_chemical_name_systematic
;
benzyl 
[1-(5-benzyl-2-methyl-3,6-dioxo-1,2,4-oxadiazinan-4-yl)-3-t-butoxy-1-oxopropan
-2-yl]carbamate
;
_cell_volume   5366.918
_exptl_crystal_colour 'white'
_exptl_crystal_density_diffrn 1.232
_exptl_crystal_description 'parallelepiped'
_diffrn_ambient_temperature 296
#These two values have been output from a single CSD field.
_refine_ls_R_factor_gt 0.0588
_refine_ls_wR_factor_gt 0.0588
_symmetry_cell_setting monoclinic
_symmetry_space_group_name_H-M 'C 2/c'
_symmetry_Int_Tables_number 15
loop_
_symmetry_equiv_pos_site_id
_symmetry_equiv_pos_as_xyz
1 x,y,z
2 -x,y,1/2-z
3 1/2+x,1/2+y,z
4 1/2-x,1/2+y,1/2-z
5 -x,-y,-z
6 x,-y,-1/2+z
7 -1/2-x,-1/2-y,-z
8 -1/2+x,-1/2-y,-1/2+z
_cell_length_a 20.2258(12)
_cell_length_b 9.7315(6)
_cell_length_c 28.7120(16)
_cell_angle_alpha 90
_cell_angle_beta 108.254(2)
_cell_angle_gamma 90
_cell_formula_units_Z 8
loop_
_atom_type_symbol
_atom_type_radius_bond
C 0.68
H 0.23
N 0.68
O 0.68
loop_
_atom_site_label
_atom_site_type_symbol
_atom_site_fract_x
_atom_site_fract_y
_atom_site_fract_z
C1 C 0.5052(2) 0.0963(5) 0.32946(15)
H1 H 0.51950 0.17550 0.31720
C2 C 0.4461(3) 0.0269(9) 0.3016(2)
H2 H 0.42080 0.05980 0.27080
C3 C 0.4253(3) -0.0881(10) 0.3192(4)
H3 H 0.38600 -0.13500 0.30030
C4 C 0.4616(3) -0.1352(6) 0.3640(3)
H4 H 0.44670 -0.21410 0.37600
C5 C 0.52006(19) -0.0685(4) 0.39205(16)
H5 H 0.54470 -0.10270 0.42280
C6 C 0.54263(15) 0.0488(4) 0.37500(12)
C7 C 0.60811(14) 0.1174(3) 0.40544(11)
H6 H 0.61000 0.11570 0.43960
H7 H 0.60770 0.21280 0.39550
C8 C 0.67322(14) 0.0460(3) 0.39996(10)
H8 H 0.66580 -0.05330 0.40100
N1 N 0.73695(11) 0.0794(2) 0.44004(8)
C9 C 0.76715(15) 0.2078(3) 0.43981(11)
O1 O 0.80671(11) 0.2652(2) 0.47484(8)
N2 N 0.74130(13) 0.2725(3) 0.39527(9)
C10 C 0.7732(2) 0.3988(4) 0.38558(14)
H9 H 0.78030 0.46040 0.41280
H10 H 0.74320 0.44140 0.35640
H11 H 0.81720 0.37800 0.38110
O2 O 0.72742(12) 0.1861(2) 0.35271(7)
C11 C 0.68541(16) 0.0773(3) 0.35233(12)
O3 O 0.66381(13) 0.0127(3) 0.31535(8)
C12 C 0.75518(15) -0.0112(3) 0.47973(10)
O4 O 0.71463(10) -0.1001(2) 0.48188(7)
C13 C 0.82801(15) -0.0039(3) 0.51599(10)
H12 H 0.83480 0.08780 0.53080
C14 C 0.88131(17) -0.0245(4) 0.48842(14)
H13 H 0.88550 0.05860 0.47090
H14 H 0.92660 -0.04670 0.51120
O5 O 0.85750(13) -0.1298(3) 0.4564(1)
C15 C 0.9010(2) -0.1821(5) 0.42983(16)
C16 C 0.9256(3) -0.0698(7) 0.4030(2)
H15 H 0.88630 -0.02970 0.37880
H16 H 0.95690 -0.10780 0.38720
H17 H 0.94930 -0.00040 0.42590
C17 C 0.8527(3) -0.2740(7) 0.3927(2)
H18 H 0.83630 -0.34600 0.40930
H19 H 0.87690 -0.31360 0.37210
H20 H 0.81370 -0.22150 0.37310
C18 C 0.9620(4) -0.2527(8) 0.4636(3)
H21 H 0.98510 -0.19230 0.49010
H22 H 0.99370 -0.27780 0.44610
H23 H 0.94700 -0.33390 0.47630
N3 N 0.83260(14) -0.1031(3) 0.55406(9)
H24 H 0.80800 -0.17680 0.54730
C19 C 0.87492(16) -0.0821(3) 0.60005(11)
O6 O 0.90877(12) 0.0199(2) 0.61407(8)
O7 O 0.87349(11) -0.1918(2) 0.62836(7)
C20 C 0.91592(18) -0.1798(4) 0.67955(11)
H25 H 0.95830 -0.13010 0.68160
H26 H 0.92880 -0.27080 0.69310
C21 C 0.87773(17) -0.1063(4) 0.70902(11)
C22 C 0.8223(2) -0.1662(4) 0.71854(14)
H27 H 0.80890 -0.25420 0.70670
C23 C 0.7856(2) -0.1014(5) 0.74495(16)
H28 H 0.74800 -0.14500 0.75070
C24 C 0.8042(3) 0.0252(6) 0.76244(17)
H29 H 0.77970 0.06930 0.78060
C25 C 0.8590(3) 0.0894(5) 0.75358(19)
H30 H 0.87160 0.17750 0.76570
C26 C 0.8962(2) 0.0244(5) 0.72670(15)
H31 H 0.93340 0.06890 0.72070
#END
