
#######################################################################
#
#                 Cambridge Crystallographic Data Centre
#                                CCDC
#
#######################################################################
#
# If this CIF has been generated from an entry in the Cambridge
# Structural Database, then it will include bibliographic, chemical,
# crystal, experimental, refinement or atomic coordinate data resulting
# from the CCDC's data processing and validation procedures.
#
#######################################################################

data_CSD_CIF_ZAQRAN
_audit_creation_date 2017-02-15
_audit_creation_method CSD-ConQuest-V1
_database_code_CSD ZAQRAN
_database_code_depnum_ccdc_archive 'CCDC 1532976'
_chemical_formula_sum 'C18 H18 N2 O4'
_chemical_formula_moiety
;
C18 H18 N2 O4
;
_journal_coden_Cambridge 1336
_journal_volume 19
_journal_year 2017
_journal_page_first 492
_journal_name_full 'Org.Lett. '
loop_
_publ_author_name
"M.Berthet"
"B.Legrand"
"J.Martinez"
"I.Parrot"
_chemical_name_systematic
;
5-{[4-(benzyloxy)phenyl]methyl}-2-methyl-1,2,4-oxadiazinane-3,6-dione
;
_cell_volume   1621.771
_exptl_crystal_colour 'colorless'
_exptl_crystal_density_diffrn 1.337
_exptl_special_details
;
Absolute configuration

;
_exptl_crystal_description 'prism'
_diffrn_ambient_temperature 175
#These two values have been output from a single CSD field.
_refine_ls_R_factor_gt 0.0508
_refine_ls_wR_factor_gt 0.0508
_symmetry_cell_setting monoclinic
_symmetry_space_group_name_H-M 'P 21'
_symmetry_Int_Tables_number 4
loop_
_symmetry_equiv_pos_site_id
_symmetry_equiv_pos_as_xyz
1 x,y,z
2 -x,1/2+y,-z
_cell_length_a 15.1202(7)
_cell_length_b 5.6812(3)
_cell_length_c 19.0459(8)
_cell_angle_alpha 90
_cell_angle_beta 97.578(4)
_cell_angle_gamma 90
_cell_formula_units_Z 4
loop_
_atom_type_symbol
_atom_type_radius_bond
C 0.68
H 0.23
N 0.68
O 0.68
loop_
_atom_site_label
_atom_site_type_symbol
_atom_site_fract_x
_atom_site_fract_y
_atom_site_fract_z
O1 O 0.12899(13) 0.8497(4) 0.19458(11)
C1 C 0.19990(19) 0.8746(6) 0.24807(15)
C2 C 0.21841(19) 0.7236(6) 0.30453(15)
C3 C 0.29317(19) 0.7640(6) 0.35387(15)
C4 C 0.3494(2) 0.9538(5) 0.34796(15)
C5 C 0.4304(2) 0.9897(6) 0.40214(15)
C6 C 0.5157(2) 0.8889(6) 0.38170(17)
N1 N 0.50747(16) 0.6572(5) 0.35172(13)
C7 C 0.57741(18) 0.5192(6) 0.34612(14)
O2 O 0.57854(14) 0.3506(4) 0.30613(11)
N2 N 0.65502(17) 0.5862(5) 0.38737(13)
O3 O 0.64929(14) 0.7235(4) 0.44863(10)
C8 C 0.5871(2) 0.8918(7) 0.44420(17)
O4 O 0.59246(17) 1.0380(5) 0.48964(14)
C9 C 0.7266(2) 0.4153(7) 0.40608(19)
H1 H 0.77680 0.48500 0.43510
H2 H 0.74790 0.34750 0.36540
H3 H 0.70670 0.28510 0.43350
H4 H 0.4655(13) 0.642(4) 0.3165(11)
H5 H 0.53550 0.99310 0.34730
H6 H 0.43750 1.15420 0.41170
H7 H 0.41860 0.91460 0.44580
C10 C 0.32732(19) 1.1065(6) 0.29171(16)
C11 C 0.25373(19) 1.0684(6) 0.24163(16)
H8 H 0.23920 1.17290 0.20180
H9 H 0.36550 1.24200 0.28780
H10 H 0.30590 0.65660 0.39330
H11 H 0.17940 0.59170 0.30870
C12 C 0.0708(2) 0.6558(6) 0.20291(16)
C13 C -0.00055(19) 0.6420(6) 0.14035(15)
C14 C -0.0018(2) 0.4594(6) 0.09226(18)
C15 C -0.0695(2) 0.4432(7) 0.03550(19)
C16 C -0.1366(2) 0.6087(7) 0.02759(19)
C17 C -0.1362(2) 0.7893(7) 0.0756(2)
C18 C -0.0690(2) 0.8056(6) 0.13160(17)
H12 H -0.06850 0.93700 0.16650
H13 H -0.18210 0.91590 0.06980
H14 H -0.18590 0.59790 -0.01060
H15 H -0.06960 0.31680 0.00050
H16 H 0.04580 0.33910 0.09860
H17 H 0.10400 0.50740 0.20610
H18 H 0.04460 0.66890 0.24590
O5 O 0.87347(13) 0.1571(4) 0.30485(11)
C19 C 0.80075(18) 0.1263(6) 0.25399(15)
C20 C 0.7459(2) -0.0642(6) 0.26482(17)
C21 C 0.6696(2) -0.1038(6) 0.21828(18)
C22 C 0.64579(18) 0.0424(6) 0.16098(16)
C23 C 0.7014(2) 0.2272(6) 0.15010(16)
C24 C 0.7784(2) 0.2727(6) 0.19618(16)
H19 H 0.81670 0.40550 0.18810
H20 H 0.68590 0.32310 0.10800
C25 C 0.5602(2) -0.0054(7) 0.11163(17)
C26 C 0.49861(19) 0.2086(6) 0.10075(15)
N3 N 0.47306(15) 0.2978(5) 0.16631(12)
C27 C 0.41261(19) 0.4711(6) 0.16464(15)
O6 O 0.40172(14) 0.6033(4) 0.21355(11)
N4 N 0.36412(16) 0.5037(5) 0.09820(13)
O7 O 0.34266(13) 0.2875(5) 0.0589(1)
C28 C 0.4139(2) 0.1437(6) 0.05361(14)
O8 O 0.40285(15) -0.0173(5) 0.01316(11)
C29 C 0.2803(2) 0.6322(7) 0.09352(18)
H21 H 0.25190 0.64690 0.04640
H22 H 0.23950 0.55550 0.12120
H23 H 0.29010 0.78930 0.11310
H24 H 0.5106(13) 0.287(4) 0.2038(10)
H25 H 0.53020 0.33150 0.07830
H26 H 0.57520 -0.05900 0.06640
H27 H 0.52830 -0.13240 0.13070
H28 H 0.63140 -0.24050 0.22500
H29 H 0.76180 -0.16580 0.30670
C30 C 0.9292(2) 0.3557(6) 0.29517(17)
C31 C 1.00032(19) 0.3735(6) 0.35793(15)
C32 C 1.0689(2) 0.2090(6) 0.36841(18)
C33 C 1.1363(2) 0.2302(7) 0.42480(19)
C34 C 1.1355(2) 0.4157(7) 0.47073(19)
C35 C 1.0674(2) 0.5811(7) 0.46108(18)
C36 C 1.00106(19) 0.5569(6) 0.40460(17)
H30 H 0.95330 0.66950 0.39810
H31 H 1.06590 0.71310 0.49460
H32 H 1.18340 0.43050 0.51020
H33 H 1.18450 0.12220 0.43060
H34 H 1.06980 0.07650 0.33600
H35 H 0.95680 0.33800 0.25160
H36 H 0.89440 0.49890 0.28900
#END
