
#######################################################################
#
#                 Cambridge Crystallographic Data Centre
#                                CCDC
#
#######################################################################
#
# If this CIF has been generated from an entry in the Cambridge
# Structural Database, then it will include bibliographic, chemical,
# crystal, experimental, refinement or atomic coordinate data resulting
# from the CCDC's data processing and validation procedures.
#
#######################################################################

data_CSD_CIF_ZAQTOC
_audit_creation_date 2012-06-01
_audit_creation_method CSD-ConQuest-V1
_database_code_CSD ZAQTOC
_database_code_depnum_ccdc_archive 'CCDC 880315'
_chemical_formula_sum 'C10 H11 N1 O5'
_chemical_formula_moiety
;
C10 H11 N1 O5
;
_journal_coeditor_code "IUCr CV5259"
_journal_coden_Cambridge 1370
_journal_volume 68
_journal_year 2012
_journal_page_first o1534
_journal_name_full 'Acta Crystallogr.,Sect.E:Struct.Rep.Online '
loop_
_publ_author_name
"Su-Wen Sun"
_chemical_name_systematic
;
Ethyl 2-(4-nitrophenoxy)acetate
;
_chemical_name_common
;
Ethyl (4-nitrophenoxy)acetate
;
_cell_volume   1101.506
_exptl_crystal_colour 'colorless'
_exptl_crystal_density_diffrn 1.358
_exptl_crystal_description 'block'
_diffrn_ambient_temperature 293
#These two values have been output from a single CSD field.
_refine_ls_R_factor_gt 0.068
_refine_ls_wR_factor_gt 0.068
_symmetry_cell_setting monoclinic
_symmetry_space_group_name_H-M 'P 21/c'
_symmetry_Int_Tables_number 14
loop_
_symmetry_equiv_pos_site_id
_symmetry_equiv_pos_as_xyz
1 x,y,z
2 -x,1/2+y,1/2-z
3 -x,-y,-z
4 x,-1/2-y,-1/2+z
_cell_length_a 5.3848(11)
_cell_length_b 8.4482(17)
_cell_length_c 24.238(5)
_cell_angle_alpha 90
_cell_angle_beta 92.59(3)
_cell_angle_gamma 90
_cell_formula_units_Z 4
loop_
_atom_type_symbol
_atom_type_radius_bond
C 0.68
H 0.23
N 0.68
O 0.68
loop_
_atom_site_label
_atom_site_type_symbol
_atom_site_fract_x
_atom_site_fract_y
_atom_site_fract_z
O1 O 0.2402(3) 0.9062(2) 0.43476(7)
C1 C 0.3764(4) 0.8226(3) 0.47348(10)
C2 C 0.2863(5) 0.8248(3) 0.5263(1)
H1 H 0.14380 0.88240 0.53310
C3 C 0.6184(5) 0.6596(3) 0.55727(11)
C4 C 0.3224(5) 0.9043(3) 0.38008(10)
H2 H 0.32280 0.79680 0.36610
H3 H 0.49020 0.94580 0.37940
C5 C 0.7118(5) 0.6582(3) 0.50557(11)
H4 H 0.85650 0.60240 0.49920
O2 O 0.2362(4) 1.0156(3) 0.29508(8)
C6 C 0.5909(4) 0.7396(3) 0.46316(11)
H5 H 0.65270 0.73890 0.42790
N1 N 0.7460(5) 0.5687(3) 0.60109(11)
C7 C 0.4062(5) 0.7424(3) 0.56848(11)
H6 H 0.34540 0.74240 0.60380
O3 O 0.6650(5) 0.5737(3) 0.64727(10)
O4 O 0.9260(4) 0.4885(3) 0.59049(9)
C8 C 0.1488(5) 1.0048(4) 0.34495(11)
O5 O -0.0361(4) 1.0635(3) 0.35870(9)
C9 C 0.0983(7) 1.1139(6) 0.25442(15)
H7 H -0.02590 1.05040 0.23440
H8 H 0.01400 1.19870 0.27300
C10 C 0.2659(8) 1.1779(7) 0.21723(18)
H9 H 0.17620 1.24150 0.19020
H10 H 0.34910 1.09350 0.19910
H11 H 0.38630 1.24240 0.23710
#END
