
#######################################################################
#
#                 Cambridge Crystallographic Data Centre
#                                CCDC
#
#######################################################################
#
# If this CIF has been generated from an entry in the Cambridge
# Structural Database, then it will include bibliographic, chemical,
# crystal, experimental, refinement or atomic coordinate data resulting
# from the CCDC's data processing and validation procedures.
#
#######################################################################

data_CSD_CIF_ZAQZIC
_audit_creation_date 2012-06-01
_audit_creation_method CSD-ConQuest-V1
_database_code_CSD ZAQZIC
_database_code_depnum_ccdc_archive 'CCDC 880339'
_chemical_formula_sum 'C14 H14 N2 O5'
_chemical_formula_moiety
;
C14 H14 N2 O5
;
_journal_coeditor_code "IUCr PV2525"
_journal_coden_Cambridge 1370
_journal_volume 68
_journal_year 2012
_journal_page_first o1570
_journal_name_full 'Acta Crystallogr.,Sect.E:Struct.Rep.Online '
loop_
_publ_author_name
"F.L.Oliveira"
"K.R.L.Freire"
"R.Aparicio"
"F.Coelho"
_chemical_name_systematic
;
(1S,2E,6R,7aR)-1,6-Dihydroxy-2-(4-nitrobenzylidene)-2,3,5,6,7,7a-hexahydro-1H-
pyrrolizin-3-one
;
_cell_volume   1279.209
_exptl_crystal_colour 'orange'
_exptl_crystal_density_diffrn 1.507
_exptl_crystal_description 'plate'
_diffrn_ambient_temperature 100
#These two values have been output from a single CSD field.
_refine_ls_R_factor_gt 0.025
_refine_ls_wR_factor_gt 0.025
_symmetry_cell_setting monoclinic
_symmetry_space_group_name_H-M 'P 21'
_symmetry_Int_Tables_number 4
loop_
_symmetry_equiv_pos_site_id
_symmetry_equiv_pos_as_xyz
1 x,y,z
2 -x,1/2+y,-z
_cell_length_a 6.8289(6)
_cell_length_b 7.0433(6)
_cell_length_c 26.618(3)
_cell_angle_alpha 90
_cell_angle_beta 92.335(4)
_cell_angle_gamma 90
_cell_formula_units_Z 4
loop_
_atom_type_symbol
_atom_type_radius_bond
C 0.68
H 0.23
N 0.68
O 0.68
loop_
_atom_site_label
_atom_site_type_symbol
_atom_site_fract_x
_atom_site_fract_y
_atom_site_fract_z
O1 O 0.39324(16) 0.4194(2) 1.13861(4)
O2 O 1.01737(15) 0.58119(18) 0.71964(4)
H1 H 1.10380 0.55640 0.70020
O3 O 0.64579(19) 0.4992(2) 1.18584(4)
O4 O 1.35576(15) 0.51910(18) 0.90371(4)
O5 O 0.69151(14) 0.31660(18) 0.90951(4)
H2 H 0.58210 0.36450 0.90710
O6 O -0.02923(16) 0.27989(18) 0.37824(4)
O7 O 0.64995(14) -0.31144(17) 0.68320(4)
H3 H 0.75900 -0.35230 0.69140
O8 O -0.20844(14) 0.44237(19) 0.42810(4)
O9 O 0.89538(14) 0.19376(18) 0.63315(4)
O10 O 0.32974(14) 0.45702(17) 0.66785(4)
H4 H 0.43020 0.51970 0.67220
N1 N 1.11842(16) 0.4299(2) 0.84513(4)
N2 N -0.05497(17) 0.3612(2) 0.41818(5)
C1 C 0.3952(2) 0.3245(2) 0.53145(5)
N3 N 0.67054(17) 0.15506(19) 0.69496(5)
N4 N 0.5662(2) 0.4640(2) 1.14448(5)
C2 C 0.6877(2) 0.4734(2) 1.10041(6)
C3 C 0.6000(2) 0.5089(3) 1.05377(6)
H5 H 0.46570 0.53030 1.05040
C4 C 0.7149(2) 0.5122(3) 1.01205(6)
H6 H 0.65770 0.53910 0.98050
C5 C 0.9165(2) 0.4754(2) 1.01693(5)
C6 C 1.0493(2) 0.4734(2) 0.97498(5)
H7 H 1.18130 0.48200 0.98480
C7 C 1.0161(2) 0.4615(2) 0.92537(5)
C8 C 0.83077(19) 0.4455(2) 0.89178(5)
H8 H 0.77060 0.57120 0.88770
C9 C 0.9103(2) 0.3801(2) 0.84114(5)
H9 H 0.89630 0.24210 0.83790
C10 C 0.84455(19) 0.4745(3) 0.79203(5)
H10 H 0.81570 0.60790 0.79700
H11 H 0.72980 0.41220 0.77700
C11 C 1.0236(2) 0.4485(3) 0.75953(5)
H12 H 1.02510 0.31910 0.74600
C12 C 0.8871(2) 0.4445(3) 1.10728(6)
H13 H 0.94400 0.42520 1.13920
C13 C 0.9999(2) 0.4452(3) 1.06502(6)
H14 H 1.13430 0.42510 1.06890
C14 C 1.2005(2) 0.4771(3) 0.79686(5)
H15 H 1.30750 0.39270 0.78930
H16 H 1.24680 0.60730 0.79640
C15 C 1.1863(2) 0.4727(2) 0.89175(5)
C16 C 0.1040(2) 0.3571(2) 0.45687(6)
C17 C 0.0645(2) 0.4121(2) 0.50562(5)
H17 H -0.05800 0.45980 0.51300
C18 C 0.2104(2) 0.3945(2) 0.54290(6)
H18 H 0.18570 0.42940 0.57570
C19 C 0.5558(2) 0.2916(2) 0.56866(5)
H19 H 0.68040 0.28680 0.55580
C20 C 0.5490(2) 0.2677(2) 0.61826(5)
C21 C 0.7287(2) 0.2047(2) 0.64785(5)
C22 C 0.7559(2) -0.0070(2) 0.72222(6)
H20 H 0.78350 0.02470 0.75730
H21 H 0.87650 -0.04750 0.70740
C23 C 0.5976(2) -0.1640(2) 0.71715(5)
H22 H 0.57170 -0.21750 0.75020
C24 C 0.4137(2) -0.0660(3) 0.69485(5)
H23 H 0.38790 -0.10590 0.66030
H24 H 0.30060 -0.09680 0.71420
C25 C 0.4561(2) 0.1466(2) 0.69725(5)
H25 H 0.41380 0.19980 0.72910
C26 C 0.3793(2) 0.2681(2) 0.65274(5)
H26 H 0.26510 0.20690 0.63620
C27 C 0.4305(2) 0.2780(2) 0.48130(6)
H27 H 0.55480 0.23710 0.47320
C28 C 0.2860(2) 0.2915(2) 0.44377(5)
H28 H 0.31000 0.25770 0.41080
#END
