
#######################################################################
#
#                 Cambridge Crystallographic Data Centre
#                                CCDC
#
#######################################################################
#
# If this CIF has been generated from an entry in the Cambridge
# Structural Database, then it will include bibliographic, chemical,
# crystal, experimental, refinement or atomic coordinate data resulting
# from the CCDC's data processing and validation procedures.
#
#######################################################################

data_CSD_CIF_ZARGIK
_audit_creation_date 2012-06-01
_audit_creation_method CSD-ConQuest-V1
_database_code_CSD ZARGIK
_database_code_depnum_ccdc_archive 'CCDC 849415'
_chemical_formula_sum 'C11 H13 N1 O4'
_chemical_formula_moiety
;
C11 H13 N1 O4
;
_journal_coeditor_code "IUCr SU2406"
_journal_coden_Cambridge 1370
_journal_volume 68
_journal_year 2012
_journal_page_first o1537
_journal_name_full 'Acta Crystallogr.,Sect.E:Struct.Rep.Online '
loop_
_publ_author_name
"Jia Ye"
"Ya-Nan Liu"
"Yu Cheng"
_chemical_name_systematic
;
Methyl 5-hydroxy-3-phenyl-1,2-oxazolidine-5-carboxylate
;
_cell_volume   1117.354
_exptl_crystal_colour 'colorless'
_exptl_crystal_density_diffrn 1.327
_exptl_crystal_description 'block'
_diffrn_ambient_temperature 291
#These two values have been output from a single CSD field.
_refine_ls_R_factor_gt 0.0417
_refine_ls_wR_factor_gt 0.0417
_symmetry_cell_setting monoclinic
_symmetry_space_group_name_H-M 'P 21/n'
_symmetry_Int_Tables_number 14
loop_
_symmetry_equiv_pos_site_id
_symmetry_equiv_pos_as_xyz
1 x,y,z
2 1/2-x,1/2+y,1/2-z
3 -x,-y,-z
4 -1/2+x,-1/2-y,-1/2+z
_cell_length_a 11.8322(3)
_cell_length_b 6.0853(1)
_cell_length_c 15.8570(3)
_cell_angle_alpha 90
_cell_angle_beta 101.864(2)
_cell_angle_gamma 90
_cell_formula_units_Z 4
loop_
_atom_type_symbol
_atom_type_radius_bond
C 0.68
H 0.23
N 0.68
O 0.68
loop_
_atom_site_label
_atom_site_type_symbol
_atom_site_fract_x
_atom_site_fract_y
_atom_site_fract_z
O1 O 0.79693(8) 0.06822(15) 0.78232(6)
O2 O 0.82481(9) -0.20986(16) 0.88556(6)
O3 O 1.04065(10) -0.0305(2) 0.89858(10)
O4 O 0.96722(8) 0.30583(16) 0.89779(7)
N1 N 0.67179(10) 0.0582(2) 0.76513(8)
C1 C 0.3265(2) -0.1664(6) 0.87113(15)
C2 C 0.4303(2) -0.2651(4) 0.90278(16)
C3 C 0.53265(17) -0.1617(3) 0.89530(14)
C4 C 0.53083(13) 0.0405(3) 0.85666(10)
C5 C 0.42474(15) 0.1361(4) 0.82446(13)
C6 C 0.32309(17) 0.0312(5) 0.83205(16)
C7 C 0.63963(12) 0.1531(2) 0.84333(10)
C8 C 0.74876(13) 0.1335(3) 0.91548(10)
C9 C 0.83371(12) 0.0138(2) 0.87205(9)
C10 C 0.96003(12) 0.0898(2) 0.89183(9)
C11 C 1.08082(14) 0.4029(3) 0.90958(12)
H1 H 0.25820 -0.23540 0.87650
H2 H 0.43250 -0.40170 0.92940
H3 H 0.60300 -0.23020 0.91670
H4 H 0.6564(13) -0.088(3) 0.763(1)
H5 H 0.42140 0.27220 0.79740
H6 H 0.25230 0.09750 0.81010
H7 H 0.62260 0.30950 0.83270
H8 H 0.77780 0.27740 0.93560
H9 H 0.73310 0.04990 0.96390
H10 H 0.84150 -0.27740 0.84510
H11 H 1.07520 0.55870 0.91730
H12 H 1.11280 0.37440 0.85970
H13 H 1.12990 0.34020 0.95950
#END
