
#######################################################################
#
#                 Cambridge Crystallographic Data Centre
#                                CCDC
#
#######################################################################
#
# If this CIF has been generated from an entry in the Cambridge
# Structural Database, then it will include bibliographic, chemical,
# crystal, experimental, refinement or atomic coordinate data resulting
# from the CCDC's data processing and validation procedures.
#
#######################################################################

data_CSD_CIF_ZARHIJ
_audit_creation_date 1996-06-26
_audit_creation_method CSD-ConQuest-V1
_database_code_CSD ZARHIJ
_database_code_depnum_ccdc_archive 'CCDC 1309264'
_chemical_formula_sum 'C12 H9 N3 O7'
_chemical_formula_moiety
;
C12 H9 N3 O7
;
_journal_coden_Cambridge 3
_journal_volume 49
_journal_year 1995
_journal_page_first 253
_journal_name_full 'Acta Chem.Scand. '
loop_
_publ_author_name
"C.P.Butts"
"L.Eberson"
"M.P.Hartshorn"
"O.Persson"
"W.T.Robinson"
_chemical_name_systematic
;
1-Methoxy-4-trinitromethylnaphthalene
;
_chemical_melting_point 465.15
_cell_volume   2540.132
_exptl_crystal_colour 'colorless'
_exptl_crystal_density_diffrn 1.607
_exptl_special_details
;
Melting point range 465.15-467.15K
Coordinates for C8A' are missing and have been calculated
;
_diffrn_ambient_temperature 130
#These two values have been output from a single CSD field.
_refine_ls_R_factor_gt 0.037
_refine_ls_wR_factor_gt 0.037
_symmetry_cell_setting orthorhombic
_symmetry_space_group_name_H-M 'P 21 21 21'
_symmetry_Int_Tables_number 19
loop_
_symmetry_equiv_pos_site_id
_symmetry_equiv_pos_as_xyz
1 x,y,z
2 1/2-x,-y,1/2+z
3 1/2+x,1/2-y,-z
4 -x,1/2+y,1/2-z
_cell_length_a 10.245(2)
_cell_length_b 13.647(2)
_cell_length_c 18.168
_cell_angle_alpha 90
_cell_angle_beta 90
_cell_angle_gamma 90
_cell_formula_units_Z 8
loop_
_atom_type_symbol
_atom_type_radius_bond
C 0.68
N 0.68
O 0.68
loop_
_atom_site_label
_atom_site_type_symbol
_atom_site_fract_x
_atom_site_fract_y
_atom_site_fract_z
O1 O 0.5134(4) 0.1138(2) 0.2213(2)
O2 O 0.7026(4) 0.2230(2) 0.5870(2)
O3 O 0.6191(4) 0.0778(3) 0.5756(2)
O4 O 0.8745(4) 0.0139(2) 0.5788(2)
O5 O 0.8678(4) -0.0351(2) 0.4655(2)
O6 O 0.9913(4) 0.1794(2) 0.5214(2)
O7 O 0.8560(4) 0.2778(2) 0.4665(2)
N1 N 0.6931(5) 0.1436(3) 0.5577(2)
N2 N 0.8471(4) 0.0231(3) 0.5146(2)
N3 N 0.8868(5) 0.1997(3) 0.4943(2)
C1 C 0.5725(6) 0.1144(3) 0.2879(2)
C2 C 0.5076(5) 0.1163(3) 0.3530(2)
C3 C 0.5781(6) 0.1180(3) 0.4189(2)
C4 C 0.7106(6) 0.1181(3) 0.4202(2)
C5 C 0.7809(6) 0.1156(3) 0.3524(2)
C6 C 0.9190(6) 0.1133(3) 0.3468(2)
C7 C 0.9791(6) 0.1113(4) 0.2799(3)
C8 C 0.9089(7) 0.1093(4) 0.2145(3)
C9 C 0.7762(7) 0.1101(3) 0.2177(2)
C10 C 0.7095(6) 0.1127(3) 0.2854(2)
C11 C 0.3743(7) 0.1143(4) 0.2191(3)
C12 C 0.7802(5) 0.1203(3) 0.4918(2)
O8 O 0.3100(4) 0.3618(2) 0.2532(2)
O9 O 0.6057(4) 0.4516(2) -0.0565(2)
O10 O 0.6782(4) 0.3040(2) -0.0732(2)
O11 O 0.7921(4) 0.5276(2) 0.0925(2)
O12 O 0.8632(4) 0.4831(2) -0.0148(2)
O13 O 0.7520(4) 0.2125(2) 0.0544(2)
O14 O 0.9222(5) 0.3067(3) 0.0496(2)
N4 N 0.6610(4) 0.3771(3) -0.0368(2)
N5 N 0.7979(4) 0.4721(3) 0.0403(2)
N6 N 0.8067(6) 0.2912(3) 0.0493(2)
C13 C 0.4032(6) 0.3663(3) 0.2001(2)
C14 C 0.3772(5) 0.3681(3) 0.1266(2)
C15 C 0.4806(5) 0.3730(3) 0.0767(2)
C16 C 0.6069(5) 0.3762(3) 0.0982(2)
C17 C 0.6381(6) 0.3717(3) 0.1759(2)
C18 C 0.7666(6) 0.3713(4) 0.2047(2)
C19 C 0.7883(6) 0.3677(3) 0.2786(2)
C20 C 0.6846(6) 0.3650(3) 0.3281(2)
C21 C 0.5597(6) 0.3642(3) 0.3029(2)
C22 C 0.53300 0.36820 0.22730
C23 C 0.1778(6) 0.3590(4) 0.2306(3)
C24 C 0.7116(5) 0.3795(3) 0.0422(2)
#END
