
#######################################################################
#
#                 Cambridge Crystallographic Data Centre
#                                CCDC
#
#######################################################################
#
# If this CIF has been generated from an entry in the Cambridge
# Structural Database, then it will include bibliographic, chemical,
# crystal, experimental, refinement or atomic coordinate data resulting
# from the CCDC's data processing and validation procedures.
#
#######################################################################

data_CSD_CIF_ZARJOR
_audit_creation_date 1996-06-26
_audit_creation_method CSD-ConQuest-V1
_database_code_CSD ZARJOR
_chemical_formula_sum 'C18 H19 N5 O3'
_chemical_formula_moiety
;
C18 H19 N5 O3
;
_journal_coden_Cambridge 16
_journal_volume 51
_journal_year 1995
_journal_page_first 7085
_journal_name_full 'Tetrahedron '
loop_
_publ_author_name
"S.Turchi"
"D.Giomi"
"R.Nesi"
"P.Paoli"
_chemical_name_systematic
;
6-((Dimethylamino)methylene)amino-1,3-dimethyl-5-(3-phenylisoxazol-5-yl)uracil
;
_chemical_melting_point 449.15
_cell_volume    868.858
_exptl_crystal_colour 'pale yellow'
_exptl_crystal_density_diffrn 1.35
_exptl_special_details
;
Melting point range 449.15-450.15K

;
_diffrn_ambient_temperature ?
_diffrn_special_details
;
The study was carried out at room temperature,in the range 283-303K

;
#These two values have been output from a single CSD field.
_refine_ls_R_factor_gt 0.055
_refine_ls_wR_factor_gt 0.055
_symmetry_cell_setting triclinic
_symmetry_space_group_name_H-M 'P -1'
_symmetry_Int_Tables_number 2
loop_
_symmetry_equiv_pos_site_id
_symmetry_equiv_pos_as_xyz
1 x,y,z
2 -x,-y,-z
_cell_length_a 7.676(7)
_cell_length_b 10.581(4)
_cell_length_c 11.522(3)
_cell_angle_alpha 73.24(3)
_cell_angle_beta 77.63(6)
_cell_angle_gamma 79.94(6)
_cell_formula_units_Z 2
loop_
_atom_type_symbol
_atom_type_radius_bond
C 0.68
N 0.68
O 0.68
loop_
_atom_site_label
_atom_site_type_symbol
_atom_site_fract_x
_atom_site_fract_y
_atom_site_fract_z
C1 C 0.3928(3) 0.2830(2) 0.1731(2)
C2 C 0.3014(3) 0.1989(3) 0.1410(2)
C3 C 0.3552(4) 0.1694(3) 0.0291(3)
C4 C 0.4995(4) 0.2210(3) -0.0522(3)
C5 C 0.5916(4) 0.3032(3) -0.0215(2)
C6 C 0.5388(3) 0.3344(3) 0.0902(2)
C7 C 0.3340(3) 0.3183(2) 0.2912(2)
C8 C 0.3619(3) 0.4322(2) 0.3219(2)
C9 C 0.2725(3) 0.4223(2) 0.4381(2)
O1 O 0.1940(2) 0.3081(2) 0.4769(2)
N1 N 0.2350(3) 0.2423(2) 0.3828(2)
C10 C 0.2409(3) 0.5090(2) 0.5202(2)
C11 C 0.2815(3) 0.6436(2) 0.4647(2)
O2 O 0.3532(2) 0.6863(2) 0.3578(2)
N2 N 0.2330(3) 0.7304(2) 0.5404(2)
C12 C 0.2633(5) 0.8696(3) 0.4878(3)
C13 C 0.1625(3) 0.6949(2) 0.6637(2)
O3 O 0.1334(3) 0.7730(2) 0.7265(2)
N3 N 0.1313(3) 0.5642(2) 0.7117(2)
C14 C 0.0600(4) 0.5225(3) 0.8440(2)
C15 C 0.1674(3) 0.4715(2) 0.6438(2)
N4 N 0.1160(3) 0.3514(2) 0.7086(2)
C16 C 0.2285(3) 0.2453(2) 0.7120(2)
N5 N 0.1818(3) 0.1256(2) 0.7594(2)
C17 C 0.3161(4) 0.0098(3) 0.7714(3)
C18 C -0.0036(4) 0.1043(3) 0.8032(4)
#END
