
#######################################################################
#
#                 Cambridge Crystallographic Data Centre
#                                CCDC
#
#######################################################################
#
# If this CIF has been generated from an entry in the Cambridge
# Structural Database, then it will include bibliographic, chemical,
# crystal, experimental, refinement or atomic coordinate data resulting
# from the CCDC's data processing and validation procedures.
#
#######################################################################

data_CSD_CIF_ZARKAH
_audit_creation_date 2017-02-21
_audit_creation_method CSD-ConQuest-V1
_database_code_CSD ZARKAH
_database_code_depnum_ccdc_archive 'CCDC 1511201'
_chemical_formula_sum 'C25 H23 N1 O1'
_chemical_formula_moiety
;
C25 H23 N1 O1
;
_journal_coden_Cambridge 179
_journal_volume 56
_journal_year 2017
_journal_page_first 2059
_journal_name_full 'Angew.Chem.,Int.Ed. '
loop_
_publ_author_name
"I.Urruzuno"
"O.Mugica"
"M.Oiarbide"
"C.Palomo"
_chemical_name_systematic
;
9b-benzyl-1-phenyl-2,4,5,9b-tetrahydro-1H-3-benzo[e]indol-3-oxide
;
_cell_volume   1377.836
_exptl_crystal_colour 'colorless'
_exptl_crystal_density_diffrn 1.278
_exptl_special_details
;
Absolute configuration

;
_exptl_crystal_description 'prism'
_diffrn_ambient_temperature 150.0
#These two values have been output from a single CSD field.
_refine_ls_R_factor_gt 0.032
_refine_ls_wR_factor_gt 0.032
_symmetry_cell_setting hexagonal
_symmetry_space_group_name_H-M 'P 32'
_symmetry_Int_Tables_number 145
loop_
_symmetry_equiv_pos_site_id
_symmetry_equiv_pos_as_xyz
1 x,y,z
2 -y,x-y,2/3+z
3 -x+y,-x,1/3+z
_cell_length_a 10.29917(18)
_cell_length_b 10.29917(18)
_cell_length_c 14.9990(2)
_cell_angle_alpha 90
_cell_angle_beta 90
_cell_angle_gamma 120
_cell_formula_units_Z 3
loop_
_atom_type_symbol
_atom_type_radius_bond
C 0.68
H 0.23
N 0.68
O 0.68
loop_
_atom_site_label
_atom_site_type_symbol
_atom_site_fract_x
_atom_site_fract_y
_atom_site_fract_z
O1 O 0.69389(19) 0.42502(19) 0.24111(11)
N1 N 0.7955(2) 0.5081(2) 0.18315(12)
C1 C 0.7514(3) 0.5174(3) 0.09026(14)
H1 H 0.65630 0.51940 0.08840
H2 H 0.74100 0.43280 0.05360
C2 C 0.8842(2) 0.6670(2) 0.05926(14)
H3 H 0.86840 0.74700 0.08590
C3 C 1.0193(2) 0.6723(2) 0.11189(13)
C4 C 1.1442(2) 0.8317(2) 0.13146(13)
C5 C 1.2353(2) 0.9224(3) 0.06231(15)
H4 H 1.21800 0.88350 0.00340
C6 C 1.3498(3) 1.0672(3) 0.07749(15)
H5 H 1.40980 1.12690 0.02930
C7 C 1.3768(3) 1.1251(3) 0.16342(17)
H6 H 1.45460 1.22490 0.17460
C8 C 1.2888(3) 1.0353(3) 0.23251(15)
H7 H 1.30870 1.07450 0.29140
C9 C 1.1717(2) 0.8894(2) 0.21866(14)
C10 C 1.0770(3) 0.7990(3) 0.29679(14)
H8 H 0.99310 0.81890 0.30470
H9 H 1.13870 0.83200 0.35160
C11 C 1.0131(3) 0.6296(3) 0.28450(14)
H10 H 1.09430 0.60480 0.28630
H11 H 0.93970 0.57280 0.33210
C12 C 0.9390(3) 0.5927(2) 0.19588(14)
C13 C 0.9032(2) 0.6981(2) -0.03990(14)
C14 C 0.8846(3) 0.5903(3) -0.10276(15)
H12 H 0.85300 0.49060 -0.08430
C15 C 0.9124(3) 0.6287(3) -0.19256(15)
H13 H 0.90100 0.55530 -0.23500
C16 C 0.9563(3) 0.7728(3) -0.22029(15)
H14 H 0.97700 0.79880 -0.28150
C17 C 0.9702(3) 0.8796(3) -0.15868(15)
H15 H 0.99750 0.97800 -0.17770
C18 C 0.9440(3) 0.8418(3) -0.06959(15)
H16 H 0.95400 0.91530 -0.02760
C19 C 1.0825(3) 0.5818(3) 0.06312(14)
H17 H 0.99780 0.48140 0.04800
H18 H 1.12920 0.63330 0.00640
C20 C 1.1968(3) 0.5623(3) 0.11583(14)
C21 C 1.3493(3) 0.6669(3) 0.11118(17)
H19 H 1.38260 0.75330 0.07480
C22 C 1.4533(3) 0.6465(3) 0.15910(19)
H20 H 1.55670 0.71980 0.15600
C23 C 1.4069(3) 0.5203(3) 0.21113(17)
H21 H 1.47820 0.50540 0.24280
C24 C 1.2558(3) 0.4158(3) 0.21673(16)
H22 H 1.22320 0.32910 0.25280
C25 C 1.1515(3) 0.4371(3) 0.16979(15)
H23 H 1.04790 0.36510 0.17470
#END
