
#######################################################################
#
#                 Cambridge Crystallographic Data Centre
#                                CCDC
#
#######################################################################
#
# If this CIF has been generated from an entry in the Cambridge
# Structural Database, then it will include bibliographic, chemical,
# crystal, experimental, refinement or atomic coordinate data resulting
# from the CCDC's data processing and validation procedures.
#
#######################################################################

data_CSD_CIF_ZARXUL
_audit_creation_date 1996-06-26
_audit_creation_method CSD-ConQuest-V1
_database_code_CSD ZARXUL
_chemical_formula_sum 'C27 H19 N9 O2'
_chemical_formula_moiety
;
C27 H19 N9 O2
;
_journal_coden_Cambridge 423
_journal_volume 224
_journal_year 1995
_journal_page_first 1401
_journal_name_full 'J.Chem.Res. '
loop_
_publ_author_name
"R.N.Butler"
"E.P.Ni Bhradaigh"
"P.McArdle"
"D.Cunningham"
_chemical_name_systematic
;
1-(1-Phenyl-1H-tetrazol-5-yl)-4-(p-nitrophenyl)-3,6-diphenyl-1,4-dihydro-1,2,4
,5-tetrazine
;
_chemical_melting_point 485.15
_cell_volume   2394.731
_exptl_crystal_density_diffrn 1.39
_exptl_special_details
;
Melting point range 485.15-487.15K

;
_diffrn_ambient_temperature ?
_diffrn_special_details
;
The study was carried out at room temperature,in the range 283-303K

;
#These two values have been output from a single CSD field.
_refine_ls_R_factor_gt 0.0809
_refine_ls_wR_factor_gt 0.0809
_symmetry_cell_setting monoclinic
_symmetry_space_group_name_H-M 'P 21/c'
_symmetry_Int_Tables_number 14
loop_
_symmetry_equiv_pos_site_id
_symmetry_equiv_pos_as_xyz
1 x,y,z
2 -x,1/2+y,1/2-z
3 -x,-y,-z
4 x,-1/2-y,-1/2+z
_cell_length_a 12.989(2)
_cell_length_b 8.169(2)
_cell_length_c 22.678(3)
_cell_angle_alpha 90
_cell_angle_beta 95.62(2)
_cell_angle_gamma 90
_cell_formula_units_Z 4
loop_
_atom_type_symbol
_atom_type_radius_bond
C 0.68
H 0.23
N 0.68
O 0.68
loop_
_atom_site_label
_atom_site_type_symbol
_atom_site_fract_x
_atom_site_fract_y
_atom_site_fract_z
O1 O 0.8871(3) 1.2790(4) 0.2156(2)
O2 O 1.0303(3) 1.1894(5) 0.1863(2)
N1 N 0.8090(2) 0.4647(4) 0.0968(1)
N2 N 0.7476(2) 0.5763(4) 0.1257(1)
N3 N 0.6058(2) 0.4020(4) 0.1173(1)
N4 N 0.6442(2) 0.3834(4) 0.0607(1)
N5 N 0.4867(3) 0.2444(4) 0.0287(2)
N6 N 0.4408(3) 0.2016(5) -0.0257(2)
N7 N 0.4961(3) 0.2412(4) -0.0675(2)
N8 N 0.5826(2) 0.3171(4) -0.0407(1)
N9 N 0.9395(3) 1.1725(5) 0.1948(2)
C1 C 0.7526(3) 0.3675(5) 0.0632(2)
C2 C 0.6604(3) 0.5099(5) 0.1477(2)
C3 C 0.5742(3) 0.3144(5) 0.0182(2)
C4 C 0.7996(3) 0.2396(5) 0.0288(2)
C5 C 0.8890(3) 0.2754(5) 0.0027(2)
C6 C 0.9293(4) 0.1623(6) -0.0343(2)
C7 C 0.8808(4) 0.0135(6) -0.0440(2)
C8 C 0.7946(3) -0.0260(6) -0.0167(2)
C9 C 0.7532(3) 0.0864(5) 0.0202(2)
C10 C 0.6333(3) 0.5519(5) 0.2076(2)
C11 C 0.5306(4) 0.5675(6) 0.2172(2)
C12 C 0.5041(4) 0.6110(7) 0.2736(2)
C13 C 0.5787(4) 0.6338(6) 0.3183(2)
C14 C 0.6806(4) 0.6138(6) 0.3101(2)
C15 C 0.7089(3) 0.5739(5) 0.2546(2)
C16 C 0.7969(3) 0.7232(5) 0.1454(2)
C17 C 0.7370(3) 0.8579(5) 0.1574(2)
C18 C 0.7838(3) 1.0049(5) 0.1747(2)
C19 C 0.8903(3) 1.0146(5) 0.1789(2)
C20 C 0.9503(3) 0.8845(5) 0.1673(2)
C21 C 0.9044(3) 0.7352(5) 0.1509(2)
C22 C 0.6599(3) 0.3738(5) -0.0762(2)
C23 C 0.7095(3) 0.5210(5) -0.0645(2)
C24 C 0.7865(4) 0.5689(6) -0.0995(2)
C25 C 0.8090(4) 0.4737(6) -0.1469(2)
C26 C 0.7580(3) 0.3311(6) -0.1586(2)
C27 C 0.6837(3) 0.2770(5) -0.1231(2)
H1 H 0.92300 0.37900 0.01000
H2 H 0.99100 0.18700 -0.05300
H3 H 0.90800 -0.06400 -0.07000
H4 H 0.76300 -0.13200 -0.02300
H5 H 0.69300 0.05900 0.04000
H6 H 0.47700 0.54900 0.18500
H7 H 0.43300 0.62500 0.28000
H8 H 0.56000 0.66500 0.35700
H9 H 0.73300 0.62700 0.34300
H10 H 0.78100 0.56200 0.24900
H11 H 0.66300 0.84900 0.15400
H12 H 0.74300 1.09800 0.18400
H13 H 1.02400 0.89500 0.17000
H14 H 0.94600 0.64200 0.14400
H15 H 0.69100 0.59000 -0.03300
H16 H 0.82400 0.66900 -0.09100
H17 H 0.86100 0.50900 -0.17200
H18 H 0.77400 0.26600 -0.19200
H19 H 0.64900 0.17400 -0.13100
#END
