
#######################################################################
#
#                 Cambridge Crystallographic Data Centre
#                                CCDC
#
#######################################################################
#
# If this CIF has been generated from an entry in the Cambridge
# Structural Database, then it will include bibliographic, chemical,
# crystal, experimental, refinement or atomic coordinate data resulting
# from the CCDC's data processing and validation procedures.
#
#######################################################################

data_CSD_CIF_ZATQIX
_audit_creation_date 2017-07-03
_audit_creation_method CSD-ConQuest-V1
_database_code_CSD ZATQIX
_database_code_depnum_ccdc_archive 'CCDC 1560031'
_chemical_formula_sum 'C12 H16 N2 O2'
_chemical_formula_moiety
;
C12 H16 N2 O2
;
_journal_coden_Cambridge 1078
_journal_year 2017
_journal_name_full 'CSD Communication(Private Communication) '
loop_
_publ_author_name
"A.L.Rheingold"
"T.St.Denis"
_chemical_name_systematic
;
5-oxo-3-(tricyclo[3.3.1.1^3,7^]decan-1-yl)-5H-1,2,3-oxadiazol-3-ium-2-ide
;
_cell_volume   1065.832
_exptl_crystal_colour 'orange'
_exptl_crystal_density_diffrn 1.373
_exptl_crystal_description 'plate'
_diffrn_ambient_temperature 100
_diffrn_special_details
;
twin

;
#These two values have been output from a single CSD field.
_refine_ls_R_factor_gt 0.0346
_refine_ls_wR_factor_gt 0.0346
_symmetry_cell_setting orthorhombic
_symmetry_space_group_name_H-M 'P n a 21'
_symmetry_Int_Tables_number 33
loop_
_symmetry_equiv_pos_site_id
_symmetry_equiv_pos_as_xyz
1 x,y,z
2 -x,-y,1/2+z
3 1/2+x,1/2-y,z
4 1/2-x,1/2+y,1/2+z
_cell_length_a 14.2185(17)
_cell_length_b 10.892(2)
_cell_length_c 6.8822(12)
_cell_angle_alpha 90
_cell_angle_beta 90
_cell_angle_gamma 90
_cell_formula_units_Z 4
loop_
_atom_type_symbol
_atom_type_radius_bond
C 0.68
H 0.23
N 0.68
O 0.68
loop_
_atom_site_label
_atom_site_type_symbol
_atom_site_fract_x
_atom_site_fract_y
_atom_site_fract_z
O1 O 0.43399(11) 0.27358(14) 0.1674(3)
O2 O 0.39342(11) 0.07507(16) 0.1010(3)
N1 N 0.53551(12) 0.25018(18) 0.3890(3)
N2 N 0.49414(13) 0.33685(17) 0.2895(3)
C1 C 0.61906(15) 0.4243(2) 0.5469(4)
H1 H 0.55850 0.46210 0.58510
H2 H 0.63730 0.45710 0.41820
C2 C 0.60863(15) 0.2849(2) 0.5363(3)
C3 C 0.44139(14) 0.1455(2) 0.1973(4)
C4 C 0.78905(15) 0.3969(2) 0.6366(4)
H3 H 0.83820 0.41760 0.73310
H4 H 0.80870 0.42980 0.50880
C5 C 0.70187(15) 0.2257(2) 0.4722(4)
H5 H 0.69430 0.13550 0.46190
H6 H 0.72070 0.25770 0.34330
C6 C 0.74699(17) 0.2058(2) 0.8224(4)
H7 H 0.79610 0.22350 0.92060
H8 H 0.73910 0.11560 0.81400
C7 C 0.50902(15) 0.1354(2) 0.3439(4)
H9 H 0.53180 0.06160 0.40050
C8 C 0.66510(17) 0.4050(2) 0.8975(4)
H10 H 0.71340 0.42570 0.99570
H11 H 0.60490 0.44310 0.93760
C9 C 0.77751(16) 0.2566(2) 0.6240(4)
H12 H 0.83860 0.21850 0.58490
C10 C 0.65362(17) 0.2654(2) 0.8844(4)
H13 H 0.63450 0.23260 1.01420
C11 C 0.69489(15) 0.4547(2) 0.6974(4)
H14 H 0.70240 0.54580 0.70560
C12 C 0.57743(16) 0.2340(2) 0.7338(4)
H15 H 0.56910 0.14390 0.72570
H16 H 0.51670 0.27110 0.77250
#END
