
#######################################################################
#
#                 Cambridge Crystallographic Data Centre
#                                CCDC
#
#######################################################################
#
# If this CIF has been generated from an entry in the Cambridge
# Structural Database, then it will include bibliographic, chemical,
# crystal, experimental, refinement or atomic coordinate data resulting
# from the CCDC's data processing and validation procedures.
#
#######################################################################

data_CSD_CIF_ZAVJOY
_audit_creation_date 2017-07-04
_audit_creation_method CSD-ConQuest-V1
_database_code_CSD ZAVJOY
_database_code_depnum_ccdc_archive 'CCDC 1522952'
_chemical_formula_sum 'C16 H14 N4 O2'
_chemical_formula_moiety
;
C16 H14 N4 O2
;
_journal_coden_Cambridge 16
_journal_volume 73
_journal_year 2017
_journal_page_first 5072
_journal_name_full 'Tetrahedron '
loop_
_publ_author_name
"A.Danel"
"K.Wojtasik"
"P.Szlachcic"
"M.Gryl"
"K.Stadnicka"
_chemical_name_systematic
;
1-methyl-N-(2-nitrophenyl)-3-phenyl-1H-pyrazol-5-amine
;
_chemical_melting_point 385
_cell_volume   1390.811
_exptl_crystal_colour 'orange'
_exptl_crystal_density_diffrn 1.406
_exptl_crystal_description 'block'
_diffrn_ambient_temperature 120
#These two values have been output from a single CSD field.
_refine_ls_R_factor_gt 0.0377
_refine_ls_wR_factor_gt 0.0377
_symmetry_cell_setting triclinic
_symmetry_space_group_name_H-M 'P -1'
_symmetry_Int_Tables_number 2
loop_
_symmetry_equiv_pos_site_id
_symmetry_equiv_pos_as_xyz
1 x,y,z
2 -x,-y,-z
_cell_length_a 7.9105(3)
_cell_length_b 9.6662(3)
_cell_length_c 19.0961(6)
_cell_angle_alpha 82.946(3)
_cell_angle_beta 85.525(3)
_cell_angle_gamma 73.901(3)
_cell_formula_units_Z 4
loop_
_atom_type_symbol
_atom_type_radius_bond
C 0.68
H 0.23
N 0.68
O 0.68
loop_
_atom_site_label
_atom_site_type_symbol
_atom_site_fract_x
_atom_site_fract_y
_atom_site_fract_z
N1 N 0.86974(14) 0.09836(12) 0.67431(6)
N2 N 0.72179(14) 0.16010(12) 0.63818(6)
C1 C 0.65523(16) 0.04981(13) 0.63029(6)
C2 C 0.76290(17) -0.08272(14) 0.66003(7)
H1 H 0.74590 -0.17640 0.66060
C3 C 0.89755(16) -0.04704(14) 0.68797(6)
C4 C 0.97566(18) 0.18726(16) 0.69445(8)
H2 H 0.92310 0.28880 0.67720
H3 H 1.09550 0.15530 0.67360
H4 H 0.97970 0.17750 0.74600
C5 C 0.48706(16) 0.07658(13) 0.59571(6)
C6 C 0.39895(17) 0.21529(14) 0.56697(6)
H5 H 0.44600 0.29430 0.57080
C7 C 0.24343(18) 0.23909(15) 0.53289(7)
H6 H 0.18590 0.33390 0.51290
C8 C 0.17125(17) 0.12549(15) 0.52780(7)
H7 H 0.06500 0.14190 0.50420
C9 C 0.25585(18) -0.01238(15) 0.55753(7)
H8 H 0.20640 -0.09050 0.55490
C10 C 0.41248(17) -0.03664(14) 0.59109(7)
H9 H 0.46950 -0.13150 0.61120
N3 N 1.04249(14) -0.13032(12) 0.72617(6)
H10 H 1.1508(13) -0.1266(17) 0.7122(8)
C11 C 1.02585(16) -0.19029(13) 0.79469(6)
C12 C 0.86040(17) -0.20219(14) 0.82401(7)
H11 H 0.76100 -0.17090 0.79540
C13 C 0.83952(17) -0.25795(14) 0.89286(7)
H12 H 0.72620 -0.26460 0.91070
C14 C 0.98104(18) -0.30502(15) 0.93728(7)
H13 H 0.96450 -0.34130 0.98510
C15 C 1.14501(17) -0.29755(14) 0.91009(7)
H14 H 1.24310 -0.32950 0.93940
C16 C 1.16832(16) -0.24349(14) 0.83990(7)
N4 N 1.34644(14) -0.24233(12) 0.81609(6)
O1 O 1.37697(12) -0.19656(11) 0.75404(5)
O2 O 1.46453(13) -0.28801(13) 0.85789(6)
H15? H 1.07580 0.12560 0.72070
H16? H 0.90340 0.25910 0.72430
H17? H 1.01910 0.23690 0.65190
N5 N 1.30283(14) 0.20272(12) 0.82189(6)
N6 N 1.17872(14) 0.14881(12) 0.85954(6)
C17 C 1.03775(16) 0.26338(14) 0.86458(6)
C18 C 1.07316(17) 0.39077(14) 0.83126(6)
H18 H 0.99600 0.48590 0.82800
C19 C 1.24371(16) 0.34786(14) 0.80448(6)
C20 C 1.47412(18) 0.10615(16) 0.80462(8)
H19 H 1.47780 0.00700 0.82460
H20 H 1.56660 0.13700 0.82450
H21 H 1.49320 0.10940 0.75320
C21 C 0.87180(17) 0.24471(14) 0.89993(6)
C22 C 0.86236(19) 0.10985(15) 0.93298(7)
H22 H 0.96320 0.02900 0.93230
C23 C 0.7061(2) 0.09329(17) 0.96683(8)
H23 H 0.70150 0.00170 0.99020
C24 C 0.55707(19) 0.20949(17) 0.96668(8)
H24 H 0.45000 0.19720 0.98920
C25 C 0.56443(18) 0.34382(16) 0.93366(7)
H25 H 0.46230 0.42370 0.93350
C26 C 0.72139(17) 0.36159(15) 0.90082(7)
H26 H 0.72630 0.45410 0.87880
N7 N 1.35374(14) 0.42434(12) 0.76613(6)
H27 H 1.4615(14) 0.4114(17) 0.7807(8)
C27 C 1.32513(16) 0.48800(13) 0.69791(6)
C28 C 1.16105(16) 0.51159(14) 0.66804(7)
H28 H 1.06810 0.48470 0.69590
C29 C 1.13179(17) 0.57254(14) 0.59967(7)
H29 H 1.01900 0.58740 0.58140
C30 C 1.26466(17) 0.61308(14) 0.55640(7)
H30 H 1.24420 0.65290 0.50880
C31 C 1.42529(17) 0.59407(14) 0.58421(7)
H31 H 1.51680 0.62180 0.55570
C32 C 1.45570(16) 0.53443(13) 0.65398(7)
N8 N 1.62824(14) 0.52143(12) 0.67835(6)
O3 O 1.66316(12) 0.47356(12) 0.74013(5)
O4 O 1.73745(13) 0.56029(13) 0.63700(6)
H32? H 1.54730 0.16190 0.77690
H33? H 1.45850 0.03190 0.77700
H34? H 1.53190 0.05960 0.84830
#END
