
#######################################################################
#
#                 Cambridge Crystallographic Data Centre
#                                CCDC
#
#######################################################################
#
# If this CIF has been generated from an entry in the Cambridge
# Structural Database, then it will include bibliographic, chemical,
# crystal, experimental, refinement or atomic coordinate data resulting
# from the CCDC's data processing and validation procedures.
#
#######################################################################

data_CSD_CIF_ZAVMIV
_audit_creation_date 2017-07-04
_audit_creation_method CSD-ConQuest-V1
_database_code_CSD ZAVMIV
_database_code_depnum_ccdc_archive 'CCDC 1529896'
_chemical_formula_sum 'C11 H11 N3 O7'
_chemical_formula_moiety
;
C11 H11 N3 O7
;
_journal_coden_Cambridge 1220
_journal_volume 23
_journal_year 2017
_journal_page_first 5414
_journal_name_full 'Chem.-Eur.J. '
loop_
_publ_author_name
"G.Storch"
"M.Haas"
"O.Trapp"
_chemical_name_systematic
;
methyl N-(3,5-dinitrobenzene-1-carbonyl)alaninate
;
_cell_volume    671.187
_exptl_crystal_colour 'colorless'
_exptl_crystal_density_diffrn 1.471
_exptl_crystal_description 'needle'
_diffrn_ambient_temperature 200
#These two values have been output from a single CSD field.
_refine_ls_R_factor_gt 0.0605
_refine_ls_wR_factor_gt 0.0605
_symmetry_cell_setting monoclinic
_symmetry_space_group_name_H-M 'P 21'
_symmetry_Int_Tables_number 4
loop_
_symmetry_equiv_pos_site_id
_symmetry_equiv_pos_as_xyz
1 x,y,z
2 -x,1/2+y,-z
_cell_length_a 11.300(4)
_cell_length_b 4.8973(17)
_cell_length_c 12.364(4)
_cell_angle_alpha 90
_cell_angle_beta 101.20(1)
_cell_angle_gamma 90
_cell_formula_units_Z 2
loop_
_atom_type_symbol
_atom_type_radius_bond
C 0.68
H 0.23
N 0.68
O 0.68
loop_
_atom_site_label
_atom_site_type_symbol
_atom_site_fract_x
_atom_site_fract_y
_atom_site_fract_z
C1 C 0.2773(7) 0.755(2) 0.2806(7)
O1 O 0.2995(5) 0.9975(13) 0.2723(4)
N1 N 0.2507(7) 0.5812(16) 0.1949(6)
H1 H 0.257(7) 0.419(18) 0.206(6)
C2 C 0.2487(7) 0.6773(18) 0.0809(6)
H2 H 0.21920 0.87030 0.07470
C3 C 0.3731(7) 0.669(2) 0.0522(6)
H3 H 0.36880 0.74100 -0.02250
H4 H 0.40220 0.48020 0.05550
H5 H 0.42870 0.78100 0.10490
C4 C 0.1582(7) 0.500(2) 0.0051(7)
O2 O 0.1095(5) 0.3027(13) 0.0322(5)
O3 O 0.1427(5) 0.5978(13) -0.0974(4)
C5 C 0.0572(8) 0.444(2) -0.1792(6)
H6 H 0.05100 0.52980 -0.25180
H7 H -0.02220 0.44440 -0.15840
H8 H 0.08550 0.25580 -0.18230
C6 C 0.2776(7) 0.6314(17) 0.3930(6)
C7 C 0.1999(7) 0.4209(16) 0.4081(6)
H9 H 0.14750 0.34160 0.34680
C8 C 0.2002(7) 0.3283(17) 0.5147(7)
C9 C 0.2738(7) 0.4366(17) 0.6072(6)
H10 H 0.27380 0.36880 0.67920
C10 C 0.3471(7) 0.6494(17) 0.5883(6)
C11 C 0.3514(7) 0.7494(17) 0.4845(6)
H11 H 0.40380 0.89590 0.47570
N2 N 0.1193(6) 0.0993(14) 0.5307(6)
O4 O 0.0583(5) -0.0004(13) 0.4482(4)
O5 O 0.1209(5) 0.0247(13) 0.6261(4)
N3 N 0.4223(6) 0.7834(17) 0.6852(6)
O6 O 0.4245(5) 0.6824(14) 0.7753(5)
O7 O 0.4760(5) 0.9934(14) 0.6690(4)
#END
