
#######################################################################
#
#                 Cambridge Crystallographic Data Centre
#                                CCDC
#
#######################################################################
#
# If this CIF has been generated from an entry in the Cambridge
# Structural Database, then it will include bibliographic, chemical,
# crystal, experimental, refinement or atomic coordinate data resulting
# from the CCDC's data processing and validation procedures.
#
#######################################################################

data_CSD_CIF_ZAVTEV
_audit_creation_date 1996-04-12
_audit_creation_method CSD-ConQuest-V1
_database_code_CSD ZAVTEV
_database_code_depnum_ccdc_archive 'CCDC 1309593; CCDC 401678'
_database_code_depnum_ccdc_fiz 'CSD 401678'
_chemical_formula_sum 'C3 H4 N2 O1'
_chemical_formula_moiety
;
C3 H4 N2 O1
;
_journal_coden_Cambridge 167
_journal_year 1995
_journal_page_first 1563
_journal_name_full 'Liebigs Ann. '
loop_
_publ_author_name
"W.Reuther"
"U.Baus"
_chemical_name_systematic
;
1-Hydroxypyrazole
;
_chemical_melting_point 347.15
_cell_volume   1722.042
_exptl_crystal_colour 'colorless'
_exptl_crystal_density_diffrn 1.297
_exptl_crystal_description 'cube'
_diffrn_ambient_temperature ?
_diffrn_special_details
;
The study was carried out at room temperature,in the range 283-303K

;
#These two values have been output from a single CSD field.
_refine_ls_R_factor_gt 0.033
_refine_ls_wR_factor_gt 0.033
_symmetry_cell_setting tetragonal
_symmetry_space_group_name_H-M 'I 41/a'
_symmetry_Int_Tables_number 88
loop_
_symmetry_equiv_pos_site_id
_symmetry_equiv_pos_as_xyz
1 x,y,z
2 3/4-y,1/4+x,1/4+z
3 1/2-x,-y,1/2+z
4 3/4+y,3/4-x,3/4+z
5 1/2+x,1/2+y,1/2+z
6 1/4-y,3/4+x,3/4+z
7 -x,1/2-y,z
8 1/4+y,1/4-x,1/4+z
9 -x,-y,-z
10 -3/4+y,-1/4-x,-1/4-z
11 -1/2+x,y,-1/2-z
12 -3/4-y,-3/4+x,-3/4-z
13 -1/2-x,-1/2-y,-1/2-z
14 -1/4+y,-3/4-x,-3/4-z
15 x,-1/2+y,-z
16 -1/4-y,-1/4+x,-1/4-z
_cell_length_a 16.159(2)
_cell_length_b 16.159(2)
_cell_length_c 6.595(2)
_cell_angle_alpha 90
_cell_angle_beta 90
_cell_angle_gamma 90
_cell_formula_units_Z 16
loop_
_atom_type_symbol
_atom_type_radius_bond
C 0.68
H 0.23
N 0.68
O 0.68
loop_
_atom_site_label
_atom_site_type_symbol
_atom_site_fract_x
_atom_site_fract_y
_atom_site_fract_z
C1 C 0.19607(11) 0.64475(11) 0.1907(3)
H1 H 0.24800(11) 0.64770(11) 0.2511(3)
C2 C 0.17934(11) 0.63599(11) -0.0111(3)
H2 H 0.21727(11) 0.63212(11) -0.1167(3)
C3 C 0.09459(11) 0.63412(11) -0.0248(3)
H3 H 0.06540(11) 0.62843(11) -0.1456(3)
N1 N 0.05953(8) 0.64150(8) 0.1572(2)
N2 N 0.12319(9) 0.64821(8) 0.2833(2)
O1 O 0.10917(8) 0.65187(8) 0.4869(2)
H4 H 0.1079(12) 0.7100(15) 0.5169(31)
#END
