
#######################################################################
#
#                 Cambridge Crystallographic Data Centre
#                                CCDC
#
#######################################################################
#
# If this CIF has been generated from an entry in the Cambridge
# Structural Database, then it will include bibliographic, chemical,
# crystal, experimental, refinement or atomic coordinate data resulting
# from the CCDC's data processing and validation procedures.
#
#######################################################################

data_CSD_CIF_ZAWRUN
_audit_creation_date 2017-07-04
_audit_creation_method CSD-ConQuest-V1
_database_code_CSD ZAWRUN
_database_code_depnum_ccdc_archive 'CCDC 1560207'
_chemical_formula_sum 'C39 H40 N4 O9'
_chemical_formula_moiety
;
C39 H40 N4 O9
;
_journal_coden_Cambridge 4
_journal_volume 139
_journal_year 2017
_journal_page_first 6654
_journal_name_full 'J.Am.Chem.Soc. '
loop_
_publ_author_name
"D.Nunez-Villanueva"
"Giulia Iadevaia"
"A.E.Stross"
"M.A.Jinks"
"J.A.Swain"
"C.A.Hunter"
_chemical_name_systematic
;
4-({[3-(1,3-dioxolan-2-yl)-4-methoxyphenyl][(5-{[(4-hydroxyphenyl)methyl][(2-m
ethoxy-5-nitrophenyl)methyl]amino}-2-methoxyphenyl)methyl]amino}methyl)pyridin
e-N-oxide
;
_cell_volume   1736.969
_exptl_crystal_colour 'colorless'
_exptl_crystal_density_diffrn 1.355
_exptl_crystal_description 'needle'
_diffrn_ambient_temperature 100
#These two values have been output from a single CSD field.
_refine_ls_R_factor_gt 0.1135
_refine_ls_wR_factor_gt 0.1135
_symmetry_cell_setting triclinic
_symmetry_space_group_name_H-M 'P -1'
_symmetry_Int_Tables_number 2
loop_
_symmetry_equiv_pos_site_id
_symmetry_equiv_pos_as_xyz
1 x,y,z
2 -x,-y,-z
_cell_length_a 8.2839(5)
_cell_length_b 12.3644(8)
_cell_length_c 17.9163(12)
_cell_angle_alpha 102.994(4)
_cell_angle_beta 103.082(5)
_cell_angle_gamma 91.085(5)
_cell_formula_units_Z 2
loop_
_atom_type_symbol
_atom_type_radius_bond
C 0.68
H 0.23
N 0.68
O 0.68
loop_
_atom_site_label
_atom_site_type_symbol
_atom_site_fract_x
_atom_site_fract_y
_atom_site_fract_z
N1 N -0.0923(9) -0.1070(6) 0.0169(4)
N2 N -0.3398(7) 0.1932(5) 0.1962(4)
N3 N 0.1802(7) 0.5109(5) 0.1929(3)
N4 N 0.0050(8) 0.6974(6) 0.4430(4)
O1 O -0.0397(6) 0.0237(4) 0.3395(3)
O2 O -0.0180(8) -0.1887(5) -0.0093(3)
O3 O -0.1805(7) -0.0561(5) -0.0253(3)
O4 O -0.6823(7) 0.3649(5) 0.4873(3)
H1 H -0.77602 0.33854 0.48800
O5 O -0.1451(6) 0.5557(4) 0.0899(3)
O6 O -0.0662(7) 0.7574(5) 0.4966(3)
O7 O 0.5010(6) 0.8657(4) 0.1238(3)
O8 O 0.6131(7) 0.8122(5) 0.3474(3)
O9 O 0.4662(8) 0.9461(5) 0.3033(3)
C1 C 0.0557(12) -0.0346(8) 0.3929(5)
H2 H 0.00120 -0.10886 0.38454
H3 H 0.06365 0.00679 0.44725
H4 H 0.16740 -0.04173 0.38345
C2 C -0.0465(9) -0.0151(6) 0.2610(5)
C3 C 0.0271(10) -0.1078(7) 0.2299(5)
H5 H 0.08473 -0.15140 0.26338
C4 C 0.0169(10) -0.1373(6) 0.1498(5)
H6 H 0.07081 -0.19938 0.12762
C5 C -0.0736(9) -0.0745(6) 0.1026(5)
C6 C -0.1483(9) 0.0202(6) 0.1340(4)
H7 H -0.20660 0.06345 0.10048
C7 C -0.1363(9) 0.0495(6) 0.2129(5)
C8 C -0.216(1) 0.1491(6) 0.2515(4)
H8 H -0.26963 0.12768 0.29065
H9 H -0.12793 0.20874 0.28029
C9 C -0.5106(9) 0.1688(6) 0.1981(5)
H10 H -0.53018 0.08724 0.18974
H11 H -0.58460 0.19118 0.15329
C10 C -0.5607(9) 0.2251(6) 0.2738(4)
C11 C -0.4617(10) 0.3150(7) 0.3289(4)
H12 H -0.36343 0.34316 0.31870
C12 C -0.5089(9) 0.3630(7) 0.3992(5)
H13 H -0.44524 0.42571 0.43531
C13 C -0.6466(9) 0.3192(7) 0.4156(5)
C14 C -0.7444(10) 0.2309(6) 0.3612(5)
H14 H -0.84153 0.20218 0.37211
C15 C -0.7016(10) 0.1849(7) 0.2920(5)
H15 H -0.76953 0.12423 0.25562
C16 C -0.2971(9) 0.2874(6) 0.1726(4)
C17 C -0.4096(9) 0.3664(6) 0.1538(4)
H16 H -0.51901 0.35868 0.16106
C18 C -0.3665(9) 0.4551(6) 0.1250(4)
H17 H -0.44680 0.50494 0.11019
C19 C -0.2033(9) 0.4704(6) 0.1181(4)
C20 C -0.0859(8) 0.3956(6) 0.1376(4)
C21 C -0.1336(9) 0.3075(6) 0.1652(4)
H18 H -0.05267 0.25797 0.17990
C22 C -0.2641(9) 0.6296(6) 0.0651(5)
H19 H -0.35818 0.58693 0.02508
H20 H -0.21263 0.68266 0.04260
H21 H -0.30347 0.67007 0.11041
C23 C 0.0917(9) 0.4131(6) 0.1335(4)
H22 H 0.15038 0.34605 0.14131
H23 H 0.09397 0.42263 0.08031
C24 C 0.2292(9) 0.4963(6) 0.2734(4)
H24 H 0.35156 0.50906 0.29170
H25 H 0.19923 0.41820 0.27283
C25 C 0.1518(9) 0.5718(6) 0.3317(4)
C26 C 0.2422(11) 0.6164(7) 0.4071(5)
H26 H 0.35636 0.60314 0.42146
C27 C 0.1693(11) 0.6804(8) 0.4625(5)
H27 H 0.23396 0.71247 0.51407
C28 C -0.0862(11) 0.6576(7) 0.3692(5)
H28 H -0.20002 0.67196 0.35544
C29 C -0.0126(10) 0.5956(8) 0.3137(5)
H29 H -0.07713 0.56838 0.26140
C30 C 0.2579(9) 0.5981(6) 0.1729(5)
C31 C 0.2356(9) 0.6102(6) 0.0944(4)
H30 H 0.16405 0.55736 0.05266
C32 C 0.3146(9) 0.6960(6) 0.0776(4)
H31 H 0.29834 0.70089 0.02432
C33 C 0.4178(10) 0.7760(6) 0.1361(5)
C34 C 0.4411(8) 0.7682(6) 0.2143(4)
C35 C 0.3618(9) 0.6795(6) 0.2316(5)
H32 H 0.37929 0.67449 0.28492
C36 C 0.4702(9) 0.8766(7) 0.0441(5)
H33 H 0.50325 0.81030 0.01108
H34 H 0.53479 0.94260 0.04185
H35 H 0.35160 0.88452 0.02466
C37 C 0.5552(10) 0.8543(6) 0.2793(4)
H36 H 0.65136 0.87858 0.26032
C38 C 0.5842(13) 0.8915(8) 0.4140(5)
H37 H 0.68245 0.90373 0.45902
H38 H 0.48663 0.86617 0.43055
C39 C 0.5532(12) 0.9941(8) 0.3849(5)
H39 H 0.48277 1.04265 0.41383
H40 H 0.65819 1.03659 0.38840
#END
