
#######################################################################
#
#                 Cambridge Crystallographic Data Centre
#                                CCDC
#
#######################################################################
#
# If this CIF has been generated from an entry in the Cambridge
# Structural Database, then it will include bibliographic, chemical,
# crystal, experimental, refinement or atomic coordinate data resulting
# from the CCDC's data processing and validation procedures.
#
#######################################################################

data_CSD_CIF_ZAXJOZ
_audit_creation_date 2012-07-11
_audit_creation_method CSD-ConQuest-V1
_database_code_CSD ZAXJOZ
_database_code_depnum_ccdc_archive 'CCDC 878705'
_chemical_formula_sum 'C22 H21 N1 O4'
_chemical_formula_moiety
;
C22 H21 N1 O4
;
_journal_coden_Cambridge 1336
_journal_volume 14
_journal_year 2012
_journal_page_first 410
_journal_name_full 'Org.Lett. '
loop_
_publ_author_name
"Jingwei Li"
"Xiaoguang Liu"
"Daesung Lee"
_chemical_name_systematic
;
1-(1-Phenylcyclopent-3-en-1-yl)but-3-en-1-yl 4-nitrobenzoate
;
_cell_volume   1902.616
_exptl_crystal_colour 'colorless'
_exptl_crystal_density_diffrn 1.269
_exptl_crystal_description 'rod'
_diffrn_ambient_temperature 100
#These two values have been output from a single CSD field.
_refine_ls_R_factor_gt 0.0534
_refine_ls_wR_factor_gt 0.0534
_symmetry_cell_setting monoclinic
_symmetry_space_group_name_H-M 'P 21/n'
_symmetry_Int_Tables_number 14
loop_
_symmetry_equiv_pos_site_id
_symmetry_equiv_pos_as_xyz
1 x,y,z
2 1/2-x,1/2+y,1/2-z
3 -x,-y,-z
4 -1/2+x,-1/2-y,-1/2+z
_cell_length_a 16.759(3)
_cell_length_b 6.0204(10)
_cell_length_c 19.032(3)
_cell_angle_alpha 90
_cell_angle_beta 97.771(3)
_cell_angle_gamma 90
_cell_formula_units_Z 4
loop_
_atom_type_symbol
_atom_type_radius_bond
C 0.68
H 0.23
N 0.68
O 0.68
loop_
_atom_site_label
_atom_site_type_symbol
_atom_site_fract_x
_atom_site_fract_y
_atom_site_fract_z
O1 O 0.32263(16) 1.1379(4) -0.09690(12)
O2 O 0.40408(17) 1.3958(4) -0.05673(11)
O3 O 0.42917(10) 0.5269(3) 0.20750(8)
O4 O 0.50940(8) 0.8112(2) 0.24770(7)
N1 N 0.37171(15) 1.2182(5) -0.05110(11)
C1 C 0.39368(14) 1.0874(4) 0.01420(11)
C2 C 0.35839(14) 0.8857(4) 0.02018(12)
H1 H 0.32130 0.83010 -0.01640
C3 C 0.37894(13) 0.7664(4) 0.08155(12)
H2 H 0.35530 0.62870 0.08680
C4 C 0.43445(12) 0.8495(3) 0.13567(10)
C5 C 0.46936(14) 1.0547(4) 0.12816(12)
H3 H 0.50650 1.11150 0.16450
C6 C 0.44900(14) 1.1749(4) 0.06668(12)
H4 H 0.47230 1.31270 0.06090
C7 C 0.45561(12) 0.7092(4) 0.20054(11)
C8 C 0.54090(11) 0.6942(3) 0.31281(10)
H5 H 0.5147(11) 0.543(3) 0.3134(10)
C9 C 0.62998(12) 0.6580(3) 0.30906(11)
H6 H 0.65620 0.80080 0.30610
H7 H 0.65440 0.58470 0.35200
C10 C 0.64288(13) 0.5199(4) 0.24619(12)
H8 H 0.62360 0.57690 0.20170
C11 C 0.67806(14) 0.3298(4) 0.24791(15)
H9 H 0.69830 0.26620 0.29120
H10 H 0.68330 0.25590 0.20590
C12 C 0.51669(11) 0.8339(3) 0.37487(10)
C13 C 0.55481(13) 0.7292(4) 0.44631(11)
H11 H 0.51720 0.73190 0.48090
H12 H 0.57120 0.57700 0.43960
C14 C 0.62598(15) 0.8731(5) 0.46930(13)
H13 H 0.66600 0.83780 0.50640
C15 C 0.62578(15) 1.0539(4) 0.43158(14)
H14 H 0.66590 1.16150 0.43840
C16 C 0.55429(13) 1.0687(3) 0.37643(12)
H15 H 0.57000 1.10640 0.33070
H16 H 0.51670 1.17950 0.38900
C17 C 0.42484(12) 0.8323(3) 0.3660(1)
C18 C 0.38449(13) 0.6494(4) 0.38828(12)
H17 H 0.41420 0.53230 0.41030
C19 C 0.30156(15) 0.6365(4) 0.37858(14)
H18 H 0.27640 0.51140 0.39400
C20 C 0.25655(15) 0.8045(5) 0.34683(14)
H19 H 0.20060 0.79630 0.34110
C21 C 0.29423(16) 0.9869(5) 0.32325(14)
H20 H 0.26360 1.10170 0.30080
C22 C 0.37795(14) 1.0016(4) 0.33268(12)
H21 H 0.40270 1.12630 0.31640
#END
