
#######################################################################
#
#                 Cambridge Crystallographic Data Centre
#                                CCDC
#
#######################################################################
#
# If this CIF has been generated from an entry in the Cambridge
# Structural Database, then it will include bibliographic, chemical,
# crystal, experimental, refinement or atomic coordinate data resulting
# from the CCDC's data processing and validation procedures.
#
#######################################################################

data_CSD_CIF_ZAYHAL
_audit_creation_date 2017-07-05
_audit_creation_method CSD-ConQuest-V1
_database_code_CSD ZAYHAL
_database_code_depnum_ccdc_archive 'CCDC 1538334'
_chemical_formula_sum 'C11 H17 N11 O25'
_chemical_formula_moiety
;
C11 H17 N11 O25
;
_journal_coden_Cambridge 1291
_journal_year 2017
_journal_page_first 3666
_journal_name_full 'Eur.J.Org.Chem. '
loop_
_publ_author_name
"T.M.Klapotke"
"B.Krumm"
"T.Reith"
_chemical_name_systematic
;
N,N'-dinitro-N,N'-bis(tris((nitrooxy)methyl)methyl)-2-nitrooxypropane-1,2-diam
ine
;
_chemical_name_common
;
(2-(nitrooxy)propane-1,3-diyl)bis((nitroazanediyl)-2-((nitrooxy)methyl)propane
-2,1,3-triyl) tetranitrate
;
_cell_volume   5090.857
_exptl_crystal_colour 'colorless'
_exptl_crystal_density_diffrn 1.835
_exptl_crystal_description 'platelet'
_diffrn_ambient_temperature 148
#These two values have been output from a single CSD field.
_refine_ls_R_factor_gt 0.0405
_refine_ls_wR_factor_gt 0.0405
_symmetry_cell_setting monoclinic
_symmetry_space_group_name_H-M 'C 2/c'
_symmetry_Int_Tables_number 15
loop_
_symmetry_equiv_pos_site_id
_symmetry_equiv_pos_as_xyz
1 x,y,z
2 -x,y,1/2-z
3 1/2+x,1/2+y,z
4 1/2-x,1/2+y,1/2-z
5 -x,-y,-z
6 x,-y,-1/2+z
7 -1/2-x,-1/2-y,-z
8 -1/2+x,-1/2-y,-1/2+z
_cell_length_a 51.214(13)
_cell_length_b 6.853(2)
_cell_length_c 14.561(4)
_cell_angle_alpha 90
_cell_angle_beta 95.021(9)
_cell_angle_gamma 90
_cell_formula_units_Z 8
loop_
_atom_type_symbol
_atom_type_radius_bond
C 0.68
H 0.23
N 0.68
O 0.68
loop_
_atom_site_label
_atom_site_type_symbol
_atom_site_fract_x
_atom_site_fract_y
_atom_site_fract_z
O1 O 0.69724(4) 0.1806(3) 0.22510(15)
O2 O 0.63126(4) -0.3774(3) 0.50978(13)
O3 O 0.74038(4) -0.0958(3) 0.57337(14)
O4 O 0.54916(3) 0.1574(2) 0.35560(9)
C1 C 0.55502(3) -0.0370(3) 0.19415(13)
O5 O 0.52698(2) -0.02009(18) 0.17277(9)
O6 O 0.57551(3) 0.1992(2) 0.05087(9)
O7 O 0.65462(3) -0.2922(2) 0.39776(10)
N1 N 0.68031(3) 0.0782(3) 0.18686(13)
O8 O 0.60615(3) -0.1742(2) 0.10065(9)
O9 O 0.51291(3) 0.3138(2) 0.38930(11)
O10 O 0.59440(3) 0.4943(2) 0.23964(11)
O11 O 0.49138(3) -0.1879(2) 0.14346(10)
O12 O 0.52830(3) -0.3451(2) 0.16494(11)
N2 N 0.72561(4) -0.0125(3) 0.52084(14)
N3 N 0.59294(3) 0.1687(2) 0.23529(11)
O13 O 0.71321(3) -0.1303(2) 0.45147(10)
O14 O 0.59648(3) -0.2805(3) -0.03896(11)
O15 O 0.62801(3) -0.0674(2) -0.01791(10)
O16 O 0.55526(3) 0.4027(2) -0.05124(10)
O17 O 0.65970(4) -0.5842(3) 0.46480(14)
C2 C 0.64851(4) -0.1780(3) 0.18475(14)
N4 N 0.66881(3) -0.0677(2) 0.24008(11)
N5 N 0.64809(4) -0.4323(3) 0.46390(14)
N6 N 0.57080(3) 0.2739(3) -0.03908(11)
O18 O 0.58355(3) 0.1937(3) -0.09291(10)
N7 N 0.51469(3) -0.2019(2) 0.15898(11)
O19 O 0.63056(3) 0.3283(2) 0.26059(11)
O20 O 0.67181(3) 0.0946(3) 0.10637(12)
C3 C 0.56430(3) 0.1770(3) 0.20550(12)
N8 N 0.60657(3) 0.3398(2) 0.24534(11)
N9 N 0.61091(4) -0.1713(3) 0.00578(12)
O21 O 0.71974(6) 0.1533(4) 0.51957(18)
C4 C 0.60942(4) -0.0077(3) 0.24423(13)
C5 C 0.62398(4) -0.0536(3) 0.15983(13)
C6 C 0.54822(4) 0.2808(3) 0.27493(13)
N10 N 0.52974(3) 0.2004(3) 0.41462(11)
C7 C 0.67647(4) -0.3518(3) 0.34822(15)
C8 C 0.55873(4) 0.2867(3) 0.11375(13)
C9 C 0.68821(4) -0.1684(3) 0.30837(13)
C10 C 0.69590(4) -0.0236(3) 0.38708(15)
O22 O 0.70187(3) -0.3585(2) 0.18666(11)
C11 C 0.71247(4) -0.2363(4) 0.26192(15)
O23 O 0.71165(4) -0.5357(3) 0.07125(13)
O24 O 0.74346(4) -0.4299(3) 0.16802(13)
N11 N 0.72096(4) -0.4506(3) 0.13784(14)
O25 O 0.53280(3) 0.1101(3) 0.48562(10)
H1 H 0.6891(4) -0.408(3) 0.3915(15)
H2 H 0.5552(4) 0.402(3) 0.2909(15)
H3 H 0.6269(4) 0.056(3) 0.1238(13)
H4 H 0.6432(4) -0.284(3) 0.2242(15)
H5 H 0.5413(4) 0.265(3) 0.0925(15)
H6 H 0.6707(4) -0.440(3) 0.3031(15)
H7 H 0.7221(4) -0.130(3) 0.2365(16)
H8 H 0.5992(4) -0.108(3) 0.2586(14)
H9 H 0.5304(5) 0.288(3) 0.2502(15)
H10 H 0.7046(5) 0.086(4) 0.3674(16)
H11 H 0.5626(4) 0.422(4) 0.1188(15)
H12 H 0.5579(4) -0.108(3) 0.2510(15)
H13 H 0.6553(4) -0.231(3) 0.1283(16)
H14 H 0.7238(5) -0.311(4) 0.3049(17)
H15 H 0.6807(5) 0.019(3) 0.4133(16)
H16 H 0.6223(4) 0.013(3) 0.2978(15)
H17 H 0.5628(4) -0.098(3) 0.1436(14)
#END
