
#######################################################################
#
#                 Cambridge Crystallographic Data Centre
#                                CCDC
#
#######################################################################
#
# If this CIF has been generated from an entry in the Cambridge
# Structural Database, then it will include bibliographic, chemical,
# crystal, experimental, refinement or atomic coordinate data resulting
# from the CCDC's data processing and validation procedures.
#
#######################################################################

data_CSD_CIF_ZAYQIZ
_audit_creation_date 1995-11-06
_audit_creation_method CSD-ConQuest-V1
_database_code_CSD ZAYQIZ
_chemical_formula_sum 'C26 H25 N3 O1'
_chemical_formula_moiety
;
C26 H25 N3 O1
;
_journal_coeditor_code "IUCr PA1141"
_journal_coden_Cambridge 591
_journal_volume 51
_journal_year 1995
_journal_page_first 1898
_journal_name_full 'Acta Crystallogr.,Sect.C:Cryst.Struct.Commun. '
loop_
_publ_author_name
"A.Chiaroni"
"C.Riche"
"A.Baouid"
"A.Benharref"
"A.Hasnaoui"
"J.-P.Lavergne"
_chemical_name_systematic
;
1-Mesityl-3a-methyl-5-phenyl-3a,4-dihydro-(1,2,4)oxadiazolo(4,5-a)(1,5)benzodi
azepine
;
_cell_volume   2211.876
_exptl_crystal_colour 'yellow'
_exptl_crystal_density_diffrn 1.19
_diffrn_ambient_temperature ?
_diffrn_special_details
;
The study was carried out at room temperature,in the range 283-303K

;
#These two values have been output from a single CSD field.
_refine_ls_R_factor_gt 0.056
_refine_ls_wR_factor_gt 0.056
_symmetry_cell_setting orthorhombic
_symmetry_space_group_name_H-M 'P 21 21 21'
_symmetry_Int_Tables_number 19
loop_
_symmetry_equiv_pos_site_id
_symmetry_equiv_pos_as_xyz
1 x,y,z
2 1/2-x,-y,1/2+z
3 1/2+x,1/2-y,-z
4 -x,1/2+y,1/2-z
_cell_length_a 8.521(3)
_cell_length_b 15.367(6)
_cell_length_c 16.892(6)
_cell_angle_alpha 90
_cell_angle_beta 90
_cell_angle_gamma 90
_cell_formula_units_Z 4
loop_
_atom_type_symbol
_atom_type_radius_bond
C 0.68
H 0.23
N 0.68
O 0.68
loop_
_atom_site_label
_atom_site_type_symbol
_atom_site_fract_x
_atom_site_fract_y
_atom_site_fract_z
C1 C 0.5908(5) 0.4104(3) 0.1108(3)
N1 N 0.5862(5) 0.4507(3) 0.0440(2)
O1 O 0.5308(5) 0.5383(2) 0.0640(2)
C2 C 0.4713(6) 0.5373(3) 0.1430(3)
C3 C 0.5301(6) 0.6176(3) 0.1879(3)
C4 C 0.7097(6) 0.6159(3) 0.1978(3)
N2 N 0.7790(5) 0.5641(2) 0.2460(2)
C5 C 0.6920(6) 0.5016(3) 0.2909(3)
C6 C 0.7260(6) 0.4940(3) 0.3702(3)
C7 C 0.6499(7) 0.4328(3) 0.4176(3)
C8 C 0.5422(7) 0.3771(3) 0.3824(3)
C9 C 0.5072(6) 0.3828(3) 0.3035(3)
C10 C 0.5787(5) 0.4454(3) 0.2558(3)
N3 N 0.5387(5) 0.4553(2) 0.1747(2)
C11 C 0.2906(6) 0.5324(4) 0.1414(4)
C12 C 0.8061(6) 0.6834(3) 0.1569(3)
C13 C 0.7606(6) 0.7193(3) 0.0858(3)
C14 C 0.8504(7) 0.7855(3) 0.0497(3)
C15 C 0.9842(8) 0.8158(3) 0.0870(4)
C16 C 1.0328(8) 0.7790(4) 0.1573(4)
C17 C 0.9455(7) 0.7123(4) 0.1921(3)
C18 C 0.6494(5) 0.3177(3) 0.1138(3)
C19 C 0.5390(6) 0.2495(3) 0.1096(3)
C20 C 0.5959(6) 0.1636(3) 0.1079(3)
C21 C 0.7552(6) 0.1450(3) 0.1119(3)
C22 C 0.8617(6) 0.2143(4) 0.1148(3)
C23 C 0.8110(6) 0.3003(3) 0.1155(3)
C24 C 0.3630(6) 0.2659(4) 0.1046(4)
C25 C 0.8117(8) 0.0506(4) 0.1117(4)
C26 C 0.9323(6) 0.3733(4) 0.1186(4)
H1 H 0.48005 0.61907 0.24142
H2 H 0.49970 0.67111 0.15790
H3 H 0.80671 0.53313 0.39428
H4 H 0.67235 0.42919 0.47561
H5 H 0.48926 0.33173 0.41539
H6 H 0.42933 0.34170 0.27978
H7 H 0.24946 0.53179 0.19680
H8 H 0.24778 0.58421 0.11274
H9 H 0.25716 0.47810 0.11349
H10 H 0.66263 0.69820 0.05945
H11 H 0.81759 0.81032 -0.00243
H12 H 1.04564 0.86456 0.06300
H13 H 1.13106 0.80015 0.18338
H14 H 0.98269 0.68507 0.24249
H15 H 0.51941 0.11446 0.10356
H16 H 0.97675 0.20171 0.11658
H17 H 0.30624 0.20898 0.10220
H18 H 0.33915 0.30048 0.05596
H19 H 0.32791 0.29894 0.15244
H20 H 0.71928 0.01072 0.10851
H21 H 0.88170 0.04070 0.06508
H22 H 0.87132 0.03863 0.16157
H23 H 1.04018 0.34775 0.11987
H24 H 0.92115 0.41104 0.07065
H25 H 0.91511 0.40913 0.16724
#END
