
#######################################################################
#
#                 Cambridge Crystallographic Data Centre
#                                CCDC
#
#######################################################################
#
# If this CIF has been generated from an entry in the Cambridge
# Structural Database, then it will include bibliographic, chemical,
# crystal, experimental, refinement or atomic coordinate data resulting
# from the CCDC's data processing and validation procedures.
#
#######################################################################

data_CSD_CIF_ZAYRIA
_audit_creation_date 1995-11-06
_audit_creation_method CSD-ConQuest-V1
_database_code_CSD ZAYRIA
_chemical_formula_sum 'C9 H8 N2 O6'
_chemical_formula_moiety
;
C9 H8 N2 O6
;
_journal_coeditor_code "IUCr PT1001"
_journal_coden_Cambridge 591
_journal_volume 51
_journal_year 1995
_journal_page_first 1910
_journal_name_full 'Acta Crystallogr.,Sect.C:Cryst.Struct.Commun. '
loop_
_publ_author_name
"M.J.Jedrzejas"
"Ming Luo"
"S.Singh"
"W.J.Brouillette"
"G.M.Air"
_chemical_name_systematic
;
4-(Acetylamino)-3-hydroxy-5-nitrobenzoic acid
;
_cell_volume    499.840
_exptl_crystal_colour 'Yellowish'
_exptl_crystal_density_diffrn 1.596
_exptl_special_details
;
inhibitor activity against the influenza virus neuraminidase protein

;
_diffrn_ambient_temperature ?
_diffrn_special_details
;
The study was carried out at room temperature,in the range 283-303K

;
#These two values have been output from a single CSD field.
_refine_ls_R_factor_gt 0.0517
_refine_ls_wR_factor_gt 0.0517
_symmetry_cell_setting triclinic
_symmetry_space_group_name_H-M 'P -1'
_symmetry_Int_Tables_number 2
loop_
_symmetry_equiv_pos_site_id
_symmetry_equiv_pos_as_xyz
1 x,y,z
2 -x,-y,-z
_cell_length_a 7.484(1)
_cell_length_b 10.735(1)
_cell_length_c 7.1191(9)
_cell_angle_alpha 98.37(1)
_cell_angle_beta 109.59(1)
_cell_angle_gamma 105.98(1)
_cell_formula_units_Z 2
loop_
_atom_type_symbol
_atom_type_radius_bond
C 0.68
H 0.23
N 0.68
O 0.68
loop_
_atom_site_label
_atom_site_type_symbol
_atom_site_fract_x
_atom_site_fract_y
_atom_site_fract_z
O1 O 0.7318(2) 0.2525(2) 0.3639(2)
O2 O 0.1612(3) 0.2009(2) 0.7616(3)
O3 O 0.2263(3) 0.0313(2) 0.6397(2)
O4 O 0.6098(2) 0.2109(2) 0.9485(2)
O5 O 0.2464(3) 0.4819(2) 0.0575(3)
O6 O 0.0165(3) 0.4299(2) 0.1927(3)
N1 N 0.6282(2) 0.1490(2) 0.6420(2)
N2 N 0.2361(3) 0.1493(2) 0.6631(3)
C1 C 0.2951(3) 0.3568(2) 0.3046(3)
C2 C 0.4623(3) 0.3427(2) 0.2742(3)
C3 C 0.5692(3) 0.2724(2) 0.3871(3)
C4 C 0.5095(3) 0.2166(2) 0.5330(3)
C5 C 0.3354(3) 0.2280(2) 0.5508(3)
C6 C 0.2311(3) 0.3011(2) 0.4436(3)
C7 C 0.6726(3) 0.1496(2) 0.8446(3)
C8 C 0.8026(3) 0.0691(2) 0.9249(3)
C9 C 0.1744(3) 0.4277(2) 0.1789(3)
H1 H 0.511(3) 0.376(2) 0.175(3)
H2 H 0.71400 0.26200 0.22100
H3 H 0.708(3) 0.127(2) 0.582(4)
H4 H 0.118(3) 0.301(2) 0.476(3)
H5 H 0.83500 0.03000 0.81800
H6 H 0.92300 0.12500 1.03800
H7 H 0.72900 -0.00100 0.96800
H8 H 0.15900 0.52400 -0.01500
#END
