
#######################################################################
#
#                 Cambridge Crystallographic Data Centre
#                                CCDC
#
#######################################################################
#
# If this CIF has been generated from an entry in the Cambridge
# Structural Database, then it will include bibliographic, chemical,
# crystal, experimental, refinement or atomic coordinate data resulting
# from the CCDC's data processing and validation procedures.
#
#######################################################################

data_CSD_CIF_ZAYVUQ
_audit_creation_date 1995-11-27
_audit_creation_method CSD-ConQuest-V1
_database_code_CSD ZAYVUQ
_database_code_depnum_ccdc_archive 'CCDC 1022133'
_chemical_formula_sum 'C19 H18 N2 O6'
_chemical_formula_moiety
;
C19 H18 N2 O6
;
_journal_coeditor_code "IUCr SZ1009"
_journal_coden_Cambridge 591
_journal_volume 51
_journal_year 1995
_journal_page_first 1944
_journal_name_full 'Acta Crystallogr.,Sect.C:Cryst.Struct.Commun. '
loop_
_publ_author_name
"M.Lautens"
"A.J.Lough"
"W.Tam"
_chemical_name_systematic
;
Pentacyclo(6.4.0.0^1,5^.0^7,11^.0^10,12^)dodecan-6-yl 3,5-dinitrobenzoate
;
_cell_volume   1689.023
_exptl_crystal_colour 'colorless'
_exptl_crystal_density_diffrn 1.456
_diffrn_ambient_temperature 158
#These two values have been output from a single CSD field.
_refine_ls_R_factor_gt 0.0503
_refine_ls_wR_factor_gt 0.0503
_symmetry_cell_setting monoclinic
_symmetry_space_group_name_H-M 'P 21/c'
_symmetry_Int_Tables_number 14
loop_
_symmetry_equiv_pos_site_id
_symmetry_equiv_pos_as_xyz
1 x,y,z
2 -x,1/2+y,1/2-z
3 -x,-y,-z
4 x,-1/2-y,-1/2+z
_cell_length_a 13.199(3)
_cell_length_b 6.108(1)
_cell_length_c 20.971(4)
_cell_angle_alpha 90
_cell_angle_beta 92.53(2)
_cell_angle_gamma 90
_cell_formula_units_Z 4
loop_
_atom_type_symbol
_atom_type_radius_bond
C 0.68
H 0.23
N 0.68
O 0.68
loop_
_atom_site_label
_atom_site_type_symbol
_atom_site_fract_x
_atom_site_fract_y
_atom_site_fract_z
O1 O 0.89719(12) 0.3638(3) 0.85435(8)
O2 O 0.87327(13) 0.0189(3) 0.89053(9)
O3 O 0.51989(14) -0.1604(3) 0.94447(9)
O4 O 0.39604(13) 0.0607(4) 0.91826(9)
O5 O 0.46807(13) 0.7364(3) 0.80379(9)
O6 O 0.6166(2) 0.7715(4) 0.76583(11)
N1 N 0.48577(15) 0.0096(4) 0.92056(10)
N2 N 0.5564(2) 0.6771(4) 0.79883(10)
C1 C 1.1458(2) 0.5392(4) 0.89910(12)
C2 C 1.1961(2) 0.5882(5) 0.96548(13)
H1 H 1.1569(2) 0.6911(5) 0.98867(13)
H2 H 1.2636(2) 0.6442(5) 0.96190(13)
C3 C 1.1970(2) 0.3590(5) 0.99787(13)
H3 H 1.1806(2) 0.3722(5) 1.04186(13)
H4 H 1.2630(2) 0.2940(5) 0.99596(13)
C4 C 1.1162(2) 0.2144(5) 0.96123(13)
H5 H 1.0708(2) 0.1472(5) 0.98997(13)
H6 H 1.1479(2) 0.1024(5) 0.93694(13)
C5 C 1.0612(2) 0.3776(4) 0.91745(12)
H7 H 1.0144(2) 0.4565(4) 0.94269(12)
C6 C 1.0074(2) 0.3293(4) 0.85259(12)
H8 H 1.0229(2) 0.1847(4) 0.83792(12)
C7 C 1.0505(2) 0.5060(4) 0.80900(12)
H9 H 1.0051(2) 0.5510(4) 0.77444(12)
C8 C 1.0912(2) 0.6973(4) 0.85295(12)
H10 H 1.0412(2) 0.7914(4) 0.87044(12)
C9 C 1.1745(2) 0.8072(5) 0.81667(13)
H11 H 1.2156(2) 0.9025(5) 0.84347(13)
H12 H 1.1481(2) 0.8862(5) 0.78001(13)
C10 C 1.2300(2) 0.6028(4) 0.79851(13)
H13 H 1.2905(2) 0.6081(4) 0.77479(13)
C11 C 1.1523(2) 0.4235(4) 0.78910(12)
H14 H 1.1593(2) 0.3074(4) 0.75875(12)
C12 C 1.2162(2) 0.4372(4) 0.85167(12)
H15 H 1.2667(2) 0.3302(4) 0.86383(12)
C13 C 0.8409(2) 0.1947(4) 0.87279(12)
C14 C 0.7299(2) 0.2519(4) 0.86896(11)
C15 C 0.6613(2) 0.1099(4) 0.89646(11)
H16 H 0.6846(2) -0.0208(4) 0.91791(11)
C16 C 0.5589(2) 0.1621(4) 0.89228(11)
C17 C 0.5214(2) 0.3475(4) 0.86195(11)
H17 H 0.4504(2) 0.3817(4) 0.85998(11)
C18 C 0.5919(2) 0.4811(4) 0.83437(11)
C19 C 0.6951(2) 0.4399(4) 0.83761(11)
H18 H 0.7417(2) 0.5389(4) 0.81876(11)
#END
