
#######################################################################
#
#                 Cambridge Crystallographic Data Centre
#                                CCDC
#
#######################################################################
#
# If this CIF has been generated from an entry in the Cambridge
# Structural Database, then it will include bibliographic, chemical,
# crystal, experimental, refinement or atomic coordinate data resulting
# from the CCDC's data processing and validation procedures.
#
#######################################################################

data_CSD_CIF_ZAZLAP
_audit_creation_date 2013-01-17
_audit_creation_method CSD-ConQuest-V1
_database_code_CSD ZAZLAP
_database_code_depnum_ccdc_archive 'CCDC 865485'
_chemical_formula_sum 'C17 H17 N3 O3'
_chemical_formula_moiety
;
C17 H17 N3 O3
;
_journal_coden_Cambridge 917
_journal_volume 8
_journal_year 2012
_journal_page_first 1385
_journal_name_full 'Beilstein J.Org.Chem. '
loop_
_publ_author_name
"S.Brase"
"N.Volz"
"F.Glaser"
"M.Nieger"
_chemical_name_systematic
;
(E)-2-((4-cyanobenzylidene)amino)-N-methyl-3-phenylpropanamide
;
_chemical_name_common
;
N-Methyl-Nalpha-(4-nitrobenzylidene)phenylalaninamide
;
_cell_volume   1537.209
_exptl_crystal_colour 'colorless'
_exptl_crystal_density_diffrn 1.345
_exptl_crystal_description 'needles'
_diffrn_ambient_temperature 120
#These two values have been output from a single CSD field.
_refine_ls_R_factor_gt 0.0713
_refine_ls_wR_factor_gt 0.0713
_symmetry_cell_setting monoclinic
_symmetry_space_group_name_H-M 'P 21/c'
_symmetry_Int_Tables_number 14
loop_
_symmetry_equiv_pos_site_id
_symmetry_equiv_pos_as_xyz
1 x,y,z
2 -x,1/2+y,1/2-z
3 -x,-y,-z
4 x,-1/2-y,-1/2+z
_cell_length_a 18.265(5)
_cell_length_b 10.935(2)
_cell_length_c 7.857(2)
_cell_angle_alpha 90
_cell_angle_beta 101.60(1)
_cell_angle_gamma 90
_cell_formula_units_Z 4
loop_
_atom_type_symbol
_atom_type_radius_bond
C 0.68
H 0.23
N 0.68
O 0.68
loop_
_atom_site_label
_atom_site_type_symbol
_atom_site_fract_x
_atom_site_fract_y
_atom_site_fract_z
C1 C -0.0420(3) 0.7967(5) 0.3185(6)
H1 H -0.05450 0.73880 0.22190
H2 H -0.03340 0.87780 0.27330
H3 H -0.08340 0.80100 0.38060
N1 N 0.0253(2) 0.7559(3) 0.4372(5)
H4 H 0.035(2) 0.789(4) 0.542(3)
C2 C 0.0688(3) 0.6650(4) 0.4001(7)
O1 O 0.05936(17) 0.6133(3) 0.2583(4)
C3 C 0.1328(2) 0.6277(4) 0.5492(6)
H5 H 0.13790 0.68910 0.64520
C4 C 0.1143(3) 0.5019(4) 0.6159(6)
H6 H 0.06380 0.50480 0.64360
H7 H 0.11330 0.44060 0.52270
C5 C 0.1695(3) 0.4619(4) 0.7746(7)
C6 C 0.1575(3) 0.4889(4) 0.9398(7)
H8 H 0.11360 0.53200 0.95140
C7 C 0.2077(3) 0.4545(4) 1.0869(7)
H9 H 0.19870 0.47570 1.19820
C8 C 0.2711(3) 0.3894(4) 1.0739(7)
H10 H 0.30550 0.36440 1.17540
C9 C 0.2840(3) 0.3610(4) 0.9095(7)
H11 H 0.32770 0.31700 0.89870
C10 C 0.2336(3) 0.3963(4) 0.7622(7)
H12 H 0.24280 0.37560 0.65090
N2 N 0.2028(2) 0.6202(3) 0.4860(5)
C11 C 0.2475(2) 0.7105(5) 0.5181(6)
H13 H 0.23370 0.77900 0.57900
C12 C 0.3197(2) 0.7117(4) 0.4638(6)
C13 C 0.3540(3) 0.6024(4) 0.4329(6)
H14 H 0.33070 0.52680 0.44890
C14 C 0.4213(3) 0.6031(4) 0.3792(6)
H15 H 0.44450 0.52880 0.35660
C15 C 0.4542(3) 0.7143(5) 0.3588(6)
C16 C 0.4215(3) 0.8242(4) 0.3860(7)
H16 H 0.44480 0.89960 0.36870
C17 C 0.3539(3) 0.8220(4) 0.4392(7)
H17 H 0.33050 0.89680 0.45910
N3 N 0.5259(2) 0.7171(5) 0.3001(5)
O2 O 0.55068(18) 0.8147(3) 0.2630(5)
O3 O 0.5571(2) 0.6185(4) 0.2866(5)
#END
