
#######################################################################
#
#                 Cambridge Crystallographic Data Centre
#                                CCDC
#
#######################################################################
#
# If this CIF has been generated from an entry in the Cambridge
# Structural Database, then it will include bibliographic, chemical,
# crystal, experimental, refinement or atomic coordinate data resulting
# from the CCDC's data processing and validation procedures.
#
#######################################################################

data_CSD_CIF_ZAZTUR
_audit_creation_date 2013-01-17
_audit_creation_method CSD-ConQuest-V1
_database_code_CSD ZAZTUR
_database_code_depnum_ccdc_archive 'CCDC 868894'
_chemical_formula_sum 'C18 H21 N1 O2'
_chemical_formula_moiety
;
C18 H21 N1 O2
;
_journal_coden_Cambridge 692
_journal_volume 44
_journal_year 2012
_journal_page_first 2413
_journal_name_full 'Synthesis '
loop_
_publ_author_name
"T.Kukosha"
"N.Trufilkina"
"S.Belyakov"
"M.Katkevics"
_chemical_name_systematic
;
N-t-Butoxy-N,2-diphenylacetamide
;
_cell_volume    780.686
_exptl_crystal_colour 'colorless'
_exptl_crystal_density_diffrn 1.206
_exptl_crystal_description 'plate'
_diffrn_ambient_temperature 173
#These two values have been output from a single CSD field.
_refine_ls_R_factor_gt 0.064
_refine_ls_wR_factor_gt 0.064
_symmetry_cell_setting triclinic
_symmetry_space_group_name_H-M 'P -1'
_symmetry_Int_Tables_number 2
loop_
_symmetry_equiv_pos_site_id
_symmetry_equiv_pos_as_xyz
1 x,y,z
2 -x,-y,-z
_cell_length_a 7.3861(5)
_cell_length_b 10.2580(9)
_cell_length_c 11.4009(9)
_cell_angle_alpha 69.261(4)
_cell_angle_beta 81.236(5)
_cell_angle_gamma 75.665(3)
_cell_formula_units_Z 2
loop_
_atom_type_symbol
_atom_type_radius_bond
C 0.68
H 0.23
N 0.68
O 0.68
loop_
_atom_site_label
_atom_site_type_symbol
_atom_site_fract_x
_atom_site_fract_y
_atom_site_fract_z
O1 O 0.3802(3) -0.0948(2) 0.20702(17)
O2 O 0.7074(3) -0.1603(2) 0.42367(19)
N1 N 0.4983(3) -0.0658(3) 0.2760(2)
C1 C 0.5401(4) 0.0742(3) 0.2265(3)
C2 C 0.7441(4) -0.4010(3) 0.3177(3)
C3 C 0.5979(4) -0.1790(3) 0.3640(3)
C4 C 0.1780(4) -0.0533(3) 0.2446(3)
C5 C 0.5528(5) 0.1443(4) 0.3069(3)
C6 C 0.6186(5) 0.3440(3) 0.1290(3)
C7 C 0.6043(4) 0.2733(3) 0.0493(3)
C8 C 0.5660(4) 0.1372(3) 0.0971(3)
C9 C 0.5752(5) -0.3272(3) 0.3805(3)
C10 C 0.8743(5) -0.5138(3) 0.3878(3)
C11 C 0.5935(5) 0.2796(4) 0.2572(3)
C12 C 0.7778(5) -0.3542(3) 0.1866(3)
C13 C 1.0653(5) -0.5294(4) 0.2020(3)
C14 C 0.9367(5) -0.4174(4) 0.1304(3)
C15 C 1.0331(5) -0.5774(4) 0.3307(3)
C16 C 0.0914(5) -0.1449(5) 0.2002(3)
C17 C 0.1422(5) -0.0843(5) 0.3845(3)
C18 C 0.1087(6) 0.0997(5) 0.1717(5)
H1 H 0.59142 0.31392 0.32742
H2 H 0.63443 0.44769 0.08293
H3 H 0.67749 -0.27591 0.14053
H4 H 1.18004 -0.56451 0.14856
H5 H 0.62158 0.31743 -0.04005
H6 H 0.54772 0.09646 0.03003
H7 H -0.04161 -0.12662 0.21963
H8 H 0.14419 -0.24323 0.24266
H9 H 0.11712 -0.12401 0.11105
H10 H 0.01063 -0.05633 0.40492
H11 H 0.20994 -0.03239 0.41137
H12 H 0.18351 -0.18463 0.42641
H13 H 0.95901 -0.38234 0.04059
H14 H 1.12885 -0.66073 0.38977
H15 H 0.53273 0.09983 0.39598
H16 H -0.02193 0.12858 0.19437
H17 H 0.12590 0.11162 0.08365
H18 H 0.17834 0.15737 0.18942
H19 H 0.46474 -0.32111 0.34250
H20 H 0.56493 -0.38142 0.46837
H21 H 0.85368 -0.54772 0.47769
#END
