
#######################################################################
#
#                 Cambridge Crystallographic Data Centre
#                                CCDC
#
#######################################################################
#
# If this CIF has been generated from an entry in the Cambridge
# Structural Database, then it will include bibliographic, chemical,
# crystal, experimental, refinement or atomic coordinate data resulting
# from the CCDC's data processing and validation procedures.
#
#######################################################################

data_CSD_CIF_ZBXPEN
_audit_creation_date 1977-02-08
_audit_creation_method CSD-ConQuest-V1
_database_code_CSD ZBXPEN
_chemical_formula_sum 'C18 H15 N1 O5'
_chemical_formula_moiety
;
C18 H15 N1 O5
;
_journal_coeditor_code "IUCr A13636"
_journal_coden_Cambridge 107
_journal_volume 32
_journal_year 1976
_journal_page_first 2557
_journal_name_full 'Acta Crystallogr.,Sect.B:Struct.Crystallogr.Cryst.Chem. '
loop_
_publ_author_name
"J.J.Stezowski"
_chemical_name_systematic
;
(Z)-2-(p-Nitrobenzoyloxy)-3-phenyl-2-penten-4-one
;
_cell_volume   3096.357
_exptl_crystal_density_diffrn 1.396
_diffrn_ambient_temperature 123.15
#These two values have been output from a single CSD field.
_refine_ls_R_factor_gt 0.082
_refine_ls_wR_factor_gt 0.082
_symmetry_cell_setting orthorhombic
_symmetry_space_group_name_H-M 'P b c a'
_symmetry_Int_Tables_number 61
loop_
_symmetry_equiv_pos_site_id
_symmetry_equiv_pos_as_xyz
1 x,y,z
2 1/2-x,1/2+y,z
3 x,1/2-y,1/2+z
4 1/2-x,-y,1/2+z
5 -x,-y,-z
6 -1/2+x,-1/2-y,-z
7 -x,-1/2+y,-1/2-z
8 -1/2+x,y,-1/2-z
_cell_length_a 7.213(1)
_cell_length_b 32.882(3)
_cell_length_c 13.055(2)
_cell_angle_alpha 90
_cell_angle_beta 90
_cell_angle_gamma 90
_cell_formula_units_Z 8
loop_
_atom_type_symbol
_atom_type_radius_bond
C 0.68
H 0.23
N 0.68
O 0.68
loop_
_atom_site_label
_atom_site_type_symbol
_atom_site_fract_x
_atom_site_fract_y
_atom_site_fract_z
C1 C 0.20730 0.40160 0.45170
C2 C 0.27500 0.44280 0.42110
C3 C 0.39550 0.44530 0.33730
C4 C 0.46550 0.48300 0.30730
C5 C 0.41270 0.51710 0.36320
C6 C 0.29050 0.51570 0.44580
C7 C 0.22150 0.47780 0.47430
C8 C 0.01300 0.36810 0.57070
C9 C 0.09870 0.35480 0.66920
C10 C -0.12860 0.35070 0.51990
C11 C -0.21650 0.31310 0.56200
C12 C -0.11360 0.27780 0.57840
C13 C -0.19740 0.24330 0.62080
C14 C -0.38350 0.24390 0.64790
C15 C -0.48770 0.27870 0.62990
C16 C -0.40540 0.31280 0.58660
C17 C -0.19920 0.36730 0.42060
C18 C -0.30120 0.33890 0.34950
H1 H 0.42500 0.41700 0.28800
H2 H 0.54700 0.48400 0.24800
H3 H 0.25600 0.54200 0.48300
H4 H 0.14300 0.47500 0.52600
H5 H 0.23500 0.33700 0.68300
H6 H 0.10200 0.37100 0.72100
H7 H 0.01800 0.32700 0.72000
H8 H 0.01700 0.27800 0.54700
H9 H -0.12300 0.22000 0.63800
H10 H -0.43800 0.22100 0.69100
H11 H -0.62500 0.27700 0.66400
H12 H -0.47600 0.33300 0.56200
H13 H -0.44300 0.33400 0.35800
H14 H -0.27600 0.34000 0.26700
H15 H -0.26300 0.30400 0.35600
N1 N 0.49450 0.55660 0.33510
O1 O 0.24890 0.37040 0.40970
O2 O 0.59280 0.55830 0.25880
O3 O 0.46160 0.58590 0.39040
O4 O 0.09630 0.40380 0.53480
O5 O -0.17600 0.40290 0.39510
#END
