
#######################################################################
#
#                 Cambridge Crystallographic Data Centre
#                                CCDC
#
#######################################################################
#
# If this CIF has been generated from an entry in the Cambridge
# Structural Database, then it will include bibliographic, chemical,
# crystal, experimental, refinement or atomic coordinate data resulting
# from the CCDC's data processing and validation procedures.
#
#######################################################################

data_CSD_CIF_ZEBXIN
_audit_creation_date 1996-04-18
_audit_creation_method CSD-ConQuest-V1
_database_code_CSD ZEBXIN
_chemical_formula_sum 'C41 H41 N1 O13'
_chemical_formula_moiety
;
C41 H41 N1 O13
;
_journal_coden_Cambridge 16
_journal_volume 51
_journal_year 1995
_journal_page_first 8259
_journal_name_full 'Tetrahedron '
loop_
_publ_author_name
"J.L.D.Valle"
"T.Torroba"
"S.Marcaccini"
"P.Paoli"
"D.J.Williams"
_chemical_name_systematic
;
(5S,6R)-1-Methyl-2,3,4-triphenyl-5-exo-(D-galacto-penta-O-acetylpentitol-1-yl)
-6-endo-nitrobicyclo(2.2.1)hept-2-en-7-one
;
_chemical_melting_point 469.15
_cell_volume   1932.683
_exptl_crystal_colour 'colorless'
_exptl_crystal_density_diffrn 1.3
_exptl_special_details
;
Melting point range 469.15-471.15K

;
_diffrn_ambient_temperature ?
_diffrn_special_details
;
The study was carried out at room temperature,in the range 283-303K

;
#These two values have been output from a single CSD field.
_refine_ls_R_factor_gt 0.051
_refine_ls_wR_factor_gt 0.051
_symmetry_cell_setting monoclinic
_symmetry_space_group_name_H-M 'P 21'
_symmetry_Int_Tables_number 4
loop_
_symmetry_equiv_pos_site_id
_symmetry_equiv_pos_as_xyz
1 x,y,z
2 -x,1/2+y,-z
_cell_length_a 10.149(2)
_cell_length_b 8.289(6)
_cell_length_c 23.348(7)
_cell_angle_alpha 90
_cell_angle_beta 100.27(2)
_cell_angle_gamma 90
_cell_formula_units_Z 2
loop_
_atom_type_symbol
_atom_type_radius_bond
C 0.68
H 0.23
N 0.68
O 0.68
loop_
_atom_site_label
_atom_site_type_symbol
_atom_site_fract_x
_atom_site_fract_y
_atom_site_fract_z
O1 O -0.6842(10) -0.52850 -0.6725(4)
O2 O -0.3021(11) -0.1938(21) -0.7563(5)
O3 O -0.3234(11) -0.4144(20) -0.8074(5)
O4 O -0.7606(9) -0.3175(19) -0.7999(4)
O5 O -0.9387(11) -0.2797(21) -0.7541(5)
O6 O -0.6009(9) -0.1229(19) -0.8606(4)
O7 O -0.4603(11) 0.0878(20) -0.8437(5)
O8 O -0.905(1) 0.0520(19) -0.8276(4)
O9 O -1.0809(11) -0.0906(20) -0.8697(5)
O10 O -0.750(1) 0.2282(21) -0.9007(5)
O11 O -0.6369(11) 0.2136(22) -0.9733(5)
O12 O -1.0294(11) 0.2137(21) -0.9323(5)
O13 O -1.1743(12) 0.1999(22) -1.0148(6)
N1 N -0.3648(13) -0.3108(23) -0.7763(7)
C1 C -0.4662(14) -0.4697(23) -0.7049(6)
C2 C -0.3762(13) -0.3929(23) -0.6552(6)
C3 C -0.4365(14) -0.2652(24) -0.6374(6)
C4 C -0.5822(14) -0.2491(24) -0.6750(7)
C5 C -0.5660(14) -0.2038(24) -0.7371(6)
C6 C -0.4941(15) -0.3516(23) -0.7580(7)
C7 C -0.5969(17) -0.4394(25) -0.6821(7)
C8 C -0.4466(15) -0.6442(26) -0.7200(7)
C9 C -0.1942(9) -0.4466(18) -0.5695(4)
C10 C -0.0645(9) -0.4968(18) -0.5462(4)
C11 C 0.0220(9) -0.5455(18) -0.5831(4)
C12 C -0.0211(9) -0.5440(18) -0.6433(4)
C13 C -0.1507(9) -0.4938(18) -0.6666(4)
C14 C -0.2373(9) -0.4451(18) -0.6297(4)
C15 C -0.4267(9) -0.1099(19) -0.5434(5)
C16 C -0.3783(9) 0.0184(19) -0.5071(5)
C17 C -0.2870(9) 0.1267(19) -0.5238(5)
C18 C -0.2441(9) 0.1067(19) -0.5769(5)
C19 C -0.2925(9) -0.0217(19) -0.6132(5)
C20 C -0.3838(9) -0.1300(19) -0.5965(5)
C21 C -0.7897(11) -0.2243(16) -0.6286(4)
C22 C -0.8837(11) -0.1291(16) -0.6074(4)
C23 C -0.8703(11) 0.0384(16) -0.6062(4)
C24 C -0.7630(11) 0.1107(16) -0.6263(4)
C25 C -0.6691(11) 0.0155(16) -0.6475(4)
C26 C -0.6825(11) -0.1521(16) -0.6487(4)
C27 C -0.6999(14) -0.1648(24) -0.7752(6)
C28 C -0.8829(16) -0.3551(26) -0.7842(7)
C29 C -0.9282(17) -0.5073(25) -0.8144(7)
C30 C -0.6871(13) -0.0577(24) -0.8268(6)
C31 C -0.4898(15) -0.0320(26) -0.8695(7)
C32 C -0.4207(14) -0.1133(23) -0.9118(6)
C33 C -0.8215(13) -0.0233(24) -0.8647(6)
C34 C -1.0416(18) 0.0008(27) -0.8321(8)
C35 C -1.0972(15) 0.0776(26) -0.7847(7)
C36 C -0.8158(16) 0.0800(27) -0.9173(8)
C37 C -0.6616(21) 0.2880(28) -0.9336(10)
C38 C -0.6032(15) 0.4387(25) -0.9087(7)
C39 C -0.9450(15) 0.1086(25) -0.9592(6)
C40 C -1.1613(21) 0.2452(32) -0.9669(10)
C41 C -1.2334(16) 0.3424(26) -0.9337(8)
H1 H -0.509(1) -0.095(2) -0.739(1)
H2 H -0.557(1) -0.403(2) -0.796(1)
H3 H -0.353(1) -0.657(3) -0.736(1)
H4 H -0.528(1) -0.682(3) -0.753(1)
H5 H -0.444(1) -0.718(3) -0.682(1)
H6 H -0.261(1) -0.409(2) -0.541(1)
H7 H -0.031(1) -0.498(2) -0.500(1)
H8 H 0.122(1) -0.584(2) -0.565(1)
H9 H 0.046(1) -0.582(2) -0.672(1)
H10 H -0.184(1) -0.493(2) -0.713(1)
H11 H -0.497(1) -0.194(2) -0.530(1)
H12 H -0.412(1) 0.034(2) -0.466(1)
H13 H -0.250(1) 0.226(2) -0.496(1)
H14 H -0.173(1) 0.191(2) -0.590(1)
H15 H -0.259(1) -0.037(2) -0.654(1)
H16 H -0.800(1) -0.354(2) -0.629(1)
H17 H -0.967(1) -0.185(2) -0.592(1)
H18 H -0.943(1) 0.112(2) -0.590(1)
H19 H -0.753(1) 0.240(2) -0.625(1)
H20 H -0.586(1) 0.071(2) -0.663(1)
H21 H -0.759(1) -0.102(2) -0.748(1)
H22 H -1.023(2) -0.542(3) -0.804(1)
H23 H -0.855(2) -0.601(3) -0.801(1)
H24 H -0.939(2) -0.490(3) -0.861(1)
H25 H -0.646(1) 0.055(2) -0.808(1)
H26 H -0.335(1) -0.042(2) -0.918(1)
H27 H -0.489(1) -0.126(2) -0.953(1)
H28 H -0.387(1) -0.231(2) -0.895(1)
H29 H -0.862(1) -0.137(2) -0.883(1)
H30 H -1.200(1) 0.041(3) -0.787(1)
H31 H -1.093(1) 0.207(3) -0.789(1)
H32 H -1.040(1) 0.041(3) -0.743(1)
H33 H -0.759(2) 0.007(3) -0.942(1)
H34 H -0.534(1) 0.484(2) -0.935(1)
H35 H -0.551(1) 0.417(2) -0.865(1)
H36 H -0.682(1) 0.526(2) -0.908(1)
H37 H -0.995(1) -0.005(2) -0.970(1)
H38 H -0.924(1) 0.164(2) -0.998(1)
H39 H -1.332(2) 0.367(3) -0.958(1)
H40 H -1.181(2) 0.455(3) -0.923(1)
H41 H -1.243(2) 0.280(3) -0.894(1)
#END
