
#######################################################################
#
#                 Cambridge Crystallographic Data Centre
#                                CCDC
#
#######################################################################
#
# If this CIF has been generated from an entry in the Cambridge
# Structural Database, then it will include bibliographic, chemical,
# crystal, experimental, refinement or atomic coordinate data resulting
# from the CCDC's data processing and validation procedures.
#
#######################################################################

data_CSD_CIF_ZEBXOT
_audit_creation_date 1996-04-18
_audit_creation_method CSD-ConQuest-V1
_database_code_CSD ZEBXOT
_chemical_formula_sum 'C41 H41 N1 O13'
_chemical_formula_moiety
;
C41 H41 N1 O13
;
_journal_coden_Cambridge 16
_journal_volume 51
_journal_year 1995
_journal_page_first 8259
_journal_name_full 'Tetrahedron '
loop_
_publ_author_name
"J.L.D.Valle"
"T.Torroba"
"S.Marcaccini"
"P.Paoli"
"D.J.Williams"
_chemical_name_systematic
;
(5R,6S)-1-Methyl-2,3,4-triphenyl-5-exo-(D-manno-penta-O-acetylpentitol-1-yl)-6
-endo-nitrobicyclo(2.2.1)hept-2-en-7-one
;
_chemical_melting_point 386.15
_cell_volume   4000.642
_exptl_crystal_colour 'colorless'
_exptl_crystal_density_diffrn 1.255
_exptl_special_details
;
Melting point range 386.15-388.15K

;
_diffrn_ambient_temperature ?
_diffrn_special_details
;
The study was carried out at room temperature,in the range 283-303K

;
#These two values have been output from a single CSD field.
_refine_ls_R_factor_gt 0.0372
_refine_ls_wR_factor_gt 0.0372
_symmetry_cell_setting monoclinic
_symmetry_space_group_name_H-M 'C 2'
_symmetry_Int_Tables_number 5
loop_
_symmetry_equiv_pos_site_id
_symmetry_equiv_pos_as_xyz
1 x,y,z
2 -x,y,-z
3 1/2+x,1/2+y,z
4 1/2-x,1/2+y,-z
_cell_length_a 22.466(7)
_cell_length_b 8.902(2)
_cell_length_c 20.945(7)
_cell_angle_alpha 90
_cell_angle_beta 107.24(2)
_cell_angle_gamma 90
_cell_formula_units_Z 4
loop_
_atom_type_symbol
_atom_type_radius_bond
C 0.68
H 0.23
N 0.68
O 0.68
loop_
_atom_site_label
_atom_site_type_symbol
_atom_site_fract_x
_atom_site_fract_y
_atom_site_fract_z
O1 O 0.2880(1) 0.34420 0.0971(1)
O2 O 0.2340(1) 0.0997(5) 0.3100(1)
O3 O 0.2488(1) 0.3316(5) 0.3374(1)
O4 O 0.3928(1) 0.2595(4) 0.2193(1)
O5 O 0.4734(2) 0.1770(6) 0.1907(3)
O6 O 0.3996(1) 0.1693(4) 0.3556(1)
O7 O 0.4916(2) 0.2822(5) 0.3968(2)
O8 O 0.3733(1) -0.1220(4) 0.3502(1)
O9 O 0.3611(2) -0.3395(5) 0.2940(2)
O10 O 0.5371(1) -0.0515(4) 0.3777(1)
O11 O 0.5828(2) 0.0019(6) 0.4858(2)
O12 O 0.5127(2) -0.3536(5) 0.3664(2)
O13 O 0.6055(2) -0.3931(9) 0.4386(3)
N1 N 0.2544(1) 0.2234(5) 0.3044(1)
C1 C 0.2393(1) 0.3210(5) 0.1878(2)
C2 C 0.1837(1) 0.2151(5) 0.1642(1)
C3 C 0.2036(1) 0.0855(5) 0.1439(1)
C4 C 0.2735(1) 0.0990(4) 0.1504(1)
C5 C 0.3099(1) 0.1047(5) 0.2275(1)
C6 C 0.2857(1) 0.2495(5) 0.2514(2)
C7 C 0.2720(1) 0.2689(5) 0.1364(2)
C8 C 0.2283(2) 0.4880(5) 0.1895(2)
C9 C 0.1193(1) 0.2553(5) 0.1612(2)
C10 C 0.0713(2) 0.2292(5) 0.1036(2)
C11 C 0.0106(2) 0.2673(6) 0.0992(2)
C12 C -0.0028(2) 0.3345(6) 0.1522(2)
C13 C 0.0440(2) 0.3605(6) 0.2099(2)
C14 C 0.1047(2) 0.3220(5) 0.2142(2)
C15 C 0.1650(1) -0.0507(4) 0.1222(2)
C16 C 0.1385(2) -0.1180(5) 0.1676(2)
C17 C 0.0982(2) -0.2383(6) 0.1481(3)
C18 C 0.0835(2) -0.2909(6) 0.0852(3)
C19 C 0.1095(2) -0.2271(6) 0.0395(3)
C20 C 0.1510(2) -0.1083(5) 0.0584(2)
C21 C 0.2980(1) -0.0125(5) 0.1104(2)
C22 C 0.3009(2) -0.1628(5) 0.1277(2)
C23 C 0.3199(2) -0.2688(5) 0.0899(2)
C24 C 0.3377(2) -0.2271(5) 0.0360(2)
C25 C 0.3355(2) -0.0781(5) 0.0186(2)
C26 C 0.3150(2) 0.0290(5) 0.0548(2)
C27 C 0.3808(1) 0.1094(5) 0.2393(2)
C28 C 0.4399(2) 0.2777(6) 0.1926(3)
C29 C 0.4447(2) 0.4343(7) 0.1710(3)
C30 C 0.4221(1) 0.0813(5) 0.3100(2)
C31 C 0.4385(2) 0.2687(5) 0.3966(2)
C32 C 0.4077(2) 0.3496(6) 0.4386(2)
C33 C 0.4280(2) -0.0813(5) 0.3317(2)
C34 C 0.3453(2) -0.2548(6) 0.3301(2)
C35 C 0.2931(3) -0.2762(7) 0.3589(3)
C36 C 0.4833(2) -0.1088(5) 0.3936(2)
C37 C 0.5841(2) 0.0024(7) 0.4295(3)
C38 C 0.6377(2) 0.0527(10) 0.4067(3)
C39 C 0.4940(2) -0.2693(6) 0.4148(2)
C40 C 0.5712(3) -0.4115(8) 0.3856(4)
C41 C 0.5839(3) -0.4960(9) 0.3311(4)
H1 H 0.29870 0.02020 0.24990
H2 H 0.32010 0.31670 0.26850
H3 H 0.19880 0.51870 0.14820
H4 H 0.21210 0.51070 0.22590
H5 H 0.26680 0.54070 0.19550
H6 H 0.08040 0.18540 0.06570
H7 H -0.02240 0.24600 0.05910
H8 H -0.04480 0.36460 0.14840
H9 H 0.03460 0.40210 0.24810
H10 H 0.13760 0.34340 0.25440
H11 H 0.14800 -0.07990 0.21230
H12 H 0.08070 -0.28440 0.17980
H13 H 0.05440 -0.37240 0.07230
H14 H 0.09890 -0.26520 -0.00540
H15 H 0.17060 -0.06540 0.02770
H16 H 0.28960 -0.19310 0.16650
H17 H 0.32090 -0.37300 0.10190
H18 H 0.35110 -0.30110 0.00990
H19 H 0.34870 -0.04750 -0.01910
H20 H 0.31260 0.13260 0.04150
H21 H 0.39120 0.03800 0.21000
H22 H 0.47800 0.44310 0.15110
H23 H 0.40630 0.46530 0.13930
H24 H 0.45340 0.49720 0.20990
H25 H 0.46300 0.11760 0.31280
H26 H 0.43640 0.41870 0.46710
H27 H 0.37260 0.40400 0.41080
H28 H 0.39360 0.27870 0.46550
H29 H 0.43130 -0.14440 0.29570
H30 H 0.27380 -0.37130 0.34390
H31 H 0.30740 -0.27450 0.40680
H32 H 0.26330 -0.19710 0.34300
H33 H 0.47680 -0.05050 0.42950
H34 H 0.67070 0.09130 0.44350
H35 H 0.65300 -0.03040 0.38680
H36 H 0.62330 0.13030 0.37390
H37 H 0.45640 -0.31050 0.42040
H38 H 0.52570 -0.27410 0.45720
H39 H 0.62590 -0.53310 0.34640
H40 H 0.55550 -0.57910 0.31960
H41 H 0.57910 -0.43350 0.29260
#END
