
#######################################################################
#
#                 Cambridge Crystallographic Data Centre
#                                CCDC
#
#######################################################################
#
# If this CIF has been generated from an entry in the Cambridge
# Structural Database, then it will include bibliographic, chemical,
# crystal, experimental, refinement or atomic coordinate data resulting
# from the CCDC's data processing and validation procedures.
#
#######################################################################

data_CSD_CIF_ZECHIA
_audit_creation_date 2012-11-16
_audit_creation_method CSD-ConQuest-V1
_database_code_CSD ZECHIA
_database_code_depnum_ccdc_archive 'CCDC 871188'
_chemical_formula_sum 'C25 H30 N2 O7'
_chemical_formula_moiety
;
C25 H30 N2 O7
;
_journal_coden_Cambridge 1220
_journal_volume 18
_journal_year 2012
_journal_page_first 12974
_journal_name_full 'Chem.-Eur.J. '
loop_
_publ_author_name
"M.J.Adler"
"R.T.W.Scott"
"A.D.Hamilton"
_chemical_name_systematic
;
(Z)-Methyl 
4-((1-(2-isopropoxy-4-nitrophenyl)-5-methyl-1-oxohex-2-en-3-yl)amino)-2-methox
ybenzoate
;
_cell_volume   9738.213
_exptl_crystal_colour 'yellow'
_exptl_crystal_density_diffrn 1.284
_exptl_crystal_description 'block'
_diffrn_ambient_temperature 150
#These two values have been output from a single CSD field.
_refine_ls_R_factor_gt 0.0328
_refine_ls_wR_factor_gt 0.0328
_symmetry_cell_setting monoclinic
_symmetry_space_group_name_H-M 'C 2/c'
_symmetry_Int_Tables_number 15
loop_
_symmetry_equiv_pos_site_id
_symmetry_equiv_pos_as_xyz
1 x,y,z
2 1/2+x,1/2+y,z
3 -x,y,1/2-z
4 1/2-x,1/2+y,1/2-z
5 -x,-y,-z
6 -1/2-x,-1/2-y,-z
7 x,-y,-1/2+z
8 -1/2+x,-1/2-y,-1/2+z
_cell_length_a 33.8694(20)
_cell_length_b 12.5205(2)
_cell_length_c 26.3455(20)
_cell_angle_alpha 90
_cell_angle_beta 119.3487(40)
_cell_angle_gamma 90
_cell_formula_units_Z 16
loop_
_atom_type_symbol
_atom_type_radius_bond
C 0.68
H 0.23
N 0.68
O 0.68
loop_
_atom_site_label
_atom_site_type_symbol
_atom_site_fract_x
_atom_site_fract_y
_atom_site_fract_z
N1 N 0.39555(5) 0.11510(11) 0.46415(6)
N2 N 0.27810(4) 0.53947(11) 0.61032(6)
N3 N 0.36351(5) 0.81944(11) 0.51717(6)
N4 N 0.21758(5) 1.17787(13) 0.65053(7)
O1 O 0.41635(3) 0.39376(9) 0.60369(5)
O2 O 0.43602(5) 0.12134(10) 0.47929(6)
O3 O 0.36987(5) 0.05105(11) 0.42765(6)
O4 O 0.28519(4) 0.35169(9) 0.56922(5)
O5 O 0.15098(5) 0.75283(11) 0.70398(6)
O6 O 0.18626(4) 0.89048(10) 0.68955(6)
O7 O 0.19014(4) 0.56565(10) 0.70827(6)
O8 O 0.44701(4) 0.74259(9) 0.41526(5)
O9 O 0.29401(4) 0.86225(9) 0.53182(5)
O10 O 0.36128(4) 1.07853(11) 0.66501(5)
O11 O 0.17698(5) 1.15925(13) 0.62885(7)
O12 O 0.23733(5) 1.24702(15) 0.68763(7)
O13 O 0.45050(4) 0.42888(9) 0.45997(5)
O14 O 0.44926(4) 0.53127(10) 0.38956(5)
C1 C 0.38990(5) 0.32250(12) 0.56180(6)
C2 C 0.40644(5) 0.25714(12) 0.53356(7)
C3 C 0.37718(5) 0.18491(12) 0.49252(7)
C4 C 0.33248(5) 0.17350(13) 0.47853(7)
C5 C 0.31666(5) 0.23906(12) 0.50705(7)
C6 C 0.34386(5) 0.31510(12) 0.54770(6)
C7 C 0.32086(5) 0.38626(13) 0.57203(6)
C8 C 0.33835(5) 0.49002(12) 0.59368(6)
C9 C 0.31771(5) 0.56364(12) 0.61219(6)
C10 C 0.25172(5) 0.60331(13) 0.62697(7)
C11 C 0.24304(5) 0.71083(13) 0.61254(7)
C12 C 0.21928(5) 0.76817(13) 0.63391(7)
C13 C 0.20185(5) 0.72097(13) 0.66652(7)
C14 C 0.17684(5) 0.78606(14) 0.68864(7)
C15 C 0.16328(7) 0.95884(16) 0.71097(9)
C16 C 0.20813(5) 0.61022(13) 0.67721(7)
C17 C 0.23346(5) 0.55241(13) 0.65799(7)
C18 C 0.19764(7) 0.45414(14) 0.72167(10)
C19 C 0.34138(5) 0.66785(12) 0.63749(7)
C20 C 0.35903(5) 0.67812(14) 0.70343(7)
C21 C 0.39884(6) 0.60463(17) 0.73773(8)
C22 C 0.37125(7) 0.79417(16) 0.72177(9)
C23 C 0.46367(5) 0.40951(13) 0.62014(7)
C24 C 0.47529(6) 0.51701(15) 0.64925(8)
C25 C 0.49243(6) 0.32096(16) 0.65938(8)
C26 C 0.44759(8) 0.85469(14) 0.40432(9)
C27 C 0.42351(5) 0.71151(13) 0.44224(6)
C28 C 0.40335(5) 0.78387(12) 0.46268(6)
C29 C 0.38238(5) 0.74765(13) 0.49337(6)
C30 C 0.38365(5) 0.90540(12) 0.55184(6)
C31 C 0.43233(5) 0.93206(13) 0.57072(7)
C32 C 0.46699(5) 0.84834(13) 0.61016(7)
C33 C 0.51399(6) 0.88242(16) 0.62305(9)
C34 C 0.46520(7) 0.83089(18) 0.66618(8)
C35 C 0.36094(5) 0.96454(12) 0.57332(7)
C36 C 0.31637(5) 0.93959(13) 0.56305(6)
C37 C 0.29361(5) 1.00616(12) 0.58914(6)
C38 C 0.31545(5) 1.07329(13) 0.63834(7)
C39 C 0.38693(6) 1.13997(14) 0.71808(7)
C40 C 0.38605(7) 1.25735(15) 0.70506(8)
C41 C 0.43410(6) 1.09374(16) 0.74417(8)
C42 C 0.29036(6) 1.12865(13) 0.65885(7)
C43 C 0.24398(6) 1.11634(13) 0.62986(7)
C44 C 0.22095(6) 1.05074(13) 0.58202(8)
C45 C 0.24649(5) 0.99598(13) 0.56251(7)
C46 C 0.37849(5) 0.63906(13) 0.50048(7)
C47 C 0.39780(5) 0.56728(13) 0.47935(7)
C48 C 0.42127(5) 0.60105(12) 0.45102(6)
C49 C 0.44179(5) 0.52102(13) 0.42959(7)
C50 C 0.46556(7) 0.34220(14) 0.43760(9)
H1 H 0.2702(6) 0.4731(16) 0.5991(8)
H2 H 0.3361(7) 0.8054(17) 0.5129(9)
H3 H 0.43710 0.26220 0.54230
H4 H 0.31330 0.12270 0.45050
H5 H 0.28610 0.23190 0.49840
H6 H 0.36610 0.50980 0.59560
H7 H 0.25310 0.74420 0.58850
H8 H 0.21480 0.84260 0.62600
H9 H 0.17160 1.03110 0.71030
H10 H 0.17160 0.93910 0.74980
H11 H 0.13150 0.95110 0.68690
H12 H 0.23820 0.47810 0.66590
H13 H 0.18330 0.43330 0.74340
H14 H 0.22920 0.44080 0.74390
H15 H 0.18530 0.41440 0.68650
H16 H 0.36630 0.67420 0.63070
H17 H 0.32060 0.72430 0.61830
H18 H 0.33530 0.65820 0.71090
H19 H 0.40900 0.61270 0.77810
H20 H 0.42270 0.62230 0.73010
H21 H 0.38980 0.53280 0.72650
H22 H 0.38220 0.80040 0.76240
H23 H 0.39410 0.81650 0.71320
H24 H 0.34520 0.83790 0.70130
H25 H 0.46670 0.41150 0.58610
H26 H 0.50600 0.53320 0.66130
H27 H 0.47090 0.51580 0.68220
H28 H 0.45630 0.56990 0.62260
H29 H 0.52320 0.33260 0.66960
H30 H 0.48980 0.32000 0.69370
H31 H 0.48250 0.25450 0.63980
H32 H 0.46500 0.86670 0.38550
H33 H 0.46070 0.89260 0.44020
H34 H 0.41750 0.87900 0.38010
H35 H 0.40390 0.85810 0.45560
H36 H 0.43940 0.99800 0.59120
H37 H 0.43510 0.93960 0.53670
H38 H 0.46000 0.78250 0.58960
H39 H 0.53550 0.83090 0.64750
H40 H 0.52110 0.94980 0.64210
H41 H 0.51480 0.88800 0.58760
H42 H 0.48700 0.77880 0.68940
H43 H 0.47160 0.89620 0.68710
H44 H 0.43580 0.80690 0.65700
H45 H 0.37560 1.02560 0.59630
H46 H 0.37510 1.12840 0.74370
H47 H 0.40300 1.29560 0.74040
H48 H 0.39900 1.26850 0.68060
H49 H 0.35560 1.28200 0.68600
H50 H 0.45350 1.12960 0.77960
H51 H 0.44520 1.10290 0.71760
H52 H 0.43330 1.01980 0.75170
H53 H 0.30490 1.17370 0.69200
H54 H 0.18890 1.04340 0.56330
H55 H 0.23150 0.94990 0.52990
H56 H 0.36260 0.61430 0.51950
H57 H 0.39520 0.49290 0.48430
H58 H 0.47100 0.28070 0.46120
H59 H 0.49270 0.36220 0.43790
H60 H 0.44290 0.32670 0.39880
#END
