
#######################################################################
#
#                 Cambridge Crystallographic Data Centre
#                                CCDC
#
#######################################################################
#
# If this CIF has been generated from an entry in the Cambridge
# Structural Database, then it will include bibliographic, chemical,
# crystal, experimental, refinement or atomic coordinate data resulting
# from the CCDC's data processing and validation procedures.
#
#######################################################################

data_CSD_CIF_ZECHEW
_audit_creation_date 2012-11-16
_audit_creation_method CSD-ConQuest-V1
_database_code_CSD ZECHEW
_database_code_depnum_ccdc_archive 'CCDC 871187'
_chemical_formula_sum 'C45 H59 N3 O9'
_chemical_formula_moiety
;
C45 H59 N3 O9
;
_journal_coden_Cambridge 1220
_journal_volume 18
_journal_year 2012
_journal_page_first 12974
_journal_name_full 'Chem.-Eur.J. '
loop_
_publ_author_name
"M.J.Adler"
"R.T.W.Scott"
"A.D.Hamilton"
_chemical_name_systematic
;
Isopropyl 
2-isopropoxy-4-(((Z)-1-(2-isopropoxy-4-(((Z)-1-(2-isopropoxy-4-nitrophenyl)-5-
methyl-1-oxohex-2-en-3-yl)amino)phenyl)-5-methyl-1-oxohex-2-en-3-yl)amino)benz
oate unknown solvate
;
_cell_volume   2213.709
_exptl_crystal_colour 'yellow'
_exptl_crystal_density_diffrn 1.179
_exptl_crystal_description 'block'
_diffrn_ambient_temperature 150
_refine_special_details
;
C10,C11,C12 and C7,C8,C9 disordered over two sites with occupancies 
0.5000:0.5000; C17,C18,C19 and C20,C21,C22 disordered over two sites with 
occupancies 0.5000:0.5000; C24,C25 and C26,C27 disordered over two sites with 
occupancies 0.5000:0.5000. The SQUEEZE/PLATON program was used to model the 
unidentified disordered solvent.
;
#These two values have been output from a single CSD field.
_refine_ls_R_factor_gt 0.0618
_refine_ls_wR_factor_gt 0.0618
_symmetry_cell_setting triclinic
_symmetry_space_group_name_H-M 'P -1'
_symmetry_Int_Tables_number 2
loop_
_symmetry_equiv_pos_site_id
_symmetry_equiv_pos_as_xyz
1 x,y,z
2 -x,-y,-z
_cell_length_a 12.1441(2)
_cell_length_b 12.4759(2)
_cell_length_c 15.7575(3)
_cell_angle_alpha 74.0392(11)
_cell_angle_beta 86.7313(9)
_cell_angle_gamma 74.701(1)
_cell_formula_units_Z 2
loop_
_atom_type_symbol
_atom_type_radius_bond
C 0.68
H 0.23
N 0.68
O 0.68
loop_
_atom_site_label
_atom_site_type_symbol
_atom_site_fract_x
_atom_site_fract_y
_atom_site_fract_z
C1 C -0.1644(2) 1.2007(2) 0.98946(15)
C2 C -0.0581(2) 1.2082(2) 1.00865(16)
C3 C 0.0322(2) 1.1639(2) 0.96036(16)
C4 C 0.01895(18) 1.11293(19) 0.89457(14)
C5 C -0.09153(19) 1.1065(2) 0.87777(14)
C6 C -0.18318(19) 1.1509(2) 0.92637(15)
C7 C -0.1993(4) 1.0026(5) 0.8161(4)
C8 C -0.2882(5) 1.0918(6) 0.7522(4)
C9 C -0.1572(5) 0.8919(5) 0.7890(4)
C10 C 0.12624(18) 1.06526(19) 0.84895(14)
C11 C 0.12226(19) 1.0510(2) 0.76319(14)
C12 C 0.21643(19) 1.0042(2) 0.71948(14)
C13 C 0.2030(2) 0.9861(3) 0.63013(16)
C14 C 0.1033(5) 0.9347(5) 0.6202(3)
C15 C 0.0956(8) 0.8258(7) 0.6887(6)
C16 C 0.1024(6) 0.9216(6) 0.5268(4)
C17 C 0.6493(2) 0.6484(2) 0.91518(15)
C18 C 0.5791(6) 0.5657(6) 0.9365(4)
C19 C 0.7663(6) 0.6028(8) 0.9610(4)
C20 C 0.42769(18) 0.9190(2) 0.72809(14)
C21 C 0.49852(19) 0.8271(2) 0.78880(14)
C22 C 0.60768(19) 0.7739(2) 0.76530(14)
C23 C 0.64711(19) 0.8125(2) 0.67900(14)
C24 C 0.5735(2) 0.9062(2) 0.62079(15)
C25 C 0.4668(2) 0.9598(2) 0.64348(15)
C26 C 0.76207(19) 0.7663(2) 0.64342(15)
C27 C 0.8348(2) 0.6562(2) 0.68512(15)
C28 C 0.93708(19) 0.6068(2) 0.65156(15)
C29 C 1.0063(2) 0.4903(2) 0.70240(16)
C30 C 1.1021(2) 0.4944(2) 0.76049(16)
C31 C 1.0553(3) 0.5493(3) 0.8341(2)
C32 C 1.1767(2) 0.3728(3) 0.7970(2)
C33 C 1.05922(19) 0.6369(2) 0.51447(15)
C34 C 1.0398(2) 0.7056(2) 0.42766(16)
C35 C 1.1171(2) 0.6843(2) 0.36351(16)
C36 C 1.2171(2) 0.5962(2) 0.38195(16)
C37 C 1.2388(2) 0.5282(2) 0.46965(16)
C38 C 1.15994(19) 0.5490(2) 0.53520(16)
C39 C 1.2893(2) 0.5769(2) 0.30495(17)
C40 C 1.4720(2) 0.4944(3) 0.2544(2)
C41 C 1.5068(3) 0.5989(4) 0.1983(2)
C42 C 1.5703(3) 0.3979(4) 0.2993(3)
C43 C 1.3628(2) 0.3611(2) 0.57140(18)
C44 C 1.2915(3) 0.2757(3) 0.5861(2)
C45 C 1.4893(3) 0.3053(3) 0.5696(2)
O1 O -0.24628(19) 1.2798(2) 1.10235(15)
N1 N -0.26304(19) 1.2445(2) 1.04038(14)
O2 O -0.35812(16) 1.24406(19) 1.01832(13)
O3 O -0.10335(15) 1.05416(19) 0.81531(12)
O4 O 0.21854(13) 1.04054(16) 0.89121(10)
N2 N 0.32065(16) 0.97051(18) 0.75866(13)
O5 O 0.78973(15) 0.83005(16) 0.57279(11)
N3 N 0.97354(17) 0.66577(19) 0.57404(13)
O6 O 1.33725(15) 0.44317(17) 0.48601(12)
O7 O 1.25073(16) 0.60812(18) 0.23014(12)
O8 O 1.39923(15) 0.52533(17) 0.32514(12)
O9 O 0.67981(15) 0.68557(16) 0.82342(10)
H1 H -0.04810 1.24380 1.05270
H2 H 0.10660 1.16760 0.97270
H3 H -0.25770 1.14600 0.91590
H4 H -0.13120 0.82900 0.83940
H5 H -0.09590 0.89890 0.74930
H6 H -0.21720 0.87880 0.76050
H7 H 0.05010 1.07500 0.73380
H8 H 0.47250 0.80050 0.84680
H9 H 0.59920 0.93360 0.56270
H10 H 0.41970 1.02380 0.60220
H11 H 0.81110 0.61350 0.73950
H12 H 0.95630 0.45190 0.73990
H13 H 1.03950 0.44760 0.66170
H14 H 1.14780 0.53970 0.72440
H15 H 1.11630 0.55150 0.86820
H16 H 1.00970 0.62550 0.81000
H17 H 1.00970 0.50420 0.87070
H18 H 1.23670 0.37400 0.83260
H19 H 1.13100 0.32650 0.83180
H20 H 1.20810 0.34150 0.74970
H21 H 0.97280 0.76740 0.41330
H22 H 1.10180 0.73090 0.30450
H23 H 1.17530 0.50290 0.59430
H24 H 1.43100 0.46760 0.21850
H25 H 1.44140 0.65650 0.17080
H26 H 1.54310 0.62790 0.23570
H27 H 1.55850 0.57840 0.15430
H28 H 1.54290 0.33430 0.33220
H29 H 1.60740 0.42410 0.33810
H30 H 1.62290 0.37450 0.25680
H31 H 1.34820 0.40110 0.61590
H32 H 1.21300 0.31450 0.58760
H33 H 1.31340 0.21870 0.64050
H34 H 1.30320 0.23980 0.53920
H35 H 1.53040 0.36250 0.56050
H36 H 1.51340 0.24870 0.62390
H37 H 1.50330 0.26980 0.52250
H38 H 0.75750 0.57530 1.02290
H39 H 0.80310 0.66360 0.94950
H40 H 0.81140 0.54170 0.93910
H41 H 0.60930 0.71490 0.93290
H42 H 0.04130 0.89110 0.51840
H43 H 0.09530 0.99460 0.48510
H44 H 0.17300 0.87030 0.51880
H45 H 0.03050 0.80340 0.67660
H46 H 0.08890 0.83950 0.74540
H47 H 0.16240 0.76590 0.68750
H48 H 0.03540 0.99230 0.62370
H49 H 0.19320 1.05990 0.58670
H50 H 0.27190 0.93570 0.61720
H51 H -0.35370 1.06430 0.75020
H52 H -0.30940 1.16000 0.77160
H53 H -0.25670 1.10830 0.69490
H54 H -0.22930 0.98640 0.87380
H55 H 0.921(2) 0.731(3) 0.5565(18)
H56 H 0.320(2) 0.975(3) 0.815(2)
H57 H 0.55440 0.55660 0.99580
H58 H 0.62290 0.49340 0.92970
H59 H 0.51450 0.59340 0.89780
C46? C 0.2232(5) 0.8724(4) 0.6221(3)
C47? C 0.1398(7) 0.8100(8) 0.6748(7)
C48? C 0.2211(6) 0.8681(6) 0.5271(4)
C49? C 0.6539(5) 0.7249(5) 0.9687(3)
C50? C 0.7254(5) 0.5263(5) 0.9478(3)
C51? C -0.2257(7) 1.0686(8) 0.7845(4)
C52? C -0.2586(7) 0.9732(6) 0.8484(5)
C53? C -0.2160(6) 1.0593(7) 0.6925(4)
H60? H 0.25360 1.02250 0.59180
H61? H 0.12650 1.02380 0.61040
H62? H 0.29790 0.83180 0.64480
H63? H 0.15730 0.73340 0.66930
H64? H 0.14420 0.80790 0.73530
H65? H 0.06480 0.85000 0.65250
H66? H 0.23680 0.79010 0.52500
H67? H 0.27520 0.90360 0.49280
H68? H 0.14640 0.90830 0.50400
H69? H 0.57300 0.64230 0.91610
H70? H 0.70610 0.76910 0.94340
H71? H 0.67800 0.68170 1.02730
H72? H 0.58000 0.77500 0.96960
H73? H 0.71060 0.49510 1.00820
H74? H 0.80320 0.52820 0.94170
H75? H 0.70990 0.47960 0.91390
H76? H -0.27410 1.14040 0.78860
H77? H -0.33420 0.97100 0.83820
H78? H -0.25280 0.98270 0.90560
H79? H -0.20660 0.90310 0.84430
H80? H -0.28950 1.06860 0.66950
H81? H -0.18370 1.11850 0.65800
H82? H -0.16830 0.98610 0.69070
#END
