
#######################################################################
#
#                 Cambridge Crystallographic Data Centre
#                                CCDC
#
#######################################################################
#
# If this CIF has been generated from an entry in the Cambridge
# Structural Database, then it will include bibliographic, chemical,
# crystal, experimental, refinement or atomic coordinate data resulting
# from the CCDC's data processing and validation procedures.
#
#######################################################################

data_CSD_CIF_ZEDBES
_audit_creation_date 2017-07-07
_audit_creation_method CSD-ConQuest-V1
_database_code_CSD ZEDBES
_database_code_depnum_ccdc_archive 'CCDC 1560884'
_chemical_formula_sum 'C35 H44 N1 O8'
_chemical_formula_moiety
;
C35 H44 N1 O8
;
_journal_coden_Cambridge 16
_journal_volume 73
_journal_year 2017
_journal_page_first 3629
_journal_name_full 'Tetrahedron '
loop_
_publ_author_name
"Gang Liu"
"Jing-Chun Han"
"Chuang-Chuang Li"
_chemical_name_systematic
;
5a',11'-dihydroxy-3a'-methyl-3'-[(2,3,3-trimethylbutan-2-yl)oxy]-2',3',3a',4',
5',5a',6',8',9',10a'-decahydro-1'H,7'H-spiro[cyclopropane-1,10'-[13]oxa[6a,9]e
poxybenzo[4,5]cyclohepta[1,2-e]inden]-6'-yl 4-nitrobenzoate
;
_cell_volume   3300.514
_diffrn_ambient_temperature 173
#These two values have been output from a single CSD field.
_refine_ls_R_factor_gt 0.1442
_refine_ls_wR_factor_gt 0.1442
_symmetry_cell_setting orthorhombic
_symmetry_space_group_name_H-M 'P 21 21 21'
_symmetry_Int_Tables_number 19
loop_
_symmetry_equiv_pos_site_id
_symmetry_equiv_pos_as_xyz
1 x,y,z
2 1/2-x,-y,1/2+z
3 -x,1/2+y,1/2-z
4 1/2+x,1/2-y,-z
_cell_length_a 13.440(3)
_cell_length_b 13.961(3)
_cell_length_c 17.590(4)
_cell_angle_alpha 90
_cell_angle_beta 90
_cell_angle_gamma 90
_cell_formula_units_Z 4
loop_
_atom_type_symbol
_atom_type_radius_bond
C 0.68
H 0.23
N 0.68
O 0.68
loop_
_atom_site_label
_atom_site_type_symbol
_atom_site_fract_x
_atom_site_fract_y
_atom_site_fract_z
O1 O 0.4639(4) 0.4647(5) 0.5013(3)
O2 O -0.1509(5) 0.6116(6) 0.4796(4)
O3 O -0.1738(5) 0.5336(7) 0.5827(4)
O4 O 0.2977(3) 0.3938(4) 0.4326(2)
O5 O 0.2760(5) 0.3032(6) 0.5369(4)
O6 O 0.4779(3) 0.2534(4) 0.3321(3)
H1 H 0.47370 0.20720 0.30170
O7 O 0.5076(7) 0.5926(5) 0.2648(3)
O8 O 0.0222(3) 0.3333(4) 0.2075(3)
N1 N -0.1222(5) 0.5590(7) 0.5289(5)
C1 C -0.08438(18) 0.3540(2) 0.24889(17)
C2 C 0.1155(5) 0.3783(6) 0.2210(4)
H2 H 0.10860 0.42210 0.26570
C3 C 0.1517(6) 0.4348(6) 0.1550(5)
H3 H 0.12150 0.49940 0.15450
H4 H 0.13580 0.40200 0.10660
C4 C 0.2661(6) 0.4410(7) 0.1670(4)
H5 H 0.30190 0.42320 0.11980
H6 H 0.28590 0.50670 0.18170
C5 C 0.2888(5) 0.3714(5) 0.2295(4)
C6 C 0.2002(4) 0.3059(6) 0.2378(4)
C7 C 0.2018(6) 0.2279(6) 0.1782(4)
H7 H 0.25490 0.18220 0.18990
H8 H 0.21370 0.25640 0.12810
H9 H 0.13760 0.19460 0.17790
C8 C 0.3697(4) 0.3705(5) 0.2707(3)
C9 C 0.3824(5) 0.3009(5) 0.3372(4)
C10 C 0.2984(5) 0.2278(6) 0.3398(4)
H10 H 0.30930 0.16330 0.35480
C11 C 0.1966(5) 0.2637(6) 0.3169(4)
H11 H 0.17410 0.31310 0.35340
H12 H 0.14840 0.21020 0.31820
C12 C 0.4589(5) 0.4324(6) 0.2522(4)
H13 H 0.50430 0.41430 0.21340
C13 C 0.4743(5) 0.5252(6) 0.2974(5)
C14 C 0.4476(5) 0.5272(6) 0.3785(4)
H14 H 0.37440 0.53930 0.38170
C15 C 0.4691(5) 0.4308(6) 0.4222(4)
C16 C 0.3918(5) 0.3516(6) 0.4141(4)
H15 H 0.40660 0.30180 0.45340
C17 C 0.4988(5) 0.5982(6) 0.4318(5)
C18 C 0.5418(7) 0.5334(7) 0.4934(5)
H16 H 0.56100 0.56690 0.54150
C19 C 0.6242(6) 0.4758(8) 0.4564(6)
H17 H 0.69380 0.48440 0.46310
C20 C 0.5791(6) 0.4102(7) 0.4124(5)
H18 H 0.59530 0.34450 0.42950
H19 H 0.59940 0.41740 0.35860
C21 C 0.5514(8) 0.6892(9) 0.4148(6)
H20 H 0.55260 0.71120 0.36130
H21 H 0.61210 0.70400 0.44440
C22 C 0.4544(7) 0.6913(9) 0.4554(6)
H22 H 0.39550 0.71450 0.42710
H23 H 0.45500 0.70730 0.51020
C23 C 0.2486(5) 0.3659(6) 0.4934(3)
C24 C 0.1538(5) 0.4197(6) 0.5032(4)
C25 C 0.0852(6) 0.3880(6) 0.5555(4)
H24 H 0.09900 0.33290 0.58540
C26 C -0.0043(6) 0.4365(7) 0.5644(4)
H25 H -0.05100 0.41630 0.60170
C27 C -0.0235(5) 0.5110(6) 0.5206(4)
C28 C 0.0410(6) 0.5478(7) 0.4691(5)
H26 H 0.02540 0.60310 0.44010
C29 C 0.1321(6) 0.5000(6) 0.4609(5)
H27 H 0.17970 0.52350 0.42560
C30 C -0.1723(5) 0.2576(7) 0.2108(5)
C31 C -0.1730(6) 0.2617(7) 0.1250(5)
H28 H -0.21750 0.21210 0.10510
H29 H -0.10550 0.25080 0.10580
H30 H -0.19640 0.32480 0.10840
C32 C -0.1266(14) 0.1616(10) 0.2333(8)
H31 H -0.16900 0.10940 0.21490
H32 H -0.12130 0.15790 0.28880
H33 H -0.06020 0.15580 0.21070
C33 C -0.2728(8) 0.2672(10) 0.2444(7)
H34 H -0.31620 0.21690 0.22420
H35 H -0.30030 0.33020 0.23140
H36 H -0.26830 0.26100 0.29980
C34 C -0.1220(9) 0.4757(9) 0.2209(9)
H37 H -0.07480 0.52220 0.24200
H38 H -0.18880 0.48910 0.24060
H39 H -0.12240 0.48070 0.16540
C35 C -0.0697(9) 0.3438(12) 0.3539(6)
H40 H -0.02480 0.39420 0.37200
H41 H -0.04180 0.28100 0.36650
H42 H -0.13480 0.35100 0.37830
#END
