
#######################################################################
#
#                 Cambridge Crystallographic Data Centre
#                                CCDC
#
#######################################################################
#
# If this CIF has been generated from an entry in the Cambridge
# Structural Database, then it will include bibliographic, chemical,
# crystal, experimental, refinement or atomic coordinate data resulting
# from the CCDC's data processing and validation procedures.
#
#######################################################################

data_CSD_CIF_ZEDLAV
_audit_creation_date 1996-04-12
_audit_creation_method CSD-ConQuest-V1
_database_code_CSD ZEDLAV
_database_code_depnum_ccdc_archive 'CCDC 1310251'
_chemical_formula_sum 'C15 H16 N2 O4'
_chemical_formula_moiety
;
C15 H16 N2 O4
;
_journal_coden_Cambridge 7
_journal_volume 67
_journal_year 1994
_journal_page_first 1069
_journal_name_full 'Bull.Chem.Soc.Jpn. '
loop_
_publ_author_name
"N.Sukumar"
"M.N.Ponnuswamy"
"J.C.Thenmozhiyal"
"R.Jeyaraman"
_chemical_name_systematic
;
2,6-Di-2-furyl-3,5-dimethyl-N-nitroso-4-piperidinone
;
_cell_volume   1476.701
_exptl_crystal_colour 'colorless'
_exptl_crystal_density_diffrn 1.299
_exptl_special_details
;
possible carcinogenic activity

;
_diffrn_ambient_temperature ?
_diffrn_special_details
;
The study was carried out at room temperature,in the range 283-303K

;
#These two values have been output from a single CSD field.
_refine_ls_R_factor_gt 0.054
_refine_ls_wR_factor_gt 0.054
_symmetry_cell_setting orthorhombic
_symmetry_space_group_name_H-M 'P 21 21 21'
_symmetry_Int_Tables_number 19
loop_
_symmetry_equiv_pos_site_id
_symmetry_equiv_pos_as_xyz
1 x,y,z
2 1/2-x,-y,1/2+z
3 1/2+x,1/2-y,-z
4 -x,1/2+y,1/2-z
_cell_length_a 9.334(1)
_cell_length_b 20.525(2)
_cell_length_c 7.708(1)
_cell_angle_alpha 90
_cell_angle_beta 90
_cell_angle_gamma 90
_cell_formula_units_Z 4
loop_
_atom_type_symbol
_atom_type_radius_bond
C 0.68
H 0.23
N 0.68
O 0.68
loop_
_atom_site_label
_atom_site_type_symbol
_atom_site_fract_x
_atom_site_fract_y
_atom_site_fract_z
N1 N 0.5657(4) 0.4371(2) 0.2229(4)
C1 C 0.4210(5) 0.4067(2) 0.2078(6)
C2 C 0.3546(5) 0.3970(2) 0.3914(7)
C3 C 0.3822(5) 0.4537(2) 0.5113(6)
C4 C 0.5262(5) 0.4883(2) 0.5019(6)
C5 C 0.6331(5) 0.4515(2) 0.3884(6)
C6 C 0.1967(5) 0.3805(3) 0.3794(8)
C7 C 0.5002(7) 0.5589(2) 0.4324(8)
C8 C 0.6907(5) 0.3918(2) 0.4759(7)
O1 O 0.7993(4) 0.3595(2) 0.3967(5)
C9 C 0.8341(6) 0.3088(3) 0.5106(9)
C10 C 0.7537(7) 0.3100(3) 0.6476(8)
C11 C 0.6586(6) 0.3641(2) 0.6274(8)
C12 C 0.4309(5) 0.3445(2) 0.1078(7)
O2 O 0.5139(5) 0.2957(2) 0.1651(7)
C13 C 0.4905(9) 0.2466(3) 0.029(1)
C14 C 0.3941(9) 0.2679(5) -0.072(1)
C15 C 0.3545(7) 0.3287(3) -0.0238(8)
O3 O 0.2942(4) 0.4709(2) 0.6171(5)
N2 N 0.6235(4) 0.4659(2) 0.0869(6)
O4 O 0.5551(4) 0.4602(2) -0.0505(4)
H1 H 0.36120 0.43640 0.10070
H2 H 0.42780 0.36030 0.38900
H3 H 0.54440 0.49590 0.65350
H4 H 0.70950 0.48440 0.34470
H5 H 0.11300 0.37570 0.47760
H6 H 0.21550 0.34340 0.29310
H7 H 0.12040 0.42440 0.35650
H8 H 0.60290 0.58460 0.39820
H9 H 0.42100 0.58560 0.49430
H10 H 0.50620 0.54500 0.29920
H11 H 0.94120 0.29740 0.51280
H12 H 0.69740 0.28770 0.76270
H13 H 0.55290 0.37590 0.69490
H14 H 0.54120 0.20660 0.01300
H15 H 0.35310 0.24200 -0.16950
H16 H 0.31670 0.36460 -0.07100
#END
