
#######################################################################
#
#                 Cambridge Crystallographic Data Centre
#                                CCDC
#
#######################################################################
#
# If this CIF has been generated from an entry in the Cambridge
# Structural Database, then it will include bibliographic, chemical,
# crystal, experimental, refinement or atomic coordinate data resulting
# from the CCDC's data processing and validation procedures.
#
#######################################################################

data_CSD_CIF_ZEGMOQ
_audit_creation_date 2017-11-02
_audit_creation_method CSD-ConQuest-V1
_database_code_CSD ZEGMOQ
_database_code_depnum_ccdc_archive 'CCDC 1583630'
_chemical_formula_sum 'C160 H168 N26 O30'
_chemical_formula_moiety
;
C160 H168 N26 O30
;
_journal_coden_Cambridge 4
_journal_volume 139
_journal_year 2017
_journal_page_first 14668
_journal_name_full 'J.Am.Chem.Soc. '
loop_
_publ_author_name
"A.Lamouroux"
"L.Sebaoun"
"B.Wicher"
"B.Kauffmann"
"Y.Ferrand"
"V.Maurizot"
"Ivan Huc"
_chemical_name_systematic
;
dimethyl 
8,8'-(((((((((8,8'-(((((4,6-dinitro-1,3-phenylene)bis(azanediyl))bis(3,5-dimet
hyl-4,1-phenylene))bis(azanediyl))bis(carbonyl))bis(4,6-diisobutoxy-10-methylp
yrido[3,2-g]quinoline-8,2-diyl-2-carbonyl))bis(azanediyl))bis(2,6-dimethyl-4,1
-phenylene))bis(azanediyl))bis(4,6-dinitro-3,1-phenylene))bis(azanediyl))bis(3
,5-dimethyl-4,1-phenylene))bis(azanediyl))bis(carbonyl))bis(4,6-diisobutoxy-10
-methylpyrido[3,2-g]quinoline-2-carboxylate)
;
_cell_volume   8507.440
_exptl_crystal_colour 'yellow'
_exptl_crystal_density_diffrn 1.146
_exptl_crystal_description 'plate'
_diffrn_ambient_temperature 100
_diffrn_radiation_probe x-ray
_diffrn_source synchrotron
#These two values have been output from a single CSD field.
_refine_ls_R_factor_gt 0.086
_refine_ls_wR_factor_gt 0.086
_symmetry_cell_setting triclinic
_symmetry_space_group_name_H-M 'P -1'
_symmetry_Int_Tables_number 2
loop_
_symmetry_equiv_pos_site_id
_symmetry_equiv_pos_as_xyz
1 x,y,z
2 -x,-y,-z
_cell_length_a 16.038(3)
_cell_length_b 16.052(3)
_cell_length_c 33.230(7)
_cell_angle_alpha 88.15(3)
_cell_angle_beta 88.18(3)
_cell_angle_gamma 84.50(3)
_cell_formula_units_Z 2
loop_
_atom_type_symbol
_atom_type_radius_bond
C 0.68
H 0.23
N 0.68
O 0.68
loop_
_atom_site_label
_atom_site_type_symbol
_atom_site_fract_x
_atom_site_fract_y
_atom_site_fract_z
N1 N 0.5237(4) 0.6481(3) 0.76609(15)
H1 H 0.55637 0.62334 0.78455
O1 O 0.2176(2) 0.1901(2) 0.76875(10)
O2 O 0.1359(2) 0.4606(2) 0.76421(11)
O3 O 0.4765(2) 0.3865(2) 0.54378(12)
O4 O 0.3885(2) 0.1808(2) 0.97481(11)
O5 O 0.4419(2) 0.0500(2) 0.86201(11)
O6 O 0.2331(2) 0.3036(2) 0.63400(11)
O7 O 0.3288(3) 0.4044(2) 0.99208(12)
O8 O 0.1488(2) 0.3144(2) 0.89095(11)
O9 O 0.8958(2) 0.6816(2) 0.49421(11)
O10 O 0.8170(2) 0.5821(2) 0.50556(11)
O11 O 0.7013(3) 0.3659(2) 1.00277(12)
N2 N 0.7222(2) 0.5747(2) 0.57339(12)
H2 H 0.74416 0.54239 0.55415
O12 O 0.2347(2) 0.5536(2) 0.87309(12)
N3 N 0.4932(2) 0.2924(2) 0.64066(12)
N4 N 0.8419(3) 0.6492(3) 0.51474(13)
N5 N 0.5908(2) 0.3402(2) 0.58031(12)
H3 H 0.60416 0.31573 0.60362
O13 O 0.9973(3) -0.0652(3) 1.07230(13)
N6 N 0.4776(2) 0.1591(2) 0.77035(11)
N7 N 0.3960(2) 0.4254(2) 0.75168(12)
N8 N 0.4775(2) 0.4789(2) 0.68539(12)
H4 H 0.49801 0.44932 0.70617
N9 N 0.8705(2) 0.4109(2) 0.48467(12)
H5 H 0.89452 0.45763 0.48652
N10 N 0.4092(2) 0.2819(2) 0.87989(12)
N11 N 0.5627(2) 0.0778(2) 0.82803(12)
H6 H 0.57992 0.10816 0.80744
O14 O 0.8923(3) 0.0291(3) 1.07985(12)
O15 O 0.9969(3) 0.4911(3) 0.45424(14)
N12 N 1.0139(3) 0.4378(3) 0.42873(15)
O16 O 1.0685(2) 0.4444(3) 0.40244(13)
N13 N 0.5050(2) 0.2076(2) 0.93709(13)
H7 H 0.51960 0.23085 0.91390
O17 O 0.8833(3) 0.9161(2) 0.57128(14)
N14 N 0.8305(3) -0.1024(3) 0.90707(14)
H8 H 0.85724 -0.14505 0.89459
O18 O 0.6133(3) 0.3135(3) 1.04835(14)
N15 N 0.9329(3) -0.0254(3) 1.05980(15)
O19 O 0.9761(3) -0.1961(3) 0.90422(15)
O20 O 0.7842(3) 0.9452(3) 0.61570(15)
O21 O 1.0574(3) -0.2050(3) 0.95485(14)
N16 N 0.7825(3) 0.0653(3) 1.02150(13)
H9 H 0.79563 0.08103 1.04543
C1 C 0.6587(3) 0.3604(3) 0.55553(14)
N17 N 0.5767(3) 0.4218(3) 0.95488(15)
O22 O 0.3541(3) 0.5370(4) 0.66027(14)
O23 O 0.3331(4) 0.0279(3) 0.66642(17)
N18 N 0.4821(3) 0.5671(3) 0.83411(14)
N19 N 0.8223(4) 0.8966(3) 0.59193(17)
C2 C 0.8104(3) 0.3572(3) 0.54739(15)
C3 C 0.7477(3) 0.6520(3) 0.57677(15)
O24 O 0.3882(3) 0.6597(3) 0.74783(15)
C4 C 0.4858(3) 0.2310(3) 0.70670(14)
C5 C 0.7983(3) 0.3974(3) 0.50951(15)
C6 C 0.6493(3) 0.4010(3) 0.51811(15)
H10 H 0.59465 0.41654 0.50852
O25 O 0.5176(4) 0.1472(3) 0.55668(18)
C7 C 0.4445(3) 0.2654(3) 0.67215(14)
O26 O 0.3952(3) -0.1183(3) 0.79623(14)
C8 C 0.4316(3) 0.1290(3) 0.80021(14)
C9 C 0.3478(3) 0.2072(3) 0.73704(14)
C10 C 0.5084(3) 0.3525(3) 0.57377(16)
C11 C 0.8101(3) -0.0227(3) 0.96607(15)
H11 H 0.75980 0.00306 0.95493
N20 N 0.9915(3) -0.1768(3) 0.93891(17)
C12 C 0.7385(3) 0.3394(3) 0.56967(14)
H12 H 0.74463 0.31211 0.59534
C13 C 0.5371(3) 0.5005(3) 0.65600(14)
O27 O 0.9483(4) 0.1062(3) 0.37040(17)
C14 C 0.7187(3) 0.4192(3) 0.49460(15)
C15 C 0.7595(3) -0.0567(3) 0.88768(15)
N21 N 0.8531(3) 0.1421(3) 0.43633(16)
H13 H 0.86158 0.10438 0.41763
C16 C 0.4369(3) 0.1988(3) 0.73860(14)
N22 N 0.6988(3) 0.8222(3) 0.64751(15)
H14 H 0.70325 0.87611 0.64944
C17 C 0.8057(3) 0.6890(3) 0.54983(15)
C18 C 0.3018(3) 0.1759(3) 0.77104(15)
C19 C 0.6843(3) 0.5049(3) 0.63697(15)
O28 O 1.0443(3) 0.1849(3) 0.35025(15)
C20 C 0.7108(3) 0.1068(3) 1.00253(15)
N23 N 0.5890(4) 0.0510(3) 0.64832(18)
C21 C 0.8309(3) 0.0022(3) 1.00373(15)
C22 C 0.4789(3) 0.0818(3) 0.83389(15)
C23 C 0.3551(3) 0.3952(3) 0.78524(15)
C24 C 0.7161(3) 0.6997(3) 0.60888(15)
H15 H 0.67835 0.67545 0.62743
C25 C 0.4222(3) 0.2090(3) 0.94429(16)
C26 C 0.5757(3) 0.5615(3) 0.59095(15)
C27 C 0.3083(3) 0.2430(3) 0.70340(15)
H16 H 0.24883 0.24888 0.70270
C28 C 0.6789(3) -0.0679(3) 0.90095(15)
C29 C 0.6313(3) 0.0864(3) 1.01504(15)
C30 C 0.6268(3) 0.0326(3) 0.84968(15)
C31 C 0.2656(3) 0.4057(3) 0.78934(15)
C32 C 0.3619(3) 0.3229(3) 0.85049(15)
C33 C 0.9044(3) -0.0416(3) 1.02063(16)
C34 C 0.8666(3) 0.2771(3) 0.45829(15)
H17 H 0.82222 0.26858 0.47715
C35 C 0.9020(3) 0.3532(3) 0.45857(15)
C36 C 0.4033(3) 0.3547(3) 0.81584(14)
C37 C 0.6598(3) 0.5444(3) 0.60070(15)
O29 O 0.7644(4) -0.1959(4) 0.81143(17)
N24 N 0.9854(4) 0.1701(4) 0.37308(17)
C38 C 0.2198(3) 0.4498(3) 0.75751(16)
C39 C 0.3692(3) 0.2520(3) 0.91143(16)
C40 C 0.2721(3) 0.3333(3) 0.85385(15)
C41 C 0.7069(3) 0.4600(3) 0.45388(16)
H18 H 0.74489 0.50413 0.45003
H19 H 0.64884 0.48457 0.45171
H20 H 0.71930 0.41814 0.43317
C42 C 0.8957(3) 0.3332(3) 0.56241(17)
H21 H 0.92795 0.29795 0.54273
H22 H 0.89167 0.30195 0.58812
H23 H 0.92395 0.38370 0.56629
C43 C 0.2334(3) 0.2996(3) 0.88951(17)
C44 C 0.5148(3) 0.5386(3) 0.61955(17)
H24 H 0.45718 0.54955 0.61365
C45 C 0.6116(3) -0.0213(3) 0.88193(15)
H25 H 0.55569 -0.02674 0.89122
C46 C 0.8574(3) -0.0828(3) 0.94327(16)
C47 C 0.3556(3) 0.2706(3) 0.67053(15)
N25 N 0.6507(4) 0.1005(3) 0.57623(17)
H26 H 0.67935 0.08321 0.59755
C48 C 0.4545(3) 0.3229(3) 0.60857(16)
C49 C 0.5620(3) 0.1209(3) 0.99427(15)
H27 H 0.50739 0.10793 1.00266
C50 C 0.6217(3) 0.4825(3) 0.66412(15)
H28 H 0.63705 0.45420 0.68873
C51 C 0.7219(3) 0.1624(3) 0.97036(16)
C52 C 0.3441(3) 0.1367(3) 0.80248(15)
H29 H 0.31485 0.11528 0.82524
C53 C 0.9694(3) 0.3631(3) 0.43024(16)
C54 C 0.3501(3) 0.4634(3) 0.72319(16)
C55 C 0.9533(3) -0.0993(3) 0.99856(17)
H30 H 1.00311 -0.12581 1.00982
C56 C 0.5790(3) 0.2271(3) 0.70866(15)
H31 H 0.59611 0.28401 0.70932
H32 H 0.60457 0.19917 0.68489
H33 H 0.59737 0.19557 0.73305
C57 C 0.5725(3) 0.1748(3) 0.96097(15)
C58 C 0.7765(3) -0.0037(3) 0.85525(16)
C59 C 0.3788(4) 0.5226(3) 0.88350(16)
C60 C 0.2823(3) 0.2579(3) 0.91776(17)
H34 H 0.25799 0.23350 0.94120
C61 C 0.7087(3) 0.0403(3) 0.83674(16)
H35 H 0.71884 0.07691 0.81446
C62 C 0.2617(3) 0.4774(3) 0.72436(16)
H36 H 0.23258 0.50521 0.70259
C63 C 0.7750(3) 0.4889(3) 0.64746(16)
H37 H 0.80615 0.45908 0.62561
H38 H 0.77980 0.45485 0.67243
H39 H 0.79808 0.54240 0.65119
C64 C 0.3176(3) 0.3038(3) 0.63387(16)
N26 N 0.6471(4) -0.1035(3) 0.77005(19)
C65 C 0.4633(3) 0.5283(3) 0.87021(16)
C66 C 0.4263(3) 0.4493(3) 0.94373(16)
C67 C 0.8284(3) 0.7685(3) 0.55689(16)
H40 H 0.86895 0.79112 0.53937
O30 O 0.6705(4) -0.2575(4) 0.84974(19)
C68 C 0.4971(3) 0.3461(3) 0.81243(15)
H41 H 0.51656 0.29271 0.80022
H42 H 0.52027 0.34778 0.83931
H43 H 0.51594 0.39231 0.79554
C69 C 0.7950(4) 0.8150(3) 0.58764(17)
C70 C 0.6527(4) 0.7801(3) 0.67775(18)
C71 C 0.2262(3) 0.3751(3) 0.82366(15)
H44 H 0.16686 0.38298 0.82647
C72 C 0.3677(3) 0.3291(3) 0.60332(17)
H45 H 0.34454 0.35070 0.57872
C73 C 0.3131(4) 0.5596(3) 0.85804(18)
C74 C 0.4207(4) 0.5971(3) 0.81177(17)
C75 C 0.5115(3) 0.4547(3) 0.93118(16)
C76 C 0.9323(3) -0.1199(3) 0.96052(17)
C77 C 0.3949(3) 0.4964(4) 0.68663(17)
C78 C 0.4098(4) 0.4076(3) 0.98245(17)
C79 C 0.6516(3) 0.1951(3) 0.95018(15)
H46 H 0.65812 0.23312 0.92804
C80 C 0.8918(4) 0.2137(3) 0.43245(17)
C81 C 0.3617(4) 0.4823(3) 0.92016(17)
H47 H 0.30535 0.47764 0.92889
C82 C 0.9570(3) 0.2289(4) 0.40336(16)
C83 C 0.6263(4) 0.3501(4) 1.0173(2)
C84 C 0.9933(3) 0.3018(4) 0.40369(17)
H48 H 1.03720 0.31050 0.38460
C85 C 0.6201(4) 0.0252(4) 1.04983(17)
H49 H 0.56221 0.01023 1.05097
H50 H 0.63224 0.05096 1.07506
H51 H 0.65854 -0.02537 1.04603
C86 C 0.7359(4) 0.7811(3) 0.61588(17)
C87 C 0.5657(5) 0.6912(3) 0.73564(18)
C88 C 0.5494(4) 0.6051(4) 0.55257(17)
H52 H 0.57613 0.57456 0.52978
H53 H 0.56623 0.66218 0.55191
H54 H 0.48832 0.60712 0.55073
C89 C 0.5300(3) 0.4947(3) 0.89415(18)
C90 C 0.6593(4) -0.1264(4) 0.93515(19)
H55 H 0.61212 -0.15721 0.92825
H56 H 0.64456 -0.09430 0.95936
H57 H 0.70849 -0.16606 0.94024
C91 C 0.1668(3) 0.1598(4) 0.80174(18)
H58 H 0.18718 0.17814 0.82750
H59 H 0.17207 0.09778 0.80230
C92 C 0.5666(5) 0.7773(3) 0.67352(18)
C93 C 0.7983(5) 0.1267(4) 0.4707(2)
C94 C 0.4437(5) 0.6384(3) 0.77180(18)
C95 C 0.8068(3) 0.1861(4) 0.95601(19)
H60 H 0.83100 0.14585 0.93628
H61 H 0.84375 0.18548 0.97897
H62 H 0.80095 0.24234 0.94343
C96 C 0.1873(3) 0.3270(4) 0.59789(18)
H63 H 0.21845 0.36576 0.58076
H64 H 0.18092 0.27652 0.58232
C97 C 0.5567(4) 0.3850(3) 0.99006(17)
C98 C 0.4752(4) 0.3761(3) 1.00427(18)
H65 H 0.46591 0.34778 1.02933
C99 C 0.3336(4) 0.5958(3) 0.82165(17)
H66 H 0.29185 0.61903 0.80382
C100 C 0.8359(5) 0.1029(4) 0.5071(3)
C101 C 0.5870(5) -0.0624(4) 0.7462(2)
C102 C 0.6954(5) 0.7383(4) 0.7091(2)
C103 C 0.5335(5) 0.0788(4) 0.6214(2)
C104 C 0.0858(4) 0.4990(5) 0.7321(2)
H67 H 0.09295 0.46367 0.70818
H68 H 0.10500 0.55437 0.72463
C105 C 0.6503(5) 0.6945(4) 0.73763(19)
H69 H 0.67918 0.66591 0.75928
C106 C 0.5577(5) 0.0154(4) 0.6835(2)
C107 C 0.5229(5) 0.7331(4) 0.70355(19)
H70 H 0.46405 0.73170 0.70202
C108 C 0.4782(6) -0.1184(5) 0.7900(2)
C109 C 0.7844(5) 0.0952(3) 0.5415(2)
H71 H 0.80842 0.07830 0.56656
C110 C 0.6167(5) -0.0170(4) 0.7125(2)
C111 C 0.1069(4) 0.3666(5) 0.6090(2)
H72 H 0.07342 0.37574 0.58411
C112 C 0.4144(5) 0.0391(4) 0.6598(2)
C113 C -0.0041(4) 0.5096(6) 0.7448(2)
H73 H -0.00688 0.55250 0.76604
C114 C 0.7135(5) 0.1456(5) 0.4686(2)
C115 C 0.4700(5) 0.0072(4) 0.6901(2)
C116 C 0.6980(5) 0.1124(4) 0.5391(2)
C117 C 0.5658(5) 0.1136(4) 0.5814(2)
C118 C 0.3077(5) 0.3700(4) 1.0311(2)
H74 H 0.32961 0.40272 1.05248
H75 H 0.33221 0.31123 1.03391
C119 C 0.6193(4) 0.5010(4) 0.8791(2)
H76 H 0.62977 0.46906 0.85452
H77 H 0.65803 0.47819 0.89980
H78 H 0.62788 0.55985 0.87325
C120 C 0.5013(6) -0.0694(4) 0.7533(2)
C121 C 0.5208(5) 0.8180(4) 0.63845(19)
H79 H 0.53892 0.87407 0.63319
H80 H 0.46039 0.82261 0.64460
H81 H 0.53306 0.78415 0.61460
C122 C 0.4442(5) -0.0345(4) 0.7263(2)
H82 H 0.38613 -0.03828 0.73172
C123 C 0.8649(4) 0.0048(4) 0.8405(2)
H83 H 0.88892 -0.04828 0.82935
H84 H 0.89842 0.01896 0.86303
H85 H 0.86497 0.04920 0.81959
C124 C 0.6881(6) -0.2054(5) 0.8231(3)
C125 C 0.6224(6) -0.1516(5) 0.8011(3)
C126 C 0.5383(6) -0.1577(5) 0.8124(3)
H86 H 0.52420 -0.18953 0.83581
C127 C 0.1651(4) 0.5911(4) 0.8511(2)
H87 H 0.16861 0.57199 0.82303
H88 H 0.16453 0.65286 0.85057
C128 C 0.4460(5) 0.0768(4) 0.6254(2)
H89 H 0.40994 0.10058 0.60504
C129 C 0.2119(5) 0.3746(5) 1.0344(3)
H90 H 0.18860 0.34576 1.01167
C130 C 0.2770(5) -0.1485(5) 0.8382(2)
H91 H 0.25312 -0.17716 0.81550
C131 C 0.1054(4) 0.2926(5) 0.9275(2)
H92 H 0.14043 0.30013 0.95089
H93 H 0.09364 0.23317 0.92734
C132 C 0.6639(5) 0.1383(5) 0.5032(2)
H94 H 0.60498 0.15166 0.50185
C133 C 0.2770(5) 0.0558(5) 0.6345(3)
H95 H 0.29748 0.02976 0.60893
H96 H 0.27534 0.11730 0.63063
C134 C 0.0215(5) 0.3502(5) 0.9310(3)
H97 H 0.03471 0.40984 0.92856
C135 C 0.7070(5) -0.0047(4) 0.7082(2)
H98 H 0.74047 -0.05722 0.71506
H99 H 0.72010 0.03891 0.72634
H100 H 0.72020 0.01246 0.68031
C136 C 0.7883(5) 0.7417(5) 0.7128(2)
H101 H 0.81758 0.72010 0.68842
H102 H 0.80778 0.70742 0.73625
H103 H 0.80014 0.79978 0.71625
C137 C 0.3689(5) -0.1583(4) 0.8336(2)
H104 H 0.39384 -0.13284 0.85659
H105 H 0.38905 -0.21862 0.83372
C138 C 0.0547(4) 0.3296(6) 0.6402(2)
H106 H 0.00188 0.36502 0.64356
H107 H 0.08422 0.32516 0.66565
H108 H 0.04302 0.27366 0.63226
C139 C 0.0789(5) 0.1910(8) 0.7977(3)
H109 H 0.07645 0.25071 0.80571
C140 C 0.9297(5) 0.0908(5) 0.5121(3)
H110 H 0.95454 0.04939 0.49307
H111 H 0.94180 0.07090 0.53968
H112 H 0.95349 0.14416 0.50676
C141 C 0.0825(4) 0.5632(6) 0.8735(3)
H113 H 0.07974 0.50192 0.86980
C142 C 0.1923(6) 0.0320(6) 0.6450(3)
H114 H 0.19457 -0.03023 0.64901
C143 C 0.7676(4) 0.3341(4) 1.0295(2)
H115 H 0.76982 0.27285 1.03155
H116 H 0.75633 0.35730 1.05623
H117 H 0.82139 0.35050 1.01868
C144 C 0.2434(5) -0.0611(5) 0.8372(3)
H118 H 0.25372 -0.03634 0.81033
H119 H 0.27081 -0.03078 0.85731
H120 H 0.18292 -0.05732 0.84313
C145 C -0.0328(5) 0.3342(8) 0.8976(3)
H121 H -0.00956 0.35648 0.87232
H122 H -0.08918 0.36160 0.90271
H123 H -0.03556 0.27370 0.89567
C146 C 0.6750(5) 0.1756(7) 0.4296(3)
H124 H 0.69094 0.23180 0.42255
H125 H 0.61380 0.17748 0.43244
H126 H 0.69489 0.13722 0.40825
C147 C 0.2522(5) -0.1930(4) 0.8784(2)
H127 H 0.19104 -0.18945 0.88142
H128 H 0.27532 -0.16578 0.90091
H129 H 0.27472 -0.25199 0.87809
C148 C 0.1794(6) 0.4674(5) 1.0347(4)
H130 H 0.15457 0.48396 1.00869
H131 H 0.22593 0.50103 1.03915
H132 H 0.13681 0.47666 1.05627
C149 C -0.0177(5) 0.3366(6) 0.9707(3)
H133 H -0.07377 0.36674 0.97182
H134 H 0.01659 0.35722 0.99147
H135 H -0.02214 0.27657 0.97554
C150 C -0.0551(5) 0.5522(8) 0.7109(3)
H136 H -0.03137 0.60414 0.70231
H137 H -0.11325 0.56518 0.72044
H138 H -0.05377 0.51481 0.68811
C151 C 0.0775(5) 0.5797(5) 0.9161(3)
H139 H 0.08187 0.63933 0.91995
H140 H 0.12341 0.54648 0.92964
H141 H 0.02374 0.56435 0.92747
C152 C 0.1234(5) 0.4557(5) 0.6250(3)
H142 H 0.16437 0.44845 0.64640
H143 H 0.07074 0.48382 0.63572
H144 H 0.14515 0.48982 0.60281
C153 C 0.1565(6) 0.0738(8) 0.6831(3)
H145 H 0.16111 0.13422 0.68064
H146 H 0.18796 0.05049 0.70637
H147 H 0.09744 0.06369 0.68694
C154 C 0.8292(7) -0.2523(7) 0.8294(3)
H148 H 0.82509 -0.30914 0.82022
H149 H 0.82228 -0.25164 0.85879
H150 H 0.88418 -0.23443 0.82136
C155 C 0.0256(5) 0.1503(7) 0.8293(3)
H151 H -0.03124 0.17871 0.82949
H152 H 0.04985 0.15441 0.85579
H153 H 0.02358 0.09118 0.82322
C156 C 0.1333(7) 0.0607(6) 0.6082(3)
H154 H 0.16339 0.04716 0.58272
H155 H 0.11804 0.12125 0.60890
H156 H 0.08247 0.03136 0.61030
C157 C 0.0096(6) 0.6122(9) 0.8513(3)
H157 H 0.00876 0.59315 0.82366
H158 H 0.01711 0.67213 0.85093
H159 H -0.04347 0.60266 0.86537
C158 C 0.0407(6) 0.1957(14) 0.7558(3)
H160 H 0.04506 0.25151 0.74358
H161 H -0.01840 0.18497 0.75838
H162 H 0.07104 0.15350 0.73875
C159 C 0.1859(8) 0.3413(9) 1.0717(5)
H163 H 0.13158 0.31905 1.06902
H164 H 0.18051 0.38538 1.09159
H165 H 0.22734 0.29613 1.08055
C160 C -0.0392(6) 0.443(1) 0.7632(6)
H166 H -0.04130 0.39850 0.74382
H167 H -0.09620 0.46119 0.77290
H168 H -0.00531 0.42169 0.78598
#END
