
#######################################################################
#
#                 Cambridge Crystallographic Data Centre
#                                CCDC
#
#######################################################################
#
# If this CIF has been generated from an entry in the Cambridge
# Structural Database, then it will include bibliographic, chemical,
# crystal, experimental, refinement or atomic coordinate data resulting
# from the CCDC's data processing and validation procedures.
#
#######################################################################

data_CSD_CIF_ZEHJUR01
_audit_creation_date 2018-03-05
_audit_creation_method CSD-ConQuest-V1
_database_code_CSD ZEHJUR01
_database_code_depnum_ccdc_archive 'CCDC 984383'
_chemical_formula_sum 'C16 H14 N4 O4'
_chemical_formula_moiety
;
C16 H14 N4 O4
;
_journal_coden_Cambridge 597
_journal_volume 127
_journal_year 2015
_journal_page_first 2211
_journal_name_full 'J.Chem.Sci.(Bangalore,India) '
loop_
_publ_author_name
"S.Tighdouini"
"S.Radi"
"L.Toupet"
"M.Sirajuddin"
"T.B.Hadda"
"M.Akkurt"
"I.Warad"
"Y.N.Mabkhot"
"Saqib Ali"
_chemical_name_systematic
;
(E,E)-bis(1-(4-nitrophenyl)ethylidene)hydrazine
;
_cell_volume    746.856
_exptl_crystal_colour 'colorless'
_exptl_crystal_density_diffrn 1.451
_exptl_special_details
;
white polymorph
Study temperature given as 140 K and 130 K in the CIF

;
_exptl_crystal_description 'prism'
_diffrn_ambient_temperature 140
#These two values have been output from a single CSD field.
_refine_ls_R_factor_gt 0.0453
_refine_ls_wR_factor_gt 0.0453
_symmetry_cell_setting triclinic
_symmetry_space_group_name_H-M 'P -1'
_symmetry_Int_Tables_number 2
loop_
_symmetry_equiv_pos_site_id
_symmetry_equiv_pos_as_xyz
1 x,y,z
2 -x,-y,-z
_cell_length_a 7.8007(4)
_cell_length_b 8.5966(7)
_cell_length_c 12.224(1)
_cell_angle_alpha 71.133(7)
_cell_angle_beta 81.281(5)
_cell_angle_gamma 74.895(5)
_cell_formula_units_Z 2
loop_
_atom_type_symbol
_atom_type_radius_bond
C 0.68
H 0.23
N 0.68
O 0.68
loop_
_atom_site_label
_atom_site_type_symbol
_atom_site_fract_x
_atom_site_fract_y
_atom_site_fract_z
O1 O 0.42781(18) 0.48504(17) 1.30018(11)
O2 O 0.39176(16) 0.72192(17) 1.16255(11)
O3 O -0.39786(17) 0.08125(17) 0.39707(11)
O4 O -0.20295(18) 0.14403(17) 0.25418(11)
N1 N 0.38755(18) 0.5717(2) 1.20213(13)
N2 N 0.11767(18) 0.36410(18) 0.81467(12)
N3 N 0.04415(18) 0.30347(18) 0.74593(12)
N4 N -0.2625(2) 0.13210(18) 0.35490(13)
C1 C 0.3331(2) 0.4914(2) 1.12792(14)
C2 C 0.3531(2) 0.3191(2) 1.16410(15)
H1 H 0.39850 0.25300 1.23680
C3 C 0.3055(2) 0.2440(2) 1.09208(15)
H2 H 0.31940 0.12500 1.11550
C4 C 0.2374(2) 0.3408(2) 0.98571(14)
C5 C 0.2188(2) 0.5154(2) 0.95302(14)
H3 H 0.17200 0.58290 0.88100
C6 C 0.2671(2) 0.5914(2) 1.02324(15)
H4 H 0.25510 0.71020 1.00010
C7 C 0.1841(2) 0.2621(2) 0.90804(15)
C8 C 0.2119(3) 0.0750(2) 0.94091(18)
H5 H 0.15830 0.04480 0.88530
H6 H 0.15570 0.03360 1.01880
H7 H 0.33970 0.02370 0.94020
C9 C 0.1203(2) 0.3045(2) 0.64532(14)
C10 C 0.2966(2) 0.3487(2) 0.60131(16)
H8 H 0.35340 0.35550 0.66530
H9 H 0.27880 0.45790 0.54090
H10 H 0.37290 0.26160 0.56890
C11 C 0.0213(2) 0.2599(2) 0.56918(14)
C12 C -0.1274(2) 0.1904(2) 0.61474(14)
H11 H -0.16410 0.17120 0.69480
C13 C -0.2214(2) 0.1495(2) 0.54509(15)
H12 H -0.32180 0.10200 0.57630
C14 C -0.1655(2) 0.1795(2) 0.42831(14)
C15 C -0.0200(2) 0.2473(2) 0.38063(15)
H13 H 0.01550 0.26660 0.30040
C16 C 0.0737(2) 0.2869(2) 0.45159(14)
H14 H 0.17490 0.33320 0.41980
#END
