
#######################################################################
#
#                 Cambridge Crystallographic Data Centre
#                                CCDC
#
#######################################################################
#
# If this CIF has been generated from an entry in the Cambridge
# Structural Database, then it will include bibliographic, chemical,
# crystal, experimental, refinement or atomic coordinate data resulting
# from the CCDC's data processing and validation procedures.
#
#######################################################################

data_CSD_CIF_ZEHSAG
_audit_creation_date 1996-05-02
_audit_creation_method CSD-ConQuest-V1
_database_code_CSD ZEHSAG
_database_code_depnum_ccdc_archive 'CCDC 1310625'
_chemical_formula_sum 'C22 H22 N2 O5'
_chemical_formula_moiety
;
C22 H22 N2 O5
;
_journal_coden_Cambridge 194
_journal_volume 43
_journal_year 1995
_journal_page_first 1089
_journal_name_full 'Chem.Pharm.Bull. '
loop_
_publ_author_name
"T.Kurihara"
"Y.Sakamoto"
"M.Takai"
"H.Ohishi"
"S.Harusawa"
"R.Yoneda"
_chemical_name_systematic
;
Methyl 
4,10-dioxo-5-methyl-2-phenyl-2,3,3a,4,5,10,11,12-octahydroisoxazolo(3,2-c)(1,4
)benzodiazonine-3-carboxylate
;
_chemical_melting_point 432.15
_cell_volume    991.936
_exptl_crystal_colour 'colorless'
_exptl_crystal_density_diffrn 1.321
_exptl_special_details
;
Melting point range 432.15-433.15K

;
_diffrn_ambient_temperature ?
_diffrn_special_details
;
The study was carried out at room temperature,in the range 283-303K

;
#These two values have been output from a single CSD field.
_refine_ls_R_factor_gt 0.105
_refine_ls_wR_factor_gt 0.105
_symmetry_cell_setting triclinic
_symmetry_space_group_name_H-M 'P -1'
_symmetry_Int_Tables_number 2
loop_
_symmetry_equiv_pos_site_id
_symmetry_equiv_pos_as_xyz
1 x,y,z
2 -x,-y,-z
_cell_length_a 14.321(3)
_cell_length_b 8.543(9)
_cell_length_c 8.392(7)
_cell_angle_alpha 75.97(7)
_cell_angle_beta 90.80(7)
_cell_angle_gamma 95.21(1)
_cell_formula_units_Z 2
loop_
_atom_type_symbol
_atom_type_radius_bond
C 0.68
N 0.68
O 0.68
loop_
_atom_site_label
_atom_site_type_symbol
_atom_site_fract_x
_atom_site_fract_y
_atom_site_fract_z
O1 O 0.2960(2) 0.1988(3) 0.2126(3)
C1 C 0.3727(2) 0.1904(4) 0.1122(4)
C2 C 0.3546(2) 0.0229(4) 0.0667(4)
C3 C 0.2701(2) -0.0561(4) 0.1753(4)
C4 C 0.2775(2) -0.2373(4) 0.2539(4)
N1 N 0.1992(2) -0.3355(3) 0.2772(4)
C5 C 0.1103(2) -0.2878(4) 0.2129(4)
C6 C 0.0848(3) -0.3047(5) 0.0576(5)
C7 C -0.0040(3) -0.2761(6) -0.0058(5)
C8 C -0.0682(3) -0.2158(6) 0.0859(6)
C9 C -0.0453(3) -0.2031(5) 0.2424(5)
C10 C 0.0455(2) -0.2347(4) 0.3079(5)
C11 C 0.0643(3) -0.2093(5) 0.4752(5)
C12 C 0.1565(3) -0.1256(4) 0.5131(4)
C13 C 0.1848(3) 0.0362(4) 0.3892(4)
N2 N 0.2765(2) 0.0308(3) 0.3085(3)
C14 C 0.4622(3) 0.3764(5) -0.1224(5)
C15 C 0.4711(3) 0.5079(5) -0.2587(5)
C16 C 0.3985(4) 0.6101(6) -0.2917(6)
C17 C 0.3172(4) 0.5801(6) -0.1929(6)
C18 C 0.3096(3) 0.4411(5) -0.0610(5)
C19 C 0.3809(2) 0.3400(4) -0.0292(4)
C20 C 0.3363(2) 0.0392(4) -0.1136(4)
O2 O 0.2596(2) 0.0462(4) -0.1786(3)
O3 O 0.4159(2) 0.0459(3) -0.1926(3)
C21 C 0.4127(3) 0.0883(6) -0.3710(5)
O4 O 0.3558(2) -0.2825(3) 0.3024(3)
C22 C 0.2050(3) -0.5060(4) 0.3676(6)
O5 O 0.0016(2) -0.2459(5) 0.5760(4)
#END
