
#######################################################################
#
#                 Cambridge Crystallographic Data Centre
#                                CCDC
#
#######################################################################
#
# If this CIF has been generated from an entry in the Cambridge
# Structural Database, then it will include bibliographic, chemical,
# crystal, experimental, refinement or atomic coordinate data resulting
# from the CCDC's data processing and validation procedures.
#
#######################################################################

data_CSD_CIF_ZEJSIQ
_audit_creation_date 1996-05-17
_audit_creation_method CSD-ConQuest-V1
_database_code_CSD ZEJSIQ
_database_code_depnum_ccdc_archive 'CCDC 1310727'
_chemical_formula_sum 'C14 H17 N3 O8'
_chemical_formula_moiety
;
C14 H17 N3 O8
;
_journal_coden_Cambridge 599
_journal_volume 14
_journal_year 1995
_journal_page_first 723
_journal_name_full 'J.Carbohydr.Chem. '
loop_
_publ_author_name
"Z.Smiatacz"
"I.Chrzczanowicz"
"H.Myszka"
"P.Dokurno"
_chemical_name_systematic
;
1-(Methyl 
3,4-di-O-acetyl-2-deoxy-2-(Z)-hydroxyimino-\a-D-arabino-hexopyranosyluronate)p
yrazole
;
_chemical_melting_point 427.15
_cell_volume    844.710
_exptl_crystal_density_diffrn 1.397
_exptl_special_details
;
Melting point range 427.15-429.15K

;
_diffrn_ambient_temperature ?
_diffrn_special_details
;
The study was carried out at room temperature,in the range 283-303K

;
_refine_special_details
;
Hydrogens of the methyl group C(32) are disordered over two sites with 
occupancies 0.60:0.40.
;
#These two values have been output from a single CSD field.
_refine_ls_R_factor_gt 0.0466
_refine_ls_wR_factor_gt 0.0466
_symmetry_cell_setting monoclinic
_symmetry_space_group_name_H-M 'P 21'
_symmetry_Int_Tables_number 4
loop_
_symmetry_equiv_pos_site_id
_symmetry_equiv_pos_as_xyz
1 x,y,z
2 -x,1/2+y,-z
_cell_length_a 8.264(2)
_cell_length_b 9.958(2)
_cell_length_c 10.831(2)
_cell_angle_alpha 90
_cell_angle_beta 108.61(3)
_cell_angle_gamma 90
_cell_formula_units_Z 2
loop_
_atom_type_symbol
_atom_type_radius_bond
C 0.68
H 0.23
N 0.68
O 0.68
loop_
_atom_site_label
_atom_site_type_symbol
_atom_site_fract_x
_atom_site_fract_y
_atom_site_fract_z
C1 C 0.06517(33) -0.08890(37) 0.14595(28)
C2 C 0.18684(34) -0.07357(35) 0.06913(26)
C3 C 0.35309(32) -0.00576(35) 0.13184(26)
C4 C 0.33669(31) 0.10805(35) 0.21863(27)
C5 C 0.23651(33) 0.06188(34) 0.30622(27)
O1 O 0.07190(23) 0.02224 0.22733(21)
C6 C 0.20551(34) 0.17454(36) 0.38716(26)
N1 N 0.15691(36) -0.11820(36) -0.04469(26)
O2 O 0.00369(35) -0.18823(40) -0.08475(28)
O3 O 0.42018(25) 0.04959(30) 0.03848(20)
C7 C 0.56263(41) -0.00529(40) 0.02768(35)
O4 O 0.62909(38) -0.10070(39) 0.08722(35)
C8 C 0.62539(65) 0.07071(57) -0.06522(51)
O5 O 0.50830(24) 0.1417(3) 0.29135(22)
C9 C 0.54222(44) 0.27241(43) 0.32108(37)
O6 O 0.43275(41) 0.35162(40) 0.30971(38)
C10 C 0.72741(55) 0.29822(65) 0.36879(53)
O7 O 0.09472(27) 0.25605(32) 0.34950(21)
O8 O 0.3167(3) 0.17317(33) 0.50368(21)
C11 C 0.30684(63) 0.28434(58) 0.5865(4)
N2 N 0.09497(32) -0.21333(32) 0.21552(26)
N3 N 0.25468(38) -0.25053(35) 0.28496(29)
C12 C 0.23458(61) -0.36832(43) 0.33245(42)
C13 C 0.06368(75) -0.40689(45) 0.29259(53)
C14 C -0.02148(52) -0.30657(44) 0.21853(40)
H1 H -0.0531(23) -0.0863(32) 0.0900(23)
H2 H 0.4347(30) -0.0701(27) 0.1849(24)
H3 H 0.2817(40) 0.1805(29) 0.1601(29)
H4 H 0.2950(45) -0.0082(32) 0.3669(32)
H5 H -0.0143(63) -0.1915(58) -0.1624(56)
H6 H 0.5237(52) 0.0466(67) -0.1398(42)
H7 H 0.626(8) 0.1689(14) -0.0488(69)
H8 H 0.7363(89) 0.093(10) 0.0120(86)
H9 H 0.7871(96) 0.2296(54) 0.4335(53)
H10 H 0.759(10) 0.3901(32) 0.4033(65)
H11 H 0.7509(83) 0.2853(74) 0.2854(30)
H12 H 0.3528(35) 0.3637(28) 0.5542(35)
H13 H 0.3788(31) 0.2593(39) 0.6754(19)
H14 H 0.1867(15) 0.2982(38) 0.5823(33)
H15 H 0.3298(59) -0.4190(64) 0.3936(51)
H16 H 0.0003(75) -0.4903(38) 0.2959(64)
H17 H -0.1429(26) -0.2891(72) 0.1698(49)
H18? H 0.7318(43) 0.0386(59) -0.0792(67)
H19? H 0.5588(94) 0.1597(99) -0.1086(92)
H20? H 0.660(11) 0.0119(97) -0.1281(71)
#END
