
#######################################################################
#
#                 Cambridge Crystallographic Data Centre
#                                CCDC
#
#######################################################################
#
# If this CIF has been generated from an entry in the Cambridge
# Structural Database, then it will include bibliographic, chemical,
# crystal, experimental, refinement or atomic coordinate data resulting
# from the CCDC's data processing and validation procedures.
#
#######################################################################

data_CSD_CIF_ZEKMAF
_audit_creation_date 2012-12-31
_audit_creation_method CSD-ConQuest-V1
_database_code_CSD ZEKMAF
_database_code_depnum_ccdc_archive 'CCDC 863976'
_chemical_formula_sum 'C45 H39 N7 O12'
_chemical_formula_moiety
;
C45 H39 N7 O12
;
_journal_coden_Cambridge 1500
_journal_volume 2
_journal_year 2012
_journal_page_first 9502
_journal_name_full 'RSC Advances '
loop_
_publ_author_name
"A.S.Singh"
"Shih Sheng Sun"
_chemical_name_systematic
;
tris(4-(((2-nitrophenyl)carbamoyl)phenoxy)ethyl)amine unknown solvate
;
_cell_volume   3972.660
_exptl_crystal_colour 'yellow'
_exptl_crystal_density_diffrn 1.454
_exptl_crystal_description 'prism'
_diffrn_ambient_temperature 200
_refine_special_details
;
The SQUEEZE/PLATON program has been used to model the disordered solvent.

;
#These two values have been output from a single CSD field.
_refine_ls_R_factor_gt 0.17
_refine_ls_wR_factor_gt 0.17
_symmetry_cell_setting monoclinic
_symmetry_space_group_name_H-M 'P 21/c'
_symmetry_Int_Tables_number 14
loop_
_symmetry_equiv_pos_site_id
_symmetry_equiv_pos_as_xyz
1 x,y,z
2 -x,1/2+y,1/2-z
3 -x,-y,-z
4 x,-1/2-y,-1/2+z
_cell_length_a 23.327(14)
_cell_length_b 11.333(6)
_cell_length_c 15.245(9)
_cell_angle_alpha 90
_cell_angle_beta 99.697(15)
_cell_angle_gamma 90
_cell_formula_units_Z 4
loop_
_atom_type_symbol
_atom_type_radius_bond
C 0.68
H 0.23
N 0.68
O 0.68
loop_
_atom_site_label
_atom_site_type_symbol
_atom_site_fract_x
_atom_site_fract_y
_atom_site_fract_z
C1 C -0.0034(4) 0.4756(13) 0.3666(10)
H1 H 0.00090 0.56190 0.37590
H2 H 0.01500 0.43680 0.42240
C2 C -0.0685(4) 0.4466(11) 0.3517(10)
H3 H -0.08980 0.48800 0.29900
H4 H -0.07540 0.36060 0.34490
C3 C -0.1407(4) 0.4804(11) 0.4497(10)
C4 C -0.1489(4) 0.5048(12) 0.5326(10)
H5 H -0.11630 0.52480 0.57630
C5 C -0.2025(5) 0.5018(13) 0.556(1)
H6 H -0.20670 0.52240 0.61500
C6 C -0.2523(4) 0.4685(11) 0.4939(10)
C7 C -0.2417(5) 0.4425(12) 0.4098(11)
H7 H -0.27410 0.42120 0.36610
C8 C -0.1870(5) 0.4449(11) 0.3834(10)
H8 H -0.18160 0.42400 0.32500
C9 C -0.3117(5) 0.4644(13) 0.5142(11)
C10 C -0.3659(5) 0.5100(14) 0.6352(9)
C11 C -0.4235(5) 0.4849(14) 0.5921(13)
H9 H -0.42930 0.45820 0.53220
C12 C -0.4696(5) 0.4974(15) 0.6323(12)
H10 H -0.50740 0.48380 0.59940
C13 C -0.4636(5) 0.5300(14) 0.7218(13)
H11 H -0.49670 0.53980 0.74970
C14 C -0.4089(5) 0.5472(13) 0.7679(13)
H12 H -0.40340 0.56340 0.82990
C15 C -0.3617(4) 0.5413(11) 0.7249(9)
C16 C 0.0172(5) 0.5164(11) 0.2205(11)
H13 H -0.00760 0.58320 0.23290
H14 H -0.00440 0.47110 0.17000
C17 C 0.0743(4) 0.5648(10) 0.1946(9)
H15 H 0.09480 0.61540 0.24290
H16 H 0.10030 0.49870 0.18510
C18 C 0.1019(4) 0.6506(10) 0.0649(9)
C19 C 0.0817(5) 0.6929(12) -0.0219(11)
H17 H 0.04140 0.70800 -0.04030
C20 C 0.1179(5) 0.7116(12) -0.0776(10)
H18 H 0.10350 0.74350 -0.13470
C21 C 0.1791(4) 0.6852(11) -0.0546(10)
C22 C 0.1976(4) 0.6406(12) 0.0308(10)
H19 H 0.23740 0.62080 0.04870
C23 C 0.1588(5) 0.6240(12) 0.0913(10)
H20 H 0.17230 0.59470 0.14950
C24 C 0.2150(5) 0.7083(12) -0.1205(10)
C25 C 0.3191(4) 0.6961(12) -0.1447(11)
C26 C 0.3116(5) 0.7358(13) -0.2332(10)
H21 H 0.27300 0.75250 -0.26170
C27 C 0.3555(5) 0.7524(14) -0.2816(13)
H22 H 0.34790 0.77840 -0.34160
C28 C 0.4119(6) 0.7290(14) -0.2381(13)
H23 H 0.44350 0.74540 -0.26820
C29 C 0.4237(5) 0.6828(18) -0.1525(14)
H24 H 0.46210 0.66020 -0.12720
C30 C 0.3771(5) 0.6698(12) -0.1030(11)
C31 C 0.0299(4) 0.3158(11) 0.2777(9)
H25 H -0.00780 0.29370 0.24140
H26 H 0.03350 0.27220 0.33460
C32 C 0.0775(4) 0.2762(11) 0.2301(9)
H27 H 0.11400 0.31870 0.25310
H28 H 0.08440 0.19050 0.23870
C33 C 0.1015(5) 0.3092(11) 0.0815(9)
C34 C 0.0824(4) 0.3607(11) 0.0019(9)
H29 H 0.04300 0.38500 -0.01320
C35 C 0.1199(5) 0.3777(11) -0.0569(10)
H30 H 0.10670 0.41760 -0.11130
C36 C 0.1781(5) 0.3371(13) -0.0381(10)
C37 C 0.1948(4) 0.2802(11) 0.0472(10)
H31 H 0.23360 0.25300 0.06430
C38 C 0.1567(4) 0.2654(10) 0.1022(10)
H32 H 0.16800 0.22380 0.15640
C39 C 0.2144(5) 0.3557(11) -0.1019(10)
C40 C 0.3196(4) 0.3409(12) -0.1222(10)
C41 C 0.3124(5) 0.3798(14) -0.2102(11)
H33 H 0.27470 0.40190 -0.23920
C42 C 0.3580(5) 0.3872(15) -0.2561(11)
H34 H 0.35160 0.41280 -0.31630
C43 C 0.4143(5) 0.3565(15) -0.2135(12)
H35 H 0.44610 0.36020 -0.24490
C44 C 0.4229(5) 0.3207(15) -0.1252(13)
H36 H 0.46100 0.30550 -0.09410
C45 C 0.3762(5) 0.3079(13) -0.0841(10)
N1 N 0.0288(3) 0.4422(9) 0.2969(7)
N2 N -0.3175(4) 0.5039(11) 0.5946(8)
H37 H -0.28520 0.53030 0.62690
N3 N -0.3043(5) 0.5595(12) 0.7814(10)
N4 N 0.2735(4) 0.6816(10) -0.0982(8)
H38 H 0.28340 0.64990 -0.04520
N5 N 0.3921(4) 0.6319(13) -0.0150(9)
N6 N 0.2737(4) 0.3357(12) -0.0745(9)
H39 H 0.28370 0.31690 -0.01800
N7 N 0.3906(4) 0.2648(11) 0.0075(8)
O1 O -0.0843(3) 0.4901(9) 0.4323(7)
O2 O -0.3520(3) 0.4235(10) 0.4590(7)
O3 O -0.2620(4) 0.5782(13) 0.7471(8)
O4 O -0.3020(4) 0.5613(11) 0.8611(8)
O5 O 0.0599(3) 0.6303(8) 0.1165(6)
O6 O 0.1956(4) 0.749(1) -0.1965(7)
O7 O 0.3543(4) 0.5917(15) 0.0276(9)
O8 O 0.4420(4) 0.6379(15) 0.0204(8)
O9 O 0.0594(3) 0.3017(7) 0.1396(6)
O10 O 0.1963(4) 0.3899(11) -0.1784(7)
O11 O 0.3535(4) 0.2398(11) 0.0484(8)
O12 O 0.4390(4) 0.2542(13) 0.0434(8)
#END
