
#######################################################################
#
#                 Cambridge Crystallographic Data Centre
#                                CCDC
#
#######################################################################
#
# If this CIF has been generated from an entry in the Cambridge
# Structural Database, then it will include bibliographic, chemical,
# crystal, experimental, refinement or atomic coordinate data resulting
# from the CCDC's data processing and validation procedures.
#
#######################################################################

data_CSD_CIF_ZELCEY
_audit_creation_date 1996-05-02
_audit_creation_method CSD-ConQuest-V1
_database_code_CSD ZELCEY
_chemical_formula_sum 'C33 H39 N3 O12'
_chemical_formula_moiety
;
C33 H39 N3 O12
;
_journal_coden_Cambridge 182
_journal_year 1995
_journal_page_first 1789
_journal_name_full 'Chem.Commun. '
loop_
_publ_author_name
"A.C.Spivey"
"A.Capretta"
"C.S.Frampton"
"F.J.Leeper"
"A.R.Battersby"
_chemical_name_systematic
;
2,8-bis(2-Methoxycarbonylethyl)-3,7-bis(methoxycarbonylmethyl)-4-methyl-9-(1-p
henylethoxycarbonyl)-4,5-dihydropyrrin-1-(10H)-one
;
_chemical_melting_point 405.15
_cell_volume   3317.529
_exptl_crystal_colour 'yellow'
_exptl_crystal_density_diffrn 1.341
_exptl_special_details
;
Melting point range 405.15-406.65K

;
_diffrn_ambient_temperature ?
_diffrn_special_details
;
The study was carried out at room temperature,in the range 283-303K

;
#These two values have been output from a single CSD field.
_refine_ls_R_factor_gt 0.0616
_refine_ls_wR_factor_gt 0.0616
_symmetry_cell_setting monoclinic
_symmetry_space_group_name_H-M 'P 21/n'
_symmetry_Int_Tables_number 14
loop_
_symmetry_equiv_pos_site_id
_symmetry_equiv_pos_as_xyz
1 x,y,z
2 1/2-x,1/2+y,1/2-z
3 -x,-y,-z
4 -1/2+x,-1/2-y,-1/2+z
_cell_length_a 15.142(3)
_cell_length_b 14.636(3)
_cell_length_c 15.795(3)
_cell_angle_alpha 90
_cell_angle_beta 108.605(10)
_cell_angle_gamma 90
_cell_formula_units_Z 4
loop_
_atom_type_symbol
_atom_type_radius_bond
C 0.68
H 0.23
N 0.68
O 0.68
loop_
_atom_site_label
_atom_site_type_symbol
_atom_site_fract_x
_atom_site_fract_y
_atom_site_fract_z
O1 O 0.9552(1) 0.5680(1) 0.2469(1)
O2 O 0.8303(2) 0.6568(1) 0.4932(1)
O3 O 0.8763(2) 0.5255(1) 0.5630(1)
O4 O 0.6865(1) 0.3557(1) 0.3060(1)
O5 O 0.5365(1) 0.3954(1) 0.2526(1)
O6 O 0.9083(2) 0.4054(2) 0.0372(1)
O7 O 0.8772(1) 0.0410(1) 0.0974(1)
O8 O 0.8934(2) 0.0892(2) -0.0308(1)
O9 O 1.2200(1) 0.0680(1) 0.2628(1)
O10 O 1.2987(1) 0.1798(1) 0.3497(1)
O11 O 1.0082(1) 0.1532(1) 0.4501(1)
O12 O 0.8785(1) 0.2328(1) 0.4444(1)
N1 N 0.8637(1) 0.4679(1) 0.1405(1)
N2 N 0.9308(2) 0.4548(2) 0.1021(2)
N3 N 0.8442(1) 0.2751(1) 0.2684(1)
C1 C 0.8832(2) 0.5259(2) 0.2153(2)
C2 C 0.7996(2) 0.5255(2) 0.2423(2)
C3 C 0.7340(2) 0.4748(2) 0.1848(2)
C4 C 0.7671(2) 0.4327(2) 0.1126(2)
C5 C 0.7618(2) 0.3267(2) 0.1108(2)
C6 C 0.8371(2) 0.2765(2) 0.1803(2)
C7 C 0.9077(2) 0.2227(2) 0.1695(2)
C8 C 0.9602(2) 0.1874(2) 0.2542(2)
C9 C 0.9183(2) 0.2208(2) 0.3144(2)
C10 C 0.7971(2) 0.5774(2) 0.3230(2)
C11 C 0.8479(2) 0.5257(2) 0.4083(2)
C12 C 0.8496(2) 0.5780(2) 0.4904(2)
C13 C 0.8817(3) 0.5697(2) 0.6463(2)
C14 C 0.6352(2) 0.4623(2) 0.1838(2)
C15 C 0.6249(2) 0.3989(2) 0.2545(2)
C16 C 0.5199(2) 0.3406(2) 0.3225(2)
C17 C 0.7116(2) 0.4712(2) 0.0210(2)
C18 C 0.9218(2) 0.1977(2) 0.0827(2)
C19 C 0.8940(2) 0.1014(2) 0.0528(2)
C20 C 0.8703(3) -0.0028(3) -0.0656(2)
C21 C 1.0465(2) 0.1303(2) 0.2734(2)
C22 C 1.1354(2) 0.1873(2) 0.3073(2)
C23 C 1.2204(2) 0.1376(2) 0.3038(2)
C24 C 1.3837(2) 0.1387(2) 0.3426(2)
C25 C 0.9410(2) 0.1991(2) 0.4086(2)
C26 C 0.8984(2) 0.2172(2) 0.5399(2)
C27 C 0.9562(2) 0.2963(2) 0.5893(2)
C28 C 0.8082(2) 0.2047(2) 0.5586(2)
C29 C 0.8058(2) 0.1474(2) 0.6280(2)
C30 C 0.7258(2) 0.1329(2) 0.6490(2)
C31 C 0.6443(2) 0.1736(3) 0.5993(2)
C32 C 0.6452(2) 0.2300(4) 0.5304(3)
C33 C 0.7258(2) 0.2456(3) 0.5097(2)
H1 H 0.69350 0.30810 0.11620
H2 H 0.76730 0.30310 0.04980
H3 H 0.79910 0.30270 0.29400
H4 H 0.73360 0.58970 0.32110
H5 H 0.83320 0.63760 0.32370
H6 H 0.91360 0.51700 0.41220
H7 H 0.82230 0.46640 0.41090
H8 H 0.88590 0.51470 0.69470
H9 H 0.82390 0.59860 0.63980
H10 H 0.93540 0.61400 0.66130
H11 H 0.59800 0.43860 0.12720
H12 H 0.60610 0.51570 0.18800
H13 H 0.54310 0.27330 0.31720
H14 H 0.44400 0.34470 0.30690
H15 H 0.55160 0.37080 0.38420
H16 H 0.74520 0.45080 -0.02380
H17 H 0.70850 0.53540 0.01870
H18 H 0.64490 0.44600 0.00410
H19 H 0.88910 0.24390 0.03230
H20 H 0.98660 0.19920 0.08800
H21 H 0.81080 -0.02060 -0.05980
H22 H 0.87120 -0.00030 -0.12670
H23 H 0.92040 -0.04050 -0.03660
H24 H 1.04940 0.09930 0.22400
H25 H 1.04820 0.08840 0.31560
H26 H 1.13160 0.24530 0.27250
H27 H 1.14580 0.20880 0.36940
H28 H 1.38160 0.14110 0.27640
H29 H 1.43940 0.17010 0.38510
H30 H 1.38660 0.07350 0.36380
H31 H 0.93920 0.15760 0.55370
H32 H 1.01340 0.29920 0.57240
H33 H 0.97100 0.28970 0.65840
H34 H 0.92100 0.35500 0.56960
H35 H 0.86130 0.11460 0.65920
H36 H 0.72560 0.09000 0.69850
H37 H 0.58140 0.15550 0.60630
H38 H 0.58880 0.25500 0.49710
H39 H 0.72240 0.28050 0.46200
#END
