
#######################################################################
#
#                 Cambridge Crystallographic Data Centre
#                                CCDC
#
#######################################################################
#
# If this CIF has been generated from an entry in the Cambridge
# Structural Database, then it will include bibliographic, chemical,
# crystal, experimental, refinement or atomic coordinate data resulting
# from the CCDC's data processing and validation procedures.
#
#######################################################################

data_CSD_CIF_ZELNUZ
_audit_creation_date 1996-05-02
_audit_creation_method CSD-ConQuest-V1
_database_code_CSD ZELNUZ
_chemical_formula_sum 'C19 H14 N2 O2'
_chemical_formula_moiety
;
C19 H14 N2 O2
;
_journal_coden_Cambridge 35
_journal_volume 60
_journal_year 1995
_journal_page_first 5250
_journal_name_full 'J.Org.Chem. '
loop_
_publ_author_name
"G.Zvilichovsky"
"V.Gurvich"
"S.Segev"
_chemical_name_systematic
;
5-Methyl-2-oxo-3,7-diphenylisoxazolo(2,3-a)pyrimidine
;
_chemical_melting_point 413.15
_cell_volume   1473.201
_exptl_crystal_colour 'orange'
_exptl_crystal_density_diffrn 1.36
_exptl_special_details
;
Light-sensitive

;
_diffrn_ambient_temperature ?
_diffrn_special_details
;
The study was carried out at room temperature,in the range 283-303K

;
#These two values have been output from a single CSD field.
_refine_ls_R_factor_gt 0.04
_refine_ls_wR_factor_gt 0.04
_symmetry_cell_setting monoclinic
_symmetry_space_group_name_H-M 'P 21/c'
_symmetry_Int_Tables_number 14
loop_
_symmetry_equiv_pos_site_id
_symmetry_equiv_pos_as_xyz
1 x,y,z
2 -x,1/2+y,1/2-z
3 -x,-y,-z
4 x,-1/2-y,-1/2+z
_cell_length_a 8.704(1)
_cell_length_b 10.720(1)
_cell_length_c 15.874(2)
_cell_angle_alpha 90
_cell_angle_beta 95.94(1)
_cell_angle_gamma 90
_cell_formula_units_Z 4
loop_
_atom_type_symbol
_atom_type_radius_bond
C 0.68
H 0.23
N 0.68
O 0.68
loop_
_atom_site_label
_atom_site_type_symbol
_atom_site_fract_x
_atom_site_fract_y
_atom_site_fract_z
O1 O 0.8329(2) 0.8665(1) 0.5602(1)
O2 O 0.7338(1) 0.6870(1) 0.60288(8)
N1 N 0.7232(1) 0.5678(1) 0.57192(8)
N2 N 0.7826(1) 0.4507(1) 0.45458(8)
C1 C 0.8149(2) 0.7582(2) 0.5436(1)
C2 C 0.6507(2) 0.4748(2) 0.6094(1)
C3 C 0.6432(2) 0.3660(2) 0.5641(1)
C4 C 0.7095(2) 0.3568(2) 0.4873(1)
C5 C 0.7884(2) 0.5591(1) 0.4971(1)
C6 C 0.8492(2) 0.6759(1) 0.4786(1)
C7 C 0.9346(2) 0.7118(1) 0.4076(1)
C8 C 0.9559(2) 0.6305(1) 0.3411(1)
C9 C 1.0361(2) 0.6683(2) 0.2748(1)
C10 C 1.0980(2) 0.7870(2) 0.2732(1)
C11 C 1.0796(2) 0.8672(2) 0.3386(1)
C12 C 0.9978(2) 0.8320(1) 0.4044(1)
C13 C 0.5900(2) 0.4927(1) 0.6918(1)
C14 C 0.6633(2) 0.5663(2) 0.7558(1)
C15 C 0.6057(2) 0.5736(2) 0.8331(1)
C16 C 0.4740(2) 0.5088(2) 0.8482(1)
C17 C 0.4014(2) 0.4352(2) 0.7854(1)
C18 C 0.4580(2) 0.4267(2) 0.7079(1)
C19 C 0.6992(3) 0.2381(2) 0.4382(1)
H1 H 0.59250 0.29560 0.58490
H2 H 0.91490 0.54840 0.34150
H3 H 1.04870 0.61210 0.22980
H4 H 1.15270 0.81260 0.22730
H5 H 1.12400 0.94810 0.33860
H6 H 0.98380 0.88990 0.44830
H7 H 0.75360 0.61170 0.74610
H8 H 0.65710 0.62370 0.87670
H9 H 0.43400 0.51520 0.90150
H10 H 0.31130 0.38990 0.79550
H11 H 0.40680 0.37540 0.66490
H12 H 0.64520 0.17760 0.46750
H13 H 0.64550 0.25250 0.38390
H14 H 0.80030 0.20850 0.43200
#END
