
#######################################################################
#
#                 Cambridge Crystallographic Data Centre
#                                CCDC
#
#######################################################################
#
# If this CIF has been generated from an entry in the Cambridge
# Structural Database, then it will include bibliographic, chemical,
# crystal, experimental, refinement or atomic coordinate data resulting
# from the CCDC's data processing and validation procedures.
#
#######################################################################

data_CSD_CIF_ZELPAK
_audit_creation_date 2017-11-06
_audit_creation_method CSD-ConQuest-V1
_database_code_CSD ZELPAK
_database_code_depnum_ccdc_archive 'CCDC 1576096'
_chemical_formula_sum 'C16 H15 N3 O5'
_chemical_formula_moiety
;
C16 H15 N3 O5
;
_journal_coden_Cambridge 1078
_journal_year 2017
_journal_name_full 'CSD Communication(Private Communication) '
loop_
_publ_author_name
"S.MANI"
"V.P.INNASIMUTHU"
_chemical_name_systematic
;
N'-[(3-ethoxy-2-hydroxyphenyl)methylidene]-4-nitrobenzohydrazide
;
_cell_volume   1539.943
_exptl_crystal_colour 'yellow'
_exptl_crystal_density_diffrn 1.42
_exptl_crystal_description 'plate'
_diffrn_ambient_temperature 293
#These two values have been output from a single CSD field.
_refine_ls_R_factor_gt 0.0524
_refine_ls_wR_factor_gt 0.0524
_symmetry_cell_setting orthorhombic
_symmetry_space_group_name_H-M 'P n a 21'
_symmetry_Int_Tables_number 33
loop_
_symmetry_equiv_pos_site_id
_symmetry_equiv_pos_as_xyz
1 x,y,z
2 -x,-y,1/2+z
3 1/2-x,1/2+y,1/2+z
4 1/2+x,1/2-y,z
_cell_length_a 14.1662(13)
_cell_length_b 16.8012(15)
_cell_length_c 6.4701(7)
_cell_angle_alpha 90
_cell_angle_beta 90
_cell_angle_gamma 90
_cell_formula_units_Z 4
loop_
_atom_type_symbol
_atom_type_radius_bond
C 0.68
H 0.23
N 0.68
O 0.68
loop_
_atom_site_label
_atom_site_type_symbol
_atom_site_fract_x
_atom_site_fract_y
_atom_site_fract_z
N1 N 0.12989(12) 0.45025(9) 0.2624(10)
O1 O 0.10606(9) 0.29741(8) 0.2612(9)
H1 H 0.08950 0.34320 0.28640
C1 C 0.20088(14) 0.29346(11) 0.2601(12)
C2 C -0.03634(14) 0.61872(11) 0.2603(14)
C3 C 0.25813(14) 0.36121(11) 0.2608(11)
C4 C -0.11475(16) 0.76743(12) 0.2607(12)
O2 O 0.17831(12) 0.15636(8) 0.2607(11)
C5 C -0.01857(17) 0.76070(13) 0.2613(17)
H2 H 0.01960 0.80580 0.26030
C6 C 0.24160(16) 0.21767(12) 0.2614(14)
N2 N -0.15693(15) 0.84729(11) 0.2644(14)
C7 C 0.21889(14) 0.44037(11) 0.2610(13)
H3 H 0.25880 0.48430 0.26020
C8 C 0.02043(16) 0.68585(13) 0.2633(16)
H4 H 0.08570 0.68020 0.26660
C9 C -0.13312(15) 0.62812(12) 0.2621(12)
H5 H -0.17170 0.58340 0.26500
C10 C -0.17343(15) 0.70257(13) 0.2597(14)
H6 H -0.23870 0.70870 0.25740
O3 O -0.24329(13) 0.85182(9) 0.2605(11)
C11 C 0.21458(19) 0.07678(13) 0.2569(18)
H7 H 0.25500 0.06760 0.37550
H8 H 0.25110 0.06800 0.13220
C12 C 0.39567(17) 0.27716(15) 0.2573(18)
H9 H 0.46090 0.27160 0.25060
C13 C -0.00020(15) 0.53502(11) 0.2637(13)
N3 N 0.09480(12) 0.52600(9) 0.2628(12)
H10 H 0.13180 0.56660 0.26250
O4 O -0.10513(13) 0.90486(9) 0.2633(13)
O5 O -0.05358(11) 0.47837(9) 0.2652(14)
C14 C 0.33837(18) 0.20975(14) 0.2611(15)
H11 H 0.36550 0.15940 0.26340
C15 C 0.1313(2) 0.02188(14) 0.2626(19)
H12 H 0.10080 0.02170 0.13000
H13 H 0.08750 0.03970 0.36600
H14 H 0.15210 -0.03100 0.29540
C16 C 0.35656(16) 0.35130(13) 0.2633(16)
H15 H 0.39550 0.39580 0.26910
#END
