
#######################################################################
#
#                 Cambridge Crystallographic Data Centre
#                                CCDC
#
#######################################################################
#
# If this CIF has been generated from an entry in the Cambridge
# Structural Database, then it will include bibliographic, chemical,
# crystal, experimental, refinement or atomic coordinate data resulting
# from the CCDC's data processing and validation procedures.
#
#######################################################################

data_CSD_CIF_ZELTOZ
_audit_creation_date 1996-05-01
_audit_creation_method CSD-ConQuest-V1
_database_code_CSD ZELTOZ
_database_code_depnum_ccdc_archive 'CCDC 1310951'
_chemical_formula_sum 'C25 H22 N2 O4'
_chemical_formula_moiety
;
C25 H22 N2 O4
;
_journal_coden_Cambridge 154
_journal_volume 48
_journal_year 1995
_journal_page_first 1511
_journal_name_full 'Aust.J.Chem. '
loop_
_publ_author_name
"S.G.Pyne"
"J.Safaei-G."
"B.W.Skelton"
"A.H.White"
_chemical_name_systematic
;
(3R,5R,7R)-6-Benzoyl-2-methyl-3,7-diphenyl-1,8-dioxa-2,6-diazaspiro(4.4)nonan-
9-one
;
_chemical_melting_point 423.15
_cell_volume   1086.968
_exptl_crystal_density_diffrn 1.27
_exptl_special_details
;
Melting point range 423.15-425.15K

;
_diffrn_ambient_temperature ?
_diffrn_special_details
;
The study was carried out at room temperature,in the range 283-303K

;
#These two values have been output from a single CSD field.
_refine_ls_R_factor_gt 0.041
_refine_ls_wR_factor_gt 0.041
loop_
_citation_database_id_CSD
_citation_special_details
ZELTEP "is a stereoisomer of this entry"
_symmetry_cell_setting triclinic
_symmetry_space_group_name_H-M 'P -1'
_symmetry_Int_Tables_number 2
loop_
_symmetry_equiv_pos_site_id
_symmetry_equiv_pos_as_xyz
1 x,y,z
2 -x,-y,-z
_cell_length_a 12.11(1)
_cell_length_b 10.361(4)
_cell_length_c 10.133(4)
_cell_angle_alpha 94.91(3)
_cell_angle_beta 108.24(5)
_cell_angle_gamma 112.26(5)
_cell_formula_units_Z 2
loop_
_atom_type_symbol
_atom_type_radius_bond
C 0.68
H 0.23
N 0.68
O 0.68
loop_
_atom_site_label
_atom_site_type_symbol
_atom_site_fract_x
_atom_site_fract_y
_atom_site_fract_z
O1 O 0.3258(2) 0.7039(2) 1.0357(2)
C1 C 0.3444(3) 0.8047(3) 1.1575(3)
C2 C 0.2554(2) 0.7344(2) 1.2296(3)
C3 C 0.1238(3) 0.6727(3) 1.1568(3)
C4 C 0.0424(4) 0.6089(4) 1.2242(4)
C5 C 0.0927(5) 0.6064(4) 1.3657(5)
C6 C 0.2219(5) 0.6671(4) 1.4388(4)
C7 C 0.3039(3) 0.7319(3) 1.3711(3)
N1 N 0.3227(2) 0.9206(2) 1.0963(2)
C8 C 0.3737(2) 1.0517(3) 1.1892(3)
O2 O 0.4506(2) 1.0731(2) 1.3091(2)
C9 C 0.3267(2) 1.1601(2) 1.1446(2)
C10 C 0.1969(3) 1.1246(3) 1.0905(3)
C11 C 0.1553(3) 1.2309(3) 1.0672(3)
C12 C 0.2410(3) 1.3695(3) 1.0946(3)
C13 C 0.3702(3) 1.4056(3) 1.1462(3)
C14 C 0.4136(3) 1.3017(3) 1.1737(3)
C15 C 0.2751(2) 0.8840(2) 0.9415(2)
C16 C 0.2891(2) 0.7452(3) 0.9138(3)
O3 O 0.2706(2) 0.6785(2) 0.8014(2)
C17 C 0.3422(2) 0.9945(3) 0.8694(3)
C18 C 0.2352(2) 0.9763(3) 0.7321(3)
C19 C 0.2614(2) 1.1080(3) 0.6717(2)
C20 C 0.3085(3) 1.1188(3) 0.5640(3)
C21 C 0.3392(3) 1.2422(3) 0.5134(3)
C22 C 0.3196(3) 1.3541(3) 0.5670(3)
C23 C 0.2730(3) 1.3447(3) 0.6743(3)
C24 C 0.2441(3) 1.2229(3) 0.7271(3)
N2 N 0.1264(2) 0.9439(2) 0.7787(2)
C25 C 0.0031(3) 0.8543(6) 0.6623(4)
O4 O 0.1417(1) 0.8469(2) 0.8753(2)
H1 H 0.434(2) 0.840(2) 1.221(2)
H2 H 0.090(3) 0.676(3) 1.054(3)
H3 H -0.046(3) 0.564(3) 1.172(3)
H4 H 0.033(3) 0.566(4) 1.408(4)
H5 H 0.259(3) 0.665(3) 1.536(3)
H6 H 0.393(3) 0.777(3) 1.418(3)
H7 H 0.139(2) 1.028(3) 1.074(2)
H8 H 0.065(3) 1.204(3) 1.036(3)
H9 H 0.209(3) 1.444(3) 1.075(3)
H10 H 0.431(3) 1.506(3) 1.161(3)
H11 H 0.500(2) 1.328(3) 1.213(3)
H12 H 0.413(2) 0.980(2) 0.852(2)
H13 H 0.378(2) 1.089(2) 0.926(2)
H14 H 0.220(2) 0.895(2) 0.660(2)
H15 H 0.319(2) 1.036(3) 0.525(3)
H16 H 0.370(2) 1.245(3) 0.437(3)
H17 H 0.340(2) 1.443(3) 0.532(3)
H18 H 0.263(3) 1.424(3) 0.714(3)
H19 H 0.211(2) 1.213(3) 0.805(3)
H20 H 0.012(3) 0.770(4) 0.621(4)
H21 H -0.004(3) 0.920(3) 0.600(4)
H22 H -0.063(3) 0.828(4) 0.696(3)
#END
