
#######################################################################
#
#                 Cambridge Crystallographic Data Centre
#                                CCDC
#
#######################################################################
#
# If this CIF has been generated from an entry in the Cambridge
# Structural Database, then it will include bibliographic, chemical,
# crystal, experimental, refinement or atomic coordinate data resulting
# from the CCDC's data processing and validation procedures.
#
#######################################################################

data_CSD_CIF_ZELTUF
_audit_creation_date 1996-05-01
_audit_creation_method CSD-ConQuest-V1
_database_code_CSD ZELTUF
_database_code_depnum_ccdc_archive 'CCDC 1310952'
_chemical_formula_sum 'C21 H20 N2 O4'
_chemical_formula_moiety
;
C21 H20 N2 O4
;
_journal_coden_Cambridge 154
_journal_volume 48
_journal_year 1995
_journal_page_first 1511
_journal_name_full 'Aust.J.Chem. '
loop_
_publ_author_name
"S.G.Pyne"
"J.Safaei-G."
"B.W.Skelton"
"A.H.White"
_chemical_name_systematic
;
(2R,3'a,4R)-3-Benzoyl-2-phenyltetrahydrospiro(oxazolidine-4,2'(3'H)-pyrrolo(1,
2-b)isoxazol)-5-one
;
_chemical_melting_point 415.15
_cell_volume   1795.291
_exptl_crystal_density_diffrn 1.35
_exptl_special_details
;
Melts with decomposition.

;
_diffrn_ambient_temperature ?
_diffrn_special_details
;
The study was carried out at room temperature,in the range 283-303K

;
#These two values have been output from a single CSD field.
_refine_ls_R_factor_gt 0.038
_refine_ls_wR_factor_gt 0.038
_symmetry_cell_setting orthorhombic
_symmetry_space_group_name_H-M 'P 21 21 21'
_symmetry_Int_Tables_number 19
loop_
_symmetry_equiv_pos_site_id
_symmetry_equiv_pos_as_xyz
1 x,y,z
2 1/2-x,-y,1/2+z
3 1/2+x,1/2-y,-z
4 -x,1/2+y,1/2-z
_cell_length_a 16.868(4)
_cell_length_b 13.294(2)
_cell_length_c 8.006(2)
_cell_angle_alpha 90
_cell_angle_beta 90
_cell_angle_gamma 90
_cell_formula_units_Z 4
loop_
_atom_type_symbol
_atom_type_radius_bond
C 0.68
H 0.23
N 0.68
O 0.68
loop_
_atom_site_label
_atom_site_type_symbol
_atom_site_fract_x
_atom_site_fract_y
_atom_site_fract_z
O1 O 0.42359(9) 0.5498(1) 0.7429(2)
C1 C 0.3785(1) 0.5118(2) 0.6043(3)
C2 C 0.4335(1) 0.4866(2) 0.4621(3)
C3 C 0.4619(2) 0.5601(2) 0.3544(4)
C4 C 0.5149(2) 0.5364(2) 0.2308(4)
C5 C 0.5428(2) 0.4391(2) 0.2149(4)
C6 C 0.5151(2) 0.3655(2) 0.3197(4)
C7 C 0.4600(2) 0.3893(2) 0.4425(3)
N1 N 0.32120(9) 0.5917(1) 0.5690(2)
C8 C 0.2586(1) 0.5687(1) 0.4673(3)
O2 O 0.2495(1) 0.4830(1) 0.4170(3)
C9 C 0.2054(1) 0.6518(2) 0.4133(3)
C10 C 0.2335(1) 0.7279(2) 0.3092(3)
C11 C 0.1825(2) 0.8007(2) 0.2525(3)
C12 C 0.1034(2) 0.7997(2) 0.3009(4)
C13 C 0.0758(1) 0.7254(2) 0.4031(4)
C14 C 0.1262(1) 0.6501(2) 0.4591(3)
C15 C 0.3316(1) 0.6781(1) 0.6769(3)
C16 C 0.3953(1) 0.6387(2) 0.7970(3)
O3 O 0.4201(1) 0.6803(1) 0.9175(2)
C17 C 0.2612(1) 0.7250(2) 0.7656(3)
C18 C 0.2526(1) 0.8308(2) 0.6907(3)
N2 N 0.3313(1) 0.8544(1) 0.6187(2)
O4 O 0.36768(8) 0.7584(1) 0.5792(2)
C19 C 0.2402(2) 0.9141(2) 0.8172(3)
C20 C 0.3219(2) 0.9290(2) 0.8931(4)
C21 C 0.3781(2) 0.9072(2) 0.7501(4)
H1 H 0.351(1) 0.457(1) 0.642(3)
H2 H 0.440(2) 0.630(2) 0.373(4)
H3 H 0.527(2) 0.583(2) 0.152(4)
H4 H 0.577(2) 0.424(2) 0.135(4)
H5 H 0.534(1) 0.295(2) 0.306(4)
H6 H 0.437(2) 0.343(2) 0.502(4)
H7 H 0.289(1) 0.727(2) 0.285(3)
H8 H 0.203(1) 0.852(2) 0.171(3)
H9 H 0.071(1) 0.847(2) 0.264(3)
H10 H 0.021(1) 0.717(2) 0.437(3)
H11 H 0.106(1) 0.596(2) 0.531(3)
H12 H 0.273(1) 0.726(2) 0.890(3)
H13 H 0.213(1) 0.688(2) 0.752(3)
H14 H 0.214(1) 0.830(2) 0.601(3)
H15 H 0.202(1) 0.889(2) 0.897(3)
H16 H 0.225(1) 0.982(2) 0.753(3)
H17 H 0.333(2) 0.995(2) 0.948(4)
H18 H 0.332(2) 0.879(2) 0.983(4)
H19 H 0.425(2) 0.876(2) 0.771(4)
H20 H 0.400(2) 0.966(2) 0.702(4)
#END
