
#######################################################################
#
#                 Cambridge Crystallographic Data Centre
#                                CCDC
#
#######################################################################
#
# If this CIF has been generated from an entry in the Cambridge
# Structural Database, then it will include bibliographic, chemical,
# crystal, experimental, refinement or atomic coordinate data resulting
# from the CCDC's data processing and validation procedures.
#
#######################################################################

data_CSD_CIF_ZELTEP
_audit_creation_date 1996-05-01
_audit_creation_method CSD-ConQuest-V1
_database_code_CSD ZELTEP
_database_code_depnum_ccdc_archive 'CCDC 1310949'
_chemical_formula_sum 'C25 H22 N2 O4'
_chemical_formula_moiety
;
C25 H22 N2 O4
;
_journal_coden_Cambridge 154
_journal_volume 48
_journal_year 1995
_journal_page_first 1511
_journal_name_full 'Aust.J.Chem. '
loop_
_publ_author_name
"S.G.Pyne"
"J.Safaei-G."
"B.W.Skelton"
"A.H.White"
_chemical_name_systematic
;
(3S,5R,7R)-6-Benzoyl-2-methyl-3,7-diphenyl-1,8-dioxa-2,6-diazaspiro(4.4)nonan-
9-one
;
_chemical_melting_point 439.15
_cell_volume   2135.301
_exptl_crystal_density_diffrn 1.29
_exptl_special_details
;
Melting point range 439.15-441.15K

;
_diffrn_ambient_temperature ?
_diffrn_special_details
;
The study was carried out at room temperature,in the range 283-303K

;
#These two values have been output from a single CSD field.
_refine_ls_R_factor_gt 0.036
_refine_ls_wR_factor_gt 0.036
loop_
_citation_database_id_CSD
_citation_special_details
ZELTOZ "is a stereoisomer of this entry"
_symmetry_cell_setting orthorhombic
_symmetry_space_group_name_H-M 'P 21 21 21'
_symmetry_Int_Tables_number 19
loop_
_symmetry_equiv_pos_site_id
_symmetry_equiv_pos_as_xyz
1 x,y,z
2 1/2-x,-y,1/2+z
3 1/2+x,1/2-y,-z
4 -x,1/2+y,1/2-z
_cell_length_a 16.215(6)
_cell_length_b 12.913(5)
_cell_length_c 10.198(5)
_cell_angle_alpha 90
_cell_angle_beta 90
_cell_angle_gamma 90
_cell_formula_units_Z 4
loop_
_atom_type_symbol
_atom_type_radius_bond
C 0.68
H 0.23
N 0.68
O 0.68
loop_
_atom_site_label
_atom_site_type_symbol
_atom_site_fract_x
_atom_site_fract_y
_atom_site_fract_z
O1 O 0.3257(2) 0.4576(2) 0.6887(3)
C1 C 0.3867(2) 0.5377(3) 0.6743(4)
C2 C 0.3472(2) 0.6283(3) 0.6063(4)
C3 C 0.3420(3) 0.6343(3) 0.4726(5)
C4 C 0.2984(3) 0.7126(4) 0.4125(6)
C5 C 0.2594(3) 0.7846(4) 0.4873(8)
C6 C 0.2646(3) 0.7808(4) 0.6204(8)
C7 C 0.3087(3) 0.7022(3) 0.6809(6)
N1 N 0.4534(2) 0.4877(2) 0.6021(3)
C8 C 0.5263(2) 0.5394(3) 0.5879(4)
O2 O 0.5345(2) 0.6239(2) 0.6389(3)
C9 C 0.5930(2) 0.4914(3) 0.5086(4)
C10 C 0.5883(3) 0.4899(3) 0.3729(4)
C11 C 0.6532(3) 0.4535(3) 0.2990(5)
C12 C 0.7220(3) 0.4153(3) 0.3603(5)
C13 C 0.7274(3) 0.4151(3) 0.4945(5)
C14 C 0.6635(3) 0.4552(3) 0.5687(5)
C15 C 0.4344(2) 0.3808(3) 0.5684(4)
C16 C 0.3494(3) 0.3692(3) 0.6311(4)
O3 O 0.3072(2) 0.2938(2) 0.6294(4)
C17 C 0.4924(3) 0.2944(3) 0.6094(4)
C18 C 0.5144(2) 0.2406(3) 0.4829(3)
C19 C 0.5281(2) 0.1247(3) 0.4928(3)
C20 C 0.4663(3) 0.0602(3) 0.5359(4)
C21 C 0.4805(3) -0.0450(3) 0.5510(5)
C22 C 0.5554(4) -0.0860(3) 0.5215(5)
C23 C 0.6162(4) -0.0241(4) 0.4745(5)
C24 C 0.6029(3) 0.0819(4) 0.4597(5)
N2 N 0.4403(2) 0.2612(2) 0.4028(3)
C25 C 0.4573(4) 0.2597(4) 0.2618(5)
O4 O 0.4253(1) 0.3726(2) 0.4310(2)
H1 H 0.405(2) 0.558(2) 0.770(3)
H2 H 0.367(2) 0.579(3) 0.421(4)
H3 H 0.293(3) 0.716(4) 0.307(6)
H4 H 0.225(3) 0.841(4) 0.452(5)
H5 H 0.242(3) 0.823(4) 0.685(5)
H6 H 0.311(3) 0.690(3) 0.770(4)
H7 H 0.544(2) 0.514(3) 0.335(3)
H8 H 0.648(2) 0.450(3) 0.197(4)
H9 H 0.767(2) 0.385(3) 0.311(4)
H10 H 0.774(2) 0.384(3) 0.540(4)
H11 H 0.664(3) 0.457(3) 0.665(4)
H12 H 0.537(2) 0.320(2) 0.651(3)
H13 H 0.463(2) 0.243(3) 0.663(3)
H14 H 0.562(2) 0.273(2) 0.444(3)
H15 H 0.417(2) 0.093(3) 0.572(4)
H16 H 0.436(2) -0.085(3) 0.584(4)
H17 H 0.567(3) -0.166(4) 0.531(4)
H18 H 0.670(3) -0.049(3) 0.458(4)
H19 H 0.639(3) 0.123(3) 0.434(4)
H20 H 0.473(3) 0.187(4) 0.250(5)
H21 H 0.405(2) 0.275(3) 0.217(4)
H22 H 0.506(3) 0.308(3) 0.242(4)
#END
