
#######################################################################
#
#                 Cambridge Crystallographic Data Centre
#                                CCDC
#
#######################################################################
#
# If this CIF has been generated from an entry in the Cambridge
# Structural Database, then it will include bibliographic, chemical,
# crystal, experimental, refinement or atomic coordinate data resulting
# from the CCDC's data processing and validation procedures.
#
#######################################################################

data_CSD_CIF_ZELVOB
_audit_creation_date 1996-05-01
_audit_creation_method CSD-ConQuest-V1
_database_code_CSD ZELVOB
_database_code_depnum_ccdc_archive 'CCDC 1310956'
_chemical_formula_sum 'C19 H16 N2 O4'
_chemical_formula_moiety
;
C19 H16 N2 O4
;
_journal_coden_Cambridge 154
_journal_volume 48
_journal_year 1995
_journal_page_first 1511
_journal_name_full 'Aust.J.Chem. '
loop_
_publ_author_name
"S.G.Pyne"
"J.Safaei-G."
"B.W.Skelton"
"A.H.White"
_chemical_name_systematic
;
(5S,7R)-6-Benzoyl-3-methyl-7-phenyl-1,8-dioxa-2,6-diazaspiro(4.4)non-2-en-9-on
e
;
_chemical_melting_point 455.15
_cell_volume   1633.836
_exptl_crystal_density_diffrn 1.37
_exptl_special_details
;
Melting point range 455.15-456.15K

;
_diffrn_ambient_temperature ?
_diffrn_special_details
;
The study was carried out at room temperature,in the range 283-303K

;
#These two values have been output from a single CSD field.
_refine_ls_R_factor_gt 0.049
_refine_ls_wR_factor_gt 0.049
_symmetry_cell_setting orthorhombic
_symmetry_space_group_name_H-M 'P 21 21 21'
_symmetry_Int_Tables_number 19
loop_
_symmetry_equiv_pos_site_id
_symmetry_equiv_pos_as_xyz
1 x,y,z
2 1/2-x,-y,1/2+z
3 1/2+x,1/2-y,-z
4 -x,1/2+y,1/2-z
_cell_length_a 12.298(5)
_cell_length_b 12.274(4)
_cell_length_c 10.824(5)
_cell_angle_alpha 90
_cell_angle_beta 90
_cell_angle_gamma 90
_cell_formula_units_Z 4
loop_
_atom_type_symbol
_atom_type_radius_bond
C 0.68
H 0.23
N 0.68
O 0.68
loop_
_atom_site_label
_atom_site_type_symbol
_atom_site_fract_x
_atom_site_fract_y
_atom_site_fract_z
O1 O 0.6745(3) 0.3400(3) 0.4179(3)
C1 C 0.7095(4) 0.2910(4) 0.3027(5)
C2 C 0.8300(4) 0.2788(4) 0.3031(5)
C3 C 0.8989(6) 0.3654(5) 0.3197(6)
C4 C 1.0089(5) 0.3543(7) 0.3209(7)
C5 C 1.0515(7) 0.2527(8) 0.3017(9)
C6 C 0.9860(6) 0.1640(6) 0.2862(8)
C7 C 0.8769(6) 0.1762(5) 0.2880(6)
N1 N 0.6678(3) 0.3700(3) 0.2100(3)
C8 C 0.6763(4) 0.3561(4) 0.0848(5)
O2 O 0.6527(3) 0.4285(3) 0.0139(3)
C9 C 0.7139(4) 0.2450(4) 0.0424(4)
C10 C 0.6436(5) 0.1585(5) 0.0461(6)
C11 C 0.6783(6) 0.0565(5) 0.0072(8)
C12 C 0.7825(7) 0.0442(5) -0.0346(7)
C13 C 0.8519(6) 0.1300(5) -0.0382(6)
C14 C 0.8174(5) 0.2328(5) 0.0000(6)
C15 C 0.6308(4) 0.4702(4) 0.2663(4)
C16 C 0.6352(5) 0.4416(4) 0.4035(5)
O3 O 0.6058(3) 0.4965(3) 0.4874(3)
C17 C 0.6896(4) 0.5745(4) 0.2313(5)
C18 C 0.6000(5) 0.6410(4) 0.1817(5)
C19 C 0.6115(6) 0.7542(5) 0.1313(6)
N2 N 0.5073(4) 0.5965(4) 0.1840(4)
O4 O 0.5191(3) 0.4899(3) 0.2374(3)
H1 H 0.661(3) 0.221(3) 0.288(4)
H2 H 0.862(4) 0.438(4) 0.339(4)
H3 H 1.062(7) 0.411(6) 0.328(7)
H4 H 1.118(5) 0.244(5) 0.293(6)
H5 H 1.012(4) 0.097(4) 0.274(5)
H6 H 0.830(4) 0.116(4) 0.264(5)
H7 H 0.568(4) 0.166(4) 0.085(4)
H8 H 0.619(6) 0.007(6) -0.003(7)
H9 H 0.822(6) -0.013(5) -0.058(6)
H10 H 0.933(5) 0.126(4) -0.062(5)
H11 H 0.870(4) 0.289(4) 0.001(5)
H12 H 0.727(3) 0.599(3) 0.303(4)
H13 H 0.750(3) 0.564(3) 0.169(4)
H14 H 0.670(3) 0.758(4) 0.066(4)
H15 H 0.625(4) 0.803(4) 0.193(5)
H16 H 0.534(5) 0.772(6) 0.093(5)
#END
