
#######################################################################
#
#                 Cambridge Crystallographic Data Centre
#                                CCDC
#
#######################################################################
#
# If this CIF has been generated from an entry in the Cambridge
# Structural Database, then it will include bibliographic, chemical,
# crystal, experimental, refinement or atomic coordinate data resulting
# from the CCDC's data processing and validation procedures.
#
#######################################################################

data_CSD_CIF_ZELXIX
_audit_creation_date 1996-05-01
_audit_creation_method CSD-ConQuest-V1
_database_code_CSD ZELXIX
_chemical_formula_sum 'C12 H11 N3 O3'
_chemical_formula_moiety
;
C12 H11 N3 O3
;
_journal_coden_Cambridge 154
_journal_volume 48
_journal_year 1995
_journal_page_first 1601
_journal_name_full 'Aust.J.Chem. '
loop_
_publ_author_name
"J.A.M.Guard"
"P.J.Steel"
_chemical_name_systematic
;
6-Methyl-5-(4-nitrobenzyl)pyridazin-3-one
;
_chemical_melting_point 500.15
_cell_volume   1114.919
_exptl_crystal_colour 'colorless'
_exptl_crystal_density_diffrn 1.461
_diffrn_ambient_temperature 130
#These two values have been output from a single CSD field.
_refine_ls_R_factor_gt 0.037
_refine_ls_wR_factor_gt 0.037
_symmetry_cell_setting monoclinic
_symmetry_space_group_name_H-M 'P 21/c'
_symmetry_Int_Tables_number 14
loop_
_symmetry_equiv_pos_site_id
_symmetry_equiv_pos_as_xyz
1 x,y,z
2 -x,1/2+y,1/2-z
3 -x,-y,-z
4 x,-1/2-y,-1/2+z
_cell_length_a 13.312(3)
_cell_length_b 7.269(1)
_cell_length_c 11.753(2)
_cell_angle_alpha 90
_cell_angle_beta 101.38(3)
_cell_angle_gamma 90
_cell_formula_units_Z 4
loop_
_atom_type_symbol
_atom_type_radius_bond
C 0.68
H 0.23
N 0.68
O 0.68
loop_
_atom_site_label
_atom_site_type_symbol
_atom_site_fract_x
_atom_site_fract_y
_atom_site_fract_z
N1 N 0.1288(1) 1.0201(2) 0.9897(1)
N2 N 0.0704(1) 0.9799(2) 0.8843(1)
C1 C 0.0404(1) 0.8097(2) 0.8431(2)
O1 O -0.0149(1) 0.7932(2) 0.7436(1)
C2 C 0.0770(1) 0.6607(3) 0.9210(2)
C3 C 0.1380(1) 0.6930(3) 1.0250(2)
C4 C 0.1629(1) 0.8823(3) 1.0582(2)
C5 C 0.2273(2) 0.9342(3) 1.1737(2)
C6 C 0.1799(1) 0.5358(3) 1.1057(2)
C7 C 0.2790(1) 0.4561(2) 1.0799(2)
C8 C 0.3699(1) 0.4635(3) 1.1624(2)
C9 C 0.4594(1) 0.3825(3) 1.1415(2)
C10 C 0.4560(1) 0.2949(2) 1.0360(2)
C11 C 0.3672(1) 0.2866(3) 0.9522(2)
C12 C 0.2792(1) 0.3673(3) 0.9751(2)
N3 N 0.5498(1) 0.2091(2) 1.0126(1)
O2 O 0.5453(1) 0.1316(2) 0.9185(1)
O3 O 0.6287(1) 0.2178(2) 1.0879(1)
H1 H 0.0498(16) 1.0799(33) 0.8429(21)
H2 H 0.0578(1) 0.5380(3) 0.8988(2)
H3 H 0.2938(4) 0.8719(14) 1.1838(5)
H4 H 0.1923(5) 0.8970(16) 1.2359(2)
H5 H 0.2379(8) 1.0677(3) 1.1767(4)
H6 H 0.1275(14) 0.4329(28) 1.0952(17)
H7 H 0.1926(15) 0.5747(30) 1.1885(21)
H8 H 0.3708(1) 0.5248(3) 1.2339(2)
H9 H 0.5211(1) 0.3872(3) 1.1981(2)
H10 H 0.3666(1) 0.2266(3) 0.8803(2)
H11 H 0.2178(1) 0.3620(3) 0.9181(2)
#END
