
#######################################################################
#
#                 Cambridge Crystallographic Data Centre
#                                CCDC
#
#######################################################################
#
# If this CIF has been generated from an entry in the Cambridge
# Structural Database, then it will include bibliographic, chemical,
# crystal, experimental, refinement or atomic coordinate data resulting
# from the CCDC's data processing and validation procedures.
#
#######################################################################

data_CSD_CIF_ZENHOP
_audit_creation_date 1996-01-18
_audit_creation_method CSD-ConQuest-V1
_database_code_CSD ZENHOP
_database_code_depnum_ccdc_archive 'CCDC 125842'
_chemical_formula_sum 'C16 H15 N1 O1'
_chemical_formula_moiety
;
C16 H15 N1 O1
;
_journal_coeditor_code "IUCr PA1171"
_journal_coden_Cambridge 591
_journal_volume 51
_journal_year 1995
_journal_page_first 2047
_journal_name_full 'Acta Crystallogr.,Sect.C:Cryst.Struct.Commun. '
loop_
_publ_author_name
"A.Chiaroni"
"G.Hanquet"
"M.Lusinchi"
"C.Riche"
_chemical_name_systematic
;
(1S,2R,3R,4S)-1,2-Epoxy-3-methyl-4-phenyl-1,2,3,4-tetrahydroisoquinoline
;
_chemical_melting_point 362
_cell_volume   1287.624
_exptl_crystal_colour 'Colorless'
_exptl_crystal_density_diffrn 1.22
_diffrn_ambient_temperature ?
_diffrn_special_details
;
The study was carried out at room temperature,in the range 283-303K

;
#These two values have been output from a single CSD field.
_refine_ls_R_factor_gt 0.045
_refine_ls_wR_factor_gt 0.045
_symmetry_cell_setting monoclinic
_symmetry_space_group_name_H-M 'P 21'
_symmetry_Int_Tables_number 4
loop_
_symmetry_equiv_pos_site_id
_symmetry_equiv_pos_as_xyz
1 x,y,z
2 -x,1/2+y,-z
_cell_length_a 9.130(7)
_cell_length_b 15.082(12)
_cell_length_c 9.506(7)
_cell_angle_alpha 90
_cell_angle_beta 100.36(3)
_cell_angle_gamma 90
_cell_formula_units_Z 4
loop_
_atom_type_symbol
_atom_type_radius_bond
C 0.68
H 0.23
N 0.68
O 0.68
loop_
_atom_site_label
_atom_site_type_symbol
_atom_site_fract_x
_atom_site_fract_y
_atom_site_fract_z
C1 C 0.4714(6) 0.6709(4) 0.1106(6)
N1 N 0.3164(5) 0.6774(3) 0.1275(5)
C2 C 0.2353(5) 0.5913(4) 0.1190(5)
C3 C 0.3335(5) 0.5075(4) 0.1535(4)
C4 C 0.4652(5) 0.5084(4) 0.0764(4)
C5 C 0.5242(6) 0.4333(4) 0.0259(6)
C6 C 0.6494(6) 0.4381(5) -0.0369(7)
C7 C 0.7175(6) 0.5174(6) -0.0525(7)
C8 C 0.6583(7) 0.5938(5) -0.0039(7)
C9 C 0.5346(6) 0.5897(4) 0.0615(5)
O1 O 0.4445(4) 0.6745(3) 0.2533(4)
C10 C 0.1203(7) 0.5987(4) 0.2151(7)
C11 C 0.2404(5) 0.4231(3) 0.1276(5)
C12 C 0.2467(6) 0.3606(4) 0.2338(5)
C13 C 0.1644(7) 0.2831(4) 0.2129(6)
C14 C 0.0742(6) 0.2669(4) 0.0848(7)
C15 C 0.0660(6) 0.3285(5) -0.0225(6)
C16 C 0.1499(6) 0.4056(4) -0.0024(5)
C17 C -0.0686(6) 1.0610(4) 0.3814(7)
N2 N 0.0785(5) 1.0814(3) 0.4530(6)
C18 C 0.1703(5) 1.0051(4) 0.5157(6)
C19 C 0.1265(5) 0.9136(3) 0.4490(5)
C20 C -0.0393(5) 0.8986(3) 0.4198(5)
C21 C -0.1024(6) 0.8150(4) 0.4180(5)
C22 C -0.2556(7) 0.8036(5) 0.3824(6)
C23 C -0.3469(6) 0.8771(5) 0.3527(7)
C24 C -0.2857(6) 0.9599(5) 0.3534(7)
C25 C -0.1334(5) 0.9710(4) 0.3870(5)
O2 O 0.0403(4) 1.0725(3) 0.2929(4)
C26 C 0.3326(6) 1.0274(5) 0.5100(8)
C27 C 0.2130(5) 0.8421(3) 0.5409(5)
C28 C 0.3154(5) 0.7894(4) 0.4886(6)
C29 C 0.4018(6) 0.7282(4) 0.5738(7)
C30 C 0.3817(6) 0.7155(4) 0.7135(7)
C31 C 0.2769(6) 0.7662(4) 0.7645(5)
C32 C 0.1929(5) 0.8287(4) 0.6805(5)
H1 H 0.50530 0.72290 0.06450
H2 H 0.18851 0.58174 0.01673
H3 H 0.37694 0.50820 0.25781
H4 H 0.47587 0.37457 0.03474
H5 H 0.69090 0.38257 -0.07158
H6 H 0.80799 0.52023 -0.09789
H7 H 0.70537 0.65246 -0.01624
H8 H 0.06337 0.54189 0.21216
H9 H 0.17133 0.61075 0.31542
H10 H 0.05017 0.64833 0.18117
H11 H 0.31240 0.37133 0.32838
H12 H 0.17106 0.23884 0.29208
H13 H 0.01480 0.21092 0.06929
H14 H -0.00124 0.31771 -0.11616
H15 H 0.14497 0.44898 -0.08272
H16 H -0.14670 1.11940 0.38130
H17 H 0.15257 0.99757 0.61581
H18 H 0.15468 0.91101 0.35219
H19 H -0.03674 0.76207 0.44270
H20 H -0.29968 0.74272 0.37828
H21 H -0.45751 0.86966 0.33080
H22 H -0.35170 1.01271 0.32940
H23 H 0.39807 0.97726 0.55153
H24 H 0.34378 1.03703 0.40844
H25 H 0.36212 1.08254 0.56648
H26 H 0.32685 0.79592 0.38645
H27 H 0.47858 0.69322 0.53499
H28 H 0.44201 0.67041 0.77599
H29 H 0.26158 0.75726 0.86511
H30 H 0.11742 0.86443 0.72015
#END
