
#######################################################################
#
#                 Cambridge Crystallographic Data Centre
#                                CCDC
#
#######################################################################
#
# If this CIF has been generated from an entry in the Cambridge
# Structural Database, then it will include bibliographic, chemical,
# crystal, experimental, refinement or atomic coordinate data resulting
# from the CCDC's data processing and validation procedures.
#
#######################################################################

data_CSD_CIF_ZENJUA
_audit_creation_date 2017-11-06
_audit_creation_method CSD-ConQuest-V1
_database_code_CSD ZENJUA
_database_code_depnum_ccdc_archive 'CCDC 1573630'
_chemical_formula_sum 'C38 H21 N7 O7'
_chemical_formula_moiety
;
C38 H21 N7 O7
;
_journal_coden_Cambridge 1048
_journal_volume 19
_journal_year 2017
_journal_page_first 5772
_journal_name_full 'Green Chemistry '
loop_
_publ_author_name
"S.K.Patra"
"K.Sahu"
"B.Patra"
"D.K.Sahoo"
"S.Mondal"
"P.Mukherjee"
"H.S.Biswal"
"Sanjib Kar"
_chemical_name_systematic
;
9,14,22-tris(4-nitrophenyl)-19,21,23,24-tetraazahexacyclo[16.3.1.1^5,8^.1^10,1
3^.0^4,21^.0^15,19^]tetracosa-1(22),2,4,6,8(24),9,11,13,15,17-decaen-20-one 
unknown solvate
;
_cell_volume   3455.006
_exptl_crystal_colour 'red'
_exptl_crystal_density_diffrn 1.322
_exptl_crystal_description 'needle'
_diffrn_ambient_temperature 296
_refine_special_details
;
Disordered solvent molecules were not modelled and the disordered density was 
taken into account using the MASK/OLEX2 program.
;
#These two values have been output from a single CSD field.
_refine_ls_R_factor_gt 0.0641
_refine_ls_wR_factor_gt 0.0641
_symmetry_cell_setting monoclinic
_symmetry_space_group_name_H-M 'P 21/c'
_symmetry_Int_Tables_number 14
loop_
_symmetry_equiv_pos_site_id
_symmetry_equiv_pos_as_xyz
1 x,y,z
2 -x,1/2+y,1/2-z
3 -x,-y,-z
4 x,-1/2-y,-1/2+z
_cell_length_a 16.1335(8)
_cell_length_b 16.7689(8)
_cell_length_c 13.7048(6)
_cell_angle_alpha 90
_cell_angle_beta 111.276(2)
_cell_angle_gamma 90
_cell_formula_units_Z 4
loop_
_atom_type_symbol
_atom_type_radius_bond
C 0.68
H 0.23
N 0.68
O 0.68
loop_
_atom_site_label
_atom_site_type_symbol
_atom_site_fract_x
_atom_site_fract_y
_atom_site_fract_z
O1 O 0.30618(15) 0.68007(13) 0.62456(17)
N1 N 0.25342(17) 0.76322(13) 0.44568(19)
H1 H 0.22060 0.73680 0.47160
N2 N 0.16242(18) 0.77745(15) 0.5557(2)
N3 N 0.17087(17) 0.62143(14) 0.6132(2)
N4 N 0.24530(18) 0.57783(14) 0.5062(2)
N5 N 0.1093(3) 0.15458(19) 0.6509(2)
O2 O 0.0342(2) 0.13272(16) 0.6354(2)
O3 O 0.1749(2) 0.11106(16) 0.6802(2)
C1 C 0.2529(2) 0.84507(17) 0.4375(2)
C2 C 0.3119(2) 0.72917(17) 0.4078(2)
N6 N 0.1823(3) 1.22589(19) 0.3941(3)
O4 O 0.1096(3) 1.25734(16) 0.3637(2)
C3 C 0.2941(2) 0.58101(17) 0.4394(2)
C4 C 0.3900(2) 0.62480(16) 0.3481(2)
C5 C 0.3289(2) 0.64690(17) 0.4042(2)
C6 C 0.2061(2) 0.89381(17) 0.4839(2)
C7 C 0.1647(2) 0.85886(17) 0.5479(2)
O5 O 0.2502(3) 1.26121(16) 0.4022(3)
N7 N 0.5585(3) 0.5486(2) 0.1910(4)
C8 C 0.1334(2) 0.67660(18) 0.6600(2)
C9 C 0.2018(2) 0.98045(16) 0.4668(2)
C10 C 0.1209(2) 1.02010(18) 0.4378(2)
H2 H 0.07020 0.99170 0.43370
C11 C 0.1408(2) 0.54523(18) 0.6246(3)
C12 C 0.3481(2) 0.79357(18) 0.3689(2)
H3 H 0.39020 0.78870 0.33750
C13 C 0.3123(2) 0.86282(19) 0.3844(2)
H4 H 0.32410 0.91320 0.36420
C14 C 0.1495(2) 0.39665(19) 0.5929(3)
C15 C 0.3703(2) 0.6438(2) 0.2443(2)
H5 H 0.31960 0.67360 0.20910
C16 C 0.2138(2) 0.50000(18) 0.5093(3)
C17 C 0.1361(2) 0.75912(19) 0.6365(2)
C18 C 0.1138(2) 1.10005(19) 0.4150(3)
H6 H 0.05920 1.12590 0.39570
C19 C 0.1668(2) 0.48205(19) 0.5743(3)
C20 C 0.1342(2) 0.8923(2) 0.6264(2)
H7 H 0.12770 0.94620 0.63790
C21 C 0.1231(3) 0.23969(19) 0.6315(2)
C22 C 0.0519(3) 0.2901(2) 0.5990(3)
H8 H -0.00480 0.27190 0.59010
C23 C 0.2465(3) 0.6326(2) 0.5870(3)
O6 O 0.6265(2) 0.5129(2) 0.2414(3)
C24 C 0.0881(2) 0.5531(2) 0.6845(3)
H9 H 0.06090 0.51170 0.70680
C25 C 0.1893(3) 1.14082(18) 0.4216(3)
C26 C 0.5002(2) 0.5769(2) 0.2452(3)
C27 C 0.1172(2) 0.8310(2) 0.6797(3)
H10 H 0.09670 0.83490 0.73470
C28 C 0.0830(2) 0.6331(2) 0.7053(3)
H11 H 0.05100 0.65460 0.74350
C29 C 0.2768(2) 1.02458(18) 0.4756(3)
H12 H 0.33220 0.99990 0.49890
C30 C 0.4686(2) 0.5836(2) 0.4003(3)
H13 H 0.48400 0.57220 0.47110
O7 O 0.5348(2) 0.5626(2) 0.0981(3)
C31 C 0.2902(2) 0.50200(19) 0.4011(3)
H14 H 0.31610 0.48490 0.35420
C32 C 0.2193(2) 0.3441(2) 0.6257(3)
H15 H 0.27610 0.36200 0.63440
C33 C 0.2072(3) 0.2645(2) 0.6464(3)
H16 H 0.25500 0.22940 0.66970
C34 C 0.4247(2) 0.6191(2) 0.1909(3)
H17 H 0.41020 0.63100 0.12030
C35 C 0.2429(3) 0.4547(2) 0.4433(3)
H18 H 0.23190 0.40060 0.42990
C36 C 0.2706(3) 1.10472(19) 0.4505(3)
H19 H 0.32070 1.13350 0.45320
C37 C 0.0663(2) 0.3689(2) 0.5794(3)
H20 H 0.01830 0.40380 0.55670
C38 C 0.5235(3) 0.5595(2) 0.3503(3)
H21 H 0.57570 0.53200 0.38630
#END
