
#######################################################################
#
#                 Cambridge Crystallographic Data Centre
#                                CCDC
#
#######################################################################
#
# If this CIF has been generated from an entry in the Cambridge
# Structural Database, then it will include bibliographic, chemical,
# crystal, experimental, refinement or atomic coordinate data resulting
# from the CCDC's data processing and validation procedures.
#
#######################################################################

data_CSD_CIF_ZENKIM
_audit_creation_date 1996-01-18
_audit_creation_method CSD-ConQuest-V1
_database_code_CSD ZENKIM
_database_code_depnum_ccdc_archive 'CCDC 125758'
_chemical_formula_sum 'C12 H9 N1 O2'
_chemical_formula_moiety
;
C12 H9 N1 O2
;
_journal_coeditor_code "IUCr AB1254"
_journal_coden_Cambridge 591
_journal_volume 51
_journal_year 1995
_journal_page_first 2071
_journal_name_full 'Acta Crystallogr.,Sect.C:Cryst.Struct.Commun. '
loop_
_publ_author_name
"Rajnikant"
"D.Watkin"
"G.Tranter"
_chemical_name_systematic
;
3-Nitrobiphenyl
;
_cell_volume   2027.568
_exptl_crystal_colour 'white'
_exptl_crystal_density_diffrn 1.305
_diffrn_ambient_temperature ?
_diffrn_special_details
;
The study was carried out at room temperature,in the range 283-303K

;
#These two values have been output from a single CSD field.
_refine_ls_R_factor_gt 0.045
_refine_ls_wR_factor_gt 0.045
_symmetry_cell_setting orthorhombic
_symmetry_space_group_name_H-M 'P 21 21 21'
_symmetry_Int_Tables_number 19
loop_
_symmetry_equiv_pos_site_id
_symmetry_equiv_pos_as_xyz
1 x,y,z
2 1/2-x,-y,1/2+z
3 1/2+x,1/2-y,-z
4 -x,1/2+y,1/2-z
_cell_length_a 7.414(2)
_cell_length_b 11.981(2)
_cell_length_c 22.826(6)
_cell_angle_alpha 90
_cell_angle_beta 90
_cell_angle_gamma 90
_cell_formula_units_Z 8
loop_
_atom_type_symbol
_atom_type_radius_bond
C 0.68
H 0.23
N 0.68
O 0.68
loop_
_atom_site_label
_atom_site_type_symbol
_atom_site_fract_x
_atom_site_fract_y
_atom_site_fract_z
C1 C 0.060(1) -0.1518(6) -0.0779(3)
C2 C 0.080(1) -0.0706(6) -0.1201(3)
C3 C 0.064(1) -0.0993(7) -0.1784(3)
C4 C 0.029(1) -0.2052(7) -0.1975(4)
C5 C 0.008(1) -0.2860(7) -0.1549(4)
C6 C 0.025(1) -0.2598(6) -0.0961(4)
C7 C 0.077(1) -0.1243(6) -0.0140(3)
C8 C 0.177(1) -0.0342(6) 0.0050(3)
C9 C 0.192(1) -0.0087(7) 0.0641(4)
C10 C 0.104(1) -0.0739(8) 0.1052(4)
C11 C 0.000(1) -0.1627(7) 0.0870(3)
C12 C -0.014(1) -0.1885(6) 0.0284(3)
N1 N 0.082(1) -0.0094(7) -0.2219(4)
O1 O 0.085(1) -0.0342(6) -0.2736(3)
O2 O 0.094(1) 0.0866(6) -0.2058(3)
C13 C 0.081(1) 0.4066(6) 0.0742(3)
C14 C 0.055(1) 0.3249(6) 0.1181(3)
C15 C 0.048(1) 0.3547(7) 0.1750(3)
C16 C 0.067(1) 0.4638(8) 0.1936(4)
C17 C 0.090(1) 0.5430(7) 0.1527(4)
C18 C 0.097(1) 0.5154(6) 0.0937(4)
C19 C 0.087(1) 0.3755(6) 0.0111(3)
C20 C 0.005(1) 0.2799(6) -0.0086(3)
C21 C 0.013(1) 0.2503(6) -0.0683(3)
C22 C 0.103(1) 0.3163(7) -0.1066(3)
C23 C 0.187(1) 0.4123(7) -0.0882(3)
C24 C 0.178(1) 0.4413(6) -0.0296(3)
N2 N 0.022(1) 0.2667(7) 0.2187(3)
O3 O -0.003(1) 0.1725(6) 0.2024(3)
O4 O 0.019(1) 0.2922(6) 0.2703(3)
H1 H 0.10220 0.00840 -0.10840
H2 H 0.02660 -0.22520 -0.24040
H3 H -0.02960 -0.36480 -0.16620
H4 H 0.01100 -0.32030 -0.06620
H5 H 0.24170 0.01400 -0.02390
H6 H 0.26880 0.05470 0.07790
H7 H 0.11880 -0.05690 0.14790
H8 H -0.06930 -0.20700 0.11670
H9 H -0.09090 -0.25420 0.01590
H10 H 0.04360 0.24490 0.10700
H11 H 0.06730 0.48390 0.23620
H12 H 0.09970 0.62370 0.16530
H13 H 0.10990 0.57660 0.06450
H14 H -0.06270 0.23080 0.02010
H15 H -0.04840 0.17840 -0.08260
H16 H 0.10330 0.29570 -0.14860
H17 H 0.25700 0.46020 -0.11750
H18 H 0.24320 0.51050 -0.01560
#END
