
#######################################################################
#
#                 Cambridge Crystallographic Data Centre
#                                CCDC
#
#######################################################################
#
# If this CIF has been generated from an entry in the Cambridge
# Structural Database, then it will include bibliographic, chemical,
# crystal, experimental, refinement or atomic coordinate data resulting
# from the CCDC's data processing and validation procedures.
#
#######################################################################

data_CSD_CIF_ZENPAJ
_audit_creation_date 1996-01-18
_audit_creation_method CSD-ConQuest-V1
_database_code_CSD ZENPAJ
_database_code_depnum_ccdc_archive 'CCDC 125760'
_chemical_formula_sum 'C3 H5 N1 O3'
_chemical_formula_moiety
;
C3 H5 N1 O3
;
_journal_coeditor_code "IUCr AB1262"
_journal_coden_Cambridge 591
_journal_volume 51
_journal_year 1995
_journal_page_first 2111
_journal_name_full 'Acta Crystallogr.,Sect.C:Cryst.Struct.Commun. '
loop_
_publ_author_name
"J.K.Maurin"
_chemical_name_systematic
;
2-Hydroxyiminopropanoic acid
;
_chemical_name_common
;
pyruvic acid oxime
;
_chemical_melting_point 453
_cell_volume    918.283
_exptl_crystal_colour 'Colorless'
_exptl_crystal_density_diffrn 1.491
_exptl_special_details
;
Melts with decomposition.

;
_diffrn_ambient_temperature ?
_diffrn_special_details
;
The study was carried out at room temperature,in the range 283-303K

;
_refine_special_details
;
The H atoms of the methyl groups are disordered.

;
#These two values have been output from a single CSD field.
_refine_ls_R_factor_gt 0.0393
_refine_ls_wR_factor_gt 0.0393
_symmetry_cell_setting triclinic
_symmetry_space_group_name_H-M 'P -1'
_symmetry_Int_Tables_number 2
loop_
_symmetry_equiv_pos_site_id
_symmetry_equiv_pos_as_xyz
1 x,y,z
2 -x,-y,-z
_cell_length_a 8.313(5)
_cell_length_b 9.717(5)
_cell_length_c 12.151(4)
_cell_angle_alpha 70.86(4)
_cell_angle_beta 88.56(4)
_cell_angle_gamma 82.11(5)
_cell_formula_units_Z 8
loop_
_atom_type_symbol
_atom_type_radius_bond
C 0.68
H 0.23
N 0.68
O 0.68
loop_
_atom_site_label
_atom_site_type_symbol
_atom_site_fract_x
_atom_site_fract_y
_atom_site_fract_z
N1 N 0.1484(2) 0.1133(2) 0.37383(13)
O1 O 0.1831(2) 0.0731(2) 0.49130(11)
H1 H 0.2642(42) 0.0071(38) 0.4995(29)
O2 O -0.1154(2) 0.36990(15) 0.17116(12)
O3 O 0.0693(2) 0.1866(2) 0.15574(12)
H2 H 0.0339(31) 0.2287(28) 0.0717(26)
C1 C -0.0137(2) 0.2643(2) 0.2137(2)
C2 C 0.0256(2) 0.2128(2) 0.3408(2)
C3 C -0.0763(3) 0.2809(2) 0.4163(2)
H3 H -0.0372(3) 0.2373(2) 0.4955(2)
H4 H -0.1869(3) 0.2649(2) 0.4114(2)
H5 H -0.0706(3) 0.3846(2) 0.3909(2)
H6? H -0.1593(3) 0.3539(2) 0.3697(2)
H7? H -0.0096(3) 0.3264(2) 0.4538(2)
H8? H -0.1259(3) 0.2066(2) 0.4743(2)
N2 N 0.5726(2) -0.2840(2) 0.26620(14)
O4 O 0.6884(2) -0.3971(2) 0.25968(13)
H9 H 0.6722(30) -0.3929(26) 0.1850(24)
O5 O 0.4282(2) -0.1314(2) 0.47422(12)
O6 O 0.3526(2) -0.0765(2) 0.28761(12)
H10 H 0.2732(40) -0.0062(36) 0.3089(28)
C4 C 0.4419(2) -0.1518(2) 0.3812(2)
C5 C 0.5652(2) -0.2718(2) 0.3675(2)
C6 C 0.6665(3) -0.3655(3) 0.4703(2)
H11 H 0.7399(3) -0.4375(3) 0.4490(2)
H12 H 0.5978(3) -0.4144(3) 0.5312(2)
H13 H 0.7275(3) -0.3055(3) 0.4974(2)
H14? H 0.6368(3) -0.3341(3) 0.5361(2)
H15? H 0.7790(3) -0.3572(3) 0.4539(2)
H16? H 0.6493(3) -0.4661(3) 0.4876(2)
N3 N 0.3297(2) -0.0971(2) -0.16378(13)
O7 O 0.2825(2) -0.0651(2) -0.27864(11)
H17 H 0.2044(39) 0.0160(36) -0.2870(27)
O8 O 0.6054(2) -0.3442(2) 0.03534(12)
O9 O 0.4225(2) -0.1590(2) 0.04902(12)
H18 H 0.4633(29) -0.1902(27) 0.1254(24)
C7 C 0.4983(2) -0.2436(2) -0.0067(2)
C8 C 0.4419(2) -0.2062(2) -0.1295(2)
C9 C 0.5183(3) -0.2939(2) -0.2014(2)
H19 H 0.4692(3) -0.2566(2) -0.2780(2)
H20 H 0.5025(3) -0.3949(2) -0.1658(2)
H21 H 0.6324(3) -0.2869(2) -0.2069(2)
H22? H 0.6003(3) -0.3690(2) -0.1558(2)
H23? H 0.5669(3) -0.2307(2) -0.2680(2)
H24? H 0.4370(3) -0.3387(2) -0.2269(2)
N4 N -0.0682(2) 0.3177(2) -0.06230(14)
O10 O -0.1823(2) 0.4333(2) -0.05748(14)
H25 H -0.1666(33) 0.4332(30) 0.0146(27)
O11 O 0.0624(2) 0.1553(2) -0.26732(12)
O12 O 0.1423(2) 0.1025(2) -0.08178(12)
H26 H 0.2102(38) 0.0232(34) -0.1003(26)
C10 C 0.0532(2) 0.1785(2) -0.1751(2)
C11 C -0.0647(2) 0.3016(2) -0.1618(2)
C12 C -0.1683(3) 0.3938(2) -0.2643(2)
H27 H -0.2382(3) 0.4686(2) -0.2440(2)
H28 H -0.2329(3) 0.3334(2) -0.2879(2)
H29 H -0.1006(3) 0.4392(2) -0.3273(2)
H30? H -0.1429(3) 0.3588(2) -0.3288(2)
H31? H -0.1483(3) 0.4941(2) -0.2849(2)
H32? H -0.2806(3) 0.3882(2) -0.2455(2)
#END
