
#######################################################################
#
#                 Cambridge Crystallographic Data Centre
#                                CCDC
#
#######################################################################
#
# If this CIF has been generated from an entry in the Cambridge
# Structural Database, then it will include bibliographic, chemical,
# crystal, experimental, refinement or atomic coordinate data resulting
# from the CCDC's data processing and validation procedures.
#
#######################################################################

data_CSD_CIF_ZENXUL
_audit_creation_date 1996-01-18
_audit_creation_method CSD-ConQuest-V1
_database_code_CSD ZENXUL
_database_code_depnum_ccdc_archive 'CCDC 125798'
_chemical_formula_sum 'C17 H15 N3 O6'
_chemical_formula_moiety
;
C17 H15 N3 O6
;
_journal_coeditor_code "IUCr JZ1028"
_journal_coden_Cambridge 591
_journal_volume 51
_journal_year 1995
_journal_page_first 2192
_journal_name_full 'Acta Crystallogr.,Sect.C:Cryst.Struct.Commun. '
loop_
_publ_author_name
"E.A.Soto Bustamante"
"T.Hanemann"
"W.Haase"
"I.Svoboda"
"H.Fuess"
_chemical_name_systematic
;
4-(2-(2',4'-Dinitrophenyl)ethenyl)phenylcarbamic acid ethyl ester
;
_cell_volume   3336.637
_exptl_crystal_colour 'Orange'
_exptl_crystal_density_diffrn 1.423
_diffrn_ambient_temperature ?
_diffrn_special_details
;
The study was carried out at room temperature,in the range 283-303K

;
#These two values have been output from a single CSD field.
_refine_ls_R_factor_gt 0.0435
_refine_ls_wR_factor_gt 0.0435
_symmetry_cell_setting monoclinic
_symmetry_space_group_name_H-M 'P 21/n'
_symmetry_Int_Tables_number 14
loop_
_symmetry_equiv_pos_site_id
_symmetry_equiv_pos_as_xyz
1 x,y,z
2 1/2-x,1/2+y,1/2-z
3 -x,-y,-z
4 -1/2+x,-1/2-y,-1/2+z
_cell_length_a 8.607(2)
_cell_length_b 33.918(8)
_cell_length_c 11.430(2)
_cell_angle_alpha 90
_cell_angle_beta 90.54(2)
_cell_angle_gamma 90
_cell_formula_units_Z 8
loop_
_atom_type_symbol
_atom_type_radius_bond
C 0.68
H 0.23
N 0.68
O 0.68
loop_
_atom_site_label
_atom_site_type_symbol
_atom_site_fract_x
_atom_site_fract_y
_atom_site_fract_z
C1 C 0.3817(3) 0.28776(9) 0.5676(3)
H1 H 0.4327(3) 0.31069(9) 0.5452(3)
C2 C 0.2328(3) 0.27978(9) 0.5274(3)
C3 C 0.1523(3) 0.24543(9) 0.5571(2)
C4 C 0.2334(3) 0.21920(9) 0.6300(2)
H2 H 0.1862(3) 0.19552(9) 0.6501(2)
C5 C 0.3802(3) 0.22704(10) 0.6731(2)
H3 H 0.4297(3) 0.2094(1) 0.7233(2)
C6 C 0.4518(3) 0.26141(9) 0.6404(2)
C7 C -0.0019(3) 0.23541(9) 0.5121(3)
H4 H -0.0389(3) 0.25008(9) 0.4490(3)
C8 C -0.0930(3) 0.20771(9) 0.5521(3)
H5 H -0.0574(3) 0.19352(9) 0.6166(3)
C9 C -0.2457(3) 0.19707(9) 0.5045(2)
C10 C -0.3224(3) 0.21935(9) 0.4197(2)
H6 H -0.2772(3) 0.24253(9) 0.3931(2)
C11 C -0.4635(3) 0.20780(9) 0.3746(2)
H7 H -0.5124(3) 0.22311(9) 0.3176(2)
C12 C -0.5336(3) 0.17350(9) 0.4132(2)
C13 C -0.4601(3) 0.15088(9) 0.4973(3)
H8 H -0.5050(3) 0.12753(9) 0.5230(3)
C14 C -0.3191(3) 0.16316(9) 0.5432(3)
H9 H -0.2719(3) 0.14821(9) 0.6018(3)
C15 C -0.7840(3) 0.13769(9) 0.4041(3)
C16 C -1.0305(3) 0.10992(11) 0.3596(3)
H10 H -1.0638(3) 0.11482(11) 0.4391(3)
H11 H -0.9977(3) 0.08264(11) 0.3534(3)
C17 C -1.1600(3) 0.11836(12) 0.2745(3)
H12 H -1.2469(3) 0.10161(12) 0.2913(3)
H13 H -1.1252(3) 0.11343(12) 0.1963(3)
H14 H -1.1909(3) 0.14545(12) 0.2815(3)
O1 O 0.6647(3) 0.24904(8) 0.7587(2)
O2 O 0.6769(3) 0.29864(8) 0.6426(2)
O3 O 0.2536(3) 0.32827(9) 0.3872(3)
O4 O 0.0256(3) 0.31420(8) 0.4461(3)
O5 O -0.7760(2) 0.11973(7) 0.4940(2)
O6 O -0.9043(2) 0.13617(7) 0.3290(2)
N1 N 0.6092(3) 0.27033(9) 0.6835(2)
N2 N 0.1652(3) 0.30978(9) 0.4492(3)
N3 N -0.6775(3) 0.16310(8) 0.3616(2)
H15 H -0.7035(34) 0.1763(9) 0.2984(26)
C18 C 1.2437(3) 0.11524(10) 1.0073(3)
H16 H 1.3142(3) 0.1354(1) 0.9928(3)
C19 C 1.1078(3) 0.11178(9) 0.9427(2)
C20 C 0.9964(3) 0.08247(9) 0.9636(2)
C21 C 1.0334(3) 0.05609(10) 1.0533(3)
H17 H 0.9637(3) 0.03599(10) 1.0702(3)
C22 C 1.1681(4) 0.05857(10) 1.1174(3)
H18 H 1.1894(4) 0.04049(10) 1.1766(3)
C23 C 1.2708(3) 0.08806(10) 1.0930(3)
C24 C 0.8469(3) 0.08094(9) 0.9027(3)
H19 H 0.8278(3) 0.10066(9) 0.8479(3)
C25 C 0.7361(3) 0.05468(9) 0.9168(3)
H20 H 0.7550(3) 0.03430(9) 0.9695(3)
C26 C 0.5857(3) 0.05498(9) 0.8563(2)
C27 C 0.5301(3) 0.08781(9) 0.7964(2)
H21 H 0.5875(3) 0.11102(9) 0.7978(2)
C28 C 0.3919(3) 0.08672(9) 0.7351(2)
H22 H 0.3571(3) 0.10917(9) 0.6961(2)
C29 C 0.3037(3) 0.05245(9) 0.7307(2)
C30 C 0.3552(3) 0.01969(9) 0.7917(3)
H23 H 0.2968(3) -0.00339(9) 0.7914(3)
C31 C 0.4939(3) 0.02154(10) 0.8531(3)
H24 H 0.5270(3) -0.00066(10) 0.8941(3)
C32 C 0.0444(3) 0.02876(10) 0.6695(3)
C33 C -0.2074(3) 0.01802(10) 0.5912(3)
H25 H -0.2535(3) 0.01744(10) 0.6683(3)
H26 H -0.1869(3) -0.00886(10) 0.5668(3)
C34 C -0.3134(4) 0.03785(13) 0.5061(4)
H27 H -0.4100(4) 0.02372(13) 0.5017(4)
H28 H -0.2662(4) 0.03823(13) 0.4303(4)
H29 H -0.3325(4) 0.06439(13) 0.5313(4)
O7 O 1.5082(4) 0.11666(13) 1.1329(3)
O8 O 1.4312(4) 0.07047(10) 1.2466(3)
O9 O 1.1396(3) 0.17381(8) 0.8670(2)
O10 O 1.0270(3) 0.13119(8) 0.7573(2)
O11 O 0.0329(2) 0.00104(7) 0.7326(2)
O12 O -0.0656(2) 0.04068(7) 0.5932(2)
N4 N 1.4153(4) 0.09172(12) 1.1625(3)
N5 N 1.0884(3) 0.14094(9) 0.8489(2)
N6 N 0.1680(3) 0.05332(8) 0.6615(2)
H30 H 0.1628(36) 0.0734(9) 0.6159(27)
#END
