
#######################################################################
#
#                 Cambridge Crystallographic Data Centre
#                                CCDC
#
#######################################################################
#
# If this CIF has been generated from an entry in the Cambridge
# Structural Database, then it will include bibliographic, chemical,
# crystal, experimental, refinement or atomic coordinate data resulting
# from the CCDC's data processing and validation procedures.
#
#######################################################################

data_CSD_CIF_ZENXOF
_audit_creation_date 1996-01-18
_audit_creation_method CSD-ConQuest-V1
_database_code_CSD ZENXOF
_database_code_depnum_ccdc_archive 'CCDC 125797'
_chemical_formula_sum 'C17 H16 N2 O4'
_chemical_formula_moiety
;
C17 H16 N2 O4
;
_journal_coeditor_code "IUCr JZ1028"
_journal_coden_Cambridge 591
_journal_volume 51
_journal_year 1995
_journal_page_first 2192
_journal_name_full 'Acta Crystallogr.,Sect.C:Cryst.Struct.Commun. '
loop_
_publ_author_name
"E.A.S.Bustamante"
"T.Hanemann"
"W.Haase"
"I.Svoboda"
"H.Fuess"
_chemical_name_systematic
;
4-(2-(4'-Nitrophenyl)ethenyl)phenylcarbamic acid ethyl ester
;
_chemical_melting_point 483.9
_cell_volume   1534.797
_exptl_crystal_colour 'Orange'
_exptl_crystal_density_diffrn 1.352
_diffrn_ambient_temperature ?
_diffrn_special_details
;
The study was carried out at room temperature,in the range 283-303K

;
#These two values have been output from a single CSD field.
_refine_ls_R_factor_gt 0.047
_refine_ls_wR_factor_gt 0.047
_symmetry_cell_setting monoclinic
_symmetry_space_group_name_H-M 'P 21/n'
_symmetry_Int_Tables_number 14
loop_
_symmetry_equiv_pos_site_id
_symmetry_equiv_pos_as_xyz
1 x,y,z
2 1/2-x,1/2+y,1/2-z
3 -x,-y,-z
4 -1/2+x,-1/2-y,-1/2+z
_cell_length_a 8.544(3)
_cell_length_b 13.193(1)
_cell_length_c 13.616(1)
_cell_angle_alpha 90
_cell_angle_beta 90.23(2)
_cell_angle_gamma 90
_cell_formula_units_Z 4
loop_
_atom_type_symbol
_atom_type_radius_bond
C 0.68
H 0.23
N 0.68
O 0.68
loop_
_atom_site_label
_atom_site_type_symbol
_atom_site_fract_x
_atom_site_fract_y
_atom_site_fract_z
N1 N -1.4242(2) 0.74871(15) 0.5524(2)
N2 N -0.1460(2) 0.93050(14) 0.19141(14)
H1 H -0.1290(27) 0.8881(17) 0.1490(17)
O1 O -1.5207(2) 0.6959(2) 0.51022(14)
O2 O -1.4452(2) 0.78436(15) 0.6341(2)
O3 O -0.0337(2) 1.06853(12) 0.26350(12)
O4 O 0.0890(2) 0.97819(11) 0.14675(10)
C1 C -1.2746(2) 0.7688(2) 0.50406(15)
C2 C -1.2433(2) 0.7222(2) 0.4167(2)
H2 H -1.3162(2) 0.6790(2) 0.3879(2)
C3 C -1.1021(2) 0.7405(2) 0.3720(2)
H3 H -1.0800(2) 0.7088(2) 0.3126(2)
C4 C -0.9918(2) 0.8047(2) 0.41323(15)
C5 C -1.0279(2) 0.8509(2) 0.5023(2)
H4 H -0.9556(2) 0.8945(2) 0.5312(2)
C6 C -1.1690(3) 0.8334(2) 0.5484(2)
H5 H -1.1922(3) 0.8644(2) 0.6079(2)
C7 C -0.8437(2) 0.8201(2) 0.3612(2)
H6 H -0.8306(2) 0.7832(2) 0.3036(2)
C8 C -0.7280(2) 0.8797(2) 0.3865(2)
H7 H -0.7412(2) 0.9179(2) 0.4432(2)
C9 C -0.5788(2) 0.8923(2) 0.3340(2)
C10 C -0.5291(2) 0.8281(2) 0.2595(2)
H8 H -0.5926(2) 0.7743(2) 0.2406(2)
C11 C -0.3873(2) 0.8426(2) 0.2130(2)
H9 H -0.3568(2) 0.7986(2) 0.1632(2)
C12 C -0.2901(2) 0.92217(14) 0.24007(14)
C13 C -0.3386(2) 0.9873(2) 0.3132(2)
H10 H -0.2761(2) 1.0419(2) 0.3315(2)
C14 C -0.4800(2) 0.9712(2) 0.3590(2)
H11 H -0.5102(2) 1.0153(2) 0.4087(2)
C15 C -0.0307(2) 0.9992(2) 0.20683(14)
C16 C 0.2173(2) 1.0495(2) 0.1483(2)
H12 H 0.2706(2) 1.0475(2) 0.2113(2)
H13 H 0.1792(2) 1.1178(2) 0.1372(2)
C17 C 0.3262(3) 1.0187(2) 0.0679(2)
H14 H 0.4231(14) 1.0713(11) 0.0659(13)
H15 H 0.2671(19) 1.0186(12) -0.0023(7)
H16 H 0.3696(19) 0.9435(5) 0.0836(13)
#END
