
#######################################################################
#
#                 Cambridge Crystallographic Data Centre
#                                CCDC
#
#######################################################################
#
# If this CIF has been generated from an entry in the Cambridge
# Structural Database, then it will include bibliographic, chemical,
# crystal, experimental, refinement or atomic coordinate data resulting
# from the CCDC's data processing and validation procedures.
#
#######################################################################

data_CSD_CIF_ZEQPAP
_audit_creation_date 2017-11-07
_audit_creation_method CSD-ConQuest-V1
_database_code_CSD ZEQPAP
_database_code_depnum_ccdc_archive 'CCDC 1525332'
_chemical_formula_sum 'C27 H25 N3 O4'
_chemical_formula_moiety
;
C27 H25 N3 O4
;
_journal_coden_Cambridge 1366
_journal_volume 359
_journal_year 2017
_journal_page_first 3545
_journal_name_full 'Adv.Synth.Catal. '
loop_
_publ_author_name
"Ning Zou"
"Ji-Wen Jiao"
"Yu Feng"
"Chun-Hua Chen"
"Cui Liang"
"Gui-Fa Su"
"Dong-Liang Mo"
_chemical_name_systematic
;
(2Z,6Z)-3,4-dimethyl-5-(4-nitrophenyl)-7-phenyl-8-p-tolyl-4,5-dihydro-1,2,8-ox
adiazonin-9(8H)-one
;
_cell_volume   2339.819
_exptl_crystal_density_diffrn 1.304
_diffrn_ambient_temperature 296.1
#These two values have been output from a single CSD field.
_refine_ls_R_factor_gt 0.0412
_refine_ls_wR_factor_gt 0.0412
_symmetry_cell_setting triclinic
_symmetry_space_group_name_H-M 'P -1'
_symmetry_Int_Tables_number 2
loop_
_symmetry_equiv_pos_site_id
_symmetry_equiv_pos_as_xyz
1 x,y,z
2 -x,-y,-z
_cell_length_a 8.208(3)
_cell_length_b 12.623(5)
_cell_length_c 22.944(9)
_cell_angle_alpha 89.974(6)
_cell_angle_beta 89.886(6)
_cell_angle_gamma 79.824(6)
_cell_formula_units_Z 4
loop_
_atom_type_symbol
_atom_type_radius_bond
C 0.68
H 0.23
N 0.68
O 0.68
loop_
_atom_site_label
_atom_site_type_symbol
_atom_site_fract_x
_atom_site_fract_y
_atom_site_fract_z
O1 O 0.6536(2) 0.80656(13) 0.42404(6)
O2 O 0.8508(2) 0.69046(16) 0.38810(7)
O3 O 0.01275(12) 0.49971(8) 0.17285(4)
N1 N 0.02587(14) 0.65547(10) 0.13005(5)
C1 C 0.1897(2) 0.57519(13) 0.02132(6)
H1 H 0.09410 0.54770 0.02920
C2 C 0.2524(2) 0.56983(14) -0.03441(7)
H2 H 0.20030 0.53780 -0.06380
C3 C 0.3925(2) 0.61193(14) -0.04669(7)
H3 H 0.43510 0.60820 -0.08440
C4 C 0.4688(2) 0.65939(15) -0.00321(7)
H4 H 0.56240 0.68870 -0.01170
C5 C 0.40809(18) 0.66409(13) 0.05305(7)
H5 H 0.46120 0.69590 0.08230
C6 C 0.26776(16) 0.62130(11) 0.06595(6)
C7 C 0.20209(16) 0.62103(11) 0.12620(6)
C8 C 0.29681(17) 0.58804(12) 0.17197(6)
H6 H 0.40870 0.56530 0.16400
C9 C 0.24684(17) 0.58263(12) 0.23505(6)
H7 H 0.13840 0.62880 0.23990
C10 C 0.23285(18) 0.46638(12) 0.25844(7)
H8 H 0.27330 0.46430 0.29870
C11 C 0.06026(19) 0.43957(12) 0.26247(7)
N2 N -0.05451(16) 0.45509(11) 0.22443(6)
C12 C -0.07498(17) 0.59811(12) 0.15892(6)
O4 O -0.21811(13) 0.62886(11) 0.16982(6)
C13 C 0.0175(3) 0.38529(18) 0.31711(9)
H9 H 0.01430 0.43400 0.34940
H10 H 0.09970 0.32250 0.32420
H11 H -0.08890 0.36460 0.31270
C14 C 0.3470(2) 0.37507(14) 0.2270(1)
H12 H 0.31990 0.37670 0.18630
H13 H 0.33270 0.30730 0.24330
H14 H 0.46000 0.38400 0.23170
C15 C 0.36932(17) 0.62638(11) 0.27415(6)
C16 C 0.31320(19) 0.69749(13) 0.31896(7)
H15 H 0.20010 0.72130 0.32360
C17 C 0.4222(2) 0.73377(14) 0.35696(7)
H16 H 0.38340 0.78180 0.38670
C18 C 0.5887(2) 0.69738(13) 0.34990(6)
C19 C 0.64895(19) 0.62730(14) 0.30605(7)
H17 H 0.76230 0.60350 0.30200
C20 C 0.53960(18) 0.59275(14) 0.26814(6)
H18 H 0.58000 0.54620 0.23800
N3 N 0.7055(2) 0.73414(14) 0.39047(6)
C21 C -0.04486(17) 0.75678(12) 0.10372(6)
C22 C -0.1747(2) 0.76332(14) 0.06511(7)
H19 H -0.21710 0.70190 0.05560
C23 C -0.2416(2) 0.86122(15) 0.04068(8)
H20 H -0.33010 0.86490 0.01510
C24 C -0.1804(2) 0.95435(14) 0.05330(7)
C25 C -0.0480(2) 0.94495(14) 0.09114(8)
H21 H -0.00310 1.00570 0.09980
C26 C 0.0196(2) 0.84796(13) 0.11647(7)
H22 H 0.10830 0.84400 0.14200
C27 C -0.2576(3) 1.06188(17) 0.02726(10)
H23 H -0.30450 1.05050 -0.01000
H24 H -0.17420 1.10580 0.02260
H25 H -0.34290 1.09740 0.05270
O5 O 1.1537(2) 0.30649(13) 0.07585(6)
O6 O 1.3507(2) 0.19064(16) 0.11204(7)
N4 N 0.52588(14) 0.15551(10) 0.36991(5)
O7 O 0.51245(12) -0.00011(8) 0.32719(4)
C28 C 0.81339(19) 0.19733(13) 0.18107(7)
H26 H 0.70020 0.22090 0.17650
C29 C 0.9224(2) 0.23377(13) 0.14293(7)
H27 H 0.88370 0.28170 0.11320
C30 C 1.0884(2) 0.19747(13) 0.15012(6)
C31 C 1.14896(19) 0.12756(14) 0.19390(7)
H28 H 1.26230 0.10410 0.19790
C32 C 1.03952(18) 0.09261(14) 0.23192(6)
H29 H 1.07970 0.04580 0.26200
C33 C 0.86958(17) 0.12648(11) 0.22588(6)
N5 N 1.2057(2) 0.23402(14) 0.10946(6)
C34 C 0.74709(17) 0.08255(12) 0.26493(6)
H30 H 0.63870 0.12870 0.26010
C35 C 0.73306(18) -0.03371(12) 0.24150(7)
H31 H 0.77390 -0.03590 0.20130
C36 C 0.56029(19) -0.06061(12) 0.23757(7)
N6 N 0.44545(16) -0.04494(11) 0.27569(6)
C37 C 0.42518(17) 0.09779(12) 0.34111(6)
C38 C 0.79666(17) 0.08811(12) 0.32796(6)
H32 H 0.90850 0.06530 0.33580
C39 C 0.70209(16) 0.12116(11) 0.37372(6)
C40 C 0.8467(2) -0.12474(14) 0.27301(10)
H33 H 0.95970 -0.11570 0.26840
H34 H 0.83290 -0.19260 0.25670
H35 H 0.81900 -0.12310 0.31370
C41 C 0.5171(3) -0.11485(18) 0.18287(9)
H36 H 0.41090 -0.13580 0.18750
H37 H 0.59940 -0.17750 0.17550
H38 H 0.51330 -0.06590 0.15070
O8 O 0.28164(13) 0.12897(11) 0.33019(6)
C42 C 0.45501(17) 0.25678(12) 0.39627(6)
C43 C 0.5195(2) 0.34781(13) 0.38354(7)
H39 H 0.60830 0.34380 0.35790
C44 C 0.4523(2) 0.44509(14) 0.40887(8)
H40 H 0.49760 0.50580 0.40020
C45 C 0.3195(2) 0.45439(14) 0.44675(7)
C46 C 0.2584(2) 0.36146(15) 0.45936(8)
H41 H 0.16970 0.36520 0.48500
C47 C 0.3254(2) 0.26352(14) 0.43491(7)
H42 H 0.28300 0.20220 0.44460
C48 C 0.2426(3) 0.56169(18) 0.47273(10)
H43 H 0.15130 0.59450 0.44900
H44 H 0.32380 0.60780 0.47430
H45 H 0.20370 0.55090 0.51140
C49 C 0.76771(16) 0.12147(11) 0.43397(6)
C50 C 0.68957(19) 0.07518(13) 0.47866(6)
H46 H 0.59410 0.04760 0.47090
C51 C 0.7525(2) 0.06988(14) 0.53436(7)
H47 H 0.70040 0.03770 0.56380
C52 C 0.8923(2) 0.11205(14) 0.54663(7)
H48 H 0.93450 0.10850 0.58430
C53 C 0.9691(2) 0.15924(15) 0.50321(7)
H49 H 1.06300 0.18820 0.51150
C54 C 0.90767(18) 0.16401(13) 0.44706(7)
H50 H 0.96080 0.19610 0.41780
#END
