
#######################################################################
#
#                 Cambridge Crystallographic Data Centre
#                                CCDC
#
#######################################################################
#
# If this CIF has been generated from an entry in the Cambridge
# Structural Database, then it will include bibliographic, chemical,
# crystal, experimental, refinement or atomic coordinate data resulting
# from the CCDC's data processing and validation procedures.
#
#######################################################################

data_CSD_CIF_ZESCEF
_audit_creation_date 1996-06-03
_audit_creation_method CSD-ConQuest-V1
_database_code_CSD ZESCEF
_chemical_formula_sum 'C32 H36 N4 O6'
_chemical_formula_moiety
;
C32 H36 N4 O6
;
_journal_coden_Cambridge 1096
_journal_volume 6
_journal_year 1994
_journal_page_first 2398
_journal_name_full 'Chem.Mater. '
loop_
_publ_author_name
"E.Hernandez-Gasio"
"M.Mas"
"E.Molins"
"C.Rovira"
"J.Veciano"
"J.J.Borras-Almenar"
"E.Coronado"
_chemical_name_systematic
;
2,4-Hexadiynylenedioxy-bis(2-(p-phenylene)-4,4,5,5-tetramethyl-4,5-dihydro-1H-
imidazol-1-oxy 3-N-oxide) diradical
;
_cell_volume   2932.217
_exptl_crystal_colour 'blue'
_exptl_crystal_density_diffrn 1.3
_diffrn_ambient_temperature ?
_diffrn_special_details
;
The study was carried out at room temperature,in the range 283-303K

;
#These two values have been output from a single CSD field.
_refine_ls_R_factor_gt 0.092
_refine_ls_wR_factor_gt 0.092
_symmetry_cell_setting monoclinic
_symmetry_space_group_name_H-M 'C 2/c'
_symmetry_Int_Tables_number 15
loop_
_symmetry_equiv_pos_site_id
_symmetry_equiv_pos_as_xyz
1 x,y,z
2 -x,y,1/2-z
3 1/2+x,1/2+y,z
4 1/2-x,1/2+y,1/2-z
5 -x,-y,-z
6 x,-y,-1/2+z
7 -1/2-x,-1/2-y,-z
8 -1/2+x,-1/2-y,-1/2+z
_cell_length_a 16.57(2)
_cell_length_b 16.116(2)
_cell_length_c 13.10(1)
_cell_angle_alpha 90
_cell_angle_beta 123.05(4)
_cell_angle_gamma 90
_cell_formula_units_Z 4
loop_
_atom_type_symbol
_atom_type_radius_bond
C 0.68
N 0.68
O 0.68
loop_
_atom_site_label
_atom_site_type_symbol
_atom_site_fract_x
_atom_site_fract_y
_atom_site_fract_z
O1 O 1.0489(4) 0.2976(3) 0.4834(5)
O2 O 0.8552(5) -0.0653(3) 0.2706(5)
O3 O 0.7468(5) 0.1336(3) -0.0325(5)
N1 N 0.8122(5) -0.0281(4) 0.1667(5)
N2 N 0.7587(4) 0.0645(4) 0.0239(5)
C1 C 0.9933(5) 0.2339(4) 0.4110(6)
C2 C 1.0066(5) 0.1501(4) 0.4425(6)
C3 C 0.9474(5) 0.0924(4) 0.3556(6)
C4 C 0.8763(4) 0.1153(4) 0.2375(5)
C5 C 0.8625(5) 0.1998(4) 0.2070(6)
C6 C 0.9218(5) 0.2578(4) 0.2946(6)
C7 C 0.8170(5) 0.0530(4) 0.1451(6)
C8 C 0.7614(6) -0.0763(5) 0.0524(7)
C9 C 0.7103(6) -0.1495(5) 0.0626(9)
C10 C 0.8372(7) -0.1092(6) 0.0305(9)
C11 C 0.6993(5) -0.0101(4) -0.0384(6)
C12 C 0.6790(9) -0.0151(6) -0.1638(7)
C13 C 0.6050(6) 0.0018(6) -0.0461(1)
C14 C 1.1172(6) 0.2785(6) 0.6084(7)
C15 C 1.0693(6) 0.2733(5) 0.6744(6)
C16 C 1.0251(6) 0.2740(4) 0.7226(6)
C16A C 0.9749(6) 0.2740(4) 0.7774(6)
C15A C 0.9307(6) 0.2733(5) 0.8256(6)
C14A C 0.8828(6) 0.2785(6) 0.8916(7)
O1A O 0.9511(4) 0.2976(3) 1.0166(5)
C1A C 1.0067(5) 0.2339(4) 1.0890(6)
C2A C 0.9934(5) 0.1501(4) 1.0575(6)
C3A C 1.0526(5) 0.0924(4) 1.1444(6)
C4A C 1.1237(4) 0.1153(4) 1.2625(5)
C5A C 1.1375(5) 0.1998(4) 1.2930(6)
C6A C 1.0782(5) 0.2578(4) 1.2054(6)
C7A C 1.1830(5) 0.0530(4) 1.3549(6)
N1A N 1.1878(5) -0.0281(4) 1.3333(5)
O2A O 1.1448(5) -0.0653(3) 1.2294(5)
C8A C 1.2386(6) -0.0763(5) 1.4476(7)
C9A C 1.2897(6) -0.1495(5) 1.4374(9)
C10A C 1.1628(7) -0.1092(6) 1.4695(9)
C11A C 1.3007(5) -0.0101(4) 1.5384(6)
N2A N 1.2413(4) 0.0645(4) 1.4761(5)
O3A O 1.2532(5) 0.1336(3) 1.5325(5)
C12A C 1.3210(9) -0.0151(6) 1.6638(7)
C13A C 1.3950(6) 0.0018(6) 1.5461(1)
#END
