
#######################################################################
#
#                 Cambridge Crystallographic Data Centre
#                                CCDC
#
#######################################################################
#
# If this CIF has been generated from an entry in the Cambridge
# Structural Database, then it will include bibliographic, chemical,
# crystal, experimental, refinement or atomic coordinate data resulting
# from the CCDC's data processing and validation procedures.
#
#######################################################################

data_CSD_CIF_ZESNEQ
_audit_creation_date 1996-06-03
_audit_creation_method CSD-ConQuest-V1
_database_code_CSD ZESNEQ
_database_code_depnum_ccdc_archive 'CCDC 1311367'
_chemical_formula_sum 'C13 H12 N4 O8'
_chemical_formula_moiety
;
C13 H12 N4 O8
;
_journal_coden_Cambridge 3
_journal_volume 49
_journal_year 1995
_journal_page_first 482
_journal_name_full 'Acta Chem.Scand. '
loop_
_publ_author_name
"L.Eberson"
"M.P.Hartshorn"
"O.Persson"
"W.T.Robinson"
"D.J.Timmerman-Vaughan"
_chemical_name_systematic
;
6,8-Dimethyl-r-1-nitro-t-4-trinitromethyl-1,4-dihydronaphthalene
;
_chemical_melting_point 387.65
_cell_volume    731.519
_exptl_crystal_colour 'colorless'
_exptl_crystal_density_diffrn 1.599
_exptl_special_details
;
Melting point range 387.65-388.65K

;
_diffrn_ambient_temperature 120
#These two values have been output from a single CSD field.
_refine_ls_R_factor_gt 0.0408
_refine_ls_wR_factor_gt 0.0408
loop_
_citation_database_id_CSD
_citation_special_details
ZESNOA "is a stereoisomer of this entry"
_symmetry_cell_setting triclinic
_symmetry_space_group_name_H-M 'P -1'
_symmetry_Int_Tables_number 2
loop_
_symmetry_equiv_pos_site_id
_symmetry_equiv_pos_as_xyz
1 x,y,z
2 -x,-y,-z
_cell_length_a 9.423(2)
_cell_length_b 9.830(2)
_cell_length_c 10.039(2)
_cell_angle_alpha 101.61(3)
_cell_angle_beta 112.01(3)
_cell_angle_gamma 112.23(3)
_cell_formula_units_Z 2
loop_
_atom_type_symbol
_atom_type_radius_bond
C 0.68
H 0.23
N 0.68
O 0.68
loop_
_atom_site_label
_atom_site_type_symbol
_atom_site_fract_x
_atom_site_fract_y
_atom_site_fract_z
O1 O 0.5679(3) 0.7006(3) 1.1590(2)
O2 O 0.7770(3) 0.9265(2) 1.2039(2)
O3 O 0.8187(3) 0.4510(2) 0.8640(2)
O4 O 0.6270(3) 0.3462(2) 0.6157(2)
O5 O 0.8052(3) 0.4760(2) 0.4694(2)
O6 O 0.7138(3) 0.6461(2) 0.5025(2)
O7 O 1.1068(3) 0.5570(2) 0.8285(2)
O8 O 1.1330(3) 0.7383(2) 0.7319(2)
N1 N 0.6934(4) 0.7805(3) 1.1469(3)
N2 N 0.7627(3) 0.4515(3) 0.7341(3)
N3 N 0.7875(3) 0.5737(3) 0.5484(3)
N4 N 1.0536(3) 0.6337(3) 0.7659(2)
C1 C 0.7429(4) 0.6889(3) 1.0453(3)
C2 C 0.6256(4) 0.6648(3) 0.8829(3)
C3 C 0.6809(4) 0.6960(3) 0.7845(3)
C4 C 0.8678(4) 0.7480(3) 0.8218(3)
C5 C 0.9961(4) 0.8109(3) 0.9964(3)
C6 C 1.1750(4) 0.9019(3) 1.0505(3)
C7 C 1.3006(4) 0.9576(3) 1.2063(3)
C8 C 1.2399(4) 0.9208(3) 1.3075(3)
C9 C 1.0619(4) 0.8328(3) 1.2595(3)
C10 C 0.9373(4) 0.7791(3) 1.1013(3)
C11 C 0.8687(4) 0.6056(3) 0.7231(3)
C12 C 1.4937(4) 1.0481(4) 1.2598(3)
C13 C 1.0102(4) 0.7976(4) 1.3790(3)
H1 H 0.7111(4) 0.5819(3) 1.0513(3)
H2 H 0.5035(4) 0.6245(3) 0.8486(3)
H3 H 0.5996(4) 0.6851(3) 0.6861(3)
H4 H 0.9066(4) 0.8370(3) 0.7869(3)
H5 H 1.2129(4) 0.9270(3) 0.9789(3)
H6 H 1.3240(4) 0.9576(3) 1.4146(3)
H7 H 1.5436(6) 0.9775(7) 1.2748(20)
H8 H 1.5539(5) 1.1403(12) 1.3590(11)
H9 H 1.5100(4) 1.0856(18) 1.1805(10)
H10 H 0.9895(23) 0.8812(12) 1.4247(15)
H11 H 1.1056(11) 0.7956(21) 1.4620(11)
H12 H 0.9020(14) 0.6932(10) 1.3281(5)
#END
