
#######################################################################
#
#                 Cambridge Crystallographic Data Centre
#                                CCDC
#
#######################################################################
#
# If this CIF has been generated from an entry in the Cambridge
# Structural Database, then it will include bibliographic, chemical,
# crystal, experimental, refinement or atomic coordinate data resulting
# from the CCDC's data processing and validation procedures.
#
#######################################################################

data_CSD_CIF_ZETKOB
_audit_creation_date 2018-03-22
_audit_creation_method CSD-ConQuest-V1
_database_code_CSD ZETKOB
_database_code_depnum_ccdc_archive 'CCDC 1817624'
_chemical_formula_sum 'C15 H23 N1 O3'
_chemical_formula_moiety
;
C15 H23 N1 O3
;
_journal_coden_Cambridge 35
_journal_volume 83
_journal_year 2018
_journal_page_first 3061
_journal_name_full 'J.Org.Chem. '
loop_
_publ_author_name
"B.M.Williams"
"D.Trauner"
_chemical_name_systematic
;
methyl 
7b-methyl-4-(propan-2-yl)-3,4,5,5a,6,7,7a,7b-octahydroindeno[7,1-cd][1,2]oxazo
le-5-carboxylate
;
_cell_volume   1428.670
_exptl_crystal_colour 'colorless'
_exptl_crystal_density_diffrn 1.234
_exptl_crystal_description 'rod'
_diffrn_ambient_temperature 103
#These two values have been output from a single CSD field.
_refine_ls_R_factor_gt 0.0307
_refine_ls_wR_factor_gt 0.0307
_symmetry_cell_setting monoclinic
_symmetry_space_group_name_H-M 'C 2'
_symmetry_Int_Tables_number 5
loop_
_symmetry_equiv_pos_site_id
_symmetry_equiv_pos_as_xyz
1 x,y,z
2 -x,y,-z
3 1/2+x,1/2+y,z
4 1/2-x,1/2+y,-z
_cell_length_a 22.4524(8)
_cell_length_b 6.2502(2)
_cell_length_c 10.4159(4)
_cell_angle_alpha 90
_cell_angle_beta 102.2005(13)
_cell_angle_gamma 90
_cell_formula_units_Z 4
loop_
_atom_type_symbol
_atom_type_radius_bond
C 0.68
H 0.23
N 0.68
O 0.68
loop_
_atom_site_label
_atom_site_type_symbol
_atom_site_fract_x
_atom_site_fract_y
_atom_site_fract_z
O1 O 0.28304(7) 0.0452(3) 0.86944(14)
O2 O 0.45365(7) 0.8727(3) 0.78460(16)
O3 O 0.49631(6) 0.5483(3) 0.79445(14)
N1 N 0.29537(8) 0.0426(3) 0.74031(17)
C1 C 0.29212(9) 0.2624(4) 0.9220(2)
H1 H 0.25700 0.30840 0.96050
C2 C 0.35203(10) 0.2835(4) 1.0223(2)
H2 H 0.36430 0.14450 1.06550
H3 H 0.34850 0.39050 1.09030
C3 C 0.39799(10) 0.3568(4) 0.9413(2)
H4 H 0.41210 0.23500 0.89480
H5 H 0.43370 0.42720 0.99750
C4 C 0.36069(9) 0.5160(3) 0.84409(19)
H6 H 0.35550 0.64990 0.89310
C5 C 0.29789(9) 0.4048(3) 0.8048(2)
C6 C 0.30277(9) 0.2337(3) 0.7058(2)
C7 C 0.32353(9) 0.2908(3) 0.58365(19)
H7 H 0.29440 0.39170 0.53040
H8 H 0.32570 0.16070 0.53060
C8 C 0.38704(9) 0.3954(3) 0.62245(19)
H9 H 0.41560 0.28320 0.66820
C9 C 0.38688(9) 0.5784(3) 0.72211(19)
H10 H 0.36180 0.69850 0.67560
C10 C 0.4514(1) 0.6586(4) 0.76992(19)
C11 C 0.24450(9) 0.5548(4) 0.7559(2)
H11 H 0.25090 0.63090 0.67770
H12 H 0.24150 0.65840 0.82480
H13 H 0.20670 0.47160 0.73370
C12 C 0.51407(10) 0.9603(4) 0.8302(2)
H14 H 0.51140 1.11630 0.83690
H15 H 0.53960 0.92350 0.76790
H16 H 0.53210 0.90050 0.91670
C13 C 0.41154(9) 0.4677(4) 0.5014(2)
H17 H 0.45290 0.53050 0.53510
C14 C 0.37286(12) 0.6416(4) 0.4191(2)
H18 H 0.39240 0.68610 0.34770
H19 H 0.36930 0.76500 0.47490
H20 H 0.33220 0.58470 0.38190
C15 C 0.41981(10) 0.2786(4) 0.4141(2)
H21 H 0.44380 0.32380 0.35050
H22 H 0.37980 0.22780 0.36730
H23 H 0.44110 0.16280 0.46860
#END
