
#######################################################################
#
#                 Cambridge Crystallographic Data Centre
#                                CCDC
#
#######################################################################
#
# If this CIF has been generated from an entry in the Cambridge
# Structural Database, then it will include bibliographic, chemical,
# crystal, experimental, refinement or atomic coordinate data resulting
# from the CCDC's data processing and validation procedures.
#
#######################################################################

data_CSD_CIF_ZEVGOZ
_audit_creation_date 2018-03-22
_audit_creation_method CSD-ConQuest-V1
_database_code_CSD ZEVGOZ
_database_code_depnum_ccdc_archive 'CCDC 1547596'
_chemical_formula_sum 'C24 H18 N4 O2'
_chemical_formula_moiety
;
C24 H18 N4 O2
;
_journal_coden_Cambridge 177
_journal_volume 16
_journal_year 2018
_journal_page_first 2527
_journal_name_full 'Org.Biomol.Chem. '
loop_
_publ_author_name
"A.K.Ratheesh"
"H.A.Sparkes"
"K.J.R.Prasad"
_chemical_name_systematic
;
2-amino-10-methyl-3-nitro-4-phenyl-6,11-dihydro-5H-benzo[a]carbazole-1-carboni
trile
;
_cell_volume    929.181
_exptl_crystal_colour 'orange'
_exptl_crystal_density_diffrn 1.41
_exptl_crystal_description 'block'
_diffrn_ambient_temperature 100
_diffrn_special_details
;
twin

;
#These two values have been output from a single CSD field.
_refine_ls_R_factor_gt 0.0525
_refine_ls_wR_factor_gt 0.0525
_symmetry_cell_setting triclinic
_symmetry_space_group_name_H-M 'P -1'
_symmetry_Int_Tables_number 2
loop_
_symmetry_equiv_pos_site_id
_symmetry_equiv_pos_as_xyz
1 x,y,z
2 -x,-y,-z
_cell_length_a 8.7409(5)
_cell_length_b 9.6037(6)
_cell_length_c 12.1665(7)
_cell_angle_alpha 72.299(4)
_cell_angle_beta 87.366(4)
_cell_angle_gamma 72.955(5)
_cell_formula_units_Z 2
loop_
_atom_type_symbol
_atom_type_radius_bond
C 0.68
H 0.23
N 0.68
O 0.68
loop_
_atom_site_label
_atom_site_type_symbol
_atom_site_fract_x
_atom_site_fract_y
_atom_site_fract_z
O1 O 0.6362(2) 0.6675(2) 0.06537(16)
O2 O 0.5399(2) 0.4861(2) 0.16386(17)
N1 N 0.5360(3) 0.8038(2) 0.63543(18)
N2 N 0.5944(3) 0.5935(2) 0.15629(19)
N3 N 0.3465(3) 0.5981(3) 0.3171(2)
N4 N 0.2489(3) 0.7065(2) 0.56034(19)
C1 C 0.6226(3) 0.7362(3) 0.4502(2)
C2 C 0.7541(3) 0.7210(3) 0.3770(2)
C3 C 0.9042(3) 0.7485(3) 0.4104(2)
H1 H 0.96940 0.65490 0.46450
H2 H 0.96500 0.77220 0.34200
C4 C 0.8750(3) 0.8745(3) 0.4636(2)
H3 H 0.97440 0.87060 0.49850
H4 H 0.83690 0.97250 0.40440
C5 C 0.7545(3) 0.8596(3) 0.5528(2)
C6 C 0.6371(3) 0.7940(3) 0.5445(2)
C7 C 0.7299(3) 0.9086(3) 0.6532(2)
C8 C 0.5915(3) 0.8730(3) 0.7026(2)
C9 C 0.5311(3) 0.9038(3) 0.8041(2)
C10 C 0.6158(3) 0.9721(3) 0.8541(2)
H5 H 0.57900 0.99590 0.92100
C11 C 0.7552(3) 1.0067(3) 0.8077(2)
H6 H 0.80900 1.05110 0.84510
C12 C 0.8137(3) 0.9760(3) 0.7078(2)
H7 H 0.90590 0.99920 0.67730
C13 C 0.3844(3) 0.8627(3) 0.8551(2)
H8 H 0.29710 0.90870 0.79820
H9 H 0.35640 0.89960 0.92060
H10 H 0.40590 0.75360 0.87920
C14 C 0.7453(3) 0.6710(3) 0.2816(2)
C15 C 0.8860(3) 0.6433(3) 0.2077(2)
C16 C 0.9270(3) 0.7644(3) 0.1283(2)
H11 H 0.86770 0.86450 0.12180
C17 C 1.0554(3) 0.7368(3) 0.0589(2)
H12 H 1.08170 0.81840 0.00610
C18 C 1.1453(3) 0.5880(3) 0.0676(2)
H13 H 1.23110 0.56970 0.02070
C19 C 1.1064(3) 0.4671(3) 0.1465(2)
H14 H 1.16640 0.36720 0.15320
C20 C 0.9770(3) 0.4952(3) 0.2162(2)
H15 H 0.95130 0.41340 0.26910
C21 C 0.6071(3) 0.6353(3) 0.2597(2)
C22 C 0.4778(3) 0.6398(3) 0.3335(2)
C23 C 0.4882(3) 0.6945(3) 0.4274(2)
C24 C 0.3552(3) 0.7040(3) 0.5011(2)
H16 H 0.461(4) 0.761(3) 0.652(3)
H17 H 0.341(4) 0.561(3) 0.257(3)
H18 H 0.264(4) 0.615(3) 0.362(3)
#END
