
#######################################################################
#
#                 Cambridge Crystallographic Data Centre
#                                CCDC
#
#######################################################################
#
# If this CIF has been generated from an entry in the Cambridge
# Structural Database, then it will include bibliographic, chemical,
# crystal, experimental, refinement or atomic coordinate data resulting
# from the CCDC's data processing and validation procedures.
#
#######################################################################

data_CSD_CIF_ZEVKUI
_audit_creation_date 2013-05-20
_audit_creation_method CSD-ConQuest-V1
_database_code_CSD ZEVKUI
_database_code_depnum_ccdc_archive 'CCDC 898333'
_chemical_formula_sum 'C24 H18 N2 O3'
_chemical_formula_moiety
;
C24 H18 N2 O3
;
_journal_coden_Cambridge 1220
_journal_volume 19
_journal_year 2013
_journal_page_first 4441
_journal_name_full 'Chem.-Eur.J. '
loop_
_publ_author_name
"Xiang-Yu Chen"
"Li-Hui Sun"
"Song Ye"
_chemical_name_systematic
;
3-Nitro-2,4,6-triphenyl-3,4-dihydro-2H-pyran-5-carbonitrile
;
_cell_volume   1931.066
_exptl_crystal_colour 'colorless'
_exptl_crystal_density_diffrn 1.315
_exptl_crystal_description 'block'
_diffrn_ambient_temperature 173
#These two values have been output from a single CSD field.
_refine_ls_R_factor_gt 0.0739
_refine_ls_wR_factor_gt 0.0739
_symmetry_cell_setting triclinic
_symmetry_space_group_name_H-M 'P 1'
_symmetry_Int_Tables_number 1
loop_
_symmetry_equiv_pos_site_id
_symmetry_equiv_pos_as_xyz
1 x,y,z
_cell_length_a 10.561(2)
_cell_length_b 12.073(2)
_cell_length_c 15.741(3)
_cell_angle_alpha 84.61(3)
_cell_angle_beta 80.70(3)
_cell_angle_gamma 77.64(3)
_cell_formula_units_Z 4
loop_
_atom_type_symbol
_atom_type_radius_bond
C 0.68
H 0.23
N 0.68
O 0.68
loop_
_atom_site_label
_atom_site_type_symbol
_atom_site_fract_x
_atom_site_fract_y
_atom_site_fract_z
O1 O 0.6616(3) 0.1079(3) 0.73020(19)
O2 O 0.3003(6) 0.0992(6) 0.7043(4)
O3 O 0.4446(6) -0.0242(4) 0.7644(4)
N1 N 0.6556(4) -0.0137(4) 1.0284(3)
N2 N 0.3875(5) 0.0718(5) 0.7500(3)
C1 C 0.9228(5) 0.0333(5) 0.7518(3)
H1 H 0.90350 0.10160 0.71700
C2 C 1.0522(5) -0.0255(6) 0.7496(5)
H2 H 1.12110 0.00290 0.71370
C3 C 1.0793(6) -0.1242(7) 0.7995(4)
H3 H 1.16760 -0.16250 0.80010
C4 C 0.9787(7) -0.1690(7) 0.8493(4)
H4 H 0.99810 -0.23950 0.88160
C5 C 0.8502(6) -0.1108(5) 0.8518(4)
H5 H 0.78120 -0.14130 0.88570
C6 C 0.8225(4) -0.0074(4) 0.8045(3)
C7 C 0.6861(4) 0.0586(4) 0.8088(3)
C8 C 0.5965(4) 0.0720(4) 0.8798(3)
C9 C 0.6309(4) 0.0239(4) 0.9622(3)
C10 C 0.4553(4) 0.1347(4) 0.8798(3)
H6 H 0.39640 0.08290 0.90780
C11 C 0.5148(5) 0.3014(5) 0.9432(3)
H7 H 0.60480 0.27280 0.92340
C12 C 0.4771(6) 0.4016(5) 0.9877(4)
H8 H 0.54190 0.44020 0.99840
C13 C 0.3462(6) 0.4444(4) 1.0160(3)
H9 H 0.32100 0.51220 1.04610
C14 C 0.2521(5) 0.3875(4) 1.0002(3)
H10 H 0.16210 0.41680 1.01930
C15 C 0.2881(4) 0.2879(4) 0.9565(3)
H11 H 0.22300 0.24960 0.94590
C16 C 0.4204(4) 0.2444(4) 0.9283(3)
C17 C 0.4287(5) 0.1645(5) 0.7858(3)
H12 H 0.35500 0.23220 0.78630
C18 C 0.5470(4) 0.1972(4) 0.7283(3)
H13 H 0.56500 0.26640 0.75040
C19 C 0.5284(4) 0.2230(4) 0.6343(3)
C20 C 0.4698(5) 0.3326(4) 0.6081(3)
H14 H 0.44690 0.39070 0.64770
C21 C 0.4447(5) 0.3569(5) 0.5229(4)
H15 H 0.40310 0.43130 0.50490
C22 C 0.4805(5) 0.2728(5) 0.4650(3)
H16 H 0.46350 0.28930 0.40720
C23 C 0.5414(5) 0.1637(5) 0.4912(3)
H17 H 0.56720 0.10620 0.45100
C24 C 0.5644(5) 0.1390(4) 0.5757(3)
H18 H 0.60510 0.06430 0.59350
O4 O 0.0559(3) 0.4844(3) 0.7916(2)
O5 O -0.2087(5) 0.6169(4) 0.7605(3)
O6 O -0.3213(4) 0.4932(4) 0.8175(3)
N3 N 0.1377(5) 0.5987(4) 0.4924(3)
N4 N -0.2255(4) 0.5209(4) 0.7734(3)
C25 C 0.2837(5) 0.5546(4) 0.7837(3)
H19 H 0.26510 0.49440 0.82400
C26 C 0.3864(5) 0.6044(5) 0.7907(3)
H20 H 0.43790 0.57870 0.83560
C27 C 0.4151(5) 0.6916(5) 0.7329(4)
H21 H 0.48710 0.72520 0.73740
C28 C 0.3390(6) 0.7303(5) 0.6683(3)
H22 H 0.35850 0.79050 0.62840
C29 C 0.2333(5) 0.6806(4) 0.6619(3)
H23 H 0.17960 0.70850 0.61850
C30 C 0.2065(4) 0.5902(4) 0.7190(3)
C31 C 0.1001(4) 0.5301(4) 0.7140(3)
C32 C 0.0477(4) 0.5184(4) 0.6420(3)
C33 C 0.1007(4) 0.5626(4) 0.5597(3)
C34 C -0.0624(4) 0.4556(4) 0.6428(3)
H24 H -0.13280 0.50680 0.61390
C35 C -0.0202(4) 0.3457(4) 0.5959(3)
C36 C -0.1168(4) 0.2994(4) 0.5677(3)
H25 H -0.20560 0.33860 0.57590
C37 C -0.0835(5) 0.1981(4) 0.5286(3)
H26 H -0.14960 0.16680 0.51090
C38 C 0.0470(5) 0.1412(4) 0.5147(3)
H27 H 0.06990 0.07140 0.48720
C39 C 0.1432(5) 0.1864(5) 0.5408(4)
H28 H 0.23220 0.14800 0.53120
C40 C 0.1094(5) 0.2881(4) 0.5812(3)
H29 H 0.17580 0.31880 0.59900
C41 C -0.1209(4) 0.4263(4) 0.7359(3)
H30 H -0.16140 0.35860 0.73560
C42 C -0.0141(4) 0.3946(4) 0.7932(3)
H31 H 0.04960 0.32640 0.77030
C43 C -0.0646(4) 0.3655(4) 0.8871(3)
C44 C -0.0897(5) 0.4452(4) 0.9481(3)
H32 H -0.07460 0.51970 0.93200
C45 C -0.1368(5) 0.4166(5) 1.0327(3)
H33 H -0.15320 0.47150 1.07480
C46 C -0.1604(5) 0.3074(5) 1.0568(3)
H34 H -0.19310 0.28780 1.11480
C47 C -0.1359(5) 0.2290(4) 0.9954(3)
H35 H -0.15330 0.15510 1.01070
C48 C -0.0854(4) 0.2575(4) 0.9104(3)
H36 H -0.06540 0.20200 0.86860
O7 O 0.5396(3) 0.8832(3) 0.3847(2)
O8 O 0.1596(4) 0.8913(4) 0.3768(3)
O9 O 0.2719(4) 0.8719(4) 0.4830(3)
N5 N 0.6408(4) 0.5351(4) 0.5521(3)
N6 N 0.2584(4) 0.8546(4) 0.4102(3)
C49 C 0.7714(4) 0.8911(4) 0.4393(3)
H37 H 0.76350 0.91590 0.38100
C50 C 0.8684(5) 0.9197(4) 0.4776(3)
H38 H 0.92740 0.96270 0.44540
C51 C 0.8789(5) 0.8850(4) 0.5633(4)
H39 H 0.94500 0.90430 0.59010
C52 C 0.7929(6) 0.8224(5) 0.6095(4)
H40 H 0.79930 0.79940 0.66830
C53 C 0.6973(5) 0.7930(4) 0.5706(3)
H41 H 0.63920 0.74920 0.60300
C54 C 0.6853(4) 0.8264(3) 0.4853(3)
C55 C 0.5863(4) 0.7970(3) 0.4408(3)
C56 C 0.5412(4) 0.6980(4) 0.4505(3)
C57 C 0.5983(4) 0.6079(3) 0.5073(3)
C58 C 0.4328(4) 0.6766(4) 0.4061(3)
H42 H 0.36310 0.65520 0.45180
C59 C 0.4740(4) 0.5821(4) 0.3433(3)
C60 C 0.6040(5) 0.5432(4) 0.3085(3)
H43 H 0.67140 0.57400 0.32490
C61 C 0.6353(5) 0.4585(4) 0.2493(3)
H44 H 0.72410 0.43070 0.22630
C62 C 0.5365(5) 0.4152(4) 0.2245(3)
H45 H 0.55790 0.35840 0.18370
C63 C 0.4078(5) 0.4537(4) 0.2583(3)
H46 H 0.34060 0.42400 0.24050
C64 C 0.3759(4) 0.5360(4) 0.3186(3)
H47 H 0.28710 0.56090 0.34310
C65 C 0.3712(4) 0.7857(4) 0.3565(3)
H48 H 0.33710 0.76210 0.30680
C66 C 0.4729(4) 0.8579(4) 0.3191(3)
H49 H 0.53910 0.81330 0.27570
C67 C 0.4156(4) 0.9702(4) 0.2752(3)
C68 C 0.4137(5) 0.9782(4) 0.1874(3)
H50 H 0.44930 0.91350 0.15480
C69 C 0.3600(5) 1.0803(5) 0.1463(3)
H51 H 0.35940 1.08560 0.08570
C70 C 0.3074(5) 1.1742(4) 0.1938(3)
H52 H 0.27000 1.24390 0.16570
C71 C 0.3087(6) 1.1679(4) 0.2823(4)
H53 H 0.27340 1.23300 0.31460
C72 C 0.3624(5) 1.0650(4) 0.3231(3)
H54 H 0.36270 1.05950 0.38370
O10 O 0.1538(3) 0.7084(3) 0.1474(2)
O11 O -0.2128(5) 0.6794(4) 0.1420(4)
O12 O -0.0546(5) 0.7049(4) 0.0415(3)
N7 N 0.1565(5) 1.0538(4) -0.0261(4)
N8 N -0.1184(5) 0.7222(4) 0.1116(3)
C73 C 0.4128(5) 0.6963(4) 0.0963(3)
H55 H 0.38480 0.66790 0.15300
C74 C 0.5433(5) 0.6680(4) 0.0607(4)
H56 H 0.60510 0.62180 0.09350
C75 C 0.5840(5) 0.7068(4) -0.0226(4)
H57 H 0.67350 0.68620 -0.04700
C76 C 0.4967(5) 0.7745(4) -0.0701(3)
H58 H 0.52580 0.80220 -0.12680
C77 C 0.3643(5) 0.8032(4) -0.0352(3)
H59 H 0.30340 0.84790 -0.06930
C78 C 0.3211(4) 0.7671(4) 0.0486(3)
C79 C 0.1832(4) 0.7938(4) 0.0906(3)
C80 C 0.0942(4) 0.8900(4) 0.0779(3)
C81 C 0.1301(4) 0.9806(4) 0.0204(3)
C82 C -0.0484(4) 0.9082(4) 0.1182(3)
H60 H -0.10370 0.92750 0.07090
C83 C -0.0902(4) 1.0022(3) 0.1815(3)
C84 C -0.0027(4) 1.0405(4) 0.2234(3)
H61 H 0.08860 1.01040 0.21090
C85 C -0.0480(5) 1.1221(4) 0.2831(3)
H62 H 0.01290 1.14830 0.31060
C86 C -0.1802(5) 1.1664(4) 0.3035(3)
H63 H -0.21030 1.22190 0.34510
C87 C -0.2684(5) 1.1292(4) 0.2626(3)
H64 H -0.35960 1.15900 0.27660
C88 C -0.2253(4) 1.0488(4) 0.2015(3)
H65 H -0.28670 1.02500 0.17300
C89 C -0.0789(4) 0.7982(4) 0.1684(3)
H66 H -0.15360 0.82020 0.21540
C90 C 0.0384(4) 0.7330(4) 0.2099(3)
H67 H 0.05580 0.78150 0.25310
C91 C 0.0164(4) 0.6205(4) 0.2562(3)
C92 C -0.0385(4) 0.6189(4) 0.3417(3)
H68 H -0.05850 0.68650 0.37190
C93 C -0.0647(5) 0.5171(4) 0.3841(3)
H69 H -0.10180 0.51530 0.44320
C94 C -0.0365(5) 0.4194(4) 0.3396(3)
H70 H -0.05610 0.35070 0.36800
C95 C 0.0199(5) 0.4210(4) 0.2543(4)
H71 H 0.04070 0.35320 0.22430
C96 C 0.0463(5) 0.5215(4) 0.2120(3)
H72 H 0.08460 0.52270 0.15310
#END
