
#######################################################################
#
#                 Cambridge Crystallographic Data Centre
#                                CCDC
#
#######################################################################
#
# If this CIF has been generated from an entry in the Cambridge
# Structural Database, then it will include bibliographic, chemical,
# crystal, experimental, refinement or atomic coordinate data resulting
# from the CCDC's data processing and validation procedures.
#
#######################################################################

data_CSD_CIF_ZEVQUM
_audit_creation_date 1996-06-03
_audit_creation_method CSD-ConQuest-V1
_database_code_CSD ZEVQUM
_chemical_formula_sum 'C3 H5 N3 O4'
_chemical_formula_moiety
;
C3 H5 N3 O4
;
_journal_coden_Cambridge 35
_journal_volume 60
_journal_year 1995
_journal_page_first 4943
_journal_name_full 'J.Org.Chem. '
loop_
_publ_author_name
"A.P.Marchand"
"D.Rajagopal"
"S.G.Bott"
"T.G.Archibald"
_chemical_name_systematic
;
1,3-Dinitroazetidine
;
_chemical_melting_point 335.15
_cell_volume    602.295
_exptl_crystal_colour 'colorless'
_exptl_crystal_density_diffrn 1.622
_exptl_special_details
;
Melting point range 335.15-336.15K

;
_diffrn_ambient_temperature ?
_diffrn_special_details
;
The study was carried out at room temperature,in the range 283-303K

;
#These two values have been output from a single CSD field.
_refine_ls_R_factor_gt 0.0431
_refine_ls_wR_factor_gt 0.0431
_symmetry_cell_setting orthorhombic
_symmetry_space_group_name_H-M 'P n m a'
_symmetry_Int_Tables_number 62
loop_
_symmetry_equiv_pos_site_id
_symmetry_equiv_pos_as_xyz
1 x,y,z
2 1/2-x,-y,1/2+z
3 1/2+x,1/2-y,1/2-z
4 -x,1/2+y,-z
5 -x,-y,-z
6 -1/2+x,y,-1/2-z
7 -1/2-x,-1/2+y,-1/2+z
8 x,-1/2-y,z
_cell_length_a 9.2950(8)
_cell_length_b 6.8145(5)
_cell_length_c 9.5088(7)
_cell_angle_alpha 90
_cell_angle_beta 90
_cell_angle_gamma 90
_cell_formula_units_Z 4
loop_
_atom_type_symbol
_atom_type_radius_bond
C 0.68
H 0.23
N 0.68
O 0.68
loop_
_atom_site_label
_atom_site_type_symbol
_atom_site_fract_x
_atom_site_fract_y
_atom_site_fract_z
O1 O 0.6430(2) 0.0894(3) 0.5612(2)
O2 O 0.6060(4) 0.25000 -0.0738(2)
O3 O 0.4368(3) 0.25000 0.0768(3)
N1 N 0.6293(3) 0.25000 0.5058(3)
N2 N 0.5902(3) 0.25000 0.3663(3)
N3 N 0.5628(3) 0.25000 0.0455(3)
C1 C 0.6413(2) 0.4092(3) 0.2726(2)
C2 C 0.6715(3) 0.25000 0.1630(3)
H1 H 0.72420 0.47680 0.30520
H2 H 0.56960 0.50150 0.24620
H3 H 0.75910 0.25000 0.11160
O1G O 0.6430(2) 0.4106(3) 0.5612(2)
C1G C 0.6413(2) 0.0908(3) 0.2726(2)
H1G H 0.72420 0.02320 0.30520
H2G H 0.56960 -0.00150 0.24620
#END
