
#######################################################################
#
#                 Cambridge Crystallographic Data Centre
#                                CCDC
#
#######################################################################
#
# If this CIF has been generated from an entry in the Cambridge
# Structural Database, then it will include bibliographic, chemical,
# crystal, experimental, refinement or atomic coordinate data resulting
# from the CCDC's data processing and validation procedures.
#
#######################################################################

data_CSD_CIF_ZEWFAK
_audit_creation_date 2013-05-20
_audit_creation_method CSD-ConQuest-V1
_database_code_CSD ZEWFAK
_database_code_depnum_ccdc_archive 'CCDC 897912'
_chemical_formula_sum 'C25 H27 N1 O4'
_chemical_formula_moiety
;
C25 H27 N1 O4
;
_journal_coden_Cambridge 1453
_journal_volume 5
_journal_year 2013
_journal_page_first 1200
_journal_name_full 'ChemCatChem '
loop_
_publ_author_name
"A.S.K.Hashmi"
"K.Graf"
"M.Ackermann"
"F.Rominger"
_chemical_name_systematic
;
4-(1-Phenylprop-2-en-1-yl)nona-1,3-dien-5-yl 4-nitrobenzoate
;
_cell_volume   1102.624
_exptl_crystal_colour 'colorless'
_exptl_crystal_density_diffrn 1.221
_exptl_crystal_description 'plate'
_diffrn_ambient_temperature 200
#These two values have been output from a single CSD field.
_refine_ls_R_factor_gt 0.0543
_refine_ls_wR_factor_gt 0.0543
_symmetry_cell_setting triclinic
_symmetry_space_group_name_H-M 'P -1'
_symmetry_Int_Tables_number 2
loop_
_symmetry_equiv_pos_site_id
_symmetry_equiv_pos_as_xyz
1 x,y,z
2 -x,-y,-z
_cell_length_a 8.672(3)
_cell_length_b 11.723(4)
_cell_length_c 11.784(4)
_cell_angle_alpha 104.771(8)
_cell_angle_beta 103.941(8)
_cell_angle_gamma 96.999(8)
_cell_formula_units_Z 2
loop_
_atom_type_symbol
_atom_type_radius_bond
C 0.68
H 0.23
N 0.68
O 0.68
loop_
_atom_site_label
_atom_site_type_symbol
_atom_site_fract_x
_atom_site_fract_y
_atom_site_fract_z
C1 C 0.0862(8) 0.3785(6) 0.7102(6)
H1 H 0.14420 0.32440 0.74180
H2 H -0.02700 0.35470 0.67110
C2 C 0.1635(8) 0.4877(6) 0.7206(5)
H3 H 0.10250 0.54000 0.68810
C3 C 0.3360(7) 0.5312(6) 0.7789(5)
H4 H 0.39530 0.47320 0.80070
C4 C 0.4236(6) 0.6435(6) 0.8061(4)
C5 C 0.3423(7) 0.7432(5) 0.7807(5)
H5 H 0.22630 0.70990 0.73300
C6 C 0.3514(7) 0.8423(5) 0.8975(5)
H6 H 0.46630 0.87550 0.94430
H7 H 0.30270 0.90840 0.87490
C7 C 0.2634(7) 0.7942(5) 0.9765(5)
H8 H 0.16110 0.73930 0.92340
H9 H 0.33080 0.74660 1.01860
C8 C 0.2248(8) 0.8908(6) 1.0707(5)
H10 H 0.16600 0.94300 1.02940
H11 H 0.32750 0.94130 1.12850
C9 C 0.1220(7) 0.8411(6) 1.1434(6)
H12 H 0.10100 0.90810 1.20310
H13 H 0.18050 0.79090 1.18620
H14 H 0.01890 0.79270 1.08700
C10 C 0.6052(6) 0.6711(5) 0.8644(5)
H15 H 0.62870 0.75230 0.92560
C11 C 0.6619(8) 0.5891(6) 0.9364(6)
H16 H 0.60950 0.58080 0.99670
C12 C 0.7754(8) 0.5276(6) 0.9257(6)
H17 H 0.83190 0.53250 0.86680
H18 H 0.80180 0.47780 0.97690
C13 C 0.7012(6) 0.6852(6) 0.7751(6)
C14 C 0.8250(7) 0.7840(5) 0.8081(5)
H19 H 0.84730 0.84270 0.88530
C15 C 0.9167(7) 0.7985(6) 0.7301(7)
H20 H 1.00110 0.86700 0.75380
C16 C 0.8863(8) 0.7139(8) 0.6176(7)
H21 H 0.95000 0.72310 0.56410
C17 C 0.7633(8) 0.6169(6) 0.5847(6)
H22 H 0.74100 0.55850 0.50730
C18 C 0.6710(7) 0.6021(5) 0.6619(6)
H23 H 0.58560 0.53410 0.63700
C19 C 0.3753(8) 0.7508(6) 0.5899(7)
O1 O 0.2610(5) 0.6683(4) 0.5388(4)
O2 O 0.4250(4) 0.8038(3) 0.7096(4)
C20 C 0.4767(7) 0.8041(5) 0.5224(5)
C21 C 0.4386(7) 0.7503(5) 0.3974(6)
H24 H 0.35030 0.68430 0.35790
C22 C 0.5300(9) 0.7932(6) 0.3305(5)
H25 H 0.50540 0.75700 0.24470
C23 C 0.6561(8) 0.8882(7) 0.3893(7)
C24 C 0.6957(7) 0.9418(5) 0.5116(7)
H26 H 0.78430 1.00780 0.55000
C25 C 0.6055(7) 0.8994(5) 0.5801(5)
H27 H 0.63230 0.93580 0.66600
N1 N 0.7526(9) 0.9348(7) 0.3172(8)
O3 O 0.7154(7) 0.8852(5) 0.2065(6)
O4 O 0.8595(7) 1.0210(7) 0.3699(6)
#END
