
#######################################################################
#
#                 Cambridge Crystallographic Data Centre
#                                CCDC
#
#######################################################################
#
# If this CIF has been generated from an entry in the Cambridge
# Structural Database, then it will include bibliographic, chemical,
# crystal, experimental, refinement or atomic coordinate data resulting
# from the CCDC's data processing and validation procedures.
#
#######################################################################

data_CSD_CIF_ZEWTUT
_audit_creation_date 2018-03-24
_audit_creation_method CSD-ConQuest-V1
_database_code_CSD ZEWTUT
_database_code_depnum_ccdc_archive 'CCDC 1587838'
_chemical_formula_sum 'C17 H18 N2 O8'
_chemical_formula_moiety
;
C17 H18 N2 O8
;
_journal_coden_Cambridge 16
_journal_volume 74
_journal_year 2018
_journal_page_first 5000
_journal_name_full 'Tetrahedron '
loop_
_publ_author_name
"Xinghua Ma"
"Xin Liu"
"P.Yates"
"W.Rafferty"
"M.G.Banwell"
"Chenxi Ma"
"A.C.Willis"
"P.D.Carr"
_chemical_name_systematic
;
1-(6,8-dioxabicyclo[3.2.1]oct-2-en-4-yl)-2-methylpropan-2-yl 
3,5-dinitrobenzoate
;
_cell_volume   1695.570
_exptl_crystal_colour 'colorless'
_exptl_crystal_density_diffrn 1.482
_exptl_special_details
;
Absolute configuration

;
_exptl_crystal_description 'plate'
_diffrn_ambient_temperature 150
#These two values have been output from a single CSD field.
_refine_ls_R_factor_gt 0.0285
_refine_ls_wR_factor_gt 0.0285
_symmetry_cell_setting orthorhombic
_symmetry_space_group_name_H-M 'P 21 21 21'
_symmetry_Int_Tables_number 19
loop_
_symmetry_equiv_pos_site_id
_symmetry_equiv_pos_as_xyz
1 x,y,z
2 1/2+x,1/2-y,-z
3 -x,1/2+y,1/2-z
4 1/2-x,-y,1/2+z
_cell_length_a 5.6020(1)
_cell_length_b 10.3437(1)
_cell_length_c 29.2615(4)
_cell_angle_alpha 90
_cell_angle_beta 90
_cell_angle_gamma 90
_cell_formula_units_Z 4
loop_
_atom_type_symbol
_atom_type_radius_bond
C 0.68
H 0.23
N 0.68
O 0.68
loop_
_atom_site_label
_atom_site_type_symbol
_atom_site_fract_x
_atom_site_fract_y
_atom_site_fract_z
C1 C 0.5392(3) 0.86065(13) 0.68706(5)
C2 C 0.4594(3) 0.80759(13) 0.64162(5)
C3 C 0.2842(3) 0.72175(13) 0.63981(4)
C4 C 0.1687(2) 0.67024(12) 0.68281(4)
C5 C 0.2603(3) 0.75003(13) 0.72334(5)
C6 C 0.3578(3) 0.95974(14) 0.70394(5)
C7 C 0.2211(2) 0.52625(12) 0.69196(4)
C8 C 0.1103(2) 0.42507(12) 0.66033(4)
C9 C -0.1597(2) 0.44010(14) 0.65751(5)
C10 C 0.1844(3) 0.28975(12) 0.67560(4)
C11 C 0.2965(2) 0.43429(12) 0.53703(4)
C12 C 0.2142(2) 0.39973(12) 0.49387(5)
C13 C 0.3328(2) 0.44635(12) 0.45582(4)
C14 C 0.5341(2) 0.52295(12) 0.45851(4)
C15 C 0.6126(2) 0.55326(12) 0.50229(4)
C16 C 0.4985(2) 0.51204(12) 0.54147(4)
C17 C 0.1565(2) 0.38897(12) 0.57777(4)
H1 H 0.69640 0.89440 0.68670
H2 H 0.53920 0.83260 0.61390
H3 H 0.22910 0.69150 0.61070
H4 H -0.00100 0.68250 0.68070
H5 H 0.21330 0.70910 0.75150
H6 H 0.42340 1.01490 0.72670
H7 H 0.30440 1.01340 0.67890
H8 H 0.16900 0.50600 0.72210
H9 H 0.38990 0.51460 0.69030
H10 H -0.22850 0.42410 0.68680
H11 H -0.19810 0.52650 0.64850
H12 H -0.22300 0.38130 0.63600
H13 H 0.11390 0.27050 0.70400
H14 H 0.35270 0.28530 0.67770
H15 H 0.13040 0.22870 0.65320
H16 H 0.08060 0.34360 0.49060
H17 H 0.61380 0.55230 0.43140
H18 H 0.55760 0.53550 0.57120
N1 N 0.2359(2) 0.41504(11) 0.41022(4)
N2 N 0.8256(2) 0.63515(11) 0.50722(4)
O1 O 0.1682(2) 0.87891(10) 0.72121(4)
O2 O 0.51033(19) 0.76153(9) 0.72140(3)
O3 O 0.22415(16) 0.45068(9) 0.61523(3)
O4 O 0.0005(2) 0.30903(10) 0.57448(3)
O5 O 0.0458(2) 0.35732(12) 0.40846(4)
O6 O 0.3500(2) 0.45046(10) 0.37679(3)
O7 O 0.92591(19) 0.67227(10) 0.47235(4)
O8 O 0.89418(18) 0.66088(10) 0.54599(3)
#END
