
#######################################################################
#
#                 Cambridge Crystallographic Data Centre
#                                CCDC
#
#######################################################################
#
# If this CIF has been generated from an entry in the Cambridge
# Structural Database, then it will include bibliographic, chemical,
# crystal, experimental, refinement or atomic coordinate data resulting
# from the CCDC's data processing and validation procedures.
#
#######################################################################

data_CSD_CIF_ZEXFIU
_audit_creation_date 2018-03-26
_audit_creation_method CSD-ConQuest-V1
_database_code_CSD ZEXFIU
_database_code_depnum_ccdc_archive 'CCDC 1537155'
_chemical_formula_sum 'C16 H18 N4 O4'
_chemical_formula_moiety
;
C16 H18 N4 O4
;
_journal_coden_Cambridge 16
_journal_volume 74
_journal_year 2018
_journal_page_first 5119
_journal_name_full 'Tetrahedron '
loop_
_publ_author_name
"E.Badarau"
"F.Robert"
"S.Massip"
"F.Jakob"
"S.Lucas"
"S.Frormann"
"L.Ghosez"
_chemical_name_systematic
;
1-(2,4-dinitrophenyl)-2-(4,4a,5,6,7,8-hexahydronaphthalen-2(3H)-ylidene)hydraz
ine
;
_cell_volume   1605.829
_exptl_crystal_colour 'red'
_exptl_crystal_density_diffrn 1.366
_exptl_crystal_description 'plate'
_diffrn_ambient_temperature 293
#These two values have been output from a single CSD field.
_refine_ls_R_factor_gt 0.0846
_refine_ls_wR_factor_gt 0.0846
_symmetry_cell_setting monoclinic
_symmetry_space_group_name_H-M 'P 21/c'
_symmetry_Int_Tables_number 14
loop_
_symmetry_equiv_pos_site_id
_symmetry_equiv_pos_as_xyz
1 x,y,z
2 -x,1/2+y,1/2-z
3 -x,-y,-z
4 x,-1/2-y,-1/2+z
_cell_length_a 10.1046(3)
_cell_length_b 16.2840(5)
_cell_length_c 9.9207(6)
_cell_angle_alpha 90
_cell_angle_beta 100.349(2)
_cell_angle_gamma 90
_cell_formula_units_Z 4
loop_
_atom_type_symbol
_atom_type_radius_bond
C 0.68
H 0.23
N 0.68
O 0.68
loop_
_atom_site_label
_atom_site_type_symbol
_atom_site_fract_x
_atom_site_fract_y
_atom_site_fract_z
C1 C 0.1757(5) 0.7497(2) -0.3436(5)
H1 H 0.20000 0.75930 -0.43250
H2 H 0.25380 0.72750 -0.28350
C2 C 0.1363(4) 0.8307(2) -0.2855(4)
C3 C 0.0029(5) 0.8647(3) -0.3577(5)
H3 H 0.01750 0.88280 -0.44810
C4 C -0.1025(4) 0.8022(3) -0.3830(5)
H4 H -0.17910 0.82500 -0.44450
H5 H -0.13120 0.79000 -0.29700
C5 C -0.0633(5) 0.7235(3) -0.4431(5)
H6 H -0.05030 0.73290 -0.53630
H7 H -0.13490 0.68350 -0.44550
C6 C 0.0661(5) 0.6900(3) -0.3580(5)
H8 H 0.04970 0.67500 -0.26780
H9 H 0.09260 0.64070 -0.40130
C7 C 0.2150(3) 0.8679(2) -0.1817(4)
H10 H 0.29170 0.84100 -0.13730
C8 C 0.1850(4) 0.9488(2) -0.1358(4)
C9 C 0.0695(5) 0.9925(3) -0.2223(6)
H11 H 0.03280 1.03170 -0.16520
H12 H 0.10330 1.02330 -0.29270
C10 C -0.0334(5) 0.9417(3) -0.2847(6)
H13 H -0.09350 0.97430 -0.35100
H14 H -0.08400 0.92450 -0.21530
N1 N 0.2482(3) 0.98997(18) -0.0327(4)
N2 N 0.3574(3) 0.95133(18) 0.0481(3)
H15 H 0.38080 0.90260 0.02830
C11 C 0.4256(3) 0.9911(2) 0.1571(4)
C12 C 0.3885(4) 1.0714(2) 0.1898(4)
H16 H 0.31750 1.09700 0.13260
C13 C 0.4528(4) 1.1124(2) 0.3017(4)
H17 H 0.42600 1.16520 0.32040
C14 C 0.5592(4) 1.0747(2) 0.3882(4)
C15 C 0.6018(4) 0.9982(2) 0.3599(4)
H18 H 0.67410 0.97410 0.41770
C16 C 0.5376(4) 0.9565(2) 0.2456(4)
N3 N 0.6264(4) 1.1170(2) 0.5112(4)
O1 O 0.7272(3) 1.08578(19) 0.5779(3)
O2 O 0.5774(3) 1.18113(19) 0.5435(3)
N4 N 0.5903(4) 0.8760(2) 0.2199(4)
O3 O 0.5340(3) 0.83514(17) 0.1226(3)
O4 O 0.6910(3) 0.85141(18) 0.2970(3)
#END
