
#######################################################################
#
#                 Cambridge Crystallographic Data Centre
#                                CCDC
#
#######################################################################
#
# If this CIF has been generated from an entry in the Cambridge
# Structural Database, then it will include bibliographic, chemical,
# crystal, experimental, refinement or atomic coordinate data resulting
# from the CCDC's data processing and validation procedures.
#
#######################################################################

data_CSD_CIF_ZEXJOD
_audit_creation_date 2013-05-20
_audit_creation_method CSD-ConQuest-V1
_database_code_CSD ZEXJOD
_database_code_depnum_ccdc_archive 'CCDC 897254'
_chemical_formula_sum 'C2 H2 N10 O2'
_chemical_formula_moiety
;
C2 H2 N10 O2
;
_journal_coden_Cambridge 1220
_journal_volume 19
_journal_year 2013
_journal_page_first 4602
_journal_name_full 'Chem.-Eur.J. '
loop_
_publ_author_name
"D.Fischer"
"T.M.Klapotke"
"D.G.Piercey"
"J.Stierstorfer"
_chemical_name_systematic
;
5,5'-Diazene-1,2-diylbis(1H-tetrazol-1-ol)
;
_cell_volume    345.993
_exptl_crystal_colour 'orange'
_exptl_crystal_density_diffrn 1.902
_exptl_crystal_description 'block'
_diffrn_ambient_temperature 173
#These two values have been output from a single CSD field.
_refine_ls_R_factor_gt 0.0311
_refine_ls_wR_factor_gt 0.0311
_symmetry_cell_setting monoclinic
_symmetry_space_group_name_H-M 'P 21/n'
_symmetry_Int_Tables_number 14
loop_
_symmetry_equiv_pos_site_id
_symmetry_equiv_pos_as_xyz
1 x,y,z
2 1/2-x,1/2+y,1/2-z
3 -x,-y,-z
4 -1/2+x,-1/2-y,-1/2+z
_cell_length_a 6.8661(16)
_cell_length_b 5.4023(12)
_cell_length_c 9.712(2)
_cell_angle_alpha 90
_cell_angle_beta 106.17(2)
_cell_angle_gamma 90
_cell_formula_units_Z 2
loop_
_atom_type_symbol
_atom_type_radius_bond
C 0.68
H 0.23
N 0.68
O 0.68
loop_
_atom_site_label
_atom_site_type_symbol
_atom_site_fract_x
_atom_site_fract_y
_atom_site_fract_z
O1 O 0.83591(16) -0.0364(2) 0.62611(10)
N1 N 0.94718(17) 0.1455(2) 0.70468(12)
N2 N 0.96395(17) -0.0255(2) 0.93400(12)
N3 N 1.12121(18) 0.4705(2) 0.75564(12)
N4 N 1.01345(18) 0.3401(2) 0.64645(12)
N5 N 1.12511(17) 0.3594(2) 0.88059(12)
C1 C 1.01478(19) 0.1552(2) 0.84780(13)
H1 H 0.758(3) 0.046(4) 0.534(2)
O1B O 1.16409(16) 0.0364(2) 1.37389(10)
N1B N 1.05282(17) -0.1455(2) 1.29532(12)
N2B N 1.03605(17) 0.0255(2) 1.06600(12)
N3B N 0.87879(18) -0.4705(2) 1.24436(12)
N4B N 0.98655(18) -0.3401(2) 1.35355(12)
N5B N 0.87489(17) -0.3594(2) 1.11941(12)
C1B C 0.98522(19) -0.1552(2) 1.15220(13)
H1B H 1.242(3) -0.046(4) 1.466(2)
#END
