
#######################################################################
#
#                 Cambridge Crystallographic Data Centre
#                                CCDC
#
#######################################################################
#
# If this CIF has been generated from an entry in the Cambridge
# Structural Database, then it will include bibliographic, chemical,
# crystal, experimental, refinement or atomic coordinate data resulting
# from the CCDC's data processing and validation procedures.
#
#######################################################################

data_CSD_CIF_ZEXKEU
_audit_creation_date 2013-05-20
_audit_creation_method CSD-ConQuest-V1
_database_code_CSD ZEXKEU
_database_code_depnum_ccdc_archive 'CCDC 897251'
_chemical_formula_sum 'C1 H3 N5 O1'
_chemical_formula_moiety
;
C1 H3 N5 O1
;
_journal_coden_Cambridge 1220
_journal_volume 19
_journal_year 2013
_journal_page_first 4602
_journal_name_full 'Chem.-Eur.J. '
loop_
_publ_author_name
"D.Fischer"
"T.M.Klapotke"
"D.G.Piercey"
"J.Stierstorfer"
_chemical_name_systematic
;
5-Amino-1H-tetrazol-1-ol
;
_cell_volume    396.091
_exptl_crystal_colour 'colorless'
_exptl_crystal_density_diffrn 1.695
_exptl_crystal_description 'plate'
_diffrn_ambient_temperature 173
#These two values have been output from a single CSD field.
_refine_ls_R_factor_gt 0.027
_refine_ls_wR_factor_gt 0.027
_symmetry_cell_setting monoclinic
_symmetry_space_group_name_H-M 'C c'
_symmetry_Int_Tables_number 9
loop_
_symmetry_equiv_pos_site_id
_symmetry_equiv_pos_as_xyz
1 x,y,z
2 x,-y,1/2+z
3 1/2+x,1/2+y,z
4 1/2+x,1/2-y,1/2+z
_cell_length_a 11.760(5)
_cell_length_b 3.6198(12)
_cell_length_c 10.236(4)
_cell_angle_alpha 90
_cell_angle_beta 114.63(4)
_cell_angle_gamma 90
_cell_formula_units_Z 4
loop_
_atom_type_symbol
_atom_type_radius_bond
C 0.68
H 0.23
N 0.68
O 0.68
loop_
_atom_site_label
_atom_site_type_symbol
_atom_site_fract_x
_atom_site_fract_y
_atom_site_fract_z
O1 O 0.05635(17) 0.0633(5) 0.50238(18)
N1 N 0.02076(17) 0.2582(5) 0.37837(19)
N2 N -0.10052(19) 0.2907(7) 0.2845(2)
N3 N -0.09925(19) 0.4642(6) 0.1750(2)
N4 N 0.02121(17) 0.5391(6) 0.1949(2)
N5 N 0.2202(2) 0.4000(7) 0.3887(3)
C1 C 0.0955(2) 0.4013(6) 0.3229(2)
H1 H 0.259(4) 0.276(10) 0.470(4)
H2 H 0.260(3) 0.521(10) 0.352(4)
H3 H 0.042(5) 0.233(15) 0.572(6)
#END
