
#######################################################################
#
#                 Cambridge Crystallographic Data Centre
#                                CCDC
#
#######################################################################
#
# If this CIF has been generated from an entry in the Cambridge
# Structural Database, then it will include bibliographic, chemical,
# crystal, experimental, refinement or atomic coordinate data resulting
# from the CCDC's data processing and validation procedures.
#
#######################################################################

data_CSD_CIF_ZEYBAJ
_audit_creation_date 2018-03-26
_audit_creation_method CSD-ConQuest-V1
_database_code_CSD ZEYBAJ
_database_code_depnum_ccdc_archive 'CCDC 1818542'
_chemical_formula_sum 'C12 H17 N3 O4'
_chemical_formula_moiety
;
C12 H17 N3 O4
;
_journal_coden_Cambridge 692
_journal_volume 50
_journal_year 2018
_journal_page_first 2087
_journal_name_full 'Synthesis '
loop_
_publ_author_name
"A.Shirsale"
"Y.Patil"
"G.Rawal"
"J.Pabba"
"G.Berthon"
"R.Sonawane"
"V.Sikervar"
_chemical_name_systematic
;
t-butyl 
(6-methyl-7-oxo-3,7-dihydro-2H-[1,2]oxazolo[2,3-a]pyrimidin-3-yl)carbamate
;
_cell_volume   2604.978
_exptl_crystal_colour 'colorless'
_exptl_crystal_density_diffrn 1.363
_exptl_crystal_description 'prism'
_diffrn_ambient_temperature 100
#These two values have been output from a single CSD field.
_refine_ls_R_factor_gt 0.0399
_refine_ls_wR_factor_gt 0.0399
_symmetry_cell_setting monoclinic
_symmetry_space_group_name_H-M 'P 21/c'
_symmetry_Int_Tables_number 14
loop_
_symmetry_equiv_pos_site_id
_symmetry_equiv_pos_as_xyz
1 x,y,z
2 -x,1/2+y,1/2-z
3 -x,-y,-z
4 x,-1/2-y,-1/2+z
_cell_length_a 12.27601(15)
_cell_length_b 16.9584(2)
_cell_length_c 12.51573(17)
_cell_angle_alpha 90
_cell_angle_beta 91.1934(11)
_cell_angle_gamma 90
_cell_formula_units_Z 8
loop_
_atom_type_symbol
_atom_type_radius_bond
C 0.68
H 0.23
N 0.68
O 0.68
loop_
_atom_site_label
_atom_site_type_symbol
_atom_site_fract_x
_atom_site_fract_y
_atom_site_fract_z
O1 O 0.7463(1) 0.14532(8) 0.41756(10)
N1 N 0.72696(12) 0.14453(9) 0.30686(11)
C1 C 0.78642(14) 0.19849(10) 0.25383(14)
N2 N 0.78159(12) 0.20779(9) 0.15116(12)
C2 C 0.70717(15) 0.15966(11) 0.09958(15)
C3 C 0.64154(14) 0.10617(11) 0.14797(14)
C4 C 0.64772(14) 0.09574(10) 0.26256(15)
O2 O 0.59438(10) 0.04958(7) 0.31704(10)
C5 C 0.56247(16) 0.05538(12) 0.08691(17)
C6 C 0.85525(14) 0.24210(11) 0.33591(15)
C7 C 0.85220(15) 0.18435(11) 0.42909(15)
N3 N 0.96409(12) 0.26039(9) 0.30290(13)
C8 C 0.98284(14) 0.33074(11) 0.25544(16)
O3 O 1.0855(1) 0.33346(8) 0.21874(12)
C9 C 1.12818(15) 0.40853(11) 0.17767(15)
C10 C 1.24257(15) 0.38708(12) 0.14469(17)
C11 C 1.06267(18) 0.43926(18) 0.08318(19)
C12 C 1.13153(18) 0.46787(13) 0.26859(19)
O4 O 0.91650(11) 0.38376(8) 0.24892(12)
H1 H 0.70170 0.16470 0.02420
H2 H 0.48930 0.06650 0.10780
H3 H 0.57880 0.00060 0.10150
H4 H 0.56540 0.06540 0.00780
H5 H 0.81710 0.29200 0.35430
H6 H 0.85630 0.21090 0.49930
H7 H 0.91150 0.14410 0.42280
H8 H 1.27900 0.43270 0.11660
H9 H 1.28600 0.36790 0.20460
H10 H 1.23910 0.34750 0.09050
H11 H 1.10110 0.48380 0.05240
H12 H 1.05780 0.39560 0.03330
H13 H 0.98940 0.45440 0.10420
H14 H 1.15580 0.51820 0.23930
H15 H 1.18220 0.45070 0.32490
H16 H 1.06020 0.47530 0.29870
H17 H 1.0108(14) 0.2226(10) 0.2963(17)
O5 O 0.43447(10) 0.33826(7) 0.34375(11)
C13 C 0.53128(14) 0.33716(11) 0.29535(15)
O6 O 0.59881(11) 0.28510(8) 0.30209(12)
N4 N 0.54344(12) 0.40339(9) 0.23551(13)
C14 C 0.64928(14) 0.42217(10) 0.19469(14)
C15 C 0.72089(14) 0.46933(10) 0.27041(15)
N5 N 0.77422(12) 0.52353(9) 0.21259(12)
O7 O 0.74941(10) 0.51929(8) 0.10297(9)
C16 C 0.64526(14) 0.47728(11) 0.09752(15)
C17 C 0.85295(14) 0.57561(11) 0.25111(15)
O8 O 0.90101(11) 0.62101(8) 0.19112(11)
C18 C 0.86615(15) 0.56798(12) 0.36551(15)
C19 C 0.80649(16) 0.51332(12) 0.41842(15)
N6 N 0.73185(13) 0.46221(10) 0.37332(12)
C20 C 0.94603(18) 0.62240(14) 0.42035(18)
C21 C 0.39254(16) 0.26536(12) 0.39387(18)
C22 C 0.46676(17) 0.23824(14) 0.48522(19)
C23 C 0.28325(17) 0.29313(15) 0.4358(2)
C24 C 0.37670(18) 0.20245(13) 0.3090(2)
H18 H 0.68840 0.37290 0.17330
H19 H 0.58540 0.51480 0.11050
H20 H 0.63900 0.44930 0.02590
H21 H 0.81700 0.50930 0.49220
H22 H 0.95050 0.61240 0.49800
H23 H 1.01870 0.61530 0.39260
H24 H 0.92370 0.67660 0.40990
H25 H 0.43360 0.19530 0.52180
H26 H 0.48010 0.28190 0.53290
H27 H 0.53700 0.22160 0.46200
H28 H 0.24720 0.24990 0.47040
H29 H 0.29750 0.33610 0.48520
H30 H 0.23700 0.31140 0.37800
H31 H 0.34170 0.15940 0.34480
H32 H 0.44830 0.18610 0.28500
H33 H 0.32970 0.22260 0.25160
H34 H 0.4952(14) 0.4393(10) 0.2385(16)
#END
