
#######################################################################
#
#                 Cambridge Crystallographic Data Centre
#                                CCDC
#
#######################################################################
#
# If this CIF has been generated from an entry in the Cambridge
# Structural Database, then it will include bibliographic, chemical,
# crystal, experimental, refinement or atomic coordinate data resulting
# from the CCDC's data processing and validation procedures.
#
#######################################################################

data_CSD_CIF_ZEYRUS
_audit_creation_date 2013-05-20
_audit_creation_method CSD-ConQuest-V1
_database_code_CSD ZEYRUS
_database_code_depnum_ccdc_archive 'CCDC 896741'
_chemical_formula_sum 'C19 H24 N2 O5'
_chemical_formula_moiety
;
C19 H24 N2 O5
;
_journal_coden_Cambridge 16
_journal_volume 69
_journal_year 2013
_journal_page_first 242
_journal_name_full 'Tetrahedron '
loop_
_publ_author_name
"D.A.Goff"
_chemical_name_systematic
;
10,11-Dimethoxy-2-methyl-3-(nitromethyl)-2,3,3a,4,7,8-hexahydrocyclopenta[2,3]
pyrrolo[2,1-a]isoquinolin-5(1H)-one
;
_cell_volume   3586.718
_exptl_crystal_colour 'colorless'
_exptl_crystal_density_diffrn 1.335
_exptl_crystal_description 'block'
_diffrn_ambient_temperature 100
#These two values have been output from a single CSD field.
_refine_ls_R_factor_gt 0.0414
_refine_ls_wR_factor_gt 0.0414
_symmetry_cell_setting orthorhombic
_symmetry_space_group_name_H-M 'P 21 21 21'
_symmetry_Int_Tables_number 19
loop_
_symmetry_equiv_pos_site_id
_symmetry_equiv_pos_as_xyz
1 x,y,z
2 1/2-x,-y,1/2+z
3 -x,1/2+y,1/2-z
4 1/2+x,1/2-y,-z
_cell_length_a 8.2756(3)
_cell_length_b 18.8679(5)
_cell_length_c 22.9707(7)
_cell_angle_alpha 90
_cell_angle_beta 90
_cell_angle_gamma 90
_cell_formula_units_Z 8
loop_
_atom_type_symbol
_atom_type_radius_bond
C 0.68
H 0.23
N 0.68
O 0.68
loop_
_atom_site_label
_atom_site_type_symbol
_atom_site_fract_x
_atom_site_fract_y
_atom_site_fract_z
C1 C 0.0108(3) 0.25039(11) -0.03699(9)
H1 H 0.05350 0.20940 -0.01580
H2 H -0.01500 0.23650 -0.07700
H3 H -0.08730 0.26750 -0.01760
O1 O 0.13019(17) 0.30605(7) -0.03771(6)
C2 C 0.1652(2) 0.33507(10) 0.01521(8)
C3 C 0.2681(2) 0.39474(10) 0.01474(8)
O2 O 0.31474(18) 0.41733(7) -0.03931(6)
C4 C 0.3997(3) 0.48323(10) -0.04117(9)
H4 H 0.33440 0.52010 -0.02250
H5 H 0.42050 0.49630 -0.08180
H6 H 0.50270 0.47850 -0.02040
C5 C 0.3118(2) 0.42536(9) 0.06692(9)
H7 H 0.38390 0.46460 0.06660
C6 C 0.2536(2) 0.40059(10) 0.12033(9)
C7 C 0.3041(3) 0.43795(10) 0.17600(9)
H8 H 0.30930 0.48970 0.16890
H9 H 0.41340 0.42170 0.18740
C8 C 0.1857(3) 0.42304(10) 0.22547(9)
H10 H 0.23370 0.43770 0.26310
H11 H 0.08490 0.45030 0.21940
N1 N 0.1503(2) 0.34752(9) 0.22641(7)
C9 C 0.2291(3) 0.30079(11) 0.26054(9)
O3 O 0.31922(19) 0.31548(8) 0.30080(6)
C10 C 0.1847(3) 0.22655(10) 0.23989(10)
H12 H 0.13060 0.19980 0.27140
H13 H 0.28270 0.20030 0.22780
C11 C 0.0695(3) 0.23653(10) 0.18786(8)
H14 H 0.11230 0.21090 0.15300
C12 C -0.1072(2) 0.21541(10) 0.19887(8)
H15 H -0.12970 0.21870 0.24160
C13 C -0.1503(3) 0.14114(10) 0.17797(9)
H16 H -0.26850 0.13410 0.18120
H17 H -0.12010 0.13620 0.13650
N2 N -0.0654(2) 0.08556(9) 0.21273(8)
O4 O -0.0741(2) 0.08839(8) 0.26604(6)
O5 O 0.0033(3) 0.03858(11) 0.18706(8)
C14 C -0.2105(3) 0.27074(11) 0.16691(8)
H18 H -0.21160 0.25910 0.12440
C15 C -0.3839(3) 0.27439(12) 0.18873(10)
H19 H -0.43920 0.22970 0.18000
H20 H -0.44020 0.31350 0.16940
H21 H -0.38410 0.28230 0.23090
C16 C -0.1154(3) 0.33961(10) 0.17591(9)
H22 H -0.14550 0.36200 0.21340
H23 H -0.13820 0.37350 0.14400
C17 C 0.0662(2) 0.31863(10) 0.17603(8)
C18 C 0.1494(2) 0.34302(10) 0.12028(8)
C19 C 0.1068(2) 0.31073(9) 0.06776(8)
H24 H 0.03610 0.27110 0.06830
C20 C 0.8162(3) 0.74714(11) 0.07099(9)
H25 H 0.81480 0.78260 0.10210
H26 H 0.89290 0.70940 0.08090
H27 H 0.70790 0.72690 0.06640
O6 O 0.86472(18) 0.78004(7) 0.01748(6)
C21 C 0.7580(2) 0.82766(9) -0.00553(8)
C22 C 0.7825(2) 0.84554(10) -0.06467(9)
O7 O 0.90955(18) 0.81272(8) -0.09136(6)
C23 C 0.9378(3) 0.82953(12) -0.15106(9)
H28 H 0.83950 0.82030 -0.17360
H29 H 1.02610 0.80010 -0.16600
H30 H 0.96700 0.87970 -0.15450
C24 C 0.6756(3) 0.89164(10) -0.09131(9)
H31 H 0.69020 0.90280 -0.13130
C25 C 0.5460(2) 0.92234(10) -0.06084(9)
C26 C 0.4328(3) 0.97150(11) -0.09342(9)
H32 H 0.41340 0.95250 -0.13300
H33 H 0.48390 1.01870 -0.09740
C27 C 0.2716(3) 0.97910(11) -0.06147(9)
H34 H 0.20860 1.01880 -0.07820
H35 H 0.20750 0.93510 -0.06550
N3 N 0.3061(2) 0.99274(9) -0.00054(8)
C28 C 0.3198(3) 1.05926(11) 0.02194(10)
O8 O 0.2694(2) 1.11265(8) -0.00185(8)
C29 C 0.4057(3) 1.05485(10) 0.07988(10)
H36 H 0.33850 1.07590 0.11110
H37 H 0.51020 1.08030 0.07830
C30 C 0.4327(2) 0.97511(10) 0.09098(9)
H38 H 0.54880 0.96590 0.10050
C31 C 0.3232(3) 0.94315(10) 0.13800(8)
H39 H 0.21920 0.97010 0.13880
C32 C 0.3941(3) 0.94183(11) 0.19907(10)
H40 H 0.31750 0.91760 0.22550
H41 H 0.49570 0.91410 0.19860
N4 N 0.4282(3) 1.01431(11) 0.22215(9)
O9 O 0.5543(3) 1.04230(11) 0.20819(10)
O10 O 0.3327(3) 1.04134(18) 0.25403(16)
C33 C 0.2892(2) 0.86709(10) 0.11681(9)
H42 H 0.38820 0.83770 0.12300
C34 C 0.1470(3) 0.83070(11) 0.14607(9)
H43 H 0.05080 0.86070 0.14270
H44 H 0.17180 0.82290 0.18730
H45 H 0.12660 0.78500 0.12710
C35 C 0.2645(3) 0.87754(10) 0.05142(8)
H46 H 0.15200 0.89230 0.04310
H47 H 0.28710 0.83300 0.03010
C36 C 0.3854(2) 0.93661(10) 0.03300(9)
C37 C 0.5265(2) 0.90651(10) -0.00213(9)
C38 C 0.6316(2) 0.8581(1) 0.02455(8)
H48 H 0.61530 0.84600 0.06430
#END
