
#######################################################################
#
#                 Cambridge Crystallographic Data Centre
#                                CCDC
#
#######################################################################
#
# If this CIF has been generated from an entry in the Cambridge
# Structural Database, then it will include bibliographic, chemical,
# crystal, experimental, refinement or atomic coordinate data resulting
# from the CCDC's data processing and validation procedures.
#
#######################################################################

data_CSD_CIF_ZEZMIA
_audit_creation_date 1996-06-14
_audit_creation_method CSD-ConQuest-V1
_database_code_CSD ZEZMIA
_database_code_depnum_ccdc_archive 'CCDC 1311879'
_chemical_formula_sum 'C8 H14 N2 O2'
_chemical_formula_moiety
;
C8 H14 N2 O2
;
_journal_coden_Cambridge 55
_journal_volume 114
_journal_year 1995
_journal_page_first 395
_journal_name_full 'Rec.Trav.Chim.Pays-Bas(Fr.)(Rec.J.R.Neth.Chem.Soc.) '
loop_
_publ_author_name
"J.S.A.M.de Boer"
"H.Schenk"
_chemical_name_systematic
;
N,N'-bis(1-Methylazocyclopropane) N,N'-dioxide
;
_cell_volume    459.777
_exptl_crystal_density_diffrn 1.229
_exptl_special_details
;
Unstable at room temperature

;
_diffrn_ambient_temperature 223
_refine_special_details
;
O atom is disordered.

;
#These two values have been output from a single CSD field.
_refine_ls_R_factor_gt 0.046
_refine_ls_wR_factor_gt 0.046
_symmetry_cell_setting monoclinic
_symmetry_space_group_name_H-M 'P 21/n'
_symmetry_Int_Tables_number 14
loop_
_symmetry_equiv_pos_site_id
_symmetry_equiv_pos_as_xyz
1 x,y,z
2 1/2-x,1/2+y,1/2-z
3 -x,-y,-z
4 -1/2+x,-1/2-y,-1/2+z
_cell_length_a 10.727(5)
_cell_length_b 7.181(3)
_cell_length_c 5.969(2)
_cell_angle_alpha 90
_cell_angle_beta 90.52(2)
_cell_angle_gamma 90
_cell_formula_units_Z 2
loop_
_atom_type_symbol
_atom_type_radius_bond
C 0.68
N 0.68
O 0.68
loop_
_atom_site_label
_atom_site_type_symbol
_atom_site_fract_x
_atom_site_fract_y
_atom_site_fract_z
C1 C -0.0948(1) 0.7065(2) -0.0869(2)
C2 C -0.2154(2) 0.7045(3) 0.0381(3)
C3 C -0.1305(2) 0.8690(3) 0.0568(3)
C4 C -0.0908(2) 0.7184(3) -0.3377(3)
N1 N 0.0051(2) 0.5912(2) 0.0112(2)
O1 O 0.0992(1) 0.6624(2) 0.1098(3)
O2? O 0.546(2) 0.371(2) 0.727(2)
N1B N -0.0051(2) 0.4088(2) -0.0112(2)
C1B C 0.0948(1) 0.2935(2) 0.0869(2)
C2B C 0.2154(2) 0.2955(3) -0.0381(3)
C3B C 0.1305(2) 0.1310(3) -0.0568(3)
C4B C 0.0908(2) 0.2816(3) 0.3377(3)
O1B O -0.0992(1) 0.3376(2) -0.1098(3)
#END
