
#######################################################################
#
#                 Cambridge Crystallographic Data Centre
#                                CCDC
#
#######################################################################
#
# If this CIF has been generated from an entry in the Cambridge
# Structural Database, then it will include bibliographic, chemical,
# crystal, experimental, refinement or atomic coordinate data resulting
# from the CCDC's data processing and validation procedures.
#
#######################################################################

data_CSD_CIF_ZEZMEW
_audit_creation_date 1996-06-14
_audit_creation_method CSD-ConQuest-V1
_database_code_CSD ZEZMEW
_database_code_depnum_ccdc_archive 'CCDC 1311878'
_chemical_formula_sum 'C6 H10 N2 O2'
_chemical_formula_moiety
;
C6 H10 N2 O2
;
_journal_coden_Cambridge 55
_journal_volume 114
_journal_year 1995
_journal_page_first 395
_journal_name_full 'Rec.Trav.Chim.Pays-Bas(Fr.)(Rec.J.R.Neth.Chem.Soc.) '
loop_
_publ_author_name
"J.S.A.M.de Boer"
"H.Schenk"
_chemical_name_systematic
;
N,N'-bis(Azocyclopropane) N,N'-dioxide
;
_cell_volume    709.503
_exptl_crystal_density_diffrn 1.329
_exptl_special_details
;
unstable at room temperature

;
_diffrn_ambient_temperature 243
#These two values have been output from a single CSD field.
_refine_ls_R_factor_gt 0.035
_refine_ls_wR_factor_gt 0.035
_symmetry_cell_setting monoclinic
_symmetry_space_group_name_H-M 'C 2/c'
_symmetry_Int_Tables_number 15
loop_
_symmetry_equiv_pos_site_id
_symmetry_equiv_pos_as_xyz
1 x,y,z
2 -x,y,1/2-z
3 1/2+x,1/2+y,z
4 1/2-x,1/2+y,1/2-z
5 -x,-y,-z
6 x,-y,-1/2+z
7 -1/2-x,-1/2-y,-z
8 -1/2+x,-1/2-y,-1/2+z
_cell_length_a 8.708(2)
_cell_length_b 8.321(1)
_cell_length_c 9.836(2)
_cell_angle_alpha 90
_cell_angle_beta 95.437(3)
_cell_angle_gamma 90
_cell_formula_units_Z 4
loop_
_atom_type_symbol
_atom_type_radius_bond
C 0.68
N 0.68
O 0.68
loop_
_atom_site_label
_atom_site_type_symbol
_atom_site_fract_x
_atom_site_fract_y
_atom_site_fract_z
C1 C 0.3334(2) -0.0720(2) 0.8847(2)
C2 C 0.2679(2) -0.0155(3) 0.7466(2)
C3 C 0.1715(2) -0.0081(3) 0.8641(2)
N1 N 0.4466(1) 0.0331(2) 0.9575(2)
O1 O 0.4407(2) 0.1849(2) 0.9398(2)
N1D N 0.5534(1) -0.0331(2) 1.0425(2)
C1D C 0.6666(2) 0.0720(2) 1.1153(2)
C2D C 0.7321(2) 0.0155(3) 1.2534(2)
C3D C 0.8285(2) 0.0081(3) 1.1359(2)
O1D O 0.5593(2) -0.1849(2) 1.0602(2)
#END
