
#######################################################################
#
#                 Cambridge Crystallographic Data Centre
#                                CCDC
#
#######################################################################
#
# If this CIF has been generated from an entry in the Cambridge
# Structural Database, then it will include bibliographic, chemical,
# crystal, experimental, refinement or atomic coordinate data resulting
# from the CCDC's data processing and validation procedures.
#
#######################################################################

data_CSD_CIF_ZEZTIH
_audit_creation_date 1996-06-30
_audit_creation_method CSD-ConQuest-V1
_database_code_CSD ZEZTIH
_database_code_depnum_ccdc_archive 'CCDC 1311906'
_database_code_depnum_ccdc_fiz 'CSD 59081'
_chemical_formula_sum 'C30 H26 N4 O5'
_chemical_formula_moiety
;
C30 H26 N4 O5
;
_journal_coden_Cambridge 179
_journal_volume 34
_journal_year 1995
_journal_page_first 2402
_journal_name_full 'Angew.Chem.,Int.Ed. '
loop_
_publ_author_name
"H.Waldmann"
"G.Schmidt"
"H.Henke"
"M.Burkard"
_chemical_name_systematic
;
1-(R)-4-Nitrophenyl-2-(N,N-(phthaloyl)valyl)-1,2,3,4-tetrahydro-9H-pyrido(3,4-
b)indole
;
_chemical_name_common
;
1-(R)-4-Nitrophenyl-2-(N,N-(phthaloyl)valyl)-1,2,3,4-tetrahydro-beta-carboline
;
_chemical_melting_point 557.15
_cell_volume   1336.572
_exptl_crystal_density_diffrn 1.298
_diffrn_ambient_temperature 188.15
#These two values have been output from a single CSD field.
_refine_ls_R_factor_gt 0.03
_refine_ls_wR_factor_gt 0.03
_symmetry_cell_setting monoclinic
_symmetry_space_group_name_H-M 'P 21'
_symmetry_Int_Tables_number 4
loop_
_symmetry_equiv_pos_site_id
_symmetry_equiv_pos_as_xyz
1 x,y,z
2 -x,1/2+y,-z
_cell_length_a 12.013(1)
_cell_length_b 9.874(1)
_cell_length_c 12.381(1)
_cell_angle_alpha 90
_cell_angle_beta 114.48(2)
_cell_angle_gamma 90
_cell_formula_units_Z 2
loop_
_atom_type_symbol
_atom_type_radius_bond
C 0.68
H 0.23
N 0.68
O 0.68
loop_
_atom_site_label
_atom_site_type_symbol
_atom_site_fract_x
_atom_site_fract_y
_atom_site_fract_z
C1 C 0.5342(2) 0.4580(2) 0.6311(2)
N1 N 0.4962(2) 0.5312(2) 0.7153(1)
C2 C 0.5358(2) 0.4726(2) 0.8347(2)
C3 C 0.6751(2) 0.4751(3) 0.8993(2)
C4 C 0.7234(2) 0.4050(2) 0.8208(2)
C5 C 0.8309(2) 0.3228(2) 0.8491(2)
C6 C 0.9304(2) 0.2881(2) 0.9547(2)
C7 C 1.0152(2) 0.1960(3) 0.9510(2)
C8 C 1.0032(2) 0.1392(3) 0.8430(2)
C9 C 0.9071(2) 0.1727(3) 0.7373(2)
C10 C 0.8209(2) 0.2644(2) 0.7417(2)
N2 N 0.7145(2) 0.3116(2) 0.6519(2)
C11 C 0.6562(2) 0.3939(2) 0.7016(2)
C12 C 0.4343(2) 0.3579(2) 0.5588(2)
C13 C 0.4248(2) 0.2325(2) 0.6060(2)
C14 C 0.3264(2) 0.1483(2) 0.5452(2)
C15 C 0.2418(2) 0.1899(3) 0.4356(2)
C16 C 0.2517(2) 0.3099(3) 0.3837(2)
C17 C 0.3492(2) 0.3947(2) 0.4471(2)
N3 N 0.1350(2) 0.1018(3) 0.3716(2)
O1 O 0.1127(2) 0.0102(2) 0.4253(2)
O2 O 0.0734(2) 0.1278(3) 0.2677(2)
C18 C 0.4180(2) 0.6362(2) 0.6716(2)
C19 C 0.3733(2) 0.7118(2) 0.7558(2)
C20 C 0.2643(2) 0.8049(2) 0.6847(2)
C21 C 0.1522(2) 0.7170(3) 0.6168(3)
C22 C 0.2379(3) 0.9044(4) 0.7647(2)
N4 N 0.4781(2) 0.7831(2) 0.8464(2)
O3 O 0.3836(2) 0.6712(2) 0.5679(1)
C23 C 0.5483(2) 0.8819(2) 0.8206(2)
C24 C 0.6531(2) 0.9109(2) 0.9355(2)
C25 C 0.7521(2) 0.9954(3) 0.9596(3)
C26 C 0.8387(2) 0.9992(3) 1.0765(2)
C27 C 0.8264(2) 0.9231(3) 1.1651(2)
C28 C 0.7253(2) 0.8399(2) 1.1397(2)
C29 C 0.6395(2) 0.8355(2) 1.0233(2)
C30 C 0.5256(2) 0.7547(2) 0.9682(2)
O4 O 0.5235(2) 0.9283(2) 0.7235(1)
O5 O 0.4799(1) 0.6788(2) 1.0148(1)
H1 H 0.538(2) 0.530(2) 0.574(2)
H2 H 0.494(2) 0.520(2) 0.879(2)
H3 H 0.508(2) 0.382(3) 0.823(2)
H4 H 0.698(2) 0.428(3) 0.978(2)
H5 H 0.705(2) 0.570(3) 0.922(2)
H6 H 0.936(2) 0.328(3) 1.030(2)
H7 H 1.082(2) 0.171(3) 1.024(2)
H8 H 1.062(2) 0.078(3) 0.842(2)
H9 H 0.903(2) 0.135(3) 0.666(2)
H10 H 0.685(2) 0.287(2) 0.577(2)
H11 H 0.486(2) 0.207(3) 0.677(2)
H12 H 0.319(2) 0.063(3) 0.576(2)
H13 H 0.188(2) 0.340(3) 0.305(2)
H14 H 0.361(2) 0.485(3) 0.414(2)
H15 H 0.344(2) 0.647(2) 0.798(2)
H16 H 0.287(2) 0.860(2) 0.628(2)
H17 H 0.129(2) 0.675(3) 0.673(2)
H18 H 0.170(2) 0.641(3) 0.564(2)
H19 H 0.091(2) 0.765(3) 0.564(2)
H20 H 0.220(3) 0.855(3) 0.830(3)
H21 H 0.307(3) 0.956(3) 0.811(3)
H22 H 0.163(3) 0.958(3) 0.718(2)
H23 H 0.763(2) 1.046(3) 0.894(2)
H24 H 0.912(2) 1.049(3) 1.097(2)
H25 H 0.891(2) 0.926(3) 1.245(2)
H26 H 0.714(2) 0.787(2) 1.198(2)
#END
