
#######################################################################
#
#                 Cambridge Crystallographic Data Centre
#                                CCDC
#
#######################################################################
#
# If this CIF has been generated from an entry in the Cambridge
# Structural Database, then it will include bibliographic, chemical,
# crystal, experimental, refinement or atomic coordinate data resulting
# from the CCDC's data processing and validation procedures.
#
#######################################################################

data_CSD_CIF_ZIBFUO
_audit_creation_date 2018-03-27
_audit_creation_method CSD-ConQuest-V1
_database_code_CSD ZIBFUO
_database_code_depnum_ccdc_archive 'CCDC 1574260'
_chemical_formula_sum 'C29 H26 N2 O1'
_chemical_formula_moiety
;
C29 H26 N2 O1
;
_journal_coden_Cambridge 1366
_journal_volume 360
_journal_year 2018
_journal_page_first 1240
_journal_name_full 'Adv.Synth.Catal. '
loop_
_publ_author_name
"Yuanfang Kong"
"Yingze Liu"
"Boyi Wang"
"Shengli Li"
"Lingyan Liu"
"Weixing Chang"
"Jing Li"
_chemical_name_systematic
;
2,3,5,6-tetraphenylhexahydro-2H-pyrrolo[3,2-d][1,2]oxazole
;
_cell_volume   2193.707
_exptl_crystal_colour 'colorless'
_exptl_crystal_density_diffrn 1.267
_exptl_crystal_description 'Prism'
_diffrn_ambient_temperature 113
#These two values have been output from a single CSD field.
_refine_ls_R_factor_gt 0.0824
_refine_ls_wR_factor_gt 0.0824
_symmetry_cell_setting monoclinic
_symmetry_space_group_name_H-M 'P 21/c'
_symmetry_Int_Tables_number 14
loop_
_symmetry_equiv_pos_site_id
_symmetry_equiv_pos_as_xyz
1 x,y,z
2 -x,1/2+y,1/2-z
3 -x,-y,-z
4 x,-1/2-y,-1/2+z
_cell_length_a 11.6449(14)
_cell_length_b 10.0539(11)
_cell_length_c 19.051(2)
_cell_angle_alpha 90
_cell_angle_beta 100.411(2)
_cell_angle_gamma 90
_cell_formula_units_Z 4
loop_
_atom_type_symbol
_atom_type_radius_bond
C 0.68
H 0.23
N 0.68
O 0.68
loop_
_atom_site_label
_atom_site_type_symbol
_atom_site_fract_x
_atom_site_fract_y
_atom_site_fract_z
O1 O 1.00639(18) 0.9816(2) 0.19001(12)
N1 N 0.8606(2) 0.9241(3) 0.25760(14)
N2 N 1.1273(2) 0.9470(3) 0.19314(14)
C1 C 0.9569(3) 0.8786(4) 0.22793(16)
H1 H 0.93710 0.79730 0.19800
C2 C 1.0553(3) 0.8521(3) 0.29207(18)
H2 H 1.04890 0.76110 0.31210
C3 C 1.0319(3) 0.9591(4) 0.34384(18)
H3 H 1.06930 1.04400 0.33430
H4 H 1.06180 0.93190 0.39370
C4 C 0.8965(3) 0.9736(3) 0.33024(16)
H5 H 0.87600 1.07000 0.33160
C5 C 0.8414(2) 0.8995(3) 0.38487(15)
C6 C 0.8164(3) 0.7648(3) 0.38204(17)
H6 H 0.83000 0.71300 0.34260
C7 C 0.7706(3) 0.7050(3) 0.4379(2)
H7 H 0.75520 0.61210 0.43680
C8 C 0.7481(3) 0.7808(4) 0.49384(17)
H8 H 0.71590 0.74040 0.53100
C9 C 0.7719(3) 0.9138(4) 0.49641(17)
H9 H 0.75530 0.96610 0.53490
C10 C 0.8200(3) 0.9718(3) 0.44318(17)
H10 H 0.83900 1.06370 0.44640
C11 C 0.7521(3) 0.9571(3) 0.21483(17)
C12 C 0.6559(3) 0.9918(4) 0.24616(17)
H11 H 0.66440 0.99520 0.29670
C13 C 0.5496(3) 1.0209(4) 0.20452(19)
H12 H 0.48540 1.04280 0.22680
C14 C 0.5346(3) 1.0188(3) 0.13077(18)
H13 H 0.46080 1.03870 0.10240
C15 C 0.6297(3) 0.9871(3) 0.09905(17)
H14 H 0.62080 0.98590 0.04850
C16 C 0.7363(3) 0.9576(3) 0.13981(16)
H15 H 0.80030 0.93710 0.11710
C17 C 1.1661(3) 0.8665(3) 0.25980(17)
H16 H 1.18870 0.77610 0.24520
C18 C 1.2711(2) 0.9269(3) 0.30787(14)
C19 C 1.3501(2) 0.8441(3) 0.35056(16)
H17 H 1.33670 0.75080 0.35000
C20 C 1.4481(3) 0.8962(4) 0.39386(17)
H18 H 1.50130 0.83850 0.42290
C21 C 1.4689(3) 1.0304(4) 0.39504(17)
H19 H 1.53610 1.06560 0.42510
C22 C 1.3917(3) 1.1147(3) 0.35236(16)
H20 H 1.40630 1.20770 0.35280
C23 C 1.2929(2) 1.0629(3) 0.30886(15)
H21 H 1.24010 1.12080 0.27970
C24 C 1.1485(2) 0.8889(3) 0.12958(16)
C25 C 1.0639(3) 0.8807(3) 0.06809(17)
H22 H 0.98520 0.90410 0.06940
C26 C 1.0944(3) 0.8386(3) 0.00553(17)
H23 H 1.03620 0.83310 -0.03630
C27 C 1.2085(3) 0.8039(3) 0.00197(18)
H24 H 1.22920 0.77690 -0.04190
C28 C 1.2917(3) 0.8095(3) 0.06380(19)
H25 H 1.37000 0.78460 0.06240
C29 C 1.2629(3) 0.8502(3) 0.12675(18)
H26 H 1.32090 0.85230 0.16880
#END
