
#######################################################################
#
#                 Cambridge Crystallographic Data Centre
#                                CCDC
#
#######################################################################
#
# If this CIF has been generated from an entry in the Cambridge
# Structural Database, then it will include bibliographic, chemical,
# crystal, experimental, refinement or atomic coordinate data resulting
# from the CCDC's data processing and validation procedures.
#
#######################################################################

data_CSD_CIF_ZIBPOP
_audit_creation_date 1996-06-14
_audit_creation_method CSD-ConQuest-V1
_database_code_CSD ZIBPOP
_chemical_formula_sum 'C40 H55 N1 O12'
_chemical_formula_moiety
;
C40 H55 N1 O12
;
_journal_coden_Cambridge 4
_journal_volume 117
_journal_year 1995
_journal_page_first 10227
_journal_name_full 'J.Am.Chem.Soc. '
loop_
_publ_author_name
"K.C.Nicolaou"
"C.-K.Hwang"
"M.E.Duggan"
"D.A.Nugiel"
"Y.Abe"
"K.B.Reddy"
"S.A.DeFrees"
"D.R.Reddy"
"R.A.Awartani"
"S.R.Conley"
"F.P.J.T.Rutjes"
"E.A.Theodorakis"
_chemical_name_systematic
;
19-(4-(4-Nitrobenzoyloxy)-5-methyl-5-(3-methyl-2,3-epoxypent-4-enyl)-2-tetrahy
drofuranyl)-7,7,12,19,22-pentamethyl-2,6,8,11,15,20-hexaoxapentacyclo(12.9.0.0
^3,12^.0^5,10^.0^16,21^)tricosane
;
_chemical_melting_point 441.15
_cell_volume   3916.612
_exptl_crystal_colour 'white'
_exptl_crystal_density_diffrn 1.258
_exptl_special_details
;
Melting point range 441.15-443.15K

;
_diffrn_ambient_temperature ?
_diffrn_special_details
;
The study was carried out at room temperature,in the range 283-303K

;
#These two values have been output from a single CSD field.
_refine_ls_R_factor_gt 0.079
_refine_ls_wR_factor_gt 0.079
_symmetry_cell_setting orthorhombic
_symmetry_space_group_name_H-M 'P 21 21 21'
_symmetry_Int_Tables_number 19
loop_
_symmetry_equiv_pos_site_id
_symmetry_equiv_pos_as_xyz
1 x,y,z
2 1/2-x,-y,1/2+z
3 1/2+x,1/2-y,-z
4 -x,1/2+y,1/2-z
_cell_length_a 6.220(1)
_cell_length_b 10.014(3)
_cell_length_c 62.88(1)
_cell_angle_alpha 90
_cell_angle_beta 90
_cell_angle_gamma 90
_cell_formula_units_Z 4
loop_
_atom_type_symbol
_atom_type_radius_bond
C 0.68
H 0.23
N 0.68
O 0.68
loop_
_atom_site_label
_atom_site_type_symbol
_atom_site_fract_x
_atom_site_fract_y
_atom_site_fract_z
C1 C 0.147(2) 0.810(1) 0.0610(1)
C2 C 0.006(1) 0.933(1) 0.0608(1)
C3 C -0.038(1) 0.964(1) 0.0841(1)
C4 C 0.143(2) 0.8937(9) 0.0963(1)
C5 C 0.299(1) 0.9796(9) 0.1085(1)
C6 C 0.471(1) 0.892(1) 0.1189(1)
C7 C 0.396(2) 0.821(1) 0.1390(1)
C8 C 0.305(1) 0.9258(8) 0.1539(1)
C9 C 0.106(1) 0.9881(8) 0.1424(1)
C10 C -0.026(1) 1.0851(9) 0.1568(1)
C11 C 0.100(1) 1.1545(8) 0.1740(1)
C12 C 0.132(1) 1.0642(8) 0.1936(1)
C13 C 0.296(1) 0.9532(8) 0.1912(1)
C14 C 0.307(1) 0.8683(7) 0.2115(1)
C15 C 0.350(1) 0.9621(7) 0.2309(1)
C16 C 0.180(1) 1.0708(7) 0.2306(1)
C17 C 0.193(1) 1.1633(7) 0.2498(1)
C18 C 0.161(1) 1.0700(7) 0.2684(1)
C19 C 0.326(1) 0.9599(8) 0.2686(1)
C20 C 0.283(1) 0.8689(8) 0.2879(1)
C21 C 0.146(1) 1.0610(8) 0.3062(1)
C22 C 0.013(2) 0.686(1) 0.0621(2)
C23 C 0.101(3) 0.568(1) 0.0717(2)
C24 C 0.062(3) 0.512(1) 0.0925(2)
C25 C 0.250(5) 0.449(2) 0.1041(2)
C26 C 0.284(3) 0.444(2) 0.1237(3)
C27 C -0.123(3) 0.559(2) 0.1049(2)
C28 C 0.001(2) 1.139(1) 0.0416(1)
C29 C 0.123(2) 1.248(1) 0.0325(1)
C30 C 0.034(2) 1.330(1) 0.0179(1)
C31 C 0.144(2) 1.434(1) 0.0085(1)
C32 C 0.349(2) 1.458(1) 0.0152(1)
C33 C 0.444(2) 1.380(1) 0.0303(1)
C34 C 0.340(2) 1.270(1) 0.0386(1)
C35 C 0.318(2) 0.800(1) 0.0431(1)
C36 C 0.405(1) 1.087(1) 0.0944(1)
C37 C -0.140(2) 1.191(1) 0.1426(1)
C38 C 0.583(1) 1.01030(9) 0.2301(1)
C39 C 0.212(2) 1.149(1) 0.3251(1)
C40 C -0.093(2) 1.018(1) 0.3085(1)
N1 N 0.478(2) 1.5640(8) 0.0053(1)
O1 O 0.268(1) 0.8223(6) 0.08028(8)
O2 O 0.1868(9) 1.0582(6) 0.12442(7)
O3 O 0.2468(9) 0.8668(5) 0.17369(7)
O4 O 0.1912(8) 1.1473(5) 0.21111(7)
O5 O 0.3140(8) 0.8815(4) 0.24959(7)
O6 O 0.1768(9) 1.1422(5) 0.28814(7)
O7 O 0.284(1) 0.9493(6) 0.30625(7)
O8 O 0.004(3) 0.443(1) 0.0735(2)
O9 O 0.116(1) 1.0437(7) 0.05069(8)
O10 O -0.197(1) 1.1344(9) 0.0414(1)
O11 O 0.382(2) 1.6331(8) -0.0073(1)
O12 O 0.672(2) 1.576(1) 0.0104(2)
H1 H -0.12490 0.91600 0.05270
H2 H 0.06910 0.83610 0.10670
H3 H 0.40750 0.99820 0.15660
H4 H 0.00520 0.91460 0.13940
H5 H -0.12530 1.03280 0.16470
H6 H 0.00300 1.01370 0.19550
H7 H 0.43050 1.00040 0.18930
H8 H 0.04350 1.02780 0.23160
H9 H 0.02010 1.03040 0.26720
H10 H 0.46790 1.00240 0.26920
H11 H 0.23350 0.60140 0.06430
H12 H -0.03530 1.05920 0.08650
H13 H -0.18090 0.93390 0.08820
H14 H 0.50020 0.81490 0.10850
H15 H 0.59630 0.93330 0.12120
H16 H 0.28170 0.75860 0.13580
H17 H 0.50930 0.77610 0.14550
H18 H 0.23600 1.18000 0.16840
H19 H 0.02390 1.23280 0.17830
H20 H 0.17120 0.82260 0.21310
H21 H 0.41630 0.80220 0.20990
H22 H 0.33160 1.20460 0.25050
H23 H 0.08600 1.23050 0.24920
H24 H 0.14550 0.82670 0.28590
H25 H 0.38990 0.80080 0.28870
H26 H -0.12110 0.69890 0.07060
H27 H -0.04210 0.65600 0.04820
H28 H 0.36570 0.40450 0.09590
H29 H 0.35720 0.38050 0.13390
H30 H 0.23450 0.52600 0.13460
H31 H -0.11750 1.32100 0.01480
H32 H 0.07880 1.48620 -0.00270
H33 H 0.58480 1.40140 0.03580
H34 H 0.41050 1.21360 0.04860
H35 H 0.38470 0.71470 0.04220
H36 H 0.42120 1.05710 0.08000
H37 H -0.04660 1.26200 0.13930
H38 H 0.59850 1.06670 0.21770
H39 H 0.21010 1.23620 0.32230
H40 H -0.10870 0.95030 0.31870
H41 H 0.25220 0.81810 0.02940
H42 H 0.43080 0.86610 0.04480
H43 H 0.32010 1.16710 0.09420
H44 H 0.54600 1.11080 0.09950
H45 H -0.18580 1.14890 0.12960
H46 H -0.26490 1.22480 0.14960
H47 H 0.61190 1.06360 0.24230
H48 H 0.67640 0.93860 0.22920
H49 H 0.12410 1.12620 0.33740
H50 H 0.35930 1.12010 0.32930
H51 H -0.17930 1.09430 0.31290
H52 H -0.14680 0.98870 0.29510
H53 H -0.26120 0.54340 0.09810
H54 H -0.13240 0.51590 0.11870
H55 H -0.11910 0.65470 0.10790
#END
