
#######################################################################
#
#                 Cambridge Crystallographic Data Centre
#                                CCDC
#
#######################################################################
#
# If this CIF has been generated from an entry in the Cambridge
# Structural Database, then it will include bibliographic, chemical,
# crystal, experimental, refinement or atomic coordinate data resulting
# from the CCDC's data processing and validation procedures.
#
#######################################################################

data_CSD_CIF_ZIBSAE
_audit_creation_date 1996-06-20
_audit_creation_method CSD-ConQuest-V1
_database_code_CSD ZIBSAE
_database_code_depnum_ccdc_archive 'CCDC 1311997'
_chemical_formula_sum 'C14 H22 N2 O2'
_chemical_formula_moiety
;
C14 H22 N2 O2
;
_journal_coden_Cambridge 4
_journal_volume 117
_journal_year 1995
_journal_page_first 10460
_journal_name_full 'J.Am.Chem.Soc. '
loop_
_publ_author_name
"M.L.Greer"
"H.Sarker"
"M.E.Mendicino"
"S.C.Blackstock"
_chemical_name_systematic
;
N,N'-Dioxo-1,1'-azo-bis(norbornane)
;
_chemical_melting_point 430.15
_cell_volume    639.578
_exptl_crystal_colour 'colorless'
_exptl_crystal_density_diffrn 1.3
_exptl_special_details
;
Melting point range 430.15-433.15K

;
_diffrn_ambient_temperature ?
_diffrn_special_details
;
The study was carried out at room temperature,in the range 283-303K

;
#These two values have been output from a single CSD field.
_refine_ls_R_factor_gt 0.036
_refine_ls_wR_factor_gt 0.036
_symmetry_cell_setting monoclinic
_symmetry_space_group_name_H-M 'C 2/m'
_symmetry_Int_Tables_number 12
loop_
_symmetry_equiv_pos_site_id
_symmetry_equiv_pos_as_xyz
1 x,y,z
2 -x,y,-z
3 1/2+x,1/2+y,z
4 1/2-x,1/2+y,-z
5 -x,-y,-z
6 x,-y,z
7 -1/2-x,-1/2-y,-z
8 -1/2+x,-1/2-y,z
_cell_length_a 6.478(3)
_cell_length_b 10.136(3)
_cell_length_c 9.742(2)
_cell_angle_alpha 90
_cell_angle_beta 90.97(3)
_cell_angle_gamma 90
_cell_formula_units_Z 2
loop_
_atom_type_symbol
_atom_type_radius_bond
C 0.68
H 0.23
N 0.68
O 0.68
loop_
_atom_site_label
_atom_site_type_symbol
_atom_site_fract_x
_atom_site_fract_y
_atom_site_fract_z
O1 O 0.2091(5) 0.00000 0.3979(3)
N1 N 0.0221(5) 0.00000 0.4347(3)
C1 C -0.1483(7) 0.00000 0.3312(4)
C2 C -0.2842(4) 0.1240(3) 0.3323(3)
C3 C -0.3764(5) 0.1217(4) 0.1855(3)
C4 C -0.2815(7) 0.00000 0.1200(4)
C5 C -0.0658(7) 0.00000 0.1861(5)
H1 H -0.38920 0.11390 0.40240
H2 H -0.19970 0.20430 0.34970
H3 H -0.52850 0.12110 0.18180
H4 H -0.33520 0.19880 0.13740
H5 H -0.29350 0.00000 0.01470
H6 H 0.01830 0.08380 0.16620
N1A N -0.0221(5) 0.00000 0.5653(3)
O1A O -0.2091(5) 0.00000 0.6021(3)
C1A C 0.1483(7) 0.00000 0.6688(4)
C2A C 0.2842(4) 0.1240(3) 0.6677(3)
C3A C 0.3764(5) 0.1217(4) 0.8145(3)
C4A C 0.2815(7) 0.00000 0.8800(4)
C3D C 0.3764(5) -0.1217(4) 0.8145(3)
C2D C 0.2842(4) -0.1240(3) 0.6677(3)
C5A C 0.0658(7) 0.00000 0.8139(5)
H5A H 0.29350 0.00000 0.98530
H6A H -0.01830 0.08380 0.83380
H6D H -0.01830 -0.08380 0.83380
H1D H 0.38920 -0.11390 0.59760
H2D H 0.19970 -0.20430 0.65030
H3D H 0.52850 -0.12110 0.81820
H4D H 0.33520 -0.19880 0.86260
H3A H 0.52850 0.12110 0.81820
H4A H 0.33520 0.19880 0.86260
H1A H 0.38920 0.11390 0.59760
H2A H 0.19970 0.20430 0.65030
C2E C -0.2842(4) -0.1240(3) 0.3323(3)
C3E C -0.3764(5) -0.1217(4) 0.1855(3)
H3E H -0.52850 -0.12110 0.18180
H4E H -0.33520 -0.19880 0.13740
H1E H -0.38920 -0.11390 0.40240
H2E H -0.19970 -0.20430 0.34970
H6E H 0.01830 -0.08380 0.16620
#END
