
#######################################################################
#
#                 Cambridge Crystallographic Data Centre
#                                CCDC
#
#######################################################################
#
# If this CIF has been generated from an entry in the Cambridge
# Structural Database, then it will include bibliographic, chemical,
# crystal, experimental, refinement or atomic coordinate data resulting
# from the CCDC's data processing and validation procedures.
#
#######################################################################

data_CSD_CIF_ZIBWEM
_audit_creation_date 1996-06-20
_audit_creation_method CSD-ConQuest-V1
_database_code_CSD ZIBWEM
_chemical_formula_sum 'C26 H30 N2 O4'
_chemical_formula_moiety
;
C26 H30 N2 O4
;
_journal_coden_Cambridge 16
_journal_volume 51
_journal_year 1995
_journal_page_first 9851
_journal_name_full 'Tetrahedron '
loop_
_publ_author_name
"T.Yamato"
"K.Fujita"
"H.Kamimura"
"T.Tashiro"
"A.J.Fry"
"J.Simon"
"J.Ochterski"
_chemical_name_systematic
;
4,5-Dinitro-2,7-di-t-butyl-trans-10b,10c-dimethyl-10b,10c-dihydropyrene
;
_chemical_melting_point 495.15
_cell_volume   2331.409
_exptl_crystal_colour 'purple'
_exptl_crystal_density_diffrn 1.24
_exptl_special_details
;
Melting point range 495.15-497.15K

;
_diffrn_ambient_temperature ?
_diffrn_special_details
;
The study was carried out at room temperature,in the range 283-303K

;
#These two values have been output from a single CSD field.
_refine_ls_R_factor_gt 0.061
_refine_ls_wR_factor_gt 0.061
_symmetry_cell_setting orthorhombic
_symmetry_space_group_name_H-M 'P n a 21'
_symmetry_Int_Tables_number 33
loop_
_symmetry_equiv_pos_site_id
_symmetry_equiv_pos_as_xyz
1 x,y,z
2 -x,-y,1/2+z
3 1/2-x,1/2+y,1/2+z
4 1/2+x,1/2-y,z
_cell_length_a 19.620(2)
_cell_length_b 6.841(1)
_cell_length_c 17.370(2)
_cell_angle_alpha 90
_cell_angle_beta 90
_cell_angle_gamma 90
_cell_formula_units_Z 4
loop_
_atom_type_symbol
_atom_type_radius_bond
C 0.68
H 0.23
N 0.68
O 0.68
loop_
_atom_site_label
_atom_site_type_symbol
_atom_site_fract_x
_atom_site_fract_y
_atom_site_fract_z
O1 O -0.2473(3) 0.915(1) 0.8265(3)
O2 O -0.2200(3) 0.714(1) 0.9152(3)
O3 O -0.0868(3) 0.887(1) 0.9048(4)
O4 O -0.0562(3) 0.613(1) 0.9580(3)
N1 N -0.2141(3) 0.777(1) 0.8507(4)
N2 N -0.0811(3) 0.707(1) 0.9053(3)
C1 C -0.2066(4) 0.530(1) 0.5708(4)
C2 C -0.2498(4) 0.670(1) 0.6080(4)
C3 C -0.1782(4) 0.652(1) 0.7230(4)
C4 C -0.2364(4) 0.721(1) 0.6833(4)
C5 C -0.1644(3) 0.685(1) 0.7997(4)
C6 C -0.1045(3) 0.605(1) 0.8365(4)
C7 C -0.0648(4) 0.461(1) 0.8044(4)
C8 C -0.0072(3) 0.373(1) 0.8368(4)
C9 C 0.0311(4) 0.237(1) 0.79900
C10 C 0.0168(4) 0.200(1) 0.7201(4)
C11 C -0.0380(4) 0.273(1) 0.6827(4)
C12 C -0.0511(4) 0.238(2) 0.6038(4)
C13 C -0.1225(4) 0.545(1) 0.6790(4)
C14 C -0.1065(4) 0.316(1) 0.5677(4)
C15 C -0.1493(4) 0.458(1) 0.6043(4)
C16 C -0.0912(4) 0.379(1) 0.7277(4)
C17 C -0.3124(4) 0.752(2) 0.5667(4)
C18 C -0.3042(5) 0.754(2) 0.4806(5)
C19 C -0.3345(7) 0.950(3) 0.5964(8)
C20 C -0.3738(6) 0.631(3) 0.5847(7)
C21 C 0.0905(4) 0.129(1) 0.8366(5)
C22 C 0.0963(5) 0.183(2) 0.9232(6)
C23 C 0.1569(4) 0.193(2) 0.7922(6)
C24 C 0.0814(4) -0.087(2) 0.8270(7)
C25 C -0.0693(4) 0.702(1) 0.6571(5)
C26 C -0.1475(4) 0.222(1) 0.7506(4)
H1 H -0.219(3) 0.49(1) 0.525(3)
H2 H -0.274(3) 0.81(1) 0.710(3)
H3 H 0.007(3) 0.41(1) 0.895(4)
H4 H 0.043(3) 0.13(1) 0.689(4)
H5 H -0.016(3) 0.15(1) 0.581(4)
H6 H -0.117(3) 0.28(1) 0.513(4)
H7 H -0.345(3) 0.81(1) 0.457(4)
H8 H -0.265(3) 0.84(1) 0.468(4)
H9 H -0.296(3) 0.62(1) 0.462(4)
H10 H -0.374(3) 0.99(1) 0.569(4)
H11 H -0.346(3) 0.94(1) 0.651(4)
H12 H -0.296(3) 1.04(1) 0.589(4)
H13 H -0.413(3) 0.68(1) 0.557(4)
H14 H -0.364(3) 0.51(1) 0.565(3)
H15 H -0.382(3) 0.63(1) 0.639(4)
H16 H 0.132(3) 0.11(1) 0.944(4)
H17 H 0.106(3) 0.32(1) 0.928(4)
H18 H 0.054(3) 0.15(1) 0.951(4)
H19 H 0.196(3) 0.13(1) 0.813(3)
H20 H 0.154(3) 0.16(1) 0.738(4)
H21 H 0.162(3) 0.33(1) 0.799(4)
H22 H 0.118(3) -0.16(3) 0.852(4)
H23 H 0.040(3) -0.13(1) 0.852(4)
H24 H 0.079(3) -0.12(1) 0.773(4)
H25 H -0.090(3) 0.83(1) 0.629(4)
H26 H -0.048(3) 0.76(1) 0.696(4)
H27 H -0.024(3) 0.62(1) 0.632(3)
H28 H -0.123(3) 0.11(1) 0.789(4)
H29 H -0.169(3) 0.32(1) 0.777(4)
H30 H -0.158(3) 0.17(1) 0.699(4)
#END
