
#######################################################################
#
#                 Cambridge Crystallographic Data Centre
#                                CCDC
#
#######################################################################
#
# If this CIF has been generated from an entry in the Cambridge
# Structural Database, then it will include bibliographic, chemical,
# crystal, experimental, refinement or atomic coordinate data resulting
# from the CCDC's data processing and validation procedures.
#
#######################################################################

data_CSD_CIF_ZICBAQ
_audit_creation_date 2013-05-20
_audit_creation_method CSD-ConQuest-V1
_database_code_CSD ZICBAQ
_database_code_depnum_ccdc_archive 'CCDC 895693'
_chemical_formula_sum 'C9 H11 N3 O2'
_chemical_formula_moiety
;
C9 H11 N3 O2
;
_journal_coeditor_code "IUCr hb7034"
_journal_coden_Cambridge 1370
_journal_volume 69
_journal_year 2013
_journal_page_first o370
_journal_name_full 'Acta Crystallogr.,Sect.E:Struct.Rep.Online '
loop_
_publ_author_name
"H.-K.Fun"
"C.W.Ooi"
"Dinesha"
"S.Viveka"
"G.K.Nagaraja"
_chemical_name_systematic
;
(Z)-N-[2-(N'-Hydroxycarbamimidoyl)phenyl]acetamide
;
_cell_volume    920.586
_exptl_crystal_colour 'colorless'
_exptl_crystal_density_diffrn 1.394
_exptl_crystal_description 'plate'
_diffrn_ambient_temperature 100
#These two values have been output from a single CSD field.
_refine_ls_R_factor_gt 0.0421
_refine_ls_wR_factor_gt 0.0421
_symmetry_cell_setting triclinic
_symmetry_space_group_name_H-M 'P -1'
_symmetry_Int_Tables_number 2
loop_
_symmetry_equiv_pos_site_id
_symmetry_equiv_pos_as_xyz
1 x,y,z
2 -x,-y,-z
_cell_length_a 8.7813(12)
_cell_length_b 9.5432(13)
_cell_length_c 11.9770(15)
_cell_angle_alpha 80.722(2)
_cell_angle_beta 78.531(2)
_cell_angle_gamma 70.181(2)
_cell_formula_units_Z 4
loop_
_atom_type_symbol
_atom_type_radius_bond
C 0.68
H 0.23
N 0.68
O 0.68
loop_
_atom_site_label
_atom_site_type_symbol
_atom_site_fract_x
_atom_site_fract_y
_atom_site_fract_z
O1 O 1.06478(11) 0.25713(11) 0.46170(9)
O2 O 0.37005(11) 0.17841(12) 0.55131(8)
N1 N 0.91075(13) 0.26562(12) 0.43516(9)
N2 N 0.91118(15) 0.50889(14) 0.36926(11)
N3 N 0.59696(13) 0.25477(13) 0.50343(9)
C1 C 0.55777(15) 0.36511(14) 0.41114(11)
C2 C 0.40471(16) 0.41035(15) 0.37477(11)
H1 H 0.32470 0.36460 0.41180
C3 C 0.36921(16) 0.52204(15) 0.28463(12)
H2 H 0.26450 0.55250 0.26130
C4 C 0.48421(17) 0.58940(15) 0.22839(11)
H3 H 0.45960 0.66440 0.16610
C5 C 0.63585(16) 0.54578(15) 0.26423(11)
H4 H 0.71460 0.59240 0.22610
C6 C 0.67591(15) 0.43462(14) 0.35539(11)
C7 C 0.83924(15) 0.39970(14) 0.39030(11)
C8 C 0.50778(15) 0.16825(14) 0.56596(11)
C9 C 0.59175(17) 0.05670(16) 0.65623(12)
H5 H 0.60190 -0.04460 0.64200
H6 H 0.52710 0.07790 0.73180
H7 H 0.70100 0.06410 0.65370
H8 H 0.696(2) 0.235(2) 0.5204(15)
H9 H 0.998(2) 0.488(2) 0.3996(15)
H10 H 0.851(2) 0.602(3) 0.3617(17)
H11 H 1.085(2) 0.168(2) 0.5101(17)
O3 O 1.10383(11) 0.00132(11) 0.61515(8)
O4 O 0.71673(13) -0.21124(12) 1.05408(8)
N4 N 0.97720(13) 0.02967(12) 0.71262(9)
N5 N 1.14247(14) 0.15404(13) 0.75828(11)
N6 N 0.79291(14) -0.06646(13) 0.89487(10)
C10 C 0.78846(16) 0.06046(15) 0.94314(11)
C11 C 0.68093(17) 0.10631(16) 1.04286(12)
H12 H 0.60930 0.05130 1.07930
C12 C 0.67802(19) 0.23181(17) 1.08911(13)
H13 H 0.60630 0.26080 1.15800
C13 C 0.77935(18) 0.31493(17) 1.03513(13)
H14 H 0.77680 0.40110 1.06650
C14 C 0.88416(17) 0.27147(15) 0.93527(12)
H15 H 0.95240 0.32950 0.89830
C15 C 0.89229(15) 0.14440(14) 0.88740(11)
C16 C 1.01102(15) 0.10389(14) 0.78082(11)
C17 C 0.76306(17) -0.19266(16) 0.95037(12)
C18 C 0.7947(2) -0.31289(18) 0.87350(13)
H16 H 0.71220 -0.36410 0.89810
H17 H 0.90410 -0.38530 0.87800
H18 H 0.78860 -0.26760 0.79440
H19 H 0.840(2) -0.069(2) 0.8244(17)
H20 H 1.181(2) 0.165(2) 0.8176(18)
H21 H 1.218(2) 0.116(2) 0.6985(17)
H22 H 1.095(2) -0.089(2) 0.5974(17)
#END
