
#######################################################################
#
#                 Cambridge Crystallographic Data Centre
#                                CCDC
#
#######################################################################
#
# If this CIF has been generated from an entry in the Cambridge
# Structural Database, then it will include bibliographic, chemical,
# crystal, experimental, refinement or atomic coordinate data resulting
# from the CCDC's data processing and validation procedures.
#
#######################################################################

data_CSD_CIF_ZICCET
_audit_creation_date 1996-06-20
_audit_creation_method CSD-ConQuest-V1
_database_code_CSD ZICCET
_chemical_formula_sum 'C18 H18 N2 O8'
_chemical_formula_moiety
;
C18 H18 N2 O8
;
_journal_coden_Cambridge 16
_journal_volume 51
_journal_year 1995
_journal_page_first 11601
_journal_name_full 'Tetrahedron '
loop_
_publ_author_name
"P.J.Ainsworth"
"D.Craig"
"J.C.Reader"
"A.M.Z.Slawin"
"A.J.P.White"
"D.J.Williams"
_chemical_name_systematic
;
(1R*,2S*,5R*,6R*,1'R*)-5-(1-(3,5-Dinitrobenzoyloxy)ethyl)-2-methyl-9-oxo-8-oxa
bicyclo(4.3.0)non-3-ene
;
_chemical_melting_point 407.15
_cell_volume   1844.934
_exptl_crystal_colour 'yellow'
_exptl_crystal_density_diffrn 1.405
_diffrn_ambient_temperature ?
_diffrn_special_details
;
The study was carried out at room temperature,in the range 283-303K

;
#These two values have been output from a single CSD field.
_refine_ls_R_factor_gt 0.076
_refine_ls_wR_factor_gt 0.076
_symmetry_cell_setting triclinic
_symmetry_space_group_name_H-M 'P -1'
_symmetry_Int_Tables_number 2
loop_
_symmetry_equiv_pos_site_id
_symmetry_equiv_pos_as_xyz
1 x,y,z
2 -x,-y,-z
_cell_length_a 8.215(3)
_cell_length_b 14.377(4)
_cell_length_c 17.097(5)
_cell_angle_alpha 112.31(2)
_cell_angle_beta 97.90(3)
_cell_angle_gamma 91.04(3)
_cell_formula_units_Z 4
loop_
_atom_type_symbol
_atom_type_radius_bond
C 0.68
H 0.23
N 0.68
O 0.68
loop_
_atom_site_label
_atom_site_type_symbol
_atom_site_fract_x
_atom_site_fract_y
_atom_site_fract_z
C1 C 0.3179(10) 0.3884(7) 0.1074(4)
O1 O 0.1757(6) 0.3534(4) 0.0879(3)
O2 O 0.3513(6) 0.4824(4) 0.1074(3)
C2 C 0.5277(9) 0.5069(5) 0.1300(5)
C3 C 0.6037(8) 0.4063(5) 0.1090(4)
C4 C 0.4726(8) 0.3481(5) 0.1302(4)
C5 C 0.4908(9) 0.2345(5) 0.0904(5)
C6 C 0.6674(10) 0.2175(5) 0.1024(4)
C7 C 0.7951(9) 0.2861(5) 0.1278(4)
C8 C 0.7739(7) 0.3972(5) 0.1467(4)
C9 C 0.3936(11) 0.1738(6) 0.1286(6)
C10 C 0.8306(7) 0.4608(5) 0.2414(4)
C11 C 1.0158(8) 0.4753(5) 0.2688(4)
O3 O 0.7604(5) 0.4083(3) 0.2901(3)
C12 C 0.7473(8) 0.4593(6) 0.3710(4)
O4 O 0.7707(7) 0.5493(4) 0.4087(3)
C13 C 0.6967(8) 0.3910(5) 0.4128(4)
C14 C 0.6704(8) 0.4327(5) 0.4973(4)
C15 C 0.6255(8) 0.3709(6) 0.5355(4)
C16 C 0.6099(8) 0.2675(6) 0.4946(5)
C17 C 0.6374(9) 0.2284(5) 0.4122(5)
C18 C 0.6816(8) 0.2866(5) 0.3689(4)
N1 N 0.5946(9) 0.4155(7) 0.6251(5)
O5 O 0.6040(6) 0.5070(5) 0.6590(3)
O6 O 0.5616(10) 0.3595(5) 0.6592(4)
N2 N 0.6290(11) 0.1176(5) 0.3674(5)
O7 O 0.5759(8) 0.0667(4) 0.4011(4)
O8 O 0.6667(15) 0.0835(5) 0.2981(6)
H1 H 0.55650 0.54670 0.19010
H2 H 0.56600 0.54330 0.09830
H3 H 0.59720 0.37680 0.04790
H4 H 0.49090 0.36720 0.19120
H5 H 0.45020 0.21170 0.03020
H6 H 0.69280 0.14930 0.09190
H7 H 0.90470 0.26510 0.13430
H8 H 0.84700 0.41840 0.11640
H9 H 0.40280 0.10260 0.10150
H10 H 0.43640 0.19630 0.18850
H11 H 0.27980 0.18770 0.12170
H12 H 0.78780 0.52590 0.25550
H13 H 1.04300 0.51620 0.32870
H14 H 1.05640 0.40990 0.25760
H15 H 1.06560 0.50680 0.23650
H16 H 0.68520 0.50450 0.52800
H17 H 0.58140 0.22560 0.52380
H18 H 0.70010 0.25700 0.31050
C19 C 0.8181(9) -0.2771(7) 0.1072(4)
O9 O 0.6765(6) -0.2656(4) 0.0903(3)
O10 O 0.8645(6) -0.3642(4) 0.1104(3)
C20 C 1.0394(9) -0.3610(5) 0.1306(5)
C21 C 1.1020(8) -0.2752(5) 0.1074(4)
C22 C 0.9676(7) -0.2041(5) 0.1290(4)
C23 C 0.9728(9) -0.1288(5) 0.0864(5)
C24 C 1.1478(11) -0.0907(5) 0.0969(5)
C25 C 1.2765(10) -0.1276(6) 0.1242(4)
C26 C 1.2747(7) -0.2209(5) 0.1473(4)
C27 C 0.8616(11) -0.0444(6) 0.1221(6)
C28 C 1.3294(8) -0.1959(5) 0.2419(4)
C29 C 1.5142(8) -0.1828(5) 0.2686(4)
O11 O 1.2594(5) -0.0997(3) 0.2885(3)
C30 C 1.2452(8) -0.0768(5) 0.3713(4)
O12 O 1.2649(6) -0.1318(4) 0.4075(3)
C31 C 1.1948(8) 0.0285(5) 0.4098(4)
C32 C 1.1713(8) 0.0633(5) 0.4944(4)
C33 C 1.1271(8) 0.1599(6) 0.5331(4)
C34 C 1.1108(8) 0.2246(5) 0.4915(5)
C35 C 1.1336(9) 0.1889(5) 0.4068(5)
C36 C 1.1774(8) 0.0926(5) 0.3667(4)
N3 N 1.0987(9) 0.1976(6) 0.6233(4)
O13 O 1.1094(6) 0.1374(5) 0.6575(3)
O14 O 1.0605(10) 0.2834(5) 0.6554(4)
N4 N 1.1237(11) 0.2571(6) 0.3626(5)
O15 O 1.0776(8) 0.3384(4) 0.3950(4)
O16 O 1.1412(16) 0.2253(6) 0.2884(7)
H19 H 1.07940 -0.42410 0.09790
H20 H 1.07320 -0.34560 0.19050
H21 H 1.09480 -0.30100 0.04630
H22 H 0.98740 -0.16710 0.18990
H23 H 0.93480 -0.16500 0.02640
H24 H 1.16820 -0.03340 0.08290
H25 H 1.38210 -0.09270 0.13220
H26 H 1.35360 -0.26370 0.11780
H27 H 0.86540 0.00060 0.09270
H28 H 0.75060 -0.07260 0.11330
H29 H 0.89820 -0.00780 0.18220
H30 H 1.28400 -0.24790 0.25660
H31 H 1.53980 -0.16700 0.32900
H32 H 1.56140 -0.24430 0.23800
H33 H 1.55890 -0.12900 0.25580
H34 H 1.18620 0.02050 0.52600
H35 H 1.08240 0.29260 0.51910
H36 H 1.19450 0.06960 0.30810
#END
