
#######################################################################
#
#                 Cambridge Crystallographic Data Centre
#                                CCDC
#
#######################################################################
#
# If this CIF has been generated from an entry in the Cambridge
# Structural Database, then it will include bibliographic, chemical,
# crystal, experimental, refinement or atomic coordinate data resulting
# from the CCDC's data processing and validation procedures.
#
#######################################################################

data_CSD_CIF_ZICNII
_audit_creation_date 1996-06-20
_audit_creation_method CSD-ConQuest-V1
_database_code_CSD ZICNII
_database_code_depnum_ccdc_archive 'CCDC 1312087'
_chemical_formula_sum 'C22 H29 N3 O7'
_chemical_formula_moiety
;
C22 H29 N3 O7
;
_journal_coden_Cambridge 35
_journal_volume 60
_journal_year 1995
_journal_page_first 6097
_journal_name_full 'J.Org.Chem. '
loop_
_publ_author_name
"A.V.Bordunov"
"P.C.Hellier"
"J.S.Bradshaw"
"N.K.Dalley"
"Xiaolan Kou"
"Xian Xin Zhang"
"R.M.Izatt"
_chemical_name_systematic
;
9-(2'-Hydroxy-5'-nitrobenzyl)-3,6,12,15-tetraoxa-9,21-diazabicyclo(15.3.1.)hen
eicosa-1(21),17,19-triene
;
_chemical_melting_point 387.15
_cell_volume   1104.631
_exptl_crystal_colour 'yellow'
_exptl_crystal_density_diffrn 1.345
_exptl_special_details
;
Melting point range 387.15-388.15K

;
_diffrn_ambient_temperature ?
_diffrn_special_details
;
The study was carried out at room temperature,in the range 283-303K

;
_refine_special_details
;
The carbon atoms C5, C6 and oxygen atoms, O13 and O16 are disordered over two 
positions.
;
#These two values have been output from a single CSD field.
_refine_ls_R_factor_gt 0.0515
_refine_ls_wR_factor_gt 0.0515
_symmetry_cell_setting triclinic
_symmetry_space_group_name_H-M 'P -1'
_symmetry_Int_Tables_number 2
loop_
_symmetry_equiv_pos_site_id
_symmetry_equiv_pos_as_xyz
1 x,y,z
2 -x,-y,-z
_cell_length_a 6.343(2)
_cell_length_b 11.626(4)
_cell_length_c 15.643(6)
_cell_angle_alpha 74.60(3)
_cell_angle_beta 87.65(3)
_cell_angle_gamma 83.36(3)
_cell_formula_units_Z 2
loop_
_atom_type_symbol
_atom_type_radius_bond
C 0.68
H 0.23
N 0.68
O 0.68
loop_
_atom_site_label
_atom_site_type_symbol
_atom_site_fract_x
_atom_site_fract_y
_atom_site_fract_z
N1 N 0.9346(3) 0.0939(2) 0.0730(2)
C1 C 1.0604(4) 0.0012(2) 0.1222(2)
C2 C 0.9509(5) -0.0988(3) 0.1808(2)
H1 H 1.02160 -0.17410 0.17520
H2 H 0.80820 -0.09150 0.16020
O1 O 0.9428(4) -0.0987(2) 0.2705(2)
C3 C 0.8570(14) -0.0080(8) 0.3093(7)
H3 H 0.87350 0.06940 0.27020
H4 H 0.92650 -0.01420 0.36400
C4 C 0.6305(12) -0.0212(7) 0.3248(7)
H5 H 0.60980 -0.10090 0.35900
H6 H 0.55400 -0.00360 0.27030
O2 O 0.5593(4) 0.0708(2) 0.3776(2)
C5 C 0.3424(6) 0.0739(3) 0.3697(2)
H7 H 0.29530 -0.00150 0.40160
H8 H 0.30800 0.08830 0.30830
C6 C 0.2304(4) 0.1766(2) 0.4024(2)
H9 H 0.26810 0.16240 0.46340
H10 H 0.07930 0.17770 0.39970
N2 N 0.2930(3) 0.2937(2) 0.3531(1)
C7 C 0.2004(5) 0.3341(3) 0.2638(2)
H11 H 0.05390 0.36300 0.26960
H12 H 0.20570 0.26630 0.23940
C8 C 0.3103(5) 0.4284(3) 0.2016(2)
H13 H 0.23900 0.44450 0.13960
H14 H 0.29210 0.52200 0.22390
O3 O 0.5035(12) 0.3636(6) 0.1799(4)
C9 C 0.6429(5) 0.4500(3) 0.1269(2)
H15 H 0.56510 0.51790 0.08230
H16 H 0.80510 0.47700 0.14830
C10 C 0.7709(9) 0.3674(4) 0.0872(3)
H17 H 0.84770 0.29890 0.14010
O4 O 0.7122(6) 0.3290(3) 0.0230(2)
C11 C 0.8799(5) 0.2892(3) -0.0301(2)
H18 H 0.76810 0.25630 -0.07330
H19 H 0.96000 0.34390 -0.07860
C12 C 1.0276(4) 0.1866(3) 0.0223(2)
C13 C 1.2438(5) 0.1886(3) 0.0193(2)
H20 H 1.30500 0.25640 -0.01800
C14 C 1.3720(5) 0.0925(3) 0.0697(2)
H21 H 1.52340 0.09280 0.06870
C15 C 1.2786(4) -0.0020(3) 0.1217(2)
H22 H 1.36310 -0.07100 0.15670
C16 C 0.2391(4) 0.3835(2) 0.4042(2)
H23 H 0.09240 0.38340 0.42190
H24 H 0.25960 0.46200 0.36760
C17 C 0.3739(4) 0.3563(2) 0.4858(2)
C18 C 0.2887(4) 0.3675(2) 0.5654(2)
H25 H 0.14050 0.39360 0.57010
C19 C 0.4147(4) 0.3400(2) 0.6394(2)
N3 N 0.3161(5) 0.3472(2) 0.7241(2)
O5 O 0.1298(4) 0.3891(2) 0.7261(2)
O6 O 0.4269(4) 0.3087(2) 0.7911(2)
C20 C 0.6300(4) 0.3004(2) 0.6354(2)
H26 H 0.71480 0.28080 0.68780
C21 C 0.7161(4) 0.2898(2) 0.5563(2)
H27 H 0.86420 0.26270 0.55260
C22 C 0.5930(4) 0.3179(2) 0.4809(2)
O7 O 0.6859(3) 0.3074(2) 0.4041(1)
H28 H 0.55060 0.30320 0.36080
C23? C 0.7717(15) 0.0040(7) 0.2703(5)
H29? H 0.64970 -0.00040 0.23750
H30? H 0.82360 0.08070 0.24740
C24? C 0.7192(12) -0.0202(6) 0.3691(4)
H31? H 0.84320 -0.01670 0.40110
H32? H 0.67090 -0.09800 0.39130
O8? O 0.5543(10) 0.4066(6) 0.2090(4)
O9? O 0.8396(8) 0.3910(4) 0.0169(3)
#END
