
#######################################################################
#
#                 Cambridge Crystallographic Data Centre
#                                CCDC
#
#######################################################################
#
# If this CIF has been generated from an entry in the Cambridge
# Structural Database, then it will include bibliographic, chemical,
# crystal, experimental, refinement or atomic coordinate data resulting
# from the CCDC's data processing and validation procedures.
#
#######################################################################

data_CSD_CIF_ZICNAD
_audit_creation_date 2018-03-28
_audit_creation_method CSD-ConQuest-V1
_database_code_CSD ZICNAD
_database_code_depnum_ccdc_archive 'CCDC 1833102'
_chemical_formula_sum 'C16 H17 N1 O3'
_chemical_formula_moiety
;
C16 H17 N1 O3
;
_journal_coden_Cambridge 1855
_journal_volume 78
_journal_year 2018
_journal_page_first 2314
_journal_name_full 'Amer. J. Org. Chem. '
loop_
_publ_author_name
"A.Saikia"
_chemical_name_systematic
;
5-(cyclopent-1-en-1-yl)-6-(2-nitrophenyl)-3,6-dihydro-2H-pyran
;
_cell_volume   1360.917
_exptl_crystal_colour 'red'
_exptl_crystal_density_diffrn 1.324
_exptl_crystal_description 'block'
_diffrn_ambient_temperature 296
#These two values have been output from a single CSD field.
_refine_ls_R_factor_gt 0.052
_refine_ls_wR_factor_gt 0.052
_symmetry_cell_setting triclinic
_symmetry_space_group_name_H-M 'P -1'
_symmetry_Int_Tables_number 2
loop_
_symmetry_equiv_pos_site_id
_symmetry_equiv_pos_as_xyz
1 x,y,z
2 -x,-y,-z
_cell_length_a 7.3532(13)
_cell_length_b 12.219(2)
_cell_length_c 15.266(3)
_cell_angle_alpha 97.160(12)
_cell_angle_beta 90.233(11)
_cell_angle_gamma 90.152(12)
_cell_formula_units_Z 4
loop_
_atom_type_symbol
_atom_type_radius_bond
C 0.68
H 0.23
N 0.68
O 0.68
loop_
_atom_site_label
_atom_site_type_symbol
_atom_site_fract_x
_atom_site_fract_y
_atom_site_fract_z
N1 N 0.1555(3) 0.4048(2) 0.53376(18)
O1 O 0.1044(3) 0.33744(19) 0.47313(14)
O2 O 0.2121(3) 0.49658(19) 0.52485(16)
O3 O 0.4725(2) 0.27718(15) 0.54035(12)
C1 C 0.2299(3) 0.28171(19) 0.64583(16)
C2 C 0.1441(3) 0.3760(2) 0.62402(17)
C3 C 0.3115(3) 0.0160(2) 0.62040(15)
C4 C 0.3421(3) 0.2094(2) 0.57741(16)
H1 H 0.25830 0.18200 0.52950
C5 C 0.6086(3) 0.1064(2) 0.61900(16)
H2 H 0.66000 0.04240 0.63530
C6 C 0.4287(3) 0.10949(19) 0.60867(15)
C7 C 0.2137(3) 0.2631(2) 0.73256(17)
H3 H 0.27160 0.20230 0.75100
C8 C 0.1135(4) 0.3320(2) 0.79340(19)
H4 H 0.10510 0.31690 0.85140
C9 C 0.7320(3) 0.2000(2) 0.60579(18)
H5 H 0.81550 0.21340 0.65530
H6 H 0.80280 0.18110 0.55260
C10 C 0.0440(4) 0.4461(2) 0.6832(2)
H7 H -0.01090 0.50840 0.66580
C11 C 0.6241(4) 0.3020(2) 0.5980(2)
H8 H 0.58140 0.33280 0.65590
H9 H 0.70090 0.35650 0.57530
C12 C 0.1327(4) 0.0104(2) 0.60923(17)
H10 H 0.06390 0.06760 0.59160
C13 C 0.3823(4) -0.0900(2) 0.64709(19)
H11 H 0.43510 -0.07800 0.70580
H12 H 0.47420 -0.12130 0.60600
C14 C 0.0531(4) -0.0960(2) 0.62769(19)
H13 H -0.01640 -0.13020 0.57740
H14 H -0.02570 -0.08540 0.67880
C15 C 0.0271(4) 0.4222(2) 0.7683(2)
H15 H -0.04280 0.46710 0.80870
C16 C 0.2167(4) -0.1663(2) 0.64524(19)
H16 H 0.22880 -0.22770 0.59890
H17 H 0.20380 -0.19510 0.70130
N2 N 0.3447(3) 0.4051(2) 0.03387(17)
O4 O 0.3962(3) 0.33753(19) -0.02654(15)
O5 O 0.2871(3) 0.49589(18) 0.02525(16)
O6 O 0.0278(2) 0.27766(14) 0.04049(12)
C17 C 0.2687(3) 0.28178(19) 0.14631(16)
C18 C 0.1890(3) 0.0156(2) 0.12024(15)
C19 C 0.3559(3) 0.3754(2) 0.12402(17)
C20 C -0.1083(3) 0.1064(2) 0.11907(17)
H18 H -0.16010 0.04240 0.13510
C21 C 0.0708(3) 0.1091(2) 0.10905(16)
C22 C 0.1574(3) 0.2095(2) 0.07700(16)
H19 H 0.24090 0.18250 0.02940
C23 C 0.2862(3) 0.2633(2) 0.23244(17)
H20 H 0.22850 0.20240 0.25080
C24 C -0.1238(4) 0.3019(2) 0.0984(2)
H21 H -0.20110 0.35620 0.07560
H22 H -0.08030 0.33300 0.15620
C25 C 0.4476(4) -0.0959(2) 0.12774(19)
H23 H 0.52710 -0.08510 0.17900
H24 H 0.51620 -0.12990 0.07750
C26 C 0.3865(4) 0.3320(2) 0.29301(19)
H25 H 0.39540 0.31690 0.35110
C27 C -0.2317(3) 0.1996(2) 0.10622(18)
H26 H -0.30400 0.18070 0.05320
H27 H -0.31400 0.21280 0.15590
C28 C 0.3675(4) 0.0101(2) 0.10943(17)
H28 H 0.43620 0.06750 0.09190
C29 C 0.1175(4) -0.0901(2) 0.14710(19)
H29 H 0.02460 -0.12160 0.10610
H30 H 0.06620 -0.07810 0.20590
C30 C 0.4728(4) 0.4221(2) 0.2681(2)
H31 H 0.54360 0.46690 0.30860
C31 C 0.4552(4) 0.4463(2) 0.1833(2)
H32 H 0.50890 0.50920 0.16610
C32 C 0.2831(4) -0.1659(2) 0.14500(19)
H33 H 0.29660 -0.19510 0.20090
H34 H 0.26980 -0.22720 0.09850
#END
