
#######################################################################
#
#                 Cambridge Crystallographic Data Centre
#                                CCDC
#
#######################################################################
#
# If this CIF has been generated from an entry in the Cambridge
# Structural Database, then it will include bibliographic, chemical,
# crystal, experimental, refinement or atomic coordinate data resulting
# from the CCDC's data processing and validation procedures.
#
#######################################################################

data_CSD_CIF_ZICYIT
_audit_creation_date 1996-06-20
_audit_creation_method CSD-ConQuest-V1
_database_code_CSD ZICYIT
_database_code_depnum_ccdc_archive 'CCDC 1312127'
_chemical_formula_sum 'C26 H19 N1 O1'
_chemical_formula_moiety
;
C26 H19 N1 O1
;
_journal_coden_Cambridge 241
_journal_year 1995
_journal_page_first 351
_journal_name_full 'Chem.Lett. '
loop_
_publ_author_name
"G.Yamamoto"
"K.Kuwahara"
"K.Inoue"
_chemical_name_systematic
;
N-9-Triptycyl-O-phenylhydroxylamine
;
_cell_volume   1875.128
_exptl_crystal_density_diffrn 1.28
_diffrn_ambient_temperature ?
_diffrn_special_details
;
The study was carried out at room temperature,in the range 283-303K

;
#These two values have been output from a single CSD field.
_refine_ls_R_factor_gt 0.046
_refine_ls_wR_factor_gt 0.046
_symmetry_cell_setting monoclinic
_symmetry_space_group_name_H-M 'P 21/a'
_symmetry_Int_Tables_number 14
loop_
_symmetry_equiv_pos_site_id
_symmetry_equiv_pos_as_xyz
1 x,y,z
2 1/2-x,1/2+y,-z
3 -x,-y,-z
4 -1/2+x,-1/2-y,z
_cell_length_a 13.92(1)
_cell_length_b 8.16(1)
_cell_length_c 16.56(1)
_cell_angle_alpha 90
_cell_angle_beta 94.53(7)
_cell_angle_gamma 90
_cell_formula_units_Z 4
loop_
_atom_type_symbol
_atom_type_radius_bond
C 0.68
H 0.23
N 0.68
O 0.68
loop_
_atom_site_label
_atom_site_type_symbol
_atom_site_fract_x
_atom_site_fract_y
_atom_site_fract_z
O1 O -0.0200(2) 0.1149(4) 0.6255(2)
N1 N 0.0616(3) 0.2204(5) 0.6507(2)
C1 C 0.0673(3) 0.0760(5) 0.7881(3)
C2 C 0.0675(3) -0.0820(6) 0.7560(3)
C3 C 0.0754(4) -0.2125(6) 0.8114(4)
C4 C 0.0828(3) -0.1887(6) 0.8931(3)
C5 C 0.0826(3) -0.0310(6) 0.9259(3)
C6 C 0.0743(3) 0.0996(5) 0.8707(3)
C7 C 0.0757(3) 0.2799(5) 0.8956(3)
C8 C 0.1603(3) 0.3557(5) 0.8544(3)
C9 C 0.2365(3) 0.4417(6) 0.8926(3)
C10 C 0.3075(3) 0.5065(6) 0.8458(3)
C11 C 0.3004(3) 0.4851(6) 0.7638(4)
C12 C 0.2231(3) 0.3974(6) 0.7235(3)
C13 C 0.1535(3) 0.3335(5) 0.7701(3)
C14 C 0.0625(3) 0.2350(5) 0.7388(2)
C15 C -0.0207(3) 0.3360(5) 0.7676(3)
C16 C -0.0946(3) 0.4090(5) 0.7206(3)
C17 C -0.1636(3) 0.4975(6) 0.7583(4)
C18 C -0.1595(4) 0.5137(6) 0.8408(4)
C19 C -0.0845(3) 0.4431(6) 0.8888(3)
C20 C -0.0149(3) 0.3555(5) 0.8521(3)
C21 C -0.0664(3) 0.1616(6) 0.5527(3)
C22 C -0.0401(4) 0.2853(6) 0.5034(3)
C23 C -0.0945(4) 0.3215(7) 0.4336(3)
C24 C -0.1801(4) 0.2344(8) 0.4134(3)
C25 C -0.2058(4) 0.1047(8) 0.4623(3)
C26 C -0.1504(4) 0.0684(7) 0.5322(3)
H1 H 0.064(2) -0.113(3) 0.690(2)
H2 H 0.073(3) -0.306(5) 0.786(2)
H3 H 0.090(2) -0.284(4) 0.944(2)
H4 H 0.092(2) -0.012(4) 0.996(2)
H5 H 0.089(2) 0.298(4) 0.969(2)
H6 H 0.238(3) 0.453(5) 0.960(2)
H7 H 0.379(3) 0.558(5) 0.882(3)
H8 H 0.355(3) 0.524(5) 0.721(2)
H9 H 0.224(2) 0.376(5) 0.654(2)
H10 H -0.097(3) 0.389(5) 0.650(2)
H11 H -0.218(3) 0.541(5) 0.722(2)
H12 H -0.192(3) 0.570(6) 0.875(3)
H13 H -0.086(2) 0.446(4) 0.951(2)
H14 H 0.031(2) 0.330(4) 0.516(2)
H15 H -0.051(3) 0.390(7) 0.395(3)
H16 H -0.210(3) 0.259(5) 0.359(2)
H17 H -0.290(4) 0.045(7) 0.453(3)
H18 H -0.167(3) -0.019(5) 0.574(2)
H19 H 0.104(5) 0.135(9) 0.622(4)
#END
