
#######################################################################
#
#                 Cambridge Crystallographic Data Centre
#                                CCDC
#
#######################################################################
#
# If this CIF has been generated from an entry in the Cambridge
# Structural Database, then it will include bibliographic, chemical,
# crystal, experimental, refinement or atomic coordinate data resulting
# from the CCDC's data processing and validation procedures.
#
#######################################################################

data_CSD_CIF_ZIFHUU
_audit_creation_date 2018-08-20
_audit_creation_method CSD-ConQuest-V1
_database_code_CSD ZIFHUU
_database_code_depnum_ccdc_archive 'CCDC 1826301'
_chemical_formula_sum 'C38 H43 N3 O8'
_chemical_formula_moiety
;
C38 H43 N3 O8
;
_journal_coden_Cambridge 3045
_journal_volume 1
_journal_year 2018
_journal_page_first 673
_journal_name_full 'Nat. Catal. '
loop_
_publ_author_name
"J.A.Boerth"
"S.Maity"
"S.K.Williams"
"B.Q.Mercado"
"J.A.Ellman"
_chemical_name_systematic
;
1-(benzyloxy)-4,8-dimethyl-3-{2-[2-(pyrrolidine-1-carbonyl)phenyl]ethenyl}non-
7-en-2-yl 3,5-dinitrobenzoate
;
_chemical_name_common
;
(2S,3R,4S)-1-(benzyloxy)-4,8-dimethyl-3-((E)-2-(pyrrolidine-1-carbonyl)styryl)
non-7-en-2-yl 3,5-dinitrobenzoate
;
_cell_volume   3459.683
_exptl_crystal_colour 'colorless'
_exptl_crystal_density_diffrn 1.286
_exptl_crystal_description 'Needle'
_exptl_crystal_preparation 'dichloromethane/pentane'
_diffrn_ambient_temperature 93
#These two values have been output from a single CSD field.
_refine_ls_R_factor_gt 0.0917
_refine_ls_wR_factor_gt 0.0917
_symmetry_cell_setting monoclinic
_symmetry_space_group_name_H-M 'P 21/c'
_symmetry_Int_Tables_number 14
loop_
_symmetry_equiv_pos_site_id
_symmetry_equiv_pos_as_xyz
1 x,y,z
2 -x,1/2+y,1/2-z
3 -x,-y,-z
4 x,-1/2-y,-1/2+z
_cell_length_a 11.8710(4)
_cell_length_b 16.6940(6)
_cell_length_c 17.5399(6)
_cell_angle_alpha 90
_cell_angle_beta 95.547(3)
_cell_angle_gamma 90
_cell_formula_units_Z 4
loop_
_atom_type_symbol
_atom_type_radius_bond
C 0.68
H 0.23
N 0.68
O 0.68
loop_
_atom_site_label
_atom_site_type_symbol
_atom_site_fract_x
_atom_site_fract_y
_atom_site_fract_z
O1 O 0.0084(2) 0.34773(18) 0.24988(16)
O2 O 0.5004(2) 0.6147(2) 0.44541(16)
O3 O 0.5949(2) 0.52568(18) 0.33701(15)
O4 O 0.6902(2) 0.6438(2) 0.33869(17)
O5 O 0.7934(3) 0.2754(2) 0.3571(2)
O6 O 0.9646(3) 0.2723(2) 0.41348(19)
O7 O 1.0968(2) 0.6287(2) 0.43303(18)
O8 O 1.1815(2) 0.5141(2) 0.44235(18)
N1 N 0.0657(3) 0.3754(2) 0.13339(19)
N2 N 0.8809(3) 0.3083(2) 0.3847(2)
N3 N 1.0972(3) 0.5554(3) 0.4276(2)
C1 C 0.0255(3) 0.3963(3) 0.2000(2)
C2 C 0.0029(3) 0.4845(3) 0.2081(2)
C3 C -0.1073(3) 0.5129(3) 0.1931(2)
H1 H -0.16720 0.47600 0.18040
C4 C -0.1310(3) 0.5941(3) 0.1962(2)
H2 H -0.20630 0.61310 0.18520
C5 C -0.0431(4) 0.6473(3) 0.2157(2)
H3 H -0.05810 0.70310 0.21750
C6 C 0.0668(3) 0.6196(3) 0.2327(2)
H4 H 0.12580 0.65660 0.24730
C7 C 0.0917(3) 0.5384(3) 0.2287(2)
C8 C 0.2086(3) 0.5078(3) 0.2464(2)
H5 H 0.21600 0.45500 0.26630
C9 C 0.3035(3) 0.5463(3) 0.2374(2)
H6 H 0.29890 0.59900 0.21670
C10 C 0.4193(3) 0.5105(3) 0.2584(2)
H7 H 0.40780 0.45770 0.28340
C11 C 0.4864(4) 0.4943(3) 0.1885(2)
H8 H 0.55650 0.46450 0.20760
C12 C 0.4170(4) 0.4390(3) 0.1307(3)
H9 H 0.38130 0.39650 0.15950
H10 H 0.35560 0.47080 0.10310
C13 C 0.4854(4) 0.3996(3) 0.0721(3)
H11 H 0.43380 0.36890 0.03520
H12 H 0.52200 0.44160 0.04320
C14 C 0.5743(4) 0.3445(3) 0.1086(3)
H13 H 0.55040 0.31150 0.14810
C15 C 0.6802(4) 0.3346(3) 0.0947(3)
C16 C 0.7355(5) 0.3752(5) 0.0326(3)
H14 H 0.73730 0.33880 -0.01110
H15 H 0.81300 0.39020 0.05150
H16 H 0.69270 0.42350 0.01640
C17 C 0.7555(5) 0.2758(4) 0.1413(4)
H17 H 0.81930 0.30450 0.16840
H18 H 0.78400 0.23570 0.10720
H19 H 0.71190 0.24910 0.17860
C18 C 0.5233(4) 0.5695(3) 0.1494(3)
H20 H 0.45640 0.59930 0.12810
H21 H 0.56920 0.55470 0.10800
H22 H 0.56830 0.60300 0.18670
C19 C 0.0893(4) 0.4299(3) 0.0718(2)
H23 H 0.15440 0.46510 0.08780
H24 H 0.02250 0.46360 0.05570
C20 C 0.1164(5) 0.3738(3) 0.0079(3)
H25 H 0.04770 0.36170 -0.02670
H26 H 0.17420 0.39750 -0.02240
C21 C 0.1612(4) 0.2990(3) 0.0493(3)
H27 H 0.15130 0.25150 0.01560
H28 H 0.24250 0.30490 0.06730
C22 C 0.0914(4) 0.2918(3) 0.1156(3)
H29 H 0.02120 0.26110 0.10120
H30 H 0.13450 0.26530 0.15970
C23 C 0.4853(3) 0.5644(3) 0.3184(2)
H31 H 0.49600 0.61890 0.29660
C24 C 0.4285(3) 0.5707(3) 0.3911(2)
H32 H 0.35480 0.59840 0.38090
H33 H 0.41460 0.51660 0.41120
C25 C 0.4486(4) 0.6307(3) 0.5129(3)
H34 H 0.41620 0.58060 0.53180
H35 H 0.38610 0.66950 0.50170
C26 C 0.5340(4) 0.6645(3) 0.5738(3)
C27 C 0.4965(4) 0.6961(3) 0.6398(3)
H36 H 0.41750 0.69860 0.64460
C28 C 0.5717(4) 0.7240(3) 0.6988(3)
H37 H 0.54460 0.74530 0.74370
C29 C 0.6871(4) 0.7207(3) 0.6922(3)
H38 H 0.73950 0.73870 0.73300
C30 C 0.7251(4) 0.6913(3) 0.6264(3)
H39 H 0.80410 0.69080 0.62120
C31 C 0.6504(4) 0.6623(3) 0.5674(3)
H40 H 0.67810 0.64090 0.52270
C32 C 0.6880(3) 0.5720(3) 0.3472(2)
C33 C 0.7907(3) 0.5218(3) 0.3678(2)
C34 C 0.8930(3) 0.5612(3) 0.3874(2)
H41 H 0.89680 0.61810 0.38840
C35 C 0.9895(3) 0.5150(3) 0.4053(2)
C36 C 0.9875(3) 0.4330(3) 0.4040(2)
H42 H 1.05450 0.40250 0.41620
C37 C 0.8848(3) 0.3962(3) 0.3843(2)
C38 C 0.7853(3) 0.4389(3) 0.3663(2)
H43 H 0.71560 0.41200 0.35330
#END
