
#######################################################################
#
#                 Cambridge Crystallographic Data Centre
#                                CCDC
#
#######################################################################
#
# If this CIF has been generated from an entry in the Cambridge
# Structural Database, then it will include bibliographic, chemical,
# crystal, experimental, refinement or atomic coordinate data resulting
# from the CCDC's data processing and validation procedures.
#
#######################################################################

data_CSD_CIF_ZIFLUX
_audit_creation_date 2013-08-14
_audit_creation_method CSD-ConQuest-V1
_database_code_CSD ZIFLUX
_database_code_depnum_ccdc_archive 'CCDC 935873'
_chemical_formula_sum 'C25 H19 N1 O4'
_chemical_formula_moiety
;
C25 H19 N1 O4
;
_journal_coden_Cambridge 182
_journal_volume 50
_journal_year 2014
_journal_page_first 5304
_journal_name_full 'Chem.Commun. '
loop_
_publ_author_name
"Chia-Jui Lee"
"Chia-Ning Sheu"
"Cheng-Che Tsai"
"Zong-Ze Wu"
"Wenwei Lin"
_chemical_name_systematic
;
1,1-Dimethyl-3-(1-(4-nitrophenyl)-2-oxo-2-phenylethylidene)-1,3-dihydro-2H-ind
en-2-one
;
_cell_volume   4011.405
_exptl_crystal_colour 'pale yellow'
_exptl_crystal_density_diffrn 1.316
_exptl_crystal_description 'prism'
_diffrn_ambient_temperature 200
#These two values have been output from a single CSD field.
_refine_ls_R_factor_gt 0.0665
_refine_ls_wR_factor_gt 0.0665
_symmetry_cell_setting monoclinic
_symmetry_space_group_name_H-M 'P 21/c'
_symmetry_Int_Tables_number 14
loop_
_symmetry_equiv_pos_site_id
_symmetry_equiv_pos_as_xyz
1 x,y,z
2 -x,1/2+y,1/2-z
3 -x,-y,-z
4 x,-1/2-y,-1/2+z
_cell_length_a 14.269(3)
_cell_length_b 11.125(3)
_cell_length_c 25.270(4)
_cell_angle_alpha 90
_cell_angle_beta 90.184(6)
_cell_angle_gamma 90
_cell_formula_units_Z 8
loop_
_atom_type_symbol
_atom_type_radius_bond
C 0.68
H 0.23
N 0.68
O 0.68
loop_
_atom_site_label
_atom_site_type_symbol
_atom_site_fract_x
_atom_site_fract_y
_atom_site_fract_z
C1 C 0.2156(2) 0.1697(4) 0.09182(14)
C2 C 0.2091(2) 0.2915(4) 0.10046(14)
H1 H 0.23570 0.34690 0.07620
C3 C 0.1629(2) 0.3318(3) 0.14543(13)
H2 H 0.15750 0.41560 0.15190
C4 C 0.1245(2) 0.2503(3) 0.18084(13)
C5 C 0.1312(2) 0.1281(3) 0.17055(14)
H3 H 0.10370 0.07250 0.19440
C6 C 0.1771(2) 0.0858(4) 0.12621(14)
H4 H 0.18220 0.00200 0.11950
C7 C 0.0713(2) 0.2920(3) 0.22785(14)
C8 C -0.0145(2) 0.3648(3) 0.21239(13)
C9 C -0.0991(2) 0.2956(3) 0.19525(13)
C10 C -0.1085(2) 0.1739(3) 0.20563(13)
H5 H -0.06190 0.13320 0.22570
C11 C -0.1857(2) 0.1115(4) 0.18677(15)
H6 H -0.19190 0.02790 0.19370
C12 C -0.2532(3) 0.1708(4) 0.15805(14)
H7 H -0.30610 0.12790 0.14510
C13 C -0.2448(3) 0.2926(4) 0.14783(14)
H8 H -0.29160 0.33300 0.12780
C14 C -0.1684(2) 0.3554(4) 0.16680(13)
H9 H -0.16310 0.43930 0.16040
C15 C 0.0926(2) 0.2679(3) 0.27843(14)
C16 C 0.0282(2) 0.3044(3) 0.32226(14)
C17 C 0.0680(2) 0.2610(3) 0.37512(13)
C18 C 0.0810(3) 0.3690(4) 0.41266(14)
H10 H 0.10640 0.34090 0.44650
H11 H 0.02030 0.40790 0.41850
H12 H 0.12440 0.42670 0.39670
C19 C -0.0002(2) 0.1693(4) 0.39903(14)
H13 H 0.02420 0.14140 0.43320
H14 H -0.00690 0.10080 0.37500
H15 H -0.06150 0.20730 0.40420
C20 C 0.1601(2) 0.2040(3) 0.35866(13)
C21 C 0.2278(3) 0.1538(3) 0.39118(14)
H16 H 0.21970 0.15300 0.42850
C22 C 0.3076(3) 0.1048(3) 0.36861(16)
H17 H 0.35380 0.06860 0.39060
C23 C 0.3207(2) 0.1080(4) 0.31465(16)
H18 H 0.37610 0.07450 0.29990
C24 C 0.2545(2) 0.1592(3) 0.28173(14)
H19 H 0.26400 0.16150 0.24460
C25 C 0.1734(2) 0.2075(3) 0.30367(13)
N1 N 0.2670(2) 0.1259(4) 0.04502(15)
O1 O 0.2823(2) 0.1967(4) 0.00951(13)
O2 O 0.2933(2) 0.0217(4) 0.04490(14)
O3 O -0.00909(16) 0.4742(2) 0.20899(10)
O4 O -0.04576(17) 0.3570(2) 0.31714(9)
C26 C 0.4716(2) 0.2512(4) 1.11195(14)
C27 C 0.4845(2) 0.3684(4) 1.09611(14)
H20 H 0.45920 0.43300 1.11600
C28 C 0.5351(2) 0.3899(4) 1.05056(14)
H21 H 0.54580 0.47050 1.03960
C29 C 0.5708(2) 0.2954(4) 1.02035(13)
C30 C 0.5555(2) 0.1772(4) 1.03744(14)
H22 H 0.57910 0.11170 1.01740
C31 C 0.5060(2) 0.1556(4) 1.08350(15)
H23 H 0.49590 0.07560 1.09530
C32 C 0.6287(2) 0.3215(3) 0.97286(14)
C33 C 0.7137(2) 0.4009(4) 0.98636(14)
C34 C 0.8009(2) 0.3399(4) 1.00455(13)
C35 C 0.8739(2) 0.4090(4) 1.02443(14)
H24 H 0.86960 0.49420 1.02410
C36 C 0.9531(3) 0.3538(5) 1.04473(15)
H25 H 1.00280 0.40140 1.05840
C37 C 0.9603(3) 0.2314(5) 1.04532(16)
H26 H 1.01430 0.19400 1.06000
C38 C 0.8882(3) 0.1616(4) 1.02431(16)
H27 H 0.89380 0.07650 1.02380
C39 C 0.8090(3) 0.2157(4) 1.00425(15)
H28 H 0.75970 0.16790 0.99020
C40 C 0.6108(2) 0.2858(3) 0.92277(14)
C41 C 0.6770(3) 0.3169(4) 0.87851(15)
C42 C 0.6383(3) 0.2678(4) 0.82621(14)
C43 C 0.7074(3) 0.1772(4) 0.80232(16)
H29 H 0.68270 0.14750 0.76850
H30 H 0.71580 0.10960 0.82680
H31 H 0.76790 0.21660 0.79640
C44 C 0.6207(3) 0.3731(4) 0.78797(15)
H32 H 0.59670 0.34200 0.75430
H33 H 0.67960 0.41620 0.78180
H34 H 0.57470 0.42810 0.80340
C45 C 0.5479(2) 0.2076(3) 0.84383(14)
C46 C 0.4834(3) 0.1498(4) 0.81205(15)
H35 H 0.49470 0.14100 0.77520
C47 C 0.4026(3) 0.1051(4) 0.83397(17)
H36 H 0.35830 0.06500 0.81210
C48 C 0.3848(3) 0.1178(3) 0.88778(16)
H37 H 0.32840 0.08710 0.90240
C49 C 0.4495(2) 0.1753(3) 0.92016(15)
H38 H 0.43770 0.18370 0.95700
C50 C 0.5320(2) 0.2209(3) 0.89845(14)
N2 N 0.4211(2) 0.2293(4) 1.16168(14)
O5 O 0.4069(2) 0.1243(4) 1.17393(12)
O6 O 0.3964(2) 0.3160(3) 1.18846(11)
O7 O 0.70332(17) 0.5102(3) 0.98745(10)
O8 O 0.74938(19) 0.3729(3) 0.88354(10)
#END
