
#######################################################################
#
#                 Cambridge Crystallographic Data Centre
#                                CCDC
#
#######################################################################
#
# If this CIF has been generated from an entry in the Cambridge
# Structural Database, then it will include bibliographic, chemical,
# crystal, experimental, refinement or atomic coordinate data resulting
# from the CCDC's data processing and validation procedures.
#
#######################################################################

data_CSD_CIF_ZIFMAE
_audit_creation_date 2013-08-14
_audit_creation_method CSD-ConQuest-V1
_database_code_CSD ZIFMAE
_database_code_depnum_ccdc_archive 'CCDC 935872'
_chemical_formula_sum 'C26 H15 N1 O4'
_chemical_formula_moiety
;
C26 H15 N1 O4
;
_journal_coden_Cambridge 182
_journal_volume 50
_journal_year 2014
_journal_page_first 5304
_journal_name_full 'Chem.Commun. '
loop_
_publ_author_name
"Chia-Jui Lee"
"Chia-Ning Sheu"
"Cheng-Che Tsai"
"Zong-Ze Wu"
"Wenwei Lin"
_chemical_name_systematic
;
2-(1-(4-Nitrophenyl)-2-oxo-2-phenylethylidene)acenaphthylen-1(2H)-one
;
_cell_volume   4027.042
_exptl_crystal_colour 'colorless'
_exptl_crystal_density_diffrn 1.337
_exptl_crystal_description 'prism'
_diffrn_ambient_temperature 298
_refine_special_details
;
O1 and O1' disordered over two sites with occupancies 0.60:0.40.

;
#These two values have been output from a single CSD field.
_refine_ls_R_factor_gt 0.0768
_refine_ls_wR_factor_gt 0.0768
_symmetry_cell_setting monoclinic
_symmetry_space_group_name_H-M 'C 2/c'
_symmetry_Int_Tables_number 15
loop_
_symmetry_equiv_pos_site_id
_symmetry_equiv_pos_as_xyz
1 x,y,z
2 -x,y,1/2-z
3 1/2+x,1/2+y,z
4 1/2-x,1/2+y,1/2-z
5 -x,-y,-z
6 x,-y,-1/2+z
7 -1/2-x,-1/2-y,-z
8 -1/2+x,-1/2-y,-1/2+z
_cell_length_a 31.751(8)
_cell_length_b 10.414(3)
_cell_length_c 12.219(3)
_cell_angle_alpha 90
_cell_angle_beta 94.638(6)
_cell_angle_gamma 90
_cell_formula_units_Z 8
loop_
_atom_type_symbol
_atom_type_radius_bond
C 0.68
H 0.23
N 0.68
O 0.68
loop_
_atom_site_label
_atom_site_type_symbol
_atom_site_fract_x
_atom_site_fract_y
_atom_site_fract_z
C1 C 0.42112(18) 0.3815(6) 0.2442(4)
C2 C 0.42796(18) 0.4005(6) 0.3550(5)
H1 H 0.44460 0.46800 0.38360
C3 C 0.40929(17) 0.3161(6) 0.4219(4)
H2 H 0.41430 0.32440 0.49760
C4 C 0.38320(15) 0.2189(5) 0.3801(4)
C5 C 0.37721(16) 0.2052(6) 0.2674(4)
H3 H 0.35990 0.13970 0.23800
C6 C 0.39634(18) 0.2865(6) 0.1976(4)
H4 H 0.39250 0.27690 0.12170
C7 C 0.36306(16) 0.1271(5) 0.4518(4)
C8 C 0.39318(16) 0.0707(6) 0.5428(4)
C9 C 0.42349(16) -0.0286(5) 0.5138(4)
C10 C 0.45664(17) -0.0629(6) 0.5913(4)
H5 H 0.45910 -0.02370 0.65990
C11 C 0.48506(19) -0.1532(7) 0.5663(6)
H6 H 0.50710 -0.17520 0.61780
C12 C 0.4816(2) -0.2121(7) 0.4657(7)
H7 H 0.50130 -0.27390 0.44920
C13 C 0.4491(2) -0.1803(7) 0.3889(5)
H8 H 0.44690 -0.21970 0.32040
C14 C 0.41976(18) -0.0889(6) 0.4149(5)
H9 H 0.39730 -0.06870 0.36410
C15 C 0.32167(16) 0.0993(5) 0.4459(4)
C16 C 0.30368(18) -0.0086(6) 0.5092(4)
C17 C 0.25698(17) -0.0031(6) 0.4860(5)
C18 C 0.2250(2) -0.0751(6) 0.5225(5)
H10 H 0.23070 -0.14380 0.57000
C19 C 0.1833(2) -0.0425(8) 0.4861(6)
H11 H 0.16110 -0.09010 0.51070
C20 C 0.1745(2) 0.0581(8) 0.4151(6)
H12 H 0.14650 0.07620 0.39200
C21 C 0.20680(18) 0.1346(6) 0.3763(5)
C22 C 0.24803(17) 0.0982(6) 0.4142(4)
C23 C 0.28474(16) 0.1624(5) 0.3842(4)
C24 C 0.27969(18) 0.2681(6) 0.3169(4)
H13 H 0.30300 0.31340 0.29610
C25 C 0.2381(2) 0.3064(6) 0.2801(4)
H14 H 0.23460 0.37810 0.23500
C26 C 0.2028(2) 0.2428(7) 0.3080(5)
H15 H 0.17610 0.27140 0.28160
N1 N 0.44017(19) 0.4708(6) 0.1692(5)
O1 O 0.4449(3) 0.5855(9) 0.2004(7)
O2 O 0.43859(18) 0.4500(5) 0.0759(4)
O3 O 0.39347(12) 0.1179(4) 0.6344(3)
O4 O 0.32392(13) -0.0876(4) 0.5641(3)
O5? O 0.4728(4) 0.5304(13) 0.2147(10)
#END
