
#######################################################################
#
#                 Cambridge Crystallographic Data Centre
#                                CCDC
#
#######################################################################
#
# If this CIF has been generated from an entry in the Cambridge
# Structural Database, then it will include bibliographic, chemical,
# crystal, experimental, refinement or atomic coordinate data resulting
# from the CCDC's data processing and validation procedures.
#
#######################################################################

data_CSD_CIF_ZIFMIM
_audit_creation_date 2013-08-14
_audit_creation_method CSD-ConQuest-V1
_database_code_CSD ZIFMIM
_database_code_depnum_ccdc_archive 'CCDC 937197'
_chemical_formula_sum 'C22 H13 N1 O5'
_chemical_formula_moiety
;
C22 H13 N1 O5
;
_journal_coden_Cambridge 182
_journal_volume 50
_journal_year 2014
_journal_page_first 5304
_journal_name_full 'Chem.Commun. '
loop_
_publ_author_name
"Chia-Jui Lee"
"Chia-Ning Sheu"
"Cheng-Che Tsai"
"Zong-Ze Wu"
"Wenwei Lin"
_chemical_name_systematic
;
3-(1-(4-Nitrophenyl)-2-oxo-2-phenylethylidene)-1-benzofuran-2(3H)-one
;
_cell_volume   1718.869
_exptl_crystal_colour 'colorless'
_exptl_crystal_density_diffrn 1.435
_exptl_crystal_description 'prism'
_diffrn_ambient_temperature 296
#These two values have been output from a single CSD field.
_refine_ls_R_factor_gt 0.0527
_refine_ls_wR_factor_gt 0.0527
_symmetry_cell_setting triclinic
_symmetry_space_group_name_H-M 'P -1'
_symmetry_Int_Tables_number 2
loop_
_symmetry_equiv_pos_site_id
_symmetry_equiv_pos_as_xyz
1 x,y,z
2 -x,-y,-z
_cell_length_a 9.4489(8)
_cell_length_b 13.8295(13)
_cell_length_c 15.1615(12)
_cell_angle_alpha 110.428(4)
_cell_angle_beta 104.078(4)
_cell_angle_gamma 100.733(4)
_cell_formula_units_Z 4
loop_
_atom_type_symbol
_atom_type_radius_bond
C 0.68
H 0.23
N 0.68
O 0.68
loop_
_atom_site_label
_atom_site_type_symbol
_atom_site_fract_x
_atom_site_fract_y
_atom_site_fract_z
C1 C 0.6975(4) 0.4005(3) 0.0377(3)
C2 C 0.5548(4) 0.3619(3) 0.0407(3)
H1 H 0.46750 0.35530 -0.00810
C3 C 0.5437(4) 0.3332(3) 0.1176(3)
H2 H 0.44770 0.30520 0.11960
C4 C 0.6736(4) 0.3455(3) 0.1923(3)
C5 C 0.8161(4) 0.3827(3) 0.1849(3)
H3 H 0.90420 0.38890 0.23290
C6 C 0.8284(4) 0.4101(3) 0.1080(3)
H4 H 0.92380 0.43490 0.10350
C7 C 0.6621(4) 0.3164(3) 0.2756(3)
C8 C 0.5621(4) 0.3355(3) 0.3252(3)
C9 C 0.4466(4) 0.3929(3) 0.3245(3)
C10 C 0.3932(4) 0.4525(3) 0.2742(3)
H5 H 0.43380 0.46340 0.22710
C11 C 0.2781(5) 0.4954(3) 0.2955(3)
H6 H 0.24120 0.53500 0.26170
C12 C 0.2168(5) 0.4812(3) 0.3652(3)
H7 H 0.13880 0.51060 0.37700
C13 C 0.2694(5) 0.4242(3) 0.4177(3)
H8 H 0.23080 0.41540 0.46620
C14 C 0.3814(4) 0.3812(3) 0.3946(3)
C15 C 0.5560(5) 0.2935(3) 0.4030(3)
C16 C 0.7814(4) 0.2654(3) 0.3099(3)
C17 C 0.7485(4) 0.1465(3) 0.2628(3)
C18 C 0.8412(4) 0.0975(4) 0.3072(3)
H9 H 0.92390 0.13960 0.36540
C19 C 0.8111(5) -0.0131(4) 0.2652(4)
H10 H 0.87170 -0.04580 0.29610
C20 C 0.6925(5) -0.0750(4) 0.1782(4)
H11 H 0.67330 -0.14960 0.14960
C21 C 0.6009(5) -0.0270(3) 0.1326(3)
H12 H 0.52090 -0.06940 0.07300
C22 C 0.6272(4) 0.0832(3) 0.1748(3)
H13 H 0.56400 0.11500 0.14460
N1 N 0.7087(5) 0.4280(3) -0.0458(2)
O1 O 0.8327(4) 0.4512(3) -0.0545(2)
O2 O 0.5940(4) 0.4257(3) -0.1037(2)
O3 O 0.4454(3) 0.3219(2) 0.44156(19)
O4 O 0.6295(3) 0.2415(2) 0.4315(2)
O5 O 0.9033(3) 0.3252(2) 0.3721(2)
C23 C 0.6293(4) 0.9042(3) 0.4352(3)
C24 C 0.5350(4) 0.7999(3) 0.3881(3)
H14 H 0.56270 0.74580 0.40480
C25 C 0.3981(4) 0.7771(3) 0.3155(3)
H15 H 0.33390 0.70640 0.28190
C26 C 0.3540(4) 0.8579(3) 0.2915(3)
C27 C 0.4538(4) 0.9623(3) 0.3401(3)
H16 H 0.42750 1.01680 0.32370
C28 C 0.5918(4) 0.9859(3) 0.4125(3)
H17 H 0.65820 1.05590 0.44530
C29 C 0.2074(4) 0.8302(3) 0.2116(3)
C30 C 0.0712(4) 0.7702(3) 0.2032(2)
C31 C 0.0139(4) 0.7283(3) 0.2681(2)
C32 C 0.0758(4) 0.7279(3) 0.3616(3)
H18 H 0.18020 0.75760 0.39630
C33 C -0.0200(5) 0.6829(3) 0.4016(3)
H19 H 0.02100 0.68130 0.46320
C34 C -0.1746(5) 0.6405(3) 0.3526(3)
H20 H -0.23670 0.61150 0.38180
C35 C -0.2393(5) 0.6402(3) 0.2609(3)
H21 H -0.34410 0.61210 0.22720
C36 C -0.1425(4) 0.6831(3) 0.2220(3)
C37 C -0.0661(4) 0.7387(3) 0.1140(3)
C38 C 0.2257(4) 0.8659(3) 0.1294(3)
C39 C 0.1949(4) 0.9668(3) 0.1305(3)
C40 C 0.1555(4) 1.0339(3) 0.2062(3)
H22 H 0.14360 1.01440 0.25740
C41 C 0.1338(4) 1.1297(3) 0.2060(3)
H23 H 0.10780 1.17480 0.25720
C42 C 0.1503(4) 1.1586(3) 0.1308(3)
H24 H 0.13550 1.22330 0.13100
C43 C 0.1888(4) 1.0926(3) 0.0548(3)
H25 H 0.19910 1.11250 0.00360
C44 C 0.2118(4) 0.9977(3) 0.0544(3)
H26 H 0.23890 0.95360 0.00320
N2 N 0.7739(4) 0.9290(3) 0.5134(3)
O6 O 0.8574(4) 1.0206(3) 0.5545(3)
O7 O 0.8030(4) 0.8564(3) 0.5350(3)
O8 O -0.1914(3) 0.6870(2) 0.12870(18)
O9 O -0.0779(3) 0.7507(2) 0.0388(2)
O10 O 0.2746(3) 0.8114(2) 0.0690(2)
#END
