
#######################################################################
#
#                 Cambridge Crystallographic Data Centre
#                                CCDC
#
#######################################################################
#
# If this CIF has been generated from an entry in the Cambridge
# Structural Database, then it will include bibliographic, chemical,
# crystal, experimental, refinement or atomic coordinate data resulting
# from the CCDC's data processing and validation procedures.
#
#######################################################################

data_CSD_CIF_ZIFVOB
_audit_creation_date 2013-08-14
_audit_creation_method CSD-ConQuest-V1
_database_code_CSD ZIFVOB
_database_code_depnum_ccdc_archive 'CCDC 794558'
_chemical_formula_sum 'C12 H18 N14 O10'
_chemical_formula_moiety
;
C12 H18 N14 O10
;
_journal_coden_Cambridge 34
_journal_volume 49
_journal_year 2012
_journal_page_first 561
_journal_name_full 'J.Heterocycl.Chem. '
loop_
_publ_author_name
"I.N.Zyuzin"
"K.Yu.Suponitsky"
"A.B.Sheremetev"
_chemical_name_systematic
;
4,8-Bis[2,2-di(methoxy-NNO-azoxy)ethyl]-bis-furazano[3,4-b:3'4'-e]pyrazine
;
_cell_volume   2150.149
_exptl_crystal_colour 'colorless'
_exptl_crystal_density_diffrn 1.601
_exptl_crystal_description 'prism'
_diffrn_ambient_temperature 100
#These two values have been output from a single CSD field.
_refine_ls_R_factor_gt 0.0413
_refine_ls_wR_factor_gt 0.0413
_symmetry_cell_setting monoclinic
_symmetry_space_group_name_H-M 'P 21/c'
_symmetry_Int_Tables_number 14
loop_
_symmetry_equiv_pos_site_id
_symmetry_equiv_pos_as_xyz
1 x,y,z
2 -x,1/2+y,1/2-z
3 -x,-y,-z
4 x,-1/2-y,-1/2+z
_cell_length_a 15.9941(7)
_cell_length_b 11.5640(5)
_cell_length_c 12.5736(6)
_cell_angle_alpha 90
_cell_angle_beta 112.396(1)
_cell_angle_gamma 90
_cell_formula_units_Z 4
loop_
_atom_type_symbol
_atom_type_radius_bond
C 0.68
H 0.23
N 0.68
O 0.68
loop_
_atom_site_label
_atom_site_type_symbol
_atom_site_fract_x
_atom_site_fract_y
_atom_site_fract_z
O1 O 0.29359(5) 0.44573(7) -0.05545(7)
O2 O 0.41849(6) 0.90126(7) 0.12246(8)
O3 O 0.56793(7) 0.92067(7) 0.10455(8)
O4 O 0.50225(6) 0.77916(8) 0.38286(7)
O5 O 0.34932(6) 0.76074(8) 0.39406(7)
N1 N 0.50633(6) 0.55863(7) 0.10600(7)
N2 N 0.35106(6) 0.50424(8) 0.04290(8)
N3 N 0.33966(6) 0.41359(8) -0.12574(8)
N4 N 0.47466(6) 0.81939(8) 0.14990(8)
N5 N 0.55348(7) 0.81703(8) 0.14673(8)
N6 N 0.43456(6) 0.74427(8) 0.29825(8)
N7 N 0.35339(6) 0.73105(8) 0.29098(8)
C1 C 0.42832(6) 0.50761(8) 0.03160(9)
C2 C 0.42136(6) 0.45123(8) -0.07281(9)
C3 C 0.51084(7) 0.61022(9) 0.21354(8)
H1 H 0.57340 0.63670 0.25810
H2 H 0.49490 0.55150 0.25990
C4 C 0.44622(7) 0.71231(9) 0.19059(9)
H3 H 0.38610 0.68830 0.13240
C5 C 0.65342(10) 0.91493(13) 0.09116(15)
H4 H 0.65890 0.98100 0.04540
H5 H 0.65670 0.84290 0.05190
H6 H 0.70280 0.91710 0.16700
C6 C 0.25681(9) 0.74647(12) 0.38322(12)
H7 H 0.25360 0.75240 0.45930
H8 H 0.23470 0.67040 0.35010
H9 H 0.21930 0.80690 0.33290
O6 O 0.20629(6) -0.06143(8) 0.13784(8)
O7 O 0.09875(6) 0.38684(7) 0.21732(7)
O8 O -0.04593(6) 0.41396(7) 0.04876(7)
O9 O -0.00110(5) 0.26981(8) 0.38485(7)
O10 O 0.15172(5) 0.26438(7) 0.54828(6)
N8 N -0.00411(6) 0.05265(8) 0.10409(7)
N9 N 0.15019(6) -0.00687(9) 0.18501(8)
N10 N 0.15853(7) -0.08615(9) 0.02070(9)
N11 N 0.03952(6) 0.30808(7) 0.18603(7)
N12 N -0.03767(6) 0.31021(8) 0.10340(8)
N13 N 0.06853(6) 0.23473(7) 0.37042(7)
N14 N 0.14967(6) 0.22834(8) 0.44402(8)
C7 C 0.07252(7) 0.00167(9) 0.10042(9)
C8 C 0.07755(7) -0.04831(9) -0.00134(9)
C9 C -0.00668(7) 0.10196(9) 0.20956(9)
H10 H 0.00710 0.04090 0.26900
H11 H -0.06820 0.13160 0.19460
C10 C 0.06153(7) 0.20009(8) 0.25391(8)
H12 H 0.12200 0.17200 0.25870
C11 C -0.13232(8) 0.41588(11) -0.04742(11)
H13 H -0.13460 0.48250 -0.09670
H14 H -0.18110 0.42200 -0.01860
H15 H -0.13970 0.34440 -0.09200
C12 C 0.24432(8) 0.25400(14) 0.62834(11)
H16 H 0.24920 0.28050 0.70450
H17 H 0.28330 0.30150 0.60180
H18 H 0.26330 0.17300 0.63300
O1B O 0.70641(5) 0.55427(7) 0.05545(7)
O2B O 0.58151(6) 0.09874(7) -0.12246(8)
O3B O 0.43207(7) 0.07933(7) -0.10455(8)
O4B O 0.49775(6) 0.22084(8) -0.38286(7)
O5B O 0.65068(6) 0.23926(8) -0.39406(7)
N1B N 0.49367(6) 0.44137(7) -0.10600(7)
N2B N 0.64894(6) 0.49576(8) -0.04290(8)
N3B N 0.66034(6) 0.58641(8) 0.12574(8)
N4B N 0.52534(6) 0.18061(8) -0.14990(8)
N5B N 0.44652(7) 0.18297(8) -0.14673(8)
N6B N 0.56544(6) 0.25573(8) -0.29825(8)
N7B N 0.64661(6) 0.26895(8) -0.29098(8)
C1B C 0.57168(6) 0.49239(8) -0.03160(9)
C2B C 0.57864(6) 0.54877(8) 0.07281(9)
C3B C 0.48916(7) 0.38978(9) -0.21354(8)
H1B H 0.42660 0.36330 -0.25810
H2B H 0.50510 0.44850 -0.25990
C4B C 0.55378(7) 0.28769(9) -0.19059(9)
H3B H 0.61390 0.31170 -0.13240
C5B C 0.34658(10) 0.08507(13) -0.09116(15)
H4B H 0.34110 0.01900 -0.04540
H5B H 0.34330 0.15710 -0.05190
H6B H 0.29720 0.08290 -0.16700
C6B C 0.74319(9) 0.25353(12) -0.38322(12)
H7B H 0.74640 0.24760 -0.45930
H8B H 0.76530 0.32960 -0.35010
H9B H 0.78070 0.19310 -0.33290
O6B O -0.20629(6) 0.06143(8) -0.13784(8)
O7B O -0.09875(6) -0.38684(7) -0.21732(7)
O8B O 0.04593(6) -0.41396(7) -0.04876(7)
O9B O 0.00110(5) -0.26981(8) -0.38485(7)
O10B O -0.15172(5) -0.26438(7) -0.54828(6)
N8B N 0.00411(6) -0.05265(8) -0.10409(7)
N9B N -0.15019(6) 0.00687(9) -0.18501(8)
N10B N -0.15853(7) 0.08615(9) -0.02070(9)
N11B N -0.03952(6) -0.30808(7) -0.18603(7)
N12B N 0.03767(6) -0.31021(8) -0.10340(8)
N13B N -0.06853(6) -0.23473(7) -0.37042(7)
N14B N -0.14967(6) -0.22834(8) -0.44402(8)
C7B C -0.07252(7) -0.00167(9) -0.10042(9)
C8B C -0.07755(7) 0.04831(9) 0.00134(9)
C9B C 0.00668(7) -0.10196(9) -0.20956(9)
H10B H -0.00710 -0.04090 -0.26900
H11B H 0.06820 -0.13160 -0.19460
C10B C -0.06153(7) -0.20009(8) -0.25391(8)
H12B H -0.12200 -0.17200 -0.25870
C11B C 0.13232(8) -0.41588(11) 0.04742(11)
H13B H 0.13460 -0.48250 0.09670
H14B H 0.18110 -0.42200 0.01860
H15B H 0.13970 -0.34440 0.09200
C12B C -0.24432(8) -0.25400(14) -0.62834(11)
H16B H -0.24920 -0.28050 -0.70450
H17B H -0.28330 -0.30150 -0.60180
H18B H -0.26330 -0.17300 -0.63300
#END
