
#######################################################################
#
#                 Cambridge Crystallographic Data Centre
#                                CCDC
#
#######################################################################
#
# If this CIF has been generated from an entry in the Cambridge
# Structural Database, then it will include bibliographic, chemical,
# crystal, experimental, refinement or atomic coordinate data resulting
# from the CCDC's data processing and validation procedures.
#
#######################################################################

data_CSD_CIF_ZIFXET
_audit_creation_date 2013-08-14
_audit_creation_method CSD-ConQuest-V1
_database_code_CSD ZIFXET
_database_code_depnum_ccdc_archive 'CCDC 699769'
_chemical_formula_sum 'C9 H10 N6 O4'
_chemical_formula_moiety
;
C9 H10 N6 O4
;
_journal_coden_Cambridge 34
_journal_volume 49
_journal_year 2012
_journal_page_first 705
_journal_name_full 'J.Heterocycl.Chem. '
loop_
_publ_author_name
"R.L.Willer"
"R.F.Storey"
"W.L.Jarrett"
"D.Parrish"
_chemical_name_systematic
;
octahydro-5H,12H-4,11-Methano-1H,7H-bis[1,2,5]oxadiazolo[3,4-d:3',4'-j][1,7,3,
9] dioxadiazacyclododecine
;
_chemical_name_common
;
4,8,13,17-Tetraoxa-1,3,5,10,12,14-hexaazatetracyclo[8.8.1.0$2,6!.0$11,15!]nona
deca-2,5,11,14-tetraene
;
_cell_volume   1091.257
_exptl_crystal_colour 'colorless'
_exptl_crystal_density_diffrn 1.614
_exptl_crystal_description 'prism'
_diffrn_ambient_temperature 144
#These two values have been output from a single CSD field.
_refine_ls_R_factor_gt 0.0371
_refine_ls_wR_factor_gt 0.0371
_symmetry_cell_setting tetragonal
_symmetry_space_group_name_H-M 'P 43 21 2'
_symmetry_Int_Tables_number 96
loop_
_symmetry_equiv_pos_site_id
_symmetry_equiv_pos_as_xyz
1 x,y,z
2 -x,-y,1/2+z
3 1/2-y,1/2+x,3/4+z
4 1/2+y,1/2-x,1/4+z
5 1/2-x,1/2+y,3/4-z
6 1/2+x,1/2-y,1/4-z
7 y,x,-z
8 -y,-x,1/2-z
_cell_length_a 6.4141(4)
_cell_length_b 6.4141(4)
_cell_length_c 26.525(3)
_cell_angle_alpha 90
_cell_angle_beta 90
_cell_angle_gamma 90
_cell_formula_units_Z 4
loop_
_atom_type_symbol
_atom_type_radius_bond
C 0.68
H 0.23
N 0.68
O 0.68
loop_
_atom_site_label
_atom_site_type_symbol
_atom_site_fract_x
_atom_site_fract_y
_atom_site_fract_z
C1 C 0.23284(19) 0.13073(19) -0.05974(4)
C2 C 0.0532(2) 0.24688(19) -0.07668(4)
N1 N -0.05747(19) 0.12667(18) -0.10575(4)
O1 O 0.04258(18) -0.06250(16) -0.10779(4)
N2 N 0.22339(19) -0.05910(19) -0.07813(4)
N3 N 0.39630(16) 0.19252(16) -0.02998(4)
C3 C 0.38279(18) 0.38279(18) 0.00000
H1 H 0.38910 0.50160 -0.02210
C4 C 0.5552(2) 0.0392(2) -0.01784(5)
H2 H 0.59380 -0.03630 -0.04900
H3 H 0.68110 0.11300 -0.00570
C5 C -0.0191(2) 0.4660(2) -0.06798(5)
H4 H 0.10070 0.56200 -0.07190
H5 H -0.12410 0.50280 -0.09380
O2 O -0.10810(15) 0.49362(15) -0.01907(4)
C1F C 0.13073(19) 0.23284(19) 0.05974(4)
C2F C 0.24688(20) 0.05320(19) 0.07668(4)
N1F N 0.12667(19) -0.05747(18) 0.10575(4)
O1F O -0.06250(18) 0.04258(16) 0.10779(4)
N2F N -0.05910(19) 0.22339(19) 0.07813(4)
N3F N 0.19252(16) 0.39630(16) 0.02998(4)
H1F H 0.50160 0.38910 0.02210
C4F C 0.0392(2) 0.5552(2) 0.01784(5)
H2F H -0.03630 0.59380 0.04900
H3F H 0.11300 0.68110 0.00570
C5F C 0.4660(2) -0.0191(2) 0.06798(5)
H4F H 0.56200 0.10070 0.07190
H5F H 0.50280 -0.12410 0.09380
O2F O 0.49362(15) -0.10810(15) 0.01907(4)
#END
