
#######################################################################
#
#                 Cambridge Crystallographic Data Centre
#                                CCDC
#
#######################################################################
#
# If this CIF has been generated from an entry in the Cambridge
# Structural Database, then it will include bibliographic, chemical,
# crystal, experimental, refinement or atomic coordinate data resulting
# from the CCDC's data processing and validation procedures.
#
#######################################################################

data_CSD_CIF_ZIGDOI
_audit_creation_date 1996-07-16
_audit_creation_method CSD-ConQuest-V1
_database_code_CSD ZIGDOI
_database_code_depnum_ccdc_archive 'CCDC 1312329'
_chemical_formula_sum 'C13 H22 N1 O3'
_chemical_formula_moiety
;
C13 H22 N1 O3
;
_journal_coden_Cambridge 7
_journal_volume 67
_journal_year 1994
_journal_page_first 2373
_journal_name_full 'Bull.Chem.Soc.Jpn. '
loop_
_publ_author_name
"A.Kajiwara"
"H.Sugimoto"
"M.Kamachi"
_chemical_name_systematic
;
4-Methacryloyloxy-2,2,6,6-tetramethyl-1-piperidinyloxyl
;
_cell_volume    686.686
_exptl_crystal_colour 'pale orange'
_exptl_crystal_density_diffrn 1.162
_diffrn_ambient_temperature ?
_diffrn_special_details
;
The study was carried out at room temperature,in the range 283-303K

;
#These two values have been output from a single CSD field.
_refine_ls_R_factor_gt 0.056
_refine_ls_wR_factor_gt 0.056
_symmetry_cell_setting monoclinic
_symmetry_space_group_name_H-M 'P 21'
_symmetry_Int_Tables_number 4
loop_
_symmetry_equiv_pos_site_id
_symmetry_equiv_pos_as_xyz
1 x,y,z
2 -x,1/2+y,-z
_cell_length_a 6.071(2)
_cell_length_b 9.770(2)
_cell_length_c 11.828(1)
_cell_angle_alpha 90
_cell_angle_beta 101.82(1)
_cell_angle_gamma 90
_cell_formula_units_Z 2
loop_
_atom_type_symbol
_atom_type_radius_bond
C 0.68
H 0.23
N 0.68
O 0.68
loop_
_atom_site_label
_atom_site_type_symbol
_atom_site_fract_x
_atom_site_fract_y
_atom_site_fract_z
O1 O -0.2087(7) 0.25000 0.2614(4)
O2 O 0.3405(6) -0.1938(4) 0.2708(3)
O3 O 0.6061(7) -0.1465(5) 0.1751(5)
N1 N -0.0695(7) 0.1497(5) 0.2619(4)
C1 C 0.060(1) 0.1071(6) 0.3786(5)
C2 C 0.159(1) -0.0346(6) 0.3682(4)
C3 C 0.2719(9) -0.0501(6) 0.2666(4)
C4 C 0.1087(9) -0.0223(6) 0.1554(5)
C5 C 0.0055(9) 0.1223(6) 0.1512(5)
C6 C 0.244(1) 0.2137(7) 0.4206(5)
C7 C -0.103(1) 0.0994(8) 0.4607(5)
C8 C 0.176(1) 0.2333(7) 0.1338(5)
C9 C -0.201(1) 0.1286(7) 0.0529(5)
C10 C 0.5147(9) -0.2272(6) 0.2248(5)
C11 C 0.5774(9) -0.3728(6) 0.2374(4)
C12 C 0.463(1) -0.4603(7) 0.2923(6)
C13 C 0.770(1) -0.4131(8) 0.1903(7)
H1 H 0.269(9) -0.042(6) 0.444(4)
H2 H 0.033(6) -0.091(4) 0.355(3)
H3 H 0.425(9) 0.011(6) 0.271(4)
H4 H 0.183(8) -0.024(6) 0.083(4)
H5 H -0.005(7) -0.090(4) 0.154(3)
H6 H 0.39(1) 0.211(8) 0.388(5)
H7 H 0.313(9) 0.203(6) 0.503(4)
H8 H 0.180(8) 0.298(6) 0.421(5)
H9 H -0.224(9) 0.056(6) 0.428(4)
H10 H -0.18(1) 0.175(6) 0.470(5)
H11 H 0.00(1) 0.057(7) 0.546(5)
H12 H 0.129(8) 0.326(6) 0.153(4)
H13 H 0.324(8) 0.221(6) 0.184(4)
H14 H 0.190(9) 0.232(7) 0.057(4)
H15 H -0.263(7) 0.206(5) 0.044(4)
H16 H -0.326(7) 0.077(5) 0.063(3)
H17 H -0.16(1) 0.118(7) -0.021(5)
H18 H 0.50510 -0.55430 0.29970
H19 H 0.33970 -0.42850 0.32300
H20 H 0.72640 -0.48280 0.13390
H21 H 0.88490 -0.44780 0.25070
H22 H 0.82530 -0.33650 0.15570
#END
