
#######################################################################
#
#                 Cambridge Crystallographic Data Centre
#                                CCDC
#
#######################################################################
#
# If this CIF has been generated from an entry in the Cambridge
# Structural Database, then it will include bibliographic, chemical,
# crystal, experimental, refinement or atomic coordinate data resulting
# from the CCDC's data processing and validation procedures.
#
#######################################################################

data_CSD_CIF_ZIGJUW
_audit_creation_date 2013-08-20
_audit_creation_method CSD-ConQuest-V1
_database_code_CSD ZIGJUW
_database_code_depnum_ccdc_archive 'CCDC 936889'
_chemical_formula_sum 'C25 H22 N4 O7'
_chemical_formula_moiety
;
C25 H22 N4 O7
;
_journal_coden_Cambridge 579
_journal_volume 32
_journal_year 2013
_journal_page_first 4244
_journal_name_full 'Organometallics '
loop_
_publ_author_name
"M.I.Flores-Conde"
"Miguel Angel Vazquez"
"L.Reyes"
"J.Tamariz"
"F.Delgado"
_chemical_name_systematic
;
(2Z,3Z)-3-Ethoxy-2-(2-(2,4-dinitrophenyl)hydrazono)-4-(4-methoxyphenyl)-1-phen
ylbut-3-en-1-one
;
_chemical_melting_point 428
_cell_volume   2377.120
_exptl_crystal_colour 'orange'
_exptl_crystal_density_diffrn 1.37
_exptl_special_details
;
Melting point range 428-429K

;
_exptl_crystal_description 'prism'
_diffrn_ambient_temperature 292
#These two values have been output from a single CSD field.
_refine_ls_R_factor_gt 0.0633
_refine_ls_wR_factor_gt 0.0633
_symmetry_cell_setting monoclinic
_symmetry_space_group_name_H-M 'P 21/c'
_symmetry_Int_Tables_number 14
loop_
_symmetry_equiv_pos_site_id
_symmetry_equiv_pos_as_xyz
1 x,y,z
2 -x,1/2+y,1/2-z
3 -x,-y,-z
4 x,-1/2-y,-1/2+z
_cell_length_a 9.8392(2)
_cell_length_b 17.8601(4)
_cell_length_c 13.5960(3)
_cell_angle_alpha 90
_cell_angle_beta 95.767(2)
_cell_angle_gamma 90
_cell_formula_units_Z 4
loop_
_atom_type_symbol
_atom_type_radius_bond
C 0.68
H 0.23
N 0.68
O 0.68
loop_
_atom_site_label
_atom_site_type_symbol
_atom_site_fract_x
_atom_site_fract_y
_atom_site_fract_z
N1 N 0.46122(14) 0.10692(8) 0.88493(11)
O1 O 0.43531(12) -0.12058(7) 0.88063(10)
C1 C 0.34951(16) 0.22717(9) 0.89365(11)
C2 C 0.67025(16) -0.12755(9) 0.85565(12)
H1 H 0.73550 -0.10930 0.90840
H2 H 0.70320 -0.11020 0.79470
C3 C 0.55948(16) -0.00571(9) 0.86450(12)
N2 N 0.45136(15) 0.03032(8) 0.88349(10)
C4 C 0.34697(16) 0.14843(9) 0.89318(11)
C5 C 0.55598(16) -0.08740(9) 0.86401(12)
C6 C 0.23252(17) 0.26914(10) 0.89930(12)
H3 H 0.23610 0.32120 0.89830
C7 C 0.21898(17) 0.11361(10) 0.90059(13)
H4 H 0.21340 0.06160 0.90040
O2 O 0.76731(15) -0.43785(7) 0.85462(12)
C8 C 0.85398(17) -0.31033(10) 0.84885(12)
H5 H 0.94310 -0.32630 0.84440
C9 C 0.69077(16) -0.20803(9) 0.85511(11)
C10 C 0.11156(17) 0.23289(10) 0.90635(12)
N3 N 0.47475(16) 0.26946(9) 0.88831(12)
C11 C 0.10349(17) 0.15501(11) 0.90802(13)
H6 H 0.02050 0.13140 0.91410
C12 C 0.82344(16) -0.23474(10) 0.84908(12)
H7 H 0.89370 -0.20040 0.84510
C13 C 0.61705(18) -0.33734(10) 0.86143(13)
H8 H 0.54730 -0.37200 0.86550
C14 C 0.58795(16) -0.26192(10) 0.86140(13)
H9 H 0.49850 -0.24630 0.86560
N4 N -0.00999(17) 0.27760(11) 0.91479(14)
C15 C 0.70005(17) 0.05464(10) 0.73642(13)
C16 C 0.68790(17) 0.03576(9) 0.84157(13)
O3 O 0.58276(14) 0.23564(9) 0.88550(15)
C17 C 0.75020(18) -0.36200(9) 0.85536(12)
O4 O 0.46908(16) 0.33746(8) 0.88663(13)
O5 O -0.00226(19) 0.34542(11) 0.90712(16)
O6 O 0.76996(16) 0.05622(10) 0.90802(11)
C18 C 0.75715(19) 0.12347(12) 0.71475(18)
H10 H 0.78920 0.15590 0.76540
C19 C 0.3244(2) -0.11402(14) 0.80196(17)
H11 H 0.33620 -0.15030 0.75040
H12 H 0.32410 -0.06430 0.77320
C20 C 0.6541(2) 0.00669(12) 0.66053(15)
H13 H 0.61310 -0.03850 0.67450
C21 C 0.9028(3) -0.46589(13) 0.8610(2)
H14 H 0.94380 -0.45280 0.80220
H15 H 0.90130 -0.51940 0.86780
H16 H 0.95510 -0.44440 0.91750
O7 O -0.11392(17) 0.24516(13) 0.9321(2)
C22 C 0.7234(2) 0.09443(18) 0.5422(2)
H17 H 0.73160 0.10780 0.47690
C23 C 0.7655(2) 0.14292(16) 0.6171(2)
H18 H 0.80020 0.18950 0.60210
C24 C 0.1947(3) -0.1277(2) 0.8442(3)
H19 H 0.19910 -0.17500 0.87780
H20 H 0.12120 -0.12850 0.79210
H21 H 0.17930 -0.08860 0.89020
C25 C 0.6692(3) 0.02630(17) 0.56313(17)
H22 H 0.64250 -0.00690 0.51220
#END
