
#######################################################################
#
#                 Cambridge Crystallographic Data Centre
#                                CCDC
#
#######################################################################
#
# If this CIF has been generated from an entry in the Cambridge
# Structural Database, then it will include bibliographic, chemical,
# crystal, experimental, refinement or atomic coordinate data resulting
# from the CCDC's data processing and validation procedures.
#
#######################################################################

data_CSD_CIF_ZIHFEE
_audit_creation_date 2018-08-21
_audit_creation_method CSD-ConQuest-V1
_database_code_CSD ZIHFEE
_database_code_depnum_ccdc_archive 'CCDC 1825221'
_chemical_formula_sum 'C10 H9 N3 O3'
_chemical_formula_moiety
;
C10 H9 N3 O3
;
_journal_coden_Cambridge 1366
_journal_volume 360
_journal_year 2018
_journal_page_first 3157
_journal_name_full 'Adv.Synth.Catal. '
loop_
_publ_author_name
"D.M.Bystrov"
"E.S.Zhilin"
"L.L.Fershtat"
"A.A.Romanova"
"I.V.Ananyev"
"N.N.Makhova"
_chemical_name_systematic
;
methyl (4-phenyl-1,2,5-oxadiazol-3-yl)carbamate
;
_cell_volume   1956.486
_exptl_crystal_colour 'colorless'
_exptl_crystal_density_diffrn 1.488
_exptl_crystal_description 'needle'
_diffrn_ambient_temperature 120
#These two values have been output from a single CSD field.
_refine_ls_R_factor_gt 0.0347
_refine_ls_wR_factor_gt 0.0347
_symmetry_cell_setting monoclinic
_symmetry_space_group_name_H-M 'C 2/c'
_symmetry_Int_Tables_number 15
loop_
_symmetry_equiv_pos_site_id
_symmetry_equiv_pos_as_xyz
1 x,y,z
2 -x,y,1/2-z
3 1/2+x,1/2+y,z
4 1/2-x,1/2+y,1/2-z
5 -x,-y,-z
6 x,-y,-1/2+z
7 -1/2-x,-1/2-y,-z
8 -1/2+x,-1/2-y,-1/2+z
_cell_length_a 30.181(7)
_cell_length_b 4.9605(12)
_cell_length_c 15.049(4)
_cell_angle_alpha 90
_cell_angle_beta 119.729(8)
_cell_angle_gamma 90
_cell_formula_units_Z 8
loop_
_atom_type_symbol
_atom_type_radius_bond
C 0.68
H 0.23
N 0.68
O 0.68
loop_
_atom_site_label
_atom_site_type_symbol
_atom_site_fract_x
_atom_site_fract_y
_atom_site_fract_z
O1 O 0.65500(4) 1.0556(2) 0.31739(7)
O2 O 0.54126(4) 0.60234(18) 0.37819(8)
O3 O 0.49293(3) 0.93258(19) 0.38916(8)
N1 N 0.67746(4) 0.8538(2) 0.38919(8)
N2 N 0.61048(4) 1.1426(2) 0.31219(8)
N3 N 0.56500(4) 1.0432(2) 0.39507(9)
H1 H 0.5539(6) 1.200(4) 0.3885(12)
C1 C 0.64837(5) 0.8179(2) 0.42938(9)
C2 C 0.60614(5) 0.9995(2) 0.37965(10)
C3 C 0.53315(5) 0.8374(3) 0.38611(9)
C4 C 0.45570(6) 0.7346(4) 0.37890(14)
H2 H 0.4456(6) 0.618(4) 0.3201(14)
H3 H 0.4253(7) 0.833(4) 0.3641(13)
H4 H 0.4686(7) 0.628(4) 0.4399(16)
C5 C 0.66389(4) 0.6289(2) 0.51505(9)
C6 C 0.64620(5) 0.6541(3) 0.58411(10)
H5 H 0.6232(5) 0.798(3) 0.5772(11)
C7 C 0.66405(5) 0.4828(3) 0.66735(10)
H6 H 0.6521(5) 0.500(3) 0.7141(11)
C8 C 0.69957(5) 0.2854(3) 0.68276(10)
H7 H 0.7123(6) 0.167(3) 0.7418(12)
C9 C 0.71751(5) 0.2603(3) 0.61451(10)
H8 H 0.7433(6) 0.120(3) 0.6241(11)
C10 C 0.70008(5) 0.4310(3) 0.53147(10)
H9 H 0.7125(5) 0.416(3) 0.4843(11)
#END
