
#######################################################################
#
#                 Cambridge Crystallographic Data Centre
#                                CCDC
#
#######################################################################
#
# If this CIF has been generated from an entry in the Cambridge
# Structural Database, then it will include bibliographic, chemical,
# crystal, experimental, refinement or atomic coordinate data resulting
# from the CCDC's data processing and validation procedures.
#
#######################################################################

data_CSD_CIF_ZIHHOQ
_audit_creation_date 2018-08-21
_audit_creation_method CSD-ConQuest-V1
_database_code_CSD ZIHHOQ
_database_code_depnum_ccdc_archive 'CCDC 1821163'
_chemical_formula_sum 'C20 H19 N1 O5'
_chemical_formula_moiety
;
C20 H19 N1 O5
;
_journal_coden_Cambridge 182
_journal_volume 54
_journal_year 2018
_journal_page_first 10128
_journal_name_full 'Chem.Commun. '
loop_
_publ_author_name
"Zhe-Hao Wang"
"Huan-Huan Zhang"
"Peng-Fei Xu"
"Yong-Chun Luo"
_chemical_name_systematic
;
dimethyl 1-oxo-2,5-diphenyl-4,5-dihydro-3H-1-pyrrole-3,3-dicarboxylate
;
_cell_volume    876.230
_exptl_crystal_colour 'light colorless'
_exptl_crystal_density_diffrn 1.339
_exptl_crystal_description 'block'
_diffrn_ambient_temperature 288.5
#These two values have been output from a single CSD field.
_refine_ls_R_factor_gt 0.0696
_refine_ls_wR_factor_gt 0.0696
_symmetry_cell_setting triclinic
_symmetry_space_group_name_H-M 'P -1'
_symmetry_Int_Tables_number 2
loop_
_symmetry_equiv_pos_site_id
_symmetry_equiv_pos_as_xyz
1 x,y,z
2 -x,-y,-z
_cell_length_a 9.683(2)
_cell_length_b 9.746(3)
_cell_length_c 11.167(3)
_cell_angle_alpha 68.90(3)
_cell_angle_beta 72.87(2)
_cell_angle_gamma 64.67(3)
_cell_formula_units_Z 2
loop_
_atom_type_symbol
_atom_type_radius_bond
C 0.68
H 0.23
N 0.68
O 0.68
loop_
_atom_site_label
_atom_site_type_symbol
_atom_site_fract_x
_atom_site_fract_y
_atom_site_fract_z
O1 O 0.6658(3) 0.9610(4) -0.4186(2)
O2 O 0.4982(3) 0.9617(3) -0.2350(2)
O3 O 0.8396(4) 0.6247(5) -0.3964(3)
O4 O 1.0081(3) 0.6364(3) -0.3073(2)
O5 O 0.8662(3) 0.6845(2) 0.0702(2)
N1 N 0.8110(3) 0.6924(3) -0.0250(2)
C1 C 0.8037(4) 0.7974(3) -0.1392(3)
C2 C 0.7427(4) 0.7557(4) -0.2265(3)
C3 C 0.6661(4) 0.6394(4) -0.1262(3)
H1 H 0.55790 0.69510 -0.09640
H2 H 0.67310 0.56070 -0.16380
C4 C 0.7582(4) 0.5633(3) -0.0146(3)
H3 H 0.84890 0.47240 -0.03350
C5 C 0.6701(4) 0.5121(4) 0.1180(3)
C6 C 0.7157(4) 0.3547(4) 0.1873(3)
H4 H 0.80310 0.28110 0.15290
C7 C 0.6320(6) 0.3064(5) 0.3072(4)
H5 H 0.66210 0.20020 0.35280
C8 C 0.5051(5) 0.4144(6) 0.3592(4)
H6 H 0.44980 0.38180 0.44060
C9 C 0.4591(5) 0.5703(5) 0.2919(4)
H7 H 0.37210 0.64320 0.32720
C10 C 0.5414(4) 0.6196(4) 0.1717(3)
H8 H 0.51000 0.72600 0.12660
C11 C 0.8514(4) 0.9324(3) -0.1718(3)
C12 C 0.8221(5) 1.0119(4) -0.0802(4)
H9 H 0.76870 0.98060 0.00250
C13 C 0.8703(6) 1.1354(5) -0.1094(5)
H10 H 0.85050 1.18630 -0.04660
C14 C 0.9479(6) 1.1834(5) -0.2314(6)
H11 H 0.98010 1.26760 -0.25160
C15 C 0.9777(5) 1.1082(5) -0.3229(5)
H12 H 1.03170 1.14030 -0.40520
C16 C 0.9286(5) 0.9848(4) -0.2945(3)
H13 H 0.94750 0.93610 -0.35870
C17 C 0.6319(4) 0.9026(4) -0.3064(3)
C18 C 0.3871(5) 1.1060(4) -0.3015(4)
H14 H 0.36380 1.08780 -0.37100
H15 H 0.43030 1.18740 -0.33650
H16 H 0.29390 1.13820 -0.24100
C19 C 0.8679(4) 0.6650(4) -0.3206(3)
C20 C 1.1350(4) 0.5397(4) -0.3839(4)
H17 H 1.13130 0.59080 -0.47480
H18 H 1.12610 0.43890 -0.36250
H19 H 1.23170 0.52540 -0.36520
#END
