
#######################################################################
#
#                 Cambridge Crystallographic Data Centre
#                                CCDC
#
#######################################################################
#
# If this CIF has been generated from an entry in the Cambridge
# Structural Database, then it will include bibliographic, chemical,
# crystal, experimental, refinement or atomic coordinate data resulting
# from the CCDC's data processing and validation procedures.
#
#######################################################################

data_CSD_CIF_ZIKHEG
_audit_creation_date 1996-01-25
_audit_creation_method CSD-ConQuest-V1
_database_code_CSD ZIKHEG
_database_code_depnum_ccdc_archive 'CCDC 126055'
_chemical_formula_sum 'C17 H16 N2 O5'
_chemical_formula_moiety
;
C17 H16 N2 O5
;
_journal_coeditor_code "IUCr CR1185"
_journal_coden_Cambridge 591
_journal_volume 51
_journal_year 1995
_journal_page_first 2554
_journal_name_full 'Acta Crystallogr.,Sect.C:Cryst.Struct.Commun. '
loop_
_publ_author_name
"K.R.Rowan"
"E.M.Holt"
_chemical_name_systematic
;
2,6-Dimethyl-3,5-dimethoxycarbonyl-4-(2-nitrosophenyl)pyridine
;
_chemical_melting_point 366
_cell_volume   3402.734
_exptl_crystal_colour 'green'
_exptl_crystal_density_diffrn 1.282
_diffrn_ambient_temperature ?
_diffrn_special_details
;
The study was carried out at room temperature,in the range 283-303K

;
_refine_special_details
;
In molecule A, the O-atom of the nitroso group is disordered over two 
equally-occupied positions. In molecule B, the methoxy O-atom and the methyl 
group of one ester group are disordered with occupancies of 0.5.
;
#These two values have been output from a single CSD field.
_refine_ls_R_factor_gt 0.063
_refine_ls_wR_factor_gt 0.063
_symmetry_cell_setting monoclinic
_symmetry_space_group_name_H-M 'P 21/c'
_symmetry_Int_Tables_number 14
loop_
_symmetry_equiv_pos_site_id
_symmetry_equiv_pos_as_xyz
1 x,y,z
2 -x,1/2+y,1/2-z
3 -x,-y,-z
4 x,-1/2-y,-1/2+z
_cell_length_a 18.171(4)
_cell_length_b 7.157(1)
_cell_length_c 26.165(5)
_cell_angle_alpha 90
_cell_angle_beta 90.20(3)
_cell_angle_gamma 90
_cell_formula_units_Z 8
loop_
_atom_type_symbol
_atom_type_radius_bond
C 0.68
H 0.23
N 0.68
O 0.68
loop_
_atom_site_label
_atom_site_type_symbol
_atom_site_fract_x
_atom_site_fract_y
_atom_site_fract_z
N1 N 0.2852(3) -0.1787(8) 0.0848(2)
C1 C 0.3300(3) -0.0918(10) 0.0523(2)
C2 C 0.3326(3) -0.1806(9) 0.0005(2)
H1 H 0.2992(3) -0.2845(9) -0.0009(2)
H2 H 0.3184(3) -0.0894(9) -0.0246(2)
H3 H 0.3816(3) -0.2232(9) -0.0065(2)
C3 C 0.3726(3) 0.0585(10) 0.0668(2)
C4 C 0.4241(4) 0.1545(10) 0.0296(3)
O1 O 0.4883(2) 0.1801(8) 0.03731(15)
O2 O 0.3876(2) 0.2127(8) -0.0108(2)
C5 C 0.4316(4) 0.2938(11) -0.0510(2)
H4 H 0.4013(4) 0.3286(11) -0.0796(2)
H5 H 0.4534(4) 0.4038(11) -0.0364(2)
H6 H 0.4698(4) 0.2108(11) -0.0623(2)
C6 C 0.3715(3) 0.1225(9) 0.1177(2)
C7 C 0.3225(3) 0.0309(9) 0.1508(2)
C8 C 0.3181(3) 0.0904(11) 0.2059(3)
C9 C 0.2796(3) 0.3342(9) 0.2607(2)
H7 H 0.2565(3) 0.4549(9) 0.2607(2)
H8 H 0.2509(3) 0.2492(9) 0.2809(2)
H9 H 0.3282(3) 0.3442(9) 0.2749(2)
O3 O 0.3384(3) -0.0012(8) 0.2409(2)
O4 O 0.2867(2) 0.2539(7) 0.2100(2)
C10 C 0.2818(3) -0.1207(10) 0.1329(3)
C11 C 0.2298(3) -0.2199(9) 0.1683(2)
H10 H 0.2309(3) -0.1661(9) 0.2019(2)
H11 H 0.1810(3) -0.2104(9) 0.1544(2)
H12 H 0.2439(3) -0.3490(9) 0.1702(2)
C12 C 0.4183(3) 0.2808(10) 0.1360(2)
C13 C 0.3990(3) 0.460(1) 0.1288(2)
H13 H 0.3566(3) 0.4898(10) 0.1084(2)
C14 C 0.4400(4) 0.6035(10) 0.1489(2)
H14 H 0.4253(4) 0.7314(10) 0.1444(2)
C15 C 0.5028(4) 0.5665(10) 0.1773(3)
H15 H 0.5324(4) 0.6652(10) 0.1913(3)
C16 C 0.5239(3) 0.3854(10) 0.1846(2)
H16 H 0.5666(3) 0.358(1) 0.2050(2)
C17 C 0.4830(3) 0.2433(10) 0.1639(2)
N2 N 0.5020(3) 0.0504(9) 0.1690(2)
O5 O 0.5550(22) 0.026(4) 0.1929(15)
N3 N 0.0632(4) 0.2394(8) -0.0383(2)
C18 C 0.0034(4) 0.3288(10) -0.0554(2)
C19 C -0.0674(3) 0.2501(9) -0.0354(2)
H17 H -0.0593(3) 0.1506(9) -0.0114(2)
H18 H -0.0941(3) 0.3491(9) -0.0190(2)
H19 H -0.0955(3) 0.2041(9) -0.0639(2)
C20 C 0.0064(3) 0.4696(10) -0.0901(2)
C21 C -0.0625(4) 0.5461(12) -0.1138(3)
C22 C -0.1711(14) 0.720(4) -0.1023(9)
H20 H -0.1573(14) 0.7912(44) -0.1318(9)
H21 H -0.2049(14) 0.6232(44) -0.1123(9)
H22 H -0.1680(19) 0.8804(49) -0.0879(12)
O6 O -0.0845(2) 0.5016(7) -0.1544(2)
O7 O -0.090(3) 0.659(8) -0.0784(15)
C23 C 0.0739(4) 0.5358(10) -0.1080(2)
C24 C 0.1370(4) 0.4472(10) -0.0896(2)
C25 C 0.2129(5) 0.4977(14) -0.1100(3)
C26 C 0.2871(4) 0.7447(12) -0.1359(2)
H23 H 0.2873(4) 0.8787(12) -0.1375(2)
H24 H 0.3288(4) 0.7027(12) -0.1164(2)
H25 H 0.2898(4) 0.6946(12) -0.1699(2)
O8 O 0.2583(3) 0.3847(10) -0.1222(2)
O9 O 0.2208(3) 0.6802(9) -0.1111(2)
C27 C 0.1295(4) 0.2991(11) -0.0556(2)
C28 C 0.1932(4) 0.1850(12) -0.0359(2)
H26 H 0.1732(4) 0.0877(12) -0.0149(2)
H27 H 0.2207(4) 0.1304(12) -0.0635(2)
H28 H 0.2252(4) 0.2626(12) -0.0158(2)
C29 C 0.0749(3) 0.6917(10) -0.1452(2)
C30 C 0.0605(4) 0.8694(11) -0.1304(3)
H29 H 0.0483(4) 0.8934(11) -0.0953(3)
C31 C 0.0592(4) 1.0135(10) -0.1652(3)
H30 H 0.0483(4) 1.136(1) -0.1523(3)
C32 C 0.0735(3) 0.9826(10) -0.2163(3)
H31 H 0.0756(3) 1.0859(10) -0.2397(3)
C33 C 0.0855(3) 0.8038(10) -0.2323(2)
H32 H 0.0929(3) 0.7757(10) -0.2678(2)
C34 C 0.0881(3) 0.6577(10) -0.1976(2)
N4 N 0.1012(3) 0.4688(9) -0.2111(2)
O10 O 0.1145(3) 0.4430(7) -0.2563(2)
O11? O 0.5649(17) 0.019(3) 0.1865(14)
H33? H -0.1942(14) 0.8002(44) -0.0778(9)
C35? C -0.1492(19) 0.796(5) -0.1132(12)
H34? H -0.1310(19) 0.8659(49) -0.1418(12)
H35? H -0.1879(19) 0.7142(49) -0.1245(12)
O12? O -0.100(3) 0.679(6) -0.0900(14)
#END
