
#######################################################################
#
#                 Cambridge Crystallographic Data Centre
#                                CCDC
#
#######################################################################
#
# If this CIF has been generated from an entry in the Cambridge
# Structural Database, then it will include bibliographic, chemical,
# crystal, experimental, refinement or atomic coordinate data resulting
# from the CCDC's data processing and validation procedures.
#
#######################################################################

data_CSD_CIF_ZIKNIQ
_audit_creation_date 1996-01-25
_audit_creation_method CSD-ConQuest-V1
_database_code_CSD ZIKNIQ
_database_code_depnum_ccdc_archive 'CCDC 126148'
_chemical_formula_sum 'C25 H28 N4 O6'
_chemical_formula_moiety
;
C25 H28 N4 O6
;
_journal_coeditor_code "IUCr VS1017"
_journal_coden_Cambridge 591
_journal_volume 51
_journal_year 1995
_journal_page_first 2601
_journal_name_full 'Acta Crystallogr.,Sect.C:Cryst.Struct.Commun. '
loop_
_publ_author_name
"A.F.Mishnev"
"A.A.Kemme"
"J.J.Ancans"
_chemical_name_systematic
;
N^\a^-t-Butoxycarbonyl-N^\t^-benzylhistidine p-nitrobenzyl ester
;
_cell_volume   1221.322
_exptl_crystal_colour 'colorless'
_exptl_crystal_density_diffrn 1.31
_diffrn_ambient_temperature ?
_diffrn_special_details
;
The study was carried out at room temperature,in the range 283-303K

;
#These two values have been output from a single CSD field.
_refine_ls_R_factor_gt 0.049
_refine_ls_wR_factor_gt 0.049
_symmetry_cell_setting monoclinic
_symmetry_space_group_name_H-M 'P 21'
_symmetry_Int_Tables_number 4
loop_
_symmetry_equiv_pos_site_id
_symmetry_equiv_pos_as_xyz
1 x,y,z
2 -x,1/2+y,-z
_cell_length_a 5.558(2)
_cell_length_b 8.776(3)
_cell_length_c 25.153(7)
_cell_angle_alpha 90
_cell_angle_beta 95.46(2)
_cell_angle_gamma 90
_cell_formula_units_Z 2
loop_
_atom_type_symbol
_atom_type_radius_bond
C 0.68
H 0.23
N 0.68
O 0.68
loop_
_atom_site_label
_atom_site_type_symbol
_atom_site_fract_x
_atom_site_fract_y
_atom_site_fract_z
O1 O 0.4076(8) 0.76740 0.2659(1)
O2 O 0.1060(6) 0.7689(6) 0.3829(2)
O3 O 0.4006(5) 0.6168(6) 0.4236(1)
O4 O 0.2156(6) 0.9906(6) 0.2613(1)
O5 O 0.6449(12) 0.9098(14) 0.0001(2)
O6 O 0.8099(16) 1.1171(12) 0.0331(3)
N1 N 0.5022(7) 0.8108(7) 0.3762(1)
N2 N 0.6691(14) 1.0115(15) 0.0339(3)
N3 N 0.4938(7) 1.2788(7) 0.3236(2)
N4 N 0.7646(7) 1.4027(6) 0.2811(1)
C1 C 0.4624(8) 0.9421(7) 0.3409(2)
C2 C 0.7029(9) 1.0263(7) 0.3394(2)
C3 C 0.6839(8) 1.1827(7) 0.3152(2)
C4 C 0.8491(8) 1.2564(7) 0.2889(2)
C5 C 0.5529(9) 1.4085(7) 0.3026(2)
C6 C 0.3638(8) 0.8872(7) 0.2855(2)
C7 C 0.3151(9) 0.7349(7) 0.3939(2)
C8 C 0.2375(8) 0.5108(8) 0.4487(2)
C9 C 0.0642(10) 0.4346(8) 0.4069(2)
C10 C 0.4156(10) 0.3965(9) 0.4743(2)
C11 C 0.1050(11) 0.5970(9) 0.4895(2)
C12 C 0.0967(11) 0.9469(9) 0.2098(2)
C13 C 0.2545(9) 0.9660(8) 0.1645(2)
C14 C 0.2051(13) 0.8737(9) 0.1200(2)
C15 C 0.3379(15) 0.8895(12) 0.0769(2)
C16 C 0.5204(13) 0.9972(11) 0.0794(2)
C17 C 0.5690(12) 1.0908(11) 0.1223(3)
C18 C 0.4358(11) 1.0741(9) 0.1659(2)
C19 C 0.8889(10) 1.5281(8) 0.2567(2)
C20 C 0.8881(9) 1.5118(7) 0.1966(2)
C21 C 0.7021(10) 1.5707(9) 0.1630(2)
C22 C 0.7028(12) 1.5545(10) 0.1081(3)
C23 C 0.8904(13) 1.4807(10) 0.0873(3)
C24 C 1.0776(13) 1.4218(10) 0.1202(3)
C25 C 1.0752(10) 1.4387(9) 0.1752(2)
H1 H 0.63579 0.78098 0.38248
H2 H 0.34022 0.99878 0.35299
H3 H 0.81145 0.96424 0.31983
H4 H 0.78796 1.03112 0.37974
H5 H 0.99284 1.22861 0.27486
H6 H 0.46160 1.48972 0.30573
H7 H 0.14082 0.40293 0.37858
H8 H -0.04768 0.49897 0.39065
H9 H -0.03352 0.36052 0.42513
H10 H 0.34113 0.32087 0.49435
H11 H 0.51679 0.46240 0.49880
H12 H 0.53595 0.33624 0.44844
H13 H -0.00215 0.52886 0.50742
H14 H -0.02336 0.65749 0.46871
H15 H 0.21092 0.64287 0.51115
H16 H -0.06514 1.00662 0.20638
H17 H 0.05026 0.83462 0.21177
H18 H 0.07603 0.80711 0.11824
H19 H 0.29435 0.82052 0.04860
H20 H 0.69077 1.15806 0.12254
H21 H 0.46657 1.13954 0.19495
H22 H 0.80728 1.61611 0.26633
H23 H 1.05743 1.53359 0.27667
H24 H 0.56689 1.61235 0.17860
H25 H 0.56323 1.59225 0.08570
H26 H 0.89188 1.47401 0.05195
H27 H 1.21341 1.34366 0.10576
H28 H 1.20658 1.39545 0.19846
#END
