
#######################################################################
#
#                 Cambridge Crystallographic Data Centre
#                                CCDC
#
#######################################################################
#
# If this CIF has been generated from an entry in the Cambridge
# Structural Database, then it will include bibliographic, chemical,
# crystal, experimental, refinement or atomic coordinate data resulting
# from the CCDC's data processing and validation procedures.
#
#######################################################################

data_CSD_CIF_ZIKRET
_audit_creation_date 2018-08-23
_audit_creation_method CSD-ConQuest-V1
_database_code_CSD ZIKRET
_database_code_depnum_ccdc_archive 'CCDC 1855847'
_chemical_formula_sum 'C19 H19 N1 O2'
_chemical_formula_moiety
;
C19 H19 N1 O2
;
_journal_coden_Cambridge 1336
_journal_volume 20
_journal_year 2018
_journal_page_first 5384
_journal_name_full 'Org.Lett. '
loop_
_publ_author_name
"Lingbowei Hu"
"M.Rombola"
"V.H.Rawal"
_chemical_name_systematic
;
3,4-diphenyl-2-oxa-3-azabicyclo[3.3.1]nonan-9-one
;
_cell_volume   1551.559
_exptl_crystal_colour 'colorless'
_exptl_crystal_density_diffrn 1.256
_exptl_crystal_description 'block'
_diffrn_ambient_temperature 100
#These two values have been output from a single CSD field.
_refine_ls_R_factor_gt 0.0419
_refine_ls_wR_factor_gt 0.0419
_symmetry_cell_setting monoclinic
_symmetry_space_group_name_H-M 'P 21/c'
_symmetry_Int_Tables_number 14
loop_
_symmetry_equiv_pos_site_id
_symmetry_equiv_pos_as_xyz
1 x,y,z
2 -x,1/2+y,1/2-z
3 -x,-y,-z
4 x,-1/2-y,-1/2+z
_cell_length_a 12.8048(7)
_cell_length_b 10.6377(5)
_cell_length_c 11.4585(6)
_cell_angle_alpha 90
_cell_angle_beta 96.239(2)
_cell_angle_gamma 90
_cell_formula_units_Z 4
loop_
_atom_type_symbol
_atom_type_radius_bond
C 0.68
H 0.23
N 0.68
O 0.68
loop_
_atom_site_label
_atom_site_type_symbol
_atom_site_fract_x
_atom_site_fract_y
_atom_site_fract_z
O1 O 0.89388(5) 0.46931(6) 0.24143(6)
O2 O 0.75270(6) 0.39392(7) -0.02703(6)
N1 N 0.78550(6) 0.50706(7) 0.25727(6)
C1 C 0.79687(7) 0.58558(8) 0.36092(8)
C2 C 0.74042(7) 0.69713(9) 0.35823(9)
H1 H 0.6937(11) 0.7187(13) 0.2862(12)
C3 C 0.75035(8) 0.77529(9) 0.45669(10)
H2 H 0.7106(12) 0.8542(14) 0.4542(13)
C4 C 0.81592(9) 0.74193(10) 0.55615(9)
H3 H 0.8216(12) 0.7969(15) 0.6247(13)
C5 C 0.87207(8) 0.63002(10) 0.55841(8)
H4 H 0.9184(11) 0.6060(13) 0.6285(12)
C6 C 0.86269(7) 0.55149(9) 0.46088(8)
H5 H 0.9037(11) 0.4723(13) 0.4619(12)
C7 C 0.73021(6) 0.38683(8) 0.27615(7)
H6 H 0.7648(9) 0.3449(11) 0.3472(10)
C8 C 0.61749(7) 0.41304(8) 0.29573(8)
C9 C 0.57543(8) 0.35593(10) 0.38865(9)
H7 H 0.6209(11) 0.3006(14) 0.4436(13)
C10 C 0.46997(9) 0.37267(12) 0.40448(11)
H8 H 0.4420(13) 0.3347(16) 0.4711(14)
C11 C 0.40662(8) 0.44695(11) 0.32782(11)
H9 H 0.3328(13) 0.4561(15) 0.3384(14)
C12 C 0.44778(8) 0.50531(11) 0.23508(11)
H10 H 0.4046(12) 0.5577(15) 0.1816(14)
C13 C 0.55302(8) 0.48821(10) 0.21853(10)
H11 H 0.5808(11) 0.5289(14) 0.1533(12)
C14 C 0.73667(7) 0.30521(8) 0.16457(8)
H12 H 0.6654(10) 0.2800(12) 0.1313(11)
C15 C 0.80505(8) 0.18535(9) 0.18564(9)
H13 H 0.7921(11) 0.1341(13) 0.1137(12)
H14 H 0.7785(11) 0.1338(13) 0.2496(12)
C16 C 0.92266(8) 0.21191(9) 0.21515(9)
H15 H 0.9357(10) 0.2435(13) 0.2990(11)
H16 H 0.9625(11) 0.1325(14) 0.2132(12)
C17 C 0.96480(7) 0.30693(10) 0.13168(9)
H17 H 0.9641(10) 0.2698(13) 0.0513(12)
H18 H 1.0394(12) 0.3313(14) 0.1577(12)
C18 C 0.89568(7) 0.42492(9) 0.12347(8)
H19 H 0.9225(10) 0.4911(12) 0.0741(11)
C19 C 0.78716(7) 0.38126(9) 0.07513(8)
#END
