
#######################################################################
#
#                 Cambridge Crystallographic Data Centre
#                                CCDC
#
#######################################################################
#
# If this CIF has been generated from an entry in the Cambridge
# Structural Database, then it will include bibliographic, chemical,
# crystal, experimental, refinement or atomic coordinate data resulting
# from the CCDC's data processing and validation procedures.
#
#######################################################################

data_CSD_CIF_ZIKYIB
_audit_creation_date 1996-01-25
_audit_creation_method CSD-ConQuest-V1
_database_code_CSD ZIKYIB
_database_code_depnum_ccdc_archive 'CCDC 126076'
_chemical_formula_sum 'C12 H7 N1 O3'
_chemical_formula_moiety
;
C12 H7 N1 O3
;
_journal_coeditor_code "IUCr HU1087"
_journal_coden_Cambridge 591
_journal_volume 51
_journal_year 1995
_journal_page_first 2680
_journal_name_full 'Acta Crystallogr.,Sect.C:Cryst.Struct.Commun. '
loop_
_publ_author_name
"P.A.Chaloner"
"P.B.Hitchcock"
"P.G.Sutton"
_chemical_name_systematic
;
3-Nitrodibenzofuran
;
_chemical_melting_point 454
_cell_volume    469.255
_exptl_crystal_colour 'pale yellow'
_exptl_crystal_density_diffrn 1.51
_exptl_special_details
;
Melting point range 454-455K

;
_diffrn_ambient_temperature ?
_diffrn_special_details
;
The study was carried out at room temperature,in the range 283-303K

;
#These two values have been output from a single CSD field.
_refine_ls_R_factor_gt 0.047
_refine_ls_wR_factor_gt 0.047
_symmetry_cell_setting triclinic
_symmetry_space_group_name_H-M 'P -1'
_symmetry_Int_Tables_number 2
loop_
_symmetry_equiv_pos_site_id
_symmetry_equiv_pos_as_xyz
1 x,y,z
2 -x,-y,-z
_cell_length_a 6.886(3)
_cell_length_b 7.106(3)
_cell_length_c 10.591(4)
_cell_angle_alpha 75.23(4)
_cell_angle_beta 84.72(3)
_cell_angle_gamma 69.46(3)
_cell_formula_units_Z 2
loop_
_atom_type_symbol
_atom_type_radius_bond
C 0.68
H 0.23
N 0.68
O 0.68
loop_
_atom_site_label
_atom_site_type_symbol
_atom_site_fract_x
_atom_site_fract_y
_atom_site_fract_z
O1 O 0.2069(2) 0.6861(2) 0.10467(11)
O2 O 0.2601(2) 0.7964(3) -0.46901(13)
O3 O 0.5224(2) 0.7165(3) -0.34461(14)
N1 N 0.3370(2) 0.7569(2) -0.36168(14)
C1 C 0.1511(2) 0.7227(2) -0.02325(15)
C2 C 0.2880(2) 0.7153(2) -0.12652(15)
C3 C 0.1998(2) 0.7584(2) -0.24737(15)
C4 C -0.0103(2) 0.8039(2) -0.26583(16)
C5 C -0.1421(2) 0.8069(2) -0.15935(16)
C6 C -0.0614(2) 0.7674(2) -0.03622(15)
C7 C -0.1441(2) 0.7575(2) 0.09509(15)
C8 C -0.3403(2) 0.7836(2) 0.15202(17)
C9 C -0.3591(3) 0.7627(3) 0.28513(18)
C10 C -0.1881(3) 0.7160(3) 0.36186(18)
C11 C 0.0078(3) 0.6889(3) 0.30884(17)
C12 C 0.0231(2) 0.7093(2) 0.17557(15)
H1 H 0.434(2) 0.683(2) -0.117(2)
H2 H -0.066(3) 0.831(2) -0.345(2)
H3 H -0.288(2) 0.838(2) -0.173(2)
H4 H -0.459(2) 0.821(2) 0.097(2)
H5 H -0.501(3) 0.783(2) 0.319(2)
H6 H -0.207(3) 0.701(3) 0.451(2)
H7 H 0.128(3) 0.654(2) 0.359(2)
#END
