
#######################################################################
#
#                 Cambridge Crystallographic Data Centre
#                                CCDC
#
#######################################################################
#
# If this CIF has been generated from an entry in the Cambridge
# Structural Database, then it will include bibliographic, chemical,
# crystal, experimental, refinement or atomic coordinate data resulting
# from the CCDC's data processing and validation procedures.
#
#######################################################################

data_CSD_CIF_ZILKIR
_audit_creation_date 2018-08-23
_audit_creation_method CSD-ConQuest-V1
_database_code_CSD ZILKIR
_database_code_depnum_ccdc_archive 'CCDC 1839980'
_chemical_formula_sum 'C22 H22 N2 O6'
_chemical_formula_moiety
;
C22 H22 N2 O6
;
_journal_coden_Cambridge 35
_journal_volume 83
_journal_year 2018
_journal_page_first 8984
_journal_name_full 'J.Org.Chem. '
loop_
_publ_author_name
"Xiaoxia Wang"
"Jianyong Li"
"Ting Yuan"
"Bingxin You"
"Guanqun Xie"
"Xin Lv"
_chemical_name_systematic
;
2-methyl-4-phenylhexahydropentalen-3a(1H)-yl 3,5-dinitrobenzoate
;
_cell_volume   2075.976
_exptl_crystal_colour 'colorless'
_exptl_crystal_density_diffrn 1.313
_exptl_crystal_description 'block'
_diffrn_ambient_temperature 296
#These two values have been output from a single CSD field.
_refine_ls_R_factor_gt 0.0641
_refine_ls_wR_factor_gt 0.0641
_symmetry_cell_setting monoclinic
_symmetry_space_group_name_H-M 'P 21/c'
_symmetry_Int_Tables_number 14
loop_
_symmetry_equiv_pos_site_id
_symmetry_equiv_pos_as_xyz
1 x,y,z
2 -x,1/2+y,1/2-z
3 -x,-y,-z
4 x,-1/2-y,-1/2+z
_cell_length_a 19.817(3)
_cell_length_b 8.0545(10)
_cell_length_c 13.0062(16)
_cell_angle_alpha 90
_cell_angle_beta 90.266(10)
_cell_angle_gamma 90
_cell_formula_units_Z 4
loop_
_atom_type_symbol
_atom_type_radius_bond
C 0.68
H 0.23
N 0.68
O 0.68
loop_
_atom_site_label
_atom_site_type_symbol
_atom_site_fract_x
_atom_site_fract_y
_atom_site_fract_z
C1 C 0.36114(15) 0.4933(3) 0.7963(2)
H1 H 0.35930 0.43540 0.73450
C2 C 0.42271(15) 0.5290(3) 0.8415(2)
C3 C 0.42757(17) 0.6146(4) 0.9329(2)
H2 H 0.46930 0.64170 0.96150
C4 C 0.36835(18) 0.6581(4) 0.9802(2)
C5 C 0.30649(17) 0.6254(4) 0.9383(2)
H3 H 0.26750 0.65710 0.97280
C6 C 0.30179(16) 0.5446(4) 0.8439(2)
C7 C 0.23378(18) 0.5274(4) 0.7976(2)
C8 C 0.17365(15) 0.4304(4) 0.6454(2)
C9 C 0.14874(16) 0.5973(4) 0.6082(3)
H4 H 0.16900 0.62620 0.54280
H5 H 0.15900 0.68370 0.65780
C10 C 0.07280(19) 0.5736(5) 0.5969(4)
H6 H 0.06500 0.51010 0.53370
C11 C 0.0330(2) 0.7358(6) 0.5876(4)
H7 H -0.01420 0.71140 0.58100
H8 H 0.04780 0.79560 0.52790
H9 H 0.04050 0.80230 0.64780
C12 C 0.05482(19) 0.4625(6) 0.6861(4)
H10 H 0.01430 0.39950 0.67040
H11 H 0.04670 0.52840 0.74730
C13 C 0.11418(18) 0.3460(5) 0.7035(3)
H12 H 0.12470 0.33880 0.77710
C14 C 0.1081(2) 0.1704(5) 0.6574(4)
H13 H 0.07150 0.16560 0.60770
H14 H 0.09970 0.08920 0.71090
C15 C 0.1754(2) 0.1370(5) 0.6056(3)
H15 H 0.20960 0.10390 0.65510
H16 H 0.17130 0.05230 0.55300
C16 C 0.19112(17) 0.3073(4) 0.5589(2)
H17 H 0.15700 0.32490 0.50520
C17 C 0.25833(17) 0.3320(4) 0.5070(2)
C18 C 0.2613(2) 0.4175(4) 0.4143(3)
H18 H 0.22180 0.45430 0.38300
C19 C 0.3235(3) 0.4481(5) 0.3682(3)
H19 H 0.32520 0.50470 0.30590
C20 C 0.3818(2) 0.3959(5) 0.4134(3)
H20 H 0.42310 0.41860 0.38280
C21 C 0.37955(19) 0.3103(5) 0.5036(3)
H21 H 0.41940 0.27370 0.53410
C22 C 0.31863(18) 0.2778(4) 0.5499(2)
H22 H 0.31790 0.21820 0.61110
N1 N 0.48479(15) 0.4752(3) 0.7911(2)
N2 N 0.37236(19) 0.7451(4) 1.0799(2)
O1 O 0.48008(12) 0.3839(3) 0.71629(18)
O2 O 0.53866(12) 0.5238(3) 0.82663(18)
O3 O 0.42624(15) 0.8077(3) 1.10462(18)
O4 O 0.32128(16) 0.7453(4) 1.1319(2)
O5 O 0.23525(10) 0.4429(3) 0.70872(15)
O6 O 0.18416(13) 0.5877(4) 0.83506(18)
#END
