
#######################################################################
#
#                 Cambridge Crystallographic Data Centre
#                                CCDC
#
#######################################################################
#
# If this CIF has been generated from an entry in the Cambridge
# Structural Database, then it will include bibliographic, chemical,
# crystal, experimental, refinement or atomic coordinate data resulting
# from the CCDC's data processing and validation procedures.
#
#######################################################################

data_CSD_CIF_ZILNAJ
_audit_creation_date 1996-01-30
_audit_creation_method CSD-ConQuest-V1
_database_code_CSD ZILNAJ
_database_code_depnum_ccdc_archive 'CCDC 131831'
_chemical_formula_sum 'C26 H35 N1 O9'
_chemical_formula_moiety
;
C26 H35 N1 O9
;
_journal_coeditor_code "IUCr CR0493"
_journal_coden_Cambridge 622
_journal_volume 51
_journal_year 1995
_journal_page_first 1063
_journal_name_full 'Acta Crystallogr.,Sect.B:Struct.Sci. '
loop_
_publ_author_name
"J.M.Karle"
"A.J.Lin"
_chemical_name_systematic
;
Ethyl 3(S)-(p-nitrophenyl)-3-(10\b-dihydroartemisininoxy)propionate
;
_cell_volume   2646.529
_exptl_crystal_colour 'colorless'
_exptl_crystal_density_diffrn 1.269
_exptl_special_details
;
ethyl ester form of synthetic analogue of antimalarial agent

;
_diffrn_ambient_temperature ?
_diffrn_special_details
;
The study was carried out at room temperature,in the range 283-303K

;
#These two values have been output from a single CSD field.
_refine_ls_R_factor_gt 0.057
_refine_ls_wR_factor_gt 0.057
_symmetry_cell_setting monoclinic
_symmetry_space_group_name_H-M 'P 21'
_symmetry_Int_Tables_number 4
loop_
_symmetry_equiv_pos_site_id
_symmetry_equiv_pos_as_xyz
1 x,y,z
2 -x,1/2+y,-z
_cell_length_a 12.392(2)
_cell_length_b 10.639(2)
_cell_length_c 20.081(2)
_cell_angle_alpha 90
_cell_angle_beta 91.51(2)
_cell_angle_gamma 90
_cell_formula_units_Z 4
loop_
_atom_type_symbol
_atom_type_radius_bond
C 0.68
H 0.23
N 0.68
O 0.68
loop_
_atom_site_label
_atom_site_type_symbol
_atom_site_fract_x
_atom_site_fract_y
_atom_site_fract_z
O1 O 0.5684(4) 0.11660 0.9728(2)
O2 O 0.5758(4) 0.2491(7) 0.9515(3)
C1 C 0.5289(7) 0.2592(12) 0.8875(5)
C2 C 0.4188(8) 0.1974(12) 0.8807(5)
C3 C 0.4179(7) 0.0638(12) 0.8549(4)
C4 C 0.4900(7) -0.0279(10) 0.8944(4)
C5 C 0.5040(8) -0.1507(12) 0.8553(4)
C6 C 0.5754(8) -0.2407(11) 0.8924(4)
C7 C 0.6838(8) -0.1838(11) 0.9113(4)
C8 C 0.6727(8) -0.0677(11) 0.9536(4)
C9 C 0.7761(7) -0.0034(11) 0.9779(4)
C10 C 0.8311(8) 0.0658(11) 0.9221(4)
O3 O 0.7597(5) 0.1481(8) 0.8877(3)
C11 C 0.6581(7) 0.1021(11) 0.8652(4)
C12 C 0.5962(7) 0.0302(10) 0.9199(3)
O4 O 0.5995(4) 0.2060(8) 0.8397(2)
C13 C 0.5261(8) 0.4001(11) 0.8741(5)
C14 C 0.3955(8) -0.2122(12) 0.8377(5)
C15 C 0.8542(9) -0.0888(13) 1.0170(5)
O5 O 0.8767(4) -0.0257(8) 0.8786(2)
C16 C 0.9610(6) 0.0197(11) 0.8368(4)
C17 C 0.9179(6) 0.0614(11) 0.7698(4)
C18 C 0.8380(7) -0.0106(10) 0.7359(4)
C19 C 0.8073(6) 0.0174(11) 0.6720(4)
C20 C 0.8545(8) 0.1201(12) 0.6418(4)
C21 C 0.9283(7) 0.1936(11) 0.6740(5)
C22 C 0.9594(7) 0.1651(12) 0.7374(5)
N1 N 0.8212(7) 0.1484(12) 0.5718(4)
O6 O 0.8563(7) 0.2414(10) 0.5468(3)
O7 O 0.7654(7) 0.0749(12) 0.5423(3)
C23 C 1.0351(7) -0.0930(12) 0.8276(4)
C24 C 1.0844(11) -0.1431(18) 0.8926(7)
O8 O 1.0784(7) -0.2545(12) 0.9070(4)
O9 O 1.1265(6) -0.0604(11) 0.9282(4)
C25 C 1.1751(12) -0.1018(16) 0.9920(7)
C26 C 1.1919(15) -0.0134(18) 1.0336(7)
H1 H 0.37520 0.24740 0.85060
H2 H 0.38730 0.19720 0.92380
H3 H 0.34510 0.03320 0.85580
H4 H 0.44150 0.06500 0.80970
H5 H 0.45360 -0.04850 0.93460
H6 H 0.53790 -0.12900 0.81440
H7 H 0.54030 -0.26590 0.93240
H8 H 0.58680 -0.31300 0.86490
H9 H 0.72030 -0.16170 0.87130
H10 H 0.72580 -0.24490 0.93570
H11 H 0.64220 -0.10090 0.99340
H12 H 0.75350 0.05810 1.00960
H13 H 0.88750 0.11820 0.94050
H14 H 0.66770 0.04020 0.83110
H15 H 0.49460 0.41530 0.83070
H16 H 0.59820 0.43290 0.87620
H17 H 0.48360 0.44080 0.90710
H18 H 0.35040 -0.15330 0.81380
H19 H 0.36100 -0.23710 0.87790
H20 H 0.40700 -0.28480 0.81040
H21 H 0.81630 -0.13070 1.05170
H22 H 0.91170 -0.03920 1.03630
H23 H 0.88370 -0.15020 0.98750
H24 H 0.99650 0.09110 0.85680
H25 H 0.80500 -0.07990 0.75820
H26 H 0.75440 -0.03280 0.64840
H27 H 0.95830 0.26530 0.65210
H28 H 1.01120 0.21760 0.76040
H29 H 1.09260 -0.06840 0.79930
H30 H 0.99400 -0.15920 0.80660
H31 H 1.24290 -0.14160 0.98330
H32 H 1.12740 -0.16160 1.01160
H33 H 1.22350 -0.04730 1.07390
H34 H 1.12480 0.02690 1.04330
H35 H 1.24030 0.04690 1.01500
O10 O 0.4494(4) 0.1900(9) 0.2864(3)
O11 O 0.4539(5) 0.3181(9) 0.3143(3)
C27 C 0.4954(8) 0.3109(13) 0.3797(6)
C28 C 0.5982(7) 0.2309(13) 0.3864(5)
C29 C 0.5772(8) 0.0939(13) 0.4052(5)
C30 C 0.4986(7) 0.0199(12) 0.3585(4)
C31 C 0.4668(8) -0.1024(12) 0.3907(5)
C32 C 0.3937(7) -0.1764(11) 0.3414(5)
C33 C 0.2936(7) -0.1009(11) 0.3217(5)
C34 C 0.3247(7) 0.0241(11) 0.2904(4)
C35 C 0.2280(7) 0.1057(12) 0.2685(4)
C36 C 0.1802(7) 0.1724(11) 0.3266(4)
O12 O 0.2560(5) 0.2406(9) 0.3644(3)
C37 C 0.3474(7) 0.1709(11) 0.3889(4)
C38 C 0.4040(6) 0.1013(11) 0.3328(4)
O13 O 0.4133(4) 0.2593(8) 0.4221(3)
C39 C 0.5109(9) 0.4436(13) 0.4011(6)
C40 C 0.5652(8) -0.1816(14) 0.4113(5)
C41 C 0.1432(8) 0.0381(14) 0.2263(4)
O14 O 0.1214(4) 0.0862(8) 0.3661(2)
C42 C 0.0528(6) 0.1473(11) 0.4137(4)
C43 C 0.0998(6) 0.1328(12) 0.4838(4)
C44 C 0.1325(6) 0.2362(11) 0.5201(5)
C45 C 0.1702(7) 0.2264(13) 0.5845(5)
C46 C 0.1786(6) 0.1083(13) 0.6122(4)
C47 C 0.1496(7) 0.0024(12) 0.5777(5)
C48 C 0.1093(7) 0.0159(12) 0.5140(5)
N2 N 0.2195(7) 0.0953(15) 0.6816(4)
O15 O 0.2363(7) 0.1904(12) 0.7138(4)
O16 O 0.2332(7) -0.0095(13) 0.7027(4)
C49 C -0.0565(6) 0.0853(12) 0.4048(4)
C50 C -0.1053(9) 0.1188(18) 0.3369(5)
O17 O -0.0968(7) 0.2205(12) 0.3110(4)
O18 O -0.1571(6) 0.0244(11) 0.3093(3)
C51 C -0.2104(14) 0.0465(19) 0.2446(7)
C52 C -0.1999(15) -0.0213(17) 0.2003(6)
H36 H 0.64450 0.26760 0.42010
H37 H 0.63380 0.23220 0.34450
H38 H 0.64530 0.05070 0.40590
H39 H 0.54810 0.09320 0.44900
H40 H 0.53520 -0.00280 0.31870
H41 H 0.42890 -0.08360 0.43060
H42 H 0.37200 -0.25350 0.36190
H43 H 0.43350 -0.19490 0.30210
H44 H 0.25060 -0.14830 0.29020
H45 H 0.25250 -0.08500 0.36070
H46 H 0.36080 -0.00130 0.25090
H47 H 0.25690 0.16790 0.23930
H48 H 0.13080 0.23420 0.30890
H49 H 0.32740 0.10490 0.41870
H50 H 0.53950 0.44550 0.44590
H51 H 0.44280 0.48670 0.39900
H52 H 0.56040 0.48440 0.37210
H53 H 0.61020 -0.13490 0.44200
H54 H 0.60540 -0.20210 0.37250
H55 H 0.54170 -0.25760 0.43220
H56 H 0.17710 -0.00310 0.18990
H57 H 0.09130 0.09780 0.20930
H58 H 0.10750 -0.02310 0.25310
H59 H 0.04700 0.23630 0.40650
H60 H 0.12860 0.31770 0.49970
H61 H 0.19040 0.29990 0.60960
H62 H 0.15730 -0.07930 0.59750
H63 H 0.08700 -0.05760 0.48950
H64 H -0.04840 -0.00430 0.40810
H65 H -0.10330 0.11420 0.43900
H66 H -0.18720 0.12780 0.23010
H67 H -0.28640 0.04860 0.25270
H68 H -0.24140 0.00870 0.16250
H69 H -0.22420 -0.10390 0.21200
H70 H -0.12500 -0.02460 0.18940
#END
