
#######################################################################
#
#                 Cambridge Crystallographic Data Centre
#                                CCDC
#
#######################################################################
#
# If this CIF has been generated from an entry in the Cambridge
# Structural Database, then it will include bibliographic, chemical,
# crystal, experimental, refinement or atomic coordinate data resulting
# from the CCDC's data processing and validation procedures.
#
#######################################################################

data_CSD_CIF_ZILWAV
_audit_creation_date 2018-08-23
_audit_creation_method CSD-ConQuest-V1
_database_code_CSD ZILWAV
_database_code_depnum_ccdc_archive 'CCDC 1832024'
_chemical_formula_sum 'C17 H15 N1 O6'
_chemical_formula_moiety
;
C17 H15 N1 O6
;
_journal_coden_Cambridge 35
_journal_volume 83
_journal_year 2018
_journal_page_first 9471
_journal_name_full 'J.Org.Chem. '
loop_
_publ_author_name
"L.Satham"
"I.N.N.Namboothiri"
_chemical_name_systematic
;
5-ethyl 2-methyl 2'-nitro[1,1'-biphenyl]-2,5-dicarboxylate
;
_cell_volume   3092.284
_exptl_crystal_colour 'colorless'
_exptl_crystal_density_diffrn 1.415
_exptl_crystal_description 'needle'
_diffrn_ambient_temperature 150
#These two values have been output from a single CSD field.
_refine_ls_R_factor_gt 0.0537
_refine_ls_wR_factor_gt 0.0537
_symmetry_cell_setting triclinic
_symmetry_space_group_name_H-M 'P -1'
_symmetry_Int_Tables_number 2
loop_
_symmetry_equiv_pos_site_id
_symmetry_equiv_pos_as_xyz
1 x,y,z
2 -x,-y,-z
_cell_length_a 9.6495(3)
_cell_length_b 15.4042(4)
_cell_length_c 22.5104(6)
_cell_angle_alpha 107.095(2)
_cell_angle_beta 99.206(2)
_cell_angle_gamma 98.222(2)
_cell_formula_units_Z 8
loop_
_atom_type_symbol
_atom_type_radius_bond
C 0.68
H 0.23
N 0.68
O 0.68
loop_
_atom_site_label
_atom_site_type_symbol
_atom_site_fract_x
_atom_site_fract_y
_atom_site_fract_z
O1 O 0.68610(12) -0.05161(8) 0.53587(5)
O2 O 0.96624(11) 0.12805(8) 0.35234(5)
O3 O 1.09561(11) 0.12810(9) 0.65887(5)
O4 O 0.59682(14) -0.06189(8) 0.61627(6)
O5 O 0.86655(12) 0.10722(9) 0.66509(5)
O6 O 0.73129(12) 0.12005(10) 0.34747(5)
N1 N 0.62705(13) -0.02037(9) 0.57967(6)
C1 C 0.46904(16) 0.08406(11) 0.61497(7)
H1 H 0.42010 0.03790 0.62720
C2 C 0.58662(15) 0.06980(11) 0.58801(7)
C3 C 0.66471(15) 0.13648(10) 0.56930(7)
C4 C 0.61659(16) 0.21986(11) 0.57855(7)
H2 H 0.66480 0.26620 0.56630
C5 C 0.79068(15) 0.12675(10) 0.53868(7)
C6 C 0.77135(16) 0.12946(10) 0.47677(7)
H3 H 0.68200 0.13410 0.45670
C7 C 1.03851(16) 0.11885(10) 0.53571(7)
H4 H 1.12890 0.11580 0.55580
C8 C 0.42531(16) 0.16730(12) 0.62345(7)
H5 H 0.34620 0.17760 0.64130
C9 C 1.01742(16) 0.12055(10) 0.47383(7)
H6 H 1.09240 0.11850 0.45250
C10 C 1.13123(17) 0.12639(12) 0.72355(7)
H7 H 1.11500 0.18190 0.75230
H8 H 1.23020 0.12270 0.73380
H9 H 1.07210 0.07340 0.72730
C11 C 0.49918(16) 0.23547(11) 0.60543(7)
H10 H 0.47010 0.29190 0.61130
C12 C 0.92816(16) 0.12165(10) 0.56879(7)
C13 C 0.94733(17) 0.12891(12) 0.28703(7)
H11 H 0.91360 0.18400 0.28370
H12 H 0.87790 0.07480 0.25880
C14 C 0.88175(16) 0.12538(10) 0.44406(7)
C15 C 1.09053(18) 0.12825(13) 0.26988(8)
H13 H 1.15930 0.18030 0.29960
H14 H 1.08420 0.13220 0.22780
H15 H 1.12020 0.07180 0.27120
C16 C 0.85044(17) 0.12468(11) 0.37677(7)
C17 C 0.95595(16) 0.11799(11) 0.63522(7)
O7 O 0.18807(12) 0.69637(8) 0.03683(5)
O8 O 0.36808(12) 0.88235(9) 0.16833(5)
O9 O 0.46242(11) 0.87839(8) -0.14701(5)
O10 O 0.22744(12) 0.86976(10) -0.15169(5)
O11 O 0.13187(16) 0.69528(9) 0.12572(7)
O12 O 0.58773(13) 0.86413(11) 0.15941(6)
N2 N 0.14134(14) 0.73059(9) 0.08400(6)
C18 C -0.02445(16) 0.82864(11) 0.11910(7)
H16 H -0.06740 0.78240 0.13300
C19 C 0.09274(16) 0.81783(11) 0.09102(7)
C20 C 0.16344(15) 0.88528(11) 0.07016(7)
C21 C 0.26986(16) 0.87933(10) -0.02214(7)
H17 H 0.17970 0.88260 -0.04230
C22 C 0.10717(16) 0.96548(11) 0.07779(7)
H18 H 0.15000 1.01220 0.06430
C23 C 0.51520(16) 0.87106(11) -0.02601(7)
H19 H 0.58960 0.86900 -0.04770
C24 C 0.53825(16) 0.86957(11) 0.03597(7)
H20 H 0.62870 0.86590 0.05550
C25 C -0.07603(16) 0.90935(12) 0.12594(7)
H21 H -0.15440 0.91800 0.14470
C26 C 0.29076(15) 0.87822(10) 0.04026(7)
C27 C -0.01121(17) 0.97728(12) 0.10499(7)
H22 H -0.04700 1.03120 0.10910
C28 C 0.42819(16) 0.87352(10) 0.06977(7)
C29 C 0.38015(16) 0.87561(11) -0.05524(7)
C30 C 0.44280(17) 0.87894(12) -0.21247(7)
H23 H 0.40870 0.93390 -0.21590
H24 H 0.37350 0.82460 -0.24060
C31 C 0.34609(16) 0.87419(11) -0.12260(7)
C32 C 0.40085(18) 0.88219(13) 0.23360(7)
H25 H 0.43380 0.82660 0.23450
H26 H 0.31610 0.88470 0.25080
H27 H 0.47420 0.93520 0.25860
C33 C 0.58638(18) 0.87846(13) -0.22975(8)
H28 H 0.58030 0.88370 -0.27150
H29 H 0.61540 0.82160 -0.22930
H30 H 0.65550 0.92990 -0.19950
C34 C 0.47125(16) 0.87198(11) 0.13646(7)
O13 O 0.31154(12) 0.55333(8) 0.46350(6)
O14 O 0.03646(11) 0.36741(8) 0.64582(5)
O15 O 0.27372(12) 0.38511(9) 0.65246(5)
O16 O 0.13343(12) 0.36703(9) 0.33085(5)
O17 O 0.36599(16) 0.55487(9) 0.37442(7)
O18 O -0.08602(13) 0.38604(11) 0.34031(6)
N3 N 0.35763(14) 0.51917(9) 0.41604(6)
C35 C 0.52459(16) 0.42188(11) 0.38082(7)
H31 H 0.56640 0.46810 0.36660
C36 C 0.33832(15) 0.36494(10) 0.42972(7)
C37 C 0.40789(15) 0.43244(10) 0.40909(7)
C38 C 0.21058(15) 0.37159(10) 0.45959(7)
C39 C 0.23095(16) 0.37005(10) 0.52180(7)
H32 H 0.32100 0.36650 0.54190
C40 C 0.39520(16) 0.28491(11) 0.42203(7)
H33 H 0.35290 0.23810 0.43560
C41 C 0.57787(16) 0.34198(12) 0.37406(7)
H34 H 0.65700 0.33420 0.35570
C42 C 0.07242(16) 0.37583(10) 0.42969(7)
C43 C -0.03698(16) 0.37880(11) 0.46328(7)
H35 H -0.12770 0.38160 0.44340
C44 C -0.01516(16) 0.37778(11) 0.52517(7)
H36 H -0.08980 0.37980 0.54670
C45 C 0.12124(16) 0.37362(10) 0.55476(7)
C46 C 0.05779(17) 0.37144(12) 0.71207(7)
H37 H 0.11260 0.43180 0.73940
H38 H 0.10990 0.32450 0.71870
C47 C 0.15321(16) 0.37593(11) 0.62226(7)
C48 C 0.51287(17) 0.27337(11) 0.39470(7)
H39 H 0.54840 0.21930 0.39020
C49 C -0.08686(18) 0.35471(12) 0.72717(8)
H40 H -0.14030 0.29500 0.69970
H41 H -0.13700 0.40190 0.72090
H42 H -0.07630 0.35640 0.77070
C50 C 0.10088(18) 0.36676(13) 0.26574(7)
H43 H 0.02840 0.31330 0.24070
H44 H 0.18590 0.36490 0.24870
H45 H 0.06670 0.42190 0.26460
C51 C 0.03030(16) 0.37700(11) 0.36291(8)
O19 O 0.18594(12) 0.19867(8) 0.03545(5)
O20 O 0.22929(12) 0.36428(9) -0.15360(5)
O21 O 0.46669(11) 0.38135(8) -0.14643(5)
O22 O 0.59461(11) 0.37868(9) 0.15933(5)
O23 O 0.09789(14) 0.18827(9) 0.11621(6)
O24 O 0.36592(12) 0.35895(10) 0.16518(5)
N4 N 0.12693(13) 0.22909(9) 0.07932(6)
C52 C -0.03198(16) 0.33273(11) 0.11483(7)
H46 H -0.08090 0.28620 0.12680
C53 C 0.08622(16) 0.31943(11) 0.08782(7)
C54 C 0.16379(15) 0.38665(11) 0.06920(7)
C55 C 0.51609(16) 0.37124(11) -0.02590(7)
H47 H 0.59120 0.36970 -0.04720
C56 C 0.11513(16) 0.46987(11) 0.07881(7)
H48 H 0.16320 0.51660 0.06690
C57 C 0.27033(16) 0.37866(10) -0.02330(7)
H49 H 0.18050 0.38210 -0.04370
C58 C 0.53813(16) 0.36966(11) 0.03609(7)
H50 H 0.62860 0.36670 0.05620
C59 C -0.07552(16) 0.41633(12) 0.12361(7)
H51 H -0.15430 0.42650 0.14170
C60 C 0.63027(17) 0.37624(12) 0.22368(7)
H52 H 0.57220 0.32250 0.22700
H53 H 0.61260 0.43110 0.25270
H54 H 0.72960 0.37350 0.23410
C61 C 0.29001(15) 0.37732(10) 0.03888(7)
C62 C -0.00261(17) 0.48481(11) 0.10560(7)
H55 H -0.03240 0.54100 0.11140
C63 C 0.42674(16) 0.37239(10) 0.06893(7)
C64 C 0.38135(16) 0.37504(11) -0.05592(7)
C65 C 0.44611(17) 0.37788(12) -0.21272(7)
H56 H 0.39450 0.42500 -0.21930
H57 H 0.39140 0.31770 -0.24030
C66 C 0.34867(16) 0.37293(11) -0.12346(7)
C67 C 0.59159(17) 0.39471(13) -0.22722(8)
H58 H 0.58200 0.39370 -0.27050
H59 H 0.64100 0.34710 -0.22120
H60 H 0.64510 0.45410 -0.19930
C68 C 0.45550(16) 0.36884(11) 0.13544(7)
#END
