
#######################################################################
#
#                 Cambridge Crystallographic Data Centre
#                                CCDC
#
#######################################################################
#
# If this CIF has been generated from an entry in the Cambridge
# Structural Database, then it will include bibliographic, chemical,
# crystal, experimental, refinement or atomic coordinate data resulting
# from the CCDC's data processing and validation procedures.
#
#######################################################################

data_CSD_CIF_ZIMCUW
_audit_creation_date 2018-08-23
_audit_creation_method CSD-ConQuest-V1
_database_code_CSD ZIMCUW
_database_code_depnum_ccdc_archive 'CCDC 1817102'
_chemical_formula_sum 'C19 H21 N1 O4'
_chemical_formula_moiety
;
C19 H21 N1 O4
;
_journal_coden_Cambridge 34
_journal_volume 55
_journal_year 2018
_journal_page_first 1917
_journal_name_full 'J.Heterocycl.Chem. '
loop_
_publ_author_name
"Y.Adiloglu"
"E.Sahin"
"A.Tutar"
"A.Menzek"
_chemical_name_systematic
;
ethyl 
3-(4-methoxyphenyl)-4,4a,5,5a,6,6a-hexahydro-3aH-4,6-methanocyclopropa[f][1,2]
benzoxazole-5-carboxylate
;
_cell_volume    817.361
_exptl_crystal_colour 'colorless'
_exptl_crystal_density_diffrn 1.33
_exptl_crystal_description 'prism'
_diffrn_ambient_temperature 293
#These two values have been output from a single CSD field.
_refine_ls_R_factor_gt 0.0881
_refine_ls_wR_factor_gt 0.0881
loop_
_citation_database_id_CSD
_citation_special_details
ZIMDUX "is a stereoisomer of this entry"
_symmetry_cell_setting triclinic
_symmetry_space_group_name_H-M 'P -1'
_symmetry_Int_Tables_number 2
loop_
_symmetry_equiv_pos_site_id
_symmetry_equiv_pos_as_xyz
1 x,y,z
2 -x,-y,-z
_cell_length_a 6.3385(10)
_cell_length_b 10.2525(18)
_cell_length_c 13.588(2)
_cell_angle_alpha 68.164(7)
_cell_angle_beta 85.758(6)
_cell_angle_gamma 87.771(7)
_cell_formula_units_Z 2
loop_
_atom_type_symbol
_atom_type_radius_bond
C 0.68
H 0.23
N 0.68
O 0.68
loop_
_atom_site_label
_atom_site_type_symbol
_atom_site_fract_x
_atom_site_fract_y
_atom_site_fract_z
O1 O 0.2403(4) 0.0903(2) 0.59891(18)
O2 O 0.4480(4) 0.9104(2) 0.92283(19)
O3 O 0.9625(3) 0.2582(2) 0.84862(19)
O4 O 0.3522(4) 0.2219(3) 0.43106(17)
N1 N 0.9226(4) 0.3825(3) 0.8702(2)
C1 C 0.5031(4) 0.7927(3) 0.9018(2)
C2 C 0.7335(4) 0.4269(3) 0.8480(2)
C3 C 0.6530(4) 0.5527(3) 0.8660(2)
C4 C 0.3740(4) 0.7238(3) 0.8600(2)
H1 H 0.23760 0.75730 0.84320
C5 C 0.6107(4) 0.3393(3) 0.8046(2)
H2 H 0.47970 0.30320 0.84770
C6 C 0.4488(5) 0.2965(3) 0.6640(2)
H3 H 0.30780 0.27170 0.69970
C7 C 0.6078(5) 0.1810(3) 0.6708(2)
H4 H 0.56670 0.08330 0.71080
C8 C 0.3522(5) 0.1810(3) 0.5370(2)
C9 C 0.5747(4) 0.4071(3) 0.6841(2)
H5 H 0.51350 0.50220 0.65970
C10 C 0.5095(5) 0.2607(3) 0.5662(2)
H6 H 0.59850 0.32710 0.50880
C11 C 0.4492(4) 0.6040(3) 0.8431(2)
H7 H 0.36090 0.55720 0.81590
C12 C 0.7802(4) 0.6240(3) 0.9089(2)
H8 H 0.91700 0.59140 0.92550
C13 C 0.7069(5) 0.7410(3) 0.9268(2)
H9 H 0.79370 0.78640 0.95590
C14 C 0.7741(5) 0.2208(3) 0.8099(2)
H10 H 0.72150 0.12800 0.85610
C15 C 0.7976(5) 0.3928(3) 0.6366(2)
H11 H 0.80340 0.42090 0.56000
H12 H 0.90290 0.44270 0.65680
C16 C 0.8129(5) 0.2330(3) 0.6945(3)
H13 H 0.94310 0.18820 0.67820
C17 C 0.2416(5) 0.9685(4) 0.8988(3)
H14 H 0.22310 1.05000 0.91740
H15 H 0.13760 0.89990 0.93860
H16 H 0.22500 0.99470 0.82420
C18 C 0.2032(7) 0.1522(4) 0.3904(3)
H17 H 0.19000 0.05460 0.43760
H18 H 0.25620 0.15470 0.32090
C19 C -0.0084(7) 0.2229(5) 0.3822(4)
H19 H -0.10420 0.17600 0.35520
H20 H 0.00460 0.31930 0.33500
H21 H -0.06180 0.21890 0.45130
#END
