
#######################################################################
#
#                 Cambridge Crystallographic Data Centre
#                                CCDC
#
#######################################################################
#
# If this CIF has been generated from an entry in the Cambridge
# Structural Database, then it will include bibliographic, chemical,
# crystal, experimental, refinement or atomic coordinate data resulting
# from the CCDC's data processing and validation procedures.
#
#######################################################################

data_CSD_CIF_ZIMTIB
_audit_creation_date 2018-08-23
_audit_creation_method CSD-ConQuest-V1
_database_code_CSD ZIMTIB
_database_code_depnum_ccdc_archive 'CCDC 1559129'
_chemical_formula_sum 'C88 H104 N8 O24'
_chemical_formula_moiety
;
C88 H104 N8 O24
;
_journal_coden_Cambridge 643
_journal_volume 233
_journal_year 2018
_journal_page_first 565
_journal_name_full 'Z.Krist.Cryst.Mater. '
loop_
_publ_author_name
"F.T.Martins"
"A.F.da S.Maia"
"F.M.dos Santos"
"M.E.Alvarenga"
"L.Ribeiro"
"L.da S.Neto"
"Angelo de Fatima"
_chemical_name_systematic
;
5,11,17,23,29,35,41,47-octanitro-49,50,51,52,53,54,55,56-octa-n-butoxycalix[8]
arene
;
_cell_volume   2157.747
_exptl_crystal_colour 'yellow'
_exptl_crystal_density_diffrn 1.276
_exptl_crystal_description 'block'
_diffrn_ambient_temperature 296
#These two values have been output from a single CSD field.
_refine_ls_R_factor_gt 0.0706
_refine_ls_wR_factor_gt 0.0706
_symmetry_cell_setting triclinic
_symmetry_space_group_name_H-M 'P -1'
_symmetry_Int_Tables_number 2
loop_
_symmetry_equiv_pos_site_id
_symmetry_equiv_pos_as_xyz
1 x,y,z
2 -x,-y,-z
_cell_length_a 9.4727(3)
_cell_length_b 13.2969(4)
_cell_length_c 18.7268(6)
_cell_angle_alpha 100.392(1)
_cell_angle_beta 101.263(1)
_cell_angle_gamma 105.721(1)
_cell_formula_units_Z 1
loop_
_atom_type_symbol
_atom_type_radius_bond
C 0.68
H 0.23
N 0.68
O 0.68
loop_
_atom_site_label
_atom_site_type_symbol
_atom_site_fract_x
_atom_site_fract_y
_atom_site_fract_z
O1 O -0.0465(2) 0.14583(17) 0.34306(11)
O2 O -0.0085(2) -0.21016(14) 0.26608(10)
C1 C -0.3816(6) -0.3494(6) 0.3670(4)
H1 H -0.43560 -0.38310 0.39920
H2 H -0.39610 -0.28050 0.36750
H3 H -0.41950 -0.39420 0.31670
O3 O -0.04808(19) 0.30498(14) 0.23180(11)
O4 O 0.6311(3) 0.4332(2) 0.45304(17)
O5 O 0.6374(3) 0.4313(2) 0.09730(18)
O6 O -0.1545(3) 0.01845(19) 0.01125(13)
O7 O 0.0281(3) 0.14805(17) 0.09049(14)
O8 O -0.0485(2) 0.36156(16) -0.03157(11)
C2 C -0.2900(7) -0.0274(5) 0.4817(3)
H4 H -0.35230 -0.04000 0.51600
H5 H -0.28500 -0.09490 0.45550
H6 H -0.18970 0.01840 0.50910
C3 C -0.3558(5) 0.0248(4) 0.4273(2)
H7 H -0.36290 0.09190 0.45450
H8 H -0.45810 -0.02140 0.40090
C4 C -0.2686(4) 0.0481(3) 0.3714(2)
H9 H -0.32300 0.07840 0.33610
H10 H -0.26390 -0.01930 0.34340
C5 C -0.1091(4) 0.1245(3) 0.40439(19)
H11 H -0.11020 0.19090 0.43540
H12 H -0.04870 0.09210 0.43530
C6 C 0.1081(3) 0.1954(2) 0.36201(14)
C7 C 0.1672(3) 0.3074(2) 0.38538(14)
C8 C 0.0674(3) 0.3795(2) 0.38944(16)
H13 H -0.03830 0.33520 0.37580
H14 H 0.09140 0.42230 0.44060
C9 C 0.0908(3) 0.4535(2) 0.33729(15)
C10 C 0.0349(3) 0.41227(19) 0.25938(15)
C11 C 0.0654(3) 0.4760(2) 0.20886(15)
C12 C 0.0105(3) 0.4295(2) 0.12565(15)
H15 H -0.03390 0.47770 0.10310
H16 H -0.06920 0.36130 0.11580
C13 C 0.1321(3) 0.41080(19) 0.08729(14)
C14 C 0.0946(3) 0.37385(18) 0.00932(14)
C15 C 0.2013(3) 0.35674(19) -0.02912(15)
C16 C -0.1594(4) -0.3151(2) 0.11314(16)
H17 H -0.08450 -0.34570 0.13510
H18 H -0.24880 -0.34050 0.13110
C17 C -0.0963(3) -0.1929(2) 0.14114(15)
C18 C -0.0227(3) -0.1462(2) 0.21664(14)
C19 C 0.0462(3) -0.0347(2) 0.24444(15)
C20 C 0.1318(4) 0.0088(2) 0.32665(16)
H19 H 0.06310 -0.01520 0.35680
H20 H 0.21280 -0.02260 0.33610
C21 C 0.2000(3) 0.1301(2) 0.35295(14)
C22 C -0.1380(4) -0.2525(4) 0.2924(2)
H21 H -0.18660 -0.19740 0.30000
H22 H -0.20890 -0.31260 0.25280
C23 C -0.1160(6) -0.2866(6) 0.3563(3)
H23 H -0.04530 -0.22430 0.39420
H24 H -0.06060 -0.33730 0.34770
C24 C -0.2264(6) -0.3350(5) 0.3926(3)
H25 H -0.21780 -0.40570 0.39390
H26 H -0.19450 -0.29290 0.44430
C25 C -0.1656(4) 0.2621(3) -0.0426(3)
H27 H -0.13860 0.20420 -0.07030
H28 H -0.17160 0.24830 0.00600
C26 C -0.3056(6) 0.2608(6) -0.0808(5)
H29 H -0.29440 0.27720 -0.12810
H30 H -0.32710 0.32100 -0.05240
C27 C -0.2096(3) 0.2842(3) 0.2199(2)
H31 H -0.23940 0.33770 0.19700
H32 H -0.23550 0.28950 0.26780
C28 C -0.2921(5) 0.1754(4) 0.1705(3)
H33 H -0.28590 0.12330 0.20020
H34 H -0.23950 0.16280 0.13200
C29 C 0.3235(3) 0.3536(2) 0.40361(15)
H35 H 0.36710 0.42790 0.42130
C30 C 0.4141(3) 0.2893(2) 0.39556(15)
N1 N 0.5786(3) 0.3395(2) 0.41672(16)
O9 O 0.6571(3) 0.2854(2) 0.3982(2)
C31 C 0.3543(3) 0.1782(2) 0.36916(15)
H36 H 0.41780 0.13680 0.36250
C32 C 0.3497(3) 0.3793(2) 0.01194(17)
H37 H 0.42390 0.36990 -0.01220
C33 C 0.3857(3) 0.4157(2) 0.08870(17)
C34 C 0.2799(3) 0.4312(2) 0.12717(15)
H38 H 0.30780 0.45500 0.17930
C35 C 0.1734(3) 0.5616(2) 0.36434(17)
H39 H 0.21000 0.59180 0.41580
C36 C 0.2015(3) 0.6247(2) 0.31400(19)
C37 C 0.1504(3) 0.5845(2) 0.23832(18)
H40 H 0.17200 0.62920 0.20630
N2 N 0.2878(4) 0.7405(2) 0.3436(2)
O10 O 0.3284(4) 0.7917(2) 0.2996(2)
O11 O 0.3146(5) 0.7782(2) 0.4101(2)
N3 N 0.5441(3) 0.4421(2) 0.13088(19)
O12 O 0.5762(3) 0.4744(4) 0.1978(2)
C38 C -0.1087(3) -0.1252(2) 0.09337(15)
H41 H -0.16080 -0.15350 0.04300
C39 C -0.0426(3) -0.0154(2) 0.12186(15)
C40 C 0.0356(3) 0.0309(2) 0.19536(15)
H42 H 0.08090 0.10520 0.21210
N4 N -0.0580(3) 0.05551(19) 0.07062(14)
C41 C -0.4393(6) 0.1700(5) -0.0981(4)
H43 H -0.49210 0.17940 -0.05920
H44 H -0.40920 0.10610 -0.09670
C42 C -0.5434(10) 0.1516(9) -0.1697(5)
H45 H -0.62940 0.08920 -0.17650
H46 H -0.57680 0.21330 -0.17130
H47 H -0.49360 0.13980 -0.20890
C43 C -0.5408(12) 0.1640(9) 0.1869(6)
H48 H -0.64590 0.14980 0.16300
H49 H -0.53160 0.11380 0.21710
H50 H -0.49960 0.23620 0.21820
C44 C -0.4601(8) 0.1525(6) 0.1316(6)
H51 H -0.46960 0.20260 0.10060
H52 H -0.50170 0.07990 0.09950
O1A O 0.0465(2) -0.14583(17) -0.34306(11)
O2A O 0.0085(2) 0.21016(14) -0.26608(10)
C1A C 0.3816(6) 0.3494(6) -0.3670(4)
H1A H 0.43560 0.38310 -0.39920
H2A H 0.39610 0.28050 -0.36750
H3A H 0.41950 0.39420 -0.31670
O3A O 0.04808(19) -0.30498(14) -0.23180(11)
O4A O -0.6311(3) -0.4332(2) -0.45304(17)
O5A O -0.6374(3) -0.4313(2) -0.09730(18)
O6A O 0.1545(3) -0.01845(19) -0.01125(13)
O7A O -0.0281(3) -0.14805(17) -0.09049(14)
O8A O 0.0485(2) -0.36156(16) 0.03157(11)
C2A C 0.2900(7) 0.0274(5) -0.4817(3)
H4A H 0.35230 0.04000 -0.51600
H5A H 0.28500 0.09490 -0.45550
H6A H 0.18970 -0.01840 -0.50910
C3A C 0.3558(5) -0.0248(4) -0.4273(2)
H7A H 0.36290 -0.09190 -0.45450
H8A H 0.45810 0.02140 -0.40090
C4A C 0.2686(4) -0.0481(3) -0.3714(2)
H9A H 0.32300 -0.07840 -0.33610
H10A H 0.26390 0.01930 -0.34340
C5A C 0.1091(4) -0.1245(3) -0.40439(19)
H11A H 0.11020 -0.19090 -0.43540
H12A H 0.04870 -0.09210 -0.43530
C6A C -0.1081(3) -0.1954(2) -0.36201(14)
C7A C -0.1672(3) -0.3074(2) -0.38538(14)
C8A C -0.0674(3) -0.3795(2) -0.38944(16)
H13A H 0.03830 -0.33520 -0.37580
H14A H -0.09140 -0.42230 -0.44060
C9A C -0.0908(3) -0.4535(2) -0.33729(15)
C10A C -0.0349(3) -0.41227(19) -0.25938(15)
C11A C -0.0654(3) -0.4760(2) -0.20886(15)
C12A C -0.0105(3) -0.4295(2) -0.12565(15)
H15A H 0.03390 -0.47770 -0.10310
H16A H 0.06920 -0.36130 -0.11580
C13A C -0.1321(3) -0.41080(19) -0.08729(14)
C14A C -0.0946(3) -0.37385(18) -0.00932(14)
C15A C -0.2013(3) -0.35674(19) 0.02912(15)
C16A C 0.1594(4) 0.3151(2) -0.11314(16)
H17A H 0.08450 0.34570 -0.13510
H18A H 0.24880 0.34050 -0.13110
C17A C 0.0963(3) 0.1929(2) -0.14114(15)
C18A C 0.0227(3) 0.1462(2) -0.21664(14)
C19A C -0.0462(3) 0.0347(2) -0.24444(15)
C20A C -0.1318(4) -0.0088(2) -0.32665(16)
H19A H -0.06310 0.01520 -0.35680
H20A H -0.21280 0.02260 -0.33610
C21A C -0.2000(3) -0.1301(2) -0.35295(14)
C22A C 0.1380(4) 0.2525(4) -0.2924(2)
H21A H 0.18660 0.19740 -0.30000
H22A H 0.20890 0.31260 -0.25280
C23A C 0.1160(6) 0.2866(6) -0.3563(3)
H23A H 0.04530 0.22430 -0.39420
H24A H 0.06060 0.33730 -0.34770
C24A C 0.2264(6) 0.3350(5) -0.3926(3)
H25A H 0.21780 0.40570 -0.39390
H26A H 0.19450 0.29290 -0.44430
C25A C 0.1656(4) -0.2621(3) 0.0426(3)
H27A H 0.13860 -0.20420 0.07030
H28A H 0.17160 -0.24830 -0.00600
C26A C 0.3056(6) -0.2608(6) 0.0808(5)
H29A H 0.29440 -0.27720 0.12810
H30A H 0.32710 -0.32100 0.05240
C27A C 0.2096(3) -0.2842(3) -0.2199(2)
H31A H 0.23940 -0.33770 -0.19700
H32A H 0.23550 -0.28950 -0.26780
C28A C 0.2921(5) -0.1754(4) -0.1705(3)
H33A H 0.28590 -0.12330 -0.20020
H34A H 0.23950 -0.16280 -0.13200
C29A C -0.3235(3) -0.3536(2) -0.40361(15)
H35A H -0.36710 -0.42790 -0.42130
C30A C -0.4141(3) -0.2893(2) -0.39556(15)
N1A N -0.5786(3) -0.3395(2) -0.41672(16)
O9A O -0.6571(3) -0.2854(2) -0.3982(2)
C31A C -0.3543(3) -0.1782(2) -0.36916(15)
H36A H -0.41780 -0.13680 -0.36250
C32A C -0.3497(3) -0.3793(2) -0.01194(17)
H37A H -0.42390 -0.36990 0.01220
C33A C -0.3857(3) -0.4157(2) -0.08870(17)
C34A C -0.2799(3) -0.4312(2) -0.12717(15)
H38A H -0.30780 -0.45500 -0.17930
C35A C -0.1734(3) -0.5616(2) -0.36434(17)
H39A H -0.21000 -0.59180 -0.41580
C36A C -0.2015(3) -0.6247(2) -0.31400(19)
C37A C -0.1504(3) -0.5845(2) -0.23832(18)
H40A H -0.17200 -0.62920 -0.20630
N2A N -0.2878(4) -0.7405(2) -0.3436(2)
O10A O -0.3284(4) -0.7917(2) -0.2996(2)
O11A O -0.3146(5) -0.7782(2) -0.4101(2)
N3A N -0.5441(3) -0.4421(2) -0.13088(19)
O12A O -0.5762(3) -0.4744(4) -0.1978(2)
C38A C 0.1087(3) 0.1252(2) -0.09337(15)
H41A H 0.16080 0.15350 -0.04300
C39A C 0.0426(3) 0.0154(2) -0.12186(15)
C40A C -0.0356(3) -0.0309(2) -0.19536(15)
H42A H -0.08090 -0.10520 -0.21210
N4A N 0.0580(3) -0.05551(19) -0.07062(14)
C41A C 0.4393(6) -0.1700(5) 0.0981(4)
H43A H 0.49210 -0.17940 0.05920
H44A H 0.40920 -0.10610 0.09670
C42A C 0.5434(10) -0.1516(9) 0.1697(5)
H45A H 0.62940 -0.08920 0.17650
H46A H 0.57680 -0.21330 0.17130
H47A H 0.49360 -0.13980 0.20890
C43A C 0.5408(12) -0.1640(9) -0.1869(6)
H48A H 0.64590 -0.14980 -0.16300
H49A H 0.53160 -0.11380 -0.21710
H50A H 0.49960 -0.23620 -0.21820
C44A C 0.4601(8) -0.1525(6) -0.1316(6)
H51A H 0.46960 -0.20260 -0.10060
H52A H 0.50170 -0.07990 -0.09950
#END
