
#######################################################################
#
#                 Cambridge Crystallographic Data Centre
#                                CCDC
#
#######################################################################
#
# If this CIF has been generated from an entry in the Cambridge
# Structural Database, then it will include bibliographic, chemical,
# crystal, experimental, refinement or atomic coordinate data resulting
# from the CCDC's data processing and validation procedures.
#
#######################################################################

data_CSD_CIF_ZIMZEC
_audit_creation_date 2013-08-21
_audit_creation_method CSD-ConQuest-V1
_database_code_CSD ZIMZEC
_database_code_depnum_ccdc_archive 'CCDC 951677'
_chemical_formula_sum 'C27 H18 N2 O4'
_chemical_formula_moiety
;
C27 H18 N2 O4
;
_journal_coden_Cambridge 177
_journal_volume 11
_journal_year 2013
_journal_page_first 6520
_journal_name_full 'Org.Biomol.Chem. '
loop_
_publ_author_name
"J.K.Vandavasi"
"Kung-Kai Kuo"
"Wan-Ping Hu"
"Ho-Chanu Shen"
"Wei-Sheng Lo"
"Jeh-Jeng Wang"
_chemical_name_systematic
;
1-(4-Nitrobenzoyl)-2,2-diphenyl-1,2-dihydro-3H-indol-3-one
;
_cell_volume   2069.282
_exptl_crystal_colour 'colorless'
_exptl_crystal_density_diffrn 1.394
_exptl_crystal_description 'parallelepiped'
_diffrn_ambient_temperature 297
#These two values have been output from a single CSD field.
_refine_ls_R_factor_gt 0.0364
_refine_ls_wR_factor_gt 0.0364
_symmetry_cell_setting monoclinic
_symmetry_space_group_name_H-M 'P 21/n'
_symmetry_Int_Tables_number 14
loop_
_symmetry_equiv_pos_site_id
_symmetry_equiv_pos_as_xyz
1 x,y,z
2 1/2-x,1/2+y,1/2-z
3 -x,-y,-z
4 -1/2+x,-1/2-y,-1/2+z
_cell_length_a 12.0042(3)
_cell_length_b 14.4363(3)
_cell_length_c 12.4330(4)
_cell_angle_alpha 90
_cell_angle_beta 106.177(3)
_cell_angle_gamma 90
_cell_formula_units_Z 4
loop_
_atom_type_symbol
_atom_type_radius_bond
C 0.68
H 0.23
N 0.68
O 0.68
loop_
_atom_site_label
_atom_site_type_symbol
_atom_site_fract_x
_atom_site_fract_y
_atom_site_fract_z
O1 O 0.21259(7) 0.08340(6) 0.13668(7)
O2 O 0.66794(7) 0.21084(6) 0.17929(8)
O3 O 0.56218(10) 0.62752(7) 0.42813(12)
O4 O 0.53559(9) 0.66666(7) 0.25462(11)
N1 N 0.50169(7) 0.16551(6) 0.21499(7)
N2 N 0.55194(9) 0.60940(9) 0.32978(14)
C1 C 0.51292(9) 0.07174(8) 0.18638(9)
C2 C 0.6130(1) 0.02254(9) 0.18882(10)
H1 H 0.68550 0.05080 0.20900
C3 C 0.60066(12) -0.06966(9) 0.16014(11)
H2 H 0.66680 -0.10410 0.16260
C4 C 0.49428(12) -0.11313(9) 0.12792(12)
H3 H 0.48980 -0.17560 0.10880
C5 C 0.39507(11) -0.06446(9) 0.12400(11)
H4 H 0.32270 -0.09270 0.10110
C6 C 0.40577(9) 0.02791(8) 0.15506(9)
C7 C 0.3165(1) 0.09399(8) 0.16185(9)
C8 C 0.37901(8) 0.18456(7) 0.21623(9)
C9 C 0.36528(9) 0.18185(7) 0.33457(9)
C10 C 0.45307(9) 0.14990(8) 0.42498(10)
H5 H 0.52450 0.13360 0.41490
C11 C 0.43538(11) 0.14202(8) 0.52964(10)
H6 H 0.49500 0.12070 0.58960
C12 C 0.33094(11) 0.16539(8) 0.54572(11)
H7 H 0.32000 0.16180 0.61680
C13 C 0.24251(10) 0.19407(9) 0.45648(11)
H8 H 0.17080 0.20860 0.46700
C14 C 0.25822(9) 0.20168(8) 0.35127(10)
H9 H 0.19690 0.22020 0.29120
C15 C 0.33105(8) 0.26829(7) 0.14332(9)
C16 C 0.29782(9) 0.35020(8) 0.18326(10)
H10 H 0.29890 0.35500 0.25810
C17 C 0.26287(9) 0.42529(9) 0.11204(12)
H11 H 0.24040 0.48000 0.13950
C18 C 0.26121(10) 0.41928(10) 0.00161(12)
H12 H 0.23860 0.47000 -0.04550
C19 C 0.29313(10) 0.33788(10) -0.03953(11)
H13 H 0.29180 0.33340 -0.11450
C20 C 0.32694(9) 0.26320(8) 0.03096(10)
H14 H 0.34750 0.20820 0.00260
C21 C 0.58329(9) 0.23115(8) 0.20962(9)
C22 C 0.56950(8) 0.32869(8) 0.24326(10)
C23 C 0.56953(9) 0.35292(8) 0.3511(1)
H15 H 0.57190 0.30700 0.40420
C24 C 0.56604(9) 0.44507(9) 0.38002(11)
H16 H 0.56810 0.46190 0.45280
C25 C 0.55944(9) 0.51109(8) 0.29943(11)
C26 C 0.55989(9) 0.48956(9) 0.19222(11)
H17 H 0.55510 0.53590 0.13910
C27 C 0.56758(9) 0.39784(9) 0.16479(10)
H18 H 0.57150 0.38200 0.09340
#END
