
#######################################################################
#
#                 Cambridge Crystallographic Data Centre
#                                CCDC
#
#######################################################################
#
# If this CIF has been generated from an entry in the Cambridge
# Structural Database, then it will include bibliographic, chemical,
# crystal, experimental, refinement or atomic coordinate data resulting
# from the CCDC's data processing and validation procedures.
#
#######################################################################

data_CSD_CIF_ZIMZAY
_audit_creation_date 2013-08-21
_audit_creation_method CSD-ConQuest-V1
_database_code_CSD ZIMZAY
_database_code_depnum_ccdc_archive 'CCDC 951676'
_chemical_formula_sum 'C26 H17 N3 O3'
_chemical_formula_moiety
;
C26 H17 N3 O3
;
_journal_coden_Cambridge 177
_journal_volume 11
_journal_year 2013
_journal_page_first 6520
_journal_name_full 'Org.Biomol.Chem. '
loop_
_publ_author_name
"J.K.Vandavasi"
"Kung-Kai Kuo"
"Wan-Ping Hu"
"Ho-Chanu Shen"
"Wei-Sheng Lo"
"Jeh-Jeng Wang"
_chemical_name_systematic
;
2-(4-Nitrophenyl)-4-(phenyl(pyridin-3-yl)methylene)-4H-3,1-benzoxazine
;
_cell_volume   4153.961
_exptl_crystal_colour 'red'
_exptl_crystal_density_diffrn 1.341
_exptl_crystal_description 'parallelepiped'
_diffrn_ambient_temperature 297
#These two values have been output from a single CSD field.
_refine_ls_R_factor_gt 0.0431
_refine_ls_wR_factor_gt 0.0431
_symmetry_cell_setting monoclinic
_symmetry_space_group_name_H-M 'C 2/c'
_symmetry_Int_Tables_number 15
loop_
_symmetry_equiv_pos_site_id
_symmetry_equiv_pos_as_xyz
1 x,y,z
2 -x,y,1/2-z
3 1/2+x,1/2+y,z
4 1/2-x,1/2+y,1/2-z
5 -x,-y,-z
6 x,-y,-1/2+z
7 -1/2-x,-1/2-y,-z
8 -1/2+x,-1/2-y,-1/2+z
_cell_length_a 31.297(3)
_cell_length_b 8.1567(7)
_cell_length_c 18.7872(16)
_cell_angle_alpha 90
_cell_angle_beta 119.988(2)
_cell_angle_gamma 90
_cell_formula_units_Z 8
loop_
_atom_type_symbol
_atom_type_radius_bond
C 0.68
H 0.23
N 0.68
O 0.68
loop_
_atom_site_label
_atom_site_type_symbol
_atom_site_fract_x
_atom_site_fract_y
_atom_site_fract_z
O1 O 0.18775(4) 0.40132(15) 0.47631(7)
O2 O 0.34085(7) 0.8654(2) 0.40073(11)
O3 O 0.40388(6) 0.7742(2) 0.51128(11)
N1 N 0.24958(5) 0.35010(17) 0.61067(8)
N2 N 0.05617(7) 0.6363(3) 0.24088(13)
N3 N 0.35949(7) 0.7841(2) 0.46394(13)
C1 C 0.21577(6) 0.25782(19) 0.62302(9)
C2 C 0.23384(7) 0.1833(2) 0.6995(1)
H1 H 0.26660 0.19830 0.73980
C3 C 0.20361(7) 0.0879(2) 0.71566(11)
H2 H 0.21550 0.04060 0.76720
C4 C 0.15548(7) 0.0627(2) 0.65501(12)
H3 H 0.13510 -0.00340 0.66560
C5 C 0.13711(7) 0.1343(2) 0.57880(11)
H4 H 0.10460 0.11450 0.53840
C6 C 0.16655(6) 0.23622(19) 0.56116(9)
C7 C 0.15013(6) 0.3197(2) 0.48253(10)
C8 C 0.10547(6) 0.3347(2) 0.41464(10)
C9 C 0.05983(6) 0.2682(3) 0.41057(12)
C10 C 0.04023(8) 0.3399(3) 0.45481(17)
H5 H 0.05460 0.43440 0.48510
C11 C -0.00019(11) 0.2736(5) 0.4547(2)
H6 H -0.01280 0.32240 0.48510
C12 C -0.02173(11) 0.1355(6) 0.4097(3)
H7 H -0.04890 0.09010 0.41010
C13 C -0.00368(12) 0.0621(5) 0.3633(2)
H8 H -0.01880 -0.03120 0.33240
C14 C 0.03759(9) 0.1300(4) 0.36344(15)
H9 H 0.04990 0.08280 0.33230
C15 C 0.09886(6) 0.4226(2) 0.34039(10)
C16 C 0.12645(8) 0.3889(3) 0.30292(12)
H10 H 0.15030 0.30700 0.32340
C17 C 0.11798(10) 0.4792(4) 0.23455(14)
H11 H 0.13560 0.45770 0.20780
C18 C 0.08303(10) 0.6009(4) 0.20704(15)
H12 H 0.07810 0.66210 0.16170
C19 C 0.06404(7) 0.5460(3) 0.30540(12)
H13 H 0.04460 0.56770 0.32890
C20 C 0.23405(6) 0.41339(19) 0.54056(9)
C21 C 0.26609(6) 0.51172(19) 0.52036(10)
C22 C 0.24866(6) 0.5746(2) 0.4420(1)
H14 H 0.21620 0.55480 0.40140
C23 C 0.27902(7) 0.6663(2) 0.42388(11)
H15 H 0.26740 0.70940 0.37160
C24 C 0.32682(7) 0.6923(2) 0.48491(12)
C25 C 0.34527(7) 0.6332(2) 0.56347(12)
H16 H 0.37780 0.65360 0.60370
C26 C 0.31462(6) 0.5433(2) 0.58115(11)
H17 H 0.32630 0.50330 0.63410
#END
