
#######################################################################
#
#                 Cambridge Crystallographic Data Centre
#                                CCDC
#
#######################################################################
#
# If this CIF has been generated from an entry in the Cambridge
# Structural Database, then it will include bibliographic, chemical,
# crystal, experimental, refinement or atomic coordinate data resulting
# from the CCDC's data processing and validation procedures.
#
#######################################################################

data_CSD_CIF_ZIPREX
_audit_creation_date 2014-01-08
_audit_creation_method CSD-ConQuest-V1
_database_code_CSD ZIPREX
_database_code_depnum_ccdc_archive 'CCDC 872146'
_chemical_formula_sum 'C15 H15 N3 O7'
_chemical_formula_moiety
;
C15 H15 N3 O7
;
_journal_coden_Cambridge 34
_journal_volume 50
_journal_year 2013
_journal_page_first 985
_journal_name_full 'J.Heterocycl.Chem. '
loop_
_publ_author_name
"S.M.Korneev"
"V.A.Polukeev"
"P.G.Jones"
_chemical_name_systematic
;
Ethyl 4-((ethoxycarbonyl)oxy)-1-(4-nitrophenyl)-1H-pyrazole-3-carboxylate
;
_cell_volume    787.345
_exptl_crystal_colour 'colorless'
_exptl_crystal_density_diffrn 1.473
_exptl_crystal_description 'tablet'
_diffrn_ambient_temperature 140
#These two values have been output from a single CSD field.
_refine_ls_R_factor_gt 0.0375
_refine_ls_wR_factor_gt 0.0375
_symmetry_cell_setting triclinic
_symmetry_space_group_name_H-M 'P -1'
_symmetry_Int_Tables_number 2
loop_
_symmetry_equiv_pos_site_id
_symmetry_equiv_pos_as_xyz
1 x,y,z
2 -x,-y,-z
_cell_length_a 7.4438(5)
_cell_length_b 7.7712(5)
_cell_length_c 15.1103(9)
_cell_angle_alpha 97.589(5)
_cell_angle_beta 93.836(5)
_cell_angle_gamma 113.551(6)
_cell_formula_units_Z 2
loop_
_atom_type_symbol
_atom_type_radius_bond
C 0.68
H 0.23
N 0.68
O 0.68
loop_
_atom_site_label
_atom_site_type_symbol
_atom_site_fract_x
_atom_site_fract_y
_atom_site_fract_z
N1 N 0.22408(13) 0.32698(12) 0.52871(6)
N2 N 0.23753(13) 0.15759(12) 0.52071(6)
C1 C 0.27666(15) 0.12461(14) 0.43683(7)
C2 C 0.28709(15) 0.27578(14) 0.39154(7)
C3 C 0.25364(16) 0.40358(15) 0.45175(7)
H1 H 0.25140 0.52110 0.44210
C4 C 0.19826(15) 0.41059(15) 0.61367(7)
C5 C 0.16529(16) 0.30494(15) 0.68346(7)
H2 H 0.14950 0.17620 0.67270
C6 C 0.15582(17) 0.38963(17) 0.76840(8)
H3 H 0.13330 0.32010 0.81680
C7 C 0.17980(17) 0.57776(17) 0.78170(7)
C8 C 0.20409(17) 0.68175(16) 0.71226(8)
H4 H 0.21510 0.80910 0.72300
C9 C 0.21198(16) 0.59655(15) 0.62680(7)
H5 H 0.22650 0.66410 0.57780
C10 C 0.30209(15) -0.05292(15) 0.40790(7)
C11 C 0.36997(18) -0.23952(16) 0.29005(8)
H6 H 0.24890 -0.35120 0.29600
H7 H 0.48410 -0.24660 0.32440
C12 C 0.3990(2) -0.2391(2) 0.19262(9)
H8 H 0.28240 -0.23840 0.15870
H9 H 0.41740 -0.35330 0.16830
H10 H 0.51600 -0.12520 0.18730
C13 C 0.22483(16) 0.18871(15) 0.23406(7)
C14 C 0.2171(2) 0.13313(19) 0.07630(8)
H11 H 0.07560 0.10910 0.07280
H12 H 0.22680 0.00890 0.06550
C15 C 0.3104(3) 0.2485(2) 0.00815(9)
H13 H 0.29480 0.36870 0.01790
H14 H 0.24670 0.17780 -0.05220
H15 H 0.45130 0.27530 0.01370
N3 N 0.18292(17) 0.67087(16) 0.87313(7)
O1 O 0.24510(19) 0.84466(15) 0.88834(7)
O2 O 0.1279(2) 0.57206(17) 0.93054(7)
O3 O 0.27838(13) -0.17383(11) 0.45415(5)
O4 O 0.35212(12) -0.06335(11) 0.32493(5)
O5 O 0.34398(11) 0.3102(1) 0.30807(5)
O6 O 0.06454(12) 0.06566(12) 0.23361(5)
O7 O 0.32129(13) 0.24016(12) 0.16503(5)
#END
