
#######################################################################
#
#                 Cambridge Crystallographic Data Centre
#                                CCDC
#
#######################################################################
#
# If this CIF has been generated from an entry in the Cambridge
# Structural Database, then it will include bibliographic, chemical,
# crystal, experimental, refinement or atomic coordinate data resulting
# from the CCDC's data processing and validation procedures.
#
#######################################################################

data_CSD_CIF_ZIPSOI
_audit_creation_date 2014-01-08
_audit_creation_method CSD-ConQuest-V1
_database_code_CSD ZIPSOI
_database_code_depnum_ccdc_archive 'CCDC 800451'
_chemical_formula_sum 'C7 H8 N8 O4'
_chemical_formula_moiety
;
C7 H8 N8 O4
;
_journal_coden_Cambridge 34
_journal_volume 50
_journal_year 2013
_journal_page_first 949
_journal_name_full 'J.Heterocycl.Chem. '
loop_
_publ_author_name
"R.L.Willer"
"R.F.Storey"
"J.R.Deschamps"
"M.Frisch"
_chemical_name_systematic
;
4,4'-(Methylenediimino)bis(1,2,5-oxadiazole-3-carboxamide)
;
_cell_volume   4257.567
_exptl_crystal_colour 'colorless'
_exptl_crystal_density_diffrn 1.674
_exptl_crystal_description 'prism'
_exptl_crystal_preparation 'dimethyl sulfoxide'
_diffrn_ambient_temperature 123
#These two values have been output from a single CSD field.
_refine_ls_R_factor_gt 0.0507
_refine_ls_wR_factor_gt 0.0507
_symmetry_cell_setting monoclinic
_symmetry_space_group_name_H-M 'P 21/c'
_symmetry_Int_Tables_number 14
loop_
_symmetry_equiv_pos_site_id
_symmetry_equiv_pos_as_xyz
1 x,y,z
2 -x,1/2+y,1/2-z
3 -x,-y,-z
4 x,-1/2-y,-1/2+z
_cell_length_a 14.334(4)
_cell_length_b 16.977(5)
_cell_length_c 18.021(5)
_cell_angle_alpha 90
_cell_angle_beta 103.867(4)
_cell_angle_gamma 90
_cell_formula_units_Z 16
loop_
_atom_type_symbol
_atom_type_radius_bond
C 0.68
H 0.23
N 0.68
O 0.68
loop_
_atom_site_label
_atom_site_type_symbol
_atom_site_fract_x
_atom_site_fract_y
_atom_site_fract_z
N1 N 0.4618(2) 0.28439(14) 0.12153(14)
O1 O 0.42319(17) 0.32620(13) 0.05460(12)
N2 N 0.3318(2) 0.35082(15) 0.05293(15)
C1 C 0.3129(2) 0.32617(16) 0.11581(17)
C2 C 0.3945(2) 0.28421(16) 0.15956(17)
N3 N 0.4048(2) 0.25137(14) 0.22844(14)
H1 H 0.35760 0.25450 0.25180
C3 C 0.4927(2) 0.21061(16) 0.26520(18)
H2 H 0.50760 0.17140 0.22900
H3 H 0.48170 0.18150 0.31000
N4 N 0.5756(2) 0.26190(14) 0.29053(15)
H4 H 0.61980 0.26300 0.26410
C4 C 0.5869(2) 0.30754(16) 0.35277(16)
N5 N 0.5211(2) 0.31715(14) 0.39197(14)
O2 O 0.56187(17) 0.36864(13) 0.45191(12)
N6 N 0.6525(2) 0.39018(15) 0.44813(14)
C5 C 0.6696(2) 0.35441(17) 0.38877(17)
C6 C 0.2180(3) 0.33965(17) 0.13462(18)
N7 N 0.1606(2) 0.38958(16) 0.09066(16)
H5 H 0.10360 0.39970 0.09870
H6 H 0.17900 0.41310 0.05300
O3 O 0.19980(17) 0.30393(13) 0.18819(14)
C7 C 0.7614(2) 0.36357(16) 0.36399(17)
N8 N 0.8277(2) 0.40847(16) 0.40920(15)
H7 H 0.88310 0.41680 0.39770
H8 H 0.81590 0.42970 0.45060
O4 O 0.76952(17) 0.33108(12) 0.30534(13)
N9 N 0.4743(2) 0.04361(14) 0.13433(13)
O5 O 0.42873(17) 0.08381(13) 0.06720(11)
N10 N 0.3366(2) 0.10334(15) 0.06919(14)
C8 C 0.3234(2) 0.07731(16) 0.13385(15)
C9 C 0.4102(2) 0.03845(16) 0.17523(15)
N11 N 0.42570(19) 0.00313(13) 0.24394(13)
H9 H 0.38110 0.00550 0.27000
C10 C 0.5143(2) -0.03879(15) 0.27591(17)
H10 H 0.52890 -0.07320 0.23580
H11 H 0.50430 -0.07310 0.31770
N12 N 0.59666(19) 0.01143(14) 0.30555(13)
H12 H 0.64390 0.01330 0.28210
C11 C 0.6015(2) 0.05528(16) 0.36865(15)
N13 N 0.5323(2) 0.06037(14) 0.40448(14)
O6 O 0.56507(17) 0.11307(13) 0.46442(11)
N14 N 0.6552(2) 0.13893(15) 0.46388(13)
C12 C 0.6793(2) 0.10539(17) 0.40704(15)
C13 C 0.2312(2) 0.08815(17) 0.15773(16)
N15 N 0.1620(2) 0.12444(15) 0.10721(14)
H13 H 0.10560 0.13220 0.11730
H14 H 0.17250 0.14080 0.06360
O7 O 0.22446(17) 0.06303(12) 0.22009(11)
C14 C 0.7743(2) 0.11618(16) 0.38936(15)
N16 N 0.8291(2) 0.17359(14) 0.42680(13)
H15 H 0.88620 0.18260 0.41840
H16 H 0.80820 0.20260 0.45990
O8 O 0.79632(17) 0.07250(12) 0.34227(11)
N17 N 0.0255(2) 0.19450(14) 0.40387(13)
O9 O 0.06161(16) 0.24900(12) 0.46247(11)
N18 N 0.15123(19) 0.27352(13) 0.45958(13)
C15 C 0.1729(2) 0.23646(15) 0.40281(15)
C16 C 0.0936(2) 0.18649(15) 0.36717(15)
N19 N 0.0860(2) 0.13926(14) 0.30523(13)
H17 H 0.13130 0.14050 0.27980
C17 C 0.0050(2) 0.08705(15) 0.28018(16)
H18 H 0.02050 0.04880 0.24340
H19 H -0.00450 0.05690 0.32480
N20 N -0.08367(19) 0.12614(13) 0.24468(13)
H20 H -0.12930 0.12950 0.26960
C18 C -0.0983(2) 0.15765(15) 0.17433(15)
N21 N -0.03283(19) 0.15903(13) 0.13428(13)
O10 O -0.07608(17) 0.19700(12) 0.06603(11)
N22 N -0.1678(2) 0.21808(15) 0.06614(14)
C19 C -0.1831(2) 0.19549(15) 0.13068(15)
C20 C 0.2662(2) 0.24626(16) 0.38095(16)
N23 N 0.3250(2) 0.30001(14) 0.42017(14)
H21 H 0.38090 0.30910 0.40960
H22 H 0.30820 0.32660 0.45680
O11 O 0.28169(18) 0.20592(12) 0.32909(13)
C21 C -0.2772(2) 0.20836(16) 0.15136(16)
N24 N -0.3409(2) 0.24985(15) 0.10313(14)
H23 H -0.39750 0.25900 0.11220
H24 H -0.32710 0.26870 0.06150
O12 O -0.28866(17) 0.17944(12) 0.21083(12)
N25 N 0.9622(2) 0.41984(15) 0.10622(14)
O13 O 0.92839(17) 0.46827(13) 0.04234(12)
N26 N 0.8376(2) 0.49416(16) 0.04131(14)
C22 C 0.8147(2) 0.46438(17) 0.10098(16)
C23 C 0.8933(2) 0.41785(16) 0.14284(16)
N27 N 0.9004(2) 0.37995(14) 0.20858(14)
H25 H 0.85270 0.38210 0.23150
C24 C 0.9860(2) 0.33519(17) 0.24280(18)
H26 H 0.99880 0.29770 0.20430
H27 H 0.97340 0.30390 0.28580
N28 N 1.07141(19) 0.38263(14) 0.27106(14)
H28 H 1.11550 0.38420 0.24450
C25 C 1.0855(2) 0.42424(16) 0.33617(16)
N29 N 1.0216(2) 0.43150(15) 0.37680(14)
O14 O 1.06544(17) 0.47814(13) 0.44084(12)
N30 N 1.1565(2) 0.49808(16) 0.43710(14)
C26 C 1.1708(2) 0.46650(17) 0.37489(15)
C27 C 0.7191(2) 0.47680(17) 0.11813(16)
N31 N 0.6653(2) 0.53260(15) 0.07800(15)
H29 H 0.60740 0.54190 0.08470
H30 H 0.68720 0.56040 0.04460
O15 O 0.69587(17) 0.43508(12) 0.16559(13)
C28 C 1.2624(2) 0.47643(17) 0.34952(17)
N32 N 1.3321(2) 0.51450(16) 0.39886(14)
H31 H 1.38790 0.52250 0.38780
H32 H 1.32220 0.53160 0.44240
O16 O 1.26775(16) 0.44997(12) 0.28725(11)
#END
