
#######################################################################
#
#                 Cambridge Crystallographic Data Centre
#                                CCDC
#
#######################################################################
#
# If this CIF has been generated from an entry in the Cambridge
# Structural Database, then it will include bibliographic, chemical,
# crystal, experimental, refinement or atomic coordinate data resulting
# from the CCDC's data processing and validation procedures.
#
#######################################################################

data_CSD_CIF_ZIPSIC
_audit_creation_date 2014-01-08
_audit_creation_method CSD-ConQuest-V1
_database_code_CSD ZIPSIC
_database_code_depnum_ccdc_archive 'CCDC 800452'
_chemical_formula_sum 'C3 H4 N4 O2'
_chemical_formula_moiety
;
C3 H4 N4 O2
;
_journal_coden_Cambridge 34
_journal_volume 50
_journal_year 2013
_journal_page_first 949
_journal_name_full 'J.Heterocycl.Chem. '
loop_
_publ_author_name
"R.L.Willer"
"R.F.Storey"
"J.R.Deschamps"
"M.Frisch"
_chemical_name_systematic
;
4-Amino-1,2,5-oxadiazole-3-carboxamide
;
_cell_volume    502.987
_exptl_crystal_density_diffrn 1.692
_exptl_crystal_description 'plate'
_diffrn_ambient_temperature 223
#These two values have been output from a single CSD field.
_refine_ls_R_factor_gt 0.042
_refine_ls_wR_factor_gt 0.042
_symmetry_cell_setting monoclinic
_symmetry_space_group_name_H-M 'P 21/c'
_symmetry_Int_Tables_number 14
loop_
_symmetry_equiv_pos_site_id
_symmetry_equiv_pos_as_xyz
1 x,y,z
2 -x,1/2+y,1/2-z
3 -x,-y,-z
4 x,-1/2-y,-1/2+z
_cell_length_a 4.7946(2)
_cell_length_b 13.0185(4)
_cell_length_c 8.0635(3)
_cell_angle_alpha 90
_cell_angle_beta 92.058(2)
_cell_angle_gamma 90
_cell_formula_units_Z 4
loop_
_atom_type_symbol
_atom_type_radius_bond
C 0.68
H 0.23
N 0.68
O 0.68
loop_
_atom_site_label
_atom_site_type_symbol
_atom_site_fract_x
_atom_site_fract_y
_atom_site_fract_z
O1 O 1.4176(2) 0.37655(8) 0.24534(13)
N1 N 1.4010(3) 0.27184(10) 0.24079(15)
C1 C 1.1976(3) 0.24956(10) 0.13647(18)
C2 C 1.0760(3) 0.3430(1) 0.07132(18)
N2 N 1.2135(3) 0.42064(10) 0.13816(16)
O2 O 0.8728(2) 0.12971(8) 0.03138(15)
N3 N 1.2885(3) 0.06874(10) 0.13102(16)
H1 H 1.24580 0.00580 0.10980
H2 H 1.44910 0.08360 0.17560
C3 C 1.1073(3) 0.14259(11) 0.09512(18)
N4 N 0.8654(3) 0.3520(1) -0.04151(17)
H3 H 0.81200 0.41180 -0.07480
H4 H 0.78360 0.29790 -0.08060
#END
