
#######################################################################
#
#                 Cambridge Crystallographic Data Centre
#                                CCDC
#
#######################################################################
#
# If this CIF has been generated from an entry in the Cambridge
# Structural Database, then it will include bibliographic, chemical,
# crystal, experimental, refinement or atomic coordinate data resulting
# from the CCDC's data processing and validation procedures.
#
#######################################################################

data_CSD_CIF_ZIQCUZ01
_audit_creation_date 2014-12-24
_audit_creation_method CSD-ConQuest-V1
_database_code_CSD ZIQCUZ01
_database_code_depnum_ccdc_archive 'CCDC 1039539'
_chemical_formula_sum 'C22 H17 N1 O3'
_chemical_formula_moiety
;
C22 H17 N1 O3
;
_journal_coeditor_code "su5045"
_journal_coden_Cambridge 1828
_journal_volume 71
_journal_year 2015
_journal_page_first o65
_journal_name_full 'Acta Crystallogr.,Sect.E:Cryst.Commun. '
loop_
_publ_author_name
"T.Vidhyasagar"
"K.Rajeswari"
"D.Shanthi"
"M.Kayalvizhi"
"G.Vasuki"
"A.Thiruvalluvar"
_chemical_name_systematic
;
(E)-1-(4'-Methyl-[1,1'-biphenyl]-4-yl)-3-(3-nitrophenyl)prop-2-en-1-one
;
_chemical_melting_point 462.3
_cell_volume   3460.463
_exptl_crystal_colour 'yellow'
_exptl_crystal_density_diffrn 1.318
_exptl_crystal_description 'block'
_diffrn_ambient_temperature 293
#These two values have been output from a single CSD field.
_refine_ls_R_factor_gt 0.0672
_refine_ls_wR_factor_gt 0.0672
_symmetry_cell_setting monoclinic
_symmetry_space_group_name_H-M 'C 2/c'
_symmetry_Int_Tables_number 15
loop_
_symmetry_equiv_pos_site_id
_symmetry_equiv_pos_as_xyz
1 x,y,z
2 -x,y,1/2-z
3 1/2+x,1/2+y,z
4 1/2-x,1/2+y,1/2-z
5 -x,-y,-z
6 x,-y,-1/2+z
7 -1/2-x,-1/2-y,-z
8 -1/2+x,-1/2-y,-1/2+z
_cell_length_a 17.8214(10)
_cell_length_b 6.1630(3)
_cell_length_c 32.3569(19)
_cell_angle_alpha 90
_cell_angle_beta 103.165(2)
_cell_angle_gamma 90
_cell_formula_units_Z 8
loop_
_atom_type_symbol
_atom_type_radius_bond
C 0.68
H 0.23
N 0.68
O 0.68
loop_
_atom_site_label
_atom_site_type_symbol
_atom_site_fract_x
_atom_site_fract_y
_atom_site_fract_z
O1 O 0.5576(2) -0.0419(5) -0.18992(10)
O2 O 0.57708(17) 0.2525(5) -0.15451(8)
O3 O 0.39470(16) 0.5129(4) 0.01333(8)
N1 N 0.55103(17) 0.0708(6) -0.16008(9)
C1 C 0.50961(16) -0.0197(5) -0.12946(9)
C2 C 0.48178(19) -0.2286(6) -0.13485(11)
C3 C 0.4412(2) -0.3050(5) -0.10630(12)
C4 C 0.42788(19) -0.1752(5) -0.07404(11)
C5 C 0.45527(18) 0.0367(5) -0.06918(9)
C6 C 0.49828(17) 0.1111(5) -0.09729(9)
C7 C 0.43736(19) 0.1877(5) -0.03729(9)
C8 C 0.38766(19) 0.1586(5) -0.01312(10)
C9 C 0.37335(18) 0.3262(5) 0.01629(10)
C10 C 0.33265(17) 0.2675(5) 0.05025(9)
C11 C 0.30439(18) 0.0609(5) 0.05492(10)
C12 C 0.26955(18) 0.0165(5) 0.08822(10)
C13 C 0.26254(17) 0.1744(5) 0.11789(9)
C14 C 0.2909(2) 0.3785(5) 0.11259(10)
C15 C 0.32487(19) 0.4245(5) 0.07947(10)
C16 C 0.22680(17) 0.1252(5) 0.15388(9)
C17 C 0.23877(18) -0.0738(5) 0.17499(10)
C18 C 0.20358(19) -0.1232(5) 0.20751(10)
C19 C 0.15524(19) 0.0243(6) 0.22083(10)
C20 C 0.14488(18) 0.2233(6) 0.2010(1)
C21 C 0.17998(18) 0.2742(5) 0.16818(10)
C22 C 0.1162(2) -0.0328(8) 0.25609(12)
H1 H 0.49001 -0.31504 -0.15695
H2 H 0.42262 -0.44648 -0.10885
H3 H 0.40014 -0.23004 -0.05526
H4 H 0.51930 0.24991 -0.09416
H5 H 0.46418 0.31838 -0.03384
H6 H 0.36098 0.02805 -0.01481
H7 H 0.30885 -0.04782 0.03569
H8 H 0.25041 -0.12199 0.09077
H9 H 0.28687 0.48747 0.13186
H10 H 0.34298 0.56398 0.07669
H11 H 0.27127 -0.17533 0.16688
H12 H 0.21237 -0.25769 0.22078
H13 H 0.11360 0.32586 0.20984
H14 H 0.17207 0.41032 0.15553
H15 H 0.15172 -0.10892 0.27806
H16 H 0.07234 -0.12346 0.24514
H17 H 0.09953 0.09766 0.26755
#END
