
#######################################################################
#
#                 Cambridge Crystallographic Data Centre
#                                CCDC
#
#######################################################################
#
# If this CIF has been generated from an entry in the Cambridge
# Structural Database, then it will include bibliographic, chemical,
# crystal, experimental, refinement or atomic coordinate data resulting
# from the CCDC's data processing and validation procedures.
#
#######################################################################

data_CSD_CIF_ZIQCUZ
_audit_creation_date 2014-01-08
_audit_creation_method CSD-ConQuest-V1
_database_code_CSD ZIQCUZ
_database_code_depnum_ccdc_archive 'CCDC 980663'
_chemical_formula_sum 'C22 H17 N1 O3'
_chemical_formula_moiety
;
C22 H17 N1 O3
;
_journal_coden_Cambridge 1078
_journal_year 2014
_journal_name_full 'CSD Communication(Private Communication) '
loop_
_publ_author_name
"B.VARGHEESE"
"T.Vidhyasagar"
"D.SHANTHI"
_chemical_name_systematic
;
1-(4'-methylbiphenyl-4-yl)-3-(3-nitrophenyl)prop-2-en-1-one
;
_cell_volume   3460.466
_exptl_crystal_colour 'colorless'
_exptl_crystal_density_diffrn 1.318
_exptl_crystal_description 'block'
_exptl_crystal_preparation 'ACETONE'
_diffrn_ambient_temperature 293
#These two values have been output from a single CSD field.
_refine_ls_R_factor_gt 0.0674
_refine_ls_wR_factor_gt 0.0674
_symmetry_cell_setting monoclinic
_symmetry_space_group_name_H-M 'C 2/c'
_symmetry_Int_Tables_number 15
loop_
_symmetry_equiv_pos_site_id
_symmetry_equiv_pos_as_xyz
1 x,y,z
2 -x,y,1/2-z
3 1/2+x,1/2+y,z
4 1/2-x,1/2+y,1/2-z
5 -x,-y,-z
6 x,-y,-1/2+z
7 -1/2-x,-1/2-y,-z
8 -1/2+x,-1/2-y,-1/2+z
_cell_length_a 17.821
_cell_length_b 6.163
_cell_length_c 32.357
_cell_angle_alpha 90
_cell_angle_beta 103.16
_cell_angle_gamma 90
_cell_formula_units_Z 8
loop_
_atom_type_symbol
_atom_type_radius_bond
C 0.68
H 0.23
N 0.68
O 0.68
loop_
_atom_site_label
_atom_site_type_symbol
_atom_site_fract_x
_atom_site_fract_y
_atom_site_fract_z
C1 C 0.50961(16) 0.4803(5) 0.87054(9)
C2 C 0.48178(19) 0.2714(6) 0.86515(11)
H1 H 0.49000 0.18500 0.84310
C3 C 0.4412(2) 0.1950(6) 0.89370(12)
H2 H 0.42260 0.05350 0.89120
C4 C 0.42788(19) 0.3248(5) 0.92596(11)
H3 H 0.40010 0.27000 0.94470
C5 C 0.45527(18) 0.5367(5) 0.93082(9)
C6 C 0.49828(17) 0.6111(5) 0.90271(9)
H4 H 0.51930 0.74990 0.90580
C7 C 0.43736(19) 0.6877(5) 0.96271(9)
H5 H 0.46420 0.81840 0.96620
C8 C 0.38766(19) 0.6586(5) 0.98688(10)
H6 H 0.36100 0.52800 0.98520
C9 C 0.37335(18) 0.8262(6) 1.01629(10)
C10 C 0.33265(17) 0.7675(5) 1.05025(9)
C11 C 0.30439(18) 0.5609(5) 1.05492(10)
H7 H 0.30890 0.45220 1.03570
C12 C 0.26955(18) 0.5165(5) 1.08822(10)
H8 H 0.25040 0.37800 1.09080
C13 C 0.26254(17) 0.6744(5) 1.11789(9)
C14 C 0.2909(2) 0.8785(5) 1.11259(10)
H9 H 0.28690 0.98750 1.13190
C15 C 0.32487(19) 0.9245(5) 1.07947(10)
H10 H 0.34300 1.06400 1.07670
C16 C 0.22680(17) 0.6252(5) 1.15388(9)
C17 C 0.23877(18) 0.4262(5) 1.17499(10)
H11 H 0.27130 0.32470 1.16690
C18 C 0.20358(19) 0.3768(6) 1.20751(10)
H12 H 0.21240 0.24230 1.22080
C19 C 0.15524(19) 0.5243(6) 1.22083(10)
C20 C 0.14488(18) 0.7233(6) 1.2010(1)
H13 H 0.11360 0.82590 1.20980
C21 C 0.17998(18) 0.7742(5) 1.16818(10)
H14 H 0.17210 0.91030 1.15550
C22 C 0.1162(2) 0.4672(8) 1.25609(12)
H15 H 0.15170 0.39110 1.27810
H16 H 0.07230 0.37650 1.24510
H17 H 0.09950 0.59770 1.26750
N1 N 0.55103(17) 0.5708(6) 0.83992(9)
O1 O 0.5576(2) 0.4581(5) 0.81008(10)
O2 O 0.57708(17) 0.7525(5) 0.84549(8)
O3 O 0.39470(16) 1.0129(4) 1.01333(8)
#END
