
#######################################################################
#
#                 Cambridge Crystallographic Data Centre
#                                CCDC
#
#######################################################################
#
# If this CIF has been generated from an entry in the Cambridge
# Structural Database, then it will include bibliographic, chemical,
# crystal, experimental, refinement or atomic coordinate data resulting
# from the CCDC's data processing and validation procedures.
#
#######################################################################

data_CSD_CIF_ZIRHOZ
_audit_creation_date 2014-01-09
_audit_creation_method CSD-ConQuest-V1
_database_code_CSD ZIRHOZ
_database_code_depnum_ccdc_archive 'CCDC 890640'
_chemical_formula_sum 'C31 H47 N1 O6'
_chemical_formula_moiety
;
C31 H47 N1 O6
;
_journal_coden_Cambridge 200
_journal_volume 78
_journal_year 2013
_journal_page_first 823
_journal_name_full 'Steroids '
loop_
_publ_author_name
"H.Zhylitskaya"
"R.Litvinovskaya"
"A.Baranovsky"
"V.Eigner"
"B.Kratochvil"
"P.Drasar"
"V.Khripach"
_chemical_name_systematic
;
Methyl 
5-(1-acetoxy-2-(10-methoxy-3a,5a-dimethylhexadecahydrocyclopenta[a]cyclopropa[
2,3]cyclopenta[1,2-f]naphthalen-6-yl)propyl)-3-methyl-4,5-dihydro-1,2-oxazole-
4-carboxylate
;
_cell_volume   9076.403
_exptl_crystal_colour 'colorless'
_exptl_crystal_density_diffrn 1.163
_exptl_special_details
;
Absolute configuration

;
_exptl_crystal_description 'prism'
_diffrn_ambient_temperature 150
#These two values have been output from a single CSD field.
_refine_ls_R_factor_gt 0.0674
_refine_ls_wR_factor_gt 0.0674
_symmetry_cell_setting orthorhombic
_symmetry_space_group_name_H-M 'P 21 21 21'
_symmetry_Int_Tables_number 19
loop_
_symmetry_equiv_pos_site_id
_symmetry_equiv_pos_as_xyz
1 x,y,z
2 1/2+x,1/2-y,-z
3 -x,1/2+y,1/2-z
4 1/2-x,-y,1/2+z
_cell_length_a 14.0696(18)
_cell_length_b 20.5356(18)
_cell_length_c 31.4141(19)
_cell_angle_alpha 90
_cell_angle_beta 90
_cell_angle_gamma 90
_cell_formula_units_Z 12
loop_
_atom_type_symbol
_atom_type_radius_bond
C 0.68
H 0.23
N 0.68
O 0.68
loop_
_atom_site_label
_atom_site_type_symbol
_atom_site_fract_x
_atom_site_fract_y
_atom_site_fract_z
O1 O 0.7574(2) 0.68867(13) 0.27308(7)
C1 C 0.7624(3) 0.64650(16) 0.31011(9)
C2 C 0.8330(3) 0.59358(17) 0.29836(9)
O2 O 0.7981(2) 0.56245(13) 0.25976(7)
N1 N 0.7775(2) 0.49609(15) 0.26786(9)
C3 C 0.8010(2) 0.48188(17) 0.30618(10)
C4 C 0.8425(2) 0.53847(16) 0.33069(8)
C5 C 0.7885(3) 0.41454(18) 0.32227(12)
C6 C 0.7910(2) 0.68925(17) 0.34845(9)
C7 C 0.7056(2) 0.73094(15) 0.36224(9)
C8 C 0.7166(2) 0.77963(15) 0.39969(9)
C9 C 0.6103(2) 0.79306(15) 0.40931(9)
C10 C 0.5658(2) 0.72513(16) 0.41066(11)
C11 C 0.6197(3) 0.68794(17) 0.37549(11)
C12 C 0.5923(2) 0.83884(15) 0.44610(9)
C13 C 0.7683(2) 0.74679(17) 0.43669(10)
C14 C 0.7628(3) 0.84532(16) 0.38916(10)
C15 C 0.7463(2) 0.89373(16) 0.4257(1)
C16 C 0.6409(2) 0.90472(15) 0.43673(9)
C17 C 0.6250(3) 0.95629(17) 0.47148(10)
C18 C 0.5188(3) 0.95940(17) 0.48249(10)
C19 C 0.4736(3) 1.0134(2) 0.45662(13)
C20 C 0.5519(4) 1.0451(2) 0.43042(14)
C21 C 0.6437(3) 1.02502(19) 0.45301(13)
C22 C 0.4662(3) 0.89617(17) 0.48957(10)
C23 C 0.4861(2) 0.84947(17) 0.45329(11)
O3 O 0.94953(19) 0.47362(15) 0.36954(8)
C24 C 0.9450(3) 0.52413(19) 0.34315(10)
O4 O 1.0139(2) 0.55332(16) 0.33032(9)
C25 C 1.0428(3) 0.4499(2) 0.38017(13)
O5 O 0.4930(2) 0.86099(13) 0.52711(8)
O6 O 0.6011(3) 0.6703(2) 0.26302(11)
C26 C 0.6871(3) 0.9438(2) 0.51101(11)
C27 C 0.8815(3) 0.7282(2) 0.33919(13)
C28 C 0.6743(4) 0.6955(2) 0.25280(12)
C29 C 0.4816(3) 1.01997(19) 0.50406(13)
C30 C 0.4691(3) 0.8914(2) 0.56539(11)
C31 C 0.6842(5) 0.7406(3) 0.21545(14)
H1 H 0.69970 0.62690 0.31480
H2 H 0.89590 0.61330 0.29380
H3 H 0.80690 0.54760 0.35690
H4 H 0.75800 0.41400 0.34980
H5 H 0.74950 0.38930 0.30190
H6 H 0.84950 0.39380 0.32420
H7 H 0.80510 0.65830 0.37170
H8 H 0.68640 0.75600 0.33700
H9 H 0.58550 0.81440 0.38280
H10 H 0.57500 0.70370 0.43900
H11 H 0.49890 0.72490 0.40550
H12 H 0.64170 0.64670 0.38650
H13 H 0.57620 0.68080 0.35140
H14 H 0.61990 0.82020 0.47210
H15 H 0.76180 0.77230 0.46240
H16 H 0.74170 0.70270 0.44210
H17 H 0.83460 0.74250 0.43060
H18 H 0.82930 0.84120 0.38320
H19 H 0.73170 0.86290 0.36200
H20 H 0.78090 0.87980 0.45090
H21 H 0.77280 0.93540 0.41690
H22 H 0.61090 0.92160 0.41080
H23 H 0.40980 1.00780 0.44430
H24 H 0.54340 1.09260 0.42910
H25 H 0.55010 1.02690 0.40190
H26 H 0.65850 1.05570 0.47620
H27 H 0.69430 1.02410 0.43250
H28 H 0.39570 0.90580 0.49110
H29 H 0.45440 0.80770 0.45870
H30 H 0.45660 0.86730 0.42700
H31 H 1.03510 0.41540 0.40120
H32 H 1.07750 0.48670 0.39380
H33 H 1.07540 0.43530 0.35510
H34 H 0.66890 0.97610 0.53150
H35 H 0.67740 0.89990 0.52070
H36 H 0.75220 0.95160 0.50240
H37 H 0.90280 0.74850 0.36390
H38 H 0.92800 0.70060 0.32630
H39 H 0.86510 0.76220 0.31870
H40 H 0.42630 1.01800 0.52280
H41 H 0.52480 1.05170 0.51600
H42 H 0.47780 0.86000 0.58840
H43 H 0.40140 0.90520 0.56550
H44 H 0.51000 0.92960 0.57050
H45 H 0.62530 0.73940 0.19890
H46 H 0.69290 0.78530 0.22500
H47 H 0.73630 0.72740 0.19800
N2 N 0.7463(2) 0.49060(14) 0.60618(8)
O7 O 0.7436(2) 0.55795(12) 0.59775(7)
C32 C 0.7839(2) 0.48056(16) 0.64240(9)
C33 C 0.8140(2) 0.54174(17) 0.66555(9)
C34 C 0.9183(3) 0.5398(2) 0.67725(10)
O8 O 0.93287(19) 0.49671(16) 0.70824(8)
C35 C 1.0308(3) 0.4826(3) 0.71908(13)
O9 O 0.9808(2) 0.57018(19) 0.6599(1)
C36 C 0.7909(3) 0.59358(16) 0.63210(9)
C37 C 0.7244(3) 0.64797(16) 0.64577(9)
O10 O 0.7098(2) 0.68788(13) 0.60797(7)
C38 C 0.6217(3) 0.6924(2) 0.59163(12)
O11 O 0.5521(3) 0.66836(17) 0.60639(10)
C39 C 0.6241(4) 0.7334(3) 0.55194(13)
C40 C 0.7640(3) 0.69221(17) 0.68161(11)
C41 C 0.6843(2) 0.73629(16) 0.69815(9)
C42 C 0.7075(2) 0.78706(15) 0.73401(9)
C43 C 0.6053(2) 0.80390(15) 0.74842(9)
C44 C 0.5993(2) 0.85217(15) 0.78529(8)
C45 C 0.6489(2) 0.91613(15) 0.77124(9)
C46 C 0.7497(3) 0.90132(16) 0.75586(10)
C47 C 0.7543(3) 0.85074(16) 0.71983(10)
C48 C 0.6444(3) 0.97075(17) 0.80479(10)
C49 C 0.6633(3) 1.03750(18) 0.78290(12)
C50 C 0.5666(4) 1.05870(19) 0.76455(13)
C51 C 0.4935(3) 1.03052(18) 0.79465(12)
C52 C 0.5416(3) 0.97784(17) 0.81997(10)
C53 C 0.4874(2) 0.91752(17) 0.83207(10)
O12 O 0.52317(17) 0.89462(12) 0.87235(7)
C54 C 0.4536(3) 0.8604(2) 0.89545(12)
C55 C 0.7132(2) 0.9603(2) 0.84173(10)
C56 C 0.4964(2) 0.86556(16) 0.79806(10)
C57 C 0.5569(2) 0.73709(16) 0.75334(10)
C58 C 0.6014(2) 0.69626(16) 0.71718(10)
C59 C 0.7658(2) 0.75471(18) 0.76935(10)
C60 C 0.8534(3) 0.7287(2) 0.66639(14)
C61 C 0.7944(3) 0.41383(18) 0.65939(12)
C62 C 0.5118(3) 1.04022(18) 0.84142(12)
H48 H 0.77610 0.54790 0.69230
H49 H 1.03590 0.43880 0.73110
H50 H 1.05440 0.51360 0.73930
H51 H 1.06860 0.48380 0.69410
H52 H 0.85040 0.61160 0.62130
H53 H 0.66290 0.62960 0.65490
H54 H 0.56060 0.74730 0.54510
H55 H 0.66440 0.76930 0.55650
H56 H 0.64680 0.70820 0.52780
H57 H 0.78230 0.66250 0.70560
H58 H 0.66070 0.76080 0.67400
H59 H 0.57550 0.82590 0.72340
H60 H 0.63290 0.83430 0.81030
H61 H 0.61390 0.93150 0.74660
H62 H 0.78890 0.88610 0.77920
H63 H 0.77580 0.94130 0.74460
H64 H 0.71820 0.86870 0.69500
H65 H 0.81840 0.84260 0.71110
H66 H 0.68500 1.06830 0.80440
H67 H 0.71160 1.03170 0.76150
H68 H 0.56090 1.10550 0.76290
H69 H 0.55690 1.03980 0.73620
H70 H 0.42790 1.02320 0.78430
H71 H 0.42150 0.93060 0.83440
H72 H 0.48390 0.84460 0.92160
H73 H 0.40210 0.88990 0.90400
H74 H 0.42810 0.82380 0.87920
H75 H 0.70310 0.99150 0.86380
H76 H 0.70550 0.91670 0.85250
H77 H 0.78040 0.96550 0.83110
H78 H 0.46900 0.82480 0.80870
H79 H 0.46270 0.88050 0.77280
H80 H 0.57060 0.71790 0.78100
H81 H 0.48800 0.74060 0.75020
H82 H 0.62760 0.65640 0.72800
H83 H 0.55710 0.68930 0.69490
H84 H 0.76970 0.78080 0.79480
H85 H 0.74090 0.71250 0.77660
H86 H 0.83160 0.74780 0.75930
H87 H 0.87970 0.74910 0.69010
H88 H 0.83050 0.76170 0.64640
H89 H 0.89390 0.69970 0.65320
H90 H 0.76860 0.41200 0.68800
H91 H 0.76100 0.38290 0.64110
H92 H 0.86000 0.40180 0.66030
H93 H 0.45800 1.03990 0.86080
H94 H 0.55990 1.07070 0.85140
C63 C 0.5146(2) 0.40680(18) 0.33105(10)
C64 C 0.5049(2) 0.35341(17) 0.36434(10)
C65 C 0.4041(2) 0.34845(15) 0.38205(9)
C66 C 0.3966(2) 0.29845(14) 0.41821(9)
C67 C 0.2959(2) 0.28986(14) 0.43641(9)
C68 C 0.3152(2) 0.23661(15) 0.47033(9)
C69 C 0.3890(2) 0.19093(16) 0.44863(10)
C70 C 0.4317(2) 0.22933(15) 0.41065(10)
C71 C 0.2314(2) 0.19808(16) 0.48933(10)
C72 C 0.2692(3) 0.15066(16) 0.52353(9)
O13 O 0.2884(2) 0.18838(12) 0.56191(7)
C73 C 0.1999(3) 0.09798(16) 0.53731(9)
O14 O 0.2451(2) 0.06066(13) 0.57062(7)
N3 N 0.2413(2) -0.00647(15) 0.56103(9)
C74 C 0.2018(2) -0.01458(17) 0.52465(9)
C75 C 0.1890(3) -0.08057(17) 0.50668(12)
C76 C 0.1511(3) 0.24072(19) 0.50694(13)
C77 C 0.2254(2) 0.26429(16) 0.40298(10)
C78 C 0.2636(2) 0.35641(15) 0.45336(10)
C79 C 0.2709(2) 0.40805(16) 0.41875(10)
C80 C 0.3707(2) 0.41501(15) 0.39947(9)
C81 C 0.3789(2) 0.47199(17) 0.36746(10)
C82 C 0.4781(2) 0.47016(17) 0.34763(10)
C83 C 0.5423(3) 0.5146(2) 0.37258(11)
C84 C 0.4830(3) 0.5460(2) 0.40741(12)
C85 C 0.3808(3) 0.53684(18) 0.39231(12)
C86 C 0.2995(3) 0.4714(2) 0.33398(11)
C87 C 0.0691(3) 0.05039(18) 0.49077(9)
O15 O 0.0130(2) 0.08953(17) 0.50343(9)
O16 O 0.0485(2) 0.00209(15) 0.46419(8)
C88 C 0.1733(2) 0.04828(16) 0.50306(9)
C89 C -0.0489(3) -0.0059(3) 0.45167(13)
O17 O 0.46275(19) 0.39147(13) 0.29289(7)
O18 O 0.4469(2) 0.17212(16) 0.55842(9)
C90 C 0.5161(3) 0.53161(19) 0.32756(11)
C91 C 0.3779(3) 0.19352(19) 0.57640(11)
C92 C 0.5123(4) 0.3507(2) 0.26494(13)
C93 C 0.3792(4) 0.2327(2) 0.61681(12)
H95 H 0.58250 0.40990 0.32420
H96 H 0.54570 0.36320 0.38770
H97 H 0.52170 0.31220 0.35160
H98 H 0.36360 0.33370 0.35860
H99 H 0.43590 0.31840 0.44010
H100 H 0.34670 0.25740 0.49450
H101 H 0.43660 0.17920 0.46920
H102 H 0.35600 0.15270 0.43870
H103 H 0.50210 0.22780 0.41050
H104 H 0.41020 0.21230 0.38390
H105 H 0.20650 0.17140 0.46610
H106 H 0.32820 0.13180 0.51420
H107 H 0.14070 0.11750 0.54880
H108 H 0.21080 -0.08100 0.47680
H109 H 0.12300 -0.09270 0.50670
H110 H 0.22720 -0.11030 0.52170
H111 H 0.10520 0.21380 0.51930
H112 H 0.17660 0.27020 0.52750
H113 H 0.12080 0.26640 0.48450
H114 H 0.16280 0.26390 0.41500
H115 H 0.24110 0.22060 0.39360
H116 H 0.22670 0.29370 0.37920
H117 H 0.30550 0.36840 0.47680
H118 H 0.19870 0.35340 0.46370
H119 H 0.24990 0.44940 0.42920
H120 H 0.23040 0.39390 0.39530
H121 H 0.41290 0.42580 0.42350
H122 H 0.60960 0.50240 0.37820
H123 H 0.49180 0.52130 0.43370
H124 H 0.49900 0.59160 0.41120
H125 H 0.33590 0.53380 0.41560
H126 H 0.36250 0.57180 0.37240
H127 H 0.31950 0.49950 0.31110
H128 H 0.24040 0.48690 0.34660
H129 H 0.29010 0.42730 0.32340
H130 H 0.21290 0.05600 0.47740
H131 H -0.05480 -0.04960 0.43900
H132 H -0.08750 -0.00370 0.47660
H133 H -0.06570 0.02580 0.43060
H134 H 0.47360 0.56560 0.32040
H135 H 0.56740 0.52770 0.30550
H136 H 0.47780 0.34740 0.23810
H137 H 0.52070 0.30800 0.27760
H138 H 0.57450 0.37150 0.25870
H139 H 0.43650 0.22650 0.63150
H140 H 0.32640 0.22070 0.63500
H141 H 0.37380 0.27980 0.61030
#END
