
#######################################################################
#
#                 Cambridge Crystallographic Data Centre
#                                CCDC
#
#######################################################################
#
# If this CIF has been generated from an entry in the Cambridge
# Structural Database, then it will include bibliographic, chemical,
# crystal, experimental, refinement or atomic coordinate data resulting
# from the CCDC's data processing and validation procedures.
#
#######################################################################

data_CSD_CIF_ZIRHUF
_audit_creation_date 2014-01-09
_audit_creation_method CSD-ConQuest-V1
_database_code_CSD ZIRHUF
_database_code_depnum_ccdc_archive 'CCDC 890639'
_chemical_formula_sum 'C30 H45 N1 O6'
_chemical_formula_moiety
;
C30 H45 N1 O6
;
_journal_coden_Cambridge 200
_journal_volume 78
_journal_year 2013
_journal_page_first 823
_journal_name_full 'Steroids '
loop_
_publ_author_name
"H.Zhylitskaya"
"R.Litvinovskaya"
"A.Baranovsky"
"V.Eigner"
"B.Kratochvil"
"P.Drasar"
"V.Khripach"
_chemical_name_systematic
;
Methyl 
5-(1-acetoxy-2-(3-hydroxy-10,13-dimethyl-2,3,4,7,8,9,10,11,12,13,14,15,16,17-t
etradecahydro-1H-cyclopenta[a]phenanthren-17-yl)propyl)-3-methyl-4,5-dihydro-1
,2-oxazole-4-carboxylate
;
_cell_volume   8559.447
_exptl_crystal_colour 'colorless'
_exptl_crystal_density_diffrn 1.2
_exptl_special_details
;
Absolute configuration

;
_exptl_crystal_description 'prism'
_diffrn_ambient_temperature 150
#These two values have been output from a single CSD field.
_refine_ls_R_factor_gt 0.0379
_refine_ls_wR_factor_gt 0.0379
_symmetry_cell_setting orthorhombic
_symmetry_space_group_name_H-M 'P 21 21 21'
_symmetry_Int_Tables_number 19
loop_
_symmetry_equiv_pos_site_id
_symmetry_equiv_pos_as_xyz
1 x,y,z
2 1/2+x,1/2-y,-z
3 -x,1/2+y,1/2-z
4 1/2-x,-y,1/2+z
_cell_length_a 12.2885(5)
_cell_length_b 18.7343(7)
_cell_length_c 37.1800(15)
_cell_angle_alpha 90
_cell_angle_beta 90
_cell_angle_gamma 90
_cell_formula_units_Z 12
loop_
_atom_type_symbol
_atom_type_radius_bond
C 0.68
H 0.23
N 0.68
O 0.68
loop_
_atom_site_label
_atom_site_type_symbol
_atom_site_fract_x
_atom_site_fract_y
_atom_site_fract_z
O1 O 0.08610(11) 0.24940(7) 0.43105(3)
C1 C 0.00936(14) 0.28428(8) 0.44892(4)
O2 O -0.08608(11) 0.28591(7) 0.44084(4)
C2 C 0.05736(13) 0.32722(8) 0.47957(4)
C3 C 0.10574(13) 0.39786(8) 0.46552(4)
O3 O 0.2111(1) 0.40368(6) 0.48265(4)
N1 N 0.23739(12) 0.33781(8) 0.49910(4)
C4 C 0.15617(14) 0.29546(9) 0.49747(4)
C5 C 0.15973(18) 0.2235(1) 0.51451(6)
C6 C 0.03954(13) 0.46402(8) 0.47485(4)
O4 O -0.05884(9) 0.45921(6) 0.45335(3)
C7 C -0.15325(13) 0.43978(9) 0.46939(5)
O5 O -0.16186(11) 0.42675(8) 0.50092(3)
C8 C -0.24288(16) 0.43786(12) 0.44238(6)
C9 C 0.09611(14) 0.53445(8) 0.46575(5)
C10 C 0.03291(13) 0.59729(8) 0.48225(4)
C11 C 0.08085(13) 0.67323(8) 0.47709(4)
C12 C 0.01845(13) 0.71489(8) 0.50620(4)
C13 C 0.05070(13) 0.79329(8) 0.50973(4)
C14 C 0.02991(13) 0.83017(8) 0.47334(4)
C15 C 0.06015(14) 0.91065(8) 0.47331(4)
C16 C 0.01313(15) 0.94647(9) 0.50656(5)
C17 C -0.01884(17) 0.9098(1) 0.53552(5)
C18 C -0.01320(15) 0.83026(9) 0.53940(4)
C19 C 0.00526(19) 1.02669(9) 0.50550(5)
C20 C -0.05034(15) 1.05459(9) 0.47184(5)
O6 O -0.04853(11) 1.13109(7) 0.47122(4)
C21 C 0.00885(18) 1.02681(9) 0.43935(5)
C22 C 0.00940(19) 0.94489(9) 0.43953(5)
C23 C 0.18427(17) 0.92250(11) 0.47283(8)
C24 C 0.0837(2) 0.78918(10) 0.44218(5)
C25 C 0.0552(2) 0.70928(9) 0.44113(5)
C26 C 0.0247(2) 0.66699(10) 0.53923(5)
C27 C 0.01972(17) 0.59021(9) 0.52382(5)
C28 C 0.20321(16) 0.67200(11) 0.48467(7)
C29 C 0.11372(19) 0.54144(10) 0.42492(5)
C30 C 0.0494(2) 0.21062(11) 0.39965(5)
H1 H -0.00230 0.33590 0.49780
H2 H 0.11620 0.39490 0.43910
H3 H 0.23410 0.21420 0.52300
H4 H 0.13970 0.18790 0.49690
H5 H 0.11000 0.22060 0.53400
H6 H 0.01860 0.46320 0.50080
H7 H -0.30060 0.40770 0.45120
H8 H -0.21940 0.42290 0.41890
H9 H -0.27260 0.48550 0.44020
H10 H 0.16790 0.53260 0.47730
H11 H -0.04030 0.59610 0.47110
H12 H -0.05720 0.71550 0.49770
H13 H 0.13250 0.79720 0.51430
H14 H -0.05120 0.82850 0.46950
H15 H -0.04990 0.93520 0.55510
H16 H -0.08800 0.81000 0.54030
H17 H 0.02260 0.81970 0.56230
H18 H -0.03420 1.04270 0.52650
H19 H 0.07970 1.04570 0.50550
H20 H -0.12850 1.03820 0.47050
H21 H -0.02590 1.04470 0.41670
H22 H 0.08470 1.04490 0.43990
H23 H -0.06630 0.92760 0.43900
H24 H 0.05000 0.92540 0.41830
H25 H 0.19850 0.97390 0.47540
H26 H 0.21670 0.90450 0.45020
H27 H 0.21760 0.89730 0.49280
H28 H 0.06070 0.81040 0.41890
H29 H 0.16410 0.79480 0.44430
H30 H -0.02400 0.70310 0.43700
H31 H 0.09580 0.68540 0.42080
H32 H -0.03410 0.67610 0.55600
H33 H 0.09410 0.67480 0.55200
H34 H -0.05230 0.56740 0.52930
H35 H 0.07960 0.56070 0.53370
H36 H 0.23330 0.71970 0.48510
H37 H 0.24050 0.64530 0.46630
H38 H 0.21810 0.64870 0.50740
H39 H 0.16550 0.58110 0.42010
H40 H 0.04390 0.55280 0.41230
H41 H 0.14380 0.49680 0.41590
H42 H 0.11180 0.18840 0.38920
H43 H -0.00380 0.17490 0.40580
H44 H 0.01710 0.24350 0.38300
H45 H -0.10990 1.14770 0.47870
O7 O 0.52121(10) 0.19894(7) 0.39584(3)
C31 C 0.41584(15) 0.18112(10) 0.39429(5)
O8 O 0.37047(12) 0.16253(9) 0.36691(4)
C32 C 0.36185(18) 0.18692(15) 0.43030(6)
C33 C 0.58728(14) 0.19451(9) 0.36333(5)
C34 C 0.67172(14) 0.13432(9) 0.36720(5)
C35 C 0.61801(13) 0.06196(9) 0.35840(4)
C36 C 0.69044(13) -0.00655(9) 0.35810(4)
C37 C 0.61418(13) -0.05782(9) 0.33763(4)
C38 C 0.57567(16) -0.01454(9) 0.30526(5)
C39 C 0.56471(15) 0.06194(9) 0.32023(5)
C40 C 0.65809(14) -0.13243(9) 0.33079(4)
C41 C 0.69294(13) -0.16721(9) 0.36659(4)
C42 C 0.76302(15) -0.11690(9) 0.38956(5)
C43 C 0.71376(15) -0.04190(9) 0.39446(5)
C44 C 0.74464(14) -0.24230(9) 0.36076(5)
C45 C 0.67504(14) -0.28571(9) 0.33473(4)
C46 C 0.69766(17) -0.36509(10) 0.33281(5)
C47 C 0.69653(18) -0.40035(10) 0.36965(5)
O9 O 0.72805(15) -0.47366(7) 0.36591(4)
C48 C 0.77360(18) -0.36185(10) 0.39461(6)
C49 C 0.74582(17) -0.28223(10) 0.39731(5)
C50 C 0.59731(16) -0.25648(9) 0.31431(5)
C51 C 0.57039(15) -0.17863(9) 0.31337(5)
C52 C 0.86097(16) -0.23725(11) 0.34583(6)
C53 C 0.79677(15) 0.00817(10) 0.33767(5)
C54 C 0.72832(17) 0.13712(11) 0.40370(6)
C55 C 0.63510(14) 0.26923(9) 0.35859(5)
O10 O 0.71794(11) 0.26605(7) 0.33113(4)
N2 N 0.71360(14) 0.32978(9) 0.31038(5)
C56 C 0.62621(15) 0.36349(10) 0.31786(5)
C57 C 0.55418(14) 0.32494(9) 0.34432(4)
C58 C 0.50734(14) 0.37099(9) 0.37379(5)
O11 O 0.41008(11) 0.34662(7) 0.38365(4)
C59 C 0.36109(18) 0.37945(13) 0.41494(5)
O12 O 0.55256(13) 0.42166(8) 0.38752(4)
C60 C 0.59637(18) 0.43086(10) 0.29903(5)
H46 H 0.28490 0.19950 0.42740
H47 H 0.36820 0.14110 0.44180
H48 H 0.39700 0.22200 0.44560
H49 H 0.53800 0.18410 0.34340
H50 H 0.72800 0.14240 0.34800
H51 H 0.55930 0.05330 0.37570
H52 H 0.54930 -0.06450 0.35400
H53 H 0.50430 -0.03290 0.29620
H54 H 0.62960 -0.01760 0.28580
H55 H 0.60030 0.09610 0.30320
H56 H 0.48760 0.07660 0.32320
H57 H 0.72160 -0.12880 0.31360
H58 H 0.62620 -0.17590 0.38040
H59 H 0.83340 -0.11070 0.37780
H60 H 0.77690 -0.13820 0.41270
H61 H 0.64500 -0.04500 0.40780
H62 H 0.76650 -0.01110 0.40920
H63 H 0.63870 -0.38760 0.31810
H64 H 0.76770 -0.37320 0.32100
H65 H 0.62220 -0.39850 0.37910
H66 H 0.84550 -0.36820 0.38280
H67 H 0.77230 -0.38260 0.41850
H68 H 0.67520 -0.27840 0.40820
H69 H 0.79620 -0.25870 0.41260
H70 H 0.55850 -0.28690 0.29940
H71 H 0.55920 -0.16280 0.28830
H72 H 0.50180 -0.16810 0.32710
H73 H 0.88740 -0.28380 0.33900
H74 H 0.86790 -0.20570 0.32540
H75 H 0.90900 -0.22000 0.36470
H76 H 0.83310 -0.03620 0.33110
H77 H 0.78710 0.03400 0.31530
H78 H 0.84720 0.03460 0.35330
H79 H 0.79330 0.10600 0.40350
H80 H 0.67920 0.12200 0.42290
H81 H 0.75240 0.18510 0.40890
H82 H 0.66840 0.28520 0.38190
H83 H 0.49170 0.30100 0.33170
H84 H 0.28660 0.36150 0.41690
H85 H 0.36140 0.43160 0.41280
H86 H 0.40120 0.36420 0.43680
H87 H 0.57810 0.46830 0.31600
H88 H 0.53610 0.42230 0.28310
H89 H 0.65830 0.44460 0.28560
H90 H 0.67730 -0.50140 0.37310
O13 O 0.08539(10) 0.40581(7) 0.31685(3)
C61 C 0.19937(15) 0.41647(9) 0.30816(4)
C62 C 0.23406(15) 0.35551(10) 0.28354(5)
O14 O 0.35101(12) 0.36090(8) 0.27923(4)
N3 N 0.39141(14) 0.29055(10) 0.27271(4)
C63 C 0.31800(15) 0.24544(10) 0.28160(4)
C64 C 0.21851(14) 0.27987(9) 0.29796(4)
C65 C 0.11344(15) 0.2449(1) 0.28599(4)
O15 O 0.04822(11) 0.23133(7) 0.31351(3)
C66 C -0.05027(18) 0.19324(13) 0.30528(6)
O16 O 0.09344(13) 0.22993(11) 0.25525(4)
C67 C 0.33390(18) 0.16753(11) 0.27639(5)
C68 C 0.21094(17) 0.49057(10) 0.29045(4)
C69 C 0.21788(14) 0.54917(9) 0.31961(4)
C70 C 0.22664(14) 0.62820(9) 0.30727(4)
C71 C 0.26610(14) 0.66338(9) 0.34245(4)
C72 C 0.35645(16) 0.6144(1) 0.35583(5)
C73 C 0.31807(16) 0.53904(10) 0.34471(5)
C74 C 0.28911(14) 0.74356(9) 0.33917(4)
C75 C 0.18638(14) 0.78270(9) 0.32612(4)
C76 C 0.20645(14) 0.86379(9) 0.31973(5)
C77 C 0.27217(14) 0.89527(9) 0.35073(4)
C78 C 0.32211(15) 0.85524(10) 0.37535(5)
C79 C 0.32702(15) 0.77512(10) 0.37491(4)
C80 C 0.27906(16) 0.97597(10) 0.35205(5)
C81 C 0.16735(16) 1.01198(10) 0.34908(5)
O17 O 0.17604(13) 1.08785(8) 0.34561(5)
C82 C 0.10606(16) 0.98456(10) 0.31691(6)
C83 C 0.09544(15) 0.90309(10) 0.31835(6)
C84 C 0.26867(16) 0.87681(10) 0.28441(5)
C85 C 0.13445(16) 0.74598(10) 0.29341(5)
C86 C 0.11865(15) 0.66508(10) 0.29760(5)
C87 C 0.31082(17) 0.63523(10) 0.27708(5)
C88 C 0.1198(2) 0.50241(11) 0.26289(5)
O18 O 0.12536(13) 0.37963(9) 0.37423(4)
C89 C -0.06146(18) 0.38965(13) 0.35602(6)
C90 C 0.05836(16) 0.39066(9) 0.35101(5)
H91 H 0.24070 0.41460 0.33100
H92 H 0.19960 0.36080 0.26020
H93 H 0.22210 0.27950 0.32450
H94 H -0.08730 0.18490 0.32750
H95 H -0.03010 0.14920 0.29430
H96 H -0.09610 0.22060 0.28840
H97 H 0.32030 0.14210 0.29860
H98 H 0.28540 0.15020 0.25760
H99 H 0.40840 0.15990 0.26880
H100 H 0.28170 0.48960 0.27630
H101 H 0.15240 0.54410 0.33420
H102 H 0.20320 0.65970 0.35990
H103 H 0.42540 0.62750 0.34430
H104 H 0.36660 0.61790 0.38230
H105 H 0.37740 0.51520 0.33130
H106 H 0.29750 0.51160 0.36620
H107 H 0.34880 0.75240 0.32120
H108 H 0.13500 0.77880 0.34640
H109 H 0.35880 0.87990 0.39500
H110 H 0.28390 0.75510 0.39520
H111 H 0.40250 0.76060 0.37890
H112 H 0.32230 0.99170 0.33200
H113 H 0.31570 0.99130 0.37470
H114 H 0.12320 1.00170 0.37080
H115 H 0.14790 0.99770 0.29460
H116 H 0.03360 1.00690 0.31580
H117 H 0.05600 0.88710 0.29650
H118 H 0.05270 0.88940 0.33960
H119 H 0.29140 0.92660 0.28240
H120 H 0.22240 0.86790 0.26310
H121 H 0.33610 0.84780 0.28210
H122 H 0.17970 0.75410 0.27260
H123 H 0.06340 0.76770 0.28890
H124 H 0.09160 0.64630 0.27410
H125 H 0.06510 0.65480 0.31660
H126 H 0.33060 0.68460 0.27200
H127 H 0.28560 0.61570 0.25460
H128 H 0.37750 0.60950 0.28260
H129 H 0.13560 0.54470 0.24930
H130 H 0.11140 0.46280 0.24650
H131 H 0.05200 0.51020 0.27560
H132 H -0.08090 0.36800 0.37920
H133 H -0.09640 0.36230 0.33680
H134 H -0.08840 0.43800 0.35510
H135 H 0.22400 1.10290 0.36050
#END
