
#######################################################################
#
#                 Cambridge Crystallographic Data Centre
#                                CCDC
#
#######################################################################
#
# If this CIF has been generated from an entry in the Cambridge
# Structural Database, then it will include bibliographic, chemical,
# crystal, experimental, refinement or atomic coordinate data resulting
# from the CCDC's data processing and validation procedures.
#
#######################################################################

data_CSD_CIF_ZITHER
_audit_creation_date 2014-01-10
_audit_creation_method CSD-ConQuest-V1
_database_code_CSD ZITHER
_database_code_depnum_ccdc_archive 'CCDC 955356'
_chemical_formula_sum 'C10 H17 N1 O1'
_chemical_formula_moiety
;
C10 H17 N1 O1
;
_journal_coden_Cambridge 179
_journal_volume 52
_journal_year 2013
_journal_page_first 12624
_journal_name_full 'Angew.Chem.,Int.Ed. '
loop_
_publ_author_name
"Y.Sasano"
"K.Murakami"
"T.Nishiyama"
"E.Kwon Y.Iwabuchi"
_chemical_name_systematic
;
3-Methyl-4-oxa-5-azatricyclo[4.3.1.1^3,8^]undecane
;
_cell_volume    917.312
_exptl_crystal_colour 'colorless'
_exptl_crystal_density_diffrn 1.211
_exptl_crystal_description 'block'
_diffrn_ambient_temperature 150
#These two values have been output from a single CSD field.
_refine_ls_R_factor_gt 0.0394
_refine_ls_wR_factor_gt 0.0394
_symmetry_cell_setting orthorhombic
_symmetry_space_group_name_H-M 'P 21 21 21'
_symmetry_Int_Tables_number 19
loop_
_symmetry_equiv_pos_site_id
_symmetry_equiv_pos_as_xyz
1 x,y,z
2 1/2+x,1/2-y,-z
3 -x,1/2+y,1/2-z
4 1/2-x,-y,1/2+z
_cell_length_a 6.5461(13)
_cell_length_b 10.139(2)
_cell_length_c 13.821(3)
_cell_angle_alpha 90
_cell_angle_beta 90
_cell_angle_gamma 90
_cell_formula_units_Z 4
loop_
_atom_type_symbol
_atom_type_radius_bond
C 0.68
H 0.23
N 0.68
O 0.68
loop_
_atom_site_label
_atom_site_type_symbol
_atom_site_fract_x
_atom_site_fract_y
_atom_site_fract_z
O1 O 0.2018(2) 0.27785(12) 0.94510(9)
N1 N 0.2596(3) 0.32251(16) 1.04017(11)
C1 C 0.2564(3) 0.35682(18) 0.85921(13)
C2 C 0.4472(3) 0.4437(2) 0.87190(14)
C3 C 0.4167(3) 0.5742(2) 0.92753(15)
C4 C 0.0658(3) 0.4383(3) 0.83514(14)
C5 C 0.0402(3) 0.5545(2) 0.90479(15)
C6 C 0.2244(3) 0.64630(19) 0.89257(17)
C7 C 0.2152(3) 0.46322(18) 1.06016(14)
C8 C 0.0177(3) 0.5112(2) 1.01196(15)
C9 C 0.3971(3) 0.5531(2) 1.03692(15)
C10 C 0.2965(4) 0.2505(3) 0.78329(16)
H1 H 0.50050 0.46440 0.80820
H2 H 0.55040 0.39230 0.90530
H3 H 0.53520 0.63100 0.91550
H4 H 0.07650 0.47130 0.76950
H5 H -0.05400 0.38220 0.83870
H6 H -0.08310 0.60310 0.88630
H7 H 0.20420 0.72610 0.93010
H8 H 0.23940 0.67070 0.82510
H9 H 0.19290 0.47000 1.13010
H10 H -0.03510 0.58510 1.04890
H11 H -0.08270 0.44100 1.01530
H12 H 0.37880 0.63750 1.06870
H13 H 0.52160 0.51350 1.06150
H14 H 0.41890 0.20340 0.79960
H15 H 0.31240 0.29100 0.72100
H16 H 0.18340 0.19030 0.78160
H17 H 0.39960 0.31000 1.04070
#END
