
#######################################################################
#
#                 Cambridge Crystallographic Data Centre
#                                CCDC
#
#######################################################################
#
# If this CIF has been generated from an entry in the Cambridge
# Structural Database, then it will include bibliographic, chemical,
# crystal, experimental, refinement or atomic coordinate data resulting
# from the CCDC's data processing and validation procedures.
#
#######################################################################

data_CSD_CIF_ZIVBUB
_audit_creation_date 1996-04-05
_audit_creation_method CSD-ConQuest-V1
_database_code_CSD ZIVBUB
_database_code_depnum_ccdc_archive 'CCDC 126274'
_chemical_formula_sum 'C9 H8 N2 O4'
_chemical_formula_moiety
;
C9 H8 N2 O4
;
_journal_coeditor_code "IUCr TA1035"
_journal_coden_Cambridge 591
_journal_volume 52
_journal_year 1996
_journal_page_first 101
_journal_name_full 'Acta Crystallogr.,Sect.C:Cryst.Struct.Commun. '
loop_
_publ_author_name
"J.M.Waters"
"T.M.Kitson"
_chemical_name_systematic
;
3,4-Dihydro-3-methyl-6-nitro-2H-1,3-benzoxazin-2-one
;
_cell_volume    890.367
_exptl_crystal_colour 'colorless'
_exptl_crystal_density_diffrn 1.553
_exptl_special_details
;
enzyme modification activity
light-sensitive

;
_diffrn_ambient_temperature ?
_diffrn_special_details
;
The study was carried out at room temperature,in the range 283-303K

;
#These two values have been output from a single CSD field.
_refine_ls_R_factor_gt 0.0421
_refine_ls_wR_factor_gt 0.0421
_symmetry_cell_setting monoclinic
_symmetry_space_group_name_H-M 'P 21/n'
_symmetry_Int_Tables_number 14
loop_
_symmetry_equiv_pos_site_id
_symmetry_equiv_pos_as_xyz
1 x,y,z
2 1/2-x,1/2+y,1/2-z
3 -x,-y,-z
4 -1/2+x,-1/2-y,-1/2+z
_cell_length_a 6.042(2)
_cell_length_b 13.688(3)
_cell_length_c 10.904(3)
_cell_angle_alpha 90
_cell_angle_beta 99.13(3)
_cell_angle_gamma 90
_cell_formula_units_Z 4
loop_
_atom_type_symbol
_atom_type_radius_bond
C 0.68
H 0.23
N 0.68
O 0.68
loop_
_atom_site_label
_atom_site_type_symbol
_atom_site_fract_x
_atom_site_fract_y
_atom_site_fract_z
O1 O 0.1808(3) 0.88314(15) -0.0110(2)
O2 O 0.1950(4) 0.7902(2) 0.1532(2)
O3 O 0.7480(5) 1.0376(2) -0.4017(2)
O4 O 0.4800(5) 1.1432(2) -0.4219(3)
N1 N 0.4784(4) 0.7771(2) 0.0407(2)
N2 N 0.5738(5) 1.0700(2) -0.3746(2)
C1 C 0.2856(4) 0.9274(2) -0.1004(2)
C2 C 0.4805(4) 0.8899(2) -0.1319(2)
C3 C 0.5747(4) 0.9373(2) -0.2230(2)
H1 H 0.7066(4) 0.9141(2) -0.2463(2)
C4 C 0.4712(5) 1.0191(2) -0.2787(3)
C5 C 0.2761(5) 1.0557(2) -0.2472(3)
H2 H 0.2094(5) 1.1111(2) -0.2863(3)
C6 C 0.1811(5) 1.0090(2) -0.1567(3)
H3 H 0.0487(5) 1.0321(2) -0.1339(3)
C7 C 0.2874(5) 0.8123(2) 0.0672(3)
C8 C 0.5810(5) 0.7999(2) -0.0684(3)
H4 H 0.5598(5) 0.7454(2) -0.1258(3)
H5 H 0.7409(5) 0.8095(2) -0.0433(3)
C9 C 0.5890(6) 0.7005(3) 0.1199(3)
H6 H 0.7243(6) 0.6815(3) 0.0906(3)
H7 H 0.4910(6) 0.6450(3) 0.1179(3)
H8 H 0.6247(6) 0.7242(3) 0.2035(3)
#END
