
#######################################################################
#
#                 Cambridge Crystallographic Data Centre
#                                CCDC
#
#######################################################################
#
# If this CIF has been generated from an entry in the Cambridge
# Structural Database, then it will include bibliographic, chemical,
# crystal, experimental, refinement or atomic coordinate data resulting
# from the CCDC's data processing and validation procedures.
#
#######################################################################

data_CSD_CIF_ZIVMIA
_audit_creation_date 1996-04-05
_audit_creation_method CSD-ConQuest-V1
_database_code_CSD ZIVMIA
_database_code_depnum_ccdc_archive 'CCDC 126196'
_chemical_formula_sum 'C5 H3 N1 O5'
_chemical_formula_moiety
;
C5 H3 N1 O5
;
_journal_coeditor_code "IUCr CF1029"
_journal_coden_Cambridge 591
_journal_volume 52
_journal_year 1996
_journal_page_first 188
_journal_name_full 'Acta Crystallogr.,Sect.C:Cryst.Struct.Commun. '
loop_
_publ_author_name
"N.W.Alcock"
"W.Errington"
"T.J.Kemp"
"J.Leciejewicz"
_chemical_name_systematic
;
5-Nitro-2-furancarboxylic acid
;
_cell_volume   1230.127
_exptl_crystal_colour 'colorless'
_exptl_crystal_density_diffrn 1.696
_diffrn_ambient_temperature 220
#These two values have been output from a single CSD field.
_refine_ls_R_factor_gt 0.0355
_refine_ls_wR_factor_gt 0.0355
_symmetry_cell_setting monoclinic
_symmetry_space_group_name_H-M 'C 2/c'
_symmetry_Int_Tables_number 15
loop_
_symmetry_equiv_pos_site_id
_symmetry_equiv_pos_as_xyz
1 x,y,z
2 -x,y,1/2-z
3 1/2+x,1/2+y,z
4 1/2-x,1/2+y,1/2-z
5 -x,-y,-z
6 x,-y,-1/2+z
7 -1/2-x,-1/2-y,-z
8 -1/2+x,-1/2-y,-1/2+z
_cell_length_a 22.162(17)
_cell_length_b 5.565(4)
_cell_length_c 10.570(11)
_cell_angle_alpha 90
_cell_angle_beta 109.33(7)
_cell_angle_gamma 90
_cell_formula_units_Z 8
loop_
_atom_type_symbol
_atom_type_radius_bond
C 0.68
H 0.23
N 0.68
O 0.68
loop_
_atom_site_label
_atom_site_type_symbol
_atom_site_fract_x
_atom_site_fract_y
_atom_site_fract_z
O1 O 0.37829(5) 0.0838(2) 0.85350(11)
O2 O 0.32206(7) 0.4750(2) 0.88946(13)
O3 O 0.27026(7) 0.5054(2) 0.67691(14)
O4 O 0.46017(7) -0.4518(3) 0.83946(13)
O5 O 0.46085(6) -0.2286(3) 1.01629(12)
H1 H 0.4875(11) -0.3497(44) 1.0702(23)
N1 N 0.30843(7) 0.4061(3) 0.77363(14)
C1 C 0.44395(8) -0.2734(3) 0.8913(2)
C2 C 0.40099(8) -0.1051(3) 0.8002(2)
C3 C 0.37659(9) -0.1025(4) 0.6649(2)
H2 H 0.3864(10) -0.2190(39) 0.6082(20)
C4 C 0.33612(9) 0.0977(4) 0.6292(2)
H3 H 0.3127(9) 0.1473(40) 0.5440(21)
C5 C 0.33927(8) 0.2000(3) 0.7461(2)
#END
