
#######################################################################
#
#                 Cambridge Crystallographic Data Centre
#                                CCDC
#
#######################################################################
#
# If this CIF has been generated from an entry in the Cambridge
# Structural Database, then it will include bibliographic, chemical,
# crystal, experimental, refinement or atomic coordinate data resulting
# from the CCDC's data processing and validation procedures.
#
#######################################################################

data_CSD_CIF_ZIVXIN
_audit_creation_date 2014-01-13
_audit_creation_method CSD-ConQuest-V1
_database_code_CSD ZIVXIN
_database_code_depnum_ccdc_archive 'CCDC 975708'
_chemical_formula_sum 'C15 H14 N2 O6'
_chemical_formula_moiety
;
C15 H14 N2 O6
;
_journal_coden_Cambridge 1078
_journal_year 2013
_journal_name_full 'CSD Communication(Private Communication) '
loop_
_publ_author_name
"J.Gabriel Garcia"
"F.R.Fronczek"
_chemical_name_systematic
;
2,2-dimethyl-5-((5-nitro-1H-indol-3-yl)methyl)-1,3-dioxane-4,6-dione
;
_cell_volume   2808.290
_exptl_crystal_colour 'yellow'
_exptl_crystal_density_diffrn 1.506
_exptl_special_details
;
contribution from Department of Chemistry, Louisiana State University, Baton 
Rouge, LA, 70803, USA
;
_exptl_crystal_description 'prism'
_exptl_crystal_preparation 'ethyl acetate'
_diffrn_ambient_temperature 90
#These two values have been output from a single CSD field.
_refine_ls_R_factor_gt 0.0315
_refine_ls_wR_factor_gt 0.0315
_symmetry_cell_setting monoclinic
_symmetry_space_group_name_H-M 'C 2/c'
_symmetry_Int_Tables_number 15
loop_
_symmetry_equiv_pos_site_id
_symmetry_equiv_pos_as_xyz
1 x,y,z
2 -x,y,1/2-z
3 1/2+x,1/2+y,z
4 1/2-x,1/2+y,1/2-z
5 -x,-y,-z
6 x,-y,-1/2+z
7 -1/2-x,-1/2-y,-z
8 -1/2+x,-1/2-y,-1/2+z
_cell_length_a 26.0300(14)
_cell_length_b 7.8151(4)
_cell_length_c 14.1710(8)
_cell_angle_alpha 90
_cell_angle_beta 103.052(2)
_cell_angle_gamma 90
_cell_formula_units_Z 8
loop_
_atom_type_symbol
_atom_type_radius_bond
C 0.68
H 0.23
N 0.68
O 0.68
loop_
_atom_site_label
_atom_site_type_symbol
_atom_site_fract_x
_atom_site_fract_y
_atom_site_fract_z
O1 O 0.42319(3) 1.01029(11) 0.26722(6)
O2 O 0.35884(3) 0.88275(13) 0.31242(7)
O3 O 0.71544(3) 0.66711(11) 0.56560(6)
O4 O 0.57698(3) 0.63472(10) 0.29825(6)
O5 O 0.71199(3) 0.46345(11) 0.45755(6)
O6 O 0.64173(3) 0.44934(10) 0.31942(6)
N1 N 0.55392(4) 0.63018(13) 0.62347(8)
H1 H 0.5518(6) 0.568(2) 0.6713(12)
N2 N 0.40638(4) 0.91605(14) 0.32271(7)
C1 C 0.59962(5) 0.67476(15) 0.59616(8)
H2 H 0.63420 0.64720 0.63150
C2 C 0.58834(4) 0.76404(15) 0.51131(8)
C3 C 0.53175(5) 0.77551(14) 0.48353(8)
C4 C 0.51179(5) 0.69141(14) 0.55643(8)
C5 C 0.45782(5) 0.68323(15) 0.55410(9)
H3 H 0.44520 0.62880 0.60440
C6 C 0.42361(5) 0.75673(16) 0.47640(9)
H4 H 0.38670 0.75230 0.47180
C7 C 0.44363(5) 0.83845(15) 0.40383(9)
C8 C 0.49680(5) 0.85066(15) 0.40538(9)
H5 H 0.50900 0.90770 0.35540
C9 C 0.62618(4) 0.84517(15) 0.45830(8)
H6 H 0.65150 0.91650 0.50460
H7 H 0.60610 0.92210 0.40770
C10 C 0.65740(4) 0.71772(15) 0.41038(8)
H8 H 0.67810 0.78730 0.37270
C11 C 0.69726(4) 0.61746(15) 0.48459(8)
C12 C 0.62176(4) 0.60170(15) 0.33813(8)
C13 C 0.69670(4) 0.41017(16) 0.35744(8)
C14 C 0.70012(5) 0.21788(17) 0.35819(10)
H9 H 0.67820 0.17130 0.40000
H10 H 0.73680 0.18280 0.38290
H11 H 0.68750 0.17430 0.29220
C15 C 0.73090(5) 0.49581(17) 0.29819(9)
H12 H 0.72180 0.45170 0.23180
H13 H 0.76810 0.47160 0.32700
H14 H 0.72500 0.61970 0.29740
#END
