
#######################################################################
#
#                 Cambridge Crystallographic Data Centre
#                                CCDC
#
#######################################################################
#
# If this CIF has been generated from an entry in the Cambridge
# Structural Database, then it will include bibliographic, chemical,
# crystal, experimental, refinement or atomic coordinate data resulting
# from the CCDC's data processing and validation procedures.
#
#######################################################################

data_CSD_CIF_ZIWHOE
_audit_creation_date 2014-01-13
_audit_creation_method CSD-ConQuest-V1
_database_code_CSD ZIWHOE
_database_code_depnum_ccdc_archive 'CCDC 972789'
_chemical_formula_sum 'C11 H12 N2 O4'
_chemical_formula_moiety
;
C11 H12 N2 O4
;
_journal_coden_Cambridge 1078
_journal_year 2013
_journal_name_full 'CSD Communication(Private Communication) '
loop_
_publ_author_name
"J.Gabriel Garcia"
"F.R.Fronczek"
_chemical_name_systematic
;
2,2-dimethyl-4,5-dinitroindane
;
_chemical_name_common
;
2,2-dimethyl-4,5-dinitro-2,3-dihydro-1H-indene
;
_cell_volume   2182.983
_exptl_crystal_colour 'yellow'
_exptl_crystal_density_diffrn 1.438
_exptl_special_details
;
contribution from Department of Chemistry, Louisiana State University, Baton 
Rouge, LA 70803, USA
;
_exptl_crystal_description 'prism'
_diffrn_ambient_temperature 100
#These two values have been output from a single CSD field.
_refine_ls_R_factor_gt 0.036
_refine_ls_wR_factor_gt 0.036
_symmetry_cell_setting monoclinic
_symmetry_space_group_name_H-M 'P 21/c'
_symmetry_Int_Tables_number 14
loop_
_symmetry_equiv_pos_site_id
_symmetry_equiv_pos_as_xyz
1 x,y,z
2 -x,1/2+y,1/2-z
3 -x,-y,-z
4 x,-1/2-y,-1/2+z
_cell_length_a 8.931(2)
_cell_length_b 15.089(3)
_cell_length_c 16.784(4)
_cell_angle_alpha 90
_cell_angle_beta 105.171(10)
_cell_angle_gamma 90
_cell_formula_units_Z 8
loop_
_atom_type_symbol
_atom_type_radius_bond
C 0.68
H 0.23
N 0.68
O 0.68
loop_
_atom_site_label
_atom_site_type_symbol
_atom_site_fract_x
_atom_site_fract_y
_atom_site_fract_z
O1 O 0.74451(7) 0.05277(4) 0.01345(4)
O2 O 0.87314(6) 0.15676(4) 0.09127(3)
O3 O 0.75161(6) 0.29104(4) -0.02005(3)
O4 O 0.73268(6) 0.37866(4) 0.07946(4)
N1 N 0.75186(6) 0.12067(4) 0.05396(3)
N2 N 0.69980(6) 0.31112(4) 0.03834(3)
C1 C 0.60508(7) 0.15996(4) 0.05994(3)
C2 C 0.58519(6) 0.25170(4) 0.05866(3)
C3 C 0.44803(6) 0.28710(4) 0.06851(3)
C4 C 0.33112(7) 0.22967(4) 0.07997(3)
C5 C 0.35113(7) 0.13882(4) 0.08115(4)
H1 H 0.27130 0.10070 0.08870
C6 C 0.49010(7) 0.10344(4) 0.07112(4)
H2 H 0.50540 0.04110 0.07200
C7 C 0.39422(7) 0.38148(4) 0.06578(4)
H3 H 0.42340 0.41480 0.02130
H4 H 0.43860 0.41160 0.11910
C8 C 0.21494(7) 0.37281(4) 0.04806(4)
C9 C 0.19298(7) 0.28288(4) 0.08759(4)
H5 H 0.19280 0.29040 0.14620
H6 H 0.09480 0.25420 0.05740
C10 C 0.14381(8) 0.36755(5) -0.04514(4)
H7 H 0.03140 0.35900 -0.05630
H8 H 0.18940 0.31750 -0.06780
H9 H 0.16500 0.42270 -0.07110
C11 C 0.14359(8) 0.44884(5) 0.08515(4)
H10 H 0.16710 0.50510 0.06180
H11 H 0.18690 0.44950 0.14520
H12 H 0.03090 0.44090 0.07230
O5 O 0.59607(7) 0.57273(4) 0.15458(4)
O6 O 0.73092(6) 0.67447(4) 0.23273(3)
O7 O 0.61319(6) 0.80753(4) 0.11980(3)
O8 O 0.58588(6) 0.90317(4) 0.21143(4)
N3 N 0.60761(7) 0.64071(4) 0.19534(3)
N4 N 0.55717(6) 0.83211(4) 0.17535(3)
C12 C 0.46277(7) 0.68257(4) 0.20191(3)
C13 C 0.44338(6) 0.77444(4) 0.19838(3)
C14 C 0.30691(6) 0.81114(4) 0.20823(3)
C15 C 0.19067(7) 0.75497(4) 0.22245(3)
C16 C 0.21033(8) 0.66414(4) 0.22601(4)
H13 H 0.13100 0.62680 0.23530
C17 C 0.34816(8) 0.62758(4) 0.21581(4)
H14 H 0.36300 0.56520 0.21840
C18 C 0.25194(7) 0.90543(4) 0.20233(4)
H15 H 0.28000 0.93680 0.15650
H16 H 0.29670 0.93770 0.25450
C19 C 0.07245(7) 0.89650(4) 0.18567(4)
C20 C 0.05274(7) 0.80882(4) 0.22942(4)
H17 H 0.05470 0.81930 0.28790
H18 H -0.04570 0.77900 0.20140
C21 C -0.00025(8) 0.88588(5) 0.09314(4)
H19 H -0.11210 0.87590 0.08310
H20 H 0.04700 0.83510 0.07250
H21 H 0.01770 0.93980 0.06440
C22 C 0.00180(8) 0.97554(5) 0.21872(5)
H22 H 0.02270 1.02970 0.19120
H23 H 0.04770 0.98080 0.27830
H24 H -0.11050 0.96710 0.20790
#END
