
#######################################################################
#
#                 Cambridge Crystallographic Data Centre
#                                CCDC
#
#######################################################################
#
# If this CIF has been generated from an entry in the Cambridge
# Structural Database, then it will include bibliographic, chemical,
# crystal, experimental, refinement or atomic coordinate data resulting
# from the CCDC's data processing and validation procedures.
#
#######################################################################

data_CSD_CIF_ZIWPUS
_audit_creation_date 2014-01-13
_audit_creation_method CSD-ConQuest-V1
_database_code_CSD ZIWPUS
_database_code_depnum_ccdc_archive 'CCDC 969869'
_chemical_formula_sum 'C10 H10 N2 O1'
_chemical_formula_moiety
;
C10 H10 N2 O1
;
_journal_coden_Cambridge 1078
_journal_year 2013
_journal_name_full 'CSD Communication(Private Communication) '
loop_
_publ_author_name
"P.Jones"
_chemical_name_systematic
;
N-hydroxy-1-(1H-indol-3-yl)ethanimine
;
_cell_volume   2625.645
_exptl_crystal_colour 'colorless'
_exptl_crystal_density_diffrn 1.322
_exptl_special_details
;
contribution from Institut fur Anorganische und Analytische Chemie, 
Technische Universitat Braunschweig, Postfach 3329, 38023 Braunschweig, 
Germany
;
_exptl_crystal_description 'lath'
_diffrn_ambient_temperature 133
#These two values have been output from a single CSD field.
_refine_ls_R_factor_gt 0.0486
_refine_ls_wR_factor_gt 0.0486
_symmetry_cell_setting monoclinic
_symmetry_space_group_name_H-M 'P 21/n'
_symmetry_Int_Tables_number 14
loop_
_symmetry_equiv_pos_site_id
_symmetry_equiv_pos_as_xyz
1 x,y,z
2 1/2-x,1/2+y,1/2-z
3 -x,-y,-z
4 -1/2+x,-1/2-y,-1/2+z
_cell_length_a 11.6039(9)
_cell_length_b 20.2370(15)
_cell_length_c 11.6261(9)
_cell_angle_alpha 90
_cell_angle_beta 105.903(4)
_cell_angle_gamma 90
_cell_formula_units_Z 12
loop_
_atom_type_symbol
_atom_type_radius_bond
C 0.68
H 0.23
N 0.68
O 0.68
loop_
_atom_site_label
_atom_site_type_symbol
_atom_site_fract_x
_atom_site_fract_y
_atom_site_fract_z
N1 N 0.61675(15) 0.77669(8) 0.43984(15)
H1 H 0.6387(19) 0.8186(11) 0.4499(18)
C1 C 0.55069(17) 0.74602(9) 0.50377(17)
H2 H 0.52070 0.76660 0.56310
C2 C 0.53352(16) 0.68092(8) 0.47019(16)
C3 C 0.59296(16) 0.67132(8) 0.37718(16)
C4 C 0.60542(16) 0.61868(9) 0.30269(16)
H3 H 0.57310 0.57640 0.31130
C5 C 0.66507(17) 0.62924(9) 0.21716(18)
H4 H 0.67320 0.59380 0.16640
C6 C 0.71433(17) 0.69121(10) 0.20301(18)
H5 H 0.75510 0.69690 0.14310
C7 C 0.70426(17) 0.74354(10) 0.27465(18)
H6 H 0.73750 0.78550 0.26570
C8 C 0.64360(17) 0.73284(9) 0.36072(17)
C9 C 0.46385(16) 0.63484(9) 0.52036(16)
C10 C 0.38611(18) 0.66143(9) 0.59371(17)
H7 H 0.31580 0.68320 0.54110
H8 H 0.43170 0.69340 0.65180
H9 H 0.36000 0.62500 0.63610
N2 N 0.47278(13) 0.57309(7) 0.49712(13)
O1 O 0.39503(12) 0.53304(6) 0.54484(12)
H10 H 0.424(2) 0.4915(13) 0.531(2)
N3 N 0.01157(14) 0.57312(7) -0.12383(15)
H11 H -0.0391(19) 0.5731(10) -0.1932(19)
C11 C -0.01816(16) 0.57944(8) -0.01915(16)
H12 H -0.09750 0.58510 -0.01280
C12 C 0.08311(15) 0.57650(8) 0.07674(16)
C13 C 0.18312(15) 0.56803(8) 0.02610(16)
C14 C 0.30801(16) 0.56412(8) 0.07292(17)
H13 H 0.34370 0.56480 0.15690
C15 C 0.37778(17) 0.55928(9) -0.00569(18)
H14 H 0.46250 0.55730 0.02510
C16 C 0.32678(17) 0.55724(9) -0.13019(18)
H15 H 0.37750 0.55340 -0.18160
C17 C 0.20436(17) 0.56067(9) -0.17900(18)
H16 H 0.16950 0.55930 -0.26310
C18 C 0.13402(16) 0.56629(8) -0.09983(16)
C19 C 0.08295(16) 0.57795(8) 0.20222(16)
C20 C -0.03219(16) 0.59156(10) 0.23332(17)
H17 H -0.03660 0.63860 0.25160
H18 H -0.03500 0.56520 0.30320
H19 H -0.10010 0.57970 0.16540
N4 N 0.18475(13) 0.56816(7) 0.28017(13)
O2 O 0.17280(12) 0.57012(6) 0.39942(11)
H20 H 0.253(2) 0.5558(11) 0.444(2)
N5 N 0.21723(14) 0.21278(8) 0.25505(14)
H21 H 0.2217(17) 0.1725(9) 0.2374(16)
C21 C 0.14979(16) 0.23856(8) 0.32345(16)
H22 H 0.10220 0.21340 0.36220
C22 C 0.16059(15) 0.30624(8) 0.32824(15)
C23 C 0.23958(15) 0.32335(8) 0.25570(15)
C24 C 0.28730(15) 0.38267(9) 0.22578(15)
H23 H 0.26770 0.42380 0.25500
C25 C 0.36331(16) 0.37994(9) 0.15295(17)
H24 H 0.39480 0.41990 0.13100
C26 C 0.39516(17) 0.31977(10) 0.11059(17)
H25 H 0.44830 0.31960 0.06130
C27 C 0.35056(17) 0.26074(9) 0.13935(17)
H26 H 0.37200 0.21980 0.11090
C28 C 0.27315(16) 0.26354(8) 0.21150(15)
C29 C 0.10361(15) 0.35002(8) 0.39578(15)
C30 C 0.03761(18) 0.32199(9) 0.47853(17)
H27 H -0.02630 0.35250 0.48400
H28 H 0.09330 0.31590 0.55810
H29 H 0.00260 0.27930 0.44770
N6 N 0.11482(13) 0.41244(7) 0.37987(13)
O3 O 0.05753(12) 0.45092(7) 0.45020(12)
H30 H 0.079(2) 0.4905(12) 0.436(2)
#END
