
#######################################################################
#
#                 Cambridge Crystallographic Data Centre
#                                CCDC
#
#######################################################################
#
# If this CIF has been generated from an entry in the Cambridge
# Structural Database, then it will include bibliographic, chemical,
# crystal, experimental, refinement or atomic coordinate data resulting
# from the CCDC's data processing and validation procedures.
#
#######################################################################

data_CSD_CIF_ZIWQED
_audit_creation_date 2014-01-13
_audit_creation_method CSD-ConQuest-V1
_database_code_CSD ZIWQED
_database_code_depnum_ccdc_archive 'CCDC 969871'
_chemical_formula_sum 'C6 H8 N2 O1'
_chemical_formula_moiety
;
C6 H8 N2 O1
;
_journal_coden_Cambridge 1078
_journal_year 2013
_journal_name_full 'CSD Communication(Private Communication) '
loop_
_publ_author_name
"P.Jones"
_chemical_name_systematic
;
N-hydroxy-1-(1H-pyrrol-2-yl)ethanimine
;
_cell_volume    623.047
_exptl_crystal_colour 'amber'
_exptl_crystal_density_diffrn 1.323
_exptl_special_details
;
contribution from Institut fur Anorganische und Analytische Chemie, 
Technische Universitat Braunschweig, Postfach 3329, 38023 Braunschweig, 
Germany
;
_exptl_crystal_description 'tablet'
_diffrn_ambient_temperature 133
#These two values have been output from a single CSD field.
_refine_ls_R_factor_gt 0.0508
_refine_ls_wR_factor_gt 0.0508
_symmetry_cell_setting orthorhombic
_symmetry_space_group_name_H-M 'P 21 21 21'
_symmetry_Int_Tables_number 19
loop_
_symmetry_equiv_pos_site_id
_symmetry_equiv_pos_as_xyz
1 x,y,z
2 1/2-x,-y,1/2+z
3 -x,1/2+y,1/2-z
4 1/2+x,1/2-y,-z
_cell_length_a 4.6066(6)
_cell_length_b 7.7793(11)
_cell_length_c 17.386(2)
_cell_angle_alpha 90
_cell_angle_beta 90
_cell_angle_gamma 90
_cell_formula_units_Z 4
loop_
_atom_type_symbol
_atom_type_radius_bond
C 0.68
H 0.23
N 0.68
O 0.68
loop_
_atom_site_label
_atom_site_type_symbol
_atom_site_fract_x
_atom_site_fract_y
_atom_site_fract_z
C1 C 0.1111(6) 0.6247(3) 0.34438(13)
H1 H 0.07020 0.74250 0.36130
H2 H -0.06750 0.55640 0.34660
H3 H 0.18400 0.62650 0.29140
C2 C 0.3364(5) 0.5458(3) 0.39640(12)
C3 C 0.4108(5) 0.3667(3) 0.38355(12)
C4 C 0.3010(6) 0.2580(3) 0.32695(14)
H4 H 0.16010 0.28710 0.28920
C5 C 0.4370(7) 0.0970(3) 0.33582(14)
H5 H 0.40440 -0.00210 0.30510
C6 C 0.6246(6) 0.1088(3) 0.39667(13)
H6 H 0.74550 0.01910 0.41540
N1 N 0.6081(5) 0.2713(2) 0.42579(12)
H7 H 0.707(8) 0.304(4) 0.4610(18)
N2 N 0.4476(4) 0.6496(2) 0.44662(10)
O1 O 0.6605(4) 0.5704(2) 0.49357(10)
H8 H 0.744(8) 0.651(4) 0.5144(17)
#END
