
#######################################################################
#
#                 Cambridge Crystallographic Data Centre
#                                CCDC
#
#######################################################################
#
# If this CIF has been generated from an entry in the Cambridge
# Structural Database, then it will include bibliographic, chemical,
# crystal, experimental, refinement or atomic coordinate data resulting
# from the CCDC's data processing and validation procedures.
#
#######################################################################

data_CSD_CIF_ZIWXUY
_audit_creation_date 1996-07-01
_audit_creation_method CSD-ConQuest-V1
_database_code_CSD ZIWXUY
_database_code_depnum_ccdc_archive 'CCDC 711380'
_chemical_formula_sum 'C19 H20 N2 O2'
_chemical_formula_moiety
;
C19 H20 N2 O2
;
_journal_coden_Cambridge 35
_journal_volume 60
_journal_year 1995
_journal_page_first 7411
_journal_name_full 'J.Org.Chem. '
loop_
_publ_author_name
"M.Gdaniec"
"M.J.Milewska"
"T.Polonski"
_chemical_name_systematic
;
N-Nitroso-3,3-dimethyl-2,6-diphenylpiperidin-4-one
;
_chemical_melting_point 395.15
_cell_volume   3322.325
_exptl_crystal_colour 'colorless'
_exptl_crystal_density_diffrn 1.233
_diffrn_ambient_temperature ?
_diffrn_special_details
;
The study was carried out at room temperature,in the range 283-303K

;
_refine_special_details
;
The nitrosyl group is disordered between the syn:anti conformers with 
occupancies 0.90:0.10.
;
#These two values have been output from a single CSD field.
_refine_ls_R_factor_gt 0.043
_refine_ls_wR_factor_gt 0.043
_symmetry_cell_setting monoclinic
_symmetry_space_group_name_H-M 'C 2/c'
_symmetry_Int_Tables_number 15
loop_
_symmetry_equiv_pos_site_id
_symmetry_equiv_pos_as_xyz
1 x,y,z
2 -x,y,1/2-z
3 1/2+x,1/2+y,z
4 1/2-x,1/2+y,1/2-z
5 -x,-y,-z
6 x,-y,-1/2+z
7 -1/2-x,-1/2-y,-z
8 -1/2+x,-1/2-y,-1/2+z
_cell_length_a 19.832(4)
_cell_length_b 15.316(3)
_cell_length_c 12.592(2)
_cell_angle_alpha 90
_cell_angle_beta 119.70(3)
_cell_angle_gamma 90
_cell_formula_units_Z 8
loop_
_atom_type_symbol
_atom_type_radius_bond
C 0.68
H 0.23
N 0.68
O 0.68
loop_
_atom_site_label
_atom_site_type_symbol
_atom_site_fract_x
_atom_site_fract_y
_atom_site_fract_z
O1 O 0.1090(1) 0.4921(1) 0.1521(1)
N1 N 0.2623(1) 0.4304(1) 0.0361(1)
O2 O 0.3047(1) 0.3201(1) -0.0180(2)
O3? O 0.2830(19) 0.4234(16) -0.1109(22)
N2 N 0.2778(1) 0.3934(1) -0.0446(2)
N3? N 0.2883(90) 0.3826(42) -0.0239(89)
C1 C 0.2706(1) 0.3810(1) 0.1421(1)
C2 C 0.2296(1) 0.4293(1) 0.2007(1)
C3 C 0.1551(1) 0.4764(1) 0.1185(1)
C4 C 0.1416(1) 0.5030(1) -0.0070(1)
C5 C 0.2197(1) 0.5132(1) -0.0032(1)
C6 C 0.3537(1) 0.3622(1) 0.2356(2)
C7 C 0.3753(2) 0.2767(2) 0.2732(2)
C8 C 0.4486(2) 0.2569(3) 0.3623(3)
C9 C 0.5025(2) 0.3219(3) 0.4148(3)
C10 C 0.4825(2) 0.4072(3) 0.3783(3)
C11 C 0.4077(1) 0.4279(2) 0.2889(2)
C12 C 0.2738(1) 0.5879(1) 0.0700(1)
C13 C 0.3331(1) 0.6082(2) 0.0471(2)
C14 C 0.3879(2) 0.6707(2) 0.1141(2)
C15 C 0.3836(2) 0.7149(1) 0.2063(2)
C16 C 0.3251(1) 0.6963(1) 0.2304(2)
C17 C 0.2698(1) 0.6338(1) 0.1620(2)
C18 C 0.0968(1) 0.4257(2) -0.0917(2)
C19 C 0.0916(2) 0.5845(2) -0.0560(3)
H1 H 0.2443(12) 0.3253(13) 0.1085(18)
H2 H 0.2227(12) 0.3887(14) 0.2508(20)
H3 H 0.2653(11) 0.4762(12) 0.2572(18)
H4 H 0.2077(11) 0.5193(12) -0.0880(19)
H5 H 0.3312(19) 0.2269(22) 0.2243(30)
H6 H 0.4672(26) 0.1846(30) 0.3823(41)
H7 H 0.5500(28) 0.3084(26) 0.4698(42)
H8 H 0.5128(20) 0.4536(22) 0.4083(31)
H9 H 0.3938(15) 0.4860(17) 0.2653(24)
H10 H 0.3389(15) 0.5766(15) -0.0099(27)
H11 H 0.4316(18) 0.6787(19) 0.1015(26)
H12 H 0.4218(16) 0.7583(18) 0.2526(26)
H13 H 0.3207(14) 0.7298(16) 0.2940(24)
H14 H 0.2242(13) 0.6212(13) 0.177(2)
H15 H 0.0452(20) 0.4203(17) -0.0978(26)
H16 H 0.0896(16) 0.4378(17) -0.1758(28)
H17 H 0.1222(13) 0.3719(16) -0.0585(23)
H18 H 0.1175(15) 0.6356(17) -0.0107(24)
H19 H 0.0793(20) 0.5911(23) -0.1417(37)
H20 H 0.0414(22) 0.5778(17) -0.0583(27)
#END
