
#######################################################################
#
#                 Cambridge Crystallographic Data Centre
#                                CCDC
#
#######################################################################
#
# If this CIF has been generated from an entry in the Cambridge
# Structural Database, then it will include bibliographic, chemical,
# crystal, experimental, refinement or atomic coordinate data resulting
# from the CCDC's data processing and validation procedures.
#
#######################################################################

data_CSD_CIF_ZIWXEI
_audit_creation_date 1996-07-01
_audit_creation_method CSD-ConQuest-V1
_database_code_CSD ZIWXEI
_database_code_depnum_ccdc_archive 'CCDC 711377'
_chemical_formula_sum 'C29 H24 N2 O2'
_chemical_formula_moiety
;
C29 H24 N2 O2
;
_journal_coden_Cambridge 35
_journal_volume 60
_journal_year 1995
_journal_page_first 7411
_journal_name_full 'J.Org.Chem. '
loop_
_publ_author_name
"M.Gdaniec"
"M.J.Milewska"
"T.Polonski"
_chemical_name_systematic
;
N-Nitroso-2,3,5,6-tetraphenylpiperidin-4-one
;
_cell_volume   2273.889
_exptl_crystal_colour 'colorless'
_exptl_crystal_density_diffrn 1.263
_diffrn_ambient_temperature ?
_diffrn_special_details
;
The study was carried out at room temperature,in the range 283-303K

;
_refine_special_details
;
O2 is disordered over two positions.

;
#These two values have been output from a single CSD field.
_refine_ls_R_factor_gt 0.053
_refine_ls_wR_factor_gt 0.053
_symmetry_cell_setting monoclinic
_symmetry_space_group_name_H-M 'P 21/n'
_symmetry_Int_Tables_number 14
loop_
_symmetry_equiv_pos_site_id
_symmetry_equiv_pos_as_xyz
1 x,y,z
2 1/2-x,1/2+y,1/2-z
3 -x,-y,-z
4 -1/2+x,-1/2-y,-1/2+z
_cell_length_a 16.825(3)
_cell_length_b 8.967(1)
_cell_length_c 15.506(2)
_cell_angle_alpha 90
_cell_angle_beta 103.59(1)
_cell_angle_gamma 90
_cell_formula_units_Z 4
loop_
_atom_type_symbol
_atom_type_radius_bond
C 0.68
H 0.23
N 0.68
O 0.68
loop_
_atom_site_label
_atom_site_type_symbol
_atom_site_fract_x
_atom_site_fract_y
_atom_site_fract_z
N1 N 0.7241(1) -0.2342(2) 0.0037(1)
N2 N 0.6526(1) -0.2859(5) 0.0086(1)
O1 O 0.8844(1) 0.1067(2) -0.0061(1)
O2 O 0.6443(1) -0.3052(2) 0.0812(1)
O3? O 0.8600(5) 0.1917(8) -0.0582(5)
C1 C 0.7881(1) -0.2033(2) 0.0853(1)
C2 C 0.8618(1) -0.1251(2) 0.0614(1)
C3 C 0.8364(1) 0.0036(2) -0.0027(1)
C4 C 0.7538(1) -0.0071(2) -0.0686(1)
C5 C 0.7298(1) -0.1725(2) -0.0826(1)
C6 C 0.8171(1) -0.3423(2) 0.1403(1)
C7 C 0.8144(1) -0.3462(3) 0.2291(1)
C8 C 0.8473(2) -0.4657(3) 0.2821(2)
C9 C 0.8819(2) -0.5824(3) 0.2469(2)
C10 C 0.8845(2) -0.5806(3) 0.1586(2)
C11 C 0.8525(1) -0.4598(2) 0.1056(1)
C12 C 0.7842(1) -0.2693(2) -0.1257(1)
C13 C 0.8431(2) -0.2121(3) -0.1660(2)
C14 C 0.8915(2) -0.3065(3) -0.2031(2)
C15 C 0.8818(2) -0.4578(3) -0.2009(2)
C16 C 0.8222(2) -0.5164(3) -0.1629(2)
C17 C 0.7738(1) -0.4229(2) -0.1265(1)
C18 C 0.6908(1) 0.0894(2) -0.0374(1)
C19 C 0.7146(2) 0.2161(3) 0.0140(2)
C20 C 0.6579(2) 0.3092(3) 0.0387(2)
C21 C 0.5758(2) 0.2781(3) 0.0124(2)
C22 C 0.5513(1) 0.1531(3) -0.0380(2)
C23 C 0.6072(1) 0.0590(3) -0.0626(1)
C24 C 0.9249(1) -0.0839(2) 0.1448(1)
C25 C 0.9051(1) 0.0028(2) 0.2105(1)
C26 C 0.9617(1) 0.0265(2) 0.2903(1)
C27 C 1.0387(1) -0.0344(3) 0.3038(1)
C28 C 1.0595(1) -0.1173(3) 0.2379(2)
C29 C 1.0029(1) -0.1434(2) 0.1586(1)
H1 H 0.76530 -0.13610 0.12120
H2 H 0.88680 -0.19800 0.03100
H3 H 0.75980 0.03230 -0.12430
H4 H 0.67580 -0.17590 -0.12060
H5 H 0.78900 -0.26590 0.25360
H6 H 0.84680 -0.46630 0.34390
H7 H 0.90350 -0.66640 0.28340
H8 H 0.90820 -0.66280 0.13380
H9 H 0.85520 -0.45780 0.04450
H10 H 0.85020 -0.10610 -0.16830
H11 H 0.93200 -0.26460 -0.23040
H12 H 0.91600 -0.52210 -0.22610
H13 H 0.81500 -0.62240 -0.16100
H14 H 0.73160 -0.46440 -0.10160
H15 H 0.77170 0.23990 0.03280
H16 H 0.67600 0.39580 0.07430
H17 H 0.53640 0.34270 0.02890
H18 H 0.49400 0.13040 -0.05630
H19 H 0.58840 -0.02780 -0.09770
H20 H 0.85160 0.04630 0.20120
H21 H 0.94690 0.08460 0.33610
H22 H 1.07790 -0.01730 0.35880
H23 H 1.11350 -0.15820 0.24700
H24 H 1.01780 -0.20250 0.11320
#END
