
#######################################################################
#
#                 Cambridge Crystallographic Data Centre
#                                CCDC
#
#######################################################################
#
# If this CIF has been generated from an entry in the Cambridge
# Structural Database, then it will include bibliographic, chemical,
# crystal, experimental, refinement or atomic coordinate data resulting
# from the CCDC's data processing and validation procedures.
#
#######################################################################

data_CSD_CIF_ZIWXIM
_audit_creation_date 1996-06-30
_audit_creation_method CSD-ConQuest-V1
_database_code_CSD ZIWXIM
_database_code_depnum_ccdc_archive 'CCDC 711378'
_chemical_formula_sum 'C20 H22 N2 O2'
_chemical_formula_moiety
;
C20 H22 N2 O2
;
_journal_coden_Cambridge 35
_journal_volume 60
_journal_year 1995
_journal_page_first 7411
_journal_name_full 'J.Org.Chem. '
loop_
_publ_author_name
"M.Gdaniec"
"M.J.Milewska"
"T.Polonski"
_chemical_name_systematic
;
N-Nitroso-3-isopropyl-2,5-diphenylpiperidin-4-one
;
_cell_volume   1729.096
_exptl_crystal_colour 'colorless'
_exptl_crystal_density_diffrn 1.238
_diffrn_ambient_temperature ?
_diffrn_special_details
;
The study was carried out at room temperature,in the range 283-303K

;
_refine_special_details
;
The NNO group was refined over two positions.

;
#These two values have been output from a single CSD field.
_refine_ls_R_factor_gt 0.052
_refine_ls_wR_factor_gt 0.052
_symmetry_cell_setting monoclinic
_symmetry_space_group_name_H-M 'P 21/c'
_symmetry_Int_Tables_number 14
loop_
_symmetry_equiv_pos_site_id
_symmetry_equiv_pos_as_xyz
1 x,y,z
2 -x,1/2+y,1/2-z
3 -x,-y,-z
4 x,-1/2-y,-1/2+z
_cell_length_a 7.798(2)
_cell_length_b 14.535(6)
_cell_length_c 15.430(5)
_cell_angle_alpha 90
_cell_angle_beta 98.63(3)
_cell_angle_gamma 90
_cell_formula_units_Z 4
loop_
_atom_type_symbol
_atom_type_radius_bond
C 0.68
H 0.23
N 0.68
O 0.68
loop_
_atom_site_label
_atom_site_type_symbol
_atom_site_fract_x
_atom_site_fract_y
_atom_site_fract_z
O1 O 0.3383(2) 0.2531(1) 0.2781(1)
N1 N 0.2512(2) 0.0162(1) 0.3871(1)
O2 O 0.3109(4) -0.1079(3) 0.4555(2)
N2 N 0.2086(8) -0.0437(3) 0.4484(3)
C1 C 0.3869(2) 0.0160(1) 0.3308(1)
C2 C 0.4674(2) 0.1124(1) 0.3314(1)
C3 C 0.3381(2) 0.1891(1) 0.3283(1)
C4 C 0.2101(2) 0.1827(1) 0.3925(1)
C5 C 0.1180(2) 0.0886(1) 0.3804(1)
C6 C 0.3188(2) -0.0231(1) 0.2406(1)
C7 C 0.3022(3) -0.1180(1) 0.2320(1)
C8 C 0.2371(3) -0.1568(1) 0.1523(1)
C9 C 0.1885(3) -0.1015(2) 0.0804(1)
C10 C 0.2066(3) -0.0086(2) 0.0879(1)
C11 C 0.2722(2) 0.0310(1) 0.1676(1)
C12 C -0.0141(2) 0.0786(1) 0.2973(1)
C13 C -0.0970(3) -0.0057(1) 0.2800(1)
C14 C -0.2207(3) -0.0177(2) 0.2065(1)
C15 C -0.2637(2) 0.0537(2) 0.1493(1)
C16 C -0.1842(2) 0.1371(1) 0.1653(1)
C17 C -0.0599(2) 0.1499(1) 0.2389(1)
C18 C 0.2988(2) 0.1979(1) 0.4884(1)
C19 C 0.4149(3) 0.2811(1) 0.4960(1)
C20 C 0.16400 0.20890 0.54930
H1 H 0.47510 -0.02560 0.35730
H2 H 0.54990 0.11870 0.38390
H3 H 0.52920 0.11790 0.28240
H4 H 0.12510 0.23040 0.37890
H5 H 0.05540 0.08040 0.42890
H6 H 0.33510 -0.15650 0.28230
H7 H 0.22640 -0.22240 0.14680
H8 H 0.14180 -0.12870 0.02520
H9 H 0.17410 0.03000 0.03760
H10 H 0.28600 0.09650 0.17260
H11 H -0.06860 -0.05580 0.32020
H12 H -0.27630 -0.07620 0.19490
H13 H -0.34940 0.04510 0.09830
H14 H -0.21460 0.18720 0.12540
H15 H -0.00490 0.20870 0.24960
H16 H 0.36760 0.14450 0.50640
H17 H 0.47080 0.28770 0.55550
H18 H 0.50120 0.27500 0.45800
H19 H 0.34510 0.33450 0.47930
H20 H 0.21970 0.21690 0.60860
H21 H 0.09570 0.26230 0.53110
H22 H 0.09020 0.15570 0.54580
O3? O 0.1959(4) -0.0503(2) 0.4997(3)
N3? N 0.3003(7) -0.0478(3) 0.4475(3)
#END
