
#######################################################################
#
#                 Cambridge Crystallographic Data Centre
#                                CCDC
#
#######################################################################
#
# If this CIF has been generated from an entry in the Cambridge
# Structural Database, then it will include bibliographic, chemical,
# crystal, experimental, refinement or atomic coordinate data resulting
# from the CCDC's data processing and validation procedures.
#
#######################################################################

data_CSD_CIF_ZIXWIO
_audit_creation_date 2014-01-13
_audit_creation_method CSD-ConQuest-V1
_database_code_CSD ZIXWIO
_database_code_depnum_ccdc_archive 'CCDC 955573'
_chemical_formula_sum 'C8 H7 N3 O3'
_chemical_formula_moiety
;
C8 H7 N3 O3
;
_journal_coden_Cambridge 1078
_journal_year 2013
_journal_name_full 'CSD Communication(Private Communication) '
loop_
_publ_author_name
"P.E.Kruger"
"C.S.Hawes"
_chemical_name_systematic
;
1-Methyl-6-nitro-1,3-dihydro-2H-benzimidazol-2-one
;
_cell_volume   3275.927
_exptl_crystal_colour 'colorless'
_exptl_crystal_density_diffrn 1.567
_exptl_crystal_description 'block'
_exptl_crystal_preparation 'dilute aqueous nitric acid'
_diffrn_ambient_temperature 113.2
#These two values have been output from a single CSD field.
_refine_ls_R_factor_gt 0.0422
_refine_ls_wR_factor_gt 0.0422
_symmetry_cell_setting tetragonal
_symmetry_space_group_name_H-M 'I 41/a'
_symmetry_Int_Tables_number 88
loop_
_symmetry_equiv_pos_site_id
_symmetry_equiv_pos_as_xyz
1 x,y,z
2 3/4-y,1/4+x,1/4+z
3 1/2-x,-y,1/2+z
4 3/4+y,3/4-x,3/4+z
5 1/2+x,1/2+y,1/2+z
6 1/4-y,3/4+x,3/4+z
7 -x,1/2-y,z
8 1/4+y,1/4-x,1/4+z
9 -x,-y,-z
10 -3/4+y,-1/4-x,-1/4-z
11 -1/2+x,y,-1/2-z
12 -3/4-y,-3/4+x,-3/4-z
13 -1/2-x,-1/2-y,-1/2-z
14 -1/4+y,-3/4-x,-3/4-z
15 x,-1/2+y,-z
16 -1/4-y,-1/4+x,-1/4-z
_cell_length_a 14.7888(5)
_cell_length_b 14.7888(5)
_cell_length_c 14.9785(5)
_cell_angle_alpha 90
_cell_angle_beta 90
_cell_angle_gamma 90
_cell_formula_units_Z 16
loop_
_atom_type_symbol
_atom_type_radius_bond
C 0.68
H 0.23
N 0.68
O 0.68
loop_
_atom_site_label
_atom_site_type_symbol
_atom_site_fract_x
_atom_site_fract_y
_atom_site_fract_z
O1 O 0.51682(8) 0.09282(8) -0.14373(7)
O2 O 0.35781(8) 0.16556(8) 0.32111(7)
O3 O 0.65545(8) 0.05569(8) -0.11595(7)
N1 N 0.50302(9) 0.13904(8) 0.26495(8)
N2 N 0.58059(8) 0.08272(8) -0.09190(8)
N3 N 0.38936(8) 0.14996(8) 0.16995(7)
C1 C 0.56601(10) 0.10200(9) 0.00272(9)
C2 C 0.29846(10) 0.16045(11) 0.13471(10)
H1 H 0.30130 0.19010 0.07620
H2 H 0.26250 0.19750 0.17570
H3 H 0.27020 0.10080 0.12830
C3 C 0.47808(10) 0.12042(9) 0.02972(9)
H4 H 0.42920 0.12410 -0.01130
C4 C 0.46660(9) 0.13296(9) 0.12031(9)
C5 C 0.63945(10) 0.09754(10) 0.0604(1)
H5 H 0.69830 0.08570 0.03770
C6 C 0.62643(10) 0.11047(10) 0.15149(10)
H6 H 0.67570 0.10830 0.19220
C7 C 0.53914(10) 0.12663(9) 0.18063(9)
C8 C 0.41125(10) 0.15258(9) 0.25887(9)
H7 H 0.5326(11) 0.1352(12) 0.3175(10)
#END
