
#######################################################################
#
#                 Cambridge Crystallographic Data Centre
#                                CCDC
#
#######################################################################
#
# If this CIF has been generated from an entry in the Cambridge
# Structural Database, then it will include bibliographic, chemical,
# crystal, experimental, refinement or atomic coordinate data resulting
# from the CCDC's data processing and validation procedures.
#
#######################################################################

data_CSD_CIF_ZIXZOX
_audit_creation_date 2014-01-13
_audit_creation_method CSD-ConQuest-V1
_database_code_CSD ZIXZOX
_database_code_depnum_ccdc_archive 'CCDC 957149'
_chemical_formula_sum 'C14 H14 N4 O6'
_chemical_formula_moiety
;
C14 H14 N4 O6
;
_journal_coden_Cambridge 1078
_journal_year 2013
_journal_name_full 'CSD Communication(Private Communication) '
loop_
_publ_author_name
"S.Yousuf"
_chemical_name_systematic
;
1-(2-Methyl-5-nitro-1H-imidazol-1-yl)propan-2-yl 3-nitrobenzoate
;
_cell_volume    756.327
_exptl_crystal_colour 'colorless'
_exptl_crystal_density_diffrn 1.468
_exptl_special_details
;
H.E.J. Research Institute of Chemistry, International Center for Chemical and 
Biological Sciences, University of Karachi, Karachi-75270, Pakistan
;
_exptl_crystal_description 'Block'
_diffrn_ambient_temperature 273
#These two values have been output from a single CSD field.
_refine_ls_R_factor_gt 0.0476
_refine_ls_wR_factor_gt 0.0476
_symmetry_cell_setting triclinic
_symmetry_space_group_name_H-M 'P -1'
_symmetry_Int_Tables_number 2
loop_
_symmetry_equiv_pos_site_id
_symmetry_equiv_pos_as_xyz
1 x,y,z
2 -x,-y,-z
_cell_length_a 7.2060(8)
_cell_length_b 7.5973(8)
_cell_length_c 14.9470(16)
_cell_angle_alpha 101.193(3)
_cell_angle_beta 93.381(3)
_cell_angle_gamma 108.186(3)
_cell_formula_units_Z 2
loop_
_atom_type_symbol
_atom_type_radius_bond
C 0.68
H 0.23
N 0.68
O 0.68
loop_
_atom_site_label
_atom_site_type_symbol
_atom_site_fract_x
_atom_site_fract_y
_atom_site_fract_z
O1 O -0.0198(3) -0.2736(2) 0.09894(14)
O2 O -0.1718(3) -0.0832(3) 0.15630(14)
O3 O 0.1635(2) 0.49281(19) 0.28550(9)
O4 O 0.1300(2) 0.4124(2) 0.42216(10)
O5 O 0.6205(3) 0.8226(3) 0.68177(13)
O6 O 0.8626(3) 1.0557(3) 0.66218(13)
N1 N 0.1268(3) 0.2228(2) 0.11775(11)
N2 N -0.0316(4) -0.1141(3) 0.12192(14)
N3 N 0.4128(3) 0.2093(3) 0.07262(13)
N4 N 0.7147(3) 0.9190(3) 0.63313(15)
C1 C 0.3663(4) 0.5242(3) 0.09414(17)
H1 H 0.49680 0.56350 0.07690
H2 H 0.36540 0.59740 0.15410
H3 H 0.27640 0.54410 0.05030
C2 C 0.3053(3) 0.3196(3) 0.09583(14)
C3 C 0.2997(4) 0.0336(4) 0.07846(16)
H4 H 0.33630 -0.07470 0.06530
C4 C 0.1253(3) 0.0382(3) 0.10616(14)
C5 C -0.0265(3) 0.3036(3) 0.14447(14)
H5 H -0.15380 0.21300 0.11620
H6 H -0.00740 0.41730 0.12080
C6 C -0.0283(3) 0.3536(3) 0.24696(14)
H7 H -0.04880 0.23990 0.27200
C7 C -0.1857(4) 0.4406(4) 0.27094(19)
H8 H -0.18450 0.46890 0.33650
H9 H -0.31210 0.35260 0.24250
H10 H -0.16050 0.55560 0.24910
C8 C 0.2216(3) 0.5104(3) 0.37467(15)
C9 C 0.4118(3) 0.6669(3) 0.40781(14)
C10 C 0.5221(3) 0.7682(3) 0.34978(16)
H11 H 0.48050 0.73450 0.28690
C11 C 0.6917(3) 0.9174(4) 0.38468(18)
H12 H 0.76450 0.98330 0.34510
C12 C 0.7555(3) 0.9707(3) 0.47773(18)
H13 H 0.86810 1.07430 0.50180
C13 C 0.6479(3) 0.8662(3) 0.53390(15)
C14 C 0.4770(3) 0.7160(3) 0.50085(15)
H14 H 0.40650 0.64850 0.54060
#END
