
#######################################################################
#
#                 Cambridge Crystallographic Data Centre
#                                CCDC
#
#######################################################################
#
# If this CIF has been generated from an entry in the Cambridge
# Structural Database, then it will include bibliographic, chemical,
# crystal, experimental, refinement or atomic coordinate data resulting
# from the CCDC's data processing and validation procedures.
#
#######################################################################

data_CSD_CIF_ZIXZUD
_audit_creation_date 2014-01-13
_audit_creation_method CSD-ConQuest-V1
_database_code_CSD ZIXZUD
_database_code_depnum_ccdc_archive 'CCDC 957150'
_chemical_formula_sum 'C20 H27 N3 O4'
_chemical_formula_moiety
;
C20 H27 N3 O4
;
_journal_coden_Cambridge 1078
_journal_year 2013
_journal_name_full 'CSD Communication(Private Communication) '
loop_
_publ_author_name
"S.Yousuf"
_chemical_name_systematic
;
1-(2-Methyl-5-nitro-1H-imidazol-1-yl)propan-2-yl 
2-(4-isobutylphenyl)propanoate
;
_cell_volume   1010.507
_exptl_crystal_colour 'colorless'
_exptl_crystal_density_diffrn 1.227
_exptl_special_details
;
H.E.J. Research Institute of Chemistry, International Center for Chemical and 
Biological Sciences, University of Karachi, Karachi-75270, Pakistan
;
_exptl_crystal_description 'Plate'
_diffrn_ambient_temperature 273
#These two values have been output from a single CSD field.
_refine_ls_R_factor_gt 0.0473
_refine_ls_wR_factor_gt 0.0473
_symmetry_cell_setting monoclinic
_symmetry_space_group_name_H-M 'P 21'
_symmetry_Int_Tables_number 4
loop_
_symmetry_equiv_pos_site_id
_symmetry_equiv_pos_as_xyz
1 x,y,z
2 -x,1/2+y,-z
_cell_length_a 6.5069(18)
_cell_length_b 9.160(3)
_cell_length_c 17.107(4)
_cell_angle_alpha 90
_cell_angle_beta 97.671(7)
_cell_angle_gamma 90
_cell_formula_units_Z 2
loop_
_atom_type_symbol
_atom_type_radius_bond
C 0.68
H 0.23
N 0.68
O 0.68
loop_
_atom_site_label
_atom_site_type_symbol
_atom_site_fract_x
_atom_site_fract_y
_atom_site_fract_z
O1 O 0.6607(4) 0.5739(4) -0.14626(16)
O2 O 0.4621(4) 0.5425(3) -0.05612(15)
O3 O 0.6956(4) 0.5319(3) 0.18596(13)
O4 O 0.7059(4) 0.2912(3) 0.16585(16)
N1 N 0.7262(4) 0.7171(3) 0.04753(16)
N2 N 0.6183(5) 0.5917(3) -0.0794(2)
N3 N 1.0368(4) 0.7955(4) 0.02662(19)
C1 C 0.9304(5) 0.8577(5) 0.1566(2)
H1 H 1.06370 0.90430 0.16520
H2 H 0.92400 0.78310 0.19570
H3 H 0.82390 0.92870 0.16070
C2 C 0.8990(5) 0.7908(4) 0.0767(2)
C3 C 0.9480(6) 0.7231(5) -0.0378(2)
H4 H 1.00880 0.70840 -0.08340
C4 C 0.7591(6) 0.6752(4) -0.0266(2)
C5 C 0.5434(5) 0.6957(4) 0.0873(2)
H5 H 0.42010 0.71440 0.05020
H6 H 0.54620 0.76620 0.12980
C6 C 0.5296(5) 0.5448(5) 0.1206(2)
H7 H 0.54760 0.47180 0.08020
C7 C 0.3239(5) 0.5231(5) 0.1501(2)
H8 H 0.31620 0.42570 0.17020
H9 H 0.21390 0.53790 0.10750
H10 H 0.31020 0.59200 0.19140
C8 C 0.7632(5) 0.3967(5) 0.2040(2)
C9 C 0.9165(5) 0.3941(5) 0.2783(2)
H11 H 1.01890 0.47150 0.27470
C10 C 1.0293(6) 0.2483(5) 0.2854(2)
H12 H 1.12590 0.24700 0.33300
H13 H 1.10270 0.23500 0.24090
H14 H 0.93050 0.17080 0.28690
C11 C 0.8105(5) 0.4225(4) 0.3502(2)
C12 C 0.9065(6) 0.5017(5) 0.4128(2)
H15 H 1.03600 0.54230 0.40950
C13 C 0.8174(6) 0.5229(5) 0.4803(2)
H16 H 0.88950 0.57470 0.52200
C14 C 0.6258(7) 0.4694(4) 0.4872(2)
C15 C 0.5282(6) 0.3912(5) 0.4244(2)
H17 H 0.39690 0.35330 0.42730
C16 C 0.6188(6) 0.3672(5) 0.3570(2)
H18 H 0.54860 0.31290 0.31590
C17 C 0.5194(7) 0.4911(5) 0.5603(2)
H19 H 0.59560 0.56410 0.59360
H20 H 0.38100 0.52900 0.54420
C18 C 0.5030(7) 0.3552(5) 0.6079(3)
H21 H 0.43100 0.28210 0.57250
C19 C 0.7053(9) 0.2931(8) 0.6393(3)
H22 H 0.78670 0.27950 0.59700
H23 H 0.68530 0.20080 0.66370
H24 H 0.77610 0.35860 0.67770
C20 C 0.3700(8) 0.3818(8) 0.6736(3)
H25 H 0.23950 0.42340 0.65160
H26 H 0.44050 0.44800 0.71170
H27 H 0.34620 0.29090 0.69880
#END
