
#######################################################################
#
#                 Cambridge Crystallographic Data Centre
#                                CCDC
#
#######################################################################
#
# If this CIF has been generated from an entry in the Cambridge
# Structural Database, then it will include bibliographic, chemical,
# crystal, experimental, refinement or atomic coordinate data resulting
# from the CCDC's data processing and validation procedures.
#
#######################################################################

data_CSD_CIF_ZIYYIR
_audit_creation_date 2014-01-15
_audit_creation_method CSD-ConQuest-V1
_database_code_CSD ZIYYIR
_database_code_depnum_ccdc_archive 'CCDC 962381'
_chemical_formula_sum 'C29 H42 N5 O8'
_chemical_formula_moiety
;
C29 H42 N5 O8
;
_journal_coden_Cambridge 1291
_journal_year 2014
_journal_page_first 1741
_journal_name_full 'Eur.J.Org.Chem. '
loop_
_publ_author_name
"K.Wright"
"E.d'Aboville"
"J.Scola"
"T.Margola"
"A.Toffoletti"
"M.De Zotti"
"M.Crisma"
"F.Formaggio"
"C.Toniolo"
_chemical_name_systematic
;
2-(2-((N-(t-Butoxycarbonyl)alanyl)amino)-2-((1-methoxy-1-oxopropan-2-yl)carbam
oyl)-2,3-dihydro-1H-inden-5-yl)-4,4,5,5-tetramethyl-4,5-dihydro-1H-imidazol-1-
olate 3-oxide radical
;
_chemical_name_common
;
PEPSEQ A=3 ALA*-GLY*-ALA*
;
_cell_volume   3170.206
_exptl_crystal_colour 'blue'
_exptl_crystal_density_diffrn 1.233
_exptl_crystal_description 'irregular'
_exptl_crystal_preparation 'ethanol'
_diffrn_ambient_temperature 293
_diffrn_special_details
;
twin

;
#These two values have been output from a single CSD field.
_refine_ls_R_factor_gt 0.0495
_refine_ls_wR_factor_gt 0.0495
_symmetry_cell_setting monoclinic
_symmetry_space_group_name_H-M 'P 21'
_symmetry_Int_Tables_number 4
loop_
_symmetry_equiv_pos_site_id
_symmetry_equiv_pos_as_xyz
1 x,y,z
2 -x,1/2+y,-z
_cell_length_a 6.0627(3)
_cell_length_b 25.1284(8)
_cell_length_c 21.0284(7)
_cell_angle_alpha 90
_cell_angle_beta 98.279(3)
_cell_angle_gamma 90
_cell_formula_units_Z 4
loop_
_atom_type_symbol
_atom_type_radius_bond
C 0.68
H 0.23
N 0.68
O 0.68
loop_
_atom_site_label
_atom_site_type_symbol
_atom_site_fract_x
_atom_site_fract_y
_atom_site_fract_z
C1 C -0.1964(11) -0.0409(3) 0.5572(3)
C2 C -0.139(3) -0.0466(4) 0.4892(4)
H1 H -0.24720 -0.02760 0.45980
H2 H -0.14150 -0.08350 0.47760
H3 H 0.00630 -0.03220 0.48750
C3 C -0.4436(12) -0.0463(3) 0.5616(6)
H4 H -0.48320 -0.02200 0.59330
H5 H -0.47490 -0.08210 0.57360
H6 H -0.52870 -0.03820 0.52060
C4 C -0.055(2) -0.0787(3) 0.6026(5)
H7 H 0.08820 -0.06280 0.61650
H8 H -0.03450 -0.11150 0.58070
H9 H -0.12790 -0.08570 0.63930
O1 O -0.1308(9) 0.01469(16) 0.5708(2)
C5 C -0.1392(13) 0.0356(3) 0.6292(3)
O2 O -0.1862(10) 0.0117(2) 0.6754(2)
N1 N -0.0966(10) 0.0877(2) 0.6291(2)
H10 H -0.08470 0.10390 0.59370
C6 C -0.0704(12) 0.1170(2) 0.6893(3)
H11 H 0.05710 0.10290 0.71830
C7 C -0.0327(15) 0.1757(3) 0.6767(4)
H12 H 0.11510 0.18060 0.66630
H13 H -0.04970 0.19600 0.71440
H14 H -0.13960 0.18750 0.64140
C8 C -0.2773(10) 0.1131(2) 0.7209(3)
O3 O -0.4660(9) 0.12026(19) 0.6940(2)
N2 N -0.2325(9) 0.1044(2) 0.7853(2)
H15 H -0.10120 0.09360 0.80100
C9 C -0.3970(12) 0.1126(2) 0.8299(3)
C10 C -0.4580(13) 0.1718(2) 0.8286(3)
H16 H -0.47210 0.18600 0.78540
H17 H -0.59630 0.17770 0.84570
C11 C -0.2659(13) 0.1052(3) 0.8977(3)
H18 H -0.36530 0.09710 0.92870
H19 H -0.15670 0.07690 0.89830
C12 C -0.2628(7) 0.19642(16) 0.8713(2)
C13 C -0.1814(9) 0.24821(14) 0.8740(2)
H20 H -0.25300 0.27420 0.84700
C14 C 0.0070(9) 0.26120(13) 0.9170(2)
H21 H 0.06150 0.29580 0.91880
C15 C 0.1141(7) 0.22241(17) 0.9573(2)
C16 C 0.0327(8) 0.17062(15) 0.95464(19)
H22 H 0.10430 0.14470 0.98160
C17 C -0.1557(8) 0.15763(12) 0.9116(2)
C18 C 0.2959(16) 0.2368(3) 1.0069(4)
N3 N 0.3415(12) 0.2834(3) 1.0358(3)
O4 O 0.2347(12) 0.3273(3) 1.0205(3)
C19 C 0.5520(14) 0.2836(3) 1.0851(3)
C20 C 0.7351(18) 0.3051(5) 1.0506(5)
H23 H 0.82630 0.32930 1.07830
H24 H 0.67030 0.32350 1.01240
H25 H 0.82510 0.27620 1.03910
C21 C 0.515(2) 0.3188(3) 1.1395(4)
H26 H 0.38070 0.30840 1.15520
H27 H 0.50250 0.35500 1.12500
H28 H 0.63900 0.31560 1.17330
C22 C 0.5647(13) 0.2235(3) 1.0990(3)
C23 C 0.8000(15) 0.2017(4) 1.1117(5)
H29 H 0.80290 0.17080 1.13880
H30 H 0.89790 0.22840 1.13280
H31 H 0.84820 0.19210 1.07180
C24 C 0.4354(16) 0.2067(3) 1.1522(4)
H32 H 0.36470 0.23720 1.16790
H33 H 0.53560 0.19110 1.18670
H34 H 0.32400 0.18110 1.13580
N4 N 0.4508(13) 0.2019(3) 1.0385(3)
O5 O 0.4803(12) 0.1528(2) 1.0220(3)
C25 C -0.5851(12) 0.0741(3) 0.8189(3)
O6 O -0.7679(8) 0.0838(2) 0.8371(2)
N5 N -0.5471(10) 0.0272(2) 0.7925(3)
H35 H -0.42010 0.02130 0.78010
C26 C -0.7174(14) -0.0141(3) 0.7843(3)
H36 H -0.85120 -0.00090 0.75710
C27 C -0.626(2) -0.0621(3) 0.7532(4)
H37 H -0.64160 -0.05690 0.70750
H38 H -0.70680 -0.09330 0.76240
H39 H -0.47100 -0.06650 0.76990
C28 C -0.7739(14) -0.0304(3) 0.8486(4)
O7 O -0.6478(10) -0.0356(2) 0.8963(3)
O8 O -0.9934(10) -0.0389(3) 0.8460(3)
C29 C -1.0704(19) -0.0560(5) 0.9058(5)
H40 H -1.01820 -0.09150 0.91630
H41 H -1.23040 -0.05560 0.90030
H42 H -1.01300 -0.03230 0.94000
C30 C 0.3771(11) 0.3012(2) 0.6423(3)
C31 C 0.480(3) 0.3026(4) 0.7128(3)
H43 H 0.36700 0.29510 0.73920
H44 H 0.54150 0.33720 0.72320
H45 H 0.59560 0.27630 0.72040
C32 C 0.1309(11) 0.3161(4) 0.6324(5)
H46 H 0.05490 0.29710 0.59620
H47 H 0.11560 0.35370 0.62470
H48 H 0.06700 0.30700 0.67020
C33 C 0.5094(16) 0.3358(3) 0.6017(4)
H49 H 0.66420 0.32630 0.61030
H50 H 0.49180 0.37250 0.61230
H51 H 0.45550 0.33020 0.55700
O9 O 0.3977(9) 0.24476(16) 0.6268(2)
C34 C 0.3383(12) 0.2257(2) 0.5680(3)
O10 O 0.2613(9) 0.25155(19) 0.5210(2)
N6 N 0.3683(10) 0.1725(2) 0.5670(2)
H52 H 0.40390 0.15560 0.60250
C35 C 0.3418(12) 0.1440(2) 0.5080(3)
H53 H 0.44000 0.15990 0.48000
C36 C 0.4008(15) 0.0865(3) 0.5174(3)
H54 H 0.55950 0.08290 0.52800
H55 H 0.35100 0.06730 0.47850
H56 H 0.32980 0.07230 0.55170
C37 C 0.1033(11) 0.1455(2) 0.4732(3)
O11 O -0.0625(8) 0.13968(19) 0.5001(2)
N7 N 0.0903(9) 0.14939(19) 0.4084(2)
H57 H 0.20540 0.16030 0.39250
C38 C -0.1131(11) 0.1357(2) 0.3638(3)
C39 C -0.1727(13) 0.0765(2) 0.3711(3)
H58 H -0.14430 0.06530 0.41570
H59 H -0.32740 0.06950 0.35420
C40 C -0.0496(13) 0.1389(2) 0.2947(3)
H60 H -0.18020 0.14400 0.26280
H61 H 0.05580 0.16740 0.29110
C41 C -0.0167(8) 0.04964(15) 0.33145(19)
C42 C 0.0555(10) -0.00291(13) 0.3327(2)
H62 H 0.00810 -0.02680 0.36170
C43 C 0.1984(10) -0.01972(13) 0.2906(2)
H63 H 0.24670 -0.05490 0.29150
C44 C 0.2692(8) 0.01602(18) 0.2473(2)
C45 C 0.1970(8) 0.06856(16) 0.24609(19)
H64 H 0.24440 0.09250 0.21710
C46 C 0.0541(8) 0.08537(12) 0.2881(2)
C47 C 0.3991(15) -0.0020(3) 0.1977(4)
N8 N 0.3978(14) -0.0512(3) 0.1743(3)
O12 O 0.2962(15) -0.0931(3) 0.1931(3)
C48 C 0.5550(16) -0.0578(4) 0.1260(4)
C49 C 0.767(2) -0.0845(6) 0.1600(6)
H65 H 0.86020 -0.09460 0.12880
H66 H 0.72730 -0.11570 0.18240
H67 H 0.84580 -0.06010 0.19020
C50 C 0.444(3) -0.0931(4) 0.0722(5)
H68 H 0.28640 -0.08670 0.06580
H69 H 0.47240 -0.12970 0.08340
H70 H 0.50350 -0.08510 0.03330
C51 C 0.5885(15) 0.0006(4) 0.1082(4)
C52 C 0.820(2) 0.0160(6) 0.0976(6)
H71 H 0.92650 -0.00610 0.12350
H72 H 0.84650 0.05260 0.10940
H73 H 0.83480 0.01130 0.05310
C53 C 0.415(2) 0.0215(4) 0.0528(4)
H74 H 0.39950 -0.00360 0.01810
H75 H 0.46470 0.05500 0.03810
H76 H 0.27460 0.02610 0.06790
N9 N 0.5300(14) 0.0273(3) 0.1667(3)
O13 O 0.5806(12) 0.0767(3) 0.1787(3)
C54 C -0.3000(12) 0.1738(3) 0.3709(3)
O14 O -0.4968(8) 0.1621(2) 0.3528(3)
N10 N -0.2497(10) 0.2224(2) 0.3945(3)
H77 H -0.11170 0.23090 0.40450
C55 C -0.4176(12) 0.2611(2) 0.4036(3)
H78 H -0.52490 0.24490 0.42860
C56 C -0.3041(18) 0.3072(3) 0.4407(5)
H79 H -0.21250 0.29410 0.47860
H80 H -0.41460 0.33090 0.45300
H81 H -0.21290 0.32580 0.41430
C57 C -0.5366(15) 0.2796(3) 0.3410(4)
O15 O -0.4547(12) 0.2880(3) 0.2929(3)
O16 O -0.7567(10) 0.2861(2) 0.3424(3)
C58 C -0.8871(19) 0.3052(5) 0.2850(5)
H82 H -0.89760 0.34330 0.28680
H83 H -1.03380 0.29000 0.28100
H84 H -0.81770 0.29510 0.24850
#END
