
#######################################################################
#
#                 Cambridge Crystallographic Data Centre
#                                CCDC
#
#######################################################################
#
# If this CIF has been generated from an entry in the Cambridge
# Structural Database, then it will include bibliographic, chemical,
# crystal, experimental, refinement or atomic coordinate data resulting
# from the CCDC's data processing and validation procedures.
#
#######################################################################

data_CSD_CIF_ZIZBIV
_audit_creation_date 2014-01-15
_audit_creation_method CSD-ConQuest-V1
_database_code_CSD ZIZBIV
_database_code_depnum_ccdc_archive 'CCDC 830294'
_chemical_formula_sum 'C17 H14 N2 O4'
_chemical_formula_moiety
;
C17 H14 N2 O4
;
_journal_coden_Cambridge 34
_journal_volume 50
_journal_year 2013
_journal_page_first 1213
_journal_name_full 'J.Heterocycl.Chem. '
loop_
_publ_author_name
"Lai Chun Wong"
"R.W.Harrington"
"S.P.Stanforth"
_chemical_name_systematic
;
Methyl 2-(4-nitrophenyl)-1,2-dihydroisoquinoline-3-carboxylate
;
_cell_volume   1446.016
_exptl_crystal_colour 'colorless'
_exptl_crystal_density_diffrn 1.425
_exptl_crystal_description 'block'
_diffrn_ambient_temperature 150
#These two values have been output from a single CSD field.
_refine_ls_R_factor_gt 0.0409
_refine_ls_wR_factor_gt 0.0409
_symmetry_cell_setting monoclinic
_symmetry_space_group_name_H-M 'P 21/c'
_symmetry_Int_Tables_number 14
loop_
_symmetry_equiv_pos_site_id
_symmetry_equiv_pos_as_xyz
1 x,y,z
2 -x,1/2+y,1/2-z
3 -x,-y,-z
4 x,-1/2-y,-1/2+z
_cell_length_a 11.5613(4)
_cell_length_b 15.6633(6)
_cell_length_c 7.9892(3)
_cell_angle_alpha 90
_cell_angle_beta 91.824(4)
_cell_angle_gamma 90
_cell_formula_units_Z 4
loop_
_atom_type_symbol
_atom_type_radius_bond
C 0.68
H 0.23
N 0.68
O 0.68
loop_
_atom_site_label
_atom_site_type_symbol
_atom_site_fract_x
_atom_site_fract_y
_atom_site_fract_z
O1 O 0.41712(8) 0.81358(7) 0.58512(13)
O2 O 0.54747(9) 0.81646(7) 0.80014(13)
O3 O 1.02351(11) 0.58899(8) 0.7599(2)
O4 O 1.11842(10) 0.68638(8) 0.89582(17)
N1 N 0.70391(10) 0.90559(7) 0.60169(14)
N2 N 1.0353(1) 0.66295(8) 0.80822(17)
C1 C 0.74126(12) 0.98868(8) 0.53767(17)
H1 H 0.82320 0.99870 0.57180
H2 H 0.69410 1.03460 0.58660
C2 C 0.72834(12) 0.99150(8) 0.34967(17)
C3 C 0.80546(13) 1.03372(9) 0.25017(19)
H3 H 0.87100 1.06160 0.29970
C4 C 0.78691(15) 1.03526(10) 0.0775(2)
H4 H 0.83980 1.06450 0.00910
C5 C 0.69209(15) 0.99460(11) 0.00489(19)
H5 H 0.68010 0.99590 -0.11330
C6 C 0.61439(13) 0.95207(9) 0.10291(18)
H6 H 0.54920 0.92410 0.05240
C7 C 0.63211(12) 0.95036(8) 0.27612(17)
C8 C 0.55660(12) 0.90420(9) 0.38569(17)
H7 H 0.48000 0.89070 0.34810
C9 C 0.59348(11) 0.88031(8) 0.53957(17)
C10 C 0.51954(11) 0.83327(9) 0.65773(17)
C11 C 0.33738(13) 0.76823(11) 0.6876(2)
H8 H 0.25880 0.77390 0.63920
H9 H 0.34030 0.79210 0.80100
H10 H 0.35880 0.70770 0.69220
C12 C 0.78542(11) 0.84478(8) 0.65308(16)
C13 C 0.76865(11) 0.75786(9) 0.61708(17)
H11 H 0.70090 0.74000 0.55640
C14 C 0.84963(11) 0.69832(9) 0.66893(17)
H12 H 0.83790 0.63950 0.64480
C15 C 0.94834(11) 0.72498(9) 0.75667(17)
C16 C 0.96701(12) 0.81016(9) 0.79441(17)
H13 H 1.03500 0.82730 0.85530
C17 C 0.88627(12) 0.86977(9) 0.74308(17)
H14 H 0.89870 0.92840 0.76860
#END
