
#######################################################################
#
#                 Cambridge Crystallographic Data Centre
#                                CCDC
#
#######################################################################
#
# If this CIF has been generated from an entry in the Cambridge
# Structural Database, then it will include bibliographic, chemical,
# crystal, experimental, refinement or atomic coordinate data resulting
# from the CCDC's data processing and validation procedures.
#
#######################################################################

data_CSD_CIF_ZIZJEX
_audit_creation_date 1996-08-20
_audit_creation_method CSD-ConQuest-V1
_database_code_CSD ZIZJEX
_chemical_formula_sum 'C13 H19 N1 O11'
_chemical_formula_moiety
;
C13 H19 N1 O11
;
_journal_coden_Cambridge 1003
_journal_volume 25
_journal_year 1995
_journal_page_first 157
_journal_name_full 'J.Chem.Cryst. '
loop_
_publ_author_name
"D.Mentzafos"
"M.Polissiou"
"I.Grapsas"
"A.Hountas"
"M.Georgiadis"
"A.Terzis"
_chemical_name_systematic
;
Methyl 2,3,4-tri-O-acetyl-6-O-nitro-methyl-\a-D-glucopyranoside
;
_chemical_melting_point 383.15
_cell_volume   1809.998
_exptl_crystal_colour 'white'
_exptl_special_details
;
Melting point range 383.15-384.15K

;
_diffrn_ambient_temperature ?
_diffrn_special_details
;
The study was carried out at room temperature,in the range 283-303K

;
#These two values have been output from a single CSD field.
_refine_ls_R_factor_gt 0.0367
_refine_ls_wR_factor_gt 0.0367
_symmetry_cell_setting orthorhombic
_symmetry_space_group_name_H-M 'P 21 21 21'
_symmetry_Int_Tables_number 19
loop_
_symmetry_equiv_pos_site_id
_symmetry_equiv_pos_as_xyz
1 x,y,z
2 1/2-x,-y,1/2+z
3 1/2+x,1/2-y,-z
4 -x,1/2+y,1/2-z
_cell_length_a 5.630(1)
_cell_length_b 14.360(1)
_cell_length_c 22.388(3)
_cell_angle_alpha 90
_cell_angle_beta 90
_cell_angle_gamma 90
_cell_formula_units_Z 4
loop_
_atom_type_symbol
_atom_type_radius_bond
C 0.68
H 0.23
N 0.68
O 0.68
loop_
_atom_site_label
_atom_site_type_symbol
_atom_site_fract_x
_atom_site_fract_y
_atom_site_fract_z
O1 O -0.2420(5) 0.0563(2) 0.0720(1)
C1 C -0.0973(8) 0.1372(3) 0.0790(2)
C2 C -0.0233(6) 0.1448(2) 0.1433(2)
C3 C 0.1066(5) 0.0578(2) 0.1633(1)
C4 C -0.0304(6) -0.0302(2) 0.1475(1)
C5 C -0.1157(6) -0.0282(2) 0.0828(2)
O2 O 0.1031(7) 0.1344(2) 0.0433(1)
C6 C 0.053(1) 0.1333(4) -0.0194(2)
O3 O 0.1424(5) 0.2207(1) 0.1517(1)
C7 C 0.0514(6) 0.3061(2) 0.1588(2)
O4 O -0.1561(5) 0.3211(2) 0.1584(2)
C8 C 0.2403(7) 0.3767(2) 0.1668(2)
O5 O 0.1247(4) 0.0610(2) 0.22732(9)
C9 C 0.3414(6) 0.0581(2) 0.2530(2)
O6 O 0.5214(4) 0.0535(2) 0.2258(1)
C10 C 0.3195(6) 0.0622(3) 0.3194(1)
O7 O 0.1346(4) -0.1057(1) 0.1549(1)
C11 C 0.0602(6) -0.1842(2) 0.1825(2)
O8 O -0.1416(5) -0.1959(2) 0.1973(1)
C12 C 0.2565(7) -0.2508(3) 0.1905(2)
C13 C -0.2941(7) -0.1042(2) 0.0709(2)
O9 O -0.3372(6) -0.0990(2) 0.0074(1)
N1 N -0.5136(7) -0.1596(3) -0.0115(2)
O10 O -0.5365(8) -0.1581(3) -0.0649(2)
O11 O -0.6073(7) -0.2082(3) 0.0251(2)
H1 H -0.2265(10) 0.190(1) 0.0699(10)
H2 H -0.172(1) 0.1556(10) 0.1692(8)
H3 H 0.257(1) 0.0558(10) 0.1475(8)
H4 H -0.1657(10) -0.0384(10) 0.1764(8)
H5 H 0.0299(10) -0.0371(10) 0.0520(9)
H6 H 0.20200 0.13130 -0.04190
H7 H -0.03560 0.18960 -0.03020
H8 H -0.04270 0.07820 -0.02910
H9 H 0.16790 0.43830 0.17190
H10 H 0.34330 0.37730 0.13150
H11 H 0.33460 0.36140 0.20230
H12 H 0.47810 0.06000 0.33740
H13 H 0.22590 0.00890 0.33350
H14 H 0.24030 0.12020 0.33100
H15 H 0.19710 -0.30690 0.21050
H16 H 0.38140 -0.22230 0.21480
H17 H 0.32150 -0.26780 0.15130
H18 H -0.44100 -0.09320 0.09330
H19 H -0.22900 -0.16520 0.08170
#END
