
#######################################################################
#
#                 Cambridge Crystallographic Data Centre
#                                CCDC
#
#######################################################################
#
# If this CIF has been generated from an entry in the Cambridge
# Structural Database, then it will include bibliographic, chemical,
# crystal, experimental, refinement or atomic coordinate data resulting
# from the CCDC's data processing and validation procedures.
#
#######################################################################

data_CSD_CIF_ZIZRAD
_audit_creation_date 2014-01-16
_audit_creation_method CSD-ConQuest-V1
_database_code_CSD ZIZRAD
_database_code_depnum_ccdc_archive 'CCDC 981778'
_chemical_formula_sum 'C4 H3 N5 O6'
_chemical_formula_moiety
;
C4 H3 N5 O6
;
_journal_coden_Cambridge 34
_journal_volume 50
_journal_year 2013
_journal_page_first 911
_journal_name_full 'J.Heterocycl.Chem. '
loop_
_publ_author_name
"I.L.Dalinger"
"I.A.Vatsadze"
"T.K.Shkineva"
"G.P.Popova"
"S.A.Shevelev"
"Y.V.Nelyubina"
_chemical_name_systematic
;
1-methyl-3,4,5-trinitro-1H-pyrazole
;
_cell_volume    808.210
_exptl_crystal_colour 'colorless'
_exptl_crystal_density_diffrn 1.784
_exptl_crystal_description 'prism'
_diffrn_ambient_temperature 100
#These two values have been output from a single CSD field.
_refine_ls_R_factor_gt 0.0219
_refine_ls_wR_factor_gt 0.0219
_symmetry_cell_setting orthorhombic
_symmetry_space_group_name_H-M 'P n a 21'
_symmetry_Int_Tables_number 33
loop_
_symmetry_equiv_pos_site_id
_symmetry_equiv_pos_as_xyz
1 x,y,z
2 -x,-y,1/2+z
3 1/2+x,1/2-y,z
4 1/2-x,1/2+y,1/2+z
_cell_length_a 11.7333(3)
_cell_length_b 8.2594(2)
_cell_length_c 8.3398(2)
_cell_angle_alpha 90
_cell_angle_beta 90
_cell_angle_gamma 90
_cell_formula_units_Z 4
loop_
_atom_type_symbol
_atom_type_radius_bond
C 0.68
H 0.23
N 0.68
O 0.68
loop_
_atom_site_label
_atom_site_type_symbol
_atom_site_fract_x
_atom_site_fract_y
_atom_site_fract_z
O1 O 0.35649(8) 0.59122(13) 0.21699(13)
N1 N 0.14333(8) 0.24382(12) 0.36153(13)
N2 N 0.22837(8) 0.33408(12) 0.30449(12)
C1 C 0.20892(9) 0.48216(13) 0.36020(14)
C2 C 0.11143(9) 0.48984(12) 0.45434(14)
C3 C 0.07121(9) 0.33294(13) 0.45191(14)
C4 C 0.13900(13) 0.07169(16) 0.31800(19)
O2 O 0.27035(8) 0.73949(11) 0.39559(16)
N3 N 0.28515(8) 0.61367(12) 0.32087(13)
O3 O 0.01997(9) 0.73322(13) 0.45051(19)
N4 N 0.06170(9) 0.62863(12) 0.53439(16)
O4 O 0.06688(10) 0.62874(15) 0.68067(16)
O5 O -0.09892(9) 0.37595(13) 0.57220(15)
N5 N -0.03494(8) 0.27330(12) 0.51630(13)
O6 O -0.05413(8) 0.12818(10) 0.50794(14)
H1 H 0.2024(17) 0.050(3) 0.253(3)
H2 H 0.070(2) 0.055(3) 0.260(3)
H3 H 0.1356(19) 0.011(2) 0.415(3)
#END
