
#######################################################################
#
#                 Cambridge Crystallographic Data Centre
#                                CCDC
#
#######################################################################
#
# If this CIF has been generated from an entry in the Cambridge
# Structural Database, then it will include bibliographic, chemical,
# crystal, experimental, refinement or atomic coordinate data resulting
# from the CCDC's data processing and validation procedures.
#
#######################################################################

data_CSD_CIF_ZIZROP
_audit_creation_date 1996-08-14
_audit_creation_method CSD-ConQuest-V1
_database_code_CSD ZIZROP
_chemical_formula_sum 'C13 H11 N3 O3'
_chemical_formula_moiety
;
C13 H11 N3 O3
;
_journal_coden_Cambridge 95
_journal_year 1995
_journal_page_first 1516
_journal_name_full 'Izv.Akad.Nauk SSSR,Ser.Khim.(Russ.)(Russ.Chem.Bull.) '
loop_
_publ_author_name
"B.I.Buzykin"
"A.S.Dokuchaev"
"O.A.Kharitonova"
_chemical_name_systematic
;
N-Phenyl-4-nitrobenzamidoxime
;
_chemical_melting_point 457.15
_cell_volume   1288.820
_exptl_crystal_density_diffrn 1.326
_exptl_special_details
;
Melting point range 457.15-459.15K

;
_diffrn_ambient_temperature ?
_diffrn_special_details
;
The study was carried out at room temperature,in the range 283-303K

;
#These two values have been output from a single CSD field.
_refine_ls_R_factor_gt 0.063
_refine_ls_wR_factor_gt 0.063
_symmetry_cell_setting triclinic
_symmetry_space_group_name_H-M 'P -1'
_symmetry_Int_Tables_number 2
loop_
_symmetry_equiv_pos_site_id
_symmetry_equiv_pos_as_xyz
1 x,y,z
2 -x,-y,-z
_cell_length_a 9.636(5)
_cell_length_b 9.789(6)
_cell_length_c 15.816(9)
_cell_angle_alpha 72.93(5)
_cell_angle_beta 83.44(4)
_cell_angle_gamma 64.66(4)
_cell_formula_units_Z 4
loop_
_atom_type_symbol
_atom_type_radius_bond
C 0.68
H 0.23
N 0.68
O 0.68
loop_
_atom_site_label
_atom_site_type_symbol
_atom_site_fract_x
_atom_site_fract_y
_atom_site_fract_z
O1 O -0.3972(4) 0.2476(4) -0.3790(3)
O2 O 0.4316(5) -0.5383(5) -0.2495(3)
O3 O 0.3159(6) -0.6141(6) -0.1351(4)
N1 N -0.2630(4) 0.1050(4) -0.3661(3)
N2 N -0.2571(4) 0.1641(5) -0.2337(3)
N3 N 0.3218(6) -0.5163(5) -0.2007(4)
C1 C -0.1976(5) 0.0737(5) -0.2911(4)
C2 C -0.0599(5) -0.0782(5) -0.2665(3)
C3 C 0.0645(6) -0.1088(6) -0.3242(4)
C4 C 0.1903(6) -0.2542(6) -0.3012(4)
C5 C 0.1876(6) -0.3631(6) -0.2233(4)
C6 C 0.0660(7) -0.3344(7) -0.1664(4)
C7 C -0.0584(6) -0.1884(6) -0.1888(4)
C8 C -0.1747(6) 0.1743(6) -0.1694(4)
C9 C -0.2532(7) 0.2182(7) -0.0960(4)
C10 C -0.1722(8) 0.2342(8) -0.0322(5)
C11 C -0.0222(8) 0.2102(8) -0.0436(5)
C12 C 0.0532(7) 0.1693(7) -0.1175(5)
C13 C -0.0214(6) 0.1515(6) -0.1809(4)
H1 H -0.407(7) 0.269(6) -0.428(4)
H2 H -0.352(5) 0.234(4) -0.243(3)
O4 O -0.2982(4) 0.0449(4) -0.5195(3)
O5 O -1.2314(4) 0.6321(5) -0.6415(4)
O6 O -1.1552(4) 0.7876(4) -0.6116(3)
N4 N -0.4452(4) 0.1731(5) -0.5272(3)
N5 N -0.4645(5) 0.0950(5) -0.6498(3)
N6 N -1.1300(5) 0.6636(5) -0.6243(3)
C14 C -0.5202(5) 0.1913(5) -0.5965(4)
C15 C -0.6770(5) 0.3184(5) -0.6066(3)
C16 C -0.7956(6) 0.2902(5) -0.6316(4)
C17 C -0.9444(6) 0.4063(6) -0.6361(4)
C18 C -0.9728(5) 0.5427(5) -0.6173(4)
C19 C -0.8551(6) 0.5727(5) -0.5937(4)
C20 C -0.7080(6) 0.4581(5) -0.5886(4)
C21 C -0.5009(6) 0.1298(6) -0.7405(4)
C22 C -0.4733(6) 0.0063(6) -0.7751(4)
C23 C -0.5037(7) 0.0353(7) -0.8640(4)
C24 C -0.5638(7) 0.1853(8) -0.9167(4)
C25 C -0.5925(8) 0.3098(7) -0.8836(5)
C26 C -0.5602(7) 0.2826(6) -0.7947(4)
H3 H -0.270(7) 0.105(7) -0.528(5)
H4 H -0.404(5) 0.009(3) -0.634(2)
#END
