
#######################################################################
#
#                 Cambridge Crystallographic Data Centre
#                                CCDC
#
#######################################################################
#
# If this CIF has been generated from an entry in the Cambridge
# Structural Database, then it will include bibliographic, chemical,
# crystal, experimental, refinement or atomic coordinate data resulting
# from the CCDC's data processing and validation procedures.
#
#######################################################################

data_CSD_CIF_ZIZSUW
_audit_creation_date 1996-08-14
_audit_creation_method CSD-ConQuest-V1
_database_code_CSD ZIZSUW
_chemical_formula_sum 'C9 H13 N3 O1'
_chemical_formula_moiety
;
C9 H13 N3 O1
;
_journal_coden_Cambridge 122
_journal_year 1995
_journal_page_first 395
_journal_name_full 'Khim.Get.Soedin.,SSSR(Russ.)(Chem.Heterocycl.Compd.) '
loop_
_publ_author_name
"V.A.Samsonov"
"L.B.Volodarsky"
"I.Yu.Bagryanskaya"
"Yu.V.Gatilov"
"M.M.Shakirov"
_chemical_name_systematic
;
3-Isopropylamino-2-nitrosoaniline
;
_chemical_melting_point 359.15
_cell_volume   1919.946
_exptl_crystal_colour 'dark blue'
_exptl_crystal_density_diffrn 1.24
_exptl_special_details
;
Melting point range 359.15-360.15K

;
_diffrn_ambient_temperature ?
_diffrn_special_details
;
The study was carried out at room temperature,in the range 283-303K

;
#These two values have been output from a single CSD field.
_refine_ls_R_factor_gt 0.0533
_refine_ls_wR_factor_gt 0.0533
_symmetry_cell_setting monoclinic
_symmetry_space_group_name_H-M 'P 21/c'
_symmetry_Int_Tables_number 14
loop_
_symmetry_equiv_pos_site_id
_symmetry_equiv_pos_as_xyz
1 x,y,z
2 -x,1/2+y,1/2-z
3 -x,-y,-z
4 x,-1/2-y,-1/2+z
_cell_length_a 12.690(7)
_cell_length_b 11.939(6)
_cell_length_c 13.294(6)
_cell_angle_alpha 90
_cell_angle_beta 107.59(4)
_cell_angle_gamma 90
_cell_formula_units_Z 8
loop_
_atom_type_symbol
_atom_type_radius_bond
C 0.68
N 0.68
O 0.68
loop_
_atom_site_label
_atom_site_type_symbol
_atom_site_fract_x
_atom_site_fract_y
_atom_site_fract_z
C1 C -0.0813(2) 0.3915(3) 0.3367(2)
C2 C 0.0067(2) 0.3304(3) 0.3133(2)
C3 C 0.0314(2) 0.3508(3) 0.2153(2)
C4 C -0.0312(3) 0.4291(3) 0.1460(3)
C5 C -0.1118(3) 0.4884(3) 0.1728(3)
C6 C -0.1376(3) 0.4730(3) 0.2649(3)
C7 C -0.1755(3) 0.4353(3) 0.4723(3)
C8 C -0.1442(4) 0.4071(5) 0.5896(3)
C9 C -0.2975(3) 0.4109(5) 0.4189(4)
N1 N -0.1029(2) 0.3707(3) 0.4273(2)
N2 N 0.0773(2) 0.2581(2) 0.3778(2)
N3 N 0.1152(3) 0.2945(3) 0.1957(2)
O1 O 0.0602(2) 0.2311(2) 0.4648(2)
C10 C 0.5368(2) 0.1177(3) 0.4097(2)
C11 C 0.4340(2) 0.1692(2) 0.4106(2)
C12 C 0.4201(2) 0.2063(3) 0.5091(2)
C13 C 0.5075(3) 0.1960(3) 0.6002(2)
C14 C 0.6044(3) 0.1461(3) 0.5971(3)
C15 C 0.6215(3) 0.1069(3) 0.5068(3)
C16 C 0.6464(3) 0.0253(3) 0.3055(3)
C17 C 0.6119(4) -0.0299(4) 0.1979(4)
C18 C 0.7431(4) 0.1043(5) 0.3174(4)
N4 N 0.5496(2) 0.0837(2) 0.3180(2)
N5 N 0.3436(2) 0.1843(2) 0.3263(2)
N6 N 0.3234(3) 0.2511(3) 0.5098(3)
O2 O 0.3494(2) 0.1560(2) 0.2349(2)
#END
