
#######################################################################
#
#                 Cambridge Crystallographic Data Centre
#                                CCDC
#
#######################################################################
#
# If this CIF has been generated from an entry in the Cambridge
# Structural Database, then it will include bibliographic, chemical,
# crystal, experimental, refinement or atomic coordinate data resulting
# from the CCDC's data processing and validation procedures.
#
#######################################################################

data_CSD_CIF_ZIZVIN
_audit_creation_date 1996-08-14
_audit_creation_method CSD-ConQuest-V1
_database_code_CSD ZIZVIN
_chemical_formula_sum 'C21 H16 N4 O5'
_chemical_formula_moiety
;
C21 H16 N4 O5
;
_journal_coden_Cambridge 122
_journal_year 1995
_journal_page_first 950
_journal_name_full 'Khim.Get.Soedin.,SSSR(Russ.)(Chem.Heterocycl.Compd.) '
loop_
_publ_author_name
"N.N.Kolos"
"V.D.Orlov"
"E.Ya.Yuzefovskaya"
"F.G.Yaremenko"
"N.P.Vorob'eva"
"O.V.Shishkin"
"Yu.T.Struchkov"
"S.M.Ivkov"
_chemical_name_systematic
;
1-(2-Amino-5-nitrophenylamino)-2-benzoyl-1-(4-nitrophenyl)ethene
;
_chemical_melting_point 493.15
_cell_volume    942.896
_exptl_special_details
;
Melting point range 493.15-494.15K

;
_diffrn_ambient_temperature ?
_diffrn_special_details
;
The study was carried out at room temperature,in the range 283-303K

;
#These two values have been output from a single CSD field.
_refine_ls_R_factor_gt 0.037
_refine_ls_wR_factor_gt 0.037
_symmetry_cell_setting triclinic
_symmetry_space_group_name_H-M 'P -1'
_symmetry_Int_Tables_number 2
loop_
_symmetry_equiv_pos_site_id
_symmetry_equiv_pos_as_xyz
1 x,y,z
2 -x,-y,-z
_cell_length_a 6.169(2)
_cell_length_b 12.922(3)
_cell_length_c 12.930(4)
_cell_angle_alpha 66.75(2)
_cell_angle_beta 87.86(2)
_cell_angle_gamma 84.65(2)
_cell_formula_units_Z 2
loop_
_atom_type_symbol
_atom_type_radius_bond
C 0.68
H 0.23
N 0.68
O 0.68
loop_
_atom_site_label
_atom_site_type_symbol
_atom_site_fract_x
_atom_site_fract_y
_atom_site_fract_z
O1 O -0.5010(3) -0.4814(2) 0.3723(2)
O2 O 0.3828(3) 0.0982(2) 0.0400(2)
O3 O 0.0998(3) 0.1995(2) 0.0568(2)
O4 O -0.3157(3) -0.0442(2) 0.6826(2)
O5 O -0.5986(3) -0.0784(2) 0.6130(2)
N1 N -0.3200(3) -0.3114(2) 0.3996(2)
N2 N 0.1103(3) -0.3812(2) 0.4793(2)
N3 N 0.1976(3) 0.1081(2) 0.0719(2)
N4 N -0.4026(4) -0.0893(2) 0.6296(2)
C1 C -0.4204(4) -0.5200(2) 0.2104(2)
C2 C -0.2472(4) -0.5310(2) 0.1422(2)
C3 C -0.2550(4) -0.6011(2) 0.0857(2)
C4 C -0.4359(4) -0.6581(2) 0.0927(2)
C5 C -0.6076(4) -0.6462(2) 0.1580(2)
C6 C -0.6001(4) -0.5792(2) 0.2186(2)
C7 C -0.4099(4) -0.4503(2) 0.2783(2)
C8 C -0.2940(4) -0.3514(2) 0.2338(2)
C9 C -0.2517(4) -0.2875(2) 0.2912(2)
C10 C -0.1291(4) -0.1853(2) 0.2373(2)
C11 C -0.2221(4) -0.0806(2) 0.2304(2)
C12 C -0.1153(4) 0.0149(2) 0.1767(2)
C13 C 0.0845(4) 0.0052(2) 0.1302(2)
C14 C 0.1839(4) -0.0967(2) 0.1358(2)
C15 C 0.0750(4) -0.1926(2) 0.1897(2)
C16 C -0.2284(4) -0.2687(2) 0.4728(2)
C17 C -0.0119(4) -0.3040(2) 0.5106(2)
C18 C 0.0730(4) -0.2615(2) 0.5823(2)
C19 C -0.0511(4) -0.1887(2) 0.6183(2)
C20 C -0.2653(4) -0.1596(2) 0.5847(2)
C21 C -0.3541(4) -0.1976(2) 0.5116(2)
H1 H -0.394(1) -0.377(1) 0.428(1)
H2 H 0.063(1) -0.383(1) 0.421(1)
H3 H 0.246(1) -0.403(1) 0.511(1)
H4 H -0.132(1) -0.609(1) 0.046(1)
H5 H -0.418(1) -0.705(1) 0.048(1)
H6 H -0.745(1) -0.689(1) 0.169(1)
H7 H -0.721(1) -0.570(1) 0.265(1)
H8 H -0.250(1) -0.325(1) 0.158(1)
H9 H -0.369(1) -0.079(1) 0.266(1)
H10 H -0.182(1) 0.088(1) 0.169(1)
H11 H 0.330(1) -0.094(1) 0.100(1)
H12 H 0.133(1) -0.263(1) 0.193(1)
H13 H -0.117(1) -0.491(1) 0.141(1)
H14 H 0.228(1) -0.288(1) 0.612(1)
H15 H 0.005(1) -0.160(1) 0.666(1)
H16 H -0.504(1) -0.177(1) 0.487(1)
#END
