
#######################################################################
#
#                 Cambridge Crystallographic Data Centre
#                                CCDC
#
#######################################################################
#
# If this CIF has been generated from an entry in the Cambridge
# Structural Database, then it will include bibliographic, chemical,
# crystal, experimental, refinement or atomic coordinate data resulting
# from the CCDC's data processing and validation procedures.
#
#######################################################################

data_CSD_CIF_ZMBPNZ
_audit_creation_date 1976-02-16
_audit_creation_method CSD-ConQuest-V1
_database_code_CSD ZMBPNZ
_database_code_depnum_ccdc_archive 'CCDC 1313738'
_chemical_formula_sum 'C20 H16 N4 O4'
_chemical_formula_moiety
;
C20 H16 N4 O4
;
_journal_coden_Cambridge 241
_journal_year 1975
_journal_page_first 269
_journal_name_full 'Chem.Lett. '
loop_
_publ_author_name
"Y.Takada"
"M.Tabata"
"A.Suzuki"
"A.Furusaki"
_chemical_name_systematic
;
Z-4-Methylbenzophenone 2,4-dinitrophenylhydrazone
;
_chemical_melting_point 495.15
_cell_volume   1792.011
_diffrn_ambient_temperature ?
_diffrn_special_details
;
The study was carried out at room temperature,in the range 283-303K

;
#These two values have been output from a single CSD field.
_refine_ls_R_factor_gt 0.05
_refine_ls_wR_factor_gt 0.05
_symmetry_cell_setting monoclinic
_symmetry_space_group_name_H-M 'P 21/c'
_symmetry_Int_Tables_number 14
loop_
_symmetry_equiv_pos_site_id
_symmetry_equiv_pos_as_xyz
1 x,y,z
2 -x,1/2+y,1/2-z
3 -x,-y,-z
4 x,-1/2-y,-1/2+z
_cell_length_a 15.128
_cell_length_b 7.604
_cell_length_c 15.962
_cell_angle_alpha 90
_cell_angle_beta 102.59
_cell_angle_gamma 90
_cell_formula_units_Z 4
loop_
_atom_type_symbol
_atom_type_radius_bond
C 0.68
N 0.68
O 0.68
loop_
_atom_site_label
_atom_site_type_symbol
_atom_site_fract_x
_atom_site_fract_y
_atom_site_fract_z
C1 C 0.27610 0.03770 -0.03300
C2 C 0.42670 0.20660 0.22620
C3 C 0.40590 0.11350 0.29390
C4 C 0.32780 0.01110 0.27750
C5 C 0.27210 0.00270 0.19600
C6 C 0.02080 0.23990 0.05620
C7 C -0.03490 0.28220 0.11460
C8 C -0.12230 0.34580 0.08620
C9 C -0.15630 0.36720 -0.00020
C10 C -0.10480 0.32570 -0.06010
C11 C -0.01870 0.26430 -0.03220
C12 C 0.23340 0.08020 -0.11750
C13 C 0.46490 0.12430 0.38340
C14 C 0.27040 0.02800 -0.18480
C15 C 0.35040 -0.06590 -0.16990
C16 C 0.39360 -0.10800 -0.08690
C17 C 0.35670 -0.05660 -0.01840
C18 C 0.23480 0.09000 0.03930
C19 C 0.29310 0.09670 0.12830
C20 C 0.37170 0.19920 0.14430
N1 N 0.15010 0.12880 0.01820
N2 N 0.10730 0.18220 0.08110
N3 N -0.00390 0.25540 0.20610
N4 N -0.24890 0.43040 -0.03080
O1 O -0.05750 0.27580 0.25180
O2 O 0.07490 0.21270 0.23520
O3 O -0.28940 0.48890 0.02090
O4 O -0.28230 0.41950 -0.10770
#END
