
#######################################################################
#
#                 Cambridge Crystallographic Data Centre
#                                CCDC
#
#######################################################################
#
# If this CIF has been generated from an entry in the Cambridge
# Structural Database, then it will include bibliographic, chemical,
# crystal, experimental, refinement or atomic coordinate data resulting
# from the CCDC's data processing and validation procedures.
#
#######################################################################

data_CSD_CIF_ZOBPOX
_audit_creation_date 2014-06-10
_audit_creation_method CSD-ConQuest-V1
_database_code_CSD ZOBPOX
_database_code_depnum_ccdc_archive 'CCDC 976163'
_chemical_formula_sum 'C21 H16 N2 O4'
_chemical_formula_moiety
;
C21 H16 N2 O4
;
_journal_coden_Cambridge 1336
_journal_volume 16
_journal_year 2014
_journal_page_first 2602
_journal_name_full 'Org.Lett. '
loop_
_publ_author_name
"A.Modak"
"U.Dutta"
"R.Kancherla"
"S.Maity"
"M.Bhadra"
"S.M.Mobin"
"D.Maiti"
_chemical_name_systematic
;
3-(3-nitrobenzyl)-2-phenyl-2,3-dihydro-4H-1,3-benzoxazin-4-one
;
_cell_volume   3478.971
_exptl_crystal_colour 'colorless'
_exptl_crystal_density_diffrn 1.376
_exptl_crystal_description 'block'
_diffrn_ambient_temperature 150
#These two values have been output from a single CSD field.
_refine_ls_R_factor_gt 0.0403
_refine_ls_wR_factor_gt 0.0403
_symmetry_cell_setting triclinic
_symmetry_space_group_name_H-M 'P -1'
_symmetry_Int_Tables_number 2
loop_
_symmetry_equiv_pos_site_id
_symmetry_equiv_pos_as_xyz
1 x,y,z
2 -x,-y,-z
_cell_length_a 12.7895(4)
_cell_length_b 17.3429(8)
_cell_length_c 17.9750(7)
_cell_angle_alpha 102.093(4)
_cell_angle_beta 100.252(3)
_cell_angle_gamma 111.605(4)
_cell_formula_units_Z 8
loop_
_atom_type_symbol
_atom_type_radius_bond
C 0.68
H 0.23
N 0.68
O 0.68
loop_
_atom_site_label
_atom_site_type_symbol
_atom_site_fract_x
_atom_site_fract_y
_atom_site_fract_z
O1 O 1.4407(2) 2.01602(16) 0.11286(15)
O2 O 1.5989(2) 2.07427(15) 0.07897(14)
O3 O 1.31097(18) 1.79984(15) 0.23970(13)
O4 O 1.60951(17) 1.78610(14) 0.34238(13)
N1 N 1.5280(2) 2.01410(17) 0.09519(15)
C1 C 1.5380(3) 1.7252(2) 0.26646(17)
H1 H 1.59090 1.72500 0.23160
C2 C 1.5491(3) 1.9359(2) 0.09224(17)
C3 C 1.6416(3) 1.9298(2) 0.06504(17)
H2 H 1.69160 1.97560 0.04950
C4 C 1.6586(3) 1.8551(2) 0.06122(17)
H3 H 1.72060 1.84880 0.04220
C5 C 1.5852(3) 1.7887(2) 0.08525(17)
H4 H 1.59800 1.73770 0.08260
C6 C 1.4936(3) 1.7964(2) 0.11309(17)
C7 C 1.4757(2) 1.87143(19) 0.11652(16)
H5 H 1.41370 1.87810 0.13530
C8 C 1.4168(3) 1.72676(19) 0.14270(17)
H6 H 1.33410 1.71710 0.12350
H7 H 1.42250 1.67150 0.12110
N2 N 1.4521(2) 1.75187(16) 0.22972(14)
C9 C 1.3937(3) 1.7871(2) 0.27191(18)
C10 C 1.4425(3) 1.8128(2) 0.35896(18)
C11 C 1.3882(3) 1.8453(3) 0.4099(2)
H8 H 1.31550 1.84680 0.38900
C12 C 1.4399(3) 1.8754(3) 0.4909(2)
H9 H 1.40200 1.89640 0.52570
C13 C 1.5476(3) 1.8749(3) 0.5214(2)
H10 H 1.58330 1.89610 0.57710
C14 C 1.6027(3) 1.8438(2) 0.4716(2)
H11 H 1.67640 1.84390 0.49240
C15 C 1.5496(3) 1.8125(2) 0.39067(18)
C16 C 1.4851(3) 1.6342(2) 0.27453(17)
C17 C 1.5606(3) 1.5998(2) 0.3039(2)
H12 H 1.64290 1.63300 0.31780
C18 C 1.5163(4) 1.5176(2) 0.3129(2)
H13 H 1.56820 1.49490 0.33370
C19 C 1.3964(4) 1.4684(2) 0.2918(2)
H14 H 1.36610 1.41190 0.29780
C20 C 1.3214(3) 1.5017(2) 0.26207(19)
H15 H 1.23920 1.46790 0.24750
C21 C 1.3648(3) 1.5844(2) 0.25317(18)
H16 H 1.31240 1.60690 0.23250
O5 O 1.5147(2) 1.57409(15) 0.07895(14)
O6 O 1.63133(19) 1.51577(16) 0.11262(16)
O7 O 1.60909(19) 1.29994(15) 0.24013(13)
O8 O 1.34828(18) 1.28608(14) 0.34248(12)
N3 N 1.5338(2) 1.51431(18) 0.09524(15)
C22 C 1.3205(3) 1.2254(2) 0.26698(17)
H17 H 1.25000 1.22540 0.23240
C23 C 1.4331(3) 1.4357(2) 0.09193(17)
C24 C 1.3207(3) 1.4297(2) 0.06465(17)
H18 H 1.30840 1.47530 0.04890
C25 C 1.2276(3) 1.3549(2) 0.06130(18)
H19 H 1.14980 1.34870 0.04240
C26 C 1.2460(3) 1.2886(2) 0.08513(17)
H20 H 1.18090 1.23750 0.08210
C27 C 1.3590(3) 1.29638(19) 0.11326(17)
C28 C 1.4537(3) 1.37105(19) 0.11619(16)
H21 H 1.53160 1.37730 0.13470
C29 C 1.3816(3) 1.22704(19) 0.14282(17)
H22 H 1.31020 1.17160 0.12100
H23 H 1.44540 1.21790 0.12390
N4 N 1.4143(2) 1.25185(16) 0.22968(14)
C30 C 1.5293(3) 1.2872(2) 0.27194(18)
C31 C 1.5498(3) 1.3128(2) 0.35915(19)
C32 C 1.6619(3) 1.3455(3) 0.4101(2)
H24 H 1.72570 1.34730 0.38930
C33 C 1.6806(3) 1.3753(3) 0.4910(2)
H25 H 1.75690 1.39590 0.52570
C34 C 1.5885(3) 1.3753(3) 0.5216(2)
H26 H 1.60220 1.39700 0.57720
C35 C 1.4775(3) 1.3441(2) 0.4718(2)
H27 H 1.41440 1.34410 0.49280
C36 C 1.4583(3) 1.3127(2) 0.39089(18)
C37 C 1.2865(3) 1.1344(2) 0.27465(16)
C38 C 1.3462(3) 1.0847(2) 0.25334(19)
H28 H 1.41090 1.10730 0.23300
C39 C 1.3113(3) 1.0017(2) 0.26170(18)
H29 H 1.35210 0.96770 0.24680
C40 C 1.2176(3) 0.9685(2) 0.2915(2)
H30 H 1.19420 0.91190 0.29720
C41 C 1.1580(3) 1.0176(2) 0.3129(2)
H31 H 1.09390 0.99490 0.33380
C42 C 1.1914(3) 1.1002(2) 0.3041(2)
H32 H 1.14930 1.13340 0.31810
O9 O 0.9408(2) 1.01599(16) 0.11259(15)
O10 O 1.0984(2) 1.07375(15) 0.07843(14)
O11 O 0.81093(19) 0.79998(15) 0.24012(13)
O12 O 1.10914(17) 0.78599(13) 0.34232(13)
N5 N 1.0281(2) 1.01398(18) 0.09514(15)
C43 C 1.0382(2) 0.7251(2) 0.26702(17)
H33 H 1.09140 0.72490 0.23240
C44 C 1.0490(3) 0.9359(2) 0.09187(17)
C45 C 1.1410(3) 0.9298(2) 0.06452(17)
H34 H 1.19070 0.97530 0.04850
C46 C 1.1580(3) 0.8549(2) 0.06132(18)
H35 H 1.22030 0.84870 0.04270
C47 C 1.0849(3) 0.7888(2) 0.08509(18)
H36 H 1.09730 0.73760 0.08200
C48 C 0.9939(3) 0.7968(2) 0.11340(16)
C49 C 0.9751(3) 0.8711(2) 0.11647(17)
H37 H 0.91290 0.87750 0.13510
C50 C 0.9170(3) 0.72691(19) 0.14286(17)
H38 H 0.83430 0.71740 0.12380
H39 H 0.92260 0.67170 0.12110
N6 N 0.9523(2) 0.75168(16) 0.22952(14)
C51 C 0.8940(3) 0.7869(2) 0.27187(18)
C52 C 0.9429(3) 0.8130(2) 0.35913(19)
C53 C 0.8887(3) 0.8453(2) 0.4102(2)
H40 H 0.81580 0.84650 0.38950
C54 C 0.9407(3) 0.8756(3) 0.4910(2)
H41 H 0.90280 0.89670 0.52580
C55 C 1.0474(3) 0.8753(3) 0.5215(2)
H42 H 1.08270 0.89670 0.57720
C56 C 1.1031(3) 0.8444(2) 0.4720(2)
H43 H 1.17700 0.84480 0.49290
C57 C 1.0496(3) 0.8127(2) 0.39104(19)
C58 C 0.9851(3) 0.6340(2) 0.27471(17)
C59 C 1.0610(3) 0.6001(2) 0.3042(2)
H44 H 1.14340 0.63350 0.31860
C60 C 1.0165(4) 0.5176(2) 0.3127(2)
H45 H 1.06820 0.49450 0.33300
C61 C 0.8963(4) 0.4687(2) 0.2915(2)
H46 H 0.86600 0.41230 0.29770
C62 C 0.8210(3) 0.5013(2) 0.26160(18)
H47 H 0.73870 0.46720 0.24640
C63 C 0.8654(3) 0.5847(2) 0.25361(17)
H48 H 0.81330 0.60770 0.23360
O13 O 1.0149(2) 0.57396(15) 0.07867(14)
O14 O 1.13175(19) 0.51638(16) 0.11297(15)
O15 O 1.10879(18) 0.29997(16) 0.23983(13)
O16 O 0.84777(18) 0.28611(14) 0.34234(12)
N7 N 1.0336(2) 0.51370(18) 0.09499(15)
C64 C 0.8199(3) 0.22500(19) 0.26661(17)
H49 H 0.74940 0.22480 0.23180
C65 C 0.9324(3) 0.4357(2) 0.09207(17)
C66 C 0.9546(3) 0.3714(2) 0.11673(17)
H50 H 1.03260 0.37800 0.13550
C67 C 0.8593(3) 0.29661(19) 0.11328(16)
C68 C 0.7458(3) 0.2887(2) 0.08491(17)
H51 H 0.68060 0.23760 0.08170
C69 C 0.7274(3) 0.3551(2) 0.06125(17)
H52 H 0.64970 0.34910 0.04240
C70 C 0.8212(3) 0.4300(2) 0.06478(18)
H53 H 0.80930 0.47580 0.04900
C71 C 0.8815(3) 0.22683(19) 0.14295(17)
H54 H 0.80980 0.17160 0.12130
H55 H 0.94500 0.21720 0.12380
N8 N 0.9147(2) 0.25170(16) 0.22976(14)
C72 C 1.0291(3) 0.2867(2) 0.27194(18)
C73 C 0.9580(3) 0.3123(2) 0.39060(19)
C74 C 0.9766(3) 0.3440(2) 0.4716(2)
H56 H 0.91350 0.34440 0.49250
C75 C 1.0881(4) 0.3750(3) 0.5213(2)
H57 H 1.10160 0.39620 0.57700
C76 C 1.1804(4) 0.3754(3) 0.4911(2)
H58 H 1.25680 0.39670 0.52590
C77 C 1.1618(3) 0.3449(3) 0.4102(2)
H59 H 1.22550 0.34580 0.38950
C78 C 1.0499(3) 0.3129(2) 0.35901(18)
C79 C 0.7864(3) 0.1339(2) 0.27468(18)
C80 C 0.8455(3) 0.0841(2) 0.25308(17)
H60 H 0.90990 0.10650 0.23230
C81 C 0.8111(3) 0.0014(2) 0.26172(19)
H61 H 0.85190 -0.03260 0.24670
C82 C 0.7183(3) -0.0318(2) 0.2919(2)
H62 H 0.69570 -0.08800 0.29860
C83 C 0.6579(3) 0.0178(2) 0.3125(2)
H63 H 0.59290 -0.00530 0.33260
C84 C 0.6913(3) 0.1001(2) 0.30425(19)
H64 H 0.64960 0.13360 0.31860
#END
