
#######################################################################
#
#                 Cambridge Crystallographic Data Centre
#                                CCDC
#
#######################################################################
#
# If this CIF has been generated from an entry in the Cambridge
# Structural Database, then it will include bibliographic, chemical,
# crystal, experimental, refinement or atomic coordinate data resulting
# from the CCDC's data processing and validation procedures.
#
#######################################################################

data_CSD_CIF_ZODZUN
_audit_creation_date 1996-10-31
_audit_creation_method CSD-ConQuest-V1
_database_code_CSD ZODZUN
_database_code_depnum_ccdc_archive 'CCDC 1314128'
_chemical_formula_sum 'C15 H19 N1 O3'
_chemical_formula_moiety
;
C15 H19 N1 O3
;
_journal_coden_Cambridge 599
_journal_volume 14
_journal_year 1995
_journal_page_first 17
_journal_name_full 'J.Carbohydr.Chem. '
loop_
_publ_author_name
"J.M.J.Tronchet"
"M.Balkadjian"
"G.Zosimo-Landolfo"
"F.Barbalat-Rey"
"P.Lichtle"
"A.Ricca"
"I.Komaromi"
"G.Bernardinelli"
"M.Geoffroy"
_chemical_name_systematic
;
2,3-O-Cyclopentylidene-1,4-dideoxy-1,4-(N-hydroxyimino)-1-C-phenyl-\b-DL-eryth
ritol
;
_chemical_melting_point 374.55
_cell_volume   1401.088
_exptl_crystal_density_diffrn 1.24
_exptl_special_details
;
Melting point range 374.55-381.05K

;
_diffrn_ambient_temperature ?
_diffrn_special_details
;
The study was carried out at room temperature,in the range 283-303K

;
#These two values have been output from a single CSD field.
_refine_ls_R_factor_gt 0.052
_refine_ls_wR_factor_gt 0.052
_symmetry_cell_setting monoclinic
_symmetry_space_group_name_H-M 'P 21/c'
_symmetry_Int_Tables_number 14
loop_
_symmetry_equiv_pos_site_id
_symmetry_equiv_pos_as_xyz
1 x,y,z
2 -x,1/2+y,1/2-z
3 -x,-y,-z
4 x,-1/2-y,-1/2+z
_cell_length_a 12.502(4)
_cell_length_b 5.842(1)
_cell_length_c 19.423(3)
_cell_angle_alpha 90
_cell_angle_beta 99.01(2)
_cell_angle_gamma 90
_cell_formula_units_Z 4
loop_
_atom_type_symbol
_atom_type_radius_bond
C 0.68
H 0.23
N 0.68
O 0.68
loop_
_atom_site_label
_atom_site_type_symbol
_atom_site_fract_x
_atom_site_fract_y
_atom_site_fract_z
O1 O 0.2125(3) 0.2215(8) 0.1303(2)
O2 O 0.1345(3) 0.283(1) 0.0190(2)
O3 O 0.4316(3) -0.1966(7) 0.0306(2)
N1 N 0.3945(4) 0.0375(9) 0.0305(3)
C1 C 0.3843(5) 0.093(1) 0.1040(3)
C2 C 0.2994(5) 0.282(1) 0.0952(3)
C3 C 0.2475(5) 0.273(1) 0.0184(3)
C4 C 0.2837(5) 0.048(1) -0.0083(3)
C5 C 0.4945(5) 0.150(1) 0.1456(3)
C6 C 0.5449(6) 0.356(1) 0.1347(3)
C7 C 0.6459(6) 0.404(1) 0.1716(4)
C8 C 0.6978(5) 0.251(2) 0.2193(4)
C9 C 0.6481(6) 0.046(2) 0.2293(4)
C10 C 0.5456(5) -0.007(1) 0.1925(3)
C11 C 0.1170(5) 0.305(1) 0.0887(4)
C12 C 0.0907(5) 0.550(1) 0.1059(4)
C13 C 0.0166(7) 0.524(2) 0.1596(5)
C14 C -0.0435(7) 0.315(2) 0.1386(6)
C15 C 0.0208(6) 0.170(1) 0.1028(5)
H1 H 0.47790 -0.20980 -0.00640
H2 H 0.35800 -0.04510 0.13530
H3 H 0.33600 0.44590 0.11310
H4 H 0.26870 0.41230 -0.01480
H5 H 0.23320 -0.09330 0.00510
H6 H 0.28230 0.05100 -0.06440
H7 H 0.50530 0.47870 0.09680
H8 H 0.68560 0.56730 0.16230
H9 H 0.77690 0.29130 0.24910
H10 H 0.68950 -0.07500 0.26710
H11 H 0.50790 -0.16920 0.20060
H12 H 0.16450 0.64140 0.12780
H13 H 0.05040 0.63960 0.06030
H14 H 0.06310 0.50800 0.21190
H15 H -0.03680 0.67410 0.15850
H16 H -0.06510 0.23000 0.18440
H17 H -0.11940 0.36140 0.10380
H18 H 0.04630 0.02170 0.13520
H19 H -0.02740 0.11160 0.05380
#END
