
#######################################################################
#
#                 Cambridge Crystallographic Data Centre
#                                CCDC
#
#######################################################################
#
# If this CIF has been generated from an entry in the Cambridge
# Structural Database, then it will include bibliographic, chemical,
# crystal, experimental, refinement or atomic coordinate data resulting
# from the CCDC's data processing and validation procedures.
#
#######################################################################

data_CSD_CIF_ZOGFAE
_audit_creation_date 2014-06-13
_audit_creation_method CSD-ConQuest-V1
_database_code_CSD ZOGFAE
_database_code_depnum_ccdc_archive 'CCDC 982931'
_chemical_formula_sum 'C12 H19 N1 O4'
_chemical_formula_moiety
;
C12 H19 N1 O4
;
_journal_coden_Cambridge 35
_journal_volume 79
_journal_year 2014
_journal_page_first 5345
_journal_name_full 'J.Org.Chem. '
loop_
_publ_author_name
"Lili Zhou"
"Yanmin Yao"
"Wenbo Xu"
"Guangxin Liang"
_chemical_name_systematic
;
4a-hydroxy-7,7-dimethyl-4-nitrooctahydronaphthalen-1(2H)-one
;
_cell_volume   1965.850
_exptl_crystal_colour 'colorless'
_exptl_crystal_density_diffrn 1.223
_exptl_crystal_description 'Prism'
_diffrn_ambient_temperature 113
#These two values have been output from a single CSD field.
_refine_ls_R_factor_gt 0.1133
_refine_ls_wR_factor_gt 0.1133
_symmetry_cell_setting triclinic
_symmetry_space_group_name_H-M 'P -1'
_symmetry_Int_Tables_number 2
loop_
_symmetry_equiv_pos_site_id
_symmetry_equiv_pos_as_xyz
1 x,y,z
2 -x,-y,-z
_cell_length_a 11.119(8)
_cell_length_b 11.175(7)
_cell_length_c 18.547(15)
_cell_angle_alpha 77.91(5)
_cell_angle_beta 84.55(5)
_cell_angle_gamma 60.74(3)
_cell_formula_units_Z 6
loop_
_atom_type_symbol
_atom_type_radius_bond
C 0.68
H 0.23
N 0.68
O 0.68
loop_
_atom_site_label
_atom_site_type_symbol
_atom_site_fract_x
_atom_site_fract_y
_atom_site_fract_z
O1 O 0.9653(5) 0.8076(4) 0.1952(2)
O2 O 0.6568(3) 1.1271(3) 0.19358(19)
H1 H 0.59020 1.20850 0.18980
O3 O 0.3304(5) 1.1632(5) 0.0809(3)
O4 O 0.4476(4) 1.2757(4) 0.0758(2)
N1 N 0.4377(5) 1.1652(5) 0.0910(3)
C1 C 0.7686(6) 0.8705(6) 0.3068(3)
H2 H 0.84390 0.77460 0.32370
H3 H 0.80440 0.93600 0.30710
C2 C 0.7262(6) 0.8844(5) 0.2265(3)
H4 H 0.69440 0.81440 0.22740
C3 C 0.8485(8) 0.8511(5) 0.1730(4)
C4 C 0.8140(7) 0.8688(6) 0.0923(3)
H5 H 0.80180 0.78940 0.08630
H6 H 0.89240 0.86630 0.06120
C5 C 0.6829(6) 1.0058(5) 0.0651(3)
H7 H 0.65440 1.00230 0.01690
H8 H 0.70340 1.08440 0.05750
C6 C 0.5637(6) 1.0325(5) 0.1198(3)
H9 H 0.54160 0.95470 0.12390
C7 C 0.6056(6) 1.0295(5) 0.1981(3)
C8 C 0.4825(6) 1.0662(6) 0.2529(3)
H10 H 0.41020 1.16380 0.23620
H11 H 0.44210 1.00450 0.25280
C9 C 0.5275(6) 1.0494(6) 0.3307(3)
H12 H 0.44750 1.06840 0.36390
H13 H 0.55650 1.11990 0.33170
C10 C 0.6481(6) 0.9015(6) 0.3608(3)
C11 C 0.6006(8) 0.7903(7) 0.3741(4)
H14 H 0.55600 0.79650 0.32930
H15 H 0.53490 0.80630 0.41480
H16 H 0.68060 0.69720 0.38660
C12 C 0.6953(7) 0.9063(7) 0.4348(4)
H17 H 0.77490 0.81610 0.45370
H18 H 0.61990 0.92590 0.47030
H19 H 0.72140 0.98010 0.42770
O5 O 0.2109(4) 0.4228(4) 0.1961(2)
O6 O 0.5259(3) 0.4142(3) 0.1999(2)
H20 H 0.60410 0.40470 0.18700
O7 O 0.5440(5) 0.7661(4) 0.0907(3)
O8 O 0.6402(4) 0.5468(4) 0.0811(2)
N2 N 0.5401(6) 0.6561(5) 0.0962(3)
C13 C 0.3037(6) 0.4850(6) 0.3097(3)
H21 H 0.21130 0.49670 0.32470
H22 H 0.36710 0.38420 0.31130
C14 C 0.2956(6) 0.5659(6) 0.2295(3)
H23 H 0.22800 0.66640 0.22920
C15 C 0.2420(6) 0.5163(6) 0.1746(3)
C16 C 0.2296(6) 0.5894(6) 0.0960(3)
H24 H 0.14990 0.68480 0.09090
H25 H 0.21190 0.53850 0.06430
C17 C 0.3635(6) 0.5991(6) 0.0690(3)
H26 H 0.43830 0.50560 0.06260
H27 H 0.34520 0.66280 0.02060
C18 C 0.4092(6) 0.6520(5) 0.1238(3)
H28 H 0.33570 0.74910 0.12700
C19 C 0.4323(6) 0.5583(5) 0.2018(3)
C20 C 0.4879(7) 0.6075(6) 0.2578(3)
H29 H 0.58120 0.59310 0.24270
H30 H 0.42690 0.70860 0.25650
C21 C 0.4947(7) 0.5282(6) 0.3361(3)
H31 H 0.52540 0.56640 0.36970
H32 H 0.56460 0.42900 0.33840
C22 C 0.3542(6) 0.5361(6) 0.3644(3)
C23 C 0.2521(7) 0.6869(7) 0.3742(4)
H33 H 0.24470 0.75170 0.32810
H34 H 0.28530 0.70990 0.41360
H35 H 0.16130 0.69480 0.38730
C24 C 0.3832(7) 0.4361(7) 0.4409(4)
H36 H 0.29790 0.43580 0.45970
H37 H 0.41700 0.46830 0.47560
H38 H 0.45290 0.34130 0.43540
O9 O 0.8280(4) 0.5663(4) 0.1974(2)
O10 O 0.8166(3) 0.2557(3) 0.2008(2)
H39 H 0.80330 0.18990 0.19610
O11 O 0.9252(5) 0.0895(4) 0.0768(3)
O12 O 1.1456(5) -0.0394(4) 0.1081(3)
N3 N 1.0352(6) 0.0715(5) 0.1032(3)
C25 C 0.9154(7) 0.3377(6) 0.3126(3)
H40 H 0.81510 0.37040 0.31120
H41 H 0.92870 0.40980 0.32830
C26 C 0.9760(6) 0.3176(6) 0.2349(3)
H42 H 1.07670 0.28650 0.23800
C27 C 0.9105(6) 0.4563(6) 0.1783(3)
C28 C 0.9575(7) 0.4476(6) 0.0992(3)
H43 H 1.05040 0.43980 0.09430
H44 H 0.89380 0.53470 0.06640
C29 C 0.9624(6) 0.3220(5) 0.0747(3)
H45 H 0.86720 0.34210 0.06640
H46 H 1.01190 0.30900 0.02730
C30 C 1.0334(6) 0.1886(6) 0.1308(4)
H47 H 1.13100 0.16690 0.13650
C31 C 0.9623(6) 0.2054(6) 0.2075(3)
C32 C 1.0292(6) 0.0647(5) 0.2637(3)
H48 H 1.01140 -0.00430 0.24760
H49 H 1.13020 0.02760 0.26510
C33 C 0.9706(7) 0.0853(5) 0.3405(3)
H50 H 1.01710 -0.00500 0.37510
H51 H 0.87130 0.11350 0.33950
C34 C 0.9875(7) 0.1965(6) 0.3699(3)
C35 C 1.1400(7) 0.1500(7) 0.3817(4)
H52 H 1.17900 0.06690 0.42080
H53 H 1.14800 0.22540 0.39600
H54 H 1.19030 0.12800 0.33580
C36 C 0.9096(7) 0.2205(7) 0.4436(3)
H55 H 0.81260 0.24870 0.43600
H56 H 0.91570 0.29420 0.46120
H57 H 0.95120 0.13390 0.48030
#END
