
#######################################################################
#
#                 Cambridge Crystallographic Data Centre
#                                CCDC
#
#######################################################################
#
# If this CIF has been generated from an entry in the Cambridge
# Structural Database, then it will include bibliographic, chemical,
# crystal, experimental, refinement or atomic coordinate data resulting
# from the CCDC's data processing and validation procedures.
#
#######################################################################

data_CSD_CIF_ZOGLUC
_audit_creation_date 1996-09-08
_audit_creation_method CSD-ConQuest-V1
_database_code_CSD ZOGLUC
_chemical_formula_sum 'C13 H11 N5 O10'
_chemical_formula_moiety
;
C13 H11 N5 O10
;
_journal_coden_Cambridge 154
_journal_volume 48
_journal_year 1995
_journal_page_first 1989
_journal_name_full 'Aust.J.Chem. '
loop_
_publ_author_name
"C.P.Butts"
"L.Eberson"
"M.P.Hartshorn"
"W.T.Robinson"
_chemical_name_systematic
;
6,13,14,14-Tetranitro-3,8-dimethyl-10-aza-9,11-dioxa-tetracyclo(8.3.1.0^2,7^.0
^8,12^)tetradeca-2,4,6-triene
;
_chemical_melting_point 393.15
_cell_volume   1469.628
_exptl_crystal_colour 'colorless'
_exptl_crystal_density_diffrn 1.796
_exptl_special_details
;
Melts with decomposition.

;
_diffrn_ambient_temperature 130
#These two values have been output from a single CSD field.
_refine_ls_R_factor_gt 0.031
_refine_ls_wR_factor_gt 0.031
_symmetry_cell_setting monoclinic
_symmetry_space_group_name_H-M 'P 21/c'
_symmetry_Int_Tables_number 14
loop_
_symmetry_equiv_pos_site_id
_symmetry_equiv_pos_as_xyz
1 x,y,z
2 -x,1/2+y,1/2-z
3 -x,-y,-z
4 x,-1/2-y,-1/2+z
_cell_length_a 9.386(4)
_cell_length_b 6.701(3)
_cell_length_c 23.468(10)
_cell_angle_alpha 90
_cell_angle_beta 95.34(2)
_cell_angle_gamma 90
_cell_formula_units_Z 4
loop_
_atom_type_symbol
_atom_type_radius_bond
C 0.68
H 0.23
N 0.68
O 0.68
loop_
_atom_site_label
_atom_site_type_symbol
_atom_site_fract_x
_atom_site_fract_y
_atom_site_fract_z
O1 O 0.9993(2) 0.5811(2) 0.6942(1)
O2 O 0.6460(2) 0.1590(2) 0.6132(1)
O3 O 0.8860(2) 0.8385(2) 0.6519(1)
O4 O 0.8408(2) 0.6407(3) 0.4662(1)
O5 O 0.7743(2) 0.3840(2) 0.7808(1)
N1 N 0.6710(2) 0.8214(3) 0.7289(1)
O6 O 0.8520(2) 0.6670(3) 0.8136(1)
O7 O 0.7531(2) 0.9358(3) 0.4563(1)
O8 O 0.8281(2) 0.2221(3) 0.5669(1)
O9 O 0.7110(2) 0.9906(2) 0.7268(1)
C1 C 0.7357(2) 0.6740(3) 0.5811(1)
N2 N 0.8025(2) 0.5569(3) 0.7760(1)
N3 N 0.7665(2) 0.7769(3) 0.4807(1)
N4 N 0.7592(2) 0.2407(3) 0.6079(1)
C2 C 0.4426(2) 0.6923(3) 0.5515(1)
O10 O 0.5549(2) 0.7649(3) 0.7416(1)
N5 N 0.9096(2) 0.7429(3) 0.7052(1)
C3 C 0.6385(2) 0.6090(3) 0.6186(1)
C4 C 0.6796(2) 0.7391(3) 0.5281(1)
C5 C 0.9392(2) 0.5006(3) 0.6404(1)
C6 C 0.8900(2) 0.6883(3) 0.6062(1)
C7 C 0.4915(2) 0.6106(3) 0.6036(1)
C8 C 0.3865(2) 0.5223(4) 0.6405(1)
C9 C 0.7014(2) 0.5088(3) 0.6731(1)
C10 C 0.5346(2) 0.7553(3) 0.5135(1)
C11 C 0.7721(2) 0.6537(3) 0.7169(1)
C12 C 0.8196(2) 0.3703(3) 0.6560(1)
C13 C 1.0026(2) 0.7653(4) 0.5705(1)
H1 H 0.3424(2) 0.7050(3) 0.5418(1)
H2 H 1.0117(2) 0.4232(3) 0.6209(1)
H3 H 0.4033(10) 0.3783(5) 0.6443(5)
H4 H 0.2891(2) 0.5459(19) 0.6230(3)
H5 H 0.3983(11) 0.5846(16) 0.6784(2)
H6 H 0.6260(2) 0.4298(3) 0.6905(1)
H7 H 0.4992(2) 0.8094(3) 0.4775(1)
H8 H 0.8540(2) 0.2847(3) 0.6894(1)
H9 H 1.0186(11) 0.6679(11) 0.5406(4)
H10 H 1.0919(5) 0.7863(21) 0.5949(2)
H11 H 0.9708(7) 0.8920(12) 0.5528(5)
#END
