
#######################################################################
#
#                 Cambridge Crystallographic Data Centre
#                                CCDC
#
#######################################################################
#
# If this CIF has been generated from an entry in the Cambridge
# Structural Database, then it will include bibliographic, chemical,
# crystal, experimental, refinement or atomic coordinate data resulting
# from the CCDC's data processing and validation procedures.
#
#######################################################################

data_CSD_CIF_ZOGLIQ
_audit_creation_date 1996-09-08
_audit_creation_method CSD-ConQuest-V1
_database_code_CSD ZOGLIQ
_chemical_formula_sum 'C13 H12 N4 O8'
_chemical_formula_moiety
;
C13 H12 N4 O8
;
_journal_coden_Cambridge 154
_journal_volume 48
_journal_year 1995
_journal_page_first 1989
_journal_name_full 'Aust.J.Chem. '
loop_
_publ_author_name
"C.P.Butts"
"L.Eberson"
"M.P.Hartshorn"
"W.T.Robinson"
_chemical_name_systematic
;
13,14,14-Trinitro-3,8-dimethyl-10-aza-9,11-dioxatetracyclo(8.3.1.0^2,7^.0^8,12
^)tetradeca-2,4,6-triene
;
_chemical_melting_point 441.15
_cell_volume   1415.501
_exptl_crystal_colour 'colorless'
_exptl_crystal_density_diffrn 1.653
_exptl_special_details
;
Melts with decomposition.

;
_diffrn_ambient_temperature 130
#These two values have been output from a single CSD field.
_refine_ls_R_factor_gt 0.0396
_refine_ls_wR_factor_gt 0.0396
_symmetry_cell_setting monoclinic
_symmetry_space_group_name_H-M 'P 21/c'
_symmetry_Int_Tables_number 14
loop_
_symmetry_equiv_pos_site_id
_symmetry_equiv_pos_as_xyz
1 x,y,z
2 -x,1/2+y,1/2-z
3 -x,-y,-z
4 x,-1/2-y,-1/2+z
_cell_length_a 10.904(2)
_cell_length_b 6.704(1)
_cell_length_c 19.406(10)
_cell_angle_alpha 90
_cell_angle_beta 93.78(3)
_cell_angle_gamma 90
_cell_formula_units_Z 4
loop_
_atom_type_symbol
_atom_type_radius_bond
C 0.68
H 0.23
N 0.68
O 0.68
loop_
_atom_site_label
_atom_site_type_symbol
_atom_site_fract_x
_atom_site_fract_y
_atom_site_fract_z
O1 O 0.3348(1) 0.0014(2) 0.7080(1)
O2 O 0.4563(1) 0.2584(2) 0.7360(1)
O3 O 0.6444(2) 0.1711(3) 0.6292(1)
O4 O 0.5554(2) 0.4165(3) 0.5738(1)
O5 O 0.3694(2) 0.0266(3) 0.5143(1)
O6 O 0.4624(2) -0.1618(2) 0.5922(1)
O7 O 0.1635(2) 0.6345(3) 0.7096(1)
O8 O 0.2036(2) 0.6957(2) 0.6035(1)
N1 N 0.4456(2) 0.0910(3) 0.6913(1)
N2 N 0.5546(2) 0.2632(3) 0.6066(1)
N3 N 0.4177(2) -0.0054(3) 0.5717(1)
N4 N 0.2233(2) 0.6117(3) 0.6592(1)
C1 C 0.3247(2) 0.3261(3) 0.6050(1)
C2 C 0.3317(2) 0.4721(3) 0.6665(1)
C3 C 0.3348(2) 0.3465(3) 0.7316(1)
C4 C 0.2479(2) 0.1626(3) 0.7256(1)
C5 C 0.1533(2) 0.1750(3) 0.6647(1)
C6 C 0.0322(2) 0.1197(4) 0.6691(1)
C7 C -0.0473(2) 0.1304(4) 0.6104(1)
C8 C -0.0067(2) 0.1958(4) 0.5486(1)
C9 C 0.1149(2) 0.2537(3) 0.5429(1)
C10 C 0.1949(2) 0.2404(3) 0.6021(1)
C11 C 0.4271(2) 0.1740(3) 0.6207(1)
C12 C 0.2010(2) 0.1068(4) 0.7943(1)
C13 C 0.1536(2) 0.3315(4) 0.4749(1)
H1 H 0.3384(2) 0.3993(3) 0.5613(1)
H2 H 0.4093(2) 0.5513(3) 0.6659(1)
H3 H 0.3198(2) 0.4280(3) 0.7734(1)
H4 H 0.0037(2) 0.0747(4) 0.7116(1)
H5 H -0.1310(2) 0.0932(4) 0.6129(1)
H6 H -0.0627(2) 0.2018(4) 0.5090(1)
H7 H 0.1383(2) 0.2034(4) 0.8062(1)
H8 H 0.2684(2) 0.1072(4) 0.8303(1)
H9 H 0.1645(2) -0.0267(4) 0.7909(1)
H10 H 0.0840(5) 0.3252(4) 0.4403(1)
H11 H 0.2215(2) 0.2507(4) 0.4594(1)
H12 H 0.1805(2) 0.4703(4) 0.4808(1)
#END
