
#######################################################################
#
#                 Cambridge Crystallographic Data Centre
#                                CCDC
#
#######################################################################
#
# If this CIF has been generated from an entry in the Cambridge
# Structural Database, then it will include bibliographic, chemical,
# crystal, experimental, refinement or atomic coordinate data resulting
# from the CCDC's data processing and validation procedures.
#
#######################################################################

data_CSD_CIF_ZOGLAI
_audit_creation_date 1996-09-08
_audit_creation_method CSD-ConQuest-V1
_database_code_CSD ZOGLAI
_chemical_formula_sum 'C13 H12 N4 O8'
_chemical_formula_moiety
;
C13 H12 N4 O8
;
_journal_coden_Cambridge 154
_journal_volume 48
_journal_year 1995
_journal_page_first 1989
_journal_name_full 'Aust.J.Chem. '
loop_
_publ_author_name
"C.P.Butts"
"L.Eberson"
"M.P.Hartshorn"
"W.T.Robinson"
_chemical_name_systematic
;
4,8-Dimethyl-1-nitro-2-trinitromethyl-1,2-dihydronaphthalene
;
_chemical_melting_point 341.15
_cell_volume   2960.394
_exptl_crystal_colour 'colorless'
_exptl_crystal_density_diffrn 1.581
_exptl_special_details
;
Melts with decomposition.

;
_diffrn_ambient_temperature 130
#These two values have been output from a single CSD field.
_refine_ls_R_factor_gt 0.0465
_refine_ls_wR_factor_gt 0.0465
_symmetry_cell_setting orthorhombic
_symmetry_space_group_name_H-M 'P b c a'
_symmetry_Int_Tables_number 61
loop_
_symmetry_equiv_pos_site_id
_symmetry_equiv_pos_as_xyz
1 x,y,z
2 1/2-x,-y,1/2+z
3 1/2+x,1/2-y,-z
4 -x,1/2+y,1/2-z
5 -x,-y,-z
6 -1/2+x,y,-1/2-z
7 -1/2-x,-1/2+y,z
8 x,-1/2-y,-1/2+z
_cell_length_a 9.316(1)
_cell_length_b 12.868(2)
_cell_length_c 24.695(4)
_cell_angle_alpha 90
_cell_angle_beta 90
_cell_angle_gamma 90
_cell_formula_units_Z 8
loop_
_atom_type_symbol
_atom_type_radius_bond
C 0.68
H 0.23
N 0.68
O 0.68
loop_
_atom_site_label
_atom_site_type_symbol
_atom_site_fract_x
_atom_site_fract_y
_atom_site_fract_z
O1 O 0.5993(5) 0.4267(4) 0.1312(2)
O2 O 0.4897(5) 0.3853(3) 0.0575(2)
O3 O -0.0709(5) 0.6338(4) 0.1251(2)
O4 O -0.0301(5) 0.4693(5) 0.1057(2)
O5 O 0.1745(5) 0.7285(4) 0.1446(2)
O6 O 0.2550(5) 0.7420(3) 0.0621(2)
O7 O 0.2277(5) 0.5375(4) -0.0010(2)
O8 O 0.0213(4) 0.6152(3) 0.0085(2)
N1 N 0.5109(5) 0.4439(4) 0.0958(2)
N2 N 0.0020(6) 0.5614(6) 0.1088(2)
N3 N 0.1952(5) 0.6946(4) 0.0993(2)
N4 N 0.1327(6) 0.5793(4) 0.0252(2)
C1 C 0.4194(6) 0.5417(5) 0.0993(2)
C2 C 0.2637(6) 0.5044(5) 0.1085(2)
C3 C 0.2380(7) 0.4801(5) 0.1681(2)
C4 C 0.3091(6) 0.5272(5) 0.2076(2)
C5 C 0.4187(6) 0.6064(5) 0.1952(2)
C6 C 0.4684(6) 0.6737(5) 0.2343(2)
C7 C 0.5702(6) 0.7482(5) 0.2217(2)
C8 C 0.6249(6) 0.7552(5) 0.1695(2)
C9 C 0.5779(6) 0.6894(5) 0.1291(2)
C10 C 0.4741(6) 0.6145(4) 0.1419(2)
C11 C 0.1545(6) 0.5823(5) 0.0874(2)
C12 C 0.2767(6) 0.5006(5) 0.2653(2)
C13 C 0.6393(6) 0.6993(5) 0.0725(2)
H1 H 0.4237(6) 0.5780(5) 0.0636(2)
H2 H 0.2507(6) 0.4384(5) 0.0877(2)
H3 H 0.1683(7) 0.4291(5) 0.1773(2)
H4 H 0.4325(6) 0.6690(5) 0.2702(2)
H5 H 0.6030(6) 0.7947(5) 0.2489(2)
H6 H 0.6956(6) 0.8061(5) 0.1615(2)
H7 H 0.2387(35) 0.5620(9) 0.2839(4)
H8 H 0.3648(10) 0.4776(26) 0.2834(4)
H9 H 0.2053(28) 0.4447(19) 0.2665(2)
H10 H 0.5626(10) 0.7183(26) 0.0472(3)
H11 H 0.6814(33) 0.6328(9) 0.0615(6)
H12 H 0.7136(27) 0.7532(19) 0.0722(4)
#END
