
#######################################################################
#
#                 Cambridge Crystallographic Data Centre
#                                CCDC
#
#######################################################################
#
# If this CIF has been generated from an entry in the Cambridge
# Structural Database, then it will include bibliographic, chemical,
# crystal, experimental, refinement or atomic coordinate data resulting
# from the CCDC's data processing and validation procedures.
#
#######################################################################

data_CSD_CIF_ZOGLEM
_audit_creation_date 1996-09-08
_audit_creation_method CSD-ConQuest-V1
_database_code_CSD ZOGLEM
_chemical_formula_sum 'C13 H12 N4 O8'
_chemical_formula_moiety
;
C13 H12 N4 O8
;
_journal_coden_Cambridge 154
_journal_volume 48
_journal_year 1995
_journal_page_first 1989
_journal_name_full 'Aust.J.Chem. '
loop_
_publ_author_name
"C.P.Butts"
"L.Eberson"
"M.P.Hartshorn"
"W.T.Robinson"
_chemical_name_systematic
;
1,5-Dimethyl-1-nitro-4-trinitromethyl-1,4-dihydronaphthalene
;
_chemical_melting_point 357.15
_cell_volume   6020.638
_exptl_crystal_colour 'colorless'
_exptl_crystal_density_diffrn 1.555
_exptl_special_details
;
Melts with decomposition.

;
_diffrn_ambient_temperature 130
#These two values have been output from a single CSD field.
_refine_ls_R_factor_gt 0.0484
_refine_ls_wR_factor_gt 0.0484
_symmetry_cell_setting orthorhombic
_symmetry_space_group_name_H-M 'P b c a'
_symmetry_Int_Tables_number 61
loop_
_symmetry_equiv_pos_site_id
_symmetry_equiv_pos_as_xyz
1 x,y,z
2 1/2-x,-y,1/2+z
3 1/2+x,1/2-y,-z
4 -x,1/2+y,1/2-z
5 -x,-y,-z
6 -1/2+x,y,-1/2-z
7 -1/2-x,-1/2+y,z
8 x,-1/2-y,-1/2+z
_cell_length_a 27.496(5)
_cell_length_b 24.468(4)
_cell_length_c 8.949(2)
_cell_angle_alpha 90
_cell_angle_beta 90
_cell_angle_gamma 90
_cell_formula_units_Z 16
loop_
_atom_type_symbol
_atom_type_radius_bond
C 0.68
H 0.23
N 0.68
O 0.68
loop_
_atom_site_label
_atom_site_type_symbol
_atom_site_fract_x
_atom_site_fract_y
_atom_site_fract_z
O1 O 0.3424(3) 0.1942(3) 2.4039(7)
O2 O 0.3347(2) 0.1090(2) 2.3569(6)
O3 O 0.4590(3) 0.1845(2) 1.8701(9)
O4 O 0.5072(2) 0.1229(3) 1.9655(6)
O5 O 0.4233(2) 0.0657(2) 1.5926(7)
O6 O 0.4084(2) 0.1497(2) 1.6496(6)
O7 O 0.5120(2) 0.0507(2) 1.7365(7)
O8 O 0.4633(2) -0.0016(2) 1.8612(7)
N1 N 0.3516(2) 0.1537(3) 2.3334(7)
N2 N 0.4731(2) 0.1389(3) 1.8894(7)
N3 N 0.4232(2) 0.1054(3) 1.6749(8)
N4 N 0.4750(2) 0.0423(3) 1.8105(8)
C1 C 0.3872(3) 0.1579(3) 2.1993(8)
C2 C 0.4173(3) 0.1076(3) 2.2096(8)
C3 C 0.4228(3) 0.0722(3) 2.1013(9)
C4 C 0.4002(2) 0.0792(3) 1.9485(8)
C5 C 0.3585(2) 0.1200(3) 1.9483(8)
C6 C 0.3221(3) 0.1165(3) 1.8386(8)
C7 C 0.2863(2) 0.1549(3) 1.8375(8)
C8 C 0.2854(3) 0.1953(3) 1.9440(9)
C9 C 0.3180(3) 0.1973(3) 2.0572(9)
C10 C 0.3553(3) 0.1591(3) 2.0616(8)
C11 C 0.4410(2) 0.0916(3) 1.8349(8)
C12 C 0.4159(3) 0.2095(3) 2.2193(10)
C13 C 0.3181(2) 0.0712(3) 1.7253(8)
H1 H 0.4336(3) 0.1006(3) 2.3012(8)
H2 H 0.4419(3) 0.0405(3) 2.1197(9)
H3 H 0.3861(2) 0.0430(3) 1.9202(8)
H4 H 0.2618(2) 0.1537(3) 1.7628(8)
H5 H 0.2611(3) 0.2229(3) 1.9381(9)
H6 H 0.3154(3) 0.2244(3) 2.1327(9)
H7 H 0.3941(5) 0.2411(3) 2.2106(64)
H8 H 0.4411(14) 0.2117(12) 2.1422(40)
H9 H 0.4311(17) 0.2095(11) 2.3183(27)
H10 H 0.3351(12) 0.0387(6) 1.7625(21)
H11 H 0.3329(13) 0.0829(6) 1.6309(15)
H12 H 0.2837(2) 0.0624(11) 1.7088(33)
O9 O 0.2085(2) 0.0857(2) 1.5777(6)
O10 O 0.1513(2) 0.0380(2) 1.4729(6)
O11 O 0.1650(2) 0.2119(2) 1.0877(7)
O12 O 0.0919(2) 0.2464(3) 1.1251(7)
O13 O 0.0914(2) 0.1342(2) 0.7549(6)
O14 O 0.1596(2) 0.1740(2) 0.8172(6)
O15 O 0.0108(2) 0.1505(2) 1.0194(6)
O16 O 0.0365(2) 0.2193(3) 0.8883(8)
N5 N 0.1772(2) 0.0789(2) 1.4834(7)
N6 N 0.1215(3) 0.2129(2) 1.0767(7)
N7 N 0.1192(3) 0.1571(3) 0.8418(7)
N8 N 0.0423(3) 0.1796(3) 0.9678(8)
C14 C 0.1685(2) 0.1244(3) 1.3620(8)
C15 C 0.1144(3) 0.1340(3) 1.3687(8)
C16 C 0.0839(3) 0.1284(3) 1.2545(8)
C17 C 0.1015(2) 0.1116(3) 1.1013(8)
C18 C 0.1526(2) 0.0868(3) 1.0988(8)
C19 C 0.1675(3) 0.0515(3) 0.9831(8)
C20 C 0.2159(3) 0.0344(3) 0.9821(9)
C21 C 0.2479(3) 0.0499(3) 1.0899(8)
C22 C 0.2328(2) 0.0802(3) 1.2079(8)
C23 C 0.1851(3) 0.0979(2) 1.2160(8)
C24 C 0.0967(2) 0.1637(3) 0.9986(8)
C25 C 0.1989(3) 0.1743(3) 1.4090(8)
C26 C 0.1340(3) 0.0272(3) 0.8683(8)
H13 H 0.1010(3) 0.1448(3) 1.4619(8)
H14 H 0.0502(3) 0.1352(3) 1.2696(8)
H15 H 0.0785(2) 0.0834(3) 1.0623(8)
H16 H 0.2268(3) 0.0113(3) 0.9037(9)
H17 H 0.2810(3) 0.0394(3) 1.0825(8)
H18 H 0.2550(2) 0.0894(3) 1.2853(8)
H19 H 0.1943(13) 0.2038(7) 1.3363(29)
H20 H 0.2333(3) 0.1642(6) 1.4126(49)
H21 H 0.1884(12) 0.1867(11) 1.5080(24)
H22 H 0.1403(11) 0.0440(13) 0.7709(13)
H23 H 0.1002(3) 0.0339(16) 0.8975(27)
H24 H 0.1397(12) -0.0123(4) 0.8617(36)
#END
