
#######################################################################
#
#                 Cambridge Crystallographic Data Centre
#                                CCDC
#
#######################################################################
#
# If this CIF has been generated from an entry in the Cambridge
# Structural Database, then it will include bibliographic, chemical,
# crystal, experimental, refinement or atomic coordinate data resulting
# from the CCDC's data processing and validation procedures.
#
#######################################################################

data_CSD_CIF_ZOGQAN01
_audit_creation_date 1996-08-14
_audit_creation_method CSD-ConQuest-V1
_database_code_CSD ZOGQAN01
_chemical_formula_sum 'C17 H12 N4 O4'
_chemical_formula_moiety
;
C17 H12 N4 O4
;
_journal_coden_Cambridge 179
_journal_volume 34
_journal_year 1995
_journal_page_first 2530
_journal_name_full 'Angew.Chem.,Int.Ed. '
loop_
_publ_author_name
"Y.Eichen"
"J.-M.Lehn"
"M.Scherl"
"D.Haarer"
"J.Fischer"
"A.DeCian"
"A.Corval"
"H.P.Trommsdorff"
_chemical_name_systematic
;
6-(2,4-Dinitrobenzyl)-2,2'-bipyridine
;
_chemical_melting_point 383.15
_cell_volume   3045.775
_exptl_crystal_colour 'light blue'
_exptl_crystal_density_diffrn 1.467
_exptl_special_details
;
Melting point range 383.15-383.65K
photochromic
orthorhombic polymorph
light sensitive
;
_diffrn_ambient_temperature 173.15
#These two values have been output from a single CSD field.
_refine_ls_R_factor_gt 0.06
_refine_ls_wR_factor_gt 0.06
_symmetry_cell_setting orthorhombic
_symmetry_space_group_name_H-M 'P n a 21'
_symmetry_Int_Tables_number 33
loop_
_symmetry_equiv_pos_site_id
_symmetry_equiv_pos_as_xyz
1 x,y,z
2 -x,-y,1/2+z
3 1/2-x,1/2+y,1/2+z
4 1/2+x,1/2-y,z
_cell_length_a 14.051(4)
_cell_length_b 5.159(2)
_cell_length_c 42.017(9)
_cell_angle_alpha 90
_cell_angle_beta 90
_cell_angle_gamma 90
_cell_formula_units_Z 8
loop_
_atom_type_symbol
_atom_type_radius_bond
C 0.68
H 0.23
N 0.68
O 0.68
loop_
_atom_site_label
_atom_site_type_symbol
_atom_site_fract_x
_atom_site_fract_y
_atom_site_fract_z
C1 C 0.4248(6) 0.576(2) 0.79400
C2 C 0.3800(1) 0.7420(2) 0.8155(1)
C3 C 0.3204(1) 0.9292(2) 0.8065(1)
C4 C 0.2991(1) 0.9402(2) 0.7729(1)
C5 C 0.3365(1) 0.7594(2) 0.7535(1)
N1 N 0.4055(1) 0.5761(2) 0.7634(1)
C6 C 0.4996(1) 0.3717(2) 0.8041(1)
C7 C 0.5539(1) 0.2458(2) 0.7820(1)
C8 C 0.6191(1) 0.0614(2) 0.7930(1)
C9 C 0.6262(1) 0.0153(2) 0.8258(1)
C10 C 0.5661(1) 0.1520(2) 0.8462(1)
N2 N 0.5044(1) 0.3287(2) 0.8361(1)
C11 C 0.5706(1) 0.0769(2) 0.8813(1)
C12 C 0.5389(1) 0.2930(2) 0.9038(1)
C13 C 0.4471(1) 0.3954(2) 0.9070(1)
C14 C 0.4211(1) 0.5892(2) 0.9271(1)
C15 C 0.4911(1) 0.6951(2) 0.9457(1)
C16 C 0.5881(1) 0.6083(2) 0.9443(1)
C17 C 0.6088(1) 0.4168(2) 0.9226(1)
N3 N 0.3612(1) 0.2709(2) 0.8870(1)
O1 O 0.3021(1) 0.4299(2) 0.8808(1)
O2 O 0.3651(1) 0.0480(2) 0.8838(1)
N4 N 0.4660(1) 0.9097(2) 0.9682(1)
O3 O 0.3943(1) 1.0197(2) 0.9631(1)
O4 O 0.5219(1) 0.9375(2) 0.9902(1)
C18 C 0.3242(1) 1.0807(2) 1.1726(1)
C19 C 0.3652(1) 1.2424(2) 1.1496(1)
C20 C 0.4321(1) 1.4311(2) 1.1630(1)
C21 C 0.4539(1) 1.4358(2) 1.1942(1)
C22 C 0.3961(1) 1.2644(2) 1.2144(1)
N5 N 0.3430(1) 1.0873(2) 1.2042(1)
C23 C 0.2580(1) 0.8839(2) 1.1624(1)
C24 C 0.1993(1) 0.7586(2) 1.1846(1)
C25 C 0.1347(1) 0.5708(2) 1.1736(1)
C26 C 0.1310(1) 0.5239(2) 1.1407(1)
C27 C 0.1910(1) 0.6522(2) 1.1207(1)
N6 N 0.2524(1) 0.8324(2) 1.1305(1)
C28 C 0.1923(1) 0.5810(2) 1.0856(1)
C29 C 0.2213(1) 0.7978(2) 1.0634(1)
C30 C 0.3142(1) 0.8909(2) 1.0608(1)
C31 C 0.3354(1) 1.0858(2) 1.0404(1)
C32 C 0.2651(1) 1.1827(2) 1.0216(1)
C33 C 0.1757(1) 1.1106(2) 1.0224(1)
C34 C 0.1547(1) 0.9107(2) 1.0439(1)
N7 N 0.3852(1) 0.7874(2) 1.0749(1)
O5 O 0.4545(1) 0.9247(2) 1.0871(1)
O6 O 0.3949(1) 0.5475(2) 1.0827(1)
N8 N 0.2948(1) 1.4064(2) 0.9990(1)
O7 O 0.3655(1) 1.5154(2) 1.0034(1)
O8 O 0.2388(1) 1.4469(2) 0.9775(1)
H1 H 0.3920(1) 0.7216(2) 0.8371(1)
H2 H 0.2941(1) 1.0455(2) 0.8209(1)
H3 H 0.2602(1) 1.0702(2) 0.7648(1)
H4 H 0.3160(1) 0.7544(2) 0.7325(1)
H5 H 0.5476(1) 0.2814(2) 0.7604(1)
H6 H 0.6573(1) -0.0293(2) 0.7788(1)
H7 H 0.6699(1) -0.1036(2) 0.8337(1)
H8 H 0.6355(1) 0.0283(2) 0.8865(1)
H9 H 0.5306(1) -0.0737(2) 0.8847(1)
H10 H 0.3586(1) 0.6477(2) 0.9281(1)
H11 H 0.6348(1) 0.6783(2) 0.9574(1)
H12 H 0.6719(1) 0.3663(2) 0.9202(1)
H13 H 0.3513(1) 1.2313(2) 1.1280(1)
H14 H 0.4604(1) 1.5513(2) 1.1495(1)
H15 H 0.5021(1) 1.5400(2) 1.2023(1)
H16 H 0.3991(1) 1.2891(2) 1.2363(1)
H17 H 0.2031(1) 0.7989(2) 1.2061(1)
H18 H 0.0957(1) 0.4806(2) 1.1876(1)
H19 H 0.0876(1) 0.4051(2) 1.1326(1)
H20 H 0.2359(1) 0.4370(2) 1.0826(1)
H21 H 0.1293(1) 0.5218(2) 1.0796(1)
H22 H 0.3969(1) 1.1521(2) 1.0392(1)
H23 H 0.1294(1) 1.1870(2) 1.0097(1)
H24 H 0.0923(1) 0.8512(2) 1.0450(1)
#END
