
#######################################################################
#
#                 Cambridge Crystallographic Data Centre
#                                CCDC
#
#######################################################################
#
# If this CIF has been generated from an entry in the Cambridge
# Structural Database, then it will include bibliographic, chemical,
# crystal, experimental, refinement or atomic coordinate data resulting
# from the CCDC's data processing and validation procedures.
#
#######################################################################

data_CSD_CIF_ZOGQAN03
_audit_creation_date 1998-06-26
_audit_creation_method CSD-ConQuest-V1
_database_code_CSD ZOGQAN03
_database_code_depnum_ccdc_archive 'CCDC 258112'
_chemical_formula_sum 'C17 H12 N4 O4'
_chemical_formula_moiety
;
C17 H12 N4 O4
;
_journal_coden_Cambridge 37
_journal_volume 100
_journal_year 1996
_journal_page_first 16175
_journal_name_full 'J.Phys.Chem. '
loop_
_publ_author_name
"M.Scherl"
"D.Haarer"
"J.Fischer"
"A.De Cian"
"J.-M.Lehn"
"Y.Eichen"
_chemical_name_systematic
;
6-(2,4-Dinitrobenzyl)-2,2'-bipyridine
;
_chemical_melting_point 392.15
_cell_volume   1529.815
_exptl_crystal_colour 'blue'
_exptl_crystal_density_diffrn 1.46
_exptl_special_details
;
Melting point range 392.15-501.65K
non-photochromic
monoclinic polymorph

;
_diffrn_ambient_temperature 173.15
#These two values have been output from a single CSD field.
_refine_ls_R_factor_gt 0.037
_refine_ls_wR_factor_gt 0.037
_symmetry_cell_setting monoclinic
_symmetry_space_group_name_H-M 'P 21/c'
_symmetry_Int_Tables_number 14
loop_
_symmetry_equiv_pos_site_id
_symmetry_equiv_pos_as_xyz
1 x,y,z
2 -x,1/2+y,1/2-z
3 -x,-y,-z
4 x,-1/2-y,-1/2+z
_cell_length_a 8.340(3)
_cell_length_b 12.740(4)
_cell_length_c 14.408(4)
_cell_angle_alpha 90
_cell_angle_beta 92.13(2)
_cell_angle_gamma 90
_cell_formula_units_Z 4
loop_
_atom_type_symbol
_atom_type_radius_bond
C 0.68
H 0.23
N 0.68
O 0.68
loop_
_atom_site_label
_atom_site_type_symbol
_atom_site_fract_x
_atom_site_fract_y
_atom_site_fract_z
N1 N 0.8616(2) 0.4376(1) 0.8217(1)
C1 C 0.8160(2) 0.3513(2) 0.7734(1)
C2 C 0.8565(3) 0.3366(2) 0.6820(2)
C3 C 0.9431(3) 0.4124(2) 0.6380(2)
C4 C 0.9883(2) 0.5015(2) 0.6869(2)
C5 C 0.9454(2) 0.5098(2) 0.7780(2)
C6 C 0.7168(2) 0.2740(2) 0.8233(1)
N2 N 0.6542(2) 0.1945(1) 0.7725(1)
C7 C 0.6858(3) 0.2868(2) 0.9163(2)
C8 C 0.5869(3) 0.2171(2) 0.9583(2)
C9 C 0.5215(3) 0.1357(2) 0.9068(2)
C10 C 0.5584(2) 0.1262(2) 0.8144(1)
C11 C 0.4823(3) 0.0412(2) 0.7542(2)
C12 C 0.5982(2) -0.0234(2) 0.7000(1)
C13 C 0.6715(2) -0.1170(2) 0.7306(1)
C14 C 0.7662(2) -0.1777(2) 0.6756(1)
C15 C 0.7964(2) -0.1410(2) 0.5888(1)
C16 C 0.7333(3) -0.0485(2) 0.5550(1)
C17 C 0.6339(2) 0.0077(2) 0.6104(2)
N3 N 0.6555(2) -0.1548(1) 0.8265(1)
O1 O 0.6217(2) -0.0915(1) 0.8858(1)
O2 O 0.6819(2) -0.2469(1) 0.8431(1)
N4 N 0.9043(2) -0.2025(1) 0.5318(1)
O3 O 0.9343(2) -0.2927(1) 0.5555(1)
O4 O 0.9605(2) -0.1606(1) 0.4641(1)
H1 H 0.82450 0.27450 0.64980
H2 H 0.97130 0.40360 0.57510
H3 H 1.04730 0.55560 0.65840
H4 H 0.97780 0.57070 0.81160
H5 H 0.73260 0.34340 0.95060
H6 H 0.56380 0.22470 1.02190
H7 H 0.45180 0.08660 0.93430
H8 H 0.80900 -0.24270 0.69720
H9 H 0.75780 -0.02400 0.49480
H10 H 0.58720 0.07060 0.58640
H11 H 0.39960 0.07980 0.70550
H12 H 0.41370 -0.01430 0.79100
#END
