
#######################################################################
#
#                 Cambridge Crystallographic Data Centre
#                                CCDC
#
#######################################################################
#
# If this CIF has been generated from an entry in the Cambridge
# Structural Database, then it will include bibliographic, chemical,
# crystal, experimental, refinement or atomic coordinate data resulting
# from the CCDC's data processing and validation procedures.
#
#######################################################################

data_CSD_CIF_ZOGQAN04
_audit_creation_date 2004-07-21
_audit_creation_method CSD-ConQuest-V1
_database_code_CSD ZOGQAN04
_database_code_depnum_ccdc_archive 'CCDC 241471'
_chemical_formula_sum 'C17 H12 N4 O4'
_chemical_formula_moiety
;
C17 H12 N4 O4
;
_journal_coeditor_code "IUCr OG0001"
_journal_coden_Cambridge 622
_journal_volume 60
_journal_year 2004
_journal_page_first 343
_journal_name_full 'Acta Crystallogr.,Sect.B:Struct.Sci. '
loop_
_publ_author_name
"P.Naumov"
"Y.Ohashi"
_chemical_name_systematic
;
6-(2',4'-Dinitrobenzyl)-2,2'-bipyridine
;
_cell_volume   3022.477
_exptl_crystal_colour 'colorless'
_exptl_crystal_density_diffrn 1.478
_exptl_special_details
;
photochromic
photoactive orthorhombic alpha polymorph
light-sensitive

;
_exptl_crystal_description 'block'
_exptl_crystal_preparation 'ether/hexane'
_diffrn_ambient_temperature 78
#These two values have been output from a single CSD field.
_refine_ls_R_factor_gt 0.064
_refine_ls_wR_factor_gt 0.064
_symmetry_cell_setting orthorhombic
_symmetry_space_group_name_H-M 'P n a 21'
_symmetry_Int_Tables_number 33
loop_
_symmetry_equiv_pos_site_id
_symmetry_equiv_pos_as_xyz
1 x,y,z
2 -x,-y,1/2+z
3 1/2-x,1/2+y,1/2+z
4 1/2+x,1/2-y,z
_cell_length_a 14.0059(1)
_cell_length_b 5.1399(1)
_cell_length_c 41.9853(6)
_cell_angle_alpha 90
_cell_angle_beta 90
_cell_angle_gamma 90
_cell_formula_units_Z 8
loop_
_atom_type_symbol
_atom_type_radius_bond
C 0.68
H 0.23
N 0.68
O 0.68
loop_
_atom_site_label
_atom_site_type_symbol
_atom_site_fract_x
_atom_site_fract_y
_atom_site_fract_z
O1 O 0.3904(3) 0.4697(7) 0.76327(8)
O2 O 0.4525(2) 0.0817(7) 0.75954(9)
O3 O 0.3690(3) -0.5085(7) 0.84278(9)
O4 O 0.2391(3) -0.4489(8) 0.87018(8)
O5 O 0.3681(2) 0.9674(7) 0.96382(8)
O6 O 0.3048(2) 0.5852(7) 0.96808(9)
O7 O 0.3880(3) -0.0107(7) 0.88457(8)
O8 O 0.5188(3) 0.0523(7) 0.85709(9)
N1 N 0.2448(3) 0.1759(9) 0.71644(9)
N2 N 0.3891(4) 0.2329(8) 0.76866(15)
N3 N 0.2933(3) -0.3954(8) 0.84807(10)
N4 N 0.3339(3) -0.0839(7) 0.64269(9)
N5 N 0.5117(3) 0.6786(9) 1.01057(9)
N6 N 0.3683(4) 0.7339(8) 0.95974(13)
N7 N 0.4645(3) 0.1024(7) 0.87945(10)
N8 N 0.4164(3) 0.4221(7) 1.08432(9)
C1 C 0.2465(3) 0.1251(8) 0.68501(10)
C2 C 0.1879(4) 0.2471(8) 0.66291(16)
H1 H 0.19190 0.20810 0.64080
C3 C 0.1224(3) 0.4303(8) 0.67458(11)
H2 H 0.07950 0.51470 0.66040
C4 C 0.1206(3) 0.4877(8) 0.70673(11)
H3 H 0.07750 0.61440 0.71480
C5 C 0.1821(3) 0.3584(9) 0.72688(10)
C6 C 0.1849(3) 0.4290(9) 0.76193(11)
H4 H 0.12020 0.48690 0.76830
H5 H 0.22840 0.57920 0.76460
C7 C 0.2166(4) 0.2147(10) 0.78485(14)
C8 C 0.3100(3) 0.1193(8) 0.78638(10)
C9 C 0.3353(3) -0.0801(8) 0.80682(11)
H6 H 0.39910 -0.14230 0.80760
C10 C 0.2661(4) -0.1861(11) 0.82598(12)
C11 C 0.1725(4) -0.1019(10) 0.82508(11)
H7 H 0.12540 -0.17730 0.83850
C12 C 0.1491(3) 0.0973(9) 0.80387(11)
H8 H 0.08460 0.15370 0.80250
C13 C 0.3176(3) -0.0769(8) 0.67411(10)
C14 C 0.3624(4) -0.2407(8) 0.69483(15)
H9 H 0.34950 -0.22630 0.71700
C15 C 0.4258(3) -0.4260(9) 0.68438(11)
H10 H 0.45620 -0.54130 0.69890
C16 C 0.4436(3) -0.4385(9) 0.65218(11)
H11 H 0.48610 -0.56450 0.64370
C17 C 0.3977(4) -0.2628(9) 0.63272(16)
H12 H 0.41220 -0.26790 0.61060
C18 C 0.5055(3) 0.6290(8) 1.04231(10)
C19 C 0.5641(5) 0.7588(9) 1.06391(18)
H13 H 0.55960 0.72010 1.08600
C20 C 0.6286(3) 0.9427(9) 1.05353(11)
H14 H 0.66850 1.03210 1.06820
C21 C 0.6338(3) 0.9946(9) 1.02094(10)
H15 H 0.67760 1.11900 1.01280
C22 C 0.5722(3) 0.8570(8) 1.00065(10)
C23 C 0.5727(3) 0.9305(9) 0.96536(10)
H16 H 0.52990 1.08160 0.96220
H17 H 0.63800 0.98490 0.95930
C24 C 0.5419(4) 0.7169(10) 0.94392(15)
C25 C 0.4484(3) 0.6180(9) 0.94088(10)
C26 C 0.4212(3) 0.4185(9) 0.92063(10)
H18 H 0.35730 0.35660 0.92000
C27 C 0.4917(4) 0.3127(11) 0.90115(11)
C28 C 0.5863(4) 0.3984(10) 0.90207(11)
H19 H 0.63330 0.32590 0.88840
C29 C 0.6093(3) 0.5941(9) 0.92376(10)
H20 H 0.67400 0.64820 0.92510
C30 C 0.4359(3) 0.4318(8) 1.05291(9)
C31 C 0.3939(4) 0.2593(8) 1.02999(17)
H21 H 0.40840 0.27090 1.00790
C32 C 0.3298(3) 0.0713(9) 1.04196(11)
H22 H 0.30010 -0.04920 1.02790
C33 C 0.3101(3) 0.0636(9) 1.07481(12)
H23 H 0.26700 -0.06120 1.08320
C34 C 0.3552(4) 0.2427(9) 1.09487(18)
H24 H 0.34170 0.23630 1.11700
#END
