
#######################################################################
#
#                 Cambridge Crystallographic Data Centre
#                                CCDC
#
#######################################################################
#
# If this CIF has been generated from an entry in the Cambridge
# Structural Database, then it will include bibliographic, chemical,
# crystal, experimental, refinement or atomic coordinate data resulting
# from the CCDC's data processing and validation procedures.
#
#######################################################################

data_CSD_CIF_ZOHBAB
_audit_creation_date 2014-06-16
_audit_creation_method CSD-ConQuest-V1
_database_code_CSD ZOHBAB
_database_code_depnum_ccdc_archive 'CCDC 988268'
_chemical_formula_sum 'C26 H19 N1 O5'
_chemical_formula_moiety
;
C26 H19 N1 O5
;
_journal_coden_Cambridge 1500
_journal_volume 4
_journal_year 2014
_journal_page_first 25747
_journal_name_full 'RSC Advances '
loop_
_publ_author_name
"H.Surya Prakash Rao"
"S.Vijjapu"
_chemical_name_systematic
;
(4R,5R)-5-Allyl-5-hydroxy-4,5-dihydropyren-4-yl 4-nitrobenzoate
;
_chemical_melting_point 466
_cell_volume   1030.426
_exptl_crystal_colour 'light yellow'
_exptl_crystal_density_diffrn 1.381
_exptl_crystal_description 'needle'
_diffrn_ambient_temperature 293
#These two values have been output from a single CSD field.
_refine_ls_R_factor_gt 0.0547
_refine_ls_wR_factor_gt 0.0547
_symmetry_cell_setting triclinic
_symmetry_space_group_name_H-M 'P -1'
_symmetry_Int_Tables_number 2
loop_
_symmetry_equiv_pos_site_id
_symmetry_equiv_pos_as_xyz
1 x,y,z
2 -x,-y,-z
_cell_length_a 8.6817(5)
_cell_length_b 10.0211(6)
_cell_length_c 12.9825(9)
_cell_angle_alpha 109.182(6)
_cell_angle_beta 97.305(5)
_cell_angle_gamma 99.853(5)
_cell_formula_units_Z 2
loop_
_atom_type_symbol
_atom_type_radius_bond
C 0.68
H 0.23
N 0.68
O 0.68
loop_
_atom_site_label
_atom_site_type_symbol
_atom_site_fract_x
_atom_site_fract_y
_atom_site_fract_z
O1 O 1.10617(13) 0.23317(13) 0.86876(10)
C1 C 0.66123(19) 0.20975(18) 0.68188(13)
C2 C 0.8360(2) 0.09974(18) 0.78044(14)
C3 C 0.78759(19) 0.32950(18) 0.70028(14)
O2 O 1.05165(16) 0.47094(15) 0.80488(13)
C4 C 0.5078(2) 0.2035(2) 0.62604(15)
C5 C 0.68875(19) 0.09034(18) 0.71482(14)
C6 C 0.94764(19) 0.24723(18) 0.82938(14)
H1 H 0.90960 0.30550 0.89360
C7 C 1.3463(2) 0.3015(2) 0.99917(15)
O3 O 1.13418(17) 0.42137(18) 1.02851(12)
C8 C 0.7587(2) 0.4413(2) 0.66682(15)
H2 H 0.84150 0.52050 0.67920
C9 C 0.5658(2) -0.0364(2) 0.68311(16)
C10 C 0.95659(19) 0.32822(18) 0.74841(14)
C11 C 0.6055(2) 0.4367(2) 0.61418(17)
H3 H 0.58720 0.51380 0.59320
C12 C 1.5806(2) 0.3676(2) 1.14194(17)
H4 H 1.64130 0.42710 1.21140
C13 C 1.1858(2) 0.3275(2) 0.96818(15)
N1 N 1.7764(2) 0.2165(2) 1.12136(17)
C14 C 0.8635(2) -0.0180(2) 0.80637(17)
H5 H 0.96110 -0.01280 0.84820
C15 C 1.6301(2) 0.2513(2) 1.07630(16)
C16 C 1.4025(2) 0.1879(2) 0.93287(16)
H6 H 1.34320 0.12860 0.86290
C17 C 0.4830(2) 0.3202(2) 0.59350(16)
H7 H 0.38230 0.31790 0.55760
C18 C 1.5478(2) 0.1632(2) 0.97150(17)
H8 H 1.58830 0.08890 0.92760
C19 C 0.3849(2) 0.0758(2) 0.59969(17)
H9 H 0.28310 0.07220 0.56460
C20 C 1.0409(2) 0.2551(2) 0.65446(15)
H10 H 1.14770 0.25550 0.68760
H11 H 0.98390 0.15470 0.61730
C21 C 1.4383(2) 0.3937(2) 1.10210(16)
H12 H 1.40350 0.47330 1.14420
C22 C 0.4130(2) -0.0388(2) 0.62448(18)
H13 H 0.33160 -0.12170 0.60320
C23 C 0.5983(3) -0.1536(2) 0.71191(19)
H14 H 0.51890 -0.23780 0.69110
C24 C 1.0529(2) 0.3240(3) 0.56980(19)
H15 H 1.08640 0.42450 0.59510
C25 C 0.7433(3) -0.1462(2) 0.7694(2)
H16 H 0.76340 -0.22670 0.78460
O4 O 1.8062(2) 0.2427(2) 1.22096(16)
O5 O 1.8596(2) 0.1666(3) 1.05904(17)
C26 C 1.0198(3) 0.2540(4) 0.4620(2)
H17 H 0.98600 0.15350 0.43350
H18 H 1.03020 0.30500 0.41400
H19 H 1.004(4) 0.514(3) 0.855(3)
#END
