
#######################################################################
#
#                 Cambridge Crystallographic Data Centre
#                                CCDC
#
#######################################################################
#
# If this CIF has been generated from an entry in the Cambridge
# Structural Database, then it will include bibliographic, chemical,
# crystal, experimental, refinement or atomic coordinate data resulting
# from the CCDC's data processing and validation procedures.
#
#######################################################################

data_CSD_CIF_ZOHSAQ
_audit_creation_date 1996-05-17
_audit_creation_method CSD-ConQuest-V1
_database_code_CSD ZOHSAQ
_chemical_formula_sum 'C24 H29 N1 O3'
_chemical_formula_moiety
;
C24 H29 N1 O3
;
_journal_coden_Cambridge 35
_journal_volume 61
_journal_year 1996
_journal_page_first 368
_journal_name_full 'J.Org.Chem. '
loop_
_publ_author_name
"R.Braslau"
"N.Naik"
"M.M.Olmstead"
_chemical_name_systematic
;
1,8,8-Trimethyl-2-benzyloxy-4-(phenylhydroxymethyl)-2-azabicyclo(3.2.1)octan-3
-one
;
_chemical_melting_point 425.15
_cell_volume    999.953
_exptl_crystal_colour 'colorless'
_exptl_crystal_density_diffrn 1.26
_exptl_special_details
;
Melting point range 425.15-426.15K

;
_diffrn_ambient_temperature 130
#These two values have been output from a single CSD field.
_refine_ls_R_factor_gt 0.0397
_refine_ls_wR_factor_gt 0.0397
_symmetry_cell_setting triclinic
_symmetry_space_group_name_H-M 'P -1'
_symmetry_Int_Tables_number 2
loop_
_symmetry_equiv_pos_site_id
_symmetry_equiv_pos_as_xyz
1 x,y,z
2 -x,-y,-z
_cell_length_a 7.806(1)
_cell_length_b 10.507(2)
_cell_length_c 12.467(2)
_cell_angle_alpha 85.13(10)
_cell_angle_beta 81.26(10)
_cell_angle_gamma 82.58(10)
_cell_formula_units_Z 2
loop_
_atom_type_symbol
_atom_type_radius_bond
C 0.68
H 0.23
N 0.68
O 0.68
loop_
_atom_site_label
_atom_site_type_symbol
_atom_site_fract_x
_atom_site_fract_y
_atom_site_fract_z
O1 O 0.27302(21) 0.05156(14) 0.57002(13)
O2 O 0.32879(20) -0.02898(14) 0.76940(12)
O3 O 0.17534(22) -0.00300(15) 0.38390(13)
H1 H 0.20429(22) 0.04754(15) 0.43360(13)
N1 N 0.31402(25) -0.11657(17) 0.69278(15)
C1 C 0.30432(29) -0.06603(22) 0.58996(19)
C2 C 0.33620(29) -0.15876(21) 0.49969(18)
H2 H 0.43872(29) -0.13553(21) 0.45318(18)
C3 C 0.38435(29) -0.29969(21) 0.54140(18)
H3 H 0.36702(29) -0.35761(21) 0.48953(18)
C4 C 0.57544(32) -0.31850(23) 0.56373(19)
H4 H 0.64417(32) -0.26303(23) 0.51471(19)
H5 H 0.62558(32) -0.40603(23) 0.55508(19)
C5 C 0.56675(31) -0.28318(22) 0.68246(19)
H6 H 0.62597(31) -0.20925(22) 0.68552(19)
H7 H 0.61879(31) -0.35379(22) 0.72531(19)
C6 C 0.37030(31) -0.25450(22) 0.72445(18)
C7 C 0.28030(31) -0.33347(21) 0.65379(18)
C8 C 0.31740(35) -0.47854(22) 0.68448(19)
H8 H 0.26144(35) -0.52622(22) 0.64031(19)
H9 H 0.44103(35) -0.50409(22) 0.67288(19)
H10 H 0.27288(35) -0.49560(22) 0.75974(19)
C9 C 0.08291(31) -0.29968(23) 0.66416(19)
H11 H 0.05500(31) -0.20970(23) 0.64521(19)
H12 H 0.03697(31) -0.34924(23) 0.61631(19)
H13 H 0.03232(31) -0.31935(23) 0.73787(19)
C10 C 0.32507(36) -0.28055(25) 0.84653(19)
H14 H 0.38657(36) -0.22845(25) 0.88358(19)
H15 H 0.20166(36) -0.25970(25) 0.86707(19)
H16 H 0.35786(36) -0.36975(25) 0.86609(19)
C11 C 0.15516(32) 0.02461(25) 0.81773(21)
H17 H 0.08736(32) -0.04311(25) 0.84830(21)
H18 H 0.09557(32) 0.07515(25) 0.76377(21)
C12 C 0.18113(30) 0.10759(23) 0.90487(19)
C13 C 0.23695(35) 0.05480(24) 1.00076(21)
H19 H 0.25974(35) -0.03699(24) 1.01194(21)
C14 C 0.25660(36) 0.13240(25) 1.08107(21)
H20 H 0.29791(36) 0.09466(25) 1.14664(21)
C15 C 0.22007(32) 0.26413(25) 1.06605(20)
H21 H 0.23359(32) 0.31795(25) 1.12196(20)
C16 C 0.16378(35) 0.31818(26) 0.97153(22)
H22 H 0.13703(35) 0.40979(26) 0.96140(22)
C17 C 0.14611(34) 0.24034(25) 0.89047(21)
H23 H 0.10936(34) 0.27788(25) 0.82355(21)
C18 C 0.18856(31) -0.13412(21) 0.42640(18)
H24 H 0.07992(31) -0.15128(21) 0.46916(18)
C19 C 0.22751(30) -0.21869(22) 0.33205(18)
C20 C 0.35329(32) -0.19147(23) 0.24415(19)
H25 H 0.41547(32) -0.11849(23) 0.24467(19)
C21 C 0.38944(32) -0.26859(23) 0.1571(2)
H26 H 0.47475(32) -0.24763(23) 0.09637(20)
C22 C 0.30235(33) -0.37514(24) 0.15678(20)
H27 H 0.32752(33) -0.42865(24) 0.0963(2)
C23 C 0.17925(32) -0.40431(24) 0.24452(20)
H28 H 0.11954(32) -0.47873(24) 0.24491(20)
C24 C 0.14136(31) -0.32635(23) 0.33109(19)
H29 H 0.05497(31) -0.34676(23) 0.39138(19)
#END
