
#######################################################################
#
#                 Cambridge Crystallographic Data Centre
#                                CCDC
#
#######################################################################
#
# If this CIF has been generated from an entry in the Cambridge
# Structural Database, then it will include bibliographic, chemical,
# crystal, experimental, refinement or atomic coordinate data resulting
# from the CCDC's data processing and validation procedures.
#
#######################################################################

data_CSD_CIF_ZOKDAG
_audit_creation_date 2014-06-17
_audit_creation_method CSD-ConQuest-V1
_database_code_CSD ZOKDAG
_database_code_depnum_ccdc_archive 'CCDC 984887'
_chemical_formula_sum 'C22 H23 N3 O5'
_chemical_formula_moiety
;
C22 H23 N3 O5
;
_journal_coden_Cambridge 177
_journal_volume 12
_journal_year 2014
_journal_page_first 5346
_journal_name_full 'Org.Biomol.Chem. '
loop_
_publ_author_name
"Shashi Pandey"
"S.Vinod Kumar"
"Ruchir Kant"
"P.M.S.Chauhan"
_chemical_name_systematic
;
N-t-butyl-2-(2-methylene-5-oxo-2,3-dihydro-1,4-benzoxazepin-4(5H)-yl)-2-(4-nit
rophenyl)acetamide
;
_cell_volume   1121.714
_exptl_crystal_colour 'colorless'
_exptl_crystal_density_diffrn 1.212
_exptl_crystal_description 'Block'
_diffrn_ambient_temperature 293
#These two values have been output from a single CSD field.
_refine_ls_R_factor_gt 0.0524
_refine_ls_wR_factor_gt 0.0524
_symmetry_cell_setting triclinic
_symmetry_space_group_name_H-M 'P -1'
_symmetry_Int_Tables_number 2
loop_
_symmetry_equiv_pos_site_id
_symmetry_equiv_pos_as_xyz
1 x,y,z
2 -x,-y,-z
_cell_length_a 8.573(6)
_cell_length_b 11.482(7)
_cell_length_c 12.279(9)
_cell_angle_alpha 98.521(11)
_cell_angle_beta 109.560(11)
_cell_angle_gamma 92.004(7)
_cell_formula_units_Z 2
loop_
_atom_type_symbol
_atom_type_radius_bond
C 0.68
H 0.23
N 0.68
O 0.68
loop_
_atom_site_label
_atom_site_type_symbol
_atom_site_fract_x
_atom_site_fract_y
_atom_site_fract_z
O1 O 1.24354 -0.06581 0.93850
O2 O 0.96444 -0.12617 0.58942
O3 O 1.68472 0.44293 0.86759
O4 O 1.51884 0.57039 0.89610
O5 O 0.74708 0.16288 0.68684
N1 N 1.01474 0.02530 0.73989
N2 N 1.54552 0.47125 0.86014
N3 N 0.78833 0.18937 0.51853
C1 C 1.01310 -0.17654 0.77680
C2 C 0.91303 -0.28271 0.73321
C3 C 0.91926 -0.36805 0.79983
C4 C 1.02954 -0.35134 0.91127
C5 C 1.13580 -0.24975 0.95759
C6 C 1.12454 -0.16133 0.88902
C7 C 1.19924 0.04889 0.94360
C8 C 1.03201 0.06513 0.86272
C9 C 0.99741 -0.08980 0.69506
C10 C 1.30853 0.13243 1.01609
C11 C 1.00375 0.11215 0.66116
C12 C 1.14310 0.20928 0.71453
C13 C 1.30110 0.18444 0.71794
C14 C 1.43370 0.26901 0.76532
C15 C 1.40679 0.37920 0.80976
C16 C 1.25236 0.40798 0.80790
C17 C 1.12010 0.32278 0.76014
C18 C 0.83154 0.15683 0.62366
C19 C 0.63223 0.23714 0.45563
C20 C 0.61357 0.35019 0.52689
C21 C 0.64149 0.25287 0.33890
C22 C 0.48452 0.14474 0.43618
H1 H 0.83974 -0.29563 0.65621
H2 H 0.84867 -0.43730 0.76946
H3 H 0.86074 0.18305 0.48473
H4 H 1.03333 -0.40956 0.95707
H5 H 1.21352 -0.24014 1.03300
H6 H 1.01276 0.14809 0.87383
H7 H 0.94851 0.02093 0.88135
H8 H 1.41191 0.11357 1.06195
H9 H 1.28274 0.21059 1.02170
H10 H 1.01838 0.07036 0.59012
H11 H 1.31648 0.10869 0.68183
H12 H 1.53945 0.25138 0.76699
H13 H 1.23707 0.48406 0.83848
H14 H 1.01467 0.34136 0.75841
H15 H 0.60721 0.33468 0.60007
H16 H 0.70771 0.40567 0.54171
H17 H 0.51386 0.38259 0.48453
H18 H 0.65289 0.17790 0.29719
H19 H 0.54179 0.28378 0.29432
H20 H 0.73573 0.30701 0.35039
H21 H 0.47719 0.13479 0.51062
H22 H 0.38305 0.17187 0.38934
H23 H 0.50207 0.07048 0.39655
#END
