
#######################################################################
#
#                 Cambridge Crystallographic Data Centre
#                                CCDC
#
#######################################################################
#
# If this CIF has been generated from an entry in the Cambridge
# Structural Database, then it will include bibliographic, chemical,
# crystal, experimental, refinement or atomic coordinate data resulting
# from the CCDC's data processing and validation procedures.
#
#######################################################################

data_CSD_CIF_ZOKKUH
_audit_creation_date 2014-06-18
_audit_creation_method CSD-ConQuest-V1
_database_code_CSD ZOKKUH
_database_code_depnum_ccdc_archive 'CCDC 981398'
_chemical_formula_sum 'C26 H33 N1 O4'
_chemical_formula_moiety
;
C26 H33 N1 O4
;
_journal_coden_Cambridge 241
_journal_volume 43
_journal_year 2014
_journal_page_first 766
_journal_name_full 'Chem.Lett. '
loop_
_publ_author_name
"A.Katori"
"Y.Sashihara"
"A.Iwamoto"
"S.Kojima"
"Y.Yamamoto"
_chemical_name_systematic
;
(1R,2S,5R)-5-methyl-2-(2-phenylpropan-2-yl)cyclohexyl 
(R)-1-(furan-2-yl)-2-oxocyclopentane-1-carboxylate
;
_cell_volume   2370.328
_exptl_crystal_colour 'colorless'
_exptl_crystal_density_diffrn 1.187
_exptl_crystal_description 'block'
_exptl_crystal_preparation 'ethanol'
_diffrn_ambient_temperature 173
#These two values have been output from a single CSD field.
_refine_ls_R_factor_gt 0.034
_refine_ls_wR_factor_gt 0.034
_symmetry_cell_setting monoclinic
_symmetry_space_group_name_H-M 'C 2'
_symmetry_Int_Tables_number 5
loop_
_symmetry_equiv_pos_site_id
_symmetry_equiv_pos_as_xyz
1 x,y,z
2 -x,y,-z
3 1/2+x,1/2+y,z
4 1/2-x,1/2+y,-z
_cell_length_a 19.4270(15)
_cell_length_b 8.8959(7)
_cell_length_c 15.4773(12)
_cell_angle_alpha 90
_cell_angle_beta 117.604(2)
_cell_angle_gamma 90
_cell_formula_units_Z 4
loop_
_atom_type_symbol
_atom_type_radius_bond
C 0.68
H 0.23
N 0.68
O 0.68
loop_
_atom_site_label
_atom_site_type_symbol
_atom_site_fract_x
_atom_site_fract_y
_atom_site_fract_z
C1 C 1.12943(7) 0.54380(13) 0.47467(8)
C2 C 1.21304(8) 0.52963(18) 0.54953(10)
H1 H 1.22140 0.43810 0.58960
H2 H 1.23000 0.61850 0.59300
C3 C 1.25690(8) 0.51963(17) 0.48925(10)
H3 H 1.30950 0.56370 0.52490
H4 H 1.26160 0.41400 0.47250
C4 C 1.20657(7) 0.61070(15) 0.3980(1)
H5 H 1.21820 0.58430 0.34390
H6 H 1.21500 0.71990 0.41110
C5 C 1.12271(7) 0.56638(12) 0.37324(9)
C6 C 1.10130(7) 0.42013(13) 0.31990(9)
C7 C 1.08254(8) 0.28449(14) 0.33876(10)
H7 H 1.07510 0.25710 0.39320
C8 C 1.07579(9) 0.18813(16) 0.26151(12)
H8 H 1.06320 0.08420 0.25440
C9 C 1.09054(11) 0.27255(18) 0.20196(13)
H9 H 1.09010 0.23740 0.14370
C10 C 1.06547(7) 0.69080(13) 0.31559(9)
C11 C 0.93455(7) 0.77541(13) 0.24995(9)
H10 H 0.94180 0.82580 0.19690
C12 C 0.94722(8) 0.88798(14) 0.33011(10)
H11 H 0.99980 0.93180 0.35510
H12 H 0.94470 0.83450 0.38470
C13 C 0.88757(8) 1.01460(14) 0.29549(10)
H13 H 0.89310 1.07250 0.24370
C14 C 0.80699(8) 0.94703(16) 0.25121(10)
H14 H 0.76790 1.02820 0.22320
H15 H 0.79900 0.89660 0.30290
C15 C 0.79534(8) 0.83406(15) 0.17198(10)
H16 H 0.79950 0.88680 0.11830
H17 H 0.74230 0.79180 0.14530
C16 C 0.85425(7) 0.70470(13) 0.20813(9)
H18 H 0.85000 0.65670 0.26390
C17 C 0.90149(10) 1.12132(17) 0.37884(12)
H19 H 0.89840 1.06540 0.43150
H20 H 0.86190 1.20050 0.35540
H21 H 0.95310 1.16670 0.40330
C18 C 0.83327(8) 0.58109(14) 0.12790(9)
C19 C 0.88901(8) 0.44630(16) 0.16268(11)
H22 H 0.86630 0.36240 0.11710
H23 H 0.89760 0.41570 0.22770
H24 H 0.93870 0.47480 0.16540
C20 C 0.83521(10) 0.64299(18) 0.03661(11)
H25 H 0.79700 0.72400 0.00870
H26 H 0.82270 0.56230 -0.01150
H27 H 0.88720 0.68220 0.05420
C21 C 0.75236(7) 0.52553(15) 0.10617(9)
C22 C 0.68526(9) 0.56099(16) 0.02272(10)
H28 H 0.68850 0.61870 -0.02700
C23 C 0.61273(9) 0.5132(2) 0.01033(12)
H29 H 0.56720 0.53940 -0.04730
C24 C 0.60675(9) 0.4288(2) 0.08075(12)
H30 H 0.55740 0.39590 0.07200
C25 C 0.67237(9) 0.3926(2) 0.16329(11)
H31 H 0.66880 0.33420 0.21240
C26 C 0.74398(8) 0.43998(17) 0.17613(10)
H32 H 0.78900 0.41360 0.23440
N1 N 1.06989(6) 0.53817(12) 0.48749(7)
O1 O 1.08950(5) 0.51560(11) 0.58599(6)
H33 H 1.04930 0.52210 0.59320
O2 O 0.99291(5) 0.65698(9) 0.29523(6)
O3 O 1.08495(6) 0.80574(11) 0.29327(9)
O4 O 1.10655(7) 0.41726(11) 0.23512(7)
#END
