
#######################################################################
#
#                 Cambridge Crystallographic Data Centre
#                                CCDC
#
#######################################################################
#
# If this CIF has been generated from an entry in the Cambridge
# Structural Database, then it will include bibliographic, chemical,
# crystal, experimental, refinement or atomic coordinate data resulting
# from the CCDC's data processing and validation procedures.
#
#######################################################################

data_CSD_CIF_ZOKKOB
_audit_creation_date 2014-06-18
_audit_creation_method CSD-ConQuest-V1
_database_code_CSD ZOKKOB
_database_code_depnum_ccdc_archive 'CCDC 981397'
_chemical_formula_sum 'C29 H39 N1 O4'
_chemical_formula_moiety
;
C29 H39 N1 O4
;
_journal_coden_Cambridge 241
_journal_volume 43
_journal_year 2014
_journal_page_first 766
_journal_name_full 'Chem.Lett. '
loop_
_publ_author_name
"A.Katori"
"Y.Sashihara"
"A.Iwamoto"
"S.Kojima"
"Y.Yamamoto"
_chemical_name_systematic
;
(1R,2S,5R)-5-methyl-2-(2-phenylpropan-2-yl)cyclohexyl 
(R)-4,4-dimethyl-1-(5-methylfuran-2-yl)-2-oxocyclopentane-1-carboxylate
;
_cell_volume   2734.777
_exptl_crystal_colour 'colorless'
_exptl_crystal_density_diffrn 1.131
_exptl_crystal_description 'block'
_exptl_crystal_preparation 'ethanol'
_diffrn_ambient_temperature 173
#These two values have been output from a single CSD field.
_refine_ls_R_factor_gt 0.062
_refine_ls_wR_factor_gt 0.062
_symmetry_cell_setting monoclinic
_symmetry_space_group_name_H-M 'P 21'
_symmetry_Int_Tables_number 4
loop_
_symmetry_equiv_pos_site_id
_symmetry_equiv_pos_as_xyz
1 x,y,z
2 -x,1/2+y,-z
_cell_length_a 14.2245(9)
_cell_length_b 12.5036(8)
_cell_length_c 15.7151(10)
_cell_angle_alpha 90
_cell_angle_beta 101.9201(18)
_cell_angle_gamma 90
_cell_formula_units_Z 4
loop_
_atom_type_symbol
_atom_type_radius_bond
C 0.68
H 0.23
N 0.68
O 0.68
loop_
_atom_site_label
_atom_site_type_symbol
_atom_site_fract_x
_atom_site_fract_y
_atom_site_fract_z
N1 N 0.06516(16) 1.01051(18) 0.66285(15)
O1 O 0.13682(14) 0.96827(16) 0.62279(12)
H1 H 0.18200 0.94400 0.66100
O2 O -0.00077(13) 1.16202(14) 0.77648(12)
O3 O -0.0866(2) 1.28205(18) 0.68701(18)
O4 O -0.21076(14) 1.05235(16) 0.72426(13)
C1 C -0.00560(19) 1.0481(2) 0.60908(18)
C2 C -0.0222(2) 1.0542(3) 0.5118(2)
H2 H -0.04740 0.98550 0.48510
H3 H 0.03810 1.07160 0.49270
C3 C -0.0965(2) 1.1440(3) 0.4869(2)
C4 C -0.1585(2) 1.1323(3) 0.5560(2)
H4 H -0.20950 1.07830 0.53730
H5 H -0.18920 1.20140 0.56460
C5 C -0.0906(2) 1.0962(2) 0.6420(2)
C6 C -0.0452(3) 1.2525(3) 0.4942(3)
H6 H -0.00170 1.25820 0.55110
H7 H -0.09290 1.31010 0.48790
H8 H -0.00830 1.25860 0.44820
C7 C -0.1573(3) 1.1302(4) 0.3950(2)
H9 H -0.20510 1.18770 0.38300
H10 H -0.19020 1.06090 0.39070
H11 H -0.11560 1.13320 0.35260
C8 C -0.1359(2) 1.0143(2) 0.68983(19)
C9 C -0.1240(2) 0.9093(2) 0.7070(2)
H12 H -0.07770 0.86360 0.69010
C10 C -0.1948(2) 0.8797(2) 0.7556(2)
H13 H -0.20450 0.81040 0.77700
C11 C -0.2444(2) 0.9680(3) 0.7653(2)
C12 C -0.3219(2) 0.9937(3) 0.8122(2)
H14 H -0.29620 1.03970 0.86210
H15 H -0.34650 0.92730 0.83270
H16 H -0.37410 1.03090 0.77290
C13 C -0.0603(2) 1.1923(2) 0.7027(2)
C14 C 0.0422(2) 1.2475(2) 0.8366(2)
H17 H -0.00600 1.30570 0.83690
C15 C 0.1264(2) 1.2905(3) 0.8023(2)
H18 H 0.10290 1.31980 0.74320
H19 H 0.17110 1.23110 0.79770
C16 C 0.1808(3) 1.3782(3) 0.8607(2)
H20 H 0.13540 1.43860 0.86330
C17 C 0.2124(3) 1.3328(3) 0.9512(2)
H21 H 0.24440 1.38960 0.99060
H22 H 0.25990 1.27520 0.95000
C18 C 0.1290(3) 1.2883(3) 0.9864(2)
H23 H 0.08460 1.34740 0.99230
H24 H 0.15380 1.25850 1.04510
C19 C 0.0723(2) 1.2000(2) 0.92827(19)
H25 H 0.11780 1.13980 0.92510
C20 C 0.2647(3) 1.4207(5) 0.8241(3)
H26 H 0.30950 1.36220 0.82020
H27 H 0.29790 1.47670 0.86250
H28 H 0.24050 1.45050 0.76600
C21 C -0.0107(2) 1.1553(2) 0.9703(2)
C22 C -0.0553(2) 1.0543(3) 0.9235(2)
H29 H -0.08630 1.07210 0.86360
H30 H -0.10330 1.02520 0.95390
H31 H -0.00500 1.00090 0.92320
C23 C -0.0914(3) 1.2381(4) 0.9648(4)
H32 H -0.14070 1.21020 0.99430
H33 H -0.12010 1.25230 0.90370
H34 H -0.06490 1.30460 0.99310
C24 C 0.03402(19) 1.1206(2) 1.06570(14)
C25 C 0.0038(3) 1.1658(2) 1.1363(2)
H35 H -0.04350 1.22060 1.12730
C26 C 0.0427(3) 1.1307(3) 1.22011(17)
H36 H 0.02200 1.16160 1.26840
C27 C 0.1118(3) 1.0505(4) 1.23333(14)
H37 H 0.13840 1.02650 1.29060
C28 C 0.1420(2) 1.0053(3) 1.1627(2)
H38 H 0.18930 0.95050 1.17180
C29 C 0.1031(2) 1.0404(2) 1.07892(16)
H39 H 0.12380 1.00950 1.03070
N2 N 0.22848(16) 0.9567(2) 0.80022(14)
O5 O 0.14482(14) 0.96166(19) 0.83444(13)
H40 H 0.09680 0.97000 0.79370
O6 O 0.38057(14) 1.00061(14) 0.69143(11)
O7 O 0.44947(15) 1.11308(16) 0.79722(13)
O8 O 0.51018(13) 0.80227(14) 0.80258(11)
C30 C 0.30227(19) 0.9437(2) 0.85905(16)
C31 C 0.3081(2) 0.9376(3) 0.95536(18)
H41 H 0.26670 0.87920 0.96930
H42 H 0.28680 1.00570 0.97720
C32 C 0.4143(2) 0.9155(3) 0.99713(18)
C33 C 0.4676(2) 0.9567(3) 0.92829(16)
H43 H 0.52920 0.91800 0.93280
H44 H 0.48160 1.03390 0.93690
C34 C 0.40182(19) 0.9372(2) 0.83774(16)
C35 C 0.4449(3) 0.9766(3) 1.08145(18)
H45 H 0.43590 1.05340 1.07020
H46 H 0.51280 0.96220 1.10600
H47 H 0.40580 0.95390 1.12280
C36 C 0.4307(3) 0.7956(3) 1.0135(2)
H48 H 0.39020 0.77030 1.05280
H49 H 0.49840 0.78290 1.04000
H50 H 0.41400 0.75700 0.95820
C37 C 0.41599(18) 0.8284(2) 0.80278(16)
C38 C 0.3588(2) 0.7460(2) 0.77184(18)
H51 H 0.29090 0.74300 0.76530
C39 C 0.4194(2) 0.6637(2) 0.75072(19)
H52 H 0.39910 0.59550 0.72730
C40 C 0.5098(2) 0.6995(2) 0.76976(18)
C41 C 0.6045(2) 0.6575(2) 0.7614(2)
H53 H 0.59690 0.58480 0.73770
H54 H 0.64760 0.65630 0.81870
H55 H 0.63180 0.70360 0.72220
C42 C 0.41483(19) 1.0278(2) 0.77418(17)
C43 C 0.3857(2) 1.0824(2) 0.62462(16)
H56 H 0.44960 1.11900 0.63900
C44 C 0.3065(2) 1.1639(2) 0.62562(18)
H57 H 0.24480 1.12590 0.62240
H58 H 0.32090 1.20410 0.68110
C45 C 0.2965(2) 1.2421(2) 0.55010(19)
H59 H 0.35990 1.27820 0.55370
C46 C 0.2739(2) 1.1802(2) 0.46599(19)
H60 H 0.26610 1.23030 0.41620
H61 H 0.21290 1.14060 0.46200
C47 C 0.3543(2) 1.1022(2) 0.46180(18)
H62 H 0.41330 1.14330 0.45990
H63 H 0.33700 1.06100 0.40700
C48 C 0.3764(2) 1.0231(2) 0.53825(17)
H64 H 0.32010 0.97390 0.53270
C49 C 0.2220(3) 1.3282(3) 0.5561(2)
H65 H 0.15890 1.29470 0.55200
H66 H 0.21890 1.37930 0.50840
H67 H 0.24020 1.36570 0.61190
C50 C 0.4670(3) 0.9521(3) 0.53020(19)
C51 C 0.4821(5) 0.8601(4) 0.5953(3)
H68 H 0.50460 0.88850 0.65410
H69 H 0.53010 0.81060 0.58120
H70 H 0.42120 0.82220 0.59230
C52 C 0.5595(3) 1.0177(4) 0.5466(3)
H71 H 0.61370 0.97130 0.54170
H72 H 0.57040 1.04860 0.60510
H73 H 0.55390 1.07520 0.50350
C53 C 0.44348(17) 0.90086(16) 0.43693(11)
C54 C 0.50697(13) 0.91486(17) 0.38144(13)
H74 H 0.56190 0.95920 0.39840
C55 C 0.49013(17) 0.8640(2) 0.30107(12)
H75 H 0.53350 0.87360 0.26310
C56 C 0.4098(2) 0.79912(19) 0.27619(12)
H76 H 0.39830 0.76440 0.22130
C57 C 0.34630(19) 0.7851(2) 0.33169(17)
H77 H 0.29140 0.74080 0.31470
C58 C 0.36315(18) 0.8360(2) 0.41205(15)
H78 H 0.31980 0.82640 0.45000
#END
