
#######################################################################
#
#                 Cambridge Crystallographic Data Centre
#                                CCDC
#
#######################################################################
#
# If this CIF has been generated from an entry in the Cambridge
# Structural Database, then it will include bibliographic, chemical,
# crystal, experimental, refinement or atomic coordinate data resulting
# from the CCDC's data processing and validation procedures.
#
#######################################################################

data_CSD_CIF_ZOKKIV
_audit_creation_date 2014-06-18
_audit_creation_method CSD-ConQuest-V1
_database_code_CSD ZOKKIV
_database_code_depnum_ccdc_archive 'CCDC 981396'
_chemical_formula_sum 'C27 H35 N1 O4'
_chemical_formula_moiety
;
C27 H35 N1 O4
;
_journal_coden_Cambridge 241
_journal_volume 43
_journal_year 2014
_journal_page_first 766
_journal_name_full 'Chem.Lett. '
loop_
_publ_author_name
"A.Katori"
"Y.Sashihara"
"A.Iwamoto"
"S.Kojima"
"Y.Yamamoto"
_chemical_name_systematic
;
(1R,2S,5R)-5-methyl-2-(2-phenylpropan-2-yl)cyclohexyl 
(R)-1-(5-methylfuran-2-yl)-2-oxocyclopentane-1-carboxylate
;
_cell_volume   2500.724
_exptl_crystal_colour 'colorless'
_exptl_crystal_density_diffrn 1.162
_exptl_crystal_description 'block'
_exptl_crystal_preparation 'ethanol'
_diffrn_ambient_temperature 173
#These two values have been output from a single CSD field.
_refine_ls_R_factor_gt 0.0734
_refine_ls_wR_factor_gt 0.0734
_symmetry_cell_setting monoclinic
_symmetry_space_group_name_H-M 'C 2'
_symmetry_Int_Tables_number 5
loop_
_symmetry_equiv_pos_site_id
_symmetry_equiv_pos_as_xyz
1 x,y,z
2 -x,y,-z
3 1/2+x,1/2+y,z
4 1/2-x,1/2+y,-z
_cell_length_a 19.388(3)
_cell_length_b 8.9066(16)
_cell_length_c 16.642(3)
_cell_angle_alpha 90
_cell_angle_beta 119.519(4)
_cell_angle_gamma 90
_cell_formula_units_Z 4
loop_
_atom_type_symbol
_atom_type_radius_bond
C 0.68
H 0.23
N 0.68
O 0.68
loop_
_atom_site_label
_atom_site_type_symbol
_atom_site_fract_x
_atom_site_fract_y
_atom_site_fract_z
C1 C 1.1311(2) 0.8534(4) 0.9809(2)
C2 C 1.2168(2) 0.8394(5) 1.0518(3)
H1 H 1.22610 0.75020 1.09130
H2 H 1.23560 0.93000 1.09130
C3 C 1.2585(2) 0.8230(4) 0.9943(3)
H3 H 1.31280 0.86530 1.02740
H4 H 1.26160 0.71630 0.97970
C4 C 1.2064(2) 0.9115(4) 0.9076(3)
H5 H 1.21590 0.88100 0.85660
H6 H 1.21650 1.02050 0.91860
C5 C 1.12146(19) 0.8724(3) 0.8850(2)
C6 C 1.09625(18) 0.7268(3) 0.8352(2)
C7 C 1.0817(2) 0.5885(4) 0.8551(2)
H7 H 1.08200 0.55830 0.90990
C8 C 1.0659(2) 0.4964(4) 0.7787(3)
H8 H 1.05340 0.39240 0.77250
C9 C 1.0718(2) 0.5818(4) 0.7177(3)
C10 C 1.0571(3) 0.5617(7) 0.6219(3)
H9 H 1.00270 0.59190 0.57800
H10 H 1.06470 0.45600 0.61180
H11 H 1.09440 0.62400 0.61270
C11 C 1.0631(2) 0.9958(3) 0.8291(2)
C12 C 0.9288(2) 1.0753(3) 0.7609(2)
H12 H 0.93690 1.12610 0.71260
C13 C 0.9374(2) 1.1884(4) 0.8327(3)
H13 H 0.99070 1.23440 0.85970
H14 H 0.93410 1.13500 0.88290
C14 C 0.8760(2) 1.3121(4) 0.7965(3)
H15 H 0.88300 1.37050 0.74970
C15 C 0.7941(2) 1.2402(5) 0.7474(3)
H16 H 0.78390 1.18990 0.79360
H17 H 0.75360 1.31950 0.71700
C16 C 0.7863(2) 1.1270(4) 0.6760(3)
H18 H 0.79200 1.17930 0.62710
H19 H 0.73260 1.08240 0.64710
C17 C 0.8476(2) 1.0009(4) 0.7158(2)
H20 H 0.84180 0.95400 0.76670
C18 C 0.8856(3) 1.4185(5) 0.8709(4)
H21 H 0.93700 1.46900 0.89630
H22 H 0.88300 1.36270 0.92000
H23 H 0.84310 1.49350 0.84500
C19 C 0.8302(2) 0.8743(4) 0.6428(3)
C20 C 0.8857(2) 0.7389(5) 0.6844(3)
H24 H 0.93990 0.76840 0.70160
H25 H 0.86830 0.65780 0.63870
H26 H 0.88420 0.70400 0.73930
C21 C 0.8402(6) 0.9301(8) 0.5634(5)
H27 H 0.82570 0.85010 0.51740
H28 H 0.89560 0.95900 0.58640
H29 H 0.80590 1.01730 0.53500
C22 C 0.7446(3) 0.8085(6) 0.6134(4)
C23 C 0.7382(4) 0.7317(7) 0.6839(6)
H30 H 0.78390 0.72830 0.74350
C24 C 0.6708(5) 0.6618(9) 0.6723(6)
H31 H 0.66780 0.61160 0.72090
C25 C 0.6100(5) 0.671(1) 0.5867(6)
H32 H 0.56370 0.61780 0.57570
C26 C 0.6049(3) 0.7473(8) 0.5114(5)
H33 H 0.55730 0.75170 0.45370
C27 C 0.6840(4) 0.8264(10) 0.5285(6)
H34 H 0.68790 0.88200 0.48210
N1 N 1.07150(16) 0.8475(3) 0.99184(17)
O1 O 1.09244(15) 0.8259(3) 1.08441(16)
H35 H 1.05140 0.82620 1.08940
O2 O 0.98950(13) 0.9602(2) 0.80706(16)
O3 O 1.08200(17) 1.1107(3) 0.8080(2)
O4 O 1.09101(14) 0.7263(3) 0.75074(16)
#END
