
#######################################################################
#
#                 Cambridge Crystallographic Data Centre
#                                CCDC
#
#######################################################################
#
# If this CIF has been generated from an entry in the Cambridge
# Structural Database, then it will include bibliographic, chemical,
# crystal, experimental, refinement or atomic coordinate data resulting
# from the CCDC's data processing and validation procedures.
#
#######################################################################

data_CSD_CIF_ZOKREY
_audit_creation_date 2014-06-18
_audit_creation_method CSD-ConQuest-V1
_database_code_CSD ZOKREY
_database_code_depnum_ccdc_archive 'CCDC 977177'
_chemical_formula_sum 'C15 H17 N3 O5'
_chemical_formula_moiety
;
C15 H17 N3 O5
;
_journal_coden_Cambridge 1616
_journal_volume 6
_journal_year 2014
_journal_page_first 5596
_journal_name_full 'Analytical Methods '
loop_
_publ_author_name
"A.Subhasri"
"C.Anbuselvan"
_chemical_name_systematic
;
2-(2-(4-methoxy-2-nitrophenyl)hydrazono)-5,5-dimethylcyclohexane-1,3-dione
;
_chemical_melting_point 455
_cell_volume   3035.697
_exptl_crystal_colour 'yellow'
_exptl_crystal_density_diffrn 1.397
_exptl_special_details
;
Luminescent

;
_exptl_crystal_preparation 'Re-crystallisation from solvent'
_diffrn_ambient_temperature 293
#These two values have been output from a single CSD field.
_refine_ls_R_factor_gt 0.0387
_refine_ls_wR_factor_gt 0.0387
_symmetry_cell_setting monoclinic
_symmetry_space_group_name_H-M 'C c'
_symmetry_Int_Tables_number 9
loop_
_symmetry_equiv_pos_site_id
_symmetry_equiv_pos_as_xyz
1 x,y,z
2 x,-y,1/2+z
3 1/2+x,1/2+y,z
4 1/2+x,1/2-y,1/2+z
_cell_length_a 23.380(3)
_cell_length_b 6.9690(7)
_cell_length_c 19.937(3)
_cell_angle_alpha 90
_cell_angle_beta 110.851(15)
_cell_angle_gamma 90
_cell_formula_units_Z 8
loop_
_atom_type_symbol
_atom_type_radius_bond
C 0.68
H 0.23
N 0.68
O 0.68
loop_
_atom_site_label
_atom_site_type_symbol
_atom_site_fract_x
_atom_site_fract_y
_atom_site_fract_z
O1 O 0.33939(11) 0.3425(4) 0.24004(14)
N1 N 0.62429(13) 0.2564(4) 0.33906(16)
C1 C 0.8778(2) 0.2853(9) 0.3858(3)
N2 N 0.58310(13) 0.2181(4) 0.27561(17)
C2 C 0.7911(2) 0.5117(6) 0.3358(3)
N3 N 0.48883(16) 0.1996(4) 0.13163(17)
C3 C 0.80908(15) 0.3127(5) 0.3673(2)
C4 C 0.79263(17) 0.2852(6) 0.4339(2)
O2 O 0.67137(12) 0.1218(4) 0.23344(15)
C5 C 0.72551(16) 0.2852(4) 0.4224(2)
O3 O 0.54091(13) 0.1579(4) 0.13671(16)
C6 C 0.68258(16) 0.2344(4) 0.3489(2)
C7 C 0.70627(17) 0.1690(4) 0.2936(2)
O4 O 0.70720(12) 0.3248(4) 0.47037(14)
C8 C 0.77424(18) 0.1604(6) 0.3123(3)
C9 C 0.52133(16) 0.2456(4) 0.26425(19)
O5 O 0.44736(16) 0.2068(5) 0.07377(16)
C10 C 0.50194(17) 0.2819(5) 0.32214(19)
C11 C 0.44235(17) 0.3113(5) 0.3128(2)
C12 C 0.39716(15) 0.3046(4) 0.24387(19)
C13 C 0.41408(17) 0.2673(4) 0.1857(2)
C14 C 0.47563(15) 0.2379(4) 0.19636(18)
C15 C 0.29180(19) 0.3307(8) 0.1714(3)
H1 H 0.2991(15) 0.419(5) 0.134(2)
H2 H 0.8117(18) 0.382(6) 0.469(2)
H3 H 0.4286(16) 0.334(4) 0.357(2)
H4 H 0.8099(18) 0.158(5) 0.456(2)
H5 H 0.815(2) 0.604(6) 0.370(2)
H6 H 0.799(2) 0.521(6) 0.292(3)
H7 H 0.5937(17) 0.172(5) 0.237(2)
H8 H 0.899(2) 0.380(6) 0.420(3)
H9 H 0.3834(15) 0.261(4) 0.138(2)
H10 H 0.7875(17) 0.034(6) 0.335(2)
H11 H 0.749(2) 0.541(6) 0.328(2)
H12 H 0.887(2) 0.315(6) 0.344(3)
H13 H 0.7811(16) 0.179(5) 0.266(2)
H14 H 0.293(2) 0.212(7) 0.147(3)
H15 H 0.5333(16) 0.286(4) 0.368(2)
H16 H 0.254(2) 0.365(6) 0.181(2)
H17 H 0.887(2) 0.148(7) 0.398(3)
O6 O 0.07654(13) 0.2195(4) 0.25846(15)
O7 O -0.28532(12) 0.4432(4) 0.14856(14)
O8 O -0.25272(11) 0.1782(4) -0.05255(14)
N4 N -0.06286(15) 0.1819(4) 0.01307(16)
N5 N -0.16292(13) 0.2499(4) 0.06691(16)
N6 N -0.20430(12) 0.3065(4) 0.09340(14)
O9 O -0.01813(14) 0.1685(6) -0.00448(17)
O10 O -0.11489(13) 0.1715(5) -0.03077(15)
C16 C 0.1265(2) 0.1839(7) 0.2349(3)
C17 C 0.01967(16) 0.2246(4) 0.2079(2)
C18 C -0.08664(16) 0.2695(4) 0.18656(18)
C19 C -0.02770(18) 0.2601(5) 0.2331(2)
C20 C -0.10194(15) 0.2423(4) 0.11262(17)
C21 C -0.37194(16) 0.3612(5) 0.0462(2)
C22 C -0.30444(15) 0.3740(5) 0.08878(18)
C23 C -0.26254(15) 0.3019(4) 0.05279(18)
C24 C 0.00716(16) 0.1973(5) 0.1359(2)
C25 C -0.05339(15) 0.2070(4) 0.08897(17)
C26 C -0.39031(14) 0.1994(5) -0.00792(18)
C27 C -0.28638(15) 0.2311(4) -0.02128(19)
C28 C -0.35488(16) 0.2228(6) -0.0588(2)
C29 C -0.45879(17) 0.2129(7) -0.0515(3)
C30 C -0.3764(2) 0.0067(6) 0.0295(3)
H18 H -0.3666(16) 0.122(5) -0.093(2)
H19 H 0.1275(19) 0.284(6) 0.197(3)
H20 H -0.3940(16) 0.365(5) 0.078(2)
H21 H -0.3839(16) 0.486(5) 0.0198(18)
H22 H 0.1231(19) 0.050(6) 0.213(2)
H23 H 0.0393(16) 0.177(5) 0.116(2)
H24 H -0.399(2) -0.019(6) 0.061(2)
H25 H -0.334(2) -0.006(6) 0.063(2)
H26 H -0.1734(18) 0.210(5) 0.021(2)
H27 H -0.0185(17) 0.282(5) 0.281(2)
H28 H -0.3679(16) 0.350(5) -0.082(2)
H29 H -0.1181(16) 0.292(4) 0.207(2)
H30 H -0.472(2) 0.343(6) -0.074(3)
H31 H -0.4755(18) 0.104(6) -0.086(2)
H32 H -0.481(2) 0.195(6) -0.024(3)
H33 H 0.160(3) 0.186(7) 0.274(4)
H34 H -0.389(2) -0.102(8) 0.000(3)
#END
