
#######################################################################
#
#                 Cambridge Crystallographic Data Centre
#                                CCDC
#
#######################################################################
#
# If this CIF has been generated from an entry in the Cambridge
# Structural Database, then it will include bibliographic, chemical,
# crystal, experimental, refinement or atomic coordinate data resulting
# from the CCDC's data processing and validation procedures.
#
#######################################################################

data_CSD_CIF_ZONFOX
_audit_creation_date 1996-09-09
_audit_creation_method CSD-ConQuest-V1
_database_code_CSD ZONFOX
_database_code_depnum_ccdc_fiz 'CSD 59117'
_chemical_formula_sum 'C13 H25 N3 O3'
_chemical_formula_moiety
;
C13 H25 N3 O3
;
_journal_coden_Cambridge 692
_journal_year 1996
_journal_page_first 48
_journal_name_full 'Synthesis '
loop_
_publ_author_name
"D.Enders"
"R.Syrig"
"G.Raabe"
"R.Fernandez"
"C.Gasch"
"J.-M.Lassaletta"
"J.-M.Llera"
_chemical_name_systematic
;
N-(2-t-Butyl-2-nitropropanylidene)hydrazone-2-methoxypyrrolidine
;
_cell_volume   1588.164
_exptl_crystal_colour 'colorless'
_exptl_crystal_density_diffrn 1.135
_diffrn_ambient_temperature ?
_diffrn_special_details
;
The study was carried out at room temperature,in the range 283-303K

;
#These two values have been output from a single CSD field.
_refine_ls_R_factor_gt 0.042
_refine_ls_wR_factor_gt 0.042
_symmetry_cell_setting orthorhombic
_symmetry_space_group_name_H-M 'P 21 21 21'
_symmetry_Int_Tables_number 19
loop_
_symmetry_equiv_pos_site_id
_symmetry_equiv_pos_as_xyz
1 x,y,z
2 1/2-x,-y,1/2+z
3 1/2+x,1/2-y,-z
4 -x,1/2+y,1/2-z
_cell_length_a 8.7593(4)
_cell_length_b 9.6612(9)
_cell_length_c 18.767(1)
_cell_angle_alpha 90
_cell_angle_beta 90
_cell_angle_gamma 90
_cell_formula_units_Z 4
loop_
_atom_type_symbol
_atom_type_radius_bond
C 0.68
H 0.23
N 0.68
O 0.68
loop_
_atom_site_label
_atom_site_type_symbol
_atom_site_fract_x
_atom_site_fract_y
_atom_site_fract_z
O1 O -0.7134(3) 0.2135(2) -0.5107(1)
O2 O -0.7030(3) -0.2232(3) -0.7941(2)
O3 O -0.6279(3) -0.0407(3) -0.8486(1)
N1 N -0.5834(3) -0.1131(2) -0.5847(1)
N2 N -0.5117(2) -0.0743(2) -0.6462(1)
N3 N -0.6042(3) -0.1519(3) -0.8202(2)
C1 C -0.6488(5) 0.3216(4) -0.4695(2)
C2 C -0.6141(3) 0.1012(3) -0.5181(2)
C3 C -0.6946(3) -0.0096(3) -0.5601(1)
C4 C -0.8092(4) -0.0912(4) -0.5169(2)
C5 C -0.7547(5) -0.2348(5) -0.5164(2)
C6 C -0.6500(3) -0.2541(3) -0.5786(2)
C7 C -0.4447(3) -0.1656(3) -0.6841(1)
C8 C -0.3675(3) -0.1249(3) -0.7518(1)
C9 C -0.4445(3) -0.1989(3) -0.8145(2)
C10 C -0.1918(3) -0.1472(3) -0.7517(2)
C11 C -0.1503(4) -0.3003(4) -0.7459(2)
C12 C -0.1213(3) -0.0869(4) -0.8187(2)
C13 C -0.1247(4) -0.0731(4) -0.6873(2)
H1 H -0.54890 0.35710 -0.49610
H2 H -0.61260 0.29670 -0.41770
H3 H -0.71970 0.39610 -0.46310
H4 H -0.74870 0.03960 -0.60790
H5 H -0.50700 0.11590 -0.54510
H6 H -0.56750 0.07370 -0.46940
H7 H -0.85290 -0.05190 -0.47470
H8 H -0.90840 -0.09130 -0.54590
H9 H -0.69380 -0.24920 -0.46260
H10 H -0.83100 -0.29780 -0.51240
H11 H -0.70770 -0.26720 -0.62900
H12 H -0.56460 -0.32330 -0.56850
H13 H -0.44260 -0.26800 -0.66870
H14 H -0.38370 -0.02520 -0.76120
H15 H -0.39070 -0.18570 -0.85880
H16 H -0.44560 -0.30040 -0.80830
H17 H -0.19920 -0.34840 -0.79390
H18 H -0.19960 -0.35000 -0.70290
H19 H -0.04330 -0.31820 -0.74590
H20 H -0.15190 0.01200 -0.82460
H21 H -0.15910 -0.13250 -0.86360
H22 H -0.01140 -0.09250 -0.82030
H23 H -0.16820 -0.10960 -0.64320
H24 H -0.13930 0.01920 -0.68960
H25 H -0.01080 -0.08300 -0.68980
#END
