
#######################################################################
#
#                 Cambridge Crystallographic Data Centre
#                                CCDC
#
#######################################################################
#
# If this CIF has been generated from an entry in the Cambridge
# Structural Database, then it will include bibliographic, chemical,
# crystal, experimental, refinement or atomic coordinate data resulting
# from the CCDC's data processing and validation procedures.
#
#######################################################################

data_CSD_CIF_ZONJUH
_audit_creation_date 1996-09-09
_audit_creation_method CSD-ConQuest-V1
_database_code_CSD ZONJUH
_database_code_depnum_ccdc_archive 'CCDC 1314801'
_chemical_formula_sum 'C18 H22 N2 O4'
_chemical_formula_moiety
;
C18 H22 N2 O4
;
_journal_coden_Cambridge 7
_journal_volume 68
_journal_year 1995
_journal_page_first 3247
_journal_name_full 'Bull.Chem.Soc.Jpn. '
loop_
_publ_author_name
"Y.Mazaki"
"K.Mutai"
_chemical_name_systematic
;
1-(m-(Diethylamino)phenoxy)-2-(p-nitrophenoxy)ethane
;
_chemical_melting_point 403.15
_cell_volume    868.735
_exptl_crystal_colour 'yellow'
_exptl_crystal_density_diffrn 1.263
_exptl_special_details
;
Melting point range 403.15-404.15K

;
_diffrn_ambient_temperature ?
_diffrn_special_details
;
The study was carried out at room temperature,in the range 283-303K

;
#These two values have been output from a single CSD field.
_refine_ls_R_factor_gt 0.059
_refine_ls_wR_factor_gt 0.059
_symmetry_cell_setting triclinic
_symmetry_space_group_name_H-M 'P -1'
_symmetry_Int_Tables_number 2
loop_
_symmetry_equiv_pos_site_id
_symmetry_equiv_pos_as_xyz
1 x,y,z
2 -x,-y,-z
_cell_length_a 12.282(3)
_cell_length_b 12.734(3)
_cell_length_c 8.097(1)
_cell_angle_alpha 102.62(2)
_cell_angle_beta 89.93(2)
_cell_angle_gamma 133.97(1)
_cell_formula_units_Z 2
loop_
_atom_type_symbol
_atom_type_radius_bond
C 0.68
H 0.23
N 0.68
O 0.68
loop_
_atom_site_label
_atom_site_type_symbol
_atom_site_fract_x
_atom_site_fract_y
_atom_site_fract_z
N1 N 0.8712(3) 1.1806(3) 1.6372(3)
N2 N 0.2681(4) 0.3230(3) 0.1154(3)
O1 O 0.5259(2) 0.8721(2) 0.9623(2)
O2 O 0.3338(2) 0.6290(2) 0.6406(2)
O3 O 0.8045(3) 1.1426(3) 1.7567(3)
O4 O 1.0092(3) 1.2925(3) 1.6601(3)
C1 C 0.6037(3) 0.9367(3) 1.1288(3)
C2 C 0.7635(3) 1.0624(3) 1.1584(3)
C3 C 0.1220(3) 0.4972(3) 0.2050(4)
C4 C 0.2996(3) 0.4818(3) 0.3786(3)
C5 C 0.2691(3) 0.5622(3) 0.4667(3)
C6 C 0.1783(3) 0.5703(3) 0.3820(3)
C7 C 0.2983(3) 0.7048(3) 0.7403(3)
C8 C 0.1509(3) 0.4173(3) 0.1138(3)
C9 C 0.8517(3) 1.1402(3) 1.3236(4)
C10 C 0.2402(3) 0.4058(3) 0.2007(3)
C11 C 0.7795(3) 1.0923(3) 1.4594(3)
C12 C 0.3602(3) 0.7484(3) 0.9276(4)
C13 C 0.5339(3) 0.8869(3) 1.2670(4)
C14 C 0.6227(3) 0.9658(3) 1.4328(3)
C15 C 0.3593(4) 0.3115(4) 0.2055(4)
C16 C 0.2718(5) 0.1951(5) 0.2996(6)
C17 C 0.1827(5) 0.2178(5) -0.0605(5)
C18 C 0.2729(7) 0.2901(7) -0.1878(7)
H1 H 0.363(3) 0.477(3) 0.447(3)
H2 H 0.963(3) 1.226(3) 1.345(4)
H3 H 0.810(3) 1.094(3) 1.061(3)
H4 H 0.155(3) 0.620(3) 0.439(3)
H5 H 0.430(3) 0.798(3) 1.246(3)
H6 H 0.329(3) 0.658(3) 0.959(3)
H7 H 0.349(3) 0.799(3) 0.702(3)
H8 H 0.061(3) 0.504(3) 0.142(3)
H9 H 0.456(3) 0.420(3) 0.290(3)
H10 H 0.397(3) 0.289(3) 0.116(4)
H11 H 0.183(3) 0.630(3) 0.720(3)
H12 H 0.579(3) 0.933(3) 1.531(4)
H13 H 0.320(3) 0.783(3) 0.999(3)
H14 H 0.111(3) 0.370(3) -0.004(3)
H15 H 0.330(5) 0.195(4) 0.360(5)
H16 H 0.208(4) 0.199(4) 0.383(4)
H17 H 0.176(5) 0.091(5) 0.219(5)
H18 H 0.072(4) 0.162(4) -0.121(4)
H19 H 0.138(5) 0.106(5) -0.100(5)
H20 H 0.151(6) 0.159(6) -0.275(6)
H21 H 0.292(5) 0.379(5) -0.165(5)
H22 H 0.370(4) 0.327(4) -0.157(5)
#END
