
#######################################################################
#
#                 Cambridge Crystallographic Data Centre
#                                CCDC
#
#######################################################################
#
# If this CIF has been generated from an entry in the Cambridge
# Structural Database, then it will include bibliographic, chemical,
# crystal, experimental, refinement or atomic coordinate data resulting
# from the CCDC's data processing and validation procedures.
#
#######################################################################

data_CSD_CIF_ZONKAO
_audit_creation_date 1996-09-09
_audit_creation_method CSD-ConQuest-V1
_database_code_CSD ZONKAO
_database_code_depnum_ccdc_archive 'CCDC 1314802'
_chemical_formula_sum 'C16 H18 N2 O4'
_chemical_formula_moiety
;
C16 H18 N2 O4
;
_journal_coden_Cambridge 7
_journal_volume 68
_journal_year 1995
_journal_page_first 3247
_journal_name_full 'Bull.Chem.Soc.Jpn. '
loop_
_publ_author_name
"Y.Mazaki"
"K.Mutai"
_chemical_name_systematic
;
1-(m-(Dimethylamino)phenoxy)-2-(p-nitrophenoxy)ethane
;
_chemical_melting_point 426.15
_cell_volume   1489.824
_exptl_crystal_colour 'pale yellow'
_exptl_crystal_density_diffrn 1.348
_exptl_special_details
;
Melting point range 426.15-427.15K

;
_diffrn_ambient_temperature ?
_diffrn_special_details
;
The study was carried out at room temperature,in the range 283-303K

;
#These two values have been output from a single CSD field.
_refine_ls_R_factor_gt 0.054
_refine_ls_wR_factor_gt 0.054
_symmetry_cell_setting monoclinic
_symmetry_space_group_name_H-M 'P 21/a'
_symmetry_Int_Tables_number 14
loop_
_symmetry_equiv_pos_site_id
_symmetry_equiv_pos_as_xyz
1 x,y,z
2 1/2-x,1/2+y,-z
3 -x,-y,-z
4 -1/2+x,-1/2-y,z
_cell_length_a 17.052(2)
_cell_length_b 7.175
_cell_length_c 12.189(2)
_cell_angle_alpha 90
_cell_angle_beta 92.55(1)
_cell_angle_gamma 90
_cell_formula_units_Z 4
loop_
_atom_type_symbol
_atom_type_radius_bond
C 0.68
H 0.23
N 0.68
O 0.68
loop_
_atom_site_label
_atom_site_type_symbol
_atom_site_fract_x
_atom_site_fract_y
_atom_site_fract_z
O1 O 0.5602(1) 0.4566(2) 0.6335(1)
O2 O 0.4088(1) -0.0894(3) 0.9565(2)
O3 O 0.6235(1) 0.8927(2) 0.5309(1)
O4 O 0.3842(1) 0.1678(3) 1.0388(2)
N1 N 0.4108(1) 0.0806(3) 0.9628(2)
N2 N 0.7644(2) 0.8553(3) 0.1958(2)
C1 C 0.7271(1) 0.9572(3) 0.2726(2)
C2 C 0.4797(2) 0.0874(4) 0.7914(2)
C3 C 0.4482(1) 0.1841(4) 0.8759(2)
C4 C 0.5218(1) 0.3760(3) 0.7166(2)
C5 C 0.6953(1) 0.8699(3) 0.3644(2)
C6 C 0.6185(1) 0.6952(3) 0.5355(2)
C7 C 0.6813(2) 1.2487(4) 0.3433(2)
C8 C 0.6501(2) 1.1630(4) 0.4335(2)
C9 C 0.7186(2) 1.1511(4) 0.2643(2)
C10 C 0.6576(1) 0.9707(3) 0.4416(2)
C11 C 0.4518(2) 0.3753(4) 0.8821(2)
C12 C 0.4889(2) 0.4723(3) 0.8011(2)
C13 C 0.5701(2) 0.6552(4) 0.6340(2)
C14 C 0.5171(2) 0.1829(4) 0.7115(2)
C15 C 0.7950(2) 0.9414(5) 0.1001(2)
C16 C 0.7721(2) 0.6553(4) 0.2062(2)
H1 H 0.601(1) 0.696(3) 0.706(2)
H2 H 0.519(1) 0.708(3) 0.624(2)
H3 H 0.703(1) 0.744(3) 0.371(2)
H4 H 0.735(1) 1.208(4) 0.198(2)
H5 H 0.432(1) 0.437(4) 0.936(2)
H6 H 0.493(1) 0.606(4) 0.807(2)
H7 H 0.473(2) -0.046(4) 0.789(2)
H8 H 0.536(1) 0.122(3) 0.653(2)
H9 H 0.624(1) 1.239(3) 0.488(2)
H10 H 0.818(2) 0.859(5) 0.056(2)
H11 H 0.832(2) 1.035(5) 0.120(3)
H12 H 0.751(2) 1.013(5) 0.051(2)
H13 H 0.800(2) 0.611(4) 0.150(2)
H14 H 0.717(2) 0.593(4) 0.194(2)
H15 H 0.799(2) 0.621(4) 0.279(2)
H16 H 0.671(2) 1.381(4) 0.332(2)
H17 H 0.671(1) 0.641(3) 0.546(2)
H18 H 0.591(1) 0.646(3) 0.468(2)
#END
