
#######################################################################
#
#                 Cambridge Crystallographic Data Centre
#                                CCDC
#
#######################################################################
#
# If this CIF has been generated from an entry in the Cambridge
# Structural Database, then it will include bibliographic, chemical,
# crystal, experimental, refinement or atomic coordinate data resulting
# from the CCDC's data processing and validation procedures.
#
#######################################################################

data_CSD_CIF_ZOPYUA
_audit_creation_date 2014-11-13
_audit_creation_method CSD-ConQuest-V1
_database_code_CSD ZOPYUA
_database_code_depnum_ccdc_archive 'CCDC 977959'
_chemical_formula_sum 'C32 H49 N1 O7'
_chemical_formula_moiety
;
C32 H49 N1 O7
;
_journal_coden_Cambridge 179
_journal_volume 53
_journal_year 2014
_journal_page_first 9944
_journal_name_full 'Angew.Chem.,Int.Ed. '
loop_
_publ_author_name
"I.F.Kafka"
"I.M.Holan"
"D.Hidasova"
"R.Pohl"
"I.Cisarova"
"B.Klepetarova"
"U.Jahn"
_chemical_name_systematic
;
Triethyl 
5,6-dimethyl-2-phenyl-5-((2,2,6,6-tetramethylpiperidin-1-yl)oxy)cyclohexane-1,
1,3-tricarboxylate
;
_cell_volume   3096.886
_exptl_crystal_colour 'colorless'
_exptl_crystal_density_diffrn 1.2
_exptl_crystal_description 'prism'
_diffrn_ambient_temperature 200
#These two values have been output from a single CSD field.
_refine_ls_R_factor_gt 0.0388
_refine_ls_wR_factor_gt 0.0388
_symmetry_cell_setting monoclinic
_symmetry_space_group_name_H-M 'P 21/n'
_symmetry_Int_Tables_number 14
loop_
_symmetry_equiv_pos_site_id
_symmetry_equiv_pos_as_xyz
1 x,y,z
2 1/2-x,1/2+y,1/2-z
3 -x,-y,-z
4 -1/2+x,-1/2-y,-1/2+z
_cell_length_a 8.1146(1)
_cell_length_b 24.1655(4)
_cell_length_c 15.9385(3)
_cell_angle_alpha 90
_cell_angle_beta 97.750(1)
_cell_angle_gamma 90
_cell_formula_units_Z 4
loop_
_atom_type_symbol
_atom_type_radius_bond
C 0.68
H 0.23
N 0.68
O 0.68
loop_
_atom_site_label
_atom_site_type_symbol
_atom_site_fract_x
_atom_site_fract_y
_atom_site_fract_z
C1 C 0.04969(12) 0.13279(4) 0.74885(6)
C2 C 0.13219(12) 0.12157(4) 0.84203(6)
H1 H 0.08480 0.08530 0.85740
C3 C 0.32004(12) 0.11057(4) 0.84447(6)
H2 H 0.37390 0.14330 0.82110
C4 C 0.34766(13) 0.05897(4) 0.79161(7)
H3 H 0.46840 0.05450 0.78990
H4 H 0.30890 0.02600 0.82020
C5 C 0.25859(12) 0.06090(4) 0.70094(6)
C6 C 0.07316(12) 0.07882(4) 0.69720(6)
H5 H 0.02000 0.04890 0.72750
C7 C 0.46134(14) -0.06030(5) 0.65308(7)
C8 C 0.54224(16) -0.11279(5) 0.69423(9)
H6 H 0.62150 -0.12760 0.65780
H7 H 0.60640 -0.10280 0.74940
C9 C 0.41869(18) -0.15776(5) 0.70825(9)
H8 H 0.36000 -0.17060 0.65320
H9 H 0.47740 -0.18970 0.73740
C10 C 0.29541(16) -0.13423(5) 0.76181(8)
H10 H 0.35490 -0.12490 0.81840
H11 H 0.21200 -0.16300 0.76960
C11 C 0.20414(14) -0.08223(5) 0.72394(8)
C12 C 0.59764(15) -0.01646(5) 0.65568(9)
H12 H 0.55650 0.01500 0.62010
H13 H 0.69510 -0.03240 0.63450
H14 H 0.62870 -0.00390 0.71410
C13 C 0.39477(19) -0.07075(6) 0.55942(8)
H15 H 0.32970 -0.10500 0.55440
H16 H 0.48830 -0.07410 0.52680
H17 H 0.32390 -0.03970 0.53750
C14 C 0.07643(17) -0.09679(6) 0.64671(10)
H18 H 0.03970 -0.06280 0.61610
H19 H -0.01950 -0.11520 0.66580
H20 H 0.12780 -0.12160 0.60910
C15 C 0.10768(18) -0.05958(5) 0.79288(10)
H21 H 0.18620 -0.04840 0.84220
H22 H 0.03350 -0.08840 0.80960
H23 H 0.04170 -0.02750 0.77090
C16 C 0.39735(13) 0.10075(4) 0.93529(7)
C17 C 0.08938(13) 0.16183(4) 0.90953(6)
C18 C -0.03239(16) 0.14587(5) 0.95860(8)
H24 H -0.08760 0.11150 0.94760
C19 C -0.07431(19) 0.17929(7) 1.02312(9)
H25 H -0.15820 0.16780 1.05560
C20 C 0.00585(18) 0.22925(6) 1.04022(9)
H26 H -0.02180 0.25210 1.08480
C21 C 0.12638(17) 0.24576(6) 0.99217(9)
H27 H 0.18090 0.28030 1.00340
C22 C 0.16879(15) 0.21222(5) 0.92731(8)
H28 H 0.25270 0.22390 0.89500
C23 C -0.13629(12) 0.13988(4) 0.75622(6)
C24 C -0.34296(13) 0.20507(5) 0.77957(8)
H29 H -0.36210 0.18800 0.83390
H30 H -0.42590 0.19010 0.73400
C25 C -0.35819(16) 0.26673(5) 0.78431(9)
H31 H -0.27540 0.28100 0.82960
H32 H -0.46990 0.27650 0.79630
H33 H -0.33920 0.28310 0.73020
C26 C 0.11222(12) 0.18575(4) 0.71049(6)
C27 C 0.06166(17) 0.24537(5) 0.58955(7)
H34 H 0.16640 0.26220 0.61710
H35 H -0.02860 0.27300 0.58920
C28 C 0.07968(19) 0.22861(6) 0.50088(8)
H36 H 0.17500 0.20360 0.50160
H37 H 0.09750 0.26160 0.46750
H38 H -0.02160 0.20960 0.47550
C29 C -0.01967(15) 0.07819(5) 0.60675(7)
H39 H 0.03220 0.10470 0.57180
H40 H -0.13620 0.08850 0.60780
H41 H -0.01440 0.04100 0.58280
C30 C 0.35132(14) 0.09732(5) 0.64407(7)
H42 H 0.47100 0.09020 0.65640
H43 H 0.32930 0.13640 0.65490
H44 H 0.31290 0.08870 0.58460
C31 C 0.36226(18) 0.04930(6) 1.05957(8)
H45 H 0.34830 0.08310 1.09290
H46 H 0.47950 0.03710 1.07150
C32 C 0.2480(2) 0.00463(8) 1.08158(10)
H47 H 0.13250 0.01700 1.06810
H48 H 0.27180 -0.00370 1.14220
H49 H 0.26490 -0.02870 1.04890
N1 N 0.33437(11) -0.04071(4) 0.70718(6)
O1 O 0.24647(9) 0.00533(3) 0.66169(5)
O2 O -0.23048(10) 0.10220(3) 0.76209(6)
O3 O -0.17564(9) 0.19317(3) 0.76197(5)
O4 O 0.22697(10) 0.21379(3) 0.74156(5)
O5 O 0.02278(10) 0.19618(3) 0.63568(5)
O6 O 0.51337(12) 0.12548(4) 0.97204(6)
O7 O 0.31730(11) 0.05999(3) 0.97008(5)
#END
