
#######################################################################
#
#                 Cambridge Crystallographic Data Centre
#                                CCDC
#
#######################################################################
#
# If this CIF has been generated from an entry in the Cambridge
# Structural Database, then it will include bibliographic, chemical,
# crystal, experimental, refinement or atomic coordinate data resulting
# from the CCDC's data processing and validation procedures.
#
#######################################################################

data_CSD_CIF_ZORHUJ
_audit_creation_date 1996-11-18
_audit_creation_method CSD-ConQuest-V1
_database_code_CSD ZORHUJ
_database_code_depnum_ccdc_archive 'CCDC 1315120'
_chemical_formula_sum 'C10 H12 N6 O12'
_chemical_formula_moiety
;
C10 H12 N6 O12
;
_journal_coden_Cambridge 3
_journal_volume 50
_journal_year 1996
_journal_page_first 29
_journal_name_full 'Acta Chem.Scand. '
loop_
_publ_author_name
"C.P.Butts"
"L.Eberson"
"M.P.Hartshorn"
"W.T.Robinson"
"D.J.Timmerman-Vaughan"
"D.A.W.Young"
_chemical_name_systematic
;
1,2,3-Trimethyl-r-3,c-4,c-6-trinitro-t-5-trinitromethylcylohex-1-ene
;
_chemical_melting_point 346.15
_cell_volume   1634.549
_exptl_crystal_colour 'colorless'
_exptl_crystal_density_diffrn 1.659
_exptl_special_details
;
Melts with decomposition.

;
_diffrn_ambient_temperature 173
#These two values have been output from a single CSD field.
_refine_ls_R_factor_gt 0.0356
_refine_ls_wR_factor_gt 0.0356
_symmetry_cell_setting monoclinic
_symmetry_space_group_name_H-M 'P 21/n'
_symmetry_Int_Tables_number 14
loop_
_symmetry_equiv_pos_site_id
_symmetry_equiv_pos_as_xyz
1 x,y,z
2 1/2-x,1/2+y,1/2-z
3 -x,-y,-z
4 -1/2+x,-1/2-y,-1/2+z
_cell_length_a 10.187(2)
_cell_length_b 13.904(4)
_cell_length_c 12.348(3)
_cell_angle_alpha 90
_cell_angle_beta 110.84(3)
_cell_angle_gamma 90
_cell_formula_units_Z 4
loop_
_atom_type_symbol
_atom_type_radius_bond
C 0.68
H 0.23
N 0.68
O 0.68
loop_
_atom_site_label
_atom_site_type_symbol
_atom_site_fract_x
_atom_site_fract_y
_atom_site_fract_z
O1 O -0.0126(3) 0.6513(2) 0.4394(2)
O2 O 0.1820(2) 0.6430(2) 0.4112(2)
O3 O 0.2819(3) 0.5671(2) 0.2383(2)
O4 O 0.0858(3) 0.4958(2) 0.1463(2)
O5 O 0.3353(2) 0.8137(2) 0.4177(2)
O6 O 0.1557(3) 0.8802(2) 0.4412(2)
O7 O 0.3864(3) 0.6865(2) 0.0487(2)
O8 O 0.1720(2) 0.6336(2) -0.0106(2)
O9 O 0.1135(3) 0.8199(2) -0.0995(2)
O10 O 0.0083(2) 0.8639(2) 0.0162(2)
O11 O 0.4391(2) 0.8216(2) 0.2178(2)
O12 O 0.3185(2) 0.9242(2) 0.0859(2)
N1 N 0.0553(3) 0.6516(2) 0.3775(2)
N2 N 0.1542(3) 0.5670(2) 0.1894(2)
N3 N 0.2141(3) 0.8415(2) 0.3827(2)
N4 N 0.2653(3) 0.6903(2) 0.0396(2)
N5 N 0.1004(3) 0.8231(2) -0.0052(2)
N6 N 0.3369(3) 0.8472(2) 0.1361(3)
C1 C -0.0270(3) 0.8376(2) 0.2306(3)
C2 C -0.1018(3) 0.7582(2) 0.2268(3)
C3 C -0.0284(3) 0.6604(2) 0.2455(3)
C4 C 0.0715(3) 0.6607(2) 0.1762(3)
C5 C 0.1761(3) 0.7456(2) 0.1998(3)
C6 C 0.1268(3) 0.8330(2) 0.2513(2)
C7 C -0.0897(3) 0.9375(2) 0.2164(3)
C8 C -0.2557(3) 0.7605(3) 0.2060(3)
C9 C -0.1273(3) 0.5753(2) 0.2180(3)
C10 C 0.2146(3) 0.7749(2) 0.0947(3)
H1 H 0.0103(3) 0.6652(2) 0.0926(3)
H2 H 0.2651(3) 0.7229(2) 0.2606(3)
H3 H 0.1492(3) 0.8912(2) 0.2135(2)
H4 H -0.0175(7) 0.9850(3) 0.2190(18)
H5 H -0.1249(19) 0.9503(6) 0.2793(10)
H6 H -0.1674(14) 0.9420(5) 0.1418(8)
H7 H -0.2715(4) 0.7390(14) 0.2760(6)
H8 H -0.3054(4) 0.7176(11) 0.1414(12)
H9 H -0.2909(5) 0.8262(4) 0.1871(17)
H10 H -0.0733(4) 0.5159(3) 0.2438(16)
H11 H -0.1787(15) 0.5722(9) 0.1342(3)
H12 H -0.1942(13) 0.5825(7) 0.2582(13)
#END
