
#######################################################################
#
#                 Cambridge Crystallographic Data Centre
#                                CCDC
#
#######################################################################
#
# If this CIF has been generated from an entry in the Cambridge
# Structural Database, then it will include bibliographic, chemical,
# crystal, experimental, refinement or atomic coordinate data resulting
# from the CCDC's data processing and validation procedures.
#
#######################################################################

data_CSD_CIF_ZORHOD
_audit_creation_date 1996-11-18
_audit_creation_method CSD-ConQuest-V1
_database_code_CSD ZORHOD
_database_code_depnum_ccdc_archive 'CCDC 1315119'
_chemical_formula_sum 'C10 H12 N4 O8'
_chemical_formula_moiety
;
C10 H12 N4 O8
;
_journal_coden_Cambridge 3
_journal_volume 50
_journal_year 1996
_journal_page_first 29
_journal_name_full 'Acta Chem.Scand. '
loop_
_publ_author_name
"C.P.Butts"
"L.Eberson"
"M.P.Hartshorn"
"W.T.Robinson"
"D.J.Timmerman-Vaughan"
"D.A.W.Young"
_chemical_name_systematic
;
1,2,3-Trimethyl-5,5,9-trinitrotetracyclo(4.2.1.1.0)-6,7,10-azadioxadec-2-ene
;
_chemical_melting_point 436.15
_cell_volume   1314.747
_exptl_crystal_colour 'colorless'
_exptl_crystal_density_diffrn 1.598
_exptl_special_details
;
Melts with decomposition.

;
_diffrn_ambient_temperature 130
#These two values have been output from a single CSD field.
_refine_ls_R_factor_gt 0.0453
_refine_ls_wR_factor_gt 0.0453
_symmetry_cell_setting monoclinic
_symmetry_space_group_name_H-M 'P 21/c'
_symmetry_Int_Tables_number 14
loop_
_symmetry_equiv_pos_site_id
_symmetry_equiv_pos_as_xyz
1 x,y,z
2 -x,1/2+y,1/2-z
3 -x,-y,-z
4 x,-1/2-y,-1/2+z
_cell_length_a 10.440(2)
_cell_length_b 6.812(4)
_cell_length_c 18.844(4)
_cell_angle_alpha 90
_cell_angle_beta 101.17(1)
_cell_angle_gamma 90
_cell_formula_units_Z 4
loop_
_atom_type_symbol
_atom_type_radius_bond
C 0.68
H 0.23
N 0.68
O 0.68
loop_
_atom_site_label
_atom_site_type_symbol
_atom_site_fract_x
_atom_site_fract_y
_atom_site_fract_z
O1 O 0.7001(2) 0.5670(3) 0.2565(1)
O2 O 0.5547(2) 0.3401(4) 0.2579(1)
O3 O 0.8471(2) 0.2574(4) 0.3664(1)
O4 O 0.7680(2) -0.0246(4) 0.3258(1)
O5 O 0.8634(2) 0.4229(3) 0.1635(1)
O6 O 0.9656(2) 0.1687(3) 0.2240(1)
O7 O 0.6435(2) -0.2612(3) 0.1063(1)
O8 O 0.8117(2) -0.1938(3) 0.0582(1)
N1 N 0.6627(2) 0.3995(4) 0.2522(1)
N2 N 0.7949(2) 0.1465(4) 0.3187(1)
N3 N 0.8817(2) 0.3301(4) 0.2315(1)
N4 N 0.7472(2) -0.1780(4) 0.1059(1)
C1 C 0.8022(3) -0.0509(4) 0.1699(1)
C2 C 0.6926(3) 0.0839(4) 0.1866(1)
C3 C 0.6285(3) 0.1781(4) 0.1143(2)
C4 C 0.7082(3) 0.2520(4) 0.0734(1)
C5 C 0.8532(3) 0.2654(4) 0.1076(1)
C6 C 0.9078(3) 0.0845(4) 0.1540(1)
C7 C 0.7577(3) 0.2357(4) 0.2415(1)
C8 C 0.4820(3) 0.1624(5) 0.0947(2)
C9 C 0.6646(3) 0.3352(5) -0.0012(2)
C10 C 0.9434(3) 0.3271(5) 0.0576(2)
H1 H 0.8372(3) -0.1347(4) 0.2129(1)
H2 H 0.62710 0.0057(4) 0.2070(1)
H3 H 0.9739(3) 0.0119(4) 0.1322(1)
H4 H 0.4428(3) 0.2436(23) 0.1277(7)
H5 H 0.4559(3) 0.0253(6) 0.0986(10)
H6 H 0.4521(3) 0.2082(27) 0.0449(4)
H7 H 0.7002(16) 0.2553(17) -0.0361(2)
H8 H 0.6963(16) 0.4703(11) -0.0024(3)
H9 H 0.5691(3) 0.3342(26) -0.0138(4)
H10 H 0.9366(15) 0.2329(17) 0.0178(6)
H11 H 1.0336(4) 0.3304(29) 0.0847(3)
H12 H 0.9184(12) 0.4579(13) 0.0381(8)
#END
