
#######################################################################
#
#                 Cambridge Crystallographic Data Centre
#                                CCDC
#
#######################################################################
#
# If this CIF has been generated from an entry in the Cambridge
# Structural Database, then it will include bibliographic, chemical,
# crystal, experimental, refinement or atomic coordinate data resulting
# from the CCDC's data processing and validation procedures.
#
#######################################################################

data_CSD_CIF_ZORHIX
_audit_creation_date 1996-11-18
_audit_creation_method CSD-ConQuest-V1
_database_code_CSD ZORHIX
_chemical_formula_sum 'C10 H16 N5 O2'
_chemical_formula_moiety
;
C10 H16 N5 O2
;
_journal_coden_Cambridge 1089
_journal_volume 8
_journal_year 1996
_journal_page_first 60
_journal_name_full 'Adv.Mater. '
loop_
_publ_author_name
"A.Lang"
"Yu Pei"
"L.Ouahab"
"O.Kahn"
_chemical_name_systematic
;
2-(5-Methyl-1,2,4-triazol-3-yl)-4,4,5,5-tetramethyl-imidazoline-1-oxyl-3-oxide
;
_cell_volume   1216.269
_exptl_crystal_colour 'dark blue'
_exptl_crystal_density_diffrn 1.301
_diffrn_ambient_temperature ?
_diffrn_special_details
;
The study was carried out at room temperature,in the range 283-303K

;
#These two values have been output from a single CSD field.
_refine_ls_R_factor_gt 0.051
_refine_ls_wR_factor_gt 0.051
_symmetry_cell_setting monoclinic
_symmetry_space_group_name_H-M 'P 21/c'
_symmetry_Int_Tables_number 14
loop_
_symmetry_equiv_pos_site_id
_symmetry_equiv_pos_as_xyz
1 x,y,z
2 -x,1/2+y,1/2-z
3 -x,-y,-z
4 x,-1/2-y,-1/2+z
_cell_length_a 8.190(2)
_cell_length_b 18.077(3)
_cell_length_c 8.829(10)
_cell_angle_alpha 90
_cell_angle_beta 111.49(4)
_cell_angle_gamma 90
_cell_formula_units_Z 4
loop_
_atom_type_symbol
_atom_type_radius_bond
C 0.68
H 0.23
N 0.68
O 0.68
loop_
_atom_site_label
_atom_site_type_symbol
_atom_site_fract_x
_atom_site_fract_y
_atom_site_fract_z
O1 O -0.1554(3) 0.2226(1) 0.8171(3)
O2 O 0.1153(3) 0.3817(1) 0.5780(3)
N1 N 0.2115(3) 0.2231(2) 0.5932(3)
N2 N 0.2708(4) 0.1236(2) 0.7595(3)
N3 N 0.1582(3) 0.1702(2) 0.7919(3)
N4 N -0.1203(3) 0.2814(2) 0.7549(3)
N5 N 0.0078(3) 0.3560(2) 0.6390(3)
C1 C 0.2974(4) 0.1579(2) 0.6381(3)
C2 C 0.4152(5) 0.1272(2) 0.5590(4)
C3 C 0.1265(4) 0.2289(2) 0.6942(3)
C4 C 0.0085(4) 0.2874(2) 0.6968(3)
C5 C -0.2288(4) 0.3493(2) 0.7300(4)
C6 C -0.1266(4) 0.4051(2) 0.6665(4)
C7 C -0.2396(6) 0.3700(3) 0.8930(5)
C8 C -0.4084(6) 0.3290(3) 0.6060(7)
C9 C -0.2329(6) 0.4430(3) 0.5068(5)
C10 C -0.0212(6) 0.4621(2) 0.7920(5)
H1 H 0.428(5) 0.079(2) 0.575(4)
H2 H 0.355(5) 0.127(2) 0.441(5)
H3 H 0.535(6) 0.153(3) 0.606(5)
H4 H -0.308(5) 0.416(3) 0.874(5)
H5 H -0.12200 0.37850 0.97310
H6 H -0.29260 0.33250 0.93340
H7 H -0.486(6) 0.378(2) 0.586(5)
H8 H -0.441(8) 0.286(3) 0.651(7)
H9 H -0.42760 0.31350 0.49880
H10 H -0.293(5) 0.401(2) 0.422(5)
H11 H -0.340(5) 0.475(2) 0.526(4)
H12 H -0.161(6) 0.481(3) 0.477(5)
H13 H -0.100(5) 0.498(2) 0.799(4)
H14 H 0.055(6) 0.487(3) 0.749(6)
H15 H 0.056(7) 0.429(4) 0.904(7)
H16 H 0.126(5) 0.157(3) 0.884(5)
#END
