
#######################################################################
#
#                 Cambridge Crystallographic Data Centre
#                                CCDC
#
#######################################################################
#
# If this CIF has been generated from an entry in the Cambridge
# Structural Database, then it will include bibliographic, chemical,
# crystal, experimental, refinement or atomic coordinate data resulting
# from the CCDC's data processing and validation procedures.
#
#######################################################################

data_CSD_CIF_ZORJEV
_audit_creation_date 1996-11-18
_audit_creation_method CSD-ConQuest-V1
_database_code_CSD ZORJEV
_database_code_depnum_ccdc_archive 'CCDC 1315122'
_chemical_formula_sum 'C10 H12 N4 O8'
_chemical_formula_moiety
;
C10 H12 N4 O8
;
_journal_coden_Cambridge 3
_journal_volume 50
_journal_year 1996
_journal_page_first 29
_journal_name_full 'Acta Chem.Scand. '
loop_
_publ_author_name
"C.P.Butts"
"L.Eberson"
"M.P.Hartshorn"
"W.T.Robinson"
"D.J.Timmerman-Vaughan"
"D.A.W.Young"
_chemical_name_systematic
;
1,7,8-Trimethyl-4,6,9-trinitrobicyclo(3.3.1)-2,3-oxazanona-3,7-diene 3-oxide
;
_chemical_melting_point 404.15
_cell_volume   2576.212
_exptl_crystal_colour 'colorless'
_exptl_crystal_density_diffrn 1.631
_exptl_special_details
;
Melting point range 404.15-405.65K

;
_diffrn_ambient_temperature 130
#These two values have been output from a single CSD field.
_refine_ls_R_factor_gt 0.0465
_refine_ls_wR_factor_gt 0.0465
_symmetry_cell_setting orthorhombic
_symmetry_space_group_name_H-M 'P b c a'
_symmetry_Int_Tables_number 61
loop_
_symmetry_equiv_pos_site_id
_symmetry_equiv_pos_as_xyz
1 x,y,z
2 1/2-x,-y,1/2+z
3 1/2+x,1/2-y,-z
4 -x,1/2+y,1/2-z
5 -x,-y,-z
6 -1/2+x,y,-1/2-z
7 -1/2-x,-1/2+y,z
8 x,-1/2-y,-1/2+z
_cell_length_a 6.480(7)
_cell_length_b 14.840(9)
_cell_length_c 26.79(2)
_cell_angle_alpha 90
_cell_angle_beta 90
_cell_angle_gamma 90
_cell_formula_units_Z 8
loop_
_atom_type_symbol
_atom_type_radius_bond
C 0.68
H 0.23
N 0.68
O 0.68
loop_
_atom_site_label
_atom_site_type_symbol
_atom_site_fract_x
_atom_site_fract_y
_atom_site_fract_z
O1 O 0.0907(5) 0.2191(2) 0.1869(1)
O2 O 0.3552(5) 0.2811(2) 0.2237(1)
O3 O 0.3347(5) 0.4544(2) 0.2415(1)
O4 O 0.1881(5) 0.5262(2) 0.1798(1)
O5 O -0.2463(5) 0.4089(2) 0.0403(1)
O6 O -0.0809(6) 0.5284(2) 0.0638(1)
O7 O -0.4483(5) 0.2572(2) 0.1023(1)
O8 O -0.4778(4) 0.3929(2) 0.1330(1)
N1 N 0.1998(6) 0.2987(3) 0.1991(1)
N2 N 0.2254(6) 0.4571(3) 0.2042(2)
N3 N -0.1103(6) 0.4471(3) 0.0641(1)
N4 N -0.3874(6) 0.3194(3) 0.1286(1)
C1 C -0.1939(7) 0.3092(3) 0.1593(2)
C2 C -0.0515(7) 0.3877(3) 0.1506(2)
C3 C 0.0341(7) 0.3894(3) 0.0964(2)
C4 C 0.0715(7) 0.2991(3) 0.0732(2)
C5 C 0.0281(7) 0.2233(3) 0.0977(2)
C6 C -0.0774(7) 0.2222(3) 0.1482(2)
C7 C 0.1234(7) 0.3765(3) 0.1854(2)
C8 C 0.1794(6) 0.3052(3) 0.0237(2)
C9 C 0.0904(8) 0.1308(3) 0.0779(2)
C10 C -0.1949(8) 0.1376(3) 0.1626(2)
H1 H -0.2338(7) 0.3089(3) 0.1954(2)
H2 H -0.1252(7) 0.4454(3) 0.1580(2)
H3 H 0.1701(7) 0.4212(3) 0.0976(2)
H4 H 0.3174(17) 0.3309(16) 0.0284(2)
H5 H 0.0997(22) 0.3440(14) 0.0012(3)
H6 H 0.1915(34) 0.2449(4) 0.0091(5)
H7 H -0.0324(9) 0.0988(7) 0.0660(9)
H8 H 0.1555(37) 0.0960(7) 0.1047(3)
H9 H 0.1883(32) 0.1381(3) 0.0503(7)
#END
