
#######################################################################
#
#                 Cambridge Crystallographic Data Centre
#                                CCDC
#
#######################################################################
#
# If this CIF has been generated from an entry in the Cambridge
# Structural Database, then it will include bibliographic, chemical,
# crystal, experimental, refinement or atomic coordinate data resulting
# from the CCDC's data processing and validation procedures.
#
#######################################################################

data_CSD_CIF_ZORJIZ
_audit_creation_date 1996-11-18
_audit_creation_method CSD-ConQuest-V1
_database_code_CSD ZORJIZ
_database_code_depnum_ccdc_archive 'CCDC 1315123'
_chemical_formula_sum 'C10 H13 N3 O7'
_chemical_formula_moiety
;
C10 H13 N3 O7
;
_journal_coden_Cambridge 3
_journal_volume 50
_journal_year 1996
_journal_page_first 29
_journal_name_full 'Acta Chem.Scand. '
loop_
_publ_author_name
"C.P.Butts"
"L.Eberson"
"M.P.Hartshorn"
"W.T.Robinson"
"D.J.Timmerman-Vaughan"
"D.A.W.Young"
_chemical_name_systematic
;
9-Hydroxy-1,7,8-trimethyl-4,6-dinitrobicyclo(3.3.1)-2,3-oxazanona-3,7-diene 
3-oxide
;
_chemical_melting_point 402.15
_cell_volume   1207.386
_exptl_crystal_colour 'colorless'
_exptl_crystal_density_diffrn 1.58
_diffrn_ambient_temperature 130
#These two values have been output from a single CSD field.
_refine_ls_R_factor_gt 0.0367
_refine_ls_wR_factor_gt 0.0367
_symmetry_cell_setting monoclinic
_symmetry_space_group_name_H-M 'P 21/c'
_symmetry_Int_Tables_number 14
loop_
_symmetry_equiv_pos_site_id
_symmetry_equiv_pos_as_xyz
1 x,y,z
2 -x,1/2+y,1/2-z
3 -x,-y,-z
4 x,-1/2-y,-1/2+z
_cell_length_a 10.004(2)
_cell_length_b 8.287(3)
_cell_length_c 14.671(3)
_cell_angle_alpha 90
_cell_angle_beta 96.93(1)
_cell_angle_gamma 90
_cell_formula_units_Z 4
loop_
_atom_type_symbol
_atom_type_radius_bond
C 0.68
H 0.23
N 0.68
O 0.68
loop_
_atom_site_label
_atom_site_type_symbol
_atom_site_fract_x
_atom_site_fract_y
_atom_site_fract_z
O1 O 0.7433(1) 0.6909(1) 0.6835(1)
O2 O 0.8456(1) 1.0482(1) 0.8190(1)
O3 O 1.0236(1) 1.1051(1) 0.9159(1)
O4 O 1.2072(1) 0.8818(2) 0.9498(1)
O5 O 1.1163(1) 0.6437(2) 0.9514(1)
O6 O 0.8611(1) 0.3959(1) 0.7786(1)
O7 O 0.6625(1) 0.4137(2) 0.8212(1)
N1 N 0.9612(2) 0.9924(2) 0.8740(1)
N2 N 1.1138(2) 0.7883(2) 0.9301(1)
N3 N 0.7760(2) 0.4640(2) 0.8181(1)
C1 C 0.8312(2) 0.7997(2) 0.7353(1)
C2 C 0.9146(2) 0.7140(2) 0.8156(1)
C3 C 0.8183(2) 0.6204(2) 0.8704(1)
C4 C 0.6999(2) 0.7164(2) 0.8927(1)
C5 C 0.6707(2) 0.8606(2) 0.8532(1)
C6 C 0.7472(2) 0.9253(2) 0.7777(1)
C7 C 0.9908(2) 0.8387(2) 0.8744(1)
C8 C 0.6248(2) 0.6491(2) 0.9678(1)
C9 C 0.5626(2) 0.9690(2) 0.8816(1)
C10 C 0.6619(2) 1.0227(2) 0.7050(1)
H1 H 0.7842(6) 0.6460(17) 0.6436(9)
H2 H 0.8918(2) 0.8529(2) 0.6950(1)
H3 H 0.9791(2) 0.6374(2) 0.7915(1)
H4 H 0.8708(2) 0.5884(2) 0.9300(1)
H5 H 0.6501(9) 0.5359(5) 0.9790(6)
H6 H 0.5276(2) 0.6563(13) 0.9489(4)
H7 H 0.6480(9) 0.7115(9) 1.0243(2)
H8 H 0.4847(5) 0.9675(12) 0.8343(4)
H9 H 0.5973(4) 1.0794(4) 0.8893(8)
H10 H 0.5355(9) 0.9307(9) 0.9399(5)
H11 H 0.5835(6) 0.9589(6) 0.6799(6)
H12 H 0.7156(4) 1.0503(12) 0.6555(4)
H13 H 0.6315(10) 1.1219(7) 0.7324(2)
#END
