
#######################################################################
#
#                 Cambridge Crystallographic Data Centre
#                                CCDC
#
#######################################################################
#
# If this CIF has been generated from an entry in the Cambridge
# Structural Database, then it will include bibliographic, chemical,
# crystal, experimental, refinement or atomic coordinate data resulting
# from the CCDC's data processing and validation procedures.
#
#######################################################################

data_CSD_CIF_ZORJUL
_audit_creation_date 1996-11-18
_audit_creation_method CSD-ConQuest-V1
_database_code_CSD ZORJUL
_database_code_depnum_ccdc_archive 'CCDC 1315125'
_chemical_formula_sum 'C9 H11 N3 O8'
_chemical_formula_moiety
;
C9 H11 N3 O8
;
_journal_coden_Cambridge 3
_journal_volume 50
_journal_year 1996
_journal_page_first 29
_journal_name_full 'Acta Chem.Scand. '
loop_
_publ_author_name
"C.P.Butts"
"L.Eberson"
"M.P.Hartshorn"
"W.T.Robinson"
"D.J.Timmerman-Vaughan"
"D.A.W.Young"
_chemical_name_systematic
;
t-6-Hydroxy-4,5,6-trimethyl-2,r-4,t-5-trinitrocyclohex-2-enone
;
_chemical_melting_point 394.15
_cell_volume   1151.004
_exptl_crystal_colour 'colorless'
_exptl_crystal_density_diffrn 1.669
_exptl_special_details
;
Melting point range 394.15-396.15K

;
_diffrn_ambient_temperature 173
#These two values have been output from a single CSD field.
_refine_ls_R_factor_gt 0.0301
_refine_ls_wR_factor_gt 0.0301
_symmetry_cell_setting monoclinic
_symmetry_space_group_name_H-M 'P 21/n'
_symmetry_Int_Tables_number 14
loop_
_symmetry_equiv_pos_site_id
_symmetry_equiv_pos_as_xyz
1 x,y,z
2 1/2-x,1/2+y,1/2-z
3 -x,-y,-z
4 -1/2+x,-1/2-y,-1/2+z
_cell_length_a 6.943(4)
_cell_length_b 20.410(3)
_cell_length_c 8.281(1)
_cell_angle_alpha 90
_cell_angle_beta 101.23(3)
_cell_angle_gamma 90
_cell_formula_units_Z 4
loop_
_atom_type_symbol
_atom_type_radius_bond
C 0.68
H 0.23
N 0.68
O 0.68
loop_
_atom_site_label
_atom_site_type_symbol
_atom_site_fract_x
_atom_site_fract_y
_atom_site_fract_z
O1 O 0.4824(2) 0.0108(1) 0.1672(2)
O2 O 0.6662(2) -0.1052(1) 0.1573(2)
O3 O 0.1033(2) 0.0559(1) 0.1030(2)
O4 O -0.0457(2) 0.0314(1) 0.3017(2)
O5 O 0.0230(2) -0.1946(1) 0.1995(2)
O6 O 0.1515(2) -0.2528(1) 0.4105(2)
O7 O 0.6157(2) -0.0637(1) 0.4880(2)
O8 O 0.7650(2) -0.1569(1) 0.5223(2)
N1 N 0.0798(2) 0.0216(1) 0.2196(2)
N2 N 0.1368(2) -0.2026(1) 0.3302(2)
N3 N 0.6303(2) -0.1220(1) 0.4572(2)
C1 C 0.3966(3) -0.0373(1) 0.1995(2)
C2 C 0.2082(3) -0.0359(1) 0.2588(2)
C3 C 0.1505(3) -0.0842(1) 0.3438(2)
C4 C 0.2711(3) -0.1441(1) 0.3974(2)
C5 C 0.4640(3) -0.1511(1) 0.3245(2)
C6 C 0.4678(2) -0.1065(1) 0.1725(2)
C7 C 0.3066(3) -0.1492(1) 0.5847(2)
C8 C 0.5193(3) -0.2214(1) 0.2945(2)
C9 C 0.3371(3) -0.1324(1) 0.0146(2)
H1 H 0.6779(5) -0.0822(8) 0.0756(14)
H2 H 0.0250(3) -0.0809(1) 0.3727(2)
H3 H 0.3896(13) -0.1873(3) 0.6209(2)
H4 H 0.1807(3) -0.1541(5) 0.6200(2)
H5 H 0.3725(14) -0.1094(2) 0.6335(2)
H6 H 0.4178(8) -0.2409(2) 0.2093(10)
H7 H 0.5304(15) -0.2465(2) 0.3967(4)
H8 H 0.6455(8) -0.2220(1) 0.2582(13)
H9 H 0.2024(4) -0.1375(5) 0.0322(5)
H10 H 0.3869(9) -0.1749(3) -0.0140(7)
H11 H 0.3385(13) -0.1013(3) -0.0754(4)
#END
