
#######################################################################
#
#                 Cambridge Crystallographic Data Centre
#                                CCDC
#
#######################################################################
#
# If this CIF has been generated from an entry in the Cambridge
# Structural Database, then it will include bibliographic, chemical,
# crystal, experimental, refinement or atomic coordinate data resulting
# from the CCDC's data processing and validation procedures.
#
#######################################################################

data_CSD_CIF_ZORYIO
_audit_creation_date 1996-11-18
_audit_creation_method CSD-ConQuest-V1
_database_code_CSD ZORYIO
_chemical_formula_sum 'C18 H16 N2 O7'
_chemical_formula_moiety
;
C18 H16 N2 O7
;
_journal_coden_Cambridge 1090
_journal_volume 6
_journal_year 1995
_journal_page_first 2709
_journal_name_full 'Tetrahedron:Asymm. '
loop_
_publ_author_name
"A.P.Marchand"
"Dongxia Xing"
"Yanjun Wang"
"S.G.Bott"
_chemical_name_systematic
;
(1R,4S,4aS,8S,8aR)-8-(3',5'-Dinitrobenzoyloxy)-1\a,4\a,4a\a,5,6,7,8\b,8a\a-oct
ahydro-1,4-methanonaphthalen-5-one
;
_chemical_melting_point 441.15
_cell_volume   1646.994
_exptl_crystal_colour 'colorless'
_exptl_crystal_density_diffrn 1.502
_exptl_special_details
;
Melting point range 441.15-442.15K

;
_diffrn_ambient_temperature ?
_diffrn_special_details
;
The study was carried out at room temperature,in the range 283-303K

;
#These two values have been output from a single CSD field.
_refine_ls_R_factor_gt 0.0322
_refine_ls_wR_factor_gt 0.0322
_symmetry_cell_setting orthorhombic
_symmetry_space_group_name_H-M 'P 21 21 21'
_symmetry_Int_Tables_number 19
loop_
_symmetry_equiv_pos_site_id
_symmetry_equiv_pos_as_xyz
1 x,y,z
2 1/2-x,-y,1/2+z
3 1/2+x,1/2-y,-z
4 -x,1/2+y,1/2-z
_cell_length_a 10.617(1)
_cell_length_b 11.1950(8)
_cell_length_c 13.8569(9)
_cell_angle_alpha 90
_cell_angle_beta 90
_cell_angle_gamma 90
_cell_formula_units_Z 4
loop_
_atom_type_symbol
_atom_type_radius_bond
C 0.68
H 0.23
N 0.68
O 0.68
loop_
_atom_site_label
_atom_site_type_symbol
_atom_site_fract_x
_atom_site_fract_y
_atom_site_fract_z
O1 O 0.5376(3) -0.2210(2) 0.8006(2)
O2 O 0.5974(2) 0.0457(2) 0.6066(2)
O3 O 0.6817(2) 0.1172(2) 0.4694(2)
O4 O 0.2033(2) 0.1146(3) 0.2077(2)
O5 O 0.3989(3) 0.1664(3) 0.1954(2)
O6 O 0.1433(2) 0.1071(3) 0.6522(2)
O7 O 0.0229(2) 0.0986(3) 0.5284(2)
N1 N 0.3075(3) 0.1353(3) 0.2416(2)
N2 N 0.1265(3) 0.1025(3) 0.5657(2)
C1 C 0.7796(3) -0.0878(3) 0.6428(2)
C2 C 0.7736(4) -0.1553(3) 0.5452(3)
C3 C 0.8175(4) -0.2790(3) 0.5810(3)
C4 C 0.6390(4) -0.1845(3) 0.5223(3)
C5 C 0.5994(4) -0.2665(3) 0.5848(3)
C6 C 0.7076(4) -0.2944(3) 0.6507(3)
C7 C 0.7271(3) -0.1831(3) 0.7153(2)
C8 C 0.6141(3) -0.1469(3) 0.7736(2)
C9 C 0.6009(4) -0.0180(3) 0.8012(3)
C10 C 0.6990(3) 0.0652(3) 0.7579(3)
C11 C 0.7208(3) 0.0358(3) 0.6529(3)
C12 C 0.5919(3) 0.0897(3) 0.5176(2)
C13 C 0.4598(3) 0.0985(3) 0.4822(2)
C14 C 0.4429(3) 0.1140(3) 0.3834(2)
C15 C 0.3239(3) 0.1219(3) 0.3472(2)
C16 C 0.2189(3) 0.1180(3) 0.4040(2)
C17 C 0.2382(3) 0.1045(3) 0.5020(2)
C18 C 0.3562(3) 0.0941(3) 0.5420(2)
H1 H 0.86350 -0.06190 0.65400
H2 H 0.81510 -0.11480 0.49400
H3 H 0.89690 -0.27690 0.61240
H4 H 0.81900 -0.33760 0.53140
H5 H 0.59030 -0.15020 0.47170
H6 H 0.51760 -0.30090 0.58720
H7 H 0.69850 -0.36710 0.68520
H8 H 0.78420 -0.19670 0.76690
H9 H 0.60650 -0.01260 0.86940
H10 H 0.52010 0.00850 0.78080
H11 H 0.77590 0.05640 0.79220
H12 H 0.67030 0.14520 0.76310
H13 H 0.77880 0.08850 0.62270
H14 H 0.51360 0.11900 0.34160
H15 H 0.13660 0.12430 0.37740
H16 H 0.36610 0.08400 0.60960
#END
