
#######################################################################
#
#                 Cambridge Crystallographic Data Centre
#                                CCDC
#
#######################################################################
#
# If this CIF has been generated from an entry in the Cambridge
# Structural Database, then it will include bibliographic, chemical,
# crystal, experimental, refinement or atomic coordinate data resulting
# from the CCDC's data processing and validation procedures.
#
#######################################################################

data_CSD_CIF_ZOWDIY
_audit_creation_date 1996-09-23
_audit_creation_method CSD-ConQuest-V1
_database_code_CSD ZOWDIY
_chemical_formula_sum 'C8 H8 N6 O2'
_chemical_formula_moiety
;
C8 H8 N6 O2
;
_journal_coden_Cambridge 151
_journal_volume 39
_journal_year 1996
_journal_page_first 842
_journal_name_full 'J.Med.Chem. '
loop_
_publ_author_name
"J.L.Castro"
"R.G.Ball"
"H.B.Broughton"
"M.G.N.Russell"
"D.Rathbone"
"A.P.Watt"
"R.Baker"
"K.L.Chapman"
"A.E.Fletcher"
"S.Patel"
"A.J.Smith"
"G.R.Marshall"
"W.Ryecroft"
"V.G.Matassa"
_chemical_name_systematic
;
3-(N-Methyl-N-tetrazol-5-ylamino)nitrobenzene
;
_chemical_melting_point 469.15
_cell_volume   3914.987
_exptl_crystal_colour 'pale yellow'
_exptl_special_details
;
Melting point range 469.15-471.15K

;
_diffrn_ambient_temperature ?
_diffrn_special_details
;
The study was carried out at room temperature,in the range 283-303K

;
#These two values have been output from a single CSD field.
_refine_ls_R_factor_gt 0.043
_refine_ls_wR_factor_gt 0.043
_symmetry_cell_setting orthorhombic
_symmetry_space_group_name_H-M 'F d d 2'
_symmetry_Int_Tables_number 43
loop_
_symmetry_equiv_pos_site_id
_symmetry_equiv_pos_as_xyz
1 x,y,z
2 -x,-y,z
3 1/4-x,1/4+y,1/4+z
4 3/4+x,3/4-y,1/4+z
5 x,1/2+y,1/2+z
6 -x,1/2-y,1/2+z
7 1/4-x,3/4+y,3/4+z
8 3/4+x,1/4-y,3/4+z
9 1/2+x,y,1/2+z
10 1/2-x,-y,1/2+z
11 3/4-x,1/4+y,3/4+z
12 1/4+x,3/4-y,3/4+z
13 1/2+x,1/2+y,z
14 1/2-x,1/2-y,z
15 3/4-x,3/4+y,1/4+z
16 1/4+x,1/4-y,1/4+z
_cell_length_a 18.333(1)
_cell_length_b 30.222(2)
_cell_length_c 7.066(1)
_cell_angle_alpha 90
_cell_angle_beta 90
_cell_angle_gamma 90
_cell_formula_units_Z 16
loop_
_atom_type_symbol
_atom_type_radius_bond
C 0.68
H 0.23
N 0.68
O 0.68
loop_
_atom_site_label
_atom_site_type_symbol
_atom_site_fract_x
_atom_site_fract_y
_atom_site_fract_z
O1 O 0.4932(2) 0.0686(1) 0.50850
O2 O 0.4216(2) 0.1244(1) 0.4928(7)
N1 N 0.0975(2) 0.1288(1) 0.6990(5)
N2 N 0.1067(2) 0.1688(1) 0.7831(7)
N3 N 0.1741(2) 0.1715(1) 0.8302(6)
N4 N 0.2109(2) 0.1336(1) 0.7810(6)
N5 N 0.1716(2) 0.0666(1) 0.6261(6)
N6 N 0.4322(2) 0.0849(1) 0.5118(6)
C1 C 0.1616(2) 0.1077(1) 0.6988(6)
C2 C 0.2424(2) 0.0484(1) 0.6054(6)
C3 C 0.3017(2) 0.0748(1) 0.5556(6)
C4 C 0.3695(2) 0.0556(1) 0.5433(6)
C5 C 0.3810(2) 0.0112(1) 0.5658(8)
C6 C 0.3216(3) -0.0151(1) 0.6043(8)
C7 C 0.2532(3) 0.0032(1) 0.6282(7)
C8 C 0.1072(2) 0.0419(2) 0.5705(8)
H1 H 0.048(3) 0.122(2) 0.66(1)
H2 H 0.2954(2) 0.1048(1) 0.5311(6)
H3 H 0.4276(2) -0.008(1) 0.5554(8)
H4 H 0.3276(3) -0.0456(1) 0.6144(8)
H5 H 0.2140(3) -0.0149(1) 0.6598(7)
H6 H 0.1213(3) 0.0131(5) 0.527(5)
H7 H 0.083(1) 0.0573(7) 0.470(4)
H8 H 0.075(1) 0.039(1) 0.677(2)
#END
