
#######################################################################
#
#                 Cambridge Crystallographic Data Centre
#                                CCDC
#
#######################################################################
#
# If this CIF has been generated from an entry in the Cambridge
# Structural Database, then it will include bibliographic, chemical,
# crystal, experimental, refinement or atomic coordinate data resulting
# from the CCDC's data processing and validation procedures.
#
#######################################################################

data_CSD_CIF_ZOWSUZ01
_audit_creation_date 1996-11-25
_audit_creation_method CSD-ConQuest-V1
_database_code_CSD ZOWSUZ01
_chemical_formula_sum 'C12 H12 N2 O3'
_chemical_formula_moiety
;
C12 H12 N2 O3
;
_journal_coden_Cambridge 1145
_journal_volume 6
_journal_year 1996
_journal_page_first 123
_journal_name_full 'J.Mater.Chem. '
loop_
_publ_author_name
"Kin-Shan Huang"
"D.Britton"
"M.C.Etter"
"S.R.Byrn"
_chemical_name_systematic
;
3-(4-Nitroanilino)cyclohex-2-en-1-one
;
_chemical_melting_point 460.15
_cell_volume   1137.094
_exptl_crystal_colour 'orange'
_exptl_crystal_density_diffrn 1.356
_exptl_special_details
;
Melting point range 460.15-462.15K
alpha polymorph

;
_diffrn_ambient_temperature ?
_diffrn_special_details
;
The study was carried out at room temperature,in the range 283-303K

;
#These two values have been output from a single CSD field.
_refine_ls_R_factor_gt 0.046
_refine_ls_wR_factor_gt 0.046
_symmetry_cell_setting monoclinic
_symmetry_space_group_name_H-M 'P 21/c'
_symmetry_Int_Tables_number 14
loop_
_symmetry_equiv_pos_site_id
_symmetry_equiv_pos_as_xyz
1 x,y,z
2 -x,1/2+y,1/2-z
3 -x,-y,-z
4 x,-1/2-y,-1/2+z
_cell_length_a 6.863(7)
_cell_length_b 12.767(3)
_cell_length_c 13.410(4)
_cell_angle_alpha 90
_cell_angle_beta 104.59(5)
_cell_angle_gamma 90
_cell_formula_units_Z 4
loop_
_atom_type_symbol
_atom_type_radius_bond
C 0.68
H 0.23
N 0.68
O 0.68
loop_
_atom_site_label
_atom_site_type_symbol
_atom_site_fract_x
_atom_site_fract_y
_atom_site_fract_z
C1 C 0.2334(3) 0.0800(2) 0.4532(2)
C2 C 0.2640(4) 0.0118(2) 0.5375(2)
C3 C 0.3447(4) 0.0481(2) 0.6351(2)
C4 C 0.3948(4) 0.1512(2) 0.6502(2)
C5 C 0.3719(4) 0.2191(2) 0.5688(2)
C6 C 0.2926(4) 0.1834(2) 0.4700(2)
C7 C 0.0521(4) 0.0810(2) 0.2652(2)
C8 C -0.0069(4) 0.1814(2) 0.2512(2)
C9 C -0.0974(4) 0.2231(2) 0.1508(2)
C10 C -0.1346(4) 0.1514(2) 0.0598(2)
C11 C -0.1646(4) 0.0408(2) 0.0901(2)
C12 C 0.0090(5) 0.0048(2) 0.1767(2)
N1 N 0.1525(3) 0.0355(2) 0.3561(2)
N2 N 0.4791(4) 0.1918(3) 0.7542(2)
O1 O 0.5191(4) 0.2845(2) 0.7659(2)
O2 O 0.5026(4) 0.1301(2) 0.8266(2)
O3 O -0.1433(3) 0.3163(2) 0.1382(2)
H1 H 0.159(4) -0.042(2) 0.353(2)
H2 H 0.22840 -0.06000 0.52680
H3 H 0.36590 0.00500 0.69210
H4 H 0.41040 0.29040 0.58050
H5 H 0.27870 0.22990 0.41320
H6 H 0.014(5) 0.228(2) 0.306(3)
H7 H -0.25180 0.17390 0.01020
H8 H -0.02220 0.15390 0.03060
H9 H -0.28560 0.03670 0.11200
H10 H -0.17450 -0.00360 0.03210
H11 H -0.02330 -0.06140 0.20070
H12 H 0.12580 -0.00180 0.15130
#END
