
#######################################################################
#
#                 Cambridge Crystallographic Data Centre
#                                CCDC
#
#######################################################################
#
# If this CIF has been generated from an entry in the Cambridge
# Structural Database, then it will include bibliographic, chemical,
# crystal, experimental, refinement or atomic coordinate data resulting
# from the CCDC's data processing and validation procedures.
#
#######################################################################

data_CSD_CIF_ZOWSUZ
_audit_creation_date 1996-11-25
_audit_creation_method CSD-ConQuest-V1
_database_code_CSD ZOWSUZ
_chemical_formula_sum 'C12 H12 N2 O3'
_chemical_formula_moiety
;
C12 H12 N2 O3
;
_journal_coden_Cambridge 1145
_journal_volume 6
_journal_year 1996
_journal_page_first 123
_journal_name_full 'J.Mater.Chem. '
loop_
_publ_author_name
"Kin-Shan Huang"
"D.Britton"
"M.C.Etter"
"S.R.Byrn"
_chemical_name_systematic
;
3-(4-Nitroanilino)cyclohex-2-en-1-one
;
_chemical_melting_point 460.15
_cell_volume   1142.650
_exptl_crystal_colour 'yellow'
_exptl_crystal_density_diffrn 1.35
_exptl_special_details
;
Melting point range 460.15-462.15K
beta polymorph

;
_diffrn_ambient_temperature ?
_diffrn_special_details
;
The study was carried out at room temperature,in the range 283-303K

;
#These two values have been output from a single CSD field.
_refine_ls_R_factor_gt 0.076
_refine_ls_wR_factor_gt 0.076
_symmetry_cell_setting orthorhombic
_symmetry_space_group_name_H-M 'P 21 21 21'
_symmetry_Int_Tables_number 19
loop_
_symmetry_equiv_pos_site_id
_symmetry_equiv_pos_as_xyz
1 x,y,z
2 1/2-x,-y,1/2+z
3 1/2+x,1/2-y,-z
4 -x,1/2+y,1/2-z
_cell_length_a 7.228(3)
_cell_length_b 12.064(3)
_cell_length_c 13.104(3)
_cell_angle_alpha 90
_cell_angle_beta 90
_cell_angle_gamma 90
_cell_formula_units_Z 4
loop_
_atom_type_symbol
_atom_type_radius_bond
C 0.68
H 0.23
N 0.68
O 0.68
loop_
_atom_site_label
_atom_site_type_symbol
_atom_site_fract_x
_atom_site_fract_y
_atom_site_fract_z
C1 C 0.9079(9) 0.1992(5) 0.4488(5)
C2 C 0.926(1) 0.2691(5) 0.5297(4)
C3 C 0.926(1) 0.2263(6) 0.6277(5)
C4 C 0.907(1) 0.1141(6) 0.6416(5)
C5 C 0.889(1) 0.0439(5) 0.5602(5)
C6 C 0.884(1) 0.0864(6) 0.4653(4)
C7 C 0.9673(9) 0.2030(5) 0.2619(5)
C8 C 1.067(1) 0.1083(5) 0.2512(5)
C9 C 1.114(1) 0.0624(5) 0.1518(5)
C10 C 1.067(1) 0.1265(6) 0.0612(5)
C11 C 1.037(1) 0.2457(6) 0.0799(5)
C12 C 0.915(1) 0.2689(6) 0.1642(5)
N1 N 0.907(1) 0.2466(5) 0.3476(4)
N2 N 0.918(1) 0.0675(7) 0.7440(5)
O1 O 0.907(1) -0.0332(6) 0.7552(4)
O2 O 0.939(1) 0.1318(7) 0.8136(4)
O3 O 1.1919(7) -0.0280(4) 0.1458(4)
H1 H 0.870(7) 0.314(4) 0.341(4)
H2 H 0.93930 0.34660 0.51880
H3 H 0.94130 0.27330 0.68510
H4 H 0.88070 -0.03360 0.57200
H5 H 0.86380 0.03890 0.40880
H6 H 1.10730 0.06980 0.31080
H7 H 0.95790 0.09680 0.03300
H8 H 1.16650 0.11880 0.01380
H9 H 1.15550 0.27860 0.09320
H10 H 0.98730 0.27710 0.01970
H11 H 0.92230 0.34580 0.18070
H12 H 0.79250 0.25060 0.14600
#END
