
#######################################################################
#
#                 Cambridge Crystallographic Data Centre
#                                CCDC
#
#######################################################################
#
# If this CIF has been generated from an entry in the Cambridge
# Structural Database, then it will include bibliographic, chemical,
# crystal, experimental, refinement or atomic coordinate data resulting
# from the CCDC's data processing and validation procedures.
#
#######################################################################

data_CSD_CIF_ZOXYIU
_audit_creation_date 1996-10-16
_audit_creation_method CSD-ConQuest-V1
_database_code_CSD ZOXYIU
_chemical_formula_sum 'C10 H12 N2 O4'
_chemical_formula_moiety
;
C10 H12 N2 O4
;
_journal_coden_Cambridge 692
_journal_year 1996
_journal_page_first 64
_journal_name_full 'Synthesis '
loop_
_publ_author_name
"M.-P.D.Alcantara"
"F.C.Escribano"
"A.Gomez-Sanchez"
"M.J.Dianez"
"M.D.Estrada"
"A.Lopez-Castro"
"S.Perez-Garrido"
_chemical_name_systematic
;
1,3-Dinitro-2-phenylbutane
;
_chemical_melting_point 362.15
_cell_volume   1095.254
_exptl_crystal_density_diffrn 1.36
_exptl_special_details
;
Melting point range 362.15-363.15K

;
_diffrn_ambient_temperature ?
_diffrn_special_details
;
The study was carried out at room temperature,in the range 283-303K

;
#These two values have been output from a single CSD field.
_refine_ls_R_factor_gt 0.048
_refine_ls_wR_factor_gt 0.048
_symmetry_cell_setting monoclinic
_symmetry_space_group_name_H-M 'P 21'
_symmetry_Int_Tables_number 4
loop_
_symmetry_equiv_pos_site_id
_symmetry_equiv_pos_as_xyz
1 x,y,z
2 -x,1/2+y,-z
_cell_length_a 8.031(4)
_cell_length_b 19.073(5)
_cell_length_c 7.437(3)
_cell_angle_alpha 90
_cell_angle_beta 105.96(2)
_cell_angle_gamma 90
_cell_formula_units_Z 4
loop_
_atom_type_symbol
_atom_type_radius_bond
C 0.68
H 0.23
N 0.68
O 0.68
loop_
_atom_site_label
_atom_site_type_symbol
_atom_site_fract_x
_atom_site_fract_y
_atom_site_fract_z
O1 O 0.7168(14) 0.4778(7) -0.6985(15)
O2 O 0.7909(14) 0.3773(9) -0.7883(17)
O3 O 0.4317(12) 0.4142(8) -0.1506(11)
O4 O 0.4489(12) 0.3039(7) -0.1295(11)
N1 N 0.6960(12) 0.4158(4) -0.7222(11)
N2 N 0.4307(11) 0.3583(8) -0.2208(12)
C1 C 0.5514(14) 0.3809(8) -0.6776(14)
C2 C 0.5590(12) 0.3915(8) -0.4719(13)
C3 C 0.4085(14) 0.3540(8) -0.4277(12)
C4 C 0.2265(13) 0.3841(9) -0.5255(14)
C5 C 0.7343(13) 0.3698(8) -0.3441(14)
C6 C 0.8334(13) 0.4208(8) -0.2302(14)
C7 C 0.9913(17) 0.4014(10) -0.1080(17)
C8 C 1.0492(14) 0.3333(11) -0.0994(15)
C9 C 0.9517(18) 0.2830(9) -0.2131(15)
C10 C 0.7952(16) 0.3015(8) -0.3370(15)
O5 O 0.7092(11) 0.0198(7) -1.2003(13)
O6 O 0.8019(13) 0.1147(9) -1.2744(15)
O7 O 0.4403(13) 0.1968(7) -0.6460(14)
O8 O 0.4364(12) 0.0830(8) -0.6435(11)
N3 N 0.7013(12) 0.08310 -1.2242(12)
N4 N 0.4317(11) 0.1410(8) -0.7251(13)
C11 C 0.5497(13) 0.1197(8) -1.1763(14)
C12 C 0.5599(11) 0.1042(8) -0.9742(13)
C13 C 0.4071(13) 0.1423(8) -0.9295(13)
C14 C 0.2328(13) 0.1132(9) -1.0264(14)
C15 C 0.7336(11) 0.1262(8) -0.8426(12)
C16 C 0.8359(15) 0.0774(9) -0.7290(14)
C17 C 0.9955(15) 0.0942(11) -0.6077(15)
C18 C 1.0504(15) 0.1633(12) -0.6002(17)
C19 C 0.9491(18) 0.2119(8) -0.7148(19)
C20 C 0.7923(15) 0.1955(8) -0.8332(16)
H1 H 0.54900 0.32700 -0.71000
H2 H 0.43100 0.39900 -0.76500
H3 H 0.54300 0.44700 -0.44400
H4 H 0.40500 0.30300 -0.48400
H5 H 0.21700 0.43900 -0.48000
H6 H 0.12700 0.35400 -0.48400
H7 H 0.20400 0.38300 -0.67200
H8 H 0.79000 0.47400 -0.23400
H9 H 1.08300 0.43700 -0.02100
H10 H 1.17100 0.30400 -0.00200
H11 H 0.98400 0.22600 -0.20700
H12 H 0.71600 0.26400 -0.43000
H13 H 0.42200 0.10400 -1.27800
H14 H 0.53900 0.17600 -1.21400
H15 H 0.55200 0.04700 -0.95200
H16 H 0.41300 0.19700 -0.98200
H17 H 0.13000 0.14400 -0.99500
H18 H 0.22400 0.06000 -0.98700
H19 H 0.21600 0.11600 -1.17900
H20 H 0.78800 0.02200 -0.73700
H21 H 1.07000 0.05200 -0.51500
H22 H 1.17100 0.18000 -0.50200
H23 H 1.00400 0.26500 -0.72300
H24 H 0.71400 0.23800 -0.92000
#END
