
#######################################################################
#
#                 Cambridge Crystallographic Data Centre
#                                CCDC
#
#######################################################################
#
# If this CIF has been generated from an entry in the Cambridge
# Structural Database, then it will include bibliographic, chemical,
# crystal, experimental, refinement or atomic coordinate data resulting
# from the CCDC's data processing and validation procedures.
#
#######################################################################

data_CSD_CIF_ZOZZOD
_audit_creation_date 1996-06-14
_audit_creation_method CSD-ConQuest-V1
_database_code_CSD ZOZZOD
_database_code_depnum_ccdc_archive 'CCDC 126469'
_chemical_formula_sum 'C28 H34 N4 O2'
_chemical_formula_moiety
;
C28 H34 N4 O2
;
_journal_coeditor_code "IUCr PA1199"
_journal_coden_Cambridge 591
_journal_volume 52
_journal_year 1996
_journal_page_first 736
_journal_name_full 'Acta Crystallogr.,Sect.C:Cryst.Struct.Commun. '
loop_
_publ_author_name
"M.Pierrot"
"M.Giorgi"
"M.El Messaoudi"
"A.Hasnaoui"
"M.El Aatmani"
"J.P.Lavergne"
_chemical_name_systematic
;
3,12-Dimesityl-6,8,13-trimethyl-5,10-dioxa-1,2,4,11-tetra-azatricyclo(7.3.1.0^
2,6^)trideca-3,7,11-triene
;
_cell_volume   1270.160
_exptl_crystal_colour 'colorless'
_exptl_crystal_density_diffrn 1.199
_exptl_special_details
;
Isostructural with the 6,8-dimethyl analogue

;
_diffrn_ambient_temperature ?
_diffrn_special_details
;
The study was carried out at room temperature,in the range 283-303K

;
#These two values have been output from a single CSD field.
_refine_ls_R_factor_gt 0.04
_refine_ls_wR_factor_gt 0.04
_symmetry_cell_setting triclinic
_symmetry_space_group_name_H-M 'P -1'
_symmetry_Int_Tables_number 2
loop_
_symmetry_equiv_pos_site_id
_symmetry_equiv_pos_as_xyz
1 x,y,z
2 -x,-y,-z
_cell_length_a 9.894(3)
_cell_length_b 9.908(3)
_cell_length_c 14.780(5)
_cell_angle_alpha 105.29(5)
_cell_angle_beta 94.07(5)
_cell_angle_gamma 112.20(5)
_cell_formula_units_Z 2
loop_
_atom_type_symbol
_atom_type_radius_bond
C 0.68
H 0.23
N 0.68
O 0.68
loop_
_atom_site_label
_atom_site_type_symbol
_atom_site_fract_x
_atom_site_fract_y
_atom_site_fract_z
O1 O 0.2148(2) -0.0324(2) 0.5084(1)
O2 O -0.2301(1) -0.3428(2) 0.2484(1)
N1 N 0.0776(2) -0.2056(2) 0.2881(1)
N2 N 0.1917(2) -0.1932(2) 0.3584(1)
N3 N 0.3300(2) 0.0442(2) 0.4644(1)
N4 N -0.1479(2) -0.4201(2) 0.2015(1)
C1 C 0.3132(2) -0.0454(2) 0.3806(1)
C2 C 0.1581(2) -0.1953(2) 0.4536(1)
C3 C 0.2548(2) -0.2588(3) 0.4976(2)
C4 C -0.0013(2) -0.2773(2) 0.4601(2)
C5 C -0.1289(2) -0.2936(2) 0.4126(2)
C6 C -0.2744(3) -0.3965(3) 0.4306(2)
C7 C -0.1494(2) -0.2231(2) 0.3379(2)
C8 C -0.0052(2) -0.3554(2) 0.2272(1)
C9 C -0.0077(2) -0.1150(2) 0.3185(2)
C10 C -0.0381(3) -0.0473(3) 0.2425(2)
C11 C 0.4062(2) -0.0036(3) 0.3106(2)
C12 C 0.4733(2) -0.0999(3) 0.2660(2)
C13 C 0.4625(2) -0.2390(3) 0.2926(2)
C14 C 0.5572(3) -0.0587(4) 0.1987(2)
C15 C 0.5784(3) 0.0731(4) 0.1749(2)
C16 C 0.6708(4) 0.1125(6) 0.1000(2)
C17 C 0.5165(3) 0.1681(3) 0.2220(2)
C18 C 0.4303(3) 0.1333(3) 0.2897(2)
C19 C 0.3709(3) 0.2452(3) 0.3400(2)
C20 C 0.0767(2) -0.4423(2) 0.1782(1)
C21 C 0.0793(2) -0.5682(2) 0.2025(2)
C22 C 0.0036(3) -0.6190(3) 0.2793(2)
C23 C 0.1570(3) -0.6459(3) 0.1541(2)
C24 C 0.2303(3) -0.6019(3) 0.0840(2)
C25 C 0.3146(4) -0.6896(4) 0.0318(3)
C26 C 0.2249(3) -0.4784(3) 0.0609(2)
C27 C 0.1486(2) -0.3964(3) 0.1069(2)
C28 C 0.1434(3) -0.2651(3) 0.0769(2)
H1 H -0.013(3) -0.337(3) 0.504(2)
H2 H 0.045(3) -0.032(3) 0.378(2)
H3 H 0.601(3) -0.130(4) 0.163(2)
H4 H 0.530(3) 0.266(4) 0.210(2)
H5 H 0.165(3) -0.736(3) 0.173(2)
H6 H 0.282(3) -0.446(3) 0.009(2)
H7 H 0.363(3) -0.197(3) 0.496(2)
H8 H 0.240(3) -0.253(3) 0.561(2)
H9 H 0.221(3) -0.369(3) 0.461(2)
H10 H -0.256(3) -0.416(3) 0.493(2)
H11 H -0.340(3) -0.339(3) 0.445(2)
H12 H -0.323(3) -0.489(3) 0.377(2)
H13 H -0.219(3) -0.171(3) 0.358(2)
H14 H 0.061(3) 0.015(3) 0.227(2)
H15 H -0.102(3) -0.131(3) 0.186(2)
H16 H -0.097(3) 0.017(3) 0.265(2)
H17 H 0.496(3) -0.212(3) 0.364(2)
H18 H 0.354(3) -0.321(3) 0.279(2)
H19 H 0.526(3) -0.281(3) 0.258(2)
H20 H 0.657(4) 0.026(5) 0.049(3)
H21 H 0.623(4) 0.168(5) 0.073(3)
H22 H 0.744(5) 0.195(5) 0.128(3)
H23 H 0.371(3) 0.317(3) 0.303(2)
H24 H 0.266(3) 0.195(3) 0.347(2)
H25 H 0.433(3) 0.309(3) 0.406(2)
H26 H -0.010(3) -0.541(3) 0.325(2)
H27 H -0.075(3) -0.712(3) 0.259(2)
H28 H 0.069(3) -0.647(3) 0.322(2)
H29 H 0.284(4) -0.783(5) 0.039(3)
H30 H 0.323(5) -0.683(4) -0.022(3)
H31 H 0.416(4) -0.631(4) 0.066(3)
H32 H 0.145(3) -0.285(3) 0.008(2)
H33 H 0.045(3) -0.264(3) 0.072(2)
H34 H 0.226(3) -0.162(3) 0.118(2)
#END
