
#######################################################################
#
#                 Cambridge Crystallographic Data Centre
#                                CCDC
#
#######################################################################
#
# If this CIF has been generated from an entry in the Cambridge
# Structural Database, then it will include bibliographic, chemical,
# crystal, experimental, refinement or atomic coordinate data resulting
# from the CCDC's data processing and validation procedures.
#
#######################################################################

data_CSD_CIF_ZUBBON
_audit_creation_date 1996-10-04
_audit_creation_method CSD-ConQuest-V1
_database_code_CSD ZUBBON
_chemical_formula_sum 'C23 H32 N4 O4'
_chemical_formula_moiety
;
C23 H32 N4 O4
;
_journal_coden_Cambridge 207
_journal_year 1996
_journal_page_first 45
_journal_name_full 'J.Chem.Soc.,Perkin Trans.1 '
loop_
_publ_author_name
"A.Batsanov"
"Ligong Chen"
"G.B.Gill"
"G.Pattenden"
_chemical_name_systematic
;
4a,7,8a-Trimethyl-perhydrophenanthren-1-one 2,4-dinitrophenylhydrazone
;
_cell_volume   2232.235
_exptl_crystal_colour 'orange'
_exptl_crystal_density_diffrn 1.275
_diffrn_ambient_temperature ?
_diffrn_special_details
;
The study was carried out at room temperature,in the range 283-303K

;
_refine_special_details
;
The methyl group C17 was refined over two positions with site occupancies 
0.54 and 0.46.
;
#These two values have been output from a single CSD field.
_refine_ls_R_factor_gt 0.0715
_refine_ls_wR_factor_gt 0.0715
_symmetry_cell_setting monoclinic
_symmetry_space_group_name_H-M 'P 21/n'
_symmetry_Int_Tables_number 14
loop_
_symmetry_equiv_pos_site_id
_symmetry_equiv_pos_as_xyz
1 x,y,z
2 1/2-x,1/2+y,1/2-z
3 -x,-y,-z
4 -1/2+x,-1/2-y,-1/2+z
_cell_length_a 17.214(2)
_cell_length_b 6.012(1)
_cell_length_c 22.800(4)
_cell_angle_alpha 90
_cell_angle_beta 108.91(1)
_cell_angle_gamma 90
_cell_formula_units_Z 4
loop_
_atom_type_symbol
_atom_type_radius_bond
C 0.68
H 0.23
N 0.68
O 0.68
loop_
_atom_site_label
_atom_site_type_symbol
_atom_site_fract_x
_atom_site_fract_y
_atom_site_fract_z
N1 N 0.4229(4) 0.2337(13) 0.8161(3)
N2 N 0.4154(5) 0.1866(14) 0.8735(4)
N3 N 0.3952(5) 0.0506(15) 0.9909(4)
N4 N 0.2380(5) -0.5858(17) 0.8856(4)
O1 O 0.4361(4) 0.2223(13) 0.9909(3)
O2 O 0.3829(5) -0.0136(13) 1.0379(3)
O3 O 0.2324(5) -0.6402(13) 0.9354(4)
O4 O 0.2075(4) -0.6869(12) 0.8380(4)
C1 C 0.4738(5) 0.3898(15) 0.8139(4)
C2 C 0.5292(5) 0.5227(16) 0.8665(4)
C3 C 0.6177(5) 0.4800(16) 0.8720(4)
C4 C 0.6352(5) 0.4814(16) 0.8111(4)
C5 C 0.5753(5) 0.3426(14) 0.7591(3)
C6 C 0.4878(5) 0.4251(15) 0.7526(3)
C7 C 0.5899(5) 0.3883(15) 0.6966(3)
C8 C 0.5228(5) 0.3011(15) 0.6375(4)
C9 C 0.4404(5) 0.3835(16) 0.6380(4)
C10 C 0.4205(5) 0.3303(15) 0.6966(3)
C11 C 0.6746(5) 0.3290(16) 0.6953(4)
C12 C 0.6914(6) 0.4291(18) 0.6392(4)
C13 C 0.6290(6) 0.3588(20) 0.5787(5)
C14 C 0.5416(5) 0.3966(18) 0.5813(4)
C15 C 0.5854(5) 0.0919(15) 0.7778(4)
C16 C 0.5188(6) 0.0424(16) 0.6312(4)
C17 C 0.6397(12) 0.1519(34) 0.5543(9)
C18? C 0.6548(12) 0.4517(37) 0.5310(9)
C19 C 0.3738(5) 0.0001(15) 0.8774(4)
C20 C 0.3619(5) -0.0691(15) 0.9336(4)
C21 C 0.3171(5) -0.2617(15) 0.9357(4)
C22 C 0.2837(5) -0.3829(16) 0.8838(4)
C23 C 0.2955(5) -0.3260(16) 0.8277(4)
C24 C 0.3381(5) -0.1389(15) 0.8254(4)
H1 H 0.4350(44) 0.255(14) 0.9043(37)
H2 H 0.5184(5) 0.4848(16) 0.9041(4)
H3 H 0.5185(5) 0.6786(16) 0.8588(4)
H4 H 0.6310(5) 0.3336(16) 0.8891(4)
H5 H 0.6526(5) 0.5837(16) 0.9006(4)
H6 H 0.6318(5) 0.6335(16) 0.7976(4)
H7 H 0.6901(5) 0.4301(16) 0.8171(4)
H8 H 0.4875(5) 0.5827(15) 0.7458(3)
H9 H 0.5875(5) 0.5470(15) 0.6915(3)
H10 H 0.3986(5) 0.3211(16) 0.6030(4)
H11 H 0.4395(5) 0.5420(16) 0.6326(4)
H12 H 0.3684(5) 0.3929(15) 0.6945(3)
H13 H 0.4183(5) 0.1723(15) 0.7017(3)
H14 H 0.6770(5) 0.1702(16) 0.6919(4)
H15 H 0.7153(5) 0.3739(16) 0.7334(4)
H16 H 0.7453(6) 0.3904(18) 0.6387(4)
H17 H 0.6888(6) 0.5879(18) 0.6428(4)
H18 H 0.5337(5) 0.5545(18) 0.5823(4)
H19 H 0.5023(5) 0.3399(18) 0.5441(4)
H20 H 0.5475(5) 0.0033(15) 0.7463(4)
H21 H 0.6406(5) 0.0468(15) 0.7823(4)
H22 H 0.5753(5) 0.0715(15) 0.8164(4)
H23 H 0.5092(6) -0.0218(16) 0.6668(4)
H24 H 0.4749(6) 0.0015(16) 0.5945(4)
H25 H 0.5699(6) -0.0116(16) 0.6284(4)
H26 H 0.5974(12) 0.1224(34) 0.5156(9)
H27 H 0.6922(12) 0.1506(34) 0.5480(9)
H28 H 0.6385(12) 0.0396(34) 0.5839(9)
H29? H 0.6178(12) 0.4095(37) 0.4911(9)
H30? H 0.6542(12) 0.6105(37) 0.5353(9)
H31? H 0.7094(12) 0.4036(37) 0.5347(9)
H32 H 0.3085(5) -0.3050(15) 0.9736(4)
H33 H 0.2736(5) -0.4178(16) 0.7916(4)
H34 H 0.3452(5) -0.0966(15) 0.7869(4)
#END
