
#######################################################################
#
#                 Cambridge Crystallographic Data Centre
#                                CCDC
#
#######################################################################
#
# If this CIF has been generated from an entry in the Cambridge
# Structural Database, then it will include bibliographic, chemical,
# crystal, experimental, refinement or atomic coordinate data resulting
# from the CCDC's data processing and validation procedures.
#
#######################################################################

data_CSD_CIF_ZUBGEK
_audit_creation_date 2015-03-30
_audit_creation_method CSD-ConQuest-V1
_database_code_CSD ZUBGEK
_database_code_depnum_ccdc_archive 'CCDC 1022225'
_chemical_formula_sum 'C23 H17 N1 O3'
_chemical_formula_moiety
;
C23 H17 N1 O3
;
_journal_coden_Cambridge 1366
_journal_volume 357
_journal_year 2015
_journal_page_first 923
_journal_name_full 'Adv.Synth.Catal. '
loop_
_publ_author_name
"Junyu Xu"
"Shihe Hu"
"Yingyan Lu"
"Ying Dong"
"Weifang Tang"
"Tao Lu"
"Ding Du"
_chemical_name_systematic
;
4,4a-diphenyl-4,4a-dihydro-2H-[1,2]oxazino[2,3-a]indole-2,5(3H)-dione
;
_cell_volume   1767.468
_exptl_crystal_density_diffrn 1.336
_diffrn_ambient_temperature 293
#These two values have been output from a single CSD field.
_refine_ls_R_factor_gt 0.0693
_refine_ls_wR_factor_gt 0.0693
_symmetry_cell_setting monoclinic
_symmetry_space_group_name_H-M 'P 21/c'
_symmetry_Int_Tables_number 14
loop_
_symmetry_equiv_pos_site_id
_symmetry_equiv_pos_as_xyz
1 x,y,z
2 -x,1/2+y,1/2-z
3 -x,-y,-z
4 x,-1/2-y,-1/2+z
_cell_length_a 12.224(2)
_cell_length_b 13.610(3)
_cell_length_c 11.264(2)
_cell_angle_alpha 90
_cell_angle_beta 109.41(3)
_cell_angle_gamma 90
_cell_formula_units_Z 4
loop_
_atom_type_symbol
_atom_type_radius_bond
C 0.68
H 0.23
N 0.68
O 0.68
loop_
_atom_site_label
_atom_site_type_symbol
_atom_site_fract_x
_atom_site_fract_y
_atom_site_fract_z
N1 N 0.7906(2) 0.20421(18) 0.8962(2)
O1 O 0.8312(2) 0.07141(16) 0.6454(2)
C1 C 0.7415(2) 0.1269(2) 0.7983(3)
O2 O 0.70900(18) 0.25635(16) 0.9381(2)
C2 C 0.8274(3) 0.1321(2) 0.7209(3)
O3 O 0.5544(2) 0.35012(19) 0.8763(3)
C3 C 0.8978(3) 0.2213(2) 0.7630(3)
C4 C 0.9799(3) 0.2642(2) 0.7182(3)
H1 H 1.00220 0.23430 0.65560
C5 C 1.0267(3) 0.3528(3) 0.7703(4)
H2 H 1.08410 0.38240 0.74530
C6 C 0.9888(3) 0.3976(3) 0.8595(3)
H3 H 1.01770 0.45960 0.88840
C7 C 0.9103(3) 0.3550(2) 0.9080(3)
H4 H 0.88870 0.38500 0.97100
C8 C 0.8652(3) 0.2644(2) 0.8570(3)
C9 C 0.7545(3) 0.0251(2) 0.8582(3)
C10 C 0.8319(3) 0.0086(3) 0.9771(3)
H5 H 0.87090 0.06140 1.02520
C11 C 0.8526(3) -0.0862(3) 1.0262(4)
H6 H 0.90560 -0.09680 1.10620
C12 C 0.7937(4) -0.1646(3) 0.9550(4)
H7 H 0.80690 -0.22820 0.98690
C13 C 0.7173(4) -0.1483(3) 0.8395(5)
H8 H 0.67750 -0.20150 0.79300
C14 C 0.6954(3) -0.0541(2) 0.7866(3)
H9 H 0.64300 -0.04460 0.70600
C15 C 0.6195(3) 0.1569(2) 0.7076(3)
H10 H 0.61630 0.13940 0.62210
C16 C 0.6093(3) 0.2700(2) 0.7123(3)
H11 H 0.67050 0.30080 0.68850
H12 H 0.53520 0.29130 0.65370
C17 C 0.6189(3) 0.2995(2) 0.8426(4)
C18 C 0.5127(3) 0.1126(2) 0.7286(3)
C19 C 0.5017(3) 0.0989(3) 0.8465(4)
H13 H 0.56490 0.11080 0.91860
C20 C 0.3980(3) 0.0680(3) 0.8579(4)
H14 H 0.39130 0.05970 0.93720
C21 C 0.3050(3) 0.0495(3) 0.7521(5)
H15 H 0.23550 0.02820 0.76000
C22 C 0.3133(3) 0.0623(3) 0.6324(5)
H16 H 0.24990 0.05000 0.56060
C23 C 0.4184(3) 0.0939(3) 0.6228(4)
H17 H 0.42510 0.10250 0.54360
#END
