
#######################################################################
#
#                 Cambridge Crystallographic Data Centre
#                                CCDC
#
#######################################################################
#
# If this CIF has been generated from an entry in the Cambridge
# Structural Database, then it will include bibliographic, chemical,
# crystal, experimental, refinement or atomic coordinate data resulting
# from the CCDC's data processing and validation procedures.
#
#######################################################################

data_CSD_CIF_ZUGPUM
_audit_creation_date 1996-06-26
_audit_creation_method CSD-ConQuest-V1
_database_code_CSD ZUGPUM
_database_code_depnum_ccdc_archive 'CCDC 131546'
_chemical_formula_sum 'C6 H8 N6 O8'
_chemical_formula_moiety
;
C6 H8 N6 O8
;
_journal_coeditor_code "IUCr FG0002"
_journal_coden_Cambridge 622
_journal_volume 52
_journal_year 1996
_journal_page_first 352
_journal_name_full 'Acta Crystallogr.,Sect.B:Struct.Sci. '
loop_
_publ_author_name
"H.L.Ammon"
"Z.Du"
"R.D.Gilardi"
"P.R.Dave"
"F.Forohar"
"T.Axenrod"
_chemical_name_systematic
;
1,3,5,7-Tetranitro-3,7-diazabicyclo(3.3.0)octane
;
_cell_volume   1073.502
_exptl_crystal_colour 'colorless'
_exptl_crystal_density_diffrn 1.807
_diffrn_ambient_temperature 223
#These two values have been output from a single CSD field.
_refine_ls_R_factor_gt 0.038
_refine_ls_wR_factor_gt 0.038
_symmetry_cell_setting monoclinic
_symmetry_space_group_name_H-M 'P 21/c'
_symmetry_Int_Tables_number 14
loop_
_symmetry_equiv_pos_site_id
_symmetry_equiv_pos_as_xyz
1 x,y,z
2 -x,1/2+y,1/2-z
3 -x,-y,-z
4 x,-1/2-y,-1/2+z
_cell_length_a 11.559(2)
_cell_length_b 8.018(1)
_cell_length_c 11.697(2)
_cell_angle_alpha 90
_cell_angle_beta 98.01(1)
_cell_angle_gamma 90
_cell_formula_units_Z 4
loop_
_atom_type_symbol
_atom_type_radius_bond
C 0.68
H 0.23
N 0.68
O 0.68
loop_
_atom_site_label
_atom_site_type_symbol
_atom_site_fract_x
_atom_site_fract_y
_atom_site_fract_z
C1 C 0.2965(2) 0.4004(4) 0.7226(2)
C2 C 0.3825(3) 0.5310(4) 0.6937(2)
C3 C 0.2177(2) 0.5111(4) 0.5348(2)
C4 C 0.1794(2) 0.4300(3) 0.6429(2)
C5 C 0.1173(3) 0.2614(4) 0.6233(3)
C6 C 0.3277(3) 0.2218(4) 0.6917(3)
N1 N 0.3375(2) 0.5583(3) 0.5729(2)
N2 N 0.2146(2) 0.1480(3) 0.6525(2)
N3 N 0.4006(2) 0.6351(3) 0.5014(2)
N4 N 0.2065(3) -0.0138(3) 0.6226(2)
N5 N 0.2834(2) 0.4027(3) 0.8493(2)
N6 N 0.1010(2) 0.5546(3) 0.6932(2)
O1 O 0.4998(2) 0.6816(3) 0.5407(2)
O2 O 0.3547(2) 0.6503(3) 0.4006(2)
O3 O 0.2976(2) -0.0956(3) 0.6411(2)
O4 O 0.1100(2) -0.0661(3) 0.5825(2)
O5 O 0.1983(2) 0.3290(3) 0.8761(2)
O6 O 0.3592(2) 0.4701(3) 0.9149(2)
O7 O 0.1458(2) 0.6533(3) 0.7649(2)
O8 O -0.0020(2) 0.5516(3) 0.6524(2)
H1 H 0.3729(2) 0.6291(3) 0.7378(2)
H2 H 0.4632(2) 0.4892(3) 0.6983(2)
H3 H 0.1667(2) 0.6041(3) 0.5169(2)
H4 H 0.2153(2) 0.4341(3) 0.4729(2)
H5 H 0.0604(2) 0.2416(3) 0.6817(2)
H6 H 0.0815(2) 0.2438(3) 0.5438(2)
H7 H 0.3624(2) 0.1632(3) 0.7555(2)
H8 H 0.3747(2) 0.2238(3) 0.6337(2)
#END
