
#######################################################################
#
#                 Cambridge Crystallographic Data Centre
#                                CCDC
#
#######################################################################
#
# If this CIF has been generated from an entry in the Cambridge
# Structural Database, then it will include bibliographic, chemical,
# crystal, experimental, refinement or atomic coordinate data resulting
# from the CCDC's data processing and validation procedures.
#
#######################################################################

data_CSD_CIF_ZUGPOG
_audit_creation_date 1996-06-26
_audit_creation_method CSD-ConQuest-V1
_database_code_CSD ZUGPOG
_database_code_depnum_ccdc_archive 'CCDC 131540'
_chemical_formula_sum 'C8 H6 N2 O2'
_chemical_formula_moiety
;
C8 H6 N2 O2
;
_journal_coeditor_code "IUCr CR0483"
_journal_coden_Cambridge 622
_journal_volume 52
_journal_year 1996
_journal_page_first 344
_journal_name_full 'Acta Crystallogr.,Sect.B:Struct.Sci. '
loop_
_publ_author_name
"D.Britton"
"C.J.Cramer"
_chemical_name_systematic
;
6-Methyl-2-nitrobenzonitrile
;
_cell_volume   1494.516
_exptl_crystal_colour 'yellow'
_exptl_crystal_density_diffrn 1.441
_diffrn_ambient_temperature ?
_diffrn_special_details
;
The study was carried out at room temperature,in the range 283-303K

;
#These two values have been output from a single CSD field.
_refine_ls_R_factor_gt 0.074
_refine_ls_wR_factor_gt 0.074
_symmetry_cell_setting orthorhombic
_symmetry_space_group_name_H-M 'P b c a'
_symmetry_Int_Tables_number 61
loop_
_symmetry_equiv_pos_site_id
_symmetry_equiv_pos_as_xyz
1 x,y,z
2 1/2-x,-y,1/2+z
3 1/2+x,1/2-y,-z
4 -x,1/2+y,1/2-z
5 -x,-y,-z
6 -1/2+x,y,-1/2-z
7 -1/2-x,-1/2+y,z
8 x,-1/2-y,-1/2+z
_cell_length_a 9.969(2)
_cell_length_b 14.728(4)
_cell_length_c 10.179(3)
_cell_angle_alpha 90
_cell_angle_beta 90
_cell_angle_gamma 90
_cell_formula_units_Z 8
loop_
_atom_type_symbol
_atom_type_radius_bond
C 0.68
H 0.23
N 0.68
O 0.68
loop_
_atom_site_label
_atom_site_type_symbol
_atom_site_fract_x
_atom_site_fract_y
_atom_site_fract_z
C1 C 0.4165(2) 0.3278(2) 0.1492(2)
C2 C 0.3325(3) 0.3012(2) 0.0468(2)
C3 C 0.2663(3) 0.3619(2) -0.0335(3)
C4 C 0.2827(3) 0.4532(2) -0.0091(3)
C5 C 0.3646(3) 0.4820(2) 0.0912(3)
C6 C 0.4325(2) 0.4214(2) 0.1716(3)
C7 C 0.4871(3) 0.2660(2) 0.2336(3)
N1 N 0.5488(2) 0.2254(2) 0.3075(2)
N2 N 0.3141(2) 0.2040(1) 0.0177(2)
O1 O 0.3715(3) 0.1490(1) 0.0876(2)
O2 O 0.2429(1) 0.1821(1) -0.0743(2)
C8 C 0.5230(3) 0.4535(2) 0.2789(3)
H1 H 0.206(3) 0.346(2) -0.105(3)
H2 H 0.227(3) 0.498(2) -0.063(2)
H3 H 0.375(2) 0.538(2) 0.104(2)
H4 H 0.521(4) 0.522(3) 0.282(3)
H5 H 0.616(3) 0.429(2) 0.268(3)
H6 H 0.488(4) 0.429(2) 0.367(3)
#END
