
#######################################################################
#
#                 Cambridge Crystallographic Data Centre
#                                CCDC
#
#######################################################################
#
# If this CIF has been generated from an entry in the Cambridge
# Structural Database, then it will include bibliographic, chemical,
# crystal, experimental, refinement or atomic coordinate data resulting
# from the CCDC's data processing and validation procedures.
#
#######################################################################

data_CSD_CIF_ZUHMUK
_audit_creation_date 1996-06-26
_audit_creation_method CSD-ConQuest-V1
_database_code_CSD ZUHMUK
_database_code_depnum_ccdc_archive 'CCDC 126484'
_chemical_formula_sum 'C8 H9 N3 O4'
_chemical_formula_moiety
;
C8 H9 N3 O4
;
_journal_coeditor_code "IUCr AB1321"
_journal_coden_Cambridge 591
_journal_volume 52
_journal_year 1996
_journal_page_first 964
_journal_name_full 'Acta Crystallogr.,Sect.C:Cryst.Struct.Commun. '
loop_
_publ_author_name
"J.N.Low"
"S.M.S.V.Doidge-Harrison"
"J.Cobo"
_chemical_name_systematic
;
N,N-Dimethyl-2,4-dinitroaniline
;
_cell_volume   1917.408
_exptl_crystal_colour 'yellow'
_exptl_crystal_density_diffrn 1.463
_diffrn_ambient_temperature ?
_diffrn_special_details
;
The study was carried out at room temperature,in the range 283-303K

;
#These two values have been output from a single CSD field.
_refine_ls_R_factor_gt 0.0464
_refine_ls_wR_factor_gt 0.0464
_symmetry_cell_setting orthorhombic
_symmetry_space_group_name_H-M 'P c a b'
_symmetry_Int_Tables_number 61
loop_
_symmetry_equiv_pos_site_id
_symmetry_equiv_pos_as_xyz
1 x,y,z
2 -x,1/2-y,1/2+z
3 1/2+x,-y,1/2-z
4 1/2-x,1/2+y,-z
5 -x,-y,-z
6 x,-1/2+y,-1/2-z
7 -1/2-x,y,-1/2+z
8 -1/2+x,-1/2-y,z
_cell_length_a 7.133(1)
_cell_length_b 13.206(1)
_cell_length_c 20.355(5)
_cell_angle_alpha 90
_cell_angle_beta 90
_cell_angle_gamma 90
_cell_formula_units_Z 8
loop_
_atom_type_symbol
_atom_type_radius_bond
C 0.68
H 0.23
N 0.68
O 0.68
loop_
_atom_site_label
_atom_site_type_symbol
_atom_site_fract_x
_atom_site_fract_y
_atom_site_fract_z
C1 C 0.8318(4) 0.9936(2) 0.1135(2)
N1 N 0.8971(3) 1.0217(2) 0.17329(13)
C2 C 1.0141(5) 0.9571(3) 0.2143(2)
C3 C 0.8914(5) 1.1281(2) 0.1937(2)
C4 C 0.7997(4) 0.8922(2) 0.0942(2)
N2 N 0.7862(4) 0.8086(2) 0.1410(2)
O1 O 0.8310(4) 0.7240(2) 0.12241(14)
O2 O 0.7189(3) 0.8254(2) 0.19531(13)
C5 C 0.7527(4) 0.8673(2) 0.0308(2)
C6 C 0.7286(4) 0.9414(2) -0.0159(2)
N3 N 0.6731(4) 0.9146(3) -0.0817(2)
O3 O 0.6603(4) 0.8259(2) -0.09652(15)
O4 O 0.6406(3) 0.9819(2) -0.12051(13)
C7 C 0.7475(4) 1.0423(2) 0.0019(2)
C8 C 0.7971(4) 1.0673(2) 0.0644(2)
H1 H 0.94240 0.93340 0.25110
H2 H 1.12000 0.99510 0.22980
H3 H 1.05700 0.90030 0.18900
H4 H 0.98960 1.16480 0.17190
H5 H 0.90870 1.13250 0.24040
H6 H 0.77230 1.15680 0.18210
H7 H 0.73720 0.79970 0.01930
H8 H 0.72620 1.09290 -0.02900
H9 H 0.80870 1.13540 0.07530
#END
