
#######################################################################
#
#                 Cambridge Crystallographic Data Centre
#                                CCDC
#
#######################################################################
#
# If this CIF has been generated from an entry in the Cambridge
# Structural Database, then it will include bibliographic, chemical,
# crystal, experimental, refinement or atomic coordinate data resulting
# from the CCDC's data processing and validation procedures.
#
#######################################################################

data_CSD_CIF_ZUHRID
_audit_creation_date 1996-06-26
_audit_creation_method CSD-ConQuest-V1
_database_code_CSD ZUHRID
_database_code_depnum_ccdc_archive 'CCDC 126549'
_chemical_formula_sum 'C11 H14 N2 O3'
_chemical_formula_moiety
;
C11 H14 N2 O3
;
_journal_coeditor_code "IUCr HA1146"
_journal_coden_Cambridge 591
_journal_volume 52
_journal_year 1996
_journal_page_first 1000
_journal_name_full 'Acta Crystallogr.,Sect.C:Cryst.Struct.Commun. '
loop_
_publ_author_name
"D.W.Tomlin"
"T.J.Bunning"
"G.E.Price"
"A.V.Fratini"
"W.W.Adams"
_chemical_name_systematic
;
1-(4-Nitrophenyl)-4-piperidinol
;
_cell_volume   1051.931
_exptl_crystal_colour 'bright yellow'
_exptl_crystal_density_diffrn 1.403
_exptl_special_details
;
centrosymmetric polymorph

;
_exptl_crystal_preparation '2-propanol'
_diffrn_ambient_temperature ?
_diffrn_special_details
;
The study was carried out at room temperature,in the range 283-303K

;
#These two values have been output from a single CSD field.
_refine_ls_R_factor_gt 0.041
_refine_ls_wR_factor_gt 0.041
_symmetry_cell_setting monoclinic
_symmetry_space_group_name_H-M 'P 21/n'
_symmetry_Int_Tables_number 14
loop_
_symmetry_equiv_pos_site_id
_symmetry_equiv_pos_as_xyz
1 x,y,z
2 1/2-x,1/2+y,1/2-z
3 -x,-y,-z
4 -1/2+x,-1/2-y,-1/2+z
_cell_length_a 4.863(2)
_cell_length_b 10.804(1)
_cell_length_c 20.139(5)
_cell_angle_alpha 90
_cell_angle_beta 96.19(3)
_cell_angle_gamma 90
_cell_formula_units_Z 4
loop_
_atom_type_symbol
_atom_type_radius_bond
C 0.68
H 0.23
N 0.68
O 0.68
loop_
_atom_site_label
_atom_site_type_symbol
_atom_site_fract_x
_atom_site_fract_y
_atom_site_fract_z
C1 C 0.5740(8) 0.6355(4) 0.7604(2)
C2 C 0.4387(9) 0.7593(4) 0.7454(2)
C3 C 0.5098(13) 0.8103(4) 0.6791(2)
C4 C 0.5835(13) 0.6045(5) 0.6379(2)
C5 C 0.5068(11) 0.5480(4) 0.7027(2)
C6 C 0.2350(9) 0.7410(4) 0.5744(2)
C7 C 0.0644(9) 0.8465(3) 0.5715(2)
C8 C -0.1423(10) 0.8638(4) 0.5212(2)
C9 C -0.1885(9) 0.7766(4) 0.4707(2)
C10 C -0.0195(10) 0.6736(4) 0.4702(2)
C11 C 0.1876(10) 0.6552(4) 0.5211(2)
N1 N 0.4387(9) 0.7220(3) 0.6254(2)
N2 N -0.4137(8) 0.7929(3) 0.4194(2)
O1 O 0.4887(8) 0.5816(3) 0.8192(2)
O2 O -0.5450(7) 0.8903(3) 0.4177(2)
O3 O -0.4692(8) 0.7101(3) 0.3786(1)
H1 H 0.782(8) 0.649(3) 0.768(2)
H2 H 0.62(2) 0.607(8) 0.860(4)
H3 H 0.520(9) 0.816(4) 0.787(2)
H4 H 0.23(1) 0.747(6) 0.744(3)
H5 H 0.443(8) 0.891(4) 0.672(2)
H6 H 0.73(1) 0.811(4) 0.686(2)
H7 H 0.52(1) 0.542(5) 0.608(3)
H8 H 0.77(1) 0.624(5) 0.646(3)
H9 H 0.50(2) 0.456(8) 0.739(4)
H10 H 0.296(9) 0.535(3) 0.696(2)
H11 H 0.081(9) 0.906(4) 0.611(2)
H12 H -0.26(1) 0.931(5) 0.524(2)
H13 H -0.03(1) 0.623(5) 0.430(3)
H14 H 0.33(1) 0.582(5) 0.517(3)
#END
