
#######################################################################
#
#                 Cambridge Crystallographic Data Centre
#                                CCDC
#
#######################################################################
#
# If this CIF has been generated from an entry in the Cambridge
# Structural Database, then it will include bibliographic, chemical,
# crystal, experimental, refinement or atomic coordinate data resulting
# from the CCDC's data processing and validation procedures.
#
#######################################################################

data_CSD_CIF_ZUHRID01
_audit_creation_date 2004-05-06
_audit_creation_method CSD-ConQuest-V1
_database_code_CSD ZUHRID01
_database_code_depnum_ccdc_archive 'CCDC 141890'
_chemical_formula_sum 'C11 H14 N2 O3'
_chemical_formula_moiety
;
C11 H14 N2 O3
;
_journal_coden_Cambridge 1278
_journal_volume 104
_journal_year 2000
_journal_page_first 10191
_journal_name_full 'J.Phys.Chem.B '
loop_
_publ_author_name
"S.Sharma"
"T.P.Radhakrishnan"
_chemical_name_systematic
;
4-(4-Hydroxypiperidinyl)nitrobenzene
;
_cell_volume   1078.686
_exptl_crystal_colour 'yellow'
_exptl_crystal_density_diffrn 1.369
_exptl_special_details
;
non-centrosymmetric polymorph

;
_exptl_crystal_description 'plate'
_exptl_crystal_preparation 'chloroform/toluene'
_diffrn_ambient_temperature 293
#These two values have been output from a single CSD field.
_refine_ls_R_factor_gt 0.0448
_refine_ls_wR_factor_gt 0.0448
_symmetry_cell_setting monoclinic
_symmetry_space_group_name_H-M 'P 21'
_symmetry_Int_Tables_number 4
loop_
_symmetry_equiv_pos_site_id
_symmetry_equiv_pos_as_xyz
1 x,y,z
2 -x,1/2+y,-z
_cell_length_a 9.5423(9)
_cell_length_b 11.674(3)
_cell_length_c 9.7854(11)
_cell_angle_alpha 90
_cell_angle_beta 98.285(8)
_cell_angle_gamma 90
_cell_formula_units_Z 4
loop_
_atom_type_symbol
_atom_type_radius_bond
C 0.68
H 0.23
N 0.68
O 0.68
loop_
_atom_site_label
_atom_site_type_symbol
_atom_site_fract_x
_atom_site_fract_y
_atom_site_fract_z
N1 N 0.7582(6) 0.4473(6) -0.6271(5)
O1 O 0.7488(5) 0.5517(5) -0.6515(5)
O2 O 0.8264(5) 0.3825(4) -0.6914(5)
N2 N 0.4898(5) 0.2682(4) -0.2023(5)
O3 O 0.4990(6) 0.1662(4) 0.1414(5)
H1 H 0.46690 0.20940 0.19530
N3 N 0.2892(5) 0.3681(4) 0.3361(5)
O4 O 0.2959(5) 0.4318(4) 0.2376(5)
O5 O 0.3521(5) 0.2754(4) 0.3465(4)
N4 N 0.0000(5) 0.5087(4) 0.7631(5)
O6 O -0.1000(5) 0.6431(4) 1.1338(4)
H2 H -0.12540 0.59940 1.19110
C1 C 0.5552(6) 0.3135(5) -0.3044(5)
C2 C 0.6301(6) 0.2437(5) -0.3851(6)
H3 H 0.63610 0.16550 -0.36700
C3 C 0.6946(7) 0.2875(6) -0.4899(6)
H4 H 0.74400 0.23900 -0.54130
C4 C 0.6870(6) 0.4029(5) -0.5199(5)
C5 C 0.6122(6) 0.4737(5) -0.4432(6)
H5 H 0.60580 0.55160 -0.46310
C6 C 0.5476(6) 0.4304(5) -0.3385(6)
H6 H 0.49730 0.47960 -0.28860
C7 C 0.5160(6) 0.1512(5) -0.1517(5)
H7 H 0.53630 0.10230 -0.22650
H8 H 0.43230 0.12180 -0.11790
C8 C 0.6401(6) 0.1505(5) -0.0366(5)
H9 H 0.72390 0.17940 -0.07060
H10 H 0.65910 0.07270 -0.00430
C9 C 0.6066(7) 0.2243(6) 0.0806(6)
H11 H 0.69150 0.23100 0.14940
C10 C 0.5597(7) 0.3431(5) 0.0314(6)
H12 H 0.64030 0.38490 0.00680
H13 H 0.52470 0.38410 0.10580
C11 C 0.4436(7) 0.3380(6) -0.0934(6)
H14 H 0.35830 0.30530 -0.06610
H15 H 0.42170 0.41480 -0.12770
C12 C 0.0614(6) 0.4722(4) 0.6536(5)
C13 C 0.1267(6) 0.3634(4) 0.6552(5)
H16 H 0.12010 0.31370 0.72830
C14 C 0.1997(6) 0.3296(5) 0.5509(5)
H17 H 0.24410 0.25860 0.55530
C15 C 0.2073(6) 0.4005(5) 0.4399(5)
C16 C 0.1378(6) 0.5042(5) 0.4322(5)
H18 H 0.13930 0.55100 0.35550
C17 C 0.0671(6) 0.5384(5) 0.5360(5)
H19 H 0.02070 0.60870 0.52830
C18 C -0.0498(7) 0.4277(5) 0.8599(6)
H20 H 0.00630 0.35820 0.86290
H21 H -0.14760 0.40760 0.82750
C19 C -0.0390(6) 0.4776(5) 1.0031(6)
H22 H 0.05980 0.49030 1.03940
H23 H -0.07750 0.42370 1.06330
C20 C -0.1183(6) 0.5891(5) 1.0020(6)
H24 H -0.21940 0.57490 0.97240
C21 C -0.0646(6) 0.6699(5) 0.9028(5)
H25 H 0.03270 0.68990 0.93720
H26 H -0.12030 0.73970 0.89770
C22 C -0.0714(7) 0.6198(5) 0.7592(6)
H27 H -0.16970 0.61060 0.71860
H28 H -0.02690 0.67210 0.70160
#END
