
#######################################################################
#
#                 Cambridge Crystallographic Data Centre
#                                CCDC
#
#######################################################################
#
# If this CIF has been generated from an entry in the Cambridge
# Structural Database, then it will include bibliographic, chemical,
# crystal, experimental, refinement or atomic coordinate data resulting
# from the CCDC's data processing and validation procedures.
#
#######################################################################

data_CSD_CIF_ZUHVIH
_audit_creation_date 1996-06-25
_audit_creation_method CSD-ConQuest-V1
_database_code_CSD ZUHVIH
_database_code_depnum_ccdc_archive 'CCDC 126622'
_chemical_formula_sum 'C23 H22 N2 O7'
_chemical_formula_moiety
;
C23 H22 N2 O7
;
_journal_coeditor_code "IUCr VJ1032"
_journal_coden_Cambridge 591
_journal_volume 52
_journal_year 1996
_journal_page_first 1036
_journal_name_full 'Acta Crystallogr.,Sect.C:Cryst.Struct.Commun. '
loop_
_publ_author_name
"S.Biswas"
"P.R.Maulik"
"R.C.Gupta"
"M.Seth"
"A.P.Bhaduri"
_chemical_name_systematic
;
4-((1-Cyclohexenyl)nitromethyl)-2-(3,4-methylenedioxyphenyl)-3-nitro-3,4-dihyd
ro-2H-1-benzopyran
;
_cell_volume   2026.941
_exptl_crystal_colour 'colorless'
_exptl_crystal_density_diffrn 1.437
_diffrn_ambient_temperature ?
_diffrn_special_details
;
The study was carried out at room temperature,in the range 283-303K

;
#These two values have been output from a single CSD field.
_refine_ls_R_factor_gt 0.038
_refine_ls_wR_factor_gt 0.038
_symmetry_cell_setting monoclinic
_symmetry_space_group_name_H-M 'P 21/n'
_symmetry_Int_Tables_number 14
loop_
_symmetry_equiv_pos_site_id
_symmetry_equiv_pos_as_xyz
1 x,y,z
2 1/2-x,1/2+y,1/2-z
3 -x,-y,-z
4 -1/2+x,-1/2-y,-1/2+z
_cell_length_a 10.518(2)
_cell_length_b 12.932(2)
_cell_length_c 15.048(2)
_cell_angle_alpha 90
_cell_angle_beta 97.99(2)
_cell_angle_gamma 90
_cell_formula_units_Z 4
loop_
_atom_type_symbol
_atom_type_radius_bond
C 0.68
H 0.23
N 0.68
O 0.68
loop_
_atom_site_label
_atom_site_type_symbol
_atom_site_fract_x
_atom_site_fract_y
_atom_site_fract_z
O1 O 0.0288(1) 0.1396(1) 0.4526(1)
C1 C 0.1344(2) 0.0786(1) 0.4330(1)
C2 C 0.2630(2) 0.1201(1) 0.4779(1)
C3 C 0.2669(2) 0.1298(1) 0.5797(1)
C4 C 0.1436(2) 0.1774(1) 0.6014(1)
C5 C 0.0336(2) 0.1780(1) 0.5389(1)
C6 C -0.0791(2) 0.2224(1) 0.5585(1)
C7 C -0.0829(2) 0.2661(2) 0.6413(1)
C8 C 0.0253(2) 0.2670(1) 0.7045(1)
C9 C 0.1371(2) 0.2238(1) 0.6841(1)
C10 C 0.1282(2) 0.0700(1) 0.3327(1)
C11 C 0.1805(2) -0.0160(1) 0.2978(1)
C12 C 0.1857(2) -0.0268(2) 0.2065(10)
C13 C 0.1347(2) 0.0515(1) 0.1527(1)
C14 C 0.0821(2) 0.1378(1) 0.1867(1)
C15 C 0.0776(2) 0.1506(1) 0.2764(1)
O2 O 0.1281(1) 0.0601(1) 0.0612(1)
C16 C 0.0583(2) 0.1517(2) 0.0375(1)
O3 O 0.0387(1) 0.2046(1) 0.1178(1)
N1 N 0.2887(1) 0.2226(1) 0.4369(1)
O4 O 0.2401(1) 0.3000(1) 0.4635(1)
O5 O 0.3549(1) 0.2226(1) 0.3769(1)
C17 C 0.2857(2) 0.0221(1) 0.6246(1)
C18 C 0.3092(2) 0.0234(1) 0.7255(1)
C19 C 0.2192(2) -0.0175(1) 0.7697(10)
C20 C 0.2264(2) -0.0166(2) 0.8688(10)
C21 C 0.3579(2) 0.0104(2) 0.9168(1)
C22 C 0.4155(2) 0.0981(2) 0.8696(1)
C23 C 0.4279(2) 0.0712(2) 0.7734(1)
N2 N 0.3970(2) -0.0322(1) 0.5911(1)
O6 O 0.4992(1) 0.0138(1) 0.5967(1)
O7 O 0.3791(1) -0.1190(1) 0.5605(1)
H1 H 0.1237(2) 0.0089(1) 0.4564(1)
H2 H 0.3303(2) 0.0716(1) 0.4662(1)
H3 H 0.3390(2) 0.1744(1) 0.6035(1)
H4 H -0.1520(2) 0.2227(1) 0.5158(1)
H5 H -0.1588(2) 0.2952(2) 0.6548(1)
H6 H 0.0227(2) 0.2966(1) 0.7606(1)
H7 H 0.2102(2) 0.2257(1) 0.7266(1)
H8 H 0.2134(2) -0.0686(1) 0.3365(1)
H9 H 0.2223(2) -0.0846(2) 0.1834(1)
H10 H 0.0429(2) 0.2097(1) 0.2988(1)
H11 H -0.0238(2) 0.1349(2) 0.0027(1)
H12 H 0.1057(2) 0.1954(2) 0.0013(1)
H13 H 0.2080(2) -0.0187(1) 0.6060(1)
H14 H 0.1481(2) -0.0482(1) 0.7363(1)
H15 H 0.2022(2) -0.0842(2) 0.8886(1)
H16 H 0.1648(2) 0.0331(2) 0.8855(1)
H17 H 0.3513(2) 0.0303(2) 0.9781(1)
H18 H 0.4134(2) -0.0497(2) 0.9184(1)
H19 H 0.4997(2) 0.1145(2) 0.9016(1)
H20 H 0.3618(2) 0.1589(2) 0.8707(1)
H21 H 0.4472(2) 0.1335(2) 0.7419(1)
H22 H 0.4991(2) 0.0236(2) 0.7725(1)
#END
