
#######################################################################
#
#                 Cambridge Crystallographic Data Centre
#                                CCDC
#
#######################################################################
#
# If this CIF has been generated from an entry in the Cambridge
# Structural Database, then it will include bibliographic, chemical,
# crystal, experimental, refinement or atomic coordinate data resulting
# from the CCDC's data processing and validation procedures.
#
#######################################################################

data_CSD_CIF_ZUHXAB01
_audit_creation_date 2011-12-12
_audit_creation_method CSD-ConQuest-V1
_database_code_CSD ZUHXAB01
_database_code_depnum_ccdc_archive 'CCDC 761899'
_chemical_formula_sum 'C17 H16 N8 O8'
_chemical_formula_moiety
;
C17 H16 N8 O8
;
_journal_coden_Cambridge 365
_journal_year 2010
_journal_page_first 21
_journal_name_full 'Azerb.Khim.Zh.(Russ.)(Azerbaidzhan Chem.J.) '
loop_
_publ_author_name
"A.B.Novruzova"
"M.M.Kurbanova"
"A.M.Magerramov"
_chemical_name_systematic
;
1,1'-Pentane-2,4-diylidenebis(2-(2,4-dinitrophenyl)hydrazine)
;
_cell_volume   1033.101
_exptl_crystal_colour 'orange'
_exptl_crystal_density_diffrn 1.48
_exptl_special_details
;
Pn polymorph

;
_exptl_crystal_description 'prism'
_diffrn_ambient_temperature 296
_refine_special_details
;
O1,O2 and O1',O2' disordered over two sites with occupancies 0.50:0.50.

;
#These two values have been output from a single CSD field.
_refine_ls_R_factor_gt 0.0701
_refine_ls_wR_factor_gt 0.0701
_symmetry_cell_setting monoclinic
_symmetry_space_group_name_H-M 'P n'
_symmetry_Int_Tables_number 7
loop_
_symmetry_equiv_pos_site_id
_symmetry_equiv_pos_as_xyz
1 x,y,z
2 1/2+x,-y,1/2+z
_cell_length_a 5.061(2)
_cell_length_b 10.175(4)
_cell_length_c 20.123(8)
_cell_angle_alpha 90
_cell_angle_beta 94.466(9)
_cell_angle_gamma 90
_cell_formula_units_Z 2
loop_
_atom_type_symbol
_atom_type_radius_bond
C 0.68
H 0.23
N 0.68
O 0.68
loop_
_atom_site_label
_atom_site_type_symbol
_atom_site_fract_x
_atom_site_fract_y
_atom_site_fract_z
O1 O -0.3739(13) 0.8345(6) 0.0183(4)
O2 O 0.0010(13) 0.7699(6) 0.0625(3)
O3 O -0.7076(9) 0.6976(4) -0.1981(3)
O4 O -0.4926(9) 0.5527(4) -0.2500(2)
O5 O 0.5984(9) -0.1797(3) 0.1994(2)
O6 O 0.7214(9) -0.2901(3) 0.2868(2)
O7 O 1.4530(11) -0.1671(4) 0.4323(2)
O8 O 1.6631(6) 0.0141(4) 0.41629(16)
N1 N 0.4011(8) 0.4578(3) 0.0144(2)
N2 N 0.2082(8) 0.5549(3) 0.0188(2)
H1 H 0.19680 0.61530 0.05350
N3 N -0.1772(8) 0.7647(3) 0.0181(2)
N4 N -0.5261(8) 0.6194(3) -0.2010(2)
N5 N 0.8597(8) 0.1651(3) 0.14273(19)
N6 N 0.8238(8) 0.0460(3) 0.17360(19)
H2 H 0.69550 -0.01310 0.15730
N7 N 0.7462(7) -0.1962(3) 0.24976(17)
N8 N 1.4890(8) -0.0660(4) 0.40146(18)
C1 C 0.5374(10) 0.4292(4) 0.0690(2)
C2 C 0.748(1) 0.3272(5) 0.0627(3)
H3 H 0.91510 0.36120 0.08250
H4 H 0.76790 0.31190 0.01580
C3 C 0.6907(9) 0.1973(4) 0.0955(2)
C4 C 0.4961(12) 0.4843(6) 0.1353(3)
H5 H 0.31480 0.51120 0.13650
H6 H 0.61020 0.55880 0.14370
H7 H 0.53650 0.41860 0.16890
C5 C 0.4519(12) 0.1217(5) 0.0701(3)
H8 H 0.50020 0.03190 0.06300
H9 H 0.38020 0.15930 0.02890
H10 H 0.32120 0.12530 0.10220
C6 C 0.0326(9) 0.5739(4) -0.0346(2)
C7 C -0.1569(10) 0.6736(3) -0.0366(2)
C8 C -0.3441(10) 0.6866(5) -0.0912(3)
H11 H -0.47260 0.75200 -0.09160
C9 C -0.3364(9) 0.6035(4) -0.1432(2)
C10 C -0.1466(10) 0.5069(4) -0.1434(3)
H12 H -0.14060 0.45250 -0.18040
C11 C 0.0300(9) 0.4902(4) -0.0908(2)
H13 H 0.15310 0.42240 -0.09140
C12 C 0.9813(8) 0.0126(3) 0.2271(2)
C13 C 0.9558(8) -0.1010(3) 0.2654(2)
C14 C 1.1227(10) -0.1269(4) 0.3230(2)
H14 H 1.10140 -0.20310 0.34760
C15 C 1.3119(3) -0.0407(4) 0.34203(6)
C16 C 1.3585(9) 0.0711(4) 0.3042(2)
H15 H 1.49740 0.12780 0.31690
C17 C 1.1975(9) 0.0950(4) 0.2486(2)
H16 H 1.23000 0.16890 0.22330
O9? O -0.3099(15) 0.8645(5) 0.0078(4)
O10? O -0.0630(15) 0.7400(6) 0.0722(2)
#END
