
#######################################################################
#
#                 Cambridge Crystallographic Data Centre
#                                CCDC
#
#######################################################################
#
# If this CIF has been generated from an entry in the Cambridge
# Structural Database, then it will include bibliographic, chemical,
# crystal, experimental, refinement or atomic coordinate data resulting
# from the CCDC's data processing and validation procedures.
#
#######################################################################

data_CSD_CIF_ZUHXEF
_audit_creation_date 1996-06-26
_audit_creation_method CSD-ConQuest-V1
_database_code_CSD ZUHXEF
_database_code_depnum_ccdc_archive 'CCDC 126547'
_chemical_formula_sum 'C11 H10 N4 O4'
_chemical_formula_moiety
;
C11 H10 N4 O4
;
_journal_coeditor_code "IUCr HA1102"
_journal_coden_Cambridge 591
_journal_volume 52
_journal_year 1996
_journal_page_first 1056
_journal_name_full 'Acta Crystallogr.,Sect.C:Cryst.Struct.Commun. '
loop_
_publ_author_name
"S.M.Naidu"
"M.Krishnaiah"
"K.Sivakumar"
"R.P.Sharma"
_chemical_name_systematic
;
1-(2,4-Dinitrophenyl)-3,5-dimethylpyrazole
;
_cell_volume   2409.989
_exptl_crystal_colour 'golden yellow'
_exptl_crystal_density_diffrn 1.445
_exptl_special_details
;
possible biological activity

;
_diffrn_ambient_temperature ?
_diffrn_special_details
;
The study was carried out at room temperature,in the range 283-303K

;
#These two values have been output from a single CSD field.
_refine_ls_R_factor_gt 0.055
_refine_ls_wR_factor_gt 0.055
_symmetry_cell_setting monoclinic
_symmetry_space_group_name_H-M 'P 21/c'
_symmetry_Int_Tables_number 14
loop_
_symmetry_equiv_pos_site_id
_symmetry_equiv_pos_as_xyz
1 x,y,z
2 -x,1/2+y,1/2-z
3 -x,-y,-z
4 x,-1/2-y,-1/2+z
_cell_length_a 20.417(4)
_cell_length_b 7.711(2)
_cell_length_c 16.719(3)
_cell_angle_alpha 90
_cell_angle_beta 113.71(2)
_cell_angle_gamma 90
_cell_formula_units_Z 8
loop_
_atom_type_symbol
_atom_type_radius_bond
C 0.68
H 0.23
N 0.68
O 0.68
loop_
_atom_site_label
_atom_site_type_symbol
_atom_site_fract_x
_atom_site_fract_y
_atom_site_fract_z
O1 O 0.5176(1) 0.1593(3) 0.0971(1)
O2 O 0.6317(1) 0.2026(3) 0.1530(2)
O3 O 0.7675(2) -0.1881(4) 0.0559(2)
O4 O 0.7351(2) -0.4469(5) 0.0270(3)
N1 N 0.5793(2) 0.1091(3) 0.1197(1)
N2 N 0.7253(2) -0.3043(5) 0.0457(2)
N3 N 0.4905(1) -0.1789(3) 0.1335(1)
N4 N 0.4217(1) -0.2051(3) 0.0737(2)
C1 C 0.5923(1) -0.0722(4) 0.1043(2)
C2 C 0.6498(2) -0.1034(4) 0.0841(2)
C3 C 0.6617(2) -0.2711(4) 0.0645(2)
C4 C 0.6178(2) -0.4060(4) 0.0643(2)
C5 C 0.5618(2) -0.3729(4) 0.0869(2)
C6 C 0.5475(1) -0.2057(4) 0.1078(2)
C7 C 0.4933(2) -0.1208(4) 0.2118(2)
C8 C 0.5616(2) -0.0933(5) 0.2887(2)
C9 C 0.4242(2) -0.1088(4) 0.2020(2)
C10 C 0.3817(2) -0.1613(4) 0.1170(2)
C11 C 0.3021(2) -0.1772(5) 0.0747(3)
O5 O 0.9800(1) 0.1515(3) 0.5787(1)
O6 O 0.8671(1) 0.2048(3) 0.5204(2)
O7 O 0.7290(2) -0.1827(5) 0.2879(2)
O8 O 0.7708(2) -0.4266(5) 0.2760(2)
N5 N 0.9182(2) 0.1072(3) 0.5393(2)
N6 N 0.7741(2) -0.2949(5) 0.3140(2)
N7 N 1.0037(1) -0.1873(3) 0.6389(1)
N8 N 1.0731(1) -0.2115(3) 0.6479(2)
C12 C 0.9038(1) -0.0734(4) 0.5094(2)
C13 C 0.8463(2) -0.1003(4) 0.4315(2)
C14 C 0.8353(2) -0.2655(4) 0.3977(2)
C15 C 0.8788(2) -0.4037(4) 0.4391(2)
C16 C 0.9338(2) -0.3745(4) 0.5190(2)
C17 C 0.9474(1) -0.2105(4) 0.5556(2)
C18 C 0.9991(2) -0.13331(4) 0.7140(2)
C19 C 0.9302(2) -0.1085(5) 0.7223(2)
C20 C 1.0679(2) -0.1209(4) 0.7732(2)
C21 C 1.1117(2) -0.1682(4) 0.7308(2)
C22 C 1.1915(2) -0.1806(5) 0.7681(3)
H1 H 0.678(2) -0.021(5) 0.082(2)
H2 H 0.627(2) -0.517(5) 0.050(2)
H3 H 0.531(2) -0.461(5) 0.090(2)
H4 H 0.554(3) -0.051(7) 0.337(3)
H5 H 0.594(2) 0.003(6) 0.280(3)
H6 H 0.583(3) -0.186(7) 0.304(3)
H7 H 0.406(2) -0.075(5) 0.245(3)
H8 H 0.282(3) -0.147(8) 0.105(4)
H9 H 0.290(3) -0.315(9) 0.062(4)
H10 H 0.282(3) -0.083(8) 0.028(4)
H11 H 0.819(2) -0.007(5) 0.402(2)
H12 H 0.870(2) -0.511(5) 0.413(2)
H13 H 0.962(2) -0.466(5) 0.547(2)
H14 H 0.905(3) 0.005(7) 0.694(3)
H15 H 0.905(3) -0.196(7) 0.707(3)
H16 H 0.936(3) -0.069(7) 0.781(3)
H17 H 1.085(2) -0.080(5) 0.835(3)
H18 H 1.206(3) -0.143(8) 0.813(4)
H19 H 1.213(3) -0.090(8) 0.743(4)
H20 H 1.208(3) -0.298(9) 0.765(4)
#END
