
#######################################################################
#
#                 Cambridge Crystallographic Data Centre
#                                CCDC
#
#######################################################################
#
# If this CIF has been generated from an entry in the Cambridge
# Structural Database, then it will include bibliographic, chemical,
# crystal, experimental, refinement or atomic coordinate data resulting
# from the CCDC's data processing and validation procedures.
#
#######################################################################

data_CSD_CIF_ZUKSIH
_audit_creation_date 1996-10-04
_audit_creation_method CSD-ConQuest-V1
_database_code_CSD ZUKSIH
_chemical_formula_sum 'C12 H19 N1 O1'
_chemical_formula_moiety
;
C12 H19 N1 O1
;
_journal_coden_Cambridge 16
_journal_volume 52
_journal_year 1996
_journal_page_first 1773
_journal_name_full 'Tetrahedron '
loop_
_publ_author_name
"F.J.Hoogesteger"
"L.W.Jenneskens"
"H.Kooijman"
"N.Veldman"
"A.L.Spek"
_chemical_name_systematic
;
4-Hydroxylimino-1,1'-bicyclohexylidene
;
_chemical_melting_point 387.15
_cell_volume   1065.807
_exptl_crystal_colour 'white'
_exptl_crystal_density_diffrn 1.204
_diffrn_ambient_temperature 150
_refine_special_details
;
The oxygen atom of the oxime is disordered over two sites with occupancies of 
0.53:0.47.
;
#These two values have been output from a single CSD field.
_refine_ls_R_factor_gt 0.0738
_refine_ls_wR_factor_gt 0.0738
_symmetry_cell_setting triclinic
_symmetry_space_group_name_H-M 'P -1'
_symmetry_Int_Tables_number 2
loop_
_symmetry_equiv_pos_site_id
_symmetry_equiv_pos_as_xyz
1 x,y,z
2 -x,-y,-z
_cell_length_a 6.1699(3)
_cell_length_b 9.6920(7)
_cell_length_c 18.8634(9)
_cell_angle_alpha 81.146(6)
_cell_angle_beta 88.007(4)
_cell_angle_gamma 73.001(6)
_cell_formula_units_Z 4
loop_
_atom_type_symbol
_atom_type_radius_bond
C 0.68
H 0.23
N 0.68
O 0.68
loop_
_atom_site_label
_atom_site_type_symbol
_atom_site_fract_x
_atom_site_fract_y
_atom_site_fract_z
O1 O 0.7513(6) 0.3971(4) 0.4829(2)
O2? O 0.3003(7) 0.4881(4) 0.4508(2)
N1 N 0.5455(4) 0.4144(2) 0.43970(11)
C1 C 0.5854(5) 0.3569(3) 0.38232(13)
C2 C 0.8216(5) 0.2814(3) 0.36148(13)
C3 C 0.8327(5) 0.1471(3) 0.32620(13)
C4 C 0.6559(4) 0.1834(3) 0.26751(13)
C5 C 0.4205(5) 0.2353(3) 0.29846(13)
C6 C 0.3942(5) 0.3741(3) 0.33182(13)
C7 C 0.6993(4) 0.1768(2) 0.19791(13)
C8 C 0.9323(4) 0.1261(3) 0.16706(13)
C9 C 0.9562(4) -0.0021(3) 0.12649(13)
C10 C 0.7768(5) 0.0372(3) 0.06775(12)
C11 C 0.5410(5) 0.0877(3) 0.09871(13)
C12 C 0.5196(5) 0.2148(3) 0.13971(12)
O3 O 0.7483(10) 0.8917(6) 0.4852(3)
O4? O 0.2986(5) 0.9802(3) 0.4539(2)
N2 N 0.5362(4) 0.8966(2) 0.44611(11)
C13 C 0.5649(5) 0.8110(3) 0.39919(12)
C14 C 0.7978(5) 0.7200(3) 0.38368(12)
C15 C 0.8450(4) 0.7456(3) 0.30258(12)
C16 C 0.6581(4) 0.7299(3) 0.25770(12)
C17 C 0.4318(4) 0.8295(3) 0.27506(12)
C18 C 0.3770(5) 0.8004(3) 0.35525(12)
C19 C 0.6889(4) 0.6405(3) 0.20802(12)
C20 C 0.9169(4) 0.5448(3) 0.18754(12)
C21 C 0.9654(4) 0.5877(3) 0.10811(12)
C22 C 0.7774(5) 0.5806(3) 0.06002(13)
C23 C 0.5458(4) 0.6700(3) 0.08227(12)
C24 C 0.5046(4) 0.6269(3) 0.16185(12)
H1 H 0.70310 0.46430 0.49940
H2 H 0.9204(5) 0.2508(3) 0.40474(13)
H3 H 0.8799(5) 0.3507(3) 0.32768(13)
H4 H 0.9852(5) 0.1108(3) 0.30576(13)
H5 H 0.8082(5) 0.0686(3) 0.36296(13)
H6 H 0.3950(5) 0.1576(3) 0.33554(13)
H7 H 0.3053(5) 0.2555(3) 0.25999(13)
H8 H 0.3884(5) 0.4567(3) 0.29312(13)
H9 H 0.2493(5) 0.3975(3) 0.35803(13)
H10 H 1.0463(4) 0.0966(3) 0.20638(13)
H11 H 0.9628(4) 0.2080(3) 0.13404(13)
H12 H 1.1087(4) -0.0293(3) 0.10501(13)
H13 H 0.9405(4) -0.0874(3) 0.16036(13)
H14 H 0.7895(5) -0.0490(3) 0.04396(12)
H15 H 0.8021(5) 0.1158(3) 0.03123(12)
H16 H 0.5099(5) 0.0056(3) 0.13140(13)
H17 H 0.4272(5) 0.1183(3) 0.05933(13)
H18 H 0.5339(5) 0.3004(3) 0.10583(12)
H19 H 0.3677(5) 0.2417(3) 0.16162(12)
H20 H 0.68300 0.95360 0.50940
H21 H 0.8113(5) 0.6156(3) 0.39945(12)
H22 H 0.9112(5) 0.7460(3) 0.41069(12)
H23 H 0.8615(4) 0.8448(3) 0.28912(12)
H24 H 0.9898(4) 0.6746(3) 0.29215(12)
H25 H 0.3120(4) 0.8146(3) 0.24606(12)
H26 H 0.4328(4) 0.9322(3) 0.26213(12)
H27 H 0.2340(5) 0.8728(3) 0.36596(12)
H28 H 0.3566(5) 0.7019(3) 0.36719(12)
H29 H 0.9176(4) 0.4413(3) 0.19638(12)
H30 H 1.0375(4) 0.5555(3) 0.21771(12)
H31 H 0.9797(4) 0.6880(3) 0.10038(12)
H32 H 1.1110(4) 0.5209(3) 0.09510(12)
H33 H 0.7783(5) 0.4777(3) 0.06233(13)
H34 H 0.8060(5) 0.6177(3) 0.00976(13)
H35 H 0.4266(4) 0.6545(3) 0.05328(12)
H36 H 0.5363(4) 0.7750(3) 0.07277(12)
H37 H 0.3568(4) 0.6903(3) 0.17545(12)
H38 H 0.4979(4) 0.5248(3) 0.17034(12)
#END
