
#######################################################################
#
#                 Cambridge Crystallographic Data Centre
#                                CCDC
#
#######################################################################
#
# If this CIF has been generated from an entry in the Cambridge
# Structural Database, then it will include bibliographic, chemical,
# crystal, experimental, refinement or atomic coordinate data resulting
# from the CCDC's data processing and validation procedures.
#
#######################################################################

data_CSD_CIF_ZUKTIK
_audit_creation_date 2015-04-02
_audit_creation_method CSD-ConQuest-V1
_database_code_CSD ZUKTIK
_database_code_depnum_ccdc_archive 'CCDC 1057496'
_chemical_formula_sum 'C24 H30 N2 O6'
_chemical_formula_moiety
;
C24 H30 N2 O6
;
_journal_coden_Cambridge 1078
_journal_year 2015
_journal_name_full 'CSD Communication(Private Communication) '
loop_
_publ_author_name
"Xin Zhang"
_chemical_name_systematic
;
13-(4-(2-(4-nitrophenyl)vinyl)phenyl)-1,4,7,10-tetraoxa-13-azacyclopentadecane
;
_cell_volume   2306.817
_exptl_crystal_density_diffrn 1.274
_diffrn_ambient_temperature 296
_refine_special_details
;
C7B,C8B and C7A,C8A disordered over two sites with occupancies 0.574:0.426.

;
#These two values have been output from a single CSD field.
_refine_ls_R_factor_gt 0.0528
_refine_ls_wR_factor_gt 0.0528
_symmetry_cell_setting monoclinic
_symmetry_space_group_name_H-M 'P 21/n'
_symmetry_Int_Tables_number 14
loop_
_symmetry_equiv_pos_site_id
_symmetry_equiv_pos_as_xyz
1 x,y,z
2 1/2-x,1/2+y,1/2-z
3 -x,-y,-z
4 -1/2+x,-1/2-y,-1/2+z
_cell_length_a 9.7559(17)
_cell_length_b 19.051(3)
_cell_length_c 12.427(2)
_cell_angle_alpha 90
_cell_angle_beta 92.852(2)
_cell_angle_gamma 90
_cell_formula_units_Z 4
loop_
_atom_type_symbol
_atom_type_radius_bond
C 0.68
H 0.23
N 0.68
O 0.68
loop_
_atom_site_label
_atom_site_type_symbol
_atom_site_fract_x
_atom_site_fract_y
_atom_site_fract_z
C1 C 0.17467(19) 0.16881(11) 1.09665(15)
C2 C 0.2542(2) 0.11151(12) 1.12332(17)
H1 H 0.22270 0.07720 1.16930
C3 C 0.3798(2) 0.10548(15) 1.0816(2)
H2 H 0.43380 0.06670 1.10040
C4 C 0.4301(2) 0.15468(18) 1.0126(2)
C5 C 0.3474(3) 0.21196(16) 0.9871(2)
H3 H 0.37850 0.24600 0.94060
C6 C 0.2200(2) 0.21986(12) 1.02893(19)
H4 H 0.16600 0.25890 1.01170
C7 C 0.7815(2) 0.14509(17) 0.8914(2)
C8 C 0.8610(3) 0.08551(16) 0.91318(18)
H5 H 0.82670 0.05130 0.95790
C9 C 0.9882(2) 0.07471(12) 0.87173(16)
H6 H 1.03600 0.03340 0.88760
C10 C 1.04569(19) 0.12559(9) 0.80596(14)
C11 C 0.9642(2) 0.18547(11) 0.78326(18)
H7 H 0.99660 0.22020 0.73850
C12 C 0.8384(2) 0.19353(14) 0.8257(2)
H8 H 0.78890 0.23410 0.80900
C13 C 1.2276(2) 0.16888(10) 0.69328(18)
H9 H 1.32610 0.16240 0.69180
H10 H 1.21160 0.21540 0.72180
C14 C 1.1677(3) 0.16570(11) 0.58012(19)
H11 H 1.06940 0.17320 0.57960
H12 H 1.20760 0.20220 0.53710
C15 C 1.1319(3) 0.08808(14) 0.43352(19)
H13 H 1.16890 0.12030 0.38200
H14 H 1.03400 0.09640 0.43570
C16 C 1.1574(2) 0.01448(14) 0.40017(19)
H15 H 1.14020 -0.01720 0.45910
H16 H 1.09580 0.00220 0.33940
C17 C 1.3384(3) -0.06196(13) 0.35359(18)
H17 H 1.38900 -0.06350 0.28840
H18 H 1.25850 -0.09190 0.34290
C18 C 1.4269(2) -0.08958(11) 0.44530(19)
H19 H 1.46590 -0.13430 0.42570
H20 H 1.50160 -0.05720 0.46180
C19 C 1.4263(2) -0.12122(11) 0.62958(19)
H21 H 1.50470 -0.09050 0.64230
H22 H 1.46010 -0.16830 0.61750
C20 C 1.3405(2) -0.1209(1) 0.72603(17)
H23 H 1.24730 -0.13390 0.70350
H24 H 1.37540 -0.15630 0.77630
C21 C 1.2509(2) -0.00436(9) 0.72969(15)
H25 H 1.15670 -0.02090 0.72450
H26 H 1.27970 0.00580 0.65780
C22 C 1.26345(19) 0.06012(10) 0.79997(15)
H27 H 1.24360 0.04710 0.87300
H28 H 1.35760 0.07650 0.80110
N1 N 0.0414(2) 0.17559(13) 1.14212(18)
N2 N 1.17342(15) 0.11761(8) 0.76582(12)
O1 O -0.0036(2) 0.12562(15) 1.18982(19)
O2 O -0.0229(2) 0.22870(13) 1.1245(3)
O3 O 1.19562(16) 0.09929(8) 0.53637(11)
O4 O 1.29469(15) 0.00777(8) 0.37117(12)
O5 O 1.34758(13) -0.09816(7) 0.53703(11)
O6 O 1.33771(15) -0.05523(7) 0.78021(11)
C23 C 0.5699(4) 0.1303(2) 0.9843(3)
H29 H 0.60680 0.08920 1.01400
C24 C 0.6394(5) 0.1677(2) 0.9171(3)
H30 H 0.60100 0.20790 0.88580
C25? C 0.5548(7) 0.1731(3) 0.9436(4)
H31? H 0.55560 0.21090 0.89640
C26? C 0.6605(7) 0.1288(3) 0.9596(4)
H32? H 0.65990 0.09160 1.00800
#END
