
#######################################################################
#
#                 Cambridge Crystallographic Data Centre
#                                CCDC
#
#######################################################################
#
# If this CIF has been generated from an entry in the Cambridge
# Structural Database, then it will include bibliographic, chemical,
# crystal, experimental, refinement or atomic coordinate data resulting
# from the CCDC's data processing and validation procedures.
#
#######################################################################

data_CSD_CIF_ZUKYOT
_audit_creation_date 1996-10-04
_audit_creation_method CSD-ConQuest-V1
_database_code_CSD ZUKYOT
_chemical_formula_sum 'C12 H14 N2 O4'
_chemical_formula_moiety
;
C12 H14 N2 O4
;
_journal_coden_Cambridge 16
_journal_volume 52
_journal_year 1996
_journal_page_first 3719
_journal_name_full 'Tetrahedron '
loop_
_publ_author_name
"M.J.Beard"
"J.H.Bailey"
"D.T.Cherry"
"M.G.Moloney"
"Sung Bo Shim"
"K.A.Statham"
"M.J.Bamford"
"R.B.Lamont"
_chemical_name_systematic
;
(+)-(2S,4S)-2-Hydroxymethyl-4-(p-nitrophenylmethyl)-5-oxopyrrolidine
;
_chemical_melting_point 449.15
_cell_volume   1344.581
_exptl_crystal_colour 'colorless'
_exptl_crystal_density_diffrn 1.25
_exptl_special_details
;
Melting point range 449.15-450.15K

;
_diffrn_ambient_temperature ?
_diffrn_special_details
;
The study was carried out at room temperature,in the range 283-303K

;
_refine_special_details
;
A disordered solvent molecule was not refined.

;
#These two values have been output from a single CSD field.
_refine_ls_R_factor_gt 0.063
_refine_ls_wR_factor_gt 0.063
_symmetry_cell_setting monoclinic
_symmetry_space_group_name_H-M 'P 21'
_symmetry_Int_Tables_number 4
loop_
_symmetry_equiv_pos_site_id
_symmetry_equiv_pos_as_xyz
1 x,y,z
2 -x,1/2+y,-z
_cell_length_a 4.852(1)
_cell_length_b 26.645(10)
_cell_length_c 10.401(5)
_cell_angle_alpha 90
_cell_angle_beta 90.61(3)
_cell_angle_gamma 90
_cell_formula_units_Z 4
loop_
_atom_type_symbol
_atom_type_radius_bond
C 0.68
H 0.23
N 0.68
O 0.68
loop_
_atom_site_label
_atom_site_type_symbol
_atom_site_fract_x
_atom_site_fract_y
_atom_site_fract_z
O1 O 0.0280(25) -0.12370 1.2535(14)
O2 O -0.1896(32) -0.0675(8) 1.3563(14)
O3 O 0.8924(13) 0.1414(6) 0.8647(6)
O4 O 0.5994(22) 0.0869(7) 0.4052(8)
N1 N -0.0344(29) -0.0798(6) 1.2762(14)
N2 N 0.7575(14) 0.1062(6) 0.6739(7)
C1 C 0.4075(22) -0.0166(6) 1.0363(10)
C2 C 0.2885(26) -0.0535(7) 1.1068(11)
C3 C 0.0986(23) -0.0418(7) 1.1960(11)
C4 C 0.0242(25) 0.0083(8) 1.2198(10)
C5 C 0.1463(22) 0.0448(7) 1.1467(9)
C6 C 0.3430(19) 0.0330(6) 1.0527(8)
C7 C 0.4739(21) 0.0754(6) 0.9798(9)
C8 C 0.6295(17) 0.0630(6) 0.8591(9)
C9 C 0.7721(18) 0.1082(6) 0.8037(8)
C10 C 0.6207(19) 0.0603(6) 0.6266(9)
C11 C 0.4600(19) 0.0429(6) 0.7455(9)
C12 C 0.4345(24) 0.0709(8) 0.5088(10)
C13 C 0.8621(18) 0.3760(6) 0.2524(8)
O5 O 1.1834(19) 0.3864(6) 0.0885(9)
O6 O 1.1057(20) 0.4481(6) 0.2165(9)
O7 O 0.0411(15) 0.1917(6) 0.5535(6)
O8 O 0.3440(18) 0.2429(6) 1.0107(7)
N3 N 1.0624(18) 0.4054(6) 0.1800(9)
N4 N 0.2461(16) 0.2153(6) 0.7410(7)
C14 C 0.6229(20) 0.2995(6) 0.2761(8)
C15 C 0.812(2) 0.3268(6) 0.2116(9)
C16 C 0.739(2) 0.3957(6) 0.3542(10)
C17 C 0.5419(21) 0.3669(6) 0.4189(9)
C18 C 0.4814(17) 0.3186(6) 0.3793(8)
C19 C 0.2717(20) 0.2878(7) 0.4523(9)
C20 C 0.4109(17) 0.2536(6) 0.5553(8)
C21 C 0.2126(20) 0.2172(6) 0.6128(9)
C22 C 0.4747(21) 0.2484(6) 0.7864(8)
C23 C 0.5198(21) 0.2834(6) 0.6727(8)
C24 C 0.3914(28) 0.2750(7) 0.9083(10)
H1 H 0.53870 -0.02480 0.97110
H2 H 0.34050 -0.08780 1.09360
H3 H -0.11310 0.01630 1.28240
H4 H 0.09860 0.07940 1.16000
H5 H 0.60000 0.09240 1.03680
H6 H 0.33150 0.09890 0.95690
H7 H 0.76800 0.03860 0.88080
H8 H 0.75430 0.03540 0.60370
H9 H 0.27960 0.05770 0.74380
H10 H 0.44150 0.00700 0.74890
H11 H 0.32860 0.04170 0.48560
H12 H 0.31050 0.09750 0.53070
H13 H 0.58690 0.26560 0.25030
H14 H 0.90700 0.31310 0.13900
H15 H 0.78410 0.42910 0.38190
H16 H 0.44720 0.38060 0.49140
H17 H 0.16890 0.26750 0.39250
H18 H 0.14500 0.30960 0.49520
H19 H 0.55920 0.23540 0.51640
H20 H 0.63740 0.22890 0.80340
H21 H 0.41560 0.31370 0.68250
H22 H 0.71140 0.29160 0.66440
H23 H 0.53420 0.29810 0.93280
H24 H 0.22670 0.29380 0.89050
#END
