
#######################################################################
#
#                 Cambridge Crystallographic Data Centre
#                                CCDC
#
#######################################################################
#
# If this CIF has been generated from an entry in the Cambridge
# Structural Database, then it will include bibliographic, chemical,
# crystal, experimental, refinement or atomic coordinate data resulting
# from the CCDC's data processing and validation procedures.
#
#######################################################################

data_CSD_CIF_ZUKYUZ
_audit_creation_date 1996-10-04
_audit_creation_method CSD-ConQuest-V1
_database_code_CSD ZUKYUZ
_chemical_formula_sum 'C22 H22 N2 O6'
_chemical_formula_moiety
;
C22 H22 N2 O6
;
_journal_coden_Cambridge 16
_journal_volume 52
_journal_year 1996
_journal_page_first 3719
_journal_name_full 'Tetrahedron '
loop_
_publ_author_name
"M.J.Beard"
"J.H.Bailey"
"D.T.Cherry"
"M.G.Moloney"
"Sung Bo Shim"
"K.A.Statham"
"M.J.Bamford"
"R.B.Lamont"
_chemical_name_systematic
;
(+)-(2R,5S,7S)-7-Ethoxycarbonyl-7-(p-nitrophenylmethyl)-2-phenyl-1-aza-3-oxabi
cyclo(3.3.0)octan-8-one
;
_cell_volume   3992.807
_exptl_crystal_colour 'colorless'
_exptl_crystal_density_diffrn 1.37
_diffrn_ambient_temperature ?
_diffrn_special_details
;
The study was carried out at room temperature,in the range 283-303K

;
#These two values have been output from a single CSD field.
_refine_ls_R_factor_gt 0.064
_refine_ls_wR_factor_gt 0.064
_symmetry_cell_setting monoclinic
_symmetry_space_group_name_H-M 'C 2/c'
_symmetry_Int_Tables_number 15
loop_
_symmetry_equiv_pos_site_id
_symmetry_equiv_pos_as_xyz
1 x,y,z
2 -x,y,1/2-z
3 1/2+x,1/2+y,z
4 1/2-x,1/2+y,1/2-z
5 -x,-y,-z
6 x,-y,-1/2+z
7 -1/2-x,-1/2-y,-z
8 -1/2+x,-1/2-y,-1/2+z
_cell_length_a 32.59(1)
_cell_length_b 8.856(3)
_cell_length_c 14.650(9)
_cell_angle_alpha 90
_cell_angle_beta 109.21(4)
_cell_angle_gamma 90
_cell_formula_units_Z 8
loop_
_atom_type_symbol
_atom_type_radius_bond
C 0.68
H 0.23
N 0.68
O 0.68
loop_
_atom_site_label
_atom_site_type_symbol
_atom_site_fract_x
_atom_site_fract_y
_atom_site_fract_z
O1 O -0.1581(1) -0.1703(3) -0.0614(2)
N1 N -0.1408(1) -0.1519(3) 0.1037(2)
O2 O -0.0981(1) 0.1787(3) -0.0848(2)
O3 O -0.1477(1) 0.1840(3) -0.0102(2)
O4 O -0.1859(1) -0.0640(3) 0.1829(2)
C1 C -0.0032(1) -0.5042(4) 0.1229(3)
C2 C -0.1889(1) -0.3293(4) 0.1545(2)
C3 C -0.1354(1) -0.1209(4) 0.0171(3)
C4 C -0.1138(1) 0.1252(4) -0.0281(3)
C5 C -0.2302(1) -0.3683(5) 0.1564(3)
C6 C -0.0419(1) -0.2331(4) 0.0470(3)
C7 C -0.1148(1) -0.0543(4) 0.1825(2)
C8 C -0.1832(1) -0.1774(4) 0.1144(3)
C9 C 0.0201(1) -0.3720(5) 0.1504(3)
C10 C -0.1508(1) 0.0392(4) 0.2002(3)
O5 O 0.0550(1) -0.6455(4) 0.2153(3)
N2 N 0.0181(1) -0.6486(4) 0.1595(3)
C11 C -0.2019(2) -0.5973(5) 0.2386(3)
O6 O -0.0020(1) -0.7662(4) 0.1309(3)
C12 C -0.0641(1) -0.3697(5) 0.0217(3)
C13 C -0.1548(1) -0.4271(4) 0.1943(3)
C14 C -0.0450(1) -0.5055(4) 0.0592(3)
C15 C -0.0613(1) -0.0875(4) -0.0015(3)
C16 C 0.0003(1) -0.2371(5) 0.1116(3)
C17 C -0.0968(1) -0.0155(4) 0.0330(2)
C18 C -0.0821(1) 0.0220(4) 0.1428(2)
C19 C -0.1614(1) -0.5613(4) 0.2374(3)
C20 C -0.2363(1) -0.5030(5) 0.1986(3)
C21 C -0.1683(2) 0.3162(6) -0.0666(4)
C22 C -0.2080(2) 0.3510(7) -0.0438(3)
H1 H -0.25420 -0.30170 0.12750
H2 H -0.10020 -0.11390 0.23850
H3 H -0.20550 -0.16070 0.05340
H4 H 0.04940 -0.37420 0.19430
H5 H -0.15840 0.12240 0.15590
H6 H -0.14210 0.07720 0.26520
H7 H -0.20630 -0.69080 0.26720
H8 H -0.09340 -0.36880 -0.02250
H9 H -0.12640 -0.40070 0.19280
H10 H -0.06050 -0.59910 0.04230
H11 H -0.03840 -0.01530 0.00740
H12 H -0.07390 -0.10640 -0.06960
H13 H 0.01590 -0.14370 0.12990
H14 H -0.08250 0.12930 0.15200
H15 H -0.05320 -0.01460 0.17450
H16 H -0.13750 -0.62840 0.26650
H17 H -0.26450 -0.52950 0.20110
H18 H -0.14880 0.40060 -0.05100
H19 H -0.17540 0.29450 -0.13420
H20 H -0.22210 0.43730 -0.08060
H21 H -0.20040 0.37260 0.02390
H22 H -0.22730 0.26590 -0.05990
#END
