
#######################################################################
#
#                 Cambridge Crystallographic Data Centre
#                                CCDC
#
#######################################################################
#
# If this CIF has been generated from an entry in the Cambridge
# Structural Database, then it will include bibliographic, chemical,
# crystal, experimental, refinement or atomic coordinate data resulting
# from the CCDC's data processing and validation procedures.
#
#######################################################################

data_CSD_CIF_ZUKYAF
_audit_creation_date 1996-10-04
_audit_creation_method CSD-ConQuest-V1
_database_code_CSD ZUKYAF
_chemical_formula_sum 'C22 H28 N2 O6'
_chemical_formula_moiety
;
C22 H28 N2 O6
;
_journal_coden_Cambridge 16
_journal_volume 52
_journal_year 1996
_journal_page_first 3283
_journal_name_full 'Tetrahedron '
loop_
_publ_author_name
"J.-B.Behr"
"A.Defoin"
"J.Pires"
"J.Streith"
"L.Macko"
"M.Zehnder"
_chemical_name_systematic
;
Benzyl 
(3S,6S)-6c-((5'S)-5'-(t-butyloxycarbonyl)-2'-oxo-pyrrolidin-1'-yl)-3r-methyl-3
,6-dihydro-2H-1,2-oxazine-2-carboxylate
;
_chemical_melting_point 380.15
_cell_volume   1122.048
_exptl_crystal_colour 'yellow'
_exptl_crystal_density_diffrn 1.233
_diffrn_ambient_temperature ?
_diffrn_special_details
;
The study was carried out at room temperature,in the range 283-303K

;
#These two values have been output from a single CSD field.
_refine_ls_R_factor_gt 0.037
_refine_ls_wR_factor_gt 0.037
_symmetry_cell_setting monoclinic
_symmetry_space_group_name_H-M 'P 21'
_symmetry_Int_Tables_number 4
loop_
_symmetry_equiv_pos_site_id
_symmetry_equiv_pos_as_xyz
1 x,y,z
2 -x,1/2+y,-z
_cell_length_a 10.29
_cell_length_b 8.969
_cell_length_c 12.759
_cell_angle_alpha 90
_cell_angle_beta 107.66(2)
_cell_angle_gamma 90
_cell_formula_units_Z 2
loop_
_atom_type_symbol
_atom_type_radius_bond
C 0.68
H 0.23
N 0.68
O 0.68
loop_
_atom_site_label
_atom_site_type_symbol
_atom_site_fract_x
_atom_site_fract_y
_atom_site_fract_z
O1 O 0.0808(1) -0.2210(2) 0.3029(1)
O2 O 0.1959(2) -0.3296(2) 0.1989(1)
O3 O 0.2404(2) -0.0094(3) -0.0577(1)
O4 O 0.2388(1) 0.1746(2) 0.2057(1)
O5 O 0.5066(2) 0.4230(2) 0.3197(1)
O6 O 0.3715(1) 0.3765(2) 0.1469(1)
N1 N 0.1885(2) -0.0369(2) 0.1024(1)
N2 N 0.3350(2) 0.2551(2) 0.2884(1)
C1 C 0.1041(2) -0.3395(3) 0.3860(2)
C2 C 0.2547(3) -0.3525(4) 0.4446(2)
C3 C 0.0435(4) -0.4846(5) 0.3327(3)
C4 C 0.0289(4) -0.2817(5) 0.4624(3)
C5 C 0.1291(2) -0.2305(3) 0.2178(2)
C6 C 0.0813(2) -0.0953(3) 0.1436(2)
C7 C -0.0293(2) -0.1418(4) 0.0367(2)
C8 C 0.0367(3) -0.1451(4) -0.0494(2)
C9 C 0.1665(2) -0.0561(3) -0.0071(2)
C10 C 0.3008(2) 0.0473(3) 0.1705(2)
C11 C 0.3862(2) -0.0383(3) 0.2689(2)
C12 C 0.4214(2) 0.0189(3) 0.3688(2)
C13 C 0.3859(3) 0.1737(3) 0.3918(2)
C14 C 0.2839(4) 0.1742(5) 0.4558(3)
C15 C 0.4137(2) 0.3562(3) 0.2556(2)
C16 C 0.4410(2) 0.4901(3) 0.1048(2)
C17 C 0.3794(2) 0.4900(3) -0.0183(2)
C18 C 0.3432(3) 0.6221(4) -0.0745(3)
C19 C 0.2868(4) 0.6199(6) -0.1890(4)
C20 C 0.2657(4) 0.4881(7) -0.2448(3)
C21 C 0.3011(3) 0.3568(5) -0.1897(2)
C22 C 0.3587(3) 0.3576(3) -0.0769(2)
H1 H 0.27050 -0.43330 0.50100
H2 H 0.28940 -0.25580 0.48110
H3 H 0.30360 -0.37750 0.39000
H4 H 0.05980 -0.56430 0.38980
H5 H -0.05690 -0.47150 0.29740
H6 H 0.08720 -0.51300 0.27550
H7 H 0.03800 -0.35460 0.52350
H8 H 0.06880 -0.18370 0.49380
H9 H -0.06960 -0.26820 0.42060
H10 H 0.05370 -0.01900 0.18960
H11 H -0.06540 -0.24330 0.04560
H12 H -0.10550 -0.06840 0.01800
H13 H 0.05820 -0.25020 -0.06460
H14 H -0.02400 -0.09920 -0.11820
H15 H 0.36170 0.07650 0.12600
H16 H 0.41690 -0.14150 0.25820
H17 H 0.47460 -0.04440 0.43170
H18 H 0.47010 0.22580 0.43690
H19 H 0.32210 0.11710 0.52580
H20 H 0.26510 0.27900 0.47290
H21 H 0.19730 0.12580 0.41070
H22 H 0.42770 0.58970 0.13540
H23 H 0.54060 0.46730 0.12500
H24 H 0.35730 0.71880 -0.03370
H25 H 0.26150 0.71620 -0.22980
H26 H 0.22420 0.48850 -0.32620
H27 H 0.28540 0.26070 -0.23100
H28 H 0.38610 0.26140 -0.03700
#END
