
#######################################################################
#
#                 Cambridge Crystallographic Data Centre
#                                CCDC
#
#######################################################################
#
# If this CIF has been generated from an entry in the Cambridge
# Structural Database, then it will include bibliographic, chemical,
# crystal, experimental, refinement or atomic coordinate data resulting
# from the CCDC's data processing and validation procedures.
#
#######################################################################

data_CSD_CIF_ZULKEY
_audit_creation_date 2015-09-01
_audit_creation_method CSD-ConQuest-V1
_database_code_CSD ZULKEY
_database_code_depnum_ccdc_archive 'CCDC 1421742'
_chemical_formula_sum 'C22 H22 N2 O10'
_chemical_formula_moiety
;
C22 H22 N2 O10
;
_journal_coden_Cambridge 24
_journal_volume 56
_journal_year 2015
_journal_page_first 3220
_journal_name_full 'Tetrahedron Lett. '
loop_
_publ_author_name
"Xiaoyong Li"
"V.S.Babu"
"Y.Kishi"
_chemical_name_systematic
;
(4-(((4-Methoxybenzyl)oxy)methyl)-4-methyl-5-oxotetrahydrofuran-2-yl)methyl 
3,5-dinitrobenzoate
;
_cell_volume   2157.617
_exptl_crystal_colour 'colorless'
_exptl_crystal_density_diffrn 1.46
_exptl_special_details
;
Absolute configuration

;
_exptl_crystal_description 'needle'
_diffrn_ambient_temperature 100
#These two values have been output from a single CSD field.
_refine_ls_R_factor_gt 0.0283
_refine_ls_wR_factor_gt 0.0283
_symmetry_cell_setting monoclinic
_symmetry_space_group_name_H-M 'P 21'
_symmetry_Int_Tables_number 4
loop_
_symmetry_equiv_pos_site_id
_symmetry_equiv_pos_as_xyz
1 x,y,z
2 -x,1/2+y,-z
_cell_length_a 8.1952(2)
_cell_length_b 24.8084(5)
_cell_length_c 10.6160(2)
_cell_angle_alpha 90
_cell_angle_beta 91.480(1)
_cell_angle_gamma 90
_cell_formula_units_Z 4
loop_
_atom_type_symbol
_atom_type_radius_bond
C 0.68
H 0.23
N 0.68
O 0.68
loop_
_atom_site_label
_atom_site_type_symbol
_atom_site_fract_x
_atom_site_fract_y
_atom_site_fract_z
C1 C -0.4078(2) 0.47378(7) 0.02717(16)
H1 H -0.45070 0.45390 0.09520
C2 C -0.4379(2) 0.45777(7) -0.09562(17)
C3 C -0.3771(2) 0.48502(7) -0.19790(16)
H2 H -0.39920 0.47350 -0.28190
C4 C -0.2824(2) 0.53004(7) -0.17155(16)
C5 C -0.2493(2) 0.54808(7) -0.05039(16)
H3 H -0.18420 0.57930 -0.03580
C6 C -0.31336(19) 0.51957(7) 0.04960(16)
C7 C -0.28121(19) 0.53524(6) 0.18352(16)
C8 C -0.13477(19) 0.59647(7) 0.31505(15)
H4 H -0.21400 0.58570 0.37930
H5 H -0.12070 0.63610 0.31960
C9 C 0.0270(2) 0.56915(6) 0.34219(14)
H6 H 0.01100 0.52940 0.35100
C10 C 0.11505(19) 0.59160(7) 0.45917(14)
H7 H 0.09730 0.56830 0.53320
H8 H 0.07640 0.62850 0.47820
C11 C 0.29528(19) 0.59213(6) 0.42498(14)
C12 C 0.2873(2) 0.59189(6) 0.28136(15)
C13 C 0.3867(2) 0.64193(7) 0.47302(17)
H9 H 0.33100 0.67440 0.44200
H10 H 0.49860 0.64130 0.44260
H11 H 0.38940 0.64200 0.56540
C14 C 0.3877(2) 0.54198(6) 0.46932(15)
H12 H 0.49970 0.54250 0.43660
H13 H 0.39560 0.54140 0.56250
C15 C 0.3938(2) 0.44793(7) 0.45915(17)
H14 H 0.40790 0.44620 0.55200
H15 H 0.50340 0.44940 0.42220
C16 C 0.30456(19) 0.39831(6) 0.41214(16)
C17 C 0.2903(2) 0.38718(7) 0.28331(16)
H16 H 0.33540 0.41160 0.22470
C18 C 0.2118(2) 0.34134(7) 0.23971(15)
H17 H 0.20250 0.33440 0.15180
C19 C 0.14598(19) 0.30519(6) 0.32585(16)
C20 C 0.1596(2) 0.31526(7) 0.45414(16)
H18 H 0.11570 0.29070 0.51290
C21 C 0.2387(2) 0.36210(7) 0.49575(15)
H19 H 0.24750 0.36920 0.58360
C22 C 0.0154(2) 0.22070(7) 0.36016(18)
H20 H -0.03690 0.19120 0.31300
H21 H -0.06290 0.23650 0.41780
H22 H 0.10960 0.20680 0.40870
N1 N -0.53991(17) 0.40947(6) -0.11789(15)
N2 N -0.21563(19) 0.56056(6) -0.27789(14)
O1 O -0.57021(16) 0.38117(5) -0.02763(13)
O2 O -0.58642(16) 0.40063(5) -0.22660(13)
O3 O -0.24720(18) 0.54437(6) -0.38426(12)
O4 O -0.13205(19) 0.60030(6) -0.25322(13)
O5 O -0.19692(14) 0.58159(5) 0.19134(11)
O6 O -0.32194(14) 0.50890(5) 0.27196(11)
O7 O 0.13470(14) 0.58051(4) 0.23814(10)
O8 O 0.39648(14) 0.60012(5) 0.20985(11)
O9 O 0.30349(13) 0.49513(4) 0.42471(10)
O10 O 0.06844(15) 0.26095(5) 0.27439(11)
C23 C 0.7325(2) 0.35473(6) 0.52331(16)
H23 H 0.77350 0.37520 0.59280
C24 C 0.7682(2) 0.36916(7) 0.40133(17)
C25 C 0.7114(2) 0.34097(7) 0.29685(16)
H24 H 0.73740 0.35150 0.21370
C26 C 0.6143(2) 0.29637(7) 0.31997(16)
C27 C 0.57387(19) 0.28010(6) 0.44002(16)
H25 H 0.50590 0.24960 0.45230
C28 C 0.63543(19) 0.30961(7) 0.54216(16)
C29 C 0.59835(19) 0.29471(6) 0.67495(15)
C30 C 0.4493(2) 0.23272(7) 0.79904(15)
H26 H 0.53230 0.24250 0.86450
H27 H 0.43820 0.19300 0.79800
C31 C 0.28802(19) 0.25799(7) 0.82985(15)
H28 H 0.30040 0.29790 0.83830
C32 C 0.21366(19) 0.23461(7) 0.94837(15)
H29 H 0.24010 0.25740 1.02280
H30 H 0.25400 0.19760 0.96460
C33 C 0.02952(19) 0.23454(6) 0.91890(14)
C34 C 0.0223(2) 0.23461(6) 0.77535(15)
C35 C -0.0587(2) 0.18526(7) 0.96971(17)
H31 H -0.01070 0.15250 0.93490
H32 H -0.17460 0.18710 0.94510
H33 H -0.04730 0.18460 1.06180
C36 C -0.05764(19) 0.28480(7) 0.96636(15)
H34 H -0.17240 0.28490 0.93480
H35 H -0.05780 0.28460 1.05960
C37 C -0.0615(2) 0.37895(7) 0.96177(16)
H36 H -0.06570 0.38010 1.05480
H37 H -0.17490 0.37810 0.92730
C38 C 0.0249(2) 0.42823(7) 0.91450(16)
C39 C 0.0399(2) 0.43702(7) 0.78586(16)
H38 H -0.00610 0.41180 0.72770
C40 C 0.1204(2) 0.48183(7) 0.74097(16)
H39 H 0.12950 0.48720 0.65280
C41 C 0.1881(2) 0.51890(7) 0.82566(16)
C42 C 0.1718(2) 0.51159(7) 0.95477(15)
H40 H 0.21540 0.53730 1.01280
C43 C 0.0907(2) 0.46602(7) 0.99754(15)
H41 H 0.08030 0.46070 1.08560
C44 C 0.3371(2) 0.60074(7) 0.85692(17)
H42 H 0.39220 0.62860 0.80840
H43 H 0.41560 0.58380 0.91580
H44 H 0.24870 0.61710 0.90420
N3 N 0.87106(17) 0.41717(6) 0.38194(14)
N4 N 0.55259(18) 0.26449(6) 0.21149(14)
O11 O 0.90284(16) 0.44546(5) 0.47389(13)
O12 O 0.91699(16) 0.42592(5) 0.27531(12)
O13 O 0.58393(17) 0.28052(6) 0.10609(12)
O14 O 0.47283(18) 0.22378(5) 0.23356(12)
O15 O 0.50128(14) 0.25126(5) 0.67740(11)
O16 O 0.64838(14) 0.31913(5) 0.76562(11)
O17 O 0.17039(14) 0.24518(4) 0.72826(10)
O18 O -0.09378(14) 0.22554(5) 0.70627(11)
O19 O 0.02362(13) 0.33174(4) 0.92334(11)
O20 O 0.27122(16) 0.56098(5) 0.77321(11)
#END
