
#######################################################################
#
#                 Cambridge Crystallographic Data Centre
#                                CCDC
#
#######################################################################
#
# If this CIF has been generated from an entry in the Cambridge
# Structural Database, then it will include bibliographic, chemical,
# crystal, experimental, refinement or atomic coordinate data resulting
# from the CCDC's data processing and validation procedures.
#
#######################################################################

data_CSD_CIF_ZUMBIU
_audit_creation_date 2015-09-02
_audit_creation_method CSD-ConQuest-V1
_database_code_CSD ZUMBIU
_database_code_depnum_ccdc_archive 'CCDC 944675'
_chemical_formula_sum 'C37 H42 N2 O12'
_chemical_formula_moiety
;
C37 H42 N2 O12
;
_journal_coden_Cambridge 35
_journal_volume 78
_journal_year 2013
_journal_page_first 10968
_journal_name_full 'J.Org.Chem. '
loop_
_publ_author_name
"C.Aydillo"
"C.D.Navo"
"J.H.Busto"
"F.Corzana"
"M.M.Zurbano"
"A.Avenoza"
"J.M.Peregrina"
_chemical_name_systematic
;
methyl 
3-(4,5-bis(benzyloxy)-6-((benzyloxy)methyl)-3-nitrotetrahydro-2H-pyran-2-yl)-7
-methoxy-7,7a-dimethyl-5-oxotetrahydro[1,3]oxazolo[4,3-b][1,3]oxazole-3-carbox
ylate
;
_cell_volume   1788.563
_exptl_crystal_colour 'colorless'
_exptl_crystal_density_diffrn 1.312
_exptl_crystal_description 'prism'
_diffrn_ambient_temperature 173
#These two values have been output from a single CSD field.
_refine_ls_R_factor_gt 0.0565
_refine_ls_wR_factor_gt 0.0565
_symmetry_cell_setting triclinic
_symmetry_space_group_name_H-M 'P 1'
_symmetry_Int_Tables_number 1
loop_
_symmetry_equiv_pos_site_id
_symmetry_equiv_pos_as_xyz
1 x,y,z
_cell_length_a 10.9237(5)
_cell_length_b 13.2890(6)
_cell_length_c 13.9727(5)
_cell_angle_alpha 63.682(2)
_cell_angle_beta 81.338(2)
_cell_angle_gamma 81.120(2)
_cell_formula_units_Z 2
loop_
_atom_type_symbol
_atom_type_radius_bond
C 0.68
H 0.23
N 0.68
O 0.68
loop_
_atom_site_label
_atom_site_type_symbol
_atom_site_fract_x
_atom_site_fract_y
_atom_site_fract_z
O1 O 0.5755(2) 0.39613(17) 0.59327(17)
O2 O 0.4362(2) 0.18023(17) 0.74048(18)
O3 O 0.6406(2) 0.2973(2) 0.44130(19)
O4 O 0.5556(2) 0.67012(19) 0.4612(2)
O5 O 0.5483(2) 0.1849(2) 0.91601(19)
O6 O 0.3165(2) 0.4213(2) 0.4905(2)
O7 O 0.2336(2) 0.4892(2) 0.7106(2)
N1 N 0.3876(3) 0.5759(2) 0.4909(3)
O8 O 0.6643(3) 0.4501(2) 0.7891(2)
N2 N 0.5507(4) 0.4531(3) 0.7947(3)
C1 C 0.5626(3) 0.2005(3) 0.7358(3)
H1 H 0.61460 0.12820 0.75970
O9 O 0.4049(3) 0.5532(2) 0.3420(2)
C2 C 0.6096(3) 0.2766(3) 0.6215(3)
H2 H 0.70060 0.26460 0.61680
O10 O 0.4789(3) 0.5243(3) 0.8119(3)
C3 C 0.4672(3) 0.4159(3) 0.6551(3)
H3 H 0.40290 0.37390 0.65180
O11 O 0.2742(3) 0.6670(2) 0.6561(3)
C4 C 0.5768(3) 0.2570(3) 0.8061(3)
H4 H 0.66350 0.27360 0.79580
C5 C 0.5682(3) 0.2447(3) 0.5407(3)
H5 H 0.57970 0.16350 0.56580
H6 H 0.48070 0.26960 0.53170
C6 C 0.4927(3) 0.3688(3) 0.7729(3)
H7 H 0.41300 0.35360 0.81700
C7 C 0.4575(3) -0.0256(3) 0.7993(3)
O12 O 0.4470(4) 0.7359(3) 0.2242(3)
C8 C 0.6733(4) 0.3405(3) 0.2538(3)
C9 C 0.4211(3) 0.5434(3) 0.5997(3)
C10 C 0.5873(4) 0.2976(3) 0.3541(3)
H8 H 0.50900 0.34500 0.34300
H9 H 0.57060 0.22160 0.37120
C11 C 0.3658(4) 0.5076(3) 0.4472(3)
C12 C 0.3036(4) 0.5747(3) 0.6604(3)
C13 C 0.6017(4) 0.1141(4) 1.0960(3)
C14 C 0.5601(4) -0.0952(3) 0.8480(3)
H10 H 0.59820 -0.07950 0.89430
C15 C 0.4502(4) 0.6747(3) 0.4118(3)
C16 C 0.4027(3) 0.0728(3) 0.8234(3)
H11 H 0.31270 0.07390 0.83310
H12 H 0.43050 0.06200 0.89030
C17 C 0.5229(4) 0.6245(3) 0.5734(3)
H13 H 0.49100 0.68450 0.59480
H14 H 0.59520 0.58360 0.61150
C18 C 0.8011(4) 0.3187(4) 0.2560(4)
H15 H 0.83490 0.27830 0.32140
C19 C 0.1129(4) 0.5137(4) 0.7590(4)
H16 H 0.12330 0.54400 0.80790
H17 H 0.07260 0.44560 0.79730
H18 H 0.06280 0.56780 0.70410
C20 C 0.6067(4) -0.1887(3) 0.8280(4)
H19 H 0.67590 -0.23450 0.86060
C21 C 0.4050(4) -0.0503(4) 0.7300(4)
H20 H 0.33740 -0.00370 0.69510
C22 C 0.5510(4) -0.2127(4) 0.7609(5)
H21 H 0.58080 -0.27600 0.74900
C23 C 0.6179(4) 0.5940(4) 0.3082(4)
H22 H 0.62740 0.56180 0.25780
H23 H 0.63800 0.53640 0.37720
H24 H 0.67280 0.65210 0.28430
C24 C 0.5882(5) 0.2169(4) 0.9906(3)
H25 H 0.52780 0.27370 1.00090
H26 H 0.66730 0.24860 0.96300
C25 C 0.6240(5) 0.4008(4) 0.1556(3)
H27 H 0.53820 0.41620 0.15310
C26 C 0.8291(7) 0.4157(5) 0.0649(5)
H28 H 0.88190 0.44030 0.00190
C27 C 0.6656(5) 0.0158(4) 1.1038(5)
H29 H 0.69880 0.01090 1.04050
C28 C 0.5493(6) 0.1240(4) 1.1886(4)
H30 H 0.50370 0.19070 1.18470
C29 C 0.4863(4) 0.6435(3) 0.3165(3)
C30 C 0.4515(4) -0.1442(5) 0.7111(5)
H31 H 0.41440 -0.16020 0.66440
C31 C 0.3680(4) 0.7840(3) 0.3888(5)
H32 H 0.33960 0.78960 0.45480
H33 H 0.29770 0.78530 0.35430
H34 H 0.41460 0.84650 0.34250
C32 C 0.7026(7) 0.4386(4) 0.0603(4)
H35 H 0.66960 0.47870 -0.00550
C33 C 0.6412(8) -0.0662(5) 1.2865(6)
H36 H 0.66130 -0.12710 1.35050
C34 C 0.6839(7) -0.0719(6) 1.1929(7)
H37 H 0.72600 -0.13820 1.19270
C35 C 0.8784(5) 0.3563(5) 0.1625(5)
H38 H 0.96420 0.34180 0.16500
C36 C 0.5666(8) 0.0296(6) 1.2905(4)
H39 H 0.53130 0.03110 1.35480
C37 C 0.4849(8) 0.7272(6) 0.1240(4)
H40 H 0.57320 0.73020 0.10790
H41 H 0.44300 0.78860 0.06750
H42 H 0.46350 0.65700 0.13020
O13 O -0.0515(2) 0.29996(17) 0.53034(18)
O14 O 0.0934(2) 0.08102(17) 0.69231(17)
O15 O 0.1384(2) 0.25915(19) 0.36885(17)
O16 O 0.0689(2) 0.1914(2) 0.83349(18)
O17 O -0.1819(2) 0.06752(19) 0.81020(19)
O18 O 0.1215(2) -0.1956(2) 0.8276(2)
O19 O -0.0863(3) -0.0589(2) 0.9528(2)
O20 O -0.1197(3) -0.1921(2) 0.6642(2)
O21 O 0.0769(3) -0.0572(2) 0.4801(2)
O22 O 0.2481(3) 0.0064(2) 0.4769(2)
O23 O -0.1763(2) -0.0067(2) 0.5815(2)
N3 N 0.1347(3) 0.0107(2) 0.4885(2)
N4 N -0.0669(2) -0.0932(2) 0.8095(2)
C38 C 0.1014(3) 0.2009(2) 0.6582(2)
H43 H 0.18740 0.20850 0.66440
C39 C 0.0784(3) 0.2707(3) 0.5412(3)
H44 H 0.12030 0.33970 0.51270
C40 C 0.1349(3) 0.2000(3) 0.4813(2)
H45 H 0.21990 0.17020 0.50100
C41 C 0.0198(3) 0.2436(3) 0.7322(3)
H46 H 0.01850 0.32490 0.70310
H47 H -0.06470 0.22520 0.73970
C42 C 0.0090(3) 0.0606(2) 0.6361(2)
H48 H -0.06970 0.10600 0.63990
C43 C -0.0630(3) 0.5048(3) 0.4630(3)
O24 O -0.0148(3) -0.2373(2) 1.0722(2)
C44 C 0.2492(3) 0.3821(3) 0.2058(3)
C45 C -0.0157(3) -0.0649(3) 0.6981(3)
C46 C -0.0832(3) 0.4073(3) 0.4425(3)
H49 H -0.16980 0.41290 0.43090
H50 H -0.03290 0.41140 0.37770
C47 C 0.0481(4) 0.1459(3) 1.0200(3)
C48 C -0.1164(3) -0.0183(3) 0.8514(3)
C49 C 0.0054(3) -0.1904(3) 0.8854(3)
C50 C -0.1087(3) -0.0970(3) 0.6459(3)
C51 C -0.0134(4) 0.2046(3) 0.9167(3)
H51 H -0.09010 0.17220 0.92450
H52 H -0.03360 0.28410 0.89930
C52 C 0.0576(3) 0.1015(3) 0.5159(2)
H53 H -0.01460 0.12860 0.47400
C53 C 0.1760(4) 0.1331(3) 1.0199(3)
H54 H 0.22570 0.16380 0.95560
C54 C 0.0368(4) 0.5680(3) 0.4120(3)
H55 H 0.09350 0.54970 0.36400
C55 C 0.2416(4) 0.3373(3) 0.1350(3)
H56 H 0.23500 0.26050 0.16080
C56 C -0.0276(4) 0.6863(3) 0.5031(4)
H57 H -0.01660 0.74750 0.51540
C57 C 0.0529(4) 0.6584(3) 0.4320(3)
H58 H 0.11970 0.70070 0.39620
C58 C 0.1052(3) -0.1490(3) 0.7177(3)
H59 H 0.09710 -0.20810 0.69690
H60 H 0.17640 -0.10960 0.67540
C59 C -0.0250(4) 0.1041(4) 1.1171(3)
H61 H -0.11130 0.11390 1.11850
C60 C 0.2613(4) 0.4958(4) 0.1650(4)
H62 H 0.26580 0.52820 0.21110
C61 C -0.1425(4) 0.5329(3) 0.5374(3)
H63 H -0.20840 0.49010 0.57480
C62 C 0.2527(4) 0.3106(4) 0.3244(3)
H64 H 0.32210 0.25250 0.33720
H65 H 0.26440 0.35700 0.35910
C63 C 0.2437(5) 0.4047(4) 0.0270(3)
H66 H 0.23530 0.37390 -0.01960
C64 C 0.0157(4) -0.1513(3) 0.9729(3)
C65 C -0.2571(4) -0.0265(4) 0.5197(4)
H67 H -0.21060 -0.07020 0.48470
H68 H -0.29000 0.04450 0.46690
H69 H -0.32430 -0.06680 0.56670
C66 C -0.0538(4) -0.2992(3) 0.9261(3)
H70 H -0.06480 -0.31360 0.86660
H71 H -0.13320 -0.29290 0.96430
H72 H -0.00100 -0.36010 0.97340
C67 C 0.2667(5) 0.5626(4) 0.0541(4)
H73 H 0.27630 0.63910 0.02650
C68 C 0.0316(5) 0.0475(4) 1.2125(3)
H74 H -0.01740 0.01980 1.27750
C69 C 0.2304(4) 0.0743(4) 1.1159(4)
H75 H 0.31660 0.06350 1.11510
C70 C 0.1586(5) 0.0322(4) 1.2114(3)
H76 H 0.19580 -0.00650 1.27530
C71 C 0.2580(4) 0.5166(4) -0.0125(3)
H77 H 0.26180 0.56130 -0.08610
C72 C 0.1341(4) -0.1028(3) 0.9622(4)
H78 H 0.12780 -0.06960 1.01160
H79 H 0.14900 -0.04610 0.89030
H80 H 0.20170 -0.16160 0.97790
C73 C -0.1257(4) 0.6222(4) 0.5568(4)
H81 H -0.18060 0.63970 0.60620
C74 C -0.0020(8) -0.2188(5) 1.1642(4)
H82 H 0.08430 -0.23040 1.17630
H83 H -0.04770 -0.27080 1.22610
H84 H -0.03410 -0.14290 1.15140
#END
