
#######################################################################
#
#                 Cambridge Crystallographic Data Centre
#                                CCDC
#
#######################################################################
#
# If this CIF has been generated from an entry in the Cambridge
# Structural Database, then it will include bibliographic, chemical,
# crystal, experimental, refinement or atomic coordinate data resulting
# from the CCDC's data processing and validation procedures.
#
#######################################################################

data_CSD_CIF_ZUMJAU
_audit_creation_date 2015-09-02
_audit_creation_method CSD-ConQuest-V1
_database_code_CSD ZUMJAU
_database_code_depnum_ccdc_archive 'CCDC 1421947'
_chemical_formula_sum 'C22 H40 N4 O7'
_chemical_formula_moiety
;
C22 H40 N4 O7
;
_journal_coden_Cambridge 35
_journal_volume 75
_journal_year 2010
_journal_page_first 4796
_journal_name_full 'J.Org.Chem. '
loop_
_publ_author_name
"Dan Yang"
"Xiao-Wei Chang"
"Dan-Wei Zhang"
"Ze-Feng Jiang"
"Ke-Sheng Song"
"Yu-Hui Zhang"
"Nian-Yong Zhu"
"Lin-Hong Weng"
"Min-Qin Chen"
_chemical_name_systematic
;
N-((1-(Isobutylamino)-3-methyl-1-oxobutan-2-yl)oxy)-1-(((2-((isobutyrylamino)o
xy)-3-methylbutanoyl)amino)oxy)cyclopropanecarboxamide
;
_cell_volume   5429.656
_exptl_crystal_colour 'colorless'
_exptl_crystal_density_diffrn 1.156
_exptl_crystal_description 'prismatic'
_diffrn_ambient_temperature 295
#These two values have been output from a single CSD field.
_refine_ls_R_factor_gt 0.0856
_refine_ls_wR_factor_gt 0.0856
_symmetry_cell_setting tetragonal
_symmetry_space_group_name_H-M 'P 41 21 2'
_symmetry_Int_Tables_number 92
loop_
_symmetry_equiv_pos_site_id
_symmetry_equiv_pos_as_xyz
1 x,y,z
2 -x,-y,1/2+z
3 1/2-y,1/2+x,1/4+z
4 1/2+y,1/2-x,3/4+z
5 1/2-x,1/2+y,1/4-z
6 1/2+x,1/2-y,3/4-z
7 y,x,-z
8 -y,-x,1/2-z
_cell_length_a 9.2000(19)
_cell_length_b 9.200(3)
_cell_length_c 64.15(2)
_cell_angle_alpha 90
_cell_angle_beta 90
_cell_angle_gamma 90
_cell_formula_units_Z 8
loop_
_atom_type_symbol
_atom_type_radius_bond
C 0.68
H 0.23
N 0.68
O 0.68
loop_
_atom_site_label
_atom_site_type_symbol
_atom_site_fract_x
_atom_site_fract_y
_atom_site_fract_z
C1 C 0.9010(8) 1.2332(7) 0.01315(11)
H1 H 1.00380 1.20750 0.01160
C2 C 0.8154(9) 1.1329(9) 0.00040(14)
H2 H 0.84020 1.03460 0.00390
H3 H 0.83590 1.14980 -0.01410
H4 H 0.71380 1.14860 0.00300
C3 C 0.8817(9) 1.3894(7) 0.00613(12)
H5 H 0.89660 1.39560 -0.00870
H6 H 0.95120 1.45000 0.01310
H7 H 0.78520 1.42150 0.00950
C4 C 0.8612(7) 1.2249(7) 0.03670(11)
H8 H 0.92140 1.29250 0.04440
H9 H 0.76050 1.25310 0.03860
N1 N 0.8829(5) 1.0767(5) 0.04498(8)
H10 H 0.9614(13) 1.045(3) 0.0391(4)
C5 C 0.7784(8) 1.0080(7) 0.05346(9)
O1 O 0.6503(5) 1.0415(5) 0.05651(8)
C6 C 0.8140(6) 0.8515(7) 0.06028(9)
H11 H 0.80770 0.84800 0.07550
C7 C 0.7117(7) 0.7346(7) 0.0516(1)
H12 H 0.61370 0.75710 0.05660
C8 C 0.7064(7) 0.7375(7) 0.02812(10)
H13 H 0.80350 0.73340 0.02270
H14 H 0.66030 0.82560 0.02360
H15 H 0.65200 0.65540 0.02320
C9 C 0.7497(7) 0.5869(6) 0.05944(11)
H16 H 0.66740 0.52360 0.05790
H17 H 0.77630 0.59290 0.07390
H18 H 0.82990 0.54900 0.05160
O2 O 0.9616(4) 0.8134(4) 0.05452(6)
N2 N 1.0469(6) 0.7747(5) 0.07104(8)
H19 H 1.052(6) 0.6822(10) 0.0731(7)
C10 C 1.1649(7) 0.8638(6) 0.07664(10)
O3 O 1.1689(4) 0.9875(4) 0.06908(8)
C11 C 1.2519(6) 0.8050(6) 0.09313(10)
C12 C 1.3031(9) 0.9070(7) 0.10997(13)
H20 H 1.26490 1.00520 0.10980
H21 H 1.31790 0.86670 0.12380
C13 C 1.4076(6) 0.8686(8) 0.09398(12)
H22 H 1.48620 0.80360 0.09780
H23 H 1.43320 0.94250 0.08380
O4 O 1.2338(4) 0.6592(4) 0.09919(6)
N3 N 1.3044(5) 0.5615(5) 0.08559(8)
H24 H 1.398(1) 0.566(6) 0.0847(8)
C14 C 1.2253(6) 0.4586(6) 0.07592(10)
O5 O 1.0922(4) 0.4741(4) 0.07446(7)
C15 C 1.3080(5) 0.3419(6) 0.06485(11)
H25 H 1.28360 0.24690 0.07080
C16 C 1.2720(8) 0.3426(8) 0.04103(10)
H26 H 1.16640 0.33280 0.03960
C17 C 1.3152(10) 0.4820(8) 0.03033(13)
H27 H 1.41910 0.48590 0.02910
H28 H 1.28200 0.56330 0.03840
H29 H 1.27200 0.48540 0.01670
C18 C 1.3417(10) 0.2035(7) 0.03170(12)
H30 H 1.29660 0.18150 0.01860
H31 H 1.32780 0.12370 0.04110
H32 H 1.44380 0.21930 0.02960
O6 O 1.4618(4) 0.3672(4) 0.06669(6)
N4 N 1.5296(5) 0.2680(5) 0.08009(8)
H33 H 1.541(5) 0.1868(12) 0.0735(3)
C19 C 1.5869(7) 0.3181(8) 0.09736(10)
O7 O 1.5603(4) 0.4408(5) 0.10430(6)
C20 C 1.6883(6) 0.2145(7) 0.10871(10)
H34 H 1.67050 0.11640 0.10330
C21 C 1.6572(10) 0.2134(11) 0.13099(11)
H35 H 1.65930 0.31120 0.13620
H36 H 1.72910 0.15630 0.13810
H37 H 1.56280 0.17220 0.13330
C22 C 1.8448(7) 0.2546(9) 0.10366(14)
H38 H 1.87230 0.33900 0.11150
H39 H 1.85340 0.27510 0.08900
H40 H 1.90760 0.17500 0.10720
#END
