
#######################################################################
#
#                 Cambridge Crystallographic Data Centre
#                                CCDC
#
#######################################################################
#
# If this CIF has been generated from an entry in the Cambridge
# Structural Database, then it will include bibliographic, chemical,
# crystal, experimental, refinement or atomic coordinate data resulting
# from the CCDC's data processing and validation procedures.
#
#######################################################################

data_CSD_CIF_ZUNKEY
_audit_creation_date 1996-10-16
_audit_creation_method CSD-ConQuest-V1
_database_code_CSD ZUNKEY
_database_code_depnum_ccdc_archive 'CCDC 1316692'
_chemical_formula_sum 'C12 H16 N2 O2'
_chemical_formula_moiety
;
C12 H16 N2 O2
;
_journal_coden_Cambridge 194
_journal_volume 44
_journal_year 1996
_journal_page_first 145
_journal_name_full 'Chem.Pharm.Bull. '
loop_
_publ_author_name
"T.Katagi"
"H.Kataoka"
"Y.Konishi"
"Y.Takata"
"S.Kitano"
"M.Yamaki"
"T.Inoi"
"K.Yamamoto"
"S.Yamamoto"
"Y.Yamagata"
_chemical_name_systematic
;
4'-Morpholinoacetophenone oxime
;
_cell_volume   1098.618
_exptl_special_details
;
tested for antiinflammatory activity

;
_diffrn_ambient_temperature ?
_diffrn_special_details
;
The study was carried out at room temperature,in the range 283-303K

;
#These two values have been output from a single CSD field.
_refine_ls_R_factor_gt 0.045
_refine_ls_wR_factor_gt 0.045
_symmetry_cell_setting monoclinic
_symmetry_space_group_name_H-M 'P 21/n'
_symmetry_Int_Tables_number 14
loop_
_symmetry_equiv_pos_site_id
_symmetry_equiv_pos_as_xyz
1 x,y,z
2 1/2-x,1/2+y,1/2-z
3 -x,-y,-z
4 -1/2+x,-1/2-y,-1/2+z
_cell_length_a 7.894(1)
_cell_length_b 5.919(1)
_cell_length_c 23.5374(9)
_cell_angle_alpha 90
_cell_angle_beta 92.629(7)
_cell_angle_gamma 90
_cell_formula_units_Z 4
loop_
_atom_type_symbol
_atom_type_radius_bond
C 0.68
N 0.68
O 0.68
loop_
_atom_site_label
_atom_site_type_symbol
_atom_site_fract_x
_atom_site_fract_y
_atom_site_fract_z
O1 O -0.3096(2) -0.0707(3) 0.47095(6)
O2 O 0.0898(2) 0.1432(2) 0.05708(5)
N1 N -0.2496(2) -0.0783(3) 0.41540(7)
N2 N 0.0806(2) 0.0726(3) 0.17726(6)
C1 C -0.1405(2) 0.0741(3) 0.40599(8)
C2 C -0.0810(3) 0.2485(4) 0.44865(9)
C3 C -0.0778(2) 0.0730(3) 0.34754(8)
C4 C 0.0171(3) 0.2480(4) 0.32620(8)
C5 C 0.0682(3) 0.2501(3) 0.27093(8)
C6 C 0.0273(2) 0.0748(3) 0.23314(8)
C7 C -0.0675(3) -0.1028(4) 0.25498(9)
C8 C -0.1163(3) -0.1037(4) 0.31008(9)
C9 C 0.1316(3) 0.2897(3) 0.15353(8)
C10 C 0.2034(3) 0.2616(4) 0.09568(8)
C11 C 0.0594(3) -0.0756(4) 0.07981(9)
C12 C -0.0213(3) -0.0623(4) 0.13632(8)
#END
