
#######################################################################
#
#                 Cambridge Crystallographic Data Centre
#                                CCDC
#
#######################################################################
#
# If this CIF has been generated from an entry in the Cambridge
# Structural Database, then it will include bibliographic, chemical,
# crystal, experimental, refinement or atomic coordinate data resulting
# from the CCDC's data processing and validation procedures.
#
#######################################################################

data_CSD_CIF_ZUNPOP
_audit_creation_date 2015-09-02
_audit_creation_method CSD-ConQuest-V1
_database_code_CSD ZUNPOP
_database_code_depnum_ccdc_archive 'CCDC 1052055'
_chemical_formula_sum 'C15 H11 N1 O4'
_chemical_formula_moiety
;
C15 H11 N1 O4
;
_journal_coden_Cambridge 16
_journal_volume 71
_journal_year 2015
_journal_page_first 8391
_journal_name_full 'Tetrahedron '
loop_
_publ_author_name
"H.Surya Prakash Rao"
"S.Vijjapu"
_chemical_name_systematic
;
2-allyl-2-hydroxy-5-nitroacenaphthylen-1(2H)-one
;
_cell_volume    623.333
_exptl_crystal_density_diffrn 1.435
_diffrn_ambient_temperature 298
#These two values have been output from a single CSD field.
_refine_ls_R_factor_gt 0.082
_refine_ls_wR_factor_gt 0.082
_symmetry_cell_setting triclinic
_symmetry_space_group_name_H-M 'P -1'
_symmetry_Int_Tables_number 2
loop_
_symmetry_equiv_pos_site_id
_symmetry_equiv_pos_as_xyz
1 x,y,z
2 -x,-y,-z
_cell_length_a 8.0055(17)
_cell_length_b 8.6417(17)
_cell_length_c 10.3601(19)
_cell_angle_alpha 71.724(17)
_cell_angle_beta 78.571(18)
_cell_angle_gamma 66.82(2)
_cell_formula_units_Z 2
loop_
_atom_type_symbol
_atom_type_radius_bond
C 0.68
H 0.23
N 0.68
O 0.68
loop_
_atom_site_label
_atom_site_type_symbol
_atom_site_fract_x
_atom_site_fract_y
_atom_site_fract_z
O1 O 0.4608(3) 0.1439(3) 0.2986(2)
C1 C 0.2882(3) 0.0862(4) 0.1674(3)
O2 O 0.4951(3) -0.2146(3) 0.4644(2)
C2 C 0.2743(4) -0.1063(4) 0.0366(3)
C3 C 0.3157(3) -0.0794(4) 0.1517(3)
C4 C 0.3878(4) -0.2146(4) 0.2634(3)
O3 O 0.1347(4) -0.0927(4) -0.1959(3)
C5 C 0.2057(4) 0.0481(5) -0.0661(3)
C6 C 0.4196(4) -0.1383(4) 0.3602(3)
C7 C 0.1852(4) 0.2083(5) -0.0543(3)
H1 H 0.14390 0.30570 -0.12680
C8 C 0.3340(4) 0.0628(4) 0.3078(3)
N1 N 0.1489(4) 0.0412(5) -0.1905(3)
C9 C 0.2247(4) 0.2307(4) 0.0642(3)
H2 H 0.20770 0.34070 0.07110
C10 C 0.1653(4) 0.1215(4) 0.4049(3)
H3 H 0.08160 0.06740 0.40070
H4 H 0.20260 0.07720 0.49710
C11 C 0.3092(5) -0.2849(5) 0.0453(4)
H5 H 0.28440 -0.31240 -0.02700
C12 C 0.4182(5) -0.3843(5) 0.2680(4)
H6 H 0.46450 -0.47510 0.34340
C13 C 0.3778(5) -0.4154(5) 0.1569(4)
H7 H 0.39810 -0.52960 0.15840
C14 C 0.0646(5) 0.3127(5) 0.3796(4)
H8 H 0.13150 0.38300 0.37060
O4 O 0.1150(7) 0.1725(5) -0.2821(3)
C15 C -0.1069(7) 0.3876(6) 0.3693(5)
H9 H 0.469(5) 0.151(5) 0.374(4)
#END
