
#######################################################################
#
#                 Cambridge Crystallographic Data Centre
#                                CCDC
#
#######################################################################
#
# If this CIF has been generated from an entry in the Cambridge
# Structural Database, then it will include bibliographic, chemical,
# crystal, experimental, refinement or atomic coordinate data resulting
# from the CCDC's data processing and validation procedures.
#
#######################################################################

data_CSD_CIF_ZUPMOO
_audit_creation_date 2015-09-03
_audit_creation_method CSD-ConQuest-V1
_database_code_CSD ZUPMOO
_database_code_depnum_ccdc_archive 'CCDC 1422078'
_chemical_formula_sum 'C21 H22 N2 O8'
_chemical_formula_moiety
;
C21 H22 N2 O8
;
_journal_coden_Cambridge 35
_journal_volume 78
_journal_year 2013
_journal_page_first 3342
_journal_name_full 'J.Org.Chem. '
loop_
_publ_author_name
"L.A.Fisher"
"N.J.Smith"
"J.M.Fox"
_chemical_name_systematic
;
methyl 
2-(1-((3,5-dinitrobenzoyl)oxy)propyl)-4-methyltricyclo[3.2.1.0^2,4^]oct-6-ene-
3-carboxylate
;
_cell_volume   1013.422
_exptl_crystal_colour 'colorless'
_exptl_crystal_density_diffrn 1.41
_exptl_crystal_description 'block'
_diffrn_ambient_temperature 120
#These two values have been output from a single CSD field.
_refine_ls_R_factor_gt 0.0385
_refine_ls_wR_factor_gt 0.0385
_symmetry_cell_setting triclinic
_symmetry_space_group_name_H-M 'P -1'
_symmetry_Int_Tables_number 2
loop_
_symmetry_equiv_pos_site_id
_symmetry_equiv_pos_as_xyz
1 x,y,z
2 -x,-y,-z
_cell_length_a 8.1567(10)
_cell_length_b 10.7545(13)
_cell_length_c 12.9755(16)
_cell_angle_alpha 109.980(2)
_cell_angle_beta 103.478(2)
_cell_angle_gamma 97.274(2)
_cell_formula_units_Z 2
loop_
_atom_type_symbol
_atom_type_radius_bond
C 0.68
H 0.23
N 0.68
O 0.68
loop_
_atom_site_label
_atom_site_type_symbol
_atom_site_fract_x
_atom_site_fract_y
_atom_site_fract_z
N1 N 0.11407(13) 1.05279(11) 0.71314(9)
N2 N -0.14309(14) 0.57490(11) 0.46156(10)
O1 O 0.25166(11) 0.74159(8) 0.26861(7)
O2 O 0.36926(13) 0.96278(10) 0.37886(8)
O3 O 0.19836(12) 1.16228(9) 0.72526(8)
O4 O 0.04046(13) 1.03632(11) 0.78050(9)
O5 O -0.23763(14) 0.57132(11) 0.52149(10)
O6 O -0.13871(12) 0.47588(10) 0.38041(8)
O7 O 0.57265(10) 1.03145(9) 0.22673(7)
O8 O 0.35837(11) 1.14140(9) 0.24214(7)
C1 C 0.25244(15) 0.77689(12) 0.09392(10)
C2 C 0.28232(15) 0.92443(12) 0.10067(10)
H1 H 0.17500 0.95420 0.07300
C3 C 0.32599(16) 0.81329(12) 0.00861(10)
C4 C 0.17931(16) 0.73510(13) -0.10865(10)
H2 H 0.21650 0.72310 -0.17900
C5 C 0.01674(17) 0.78849(14) -0.10693(11)
H3 H -0.03100 0.83690 -0.15110
C6 C -0.04700(16) 0.75521(14) -0.03227(11)
H4 H -0.14880 0.77550 -0.01330
C7 C 0.07205(15) 0.67888(13) 0.01735(10)
H5 H 0.01960 0.62000 0.05190
C8 C 0.12356(17) 0.60268(13) -0.09136(11)
H6 H 0.22020 0.55820 -0.07540
H7 H 0.02460 0.53720 -0.15530
C9 C 0.35522(16) 0.74240(12) 0.18871(10)
H8 H 0.46580 0.81280 0.23110
C10 C 0.39532(17) 0.60170(13) 0.15132(12)
H9 H 0.28540 0.53210 0.11170
H10 H 0.46270 0.59390 0.09590
C11 C 0.4974(2) 0.57415(15) 0.25259(13)
H11 H 0.53310 0.48820 0.22410
H12 H 0.42450 0.56840 0.30180
H13 H 0.60020 0.64820 0.29690
C12 C 0.27708(16) 0.85611(13) 0.3594(1)
C13 C 0.17545(15) 0.83608(12) 0.43775(10)
C14 C 0.19342(15) 0.94767(13) 0.53696(10)
H14 H 0.26980 1.03150 0.55490
C15 C 0.09740(15) 0.93384(12) 0.60914(10)
C16 C -0.01519(15) 0.81435(13) 0.58701(10)
H15 H -0.08110 0.80720 0.63710
C17 C -0.02713(15) 0.70559(13) 0.48827(11)
C18 C 0.06603(16) 0.71315(13) 0.41277(10)
H16 H 0.05510 0.63610 0.34580
C19 C 0.42220(15) 1.03316(12) 0.19552(10)
C20 C 0.48182(17) 1.25311(13) 0.33667(12)
H17 H 0.43080 1.33270 0.35610
H18 H 0.58590 1.27460 0.31490
H19 H 0.51280 1.22800 0.40340
C21 C 0.50843(16) 0.81157(13) 0.00188(11)
H20 H 0.58510 0.82730 0.07770
H21 H 0.54840 0.88320 -0.02310
H22 H 0.51000 0.72310 -0.05340
#END
