
#######################################################################
#
#                 Cambridge Crystallographic Data Centre
#                                CCDC
#
#######################################################################
#
# If this CIF has been generated from an entry in the Cambridge
# Structural Database, then it will include bibliographic, chemical,
# crystal, experimental, refinement or atomic coordinate data resulting
# from the CCDC's data processing and validation procedures.
#
#######################################################################

data_CSD_CIF_ZUPNAB
_audit_creation_date 2015-09-03
_audit_creation_method CSD-ConQuest-V1
_database_code_CSD ZUPNAB
_database_code_depnum_ccdc_archive 'CCDC 1422080'
_chemical_formula_sum 'C27 H22 N6 O2'
_chemical_formula_moiety
;
C27 H22 N6 O2
;
_journal_coden_Cambridge 35
_journal_volume 78
_journal_year 2013
_journal_page_first 3349
_journal_name_full 'J.Org.Chem. '
loop_
_publ_author_name
"D.Jishkariani"
"C.Dennis Hall"
"A.Demircan"
"B.J.Tomlin"
"P.J.Steel"
"A.R.Katritzky"
_chemical_name_systematic
;
1,3-dibenzyl-2-(3-(4-nitrophenyl)triaz-2-en-1-ylidene)-2,3-dihydro-1H-benzimid
azole
;
_cell_volume   1126.861
_exptl_crystal_density_diffrn 1.363
_diffrn_ambient_temperature 120
#These two values have been output from a single CSD field.
_refine_ls_R_factor_gt 0.0345
_refine_ls_wR_factor_gt 0.0345
_symmetry_cell_setting triclinic
_symmetry_space_group_name_H-M 'P -1'
_symmetry_Int_Tables_number 2
loop_
_symmetry_equiv_pos_site_id
_symmetry_equiv_pos_as_xyz
1 x,y,z
2 -x,-y,-z
_cell_length_a 10.1554(4)
_cell_length_b 10.8156(4)
_cell_length_c 10.8847(4)
_cell_angle_alpha 79.384(3)
_cell_angle_beta 82.776(3)
_cell_angle_gamma 74.162(4)
_cell_formula_units_Z 2
loop_
_atom_type_symbol
_atom_type_radius_bond
C 0.68
H 0.23
N 0.68
O 0.68
loop_
_atom_site_label
_atom_site_type_symbol
_atom_site_fract_x
_atom_site_fract_y
_atom_site_fract_z
O1 O 0.79304(11) -0.38676(11) 0.00366(11)
O2 O 0.60403(13) -0.38293(13) -0.06974(12)
N1 N 0.55074(11) 0.21753(10) 0.49587(10)
N2 N 0.34008(11) 0.33986(10) 0.5243(1)
N3 N 0.35641(11) 0.19204(11) 0.39037(10)
N4 N 0.44179(11) 0.10584(10) 0.32353(10)
N5 N 0.37401(11) 0.06182(11) 0.25812(10)
N6 N 0.66942(13) -0.34088(12) -0.00735(11)
C1 C 0.41859(13) 0.24186(12) 0.46313(12)
C2 C 0.42078(13) 0.37996(12) 0.59486(12)
C3 C 0.38867(14) 0.47436(13) 0.67183(12)
H1 H 0.29930 0.52460 0.68460
C4 C 0.49628(14) 0.49038(13) 0.72891(12)
H2 H 0.47870 0.55290 0.78130
C5 C 0.62990(14) 0.41509(13) 0.70962(13)
H3 H 0.69950 0.42870 0.74930
C6 C 0.66191(13) 0.32030(13) 0.63275(12)
H4 H 0.75130 0.27030 0.61980
C7 C 0.55447(13) 0.30348(12) 0.57603(12)
C8 C 0.19225(13) 0.39568(13) 0.51445(13)
H5 H 0.16740 0.38000 0.43660
H6 H 0.17130 0.48910 0.51210
C9 C 0.10771(12) 0.33804(13) 0.62319(12)
C10 C 0.10054(13) 0.20940(13) 0.63356(13)
H7 H 0.14500 0.16030 0.57170
C11 C 0.02786(14) 0.15448(14) 0.73513(13)
H8 H 0.02400 0.06860 0.74160
C12 C -0.03942(14) 0.22768(15) 0.82741(13)
H9 H -0.08810 0.19070 0.89580
C13 C -0.03407(13) 0.35565(14) 0.81769(13)
H10 H -0.07970 0.40480 0.87920
C14 C 0.03944(13) 0.41060(13) 0.71600(13)
H11 H 0.04310 0.49650 0.70990
C15 C 0.67200(13) 0.11507(12) 0.46377(12)
H12 H 0.64220 0.04810 0.43510
H13 H 0.71990 0.07560 0.53860
C16 C 0.77064(13) 0.16481(12) 0.36334(12)
C17 C 0.73055(14) 0.21666(13) 0.24300(12)
H14 H 0.64320 0.21920 0.22350
C18 C 0.82042(15) 0.26471(14) 0.15195(13)
H15 H 0.79200 0.30150 0.07240
C19 C 0.95235(16) 0.25814(15) 0.17888(14)
H16 H 1.01250 0.28970 0.11740
C20 C 0.99412(15) 0.20440(15) 0.29775(15)
H17 H 1.08290 0.19840 0.31600
C21 C 0.90261(13) 0.15934(13) 0.38986(13)
H18 H 0.93020 0.12510 0.47020
C22 C 0.45776(13) -0.03423(13) 0.19004(12)
C23 C 0.38760(14) -0.08585(14) 0.11815(12)
H19 H 0.29320 -0.05290 0.11470
C24 C 0.45634(15) -0.18515(14) 0.05209(13)
H20 H 0.40920 -0.21940 0.00450
C25 C 0.59675(14) -0.23268(13) 0.05819(12)
C26 C 0.66994(14) -0.18212(13) 0.12726(13)
H21 H 0.76450 -0.21470 0.12920
C27 C 0.60041(14) -0.08291(13) 0.19290(13)
H22 H 0.64840 -0.04820 0.23930
#END
