
#######################################################################
#
#                 Cambridge Crystallographic Data Centre
#                                CCDC
#
#######################################################################
#
# If this CIF has been generated from an entry in the Cambridge
# Structural Database, then it will include bibliographic, chemical,
# crystal, experimental, refinement or atomic coordinate data resulting
# from the CCDC's data processing and validation procedures.
#
#######################################################################

data_CSD_CIF_ZUQHAW
_audit_creation_date 2015-09-03
_audit_creation_method CSD-ConQuest-V1
_database_code_CSD ZUQHAW
_database_code_depnum_ccdc_archive 'CCDC 1422274'
_chemical_formula_sum 'C25 H15 N1 O6'
_chemical_formula_moiety
;
C25 H15 N1 O6
;
_journal_coden_Cambridge 24
_journal_volume 56
_journal_year 2015
_journal_page_first 2422
_journal_name_full 'Tetrahedron Lett. '
loop_
_publ_author_name
"Tuyet Anh Dang Thi"
"Y.Depetter"
"K.Mollet"
"Hoang Thi Phuong"
"Doan Vu Ngoc"
"Chinh Pham The"
"Ha Thanh Nguyen"
"Thu Ha Nguyen Thi"
"Hung Huy Nguyen"
"M.Dhooghe"
"Tuyen Van Nguyen"
_chemical_name_systematic
;
2-(3-Nitrobenzoyl)-3-phenyl-2,3-dihydronaphtho[2,3-b]furan-4,9-dione
;
_cell_volume   1936.459
_exptl_crystal_colour 'light yellow'
_exptl_crystal_density_diffrn 1.459
_exptl_crystal_description 'plate'
_diffrn_ambient_temperature 100
#These two values have been output from a single CSD field.
_refine_ls_R_factor_gt 0.0367
_refine_ls_wR_factor_gt 0.0367
_symmetry_cell_setting monoclinic
_symmetry_space_group_name_H-M 'P 21/n'
_symmetry_Int_Tables_number 14
loop_
_symmetry_equiv_pos_site_id
_symmetry_equiv_pos_as_xyz
1 x,y,z
2 1/2-x,1/2+y,1/2-z
3 -x,-y,-z
4 -1/2+x,-1/2-y,-1/2+z
_cell_length_a 9.4364(5)
_cell_length_b 8.4514(4)
_cell_length_c 24.2818(12)
_cell_angle_alpha 90
_cell_angle_beta 90.337(2)
_cell_angle_gamma 90
_cell_formula_units_Z 4
loop_
_atom_type_symbol
_atom_type_radius_bond
C 0.68
H 0.23
N 0.68
O 0.68
loop_
_atom_site_label
_atom_site_type_symbol
_atom_site_fract_x
_atom_site_fract_y
_atom_site_fract_z
C1 C 0.19568(11) 0.64621(13) 0.36325(4)
N1 N 0.22499(11) 0.51659(12) 0.03888(4)
O1 O 0.38815(9) 0.69190(11) 0.42427(4)
C2 C 0.27959(11) 0.61931(13) 0.41433(4)
O2 O -0.08661(9) 0.3661(1) 0.37018(3)
C3 C 0.21766(11) 0.49830(13) 0.45182(4)
O3 O 0.23630(8) 0.75981(9) 0.32736(3)
C4 C 0.28464(12) 0.46975(14) 0.50218(5)
H1 H 0.36810 0.52660 0.51180
O4 O 0.33261(8) 0.61473(10) 0.23889(3)
C5 C 0.22974(12) 0.35846(15) 0.53841(5)
H2 H 0.27540 0.33940 0.57270
O5 O 0.33554(10) 0.44666(11) 0.05072(4)
C6 C 0.10791(13) 0.27518(14) 0.52430(5)
H3 H 0.07040 0.19930 0.54910
O6 O 0.16758(10) 0.51195(12) -0.00640(4)
C7 C 0.04035(12) 0.30193(13) 0.47409(5)
H4 H -0.04270 0.24410 0.46470
C8 C 0.09424(11) 0.41337(13) 0.43759(4)
C9 C 0.01804(11) 0.44226(13) 0.38396(4)
C10 C 0.07681(11) 0.56801(13) 0.34961(4)
C11 C 0.01454(11) 0.63762(13) 0.29730(4)
H5 H -0.00010 0.55330 0.26890
C12 C 0.13945(11) 0.74980(13) 0.28051(4)
H6 H 0.10190 0.85730 0.27130
C13 C 0.22056(11) 0.68311(13) 0.23186(4)
C14 C 0.15477(11) 0.69674(13) 0.17607(4)
C15 C 0.21957(11) 0.61239(13) 0.13372(5)
H7 H 0.30480 0.55540 0.14030
C16 C 0.15763(12) 0.61327(13) 0.08213(5)
C17 C 0.03563(13) 0.69806(14) 0.07013(5)
H8 H -0.00360 0.69810 0.03400
C18 C -0.02794(12) 0.78329(14) 0.11241(5)
H9 H -0.11160 0.84250 0.10520
C19 C 0.03032(12) 0.78231(13) 0.16518(5)
H10 H -0.01430 0.83970 0.19390
C20 C -0.12354(11) 0.72414(14) 0.30862(4)
C21 C -0.25237(12) 0.65668(15) 0.29343(5)
H11 H -0.25410 0.55960 0.27370
C22 C -0.37906(13) 0.73149(17) 0.30714(5)
H12 H -0.46690 0.68480 0.29680
C23 C -0.37762(12) 0.87322(16) 0.33564(5)
H13 H -0.46440 0.92270 0.34530
C24 C -0.24957(13) 0.94324(15) 0.35008(5)
H14 H -0.24830 1.04170 0.36900
C25 C -0.12311(12) 0.86813(14) 0.33670(5)
H15 H -0.03540 0.91550 0.34680
#END
