
#######################################################################
#
#                 Cambridge Crystallographic Data Centre
#                                CCDC
#
#######################################################################
#
# If this CIF has been generated from an entry in the Cambridge
# Structural Database, then it will include bibliographic, chemical,
# crystal, experimental, refinement or atomic coordinate data resulting
# from the CCDC's data processing and validation procedures.
#
#######################################################################

data_CSD_CIF_ZURLIJ
_audit_creation_date 2015-09-04
_audit_creation_method CSD-ConQuest-V1
_database_code_CSD ZURLIJ
_database_code_depnum_ccdc_archive 'CCDC 1005292'
_chemical_formula_sum 'C14 H23 N3 O3'
_chemical_formula_moiety
;
C14 H23 N3 O3
;
_journal_coden_Cambridge 154
_journal_volume 68
_journal_year 2015
_journal_page_first 970
_journal_name_full 'Aust.J.Chem. '
loop_
_publ_author_name
"E.V.Tretyakov"
"G.V.Romanenko"
"S.L.Veber"
"M.V.Fedin"
"A.V.Polushkin"
"A.O.Tkacheva"
"V.I.Ovcharenko"
_chemical_name_systematic
;
3,3,4-trimethyl-4-nitro-1-(1-propyl-1H-pyrazol-4-yl)pentan-1-one
;
_cell_volume    790.734
_exptl_crystal_colour 'colorless'
_exptl_crystal_density_diffrn 1.182
_exptl_crystal_description 'plate'
_diffrn_ambient_temperature 296
#These two values have been output from a single CSD field.
_refine_ls_R_factor_gt 0.0694
_refine_ls_wR_factor_gt 0.0694
_symmetry_cell_setting triclinic
_symmetry_space_group_name_H-M 'P -1'
_symmetry_Int_Tables_number 2
loop_
_symmetry_equiv_pos_site_id
_symmetry_equiv_pos_as_xyz
1 x,y,z
2 -x,-y,-z
_cell_length_a 6.445(4)
_cell_length_b 10.233(7)
_cell_length_c 12.608(9)
_cell_angle_alpha 102.72(5)
_cell_angle_beta 98.02(5)
_cell_angle_gamma 97.97(5)
_cell_formula_units_Z 2
loop_
_atom_type_symbol
_atom_type_radius_bond
C 0.68
H 0.23
N 0.68
O 0.68
loop_
_atom_site_label
_atom_site_type_symbol
_atom_site_fract_x
_atom_site_fract_y
_atom_site_fract_z
C1 C 0.2579(5) 0.2541(3) 0.1950(2)
N1 N 0.9496(5) 0.3614(3) 0.5642(3)
N2 N 0.8862(5) 0.2466(3) 0.5964(2)
C2 C 0.3246(8) 0.1245(4) 0.1330(3)
H1 H 0.31680 0.05800 0.17610
H2 H 0.46790 0.14550 0.12080
H3 H 0.23080 0.08880 0.06320
C3 C 0.0280(6) 0.2227(5) 0.2101(4)
H4 H 0.01450 0.15570 0.25260
H5 H -0.06200 0.18820 0.13910
H6 H -0.01370 0.30430 0.24820
O1 O 0.3154(4) 0.1057(3) 0.3723(2)
C4 C 0.2418(6) 0.5046(4) 0.1897(3)
H7 H 0.25050 0.56730 0.14330
H8 H 0.35070 0.53730 0.25420
H9 H 0.10460 0.49660 0.21150
C5 C 0.1230(5) 0.3240(4) 0.0161(3)
H10 H 0.13900 0.39570 -0.02160
H11 H -0.02120 0.30650 0.02790
H12 H 0.15660 0.24300 -0.02780
C6 C 0.2726(5) 0.3664(3) 0.1266(2)
C7 C 0.4024(6) 0.3056(4) 0.3064(3)
H13 H 0.54020 0.34430 0.29370
H14 H 0.34590 0.37960 0.34840
C8 C 0.4395(6) 0.2090(3) 0.3785(3)
C9 C 0.6351(5) 0.2480(3) 0.4605(2)
C10 C 0.7973(6) 0.3612(3) 0.4834(3)
H15 H 0.79730 0.42930 0.44520
C11 C 0.7023(5) 0.1773(3) 0.5366(3)
H16 H 0.63100 0.09550 0.54460
C12 C 1.0216(5) 0.2132(4) 0.6864(3)
H17 H 1.07700 0.29540 0.74410
H18 H 0.93620 0.15050 0.71740
C13 C 1.1985(8) 0.1523(6) 0.6503(4)
H19 H 1.28120 0.21360 0.61690
H20 H 1.14330 0.06830 0.59440
C14 C 1.3439(7) 0.1223(5) 0.7458(3)
H21 H 1.45760 0.08170 0.71830
H22 H 1.26310 0.06070 0.77850
H23 H 1.40210 0.20550 0.80040
N3 N 0.5031(5) 0.3881(4) 0.1017(3)
O2 O 0.6412(5) 0.4667(3) 0.1687(3)
O3 O 0.5372(5) 0.3232(4) 0.0163(3)
#END
