
#######################################################################
#
#                 Cambridge Crystallographic Data Centre
#                                CCDC
#
#######################################################################
#
# If this CIF has been generated from an entry in the Cambridge
# Structural Database, then it will include bibliographic, chemical,
# crystal, experimental, refinement or atomic coordinate data resulting
# from the CCDC's data processing and validation procedures.
#
#######################################################################

data_CSD_CIF_ZURLUV
_audit_creation_date 2015-09-04
_audit_creation_method CSD-ConQuest-V1
_database_code_CSD ZURLUV
_database_code_depnum_ccdc_archive 'CCDC 1005294'
_chemical_formula_sum 'C13 H21 N3 O1'
_chemical_formula_moiety
;
C13 H21 N3 O1
;
_journal_coden_Cambridge 154
_journal_volume 68
_journal_year 2015
_journal_page_first 970
_journal_name_full 'Aust.J.Chem. '
loop_
_publ_author_name
"E.V.Tretyakov"
"G.V.Romanenko"
"S.L.Veber"
"M.V.Fedin"
"A.V.Polushkin"
"A.O.Tkacheva"
"V.I.Ovcharenko"
_chemical_name_systematic
;
1-ethyl-4-(2,2,3,3-tetramethyl-1-oxido-3,4-dihydro-2H-pyrrol-5-yl)-1H-pyrazole
;
_cell_volume   2729.838
_exptl_crystal_colour 'colorless'
_exptl_crystal_density_diffrn 1.145
_exptl_crystal_description 'bulk'
_diffrn_ambient_temperature 240
#These two values have been output from a single CSD field.
_refine_ls_R_factor_gt 0.0497
_refine_ls_wR_factor_gt 0.0497
_symmetry_cell_setting monoclinic
_symmetry_space_group_name_H-M 'P 21/c'
_symmetry_Int_Tables_number 14
loop_
_symmetry_equiv_pos_site_id
_symmetry_equiv_pos_as_xyz
1 x,y,z
2 -x,1/2+y,1/2-z
3 -x,-y,-z
4 x,-1/2-y,-1/2+z
_cell_length_a 11.293(2)
_cell_length_b 11.202(2)
_cell_length_c 21.968(4)
_cell_angle_alpha 90
_cell_angle_beta 100.798(3)
_cell_angle_gamma 90
_cell_formula_units_Z 8
loop_
_atom_type_symbol
_atom_type_radius_bond
C 0.68
H 0.23
N 0.68
O 0.68
loop_
_atom_site_label
_atom_site_type_symbol
_atom_site_fract_x
_atom_site_fract_y
_atom_site_fract_z
N1 N 0.71921(10) 0.41892(10) 0.12278(5)
C1 C 0.7087(2) 0.20156(16) 0.13352(12)
H1 H 0.73320 0.12710 0.11700
H2 H 0.62150 0.20440 0.12780
H3 H 0.74300 0.20660 0.17740
C2 C 0.75258(14) 0.30375(13) 0.10036(7)
H4 H 0.84060 0.29930 0.10560
H5 H 0.71910 0.29720 0.05600
C3 C 0.72671(13) 0.56548(14) 0.18390(7)
H6 H 0.75060 0.61720 0.21770
N2 N 0.78211(11) 0.46372(12) 0.17644(6)
N3 N 0.4556(1) 0.70704(9) 0.08927(5)
O1 O 0.41546(9) 0.63730(9) 0.04249(4)
C4 C 0.62681(11) 0.48949(12) 0.09728(6)
H7 H 0.57170 0.47500 0.06030
C5 C 0.62843(11) 0.58744(12) 0.13583(6)
C6 C 0.55071(12) 0.69007(11) 0.13192(6)
C7 C 0.57013(14) 0.79507(14) 0.17508(8)
H8 H 0.6310(19) 0.855(2) 0.1612(9)
H9 H 0.6014(17) 0.7763(16) 0.2164(9)
C8 C 0.44579(13) 0.85615(13) 0.16456(7)
C9 C 0.37049(17) 0.79727(16) 0.20783(8)
H10 H 0.40390 0.81800 0.25050
H11 H 0.37210 0.71130 0.20290
H12 H 0.28790 0.82540 0.19740
C10 C 0.45263(17) 0.98968(14) 0.17865(9)
H13 H 0.48460 1.00180 0.22240
H14 H 0.37260 1.02420 0.16830
H15 H 0.50510 1.02790 0.15420
C11 C 0.39478(13) 0.82596(12) 0.09536(6)
C12 C 0.4405(2) 0.90892(15) 0.04990(9)
H16 H 0.40610 0.88520 0.00780
H17 H 0.52770 0.90400 0.05610
H18 H 0.41680 0.99030 0.05680
C13 C 0.25889(15) 0.81185(17) 0.07814(8)
H19 H 0.23650 0.79290 0.03440
H20 H 0.22020 0.88580 0.08660
H21 H 0.23310 0.74790 0.10240
N4 N -0.03226(11) -0.06587(11) 0.15874(6)
C14 C 0.0069(2) -0.27506(18) 0.18902(12)
H22 H -0.00510 -0.33430 0.21950
H23 H 0.09260 -0.26450 0.19020
H24 H -0.03160 -0.30170 0.14810
C15 C -0.04695(17) -0.15951(15) 0.20335(8)
H25 H -0.13300 -0.17110 0.20310
H26 H -0.00870 -0.13370 0.24500
N5 N -0.09891(13) -0.06717(12) 0.10063(7)
N6 N 0.17526(11) 0.24957(10) 0.13757(5)
O2 O 0.20917(11) 0.22451(10) 0.19566(5)
C16 C -0.05822(14) 0.02479(14) 0.07289(7)
H27 H -0.08790 0.04630 0.03150
C17 C 0.04802(13) 0.02389(12) 0.16753(6)
H28 H 0.10300 0.04090 0.20420
C18 C 0.03436(12) 0.08693(11) 0.11209(6)
C19 C 0.09664(12) 0.19172(11) 0.09705(6)
C20 C 0.07920(14) 0.25347(14) 0.03556(7)
H29 H 0.0034(16) 0.3035(14) 0.0300(7)
H30 H 0.0740(15) 0.1998(15) 0.0008(8)
C21 C 0.19280(12) 0.33362(13) 0.04118(6)
C22 C 0.29425(17) 0.25998(18) 0.02189(9)
H31 H 0.36610 0.30880 0.02530
H32 H 0.26940 0.23360 -0.02060
H33 H 0.31140 0.19100 0.04880
C23 C 0.17124(14) 0.44453(15) 0.00047(7)
H34 H 0.24470 0.49140 0.00570
H35 H 0.10740 0.49200 0.01240
H36 H 0.14790 0.42080 -0.04260
C24 C 0.21957(13) 0.36282(12) 0.11156(6)
C25 C 0.14051(18) 0.46302(14) 0.12958(9)
H37 H 0.16130 0.47690 0.17390
H38 H 0.05640 0.44010 0.11860
H39 H 0.15380 0.53550 0.10770
C26 C 0.35053(16) 0.38463(18) 0.13998(8)
H40 H 0.39950 0.32050 0.12830
H41 H 0.35970 0.38730 0.18480
H42 H 0.37630 0.46000 0.12510
#END
