
#######################################################################
#
#                 Cambridge Crystallographic Data Centre
#                                CCDC
#
#######################################################################
#
# If this CIF has been generated from an entry in the Cambridge
# Structural Database, then it will include bibliographic, chemical,
# crystal, experimental, refinement or atomic coordinate data resulting
# from the CCDC's data processing and validation procedures.
#
#######################################################################

data_CSD_CIF_ZURMEG01
_audit_creation_date 2015-09-04
_audit_creation_method CSD-ConQuest-V1
_database_code_CSD ZURMEG01
_database_code_depnum_ccdc_archive 'CCDC 1005297'
_chemical_formula_sum 'C12 H17 N3 O2'
_chemical_formula_moiety
;
C12 H17 N3 O2
;
_journal_coden_Cambridge 154
_journal_volume 68
_journal_year 2015
_journal_page_first 970
_journal_name_full 'Aust.J.Chem. '
loop_
_publ_author_name
"E.V.Tretyakov"
"G.V.Romanenko"
"S.L.Veber"
"M.V.Fedin"
"A.V.Polushkin"
"A.O.Tkacheva"
"V.I.Ovcharenko"
_chemical_name_systematic
;
4,4,5,5-tetramethyl-2-(1-methyl-1H-pyrazol-4-yl)-4,5-dihydro-3H-pyrrol-3-one 
1-oxide
;
_cell_volume   1244.615
_exptl_crystal_colour 'colorless'
_exptl_crystal_density_diffrn 1.256
_exptl_special_details
;
monoclinic P21/n polymorph

;
_exptl_crystal_description 'bulk'
_diffrn_ambient_temperature 240
_refine_special_details
;
C2,N9 and C9,N2 disordered over two sites with occupancies 0.50:0.50.

;
#These two values have been output from a single CSD field.
_refine_ls_R_factor_gt 0.0478
_refine_ls_wR_factor_gt 0.0478
_symmetry_cell_setting monoclinic
_symmetry_space_group_name_H-M 'P 21/n'
_symmetry_Int_Tables_number 14
loop_
_symmetry_equiv_pos_site_id
_symmetry_equiv_pos_as_xyz
1 x,y,z
2 1/2-x,1/2+y,1/2-z
3 -x,-y,-z
4 -1/2+x,-1/2-y,-1/2+z
_cell_length_a 9.7725(9)
_cell_length_b 11.4574(10)
_cell_length_c 11.6971(11)
_cell_angle_alpha 90
_cell_angle_beta 108.138(6)
_cell_angle_gamma 90
_cell_formula_units_Z 4
loop_
_atom_type_symbol
_atom_type_radius_bond
C 0.68
H 0.23
N 0.68
O 0.68
loop_
_atom_site_label
_atom_site_type_symbol
_atom_site_fract_x
_atom_site_fract_y
_atom_site_fract_z
O1 O 0.02541(11) 0.20341(9) 1.02569(10)
C1 C 0.11473(13) 0.21904(11) 0.97036(12)
C2 C 0.15494(15) 0.12412(12) 0.89607(13)
C3 C 0.02700(18) 0.05003(15) 0.82940(16)
H1 H -0.00740 0.00770 0.88680
H2 H 0.05550 -0.00490 0.77800
H3 H -0.04920 0.09980 0.78060
C4 C 0.26575(19) 0.04736(14) 0.98614(17)
H4 H 0.21850 0.00350 1.03410
H5 H 0.34030 0.09630 1.03840
H6 H 0.30860 -0.00630 0.94290
C5 C 0.22227(16) 0.19751(12) 0.81601(14)
C6 C 0.10717(19) 0.24257(16) 0.70192(15)
H7 H 0.15320 0.28780 0.65410
H8 H 0.03890 0.29140 0.72480
H9 H 0.05690 0.17680 0.65510
C7 C 0.3438(2) 0.14085(16) 0.7810(2)
H10 H 0.37730 0.19410 0.73100
H11 H 0.30930 0.06960 0.73670
H12 H 0.42250 0.12270 0.85300
N1 N 0.27242(14) 0.30443(10) 0.89440(12)
O2 O 0.36537(12) 0.37365(9) 0.87901(11)
C8 C 0.19675(13) 0.31906(10) 0.97448(12)
C9 C 0.19901(13) 0.42103(11) 1.04617(12)
C10 C 0.11612(15) 0.44522(12) 1.12236(13)
H13 H 0.04940 0.39280 1.13690
N2 N 0.14270(13) 0.55009(11) 1.17124(11)
N3 N 0.24404(12) 0.59469(10) 1.12664(11)
C11 C 0.30083(18) 0.71089(13) 1.16197(18)
H14 H 0.37180 0.72960 1.12240
H15 H 0.34570 0.71350 1.24850
H16 H 0.22300 0.76720 1.13860
C12 C 0.28040(14) 0.52155(11) 1.05228(13)
H17 H 0.34810 0.53540 1.01180
N4? N 0.11473(13) 0.21904(11) 0.97036(12)
C13? C 0.27242(14) 0.30443(10) 0.89440(12)
#END
