
#######################################################################
#
#                 Cambridge Crystallographic Data Centre
#                                CCDC
#
#######################################################################
#
# If this CIF has been generated from an entry in the Cambridge
# Structural Database, then it will include bibliographic, chemical,
# crystal, experimental, refinement or atomic coordinate data resulting
# from the CCDC's data processing and validation procedures.
#
#######################################################################

data_CSD_CIF_ZURMEG
_audit_creation_date 2015-09-04
_audit_creation_method CSD-ConQuest-V1
_database_code_CSD ZURMEG
_database_code_depnum_ccdc_archive 'CCDC 1005296'
_chemical_formula_sum 'C12 H17 N3 O2'
_chemical_formula_moiety
;
C12 H17 N3 O2
;
_journal_coden_Cambridge 154
_journal_volume 68
_journal_year 2015
_journal_page_first 970
_journal_name_full 'Aust.J.Chem. '
loop_
_publ_author_name
"E.V.Tretyakov"
"G.V.Romanenko"
"S.L.Veber"
"M.V.Fedin"
"A.V.Polushkin"
"A.O.Tkacheva"
"V.I.Ovcharenko"
_chemical_name_systematic
;
4,4,5,5-tetramethyl-2-(1-methyl-1H-pyrazol-4-yl)-4,5-dihydro-3H-pyrrol-3-one 
1-oxide
;
_cell_volume   2544.689
_exptl_crystal_colour 'colorless'
_exptl_crystal_density_diffrn 1.228
_exptl_special_details
;
orthorhombic Pbca polymorph

;
_exptl_crystal_description 'stick'
_diffrn_ambient_temperature 240
#These two values have been output from a single CSD field.
_refine_ls_R_factor_gt 0.0709
_refine_ls_wR_factor_gt 0.0709
_symmetry_cell_setting orthorhombic
_symmetry_space_group_name_H-M 'P b c a'
_symmetry_Int_Tables_number 61
loop_
_symmetry_equiv_pos_site_id
_symmetry_equiv_pos_as_xyz
1 x,y,z
2 1/2+x,1/2-y,-z
3 -x,1/2+y,1/2-z
4 1/2-x,-y,1/2+z
5 -x,-y,-z
6 -1/2-x,-1/2+y,z
7 x,-1/2-y,-1/2+z
8 -1/2+x,y,-1/2-z
_cell_length_a 6.6989(11)
_cell_length_b 14.867(3)
_cell_length_c 25.551(5)
_cell_angle_alpha 90
_cell_angle_beta 90
_cell_angle_gamma 90
_cell_formula_units_Z 8
loop_
_atom_type_symbol
_atom_type_radius_bond
C 0.68
H 0.23
N 0.68
O 0.68
loop_
_atom_site_label
_atom_site_type_symbol
_atom_site_fract_x
_atom_site_fract_y
_atom_site_fract_z
O1 O 0.3269(5) 0.23314(15) 0.1870(1)
C1 C 0.3051(5) 0.2988(2) 0.15764(15)
C2 C 0.2704(5) 0.2927(2) 0.09869(14)
C3 C 0.0520(6) 0.2604(2) 0.09352(16)
H1 H 0.03710 0.20280 0.11080
H2 H 0.01820 0.25420 0.05680
H3 H -0.03630 0.30400 0.10970
C4 C 0.4095(8) 0.2227(2) 0.07454(16)
H4 H 0.37750 0.16370 0.08840
H5 H 0.54680 0.23750 0.08300
H6 H 0.39260 0.22240 0.03680
C5 C 0.3016(5) 0.3900(2) 0.08053(13)
C6 C 0.5134(7) 0.4091(3) 0.05965(15)
H7 H 0.53070 0.47330 0.05500
H8 H 0.53140 0.37890 0.02630
H9 H 0.61130 0.38690 0.08450
C7 C 0.1493(7) 0.4275(3) 0.04229(16)
H10 H 0.01650 0.42150 0.05700
H11 H 0.15660 0.39440 0.00960
H12 H 0.17750 0.49050 0.03580
N1 N 0.2870(4) 0.44098(19) 0.13146(12)
O2 O 0.2796(4) 0.52704(15) 0.13106(10)
C8 C 0.2969(5) 0.3892(2) 0.17416(14)
C9 C 0.2959(5) 0.4222(2) 0.22742(15)
C10 C 0.3029(5) 0.3710(2) 0.27356(16)
H13 H 0.31110 0.30790 0.27420
N2 N 0.2967(4) 0.4225(2) 0.31662(12)
N3 N 0.2854(4) 0.5071(2) 0.29720(14)
C11 C 0.2748(7) 0.5838(3) 0.33263(16)
H14 H 0.26690 0.63890 0.31240
H15 H 0.39320 0.58510 0.35450
H16 H 0.15720 0.57830 0.35450
C12 C 0.2837(5) 0.5103(2) 0.24472(18)
H17 H 0.27570 0.56220 0.22380
#END
