
#######################################################################
#
#                 Cambridge Crystallographic Data Centre
#                                CCDC
#
#######################################################################
#
# If this CIF has been generated from an entry in the Cambridge
# Structural Database, then it will include bibliographic, chemical,
# crystal, experimental, refinement or atomic coordinate data resulting
# from the CCDC's data processing and validation procedures.
#
#######################################################################

data_CSD_CIF_ZURQOU
_audit_creation_date 2015-09-04
_audit_creation_method CSD-ConQuest-V1
_database_code_CSD ZURQOU
_database_code_depnum_ccdc_archive 'CCDC 1005298'
_chemical_formula_sum 'C13 H19 N3 O2'
_chemical_formula_moiety
;
C13 H19 N3 O2
;
_journal_coden_Cambridge 154
_journal_volume 68
_journal_year 2015
_journal_page_first 970
_journal_name_full 'Aust.J.Chem. '
loop_
_publ_author_name
"E.V.Tretyakov"
"G.V.Romanenko"
"S.L.Veber"
"M.V.Fedin"
"A.V.Polushkin"
"A.O.Tkacheva"
"V.I.Ovcharenko"
_chemical_name_systematic
;
2-(1-ethyl-1H-pyrazol-4-yl)-4,4,5,5-tetramethyl-4,5-dihydro-3H-pyrrol-3-one 
1-oxide
;
_cell_volume   1407.706
_exptl_crystal_colour 'colorless'
_exptl_crystal_density_diffrn 1.176
_exptl_crystal_description 'bulk'
_diffrn_ambient_temperature 296
_refine_special_details
;
C17 disordered by symmetry over two configurations with occupancy 0.5.

;
#These two values have been output from a single CSD field.
_refine_ls_R_factor_gt 0.0674
_refine_ls_wR_factor_gt 0.0674
_symmetry_cell_setting orthorhombic
_symmetry_space_group_name_H-M 'P n m a'
_symmetry_Int_Tables_number 62
loop_
_symmetry_equiv_pos_site_id
_symmetry_equiv_pos_as_xyz
1 x,y,z
2 1/2+x,1/2-y,1/2-z
3 -x,1/2+y,-z
4 1/2-x,-y,1/2+z
5 -x,-y,-z
6 -1/2-x,-1/2+y,-1/2+z
7 x,-1/2-y,z
8 -1/2+x,y,-1/2-z
_cell_length_a 19.867(6)
_cell_length_b 9.380(3)
_cell_length_c 7.554(2)
_cell_angle_alpha 90
_cell_angle_beta 90
_cell_angle_gamma 90
_cell_formula_units_Z 4
loop_
_atom_type_symbol
_atom_type_radius_bond
C 0.68
H 0.23
N 0.68
O 0.68
loop_
_atom_site_label
_atom_site_type_symbol
_atom_site_fract_x
_atom_site_fract_y
_atom_site_fract_z
O1 O 0.16825(11) 0.75000 0.5185(3)
C1 C 0.21035(14) 0.75000 0.4003(3)
C2 C 0.28579(14) 0.75000 0.4340(3)
C3 C 0.30279(15) 0.8816(3) 0.5435(3)
H1 H 0.27920 0.87750 0.65440
H2 H 0.28940 0.96560 0.48010
H3 H 0.35040 0.88450 0.56500
C4 C 0.31622(12) 0.75000 0.2450(3)
C5 C 0.35623(12) 0.6166(3) 0.1983(3)
H4 H 0.32990 0.53360 0.22520
H5 H 0.39710 0.61480 0.26580
H6 H 0.36680 0.61750 0.07430
N1 N 0.25428(10) 0.75000 0.1287(3)
O2 O 0.26058(10) 0.75000 -0.0380(3)
C6 C 0.19641(12) 0.75000 0.2143(3)
C7 C 0.13157(12) 0.75000 0.1283(3)
C8 C 0.06823(17) 0.75000 0.2071(5)
H7 H 0.06130 0.75000 0.32890
N2 N 0.01952(14) 0.75000 0.0900(4)
N3 N 0.05092(14) 0.75000 -0.0674(3)
C9 C 0.0123(2) 0.75000 -0.2324(6)
C10 C -0.0092(5) 0.6279(12) -0.2905(12)
H8 H -0.03420 0.64210 -0.39790
H9 H -0.03780 0.58480 -0.20310
H10 H 0.02850 0.56660 -0.31350
C11 C 0.11751(14) 0.75000 -0.0489(4)
H11 H 0.14890 0.75000 -0.14030
H12? H -0.01430 0.83120 -0.26600
C3F C 0.30279(15) 0.6184(3) 0.5435(3)
H1F H 0.27920 0.62250 0.65440
H2F H 0.28940 0.53440 0.48010
H3F H 0.35040 0.61550 0.56500
C5F C 0.35623(12) 0.8834(3) 0.1983(3)
H4F H 0.32990 0.96640 0.22520
H5F H 0.39710 0.88520 0.26580
H6F H 0.36680 0.88250 0.07430
C10F C -0.0092(5) 0.8721(12) -0.2905(12)
H8F H -0.03420 0.85790 -0.39790
H9F H -0.03780 0.91520 -0.20310
H10F H 0.02850 0.93340 -0.31350
#END
