
#######################################################################
#
#                 Cambridge Crystallographic Data Centre
#                                CCDC
#
#######################################################################
#
# If this CIF has been generated from an entry in the Cambridge
# Structural Database, then it will include bibliographic, chemical,
# crystal, experimental, refinement or atomic coordinate data resulting
# from the CCDC's data processing and validation procedures.
#
#######################################################################

data_CSD_CIF_ZURYOC
_audit_creation_date 2015-09-04
_audit_creation_method CSD-ConQuest-V1
_database_code_CSD ZURYOC
_database_code_depnum_ccdc_archive 'CCDC 1422365'
_chemical_formula_sum 'C34 H30 N2 O6'
_chemical_formula_moiety
;
C34 H30 N2 O6
;
_journal_coden_Cambridge 1336
_journal_volume 17
_journal_year 2015
_journal_page_first 4176
_journal_name_full 'Org.Lett. '
loop_
_publ_author_name
"Jianming Yan"
"Guan Liang Tay"
"Cuien Neo"
"Bo Ra Lee"
"Philip Wai Hong Chan"
_chemical_name_systematic
;
1,3-Dioxo-2,8-diphenyl-4-propyl-2,3,3a,4,6,7,9a,9b-octahydro-1H-benzo[e]isoind
ol-9-yl 4-nitrobenzoate
;
_cell_volume   5608.919
_exptl_crystal_colour 'colorless'
_exptl_crystal_density_diffrn 1.332
_exptl_crystal_description 'block'
_diffrn_ambient_temperature 103
#These two values have been output from a single CSD field.
_refine_ls_R_factor_gt 0.0647
_refine_ls_wR_factor_gt 0.0647
_symmetry_cell_setting monoclinic
_symmetry_space_group_name_H-M 'P 21/n'
_symmetry_Int_Tables_number 14
loop_
_symmetry_equiv_pos_site_id
_symmetry_equiv_pos_as_xyz
1 x,y,z
2 1/2-x,1/2+y,1/2-z
3 -x,-y,-z
4 -1/2+x,-1/2-y,-1/2+z
_cell_length_a 11.4637(5)
_cell_length_b 45.4434(19)
_cell_length_c 12.0124(6)
_cell_angle_alpha 90
_cell_angle_beta 116.324(2)
_cell_angle_gamma 90
_cell_formula_units_Z 8
loop_
_atom_type_symbol
_atom_type_radius_bond
C 0.68
H 0.23
N 0.68
O 0.68
loop_
_atom_site_label
_atom_site_type_symbol
_atom_site_fract_x
_atom_site_fract_y
_atom_site_fract_z
C1 C 0.5247(3) 0.02950(7) 0.2379(3)
C2 C 0.5802(3) 0.05792(6) 0.3094(3)
H1 H 0.62980 0.06840 0.27090
C3 C 0.4595(3) 0.07627(6) 0.2895(3)
H2 H 0.46440 0.09570 0.25270
C4 C 0.3446(3) 0.05920(7) 0.1955(3)
C5 C 0.4469(3) 0.08178(6) 0.4130(3)
H3 H 0.51180 0.09730 0.46110
C6 C 0.3154(3) 0.09312(6) 0.3883(3)
C7 C 0.2233(3) 0.07884(6) 0.4033(2)
C8 C 0.2525(3) 0.04850(6) 0.4629(3)
H4 H 0.22700 0.03330 0.39720
H5 H 0.20050 0.04540 0.50920
C9 C 0.3969(3) 0.04521(7) 0.5513(3)
H6 H 0.41800 0.05750 0.62580
H7 H 0.41520 0.02450 0.57860
C10 C 0.4817(3) 0.05415(6) 0.4917(2)
C11 C 0.5904(3) 0.04036(7) 0.5076(3)
H8 H 0.61690 0.02300 0.55650
C12 C 0.6711(3) 0.05236(7) 0.4479(3)
H9 H 0.70260 0.07210 0.48600
C13 C 0.3048(3) 0.00957(7) 0.0977(3)
C14 C 0.2088(3) -0.00182(7) 0.1259(3)
H10 H 0.20130 0.00460 0.19760
C15 C 0.1245(3) -0.02267(7) 0.0482(3)
H11 H 0.05800 -0.03060 0.06630
C16 C 0.1362(3) -0.03220(7) -0.0559(3)
H12 H 0.07730 -0.04640 -0.10950
C17 C 0.2327(3) -0.02105(7) -0.0817(3)
H13 H 0.24090 -0.02790 -0.15260
C18 C 0.3187(3) 0.00008(7) -0.0059(3)
H14 H 0.38520 0.00780 -0.02420
C19 C 0.3247(3) 0.14517(6) 0.4047(3)
C20 C 0.2579(3) 0.17256(6) 0.3377(2)
C21 C 0.1611(3) 0.17215(7) 0.2160(3)
H15 H 0.14150 0.15430 0.17000
C22 C 0.0929(3) 0.19748(7) 0.1612(3)
H16 H 0.02730 0.19740 0.07770
C23 C 0.1233(3) 0.22267(6) 0.2315(3)
C24 C 0.2206(3) 0.22429(7) 0.3511(3)
H17 H 0.24040 0.24230 0.39570
C25 C 0.2889(3) 0.19881(6) 0.4045(3)
H18 H 0.35680 0.19920 0.48690
C26 C 0.0879(3) 0.09012(6) 0.3588(3)
C27 C 0.0179(3) 0.09957(7) 0.2364(3)
H19 H 0.05790 0.09940 0.18210
C28 C -0.1090(3) 0.10914(7) 0.1936(3)
H20 H -0.15590 0.11550 0.11000
C29 C -0.1680(3) 0.10950(7) 0.2718(3)
H21 H -0.25510 0.11620 0.24230
C30 C -0.1003(3) 0.10008(7) 0.3924(3)
H22 H -0.14120 0.10030 0.44600
C31 C 0.0264(3) 0.09023(7) 0.4368(3)
H23 H 0.07170 0.08350 0.52010
C32 C 0.7924(3) 0.03406(7) 0.4755(3)
H24 H 0.76770 0.01310 0.45740
H25 H 0.83150 0.04050 0.42080
C33 C 0.8920(3) 0.03719(7) 0.6100(3)
H26 H 0.84950 0.03250 0.66390
H27 H 0.92090 0.05800 0.62550
C34 C 1.0108(3) 0.01764(8) 0.6471(3)
H28 H 0.98350 -0.00300 0.63350
H29 H 1.06990 0.02070 0.73510
H30 H 1.05570 0.02260 0.59660
N1 N 0.3893(2) 0.03196(5) 0.1768(2)
N2 N 0.0449(2) 0.24927(6) 0.1763(2)
O1 O 0.5844(2) 0.00824(5) 0.23203(18)
O2 O 0.2320(2) 0.06695(5) 0.14429(18)
O3 O 0.28437(17) 0.12125(4) 0.32910(16)
O4 O 0.40163(19) 0.14400(4) 0.51235(18)
O5 O 0.0570(2) 0.27049(5) 0.2436(2)
O6 O -0.0301(2) 0.24873(5) 0.0659(2)
C35 C 0.7238(3) 0.17547(7) 0.8785(3)
C36 C 0.6396(3) 0.15573(6) 0.7717(3)
H31 H 0.58880 0.16840 0.69790
C37 C 0.5432(3) 0.14089(6) 0.8116(3)
H32 H 0.45320 0.14740 0.75360
C38 C 0.5767(3) 0.15341(7) 0.9385(3)
C39 C 0.5481(3) 0.10670(6) 0.8080(3)
H33 H 0.51210 0.10120 0.71830
C40 C 0.6882(3) 0.09698(7) 0.8665(3)
H34 H 0.71660 0.08200 0.92810
C41 C 0.7719(3) 0.10927(7) 0.8320(3)
C42 C 0.9125(3) 0.10105(7) 0.8776(3)
H35 H 0.92130 0.08730 0.81800
H36 H 0.94310 0.09090 0.95860
C43 C 0.9970(3) 0.12799(7) 0.8926(3)
H37 H 0.99710 0.14060 0.95980
H38 H 1.08770 0.12170 0.91660
C44 C 0.9481(3) 0.14562(6) 0.7735(3)
C45 C 0.8198(3) 0.14713(6) 0.7061(3)
C46 C 0.7185(3) 0.13304(6) 0.7348(3)
H39 H 0.65510 0.12330 0.65660
C47 C 0.7159(3) 0.19380(7) 1.0709(3)
C48 C 0.6536(3) 0.22086(7) 1.0516(3)
H40 H 0.58710 0.22590 0.97190
C49 C 0.6887(3) 0.24031(8) 1.1488(3)
H41 H 0.64670 0.25890 1.13600
C50 C 0.7849(3) 0.23294(8) 1.2654(3)
H42 H 0.80830 0.24640 1.33240
C51 C 0.8467(3) 0.20615(8) 1.2840(3)
H43 H 0.91310 0.20120 1.36380
C52 C 0.8118(3) 0.18635(7) 1.1860(3)
H44 H 0.85410 0.16780 1.19870
C53 C 0.6921(3) 0.15562(7) 0.4902(3)
C54 C 0.6144(3) 0.17839(7) 0.4001(2)
C55 C 0.6092(3) 0.20720(7) 0.4366(3)
H45 H 0.66010 0.21280 0.52060
C56 C 0.5302(3) 0.22776(7) 0.3514(3)
H46 H 0.52640 0.24750 0.37520
C57 C 0.4571(3) 0.21843(7) 0.2304(3)
C58 C 0.4627(3) 0.19036(7) 0.1907(3)
H47 H 0.41340 0.18500 0.10610
C59 C 0.5415(3) 0.17031(7) 0.2768(3)
H48 H 0.54620 0.15070 0.25170
C60 C 1.0446(3) 0.15986(7) 0.7411(3)
C61 C 1.1513(3) 0.17471(7) 0.8319(3)
H49 H 1.15860 0.17660 0.91350
C62 C 1.2464(3) 0.18667(7) 0.8043(3)
H50 H 1.31810 0.19680 0.86670
C63 C 1.2372(3) 0.18391(7) 0.6864(3)
H51 H 1.30280 0.19200 0.66780
C64 C 1.1327(3) 0.16939(7) 0.5955(3)
H52 H 1.12660 0.16750 0.51430
C65 C 1.0372(3) 0.15766(7) 0.6224(3)
H53 H 0.96510 0.14790 0.55890
C66 C 0.4647(3) 0.09067(7) 0.8580(3)
H54 H 0.49790 0.09530 0.94740
H55 H 0.47430 0.06920 0.85030
C67 C 0.3208(3) 0.09847(7) 0.7922(3)
H56 H 0.30900 0.11900 0.81260
H57 H 0.29060 0.09720 0.70130
C68 C 0.2384(3) 0.07845(8) 0.8285(4)
H58 H 0.25030 0.05800 0.80940
H59 H 0.14660 0.08390 0.78190
H60 H 0.26470 0.08040 0.91770
N3 N 0.6764(2) 0.17383(5) 0.9677(2)
N4 N 0.3711(3) 0.23986(7) 0.1395(3)
O7 O 0.8144(2) 0.19051(5) 0.88992(19)
O8 O 0.5266(2) 0.14785(5) 1.0064(2)
O9 O 0.76586(18) 0.16709(4) 0.60421(16)
O10 O 0.68991(19) 0.12963(5) 0.46596(17)
O11 O 0.3721(4) 0.26493(7) 0.1738(3)
O12 O 0.3008(2) 0.23170(6) 0.0356(2)
#END
