
#######################################################################
#
#                 Cambridge Crystallographic Data Centre
#                                CCDC
#
#######################################################################
#
# If this CIF has been generated from an entry in the Cambridge
# Structural Database, then it will include bibliographic, chemical,
# crystal, experimental, refinement or atomic coordinate data resulting
# from the CCDC's data processing and validation procedures.
#
#######################################################################

data_CSD_CIF_ZUTDAV
_audit_creation_date 2015-09-04
_audit_creation_method CSD-ConQuest-V1
_database_code_CSD ZUTDAV
_database_code_depnum_ccdc_archive 'CCDC 891157'
_chemical_formula_sum 'C20 H18 N2 O3'
_chemical_formula_moiety
;
C20 H18 N2 O3
;
_journal_coden_Cambridge 35
_journal_volume 78
_journal_year 2013
_journal_page_first 3503
_journal_name_full 'J.Org.Chem. '
loop_
_publ_author_name
"Hu Chen"
"Zhaofeng Wang"
"Yingnan Zhang"
"Yong Huang"
_chemical_name_systematic
;
(3S,3aS,6aR)-5-Methyl-2-phenyl-3-((E)-styryl)-dihydro-2H-pyrrolo(3,4-d)isoxazo
le-4,6(5H,6aH)-dione
;
_cell_volume   1677.435
_exptl_crystal_colour 'colorless'
_exptl_crystal_density_diffrn 1.324
_exptl_crystal_description 'prism'
_diffrn_ambient_temperature 298
#These two values have been output from a single CSD field.
_refine_ls_R_factor_gt 0.0797
_refine_ls_wR_factor_gt 0.0797
loop_
_citation_database_id_CSD
_citation_special_details
ZUTCUO "is a stereoisomer of this entry"
_symmetry_cell_setting monoclinic
_symmetry_space_group_name_H-M 'P 21/n'
_symmetry_Int_Tables_number 14
loop_
_symmetry_equiv_pos_site_id
_symmetry_equiv_pos_as_xyz
1 x,y,z
2 1/2-x,1/2+y,1/2-z
3 -x,-y,-z
4 -1/2+x,-1/2-y,-1/2+z
_cell_length_a 11.9745(4)
_cell_length_b 7.6299(3)
_cell_length_c 18.3877(12)
_cell_angle_alpha 90
_cell_angle_beta 93.153(7)
_cell_angle_gamma 90
_cell_formula_units_Z 4
loop_
_atom_type_symbol
_atom_type_radius_bond
C 0.68
H 0.23
N 0.68
O 0.68
loop_
_atom_site_label
_atom_site_type_symbol
_atom_site_fract_x
_atom_site_fract_y
_atom_site_fract_z
O1 O 0.37919(18) 0.5043(3) 0.72480(11)
O2 O 0.45795(19) 0.2348(3) 0.52534(12)
O3 O 0.3973(2) 0.1114(3) 0.76190(13)
N1 N 0.44346(19) 0.1425(3) 0.64285(13)
N2 N 0.4519(2) 0.5864(3) 0.67462(13)
C1 C 0.4182(2) 0.2497(4) 0.58403(16)
C2 C 0.2981(2) 0.7152(4) 0.60064(17)
H1 H 0.24940 0.72140 0.63820
C3 C 0.2035(2) 0.9741(4) 0.54172(17)
C4 C 0.5621(2) 0.5091(4) 0.67992(16)
C5 C 0.2855(2) 0.8298(4) 0.54744(16)
H2 H 0.33330 0.81880 0.50950
C6 C 0.3891(3) 0.1886(4) 0.70418(17)
C7 C 0.1471(3) 1.0316(4) 0.6016(2)
H3 H 0.16140 0.97810 0.64660
C8 C 0.3864(2) 0.5747(4) 0.60454(16)
H4 H 0.43540 0.58600 0.56380
C9 C 0.1807(3) 1.0589(5) 0.4759(2)
H5 H 0.21840 1.02520 0.43530
C10 C 0.3360(2) 0.3891(4) 0.60634(16)
H6 H 0.26410 0.38130 0.57830
C11 C 0.6013(3) 0.4275(4) 0.74363(18)
H7 H 0.55570 0.41820 0.78280
C12 C 0.6325(3) 0.5278(4) 0.62265(18)
H8 H 0.60820 0.58720 0.58050
C13 C 0.7086(3) 0.3597(5) 0.7487(2)
H9 H 0.73450 0.30440 0.79140
C14 C 0.5285(3) 0.0064(4) 0.6419(2)
H10 H 0.53070 -0.04080 0.59360
H11 H 0.51090 -0.08530 0.67510
H12 H 0.60020 0.05550 0.65630
C15 C 0.7776(3) 0.3727(5) 0.6917(2)
H13 H 0.84920 0.32520 0.69540
C16 C 0.1027(3) 1.1930(5) 0.4697(2)
H14 H 0.08790 1.24720 0.42490
C17 C 0.3242(3) 0.3561(4) 0.68738(17)
H15 H 0.24570 0.34560 0.69920
C18 C 0.7391(3) 0.4570(5) 0.6291(2)
H16 H 0.78560 0.46660 0.59040
C19 C 0.0708(3) 1.1657(5) 0.5953(3)
H17 H 0.03450 1.20270 0.63600
C20 C 0.0475(3) 1.2461(5) 0.5288(3)
H18 H -0.00520 1.33550 0.52440
#END
