
#######################################################################
#
#                 Cambridge Crystallographic Data Centre
#                                CCDC
#
#######################################################################
#
# If this CIF has been generated from an entry in the Cambridge
# Structural Database, then it will include bibliographic, chemical,
# crystal, experimental, refinement or atomic coordinate data resulting
# from the CCDC's data processing and validation procedures.
#
#######################################################################

data_CSD_CIF_ZUTNUX
_audit_creation_date 1996-12-03
_audit_creation_method CSD-ConQuest-V1
_database_code_CSD ZUTNUX
_chemical_formula_sum 'C13 H15 N1 O3'
_chemical_formula_moiety
;
C13 H15 N1 O3
;
_journal_coden_Cambridge 423
_journal_volume 80
_journal_year 1996
_journal_page_first 601
_journal_name_full 'J.Chem.Res. '
loop_
_publ_author_name
"A.A.Freer"
"N.W.Isaacs"
"G.W.Kirby"
"P.Snedden"
"S.G.T.Tierney"
_chemical_name_systematic
;
(6SR)-2-((2SR)-2-Hydroxy-2-phenylacetyl)-6-methyl-3,6-dihydro-2H-1,2-oxazine
;
_chemical_melting_point 386.15
_cell_volume   1201.912
_exptl_crystal_density_diffrn 1.29
_exptl_special_details
;
Melting point range 386.15-390.15K

;
_diffrn_ambient_temperature ?
_diffrn_special_details
;
The study was carried out at room temperature,in the range 283-303K

;
#These two values have been output from a single CSD field.
_refine_ls_R_factor_gt 0.048
_refine_ls_wR_factor_gt 0.048
_symmetry_cell_setting monoclinic
_symmetry_space_group_name_H-M 'P 21/c'
_symmetry_Int_Tables_number 14
loop_
_symmetry_equiv_pos_site_id
_symmetry_equiv_pos_as_xyz
1 x,y,z
2 -x,1/2+y,1/2-z
3 -x,-y,-z
4 x,-1/2-y,-1/2+z
_cell_length_a 6.918(2)
_cell_length_b 21.664(2)
_cell_length_c 8.039(1)
_cell_angle_alpha 90
_cell_angle_beta 93.98(3)
_cell_angle_gamma 90
_cell_formula_units_Z 4
loop_
_atom_type_symbol
_atom_type_radius_bond
C 0.68
H 0.23
N 0.68
O 0.68
loop_
_atom_site_label
_atom_site_type_symbol
_atom_site_fract_x
_atom_site_fract_y
_atom_site_fract_z
O1 O 0.5461(4) 0.1267(1) 0.6945(3)
O2 O 0.9251(4) 0.0214(1) 0.7568(3)
O3 O 0.7505(4) 0.0081(1) 1.0489(3)
N1 N 0.6935(5) 0.0860(2) 0.6557(4)
C1 C 0.7202(6) 0.0804(2) 0.4784(5)
C2 C 0.5229(7) 0.0712(2) 0.3877(5)
C3 C 0.3628(7) 0.0798(2) 0.4617(5)
C4 C 0.3562(6) 0.1015(2) 0.6367(5)
C5 C 0.2192(7) 0.1542(2) 0.6583(6)
C6 C 0.7858(6) 0.0546(2) 0.7829(5)
C7 C 0.7055(5) 0.0618(2) 0.9529(4)
C8 C 0.7762(6) 0.1204(2) 1.0388(4)
C9 C 0.9708(6) 0.1282(2) 1.0901(5)
C10 C 1.0283(7) 0.1805(2) 1.1790(6)
C11 C 0.8982(9) 0.2252(2) 1.2166(6)
C12 C 0.7047(9) 0.2181(2) 1.1621(6)
C13 C 0.6461(7) 0.1662(2) 1.0737(5)
H1 H 0.81182 0.04170 0.45668
H2 H 0.78625 0.12155 0.43412
H3 H 0.51393 0.05713 0.25800
H4 H 0.22671 0.07031 0.39128
H5 H 0.32087 0.06365 0.71514
H6 H 0.55125 0.06766 0.93834
H7 H 1.07593 0.09328 1.06219
H8 H 1.17992 0.18671 1.21895
H9 H 0.94529 0.26538 1.28889
H10 H 0.60091 0.25372 1.18758
H11 H 0.49438 0.16082 1.03282
H12 H 0.08047 0.13571 0.61620
H13 H 0.25523 0.19331 0.58446
H14 H 0.22101 0.16799 0.78665
#END
