
#######################################################################
#
#                 Cambridge Crystallographic Data Centre
#                                CCDC
#
#######################################################################
#
# If this CIF has been generated from an entry in the Cambridge
# Structural Database, then it will include bibliographic, chemical,
# crystal, experimental, refinement or atomic coordinate data resulting
# from the CCDC's data processing and validation procedures.
#
#######################################################################

data_CSD_CIF_ZUTPAF
_audit_creation_date 1996-12-03
_audit_creation_method CSD-ConQuest-V1
_database_code_CSD ZUTPAF
_chemical_formula_sum 'C13 H15 N1 O3'
_chemical_formula_moiety
;
C13 H15 N1 O3
;
_journal_coden_Cambridge 423
_journal_volume 80
_journal_year 1996
_journal_page_first 601
_journal_name_full 'J.Chem.Res. '
loop_
_publ_author_name
"A.A.Freer"
"N.W.Isaacs"
"G.W.Kirby"
"P.Snedden"
"S.G.T.Tierney"
_chemical_name_systematic
;
(3SR)-2-((2SR)-2-Hydroxy-2-phenylacetyl)-3-methyl-3,6-dihydro-2H-1,2-oxazine
;
_chemical_melting_point 373.15
_cell_volume   1236.358
_exptl_crystal_density_diffrn 1.25
_exptl_special_details
;
Melting point range 373.15-376.15K

;
_diffrn_ambient_temperature ?
_diffrn_special_details
;
The study was carried out at room temperature,in the range 283-303K

;
#These two values have been output from a single CSD field.
_refine_ls_R_factor_gt 0.089
_refine_ls_wR_factor_gt 0.089
_symmetry_cell_setting monoclinic
_symmetry_space_group_name_H-M 'P 21/n'
_symmetry_Int_Tables_number 14
loop_
_symmetry_equiv_pos_site_id
_symmetry_equiv_pos_as_xyz
1 x,y,z
2 1/2-x,1/2+y,1/2-z
3 -x,-y,-z
4 -1/2+x,-1/2-y,-1/2+z
_cell_length_a 11.762(1)
_cell_length_b 7.906(1)
_cell_length_c 13.406(2)
_cell_angle_alpha 90
_cell_angle_beta 97.36(3)
_cell_angle_gamma 90
_cell_formula_units_Z 4
loop_
_atom_type_symbol
_atom_type_radius_bond
C 0.68
H 0.23
N 0.68
O 0.68
loop_
_atom_site_label
_atom_site_type_symbol
_atom_site_fract_x
_atom_site_fract_y
_atom_site_fract_z
O1 O 0.8946(2) 0.0269(5) 0.0474(3)
O2 O 0.6149(3) -0.0952(5) 0.0697(3)
O3 O 0.5877(3) -0.0280(5) -0.1286(3)
N1 N 0.8005(3) -0.0250(6) 0.0943(3)
C1 C 0.8294(1) -0.0951(9) 0.1936(4)
C2 C 0.9137(6) 0.0196(12) 0.2506(5)
C3 C 0.9629(6) 0.1455(11) 0.2089(5)
C4 C 0.9432(4) 0.1744(8) 0.0987(5)
C5 C 0.8738(6) -0.2767(10) 0.1885(6)
C6 C 0.6979(4) -0.0355(6) 0.0344(4)
C7 C 0.6931(4) 0.0259(6) -0.0724(4)
C8 C 0.7093(4) 0.2151(6) -0.0792(3)
C9 C 0.6454(4) 0.3243(7) -0.0284(4)
C10 C 0.6577(5) 0.4959(7) -0.0378(5)
C11 C 0.7348(6) 0.5602(8) -0.0977(6)
C12 C 0.7980(5) 0.4514(8) -0.1492(5)
C13 C 0.7859(4) 0.2797(7) -0.1385(4)
H1 H 0.75383 -0.10504 0.23029
H2 H 0.93546 -0.00150 0.33071
H3 H 1.01894 0.23016 0.25596
H4 H 0.76375 -0.02565 -0.10571
H5 H 0.58210 0.27424 0.01892
H6 H 0.60682 0.58125 0.00177
H7 H 0.74556 0.69580 -0.10418
H8 H 0.85708 0.50123 -0.19761
H9 H 0.83711 0.19432 -0.17768
H10 H 1.02331 0.20382 0.07245
H11 H 0.88565 0.27912 0.08274
H12 H 0.89521 -0.32890 0.26245
H13 H 0.94872 -0.27686 0.15052
H14 H 0.80894 -0.35345 0.14704
#END
