
#######################################################################
#
#                 Cambridge Crystallographic Data Centre
#                                CCDC
#
#######################################################################
#
# If this CIF has been generated from an entry in the Cambridge
# Structural Database, then it will include bibliographic, chemical,
# crystal, experimental, refinement or atomic coordinate data resulting
# from the CCDC's data processing and validation procedures.
#
#######################################################################

data_CSD_CIF_ZUVQEO
_audit_creation_date 2015-09-07
_audit_creation_method CSD-ConQuest-V1
_database_code_CSD ZUVQEO
_database_code_depnum_ccdc_archive 'CCDC 1422902'
_chemical_formula_sum 'C16 H14 N2 O6'
_chemical_formula_moiety
;
C16 H14 N2 O6
;
_journal_coden_Cambridge 35
_journal_volume 78
_journal_year 2013
_journal_page_first 8562
_journal_name_full 'J.Org.Chem. '
loop_
_publ_author_name
"Chao Cheng"
"Zongwei Cai"
"Xiao-Shui Peng"
"H.N.C.Wong"
_chemical_name_systematic
;
6,7-dimethyl-1,12-dinitro-6,7-dihydrodibenzo[e,g][1,4]dioxocine
;
_cell_volume   1552.793
_exptl_crystal_colour 'yellow'
_exptl_crystal_density_diffrn 1.413
_exptl_crystal_description 'plate'
_diffrn_ambient_temperature 296
#These two values have been output from a single CSD field.
_refine_ls_R_factor_gt 0.0561
_refine_ls_wR_factor_gt 0.0561
_symmetry_cell_setting orthorhombic
_symmetry_space_group_name_H-M 'P 21 21 21'
_symmetry_Int_Tables_number 19
loop_
_symmetry_equiv_pos_site_id
_symmetry_equiv_pos_as_xyz
1 x,y,z
2 1/2-x,-y,1/2+z
3 -x,1/2+y,1/2-z
4 1/2+x,1/2-y,-z
_cell_length_a 8.132(3)
_cell_length_b 12.160(5)
_cell_length_c 15.703(6)
_cell_angle_alpha 90
_cell_angle_beta 90
_cell_angle_gamma 90
_cell_formula_units_Z 4
loop_
_atom_type_symbol
_atom_type_radius_bond
C 0.68
H 0.23
N 0.68
O 0.68
loop_
_atom_site_label
_atom_site_type_symbol
_atom_site_fract_x
_atom_site_fract_y
_atom_site_fract_z
O1 O 0.2415(3) 0.51665(16) 0.52419(14)
O2 O -0.0104(3) 0.47587(17) 0.62942(13)
O3 O -0.0588(5) 0.5990(3) 0.32254(19)
O4 O -0.2814(5) 0.6868(4) 0.3269(2)
O5 O -0.3024(5) 0.3139(4) 0.3350(3)
O6 O -0.3337(4) 0.4211(4) 0.4360(3)
C1 C -0.1676(4) 0.6325(3) 0.4528(2)
C2 C -0.2404(5) 0.7190(3) 0.4933(3)
H1 H -0.29510 0.77280 0.46220
C3 C -0.2322(5) 0.7261(3) 0.5801(3)
H2 H -0.27970 0.78530 0.60830
C4 C -0.1543(5) 0.6459(3) 0.6245(2)
H3 H -0.14820 0.65040 0.68360
C5 C -0.0840(4) 0.5579(3) 0.5831(2)
C6 C -0.0876(3) 0.5474(2) 0.49562(18)
C7 C -0.0016(4) 0.4538(2) 0.45611(18)
C8 C 0.1658(4) 0.4414(2) 0.4731(2)
C9 C 0.2569(5) 0.3580(3) 0.4361(3)
H4 H 0.36860 0.35190 0.44790
C10 C 0.1838(5) 0.2852(3) 0.3827(3)
H5 H 0.24590 0.22980 0.35760
C11 C 0.0204(5) 0.2929(3) 0.3658(2)
H6 H -0.02990 0.24310 0.32910
C12 C -0.0692(4) 0.3749(3) 0.4034(2)
C13 C 0.1454(5) 0.5066(3) 0.6683(2)
H7 H 0.14670 0.58620 0.67810
C14 C 0.2821(4) 0.4767(3) 0.6085(2)
H8 H 0.29240 0.39650 0.60660
C15 C 0.1531(6) 0.4481(4) 0.7523(3)
H9 H 0.06240 0.47100 0.78730
H10 H 0.25460 0.46580 0.78040
H11 H 0.14720 0.37020 0.74310
C16 C 0.4469(5) 0.5258(4) 0.6314(3)
H12 H 0.52720 0.50420 0.58980
H13 H 0.48000 0.49980 0.68650
H14 H 0.43840 0.60450 0.63240
N1 N -0.1709(4) 0.6368(3) 0.3606(2)
N2 N -0.2472(4) 0.3724(3) 0.3892(2)
#END
