
#######################################################################
#
#                 Cambridge Crystallographic Data Centre
#                                CCDC
#
#######################################################################
#
# If this CIF has been generated from an entry in the Cambridge
# Structural Database, then it will include bibliographic, chemical,
# crystal, experimental, refinement or atomic coordinate data resulting
# from the CCDC's data processing and validation procedures.
#
#######################################################################

data_CSD_CIF_ZUXKEK
_audit_creation_date 2016-01-04
_audit_creation_method CSD-ConQuest-V1
_database_code_CSD ZUXKEK
_database_code_depnum_ccdc_archive 'CCDC 1434368'
_chemical_formula_sum 'C15 H11 N1 O3'
_chemical_formula_moiety
;
C15 H11 N1 O3
;
_journal_coden_Cambridge 1336
_journal_volume 17
_journal_year 2015
_journal_page_first 6126
_journal_name_full 'Org.Lett. '
loop_
_publ_author_name
"E.Tomas-Mendivil"
"J.Starck"
"J.-C.Ortuno"
"V.Michelet"
_chemical_name_systematic
;
3-(4-nitrophenyl)-1H-isochromene
;
_cell_volume   2352.686
_exptl_crystal_colour 'yellow'
_exptl_crystal_density_diffrn 1.43
_exptl_crystal_description 'platelet'
_diffrn_ambient_temperature 200
#These two values have been output from a single CSD field.
_refine_ls_R_factor_gt 0.0563
_refine_ls_wR_factor_gt 0.0563
_symmetry_cell_setting monoclinic
_symmetry_space_group_name_H-M 'P 21/n'
_symmetry_Int_Tables_number 14
loop_
_symmetry_equiv_pos_site_id
_symmetry_equiv_pos_as_xyz
1 x,y,z
2 1/2-x,1/2+y,1/2-z
3 -x,-y,-z
4 -1/2+x,-1/2-y,-1/2+z
_cell_length_a 12.1340(3)
_cell_length_b 7.4180(2)
_cell_length_c 26.1516(7)
_cell_angle_alpha 90
_cell_angle_beta 91.845(1)
_cell_angle_gamma 90
_cell_formula_units_Z 8
loop_
_atom_type_symbol
_atom_type_radius_bond
C 0.68
H 0.23
N 0.68
O 0.68
loop_
_atom_site_label
_atom_site_type_symbol
_atom_site_fract_x
_atom_site_fract_y
_atom_site_fract_z
O1 O 0.37768(10) 0.93892(17) 0.35816(5)
O2 O 0.08434(14) 0.8878(3) 0.57509(6)
O3 O -0.03723(14) 0.7146(3) 0.53857(7)
N1 N 0.04687(14) 0.8046(2) 0.53796(7)
C1 C 0.28527(14) 0.8316(2) 0.35337(7)
C2 C 0.25907(15) 0.7483(2) 0.30909(7)
H1 H 0.19710 0.67010 0.30720
C3 C 0.32389(15) 0.7759(2) 0.26401(7)
C4 C 0.28764(16) 0.7322(2) 0.21439(7)
H2 H 0.21660 0.68090 0.20870
C5 C 0.35398(17) 0.7628(3) 0.17346(7)
H3 H 0.33020 0.72650 0.14010
C6 C 0.45571(17) 0.8468(3) 0.18094(8)
H4 H 0.50050 0.87040 0.15260
C7 C 0.49178(15) 0.8964(3) 0.22998(7)
H5 H 0.56050 0.95630 0.23500
C8 C 0.42756(14) 0.8582(2) 0.27138(7)
C9 C 0.46644(15) 0.8877(3) 0.32563(7)
H6 H 0.50090 0.77560 0.33900
H7 H 0.52330 0.98350 0.32660
C10 C 0.22101(14) 0.8293(2) 0.40033(7)
C11 C 0.26122(16) 0.9168(3) 0.44437(7)
H8 H 0.32850 0.98200 0.44350
C12 C 0.20389(16) 0.9095(3) 0.48937(7)
H9 H 0.23160 0.96850 0.51940
C13 C 0.10613(15) 0.8153(3) 0.48986(7)
C14 C 0.06302(16) 0.7306(3) 0.44679(8)
H10 H -0.00520 0.66790 0.44780
C15 C 0.12046(15) 0.7382(3) 0.40202(7)
H11 H 0.09120 0.68080 0.37210
N2 N 0.28771(15) 0.3502(3) 0.55566(6)
O4 O 0.6274(1) 0.22304(18) 0.38066(4)
O5 O 0.32192(18) 0.2630(4) 0.59200(7)
O6 O 0.20531(12) 0.4447(3) 0.55656(6)
C16 C 0.53223(13) 0.3216(2) 0.37386(6)
C17 C 0.50267(14) 0.3922(2) 0.32831(6)
H12 H 0.43870 0.46570 0.32530
C18 C 0.56714(14) 0.3581(2) 0.28352(7)
C19 C 0.52878(15) 0.3951(3) 0.23372(7)
H13 H 0.45850 0.44920 0.22790
C20 C 0.59396(17) 0.3524(3) 0.19265(7)
H14 H 0.56910 0.38130 0.15880
C21 C 0.69511(17) 0.2680(3) 0.20078(7)
H15 H 0.73800 0.23490 0.17250
C22 C 0.73342(16) 0.2320(3) 0.25011(7)
H16 H 0.80290 0.17490 0.25560
C23 C 0.67132(14) 0.2786(2) 0.29128(7)
C24 C 0.71359(14) 0.2613(3) 0.34574(7)
H17 H 0.76910 0.16350 0.34790
H18 H 0.75070 0.37500 0.35620
C25 C 0.46773(14) 0.3279(2) 0.42058(6)
C26 C 0.51105(15) 0.2544(2) 0.46612(7)
H19 H 0.58190 0.20000 0.46660
C27 C 0.45214(16) 0.2599(3) 0.51037(7)
H20 H 0.48140 0.20890 0.54120
C28 C 0.35000(15) 0.3408(3) 0.50880(7)
C29 C 0.30382(15) 0.4143(3) 0.46454(7)
H21 H 0.23300 0.46890 0.46450
C30 C 0.36322(15) 0.4064(3) 0.42039(7)
H22 H 0.33250 0.45500 0.38950
#END
