
#######################################################################
#
#                 Cambridge Crystallographic Data Centre
#                                CCDC
#
#######################################################################
#
# If this CIF has been generated from an entry in the Cambridge
# Structural Database, then it will include bibliographic, chemical,
# crystal, experimental, refinement or atomic coordinate data resulting
# from the CCDC's data processing and validation procedures.
#
#######################################################################

data_CSD_CIF_ZUXSOC
_audit_creation_date 2016-01-04
_audit_creation_method CSD-ConQuest-V1
_database_code_CSD ZUXSOC
_database_code_depnum_ccdc_archive 'CCDC 1047894'
_chemical_formula_sum 'C20 H22 N4 O5'
_chemical_formula_moiety
;
C20 H22 N4 O5
;
_journal_coden_Cambridge 35
_journal_volume 80
_journal_year 2015
_journal_page_first 12058
_journal_name_full 'J.Org.Chem. '
loop_
_publ_author_name
"J.F.Hooper"
"N.C.James"
"E.Bozkurt"
"V.Aviyente"
"J.M.White"
"M.C.Holland"
"Ryan Gilmour"
"A.B.Holmes"
"K.N.Houk"
_chemical_name_systematic
;
1-(2,4-Dinitrophenyl)-2-((6-methyl-13-oxatricyclo[6.4.1.0^2,7^]trideca-5,10-di
en-3-yl)methylene)hydrazine
;
_cell_volume   4034.106
_exptl_crystal_colour 'yellow'
_exptl_crystal_density_diffrn 1.312
_exptl_crystal_description 'prism'
_diffrn_ambient_temperature 130
#These two values have been output from a single CSD field.
_refine_ls_R_factor_gt 0.0444
_refine_ls_wR_factor_gt 0.0444
_symmetry_cell_setting tetragonal
_symmetry_space_group_name_H-M 'P 43 21 2'
_symmetry_Int_Tables_number 96
loop_
_symmetry_equiv_pos_site_id
_symmetry_equiv_pos_as_xyz
1 x,y,z
2 -x,-y,1/2+z
3 1/2-y,1/2+x,3/4+z
4 1/2+y,1/2-x,1/4+z
5 1/2-x,1/2+y,3/4-z
6 1/2+x,1/2-y,1/4-z
7 y,x,-z
8 -y,-x,1/2-z
_cell_length_a 10.7298(4)
_cell_length_b 10.7298(4)
_cell_length_c 35.040(3)
_cell_angle_alpha 90
_cell_angle_beta 90
_cell_angle_gamma 90
_cell_formula_units_Z 8
loop_
_atom_type_symbol
_atom_type_radius_bond
C 0.68
H 0.23
N 0.68
O 0.68
loop_
_atom_site_label
_atom_site_type_symbol
_atom_site_fract_x
_atom_site_fract_y
_atom_site_fract_z
C1 C 0.6854(3) 0.4787(3) 0.09991(9)
H1 H 0.62500 0.42900 0.11440
C2 C 0.7211(3) 0.5876(3) 0.12498(10)
H2 H 0.64470 0.62410 0.13540
C3 C 0.7988(3) 0.6920(3) 0.10734(12)
H3 H 0.76330 0.70990 0.08250
H4 H 0.78610 0.76570 0.12290
C4 C 0.9348(4) 0.6777(4) 0.10199(12)
H5 H 0.97130 0.74130 0.08780
C5 C 1.0126(4) 0.5929(5) 0.11340(13)
H6 H 1.09440 0.60740 0.10580
C6 C 0.9966(4) 0.4771(5) 0.13623(12)
H7 H 1.02580 0.49270 0.16200
H8 H 1.04900 0.41250 0.12540
C7 C 0.8618(3) 0.4284(4) 0.13822(11)
H9 H 0.85790 0.35280 0.15390
C8 C 0.8052(3) 0.4039(3) 0.09873(10)
H10 H 0.85970 0.44520 0.08020
C9 C 0.7811(4) 0.2751(3) 0.08361(11)
C10 C 0.6881(4) 0.2601(3) 0.05946(10)
H11 H 0.67740 0.18080 0.04930
C11 C 0.5970(3) 0.3596(3) 0.04664(10)
H12 H 0.51490 0.33950 0.05650
H13 H 0.59210 0.35870 0.01900
C12 C 0.6331(3) 0.4928(3) 0.05998(9)
H14 H 0.69860 0.52510 0.04320
C13 C 0.8684(4) 0.1709(4) 0.09468(13)
H15 H 0.92910 0.20160 0.11250
H16 H 0.82160 0.10470 0.10630
H17 H 0.90990 0.14010 0.07230
C14 C 0.5239(3) 0.5779(3) 0.05825(9)
H18 H 0.45060 0.55590 0.07070
C15 C 0.4127(3) 0.8565(3) 0.02016(9)
C16 C 0.2999(3) 0.9210(3) 0.01362(9)
C17 C 0.2963(4) 1.0312(3) -0.00658(10)
H19 H 0.22070 1.07100 -0.01100
C18 C 0.4050(4) 1.0814(3) -0.01998(10)
C19 C 0.5189(3) 1.0237(3) -0.01387(10)
H20 H 0.59190 1.05930 -0.02310
C20 C 0.5226(3) 0.9128(3) 0.00604(10)
H21 H 0.59900 0.87420 0.01020
N1 N 0.5292(2) 0.6806(3) 0.03992(8)
N2 N 0.4186(3) 0.7481(3) 0.03940(8)
N3 N 0.1816(3) 0.8750(3) 0.02787(9)
N4 N 0.3997(4) 1.1976(3) -0.04134(10)
O1 O 0.7864(2) 0.5270(2) 0.15530(7)
O2 O 0.1769(2) 0.7711(2) 0.04299(7)
O3 O 0.0898(3) 0.9419(3) 0.02505(10)
O4 O 0.2982(3) 1.2445(3) -0.04754(10)
O5 O 0.4982(3) 1.2412(2) -0.05279(9)
H22 H 0.347(3) 0.716(3) 0.0479(9)
#END
