
#######################################################################
#
#                 Cambridge Crystallographic Data Centre
#                                CCDC
#
#######################################################################
#
# If this CIF has been generated from an entry in the Cambridge
# Structural Database, then it will include bibliographic, chemical,
# crystal, experimental, refinement or atomic coordinate data resulting
# from the CCDC's data processing and validation procedures.
#
#######################################################################

data_CSD_CIF_ZUXYIC
_audit_creation_date 2016-01-04
_audit_creation_method CSD-ConQuest-V1
_database_code_CSD ZUXYIC
_database_code_depnum_ccdc_archive 'CCDC 1061318'
_chemical_formula_sum 'C16 H15 N1 O3'
_chemical_formula_moiety
;
C16 H15 N1 O3
;
_journal_coden_Cambridge 154
_journal_volume 68
_journal_year 2015
_journal_page_first 1662
_journal_name_full 'Aust.J.Chem. '
loop_
_publ_author_name
"H.M.Pordanjani"
"C.Faderl"
"Jun Wang"
"C.A.Motti"
"P.C.Junk"
"M.Oelgemoller"
_chemical_name_systematic
;
3-benzyl-3-hydroxy-2-methoxyisoindolin-1-one
;
_cell_volume   1375.039
_exptl_crystal_colour 'colorless'
_exptl_crystal_density_diffrn 1.301
_exptl_crystal_description 'prism'
_diffrn_ambient_temperature 100
#These two values have been output from a single CSD field.
_refine_ls_R_factor_gt 0.047
_refine_ls_wR_factor_gt 0.047
_symmetry_cell_setting orthorhombic
_symmetry_space_group_name_H-M 'P 21 21 21'
_symmetry_Int_Tables_number 19
loop_
_symmetry_equiv_pos_site_id
_symmetry_equiv_pos_as_xyz
1 x,y,z
2 1/2-x,-y,1/2+z
3 1/2+x,1/2-y,-z
4 -x,1/2+y,1/2-z
_cell_length_a 9.0510(18)
_cell_length_b 10.638(2)
_cell_length_c 14.281(3)
_cell_angle_alpha 90
_cell_angle_beta 90
_cell_angle_gamma 90
_cell_formula_units_Z 4
loop_
_atom_type_symbol
_atom_type_radius_bond
C 0.68
H 0.23
N 0.68
O 0.68
loop_
_atom_site_label
_atom_site_type_symbol
_atom_site_fract_x
_atom_site_fract_y
_atom_site_fract_z
O1 O 0.43782(17) 0.57477(15) 0.25714(12)
N1 N 0.5911(2) 0.58154(17) 0.26503(14)
C1 C 0.3933(3) 0.6076(3) 0.16350(17)
H1 H 0.42780 0.69270 0.14880
H2 H 0.28530 0.60470 0.15890
H3 H 0.43640 0.54780 0.11900
O2 O 0.65760(18) 0.79842(16) 0.27454(12)
C2 C 0.6585(2) 0.6828(2) 0.32124(16)
O3 O 0.63180(17) 0.37395(15) 0.22574(12)
C3 C 0.8153(2) 0.6336(2) 0.32560(15)
C4 C 0.8227(2) 0.5124(2) 0.29043(15)
C5 C 0.6738(2) 0.4753(2) 0.25705(15)
C6 C 0.9542(3) 0.4464(2) 0.28695(16)
H4 H 0.95750 0.36240 0.26440
C7 C 1.0812(2) 0.5069(2) 0.31742(17)
H5 H 1.17340 0.46440 0.31490
C8 C 1.0747(3) 0.6294(2) 0.35172(17)
H6 H 1.16300 0.66960 0.37160
C9 C 0.9412(3) 0.6941(2) 0.35737(16)
H7 H 0.93660 0.77690 0.38220
C10 C 0.5835(3) 0.6925(2) 0.41836(17)
H8 H 0.63980 0.75270 0.45740
H9 H 0.48260 0.72670 0.41020
C11 C 0.5736(3) 0.5685(2) 0.46938(16)
C12 C 0.4445(3) 0.4975(3) 0.46567(16)
H10 H 0.36080 0.52980 0.43360
C13 C 0.4360(3) 0.3809(3) 0.50777(18)
H11 H 0.34680 0.33400 0.50470
C14 C 0.5577(3) 0.3321(3) 0.55453(18)
H12 H 0.55250 0.25150 0.58290
C15 C 0.6867(3) 0.4019(3) 0.55950(17)
H13 H 0.77030 0.36900 0.59150
C16 C 0.6943(3) 0.5196(2) 0.51793(16)
H14 H 0.78260 0.56740 0.52260
H15 H 0.570(4) 0.824(3) 0.278(3)
#END
