
#######################################################################
#
#                 Cambridge Crystallographic Data Centre
#                                CCDC
#
#######################################################################
#
# If this CIF has been generated from an entry in the Cambridge
# Structural Database, then it will include bibliographic, chemical,
# crystal, experimental, refinement or atomic coordinate data resulting
# from the CCDC's data processing and validation procedures.
#
#######################################################################

data_CSD_CIF_ZUYVUM
_audit_creation_date 2016-01-05
_audit_creation_method CSD-ConQuest-V1
_database_code_CSD ZUYVUM
_database_code_depnum_ccdc_archive 'CCDC 1445393'
_chemical_formula_sum 'C18 H17 N1 O5'
_chemical_formula_moiety
;
C18 H17 N1 O5
;
_journal_coden_Cambridge 1336
_journal_volume 18
_journal_year 2016
_journal_page_first 68
_journal_name_full 'Org.Lett. '
loop_
_publ_author_name
"R.B.Dateer"
"Sukbok Chang"
_chemical_name_systematic
;
dimethyl 1-hydroxy-2-phenyl-1,2-dihydro-3H-indole-3,3-dicarboxylate
;
_cell_volume   3193.119
_exptl_crystal_colour 'white'
_exptl_crystal_density_diffrn 1.362
_exptl_crystal_description 'platy'
_diffrn_ambient_temperature 120
#These two values have been output from a single CSD field.
_refine_ls_R_factor_gt 0.0487
_refine_ls_wR_factor_gt 0.0487
_symmetry_cell_setting monoclinic
_symmetry_space_group_name_H-M 'P 21/c'
_symmetry_Int_Tables_number 14
loop_
_symmetry_equiv_pos_site_id
_symmetry_equiv_pos_as_xyz
1 x,y,z
2 -x,1/2+y,1/2-z
3 -x,-y,-z
4 x,-1/2-y,-1/2+z
_cell_length_a 21.3292(8)
_cell_length_b 8.2239(3)
_cell_length_c 18.2075(7)
_cell_angle_alpha 90
_cell_angle_beta 91.151(2)
_cell_angle_gamma 90
_cell_formula_units_Z 8
loop_
_atom_type_symbol
_atom_type_radius_bond
C 0.68
H 0.23
N 0.68
O 0.68
loop_
_atom_site_label
_atom_site_type_symbol
_atom_site_fract_x
_atom_site_fract_y
_atom_site_fract_z
O1 O 0.30707(6) 0.33730(18) 0.78159(7)
O2 O 0.34522(6) -0.18362(16) 0.88462(8)
O3 O 0.43495(6) -0.15809(15) 0.94977(7)
O4 O 0.40679(6) 0.27271(16) 1.01924(7)
O5 O 0.35603(6) 0.03976(15) 1.04485(7)
N1 N 0.34212(7) 0.30822(18) 0.84872(8)
C1 C 0.49735(9) 0.1392(2) 0.87714(10)
H1 H 0.51570 0.05640 0.90690
C2 C 0.53428(9) 0.2375(3) 0.83309(11)
H2 H 0.57840 0.22110 0.83260
C3 C 0.50728(10) 0.3593(3) 0.78987(11)
H3 H 0.53310 0.42390 0.75960
C4 C 0.44316(9) 0.3881(2) 0.79038(10)
H4 H 0.42480 0.47210 0.76130
C5 C 0.40666(9) 0.2897(2) 0.83481(10)
C6 C 0.43302(8) 0.1654(2) 0.87647(10)
C7 C 0.38173(8) 0.0847(2) 0.92055(9)
C8 C 0.32079(8) 0.1533(2) 0.88100(9)
H5 H 0.30940 0.07800 0.83970
C9 C 0.26365(8) 0.1727(2) 0.92849(10)
C10 C 0.25676(9) 0.3083(2) 0.97335(10)
H6 H 0.28650 0.39410 0.97160
C11 C 0.20662(9) 0.3190(2) 1.02075(10)
H7 H 0.20270 0.41130 1.05170
C12 C 0.16240(9) 0.1958(2) 1.02306(11)
H8 H 0.12850 0.20270 1.05600
C13 C 0.16780(9) 0.0623(2) 0.97697(11)
H9 H 0.13700 -0.02110 0.97750
C14 C 0.21836(9) 0.0504(2) 0.92979(10)
H10 H 0.22190 -0.04130 0.89840
C15 C 0.38457(8) 0.1446(2) 1.00039(10)
C16 C 0.34739(10) 0.0958(3) 1.11968(10)
H11 H 0.32600 0.01140 1.14780
H12 H 0.32200 0.19510 1.11900
H13 H 0.38840 0.11880 1.14270
C17 C 0.38394(8) -0.1008(2) 0.91623(9)
C18 C 0.44492(10) -0.3329(2) 0.94625(12)
H14 H 0.40480 -0.38920 0.95190
H15 H 0.47400 -0.36610 0.98580
H16 H 0.46260 -0.36130 0.89870
H17 H 0.2825(12) 0.424(3) 0.7948(14)
O6 O 0.24686(7) 0.60740(17) 0.83445(8)
O7 O 0.11389(6) 0.99844(17) 0.64635(7)
O8 O 0.13078(6) 1.03729(16) 0.76745(7)
O9 O 0.08984(7) 0.5583(2) 0.63650(9)
O10 O 0.01842(6) 0.75063(18) 0.66064(8)
N2 N 0.19810(7) 0.71750(18) 0.81164(8)
C19 C 0.13552(10) 0.6447(2) 0.92247(11)
H18 H 0.17110 0.62050 0.95270
C20 C 0.07514(10) 0.6356(3) 0.94955(11)
H19 H 0.06920 0.60300 0.99900
C21 C 0.0232(1) 0.6738(3) 0.90516(12)
H20 H -0.01770 0.66800 0.92480
C22 C 0.03064(9) 0.7201(2) 0.83232(11)
H21 H -0.00480 0.74660 0.80220
C23 C 0.09034(9) 0.7270(2) 0.80445(10)
C24 C 0.14183(9) 0.6902(2) 0.84976(10)
C25 C 0.11354(8) 0.7660(2) 0.72757(10)
C26 C 0.18233(8) 0.6950(2) 0.73289(10)
H22 H 0.18060 0.57590 0.72210
C27 C 0.23046(8) 0.7723(2) 0.68417(10)
C28 C 0.23675(10) 0.7211(2) 0.61180(11)
H23 H 0.21030 0.63780 0.59260
C29 C 0.28166(10) 0.7919(3) 0.56757(12)
H24 H 0.28540 0.75760 0.51800
C30 C 0.32111(10) 0.9123(3) 0.59536(12)
H25 H 0.35240 0.95840 0.56540
C31 C 0.31451(10) 0.9648(3) 0.66698(12)
H26 H 0.34090 1.04840 0.68610
C32 C 0.26926(9) 0.8953(3) 0.71104(11)
H27 H 0.26480 0.93230 0.76010
C33 C 0.11763(8) 0.9468(2) 0.70826(10)
C34 C 0.14697(11) 1.2058(2) 0.75324(13)
H28 H 0.15590 1.26130 0.79990
H29 H 0.11180 1.25960 0.72770
H30 H 0.18410 1.21000 0.72250
C35 C 0.07403(9) 0.6781(2) 0.66889(10)
C36 C -0.02443(10) 0.6797(3) 0.60647(12)
H31 H -0.06370 0.74180 0.60510
H32 H -0.03320 0.56660 0.61980
H33 H -0.00530 0.68290 0.55800
H34 H 0.2747(14) 0.667(4) 0.8513(17)
#END
