
#######################################################################
#
#                 Cambridge Crystallographic Data Centre
#                                CCDC
#
#######################################################################
#
# If this CIF has been generated from an entry in the Cambridge
# Structural Database, then it will include bibliographic, chemical,
# crystal, experimental, refinement or atomic coordinate data resulting
# from the CCDC's data processing and validation procedures.
#
#######################################################################

data_CSD_CIF_ZUZFEH
_audit_creation_date 2016-01-05
_audit_creation_method CSD-ConQuest-V1
_database_code_CSD ZUZFEH
_database_code_depnum_ccdc_archive 'CCDC 1445406'
_chemical_formula_sum 'C12 H13 N1 O4'
_chemical_formula_moiety
;
C12 H13 N1 O4
;
_journal_coden_Cambridge 1336
_journal_volume 18
_journal_year 2016
_journal_page_first 116
_journal_name_full 'Org.Lett. '
loop_
_publ_author_name
"Wei Xiao"
"Xiang Yin"
"Zhi Zhou"
"Wei Du"
"Ying-Chun Chen"
_chemical_name_systematic
;
4-(2-furyl)-2-methyl-5-nitrocyclohex-1-ene-1-carbaldehyde
;
_cell_volume   1167.860
_exptl_crystal_colour 'light colorless'
_exptl_crystal_density_diffrn 1.346
_diffrn_ambient_temperature 288.9
#These two values have been output from a single CSD field.
_refine_ls_R_factor_gt 0.0304
_refine_ls_wR_factor_gt 0.0304
_symmetry_cell_setting monoclinic
_symmetry_space_group_name_H-M 'P 21'
_symmetry_Int_Tables_number 4
loop_
_symmetry_equiv_pos_site_id
_symmetry_equiv_pos_as_xyz
1 x,y,z
2 -x,1/2+y,-z
_cell_length_a 7.72422(10)
_cell_length_b 8.94615(12)
_cell_length_c 17.2197(2)
_cell_angle_alpha 90
_cell_angle_beta 101.0489(13)
_cell_angle_gamma 90
_cell_formula_units_Z 4
loop_
_atom_type_symbol
_atom_type_radius_bond
C 0.68
H 0.23
N 0.68
O 0.68
loop_
_atom_site_label
_atom_site_type_symbol
_atom_site_fract_x
_atom_site_fract_y
_atom_site_fract_z
O1 O 0.85835(19) 0.2824(2) 0.55257(8)
N1 N 0.45245(18) 0.20033(17) 0.60893(9)
O2 O 0.4473(2) 0.15091(17) 0.67400(9)
O3 O 0.4166(2) 0.12687(19) 0.54890(9)
O4 O 0.16448(18) 0.70961(19) 0.64954(9)
C1 C 0.8218(2) 0.2683(2) 0.62704(10)
C2 C 0.6960(2) 0.3793(2) 0.64953(10)
H1 H 0.69270 0.36510 0.70570
C3 C 0.5083(2) 0.36025(18) 0.60199(9)
H2 H 0.50730 0.38330 0.54630
C4 C 0.7543(2) 0.5400(2) 0.63821(12)
H3 H 0.85630 0.56200 0.67900
H4 H 0.79140 0.54650 0.58760
C5 C 0.9084(2) 0.1524(2) 0.66438(12)
H5 H 0.90580 0.11990 0.71540
C6 C 0.9720(3) 0.1684(3) 0.54529(15)
H6 H 1.01890 0.15020 0.50030
C7 C 0.4468(2) 0.6221(2) 0.63865(10)
C8 C 0.3159(3) 0.7372(2) 0.64441(11)
H7 H 0.35020 0.83680 0.64410
C9 C 0.3799(2) 0.4633(2) 0.63259(11)
H8 H 0.26620 0.45950 0.59710
H9 H 0.36420 0.42930 0.68430
C10 C 0.6176(2) 0.6577(2) 0.64079(10)
C11 C 1.0063(3) 0.0877(3) 0.61022(16)
H10 H 1.08000 0.00480 0.61920
C12 C 0.6913(3) 0.8126(2) 0.64433(15)
H11 H 0.77310 0.82600 0.69330
H12 H 0.59700 0.88370 0.64100
H13 H 0.75100 0.82750 0.60090
O5 O 0.1471(2) 0.5443(2) 0.95247(9)
N2 N 0.54840(18) 0.46305(18) 0.89664(8)
O6 O 0.5581(2) 0.40981(18) 0.83304(9)
O7 O 0.5809(2) 0.39304(19) 0.95791(10)
O8 O 0.83005(18) 0.9682(2) 0.8424(1)
C13 C 0.1785(2) 0.5293(2) 0.87757(11)
C14 C 0.4911(2) 0.62305(19) 0.89997(9)
H14 H 0.49230 0.65090 0.95510
C15 C 0.3028(2) 0.6375(2) 0.85218(9)
H15 H 0.30630 0.61760 0.79650
C16 C 0.5481(2) 0.8809(2) 0.8541(1)
C17 C 0.3765(2) 0.9167(2) 0.85158(10)
C18 C 0.2426(2) 0.7992(2) 0.85861(12)
H16 H 0.13950 0.81620 0.81760
H17 H 0.20670 0.81140 0.90920
C19 C 0.6767(3) 0.9953(2) 0.84410(12)
H18 H 0.63930 1.09420 0.83870
C20 C 0.6177(2) 0.7237(2) 0.86628(12)
H19 H 0.73090 0.72510 0.90220
H20 H 0.63560 0.68340 0.81610
C21 C 0.0318(3) 0.4313(4) 0.96096(17)
H21 H -0.01130 0.41330 1.00700
C22 C 0.0860(3) 0.4150(3) 0.84083(14)
H22 H 0.08400 0.38260 0.78940
C23 C 0.3023(3) 1.0716(3) 0.84368(15)
H23 H 0.39700 1.14280 0.85020
H24 H 0.23270 1.08790 0.88350
H25 H 0.22940 1.08350 0.79220
C24 C -0.0096(3) 0.3525(3) 0.89647(18)
H26 H -0.08640 0.27150 0.88820
#END
