
#######################################################################
#
#                 Cambridge Crystallographic Data Centre
#                                CCDC
#
#######################################################################
#
# If this CIF has been generated from an entry in the Cambridge
# Structural Database, then it will include bibliographic, chemical,
# crystal, experimental, refinement or atomic coordinate data resulting
# from the CCDC's data processing and validation procedures.
#
#######################################################################

data_CSD_CIF_ZZZBPY10
_audit_creation_date 1982-03-29
_audit_creation_method CSD-ConQuest-V1
_database_code_CSD ZZZBPY10
_database_code_depnum_ccdc_archive 'CCDC 1318094'
_chemical_formula_sum 'C8 H16 N2 O7'
_chemical_formula_moiety
;
C8 H16 N2 O7
;
_journal_coden_Cambridge 107
_journal_volume 37
_journal_year 1981
_journal_page_first 2026
_journal_name_full 'Acta Crystallogr.,Sect.B:Struct.Crystallogr.Cryst.Chem. '
loop_
_publ_author_name
"M.Kawaminami"
"I.Kawano"
"A.Kobayashi"
"K.Tadera"
"F.Yagi"
"S.Kawano"
_chemical_name_systematic
;
(Methyl-O,N,N-azoxy)-methyl-\b-D-glucopyranoside
;
_chemical_name_common
;
Cycasin
;
_cell_volume   1109.389
_exptl_crystal_colour 'colorless'
_exptl_crystal_density_diffrn 1.51
_exptl_special_details
;
possible toxic activity

;
_diffrn_ambient_temperature ?
_diffrn_special_details
;
The study was carried out at room temperature,in the range 283-303K

;
_refine_special_details
;
Crystal may have a stacking disorder in the b direction, giving rise to extra 
reflections with k=n+1/2.
;
#These two values have been output from a single CSD field.
_refine_ls_R_factor_gt 0.1
_refine_ls_wR_factor_gt 0.1
_chemical_compound_source
;
the Japanese cycad Cycas revoluta Thunb
;
_symmetry_cell_setting monoclinic
_symmetry_space_group_name_H-M 'C 2'
_symmetry_Int_Tables_number 5
loop_
_symmetry_equiv_pos_site_id
_symmetry_equiv_pos_as_xyz
1 x,y,z
2 1/2+x,1/2+y,z
3 -x,y,-z
4 1/2-x,1/2+y,-z
_cell_length_a 15.422(1)
_cell_length_b 4.854(1)
_cell_length_c 15.754(1)
_cell_angle_alpha 90
_cell_angle_beta 109.83(1)
_cell_angle_gamma 90
_cell_formula_units_Z 4
loop_
_atom_type_symbol
_atom_type_radius_bond
C 0.68
H 0.23
N 0.68
O 0.68
loop_
_atom_site_label
_atom_site_type_symbol
_atom_site_fract_x
_atom_site_fract_y
_atom_site_fract_z
C1 C 0.25370 0.00400 0.26020
C2 C 0.28730 0.06130 0.18090
C3 C 0.23620 0.30540 0.12660
C4 C 0.13160 0.28190 0.10100
C5 C 0.10540 0.19310 0.18280
C6 C 0.00260 0.12210 0.15350
C7 C 0.29870 -0.24950 0.39540
C8 C 0.43870 0.13110 0.59700
N1 N 0.36560 -0.05190 0.45100
N2 N 0.37270 -0.07340 0.53300
O1 O 0.29780 -0.22930 0.30600
O2 O 0.38310 0.11530 0.21380
O3 O 0.26180 0.32960 0.04830
O4 O 0.09150 0.52400 0.06370
O5 O 0.15630 -0.05050 0.22550
O6 O -0.02820 0.11750 0.22860
O7 O 0.32760 -0.22630 0.56490
H1 H 0.26700 0.18400 0.30500
H2 H 0.27500 -0.12000 0.13700
H3 H 0.25900 0.49000 0.16500
H4 H 0.10500 0.13300 0.05000
H5 H 0.12100 0.36000 0.23300
H6 H 0.43300 -0.00300 0.21500
H7 H 0.26100 0.27200 -0.01100
H8 H 0.05900 0.67100 0.02700
H9 H -0.09400 0.11300 0.22400
H10 H -0.01000 -0.08100 0.12100
H11 H -0.03600 0.28100 0.10600
H12 H 0.32000 -0.45700 0.42100
H13 H 0.23100 -0.20800 0.39800
H14 H 0.43800 0.09800 0.66500
H15 H 0.41400 0.34700 0.57700
H16 H 0.50600 0.11700 0.59500
#END
