
#######################################################################
#
#                 Cambridge Crystallographic Data Centre
#                                CCDC
#
#######################################################################
#
# If this CIF has been generated from an entry in the Cambridge
# Structural Database, then it will include bibliographic, chemical,
# crystal, experimental, refinement or atomic coordinate data resulting
# from the CCDC's data processing and validation procedures.
#
#######################################################################

data_CSD_CIF_ZZZBPY01
_audit_creation_date 1996-01-30
_audit_creation_method CSD-ConQuest-V1
_database_code_CSD ZZZBPY01
_chemical_formula_sum 'C8 H16 N2 O7'
_chemical_formula_moiety
;
C8 H16 N2 O7
;
_journal_coden_Cambridge 154
_journal_volume 48
_journal_year 1995
_journal_page_first 1059
_journal_name_full 'Aust.J.Chem. '
loop_
_publ_author_name
"M.E.Tate"
"I.M.Delaere"
"G.P.Jones"
"E.R.T.Tiekink"
_chemical_name_systematic
;
(Z)-\b-D-Glucopyranosyloxy-NNO-azoxymethane
;
_chemical_name_common
;
Cycasin
;
_chemical_melting_point 428.15
_cell_volume   1108.262
_exptl_crystal_colour 'colorless'
_exptl_crystal_density_diffrn 1.512
_exptl_special_details
;
Melting point range 428.15-429.15K
possible toxic activity
z(C4) is 0.1020; The authors have been contacted regarding a query about 
whether the correct enantiomer has been given for the structure
;
_diffrn_ambient_temperature ?
_diffrn_special_details
;
The study was carried out at room temperature,in the range 283-303K

;
#These two values have been output from a single CSD field.
_refine_ls_R_factor_gt 0.03
_refine_ls_wR_factor_gt 0.03
_chemical_compound_source
;
Seeds of Cycas revoluta Thunb
;
_symmetry_cell_setting monoclinic
_symmetry_space_group_name_H-M 'C 2'
_symmetry_Int_Tables_number 5
loop_
_symmetry_equiv_pos_site_id
_symmetry_equiv_pos_as_xyz
1 x,y,z
2 -x,y,-z
3 1/2+x,1/2+y,z
4 1/2-x,1/2+y,-z
_cell_length_a 15.409(4)
_cell_length_b 4.855(4)
_cell_length_c 15.752(4)
_cell_angle_alpha 90
_cell_angle_beta 109.87(2)
_cell_angle_gamma 90
_cell_formula_units_Z 4
loop_
_atom_type_symbol
_atom_type_radius_bond
C 0.68
H 0.23
N 0.68
O 0.68
loop_
_atom_site_label
_atom_site_type_symbol
_atom_site_fract_x
_atom_site_fract_y
_atom_site_fract_z
O1 O 0.7975(2) 0.1735(9) 0.3057(2)
O2 O 0.8831(2) -0.1673(8) 0.2139(2)
O3 O 0.7621(2) -0.3783(9) 0.0480(2)
O4 O 0.5901(2) -0.5748(8) 0.0635(2)
O5 O 0.6564(2) 0.00000 0.2251(2)
O6 O 0.4710(2) -0.1686(9) 0.2281(2)
O7 O 0.8281(2) 0.1777(10) 0.5644(2)
N1 N 0.8659(2) -0.0027(11) 0.4504(2)
N2 N 0.8732(2) 0.0152(11) 0.5334(2)
C1 C 0.7524(3) -0.0570(11) 0.2586(3)
C2 C 0.7872(2) -0.1106(11) 0.1813(3)
C3 C 0.7357(3) -0.3510(11) 0.1264(2)
C4 C 0.6319(2) -0.3190(12) 0.1020(3)
C5 C 0.6051(3) -0.2379(10) 0.1820(3)
C6 C 0.5029(3) -0.1666(14) 0.1537(3)
C7 C 0.7990(3) 0.1908(12) 0.3956(3)
C8 C 0.9387(4) -0.1748(17) 0.5956(3)
H1 H 0.766(2) -0.207(9) 0.296(2)
H2 H 0.775(2) 0.065(8) 0.148(2)
H3 H 0.758(2) -0.50(1) 0.168(2)
H4 H 0.902(4) -0.04(2) 0.218(4)
H5 H 0.744(4) -0.56(1) 0.026(3)
H6 H 0.611(2) -0.185(7) 0.060(2)
H7 H 0.620(2) -0.397(9) 0.230(2)
H8 H 0.438(4) -0.01(1) 0.222(4)
H9 H 0.494(2) 0.021(8) 0.123(2)
H10 H 0.466(3) -0.31(1) 0.104(3)
H11 H 0.742(2) 0.145(8) 0.401(2)
H12 H 0.820(3) 0.38(1) 0.414(3)
H13 H 0.931(4) -0.17(2) 0.643(4)
H14 H 0.990(4) -0.10(2) 0.602(4)
H15 H 0.943(6) -0.36(2) 0.563(6)
#END
