
#######################################################################
#
#                 Cambridge Crystallographic Data Centre
#                                CCDC
#
#######################################################################
#
# If this CIF has been generated from an entry in the Cambridge
# Structural Database, then it will include bibliographic, chemical,
# crystal, experimental, refinement or atomic coordinate data resulting
# from the CCDC's data processing and validation procedures.
#
#######################################################################

data_CSD_CIF_ZZZFKK01
_audit_creation_date 1983-11-09
_audit_creation_method CSD-ConQuest-V1
_database_code_CSD ZZZFKK01
_database_code_depnum_ccdc_archive 'CCDC 1318576'
_chemical_formula_sum 'C17 H15 N3 O2'
_chemical_formula_moiety
;
C17 H15 N3 O2
;
_journal_coden_Cambridge 54
_journal_volume 92
_journal_year 1983
_journal_page_first 403
_journal_name_full 'Bull.Soc.Chim.Belg. '
loop_
_publ_author_name
"B.Tinant"
"R.Touillaux"
"J.P.Declercq"
"M.van Meerssche"
"G.Leroy"
"J.Weiler"
_chemical_name_systematic
;
trans-4'-Dimethylamino-4-nitro-\a-cyanostilbene
;
_cell_volume    750.360
_diffrn_ambient_temperature ?
_diffrn_special_details
;
The study was carried out at room temperature,in the range 283-303K

;
#These two values have been output from a single CSD field.
_refine_ls_R_factor_gt 0.093
_refine_ls_wR_factor_gt 0.093
_symmetry_cell_setting monoclinic
_symmetry_space_group_name_H-M 'P c'
_symmetry_Int_Tables_number 7
loop_
_symmetry_equiv_pos_site_id
_symmetry_equiv_pos_as_xyz
1 x,y,z
2 x,-y,1/2+z
_cell_length_a 7.142(3)
_cell_length_b 17.104(6)
_cell_length_c 7.449(3)
_cell_angle_alpha 90
_cell_angle_beta 124.45(2)
_cell_angle_gamma 90
_cell_formula_units_Z 2
loop_
_atom_type_symbol
_atom_type_radius_bond
C 0.68
H 0.23
N 0.68
O 0.68
loop_
_atom_site_label
_atom_site_type_symbol
_atom_site_fract_x
_atom_site_fract_y
_atom_site_fract_z
C1 C 0.66000 1.00450 1.02580
C2 C 0.61190 1.08570 0.98020
C3 C 0.40370 1.11180 0.79440
C4 C 0.34610 1.19090 0.74820
C5 C 0.49850 1.24320 0.88280
C6 C 0.72370 1.21950 1.08540
C7 C 0.76920 1.13890 1.12230
C8 C 0.50540 0.94360 0.88670
C9 C 0.52400 0.85790 0.91610
C10 C 0.72320 0.80830 1.07180
C11 C 0.72750 0.73390 1.06380
C12 C 0.52400 0.68990 0.90660
C13 C 0.33210 0.73150 0.75330
C14 C 0.34740 0.81500 0.76390
N1 N 0.48640 1.32890 0.86470
O1 O 0.63920 1.37040 0.97370
O2 O 0.28130 1.34630 0.71370
C15 C 0.87320 0.98420 1.23110
N2 N 1.03580 0.97110 1.40140
N3 N 0.53150 0.61300 0.90780
C16 C 0.73260 0.56680 1.05790
C17 C 0.31620 0.56870 0.76390
H1 H 0.27920 1.06950 0.68330
H2 H 0.18660 1.21030 0.60580
H3 H 0.84820 1.26180 1.19650
H4 H 0.92860 1.11950 1.26470
H5 H 0.35070 0.96410 0.74070
H6 H 0.87330 0.83990 1.19410
H7 H 0.88080 0.70250 1.18050
H8 H 0.18200 0.69990 0.63100
H9 H 0.19420 0.84640 0.64710
H10 H 0.69290 0.50520 1.03140
H11 H 0.79570 0.58160 1.22400
H12 H 0.86070 0.58010 1.02810
H13 H 0.34530 0.50640 0.78580
H14 H 0.24570 0.58380 0.59640
H15 H 0.19870 0.58550 0.80460
#END
