
#######################################################################
#
#                 Cambridge Crystallographic Data Centre
#                                CCDC
#
#######################################################################
#
# If this CIF has been generated from an entry in the Cambridge
# Structural Database, then it will include bibliographic, chemical,
# crystal, experimental, refinement or atomic coordinate data resulting
# from the CCDC's data processing and validation procedures.
#
#######################################################################

data_CSD_CIF_ZZZGVU02
_audit_creation_date 2005-06-02
_audit_creation_method CSD-ConQuest-V1
_database_code_CSD ZZZGVU02
_database_code_depnum_ccdc_archive 'CCDC 225823'
_chemical_formula_sum 'C7 H6 N2 O4'
_chemical_formula_moiety
;
C7 H6 N2 O4
;
_journal_coden_Cambridge 423
_journal_year 2004
_journal_page_first 667
_journal_name_full 'J.Chem.Res. '
loop_
_publ_author_name
"J.R.Hanson"
"P.B.Hitchcock"
"H.Saberi"
_chemical_name_systematic
;
2,4-Dinitrotoluene
;
_cell_volume   1552.268
_exptl_crystal_colour 'colorless'
_exptl_crystal_density_diffrn 1.559
_exptl_crystal_description 'plate'
_diffrn_ambient_temperature 173
#These two values have been output from a single CSD field.
_refine_ls_R_factor_gt 0.0437
_refine_ls_wR_factor_gt 0.0437
_symmetry_cell_setting monoclinic
_symmetry_space_group_name_H-M 'P 21/n'
_symmetry_Int_Tables_number 14
loop_
_symmetry_equiv_pos_site_id
_symmetry_equiv_pos_as_xyz
1 x,y,z
2 1/2-x,1/2+y,1/2-z
3 -x,-y,-z
4 -1/2+x,-1/2-y,-1/2+z
_cell_length_a 8.0057(7)
_cell_length_b 15.1273(18)
_cell_length_c 12.8853(13)
_cell_angle_alpha 90
_cell_angle_beta 95.877(6)
_cell_angle_gamma 90
_cell_formula_units_Z 8
loop_
_atom_type_symbol
_atom_type_radius_bond
C 0.68
H 0.23
N 0.68
O 0.68
loop_
_atom_site_label
_atom_site_type_symbol
_atom_site_fract_x
_atom_site_fract_y
_atom_site_fract_z
O1 O 0.02087(18) 0.45323(9) 0.37631(12)
O2 O 0.27567(19) 0.44467(10) 0.33436(12)
O3 O -0.08184(18) 0.75166(10) 0.50746(12)
O4 O 0.0348(2) 0.86317(10) 0.43800(13)
O5 O -0.35888(17) 0.42288(10) 0.28501(12)
O6 O -0.33377(17) 0.46509(10) 0.44634(11)
O7 O -0.55679(19) 0.75355(10) 0.50624(12)
O8 O -0.4968(2) 0.86118(11) 0.40652(16)
N1 N 0.1466(2) 0.48572(11) 0.34453(12)
N2 N 0.0031(2) 0.78385(12) 0.44359(13)
N3 N -0.34704(18) 0.48021(11) 0.35237(13)
N4 N -0.4971(2) 0.78253(12) 0.42964(14)
C1 C 0.2006(2) 0.61001(13) 0.22655(14)
C2 C 0.1414(2) 0.58045(12) 0.31859(14)
C3 C 0.0744(2) 0.63455(13) 0.38970(15)
H1 H 0.037(2) 0.6175(13) 0.4479(15)
C4 C 0.0730(2) 0.72426(13) 0.36902(14)
C5 C 0.1325(2) 0.75846(15) 0.28094(16)
H2 H 0.129(2) 0.8168(17) 0.2661(16)
C6 C 0.1939(2) 0.70163(14) 0.21052(16)
H3 H 0.230(2) 0.7272(14) 0.1512(17)
C7 C 0.2618(3) 0.55037(17) 0.14497(18)
H4 H 0.360(3) 0.5187(18) 0.171(2)
H5 H 0.280(4) 0.583(2) 0.084(2)
H6 H 0.185(3) 0.5075(18) 0.1264(18)
C8 C -0.2961(2) 0.59916(13) 0.22394(14)
C9 C -0.3519(2) 0.57354(13) 0.31920(14)
C10 C -0.4150(2) 0.63199(13) 0.38806(15)
H7 H -0.452(2) 0.6147(14) 0.4484(16)
C11 C -0.4241(2) 0.71995(13) 0.35967(14)
C12 C -0.3680(2) 0.74989(15) 0.26825(17)
H8 H -0.375(2) 0.8077(16) 0.2482(15)
C13 C -0.3035(2) 0.68975(14) 0.20284(16)
H9 H -0.265(2) 0.7095(14) 0.1419(16)
C14 C -0.2294(3) 0.53806(16) 0.14640(17)
H10 H -0.179(3) 0.5699(16) 0.096(2)
H11 H -0.150(3) 0.4956(16) 0.1791(17)
H12 H -0.323(3) 0.5066(15) 0.1065(17)
#END
