
#######################################################################
#
#                 Cambridge Crystallographic Data Centre
#                                CCDC
#
#######################################################################
#
# If this CIF has been generated from an entry in the Cambridge
# Structural Database, then it will include bibliographic, chemical,
# crystal, experimental, refinement or atomic coordinate data resulting
# from the CCDC's data processing and validation procedures.
#
#######################################################################

data_CSD_CIF_ZZZHQU02
_audit_creation_date 2009-05-27
_audit_creation_method CSD-ConQuest-V1
_database_code_CSD ZZZHQU02
_database_code_depnum_ccdc_archive 'CCDC 730113'
_chemical_formula_sum 'C10 H12 N2 O4'
_chemical_formula_moiety
;
C10 H12 N2 O4
;
_journal_coeditor_code "IUCr SQ3188"
_journal_coden_Cambridge 591
_journal_volume 65
_journal_year 2009
_journal_page_first o176
_journal_name_full 'Acta Crystallogr.,Sect.C:Cryst.Struct.Commun. '
loop_
_publ_author_name
"J.A.G.Aguilar"
"S.Bernes"
_chemical_name_systematic
;
1,2,4,5-Tetramethyl-3,6-dinitrobenzene
;
_chemical_name_common
;
3,6-Dinitrodurene
;
_chemical_melting_point 486.3
_cell_volume   2170.820
_exptl_crystal_colour 'light violet'
_exptl_crystal_density_diffrn 1.372
_exptl_special_details
;
Polymorph II forms when crystallisation occurs in the dark under an inert 
atmosphere
Polymorph II
;
_exptl_crystal_description 'irregular'
_diffrn_ambient_temperature 298
#These two values have been output from a single CSD field.
_refine_ls_R_factor_gt 0.0508
_refine_ls_wR_factor_gt 0.0508
_symmetry_cell_setting monoclinic
_symmetry_space_group_name_H-M 'C 2/c'
_symmetry_Int_Tables_number 15
loop_
_symmetry_equiv_pos_site_id
_symmetry_equiv_pos_as_xyz
1 x,y,z
2 1/2+x,1/2+y,z
3 -x,y,1/2-z
4 1/2-x,1/2+y,1/2-z
5 -x,-y,-z
6 -1/2-x,-1/2-y,-z
7 x,-y,-1/2+z
8 -1/2+x,-1/2-y,-1/2+z
_cell_length_a 8.9592(19)
_cell_length_b 15.313(3)
_cell_length_c 16.136(4)
_cell_angle_alpha 90
_cell_angle_beta 101.300(13)
_cell_angle_gamma 90
_cell_formula_units_Z 8
loop_
_atom_type_symbol
_atom_type_radius_bond
C 0.68
H 0.23
N 0.68
O 0.68
loop_
_atom_site_label
_atom_site_type_symbol
_atom_site_fract_x
_atom_site_fract_y
_atom_site_fract_z
C1 C 0.1149(2) 0.21810(13) 0.50352(12)
C2 C 0.2316(2) 0.15849(12) 0.50620(12)
C3 C 0.1253(2) 0.30760(13) 0.49759(12)
C4 C 0.2064(3) 0.06200(14) 0.51183(17)
H1 H 0.098(2) 0.046(2) 0.513(3)
H2 H 0.277(4) 0.036(2) 0.5638(17)
H3 H 0.239(4) 0.034(2) 0.4598(17)
C5 C -0.0097(3) 0.36624(16) 0.49608(17)
H4 H -0.106(3) 0.334(2) 0.504(3)
H5 H 0.016(4) 0.412(2) 0.5423(18)
H6 H -0.035(4) 0.400(2) 0.4390(15)
N1 N -0.0361(2) 0.18273(13) 0.50863(13)
O1 O -0.1241(2) 0.16849(17) 0.44499(13)
O2 O -0.0633(2) 0.16989(17) 0.57750(12)
C6 C 0.50000 0.28452(17) 0.75000
C7 C 0.3621(2) 0.24401(13) 0.74974(12)
C8 C 0.3626(2) 0.15333(13) 0.75039(11)
C9 C 0.50000 0.11309(17) 0.75000
C10 C 0.2181(3) 0.29374(18) 0.75006(18)
H7 H 0.238(4) 0.3580(13) 0.748(2)
H8 H 0.176(4) 0.279(2) 0.8035(15)
H9 H 0.140(3) 0.274(2) 0.6987(16)
C11 C 0.2205(3) 0.10191(18) 0.75218(17)
H10 H 0.133(3) 0.128(2) 0.7075(19)
H11 H 0.190(4) 0.101(2) 0.8091(12)
H12 H 0.229(4) 0.0368(14) 0.734(2)
N2 N 0.50000 0.38077(18) 0.75000
O3 O 0.4486(3) 0.41777(12) 0.68592(13)
N3 N 0.50000 0.01670(16) 0.75000
O4 O 0.4850(2) -0.02067(11) 0.68347(11)
H13? H 0.169(7) 0.046(3) 0.566(2)
H14? H 0.298(4) 0.023(3) 0.508(4)
H15? H 0.121(5) 0.045(3) 0.462(3)
H16? H 0.546(7) 0.136(4) 0.448(2)
H17? H 0.484(6) 0.0726(19) 0.518(4)
H18? H 0.591(5) 0.160(3) 0.550(3)
H19? H 0.181(6) 0.321(4) 0.6930(17)
H20? H 0.236(6) 0.340(3) 0.796(3)
H21? H 0.139(5) 0.250(3) 0.763(4)
H22? H 0.139(5) 0.136(3) 0.775(4)
H23? H 0.243(6) 0.044(2) 0.785(3)
H24? H 0.178(6) 0.087(4) 0.6900(14)
C1E C 0.3851(2) 0.28190(13) 0.49648(12)
C2E C 0.2684(2) 0.34151(12) 0.49380(12)
C3E C 0.3747(2) 0.19240(13) 0.50241(12)
C4E C 0.2936(3) 0.43800(14) 0.48817(17)
H1E H 0.402(2) 0.454(2) 0.487(3)
H2E H 0.223(4) 0.464(2) 0.4362(17)
H3E H 0.261(4) 0.466(2) 0.5402(17)
C5E C 0.5097(3) 0.13376(16) 0.50392(17)
H4E H 0.606(3) 0.166(2) 0.496(3)
H5E H 0.484(4) 0.088(2) 0.4577(18)
H6E H 0.535(4) 0.100(2) 0.5610(15)
N1E N 0.5361(2) 0.31727(13) 0.49137(13)
O1E O 0.6241(2) 0.33151(17) 0.55501(13)
O2E O 0.5633(2) 0.33011(17) 0.42250(12)
C7B C 0.6379(2) 0.24401(13) 0.75026(12)
C8B C 0.6374(2) 0.15333(13) 0.74961(11)
C10B C 0.7819(3) 0.29374(18) 0.74994(18)
H7B H 0.762(4) 0.3580(13) 0.752(2)
H8B H 0.824(4) 0.279(2) 0.6965(15)
H9B H 0.860(3) 0.274(2) 0.8013(16)
C11B C 0.7795(3) 0.10191(18) 0.74782(17)
H10B H 0.867(3) 0.128(2) 0.7925(19)
H11B H 0.810(4) 0.101(2) 0.6909(12)
H12B H 0.771(4) 0.0368(14) 0.766(2)
O3B O 0.5514(3) 0.41777(12) 0.81408(13)
O4B O 0.5150(2) -0.02067(11) 0.81653(11)
#END
