
#######################################################################
#
#                 Cambridge Crystallographic Data Centre
#                                CCDC
#
#######################################################################
#
# If this CIF has been generated from an entry in the Cambridge
# Structural Database, then it will include bibliographic, chemical,
# crystal, experimental, refinement or atomic coordinate data resulting
# from the CCDC's data processing and validation procedures.
#
#######################################################################

data_CSD_CIF_ZZZHQU01
_audit_creation_date 2009-05-27
_audit_creation_method CSD-ConQuest-V1
_database_code_CSD ZZZHQU01
_database_code_depnum_ccdc_archive 'CCDC 730112'
_chemical_formula_sum 'C10 H12 N2 O4'
_chemical_formula_moiety
;
C10 H12 N2 O4
;
_journal_coeditor_code "IUCr SQ3188"
_journal_coden_Cambridge 591
_journal_volume 65
_journal_year 2009
_journal_page_first o176
_journal_name_full 'Acta Crystallogr.,Sect.C:Cryst.Struct.Commun. '
loop_
_publ_author_name
"J.A.G.Aguilar"
"S.Bernes"
_chemical_name_systematic
;
1,2,4,5-Tetramethyl-3,6-dinitrobenzene
;
_chemical_name_common
;
3,6-Dinitrodurene
;
_chemical_melting_point 485.9
_cell_volume   2119.438
_exptl_crystal_colour 'colorless'
_exptl_crystal_density_diffrn 1.405
_exptl_special_details
;
Polymorph I

;
_exptl_crystal_description 'flattened box'
_exptl_crystal_preparation 'methanol'
_diffrn_ambient_temperature 180
#These two values have been output from a single CSD field.
_refine_ls_R_factor_gt 0.0472
_refine_ls_wR_factor_gt 0.0472
_symmetry_cell_setting monoclinic
_symmetry_space_group_name_H-M 'C 2/c'
_symmetry_Int_Tables_number 15
loop_
_symmetry_equiv_pos_site_id
_symmetry_equiv_pos_as_xyz
1 x,y,z
2 1/2+x,1/2+y,z
3 -x,y,1/2-z
4 1/2-x,1/2+y,1/2-z
5 -x,-y,-z
6 -1/2-x,-1/2-y,-z
7 x,-y,-1/2+z
8 -1/2+x,-1/2-y,-1/2+z
_cell_length_a 15.1088(11)
_cell_length_b 8.9454(5)
_cell_length_c 15.9300(13)
_cell_angle_alpha 90
_cell_angle_beta 100.131(8)
_cell_angle_gamma 90
_cell_formula_units_Z 8
loop_
_atom_type_symbol
_atom_type_radius_bond
C 0.68
H 0.23
N 0.68
O 0.68
loop_
_atom_site_label
_atom_site_type_symbol
_atom_site_fract_x
_atom_site_fract_y
_atom_site_fract_z
C1 C 0.53044(12) 0.63721(18) 0.49463(11)
C2 C 0.44184(11) 0.62274(19) 0.50461(11)
C3 C 0.59056(11) 0.52207(19) 0.48954(11)
C4 C 0.38184(14) 0.7561(2) 0.50727(15)
H1 H 0.3328(18) 0.744(3) 0.4592(16)
H2 H 0.4097(17) 0.852(3) 0.5056(17)
H3 H 0.3560(17) 0.751(3) 0.5578(17)
C5 C 0.68582(13) 0.5492(3) 0.47958(15)
H4 H 0.7236(17) 0.518(3) 0.5287(16)
H5 H 0.6967(17) 0.653(3) 0.4657(16)
H6 H 0.7016(16) 0.494(3) 0.4316(16)
N1 N 0.56375(10) 0.79138(17) 0.48764(10)
O1 O 0.56080(13) 0.84296(16) 0.41743(10)
O2 O 0.59214(13) 0.85824(16) 0.55211(10)
C6 C 0.41353(11) 0.66207(19) 0.75391(11)
C7 C 0.45425(11) 0.80055(19) 0.75192(11)
C8 C 0.45422(11) 0.52386(19) 0.75245(11)
C9 C 0.40340(14) 0.9442(2) 0.75401(14)
H7 H 0.3470(18) 0.925(3) 0.7725(16)
H8 H 0.4396(17) 1.017(3) 0.7963(16)
H9 H 0.3921(17) 0.980(3) 0.7000(17)
C10 C 0.40414(15) 0.3801(2) 0.75598(16)
H10 H 0.4121(17) 0.318(3) 0.7097(17)
H11 H 0.4254(17) 0.331(3) 0.8065(18)
H12 H 0.3452(19) 0.396(3) 0.7512(17)
N2 N 0.31621(10) 0.66225(17) 0.75594(10)
O3 O 0.29181(9) 0.6407(2) 0.82301(10)
O4 O 0.26546(9) 0.68319(19) 0.68913(9)
C1D C 0.46956(12) 0.36279(18) 0.50537(11)
C2D C 0.55816(11) 0.37726(19) 0.49539(11)
C3D C 0.40944(11) 0.47793(19) 0.51046(11)
C4D C 0.61816(14) 0.2439(2) 0.49273(15)
H1D H 0.6672(18) 0.256(3) 0.5408(16)
H2D H 0.5903(17) 0.148(3) 0.4944(17)
H3D H 0.6440(17) 0.249(3) 0.4422(17)
C5D C 0.31418(13) 0.4508(3) 0.52042(15)
H4D H 0.2764(17) 0.482(3) 0.4713(16)
H5D H 0.3033(17) 0.347(3) 0.5343(16)
H6D H 0.2984(16) 0.506(3) 0.5684(16)
N1D N 0.43625(10) 0.20862(17) 0.51236(10)
O1D O 0.43920(13) 0.15704(16) 0.58257(10)
O2D O 0.40786(13) 0.14176(16) 0.44789(10)
C6B C 0.58647(11) 0.66207(19) 0.74609(11)
C7B C 0.54575(11) 0.80055(19) 0.74808(11)
C8B C 0.54578(11) 0.52386(19) 0.74755(11)
C9B C 0.59660(14) 0.9442(2) 0.74599(14)
H7B H 0.6530(18) 0.925(3) 0.7275(16)
H8B H 0.5604(17) 1.017(3) 0.7037(16)
H9B H 0.6079(17) 0.980(3) 0.8000(17)
C10B C 0.59586(15) 0.3801(2) 0.74402(16)
H10B H 0.5879(17) 0.318(3) 0.7903(17)
H11B H 0.5746(17) 0.331(3) 0.6935(18)
H12B H 0.6548(19) 0.396(3) 0.7488(17)
N2B N 0.68379(10) 0.66225(17) 0.74406(10)
O3B O 0.70819(9) 0.6407(2) 0.67699(10)
O4B O 0.73454(9) 0.68319(19) 0.81087(9)
#END
