
#######################################################################
#
#                 Cambridge Crystallographic Data Centre
#                                CCDC
#
#######################################################################
#
# If this CIF has been generated from an entry in the Cambridge
# Structural Database, then it will include bibliographic, chemical,
# crystal, experimental, refinement or atomic coordinate data resulting
# from the CCDC's data processing and validation procedures.
#
#######################################################################

data_CSD_CIF_ZZZJIQ02
_audit_creation_date 2002-01-10
_audit_creation_method CSD-ConQuest-V1
_database_code_CSD ZZZJIQ02
_database_code_depnum_ccdc_archive 'CCDC 174842'
_chemical_formula_sum 'C7 H8 N2 O2'
_chemical_formula_moiety
;
C7 H8 N2 O2
;
_journal_coeditor_code "IUCr GG1075"
_journal_coden_Cambridge 591
_journal_volume 57
_journal_year 2001
_journal_page_first 1207
_journal_name_full 'Acta Crystallogr.,Sect.C:Cryst.Struct.Commun. '
loop_
_publ_author_name
"C.M.Zakaria"
"J.N.Low"
"J.M.S.Skakle"
"S.A.McWilliam"
"J.L.Wardell"
"C.Glidewell"
_chemical_name_systematic
;
4-Methyl-3-nitroaniline
;
_cell_volume   1483.485
_exptl_crystal_colour 'orange'
_exptl_crystal_density_diffrn 1.363
_exptl_special_details
;
monoclinic polymorph
The same phase is obtained on recrystallization from dichloromethane
;
_exptl_crystal_description 'plate'
_exptl_crystal_preparation 'ethanol'
_diffrn_ambient_temperature 295
#These two values have been output from a single CSD field.
_refine_ls_R_factor_gt 0.0607
_refine_ls_wR_factor_gt 0.0607
_symmetry_cell_setting monoclinic
_symmetry_space_group_name_H-M 'P 21/n'
_symmetry_Int_Tables_number 14
loop_
_symmetry_equiv_pos_site_id
_symmetry_equiv_pos_as_xyz
1 x,y,z
2 1/2-x,1/2+y,1/2-z
3 -x,-y,-z
4 -1/2+x,-1/2-y,-1/2+z
_cell_length_a 8.2473(7)
_cell_length_b 7.5676(7)
_cell_length_c 23.7798(16)
_cell_angle_alpha 90
_cell_angle_beta 91.717(5)
_cell_angle_gamma 90
_cell_formula_units_Z 8
loop_
_atom_type_symbol
_atom_type_radius_bond
C 0.68
H 0.23
N 0.68
O 0.68
loop_
_atom_site_label
_atom_site_type_symbol
_atom_site_fract_x
_atom_site_fract_y
_atom_site_fract_z
C1 C 0.7363(3) 0.1807(4) 0.0289(1)
N1 N 0.8565(4) 0.2392(5) -0.00532(13)
C2 C 0.5764(3) 0.2283(4) 0.01893(9)
C3 C 0.4595(3) 0.1742(3) 0.05494(10)
N2 N 0.2933(3) 0.2317(4) 0.04011(11)
O1 O 0.1829(4) 0.1746(7) 0.06640(19)
O2 O 0.2714(3) 0.3355(4) 0.00279(10)
C4 C 0.4913(3) 0.0696(3) 0.10266(10)
C5 C 0.3714(5) 0.0100(5) 0.14474(14)
C6 C 0.6533(4) 0.0225(4) 0.11058(10)
C7 C 0.7720(3) 0.0732(4) 0.07528(10)
H1 H 0.83270 0.30660 -0.03350
H2 H 0.95560 0.20840 0.00140
H3 H 0.54800 0.29720 -0.01220
H4 H 0.42750 -0.04860 0.17540
H5 H 0.29550 -0.07030 0.12710
H6 H 0.31430 0.11060 0.15870
H7 H 0.68220 -0.04710 0.14150
H8 H 0.87810 0.03570 0.08220
C8 C 0.6440(3) 0.0732(3) 0.35279(9)
N3 N 0.5306(3) 0.0434(4) 0.39292(9)
C9 C 0.8069(3) 0.0431(3) 0.36392(9)
C10 C 0.9181(3) 0.0699(3) 0.32240(9)
N4 N 1.0872(3) 0.0316(3) 0.33856(10)
O3 O 1.1323(3) 0.0552(3) 0.38727(9)
O4 O 1.1771(3) -0.0229(5) 0.30290(11)
C11 C 0.8766(3) 0.1309(3) 0.26819(9)
C12 C 0.9930(4) 0.1617(4) 0.22176(11)
C13 C 0.7130(3) 0.1659(4) 0.25962(9)
C14 C 0.5993(3) 0.1387(4) 0.29952(10)
H9 H 0.56070 0.00530 0.42570
H10 H 0.42960 0.06280 0.38530
H11 H 0.84190 0.00480 0.39940
H12 H 1.08240 0.23200 0.23570
H13 H 0.93840 0.22260 0.19130
H14 H 1.03270 0.05030 0.20870
H15 H 0.67840 0.21040 0.22480
H16 H 0.49090 0.16400 0.29110
#END
