
#######################################################################
#
#                 Cambridge Crystallographic Data Centre
#                                CCDC
#
#######################################################################
#
# If this CIF has been generated from an entry in the Cambridge
# Structural Database, then it will include bibliographic, chemical,
# crystal, experimental, refinement or atomic coordinate data resulting
# from the CCDC's data processing and validation procedures.
#
#######################################################################

data_CSD_CIF_ZZZJIQ01
_audit_creation_date 2001-04-02
_audit_creation_method CSD-ConQuest-V1
_database_code_CSD ZZZJIQ01
_database_code_depnum_ccdc_archive 'CCDC 160013'
_chemical_formula_sum 'C7 H8 N2 O2'
_chemical_formula_moiety
;
C7 H8 N2 O2
;
_journal_coeditor_code "IUCr SK1437"
_journal_coden_Cambridge 591
_journal_volume 57
_journal_year 2001
_journal_page_first 216
_journal_name_full 'Acta Crystallogr.,Sect.C:Cryst.Struct.Commun. '
loop_
_publ_author_name
"D.Cannon"
"C.Glidewell"
"J.N.Low"
"A.Quesada"
"J.L.Wardell"
_chemical_name_systematic
;
4-Methyl-3-nitroaniline
;
_cell_volume   1424.515
_exptl_crystal_colour 'orange'
_exptl_crystal_density_diffrn 1.419
_exptl_special_details
;
triclinic polymorph

;
_exptl_crystal_description 'plate'
_exptl_crystal_preparation 'ethanol'
_diffrn_ambient_temperature 150
#These two values have been output from a single CSD field.
_refine_ls_R_factor_gt 0.063
_refine_ls_wR_factor_gt 0.063
_symmetry_cell_setting triclinic
_symmetry_space_group_name_H-M 'P -1'
_symmetry_Int_Tables_number 2
loop_
_symmetry_equiv_pos_site_id
_symmetry_equiv_pos_as_xyz
1 x,y,z
2 -x,-y,-z
_cell_length_a 7.3814(2)
_cell_length_b 8.2085(3)
_cell_length_c 23.5355(9)
_cell_angle_alpha 87.9310(13)
_cell_angle_beta 89.8880(12)
_cell_angle_gamma 88.371(2)
_cell_formula_units_Z 8
loop_
_atom_type_symbol
_atom_type_radius_bond
C 0.68
H 0.23
N 0.68
O 0.68
loop_
_atom_site_label
_atom_site_type_symbol
_atom_site_fract_x
_atom_site_fract_y
_atom_site_fract_z
C1 C 0.56474(18) 0.86353(17) 0.35323(6)
N1 N 0.53317(17) 0.97841(15) 0.39364(6)
C2 C 0.53661(18) 0.69945(17) 0.36455(6)
C3 C 0.56699(17) 0.58859(16) 0.32220(6)
N2 N 0.52948(16) 0.41871(15) 0.33812(6)
O1 O 0.55196(15) 0.37198(13) 0.38791(5)
O2 O 0.47637(17) 0.32950(14) 0.30145(6)
C4 C 0.62959(17) 0.62960(17) 0.26776(6)
C5 C 0.6623(2) 0.51338(19) 0.22092(7)
C6 C 0.66299(18) 0.79488(18) 0.25902(7)
C7 C 0.63206(19) 0.90821(18) 0.29961(7)
C8 C 0.07558(18) -0.35053(17) 0.14782(6)
N3 N 0.04961(17) -0.46572(15) 0.10789(6)
C9 C 0.04596(18) -0.18566(17) 0.13501(6)
C10 C 0.06983(17) -0.07392(16) 0.17661(7)
N4 N 0.03456(16) 0.09718(15) 0.15865(6)
O3 O 0.05719(15) 0.13749(13) 0.10834(5)
O4 O -0.01548(17) 0.19462(14) 0.19403(6)
C11 C 0.12629(18) -0.11310(18) 0.23207(6)
C12 C 0.1525(2) 0.00382(19) 0.27840(7)
C13 C 0.16208(18) -0.27956(18) 0.24247(7)
C14 C 0.13699(19) -0.39476(18) 0.20244(7)
C15 C 0.17567(19) 0.75218(18) 0.47215(7)
N5 N 0.2312(2) 0.87271(17) 0.50703(7)
C16 C 0.22739(18) 0.59087(17) 0.48274(6)
C17 C 0.17436(18) 0.47341(17) 0.44621(7)
N6 N 0.23562(17) 0.30612(16) 0.46143(6)
O5 O 0.17802(19) 0.19418(15) 0.43514(7)
O6 O 0.34353(17) 0.28293(15) 0.50014(6)
C18 C 0.06883(18) 0.50611(18) 0.39773(7)
C19 C 0.0114(2) 0.3859(2) 0.35488(8)
C20 C 0.01686(18) 0.67065(18) 0.38913(7)
C21 C 0.06698(19) 0.78939(19) 0.42482(7)
C22 C 0.6822(2) 0.77143(19) 0.02979(7)
N7 N 0.7432(2) 0.65100(18) -0.00485(7)
C23 C 0.7289(2) 0.93232(19) 0.01955(7)
C24 C 0.67149(19) 1.05069(18) 0.05635(7)
N8 N 0.72699(18) 1.21696(17) 0.04090(7)
O7 O 0.6734(2) 1.32797(17) 0.06923(9)
O8 O 0.8274(2) 1.23829(16) 0.00100(6)
C25 C 0.56794(19) 1.01953(18) 0.10478(7)
C26 C 0.5070(2) 1.1402(2) 0.14802(8)
C27 C 0.52115(19) 0.85592(19) 0.11306(7)
C28 C 0.57408(19) 0.73627(19) 0.07713(7)
H1 H 0.49410 0.94820 0.42770
H2 H 0.55210 1.08200 0.38540
H3 H 0.49670 0.66300 0.40110
H4 H 0.54590 0.47670 0.20690
H5 H 0.73470 0.41900 0.23540
H6 H 0.72770 0.56840 0.18980
H7 H 0.70950 0.83080 0.22320
H8 H 0.65690 1.01930 0.29110
H9 H 0.01350 -0.43540 0.07340
H10 H 0.06910 -0.56980 0.11680
H11 H 0.00950 -0.14990 0.09780
H12 H 0.22750 0.09330 0.26430
H13 H 0.21280 -0.05300 0.31080
H14 H 0.03430 0.04780 0.29050
H15 H 0.20580 -0.31480 0.27890
H16 H 0.16190 -0.50650 0.21210
H17 H 0.30060 0.84740 0.53660
H18 H 0.19710 0.97490 0.49970
H19 H 0.29930 0.56090 0.51510
H20 H 0.11830 0.32600 0.34100
H21 H -0.04930 0.44440 0.32290
H22 H -0.07240 0.30900 0.37280
H23 H -0.05640 0.70110 0.35710
H24 H 0.02700 0.89900 0.41720
H25 H 0.81300 0.67520 -0.03410
H26 H 0.71250 0.54940 0.00220
H27 H 0.80020 0.96110 -0.01270
H28 H 0.61260 1.19440 0.16290
H29 H 0.44460 1.08300 0.17930
H30 H 0.42390 1.22180 0.13000
H31 H 0.44920 0.82690 0.14520
H32 H 0.53680 0.62770 0.08450
#END
