
#######################################################################
#
#                 Cambridge Crystallographic Data Centre
#                                CCDC
#
#######################################################################
#
# If this CIF has been generated from an entry in the Cambridge
# Structural Database, then it will include bibliographic, chemical,
# crystal, experimental, refinement or atomic coordinate data resulting
# from the CCDC's data processing and validation procedures.
#
#######################################################################

data_CSD_CIF_ZZZKEA01
_audit_creation_date 2009-08-17
_audit_creation_method CSD-ConQuest-V1
_database_code_CSD ZZZKEA01
_database_code_depnum_ccdc_archive 'CCDC 738188'
_chemical_formula_sum 'C6 H4 N2 O2'
_chemical_formula_moiety
;
C6 H4 N2 O2
;
_journal_coeditor_code "IUCr TK2443"
_journal_coden_Cambridge 1370
_journal_volume 65
_journal_year 2009
_journal_page_first o1275
_journal_name_full 'Acta Crystallogr.,Sect.E:Struct.Rep.Online '
loop_
_publ_author_name
"S.W.Ng"
_chemical_name_systematic
;
Benzofurazan 1-oxide
;
_cell_volume    291.711
_exptl_crystal_colour 'yellow-orange'
_exptl_crystal_density_diffrn 1.55
_exptl_crystal_description 'irregular block'
_exptl_crystal_preparation 'THF'
_diffrn_ambient_temperature 100
#These two values have been output from a single CSD field.
_refine_ls_R_factor_gt 0.035
_refine_ls_wR_factor_gt 0.035
_symmetry_cell_setting triclinic
_symmetry_space_group_name_H-M 'P -1'
_symmetry_Int_Tables_number 2
loop_
_symmetry_equiv_pos_site_id
_symmetry_equiv_pos_as_xyz
1 x,y,z
2 -x,-y,-z
_cell_length_a 6.6751(2)
_cell_length_b 7.3256(2)
_cell_length_c 7.6842(2)
_cell_angle_alpha 100.710(2)
_cell_angle_beta 114.265(2)
_cell_angle_gamma 111.747(2)
_cell_formula_units_Z 2
loop_
_atom_type_symbol
_atom_type_radius_bond
C 0.68
H 0.23
N 0.68
O 0.68
loop_
_atom_site_label
_atom_site_type_symbol
_atom_site_fract_x
_atom_site_fract_y
_atom_site_fract_z
O1 O 0.1183(2) 0.2141(2) -0.0082(1)
O2 O 0.5178(2) 0.2611(2) 0.1146(1)
N1 N 0.3061(2) 0.2329(2) 0.1385(2)
N2 N 0.7112(2) 0.2839(2) 0.2955(2)
C1 C 0.6232(2) 0.2701(2) 0.4219(2)
C2 C 0.7496(3) 0.2863(2) 0.6308(2)
C3 C 0.6182(3) 0.2669(2) 0.7284(2)
C4 C 0.3643(3) 0.2321(2) 0.6312(2)
C5 C 0.2382(3) 0.2174(2) 0.4325(2)
C6 C 0.3750(2) 0.2377(2) 0.3296(2)
H1 H 0.919(2) 0.310(3) 0.693(3)
H2 H 0.701(3) 0.278(3) 0.867(2)
H3 H 0.281(3) 0.221(3) 0.706(2)
H4 H 0.072(2) 0.197(3) 0.369(2)
#END
