
#######################################################################
#
#                 Cambridge Crystallographic Data Centre
#                                CCDC
#
#######################################################################
#
# If this CIF has been generated from an entry in the Cambridge
# Structural Database, then it will include bibliographic, chemical,
# crystal, experimental, refinement or atomic coordinate data resulting
# from the CCDC's data processing and validation procedures.
#
#######################################################################

data_CSD_CIF_ZZZKEA02
_audit_creation_date 1980-05-21
_audit_creation_method CSD-ConQuest-V1
_database_code_CSD ZZZKEA02
_chemical_formula_sum 'C6 H4 N2 O2'
_chemical_formula_moiety
;
C6 H4 N2 O2
;
_journal_coeditor_code "IUCr A18054"
_journal_coden_Cambridge 107
_journal_volume 35
_journal_year 1979
_journal_page_first 3076
_journal_name_full 'Acta Crystallogr.,Sect.B:Struct.Crystallogr.Cryst.Chem. '
loop_
_publ_author_name
"D.Britton"
"J.M.Olson"
_chemical_name_systematic
;
Benzfurazan-1-oxide
;
_cell_volume    610.424
_diffrn_ambient_temperature ?
_diffrn_special_details
;
The study was carried out at room temperature,in the range 283-303K

;
#These two values have been output from a single CSD field.
_refine_ls_R_factor_gt 0.097
_refine_ls_wR_factor_gt 0.097
_symmetry_cell_setting triclinic
_symmetry_space_group_name_H-M 'C -1'
_symmetry_Int_Tables_number 2
loop_
_symmetry_equiv_pos_site_id
_symmetry_equiv_pos_as_xyz
1 x,y,z
2 1/2+x,1/2+y,z
3 -x,-y,-z
4 -1/2-x,-1/2-y,-z
_cell_length_a 14.073(7)
_cell_length_b 6.772(3)
_cell_length_c 7.515(4)
_cell_angle_alpha 67.33(3)
_cell_angle_beta 111.07(3)
_cell_angle_gamma 90.93(3)
_cell_formula_units_Z 4
loop_
_atom_type_symbol
_atom_type_radius_bond
C 0.68
H 0.23
N 0.68
O 0.68
loop_
_atom_site_label
_atom_site_type_symbol
_atom_site_fract_x
_atom_site_fract_y
_atom_site_fract_z
C1 C -0.08570 0.03770 0.23780
C2 C -0.03780 -0.16010 0.26840
C3 C 0.06450 -0.17850 0.28250
C4 C 0.11230 -0.00420 0.26810
C5 C 0.06250 0.19650 0.23590
C6 C -0.03410 0.22120 0.22100
N1 N -0.17910 0.01020 0.23220
N2 N -0.09980 -0.30870 0.27880
O1 O -0.25310 0.11900 0.21690
H1 H 0.10070 -0.30900 0.30590
H2 H 0.18710 -0.00740 0.27260
H3 H 0.11040 0.29930 0.23500
H4 H -0.06600 0.34130 0.20030
O2 O -0.19040 -0.21180 0.25820
#END
