
#######################################################################
#
#                 Cambridge Crystallographic Data Centre
#                                CCDC
#
#######################################################################
#
# If this CIF has been generated from an entry in the Cambridge
# Structural Database, then it will include bibliographic, chemical,
# crystal, experimental, refinement or atomic coordinate data resulting
# from the CCDC's data processing and validation procedures.
#
#######################################################################

data_CSD_CIF_ZZZLXE01
_audit_creation_date 2012-02-03
_audit_creation_method CSD-ConQuest-V1
_database_code_CSD ZZZLXE01
_database_code_depnum_ccdc_archive 'CCDC 812453'
_chemical_formula_sum 'C14 H12 N2 O2'
_chemical_formula_moiety
;
C14 H12 N2 O2
;
_journal_coden_Cambridge 580
_journal_volume 30
_journal_year 2011
_journal_page_first 2592
_journal_name_full 'Polyhedron '
loop_
_publ_author_name
"E.B.Coropceanu"
"L.Croitor"
"M.M.Botoshansky"
"A.V.Siminel"
"M.S.Fonari"
_chemical_name_systematic
;
N,N'-Dihydroxy-1,2-diphenylethane-1,2-di-imine
;
_cell_volume    606.801
_exptl_crystal_colour 'colorless'
_exptl_crystal_density_diffrn 1.315
_exptl_crystal_description 'prism'
_diffrn_ambient_temperature 293
#These two values have been output from a single CSD field.
_refine_ls_R_factor_gt 0.0442
_refine_ls_wR_factor_gt 0.0442
_symmetry_cell_setting monoclinic
_symmetry_space_group_name_H-M 'P 21/n'
_symmetry_Int_Tables_number 14
loop_
_symmetry_equiv_pos_site_id
_symmetry_equiv_pos_as_xyz
1 x,y,z
2 1/2-x,1/2+y,1/2-z
3 -x,-y,-z
4 -1/2+x,-1/2-y,-1/2+z
_cell_length_a 5.7086(5)
_cell_length_b 20.0073(15)
_cell_length_c 5.8485(5)
_cell_angle_alpha 90
_cell_angle_beta 114.713(11)
_cell_angle_gamma 90
_cell_formula_units_Z 2
loop_
_atom_type_symbol
_atom_type_radius_bond
C 0.68
H 0.23
N 0.68
O 0.68
loop_
_atom_site_label
_atom_site_type_symbol
_atom_site_fract_x
_atom_site_fract_y
_atom_site_fract_z
H1 H 0.410(5) 0.0531(13) 0.039(6)
O1 O 0.5242(3) 0.06796(7) 0.1886(3)
N1 N 0.7033(3) 0.01547(8) 0.2545(3)
C1 C 0.9039(3) 0.02713(9) 0.4607(3)
C2 C 0.9489(3) 0.08888(9) 0.6149(3)
C3 C 0.8232(4) 0.09814(11) 0.7689(4)
H2 H 0.70650 0.06620 0.77260
C4 C 0.8691(4) 0.15461(12) 0.9180(4)
H3 H 0.78430 0.16050 1.02210
C5 C 1.0411(4) 0.20212(11) 0.9117(4)
H4 H 1.07170 0.24030 1.01070
C6 C 1.1670(4) 0.19309(11) 0.7596(4)
H5 H 1.28380 0.22510 0.75690
C7 C 1.1223(4) 0.13672(10) 0.6098(4)
H6 H 1.20800 0.13100 0.50640
H1B H 1.590(5) -0.0531(13) 0.961(6)
O1B O 1.4758(3) -0.06796(7) 0.8114(3)
N1B N 1.2967(3) -0.01547(8) 0.7455(3)
C1B C 1.0961(3) -0.02713(9) 0.5393(3)
C2B C 1.0511(3) -0.08888(9) 0.3851(3)
C3B C 1.1768(4) -0.09814(11) 0.2311(4)
H2B H 1.29350 -0.06620 0.22740
C4B C 1.1309(4) -0.15461(12) 0.0820(4)
H3B H 1.21570 -0.16050 -0.02210
C5B C 0.9589(4) -0.20212(11) 0.0883(4)
H4B H 0.92830 -0.24030 -0.01070
C6B C 0.8330(4) -0.19309(11) 0.2404(4)
H5B H 0.71620 -0.22510 0.24310
C7B C 0.8777(4) -0.13672(10) 0.3902(4)
H6B H 0.79200 -0.13100 0.49360
#END
