
#######################################################################
#
#                 Cambridge Crystallographic Data Centre
#                                CCDC
#
#######################################################################
#
# If this CIF has been generated from an entry in the Cambridge
# Structural Database, then it will include bibliographic, chemical,
# crystal, experimental, refinement or atomic coordinate data resulting
# from the CCDC's data processing and validation procedures.
#
#######################################################################

data_CSD_CIF_ZZZMUC06
_audit_creation_date 1995-06-12
_audit_creation_method CSD-ConQuest-V1
_database_code_CSD ZZZMUC06
_chemical_formula_sum 'C7 H5 N3 O6'
_chemical_formula_moiety
;
C7 H5 N3 O6
;
_journal_coden_Cambridge 208
_journal_volume 113
_journal_year 1994
_journal_page_first 229
_journal_name_full 'J.Solid State Chem. '
loop_
_publ_author_name
"N.I.Golovina"
"A.N.Titkov"
"A.V.Raevskii"
"L.O.Atovmyan"
_chemical_name_systematic
;
2,4,6-Trinitrotoluene
;
_chemical_name_common
;
TNT
;
_chemical_melting_point 355.15
_cell_volume   1828.856
_exptl_crystal_density_diffrn 1.648
_exptl_special_details
;
monoclinic polymorph

;
_exptl_crystal_preparation 'dichloroethane'
_diffrn_ambient_temperature ?
_diffrn_special_details
;
The study was carried out at room temperature,in the range 283-303K

;
#These two values have been output from a single CSD field.
_refine_ls_R_factor_gt 0.061
_refine_ls_wR_factor_gt 0.061
_symmetry_cell_setting monoclinic
_symmetry_space_group_name_H-M 'P 1 1 21/b'
_symmetry_Int_Tables_number 14
loop_
_symmetry_equiv_pos_site_id
_symmetry_equiv_pos_as_xyz
1 x,y,z
2 -x,1/2-y,1/2+z
3 -x,-y,-z
4 x,-1/2+y,-1/2-z
_cell_length_a 21.407(20)
_cell_length_b 15.019(8)
_cell_length_c 6.0932(5)
_cell_angle_alpha 90
_cell_angle_beta 90
_cell_angle_gamma 111.005(20)
_cell_formula_units_Z 8
loop_
_atom_type_symbol
_atom_type_radius_bond
C 0.68
H 0.23
N 0.68
O 0.68
loop_
_atom_site_label
_atom_site_type_symbol
_atom_site_fract_x
_atom_site_fract_y
_atom_site_fract_z
O1 O 0.4672(1) 0.1225(1) 0.2592(3)
O2 O 0.4401(1) 0.2096(1) 0.4963(2)
O3 O 0.2604(1) -0.0067(1) -0.2130(3)
O4 O 0.2662(1) 0.0941(1) -0.4710(3)
O5 O 0.3619(1) 0.4572(1) 0.0488(4)
O6 O 0.3816(1) 0.4392(2) -0.2915(4)
O7 O 0.0566(1) 0.2709(1) 0.0031(2)
O8 O 0.0359(1) 0.1542(1) -0.2258(3)
O9 O 0.2424(1) 0.2461(1) -0.7120(3)
O10 O 0.2190(1) 0.3203(1) -0.9861(2)
O11 O 0.1107(1) 0.5619(1) -0.7611(3)
O12 O 0.1511(1) 0.6013(1) -0.4358(3)
N1 N 0.4391(1) 0.1766(1) 0.3112(2)
N2 N 0.2799(1) 0.0738(1) -0.2893(3)
N3 N 0.3719(1) 0.4118(1) -0.1041(3)
N4 N 0.0609(1) 0.2381(1) -0.1776(2)
N5 N 0.2146(1) 0.2966(1) -0.7939(2)
N6 N 0.1298(1) 0.5443(1) -0.5847(3)
C1 C 0.4002(1) 0.2032(1) 0.1408(3)
C2 C 0.3592(1) 0.1286(1) 0.0139(3)
C3 C 0.3241(1) 0.1513(1) -0.1518(3)
C4 C 0.3292(1) 0.2434(1) -0.1967(3)
C5 C 0.3697(1) 0.3138(1) -0.0590(3)
C6 C 0.4070(1) 0.2988(1) 0.1141(2)
C7 C 0.4541(1) 0.3790(1) 0.2497(3)
C8 C 0.0989(1) 0.3046(1) -0.3497(2)
C9 C 0.1386(1) 0.2712(1) -0.4807(3)
C10 C 0.1725(1) 0.3293(1) -0.6504(3)
C11 C 0.1677(1) 0.4164(1) -0.6928(3)
C12 C 0.1295(1) 0.4465(1) -0.5491(3)
C13 C 0.0928(1) 0.3936(1) -0.3731(2)
C14 C 0.0482(1) 0.4282(1) -0.2349(3)
H1 H 0.4792(17) 0.4342(25) 0.1573(62)
H2 H 0.4340(18) 0.3858(26) 0.3743(66)
H3 H 0.4965(15) 0.3715(22) 0.2906(55)
H4 H 0.3567(13) 0.0631(18) 0.0418(47)
H5 H 0.3028(13) 0.2515(19) -0.3190(47)
H6 H 0.1410(12) 0.2083(18) -0.4545(44)
H7 H 0.1947(12) 0.4545(18) -0.8179(45)
H8 H 0.0332(17) 0.4696(25) -0.3159(62)
H9 H 0.0701(14) 0.4574(21) -0.1043(53)
H10 H 0.0061(16) 0.3761(24) -0.1975(60)
#END
