
#######################################################################
#
#                 Cambridge Crystallographic Data Centre
#                                CCDC
#
#######################################################################
#
# If this CIF has been generated from an entry in the Cambridge
# Structural Database, then it will include bibliographic, chemical,
# crystal, experimental, refinement or atomic coordinate data resulting
# from the CCDC's data processing and validation procedures.
#
#######################################################################

data_CSD_CIF_ZZZMUC05
_audit_creation_date 1995-06-12
_audit_creation_method CSD-ConQuest-V1
_database_code_CSD ZZZMUC05
_chemical_formula_sum 'C7 H5 N3 O6'
_chemical_formula_moiety
;
C7 H5 N3 O6
;
_journal_coden_Cambridge 208
_journal_volume 113
_journal_year 1994
_journal_page_first 229
_journal_name_full 'J.Solid State Chem. '
loop_
_publ_author_name
"N.I.Golovina"
"A.N.Titkov"
"A.V.Raevskii"
"L.O.Atovmyan"
_chemical_name_systematic
;
2,4,6-Trinitrotoluene
;
_chemical_name_common
;
TNT
;
_chemical_melting_point 355.15
_cell_volume   1830.406
_exptl_crystal_density_diffrn 1.647
_exptl_special_details
;
orthorhombic polymorph 1
Correction to space group (P21ab not P21ca) provided by the author
;
_exptl_crystal_preparation 'sublimation'
_diffrn_ambient_temperature ?
_diffrn_special_details
;
The study was carried out at room temperature,in the range 283-303K

;
#These two values have been output from a single CSD field.
_refine_ls_R_factor_gt 0.055
_refine_ls_wR_factor_gt 0.055
_symmetry_cell_setting orthorhombic
_symmetry_space_group_name_H-M 'P 21 a b'
_symmetry_Int_Tables_number 29
loop_
_symmetry_equiv_pos_site_id
_symmetry_equiv_pos_as_xyz
1 x,y,z
2 x,1/2+y,-z
3 1/2+x,-y,-z
4 1/2+x,1/2-y,z
_cell_length_a 20.041(20)
_cell_length_b 15.013(8)
_cell_length_c 6.0836(5)
_cell_angle_alpha 90
_cell_angle_beta 90
_cell_angle_gamma 90
_cell_formula_units_Z 8
loop_
_atom_type_symbol
_atom_type_radius_bond
C 0.68
H 0.23
N 0.62
O 0.50
loop_
_atom_site_label
_atom_site_type_symbol
_atom_site_fract_x
_atom_site_fract_y
_atom_site_fract_z
O1 O 0.2690(2) 0.0128(3) 0.5183(6)
O2 O 0.2959(2) 0.1136(2) 0.7524(5)
O3 O 0.4750(2) -0.0108(3) 0.0420(6)
O4 O 0.4693(3) 0.0869(3) -0.2149(7)
O5 O 0.3492(2) 0.3790(3) -0.0260(7)
O6 O 0.3761(2) 0.4011(2) 0.3046(5)
O7 O 0.1202(2) 0.3732(3) 0.5251(7)
O8 O 0.0870(2) 0.3489(2) 0.1910(7)
O9 O 0.1797(2) 0.6316(2) -0.2476(5)
O10 O 0.2011(2) 0.7372(3) -0.0144(5)
O11 O -0.0068(3) 0.7516(3) 0.4643(5)
O12 O 0.0175(2) 0.6645(2) 0.7394(5)
N1 N 0.2976(2) 0.0810(2) 0.5686(6)
N2 N 0.4560(2) 0.0606(3) -0.0339(6)
N3 N 0.3645(2) 0.3505(2) 0.1575(7)
N4 N 0.0221(2) 0.6868(2) 0.5486(6)
N5 N 0.1760(3) 0.6658(2) -0.0658(6)
N6 N 0.1066(2) 0.3956(2) 0.3460(7)
C1 C 0.3358(2) 0.1274(2) 0.3975(6)
C2 C 0.3777(2) 0.0734(2) 0.2696(6)
C3 C 0.4116(2) 0.1142(2) 0.1050(6)
C4 C 0.4074(2) 0.2039(2) 0.0591(6)
C5 C 0.3670(2) 0.2536(2) 0.1952(6)
C6 C 0.3290(2) 0.2186(2) 0.3699(5)
C7 C 0.2846(2) 0.2803(3) 0.5040(5)
C8 C 0.1913(3) 0.4755(4) -0.0132(7)
C9 C 0.1439(2) 0.5265(2) 0.1296(5)
C10 C 0.1074(2) 0.4923(2) 0.3033(5)
C11 C 0.0689(2) 0.5425(2) 0.4483(5)
C12 C 0.0635(2) 0.6315(2) 0.4049(5)
C13 C 0.0986(2) 0.6722(2) 0.2357(5)
C14 C 0.1379(2) 0.6191(2) 0.1061(6)
H1 H 0.3114(27) 0.2846(34) 0.6349(88)
H2 H 0.2453(61) 0.2450(71) 0.536(19)
H3 H 0.2643(30) 0.3290(37) 0.411(10)
H4 H 0.4315(26) 0.2378(35) -0.0735(80)
H5 H 0.3777(27) 0.0017(34) 0.3099(90)
H6 H 0.2023(34) 0.4252(44) 0.089(11)
H7 H 0.2351(20) 0.4898(27) -0.0369(66)
H8 H 0.1867(23) 0.4670(29) -0.1622(77)
H9 H 0.0558(26) 0.5274(32) 0.6070(84)
H10 H 0.1002(27) 0.7343(32) 0.2374(84)
#END
