
#######################################################################
#
#                 Cambridge Crystallographic Data Centre
#                                CCDC
#
#######################################################################
#
# If this CIF has been generated from an entry in the Cambridge
# Structural Database, then it will include bibliographic, chemical,
# crystal, experimental, refinement or atomic coordinate data resulting
# from the CCDC's data processing and validation procedures.
#
#######################################################################

data_CSD_CIF_ZZZMGS03
_audit_creation_date 2008-12-09
_audit_creation_method CSD-ConQuest-V1
_database_code_CSD ZZZMGS03
_database_code_depnum_ccdc_archive 'CCDC 673767'
_chemical_formula_sum 'C13 H10 N4 O6'
_chemical_formula_moiety
;
C13 H10 N4 O6
;
_journal_coden_Cambridge 1147
_journal_volume 8
_journal_year 2008
_journal_page_first 1977
_journal_name_full 'Cryst.Growth Des. '
loop_
_publ_author_name
"D.E.Braun"
"T.Gelbrich"
"R.K.R.Jetti"
"V.Kahlenberg"
"S.L.Price"
"U.J.Griesser"
_chemical_name_systematic
;
(p-Tolyl)-(2,4,6-trinitrophenyl)amine
;
_chemical_name_common
;
N-Picryl-p-toluidine
;
_chemical_melting_point 436
_cell_volume   1340.743
_exptl_crystal_colour 'orange'
_exptl_crystal_density_diffrn 1.577
_exptl_special_details
;
polymorph II

;
_exptl_crystal_description 'plate'
_diffrn_ambient_temperature 173
#These two values have been output from a single CSD field.
_refine_ls_R_factor_gt 0.0442
_refine_ls_wR_factor_gt 0.0442
_symmetry_cell_setting monoclinic
_symmetry_space_group_name_H-M 'P 21/c'
_symmetry_Int_Tables_number 14
loop_
_symmetry_equiv_pos_site_id
_symmetry_equiv_pos_as_xyz
1 x,y,z
2 -x,1/2+y,1/2-z
3 -x,-y,-z
4 x,-1/2-y,-1/2+z
_cell_length_a 15.251(2)
_cell_length_b 5.9471(6)
_cell_length_c 16.288(2)
_cell_angle_alpha 90
_cell_angle_beta 114.83(1)
_cell_angle_gamma 90
_cell_formula_units_Z 4
loop_
_atom_type_symbol
_atom_type_radius_bond
C 0.68
H 0.23
N 0.68
O 0.68
loop_
_atom_site_label
_atom_site_type_symbol
_atom_site_fract_x
_atom_site_fract_y
_atom_site_fract_z
O1 O 0.97428(10) -0.2318(2) 0.67872(10)
O2 O 0.89355(10) -0.2248(2) 0.75955(9)
O3 O 0.60025(9) 0.3685(2) 0.61197(9)
O4 O 0.67237(10) 0.6894(2) 0.62274(10)
O5 O 0.85406(9) 0.5977(2) 0.43822(9)
O6 O 0.94082(9) 0.2983(3) 0.45368(9)
N1 N 0.91436(10) -0.1448(2) 0.70005(10)
N2 N 0.66953(10) 0.4828(3) 0.61897(10)
N3 N 0.88631(10) 0.4151(3) 0.47347(10)
N4 N 0.76950(11) 0.0972(3) 0.73848(10)
H1 H 0.7976(15) -0.031(4) 0.7630(15)
C1 C 0.89551(12) 0.1366(3) 0.58797(11)
H2 H 0.94260 0.05610 0.57590
C2 C 0.86555(11) 0.0588(3) 0.65215(11)
C3 C 0.79410(11) 0.1711(3) 0.67344(11)
C4 C 0.75431(11) 0.3653(3) 0.61875(11)
C5 C 0.78569(12) 0.4478(3) 0.55692(11)
H3 H 0.75920 0.58270 0.52480
C6 C 0.85637(11) 0.3318(3) 0.54192(11)
C7 C 0.71492(12) 0.2044(3) 0.78048(11)
C8 C 0.64020(12) 0.0849(3) 0.78748(12)
H4 H 0.62270 -0.05900 0.76010
C9 C 0.59129(12) 0.1762(3) 0.83455(12)
H5 H 0.54030 0.09350 0.83930
C10 C 0.61547(12) 0.3865(3) 0.87493(11)
C11 C 0.69000(13) 0.5043(3) 0.86607(12)
H6 H 0.70660 0.64960 0.89230
C12 C 0.74058(12) 0.4152(3) 0.82003(12)
H7 H 0.79190 0.49700 0.81560
C13 C 0.56455(15) 0.4849(4) 0.92859(14)
H8 H 0.50720 0.39480 0.91860
H9 H 0.54510 0.63980 0.90890
H10 H 0.60840 0.48390 0.99310
#END
