
#######################################################################
#
#                 Cambridge Crystallographic Data Centre
#                                CCDC
#
#######################################################################
#
# If this CIF has been generated from an entry in the Cambridge
# Structural Database, then it will include bibliographic, chemical,
# crystal, experimental, refinement or atomic coordinate data resulting
# from the CCDC's data processing and validation procedures.
#
#######################################################################

data_CSD_CIF_ZZZMUC08
_audit_creation_date 2004-04-19
_audit_creation_method CSD-ConQuest-V1
_database_code_CSD ZZZMUC08
_database_code_depnum_ccdc_archive 'CCDC 227799'
_chemical_formula_sum 'C7 H5 N3 O6'
_chemical_formula_moiety
;
C7 H5 N3 O6
;
_journal_coden_Cambridge 1147
_journal_volume 3
_journal_year 2003
_journal_page_first 1027
_journal_name_full 'Cryst.Growth Des. '
loop_
_publ_author_name
"R.M.Vrcelj"
"J.N.Sherwood"
"A.R.Kennedy"
"H.G.Gallagher"
"T.Gelbrich"
_chemical_name_systematic
;
2,4,6-Trinitrotoluene
;
_cell_volume   1761.373
_exptl_crystal_colour 'colorless'
_exptl_crystal_density_diffrn 1.713
_exptl_special_details
;
monoclinic polymorph

;
_diffrn_ambient_temperature 100
#These two values have been output from a single CSD field.
_refine_ls_R_factor_gt 0.0353
_refine_ls_wR_factor_gt 0.0353
_symmetry_cell_setting monoclinic
_symmetry_space_group_name_H-M 'P 21/a'
_symmetry_Int_Tables_number 14
loop_
_symmetry_equiv_pos_site_id
_symmetry_equiv_pos_as_xyz
1 x,y,z
2 1/2+x,1/2-y,z
3 -x,-y,-z
4 -1/2-x,-1/2+y,-z
_cell_length_a 14.9113(1)
_cell_length_b 6.0340(1)
_cell_length_c 20.8815(3)
_cell_angle_alpha 90
_cell_angle_beta 110.365(1)
_cell_angle_gamma 90
_cell_formula_units_Z 8
loop_
_atom_type_symbol
_atom_type_radius_bond
C 0.68
H 0.23
N 0.68
O 0.68
loop_
_atom_site_label
_atom_site_type_symbol
_atom_site_fract_x
_atom_site_fract_y
_atom_site_fract_z
O1 O 0.71588(5) 1.52006(12) 0.44495(4)
O2 O 0.61594(5) 1.29171(13) 0.46499(4)
O3 O 0.50161(5) 0.78673(14) 0.25730(4)
O4 O 0.60239(5) 0.51129(12) 0.28318(4)
O5 O 0.95528(6) 0.75531(14) 0.38777(4)
O6 O 0.94863(5) 1.08613(14) 0.34529(4)
O7 O 0.26894(6) 1.01103(13) 0.05824(4)
O8 O 0.15185(5) 0.77331(13) 0.03146(4)
O9 O 0.23126(6) 0.28216(14) 0.23953(4)
O10 O 0.32699(6) 0.02084(14) 0.23142(5)
O11 O 0.59836(5) 0.56964(14) 0.14234(4)
O12 O 0.56208(6) 0.22455(15) 0.11700(5)
N1 N 0.67728(6) 1.33793(14) 0.44028(4)
N2 N 0.58099(6) 0.70634(15) 0.28644(4)
N3 N 0.91520(6) 0.93234(15) 0.36812(4)
N4 N 0.23599(6) 0.82477(14) 0.05970(4)
N5 N 0.29225(6) 0.20691(15) 0.21862(4)
N6 N 0.54270(6) 0.41302(16) 0.12961(4)
C1 C 0.88151(7) 1.28422(18) 0.45180(5)
C2 C 0.80143(7) 1.14135(16) 0.40741(5)
C3 C 0.70543(7) 1.16293(16) 0.40203(5)
C4 C 0.63215(7) 1.02731(16) 0.36238(5)
C5 C 0.65647(7) 0.85471(17) 0.32825(5)
C6 C 0.74976(7) 0.81400(17) 0.33230(5)
C7 C 0.81795(6) 0.96326(17) 0.37017(5)
C8 C 0.42585(8) 0.76816(19) 0.04578(5)
C9 C 0.39210(7) 0.62825(17) 0.09247(5)
C10 C 0.30196(7) 0.65185(16) 0.09879(5)
C11 C 0.26798(7) 0.52016(17) 0.13972(5)
C12 C 0.32634(7) 0.35053(17) 0.17522(5)
C13 C 0.41529(7) 0.30918(17) 0.17058(5)
C14 C 0.44554(6) 0.45247(17) 0.13064(5)
H1 H 0.9419(10) 1.204(2) 0.4640(7)
H2 H 0.8869(11) 1.427(3) 0.4284(8)
H3 H 0.8712(10) 1.322(2) 0.4932(7)
H4 H 0.5676(9) 1.052(2) 0.3589(6)
H5 H 0.7653(9) 0.695(2) 0.3079(7)
H6 H 0.4554(10) 0.902(3) 0.0689(7)
H7 H 0.4694(10) 0.685(2) 0.0302(7)
H8 H 0.374(1) 0.807(2) 0.0049(7)
H9 H 0.2055(9) 0.545(2) 0.1424(7)
H10 H 0.4531(10) 0.189(2) 0.1952(7)
#END
