
#######################################################################
#
#                 Cambridge Crystallographic Data Centre
#                                CCDC
#
#######################################################################
#
# If this CIF has been generated from an entry in the Cambridge
# Structural Database, then it will include bibliographic, chemical,
# crystal, experimental, refinement or atomic coordinate data resulting
# from the CCDC's data processing and validation procedures.
#
#######################################################################

data_CSD_CIF_ZZZMUC09
_audit_creation_date 2004-04-19
_audit_creation_method CSD-ConQuest-V1
_database_code_CSD ZZZMUC09
_database_code_depnum_ccdc_archive 'CCDC 227800'
_chemical_formula_sum 'C7 H5 N3 O6'
_chemical_formula_moiety
;
C7 H5 N3 O6
;
_journal_coden_Cambridge 1147
_journal_volume 3
_journal_year 2003
_journal_page_first 1027
_journal_name_full 'Cryst.Growth Des. '
loop_
_publ_author_name
"R.M.Vrcelj"
"J.N.Sherwood"
"A.R.Kennedy"
"H.G.Gallagher"
"T.Gelbrich"
_chemical_name_systematic
;
2,4,6-Trinitrotoluene
;
_cell_volume   1770.579
_exptl_crystal_colour 'colorless'
_exptl_crystal_density_diffrn 1.704
_exptl_special_details
;
orthorhombic polymorph 1

;
_exptl_crystal_description 'needle'
_diffrn_ambient_temperature 123
#These two values have been output from a single CSD field.
_refine_ls_R_factor_gt 0.0309
_refine_ls_wR_factor_gt 0.0309
_symmetry_cell_setting orthorhombic
_symmetry_space_group_name_H-M 'P c a 21'
_symmetry_Int_Tables_number 29
loop_
_symmetry_equiv_pos_site_id
_symmetry_equiv_pos_as_xyz
1 x,y,z
2 -x,-y,1/2+z
3 1/2-x,y,1/2+z
4 1/2+x,-y,z
_cell_length_a 14.910(2)
_cell_length_b 6.0341(18)
_cell_length_c 19.680(4)
_cell_angle_alpha 90
_cell_angle_beta 90
_cell_angle_gamma 90
_cell_formula_units_Z 8
loop_
_atom_type_symbol
_atom_type_radius_bond
C 0.68
H 0.23
N 0.68
O 0.68
loop_
_atom_site_label
_atom_site_type_symbol
_atom_site_fract_x
_atom_site_fract_y
_atom_site_fract_z
O1 O 0.63079(12) -0.2628(3) 0.51250
O2 O 0.73912(15) -0.0319(4) 0.49162(15)
O3 O 0.75239(15) 0.4670(4) 0.69991(15)
O4 O 0.66447(11) 0.7428(3) 0.67462(13)
O5 O 0.36340(16) 0.5025(3) 0.56992(18)
O6 O 0.34810(12) 0.1702(3) 0.61042(14)
O7 O 0.12237(16) -0.0190(4) 0.84141(18)
O8 O 0.09864(12) 0.3236(3) 0.81417(14)
O9 O 0.41345(13) -0.2219(3) 0.72591(14)
O10 O 0.51332(15) 0.0383(4) 0.71861(16)
O11 O 0.49116(14) 0.5305(4) 0.92521(15)
O12 O 0.38621(13) 0.7659(3) 0.89919(11)
N1 N 0.66651(13) -0.0798(4) 0.51682(16)
N2 N 0.68709(16) 0.5486(4) 0.67105(15)
N3 N 0.39341(14) 0.3239(4) 0.58875(14)
N4 N 0.14802(14) 0.1682(4) 0.82787(14)
N5 N 0.44203(17) -0.0356(4) 0.73915(16)
N6 N 0.42017(14) 0.5804(4) 0.89752(15)
C1 C 0.61924(16) 0.0943(4) 0.55517(16)
C2 C 0.67305(16) 0.2292(4) 0.59496(17)
C3 C 0.63234(15) 0.4000(4) 0.62923(15)
C4 C 0.54128(17) 0.4409(5) 0.62498(17)
C5 C 0.49161(17) 0.2934(4) 0.58715(16)
C6 C 0.52637(16) 0.1157(4) 0.54971(16)
C7 C 0.4682(2) -0.0265(6) 0.5052(2)
C8 C 0.24601(16) 0.2075(4) 0.82691(16)
C9 C 0.29565(17) 0.0641(5) 0.78721(17)
C10 C 0.38675(16) 0.1064(4) 0.78273(16)
C11 C 0.42762(16) 0.2760(4) 0.81789(17)
C12 C 0.37354(16) 0.4064(4) 0.85843(17)
C13 C 0.28065(16) 0.3830(4) 0.86472(17)
C14 C 0.2234(2) 0.5223(5) 0.9110(2)
H1 H 0.739(2) 0.200(5) 0.5971(15)
H2 H 0.511(2) 0.547(6) 0.6521(18)
H3 H 0.494(2) -0.065(5) 0.4642(18)
H4 H 0.453(2) -0.177(6) 0.529(2)
H5 H 0.413(2) 0.055(6) 0.4935(19)
H6 H 0.2710(19) -0.069(5) 0.7633(16)
H7 H 0.4881(18) 0.304(4) 0.8157(14)
H8 H 0.258(2) 0.567(6) 0.9501(18)
H9 H 0.169(2) 0.447(6) 0.9263(17)
H10 H 0.207(2) 0.661(6) 0.8857(18)
#END
