
#######################################################################
#
#                 Cambridge Crystallographic Data Centre
#                                CCDC
#
#######################################################################
#
# If this CIF has been generated from an entry in the Cambridge
# Structural Database, then it will include bibliographic, chemical,
# crystal, experimental, refinement or atomic coordinate data resulting
# from the CCDC's data processing and validation procedures.
#
#######################################################################

data_CSD_CIF_ZZZNQQ02
_audit_creation_date 2018-04-27
_audit_creation_method CSD-ConQuest-V1
_database_code_CSD ZZZNQQ02
_database_code_depnum_ccdc_archive 'CCDC 1840134'
_chemical_formula_sum 'C9 H7 N1 O4'
_chemical_formula_moiety
;
C9 H7 N1 O4
;
_journal_coden_Cambridge 1078
_journal_year 2018
_journal_name_full 'CSD Communication(Private Communication) '
loop_
_publ_author_name
"E.Nauha"
"P.Lucaioli"
"N.Blagden"
_chemical_name_systematic
;
3-(2-nitrophenyl)prop-2-enoic acid
;
_chemical_name_common
;
alpha-2-Nitro-trans-cinnamic acid
;
_cell_volume    831.673
_exptl_crystal_colour 'colorless'
_exptl_crystal_density_diffrn 1.543
_exptl_special_details
;
alpha polymorph

;
_exptl_crystal_description 'plate'
_exptl_crystal_preparation 'methanol'
_diffrn_ambient_temperature 173
#These two values have been output from a single CSD field.
_refine_ls_R_factor_gt 0.0413
_refine_ls_wR_factor_gt 0.0413
_symmetry_cell_setting monoclinic
_symmetry_space_group_name_H-M 'P 21/n'
_symmetry_Int_Tables_number 14
loop_
_symmetry_equiv_pos_site_id
_symmetry_equiv_pos_as_xyz
1 x,y,z
2 1/2-x,1/2+y,1/2-z
3 -x,-y,-z
4 -1/2+x,-1/2-y,-1/2+z
_cell_length_a 3.6897(1)
_cell_length_b 7.1796(3)
_cell_length_c 31.4036(12)
_cell_angle_alpha 90
_cell_angle_beta 91.337(2)
_cell_angle_gamma 90
_cell_formula_units_Z 4
loop_
_atom_type_symbol
_atom_type_radius_bond
C 0.68
H 0.23
N 0.68
O 0.68
loop_
_atom_site_label
_atom_site_type_symbol
_atom_site_fract_x
_atom_site_fract_y
_atom_site_fract_z
O1 O 0.5079(4) 0.27127(17) -0.00365(4)
O2 O 0.7573(4) 0.44794(18) 0.04780(4)
H1 H 0.667(6) 0.541(3) 0.0322(7)
O3 O 0.6239(4) 0.25249(18) 0.17012(4)
O4 O 0.9353(4) 0.1776(2) 0.22657(4)
N1 N 0.8351(4) 0.1494(2) 0.18957(5)
C1 C 0.6700(5) 0.2864(2) 0.03101(5)
C2 C 0.7684(5) 0.1220(2) 0.05655(5)
H2 H 0.73148 0.00159 0.04469
C3 C 0.9080(4) 0.1371(2) 0.09592(5)
H3 H 0.95412 0.25855 0.10677
C4 C 0.9949(4) -0.0227(2) 0.12361(5)
C5 C 0.9726(4) -0.0173(2) 0.16836(5)
C6 C 1.0712(5) -0.1654(3) 0.19404(6)
H4 H 1.05319 -0.15613 0.22410
C7 C 1.1964(5) -0.3276(3) 0.17575(6)
H5 H 1.26366 -0.43083 0.19312
C8 C 1.2232(5) -0.3383(2) 0.13172(6)
H6 H 1.30981 -0.44930 0.11900
C9 C 1.1244(5) -0.1884(2) 0.10633(6)
H7 H 1.14513 -0.19850 0.07632
#END
