
#######################################################################
#
#                 Cambridge Crystallographic Data Centre
#                                CCDC
#
#######################################################################
#
# If this CIF has been generated from an entry in the Cambridge
# Structural Database, then it will include bibliographic, chemical,
# crystal, experimental, refinement or atomic coordinate data resulting
# from the CCDC's data processing and validation procedures.
#
#######################################################################

data_CSD_CIF_ZZZPGU01
_audit_creation_date 2009-01-14
_audit_creation_method CSD-ConQuest-V1
_database_code_CSD ZZZPGU01
_database_code_depnum_ccdc_archive 'CCDC 712374'
_chemical_formula_sum 'C14 H11 N1 O2'
_chemical_formula_moiety
;
C14 H11 N1 O2
;
_journal_coeditor_code "IUCr HG2430"
_journal_coden_Cambridge 1370
_journal_volume 64
_journal_year 2008
_journal_page_first o2259
_journal_name_full 'Acta Crystallogr.,Sect.E:Struct.Rep.Online '
loop_
_publ_author_name
"R.Moreno-Fuquen"
"L.Aguirre"
"A.R.Kennedy"
_chemical_name_systematic
;
4-Nitrostilbene
;
_chemical_melting_point 421.0
_cell_volume   2178.939
_exptl_crystal_colour 'light yellow'
_exptl_crystal_density_diffrn 1.373
_exptl_crystal_description 'cut lath'
_exptl_crystal_preparation 'ethyl acetate'
_diffrn_ambient_temperature 123
#These two values have been output from a single CSD field.
_refine_ls_R_factor_gt 0.048
_refine_ls_wR_factor_gt 0.048
_symmetry_cell_setting orthorhombic
_symmetry_space_group_name_H-M 'P b c a'
_symmetry_Int_Tables_number 61
loop_
_symmetry_equiv_pos_site_id
_symmetry_equiv_pos_as_xyz
1 x,y,z
2 1/2-x,-y,1/2+z
3 1/2+x,1/2-y,-z
4 -x,1/2+y,1/2-z
5 -x,-y,-z
6 -1/2+x,y,-1/2-z
7 -1/2-x,-1/2+y,z
8 x,-1/2-y,-1/2+z
_cell_length_a 10.0839(3)
_cell_length_b 7.6849(2)
_cell_length_c 28.1176(8)
_cell_angle_alpha 90
_cell_angle_beta 90
_cell_angle_gamma 90
_cell_formula_units_Z 8
loop_
_atom_type_symbol
_atom_type_radius_bond
C 0.68
H 0.23
N 0.68
O 0.68
loop_
_atom_site_label
_atom_site_type_symbol
_atom_site_fract_x
_atom_site_fract_y
_atom_site_fract_z
O1 O 0.69853(10) 0.14689(14) 1.05469(3)
O2 O 0.51679(11) 0.28695(16) 1.04197(4)
N1 N 0.60967(11) 0.19752(15) 1.02843(4)
C1 C 0.61582(12) 0.15108(16) 0.97771(4)
C2 C 0.51199(13) 0.19912(17) 0.94826(5)
H1 H 0.43640 0.25720 0.96070
C3 C 0.52059(13) 0.16074(16) 0.90021(5)
H2 H 0.44960 0.19100 0.87960
C4 C 0.63344(13) 0.07749(15) 0.88166(4)
C5 C 0.73329(13) 0.02692(17) 0.91315(5)
H3 H 0.80830 -0.03400 0.90130
C6 C 0.72573(13) 0.06320(16) 0.96111(5)
H4 H 0.79450 0.02850 0.98220
C7 C 0.65267(13) 0.04480(16) 0.83078(5)
H5 H 0.72310 -0.03090 0.82210
C8 C 0.58014(13) 0.11181(16) 0.79561(4)
H6 H 0.50840 0.18510 0.80440
C9 C 0.60077(12) 0.08280(15) 0.74429(4)
C10 C 0.50863(13) 0.15248(16) 0.71267(4)
H7 H 0.43420 0.21420 0.72470
C11 C 0.52360(13) 0.13330(17) 0.66384(5)
H8 H 0.45990 0.18190 0.64280
C12 C 0.63151(13) 0.04317(16) 0.64595(5)
H9 H 0.64220 0.03020 0.61260
C13 C 0.72366(13) -0.02793(17) 0.67678(5)
H10 H 0.79730 -0.09040 0.66450
C14 C 0.70911(13) -0.00852(16) 0.72570(5)
H11 H 0.77300 -0.05750 0.74660
#END
