
#######################################################################
#
#                 Cambridge Crystallographic Data Centre
#                                CCDC
#
#######################################################################
#
# If this CIF has been generated from an entry in the Cambridge
# Structural Database, then it will include bibliographic, chemical,
# crystal, experimental, refinement or atomic coordinate data resulting
# from the CCDC's data processing and validation procedures.
#
#######################################################################

data_CSD_CIF_ZZZPGU02
_audit_creation_date 2015-06-30
_audit_creation_method CSD-ConQuest-V1
_database_code_CSD ZZZPGU02
_database_code_depnum_ccdc_archive 'CCDC 1028616'
_chemical_formula_sum 'C14 H11 N1 O2'
_chemical_formula_moiety
;
C14 H11 N1 O2
;
_journal_coden_Cambridge 1500
_journal_volume 5
_journal_year 2015
_journal_page_first 55218
_journal_name_full 'RSC Advances '
loop_
_publ_author_name
"A.K.Jha"
"S.Kishor"
"Nidhi Jain"
_chemical_name_systematic
;
1-nitro-4-(2-phenylvinyl)benzene
;
_chemical_name_common
;
(E)-1-nitro-4-styrylbenzene
;
_cell_volume   2283.982
_exptl_crystal_colour 'yellow'
_exptl_crystal_density_diffrn 1.31
_exptl_crystal_description 'rod'
_exptl_crystal_preparation 'Ethyl acetate/n-hexane'
_diffrn_ambient_temperature 273
#These two values have been output from a single CSD field.
_refine_ls_R_factor_gt 0.0952
_refine_ls_wR_factor_gt 0.0952
_symmetry_cell_setting triclinic
_symmetry_space_group_name_H-M 'P -1'
_symmetry_Int_Tables_number 2
loop_
_symmetry_equiv_pos_site_id
_symmetry_equiv_pos_as_xyz
1 x,y,z
2 -x,-y,-z
_cell_length_a 7.890(3)
_cell_length_b 10.185(4)
_cell_length_c 28.422(9)
_cell_angle_alpha 90
_cell_angle_beta 90
_cell_angle_gamma 90
_cell_formula_units_Z 8
loop_
_atom_type_symbol
_atom_type_radius_bond
C 0.68
H 0.23
N 0.68
O 0.68
loop_
_atom_site_label
_atom_site_type_symbol
_atom_site_fract_x
_atom_site_fract_y
_atom_site_fract_z
C1 C 0.3251(7) 0.4765(6) 0.3996(2)
H1 H 0.29130 0.54480 0.38000
C2 C 0.4071(7) 0.3686(7) 0.3806(2)
C3 C 0.4084(7) 0.3943(6) 0.2439(2)
C4 C 0.3451(7) 0.3825(6) 0.4759(2)
N1 N 0.3082(8) 0.3869(6) 0.5266(2)
C5 C 0.3380(7) 0.4843(5) 0.2131(2)
H2 H 0.27810 0.55560 0.22490
C6 C 0.4998(7) 0.2916(6) 0.2251(2)
H3 H 0.55030 0.23070 0.24500
C7 C 0.3550(7) 0.4700(6) 0.1655(2)
H4 H 0.30580 0.53100 0.14540
C8 C 0.3798(7) 0.4176(6) 0.2957(3)
H5 H 0.31320 0.48910 0.30430
O1 O 0.3617(7) 0.3013(5) 0.55117(17)
C9 C 0.5172(7) 0.2783(6) 0.1777(3)
H6 H 0.57940 0.20850 0.16570
C10 C 0.4292(8) 0.2784(6) 0.4576(2)
H7 H 0.46610 0.21150 0.47740
C11 C 0.4595(7) 0.2710(6) 0.4114(3)
H8 H 0.51730 0.19860 0.39960
C12 C 0.4391(8) 0.3476(6) 0.3282(3)
H9 H 0.50800 0.27760 0.31960
C13 C 0.2929(7) 0.4837(6) 0.4472(2)
H10 H 0.23670 0.55590 0.45970
C14 C 0.4438(7) 0.3668(7) 0.1475(2)
H11 H 0.45450 0.35650 0.11510
O2 O 0.2216(8) 0.4786(6) 0.54045(18)
C15 C 0.8811(7) 0.5850(6) 0.2038(3)
H12 H 0.81310 0.51420 0.19550
C16 C 0.9080(7) 0.6315(7) 0.1193(2)
C17 C 0.8453(7) 0.6157(6) 0.0244(2)
C18 C 0.8245(7) 0.5241(6) 0.1005(2)
H13 H 0.78890 0.45690 0.12040
C19 C 0.9093(7) 0.6060(6) 0.2561(2)
C20 C 0.8377(7) 0.5153(6) 0.2862(2)
H14 H 0.77770 0.44460 0.27390
C21 C 1.0004(7) 0.7088(6) 0.2753(2)
H15 H 1.05210 0.77010 0.25580
C22 C 1.0145(7) 0.7203(6) 0.3231(3)
H16 H 1.07400 0.79090 0.33570
C23 C 0.8539(7) 0.5282(6) 0.3340(2)
H17 H 0.80370 0.46680 0.35380
N2 N 0.8061(8) 0.6107(6) -0.0265(2)
C24 C 0.7930(7) 0.5148(6) 0.0529(2)
H18 H 0.73780 0.44210 0.04050
C25 C 0.9386(8) 0.6516(7) 0.1709(3)
H19 H 1.00830 0.72160 0.17910
C26 C 0.9590(7) 0.7283(6) 0.0882(3)
H20 H 1.01600 0.80110 0.10000
O3 O 0.8608(7) 0.6989(5) -0.05107(18)
C27 C 0.9434(7) 0.6307(7) 0.3529(2)
H21 H 0.95550 0.63910 0.38530
C28 C 0.9296(8) 0.7215(6) 0.0420(2)
H22 H 0.96630 0.78810 0.02200
O4 O 0.7218(8) 0.5202(6) -0.04062(19)
C29 C 0.4100(7) 0.8943(6) 0.2559(2)
C30 C 0.3252(7) 0.9762(6) 0.1004(2)
H23 H 0.29170 1.04450 0.12000
C31 C 0.4071(7) 0.8681(7) 0.1192(2)
C32 C 0.3463(7) 0.8830(6) 0.0243(2)
C33 C 0.3369(7) 0.9840(6) 0.2863(2)
H24 H 0.27510 1.05410 0.27430
N3 N 0.3068(8) 0.8875(6) -0.0261(2)
O5 O 0.3615(7) 0.8010(6) -0.05137(18)
C34 C 0.3803(7) 0.9163(6) 0.2040(3)
H25 H 0.31230 0.98720 0.19560
C35 C 0.5163(7) 0.7789(6) 0.3224(3)
H26 H 0.57870 0.70890 0.33430
C36 C 0.4292(7) 0.7783(6) 0.0423(2)
H27 H 0.46590 0.71150 0.02250
C37 C 0.4988(7) 0.7920(6) 0.2753(2)
H28 H 0.54830 0.73010 0.25550
C38 C 0.4388(8) 0.8478(6) 0.1713(3)
H29 H 0.50820 0.77780 0.17970
C39 C 0.4588(7) 0.7704(6) 0.0886(3)
H30 H 0.51560 0.69750 0.10040
C40 C 0.2929(7) 0.9837(6) 0.0526(2)
H31 H 0.23610 1.05560 0.04000
C41 C 0.4436(7) 0.8670(7) 0.3530(2)
H32 H 0.45410 0.85700 0.38540
C42 C 0.3552(7) 0.9700(6) 0.3341(2)
H33 H 0.30650 1.03180 0.35400
O6 O 0.2227(8) 0.9780(6) -0.04082(19)
C43 C 0.9084(7) 0.1320(7) 0.3806(2)
C44 C 0.9096(7) 0.1059(6) 0.2441(2)
C45 C 0.9980(7) 0.2083(6) 0.2245(2)
H34 H 1.04760 0.27030 0.24420
C46 C 0.8466(7) 0.1166(6) 0.4757(2)
N4 N 0.8080(8) 0.1137(6) 0.5265(2)
C47 C 0.8806(7) 0.0838(6) 0.2964(3)
H35 H 0.81310 0.01270 0.30480
C48 C 0.8371(7) 0.0155(6) 0.2138(2)
H36 H 0.77600 -0.05490 0.22590
C49 C 0.8265(7) 0.0234(6) 0.3990(2)
H37 H 0.79340 -0.04460 0.37920
C50 C 0.8546(7) 0.0288(6) 0.1659(2)
H38 H 0.80570 -0.03280 0.14590
C51 C 0.9281(7) 0.2222(6) 0.4580(2)
H39 H 0.96150 0.29030 0.47770
O7 O 0.8618(7) 0.1991(5) 0.55162(17)
C52 C 1.0152(7) 0.2218(6) 0.1771(3)
H40 H 1.07590 0.29220 0.16490
C53 C 0.9606(7) 0.2280(6) 0.4118(3)
H41 H 1.02070 0.29960 0.40020
C54 C 0.9386(8) 0.1521(6) 0.3292(3)
H42 H 1.00750 0.22240 0.32080
C55 C 0.7937(7) 0.0157(6) 0.4469(2)
H43 H 0.73680 -0.05630 0.45930
C56 C 0.9433(8) 0.1318(7) 0.1473(2)
H44 H 0.95460 0.14070 0.11490
O8 O 0.7251(8) 0.0216(6) 0.54092(18)
#END
