
#######################################################################
#
#                 Cambridge Crystallographic Data Centre
#                                CCDC
#
#######################################################################
#
# If this CIF has been generated from an entry in the Cambridge
# Structural Database, then it will include bibliographic, chemical,
# crystal, experimental, refinement or atomic coordinate data resulting
# from the CCDC's data processing and validation procedures.
#
#######################################################################

data_CSD_CIF_ZZZQSC01
_audit_creation_date 2001-12-19
_audit_creation_method CSD-ConQuest-V1
_database_code_CSD ZZZQSC01
_database_code_depnum_ccdc_archive 'CCDC 172202'
_chemical_formula_sum 'C7 H6 N2 O4'
_chemical_formula_moiety
;
C7 H6 N2 O4
;
_journal_coeditor_code "IUCr CV6049"
_journal_coden_Cambridge 1370
_journal_volume 57
_journal_year 2001
_journal_page_first o827
_journal_name_full 'Acta Crystallogr.,Sect.E:Struct.Rep.Online '
loop_
_publ_author_name
"Jing-Jing Nie"
"Duan-Jun Xu"
"Zhen-Yu Li"
"M.Y.Chiang"
_chemical_name_systematic
;
2,6-Dinitrotoluene
;
_cell_volume    781.678
_exptl_crystal_colour 'yellow'
_exptl_crystal_density_diffrn 1.548
_exptl_crystal_description 'prismatic'
_exptl_crystal_preparation 'methanol'
_diffrn_ambient_temperature 293
#These two values have been output from a single CSD field.
_refine_ls_R_factor_gt 0.0461
_refine_ls_wR_factor_gt 0.0461
_symmetry_cell_setting orthorhombic
_symmetry_space_group_name_H-M 'P 21 21 21'
_symmetry_Int_Tables_number 19
loop_
_symmetry_equiv_pos_site_id
_symmetry_equiv_pos_as_xyz
1 x,y,z
2 1/2-x,-y,1/2+z
3 -x,1/2+y,1/2-z
4 1/2+x,1/2-y,-z
_cell_length_a 7.830(2)
_cell_length_b 13.683(3)
_cell_length_c 7.296(2)
_cell_angle_alpha 90
_cell_angle_beta 90
_cell_angle_gamma 90
_cell_formula_units_Z 4
loop_
_atom_type_symbol
_atom_type_radius_bond
C 0.68
H 0.23
N 0.68
O 0.68
loop_
_atom_site_label
_atom_site_type_symbol
_atom_site_fract_x
_atom_site_fract_y
_atom_site_fract_z
O1 O 0.8388(3) 0.23852(14) 0.7794(4)
O2 O 0.6725(4) 0.2359(2) 1.0143(5)
O3 O 0.3958(3) -0.1192(2) 1.0183(4)
O4 O 0.5395(4) -0.2154(2) 0.8452(5)
N1 N 0.7602(3) 0.1962(2) 0.8992(4)
N2 N 0.5215(3) -0.1393(2) 0.9266(4)
C1 C 0.6289(3) 0.0320(2) 0.9135(4)
C2 C 0.7764(3) 0.0884(2) 0.9082(5)
C3 C 0.9412(4) 0.0525(2) 0.9081(5)
H1 H 1.0342(4) 0.0947(2) 0.9025(5)
C4 C 0.9651(4) -0.0477(2) 0.9165(5)
H2 H 1.0748(4) -0.0737(2) 0.9209(5)
C5 C 0.8256(4) -0.1084(2) 0.9182(5)
H3 H 0.8401(4) -0.1759(2) 0.9188(5)
C6 C 0.6635(3) -0.0686(2) 0.9191(4)
C7 C 0.4516(4) 0.0738(2) 0.8999(6)
H4 H 0.3695(4) 0.0218(2) 0.9067(6)
H5 H 0.4392(4) 0.1075(2) 0.7853(6)
H6 H 0.4330(4) 0.1187(2) 0.9990(6)
#END
