
#######################################################################
#
#                 Cambridge Crystallographic Data Centre
#                                CCDC
#
#######################################################################
#
# If this CIF has been generated from an entry in the Cambridge
# Structural Database, then it will include bibliographic, chemical,
# crystal, experimental, refinement or atomic coordinate data resulting
# from the CCDC's data processing and validation procedures.
#
#######################################################################

data_CSD_CIF_ZZZRDI02
_audit_creation_date 2013-04-23
_audit_creation_method CSD-ConQuest-V1
_database_code_CSD ZZZRDI02
_database_code_depnum_ccdc_archive 'CCDC 732147'
_chemical_formula_sum 'C18 H12 N5 O6'
_chemical_formula_moiety
;
C18 H12 N5 O6
;
_journal_coden_Cambridge 624
_journal_volume 207
_journal_year 2010
_journal_page_first 34
_journal_name_full 'J.Magn.Reson. '
loop_
_publ_author_name
"D.Zilic"
"D.Pajic"
"M.Juric"
"K.Molcanov"
"B.Rakvin"
"P.Planinic"
"K.Zadro"
_chemical_name_systematic
;
2,2-Diphenyl-1-picrylhydrazyl radical
;
_cell_volume   3528.866
_exptl_crystal_colour 'black'
_exptl_crystal_density_diffrn 1.484
_exptl_crystal_description 'prism'
_exptl_crystal_preparation 'diethyl ether'
_diffrn_ambient_temperature 293
#These two values have been output from a single CSD field.
_refine_ls_R_factor_gt 0.0674
_refine_ls_wR_factor_gt 0.0674
_symmetry_cell_setting orthorhombic
_symmetry_space_group_name_H-M 'P n 21 a'
_symmetry_Int_Tables_number 33
loop_
_symmetry_equiv_pos_site_id
_symmetry_equiv_pos_as_xyz
1 x,y,z
2 1/2+x,y,1/2-z
3 1/2-x,1/2+y,1/2+z
4 -x,1/2+y,-z
_cell_length_a 16.7608(7)
_cell_length_b 26.8351(9)
_cell_length_c 7.8458(3)
_cell_angle_alpha 90
_cell_angle_beta 90
_cell_angle_gamma 90
_cell_formula_units_Z 8
loop_
_atom_type_symbol
_atom_type_radius_bond
C 0.68
H 0.23
N 0.68
O 0.68
loop_
_atom_site_label
_atom_site_type_symbol
_atom_site_fract_x
_atom_site_fract_y
_atom_site_fract_z
N1 N 0.3553(3) 0.26901(17) 0.1148(7)
C1 C 0.3202(3) 0.2091(2) 0.3158(8)
C2 C 0.4205(4) 0.2917(2) 0.0333(8)
O1 O 0.1745(3) 0.10060(19) 0.7225(8)
C3 C 0.2323(3) 0.1666(2) 0.5838(8)
N2 N 0.3679(3) 0.22354(17) 0.1839(7)
O2 O 0.3849(4) 0.2997(2) 0.4358(8)
N3 N 0.1814(3) 0.14533(19) 0.7171(8)
C4 C 0.3019(3) 0.1574(2) 0.3268(9)
O3 O 0.2728(4) 0.31691(19) 0.5575(8)
C5 C 0.2145(4) 0.2588(2) 0.0524(8)
H1 H 0.22310 0.22520 0.03160
C6 C 0.2614(4) 0.13628(19) 0.4568(9)
H2 H 0.25340 0.10200 0.46040
C7 C 0.2767(4) 0.2896(2) 0.1015(9)
O4 O 0.3107(4) 0.13916(19) 0.0385(8)
N4 N 0.3181(4) 0.28839(19) 0.4835(8)
N5 N 0.3222(3) 0.12426(19) 0.1813(9)
C8 C 0.4973(4) 0.2816(3) 0.0939(9)
H3 H 0.50460 0.26100 0.18790
C9 C 0.2923(3) 0.2370(2) 0.4547(8)
O5 O 0.1472(3) 0.1741(2) 0.8142(7)
C10 C 0.1272(4) 0.3291(3) 0.0683(10)
H4 H 0.07650 0.34270 0.05500
C11 C 0.2468(4) 0.2169(2) 0.5819(8)
H5 H 0.22580 0.23720 0.66680
C12 C 0.1389(4) 0.2795(3) 0.0351(10)
H6 H 0.09630 0.25970 0.00090
C13 C 0.4102(5) 0.3227(3) -0.1071(9)
H7 H 0.35940 0.32970 -0.14830
C14 C 0.5523(5) 0.3329(3) -0.1206(12)
H8 H 0.59670 0.34760 -0.17090
C15 C 0.2643(4) 0.3395(2) 0.1366(9)
H9 H 0.30650 0.35970 0.17040
O6 O 0.3484(5) 0.0840(2) 0.2201(11)
C16 C 0.1883(4) 0.3589(2) 0.1206(10)
H10 H 0.17890 0.39230 0.14540
C17 C 0.5620(4) 0.3024(3) 0.0125(10)
H11 H 0.61320 0.29520 0.05070
C18 C 0.4770(6) 0.3429(3) -0.1842(11)
H12 H 0.47130 0.36330 -0.27930
N6 N 0.4165(3) 0.01846(17) 0.6121(6)
N7 N 0.4045(3) 0.06320(18) 0.6776(8)
N8 N 0.5916(3) 0.1388(2) 1.2181(8)
N9 N 0.4513(4) 0.1621(2) 0.6826(10)
C19 C 0.5409(3) 0.1187(2) 1.0826(8)
O7 O 0.4984(4) -0.03045(19) 1.0568(8)
O8 O 0.4627(4) 0.1478(2) 0.5363(9)
C20 C 0.4524(3) 0.0770(2) 0.8119(8)
O9 O 0.5982(3) 0.18426(19) 1.2252(8)
C21 C 0.4803(4) 0.0487(2) 0.9519(8)
C22 C 0.3494(4) -0.0034(2) 0.5292(8)
C23 C 0.6328(4) 0.0012(3) 0.5378(9)
H13 H 0.67720 0.02000 0.50760
O10 O 0.3877(3) -0.01451(19) 0.9299(7)
C24 C 0.4710(3) 0.12879(19) 0.8238(8)
C25 C 0.5253(4) 0.0679(2) 1.0806(8)
H14 H 0.54530 0.04740 1.16580
C26 C 0.5124(4) 0.1499(2) 0.9576(9)
H15 H 0.52080 0.18410 0.96290
C27 C 0.5588(4) 0.0244(2) 0.5543(8)
H16 H 0.55350 0.05840 0.53600
N10 N 0.4547(4) -0.0025(2) 0.9755(8)
C28 C 0.6409(5) -0.0481(3) 0.5649(10)
H17 H 0.69060 -0.06300 0.55090
C29 C 0.2746(4) 0.0046(2) 0.5962(9)
H18 H 0.26810 0.02310 0.69540
O11 O 0.6258(3) 0.1100(2) 1.3123(7)
C30 C 0.4938(3) -0.0042(2) 0.5984(7)
C31 C 0.5018(4) -0.0547(2) 0.6288(9)
H19 H 0.45770 -0.07370 0.65940
C32 C 0.2090(4) -0.0155(3) 0.5124(11)
H20 H 0.15820 -0.01060 0.55710
C33 C 0.3597(4) -0.0305(3) 0.3805(8)
H21 H 0.41030 -0.03530 0.33510
O12 O 0.4260(4) 0.2033(2) 0.7200(11)
C34 C 0.5760(5) -0.0768(3) 0.6134(11)
H22 H 0.58230 -0.11070 0.63540
C35 C 0.2930(5) -0.0503(3) 0.3006(10)
H23 H 0.29910 -0.06910 0.20190
C36 C 0.2176(4) -0.0422(3) 0.3663(9)
H24 H 0.17300 -0.05500 0.31090
#END
