
#######################################################################
#
#                 Cambridge Crystallographic Data Centre
#                                CCDC
#
#######################################################################
#
# If this CIF has been generated from an entry in the Cambridge
# Structural Database, then it will include bibliographic, chemical,
# crystal, experimental, refinement or atomic coordinate data resulting
# from the CCDC's data processing and validation procedures.
#
#######################################################################

data_CSD_CIF_ZZZVCO04
_audit_creation_date 1998-09-24
_audit_creation_method CSD-ConQuest-V1
_database_code_CSD ZZZVCO04
_database_code_depnum_ccdc_archive 'CCDC 108136'
_database_code_depnum_ccdc_fiz 'CSD 402820'
_chemical_formula_sum 'C6 H7 N1 O1'
_chemical_formula_moiety
;
C6 H7 N1 O1
;
_journal_coden_Cambridge 1267
_journal_volume 213
_journal_year 1998
_journal_page_first 80
_journal_name_full 'Z.Kristallogr.-New Cryst.Struct. '
loop_
_publ_author_name
"E.K.Morris"
"A.Cousson"
"W.Paulus"
_chemical_name_systematic
;
4-Methylpyridine N-oxide
;
_chemical_melting_point 463
_cell_volume   1244.155
_exptl_crystal_colour 'colorless'
_exptl_crystal_density_diffrn 1.165
_exptl_special_details
;
hygroscopic

;
_exptl_crystal_description 'prism'
_diffrn_ambient_temperature ?
_diffrn_special_details
;
The study was carried out at room temperature,in the range 283-303K

;
_refine_special_details
;
The H atoms of the methyl group show symmetry-imposed disorder and were 
refined equally over two positions.
;
#These two values have been output from a single CSD field.
_refine_ls_R_factor_gt 0.0525
_refine_ls_wR_factor_gt 0.0525
_symmetry_cell_setting tetragonal
_symmetry_space_group_name_H-M 'I 41/a m d'
_symmetry_Int_Tables_number 141
loop_
_symmetry_equiv_pos_site_id
_symmetry_equiv_pos_as_xyz
1 x,y,z
2 1/4-y,3/4+x,1/4+z
3 x,-y,-z
4 1/2-x,-y,1/2+z
5 1/4+y,3/4+x,1/4-z
6 1/4+y,1/4-x,3/4+z
7 1/2-x,y,1/2-z
8 1/4-y,1/4-x,3/4-z
9 1/2+x,1/2+y,1/2+z
10 3/4-y,1/4+x,3/4+z
11 1/2+x,1/2-y,1/2-z
12 -x,1/2-y,z
13 3/4+y,1/4+x,3/4-z
14 3/4+y,3/4-x,1/4+z
15 -x,1/2+y,-z
16 3/4-y,3/4-x,1/4-z
17 -x,-y,-z
18 -1/4+y,-3/4-x,-1/4-z
19 -x,y,z
20 -1/2+x,y,-1/2-z
21 -1/4-y,-3/4-x,-1/4+z
22 -1/4-y,-1/4+x,-3/4-z
23 -1/2+x,-y,-1/2+z
24 -1/4+y,-1/4+x,-3/4+z
25 -1/2-x,-1/2-y,-1/2-z
26 -3/4+y,-1/4-x,-3/4-z
27 -1/2-x,-1/2+y,-1/2+z
28 x,-1/2+y,-z
29 -3/4-y,-1/4-x,-3/4+z
30 -3/4-y,-3/4+x,-1/4-z
31 x,-1/2-y,z
32 -3/4+y,-3/4+x,-1/4+z
_cell_length_a 7.963(4)
_cell_length_b 7.963(4)
_cell_length_c 19.621(5)
_cell_angle_alpha 90
_cell_angle_beta 90
_cell_angle_gamma 90
_cell_formula_units_Z 8
loop_
_atom_type_symbol
_atom_type_radius_bond
C 0.68
H 0.23
N 0.68
O 0.68
loop_
_atom_site_label
_atom_site_type_symbol
_atom_site_fract_x
_atom_site_fract_y
_atom_site_fract_z
O1 O 0.00000 0.25000 0.4968(2)
N1 N 0.00000 0.25000 0.5635(3)
C1 C 0.00000 0.1043(8) 0.5979(2)
C2 C 0.00000 0.103(1) 0.6688(2)
C3 C 0.00000 0.25000 0.7052(3)
C4 C 0.00000 0.25000 0.7815(4)
H1 H 0.00000 -0.00550 0.57100
H2 H 0.00000 -0.01720 0.69390
H3 H 0.00000 0.36840 0.80300
H4? H -0.10140 0.18890 0.80300
C2K C 0.00000 0.397(1) 0.6688(2)
C1K C 0.00000 0.3957(8) 0.5979(2)
H1K H 0.00000 0.50550 0.57100
H2K H 0.00000 0.51720 0.69390
H3K H 0.00000 0.13160 0.80300
#END
