
#######################################################################
#
#                 Cambridge Crystallographic Data Centre
#                                CCDC
#
#######################################################################
#
# If this CIF has been generated from an entry in the Cambridge
# Structural Database, then it will include bibliographic, chemical,
# crystal, experimental, refinement or atomic coordinate data resulting
# from the CCDC's data processing and validation procedures.
#
#######################################################################

data_CSD_CIF_ZZZVPO02
_audit_creation_date 2004-02-04
_audit_creation_method CSD-ConQuest-V1
_database_code_CSD ZZZVPO02
_database_code_depnum_ccdc_archive 'CCDC 220120'
_chemical_formula_sum 'C6 H11 N1 O1'
_chemical_formula_moiety
;
C6 H11 N1 O1
;
_journal_coden_Cambridge 1078
_journal_year 2003
_journal_name_full 'CSD Communication(Private Communication) '
loop_
_publ_author_name
"M.M.Olmstead"
"J.J.Sahbari"
_chemical_name_systematic
;
Cyclohexanone oxime
;
_cell_volume   2919.799
_exptl_crystal_colour 'colorless'
_exptl_crystal_density_diffrn 1.158
_exptl_special_details
;
contribution from Department of Chemistry, University of California, Davis, 
CA 95616, USA
;
_exptl_crystal_description 'parallelepiped'
_diffrn_ambient_temperature 130
#These two values have been output from a single CSD field.
_refine_ls_R_factor_gt 0.0649
_refine_ls_wR_factor_gt 0.0649
_symmetry_cell_setting hexagonal
_symmetry_space_group_name_H-M 'P -3'
_symmetry_Int_Tables_number 147
loop_
_symmetry_equiv_pos_site_id
_symmetry_equiv_pos_as_xyz
1 x,y,z
2 -y,x-y,z
3 -x+y,-x,z
4 -x,-y,-z
5 y,-x+y,-z
6 x-y,x,-z
_cell_length_a 20.970(6)
_cell_length_b 20.970(6)
_cell_length_c 7.667(3)
_cell_angle_alpha 90
_cell_angle_beta 90
_cell_angle_gamma 120
_cell_formula_units_Z 18
loop_
_atom_type_symbol
_atom_type_radius_bond
C 0.68
H 0.23
N 0.68
O 0.68
loop_
_atom_site_label
_atom_site_type_symbol
_atom_site_fract_x
_atom_site_fract_y
_atom_site_fract_z
O1 O 0.75313(18) 0.77328(16) 0.3207(5)
H1 H 0.703(3) 0.754(3) 0.280(6)
N1 N 0.7778(2) 0.7247(2) 0.2693(4)
C1 C 0.8486(2) 0.7529(3) 0.2842(7)
C2 C 0.9007(2) 0.8293(2) 0.3396(7)
H2 H 0.91740 0.82890 0.46020
H3 H 0.87530 0.85830 0.33910
C3 C 0.9677(3) 0.8657(3) 0.2179(8)
H4 H 0.95240 0.87470 0.10270
H5 H 1.00490 0.91380 0.26710
C4 C 1.0015(3) 0.8171(3) 0.1958(7)
H6 H 1.04410 0.84130 0.11570
H7 H 1.01960 0.81080 0.31010
C5 C 0.9463(3) 0.7423(3) 0.1238(7)
H8 H 0.96990 0.71170 0.11230
H9 H 0.93030 0.74820 0.00640
C6 C 0.8796(3) 0.7039(3) 0.2437(6)
H10 H 0.84120 0.65840 0.18680
H11 H 0.89410 0.68980 0.35360
O2 O 0.69190(16) 0.57900(16) 0.1720(5)
H12 H 0.722(3) 0.629(3) 0.192(7)
N2 N 0.6167(2) 0.5545(2) 0.2053(5)
C7 C 0.5756(2) 0.4849(2) 0.1978(6)
C8 C 0.6007(2) 0.4306(2) 0.1618(8)
H13 H 0.65490 0.45550 0.17260
H14 H 0.58740 0.41220 0.04080
C9 C 0.5658(3) 0.3659(3) 0.2877(8)
H15 H 0.58670 0.38290 0.40550
H16 H 0.57800 0.32810 0.25030
C10 C 0.4824(3) 0.3313(3) 0.2965(8)
H17 H 0.46050 0.31070 0.18120
H18 H 0.46200 0.29070 0.38260
C11 C 0.4632(3) 0.3895(3) 0.3496(7)
H19 H 0.40900 0.36710 0.35390
H20 H 0.48270 0.40770 0.46800
C12 C 0.4947(3) 0.4539(3) 0.2232(7)
H21 H 0.46940 0.43730 0.10940
H22 H 0.48570 0.49280 0.26860
O3 O 0.55304(16) 0.64191(16) 0.1943(6)
H23 H 0.574(3) 0.614(3) 0.203(6)
N3 N 0.6061(2) 0.7160(2) 0.2330(5)
C13 C 0.5802(2) 0.7589(3) 0.2200(6)
C14 C 0.5026(2) 0.7384(2) 0.1736(7)
H24 H 0.47080 0.68420 0.17910
H25 H 0.50140 0.75420 0.05260
C15 C 0.4726(3) 0.7742(3) 0.2972(7)
H26 H 0.42450 0.76530 0.25310
H27 H 0.46440 0.75090 0.41350
C16 C 0.5246(3) 0.8570(2) 0.3158(7)
H28 H 0.52930 0.88140 0.20220
H29 H 0.50420 0.87740 0.40130
C17 C 0.5999(3) 0.8720(3) 0.3765(7)
H30 H 0.63340 0.92580 0.38630
H31 H 0.59530 0.85020 0.49360
C18 C 0.6331(3) 0.8402(3) 0.2519(6)
H32 H 0.64470 0.86710 0.13970
H33 H 0.67960 0.84670 0.30150
#END
