
#######################################################################
#
#                 Cambridge Crystallographic Data Centre
#                                CCDC
#
#######################################################################
#
# If this CIF has been generated from an entry in the Cambridge
# Structural Database, then it will include bibliographic, chemical,
# crystal, experimental, refinement or atomic coordinate data resulting
# from the CCDC's data processing and validation procedures.
#
#######################################################################

data_CSD_CIF_ZZZVPO03
_audit_creation_date 2004-04-06
_audit_creation_method CSD-ConQuest-V1
_database_code_CSD ZZZVPO03
_database_code_depnum_ccdc_archive 'CCDC 233132'
_chemical_formula_sum 'C6 H11 N1 O1'
_chemical_formula_moiety
;
C6 H11 N1 O1
;
_journal_coeditor_code "IUCr FG1726"
_journal_coden_Cambridge 591
_journal_volume 60
_journal_year 2004
_journal_page_first o127
_journal_name_full 'Acta Crystallogr.,Sect.C:Cryst.Struct.Commun. '
loop_
_publ_author_name
"M.Lutz"
"A.L.Spek"
"R.Dabirian"
"C.A.van Walree"
"L.W.Jenneskens"
_chemical_name_systematic
;
(E)-Cyclohexanone oxime
;
_cell_volume   2914.498
_exptl_crystal_colour 'colorless'
_exptl_crystal_density_diffrn 1.16
_exptl_crystal_description 'block'
_exptl_crystal_preparation 'sublimation'
_diffrn_ambient_temperature 110
_diffrn_special_details
;
The structure is twinned by merohedry in this trigonal centrosymmetric space 
group with a twofold rotation about (001) as twin law
;
#These two values have been output from a single CSD field.
_refine_ls_R_factor_gt 0.0366
_refine_ls_wR_factor_gt 0.0366
_symmetry_cell_setting hexagonal
_symmetry_space_group_name_H-M 'P -3'
_symmetry_Int_Tables_number 147
loop_
_symmetry_equiv_pos_site_id
_symmetry_equiv_pos_as_xyz
1 x,y,z
2 -y,x-y,z
3 -x+y,-x,z
4 -x,-y,-z
5 y,-x+y,-z
6 x-y,x,-z
_cell_length_a 20.9830(2)
_cell_length_b 20.9830(2)
_cell_length_c 7.6436(1)
_cell_angle_alpha 90
_cell_angle_beta 90
_cell_angle_gamma 120
_cell_formula_units_Z 18
loop_
_atom_type_symbol
_atom_type_radius_bond
C 0.68
H 0.23
N 0.68
O 0.68
loop_
_atom_site_label
_atom_site_type_symbol
_atom_site_fract_x
_atom_site_fract_y
_atom_site_fract_z
O1 O 0.42111(6) 0.30796(5) 0.32865(17)
H1 H 0.374(1) 0.2822(9) 0.301(2)
N1 N 0.44499(7) 0.38259(6) 0.29412(17)
C1 C 0.51481(8) 0.42427(8) 0.3023(2)
C2 C 0.54563(9) 0.50533(9) 0.2764(2)
H2 H 0.56250 0.53080 0.39040
H3 H 0.50650 0.51420 0.23160
C3 C 0.60999(9) 0.53707(9) 0.1478(2)
H4 H 0.59170 0.51740 0.02930
H5 H 0.63250 0.59130 0.14340
C4 C 0.66772(8) 0.51762(8) 0.2017(3)
H6 H 0.68810 0.53960 0.31740
H7 H 0.70850 0.53820 0.11580
C5 C 0.63418(8) 0.43431(9) 0.2112(3)
H8 H 0.67230 0.42260 0.24920
H9 H 0.61710 0.41300 0.09330
C6 C 0.56924(8) 0.39951(8) 0.3390(2)
H10 H 0.54440 0.34530 0.32940
H11 H 0.58780 0.41330 0.46020
O2 O 0.35781(5) 0.44679(6) 0.30685(18)
H12 H 0.3826(9) 0.4217(9) 0.300(2)
N2 N 0.28399(7) 0.39422(7) 0.26890(16)
C7 C 0.24009(8) 0.41950(8) 0.2810(2)
C8 C 0.15991(9) 0.36711(9) 0.2485(2)
H13 H 0.13280 0.35550 0.36080
H14 H 0.15370 0.32070 0.19930
C9 C 0.12766(9) 0.39996(9) 0.1217(2)
H15 H 0.14940 0.40460 0.00420
H16 H 0.07380 0.36660 0.11220
C10 C 0.14305(8) 0.47525(9) 0.1837(2)
H17 H 0.11900 0.47040 0.29830
H18 H 0.12230 0.49570 0.09900
C11 C 0.22588(9) 0.52747(9) 0.2012(2)
H19 H 0.23490 0.57570 0.24470
H20 H 0.24920 0.53520 0.08460
C12 C 0.26107(8) 0.49708(8) 0.3265(2)
H21 H 0.31530 0.52850 0.32150
H22 H 0.24510 0.49860 0.44760
O3 O 0.22667(5) 0.24701(6) 0.17879(16)
H23 H 0.2471(10) 0.2946(11) 0.206(3)
N3 N 0.27547(7) 0.22240(7) 0.22969(16)
C13 C 0.24738(8) 0.15236(8) 0.2150(2)
C14 C 0.29633(9) 0.12129(9) 0.2559(2)
H24 H 0.34170 0.15950 0.31360
H25 H 0.31080 0.10720 0.14550
C15 C 0.25808(9) 0.05384(8) 0.3754(2)
H26 H 0.28920 0.03080 0.38630
H27 H 0.25200 0.06950 0.49350
C16 C 0.18307(8) -0.00229(8) 0.3034(2)
H28 H 0.18930 -0.02070 0.18910
H29 H 0.15900 -0.04460 0.38460
C17 C 0.13473(9) 0.03211(8) 0.2807(2)
H30 H 0.12580 0.04740 0.39650
H31 H 0.08660 -0.00500 0.23200
C18 C 0.17028(8) 0.09912(8) 0.1589(2)
H32 H 0.17080 0.08260 0.03780
H33 H 0.14070 0.12400 0.15990
#END
