
#######################################################################
#
#                 Cambridge Crystallographic Data Centre
#                                CCDC
#
#######################################################################
#
# If this CIF has been generated from an entry in the Cambridge
# Structural Database, then it will include bibliographic, chemical,
# crystal, experimental, refinement or atomic coordinate data resulting
# from the CCDC's data processing and validation procedures.
#
#######################################################################

data_CSD_CIF_ZZZVPO05
_audit_creation_date 2016-05-18
_audit_creation_method CSD-ConQuest-V1
_database_code_CSD ZZZVPO05
_database_code_depnum_ccdc_archive 'CCDC 1476131'
_chemical_formula_sum 'C6 H11 N1 O1'
_chemical_formula_moiety
;
C6 H11 N1 O1
;
_journal_coden_Cambridge 1078
_journal_year 2016
_journal_name_full 'CSD Communication(Private Communication) '
loop_
_publ_author_name
"M.E.Light"
"J.Paterson"
"R.Raja"
_chemical_name_systematic
;
N-hydroxycyclohexanimine
;
_chemical_name_common
;
Cyclohexanone oxime
;
_cell_volume   2915.846
_exptl_crystal_colour 'colorless'
_exptl_crystal_density_diffrn 1.16
_diffrn_ambient_temperature 120
#These two values have been output from a single CSD field.
_refine_ls_R_factor_gt 0.0559
_refine_ls_wR_factor_gt 0.0559
_symmetry_cell_setting hexagonal
_symmetry_space_group_name_H-M 'P -3'
_symmetry_Int_Tables_number 147
loop_
_symmetry_equiv_pos_site_id
_symmetry_equiv_pos_as_xyz
1 x,y,z
2 -y,x-y,z
3 -x+y,-x,z
4 -x,-y,-z
5 y,-x+y,-z
6 x-y,x,-z
_cell_length_a 20.9651(4)
_cell_length_b 20.9651(4)
_cell_length_c 7.6602(2)
_cell_angle_alpha 90
_cell_angle_beta 90
_cell_angle_gamma 120
_cell_formula_units_Z 18
loop_
_atom_type_symbol
_atom_type_radius_bond
C 0.68
H 0.23
N 0.68
O 0.68
loop_
_atom_site_label
_atom_site_type_symbol
_atom_site_fract_x
_atom_site_fract_y
_atom_site_fract_z
O1 O 0.69206(12) 0.11312(13) 0.8294(4)
H1 H 0.71730 0.09270 0.81260
N1 N 0.61682(16) 0.06220(15) 0.7942(4)
C1 C 0.57568(19) 0.09058(19) 0.8024(5)
C2 C 0.60017(19) 0.16937(18) 0.8402(6)
H2 H 0.65450 0.19890 0.83210
H3 H 0.58580 0.17370 0.96080
C3 C 0.5661(2) 0.2000(2) 0.7123(6)
H4 H 0.57840 0.25000 0.74980
H5 H 0.58740 0.20390 0.59480
C4 C 0.4829(2) 0.1512(2) 0.7028(6)
H6 H 0.46270 0.17170 0.61680
H7 H 0.46100 0.15000 0.81810
C5 C 0.4626(2) 0.0733(2) 0.6494(6)
H8 H 0.48180 0.07430 0.53070
H9 H 0.40840 0.04190 0.64610
C6 C 0.4945(2) 0.0407(2) 0.7768(6)
H10 H 0.46910 0.03210 0.89070
H11 H 0.48530 -0.00750 0.73190
O2 O 0.24688(13) 0.02028(12) 0.3221(4)
H12 H 0.29240 0.04600 0.30490
N2 N 0.22215(17) -0.05364(16) 0.2695(3)
C7 C 0.15225(19) -0.09517(18) 0.2839(5)
C8 C 0.09935(18) -0.07138(19) 0.3413(5)
H13 H 0.12430 -0.01690 0.34100
H14 H 0.08310 -0.08860 0.46210
C9 C 0.0324(2) -0.1023(2) 0.2211(5)
H15 H -0.00450 -0.09100 0.27060
H16 H 0.04760 -0.07810 0.10570
C10 C -0.0026(2) -0.1848(2) 0.1979(6)
H17 H -0.04500 -0.20260 0.11720
H18 H -0.02100 -0.20960 0.31180
C11 C 0.05318(19) -0.2041(2) 0.1248(5)
H19 H 0.02980 -0.25830 0.11350
H20 H 0.06870 -0.18230 0.00700
C12 C 0.1205(2) -0.1757(2) 0.2420(5)
H21 H 0.10660 -0.20440 0.35190
H22 H 0.15840 -0.18300 0.18320
O3 O 0.44705(13) 0.08916(13) 0.1949(4)
H23 H 0.42850 0.04350 0.20880
N3 N 0.39388(17) 0.10966(16) 0.2334(4)
C13 C 0.41936(19) 0.17934(19) 0.2220(5)
C14 C 0.49690(18) 0.23557(18) 0.1744(5)
H24 H 0.49810 0.25250 0.05330
H25 H 0.52830 0.21270 0.17970
C15 C 0.5276(2) 0.3017(2) 0.2982(6)
H26 H 0.53590 0.28650 0.41450
H27 H 0.57570 0.34080 0.25350
C16 C 0.4762(2) 0.33213(18) 0.3167(5)
H28 H 0.47140 0.35170 0.20280
H29 H 0.49690 0.37320 0.40170
C17 C 0.4004(2) 0.2726(2) 0.3785(5)
H30 H 0.40470 0.25540 0.49590
H31 H 0.36740 0.29350 0.38750
C18 C 0.3673(2) 0.2079(2) 0.2534(5)
H32 H 0.32070 0.16800 0.30250
H33 H 0.35600 0.22340 0.14100
#END
