
#######################################################################
#
#                 Cambridge Crystallographic Data Centre
#                                CCDC
#
#######################################################################
#
# If this CIF has been generated from an entry in the Cambridge
# Structural Database, then it will include bibliographic, chemical,
# crystal, experimental, refinement or atomic coordinate data resulting
# from the CCDC's data processing and validation procedures.
#
#######################################################################

data_CSD_CIF_ZZZVPO04
_audit_creation_date 2004-04-06
_audit_creation_method CSD-ConQuest-V1
_database_code_CSD ZZZVPO04
_database_code_depnum_ccdc_archive 'CCDC 233133'
_chemical_formula_sum 'C6 H11 N1 O1'
_chemical_formula_moiety
;
C6 H11 N1 O1
;
_journal_coeditor_code "IUCr FG1726"
_journal_coden_Cambridge 591
_journal_volume 60
_journal_year 2004
_journal_page_first o127
_journal_name_full 'Acta Crystallogr.,Sect.C:Cryst.Struct.Commun. '
loop_
_publ_author_name
"M.Lutz"
"A.L.Spek"
"R.Dabirian"
"C.A.van Walree"
"L.W.Jenneskens"
_chemical_name_systematic
;
(E)-Cyclohexanone oxime
;
_cell_volume   2905.881
_exptl_crystal_colour 'colorless'
_exptl_crystal_density_diffrn 1.164
_exptl_crystal_description 'prismatic'
_diffrn_ambient_temperature 100
_diffrn_special_details
;
Authors report a twin fraction of 0.4515(13)

;
#These two values have been output from a single CSD field.
_refine_ls_R_factor_gt 0.0344
_refine_ls_wR_factor_gt 0.0344
loop_
_citation_database_id_CSD
_citation_special_details
ZZZVPO01 "is reinterpreted by this entry"
_symmetry_cell_setting hexagonal
_symmetry_space_group_name_H-M 'P -3'
_symmetry_Int_Tables_number 147
loop_
_symmetry_equiv_pos_site_id
_symmetry_equiv_pos_as_xyz
1 x,y,z
2 -y,x-y,z
3 -x+y,-x,z
4 -x,-y,-z
5 y,-x+y,-z
6 x-y,x,-z
_cell_length_a 20.9830(3)
_cell_length_b 20.9830(3)
_cell_length_c 7.6210(1)
_cell_angle_alpha 90
_cell_angle_beta 90
_cell_angle_gamma 120
_cell_formula_units_Z 18
loop_
_atom_type_symbol
_atom_type_radius_bond
C 0.68
H 0.23
N 0.68
O 0.68
loop_
_atom_site_label
_atom_site_type_symbol
_atom_site_fract_x
_atom_site_fract_y
_atom_site_fract_z
O1 O 0.42123(5) 0.30790(5) 0.32861(15)
H1 H 0.3741(9) 0.2849(8) 0.301(2)
N1 N 0.44501(6) 0.38244(6) 0.29422(15)
C1 C 0.51476(7) 0.42410(7) 0.30212(19)
C2 C 0.54540(8) 0.50536(8) 0.2769(2)
H2 H 0.56240 0.53070 0.39130
H3 H 0.50610 0.51420 0.23280
C3 C 0.60955(8) 0.53728(7) 0.1473(2)
H4 H 0.59110 0.51760 0.02850
H5 H 0.63190 0.59150 0.14280
C4 C 0.66767(7) 0.51800(7) 0.2008(2)
H6 H 0.68820 0.53990 0.31680
H7 H 0.70840 0.53870 0.11440
C5 C 0.63413(7) 0.43452(8) 0.2101(2)
H8 H 0.67230 0.42290 0.24780
H9 H 0.61710 0.41320 0.09180
C6 C 0.56940(7) 0.39948(7) 0.3381(2)
H10 H 0.54470 0.34520 0.32790
H11 H 0.58800 0.41310 0.45970
O2 O 0.35776(5) 0.44676(5) 0.30737(16)
H12 H 0.3812(8) 0.4217(8) 0.300(2)
N2 N 0.28403(6) 0.39404(6) 0.26958(15)
C7 C 0.24011(7) 0.41939(7) 0.28169(18)
C8 C 0.15988(7) 0.36676(8) 0.24959(19)
H13 H 0.13290 0.35520 0.36230
H14 H 0.15370 0.32030 0.20060
C9 C 0.12751(7) 0.39949(8) 0.1219(2)
H15 H 0.14930 0.40410 0.00410
H16 H 0.07370 0.36600 0.11220
C10 C 0.14283(7) 0.47494(8) 0.1842(2)
H17 H 0.12200 0.49530 0.09940
H18 H 0.11880 0.47000 0.29920
C11 C 0.22545(8) 0.52705(7) 0.2013(2)
H19 H 0.23450 0.57540 0.24440
H20 H 0.24860 0.53460 0.08430
C12 C 0.26095(7) 0.49701(7) 0.32742(19)
H21 H 0.31510 0.52860 0.32230
H22 H 0.24500 0.49850 0.44890
O3 O 0.22680(5) 0.24709(5) 0.17853(14)
H23 H 0.2505(10) 0.2949(11) 0.212(3)
N3 N 0.27532(6) 0.22223(6) 0.22954(14)
C13 C 0.24738(7) 0.15244(7) 0.21487(18)
C14 C 0.29640(8) 0.12131(8) 0.25545(18)
H24 H 0.34190 0.15960 0.31280
H25 H 0.31060 0.10710 0.14460
C15 C 0.25834(8) 0.05403(7) 0.3758(2)
H26 H 0.28950 0.03110 0.38710
H27 H 0.25220 0.06970 0.49410
C16 C 0.18337(7) -0.00219(7) 0.3031(2)
H28 H 0.18970 -0.02040 0.18830
H29 H 0.15930 -0.04460 0.38420
C17 C 0.13473(8) 0.03197(7) 0.2808(2)
H30 H 0.12580 0.04710 0.39700
H31 H 0.08660 -0.00520 0.23170
C18 C 0.17028(7) 0.09904(7) 0.15881(19)
H32 H 0.17080 0.08260 0.03730
H33 H 0.14060 0.12380 0.15980
#END
