
#######################################################################
#
#                 Cambridge Crystallographic Data Centre
#                                CCDC
#
#######################################################################
#
# If this CIF has been generated from an entry in the Cambridge
# Structural Database, then it will include bibliographic, chemical,
# crystal, experimental, refinement or atomic coordinate data resulting
# from the CCDC's data processing and validation procedures.
#
#######################################################################

data_CSD_CIF_ZZZVCO06
_audit_creation_date 2017-08-22
_audit_creation_method CSD-ConQuest-V1
_database_code_CSD ZZZVCO06
_database_code_depnum_ccdc_archive 'CCDC 1557847'
_chemical_formula_sum 'C6 H7 N1 O1'
_chemical_formula_moiety
;
C6 H7 N1 O1
;
_journal_coden_Cambridge 1350
_journal_volume 19
_journal_year 2017
_journal_page_first 4960
_journal_name_full 'CrystEngComm '
loop_
_publ_author_name
"F.Topic"
"R.Puttreddy"
"J.Mikko Rautiainen"
"H.M.Tuononen"
"K.Rissanen"
_chemical_name_systematic
;
4-methylpyridine N-oxide
;
_cell_volume   1228.685
_exptl_crystal_colour 'colorless'
_exptl_crystal_density_diffrn 1.18
_exptl_crystal_description 'plate'
_diffrn_ambient_temperature 170
_refine_special_details
;
H4A,H4B disordered over four configurations with occupancies 0.25,0.5.

;
#These two values have been output from a single CSD field.
_refine_ls_R_factor_gt 0.0571
_refine_ls_wR_factor_gt 0.0571
_symmetry_cell_setting tetragonal
_symmetry_space_group_name_H-M 'I 41/a m d'
_symmetry_Int_Tables_number 141
loop_
_symmetry_equiv_pos_site_id
_symmetry_equiv_pos_as_xyz
1 x,y,z
2 1/2-x,-y,1/2+z
3 1/4-y,3/4+x,1/4+z
4 1/4+y,1/4-x,3/4+z
5 1/2-x,y,1/2-z
6 x,-y,-z
7 1/4+y,3/4+x,1/4-z
8 1/4-y,1/4-x,3/4-z
9 1/2+x,1/2+y,1/2+z
10 -x,1/2-y,z
11 3/4-y,1/4+x,3/4+z
12 3/4+y,3/4-x,1/4+z
13 -x,1/2+y,-z
14 1/2+x,1/2-y,1/2-z
15 3/4+y,1/4+x,3/4-z
16 3/4-y,3/4-x,1/4-z
17 -x,-y,-z
18 -1/2+x,y,-1/2-z
19 -1/4+y,-3/4-x,-1/4-z
20 -1/4-y,-1/4+x,-3/4-z
21 -1/2+x,-y,-1/2+z
22 -x,y,z
23 -1/4-y,-3/4-x,-1/4+z
24 -1/4+y,-1/4+x,-3/4+z
25 -1/2-x,-1/2-y,-1/2-z
26 x,-1/2+y,-z
27 -3/4+y,-1/4-x,-3/4-z
28 -3/4-y,-3/4+x,-1/4-z
29 x,-1/2-y,z
30 -1/2-x,-1/2+y,-1/2+z
31 -3/4-y,-1/4-x,-3/4+z
32 -3/4+y,-3/4+x,-1/4+z
_cell_length_a 7.920(3)
_cell_length_b 7.920(3)
_cell_length_c 19.588(4)
_cell_angle_alpha 90
_cell_angle_beta 90
_cell_angle_gamma 90
_cell_formula_units_Z 8
loop_
_atom_type_symbol
_atom_type_radius_bond
C 0.68
H 0.23
N 0.68
O 0.68
loop_
_atom_site_label
_atom_site_type_symbol
_atom_site_fract_x
_atom_site_fract_y
_atom_site_fract_z
O1 O 0.50000 0.75000 0.75409(14)
N1 N 0.50000 0.75000 0.68659(17)
C1 C 0.3532(5) 0.75000 0.65235(16)
H1 H 0.24950 0.75000 0.67670
C2 C 0.3521(6) 0.75000 0.58178(15)
H2 H 0.24720 0.75000 0.55830
C3 C 0.50000 0.75000 0.5449(2)
C4 C 0.50000 0.75000 0.4677(2)
H3 H 0.38710 0.74880 0.45050
H4 H 0.55400 0.85100 0.45270
C1I C 0.6468(5) 0.75000 0.65235(16)
H1I H 0.75050 0.75000 0.67670
C2I C 0.6479(6) 0.75000 0.58178(15)
H2I H 0.75280 0.75000 0.55830
#END
