
#######################################################################
#
#                 Cambridge Crystallographic Data Centre
#                                CCDC
#
#######################################################################
#
# If this CIF has been generated from an entry in the Cambridge
# Structural Database, then it will include bibliographic, chemical,
# crystal, experimental, refinement or atomic coordinate data resulting
# from the CCDC's data processing and validation procedures.
#
#######################################################################

data_CSD_CIF_ABATOO
_audit_creation_date 2011-11-29
_audit_creation_method CSD-ConQuest-V1
_database_code_CSD ABATOO
_database_code_depnum_ccdc_archive 'CCDC 850895'
_chemical_formula_sum 'C11 H15 N1 O2'
_chemical_formula_moiety
;
C11 H15 N1 O2
;
_journal_coden_Cambridge 9
_journal_volume 50
_journal_year 2011
_journal_page_first 4515
_journal_name_full 'Inorg.Chem. '
loop_
_publ_author_name
"R.S.Forgan"
"B.D.Roach"
"P.A.Wood"
"F.J.White"
"J.Campbell"
"D.K.Henderson"
"E.Kamenetzky"
"F.E.McAllister"
"S.Parsons"
"E.Pidcock"
"P.Richardson"
"R.M.Swart"
"P.A.Tasker"
_chemical_name_systematic
;
4-t-Butyl-2-((hydroxyimino)methyl)phenol
;
_cell_volume   1066.639
_exptl_crystal_colour 'colorless'
_exptl_crystal_density_diffrn 1.203
_exptl_crystal_description 'block'
_exptl_crystal_preparation 'hexane/chloroform'
_diffrn_ambient_temperature 150
#These two values have been output from a single CSD field.
_refine_ls_R_factor_gt 0.0405
_refine_ls_wR_factor_gt 0.0405
_symmetry_cell_setting orthorhombic
_symmetry_space_group_name_H-M 'P 21 21 21'
_symmetry_Int_Tables_number 19
loop_
_symmetry_equiv_pos_site_id
_symmetry_equiv_pos_as_xyz
1 x,y,z
2 1/2-x,-y,1/2+z
3 -x,1/2+y,1/2-z
4 1/2+x,1/2-y,-z
_cell_length_a 8.5221(4)
_cell_length_b 10.7421(5)
_cell_length_c 11.6515(6)
_cell_angle_alpha 90
_cell_angle_beta 90
_cell_angle_gamma 90
_cell_formula_units_Z 4
loop_
_atom_type_symbol
_atom_type_radius_bond
C 0.68
H 0.23
N 0.68
O 0.68
loop_
_atom_site_label
_atom_site_type_symbol
_atom_site_fract_x
_atom_site_fract_y
_atom_site_fract_z
O1 O 0.22487(12) 0.32444(9) -0.05364(8)
H1 H 0.13910 0.32550 -0.01810
C1 C 0.31540(15) 0.41442(12) -0.00191(11)
C2 C 0.25931(16) 0.48363(12) 0.09182(11)
O2 O -0.12813(13) 0.37274(10) 0.16121(10)
H2 H -0.18510 0.31860 0.13010
C3 C 0.35901(16) 0.57206(12) 0.14111(11)
H3 H 0.32170 0.61910 0.20460
C4 C 0.51005(15) 0.59428(12) 0.10150(11)
C5 C 0.56061(17) 0.52400(13) 0.00813(12)
H4 H 0.66320 0.53710 -0.02140
C6 C 0.46484(17) 0.43536(13) -0.04284(12)
H5 H 0.50250 0.38880 -0.10640
N1 N 0.01261(13) 0.38093(11) 0.1002(1)
C7 C 0.10530(17) 0.46236(13) 0.14159(12)
H6 H 0.07320 0.51000 0.20610
C8 C 0.61365(17) 0.69074(13) 0.16231(11)
C9 C 0.5279(2) 0.81637(15) 0.16754(16)
H7 H 0.59340 0.87710 0.20810
H8 H 0.42830 0.80620 0.20840
H9 H 0.50740 0.84600 0.08940
C10 C 0.64831(18) 0.64395(15) 0.28468(13)
H10 H 0.70390 0.56420 0.28060
H11 H 0.54940 0.63290 0.32640
H12 H 0.71370 0.70500 0.32490
C11 C 0.7701(2) 0.70928(16) 0.10111(14)
H13 H 0.82680 0.63000 0.09830
H14 H 0.83290 0.77080 0.14290
H15 H 0.75110 0.73900 0.02280
#END
