
#######################################################################
#
#                 Cambridge Crystallographic Data Centre
#                                CCDC
#
#######################################################################
#
# If this CIF has been generated from an entry in the Cambridge
# Structural Database, then it will include bibliographic, chemical,
# crystal, experimental, refinement or atomic coordinate data resulting
# from the CCDC's data processing and validation procedures.
#
#######################################################################

data_CSD_CIF_ABORIS
_audit_creation_date 2001-10-17
_audit_creation_method CSD-ConQuest-V1
_database_code_CSD ABORIS
_database_code_depnum_ccdc_archive 'CCDC 168704'
_chemical_formula_sum 'C20 H26 N4 O5'
_chemical_formula_moiety
;
C20 H26 N4 O5
;
_journal_coden_Cambridge 24
_journal_volume 42
_journal_year 2001
_journal_page_first 4947
_journal_name_full 'Tetrahedron Lett. '
loop_
_publ_author_name
"P.Magnus"
"M.J.Waring"
"C.Ollivier"
"V.Lynch"
_chemical_name_systematic
;
4-Isopropyl-5-methyl-11-oxatricyclo(5.3.1.0^1,5^)undecan-10-one 
2,4-dinitrophenylhydrazone
;
_cell_volume   1017.746
_exptl_crystal_colour 'yellow'
_exptl_crystal_density_diffrn 1.313
_exptl_crystal_description 'laths'
_diffrn_ambient_temperature ?
_diffrn_special_details
;
The study was carried out at room temperature,in the range 283-303K

;
#These two values have been output from a single CSD field.
_refine_ls_R_factor_gt 0.0972
_refine_ls_wR_factor_gt 0.0972
_symmetry_cell_setting triclinic
_symmetry_space_group_name_H-M 'P -1'
_symmetry_Int_Tables_number 2
loop_
_symmetry_equiv_pos_site_id
_symmetry_equiv_pos_as_xyz
1 x,y,z
2 -x,-y,-z
_cell_length_a 6.0640(6)
_cell_length_b 11.5540(18)
_cell_length_c 15.810(2)
_cell_angle_alpha 72.528(5)
_cell_angle_beta 84.577(9)
_cell_angle_gamma 74.438(9)
_cell_formula_units_Z 2
loop_
_atom_type_symbol
_atom_type_radius_bond
C 0.68
H 0.23
N 0.68
O 0.68
loop_
_atom_site_label
_atom_site_type_symbol
_atom_site_fract_x
_atom_site_fract_y
_atom_site_fract_z
C1 C 0.4591(6) 0.1933(3) 0.2974(2)
C2 C 0.4654(6) 0.0612(3) 0.3526(2)
H1 H 0.35550 0.03240 0.32980
H2 H 0.42030 0.06160 0.41240
C3 C 0.7005(6) -0.0319(3) 0.3518(3)
H3 H 0.68200 -0.11430 0.35900
H4 H 0.78640 -0.03570 0.40100
C4 C 0.8318(7) 0.0086(4) 0.2672(3)
H5 H 0.98110 -0.04770 0.26900
C5 C 0.7111(7) 0.0221(3) 0.1826(3)
H6 H 0.81650 -0.00730 0.13980
H7 H 0.59620 -0.02420 0.19690
C6 C 0.5983(5) 0.1624(3) 0.1467(2)
C7 C 0.7333(6) 0.2328(3) 0.0694(2)
H8 H 0.89250 0.19050 0.07840
C8 C 0.7002(8) 0.3605(4) 0.0848(3)
H9 H 0.56670 0.41770 0.05420
H10 H 0.83020 0.39380 0.06270
C9 C 0.6670(7) 0.3439(3) 0.1829(2)
H11 H 0.79890 0.35340 0.20670
H12 H 0.53440 0.40420 0.19530
C10 C 0.6376(5) 0.2127(3) 0.2241(2)
O1 O 0.8548(4) 0.1321(2) 0.25840(16)
N1 N 0.3025(5) 0.2916(3) 0.30159(17)
N2 N 0.1250(5) 0.2732(3) 0.36202(19)
H13 H 0.097(7) 0.203(4) 0.394(3)
C11 C -0.0555(6) 0.3721(3) 0.3608(2)
C12 C -0.2635(6) 0.3617(3) 0.4080(2)
C13 C -0.4496(6) 0.4643(3) 0.4005(2)
H14 H -0.58890 0.45520 0.43300
C14 C -0.4317(6) 0.5790(3) 0.3470(2)
C15 C -0.2298(7) 0.5949(3) 0.3017(2)
H15 H -0.21710 0.67680 0.26700
C16 C -0.0459(6) 0.4938(3) 0.3084(2)
H16 H 0.09220 0.50390 0.27530
N3 N -0.2956(6) 0.2423(3) 0.46472(18)
O2 O -0.1350(5) 0.1475(3) 0.47342(18)
O3 O -0.4806(5) 0.2399(3) 0.50209(18)
N4 N -0.6309(6) 0.6867(3) 0.3369(2)
O4 O -0.6137(5) 0.7871(3) 0.2849(2)
O5 O -0.8042(5) 0.6720(3) 0.3809(2)
C17 C 0.3469(6) 0.1921(5) 0.1253(3)
H17 H 0.33060 0.15930 0.07790
H18 H 0.26430 0.15540 0.17680
H19 H 0.28670 0.28150 0.10760
C18 C 0.6858(8) 0.2411(5) -0.0259(3)
H20 H 0.53220 0.29160 -0.03850
C19 C 0.8407(10) 0.3089(6) -0.0924(3)
H21 H 0.80560 0.31580 -0.15200
H22 H 0.82440 0.39100 -0.08640
H23 H 0.99530 0.26000 -0.07950
C20 C 0.7003(11) 0.1198(6) -0.0430(3)
H24 H 0.66320 0.13300 -0.10350
H25 H 0.85430 0.06920 -0.03180
H26 H 0.59660 0.07790 -0.00400
#END
