
#######################################################################
#
#                 Cambridge Crystallographic Data Centre
#                                CCDC
#
#######################################################################
#
# If this CIF has been generated from an entry in the Cambridge
# Structural Database, then it will include bibliographic, chemical,
# crystal, experimental, refinement or atomic coordinate data resulting
# from the CCDC's data processing and validation procedures.
#
#######################################################################

data_CSD_CIF_ABULIT07
_audit_creation_date 2008-05-14
_audit_creation_method CSD-ConQuest-V1
_database_code_CSD ABULIT07
_database_code_depnum_ccdc_archive 'CCDC 657083'
_chemical_formula_sum 'C8 H9 N1 O3'
_chemical_formula_moiety
;
C8 H9 N1 O3
;
_journal_coden_Cambridge 1350
_journal_volume 10
_journal_year 2008
_journal_page_first 239
_journal_name_full 'CrystEngComm '
loop_
_publ_author_name
"P.A.Wood"
"R.S.Forgan"
"A.R.Lennie"
"S.Parsons"
"E.Pidcock"
"P.A.Tasker"
"J.E.Warren"
_chemical_name_systematic
;
3-Methoxysalicylaldoxime
;
_chemical_name_common
;
2-hydroxy-3-methoxybenzaldehyde oxime; O-vanillin oxime
;
_cell_volume   1233.701
_exptl_crystal_colour 'yellow'
_exptl_crystal_density_diffrn 1.8
_exptl_crystal_description 'block'
_exptl_crystal_preparation 'chloroform'
_diffrn_ambient_temperature 298
_diffrn_ambient_pressure 6000000.0
_diffrn_radiation_probe x-ray
_diffrn_source synchrotron
#These two values have been output from a single CSD field.
_refine_ls_R_factor_gt 0.0417
_refine_ls_wR_factor_gt 0.0417
_symmetry_cell_setting orthorhombic
_symmetry_space_group_name_H-M 'P b c a'
_symmetry_Int_Tables_number 61
loop_
_symmetry_equiv_pos_site_id
_symmetry_equiv_pos_as_xyz
1 x,y,z
2 1/2+x,1/2-y,-z
3 -x,1/2+y,1/2-z
4 1/2-x,-y,1/2+z
5 -x,-y,-z
6 -1/2-x,-1/2+y,z
7 x,-1/2-y,-1/2+z
8 -1/2+x,y,-1/2-z
_cell_length_a 12.0702(5)
_cell_length_b 6.9200(5)
_cell_length_c 14.7703(5)
_cell_angle_alpha 90
_cell_angle_beta 90
_cell_angle_gamma 90
_cell_formula_units_Z 8
loop_
_atom_type_symbol
_atom_type_radius_bond
C 0.68
H 0.23
N 0.68
O 0.68
loop_
_atom_site_label
_atom_site_type_symbol
_atom_site_fract_x
_atom_site_fract_y
_atom_site_fract_z
O1 O 0.48836(17) -0.0297(4) 0.68217(12)
N1 N 0.52925(19) 0.0984(4) 0.61806(14)
C1 C 0.5659(2) 0.2543(5) 0.64997(16)
C2 C 0.6035(2) 0.4034(5) 0.58774(16)
C3 C 0.6124(2) 0.3641(5) 0.49537(16)
O2 O 0.59544(16) 0.1865(4) 0.46054(12)
C4 C 0.6424(2) 0.5109(5) 0.43592(16)
O3 O 0.64688(16) 0.4534(4) 0.34692(11)
C5 C 0.7020(2) 0.5858(6) 0.28781(17)
C6 C 0.6641(2) 0.6936(5) 0.46729(17)
C7 C 0.6570(2) 0.7306(5) 0.55951(18)
C8 C 0.6257(2) 0.5880(5) 0.61874(17)
H1 H 0.460(3) -0.120(6) 0.646(2)
H2 H 0.56680 0.27700 0.71330
H3 H 0.577(3) 0.113(6) 0.499(2)
H4 H 0.70500 0.52550 0.22870
H5 H 0.77600 0.61010 0.30910
H6 H 0.66020 0.70350 0.28430
H7 H 0.68400 0.79200 0.42690
H8 H 0.67310 0.85550 0.57960
H9 H 0.61950 0.61600 0.68020
#END
