
#######################################################################
#
#                 Cambridge Crystallographic Data Centre
#                                CCDC
#
#######################################################################
#
# If this CIF has been generated from an entry in the Cambridge
# Structural Database, then it will include bibliographic, chemical,
# crystal, experimental, refinement or atomic coordinate data resulting
# from the CCDC's data processing and validation procedures.
#
#######################################################################

data_CSD_CIF_ACNCHL
_audit_creation_date 1980-10-28
_audit_creation_method CSD-ConQuest-V1
_database_code_CSD ACNCHL
_chemical_formula_sum 'C29 H48 N2 O4'
_chemical_formula_moiety
;
C29 H48 N2 O4
;
_journal_coden_Cambridge 35
_journal_volume 45
_journal_year 1980
_journal_page_first 2264
_journal_name_full 'J.Org.Chem. '
loop_
_publ_author_name
"M.J.Haire"
"R.L.Harlow"
_chemical_name_systematic
;
3\b-Acetoxy-5\b,6\b-N-nitro-aziridinyl-cholestene
;
_cell_volume   1413.161
_diffrn_ambient_temperature 175.15
#These two values have been output from a single CSD field.
_refine_ls_R_factor_gt 0.058
_refine_ls_wR_factor_gt 0.058
_symmetry_cell_setting monoclinic
_symmetry_space_group_name_H-M 'P 21'
_symmetry_Int_Tables_number 4
loop_
_symmetry_equiv_pos_site_id
_symmetry_equiv_pos_as_xyz
1 x,y,z
2 -x,1/2+y,-z
_cell_length_a 19.290(3)
_cell_length_b 6.037(2)
_cell_length_c 12.145(2)
_cell_angle_alpha 90
_cell_angle_beta 92.33(1)
_cell_angle_gamma 90
_cell_formula_units_Z 2
loop_
_atom_type_symbol
_atom_type_radius_bond
C 0.68
H 0.23
N 0.68
O 0.68
loop_
_atom_site_label
_atom_site_type_symbol
_atom_site_fract_x
_atom_site_fract_y
_atom_site_fract_z
C1 C 0.23550 0.25000 0.31520
C2 C 0.15670 0.25660 0.29220
C3 C 0.14350 0.38840 0.18910
C4 C 0.17480 0.27270 0.09260
C5 C 0.25260 0.23960 0.11060
C6 C 0.29950 0.37330 0.04170
C7 C 0.37330 0.41910 0.07800
C8 C 0.40300 0.23380 0.15260
C9 C 0.35620 0.20090 0.25180
C10 C 0.27800 0.14460 0.22290
C11 C 0.39030 0.03960 0.33550
C12 C 0.46500 0.10460 0.37230
C13 C 0.51190 0.12950 0.27380
C14 C 0.47570 0.29990 0.19600
C15 C 0.53040 0.35850 0.11270
C16 C 0.59950 0.34820 0.18260
C17 C 0.58260 0.24770 0.29650
C18 C 0.52260 -0.09340 0.21720
C19 C 0.26380 -0.10430 0.21930
C20 C 0.64430 0.11580 0.34620
C21 C 0.62750 -0.00370 0.45370
C22 C 0.70670 0.26770 0.36600
C23 C 0.77520 0.14500 0.38820
C24 C 0.83740 0.29910 0.39270
C25 C 0.90670 0.19360 0.40930
C26 C 0.92210 0.05010 0.30950
C27 C 0.96200 0.36550 0.42540
C28 C 0.04470 0.60170 0.13520
C29 C -0.03120 0.59640 0.10430
O1 O 0.06910 0.40570 0.16440
O2 O 0.08000 0.75970 0.13370
O3 O 0.21100 -0.08070 -0.07590
O4 O 0.24710 0.21400 -0.15970
N1 N 0.28790 0.13890 0.01450
N2 N 0.24380 0.09110 -0.08100
H1 H 0.24520 0.17020 0.38360
H2 H 0.25050 0.39920 0.32640
H3 H 0.13910 0.10280 0.28070
H4 H 0.13210 0.31280 0.35310
H5 H 0.16260 0.52950 0.20250
H6 H 0.15280 0.12850 0.07860
H7 H 0.16620 0.35810 0.02600
H8 H 0.27730 0.47420 -0.00620
H9 H 0.37620 0.55140 0.11780
H10 H 0.40090 0.42970 0.01380
H11 H 0.40540 0.09330 0.10940
H12 H 0.35570 0.33570 0.28990
H13 H 0.39240 -0.10960 0.29940
H14 H 0.36230 0.01990 0.39700
H15 H 0.48410 -0.00840 0.42260
H16 H 0.46330 0.23910 0.41120
H17 H 0.46930 0.42450 0.23870
H18 H 0.52190 0.49810 0.08310
H19 H 0.52940 0.24920 0.05390
H20 H 0.61950 0.48920 0.18960
H21 H 0.63250 0.25160 0.14610
H22 H 0.57300 0.36520 0.34590
H23 H 0.47880 -0.16530 0.20270
H24 H 0.54440 -0.07400 0.14850
H25 H 0.55100 -0.18960 0.26250
H26 H 0.27890 -0.17880 0.28590
H27 H 0.21520 -0.13670 0.20650
H28 H 0.28760 -0.17890 0.15950
H29 H 0.65640 0.00050 0.29430
H30 H 0.61530 0.10450 0.50680
H31 H 0.58990 -0.10320 0.44170
H32 H 0.66710 -0.08380 0.48140
H33 H 0.69950 0.35410 0.43070
H34 H 0.71160 0.36030 0.30520
H35 H 0.78090 0.02920 0.32690
H36 H 0.77270 0.04800 0.45340
H37 H 0.83620 0.38150 0.32570
H38 H 0.82930 0.39910 0.45230
H39 H 0.90920 0.09840 0.47510
H40 H 0.88950 -0.07050 0.29540
H41 H 0.92140 0.13560 0.24020
H42 H 0.96820 -0.02160 0.31180
H43 H 1.00750 0.30050 0.43260
H44 H 0.96240 0.45300 0.35580
H45 H 0.95390 0.46010 0.48220
H46 H -0.04620 0.73500 0.08060
H47 H -0.03900 0.49060 0.04310
H48 H -0.05620 0.54390 0.16390
#END
