
#######################################################################
#
#                 Cambridge Crystallographic Data Centre
#                                CCDC
#
#######################################################################
#
# If this CIF has been generated from an entry in the Cambridge
# Structural Database, then it will include bibliographic, chemical,
# crystal, experimental, refinement or atomic coordinate data resulting
# from the CCDC's data processing and validation procedures.
#
#######################################################################

data_CSD_CIF_ADOLEK
_audit_creation_date 2002-05-16
_audit_creation_method CSD-ConQuest-V1
_database_code_CSD ADOLEK
_database_code_depnum_ccdc_archive 'CCDC 181430'
_database_code_depnum_ccdc_journal 1267/719
_chemical_formula_sum 'C14 H18 N4 O4'
_chemical_formula_moiety
;
C14 H18 N4 O4
;
_journal_coden_Cambridge 1267
_journal_volume 216
_journal_year 2001
_journal_page_first 661
_journal_name_full 'Z.Kristallogr.-New Cryst.Struct. '
loop_
_publ_author_name
"K.Fukui"
"D.Hesek"
"M.Oelgemoller"
"Y.Inoue"
_chemical_name_systematic
;
N-Cyclo-octylidene-N'-(2,4-dinitrophenyl)hydrazine
;
_cell_volume   1460.023
_exptl_crystal_colour 'yellow'
_exptl_crystal_density_diffrn 1.394
_exptl_special_details
;
Bond length or labelling discrepanices

;
_exptl_crystal_description 'prismatic'
_exptl_crystal_preparation 'diethyl ether'
_diffrn_ambient_temperature 296.2
#These two values have been output from a single CSD field.
_refine_ls_R_factor_gt 0.0359
_refine_ls_wR_factor_gt 0.0359
_symmetry_cell_setting monoclinic
_symmetry_space_group_name_H-M 'P 21/n'
_symmetry_Int_Tables_number 14
loop_
_symmetry_equiv_pos_site_id
_symmetry_equiv_pos_as_xyz
1 x,y,z
2 1/2-x,1/2+y,1/2-z
3 -x,-y,-z
4 -1/2+x,-1/2-y,-1/2+z
_cell_length_a 9.23(2)
_cell_length_b 7.31(2)
_cell_length_c 21.64(2)
_cell_angle_alpha 90
_cell_angle_beta 90.5(1)
_cell_angle_gamma 90
_cell_formula_units_Z 4
loop_
_atom_type_symbol
_atom_type_radius_bond
C 0.68
H 0.23
N 0.68
O 0.68
loop_
_atom_site_label
_atom_site_type_symbol
_atom_site_fract_x
_atom_site_fract_y
_atom_site_fract_z
O1 O 0.6213(2) 0.3614(2) -0.0161(1)
O2 O 0.7782(2) 0.3590(2) -0.0885(1)
O3 O 1.0445(2) -0.1660(2) -0.1420(1)
O4 O 1.0841(3) -0.3725(2) -0.0733(1)
N1 N 0.5624(2) -0.0056(2) 0.1141(1)
N2 N 0.6082(2) 0.0875(2) 0.0620(1)
N3 N 0.7168(2) 0.2841(1) -0.0456(1)
N4 N 1.0188(2) -0.2375(2) -0.0923(1)
C1 C 0.4726(2) 0.0803(2) 0.1486(1)
C2 C 0.4167(2) 0.2710(2) 0.1367(1)
C3 C 0.5216(2) 0.4249(2) 0.1556(1)
C4 C 0.5508(2) 0.4429(2) 0.2252(1)
C5 C 0.6345(2) 0.2823(2) 0.2540(2)
C6 C 0.5461(1) 0.1479(1) 0.2921(1)
C7 C 0.4042(2) 0.0808(1) 0.2638(1)
C8 C 0.4177(1) -0.0257(1) 0.2031(1)
C9 C 0.7051(2) 0.0093(2) 0.0240(1)
C10 C 0.7599(2) -0.1698(2) 0.0363(1)
C11 C 0.8609(2) -0.2489(2) -0.0009(1)
C12 C 0.9101(2) -0.1548(2) -0.0530(1)
C13 C 0.8604(3) 0.0169(2) -0.0673(2)
C14 C 0.7593(3) 0.0993(3) -0.0291(2)
H1 H 0.715(3) 0.332(3) 0.2807(16)
H2 H 0.724(2) -0.242(2) 0.0723(15)
H3 H 0.898(2) -0.367(2) 0.0087(15)
H4 H 0.888(2) 0.085(2) -0.1014(13)
H5 H 0.582(2) 0.203(3) 0.0543(15)
H6 H 0.609(2) 0.551(2) 0.2305(14)
H7 H 0.326(2) 0.284(2) 0.1584(14)
H8 H 0.475(2) 0.537(2) 0.1417(14)
H9 H 0.685(2) 0.208(2) 0.2217(17)
H10 H 0.337(3) 0.190(2) 0.2593(17)
H11 H 0.317(3) -0.056(2) 0.1928(16)
H12 H 0.457(3) 0.460(3) 0.2481(17)
H13 H 0.600(3) 0.033(3) 0.3047(17)
H14 H 0.478(3) -0.133(3) 0.2095(17)
H15 H 0.618(3) 0.407(3) 0.1347(17)
H16 H 0.525(2) 0.195(2) 0.3352(14)
H17 H 0.351(2) -0.002(2) 0.2941(14)
H18 H 0.390(3) 0.283(2) 0.0921(16)
#END
