
#######################################################################
#
#                 Cambridge Crystallographic Data Centre
#                                CCDC
#
#######################################################################
#
# If this CIF has been generated from an entry in the Cambridge
# Structural Database, then it will include bibliographic, chemical,
# crystal, experimental, refinement or atomic coordinate data resulting
# from the CCDC's data processing and validation procedures.
#
#######################################################################

data_CSD_CIF_AFIFOK
_audit_creation_date 2002-07-24
_audit_creation_method CSD-ConQuest-V1
_database_code_CSD AFIFOK
_chemical_formula_sum 'C29 H26 N4 O4'
_chemical_formula_moiety
;
C29 H26 N4 O4
;
_journal_coden_Cambridge 4
_journal_volume 123
_journal_year 2001
_journal_page_first 5892
_journal_name_full 'J.Am.Chem.Soc. '
loop_
_publ_author_name
"D.J.Hart"
"N.A.Magomedov"
_chemical_name_systematic
;
2-(2-(1-(Benzoyloxyimino)ethyl)-4-oxo-4H-quinazolin-3-yl)-3-(1H-indol-3-yl)pro
pionic acid methyl ester
;
_cell_volume   2566.253
_exptl_crystal_colour 'colorless'
_exptl_crystal_density_diffrn 1.28
_exptl_crystal_description 'rectangular block'
_diffrn_ambient_temperature 293
#These two values have been output from a single CSD field.
_refine_ls_R_factor_gt 0.04
_refine_ls_wR_factor_gt 0.04
_symmetry_cell_setting orthorhombic
_symmetry_space_group_name_H-M 'P 21 21 21'
_symmetry_Int_Tables_number 19
loop_
_symmetry_equiv_pos_site_id
_symmetry_equiv_pos_as_xyz
1 x,y,z
2 1/2-x,-y,1/2+z
3 1/2+x,1/2-y,-z
4 -x,1/2+y,1/2-z
_cell_length_a 10.0441(1)
_cell_length_b 14.2747(1)
_cell_length_c 17.8987(3)
_cell_angle_alpha 90
_cell_angle_beta 90
_cell_angle_gamma 90
_cell_formula_units_Z 4
loop_
_atom_type_symbol
_atom_type_radius_bond
C 0.68
H 0.23
N 0.68
O 0.68
loop_
_atom_site_label
_atom_site_type_symbol
_atom_site_fract_x
_atom_site_fract_y
_atom_site_fract_z
O1 O 0.8836(1) 0.1122(1) 0.5646(1)
O2 O 0.8976(1) -0.0306(1) 0.9028(1)
O3 O 0.7991(1) -0.0686(1) 0.6412(1)
O4 O 0.6171(1) 0.0191(1) 0.6279(1)
N1 N 0.9379(1) 0.0871(1) 0.6859(1)
N2 N 1.1593(1) 0.1011(1) 0.7296(1)
N3 N 0.9208(1) -0.0094(1) 0.8275(1)
N4 N 0.9483(2) 0.3501(1) 0.7877(1)
C1 C 1.2003(2) 0.1196(1) 0.6568(1)
C2 C 1.3359(2) 0.1358(2) 0.6426(1)
C3 C 1.3786(2) 0.1558(2) 0.5726(1)
C4 C 1.2894(2) 0.1591(2) 0.5138(1)
C5 C 1.1565(2) 0.1432(1) 0.5252(1)
C6 C 1.1112(2) 0.1233(1) 0.5974(1)
C7 C 0.9711(2) 0.1079(1) 0.6117(1)
C8 C 1.0349(1) 0.0848(1) 0.7412(1)
C9 C 0.9992(2) 0.0602(1) 0.8199(1)
C10 C 1.0634(2) 0.1134(2) 0.8818(1)
C11 C 0.8002(2) -0.1052(1) 0.9070(1)
C12 C 0.6697(2) -0.0812(1) 0.8722(1)
C13 C 0.6235(3) -0.1277(2) 0.8103(1)
C14 C 0.4993(3) -0.1073(3) 0.7803(2)
C15 C 0.4216(3) -0.0392(3) 0.8127(3)
C16 C 0.4678(3) 0.0068(2) 0.8729(2)
C17 C 0.5900(2) -0.0136(2) 0.9036(1)
C18 C 0.7936(1) 0.0818(1) 0.7004(1)
C19 C 0.7391(2) 0.0029(1) 0.6520(1)
C20 C 0.5576(2) -0.0562(2) 0.5836(1)
C21 C 0.7280(2) 0.1789(1) 0.6946(1)
C22 C 0.7976(2) 0.2473(1) 0.7449(1)
C23 C 0.7790(2) 0.2588(1) 0.8236(1)
C24 C 0.6912(2) 0.2210(2) 0.8758(1)
C25 C 0.7028(3) 0.2462(2) 0.9496(1)
C26 C 0.8003(3) 0.3093(2) 0.9729(1)
C27 C 0.8870(2) 0.3491(1) 0.9231(1)
C28 C 0.8752(2) 0.3236(1) 0.8488(1)
C29 C 0.9013(2) 0.3041(1) 0.7261(1)
H1 H 1.0127(26) 0.3877(21) 0.7893(14)
H2 H 1.3970(2) 0.1328(2) 0.6816(1)
H3 H 1.4684(2) 0.1673(2) 0.5641(1)
H4 H 1.3201(2) 0.1723(2) 0.4659(1)
H5 H 1.0970(2) 0.1457(1) 0.4854(1)
H6 H 0.9961(2) 0.1426(9) 0.9119(5)
H7 H 1.1208(12) 0.1606(7) 0.8612(1)
H8 H 1.1148(12) 0.0713(2) 0.9121(5)
H9 H 0.7857(2) -0.1209(1) 0.9591(1)
H10 H 0.8360(2) -0.1602(1) 0.8824(1)
H11 H 0.6761(3) -0.1735(2) 0.7880(1)
H12 H 0.4689(3) -0.1395(3) 0.7385(2)
H13 H 0.3381(3) -0.0252(3) 0.7932(3)
H14 H 0.4158(3) 0.0536(2) 0.8943(2)
H15 H 0.6188(2) 0.0185(2) 0.9459(1)
H16 H 0.7834(1) 0.0615(1) 0.7524(1)
H17 H 0.5997(13) -0.0587(9) 0.5355(4)
H18 H 0.4642(4) -0.0445(7) 0.5774(9)
H19 H 0.5700(17) -0.1149(2) 0.6088(5)
H20 H 0.7324(2) 0.2008(1) 0.6434(1)
H21 H 0.6350(2) 0.1744(1) 0.7087(1)
H22 H 0.6255(2) 0.1792(2) 0.8608(1)
H23 H 0.6447(3) 0.2207(2) 0.9846(1)
H24 H 0.8066(3) 0.3247(2) 1.0232(1)
H25 H 0.9514(2) 0.3917(1) 0.9386(1)
H26 H 0.9353(2) 0.3107(1) 0.6781(1)
#END
