
#######################################################################
#
#                 Cambridge Crystallographic Data Centre
#                                CCDC
#
#######################################################################
#
# If this CIF has been generated from an entry in the Cambridge
# Structural Database, then it will include bibliographic, chemical,
# crystal, experimental, refinement or atomic coordinate data resulting
# from the CCDC's data processing and validation procedures.
#
#######################################################################

data_CSD_CIF_AFIMUZ
_audit_creation_date 2013-09-18
_audit_creation_method CSD-ConQuest-V1
_database_code_CSD AFIMUZ
_database_code_depnum_ccdc_archive 'CCDC 961845'
_chemical_formula_sum 'C17 H21 N1 O2'
_chemical_formula_moiety
;
C17 H21 N1 O2
;
_journal_coeditor_code "IUCr bt6921"
_journal_coden_Cambridge 1370
_journal_volume 69
_journal_year 2013
_journal_page_first o1314
_journal_name_full 'Acta Crystallogr.,Sect.E:Struct.Rep.Online '
loop_
_publ_author_name
"B.Boualy"
"M.A.Harrad"
"A.Oudahmane"
"A.Benharref"
"M.Berraho"
_chemical_name_systematic
;
1,10,10-Trimethyl-5-phenyl-3-oxa-4-azatricyclo[5.2.1.0^2,6^]dec-4-en-2-ol
;
_cell_volume   1494.535
_exptl_crystal_colour 'colorless'
_exptl_crystal_density_diffrn 1.202
_exptl_crystal_description 'plaquet'
_diffrn_ambient_temperature 296
#These two values have been output from a single CSD field.
_refine_ls_R_factor_gt 0.0422
_refine_ls_wR_factor_gt 0.0422
_symmetry_cell_setting monoclinic
_symmetry_space_group_name_H-M 'C 2'
_symmetry_Int_Tables_number 5
loop_
_symmetry_equiv_pos_site_id
_symmetry_equiv_pos_as_xyz
1 x,y,z
2 -x,y,-z
3 1/2+x,1/2+y,z
4 1/2-x,1/2+y,-z
_cell_length_a 22.1681(18)
_cell_length_b 6.6134(5)
_cell_length_c 10.7358(8)
_cell_angle_alpha 90
_cell_angle_beta 108.277(3)
_cell_angle_gamma 90
_cell_formula_units_Z 4
loop_
_atom_type_symbol
_atom_type_radius_bond
C 0.68
H 0.23
N 0.68
O 0.68
loop_
_atom_site_label
_atom_site_type_symbol
_atom_site_fract_x
_atom_site_fract_y
_atom_site_fract_z
C1 C 0.81485(10) 0.9730(4) -0.0870(2)
C2 C 0.85865(11) 1.0215(4) 0.0464(2)
H1 H 0.86090 1.16730 0.06370
C3 C 0.92540(11) 0.9251(5) 0.0815(2)
H2 H 0.95690 1.00840 0.05850
C4 C 0.91859(14) 0.7103(6) 0.0251(3)
H3 H 0.89240 0.70880 -0.06620
H4 H 0.95970 0.65200 0.03250
C5 C 0.88635(13) 0.5975(5) 0.1116(3)
H5 H 0.91220 0.48440 0.15570
H6 H 0.84500 0.54730 0.05980
C6 C 0.87986(11) 0.7567(4) 0.2119(2)
C7 C 0.82786(10) 0.9070(4) 0.1358(2)
C8 C 0.94087(11) 0.8860(5) 0.2308(2)
C9 C 1.00340(13) 0.7670(7) 0.2908(3)
H7 H 1.03810 0.84120 0.27750
H8 H 1.00010 0.63740 0.24900
H9 H 1.01070 0.74870 0.38310
C10 C 0.94630(15) 1.0792(6) 0.3124(3)
H10 H 0.98520 1.14750 0.31750
H11 H 0.94610 1.04480 0.39910
H12 H 0.91100 1.16640 0.27160
C11 C 0.82295(11) 1.0459(5) -0.2104(2)
C12 C 0.79751(13) 0.9407(6) -0.3273(2)
H13 H 0.77460 0.82250 -0.32870
C13 C 0.80638(16) 1.0122(7) -0.4421(3)
H14 H 0.78890 0.94150 -0.52010
C14 C 0.83984(16) 1.1823(8) -0.4422(3)
H15 H 0.84610 1.22690 -0.51930
C15 C 0.86471(18) 1.2897(8) -0.3279(4)
H16 H 0.88700 1.40860 -0.32830
C16 C 0.85657(16) 1.2210(6) -0.2119(3)
H17 H 0.87390 1.29350 -0.13470
C17 C 0.86922(15) 0.6664(6) 0.3337(3)
H18 H 0.82940 0.59580 0.30920
H19 H 0.86860 0.77260 0.39420
H20 H 0.90300 0.57380 0.37450
O1 O 0.77279(7) 0.8072(3) 0.04364(16)
N1 N 0.77018(9) 0.8524(4) -0.08639(18)
O2 O 0.80582(8) 1.0188(3) 0.22155(14)
H21 H 0.78640 1.11780 0.18330
#END
