
#######################################################################
#
#                 Cambridge Crystallographic Data Centre
#                                CCDC
#
#######################################################################
#
# If this CIF has been generated from an entry in the Cambridge
# Structural Database, then it will include bibliographic, chemical,
# crystal, experimental, refinement or atomic coordinate data resulting
# from the CCDC's data processing and validation procedures.
#
#######################################################################

data_CSD_CIF_AFOPUI
_audit_creation_date 2013-09-18
_audit_creation_method CSD-ConQuest-V1
_database_code_CSD AFOPUI
_database_code_depnum_ccdc_archive 'CCDC 961826'
_chemical_formula_sum 'C14 H11 N3 O5'
_chemical_formula_moiety
;
C14 H11 N3 O5
;
_journal_coeditor_code "IUCr BT6911"
_journal_coden_Cambridge 1370
_journal_volume 69
_journal_year 2013
_journal_page_first o1085
_journal_name_full 'Acta Crystallogr.,Sect.E:Struct.Rep.Online '
loop_
_publ_author_name
"H.Tanak"
"F.Togurman"
"S.Kalecik"
"N.Dege"
"M.Yavuz"
_chemical_name_systematic
;
2-((E)-[(2-Methyl-3-nitrophenyl)imino]methyl)-4-nitrophenol
;
_chemical_name_common
;
2-(((2-Methyl-3-nitrophenyl)imino)methyl)-4-nitrophenol
;
_chemical_melting_point 485
_cell_volume   1361.472
_exptl_crystal_colour 'yellow'
_exptl_crystal_density_diffrn 1.47
_exptl_special_details
;
Melting point range 485-487K

;
_exptl_crystal_description 'stick'
_diffrn_ambient_temperature 296
#These two values have been output from a single CSD field.
_refine_ls_R_factor_gt 0.095
_refine_ls_wR_factor_gt 0.095
_symmetry_cell_setting monoclinic
_symmetry_space_group_name_H-M 'P 21/c'
_symmetry_Int_Tables_number 14
loop_
_symmetry_equiv_pos_site_id
_symmetry_equiv_pos_as_xyz
1 x,y,z
2 -x,1/2+y,1/2-z
3 -x,-y,-z
4 x,-1/2-y,-1/2+z
_cell_length_a 3.754(5)
_cell_length_b 15.696(5)
_cell_length_c 23.149(5)
_cell_angle_alpha 90
_cell_angle_beta 93.491(5)
_cell_angle_gamma 90
_cell_formula_units_Z 4
loop_
_atom_type_symbol
_atom_type_radius_bond
C 0.68
H 0.23
N 0.68
O 0.68
loop_
_atom_site_label
_atom_site_type_symbol
_atom_site_fract_x
_atom_site_fract_y
_atom_site_fract_z
O1 O 0.7299(11) 0.2631(3) 0.1412(2)
H1 H 0.73920 0.22520 0.16560
O2 O 0.0339(12) 0.0664(4) -0.0715(2)
N1 N 0.6571(12) 0.1125(4) 0.1845(2)
N2 N 0.1412(12) 0.1407(4) -0.0677(2)
C1 C 0.6662(13) 0.0823(4) 0.2872(3)
O3 O 0.1280(16) 0.1866(4) -0.1100(3)
C2 C 0.4754(13) 0.1458(4) 0.0866(3)
C3 C 0.5162(13) 0.0880(4) 0.1361(3)
H2 H 0.43710 0.03210 0.13210
C4 C 0.8803(16) -0.0853(5) 0.2670(3)
H3 H 0.94920 -0.14110 0.26000
C5 C 0.8347(15) -0.0593(5) 0.3228(3)
H4 H 0.87080 -0.09670 0.35370
C6 C 0.2981(13) 0.1707(4) -0.0126(3)
C7 C 0.3326(13) 0.1173(4) 0.0339(3)
H5 H 0.25860 0.06100 0.02990
C8 C 0.7342(14) 0.0238(5) 0.3314(3)
O4 O 0.8401(14) 0.1172(4) 0.4082(2)
N3 N 0.7006(16) 0.0501(5) 0.3918(3)
C9 C 0.4026(15) 0.2570(5) -0.0082(3)
H6 H 0.37670 0.29330 -0.04000
C10 C 0.5843(14) 0.2325(5) 0.0912(3)
C11 C 0.8248(14) -0.0294(5) 0.2215(3)
H7 H 0.86360 -0.04720 0.18400
C12 C 0.5415(16) 0.2853(5) 0.0436(3)
H8 H 0.61030 0.34210 0.04720
O5 O 0.5514(16) 0.0028(5) 0.4243(3)
C13 C 0.7111(12) 0.0532(4) 0.2312(3)
C14 C 0.5391(16) 0.1734(4) 0.2969(3)
H9 H 0.50930 0.20230 0.26040
H10 H 0.71280 0.20290 0.32160
H11 H 0.31530 0.17200 0.31490
#END
