
#######################################################################
#
#                 Cambridge Crystallographic Data Centre
#                                CCDC
#
#######################################################################
#
# If this CIF has been generated from an entry in the Cambridge
# Structural Database, then it will include bibliographic, chemical,
# crystal, experimental, refinement or atomic coordinate data resulting
# from the CCDC's data processing and validation procedures.
#
#######################################################################

data_CSD_CIF_AGAXUD
_audit_creation_date 2013-09-19
_audit_creation_method CSD-ConQuest-V1
_database_code_CSD AGAXUD
_database_code_depnum_ccdc_archive 'CCDC 962154'
_chemical_formula_sum 'C12 H10 N2 O2'
_chemical_formula_moiety
;
C12 H10 N2 O2
;
_journal_coeditor_code "IUCr ld2106"
_journal_coden_Cambridge 1370
_journal_volume 69
_journal_year 2013
_journal_page_first o1164
_journal_name_full 'Acta Crystallogr.,Sect.E:Struct.Rep.Online '
loop_
_publ_author_name
"D.Taher"
"F.F.Awwadi"
"M.H.Kailani"
_chemical_name_systematic
;
4-(4-Nitrobenzyl)pyridine
;
_cell_volume   1054.132
_exptl_crystal_colour 'white'
_exptl_crystal_density_diffrn 1.35
_exptl_crystal_description 'needle'
_diffrn_ambient_temperature 293
#These two values have been output from a single CSD field.
_refine_ls_R_factor_gt 0.0467
_refine_ls_wR_factor_gt 0.0467
_symmetry_cell_setting monoclinic
_symmetry_space_group_name_H-M 'P 21/c'
_symmetry_Int_Tables_number 14
loop_
_symmetry_equiv_pos_site_id
_symmetry_equiv_pos_as_xyz
1 x,y,z
2 -x,1/2+y,1/2-z
3 -x,-y,-z
4 x,-1/2-y,-1/2+z
_cell_length_a 11.4138(9)
_cell_length_b 6.1241(5)
_cell_length_c 15.5812(13)
_cell_angle_alpha 90
_cell_angle_beta 104.561(9)
_cell_angle_gamma 90
_cell_formula_units_Z 4
loop_
_atom_type_symbol
_atom_type_radius_bond
C 0.68
H 0.23
N 0.68
O 0.68
loop_
_atom_site_label
_atom_site_type_symbol
_atom_site_fract_x
_atom_site_fract_y
_atom_site_fract_z
N1 N 0.13729(12) 0.2522(2) 0.13717(9)
C1 C 0.15049(13) 0.1215(2) 0.0615(1)
C2 C 0.11079(14) 0.2054(3) -0.02263(11)
H1 H 0.07570 0.34330 -0.03170
C3 C 0.17562(14) -0.1248(3) -0.08069(10)
O1 O 0.09206(12) 0.4333(2) 0.12370(9)
C4 C 0.20080(14) -0.0837(3) 0.07671(11)
H2 H 0.22580 -0.13900 0.13400
C5 C 0.12404(14) 0.0808(3) -0.09329(11)
H3 H 0.09780 0.13610 -0.15050
C6 C 0.21313(14) -0.2047(3) 0.00541(11)
H4 H 0.24730 -0.34330 0.01490
C7 C 0.19074(15) -0.2601(3) -0.15842(11)
H5 H 0.14570 -0.39530 -0.16070
H6 H 0.15760 -0.18090 -0.21300
O2 O 0.17074(16) 0.1747(2) 0.21073(9)
C8 C 0.32183(15) -0.3119(3) -0.15136(10)
C9 C 0.37349(17) -0.5080(3) -0.11888(12)
H7 H 0.32630 -0.61680 -0.10280
N2 N 0.56897(15) -0.3995(3) -0.13144(12)
C10 C 0.39748(17) -0.1617(3) -0.17558(13)
H8 H 0.36760 -0.02740 -0.19920
C11 C 0.49444(19) -0.5428(4) -0.11034(14)
H9 H 0.52630 -0.67700 -0.08810
C12 C 0.51831(19) -0.2128(4) -0.16440(15)
H10 H 0.56760 -0.10880 -0.18120
#END
