
#######################################################################
#
#                 Cambridge Crystallographic Data Centre
#                                CCDC
#
#######################################################################
#
# If this CIF has been generated from an entry in the Cambridge
# Structural Database, then it will include bibliographic, chemical,
# crystal, experimental, refinement or atomic coordinate data resulting
# from the CCDC's data processing and validation procedures.
#
#######################################################################

data_CSD_CIF_AGERUZ
_audit_creation_date 2002-07-24
_audit_creation_method CSD-ConQuest-V1
_database_code_CSD AGERUZ
_database_code_depnum_ccdc_archive 'CCDC 166424'
_chemical_formula_sum 'C23 H17 N3 O4'
_chemical_formula_moiety
;
C23 H17 N3 O4
;
_journal_coden_Cambridge 16
_journal_volume 58
_journal_year 2002
_journal_page_first 3003
_journal_name_full 'Tetrahedron '
loop_
_publ_author_name
"V.Nair"
"D.Sethumadhavan"
"S.M.Nair"
"S.Viji"
"N.P.Rath"
_chemical_name_systematic
;
(3R,4R')-1-Methyl-2'-phenyl-4'-(4-nitrophenyl)-spiro(3H-indole-3,5'(4'H)-oxazo
l)-2(1H)-one
;
_chemical_melting_point 494.15
_cell_volume   3934.519
_exptl_crystal_colour 'colorless'
_exptl_crystal_density_diffrn 1.349
_exptl_special_details
;
Melting point range 494.15-496.15K

;
_exptl_crystal_description 'irregular'
_exptl_crystal_preparation 'hexane/dichloromethane'
_diffrn_ambient_temperature 223
#These two values have been output from a single CSD field.
_refine_ls_R_factor_gt 0.074
_refine_ls_wR_factor_gt 0.074
_symmetry_cell_setting orthorhombic
_symmetry_space_group_name_H-M 'P b c a'
_symmetry_Int_Tables_number 61
loop_
_symmetry_equiv_pos_site_id
_symmetry_equiv_pos_as_xyz
1 x,y,z
2 1/2+x,y,1/2-z
3 x,1/2-y,1/2+z
4 1/2-x,1/2+y,z
5 -x,-y,-z
6 -1/2-x,-y,-1/2+z
7 -x,-1/2+y,-1/2-z
8 -1/2+x,-1/2-y,-z
_cell_length_a 16.1255(5)
_cell_length_b 12.2464(4)
_cell_length_c 19.9237(6)
_cell_angle_alpha 90
_cell_angle_beta 90
_cell_angle_gamma 90
_cell_formula_units_Z 8
loop_
_atom_type_symbol
_atom_type_radius_bond
C 0.68
H 0.23
N 0.68
O 0.68
loop_
_atom_site_label
_atom_site_type_symbol
_atom_site_fract_x
_atom_site_fract_y
_atom_site_fract_z
O1 O 0.18428(8) 0.43207(12) 0.41738(7)
O2 O 0.21704(10) 0.35902(13) 0.55381(9)
O3 O 0.50452(13) 0.43334(19) 0.71867(10)
O4 O 0.44632(17) 0.5785(3) 0.75601(13)
N1 N 0.31618(10) 0.49328(15) 0.40924(8)
N2 N 0.11947(10) 0.49066(14) 0.57462(8)
N3 N 0.45792(14) 0.5109(2) 0.71274(11)
C1 C 0.26069(12) 0.42939(17) 0.38742(9)
C2 C 0.28067(11) 0.55483(16) 0.46508(10)
H1 H 0.27600 0.63250 0.45170
C3 C 0.19079(11) 0.50604(15) 0.47316(9)
C4 C 0.17893(12) 0.44047(16) 0.53841(10)
C5 C 0.08281(11) 0.57602(16) 0.53837(10)
C6 C 0.01667(13) 0.6404(2) 0.55692(14)
H2 H -0.00870 0.63280 0.59910
C7 C -0.01055(15) 0.7157(2) 0.51152(19)
H3 H -0.05610 0.76000 0.52270
C8 C 0.02652(16) 0.72881(19) 0.45006(18)
H4 H 0.00610 0.78170 0.42010
C9 C 0.09464(13) 0.66398(18) 0.43149(13)
H5 H 0.12080 0.67310 0.38970
C10 C 0.12161(11) 0.58695(15) 0.47643(10)
C11 C 0.26824(13) 0.34858(18) 0.3332(1)
C12 C 0.33752(15) 0.3502(2) 0.29171(12)
H6 H 0.37820 0.40440 0.29720
C13 C 0.34623(19) 0.2717(2) 0.24238(13)
H7 H 0.39280 0.27320 0.21400
C14 C 0.28771(19) 0.1915(2) 0.23439(13)
H8 H 0.29420 0.13860 0.20060
C15 C 0.21955(17) 0.1884(2) 0.27578(12)
H9 H 0.17990 0.13270 0.27080
C16 C 0.20934(14) 0.26730(19) 0.32465(10)
H10 H 0.16210 0.26590 0.35230
C17 C 0.33162(11) 0.54781(15) 0.52871(10)
C18 C 0.39503(13) 0.47261(19) 0.53536(11)
H11 H 0.40970 0.42860 0.49860
C19 C 0.43700(13) 0.4614(2) 0.59524(11)
H12 H 0.48020 0.41030 0.59960
C20 C 0.41468(12) 0.52587(18) 0.64807(11)
C21 C 0.35311(14) 0.60290(19) 0.64336(12)
H13 H 0.33940 0.64710 0.68030
C22 C 0.31185(13) 0.61372(16) 0.58303(12)
H14 H 0.26980 0.66640 0.57870
C23 C 0.09462(17) 0.4548(3) 0.64132(11)
H15 H 0.11260 0.38000 0.64830
H16 H 0.03470 0.45880 0.64530
H17 H 0.12000 0.50160 0.67480
#END
