
#######################################################################
#
#                 Cambridge Crystallographic Data Centre
#                                CCDC
#
#######################################################################
#
# If this CIF has been generated from an entry in the Cambridge
# Structural Database, then it will include bibliographic, chemical,
# crystal, experimental, refinement or atomic coordinate data resulting
# from the CCDC's data processing and validation procedures.
#
#######################################################################

data_CSD_CIF_AJOZOQ
_audit_creation_date 2016-04-12
_audit_creation_method CSD-ConQuest-V1
_database_code_CSD AJOZOQ
_database_code_depnum_ccdc_archive 'CCDC 938839'
_chemical_formula_sum 'C39 H57 N2 O4'
_chemical_formula_moiety
;
C39 H57 N2 O4
;
_journal_coden_Cambridge 388
_journal_volume 50
_journal_year 2014
_journal_page_first 78
_journal_name_full 'Zh.Org.Khim.(Russ.)(Russ.J.Org.Chem.) '
loop_
_publ_author_name
"E.V.Zaitseva"
"Yu.V.Gatilov"
"S.A.Amitina"
"R.Tamura"
"I.A.Grigor'ev"
"D.G.Mazhukin"
_chemical_name_systematic
;
4-(4-Hydroxy-3,3-dimethyl-1,4-diazaspiro[4.5]dec-1-en-2-yl)phenyl 
4-(hexadecyloxy)benzoate
;
_chemical_melting_point 339
_cell_volume   1779.326
_exptl_crystal_colour 'colorless'
_exptl_crystal_density_diffrn 1.153
_exptl_crystal_description 'needle'
_exptl_crystal_preparation 'ethanol'
_diffrn_ambient_temperature 200
#These two values have been output from a single CSD field.
_refine_ls_R_factor_gt 0.0615
_refine_ls_wR_factor_gt 0.0615
_symmetry_cell_setting triclinic
_symmetry_space_group_name_H-M 'P -1'
_symmetry_Int_Tables_number 2
loop_
_symmetry_equiv_pos_site_id
_symmetry_equiv_pos_as_xyz
1 x,y,z
2 -x,-y,-z
_cell_length_a 5.7726(15)
_cell_length_b 11.567(4)
_cell_length_c 27.462(9)
_cell_angle_alpha 92.976(11)
_cell_angle_beta 94.341(12)
_cell_angle_gamma 102.690(12)
_cell_formula_units_Z 2
loop_
_atom_type_symbol
_atom_type_radius_bond
C 0.68
H 0.23
N 0.68
O 0.68
loop_
_atom_site_label
_atom_site_type_symbol
_atom_site_fract_x
_atom_site_fract_y
_atom_site_fract_z
O1 O -1.3224(4) 1.51337(19) 0.07129(8)
N1 N -1.2633(4) 1.4143(2) 0.07463(9)
C1 C -1.1397(5) 1.3827(2) 0.11916(10)
O2 O -0.5825(4) 0.96684(17) 0.19094(7)
N2 N -1.2317(4) 1.2224(2) 0.05843(9)
C2 C -1.1308(5) 1.2573(2) 0.10182(10)
O3 O -0.3970(5) 1.0775(2) 0.25826(9)
C3 C -1.3335(5) 1.3132(2) 0.03698(10)
O4 O 0.1488(4) 0.65635(19) 0.24151(8)
C4 C -1.2345(5) 1.3470(3) -0.01159(11)
H1 H -1.29060 1.41710 -0.02260
H2 H -1.05820 1.36870 -0.00690
C5 C -1.3136(6) 1.2449(3) -0.05052(11)
H3 H -1.25350 1.27060 -0.08190
H4 H -1.24320 1.17780 -0.04100
C6 C -1.5819(6) 1.2035(3) -0.05744(12)
H5 H -1.62580 1.13350 -0.08140
H6 H -1.65170 1.26740 -0.07080
C7 C -1.6833(6) 1.1708(3) -0.00922(12)
H7 H -1.62880 1.10060 0.00220
H8 H -1.85960 1.14980 -0.01420
C8 C -1.6035(6) 1.2739(3) 0.02943(12)
H9 H -1.67050 1.34160 0.01930
H10 H -1.66650 1.24960 0.06080
C9 C -0.8975(5) 1.4684(3) 0.12943(11)
H11 H -0.79910 1.45950 0.10250
H12 H -0.81840 1.45070 0.16010
H13 H -0.91920 1.55010 0.13230
C10 C -1.2964(6) 1.3876(3) 0.16157(12)
H14 H -1.34840 1.46270 0.16240
H15 H -1.20460 1.38200 0.19250
H16 H -1.43620 1.32110 0.15680
C11 C -1.0052(5) 1.1795(2) 0.1295(1)
C12 C -0.9153(6) 1.2037(3) 0.17784(11)
H17 H -0.95000 1.26920 0.19590
C13 C -0.7763(6) 1.1358(3) 0.20099(11)
H18 H -0.71720 1.15400 0.23440
C14 C -0.7259(5) 1.0418(2) 0.17466(10)
C15 C -0.8240(6) 1.0120(3) 0.12718(11)
H19 H -0.79600 0.94400 0.10970
C16 C -0.9608(6) 1.0795(2) 0.10517(11)
H20 H -1.02760 1.05770 0.07240
C17 C -0.4179(6) 0.9921(3) 0.22968(11)
C18 C -0.2709(5) 0.9040(2) 0.23223(10)
C19 C -0.1049(6) 0.9119(3) 0.27191(11)
H21 H -0.08940 0.97430 0.29670
C20 C 0.0385(6) 0.8318(3) 0.27657(11)
H22 H 0.15040 0.83860 0.30440
C21 C 0.0184(6) 0.7414(3) 0.24048(11)
C22 C -0.1418(6) 0.7346(3) 0.19988(11)
H23 H -0.15140 0.67460 0.17440
C23 C -0.2870(6) 0.8133(3) 0.19589(11)
H24 H -0.39940 0.80600 0.16820
C24 C 0.3128(6) 0.6554(3) 0.28351(11)
H25 H 0.22840 0.65030 0.31370
H26 H 0.43990 0.72910 0.28680
C25 C 0.4185(6) 0.5488(3) 0.27591(12)
H27 H 0.50070 0.55530 0.24550
H28 H 0.28820 0.47640 0.27150
C26 C 0.5942(6) 0.5354(3) 0.31805(11)
H29 H 0.72280 0.60840 0.32300
H30 H 0.51130 0.52650 0.34840
C27 C 0.7037(6) 0.4293(3) 0.30917(11)
H31 H 0.57300 0.35760 0.30220
H32 H 0.79100 0.44070 0.27950
C28 C 0.8725(6) 0.4064(3) 0.35063(11)
H33 H 0.78760 0.39640 0.38070
H34 H 1.00720 0.47640 0.35700
C29 C 0.9699(6) 0.2971(3) 0.33986(11)
H35 H 1.04920 0.30650 0.30910
H36 H 0.83430 0.22720 0.33420
C30 C 1.1466(6) 0.2716(3) 0.37985(11)
H37 H 1.28640 0.33950 0.38470
H38 H 1.07020 0.26400 0.41100
C31 C 1.2305(6) 0.1591(3) 0.36753(11)
H39 H 1.08940 0.09190 0.36280
H40 H 1.30290 0.16700 0.33600
C32 C 1.4088(6) 0.1284(3) 0.40521(11)
H41 H 1.33720 0.11980 0.43680
H42 H 1.55110 0.19500 0.41000
C33 C 1.4871(6) 0.0148(3) 0.39108(11)
H43 H 1.34430 -0.05140 0.38590
H44 H 1.55970 0.02390 0.35960
C34 C 1.6631(6) -0.0179(3) 0.42842(11)
H45 H 1.58980 -0.02750 0.45980
H46 H 1.80510 0.04870 0.43380
C35 C 1.7447(6) -0.1317(3) 0.41433(11)
H47 H 1.60290 -0.19830 0.40820
H48 H 1.82270 -0.12150 0.38350
C36 C 1.9158(6) -0.1640(3) 0.45300(11)
H49 H 2.05400 -0.09580 0.46000
H50 H 1.83510 -0.17620 0.48350
C37 C 2.0078(6) -0.2732(3) 0.44020(11)
H51 H 1.87100 -0.34230 0.43410
H52 H 2.08690 -0.26220 0.40950
C38 C 2.1815(6) -0.2999(3) 0.47945(12)
H53 H 2.10130 -0.31110 0.51000
H54 H 2.31670 -0.23000 0.48570
C39 C 2.2795(7) -0.4080(3) 0.46783(15)
H55 H 2.14800 -0.47840 0.46250
H56 H 2.38990 -0.41860 0.49530
H57 H 2.36420 -0.39710 0.43820
#END
