
#######################################################################
#
#                 Cambridge Crystallographic Data Centre
#                                CCDC
#
#######################################################################
#
# If this CIF has been generated from an entry in the Cambridge
# Structural Database, then it will include bibliographic, chemical,
# crystal, experimental, refinement or atomic coordinate data resulting
# from the CCDC's data processing and validation procedures.
#
#######################################################################

data_CSD_CIF_ALUNIF
_audit_creation_date 2011-05-25
_audit_creation_method CSD-ConQuest-V1
_database_code_CSD ALUNIF
_database_code_depnum_ccdc_archive 'CCDC 700851'
_chemical_formula_sum 'C17 H18 N4 O7'
_chemical_formula_moiety
;
C17 H18 N4 O7
;
_journal_coden_Cambridge 1003
_journal_volume 41
_journal_year 2011
_journal_page_first 204
_journal_name_full 'J.Chem.Cryst. '
loop_
_publ_author_name
"O.Renaudet"
"C.Philouze"
"C.Bailly"
"A.Durif"
"P.Dumy"
_chemical_name_systematic
;
2-((7-Azido-4-(hydroxymethyl)-2,2-dimethyltetrahydro-4H-[1,3]dioxolo[4,5-c]pyr
an-6-yl)oxy)-1H-isoindole-1,3(2H)-dione
;
_chemical_name_common
;
2-azido-2-deoxy-3,4-O-isopropylidene-alpha-D-galactopyranosyl-N-oxyphthalimide
;
_cell_volume   1870.301
_exptl_crystal_colour 'colorless'
_exptl_crystal_density_diffrn 1.386
_exptl_crystal_description 'needle'
_diffrn_ambient_temperature 293
#These two values have been output from a single CSD field.
_refine_ls_R_factor_gt 0.0615
_refine_ls_wR_factor_gt 0.0615
_symmetry_cell_setting orthorhombic
_symmetry_space_group_name_H-M 'P 21 21 2'
_symmetry_Int_Tables_number 18
loop_
_symmetry_equiv_pos_site_id
_symmetry_equiv_pos_as_xyz
1 x,y,z
2 -x,-y,z
3 1/2+x,1/2-y,-z
4 1/2-x,1/2+y,-z
_cell_length_a 14.039(2)
_cell_length_b 16.574(3)
_cell_length_c 8.038(1)
_cell_angle_alpha 90
_cell_angle_beta 90
_cell_angle_gamma 90
_cell_formula_units_Z 4
loop_
_atom_type_symbol
_atom_type_radius_bond
C 0.68
H 0.23
N 0.68
O 0.68
loop_
_atom_site_label
_atom_site_type_symbol
_atom_site_fract_x
_atom_site_fract_y
_atom_site_fract_z
O1 O 0.7179(2) 0.4263(2) 0.9932(3)
O2 O 0.5939(2) 0.2340(1) 1.2771(4)
O3 O 0.6320(3) 0.1393(2) 1.0915(4)
O4 O 0.6466(2) 0.3022(1) 0.9417(3)
O5 O 0.7335(4) 0.2340(3) 0.6413(4)
O6 O 0.5984(2) 0.5583(2) 1.0628(3)
O7 O 0.7279(2) 0.4111(2) 0.6381(4)
N1 N 0.6664(2) 0.4700(2) 0.8777(4)
N2 N 0.8153(3) 0.3397(2) 1.2067(5)
N3 N 0.8496(4) 0.4037(3) 1.2488(7)
N4 N 0.8866(5) 0.4619(4) 1.280(1)
C1 C 0.6598(3) 0.3615(2) 1.0605(5)
C2 C 0.7123(3) 0.3334(2) 1.2172(5)
C3 C 0.6917(3) 0.2452(2) 1.2481(5)
C4 C 0.7107(3) 0.1927(3) 1.0972(5)
C5 C 0.7182(3) 0.2404(3) 0.9389(5)
C6 C 0.7043(4) 0.1913(3) 0.7826(6)
C7 C 0.6150(3) 0.5386(2) 0.9194(4)
C8 C 0.5888(3) 0.5757(2) 0.7624(4)
C9 C 0.5358(2) 0.6436(2) 0.7334(5)
C10 C 0.5220(3) 0.6662(2) 0.5662(5)
C11 C 0.5624(3) 0.6215(3) 0.4405(6)
C12 C 0.6146(3) 0.5529(2) 0.4702(4)
C13 C 0.6280(2) 0.5303(2) 0.6337(4)
C14 C 0.6800(3) 0.4626(2) 0.7043(5)
C15 C 0.5709(4) 0.1548(2) 1.2263(6)
C16 C 0.4715(5) 0.1523(4) 1.166(1)
C17 C 0.5921(4) 0.0943(3) 1.3639(7)
H1 H 0.71130 0.29970 0.64070
H2 H 0.59950 0.38270 1.09160
H3 H 0.69070 0.36390 1.30970
H4 H 0.72760 0.22640 1.34050
H5 H 0.76760 0.16280 1.11380
H6 H 0.77910 0.26530 0.93480
H7 H 0.74060 0.14310 0.79100
H8 H 0.63870 0.17820 0.77180
H9 H 0.50950 0.67420 0.82220
H10 H 0.48480 0.71240 0.54020
H11 H 0.55380 0.63880 0.32880
H12 H 0.64050 0.52210 0.38140
H13 H 0.44660 0.09940 1.18060
H14 H 0.46980 0.16620 1.05160
H15 H 0.43410 0.18960 1.22780
H16 H 0.60760 0.04360 1.31600
H17 H 0.64430 0.11300 1.42850
H18 H 0.53770 0.08860 1.43310
#END
