
#######################################################################
#
#                 Cambridge Crystallographic Data Centre
#                                CCDC
#
#######################################################################
#
# If this CIF has been generated from an entry in the Cambridge
# Structural Database, then it will include bibliographic, chemical,
# crystal, experimental, refinement or atomic coordinate data resulting
# from the CCDC's data processing and validation procedures.
#
#######################################################################

data_CSD_CIF_ANAXUJ
_audit_creation_date 2011-06-06
_audit_creation_method CSD-ConQuest-V1
_database_code_CSD ANAXUJ
_database_code_depnum_ccdc_archive 'CCDC 774528'
_chemical_formula_sum 'C14 H21 N1 O4'
_chemical_formula_moiety
;
C14 H21 N1 O4
;
_journal_coden_Cambridge 4
_journal_volume 132
_journal_year 2010
_journal_page_first 8876
_journal_name_full 'J.Am.Chem.Soc. '
loop_
_publ_author_name
"G.S.Creech"
"O.Kwon"
_chemical_name_systematic
;
Ethyl 
8-methyl-2,3,5,6,7,9-hexahydro-4H-[1,2]oxazolo[3,2-j][2,1]benzoxazine-2-carbox
ylate
;
_cell_volume   1321.628
_exptl_crystal_colour 'colorless'
_exptl_crystal_density_diffrn 1.343
_exptl_crystal_description 'platelet'
_diffrn_ambient_temperature 100
#These two values have been output from a single CSD field.
_refine_ls_R_factor_gt 0.0384
_refine_ls_wR_factor_gt 0.0384
_symmetry_cell_setting monoclinic
_symmetry_space_group_name_H-M 'P 21/c'
_symmetry_Int_Tables_number 14
loop_
_symmetry_equiv_pos_site_id
_symmetry_equiv_pos_as_xyz
1 x,y,z
2 -x,1/2+y,1/2-z
3 -x,-y,-z
4 x,-1/2-y,-1/2+z
_cell_length_a 7.1535(13)
_cell_length_b 18.602(3)
_cell_length_c 9.9320(17)
_cell_angle_alpha 90
_cell_angle_beta 90.295(2)
_cell_angle_gamma 90
_cell_formula_units_Z 4
loop_
_atom_type_symbol
_atom_type_radius_bond
C 0.68
H 0.23
N 0.68
O 0.68
loop_
_atom_site_label
_atom_site_type_symbol
_atom_site_fract_x
_atom_site_fract_y
_atom_site_fract_z
O1 O 0.12081(12) 0.53452(4) 0.81920(8)
O2 O 0.38515(12) 0.47440(5) 0.86795(8)
O3 O 0.44040(11) 0.37100(4) 1.16361(8)
O4 O 0.59311(13) 0.36401(5) 0.96658(9)
N1 N 0.24782(14) 0.47877(5) 0.76746(10)
C1 C -0.00939(18) 0.54724(7) 0.71327(12)
H1 H 0.05820 0.56450 0.63280
H2 H -0.09790 0.58530 0.74100
C2 C -0.11692(17) 0.48023(6) 0.67774(12)
C3 C -0.04777(16) 0.41641(6) 0.71305(11)
C4 C -0.14463(17) 0.34533(7) 0.69087(12)
H3 H -0.26480 0.35350 0.64340
H4 H -0.17220 0.32300 0.77900
C5 C -0.02312(17) 0.29420(7) 0.60779(13)
H5 H -0.08760 0.24750 0.59690
H6 H -0.00210 0.31480 0.51720
C6 C 0.16339(17) 0.28308(7) 0.67912(13)
H7 H 0.24310 0.25100 0.62430
H8 H 0.14200 0.25940 0.76700
C7 C 0.26403(16) 0.35440(6) 0.70180(12)
H9 H 0.29940 0.37490 0.61350
H10 H 0.38050 0.34550 0.75350
C8 C 0.14381(16) 0.40959(6) 0.77829(11)
C9 C 0.13974(16) 0.39444(7) 0.93120(11)
H11 H 0.02310 0.41270 0.97220
H12 H 0.15140 0.34240 0.95000
C10 C 0.31169(16) 0.43608(6) 0.98364(11)
H13 H 0.27440 0.47070 1.05570
C11 C 0.46721(17) 0.38730(7) 1.03345(12)
C12 C 0.57941(17) 0.32317(7) 1.22222(13)
H14 H 0.70640 0.34310 1.20930
H15 H 0.57340 0.27540 1.17840
C13 C 0.5375(2) 0.31644(8) 1.36967(13)
H16 H 0.55240 0.36340 1.41310
H17 H 0.62400 0.28190 1.41090
H18 H 0.40880 0.29960 1.38120
C14 C -0.29885(18) 0.49342(7) 0.60590(13)
H19 H -0.35500 0.44730 0.58030
H20 H -0.27630 0.52210 0.52490
H21 H -0.38400 0.51940 0.66560
#END
