
#######################################################################
#
#                 Cambridge Crystallographic Data Centre
#                                CCDC
#
#######################################################################
#
# If this CIF has been generated from an entry in the Cambridge
# Structural Database, then it will include bibliographic, chemical,
# crystal, experimental, refinement or atomic coordinate data resulting
# from the CCDC's data processing and validation procedures.
#
#######################################################################

data_CSD_CIF_ANUKOK
_audit_creation_date 2011-06-24
_audit_creation_method CSD-ConQuest-V1
_database_code_CSD ANUKOK
_database_code_depnum_ccdc_archive 'CCDC 789425'
_chemical_formula_sum 'C32 H16 N4 O12'
_chemical_formula_moiety
;
C32 H16 N4 O12
;
_journal_coden_Cambridge 1350
_journal_volume 13
_journal_year 2011
_journal_page_first 3175
_journal_name_full 'CrystEngComm '
loop_
_publ_author_name
"A.Kleyn"
"T.Jacobs"
"L.J.Barbour"
_chemical_name_systematic
;
15,17,32,34-Tetranitro-2,13,19,30-tetraoxaheptacyclo[29.3.1.1^14,18^.0^3,12^.0
^5,10^.0^20,29^.0^22,27^]hexatriaconta-1(35),3,5,7,9,11,14(36),15,17,20,22,24,
26,28,31,33-hexadecaene
;
_cell_volume   1337.754
_exptl_crystal_colour 'yellow'
_exptl_crystal_density_diffrn 1.61
_exptl_crystal_description 'plate'
_diffrn_ambient_temperature 100
#These two values have been output from a single CSD field.
_refine_ls_R_factor_gt 0.0388
_refine_ls_wR_factor_gt 0.0388
_symmetry_cell_setting monoclinic
_symmetry_space_group_name_H-M 'P 21'
_symmetry_Int_Tables_number 4
loop_
_symmetry_equiv_pos_site_id
_symmetry_equiv_pos_as_xyz
1 x,y,z
2 -x,1/2+y,-z
_cell_length_a 10.8413(4)
_cell_length_b 10.7317(3)
_cell_length_c 12.4040(4)
_cell_angle_alpha 90
_cell_angle_beta 112.033(4)
_cell_angle_gamma 90
_cell_formula_units_Z 2
loop_
_atom_type_symbol
_atom_type_radius_bond
C 0.68
H 0.23
N 0.68
O 0.68
loop_
_atom_site_label
_atom_site_type_symbol
_atom_site_fract_x
_atom_site_fract_y
_atom_site_fract_z
O1 O 0.2818(3) 0.3717(3) 0.8462(2)
C1 C 0.4119(4) 0.3235(4) 0.9054(3)
C2 C 0.4886(4) 0.3648(4) 1.0131(3)
H1 H 0.45510 0.42690 1.04940
C3 C 0.6179(4) 0.3163(4) 1.0718(3)
O2 O 0.3088(3) 0.4117(3) 0.2581(2)
C4 C 0.7019(5) 0.3597(4) 1.1838(4)
H2 H 0.67120 0.42170 1.22240
C5 C 0.8272(5) 0.3114(5) 1.2354(4)
H3 H 0.88320 0.33980 1.31040
O3 O 0.4900(3) 0.5050(3) 0.3602(3)
C6 C 0.8741(5) 0.2208(5) 1.1792(4)
H4 H 0.96170 0.18900 1.21650
N1 N 0.1927(3) 0.1197(3) 0.5106(3)
C7 C 0.7964(4) 0.1774(5) 1.0721(4)
H5 H 0.83000 0.11570 1.03540
O4 O 0.0084(3) 0.3215(3) 0.5361(3)
C8 C 0.6661(4) 0.2238(4) 1.0155(3)
N2 N 0.0582(3) 0.3666(3) 0.6346(3)
C9 C 0.5811(4) 0.1801(4) 0.9035(3)
H6 H 0.61070 0.11590 0.86630
C10 C 0.4593(4) 0.2296(4) 0.8506(3)
O5 O 0.3729(3) 0.1864(3) 0.7401(2)
N3 N 0.3993(4) 0.4343(3) 0.3523(3)
C11 C 0.3853(4) 0.2413(4) 0.6466(4)
C12 C 0.2950(4) 0.2137(4) 0.5330(4)
O6 O 0.1222(3) 0.0981(3) 0.4080(2)
C13 C 0.3046(4) 0.2775(4) 0.4402(3)
H7 H 0.24540 0.25690 0.36380
C14 C 0.3973(4) 0.3700(4) 0.4545(3)
O7 O 0.1759(3) 0.0685(3) 0.5918(3)
C15 C 0.4873(4) 0.3997(4) 0.5670(3)
C16 C 0.4818(4) 0.3317(4) 0.6598(3)
H8 H 0.54630 0.34730 0.73530
O8 O 0.5705(3) 0.4991(3) 0.5850(2)
C17 C 0.6492(4) 0.5273(4) 0.7008(3)
C18 C 0.7636(4) 0.4650(4) 0.7589(3)
H9 H 0.79150 0.40060 0.72070
O9 O 0.2226(3) 0.6445(3) 0.3874(3)
C19 C 0.8422(4) 0.4946(4) 0.8760(3)
C20 C 0.9544(4) 0.4272(4) 0.9413(4)
H10 H 0.98260 0.36070 0.90550
C21 C 1.0252(5) 0.4533(5) 1.0553(4)
H11 H 1.10090 0.40460 1.09830
C22 C 0.9856(5) 0.5538(5) 1.1096(4)
H12 H 1.03570 0.57300 1.18890
C23 C 0.8764(4) 0.6226(5) 1.0486(4)
H13 H 0.85080 0.68980 1.08550
C24 C 0.8005(4) 0.5951(4) 0.9308(4)
O10 O 0.2991(3) 0.8013(3) 0.5040(3)
C25 C 0.6823(4) 0.6598(4) 0.8666(3)
H14 H 0.65500 0.72810 0.90100
C26 C 0.6069(4) 0.6249(4) 0.7558(3)
O11 O 0.4852(3) 0.6858(3) 0.6936(2)
C27 C 0.3764(4) 0.6158(4) 0.6847(3)
O12 O 0.0233(3) 0.3392(3) 0.7146(3)
C28 C 0.2653(4) 0.6153(4) 0.5814(3)
C29 C 0.1614(4) 0.5346(4) 0.5666(3)
H15 H 0.08710 0.53290 0.49490
C30 C 0.1654(4) 0.4562(4) 0.6559(3)
C31 C 0.2726(4) 0.4573(4) 0.7605(3)
C32 C 0.3776(4) 0.5384(4) 0.7752(3)
H16 H 0.45090 0.54100 0.84760
N4 N 0.2636(4) 0.6927(4) 0.4850(3)
#END
