
#######################################################################
#
#                 Cambridge Crystallographic Data Centre
#                                CCDC
#
#######################################################################
#
# If this CIF has been generated from an entry in the Cambridge
# Structural Database, then it will include bibliographic, chemical,
# crystal, experimental, refinement or atomic coordinate data resulting
# from the CCDC's data processing and validation procedures.
#
#######################################################################

data_CSD_CIF_ANUXUD
_audit_creation_date 2011-06-29
_audit_creation_method CSD-ConQuest-V1
_database_code_CSD ANUXUD
_database_code_depnum_ccdc_archive 'CCDC 822385'
_chemical_formula_sum 'C25 H27 N1 O6'
_chemical_formula_moiety
;
C25 H27 N1 O6
;
_journal_coden_Cambridge 4
_journal_volume 132
_journal_year 2010
_journal_page_first 13608
_journal_name_full 'J.Am.Chem.Soc. '
loop_
_publ_author_name
"Lian-Zhu Liu"
"Jin-Chun Han"
"Guo-Zong Yue"
"Chuang-Chuang Li"
"Zhen Yang"
_chemical_name_systematic
;
3,6,10a-Trimethyl-2-oxo-3,4,5,5a,6,7,9,10,10a,10b-decahydro-2H-1-oxabenzo[cd]c
yclopenta[h]azulen-9-yl 4-nitrobenzoate
;
_cell_volume   1129.514
_exptl_crystal_density_diffrn 1.286
_diffrn_ambient_temperature 123
#These two values have been output from a single CSD field.
_refine_ls_R_factor_gt 0.0537
_refine_ls_wR_factor_gt 0.0537
_symmetry_cell_setting monoclinic
_symmetry_space_group_name_H-M 'P 21'
_symmetry_Int_Tables_number 4
loop_
_symmetry_equiv_pos_site_id
_symmetry_equiv_pos_as_xyz
1 x,y,z
2 -x,1/2+y,-z
_cell_length_a 10.280(2)
_cell_length_b 10.274(2)
_cell_length_c 10.758(2)
_cell_angle_alpha 90
_cell_angle_beta 96.23(3)
_cell_angle_gamma 90
_cell_formula_units_Z 2
loop_
_atom_type_symbol
_atom_type_radius_bond
C 0.68
H 0.23
N 0.68
O 0.68
loop_
_atom_site_label
_atom_site_type_symbol
_atom_site_fract_x
_atom_site_fract_y
_atom_site_fract_z
C1 C 0.5092(2) 0.8152(2) 0.27554(17)
C2 C 0.4255(2) 0.8208(2) 0.38255(18)
H1 H 0.47440 0.78030 0.45830
C3 C 0.2889(2) 0.7592(2) 0.36000(18)
C4 C 0.2932(2) 0.6303(2) 0.29221(18)
C5 C 0.4073(2) 0.5398(2) 0.3129(2)
H2 H 0.37660 0.44850 0.30570
H3 H 0.45280 0.55260 0.39790
C6 C 0.5026(2) 0.5670(2) 0.2145(2)
H4 H 0.44910 0.56670 0.13110
C7 C 0.5739(2) 0.6981(2) 0.2261(2)
H5 H 0.65680 0.68370 0.28210
C8 C 0.6147(3) 0.7358(3) 0.0944(3)
H6 H 0.66990 0.66570 0.06510
H7 H 0.53500 0.74280 0.03420
C9 C 0.6873(4) 0.8602(3) 0.0961(3)
H8 H 0.71290 0.87670 0.01140
H9 H 0.76860 0.85160 0.15400
C10 C 0.6105(3) 0.9768(3) 0.1359(2)
H10 H 0.54880 1.00510 0.06250
C11 C 0.5312(2) 0.9368(2) 0.23849(19)
C12 C 0.4663(2) 1.0278(2) 0.3179(2)
C13 C 0.7062(3) 1.0881(3) 0.1704(3)
H11 H 0.77300 1.05940 0.23660
H12 H 0.65870 1.16260 0.20000
H13 H 0.74830 1.11370 0.09660
C14 C 0.1888(2) 0.6162(2) 0.2076(2)
H14 H 0.17050 0.54030 0.15830
C15 C 0.1044(2) 0.7351(2) 0.2003(2)
H15 H 0.02300 0.72080 0.24160
C16 C 0.1921(2) 0.8382(2) 0.2689(2)
H16 H 0.14010 0.89890 0.31520
H17 H 0.23940 0.88870 0.20950
C17 C -0.0199(2) 0.7123(2) 0.0015(2)
C18 C -0.0371(2) 0.7600(2) -0.1304(2)
C19 C 0.0455(2) 0.8512(2) -0.1737(2)
H18 H 0.11620 0.88500 -0.11890
C20 C 0.0260(2) 0.8939(3) -0.2968(2)
H19 H 0.08220 0.95690 -0.32750
C21 C -0.0772(2) 0.8422(3) -0.3730(2)
C22 C -0.1618(3) 0.7520(3) -0.3324(2)
H20 H -0.23280 0.71930 -0.38760
C23 C -0.1418(3) 0.7098(3) -0.2100(3)
H21 H -0.19860 0.64700 -0.18010
C24 C 0.5992(3) 0.4538(3) 0.2136(4)
H22 H 0.65170 0.44820 0.29510
H23 H 0.65700 0.46840 0.14820
H24 H 0.55090 0.37230 0.19680
C25 C 0.2338(3) 0.7397(3) 0.4866(2)
H25 H 0.29250 0.68290 0.54010
H26 H 0.14690 0.69960 0.47250
H27 H 0.22690 0.82430 0.52760
N1 N -0.0979(3) 0.8897(3) -0.5030(2)
O1 O 0.40858(16) 0.95859(17) 0.40533(14)
O2 O 0.46038(18) 1.14557(18) 0.31643(19)
O3 O 0.07398(15) 0.77802(16) 0.07068(14)
O4 O -0.08213(18) 0.62490(19) 0.04051(17)
O5 O -0.0298(2) 0.9735(3) -0.53730(19)
O6 O -0.1847(5) 0.8392(6) -0.5727(3)
#END
