
#######################################################################
#
#                 Cambridge Crystallographic Data Centre
#                                CCDC
#
#######################################################################
#
# If this CIF has been generated from an entry in the Cambridge
# Structural Database, then it will include bibliographic, chemical,
# crystal, experimental, refinement or atomic coordinate data resulting
# from the CCDC's data processing and validation procedures.
#
#######################################################################

data_CSD_CIF_AQECII
_audit_creation_date 2004-04-27
_audit_creation_method CSD-ConQuest-V1
_database_code_CSD AQECII
_database_code_depnum_ccdc_archive 'CCDC 228808'
_chemical_formula_sum 'C16 H17 N1 O6'
_chemical_formula_moiety
;
C16 H17 N1 O6
;
_journal_coden_Cambridge 1336
_journal_volume 5
_journal_year 2003
_journal_page_first 4811
_journal_name_full 'Org.Lett. '
loop_
_publ_author_name
"T.K.Hutton"
"K.W.Muir"
"D.J.Procter"
_chemical_name_systematic
;
rel-(1R,4R,5R)-2-(1-methyl-3-oxo-2-oxabicyclo(3.2.0)hept-4-yl)ethyl 
4-nitrobenzoate
;
_chemical_melting_point 403.15
_cell_volume   2984.364
_exptl_crystal_colour 'colorless'
_exptl_crystal_density_diffrn 1.421
_exptl_special_details
;
Melting point range 403.15-406.15K

;
_exptl_crystal_description 'plate'
_diffrn_ambient_temperature 120
#These two values have been output from a single CSD field.
_refine_ls_R_factor_gt 0.0707
_refine_ls_wR_factor_gt 0.0707
_symmetry_cell_setting monoclinic
_symmetry_space_group_name_H-M 'C 2/c'
_symmetry_Int_Tables_number 15
loop_
_symmetry_equiv_pos_site_id
_symmetry_equiv_pos_as_xyz
1 x,y,z
2 1/2+x,1/2+y,z
3 x,-y,1/2+z
4 1/2+x,1/2-y,1/2+z
5 -x,-y,-z
6 -1/2-x,-1/2-y,-z
7 -x,y,-1/2-z
8 -1/2-x,-1/2+y,-1/2-z
_cell_length_a 24.8813(5)
_cell_length_b 6.9879(2)
_cell_length_c 19.7369(6)
_cell_angle_alpha 90
_cell_angle_beta 119.580(1)
_cell_angle_gamma 90
_cell_formula_units_Z 8
loop_
_atom_type_symbol
_atom_type_radius_bond
C 0.68
H 0.23
N 0.68
O 0.68
loop_
_atom_site_label
_atom_site_type_symbol
_atom_site_fract_x
_atom_site_fract_y
_atom_site_fract_z
C1 C 0.13816(14) 0.5915(5) 0.28119(17)
C2 C 0.16964(14) 0.3967(5) 0.29272(17)
H1 H 0.18910 0.37770 0.26110
H2 H 0.14370 0.28880 0.28860
C3 C 0.21489(16) 0.4597(5) 0.37780(19)
H3 H 0.20550 0.40450 0.41580
H4 H 0.25810 0.44100 0.39330
C4 C 0.19289(14) 0.6689(4) 0.35625(17)
H5 H 0.18220 0.73490 0.39180
C5 C 0.22976(15) 0.7881(4) 0.32720(17)
H6 H 0.26220 0.70620 0.32850
C6 C 0.18252(14) 0.8256(5) 0.24245(17)
C7 C 0.07478(15) 0.5908(5) 0.2741(2)
H7 H 0.06240 0.71980 0.27610
H8 H 0.07610 0.51840 0.31620
H9 H 0.04560 0.53360 0.22540
C8 C 0.26014(15) 0.9684(4) 0.37329(18)
H10 H 0.27060 1.05140 0.34210
H11 H 0.23090 1.03600 0.38360
C9 C 0.31761(14) 0.9277(5) 0.44932(18)
H12 H 0.33140 1.04290 0.48080
H13 H 0.30930 0.83060 0.47800
C10 C 0.42062(15) 0.8234(4) 0.49403(17)
C11 C 0.46606(14) 0.7618(4) 0.46984(17)
C12 C 0.44848(15) 0.7230(5) 0.39226(17)
H14 H 0.40730 0.73610 0.35410
C13 C 0.49105(15) 0.6660(5) 0.37166(17)
H15 H 0.47920 0.64070 0.31990
C14 C 0.55235(14) 0.6466(4) 0.42955(17)
C15 C 0.57130(15) 0.6811(4) 0.50750(17)
H16 H 0.61240 0.66510 0.54560
C16 C 0.52778(15) 0.7396(4) 0.52729(17)
H17 H 0.53970 0.76440 0.57910
N1 N 0.59837(13) 0.5894(4) 0.40747(16)
O1 O 0.13436(9) 0.7067(3) 0.21744(11)
O2 O 0.18606(10) 0.9399(4) 0.19908(12)
O3 O 0.3648(1) 0.8614(3) 0.43229(12)
O4 O 0.43208(11) 0.8391(4) 0.56035(12)
O5 O 0.58194(12) 0.5693(4) 0.33794(14)
O6 O 0.65188(11) 0.5642(4) 0.45931(14)
#END
