
#######################################################################
#
#                 Cambridge Crystallographic Data Centre
#                                CCDC
#
#######################################################################
#
# If this CIF has been generated from an entry in the Cambridge
# Structural Database, then it will include bibliographic, chemical,
# crystal, experimental, refinement or atomic coordinate data resulting
# from the CCDC's data processing and validation procedures.
#
#######################################################################

data_CSD_CIF_ARADAZ
_audit_creation_date 2011-08-02
_audit_creation_method CSD-ConQuest-V1
_database_code_CSD ARADAZ
_database_code_depnum_ccdc_archive 'CCDC 750311'
_chemical_formula_sum 'C16 H11 N1 O3'
_chemical_formula_moiety
;
C16 H11 N1 O3
;
_journal_coden_Cambridge 1220
_journal_volume 16
_journal_year 2010
_journal_page_first 5454
_journal_name_full 'Chem.-Eur.J. '
loop_
_publ_author_name
"Hongchao Zheng"
"R.McDonald"
"D.G.Hall"
_chemical_name_systematic
;
3,5-Diphenyl-1,2-oxazole-4-carboxylic acid
;
_cell_volume   1232.915
_exptl_crystal_colour 'yellow'
_exptl_crystal_density_diffrn 1.429
_exptl_crystal_description 'plate'
_diffrn_ambient_temperature 173
_refine_special_details
;
The structure is disordered by symmetry.

;
#These two values have been output from a single CSD field.
_refine_ls_R_factor_gt 0.05
_refine_ls_wR_factor_gt 0.05
_symmetry_cell_setting orthorhombic
_symmetry_space_group_name_H-M 'C m c 21'
_symmetry_Int_Tables_number 36
loop_
_symmetry_equiv_pos_site_id
_symmetry_equiv_pos_as_xyz
1 x,y,z
2 -x,-y,1/2+z
3 x,-y,1/2+z
4 -x,y,z
5 1/2+x,1/2+y,z
6 1/2-x,1/2-y,1/2+z
7 1/2+x,1/2-y,1/2+z
8 1/2-x,1/2+y,z
_cell_length_a 25.542(5)
_cell_length_b 6.8130(12)
_cell_length_c 7.0850(13)
_cell_angle_alpha 90
_cell_angle_beta 90
_cell_angle_gamma 90
_cell_formula_units_Z 4
loop_
_atom_type_symbol
_atom_type_radius_bond
C 0.68
H 0.23
N 0.68
O 0.68
loop_
_atom_site_label
_atom_site_type_symbol
_atom_site_fract_x
_atom_site_fract_y
_atom_site_fract_z
O1 O 0.54307(8) 0.2473(3) -0.1480(4)
H1? H 0.53810 0.26330 -0.26410
O2 O 0.47206(8) 0.2658(3) 0.4434(3)
N1? N 0.47206(8) 0.2658(3) 0.4434(3)
C1 C 0.50000 0.2433(4) -0.0643(6)
C2 C 0.50000 0.2407(4) 0.1442(5)
C3 C 0.45665(12) 0.2511(3) 0.2659(4)
C4 C 0.39966(10) 0.2500(2) 0.2352(4)
C5 C 0.37609(9) 0.1109(3) 0.1176(4)
H2 H 0.39710 0.01620 0.05480
C6 C 0.32253(10) 0.1103(3) 0.0919(4)
H3 H 0.30690 0.01560 0.01110
C7 C 0.29131(10) 0.2473(3) 0.1836(4)
H4 H 0.25450 0.24760 0.16490
C8 C 0.31442(10) 0.3839(3) 0.3028(4)
H5 H 0.29320 0.47690 0.36690
C9 C 0.36801(9) 0.3858(3) 0.3293(4)
H6 H 0.38340 0.47960 0.41150
O1C O 0.45693(8) 0.2473(3) -0.1480(4)
O2C O 0.52794(8) 0.2658(3) 0.4434(3)
C3C C 0.54335(12) 0.2511(3) 0.2659(4)
C4C C 0.60034(10) 0.2500(2) 0.2352(4)
C5C C 0.62391(9) 0.1109(3) 0.1176(4)
H2C H 0.60290 0.01620 0.05480
C6C C 0.67747(10) 0.1103(3) 0.0919(4)
H3C H 0.69310 0.01560 0.01110
C7C C 0.70869(10) 0.2473(3) 0.1836(4)
H4C H 0.74550 0.24760 0.16490
C8C C 0.68558(10) 0.3839(3) 0.3028(4)
H5C H 0.70680 0.47690 0.36690
C9C C 0.63199(9) 0.3858(3) 0.3293(4)
H6C H 0.61660 0.47960 0.41150
#END
