
#######################################################################
#
#                 Cambridge Crystallographic Data Centre
#                                CCDC
#
#######################################################################
#
# If this CIF has been generated from an entry in the Cambridge
# Structural Database, then it will include bibliographic, chemical,
# crystal, experimental, refinement or atomic coordinate data resulting
# from the CCDC's data processing and validation procedures.
#
#######################################################################

data_CSD_CIF_AYAHUE
_audit_creation_date 2011-10-03
_audit_creation_method CSD-ConQuest-V1
_database_code_CSD AYAHUE
_database_code_depnum_ccdc_archive 'CCDC 813528'
_chemical_formula_sum 'C7 H16 N4 O6'
_chemical_formula_moiety
;
C7 H16 N4 O6
;
_journal_coden_Cambridge 95
_journal_year 2010
_journal_page_first 1875
_journal_name_full 'Izv.Akad.Nauk SSSR,Ser.Khim.(Russ.)(Russ.Chem.Bull.) '
loop_
_publ_author_name
"I.N.Zyuzin"
"N.I.Golovina"
"D.B.Lempert"
"G.V.Shilov"
_chemical_name_systematic
;
3-Ethoxy-2,2-bis(N-oxy-N'-methoxydiazenyl)propan-1-ol
;
_chemical_melting_point 392.25
_cell_volume   1270.670
_exptl_crystal_density_diffrn 1.319
_exptl_special_details
;
Melting point range 392.25-394.85K

;
_exptl_crystal_preparation 'diethyl ether'
_diffrn_ambient_temperature 295
#These two values have been output from a single CSD field.
_refine_ls_R_factor_gt 0.0593
_refine_ls_wR_factor_gt 0.0593
_symmetry_cell_setting monoclinic
_symmetry_space_group_name_H-M 'P 21/n'
_symmetry_Int_Tables_number 14
loop_
_symmetry_equiv_pos_site_id
_symmetry_equiv_pos_as_xyz
1 x,y,z
2 1/2-x,1/2+y,1/2-z
3 -x,-y,-z
4 -1/2+x,-1/2-y,-1/2+z
_cell_length_a 8.382(1)
_cell_length_b 11.061(1)
_cell_length_c 13.910(2)
_cell_angle_alpha 90
_cell_angle_beta 99.84(1)
_cell_angle_gamma 90
_cell_formula_units_Z 4
loop_
_atom_type_symbol
_atom_type_radius_bond
C 0.68
H 0.23
N 0.68
O 0.68
loop_
_atom_site_label
_atom_site_type_symbol
_atom_site_fract_x
_atom_site_fract_y
_atom_site_fract_z
O1 O 0.0347(4) 0.0440(3) 0.4034(2)
O2 O -0.2589(4) 0.1085(3) 0.0289(2)
O3 O 0.0539(4) -0.0683(3) 0.1081(2)
O4 O -0.0759(5) -0.1342(3) 0.3072(2)
N1 N -0.0904(5) -0.0969(3) 0.1097(2)
C1 C -0.1841(5) -0.0188(4) 0.1689(3)
N2 N -0.0419(5) 0.0690(3) 0.3105(3)
N3 N -0.0930(5) -0.0300(3) 0.2700(3)
O5 O -0.0701(5) -0.2418(3) 0.0110(2)
C2 C 0.0927(7) 0.1559(4) 0.4491(4)
N4 N -0.1684(5) -0.1835(3) 0.0639(3)
C3 C -0.1822(6) 0.1111(4) 0.1285(3)
O6 O -0.4233(4) 0.0047(4) 0.2327(3)
C4 C -0.3542(6) -0.0693(5) 0.1679(4)
C5 C -0.1546(11) -0.3465(7) -0.0338(7)
C6 C -0.5844(9) 0.0380(11) 0.1990(7)
C7 C -0.6482(9) 0.1175(9) 0.2646(6)
H1 H -0.245(3) 0.163(2) 0.168(2)
H2 H -0.0672(14) 0.139(3) 0.135(2)
H3 H 0.145(6) 0.135(4) 0.5171(14)
H4 H -0.641(6) -0.042(3) 0.197(5)
H5 H -0.353(6) -0.1572(11) 0.185(3)
H6 H 0.167(5) 0.187(4) 0.406(3)
H7 H -0.182(6) -0.400(4) 0.019(3)
H8 H -0.414(5) -0.061(4) 0.0995(12)
H9 H -0.591(8) 0.083(5) 0.136(3)
H10 H -0.252(3) -0.310(4) -0.075(3)
H11 H -0.073(4) -0.392(4) -0.065(4)
H12 H -0.676(15) 0.200(5) 0.236(5)
H13 H -0.002(4) 0.209(4) 0.455(4)
H14 H -0.186(6) 0.109(8) -0.021(3)
H15 H -0.751(9) 0.088(8) 0.284(7)
H16 H -0.570(7) 0.129(8) 0.327(4)
#END
