
#######################################################################
#
#                 Cambridge Crystallographic Data Centre
#                                CCDC
#
#######################################################################
#
# If this CIF has been generated from an entry in the Cambridge
# Structural Database, then it will include bibliographic, chemical,
# crystal, experimental, refinement or atomic coordinate data resulting
# from the CCDC's data processing and validation procedures.
#
#######################################################################

data_CSD_CIF_AYUYIC
_audit_creation_date 2004-10-19
_audit_creation_method CSD-ConQuest-V1
_database_code_CSD AYUYIC
_database_code_depnum_ccdc_archive 'CCDC 242467'
_chemical_formula_sum 'C18 H19 N4 O2'
_chemical_formula_moiety
;
C18 H19 N4 O2
;
_journal_coden_Cambridge 1278
_journal_volume 108
_journal_year 2004
_journal_page_first 6144
_journal_name_full 'J.Phys.Chem.B '
loop_
_publ_author_name
"H.Nagashima"
"H.Inoue"
"N.Yoshioka"
_chemical_name_systematic
;
2-(Napth[2,3-d]imidazol-2-yl)-4,4,5,5-tetramethyl-4,5-dihydro-1H-imidazolyl-1-
oxyl-3-oxide
;
_chemical_melting_point 502
_cell_volume   1697.643
_exptl_crystal_colour 'dark green'
_exptl_crystal_density_diffrn 1.265
_exptl_special_details
;
Melts with decomposition.

;
_exptl_crystal_description 'needle'
_exptl_crystal_preparation 'dichloromethane/methanol'
_diffrn_ambient_temperature 297.2
#These two values have been output from a single CSD field.
_refine_ls_R_factor_gt 0.041
_refine_ls_wR_factor_gt 0.041
_symmetry_cell_setting orthorhombic
_symmetry_space_group_name_H-M 'P c a 21'
_symmetry_Int_Tables_number 29
loop_
_symmetry_equiv_pos_site_id
_symmetry_equiv_pos_as_xyz
1 x,y,z
2 -x,-y,1/2+z
3 1/2-x,y,1/2+z
4 1/2+x,-y,z
_cell_length_a 13.515(3)
_cell_length_b 11.858(3)
_cell_length_c 10.593(3)
_cell_angle_alpha 90
_cell_angle_beta 90
_cell_angle_gamma 90
_cell_formula_units_Z 4
loop_
_atom_type_symbol
_atom_type_radius_bond
C 0.68
H 0.23
N 0.68
O 0.68
loop_
_atom_site_label
_atom_site_type_symbol
_atom_site_fract_x
_atom_site_fract_y
_atom_site_fract_z
O1 O 0.9059(1) 0.0868(2) 0.4043(2)
O2 O 0.7824(2) -0.0049(2) 0.0113(2)
N1 N 0.8837(2) 0.0323(2) 0.3051(2)
N2 N 0.8231(2) -0.0134(2) 0.1192(2)
N3 N 0.7321(2) 0.2126(2) 0.0934(2)
N4 N 0.7662(2) 0.2418(2) 0.2996(2)
C1 C 0.8273(2) 0.0675(2) 0.2079(2)
C2 C 0.9320(2) -0.0789(2) 0.2732(2)
C3 C 0.8604(2) -0.1236(2) 0.1714(3)
C4 C 0.9397(4) -0.1505(4) 0.3916(4)
C5 C 1.0346(2) -0.0476(4) 0.2228(4)
C6 C 0.7695(3) -0.1833(3) 0.2255(4)
C7 C 0.9065(3) -0.1922(3) 0.0666(4)
C8 C 0.7764(2) 0.1749(2) 0.2017(2)
C9 C 0.6880(2) 0.3148(2) 0.1239(2)
C10 C 0.7102(2) 0.3311(2) 0.2538(2)
C11 C 0.6760(2) 0.4259(2) 0.3151(3)
C12 C 0.6182(2) 0.5037(2) 0.2488(2)
C13 C 0.5953(2) 0.4848(2) 0.1182(2)
C14 C 0.6317(2) 0.3888(2) 0.0557(2)
C15 C 0.5791(2) 0.6017(2) 0.3081(3)
C16 C 0.5189(3) 0.6740(3) 0.2461(3)
C17 C 0.4947(3) 0.6546(3) 0.1191(3)
C18 C 0.5328(2) 0.5650(2) 0.0567(3)
H1 H 0.732(2) 0.182(2) 0.021(3)
H2 H 0.998(3) -0.117(3) 0.449(4)
H3 H 0.964(3) -0.228(4) 0.369(4)
H4 H 0.871(3) -0.146(3) 0.435(4)
H5 H 1.077(3) 0.003(4) 0.281(4)
H6 H 1.028(4) 0.001(5) 0.137(5)
H7 H 1.068(3) -0.119(3) 0.199(4)
H8 H 0.735(2) -0.137(2) 0.305(3)
H9 H 0.791(2) -0.263(2) 0.262(3)
H10 H 0.727(3) -0.201(3) 0.150(4)
H11 H 0.959(2) -0.144(2) 0.025(3)
H12 H 0.849(3) -0.213(3) 0.000(4)
H13 H 0.933(3) -0.252(3) 0.101(4)
H14 H 0.689(2) 0.436(2) 0.402(3)
H15 H 0.619(2) 0.374(2) -0.037(2)
H16 H 0.596(2) 0.617(2) 0.399(3)
H17 H 0.490(2) 0.744(2) 0.292(2)
H18 H 0.451(2) 0.704(2) 0.077(3)
H19 H 0.520(2) 0.545(2) -0.032(3)
#END
