
#######################################################################
#
#                 Cambridge Crystallographic Data Centre
#                                CCDC
#
#######################################################################
#
# If this CIF has been generated from an entry in the Cambridge
# Structural Database, then it will include bibliographic, chemical,
# crystal, experimental, refinement or atomic coordinate data resulting
# from the CCDC's data processing and validation procedures.
#
#######################################################################

data_CSD_CIF_AZACAH
_audit_creation_date 2016-10-27
_audit_creation_method CSD-ConQuest-V1
_database_code_CSD AZACAH
_database_code_depnum_ccdc_archive 'CCDC 995272'
_chemical_formula_sum 'C31 H28 N10 O6'
_chemical_formula_moiety
;
C31 H28 N10 O6
;
_journal_coden_Cambridge 1078
_journal_year 2016
_journal_name_full 'CSD Communication(Private Communication) '
loop_
_publ_author_name
"V.A.Tafeenko"
_chemical_name_systematic
;
methyl 
1,3''-bis(4-methoxybenzyl)-5-methyl-3'-(4-nitrophenyl)-1H,3'H,3''H-4,4':5',4''
-ter-1,2,3-triazole-5''-carboxylate
;
_chemical_melting_point 457
_cell_volume   3088.147
_exptl_crystal_colour 'colorless'
_exptl_crystal_density_diffrn 1.369
_exptl_crystal_description 'prism'
_diffrn_ambient_temperature 295
#These two values have been output from a single CSD field.
_refine_ls_R_factor_gt 0.0386
_refine_ls_wR_factor_gt 0.0386
_symmetry_cell_setting monoclinic
_symmetry_space_group_name_H-M 'P 21/c'
_symmetry_Int_Tables_number 14
loop_
_symmetry_equiv_pos_site_id
_symmetry_equiv_pos_as_xyz
1 x,y,z
2 -x,1/2+y,1/2-z
3 -x,-y,-z
4 x,-1/2-y,-1/2+z
_cell_length_a 18.5256(8)
_cell_length_b 8.0062(2)
_cell_length_c 20.8302(9)
_cell_angle_alpha 90
_cell_angle_beta 91.713(4)
_cell_angle_gamma 90
_cell_formula_units_Z 4
loop_
_atom_type_symbol
_atom_type_radius_bond
C 0.68
H 0.23
N 0.68
O 0.68
loop_
_atom_site_label
_atom_site_type_symbol
_atom_site_fract_x
_atom_site_fract_y
_atom_site_fract_z
O1 O 0.08418(11) -0.3084(2) 0.58998(11)
O2 O 0.00069(11) -0.1660(3) 0.63326(9)
O3 O 0.39599(8) 0.8244(2) 0.44847(8)
O4 O 0.29778(8) 0.7347(2) 0.49649(7)
O5 O 0.60625(8) 0.7116(2) 0.30873(8)
O6 O 0.15367(9) 0.0878(2) 0.17566(8)
N1 N 0.36591(8) 0.2396(2) 0.42354(7)
N2 N 0.35596(8) 0.2313(2) 0.48726(8)
N3 N 0.29367(8) 0.3021(2) 0.49832(8)
N4 N 0.13227(7) 0.38935(19) 0.45937(7)
N5 N 0.07803(8) 0.4986(2) 0.44524(8)
N6 N 0.10517(8) 0.6215(2) 0.41325(8)
N7 N 0.20145(10) 0.7797(2) 0.31558(8)
N8 N 0.25204(12) 0.8859(3) 0.29454(10)
N9 N 0.30391(11) 0.8918(3) 0.33836(10)
N10 N 0.05077(11) -0.1792(3) 0.59767(10)
C1 C 0.30987(9) 0.3168(2) 0.39283(9)
C2 C 0.26449(9) 0.3566(2) 0.44122(9)
C3 C 0.30488(12) 0.3424(3) 0.32243(10)
H1 H 0.33770 0.42900 0.31060
H2 H 0.25650 0.37420 0.31000
H3 H 0.31720 0.24050 0.30110
C4 C 0.19542(9) 0.4447(2) 0.43569(8)
C5 C 0.17690(9) 0.5939(2) 0.40700(9)
C6 C 0.22103(11) 0.7146(2) 0.37363(9)
C7 C 0.28693(11) 0.7909(3) 0.38779(10)
C8 C 0.33425(11) 0.7849(3) 0.44599(10)
C9 C 0.33848(17) 0.7278(5) 0.55658(13)
H4 H 0.36720 0.62800 0.55800
H5 H 0.30590 0.72720 0.59150
H6 H 0.36950 0.82370 0.56020
C10 C 0.13703(12) 0.7433(3) 0.27408(11)
H7 H 0.13380 0.82450 0.23960
H8 H 0.09390 0.75340 0.29910
C11 C 0.14039(12) 0.5710(3) 0.24605(10)
C12 C 0.09476(12) 0.4443(3) 0.26576(11)
H9 H 0.05980 0.46710 0.29560
C13 C 0.10106(13) 0.2856(3) 0.24138(11)
H10 H 0.07040 0.20200 0.25530
C14 C 0.15182(12) 0.2485(3) 0.19689(10)
C15 C 0.19658(12) 0.3742(3) 0.17599(10)
H11 H 0.23070 0.35140 0.14540
C16 C 0.19069(12) 0.5317(3) 0.20031(11)
H12 H 0.22120 0.61500 0.18590
C17 C 0.21243(14) 0.0381(4) 0.13821(13)
H13 H 0.21230 0.10210 0.09920
H14 H 0.20800 -0.07840 0.12800
H15 H 0.25690 0.05710 0.16200
C18 C 0.11462(9) 0.2428(2) 0.49487(8)
C19 C 0.14592(11) 0.0903(3) 0.48221(10)
H16 H 0.18020 0.08140 0.45070
C20 C 0.12613(11) -0.0479(3) 0.51644(11)
H17 H 0.14780 -0.15080 0.50940
C21 C 0.07317(10) -0.0312(3) 0.56169(10)
C22 C 0.04145(10) 0.1193(3) 0.57408(9)
H18 H 0.00610 0.12730 0.60470
C23 C 0.06229(9) 0.2580(3) 0.54098(9)
H19 H 0.04160 0.36140 0.54920
C24 C 0.43297(10) 0.1814(3) 0.39698(11)
H20 H 0.42220 0.10640 0.36140
H21 H 0.46020 0.11940 0.42960
C25 C 0.47831(10) 0.3249(3) 0.37382(10)
C26 C 0.51872(10) 0.3109(3) 0.31934(10)
H22 H 0.51700 0.21210 0.29580
C27 C 0.56118(11) 0.4396(3) 0.29936(10)
H23 H 0.58860 0.42640 0.26300
C28 C 0.56372(10) 0.5887(3) 0.3326(1)
C29 C 0.52311(12) 0.6053(3) 0.38713(11)
H24 H 0.52420 0.70470 0.41030
C30 C 0.48109(11) 0.4736(3) 0.40692(11)
H25 H 0.45400 0.48570 0.44350
C31 C 0.60336(15) 0.8697(3) 0.33892(15)
H26 H 0.55460 0.91070 0.33680
H27 H 0.63430 0.94640 0.31740
H28 H 0.61920 0.85940 0.38300
#END
