
#######################################################################
#
#                 Cambridge Crystallographic Data Centre
#                                CCDC
#
#######################################################################
#
# If this CIF has been generated from an entry in the Cambridge
# Structural Database, then it will include bibliographic, chemical,
# crystal, experimental, refinement or atomic coordinate data resulting
# from the CCDC's data processing and validation procedures.
#
#######################################################################

data_CSD_CIF_AZUVOH
_audit_creation_date 2011-11-21
_audit_creation_method CSD-ConQuest-V1
_database_code_CSD AZUVOH
_database_code_depnum_ccdc_archive 'CCDC 850625'
_chemical_formula_sum 'C13 H9 N3 O5'
_chemical_formula_moiety
;
C13 H9 N3 O5
;
_journal_coeditor_code "IUCr ZL2389"
_journal_coden_Cambridge 1370
_journal_volume 67
_journal_year 2011
_journal_page_first o2735
_journal_name_full 'Acta Crystallogr.,Sect.E:Struct.Rep.Online '
loop_
_publ_author_name
"D.H.Johnston"
"C.R.Taylor"
_chemical_name_systematic
;
4-Nitro-N-(3-nitrophenyl)benzamide
;
_chemical_melting_point 502
_cell_volume    623.209
_exptl_crystal_colour 'colorless'
_exptl_crystal_density_diffrn 1.531
_exptl_crystal_description 'block'
_diffrn_ambient_temperature 200
#These two values have been output from a single CSD field.
_refine_ls_R_factor_gt 0.0339
_refine_ls_wR_factor_gt 0.0339
_symmetry_cell_setting monoclinic
_symmetry_space_group_name_H-M 'P 21'
_symmetry_Int_Tables_number 4
loop_
_symmetry_equiv_pos_site_id
_symmetry_equiv_pos_as_xyz
1 x,y,z
2 -x,1/2+y,-z
_cell_length_a 3.8878(6)
_cell_length_b 21.686(3)
_cell_length_c 7.3919(11)
_cell_angle_alpha 90
_cell_angle_beta 90.294(11)
_cell_angle_gamma 90
_cell_formula_units_Z 2
loop_
_atom_type_symbol
_atom_type_radius_bond
C 0.68
H 0.23
N 0.68
O 0.68
loop_
_atom_site_label
_atom_site_type_symbol
_atom_site_fract_x
_atom_site_fract_y
_atom_site_fract_z
C1 C 0.5757(8) 0.50143(14) 0.7761(4)
C2 C 0.4065(8) 0.55485(16) 0.8360(4)
H1 H 0.37540 0.56160 0.96180
C3 C 0.2833(8) 0.59829(15) 0.7109(4)
H2 H 0.16470 0.63420 0.74990
C4 C 0.3402(8) 0.58731(15) 0.5270(4)
C5 C 0.5099(8) 0.53518(14) 0.4631(4)
H3 H 0.54390 0.52920 0.33720
C6 C 0.6291(8) 0.49190(14) 0.5889(4)
H4 H 0.74620 0.45600 0.54870
N1 N 0.2079(8) 0.63348(12) 0.3938(4)
O1 O 0.3012(8) 0.62833(13) 0.2344(3)
O2 O 0.0141(7) 0.67441(11) 0.4478(3)
C7 C 0.7131(8) 0.45847(15) 0.9221(4)
O3 O 0.7597(8) 0.47773(12) 1.0776(3)
N2 N 0.7873(7) 0.39887(12) 0.8706(3)
H5 H 0.73360 0.38890 0.75850
C8 C 0.9407(8) 0.35147(14) 0.9776(4)
C9 C 1.0551(8) 0.36141(15) 1.1561(4)
H6 H 1.02950 0.40040 1.21330
C10 C 1.2070(8) 0.31193(15) 1.2457(4)
C11 C 1.2552(8) 0.25372(14) 1.1709(4)
H7 H 1.36220 0.22140 1.23710
C12 C 1.1382(9) 0.24514(16) 0.9931(4)
H8 H 1.16540 0.20610 0.93680
C13 C 0.9830(8) 0.29302(14) 0.8981(4)
H9 H 0.90450 0.28620 0.77780
N3 N 1.3347(7) 0.32240(13) 1.4340(3)
O4 O 1.2424(7) 0.36973(11) 1.5145(3)
O5 O 1.5281(7) 0.28377(13) 1.5016(3)
#END
