
#######################################################################
#
#                 Cambridge Crystallographic Data Centre
#                                CCDC
#
#######################################################################
#
# If this CIF has been generated from an entry in the Cambridge
# Structural Database, then it will include bibliographic, chemical,
# crystal, experimental, refinement or atomic coordinate data resulting
# from the CCDC's data processing and validation procedures.
#
#######################################################################

data_CSD_CIF_BABVIM
_audit_creation_date 2015-12-08
_audit_creation_method CSD-ConQuest-V1
_database_code_CSD BABVIM
_database_code_depnum_ccdc_archive 'CCDC 1048681'
_chemical_formula_sum 'C34 H39 N1 O7'
_chemical_formula_moiety
;
C34 H39 N1 O7
;
_journal_coden_Cambridge 4
_journal_volume 137
_journal_year 2015
_journal_page_first 13706
_journal_name_full 'J.Am.Chem.Soc. '
loop_
_publ_author_name
"Liqiang Song"
"Guili Zhu"
"Yongjiang Liu"
"Bo Liu"
"Song Qin"
_chemical_name_systematic
;
13,13-Dimethoxy-5,5,9-trimethyl-14-oxo-15-phenyltetracyclo[10.2.2.0^1,10^.0^4,
9^]hexadec-10-en-6-yl 4-nitrobenzoate
;
_cell_volume   3026.970
_exptl_crystal_colour 'colorless'
_exptl_crystal_density_diffrn 1.259
_diffrn_ambient_temperature 293
#These two values have been output from a single CSD field.
_refine_ls_R_factor_gt 0.0761
_refine_ls_wR_factor_gt 0.0761
_symmetry_cell_setting monoclinic
_symmetry_space_group_name_H-M 'P 21/c'
_symmetry_Int_Tables_number 14
loop_
_symmetry_equiv_pos_site_id
_symmetry_equiv_pos_as_xyz
1 x,y,z
2 -x,1/2+y,1/2-z
3 -x,-y,-z
4 x,-1/2-y,-1/2+z
_cell_length_a 11.7541(7)
_cell_length_b 36.2871(18)
_cell_length_c 7.3993(5)
_cell_angle_alpha 90
_cell_angle_beta 106.438(7)
_cell_angle_gamma 90
_cell_formula_units_Z 4
loop_
_atom_type_symbol
_atom_type_radius_bond
C 0.68
H 0.23
N 0.68
O 0.68
loop_
_atom_site_label
_atom_site_type_symbol
_atom_site_fract_x
_atom_site_fract_y
_atom_site_fract_z
O1 O 0.10372(19) 0.28485(6) -0.3389(3)
O2 O 0.07190(17) 0.34787(6) -0.3089(3)
O3 O 0.6907(2) 0.46438(6) 0.3562(3)
O4 O 0.1663(2) 0.30373(8) 0.0449(3)
O5 O 0.7724(2) 0.48876(7) 0.1426(4)
C1 C 0.5365(2) 0.29298(8) -0.0798(4)
C2 C 0.4026(2) 0.29339(7) -0.1323(3)
H1 H 0.37780 0.26870 -0.10460
C3 C 0.3522(2) 0.32157(7) -0.0094(3)
C4 C 0.2504(2) 0.33129(8) -0.3709(4)
H2 H 0.21520 0.33690 -0.50470
C5 C 0.3079(2) 0.36482(8) -0.2642(4)
H3 H 0.30740 0.38740 -0.32400
C6 C 0.3595(2) 0.36086(7) -0.0805(4)
C7 C 0.1555(2) 0.31899(8) -0.2777(4)
O6 O 1.0377(3) 0.56815(10) 1.0654(5)
N1 N 1.0345(3) 0.57665(10) 0.9052(6)
C8 C 0.6007(2) 0.32143(8) -0.1301(4)
H4 H 0.56020 0.34070 -0.20380
C9 C 0.3429(2) 0.30045(8) -0.3443(4)
H5 H 0.40270 0.30730 -0.40530
H6 H 0.30480 0.27800 -0.40290
C10 C 0.2186(2) 0.31340(8) -0.0657(4)
C11 C 0.4079(3) 0.31570(8) 0.2015(4)
H7 H 0.34430 0.31560 0.26130
H8 H 0.44320 0.29130 0.21850
C12 C 0.8278(3) 0.51181(8) 0.4586(5)
C13 C 0.4088(2) 0.39168(8) 0.0588(4)
C14 C 0.5197(3) 0.37673(8) 0.2068(4)
H9 H 0.57080 0.36850 0.13050
C15 C 0.7617(3) 0.48759(8) 0.2996(5)
C16 C 0.7235(3) 0.32177(10) -0.0729(5)
H10 H 0.76460 0.34150 -0.10500
C17 C 0.8305(3) 0.50441(9) 0.6440(5)
H11 H 0.78670 0.48480 0.67010
C18 C 0.6248(3) 0.43654(8) 0.2253(4)
H12 H 0.67660 0.42700 0.15300
O7 O 1.0906(4) 0.60195(11) 0.8667(5)
C19 C 0.8970(3) 0.52570(9) 0.7896(5)
H13 H 0.89960 0.52050 0.91380
C20 C 0.9595(3) 0.55473(9) 0.7468(5)
C21 C 0.6004(3) 0.26410(9) 0.0236(4)
H14 H 0.56000 0.24440 0.05720
C22 C 0.8901(3) 0.54169(9) 0.4200(5)
H15 H 0.88780 0.54700 0.29620
C23 C 0.9558(3) 0.56361(9) 0.5649(5)
H16 H 0.99680 0.58400 0.53970
C24 C 0.5986(3) 0.40509(9) 0.3454(4)
C25 C 0.7231(3) 0.26406(12) 0.0778(5)
H17 H 0.76430 0.24430 0.14610
C26 C 0.7845(3) 0.29306(12) 0.0311(5)
H18 H 0.86700 0.29320 0.06990
C27 C 0.4471(3) 0.42401(8) -0.0424(5)
H19 H 0.49450 0.41470 -0.12040
H20 H 0.37690 0.43550 -0.12490
C28 C 0.5181(3) 0.45304(9) 0.0901(5)
H21 H 0.54270 0.47210 0.01740
H22 H 0.46850 0.46440 0.15950
C29 C 0.0427(3) 0.28263(11) -0.5377(5)
H23 H 0.09950 0.28400 -0.60880
H24 H -0.01220 0.30270 -0.57260
H25 H 0.00040 0.25970 -0.56400
C30 C -0.0271(3) 0.34239(12) -0.2350(6)
H26 H -0.06320 0.31900 -0.27670
H27 H -0.08400 0.36170 -0.27890
H28 H -0.00030 0.34280 -0.09980
C31 C 0.7171(4) 0.38610(12) 0.4451(6)
H29 H 0.70350 0.36720 0.52720
H30 H 0.77140 0.40400 0.51760
H31 H 0.75020 0.37530 0.35270
C32 C 0.5435(4) 0.41963(14) 0.4957(6)
H32 H 0.48310 0.43740 0.44020
H33 H 0.60380 0.43110 0.59510
H34 H 0.50900 0.39950 0.54620
C33 C 0.3074(4) 0.40318(13) 0.1422(7)
H35 H 0.23830 0.40940 0.04180
H36 H 0.33180 0.42420 0.22280
H37 H 0.28920 0.38310 0.21390
C34 C 0.4963(4) 0.34133(11) 0.3022(5)
H38 H 0.57080 0.32800 0.34310
H39 H 0.47540 0.34840 0.41510
#END
