
#######################################################################
#
#                 Cambridge Crystallographic Data Centre
#                                CCDC
#
#######################################################################
#
# If this CIF has been generated from an entry in the Cambridge
# Structural Database, then it will include bibliographic, chemical,
# crystal, experimental, refinement or atomic coordinate data resulting
# from the CCDC's data processing and validation procedures.
#
#######################################################################

data_CSD_CIF_BAKMOR
_audit_creation_date 2012-02-16
_audit_creation_method CSD-ConQuest-V1
_database_code_CSD BAKMOR
_database_code_depnum_ccdc_archive 'CCDC 291469'
_chemical_formula_sum 'C17 H20 N2 O3'
_chemical_formula_moiety
;
C17 H20 N2 O3
;
_journal_coden_Cambridge 1003
_journal_volume 42
_journal_year 2012
_journal_page_first 43
_journal_name_full 'J.Chem.Cryst. '
loop_
_publ_author_name
"P.Quadrelli"
"B.Bovio"
"A.Piccanello"
_chemical_name_systematic
;
1-(9-Ethoxy-5-phenyl-3-oxa-4,8-diazatricyclo[5.2.1.0^2,6^]dec-4-en-8-yl)ethano
ne
;
_cell_volume   1567.857
_exptl_crystal_colour 'colorless'
_exptl_crystal_density_diffrn 1.276
_exptl_special_details
;
We calculate 33% void space in the structure

;
_exptl_crystal_description 'needles'
_diffrn_ambient_temperature 293
_refine_special_details
;
Large void space, possible disorder.

;
#These two values have been output from a single CSD field.
_refine_ls_R_factor_gt 0.052
_refine_ls_wR_factor_gt 0.052
_symmetry_cell_setting monoclinic
_symmetry_space_group_name_H-M 'P 21'
_symmetry_Int_Tables_number 4
loop_
_symmetry_equiv_pos_site_id
_symmetry_equiv_pos_as_xyz
1 x,y,z
2 -x,1/2+y,1/2-z
_cell_length_a 11.925(2)
_cell_length_b 8.406(3)
_cell_length_c 15.644(5)
_cell_angle_alpha 90
_cell_angle_beta 91.16(2)
_cell_angle_gamma 90
_cell_formula_units_Z 4
loop_
_atom_type_symbol
_atom_type_radius_bond
C 0.68
H 0.23
N 0.68
O 0.68
loop_
_atom_site_label
_atom_site_type_symbol
_atom_site_fract_x
_atom_site_fract_y
_atom_site_fract_z
C1 C -0.0129(2) 0.2427(2) 0.5574(1)
H1 H -0.025(1) 0.245(2) 0.499(1)
C2 C 0.0659(2) 0.1096(2) 0.5865(1)
H2 H 0.028(1) 0.006(2) 0.586(1)
O1 O 0.1649(1) 0.1002(2) 0.53498(9)
N1 N 0.2599(1) 0.1490(2) 0.5837(1)
C3 C 0.2307(2) 0.1830(2) 0.6594(1)
C4 C 0.1088(1) 0.1639(2) 0.6751(1)
H3 H 0.093(1) 0.095(2) 0.721(1)
C5 C 0.0433(1) 0.3204(2) 0.6867(1)
H4 H 0.069(1) 0.388(2) 0.737(1)
N2 N -0.0751(1) 0.2746(2) 0.69464(9)
C6 C -0.1187(2) 0.2298(2) 0.6100(1)
H5 H -0.149(1) 0.121(2) 0.609(1)
C7 C 0.0419(2) 0.3907(2) 0.5973(1)
H6 H -0.005(1) 0.490(2) 0.593(1)
H7 H 0.118(1) 0.408(2) 0.573(1)
C8 C 0.3125(1) 0.2499(2) 0.7222(1)
C9 C 0.4109(2) 0.3200(3) 0.6952(2)
H8 H 0.431(2) 0.315(3) 0.633(2)
C10 C 0.4833(2) 0.3917(3) 0.7530(2)
H9 H 0.551(2) 0.444(3) 0.734(2)
C11 C 0.4595(2) 0.3912(3) 0.8385(2)
H10 H 0.514(2) 0.443(3) 0.881(1)
C12 C 0.3631(2) 0.3209(3) 0.8664(2)
H11 H 0.344(2) 0.322(3) 0.924(1)
C13 C 0.2890(2) 0.2506(3) 0.8085(1)
H12 H 0.219(2) 0.207(2) 0.828(1)
C14 C -0.1220(1) 0.2426(2) 0.7704(1)
O2 O -0.0683(1) 0.2596(2) 0.83717(7)
C15 C -0.2414(2) 0.1890(4) 0.7699(2)
H13 H -0.277(3) 0.236(4) 0.723(2)
H14 H -0.280(3) 0.230(4) 0.819(2)
H15 H -0.249(3) 0.093(4) 0.755(3)
O3 O -0.2032(1) 0.3393(2) 0.58660(8)
C16 C -0.2756(2) 0.2804(4) 0.5201(2)
H16 H -0.326(3) 0.194(5) 0.543(2)
H17 H -0.228(2) 0.250(3) 0.467(2)
C17 C -0.3615(2) 0.4038(4) 0.5013(2)
H18 H -0.419(2) 0.366(3) 0.454(2)
H19 H -0.400(3) 0.434(4) 0.557(2)
H20 H -0.318(3) 0.509(6) 0.474(3)
#END
