
#######################################################################
#
#                 Cambridge Crystallographic Data Centre
#                                CCDC
#
#######################################################################
#
# If this CIF has been generated from an entry in the Cambridge
# Structural Database, then it will include bibliographic, chemical,
# crystal, experimental, refinement or atomic coordinate data resulting
# from the CCDC's data processing and validation procedures.
#
#######################################################################

data_CSD_CIF_BAMQAJ
_audit_creation_date 2012-04-10
_audit_creation_method CSD-ConQuest-V1
_database_code_CSD BAMQAJ
_database_code_depnum_ccdc_archive 'CCDC 789524'
_chemical_formula_sum 'C18 H24 N4 O4'
_chemical_formula_moiety
;
C18 H24 N4 O4
;
_journal_coden_Cambridge 580
_journal_volume 30
_journal_year 2011
_journal_page_first 3232
_journal_name_full 'Polyhedron '
loop_
_publ_author_name
"E.V.Tretyakov"
"S.E.Tolstikov"
"G.V.Romanenko"
"A.S.Bogomyakov"
"D.V.Stass"
"M.K.Kadirov"
"K.V.Holin"
"O.G.Sinyashin"
"V.I.Ovcharenko"
_chemical_name_systematic
;
2,2'-(Buta-1,3-diyne-1,4-diyl)-bis(4,4,5,5-tetramethyl-4,5-dihydro-1H-imidazol
e-3-oxide-1-oxyl)
;
_cell_volume    947.943
_exptl_crystal_colour 'dark green'
_exptl_crystal_density_diffrn 1.263
_exptl_crystal_description 'needle'
_diffrn_ambient_temperature 296
#These two values have been output from a single CSD field.
_refine_ls_R_factor_gt 0.0531
_refine_ls_wR_factor_gt 0.0531
_symmetry_cell_setting monoclinic
_symmetry_space_group_name_H-M 'P 21/n'
_symmetry_Int_Tables_number 14
loop_
_symmetry_equiv_pos_site_id
_symmetry_equiv_pos_as_xyz
1 x,y,z
2 1/2-x,1/2+y,1/2-z
3 -x,-y,-z
4 -1/2+x,-1/2-y,-1/2+z
_cell_length_a 6.170(1)
_cell_length_b 13.290(2)
_cell_length_c 11.7106(18)
_cell_angle_alpha 90
_cell_angle_beta 99.187(2)
_cell_angle_gamma 90
_cell_formula_units_Z 2
loop_
_atom_type_symbol
_atom_type_radius_bond
C 0.68
H 0.23
N 0.68
O 0.68
loop_
_atom_site_label
_atom_site_type_symbol
_atom_site_fract_x
_atom_site_fract_y
_atom_site_fract_z
N1 N 0.0500(2) 0.66865(10) 0.65427(11)
O1 O 0.0742(2) 0.69797(10) 0.55412(10)
C1 C 0.1563(2) 0.72046(12) 0.76291(13)
N2 N -0.0740(2) 0.58531(10) 0.79257(11)
O2 O -0.1871(2) 0.52523(10) 0.84242(10)
C2 C 0.0252(4) 0.81751(15) 0.7679(2)
H1 H 0.043(3) 0.8552(15) 0.6997(18)
H2 H 0.106(3) 0.8570(16) 0.8308(18)
H3 H -0.133(4) 0.8005(17) 0.7828(17)
C3 C 0.3936(3) 0.7434(2) 0.7565(2)
H4 H 0.468(3) 0.6783(16) 0.7344(15)
H5 H 0.407(3) 0.7934(16) 0.6952(17)
H6 H 0.453(3) 0.7745(14) 0.8282(17)
C4 C 0.1188(2) 0.64236(11) 0.85574(13)
C5 C 0.3021(3) 0.56600(17) 0.8844(2)
H7 H 0.425(3) 0.6025(16) 0.9288(18)
H8 H 0.335(3) 0.5378(16) 0.8108(19)
H9 H 0.248(3) 0.5111(17) 0.9371(19)
C6 C 0.0592(4) 0.68515(19) 0.96572(18)
H10 H -0.080(3) 0.7245(15) 0.9485(15)
H11 H 0.040(3) 0.6348(16) 1.0134(18)
H12 H 0.181(3) 0.7335(15) 1.0005(15)
C7 C -0.0955(2) 0.60035(11) 0.67838(13)
C8 C -0.2590(3) 0.55466(12) 0.59804(15)
C9 C -0.4123(3) 0.51970(13) 0.53592(14)
N1B N -1.0500(2) 0.33135(10) 0.34573(11)
O1B O -1.0742(2) 0.30203(10) 0.44588(10)
C1B C -1.1563(2) 0.27954(12) 0.23709(13)
N2B N -0.9260(2) 0.41469(10) 0.20743(11)
O2B O -0.8129(2) 0.47477(10) 0.15758(10)
C2B C -1.0252(4) 0.18249(15) 0.2321(2)
H1B H -1.043(3) 0.1448(15) 0.3003(18)
H2B H -1.106(3) 0.1430(16) 0.1692(18)
H3B H -0.867(4) 0.1995(17) 0.2172(17)
C3B C -1.3936(3) 0.2566(2) 0.2435(2)
H4B H -1.468(3) 0.3217(16) 0.2656(15)
H5B H -1.407(3) 0.2066(16) 0.3048(17)
H6B H -1.453(3) 0.2255(14) 0.1718(17)
C4B C -1.1188(2) 0.35764(11) 0.14426(13)
C5B C -1.3021(3) 0.43400(17) 0.1156(2)
H7B H -1.425(3) 0.3975(16) 0.0712(18)
H8B H -1.335(3) 0.4622(16) 0.1892(19)
H9B H -1.248(3) 0.4889(17) 0.0629(19)
C6B C -1.0592(4) 0.31485(19) 0.03428(18)
H10B H -0.920(3) 0.2755(15) 0.0515(15)
H11B H -1.040(3) 0.3652(16) -0.0134(18)
H12B H -1.181(3) 0.2665(15) -0.0005(15)
C7B C -0.9045(2) 0.39965(11) 0.32162(13)
C8B C -0.7410(3) 0.44534(12) 0.40196(15)
C9B C -0.5877(3) 0.48030(13) 0.46408(14)
#END
