
#######################################################################
#
#                 Cambridge Crystallographic Data Centre
#                                CCDC
#
#######################################################################
#
# If this CIF has been generated from an entry in the Cambridge
# Structural Database, then it will include bibliographic, chemical,
# crystal, experimental, refinement or atomic coordinate data resulting
# from the CCDC's data processing and validation procedures.
#
#######################################################################

data_CSD_CIF_BANNEL
_audit_creation_date 2012-03-13
_audit_creation_method CSD-ConQuest-V1
_database_code_CSD BANNEL
_database_code_depnum_ccdc_archive 'CCDC 838434'
_chemical_formula_sum 'C12 H14 N4 O2'
_chemical_formula_moiety
;
C12 H14 N4 O2
;
_journal_coden_Cambridge 10
_journal_volume 94
_journal_year 2011
_journal_page_first 1764
_journal_name_full 'Helv.Chim.Acta '
loop_
_publ_author_name
"G.Mloston"
"A.M.Pieczonka"
"E.Kowalczyk"
"A.Linden"
"H.Heimgartner"
_chemical_name_systematic
;
1-benzyl-5-methyl-3-oxido-1H-imidazole-4-carboxyhydrazide
;
_chemical_melting_point 502
_cell_volume    593.496
_exptl_crystal_colour 'pale yellow'
_exptl_crystal_density_diffrn 1.378
_exptl_crystal_description 'prism'
_diffrn_ambient_temperature 160
#These two values have been output from a single CSD field.
_refine_ls_R_factor_gt 0.0412
_refine_ls_wR_factor_gt 0.0412
_symmetry_cell_setting triclinic
_symmetry_space_group_name_H-M 'P -1'
_symmetry_Int_Tables_number 2
loop_
_symmetry_equiv_pos_site_id
_symmetry_equiv_pos_as_xyz
1 x,y,z
2 -x,-y,-z
_cell_length_a 6.8168(2)
_cell_length_b 7.6666(2)
_cell_length_c 11.7286(4)
_cell_angle_alpha 97.379(3)
_cell_angle_beta 93.255(3)
_cell_angle_gamma 101.516(3)
_cell_formula_units_Z 2
loop_
_atom_type_symbol
_atom_type_radius_bond
C 0.68
H 0.23
N 0.68
O 0.68
loop_
_atom_site_label
_atom_site_type_symbol
_atom_site_fract_x
_atom_site_fract_y
_atom_site_fract_z
O1 O 0.12181(13) 0.86567(11) 0.92095(8)
O2 O 0.50475(13) 1.35446(11) 0.86959(8)
N1 N 0.29770(14) 0.87753(13) 0.87485(8)
N2 N 0.55572(15) 0.80577(13) 0.79536(8)
N3 N 0.22648(15) 1.22560(13) 0.94877(9)
H1 H 0.146(3) 1.121(2) 0.9596(15)
N4 N 0.16327(17) 1.39097(14) 0.97303(9)
H2 H 0.053(2) 1.362(2) 1.0168(14)
H3 H 0.265(3) 1.470(2) 1.0196(15)
C1 C 0.37718(18) 0.73996(16) 0.83513(10)
H4 H 0.31900 0.61640 0.83460
C2 C 0.59085(17) 0.99042(15) 0.81123(10)
C3 C 0.42800(17) 1.03751(15) 0.86074(9)
C4 C 0.69246(19) 0.69583(17) 0.74725(10)
H5 H 0.63580 0.56790 0.75220
H6 H 0.82290 0.73030 0.79450
C5 C 0.72805(19) 0.71592(16) 0.62297(10)
C6 C 0.9137(3) 0.7108(4) 0.58653(15)
H7 H 1.01910 0.70040 0.64020
C7 C 0.9503(3) 0.7205(5) 0.47189(18)
H8 H 1.07960 0.71410 0.44760
C8 C 0.8017(3) 0.7390(3) 0.39376(14)
H9 H 0.82760 0.74720 0.31570
C9 C 0.6166(2) 0.7456(2) 0.42925(13)
H10 H 0.51260 0.75890 0.37570
C10 C 0.5787(2) 0.7330(2) 0.54331(12)
H11 H 0.44820 0.73610 0.56680
C11 C 0.77774(18) 1.10218(17) 0.77822(11)
H12 H 0.89320 1.05160 0.80020
H13 H 0.79550 1.22540 0.81810
H14 H 0.76770 1.10320 0.69460
C12 C 0.38942(17) 1.21913(15) 0.89343(9)
#END
