
#######################################################################
#
#                 Cambridge Crystallographic Data Centre
#                                CCDC
#
#######################################################################
#
# If this CIF has been generated from an entry in the Cambridge
# Structural Database, then it will include bibliographic, chemical,
# crystal, experimental, refinement or atomic coordinate data resulting
# from the CCDC's data processing and validation procedures.
#
#######################################################################

data_CSD_CIF_BANTIU
_audit_creation_date 2003-03-06
_audit_creation_method CSD-ConQuest-V1
_database_code_CSD BANTIU
_database_code_depnum_ccdc_archive 'CCDC 203012'
_chemical_formula_sum 'C13 H16 N2 O4'
_chemical_formula_moiety
;
C13 H16 N2 O4
;
_journal_coeditor_code "IUCr DN6047"
_journal_coden_Cambridge 1370
_journal_volume 59
_journal_year 2003
_journal_page_first o77
_journal_name_full 'Acta Crystallogr.,Sect.E:Struct.Rep.Online '
loop_
_publ_author_name
"L.Andrau"
"J.White"
_chemical_name_systematic
;
N-Methyl-4-piperidyl p-nitrobenzoate
;
_chemical_melting_point 366.15
_cell_volume    664.433
_exptl_crystal_colour 'colorless'
_exptl_crystal_density_diffrn 1.321
_exptl_crystal_description 'plate'
_exptl_crystal_preparation 'pentane'
_diffrn_ambient_temperature 130.0
#These two values have been output from a single CSD field.
_refine_ls_R_factor_gt 0.0413
_refine_ls_wR_factor_gt 0.0413
_symmetry_cell_setting triclinic
_symmetry_space_group_name_H-M 'P -1'
_symmetry_Int_Tables_number 2
loop_
_symmetry_equiv_pos_site_id
_symmetry_equiv_pos_as_xyz
1 x,y,z
2 -x,-y,-z
_cell_length_a 6.3348(8)
_cell_length_b 7.697(1)
_cell_length_c 13.9423(18)
_cell_angle_alpha 99.030(2)
_cell_angle_beta 92.142(2)
_cell_angle_gamma 97.528(3)
_cell_formula_units_Z 2
loop_
_atom_type_symbol
_atom_type_radius_bond
C 0.68
H 0.23
N 0.68
O 0.68
loop_
_atom_site_label
_atom_site_type_symbol
_atom_site_fract_x
_atom_site_fract_y
_atom_site_fract_z
C1 C 0.2048(2) 0.3072(2) 0.66782(10)
H1 H 0.260(2) 0.4324(19) 0.6786(9)
C2 C 0.0202(2) 0.2667(2) 0.59229(10)
H2 H -0.092(2) 0.3469(19) 0.6126(10)
H3 H -0.041(2) 0.1428(19) 0.5912(10)
C3 C 0.0987(2) 0.2894(2) 0.49284(10)
H4 H -0.020(2) 0.2537(18) 0.4443(10)
H5 H 0.151(2) 0.4145(18) 0.4930(9)
C4 C 0.4462(2) 0.2273(2) 0.53698(11)
H6 H 0.510(2) 0.3587(19) 0.5389(10)
H7 H 0.558(2) 0.1508(18) 0.5155(10)
C5 C 0.3794(2) 0.1974(2) 0.63776(11)
H8 H 0.325(2) 0.069(2) 0.637(1)
H9 H 0.505(2) 0.2232(19) 0.684(1)
C6 C 0.3289(3) 0.1980(2) 0.36842(12)
H10 H 0.207(3) 0.155(2) 0.3204(12)
H11 H 0.443(3) 0.125(2) 0.3498(11)
H12 H 0.383(2) 0.325(2) 0.3606(11)
C7 C 0.2210(2) 0.33825(19) 0.84218(10)
C8 C 0.1023(2) 0.28964(18) 0.92706(10)
C9 C -0.1065(2) 0.2015(2) 0.91485(11)
H13 H -0.175(2) 0.167(2) 0.8494(11)
C10 C -0.2151(2) 0.1644(2) 0.99466(11)
H14 H -0.355(3) 0.107(2) 0.9889(12)
C11 C -0.1135(2) 0.21507(19) 1.08604(10)
C12 C 0.0934(2) 0.3020(2) 1.10049(11)
H15 H 0.157(2) 0.337(2) 1.1658(11)
C13 C 0.2006(2) 0.3385(2) 1.02006(11)
H16 H 0.335(2) 0.398(2) 1.0292(10)
N1 N 0.26463(17) 0.17903(15) 0.46569(8)
N2 N -0.2311(2) 0.17568(18) 1.17124(9)
O1 O 0.11629(14) 0.26353(13) 0.75790(7)
O2 O 0.38872(15) 0.43602(14) 0.84938(7)
O3 O -0.40037(18) 0.07581(17) 1.15680(8)
O4 O -0.15396(17) 0.24315(16) 1.25239(7)
#END
