
#######################################################################
#
#                 Cambridge Crystallographic Data Centre
#                                CCDC
#
#######################################################################
#
# If this CIF has been generated from an entry in the Cambridge
# Structural Database, then it will include bibliographic, chemical,
# crystal, experimental, refinement or atomic coordinate data resulting
# from the CCDC's data processing and validation procedures.
#
#######################################################################

data_CSD_CIF_BAQGIL
_audit_creation_date 2012-04-10
_audit_creation_method CSD-ConQuest-V1
_database_code_CSD BAQGIL
_database_code_depnum_ccdc_archive 'CCDC 838179'
_chemical_formula_sum 'C26 H22 N2 O2'
_chemical_formula_moiety
;
C26 H22 N2 O2
;
_journal_coden_Cambridge 1220
_journal_volume 17
_journal_year 2011
_journal_page_first 13409
_journal_name_full 'Chem.-Eur.J. '
loop_
_publ_author_name
"C.C.J.Loh"
"J.Badorrek"
"G.Raabe"
"D.Enders"
_chemical_name_systematic
;
4-Methyl-6-(3-methylphenyl)-12-(nitromethyl)-5,12-dihydrobenzo[4,5]cyclohepta[
1,2-b]indole
;
_cell_volume   1992.830
_exptl_crystal_colour 'colorless'
_exptl_crystal_density_diffrn 1.315
_exptl_crystal_description 'irregular'
_diffrn_ambient_temperature 100
#These two values have been output from a single CSD field.
_refine_ls_R_factor_gt 0.028
_refine_ls_wR_factor_gt 0.028
_symmetry_cell_setting orthorhombic
_symmetry_space_group_name_H-M 'P 21 21 21'
_symmetry_Int_Tables_number 19
loop_
_symmetry_equiv_pos_site_id
_symmetry_equiv_pos_as_xyz
1 x,y,z
2 1/2-x,-y,1/2+z
3 1/2+x,1/2-y,-z
4 -x,1/2+y,1/2-z
_cell_length_a 7.1363(2)
_cell_length_b 11.5141(3)
_cell_length_c 24.2531(7)
_cell_angle_alpha 90
_cell_angle_beta 90
_cell_angle_gamma 90
_cell_formula_units_Z 4
loop_
_atom_type_symbol
_atom_type_radius_bond
C 0.68
H 0.23
N 0.68
O 0.68
loop_
_atom_site_label
_atom_site_type_symbol
_atom_site_fract_x
_atom_site_fract_y
_atom_site_fract_z
C1 C 0.54117(16) 0.92114(11) 0.37067(5)
C2 C 0.51571(16) 0.80422(11) 0.35788(5)
C3 C 1.01461(16) 0.47698(11) 0.29832(5)
C4 C 0.51619(15) 0.65938(10) 0.50211(5)
C5 C 0.58545(16) 0.48535(12) 0.55478(5)
C6 C 0.55188(15) 0.53828(11) 0.50405(5)
C7 C 0.80929(16) 0.43861(11) 0.37883(5)
C8 C 0.88585(18) 0.32697(11) 0.38477(5)
C9 C 0.54291(17) 0.66592(12) 0.60215(5)
C10 C 1.07346(19) 0.55704(13) 0.25289(6)
C11 C 0.87716(15) 0.51118(11) 0.33657(5)
C12 C 0.58110(17) 0.54784(13) 0.60354(5)
C13 C 0.65700(16) 0.61090(11) 0.38363(5)
C14 C 0.44928(16) 0.77460(12) 0.30513(5)
C15 C 0.42814(16) 0.97686(12) 0.28147(5)
C16 C 0.54224(15) 0.46150(11) 0.45332(5)
C17 C 1.08542(17) 0.36566(12) 0.30511(5)
C18 C 0.66817(16) 0.50311(11) 0.40753(5)
C19 C 0.50902(16) 0.72022(11) 0.55229(5)
C20 C 0.54976(16) 0.71272(11) 0.40004(5)
C21 C 0.49637(15) 1.00880(11) 0.33312(5)
C22 C 0.5211(2) 1.13375(12) 0.34883(7)
C23 C 1.02293(18) 0.29271(11) 0.34786(5)
C24 C 0.48756(15) 0.72881(10) 0.45231(5)
C25 C 0.34018(17) 0.45252(12) 0.43126(5)
C26 C 0.40476(17) 0.86115(13) 0.26754(5)
N1 N 0.78201(13) 0.61451(9) 0.33962(4)
N2 N 0.21434(15) 0.4044(1) 0.47523(5)
O1 O 0.24190(15) 0.30431(9) 0.48973(5)
O2 O 0.09462(14) 0.46803(10) 0.49491(4)
H1 H 1.077(2) 0.2182(15) 0.3503(6)
H2 H 0.613(2) 0.4046(16) 0.5560(6)
H3 H 0.485(2) 0.8015(15) 0.5509(6)
H4 H 0.588(2) 0.9412(13) 0.4052(6)
H5 H 0.605(2) 0.5097(13) 0.6384(7)
H6 H 0.542(2) 0.7097(15) 0.6373(7)
H7 H 0.288(2) 0.5297(14) 0.4216(6)
H8 H 0.580(2) 0.3831(14) 0.4638(6)
H9 H 0.842(2) 0.2762(14) 0.4138(7)
H10 H 0.333(2) 0.3960(15) 0.4013(7)
H11 H 0.433(2) 0.6908(16) 0.2952(7)
H12 H 0.970(3) 0.5750(16) 0.2286(8)
H13 H 0.80002 0.67239 0.31950
H14 H 1.119(3) 0.6316(19) 0.2674(8)
H15 H 1.180(2) 0.3401(14) 0.2797(7)
H16 H 1.166(3) 0.5221(18) 0.2307(8)
H17 H 0.420(2) 0.7991(13) 0.4594(6)
H18 H 0.394(2) 1.0377(14) 0.2544(6)
H19 H 0.445(3) 1.186(2) 0.3261(9)
H20 H 0.496(3) 1.145(2) 0.3841(10)
H21 H 0.650(3) 1.161(2) 0.3435(9)
H22 H 0.359(2) 0.8400(16) 0.2316(8)
#END
