
#######################################################################
#
#                 Cambridge Crystallographic Data Centre
#                                CCDC
#
#######################################################################
#
# If this CIF has been generated from an entry in the Cambridge
# Structural Database, then it will include bibliographic, chemical,
# crystal, experimental, refinement or atomic coordinate data resulting
# from the CCDC's data processing and validation procedures.
#
#######################################################################

data_CSD_CIF_BAXVEB
_audit_creation_date 1982-07-05
_audit_creation_method CSD-ConQuest-V1
_database_code_CSD BAXVEB
_chemical_formula_sum 'C6 H8 N2 O2'
_chemical_formula_moiety
;
C6 H8 N2 O2
;
_journal_coeditor_code "IUCr A20853"
_journal_coden_Cambridge 107
_journal_volume 38
_journal_year 1982
_journal_page_first 308
_journal_name_full 'Acta Crystallogr.,Sect.B:Struct.Crystallogr.Cryst.Chem. '
loop_
_publ_author_name
"M.J.Barrow"
_chemical_name_systematic
;
Tetramethylenefurazan-N-oxide
;
_cell_volume   1286.001
_exptl_crystal_colour 'colorless'
_exptl_crystal_density_diffrn 1.45
_diffrn_ambient_temperature 125
_refine_special_details
;
The structure is disordered over 2 configurations of occupancy 0.877, 0.123. 
The atoms O1,O2,N2,N5 are affected.Positions for these atoms of occupancy 
0.877 have been retained.
;
#These two values have been output from a single CSD field.
_refine_ls_R_factor_gt 0.042
_refine_ls_wR_factor_gt 0.042
_symmetry_cell_setting orthorhombic
_symmetry_space_group_name_H-M 'P b c a'
_symmetry_Int_Tables_number 61
loop_
_symmetry_equiv_pos_site_id
_symmetry_equiv_pos_as_xyz
1 x,y,z
2 1/2-x,1/2+y,z
3 x,1/2-y,1/2+z
4 1/2-x,-y,1/2+z
5 -x,-y,-z
6 -1/2+x,-1/2-y,-z
7 -x,-1/2+y,-1/2-z
8 -1/2+x,y,-1/2-z
_cell_length_a 9.54(3)
_cell_length_b 12.61(3)
_cell_length_c 10.69(3)
_cell_angle_alpha 90
_cell_angle_beta 90
_cell_angle_gamma 90
_cell_formula_units_Z 8
loop_
_atom_type_symbol
_atom_type_radius_bond
C 0.68
H 0.23
N 0.68
O 0.68
loop_
_atom_site_label
_atom_site_type_symbol
_atom_site_fract_x
_atom_site_fract_y
_atom_site_fract_z
O1 O 0.28880 0.50690 0.51160
O2 O 0.29890 0.33740 0.59240
N1 N 0.33320 0.39580 0.50560
N2 N 0.33770 0.55750 0.40440
C1 C 0.40510 0.38340 0.40180
C2 C 0.40520 0.48350 0.34250
C3 C 0.47740 0.50230 0.22070
C4 C 0.50040 0.39560 0.15630
C5 C 0.56800 0.31450 0.24400
C6 C 0.47140 0.28470 0.35290
H1 H 0.56700 0.53400 0.23900
H2 H 0.42100 0.54800 0.17100
H3 H 0.56000 0.40700 0.08400
H4 H 0.41300 0.36800 0.12800
H5 H 0.65600 0.34300 0.28100
H6 H 0.59600 0.25500 0.19700
H7 H 0.53000 0.25000 0.42000
H8 H 0.39600 0.23700 0.32500
#END
