
#######################################################################
#
#                 Cambridge Crystallographic Data Centre
#                                CCDC
#
#######################################################################
#
# If this CIF has been generated from an entry in the Cambridge
# Structural Database, then it will include bibliographic, chemical,
# crystal, experimental, refinement or atomic coordinate data resulting
# from the CCDC's data processing and validation procedures.
#
#######################################################################

data_CSD_CIF_BAYZOT
_audit_creation_date 2017-06-07
_audit_creation_method CSD-ConQuest-V1
_database_code_CSD BAYZOT
_database_code_depnum_ccdc_archive 'CCDC 1554752'
_chemical_formula_sum 'C25 H30 N2 O6'
_chemical_formula_moiety
;
C25 H30 N2 O6
;
_journal_coden_Cambridge 1078
_journal_year 2017
_journal_name_full 'CSD Communication(Private Communication) '
loop_
_publ_author_name
"H.Berber"
_chemical_name_systematic
;
3,5-dimethyl-2-(5-methyl-2-isopropylcyclohexyl)phenyl 3,5-dinitrobenzoate
;
_cell_volume   1169.576
_exptl_crystal_colour 'yellow'
_exptl_crystal_density_diffrn 1.291
_exptl_special_details
;
Absolute configuration

;
_exptl_crystal_description 'prismatic'
_diffrn_ambient_temperature 100
#These two values have been output from a single CSD field.
_refine_ls_R_factor_gt 0.0284
_refine_ls_wR_factor_gt 0.0284
_symmetry_cell_setting monoclinic
_symmetry_space_group_name_H-M 'P 21'
_symmetry_Int_Tables_number 4
loop_
_symmetry_equiv_pos_site_id
_symmetry_equiv_pos_as_xyz
1 x,y,z
2 -x,1/2+y,-z
_cell_length_a 11.683(5)
_cell_length_b 7.790(5)
_cell_length_c 12.895(5)
_cell_angle_alpha 90
_cell_angle_beta 94.735(5)
_cell_angle_gamma 90
_cell_formula_units_Z 2
loop_
_atom_type_symbol
_atom_type_radius_bond
C 0.68
H 0.23
N 0.68
O 0.68
loop_
_atom_site_label
_atom_site_type_symbol
_atom_site_fract_x
_atom_site_fract_y
_atom_site_fract_z
O1 O 0.10037(7) 0.40681(11) 0.13944(6)
O2 O 0.47613(8) 0.17142(14) 0.10992(8)
O3 O 0.01951(8) 0.57611(13) 0.01015(7)
N1 N 0.25001(11) 0.40850(16) -0.29745(9)
C1 C 0.28039(11) 0.32617(16) 0.02772(9)
H1 H 0.28780 0.30720 0.09920
O4 O 0.32939(11) 0.36267(17) -0.34663(8)
C2 C 0.05197(10) 0.54071(15) 0.29879(9)
N2 N 0.46823(10) 0.18941(15) 0.01559(9)
O5 O 0.1627(1) 0.47785(16) -0.33518(8)
C3 C 0.17667(10) 0.58974(15) 0.32799(9)
H2 H 0.17720 0.66250 0.39000
C4 C 0.24714(10) 0.42771(16) 0.35986(9)
H3 H 0.20990 0.36750 0.41370
H4 H 0.24770 0.35190 0.30020
C5 C 0.09081(10) 0.47424(16) 0.04275(9)
C6 C 0.35796(11) 0.29809(16) -0.1407(1)
H5 H 0.41590 0.26210 -0.18090
C7 C -0.17795(11) 0.42362(18) 0.25090(11)
O6 O 0.54116(11) 0.14002(18) -0.04058(10)
C8 C 0.17281(11) 0.43477(16) -0.1264(1)
H6 H 0.10820 0.48890 -0.15820
C9 C 0.42849(11) 0.58264(18) 0.32361(10)
H7 H 0.43910 0.51790 0.26080
H8 H 0.50370 0.61700 0.35410
C10 C -0.14552(11) 0.51314(17) 0.34247(10)
H9 H -0.20090 0.53470 0.38860
C11 C -0.03455(11) 0.57127(16) 0.36771(10)
C12 C 0.18412(10) 0.40781(16) -0.01918(9)
C13 C 0.35744(11) 0.74250(17) 0.29522(10)
H10 H 0.39640 0.81190 0.24660
H11 H 0.34950 0.81050 0.35720
C14 C 0.01635(10) 0.45233(15) 0.20783(9)
C15 C -0.00815(12) 0.66325(19) 0.46974(10)
H12 H -0.07540 0.66460 0.50770
H13 H 0.01500 0.77900 0.45670
H14 H 0.05280 0.60470 0.50980
C16 C 0.16733(12) 0.84337(18) 0.19755(11)
H15 H 0.09270 0.79750 0.17050
C17 C 0.26020(11) 0.37883(16) -0.18426(9)
C18 C 0.36510(11) 0.27364(16) -0.03413(10)
C19 C 0.43878(12) 0.30192(19) 0.42157(11)
H16 H 0.44320 0.24010 0.35760
H17 H 0.40050 0.23250 0.46960
H18 H 0.51490 0.32870 0.45090
C20 C 0.23799(10) 0.69201(16) 0.24606(10)
H19 H 0.25020 0.61220 0.18930
C21 C 0.37153(11) 0.46798(18) 0.40021(10)
H20 H 0.37000 0.53050 0.46600
C22 C -0.09442(11) 0.39439(17) 0.18263(10)
H21 H -0.11270 0.33630 0.12040
C23 C -0.29899(12) 0.3593(2) 0.22692(13)
H22 H -0.30280 0.29130 0.16470
H23 H -0.35030 0.45530 0.21700
H24 H -0.32090 0.29050 0.28380
C24 C 0.22477(13) 0.9177(2) 0.10541(14)
H25 H 0.17500 1.00130 0.07060
H26 H 0.23960 0.82720 0.05780
H27 H 0.29590 0.97140 0.12990
C25 C 0.14442(15) 0.9836(2) 0.27575(15)
H28 H 0.21610 1.02990 0.30490
H29 H 0.10310 0.93580 0.33030
H30 H 0.09960 1.07320 0.24120
#END
