
#######################################################################
#
#                 Cambridge Crystallographic Data Centre
#                                CCDC
#
#######################################################################
#
# If this CIF has been generated from an entry in the Cambridge
# Structural Database, then it will include bibliographic, chemical,
# crystal, experimental, refinement or atomic coordinate data resulting
# from the CCDC's data processing and validation procedures.
#
#######################################################################

data_CSD_CIF_BCBDNT
_audit_creation_date 1971-12-31
_audit_creation_method CSD-ConQuest-V1
_database_code_CSD BCBDNT
_chemical_formula_sum 'C8 H6 N2 O6'
_chemical_formula_moiety
;
C8 H6 N2 O6
;
_journal_coden_Cambridge 88
_journal_year 1970
_journal_page_first 1551
_journal_name_full 'J.Chem.Soc.B '
loop_
_publ_author_name
"F.H.Allen"
"J.Trotter"
_chemical_name_systematic
;
cis-Benzocyclobutene-1,2-diol dinitrate
;
_chemical_melting_point 383.15
_cell_volume    942.803
_exptl_crystal_density_diffrn 1.593
_diffrn_ambient_temperature ?
_diffrn_special_details
;
The study was carried out at room temperature,in the range 283-303K

;
#These two values have been output from a single CSD field.
_refine_ls_R_factor_gt 0.048
_refine_ls_wR_factor_gt 0.048
_symmetry_cell_setting monoclinic
_symmetry_space_group_name_H-M 'P 21/n'
_symmetry_Int_Tables_number 14
loop_
_symmetry_equiv_pos_site_id
_symmetry_equiv_pos_as_xyz
1 x,y,z
2 1/2-x,1/2+y,1/2-z
3 -x,-y,-z
4 -1/2+x,-1/2-y,-1/2+z
_cell_length_a 7.438(1)
_cell_length_b 15.733(2)
_cell_length_c 8.136(2)
_cell_angle_alpha 90
_cell_angle_beta 98.01(2)
_cell_angle_gamma 90
_cell_formula_units_Z 4
loop_
_atom_type_symbol
_atom_type_radius_bond
C 0.68
H 0.20
N 0.68
O 0.68
loop_
_atom_site_label
_atom_site_type_symbol
_atom_site_fract_x
_atom_site_fract_y
_atom_site_fract_z
C1 C 0.27280 0.16580 0.46520
C2 C 0.48200 0.18160 0.49850
C3 C 0.48870 0.10870 0.61710
C4 C 0.30570 0.09620 0.59410
C5 C 0.22380 0.03070 0.66880
C6 C 0.34170 -0.02080 0.77170
C7 C 0.52720 -0.00860 0.79430
C8 C 0.60800 0.05660 0.71750
H1 H 0.22370 0.14620 0.35380
H2 H 0.54340 0.17760 0.40470
H3 H 0.10580 0.02270 0.65400
H4 H 0.29570 -0.06690 0.82440
H5 H 0.60100 -0.04890 0.86690
H6 H 0.73710 0.06110 0.73050
N1 N -0.00720 0.23550 0.48250
N2 N 0.52210 0.33140 0.48230
O1 O 0.18060 0.24200 0.50900
O2 O -0.07140 0.16760 0.44160
O3 O -0.08100 0.30060 0.50670
O4 O 0.53430 0.25930 0.58650
O5 O 0.48140 0.32030 0.33620
O6 O 0.55530 0.39580 0.55700
#END
