
#######################################################################
#
#                 Cambridge Crystallographic Data Centre
#                                CCDC
#
#######################################################################
#
# If this CIF has been generated from an entry in the Cambridge
# Structural Database, then it will include bibliographic, chemical,
# crystal, experimental, refinement or atomic coordinate data resulting
# from the CCDC's data processing and validation procedures.
#
#######################################################################

data_CSD_CIF_BEGRIO
_audit_creation_date 1982-09-17
_audit_creation_method CSD-ConQuest-V1
_database_code_CSD BEGRIO
_database_code_depnum_ccdc_archive 'CCDC 1107944'
_chemical_formula_sum 'C21 H26 N4 O4'
_chemical_formula_moiety
;
C21 H26 N4 O4
;
_journal_coden_Cambridge 188
_journal_year 1982
_journal_page_first 245
_journal_name_full 'J.Chem.Soc.,Perkin Trans.2 '
loop_
_publ_author_name
"M.A.Russell"
"G.A.Sim"
"D.N.J.White"
_chemical_name_systematic
;
Zerumbone 2,4-dinitrophenylhydrazone
;
_cell_volume   2133.364
_exptl_crystal_density_diffrn 1.24
_diffrn_ambient_temperature ?
_diffrn_special_details
;
The study was carried out at room temperature,in the range 283-303K

;
#These two values have been output from a single CSD field.
_refine_ls_R_factor_gt 0.046
_refine_ls_wR_factor_gt 0.046
_chemical_compound_source
;
Zingiber zerumbet
;
_symmetry_cell_setting monoclinic
_symmetry_space_group_name_H-M 'P 21/c'
_symmetry_Int_Tables_number 14
loop_
_symmetry_equiv_pos_site_id
_symmetry_equiv_pos_as_xyz
1 x,y,z
2 -x,1/2+y,1/2-z
3 -x,-y,-z
4 x,-1/2-y,-1/2+z
_cell_length_a 12.619(2)
_cell_length_b 7.290(3)
_cell_length_c 23.422(3)
_cell_angle_alpha 90
_cell_angle_beta 98.06(1)
_cell_angle_gamma 90
_cell_formula_units_Z 4
loop_
_atom_type_symbol
_atom_type_radius_bond
C 0.68
H 0.23
N 0.68
O 0.68
loop_
_atom_site_label
_atom_site_type_symbol
_atom_site_fract_x
_atom_site_fract_y
_atom_site_fract_z
C1 C 1.14640 0.01660 -0.14870
C2 C 1.11490 -0.05520 -0.20780
C3 C 1.18490 -0.04260 -0.24510
C4 C 1.18140 -0.13350 -0.30250
C5 C 1.29530 -0.19590 -0.31090
C6 C 1.35160 -0.29190 -0.25830
C7 C 1.42920 -0.20470 -0.22360
C8 C 1.47860 -0.26230 -0.16420
C9 C 1.44370 -0.14010 -0.11530
C10 C 1.32340 -0.12280 -0.12820
C11 C 1.26260 0.02340 -0.12660
C12 C 1.00630 -0.14100 -0.22180
C13 C 1.30750 -0.47440 -0.24580
C14 C 1.49840 0.04670 -0.11320
C15 C 1.47340 -0.23800 -0.05730
C16 C 1.04210 0.18380 -0.02930
C17 C 1.07400 0.23010 0.02980
C18 C 1.00490 0.31490 0.06200
C19 C 0.90290 0.35420 0.03720
C20 C 0.86660 0.30610 -0.01970
C21 C 0.93410 0.22300 -0.05200
N1 N 1.07180 0.06130 -0.11890
N2 N 1.10840 0.11030 -0.06270
N3 N 1.18060 0.19200 0.05840
N4 N 0.83340 0.45490 0.07080
O1 O 1.24560 0.11690 0.03170
O2 O 1.20270 0.23290 0.10930
O3 O 0.74760 0.50830 0.04570
O4 O 0.86420 0.48510 0.12170
H1 H 1.25000 0.03000 -0.23300
H2 H 1.12900 -0.24400 -0.30500
H3 H 1.15000 -0.05700 -0.33700
H4 H 1.34300 -0.08300 -0.31800
H5 H 1.28500 -0.28000 -0.34700
H6 H 1.44500 -0.07200 -0.23700
H7 H 1.46000 -0.39800 -0.15200
H8 H 1.55800 -0.25100 -0.16100
H9 H 1.28800 -0.23700 -0.14200
H10 H 1.29000 0.13600 -0.11300
H11 H 0.95400 -0.06600 -0.20800
H12 H 1.01000 -0.27700 -0.20500
H13 H 0.98500 -0.16100 -0.26200
H14 H 1.34400 -0.54600 -0.21400
H15 H 1.23400 -0.46200 -0.23100
H16 H 1.28400 -0.54300 -0.28300
H17 H 1.47800 0.11000 -0.15300
H18 H 1.57100 0.03100 -0.10200
H19 H 1.47000 0.14500 -0.08000
H20 H 1.43600 -0.36500 -0.05900
H21 H 1.44300 -0.15400 -0.02400
H22 H 1.55300 -0.27200 -0.05000
H23 H 1.02800 0.34400 0.10100
H24 H 0.79900 0.33400 -0.03700
H25 H 0.91500 0.18700 -0.09300
H26 H 1.17200 0.08700 -0.04800
#END
