
#######################################################################
#
#                 Cambridge Crystallographic Data Centre
#                                CCDC
#
#######################################################################
#
# If this CIF has been generated from an entry in the Cambridge
# Structural Database, then it will include bibliographic, chemical,
# crystal, experimental, refinement or atomic coordinate data resulting
# from the CCDC's data processing and validation procedures.
#
#######################################################################

data_CSD_CIF_BEJMOV
_audit_creation_date 2017-10-18
_audit_creation_method CSD-ConQuest-V1
_database_code_CSD BEJMOV
_database_code_depnum_ccdc_archive 'CCDC 1488166'
_chemical_formula_sum 'C23 H18 N2 O3'
_chemical_formula_moiety
;
C23 H18 N2 O3
;
_journal_coden_Cambridge 1078
_journal_year 2017
_journal_name_full 'CSD Communication(Private Communication) '
loop_
_publ_author_name
"S.Mahajan"
"Pankaj Chauhan"
"S.Chimni"
_chemical_name_systematic
;
2,3,5-triphenyldihydro-2H-pyrrolo[3,4-d][1,2]oxazole-4,6(3H,5H)-dione
;
_cell_volume   1878.664
_exptl_crystal_colour 'colorless'
_exptl_crystal_density_diffrn 1.31
_exptl_special_details
;
Department of Chemistry, U.G.C. Centre of Advance Studies in Chemistry, Guru 
Nanak Dev University, Amritsar, India
;
_exptl_crystal_description 'Prism'
_diffrn_ambient_temperature 293
#These two values have been output from a single CSD field.
_refine_ls_R_factor_gt 0.042
_refine_ls_wR_factor_gt 0.042
_symmetry_cell_setting orthorhombic
_symmetry_space_group_name_H-M 'P 21 21 21'
_symmetry_Int_Tables_number 19
loop_
_symmetry_equiv_pos_site_id
_symmetry_equiv_pos_as_xyz
1 x,y,z
2 1/2-x,-y,1/2+z
3 1/2+x,1/2-y,-z
4 -x,1/2+y,1/2-z
_cell_length_a 6.857(5)
_cell_length_b 11.112(5)
_cell_length_c 24.656(5)
_cell_angle_alpha 90
_cell_angle_beta 90
_cell_angle_gamma 90
_cell_formula_units_Z 4
loop_
_atom_type_symbol
_atom_type_radius_bond
C 0.68
H 0.23
N 0.68
O 0.68
loop_
_atom_site_label
_atom_site_type_symbol
_atom_site_fract_x
_atom_site_fract_y
_atom_site_fract_z
C1 C 0.4400(2) 0.85031(13) 0.41786(6)
C2 C 0.4907(2) 0.72254(13) 0.40009(6)
H1 H 0.61320 0.69560 0.41660
C3 C 0.3212(2) 0.64547(12) 0.41856(5)
H2 H 0.36240 0.58410 0.44470
C4 C 0.1765(3) 0.73314(12) 0.44327(6)
C5 C 0.2449(3) 0.58850(11) 0.36523(5)
H3 H 0.10200 0.58650 0.36590
C6 C 0.1589(2) 0.95165(11) 0.46218(5)
C7 C 0.2412(2) 1.01405(12) 0.50483(6)
H4 H 0.35930 0.98940 0.51970
C8 C 0.1455(3) 1.11371(13) 0.52508(7)
H5 H 0.19940 1.15670 0.55380
C9 C -0.0290(3) 1.14970(14) 0.50300(7)
H6 H -0.09250 1.21720 0.51670
C10 C -0.1098(3) 1.08634(15) 0.46084(8)
H7 H -0.22820 1.11100 0.44620
C11 C -0.0165(2) 0.98597(13) 0.43995(6)
H8 H -0.07130 0.94270 0.41150
C12 C 0.3224(3) 0.46204(13) 0.35644(6)
C13 C 0.2129(4) 0.36610(15) 0.37506(8)
H9 H 0.09160 0.37990 0.39070
C14 C 0.2831(5) 0.24905(16) 0.37050(9)
H10 H 0.20900 0.18520 0.38350
C15 C 0.4594(5) 0.22744(17) 0.34710(9)
H11 H 0.50590 0.14910 0.34440
C16 C 0.5677(4) 0.32082(18) 0.32769(8)
H12 H 0.68750 0.30600 0.31130
C17 C 0.4995(3) 0.43861(15) 0.33233(7)
H13 H 0.57430 0.50190 0.31900
C18 C 0.1840(2) 0.77164(12) 0.31028(5)
C19 C -0.0119(3) 0.75005(15) 0.29955(7)
H14 H -0.06240 0.67300 0.30380
C20 C -0.1316(3) 0.84209(19) 0.28263(8)
H15 H -0.26230 0.82650 0.27550
C21 C -0.0602(3) 0.95673(17) 0.27609(8)
H16 H -0.14200 1.01880 0.26500
C22 C 0.1340(3) 0.97846(16) 0.28612(7)
H17 H 0.18320 1.05590 0.28180
C23 C 0.2568(3) 0.88707(14) 0.30244(6)
H18 H 0.38850 0.90270 0.30820
N1 N 0.25615(17) 0.84731(9) 0.44148(4)
N2 N 0.3103(2) 0.67285(10) 0.32297(5)
O1 O 0.53604(17) 0.93904(11) 0.41125(6)
O2 O 0.0187(2) 0.70998(10) 0.46150(6)
O3 O 0.49819(16) 0.71322(9) 0.34169(4)
#END
