
#######################################################################
#
#                 Cambridge Crystallographic Data Centre
#                                CCDC
#
#######################################################################
#
# If this CIF has been generated from an entry in the Cambridge
# Structural Database, then it will include bibliographic, chemical,
# crystal, experimental, refinement or atomic coordinate data resulting
# from the CCDC's data processing and validation procedures.
#
#######################################################################

data_CSD_CIF_BELHEF
_audit_creation_date 1982-11-15
_audit_creation_method CSD-ConQuest-V1
_database_code_CSD BELHEF
_database_code_depnum_ccdc_archive 'CCDC 1108393'
_chemical_formula_sum 'C17 H18 N2 O6'
_chemical_formula_moiety
;
C17 H18 N2 O6
;
_journal_coden_Cambridge 151
_journal_volume 25
_journal_year 1982
_journal_page_first 126
_journal_name_full 'J.Med.Chem. '
loop_
_publ_author_name
"R.Fossheim"
"K.Svarteng"
"A.Mostad"
"C.Romming"
"E.Shefter"
"D.J.Triggle"
_chemical_name_systematic
;
dimethyl 2,6-dimethyl-4-(4-nitrophenyl)-1,4-dihydropyridine-3,5-dicarboxylate
;
_cell_volume   1617.945
_diffrn_ambient_temperature 123.15
#These two values have been output from a single CSD field.
_refine_ls_R_factor_gt 0.032
_refine_ls_wR_factor_gt 0.032
_symmetry_cell_setting monoclinic
_symmetry_space_group_name_H-M 'P 21/c'
_symmetry_Int_Tables_number 14
loop_
_symmetry_equiv_pos_site_id
_symmetry_equiv_pos_as_xyz
1 x,y,z
2 -x,1/2+y,1/2-z
3 -x,-y,-z
4 x,-1/2-y,-1/2+z
_cell_length_a 10.495(2)
_cell_length_b 16.000(3)
_cell_length_c 10.702(2)
_cell_angle_alpha 90
_cell_angle_beta 115.80(2)
_cell_angle_gamma 90
_cell_formula_units_Z 4
loop_
_atom_type_symbol
_atom_type_radius_bond
C 0.68
H 0.23
N 0.68
O 0.68
loop_
_atom_site_label
_atom_site_type_symbol
_atom_site_fract_x
_atom_site_fract_y
_atom_site_fract_z
O1 O -0.19123 0.41080 -0.11415
O2 O -0.35398 0.38907 -0.33236
O3 O 0.29747 0.14986 -0.00833
O4 O 0.23181 0.25443 0.09205
O5 O 0.26650 0.58238 -0.40627
O6 O 0.41965 0.59278 -0.18934
N1 N -0.10535 0.18770 -0.35671
N2 N 0.31240 0.56243 -0.28335
C1 C -0.19604 0.24909 -0.35223
C2 C -0.14658 0.30549 -0.24577
C3 C 0.00883 0.30692 -0.14327
C4 C 0.07902 0.22301 -0.13779
C5 C 0.02444 0.16981 -0.24801
C6 C 0.08895 0.37512 -0.18033
C7 C 0.05912 0.39056 -0.31938
C8 C 0.13289 0.45159 -0.35346
C9 C 0.23731 0.49650 -0.24670
C10 C 0.27138 0.48207 -0.10789
C11 C 0.19566 0.42123 -0.07557
C12 C -0.34211 0.24380 -0.47044
C13 C -0.23106 0.37197 -0.22370
C14 C -0.43544 0.45594 -0.31180
C15 C 0.21230 0.20379 -0.01616
C16 C 0.35947 0.24009 0.21704
C17 C 0.08935 0.08957 -0.26574
H1 H -0.13900 0.15200 -0.42800
H2 H -0.01400 0.35900 -0.39500
H3 H 0.34200 0.51400 -0.03900
H4 H -0.41300 0.25300 -0.44100
H5 H -0.35900 0.28700 -0.53600
H6 H -0.38400 0.50800 -0.30100
H7 H 0.36300 0.18300 0.25600
H8 H 0.36500 0.28200 0.28500
H9 H 0.03100 0.06500 -0.39500
H10 H 0.01700 0.32100 -0.05200
H11 H 0.11200 0.46100 -0.44800
H12 H 0.22000 0.41300 0.02300
H13 H -0.35500 0.19100 -0.51500
H14 H -0.44700 0.44400 -0.23300
H15 H -0.51900 0.44500 -0.39500
H16 H 0.43600 0.24800 0.19700
H17 H 0.17900 0.10100 -0.27100
H18 H 0.11400 0.05200 -0.18800
#END
