
#######################################################################
#
#                 Cambridge Crystallographic Data Centre
#                                CCDC
#
#######################################################################
#
# If this CIF has been generated from an entry in the Cambridge
# Structural Database, then it will include bibliographic, chemical,
# crystal, experimental, refinement or atomic coordinate data resulting
# from the CCDC's data processing and validation procedures.
#
#######################################################################

data_CSD_CIF_BEQPIX
_audit_creation_date 2004-09-14
_audit_creation_method CSD-ConQuest-V1
_database_code_CSD BEQPIX
_database_code_depnum_ccdc_archive 'CCDC 221017'
_chemical_formula_sum 'C30 H37 N5 O2'
_chemical_formula_moiety
;
C30 H37 N5 O2
;
_journal_coden_Cambridge 151
_journal_volume 47
_journal_year 2004
_journal_page_first 1939
_journal_name_full 'J.Med.Chem. '
loop_
_publ_author_name
"G.Thoma"
"F.Nuninger"
"M.Schaefer"
"K.G.Akyel"
"R.Albert"
"C.Beerli"
"C.Bruns"
"E.Francotte"
"M.Luyten"
"D.MacKenzie"
"L.Oberer"
"M.B.Streiff"
"T.Wagner"
"H.Walter"
"G.Weckbecker"
"H.-G.Zerwes"
_chemical_name_systematic
;
(4,6-Dimethyl-1-oxypyrimidin-5-yl)-(4-diphenylamino-4'-methyl-(1,4)bipiperidin
yl-1'-yl)methanone
;
_cell_volume   1311.920
_exptl_crystal_colour 'colorless'
_exptl_crystal_density_diffrn 1.265
_exptl_special_details
;
potent inhibitor of chemotaxis of human PBL; antagonist of all CCR5 ligands; 
no inhibitory activity against chemokine receptors CCR1-4, CCR6-7, CXCR1-4 
and CXCR6
;
_exptl_crystal_description 'block'
_exptl_crystal_preparation 'ethyl acetate'
_diffrn_ambient_temperature 100
_refine_special_details
;
An oxygen atom is disordered over two sites with occupancies of 0.893:0.107.

;
#These two values have been output from a single CSD field.
_refine_ls_R_factor_gt 0.0328
_refine_ls_wR_factor_gt 0.0328
_symmetry_cell_setting triclinic
_symmetry_space_group_name_H-M 'P -1'
_symmetry_Int_Tables_number 2
loop_
_symmetry_equiv_pos_site_id
_symmetry_equiv_pos_as_xyz
1 x,y,z
2 -x,-y,-z
_cell_length_a 8.183(2)
_cell_length_b 10.587(2)
_cell_length_c 16.792(3)
_cell_angle_alpha 99.40(1)
_cell_angle_beta 97.45(1)
_cell_angle_gamma 110.97(1)
_cell_formula_units_Z 2
loop_
_atom_type_symbol
_atom_type_radius_bond
C 0.68
H 0.23
N 0.68
O 0.68
loop_
_atom_site_label
_atom_site_type_symbol
_atom_site_fract_x
_atom_site_fract_y
_atom_site_fract_z
O1 O 0.58185(13) 0.83435(11) 0.41371(6)
O2 O 0.18299(15) 0.51531(11) 0.60379(6)
O3? O 0.3553(13) 0.2998(6) 0.3892(5)
N1 N 0.24355(15) 0.52068(12) 0.53612(7)
N2 N 0.31473(16) 0.40212(12) 0.42243(7)
N3 N 0.29628(14) 0.79856(11) 0.35609(7)
N4 N -0.01863(14) 0.88435(11) 0.24159(6)
N5 N -0.30534(15) 0.72879(12) -0.01114(7)
C1 C 0.25969(19) 0.40750(14) 0.49260(8)
H1 H 0.22910 0.32650 0.51430
C2 C 0.36073(18) 0.51737(14) 0.39140(8)
C3 C 0.35147(17) 0.63811(14) 0.43432(8)
C4 C 0.29246(17) 0.64006(13) 0.50802(8)
C5 C 0.41931(18) 0.76796(14) 0.40100(8)
C6 C 0.34997(18) 0.91531(14) 0.31527(8)
H2 H 0.31140 0.87980 0.25480
H3 H 0.48190 0.96290 0.32840
C7 C 0.26692(17) 1.01837(14) 0.34335(8)
H4 H 0.29860 1.09240 0.31220
H5 H 0.31780 1.06230 0.40250
C8 C 0.06146(17) 0.94946(13) 0.33071(8)
C9 C 0.02541(17) 0.83347(14) 0.37882(8)
H6 H 0.07900 0.87530 0.43800
H7 H -0.10520 0.78550 0.37360
C10 C 0.10200(17) 0.72788(14) 0.34775(8)
H8 H 0.07660 0.65530 0.38010
H9 H 0.04540 0.68260 0.28920
C11 C -0.21255(18) 0.80607(14) 0.22457(8)
H10 H -0.27370 0.87150 0.23140
H11 H -0.24310 0.74630 0.26450
C12 C -0.27708(18) 0.71649(14) 0.13735(8)
H12 H -0.40740 0.66190 0.12740
H13 H -0.21640 0.65070 0.13050
C13 C -0.23703(18) 0.80764(14) 0.07536(8)
H14 H -0.30160 0.87130 0.08450
C14 C -0.03823(18) 0.89907(14) 0.09593(8)
H15 H -0.01320 0.96540 0.05950
H16 H 0.03100 0.84030 0.08540
C15 C 0.02198(18) 0.97938(14) 0.18575(8)
H17 H 0.15230 1.03490 0.19760
H18 H -0.03950 1.04410 0.19520
C16 C -0.23331(17) 0.63021(14) -0.04334(8)
C17 C -0.28188(18) 0.50113(14) -0.02341(8)
H19 H -0.35820 0.47910 0.01470
C18 C -0.21936(19) 0.40434(15) -0.05901(9)
H20 H -0.25180 0.31690 -0.04440
C19 C -0.1105(2) 0.43388(16) -0.11540(9)
H21 H -0.07150 0.36600 -0.14100
C20 C -0.0584(2) 0.56338(17) -0.13446(9)
H22 H 0.01870 0.58500 -0.17230
C21 C -0.11864(19) 0.66133(15) -0.09830(9)
H23 H -0.08150 0.75020 -0.11110
C22 C -0.39198(17) 0.77883(14) -0.06899(8)
C23 C -0.50147(18) 0.68655(14) -0.14217(8)
H24 H -0.51250 0.59260 -0.15240
C24 C -0.59404(18) 0.72929(15) -0.20003(8)
H25 H -0.66730 0.66480 -0.24920
C25 C -0.58012(19) 0.86616(15) -0.18632(9)
H26 H -0.64400 0.89580 -0.22560
C26 C -0.47194(19) 0.95832(15) -0.11471(9)
H27 H -0.46120 1.05220 -0.10510
C27 C -0.37828(18) 0.91654(14) -0.05630(8)
H28 H -0.30450 0.98190 -0.00750
C28 C 0.4227(2) 0.50653(16) 0.31165(9)
H29 H 0.55120 0.52710 0.32260
H30 H 0.39930 0.57310 0.28240
H31 H 0.35810 0.41220 0.27760
C29 C 0.27450(19) 0.76008(14) 0.55971(9)
H32 H 0.14810 0.73860 0.56100
H33 H 0.32110 0.84180 0.53640
H34 H 0.34230 0.77920 0.61590
C30 C -0.01164(19) 1.05529(14) 0.36761(9)
H35 H 0.01320 1.13010 0.33780
H36 H 0.04620 1.09420 0.42590
H37 H -0.14100 1.00930 0.36270
#END
