
#######################################################################
#
#                 Cambridge Crystallographic Data Centre
#                                CCDC
#
#######################################################################
#
# If this CIF has been generated from an entry in the Cambridge
# Structural Database, then it will include bibliographic, chemical,
# crystal, experimental, refinement or atomic coordinate data resulting
# from the CCDC's data processing and validation procedures.
#
#######################################################################

data_CSD_CIF_BERLUF
_audit_creation_date 1983-01-18
_audit_creation_method CSD-ConQuest-V1
_database_code_CSD BERLUF
_database_code_depnum_ccdc_archive 'CCDC 1108956'
_chemical_formula_sum 'C6 H10 N2 O4'
_chemical_formula_moiety
;
C6 H10 N2 O4
;
_journal_coden_Cambridge 189
_journal_volume 11
_journal_year 1982
_journal_page_first 35
_journal_name_full 'Cryst.Struct.Commun. '
loop_
_publ_author_name
"V.G.Andrianov"
"Yu.T.Struchkov"
"K.K.Babievsky"
_chemical_name_systematic
;
(E)-Methyl-\b-dimethylamino-\a-nitroacrylate
;
_cell_volume    425.603
_exptl_crystal_density_diffrn 1.36
_diffrn_ambient_temperature 153.15
#These two values have been output from a single CSD field.
_refine_ls_R_factor_gt 0.054
_refine_ls_wR_factor_gt 0.054
_symmetry_cell_setting triclinic
_symmetry_space_group_name_H-M 'P -1'
_symmetry_Int_Tables_number 2
loop_
_symmetry_equiv_pos_site_id
_symmetry_equiv_pos_as_xyz
1 x,y,z
2 -x,-y,-z
_cell_length_a 7.208(2)
_cell_length_b 7.466(2)
_cell_length_c 8.752(2)
_cell_angle_alpha 92.40(2)
_cell_angle_beta 104.02(2)
_cell_angle_gamma 109.92(2)
_cell_formula_units_Z 2
loop_
_atom_type_symbol
_atom_type_radius_bond
C 0.68
N 0.68
O 0.68
loop_
_atom_site_label
_atom_site_type_symbol
_atom_site_fract_x
_atom_site_fract_y
_atom_site_fract_z
C1 C 0.33860 0.25250 0.36450
C2 C 0.37620 0.24080 0.52500
C3 C 0.18380 0.31450 0.25990
C4 C -0.10680 0.22010 0.03500
C5 C 0.07170 0.27780 0.57490
C6 C 0.34720 0.24960 0.79400
N1 N 0.47930 0.22130 0.29010
N2 N 0.26970 0.25480 0.62390
O1 O 0.18110 0.47410 0.27080
O2 O 0.04310 0.17170 0.15230
O3 O 0.61510 0.16460 0.36130
O4 O 0.46480 0.25740 0.15040
#END
