
#######################################################################
#
#                 Cambridge Crystallographic Data Centre
#                                CCDC
#
#######################################################################
#
# If this CIF has been generated from an entry in the Cambridge
# Structural Database, then it will include bibliographic, chemical,
# crystal, experimental, refinement or atomic coordinate data resulting
# from the CCDC's data processing and validation procedures.
#
#######################################################################

data_CSD_CIF_BESHUC
_audit_creation_date 1999-11-19
_audit_creation_method CSD-ConQuest-V1
_database_code_CSD BESHUC
_database_code_depnum_ccdc_archive 'CCDC 135899'
_chemical_formula_sum 'C28 H23 N3 O1'
_chemical_formula_moiety
;
C28 H23 N3 O1
;
_journal_coeditor_code "IUCr TA1252"
_journal_coden_Cambridge 591
_journal_volume 55
_journal_year 1999
_journal_page_first 1579
_journal_name_full 'Acta Crystallogr.,Sect.C:Cryst.Struct.Commun. '
loop_
_publ_author_name
"Jiaxi Xu"
"Sheng Jin"
_chemical_name_systematic
;
1,3a,5-Triphenyl-3a,4,5,6-tetrahydro-(1,2,4)oxadiazolo(4,5-a) 
(1,5)benzodiazepine
;
_chemical_name_common
;
(1,2,4)oxadiazolo(4,5-a)(1,5)benzodiazepine
;
_chemical_melting_point 486
_cell_volume   1109.494
_exptl_crystal_colour 'colorless'
_exptl_crystal_density_diffrn 1.25
_exptl_special_details
;
Melting point range 486-487K
agent with potential central nervous system depressant activity and antiHIV 
activity
;
_exptl_crystal_description 'Block'
_exptl_crystal_preparation 'ethyl acetate'
_diffrn_ambient_temperature ?
_diffrn_special_details
;
The study was carried out at room temperature,in the range 283-303K

;
#These two values have been output from a single CSD field.
_refine_ls_R_factor_gt 0.043
_refine_ls_wR_factor_gt 0.043
_symmetry_cell_setting triclinic
_symmetry_space_group_name_H-M 'P -1'
_symmetry_Int_Tables_number 2
loop_
_symmetry_equiv_pos_site_id
_symmetry_equiv_pos_as_xyz
1 x,y,z
2 -x,-y,-z
_cell_length_a 10.961(2)
_cell_length_b 11.775(2)
_cell_length_c 10.452(2)
_cell_angle_alpha 112.60(3)
_cell_angle_beta 108.47(3)
_cell_angle_gamma 65.02(3)
_cell_formula_units_Z 2
loop_
_atom_type_symbol
_atom_type_radius_bond
C 0.68
H 0.23
N 0.68
O 0.68
loop_
_atom_site_label
_atom_site_type_symbol
_atom_site_fract_x
_atom_site_fract_y
_atom_site_fract_z
O1 O 0.81540(16) 0.18285(14) 0.45992(14)
N1 N 0.48172(18) 0.11765(15) 0.13362(17)
H1 H 0.41710 0.07320 0.05840
N2 N 0.66635(17) 0.24951(15) 0.27383(17)
N3 N 0.8549(2) 0.27292(17) 0.43484(19)
C1 C 0.5229(2) 0.32263(18) 0.26079(19)
C2 C 0.4741(2) 0.45834(19) 0.3182(2)
H2 H 0.53500 0.50270 0.37150
C3 C 0.3344(3) 0.5270(2) 0.2956(3)
H3 H 0.30180 0.61770 0.33260
C4 C 0.2442(3) 0.4616(2) 0.2187(3)
H4 H 0.15070 0.50800 0.20240
C5 C 0.2920(2) 0.3275(2) 0.1660(2)
H5 H 0.23000 0.28380 0.11550
C6 C 0.4310(2) 0.25607(18) 0.18671(19)
C7 C 0.5351(2) 0.04409(19) 0.2402(2)
H6 H 0.59600 -0.04340 0.19740
C8 C 0.6221(2) 0.1081(2) 0.3684(2)
H7 H 0.66950 0.05100 0.42850
H8 H 0.56280 0.18930 0.42140
C9 C 0.7267(2) 0.13701(19) 0.3311(2)
C10 C 0.7644(2) 0.31138(19) 0.3325(2)
C11 C 0.7689(2) 0.4064(2) 0.2769(2)
C12 C 0.7015(3) 0.4132(2) 0.1416(2)
H9 H 0.65250 0.35760 0.08550
C13 C 0.7072(3) 0.5024(2) 0.0901(3)
H10 H 0.66030 0.50770 0.00010
C14 C 0.7809(3) 0.5827(3) 0.1702(3)
H11 H 0.78500 0.64180 0.13430
C15 C 0.8491(4) 0.5764(3) 0.3035(3)
H12 H 0.89960 0.63110 0.35800
C16 C 0.8425(3) 0.4886(3) 0.3572(3)
H13 H 0.88820 0.48520 0.44810
C17 C 0.8177(2) 0.01697(18) 0.2372(2)
C18 C 0.8253(2) 0.0100(2) 0.1048(2)
H14 H 0.77140 0.08040 0.06850
C19 C 0.9122(3) -0.1005(2) 0.0258(3)
H15 H 0.91820 -0.10350 -0.06230
C20 C 0.9902(3) -0.2068(2) 0.0776(3)
H16 H 1.04700 -0.28220 0.02360
C21 C 0.9832(3) -0.2003(2) 0.2094(3)
H17 H 1.03620 -0.27120 0.24500
C22 C 0.8983(2) -0.0899(2) 0.2887(3)
H18 H 0.89470 -0.08650 0.37780
C23 C 0.4217(2) 0.0254(2) 0.2744(2)
C24 C 0.3251(3) 0.1294(3) 0.3500(3)
H19 H 0.33420 0.21160 0.38820
C25 C 0.2152(3) 0.1115(3) 0.3687(3)
H20 H 0.15070 0.18200 0.41850
C26 C 0.2013(3) -0.0074(4) 0.3151(3)
H21 H 0.12650 -0.01820 0.32670
C27 C 0.2973(4) -0.1125(3) 0.2434(3)
H22 H 0.28910 -0.19500 0.20850
C28 C 0.4069(3) -0.0948(3) 0.2232(3)
H23 H 0.47130 -0.16600 0.17390
#END
