
#######################################################################
#
#                 Cambridge Crystallographic Data Centre
#                                CCDC
#
#######################################################################
#
# If this CIF has been generated from an entry in the Cambridge
# Structural Database, then it will include bibliographic, chemical,
# crystal, experimental, refinement or atomic coordinate data resulting
# from the CCDC's data processing and validation procedures.
#
#######################################################################

data_CSD_CIF_BESVEC
_audit_creation_date 2013-05-17
_audit_creation_method CSD-ConQuest-V1
_database_code_CSD BESVEC
_database_code_depnum_ccdc_archive 'CCDC 916422'
_chemical_formula_sum 'C16 H19 N1 O4'
_chemical_formula_moiety
;
C16 H19 N1 O4
;
_journal_coden_Cambridge 35
_journal_volume 78
_journal_year 2013
_journal_page_first 311
_journal_name_full 'J.Org.Chem. '
loop_
_publ_author_name
"Shinn Dee Yeoh"
"C.E.Skene"
"J.M.White"
_chemical_name_systematic
;
6,6-Dimethylbicyclo[3.1.1]hept-2-yl 3-nitrobenzoate
;
_chemical_name_common
;
beta-Nopinyl 3-nitrobenzoate
;
_chemical_melting_point 343.15
_cell_volume    739.910
_exptl_crystal_colour 'colorless'
_exptl_crystal_density_diffrn 1.299
_exptl_special_details
;
Melting point range 343.15-344.15K
Study temperature given as 130 K and 293 K in the CIF
;
_exptl_crystal_description 'block'
_diffrn_ambient_temperature 130
#These two values have been output from a single CSD field.
_refine_ls_R_factor_gt 0.0299
_refine_ls_wR_factor_gt 0.0299
_symmetry_cell_setting monoclinic
_symmetry_space_group_name_H-M 'P 21'
_symmetry_Int_Tables_number 4
loop_
_symmetry_equiv_pos_site_id
_symmetry_equiv_pos_as_xyz
1 x,y,z
2 -x,1/2+y,-z
_cell_length_a 7.2654(6)
_cell_length_b 8.3363(7)
_cell_length_c 12.6898(11)
_cell_angle_alpha 90
_cell_angle_beta 105.698(1)
_cell_angle_gamma 90
_cell_formula_units_Z 2
loop_
_atom_type_symbol
_atom_type_radius_bond
C 0.68
H 0.23
N 0.68
O 0.68
loop_
_atom_site_label
_atom_site_type_symbol
_atom_site_fract_x
_atom_site_fract_y
_atom_site_fract_z
C1 C 0.5231(2) 0.13642(19) 0.77217(12)
H1 H 0.61780 0.07890 0.74420
C2 C 0.5720(2) 0.12212(17) 0.89535(12)
H2 H 0.55010 0.01630 0.92340
C3 C 0.4873(2) 0.2654(2) 0.94361(15)
H3 H 0.47840 0.24850 1.01770
H4 H 0.36820 0.30610 0.89650
C4 C 0.6682(2) 0.36038(18) 0.93614(14)
H5 H 0.71890 0.43670 0.99570
C5 C 0.6334(2) 0.42773(19) 0.82144(15)
H6 H 0.75520 0.44570 0.80560
H7 H 0.56860 0.53020 0.81720
C6 C 0.5115(3) 0.3127(2) 0.73547(15)
H8 H 0.37920 0.34710 0.71810
H9 H 0.55270 0.32040 0.66900
C7 C 0.7740(2) 0.19634(18) 0.94665(12)
C8 C 0.8533(3) 0.1455(2) 1.06589(15)
H10 H 0.75720 0.16060 1.10410
H11 H 0.96330 0.20940 1.09960
H12 H 0.88910 0.03440 1.06890
C9 C 0.9289(2) 0.1712(2) 0.88782(15)
H13 H 0.88120 0.20270 0.81260
H14 H 0.96450 0.06000 0.89150
H15 H 1.03870 0.23500 0.92230
C10 C 0.3159(2) -0.08852(18) 0.71129(12)
C11 C 0.1133(2) -0.13645(18) 0.65970(11)
C12 C 0.0738(2) -0.29941(18) 0.64670(12)
H16 H 0.17050 -0.37520 0.66900
C13 C -0.1130(2) -0.34577(18) 0.59966(12)
C14 C -0.2609(2) -0.2371(2) 0.56486(13)
H17 H -0.38520 -0.27200 0.53340
C15 C -0.2190(2) -0.0755(2) 0.57809(13)
H18 H -0.31620 -0.00030 0.55500
C16 C -0.0336(2) -0.02449(19) 0.62543(12)
H19 H -0.00690 0.08460 0.63440
N1 N -0.15534(18) -0.51784(17) 0.58608(10)
O1 O 0.33145(15) 0.07148(13) 0.72317(9)
O2 O 0.44605(16) -0.18101(13) 0.73849(10)
O3 O -0.31334(16) -0.55865(14) 0.52885(10)
O4 O -0.03085(19) -0.61252(14) 0.63215(11)
#END
