
#######################################################################
#
#                 Cambridge Crystallographic Data Centre
#                                CCDC
#
#######################################################################
#
# If this CIF has been generated from an entry in the Cambridge
# Structural Database, then it will include bibliographic, chemical,
# crystal, experimental, refinement or atomic coordinate data resulting
# from the CCDC's data processing and validation procedures.
#
#######################################################################

data_CSD_CIF_BESWIH
_audit_creation_date 2013-05-17
_audit_creation_method CSD-ConQuest-V1
_database_code_CSD BESWIH
_database_code_depnum_ccdc_archive 'CCDC 916416'
_chemical_formula_sum 'C15 H19 N1 O3'
_chemical_formula_moiety
;
C15 H19 N1 O3
;
_journal_coden_Cambridge 35
_journal_volume 78
_journal_year 2013
_journal_page_first 311
_journal_name_full 'J.Org.Chem. '
loop_
_publ_author_name
"Shinn Dee Yeoh"
"C.E.Skene"
"J.M.White"
_chemical_name_systematic
;
6,6-Dimethylbicyclo[3.1.1]hept-2-yl 4-nitrophenyl ether
;
_chemical_name_common
;
alpha-Nopinyl 4-nitrophenoxide
;
_chemical_melting_point 350.45
_cell_volume   1386.801
_exptl_crystal_colour 'colorless'
_exptl_crystal_density_diffrn 1.252
_exptl_special_details
;
Melting point range 350.45-351.25K

;
_exptl_crystal_description 'block'
_exptl_crystal_preparation 'dichloromethane'
_diffrn_ambient_temperature 130
#These two values have been output from a single CSD field.
_refine_ls_R_factor_gt 0.0378
_refine_ls_wR_factor_gt 0.0378
loop_
_citation_database_id_CSD
_citation_special_details
BESVOM "is a stereoisomer of this entry"
_symmetry_cell_setting orthorhombic
_symmetry_space_group_name_H-M 'P 21 21 21'
_symmetry_Int_Tables_number 19
loop_
_symmetry_equiv_pos_site_id
_symmetry_equiv_pos_as_xyz
1 x,y,z
2 1/2-x,-y,1/2+z
3 -x,1/2+y,1/2-z
4 1/2+x,1/2-y,-z
_cell_length_a 10.2043(6)
_cell_length_b 11.1772(7)
_cell_length_c 12.1590(8)
_cell_angle_alpha 90
_cell_angle_beta 90
_cell_angle_gamma 90
_cell_formula_units_Z 4
loop_
_atom_type_symbol
_atom_type_radius_bond
C 0.68
H 0.23
N 0.68
O 0.68
loop_
_atom_site_label
_atom_site_type_symbol
_atom_site_fract_x
_atom_site_fract_y
_atom_site_fract_z
O1 O 0.88195(9) 0.82217(9) 0.81890(8)
N1 N 1.32536(15) 0.94014(12) 0.57610(11)
O2 O 1.38721(12) 1.03070(12) 0.59719(10)
C1 C 0.84871(13) 0.88019(12) 0.92272(11)
H1 H 0.93190 0.90500 0.95980
C2 C 1.17676(13) 0.98411(13) 0.72846(11)
H2 H 1.23040 1.05060 0.74680
C3 C 1.06673(13) 0.95766(12) 0.79100(11)
H3 H 1.04480 1.00590 0.85260
C4 C 0.98829(12) 0.85962(11) 0.76295(11)
C5 C 1.20758(15) 0.91283(13) 0.63924(12)
C6 C 1.01952(15) 0.79110(12) 0.66998(11)
H4 H 0.96430 0.72660 0.64910
C7 C 0.64774(15) 0.82212(14) 1.04359(12)
H5 H 0.58020 0.76360 1.02060
H6 H 0.65350 0.81980 1.12480
O3 O 1.35847(19) 0.86966(13) 0.50386(13)
C8 C 1.12931(17) 0.81658(12) 0.60890(11)
H7 H 1.15140 0.76910 0.54680
C9 C 0.61792(13) 0.96253(13) 0.88079(12)
C10 C 0.72319(15) 1.03241(14) 1.02129(12)
H8 H 0.78500 1.00980 1.08050
H9 H 0.69880 1.11800 1.02590
C11 C 0.60544(14) 0.94624(13) 1.00799(12)
H10 H 0.52120 0.97500 1.04060
C12 C 0.57982(14) 0.85934(14) 0.80571(12)
H11 H 0.60890 0.87660 0.73050
H12 H 0.48440 0.84940 0.80660
H13 H 0.62160 0.78560 0.83160
C13 C 0.78141(15) 0.78466(14) 0.99448(14)
H14 H 0.84110 0.76350 1.05560
H15 H 0.76830 0.71180 0.94950
C14 C 0.76518(13) 0.99068(12) 0.90477(11)
H16 H 0.80530 1.05390 0.85730
C15 C 0.54767(17) 1.07594(15) 0.84177(15)
H17 H 0.45270 1.06400 0.84610
H18 H 0.57250 1.09300 0.76550
H19 H 0.57290 1.14340 0.88870
#END
