
#######################################################################
#
#                 Cambridge Crystallographic Data Centre
#                                CCDC
#
#######################################################################
#
# If this CIF has been generated from an entry in the Cambridge
# Structural Database, then it will include bibliographic, chemical,
# crystal, experimental, refinement or atomic coordinate data resulting
# from the CCDC's data processing and validation procedures.
#
#######################################################################

data_CSD_CIF_BEVHUH
_audit_creation_date 2013-05-17
_audit_creation_method CSD-ConQuest-V1
_database_code_CSD BEVHUH
_database_code_depnum_ccdc_archive 'CCDC 915878'
_chemical_formula_sum 'C23 H14 N2 O2'
_chemical_formula_moiety
;
C23 H14 N2 O2
;
_journal_coden_Cambridge 1291
_journal_year 2013
_journal_page_first 3059
_journal_name_full 'Eur.J.Org.Chem. '
loop_
_publ_author_name
"Yuan-Hui Zheng"
"Hai-Yan Lu"
"Meng Li"
"Chuan-Feng Chen"
_chemical_name_systematic
;
6-(2-Nitrophenyl)benzo[k]phenanthridine
;
_cell_volume   3375.597
_exptl_crystal_colour 'yellow'
_exptl_crystal_density_diffrn 1.379
_exptl_crystal_description 'block'
_diffrn_ambient_temperature 173
#These two values have been output from a single CSD field.
_refine_ls_R_factor_gt 0.1043
_refine_ls_wR_factor_gt 0.1043
_symmetry_cell_setting orthorhombic
_symmetry_space_group_name_H-M 'P b c a'
_symmetry_Int_Tables_number 61
loop_
_symmetry_equiv_pos_site_id
_symmetry_equiv_pos_as_xyz
1 x,y,z
2 1/2-x,-y,1/2+z
3 -x,1/2+y,1/2-z
4 1/2+x,1/2-y,-z
5 -x,-y,-z
6 -1/2+x,y,-1/2-z
7 x,-1/2-y,-1/2+z
8 -1/2-x,-1/2+y,z
_cell_length_a 13.323(3)
_cell_length_b 13.347(3)
_cell_length_c 18.983(4)
_cell_angle_alpha 90
_cell_angle_beta 90
_cell_angle_gamma 90
_cell_formula_units_Z 8
loop_
_atom_type_symbol
_atom_type_radius_bond
C 0.68
H 0.23
N 0.68
O 0.68
loop_
_atom_site_label
_atom_site_type_symbol
_atom_site_fract_x
_atom_site_fract_y
_atom_site_fract_z
O1 O 0.1276(2) 0.28703(19) 0.40284(14)
O2 O 0.1064(2) 0.39567(19) 0.31968(16)
N1 N 0.13455(19) 0.07871(19) 0.33589(13)
N2 N 0.1517(2) 0.3250(2) 0.34669(16)
C1 C 0.0830(2) 0.0060(2) 0.37253(15)
C2 C -0.0097(3) -0.0246(3) 0.34389(18)
H1 H -0.03120 0.00310 0.30030
C3 C -0.0693(3) -0.0927(3) 0.37708(19)
H2 H -0.13070 -0.11380 0.35640
C4 C -0.0389(3) -0.1310(3) 0.44183(18)
H3 H -0.08140 -0.17630 0.46630
C5 C 0.0505(3) -0.1046(2) 0.47052(17)
H4 H 0.06840 -0.13130 0.51520
C6 C 0.1185(2) -0.0384(2) 0.43605(15)
C7 C 0.2157(2) -0.0065(2) 0.46224(14)
C8 C 0.2678(2) -0.0498(2) 0.52228(15)
C9 C 0.2425(3) -0.1448(3) 0.55210(17)
H5 H 0.19190 -0.18460 0.53070
C10 C 0.2905(3) -0.1794(3) 0.6113(2)
H6 H 0.27070 -0.24150 0.63140
C11 C 0.3681(3) -0.1244(3) 0.64240(19)
H7 H 0.39780 -0.14690 0.68510
C12 C 0.4009(3) -0.0386(3) 0.61115(18)
H8 H 0.45690 -0.00410 0.63050
C13 C 0.3530(2) -0.0001(2) 0.55034(15)
C14 C 0.3910(3) 0.0862(2) 0.51611(18)
H9 H 0.44670 0.12060 0.53600
C15 C 0.3497(2) 0.1207(2) 0.45550(16)
H10 H 0.37950 0.17570 0.43160
C16 C 0.2618(2) 0.0748(2) 0.42767(14)
C17 C 0.2176(2) 0.1124(2) 0.36347(15)
C18 C 0.2726(2) 0.1889(2) 0.32057(16)
C19 C 0.3590(3) 0.1592(3) 0.28466(18)
H11 H 0.38350 0.09300 0.29100
C20 C 0.4102(3) 0.2234(3) 0.24007(19)
H12 H 0.46870 0.20120 0.21610
C21 C 0.3754(3) 0.3198(3) 0.2307(2)
H13 H 0.41070 0.36430 0.20050
C22 C 0.2907(3) 0.3518(2) 0.26440(19)
H14 H 0.26650 0.41800 0.25740
C23 C 0.2404(2) 0.2867(2) 0.30897(16)
#END
