
#######################################################################
#
#                 Cambridge Crystallographic Data Centre
#                                CCDC
#
#######################################################################
#
# If this CIF has been generated from an entry in the Cambridge
# Structural Database, then it will include bibliographic, chemical,
# crystal, experimental, refinement or atomic coordinate data resulting
# from the CCDC's data processing and validation procedures.
#
#######################################################################

data_CSD_CIF_BIHBUS
_audit_creation_date 2018-07-11
_audit_creation_method CSD-ConQuest-V1
_database_code_CSD BIHBUS
_database_code_depnum_ccdc_archive 'CCDC 1559246'
_chemical_formula_sum 'C17 H14 N2 O3'
_chemical_formula_moiety
;
C17 H14 N2 O3
;
_journal_coden_Cambridge 1366
_journal_volume 360
_journal_year 2018
_journal_page_first 2476
_journal_name_full 'Adv.Synth.Catal. '
loop_
_publ_author_name
"Jiyun Sun"
"Guangchen Li"
"Guangtao Zhang"
"Ying Cong"
"Xuechan An"
"D.Zhang-Negrerie"
"Yunfei Du"
_chemical_name_systematic
;
1-methoxy-1'-methyl-3,3'-spirobi[indole]-2,2'(1H,1'H)-dione
;
_cell_volume   1376.507
_exptl_crystal_colour 'colorless'
_exptl_crystal_density_diffrn 1.42
_exptl_crystal_description 'Prism'
_exptl_crystal_preparation 'dichloromethane/PE'
_diffrn_ambient_temperature 128.2
#These two values have been output from a single CSD field.
_refine_ls_R_factor_gt 0.0376
_refine_ls_wR_factor_gt 0.0376
_symmetry_cell_setting monoclinic
_symmetry_space_group_name_H-M 'P 21/n'
_symmetry_Int_Tables_number 14
loop_
_symmetry_equiv_pos_site_id
_symmetry_equiv_pos_as_xyz
1 x,y,z
2 1/2-x,1/2+y,1/2-z
3 -x,-y,-z
4 -1/2+x,-1/2-y,-1/2+z
_cell_length_a 12.747(5)
_cell_length_b 8.312(3)
_cell_length_c 14.009(6)
_cell_angle_alpha 90
_cell_angle_beta 111.970(8)
_cell_angle_gamma 90
_cell_formula_units_Z 4
loop_
_atom_type_symbol
_atom_type_radius_bond
C 0.68
H 0.23
N 0.68
O 0.68
loop_
_atom_site_label
_atom_site_type_symbol
_atom_site_fract_x
_atom_site_fract_y
_atom_site_fract_z
O1 O -0.03456(7) 1.15037(10) 0.15188(7)
O2 O -0.20152(7) 0.91476(11) 0.05482(6)
O3 O -0.04770(7) 1.10669(10) 0.39999(7)
N1 N -0.11846(8) 0.90636(12) 0.15221(7)
N2 N 0.14489(7) 1.11826(11) 0.44087(7)
C1 C 0.04156(8) 0.95908(13) 0.29756(8)
C2 C -0.03957(9) 1.02405(13) 0.19222(8)
C3 C -0.10071(9) 0.76782(13) 0.21337(8)
C4 C -0.00427(8) 0.79234(13) 0.30182(8)
C5 C 0.03229(9) 0.67303(14) 0.37506(8)
H1 H 0.09770 0.68780 0.43570
C6 C -0.02941(10) 0.52952(14) 0.35777(9)
H2 H -0.00470 0.44500 0.40680
C7 C -0.12599(11) 0.50896(14) 0.2702(1)
H3 H -0.16690 0.41090 0.26080
C8 C -0.16462(10) 0.62913(15) 0.19542(9)
H4 H -0.23120 0.61610 0.13560
C9 C 0.03657(9) 1.07001(13) 0.38473(8)
C10 C 0.22118(9) 1.06283(13) 0.39795(8)
C11 C 0.16471(9) 0.96869(13) 0.31195(8)
C12 C 0.22234(10) 0.90123(14) 0.25641(9)
H5 H 0.18410 0.83670 0.19770
C13 C 0.3386(1) 0.92977(15) 0.28829(9)
H6 H 0.37990 0.88460 0.25080
C14 C 0.39381(9) 1.02347(15) 0.37417(9)
H7 H 0.47280 1.04160 0.39450
C15 C 0.33647(9) 1.09196(14) 0.43155(9)
H8 H 0.37460 1.15550 0.49080
C16 C -0.15537(12) 0.86806(18) -0.0197(1)
H9 H -0.21480 0.87190 -0.08870
H10 H -0.12550 0.75830 -0.00510
H11 H -0.09420 0.94190 -0.01640
C17 C 0.17662(10) 1.21832(15) 0.53217(9)
H12 H 0.25070 1.18440 0.58140
H13 H 0.12010 1.20720 0.56370
H14 H 0.18050 1.33100 0.51310
#END
