
#######################################################################
#
#                 Cambridge Crystallographic Data Centre
#                                CCDC
#
#######################################################################
#
# If this CIF has been generated from an entry in the Cambridge
# Structural Database, then it will include bibliographic, chemical,
# crystal, experimental, refinement or atomic coordinate data resulting
# from the CCDC's data processing and validation procedures.
#
#######################################################################

data_CSD_CIF_BIKSOD
_audit_creation_date 1983-03-10
_audit_creation_method CSD-ConQuest-V1
_database_code_CSD BIKSOD
_chemical_formula_sum 'C13 H17 N5 O5'
_chemical_formula_moiety
;
C13 H17 N5 O5
;
_journal_coden_Cambridge 10
_journal_volume 65
_journal_year 1982
_journal_page_first 1454
_journal_name_full 'Helv.Chim.Acta '
loop_
_publ_author_name
"J.-C.Muller"
"H.Ramuz"
"J.Daly"
"P.Schonholzer"
_chemical_name_systematic
;
2,4-bis(Methoxycarbonylamino)-6-(1,2,3,6-tetrahydro-1-pyridyl)-pyrimidine-3-ox
ide
;
_cell_volume    731.279
_exptl_crystal_density_diffrn 1.47
_exptl_special_details
;
structure related to that of hypertensive agent

;
_diffrn_ambient_temperature ?
_diffrn_special_details
;
The study was carried out at room temperature,in the range 283-303K

;
#These two values have been output from a single CSD field.
_refine_ls_R_factor_gt 0.076
_refine_ls_wR_factor_gt 0.076
_symmetry_cell_setting triclinic
_symmetry_space_group_name_H-M 'P -1'
_symmetry_Int_Tables_number 2
loop_
_symmetry_equiv_pos_site_id
_symmetry_equiv_pos_as_xyz
1 x,y,z
2 -x,-y,-z
_cell_length_a 8.019(3)
_cell_length_b 7.537(3)
_cell_length_c 13.285(6)
_cell_angle_alpha 84.48(2)
_cell_angle_beta 73.99(2)
_cell_angle_gamma 71.36(2)
_cell_formula_units_Z 2
loop_
_atom_type_symbol
_atom_type_radius_bond
C 0.68
H 0.23
N 0.68
O 0.68
loop_
_atom_site_label
_atom_site_type_symbol
_atom_site_fract_x
_atom_site_fract_y
_atom_site_fract_z
N1 N 0.64140 0.08510 0.75790
C1 C 0.78720 -0.00140 0.79010
N2 N 0.80320 0.01120 0.88810
C2 C 0.66190 0.13250 0.95660
C3 C 0.50590 0.22600 0.92730
C4 C 0.49620 0.19550 0.82720
N3 N 0.34010 0.27110 0.79570
C5 C 0.17980 0.39910 0.86330
C6 C 0.00870 0.41220 0.83980
C7 C 0.00440 0.34140 0.74980
C8 C 0.16470 0.24320 0.67770
C9 C 0.34030 0.25880 0.68700
N4 N 0.94280 -0.11800 0.72820
C10 C 0.97000 -0.17190 0.62710
O1 O 1.14770 -0.27540 0.59360
C11 C 1.19890 -0.34340 0.48800
O2 O 0.86120 -0.13480 0.57710
N5 N 0.69730 0.14080 1.05130
C12 C 0.56740 0.23250 1.13650
O3 O 0.63950 0.20890 1.21830
C13 C 0.50960 0.29190 1.31390
O4 O 0.41300 0.31700 1.13970
O5 O 0.95520 -0.09070 0.91540
H1 H 0.42930 0.29770 0.97930
H2 H 0.17210 0.35460 0.93870
H3 H 0.19410 0.52740 0.85730
H4 H -0.11190 0.47340 0.89150
H5 H -0.12110 0.37680 0.73390
H6 H 0.15460 0.28640 0.60480
H7 H 0.17560 0.10520 0.68360
H8 H 0.44650 0.17320 0.65740
H9 H 0.36380 0.37300 0.64200
H10 H 1.04040 -0.16690 0.75690
H11 H 1.34150 -0.42490 0.47580
H12 H 1.18590 -0.22920 0.43300
H13 H 1.12320 -0.43270 0.47780
H14 H 0.79500 0.07640 1.05640
H15 H 0.57590 0.26560 1.37720
H16 H 0.40250 0.22540 1.33340
H17 H 0.45070 0.44000 1.30460
#END
