
#######################################################################
#
#                 Cambridge Crystallographic Data Centre
#                                CCDC
#
#######################################################################
#
# If this CIF has been generated from an entry in the Cambridge
# Structural Database, then it will include bibliographic, chemical,
# crystal, experimental, refinement or atomic coordinate data resulting
# from the CCDC's data processing and validation procedures.
#
#######################################################################

data_CSD_CIF_BILDOR
_audit_creation_date 2013-07-16
_audit_creation_method CSD-ConQuest-V1
_database_code_CSD BILDOR
_database_code_depnum_ccdc_archive 'CCDC 950490'
_chemical_formula_sum 'C16 H10 N2 O5'
_chemical_formula_moiety
;
C16 H10 N2 O5
;
_journal_coeditor_code "PS5026"
_journal_coden_Cambridge 1743
_journal_volume 69
_journal_year 2013
_journal_page_first 294
_journal_name_full 'Acta Crystallogr.,Sect.B:Struct.Sci.,Cryst.Eng. and Mat. '
loop_
_publ_author_name
"L.R.Gomes"
"J.N.Low"
"F.Cagide"
"A.Gaspar"
"J.Reis"
"F.Borges"
_chemical_name_systematic
;
N-(2-Nitrophenyl)-4-oxo-4H-chromene-2-carboxamide
;
_cell_volume   1311.983
_exptl_crystal_colour 'yellow'
_exptl_crystal_density_diffrn 1.571
_exptl_crystal_description 'needle'
_diffrn_ambient_temperature 100
#These two values have been output from a single CSD field.
_refine_ls_R_factor_gt 0.0672
_refine_ls_wR_factor_gt 0.0672
_symmetry_cell_setting monoclinic
_symmetry_space_group_name_H-M 'P 21/c'
_symmetry_Int_Tables_number 14
loop_
_symmetry_equiv_pos_site_id
_symmetry_equiv_pos_as_xyz
1 x,y,z
2 -x,1/2+y,1/2-z
3 -x,-y,-z
4 x,-1/2-y,-1/2+z
_cell_length_a 12.3425(10)
_cell_length_b 5.885(4)
_cell_length_c 18.316(15)
_cell_angle_alpha 90
_cell_angle_beta 99.543(13)
_cell_angle_gamma 90
_cell_formula_units_Z 4
loop_
_atom_type_symbol
_atom_type_radius_bond
C 0.68
H 0.23
N 0.68
O 0.68
loop_
_atom_site_label
_atom_site_type_symbol
_atom_site_fract_x
_atom_site_fract_y
_atom_site_fract_z
O1 O 0.28568(15) 0.6881(3) 0.58689(10)
O2 O 0.22045(16) 1.0182(4) 0.38729(11)
O3 O 0.08647(16) 0.3009(4) 0.50359(11)
O4 O 0.32799(17) 0.3896(4) 0.74380(11)
O5 O 0.36832(17) 0.1007(4) 0.81642(12)
N1 N 0.18532(19) 0.3317(4) 0.62186(13)
H1 H 0.23220 0.42220 0.64930
N2 N 0.30819(19) 0.1969(4) 0.76523(13)
C1 C 0.1527(2) 0.3985(5) 0.54998(15)
C2 C 0.2083(2) 0.6112(5) 0.53048(16)
C3 C 0.1839(2) 0.7130(5) 0.46431(16)
H2 H 0.12900 0.64940 0.42750
C4 C 0.2405(2) 0.9203(5) 0.44784(16)
C5 C 0.3241(2) 1.0012(5) 0.50929(15)
C6 C 0.3863(2) 1.1974(5) 0.50316(16)
H3 H 0.37460 1.28230 0.45840
C7 C 0.4642(2) 1.2683(5) 0.56159(17)
H4 H 0.50470 1.40360 0.55740
C8 C 0.4837(2) 1.1407(5) 0.62705(17)
H5 H 0.53870 1.18860 0.66660
C9 C 0.4244(2) 0.9479(5) 0.63481(16)
H6 H 0.43750 0.86110 0.67910
C10 C 0.3442(2) 0.8830(5) 0.57547(16)
C11 C 0.1536(2) 0.1372(5) 0.65744(16)
C12 C 0.2111(2) 0.0730(5) 0.72724(16)
C13 C 0.1823(2) -0.1206(5) 0.76322(16)
H7 H 0.22320 -0.16260 0.80980
C14 C 0.0948(2) -0.2510(5) 0.73137(17)
H8 H 0.07380 -0.38120 0.75640
C15 C 0.0370(2) -0.1912(5) 0.66223(16)
H9 H -0.02300 -0.28220 0.63990
C16 C 0.0662(2) 0.0007(5) 0.62540(16)
H10 H 0.02620 0.03880 0.57810
#END
