
#######################################################################
#
#                 Cambridge Crystallographic Data Centre
#                                CCDC
#
#######################################################################
#
# If this CIF has been generated from an entry in the Cambridge
# Structural Database, then it will include bibliographic, chemical,
# crystal, experimental, refinement or atomic coordinate data resulting
# from the CCDC's data processing and validation procedures.
#
#######################################################################

data_CSD_CIF_BILMAM
_audit_creation_date 2013-07-16
_audit_creation_method CSD-ConQuest-V1
_database_code_CSD BILMAM
_database_code_depnum_ccdc_archive 'CCDC 950439'
_chemical_formula_sum 'C19 H15 N3 O3'
_chemical_formula_moiety
;
C19 H15 N3 O3
;
_journal_coeditor_code "IUCr OV3028"
_journal_coden_Cambridge 591
_journal_volume 69
_journal_year 2013
_journal_page_first 642
_journal_name_full 'Acta Crystallogr.,Sect.C:Cryst.Struct.Commun. '
loop_
_publ_author_name
"R.Vishnupriya"
"J.Suresh"
"S.Sivakumar"
"R.Ranjith Kumar"
_chemical_name_systematic
;
6-(Methylamino)-5-nitro-2,4-diphenyl-4H-pyran-3-carbonitrile
;
_cell_volume   3228.041
_exptl_crystal_colour 'colorless'
_exptl_crystal_density_diffrn 1.372
_exptl_crystal_description 'block'
_diffrn_ambient_temperature 293
#These two values have been output from a single CSD field.
_refine_ls_R_factor_gt 0.0371
_refine_ls_wR_factor_gt 0.0371
_symmetry_cell_setting monoclinic
_symmetry_space_group_name_H-M 'C 2/c'
_symmetry_Int_Tables_number 15
loop_
_symmetry_equiv_pos_site_id
_symmetry_equiv_pos_as_xyz
1 x,y,z
2 -x,y,1/2-z
3 1/2+x,1/2+y,z
4 1/2-x,1/2+y,1/2-z
5 -x,-y,-z
6 x,-y,-1/2+z
7 -1/2-x,-1/2-y,-z
8 -1/2+x,-1/2-y,-1/2+z
_cell_length_a 18.6202(12)
_cell_length_b 11.7427(7)
_cell_length_c 14.9474(9)
_cell_angle_alpha 90
_cell_angle_beta 98.999(2)
_cell_angle_gamma 90
_cell_formula_units_Z 8
loop_
_atom_type_symbol
_atom_type_radius_bond
C 0.68
H 0.23
N 0.68
O 0.68
loop_
_atom_site_label
_atom_site_type_symbol
_atom_site_fract_x
_atom_site_fract_y
_atom_site_fract_z
C1 C 0.10766(7) -0.00323(10) 0.06890(8)
C2 C 0.06562(7) 0.0802(1) 0.09280(8)
C3 C 0.08190(7) 0.20502(10) 0.07944(8)
H1 H 0.03570 0.24460 0.06030
C4 C 0.12640(7) 0.21377(10) 0.00439(8)
C5 C 0.16529(7) 0.12278(10) -0.02210(8)
C6 C 0.24148(9) 0.01907(13) -0.11414(12)
H2 H 0.27090 -0.01570 -0.06290
H3 H 0.27160 0.03950 -0.15820
H4 H 0.20480 -0.03370 -0.14050
C7 C 0.10243(7) -0.12612(10) 0.08579(8)
C8 C 0.08385(8) -0.16461(12) 0.16724(10)
H5 H 0.07670 -0.11300 0.21220
C9 C 0.07610(9) -0.28038(13) 0.18086(12)
H6 H 0.06410 -0.30660 0.23540
C10 C 0.08605(9) -0.35693(12) 0.11394(12)
H7 H 0.07900 -0.43430 0.12270
C11 C 0.10621(8) -0.31954(12) 0.03468(10)
H8 H 0.11360 -0.37180 -0.00970
C12 C 0.11558(7) -0.20446(11) 0.02032(9)
H9 H 0.13060 -0.17950 -0.03280
C13 C 0.00120(7) 0.05365(10) 0.12976(8)
C14 C 0.11889(7) 0.25881(10) 0.16804(8)
C15 C 0.18603(7) 0.21957(12) 0.21042(9)
H10 H 0.20800 0.15840 0.18600
C16 C 0.22042(9) 0.27119(14) 0.28904(10)
H11 H 0.26530 0.24440 0.31730
C17 C 0.18817(10) 0.36206(15) 0.32535(10)
H12 H 0.21170 0.39750 0.37740
C18 C 0.1213(1) 0.40032(14) 0.28477(11)
H13 H 0.09930 0.46100 0.30980
C19 C 0.08652(8) 0.34835(12) 0.20619(10)
H14 H 0.04110 0.37420 0.17920
N1 N 0.12821(7) 0.31884(9) -0.03759(8)
N2 N 0.20709(6) 0.1204(1) -0.08505(8)
H15 H 0.21470 0.18370 -0.11100
N3 N -0.05244(7) 0.03673(12) 0.15504(8)
O1 O 0.16361(5) 0.02091(7) 0.02094(6)
O2 O 0.09247(7) 0.39827(8) -0.01189(8)
O3 O 0.16606(7) 0.33349(9) -0.09958(7)
#END
