
#######################################################################
#
#                 Cambridge Crystallographic Data Centre
#                                CCDC
#
#######################################################################
#
# If this CIF has been generated from an entry in the Cambridge
# Structural Database, then it will include bibliographic, chemical,
# crystal, experimental, refinement or atomic coordinate data resulting
# from the CCDC's data processing and validation procedures.
#
#######################################################################

data_CSD_CIF_BIZLAY
_audit_creation_date 2008-07-22
_audit_creation_method CSD-ConQuest-V1
_database_code_CSD BIZLAY
_database_code_depnum_ccdc_archive 'CCDC 690183'
_chemical_formula_sum 'C10 H15 N3 O2'
_chemical_formula_moiety
;
C10 H15 N3 O2
;
_journal_coeditor_code "IUCr SK3210"
_journal_coden_Cambridge 591
_journal_volume 64
_journal_year 2008
_journal_page_first o248
_journal_name_full 'Acta Crystallogr.,Sect.C:Cryst.Struct.Commun. '
loop_
_publ_author_name
"C.P.Walczak"
"M.M.Yonkey"
"P.J.Squattrito"
"D.K.Mohanty"
"K.Kirschbaum"
_chemical_name_systematic
;
1,3-bis(n-ethylamino)-2-nitrobenzene
;
_chemical_melting_point 336
_cell_volume    523.609
_exptl_crystal_colour 'red'
_exptl_crystal_density_diffrn 1.327
_exptl_special_details
;
Melting point range 336-338K

;
_exptl_crystal_description 'needle'
_exptl_crystal_preparation 'hexane'
_diffrn_ambient_temperature 140
#These two values have been output from a single CSD field.
_refine_ls_R_factor_gt 0.0463
_refine_ls_wR_factor_gt 0.0463
_symmetry_cell_setting monoclinic
_symmetry_space_group_name_H-M 'P 2/n'
_symmetry_Int_Tables_number 13
loop_
_symmetry_equiv_pos_site_id
_symmetry_equiv_pos_as_xyz
1 x,y,z
2 1/2-x,y,1/2-z
3 -x,-y,-z
4 -1/2+x,-y,-1/2+z
_cell_length_a 5.0425(6)
_cell_length_b 9.2564(10)
_cell_length_c 11.4901(13)
_cell_angle_alpha 90
_cell_angle_beta 102.492(2)
_cell_angle_gamma 90
_cell_formula_units_Z 2
loop_
_atom_type_symbol
_atom_type_radius_bond
C 0.68
H 0.23
N 0.68
O 0.68
loop_
_atom_site_label
_atom_site_type_symbol
_atom_site_fract_x
_atom_site_fract_y
_atom_site_fract_z
O1 O 0.9243(2) 0.50417(12) 0.82181(10)
N1 N 0.75000 0.43516(19) 0.75000
N2 N 1.1793(2) 0.27164(15) 0.89937(10)
C1 C 0.75000 0.2823(2) 0.75000
C2 C 0.9703(3) 0.20475(16) 0.82619(11)
C3 C 0.9629(3) 0.05350(16) 0.82223(12)
C4 C 0.75000 -0.0188(2) 0.75000
C5 C 1.3992(3) 0.19564(16) 0.97807(12)
C6 C 1.5899(3) 0.30237(19) 1.05306(15)
H1 H 1.176(3) 0.363(2) 0.9019(15)
H2 H 1.106(3) 0.0036(17) 0.8670(15)
H3 H 0.75000 -0.120(3) 0.75000
H4 H 1.322(3) 0.1303(19) 1.0311(15)
H5 H 1.499(3) 0.1344(18) 0.9323(14)
H6 H 1.737(4) 0.254(2) 1.1045(17)
H7 H 1.665(4) 0.368(2) 1.0015(17)
H8 H 1.497(4) 0.357(2) 1.1008(17)
O1A O 0.5757(2) 0.50417(12) 0.67819(10)
N2A N 0.3207(2) 0.27164(15) 0.60063(10)
C2A C 0.5297(3) 0.20475(16) 0.67381(11)
C3A C 0.5371(3) 0.05350(16) 0.67777(12)
C5A C 0.1008(3) 0.19564(16) 0.52193(12)
C6A C -0.0899(3) 0.30237(19) 0.44694(15)
H1A H 0.324(3) 0.363(2) 0.5981(15)
H2A H 0.394(3) 0.0036(17) 0.6330(15)
H4A H 0.178(3) 0.1303(19) 0.4689(15)
H5A H 0.001(3) 0.1344(18) 0.5677(14)
H6A H -0.237(4) 0.254(2) 0.3955(17)
H7A H -0.165(4) 0.368(2) 0.4985(17)
H8A H 0.003(4) 0.357(2) 0.3992(17)
#END
