
#######################################################################
#
#                 Cambridge Crystallographic Data Centre
#                                CCDC
#
#######################################################################
#
# If this CIF has been generated from an entry in the Cambridge
# Structural Database, then it will include bibliographic, chemical,
# crystal, experimental, refinement or atomic coordinate data resulting
# from the CCDC's data processing and validation procedures.
#
#######################################################################

data_CSD_CIF_BIZWIR
_audit_creation_date 2008-07-22
_audit_creation_method CSD-ConQuest-V1
_database_code_CSD BIZWIR
_database_code_depnum_ccdc_archive 'CCDC 690976'
_chemical_formula_sum 'C18 H21 N1 O2'
_chemical_formula_moiety
;
C18 H21 N1 O2
;
_journal_coeditor_code "IUCr HK2462"
_journal_coden_Cambridge 1370
_journal_volume 64
_journal_year 2008
_journal_page_first o1099
_journal_name_full 'Acta Crystallogr.,Sect.E:Struct.Rep.Online '
loop_
_publ_author_name
"Jin-Long Wu"
"Yu Liao"
"Shan-Lin Liu"
_chemical_name_systematic
;
N-(2-(2-Methoxyphenyl)benzylidene)-t-butylamine N-oxide
;
_chemical_melting_point 351
_cell_volume    816.646
_exptl_crystal_colour 'colorless'
_exptl_crystal_density_diffrn 1.152
_exptl_special_details
;
Melting point range 351-353K

;
_exptl_crystal_description 'platelet'
_exptl_crystal_preparation 'ethyl acetate/hexane'
_diffrn_ambient_temperature 296.0
#These two values have been output from a single CSD field.
_refine_ls_R_factor_gt 0.034
_refine_ls_wR_factor_gt 0.034
_symmetry_cell_setting monoclinic
_symmetry_space_group_name_H-M 'P 21'
_symmetry_Int_Tables_number 4
loop_
_symmetry_equiv_pos_site_id
_symmetry_equiv_pos_as_xyz
1 x,y,z
2 -x,1/2+y,-z
_cell_length_a 10.2526(15)
_cell_length_b 8.5576(13)
_cell_length_c 10.3333(16)
_cell_angle_alpha 90
_cell_angle_beta 115.742(3)
_cell_angle_gamma 90
_cell_formula_units_Z 2
loop_
_atom_type_symbol
_atom_type_radius_bond
C 0.68
H 0.23
N 0.68
O 0.68
loop_
_atom_site_label
_atom_site_type_symbol
_atom_site_fract_x
_atom_site_fract_y
_atom_site_fract_z
O1 O 0.9021(2) 0.3664(2) 0.8067(2)
O2 O 0.89199(16) 0.2119(2) 0.40803(18)
N1 N 0.8516(2) 0.2377(2) 0.7378(2)
C1 C 0.7579(2) 0.2359(3) 0.6043(2)
C2 C 0.6914(2) 0.3714(3) 0.5161(2)
C3 C 0.6741(2) 0.5115(3) 0.5752(2)
C4 C 0.6018(2) 0.6370(3) 0.4891(3)
C5 C 0.5479(2) 0.6233(3) 0.3431(3)
C6 C 0.5634(2) 0.4858(3) 0.2821(2)
C7 C 0.6339(2) 0.3570(3) 0.3658(2)
C8 C 0.6389(2) 0.2103(3) 0.2930(2)
C9 C 0.5111(2) 0.1408(3) 0.1954(2)
C10 C 0.5107(3) 0.0054(4) 0.1245(2)
C11 C 0.6400(3) -0.0637(3) 0.1491(2)
C12 C 0.7694(3) 0.0020(3) 0.2437(2)
C13 C 0.7690(2) 0.1373(3) 0.3151(2)
C14 C 1.0274(2) 0.1362(3) 0.4454(3)
C15 C 0.9129(2) 0.0920(3) 0.8265(2)
C16 C 0.8509(3) -0.0534(3) 0.7407(3)
C17 C 1.0746(2) 0.0986(4) 0.8838(3)
C18 C 0.8694(2) 0.1013(4) 0.9492(2)
H1 H 0.73070 0.13850 0.56100
H2 H 0.71180 0.52110 0.67450
H3 H 0.59000 0.72940 0.53020
H4 H 0.50040 0.70740 0.28470
H5 H 0.52600 0.47870 0.18260
H6 H 0.42320 0.18780 0.17780
H7 H 0.42380 -0.03900 0.06050
H8 H 0.64050 -0.15580 0.10160
H9 H 0.85660 -0.04520 0.25910
H10 H 1.02700 0.03610 0.48730
H11 H 1.04250 0.12220 0.36080
H12 H 1.10400 0.19920 0.51350
H13 H 0.87240 -0.05520 0.65900
H14 H 0.74790 -0.05460 0.70850
H15 H 0.89290 -0.14350 0.79950
H16 H 1.10860 0.19910 0.92630
H17 H 1.11730 0.01870 0.95500
H18 H 1.10150 0.08220 0.80660
H19 H 0.88920 0.00330 0.99930
H20 H 0.76780 0.12400 0.91170
H21 H 0.92370 0.18270 1.01440
#END
