
#######################################################################
#
#                 Cambridge Crystallographic Data Centre
#                                CCDC
#
#######################################################################
#
# If this CIF has been generated from an entry in the Cambridge
# Structural Database, then it will include bibliographic, chemical,
# crystal, experimental, refinement or atomic coordinate data resulting
# from the CCDC's data processing and validation procedures.
#
#######################################################################

data_CSD_CIF_BOBMAG01
_audit_creation_date 2006-05-29
_audit_creation_method CSD-ConQuest-V1
_database_code_CSD BOBMAG01
_database_code_depnum_ccdc_archive 'CCDC 292436'
_chemical_formula_sum 'C18 H12 N4 O6'
_chemical_formula_moiety
;
C18 H12 N4 O6
;
_journal_coden_Cambridge 1078
_journal_year 2005
_journal_name_full 'CSD Communication(Private Communication) '
loop_
_publ_author_name
"J.Welch"
"T.M.Klapotke"
"K.Polborn"
_chemical_name_systematic
;
tris(4-Nitrophenyl)amine
;
_cell_volume   1673.722
_exptl_crystal_colour 'orange'
_exptl_crystal_density_diffrn 1.509
_exptl_special_details
;
contribution from Department Chemie, Universitat Munchen, Butendanstr. 5-13, 
81377 Munchen, Germany
;
_exptl_crystal_description 'parallelepiped'
_diffrn_ambient_temperature 295
#These two values have been output from a single CSD field.
_refine_ls_R_factor_gt 0.036
_refine_ls_wR_factor_gt 0.036
_symmetry_cell_setting orthorhombic
_symmetry_space_group_name_H-M 'P b c n'
_symmetry_Int_Tables_number 60
loop_
_symmetry_equiv_pos_site_id
_symmetry_equiv_pos_as_xyz
1 x,y,z
2 1/2-x,1/2-y,1/2+z
3 -x,y,1/2-z
4 1/2+x,1/2-y,-z
5 -x,-y,-z
6 -1/2+x,-1/2+y,-1/2-z
7 x,-y,-1/2+z
8 -1/2-x,-1/2+y,z
_cell_length_a 8.0421(18)
_cell_length_b 11.3454(15)
_cell_length_c 18.344(2)
_cell_angle_alpha 90
_cell_angle_beta 90
_cell_angle_gamma 90
_cell_formula_units_Z 4
loop_
_atom_type_symbol
_atom_type_radius_bond
C 0.68
H 0.23
N 0.68
O 0.68
loop_
_atom_site_label
_atom_site_type_symbol
_atom_site_fract_x
_atom_site_fract_y
_atom_site_fract_z
O1 O 0.1589(3) 0.27133(15) -0.01633(8)
O2 O 0.3239(3) 0.41483(17) -0.04013(10)
O3 O 0.0852(2) 1.15166(12) 0.29511(9)
N1 N 0.00000 0.60489(15) 0.25000
N2 N 0.2189(3) 0.36757(17) -0.00211(9)
N3 N 0.00000 1.10091(18) 0.25000
C1 C 0.05453(19) 0.54468(13) 0.18685(8)
C2 C -0.0128(2) 0.43558(14) 0.16780(9)
H1 H -0.09390 0.40150 0.19710
C3 C 0.0402(2) 0.37804(15) 0.10589(9)
H2 H -0.00520 0.30550 0.09310
C4 C 0.1611(2) 0.42927(15) 0.06315(9)
C5 C 0.2300(2) 0.53692(15) 0.08063(9)
H3 H 0.31140 0.57030 0.05110
C6 C 0.1765(2) 0.59419(14) 0.14234(9)
H4 H 0.22230 0.66680 0.15460
C7 C 0.00000 0.73093(18) 0.25000
C8 C 0.0603(2) 0.79176(14) 0.31002(9)
H5 H 0.10130 0.75050 0.35000
C9 C 0.0593(2) 0.91357(15) 0.31052(9)
H6 H 0.09790 0.95520 0.35080
C10 C 0.00000 0.97203(19) 0.25000
O1B O -0.1589(3) 0.27133(15) 0.51633(8)
O2B O -0.3239(3) 0.41483(17) 0.54013(10)
O3B O -0.0852(2) 1.15166(12) 0.20489(9)
N2B N -0.2189(3) 0.36757(17) 0.50211(9)
C1B C -0.05453(19) 0.54468(13) 0.31315(8)
C2B C 0.0128(2) 0.43558(14) 0.33220(9)
H1B H 0.09390 0.40150 0.30290
C3B C -0.0402(2) 0.37804(15) 0.39411(9)
H2B H 0.00520 0.30550 0.40690
C4B C -0.1611(2) 0.42927(15) 0.43685(9)
C5B C -0.2300(2) 0.53692(15) 0.41937(9)
H3B H -0.31140 0.57030 0.44890
C6B C -0.1765(2) 0.59419(14) 0.35766(9)
H4B H -0.22230 0.66680 0.34540
C8B C -0.0603(2) 0.79176(14) 0.18998(9)
H5B H -0.10130 0.75050 0.15000
C9B C -0.0593(2) 0.91357(15) 0.18948(9)
H6B H -0.09790 0.95520 0.14920
#END
