
#######################################################################
#
#                 Cambridge Crystallographic Data Centre
#                                CCDC
#
#######################################################################
#
# If this CIF has been generated from an entry in the Cambridge
# Structural Database, then it will include bibliographic, chemical,
# crystal, experimental, refinement or atomic coordinate data resulting
# from the CCDC's data processing and validation procedures.
#
#######################################################################

data_CSD_CIF_BOGNIU
_audit_creation_date 1983-07-20
_audit_creation_method CSD-ConQuest-V1
_database_code_CSD BOGNIU
_database_code_depnum_ccdc_archive 'CCDC 1113175'
_chemical_formula_sum 'C21 H23 N3 O2'
_chemical_formula_moiety
;
C21 H23 N3 O2
;
_journal_coden_Cambridge 54
_journal_volume 91
_journal_year 1982
_journal_page_first 629
_journal_name_full 'Bull.Soc.Chim.Belg. '
loop_
_publ_author_name
"B.Tinant"
"I.de Block"
"J.P.Declercq"
"G.Germain"
"M.van Meerssche"
"G.Leroy"
"J.Weiler"
_chemical_name_systematic
;
r-1-Cyano-c-2-(p-dimethylamino-\a-methylbenzyl)-t-3-methyl-1-p-nitrophenylcycl
opropane
;
_cell_volume   3883.296
_exptl_crystal_density_diffrn 1.2
_diffrn_ambient_temperature ?
_diffrn_special_details
;
The study was carried out at room temperature,in the range 283-303K

;
#These two values have been output from a single CSD field.
_refine_ls_R_factor_gt 0.058
_refine_ls_wR_factor_gt 0.058
_symmetry_cell_setting monoclinic
_symmetry_space_group_name_H-M 'C 2/c'
_symmetry_Int_Tables_number 15
loop_
_symmetry_equiv_pos_site_id
_symmetry_equiv_pos_as_xyz
1 x,y,z
2 1/2+x,1/2+y,z
3 -x,y,1/2-z
4 1/2-x,1/2+y,1/2-z
5 -x,-y,-z
6 -1/2-x,-1/2-y,-z
7 x,-y,-1/2+z
8 -1/2+x,-1/2-y,-1/2+z
_cell_length_a 23.837(5)
_cell_length_b 12.389(3)
_cell_length_c 14.374(5)
_cell_angle_alpha 90
_cell_angle_beta 113.82
_cell_angle_gamma 90
_cell_formula_units_Z 8
loop_
_atom_type_symbol
_atom_type_radius_bond
C 0.68
N 0.68
O 0.68
loop_
_atom_site_label
_atom_site_type_symbol
_atom_site_fract_x
_atom_site_fract_y
_atom_site_fract_z
C1 C 0.57020 0.23610 -0.01790
C2 C 0.60800 0.33000 -0.02990
C3 C 0.62570 0.21880 -0.04550
C4 C 0.51040 0.21970 -0.09930
N1 N 0.46270 0.20630 -0.16250
C5 C 0.57320 0.20520 0.08470
C6 C 0.57900 0.28220 0.15700
C7 C 0.58080 0.25380 0.25060
C8 C 0.57740 0.14600 0.27170
C9 C 0.57110 0.06780 0.20140
C10 C 0.56890 0.09770 0.10800
N2 N 0.57970 0.11660 0.37170
O1 O 0.57720 0.18840 0.42820
O2 O 0.58090 0.02170 0.39260
C11 C 0.63150 0.46270 -0.13940
C12 C 0.64130 0.43530 -0.22430
C13 C 0.68690 0.48290 -0.24690
C14 C 0.72530 0.56030 -0.18550
C15 C 0.71630 0.58740 -0.10040
C16 C 0.67030 0.53970 -0.07750
N3 N 0.77070 0.60800 -0.20760
C17 C 0.78170 0.57440 -0.29330
C18 C 0.80570 0.69320 -0.15100
C19 C 0.68220 0.16540 0.03060
C20 C 0.58120 0.40960 -0.11680
C21 C 0.54050 0.49120 -0.09470
#END
