
#######################################################################
#
#                 Cambridge Crystallographic Data Centre
#                                CCDC
#
#######################################################################
#
# If this CIF has been generated from an entry in the Cambridge
# Structural Database, then it will include bibliographic, chemical,
# crystal, experimental, refinement or atomic coordinate data resulting
# from the CCDC's data processing and validation procedures.
#
#######################################################################

data_CSD_CIF_BONPEB
_audit_creation_date 2014-10-03
_audit_creation_method CSD-ConQuest-V1
_database_code_CSD BONPEB
_database_code_depnum_ccdc_archive 'CCDC 964327'
_chemical_formula_sum 'C17 H19 N3 O3'
_chemical_formula_moiety
;
C17 H19 N3 O3
;
_journal_coden_Cambridge 392
_journal_volume 88
_journal_year 2014
_journal_page_first 1639
_journal_name_full 'Heterocycles '
loop_
_publ_author_name
"M.P.Sibi"
"K.L.Dunkle"
"D.Rane"
_chemical_name_systematic
;
(3-(4-Methoxyphenyl)-2,5-dimethyl-2,3-dihydro-1,2-oxazol-4-yl)(1-methyl-1H-imi
dazol-2-yl)methanone
;
_cell_volume   1560.119
_exptl_crystal_colour 'colorless'
_exptl_crystal_density_diffrn 1.334
_exptl_special_details
;
Absolute configuration

;
_exptl_crystal_description 'chunk'
_exptl_crystal_preparation 'hexane/ethyl acetate'
_diffrn_ambient_temperature 100
#These two values have been output from a single CSD field.
_refine_ls_R_factor_gt 0.0248
_refine_ls_wR_factor_gt 0.0248
_symmetry_cell_setting orthorhombic
_symmetry_space_group_name_H-M 'P 21 21 21'
_symmetry_Int_Tables_number 19
loop_
_symmetry_equiv_pos_site_id
_symmetry_equiv_pos_as_xyz
1 x,y,z
2 1/2+x,1/2-y,-z
3 -x,1/2+y,1/2-z
4 1/2-x,-y,1/2+z
_cell_length_a 8.8601(2)
_cell_length_b 12.1048(3)
_cell_length_c 14.5466(3)
_cell_angle_alpha 90
_cell_angle_beta 90
_cell_angle_gamma 90
_cell_formula_units_Z 4
loop_
_atom_type_symbol
_atom_type_radius_bond
C 0.68
H 0.23
N 0.68
O 0.68
loop_
_atom_site_label
_atom_site_type_symbol
_atom_site_fract_x
_atom_site_fract_y
_atom_site_fract_z
O1 O 0.94840(11) 0.92704(7) 0.17548(6)
O2 O 1.01681(11) 0.44906(7) -0.06023(6)
O3 O 0.81052(11) 0.28118(7) 0.15698(6)
N1 N 0.51396(14) 0.34461(8) 0.20771(7)
N2 N 0.88940(13) 0.52163(8) -0.08873(7)
N3 N 0.52276(13) 0.47806(9) 0.10173(7)
C1 C 0.55517(19) 0.25438(11) 0.27014(10)
H1 H 0.46760 0.23420 0.30770
H2 H 0.63770 0.27840 0.31030
H3 H 0.58770 0.19020 0.23420
C2 C 0.60013(15) 0.39661(10) 0.14211(8)
C3 C 0.75391(16) 0.36219(9) 0.11785(8)
C4 C 0.83309(15) 0.42097(9) 0.04524(8)
C5 C 0.79187(15) 0.52644(10) -0.00472(8)
C6 C 0.82666(15) 0.63133(9) 0.04853(8)
C7 C 0.93191(15) 0.63564(10) 0.11925(8)
H4 H 0.97860 0.56940 0.13950
C8 C 0.97000(15) 0.73503(10) 0.16078(9)
H5 H 1.04200 0.73660 0.20920
C9 C 0.90196(15) 0.83279(10) 0.13104(8)
C10 C 0.89149(16) 1.03004(10) 0.14171(9)
H6 H 0.91310 1.03620 0.07580
H7 H 0.94030 1.09100 0.17460
H8 H 0.78220 1.03340 0.15160
C11 C 0.75618(15) 0.7293(1) 0.02249(9)
H9 H 0.68120 0.72740 -0.02410
C12 C 0.79286(15) 0.82989(10) 0.06306(9)
H10 H 0.74350 0.89580 0.04430
C13 C 0.96821(15) 0.38818(10) 0.01244(8)
C14 C 0.81445(17) 0.45978(11) -0.16274(9)
H11 H 0.88520 0.44910 -0.21380
H12 H 0.72640 0.50130 -0.18440
H13 H 0.78180 0.38770 -0.13940
C15 C 1.07477(17) 0.29981(10) 0.04104(10)
H14 H 1.08470 0.30010 0.10810
H15 H 1.17370 0.31310 0.01300
H16 H 1.03620 0.22790 0.02080
C16 C 0.38539(16) 0.47774(12) 0.14269(9)
H17 H 0.30550 0.52710 0.12820
C17 C 0.37797(17) 0.39610(12) 0.20799(10)
H18 H 0.29400 0.37900 0.24600
H19 H 0.6848(18) 0.5265(11) -0.0259(9)
#END
