
#######################################################################
#
#                 Cambridge Crystallographic Data Centre
#                                CCDC
#
#######################################################################
#
# If this CIF has been generated from an entry in the Cambridge
# Structural Database, then it will include bibliographic, chemical,
# crystal, experimental, refinement or atomic coordinate data resulting
# from the CCDC's data processing and validation procedures.
#
#######################################################################

data_CSD_CIF_BOPCEP
_audit_creation_date 2009-08-25
_audit_creation_method CSD-ConQuest-V1
_database_code_CSD BOPCEP
_database_code_depnum_ccdc_archive 'CCDC 668587'
_chemical_formula_sum 'C15 H24 N2 O4'
_chemical_formula_moiety
;
C15 H24 N2 O4
;
_journal_coden_Cambridge 452
_journal_volume 6
_journal_year 2009
_journal_page_first 244
_journal_name_full 'Chem.Biodiversity '
loop_
_publ_author_name
"C.Dallanoce"
"P.Magrone"
"P.Bazza"
"G.Grazioso"
"L.Rizzi"
"L.Riganti"
"C.Gotti"
"F.Clementi"
"K.Frydenvang"
"M.De Amici"
_chemical_name_systematic
;
(+-)-(1R*,2R*,4S*)-t-Butyl 
2-((5R*)-4,5-dihydro-3-methylisoxazol-5-yl)-2-hydroxy-7-azabicyclo[2.2.1]hepta
ne-7-carboxylate
;
_chemical_melting_point 423.15
_cell_volume   1595.005
_exptl_crystal_colour 'colorless'
_exptl_crystal_density_diffrn 1.234
_exptl_special_details
;
Melting point range 423.15-424.15K

;
_exptl_crystal_description 'prism'
_exptl_crystal_preparation 'di-isopropyl ether'
_diffrn_ambient_temperature 122
#These two values have been output from a single CSD field.
_refine_ls_R_factor_gt 0.036
_refine_ls_wR_factor_gt 0.036
_symmetry_cell_setting monoclinic
_symmetry_space_group_name_H-M 'P 21/c'
_symmetry_Int_Tables_number 14
loop_
_symmetry_equiv_pos_site_id
_symmetry_equiv_pos_as_xyz
1 x,y,z
2 -x,1/2+y,1/2-z
3 -x,-y,-z
4 x,-1/2-y,-1/2+z
_cell_length_a 6.0800(7)
_cell_length_b 8.2100(8)
_cell_length_c 31.959(3)
_cell_angle_alpha 90
_cell_angle_beta 91.085(10)
_cell_angle_gamma 90
_cell_formula_units_Z 4
loop_
_atom_type_symbol
_atom_type_radius_bond
C 0.68
H 0.23
N 0.68
O 0.68
loop_
_atom_site_label
_atom_site_type_symbol
_atom_site_fract_x
_atom_site_fract_y
_atom_site_fract_z
O1 O 0.22638(13) 0.45832(10) 0.47355(2)
N1 N 0.25597(16) 0.49117(13) 0.51685(3)
C1 C 0.33356(19) 0.36571(15) 0.53540(4)
C2 C 0.3693(2) 0.22245(15) 0.50739(4)
H1 H 0.27710 0.13110 0.51500
H2 H 0.52210 0.18840 0.50790
C3 C 0.30114(19) 0.29270(14) 0.46479(3)
H3 H 0.424(2) 0.3034(15) 0.4464(4)
C4 C 0.11466(18) 0.20267(14) 0.44216(3)
C5 C 0.06428(19) 0.28351(14) 0.39906(3)
H4 H 0.068(2) 0.4003(17) 0.3996(4)
C6 C -0.1423(2) 0.20600(17) 0.37886(4)
H5 H -0.19360 0.26820 0.35480
H6 H -0.26020 0.19730 0.39880
C7 C -0.0582(3) 0.03531(17) 0.36571(5)
H7 H -0.14000 -0.05070 0.37920
H8 H -0.06870 0.02090 0.33560
C8 C 0.1821(2) 0.03801(15) 0.38100(4)
H9 H 0.280(2) -0.0369(18) 0.3675(4)
C9 C 0.1917(2) 0.03006(14) 0.42891(4)
H10 H 0.34010 0.00820 0.43910
H11 H 0.09380 -0.05330 0.43930
N2 N 0.24359(16) 0.21077(11) 0.37471(3)
C10 C 0.3033(2) 0.26409(15) 0.33577(4)
O2 O 0.38289(16) 0.17692(11) 0.30937(3)
O3 O 0.27096(15) 0.42585(10) 0.33268(2)
C11 C 0.3444(2) 0.51689(15) 0.29546(4)
C12 C 0.5916(2) 0.50136(18) 0.29115(4)
H12 H 0.66370 0.54160 0.31610
H13 H 0.63810 0.56370 0.26750
H14 H 0.62950 0.38900 0.28720
C13 C 0.2194(2) 0.46061(18) 0.25653(4)
H15 H 0.25440 0.34870 0.25100
H16 H 0.26070 0.52640 0.23310
H17 H 0.06420 0.47110 0.26080
C14 C 0.2821(3) 0.69041(17) 0.30661(4)
H18 H 0.12570 0.69730 0.30990
H19 H 0.32590 0.76260 0.28470
H20 H 0.35510 0.72110 0.33230
O4 O -0.07195(14) 0.19210(11) 0.46797(3)
H21 H -0.121(2) 0.293(2) 0.4730(5)
C15 C 0.3866(3) 0.36849(18) 0.58122(4)
H22 H 0.34820 0.47280 0.59250
H23 H 0.54120 0.34970 0.58560
H24 H 0.30470 0.28480 0.59500
#END
