
#######################################################################
#
#                 Cambridge Crystallographic Data Centre
#                                CCDC
#
#######################################################################
#
# If this CIF has been generated from an entry in the Cambridge
# Structural Database, then it will include bibliographic, chemical,
# crystal, experimental, refinement or atomic coordinate data resulting
# from the CCDC's data processing and validation procedures.
#
#######################################################################

data_CSD_CIF_BOWDIB
_audit_creation_date 2009-08-25
_audit_creation_method CSD-ConQuest-V1
_database_code_CSD BOWDIB
_database_code_depnum_ccdc_archive 'CCDC 712069'
_chemical_formula_sum 'C18 H26 N2 O5'
_chemical_formula_moiety
;
C18 H26 N2 O5
;
_journal_coden_Cambridge 1336
_journal_volume 11
_journal_year 2009
_journal_page_first 2333
_journal_name_full 'Org.Lett. '
loop_
_publ_author_name
"Yunfeng Chen"
"Cheng Zhong"
"J.L.Petersen"
"N.G.Akhmedov"
"Xiaodong Shi"
_chemical_name_systematic
;
(S)-Methyl 
2-((2R,3R,4S)-4-hydroxy-4-methyl-3-nitro-2-phenylpiperidin-1-yl)-3-methylbutan
oate
;
_chemical_melting_point 568.55
_cell_volume   1961.499
_exptl_crystal_colour 'colorless'
_exptl_crystal_density_diffrn 1.187
_exptl_special_details
;
Melting point range 568.55-571.05K

;
_diffrn_ambient_temperature 293
#These two values have been output from a single CSD field.
_refine_ls_R_factor_gt 0.0464
_refine_ls_wR_factor_gt 0.0464
loop_
_citation_database_id_CSD
_citation_special_details
BOWJAZ "is a stereoisomer of this entry"
_symmetry_cell_setting orthorhombic
_symmetry_space_group_name_H-M 'P 21 21 21'
_symmetry_Int_Tables_number 19
loop_
_symmetry_equiv_pos_site_id
_symmetry_equiv_pos_as_xyz
1 x,y,z
2 1/2-x,-y,1/2+z
3 -x,1/2+y,1/2-z
4 1/2+x,1/2-y,-z
_cell_length_a 10.3321(9)
_cell_length_b 12.9156(11)
_cell_length_c 14.6989(12)
_cell_angle_alpha 90
_cell_angle_beta 90
_cell_angle_gamma 90
_cell_formula_units_Z 4
loop_
_atom_type_symbol
_atom_type_radius_bond
C 0.68
H 0.23
N 0.68
O 0.68
loop_
_atom_site_label
_atom_site_type_symbol
_atom_site_fract_x
_atom_site_fract_y
_atom_site_fract_z
O1 O 0.38629(14) 0.36677(11) 1.00494(10)
H1 H 0.35670 0.32410 1.04060
O2 O 0.3204(2) 0.65170(18) 0.98344(16)
O3 O 0.31870(16) 0.53544(16) 0.87772(15)
O4 O 0.78354(17) 0.25917(11) 0.85134(11)
O5 O 0.75895(19) 0.37671(12) 0.74335(9)
N1 N 0.69892(14) 0.45943(12) 0.95315(11)
N2 N 0.36538(19) 0.57587(18) 0.94515(16)
C1 C 0.57921(18) 0.49597(14) 0.90850(13)
H2 H 0.53940 0.43870 0.87490
C2 C 0.48773(19) 0.53114(15) 0.98530(14)
H3 H 0.53140 0.58670 1.01870
C3 C 0.45226(19) 0.44601(15) 1.05458(13)
C4 C 0.5819(2) 0.40491(18) 1.09057(14)
H4 H 0.62430 0.45860 1.12580
H5 H 0.56600 0.34660 1.13060
C5 C 0.6700(2) 0.37130(16) 1.01420(14)
H6 H 0.75000 0.34440 1.03930
H7 H 0.62880 0.31640 0.97970
C6 C 0.60308(18) 0.58660(15) 0.84422(12)
C7 C 0.6678(2) 0.67422(16) 0.87314(17)
H8 H 0.70130 0.67710 0.93180
C8 C 0.6831(3) 0.75817(19) 0.8148(2)
H9 H 0.72750 0.81650 0.83490
C9 C 0.6339(3) 0.7561(2) 0.72818(19)
H10 H 0.64480 0.81250 0.68950
C10 C 0.5691(2) 0.6709(2) 0.69980(16)
H11 H 0.53450 0.66910 0.64140
C11 C 0.5538(2) 0.58620(18) 0.75681(13)
H12 H 0.50960 0.52820 0.73590
C12 C 0.3676(3) 0.48652(18) 1.13164(16)
H13 H 0.35470 0.43270 1.17580
H14 H 0.28530 0.50780 1.10760
H15 H 0.40930 0.54460 1.16000
C13 C 0.80738(17) 0.44068(16) 0.89024(13)
H16 H 0.81500 0.50200 0.85130
C14 C 0.93861(19) 0.4272(2) 0.93978(16)
H17 H 0.93370 0.36410 0.97670
C15 C 0.9644(3) 0.5176(3) 1.0031(2)
H18 H 0.96340 0.58100 0.96900
H19 H 1.04760 0.50910 1.03130
H20 H 0.89870 0.52000 1.04920
C16 C 1.0471(2) 0.4133(3) 0.8709(2)
H21 H 1.12600 0.39680 0.90220
H22 H 1.05820 0.47630 0.83720
H23 H 1.02540 0.35810 0.82990
C17 C 0.78340(18) 0.34850(15) 0.82803(13)
C18 C 0.7343(4) 0.2938(2) 0.67825(17)
H24 H 0.66750 0.24930 0.70130
H25 H 0.81210 0.25450 0.66920
H26 H 0.70700 0.32310 0.62140
#END
