
#######################################################################
#
#                 Cambridge Crystallographic Data Centre
#                                CCDC
#
#######################################################################
#
# If this CIF has been generated from an entry in the Cambridge
# Structural Database, then it will include bibliographic, chemical,
# crystal, experimental, refinement or atomic coordinate data resulting
# from the CCDC's data processing and validation procedures.
#
#######################################################################

data_CSD_CIF_BOWJIH
_audit_creation_date 2009-08-25
_audit_creation_method CSD-ConQuest-V1
_database_code_CSD BOWJIH
_database_code_depnum_ccdc_archive 'CCDC 719563'
_chemical_formula_sum 'C20 H23 N3 O5'
_chemical_formula_moiety
;
C20 H23 N3 O5
;
_journal_coden_Cambridge 1336
_journal_volume 11
_journal_year 2009
_journal_page_first 2333
_journal_name_full 'Org.Lett. '
loop_
_publ_author_name
"Yunfeng Chen"
"Cheng Zhong"
"J.L.Petersen"
"N.G.Akhmedov"
"Xiaodong Shi"
_chemical_name_systematic
;
(2S,3S,4R)-4-Methyl-3-nitro-1-((S)-1-(4-nitrophenyl)ethyl)-2-phenylpiperidin-4
-ol
;
_chemical_melting_point 457.35
_cell_volume   1949.540
_exptl_crystal_colour 'colorless'
_exptl_crystal_density_diffrn 1.313
_exptl_special_details
;
Melting point range 457.35-460.05K

;
_diffrn_ambient_temperature 293
#These two values have been output from a single CSD field.
_refine_ls_R_factor_gt 0.0478
_refine_ls_wR_factor_gt 0.0478
loop_
_citation_database_id_CSD
_citation_special_details
BOWFAV "is a stereoisomer of this entry"
BOWJON "is a stereoisomer of this entry"
_symmetry_cell_setting monoclinic
_symmetry_space_group_name_H-M 'P 21/n'
_symmetry_Int_Tables_number 14
loop_
_symmetry_equiv_pos_site_id
_symmetry_equiv_pos_as_xyz
1 x,y,z
2 1/2-x,1/2+y,1/2-z
3 -x,-y,-z
4 -1/2+x,-1/2-y,-1/2+z
_cell_length_a 9.3075(5)
_cell_length_b 16.2765(9)
_cell_length_c 12.9681(7)
_cell_angle_alpha 90
_cell_angle_beta 97.095(1)
_cell_angle_gamma 90
_cell_formula_units_Z 4
loop_
_atom_type_symbol
_atom_type_radius_bond
C 0.68
H 0.23
N 0.68
O 0.68
loop_
_atom_site_label
_atom_site_type_symbol
_atom_site_fract_x
_atom_site_fract_y
_atom_site_fract_z
O1 O 0.21751(16) 0.18788(10) 0.45123(11)
O2 O 0.40002(16) 0.11376(10) 0.42563(9)
O3 O 0.65291(12) 0.19404(7) 0.52876(8)
H1 H 0.63300 0.19290 0.46540
O4 O 0.47027(17) 0.25275(11) 1.25594(10)
O5 O 0.68046(18) 0.19988(9) 1.29827(9)
N1 N 0.51242(13) 0.13246(7) 0.75215(8)
N2 N 0.33678(15) 0.15994(9) 0.47870(9)
N3 N 0.57215(17) 0.21103(9) 1.23631(10)
C1 C 0.44465(15) 0.10540(8) 0.64926(9)
H2 H 0.51210 0.07060 0.61660
C2 C 0.41106(16) 0.18404(9) 0.58382(10)
H3 H 0.34240 0.21680 0.61810
C3 C 0.54417(17) 0.23873(9) 0.57328(10)
C4 C 0.60821(18) 0.2585(1) 0.68444(11)
H4 H 0.69530 0.29110 0.68350
H5 H 0.53930 0.29070 0.71780
C5 C 0.64427(17) 0.18086(10) 0.74574(11)
H6 H 0.71300 0.14850 0.71240
H7 H 0.68870 0.19480 0.81520
C6 C 0.30383(15) 0.05931(9) 0.65521(10)
C7 C 0.20145(18) 0.08850(11) 0.71584(13)
H8 H 0.22140 0.13540 0.75600
C8 C 0.0706(2) 0.04872(13) 0.71711(17)
H9 H 0.00350 0.06880 0.75830
C9 C 0.0389(2) -0.02042(13) 0.65773(18)
H10 H -0.04940 -0.04700 0.65860
C10 C 0.1381(2) -0.05000(12) 0.59726(16)
H11 H 0.11670 -0.09660 0.55670
C11 C 0.27056(19) -0.01069(10) 0.59620(12)
H12 H 0.33750 -0.03160 0.55550
C12 C 0.5034(2) 0.31678(11) 0.51137(13)
H13 H 0.58870 0.34900 0.50680
H14 H 0.43570 0.34810 0.54560
H15 H 0.46000 0.30240 0.44270
C13 C 0.53769(16) 0.06580(9) 0.82925(10)
H16 H 0.44840 0.03330 0.82270
C14 C 0.6586(2) 0.00594(11) 0.81218(13)
H17 H 0.64360 -0.01440 0.74220
H18 H 0.65820 -0.03920 0.85980
H19 H 0.75020 0.03370 0.82380
C15 C 0.55185(15) 0.10410(9) 0.93775(10)
C16 C 0.65222(17) 0.07641(10) 1.01880(11)
H20 H 0.71420 0.03350 1.00720
C17 C 0.66096(17) 0.11207(10) 1.11683(11)
H21 H 0.72930 0.09410 1.17050
C18 C 0.56676(17) 0.17414(10) 1.13255(10)
C19 C 0.46443(18) 0.20312(10) 1.05484(11)
H22 H 0.40090 0.24500 1.06750
C20 C 0.45975(17) 0.16777(10) 0.95751(11)
H23 H 0.39300 0.18720 0.90380
#END
