
#######################################################################
#
#                 Cambridge Crystallographic Data Centre
#                                CCDC
#
#######################################################################
#
# If this CIF has been generated from an entry in the Cambridge
# Structural Database, then it will include bibliographic, chemical,
# crystal, experimental, refinement or atomic coordinate data resulting
# from the CCDC's data processing and validation procedures.
#
#######################################################################

data_CSD_CIF_BOZFAY
_audit_creation_date 2009-12-08
_audit_creation_method CSD-ConQuest-V1
_database_code_CSD BOZFAY
_database_code_depnum_ccdc_archive 'CCDC 707423'
_chemical_formula_sum 'C18 H22 N2 O4'
_chemical_formula_moiety
;
C18 H22 N2 O4
;
_journal_coden_Cambridge 24
_journal_volume 50
_journal_year 2009
_journal_page_first 2605
_journal_name_full 'Tetrahedron Lett. '
loop_
_publ_author_name
"L.Kiss"
"M.Nonn"
"E.Forro"
"R.Sillanpaa"
"F.Fulop"
_chemical_name_systematic
;
Ethyl 
6-(benzoylamino)-3-ethyl-4,5,6,6a-tetrahydro-3aH-cyclopenta[d][1,2]oxazole-5-c
arboxylate
;
_cell_volume   1651.580
_exptl_crystal_colour 'colorless'
_exptl_crystal_density_diffrn 1.329
_exptl_crystal_description 'prism'
_diffrn_ambient_temperature 173
#These two values have been output from a single CSD field.
_refine_ls_R_factor_gt 0.0435
_refine_ls_wR_factor_gt 0.0435
_symmetry_cell_setting monoclinic
_symmetry_space_group_name_H-M 'P 21/c'
_symmetry_Int_Tables_number 14
loop_
_symmetry_equiv_pos_site_id
_symmetry_equiv_pos_as_xyz
1 x,y,z
2 -x,1/2+y,1/2-z
3 -x,-y,-z
4 x,-1/2-y,-1/2+z
_cell_length_a 11.2167(2)
_cell_length_b 10.5026(2)
_cell_length_c 14.3280(3)
_cell_angle_alpha 90
_cell_angle_beta 101.908(1)
_cell_angle_gamma 90
_cell_formula_units_Z 4
loop_
_atom_type_symbol
_atom_type_radius_bond
C 0.68
H 0.23
N 0.68
O 0.68
loop_
_atom_site_label
_atom_site_type_symbol
_atom_site_fract_x
_atom_site_fract_y
_atom_site_fract_z
O1 O 0.31513(9) 0.23493(10) 0.00687(7)
O2 O 0.54267(8) 0.15415(9) 0.37058(6)
O3 O 0.49793(8) 0.36193(9) 0.35912(7)
O4 O 0.70713(9) 0.28528(9) 0.23534(8)
N1 N 0.58250(9) 0.12345(11) 0.17401(8)
H1 H 0.5712(14) 0.0419(16) 0.1711(11)
N2 N 0.19034(10) 0.23575(11) 0.01496(8)
C1 C 0.17383(12) 0.15122(13) 0.07477(9)
C2 C 0.28600(11) 0.07662(12) 0.11954(9)
H2 H 0.27650 -0.01610 0.10400
C3 C 0.33032(12) 0.09922(13) 0.22777(9)
H3 H 0.26070 0.11020 0.25970
H4 H 0.38160 0.02770 0.25810
C4 C 0.40457(11) 0.22197(12) 0.23161(9)
H5 H 0.34580 0.29370 0.21320
C5 C 0.47541(11) 0.20454(12) 0.14981(9)
H6 H 0.49850 0.28950 0.12740
C6 C 0.38111(12) 0.13976(13) 0.07091(9)
H7 H 0.42060 0.07580 0.03530
C7 C 0.05215(12) 0.12895(14) 0.0986(1)
H8 H 0.05540 0.15730 0.16500
H9 H 0.03550 0.03630 0.09590
C8 C -0.05341(13) 0.19673(16) 0.03328(11)
H10 H -0.03760 0.28850 0.03450
H11 H -0.12900 0.18030 0.05540
H12 H -0.06140 0.16490 -0.03200
C9 C 0.48495(11) 0.25524(12) 0.32639(9)
C10 C 0.63334(12) 0.18068(14) 0.4569(1)
H13 H 0.59600 0.22930 0.50260
H14 H 0.70070 0.23190 0.44130
C11 C 0.68085(16) 0.05617(16) 0.49966(13)
H15 H 0.61310 0.00510 0.51290
H16 H 0.74000 0.07150 0.55920
H17 H 0.72060 0.01030 0.45490
C12 C 0.69196(12) 0.17153(13) 0.21613(9)
C13 C 0.79584(11) 0.07910(13) 0.23816(9)
C14 C 0.79919(12) -0.03438(13) 0.18811(9)
H18 H 0.73210 -0.05790 0.13910
C15 C 0.90100(12) -0.11304(14) 0.21022(10)
H19 H 0.90350 -0.18990 0.17570
C16 C 0.99895(13) -0.07974(14) 0.28239(11)
H20 H 1.06840 -0.13350 0.29700
C17 C 0.99513(13) 0.03207(15) 0.33303(11)
H21 H 1.06140 0.05430 0.38310
C18 C 0.89464(12) 0.11127(14) 0.31058(10)
H22 H 0.89300 0.18840 0.34490
#END
