
#######################################################################
#
#                 Cambridge Crystallographic Data Centre
#                                CCDC
#
#######################################################################
#
# If this CIF has been generated from an entry in the Cambridge
# Structural Database, then it will include bibliographic, chemical,
# crystal, experimental, refinement or atomic coordinate data resulting
# from the CCDC's data processing and validation procedures.
#
#######################################################################

data_CSD_CIF_BOZGIH
_audit_creation_date 2009-12-08
_audit_creation_method CSD-ConQuest-V1
_database_code_CSD BOZGIH
_database_code_depnum_ccdc_archive 'CCDC 683478'
_chemical_formula_sum 'C5 H5 N3 O4'
_chemical_formula_moiety
;
C5 H5 N3 O4
;
_journal_coden_Cambridge 24
_journal_volume 50
_journal_year 2009
_journal_page_first 2624
_journal_name_full 'Tetrahedron Lett. '
loop_
_publ_author_name
"A.Regiec"
"H.Mastalarz"
"A.Mastalarz"
"A.Kochel"
_chemical_name_systematic
;
1-Methyl-4-nitro-1H-pyrazole-5-carboxylic acid
;
_chemical_melting_point 454.15
_cell_volume   1368.643
_exptl_crystal_colour 'colorless'
_exptl_crystal_density_diffrn 1.661
_exptl_special_details
;
Melting point range 454.15-455.15K

;
_exptl_crystal_description 'plate'
_diffrn_ambient_temperature 100
#These two values have been output from a single CSD field.
_refine_ls_R_factor_gt 0.0411
_refine_ls_wR_factor_gt 0.0411
_symmetry_cell_setting orthorhombic
_symmetry_space_group_name_H-M 'P c c n'
_symmetry_Int_Tables_number 56
loop_
_symmetry_equiv_pos_site_id
_symmetry_equiv_pos_as_xyz
1 x,y,z
2 1/2-x,1/2-y,z
3 -x,1/2+y,1/2-z
4 1/2+x,-y,1/2-z
5 -x,-y,-z
6 -1/2+x,-1/2+y,-z
7 x,-1/2-y,-1/2+z
8 -1/2-x,y,-1/2+z
_cell_length_a 9.0924(6)
_cell_length_b 11.8043(8)
_cell_length_c 12.7518(9)
_cell_angle_alpha 90
_cell_angle_beta 90
_cell_angle_gamma 90
_cell_formula_units_Z 8
loop_
_atom_type_symbol
_atom_type_radius_bond
C 0.68
H 0.23
N 0.68
O 0.68
loop_
_atom_site_label
_atom_site_type_symbol
_atom_site_fract_x
_atom_site_fract_y
_atom_site_fract_z
O1 O 0.06260(13) 0.08050(9) 0.09828(8)
O2 O 0.29307(12) 0.12153(10) 0.04517(9)
O3 O -0.08783(12) 0.28711(10) 0.03631(9)
O4 O -0.15858(14) 0.3630(1) -0.11033(9)
N1 N -0.08466(14) 0.29428(11) -0.05956(10)
N2 N 0.16998(14) 0.09200(11) -0.16261(9)
N3 N 0.11501(14) 0.13487(11) -0.25416(10)
C1 C 0.10632(16) 0.13962(12) -0.07784(11)
C2 C 0.00744(17) 0.21821(12) -0.11736(11)
C3 C 0.01740(17) 0.21304(13) -0.22671(12)
C4 C 0.27520(19) -0.00102(14) -0.16698(13)
C5 C 0.14957(18) 0.10968(12) 0.03247(12)
H1 H -0.033(2) 0.2567(16) -0.2813(15)
H2 H 0.323(3) 0.111(2) 0.116(2)
H3 H 0.284(3) -0.035(3) -0.105(2)
H4 H 0.377(4) 0.034(4) -0.169(2)
H5 H 0.264(3) -0.043(3) -0.224(2)
#END
