
#######################################################################
#
#                 Cambridge Crystallographic Data Centre
#                                CCDC
#
#######################################################################
#
# If this CIF has been generated from an entry in the Cambridge
# Structural Database, then it will include bibliographic, chemical,
# crystal, experimental, refinement or atomic coordinate data resulting
# from the CCDC's data processing and validation procedures.
#
#######################################################################

data_CSD_CIF_BUJNEZ
_audit_creation_date 1983-11-09
_audit_creation_method CSD-ConQuest-V1
_database_code_CSD BUJNEZ
_database_code_depnum_ccdc_archive 'CCDC 1116422'
_chemical_formula_sum 'C15 H11 N1 O2'
_chemical_formula_moiety
;
C15 H11 N1 O2
;
_journal_coden_Cambridge 188
_journal_year 1983
_journal_page_first 497
_journal_name_full 'J.Chem.Soc.,Perkin Trans.2 '
loop_
_publ_author_name
"R.M.Acheson"
"M.H.Benn"
"J.Jacyno"
"J.D.Wallis"
_chemical_name_systematic
;
1-Benzoyloxyindole
;
_chemical_melting_point 322.15
_cell_volume   1211.438
_exptl_crystal_density_diffrn 1.31
_exptl_special_details
;
Melting point range 322.15-323.15K
C3A-C4 was given as 1.480; it should be 1.408
;
_diffrn_ambient_temperature ?
_diffrn_special_details
;
The study was carried out at room temperature,in the range 283-303K

;
#These two values have been output from a single CSD field.
_refine_ls_R_factor_gt 0.043
_refine_ls_wR_factor_gt 0.043
_symmetry_cell_setting orthorhombic
_symmetry_space_group_name_H-M 'P 21 21 21'
_symmetry_Int_Tables_number 19
loop_
_symmetry_equiv_pos_site_id
_symmetry_equiv_pos_as_xyz
1 x,y,z
2 1/2+x,1/2-y,-z
3 -x,1/2+y,1/2-z
4 1/2-x,-y,1/2+z
_cell_length_a 7.864(3)
_cell_length_b 11.358(9)
_cell_length_c 13.563(5)
_cell_angle_alpha 90
_cell_angle_beta 90
_cell_angle_gamma 90
_cell_formula_units_Z 4
loop_
_atom_type_symbol
_atom_type_radius_bond
C 0.68
H 0.23
N 0.68
O 0.68
loop_
_atom_site_label
_atom_site_type_symbol
_atom_site_fract_x
_atom_site_fract_y
_atom_site_fract_z
O1 O 0.82350 0.06290 0.47950
O2 O 1.06130 0.01780 0.39370
N1 N 0.81990 -0.05500 0.50870
C1 C 0.96110 0.09040 0.42130
C2 C 0.70280 -0.13450 0.47100
C3 C 0.69540 -0.22640 0.53400
C4 C 0.80170 -0.20100 0.61590
C5 C 0.84220 -0.26030 0.70400
C6 C 0.94670 -0.20570 0.77000
C7 C 1.01710 -0.09540 0.75090
C8 C 0.98160 -0.03520 0.66590
C9 C 0.87580 -0.09030 0.59930
C10 C 0.96570 0.21730 0.40040
C11 C 1.06830 0.25590 0.32460
C12 C 1.07980 0.37380 0.30250
C13 C 0.99110 0.45410 0.35860
C14 C 0.88890 0.41630 0.43450
C15 C 0.87610 0.29770 0.45650
H1 H 0.63560 -0.12550 0.40850
H2 H 0.62710 -0.29980 0.52470
H3 H 0.79510 -0.34070 0.71750
H4 H 0.97290 -0.24550 0.83450
H5 H 1.09690 -0.06020 0.80020
H6 H 1.03050 0.04500 0.65220
H7 H 1.13590 0.19780 0.28460
H8 H 1.15240 0.40100 0.24660
H9 H 1.00000 0.54010 0.34370
H10 H 0.82380 0.47570 0.47520
H11 H 0.80110 0.27110 0.51250
#END
