
#######################################################################
#
#                 Cambridge Crystallographic Data Centre
#                                CCDC
#
#######################################################################
#
# If this CIF has been generated from an entry in the Cambridge
# Structural Database, then it will include bibliographic, chemical,
# crystal, experimental, refinement or atomic coordinate data resulting
# from the CCDC's data processing and validation procedures.
#
#######################################################################

data_CSD_CIF_BUZVOH
_audit_creation_date 1984-04-14
_audit_creation_method CSD-ConQuest-V1
_database_code_CSD BUZVOH
_database_code_depnum_ccdc_archive 'CCDC 1117943'
_chemical_formula_sum 'C18 H15 N3 O3'
_chemical_formula_moiety
;
C18 H15 N3 O3
;
_journal_coden_Cambridge 48
_journal_volume 116
_journal_year 1983
_journal_page_first 2881
_journal_name_full 'Chem.Ber. '
loop_
_publ_author_name
"R.Neidlein"
"C.-M.Radke"
"E.Hadicke"
"A.Gieren"
_chemical_name_systematic
;
Bicyclo(4.4.1)undeca-3,6,8,10-tetraene-2,5-dione-2-(4-methyl-2-nitrophenylhydr
azone)
;
_chemical_melting_point 452.15
_cell_volume   1543.537
_exptl_crystal_colour 'red'
_exptl_crystal_density_diffrn 1.383
_exptl_special_details
;
Melting point range 452.15-453.15K

;
_diffrn_ambient_temperature ?
_diffrn_special_details
;
The study was carried out at room temperature,in the range 283-303K

;
#These two values have been output from a single CSD field.
_refine_ls_R_factor_gt 0.045
_refine_ls_wR_factor_gt 0.045
_symmetry_cell_setting monoclinic
_symmetry_space_group_name_H-M 'P 21/c'
_symmetry_Int_Tables_number 14
loop_
_symmetry_equiv_pos_site_id
_symmetry_equiv_pos_as_xyz
1 x,y,z
2 -x,1/2+y,1/2-z
3 -x,-y,-z
4 x,-1/2-y,-1/2+z
_cell_length_a 8.371(1)
_cell_length_b 22.989(3)
_cell_length_c 11.369(1)
_cell_angle_alpha 90
_cell_angle_beta 135.13(1)
_cell_angle_gamma 90
_cell_formula_units_Z 4
loop_
_atom_type_symbol
_atom_type_radius_bond
C 0.68
H 0.23
N 0.68
O 0.68
loop_
_atom_site_label
_atom_site_type_symbol
_atom_site_fract_x
_atom_site_fract_y
_atom_site_fract_z
C1 C 2.06520 0.17570 1.15410
C2 C 2.05330 0.11210 1.13980
C3 C 1.89140 0.07680 1.01260
C4 C 1.66670 0.08930 0.84740
C5 C 1.58490 0.14960 0.80630
C6 C 1.49860 0.17870 0.66770
C7 C 1.50240 0.24010 0.65880
C8 C 1.66490 0.27580 0.78520
C9 C 1.86150 0.25650 0.95050
C10 C 1.86150 0.20940 1.02110
C11 C 1.64240 0.18350 0.94370
C12 C 1.22990 0.00370 0.49780
C13 C 1.33390 -0.04990 0.54080
C14 C 1.22460 -0.09710 0.43840
C15 C 1.00020 -0.09390 0.28200
C16 C 0.89150 -0.04140 0.23910
C17 C 1.00100 0.00670 0.34390
C18 C 0.88510 -0.14610 0.16810
N1 N 1.56150 0.04320 0.75410
N2 N 1.34750 0.05110 0.60210
N3 N 0.87220 0.05920 0.28940
O1 O 2.24870 0.19860 1.27460
O2 O 0.96590 0.10480 0.36900
O3 O 0.66760 0.05860 0.15990
H1 H 2.18720 0.09300 1.23810
H2 H 1.26440 0.08680 0.56620
H3 H 1.91760 0.03550 1.02980
H4 H 1.45110 0.15810 0.57380
H5 H 1.39350 0.25660 0.54900
H6 H 1.66710 0.31600 0.76360
H7 H 1.99900 0.27730 1.00630
H8 H 1.66010 0.15740 1.01820
H9 H 1.52980 0.21330 0.89520
H10 H 1.48830 -0.05400 0.64630
H11 H 1.30370 -0.13350 0.47450
H12 H 0.73610 -0.03790 0.13430
H13 H 0.99530 -0.16690 0.17990
H14 H 0.76040 -0.13520 0.05360
H15 H 0.83140 -0.17060 0.20250
#END
