
#######################################################################
#
#                 Cambridge Crystallographic Data Centre
#                                CCDC
#
#######################################################################
#
# If this CIF has been generated from an entry in the Cambridge
# Structural Database, then it will include bibliographic, chemical,
# crystal, experimental, refinement or atomic coordinate data resulting
# from the CCDC's data processing and validation procedures.
#
#######################################################################

data_CSD_CIF_BZHYDX02
_audit_creation_date 2005-08-18
_audit_creation_method CSD-ConQuest-V1
_database_code_CSD BZHYDX02
_database_code_depnum_ccdc_archive 'CCDC 267355'
_chemical_formula_sum 'C14 H11 N1 O3'
_chemical_formula_moiety
;
C14 H11 N1 O3
;
_journal_coden_Cambridge 1078
_journal_year 2005
_journal_name_full 'CSD Communication(Private Communication) '
loop_
_publ_author_name
"K.Aulinger"
"W.Steglich"
"K.Polborn"
_chemical_name_systematic
;
N,O-Dibenzoyl-hydroxylamine
;
_cell_volume   1193.051
_exptl_crystal_colour 'colorless'
_exptl_crystal_density_diffrn 1.343
_exptl_special_details
;
contribution from Department Chemie, Universitat Munchen, Butenandtstr. 5- 
13, 81377 Munchen, Germany
;
_exptl_crystal_description 'platelet'
_diffrn_ambient_temperature 295
#These two values have been output from a single CSD field.
_refine_ls_R_factor_gt 0.0381
_refine_ls_wR_factor_gt 0.0381
_symmetry_cell_setting orthorhombic
_symmetry_space_group_name_H-M 'P 21 21 21'
_symmetry_Int_Tables_number 19
loop_
_symmetry_equiv_pos_site_id
_symmetry_equiv_pos_as_xyz
1 x,y,z
2 1/2-x,-y,1/2+z
3 -x,1/2+y,1/2-z
4 1/2+x,1/2-y,-z
_cell_length_a 8.9809(10)
_cell_length_b 9.4430(13)
_cell_length_c 14.0679(18)
_cell_angle_alpha 90
_cell_angle_beta 90
_cell_angle_gamma 90
_cell_formula_units_Z 4
loop_
_atom_type_symbol
_atom_type_radius_bond
C 0.68
H 0.23
N 0.68
O 0.68
loop_
_atom_site_label
_atom_site_type_symbol
_atom_site_fract_x
_atom_site_fract_y
_atom_site_fract_z
N1 N 0.0244(2) 0.7352(3) 0.96964(14)
H1 H -0.04950 0.76710 1.00210
O1 O 0.1603(3) 0.9435(2) 0.88574(13)
O2 O 0.0257(2) 0.7433(2) 0.87026(11)
O3 O 0.25202(19) 0.6385(2) 0.96719(11)
C1 C 0.1060(3) 0.8547(3) 0.73075(16)
C2 C 0.1988(3) 0.9502(3) 0.6860(2)
H2 H 0.25640 1.01220 0.72200
C3 C 0.2064(4) 0.9540(3) 0.5880(2)
H3 H 0.27020 1.01740 0.55800
C4 C 0.1202(4) 0.8644(4) 0.5352(2)
H4 H 0.12420 0.86800 0.46920
C5 C 0.0278(4) 0.7692(3) 0.57910(19)
H5 H -0.03060 0.70850 0.54280
C6 C 0.0210(3) 0.7632(3) 0.67736(18)
H6 H -0.04070 0.69760 0.70710
C7 C 0.1041(3) 0.8581(3) 0.83587(17)
C8 C 0.1414(3) 0.6764(2) 1.01210(16)
C9 C 0.1293(3) 0.6583(2) 1.11699(16)
C10 C 0.2166(3) 0.5543(3) 1.15871(18)
H7 H 0.27740 0.49780 1.12100
C11 C 0.2138(3) 0.5340(3) 1.25610(18)
H8 H 0.27290 0.46430 1.28370
C12 C 0.1244(3) 0.6164(3) 1.31163(19)
H9 H 0.12240 0.60260 1.37710
C13 C 0.0368(3) 0.7203(3) 1.27114(19)
H10 H -0.02380 0.77650 1.30920
C14 C 0.0394(3) 0.7406(3) 1.17371(17)
H11 H -0.02000 0.81040 1.14640
#END
