
#######################################################################
#
#                 Cambridge Crystallographic Data Centre
#                                CCDC
#
#######################################################################
#
# If this CIF has been generated from an entry in the Cambridge
# Structural Database, then it will include bibliographic, chemical,
# crystal, experimental, refinement or atomic coordinate data resulting
# from the CCDC's data processing and validation procedures.
#
#######################################################################

data_CSD_CIF_CAGGOH
_audit_creation_date 2002-03-27
_audit_creation_method CSD-ConQuest-V1
_database_code_CSD CAGGOH
_database_code_depnum_ccdc_archive 'CCDC 180055'
_chemical_formula_sum 'C15 H10 N4 O1'
_chemical_formula_moiety
;
C15 H10 N4 O1
;
_journal_coden_Cambridge 392
_journal_volume 55
_journal_year 2001
_journal_page_first 1703
_journal_name_full 'Heterocycles '
loop_
_publ_author_name
"A.R.Katritzky"
"T.Kurz"
"Suoming Zhang"
"M.Voronkov"
"P.J.Steel"
_chemical_name_systematic
;
1-(Benzotriazol-1-yl)isoquinoline-N-oxide
;
_chemical_melting_point 458.15
_cell_volume   1174.599
_exptl_crystal_colour 'yellow'
_exptl_crystal_density_diffrn 1.483
_exptl_crystal_description 'prisms'
_exptl_crystal_preparation 'ethyl acetate/acetone'
_diffrn_ambient_temperature 168
#These two values have been output from a single CSD field.
_refine_ls_R_factor_gt 0.0528
_refine_ls_wR_factor_gt 0.0528
_symmetry_cell_setting orthorhombic
_symmetry_space_group_name_H-M 'P c a 21'
_symmetry_Int_Tables_number 29
loop_
_symmetry_equiv_pos_site_id
_symmetry_equiv_pos_as_xyz
1 x,y,z
2 -x,-y,1/2+z
3 1/2+x,-y,z
4 1/2-x,y,1/2+z
_cell_length_a 25.664(19)
_cell_length_b 3.964(3)
_cell_length_c 11.546(8)
_cell_angle_alpha 90
_cell_angle_beta 90
_cell_angle_gamma 90
_cell_formula_units_Z 4
loop_
_atom_type_symbol
_atom_type_radius_bond
C 0.68
H 0.23
N 0.68
O 0.68
loop_
_atom_site_label
_atom_site_type_symbol
_atom_site_fract_x
_atom_site_fract_y
_atom_site_fract_z
O1 O 0.45107(9) 0.7196(7) 0.3965(2)
C1 C 0.39812(13) 0.4165(9) 0.5211(3)
N1 N 0.44530(11) 0.5333(8) 0.4884(2)
C2 C 0.48930(13) 0.464(1) 0.5537(3)
H1 H 0.52240 0.53700 0.52700
C3 C 0.48587(14) 0.2952(10) 0.6545(3)
H2 H 0.51660 0.25250 0.69810
C4 C 0.43706(14) 0.180(1) 0.6965(3)
C5 C 0.43175(15) 0.0068(11) 0.8029(3)
H3 H 0.46180 -0.03970 0.84830
C6 C 0.38374(16) -0.0945(11) 0.8409(3)
H4 H 0.38080 -0.21140 0.91240
C7 C 0.33887(15) -0.0275(11) 0.7754(3)
H5 H 0.30560 -0.09310 0.80380
C8 C 0.34290(14) 0.1339(9) 0.6695(3)
H6 H 0.31250 0.17350 0.62450
C9 C 0.39185(14) 0.2398(10) 0.6281(3)
N2 N 0.35714(11) 0.4737(8) 0.4431(3)
N3 N 0.31141(11) 0.6310(8) 0.4793(3)
N4 N 0.28126(11) 0.6672(9) 0.3916(3)
C10 C 0.30610(13) 0.5382(11) 0.2942(3)
C11 C 0.28895(14) 0.5240(11) 0.1786(3)
H7 H 0.25600 0.61040 0.15560
C12 C 0.32270(15) 0.3776(11) 0.1007(3)
H8 H 0.31270 0.36280 0.02160
C13 C 0.37125(15) 0.2499(11) 0.1342(3)
H9 H 0.39280 0.14810 0.07710
C14 C 0.38915(14) 0.2657(11) 0.2468(3)
H10 H 0.42220 0.18030 0.26920
C15 C 0.35495(14) 0.4168(10) 0.3256(3)
#END
