
#######################################################################
#
#                 Cambridge Crystallographic Data Centre
#                                CCDC
#
#######################################################################
#
# If this CIF has been generated from an entry in the Cambridge
# Structural Database, then it will include bibliographic, chemical,
# crystal, experimental, refinement or atomic coordinate data resulting
# from the CCDC's data processing and validation procedures.
#
#######################################################################

data_CSD_CIF_CAJXIX
_audit_creation_date 2017-01-04
_audit_creation_method CSD-ConQuest-V1
_database_code_CSD CAJXIX
_database_code_depnum_ccdc_archive 'CCDC 910940'
_chemical_formula_sum 'C12 H18 N10 O4'
_chemical_formula_moiety
;
C12 H18 N10 O4
;
_journal_coden_Cambridge 1287
_journal_volume 25
_journal_year 2013
_journal_page_first 8991
_journal_name_full 'Asian J.Chem. '
loop_
_publ_author_name
"Lili An"
"Qianqian Yu"
"Chufeng Sun"
_chemical_name_systematic
;
(E)-4,4'-bis(t-butyl-N,N,O-azoxy)-3,3'-diazenofurazan
;
_cell_volume    935.738
_exptl_crystal_colour 'yellow'
_exptl_crystal_density_diffrn 1.3
_exptl_crystal_description 'block'
_diffrn_ambient_temperature 296
#These two values have been output from a single CSD field.
_refine_ls_R_factor_gt 0.0444
_refine_ls_wR_factor_gt 0.0444
_symmetry_cell_setting monoclinic
_symmetry_space_group_name_H-M 'P 21/c'
_symmetry_Int_Tables_number 14
loop_
_symmetry_equiv_pos_site_id
_symmetry_equiv_pos_as_xyz
1 x,y,z
2 -x,1/2+y,1/2-z
3 -x,-y,-z
4 x,-1/2-y,-1/2+z
_cell_length_a 11.427(4)
_cell_length_b 6.406(2)
_cell_length_c 12.788(5)
_cell_angle_alpha 90
_cell_angle_beta 91.591(7)
_cell_angle_gamma 90
_cell_formula_units_Z 2
loop_
_atom_type_symbol
_atom_type_radius_bond
C 0.68
H 0.23
N 0.68
O 0.68
loop_
_atom_site_label
_atom_site_type_symbol
_atom_site_fract_x
_atom_site_fract_y
_atom_site_fract_z
C1 C -0.06140(15) 0.3491(3) 0.09780(12)
C2 C 0.00717(16) 0.1753(3) 0.13194(12)
C3 C 0.32182(18) 0.2294(4) 0.10016(15)
C4 C 0.3778(3) 0.4425(5) 0.1206(3)
H1 H 0.33900 0.54570 0.07770
H2 H 0.45920 0.43700 0.10410
H3 H 0.37040 0.47870 0.19300
C5 C 0.3350(2) 0.1755(5) -0.01484(18)
H4 H 0.30700 0.03630 -0.02760
H5 H 0.41600 0.18410 -0.03230
H6 H 0.29030 0.27210 -0.05720
C6 C 0.3744(2) 0.0649(5) 0.1726(2)
H7 H 0.35660 0.09800 0.24360
H8 H 0.45780 0.06170 0.16540
H9 H 0.34220 -0.06920 0.15470
N1 N -0.04154(13) 0.5180(2) 0.02942(10)
N2 N -0.16216(14) 0.3406(3) 0.14267(12)
N3 N -0.05125(16) 0.0620(3) 0.19482(13)
N4 N 0.12560(14) 0.1197(2) 0.10731(10)
N5 N 0.19733(14) 0.2650(2) 0.12491(11)
O1 O -0.15765(14) 0.1618(3) 0.20254(11)
O2 O 0.14034(15) -0.0615(2) 0.07263(13)
C1B C 0.06140(15) 0.6509(3) -0.09780(12)
C2B C -0.00717(16) 0.8247(3) -0.13194(12)
C3B C -0.32182(18) 0.7706(4) -0.10016(15)
C4B C -0.3778(3) 0.5575(5) -0.1206(3)
H1B H -0.33900 0.45430 -0.07770
H2B H -0.45920 0.56300 -0.10410
H3B H -0.37040 0.52130 -0.19300
C5B C -0.3350(2) 0.8245(5) 0.01484(18)
H4B H -0.30700 0.96370 0.02760
H5B H -0.41600 0.81590 0.03230
H6B H -0.29030 0.72790 0.05720
C6B C -0.3744(2) 0.9351(5) -0.1726(2)
H7B H -0.35660 0.90200 -0.24360
H8B H -0.45780 0.93830 -0.16540
H9B H -0.34220 1.06920 -0.15470
N1B N 0.04154(13) 0.4820(2) -0.02942(10)
N2B N 0.16216(14) 0.6594(3) -0.14267(12)
N3B N 0.05125(16) 0.9380(3) -0.19482(13)
N4B N -0.12560(14) 0.8803(2) -0.10731(10)
N5B N -0.19733(14) 0.7350(2) -0.12491(11)
O1B O 0.15765(14) 0.8382(3) -0.20254(11)
O2B O -0.14034(15) 1.0615(2) -0.07263(13)
#END
