
#######################################################################
#
#                 Cambridge Crystallographic Data Centre
#                                CCDC
#
#######################################################################
#
# If this CIF has been generated from an entry in the Cambridge
# Structural Database, then it will include bibliographic, chemical,
# crystal, experimental, refinement or atomic coordinate data resulting
# from the CCDC's data processing and validation procedures.
#
#######################################################################

data_CSD_CIF_CAMMUA
_audit_creation_date 2012-01-25
_audit_creation_method CSD-ConQuest-V1
_database_code_CSD CAMMUA
_database_code_depnum_ccdc_archive 'CCDC 844422'
_chemical_formula_sum 'C15 H11 N1 O4'
_chemical_formula_moiety
;
C15 H11 N1 O4
;
_journal_coden_Cambridge 1490
_journal_volume 2
_journal_year 2011
_journal_page_first 524
_journal_name_full 'Nat.Commun. '
loop_
_publ_author_name
"Xixi Song"
"Aiguo Song"
"Fang Zhang"
"He-Xing Li"
"Wei Wang"
_chemical_name_systematic
;
(E)-2-(4-Hydroxyphenyl)-3-(4-nitrophenyl)acrylaldehyde
;
_chemical_melting_point 458.15
_cell_volume   1246.913
_exptl_crystal_colour 'yellow'
_exptl_crystal_density_diffrn 1.434
_exptl_special_details
;
Melting point range 458.15-459.15K

;
_diffrn_ambient_temperature 228
#These two values have been output from a single CSD field.
_refine_ls_R_factor_gt 0.0325
_refine_ls_wR_factor_gt 0.0325
_symmetry_cell_setting orthorhombic
_symmetry_space_group_name_H-M 'P n a 21'
_symmetry_Int_Tables_number 33
loop_
_symmetry_equiv_pos_site_id
_symmetry_equiv_pos_as_xyz
1 x,y,z
2 -x,-y,1/2+z
3 1/2+x,1/2-y,z
4 1/2-x,1/2+y,1/2+z
_cell_length_a 18.8185(9)
_cell_length_b 11.4200(5)
_cell_length_c 5.8021(2)
_cell_angle_alpha 90
_cell_angle_beta 90
_cell_angle_gamma 90
_cell_formula_units_Z 4
loop_
_atom_type_symbol
_atom_type_radius_bond
C 0.68
H 0.23
N 0.68
O 0.68
loop_
_atom_site_label
_atom_site_type_symbol
_atom_site_fract_x
_atom_site_fract_y
_atom_site_fract_z
N1 N 0.88053(10) 0.59655(17) -0.3369(4)
O1 O 0.94385(10) 0.61542(16) -0.3621(4)
O2 O 0.83447(9) 0.64225(16) -0.4552(4)
O3 O 1.13054(8) 0.12893(15) 0.4981(4)
H1 H 1.14110 0.07100 0.41870
O4 O 0.81832(9) 0.07546(15) 0.8153(4)
C1 C 0.77305(11) 0.38423(18) -0.0014(5)
H2 H 0.72780 0.34950 -0.00630
C2 C 0.79186(11) 0.46366(18) -0.1702(5)
H3 H 0.76030 0.48280 -0.29000
C3 C 0.85845(11) 0.51423(18) -0.1577(4)
C4 C 0.90563(11) 0.48874(19) 0.0164(5)
H4 H 0.95040 0.52530 0.02150
C5 C 0.88634(11) 0.40876(19) 0.1834(5)
H5 H 0.91820 0.39070 0.30300
C6 C 0.81979(11) 0.35429(18) 0.1765(4)
C7 C 0.79590(11) 0.27356(18) 0.3561(4)
H6 H 0.74640 0.26860 0.37500
C8 C 0.83438(11) 0.20521(18) 0.4985(4)
C9 C 0.91242(11) 0.18629(18) 0.4928(5)
C10 C 0.94487(12) 0.12732(19) 0.3127(4)
H7 H 0.91700 0.10130 0.18850
C11 C 1.01677(12) 0.1058(2) 0.3104(5)
H8 H 1.03760 0.06460 0.18750
C12 C 1.05816(11) 0.14580(18) 0.4917(5)
C13 C 1.02756(12) 0.20547(19) 0.6717(5)
H9 H 1.05590 0.23360 0.79310
C14 C 0.95507(12) 0.22393(19) 0.6738(5)
H10 H 0.93420 0.26260 0.79980
C15 C 0.79362(13) 0.1423(2) 0.6737(5)
H11 H 0.74420 0.15470 0.67700
#END
