
#######################################################################
#
#                 Cambridge Crystallographic Data Centre
#                                CCDC
#
#######################################################################
#
# If this CIF has been generated from an entry in the Cambridge
# Structural Database, then it will include bibliographic, chemical,
# crystal, experimental, refinement or atomic coordinate data resulting
# from the CCDC's data processing and validation procedures.
#
#######################################################################

data_CSD_CIF_CAQRAQ
_audit_creation_date 2017-05-23
_audit_creation_method CSD-ConQuest-V1
_database_code_CSD CAQRAQ
_database_code_depnum_ccdc_archive 'CCDC 1551903'
_chemical_formula_sum 'C29 H26 N2 O9'
_chemical_formula_moiety
;
C29 H26 N2 O9
;
_journal_coden_Cambridge 1336
_journal_volume 19
_journal_year 2017
_journal_page_first 2742
_journal_name_full 'Org.Lett. '
loop_
_publ_author_name
"Xin Liu"
"Junyang Liu"
"Jing Zhao"
"Shaoping Li"
"Chuang-Chuang Li"
_chemical_name_systematic
;
10-methyl-2,3,3a,4,9,10-hexahydro-1H,5aH-4,6-(ethanylylidene)cyclohepta[b]cycl
openta[c]furan-3,12-diyl bis(4-nitrobenzoate)
;
_cell_volume   2568.550
_exptl_crystal_colour 'colorless'
_exptl_crystal_density_diffrn 1.413
_exptl_crystal_description 'needle'
_diffrn_ambient_temperature 150
#These two values have been output from a single CSD field.
_refine_ls_R_factor_gt 0.0342
_refine_ls_wR_factor_gt 0.0342
_symmetry_cell_setting monoclinic
_symmetry_space_group_name_H-M 'P 21/n'
_symmetry_Int_Tables_number 14
loop_
_symmetry_equiv_pos_site_id
_symmetry_equiv_pos_as_xyz
1 x,y,z
2 1/2-x,1/2+y,1/2-z
3 -x,-y,-z
4 -1/2+x,-1/2-y,-1/2+z
_cell_length_a 6.6679(2)
_cell_length_b 38.7460(9)
_cell_length_c 10.4761(3)
_cell_angle_alpha 90
_cell_angle_beta 108.375(1)
_cell_angle_gamma 90
_cell_formula_units_Z 4
loop_
_atom_type_symbol
_atom_type_radius_bond
C 0.68
H 0.23
N 0.68
O 0.68
loop_
_atom_site_label
_atom_site_type_symbol
_atom_site_fract_x
_atom_site_fract_y
_atom_site_fract_z
O1 O 0.4581(2) 0.57339(3) 0.69522(14)
O2 O 0.3229(2) 0.57803(3) 0.47986(14)
O3 O 0.23255(16) 0.39934(3) 0.65895(10)
O4 O 0.08158(15) 0.40556(2) 0.43600(9)
O5 O 0.12514(17) 0.28817(3) 0.51145(10)
O6 O 0.57741(16) 0.33928(3) 0.71033(9)
O7 O 0.4323(2) 0.34375(3) 0.87731(11)
O8 O 1.28728(18) 0.46652(3) 0.99790(11)
O9 O 1.10451(18) 0.48079(3) 1.12751(10)
N1 N 0.3710(2) 0.56117(3) 0.58391(15)
N2 N 1.1339(2) 0.46300(3) 1.03789(12)
C1 C 0.3228(2) 0.52397(4) 0.57540(15)
C2 C 0.3764(2) 0.50504(4) 0.69331(15)
H1 H 0.44095 0.51579 0.77783
C3 C 0.3336(2) 0.47018(4) 0.68494(14)
H2 H 0.37041 0.45659 0.76446
C4 C 0.2367(2) 0.45472(4) 0.56074(13)
C5 C 0.1859(2) 0.47441(4) 0.44342(14)
H3 H 0.12112 0.46377 0.35871
C6 C 0.2297(2) 0.50942(4) 0.44998(14)
H4 H 0.19674 0.52305 0.37068
C7 C 0.1863(2) 0.41721(4) 0.55899(14)
C8 C 0.0180(2) 0.36926(4) 0.42878(14)
H5 H -0.06145 0.36478 0.49369
C9 C -0.1244(2) 0.36237(4) 0.28596(15)
H6 H -0.09241 0.37852 0.22173
H7 H -0.27508 0.36479 0.27941
C10 C -0.0740(2) 0.32527(4) 0.25775(15)
H8 H -0.10547 0.32151 0.15992
H9 H -0.15870 0.30882 0.29191
C11 C 0.1639(2) 0.32032(3) 0.33186(14)
C12 C 0.2079(2) 0.34454(3) 0.45750(13)
H10 H 0.34285 0.35760 0.47287
C13 C 0.2503(2) 0.35920(4) 0.15728(15)
H11 H 0.10933 0.35629 0.09176
H12 H 0.35371 0.36280 0.10969
H13 H 0.25015 0.37924 0.21430
C14 C 0.3088(2) 0.32698(4) 0.24446(14)
H14 H 0.45467 0.33071 0.30770
C15 C 0.3197(3) 0.29545(4) 0.15628(15)
H15 H 0.17677 0.28523 0.12100
H16 H 0.36030 0.30360 0.07827
C16 C 0.4717(3) 0.26765(4) 0.22688(16)
H17 H 0.52812 0.25346 0.17256
C17 C 0.5347(3) 0.26105(4) 0.35820(16)
H18 H 0.64407 0.24461 0.39275
C18 C 0.4428(2) 0.27803(4) 0.45229(15)
C19 C 0.2076(2) 0.28487(4) 0.40108(14)
H19 H 0.13246 0.26619 0.33827
C20 C 0.5526(3) 0.28951(4) 0.57429(16)
H20 H 0.70024 0.28520 0.60846
C21 C 0.4466(3) 0.30910(4) 0.65806(15)
H21 H 0.44022 0.29431 0.73492
C22 C 0.2231(2) 0.31956(4) 0.57513(14)
H22 H 0.14499 0.32907 0.63462
C23 C 0.5535(2) 0.35390(4) 0.82123(14)
C24 C 0.7002(2) 0.38363(4) 0.86919(14)
C25 C 0.8739(3) 0.38889(4) 0.82502(15)
H23 H 0.89501 0.37443 0.75717
C26 C 1.0156(2) 0.41506(4) 0.87939(15)
H24 H 1.13606 0.41853 0.85099
C27 C 0.9784(2) 0.43603(4) 0.97579(14)
C28 C 0.8031(2) 0.43222(4) 1.01857(14)
H25 H 0.77871 0.44753 1.08296
C29 C 0.6649(2) 0.40557(4) 0.96508(14)
H26 H 0.54473 0.40218 0.99390
#END
