
#######################################################################
#
#                 Cambridge Crystallographic Data Centre
#                                CCDC
#
#######################################################################
#
# If this CIF has been generated from an entry in the Cambridge
# Structural Database, then it will include bibliographic, chemical,
# crystal, experimental, refinement or atomic coordinate data resulting
# from the CCDC's data processing and validation procedures.
#
#######################################################################

data_CSD_CIF_CAYHEP
_audit_creation_date 2000-05-24
_audit_creation_method CSD-ConQuest-V1
_database_code_CSD CAYHEP
_database_code_depnum_ccdc_archive 'CCDC 142947'
_chemical_formula_sum 'C12 H15 N1 O1'
_chemical_formula_moiety
;
C12 H15 N1 O1
;
_journal_coeditor_code "IUCr QA0212"
_journal_data_validation_number IUC0000019
_journal_coden_Cambridge 591
_journal_volume 56
_journal_year 2000
_journal_page_first e71
_journal_name_full 'Acta Crystallogr.,Sect.C:Cryst.Struct.Commun. '
loop_
_publ_author_name
"W.Tam"
"S.Handerson"
"G.Ferguson"
_chemical_name_systematic
;
2,3,3a,4,5a,6,7,8-Octahydro-5a-methyl-6,9-methano-1H,9H-5-oxa-4-azacyclopenta(
c)indene
;
_cell_volume    992.199
_exptl_crystal_colour 'colorless'
_exptl_crystal_density_diffrn 1.267
_exptl_crystal_description 'plate'
_exptl_crystal_preparation 'ethyl acetate/hexanes'
_diffrn_ambient_temperature ?
_diffrn_special_details
;
The study was carried out at room temperature,in the range 283-303K

;
#These two values have been output from a single CSD field.
_refine_ls_R_factor_gt 0.0442
_refine_ls_wR_factor_gt 0.0442
_symmetry_cell_setting monoclinic
_symmetry_space_group_name_H-M 'P 21/n'
_symmetry_Int_Tables_number 14
loop_
_symmetry_equiv_pos_site_id
_symmetry_equiv_pos_as_xyz
1 x,y,z
2 1/2-x,1/2+y,1/2-z
3 -x,-y,-z
4 -1/2+x,-1/2-y,-1/2+z
_cell_length_a 7.640(2)
_cell_length_b 12.7121(14)
_cell_length_c 10.2205(7)
_cell_angle_alpha 90
_cell_angle_beta 91.668(11)
_cell_angle_gamma 90
_cell_formula_units_Z 4
loop_
_atom_type_symbol
_atom_type_radius_bond
C 0.68
H 0.23
N 0.68
O 0.68
loop_
_atom_site_label
_atom_site_type_symbol
_atom_site_fract_x
_atom_site_fract_y
_atom_site_fract_z
O1 O 0.21653(16) 0.27567(10) 0.05223(11)
N1 N 0.0809(2) 0.35228(11) 0.03739(14)
C1 C 0.1863(3) 0.11372(14) 0.18024(18)
C2 C 0.2196(2) 0.23317(13) 0.18701(16)
C3 C 0.0493(2) 0.27558(12) 0.24506(15)
C4 C -0.0637(2) 0.17320(13) 0.25784(17)
C5 C 0.0261(3) 0.11096(13) 0.36577(19)
C6 C 0.1746(3) 0.07582(14) 0.31991(18)
C7 C -0.0072(3) 0.11142(14) 0.13816(19)
C8 C 0.0429(3) 0.34903(14) 0.36314(17)
C9 C -0.1187(3) 0.41804(16) 0.3352(2)
C10 C -0.1428(3) 0.42595(15) 0.18525(19)
C11 C -0.0108(2) 0.34888(13) 0.13890(16)
C12 C 0.3923(2) 0.26523(17) 0.2496(2)
H1 H 0.26510 0.07370 0.12490
H2 H -0.19010 0.18370 0.26580
H3 H -0.01550 0.09950 0.44920
H4 H 0.25720 0.03510 0.36530
H5 H -0.03140 0.14810 0.05640
H6 H -0.05540 0.04080 0.13450
H7 H 0.14820 0.39150 0.37060
H8 H 0.03060 0.30940 0.44340
H9 H -0.10140 0.48740 0.37290
H10 H -0.22140 0.38670 0.37290
H11 H -0.26050 0.40620 0.15680
H12 H -0.11820 0.49640 0.15450
H13 H 0.48610 0.23800 0.19910
H14 H 0.40120 0.23760 0.33690
H15 H 0.39960 0.34060 0.25250
#END
