
#######################################################################
#
#                 Cambridge Crystallographic Data Centre
#                                CCDC
#
#######################################################################
#
# If this CIF has been generated from an entry in the Cambridge
# Structural Database, then it will include bibliographic, chemical,
# crystal, experimental, refinement or atomic coordinate data resulting
# from the CCDC's data processing and validation procedures.
#
#######################################################################

data_CSD_CIF_CDODOX
_audit_creation_date 1980-03-07
_audit_creation_method CSD-ConQuest-V1
_database_code_CSD CDODOX
_database_code_depnum_ccdc_archive 'CCDC 1121767'
_chemical_formula_sum 'C12 H23 N1 O1'
_chemical_formula_moiety
;
C12 H23 N1 O1
;
_journal_coden_Cambridge 3
_journal_volume 33
_journal_year 1979
_journal_page_first 503
_journal_name_full 'Acta Chem.Scand. '
loop_
_publ_author_name
"P.Groth"
_chemical_name_systematic
;
Cyclododecane-oxime
;
_cell_volume    585.076
_exptl_crystal_density_diffrn 1.12
_diffrn_ambient_temperature 113.15
_refine_special_details
;
The N-OH group in the molecule is disordered over two sites.

;
#These two values have been output from a single CSD field.
_refine_ls_R_factor_gt 0.112
_refine_ls_wR_factor_gt 0.112
_symmetry_cell_setting triclinic
_symmetry_space_group_name_H-M 'P -1'
_symmetry_Int_Tables_number 2
loop_
_symmetry_equiv_pos_site_id
_symmetry_equiv_pos_as_xyz
1 x,y,z
2 -x,-y,-z
_cell_length_a 5.395(1)
_cell_length_b 8.263(2)
_cell_length_c 13.894(3)
_cell_angle_alpha 98.79(2)
_cell_angle_beta 98.37(2)
_cell_angle_gamma 103.30(2)
_cell_formula_units_Z 2
loop_
_atom_type_symbol
_atom_type_radius_bond
C 0.68
H 0.23
N 0.68
O 0.68
loop_
_atom_site_label
_atom_site_type_symbol
_atom_site_fract_x
_atom_site_fract_y
_atom_site_fract_z
O1 O 1.00740 0.18880 0.48390
N1 N 0.85130 0.10280 0.55310
C1 C 0.71570 0.20900 0.59320
C2 C 0.72380 0.37690 0.57770
C3 C 0.86090 0.51760 0.66770
C4 C 1.13040 0.52230 0.69840
C5 C 1.25790 0.61080 0.81020
C6 C 1.16450 0.49730 0.88210
C7 C 1.28240 0.35860 0.88060
C8 C 1.14020 0.20910 0.92880
C9 C 0.86040 0.10970 0.86840
C10 C 0.86290 0.01190 0.77300
C11 C 0.59860 -0.02770 0.69600
C12 C 0.56130 0.13050 0.65740
H1 H 0.53700 0.38200 0.56000
H2 H 0.81200 0.39900 0.52200
H3 H 0.77200 0.50600 0.72900
H4 H 0.85300 0.63700 0.65500
H5 H 1.23500 0.57800 0.65200
H6 H 1.14100 0.39800 0.68800
H7 H 1.20200 0.72200 0.82500
H8 H 1.45000 0.64100 0.82000
H9 H 0.97000 0.45200 0.86400
H10 H 1.20700 0.57000 0.95200
H11 H 1.46800 0.40200 0.92100
H12 H 1.29100 0.31000 0.81200
H13 H 1.12300 0.25800 0.99700
H14 H 1.24300 0.12400 0.93100
H15 H 0.74800 0.19200 0.85700
H16 H 0.76400 0.03000 0.90900
H17 H 0.89900 -0.10100 0.78200
H18 H 1.00700 0.07500 0.74500
H19 H 0.45500 -0.07700 0.72800
H20 H 0.60700 -0.11500 0.63700
H21 H 0.57600 0.22400 0.71800
H22 H 0.37100 0.10200 0.62100
H23 H 1.09700 0.10300 0.43300
#END
