
#######################################################################
#
#                 Cambridge Crystallographic Data Centre
#                                CCDC
#
#######################################################################
#
# If this CIF has been generated from an entry in the Cambridge
# Structural Database, then it will include bibliographic, chemical,
# crystal, experimental, refinement or atomic coordinate data resulting
# from the CCDC's data processing and validation procedures.
#
#######################################################################

data_CSD_CIF_CEJXIB
_audit_creation_date 2017-10-06
_audit_creation_method CSD-ConQuest-V1
_database_code_CSD CEJXIB
_database_code_depnum_ccdc_archive 'CCDC 1543543'
_chemical_formula_sum 'C17 H20 N2 O3'
_chemical_formula_moiety
;
C17 H20 N2 O3
;
_journal_coden_Cambridge 179
_journal_volume 56
_journal_year 2017
_journal_page_first 11599
_journal_name_full 'Angew.Chem.,Int.Ed. '
loop_
_publ_author_name
"Li Zhai"
"Xuechao Tian"
"Chao Wang"
"Qi Cui"
"Wenhua Li"
"Sha-Hua Huang"
"Zhi-Xiang Yu"
"Ran Hong"
_chemical_name_systematic
;
2-(acetyloxy)-6-benzyl-8-methylidene-2,6-diazabicyclo[3.3.1]nonan-3-one
;
_cell_volume    784.016
_exptl_crystal_colour 'colorless'
_exptl_crystal_density_diffrn 1.272
_exptl_crystal_description 'prismatic'
_diffrn_ambient_temperature 293
#These two values have been output from a single CSD field.
_refine_ls_R_factor_gt 0.046
_refine_ls_wR_factor_gt 0.046
_symmetry_cell_setting triclinic
_symmetry_space_group_name_H-M 'P -1'
_symmetry_Int_Tables_number 2
loop_
_symmetry_equiv_pos_site_id
_symmetry_equiv_pos_as_xyz
1 x,y,z
2 -x,-y,-z
_cell_length_a 6.4628(11)
_cell_length_b 9.2953(15)
_cell_length_c 13.627(2)
_cell_angle_alpha 105.066(3)
_cell_angle_beta 94.680(3)
_cell_angle_gamma 94.222(4)
_cell_formula_units_Z 2
loop_
_atom_type_symbol
_atom_type_radius_bond
C 0.68
H 0.23
N 0.68
O 0.68
loop_
_atom_site_label
_atom_site_type_symbol
_atom_site_fract_x
_atom_site_fract_y
_atom_site_fract_z
N1 N 0.7017(2) 0.39431(14) 0.62559(10)
N2 N 0.6962(2) 0.70474(13) 0.82955(9)
O1 O 0.3524(2) 0.33845(15) 0.60733(10)
O2 O 0.7175(2) 0.24466(11) 0.63007(8)
O3 O 0.7664(3) 0.18245(15) 0.4648(1)
C1 C 0.5015(3) 0.43222(19) 0.62983(11)
C2 C 0.4799(3) 0.59802(19) 0.65788(12)
H1 H 0.35980 0.61590 0.69610
H2 H 0.45090 0.62760 0.59530
C3 C 0.6683(3) 0.69932(17) 0.72074(12)
H3 H 0.65360 0.80130 0.71550
C4 C 0.8617(3) 0.64835(18) 0.67165(13)
H4 H 0.98320 0.71570 0.70570
H5 H 0.84720 0.64810 0.60020
C5 C 0.8867(3) 0.49094(18) 0.68155(12)
H6 H 1.01210 0.45530 0.65120
C6 C 0.9053(3) 0.49224(17) 0.79246(12)
C7 C 0.7311(3) 0.56026(16) 0.84824(11)
H7 H 0.60430 0.49280 0.82620
H8 H 0.76420 0.57350 0.92100
C8 C 1.0592(3) 0.4370(2) 0.83431(17)
H9 H 1.06490 0.43850 0.90300
H10 H 1.16290 0.39630 0.79540
C9 C 0.5278(3) 0.77115(18) 0.88547(12)
H11 H 0.40490 0.69940 0.86920
H12 H 0.49310 0.85830 0.86330
C10 C 0.5849(3) 0.81717(16) 0.99959(12)
C11 C 0.4391(4) 0.7961(2) 1.06422(15)
H13 H 0.30670 0.74990 1.03720
C12 C 0.4879(6) 0.8430(3) 1.16828(18)
H14 H 0.38790 0.82780 1.21090
C13 C 0.6796(6) 0.9110(3) 1.21000(17)
H15 H 0.71080 0.94310 1.28060
C14 C 0.8270(4) 0.9319(3) 1.14651(17)
H16 H 0.95910 0.97830 1.17410
C15 C 0.7791(3) 0.8841(2) 1.04178(14)
H17 H 0.88030 0.89760 0.99930
C16 C 0.7516(3) 0.14774(17) 0.54160(12)
C17 C 0.7658(3) -0.00180(19) 0.55985(15)
H18 H 0.75110 -0.07680 0.49560
H19 H 0.65670 -0.02170 0.59970
H20 H 0.89890 -0.00380 0.59610
#END
