
#######################################################################
#
#                 Cambridge Crystallographic Data Centre
#                                CCDC
#
#######################################################################
#
# If this CIF has been generated from an entry in the Cambridge
# Structural Database, then it will include bibliographic, chemical,
# crystal, experimental, refinement or atomic coordinate data resulting
# from the CCDC's data processing and validation procedures.
#
#######################################################################

data_CSD_CIF_CETMET
_audit_creation_date 1984-11-14
_audit_creation_method CSD-ConQuest-V1
_database_code_CSD CETMET
_database_code_depnum_ccdc_archive 'CCDC 1123598'
_chemical_formula_sum 'C23 H24 N2 O6'
_chemical_formula_moiety
;
C23 H24 N2 O6
;
_journal_coden_Cambridge 48
_journal_volume 117
_journal_year 1984
_journal_page_first 203
_journal_name_full 'Chem.Ber. '
loop_
_publ_author_name
"L.Fitjer"
"D.Wehle"
"M.Noltemeyer"
"E.Egert"
"G.M.Sheldrick"
_chemical_name_systematic
;
13-(3,5-Dinitrobenzoyloxy)-hexacyclo(12.2.0.0^1,4^.0^4,7^.0^7,10^.0^10,13^)hex
adecane
;
_chemical_melting_point 453.15
_cell_volume   2057.991
_exptl_crystal_colour 'colorless'
_exptl_crystal_density_diffrn 1.37
_exptl_special_details
;
Melting point range 453.15-455.15K

;
_diffrn_ambient_temperature ?
_diffrn_special_details
;
The study was carried out at room temperature,in the range 283-303K

;
#These two values have been output from a single CSD field.
_refine_ls_R_factor_gt 0.056
_refine_ls_wR_factor_gt 0.056
_symmetry_cell_setting monoclinic
_symmetry_space_group_name_H-M 'P 21/c'
_symmetry_Int_Tables_number 14
loop_
_symmetry_equiv_pos_site_id
_symmetry_equiv_pos_as_xyz
1 x,y,z
2 -x,1/2+y,1/2-z
3 -x,-y,-z
4 x,-1/2-y,-1/2+z
_cell_length_a 8.016(1)
_cell_length_b 7.516(1)
_cell_length_c 34.188(4)
_cell_angle_alpha 90
_cell_angle_beta 92.38(1)
_cell_angle_gamma 90
_cell_formula_units_Z 4
loop_
_atom_type_symbol
_atom_type_radius_bond
C 0.68
H 0.23
N 0.68
O 0.68
loop_
_atom_site_label
_atom_site_type_symbol
_atom_site_fract_x
_atom_site_fract_y
_atom_site_fract_z
C1 C 0.06185 0.35548 0.40459
C2 C -0.07685 0.24666 0.38302
C3 C -0.01592 0.08179 0.40613
C4 C 0.07765 0.20656 0.43550
C5 C 0.00954 0.24701 0.47592
C6 C 0.18982 0.25869 0.49287
C7 C 0.25082 0.17148 0.45542
C8 C 0.31559 -0.02215 0.45563
C9 C 0.43967 0.03004 0.42457
C10 C 0.40577 0.22688 0.43309
C11 C 0.53175 0.34739 0.45563
C12 C 0.45615 0.50733 0.43391
C13 C 0.38608 0.37528 0.40208
C14 C 0.21784 0.40410 0.38107
C15 C 0.15324 0.59514 0.37776
C16 C 0.03997 0.55703 0.41217
O1 O 0.21789 0.30203 0.34420
C17 C 0.30102 0.36942 0.31459
O2 O 0.37540 0.50796 0.31511
C18 C 0.28763 0.25075 0.27923
C19 C 0.22562 0.07867 0.28102
C20 C 0.21668 -0.02115 0.24753
C21 C 0.26118 0.04337 0.21181
C22 C 0.31960 0.21388 0.21106
C23 C 0.33725 0.31825 0.24395
N1 N 0.15257 -0.20496 0.24973
O3 O 0.08822 -0.25127 0.27968
O4 O 0.16750 -0.30109 0.22128
N2 N 0.36520 0.29051 0.17292
O5 O 0.31767 0.21338 0.14345
O6 O 0.44926 0.42568 0.17371
H1 H -0.18981 0.28511 0.39090
H2 H -0.07047 0.23751 0.35443
H3 H 0.07180 0.01436 0.38997
H4 H -0.09724 0.01095 0.41800
H5 H -0.05312 0.13988 0.48583
H6 H -0.05438 0.35165 0.47733
H7 H 0.22924 0.38996 0.49437
H8 H 0.21601 0.19712 0.51928
H9 H 0.37545 -0.04783 0.48047
H10 H 0.23215 -0.12054 0.44876
H11 H 0.40498 -0.00793 0.39810
H12 H 0.55208 -0.01176 0.42899
H13 H 0.52980 0.35426 0.48590
H14 H 0.65221 0.31840 0.45013
H15 H 0.35585 0.56564 0.44870
H16 H 0.53046 0.58522 0.42305
H17 H 0.46840 0.36139 0.38175
H18 H 0.23298 0.69261 0.38126
H19 H 0.08543 0.60942 0.35187
H20 H -0.07441 0.58845 0.40969
H21 H 0.09229 0.59508 0.43880
H22 H 0.19028 0.02689 0.30588
H23 H 0.24929 -0.02509 0.18738
H24 H 0.37224 0.43397 0.24202
#END
