
#######################################################################
#
#                 Cambridge Crystallographic Data Centre
#                                CCDC
#
#######################################################################
#
# If this CIF has been generated from an entry in the Cambridge
# Structural Database, then it will include bibliographic, chemical,
# crystal, experimental, refinement or atomic coordinate data resulting
# from the CCDC's data processing and validation procedures.
#
#######################################################################

data_CSD_CIF_CIFREO
_audit_creation_date 1985-03-02
_audit_creation_method CSD-ConQuest-V1
_database_code_CSD CIFREO
_chemical_formula_sum 'C22 H22 N2 O4'
_chemical_formula_moiety
;
C22 H22 N2 O4
;
_journal_coden_Cambridge 35
_journal_volume 49
_journal_year 1984
_journal_page_first 1640
_journal_name_full 'J.Org.Chem. '
loop_
_publ_author_name
"T.Mitsudo"
"W.Fischetti"
"R.F.Heck"
_chemical_name_systematic
;
1,4-Dimethyl-2-p-nitrophenyl-1-(2-(p-nitrophenyl)-ethylene)-cyclohex-3-ene
;
_cell_volume   3897.928
_exptl_crystal_colour 'colorless'
_exptl_crystal_density_diffrn 1.289
_diffrn_ambient_temperature ?
_diffrn_special_details
;
The study was carried out at room temperature,in the range 283-303K

;
#These two values have been output from a single CSD field.
_refine_ls_R_factor_gt 0.0792
_refine_ls_wR_factor_gt 0.0792
_symmetry_cell_setting monoclinic
_symmetry_space_group_name_H-M 'C 2/c'
_symmetry_Int_Tables_number 15
loop_
_symmetry_equiv_pos_site_id
_symmetry_equiv_pos_as_xyz
1 x,y,z
2 1/2+x,1/2+y,z
3 -x,y,1/2-z
4 1/2-x,1/2+y,1/2-z
5 -x,-y,-z
6 -1/2-x,-1/2-y,-z
7 x,-y,-1/2+z
8 -1/2+x,-1/2-y,-1/2+z
_cell_length_a 19.65
_cell_length_b 11.666(3)
_cell_length_c 20.460(3)
_cell_angle_alpha 90
_cell_angle_beta 123.79(2)
_cell_angle_gamma 90
_cell_formula_units_Z 8
loop_
_atom_type_symbol
_atom_type_radius_bond
C 0.68
H 0.23
N 0.68
O 0.68
loop_
_atom_site_label
_atom_site_type_symbol
_atom_site_fract_x
_atom_site_fract_y
_atom_site_fract_z
C1 C 0.24290 0.33560 0.08030
C2 C 0.31800 0.35800 0.14890
H1 H 0.33740 0.43540 0.16270
C3 C 0.36410 0.26920 0.19630
H2 H 0.41680 0.28510 0.24320
C4 C 0.33640 0.15680 0.17810
C5 C 0.26110 0.13720 0.10870
H3 H 0.24190 0.05990 0.09390
C6 C 0.21340 0.22520 0.06040
H4 H 0.16050 0.21030 0.01360
C7 C 0.47350 0.42840 0.56640
C8 C 0.38990 0.41490 0.52150
H5 H 0.35560 0.45850 0.53200
C9 C 0.35710 0.33700 0.46160
H6 H 0.29870 0.32800 0.42920
C10 C 0.40480 0.27000 0.44510
C11 C 0.48860 0.28760 0.49290
H7 H 0.52360 0.24290 0.48380
C12 C 0.52370 0.36670 0.55310
H8 H 0.58180 0.37840 0.58460
C13 C 0.36510 0.18660 0.38080
C14 C 0.40340 0.12490 0.35640
C15 C 0.36810 0.03360 0.29430
C16 C 0.41570 -0.07810 0.33660
C17 C 0.38920 -0.18230 0.28080
C18 C 0.38270 -0.15180 0.20700
C19 C 0.38200 -0.04440 0.18600
C20 C 0.38750 0.06080 0.23160
C21 C 0.27680 0.01510 0.25700
C22 C 0.37790 -0.25340 0.15760
N1 N 0.19310 0.42960 0.02920
N2 N 0.50990 0.51040 0.63160
O1 O 0.12150 0.41150 -0.02300
O2 O 0.22430 0.52540 0.03940
O3 O 0.46560 0.58070 0.63320
O4 O 0.58380 0.50640 0.67900
H9 H 0.30710 0.17600 0.35430
H10 H 0.46060 0.14110 0.38150
H11 H 0.40630 -0.09600 0.37680
H12 H 0.47300 -0.06450 0.36030
H13 H 0.33720 -0.20980 0.26830
H14 H 0.42950 -0.24170 0.30710
H15 H 0.37740 -0.03150 0.13740
H16 H 0.44370 0.08480 0.26110
H17 H 0.25760 -0.04420 0.21810
H18 H 0.24780 0.08490 0.23260
H19 H 0.26760 -0.00730 0.29670
H20 H 0.37870 -0.32380 0.18230
H21 H 0.42390 -0.25150 0.15290
H22 H 0.32810 -0.24870 0.10630
#END
