
#######################################################################
#
#                 Cambridge Crystallographic Data Centre
#                                CCDC
#
#######################################################################
#
# If this CIF has been generated from an entry in the Cambridge
# Structural Database, then it will include bibliographic, chemical,
# crystal, experimental, refinement or atomic coordinate data resulting
# from the CCDC's data processing and validation procedures.
#
#######################################################################

data_CSD_CIF_CILSIA
_audit_creation_date 2008-01-31
_audit_creation_method CSD-ConQuest-V1
_database_code_CSD CILSIA
_database_code_depnum_ccdc_archive 'CCDC 603906'
_chemical_formula_sum 'C10 H12 N2 O2'
_chemical_formula_moiety
;
C10 H12 N2 O2
;
_journal_coden_Cambridge 1088
_journal_year 2006
_journal_page_first 3005
_journal_name_full 'Synlett '
loop_
_publ_author_name
"J.-C.Hierso"
"M.Picquet"
"H.Cattey"
"P.Meunier"
_chemical_name_systematic
;
1-(4-Nitrophenyl)pyrrolidine
;
_cell_volume   1928.311
_exptl_crystal_colour 'red'
_exptl_crystal_density_diffrn 1.324
_exptl_crystal_description 'prism'
_diffrn_ambient_temperature 293
_refine_special_details
;
The carbon atoms of the pyrrolidine ring are each disordered with occupancies 
0.72:0.28.
;
#These two values have been output from a single CSD field.
_refine_ls_R_factor_gt 0.0459
_refine_ls_wR_factor_gt 0.0459
_symmetry_cell_setting orthorhombic
_symmetry_space_group_name_H-M 'P b c a'
_symmetry_Int_Tables_number 61
loop_
_symmetry_equiv_pos_site_id
_symmetry_equiv_pos_as_xyz
1 x,y,z
2 1/2-x,-y,1/2+z
3 1/2+x,1/2-y,-z
4 -x,1/2+y,1/2-z
5 -x,-y,-z
6 -1/2+x,y,-1/2-z
7 -1/2-x,-1/2+y,z
8 x,-1/2-y,-1/2+z
_cell_length_a 10.3421(2)
_cell_length_b 9.9605(2)
_cell_length_c 18.7192(4)
_cell_angle_alpha 90
_cell_angle_beta 90
_cell_angle_gamma 90
_cell_formula_units_Z 8
loop_
_atom_type_symbol
_atom_type_radius_bond
C 0.68
H 0.23
N 0.68
O 0.68
loop_
_atom_site_label
_atom_site_type_symbol
_atom_site_fract_x
_atom_site_fract_y
_atom_site_fract_z
C1 C 0.2031(6) 1.1195(6) -0.1354(3)
H1 H 0.29090 1.09240 -0.12410
H2 H 0.17920 1.19560 -0.10600
C2 C 0.0282(9) 0.9891(10) -0.1889(4)
H3 H -0.06140 0.97920 -0.17440
H4 H 0.05370 0.91070 -0.21620
C3 C 0.1873(4) 1.1507(5) -0.2153(2)
H5 H 0.20540 1.24450 -0.22490
H6 H 0.24520 1.09570 -0.24370
C4 C 0.0481(4) 1.1180(4) -0.2320(3)
H7 H 0.03540 1.10270 -0.28270
H8 H -0.00960 1.18890 -0.21620
C5? C 0.2072(15) 1.1135(14) -0.1346(6)
H9? H 0.29040 1.07530 -0.14720
H10? H 0.21650 1.16140 -0.08980
C6? C 0.032(2) 1.009(2) -0.1922(8)
H11? H -0.05380 1.04540 -0.18260
H12? H 0.02300 0.92010 -0.21240
C7? C 0.1619(9) 1.2108(8) -0.1938(4)
H13? H 0.09560 1.27240 -0.17740
H14? H 0.23270 1.26000 -0.21530
C8? C 0.1090(13) 1.1024(12) -0.2422(6)
H15? H 0.17870 1.05370 -0.26520
H16? H 0.05350 1.14070 -0.27860
C9 C 0.10993(11) 0.92441(13) -0.07068(7)
C10 C 0.02468(12) 0.81420(14) -0.06762(8)
H17 H -0.03360 0.80010 -0.10470
C11 C 0.02659(13) 0.72800(15) -0.01102(8)
H18 H -0.02980 0.65520 -0.01010
C12 C 0.11159(11) 0.74799(13) 0.04489(7)
C13 C 0.19399(12) 0.85682(14) 0.04432(8)
H19 H 0.25000 0.87110 0.08240
C14 C 0.19346(12) 0.94340(14) -0.01203(8)
H20 H 0.24940 1.01650 -0.01180
N1 N 0.11190(12) 1.00794(13) -0.12721(7)
N2 N 0.11590(12) 0.65368(12) 0.10266(7)
O1 O 0.03975(14) 0.55885(14) 0.10311(7)
O2 O 0.19772(12) 0.66710(14) 0.14966(7)
#END
