
#######################################################################
#
#                 Cambridge Crystallographic Data Centre
#                                CCDC
#
#######################################################################
#
# If this CIF has been generated from an entry in the Cambridge
# Structural Database, then it will include bibliographic, chemical,
# crystal, experimental, refinement or atomic coordinate data resulting
# from the CCDC's data processing and validation procedures.
#
#######################################################################

data_CSD_CIF_CIYKUR
_audit_creation_date 2008-08-28
_audit_creation_method CSD-ConQuest-V1
_database_code_CSD CIYKUR
_database_code_depnum_ccdc_archive 'CCDC 666838'
_chemical_formula_sum 'C36 H45 N9 O6'
_chemical_formula_moiety
;
C36 H45 N9 O6
;
_journal_coden_Cambridge 1220
_journal_volume 14
_journal_year 2008
_journal_page_first 3297
_journal_name_full 'Chem.-Eur.J. '
loop_
_publ_author_name
"K.Raatikainen"
"J.Huuskonen"
"E.Kolehmainen"
"K.Rissanen"
_chemical_name_systematic
;
3^2^,7^2^,11^2^-Trinitro-1,5,9(1,4)-tripiperazina-3,7,11(1,3)-tribenzenacyclod
odecaphane
;
_cell_volume   1785.621
_exptl_crystal_colour 'colorless'
_exptl_crystal_density_diffrn 1.302
_exptl_special_details
;
syn-anti-anti conformation

;
_exptl_crystal_description 'prism'
_exptl_crystal_preparation 'acetonitrile/dichloromethane'
_diffrn_ambient_temperature 173
#These two values have been output from a single CSD field.
_refine_ls_R_factor_gt 0.0514
_refine_ls_wR_factor_gt 0.0514
_symmetry_cell_setting triclinic
_symmetry_space_group_name_H-M 'P -1'
_symmetry_Int_Tables_number 2
loop_
_symmetry_equiv_pos_site_id
_symmetry_equiv_pos_as_xyz
1 x,y,z
2 -x,-y,-z
_cell_length_a 12.523(3)
_cell_length_b 13.196(3)
_cell_length_c 13.816(2)
_cell_angle_alpha 98.143(10)
_cell_angle_beta 110.174(10)
_cell_angle_gamma 116.928(9)
_cell_formula_units_Z 2
loop_
_atom_type_symbol
_atom_type_radius_bond
C 0.68
H 0.23
N 0.68
O 0.68
loop_
_atom_site_label
_atom_site_type_symbol
_atom_site_fract_x
_atom_site_fract_y
_atom_site_fract_z
C1 C 1.2545(2) 1.00950(19) 0.86911(17)
C2 C 1.3855(2) 1.0325(2) 0.9082(2)
H1 H 1.44690 1.07460 0.98460
C3 C 1.4268(3) 0.9952(2) 0.8375(2)
H2 H 1.51530 1.01000 0.86560
C4 C 1.3394(3) 0.9364(2) 0.7262(2)
H3 H 1.36880 0.91060 0.67850
C5 C 1.2100(2) 0.91376(19) 0.68172(18)
C6 C 1.1709(2) 0.95157(19) 0.75593(18)
C7 C 1.1198(3) 0.8541(2) 0.55864(18)
H4 H 1.10550 0.91400 0.53010
H5 H 1.16690 0.83170 0.52380
C8 C 0.9139(3) 0.6950(2) 0.40429(17)
H6 H 0.96770 0.67730 0.37490
H7 H 0.90140 0.75630 0.37690
C9 C 0.7782(2) 0.5807(2) 0.36311(17)
H8 H 0.72210 0.59880 0.38900
H9 H 0.73130 0.54850 0.28140
C10 C 0.8642(2) 0.5373(2) 0.52396(17)
H10 H 0.87590 0.47590 0.55150
H11 H 0.80950 0.55510 0.55220
C11 C 1.0009(2) 0.6523(2) 0.56506(18)
H12 H 1.04770 0.68440 0.64670
H13 H 1.05670 0.63330 0.53940
C12 C 0.6732(2) 0.3669(2) 0.35245(17)
H14 H 0.70040 0.31070 0.37450
H15 H 0.63760 0.34330 0.27140
C13 C 0.5581(2) 0.3466(2) 0.37879(16)
C14 C 0.4802(2) 0.3932(2) 0.33474(18)
H16 H 0.49890 0.43650 0.28730
C15 C 0.3767(2) 0.3781(2) 0.35815(18)
H17 H 0.32560 0.41120 0.32700
C16 C 0.3466(2) 0.3152(2) 0.42668(17)
H18 H 0.27690 0.30780 0.44400
C17 C 0.4172(2) 0.26243(19) 0.47061(16)
C18 C 0.5198(2) 0.27895(19) 0.44404(16)
C19 C 0.3804(2) 0.1965(2) 0.54640(17)
H19 H 0.28080 0.14570 0.51510
H20 H 0.41480 0.14210 0.55210
C20 C 0.3726(2) 0.2238(2) 0.71960(17)
H21 H 0.38520 0.15590 0.72660
H22 H 0.27440 0.18970 0.67960
C21 C 0.4317(2) 0.3132(2) 0.83289(17)
H23 H 0.41640 0.37970 0.82580
H24 H 0.38560 0.27170 0.87390
C22 C 0.6437(2) 0.4253(2) 0.83256(16)
H25 H 0.74180 0.45880 0.87270
H26 H 0.63160 0.49360 0.82600
C23 C 0.5839(2) 0.3356(2) 0.71864(17)
H27 H 0.62980 0.37720 0.67760
H28 H 0.59950 0.26920 0.72560
C24 C 0.6313(2) 0.4475(2) 1.00529(17)
H29 H 0.57770 0.40520 1.04130
H30 H 0.62250 0.51760 0.99950
C25 C 0.7779(2) 0.4935(2) 1.07600(16)
C26 C 0.8123(2) 0.4100(2) 1.10047(17)
H31 H 0.74380 0.32600 1.07210
C27 C 0.9453(3) 0.4484(2) 1.16563(18)
H32 H 0.96740 0.39070 1.18150
C28 C 1.0459(2) 0.5700(2) 1.20766(17)
H33 H 1.13690 0.59460 1.25100
C29 C 1.0172(2) 0.6577(2) 1.18812(15)
C30 C 0.8824(2) 0.61524(19) 1.12101(16)
C31 C 1.1280(2) 0.7914(2) 1.23820(17)
H34 H 1.11900 0.83270 1.29780
H35 H 1.21710 0.80050 1.27120
C32 C 1.2144(2) 0.9816(2) 1.20646(17)
H36 H 1.30840 1.00200 1.24480
H37 H 1.19370 1.01370 1.26200
C33 C 1.2018(2) 1.0401(2) 1.12034(17)
H38 H 1.10960 1.02440 1.08570
H39 H 1.26690 1.12920 1.15590
C34 C 1.1344(2) 0.85957(19) 0.98541(17)
H40 H 1.15160 0.82610 0.92780
H41 H 1.04040 0.83980 0.94990
C35 C 1.1513(3) 0.8021(2) 1.07283(18)
H42 H 1.08910 0.71260 1.03830
H43 H 1.24500 0.82140 1.10830
C36 C 1.2153(2) 1.0498(2) 0.95232(17)
H44 H 1.27420 1.13930 0.98930
H45 H 1.12080 1.02780 0.91370
N1 N 0.9875(2) 0.74496(16) 0.52516(14)
N2 N 0.79468(19) 0.48969(16) 0.40347(14)
N3 N 0.43865(17) 0.28409(16) 0.65706(13)
N4 N 0.57633(18) 0.36392(16) 0.89409(13)
N5 N 1.12154(18) 0.84932(16) 1.15527(13)
N6 N 1.22855(19) 0.99169(16) 1.03531(14)
N7 N 1.0340(2) 0.92956(18) 0.71080(15)
N8 N 0.5901(2) 0.21716(17) 0.48296(14)
N9 N 0.84713(19) 0.70466(16) 1.09746(14)
O1 O 0.95560(18) 0.86195(18) 0.73976(14)
O2 O 1.00631(19) 0.98004(17) 0.64770(14)
O3 O 0.52458(18) 0.10596(15) 0.44430(14)
O4 O 0.70995(17) 0.27878(16) 0.55083(13)
O5 O 0.80430(18) 0.70141(15) 1.00199(12)
O6 O 0.85920(17) 0.77533(14) 1.17455(12)
#END
