
#######################################################################
#
#                 Cambridge Crystallographic Data Centre
#                                CCDC
#
#######################################################################
#
# If this CIF has been generated from an entry in the Cambridge
# Structural Database, then it will include bibliographic, chemical,
# crystal, experimental, refinement or atomic coordinate data resulting
# from the CCDC's data processing and validation procedures.
#
#######################################################################

data_CSD_CIF_CIYZOZ
_audit_creation_date 1985-05-09
_audit_creation_method CSD-ConQuest-V1
_database_code_CSD CIYZOZ
_database_code_depnum_ccdc_archive 'CCDC 1126853'
_chemical_formula_sum 'C12 H4 N8 O11'
_chemical_formula_moiety
;
C12 H4 N8 O11
;
_journal_coden_Cambridge 154
_journal_volume 36
_journal_year 1983
_journal_page_first 1843
_journal_name_full 'Aust.J.Chem. '
loop_
_publ_author_name
"R.A.Renfrow"
"M.J.Strauss"
"S.Cohen"
"E.Buncel"
_chemical_name_systematic
;
4,6-Dinitro-2-(2,4,6-trinitrophenyl)benzotriazole 1-oxide
;
_chemical_melting_point 564.15
_cell_volume   3283.387
_exptl_crystal_colour 'yellow'
_exptl_crystal_density_diffrn 1.765
_exptl_special_details
;
Melting point range 564.15-567.15K

;
_diffrn_ambient_temperature ?
_diffrn_special_details
;
The study was carried out at room temperature,in the range 283-303K

;
#These two values have been output from a single CSD field.
_refine_ls_R_factor_gt 0.0759
_refine_ls_wR_factor_gt 0.0759
_symmetry_cell_setting orthorhombic
_symmetry_space_group_name_H-M 'P b c a'
_symmetry_Int_Tables_number 61
loop_
_symmetry_equiv_pos_site_id
_symmetry_equiv_pos_as_xyz
1 x,y,z
2 1/2-x,-y,1/2+z
3 1/2+x,1/2-y,-z
4 -x,1/2+y,1/2-z
5 -x,-y,-z
6 -1/2+x,y,-1/2-z
7 -1/2-x,-1/2+y,z
8 x,-1/2-y,-1/2+z
_cell_length_a 16.050(5)
_cell_length_b 11.478(3)
_cell_length_c 17.823(6)
_cell_angle_alpha 90
_cell_angle_beta 90
_cell_angle_gamma 90
_cell_formula_units_Z 8
loop_
_atom_type_symbol
_atom_type_radius_bond
C 0.68
N 0.68
O 0.68
loop_
_atom_site_label
_atom_site_type_symbol
_atom_site_fract_x
_atom_site_fract_y
_atom_site_fract_z
O1 O 0.8341(5) 0.0888(7) 0.0209(4)
N1 N 0.8622(6) 0.1795(8) -0.0101(5)
N2 N 0.9041(6) 0.1755(8) -0.0771(5)
N3 N 0.9306(6) 0.2813(7) -0.1019(5)
C1 C 0.9013(7) 0.353(1) -0.0472(7)
C2 C 0.8593(7) 0.2942(9) 0.0087(7)
C3 C 0.8258(7) 0.343(1) 0.0742(7)
C4 C 0.8353(8) 0.464(1) 0.0761(6)
C5 C 0.8743(7) 0.531(1) 0.0190(6)
C6 C 0.9061(7) 0.477(1) -0.0424(7)
N4 N 0.8061(7) 0.527(1) 0.1441(6)
O2 O 0.8118(7) 0.6327(9) 0.1436(6)
O3 O 0.7799(6) 0.4666(9) 0.1944(5)
N5 N 0.9493(7) 0.546(1) -0.0990(6)
O4 O 0.9796(6) 0.4956(8) -0.1531(5)
O5 O 0.9526(7) 0.6526(8) -0.0897(6)
C7 C 0.9266(7) 0.0694(9) -0.1126(6)
C8 C 1.0109(8) 0.042(1) -0.1165(6)
C9 C 1.0408(8) -0.055(1) -0.1562(7)
C10 C 0.9814(8) -0.125(1) -0.1868(7)
C11 C 0.8952(8) -0.106(1) -0.1837(6)
C12 C 0.8707(7) -0.004(1) -0.1464(7)
N6 N 1.0750(7) 0.1137(9) -0.0773(6)
O6 O 1.0551(6) 0.1493(8) -0.0142(5)
O7 O 1.1404(6) 0.1278(8) -0.1069(6)
N7 N 1.0086(8) -0.2311(9) -0.2280(6)
O8 O 0.9552(6) -0.2860(8) -0.2624(5)
O9 O 1.0826(6) -0.2566(8) -0.2242(5)
N8 N 0.7802(7) 0.020(1) -0.1429(6)
O10 O 0.7344(6) -0.0652(9) -0.1476(6)
O11 O 0.7568(6) 0.1194(9) -0.1374(6)
#END
