
#######################################################################
#
#                 Cambridge Crystallographic Data Centre
#                                CCDC
#
#######################################################################
#
# If this CIF has been generated from an entry in the Cambridge
# Structural Database, then it will include bibliographic, chemical,
# crystal, experimental, refinement or atomic coordinate data resulting
# from the CCDC's data processing and validation procedures.
#
#######################################################################

data_CSD_CIF_CIZMUT
_audit_creation_date 2000-03-16
_audit_creation_method CSD-ConQuest-V1
_database_code_CSD CIZMUT
_database_code_depnum_ccdc_archive 'CCDC 139709'
_chemical_formula_sum 'C23 H19 N3 O4'
_chemical_formula_moiety
;
C23 H19 N3 O4
;
_journal_coeditor_code "IUCr OB1019"
_journal_coden_Cambridge 591
_journal_volume 55
_journal_year 1999
_journal_page_first 2084
_journal_name_full 'Acta Crystallogr.,Sect.C:Cryst.Struct.Commun. '
loop_
_publ_author_name
"Y.Inouye"
"S.Shimokoshi"
"Y.Sakaino"
_chemical_name_systematic
;
4,5-bis(4-Methoxyphenyl)-2-(3-nitrophenyl)-1H-imidazole
;
_cell_volume   2193.168
_exptl_crystal_colour 'yellow'
_exptl_crystal_density_diffrn 1.216
_exptl_crystal_description 'plate'
_diffrn_ambient_temperature ?
_diffrn_special_details
;
The study was carried out at room temperature,in the range 283-303K

;
#These two values have been output from a single CSD field.
_refine_ls_R_factor_gt 0.065
_refine_ls_wR_factor_gt 0.065
_symmetry_cell_setting orthorhombic
_symmetry_space_group_name_H-M 'P n a 21'
_symmetry_Int_Tables_number 33
loop_
_symmetry_equiv_pos_site_id
_symmetry_equiv_pos_as_xyz
1 x,y,z
2 -x,-y,1/2+z
3 1/2+x,1/2-y,z
4 1/2-x,1/2+y,1/2+z
_cell_length_a 8.896(1)
_cell_length_b 26.771(5)
_cell_length_c 9.209(2)
_cell_angle_alpha 90
_cell_angle_beta 90
_cell_angle_gamma 90
_cell_formula_units_Z 4
loop_
_atom_type_symbol
_atom_type_radius_bond
C 0.68
H 0.23
N 0.68
O 0.68
loop_
_atom_site_label
_atom_site_type_symbol
_atom_site_fract_x
_atom_site_fract_y
_atom_site_fract_z
O1 O 1.0658(6) 0.2046(2) 1.0006(7)
O2 O 1.0738(8) 0.1246(2) 1.0034(9)
N1 N 1.0145(7) 0.1644(3) 0.9673(7)
C1 C 0.8837(7) 0.1623(2) 0.8701(7)
C2 C 0.8279(6) 0.2056(2) 0.8150(6)
H1 H 0.86900 0.23610 0.84280
C3 C 0.7102(6) 0.2041(2) 0.7179(6)
C4 C 0.6455(7) 0.1579(2) 0.6850(7)
H2 H 0.56540 0.15640 0.62030
C5 C 0.6988(8) 0.1146(3) 0.7472(9)
H3 H 0.65310 0.08420 0.72690
C6 C 0.8209(8) 0.1168(3) 0.8404(9)
H4 H 0.85940 0.08780 0.88200
C7 C 0.6620(5) 0.2492(2) 0.6429(6)
N2 N 0.5336(4) 0.2531(2) 0.5634(5)
H5 H 0.46450 0.23070 0.55710
C8 C 0.5326(6) 0.2990(2) 0.4945(7)
C9 C 0.6632(6) 0.3217(2) 0.5380(6)
N3 N 0.7435(5) 0.2902(2) 0.6294(5)
C10 C 0.4067(6) 0.3147(2) 0.4021(6)
C11 C 0.3247(6) 0.2807(2) 0.3237(6)
H6 H 0.34940 0.24710 0.33090
C12 C 0.2059(6) 0.2946(2) 0.2335(7)
H7 H 0.15180 0.27060 0.18240
C13 C 0.1708(7) 0.3440(2) 0.2218(8)
C14 C 0.2506(8) 0.3789(2) 0.3011(9)
H8 H 0.22550 0.41260 0.29430
C15 C 0.3666(7) 0.3644(2) 0.3897(8)
H9 H 0.41910 0.38840 0.44230
O3 O 0.0588(5) 0.3632(2) 0.1349(6)
C16 C -0.0309(8) 0.3291(3) 0.0572(9)
H10 H 0.03040 0.31130 -0.01130
H11 H -0.10830 0.34690 0.00620
H12 H -0.07600 0.30590 0.12350
C17 C 0.7293(6) 0.3702(2) 0.4941(6)
C18 C 0.7974(7) 0.4006(2) 0.5949(7)
H13 H 0.79600 0.39120 0.69220
C19 C 0.8681(7) 0.4447(2) 0.5557(8)
H14 H 0.91470 0.46460 0.62540
C20 C 0.8680(8) 0.4587(2) 0.4120(8)
C21 C 0.7965(8) 0.4296(2) 0.3110(8)
H15 H 0.79450 0.43970 0.21430
C22 C 0.7276(7) 0.3858(2) 0.3511(7)
H16 H 0.67950 0.36650 0.28130
O4 O 0.9382(6) 0.5013(2) 0.3594(6)
C23 C 1.0271(11) 0.5287(3) 0.4578(10)
H17 H 1.07610 0.55550 0.40730
H18 H 1.10140 0.50710 0.50010
H19 H 0.96430 0.54220 0.53310
#END
