
#######################################################################
#
#                 Cambridge Crystallographic Data Centre
#                                CCDC
#
#######################################################################
#
# If this CIF has been generated from an entry in the Cambridge
# Structural Database, then it will include bibliographic, chemical,
# crystal, experimental, refinement or atomic coordinate data resulting
# from the CCDC's data processing and validation procedures.
#
#######################################################################

data_CSD_CIF_CIZPIK
_audit_creation_date 2000-03-16
_audit_creation_method CSD-ConQuest-V1
_database_code_CSD CIZPIK
_database_code_depnum_ccdc_archive 'CCDC 139712'
_chemical_formula_sum 'C11 H13 N1 O3'
_chemical_formula_moiety
;
C11 H13 N1 O3
;
_journal_coeditor_code "IUCr OB1021"
_journal_coden_Cambridge 591
_journal_volume 55
_journal_year 1999
_journal_page_first 2087
_journal_name_full 'Acta Crystallogr.,Sect.C:Cryst.Struct.Commun. '
loop_
_publ_author_name
"Y.Inouye"
"T.Ishimura"
_chemical_name_systematic
;
Methyl (R,Z)-(1-phenylethylimino)acetate N-oxide
;
_chemical_melting_point 351
_cell_volume    562.651
_exptl_crystal_colour 'colorless'
_exptl_crystal_density_diffrn 1.223
_exptl_crystal_description 'plate'
_exptl_crystal_preparation 'hexane/benzene'
_diffrn_ambient_temperature ?
_diffrn_special_details
;
The study was carried out at room temperature,in the range 283-303K

;
#These two values have been output from a single CSD field.
_refine_ls_R_factor_gt 0.054
_refine_ls_wR_factor_gt 0.054
_symmetry_cell_setting monoclinic
_symmetry_space_group_name_H-M 'P 21'
_symmetry_Int_Tables_number 4
loop_
_symmetry_equiv_pos_site_id
_symmetry_equiv_pos_as_xyz
1 x,y,z
2 -x,1/2+y,-z
_cell_length_a 12.653(3)
_cell_length_b 8.0849(6)
_cell_length_c 5.5247(9)
_cell_angle_alpha 90
_cell_angle_beta 95.408(8)
_cell_angle_gamma 90
_cell_formula_units_Z 2
loop_
_atom_type_symbol
_atom_type_radius_bond
C 0.68
H 0.23
N 0.68
O 0.68
loop_
_atom_site_label
_atom_site_type_symbol
_atom_site_fract_x
_atom_site_fract_y
_atom_site_fract_z
C1 C 0.4492(5) 0.127(1) 0.8498(12)
H1 H 0.51690 0.16650 0.91930
H2 H 0.45750 0.01940 0.78070
H3 H 0.40120 0.12020 0.97410
O1 O 0.4074(3) 0.2385(5) 0.6642(6)
C2 C 0.3614(3) 0.3737(6) 0.7410(6)
O2 O 0.3520(3) 0.4005(5) 0.9502(5)
C3 C 0.3240(3) 0.4755(5) 0.5306(6)
H4 H 0.32350 0.42940 0.37630
N1 N 0.2919(2) 0.6259(5) 0.5495(5)
O3 O 0.2908(3) 0.7098(5) 0.7455(5)
C4 C 0.2490(3) 0.7121(6) 0.3177(6)
H5 H 0.27640 0.65460 0.18060
C5 C 0.2881(4) 0.8881(8) 0.3187(11)
H6 H 0.26490 0.93960 0.16640
H7 H 0.36420 0.88900 0.34180
H8 H 0.26010 0.94780 0.44870
C6 C 0.1296(3) 0.6989(4) 0.2893(5)
C7 C 0.0667(3) 0.7743(6) 0.4521(8)
H9 H 0.09780 0.83250 0.58550
C8 C -0.0433(4) 0.7612(8) 0.412(1)
H10 H -0.08560 0.80890 0.52200
C9 C -0.0898(4) 0.6801(8) 0.2156(10)
H11 H -0.16340 0.67610 0.18810
C10 C -0.0278(4) 0.6032(8) 0.0561(9)
H12 H -0.05970 0.54410 -0.07550
C11 C 0.0811(4) 0.6141(6) 0.0918(7)
H13 H 0.12240 0.56390 -0.01790
#END
