
#######################################################################
#
#                 Cambridge Crystallographic Data Centre
#                                CCDC
#
#######################################################################
#
# If this CIF has been generated from an entry in the Cambridge
# Structural Database, then it will include bibliographic, chemical,
# crystal, experimental, refinement or atomic coordinate data resulting
# from the CCDC's data processing and validation procedures.
#
#######################################################################

data_CSD_CIF_COVKAB
_audit_creation_date 2015-02-25
_audit_creation_method CSD-ConQuest-V1
_database_code_CSD COVKAB
_database_code_depnum_ccdc_archive 'CCDC 810385'
_chemical_formula_sum 'C15 H11 N1 O4'
_chemical_formula_moiety
;
C15 H11 N1 O4
;
_journal_coden_Cambridge 1003
_journal_volume 44
_journal_year 2014
_journal_page_first 512
_journal_name_full 'J.Chem.Cryst. '
loop_
_publ_author_name
"M.C.Lozada"
"R.Enriquez"
"D.Gnecco"
"W.Reynolds"
"M.Soriano-Garcia"
_chemical_name_systematic
;
(3-(4-nitrophenyl)oxiran-2-yl)(phenyl)methanone
;
_cell_volume   1272.461
_exptl_crystal_colour 'colorless'
_exptl_crystal_density_diffrn 1.405
_exptl_crystal_description 'prism'
_diffrn_ambient_temperature 291
#These two values have been output from a single CSD field.
_refine_ls_R_factor_gt 0.0436
_refine_ls_wR_factor_gt 0.0436
_symmetry_cell_setting monoclinic
_symmetry_space_group_name_H-M 'P 21/c'
_symmetry_Int_Tables_number 14
loop_
_symmetry_equiv_pos_site_id
_symmetry_equiv_pos_as_xyz
1 x,y,z
2 -x,1/2+y,1/2-z
3 -x,-y,-z
4 x,-1/2-y,-1/2+z
_cell_length_a 10.3127(10)
_cell_length_b 10.4331(10)
_cell_length_c 12.9227(13)
_cell_angle_alpha 90
_cell_angle_beta 113.769(2)
_cell_angle_gamma 90
_cell_formula_units_Z 4
loop_
_atom_type_symbol
_atom_type_radius_bond
C 0.68
H 0.23
N 0.68
O 0.68
loop_
_atom_site_label
_atom_site_type_symbol
_atom_site_fract_x
_atom_site_fract_y
_atom_site_fract_z
O1 O 0.26865(16) 0.55344(15) -0.09767(12)
O2 O 0.34150(14) 0.69459(12) 0.09363(11)
O3 O 0.79250(17) 0.52765(17) 0.67798(12)
O4 O 0.66393(17) 0.68750(18) 0.68038(12)
N1 N 0.70064(18) 0.60702(19) 0.63025(15)
C1 C 0.2302(2) 0.50942(19) -0.02743(16)
C2 C 0.2804(2) 0.57058(18) 0.08705(15)
H1 H 0.22430 0.55560 0.13160
C3 C 0.4339(2) 0.59309(18) 0.14950(15)
H2 H 0.49390 0.56180 0.11230
C4 C 0.50287(18) 0.59832(17) 0.27492(14)
C5 C 0.4578(2) 0.68261(17) 0.33573(16)
H3 H 0.38230 0.73730 0.29780
C6 C 0.5231(2) 0.68682(18) 0.45170(17)
H4 H 0.49320 0.74460 0.49240
C7 C 0.63278(19) 0.60467(18) 0.50628(15)
C8 C 0.6786(2) 0.51873(19) 0.44845(18)
H5 H 0.75200 0.46220 0.48700
C9 C 0.6141(2) 0.51746(19) 0.33242(17)
H6 H 0.64620 0.46110 0.29210
C10 C 0.13346(18) 0.39794(18) -0.05279(16)
C11 C 0.1121(2) 0.33016(19) 0.03118(17)
H7 H 0.15650 0.35580 0.10630
C12 C 0.0246(2) 0.2246(2) 0.0026(2)
H8 H 0.01030 0.17870 0.05880
C13 C -0.0411(2) 0.1867(2) -0.1071(2)
H9 H -0.09910 0.11470 -0.12530
C14 C -0.0225(2) 0.2538(3) -0.1906(2)
H10 H -0.06900 0.22870 -0.26570
C15 C 0.0648(2) 0.3581(2) -0.16332(17)
H11 H 0.07810 0.40320 -0.22040
#END
