
#######################################################################
#
#                 Cambridge Crystallographic Data Centre
#                                CCDC
#
#######################################################################
#
# If this CIF has been generated from an entry in the Cambridge
# Structural Database, then it will include bibliographic, chemical,
# crystal, experimental, refinement or atomic coordinate data resulting
# from the CCDC's data processing and validation procedures.
#
#######################################################################

data_CSD_CIF_COWXUI
_audit_creation_date 2009-11-04
_audit_creation_method CSD-ConQuest-V1
_database_code_CSD COWXUI
_database_code_depnum_ccdc_archive 'CCDC 671126'
_chemical_formula_sum 'C7 H5 N1 O6'
_chemical_formula_moiety
;
C7 H5 N1 O6
;
_journal_coden_Cambridge 1094
_journal_volume 20
_journal_year 2009
_journal_page_first 73
_journal_name_full 'Struct.Chem. '
loop_
_publ_author_name
"I.Coric"
"D.Milic"
"D.Matkovic-Calogovic"
"L.Tomaskovic"
_chemical_name_systematic
;
3,5-Dihydroxy-2-nitrobenzoic acid
;
_cell_volume    745.532
_exptl_crystal_colour 'red'
_exptl_crystal_density_diffrn 1.774
_exptl_crystal_description 'prism'
_diffrn_ambient_temperature 110
#These two values have been output from a single CSD field.
_refine_ls_R_factor_gt 0.0399
_refine_ls_wR_factor_gt 0.0399
_symmetry_cell_setting monoclinic
_symmetry_space_group_name_H-M 'P 21/c'
_symmetry_Int_Tables_number 14
loop_
_symmetry_equiv_pos_site_id
_symmetry_equiv_pos_as_xyz
1 x,y,z
2 -x,1/2+y,1/2-z
3 -x,-y,-z
4 x,-1/2-y,-1/2+z
_cell_length_a 8.0966(3)
_cell_length_b 13.5451(6)
_cell_length_c 7.7390(3)
_cell_angle_alpha 90
_cell_angle_beta 118.549(2)
_cell_angle_gamma 90
_cell_formula_units_Z 4
loop_
_atom_type_symbol
_atom_type_radius_bond
C 0.68
H 0.23
N 0.68
O 0.68
loop_
_atom_site_label
_atom_site_type_symbol
_atom_site_fract_x
_atom_site_fract_y
_atom_site_fract_z
C1 C 0.77842(14) 0.67223(8) 0.82796(15)
C2 C 0.81861(13) 0.77421(7) 0.84625(15)
C3 C 0.99539(14) 0.80779(8) 0.87281(16)
C4 C 1.13019(14) 0.73902(8) 0.88766(16)
C5 C 1.08985(14) 0.63895(8) 0.87353(16)
C6 C 0.91212(15) 0.60562(8) 0.84037(17)
C7 C 0.59962(14) 0.62614(8) 0.80441(16)
O1 O 0.54998(11) 0.62750(6) 0.92945(12)
O2 O 0.51514(13) 0.57725(7) 0.63760(13)
O3 O 0.51472(11) 0.81543(6) 0.76897(12)
O4 O 0.72341(12) 0.93231(6) 0.86488(13)
O5 O 1.04338(12) 0.90312(6) 0.88184(15)
O6 O 1.21145(12) 0.56821(6) 0.88623(14)
N1 N 0.67620(12) 0.84333(7) 0.82503(13)
H1 H 1.319(3) 0.5917(17) 0.903(3)
H2 H 0.434(3) 0.5357(17) 0.640(3)
H3 H 1.251(3) 0.7636(14) 0.907(3)
H4 H 0.950(4) 0.9390(18) 0.862(3)
H5 H 0.885(2) 0.5378(13) 0.824(3)
#END
