
#######################################################################
#
#                 Cambridge Crystallographic Data Centre
#                                CCDC
#
#######################################################################
#
# If this CIF has been generated from an entry in the Cambridge
# Structural Database, then it will include bibliographic, chemical,
# crystal, experimental, refinement or atomic coordinate data resulting
# from the CCDC's data processing and validation procedures.
#
#######################################################################

data_CSD_CIF_CUBNES01
_audit_creation_date 2009-11-24
_audit_creation_method CSD-ConQuest-V1
_database_code_CSD CUBNES01
_database_code_depnum_ccdc_archive 'CCDC 715819'
_chemical_formula_sum 'C13 H7 N1 O3'
_chemical_formula_moiety
;
C13 H7 N1 O3
;
_journal_coden_Cambridge 1078
_journal_year 2009
_journal_name_full 'CSD Communication(Private Communication) '
loop_
_publ_author_name
"A.Salmeron"
"S.Bernes"
_chemical_name_systematic
;
2-Nitro-9H-fluoren-9-one
;
_cell_volume    497.965
_exptl_crystal_colour 'yellow'
_exptl_crystal_density_diffrn 1.502
_exptl_special_details
;
contribution from DEP, Facultad de Ciencias Quimicas, UANL, Guerrero y 
Progreso S/N, Col. Trevino, 64570 Monterrey, N.L., Mexico
;
_exptl_crystal_description 'prism'
_diffrn_ambient_temperature 297
#These two values have been output from a single CSD field.
_refine_ls_R_factor_gt 0.0304
_refine_ls_wR_factor_gt 0.0304
_symmetry_cell_setting monoclinic
_symmetry_space_group_name_H-M 'P 21'
_symmetry_Int_Tables_number 4
loop_
_symmetry_equiv_pos_site_id
_symmetry_equiv_pos_as_xyz
1 x,y,z
2 -x,1/2+y,-z
_cell_length_a 3.8042(4)
_cell_length_b 7.7108(10)
_cell_length_c 16.991(2)
_cell_angle_alpha 90
_cell_angle_beta 92.405(10)
_cell_angle_gamma 90
_cell_formula_units_Z 2
loop_
_atom_type_symbol
_atom_type_radius_bond
C 0.68
H 0.23
N 0.68
O 0.68
loop_
_atom_site_label
_atom_site_type_symbol
_atom_site_fract_x
_atom_site_fract_y
_atom_site_fract_z
C1 C 0.9090(5) -0.1819(3) 0.28296(11)
H1 H 1.00770 -0.28010 0.26100
C2 C 0.8240(5) -0.1750(3) 0.36215(11)
N1 N 0.8965(5) -0.3291(3) 0.41121(11)
O1 O 1.0580(7) -0.4487(3) 0.38295(12)
O2 O 0.7923(6) -0.3296(4) 0.47808(10)
C3 C 0.6782(5) -0.0303(3) 0.39611(11)
H2 H 0.62490 -0.03190 0.44900
C4 C 0.6114(5) 0.1177(3) 0.35108(11)
H3 H 0.51620 0.21640 0.37340
C5 C 0.6903(4) 0.1145(2) 0.2721(1)
C6 C 0.6500(4) 0.2471(2) 0.20935(10)
C7 C 0.5180(5) 0.4144(3) 0.21096(12)
H4 H 0.43440 0.46090 0.25710
C8 C 0.5137(5) 0.5113(3) 0.14146(13)
H5 H 0.42450 0.62360 0.14140
C9 C 0.6393(5) 0.4436(3) 0.07291(12)
H6 H 0.63510 0.51110 0.02750
C10 C 0.7723(5) 0.2752(3) 0.07085(11)
H7 H 0.85660 0.22930 0.02470
C11 C 0.7756(5) 0.1787(2) 0.13906(10)
C12 C 0.9032(5) -0.0011(2) 0.15403(10)
C13 C 0.8377(4) -0.0350(2) 0.23958(9)
O3 O 1.0379(4) -0.0999(2) 0.10879(8)
#END
