
#######################################################################
#
#                 Cambridge Crystallographic Data Centre
#                                CCDC
#
#######################################################################
#
# If this CIF has been generated from an entry in the Cambridge
# Structural Database, then it will include bibliographic, chemical,
# crystal, experimental, refinement or atomic coordinate data resulting
# from the CCDC's data processing and validation procedures.
#
#######################################################################

data_CSD_CIF_CUFZIM
_audit_creation_date 2000-05-03
_audit_creation_method CSD-ConQuest-V1
_database_code_CSD CUFZIM
_database_code_depnum_ccdc_archive 'CCDC 127760'
_chemical_formula_sum 'C9 H3 N7 O14'
_chemical_formula_moiety
;
C9 H3 N7 O14
;
_journal_coden_Cambridge 179
_journal_volume 39
_journal_year 2000
_journal_page_first 401
_journal_name_full 'Angew.Chem.,Int.Ed. '
loop_
_publ_author_name
"Mao-Xi Zhang"
"P.E.Eaton"
"R.Gilardi"
_chemical_name_systematic
;
Methylheptanitrocubane
;
_cell_volume    790.582
_exptl_crystal_colour 'colorless'
_exptl_crystal_density_diffrn 1.82
_exptl_crystal_description 'lath'
_diffrn_ambient_temperature ?
_diffrn_special_details
;
The study was carried out at room temperature,in the range 283-303K

;
#These two values have been output from a single CSD field.
_refine_ls_R_factor_gt 0.0496
_refine_ls_wR_factor_gt 0.0496
_symmetry_cell_setting monoclinic
_symmetry_space_group_name_H-M 'P 21/m'
_symmetry_Int_Tables_number 11
loop_
_symmetry_equiv_pos_site_id
_symmetry_equiv_pos_as_xyz
1 x,y,z
2 x,1/2-y,z
3 -x,-y,-z
4 -x,-1/2+y,-z
_cell_length_a 7.8254(4)
_cell_length_b 11.2796(5)
_cell_length_c 9.3736(4)
_cell_angle_alpha 90
_cell_angle_beta 107.153(5)
_cell_angle_gamma 90
_cell_formula_units_Z 2
loop_
_atom_type_symbol
_atom_type_radius_bond
C 0.68
H 0.23
N 0.68
O 0.68
loop_
_atom_site_label
_atom_site_type_symbol
_atom_site_fract_x
_atom_site_fract_y
_atom_site_fract_z
C1 C 0.2299(5) 0.25000 -0.0782(4)
C2 C 0.1830(5) 0.25000 0.0647(4)
H1 H 0.2334(5) 0.18120 0.1220(4)
H2 H 0.0553(5) 0.25000 0.0440(4)
C3 C 0.1729(3) 0.1522(3) -0.2038(3)
N1 N 0.0665(4) 0.0469(3) -0.1917(3)
O1 O 0.1312(4) -0.0482(3) -0.1937(4)
O2 O -0.0789(4) 0.0680(3) -0.1804(5)
C4 C 0.1117(5) 0.25000 -0.3249(4)
N2 N -0.0537(7) 0.25000 -0.4515(5)
O3 O -0.1122(5) 0.1566(5) -0.4970(4)
C5 C 0.3019(6) 0.25000 -0.3455(4)
N3 N 0.3457(8) 0.25000 -0.4892(5)
O4 O 0.4973(7) 0.25000 -0.4807(5)
O5 O 0.2263(9) 0.25000 -0.5969(5)
C6 C 0.3636(4) 0.1528(2) -0.2242(3)
N4 N 0.4688(4) 0.0453(2) -0.2370(4)
O6 O 0.5683(4) 0.0069(2) -0.1224(4)
O7 O 0.4379(6) 0.0059(3) -0.3594(4)
C7 C 0.4206(5) 0.25000 -0.1017(4)
N5 N 0.5969(4) 0.25000 0.0123(4)
O8 O 0.6018(4) 0.25000 0.1423(4)
O9 O 0.7216(4) 0.25000 -0.0401(4)
H1A H 0.2334(5) 0.31880 0.1220(4)
C3A C 0.1729(3) 0.3478(3) -0.2038(3)
O3A O -0.1122(5) 0.3434(5) -0.4970(4)
C6A C 0.3636(4) 0.3472(2) -0.2242(3)
N1A N 0.0665(4) 0.4531(3) -0.1917(3)
O1A O 0.1312(4) 0.5482(3) -0.1937(4)
O2A O -0.0789(4) 0.4320(3) -0.1804(5)
N4A N 0.4688(4) 0.4547(2) -0.2370(4)
O6A O 0.5683(4) 0.4931(2) -0.1224(4)
O7A O 0.4379(6) 0.4941(3) -0.3594(4)
#END
