
#######################################################################
#
#                 Cambridge Crystallographic Data Centre
#                                CCDC
#
#######################################################################
#
# If this CIF has been generated from an entry in the Cambridge
# Structural Database, then it will include bibliographic, chemical,
# crystal, experimental, refinement or atomic coordinate data resulting
# from the CCDC's data processing and validation procedures.
#
#######################################################################

data_CSD_CIF_CUKCAM21
_audit_creation_date 2013-05-26
_audit_creation_method CSD-ConQuest-V1
_database_code_CSD CUKCAM21
_database_code_depnum_ccdc_archive 'CCDC 930120'
_chemical_formula_sum 'C7 H4 N2 O6'
_chemical_formula_moiety
;
C7 H4 N2 O6
;
_journal_coden_Cambridge 1147
_journal_volume 13
_journal_year 2013
_journal_page_first 497
_journal_name_full 'Cryst.Growth Des. '
loop_
_publ_author_name
"A.O.F.Jones"
"N.Blagden"
"G.J.McIntyre"
"A.Parkin"
"C.C.Seaton"
"L.H.Thomas"
"C.C.Wilson"
_chemical_name_systematic
;
3,5-Dinitrobenzoic acid
;
_cell_volume   1603.053
_exptl_crystal_colour 'pale yellow'
_exptl_crystal_density_diffrn 1.757
_exptl_special_details
;
C2/c polymorph

;
_exptl_crystal_description 'block'
_diffrn_ambient_temperature 50
_diffrn_radiation_probe 'neutron'
#These two values have been output from a single CSD field.
_refine_ls_R_factor_gt 0.0424
_refine_ls_wR_factor_gt 0.0424
_symmetry_cell_setting monoclinic
_symmetry_space_group_name_H-M 'C 2/c'
_symmetry_Int_Tables_number 15
loop_
_symmetry_equiv_pos_site_id
_symmetry_equiv_pos_as_xyz
1 x,y,z
2 -x,y,1/2-z
3 1/2+x,1/2+y,z
4 1/2-x,1/2+y,1/2-z
5 -x,-y,-z
6 x,-y,-1/2+z
7 -1/2-x,-1/2-y,-z
8 -1/2+x,-1/2-y,-1/2+z
_cell_length_a 20.200(5)
_cell_length_b 8.745(5)
_cell_length_c 9.645(5)
_cell_angle_alpha 90
_cell_angle_beta 109.80(1)
_cell_angle_gamma 90
_cell_formula_units_Z 8
loop_
_atom_type_symbol
_atom_type_radius_bond
C 0.68
H 0.23
N 0.68
O 0.68
loop_
_atom_site_label
_atom_site_type_symbol
_atom_site_fract_x
_atom_site_fract_y
_atom_site_fract_z
H1 H 0.05346(16) 0.0613(2) 0.1925(3)
H2 H 0.19715(16) 0.3072(2) 0.5578(3)
H3 H 0.10656(16) 0.5297(2) 0.1377(3)
H4 H 0.22233(15) 0.7723(2) 0.3698(3)
O1 O 0.17275(8) 0.04826(11) 0.60481(13)
O2 O 0.22995(8) 0.58335(10) 0.55008(13)
O3 O 0.03369(8) 0.39664(11) -0.08095(13)
O4 O 0.19433(8) 0.68008(10) 0.32053(13)
N1 N 0.02636(5) 0.29733(7) 0.00126(8)
O5 O -0.01962(8) 0.19966(13) -0.03300(15)
O6 O 0.10545(8) -0.07902(11) 0.41715(14)
N2 N 0.13576(4) 0.03772(6) 0.47506(8)
C1 C 0.08186(6) 0.16581(9) 0.23736(11)
C2 C 0.19745(6) 0.57342(8) 0.41748(11)
C3 C 0.15730(6) 0.43278(8) 0.35325(11)
C4 C 0.12717(6) 0.17378(8) 0.38202(11)
C5 C 0.07552(6) 0.29733(8) 0.15362(11)
C6 C 0.11286(6) 0.43006(8) 0.20695(11)
C7 C 0.16431(6) 0.30484(8) 0.44323(11)
#END
