
#######################################################################
#
#                 Cambridge Crystallographic Data Centre
#                                CCDC
#
#######################################################################
#
# If this CIF has been generated from an entry in the Cambridge
# Structural Database, then it will include bibliographic, chemical,
# crystal, experimental, refinement or atomic coordinate data resulting
# from the CCDC's data processing and validation procedures.
#
#######################################################################

data_CSD_CIF_CUMQEI
_audit_creation_date 2015-07-11
_audit_creation_method CSD-ConQuest-V1
_database_code_CSD CUMQEI
_database_code_depnum_ccdc_archive 'CCDC 613394'
_chemical_formula_sum 'C16 H14 N6 O2'
_chemical_formula_moiety
;
C16 H14 N6 O2
;
_journal_coden_Cambridge 155
_journal_volume 435
_journal_year 2015
_journal_page_first 187
_journal_name_full 'Inorg.Chim.Acta '
loop_
_publ_author_name
"N.T.Abdel-Ghani"
"A.M.Mansour"
"M.F.A.El-Ghar"
"O.M.El-Borady"
"H.Shorafa"
_chemical_name_systematic
;
3-methyl-4-((2-nitrophenyl)diazenyl)-1-phenyl-1H-pyrazol-5-amine
;
_cell_volume   3079.612
_exptl_crystal_colour 'red'
_exptl_crystal_density_diffrn 1.39
_exptl_crystal_description 'needles'
_diffrn_ambient_temperature 298
#These two values have been output from a single CSD field.
_refine_ls_R_factor_gt 0.046
_refine_ls_wR_factor_gt 0.046
_symmetry_cell_setting monoclinic
_symmetry_space_group_name_H-M 'C 2/c'
_symmetry_Int_Tables_number 15
loop_
_symmetry_equiv_pos_site_id
_symmetry_equiv_pos_as_xyz
1 x,y,z
2 1/2+x,1/2+y,z
3 -x,y,1/2-z
4 1/2-x,1/2+y,1/2-z
5 -x,-y,-z
6 -1/2-x,-1/2-y,-z
7 x,-y,-1/2+z
8 -1/2+x,-1/2-y,-1/2+z
_cell_length_a 15.9371(9)
_cell_length_b 7.7764(5)
_cell_length_c 25.186(2)
_cell_angle_alpha 90
_cell_angle_beta 99.384(2)
_cell_angle_gamma 90
_cell_formula_units_Z 8
loop_
_atom_type_symbol
_atom_type_radius_bond
C 0.68
H 0.23
N 0.68
O 0.68
loop_
_atom_site_label
_atom_site_type_symbol
_atom_site_fract_x
_atom_site_fract_y
_atom_site_fract_z
N1 N 0.5176(4) 0.2927(7) 0.4716(3)
N2 N 0.4578(4) 0.0300(7) 0.6182(3)
N3 N 0.5446(4) 0.0392(7) 0.6143(3)
N4 N 0.4542(4) 0.2502(8) 0.4947(3)
C1 C 0.4182(5) 0.1048(10) 0.5744(3)
C2 C 0.4940(6) 0.3840(9) 0.4232(3)
C3 C 0.4766(5) 0.1648(9) 0.5421(3)
O1 O 0.6823(4) 0.3046(7) 0.3696(3)
N5 N 0.6324(4) 0.1570(7) 0.5539(2)
C4 C 0.5585(5) 0.1209(10) 0.5694(3)
N6 N 0.6434(5) 0.3538(8) 0.4046(3)
C5 C 0.6046(5) -0.0284(9) 0.6566(3)
C6 C 0.4137(5) 0.4499(10) 0.4050(4)
C7 C 0.5537(5) 0.4076(10) 0.3891(4)
C8 C 0.4537(8) 0.5437(10) 0.3223(3)
C9 C 0.3944(5) 0.5287(10) 0.3559(4)
C10 C 0.3242(5) 0.1161(10) 0.5636(3)
C11 C 0.5341(6) 0.4834(11) 0.3388(4)
O2 O 0.6758(3) 0.3618(9) 0.4518(3)
C12 C 0.6794(6) -0.1024(10) 0.6473(3)
C13 C 0.7144(6) -0.1778(11) 0.7408(4)
C14 C 0.5861(4) -0.028(1) 0.7081(4)
C15 C 0.7343(5) -0.1768(10) 0.6896(4)
C16 C 0.6406(7) -0.1043(13) 0.7501(3)
H1 H 0.37100 0.43714 0.42750
H2 H 0.43785 0.59452 0.28735
H3 H 0.33885 0.57659 0.34443
H4 H 0.30589 0.17486 0.53019
H5 H 0.30461 0.17749 0.59229
H6 H 0.30117 0.00179 0.56149
H7 H 0.57913 0.49277 0.31779
H8 H 0.69191 -0.10103 0.61129
H9 H 0.75133 -0.23070 0.77021
H10 H 0.53463 0.02671 0.71445
H11 H 0.78724 -0.22813 0.68458
H12 H 0.62602 -0.10348 0.78555
H13 H 0.63329 0.21589 0.52046
H14 H 0.68488 0.12397 0.57594
#END
