
#######################################################################
#
#                 Cambridge Crystallographic Data Centre
#                                CCDC
#
#######################################################################
#
# If this CIF has been generated from an entry in the Cambridge
# Structural Database, then it will include bibliographic, chemical,
# crystal, experimental, refinement or atomic coordinate data resulting
# from the CCDC's data processing and validation procedures.
#
#######################################################################

data_CSD_CIF_CUNTAG
_audit_creation_date 1985-11-27
_audit_creation_method CSD-ConQuest-V1
_database_code_CSD CUNTAG
_chemical_formula_sum 'C12 H7 N1 O3'
_chemical_formula_moiety
;
C12 H7 N1 O3
;
_journal_coeditor_code "IUCr A24679"
_journal_coden_Cambridge 591
_journal_volume 41
_journal_year 1985
_journal_page_first 558
_journal_name_full 'Acta Crystallogr.,Sect.C:Cryst.Struct.Commun. '
loop_
_publ_author_name
"J.-P.Bideau"
"G.Bravic"
"M.Cotrait"
_chemical_name_systematic
;
2-Nitro-naphtho(1,2-b)furan
;
_cell_volume    952.240
_exptl_crystal_density_diffrn 1.487
_exptl_special_details
;
mutagenic agent

;
_diffrn_ambient_temperature ?
_diffrn_special_details
;
The study was carried out at room temperature,in the range 283-303K

;
#These two values have been output from a single CSD field.
_refine_ls_R_factor_gt 0.047
_refine_ls_wR_factor_gt 0.047
_symmetry_cell_setting monoclinic
_symmetry_space_group_name_H-M 'P 21/c'
_symmetry_Int_Tables_number 14
loop_
_symmetry_equiv_pos_site_id
_symmetry_equiv_pos_as_xyz
1 x,y,z
2 -x,1/2+y,1/2-z
3 -x,-y,-z
4 x,-1/2-y,-1/2+z
_cell_length_a 6.500(1)
_cell_length_b 19.866(4)
_cell_length_c 7.375(3)
_cell_angle_alpha 90
_cell_angle_beta 90.77(3)
_cell_angle_gamma 90
_cell_formula_units_Z 4
loop_
_atom_type_symbol
_atom_type_radius_bond
C 0.68
H 0.23
N 0.68
O 0.68
loop_
_atom_site_label
_atom_site_type_symbol
_atom_site_fract_x
_atom_site_fract_y
_atom_site_fract_z
O1 O 0.8037(2) 0.1675(1) 0.6662(2)
C1 C 0.7299(4) 0.1040(1) 0.6420(4)
C2 C 0.5366(4) 0.1016(1) 0.5751(4)
C3 C 0.2984(4) 0.2035(2) 0.4873(4)
C4 C 0.2983(4) 0.2714(2) 0.4833(4)
C5 C 0.4656(5) 0.3819(2) 0.5477(4)
C6 C 0.6305(6) 0.4181(2) 0.6096(5)
C7 C 0.8103(5) 0.3857(2) 0.6720(4)
C8 C 0.8199(4) 0.3172(1) 0.6734(4)
C9 C 0.6443(4) 0.2085(1) 0.6099(4)
C10 C 0.4783(4) 0.1699(1) 0.5536(4)
C11 C 0.4698(4) 0.3109(1) 0.5458(4)
C12 C 0.6511(4) 0.2785(1) 0.6120(3)
N1 N 0.8678(4) 0.0512(1) 0.6880(4)
O2 O 1.0394(3) 0.0651(1) 0.7465(4)
O3 O 0.8032(4) -0.0066(1) 0.6672(4)
H1 H 0.45100 0.06000 0.54600
H2 H 0.16700 0.17600 0.44200
H3 H 0.16500 0.29700 0.43200
H4 H 0.33200 0.40800 0.50000
H5 H 0.62300 0.47200 0.61100
H6 H 0.93800 0.41500 0.71800
H7 H 0.95700 0.29300 0.72100
#END
