
#######################################################################
#
#                 Cambridge Crystallographic Data Centre
#                                CCDC
#
#######################################################################
#
# If this CIF has been generated from an entry in the Cambridge
# Structural Database, then it will include bibliographic, chemical,
# crystal, experimental, refinement or atomic coordinate data resulting
# from the CCDC's data processing and validation procedures.
#
#######################################################################

data_CSD_CIF_CUTTUH
_audit_creation_date 2010-10-04
_audit_creation_method CSD-ConQuest-V1
_database_code_CSD CUTTUH
_database_code_depnum_ccdc_archive 'CCDC 761562'
_chemical_formula_sum 'C16 H18 N4 O2'
_chemical_formula_moiety
;
C16 H18 N4 O2
;
_journal_coden_Cambridge 182
_journal_volume 46
_journal_year 2010
_journal_page_first 5799
_journal_name_full 'Chem.Commun. '
loop_
_publ_author_name
"D.Biswas"
"J.R.Deschamps"
"L.K.Keefer"
"J.A.Hrabie"
_chemical_name_systematic
;
N'-((Benzyloxy)-NNO-azoxy)-N,N-dimethylbenzenecarboximidamide
;
_cell_volume   3059.690
_exptl_crystal_colour 'colorless'
_exptl_crystal_density_diffrn 1.295
_exptl_crystal_description 'block'
_diffrn_ambient_temperature 100
#These two values have been output from a single CSD field.
_refine_ls_R_factor_gt 0.0373
_refine_ls_wR_factor_gt 0.0373
_symmetry_cell_setting orthorhombic
_symmetry_space_group_name_H-M 'P b c a'
_symmetry_Int_Tables_number 61
loop_
_symmetry_equiv_pos_site_id
_symmetry_equiv_pos_as_xyz
1 x,y,z
2 1/2+x,1/2-y,-z
3 -x,1/2+y,1/2-z
4 1/2-x,-y,1/2+z
5 -x,-y,-z
6 -1/2-x,-1/2+y,z
7 x,-1/2-y,-1/2+z
8 -1/2+x,y,-1/2-z
_cell_length_a 9.9137(7)
_cell_length_b 13.722(1)
_cell_length_c 22.4918(16)
_cell_angle_alpha 90
_cell_angle_beta 90
_cell_angle_gamma 90
_cell_formula_units_Z 8
loop_
_atom_type_symbol
_atom_type_radius_bond
C 0.68
H 0.23
N 0.68
O 0.68
loop_
_atom_site_label
_atom_site_type_symbol
_atom_site_fract_x
_atom_site_fract_y
_atom_site_fract_z
N1 N 0.53139(8) -0.09689(5) 0.36447(4)
O1 O 0.63318(7) -0.09296(5) 0.39774(3)
N2 N 0.52967(8) -0.10581(6) 0.30791(4)
O2 O 0.66272(7) -0.10869(5) 0.28834(3)
N3 N 0.39993(8) -0.09989(6) 0.38856(4)
C1 C 0.65802(11) -0.10615(7) 0.22374(5)
H1 H 0.61020 -0.16480 0.20910
H2 H 0.75120 -0.10790 0.20790
C2 C 0.58771(10) -0.01639(7) 0.20066(4)
C3 C 0.64892(11) 0.07509(7) 0.20554(5)
H3 H 0.73600 0.08060 0.22290
C4 C 0.58278(11) 0.15818(8) 0.18511(5)
H4 H 0.62510 0.22010 0.18830
C5 C 0.45481(12) 0.15079(8) 0.16006(5)
H5 H 0.40970 0.20760 0.14630
C6 C 0.39306(11) 0.06016(8) 0.15524(5)
H6 H 0.30580 0.05480 0.13810
C7 C 0.45972(11) -0.02272(7) 0.17565(5)
H7 H 0.41710 -0.08450 0.17240
C8 C 0.36309(10) -0.01622(7) 0.41256(4)
N4 N 0.24625(9) -0.01521(6) 0.44263(4)
C9 C 0.16817(11) -0.10441(8) 0.45102(5)
H8 H 0.08210 -0.09880 0.42990
H9 H 0.15110 -0.11430 0.49350
H10 H 0.21890 -0.16000 0.43530
C10 C 0.17976(11) 0.07325(8) 0.46367(5)
H11 H 0.18330 0.07550 0.50720
H12 H 0.08540 0.07320 0.45060
H13 H 0.22590 0.13040 0.44730
C11 C 0.44555(10) 0.07503(6) 0.40979(4)
C12 C 0.48967(10) 0.11261(7) 0.35529(4)
H14 H 0.46220 0.08300 0.31910
C13 C 0.57415(10) 0.19376(7) 0.35446(5)
H15 H 0.60480 0.21910 0.31760
C14 C 0.61386(11) 0.23791(7) 0.40734(5)
H16 H 0.67210 0.29290 0.40660
C15 C 0.56808(11) 0.20134(7) 0.46122(5)
H17 H 0.59420 0.23200 0.49730
C16 C 0.48423(10) 0.12015(7) 0.46280(5)
H18 H 0.45330 0.09540 0.49980
#END
