
#######################################################################
#
#                 Cambridge Crystallographic Data Centre
#                                CCDC
#
#######################################################################
#
# If this CIF has been generated from an entry in the Cambridge
# Structural Database, then it will include bibliographic, chemical,
# crystal, experimental, refinement or atomic coordinate data resulting
# from the CCDC's data processing and validation procedures.
#
#######################################################################

data_CSD_CIF_CUWGEI
_audit_creation_date 2015-11-24
_audit_creation_method CSD-ConQuest-V1
_database_code_CSD CUWGEI
_database_code_depnum_ccdc_archive 'CCDC 1403679'
_chemical_formula_sum 'C19 H16 N2 O4'
_chemical_formula_moiety
;
C19 H16 N2 O4
;
_journal_coden_Cambridge 1336
_journal_volume 17
_journal_year 2015
_journal_page_first 5582
_journal_name_full 'Org.Lett. '
loop_
_publ_author_name
"P.Ramaraju"
"N.A.Mir"
"Deepika Singh"
"V.K.Gupta"
"R.Kant"
"I.Kumar"
_chemical_name_systematic
;
1-(4-methoxyphenyl)-2-(3-nitrophenyl)-1,2-dihydropyridine-3-carbaldehyde
;
_cell_volume   1606.169
_exptl_crystal_colour 'white'
_exptl_crystal_density_diffrn 1.391
_exptl_crystal_description 'block'
_diffrn_ambient_temperature 293
#These two values have been output from a single CSD field.
_refine_ls_R_factor_gt 0.0424
_refine_ls_wR_factor_gt 0.0424
_symmetry_cell_setting orthorhombic
_symmetry_space_group_name_H-M 'P 21 21 21'
_symmetry_Int_Tables_number 19
loop_
_symmetry_equiv_pos_site_id
_symmetry_equiv_pos_as_xyz
1 x,y,z
2 1/2-x,-y,1/2+z
3 -x,1/2+y,1/2-z
4 1/2+x,1/2-y,-z
_cell_length_a 7.0624(7)
_cell_length_b 7.6001(6)
_cell_length_c 29.924(2)
_cell_angle_alpha 90
_cell_angle_beta 90
_cell_angle_gamma 90
_cell_formula_units_Z 4
loop_
_atom_type_symbol
_atom_type_radius_bond
C 0.68
H 0.23
N 0.68
O 0.68
loop_
_atom_site_label
_atom_site_type_symbol
_atom_site_fract_x
_atom_site_fract_y
_atom_site_fract_z
N1 N 0.4950(3) 0.3337(3) 0.84131(7)
C1 C 0.6409(4) 0.3934(3) 0.91520(9)
O1 O 0.9417(4) 0.3094(3) 0.68773(7)
C2 C 0.8181(4) 0.2685(4) 0.99282(10)
H1 H 0.87070 0.22430 1.01900
C3 C 0.6139(4) 0.3261(4) 0.80330(9)
C4 C 0.7777(4) 0.1602(4) 0.95721(10)
C5 C 0.6924(4) 0.2184(3) 0.91858(9)
H2 H 0.66970 0.14110 0.89510
O2 O 0.8815(3) -0.1008(3) 0.92673(9)
N2 N 0.8275(4) -0.0263(3) 0.96069(10)
C6 C 0.7931(4) 0.3974(4) 0.80346(10)
H3 H 0.83870 0.44840 0.82960
C7 C 0.8421(5) 0.3185(4) 0.72702(10)
C8 C 0.9077(5) 0.3954(4) 0.76575(10)
H4 H 1.02780 0.44550 0.76660
C9 C 0.5494(5) 0.2481(4) 0.76397(9)
H5 H 0.42900 0.19860 0.76300
C10 C 0.6892(5) 0.5063(4) 0.9503(1)
H6 H 0.66110 0.62550 0.94800
C11 C 0.6629(5) 0.2440(4) 0.72664(10)
H7 H 0.61880 0.19030 0.70070
C12 C 0.7775(5) 0.4449(4) 0.98819(11)
H8 H 0.81010 0.52300 1.01080
O3 O 0.4434(4) 0.8296(3) 0.89838(9)
O4 O 0.8119(4) -0.0989(3) 0.99670(8)
C13 C 0.5286(4) 0.4666(4) 0.87615(9)
H9 H 0.60030 0.56400 0.86300
C14 C 0.3518(5) 0.2158(4) 0.84863(10)
H10 H 0.35410 0.10880 0.83360
C15 C 1.1240(5) 0.3899(5) 0.68623(11)
H11 H 1.20360 0.33890 0.70880
H12 H 1.11150 0.51400 0.69160
H13 H 1.17950 0.37120 0.65730
C16 C 0.3381(5) 0.5360(4) 0.89139(10)
C17 C 0.2076(5) 0.2492(5) 0.87683(11)
H14 H 0.12100 0.16190 0.88440
C18 C 0.1919(5) 0.4227(5) 0.89473(11)
H15 H 0.08060 0.45760 0.90870
C19 C 0.3189(6) 0.7203(5) 0.90270(11)
H16 H 0.20320 0.75780 0.91410
#END
