
#######################################################################
#
#                 Cambridge Crystallographic Data Centre
#                                CCDC
#
#######################################################################
#
# If this CIF has been generated from an entry in the Cambridge
# Structural Database, then it will include bibliographic, chemical,
# crystal, experimental, refinement or atomic coordinate data resulting
# from the CCDC's data processing and validation procedures.
#
#######################################################################

data_CSD_CIF_CUZGAH
_audit_creation_date 2015-11-25
_audit_creation_method CSD-ConQuest-V1
_database_code_CSD CUZGAH
_database_code_depnum_ccdc_archive 'CCDC 1435676'
_chemical_formula_sum 'C19 H25 N1 O2'
_chemical_formula_moiety
;
C19 H25 N1 O2
;
_journal_coeditor_code "is5431"
_journal_coden_Cambridge 1828
_journal_volume 71
_journal_year 2015
_journal_page_first 1528
_journal_name_full 'Acta Crystallogr.,Sect.E:Cryst.Commun. '
loop_
_publ_author_name
"T.Oishi"
"S.Yamamoto"
"T.Yokoyama"
"A.Kobayashi"
"T.Sato"
"N.Chida"
_chemical_name_systematic
;
()-(5S,6S)-6-Ethenyl-1-[(R)-1-phenylethoxy]-1-azaspiro[4.5]decan-2-one
;
_chemical_name_common
;
1-(1-phenylethoxy)-6-vinyl-1-azaspiro[4.5]decan-2-one
;
_chemical_melting_point 357.8
_cell_volume    813.827
_exptl_crystal_colour 'colorless'
_exptl_crystal_density_diffrn 1.222
_exptl_crystal_description 'plate'
_diffrn_ambient_temperature 90
#These two values have been output from a single CSD field.
_refine_ls_R_factor_gt 0.034
_refine_ls_wR_factor_gt 0.034
_symmetry_cell_setting triclinic
_symmetry_space_group_name_H-M 'P -1'
_symmetry_Int_Tables_number 2
loop_
_symmetry_equiv_pos_site_id
_symmetry_equiv_pos_as_xyz
1 x,y,z
2 -x,-y,-z
_cell_length_a 8.9032(5)
_cell_length_b 9.6307(5)
_cell_length_c 11.3401(6)
_cell_angle_alpha 93.306(2)
_cell_angle_beta 108.710(2)
_cell_angle_gamma 114.929(2)
_cell_formula_units_Z 2
loop_
_atom_type_symbol
_atom_type_radius_bond
C 0.68
H 0.23
N 0.68
O 0.68
loop_
_atom_site_label
_atom_site_type_symbol
_atom_site_fract_x
_atom_site_fract_y
_atom_site_fract_z
N1 N 0.38594(14) 0.18774(12) 0.71854(10)
C1 C 0.27948(18) 0.23274(15) 0.63314(13)
C2 C 0.35545(19) 0.27324(18) 0.53172(13)
H1 H 0.38310 0.38230 0.52360
H2 H 0.26940 0.20090 0.44800
C3 C 0.52667(18) 0.25541(17) 0.57599(12)
H3 H 0.62830 0.35050 0.57340
H4 H 0.51070 0.16360 0.51970
C4 C 0.56353(17) 0.23207(15) 0.71449(12)
C5 C 0.61336(18) 0.09955(16) 0.73662(13)
H5 H 0.61120 0.07540 0.81990
H6 H 0.52320 0.00390 0.66910
C6 C 0.79862(18) 0.14278(17) 0.73554(14)
H7 H 0.79780 0.15700 0.64960
H8 H 0.82810 0.05600 0.75390
C7 C 0.94114(18) 0.29350(17) 0.83460(14)
H9 H 0.95250 0.27520 0.92130
H10 H 1.05820 0.32320 0.82740
C8 C 0.89331(18) 0.42710(16) 0.81564(13)
H11 H 0.89560 0.45330 0.73290
H12 H 0.98420 0.52140 0.88420
C9 C 0.70790(17) 0.38388(15) 0.81750(13)
H13 H 0.71150 0.35800 0.90220
C10 C 0.65709(18) 0.51421(16) 0.80790(12)
H14 H 0.55320 0.49780 0.82400
C11 C 0.7417(2) 0.64903(16) 0.77944(13)
H15 H 0.84640 0.67130 0.76250
H16 H 0.69810 0.72390 0.77590
O1 O 0.14599(13) 0.23609(11) 0.63826(9)
O2 O 0.36946(11) 0.17339(10) 0.83675(8)
C12 C 0.20748(17) 0.02915(15) 0.82165(12)
H17 H 0.10190 0.03010 0.75560
C13 C 0.19176(19) 0.04574(16) 0.94965(13)
H18 H 0.30040 0.05630 1.01670
H19 H 0.08760 -0.04750 0.94900
H20 H 0.17710 0.13930 0.96640
C14 C 0.22033(17) -0.11480(15) 0.77798(12)
C15 C 0.14415(17) -0.18306(16) 0.64821(13)
H21 H 0.08130 -0.14090 0.58970
C16 C 0.15846(19) -0.31154(16) 0.60300(14)
H22 H 0.10630 -0.35670 0.51400
C17 C 0.24866(19) -0.37425(16) 0.68731(14)
H23 H 0.25880 -0.46240 0.65640
C18 C 0.32436(19) -0.30816(16) 0.81723(14)
H24 H 0.38590 -0.35150 0.87550
C19 C 0.31044(17) -0.17913(15) 0.86219(13)
H25 H 0.36280 -0.13420 0.95130
#END
