
#######################################################################
#
#                 Cambridge Crystallographic Data Centre
#                                CCDC
#
#######################################################################
#
# If this CIF has been generated from an entry in the Cambridge
# Structural Database, then it will include bibliographic, chemical,
# crystal, experimental, refinement or atomic coordinate data resulting
# from the CCDC's data processing and validation procedures.
#
#######################################################################

data_CSD_CIF_CUZWAW
_audit_creation_date 2011-01-04
_audit_creation_method CSD-ConQuest-V1
_database_code_CSD CUZWAW
_database_code_depnum_ccdc_archive 'CCDC 766355'
_chemical_formula_sum 'C17 H19 N1 O4'
_chemical_formula_moiety
;
C17 H19 N1 O4
;
_journal_coden_Cambridge 1090
_journal_volume 21
_journal_year 2010
_journal_page_first 805
_journal_name_full 'Tetrahedron:Asymm. '
loop_
_publ_author_name
"R.Kuriata"
"K.Gajcy"
"I.Turowska-Tyrk"
"S.Lochynski"
_chemical_name_systematic
;
(+)-(1R)-1-((1S,5R)-6,6-Dimethylbicyclo(3.1.0)hex-2-en-2-yl)ethyl 
p-nitrobenzoate
;
_chemical_melting_point 336.15
_cell_volume    801.500
_exptl_crystal_colour 'pale yellow'
_exptl_crystal_density_diffrn 1.249
_exptl_special_details
;
Melting point range 336.15-339.15K

;
_exptl_crystal_description 'block'
_diffrn_ambient_temperature 299
#These two values have been output from a single CSD field.
_refine_ls_R_factor_gt 0.039
_refine_ls_wR_factor_gt 0.039
_symmetry_cell_setting monoclinic
_symmetry_space_group_name_H-M 'P 21'
_symmetry_Int_Tables_number 4
loop_
_symmetry_equiv_pos_site_id
_symmetry_equiv_pos_as_xyz
1 x,y,z
2 -x,1/2+y,-z
_cell_length_a 10.2474(19)
_cell_length_b 7.4649(9)
_cell_length_c 11.480(2)
_cell_angle_alpha 90
_cell_angle_beta 114.12(2)
_cell_angle_gamma 90
_cell_formula_units_Z 2
loop_
_atom_type_symbol
_atom_type_radius_bond
C 0.68
H 0.23
N 0.68
O 0.68
loop_
_atom_site_label
_atom_site_type_symbol
_atom_site_fract_x
_atom_site_fract_y
_atom_site_fract_z
C1 C 0.1280(3) 0.1327(4) 0.3654(2)
H1 H 0.04960 0.21890 0.32880
C2 C 0.1372(3) -0.0206(3) 0.2871(3)
C3 C 0.1716(3) -0.1699(4) 0.3557(3)
H2 H 0.18510 -0.27940 0.32360
C4 C 0.1866(4) -0.1441(4) 0.4894(3)
H3 H 0.28130 -0.17840 0.55020
H4 H 0.11600 -0.21380 0.50570
C5 C 0.1619(3) 0.0544(4) 0.4973(3)
H5 H 0.10440 0.09330 0.54300
C6 C 0.2621(3) 0.1865(4) 0.4794(3)
C7 C 0.2592(4) 0.3728(5) 0.5299(4)
H6 H 0.31740 0.37570 0.62000
H7 H 0.16270 0.40410 0.51450
H8 H 0.29570 0.45690 0.48740
C8 C 0.4067(3) 0.1303(5) 0.4899(3)
H9 H 0.47300 0.13160 0.57800
H10 H 0.43870 0.21170 0.44240
H11 H 0.40120 0.01140 0.45630
C9 C 0.1186(3) -0.0031(4) 0.1530(3)
H12 H 0.13360 -0.12010 0.12160
C10 C -0.0242(3) 0.0709(6) 0.0635(3)
H13 H -0.03820 0.18670 0.09290
H14 H -0.09890 -0.00850 0.06120
H15 H -0.02640 0.08170 -0.02070
O1 O 0.22590(19) 0.1245(3) 0.14802(17)
C11 C 0.3483(3) 0.0572(4) 0.1557(3)
O2 O 0.3744(3) -0.1007(3) 0.1607(3)
C12 C 0.4530(3) 0.1972(4) 0.1590(2)
C13 C 0.4266(3) 0.3791(4) 0.1632(3)
H16 H 0.34050 0.41670 0.16410
C14 C 0.5265(3) 0.5043(4) 0.1660(3)
H17 H 0.50890 0.62620 0.16820
C15 C 0.6529(3) 0.4439(4) 0.1654(2)
C16 C 0.6824(3) 0.2647(4) 0.1625(3)
H18 H 0.76930 0.22750 0.16310
C17 C 0.5815(3) 0.1423(4) 0.1587(3)
H19 H 0.59960 0.02070 0.15580
N1 N 0.7610(3) 0.5737(4) 0.1692(2)
O3 O 0.7313(3) 0.7317(4) 0.1600(3)
O4 O 0.8782(3) 0.5180(4) 0.1803(3)
#END
