
#######################################################################
#
#                 Cambridge Crystallographic Data Centre
#                                CCDC
#
#######################################################################
#
# If this CIF has been generated from an entry in the Cambridge
# Structural Database, then it will include bibliographic, chemical,
# crystal, experimental, refinement or atomic coordinate data resulting
# from the CCDC's data processing and validation procedures.
#
#######################################################################

data_CSD_CIF_DACVEK
_audit_creation_date 2012-01-25
_audit_creation_method CSD-ConQuest-V1
_database_code_CSD DACVEK
_database_code_depnum_ccdc_archive 'CCDC 828370'
_chemical_formula_sum 'C25 H18 N2 O5'
_chemical_formula_moiety
;
C25 H18 N2 O5
;
_journal_coden_Cambridge 177
_journal_volume 9
_journal_year 2011
_journal_page_first 7196
_journal_name_full 'Org.Biomol.Chem. '
loop_
_publ_author_name
"A.A.Kudale"
"D.O.Miller"
"L.N.Dawe"
"G.J.Bodwell"
_chemical_name_systematic
;
14-(4-Nitrophenyl)-7,13,13a,14-tetrahydrodichromeno[3,4-b:3',4'-e]pyridin-6(7a
H)-one
;
_cell_volume   1952.430
_exptl_crystal_colour 'colorless'
_exptl_crystal_density_diffrn 1.451
_exptl_crystal_description 'platelet'
_diffrn_ambient_temperature 153
#These two values have been output from a single CSD field.
_refine_ls_R_factor_gt 0.0992
_refine_ls_wR_factor_gt 0.0992
_symmetry_cell_setting monoclinic
_symmetry_space_group_name_H-M 'P 21/c'
_symmetry_Int_Tables_number 14
loop_
_symmetry_equiv_pos_site_id
_symmetry_equiv_pos_as_xyz
1 x,y,z
2 -x,1/2+y,1/2-z
3 -x,-y,-z
4 x,-1/2-y,-1/2+z
_cell_length_a 16.814(4)
_cell_length_b 13.493(3)
_cell_length_c 8.7591(18)
_cell_angle_alpha 90
_cell_angle_beta 100.732(5)
_cell_angle_gamma 90
_cell_formula_units_Z 4
loop_
_atom_type_symbol
_atom_type_radius_bond
C 0.68
H 0.23
N 0.68
O 0.68
loop_
_atom_site_label
_atom_site_type_symbol
_atom_site_fract_x
_atom_site_fract_y
_atom_site_fract_z
O1 O -0.00208(13) 0.61823(17) 0.8470(3)
O2 O -0.00339(14) 0.58796(18) 0.5996(3)
O3 O 0.38353(15) 0.4039(2) 0.7007(3)
O4 O 0.4620(2) 0.9069(3) 1.1823(5)
O5 O 0.51152(19) 0.8059(3) 1.3664(4)
N1 N 0.14419(17) 0.5009(2) 0.6507(3)
N2 N 0.4649(2) 0.8257(3) 1.2463(5)
C1 C 0.0345(2) 0.5837(2) 0.7321(4)
C2 C 0.1162(2) 0.5442(2) 0.7734(4)
C3 C 0.21211(19) 0.4334(3) 0.6966(4)
H1 H 0.19430 0.37610 0.75440
C4 C 0.2450(2) 0.3951(2) 0.5577(4)
C5 C 0.1950(2) 0.3698(3) 0.4186(4)
H2 H 0.13800 0.37470 0.41020
C6 C 0.2266(2) 0.3375(3) 0.2913(4)
H3 H 0.19140 0.32000 0.19730
C7 C 0.3092(2) 0.3313(3) 0.3024(4)
H4 H 0.33110 0.31100 0.21510
C8 C 0.3602(2) 0.3546(3) 0.4407(4)
H5 H 0.41720 0.34940 0.44870
C9 C 0.3281(2) 0.3855(3) 0.5678(4)
C10 C 0.3533(2) 0.4272(3) 0.8381(4)
H6 H 0.39570 0.46280 0.91140
H7 H 0.34090 0.36500 0.88870
C11 C 0.2776(2) 0.4908(3) 0.8043(4)
H8 H 0.29030 0.55200 0.74890
C12 C 0.2485(2) 0.5225(3) 0.9541(4)
H9 H 0.25370 0.46410 1.02540
C13 C 0.1600(2) 0.5532(2) 0.9193(4)
C14 C 0.1196(2) 0.5910(2) 1.0394(4)
C15 C 0.1543(2) 0.5962(3) 1.1976(4)
H10 H 0.20900 0.57670 1.23060
C16 C 0.1110(2) 0.6287(3) 1.3059(4)
H11 H 0.13620 0.63180 1.41230
C17 C 0.0309(2) 0.6572(3) 1.2618(4)
H12 H 0.00150 0.67930 1.33810
C18 C -0.0066(2) 0.6536(3) 1.1077(4)
H13 H -0.06140 0.67310 1.07590
C19 C 0.0390(2) 0.6203(3) 1.0007(4)
C20 C 0.3047(2) 0.6040(3) 1.0334(4)
C21 C 0.2938(2) 0.7018(3) 0.9851(4)
H14 H 0.24990 0.71850 0.90430
C22 C 0.3462(2) 0.7758(3) 1.0531(4)
H15 H 0.33890 0.84280 1.02000
C23 C 0.4092(2) 0.7485(3) 1.1703(4)
C24 C 0.4223(2) 0.6528(3) 1.2210(4)
H16 H 0.46640 0.63660 1.30180
C25 C 0.3694(2) 0.5804(3) 1.1510(4)
H17 H 0.37740 0.51350 1.18400
H18 H 0.107(2) 0.484(3) 0.571(4)
#END
