
#######################################################################
#
#                 Cambridge Crystallographic Data Centre
#                                CCDC
#
#######################################################################
#
# If this CIF has been generated from an entry in the Cambridge
# Structural Database, then it will include bibliographic, chemical,
# crystal, experimental, refinement or atomic coordinate data resulting
# from the CCDC's data processing and validation procedures.
#
#######################################################################

data_CSD_CIF_DAFXAM02
_audit_creation_date 2016-12-12
_audit_creation_method CSD-ConQuest-V1
_database_code_CSD DAFXAM02
_database_code_depnum_ccdc_archive 'CCDC 1445096'
_chemical_formula_sum 'C7 H5 N1 O5'
_chemical_formula_moiety
;
C7 H5 N1 O5
;
_journal_coden_Cambridge 7
_journal_volume 89
_journal_year 2016
_journal_page_first 1503
_journal_name_full 'Bull.Chem.Soc.Jpn. '
loop_
_publ_author_name
"S.Noro"
"Rika Ochi"
"K.Kubo"
"T.Nakamura"
_chemical_name_systematic
;
3,5-dicarboxypyridine N-oxide
;
_cell_volume    764.479
_exptl_crystal_colour 'colorless'
_exptl_crystal_density_diffrn 1.591
_exptl_crystal_description 'chunk'
_diffrn_ambient_temperature 343
#These two values have been output from a single CSD field.
_refine_ls_R_factor_gt 0.0354
_refine_ls_wR_factor_gt 0.0354
_symmetry_cell_setting monoclinic
_symmetry_space_group_name_H-M 'C c'
_symmetry_Int_Tables_number 9
loop_
_symmetry_equiv_pos_site_id
_symmetry_equiv_pos_as_xyz
1 x,y,z
2 x,-y,1/2+z
3 1/2+x,1/2+y,z
4 1/2+x,1/2-y,1/2+z
_cell_length_a 5.8742(10)
_cell_length_b 12.0172(18)
_cell_length_c 10.8684(14)
_cell_angle_alpha 90
_cell_angle_beta 94.841(7)
_cell_angle_gamma 90
_cell_formula_units_Z 4
loop_
_atom_type_symbol
_atom_type_radius_bond
C 0.68
H 0.23
N 0.68
O 0.68
loop_
_atom_site_label
_atom_site_type_symbol
_atom_site_fract_x
_atom_site_fract_y
_atom_site_fract_z
C1 C 0.4152(8) 0.0694(4) 1.1285(4)
C2 C 0.3325(8) 0.0551(4) 1.0071(4)
H1 H 0.41210 0.01130 0.95480
C3 C 0.0174(7) 0.1705(4) 1.0372(4)
H2 H -0.11720 0.20440 1.00530
C4 C 0.0954(7) 0.1873(4) 1.1584(4)
C5 C 0.2990(7) 0.1364(4) 1.2051(4)
H3 H 0.35520 0.14760 1.28670
C6 C 0.6329(8) 0.0108(4) 1.1712(4)
C7 C -0.0338(8) 0.2566(4) 1.2427(4)
N1 N 0.1353(6) 0.1050(3) 0.9641(3)
O1 O 0.7374(7) -0.0454(3) 1.1027(4)
O2 O 0.6943(6) 0.0266(3) 1.2889(3)
H4 H 0.840(12) -0.013(5) 1.315(6)
O3 O 0.0339(6) 0.2714(3) 1.3500(3)
O4 O -0.2240(6) 0.2978(3) 1.1891(3)
O5 O 0.0591(6) 0.0901(3) 0.8454(3)
H5 H -0.320(16) 0.345(6) 1.258(7)
#END
