
#######################################################################
#
#                 Cambridge Crystallographic Data Centre
#                                CCDC
#
#######################################################################
#
# If this CIF has been generated from an entry in the Cambridge
# Structural Database, then it will include bibliographic, chemical,
# crystal, experimental, refinement or atomic coordinate data resulting
# from the CCDC's data processing and validation procedures.
#
#######################################################################

data_CSD_CIF_DAFYEO
_audit_creation_date 1986-03-24
_audit_creation_method CSD-ConQuest-V1
_database_code_CSD DAFYEO
_chemical_formula_sum 'C23 H21 N1 O2'
_chemical_formula_moiety
;
C23 H21 N1 O2
;
_journal_coden_Cambridge 35
_journal_volume 50
_journal_year 1985
_journal_page_first 2804
_journal_name_full 'J.Org.Chem. '
loop_
_publ_author_name
"P.A.Wade"
"D.T.Price"
"J.P.McCauley"
"P.J.Carroll"
_chemical_name_systematic
;
3-(1-Hydroxy-1-phenylethyl)-4,5-diphenyl-2-isoxazoline
;
_cell_volume   3749.236
_exptl_crystal_density_diffrn 1.217
_diffrn_ambient_temperature ?
_diffrn_special_details
;
The study was carried out at room temperature,in the range 283-303K

;
#These two values have been output from a single CSD field.
_refine_ls_R_factor_gt 0.044
_refine_ls_wR_factor_gt 0.044
_symmetry_cell_setting monoclinic
_symmetry_space_group_name_H-M 'C 2/c'
_symmetry_Int_Tables_number 15
loop_
_symmetry_equiv_pos_site_id
_symmetry_equiv_pos_as_xyz
1 x,y,z
2 1/2+x,1/2+y,z
3 -x,y,1/2-z
4 1/2-x,1/2+y,1/2-z
5 -x,-y,-z
6 -1/2-x,-1/2-y,-z
7 x,-y,-1/2+z
8 -1/2+x,-1/2-y,-1/2+z
_cell_length_a 28.472(5)
_cell_length_b 10.939(1)
_cell_length_c 20.659(4)
_cell_angle_alpha 90
_cell_angle_beta 144.36(1)
_cell_angle_gamma 90
_cell_formula_units_Z 8
loop_
_atom_type_symbol
_atom_type_radius_bond
C 0.68
H 0.23
N 0.68
O 0.68
loop_
_atom_site_label
_atom_site_type_symbol
_atom_site_fract_x
_atom_site_fract_y
_atom_site_fract_z
C1 C 0.13594(6) 0.4853(2) 0.47760(9)
C2 C 0.13735(6) 0.3586(2) 0.51171(8)
C3 C 0.18172(6) 0.3906(2) 0.62267(8)
C4 C 0.21405(6) 0.2985(2) 0.70780(9)
C5 C 0.14694(6) 0.2681(2) 0.68088(9)
C6 C 0.10540(7) 0.1582(2) 0.6313(1)
C7 C 0.04346(8) 0.1342(2) 0.6056(1)
C8 C 0.02200(8) 0.2184(3) 0.6278(1)
C9 C 0.06357(8) 0.3271(2) 0.6781(1)
C10 C 0.12537(7) 0.3521(2) 0.7042(1)
C11 C 0.05510(6) 0.3031(2) 0.43204(8)
C12 C 0.03114(8) 0.1997(2) 0.3718(1)
C13 C -0.04473(9) 0.1495(2) 0.2981(1)
C14 C -0.09579(9) 0.2015(2) 0.2854(1)
C15 C -0.07301(8) 0.3045(2) 0.3439(1)
C16 C 0.00212(7) 0.3554(2) 0.4167(1)
C17 C 0.19786(6) 0.5020(2) 0.49430(8)
C18 C 0.19395(7) 0.4283(2) 0.4353(1)
C19 C 0.24938(7) 0.4415(2) 0.4472(1)
C20 C 0.30855(7) 0.5293(2) 0.5175(1)
C21 C 0.31296(8) 0.6023(2) 0.5759(1)
C22 C 0.25788(7) 0.5889(2) 0.5650(1)
C23 C 0.28917(7) 0.3468(2) 0.82560(9)
N1 N 0.18797(5) 0.5057(1) 0.63996(7)
O1 O 0.14951(4) 0.5701(1) 0.54536(6)
O2 O 0.23423(4) 0.1942(1) 0.69184(6)
H1 H 0.0805(6) 0.501(2) 0.3996(8)
H2 H 0.1683(5) 0.306(1) 0.5211(8)
H3 H 0.1229(6) 0.103(2) 0.6127(9)
H4 H 0.0111(9) 0.056(2) 0.567(1)
H5 H -0.0204(7) 0.203(2) 0.607(1)
H6 H 0.0476(7) 0.389(2) 0.695(1)
H7 H 0.1575(7) 0.432(2) 0.742(1)
H8 H 0.0686(6) 0.166(2) 0.3811(9)
H9 H -0.0499(7) 0.079(2) 0.268(1)
H10 H -0.1506(8) 0.161(2) 0.235(1)
H11 H -0.1126(8) 0.340(2) 0.338(1)
H12 H 0.0205(6) 0.430(2) 0.4600(9)
H13 H 0.1485(6) 0.364(2) 0.3817(9)
H14 H 0.2471(7) 0.384(2) 0.405(1)
H15 H 0.3511(7) 0.544(2) 0.5281(9)
H16 H 0.3594(8) 0.669(2) 0.629(1)
H17 H 0.2639(6) 0.640(2) 0.6115(9)
H18 H 0.3285(6) 0.366(2) 0.8376(8)
H19 H 0.2776(6) 0.420(2) 0.8380(8)
H20 H 0.3112(6) 0.282(2) 0.8821(8)
H21 H 0.2585(7) 0.137(2) 0.746(1)
#END
