
#######################################################################
#
#                 Cambridge Crystallographic Data Centre
#                                CCDC
#
#######################################################################
#
# If this CIF has been generated from an entry in the Cambridge
# Structural Database, then it will include bibliographic, chemical,
# crystal, experimental, refinement or atomic coordinate data resulting
# from the CCDC's data processing and validation procedures.
#
#######################################################################

data_CSD_CIF_DAGREJ
_audit_creation_date 2004-12-02
_audit_creation_method CSD-ConQuest-V1
_database_code_CSD DAGREJ
_database_code_depnum_ccdc_archive 'CCDC 230269'
_chemical_formula_sum 'C13 H18 N2 O6'
_chemical_formula_moiety
;
C13 H18 N2 O6
;
_journal_coden_Cambridge 10
_journal_volume 87
_journal_year 2004
_journal_page_first 1724
_journal_name_full 'Helv.Chim.Acta '
loop_
_publ_author_name
"I.Kudyba"
"J.Raczko"
"J.Jurczak"
_chemical_name_systematic
;
(2'R)-2-(3-nitro-2-hydroxy-1-oxopropyl)-10,10-dimethyl-3-oxo-4-oxa-2-azatricyc
lo[5.2.1.0^1,5^]decane
;
_chemical_name_common
;
(3aS,6R,7aR)-tetrahydro-3-[(2R)-2-hydroxy-3-nitropropanoyl]-8,8-dimethyl-3a,6-
methano-1,3-benzoxazol-2(4H)-one
;
_chemical_melting_point 479.15
_cell_volume   1374.651
_exptl_crystal_density_diffrn 1.441
_diffrn_ambient_temperature 293
#These two values have been output from a single CSD field.
_refine_ls_R_factor_gt 0.0325
_refine_ls_wR_factor_gt 0.0325
_symmetry_cell_setting orthorhombic
_symmetry_space_group_name_H-M 'P 21 21 21'
_symmetry_Int_Tables_number 19
loop_
_symmetry_equiv_pos_site_id
_symmetry_equiv_pos_as_xyz
1 x,y,z
2 1/2-x,-y,1/2+z
3 -x,1/2+y,1/2-z
4 1/2+x,1/2-y,-z
_cell_length_a 7.3792(15)
_cell_length_b 7.4044(15)
_cell_length_c 25.159(5)
_cell_angle_alpha 90
_cell_angle_beta 90
_cell_angle_gamma 90
_cell_formula_units_Z 4
loop_
_atom_type_symbol
_atom_type_radius_bond
C 0.68
H 0.23
N 0.68
O 0.68
loop_
_atom_site_label
_atom_site_type_symbol
_atom_site_fract_x
_atom_site_fract_y
_atom_site_fract_z
C1 C 1.0532(6) 0.3048(5) 0.13406(17)
C2 C 0.8309(7) 0.4360(5) 0.18417(15)
C3 C 1.0513(4) 0.5059(4) 0.12088(11)
C4 C 1.0699(8) 0.2092(6) 0.08096(17)
C5 C 1.1116(6) 0.3682(5) 0.04488(17)
C6 C 1.2962(6) 0.4456(6) 0.06342(19)
C7 C 1.2492(5) 0.5566(6) 0.11375(17)
C8 C 0.9772(5) 0.5134(5) 0.06313(11)
C9 C 1.0032(8) 0.6947(6) 0.03542(17)
C10 C 0.7795(6) 0.4640(7) 0.0581(2)
C11 C 0.9199(5) 0.7561(6) 0.17668(13)
C12 C 0.7808(6) 0.8143(5) 0.21768(15)
C13 C 0.5875(6) 0.8188(6) 0.1974(2)
H1 H 1.143(5) 0.273(5) 0.1574(15)
H2 H 1.106(6) 0.352(5) 0.0093(17)
H3 H 0.763(4) 0.724(5) 0.2433(14)
H4 H 1.170(5) 0.115(5) 0.0794(14)
H5 H 1.399(5) 0.343(5) 0.0705(13)
H6 H 1.324(6) 0.516(5) 0.1433(15)
H7 H 0.907(5) 0.785(5) 0.0486(14)
H8 H 0.734(5) 0.354(6) 0.0769(17)
H9 H 0.865(8) 1.059(8) 0.209(2)
H10 H 0.564(7) 0.707(7) 0.179(2)
H11 H 0.966(5) 0.159(4) 0.0724(12)
H12 H 1.328(5) 0.531(5) 0.0367(14)
H13 H 1.267(5) 0.699(6) 0.1067(14)
H14 H 1.140(7) 0.745(5) 0.0389(16)
H15 H 0.707(6) 0.572(7) 0.0754(19)
H16 H 0.516(6) 0.855(5) 0.2254(17)
H17 H 0.957(6) 0.688(5) 0.0015(19)
H18 H 0.758(5) 0.461(5) 0.0223(18)
N1 N 0.9312(4) 0.5758(4) 0.16234(10)
N2 N 0.5638(5) 0.9520(5) 0.15378(16)
O1 O 0.8899(4) 0.2770(3) 0.16423(10)
O2 O 0.7087(5) 0.4448(4) 0.21462(12)
O3 O 1.0193(4) 0.8655(4) 0.15701(11)
O4 O 0.8312(4) 0.9803(3) 0.2399(1)
O5 O 0.6337(6) 0.9193(6) 0.11122(13)
O6 O 0.4828(5) 1.0914(6) 0.16294(16)
#END
