
#######################################################################
#
#                 Cambridge Crystallographic Data Centre
#                                CCDC
#
#######################################################################
#
# If this CIF has been generated from an entry in the Cambridge
# Structural Database, then it will include bibliographic, chemical,
# crystal, experimental, refinement or atomic coordinate data resulting
# from the CCDC's data processing and validation procedures.
#
#######################################################################

data_CSD_CIF_DANFUV
_audit_creation_date 2011-12-21
_audit_creation_method CSD-ConQuest-V1
_database_code_CSD DANFUV
_database_code_depnum_ccdc_archive 'CCDC 849815'
_chemical_formula_sum 'C14 H16 N2 O3'
_chemical_formula_moiety
;
C14 H16 N2 O3
;
_journal_coden_Cambridge 1336
_journal_volume 13
_journal_year 2011
_journal_page_first 5326
_journal_name_full 'Org.Lett. '
loop_
_publ_author_name
"J.W.Wrigglesworth"
"B.Cox"
"G.C.Lloyd-Jones"
"K.I.Booker-Milburn"
_chemical_name_systematic
;
N-Isopropyl-2-(2-methoxy-3-oxo-2,3-dihydro-1H-isoindol-1-ylidene)acetamide
;
_cell_volume   1377.084
_exptl_crystal_colour 'colorless'
_exptl_crystal_density_diffrn 1.256
_exptl_crystal_description 'needle'
_diffrn_ambient_temperature 100
#These two values have been output from a single CSD field.
_refine_ls_R_factor_gt 0.096
_refine_ls_wR_factor_gt 0.096
_symmetry_cell_setting monoclinic
_symmetry_space_group_name_H-M 'P 21/c'
_symmetry_Int_Tables_number 14
loop_
_symmetry_equiv_pos_site_id
_symmetry_equiv_pos_as_xyz
1 x,y,z
2 -x,1/2+y,1/2-z
3 -x,-y,-z
4 x,-1/2-y,-1/2+z
_cell_length_a 11.641(4)
_cell_length_b 13.621(4)
_cell_length_c 8.800(4)
_cell_angle_alpha 90
_cell_angle_beta 99.28(2)
_cell_angle_gamma 90
_cell_formula_units_Z 4
loop_
_atom_type_symbol
_atom_type_radius_bond
C 0.68
H 0.23
N 0.68
O 0.68
loop_
_atom_site_label
_atom_site_type_symbol
_atom_site_fract_x
_atom_site_fract_y
_atom_site_fract_z
C1 C 0.3750(6) 0.4409(5) 0.2487(8)
C2 C 0.3690(6) 0.4283(4) 0.4153(8)
C3 C 0.4135(7) 0.3532(5) 0.513(1)
H1 H 0.45680 0.30130 0.47770
C4 C 0.3932(7) 0.3556(5) 0.6622(10)
H2 H 0.42010 0.30340 0.73020
C5 C 0.3341(7) 0.4333(5) 0.7143(9)
H3 H 0.32370 0.43460 0.81920
C6 C 0.2896(7) 0.5090(5) 0.6182(8)
H4 H 0.24850 0.56170 0.65530
C7 C 0.3067(6) 0.5058(4) 0.4660(8)
C8 C 0.2689(6) 0.5712(4) 0.3334(8)
C9 C 0.2030(6) 0.6511(4) 0.3052(8)
H5 H 0.20140 0.67940 0.20620
C10 C 0.1329(6) 0.7016(4) 0.4046(8)
C11 C -0.0133(7) 0.8342(5) 0.4056(8)
H6 H 0.02180 0.84580 0.51550
C12 C -0.1268(7) 0.7816(6) 0.4020(11)
H7 H -0.16260 0.77010 0.29490
H8 H -0.17890 0.82170 0.45340
H9 H -0.11290 0.71850 0.45540
C13 C -0.0281(7) 0.9331(5) 0.3232(9)
H10 H 0.04640 0.96810 0.33880
H11 H -0.08630 0.97230 0.36510
H12 H -0.05390 0.92250 0.21280
C14 C 0.3663(7) 0.6266(5) 0.0145(10)
H13 H 0.36640 0.68710 0.07500
H14 H 0.34420 0.64190 -0.09510
H15 H 0.44430 0.59750 0.03240
N1 N 0.3203(5) 0.5301(4) 0.2144(6)
N2 N 0.0683(6) 0.7760(4) 0.3324(7)
H16 H 0.070(6) 0.779(5) 0.234(3)
O1 O 0.4152(4) 0.3877(3) 0.1592(6)
O2 O 0.2842(4) 0.5582(3) 0.0605(5)
O3 O 0.1284(4) 0.6792(3) 0.5388(5)
#END
