
#######################################################################
#
#                 Cambridge Crystallographic Data Centre
#                                CCDC
#
#######################################################################
#
# If this CIF has been generated from an entry in the Cambridge
# Structural Database, then it will include bibliographic, chemical,
# crystal, experimental, refinement or atomic coordinate data resulting
# from the CCDC's data processing and validation procedures.
#
#######################################################################

data_CSD_CIF_DANHUW
_audit_creation_date 2005-04-12
_audit_creation_method CSD-ConQuest-V1
_database_code_CSD DANHUW
_database_code_depnum_ccdc_archive 'CCDC 157269'
_chemical_formula_sum 'C21 H18 N2 O2'
_chemical_formula_moiety
;
C21 H18 N2 O2
;
_journal_coden_Cambridge 122
_journal_year 2004
_journal_page_first 932
_journal_name_full 'Khim.Get.Soedin.,SSSR(Russ.)(Chem.Heterocycl.Compd.) '
loop_
_publ_author_name
"W.Szczepankiewicz"
"J.Suwinski"
"Z.Karczmarzyk"
_chemical_name_systematic
;
5-Methoxy-3,4,5-triphenyl-4,5-dihydro-1,2,4-oxadiazole
;
_chemical_melting_point 398
_cell_volume   3447.427
_exptl_crystal_colour 'colorless'
_exptl_crystal_density_diffrn 1.273
_exptl_special_details
;
Melting point range 398-400K

;
_exptl_crystal_description 'prism'
_exptl_crystal_preparation 'hexane'
_diffrn_ambient_temperature 295
#These two values have been output from a single CSD field.
_refine_ls_R_factor_gt 0.0438
_refine_ls_wR_factor_gt 0.0438
_symmetry_cell_setting orthorhombic
_symmetry_space_group_name_H-M 'P b c a'
_symmetry_Int_Tables_number 61
loop_
_symmetry_equiv_pos_site_id
_symmetry_equiv_pos_as_xyz
1 x,y,z
2 1/2+x,y,1/2-z
3 x,1/2-y,1/2+z
4 1/2-x,1/2+y,z
5 -x,-y,-z
6 -1/2-x,-y,-1/2+z
7 -x,-1/2+y,-1/2-z
8 -1/2+x,-1/2-y,-z
_cell_length_a 8.1642(6)
_cell_length_b 12.3137(9)
_cell_length_c 34.292(3)
_cell_angle_alpha 90
_cell_angle_beta 90
_cell_angle_gamma 90
_cell_formula_units_Z 8
loop_
_atom_type_symbol
_atom_type_radius_bond
C 0.68
H 0.23
N 0.68
O 0.68
loop_
_atom_site_label
_atom_site_type_symbol
_atom_site_fract_x
_atom_site_fract_y
_atom_site_fract_z
O1 O 0.30750(14) 0.25807(9) 0.12648(3)
O2 O 0.17545(12) 0.42572(11) 0.12964(3)
N1 N 0.46250(14) 0.40507(10) 0.11860(3)
N2 N 0.4170(2) 0.23996(11) 0.09440(4)
C1 C 0.5052(2) 0.32641(11) 0.09240(4)
C2 C 0.3168(2) 0.36774(13) 0.13955(4)
C3 C 0.1406(2) 0.4322(2) 0.08889(5)
H1 H 0.0421(2) 0.4732(2) 0.08497(5)
H2 H 0.1266(2) 0.3603(2) 0.07857(5)
H3 H 0.2299(2) 0.4673(2) 0.07575(5)
C4 C 0.6297(2) 0.34010(12) 0.06162(4)
C5 C 0.6443(2) 0.43754(14) 0.04193(4)
H4 H 0.5792(2) 0.49631(14) 0.04899(4)
C6 C 0.7554(3) 0.4478(2) 0.01183(5)
H5 H 0.7652(3) 0.5136(2) -0.00129(5)
C7 C 0.8514(2) 0.3612(2) 0.00119(5)
H6 H 0.9247(2) 0.3679(2) -0.01944(5)
C8 C 0.8392(2) 0.2646(2) 0.02101(6)
H7 H 0.9059(2) 0.2065(2) 0.01404(6)
C9 C 0.7285(2) 0.25312(13) 0.05130(5)
H8 H 0.7204(2) 0.18756(13) 0.06462(5)
C10 C 0.5578(2) 0.49579(11) 0.13047(3)
C11 C 0.7239(2) 0.48414(12) 0.13797(4)
H9 H 0.7745(2) 0.41714(12) 0.13461(4)
C12 C 0.8136(2) 0.57287(13) 0.15051(4)
H10 H 0.9254(2) 0.56582(13) 0.15509(4)
C13 C 0.7381(2) 0.67143(13) 0.15620(4)
H11 H 0.7981(2) 0.73036(13) 0.16532(4)
C14 C 0.5737(2) 0.68289(13) 0.14841(5)
H12 H 0.5230(2) 0.74968(13) 0.15221(5)
C15 C 0.4839(2) 0.59570(12) 0.13499(5)
H13 H 0.3736(2) 0.60428(12) 0.12900(5)
C16 C 0.3309(2) 0.37109(13) 0.18352(4)
C17 C 0.2859(2) 0.4624(2) 0.20427(5)
H14 H 0.2415(2) 0.5219(2) 0.19133(5)
C18 C 0.3069(3) 0.4655(2) 0.24448(6)
H15 H 0.2769(3) 0.5274(2) 0.25828(6)
C19 C 0.3712(3) 0.3786(2) 0.26392(5)
H16 H 0.3855(3) 0.3815(2) 0.29081(5)
C20 C 0.4145(3) 0.2873(2) 0.24366(6)
H17 H 0.4575(3) 0.2277(2) 0.25682(6)
C21 C 0.3944(2) 0.2834(2) 0.20356(5)
H18 H 0.4240(2) 0.2211(2) 0.18999(5)
#END
