
#######################################################################
#
#                 Cambridge Crystallographic Data Centre
#                                CCDC
#
#######################################################################
#
# If this CIF has been generated from an entry in the Cambridge
# Structural Database, then it will include bibliographic, chemical,
# crystal, experimental, refinement or atomic coordinate data resulting
# from the CCDC's data processing and validation procedures.
#
#######################################################################

data_CSD_CIF_DAPJOU
_audit_creation_date 2005-10-20
_audit_creation_method CSD-ConQuest-V1
_database_code_CSD DAPJOU
_database_code_depnum_ccdc_archive 'CCDC 265216'
_chemical_formula_sum 'C10 H9 N3 O7'
_chemical_formula_moiety
;
C10 H9 N3 O7
;
_journal_coden_Cambridge 177
_journal_volume 3
_journal_year 2005
_journal_page_first 1776
_journal_name_full 'Org.Biomol.Chem. '
loop_
_publ_author_name
"N.L.Fifer"
"J.M.White"
_chemical_name_systematic
;
cyclopropylmethyl 2,4,6-trinitrophenoxide
;
_chemical_melting_point 416.15
_cell_volume   1179.594
_exptl_crystal_colour 'yellow'
_exptl_crystal_density_diffrn 1.595
_exptl_special_details
;
Melting point range 416.15-418.15K

;
_exptl_crystal_description 'slab'
_exptl_crystal_preparation 'methanol'
_diffrn_ambient_temperature ?
_diffrn_special_details
;
The study was carried out at room temperature,in the range 283-303K

;
#These two values have been output from a single CSD field.
_refine_ls_R_factor_gt 0.0381
_refine_ls_wR_factor_gt 0.0381
_symmetry_cell_setting orthorhombic
_symmetry_space_group_name_H-M 'P 21 21 21'
_symmetry_Int_Tables_number 19
loop_
_symmetry_equiv_pos_site_id
_symmetry_equiv_pos_as_xyz
1 x,y,z
2 1/2-x,-y,1/2+z
3 -x,1/2+y,1/2-z
4 1/2+x,1/2-y,-z
_cell_length_a 6.1596(6)
_cell_length_b 7.9020(8)
_cell_length_c 24.235(2)
_cell_angle_alpha 90
_cell_angle_beta 90
_cell_angle_gamma 90
_cell_formula_units_Z 4
loop_
_atom_type_symbol
_atom_type_radius_bond
C 0.68
H 0.23
N 0.68
O 0.68
loop_
_atom_site_label
_atom_site_type_symbol
_atom_site_fract_x
_atom_site_fract_y
_atom_site_fract_z
C1 C 1.1217(3) 0.8553(2) 0.17385(7)
H1 H 1.05060 0.90520 0.20560
H2 H 1.04670 0.75140 0.16430
C2 C 1.3520(3) 0.8197(2) 0.18655(8)
H3 H 1.43870 0.91590 0.19940
C3 C 1.4050(4) 0.6523(3) 0.21140(8)
H4 H 1.51930 0.64810 0.23890
H5 H 1.28690 0.57310 0.21720
C4 C 1.4674(3) 0.6921(3) 0.15356(9)
H6 H 1.61990 0.71150 0.14590
H7 H 1.38770 0.63650 0.12420
C5 C 0.9195(3) 1.0372(2) 0.11399(6)
C6 C 0.8277(3) 1.1824(2) 0.13834(6)
C7 C 0.6295(2) 1.2469(2) 0.12131(6)
H8 H 0.56960 1.34140 0.13840
C8 C 0.5237(3) 1.1677(2) 0.07848(6)
C9 C 0.6106(3) 1.0316(2) 0.05035(6)
H9 H 0.54090 0.98420 0.02000
C10 C 0.8051(3) 0.9696(2) 0.06937(6)
N1 N 0.9015(2) 0.82553(19) 0.03931(6)
N2 N 0.3111(2) 1.23291(19) 0.06038(6)
N3 N 0.9457(2) 1.28188(19) 0.18049(5)
O1 O 1.11701(17) 0.97438(15) 0.12676(4)
O2 O 0.9402(2) 0.69691(17) 0.06486(5)
O3 O 0.9322(2) 0.84530(19) -0.01019(5)
O4 O 0.2241(2) 1.16151(17) 0.02117(5)
O5 O 0.2326(2) 1.35193(17) 0.08565(5)
O6 O 0.8913(2) 1.42856(16) 0.18663(5)
O7 O 1.0908(2) 1.21371(18) 0.20654(5)
#END
