
#######################################################################
#
#                 Cambridge Crystallographic Data Centre
#                                CCDC
#
#######################################################################
#
# If this CIF has been generated from an entry in the Cambridge
# Structural Database, then it will include bibliographic, chemical,
# crystal, experimental, refinement or atomic coordinate data resulting
# from the CCDC's data processing and validation procedures.
#
#######################################################################

data_CSD_CIF_DASTUO
_audit_creation_date 2012-08-21
_audit_creation_method CSD-ConQuest-V1
_database_code_CSD DASTUO
_database_code_depnum_ccdc_archive 'CCDC 804823'
_chemical_formula_sum 'C10 H14 N2 O3'
_chemical_formula_moiety
;
C10 H14 N2 O3
;
_journal_coden_Cambridge 1147
_journal_volume 12
_journal_year 2012
_journal_page_first 589
_journal_name_full 'Cryst.Growth Des. '
loop_
_publ_author_name
"J.Kolodziejczak"
"A.Adamczyk-Wozniak"
"B.Hachula"
"M.Barys"
"H.T.Flakus"
"A.Sporzynski"
"A.Koll"
_chemical_name_systematic
;
4-Nitro-2-((propylammonio)methyl)phenolate
;
_chemical_name_common
;
4-nitro-2-[(aminopropyl)methyl]-phenol
;
_cell_volume    506.920
_exptl_crystal_colour 'yellow'
_exptl_crystal_density_diffrn 1.377
_exptl_crystal_description 'plates'
_diffrn_ambient_temperature 100
#These two values have been output from a single CSD field.
_refine_ls_R_factor_gt 0.0338
_refine_ls_wR_factor_gt 0.0338
_symmetry_cell_setting triclinic
_symmetry_space_group_name_H-M 'P -1'
_symmetry_Int_Tables_number 2
loop_
_symmetry_equiv_pos_site_id
_symmetry_equiv_pos_as_xyz
1 x,y,z
2 -x,-y,-z
_cell_length_a 5.3910(3)
_cell_length_b 9.6335(5)
_cell_length_c 10.2582(6)
_cell_angle_alpha 73.516(5)
_cell_angle_beta 87.835(4)
_cell_angle_gamma 82.886(4)
_cell_formula_units_Z 2
loop_
_atom_type_symbol
_atom_type_radius_bond
C 0.68
H 0.23
N 0.68
O 0.68
loop_
_atom_site_label
_atom_site_type_symbol
_atom_site_fract_x
_atom_site_fract_y
_atom_site_fract_z
O1 O 0.24624(16) 0.36001(9) 0.53076(9)
O2 O -0.41962(18) -0.14646(10) 0.69686(11)
C1 C 0.1742(2) 0.16084(14) 0.72145(13)
H1 H 0.30450 0.18040 0.77110
N1 N -0.3408(2) 0.42123(11) 0.36549(11)
C2 C -0.0702(2) 0.21440(13) 0.51508(13)
C3 C -0.1471(2) 0.01605(14) 0.70876(14)
O3 O -0.2590(2) -0.16683(13) 0.89201(11)
C4 C -0.2000(2) 0.09821(13) 0.57583(14)
H2 H -0.32620 0.07420 0.52660
N2 N -0.2833(2) -0.10549(12) 0.76970(13)
C5 C -0.1307(2) 0.30240(13) 0.37168(13)
H3 H 0.01960 0.34590 0.32860
H4 H -0.17700 0.23730 0.31960
C6 C 0.1239(2) 0.25069(13) 0.58668(13)
C7 C -0.6646(2) 0.59926(14) 0.21887(13)
H5 H -0.62320 0.68280 0.24860
H6 H -0.79250 0.55130 0.28170
C8 C -0.4325(2) 0.49207(14) 0.22373(13)
H7 H -0.46980 0.41590 0.18220
H8 H -0.29890 0.54370 0.16920
C9 C 0.0411(2) 0.04713(14) 0.78199(14)
H9 H 0.07660 -0.00990 0.87280
C10 C -0.7683(3) 0.65347(16) 0.07527(14)
H10 H -0.91840 0.72270 0.07320
H11 H -0.81110 0.57070 0.04650
H12 H -0.64220 0.70190 0.01340
H13 H -0.471(3) 0.3832(17) 0.4149(16)
H14 H -0.291(3) 0.4929(17) 0.4008(15)
#END
