
#######################################################################
#
#                 Cambridge Crystallographic Data Centre
#                                CCDC
#
#######################################################################
#
# If this CIF has been generated from an entry in the Cambridge
# Structural Database, then it will include bibliographic, chemical,
# crystal, experimental, refinement or atomic coordinate data resulting
# from the CCDC's data processing and validation procedures.
#
#######################################################################

data_CSD_CIF_DAWPEW
_audit_creation_date 1986-05-18
_audit_creation_method CSD-ConQuest-V1
_database_code_CSD DAWPEW
_chemical_formula_sum 'C15 H24 N2 O6'
_chemical_formula_moiety
;
C15 H24 N2 O6
;
_journal_coden_Cambridge 154
_journal_volume 38
_journal_year 1985
_journal_page_first 161
_journal_name_full 'Aust.J.Chem. '
loop_
_publ_author_name
"M.P.Hartshorn"
"W.T.Robinson"
"K.H.Sutton"
"J.Vaughan"
_chemical_name_systematic
;
2,4-Di-t-butyl-r-2-hydroxy-6-methyl-t-5,t-6-dinitrocyclohex-3-enone
;
_chemical_melting_point 407.65
_cell_volume   1703.991
_exptl_crystal_colour 'colorless'
_exptl_crystal_density_diffrn 1.28
_exptl_special_details
;
Melts with decomposition.

;
_diffrn_ambient_temperature ?
_diffrn_special_details
;
The study was carried out at room temperature,in the range 283-303K

;
#These two values have been output from a single CSD field.
_refine_ls_R_factor_gt 0.048
_refine_ls_wR_factor_gt 0.048
loop_
_citation_database_id_CSD
_citation_special_details
DAWPAS "is a stereoisomer of this entry"
_symmetry_cell_setting monoclinic
_symmetry_space_group_name_H-M 'P 21/n'
_symmetry_Int_Tables_number 14
loop_
_symmetry_equiv_pos_site_id
_symmetry_equiv_pos_as_xyz
1 x,y,z
2 1/2-x,1/2+y,1/2-z
3 -x,-y,-z
4 -1/2+x,-1/2-y,-1/2+z
_cell_length_a 13.585(5)
_cell_length_b 7.534(2)
_cell_length_c 16.664(4)
_cell_angle_alpha 90
_cell_angle_beta 92.45(3)
_cell_angle_gamma 90
_cell_formula_units_Z 4
loop_
_atom_type_symbol
_atom_type_radius_bond
C 0.68
H 0.23
N 0.68
O 0.68
loop_
_atom_site_label
_atom_site_type_symbol
_atom_site_fract_x
_atom_site_fract_y
_atom_site_fract_z
C1 C 0.0000(3) 0.7755(5) 0.4032(3)
C2 C -0.0961(3) 0.7728(5) 0.3508(2)
C3 C -0.0744(3) 0.7563(5) 0.2632(2)
C4 C 0.0109(3) 0.7394(5) 0.2294(2)
C5 C 0.1043(3) 0.7346(5) 0.2825(2)
C6 C 0.0915(3) 0.8407(5) 0.3593(2)
C7 C -0.1760(3) 0.6359(6) 0.3757(2)
C8 C 0.0218(3) 0.7388(7) 0.1379(2)
C9 C 0.0843(3) 1.0399(6) 0.3400(3)
C10 C -0.2682(3) 0.6624(7) 0.3201(3)
C11 C -0.1393(4) 0.4449(6) 0.3675(3)
C12 C -0.2071(4) 0.6631(7) 0.4626(3)
C13 C -0.0762(4) 0.7202(8) 0.0921(3)
C14 C 0.0620(5) 0.9265(9) 0.1153(3)
C15 C 0.0946(5) 0.6087(11) 0.1096(3)
N1 N 0.1300(3) 0.5420(5) 0.3019(2)
N2 N 0.1826(3) 0.8201(6) 0.4169(2)
O1 O 0.0038(2) 0.7491(5) 0.4740(2)
O2 O -0.1330(2) 0.9525(4) 0.3585(2)
O3 O 0.1964(3) 0.4708(5) 0.2653(2)
O4 O 0.0823(2) 0.4706(4) 0.3527(2)
O5 O 0.2463(2) 0.7175(5) 0.3991(2)
O6 O 0.1862(2) 0.9119(5) 0.4768(2)
H1 H -0.1504(31) 0.9809(56) 0.4116(25)
H2 H -0.1305(21) 0.7529(52) 0.2294(19)
H3 H 0.1586(24) 0.7797(45) 0.2538(19)
H4 H 0.03130 1.07120 0.30270
H5 H 0.14590 1.07490 0.31860
H6 H 0.07580 1.09950 0.39010
H7 H -0.25760 0.62290 0.26640
H8 H -0.29020 0.78340 0.31890
H9 H -0.31720 0.58920 0.34340
H10 H -0.11740 0.43120 0.31380
H11 H -0.19090 0.36130 0.37660
H12 H -0.08510 0.42390 0.40520
H13 H -0.15030 0.64460 0.49790
H14 H -0.25810 0.58130 0.47590
H15 H -0.23040 0.78250 0.46840
H16 H -0.09790 0.60640 0.11030
H17 H -0.06120 0.71270 0.03640
H18 H -0.12740 0.80620 0.09860
H19 H 0.12580 0.94180 0.14140
H20 H 0.01860 1.01830 0.13240
H21 H 0.06770 0.93310 0.05820
H22 H 0.15910 0.59440 0.13460
H23 H 0.09890 0.60280 0.05230
H24 H 0.05220 0.51590 0.12730
#END
