
#######################################################################
#
#                 Cambridge Crystallographic Data Centre
#                                CCDC
#
#######################################################################
#
# If this CIF has been generated from an entry in the Cambridge
# Structural Database, then it will include bibliographic, chemical,
# crystal, experimental, refinement or atomic coordinate data resulting
# from the CCDC's data processing and validation procedures.
#
#######################################################################

data_CSD_CIF_DEKBUQ
_audit_creation_date 2000-02-23
_audit_creation_method CSD-ConQuest-V1
_database_code_CSD DEKBUQ
_database_code_depnum_ccdc_archive 'CCDC 1138445'
_database_code_depnum_ccdc_journal 188/155
_chemical_formula_sum 'C14 H19 N1 O3'
_chemical_formula_moiety
;
C14 H19 N1 O3
;
_journal_coden_Cambridge 188
_journal_year 1999
_journal_page_first 877
_journal_name_full 'J.Chem.Soc.,Perkin Trans.2 '
loop_
_publ_author_name
"S.M.A.Hashmi"
"M.I.M.Wazeer"
"M.S.Hussain"
"J.H.Reibenspies"
"H.P.Perzanowski"
"S.A.Ali"
_chemical_name_systematic
;
3-Acetoxy-4,4-dimethyl-6-phenyl-1,3-oxazinane
;
_chemical_melting_point 328.15
_cell_volume   1376.898
_exptl_crystal_colour 'colorless'
_exptl_crystal_density_diffrn 1.203
_exptl_special_details
;
Melting point range 328.15-329.15K

;
_exptl_crystal_description 'needles'
_exptl_crystal_preparation 'diethyl ether/hexane'
_diffrn_ambient_temperature ?
_diffrn_special_details
;
The study was carried out at room temperature,in the range 283-303K

;
#These two values have been output from a single CSD field.
_refine_ls_R_factor_gt 0.0595
_refine_ls_wR_factor_gt 0.0595
_symmetry_cell_setting monoclinic
_symmetry_space_group_name_H-M 'P 21/c'
_symmetry_Int_Tables_number 14
loop_
_symmetry_equiv_pos_site_id
_symmetry_equiv_pos_as_xyz
1 x,y,z
2 -x,1/2+y,1/2-z
3 -x,-y,-z
4 x,-1/2-y,-1/2+z
_cell_length_a 15.071(6)
_cell_length_b 6.133(3)
_cell_length_c 14.918(6)
_cell_angle_alpha 90
_cell_angle_beta 93.07(3)
_cell_angle_gamma 90
_cell_formula_units_Z 4
loop_
_atom_type_symbol
_atom_type_radius_bond
C 0.68
H 0.23
N 0.68
O 0.68
loop_
_atom_site_label
_atom_site_type_symbol
_atom_site_fract_x
_atom_site_fract_y
_atom_site_fract_z
O1 O 0.1584(3) -0.0629(5) 0.0456(2)
O2 O 0.3188(3) -0.0204(4) 0.1433(1)
O3 O 0.3730(4) -0.1698(6) 0.2705(2)
N1 N 0.2891(5) -0.2388(6) 0.1148(2)
C1 C 0.3248(6) -0.2736(7) 0.0248(2)
C2 C 0.2836(5) -0.1156(6) -0.0440(2)
C3 C 0.1839(5) -0.1042(7) -0.0438(2)
C4 C 0.1941(6) -0.2227(10) 0.1076(3)
C5 C 0.3058(6) -0.5106(6) -0.0024(2)
C6 C 0.4235(7) -0.2459(9) 0.0347(3)
C7 C 0.3620(5) -0.0160(8) 0.2233(2)
C8 C 0.3983(6) 0.2069(8) 0.2434(3)
C9 C 0.1428(5) 0.0668(6) -0.1044(2)
C10 C 0.1675(5) 0.0829(7) -0.1925(2)
C11 C 0.1306(6) 0.2428(9) -0.2504(3)
C12 C 0.0698(7) 0.3863(9) -0.2192(4)
C13 C 0.0436(6) 0.3715(8) -0.1336(3)
C14 C 0.0802(6) 0.2120(8) -0.0751(3)
H1 H 0.30780 0.02880 -0.03220
H2 H 0.30030 -0.15920 -0.10330
H3 H 0.15980 -0.24620 -0.06280
H4 H 0.17340 -0.18980 0.16650
H5 H 0.17010 -0.36410 0.08990
H6 H 0.33290 -0.60660 0.04190
H7 H 0.32980 -0.53890 -0.05960
H8 H 0.24280 -0.53470 -0.00660
H9 H 0.43720 -0.09810 0.05160
H10 H 0.44900 -0.27850 -0.02130
H11 H 0.44740 -0.34320 0.08020
H12 H 0.42980 0.20630 0.30100
H13 H 0.35020 0.30960 0.24390
H14 H 0.43800 0.24790 0.19810
H15 H 0.20910 -0.01400 -0.21350
H16 H 0.14730 0.25150 -0.30940
H17 H 0.04630 0.49480 -0.25690
H18 H 0.00120 0.46750 -0.11360
H19 H 0.06240 0.20390 -0.01650
#END
