
#######################################################################
#
#                 Cambridge Crystallographic Data Centre
#                                CCDC
#
#######################################################################
#
# If this CIF has been generated from an entry in the Cambridge
# Structural Database, then it will include bibliographic, chemical,
# crystal, experimental, refinement or atomic coordinate data resulting
# from the CCDC's data processing and validation procedures.
#
#######################################################################

data_CSD_CIF_DEKLAJ
_audit_creation_date 2017-09-28
_audit_creation_method CSD-ConQuest-V1
_database_code_CSD DEKLAJ
_database_code_depnum_ccdc_archive 'CCDC 1478943'
_chemical_formula_sum 'C29 H22 N4 O11'
_chemical_formula_moiety
;
C29 H22 N4 O11
;
_journal_coden_Cambridge 4
_journal_volume 139
_journal_year 2017
_journal_page_first 12422
_journal_name_full 'J.Am.Chem.Soc. '
loop_
_publ_author_name
"S.N.Good"
"R.J.Sharpe"
"J.S.Johnson"
_chemical_name_systematic
;
benzyl 
7-(((4-nitrobenzoyl)oxy)imino)-8-(((4-nitrobenzoyl)oxy)methyl)-2-oxa-3-azabicy
clo[2.2.2]oct-5-ene-3-carboxylate
;
_cell_volume   2652.998
_exptl_crystal_colour 'colorless'
_exptl_crystal_density_diffrn 1.508
_exptl_crystal_description 'needle'
_diffrn_ambient_temperature 100
#These two values have been output from a single CSD field.
_refine_ls_R_factor_gt 0.0439
_refine_ls_wR_factor_gt 0.0439
_symmetry_cell_setting monoclinic
_symmetry_space_group_name_H-M 'P 21/c'
_symmetry_Int_Tables_number 14
loop_
_symmetry_equiv_pos_site_id
_symmetry_equiv_pos_as_xyz
1 x,y,z
2 -x,1/2+y,1/2-z
3 -x,-y,-z
4 x,-1/2-y,-1/2+z
_cell_length_a 16.461(3)
_cell_length_b 12.567(2)
_cell_length_c 12.991(2)
_cell_angle_alpha 90
_cell_angle_beta 99.176(11)
_cell_angle_gamma 90
_cell_formula_units_Z 4
loop_
_atom_type_symbol
_atom_type_radius_bond
C 0.68
H 0.23
N 0.68
O 0.68
loop_
_atom_site_label
_atom_site_type_symbol
_atom_site_fract_x
_atom_site_fract_y
_atom_site_fract_z
C1 C 0.06717(15) 0.57935(19) 0.07588(18)
H1 H 0.09890 0.51590 0.07950
C2 C 0.05955(17) 0.6424(2) -0.01279(19)
H2 H 0.08660 0.62300 -0.06940
C3 C 0.01242(17) 0.7336(2) -0.0181(2)
H3 H 0.00540 0.77570 -0.07960
C4 C -0.02439(17) 0.7639(2) 0.0647(2)
H4 H -0.05600 0.82750 0.06110
C5 C -0.01533(15) 0.7020(2) 0.1530(2)
H5 H -0.03990 0.72390 0.21090
C6 C 0.02916(14) 0.60806(18) 0.15866(18)
C7 C 0.02937(15) 0.53891(19) 0.25318(19)
H6 H 0.03460 0.58470 0.31590
H7 H -0.02400 0.50110 0.24700
O1 O 0.09545(9) 0.46121(12) 0.26703(12)
C8 C 0.16957(14) 0.49738(18) 0.31388(16)
O2 O 0.18606(10) 0.58723(13) 0.34013(12)
N1 N 0.22206(11) 0.40925(14) 0.33521(13)
O3 O 0.30546(9) 0.44466(12) 0.36568(11)
C9 C 0.35882(13) 0.40609(16) 0.29254(16)
H8 H 0.41450 0.43990 0.30630
C10 C 0.31829(13) 0.42282(16) 0.18213(16)
H9 H 0.34260 0.46240 0.13270
C11 C 0.24502(13) 0.37692(16) 0.16023(16)
H10 H 0.21310 0.37670 0.09250
C12 C 0.21758(13) 0.32543(16) 0.25309(15)
H11 H 0.16050 0.29650 0.23510
C13 C 0.27850(12) 0.23817(16) 0.29774(15)
H12 H 0.27540 0.17860 0.24630
C14 C 0.36368(13) 0.28730(16) 0.30998(15)
N2 N 0.42659(11) 0.22703(14) 0.32943(13)
O4 O 0.49970(9) 0.29260(11) 0.33997(11)
C15 C 0.57064(13) 0.23535(17) 0.34395(15)
O5 O 0.57404(9) 0.14085(12) 0.33515(12)
C16 C 0.64242(13) 0.31018(16) 0.36042(15)
C17 C 0.72145(13) 0.26914(18) 0.36022(16)
H13 H 0.72860 0.19520 0.34910
C18 C 0.78899(13) 0.33556(18) 0.37612(16)
H14 H 0.84300 0.30840 0.37720
C19 C 0.77582(13) 0.44300(18) 0.39045(15)
C20 C 0.69900(14) 0.48549(17) 0.39152(16)
H15 H 0.69230 0.55950 0.40230
C21 C 0.63163(13) 0.41807(17) 0.37659(16)
H16 H 0.57800 0.44570 0.37740
N3 N 0.84700(12) 0.51573(17) 0.40528(14)
O6 O 0.91585(10) 0.47792(15) 0.42870(16)
O7 O 0.83402(11) 0.61135(14) 0.39329(14)
C22 C 0.25821(13) 0.19474(16) 0.40048(16)
H17 H 0.27240 0.24810 0.45650
H18 H 0.19860 0.17920 0.39350
O8 O 0.30511(9) 0.09855(11) 0.42620(11)
C23 C 0.27045(13) 0.00726(16) 0.38541(16)
O9 O 0.19928(9) -0.00142(12) 0.34594(12)
C24 C 0.33292(13) -0.07966(16) 0.39502(14)
C25 C 0.41653(13) -0.05553(16) 0.40350(15)
H19 H 0.43420 0.01650 0.40490
C26 C 0.47353(13) -0.13705(16) 0.40988(15)
H20 H 0.53070 -0.12220 0.41620
C27 C 0.44525(13) -0.24066(16) 0.40691(15)
C28 C 0.36289(13) -0.26726(17) 0.39707(15)
H21 H 0.34580 -0.33950 0.39470
C29 C 0.30596(13) -0.18493(16) 0.39080(15)
H22 H 0.24880 -0.20040 0.38370
N4 N 0.50686(12) -0.32704(15) 0.41459(13)
O10 O 0.57968(10) -0.30256(13) 0.41688(13)
O11 O 0.4821(1) -0.41879(13) 0.41851(13)
#END
