
#######################################################################
#
#                 Cambridge Crystallographic Data Centre
#                                CCDC
#
#######################################################################
#
# If this CIF has been generated from an entry in the Cambridge
# Structural Database, then it will include bibliographic, chemical,
# crystal, experimental, refinement or atomic coordinate data resulting
# from the CCDC's data processing and validation procedures.
#
#######################################################################

data_CSD_CIF_DIDNOU
_audit_creation_date 2007-07-03
_audit_creation_method CSD-ConQuest-V1
_database_code_CSD DIDNOU
_database_code_depnum_ccdc_archive 'CCDC 645689'
_chemical_formula_sum 'C18 H12 N2 O4'
_chemical_formula_moiety
;
C18 H12 N2 O4
;
_journal_coden_Cambridge 35
_journal_volume 72
_journal_year 2007
_journal_page_first 2279
_journal_name_full 'J.Org.Chem. '
loop_
_publ_author_name
"B.T.King"
"J.Kroulik"
"C.R.Robertson"
"P.Rempala"
"C.L.Hilton"
"J.D.Korinek"
"L.M.Gortari"
_chemical_name_systematic
;
2,2''-Dinitro-o-terphenyl
;
_cell_volume   1505.393
_exptl_crystal_colour 'yellow'
_exptl_crystal_density_diffrn 1.413
_exptl_crystal_description 'block'
_exptl_crystal_preparation 'ethyl acetate'
_diffrn_ambient_temperature 100
#These two values have been output from a single CSD field.
_refine_ls_R_factor_gt 0.0457
_refine_ls_wR_factor_gt 0.0457
_symmetry_cell_setting monoclinic
_symmetry_space_group_name_H-M 'C 2/c'
_symmetry_Int_Tables_number 15
loop_
_symmetry_equiv_pos_site_id
_symmetry_equiv_pos_as_xyz
1 x,y,z
2 1/2+x,1/2+y,z
3 -x,y,1/2-z
4 1/2-x,1/2+y,1/2-z
5 -x,-y,-z
6 -1/2-x,-1/2-y,-z
7 x,-y,-1/2+z
8 -1/2+x,-1/2-y,-1/2+z
_cell_length_a 13.1711(13)
_cell_length_b 9.779(1)
_cell_length_c 11.8797(12)
_cell_angle_alpha 90
_cell_angle_beta 100.312(2)
_cell_angle_gamma 90
_cell_formula_units_Z 4
loop_
_atom_type_symbol
_atom_type_radius_bond
C 0.68
H 0.23
N 0.68
O 0.68
loop_
_atom_site_label
_atom_site_type_symbol
_atom_site_fract_x
_atom_site_fract_y
_atom_site_fract_z
C1 C 0.09090(7) 0.34712(9) 0.34134(7)
C2 C 0.13466(7) 0.24778(9) 0.27946(7)
C3 C 0.16917(8) 0.12194(10) 0.32471(9)
H1 H 0.19750 0.05720 0.27940
C4 C 0.16176(8) 0.09189(11) 0.43708(9)
H2 H 0.18470 0.00600 0.46930
C5 C 0.12057(8) 0.18827(11) 0.50205(9)
H3 H 0.11590 0.16830 0.57920
C6 C 0.08606(7) 0.31422(10) 0.45493(8)
H4 H 0.05870 0.37910 0.50100
C7 C 0.04440(7) 0.47839(9) 0.29303(7)
C8 C 0.08648(8) 0.60263(10) 0.33644(8)
H5 H 0.14540 0.60300 0.39580
C9 C 0.04295(8) 0.72613(10) 0.29361(9)
H6 H 0.07190 0.81020 0.32400
N1 N 0.14933(6) 0.27434(8) 0.16144(7)
O1 O 0.14807(7) 0.17611(8) 0.09667(7)
O2 O 0.16362(6) 0.39299(7) 0.13386(6)
C1B C -0.09090(7) 0.34712(9) 0.15866(7)
C2B C -0.13466(7) 0.24778(9) 0.22054(7)
C3B C -0.16917(8) 0.12194(10) 0.17529(9)
H1B H -0.19750 0.05720 0.22060
C4B C -0.16176(8) 0.09189(11) 0.06292(9)
H2B H -0.18470 0.00600 0.03070
C5B C -0.12057(8) 0.18827(11) -0.00205(9)
H3B H -0.11590 0.16830 -0.07920
C6B C -0.08606(7) 0.31422(10) 0.04507(8)
H4B H -0.05870 0.37910 -0.00100
C7B C -0.04440(7) 0.47839(9) 0.20697(7)
C8B C -0.08648(8) 0.60263(10) 0.16356(8)
H5B H -0.14540 0.60300 0.10420
C9B C -0.04295(8) 0.72613(10) 0.20639(9)
H6B H -0.07190 0.81020 0.17600
N1B N -0.14933(6) 0.27434(8) 0.33856(7)
O1B O -0.14807(7) 0.17611(8) 0.40333(7)
O2B O -0.16362(6) 0.39299(7) 0.36614(6)
#END
