
#######################################################################
#
#                 Cambridge Crystallographic Data Centre
#                                CCDC
#
#######################################################################
#
# If this CIF has been generated from an entry in the Cambridge
# Structural Database, then it will include bibliographic, chemical,
# crystal, experimental, refinement or atomic coordinate data resulting
# from the CCDC's data processing and validation procedures.
#
#######################################################################

data_CSD_CIF_DIFQEQ
_audit_creation_date 2013-06-17
_audit_creation_method CSD-ConQuest-V1
_database_code_CSD DIFQEQ
_database_code_depnum_ccdc_archive 'CCDC 806879'
_chemical_formula_sum 'C13 H8 N4 O4'
_chemical_formula_moiety
;
C13 H8 N4 O4
;
_journal_coden_Cambridge 440
_journal_volume 37
_journal_year 2013
_journal_page_first 2384
_journal_name_full 'New J.Chem. '
loop_
_publ_author_name
"I.Alkorta"
"F.P.Cossio"
"J.Elguero"
"N.Fresno"
"L.Hernandez-Folgado"
"S.Garcia-Granda"
"L.Menendez-Taboada"
"R.Perez-Fernandez"
"F.Reviriego"
"L.Vazquez-Vinuela"
_chemical_name_systematic
;
1-(2,4-Dinitrophenyl)-1H-indazole
;
_cell_volume   1203.174
_exptl_crystal_density_diffrn 1.569
_diffrn_ambient_temperature 120.2
#These two values have been output from a single CSD field.
_refine_ls_R_factor_gt 0.0335
_refine_ls_wR_factor_gt 0.0335
_symmetry_cell_setting orthorhombic
_symmetry_space_group_name_H-M 'P 21 21 21'
_symmetry_Int_Tables_number 19
loop_
_symmetry_equiv_pos_site_id
_symmetry_equiv_pos_as_xyz
1 x,y,z
2 1/2-x,-y,1/2+z
3 1/2+x,1/2-y,-z
4 -x,1/2+y,1/2-z
_cell_length_a 7.0459(2)
_cell_length_b 11.048(3)
_cell_length_c 15.4564(4)
_cell_angle_alpha 90
_cell_angle_beta 90
_cell_angle_gamma 90
_cell_formula_units_Z 4
loop_
_atom_type_symbol
_atom_type_radius_bond
C 0.68
H 0.23
N 0.68
O 0.68
loop_
_atom_site_label
_atom_site_type_symbol
_atom_site_fract_x
_atom_site_fract_y
_atom_site_fract_z
C1 C 1.0666(3) 0.61895(19) 0.68586(12)
H1 H 1.10780 0.61190 0.74420
C2 C 1.0336(3) 0.73177(17) 0.64367(11)
C3 C 1.0498(3) 0.85380(18) 0.66728(12)
H2 H 1.08780 0.87640 0.72400
C4 C 1.0088(3) 0.93993(18) 0.60551(13)
H3 H 1.02030 1.02320 0.61980
C5 C 0.9502(3) 0.90694(17) 0.52167(13)
H4 H 0.92230 0.96860 0.48080
C6 C 0.9322(3) 0.78700(16) 0.49735(12)
H5 H 0.89160 0.76480 0.44090
C7 C 0.9765(3) 0.70005(16) 0.55996(11)
N1 N 1.0338(3) 0.52606(15) 0.63539(10)
N2 N 0.9771(3) 0.57463(13) 0.55720(9)
C8 C 0.9493(3) 0.49698(15) 0.48718(11)
C9 C 0.8745(3) 0.38014(17) 0.49785(11)
N3 N 0.8042(3) 0.33725(14) 0.58211(10)
O1 O 0.6862(2) 0.39885(13) 0.61970(9)
O2 O 0.8628(3) 0.23907(13) 0.60778(10)
C10 C 0.8556(3) 0.30021(17) 0.42993(13)
H6 H 0.80770 0.22070 0.43860
C11 C 0.9090(3) 0.34013(17) 0.34849(12)
N4 N 0.8902(3) 0.25640(15) 0.27550(11)
O3 O 0.8172(2) 0.15755(13) 0.28867(10)
O4 O 0.9487(3) 0.28999(14) 0.20487(10)
C12 C 0.9829(3) 0.45436(16) 0.33435(12)
H7 H 1.01790 0.47930 0.27770
C13 C 1.0052(3) 0.53177(16) 0.40404(11)
H8 H 1.05930 0.60960 0.39520
#END
