
#######################################################################
#
#                 Cambridge Crystallographic Data Centre
#                                CCDC
#
#######################################################################
#
# If this CIF has been generated from an entry in the Cambridge
# Structural Database, then it will include bibliographic, chemical,
# crystal, experimental, refinement or atomic coordinate data resulting
# from the CCDC's data processing and validation procedures.
#
#######################################################################

data_CSD_CIF_DIPRAX
_audit_creation_date 2013-11-08
_audit_creation_method CSD-ConQuest-V1
_database_code_CSD DIPRAX
_database_code_depnum_ccdc_archive 'CCDC 821936'
_chemical_formula_sum 'C25 H20 N4 O2'
_chemical_formula_moiety
;
C25 H20 N4 O2
;
_journal_coden_Cambridge 34
_journal_volume 50
_journal_year 2013
_journal_page_first 696
_journal_name_full 'J.Heterocycl.Chem. '
loop_
_publ_author_name
"Liu"
_chemical_name_systematic
;
(3-(4-Methylphenyl)-5-(2-phenyl-2H-1,2,3-triazol-4-yl)-4,5-dihydro-1,2-oxazol-
4-yl)(phenyl)methanone
;
_cell_volume   2085.690
_exptl_crystal_density_diffrn 1.301
_diffrn_ambient_temperature 293
#These two values have been output from a single CSD field.
_refine_ls_R_factor_gt 0.0334
_refine_ls_wR_factor_gt 0.0334
_symmetry_cell_setting orthorhombic
_symmetry_space_group_name_H-M 'P 21 21 21'
_symmetry_Int_Tables_number 19
loop_
_symmetry_equiv_pos_site_id
_symmetry_equiv_pos_as_xyz
1 x,y,z
2 1/2-x,-y,1/2+z
3 -x,1/2+y,1/2-z
4 1/2+x,1/2-y,-z
_cell_length_a 7.7924(2)
_cell_length_b 12.3162(2)
_cell_length_c 21.7321(4)
_cell_angle_alpha 90
_cell_angle_beta 90
_cell_angle_gamma 90
_cell_formula_units_Z 4
loop_
_atom_type_symbol
_atom_type_radius_bond
C 0.68
H 0.23
N 0.68
O 0.68
loop_
_atom_site_label
_atom_site_type_symbol
_atom_site_fract_x
_atom_site_fract_y
_atom_site_fract_z
O1 O 0.48622(19) 0.24408(10) 0.01949(5)
O2 O 0.59187(17) 0.30485(10) -0.14694(6)
N1 N 0.43951(18) 0.53508(11) 0.01851(6)
N2 N 0.35355(18) 0.58565(11) 0.06295(5)
N3 N 0.2667(2) 0.52045(14) 0.10086(6)
N4 N 0.4191(2) 0.16076(11) -0.01783(7)
C1 C 0.4525(3) 0.76261(15) 0.02949(8)
H1 H 0.51580 0.72970 -0.00160
C2 C 0.4529(3) 0.87429(17) 0.03601(10)
H2 H 0.51710 0.91660 0.00900
C3 C 0.3602(3) 0.92336(18) 0.08161(11)
H3 H 0.35960 0.99860 0.08510
C4 C 0.2683(3) 0.86129(19) 0.12196(11)
H4 H 0.20760 0.89490 0.15350
C5 C 0.2639(3) 0.74834(17) 0.11676(9)
H5 H 0.20030 0.70640 0.14410
C6 C 0.3567(2) 0.70070(14) 0.06991(7)
C7 C 0.2991(3) 0.42191(16) 0.07909(8)
H6 H 0.25690 0.35730 0.09530
C8 C 0.4067(2) 0.43078(13) 0.02796(7)
C9 C 0.4790(2) 0.34672(13) -0.01339(7)
H7 H 0.59550 0.36790 -0.02540
C10 C 0.3729(2) 0.32240(12) -0.07194(6)
H8 H 0.25960 0.35670 -0.06980
C11 C 0.4685(2) 0.35726(12) -0.13006(7)
C12 C 0.4120(2) 0.45581(12) -0.16363(7)
C13 C 0.4634(2) 0.47015(15) -0.22444(7)
H9 H 0.52720 0.41630 -0.24390
C14 C 0.4208(3) 0.56314(18) -0.25605(8)
H10 H 0.45490 0.57190 -0.29680
C15 C 0.3273(3) 0.64323(16) -0.22711(10)
H11 H 0.30050 0.70680 -0.24810
C16 C 0.2735(3) 0.62977(15) -0.16745(9)
H12 H 0.20950 0.68370 -0.14830
C17 C 0.3148(2) 0.53576(13) -0.13589(8)
H13 H 0.27680 0.52640 -0.09570
C18 C 0.3582(2) 0.20047(12) -0.06752(7)
C19 C 0.2764(2) 0.13166(13) -0.11414(7)
C20 C 0.2838(3) 0.01884(14) -0.10981(8)
H14 H 0.34220 -0.01340 -0.07730
C21 C 0.2050(3) -0.04497(14) -0.15336(9)
H15 H 0.21100 -0.12010 -0.14950
C22 C 0.1173(2) -0.00137(14) -0.20262(8)
C23 C 0.0329(3) -0.07274(18) -0.24989(12)
H16 H -0.02150 -0.02830 -0.28050
H17 H -0.05170 -0.11760 -0.23030
H18 H 0.11790 -0.11790 -0.26910
C24 C 0.1120(3) 0.11054(15) -0.20717(8)
H19 H 0.05540 0.14220 -0.24030
C25 C 0.1890(2) 0.17666(14) -0.16358(8)
H20 H 0.18210 0.25170 -0.16750
#END
