
#######################################################################
#
#                 Cambridge Crystallographic Data Centre
#                                CCDC
#
#######################################################################
#
# If this CIF has been generated from an entry in the Cambridge
# Structural Database, then it will include bibliographic, chemical,
# crystal, experimental, refinement or atomic coordinate data resulting
# from the CCDC's data processing and validation procedures.
#
#######################################################################

data_CSD_CIF_DIXDUJ01
_audit_creation_date 2014-06-25
_audit_creation_method CSD-ConQuest-V1
_database_code_CSD DIXDUJ01
_database_code_depnum_ccdc_archive 'CCDC 1010234'
_chemical_formula_sum 'C8 H8 N2 O3'
_chemical_formula_moiety
;
C8 H8 N2 O3
;
_journal_coden_Cambridge 1065
_journal_year 2008
_journal_page_first 1364
_journal_name_full 'University of Southampton, Crystal Structure Report Archive '
loop_
_publ_author_name
"S.L.C.(.Huth)"
"T.L.Threlfall"
"M.B.Hursthouse"
_chemical_name_systematic
;
N-(2-nitrophenyl)acetamide
;
_cell_volume    803.256
_exptl_crystal_colour 'yellow'
_exptl_crystal_density_diffrn 1.49
_exptl_crystal_description 'plate'
_diffrn_ambient_temperature 120
#These two values have been output from a single CSD field.
_refine_ls_R_factor_gt 0.0416
_refine_ls_wR_factor_gt 0.0416
_symmetry_cell_setting monoclinic
_symmetry_space_group_name_H-M 'P 21/n'
_symmetry_Int_Tables_number 14
loop_
_symmetry_equiv_pos_site_id
_symmetry_equiv_pos_as_xyz
1 x,y,z
2 1/2-x,1/2+y,1/2-z
3 -x,-y,-z
4 -1/2+x,-1/2-y,-1/2+z
_cell_length_a 10.5564(4)
_cell_length_b 4.9758(2)
_cell_length_c 15.4117(5)
_cell_angle_alpha 90
_cell_angle_beta 97.134(2)
_cell_angle_gamma 90
_cell_formula_units_Z 4
loop_
_atom_type_symbol
_atom_type_radius_bond
C 0.68
H 0.23
N 0.68
O 0.68
loop_
_atom_site_label
_atom_site_type_symbol
_atom_site_fract_x
_atom_site_fract_y
_atom_site_fract_z
C1 C 0.56452(13) 0.5595(3) 0.35132(9)
C2 C 0.53771(13) 0.5144(3) 0.26025(9)
C3 C 0.44395(14) 0.6575(3) 0.20829(10)
H1 H 0.42860 0.62300 0.14730
C4 C 0.37315(14) 0.8494(3) 0.2453(1)
H2 H 0.30840 0.94670 0.21020
C5 C 0.39776(14) 0.8987(3) 0.33467(10)
H3 H 0.34980 1.03220 0.36030
C6 C 0.49078(15) 0.7569(3) 0.38679(10)
H4 H 0.50510 0.79370 0.44770
C7 C 0.72982(14) 0.5025(3) 0.47953(9)
C8 C 0.83857(16) 0.3182(3) 0.51043(10)
H5 H 0.90050 0.31920 0.46810
H6 H 0.80610 0.13530 0.51600
H7 H 0.88010 0.37970 0.56740
N1 N 0.65934(12) 0.4170(3) 0.40318(8)
N2 N 0.60851(11) 0.3156(3) 0.21531(8)
O1 O 0.70715(11) 0.7071(2) 0.51809(7)
O2 O 0.66666(10) 0.1335(2) 0.25769(7)
O3 O 0.60637(11) 0.3369(2) 0.13564(7)
H8 H 0.6874(17) 0.275(3) 0.3777(11)
#END
