
#######################################################################
#
#                 Cambridge Crystallographic Data Centre
#                                CCDC
#
#######################################################################
#
# If this CIF has been generated from an entry in the Cambridge
# Structural Database, then it will include bibliographic, chemical,
# crystal, experimental, refinement or atomic coordinate data resulting
# from the CCDC's data processing and validation procedures.
#
#######################################################################

data_CSD_CIF_DNBZIL01
_audit_creation_date 2010-05-04
_audit_creation_method CSD-ConQuest-V1
_database_code_CSD DNBZIL01
_database_code_depnum_ccdc_archive 'CCDC 711619'
_chemical_formula_sum 'C14 H8 N2 O6'
_chemical_formula_moiety
;
C14 H8 N2 O6
;
_journal_coden_Cambridge 392
_journal_volume 78
_journal_year 2009
_journal_page_first 999
_journal_name_full 'Heterocycles '
loop_
_publ_author_name
"A.Patel"
"F.Bures"
"M.Ludwig"
"J.Kulhanek"
"O.Pytela"
"A.Ruzicka"
_chemical_name_systematic
;
1,2-bis(4-Nitrophenyl)ethane-1,2-dione
;
_chemical_name_common
;
4,4'-Dinitrobenzil
;
_chemical_melting_point 485.15
_cell_volume    622.910
_exptl_crystal_colour 'yellow'
_exptl_crystal_density_diffrn 1.601
_exptl_special_details
;
Melting point range 485.15-487.15K

;
_exptl_crystal_description 'plate'
_diffrn_ambient_temperature 150
#These two values have been output from a single CSD field.
_refine_ls_R_factor_gt 0.059
_refine_ls_wR_factor_gt 0.059
_symmetry_cell_setting triclinic
_symmetry_space_group_name_H-M 'P -1'
_symmetry_Int_Tables_number 2
loop_
_symmetry_equiv_pos_site_id
_symmetry_equiv_pos_as_xyz
1 x,y,z
2 -x,-y,-z
_cell_length_a 7.1021(7)
_cell_length_b 7.3989(13)
_cell_length_c 13.2870(7)
_cell_angle_alpha 84.647(9)
_cell_angle_beta 86.163(8)
_cell_angle_gamma 63.694(11)
_cell_formula_units_Z 2
loop_
_atom_type_symbol
_atom_type_radius_bond
C 0.68
H 0.23
N 0.68
O 0.68
loop_
_atom_site_label
_atom_site_type_symbol
_atom_site_fract_x
_atom_site_fract_y
_atom_site_fract_z
O1 O 0.5070(3) 0.0484(3) 0.20196(13)
O2 O -0.4342(3) 0.3313(3) -0.07725(14)
O3 O 0.2597(3) 0.6371(3) 0.62660(13)
N1 N -0.2743(4) 0.3546(3) -0.09071(15)
N2 N 0.2347(3) 0.4843(3) 0.64676(15)
O4 O -0.2369(4) 0.4420(3) -0.16613(15)
C1 C 0.2221(4) 0.0794(4) 0.50642(17)
H1 H 0.19960 -0.03530 0.51910
C2 C 0.1714(4) 0.1341(3) 0.13738(17)
O5 O 0.2425(3) -0.1380(3) 0.33981(14)
C3 C -0.0298(4) 0.1496(4) 0.15821(18)
H2 H -0.06530 0.11160 0.22270
C4 C 0.2871(4) 0.4248(4) 0.46647(17)
H3 H 0.30680 0.54110 0.45420
C5 C 0.2711(4) 0.0124(4) 0.32520(18)
C6 C -0.1764(4) 0.2211(4) 0.08311(17)
H4 H -0.31140 0.23210 0.09590
C7 C 0.3292(4) 0.0677(4) 0.21751(18)
O6 O 0.1971(4) 0.4293(3) 0.73161(14)
C8 C 0.0816(4) 0.2611(4) -0.03433(17)
H5 H 0.11630 0.29920 -0.09890
C9 C 0.2968(4) 0.3096(4) 0.38833(17)
H6 H 0.32500 0.34750 0.32250
C10 C 0.2131(4) 0.1920(4) 0.58516(18)
H7 H 0.18540 0.15490 0.65120
C11 C 0.2642(3) 0.1370(4) 0.40777(17)
C12 C 0.2466(4) 0.3622(4) 0.56316(17)
C13 C -0.1172(4) 0.2759(3) -0.01125(17)
C14 C 0.2261(4) 0.1890(4) 0.04071(17)
H8 H 0.36120 0.17680 0.02710
#END
