
#######################################################################
#
#                 Cambridge Crystallographic Data Centre
#                                CCDC
#
#######################################################################
#
# If this CIF has been generated from an entry in the Cambridge
# Structural Database, then it will include bibliographic, chemical,
# crystal, experimental, refinement or atomic coordinate data resulting
# from the CCDC's data processing and validation procedures.
#
#######################################################################

data_CSD_CIF_DOCKIP
_audit_creation_date 2000-06-05
_audit_creation_method CSD-ConQuest-V1
_database_code_CSD DOCKIP
_database_code_depnum_ccdc_archive 'CCDC 136057'
_chemical_formula_sum 'C27 H23 N3 O5'
_chemical_formula_moiety
;
C27 H23 N3 O5
;
_journal_coden_Cambridge 16
_journal_volume 56
_journal_year 2000
_journal_page_first 1247
_journal_name_full 'Tetrahedron '
loop_
_publ_author_name
"M.J.Arevalo"
"M.Avalos"
"R.Babiano"
"P.Cintas"
"M.B.Hursthouse"
"J.L.Jimenez"
"M.E.Light"
"I.Lopez"
"J.C.Palacios"
_chemical_name_systematic
;
6-(Benzyl(methyl)amino)-5-methoxycarbonyl-1-(4-nitrophenyl)-3-phenylpyridin-2-
one
;
_chemical_melting_point 422.15
_cell_volume   1158.453
_exptl_crystal_colour 'yellow'
_exptl_crystal_density_diffrn 1.346
_exptl_crystal_description 'prisms'
_exptl_crystal_preparation 'diethyl ether'
_diffrn_ambient_temperature 150
#These two values have been output from a single CSD field.
_refine_ls_R_factor_gt 0.0439
_refine_ls_wR_factor_gt 0.0439
_symmetry_cell_setting triclinic
_symmetry_space_group_name_H-M 'P -1'
_symmetry_Int_Tables_number 2
loop_
_symmetry_equiv_pos_site_id
_symmetry_equiv_pos_as_xyz
1 x,y,z
2 -x,-y,-z
_cell_length_a 10.0971(4)
_cell_length_b 10.3866(3)
_cell_length_c 13.1345(5)
_cell_angle_alpha 99.618(2)
_cell_angle_beta 101.5227(16)
_cell_angle_gamma 116.2341(18)
_cell_formula_units_Z 2
loop_
_atom_type_symbol
_atom_type_radius_bond
C 0.68
H 0.23
N 0.68
O 0.68
loop_
_atom_site_label
_atom_site_type_symbol
_atom_site_fract_x
_atom_site_fract_y
_atom_site_fract_z
O1 O 0.41188(15) 0.08089(13) 0.21621(9)
O2 O 0.52584(16) -0.67871(15) 0.45992(10)
O3 O 0.24225(16) -0.58271(13) 0.00917(10)
N1 N 0.38391(16) -0.34800(14) 0.12771(11)
O4 O 0.36175(16) 0.06237(12) 0.03840(9)
O5 O 0.73369(16) -0.60581(16) 0.41162(11)
N2 N 0.55867(16) -0.10717(14) 0.25078(11)
C1 C 0.5523(2) -0.54119(17) 0.33605(12)
N3 N 0.60794(18) -0.61333(16) 0.40792(11)
C2 C 0.44612(19) -0.41380(17) 0.19905(13)
C3 C 0.4017(2) -0.56843(18) 0.31869(13)
C4 C 0.08429(19) -0.48939(17) -0.15070(13)
C5 C 0.6514(2) -0.45276(18) 0.28641(13)
C6 C 0.27011(19) -0.45237(17) 0.02775(13)
C7 C 0.2511(2) -0.24150(18) -0.01196(13)
C8 C 0.20329(19) -0.39054(17) -0.04433(13)
C9 C 0.3481(2) -0.50432(18) 0.24875(14)
C10 C 0.43374(19) -0.19492(17) 0.15805(13)
C11 C 0.5961(2) -0.38853(18) 0.21620(13)
C12 C 0.6788(2) 0.04115(18) 0.25307(15)
C13 C 0.38332(19) 0.01061(18) 0.12379(13)
C14 C 0.36257(19) -0.14183(17) 0.08885(13)
C15 C 0.8394(2) 0.06207(17) 0.29526(14)
C16 C -0.0384(2) -0.5173(2) -0.33809(14)
C17 C -0.1340(2) -0.72690(19) -0.26662(14)
C18 C -0.0217(2) -0.63963(18) -0.16672(14)
C19 C 0.5492(2) -0.1221(2) 0.35821(14)
C20 C 0.0738(2) -0.43038(19) -0.23856(14)
C21 C -0.1433(2) -0.66578(19) -0.35277(14)
C22 C 0.9028(2) 0.0094(2) 0.22498(17)
C23 C 0.3728(3) 0.2083(2) 0.06334(18)
C24 C 0.9286(2) 0.1338(2) 0.40340(16)
C25 C 1.0489(3) 0.0254(2) 0.2615(2)
C26 C 1.1343(2) 0.0937(2) 0.3692(2)
C27 C 1.0755(3) 0.1482(3) 0.4394(2)
H1 H 0.2028(19) -0.2032(18) -0.0564(14)
H2 H 0.664(2) -0.3288(19) 0.1798(14)
H3 H 0.753(2) -0.4392(18) 0.2981(14)
H4 H 0.243(2) -0.519(2) 0.2360(15)
H5 H 0.669(2) 0.118(2) 0.2993(15)
H6 H 0.339(2) -0.630(2) 0.3525(15)
H7 H -0.017(2) -0.684(2) -0.1116(16)
H8 H 0.460(3) -0.215(2) 0.3550(16)
H9 H 0.657(2) 0.048(2) 0.1762(16)
H10 H -0.044(2) -0.471(2) -0.3944(15)
H11 H -0.220(2) -0.726(2) -0.4261(17)
H12 H -0.210(2) -0.831(2) -0.2741(15)
H13 H 0.151(2) -0.327(2) -0.2278(16)
H14 H 0.364(3) 0.234(3) -0.006(2)
H15 H 0.480(3) 0.285(3) 0.114(2)
H16 H 1.242(3) 0.108(3) 0.3949(19)
H17 H 0.885(3) 0.172(2) 0.4539(19)
H18 H 0.541(3) -0.036(3) 0.396(2)
H19 H 0.642(3) -0.124(2) 0.4028(19)
H20 H 0.845(3) -0.041(3) 0.147(2)
H21 H 1.091(3) -0.010(3) 0.208(2)
H22 H 0.289(3) 0.199(3) 0.091(2)
H23 H 1.131(3) 0.194(3) 0.514(2)
#END
