
#######################################################################
#
#                 Cambridge Crystallographic Data Centre
#                                CCDC
#
#######################################################################
#
# If this CIF has been generated from an entry in the Cambridge
# Structural Database, then it will include bibliographic, chemical,
# crystal, experimental, refinement or atomic coordinate data resulting
# from the CCDC's data processing and validation procedures.
#
#######################################################################

data_CSD_CIF_DOKLUL
_audit_creation_date 2009-02-19
_audit_creation_method CSD-ConQuest-V1
_database_code_CSD DOKLUL
_database_code_depnum_ccdc_archive 'CCDC 647945'
_chemical_formula_sum 'C26 H24 N2 O14'
_chemical_formula_moiety
;
C26 H24 N2 O14
;
_journal_coden_Cambridge 16
_journal_volume 64
_journal_year 2008
_journal_page_first 9117
_journal_name_full 'Tetrahedron '
loop_
_publ_author_name
"V.R.Doddi"
"A.Kumar"
"Y.D.Vankar"
_chemical_name_systematic
;
(1R,2R,3S,4S,5S)-4,5-bis(4-nitrobenzoyloxy)cyclohexane-1,2,3-triyl triacetate
;
_chemical_melting_point 411.15
_cell_volume   2822.122
_exptl_crystal_density_diffrn 1.385
_exptl_special_details
;
Melting point range 411.15-413.15K

;
_exptl_crystal_preparation 'dichloromethane/hexane'
_diffrn_ambient_temperature 100
#These two values have been output from a single CSD field.
_refine_ls_R_factor_gt 0.0736
_refine_ls_wR_factor_gt 0.0736
_symmetry_cell_setting monoclinic
_symmetry_space_group_name_H-M 'C 2'
_symmetry_Int_Tables_number 5
loop_
_symmetry_equiv_pos_site_id
_symmetry_equiv_pos_as_xyz
1 x,y,z
2 -x,y,-z
3 1/2+x,1/2+y,z
4 1/2-x,1/2+y,-z
_cell_length_a 23.330(5)
_cell_length_b 6.5014(13)
_cell_length_c 19.523(4)
_cell_angle_alpha 90
_cell_angle_beta 107.63(3)
_cell_angle_gamma 90
_cell_formula_units_Z 4
loop_
_atom_type_symbol
_atom_type_radius_bond
C 0.68
H 0.23
N 0.68
O 0.68
loop_
_atom_site_label
_atom_site_type_symbol
_atom_site_fract_x
_atom_site_fract_y
_atom_site_fract_z
N1 N 0.5896(2) 1.1343(9) 0.4490(3)
N2 N 0.6056(2) 0.8027(10) 0.0655(3)
O1 O 0.27084(12) 0.5168(4) 0.12645(14)
O2 O 0.2840(2) 0.8511(6) 0.1523(2)
O3 O 0.22217(12) 0.5172(6) 0.23932(16)
O4 O 0.15002(16) 0.2864(11) 0.2364(2)
O5 O 0.31632(11) 0.4275(6) 0.35662(14)
O6 O 0.24266(15) 0.3768(9) 0.40565(19)
O7 O 0.42110(11) 0.3815(5) 0.30853(14)
O8 O 0.50531(13) 0.2829(6) 0.28474(18)
O9 O 0.5641(3) 1.2344(9) 0.4827(3)
O10 O 0.6360(2) 1.1879(9) 0.4400(3)
O11 O 0.39264(12) 0.4195(5) 0.16373(14)
O12 O 0.42163(16) 0.1327(6) 0.1200(2)
O13 O 0.6015(2) 0.9875(8) 0.0679(3)
O14 O 0.64534(18) 0.7157(8) 0.0492(3)
C1 C 0.38692(18) 0.2157(7) 0.2652(2)
H1 H 0.41460 0.10960 0.25870
C2 C 0.35269(17) 0.3056(7) 0.1926(2)
H2 H 0.33400 0.19440 0.15950
C3 C 0.30488(17) 0.4567(6) 0.19815(19)
H3 H 0.32370 0.57760 0.22590
C4 C 0.26162(17) 0.3564(7) 0.2328(2)
H4 H 0.23860 0.24890 0.20110
C5 C 0.29354(17) 0.2646(7) 0.3061(2)
H5 H 0.26450 0.18420 0.32210
C6 C 0.34524(19) 0.1231(8) 0.3031(2)
H6 H 0.36860 0.08750 0.35180
H7 H 0.32840 -0.00310 0.27870
C7 C 0.3121(3) 0.6457(13) 0.4505(3)
H8 H 0.28850 0.67330 0.48210
H9 H 0.31230 0.76500 0.42160
H10 H 0.35250 0.61290 0.47840
C8 C 0.2860(2) 0.4721(10) 0.4039(2)
C9 C 0.1345(3) 0.6516(14) 0.2538(3)
H11 H 0.09250 0.62180 0.24450
H12 H 0.13920 0.75870 0.22200
H13 H 0.15120 0.69590 0.30270
C10 C 0.1669(2) 0.4596(13) 0.2413(3)
C11 C 0.2262(2) 0.7478(9) 0.0349(3)
H14 H 0.20810 0.88190 0.02990
H15 H 0.19520 0.64500 0.02200
H16 H 0.25100 0.73690 0.00390
C12 C 0.2637(2) 0.7163(8) 0.1109(3)
C13 C 0.4268(2) 0.3145(8) 0.1316(2)
C14 C 0.47140(18) 0.4474(8) 0.1146(2)
C15 C 0.4717(2) 0.6555(9) 0.1196(4)
H17 H 0.44210 0.72060 0.13460
C16 C 0.5149(3) 0.7726(10) 0.1030(4)
H18 H 0.51400 0.91540 0.10560
C17 C 0.55913(19) 0.6756(9) 0.0828(3)
C18 C 0.5614(2) 0.4741(10) 0.0788(3)
H19 H 0.59240 0.41150 0.06580
C19 C 0.5180(2) 0.3568(9) 0.0938(3)
H20 H 0.51950 0.21440 0.09020
C20 C 0.47926(17) 0.4010(8) 0.3108(2)
C21 C 0.50624(18) 0.5955(8) 0.3469(2)
C22 C 0.47481(19) 0.7297(8) 0.3785(2)
H21 H 0.43560 0.69960 0.37740
C23 C 0.5020(2) 0.9057(10) 0.4112(3)
H22 H 0.48130 0.99670 0.43180
C24 C 0.5603(2) 0.9468(8) 0.4132(2)
C25 C 0.5912(2) 0.8176(9) 0.3815(3)
H23 H 0.63030 0.84890 0.38240
C26 C 0.56415(19) 0.6437(9) 0.3487(3)
H24 H 0.58500 0.55570 0.32720
#END
