
#######################################################################
#
#                 Cambridge Crystallographic Data Centre
#                                CCDC
#
#######################################################################
#
# If this CIF has been generated from an entry in the Cambridge
# Structural Database, then it will include bibliographic, chemical,
# crystal, experimental, refinement or atomic coordinate data resulting
# from the CCDC's data processing and validation procedures.
#
#######################################################################

data_CSD_CIF_DOXROX02
_audit_creation_date 1989-09-22
_audit_creation_method CSD-ConQuest-V1
_database_code_CSD DOXROX02
_chemical_formula_sum 'C10 H15 N1 O2'
_chemical_formula_moiety
;
C10 H15 N1 O2
;
_journal_coden_Cambridge 95
_journal_year 1987
_journal_page_first 791
_journal_name_full 'Izv.Akad.Nauk SSSR,Ser.Khim.(Russ.)(Russ.Chem.Bull.) '
loop_
_publ_author_name
"A.B.Zolotoi"
"A.V.Prosyanik"
"Ya.Z.Zorin"
"S.V.Konovalikhin"
"O.A.D'yachenko"
"L.O.Atovmyan"
_chemical_name_systematic
;
E-3-Isonitrosocamphor
;
_chemical_melting_point 422.15
_cell_volume   1018.896
_exptl_crystal_colour 'colorless'
_exptl_special_details
;
Melting point range 422.15-423.15K
fw reported as 169.22; we calculate 181.24. Dx reported as 1.11; we calculate 
1.18
;
_diffrn_ambient_temperature ?
_diffrn_special_details
;
The study was carried out at room temperature,in the range 283-303K

;
#These two values have been output from a single CSD field.
_refine_ls_R_factor_gt 0.098
_refine_ls_wR_factor_gt 0.098
loop_
_citation_database_id_CSD
_citation_special_details
DOXROY "is a racemate of this entry"
_symmetry_cell_setting orthorhombic
_symmetry_space_group_name_H-M 'P 21 21 21'
_symmetry_Int_Tables_number 19
loop_
_symmetry_equiv_pos_site_id
_symmetry_equiv_pos_as_xyz
1 x,y,z
2 1/2+x,1/2-y,-z
3 -x,1/2+y,1/2-z
4 1/2-x,-y,1/2+z
_cell_length_a 12.785(1)
_cell_length_b 11.301(4)
_cell_length_c 7.052(4)
_cell_angle_alpha 90
_cell_angle_beta 90
_cell_angle_gamma 90
_cell_formula_units_Z 4
loop_
_atom_type_symbol
_atom_type_radius_bond
C 0.68
N 0.68
O 0.68
loop_
_atom_site_label
_atom_site_type_symbol
_atom_site_fract_x
_atom_site_fract_y
_atom_site_fract_z
O1 O 0.4402(5) 0.1249(5) 0.4003(10)
O2 O 0.4631(4) 0.5007(4) 0.3742(8)
N1 N 0.4657(4) 0.3775(5) 0.3579(8)
C1 C 0.3306(7) 0.1780(6) 0.6669(12)
C2 C 0.4029(5) 0.1973(5) 0.5031(9)
C3 C 0.4150(4) 0.3296(5) 0.4906(8)
C4 C 0.3493(6) 0.3781(6) 0.6467(11)
C5 C 0.2279(6) 0.3542(10) 0.5653(16)
C6 C 0.2177(7) 0.2271(10) 0.5757(17)
C7 C 0.3524(8) 0.2798(6) 0.7887(11)
C8 C 0.2756(9) 0.2974(8) 0.9595(12)
C9 C 0.4709(6) 0.2737(10) 0.8652(13)
C10 C 0.3204(8) 0.0515(6) 0.7409(16)
#END
