
#######################################################################
#
#                 Cambridge Crystallographic Data Centre
#                                CCDC
#
#######################################################################
#
# If this CIF has been generated from an entry in the Cambridge
# Structural Database, then it will include bibliographic, chemical,
# crystal, experimental, refinement or atomic coordinate data resulting
# from the CCDC's data processing and validation procedures.
#
#######################################################################

data_CSD_CIF_DUCTUR
_audit_creation_date 2009-10-09
_audit_creation_method CSD-ConQuest-V1
_database_code_CSD DUCTUR
_database_code_depnum_ccdc_archive 'CCDC 747237'
_chemical_formula_sum 'C17 H16 N4 O6'
_chemical_formula_moiety
;
C17 H16 N4 O6
;
_journal_coeditor_code "IUCr FL2256"
_journal_coden_Cambridge 1370
_journal_volume 65
_journal_year 2009
_journal_page_first o2141
_journal_name_full 'Acta Crystallogr.,Sect.E:Struct.Rep.Online '
loop_
_publ_author_name
"Wen-Kui Dong"
"Yin-Xia Sun"
"Jun-Feng Tong"
"Hai-Hong Zhao"
"Li Wang"
_chemical_name_systematic
;
N,N'-(1,3-Propanediylbis(oxy))bis(1-(4-nitrophenyl)methanimine)
;
_chemical_name_common
;
1,3-bis[(4-nitrobenzylidene)aminooxy]propane
;
_chemical_melting_point 427
_cell_volume    871.702
_exptl_crystal_colour 'colorless'
_exptl_crystal_density_diffrn 1.419
_exptl_special_details
;
Melting point range 427-429K

;
_exptl_crystal_description 'needle-like'
_exptl_crystal_preparation 'chloroform/N,N-dimethylformamide'
_diffrn_ambient_temperature 298
#These two values have been output from a single CSD field.
_refine_ls_R_factor_gt 0.0388
_refine_ls_wR_factor_gt 0.0388
_symmetry_cell_setting monoclinic
_symmetry_space_group_name_H-M 'C 2'
_symmetry_Int_Tables_number 5
loop_
_symmetry_equiv_pos_site_id
_symmetry_equiv_pos_as_xyz
1 x,y,z
2 -x,y,-z
3 1/2+x,1/2+y,z
4 1/2-x,1/2+y,-z
_cell_length_a 29.005(3)
_cell_length_b 4.7878(5)
_cell_length_c 6.3579(7)
_cell_angle_alpha 90
_cell_angle_beta 99.144(1)
_cell_angle_gamma 90
_cell_formula_units_Z 2
loop_
_atom_type_symbol
_atom_type_radius_bond
C 0.68
H 0.23
N 0.68
O 0.68
loop_
_atom_site_label
_atom_site_type_symbol
_atom_site_fract_x
_atom_site_fract_y
_atom_site_fract_z
N1 N 0.93031(9) 0.2933(7) 0.6567(4)
N2 N 0.79744(9) 1.2194(6) 0.1169(4)
O1 O 0.94454(7) 0.1141(6) 0.8289(3)
O2 O 0.76377(8) 1.3375(6) 0.1705(3)
O3 O 0.81103(8) 1.2669(6) -0.0530(3)
C1 C 0.98599(10) -0.0342(8) 0.8012(4)
H1 H 1.01060 0.09560 0.78150
H2 H 0.97990 -0.15510 0.67750
C2 C 1.00000 -0.2040(12) 1.00000
H3 H 0.97410 -0.32360 1.02030
C3 C 0.89337(11) 0.4213(8) 0.6853(5)
H4 H 0.88090 0.38400 0.80820
C4 C 0.86975(10) 0.6240(8) 0.5337(4)
C5 C 0.88617(10) 0.6955(7) 0.3454(4)
H5 H 0.91300 0.61150 0.31200
C6 C 0.86237(10) 0.8918(7) 0.2086(5)
H6 H 0.87330 0.94220 0.08410
C7 C 0.82254(10) 1.0105(7) 0.2594(4)
C8 C 0.80565(10) 0.9443(8) 0.4438(4)
H7 H 0.77870 1.02800 0.47560
C9 C 0.82958(10) 0.7517(8) 0.5798(4)
H8 H 0.81860 0.70610 0.70530
N1A N 1.06969(9) 0.2933(7) 1.3433(4)
N2A N 1.20256(9) 1.2194(6) 1.8831(4)
O1A O 1.05546(7) 0.1141(6) 1.1711(3)
O2A O 1.23623(8) 1.3375(6) 1.8295(3)
O3A O 1.18897(8) 1.2669(6) 2.0530(3)
C1A C 1.01401(10) -0.0342(8) 1.1988(4)
H1A H 0.98940 0.09560 1.21850
H2A H 1.02010 -0.15510 1.32250
H3A H 1.02590 -0.32360 0.97970
C3A C 1.10663(11) 0.4213(8) 1.3147(5)
H4A H 1.11910 0.38400 1.19180
C4A C 1.13025(10) 0.6240(8) 1.4663(4)
C5A C 1.11383(10) 0.6955(7) 1.6546(4)
H5A H 1.08700 0.61150 1.68800
C6A C 1.13763(10) 0.8918(7) 1.7914(5)
H6A H 1.12670 0.94220 1.91590
C7A C 1.17746(10) 1.0105(7) 1.7406(4)
C8A C 1.19435(10) 0.9443(8) 1.5562(4)
H7A H 1.22130 1.02800 1.52440
C9A C 1.17042(10) 0.7517(8) 1.4202(4)
H8A H 1.18140 0.70610 1.29470
#END
