
#######################################################################
#
#                 Cambridge Crystallographic Data Centre
#                                CCDC
#
#######################################################################
#
# If this CIF has been generated from an entry in the Cambridge
# Structural Database, then it will include bibliographic, chemical,
# crystal, experimental, refinement or atomic coordinate data resulting
# from the CCDC's data processing and validation procedures.
#
#######################################################################

data_CSD_CIF_DUDBUA
_audit_creation_date 2009-10-09
_audit_creation_method CSD-ConQuest-V1
_database_code_CSD DUDBUA
_database_code_depnum_ccdc_archive 'CCDC 747293'
_chemical_formula_sum 'C14 H15 N1 O6'
_chemical_formula_moiety
;
C14 H15 N1 O6
;
_journal_coeditor_code "IUCr BT5022"
_journal_coden_Cambridge 1370
_journal_volume 65
_journal_year 2009
_journal_page_first o2209
_journal_name_full 'Acta Crystallogr.,Sect.E:Struct.Rep.Online '
loop_
_publ_author_name
"S.Thenmozhi"
"S.Ranjith"
"A.SubbiahPandi"
"V.Dhayalan"
"A.K.MohanaKrishnan"
_chemical_name_systematic
;
Diethyl 2-(2-nitrobenzylidene)malonate
;
_cell_volume    721.099
_exptl_crystal_colour 'colorless'
_exptl_crystal_density_diffrn 1.351
_exptl_crystal_description 'block'
_exptl_crystal_preparation 'methanol'
_diffrn_ambient_temperature 293
#These two values have been output from a single CSD field.
_refine_ls_R_factor_gt 0.0476
_refine_ls_wR_factor_gt 0.0476
_symmetry_cell_setting triclinic
_symmetry_space_group_name_H-M 'P -1'
_symmetry_Int_Tables_number 2
loop_
_symmetry_equiv_pos_site_id
_symmetry_equiv_pos_as_xyz
1 x,y,z
2 -x,-y,-z
_cell_length_a 7.8410(2)
_cell_length_b 8.5571(2)
_cell_length_c 12.3533(4)
_cell_angle_alpha 80.866(2)
_cell_angle_beta 75.037(1)
_cell_angle_gamma 64.402(1)
_cell_formula_units_Z 2
loop_
_atom_type_symbol
_atom_type_radius_bond
C 0.68
H 0.23
N 0.68
O 0.68
loop_
_atom_site_label
_atom_site_type_symbol
_atom_site_fract_x
_atom_site_fract_y
_atom_site_fract_z
C1 C 0.32734(17) 0.26054(16) 0.00483(10)
C2 C 0.4208(2) 0.18112(18) -0.09512(11)
H1 H 0.35300 0.15630 -0.13670
C3 C 0.6156(2) 0.1390(2) -0.13275(12)
H2 H 0.68080 0.08540 -0.20020
C4 C 0.7138(2) 0.1765(2) -0.07003(12)
H3 H 0.84580 0.14690 -0.09510
C5 C 0.61807(19) 0.25790(18) 0.02979(11)
H4 H 0.68670 0.28340 0.07040
C6 C 0.42104(17) 0.30233(16) 0.07069(10)
C7 C 0.32275(18) 0.40052(17) 0.17243(11)
H5 H 0.20960 0.49960 0.16940
C8 C 0.38277(18) 0.35895(16) 0.2684(1)
C9 C 0.54181(19) 0.18778(16) 0.28991(10)
C10 C 0.8427(2) 0.0493(2) 0.34618(14)
H6 H 0.95760 0.07090 0.33600
H7 H 0.87250 -0.04130 0.29720
C11 C 0.7894(3) -0.0099(2) 0.46438(15)
H8 H 0.75330 0.08180 0.51260
H9 H 0.89800 -0.10920 0.48400
H10 H 0.68240 -0.04080 0.47300
C12 C 0.27995(18) 0.48151(17) 0.36030(11)
C13 C 0.2334(2) 0.51216(19) 0.55376(11)
H11 H 0.09350 0.56180 0.56460
H12 H 0.27520 0.60610 0.54190
C14 C 0.2947(3) 0.4002(2) 0.65347(13)
H13 H 0.24400 0.31310 0.66780
H14 H 0.24620 0.46970 0.71740
H15 H 0.43340 0.34520 0.63970
N1 N 0.12284(17) 0.29396(16) 0.04462(12)
O1 O 0.03150(19) 0.3042(2) -0.02475(13)
O2 O 0.05294(17) 0.30788(19) 0.14427(11)
O3 O 0.53708(18) 0.05173(13) 0.28408(10)
O4 O 0.17045(18) 0.63004(14) 0.34780(9)
O5 O 0.32173(14) 0.40462(12) 0.45770(8)
O6 O 0.68593(13) 0.20702(12) 0.31542(9)
#END
