
#######################################################################
#
#                 Cambridge Crystallographic Data Centre
#                                CCDC
#
#######################################################################
#
# If this CIF has been generated from an entry in the Cambridge
# Structural Database, then it will include bibliographic, chemical,
# crystal, experimental, refinement or atomic coordinate data resulting
# from the CCDC's data processing and validation procedures.
#
#######################################################################

data_CSD_CIF_DUHJAT
_audit_creation_date 2015-07-15
_audit_creation_method CSD-ConQuest-V1
_database_code_CSD DUHJAT
_database_code_depnum_ccdc_archive 'CCDC 1030883'
_chemical_formula_sum 'C20 H17 N3 O4'
_chemical_formula_moiety
;
C20 H17 N3 O4
;
_journal_coden_Cambridge 16
_journal_volume 71
_journal_year 2015
_journal_page_first 6860
_journal_name_full 'Tetrahedron '
loop_
_publ_author_name
"S.Ahadi"
"Z.Naghdiani"
"S.Balalaie"
"F.Rominger"
_chemical_name_systematic
;
1-Cyano-3-(4-methoxyphenyl)-4-nitro-5-phenylcyclopent-2-ene-1-carboxamide
;
_cell_volume   3560.236
_exptl_crystal_colour 'colorless'
_exptl_crystal_density_diffrn 1.356
_exptl_crystal_description 'polyhedron'
_diffrn_ambient_temperature 200
#These two values have been output from a single CSD field.
_refine_ls_R_factor_gt 0.0399
_refine_ls_wR_factor_gt 0.0399
_symmetry_cell_setting monoclinic
_symmetry_space_group_name_H-M 'C 2/c'
_symmetry_Int_Tables_number 15
loop_
_symmetry_equiv_pos_site_id
_symmetry_equiv_pos_as_xyz
1 x,y,z
2 -x,y,1/2-z
3 1/2+x,1/2+y,z
4 1/2-x,1/2+y,1/2-z
5 -x,-y,-z
6 x,-y,-1/2+z
7 -1/2-x,-1/2-y,-z
8 -1/2+x,-1/2-y,-1/2+z
_cell_length_a 25.976(1)
_cell_length_b 8.4856(3)
_cell_length_c 18.9145(7)
_cell_angle_alpha 90
_cell_angle_beta 121.3568(8)
_cell_angle_gamma 90
_cell_formula_units_Z 8
loop_
_atom_type_symbol
_atom_type_radius_bond
C 0.68
H 0.23
N 0.68
O 0.68
loop_
_atom_site_label
_atom_site_type_symbol
_atom_site_fract_x
_atom_site_fract_y
_atom_site_fract_z
C1 C 0.88852(8) 0.6211(2) 0.30836(11)
C2 C 0.84348(8) 0.5095(2) 0.24386(11)
H1 H 0.84770 0.39810 0.24740
C3 C 0.79703(8) 0.5846(2) 0.18121(11)
C4 C 0.80294(8) 0.7601(2) 0.19702(11)
H2 H 0.81730 0.81360 0.16330
C5 C 0.85009(8) 0.7755(2) 0.29047(11)
H3 H 0.82760 0.76320 0.31990
C6 C 0.91180(8) 0.5676(2) 0.39411(11)
N1 N 0.93019(7) 0.5286(2) 0.4608(1)
C7 C 0.93975(8) 0.6487(2) 0.29008(11)
O1 O 0.92472(6) 0.68093(16) 0.21845(8)
N2 N 0.99675(7) 0.6371(2) 0.35159(11)
H4 H 1.0062(10) 0.611(3) 0.4000(15)
H5 H 1.0251(11) 0.655(3) 0.3384(14)
N3 N 0.74449(7) 0.8329(2) 0.18093(10)
O2 O 0.73073(8) 0.9622(2) 0.14735(11)
O3 O 0.71493(7) 0.75956(19) 0.20271(10)
C8 C 0.74849(8) 0.5136(2) 0.10430(11)
C9 C 0.74019(8) 0.3506(2) 0.09802(11)
H6 H 0.76630 0.28620 0.14410
C10 C 0.69474(9) 0.2801(2) 0.02621(12)
H7 H 0.69020 0.16880 0.02310
C11 C 0.65589(8) 0.3739(2) -0.04107(11)
C12 C 0.66309(9) 0.5365(2) -0.03620(11)
H8 H 0.63640 0.60080 -0.08200
C13 C 0.70911(8) 0.6046(2) 0.03535(11)
H9 H 0.71410 0.71580 0.03770
O4 O 0.60910(7) 0.31708(17) -0.11393(8)
C14 C 0.5991(1) 0.1514(3) -0.11944(13)
H10 H 0.63450 0.09690 -0.11320
H11 H 0.56370 0.12560 -0.17350
H12 H 0.59230 0.11760 -0.07540
C15 C 0.88618(8) 0.9257(2) 0.32274(11)
C16 C 0.90963(10) 1.0058(2) 0.28169(13)
H13 H 0.89950 0.97280 0.22790
C17 C 0.94756(11) 1.1329(3) 0.31853(14)
H14 H 0.96390 1.18550 0.29030
C18 C 0.96184(10) 1.1843(3) 0.39535(14)
H15 H 0.98840 1.27090 0.42060
C19 C 0.93730(11) 1.1091(3) 0.43564(14)
H16 H 0.94610 1.14590 0.48820
C20 C 0.89998(9) 0.9804(3) 0.39970(13)
H17 H 0.88360 0.92880 0.42810
#END
