
#######################################################################
#
#                 Cambridge Crystallographic Data Centre
#                                CCDC
#
#######################################################################
#
# If this CIF has been generated from an entry in the Cambridge
# Structural Database, then it will include bibliographic, chemical,
# crystal, experimental, refinement or atomic coordinate data resulting
# from the CCDC's data processing and validation procedures.
#
#######################################################################

data_CSD_CIF_DUJBAM
_audit_creation_date 2010-02-16
_audit_creation_method CSD-ConQuest-V1
_database_code_CSD DUJBAM
_database_code_depnum_ccdc_archive 'CCDC 758264'
_chemical_formula_sum 'C6 H8 N2 O2'
_chemical_formula_moiety
;
C6 H8 N2 O2
;
_journal_coeditor_code "IUCr ZL2251"
_journal_coden_Cambridge 1370
_journal_volume 65
_journal_year 2009
_journal_page_first o3052
_journal_name_full 'Acta Crystallogr.,Sect.E:Struct.Rep.Online '
loop_
_publ_author_name
"C.J.Brown III"
"J.M.Knaust"
_chemical_name_systematic
;
2,5-Dimethylpyrazine 1,4-dioxide
;
_cell_volume    310.934
_exptl_crystal_colour 'colorless'
_exptl_crystal_density_diffrn 1.497
_exptl_crystal_description 'rod'
_exptl_crystal_preparation 'water/acetone'
_diffrn_ambient_temperature 173
#These two values have been output from a single CSD field.
_refine_ls_R_factor_gt 0.0491
_refine_ls_wR_factor_gt 0.0491
_symmetry_cell_setting monoclinic
_symmetry_space_group_name_H-M 'P 21/c'
_symmetry_Int_Tables_number 14
loop_
_symmetry_equiv_pos_site_id
_symmetry_equiv_pos_as_xyz
1 x,y,z
2 -x,1/2+y,1/2-z
3 -x,-y,-z
4 x,-1/2-y,-1/2+z
_cell_length_a 3.9971(8)
_cell_length_b 8.9176(17)
_cell_length_c 8.9249(17)
_cell_angle_alpha 90
_cell_angle_beta 102.205(3)
_cell_angle_gamma 90
_cell_formula_units_Z 2
loop_
_atom_type_symbol
_atom_type_radius_bond
C 0.68
H 0.23
N 0.68
O 0.68
loop_
_atom_site_label
_atom_site_type_symbol
_atom_site_fract_x
_atom_site_fract_y
_atom_site_fract_z
O1 O -0.0014(2) 0.11342(10) 0.28187(10)
N1 N 0.2436(2) 0.05941(11) 0.38743(11)
C1 C 0.3636(3) 0.31533(12) 0.48341(15)
H1 H 0.12860 0.33380 0.49480
H2 H 0.39100 0.35220 0.38320
H3 H 0.52380 0.36800 0.56470
C2 C 0.4355(3) 0.15172(13) 0.49468(13)
C3 C 0.6882(3) 0.09028(12) 0.60638(14)
H4 H 0.81940 0.15430 0.68160
O1B O 1.0014(2) -0.11342(10) 0.71813(10)
N1B N 0.7564(2) -0.05941(11) 0.61257(11)
C1B C 0.6364(3) -0.31533(12) 0.51659(15)
H1B H 0.87140 -0.33380 0.50520
H2B H 0.60900 -0.35220 0.61680
H3B H 0.47620 -0.36800 0.43530
C2B C 0.5645(3) -0.15172(13) 0.50532(13)
C3B C 0.3118(3) -0.09028(12) 0.39362(14)
H4B H 0.18060 -0.15430 0.31840
#END
