
#######################################################################
#
#                 Cambridge Crystallographic Data Centre
#                                CCDC
#
#######################################################################
#
# If this CIF has been generated from an entry in the Cambridge
# Structural Database, then it will include bibliographic, chemical,
# crystal, experimental, refinement or atomic coordinate data resulting
# from the CCDC's data processing and validation procedures.
#
#######################################################################

data_CSD_CIF_DUJGIZ
_audit_creation_date 2010-02-16
_audit_creation_method CSD-ConQuest-V1
_database_code_CSD DUJGIZ
_database_code_depnum_ccdc_archive 'CCDC 758336'
_chemical_formula_sum 'C5 H5 N1 O3'
_chemical_formula_moiety
;
C5 H5 N1 O3
;
_journal_coeditor_code "IUCr FL2281"
_journal_coden_Cambridge 1370
_journal_volume 65
_journal_year 2009
_journal_page_first o3140
_journal_name_full 'Acta Crystallogr.,Sect.E:Struct.Rep.Online '
loop_
_publ_author_name
"De-Cai Wang"
"Wei Xu"
"Wen-Yuan Wu"
_chemical_name_systematic
;
5-Methylisoxazole-4-carboxylic acid
;
_cell_volume    576.013
_exptl_crystal_colour 'colorless'
_exptl_crystal_density_diffrn 1.466
_exptl_crystal_description 'block'
_exptl_crystal_preparation 'ethanol'
_diffrn_ambient_temperature 293
#These two values have been output from a single CSD field.
_refine_ls_R_factor_gt 0.0397
_refine_ls_wR_factor_gt 0.0397
_symmetry_cell_setting orthorhombic
_symmetry_space_group_name_H-M 'P n m a'
_symmetry_Int_Tables_number 62
loop_
_symmetry_equiv_pos_site_id
_symmetry_equiv_pos_as_xyz
1 x,y,z
2 1/2-x,-y,1/2+z
3 1/2+x,1/2-y,1/2-z
4 -x,1/2+y,-z
5 -x,-y,-z
6 -1/2+x,y,-1/2-z
7 -1/2-x,-1/2+y,-1/2+z
8 x,-1/2-y,z
_cell_length_a 7.2540(15)
_cell_length_b 6.4700(13)
_cell_length_c 12.273(3)
_cell_angle_alpha 90
_cell_angle_beta 90
_cell_angle_gamma 90
_cell_formula_units_Z 4
loop_
_atom_type_symbol
_atom_type_radius_bond
C 0.68
H 0.23
N 0.68
O 0.68
loop_
_atom_site_label
_atom_site_type_symbol
_atom_site_fract_x
_atom_site_fract_y
_atom_site_fract_z
C1 C 0.5625(4) 0.25000 0.5646(2)
C2 C 0.7524(3) 0.25000 0.52268(19)
C3 C 0.8152(3) 0.25000 0.4188(2)
C4 C 0.9135(3) 0.25000 0.5867(2)
H1 H 0.91300 0.25000 0.66250
C5 C 0.7282(5) 0.25000 0.3096(3)
H2 H 0.770(4) 0.139(4) 0.269(2)
H3 H 0.601(3) 0.25000 0.314(4)
N1 N 1.0626(3) 0.25000 0.52849(19)
O1 O 0.4365(2) 0.25000 0.48671(16)
H4 H 0.33010 0.25000 0.51570
O2 O 0.5268(3) 0.25000 0.65992(16)
O3 O 1.0006(2) 0.25000 0.41956(14)
H2G H 0.770(4) 0.361(4) 0.269(2)
#END
