
#######################################################################
#
#                 Cambridge Crystallographic Data Centre
#                                CCDC
#
#######################################################################
#
# If this CIF has been generated from an entry in the Cambridge
# Structural Database, then it will include bibliographic, chemical,
# crystal, experimental, refinement or atomic coordinate data resulting
# from the CCDC's data processing and validation procedures.
#
#######################################################################

data_CSD_CIF_DUJGOF
_audit_creation_date 2010-02-16
_audit_creation_method CSD-ConQuest-V1
_database_code_CSD DUJGOF
_database_code_depnum_ccdc_archive 'CCDC 758337'
_chemical_formula_sum 'C25 H21 N1 O4'
_chemical_formula_moiety
;
C25 H21 N1 O4
;
_journal_coeditor_code "IUCr BH2257"
_journal_coden_Cambridge 1370
_journal_volume 65
_journal_year 2009
_journal_page_first o3141
_journal_name_full 'Acta Crystallogr.,Sect.E:Struct.Rep.Online '
loop_
_publ_author_name
"De-Ling Li"
"Li-Hong Wang"
_chemical_name_systematic
;
9,9-Dimethyl-12-(4-nitrophenyl)-9,10-dihydro-12H-benzo[a]xanthen-11(8H)-one
;
_cell_volume   4063.845
_exptl_crystal_colour 'yellow'
_exptl_crystal_density_diffrn 1.306
_exptl_crystal_description 'prism'
_exptl_crystal_preparation 'ethanol'
_diffrn_ambient_temperature 113
#These two values have been output from a single CSD field.
_refine_ls_R_factor_gt 0.0554
_refine_ls_wR_factor_gt 0.0554
_symmetry_cell_setting monoclinic
_symmetry_space_group_name_H-M 'C 2/c'
_symmetry_Int_Tables_number 15
loop_
_symmetry_equiv_pos_site_id
_symmetry_equiv_pos_as_xyz
1 x,y,z
2 -x,y,1/2-z
3 1/2+x,1/2+y,z
4 1/2-x,1/2+y,1/2-z
5 -x,-y,-z
6 x,-y,-1/2+z
7 -1/2-x,-1/2-y,-z
8 -1/2+x,-1/2-y,-1/2+z
_cell_length_a 24.178(5)
_cell_length_b 11.078(2)
_cell_length_c 17.481(4)
_cell_angle_alpha 90
_cell_angle_beta 119.78(3)
_cell_angle_gamma 90
_cell_formula_units_Z 8
loop_
_atom_type_symbol
_atom_type_radius_bond
C 0.68
H 0.23
N 0.68
O 0.68
loop_
_atom_site_label
_atom_site_type_symbol
_atom_site_fract_x
_atom_site_fract_y
_atom_site_fract_z
O1 O 0.07668(6) -0.09846(11) 0.23338(8)
O2 O 0.23273(6) 0.17081(12) 0.24963(8)
O3 O 0.06051(8) 0.52066(14) 0.42025(11)
O4 O 0.08357(10) 0.64016(14) 0.34280(11)
N1 N 0.07521(9) 0.53889(15) 0.36366(11)
C1 C 0.02775(9) -0.03873(17) 0.16146(11)
C2 C -0.03123(9) -0.09880(17) 0.12366(12)
H1 H -0.03510 -0.17380 0.14690
C3 C -0.08261(9) -0.04833(18) 0.05346(12)
H2 H -0.12270 -0.08800 0.02830
C4 C -0.07735(9) 0.06226(18) 0.01731(12)
C5 C -0.13056(10) 0.1170(2) -0.05572(13)
H3 H -0.17100 0.07870 -0.08050
C6 C -0.12508(10) 0.2230(2) -0.09105(13)
H4 H -0.16150 0.25910 -0.13880
C7 C -0.06498(10) 0.2782(2) -0.05608(12)
H5 H -0.06070 0.35050 -0.08190
C8 C -0.01239(9) 0.22896(17) 0.01486(11)
H6 H 0.02770 0.26830 0.03780
C9 C -0.01689(8) 0.12084(17) 0.05423(11)
C10 C 0.03670(8) 0.06891(16) 0.13055(11)
C11 C 0.10058(8) 0.13313(16) 0.17849(11)
H7 H 0.11190 0.16280 0.13400
C12 C 0.15111(8) 0.04569(16) 0.23939(11)
C13 C 0.21800(9) 0.07594(17) 0.27101(11)
C14 C 0.26749(9) -0.01679(17) 0.32757(12)
H8 H 0.30890 0.02440 0.36350
H9 H 0.27270 -0.07520 0.28870
C15 C 0.25060(9) -0.08591(16) 0.38902(11)
C16 C 0.18478(9) -0.14376(17) 0.33158(12)
H10 H 0.18930 -0.21400 0.30010
H11 H 0.16860 -0.17360 0.37010
C17 C 0.13742(9) -0.05788(16) 0.26568(11)
C18 C 0.30005(10) -0.18485(18) 0.43696(13)
H12 H 0.34250 -0.14840 0.47020
H13 H 0.29950 -0.24210 0.39380
H14 H 0.28990 -0.22750 0.47760
C19 C 0.24992(10) 0.00103(19) 0.45700(12)
H15 H 0.29130 0.04180 0.48920
H16 H 0.24180 -0.04450 0.49850
H17 H 0.21630 0.06130 0.42660
C20 C 0.09628(8) 0.24126(16) 0.22956(11)
C21 C 0.10351(9) 0.35856(17) 0.20785(12)
H18 H 0.11290 0.37160 0.16170
C22 C 0.09739(10) 0.45691(18) 0.25190(12)
H19 H 0.10230 0.53690 0.23660
C23 C 0.08393(9) 0.43547(16) 0.31859(12)
C24 C 0.07792(9) 0.32046(17) 0.34403(12)
H20 H 0.06980 0.30810 0.39140
C25 C 0.08398(9) 0.22379(17) 0.29877(11)
H21 H 0.07970 0.14400 0.31510
#END
