
#######################################################################
#
#                 Cambridge Crystallographic Data Centre
#                                CCDC
#
#######################################################################
#
# If this CIF has been generated from an entry in the Cambridge
# Structural Database, then it will include bibliographic, chemical,
# crystal, experimental, refinement or atomic coordinate data resulting
# from the CCDC's data processing and validation procedures.
#
#######################################################################

data_CSD_CIF_DUMPEG01
_audit_creation_date 2004-07-08
_audit_creation_method CSD-ConQuest-V1
_database_code_CSD DUMPEG01
_database_code_depnum_ccdc_archive 'CCDC 240599'
_chemical_formula_sum 'C5 H8 N2 O7'
_chemical_formula_moiety
;
C5 H8 N2 O7
;
_journal_coden_Cambridge 95
_journal_year 2003
_journal_page_first 1763
_journal_name_full 'Izv.Akad.Nauk SSSR,Ser.Khim.(Russ.)(Russ.Chem.Bull.) '
loop_
_publ_author_name
"A.M.Korolev"
"L.T.Eremenko"
"L.V.Meshikhina"
"I.L.Eremenko"
"G.G.Aleksandrov"
"N.P.Konovalova"
"V.P.Lodygina"
_chemical_name_systematic
;
3,3-bis(Methylnitrato)oxetane
;
_chemical_melting_point 366.65
_cell_volume    851.294
_exptl_crystal_colour 'colorless'
_exptl_crystal_density_diffrn 1.624
_exptl_special_details
;
Melting point range 366.65-367.15K

;
_diffrn_ambient_temperature 110
#These two values have been output from a single CSD field.
_refine_ls_R_factor_gt 0.0695
_refine_ls_wR_factor_gt 0.0695
_symmetry_cell_setting monoclinic
_symmetry_space_group_name_H-M 'C 2/c'
_symmetry_Int_Tables_number 15
loop_
_symmetry_equiv_pos_site_id
_symmetry_equiv_pos_as_xyz
1 x,y,z
2 1/2+x,1/2+y,z
3 x,-y,1/2+z
4 1/2+x,1/2-y,1/2+z
5 -x,-y,-z
6 -1/2-x,-1/2-y,-z
7 -x,y,-1/2-z
8 -1/2-x,-1/2+y,-1/2-z
_cell_length_a 15.020(2)
_cell_length_b 6.0553(9)
_cell_length_c 11.2392(16)
_cell_angle_alpha 90
_cell_angle_beta 123.613(3)
_cell_angle_gamma 90
_cell_formula_units_Z 4
loop_
_atom_type_symbol
_atom_type_radius_bond
C 0.68
H 0.23
N 0.68
O 0.68
loop_
_atom_site_label
_atom_site_type_symbol
_atom_site_fract_x
_atom_site_fract_y
_atom_site_fract_z
O1 O 0.00000 0.8028(3) 0.25000
O2 O 0.09397(12) 0.2095(2) 0.19377(14)
O3 O 0.16486(15) -0.0301(3) 0.12901(17)
O4 O 0.23363(15) 0.0057(3) 0.35523(18)
N1 N 0.17107(15) 0.0489(3) 0.23158(19)
C1 C -0.00921(19) 0.6370(3) 0.1512(2)
C2 C 0.00000 0.4483(4) 0.25000
C3 C 0.09987(17) 0.3087(3) 0.3158(2)
H1 H -0.080(2) 0.647(3) 0.056(2)
H2 H 0.046(2) 0.648(5) 0.137(3)
H3 H 0.1017(19) 0.181(3) 0.376(2)
H4 H 0.1695(19) 0.409(4) 0.376(2)
C1F C 0.00921(19) 0.6370(3) 0.3488(2)
H1F H 0.080(2) 0.647(3) 0.444(2)
H2F H -0.046(2) 0.648(5) 0.363(3)
C3F C -0.09987(17) 0.3087(3) 0.1842(2)
O2F O -0.09397(12) 0.2095(2) 0.30623(14)
N1F N -0.17107(15) 0.0489(3) 0.26842(19)
O3F O -0.16486(15) -0.0301(3) 0.37099(17)
O4F O -0.23363(15) 0.0057(3) 0.14477(18)
H3F H -0.1017(19) 0.181(3) 0.124(2)
H4F H -0.1695(19) 0.409(4) 0.124(2)
#END
