
#######################################################################
#
#                 Cambridge Crystallographic Data Centre
#                                CCDC
#
#######################################################################
#
# If this CIF has been generated from an entry in the Cambridge
# Structural Database, then it will include bibliographic, chemical,
# crystal, experimental, refinement or atomic coordinate data resulting
# from the CCDC's data processing and validation procedures.
#
#######################################################################

data_CSD_CIF_DUNXAM01
_audit_creation_date 2013-05-26
_audit_creation_method CSD-ConQuest-V1
_database_code_CSD DUNXAM01
_database_code_depnum_ccdc_archive 'CCDC 820995'
_chemical_formula_sum 'C15 H18 N3 O2'
_chemical_formula_moiety
;
C15 H18 N3 O2
;
_journal_coden_Cambridge 535
_journal_volume 29
_journal_year 2011
_journal_page_first 74
_journal_name_full 'Xuzhou Shifan Daxue Xuebao,Ziran Kexueban(Chin.)(J.Xuzhou Normal Univ.(Nat.Sci.)) '
loop_
_publ_author_name
"Yuhua Zhang"
"Yuan Zhang"
"Qiang Yue"
"Chengguo Gan"
"Zhuo Wang"
"Xiaojian Wu"
_chemical_name_systematic
;
2-(1H-Indol-3-yl)-4,4,5,5-tetramethyl-4,5-dihydro-1H-3\l^5^-imidazole-1,3-diol
;
_cell_volume   1421.275
_exptl_crystal_density_diffrn 1.273
_exptl_special_details
;
Pna21 polymorph

;
_diffrn_ambient_temperature 293
#These two values have been output from a single CSD field.
_refine_ls_R_factor_gt 0.059
_refine_ls_wR_factor_gt 0.059
_symmetry_cell_setting orthorhombic
_symmetry_space_group_name_H-M 'P n a 21'
_symmetry_Int_Tables_number 33
loop_
_symmetry_equiv_pos_site_id
_symmetry_equiv_pos_as_xyz
1 x,y,z
2 -x,-y,1/2+z
3 1/2+x,1/2-y,z
4 1/2-x,1/2+y,1/2+z
_cell_length_a 11.114(7)
_cell_length_b 9.931(6)
_cell_length_c 12.877(8)
_cell_angle_alpha 90
_cell_angle_beta 90
_cell_angle_gamma 90
_cell_formula_units_Z 4
loop_
_atom_type_symbol
_atom_type_radius_bond
C 0.68
H 0.23
N 0.68
O 0.68
loop_
_atom_site_label
_atom_site_type_symbol
_atom_site_fract_x
_atom_site_fract_y
_atom_site_fract_z
N1 N 0.7034(4) 0.0212(4) 0.7518(3)
N2 N 0.7852(3) 0.0869(4) 0.6082(4)
N3 N 1.0625(4) -0.1153(4) 0.8308(3)
H1 H 1.10200 -0.13150 0.88690
O1 O 0.6910(4) -0.0354(4) 0.8405(3)
O2 O 0.8677(4) 0.1158(4) 0.5401(3)
C1 C 0.8051(4) 0.0158(5) 0.6947(4)
C2 C 0.6071(5) 0.1053(6) 0.7053(5)
C3 C 0.6613(4) 0.1418(5) 0.5987(4)
C4 C 0.5862(10) 0.2202(9) 0.7781(7)
H2 H 0.65760 0.27440 0.78200
H3 H 0.56710 0.18600 0.84580
H4 H 0.52060 0.27410 0.75310
C5 C 0.4976(6) 0.0144(12) 0.6983(8)
H5 H 0.51410 -0.05860 0.65160
H6 H 0.43020 0.06520 0.67290
H7 H 0.47920 -0.02080 0.76590
C6 C 0.6711(6) 0.2898(6) 0.5784(7)
H8 H 0.71060 0.33260 0.63590
H9 H 0.59210 0.32720 0.57010
H10 H 0.71690 0.30450 0.51620
C7 C 0.6020(6) 0.0773(10) 0.5072(6)
H11 H 0.59340 -0.01760 0.51950
H12 H 0.65040 0.09130 0.44640
H13 H 0.52400 0.11670 0.49680
C8 C 0.9479(5) -0.0644(5) 0.8263(4)
H14 H 0.90010 -0.04400 0.88340
C9 C 0.9148(4) -0.0481(4) 0.7243(4)
C10 C 1.0137(4) -0.0973(5) 0.6612(4)
C11 C 1.0339(5) -0.1177(5) 0.5558(4)
H15 H 0.97480 -0.09720 0.50720
C12 C 1.1428(5) -0.1685(5) 0.5253(5)
H16 H 1.15650 -0.18200 0.45480
C13 C 1.2328(5) -0.2003(6) 0.5944(6)
H17 H 1.30610 -0.23310 0.57030
C14 C 1.2148(5) -0.1841(5) 0.6963(5)
H18 H 1.27560 -0.20450 0.74330
C15 C 1.1041(4) -0.1364(5) 0.7316(4)
#END
