
#######################################################################
#
#                 Cambridge Crystallographic Data Centre
#                                CCDC
#
#######################################################################
#
# If this CIF has been generated from an entry in the Cambridge
# Structural Database, then it will include bibliographic, chemical,
# crystal, experimental, refinement or atomic coordinate data resulting
# from the CCDC's data processing and validation procedures.
#
#######################################################################

data_CSD_CIF_DUSBOK
_audit_creation_date 2015-11-17
_audit_creation_method CSD-ConQuest-V1
_database_code_CSD DUSBOK
_database_code_depnum_ccdc_archive 'CCDC 1402759'
_chemical_formula_sum 'C15 H21 N4 O5'
_chemical_formula_moiety
;
C15 H21 N4 O5
;
_journal_coden_Cambridge 440
_journal_volume 40
_journal_year 2016
_journal_page_first 503
_journal_name_full 'New J.Chem. '
loop_
_publ_author_name
"G.Ionita"
"A.M.Madalan"
"A.M.Ariciu"
"A.Medvedovici"
"P.Ionita"
_chemical_name_systematic
;
4-((2,4-dinitrophenyl)amino)-2,2,6,6-tetramethylpiperidin-1-ol
;
_cell_volume   1706.356
_exptl_crystal_colour 'yellow'
_exptl_crystal_density_diffrn 1.313
_exptl_crystal_description 'prism'
_diffrn_ambient_temperature 293
#These two values have been output from a single CSD field.
_refine_ls_R_factor_gt 0.0479
_refine_ls_wR_factor_gt 0.0479
_symmetry_cell_setting monoclinic
_symmetry_space_group_name_H-M 'P 21/c'
_symmetry_Int_Tables_number 14
loop_
_symmetry_equiv_pos_site_id
_symmetry_equiv_pos_as_xyz
1 x,y,z
2 -x,1/2+y,1/2-z
3 -x,-y,-z
4 x,-1/2-y,-1/2+z
_cell_length_a 7.8007(6)
_cell_length_b 10.7877(5)
_cell_length_c 20.2847(16)
_cell_angle_alpha 90
_cell_angle_beta 91.562(7)
_cell_angle_gamma 90
_cell_formula_units_Z 4
loop_
_atom_type_symbol
_atom_type_radius_bond
C 0.68
H 0.23
N 0.68
O 0.68
loop_
_atom_site_label
_atom_site_type_symbol
_atom_site_fract_x
_atom_site_fract_y
_atom_site_fract_z
C1 C 0.2504(2) -0.03217(18) 0.23259(9)
C2 C 0.1384(3) -0.1404(2) 0.25333(12)
H1 H 0.13180 -0.20050 0.21850
H2 H 0.02540 -0.11070 0.26230
H3 H 0.18750 -0.17810 0.29230
C3 C 0.2757(3) 0.0583(2) 0.29006(10)
H4 H 0.33220 0.01660 0.32640
H5 H 0.16610 0.08820 0.30350
H6 H 0.34470 0.12680 0.27640
C4 C 0.1662(3) 0.03195(19) 0.17264(9)
H7 H 0.12350 -0.03080 0.14210
H8 H 0.06880 0.07980 0.18700
C5 C 0.2861(3) 0.11637(17) 0.13709(9)
H9 H 0.33020 0.18080 0.16710
C6 C 0.4330(3) 0.0392(2) 0.11197(10)
H10 H 0.50870 0.09260 0.08750
H11 H 0.38720 -0.02270 0.08170
C7 C 0.5369(3) -0.02550(18) 0.16632(10)
C8 C 0.6430(4) -0.1287(2) 0.13621(14)
H12 H 0.71810 -0.16370 0.16950
H13 H 0.70970 -0.09540 0.10130
H14 H 0.56790 -0.19190 0.11880
C9 C 0.6576(3) 0.0649(2) 0.20249(15)
H15 H 0.59280 0.13350 0.21880
H16 H 0.74160 0.09480 0.17260
H17 H 0.71430 0.02310 0.23880
C10 C 0.2173(2) 0.28719(17) 0.05710(8)
C11 C 0.3153(3) 0.37806(18) 0.09228(10)
H18 H 0.36450 0.35700 0.13300
C12 C 0.3399(3) 0.49401(19) 0.06876(10)
H19 H 0.40290 0.55140 0.09360
C13 C 0.2704(3) 0.52699(19) 0.00724(10)
C14 C 0.1731(2) 0.44578(18) -0.02855(9)
H20 H 0.12530 0.46950 -0.06910
C15 C 0.1451(2) 0.32727(17) -0.00458(8)
N1 N 0.4205(2) -0.08243(13) 0.21481(7)
N2 N 0.1944(2) 0.17326(15) 0.08081(8)
H21 H 0.11780 0.12840 0.06100
N3 N 0.0378(2) 0.24720(17) -0.04543(7)
N4 N 0.3002(3) 0.65118(18) -0.01819(10)
O1 O 0.4937(2) -0.15380(13) 0.25781(7)
O2 O 0.0110(2) 0.13966(15) -0.02806(7)
O3 O -0.0241(2) 0.28922(15) -0.09672(7)
O4 O 0.2292(3) 0.68068(15) -0.07017(9)
O5 O 0.3963(3) 0.72043(16) 0.01326(9)
#END
