
#######################################################################
#
#                 Cambridge Crystallographic Data Centre
#                                CCDC
#
#######################################################################
#
# If this CIF has been generated from an entry in the Cambridge
# Structural Database, then it will include bibliographic, chemical,
# crystal, experimental, refinement or atomic coordinate data resulting
# from the CCDC's data processing and validation procedures.
#
#######################################################################

data_CSD_CIF_DUTQAL
_audit_creation_date 2010-08-30
_audit_creation_method CSD-ConQuest-V1
_database_code_CSD DUTQAL
_database_code_depnum_ccdc_archive 'CCDC 788461'
_chemical_formula_sum 'C16 H14 N4 O4'
_chemical_formula_moiety
;
C16 H14 N4 O4
;
_journal_coeditor_code "IUCr HB5560"
_journal_coden_Cambridge 1370
_journal_volume 66
_journal_year 2010
_journal_page_first o2100
_journal_name_full 'Acta Crystallogr.,Sect.E:Struct.Rep.Online '
loop_
_publ_author_name
"M.Danish"
"M.Hamid"
"M.N.Tahir"
"N.Ahmad"
"S.Ghafoor"
_chemical_name_systematic
;
1-(2,4-Dinitrophenyl)-2-(1,2,3,4-tetrahydronaphthalen-1-ylidene)hydrazine
;
_chemical_melting_point 532.6
_cell_volume   1495.534
_exptl_crystal_colour 'dark red'
_exptl_crystal_density_diffrn 1.449
_exptl_crystal_description 'prism'
_exptl_crystal_preparation 'chloroform'
_diffrn_ambient_temperature 296
#These two values have been output from a single CSD field.
_refine_ls_R_factor_gt 0.0521
_refine_ls_wR_factor_gt 0.0521
_symmetry_cell_setting monoclinic
_symmetry_space_group_name_H-M 'P 21/c'
_symmetry_Int_Tables_number 14
loop_
_symmetry_equiv_pos_site_id
_symmetry_equiv_pos_as_xyz
1 x,y,z
2 -x,1/2+y,1/2-z
3 -x,-y,-z
4 x,-1/2-y,-1/2+z
_cell_length_a 14.8627(8)
_cell_length_b 13.8704(7)
_cell_length_c 7.3493(4)
_cell_angle_alpha 90
_cell_angle_beta 99.211(3)
_cell_angle_gamma 90
_cell_formula_units_Z 4
loop_
_atom_type_symbol
_atom_type_radius_bond
C 0.68
H 0.23
N 0.68
O 0.68
loop_
_atom_site_label
_atom_site_type_symbol
_atom_site_fract_x
_atom_site_fract_y
_atom_site_fract_z
O1 O 0.43825(10) 0.23381(9) 0.0566(2)
O2 O 0.57029(10) 0.25445(10) -0.0177(2)
O3 O 0.81423(10) 0.03761(12) 0.1565(2)
O4 O 0.78682(11) -0.10369(11) 0.2563(2)
N1 N 0.34097(9) 0.00794(9) 0.26919(19)
N2 N 0.39945(9) 0.07682(9) 0.2205(2)
N3 N 0.51727(11) 0.20674(10) 0.0563(2)
N4 N 0.76344(11) -0.02141(13) 0.2090(2)
C1 C 0.19535(12) -0.03794(12) 0.3219(2)
C2 C 0.22711(13) -0.12656(13) 0.3948(3)
C3 C 0.16793(15) -0.19545(15) 0.4405(3)
C4 C 0.07590(15) -0.17652(17) 0.4138(3)
C5 C 0.04314(14) -0.08992(18) 0.3402(3)
C6 C 0.10145(13) -0.01864(14) 0.2944(3)
C7 C 0.06687(14) 0.07705(17) 0.2168(4)
C8 C 0.13139(15) 0.15586(16) 0.2858(4)
C9 C 0.22538(13) 0.13744(13) 0.2358(3)
C10 C 0.25900(12) 0.03616(12) 0.2750(2)
C11 C 0.48721(11) 0.0542(1) 0.2161(2)
C12 C 0.54739(11) 0.11646(10) 0.1415(2)
C13 C 0.63792(11) 0.09211(11) 0.1416(2)
C14 C 0.66902(11) 0.00529(12) 0.2126(2)
C15 C 0.61171(12) -0.05889(12) 0.2843(2)
C16 C 0.52342(12) -0.03497(11) 0.2866(2)
H1 H 0.28932 -0.13939 0.41286
H2 H 0.37998 0.13420 0.19292
H3 H 0.18999 -0.25435 0.48905
H4 H 0.03567 -0.22256 0.44564
H5 H -0.01936 -0.07871 0.32068
H6 H 0.05919 0.07480 0.08332
H7 H 0.00786 0.09011 0.25190
H8 H 0.13617 0.16063 0.41865
H9 H 0.10803 0.21668 0.23270
H10 H 0.22348 0.15075 0.10567
H11 H 0.26846 0.18190 0.30438
H12 H 0.67680 0.13436 0.09391
H13 H 0.63399 -0.11814 0.33062
H14 H 0.48587 -0.07817 0.33571
#END
