
#######################################################################
#
#                 Cambridge Crystallographic Data Centre
#                                CCDC
#
#######################################################################
#
# If this CIF has been generated from an entry in the Cambridge
# Structural Database, then it will include bibliographic, chemical,
# crystal, experimental, refinement or atomic coordinate data resulting
# from the CCDC's data processing and validation procedures.
#
#######################################################################

data_CSD_CIF_DUVFEH
_audit_creation_date 2015-11-19
_audit_creation_method CSD-ConQuest-V1
_database_code_CSD DUVFEH
_database_code_depnum_ccdc_archive 'CCDC 1424687'
_chemical_formula_sum 'C16 H10 N4 O4'
_chemical_formula_moiety
;
C16 H10 N4 O4
;
_journal_coden_Cambridge 24
_journal_volume 56
_journal_year 2015
_journal_page_first 7180
_journal_name_full 'Tetrahedron Lett. '
loop_
_publ_author_name
"K.K.Gnanasekaran"
"N.P.Muddala"
"R.A.Bunce"
_chemical_name_systematic
;
6-acetyl-2-nitrobenzo[4,5]imidazo[2,1-b]quinazolin-12(6H)-one
;
_chemical_name_common
;
6-acetyl-2-nitrobenzimidazo[2,1-b]quinazolin-12(6H)-one
;
_cell_volume    686.682
_exptl_crystal_colour 'yellow'
_exptl_crystal_density_diffrn 1.559
_exptl_special_details
;
Absolute configuration
Luminescent

;
_exptl_crystal_description 'block'
_exptl_crystal_preparation 'acetone'
_diffrn_ambient_temperature 100
#These two values have been output from a single CSD field.
_refine_ls_R_factor_gt 0.0743
_refine_ls_wR_factor_gt 0.0743
_symmetry_cell_setting monoclinic
_symmetry_space_group_name_H-M 'P 21'
_symmetry_Int_Tables_number 4
loop_
_symmetry_equiv_pos_site_id
_symmetry_equiv_pos_as_xyz
1 x,y,z
2 -x,1/2+y,-z
_cell_length_a 4.940(6)
_cell_length_b 15.552(18)
_cell_length_c 8.944(10)
_cell_angle_alpha 90
_cell_angle_beta 92.092(16)
_cell_angle_gamma 90
_cell_formula_units_Z 2
loop_
_atom_type_symbol
_atom_type_radius_bond
C 0.68
H 0.23
N 0.68
O 0.68
loop_
_atom_site_label
_atom_site_type_symbol
_atom_site_fract_x
_atom_site_fract_y
_atom_site_fract_z
O1 O 0.274(1) 0.3343(3) 0.5038(6)
O2 O 1.0394(11) 0.4114(3) 0.1677(6)
O3 O 1.1275(12) 0.5467(4) 0.1232(6)
O4 O -0.3607(11) 0.6269(4) 0.9290(7)
N1 N 0.2381(12) 0.5949(4) 0.6031(8)
N2 N -0.0998(12) 0.5478(4) 0.7748(7)
N3 N 0.0994(12) 0.4478(4) 0.6360(7)
N4 N 0.9969(13) 0.4895(4) 0.1858(7)
C1 C -0.4138(15) 0.4440(5) 0.9094(9)
H1 H -0.50270 0.48570 0.96770
C2 C -0.4745(16) 0.3553(5) 0.9197(9)
H2 H -0.60920 0.33740 0.98620
C3 C -0.3455(17) 0.2938(5) 0.8368(10)
H3 H -0.38800 0.23480 0.85010
C4 C -0.1525(16) 0.3173(5) 0.7332(10)
H4 H -0.07040 0.27590 0.67120
C5 C 0.2759(15) 0.4125(5) 0.5301(9)
C6 C 0.6347(14) 0.4520(5) 0.3558(8)
H5 H 0.65670 0.39310 0.33060
C7 C 0.7875(15) 0.5145(5) 0.2907(9)
C8 C 0.7563(16) 0.6030(5) 0.3231(9)
H6 H 0.86070 0.64500 0.27400
C9 C 0.5742(16) 0.6266(5) 0.4258(8)
H7 H 0.55430 0.68580 0.44890
C10 C -0.2183(14) 0.4667(5) 0.8101(9)
C11 C -0.0869(15) 0.4044(5) 0.7257(9)
C12 C 0.0931(14) 0.5355(5) 0.6660(9)
C13 C 0.4444(15) 0.4773(4) 0.4609(9)
C14 C 0.4139(15) 0.5658(5) 0.4990(9)
C15 C -0.1733(16) 0.6276(5) 0.8456(9)
C16 C -0.0100(18) 0.7062(5) 0.8116(11)
H8 H -0.06030 0.75290 0.87860
H9 H -0.04680 0.72350 0.70750
H10 H 0.18330 0.69340 0.82680
#END
