
#######################################################################
#
#                 Cambridge Crystallographic Data Centre
#                                CCDC
#
#######################################################################
#
# If this CIF has been generated from an entry in the Cambridge
# Structural Database, then it will include bibliographic, chemical,
# crystal, experimental, refinement or atomic coordinate data resulting
# from the CCDC's data processing and validation procedures.
#
#######################################################################

data_CSD_CIF_DUXTIZ
_audit_creation_date 1987-06-30
_audit_creation_method CSD-ConQuest-V1
_database_code_CSD DUXTIZ
_chemical_formula_sum 'C2 H4 N2 O4'
_chemical_formula_moiety
;
C2 H4 N2 O4
;
_journal_coeditor_code "IUCr A26198"
_journal_coden_Cambridge 591
_journal_volume 42
_journal_year 1986
_journal_page_first 1648
_journal_name_full 'Acta Crystallogr.,Sect.C:Cryst.Struct.Commun. '
loop_
_publ_author_name
"C.K.Lowe-Ma"
"D.L.Decker"
_chemical_name_systematic
;
Oxalylhydroxamic acid
;
_cell_volume    215.423
_exptl_crystal_density_diffrn 1.852
_diffrn_ambient_temperature ?
_diffrn_special_details
;
The study was carried out at room temperature,in the range 283-303K

;
#These two values have been output from a single CSD field.
_refine_ls_R_factor_gt 0.037
_refine_ls_wR_factor_gt 0.037
_symmetry_cell_setting monoclinic
_symmetry_space_group_name_H-M 'P 21/n'
_symmetry_Int_Tables_number 14
loop_
_symmetry_equiv_pos_site_id
_symmetry_equiv_pos_as_xyz
1 x,y,z
2 1/2-x,1/2+y,1/2-z
3 -x,-y,-z
4 -1/2+x,-1/2-y,-1/2+z
_cell_length_a 5.210(2)
_cell_length_b 3.871(1)
_cell_length_c 10.730(3)
_cell_angle_alpha 90
_cell_angle_beta 95.45(3)
_cell_angle_gamma 90
_cell_formula_units_Z 2
loop_
_atom_type_symbol
_atom_type_radius_bond
C 0.68
H 0.23
N 0.68
O 0.68
loop_
_atom_site_label
_atom_site_type_symbol
_atom_site_fract_x
_atom_site_fract_y
_atom_site_fract_z
C1 C 0.43868(22) 0.41114(28) 0.44102(9)
N1 N 0.56255(20) 0.48703(27) 0.34288(8)
O1 O 0.48935(17) 0.32773(24) 0.22919(7)
O2 O 0.24779(19) 0.22385(24) 0.44280(8)
H1 H 0.696(4) 0.610(4) 0.348(1)
H2 H 0.399(4) 0.492(5) 0.182(2)
C1B C 0.56132(22) 0.58886(28) 0.55898(9)
N1B N 0.43745(20) 0.51297(27) 0.65712(8)
O2B O 0.75221(19) 0.77615(24) 0.55720(8)
O1B O 0.51065(17) 0.67227(24) 0.77081(7)
H1B H 0.304(4) 0.390(4) 0.652(1)
H2B H 0.601(4) 0.508(5) 0.818(2)
#END
