
#######################################################################
#
#                 Cambridge Crystallographic Data Centre
#                                CCDC
#
#######################################################################
#
# If this CIF has been generated from an entry in the Cambridge
# Structural Database, then it will include bibliographic, chemical,
# crystal, experimental, refinement or atomic coordinate data resulting
# from the CCDC's data processing and validation procedures.
#
#######################################################################

data_CSD_CIF_DUYGOU
_audit_creation_date 2010-12-14
_audit_creation_method CSD-ConQuest-V1
_database_code_CSD DUYGOU
_database_code_depnum_ccdc_archive 'CCDC 786788'
_chemical_formula_sum 'C20 H38 N2 O2'
_chemical_formula_moiety
;
C20 H38 N2 O2
;
_journal_coden_Cambridge 4
_journal_volume 132
_journal_year 2010
_journal_page_first 1953
_journal_name_full 'J.Am.Chem.Soc. '
loop_
_publ_author_name
"Pil Seok Chae"
"I.A.Guzei"
"S.H.Gellman"
_chemical_name_systematic
;
3,3-Dicyclohexyl-N-(3-(dimethylnitroryl)propyl)propanamide
;
_cell_volume   1926.063
_exptl_crystal_colour 'colorless'
_exptl_crystal_density_diffrn 1.167
_exptl_crystal_description 'needle'
_diffrn_ambient_temperature 100
#These two values have been output from a single CSD field.
_refine_ls_R_factor_gt 0.0497
_refine_ls_wR_factor_gt 0.0497
_symmetry_cell_setting monoclinic
_symmetry_space_group_name_H-M 'P 21/n'
_symmetry_Int_Tables_number 14
loop_
_symmetry_equiv_pos_site_id
_symmetry_equiv_pos_as_xyz
1 x,y,z
2 1/2-x,1/2+y,1/2-z
3 -x,-y,-z
4 -1/2+x,-1/2-y,-1/2+z
_cell_length_a 19.7742(9)
_cell_length_b 4.9833(3)
_cell_length_c 20.7279(9)
_cell_angle_alpha 90
_cell_angle_beta 109.443(3)
_cell_angle_gamma 90
_cell_formula_units_Z 4
loop_
_atom_type_symbol
_atom_type_radius_bond
C 0.68
H 0.23
N 0.68
O 0.68
loop_
_atom_site_label
_atom_site_type_symbol
_atom_site_fract_x
_atom_site_fract_y
_atom_site_fract_z
O1 O -0.02925(8) -0.1237(3) 0.58499(7)
O2 O 0.22661(8) 0.5413(3) 0.61858(7)
N1 N -0.02704(8) 0.1541(3) 0.59065(8)
N2 N 0.20774(9) 0.1229(4) 0.65181(8)
H1 H 0.2092(13) -0.043(6) 0.6432(12)
C1 C -0.06576(11) 0.2783(4) 0.52237(10)
H2 H -0.0441(14) 0.222(5) 0.4899(14)
H3 H -0.0656(14) 0.475(6) 0.5277(14)
H4 H -0.1130(15) 0.198(6) 0.5071(13)
C2 C -0.06322(11) 0.2403(5) 0.63968(10)
H5 H -0.0614(14) 0.442(6) 0.6424(14)
H6 H -0.0399(15) 0.152(5) 0.6828(14)
H7 H -0.1114(15) 0.173(6) 0.6209(14)
C3 C 0.04938(10) 0.2556(4) 0.61371(10)
H8 H 0.0475(13) 0.451(5) 0.6179(12)
H9 H 0.0649(12) 0.213(5) 0.5761(13)
C4 C 0.09516(11) 0.1265(5) 0.68046(10)
H10 H 0.0910(13) -0.067(5) 0.6766(12)
H11 H 0.0791(13) 0.179(5) 0.7195(12)
C5 C 0.17386(10) 0.2083(5) 0.70097(10)
H12 H 0.1811(13) 0.402(5) 0.7058(13)
H13 H 0.1998(13) 0.128(5) 0.7466(13)
C6 C 0.22982(10) 0.2954(4) 0.61296(9)
C7 C 0.25561(11) 0.1652(4) 0.5593(1)
H14 H 0.2119(13) 0.138(5) 0.5205(13)
H15 H 0.2734(13) -0.016(5) 0.5753(12)
C8 C 0.31161(10) 0.3293(4) 0.53917(9)
H16 H 0.3044(12) 0.521(5) 0.5488(12)
C9 C 0.29988(10) 0.3174(4) 0.46171(9)
H17 H 0.3297(12) 0.461(5) 0.4525(12)
C10 C 0.32039(11) 0.0519(4) 0.43593(9)
H18 H 0.2869(13) -0.092(5) 0.4409(12)
H19 H 0.3683(13) 0.003(5) 0.4633(12)
C11 C 0.31325(11) 0.0716(4) 0.36006(10)
H20 H 0.3492(13) 0.215(5) 0.3564(12)
H21 H 0.3282(13) -0.095(5) 0.3447(13)
C12 C 0.23725(11) 0.1539(4) 0.31626(10)
H22 H 0.2345(13) 0.175(5) 0.2685(13)
H23 H 0.2024(13) 0.009(5) 0.3165(13)
C13 C 0.21575(11) 0.4154(4) 0.34214(10)
H24 H 0.1671(14) 0.459(5) 0.3159(13)
H25 H 0.2471(14) 0.561(5) 0.3357(13)
C14 C 0.22328(11) 0.3939(4) 0.41762(10)
H26 H 0.1879(13) 0.263(5) 0.4189(12)
H27 H 0.2105(13) 0.570(5) 0.4355(12)
C15 C 0.38838(10) 0.2476(4) 0.58379(9)
H28 H 0.3942(13) 0.051(5) 0.5771(12)
C16 C 0.44726(11) 0.3969(4) 0.56453(10)
H29 H 0.4404(13) 0.364(5) 0.5162(13)
H30 H 0.4399(13) 0.587(5) 0.5705(13)
C17 C 0.52260(11) 0.3081(5) 0.60887(10)
H31 H 0.5299(14) 0.110(6) 0.6010(13)
H32 H 0.5586(15) 0.401(5) 0.5945(14)
C18 C 0.53424(12) 0.3459(5) 0.68487(10)
H33 H 0.5831(14) 0.272(5) 0.7138(13)
H34 H 0.5318(14) 0.537(6) 0.6936(14)
C19 C 0.47648(11) 0.2015(5) 0.70502(10)
H35 H 0.4812(14) 0.229(5) 0.7535(14)
H36 H 0.4814(14) 0.005(6) 0.7001(13)
C20 C 0.40112(11) 0.2895(5) 0.6606(1)
H37 H 0.3946(13) 0.492(5) 0.6676(13)
H38 H 0.3636(14) 0.192(5) 0.6732(12)
#END
