
#######################################################################
#
#                 Cambridge Crystallographic Data Centre
#                                CCDC
#
#######################################################################
#
# If this CIF has been generated from an entry in the Cambridge
# Structural Database, then it will include bibliographic, chemical,
# crystal, experimental, refinement or atomic coordinate data resulting
# from the CCDC's data processing and validation procedures.
#
#######################################################################

data_CSD_CIF_DUZFUA
_audit_creation_date 2010-08-23
_audit_creation_method CSD-ConQuest-V1
_database_code_CSD DUZFUA
_database_code_depnum_ccdc_archive 'CCDC 720644'
_chemical_formula_sum 'C13 H12 N2 O3'
_chemical_formula_moiety
;
C13 H12 N2 O3
;
_journal_coden_Cambridge 16
_journal_volume 65
_journal_year 2009
_journal_page_first 10679
_journal_name_full 'Tetrahedron '
loop_
_publ_author_name
"P.Quadrelli"
"B.Bovio"
"A.Piccinini"
"P.Caramella"
"F.De Sarlo"
"F.Machetti"
_chemical_name_systematic
;
syn-3-benzoyl-6-hydroxy-2-oxa-3-azabicyclo(2.2.1)heptane-5-carbonitrile
;
_chemical_melting_point 440.15
_cell_volume   2375.700
_exptl_crystal_colour 'colorless'
_exptl_crystal_density_diffrn 1.37
_exptl_special_details
;
Melting point range 440.15-441.15K

;
_exptl_crystal_description 'Prisms'
_exptl_crystal_preparation 'ethanol'
_diffrn_ambient_temperature 293
_refine_special_details
;
Large void space, possible disorder.

;
#These two values have been output from a single CSD field.
_refine_ls_R_factor_gt 0.0335
_refine_ls_wR_factor_gt 0.0335
_symmetry_cell_setting orthorhombic
_symmetry_space_group_name_H-M 'P 21 21 21'
_symmetry_Int_Tables_number 19
loop_
_symmetry_equiv_pos_site_id
_symmetry_equiv_pos_as_xyz
1 x,y,z
2 1/2+x,1/2-y,-z
3 -x,1/2+y,1/2-z
4 1/2-x,-y,1/2+z
_cell_length_a 8.085(3)
_cell_length_b 10.682(2)
_cell_length_c 27.508(4)
_cell_angle_alpha 90
_cell_angle_beta 90
_cell_angle_gamma 90
_cell_formula_units_Z 8
loop_
_atom_type_symbol
_atom_type_radius_bond
C 0.68
H 0.23
N 0.68
O 0.68
loop_
_atom_site_label
_atom_site_type_symbol
_atom_site_fract_x
_atom_site_fract_y
_atom_site_fract_z
C1 C 0.56447(28) 0.17083(17) 0.21956(6)
O1 O 0.44171(20) 0.07252(11) 0.21307(4)
N1 N 0.44050(21) 0.04880(13) 0.16153(5)
C2 C 0.56071(24) 0.13896(15) 0.14115(6)
C3 C 0.47547(26) 0.26728(16) 0.14609(7)
C4 C 0.48390(28) 0.29071(17) 0.20225(7)
C5 C 0.69091(27) 0.14267(20) 0.18113(7)
O2 O 0.58233(22) 0.39619(12) 0.21147(5)
C6 C 0.56035(26) 0.36437(17) 0.11788(7)
N2 N 0.62592(28) 0.43745(16) 0.09450(7)
C7 C 0.43913(25) -0.07768(16) 0.15131(6)
O3 O 0.43351(20) -0.15534(11) 0.18351(5)
C8 C 0.42122(23) -0.11206(16) 0.09931(6)
C9 C 0.34633(28) -0.03446(20) 0.06525(7)
C10 C 0.32084(34) -0.07643(24) 0.01858(8)
C11 C 0.36916(35) -0.19464(25) 0.00534(9)
C12 C 0.44350(33) -0.27194(23) 0.03871(9)
C13 C 0.46827(28) -0.23183(19) 0.08539(8)
H1 H 0.5960(22) 0.1635(16) 0.2530(7)
H2 H 0.5964(19) 0.1158(14) 0.1087(6)
H3 H 0.3646(26) 0.2614(17) 0.1365(7)
H4 H 0.3725(29) 0.3031(18) 0.2156(7)
H5 H 0.7531(29) 0.0612(18) 0.1858(7)
H6 H 0.7681(26) 0.2108(18) 0.1763(7)
H7 H 0.5691(32) 0.4177(22) 0.2430(11)
H8 H 0.3106(24) 0.0472(19) 0.0756(7)
H9 H 0.2681(29) -0.0220(1) -0.0034(8)
H10 H 0.3454(32) -0.2261(20) -0.0266(8)
H11 H 0.4766(28) -0.3491(22) 0.0288(7)
H12 H 0.5156(25) -0.2829(17) 0.1068(7)
#END
