
#######################################################################
#
#                 Cambridge Crystallographic Data Centre
#                                CCDC
#
#######################################################################
#
# If this CIF has been generated from an entry in the Cambridge
# Structural Database, then it will include bibliographic, chemical,
# crystal, experimental, refinement or atomic coordinate data resulting
# from the CCDC's data processing and validation procedures.
#
#######################################################################

data_CSD_CIF_EHUPEE
_audit_creation_date 2016-03-21
_audit_creation_method CSD-ConQuest-V1
_database_code_CSD EHUPEE
_database_code_depnum_ccdc_archive 'CCDC 1451888'
_chemical_formula_sum 'C21 H20 N2 O6'
_chemical_formula_moiety
;
C21 H20 N2 O6
;
_journal_coden_Cambridge 4
_journal_volume 138
_journal_year 2016
_journal_page_first 3310
_journal_name_full 'J.Am.Chem.Soc. '
loop_
_publ_author_name
"Jung-Woo Park"
"Zhiwei Chen"
"Vy M.Dong"
_chemical_name_systematic
;
(3-methyl-3,6-dihydrobiphenyl-1(2H)-yl)methyl 3,5-dinitrobenzoate
;
_cell_volume   1913.447
_exptl_crystal_colour 'colorless'
_exptl_crystal_density_diffrn 1.376
_exptl_special_details
;
Absolute configuration

;
_exptl_crystal_description 'block'
_diffrn_ambient_temperature 125
#These two values have been output from a single CSD field.
_refine_ls_R_factor_gt 0.0301
_refine_ls_wR_factor_gt 0.0301
_symmetry_cell_setting orthorhombic
_symmetry_space_group_name_H-M 'P 21 21 21'
_symmetry_Int_Tables_number 19
loop_
_symmetry_equiv_pos_site_id
_symmetry_equiv_pos_as_xyz
1 x,y,z
2 1/2-x,-y,1/2+z
3 -x,1/2+y,1/2-z
4 1/2+x,1/2-y,-z
_cell_length_a 5.8648(6)
_cell_length_b 9.7519(9)
_cell_length_c 33.456(3)
_cell_angle_alpha 90
_cell_angle_beta 90
_cell_angle_gamma 90
_cell_formula_units_Z 4
loop_
_atom_type_symbol
_atom_type_radius_bond
C 0.68
H 0.23
N 0.68
O 0.68
loop_
_atom_site_label
_atom_site_type_symbol
_atom_site_fract_x
_atom_site_fract_y
_atom_site_fract_z
O1 O 0.43294(19) 0.57386(11) 0.59573(3)
O2 O 0.1379(2) 0.65130(12) 0.55944(3)
O3 O 1.0536(2) 0.33734(13) 0.53154(4)
O4 O 1.0848(2) 0.33794(14) 0.46716(4)
O5 O 0.5335(2) 0.58306(12) 0.38683(3)
O6 O 0.2270(2) 0.65901(13) 0.41525(3)
N1 N 0.9865(2) 0.36907(14) 0.49815(4)
N2 N 0.4151(3) 0.60530(14) 0.41625(4)
C1 C 0.4487(3) 0.55200(16) 0.66719(4)
C2 C 0.6697(3) 0.63521(16) 0.67127(5)
H1 H 0.77620 0.58510 0.68900
H2 H 0.74240 0.64310 0.64470
C3 C 0.6314(3) 0.77675(18) 0.68791(5)
H3 H 0.75030 0.84220 0.68510
C4 C 0.4427(3) 0.81566(17) 0.70622(5)
H4 H 0.43320 0.90750 0.71550
C5 C 0.2430(3) 0.72311(18) 0.71311(5)
H5 H 0.12210 0.74840 0.69340
C6 C 0.3080(3) 0.57359(16) 0.70564(4)
H6 H 0.16700 0.51810 0.70390
H7 H 0.39710 0.53970 0.72870
C7 C 0.4950(3) 0.39970(16) 0.65954(4)
C8 C 0.3297(3) 0.30117(17) 0.66739(5)
H8 H 0.18910 0.32830 0.67910
C9 C 0.3659(3) 0.16366(18) 0.65845(5)
H9 H 0.25100 0.09800 0.66430
C10 C 0.5673(3) 0.12200(17) 0.64113(5)
H10 H 0.59200 0.02800 0.63510
C11 C 0.7327(3) 0.21836(18) 0.63271(5)
H11 H 0.87180 0.19080 0.62060
C12 C 0.6965(3) 0.35563(17) 0.64186(5)
H12 H 0.81200 0.42080 0.63590
C13 C 0.1429(4) 0.7407(2) 0.75487(5)
H13 H 0.25800 0.71620 0.77490
H14 H 0.00980 0.68080 0.75790
H15 H 0.09660 0.83630 0.75870
C14 C 0.3089(3) 0.60629(16) 0.63199(4)
H16 H 0.15670 0.56250 0.63150
H17 H 0.28820 0.70670 0.63440
C15 C 0.3260(3) 0.60165(16) 0.56179(4)
C16 C 0.4648(3) 0.56262(15) 0.52629(5)
C17 C 0.3837(3) 0.60177(15) 0.48905(5)
H18 H 0.24740 0.65380 0.48670
C18 C 0.5045(3) 0.56377(15) 0.45546(5)
C19 C 0.7030(3) 0.48818(16) 0.45721(5)
H19 H 0.78410 0.46280 0.43380
C20 C 0.7777(3) 0.45134(15) 0.49499(5)
C21 C 0.6648(3) 0.48711(15) 0.52961(5)
H20 H 0.72230 0.46080 0.55500
#END
