
#######################################################################
#
#                 Cambridge Crystallographic Data Centre
#                                CCDC
#
#######################################################################
#
# If this CIF has been generated from an entry in the Cambridge
# Structural Database, then it will include bibliographic, chemical,
# crystal, experimental, refinement or atomic coordinate data resulting
# from the CCDC's data processing and validation procedures.
#
#######################################################################

data_CSD_CIF_EHUWIP
_audit_creation_date 2016-03-21
_audit_creation_method CSD-ConQuest-V1
_database_code_CSD EHUWIP
_database_code_depnum_ccdc_archive 'CCDC 1439584'
_chemical_formula_sum 'C26 H19 N3 O2'
_chemical_formula_moiety
;
C26 H19 N3 O2
;
_journal_coden_Cambridge 1336
_journal_volume 18
_journal_year 2016
_journal_page_first 1342
_journal_name_full 'Org.Lett. '
loop_
_publ_author_name
"Qun Cai"
"Deng-Kui Li"
"Rong-Rong Zhou"
"Wen-Ming Shu"
"Yan-Dong Wu"
"An-Xin Wu"
_chemical_name_systematic
;
2-nitro-1,3-diphenyl-6,11-dihydro-5H-indolizino[8,7-b]indole
;
_cell_volume   2027.719
_exptl_crystal_colour 'colorless'
_exptl_crystal_density_diffrn 1.328
_exptl_crystal_description 'block'
_diffrn_ambient_temperature 298
#These two values have been output from a single CSD field.
_refine_ls_R_factor_gt 0.0489
_refine_ls_wR_factor_gt 0.0489
_symmetry_cell_setting monoclinic
_symmetry_space_group_name_H-M 'P 21/c'
_symmetry_Int_Tables_number 14
loop_
_symmetry_equiv_pos_site_id
_symmetry_equiv_pos_as_xyz
1 x,y,z
2 -x,1/2+y,1/2-z
3 -x,-y,-z
4 x,-1/2-y,-1/2+z
_cell_length_a 10.0072(10)
_cell_length_b 23.043(2)
_cell_length_c 9.4047(9)
_cell_angle_alpha 90
_cell_angle_beta 110.772(2)
_cell_angle_gamma 90
_cell_formula_units_Z 4
loop_
_atom_type_symbol
_atom_type_radius_bond
C 0.68
H 0.23
N 0.68
O 0.68
loop_
_atom_site_label
_atom_site_type_symbol
_atom_site_fract_x
_atom_site_fract_y
_atom_site_fract_z
C1 C 0.24629(19) 0.48338(7) 0.2603(2)
H1 H 0.29210 0.51910 0.28520
C2 C 0.1919(2) 0.46576(7) 0.1112(2)
H2 H 0.20040 0.48970 0.03530
C3 C 0.12508(18) 0.41289(7) 0.07391(18)
H3 H 0.09020 0.40100 -0.02720
N1 N 0.02565(14) 0.11190(5) 0.15607(15)
C4 C 0.2448(2) -0.02158(7) 0.24570(19)
H4 H 0.24040 -0.06190 0.24240
C5 C 0.38980(18) 0.06510(8) 0.31021(18)
H5 H 0.47900 0.08280 0.34880
C6 C 0.37780(19) 0.00579(8) 0.30263(19)
H6 H 0.46020 -0.01670 0.33620
C7 C 0.33152(17) 0.21118(7) 0.2849(2)
H7 H 0.36170 0.21960 0.19990
H8 H 0.41610 0.20300 0.37310
O1 O -0.18485(17) 0.39213(6) -0.0348(2)
O2 O -0.33088(13) 0.32285(5) -0.07496(17)
N2 N 0.11046(13) 0.26930(5) 0.20261(14)
C8 C 0.08989(15) 0.16570(6) 0.18597(16)
C9 C 0.13100(16) 0.06993(7) 0.19990(16)
C10 C 0.12019(18) 0.01008(7) 0.19433(18)
H9 H 0.03160 -0.00820 0.15710
C11 C 0.16411(17) 0.39528(7) 0.33646(17)
H10 H 0.15450 0.37190 0.41290
C12 C 0.23300(18) 0.44825(7) 0.37308(19)
H11 H 0.27040 0.46010 0.47400
C13 C 0.26438(16) 0.09850(7) 0.25848(16)
C14 C 0.23546(16) 0.15942(7) 0.24877(17)
C15 C -0.29590(18) 0.16964(7) 0.0579(2)
H12 H -0.25800 0.17070 0.16360
C16 C -0.29279(17) 0.20021(7) -0.18179(18)
H13 H -0.25330 0.22210 -0.24010
N3 N -0.21022(14) 0.34167(6) -0.02289(15)
C17 C 0.10898(15) 0.37683(6) 0.18554(16)
C18 C 0.04020(15) 0.31960(6) 0.14488(16)
C19 C 0.02215(15) 0.22178(6) 0.14845(16)
C20 C 0.25486(17) 0.26306(7) 0.3168(2)
H14 H 0.24820 0.25900 0.41680
H15 H 0.30960 0.29780 0.31740
C21 C -0.10987(15) 0.24094(6) 0.05404(15)
C22 C -0.23466(14) 0.20343(6) -0.02487(16)
C23 C -0.41200(19) 0.13451(8) -0.0138(2)
H16 H -0.45180 0.11230 0.04370
C24 C -0.46871(18) 0.13220(8) -0.1689(2)
H17 H -0.54730 0.10870 -0.21720
C25 C -0.40882(19) 0.16482(8) -0.2529(2)
H18 H -0.44660 0.16310 -0.35850
C26 C -0.09635(15) 0.30264(6) 0.05119(16)
H19 H -0.0666(16) 0.1069(8) 0.113(2)
#END
