
#######################################################################
#
#                 Cambridge Crystallographic Data Centre
#                                CCDC
#
#######################################################################
#
# If this CIF has been generated from an entry in the Cambridge
# Structural Database, then it will include bibliographic, chemical,
# crystal, experimental, refinement or atomic coordinate data resulting
# from the CCDC's data processing and validation procedures.
#
#######################################################################

data_CSD_CIF_EJUKID
_audit_creation_date 2003-11-07
_audit_creation_method CSD-ConQuest-V1
_database_code_CSD EJUKID
_database_code_depnum_ccdc_archive 'CCDC 205855'
_chemical_formula_sum 'C24 H29 N1 O13'
_chemical_formula_moiety
;
C24 H29 N1 O13
;
_journal_coden_Cambridge 1090
_journal_volume 14
_journal_year 2003
_journal_page_first 1653
_journal_name_full 'Tetrahedron:Asymm. '
loop_
_publ_author_name
"R.G.Soengas"
"J.C.Estevez"
"R.J.Estevez"
"M.A.Maestro"
_chemical_name_systematic
;
2,3,5,6-Tetraacetoxy-4-O-benzyl-1-ethoxycarbonyl-1-nitrocyclohexane
;
_cell_volume   2764.238
_exptl_crystal_colour 'colorless'
_exptl_crystal_density_diffrn 1.296
_exptl_crystal_description 'block'
_diffrn_ambient_temperature 298
_refine_special_details
;
One C and one O atom are disordered over two sites with occupancies 
;
#These two values have been output from a single CSD field.
_refine_ls_R_factor_gt 0.0489
_refine_ls_wR_factor_gt 0.0489
_symmetry_cell_setting monoclinic
_symmetry_space_group_name_H-M 'P 21/c'
_symmetry_Int_Tables_number 14
loop_
_symmetry_equiv_pos_site_id
_symmetry_equiv_pos_as_xyz
1 x,y,z
2 x,1/2-y,1/2+z
3 -x,-y,-z
4 -x,-1/2+y,-1/2-z
_cell_length_a 13.4437(10)
_cell_length_b 14.7101(11)
_cell_length_c 14.2612(10)
_cell_angle_alpha 90
_cell_angle_beta 101.440(2)
_cell_angle_gamma 90
_cell_formula_units_Z 4
loop_
_atom_type_symbol
_atom_type_radius_bond
C 0.68
H 0.23
N 0.68
O 0.68
loop_
_atom_site_label
_atom_site_type_symbol
_atom_site_fract_x
_atom_site_fract_y
_atom_site_fract_z
O1 O 0.50892(13) -0.05716(12) 0.12741(14)
O2 O 0.55917(14) -0.07212(13) 0.27922(14)
O3 O 0.76834(13) 0.04947(13) 0.10453(13)
O4 O 0.72780(12) -0.08771(13) 0.15181(12)
O5 O 0.50163(8) 0.13436(9) 0.20139(9)
O6 O 0.38729(14) 0.16145(19) 0.06667(15)
O7 O 0.58008(11) 0.27799(10) 0.11242(10)
O8 O 0.59811(15) 0.24036(14) -0.03502(12)
O9 O 0.75721(10) 0.30499(10) 0.25415(11)
O10 O 0.78399(9) 0.17673(11) 0.40221(10)
O11 O 0.9490(8) 0.1780(7) 0.3932(9)
O12? O 0.9426(13) 0.1453(19) 0.4118(14)
O13 O 0.76111(11) -0.00699(11) 0.33940(12)
O14 O 0.7052(2) -0.00708(19) 0.47799(15)
N1 N 0.56311(13) -0.03753(13) 0.20290(16)
C1 C 0.64063(13) 0.03800(13) 0.19959(13)
C2 C 0.58052(14) 0.11789(14) 0.14835(15)
H1 H 0.5518(14) 0.1033(13) 0.0868(14)
C3 C 0.64428(15) 0.20369(15) 0.15205(14)
H2 H 0.6946(16) 0.1921(13) 0.1187(14)
C4 C 0.69128(14) 0.23025(14) 0.25366(15)
H3 H 0.6407(13) 0.2457(11) 0.2893(12)
C5 C 0.75326(14) 0.15174(14) 0.30314(14)
H4 H 0.8119(16) 0.1428(13) 0.2774(13)
C6 C 0.69303(14) 0.06454(14) 0.30155(14)
H5 H 0.6450(13) 0.0730(12) 0.3402(12)
C7 C 0.71932(15) 0.00083(18) 0.14414(16)
C8 C 0.8071(3) -0.1286(3) 0.1063(2)
C9 C 0.8916(6) -0.1559(10) 0.1816(5)
H6 H 0.94320 -0.18380 0.15340
H7 H 0.86810 -0.19860 0.22330
H8 H 0.91910 -0.10340 0.21760
C10? C 0.833(3) -0.2028(13) 0.139(2)
H9? H 0.88470 -0.22680 0.10880
H10? H 0.77540 -0.24300 0.12840
H11? H 0.85870 -0.19740 0.20680
C11 C 0.40822(16) 0.15920(18) 0.15209(19)
C12 C 0.3411(2) 0.1830(3) 0.2183(3)
H12 H 0.343(3) 0.133(3) 0.270(3)
H13 H 0.367(4) 0.233(4) 0.257(3)
H14 H 0.278(3) 0.188(2) 0.190(2)
C13 C 0.56255(19) 0.28874(18) 0.01579(17)
C14 C 0.4942(4) 0.3682(3) -0.0126(3)
H15 H 0.490(3) 0.383(2) -0.071(3)
H16 H 0.486(4) 0.406(4) 0.030(4)
H17 H 0.417(5) 0.331(4) -0.026(4)
C15 C 0.7233(2) 0.38666(19) 0.2933(3)
H18 H 0.694(3) 0.379(3) 0.353(3)
H19 H 0.661(3) 0.403(2) 0.241(2)
C16 C 0.80409(15) 0.45618(14) 0.29709(15)
C17 C 0.8326(2) 0.4891(2) 0.2175(2)
H20 H 0.791(3) 0.470(2) 0.157(2)
C18 C 0.9075(3) 0.5522(2) 0.2220(3)
H21 H 0.917(4) 0.571(3) 0.155(3)
C19 C 0.9553(2) 0.5855(2) 0.3047(3)
H22 H 1.016(3) 0.635(2) 0.307(2)
C20 C 0.9305(3) 0.5564(2) 0.3854(2)
H23 H 0.972(3) 0.577(3) 0.442(3)
C21 C 0.8544(3) 0.4910(2) 0.3834(2)
H24 H 0.832(2) 0.471(2) 0.433(2)
C22 C 0.88193(16) 0.18572(17) 0.44070(17)
C23 C 0.8946(2) 0.2210(2) 0.54030(19)
H25 H 0.96560 0.22750 0.56730
H26 H 0.86450 0.17920 0.57830
H27 H 0.86190 0.27910 0.53950
C24 C 0.7568(3) -0.0385(2) 0.4284(2)
C25 C 0.8262(3) -0.1191(3) 0.4510(3)
H28 H 0.82330 -0.14160 0.51360
H29 H 0.89440 -0.10120 0.44920
H30 H 0.80500 -0.16610 0.40460
#END
