
#######################################################################
#
#                 Cambridge Crystallographic Data Centre
#                                CCDC
#
#######################################################################
#
# If this CIF has been generated from an entry in the Cambridge
# Structural Database, then it will include bibliographic, chemical,
# crystal, experimental, refinement or atomic coordinate data resulting
# from the CCDC's data processing and validation procedures.
#
#######################################################################

data_CSD_CIF_EKUWEN
_audit_creation_date 2011-05-12
_audit_creation_method CSD-ConQuest-V1
_database_code_CSD EKUWEN
_database_code_depnum_ccdc_archive 'CCDC 768639'
_chemical_formula_sum 'C25 H19 N1 O5'
_chemical_formula_moiety
;
C25 H19 N1 O5
;
_journal_coden_Cambridge 1336
_journal_volume 12
_journal_year 2010
_journal_page_first 3066
_journal_name_full 'Org.Lett. '
loop_
_publ_author_name
"Tzu-Ting Kao"
"Siang-en Syu"
"Yi-Wun Jhang"
"Wenwei Lin"
_chemical_name_systematic
;
Ethyl 4-(4-nitrophenyl)-2,5-diphenyl-3-furoate
;
_cell_volume   2022.641
_exptl_crystal_colour 'colorless'
_exptl_crystal_density_diffrn 1.358
_exptl_crystal_description 'prism'
_diffrn_ambient_temperature 200
#These two values have been output from a single CSD field.
_refine_ls_R_factor_gt 0.0379
_refine_ls_wR_factor_gt 0.0379
_symmetry_cell_setting monoclinic
_symmetry_space_group_name_H-M 'P 21/c'
_symmetry_Int_Tables_number 14
loop_
_symmetry_equiv_pos_site_id
_symmetry_equiv_pos_as_xyz
1 x,y,z
2 -x,1/2+y,1/2-z
3 -x,-y,-z
4 x,-1/2-y,-1/2+z
_cell_length_a 12.2495(14)
_cell_length_b 9.5744(11)
_cell_length_c 17.716(2)
_cell_angle_alpha 90
_cell_angle_beta 103.227(3)
_cell_angle_gamma 90
_cell_formula_units_Z 4
loop_
_atom_type_symbol
_atom_type_radius_bond
C 0.68
H 0.23
N 0.68
O 0.68
loop_
_atom_site_label
_atom_site_type_symbol
_atom_site_fract_x
_atom_site_fract_y
_atom_site_fract_z
C1 C 0.39718(12) 1.01476(15) 0.26420(8)
C2 C 0.48959(12) 0.94109(15) 0.30292(8)
H1 H 0.49520 0.90970 0.35450
C3 C 0.57422(12) 0.91379(15) 0.26478(8)
H2 H 0.63930 0.86450 0.29070
C4 C 0.56445(11) 0.95809(13) 0.18891(8)
C5 C 0.46918(12) 1.03042(14) 0.15122(8)
H3 H 0.46200 1.05960 0.09910
C6 C 0.38479(12) 1.06038(15) 0.18875(8)
H4 H 0.32000 1.11090 0.16340
C7 C 0.65611(11) 0.93241(14) 0.14841(8)
C8 C 0.75965(11) 0.99174(14) 0.16706(8)
C9 C 0.81663(11) 1.08662(14) 0.22804(8)
C10 C 0.75600(12) 1.18330(15) 0.26120(9)
H5 H 0.67710 1.19070 0.24250
C11 C 0.81062(13) 1.26818(15) 0.32120(9)
H6 H 0.76870 1.33280 0.34390
C12 C 0.92515(13) 1.26005(16) 0.34832(9)
H7 H 0.96200 1.31820 0.38980
C13 C 0.98624(13) 1.16679(17) 0.31487(9)
H8 H 1.06540 1.16210 0.33290
C14 C 0.93289(12) 1.08057(15) 0.25543(8)
H9 H 0.97560 1.01660 0.23300
C15 C 0.75633(11) 0.85866(14) 0.06394(8)
C16 C 0.81095(11) 0.80230(15) 0.00485(8)
C17 C 0.87504(12) 0.89121(16) -0.03006(8)
H10 H 0.88060 0.98750 -0.01680
C18 C 0.93040(14) 0.83990(18) -0.08380(9)
H11 H 0.97410 0.90100 -0.10720
C19 C 0.92270(15) 0.7010(2) -0.1036(1)
H12 H 0.96060 0.66620 -0.14090
C20 C 0.85950(15) 0.61183(18) -0.06908(11)
H13 H 0.85440 0.51560 -0.08260
C21 C 0.80406(13) 0.66186(16) -0.01528(10)
H14 H 0.76090 0.60010 0.00820
C22 C 0.65372(11) 0.84555(13) 0.08153(8)
C23 C 0.56096(12) 0.75804(14) 0.03886(8)
C24 C 0.38269(12) 0.66241(15) 0.04184(9)
H15 H 0.34670 0.62250 0.08170
H16 H 0.40420 0.58420 0.01170
C25 C 0.30068(14) 0.75522(19) -0.01130(11)
H17 H 0.23450 0.70070 -0.03620
H18 H 0.33600 0.79400 -0.05110
H19 H 0.27800 0.83150 0.01870
N1 N 0.30757(11) 1.04624(15) 0.30392(8)
O1 O 0.31542(11) 1.00129(15) 0.36922(7)
O2 O 0.22992(11) 1.11899(18) 0.27039(8)
O3 O 0.82158(8) 0.94720(9) 0.11572(5)
O4 O 0.55537(9) 0.70913(11) -0.02440(6)
O5 O 0.48263(8) 0.73971(10) 0.07963(6)
#END
