
#######################################################################
#
#                 Cambridge Crystallographic Data Centre
#                                CCDC
#
#######################################################################
#
# If this CIF has been generated from an entry in the Cambridge
# Structural Database, then it will include bibliographic, chemical,
# crystal, experimental, refinement or atomic coordinate data resulting
# from the CCDC's data processing and validation procedures.
#
#######################################################################

data_CSD_CIF_ELUDEV01
_audit_creation_date 2016-01-21
_audit_creation_method CSD-ConQuest-V1
_database_code_CSD ELUDEV01
_database_code_depnum_ccdc_archive 'CCDC 1037964'
_chemical_formula_sum 'C4 H2 N10 O6'
_chemical_formula_moiety
;
C4 H2 N10 O6
;
_journal_coden_Cambridge 983
_journal_volume 119
_journal_year 2015
_journal_page_first 12887
_journal_name_full 'J.Phys.Chem.C '
loop_
_publ_author_name
"Jiaheng Zhang"
"J.M.Shreeve"
_chemical_name_systematic
;
N,N'-(diazenediyldi(1,2,5-oxadiazole-4,3-diyl))dinitramide
;
_cell_volume    485.516
_exptl_crystal_colour 'yellow'
_exptl_crystal_density_diffrn 1.957
_diffrn_ambient_temperature 150
#These two values have been output from a single CSD field.
_refine_ls_R_factor_gt 0.0425
_refine_ls_wR_factor_gt 0.0425
_symmetry_cell_setting monoclinic
_symmetry_space_group_name_H-M 'P 21/c'
_symmetry_Int_Tables_number 14
loop_
_symmetry_equiv_pos_site_id
_symmetry_equiv_pos_as_xyz
1 x,y,z
2 -x,1/2+y,1/2-z
3 -x,-y,-z
4 x,-1/2-y,-1/2+z
_cell_length_a 5.6265(7)
_cell_length_b 9.1195(10)
_cell_length_c 9.5532(11)
_cell_angle_alpha 90
_cell_angle_beta 97.913(4)
_cell_angle_gamma 90
_cell_formula_units_Z 2
loop_
_atom_type_symbol
_atom_type_radius_bond
C 0.68
H 0.23
N 0.68
O 0.68
loop_
_atom_site_label
_atom_site_type_symbol
_atom_site_fract_x
_atom_site_fract_y
_atom_site_fract_z
O1 O -0.01481(15) 0.39383(10) 0.88949(8)
O2 O 0.56597(16) 0.16815(10) 0.82045(9)
O3 O 0.65670(18) 0.14971(12) 0.60699(10)
N1 N -0.07083(16) 0.51339(10) 0.54408(9)
N2 N -0.12352(17) 0.47068(11) 0.77747(10)
N3 N 0.18398(18) 0.31607(10) 0.85617(10)
N4 N 0.36080(17) 0.29461(10) 0.64282(10)
H1 H 0.341(3) 0.294(2) 0.554(2)
N5 N 0.53798(17) 0.19626(11) 0.69452(10)
C1 C 0.00060(18) 0.44452(11) 0.67383(10)
C2 C 0.19437(18) 0.34613(11) 0.72352(10)
O1B O 0.01481(15) 0.60617(10) 0.11051(8)
O2B O -0.56597(16) 0.83185(10) 0.17955(9)
O3B O -0.65670(18) 0.85029(12) 0.39301(10)
N1B N 0.07083(16) 0.48661(10) 0.45592(9)
N2B N 0.12352(17) 0.52932(11) 0.22253(10)
N3B N -0.18398(18) 0.68393(10) 0.14383(10)
N4B N -0.36080(17) 0.70539(10) 0.35718(10)
H1B H -0.341(3) 0.706(2) 0.446(2)
N5B N -0.53798(17) 0.80374(11) 0.30548(10)
C1B C -0.00060(18) 0.55548(11) 0.32617(10)
C2B C -0.19437(18) 0.65387(11) 0.27648(10)
#END
