
#######################################################################
#
#                 Cambridge Crystallographic Data Centre
#                                CCDC
#
#######################################################################
#
# If this CIF has been generated from an entry in the Cambridge
# Structural Database, then it will include bibliographic, chemical,
# crystal, experimental, refinement or atomic coordinate data resulting
# from the CCDC's data processing and validation procedures.
#
#######################################################################

data_CSD_CIF_EMOPIG
_audit_creation_date 2011-06-07
_audit_creation_method CSD-ConQuest-V1
_database_code_CSD EMOPIG
_database_code_depnum_ccdc_archive 'CCDC 295392'
_chemical_formula_sum 'C15 H13 N1 O5'
_chemical_formula_moiety
;
C15 H13 N1 O5
;
_journal_coden_Cambridge 493
_journal_volume 44
_journal_year 2009
_journal_page_first 5103
_journal_name_full 'Eur.J.Med.Chem. '
loop_
_publ_author_name
"G.Groszek"
"A.Nowak-Krol"
"T.Wdowik"
"D.Swierczynski"
"M.Bednarski"
"M.Otto"
"M.Walczak"
"B.Filipek"
_chemical_name_systematic
;
2-(Benzyloxy)-3-methoxy-6-nitrobenzaldehyde
;
_cell_volume    663.779
_exptl_crystal_colour 'light green'
_exptl_crystal_density_diffrn 1.437
_exptl_crystal_description 'block'
_diffrn_ambient_temperature 100
#These two values have been output from a single CSD field.
_refine_ls_R_factor_gt 0.0317
_refine_ls_wR_factor_gt 0.0317
_symmetry_cell_setting triclinic
_symmetry_space_group_name_H-M 'P -1'
_symmetry_Int_Tables_number 2
loop_
_symmetry_equiv_pos_site_id
_symmetry_equiv_pos_as_xyz
1 x,y,z
2 -x,-y,-z
_cell_length_a 8.5710(3)
_cell_length_b 8.7110(2)
_cell_length_c 9.5770(4)
_cell_angle_alpha 82.678(2)
_cell_angle_beta 77.641(2)
_cell_angle_gamma 72.264(2)
_cell_formula_units_Z 2
loop_
_atom_type_symbol
_atom_type_radius_bond
C 0.68
H 0.23
N 0.68
O 0.68
loop_
_atom_site_label
_atom_site_type_symbol
_atom_site_fract_x
_atom_site_fract_y
_atom_site_fract_z
C1 C 0.91354(15) -0.24660(14) 0.68758(14)
H1 H 0.98420 -0.24660 0.59640
C2 C 0.94092(16) -0.38347(16) 0.78176(16)
H2 H 1.03120 -0.47620 0.75530
C3 C 0.83731(17) -0.38483(16) 0.91347(15)
H3 H 0.85580 -0.47900 0.97700
C4 C 0.70647(17) -0.24972(17) 0.95369(14)
H4 H 0.63520 -0.25080 1.04440
C5 C 0.68031(16) -0.11282(16) 0.86037(14)
H5 H 0.59110 -0.01980 0.88810
C6 C 0.78276(14) -0.10954(14) 0.72673(13)
C7 C 0.75229(15) 0.03902(14) 0.62776(13)
H6 H 0.71040 0.13650 0.68330
H7 H 0.85740 0.04360 0.56230
C8 C 0.62241(14) 0.13980(14) 0.42679(13)
C9 C 0.74047(15) 0.09538(14) 0.30112(13)
C10 C 0.96519(16) -0.11296(16) 0.18564(14)
H8 H 0.89760 -0.12330 0.11870
H9 H 1.03890 -0.21950 0.20880
H10 H 1.03240 -0.04030 0.14150
C11 C 0.73038(15) 0.19571(15) 0.17635(13)
H11 H 0.81060 0.16620 0.09170
C12 C 0.60283(15) 0.33891(14) 0.17579(13)
H12 H 0.59630 0.40910 0.09140
C13 C 0.48540(14) 0.37872(13) 0.29884(13)
C14 C 0.49126(14) 0.28077(14) 0.42679(12)
C15 C 0.35676(15) 0.31052(14) 0.55871(13)
H13 H 0.2446(17) 0.3111(15) 0.5431(14)
O1 O 0.62937(10) 0.03346(9) 0.54584(9)
O2 O 0.85796(10) -0.04834(10) 0.31422(9)
O3 O 0.34446(11) 0.61187(10) 0.18108(9)
O4 O 0.25463(11) 0.5701(1) 0.40803(9)
O5 O 0.38238(11) 0.32486(11) 0.67473(9)
N1 N 0.35342(12) 0.52987(12) 0.29512(11)
#END
