
#######################################################################
#
#                 Cambridge Crystallographic Data Centre
#                                CCDC
#
#######################################################################
#
# If this CIF has been generated from an entry in the Cambridge
# Structural Database, then it will include bibliographic, chemical,
# crystal, experimental, refinement or atomic coordinate data resulting
# from the CCDC's data processing and validation procedures.
#
#######################################################################

data_CSD_CIF_ENUPEK
_audit_creation_date 2016-06-23
_audit_creation_method CSD-ConQuest-V1
_database_code_CSD ENUPEK
_database_code_depnum_ccdc_archive 'CCDC 1033379'
_chemical_formula_sum 'C19 H17 N3 O3'
_chemical_formula_moiety
;
C19 H17 N3 O3
;
_journal_coden_Cambridge 35
_journal_volume 80
_journal_year 2015
_journal_page_first 2103
_journal_name_full 'J.Org.Chem. '
loop_
_publ_author_name
"V.O.Iaroshenko"
"A.Gevorgyan"
"S.Mkrtchyan"
"K.Arakelyan"
"T.Grigoryan"
"J.Yedoyan"
"A.Villinger"
"P.Langer"
_chemical_name_systematic
;
2-(2-methyl-4-nitro-1-(2-phenylethyl)-1H-imidazol-5-yl)benzaldehyde
;
_cell_volume   1677.503
_exptl_crystal_colour 'colorless'
_exptl_crystal_density_diffrn 1.328
_exptl_crystal_description 'block'
_diffrn_ambient_temperature 173
#These two values have been output from a single CSD field.
_refine_ls_R_factor_gt 0.0484
_refine_ls_wR_factor_gt 0.0484
_symmetry_cell_setting monoclinic
_symmetry_space_group_name_H-M 'P 21/c'
_symmetry_Int_Tables_number 14
loop_
_symmetry_equiv_pos_site_id
_symmetry_equiv_pos_as_xyz
1 x,y,z
2 -x,1/2+y,1/2-z
3 -x,-y,-z
4 x,-1/2-y,-1/2+z
_cell_length_a 13.9795(4)
_cell_length_b 8.4328(2)
_cell_length_c 14.2374(4)
_cell_angle_alpha 90
_cell_angle_beta 91.868(2)
_cell_angle_gamma 90
_cell_formula_units_Z 4
loop_
_atom_type_symbol
_atom_type_radius_bond
C 0.68
H 0.23
N 0.68
O 0.68
loop_
_atom_site_label
_atom_site_type_symbol
_atom_site_fract_x
_atom_site_fract_y
_atom_site_fract_z
N1 N 0.89405(8) 0.09794(13) 0.89800(8)
N2 N 1.01015(8) -0.07708(14) 0.87447(8)
N3 N 0.93002(9) -0.31805(14) 0.92004(9)
O1 O 1.00093(9) -0.39415(14) 0.90056(10)
O2 O 0.85794(8) -0.37904(12) 0.95177(9)
O3 O 0.65924(9) -0.36244(15) 0.80468(9)
C1 C 0.98608(10) 0.07364(17) 0.87046(10)
C2 C 0.93015(10) -0.15047(16) 0.90540(9)
C3 C 0.85617(10) -0.04687(15) 0.92125(9)
C4 C 1.05064(11) 0.20292(19) 0.83953(11)
H1 H 1.11530 0.16050 0.83230
H2 H 1.05250 0.28760 0.88670
H3 H 1.02660 0.24560 0.77930
C5 C 0.76087(10) -0.06650(16) 0.96150(9)
C6 C 0.6907(1) -0.16535(16) 0.92006(10)
C7 C 0.60374(11) -0.18553(18) 0.96349(11)
H4 H 0.55620 -0.25280 0.93580
C8 C 0.58621(11) -0.1081(2) 1.04677(11)
H5 H 0.52670 -0.12250 1.07610
C9 C 0.65500(12) -0.0099(2) 1.08750(11)
H6 H 0.64240 0.04380 1.14440
C10 C 0.74191(11) 0.01042(18) 1.0458(1)
H7 H 0.78910 0.07710 1.07460
C11 C 0.70701(11) -0.25029(19) 0.83161(11)
H8 H 0.75760 -0.21540 0.79370
C12 C 0.84477(11) 0.25247(17) 0.89757(11)
H9 H 0.88800 0.33320 0.92630
H10 H 0.78750 0.24490 0.93650
C13 C 0.81411(11) 0.30610(18) 0.79874(12)
H11 H 0.78700 0.41430 0.80240
H12 H 0.87150 0.31180 0.75990
C14 C 0.74141(11) 0.19931(18) 0.75053(11)
C15 C 0.64671(11) 0.1985(2) 0.77745(12)
H13 H 0.62820 0.26370 0.82810
C16 C 0.57914(12) 0.1043(2) 0.73168(13)
H14 H 0.51470 0.10530 0.75090
C17 C 0.60505(14) 0.0088(3) 0.65819(14)
H15 H 0.55850 -0.05550 0.62640
C18 C 0.69841(15) 0.0070(3) 0.63107(14)
H16 H 0.71660 -0.05940 0.58080
C19 C 0.76627(12) 0.1019(2) 0.67695(12)
H17 H 0.83070 0.09990 0.65760
#END
