
#######################################################################
#
#                 Cambridge Crystallographic Data Centre
#                                CCDC
#
#######################################################################
#
# If this CIF has been generated from an entry in the Cambridge
# Structural Database, then it will include bibliographic, chemical,
# crystal, experimental, refinement or atomic coordinate data resulting
# from the CCDC's data processing and validation procedures.
#
#######################################################################

data_CSD_CIF_ERUHEF
_audit_creation_date 2011-08-02
_audit_creation_method CSD-ConQuest-V1
_database_code_CSD ERUHEF
_database_code_depnum_ccdc_archive 'CCDC 828671'
_chemical_formula_sum 'C23 H23 N1 O4'
_chemical_formula_moiety
;
C23 H23 N1 O4
;
_journal_coeditor_code "IUCr HB5875"
_journal_coden_Cambridge 1370
_journal_volume 67
_journal_year 2011
_journal_page_first o1516
_journal_name_full 'Acta Crystallogr.,Sect.E:Struct.Rep.Online '
loop_
_publ_author_name
"Hui Wang"
"Li-juan He"
"Wei-hua Zheng"
"Hua-can Song"
_chemical_name_systematic
;
3-(N-(Benzyloxy)ethanimidoyl)-7-((3-methylbut-2-en-1-yl)oxy)-2H-chromen-2-one
;
_chemical_name_common
;
3-[(E)-1-(Benzyloxyimino)ethyl]-7-(3-methylbut-2-enyloxy)-2H-chromen-2-one
;
_cell_volume    994.961
_exptl_crystal_colour 'colorless'
_exptl_crystal_density_diffrn 1.26
_exptl_crystal_description 'block'
_diffrn_ambient_temperature 273
#These two values have been output from a single CSD field.
_refine_ls_R_factor_gt 0.0522
_refine_ls_wR_factor_gt 0.0522
_symmetry_cell_setting triclinic
_symmetry_space_group_name_H-M 'P -1'
_symmetry_Int_Tables_number 2
loop_
_symmetry_equiv_pos_site_id
_symmetry_equiv_pos_as_xyz
1 x,y,z
2 -x,-y,-z
_cell_length_a 7.3038(19)
_cell_length_b 11.467(3)
_cell_length_c 12.184(3)
_cell_angle_alpha 92.368(3)
_cell_angle_beta 92.067(3)
_cell_angle_gamma 102.340(3)
_cell_formula_units_Z 2
loop_
_atom_type_symbol
_atom_type_radius_bond
C 0.68
H 0.23
N 0.68
O 0.68
loop_
_atom_site_label
_atom_site_type_symbol
_atom_site_fract_x
_atom_site_fract_y
_atom_site_fract_z
N1 N 0.4410(2) 0.43803(16) 0.26381(14)
O1 O 0.59306(19) 0.46642(13) 0.19438(12)
O2 O 0.3010(2) 0.10766(13) 0.38943(12)
O3 O 0.04470(18) 0.14660(12) 0.45666(10)
O4 O -0.50894(19) 0.21552(13) 0.61925(11)
C1 C 0.9868(3) 0.6503(2) 0.19649(18)
H1 H 0.98210 0.64830 0.27260
C2 C 1.1555(3) 0.6776(2) 0.1505(2)
H2 H 1.26480 0.69340 0.19520
C3 C 1.1667(4) 0.6820(3) 0.0413(3)
H3 H 1.28350 0.70110 0.01070
C4 C 1.0072(5) 0.6584(3) -0.0255(2)
H4 H 1.01490 0.66160 -0.10140
C5 C 0.8327(4) 0.6296(2) 0.0215(2)
H5 H 0.72350 0.61320 -0.02320
C6 C 0.8222(3) 0.62545(18) 0.13341(18)
C7 C 0.6388(4) 0.5931(2) 0.1861(3)
H6 H 0.64710 0.63250 0.25870
H7 H 0.54220 0.61840 0.14230
C8 C 0.3842(3) 0.32488(19) 0.26814(16)
C9 C 0.4680(4) 0.2348(2) 0.2070(2)
H8 H 0.50630 0.26420 0.13690
H9 H 0.37650 0.16110 0.19610
H10 H 0.57500 0.22140 0.24860
C10 C 0.2208(3) 0.28938(17) 0.33767(15)
C11 C 0.1984(3) 0.17731(18) 0.39329(15)
C12 C -0.0825(3) 0.21796(17) 0.47168(14)
C13 C 0.0943(3) 0.35857(18) 0.35299(15)
H11 H 0.10910 0.43000 0.31750
C14 C -0.0610(3) 0.32596(17) 0.42160(15)
C15 C -0.1943(3) 0.39482(19) 0.44254(17)
H12 H -0.18390 0.46800 0.41040
C16 C -0.3389(3) 0.35666(19) 0.50912(17)
H13 H -0.42460 0.40420 0.52310
C17 C -0.2289(3) 0.17562(18) 0.53828(15)
H14 H -0.24000 0.10220 0.56990
C18 C -0.3581(3) 0.24560(18) 0.55642(15)
C19 C -0.5503(3) 0.0961(2) 0.65844(17)
H15 H -0.45760 0.08780 0.71500
H16 H -0.54810 0.03810 0.59850
C20 C -0.7401(3) 0.07576(19) 0.70411(16)
H17 H -0.83900 0.07940 0.65500
C21 C -0.7839(3) 0.05328(19) 0.80605(16)
C22 C -0.6452(4) 0.0473(3) 0.89720(19)
H18 H -0.52130 0.06170 0.86960
H19 H -0.67380 -0.03040 0.92680
H20 H -0.65100 0.10690 0.95390
C23 C -0.9843(3) 0.0309(2) 0.8392(2)
H21 H -1.06430 0.03900 0.77700
H22 H -0.99650 0.08790 0.89690
H23 H -1.02000 -0.04840 0.86480
#END
