
#######################################################################
#
#                 Cambridge Crystallographic Data Centre
#                                CCDC
#
#######################################################################
#
# If this CIF has been generated from an entry in the Cambridge
# Structural Database, then it will include bibliographic, chemical,
# crystal, experimental, refinement or atomic coordinate data resulting
# from the CCDC's data processing and validation procedures.
#
#######################################################################

data_CSD_CIF_ESAMUI
_audit_creation_date 2016-08-03
_audit_creation_method CSD-ConQuest-V1
_database_code_CSD ESAMUI
_database_code_depnum_ccdc_archive 'CCDC 1010767'
_chemical_formula_sum 'C18 H12 N4 O4'
_chemical_formula_moiety
;
C18 H12 N4 O4
;
_journal_coden_Cambridge 1500
_journal_volume 6
_journal_year 2016
_journal_page_first 73848
_journal_name_full 'RSC Advances '
loop_
_publ_author_name
"B.Rajarathinam"
"K.Kumaravel"
"G.Vasuki"
_chemical_name_systematic
;
2-amino-6-nitro-4-(2-oxo-2,3-dihydro-1H-indol-3-yl)-4H-chromene-3-carbonitrile
;
_chemical_melting_point 546.15
_cell_volume    864.445
_exptl_crystal_colour 'colorless'
_exptl_crystal_density_diffrn 1.338
_exptl_crystal_description 'block'
_exptl_crystal_preparation 'acetonitrile'
_diffrn_ambient_temperature 293
#These two values have been output from a single CSD field.
_refine_ls_R_factor_gt 0.0715
_refine_ls_wR_factor_gt 0.0715
_symmetry_cell_setting triclinic
_symmetry_space_group_name_H-M 'P -1'
_symmetry_Int_Tables_number 2
loop_
_symmetry_equiv_pos_site_id
_symmetry_equiv_pos_as_xyz
1 x,y,z
2 -x,-y,-z
_cell_length_a 8.7120(17)
_cell_length_b 9.422(2)
_cell_length_c 12.348(3)
_cell_angle_alpha 68.00(2)
_cell_angle_beta 70.789(19)
_cell_angle_gamma 71.259(3)
_cell_formula_units_Z 2
loop_
_atom_type_symbol
_atom_type_radius_bond
C 0.68
H 0.23
N 0.68
O 0.68
loop_
_atom_site_label
_atom_site_type_symbol
_atom_site_fract_x
_atom_site_fract_y
_atom_site_fract_z
O1 O 0.2896(3) 0.2258(3) 0.1524(2)
N1 N 0.3740(4) 0.0218(3) 0.3006(3)
H1 H 0.41540 -0.02430 0.36270
H2 H 0.34360 -0.03190 0.27150
C1 C 0.2717(4) 0.3825(4) 0.0841(3)
C2 C 0.3488(4) 0.4517(4) 0.2348(3)
H3 H 0.44750 0.49290 0.21610
C3 C 0.2984(4) 0.4950(4) 0.1180(3)
C4 C 0.4724(5) 0.2127(4) 0.3840(3)
C5 C 0.3568(4) 0.1764(4) 0.2494(3)
O2 O 0.2959(4) 0.7734(3) 0.2600(3)
C6 C 0.2737(5) 0.6467(4) 0.0422(3)
H4 H 0.29440 0.72530 0.06020
C7 C 0.0385(4) 0.5023(4) 0.3491(3)
C8 C 0.3983(4) 0.2761(4) 0.2844(3)
C9 C 0.2119(4) 0.5251(4) 0.3280(3)
H5 H 0.24490 0.48180 0.40470
C10 C 0.2226(5) 0.4171(5) -0.0211(3)
H6 H 0.20920 0.33820 -0.04290
N2 N 0.5313(5) 0.1667(4) 0.4650(3)
C11 C 0.2195(5) 0.6832(5) -0.0585(3)
N3 N 0.0248(4) 0.7643(4) 0.2834(3)
H7 H -0.01810 0.86350 0.26180
C12 C 0.1874(6) 0.7028(5) 0.2871(3)
N4 N 0.1849(6) 0.8479(6) -0.1338(4)
C13 C -0.0659(5) 0.6495(5) 0.3186(3)
C14 C -0.0242(5) 0.3703(5) 0.3928(3)
H8 H 0.04420 0.27110 0.41600
O3 O 0.1189(6) 0.8793(4) -0.2148(3)
C15 C -0.2329(6) 0.6687(7) 0.3265(4)
H9 H -0.30170 0.76800 0.30440
C16 C 0.1943(5) 0.5711(6) -0.0922(3)
H10 H 0.15870 0.59860 -0.16200
C17 C -0.1932(6) 0.3877(8) 0.4017(4)
H11 H -0.23750 0.29920 0.43030
O4 O 0.2189(6) 0.9461(5) -0.1069(4)
C18 C -0.2935(6) 0.5338(10) 0.3687(4)
H12 H -0.40530 0.54290 0.37460
#END
