
#######################################################################
#
#                 Cambridge Crystallographic Data Centre
#                                CCDC
#
#######################################################################
#
# If this CIF has been generated from an entry in the Cambridge
# Structural Database, then it will include bibliographic, chemical,
# crystal, experimental, refinement or atomic coordinate data resulting
# from the CCDC's data processing and validation procedures.
#
#######################################################################

data_CSD_CIF_ESAXIH
_audit_creation_date 2016-08-04
_audit_creation_method CSD-ConQuest-V1
_database_code_CSD ESAXIH
_database_code_depnum_ccdc_archive 'CCDC 1497545'
_chemical_formula_sum 'C14 H11 N1 O7'
_chemical_formula_moiety
;
C14 H11 N1 O7
;
_journal_coden_Cambridge 1078
_journal_year 2016
_journal_name_full 'CSD Communication(Private Communication) '
loop_
_publ_author_name
"K.-F.Lindahl"
"J.A.Ripper"
"R.J.Quinn"
"A.Carroll"
"A.R.White"
"P.C.Healy"
_chemical_name_systematic
;
dimethyl 2-(2-nitrophenyl)furan-3,4-dicarboxylate
;
_chemical_melting_point 356
_cell_volume    693.386
_exptl_crystal_colour 'yellow'
_exptl_crystal_density_diffrn 1.462
_exptl_special_details
;
Melting point range 356-357K

;
_exptl_crystal_description 'prismatic'
_exptl_crystal_preparation 'ethyl acetate/hexane'
_diffrn_ambient_temperature 295
#These two values have been output from a single CSD field.
_refine_ls_R_factor_gt 0.1175
_refine_ls_wR_factor_gt 0.1175
_symmetry_cell_setting triclinic
_symmetry_space_group_name_H-M 'P -1'
_symmetry_Int_Tables_number 2
loop_
_symmetry_equiv_pos_site_id
_symmetry_equiv_pos_as_xyz
1 x,y,z
2 -x,-y,-z
_cell_length_a 9.000(13)
_cell_length_b 10.60(3)
_cell_length_c 7.950(19)
_cell_angle_alpha 108.48(18)
_cell_angle_beta 101.03(15)
_cell_angle_gamma 96.59(16)
_cell_formula_units_Z 2
loop_
_atom_type_symbol
_atom_type_radius_bond
C 0.68
H 0.23
N 0.68
O 0.68
loop_
_atom_site_label
_atom_site_type_symbol
_atom_site_fract_x
_atom_site_fract_y
_atom_site_fract_z
O1 O 0.1147(4) -0.0079(5) 0.7498(7)
O2 O 0.3500(5) 0.0332(5) 0.9106(5)
O3 O 0.3789(3) 0.3130(3) 0.9922(4)
O4 O 0.8762(3) 0.3000(4) 1.0751(5)
O5 O 0.8032(4) 0.3334(6) 0.8133(6)
O6 O 0.8397(3) 0.5669(3) 1.3067(4)
O7 O 0.7116(3) 0.5206(4) 1.4983(5)
N1 N 0.2547(5) 0.0333(4) 0.7791(6)
C1 C 0.4258(4) 0.1944(4) 0.6999(6)
C2 C 0.3078(5) 0.0813(4) 0.6447(6)
C3 C 0.2423(6) 0.0062(5) 0.4618(7)
H1 H 0.16090 -0.06610 0.42980
C4 C 0.2966(6) 0.0380(5) 0.3296(7)
H2 H 0.25420 -0.01270 0.20680
C5 C 0.4158(6) 0.1469(5) 0.3807(7)
H3 H 0.45580 0.16780 0.29130
C6 C 0.4772(5) 0.2260(5) 0.5632(6)
H4 H 0.55420 0.30150 0.59350
C7 C 0.4867(4) 0.2816(4) 0.8930(6)
C8 C 0.6301(4) 0.3425(4) 1.0014(6)
C9 C 0.6098(4) 0.4129(4) 1.1805(6)
C10 C 0.4553(5) 0.3921(4) 1.1644(6)
H5 H 0.40830 0.42750 1.25900
C11 C 0.7781(4) 0.3267(5) 0.9478(6)
C12 C 1.0289(5) 0.2894(7) 1.0439(8)
H6 H 1.01980 0.22780 0.92260
H7 H 1.08540 0.25650 1.13130
H8 H 1.08250 0.37700 1.05720
C13 C 0.7231(4) 0.5047(4) 1.3479(6)
C14 C 0.9552(5) 0.6645(5) 1.4600(7)
H9 H 0.91810 0.74760 1.50150
H10 H 1.04850 0.68140 1.42230
H11 H 0.97560 0.62920 1.55760
#END
