
#######################################################################
#
#                 Cambridge Crystallographic Data Centre
#                                CCDC
#
#######################################################################
#
# If this CIF has been generated from an entry in the Cambridge
# Structural Database, then it will include bibliographic, chemical,
# crystal, experimental, refinement or atomic coordinate data resulting
# from the CCDC's data processing and validation procedures.
#
#######################################################################

data_CSD_CIF_ESEBUA
_audit_creation_date 2011-07-21
_audit_creation_method CSD-ConQuest-V1
_database_code_CSD ESEBUA
_database_code_depnum_ccdc_archive 'CCDC 813041'
_chemical_formula_sum 'C24 H24 N2 O11'
_chemical_formula_moiety
;
C24 H24 N2 O11
;
_journal_coden_Cambridge 179
_journal_volume 50
_journal_year 2011
_journal_page_first 5149
_journal_name_full 'Angew.Chem.,Int.Ed. '
loop_
_publ_author_name
"K.C.Nicolaou"
"V.A.Adsool"
"C.R.H.Hale"
_chemical_name_systematic
;
(+)-epi-Methyl 
11-((3,5-dinitrobenzoyl)oxy)-12-methoxy-3-oxo-15-oxabicyclo[10.2.1]pentadeca-1
,6,13-triene-2-carboxylate
;
_cell_volume   1265.978
_exptl_crystal_colour 'colorless'
_exptl_crystal_density_diffrn 1.355
_exptl_crystal_description 'parallelepiped'
_diffrn_ambient_temperature 296
#These two values have been output from a single CSD field.
_refine_ls_R_factor_gt 0.0844
_refine_ls_wR_factor_gt 0.0844
loop_
_citation_database_id_CSD
_citation_special_details
ESECEL "is a stereoisomer of this entry"
_symmetry_cell_setting monoclinic
_symmetry_space_group_name_H-M 'P 21'
_symmetry_Int_Tables_number 4
loop_
_symmetry_equiv_pos_site_id
_symmetry_equiv_pos_as_xyz
1 x,y,z
2 -x,1/2+y,-z
_cell_length_a 10.062(2)
_cell_length_b 11.228(2)
_cell_length_c 11.248(2)
_cell_angle_alpha 90
_cell_angle_beta 94.97(3)
_cell_angle_gamma 90
_cell_formula_units_Z 2
loop_
_atom_type_symbol
_atom_type_radius_bond
C 0.68
H 0.23
N 0.68
O 0.68
loop_
_atom_site_label
_atom_site_type_symbol
_atom_site_fract_x
_atom_site_fract_y
_atom_site_fract_z
O1 O 0.9541(5) 0.1858(5) 0.7334(4)
O2 O 0.9435(5) 0.3776(4) 0.5710(4)
O3 O 1.0133(5) 0.4052(4) 0.3811(4)
O4 O 1.0412(7) 0.5589(7) 0.8977(5)
O5 O 1.0020(6) 0.3856(5) 0.9813(4)
O6 O 0.7790(5) 0.5349(4) 0.3128(4)
O7 O 0.7313(6) 0.6924(5) 0.4234(5)
O8 O 0.7003(8) 0.5529(8) -0.1155(6)
O9 O 0.6818(7) 0.7228(8) -0.2042(6)
O10 O 0.5912(9) 1.0704(7) 0.0264(10)
O11 O 0.6332(12) 1.0687(8) 0.2168(10)
N1 N 0.6924(8) 0.6626(11) -0.1137(8)
N2 N 0.6289(10) 1.0230(9) 0.1199(12)
C1 C 0.9661(6) 0.3922(7) 0.7796(6)
C2 C 0.9088(7) 0.2695(7) 0.7850(6)
C3 C 0.7881(7) 0.2543(7) 0.8575(6)
H1 H 0.81100 0.20010 0.92330
H2 H 0.76550 0.33060 0.89070
C4 C 0.6690(9) 0.2065(8) 0.7822(7)
H3 H 0.59690 0.19160 0.83220
H4 H 0.69220 0.13150 0.74650
C5 C 0.6228(8) 0.2948(8) 0.6843(9)
H5 H 0.62540 0.37550 0.70280
C6 C 0.5805(10) 0.2642(10) 0.5776(10)
H6 H 0.58130 0.18350 0.55930
C7 C 0.5297(9) 0.3488(9) 0.4795(9)
H7 H 0.43440 0.33690 0.46290
H8 H 0.54330 0.42990 0.50790
C8 C 0.5941(10) 0.3351(9) 0.3669(9)
H9 H 0.56280 0.39890 0.31330
H10 H 0.56410 0.26060 0.33000
C9 C 0.7415(8) 0.3361(6) 0.3771(7)
H11 H 0.77320 0.31670 0.30040
H12 H 0.77490 0.27600 0.43410
C10 C 0.7950(7) 0.4583(7) 0.4178(6)
H13 H 0.74150 0.48950 0.47950
C11 C 0.9429(7) 0.4565(6) 0.4655(6)
C12 C 0.9927(7) 0.5699(7) 0.5173(6)
H14 H 1.00750 0.63850 0.47410
C13 C 1.0132(7) 0.5596(7) 0.6348(6)
H15 H 1.04590 0.61950 0.68650
C14 C 0.9777(7) 0.4427(6) 0.6699(7)
C15 C 1.0072(9) 0.4575(10) 0.8880(8)
C16 C 1.0301(9) 0.435(1) 1.0997(6)
H16 H 0.95740 0.48500 1.11840
H17 H 1.11060 0.48130 1.10230
H18 H 1.04110 0.37150 1.15680
C17 C 0.7452(8) 0.6479(8) 0.3280(8)
C18 C 0.7181(7) 0.7096(7) 0.2121(8)
C19 C 0.7211(8) 0.6536(8) 0.1042(8)
H19 H 0.74320 0.57350 0.09950
C20 C 0.6898(8) 0.7212(9) 0.0019(9)
C21 C 0.6572(8) 0.8391(9) 0.0023(9)
H20 H 0.63550 0.88190 -0.06750
C22 C 0.6590(8) 0.8900(8) 0.1134(10)
C23 C 0.6853(8) 0.8328(8) 0.2172(9)
H21 H 0.68230 0.87190 0.28980
C24 C 1.1540(9) 0.4096(10) 0.4034(8)
H22 H 1.18030 0.36990 0.47730
H23 H 1.18260 0.49110 0.40840
H24 H 1.19440 0.37070 0.33960
#END
