
#######################################################################
#
#                 Cambridge Crystallographic Data Centre
#                                CCDC
#
#######################################################################
#
# If this CIF has been generated from an entry in the Cambridge
# Structural Database, then it will include bibliographic, chemical,
# crystal, experimental, refinement or atomic coordinate data resulting
# from the CCDC's data processing and validation procedures.
#
#######################################################################

data_CSD_CIF_ETAGEM
_audit_creation_date 2011-09-14
_audit_creation_method CSD-ConQuest-V1
_database_code_CSD ETAGEM
_database_code_depnum_ccdc_archive 'CCDC 836851'
_chemical_formula_sum 'C13 H15 N1 O3'
_chemical_formula_moiety
;
C13 H15 N1 O3
;
_journal_coden_Cambridge 4
_journal_volume 133
_journal_year 2011
_journal_page_first 1769
_journal_name_full 'J.Am.Chem.Soc. '
loop_
_publ_author_name
"A.M.Jadhav"
"S.Bhunia"
"Hsin-Yi Liao"
"Rai-Shung Liu"
_chemical_name_systematic
;
11-Ethoxy-4-methyl-12-oxa-1-azatricyclo[7.2.1.0^2,7^]dodeca-2,4,6-trien-8-one
;
_cell_volume   1142.369
_exptl_crystal_colour 'colorless'
_exptl_crystal_density_diffrn 1.356
_exptl_crystal_description 'tabular'
_diffrn_ambient_temperature 100
#These two values have been output from a single CSD field.
_refine_ls_R_factor_gt 0.0462
_refine_ls_wR_factor_gt 0.0462
_symmetry_cell_setting monoclinic
_symmetry_space_group_name_H-M 'P 21/c'
_symmetry_Int_Tables_number 14
loop_
_symmetry_equiv_pos_site_id
_symmetry_equiv_pos_as_xyz
1 x,y,z
2 -x,1/2+y,1/2-z
3 -x,-y,-z
4 x,-1/2-y,-1/2+z
_cell_length_a 11.3656(8)
_cell_length_b 13.4721(9)
_cell_length_c 7.4844(5)
_cell_angle_alpha 90
_cell_angle_beta 94.562(1)
_cell_angle_gamma 90
_cell_formula_units_Z 4
loop_
_atom_type_symbol
_atom_type_radius_bond
C 0.68
H 0.23
N 0.68
O 0.68
loop_
_atom_site_label
_atom_site_type_symbol
_atom_site_fract_x
_atom_site_fract_y
_atom_site_fract_z
C1 C 0.71349(16) 0.79808(14) 0.3803(2)
C2 C 0.73208(17) 0.69743(14) 0.3623(2)
H1 H 0.66690 0.65310 0.35610
C3 C 0.84610(18) 0.66044(15) 0.3532(3)
C4 C 0.94097(18) 0.72729(16) 0.3606(3)
H2 H 1.01910 0.70290 0.35550
C5 C 0.92218(18) 0.82800(16) 0.3752(3)
H3 H 0.98720 0.87240 0.37900
C6 C 0.80827(17) 0.86493(15) 0.3845(3)
C7 C 0.78132(18) 0.97228(15) 0.3880(3)
C8 C 0.65108(17) 0.99457(15) 0.4008(3)
H4 H 0.63950 1.06260 0.45000
C9 C 0.58207(17) 0.98143(15) 0.2170(3)
H5 H 0.63350 0.99230 0.11810
H6 H 0.51410 1.02750 0.20260
C10 C 0.54071(17) 0.87251(14) 0.2232(3)
H7 H 0.56810 0.83410 0.11990
C11 C 0.8665(2) 0.55035(16) 0.3418(3)
H8 H 0.88610 0.52370 0.46230
H9 H 0.93190 0.53750 0.26710
H10 H 0.79480 0.51810 0.28850
C12 C 0.36688(17) 0.77437(15) 0.1980(3)
H11 H 0.38680 0.73430 0.30710
H12 H 0.39840 0.74030 0.09480
C13 C 0.2355(2) 0.78622(18) 0.1669(4)
H13 H 0.20520 0.81930 0.27050
H14 H 0.19860 0.72070 0.15080
H15 H 0.21680 0.82640 0.05920
N1 N 0.59406(14) 0.83238(12) 0.3961(2)
O1 O 0.41701(12) 0.87212(10) 0.21919(19)
O2 O 0.85365(13) 1.03763(11) 0.3719(2)
O3 O 0.60201(12) 0.91978(10) 0.51085(18)
#END
