
#######################################################################
#
#                 Cambridge Crystallographic Data Centre
#                                CCDC
#
#######################################################################
#
# If this CIF has been generated from an entry in the Cambridge
# Structural Database, then it will include bibliographic, chemical,
# crystal, experimental, refinement or atomic coordinate data resulting
# from the CCDC's data processing and validation procedures.
#
#######################################################################

data_CSD_CIF_ETNIBZ01
_audit_creation_date 1978-01-11
_audit_creation_method CSD-ConQuest-V1
_database_code_CSD ETNIBZ01
_chemical_formula_sum 'C9 H8 N2 O6'
_chemical_formula_moiety
;
C9 H8 N2 O6
;
_journal_coden_Cambridge 189
_journal_volume 6
_journal_year 1977
_journal_page_first 489
_journal_name_full 'Cryst.Struct.Commun. '
loop_
_publ_author_name
"T.S.Cameron"
"R.E.Cordes"
_chemical_name_systematic
;
Ethyl 3,5-dinitrobenzoate
;
_cell_volume   1057.091
_diffrn_ambient_temperature ?
_diffrn_special_details
;
The study was carried out at room temperature,in the range 283-303K

;
#These two values have been output from a single CSD field.
_refine_ls_R_factor_gt 0.08
_refine_ls_wR_factor_gt 0.08
_symmetry_cell_setting monoclinic
_symmetry_space_group_name_H-M 'P 1 1 21/b'
_symmetry_Int_Tables_number 14
loop_
_symmetry_equiv_pos_site_id
_symmetry_equiv_pos_as_xyz
1 x,y,z
2 -x,1/2-y,1/2+z
3 -x,-y,-z
4 x,-1/2+y,-1/2-z
_cell_length_a 13.882(2)
_cell_length_b 18.437(5)
_cell_length_c 4.761(1)
_cell_angle_alpha 90
_cell_angle_beta 90
_cell_angle_gamma 119.83(2)
_cell_formula_units_Z 4
loop_
_atom_type_symbol
_atom_type_radius_bond
C 0.68
H 0.23
N 0.68
O 0.68
loop_
_atom_site_label
_atom_site_type_symbol
_atom_site_fract_x
_atom_site_fract_y
_atom_site_fract_z
C1 C 0.07610 0.16320 0.39190
C2 C 0.08740 0.11340 0.58680
C3 C 0.19050 0.12020 0.62910
C4 C 0.28130 0.17900 0.48020
C5 C 0.26680 0.22800 0.28560
C6 C 0.16360 0.22210 0.23600
C30 C 0.20000 0.06460 0.84180
O31 O 0.12140 0.01190 0.96920
O32 O 0.30500 0.08030 0.87020
C33 C 0.32550 0.03470 1.09000
C34 C 0.35140 -0.02300 0.95470
N1 N -0.03350 0.15500 0.34250
O11 O -0.10770 0.11300 0.50890
O12 O -0.04490 0.19140 0.14430
N5 N 0.36260 0.28790 0.12650
O51 O 0.34600 0.33010 -0.04810
O52 O 0.44850 0.29250 0.16340
H2 H 0.02380 0.07330 0.64890
H4 H 0.34490 0.18050 0.49320
H6 H 0.14960 0.25310 0.11430
#END
