
#######################################################################
#
#                 Cambridge Crystallographic Data Centre
#                                CCDC
#
#######################################################################
#
# If this CIF has been generated from an entry in the Cambridge
# Structural Database, then it will include bibliographic, chemical,
# crystal, experimental, refinement or atomic coordinate data resulting
# from the CCDC's data processing and validation procedures.
#
#######################################################################

data_CSD_CIF_EVODUQ
_audit_creation_date 2016-09-29
_audit_creation_method CSD-ConQuest-V1
_database_code_CSD EVODUQ
_database_code_depnum_ccdc_archive 'CCDC 1489243'
_chemical_formula_sum 'C20 H17 N5 O1'
_chemical_formula_moiety
;
C20 H17 N5 O1
;
_journal_coden_Cambridge 119
_journal_volume 1129
_journal_year 2017
_journal_page_first 142
_journal_name_full 'J.Mol.Struct. '
loop_
_publ_author_name
"R.Gup"
"O.Erer"
"N.Dilek"
_chemical_name_systematic
;
2-((4-(4-methylphenyl)-1-oxido-2H-1,2,3-triazol-2-yl)(pyridin-2-yl)methyl)pyri
dine
;
_cell_volume    844.980
_exptl_crystal_colour 'yellow'
_exptl_crystal_density_diffrn 1.358
_exptl_crystal_description 'prism'
_diffrn_ambient_temperature 296
#These two values have been output from a single CSD field.
_refine_ls_R_factor_gt 0.0444
_refine_ls_wR_factor_gt 0.0444
_symmetry_cell_setting triclinic
_symmetry_space_group_name_H-M 'P -1'
_symmetry_Int_Tables_number 2
loop_
_symmetry_equiv_pos_site_id
_symmetry_equiv_pos_as_xyz
1 x,y,z
2 -x,-y,-z
_cell_length_a 8.9288(2)
_cell_length_b 9.9399(3)
_cell_length_c 10.6983(3)
_cell_angle_alpha 70.003(1)
_cell_angle_beta 89.542(1)
_cell_angle_gamma 72.276(1)
_cell_formula_units_Z 2
loop_
_atom_type_symbol
_atom_type_radius_bond
C 0.68
H 0.23
N 0.68
O 0.68
loop_
_atom_site_label
_atom_site_type_symbol
_atom_site_fract_x
_atom_site_fract_y
_atom_site_fract_z
C1 C 0.47334(12) 0.45603(11) 0.78972(10)
C2 C 0.50949(16) 0.38397(15) 0.69743(12)
H1 H 0.55520 0.42440 0.62120
C3 C 0.47615(17) 0.25101(16) 0.72116(15)
H2 H 0.49750 0.20120 0.66040
C4 C 0.41101(16) 0.19360(15) 0.83608(15)
H3 H 0.38990 0.10300 0.85570
C5 C 0.37759(15) 0.27303(15) 0.92189(13)
H4 H 0.33250 0.23400 0.99910
C6 C 0.51703(12) 0.59628(11) 0.77589(10)
H5 H 0.50760 0.61120 0.86190
C7 C 0.68651(13) 0.57907(12) 0.74400(11)
C8 C 0.80660(14) 0.51361(14) 0.84826(13)
H6 H 0.78420 0.48370 0.93670
C9 C 0.96066(16) 0.49374(17) 0.81758(17)
H7 H 1.04400 0.44960 0.88540
C10 C 0.98930(17) 0.53985(18) 0.68606(18)
H8 H 1.09190 0.52770 0.66290
C11 C 0.86229(18) 0.60446(17) 0.58924(15)
H9 H 0.88220 0.63570 0.50020
C12 C 0.32259(15) 0.96530(13) 0.54715(13)
H10 H 0.30400 1.06900 0.50990
C13 C 0.25593(13) 0.88019(13) 0.49910(11)
C14 C 0.14083(14) 0.93434(13) 0.38162(12)
C15 C 0.0921(2) 1.08525(16) 0.30018(17)
H11 H 0.13520 1.15130 0.31890
C16 C -0.0198(2) 1.13890(17) 0.19139(17)
H12 H -0.05170 1.24110 0.13900
C17 C -0.08541(15) 1.04547(15) 0.15833(13)
C18 C -0.03399(17) 0.89356(16) 0.23857(15)
H13 H -0.07520 0.82730 0.21800
C19 C 0.07712(15) 0.83851(15) 0.34841(14)
H14 H 0.10940 0.73620 0.40050
C20 C -0.20808(18) 1.10620(19) 0.03985(15)
H15 H -0.31130 1.13990 0.06720
H16 H -0.20280 1.02790 0.00510
H17 H -0.18830 1.18950 -0.02830
O1 O 0.50793(13) 0.88706(11) 0.73802(10)
N1 N 0.40657(12) 0.40350(11) 0.90005(9)
N2 N 0.71137(13) 0.62518(12) 0.61547(10)
N3 N 0.40743(11) 0.73001(10) 0.67482(9)
N4 N 0.31133(11) 0.73405(11) 0.57773(10)
N5 N 0.41846(12) 0.86849(11) 0.65736(10)
#END
