
#######################################################################
#
#                 Cambridge Crystallographic Data Centre
#                                CCDC
#
#######################################################################
#
# If this CIF has been generated from an entry in the Cambridge
# Structural Database, then it will include bibliographic, chemical,
# crystal, experimental, refinement or atomic coordinate data resulting
# from the CCDC's data processing and validation procedures.
#
#######################################################################

data_CSD_CIF_EVOQUC
_audit_creation_date 2011-09-15
_audit_creation_method CSD-ConQuest-V1
_database_code_CSD EVOQUC
_database_code_depnum_ccdc_archive 'CCDC 841365'
_chemical_formula_sum 'C27 H27 N1 O4'
_chemical_formula_moiety
;
C27 H27 N1 O4
;
_journal_coeditor_code "IUCr PV2423"
_journal_coden_Cambridge 1370
_journal_volume 67
_journal_year 2011
_journal_page_first o1989
_journal_name_full 'Acta Crystallogr.,Sect.E:Struct.Rep.Online '
loop_
_publ_author_name
"J.Kanchanadevi"
"G.Anbalagan"
"J.Srinivasan"
"M.Bakthadoss"
"V.Manivannan"
_chemical_name_systematic
;
Methyl 
3-(4-isopropylphenyl)-1-phenyl-1,9b-dihydro-3H-chromeno[4,3-c][1,2]oxazole-3a(
4H)-carboxylate
;
_cell_volume   1153.876
_exptl_crystal_colour 'colorless'
_exptl_crystal_density_diffrn 1.236
_exptl_crystal_description 'block'
_diffrn_ambient_temperature 295
#These two values have been output from a single CSD field.
_refine_ls_R_factor_gt 0.0539
_refine_ls_wR_factor_gt 0.0539
_symmetry_cell_setting triclinic
_symmetry_space_group_name_H-M 'P -1'
_symmetry_Int_Tables_number 2
loop_
_symmetry_equiv_pos_site_id
_symmetry_equiv_pos_as_xyz
1 x,y,z
2 -x,-y,-z
_cell_length_a 9.3555(3)
_cell_length_b 10.7247(4)
_cell_length_c 12.0449(4)
_cell_angle_alpha 94.707(1)
_cell_angle_beta 104.730(1)
_cell_angle_gamma 96.385(1)
_cell_formula_units_Z 2
loop_
_atom_type_symbol
_atom_type_radius_bond
C 0.68
H 0.23
N 0.68
O 0.68
loop_
_atom_site_label
_atom_site_type_symbol
_atom_site_fract_x
_atom_site_fract_y
_atom_site_fract_z
C1 C 0.60704(18) 0.16741(14) 0.53375(12)
H1 H 0.53110 0.21730 0.52960
C2 C 0.6510(2) 0.13476(16) 0.43502(13)
H2 H 0.60630 0.16390 0.36560
C3 C 0.7615(2) 0.05886(15) 0.44040(14)
H3 H 0.78950 0.03500 0.37380
C4 C 0.83058(18) 0.01821(14) 0.54304(14)
H4 H 0.90480 -0.03330 0.54610
C5 C 0.78884(15) 0.05468(12) 0.64292(12)
C6 C 0.87307(13) 0.10646(12) 0.84153(11)
H5 H 0.91910 0.18840 0.83030
H6 H 0.93450 0.08010 0.91100
C7 C 0.71742(12) 0.11725(10) 0.85621(10)
C8 C 0.61543(13) 0.15211(10) 0.74339(10)
H7 H 0.51690 0.10210 0.72910
C9 C 0.67386(14) 0.12726(11) 0.63853(10)
C10 C 0.71737(13) 0.2327(1) 0.94285(10)
H8 H 0.62500 0.22150 0.96740
C11 C 0.45688(14) 0.31910(11) 0.77135(10)
C12 C 0.32924(15) 0.25929(14) 0.69002(12)
H9 H 0.33660 0.19470 0.63620
C13 C 0.19070(17) 0.29527(17) 0.68844(14)
H10 H 0.10600 0.25420 0.63380
C14 C 0.1775(2) 0.39055(19) 0.76652(15)
H11 H 0.08450 0.41380 0.76590
C15 C 0.3036(2) 0.45114(18) 0.84575(15)
H12 H 0.29550 0.51660 0.89850
C16 C 0.44312(18) 0.41693(14) 0.84892(13)
H13 H 0.52740 0.45960 0.90300
C17 C 0.84729(13) 0.26602(11) 1.04857(11)
C18 C 0.97498(14) 0.34429(12) 1.04776(12)
H14 H 0.98340 0.37550 0.97960
C19 C 1.09029(15) 0.37650(13) 1.14762(13)
H15 H 1.17460 0.43020 1.14550
C20 C 1.08295(16) 0.33070(13) 1.25029(13)
C21 C 0.95492(18) 0.25349(16) 1.25008(14)
H16 H 0.94700 0.22170 1.31810
C22 C 0.83775(16) 0.22189(14) 1.15152(12)
H17 H 0.75210 0.17070 1.15450
C23 C 1.2070(2) 0.36685(18) 1.36204(16)
H18 H 1.19530 0.30280 1.41380
C24 C 1.3610(2) 0.3669(3) 1.3421(2)
H19 H 1.36550 0.28780 1.30050
H20 H 1.43490 0.37850 1.41510
H21 H 1.37980 0.43450 1.29790
C25 C 1.1916(3) 0.4915(3) 1.4210(2)
H22 H 1.20740 0.55710 1.37400
H23 H 1.26430 0.50860 1.49460
H24 H 1.09330 0.48870 1.43210
C26 C 0.64937(13) -0.00295(11) 0.89318(10)
C27 C 0.6998(2) -0.16605(17) 1.01174(18)
H25 H 0.65010 -0.14120 1.06890
H26 H 0.78340 -0.20700 1.04680
H27 H 0.63150 -0.22330 0.95100
N1 N 0.59985(11) 0.28810(9) 0.76661(9)
O1 O 0.8654(1) 0.01709(9) 0.74473(9)
O2 O 0.71185(9) 0.33448(8) 0.87192(8)
O3 O 0.75166(11) -0.0553(1) 0.96424(10)
O4 O 0.51902(11) -0.04183(10) 0.86632(9)
#END
