
#######################################################################
#
#                 Cambridge Crystallographic Data Centre
#                                CCDC
#
#######################################################################
#
# If this CIF has been generated from an entry in the Cambridge
# Structural Database, then it will include bibliographic, chemical,
# crystal, experimental, refinement or atomic coordinate data resulting
# from the CCDC's data processing and validation procedures.
#
#######################################################################

data_CSD_CIF_EYIFEZ
_audit_creation_date 2016-10-31
_audit_creation_method CSD-ConQuest-V1
_database_code_CSD EYIFEZ
_database_code_depnum_ccdc_archive 'CCDC 796458'
_chemical_formula_sum 'C10 H12 N4 O3'
_chemical_formula_moiety
;
C10 H12 N4 O3
;
_journal_coden_Cambridge 1078
_journal_year 2016
_journal_name_full 'CSD Communication(Private Communication) '
loop_
_publ_author_name
"P.K.Sahu"
"M.Sarkar"
_chemical_name_systematic
;
N-butyl-7-nitro-2,1,3-benzoxadiazol-4-amine
;
_cell_volume   1119.005
_exptl_crystal_density_diffrn 1.402
_diffrn_ambient_temperature 296
#These two values have been output from a single CSD field.
_refine_ls_R_factor_gt 0.0342
_refine_ls_wR_factor_gt 0.0342
_symmetry_cell_setting orthorhombic
_symmetry_space_group_name_H-M 'P c a 21'
_symmetry_Int_Tables_number 29
loop_
_symmetry_equiv_pos_site_id
_symmetry_equiv_pos_as_xyz
1 x,y,z
2 -x,-y,1/2+z
3 1/2-x,y,1/2+z
4 1/2+x,-y,z
_cell_length_a 20.0154(5)
_cell_length_b 7.7452(2)
_cell_length_c 7.2183(2)
_cell_angle_alpha 90
_cell_angle_beta 90
_cell_angle_gamma 90
_cell_formula_units_Z 4
loop_
_atom_type_symbol
_atom_type_radius_bond
C 0.68
H 0.23
N 0.68
O 0.68
loop_
_atom_site_label
_atom_site_type_symbol
_atom_site_fract_x
_atom_site_fract_y
_atom_site_fract_z
N1 N 0.16031(6) 0.58577(16) -0.07378(18)
O1 O 0.36662(5) 0.49588(14) -0.02397(17)
O2 O 0.26368(7) -0.11920(15) 0.2619(2)
C1 C 0.26330(6) 0.44187(16) 0.00027(19)
N2 N 0.30438(6) 0.56334(16) -0.05374(17)
C2 C 0.19066(6) 0.44727(17) -0.00522(19)
C3 C 0.04988(7) 0.6446(2) 0.0788(3)
H1 H 0.00270 0.65210 0.04970
H2 H 0.05570 0.55090 0.16650
C4 C 0.19587(7) 0.15760(17) 0.1262(2)
H3 H 0.17220 0.06280 0.17040
N3 N 0.29773(7) -0.00068(16) 0.19608(19)
C5 C 0.08793(7) 0.6011(2) -0.0975(2)
H4 H 0.07090 0.49290 -0.14610
H5 H 0.07900 0.68990 -0.18890
C6 C 0.30033(6) 0.29593(18) 0.06356(19)
C7 C 0.26429(7) 0.14956(17) 0.1292(2)
N4 N 0.36466(6) 0.32921(17) 0.04810(19)
C8 C 0.07127(8) 0.8106(2) 0.1697(3)
H6 H 0.06970 0.90270 0.07880
H7 H 0.11720 0.79910 0.21050
C9 C 0.15947(6) 0.29845(18) 0.0613(2)
H8 H 0.11310 0.29320 0.06230
O3 O 0.35882(7) -0.00523(17) 0.1891(2)
C10 C 0.02843(11) 0.8600(3) 0.3334(3)
H9 H -0.01670 0.87810 0.29290
H10 H 0.04530 0.96440 0.38770
H11 H 0.02940 0.76900 0.42370
H12 H 0.1863(8) 0.674(2) -0.117(3)
#END
