
#######################################################################
#
#                 Cambridge Crystallographic Data Centre
#                                CCDC
#
#######################################################################
#
# If this CIF has been generated from an entry in the Cambridge
# Structural Database, then it will include bibliographic, chemical,
# crystal, experimental, refinement or atomic coordinate data resulting
# from the CCDC's data processing and validation procedures.
#
#######################################################################

data_CSD_CIF_FACPOO
_audit_creation_date 1987-06-30
_audit_creation_method CSD-ConQuest-V1
_database_code_CSD FACPOO
_chemical_formula_sum 'C14 H19 N1 O11'
_chemical_formula_moiety
;
C14 H19 N1 O11
;
_journal_coden_Cambridge 10
_journal_volume 69
_journal_year 1986
_journal_page_first 1172
_journal_name_full 'Helv.Chim.Acta '
loop_
_publ_author_name
"D.Beer"
"J.H.Bieri"
"I.Macher"
"R.Prewo"
"A.Vasella"
_chemical_name_systematic
;
2,3,4,6-Tetra-O-acetyl-1-deoxy-1-nitro-\b-D-glucopyranose
;
_chemical_melting_point 379.15
_cell_volume   1812.509
_exptl_crystal_density_diffrn 1.38
_diffrn_ambient_temperature 130
#These two values have been output from a single CSD field.
_refine_ls_R_factor_gt 0.051
_refine_ls_wR_factor_gt 0.051
_symmetry_cell_setting orthorhombic
_symmetry_space_group_name_H-M 'P 21 21 21'
_symmetry_Int_Tables_number 19
loop_
_symmetry_equiv_pos_site_id
_symmetry_equiv_pos_as_xyz
1 x,y,z
2 1/2+x,1/2-y,-z
3 -x,1/2+y,1/2-z
4 1/2-x,-y,1/2+z
_cell_length_a 8.164(1)
_cell_length_b 10.114(1)
_cell_length_c 21.951(1)
_cell_angle_alpha 90
_cell_angle_beta 90
_cell_angle_gamma 90
_cell_formula_units_Z 4
loop_
_atom_type_symbol
_atom_type_radius_bond
C 0.68
H 0.23
N 0.68
O 0.68
loop_
_atom_site_label
_atom_site_type_symbol
_atom_site_fract_x
_atom_site_fract_y
_atom_site_fract_z
C1 C 0.3940(2) 0.1507(1) 0.2333(1)
N1 N 0.3136(2) 0.0613(1) 0.1869(1)
O1 O 0.2706(2) -0.0490(1) 0.2031(1)
O2 O 0.2874(2) 0.1101(1) 0.1369(1)
C2 C 0.2575(2) 0.2198(1) 0.2692(1)
O3 O 0.1610(1) 0.3002(1) 0.2296(1)
C3 C 0.3388(2) 0.3066(1) 0.3168(1)
O4 O 0.2120(1) 0.3598(1) 0.3545(1)
C4 C 0.4511(2) 0.2213(1) 0.3560(1)
O5 O 0.5371(2) 0.3108(1) 0.3959(1)
C5 C 0.5743(2) 0.1461(1) 0.3165(1)
O6 O 0.4845(1) 0.0701(1) 0.2719(1)
C6 C 0.6782(2) 0.0500(2) 0.3517(1)
O7 O 0.5691(2) -0.0456(1) 0.3791(1)
C7 C 0.0042(2) 0.2598(2) 0.2188(1)
O8 O -0.0532(2) 0.1631(1) 0.2414(1)
C8 C -0.0774(2) 0.3515(2) 0.1751(1)
C9 C 0.2243(2) 0.4902(2) 0.3701(1)
O9 O 0.3335(2) 0.5609(1) 0.3531(1)
C10 C 0.0868(3) 0.5279(2) 0.4108(1)
C11 C 0.5268(3) 0.2894(2) 0.4567(1)
O10 O 0.4716(3) 0.1890(2) 0.4774(1)
C12 C 0.5944(3) 0.4043(3) 0.4913(1)
C13 C 0.6296(2) -0.1161(2) 0.4261(1)
O11 O 0.7683(2) -0.1063(2) 0.4434(1)
C14 C 0.4999(3) -0.2037(2) 0.4524(1)
H1 H 0.4563(23) 0.2112(19) 0.2108(8)
H2 H 0.1885(22) 0.1508(18) 0.2866(7)
H3 H 0.3983(22) 0.3774(17) 0.2983(7)
H4 H 0.3881(25) 0.1593(19) 0.3789(8)
H5 H 0.6474(25) 0.2032(19) 0.2943(8)
H6 H 0.7373(24) 0.0964(19) 0.3828(8)
H7 H 0.7475(26) 0.0050(19) 0.3244(8)
H8 H -0.1857(28) 0.3272(22) 0.1705(10)
H9 H -0.0696(28) 0.4398(22) 0.1911(9)
H10 H -0.0271(28) 0.3488(21) 0.1368(9)
H11 H -0.0050(29) 0.5037(24) 0.3923(10)
H12 H 0.0851(31) 0.4745(23) 0.4447(10)
H13 H 0.0819(45) 0.6224(31) 0.4208(13)
H14 H 0.6904(36) 0.4309(29) 0.4745(13)
H15 H 0.5198(52) 0.4533(42) 0.4970(17)
H16 H 0.6290(39) 0.3716(29) 0.5334(12)
H17 H 0.5600(35) -0.2568(29) 0.4855(12)
H18 H 0.4524(27) -0.2570(21) 0.4216(9)
H19 H 0.4122(32) -0.1505(24) 0.4749(10)
#END
