
#######################################################################
#
#                 Cambridge Crystallographic Data Centre
#                                CCDC
#
#######################################################################
#
# If this CIF has been generated from an entry in the Cambridge
# Structural Database, then it will include bibliographic, chemical,
# crystal, experimental, refinement or atomic coordinate data resulting
# from the CCDC's data processing and validation procedures.
#
#######################################################################

data_CSD_CIF_FACYAK
_audit_creation_date 2002-06-14
_audit_creation_method CSD-ConQuest-V1
_database_code_CSD FACYAK
_database_code_depnum_ccdc_archive 'CCDC 182620'
_chemical_formula_sum 'C13 H10 N2 O3'
_chemical_formula_moiety
;
C13 H10 N2 O3
;
_journal_coeditor_code "IUCr CV6088"
_journal_coden_Cambridge 1370
_journal_volume 58
_journal_year 2002
_journal_page_first o282
_journal_name_full 'Acta Crystallogr.,Sect.E:Struct.Rep.Online '
loop_
_publ_author_name
"R.J.Jackson"
"M.Parvez"
"S.S.Nizami"
"R.Y.Khan"
_chemical_name_systematic
;
N-Phenyl-2-nitrobenzamide
;
_chemical_melting_point 426
_cell_volume   2343.564
_exptl_crystal_colour 'colorless'
_exptl_crystal_density_diffrn 1.373
_exptl_special_details
;
Melting point range 426-428K

;
_exptl_crystal_description 'prismatic'
_exptl_crystal_preparation 'ethanol'
_diffrn_ambient_temperature 293
#These two values have been output from a single CSD field.
_refine_ls_R_factor_gt 0.042
_refine_ls_wR_factor_gt 0.042
_symmetry_cell_setting orthorhombic
_symmetry_space_group_name_H-M 'P b c a'
_symmetry_Int_Tables_number 61
loop_
_symmetry_equiv_pos_site_id
_symmetry_equiv_pos_as_xyz
1 x,y,z
2 1/2+x,y,1/2-z
3 1/2-x,1/2+y,z
4 x,1/2-y,1/2+z
5 -x,-y,-z
6 -1/2-x,-y,-1/2+z
7 -1/2+x,-1/2-y,-z
8 -x,-1/2+y,-1/2-z
_cell_length_a 7.9406(1)
_cell_length_b 9.4695(2)
_cell_length_c 31.1671(5)
_cell_angle_alpha 90
_cell_angle_beta 90
_cell_angle_gamma 90
_cell_formula_units_Z 8
loop_
_atom_type_symbol
_atom_type_radius_bond
C 0.68
H 0.23
N 0.68
O 0.68
loop_
_atom_site_label
_atom_site_type_symbol
_atom_site_fract_x
_atom_site_fract_y
_atom_site_fract_z
O1 O 0.67464(14) 0.25815(9) 0.12636(4)
O2 O 0.81040(19) -0.15887(15) 0.02559(5)
O3 O 0.87071(15) 0.04153(13) 0.05372(4)
N1 N 0.77326(17) -0.05512(13) 0.04633(4)
N2 N 0.80030(15) 0.05103(11) 0.14434(4)
H1 H 0.79330 -0.03890 0.14100
C1 C 0.56302(18) 0.04938(13) 0.09612(4)
C2 C 0.39453(19) 0.06428(16) 0.10733(5)
H2 H 0.36490 0.12620 0.12920
C3 C 0.2705(2) -0.0113(2) 0.08651(7)
H3 H 0.15830 0.00100 0.09420
C4 C 0.3113(2) -0.1047(2) 0.05447(6)
H4 H 0.22730 -0.15690 0.04110
C5 C 0.4765(2) -0.12086(17) 0.04223(5)
H5 H 0.50470 -0.18340 0.02040
C6 C 0.60025(18) -0.04335(13) 0.06269(4)
C7 C 0.68841(17) 0.13027(13) 0.12274(5)
C8 C 0.92844(17) 0.10094(13) 0.17196(4)
C9 C 1.0050(2) 0.23047(15) 0.16618(5)
H6 H 0.97360 0.28800 0.14340
C10 C 1.1289(2) 0.27446(17) 0.19454(6)
H7 H 1.17970 0.36200 0.19070
C11 C 1.1772(2) 0.19029(18) 0.22815(6)
H8 H 1.25950 0.22080 0.24720
C12 C 1.1025(2) 0.05965(17) 0.23334(5)
H9 H 1.13530 0.00180 0.25600
C13 C 0.9798(2) 0.01447(15) 0.20530(5)
H10 H 0.93150 -0.07420 0.20880
#END
