
#######################################################################
#
#                 Cambridge Crystallographic Data Centre
#                                CCDC
#
#######################################################################
#
# If this CIF has been generated from an entry in the Cambridge
# Structural Database, then it will include bibliographic, chemical,
# crystal, experimental, refinement or atomic coordinate data resulting
# from the CCDC's data processing and validation procedures.
#
#######################################################################

data_CSD_CIF_FADGUM
_audit_creation_date 1987-06-30
_audit_creation_method CSD-ConQuest-V1
_database_code_CSD FADGUM
_database_code_depnum_ccdc_archive 'CCDC 1151442'
_chemical_formula_sum 'C15 H12 N2 O6'
_chemical_formula_moiety
;
C15 H12 N2 O6
;
_journal_coeditor_code "IUCr A26083"
_journal_coden_Cambridge 591
_journal_volume 42
_journal_year 1986
_journal_page_first 1355
_journal_name_full 'Acta Crystallogr.,Sect.C:Cryst.Struct.Commun. '
loop_
_publ_author_name
"P.G.Jones"
"M.R.Edwards"
"A.J.Kirby"
_chemical_name_systematic
;
1-Phenylethyl 3,5-dinitrobenzoate
;
_chemical_melting_point 646.15
_cell_volume   1480.456
_exptl_crystal_colour 'colorless'
_exptl_crystal_density_diffrn 1.42
_exptl_special_details
;
Melting point range 646.15-647.15K

;
_diffrn_ambient_temperature ?
_diffrn_special_details
;
The study was carried out at room temperature,in the range 283-303K

;
#These two values have been output from a single CSD field.
_refine_ls_R_factor_gt 0.046
_refine_ls_wR_factor_gt 0.046
_symmetry_cell_setting orthorhombic
_symmetry_space_group_name_H-M 'P 21 21 21'
_symmetry_Int_Tables_number 19
loop_
_symmetry_equiv_pos_site_id
_symmetry_equiv_pos_as_xyz
1 x,y,z
2 1/2+x,1/2-y,-z
3 -x,1/2+y,1/2-z
4 1/2-x,-y,1/2+z
_cell_length_a 6.185(1)
_cell_length_b 11.029(2)
_cell_length_c 21.703(3)
_cell_angle_alpha 90
_cell_angle_beta 90
_cell_angle_gamma 90
_cell_formula_units_Z 4
loop_
_atom_type_symbol
_atom_type_radius_bond
C 0.68
H 0.23
N 0.68
O 0.68
loop_
_atom_site_label
_atom_site_type_symbol
_atom_site_fract_x
_atom_site_fract_y
_atom_site_fract_z
C1 C 0.1843(3) 0.5561(2) 0.3766(1)
O1 O 0.3340(2) 0.5114(1) 0.4133(1)
O2 O 0.0615(3) 0.6378(2) 0.3892(1)
C2 C 0.3507(4) 0.5655(2) 0.4756(1)
C3 C 0.5350(5) 0.6547(3) 0.4751(1)
C4 C 0.1791(3) 0.4927(2) 0.3155(1)
C5 C 0.3365(3) 0.4093(2) 0.2982(1)
C6 C 0.3140(3) 0.3523(2) 0.2418(1)
C7 C 0.1432(3) 0.3727(2) 0.2023(1)
C8 C -0.0044(3) 0.4589(2) 0.2208(1)
C9 C 0.0089(3) 0.5184(2) 0.2764(1)
N1 N 0.4807(3) 0.2642(1) 0.2230(1)
O3 O 0.6496(2) 0.2617(1) 0.2521(1)
O4 O 0.4408(3) 0.1986(1) 0.1789(1)
N2 N -0.1910(3) 0.4846(2) 0.1804(1)
O5 O -0.3141(3) 0.5651(2) 0.1958(1)
O6 O -0.2128(3) 0.4241(2) 0.1340(1)
C10 C 0.3763(3) 0.4620(2) 0.5201(1)
C11 C 0.2194(4) 0.4433(2) 0.5643(1)
C12 C 0.2396(4) 0.3511(2) 0.6069(1)
C13 C 0.4141(5) 0.2764(2) 0.6054(1)
C14 C 0.5722(4) 0.2929(2) 0.5619(1)
C15 C 0.5536(4) 0.3857(2) 0.5190(1)
H1 H 0.22530 0.61060 0.48800
H2 H 0.55700 0.68560 0.51590
H3 H 0.50800 0.72090 0.44740
H4 H 0.66180 0.61160 0.46200
H5 H 0.45720 0.39190 0.32450
H6 H 0.12800 0.32940 0.16410
H7 H -0.09860 0.57700 0.28780
H8 H 0.09460 0.49510 0.56540
H9 H 0.12980 0.33960 0.63760
H10 H 0.42700 0.21200 0.63490
H11 H 0.69570 0.24020 0.56100
H12 H 0.66420 0.39700 0.48850
#END
