
#######################################################################
#
#                 Cambridge Crystallographic Data Centre
#                                CCDC
#
#######################################################################
#
# If this CIF has been generated from an entry in the Cambridge
# Structural Database, then it will include bibliographic, chemical,
# crystal, experimental, refinement or atomic coordinate data resulting
# from the CCDC's data processing and validation procedures.
#
#######################################################################

data_CSD_CIF_FADHEA
_audit_creation_date 2016-01-08
_audit_creation_method CSD-ConQuest-V1
_database_code_CSD FADHEA
_database_code_depnum_ccdc_archive 'CCDC 1446221'
_chemical_formula_sum 'C17 H22 N4 O4'
_chemical_formula_moiety
;
C17 H22 N4 O4
;
_journal_coden_Cambridge 4
_journal_volume 137
_journal_year 2015
_journal_page_first 15518
_journal_name_full 'J.Am.Chem.Soc. '
loop_
_publ_author_name
"Fanyang Mo"
"Hee Nam Lim"
"Guangbin Dong"
_chemical_name_systematic
;
1-(2,4-Dinitrophenyl)-2-(2-(hexan-3-ylidene)cyclopentylidene)hydrazine
;
_cell_volume   1710.119
_exptl_crystal_colour 'orange'
_exptl_crystal_density_diffrn 1.345
_exptl_crystal_description 'laths'
_diffrn_ambient_temperature 153
#These two values have been output from a single CSD field.
_refine_ls_R_factor_gt 0.066
_refine_ls_wR_factor_gt 0.066
_symmetry_cell_setting monoclinic
_symmetry_space_group_name_H-M 'P 21/c'
_symmetry_Int_Tables_number 14
loop_
_symmetry_equiv_pos_site_id
_symmetry_equiv_pos_as_xyz
1 x,y,z
2 -x,1/2+y,1/2-z
3 -x,-y,-z
4 x,-1/2-y,-1/2+z
_cell_length_a 15.473(8)
_cell_length_b 15.483(7)
_cell_length_c 7.159(4)
_cell_angle_alpha 90
_cell_angle_beta 94.355(9)
_cell_angle_gamma 90
_cell_formula_units_Z 4
loop_
_atom_type_symbol
_atom_type_radius_bond
C 0.68
H 0.23
N 0.68
O 0.68
loop_
_atom_site_label
_atom_site_type_symbol
_atom_site_fract_x
_atom_site_fract_y
_atom_site_fract_z
C1 C 0.7389(3) 0.5681(3) 0.4450(5)
C2 C 0.8143(3) 0.5263(3) 0.5408(5)
C3 C 0.8766(3) 0.5987(3) 0.5849(6)
H1 H 0.87220 0.61900 0.71490
H2 H 0.93680 0.57920 0.57180
C4 C 0.8533(3) 0.6690(3) 0.4503(7)
H3 H 0.88300 0.66150 0.33370
H4 H 0.86910 0.72600 0.50530
C5 C 0.7556(3) 0.6612(3) 0.4116(5)
H5 H 0.72480 0.69800 0.49800
H6 H 0.73740 0.67760 0.28090
C6 C 0.8248(3) 0.4426(3) 0.5816(5)
C7 C 0.9071(3) 0.4095(3) 0.6788(6)
H7 H 0.95350 0.45250 0.66440
H8 H 0.92380 0.35560 0.61670
C8 C 0.9011(3) 0.3919(3) 0.8832(6)
H9 H 0.89280 0.44720 0.94890
H10 H 0.84980 0.35530 0.89920
C9 C 0.9801(4) 0.3478(4) 0.9712(7)
H11 H 0.98420 0.28960 0.91880
H12 H 0.97600 0.34390 1.10680
H13 H 1.03180 0.38100 0.94550
C10 C 0.7595(3) 0.3738(3) 0.5286(5)
H14 H 0.70050 0.39660 0.54130
H15 H 0.76870 0.32410 0.61480
C11 C 0.7671(3) 0.3436(3) 0.3270(6)
H16 H 0.75790 0.39280 0.24160
H17 H 0.72330 0.29920 0.29510
H18 H 0.82500 0.31950 0.31530
C12 C 0.5275(3) 0.5453(3) 0.2583(5)
C13 C 0.4604(3) 0.5927(2) 0.1656(5)
C14 C 0.3818(3) 0.5551(3) 0.1074(4)
H19 H 0.33680 0.58780 0.04370
C15 C 0.3709(3) 0.4699(3) 0.1439(5)
C16 C 0.4343(3) 0.4210(3) 0.2357(5)
H20 H 0.42440 0.36170 0.26040
C17 C 0.5111(3) 0.4579(3) 0.2910(4)
H21 H 0.55520 0.42360 0.35370
N1 N 0.6673(2) 0.5286(2) 0.4002(4)
N2 N 0.6044(3) 0.5801(3) 0.3119(4)
N3 N 0.4696(3) 0.6822(2) 0.1152(5)
N4 N 0.2896(3) 0.4293(3) 0.0771(5)
O1 O 0.5396(2) 0.71742(19) 0.1568(4)
O2 O 0.4101(2) 0.7196(2) 0.0310(4)
O3 O 0.2368(2) 0.4707(2) -0.0193(4)
O4 O 0.27975(19) 0.3539(2) 0.1212(4)
H22 H 0.612(3) 0.633(3) 0.293(5)
#END
