
#######################################################################
#
#                 Cambridge Crystallographic Data Centre
#                                CCDC
#
#######################################################################
#
# If this CIF has been generated from an entry in the Cambridge
# Structural Database, then it will include bibliographic, chemical,
# crystal, experimental, refinement or atomic coordinate data resulting
# from the CCDC's data processing and validation procedures.
#
#######################################################################

data_CSD_CIF_FALHUW
_audit_creation_date 2005-04-13
_audit_creation_method CSD-ConQuest-V1
_database_code_CSD FALHUW
_database_code_depnum_ccdc_archive 'CCDC 199830'
_chemical_formula_sum 'C15 H19 N1 O6'
_chemical_formula_moiety
;
C15 H19 N1 O6
;
_journal_coden_Cambridge 16
_journal_volume 59
_journal_year 2003
_journal_page_first 2223
_journal_name_full 'Tetrahedron '
loop_
_publ_author_name
"K.A.Evans"
"K.Beshah"
"D.H.Young"
"T.T.Fujimoto"
"C.M.Tice"
"E.L.Michelotti"
_chemical_name_systematic
;
(+-)-(1R*,3R*,4S*,6S*)-3-Nitro-4-(2,3,4-trimethoxyphenyl)-7-oxabicyclo(4.1.0)h
eptane
;
_chemical_melting_point 358.15
_cell_volume    747.230
_exptl_crystal_colour 'colorless'
_exptl_crystal_density_diffrn 1.375
_exptl_special_details
;
Melting point range 358.15-359.15K

;
_exptl_crystal_description 'irregular'
_exptl_crystal_preparation 'ether/hexane'
_diffrn_ambient_temperature 113
#These two values have been output from a single CSD field.
_refine_ls_R_factor_gt 0.0428
_refine_ls_wR_factor_gt 0.0428
_symmetry_cell_setting triclinic
_symmetry_space_group_name_H-M 'P -1'
_symmetry_Int_Tables_number 2
loop_
_symmetry_equiv_pos_site_id
_symmetry_equiv_pos_as_xyz
1 x,y,z
2 -x,-y,-z
_cell_length_a 7.4881(9)
_cell_length_b 8.2197(10)
_cell_length_c 12.2295(13)
_cell_angle_alpha 83.199(3)
_cell_angle_beta 89.058(3)
_cell_angle_gamma 88.969(3)
_cell_formula_units_Z 2
loop_
_atom_type_symbol
_atom_type_radius_bond
C 0.68
H 0.23
N 0.68
O 0.68
loop_
_atom_site_label
_atom_site_type_symbol
_atom_site_fract_x
_atom_site_fract_y
_atom_site_fract_z
C1 C 0.1899(3) 0.9579(3) 0.2063(2)
C2 C 0.2201(3) 1.0136(4) 0.0970(2)
C3 C 0.2520(3) 0.9039(3) 0.0211(2)
C4 C 0.2466(3) 0.7347(3) 0.0565(2)
C5 C 0.2178(3) 0.6817(3) 0.1674(2)
C6 C 0.1898(3) 0.7924(3) 0.2445(2)
C7 C 0.1537(3) 0.7314(3) 0.3641(2)
C8 C -0.0441(3) 0.7538(3) 0.3957(2)
C9 C -0.0832(3) 0.7104(3) 0.5162(2)
O1 O -0.0498(2) 0.8362(2) 0.58753(15)
C10 C 0.0613(3) 0.6900(3) 0.5971(2)
C11 C 0.2529(3) 0.7157(3) 0.5615(2)
C12 C 0.2662(3) 0.8107(3) 0.4466(2)
N1 N 0.4593(3) 0.8081(3) 0.40913(17)
O2 O 0.2914(2) 0.9463(2) -0.08795(15)
C13 C 0.2895(4) 1.1164(4) -0.1270(3)
O3 O 0.2784(2) 0.6194(2) -0.01504(15)
C14 C 0.1534(5) 0.6179(5) -0.1010(3)
O4 O 0.2066(2) 0.5146(2) 0.20206(15)
C15 C 0.3763(4) 0.4277(4) 0.2021(3)
O5 O 0.5367(2) 0.9382(2) 0.38966(16)
O6 O 0.5281(2) 0.6743(2) 0.39839(17)
H1 H 0.177(3) 1.030(3) 0.255(2)
H2 H 0.223(3) 1.118(4) 0.079(2)
H3 H 0.182(3) 0.620(3) 0.3758(19)
H4 H -0.084(3) 0.859(3) 0.373(2)
H5 H -0.115(3) 0.691(3) 0.349(2)
H6 H -0.195(3) 0.651(3) 0.538(2)
H7 H 0.043(3) 0.625(3) 0.662(2)
H8 H 0.313(3) 0.607(3) 0.564(2)
H9 H 0.313(3) 0.772(3) 0.6160(19)
H10 H 0.238(3) 0.926(3) 0.447(2)
H11 H 0.378(4) 1.179(3) -0.085(2)
H12 H 0.315(4) 1.120(4) -0.201(3)
H13 H 0.173(4) 1.171(3) -0.117(2)
H14 H 0.033(5) 0.627(4) -0.077(3)
H15 H 0.151(5) 0.700(5) -0.150(4)
H16 H 0.173(4) 0.516(4) -0.132(2)
H17 H 0.357(4) 0.322(4) 0.229(3)
H18 H 0.426(3) 0.430(3) 0.123(2)
H19 H 0.455(4) 0.476(3) 0.250(3)
#END
