
#######################################################################
#
#                 Cambridge Crystallographic Data Centre
#                                CCDC
#
#######################################################################
#
# If this CIF has been generated from an entry in the Cambridge
# Structural Database, then it will include bibliographic, chemical,
# crystal, experimental, refinement or atomic coordinate data resulting
# from the CCDC's data processing and validation procedures.
#
#######################################################################

data_CSD_CIF_FARKAK
_audit_creation_date 1987-07-17
_audit_creation_method CSD-ConQuest-V1
_database_code_CSD FARKAK
_database_code_depnum_ccdc_archive 'CCDC 1152610'
_chemical_formula_sum 'C31 H22 N2 O8'
_chemical_formula_moiety
;
C31 H22 N2 O8
;
_journal_coden_Cambridge 167
_journal_year 1986
_journal_page_first 1772
_journal_name_full 'Liebigs Ann. '
loop_
_publ_author_name
"H.Plieninger"
"B.Schwarz"
"H.Jaggy"
"U.Huber-Patz"
"H.Rodewald"
"H.Irngartinger"
"K.Weinges"
_chemical_name_systematic
;
(Z,Z)-O,O'-bis(4-Nitrobenzoyl)-4,4'-(penta-1,4-diene-1,5-diyl)diphenol
;
_chemical_melting_point 414.15
_cell_volume   1321.979
_exptl_crystal_colour 'bright yellow'
_exptl_crystal_density_diffrn 1.38
_exptl_special_details
;
Melting point range 414.15-415.15K

;
_diffrn_ambient_temperature ?
_diffrn_special_details
;
The study was carried out at room temperature,in the range 283-303K

;
#These two values have been output from a single CSD field.
_refine_ls_R_factor_gt 0.043
_refine_ls_wR_factor_gt 0.043
_chemical_compound_source
;
leaves of Ginkgo biloba L
;
_symmetry_cell_setting triclinic
_symmetry_space_group_name_H-M 'P -1'
_symmetry_Int_Tables_number 2
loop_
_symmetry_equiv_pos_site_id
_symmetry_equiv_pos_as_xyz
1 x,y,z
2 -x,-y,-z
_cell_length_a 7.523(2)
_cell_length_b 13.250(2)
_cell_length_c 13.905(4)
_cell_angle_alpha 85.19(2)
_cell_angle_beta 80.59(3)
_cell_angle_gamma 75.41(2)
_cell_formula_units_Z 2
loop_
_atom_type_symbol
_atom_type_radius_bond
C 0.68
H 0.23
N 0.68
O 0.68
loop_
_atom_site_label
_atom_site_type_symbol
_atom_site_fract_x
_atom_site_fract_y
_atom_site_fract_z
C1 C 0.2301(4) -0.0842(3) 0.8664(3)
C2 C 0.3303(4) -0.1684(2) 0.8229(3)
C3 C 0.5303(5) -0.1855(2) 0.7763(3)
C4 C 0.5630(5) -0.2033(2) 0.6706(3)
C5 C 0.6564(5) -0.1549(2) 0.5993(3)
C6 C 0.2909(4) 0.0119(2) 0.8738(2)
C7 C 0.2796(4) 0.0542(2) 0.9625(3)
C8 C 0.3517(4) 0.1377(2) 0.9713(2)
C9 C 0.4366(4) 0.1809(2) 0.8887(2)
C10 C 0.4422(4) 0.1458(2) 0.7985(2)
C11 C 0.3695(4) 0.0617(2) 0.7910(2)
O1 O 0.7950(3) 0.1563(2) 0.8822(2)
O2 O 0.5128(3) 0.2667(1) 0.8977(2)
C12 C 0.7004(4) 0.2434(2) 0.8890(2)
C13 C 0.7750(4) 0.3369(2) 0.8897(2)
C14 C 0.6655(4) 0.4379(2) 0.8936(2)
C15 C 0.7448(4) 0.5212(2) 0.8893(3)
C16 C 0.9350(4) 0.5016(2) 0.8804(2)
C17 C 1.0470(4) 0.4027(2) 0.8777(2)
C18 C 0.9660(4) 0.3207(2) 0.8828(2)
N1 N 1.0236(4) 0.5901(2) 0.8715(2)
O3 O 0.9243(3) 0.6781(2) 0.8720(2)
O4 O 1.1913(3) 0.5719(2) 0.8625(2)
C19 C 0.7463(4) -0.0697(2) 0.6072(2)
C20 C 0.8498(4) -0.0650(2) 0.6791(2)
C21 C 0.9233(4) 0.0196(2) 0.6847(2)
C22 C 0.8923(4) 0.1002(2) 0.6162(2)
C23 C 0.7968(4) 0.0975(2) 0.5412(2)
C24 C 0.7251(4) 0.0119(3) 0.5371(2)
O5 O 0.7024(3) 0.2972(2) 0.6496(2)
O6 O 0.9779(3) 0.1834(1) 0.6196(2)
C25 C 0.8684(4) 0.2791(2) 0.6336(2)
C26 C 0.9768(4) 0.3593(2) 0.6294(2)
C27 C 0.8806(4) 0.4632(2) 0.6322(2)
C28 C 0.9730(4) 0.5411(2) 0.6267(2)
C29 C 1.1629(4) 0.5130(2) 0.6201(2)
C30 C 1.2633(4) 0.4106(2) 0.6179(3)
C31 C 1.1694(4) 0.3334(2) 0.6221(2)
N2 N 1.2629(4) 0.5964(2) 0.6133(2)
O7 O 1.1744(4) 0.6861(2) 0.6139(2)
O8 O 1.4290(3) 0.5721(2) 0.6075(3)
H1 H 0.108(4) -0.088(2) 0.903(2)
H2 H 0.277(3) -0.227(2) 0.826(2)
H3 H 0.582(4) -0.126(2) 0.792(2)
H4 H 0.594(4) -0.247(2) 0.814(2)
H5 H 0.511(4) -0.256(2) 0.648(2)
H6 H 0.668(4) -0.176(2) 0.530(2)
H7 H 0.221(3) 0.026(2) 1.016(2)
H8 H 0.351(4) 0.163(2) 1.035(2)
H9 H 0.507(3) 0.173(2) 0.741(2)
H10 H 0.379(3) 0.033(2) 0.729(2)
H11 H 0.544(4) 0.445(2) 0.898(2)
H12 H 0.675(4) 0.592(2) 0.897(2)
H13 H 1.173(4) 0.396(2) 0.871(2)
H14 H 1.034(3) 0.251(2) 0.878(2)
H15 H 0.874(3) -0.119(2) 0.728(2)
H16 H 0.993(3) 0.024(2) 0.735(2)
H17 H 0.785(3) 0.153(2) 0.492(2)
H18 H 0.665(3) 0.012(2) 0.483(2)
H19 H 0.758(4) 0.479(2) 0.636(2)
H20 H 0.921(3) 0.613(2) 0.631(2)
H21 H 1.391(4) 0.393(2) 0.611(2)
H22 H 1.230(3) 0.262(2) 0.616(2)
#END
