
#######################################################################
#
#                 Cambridge Crystallographic Data Centre
#                                CCDC
#
#######################################################################
#
# If this CIF has been generated from an entry in the Cambridge
# Structural Database, then it will include bibliographic, chemical,
# crystal, experimental, refinement or atomic coordinate data resulting
# from the CCDC's data processing and validation procedures.
#
#######################################################################

data_CSD_CIF_FASCIM
_audit_creation_date 2005-04-18
_audit_creation_method CSD-ConQuest-V1
_database_code_CSD FASCIM
_chemical_formula_sum 'C30 H33 N1 O6'
_chemical_formula_moiety
;
C30 H33 N1 O6
;
_journal_coden_Cambridge 179
_journal_volume 43
_journal_year 2004
_journal_page_first 6689
_journal_name_full 'Angew.Chem.,Int.Ed. '
loop_
_publ_author_name
"Chang-Woo Cho"
"M.J.Krische"
_chemical_name_systematic
;
2-(2-Phenylprop-2-yl)-5-methylcyclohexyl 
2-((5-oxo-2H,5H-furan-2-yl)-(4-nitrophenyl)methyl)prop-2-enoate
;
_cell_volume   2595.681
_exptl_crystal_colour 'colorless'
_exptl_crystal_density_diffrn 1.289
_exptl_crystal_description 'needle'
_exptl_crystal_preparation 'acetone/hexanes'
_diffrn_ambient_temperature 153
#These two values have been output from a single CSD field.
_refine_ls_R_factor_gt 0.062
_refine_ls_wR_factor_gt 0.062
_symmetry_cell_setting orthorhombic
_symmetry_space_group_name_H-M 'P 21 21 21'
_symmetry_Int_Tables_number 19
loop_
_symmetry_equiv_pos_site_id
_symmetry_equiv_pos_as_xyz
1 x,y,z
2 1/2-x,-y,1/2+z
3 1/2+x,1/2-y,-z
4 -x,1/2+y,1/2-z
_cell_length_a 6.0273(1)
_cell_length_b 18.1164(5)
_cell_length_c 23.7715(7)
_cell_angle_alpha 90
_cell_angle_beta 90
_cell_angle_gamma 90
_cell_formula_units_Z 4
loop_
_atom_type_symbol
_atom_type_radius_bond
C 0.68
H 0.23
N 0.68
O 0.68
loop_
_atom_site_label
_atom_site_type_symbol
_atom_site_fract_x
_atom_site_fract_y
_atom_site_fract_z
C1 C 0.2697(7) 0.5362(2) 0.0156(2)
C2 C 0.1157(7) 0.4746(2) -0.0046(2)
C3 C 0.0435(8) 0.4940(2) -0.0647(2)
C4 C -0.0661(7) 0.5693(2) -0.0677(2)
C5 C 0.0835(7) 0.6307(2) -0.0462(2)
C6 C 0.1642(7) 0.6119(2) 0.0131(2)
O1 O 0.3296(4) 0.5205(1) 0.0743(1)
C7 C 0.5270(7) 0.5455(2) 0.0920(2)
O2 O 0.6521(5) 0.5811(2) 0.0627(1)
C8 C 0.5796(7) 0.5248(2) 0.1504(2)
C9 C 0.4541(7) 0.4765(2) 0.1775(2)
C10 C 0.7903(6) 0.5606(2) 0.1735(2)
C11 C 0.8603(6) 0.5313(2) 0.2315(2)
O3 O 1.0817(4) 0.5602(2) 0.2431(1)
C12 C 1.0807(8) 0.5973(2) 0.2935(2)
C13 C 0.8555(7) 0.5935(2) 0.3162(2)
C14 C 0.7287(7) 0.5559(2) 0.2812(2)
O4 O 1.2459(5) 0.6261(2) 0.3110(1)
C15 C 0.7741(7) 0.6437(2) 0.1749(2)
C16 C 0.5882(7) 0.6786(2) 0.1964(2)
C17 C 0.5810(9) 0.7549(3) 0.2004(2)
C18 C 0.7609(10) 0.7954(2) 0.1831(2)
C19 C 0.9451(9) 0.7634(2) 0.1615(2)
C20 C 0.9528(7) 0.6873(2) 0.1578(2)
N1 N 0.7521(11) 0.8765(3) 0.1882(2)
O5 O 0.9284(9) 0.9111(2) 0.1790(2)
O6 O 0.5751(9) 0.9049(2) 0.2002(2)
C21 C 0.2131(7) 0.3952(2) 0.0029(2)
C22 C 0.4555(7) 0.3940(2) -0.0181(2)
C23 C 0.0863(7) 0.3397(2) -0.0348(2)
C24 C 0.1913(7) 0.3661(2) 0.0629(2)
C25 C -0.0087(7) 0.3719(2) 0.0918(2)
C26 C -0.0431(8) 0.3387(2) 0.1438(2)
C27 C 0.1240(8) 0.2966(2) 0.1681(2)
C28 C 0.3236(8) 0.2907(2) 0.1404(2)
C29 C 0.3579(8) 0.3254(2) 0.0891(2)
C30 C -0.0298(8) 0.7061(2) -0.0480(2)
H1 H 0.40110 0.53560 -0.00720
H2 H -0.01490 0.47740 0.01840
H3 H -0.05610 0.45680 -0.07860
H4 H 0.17290 0.49450 -0.08830
H5 H -0.19480 0.56810 -0.04390
H6 H -0.11460 0.57960 -0.10530
H7 H 0.21030 0.63270 -0.07060
H8 H 0.27000 0.64830 0.02490
H9 H 0.04040 0.61320 0.03850
H10 H 0.49080 0.46170 0.21510
H11 H 0.32510 0.45650 0.15930
H12 H 0.90680 0.54940 0.14730
H13 H 0.86670 0.47840 0.23010
H14 H 0.80840 0.61570 0.35080
H15 H 0.57400 0.54560 0.28660
H16 H 0.46430 0.64930 0.20840
H17 H 0.45220 0.77960 0.21490
H18 H 1.06720 0.79370 0.14960
H19 H 1.08150 0.66310 0.14280
H20 H 0.51660 0.34530 -0.01460
H21 H 0.45940 0.40900 -0.05680
H22 H 0.54120 0.42790 0.00410
H23 H 0.14900 0.29130 -0.03080
H24 H -0.06600 0.33880 -0.02290
H25 H 0.09440 0.35470 -0.07340
H26 H -0.12580 0.39940 0.07420
H27 H -0.18160 0.34510 0.16310
H28 H 0.10150 0.27170 0.20330
H29 H 0.44110 0.26270 0.15730
H30 H 0.49990 0.32110 0.07110
H31 H -0.08050 0.71790 -0.08520
H32 H -0.15400 0.70490 -0.02270
H33 H 0.07410 0.74280 -0.03570
#END
