
#######################################################################
#
#                 Cambridge Crystallographic Data Centre
#                                CCDC
#
#######################################################################
#
# If this CIF has been generated from an entry in the Cambridge
# Structural Database, then it will include bibliographic, chemical,
# crystal, experimental, refinement or atomic coordinate data resulting
# from the CCDC's data processing and validation procedures.
#
#######################################################################

data_CSD_CIF_FASGAH
_audit_creation_date 1987-09-22
_audit_creation_method CSD-ConQuest-V1
_database_code_CSD FASGAH
_chemical_formula_sum 'C21 H10 N2 O5'
_chemical_formula_moiety
;
C21 H10 N2 O5
;
_journal_coeditor_code "IUCr A26289"
_journal_coden_Cambridge 591
_journal_volume 42
_journal_year 1986
_journal_page_first 1872
_journal_name_full 'Acta Crystallogr.,Sect.C:Cryst.Struct.Commun. '
loop_
_publ_author_name
"S.Fujisawa"
"I.Oonishi"
"J.Aoki"
"Y.Ohashi"
_chemical_name_systematic
;
5,7-Dinitro-13H-dibenz(a,de)anthracen-13-one
;
_cell_volume   1574.142
_exptl_crystal_colour 'orange'
_exptl_crystal_density_diffrn 1.562
_diffrn_ambient_temperature ?
_diffrn_special_details
;
The study was carried out at room temperature,in the range 283-303K

;
#These two values have been output from a single CSD field.
_refine_ls_R_factor_gt 0.06
_refine_ls_wR_factor_gt 0.06
_symmetry_cell_setting monoclinic
_symmetry_space_group_name_H-M 'P 21/n'
_symmetry_Int_Tables_number 14
loop_
_symmetry_equiv_pos_site_id
_symmetry_equiv_pos_as_xyz
1 x,y,z
2 1/2-x,1/2+y,1/2-z
3 -x,-y,-z
4 -1/2+x,-1/2-y,-1/2+z
_cell_length_a 22.511(3)
_cell_length_b 7.316(2)
_cell_length_c 9.688(2)
_cell_angle_alpha 90
_cell_angle_beta 99.39(2)
_cell_angle_gamma 90
_cell_formula_units_Z 4
loop_
_atom_type_symbol
_atom_type_radius_bond
C 0.68
H 0.23
N 0.68
O 0.68
loop_
_atom_site_label
_atom_site_type_symbol
_atom_site_fract_x
_atom_site_fract_y
_atom_site_fract_z
C1 C 0.5318(2) 0.3620(5) 0.7637(4)
C2 C 0.5932(2) 0.3592(6) 0.8151(4)
C3 C 0.6354(2) 0.3013(5) 0.7432(4)
C4 C 0.6565(2) 0.1821(6) 0.5204(4)
C5 C 0.6417(2) 0.1253(5) 0.3809(4)
C6 C 0.5790(2) 0.1287(5) 0.3212(4)
C7 C 0.4705(2) 0.1939(6) 0.3463(4)
C8 C 0.3661(2) 0.2608(6) 0.3806(4)
C9 C 0.3246(2) 0.3174(6) 0.4603(4)
C10 C 0.3443(2) 0.3713(6) 0.5972(4)
C11 C 0.4038(2) 0.3673(6) 0.6522(4)
C12 C 0.4471(2) 0.3098(5) 0.5735(4)
C13 C 0.5111(2) 0.3046(5) 0.6292(4)
C14 C 0.5535(2) 0.2439(5) 0.5436(4)
C15 C 0.6163(2) 0.2387(5) 0.6041(4)
C16 C 0.5354(2) 0.1871(5) 0.4023(4)
C17 C 0.4273(2) 0.2561(5) 0.4345(4)
C18 C 0.6859(2) 0.0657(6) 0.3042(4)
C19 C 0.6694(2) 0.0098(7) 0.1693(4)
C20 C 0.6084(2) 0.0107(7) 0.1076(4)
C21 C 0.5646(2) 0.0667(6) 0.1794(4)
N1 N 0.6134(2) 0.4332(5) 0.9596(3)
N2 N 0.7201(1) 0.1768(5) 0.5840(3)
O1 O 0.4504(1) 0.1477(5) 0.2264(3)
O2 O 0.5746(2) 0.4980(6) 1.0171(3)
O3 O 0.6658(1) 0.4221(5) 1.0094(3)
O4 O 0.7366(1) 0.0578(4) 0.6701(3)
O5 O 0.7538(1) 0.2935(4) 0.5501(3)
H1 H 0.501(1) 0.410(4) 0.832(3)
H2 H 0.683(1) 0.304(5) 0.790(3)
H3 H 0.353(1) 0.221(5) 0.273(3)
H4 H 0.277(1) 0.317(4) 0.418(3)
H5 H 0.312(1) 0.415(4) 0.659(3)
H6 H 0.418(1) 0.413(4) 0.759(3)
H7 H 0.731(1) 0.062(5) 0.353(3)
H8 H 0.702(1) -0.033(5) 0.107(3)
H9 H 0.596(1) -0.032(5) 0.001(3)
H10 H 0.518(1) 0.070(4) 0.132(3)
#END
