
#######################################################################
#
#                 Cambridge Crystallographic Data Centre
#                                CCDC
#
#######################################################################
#
# If this CIF has been generated from an entry in the Cambridge
# Structural Database, then it will include bibliographic, chemical,
# crystal, experimental, refinement or atomic coordinate data resulting
# from the CCDC's data processing and validation procedures.
#
#######################################################################

data_CSD_CIF_FAZLEX
_audit_creation_date 1999-07-19
_audit_creation_method CSD-ConQuest-V1
_database_code_CSD FAZLEX
_database_code_depnum_ccdc_archive 'CCDC 101883'
_chemical_formula_sum 'C24 H28 N2 O4'
_chemical_formula_moiety
;
C24 H28 N2 O4
;
_journal_coden_Cambridge 119
_journal_volume 471
_journal_year 1998
_journal_page_first 139
_journal_name_full 'J.Mol.Struct. '
loop_
_publ_author_name
"M.Kato"
"K.Kobayashi"
"M.Okunaka"
"N.Sugita"
"M.Kiguchi"
"Y.Taniguchi"
_chemical_name_systematic
;
3-Butyrylamino-4-(4-hexyloxyphenylethynyl)nitrobenzene
;
_chemical_melting_point 398.65
_cell_volume   2221.575
_exptl_crystal_colour 'yellow'
_exptl_crystal_density_diffrn 1.221
_exptl_crystal_description 'plate'
_exptl_crystal_preparation 'ethanol'
_diffrn_ambient_temperature ?
_diffrn_special_details
;
The study was carried out at room temperature,in the range 283-303K

;
#These two values have been output from a single CSD field.
_refine_ls_R_factor_gt 0.055
_refine_ls_wR_factor_gt 0.055
_symmetry_cell_setting monoclinic
_symmetry_space_group_name_H-M 'C c'
_symmetry_Int_Tables_number 9
loop_
_symmetry_equiv_pos_site_id
_symmetry_equiv_pos_as_xyz
1 x,y,z
2 x,-y,1/2+z
3 1/2+x,1/2+y,z
4 1/2+x,1/2-y,1/2+z
_cell_length_a 27.667(6)
_cell_length_b 4.910(2)
_cell_length_c 20.856(3)
_cell_angle_alpha 90
_cell_angle_beta 128.36(3)
_cell_angle_gamma 90
_cell_formula_units_Z 4
loop_
_atom_type_symbol
_atom_type_radius_bond
C 0.68
H 0.23
N 0.68
O 0.68
loop_
_atom_site_label
_atom_site_type_symbol
_atom_site_fract_x
_atom_site_fract_y
_atom_site_fract_z
O1 O 0.2633(2) 0.3575(7) 0.3174(2)
O2 O 0.0000(2) 0.2717(13) 0.0000(3)
O3 O 0.0554(3) 0.1800(13) 0.1284(3)
O4 O 0.4810(2) 1.8356(9) 0.3076(2)
N1 N 0.2405(2) 0.7814(8) 0.2628(2)
N2 N 0.0461(2) 0.3018(12) 0.0706(3)
C1 C 0.2275(3) 1.0505(12) 0.1370(3)
C2 C 0.1808(2) 0.8630(11) 0.1186(3)
C3 C 0.1878(2) 0.7224(10) 0.1823(3)
C4 C 0.1446(2) 0.5365(11) 0.1672(3)
C5 C 0.0932(2) 0.4966(12) 0.0864(3)
C6 C 0.0833(3) 0.6314(13) 0.0212(3)
C7 C 0.1270(3) 0.8170(13) 0.0372(3)
C8 C 0.2702(3) 1.1922(12) 0.1615(3)
C9 C 0.3237(2) 1.3593(11) 0.1955(3)
C10 C 0.3721(3) 1.3524(13) 0.2809(3)
C11 C 0.4231(3) 1.5131(13) 0.3154(3)
C12 C 0.4285(2) 1.6858(12) 0.2666(3)
C13 C 0.3816(3) 1.6924(13) 0.1823(3)
C14 C 0.3299(3) 1.5314(12) 0.1479(3)
C15 C 0.2760(2) 0.5993(10) 0.3241(3)
C16 C 0.3345(3) 0.7249(12) 0.4001(3)
C17 C 0.3654(3) 0.5469(14) 0.4749(4)
C18 C 0.4206(3) 0.6933(18) 0.5509(4)
C19 C 0.4913(3) 2.0024(14) 0.2607(3)
C20 C 0.5516(3) 2.1528(14) 0.3211(3)
C21 C 0.5748(3) 2.2789(16) 0.2777(4)
C22 C 0.6323(3) 2.4566(16) 0.3356(4)
C23 C 0.6879(3) 2.3227(15) 0.4071(4)
C24 C 0.7404(3) 2.5228(17) 0.4629(4)
H1 H 0.260(3) 0.946(12) 0.278(3)
H2 H 0.152(3) 0.408(12) 0.212(3)
H3 H 0.051(3) 0.618(12) -0.033(3)
H4 H 0.123(2) 0.906(12) -0.009(3)
H5 H 0.367(3) 1.224(13) 0.318(3)
H6 H 0.461(3) 1.457(13) 0.369(3)
H7 H 0.388(3) 1.816(13) 0.150(3)
H8 H 0.290(3) 1.545(14) 0.090(3)
H9 H 0.364(3) 0.794(14) 0.377(4)
H10 H 0.317(3) 0.931(13) 0.410(4)
H11 H 0.380(3) 0.359(14) 0.469(4)
H12 H 0.336(3) 0.443(16) 0.490(4)
H13 H 0.453(3) 0.740(15) 0.538(4)
H14 H 0.407(3) 0.886(16) 0.561(4)
H15 H 0.438(3) 0.561(15) 0.600(4)
H16 H 0.453(3) 2.116(14) 0.220(4)
H17 H 0.493(3) 1.895(13) 0.216(4)
H18 H 0.548(3) 2.298(15) 0.361(4)
H19 H 0.584(3) 2.068(13) 0.372(3)
H20 H 0.590(3) 2.103(15) 0.273(4)
H21 H 0.541(3) 2.322(15) 0.219(4)
H22 H 0.612(3) 2.627(15) 0.351(4)
H23 H 0.639(3) 2.520(17) 0.302(4)
H24 H 0.693(3) 2.167(14) 0.379(4)
H25 H 0.675(3) 2.271(14) 0.445(4)
H26 H 0.726(3) 2.673(14) 0.492(4)
H27 H 0.741(3) 2.585(13) 0.427(4)
H28 H 0.781(3) 2.442(15) 0.510(4)
#END
