
#######################################################################
#
#                 Cambridge Crystallographic Data Centre
#                                CCDC
#
#######################################################################
#
# If this CIF has been generated from an entry in the Cambridge
# Structural Database, then it will include bibliographic, chemical,
# crystal, experimental, refinement or atomic coordinate data resulting
# from the CCDC's data processing and validation procedures.
#
#######################################################################

data_CSD_CIF_FECJEE
_audit_creation_date 2012-08-03
_audit_creation_method CSD-ConQuest-V1
_database_code_CSD FECJEE
_database_code_depnum_ccdc_archive 'CCDC 863008'
_chemical_formula_sum 'C20 H15 N3 O2'
_chemical_formula_moiety
;
C20 H15 N3 O2
;
_journal_coden_Cambridge 1500
_journal_volume 2
_journal_year 2012
_journal_page_first 4616
_journal_name_full 'RSC Advances '
loop_
_publ_author_name
"R.K.Kumar"
"T.Punniyamurthy"
_chemical_name_systematic
;
6-Methyl-1-(4-nitrophenyl)-2-phenyl-1H-benzimidazole
;
_chemical_melting_point 440.15
_cell_volume    844.637
_exptl_crystal_colour 'yellow'
_exptl_crystal_density_diffrn 1.295
_exptl_special_details
;
Melting point range 440.15-442.15K

;
_exptl_crystal_description 'block'
_diffrn_ambient_temperature 296
#These two values have been output from a single CSD field.
_refine_ls_R_factor_gt 0.0502
_refine_ls_wR_factor_gt 0.0502
_symmetry_cell_setting triclinic
_symmetry_space_group_name_H-M 'P -1'
_symmetry_Int_Tables_number 2
loop_
_symmetry_equiv_pos_site_id
_symmetry_equiv_pos_as_xyz
1 x,y,z
2 -x,-y,-z
_cell_length_a 8.2036(6)
_cell_length_b 10.3079(8)
_cell_length_c 10.9919(9)
_cell_angle_alpha 76.796(5)
_cell_angle_beta 78.813(5)
_cell_angle_gamma 70.229(5)
_cell_formula_units_Z 2
loop_
_atom_type_symbol
_atom_type_radius_bond
C 0.68
H 0.23
N 0.68
O 0.68
loop_
_atom_site_label
_atom_site_type_symbol
_atom_site_fract_x
_atom_site_fract_y
_atom_site_fract_z
N1 N 0.3009(3) 0.6936(2) 0.4305(3)
O1 O 0.1880(3) 0.6884(3) 0.3748(2)
O2 O 0.2717(3) 0.7270(3) 0.5345(3)
N2 N 0.9948(2) 0.55663(19) 0.19826(16)
N3 N 1.2385(3) 0.5609(2) 0.06443(17)
C1 C 0.4824(3) 0.6557(2) 0.3693(2)
C2 C 0.8183(3) 0.5909(2) 0.2559(2)
C3 C 0.7801(3) 0.6175(3) 0.3774(2)
H1 H 0.86940 0.61300 0.42050
C4 C 1.1253(3) 0.4337(2) 0.2378(2)
C5 C 1.2738(3) 0.4387(3) 0.1538(2)
C6 C 0.5170(3) 0.6279(2) 0.2490(2)
H2 H 0.42730 0.63150 0.20670
C7 C 0.6870(3) 0.5946(2) 0.1924(2)
H3 H 0.71360 0.57450 0.11120
C8 C 0.6109(3) 0.6506(3) 0.4348(2)
H4 H 0.58410 0.66910 0.51650
C9 C 1.0726(3) 0.6278(2) 0.0928(2)
C10 C 1.1199(3) 0.3217(3) 0.3327(2)
H5 H 1.01810 0.32140 0.38740
C11 C 1.4223(4) 0.2160(3) 0.2605(3)
H6 H 1.52380 0.14080 0.26990
C12 C 0.9802(3) 0.7620(3) 0.0189(2)
C13 C 1.2708(3) 0.2094(3) 0.3439(2)
C14 C 1.4276(3) 0.3280(3) 0.1657(2)
H7 H 1.52970 0.32970 0.11190
C15 C 1.0404(4) 0.7890(3) -0.1096(2)
H8 H 1.13310 0.72220 -0.14570
C16 C 0.8418(4) 0.8637(3) 0.0698(3)
H9 H 0.80090 0.84830 0.15520
C17 C 1.2708(4) 0.0819(3) 0.4452(3)
H10 H 1.30220 0.09380 0.52070
H11 H 1.35370 0.00000 0.41680
H12 H 1.15640 0.07100 0.46220
C18 C 0.9621(5) 0.9147(4) -0.1825(3)
H13 H 1.00260 0.93230 -0.26780
C19 C 0.7641(5) 0.9881(3) -0.0059(4)
H14 H 0.66920 1.05500 0.02840
C20 C 0.8255(6) 1.0138(4) -0.1308(4)
H15 H 0.77440 1.09870 -0.18070
#END
