
#######################################################################
#
#                 Cambridge Crystallographic Data Centre
#                                CCDC
#
#######################################################################
#
# If this CIF has been generated from an entry in the Cambridge
# Structural Database, then it will include bibliographic, chemical,
# crystal, experimental, refinement or atomic coordinate data resulting
# from the CCDC's data processing and validation procedures.
#
#######################################################################

data_CSD_CIF_FEDREM
_audit_creation_date 2005-04-29
_audit_creation_method CSD-ConQuest-V1
_database_code_CSD FEDREM
_database_code_depnum_ccdc_archive 'CCDC 264086'
_chemical_formula_sum 'C18 H18 N2 O3'
_chemical_formula_moiety
;
C18 H18 N2 O3
;
_journal_coeditor_code "IUCr RZ6039"
_journal_coden_Cambridge 1370
_journal_volume 61
_journal_year 2005
_journal_page_first o461
_journal_name_full 'Acta Crystallogr.,Sect.E:Struct.Rep.Online '
loop_
_publ_author_name
"K.Ravikumar"
"B.Sridhar"
"M.Mahesh"
"V.V.N.Reddy"
_chemical_name_systematic
;
5-(4-Nitrophenyl)-3,4,4a,5,6,10b-hexahydro-2H-pyrano(3,2-c)quinoline
;
_cell_volume    787.179
_exptl_crystal_colour 'colorless'
_exptl_crystal_density_diffrn 1.309
_exptl_crystal_description 'block'
_exptl_crystal_preparation 'methanol-water'
_diffrn_ambient_temperature 273
#These two values have been output from a single CSD field.
_refine_ls_R_factor_gt 0.061
_refine_ls_wR_factor_gt 0.061
loop_
_citation_database_id_CSD
_citation_special_details
CIXCES "is a stereoisomer of this entry"
_symmetry_cell_setting triclinic
_symmetry_space_group_name_H-M 'P -1'
_symmetry_Int_Tables_number 2
loop_
_symmetry_equiv_pos_site_id
_symmetry_equiv_pos_as_xyz
1 x,y,z
2 -x,-y,-z
_cell_length_a 9.5001(10)
_cell_length_b 9.8823(10)
_cell_length_c 9.9403(10)
_cell_angle_alpha 98.039(2)
_cell_angle_beta 115.157(2)
_cell_angle_gamma 104.092(2)
_cell_formula_units_Z 2
loop_
_atom_type_symbol
_atom_type_radius_bond
C 0.68
H 0.23
N 0.68
O 0.68
loop_
_atom_site_label
_atom_site_type_symbol
_atom_site_fract_x
_atom_site_fract_y
_atom_site_fract_z
N1 N 0.5979(3) 0.8189(2) 1.1103(2)
H1 H 0.700(3) 0.845(3) 1.171(3)
N2 N 0.9753(2) 0.9282(2) 0.7131(2)
O1 O 0.2223(2) 0.49447(16) 0.88797(18)
O2 O 1.0328(3) 0.8449(2) 0.6707(3)
O3 O 1.0069(2) 1.0536(2) 0.7075(2)
C1 C 0.1396(4) 0.4255(3) 0.7255(3)
H2 H 0.03760 0.44620 0.67640
H3 H 0.11170 0.32120 0.70800
C2 C 0.2467(4) 0.4781(3) 0.6543(3)
H4 H 0.18760 0.43190 0.54380
H5 H 0.34600 0.45250 0.69880
C3 C 0.2927(3) 0.6409(3) 0.6840(3)
H6 H 0.19520 0.66430 0.62410
H7 H 0.37270 0.67570 0.64950
C4 C 0.3654(3) 0.7188(2) 0.8548(2)
H8 H 0.36640 0.81900 0.86230
C5 C 0.5427(3) 0.7245(2) 0.9584(2)
H9 H 0.54110 0.62670 0.96750
C6 C 0.4998(3) 0.7882(3) 1.1804(3)
C7 C 0.5660(3) 0.8426(3) 1.3395(3)
H10 H 0.67720 0.89890 1.39920
C8 C 0.4692(4) 0.8142(3) 1.4090(3)
H11 H 0.51550 0.85020 1.51560
C9 C 0.3040(3) 0.7331(3) 1.3229(3)
H12 H 0.23870 0.71360 1.37060
C10 C 0.2373(3) 0.6814(2) 1.1663(3)
H13 H 0.12520 0.62790 1.10790
C11 C 0.3321(3) 0.7064(2) 1.0918(2)
C12 C 0.2562(3) 0.6479(2) 0.9197(2)
H14 H 0.15110 0.66560 0.87100
C13 C 0.6592(3) 0.7803(2) 0.8970(2)
C14 C 0.7181(3) 0.6864(2) 0.8361(3)
H15 H 0.68770 0.58970 0.83670
C15 C 0.8203(3) 0.7333(2) 0.7749(3)
H16 H 0.85880 0.66950 0.73400
C16 C 0.8640(2) 0.8762(2) 0.7756(2)
C17 C 0.8087(3) 0.9725(2) 0.8354(3)
H17 H 0.84010 1.06930 0.83520
C18 C 0.7064(3) 0.9235(2) 0.8953(3)
H18 H 0.66800 0.98800 0.93550
#END
