
#######################################################################
#
#                 Cambridge Crystallographic Data Centre
#                                CCDC
#
#######################################################################
#
# If this CIF has been generated from an entry in the Cambridge
# Structural Database, then it will include bibliographic, chemical,
# crystal, experimental, refinement or atomic coordinate data resulting
# from the CCDC's data processing and validation procedures.
#
#######################################################################

data_CSD_CIF_FEFBAU
_audit_creation_date 2005-04-29
_audit_creation_method CSD-ConQuest-V1
_database_code_CSD FEFBAU
_database_code_depnum_ccdc_archive 'CCDC 260024'
_chemical_formula_sum 'C10 H13 N5 O3'
_chemical_formula_moiety
;
C10 H13 N5 O3
;
_journal_coden_Cambridge 95
_journal_year 2004
_journal_page_first 1221
_journal_name_full 'Izv.Akad.Nauk SSSR,Ser.Khim.(Russ.)(Russ.Chem.Bull.) '
loop_
_publ_author_name
"P.A.Slepukhin"
"G.L.Rusinov"
"V.N.Charushin"
"V.I.Filyakova"
"N.S.Karpenko"
"D.B.Krivolapov"
"I.A.Litvinov"
_chemical_name_systematic
;
1-Ethyl-5-nitromethyl-6-methoxy-2,3-dicyano-1,4,5,6-tetrahydropyrazine
;
_chemical_melting_point 401.15
_cell_volume    639.744
_exptl_crystal_colour 'dark yellow'
_exptl_crystal_density_diffrn 1.304
_exptl_special_details
;
Melting point range 401.15-403.15K

;
_diffrn_ambient_temperature 295
_refine_special_details
;
The oxygen atoms of the nitro group are each disordered over two positions 
with occupancies 0.519:0.481.
;
#These two values have been output from a single CSD field.
_refine_ls_R_factor_gt 0.0745
_refine_ls_wR_factor_gt 0.0745
_symmetry_cell_setting triclinic
_symmetry_space_group_name_H-M 'P -1'
_symmetry_Int_Tables_number 2
loop_
_symmetry_equiv_pos_site_id
_symmetry_equiv_pos_as_xyz
1 x,y,z
2 -x,-y,-z
_cell_length_a 8.327(2)
_cell_length_b 8.418(2)
_cell_length_c 10.410(2)
_cell_angle_alpha 89.91(3)
_cell_angle_beta 88.94(3)
_cell_angle_gamma 61.27(3)
_cell_formula_units_Z 2
loop_
_atom_type_symbol
_atom_type_radius_bond
C 0.68
H 0.23
N 0.68
O 0.68
loop_
_atom_site_label
_atom_site_type_symbol
_atom_site_fract_x
_atom_site_fract_y
_atom_site_fract_z
O1 O 1.345(1) 0.1173(7) 0.4436(6)
O2 O 1.2141(9) 0.3911(7) 0.4017(8)
O3? O 1.1369(10) 0.2281(9) 0.5002(4)
O4? O 1.2804(16) 0.3403(19) 0.4140(9)
O5 O 0.79935(15) 0.64202(15) 0.17084(11)
N1 N 0.76086(18) 0.3954(2) 0.24581(13)
N2 N 1.04174(18) 0.30101(19) 0.06215(14)
H1 H 1.12270 0.27940 0.00260
N3 N 0.8655(4) 0.1726(3) -0.1867(2)
N4 N 0.4883(3) 0.2571(3) 0.0902(2)
N5 N 1.2241(3) 0.2473(3) 0.3927(2)
C1 C 0.87072(19) 0.4844(2) 0.24732(15)
H2 H 0.88310 0.51550 0.33590
C2 C 1.06152(19) 0.3608(2) 0.18782(16)
H3 H 1.12700 0.43080 0.17850
C3 C 0.8913(2) 0.2790(2) 0.03900(15)
C4 C 0.7585(2) 0.3165(2) 0.13038(15)
C5 C 0.6547(3) 0.3918(3) 0.35875(18)
H4 H 0.53270 0.42050 0.33230
H5 H 0.64270 0.48480 0.41910
C6 C 0.7397(5) 0.2131(4) 0.4249(3)
H6 H 0.66490 0.21870 0.49780
H7 H 0.85960 0.18490 0.45290
H8 H 0.74930 0.12080 0.36630
C7 C 0.8759(3) 0.2196(3) -0.08587(18)
C8 C 0.6080(3) 0.2836(3) 0.10656(18)
C9 C 1.1741(2) 0.1967(2) 0.2707(2)
H9 H 1.10430 0.13400 0.28850
H10 H 1.28470 0.11390 0.22370
C10 C 0.6272(3) 0.7843(3) 0.2161(2)
H11 H 0.58730 0.88620 0.15970
H12 H 0.64010 0.82000 0.30120
H13 H 0.53830 0.74250 0.21780
#END
