
#######################################################################
#
#                 Cambridge Crystallographic Data Centre
#                                CCDC
#
#######################################################################
#
# If this CIF has been generated from an entry in the Cambridge
# Structural Database, then it will include bibliographic, chemical,
# crystal, experimental, refinement or atomic coordinate data resulting
# from the CCDC's data processing and validation procedures.
#
#######################################################################

data_CSD_CIF_FEFHOQ
_audit_creation_date 2017-07-14
_audit_creation_method CSD-ConQuest-V1
_database_code_CSD FEFHOQ
_database_code_depnum_ccdc_archive 'CCDC 1405542'
_chemical_formula_sum 'C21 H16 N2 O4'
_chemical_formula_moiety
;
C21 H16 N2 O4
;
_journal_coden_Cambridge 917
_journal_volume 12
_journal_year 2016
_journal_page_first 2390
_journal_name_full 'Beilstein J.Org.Chem. '
loop_
_publ_author_name
"I.V.Efimov"
"M.Z.Shafikov"
"N.A.Beliaev"
"N.N.Volkova"
"T.V.Beryozkina"
"Wim Dehaen"
"Zhijin Fan"
"V.V.Grishko"
"G.Lubec"
"P.A.Slepukhin"
"V.A.Bakulev"
_chemical_name_systematic
;
ethyl 3,3'-diphenyl-4,5'-bi-1,2-oxazole-4'-carboxylate
;
_cell_volume   1746.327
_exptl_crystal_colour 'colorless'
_exptl_crystal_density_diffrn 1.371
_exptl_crystal_description 'prism'
_diffrn_ambient_temperature 150
#These two values have been output from a single CSD field.
_refine_ls_R_factor_gt 0.0438
_refine_ls_wR_factor_gt 0.0438
_symmetry_cell_setting monoclinic
_symmetry_space_group_name_H-M 'P 21/c'
_symmetry_Int_Tables_number 14
loop_
_symmetry_equiv_pos_site_id
_symmetry_equiv_pos_as_xyz
1 x,y,z
2 -x,1/2+y,1/2-z
3 -x,-y,-z
4 x,-1/2-y,-1/2+z
_cell_length_a 8.9596(4)
_cell_length_b 12.5516(3)
_cell_length_c 15.7754(4)
_cell_angle_alpha 90
_cell_angle_beta 100.144(3)
_cell_angle_gamma 90
_cell_formula_units_Z 4
loop_
_atom_type_symbol
_atom_type_radius_bond
C 0.68
H 0.23
N 0.68
O 0.68
loop_
_atom_site_label
_atom_site_type_symbol
_atom_site_fract_x
_atom_site_fract_y
_atom_site_fract_z
O1 O 0.80255(10) 0.60805(7) 0.20575(5)
O2 O 0.39301(11) 0.57985(7) 0.02818(5)
O3 O 0.42227(10) 0.70886(7) 0.29884(5)
C1 C 0.66363(13) 0.62873(9) 0.22386(7)
C2 C 0.20788(15) 0.46191(10) 0.23833(8)
H1 H 0.13540 0.48490 0.19240
C3 C 0.36164(14) 0.47749(9) 0.23676(7)
C4 C 0.46938(15) 0.44249(10) 0.30626(7)
H2 H 0.57220 0.45140 0.30540
N1 N 0.32264(13) 0.52015(8) 0.08568(6)
N2 N 0.91322(12) 0.63611(9) 0.27772(7)
O4 O 0.57497(12) 0.71543(8) 0.42845(6)
C5 C 0.53680(14) 0.59747(9) 0.15720(7)
C6 C 0.27000(17) 0.37926(10) 0.37794(8)
H3 H 0.23930 0.34720 0.42520
C7 C 0.90211(16) 0.79931(10) 0.45961(8)
H4 H 0.82720 0.84550 0.43280
C8 C 0.42279(16) 0.39436(10) 0.37672(8)
H5 H 0.49470 0.37220 0.42330
C9 C 0.16294(16) 0.41221(10) 0.30823(8)
H6 H 0.06040 0.40090 0.30840
C10 C 0.92612(14) 0.70192(9) 0.42146(7)
C11 C 0.40814(14) 0.53127(9) 0.16194(7)
C12 C 0.52038(15) 0.6233(1) 0.07244(7)
C13 C 0.24037(17) 0.84117(11) 0.32820(9)
H7 H 0.21790 0.85870 0.26810
H8 H 0.32040 0.88630 0.35650
H9 H 0.15150 0.85160 0.35340
C14 C 1.10148(19) 0.75826(13) 0.57868(9)
H10 H 1.16050 0.77730 0.63100
C15 C 0.55561(14) 0.70102(9) 0.35158(7)
C16 C 1.12417(17) 0.66156(13) 0.54149(9)
H11 H 1.19780 0.61520 0.56930
C17 C 1.03776(15) 0.63285(11) 0.46266(8)
H12 H 1.05440 0.56790 0.43750
C18 C 0.99058(18) 0.82694(12) 0.53788(8)
H13 H 0.97530 0.89210 0.56310
C19 C 0.83807(14) 0.67119(9) 0.33626(7)
C20 C 0.28917(15) 0.72718(11) 0.33853(8)
H14 H 0.31280 0.70950 0.39930
H15 H 0.20700 0.68140 0.31180
C21 C 0.67761(13) 0.67052(9) 0.30482(7)
H16 H 0.5796(17) 0.6670(11) 0.0423(8)
#END
