
#######################################################################
#
#                 Cambridge Crystallographic Data Centre
#                                CCDC
#
#######################################################################
#
# If this CIF has been generated from an entry in the Cambridge
# Structural Database, then it will include bibliographic, chemical,
# crystal, experimental, refinement or atomic coordinate data resulting
# from the CCDC's data processing and validation procedures.
#
#######################################################################

data_CSD_CIF_FEFPOV
_audit_creation_date 1987-10-26
_audit_creation_method CSD-ConQuest-V1
_database_code_CSD FEFPOV
_chemical_formula_sum 'C16 H15 N3 O1'
_chemical_formula_moiety
;
C16 H15 N3 O1
;
_journal_coden_Cambridge 294
_journal_volume 136
_journal_year 1986
_journal_page_first 215
_journal_name_full 'J.Mol.Struct.:THEOCHEM '
loop_
_publ_author_name
"K.Horvath"
"D.Korbonits"
"G.Naray-Szabo"
"K.Simon"
_chemical_name_systematic
;
3-(N-Phenyl-2-aminoethyl)-5-phenyl-1,2,4-oxadiazole
;
_cell_volume   1379.301
_exptl_crystal_density_diffrn 1.278
_diffrn_ambient_temperature ?
_diffrn_special_details
;
The study was carried out at room temperature,in the range 283-303K

;
#These two values have been output from a single CSD field.
_refine_ls_R_factor_gt 0.057
_refine_ls_wR_factor_gt 0.057
_symmetry_cell_setting orthorhombic
_symmetry_space_group_name_H-M 'P 21 21 21'
_symmetry_Int_Tables_number 19
loop_
_symmetry_equiv_pos_site_id
_symmetry_equiv_pos_as_xyz
1 x,y,z
2 1/2+x,1/2-y,-z
3 -x,1/2+y,1/2-z
4 1/2-x,-y,1/2+z
_cell_length_a 5.329(1)
_cell_length_b 10.759(2)
_cell_length_c 24.057(3)
_cell_angle_alpha 90
_cell_angle_beta 90
_cell_angle_gamma 90
_cell_formula_units_Z 4
loop_
_atom_type_symbol
_atom_type_radius_bond
C 0.68
H 0.23
N 0.68
O 0.68
loop_
_atom_site_label
_atom_site_type_symbol
_atom_site_fract_x
_atom_site_fract_y
_atom_site_fract_z
O1 O 0.7002(7) -0.3027(3) 0.1222(1)
N1 N 0.565(1) -0.2641(4) 0.0750(2)
C1 C 0.677(1) -0.1653(4) 0.0611(2)
N2 N 0.8764(9) -0.1313(3) 0.0944(2)
C2 C 0.8818(10) -0.21981(4) 0.1313(2)
C3 C 0.5978(12) -0.0929(5) 0.0103(2)
C4 C 0.5750(11) 0.0403(5) 0.0197(2)
N3 N 0.3851(9) 0.0702(3) 0.0617(2)
C5 C 0.3640(9) 0.1903(4) 0.0802(2)
C6 C 0.1645(9) 0.2221(4) 0.1155(2)
C7 C 0.1456(10) 0.3387(5) 0.1363(2)
C8 C 0.3179(11) 0.4293(5) 0.1233(2)
C9 C 0.5133(11) 0.3986(4) 0.0884(2)
C10 C 0.5348(9) 0.2838(4) 0.0667(2)
C11 C 1.0451(10) -0.2406(4) 0.1792(2)
C12 C 1.2301(11) -0.1561(6) 0.1904(2)
C13 C 1.3837(12) -0.1742(7) 0.2354(3)
C14 C 1.3595(11) -0.2730(6) 0.2685(2)
C15 C 1.1691(13) -0.3596(6) 0.2577(2)
C16 C 1.0105(10) -0.3423(5) 0.2125(2)
H1 H 0.741(10) -0.116(5) -0.020(2)
H2 H 0.439(12) -0.126(5) 0.000(2)
H3 H 0.541(9) 0.091(4) -0.015(2)
H4 H 0.768(10) 0.058(5) 0.037(2)
H5 H 0.037(8) 0.162(4) 0.124(2)
H6 H 0.025(9) 0.357(4) 0.162(2)
H7 H 0.298(9) 0.519(4) 0.136(2)
H8 H 0.637(10) 0.456(4) 0.078(2)
H9 H 0.669(9) 0.258(4) 0.041(2)
H10 H 1.253(10) -0.094(4) 0.163(2)
H11 H 1.519(10) -0.118(4) 0.244(2)
H12 H 1.464(11) -0.286(5) 0.303(2)
H13 H 1.176(10) -0.425(4) 0.277(2)
H14 H 0.899(9) -0.394(4) 0.205(2)
H15 H 0.262(9) -0.001(4) 0.066(2)
#END
