
#######################################################################
#
#                 Cambridge Crystallographic Data Centre
#                                CCDC
#
#######################################################################
#
# If this CIF has been generated from an entry in the Cambridge
# Structural Database, then it will include bibliographic, chemical,
# crystal, experimental, refinement or atomic coordinate data resulting
# from the CCDC's data processing and validation procedures.
#
#######################################################################

data_CSD_CIF_FELROD
_audit_creation_date 1987-10-26
_audit_creation_method CSD-ConQuest-V1
_database_code_CSD FELROD
_chemical_formula_sum 'C19 H27 N1 O6'
_chemical_formula_moiety
;
C19 H27 N1 O6
;
_journal_coden_Cambridge 4
_journal_volume 109
_journal_year 1987
_journal_page_first 612
_journal_name_full 'J.Am.Chem.Soc. '
loop_
_publ_author_name
"W.H.Bunnelle"
"E.O.Schlemper"
_chemical_name_systematic
;
3,3-bis(1,1-Dimethylethyl)-1-(4-nitrophenyl)-5-methyl-2,6,7,8-tetraoxabicyclo(
3.2.1)octane
;
_chemical_melting_point 396.15
_cell_volume   1869.647
_exptl_crystal_density_diffrn 1.296
_exptl_special_details
;
Melting point range 396.15-397.65K

;
_diffrn_ambient_temperature ?
_diffrn_special_details
;
The study was carried out at room temperature,in the range 283-303K

;
#These two values have been output from a single CSD field.
_refine_ls_R_factor_gt 0.042
_refine_ls_wR_factor_gt 0.042
_symmetry_cell_setting monoclinic
_symmetry_space_group_name_H-M 'P 21/c'
_symmetry_Int_Tables_number 14
loop_
_symmetry_equiv_pos_site_id
_symmetry_equiv_pos_as_xyz
1 x,y,z
2 -x,1/2+y,1/2-z
3 -x,-y,-z
4 x,-1/2-y,-1/2+z
_cell_length_a 7.624(1)
_cell_length_b 12.778(3)
_cell_length_c 19.210(7)
_cell_angle_alpha 90
_cell_angle_beta 92.50(2)
_cell_angle_gamma 90
_cell_formula_units_Z 4
loop_
_atom_type_symbol
_atom_type_radius_bond
C 0.68
H 0.23
N 0.68
O 0.68
loop_
_atom_site_label
_atom_site_type_symbol
_atom_site_fract_x
_atom_site_fract_y
_atom_site_fract_z
O1 O 0.7077(2) 0.0546(1) 0.69085(7)
O2 O 1.0821(2) 0.0609(2) 0.6304(1)
O3 O 0.9448(2) 0.1382(1) 0.64231(9)
O4 O 0.8283(2) -0.0028(1) 0.58939(8)
O5 O 0.3412(3) 0.4280(2) 0.4552(1)
O6 O 0.1343(3) 0.3240(2) 0.4795(1)
N1 N 0.2890(3) 0.3493(2) 0.4817(1)
C1 C 0.7817(3) 0.0843(2) 0.6297(1)
C2 C 0.7833(3) -0.0338(2) 0.7317(1)
C3 C 0.9477(3) -0.0782(2) 0.6967(1)
C4 C 0.9854(3) -0.0366(2) 0.6251(1)
C5 C 0.6541(3) 0.1551(2) 0.5900(1)
C6 C 0.7062(3) 0.2499(2) 0.5640(1)
C7 C 0.5863(4) 0.3136(2) 0.5286(1)
C8 C 0.41765(3) 0.2805(2) 0.5184(1)
C9 C 0.3620(3) 0.1863(2) 0.5425(1)
C10 C 0.4813(3) 0.1245(2) 0.5786(1)
C11 C 0.6316(3) -0.1183(2) 0.7293(1)
C12 C 0.4505(4) -0.0741(3) 0.7457(2)
C13 C 0.6690(4) -0.2105(2) 0.7792(2)
C14 C 0.6071(4) -0.1648(2) 0.6557(2)
C15 C 0.8428(4) 0.0140(2) 0.8054(1)
C16 C 0.9505(4) -0.0638(3) 0.8519(2)
C17 C 0.6893(5) 0.0520(3) 0.8475(2)
C18 C 0.9649(5) 0.1077(3) 0.7954(2)
C19 C 1.0889(4) -0.1084(3) 0.5808(2)
H1 H 0.937(3) -0.158(2) 0.692(1)
H2 H 1.047(3) -0.062(2) 0.725(1)
H3 H 0.821(3) 0.267(2) 0.570(1)
H4 H 0.622(3) 0.375(2) 0.512(1)
H5 H 0.242(3) 0.166(2) 0.537(1)
H6 H 0.440(4) 0.061(2) 0.596(1)
H7 H 0.783(4) -0.242(2) 0.770(1)
H8 H 0.584(3) -0.261(2) 0.769(1)
H9 H 0.519(3) -0.213(2) 0.658(1)
H10 H 0.704(4) -0.207(2) 0.644(2)
H11 H 0.449(3) -0.053(2) 0.794(1)
H12 H 0.362(4) -0.126(2) 0.739(2)
H13 H 0.976(4) -0.028(2) 0.895(1)
H14 H 1.056(6) -0.092(3) 0.826(2)
H15 H 0.742(4) 0.098(2) 0.884(2)
H16 H 0.609(5) -0.017(3) 0.866(2)
H17 H 0.888(3) 0.167(2) 0.774(1)
H18 H 1.074(5) 0.098(3) 0.772(2)
H19 H 1.127(4) -0.075(2) 0.542(2)
H20 H 1.030(4) -0.174(3) 0.574(2)
H21 H 0.655(3) -0.190(2) 0.830(1)
H22 H 0.578(3) -0.110(2) 0.622(1)
H23 H 0.425(4) -0.009(3) 0.723(2)
H24 H 0.870(5) -0.121(3) 0.867(2)
H25 H 0.615(4) 0.098(3) 0.816(2)
H26 H 1.007(4) 0.129(2) 0.839(2)
H27 H 1.196(4) -0.127(2) 0.604(2)
#END
