
#######################################################################
#
#                 Cambridge Crystallographic Data Centre
#                                CCDC
#
#######################################################################
#
# If this CIF has been generated from an entry in the Cambridge
# Structural Database, then it will include bibliographic, chemical,
# crystal, experimental, refinement or atomic coordinate data resulting
# from the CCDC's data processing and validation procedures.
#
#######################################################################

data_CSD_CIF_FEPXEF
_audit_creation_date 2013-03-18
_audit_creation_method CSD-ConQuest-V1
_database_code_CSD FEPXEF
_database_code_depnum_ccdc_archive 'CCDC 878055'
_chemical_formula_sum 'C19 H21 N1 O4'
_chemical_formula_moiety
;
C19 H21 N1 O4
;
_journal_coden_Cambridge 1088
_journal_volume 23
_journal_year 2012
_journal_page_first 2266
_journal_name_full 'Synlett '
loop_
_publ_author_name
"R.W.Bates"
"C.H.Tang"
"Yuting Tan"
"S.N.b.Buang"
_chemical_name_systematic
;
Benzyl 3-methoxy-6-phenyl-1,2-oxazinane-2-carboxylate
;
_cell_volume    817.505
_exptl_crystal_colour 'colorless'
_exptl_crystal_density_diffrn 1.33
_exptl_crystal_description 'block'
_diffrn_ambient_temperature 103
#These two values have been output from a single CSD field.
_refine_ls_R_factor_gt 0.0524
_refine_ls_wR_factor_gt 0.0524
_symmetry_cell_setting triclinic
_symmetry_space_group_name_H-M 'P -1'
_symmetry_Int_Tables_number 2
loop_
_symmetry_equiv_pos_site_id
_symmetry_equiv_pos_as_xyz
1 x,y,z
2 -x,-y,-z
_cell_length_a 8.7455(4)
_cell_length_b 10.3654(4)
_cell_length_c 10.5100(4)
_cell_angle_alpha 68.341(2)
_cell_angle_beta 84.609(2)
_cell_angle_gamma 67.609(2)
_cell_formula_units_Z 2
loop_
_atom_type_symbol
_atom_type_radius_bond
C 0.68
H 0.23
N 0.68
O 0.68
loop_
_atom_site_label
_atom_site_type_symbol
_atom_site_fract_x
_atom_site_fract_y
_atom_site_fract_z
C1 C 0.30115(15) 0.36084(13) 0.49971(13)
H1 H 0.35600 0.37720 0.56270
C2 C 0.34185(15) 0.21588(14) 0.50221(13)
H2 H 0.42400 0.13400 0.56710
C3 C 0.26270(16) 0.19107(14) 0.41029(14)
H3 H 0.29160 0.09250 0.41140
C4 C 0.14079(16) 0.31086(14) 0.31639(13)
H4 H 0.08570 0.29390 0.25390
C5 C 0.09948(15) 0.45538(13) 0.31386(12)
H5 H 0.01590 0.53680 0.24980
C6 C 0.18032(14) 0.48165(13) 0.40512(12)
C7 C 0.12930(14) 0.64067(13) 0.39835(12)
H6 H 0.00880 0.67970 0.41540
C8 C 0.22598(15) 0.66374(13) 0.49543(12)
H7 H 0.34580 0.62340 0.48090
H8 H 0.20790 0.60950 0.59150
C9 C 0.16856(15) 0.83075(14) 0.46908(13)
H9 H 0.05420 0.86660 0.49880
H10 H 0.24100 0.84660 0.52400
C10 C 0.17322(15) 0.92071(13) 0.31816(12)
H11 H 0.11560 1.02990 0.30130
C11 C 0.36118(18) 0.99098(15) 0.15593(14)
H12 H 0.31020 0.97970 0.08350
H13 H 0.47960 0.96780 0.14180
H14 H 0.30820 1.09420 0.15300
C12 C -0.07405(16) 0.95035(13) 0.18904(13)
C13 C -0.29023(17) 1.19132(15) 0.11983(17)
H15 H -0.37880 1.15890 0.16970
H16 H -0.29280 1.19320 0.02520
C14 C -0.31321(15) 1.34313(14) 0.11825(13)
C15 C -0.43908(15) 1.41631(15) 0.18728(13)
H17 H -0.51380 1.37090 0.23560
C16 C -0.45591(16) 1.55594(15) 0.18582(14)
H18 H -0.54280 1.60600 0.23240
C17 C -0.34644(17) 1.62201(15) 0.11674(14)
H19 H -0.35640 1.71620 0.11760
C18 C -0.22173(16) 1.54989(15) 0.04605(14)
H20 H -0.14720 1.59550 -0.00250
C19 C -0.20611(16) 1.41185(15) 0.04641(14)
H21 H -0.12150 1.36360 -0.00280
N1 N 0.09093(13) 0.87888(11) 0.23265(11)
O1 O 0.15474(10) 0.72485(9) 0.25679(9)
O2 O 0.34013(11) 0.89067(10) 0.28645(9)
O3 O -0.12925(11) 1.09084(10) 0.18954(10)
O4 O -0.15489(12) 0.89765(11) 0.15156(11)
#END
