
#######################################################################
#
#                 Cambridge Crystallographic Data Centre
#                                CCDC
#
#######################################################################
#
# If this CIF has been generated from an entry in the Cambridge
# Structural Database, then it will include bibliographic, chemical,
# crystal, experimental, refinement or atomic coordinate data resulting
# from the CCDC's data processing and validation procedures.
#
#######################################################################

data_CSD_CIF_FEVBUD02
_audit_creation_date 1989-01-20
_audit_creation_method CSD-ConQuest-V1
_database_code_CSD FEVBUD02
_chemical_formula_sum 'C22 H34 N2 O4'
_chemical_formula_moiety
;
C22 H34 N2 O4
;
_journal_coden_Cambridge 647
_journal_volume 6
_journal_year 1987
_journal_page_first 773
_journal_name_full 'Khim.Fiz.(Russ.)(Sov.J.Chem.Phys.) '
loop_
_publ_author_name
"A.L.Buchachenko"
"R.P.Shibaeva"
"L.P.Rozenberg"
"A.A.Dadali"
_chemical_name_systematic
;
1,4-bis(2,2,6,6-Tetramethyl-4-hydroxy-1-oxypiperidin-4-yl)-buta-1,3-diyne
;
_cell_volume   4409.574
_exptl_special_details
;
orthorhombic Pnaa polymorph

;
_diffrn_ambient_temperature ?
_diffrn_special_details
;
The study was carried out at room temperature,in the range 283-303K

;
#These two values have been output from a single CSD field.
_refine_ls_R_factor_gt 0.049
_refine_ls_wR_factor_gt 0.049
_symmetry_cell_setting orthorhombic
_symmetry_space_group_name_H-M 'P n a a'
_symmetry_Int_Tables_number 56
loop_
_symmetry_equiv_pos_site_id
_symmetry_equiv_pos_as_xyz
1 x,y,z
2 -x,1/2+y,1/2+z
3 1/2+x,1/2-y,z
4 1/2-x,-y,1/2+z
5 -x,-y,-z
6 x,-1/2-y,-1/2-z
7 -1/2-x,-1/2+y,-z
8 -1/2+x,y,-1/2-z
_cell_length_a 14.169(9)
_cell_length_b 16.209(16)
_cell_length_c 19.20(2)
_cell_angle_alpha 90
_cell_angle_beta 90
_cell_angle_gamma 90
_cell_formula_units_Z 8
loop_
_atom_type_symbol
_atom_type_radius_bond
C 0.68
H 0.23
N 0.68
O 0.68
loop_
_atom_site_label
_atom_site_type_symbol
_atom_site_fract_x
_atom_site_fract_y
_atom_site_fract_z
O1 O 1.1647(5) 0.5320(4) 0.2088(4)
O2 O 0.5763(6) 0.2042(5) 0.5658(4)
O3 O 0.7911(6) 0.4593(5) 0.2025(4)
O4 O 0.9556(6) 0.1712(5) 0.5166(4)
N1 N 1.0777(7) 0.5104(6) 0.2119(5)
N2 N 0.6646(7) 0.1997(6) 0.5527(5)
C1 C 1.0191(8) 0.5536(6) 0.2661(5)
C2 C 0.9174(8) 0.5420(6) 0.2504(6)
C3 C 0.8832(9) 0.4556(6) 0.2302(5)
C4 C 0.9464(9) 0.4258(7) 0.1718(6)
C5 C 1.0505(9) 0.4310(7) 0.1785(6)
C6 C 1.0520(9) 0.5248(7) 0.3396(5)
C7 C 1.0419(8) 0.6480(6) 0.2574(6)
C8 C 1.0995(9) 0.4269(8) 0.1076(7)
C9 C 1.0895(8) 0.3575(7) 0.2218(5)
C10 C 0.8820(9) 0.3987(7) 0.2921(5)
C11 C 0.8767(9) 0.3561(7) 0.3417(5)
C12 C 0.8688(9) 0.3051(7) 0.3998(6)
C13 C 0.8635(9) 0.2607(7) 0.4487(6)
C14 C 0.8628(9) 0.2004(6) 0.5092(6)
C15 C 0.8283(7) 0.2425(6) 0.5769(5)
C16 C 0.7266(8) 0.2643(7) 0.5843(5)
C17 C 0.6929(8) 0.1430(6) 0.4944(6)
C18 C 0.7983(8) 0.1289(6) 0.4962(5)
C19 C 0.7014(8) 0.2669(6) 0.6631(5)
C20 C 0.7041(10) 0.3475(7) 0.5508(6)
C21 C 0.6581(8) 0.1777(7) 0.4252(6)
C22 C 0.6401(9) 0.0588(7) 0.5082(6)
H1 H 0.715(6) 0.460(5) 0.231(4)
H2 H 1.022(6) 0.212(5) 0.545(4)
H3 H 0.880(6) 0.566(5) 0.289(5)
H4 H 0.894(6) 0.573(5) 0.216(5)
H5 H 0.928(6) 0.451(5) 0.139(4)
H6 H 0.949(6) 0.365(5) 0.169(4)
H7 H 1.033(7) 0.468(5) 0.343(4)
H8 H 1.123(7) 0.546(5) 0.341(4)
H9 H 1.009(6) 0.566(6) 0.371(4)
H10 H 1.032(6) 0.665(5) 0.206(5)
H11 H 1.109(7) 0.658(5) 0.278(4)
H12 H 0.995(6) 0.657(5) 0.303(5)
H13 H 1.076(7) 0.476(6) 0.093(4)
H14 H 1.158(7) 0.423(5) 0.119(4)
H15 H 1.060(6) 0.370(6) 0.079(4)
H16 H 1.085(6) 0.361(5) 0.264(4)
H17 H 1.170(6) 0.383(5) 0.224(4)
H18 H 1.074(6) 0.291(5) 0.189(4)
H19 H 0.870(7) 0.288(5) 0.584(4)
H20 H 0.855(6) 0.197(5) 0.610(4)
H21 H 0.816(6) 0.089(5) 0.534(4)
H22 H 0.811(6) 0.108(5) 0.450(4)
H23 H 0.634(7) 0.274(5) 0.657(4)
H24 H 0.731(7) 0.207(5) 0.674(4)
H25 H 0.744(6) 0.317(5) 0.677(5)
H26 H 0.743(6) 0.390(5) 0.579(4)
H27 H 0.631(7) 0.356(5) 0.563(4)
H28 H 0.716(7) 0.344(5) 0.504(5)
H29 H 0.677(7) 0.233(6) 0.412(4)
H30 H 0.668(7) 0.147(6) 0.390(4)
H31 H 0.591(7) 0.195(6) 0.430(4)
H32 H 0.674(6) 0.049(5) 0.551(4)
H33 H 0.656(7) 0.033(5) 0.462(4)
H34 H 0.552(6) 0.074(5) 0.504(4)
#END
