
#######################################################################
#
#                 Cambridge Crystallographic Data Centre
#                                CCDC
#
#######################################################################
#
# If this CIF has been generated from an entry in the Cambridge
# Structural Database, then it will include bibliographic, chemical,
# crystal, experimental, refinement or atomic coordinate data resulting
# from the CCDC's data processing and validation procedures.
#
#######################################################################

data_CSD_CIF_FIGDOR
_audit_creation_date 2018-08-31
_audit_creation_method CSD-ConQuest-V1
_database_code_CSD FIGDOR
_database_code_depnum_ccdc_archive 'CCDC 1865060'
_chemical_formula_sum 'C16 H17 N4 O3'
_chemical_formula_moiety
;
C16 H17 N4 O3
;
_journal_coden_Cambridge 389
_journal_volume 39
_journal_year 2011
_journal_page_first 4419
_journal_name_full 'Nucleic Acids Res. '
loop_
_publ_author_name
"T.E.Edwards"
"P.Cekan"
"G.W.Reginsson"
"S.A.Shelke"
"A.R.Ferre-DAmare"
"O.Schiemann"
"S.Th Sigurdsson"
_chemical_name_systematic
;
8-oxy-7,7,9,9-tetramethyl-7,8,9,11-tetrahydropyrimido[4',5':5,6][1,4]oxazino[2
,3-f]isoindol-2(3H)-one radical
;
_cell_volume   1666.149
_exptl_crystal_colour 'yellow'
_diffrn_ambient_temperature 93
#These two values have been output from a single CSD field.
_refine_ls_R_factor_gt 0.09
_refine_ls_wR_factor_gt 0.09
_symmetry_cell_setting monoclinic
_symmetry_space_group_name_H-M 'P 21/n'
_symmetry_Int_Tables_number 14
loop_
_symmetry_equiv_pos_site_id
_symmetry_equiv_pos_as_xyz
1 x,y,z
2 1/2-x,1/2+y,1/2-z
3 -x,-y,-z
4 -1/2+x,-1/2-y,-1/2+z
_cell_length_a 5.731(2)
_cell_length_b 9.162(4)
_cell_length_c 31.739(12)
_cell_angle_alpha 90
_cell_angle_beta 91.230(12)
_cell_angle_gamma 90
_cell_formula_units_Z 4
loop_
_atom_type_symbol
_atom_type_radius_bond
C 0.68
H 0.23
N 0.68
O 0.68
loop_
_atom_site_label
_atom_site_type_symbol
_atom_site_fract_x
_atom_site_fract_y
_atom_site_fract_z
O1 O -0.9162(6) -0.4009(3) 0.26927(9)
C1 C -0.7338(9) -0.4017(5) 0.24815(14)
N1 N -0.6463(7) -0.5281(4) 0.23177(11)
C2 C -0.4517(9) -0.5278(5) 0.20696(14)
H1 H -0.39510 -0.61690 0.19580
C3 C -0.3428(8) -0.4032(5) 0.19854(13)
O2 O -0.1448(6) -0.3993(3) 0.17413(9)
C4 C -0.0791(8) -0.2633(5) 0.15902(13)
C5 C 0.0664(8) -0.2582(5) 0.12426(14)
H2 H 0.12090 -0.34540 0.11160
C6 C 0.1301(8) -0.1208(5) 0.10850(14)
C7 C 0.2708(8) -0.0918(5) 0.06964(15)
O3 O 0.3551(6) 0.1460(4) 0.04000(11)
N2 N 0.2562(7) 0.0702(5) 0.06883(12)
C8 C 0.1315(8) 0.1392(5) 0.10423(14)
C9 C 0.0541(8) 0.0069(5) 0.12767(13)
C10 C -0.0910(8) -0.0005(5) 0.16193(14)
H3 H -0.14270 0.08680 0.17490
C11 C -0.1608(8) -0.1337(5) 0.17728(13)
N3 N -0.3262(7) -0.1415(4) 0.20976(11)
C12 C -0.4294(8) -0.2731(5) 0.21686(13)
N4 N -0.6177(7) -0.2732(4) 0.24145(11)
C13 C 0.1605(9) -0.1520(6) 0.02924(14)
H4 H -0.00270 -0.12050 0.02700
H5 H 0.16730 -0.25890 0.02970
H6 H 0.24580 -0.11550 0.00500
C14 C 0.5216(9) -0.1386(6) 0.07349(16)
H7 H 0.59140 -0.09830 0.09940
H8 H 0.60710 -0.10250 0.04920
H9 H 0.53000 -0.24530 0.07430
C15 C -0.0717(10) 0.2347(6) 0.08716(16)
H10 H -0.17970 0.17420 0.07040
H11 H -0.00960 0.31270 0.06950
H12 H -0.15460 0.27770 0.11080
C16 C 0.3009(10) 0.2352(6) 0.13065(16)
H13 H 0.43020 0.17510 0.14150
H14 H 0.21760 0.27820 0.15430
H15 H 0.36250 0.31320 0.11290
#END
