
#######################################################################
#
#                 Cambridge Crystallographic Data Centre
#                                CCDC
#
#######################################################################
#
# If this CIF has been generated from an entry in the Cambridge
# Structural Database, then it will include bibliographic, chemical,
# crystal, experimental, refinement or atomic coordinate data resulting
# from the CCDC's data processing and validation procedures.
#
#######################################################################

data_CSD_CIF_FIMBEL
_audit_creation_date 2018-09-03
_audit_creation_method CSD-ConQuest-V1
_database_code_CSD FIMBEL
_database_code_depnum_ccdc_archive 'CCDC 759893'
_chemical_formula_sum 'C12 H11 N3 O1'
_chemical_formula_moiety
;
C12 H11 N3 O1
;
_journal_coden_Cambridge 1350
_journal_volume 20
_journal_year 2018
_journal_page_first 96
_journal_name_full 'CrystEngComm '
loop_
_publ_author_name
"M.A.P.Martins"
"P.R.S.Salbego"
"G.A.de Moraes"
"C.R.Bender"
"P.J.Zambiazi"
"T.Orlando"
"A.B.Pagliari"
"C.P.Frizzo"
"M.Horner"
_chemical_name_systematic
;
1,3-bis(phenyl)triazenium N3-oxide
;
_chemical_melting_point 394.15
_cell_volume   1090.203
_exptl_crystal_colour 'yellow'
_exptl_crystal_density_diffrn 1.299
_exptl_special_details
;
Air-stable

;
_exptl_crystal_description 'needle'
_exptl_crystal_preparation 'Re-crystallisation from solvent'
_diffrn_ambient_temperature 296
#These two values have been output from a single CSD field.
_refine_ls_R_factor_gt 0.0687
_refine_ls_wR_factor_gt 0.0687
_symmetry_cell_setting monoclinic
_symmetry_space_group_name_H-M 'P 21/n'
_symmetry_Int_Tables_number 14
loop_
_symmetry_equiv_pos_site_id
_symmetry_equiv_pos_as_xyz
1 x,y,z
2 1/2-x,1/2+y,1/2-z
3 -x,-y,-z
4 -1/2+x,-1/2-y,-1/2+z
_cell_length_a 5.4917(5)
_cell_length_b 16.1489(13)
_cell_length_c 12.4976(10)
_cell_angle_alpha 90
_cell_angle_beta 100.382(7)
_cell_angle_gamma 90
_cell_formula_units_Z 4
loop_
_atom_type_symbol
_atom_type_radius_bond
C 0.68
H 0.23
N 0.68
O 0.68
loop_
_atom_site_label
_atom_site_type_symbol
_atom_site_fract_x
_atom_site_fract_y
_atom_site_fract_z
C1 C 0.6772(4) 0.20706(13) 0.93070(19)
C2 C 0.5467(5) 0.21676(14) 1.0142(2)
H1 H 0.58115 0.18344 1.07577
C3 C 0.3653(5) 0.27611(17) 1.0056(2)
H2 H 0.27577 0.28270 1.06150
C4 C 0.3151(5) 0.32548(16) 0.9158(3)
H3 H 0.19178 0.36553 0.91035
C5 C 0.4479(5) 0.31564(16) 0.8334(3)
H4 H 0.41417 0.34974 0.77255
C6 C 0.6307(5) 0.25603(15) 0.8391(2)
H5 H 0.71921 0.24925 0.78287
C7 C 1.2886(4) 0.05431(13) 0.80131(19)
C8 C 1.2594(5) 0.09512(15) 0.7028(2)
H6 H 1.13524 0.13456 0.68507
C9 C 1.4144(6) 0.07727(18) 0.6309(2)
H7 H 1.39429 0.10499 0.56462
C10 C 1.5997(5) 0.0187(2) 0.6556(3)
H8 H 1.70524 0.00712 0.60713
C11 C 1.6242(5) -0.02208(17) 0.7539(3)
H9 H 1.74671 -0.06210 0.77136
C12 C 1.4721(5) -0.00480(15) 0.8259(2)
H10 H 1.49192 -0.03288 0.89192
N1 N 0.8621(4) 0.14235(11) 0.93991(16)
N2 N 0.9832(4) 0.13408(11) 0.86219(15)
N3 N 1.1419(3) 0.07179(11) 0.87860(15)
H11 H 1.15455 0.04227 0.93661
O1 O 0.8942(3) 0.09507(9) 1.02490(13)
#END
