
#######################################################################
#
#                 Cambridge Crystallographic Data Centre
#                                CCDC
#
#######################################################################
#
# If this CIF has been generated from an entry in the Cambridge
# Structural Database, then it will include bibliographic, chemical,
# crystal, experimental, refinement or atomic coordinate data resulting
# from the CCDC's data processing and validation procedures.
#
#######################################################################

data_CSD_CIF_FIWGEY
_audit_creation_date 2005-06-09
_audit_creation_method CSD-ConQuest-V1
_database_code_CSD FIWGEY
_database_code_depnum_ccdc_archive 'CCDC 269881'
_chemical_formula_sum 'C18 H17 N3 O2'
_chemical_formula_moiety
;
C18 H17 N3 O2
;
_journal_coeditor_code "IUCr WN6323"
_journal_coden_Cambridge 1370
_journal_volume 61
_journal_year 2005
_journal_page_first o667
_journal_name_full 'Acta Crystallogr.,Sect.E:Struct.Rep.Online '
loop_
_publ_author_name
"V.V.Dyakonenko"
"O.V.Shishkin"
"A.V.Zbruev"
"S.M.Desenko"
_chemical_name_systematic
;
2,2-Dimethyl-6-(4-nitrophenyl)-4-phenyl-1,3-diazabicyclo(3.1.0)hex-3-ene
;
_cell_volume    808.282
_exptl_crystal_colour 'blue'
_exptl_crystal_density_diffrn 1.263
_exptl_crystal_description 'block'
_diffrn_ambient_temperature 294
#These two values have been output from a single CSD field.
_refine_ls_R_factor_gt 0.0666
_refine_ls_wR_factor_gt 0.0666
_symmetry_cell_setting triclinic
_symmetry_space_group_name_H-M 'P -1'
_symmetry_Int_Tables_number 2
loop_
_symmetry_equiv_pos_site_id
_symmetry_equiv_pos_as_xyz
1 x,y,z
2 -x,-y,-z
_cell_length_a 9.535(3)
_cell_length_b 9.539(3)
_cell_length_c 10.093(3)
_cell_angle_alpha 103.89(2)
_cell_angle_beta 92.05(3)
_cell_angle_gamma 113.50(2)
_cell_formula_units_Z 2
loop_
_atom_type_symbol
_atom_type_radius_bond
C 0.68
H 0.23
N 0.68
O 0.68
loop_
_atom_site_label
_atom_site_type_symbol
_atom_site_fract_x
_atom_site_fract_y
_atom_site_fract_z
N1 N 0.26673(18) 0.40846(19) 0.24562(17)
N2 N 0.41115(19) 0.67009(19) 0.39695(17)
N3 N 0.3035(2) -0.2645(2) -0.0357(2)
O1 O 0.2305(3) -0.3187(3) -0.1523(2)
O2 O 0.3723(3) -0.3295(2) 0.0127(2)
C1 C 0.4233(2) 0.4805(2) 0.2106(2)
H1 H 0.440(3) 0.460(3) 0.116(3)
C2 C 0.4980(2) 0.6418(2) 0.31003(19)
C3 C 0.2566(2) 0.5351(2) 0.3587(2)
C4 C 0.3804(2) 0.3488(2) 0.2800(2)
H2 H 0.426(3) 0.377(3) 0.376(2)
C5 C 0.6566(2) 0.7576(2) 0.31004(19)
C6 C 0.7559(3) 0.7109(3) 0.2332(3)
H3 H 0.720(3) 0.606(3) 0.179(3)
C7 C 0.9047(3) 0.8217(4) 0.2336(3)
H4 H 0.971(4) 0.793(4) 0.182(3)
C8 C 0.9525(3) 0.9777(4) 0.3081(3)
H5 H 1.049(5) 1.048(5) 0.306(4)
C9 C 0.8548(3) 1.0239(3) 0.3834(3)
H6 H 0.889(5) 1.138(5) 0.440(4)
C10 C 0.7069(3) 0.9155(3) 0.3852(2)
H7 H 0.636(3) 0.947(3) 0.443(3)
C11 C 0.2028(3) 0.4776(3) 0.4833(3)
H8 H 0.274(4) 0.437(4) 0.524(3)
H9 H 0.193(3) 0.560(4) 0.551(3)
H10 H 0.101(4) 0.398(4) 0.450(3)
C12 C 0.1470(3) 0.5923(3) 0.2983(3)
H11 H 0.179(3) 0.620(3) 0.213(3)
H12 H 0.042(4) 0.509(4) 0.277(3)
H13 H 0.141(4) 0.679(4) 0.370(4)
C13 C 0.3525(2) 0.1862(2) 0.1995(2)
C14 C 0.4261(2) 0.1056(2) 0.2493(2)
H14 H 0.492(3) 0.159(3) 0.337(3)
C15 C 0.4087(3) -0.0423(3) 0.1738(2)
H15 H 0.464(3) -0.096(4) 0.207(3)
C16 C 0.3164(2) -0.1101(2) 0.0470(2)
C17 C 0.2394(3) -0.0356(3) -0.0045(3)
H16 H 0.182(4) -0.073(4) -0.084(3)
C18 C 0.2572(3) 0.1129(3) 0.0732(2)
H17 H 0.203(3) 0.166(3) 0.042(3)
#END
