
#######################################################################
#
#                 Cambridge Crystallographic Data Centre
#                                CCDC
#
#######################################################################
#
# If this CIF has been generated from an entry in the Cambridge
# Structural Database, then it will include bibliographic, chemical,
# crystal, experimental, refinement or atomic coordinate data resulting
# from the CCDC's data processing and validation procedures.
#
#######################################################################

data_CSD_CIF_FOBNOA
_audit_creation_date 2005-06-17
_audit_creation_method CSD-ConQuest-V1
_database_code_CSD FOBNOA
_database_code_depnum_ccdc_archive 'CCDC 269035'
_chemical_formula_sum 'C10 H8 N2 O4'
_chemical_formula_moiety
;
C10 H8 N2 O4
;
_journal_coeditor_code "IUCr SK1817"
_journal_coden_Cambridge 591
_journal_volume 61
_journal_year 2005
_journal_page_first o216
_journal_name_full 'Acta Crystallogr.,Sect.C:Cryst.Struct.Commun. '
loop_
_publ_author_name
"C.Glidewell"
"J.N.Low"
"J.M.S.Skakle"
"J.L.Wardell"
_chemical_name_systematic
;
N-(3-Nitrophenyl)succinimide
;
_cell_volume    465.898
_exptl_crystal_colour 'colorless'
_exptl_crystal_density_diffrn 1.57
_exptl_crystal_description 'block'
_exptl_crystal_preparation 'ethanol'
_diffrn_ambient_temperature 120
#These two values have been output from a single CSD field.
_refine_ls_R_factor_gt 0.0305
_refine_ls_wR_factor_gt 0.0305
_symmetry_cell_setting monoclinic
_symmetry_space_group_name_H-M 'P 21'
_symmetry_Int_Tables_number 4
loop_
_symmetry_equiv_pos_site_id
_symmetry_equiv_pos_as_xyz
1 x,y,z
2 -x,1/2+y,-z
_cell_length_a 6.6318(2)
_cell_length_b 7.0944(3)
_cell_length_c 10.4260(5)
_cell_angle_alpha 90
_cell_angle_beta 108.234(2)
_cell_angle_gamma 90
_cell_formula_units_Z 2
loop_
_atom_type_symbol
_atom_type_radius_bond
C 0.68
H 0.23
N 0.68
O 0.68
loop_
_atom_site_label
_atom_site_type_symbol
_atom_site_fract_x
_atom_site_fract_y
_atom_site_fract_z
O1 O -0.0774(2) 0.1798(2) 0.12597(15)
O2 O 0.5317(2) 0.5258(2) 0.21968(14)
O3 O 0.5687(2) 0.4665(2) 0.79705(13)
O4 O 0.7367(2) 0.3479(2) 0.66840(14)
N1 N 0.2263(2) 0.3593(2) 0.20348(15)
N2 N 0.5760(2) 0.4110(2) 0.68743(15)
C1 C 0.0784(3) 0.2473(3) 0.10809(19)
C2 C 0.1516(3) 0.2310(3) -0.01408(18)
C3 C 0.3605(3) 0.3371(3) 0.02054(19)
C4 C 0.3916(3) 0.4221(3) 0.15678(19)
C5 C 0.2143(3) 0.4001(3) 0.33495(18)
C6 C 0.3956(3) 0.3791(3) 0.44531(18)
C7 C 0.3814(3) 0.4252(3) 0.57126(18)
C8 C 0.1965(3) 0.4874(3) 0.59194(19)
C9 C 0.0176(3) 0.5039(3) 0.4795(2)
C10 C 0.0254(3) 0.4619(3) 0.35155(19)
H1 H 0.04610 0.28760 -0.09400
H2 H 0.17200 0.09710 -0.03380
H3 H 0.35420 0.43650 -0.04720
H4 H 0.47850 0.25000 0.02320
H5 H 0.52470 0.33480 0.43480
H6 H 0.19220 0.51780 0.67980
H7 H -0.11240 0.54470 0.49060
H8 H -0.09800 0.47530 0.27540
#END
