
#######################################################################
#
#                 Cambridge Crystallographic Data Centre
#                                CCDC
#
#######################################################################
#
# If this CIF has been generated from an entry in the Cambridge
# Structural Database, then it will include bibliographic, chemical,
# crystal, experimental, refinement or atomic coordinate data resulting
# from the CCDC's data processing and validation procedures.
#
#######################################################################

data_CSD_CIF_FOCWOL
_audit_creation_date 2014-06-05
_audit_creation_method CSD-ConQuest-V1
_database_code_CSD FOCWOL
_database_code_depnum_ccdc_archive 'CCDC 984272'
_chemical_formula_sum 'C16 H21 N3 O3'
_chemical_formula_moiety
;
C16 H21 N3 O3
;
_journal_coden_Cambridge 1147
_journal_volume 14
_journal_year 2014
_journal_page_first 2056
_journal_name_full 'Cryst.Growth Des. '
loop_
_publ_author_name
"D.E.Braun"
"J.A.McMahon"
"L.H.Koztecki"
"S.L.Price"
"S.M.Reutzel-Edens"
_chemical_name_systematic
;
3-(4-(1,2-benzoxazol-3-yl)piperazin-1-yl)-2,2-dimethylpropanoic acid
;
_cell_volume   1498.358
_exptl_crystal_density_diffrn 1.345
_diffrn_ambient_temperature 100
#These two values have been output from a single CSD field.
_refine_ls_R_factor_gt 0.0402
_refine_ls_wR_factor_gt 0.0402
_symmetry_cell_setting monoclinic
_symmetry_space_group_name_H-M 'P 21/n'
_symmetry_Int_Tables_number 14
loop_
_symmetry_equiv_pos_site_id
_symmetry_equiv_pos_as_xyz
1 x,y,z
2 1/2-x,1/2+y,1/2-z
3 -x,-y,-z
4 -1/2+x,-1/2-y,-1/2+z
_cell_length_a 14.0905(3)
_cell_length_b 6.2506(1)
_cell_length_c 17.0170(3)
_cell_angle_alpha 90
_cell_angle_beta 91.321(1)
_cell_angle_gamma 90
_cell_formula_units_Z 4
loop_
_atom_type_symbol
_atom_type_radius_bond
C 0.68
H 0.23
N 0.68
O 0.68
loop_
_atom_site_label
_atom_site_type_symbol
_atom_site_fract_x
_atom_site_fract_y
_atom_site_fract_z
C1 C 0.61582(11) 0.2931(3) 0.11642(9)
C2 C 0.71171(11) 0.2295(3) 0.13991(9)
C3 C 0.75817(12) 0.0481(3) 0.17112(9)
H1 H 0.72360 -0.07680 0.18430
C4 C 0.85557(12) 0.0569(3) 0.1821(1)
H2 H 0.88800 -0.06340 0.20370
C5 C 0.90745(12) 0.2388(3) 0.16209(10)
H3 H 0.97440 0.23880 0.17000
C6 C 0.86339(12) 0.4186(3) 0.13108(10)
H4 H 0.89820 0.54280 0.11730
C7 C 0.76553(11) 0.4074(3) 0.12121(9)
C8 C 0.51636(11) 0.0213(3) 0.17776(9)
H5 H 0.49170 0.10010 0.22340
H6 H 0.57610 -0.05050 0.19440
C9 C 0.44464(11) -0.1437(3) 0.15023(10)
H7 H 0.47150 -0.22830 0.10690
H8 H 0.43130 -0.24290 0.19400
C10 C 0.37652(11) 0.1076(3) 0.05794(9)
H9 H 0.31730 0.17850 0.03930
H10 H 0.40280 0.02680 0.01340
C11 C 0.44732(11) 0.2752(3) 0.08523(10)
H11 H 0.46170 0.37240 0.04110
H12 H 0.42000 0.36140 0.12800
C12 C 0.28507(11) -0.2105(3) 0.09927(10)
H13 H 0.29940 -0.34140 0.13010
H14 H 0.29380 -0.24520 0.04310
C13 C 0.18025(11) -0.1502(3) 0.11093(9)
C14 C 0.16394(11) -0.0468(3) 0.19159(10)
C15 C 0.12360(12) -0.3591(3) 0.1040(1)
H15 H 0.14590 -0.45960 0.14460
H16 H 0.13260 -0.42200 0.05190
H17 H 0.05610 -0.32920 0.11100
C16 C 0.14099(12) 0.0094(3) 0.04908(10)
H18 H 0.07180 0.01830 0.05290
H19 H 0.15730 -0.03970 -0.00360
H20 H 0.16890 0.15080 0.05870
N1 N 0.61409(9) 0.4899(2) 0.08871(8)
N2 N 0.53482(9) 0.1711(2) 0.11365(7)
N3 N 0.35485(9) -0.0422(2) 0.12269(8)
O1 O 0.71029(8) 0.56549(18) 0.09021(7)
O2 O 0.23266(8) 0.07511(19) 0.21987(7)
O3 O 0.08863(8) -0.06578(19) 0.22448(7)
H21 H 0.2836(14) 0.048(4) 0.1889(13)
#END
