
#######################################################################
#
#                 Cambridge Crystallographic Data Centre
#                                CCDC
#
#######################################################################
#
# If this CIF has been generated from an entry in the Cambridge
# Structural Database, then it will include bibliographic, chemical,
# crystal, experimental, refinement or atomic coordinate data resulting
# from the CCDC's data processing and validation procedures.
#
#######################################################################

data_CSD_CIF_FOJLIZ
_audit_creation_date 1988-05-05
_audit_creation_method CSD-ConQuest-V1
_database_code_CSD FOJLIZ
_chemical_formula_sum 'C9 H15 N1 O6'
_chemical_formula_moiety
;
C9 H15 N1 O6
;
_journal_coden_Cambridge 156
_journal_volume 155
_journal_year 1986
_journal_page_first 141
_journal_name_full 'Carbohydr.Res. '
loop_
_publ_author_name
"L.den Drijver"
"C.W.Holzapfel"
"J.M.Koekemoer"
"G.J.Kruger"
"M.S.van Dyk"
_chemical_name_systematic
;
2,3-O-Isopropylidene-\b-D-threo-hexo-2,4-diulopyranose oxime
;
_chemical_melting_point 442.15
_cell_volume   1070.636
_exptl_crystal_density_diffrn 1.447
_exptl_special_details
;
Melting point range 442.15-444.15K

;
_diffrn_ambient_temperature ?
_diffrn_special_details
;
The study was carried out at room temperature,in the range 283-303K

;
#These two values have been output from a single CSD field.
_refine_ls_R_factor_gt 0.038
_refine_ls_wR_factor_gt 0.038
_symmetry_cell_setting orthorhombic
_symmetry_space_group_name_H-M 'P 21 21 21'
_symmetry_Int_Tables_number 19
loop_
_symmetry_equiv_pos_site_id
_symmetry_equiv_pos_as_xyz
1 x,y,z
2 1/2+x,1/2-y,-z
3 -x,1/2+y,1/2-z
4 1/2-x,-y,1/2+z
_cell_length_a 11.934(8)
_cell_length_b 11.848(8)
_cell_length_c 7.572(5)
_cell_angle_alpha 90
_cell_angle_beta 90
_cell_angle_gamma 90
_cell_formula_units_Z 4
loop_
_atom_type_symbol
_atom_type_radius_bond
C 0.68
H 0.23
N 0.68
O 0.68
loop_
_atom_site_label
_atom_site_type_symbol
_atom_site_fract_x
_atom_site_fract_y
_atom_site_fract_z
C1 C 0.1462(3) 0.1913(3) 0.7282(5)
C2 C 0.2417(2) 0.1752(2) 0.5990(4)
C3 C 0.3294(2) 0.2721(2) 0.5934(4)
C4 C 0.3253(2) 0.3409(2) 0.4267(4)
C5 C 0.3057(3) 0.2803(3) 0.2535(4)
C6 C 0.2700(3) 0.1597(3) 0.2895(4)
C7 C 0.4168(3) 0.1097(2) 0.6925(4)
C8 C 0.4296(3) 0.1309(3) 0.8881(4)
C9 C 0.4952(3) 0.0195(3) 0.6241(5)
O1 O 0.0848(2) 0.2913(2) 0.6962(3)
O2 O 0.3040(2) 0.0788(2) 0.6489(3)
O3 O 0.4348(1) 0.2126(2) 0.5948(3)
O4 O 0.3492(2) 0.4973(2) 0.2754(3)
O5 O 0.2191(2) 0.3307(2) 0.1502(3)
O6 O 0.1913(2) 0.1560(2) 0.4334(3)
N1 N 0.3469(2) 0.4458(2) 0.4431(3)
H1 H 0.4087(3) 0.0540(3) 0.9571(4)
H2 H 0.3740(3) 0.1976(3) 0.9299(4)
H3 H 0.5151(3) 0.1541(3) 0.9176(4)
H4 H 0.5787(3) 0.0504(3) 0.6510(5)
H5 H 0.4862(3) 0.0041(3) 0.4842(5)
H6 H 0.4815(3) -0.0581(3) 0.6957(5)
H7 H 0.0978(31) 0.1206(30) 0.7217(49)
H8 H 0.1769(26) 0.1974(31) 0.8439(52)
H9 H 0.0534(32) 0.2806(36) 0.6031(57)
H10 H 0.3221(22) 0.3240(23) 0.7041(40)
H11 H 0.37120 0.56840 0.23470
H12 H 0.3735(33) 0.2799(34) 0.1905(52)
H13 H 0.2363(32) 0.4006(36) 0.1279(55)
H14 H 0.3369(25) 0.1112(25) 0.3242(43)
H15 H 0.2302(31) 0.1270(29) 0.1918(50)
#END
