
#######################################################################
#
#                 Cambridge Crystallographic Data Centre
#                                CCDC
#
#######################################################################
#
# If this CIF has been generated from an entry in the Cambridge
# Structural Database, then it will include bibliographic, chemical,
# crystal, experimental, refinement or atomic coordinate data resulting
# from the CCDC's data processing and validation procedures.
#
#######################################################################

data_CSD_CIF_FONYOX
_audit_creation_date 2009-08-31
_audit_creation_method CSD-ConQuest-V1
_database_code_CSD FONYOX
_database_code_depnum_ccdc_archive 'CCDC 678007'
_chemical_formula_sum 'C21 H26 N2 O4'
_chemical_formula_moiety
;
C21 H26 N2 O4
;
_journal_coden_Cambridge 35
_journal_volume 74
_journal_year 2009
_journal_page_first 1252
_journal_name_full 'J.Org.Chem. '
loop_
_publ_author_name
"Yan Huang"
"Qiong Li"
"Tian-Liang Liu"
"Peng-Fei Xu"
_chemical_name_systematic
;
(1R,2S,5R,8S)-5-((R)-1-(2-methylphenyl)-2-nitroethyl)-1,11,11-trimethyl-3-oxa-
6-azatricyclo[6.2.1.0^2,7^]undec-6-en-4-one
;
_chemical_melting_point 454.15
_cell_volume   2031.165
_exptl_crystal_colour 'colorless'
_exptl_crystal_density_diffrn 1.211
_exptl_special_details
;
Melting point range 454.15-456.15K

;
_exptl_crystal_description 'block'
_diffrn_ambient_temperature 294
#These two values have been output from a single CSD field.
_refine_ls_R_factor_gt 0.0388
_refine_ls_wR_factor_gt 0.0388
_symmetry_cell_setting orthorhombic
_symmetry_space_group_name_H-M 'P 21 21 21'
_symmetry_Int_Tables_number 19
loop_
_symmetry_equiv_pos_site_id
_symmetry_equiv_pos_as_xyz
1 x,y,z
2 1/2-x,-y,1/2+z
3 -x,1/2+y,1/2-z
4 1/2+x,1/2-y,-z
_cell_length_a 7.2892(11)
_cell_length_b 12.2674(19)
_cell_length_c 22.715(4)
_cell_angle_alpha 90
_cell_angle_beta 90
_cell_angle_gamma 90
_cell_formula_units_Z 4
loop_
_atom_type_symbol
_atom_type_radius_bond
C 0.68
H 0.23
N 0.68
O 0.68
loop_
_atom_site_label
_atom_site_type_symbol
_atom_site_fract_x
_atom_site_fract_y
_atom_site_fract_z
O1 O -0.0426(2) 0.14256(16) 0.85198(7)
O2 O -0.2125(3) 0.2005(2) 0.92566(9)
O3 O -0.1677(5) -0.0139(3) 1.11327(14)
O4 O 0.1227(6) -0.0107(4) 1.10466(13)
N1 N 0.2802(3) 0.18227(17) 0.91925(9)
N2 N -0.0285(6) 0.0145(3) 1.08875(12)
C1 C 0.2855(4) 0.1406(2) 0.86800(11)
C2 C 0.4366(4) 0.1521(2) 0.82346(12)
H1 H 0.54010 0.19800 0.83540
C3 C 0.4868(4) 0.0369(3) 0.80237(14)
H2 H 0.59800 0.03800 0.77890
H3 H 0.50420 -0.01190 0.83550
C4 C 0.3216(4) 0.0020(2) 0.76519(13)
H4 H 0.26890 -0.06510 0.78010
H5 H 0.35670 -0.00860 0.72440
C5 C 0.1852(4) 0.0970(2) 0.77118(11)
C6 C 0.1277(3) 0.0881(2) 0.83665(10)
H6 H 0.12020 0.01110 0.84790
C7 C 0.3199(4) 0.1964(2) 0.77123(12)
C8 C 0.4309(5) 0.2090(3) 0.71447(13)
H7 H 0.35030 0.22860 0.68280
H8 H 0.49070 0.14130 0.70540
H9 H 0.52150 0.26500 0.71960
C9 C 0.2262(5) 0.3062(2) 0.78383(14)
H10 H 0.15180 0.29990 0.81850
H11 H 0.15040 0.32610 0.75100
H12 H 0.31800 0.36130 0.78980
C10 C 0.0291(5) 0.0969(3) 0.72748(11)
H13 H 0.07770 0.09690 0.68820
H14 H -0.04490 0.16080 0.73320
H15 H -0.04460 0.03300 0.73320
C11 C -0.0640(4) 0.1711(2) 0.90893(12)
C12 C 0.1031(4) 0.1733(2) 0.94901(11)
H16 H 0.09110 0.24030 0.97220
C13 C 0.1095(4) 0.07931(19) 0.99482(10)
H17 H 0.22150 0.09010 1.01800
C14 C -0.0500(4) 0.0895(2) 1.03742(11)
H18 H -0.05770 0.16400 1.05140
H19 H -0.16340 0.07260 1.01700
C15 C 0.1247(4) -0.03358(19) 0.96693(10)
C16 C -0.0295(4) -0.0815(2) 0.94277(11)
H20 H -0.14200 -0.04610 0.94560
C17 C -0.0197(6) -0.1815(3) 0.91436(15)
H21 H -0.12440 -0.21310 0.89840
C18 C 0.1451(8) -0.2327(3) 0.91026(18)
H22 H 0.15370 -0.29890 0.89050
C19 C 0.2969(6) -0.1879(3) 0.93466(17)
H23 H 0.40770 -0.22520 0.93200
C20 C 0.2925(4) -0.0873(2) 0.96374(13)
C21 C 0.4650(4) -0.0427(3) 0.99104(18)
H24 H 0.49710 0.02470 0.97220
H25 H 0.56300 -0.09420 0.98600
H26 H 0.44510 -0.03030 1.03230
#END
