
#######################################################################
#
#                 Cambridge Crystallographic Data Centre
#                                CCDC
#
#######################################################################
#
# If this CIF has been generated from an entry in the Cambridge
# Structural Database, then it will include bibliographic, chemical,
# crystal, experimental, refinement or atomic coordinate data resulting
# from the CCDC's data processing and validation procedures.
#
#######################################################################

data_CSD_CIF_FUHCOB
_audit_creation_date 2010-01-11
_audit_creation_method CSD-ConQuest-V1
_database_code_CSD FUHCOB
_database_code_depnum_ccdc_archive 'CCDC 754351'
_chemical_formula_sum 'C19 H22 N2 O2'
_chemical_formula_moiety
;
C19 H22 N2 O2
;
_journal_coeditor_code "IUCr HG2578"
_journal_coden_Cambridge 1370
_journal_volume 65
_journal_year 2009
_journal_page_first o2784
_journal_name_full 'Acta Crystallogr.,Sect.E:Struct.Rep.Online '
loop_
_publ_author_name
"Jian-Chao Wu"
"Su-Xia Gao"
"Wen-Kui Dong"
"Jun-Feng Tong"
"Li Li"
_chemical_name_systematic
;
1,3-bis[(4-Methylbenzylidene)aminooxy]propane
;
_chemical_melting_point 329
_cell_volume   1740.691
_exptl_crystal_colour 'colorless'
_exptl_crystal_density_diffrn 1.184
_exptl_special_details
;
Melting point range 329-330K

;
_exptl_crystal_description 'needle-like'
_exptl_crystal_preparation 'acetonitrile'
_diffrn_ambient_temperature 298
#These two values have been output from a single CSD field.
_refine_ls_R_factor_gt 0.0579
_refine_ls_wR_factor_gt 0.0579
_symmetry_cell_setting monoclinic
_symmetry_space_group_name_H-M 'C 2/c'
_symmetry_Int_Tables_number 15
loop_
_symmetry_equiv_pos_site_id
_symmetry_equiv_pos_as_xyz
1 x,y,z
2 -x,y,1/2-z
3 1/2+x,1/2+y,z
4 1/2-x,1/2+y,1/2-z
5 -x,-y,-z
6 x,-y,-1/2+z
7 -1/2-x,-1/2-y,-z
8 -1/2+x,-1/2-y,-1/2+z
_cell_length_a 29.843(2)
_cell_length_b 4.8668(7)
_cell_length_c 12.1202(11)
_cell_angle_alpha 90
_cell_angle_beta 98.568(1)
_cell_angle_gamma 90
_cell_formula_units_Z 4
loop_
_atom_type_symbol
_atom_type_radius_bond
C 0.68
H 0.23
N 0.68
O 0.68
loop_
_atom_site_label
_atom_site_type_symbol
_atom_site_fract_x
_atom_site_fract_y
_atom_site_fract_z
N1 N 0.58112(8) 0.7298(5) 0.3832(2)
O1 O 0.54391(7) 0.5473(4) 0.36901(16)
C1 C 0.54272(10) 0.4006(7) 0.2661(2)
H1 H 0.56910 0.28260 0.26910
H2 H 0.54260 0.52830 0.20460
C2 C 0.50000 0.2312(9) 0.25000
H3 H 0.49990 0.11360 0.31460
C3 C 0.58513(10) 0.8441(7) 0.4781(2)
H4 H 0.56460 0.79790 0.52580
C4 C 0.62026(9) 1.0435(6) 0.5161(2)
C5 C 0.65245(10) 1.1316(7) 0.4504(2)
H5 H 0.65180 1.06090 0.37900
C6 C 0.68507(10) 1.3223(7) 0.4909(2)
H6 H 0.70600 1.37780 0.44580
C7 C 0.68736(10) 1.4340(6) 0.5977(2)
C8 C 0.65537(11) 1.3458(7) 0.6621(2)
H7 H 0.65610 1.41630 0.73360
C9 C 0.62262(10) 1.1564(6) 0.6225(2)
H8 H 0.60160 1.10260 0.66780
C10 C 0.72298(11) 1.6435(7) 0.6406(3)
H9 H 0.75150 1.59040 0.61940
H10 H 0.72580 1.65340 0.72040
H11 H 0.71430 1.82010 0.60920
N1A N 0.41888(8) 0.7298(5) 0.1168(2)
O1A O 0.45609(7) 0.5473(4) 0.13099(16)
C1A C 0.45728(10) 0.4006(7) 0.2339(2)
H1A H 0.43090 0.28260 0.23090
H2A H 0.45740 0.52830 0.29540
H3A H 0.50010 0.11360 0.18540
C3A C 0.41487(10) 0.8441(7) 0.0219(2)
H4A H 0.43540 0.79790 -0.02580
C4A C 0.37974(9) 1.0435(6) -0.0161(2)
C5A C 0.34755(10) 1.1316(7) 0.0496(2)
H5A H 0.34820 1.06090 0.12100
C6A C 0.31493(10) 1.3223(7) 0.0091(2)
H6A H 0.29400 1.37780 0.05420
C7A C 0.31264(10) 1.4340(6) -0.0977(2)
C8A C 0.34463(11) 1.3458(7) -0.1621(2)
H7A H 0.34390 1.41630 -0.23360
C9A C 0.37738(10) 1.1564(6) -0.1225(2)
H8A H 0.39840 1.10260 -0.16780
C10A C 0.27702(11) 1.6435(7) -0.1406(3)
H9A H 0.24850 1.59040 -0.11940
H10A H 0.27420 1.65340 -0.22040
H11A H 0.28570 1.82010 -0.10920
#END
