
#######################################################################
#
#                 Cambridge Crystallographic Data Centre
#                                CCDC
#
#######################################################################
#
# If this CIF has been generated from an entry in the Cambridge
# Structural Database, then it will include bibliographic, chemical,
# crystal, experimental, refinement or atomic coordinate data resulting
# from the CCDC's data processing and validation procedures.
#
#######################################################################

data_CSD_CIF_FUHSIK
_audit_creation_date 1988-06-09
_audit_creation_method CSD-ConQuest-V1
_database_code_CSD FUHSIK
_database_code_depnum_ccdc_archive 'CCDC 1160862'
_chemical_formula_sum 'C26 H24 N2 O6'
_chemical_formula_moiety
;
C26 H24 N2 O6
;
_journal_coden_Cambridge 25
_journal_year 1987
_journal_page_first 325
_journal_name_full 'Bull.Soc.Chim.Fr. '
loop_
_publ_author_name
"H.Benhaoua"
"J.-C.Piet"
"R.Danion-Bougot"
"L.Toupet"
"R.Carrie"
_chemical_name_systematic
;
2,2-bis(Methoxycarbonyl)-4-nitro-1,3,5-triphenylpyrrolidine
;
_chemical_melting_point 477.15
_cell_volume   4631.029
_diffrn_ambient_temperature ?
_diffrn_special_details
;
The study was carried out at room temperature,in the range 283-303K

;
#These two values have been output from a single CSD field.
_refine_ls_R_factor_gt 0.119
_refine_ls_wR_factor_gt 0.119
_symmetry_cell_setting orthorhombic
_symmetry_space_group_name_H-M 'P b c a'
_symmetry_Int_Tables_number 61
loop_
_symmetry_equiv_pos_site_id
_symmetry_equiv_pos_as_xyz
1 x,y,z
2 1/2-x,-y,1/2+z
3 1/2+x,1/2-y,-z
4 -x,1/2+y,1/2-z
5 -x,-y,-z
6 -1/2+x,y,-1/2-z
7 -1/2-x,-1/2+y,z
8 x,-1/2-y,-1/2+z
_cell_length_a 9.279(4)
_cell_length_b 17.285(5)
_cell_length_c 28.874(5)
_cell_angle_alpha 90
_cell_angle_beta 90
_cell_angle_gamma 90
_cell_formula_units_Z 8
loop_
_atom_type_symbol
_atom_type_radius_bond
C 0.68
H 0.23
N 0.68
O 0.68
loop_
_atom_site_label
_atom_site_type_symbol
_atom_site_fract_x
_atom_site_fract_y
_atom_site_fract_z
O1 O 0.993(3) 0.078(2) 0.5742(9)
O2 O 0.799(3) 0.059(2) 0.5309(9)
O3 O 0.565(3) -0.004(2) 0.6426(8)
O4 O 0.606(3) 0.106(2) 0.6063(9)
O5 O 0.956(3) -0.116(2) 0.746(1)
O6 O 1.096(3) -0.027(2) 0.7114(9)
N1 N 0.802(3) -0.074(2) 0.6035(9)
N2 N 0.988(3) -0.067(2) 0.717(1)
C1 C 0.799(3) 0.004(2) 0.610(1)
C2 C 0.885(3) 0.027(2) 0.655(1)
C3 C 0.871(3) -0.047(2) 0.678(1)
C4 C 0.869(4) -0.118(2) 0.643(1)
C5 C 0.857(4) 0.050(2) 0.567(1)
C6 C 1.071(4) 0.111(3) 0.534(1)
C7 C 0.629(4) 0.046(2) 0.618(1)
C8 C 0.417(5) 0.029(3) 0.655(2)
C9 C 0.859(3) 0.101(2) 0.680(1)
C10 C 0.750(4) 0.098(2) 0.718(1)
C11 C 0.728(4) 0.172(2) 0.739(1)
C12 C 0.789(4) 0.237(2) 0.728(1)
C13 C 0.893(4) 0.234(2) 0.691(1)
C14 C 0.911(4) 0.169(2) 0.669(1)
C15 C 1.030(3) -0.151(2) 0.628(1)
C16 C 1.076(5) -0.212(3) 0.652(1)
C17 C 1.218(6) -0.250(4) 0.640(2)
C18 C 1.304(4) -0.202(2) 0.608(1)
C19 C 1.252(5) -0.143(3) 0.585(1)
C20 C 1.106(4) -0.104(2) 0.593(1)
C21 C 0.733(3) -0.119(2) 0.568(1)
C22 C 0.626(4) -0.075(2) 0.541(1)
C23 C 0.557(3) -0.124(2) 0.506(1)
C24 C 0.591(4) -0.198(2) 0.501(1)
C25 C 0.700(4) -0.246(2) 0.530(1)
C26 C 0.757(4) -0.194(2) 0.564(1)
H1 H 0.98310 0.01320 0.65210
H2 H 0.77170 -0.04610 0.69220
H3 H 0.82170 -0.16760 0.65320
H4 H 1.17290 0.12100 0.54280
H5 H 1.08760 0.06550 0.51070
H6 H 1.03100 0.14860 0.51970
H7 H 0.36600 -0.01600 0.67380
H8 H 0.42360 0.06830 0.67340
H9 H 0.36130 0.03240 0.62850
H10 H 0.70980 0.04730 0.72760
H11 H 0.65250 0.17210 0.76460
H12 H 0.77020 0.28380 0.74440
H13 H 0.94280 0.28130 0.68230
H14 H 0.98800 0.16890 0.64700
H15 H 1.03270 -0.23250 0.67870
H16 H 1.25340 -0.29550 0.65630
H17 H 1.39540 -0.22590 0.60280
H18 H 1.31530 -0.12200 0.56110
H19 H 1.07490 -0.06040 0.57890
H20 H 0.60030 -0.02130 0.54520
H21 H 0.47690 -0.10740 0.48740
H22 H 0.54970 -0.23030 0.47280
H23 H 0.72530 -0.29700 0.52390
H24 H 0.82690 -0.21890 0.58380
#END
