
#######################################################################
#
#                 Cambridge Crystallographic Data Centre
#                                CCDC
#
#######################################################################
#
# If this CIF has been generated from an entry in the Cambridge
# Structural Database, then it will include bibliographic, chemical,
# crystal, experimental, refinement or atomic coordinate data resulting
# from the CCDC's data processing and validation procedures.
#
#######################################################################

data_CSD_CIF_FUHSOQ
_audit_creation_date 1988-06-10
_audit_creation_method CSD-ConQuest-V1
_database_code_CSD FUHSOQ
_database_code_depnum_ccdc_archive 'CCDC 1160863'
_chemical_formula_sum 'C28 H25 N3 O10'
_chemical_formula_moiety
;
C28 H25 N3 O10
;
_journal_coden_Cambridge 25
_journal_year 1987
_journal_page_first 325
_journal_name_full 'Bull.Soc.Chim.Fr. '
loop_
_publ_author_name
"H.Benhaoua"
"J.-C.Piet"
"R.Danion-Bougot"
"L.Toupet"
"R.Carrie"
_chemical_name_systematic
;
2,2,4-tris(Methoxycarbonyl)-4-nitro-3-p-nitrophenyl-1,5-diphenylpyrrolidine
;
_chemical_melting_point 477.15
_cell_volume   2652.962
_exptl_special_details
;
fw given as 416.5; we calculate 563.52. Table 7 and the experimental section 
do not agree on the m.p. Former says 184deg.C, the latter 204deg.C
;
_diffrn_ambient_temperature ?
_diffrn_special_details
;
The study was carried out at room temperature,in the range 283-303K

;
#These two values have been output from a single CSD field.
_refine_ls_R_factor_gt 0.049
_refine_ls_wR_factor_gt 0.049
_symmetry_cell_setting monoclinic
_symmetry_space_group_name_H-M 'P 21/n'
_symmetry_Int_Tables_number 14
loop_
_symmetry_equiv_pos_site_id
_symmetry_equiv_pos_as_xyz
1 x,y,z
2 1/2-x,1/2+y,1/2-z
3 -x,-y,-z
4 -1/2+x,-1/2-y,-1/2+z
_cell_length_a 9.320(5)
_cell_length_b 17.748(6)
_cell_length_c 16.620(5)
_cell_angle_alpha 90
_cell_angle_beta 105.20(5)
_cell_angle_gamma 90
_cell_formula_units_Z 4
loop_
_atom_type_symbol
_atom_type_radius_bond
C 0.68
H 0.23
N 0.68
O 0.68
loop_
_atom_site_label
_atom_site_type_symbol
_atom_site_fract_x
_atom_site_fract_y
_atom_site_fract_z
O1 O 0.1621(4) 0.1518(2) 0.3389(2)
O2 O 0.1378(3) 0.0268(2) 0.3441(2)
O3 O 0.1395(4) 0.0782(2) 0.0923(2)
O4 O 0.0261(3) 0.0165(2) 0.1757(2)
O5 O 0.6822(3) 0.0488(2) 0.4265(2)
O6 O 0.4473(3) 0.0592(9) 0.4197(2)
O7 O 0.7273(3) 0.0192(2) 0.2382(2)
O8 O 0.6475(3) -0.0703(2) 0.3118(2)
O9 O 0.3448(5) -0.1583(2) -0.0855(2)
O10 O 0.2818(5) -0.2495(2) -0.0203(2)
N1 N 0.3447(4) 0.1397(2) 0.2319(2)
N2 N 0.5509(4) 0.0495(2) 0.3884(2)
N3 N 0.3189(4) -0.1850(2) -0.0241(2)
C1 C 0.5054(4) 0.1245(3) 0.2569(3)
C2 C 0.5168(5) 0.0435(2) 0.2937(3)
C3 C 0.3623(4) 0.0069(3) 0.2585(3)
C4 C 0.2521(4) 0.0763(3) 0.2409(3)
C5 C 0.1793(5) 0.0902(3) 0.3133(3)
C6 C 0.0737(15) 0.0362(3) 0.4145(3)
C7 C 0.1318(5) 0.0593(2) 0.1597(3)
C8 C -0.0844(6) -0.0118(4) 0.1040(3)
C9 C 0.6459(5) -0.0024(3) 0.2776(3)
C10 C 0.7697(6) -0.1179(3) 0.3074(4)
C11 C 0.5975(5) 0.1824(3) 0.3133(3)
C12 C 0.5418(5) 0.2234(3) 0.3683(3)
C13 C 0.6300(6) 0.2748(3) 0.4224(3)
C14 C 0.7745(6) 0.2839(3) 0.4211(3)
C15 C 0.8323(6) 0.2434(3) 0.3681(4)
C16 C 0.7458(5) 0.1932(3) 0.3131(3)
C17 C 0.2905(5) 0.2062(3) 0.1875(3)
C18 C 0.1413(5) 0.2271(3) 0.1727(3)
C19 C 0.0887(6) 0.2908(3) 0.1279(3)
C20 C 0.1838(7) 0.3364(3) 0.0974(3)
C21 C 0.3298(6) 0.3168(3) 0.1122(3)
C22 C 0.3840(5) 0.2522(3) 0.1563(3)
C23 C 0.3556(4) -0.0427(2) 0.1833(3)
C24 C 0.4032(5) -0.0192(3) 0.1148(3)
C25 C 0.3902(5) -0.0654(3) 0.0471(3)
C26 C 0.3324(5) -0.1359(3) 0.0496(3)
C27 C 0.2881(5) -0.1617(3) 0.1148(3)
C28 C 0.2982(5) -0.1147(3) 0.1821(3)
H1 H 0.541(4) 0.118(2) 0.207(2)
H2 H 0.338(4) -0.021(2) 0.299(2)
H3 H 0.067(4) -0.016(2) 0.435(2)
H4 H 0.129(4) 0.082(2) 0.449(3)
H5 H 0.001(4) 0.073(2) 0.400(2)
H6 H -0.147(4) -0.048(2) 0.128(2)
H7 H -0.037(4) -0.038(2) 0.071(2)
H8 H -0.116(4) 0.034(2) 0.074(2)
H9 H 0.747(4) -0.167(2) 0.316(2)
H10 H 0.726(4) -0.130(2) 0.246(2)
H11 H 0.833(4) -0.147(2) 0.279(2)
H12 H 0.451(4) 0.216(2) 0.371(2)
H13 H 0.590(4) 0.300(2) 0.457(2)
H14 H 0.832(4) 0.319(2) 0.456(2)
H15 H 0.919(4) 0.260(2) 0.359(2)
H16 H 0.783(4) 0.166(2) 0.274(2)
H17 H 0.073(4) 0.190(2) 0.196(2)
H18 H -0.006(4) 0.305(2) 0.118(2)
H19 H 0.147(4) 0.380(2) 0.066(2)
H20 H 0.395(4) 0.348(2) 0.098(2)
H21 H 0.492(4) 0.239(2) 0.163(2)
H22 H 0.440(4) 0.029(2) 0.109(2)
H23 H 0.419(4) -0.050(2) -0.001(2)
H24 H 0.261(4) -0.209(2) 0.116(2)
H25 H 0.268(4) -0.129(2) 0.222(2)
#END
