
#######################################################################
#
#                 Cambridge Crystallographic Data Centre
#                                CCDC
#
#######################################################################
#
# If this CIF has been generated from an entry in the Cambridge
# Structural Database, then it will include bibliographic, chemical,
# crystal, experimental, refinement or atomic coordinate data resulting
# from the CCDC's data processing and validation procedures.
#
#######################################################################

data_CSD_CIF_FULKUS
_audit_creation_date 2000-12-15
_audit_creation_method CSD-ConQuest-V1
_database_code_CSD FULKUS
_database_code_depnum_ccdc_archive 'CCDC 152675'
_chemical_formula_sum 'C7 H5 N3 O2'
_chemical_formula_moiety
;
C7 H5 N3 O2
;
_journal_coeditor_code "IUCr QD0040"
_journal_data_validation_number IUC0000237
_journal_coden_Cambridge 591
_journal_volume 56
_journal_year 2000
_journal_page_first e474
_journal_name_full 'Acta Crystallogr.,Sect.C:Cryst.Struct.Commun. '
loop_
_publ_author_name
"F.Ooms"
"B.Norberg"
"E.M.Isin"
"N.Castagnoli Junior"
"C.J.Van der Schyf"
"J.Wouters"
_chemical_name_systematic
;
7-Nitroindazole
;
_cell_volume    694.465
_exptl_crystal_colour 'orange-yellow'
_exptl_crystal_density_diffrn 1.56
_exptl_special_details
;
neuronal nitric oxide synthase inhibitory activity

;
_exptl_crystal_description 'needle'
_diffrn_ambient_temperature ?
_diffrn_special_details
;
The study was carried out at room temperature,in the range 283-303K

;
#These two values have been output from a single CSD field.
_refine_ls_R_factor_gt 0.037
_refine_ls_wR_factor_gt 0.037
_symmetry_cell_setting monoclinic
_symmetry_space_group_name_H-M 'P 21/n'
_symmetry_Int_Tables_number 14
loop_
_symmetry_equiv_pos_site_id
_symmetry_equiv_pos_as_xyz
1 x,y,z
2 1/2+x,1/2-y,1/2+z
3 -x,-y,-z
4 -1/2-x,-1/2+y,-1/2-z
_cell_length_a 5.020(1)
_cell_length_b 9.636(1)
_cell_length_c 14.506(1)
_cell_angle_alpha 90
_cell_angle_beta 98.232(4)
_cell_angle_gamma 90
_cell_formula_units_Z 4
loop_
_atom_type_symbol
_atom_type_radius_bond
C 0.68
H 0.23
N 0.68
O 0.68
loop_
_atom_site_label
_atom_site_type_symbol
_atom_site_fract_x
_atom_site_fract_y
_atom_site_fract_z
C1 C 0.4179(3) 0.28020(14) 0.04060(9)
C2 C 0.2458(3) 0.33636(16) 0.09695(11)
H1 H 0.13380 0.40980 0.07530
C3 C 0.2390(3) 0.28378(17) 0.18587(11)
H2 H 0.12290 0.32320 0.22300
C4 C 0.4001(3) 0.17484(16) 0.2200(1)
H3 H 0.39300 0.14030 0.27950
C5 C 0.5750(3) 0.11678(15) 0.16378(10)
C6 C 0.7637(3) 0.00659(17) 0.17263(11)
H4 H 0.80280 -0.04860 0.22540
N1 N 0.8762(2) -0.00789(13) 0.09720(9)
N2 N 0.7668(2) 0.09196(12) 0.03689(8)
H5 H 0.80910 0.10410 -0.01790
C7 C 0.5843(3) 0.16938(14) 0.07349(9)
N3 N 0.4260(3) 0.33609(13) -0.05120(9)
O1 O 0.5911(3) 0.28690(14) -0.09639(8)
O2 O 0.2714(3) 0.43003(14) -0.08015(9)
#END
