
#######################################################################
#
#                 Cambridge Crystallographic Data Centre
#                                CCDC
#
#######################################################################
#
# If this CIF has been generated from an entry in the Cambridge
# Structural Database, then it will include bibliographic, chemical,
# crystal, experimental, refinement or atomic coordinate data resulting
# from the CCDC's data processing and validation procedures.
#
#######################################################################

data_CSD_CIF_FUNSOW
_audit_creation_date 1988-08-15
_audit_creation_method CSD-ConQuest-V1
_database_code_CSD FUNSOW
_database_code_depnum_ccdc_archive 'CCDC 1161297'
_chemical_formula_sum 'C2 H6 N2 O2'
_chemical_formula_moiety
;
C2 H6 N2 O2
;
_journal_coden_Cambridge 93
_journal_volume 294
_journal_year 1987
_journal_page_first 1169
_journal_name_full 'Dokl.Akad.Nauk SSSR(Russ.)(Proc.Nat.Acad.Sci.USSR) '
loop_
_publ_author_name
"G.A.Marchenko"
"L.F.Chertanova"
"M.Yu.Antipin"
"Yu.T.Struchkov"
"L.N.Punegova"
_chemical_name_systematic
;
(Z)-(N-Methyl-N'-methoxydiazene-N-oxide)
;
_chemical_melting_point 261.15
_cell_volume    441.048
_exptl_crystal_colour 'colorless'
_diffrn_ambient_temperature 153.15
#These two values have been output from a single CSD field.
_refine_ls_R_factor_gt 0.034
_refine_ls_wR_factor_gt 0.034
_symmetry_cell_setting monoclinic
_symmetry_space_group_name_H-M 'P 21/n'
_symmetry_Int_Tables_number 14
loop_
_symmetry_equiv_pos_site_id
_symmetry_equiv_pos_as_xyz
1 x,y,z
2 1/2-x,1/2+y,1/2-z
3 -x,-y,-z
4 -1/2+x,-1/2-y,-1/2+z
_cell_length_a 7.401(5)
_cell_length_b 8.584(3)
_cell_length_c 7.616(4)
_cell_angle_alpha 90
_cell_angle_beta 114.28(4)
_cell_angle_gamma 90
_cell_formula_units_Z 4
loop_
_atom_type_symbol
_atom_type_radius_bond
C 0.68
H 0.23
N 0.68
O 0.68
loop_
_atom_site_label
_atom_site_type_symbol
_atom_site_fract_x
_atom_site_fract_y
_atom_site_fract_z
O1 O 0.5458(2) 0.8151(1) 0.5626(1)
O2 O 0.2257(1) 0.8268(1) 0.5975(1)
N1 N 0.5352(1) 0.8903(1) 0.7004(1)
N2 N 0.3818(2) 0.9058(1) 0.7357(1)
C1 C 0.7127(2) 0.9722(1) 0.8358(2)
C2 C 0.0601(2) 0.8379(2) 0.6508(2)
H1 H 0.745(2) 1.045(1) 0.763(2)
H2 H 0.682(2) 1.011(1) 0.935(2)
H3 H 0.812(2) 0.894(1) 0.887(2)
H4 H 0.076(2) 0.774(1) 0.756(2)
H5 H 0.037(2) 0.949(1) 0.676(2)
H6 H -0.049(2) 0.798(1) 0.545(2)
#END
