
#######################################################################
#
#                 Cambridge Crystallographic Data Centre
#                                CCDC
#
#######################################################################
#
# If this CIF has been generated from an entry in the Cambridge
# Structural Database, then it will include bibliographic, chemical,
# crystal, experimental, refinement or atomic coordinate data resulting
# from the CCDC's data processing and validation procedures.
#
#######################################################################

data_CSD_CIF_FUSJOT
_audit_creation_date 2010-04-08
_audit_creation_method CSD-ConQuest-V1
_database_code_CSD FUSJOT
_database_code_depnum_ccdc_archive 'CCDC 752651'
_chemical_formula_sum 'C10 H6 N4 O7'
_chemical_formula_moiety
;
C10 H6 N4 O7
;
_journal_coden_Cambridge 95
_journal_year 2009
_journal_page_first 418
_journal_name_full 'Izv.Akad.Nauk SSSR,Ser.Khim.(Russ.)(Russ.Chem.Bull.) '
loop_
_publ_author_name
"M.A.Bastrakov"
"A.M.Starosotnikov"
"I.V.Glukhov"
"S.A.Shevelev"
_chemical_name_systematic
;
6-(1,3-Dioxolan-2-yl)-5-nitro-1,3-dihydro(1,2)oxazolo(5,4-e)(2,1,3)benzoxadiaz
ole 3-oxide
;
_chemical_melting_point 423.15
_cell_volume   1092.999
_exptl_crystal_colour 'colorless'
_exptl_crystal_density_diffrn 1.788
_exptl_special_details
;
Melting point range 423.15-428.15K

;
_exptl_crystal_description 'block'
_diffrn_ambient_temperature 120
#These two values have been output from a single CSD field.
_refine_ls_R_factor_gt 0.0476
_refine_ls_wR_factor_gt 0.0476
_symmetry_cell_setting monoclinic
_symmetry_space_group_name_H-M 'P 21/n'
_symmetry_Int_Tables_number 14
loop_
_symmetry_equiv_pos_site_id
_symmetry_equiv_pos_as_xyz
1 x,y,z
2 1/2-x,1/2+y,1/2-z
3 -x,-y,-z
4 -1/2+x,-1/2-y,-1/2+z
_cell_length_a 7.8452(9)
_cell_length_b 9.4505(11)
_cell_length_c 15.0250(19)
_cell_angle_alpha 90
_cell_angle_beta 101.135(3)
_cell_angle_gamma 90
_cell_formula_units_Z 4
loop_
_atom_type_symbol
_atom_type_radius_bond
C 0.68
H 0.23
N 0.68
O 0.68
loop_
_atom_site_label
_atom_site_type_symbol
_atom_site_fract_x
_atom_site_fract_y
_atom_site_fract_z
C1 C 0.7174(3) 0.8155(2) 0.15222(14)
N1 N 0.7474(2) 0.6795(2) 0.16951(13)
O1 O 0.90523(19) 0.65415(16) 0.14518(10)
O2 O 1.1039(2) 0.77700(18) 0.08290(11)
N2 N 0.9683(2) 0.78339(19) 0.11091(12)
C2 C 0.8511(3) 0.8831(2) 0.11735(14)
O3 O 0.8133(2) 1.33179(17) 0.10722(11)
C3 C 0.8517(3) 1.0277(2) 0.09308(14)
H1 H 0.94460 1.06860 0.07240
N3 N 0.6991(2) 1.25114(19) 0.07109(12)
O4 O 0.5784(2) 1.28090(17) 0.00954(11)
C4 C 0.5666(3) 1.0419(2) 0.13552(13)
C5 C 0.7092(3) 1.1028(2) 0.10173(13)
O5 O 0.45595(19) 1.33394(15) 0.18415(9)
C6 C 0.4077(3) 1.0885(2) 0.16000(13)
O6 O 0.23696(19) 1.26706(16) 0.07082(10)
N4 N 0.3308(2) 0.9855(2) 0.19490(13)
O7 O 0.43654(19) 0.86390(16) 0.19573(10)
C7 C 0.5742(3) 0.9026(2) 0.16079(14)
C8 C 0.3247(3) 1.2315(2) 0.15849(14)
H2 H 0.24380 1.23330 0.20070
C9 C 0.3948(3) 1.4622(2) 0.13609(15)
H3 H 0.47740 1.49570 0.10040
H4 H 0.37600 1.53610 0.17790
C10 C 0.2255(3) 1.4192(2) 0.07547(16)
H5 H 0.12700 1.44770 0.10150
H6 H 0.21450 1.46120 0.01570
#END
