
#######################################################################
#
#                 Cambridge Crystallographic Data Centre
#                                CCDC
#
#######################################################################
#
# If this CIF has been generated from an entry in the Cambridge
# Structural Database, then it will include bibliographic, chemical,
# crystal, experimental, refinement or atomic coordinate data resulting
# from the CCDC's data processing and validation procedures.
#
#######################################################################

data_CSD_CIF_FUXBAC
_audit_creation_date 2011-02-04
_audit_creation_method CSD-ConQuest-V1
_database_code_CSD FUXBAC
_database_code_depnum_ccdc_archive 'CCDC 764173'
_chemical_formula_sum 'C18 H17 N1 O7'
_chemical_formula_moiety
;
C18 H17 N1 O7
;
_journal_coden_Cambridge 1291
_journal_year 2010
_journal_page_first 3732
_journal_name_full 'Eur.J.Org.Chem. '
loop_
_publ_author_name
"M.Shkoor"
"O.Fatunsin"
"A.Riahi"
"M.Lubbe"
"S.Reim"
"M.Sher"
"A.Villinger"
"C.Fischer"
"P.Langer"
_chemical_name_systematic
;
5-Ethyl 2-methyl 3-hydroxy-4-methyl-4'-nitrobiphenyl-2,5-dicarboxylate
;
_cell_volume    853.418
_exptl_crystal_colour 'colorless'
_exptl_crystal_density_diffrn 1.398
_exptl_crystal_description 'block'
_diffrn_ambient_temperature 173
#These two values have been output from a single CSD field.
_refine_ls_R_factor_gt 0.0462
_refine_ls_wR_factor_gt 0.0462
_symmetry_cell_setting triclinic
_symmetry_space_group_name_H-M 'P -1'
_symmetry_Int_Tables_number 2
loop_
_symmetry_equiv_pos_site_id
_symmetry_equiv_pos_as_xyz
1 x,y,z
2 -x,-y,-z
_cell_length_a 7.7885(5)
_cell_length_b 11.1657(13)
_cell_length_c 11.2899(8)
_cell_angle_alpha 108.560(2)
_cell_angle_beta 108.363(2)
_cell_angle_gamma 97.584(2)
_cell_formula_units_Z 2
loop_
_atom_type_symbol
_atom_type_radius_bond
C 0.68
H 0.23
N 0.68
O 0.68
loop_
_atom_site_label
_atom_site_type_symbol
_atom_site_fract_x
_atom_site_fract_y
_atom_site_fract_z
N1 N 0.92018(13) 0.3444(1) 0.28113(10)
O1 O 1.07529(13) 0.38075(10) 0.28177(12)
O2 O 0.84494(15) 0.22986(9) 0.25145(11)
O3 O 0.11420(11) 0.66776(9) 0.15913(9)
O4 O 0.39280(11) 0.64015(8) 0.15921(8)
O5 O 0.12407(10) 0.85837(8) 0.36297(9)
H1 H 0.082(2) 0.7958(19) 0.280(2)
O6 O 0.63796(16) 1.08538(9) 0.85525(10)
O7 O 0.68520(11) 0.89266(8) 0.85937(7)
C1 C 0.54003(13) 0.73008(9) 0.44996(10)
C2 C 0.37203(12) 0.74808(9) 0.37019(10)
C3 C 0.28721(13) 0.83892(10) 0.43324(10)
C4 C 0.36735(13) 0.91611(9) 0.57236(10)
C5 C 0.53435(13) 0.89729(9) 0.64753(10)
C6 C 0.61869(13) 0.80514(10) 0.58701(10)
H2 H 0.73180 0.79410 0.64120
C7 C 0.63350(13) 0.62900(9) 0.39742(9)
C8 C 0.54171(13) 0.49633(10) 0.34076(11)
H3 H 0.41410 0.47010 0.32830
C9 C 0.63454(15) 0.40228(10) 0.30241(11)
H4 H 0.57250 0.31180 0.26490
C10 C 0.81979(13) 0.44318(10) 0.32007(10)
C11 C 0.91494(13) 0.57364(10) 0.37461(11)
H5 H 1.04160 0.59920 0.38470
C12 C 0.82058(13) 0.6665(1) 0.41439(11)
H6 H 0.88420 0.75670 0.45370
C13 C 0.28002(14) 0.68054(10) 0.22098(10)
C14 C 0.3070(2) 0.58822(16) 0.01280(12)
H7 H 0.21290 0.50560 -0.01920
H8 H 0.40330 0.57280 -0.02480
H9 H 0.24680 0.65110 -0.01650
C15 C 0.62366(14) 0.97152(10) 0.79715(11)
C16 C 0.76508(19) 0.94990(15) 1.00600(12)
H10 H 0.67060 0.97980 1.04160
H11 H 0.87340 1.02570 1.03870
C17 C 0.8262(3) 0.8440(2) 1.05107(16)
H12 H 0.71710 0.77070 1.01980
H13 H 0.88460 0.87860 1.14990
H14 H 0.91680 0.81370 1.01280
C18 C 0.26474(15) 1.00800(11) 0.63213(12)
H15 H 0.16770 0.95960 0.64990
H16 H 0.20650 1.04720 0.56850
H17 H 0.35320 1.07710 0.71690
#END
