
#######################################################################
#
#                 Cambridge Crystallographic Data Centre
#                                CCDC
#
#######################################################################
#
# If this CIF has been generated from an entry in the Cambridge
# Structural Database, then it will include bibliographic, chemical,
# crystal, experimental, refinement or atomic coordinate data resulting
# from the CCDC's data processing and validation procedures.
#
#######################################################################

data_CSD_CIF_FUXZIH01
_audit_creation_date 2002-10-01
_audit_creation_method CSD-ConQuest-V1
_database_code_CSD FUXZIH01
_database_code_depnum_ccdc_archive 'CCDC 193606'
_chemical_formula_sum 'C13 H13 N3 O2'
_chemical_formula_moiety
;
C13 H13 N3 O2
;
_journal_coeditor_code "IUCr AN0602"
_journal_coden_Cambridge 622
_journal_volume 58
_journal_year 2002
_journal_page_first 690
_journal_name_full 'Acta Crystallogr.,Sect.B:Struct.Sci. '
loop_
_publ_author_name
"J.M.Cole"
"A.E.Goeta"
"J.A.K.Howard"
"G.J.McIntyre"
_chemical_name_systematic
;
2-(Methylbenzylamino)-5-nitropyridine
;
_cell_volume    589.812
_exptl_crystal_colour 'yellow'
_exptl_crystal_density_diffrn 1.368
_exptl_special_details
;
neutron derived cell parameters a=5.3260(6) b=6.301(1) c=17.673(4) 
beta=93.42(1)
X-ray derived cell parameters were used for all calculation, correction and 
refinement procedures although neutron derived parameters were used in data 
collection
;
_exptl_crystal_description 'rectangle'
_diffrn_ambient_temperature 20.00
_diffrn_radiation_probe 'neutron radiation'
_refine_special_details
;
multipolar refinement

;
#These two values have been output from a single CSD field.
_refine_ls_R_factor_gt 0.0732
_refine_ls_wR_factor_gt 0.0732
_symmetry_cell_setting monoclinic
_symmetry_space_group_name_H-M 'P 21'
_symmetry_Int_Tables_number 4
loop_
_symmetry_equiv_pos_site_id
_symmetry_equiv_pos_as_xyz
1 x,y,z
2 -x,1/2+y,-z
_cell_length_a 5.321(1)
_cell_length_b 6.293(1)
_cell_length_c 17.650(4)
_cell_angle_alpha 90
_cell_angle_beta 93.65(3)
_cell_angle_gamma 90
_cell_formula_units_Z 2
loop_
_atom_type_symbol
_atom_type_radius_bond
C 0.68
H 0.23
N 0.68
O 0.68
loop_
_atom_site_label
_atom_site_type_symbol
_atom_site_fract_x
_atom_site_fract_y
_atom_site_fract_z
O1 O 0.6458(6) 0.1528(5) 0.4698(2)
O2 O 0.3175(6) 0.1837(5) 0.3915(2)
N1 N 0.8817(3) 0.9896(3) 0.30042(12)
H1 H 1.0504(10) 1.0463(11) 0.3223(4)
N2 N 0.5712(3) 0.7316(3) 0.30259(12)
N3 N 0.5221(3) 0.2486(3) 0.41967(12)
C1 C 0.8083(4) 0.9335(4) 0.1617(2)
C2 C 0.6266(4) 0.9362(4) 0.1012(2)
H2 H 0.4594(11) 1.0339(11) 0.1057(5)
C3 C 0.6576(5) 0.8155(4) 0.0366(2)
H3 H 0.5144(13) 0.8191(12) -0.0089(4)
C4 C 0.8723(5) 0.6900(4) 0.0317(2)
H4 H 0.8973(13) 0.5943(12) -0.0180(4)
C5 C 1.0539(4) 0.6858(4) 0.0915(2)
H5 H 1.2218(11) 0.5898(12) 0.0879(4)
C6 C 1.0243(4) 0.8075(4) 0.1567(2)
H6 H 1.1690(11) 0.8058(12) 0.2031(4)
C7 C 0.7761(4) 1.0788(4) 0.2293(2)
H7 H 0.5722(9) 1.1041(10) 0.2343(4)
C8 C 0.9068(5) 1.2913(4) 0.2160(2)
H8 H 0.8927(15) 1.3966(11) 0.2642(5)
H9 H 0.8215(14) 1.3687(13) 0.1664(5)
H10 H 1.1034(13) 1.2654(12) 0.2071(5)
C9 C 0.7922(4) 0.8116(4) 0.3324(2)
C10 C 0.9319(4) 0.7158(4) 0.3944(2)
H11 H 1.1051(11) 0.7868(11) 0.4161(4)
C11 C 0.8457(4) 0.5305(4) 0.4240(2)
H12 H 0.9485(12) 0.4492(12) 0.4702(4)
C12 C 0.6180(4) 0.4461(4) 0.3917(2)
C13 C 0.4876(4) 0.5519(4) 0.3326(2)
H13 H 0.3098(11) 0.4870(12) 0.3092(4)
#END
