
#######################################################################
#
#                 Cambridge Crystallographic Data Centre
#                                CCDC
#
#######################################################################
#
# If this CIF has been generated from an entry in the Cambridge
# Structural Database, then it will include bibliographic, chemical,
# crystal, experimental, refinement or atomic coordinate data resulting
# from the CCDC's data processing and validation procedures.
#
#######################################################################

data_CSD_CIF_FUYHUC
_audit_creation_date 1988-09-21
_audit_creation_method CSD-ConQuest-V1
_database_code_CSD FUYHUC
_database_code_depnum_ccdc_archive 'CCDC 1162112'
_chemical_formula_sum 'C17 H14 N2 O8'
_chemical_formula_moiety
;
C17 H14 N2 O8
;
_journal_coeditor_code "IUCr BU0165"
_journal_coden_Cambridge 591
_journal_volume 44
_journal_year 1988
_journal_page_first 198
_journal_name_full 'Acta Crystallogr.,Sect.C:Cryst.Struct.Commun. '
loop_
_publ_author_name
"U.Siriwardane"
"R.T.Reddy"
"S.S.C.Chu"
"E.R.Biehl"
_chemical_name_systematic
;
1,2-Dihydro-5,6-dimethoxy-1-benzocyclobutenyl 3,5-dinitrobenzoate
;
_cell_volume   1683.178
_exptl_crystal_density_diffrn 1.48
_diffrn_ambient_temperature ?
_diffrn_special_details
;
The study was carried out at room temperature,in the range 283-303K

;
#These two values have been output from a single CSD field.
_refine_ls_R_factor_gt 0.038
_refine_ls_wR_factor_gt 0.038
_symmetry_cell_setting monoclinic
_symmetry_space_group_name_H-M 'P 21/n'
_symmetry_Int_Tables_number 14
loop_
_symmetry_equiv_pos_site_id
_symmetry_equiv_pos_as_xyz
1 x,y,z
2 1/2-x,1/2+y,1/2-z
3 -x,-y,-z
4 -1/2+x,-1/2-y,-1/2+z
_cell_length_a 10.371(3)
_cell_length_b 22.759(6)
_cell_length_c 7.442(2)
_cell_angle_alpha 90
_cell_angle_beta 106.62(2)
_cell_angle_gamma 90
_cell_formula_units_Z 4
loop_
_atom_type_symbol
_atom_type_radius_bond
C 0.68
H 0.23
N 0.68
O 0.68
loop_
_atom_site_label
_atom_site_type_symbol
_atom_site_fract_x
_atom_site_fract_y
_atom_site_fract_z
O1 O 0.0233(2) 0.73248(7) 0.1869(2)
O2 O -0.3409(2) 0.72069(7) 0.1919(3)
O3 O -0.5033(2) 0.63968(8) 0.0211(3)
O4 O 0.2422(2) 0.72325(8) 0.3412(3)
O5 O -0.1424(2) 0.91447(9) -0.1274(4)
O6 O -0.0050(2) 0.97667(8) -0.1885(3)
O7 O 0.4594(2) 0.96469(10) 0.1574(4)
O8 O 0.5432(2) 0.88131(10) 0.2564(4)
C1 C -0.0063(3) 0.68107(11) 0.2821(4)
C2 C -0.1474(3) 0.65861(10) 0.1933(4)
C3 C -0.2822(3) 0.67083(10) 0.1538(4)
C4 C -0.3698(2) 0.62578(11) 0.0621(4)
C5 C -0.3216(3) 0.57255(11) 0.0210(4)
C6 C -0.1851(3) 0.56014(12) 0.0674(4)
C7 C -0.1007(3) 0.60473(11) 0.1518(4)
C8 C 0.0457(3) 0.62167(12) 0.2287(4)
C9 C 0.1516(2) 0.75063(11) 0.2393(4)
C10 C 0.1685(2) 0.80883(10) 0.1594(3)
C11 C 0.0595(2) 0.84058(11) 0.0503(4)
C12 C 0.0838(3) 0.89590(11) -0.0080(4)
C13 C 0.2100(2) 0.92108(11) 0.0344(4)
C14 C 0.3136(2) 0.88736(12) 0.1390(4)
C15 C 0.2966(2) 0.83225(11) 0.2032(4)
C16 C -0.2514(3) 0.76632(12) 0.2853(5)
C17 C -0.5985(3) 0.59850(12) -0.0869(5)
N1 N -0.0306(2) 0.93148(9) -0.1171(3)
N2 N 0.4493(2) 0.91305(10) 0.1877(4)
H1 H 0.018(2) 0.692(1) 0.421(3)
H2 H -0.393(1) 0.539(1) -0.050(1)
H3 H -0.148(1) 0.518(2) 0.038(1)
H4 H 0.098(2) 0.597(1) 0.332(4)
H5 H 0.099(2) 0.623(1) 0.134(4)
H6 H -0.041(1) 0.822(1) 0.013(2)
H7 H 0.226(2) 0.965(2) -0.012(3)
H8 H 0.382(2) 0.808(1) 0.286(2)
H9 H -0.309(1) 0.804(1) 0.308(1)
H10 H -0.188(1) 0.780(1) 0.200(1)
H11 H -0.189(1) 0.750(1) 0.419(1)
H12 H -0.699(1) 0.615(1) -0.108(1)
H13 H -0.588(1) 0.557(1) -0.013(1)
H14 H -0.580(1) 0.592(1) -0.221(1)
#END
