
#######################################################################
#
#                 Cambridge Crystallographic Data Centre
#                                CCDC
#
#######################################################################
#
# If this CIF has been generated from an entry in the Cambridge
# Structural Database, then it will include bibliographic, chemical,
# crystal, experimental, refinement or atomic coordinate data resulting
# from the CCDC's data processing and validation procedures.
#
#######################################################################

data_CSD_CIF_GAGBAT
_audit_creation_date 2010-11-04
_audit_creation_method CSD-ConQuest-V1
_database_code_CSD GAGBAT
_database_code_depnum_ccdc_archive 'CCDC 762419'
_chemical_formula_sum 'C26 H32 N8 O4'
_chemical_formula_moiety
;
C26 H32 N8 O4
;
_journal_coden_Cambridge 95
_journal_year 2008
_journal_page_first 385
_journal_name_full 'Izv.Akad.Nauk SSSR,Ser.Khim.(Russ.)(Russ.Chem.Bull.) '
loop_
_publ_author_name
"S.E.Tolstikov"
"E.V.Tretyakov"
"G.V.Romanenko"
"D.V.Stass"
"A.S.Bogomyakov"
"R.Z.Sagdeev"
"V.I.Ovcharenko"
_chemical_name_systematic
;
1,6-bis(4-(4,4,5,5-Tetramethyl-4,5-dihydro-1H-imidazol-2-yl-3-oxide-1-oxyl)-1H
-pyrazol-1-yl)hexa-2,4-diyne biradical
;
_chemical_name_common
;
2,2'-(1,1'-(Hexa-2,4-diyne-1,6-diyl)bis(1H-pyrazole-4,1-diyl))bis(4,4,5,5-tetr
amethyl-4,5-dihydro-1H-imidazole 3-oxide 1-oxyl) biradical
;
_cell_volume   2599.968
_exptl_crystal_colour 'dark blue'
_exptl_crystal_density_diffrn 1.33
_exptl_crystal_preparation 'dichloromethane/heptane'
_diffrn_ambient_temperature 295
#These two values have been output from a single CSD field.
_refine_ls_R_factor_gt 0.0664
_refine_ls_wR_factor_gt 0.0664
_symmetry_cell_setting monoclinic
_symmetry_space_group_name_H-M 'C 2/c'
_symmetry_Int_Tables_number 15
loop_
_symmetry_equiv_pos_site_id
_symmetry_equiv_pos_as_xyz
1 x,y,z
2 -x,y,1/2-z
3 1/2+x,1/2+y,z
4 1/2-x,1/2+y,1/2-z
5 -x,-y,-z
6 x,-y,-1/2+z
7 -1/2-x,-1/2-y,-z
8 -1/2+x,-1/2-y,-1/2+z
_cell_length_a 15.713(8)
_cell_length_b 15.769(8)
_cell_length_c 12.519(6)
_cell_angle_alpha 90
_cell_angle_beta 123.052(10)
_cell_angle_gamma 90
_cell_formula_units_Z 4
loop_
_atom_type_symbol
_atom_type_radius_bond
C 0.68
H 0.23
N 0.68
O 0.68
loop_
_atom_site_label
_atom_site_type_symbol
_atom_site_fract_x
_atom_site_fract_y
_atom_site_fract_z
N1 N -0.2330(3) 0.4148(2) 0.0564(3)
O1 O -0.2526(2) 0.34432(19) -0.0017(3)
C1 C -0.2944(3) 0.4925(3) -0.0061(4)
N2 N -0.1631(3) 0.5091(2) 0.2074(3)
O2 O -0.1079(2) 0.54262(18) 0.3184(3)
C2 C -0.3190(6) 0.4994(5) -0.1433(5)
H1 H -0.363(4) 0.448(3) -0.186(5)
H2 H -0.252(5) 0.495(3) -0.134(5)
H3 H -0.350(5) 0.547(4) -0.160(6)
N3 N -0.0463(3) 0.2289(2) 0.3510(4)
C3 C -0.3928(5) 0.4811(5) -0.0113(8)
H4 H -0.379(4) 0.482(4) 0.060(5)
H5 H -0.428(3) 0.427(3) -0.077(4)
H6 H -0.427(3) 0.534(3) -0.055(4)
N4 N 0.0071(2) 0.2891(2) 0.4386(3)
C4 C -0.2228(3) 0.5613(3) 0.0877(4)
C5 C -0.2745(6) 0.6345(4) 0.1095(7)
H7 H -0.215(3) 0.677(2) 0.170(4)
H8 H -0.317(4) 0.613(3) 0.126(5)
H9 H -0.309(3) 0.665(2) 0.034(4)
C6 C -0.1449(5) 0.5932(4) 0.0591(7)
H10 H -0.093(5) 0.625(4) 0.156(7)
H11 H -0.181(3) 0.632(3) -0.007(4)
H12 H -0.104(4) 0.537(4) 0.052(5)
C7 C -0.1645(3) 0.4263(3) 0.1826(4)
C8 C -0.1048(3) 0.3595(2) 0.2723(4)
C9 C -0.1141(4) 0.2724(3) 0.2483(5)
H13 H -0.161(3) 0.240(2) 0.168(4)
C10 C -0.0254(3) 0.3678(3) 0.3966(4)
H14 H 0.003(3) 0.420(2) 0.442(3)
C11 C 0.0890(4) 0.2628(3) 0.5657(5)
H15 H 0.128(3) 0.311(2) 0.602(3)
H16 H 0.123(3) 0.212(2) 0.557(3)
C12 C 0.0521(4) 0.2369(3) 0.6441(5)
C13 C 0.0193(4) 0.2251(3) 0.7103(4)
N1A N 0.2330(3) 0.4148(2) 1.4436(3)
O1A O 0.2526(2) 0.34432(19) 1.5017(3)
C1A C 0.2944(3) 0.4925(3) 1.5061(4)
N2A N 0.1631(3) 0.5091(2) 1.2926(3)
O2A O 0.1079(2) 0.54262(18) 1.1816(3)
C2A C 0.3190(6) 0.4994(5) 1.6433(5)
H1A H 0.363(4) 0.448(3) 1.686(5)
H2A H 0.252(5) 0.495(3) 1.634(5)
H3A H 0.350(5) 0.547(4) 1.660(6)
N3A N 0.0463(3) 0.2289(2) 1.1490(4)
C3A C 0.3928(5) 0.4811(5) 1.5113(8)
H4A H 0.379(4) 0.482(4) 1.440(5)
H5A H 0.428(3) 0.427(3) 1.577(4)
H6A H 0.427(3) 0.534(3) 1.555(4)
N4A N -0.0071(2) 0.2891(2) 1.0614(3)
C4A C 0.2228(3) 0.5613(3) 1.4123(4)
C5A C 0.2745(6) 0.6345(4) 1.3905(7)
H7A H 0.215(3) 0.677(2) 1.330(4)
H8A H 0.317(4) 0.613(3) 1.374(5)
H9A H 0.309(3) 0.665(2) 1.466(4)
C6A C 0.1449(5) 0.5932(4) 1.4409(7)
H10A H 0.093(5) 0.625(4) 1.344(7)
H11A H 0.181(3) 0.632(3) 1.507(4)
H12A H 0.104(4) 0.537(4) 1.448(5)
C7A C 0.1645(3) 0.4263(3) 1.3174(4)
C8A C 0.1048(3) 0.3595(2) 1.2277(4)
C9A C 0.1141(4) 0.2724(3) 1.2517(5)
H13A H 0.161(3) 0.240(2) 1.332(4)
C10A C 0.0254(3) 0.3678(3) 1.1034(4)
H14A H -0.003(3) 0.420(2) 1.058(3)
C11A C -0.0890(4) 0.2628(3) 0.9343(5)
H15A H -0.128(3) 0.311(2) 0.898(3)
H16A H -0.123(3) 0.212(2) 0.943(3)
C12A C -0.0521(4) 0.2369(3) 0.8559(5)
C13A C -0.0193(4) 0.2251(3) 0.7897(4)
#END
