
#######################################################################
#
#                 Cambridge Crystallographic Data Centre
#                                CCDC
#
#######################################################################
#
# If this CIF has been generated from an entry in the Cambridge
# Structural Database, then it will include bibliographic, chemical,
# crystal, experimental, refinement or atomic coordinate data resulting
# from the CCDC's data processing and validation procedures.
#
#######################################################################

data_CSD_CIF_GAGJAA
_audit_creation_date 2005-02-28
_audit_creation_method CSD-ConQuest-V1
_database_code_CSD GAGJAA
_database_code_depnum_ccdc_archive 'CCDC 219226'
_chemical_formula_sum 'C25 H25 N3 O7'
_chemical_formula_moiety
;
C25 H25 N3 O7
;
_journal_coden_Cambridge 4
_journal_volume 126
_journal_year 2004
_journal_page_first 14360
_journal_name_full 'J.Am.Chem.Soc. '
loop_
_publ_author_name
"M.Kimura"
"A.Miyachi"
"K.Kojima"
"S.Tanaka"
"Y.Tamaru"
_chemical_name_systematic
;
N-(4-Methoxyphenyl)-N-(3,4-dimethyl-1-(fur-2-yl)pent-4-en-1-yl)-3,5-dinitroben
zamide
;
_cell_volume   1212.922
_exptl_crystal_density_diffrn 1.313
_exptl_crystal_description 'block'
_diffrn_ambient_temperature 297.2
#These two values have been output from a single CSD field.
_refine_ls_R_factor_gt 0.0612
_refine_ls_wR_factor_gt 0.0612
_symmetry_cell_setting triclinic
_symmetry_space_group_name_H-M 'P -1'
_symmetry_Int_Tables_number 2
loop_
_symmetry_equiv_pos_site_id
_symmetry_equiv_pos_as_xyz
1 x,y,z
2 -x,-y,-z
_cell_length_a 9.4444(4)
_cell_length_b 10.749(1)
_cell_length_c 13.384(2)
_cell_angle_alpha 100.714(4)
_cell_angle_beta 100.568(3)
_cell_angle_gamma 109.558(2)
_cell_formula_units_Z 2
loop_
_atom_type_symbol
_atom_type_radius_bond
C 0.68
H 0.23
N 0.68
O 0.68
loop_
_atom_site_label
_atom_site_type_symbol
_atom_site_fract_x
_atom_site_fract_y
_atom_site_fract_z
O1 O 0.2497(2) 0.2818(2) 0.2031(2)
O2 O 0.6607(2) 0.5001(2) 0.4381(2)
O3 O 0.9944(4) 0.9686(4) 0.6865(3)
O4 O 0.8757(4) 1.0874(3) 0.7478(3)
O5 O 0.2062(3) 0.7777(3) 0.4598(3)
O6 O 0.3257(3) 0.9542(3) 0.5906(2)
O7 O 0.4571(2) 0.9343(2) 0.0978(2)
N1 N 0.5373(2) 0.5361(2) 0.2902(2)
N2 N 0.8777(4) 0.9914(4) 0.6863(3)
N3 N 0.3220(4) 0.8547(3) 0.5285(3)
C1 C 1.0036(5) 0.4294(5) 0.3531(4)
C2 C 0.8533(3) 0.3732(3) 0.2696(3)
C3 C 0.7694(4) 0.2409(4) 0.2418(3)
C4 C 0.8121(3) 0.4767(3) 0.2224(3)
C5 C 0.9229(4) 0.5301(4) 0.1558(4)
C6 C 0.6443(3) 0.4263(3) 0.1585(2)
C7 C 0.5258(3) 0.4044(3) 0.2227(2)
C8 C 0.3646(3) 0.3269(3) 0.1541(2)
C9 C 0.3013(4) 0.2883(3) 0.0498(3)
C10 C 0.1388(4) 0.2158(4) 0.0317(3)
C11 C 0.1133(4) 0.2141(4) 0.1247(4)
C12 C 0.6031(3) 0.5691(3) 0.3954(2)
C13 C 0.6008(3) 0.6967(3) 0.4636(2)
C14 C 0.7361(3) 0.7858(3) 0.5384(2)
C15 C 0.7322(4) 0.8957(3) 0.6083(2)
C16 C 0.5998(4) 0.9203(3) 0.6086(2)
C17 C 0.4669(3) 0.8299(3) 0.5334(2)
C18 C 0.4643(3) 0.7192(3) 0.4609(2)
C19 C 0.5122(3) 0.6373(3) 0.2399(2)
C20 C 0.6381(3) 0.7496(3) 0.2386(2)
C21 C 0.6150(3) 0.8462(3) 0.1910(2)
C22 C 0.4659(3) 0.8328(3) 0.1430(2)
C23 C 0.3409(3) 0.7216(3) 0.1427(2)
C24 C 0.3642(3) 0.6237(3) 0.1915(2)
C25 C 0.3093(4) 0.9321(4) 0.0512(3)
H1 H 0.98450 0.40870 0.41820
H2 H 1.07360 0.38820 0.33090
H3 H 1.05060 0.52790 0.36480
H4 H 0.80430 0.18060 0.27620
H5 H 0.67260 0.20360 0.18630
H6 H 0.82870 0.55400 0.28030
H7 H 1.02910 0.57310 0.20010
H8 H 0.91470 0.45390 0.09990
H9 H 0.89510 0.59630 0.12520
H10 H 0.63400 0.49300 0.12060
H11 H 0.62040 0.33960 0.10790
H12 H 0.54800 0.34960 0.26870
H13 H 0.35640 0.30630 -0.00360
H14 H 0.06180 0.17550 -0.03640
H15 H 0.01210 0.17080 0.13560
H16 H 0.83250 0.77130 0.54200
H17 H 0.59940 0.99770 0.65900
H18 H 0.36840 0.65790 0.40880
H19 H 0.74330 0.76000 0.27180
H20 H 0.70380 0.92460 0.19100
H21 H 0.23660 0.71120 0.10880
H22 H 0.27510 0.54550 0.19130
H23 H 0.25130 0.93560 0.10410
H24 H 0.32090 1.01000 0.02220
H25 H 0.25130 0.84790 -0.00500
#END
