
#######################################################################
#
#                 Cambridge Crystallographic Data Centre
#                                CCDC
#
#######################################################################
#
# If this CIF has been generated from an entry in the Cambridge
# Structural Database, then it will include bibliographic, chemical,
# crystal, experimental, refinement or atomic coordinate data resulting
# from the CCDC's data processing and validation procedures.
#
#######################################################################

data_CSD_CIF_GAQXOM
_audit_creation_date 2005-12-05
_audit_creation_method CSD-ConQuest-V1
_database_code_CSD GAQXOM
_database_code_depnum_ccdc_archive 'CCDC 217529'
_chemical_formula_sum 'C18 H20 N1 O1'
_chemical_formula_moiety
;
C18 H20 N1 O1
;
_journal_coden_Cambridge 1489
_journal_volume 440
_journal_year 2005
_journal_page_first 23
_journal_name_full 'Mol.Cryst.Liq.Cryst. '
loop_
_publ_author_name
"N.Ikuma"
"R.Tamura"
"S.Shimono"
"N.Kawame"
"O.Tamada"
"N.Sakai"
"Y.Yamamoto"
"J.Yamauchi"
_chemical_name_systematic
;
trans-(+-)-2,5-Dimethyl-2,5-diphenylpyrrolidine-1-oxyl
;
_cell_volume   1530.283
_exptl_crystal_colour 'yellow'
_exptl_crystal_density_diffrn 1.156
_exptl_special_details
;
weakly antiferromagnetic below 20K

;
_exptl_crystal_description 'prism'
_exptl_crystal_preparation 'hexane'
_diffrn_ambient_temperature 298
#These two values have been output from a single CSD field.
_refine_ls_R_factor_gt 0.0548
_refine_ls_wR_factor_gt 0.0548
loop_
_citation_database_id_CSD
_citation_special_details
TOLFEF "is a stereoisomer of this entry"
_symmetry_cell_setting orthorhombic
_symmetry_space_group_name_H-M 'P b c n'
_symmetry_Int_Tables_number 60
loop_
_symmetry_equiv_pos_site_id
_symmetry_equiv_pos_as_xyz
1 x,y,z
2 1/2-x,1/2-y,1/2+z
3 1/2+x,1/2-y,-z
4 -x,y,1/2-z
5 -x,-y,-z
6 -1/2+x,-1/2+y,-1/2-z
7 -1/2-x,-1/2+y,z
8 x,-y,-1/2+z
_cell_length_a 19.3353(6)
_cell_length_b 9.2424(6)
_cell_length_c 8.5632(5)
_cell_angle_alpha 90
_cell_angle_beta 90
_cell_angle_gamma 90
_cell_formula_units_Z 4
loop_
_atom_type_symbol
_atom_type_radius_bond
C 0.68
H 0.23
N 0.68
O 0.68
loop_
_atom_site_label
_atom_site_type_symbol
_atom_site_fract_x
_atom_site_fract_y
_atom_site_fract_z
N1 N 0.50000 0.3000(2) 0.25000
O1 O 0.50000 0.43795(18) 0.25000
C1 C 0.43562(8) 0.21392(18) 0.23705(18)
C2 C 0.39432(7) 0.21937(17) 0.38966(19)
C3 C 0.33655(8) 0.1310(2) 0.4040(2)
C4 C 0.46569(10) 0.06390(19) 0.2072(2)
C5 C 0.39238(10) 0.2718(3) 0.1017(3)
C6 C 0.31452(12) 0.2230(3) 0.6608(3)
C7 C 0.41129(10) 0.30888(19) 0.5137(2)
C8 C 0.2969(1) 0.1329(2) 0.5400(3)
C9 C 0.37114(12) 0.3097(2) 0.6485(2)
H1 H 0.32420 0.07010 0.32220
H2 H 0.43530 -0.01070 0.24790
H3 H 0.47240 0.04770 0.09630
H4 H 0.35170 0.21330 0.08960
H5 H 0.41910 0.26870 0.00740
H6 H 0.37910 0.36990 0.12310
H7 H 0.28780 0.22480 0.75110
H8 H 0.44980 0.36880 0.50680
H9 H 0.25850 0.07300 0.54880
H10 H 0.38310 0.37020 0.73110
C1C C 0.56438(8) 0.21392(18) 0.26295(18)
C2C C 0.60568(7) 0.21937(17) 0.11034(19)
C3C C 0.66345(8) 0.1310(2) 0.0960(2)
C4C C 0.53431(10) 0.06390(19) 0.2928(2)
C5C C 0.60762(10) 0.2718(3) 0.3983(3)
C6C C 0.68548(12) 0.2230(3) -0.1608(3)
C7C C 0.58871(10) 0.30888(19) -0.0137(2)
C8C C 0.7031(1) 0.1329(2) -0.0400(3)
C9C C 0.62886(12) 0.3097(2) -0.1485(2)
H1C H 0.67580 0.07010 0.17780
H2C H 0.56470 -0.01070 0.25210
H3C H 0.52760 0.04770 0.40370
H4C H 0.64830 0.21330 0.41040
H5C H 0.58090 0.26870 0.49260
H6C H 0.62090 0.36990 0.37690
H7C H 0.71220 0.22480 -0.25110
H8C H 0.55020 0.36880 -0.00680
H9C H 0.74150 0.07300 -0.04880
H10C H 0.61690 0.37020 -0.23110
#END
