
#######################################################################
#
#                 Cambridge Crystallographic Data Centre
#                                CCDC
#
#######################################################################
#
# If this CIF has been generated from an entry in the Cambridge
# Structural Database, then it will include bibliographic, chemical,
# crystal, experimental, refinement or atomic coordinate data resulting
# from the CCDC's data processing and validation procedures.
#
#######################################################################

data_CSD_CIF_GATPEW
_audit_creation_date 1988-11-02
_audit_creation_method CSD-ConQuest-V1
_database_code_CSD GATPEW
_chemical_formula_sum 'C14 H13 N3 O2'
_chemical_formula_moiety
;
C14 H13 N3 O2
;
_journal_coeditor_code "IUCr HU0134"
_journal_coden_Cambridge 622
_journal_volume 44
_journal_year 1988
_journal_page_first 55
_journal_name_full 'Acta Crystallogr.,Sect.B:Struct.Sci. '
loop_
_publ_author_name
"G.Tosi"
"L.Cardellini"
"G.Bocelli"
_chemical_name_systematic
;
2-Nitrobenzaldehyde methyl(phenyl)hydrazone
;
_cell_volume   1290.315
_exptl_crystal_colour 'red'
_exptl_crystal_density_diffrn 1.31
_diffrn_ambient_temperature ?
_diffrn_special_details
;
The study was carried out at room temperature,in the range 283-303K

;
#These two values have been output from a single CSD field.
_refine_ls_R_factor_gt 0.069
_refine_ls_wR_factor_gt 0.069
_symmetry_cell_setting monoclinic
_symmetry_space_group_name_H-M 'P 21/a'
_symmetry_Int_Tables_number 14
loop_
_symmetry_equiv_pos_site_id
_symmetry_equiv_pos_as_xyz
1 x,y,z
2 1/2-x,1/2+y,-z
3 -x,-y,-z
4 -1/2+x,-1/2-y,z
_cell_length_a 18.567(2)
_cell_length_b 8.109(2)
_cell_length_c 8.592(1)
_cell_angle_alpha 90
_cell_angle_beta 94.09(2)
_cell_angle_gamma 90
_cell_formula_units_Z 4
loop_
_atom_type_symbol
_atom_type_radius_bond
C 0.68
H 0.23
N 0.68
O 0.68
loop_
_atom_site_label
_atom_site_type_symbol
_atom_site_fract_x
_atom_site_fract_y
_atom_site_fract_z
O1 O -0.1263(3) 0.3824(8) -0.5010(5)
O2 O -0.1940(3) 0.5803(7) -0.5895(5)
N1 N 0.0094(2) 0.2565(5) -0.0393(4)
N2 N -0.0557(2) 0.3335(5) -0.0508(5)
N3 N -0.1687(3) 0.4941(7) -0.4838(6)
C1 C 0.0341(3) 0.2015(6) 0.1118(6)
C2 C 0.0948(3) 0.0969(7) 0.1335(7)
C3 C 0.1186(4) 0.0499(8) 0.2844(6)
C4 C 0.0869(4) 0.1024(9) 0.4100(7)
C5 C 0.0275(4) 0.2003(9) 0.3848(7)
C6 C 0.0007(3) 0.2525(8) 0.2419(6)
C7 C 0.0487(4) 0.2248(10) -0.1776(7)
C8 C -0.0829(3) 0.3824(6) -0.1856(7)
C9 C -0.1535(3) 0.4708(6) -0.1894(6)
C10 C -0.1828(3) 0.5123(7) -0.0480(7)
C11 C -0.2477(4) 0.5963(8) -0.0457(9)
C12 C -0.2870(4) 0.6427(9) -0.1803(10)
C13 C -0.2580(3) 0.6094(8) -0.3256(9)
C14 C -0.1927(3) 0.5226(7) -0.3277(6)
H1 H 0.116(3) 0.069(7) 0.035(6)
H2 H 0.152(3) -0.022(7) 0.317(7)
H3 H 0.105(3) 0.064(7) 0.481(7)
H4 H 0.006(2) 0.230(5) 0.456(5)
H5 H -0.039(3) 0.326(7) 0.230(6)
H6 H 0.046(3) 0.322(7) -0.245(6)
H7 H 0.023(3) 0.134(7) -0.254(6)
H8 H 0.092(3) 0.192(7) -0.148(6)
H9 H -0.063(3) 0.365(7) -0.300(6)
H10 H -0.162(3) 0.488(7) 0.058(7)
H11 H -0.268(3) 0.635(7) 0.061(7)
H12 H -0.336(3) 0.722(7) -0.179(6)
H13 H -0.275(3) 0.655(6) -0.465(7)
#END
