
#######################################################################
#
#                 Cambridge Crystallographic Data Centre
#                                CCDC
#
#######################################################################
#
# If this CIF has been generated from an entry in the Cambridge
# Structural Database, then it will include bibliographic, chemical,
# crystal, experimental, refinement or atomic coordinate data resulting
# from the CCDC's data processing and validation procedures.
#
#######################################################################

data_CSD_CIF_GAXGOE
_audit_creation_date 2017-07-31
_audit_creation_method CSD-ConQuest-V1
_database_code_CSD GAXGOE
_database_code_depnum_ccdc_archive 'CCDC 1540313'
_chemical_formula_sum 'C13 H11 N3 O4'
_chemical_formula_moiety
;
C13 H11 N3 O4
;
_journal_coden_Cambridge 1366
_journal_volume 359
_journal_year 2017
_journal_page_first 2509
_journal_name_full 'Adv.Synth.Catal. '
loop_
_publ_author_name
"H.B.Jalani"
"Wangshui Cai"
"Hongjian Lu"
_chemical_name_systematic
;
methyl 4-methyl-2-(4-nitrophenyl)pyrimidine-5-carboxylate
;
_cell_volume    613.995
_exptl_crystal_density_diffrn 1.478
_diffrn_ambient_temperature 293
#These two values have been output from a single CSD field.
_refine_ls_R_factor_gt 0.1162
_refine_ls_wR_factor_gt 0.1162
_symmetry_cell_setting triclinic
_symmetry_space_group_name_H-M 'P -1'
_symmetry_Int_Tables_number 2
loop_
_symmetry_equiv_pos_site_id
_symmetry_equiv_pos_as_xyz
1 x,y,z
2 -x,-y,-z
_cell_length_a 6.5180(5)
_cell_length_b 7.2879(6)
_cell_length_c 13.2101(11)
_cell_angle_alpha 94.270(1)
_cell_angle_beta 97.771(2)
_cell_angle_gamma 97.319(2)
_cell_formula_units_Z 2
loop_
_atom_type_symbol
_atom_type_radius_bond
C 0.68
H 0.23
N 0.68
O 0.68
loop_
_atom_site_label
_atom_site_type_symbol
_atom_site_fract_x
_atom_site_fract_y
_atom_site_fract_z
N1 N 0.4180(9) 0.7047(8) 1.3905(4)
N2 N 0.7464(11) 0.8272(9) 1.4832(4)
N3 N 0.2108(13) 0.7358(10) 1.8503(5)
O1 O 0.7366(9) 0.7029(9) 1.1353(4)
O2 O 0.9682(10) 0.9281(9) 1.2150(4)
O3 O 0.3245(10) 0.7969(10) 1.9270(4)
O4 O 0.0336(11) 0.6701(10) 1.8466(4)
C1 C 0.8147(13) 0.8114(13) 1.2124(8)
C2 C 0.7130(12) 0.7892(10) 1.3097(6)
C3 C 0.5106(13) 0.7181(10) 1.3017(5)
C4 C 0.5477(13) 0.7582(10) 1.4780(5)
C5 C 0.8359(13) 0.8442(10) 1.3977(6)
H1 H 0.97610 0.89190 1.40040
C6 C 0.4613(11) 0.7499(9) 1.5756(5)
C7 C 0.5823(10) 0.8124(9) 1.6659(5)
H2 H 0.72210 0.85860 1.66620
C8 C 0.5050(12) 0.8094(10) 1.7558(5)
H3 H 0.58860 0.85720 1.81720
C9 C 0.2988(12) 0.7335(10) 1.7546(5)
C10 C 0.1742(11) 0.6704(10) 1.6648(5)
H4 H 0.03450 0.62260 1.66340
C11 C 0.2622(12) 0.6795(10) 1.5754(5)
H5 H 0.17990 0.63510 1.51320
C12 C 0.3524(12) 0.6626(12) 1.2108(6)
H6 H 0.29940 0.77080 1.18640
H7 H 0.23980 0.57860 1.22850
H8 H 0.41460 0.60220 1.15790
C13 C 0.8335(13) 0.7278(13) 1.0439(5)
H9 H 0.81710 0.84840 1.02190
H10 H 0.76800 0.63400 0.99040
H11 H 0.97960 0.71750 1.05880
#END
