
#######################################################################
#
#                 Cambridge Crystallographic Data Centre
#                                CCDC
#
#######################################################################
#
# If this CIF has been generated from an entry in the Cambridge
# Structural Database, then it will include bibliographic, chemical,
# crystal, experimental, refinement or atomic coordinate data resulting
# from the CCDC's data processing and validation procedures.
#
#######################################################################

data_CSD_CIF_GECXUI
_audit_creation_date 2006-07-18
_audit_creation_method CSD-ConQuest-V1
_database_code_CSD GECXUI
_database_code_depnum_ccdc_archive 'CCDC 284059'
_chemical_formula_sum 'C18 H11 N3 O1'
_chemical_formula_moiety
;
C18 H11 N3 O1
;
_journal_coden_Cambridge 1200
_journal_volume 14
_journal_year 2006
_journal_page_first 3467
_journal_name_full 'Bioorg.Med.Chem. '
loop_
_publ_author_name
"G.Aguirre"
"A.Gerpe"
"L.Boiani"
"H.Cerecetto"
"M.Gonzalez"
"C.Olea-Azar"
"C.Rigol"
"J.D.Maya"
"A.Morello"
"O.E.Piro"
"V.J.Aran"
"A.Azqueta"
"A.L.de Cerain"
"A.Monge"
"M.A.Rojas"
"G.Yaluff"
_chemical_name_systematic
;
3-Cyano-2-(1-naphthyl)-2H-indazole 1-oxide
;
_chemical_melting_point 457.75
_cell_volume   1402.137
_exptl_crystal_colour 'pale yellow'
_exptl_crystal_density_diffrn 1.351
_exptl_special_details
;
Melting point range 457.75-458.95K
medium in vitro antitrypanosomal activity

;
_exptl_crystal_description 'prism'
_exptl_crystal_preparation 'ethanol'
_diffrn_ambient_temperature 294
#These two values have been output from a single CSD field.
_refine_ls_R_factor_gt 0.0499
_refine_ls_wR_factor_gt 0.0499
_symmetry_cell_setting monoclinic
_symmetry_space_group_name_H-M 'P 21/c'
_symmetry_Int_Tables_number 14
loop_
_symmetry_equiv_pos_site_id
_symmetry_equiv_pos_as_xyz
1 x,y,z
2 -x,1/2+y,1/2-z
3 -x,-y,-z
4 x,-1/2-y,-1/2+z
_cell_length_a 8.024(1)
_cell_length_b 20.186(3)
_cell_length_c 8.692(1)
_cell_angle_alpha 90
_cell_angle_beta 95.17(1)
_cell_angle_gamma 90
_cell_formula_units_Z 4
loop_
_atom_type_symbol
_atom_type_radius_bond
C 0.68
H 0.23
N 0.68
O 0.68
loop_
_atom_site_label
_atom_site_type_symbol
_atom_site_fract_x
_atom_site_fract_y
_atom_site_fract_z
O1 O 0.34198(19) 0.53954(7) 0.32858(18)
N1 N 0.3726(2) 0.60084(8) 0.31277(18)
N2 N 0.2714(2) 0.64121(8) 0.21926(18)
N3 N 0.1838(3) 0.79480(11) 0.0592(3)
C1 C 0.3363(3) 0.70384(10) 0.2197(2)
C2 C 0.4842(2) 0.70323(10) 0.3191(2)
C3 C 0.6058(3) 0.75088(11) 0.3687(3)
H1 H 0.59720 0.79450 0.33420
C4 C 0.7360(3) 0.73092(12) 0.4688(3)
H2 H 0.81830 0.76150 0.50140
C5 C 0.7507(3) 0.66561(12) 0.5249(3)
H3 H 0.84130 0.65460 0.59460
C6 C 0.6368(3) 0.61825(11) 0.4803(2)
H4 H 0.64680 0.57500 0.51690
C7 C 0.5026(2) 0.6382(1) 0.3757(2)
C8 C 0.2526(3) 0.75472(11) 0.1318(3)
C9 C 0.1285(2) 0.61641(10) 0.1253(2)
C10 C 0.1531(2) 0.59217(9) -0.0232(2)
C11 C 0.3117(3) 0.58734(12) -0.0812(3)
H5 H 0.40730 0.60050 -0.02040
C12 C 0.3242(4) 0.56345(14) -0.2261(3)
H6 H 0.42900 0.56010 -0.26310
C13 C 0.1831(4) 0.54404(14) -0.3196(3)
H7 H 0.19410 0.52900 -0.41930
C14 C 0.0295(3) 0.54688(11) -0.2665(3)
H8 H -0.06350 0.53260 -0.32930
C15 C 0.0091(3) 0.57113(9) -0.1172(2)
C16 C -0.1493(3) 0.57437(11) -0.0575(3)
H9 H -0.24400 0.56010 -0.11810
C17 C -0.1649(3) 0.59784(12) 0.0860(3)
H10 H -0.27000 0.59950 0.12290
C18 C -0.0244(3) 0.61968(11) 0.1801(3)
H11 H -0.03590 0.63620 0.27850
#END
