
#######################################################################
#
#                 Cambridge Crystallographic Data Centre
#                                CCDC
#
#######################################################################
#
# If this CIF has been generated from an entry in the Cambridge
# Structural Database, then it will include bibliographic, chemical,
# crystal, experimental, refinement or atomic coordinate data resulting
# from the CCDC's data processing and validation procedures.
#
#######################################################################

data_CSD_CIF_GEQVAZ
_audit_creation_date 1999-04-16
_audit_creation_method CSD-ConQuest-V1
_database_code_CSD GEQVAZ
_database_code_depnum_ccdc_journal 1003/5307
_chemical_formula_sum 'C14 H9 N1 O5'
_chemical_formula_moiety
;
C14 H9 N1 O5
;
_journal_coden_Cambridge 1003
_journal_volume 28
_journal_year 1998
_journal_page_first 203
_journal_name_full 'J.Chem.Cryst. '
loop_
_publ_author_name
"S.B.Martin"
"E.J.Valente"
_chemical_name_systematic
;
5-Nitro-2-benzoylbenzoic acid
;
_chemical_melting_point 491.75
_cell_volume   1241.077
_exptl_crystal_colour 'light yellow'
_exptl_crystal_density_diffrn 1.452
_exptl_crystal_description 'prism'
_exptl_crystal_preparation 'ethoxyethane'
_diffrn_ambient_temperature ?
_diffrn_special_details
;
The study was carried out at room temperature,in the range 283-303K

;
#These two values have been output from a single CSD field.
_refine_ls_R_factor_gt 0.0382
_refine_ls_wR_factor_gt 0.0382
_symmetry_cell_setting monoclinic
_symmetry_space_group_name_H-M 'P 21/c'
_symmetry_Int_Tables_number 14
loop_
_symmetry_equiv_pos_site_id
_symmetry_equiv_pos_as_xyz
1 x,y,z
2 x,1/2-y,1/2+z
3 -x,-y,-z
4 -x,-1/2+y,-1/2-z
_cell_length_a 10.201(6)
_cell_length_b 8.515(4)
_cell_length_c 14.573(7)
_cell_angle_alpha 90
_cell_angle_beta 101.35(4)
_cell_angle_gamma 90
_cell_formula_units_Z 4
loop_
_atom_type_symbol
_atom_type_radius_bond
C 0.68
H 0.23
N 0.68
O 0.68
loop_
_atom_site_label
_atom_site_type_symbol
_atom_site_fract_x
_atom_site_fract_y
_atom_site_fract_z
O1 O 0.3810(2) -0.0791(2) 1.05015(14)
O2 O 0.3623(2) 0.0126(2) 0.90548(13)
H1 H 0.4398(10) 0.0393(31) 0.9259(6)
O3 O 0.1686(2) -0.1951(2) 1.17082(14)
O4 O -0.2118(3) -0.1523(3) 0.7119(2)
O5 O -0.0474(2) -0.0159(3) 0.68382(14)
N1 N -0.1015(3) -0.0954(3) 0.7351(2)
C1 C 0.1750(2) -0.1118(3) 0.9436(2)
C2 C 0.1161(3) -0.1998(3) 1.0052(2)
C3 C -0.0158(3) -0.2456(3) 0.9788(2)
H2 H -0.0563(3) -0.3007(3) 1.0208(2)
C4 C -0.0888(3) -0.2103(3) 0.8904(2)
H3 H -0.1774(3) -0.2421(3) 0.8723(2)
C5 C -0.0271(3) -0.1279(3) 0.8305(2)
C6 C 0.1017(3) -0.0749(3) 0.8551(2)
H4 H 0.1396(3) -0.0154(3) 0.8135(2)
C7 C 0.3149(3) -0.0574(3) 0.9709(2)
C8 C 0.1908(3) -0.2558(3) 1.0999(2)
C9 C 0.2824(2) -0.3909(3) 1.1025(2)
C10 C 0.3644(3) -0.4317(4) 1.1861(2)
H5 H 0.3612(3) -0.3741(4) 1.2399(2)
C11 C 0.4500(3) -0.5559(4) 1.1906(2)
H6 H 0.5059(3) -0.5813(4) 1.2471(2)
C12 C 0.4540(3) -0.6437(4) 1.1117(2)
H7 H 0.5115(3) -0.7292(4) 1.1151(2)
C13 C 0.3727(3) -0.6043(4) 1.0282(2)
H8 H 0.3750(3) -0.6632(4) 0.9748(2)
C14 C 0.2884(3) -0.4789(3) 1.0235(2)
H9 H 0.2343(3) -0.4522(3) 0.9665(2)
#END
