
#######################################################################
#
#                 Cambridge Crystallographic Data Centre
#                                CCDC
#
#######################################################################
#
# If this CIF has been generated from an entry in the Cambridge
# Structural Database, then it will include bibliographic, chemical,
# crystal, experimental, refinement or atomic coordinate data resulting
# from the CCDC's data processing and validation procedures.
#
#######################################################################

data_CSD_CIF_GEVLEZ
_audit_creation_date 2007-02-15
_audit_creation_method CSD-ConQuest-V1
_database_code_CSD GEVLEZ
_database_code_depnum_ccdc_archive 'CCDC 633985'
_chemical_formula_sum 'C16 H16 N2 O5'
_chemical_formula_moiety
;
C16 H16 N2 O5
;
_journal_coeditor_code "IUCr RZ2095"
_journal_coden_Cambridge 1370
_journal_volume 63
_journal_year 2007
_journal_page_first o335
_journal_name_full 'Acta Crystallogr.,Sect.E:Struct.Rep.Online '
loop_
_publ_author_name
"G.Qadeer"
"N.H.Rama"
"Wai-Yeung Wong"
_chemical_name_systematic
;
N-Benzyl-4,5-dimethoxy-2-nitrobenzamide
;
_chemical_melting_point 460
_cell_volume   3173.904
_exptl_crystal_colour 'pale yellow'
_exptl_crystal_density_diffrn 1.324
_exptl_special_details
;
Melting point range 460-461K

;
_exptl_crystal_description 'plate'
_exptl_crystal_preparation 'toluene'
_diffrn_ambient_temperature 293
#These two values have been output from a single CSD field.
_refine_ls_R_factor_gt 0.0664
_refine_ls_wR_factor_gt 0.0664
_symmetry_cell_setting orthorhombic
_symmetry_space_group_name_H-M 'P b c a'
_symmetry_Int_Tables_number 61
loop_
_symmetry_equiv_pos_site_id
_symmetry_equiv_pos_as_xyz
1 x,y,z
2 1/2-x,-y,1/2+z
3 -x,1/2+y,1/2-z
4 1/2+x,1/2-y,-z
5 -x,-y,-z
6 -1/2+x,y,-1/2-z
7 x,-1/2-y,-1/2+z
8 -1/2-x,-1/2+y,z
_cell_length_a 14.915(2)
_cell_length_b 8.4187(14)
_cell_length_c 25.277(4)
_cell_angle_alpha 90
_cell_angle_beta 90
_cell_angle_gamma 90
_cell_formula_units_Z 8
loop_
_atom_type_symbol
_atom_type_radius_bond
C 0.68
H 0.23
N 0.68
O 0.68
loop_
_atom_site_label
_atom_site_type_symbol
_atom_site_fract_x
_atom_site_fract_y
_atom_site_fract_z
C1 C 0.8414(3) 0.7920(7) 0.11514(18)
H1 H 0.87150 0.74960 0.08470
H2 H 0.86470 0.74270 0.14650
H3 H 0.85110 0.90460 0.11690
C2 C 0.4861(3) 0.6792(5) 0.08934(15)
H4 H 0.47900 0.62480 0.05620
H5 H 0.45620 0.78010 0.08770
H6 H 0.46050 0.61650 0.11720
C3 C 0.6942(2) 0.8127(4) 0.15081(13)
C4 C 0.6025(2) 0.7792(4) 0.14497(13)
C5 C 0.5441(2) 0.8223(4) 0.18451(13)
H7 H 0.48320 0.80100 0.18140
C6 C 0.5772(2) 0.8979(4) 0.22896(13)
C7 C 0.6663(2) 0.9390(4) 0.23518(12)
C8 C 0.7245(2) 0.8931(4) 0.19488(13)
H8 H 0.78510 0.91720 0.19770
C9 C 0.6992(2) 1.0448(4) 0.27822(13)
C10 C 0.8231(2) 1.1011(4) 0.33816(14)
H9 H 0.80080 1.20850 0.33390
H10 H 0.88540 1.10070 0.32720
C11 C 0.8191(3) 1.0591(5) 0.39568(16)
C12 C 0.7471(4) 0.9841(6) 0.41816(18)
H11 H 0.69940 0.95270 0.39690
C13 C 0.7441(7) 0.9543(7) 0.4716(3)
H12 H 0.69600 0.89970 0.48640
C14 C 0.8129(11) 1.0065(11) 0.5026(3)
H13 H 0.81040 0.99020 0.53900
C15 C 0.8858(8) 1.0825(12) 0.4813(4)
H14 H 0.93190 1.11730 0.50320
C16 C 0.8906(4) 1.1072(6) 0.4280(2)
H15 H 0.94080 1.15550 0.41320
N1 N 0.5142(2) 0.9283(3) 0.27208(13)
N2 N 0.77338(19) 0.9982(4) 0.3031(1)
O1 O 0.74799(18) 0.7607(3) 0.11122(10)
O2 O 0.57921(17) 0.7036(3) 0.09951(9)
O3 O 0.43889(17) 0.9723(4) 0.26079(11)
O4 O 0.53974(17) 0.9068(3) 0.31750(11)
O5 O 0.65955(15) 1.1710(3) 0.28762(10)
H16 H 0.795(2) 0.902(5) 0.2921(13)
#END
