
#######################################################################
#
#                 Cambridge Crystallographic Data Centre
#                                CCDC
#
#######################################################################
#
# If this CIF has been generated from an entry in the Cambridge
# Structural Database, then it will include bibliographic, chemical,
# crystal, experimental, refinement or atomic coordinate data resulting
# from the CCDC's data processing and validation procedures.
#
#######################################################################

data_CSD_CIF_GEVSIM
_audit_creation_date 2018-04-19
_audit_creation_method CSD-ConQuest-V1
_database_code_CSD GEVSIM
_database_code_depnum_ccdc_archive 'CCDC 1545191'
_chemical_formula_sum 'C14 H14 N2 O4'
_chemical_formula_moiety
;
C14 H14 N2 O4
;
_journal_coden_Cambridge 16
_journal_volume 74
_journal_year 2018
_journal_page_first 2596
_journal_name_full 'Tetrahedron '
loop_
_publ_author_name
"B.Vigante"
"A.Plotniece"
"M.Rucins"
"M.Petrova"
"R.Muhamadejev"
"K.Pajuste"
"S.Belyakov"
"Y.G.Shermolovich"
"A.Sobolev"
_chemical_name_systematic
;
methyl 2-methyl-5-nitro-6-phenyl-1,6-dihydropyridine-3-carboxylate
;
_cell_volume   5322.234
_exptl_crystal_colour 'colorless'
_exptl_crystal_density_diffrn 1.369
_exptl_crystal_description 'Prism'
_diffrn_ambient_temperature 293
#These two values have been output from a single CSD field.
_refine_ls_R_factor_gt 0.0538
_refine_ls_wR_factor_gt 0.0538
_symmetry_cell_setting orthorhombic
_symmetry_space_group_name_H-M 'F d 2 d'
_symmetry_Int_Tables_number 43
loop_
_symmetry_equiv_pos_site_id
_symmetry_equiv_pos_as_xyz
1 x,y,z
2 -x,y,-z
3 1/4-x,1/4+y,1/4+z
4 1/4+x,1/4+y,1/4-z
5 x,1/2+y,1/2+z
6 -x,1/2+y,1/2-z
7 1/4-x,3/4+y,3/4+z
8 1/4+x,3/4+y,3/4-z
9 1/2+x,y,1/2+z
10 1/2-x,y,1/2-z
11 3/4-x,1/4+y,3/4+z
12 3/4+x,1/4+y,3/4-z
13 1/2+x,1/2+y,z
14 1/2-x,1/2+y,-z
15 3/4-x,3/4+y,1/4+z
16 3/4+x,3/4+y,1/4-z
_cell_length_a 11.7009(3)
_cell_length_b 12.0034(3)
_cell_length_c 37.8940(11)
_cell_angle_alpha 90
_cell_angle_beta 90
_cell_angle_gamma 90
_cell_formula_units_Z 16
loop_
_atom_type_symbol
_atom_type_radius_bond
C 0.68
H 0.23
N 0.68
O 0.68
loop_
_atom_site_label
_atom_site_type_symbol
_atom_site_fract_x
_atom_site_fract_y
_atom_site_fract_z
N1 N 0.13199(14) 0.16653(14) 0.03304(4)
H1 H 0.14740 0.24190 0.02610
O1 O -0.13889(13) -0.08447(14) 0.07681(5)
O2 O 0.30306(14) -0.10219(15) -0.00578(4)
C1 C 0.05273(16) -0.04583(16) 0.04146(5)
H2 H 0.02660 -0.11890 0.04810
C2 C 0.21784(16) 0.07893(16) 0.02653(5)
H3 H 0.25670 0.09140 0.00120
C3 C 0.31227(16) 0.08105(16) 0.05433(5)
O3 O 0.17079(17) -0.21528(15) 0.01137(7)
N2 N 0.21191(16) -0.12060(15) 0.00971(5)
C4 C -0.0341(2) 0.25857(19) 0.05559(7)
H4 H 0.01700 0.31590 0.04430
H5 H -0.10850 0.25520 0.04490
H6 H -0.03160 0.28290 0.08100
C5 C 0.15522(17) -0.03027(15) 0.02617(5)
C6 C -0.11704(17) 0.02558(18) 0.07439(5)
O4 O -0.17956(15) 0.09367(17) 0.08726(6)
C7 C 0.02997(16) 0.15289(16) 0.04824(5)
C8 C -0.01050(16) 0.04513(16) 0.05551(5)
C9 C 0.2894(2) 0.0611(3) 0.08924(6)
H7 H 0.21210 0.04810 0.09670
C10 C 0.4233(2) 0.1009(3) 0.04454(8)
H8 H 0.44130 0.11770 0.02040
C11 C -0.2403(2) -0.1158(3) 0.09572(8)
H9 H -0.24720 -0.19550 0.09580
H10 H -0.30600 -0.08380 0.08440
H11 H -0.23550 -0.08920 0.11960
C12 C 0.4879(3) 0.0763(3) 0.10309(9)
H12 H 0.54960 0.07310 0.11980
C13 C 0.3777(3) 0.0590(3) 0.11392(8)
H13 H 0.35430 0.04410 0.13790
C14 C 0.5105(2) 0.0980(4) 0.06909(10)
H14 H 0.58830 0.10990 0.06210
#END
