
#######################################################################
#
#                 Cambridge Crystallographic Data Centre
#                                CCDC
#
#######################################################################
#
# If this CIF has been generated from an entry in the Cambridge
# Structural Database, then it will include bibliographic, chemical,
# crystal, experimental, refinement or atomic coordinate data resulting
# from the CCDC's data processing and validation procedures.
#
#######################################################################

data_CSD_CIF_GEVYIP
_audit_creation_date 1989-05-23
_audit_creation_method CSD-ConQuest-V1
_database_code_CSD GEVYIP
_database_code_depnum_ccdc_archive 'CCDC 1166716'
_chemical_formula_sum 'C18 H17 N3 O5'
_chemical_formula_moiety
;
C18 H17 N3 O5
;
_journal_coden_Cambridge 48
_journal_volume 121
_journal_year 1988
_journal_page_first 887
_journal_name_full 'Chem.Ber. '
loop_
_publ_author_name
"M.Schildberg"
"T.Debaerdemaeker"
"W.Friedrichsen"
_chemical_name_systematic
;
5-(4-Methoxyphenyl)-3,4-dimethyl-6-(4-nitrophenyl)-2H-1,3,4-oxadiazin-2-one
;
_chemical_melting_point 427.15
_cell_volume   3400.502
_exptl_crystal_colour 'orange'
_exptl_crystal_density_diffrn 1.388
_diffrn_ambient_temperature ?
_diffrn_special_details
;
The study was carried out at room temperature,in the range 283-303K

;
#These two values have been output from a single CSD field.
_refine_ls_R_factor_gt 0.046
_refine_ls_wR_factor_gt 0.046
_symmetry_cell_setting monoclinic
_symmetry_space_group_name_H-M 'C 2/c'
_symmetry_Int_Tables_number 15
loop_
_symmetry_equiv_pos_site_id
_symmetry_equiv_pos_as_xyz
1 x,y,z
2 1/2+x,1/2+y,z
3 -x,y,1/2-z
4 1/2-x,1/2+y,1/2-z
5 -x,-y,-z
6 -1/2-x,-1/2-y,-z
7 x,-y,-1/2+z
8 -1/2+x,-1/2-y,-1/2+z
_cell_length_a 16.537(4)
_cell_length_b 17.109(4)
_cell_length_c 12.074(3)
_cell_angle_alpha 90
_cell_angle_beta 95.48(6)
_cell_angle_gamma 90
_cell_formula_units_Z 8
loop_
_atom_type_symbol
_atom_type_radius_bond
C 0.68
H 0.23
N 0.68
O 0.68
loop_
_atom_site_label
_atom_site_type_symbol
_atom_site_fract_x
_atom_site_fract_y
_atom_site_fract_z
O1 O 0.8867(1) 0.4330(1) 0.8497(1)
C1 C 0.8402(2) 0.4790(2) 0.9129(3)
N1 N 0.8241(2) 0.4446(1) 1.0091(2)
N2 N 0.8628(1) 0.3750(1) 1.0479(2)
C2 C 0.8751(2) 0.3210(2) 0.9612(2)
C3 C 0.8782(2) 0.3508(2) 0.8588(2)
O2 O 0.8174(2) 0.5423(1) 0.8801(2)
C4 C 0.7655(2) 0.4766(2) 1.0791(3)
C5 C 0.9332(2) 0.3886(2) 1.1296(3)
C6 C 0.8848(2) 0.2396(2) 0.9988(2)
C7 C 0.8430(2) 0.2130(2) 1.0867(2)
C8 C 0.8547(2) 0.1391(2) 1.1310(2)
C9 C 0.9102(2) 0.0898(2) 1.0886(2)
C10 C 0.8904(2) -0.0093(2) 1.2238(3)
O3 O 0.9279(1) 0.0160(1) 1.1271(2)
C11 C 0.9526(2) 0.1146(2) 0.9995(2)
C12 C 0.9401(2) 0.1880(2) 0.9562(2)
C13 C 0.8725(2) 0.3130(2) 0.7486(2)
C14 C 0.8356(2) 0.2406(2) 0.7293(2)
C15 C 0.8287(2) 0.2070(2) 0.6242(2)
C16 C 0.8596(2) 0.2482(2) 0.5390(2)
O4 O 0.8251(2) 0.1481(1) 0.4139(2)
O5 O 0.8817(2) 0.2513(2) 0.3533(2)
N3 N 0.8550(2) 0.2127(2) 0.4266(2)
C17 C 0.8951(2) 0.3203(2) 0.5543(2)
C18 C 0.9022(2) 0.3533(2) 0.6600(2)
H1 H 0.7436(24) 0.5234(25) 1.0540(33)
H2 H 0.7836(25) 0.4895(25) 1.1484(34)
H3 H 0.7277(23) 0.4383(24) 1.0854(32)
H4 H 0.9796(24) 0.4272(24) 1.0998(33)
H5 H 0.9204(23) 0.4140(22) 1.1819(31)
H6 H 0.9700(25) 0.3389(26) 1.1485(34)
H7 H 0.7982(19) 0.2464(19) 1.1112(26)
H8 H 0.8179(22) 0.1233(22) 1.1859(30)
H9 H 0.8202(25) -0.0143(25) 1.2043(33)
H10 H 0.9114(22) 0.0239(24) 1.2794(30)
H11 H 0.9228(27) -0.0617(27) 1.2363(36)
H12 H 0.9934(19) 0.0808(19) 0.9761(25)
H13 H 0.9747(18) 0.2063(17) 0.9002(24)
H14 H 0.8042(19) 0.2134(19) 0.7854(26)
H15 H 0.795(2) 0.1581(19) 0.6100(27)
H16 H 0.9272(23) 0.3461(23) 0.5025(31)
H17 H 0.9339(19) 0.4033(18) 0.6732(26)
#END
