
#######################################################################
#
#                 Cambridge Crystallographic Data Centre
#                                CCDC
#
#######################################################################
#
# If this CIF has been generated from an entry in the Cambridge
# Structural Database, then it will include bibliographic, chemical,
# crystal, experimental, refinement or atomic coordinate data resulting
# from the CCDC's data processing and validation procedures.
#
#######################################################################

data_CSD_CIF_GEYPEF
_audit_creation_date 1989-06-08
_audit_creation_method CSD-ConQuest-V1
_database_code_CSD GEYPEF
_chemical_formula_sum 'C24 H22 N4 O4'
_chemical_formula_moiety
;
C24 H22 N4 O4
;
_journal_coeditor_code "IUCr RN0322"
_journal_coden_Cambridge 591
_journal_volume 44
_journal_year 1988
_journal_page_first 1238
_journal_name_full 'Acta Crystallogr.,Sect.C:Cryst.Struct.Commun. '
loop_
_publ_author_name
"K.W.Tornroos"
_chemical_name_systematic
;
N,N-bis(o-Nitrobenzyl)tryptamine
;
_cell_volume   1081.880
_exptl_crystal_colour 'pale yellow'
_exptl_crystal_density_diffrn 1.321
_diffrn_ambient_temperature ?
_diffrn_special_details
;
The study was carried out at room temperature,in the range 283-303K

;
#These two values have been output from a single CSD field.
_refine_ls_R_factor_gt 0.0457
_refine_ls_wR_factor_gt 0.0457
_symmetry_cell_setting monoclinic
_symmetry_space_group_name_H-M 'P 21'
_symmetry_Int_Tables_number 4
loop_
_symmetry_equiv_pos_site_id
_symmetry_equiv_pos_as_xyz
1 x,y,z
2 -x,1/2+y,-z
_cell_length_a 7.689(1)
_cell_length_b 14.041(1)
_cell_length_c 10.438(1)
_cell_angle_alpha 90
_cell_angle_beta 106.25(7)
_cell_angle_gamma 90
_cell_formula_units_Z 2
loop_
_atom_type_symbol
_atom_type_radius_bond
C 0.68
H 0.23
N 0.68
O 0.68
loop_
_atom_site_label
_atom_site_type_symbol
_atom_site_fract_x
_atom_site_fract_y
_atom_site_fract_z
N1 N 0.68350(71) -0.03346(43) -0.07158(44)
H1 H 0.6320(66) -0.0733(37) -0.1273(49)
C1 C 0.58630(82) 0.00337(54) 0.01054(54)
H2 H 0.4739(71) -0.0199(34) 0.0074(48)
C2 C 0.66995(71) 0.08149(46) 0.07329(44)
C3 C 0.82567(61) 0.09595(46) 0.02830(43)
C4 C 0.96325(75) 0.16446(48) 0.05630(48)
H3 H 0.96365(75) 0.22090(48) 0.12668(48)
C5 C 1.09955(71) 0.15878(51) -0.00773(53)
H4 H 1.20505(71) 0.21205(51) 0.01177(53)
C6 C 1.10014(82) 0.08550(61) -0.09555(57)
H5 H 1.20878(82) 0.08183(61) -0.14229(57)
C7 C 0.96600(83) 0.01722(56) -0.12597(49)
H6 H 0.96828(83) -0.03967(56) -0.19512(49)
C8 C 0.82907(76) 0.02445(47) -0.06337(46)
C9 C 0.61310(71) 0.13753(48) 0.17882(47)
H7 H 0.60351(71) 0.21202(48) 0.15197(47)
H8 H 0.48235(71) 0.11222(48) 0.18342(47)
C10 C 0.74926(69) 0.12595(43) 0.31599(45)
H9 H 0.88168(69) 0.14684(43) 0.30944(45)
H10 H 0.75222(69) 0.05206(43) 0.34530(45)
N2 N 0.70227(47) 0.18430 0.41823(35)
C11 C 0.55500(73) 0.13705(40) 0.46025(54)
H11 H 0.44622(73) 0.12078(40) 0.37219(54)
H12 H 0.60766(73) 0.07175(40) 0.51112(54)
C12 C 0.86329(64) 0.20389(47) 0.53317(48)
H13 H 0.86825(64) 0.15216(47) 0.61068(48)
H14 H 0.98406(64) 0.19794(47) 0.50021(48)
C13 C 0.47871(62) 0.19732(42) 0.55260(47)
C14 C 0.85513(60) 0.30241(47) 0.58885(49)
C15 C 0.39197(57) 0.28323(41) 0.51933(42)
C16 C 0.83231(59) 0.38473(51) 0.51020(59)
C17 C 0.32934(58) 0.33799(46) 0.60697(53)
H15 H 0.26199(58) 0.40517(46) 0.57664(53)
C18 C 0.82042(78) 0.47414(54) 0.56100(93)
H16 H 0.79774(78) 0.53606(54) 0.49708(93)
C19 C 0.35600(76) 0.30348(55) 0.73428(57)
H17 H 0.30992(76) 0.34454(55) 0.80598(57)
C20 C 0.83778(88) 0.48364(72) 0.6929(11)
H18 H 0.83353(88) 0.55372(72) 0.7346(11)
C21 C 0.44038(80) 0.21853(59) 0.77131(55)
H19 H 0.45892(80) 0.19202(59) 0.87137(55)
C22 C 0.86098(85) 0.40479(82) 0.77587(77)
H20 H 0.87403(85) 0.41283(82) 0.88105(77)
C23 C 0.50183(72) 0.16660(48) 0.68152(56)
H21 H 0.56925(72) 0.09953(48) 0.71246(56)
C24 C 0.86661(70) 0.31503(57) 0.72088(56)
H22 H 0.8811(7) 0.25328(57) 0.78471(56)
N3 N 0.35348(55) 0.32182(48) 0.38234(47)
N4 N 0.82359(68) 0.37834(48) 0.36785(54)
O1 O 0.31920(59) 0.26865(43) 0.2882(4)
O2 O 0.93461(56) 0.32852(40) 0.33599(39)
O3 O 0.35716(61) 0.40803(47) 0.37200(43)
O4 O 0.70849(68) 0.42404(49) 0.28662(52)
#END
