
#######################################################################
#
#                 Cambridge Crystallographic Data Centre
#                                CCDC
#
#######################################################################
#
# If this CIF has been generated from an entry in the Cambridge
# Structural Database, then it will include bibliographic, chemical,
# crystal, experimental, refinement or atomic coordinate data resulting
# from the CCDC's data processing and validation procedures.
#
#######################################################################

data_CSD_CIF_GIHNUJ
_audit_creation_date 2018-09-21
_audit_creation_method CSD-ConQuest-V1
_database_code_CSD GIHNUJ
_database_code_depnum_ccdc_archive 'CCDC 1857326'
_chemical_formula_sum 'C10 H11 N1 O3'
_chemical_formula_moiety
;
C10 H11 N1 O3
;
_journal_coden_Cambridge 1336
_journal_year 2018
_journal_name_full 'Org.Lett. '
loop_
_publ_author_name
"Wei-Hao Rao"
"Li-Li Jiang"
"Jin-Xiao Zhao"
"Xin Jiang"
"Guo-Dong Zou"
"Yu-Qiang Zhou"
"Lin Tang"
_chemical_name_systematic
;
N,7-dimethoxy-2-benzofuran-1(3H)-imine
;
_cell_volume    952.818
_exptl_crystal_colour 'colorless'
_exptl_crystal_density_diffrn 1.347
_exptl_crystal_description 'block'
_diffrn_ambient_temperature 295
#These two values have been output from a single CSD field.
_refine_ls_R_factor_gt 0.0405
_refine_ls_wR_factor_gt 0.0405
_symmetry_cell_setting monoclinic
_symmetry_space_group_name_H-M 'P 21/c'
_symmetry_Int_Tables_number 14
loop_
_symmetry_equiv_pos_site_id
_symmetry_equiv_pos_as_xyz
1 x,y,z
2 -x,1/2+y,1/2-z
3 -x,-y,-z
4 x,-1/2-y,-1/2+z
_cell_length_a 7.2294(6)
_cell_length_b 17.4258(12)
_cell_length_c 7.5746(6)
_cell_angle_alpha 90
_cell_angle_beta 93.121(3)
_cell_angle_gamma 90
_cell_formula_units_Z 4
loop_
_atom_type_symbol
_atom_type_radius_bond
C 0.68
H 0.23
N 0.68
O 0.68
loop_
_atom_site_label
_atom_site_type_symbol
_atom_site_fract_x
_atom_site_fract_y
_atom_site_fract_z
O1 O 1.00928(12) 0.72958(5) 0.66177(13)
O2 O 1.07944(15) 0.59087(6) 0.73208(16)
O3 O 0.53861(14) 0.60481(6) 0.44030(15)
N1 N 0.90822(15) 0.60354(6) 0.63413(15)
C1 C 0.9392(2) 0.80461(8) 0.6125(2)
H1 H 1.01932 0.82937 0.53103
H2 H 0.93054 0.83693 0.71594
C2 C 0.75258(19) 0.79042(8) 0.52636(17)
C3 C 0.6209(2) 0.84161(9) 0.45866(19)
H3 H 0.64183 0.89426 0.46221
C4 C 0.4573(2) 0.81171(10) 0.3856(2)
H4 H 0.36624 0.84507 0.34010
C5 C 0.4250(2) 0.73382(9) 0.3782(2)
H5 H 0.31307 0.71570 0.32825
C6 C 0.55694(17) 0.68206(8) 0.44421(16)
C7 C 0.72242(16) 0.71198(7) 0.52030(15)
C8 C 0.88395(16) 0.67518(7) 0.60705(16)
C9 C 1.1033(3) 0.51107(9) 0.7606(3)
H6 H 1.01190 0.49297 0.83794
H7 H 1.22484 0.50161 0.81351
H8 H 1.08933 0.48453 0.64958
C10 C 0.3708(2) 0.57397(11) 0.3623(3)
H9 H 0.26743 0.59439 0.42147
H10 H 0.37228 0.51909 0.37356
H11 H 0.35950 0.58765 0.23944
#END
