
#######################################################################
#
#                 Cambridge Crystallographic Data Centre
#                                CCDC
#
#######################################################################
#
# If this CIF has been generated from an entry in the Cambridge
# Structural Database, then it will include bibliographic, chemical,
# crystal, experimental, refinement or atomic coordinate data resulting
# from the CCDC's data processing and validation procedures.
#
#######################################################################

data_CSD_CIF_GILPID
_audit_creation_date 2018-09-21
_audit_creation_method CSD-ConQuest-V1
_database_code_CSD GILPID
_database_code_depnum_ccdc_archive 'CCDC 1843443'
_chemical_formula_sum 'C23 H30 N4 O1'
_chemical_formula_moiety
;
C23 H30 N4 O1
;
_journal_coden_Cambridge 4
_journal_volume 140
_journal_year 2018
_journal_page_first 12511
_journal_name_full 'J.Am.Chem.Soc. '
loop_
_publ_author_name
"J.C.Siu"
"G.S.Sauer"
"A.Saha"
"R.L.Macey"
"Niankai Fu"
"T.Chauvire"
"K.M.Lancaster"
"Song Lin"
_chemical_name_systematic
;
1-(2-azido-1,2-diphenylethoxy)-2,2,6,6-tetramethylpiperidine
;
_cell_volume   2111.953
_exptl_crystal_colour 'colorless'
_exptl_crystal_density_diffrn 1.19
_exptl_crystal_description 'plate'
_diffrn_ambient_temperature 100
#These two values have been output from a single CSD field.
_refine_ls_R_factor_gt 0.0388
_refine_ls_wR_factor_gt 0.0388
_symmetry_cell_setting monoclinic
_symmetry_space_group_name_H-M 'P 21/c'
_symmetry_Int_Tables_number 14
loop_
_symmetry_equiv_pos_site_id
_symmetry_equiv_pos_as_xyz
1 x,y,z
2 -x,1/2+y,1/2-z
3 -x,-y,-z
4 x,-1/2-y,-1/2+z
_cell_length_a 12.8801(1)
_cell_length_b 14.6375(1)
_cell_length_c 11.2233(1)
_cell_angle_alpha 90
_cell_angle_beta 93.525(1)
_cell_angle_gamma 90
_cell_formula_units_Z 4
loop_
_atom_type_symbol
_atom_type_radius_bond
C 0.68
H 0.23
N 0.68
O 0.68
loop_
_atom_site_label
_atom_site_type_symbol
_atom_site_fract_x
_atom_site_fract_y
_atom_site_fract_z
O1 O 0.22785(5) 0.63163(5) 0.19791(6)
N1 N 0.39945(8) 0.51734(6) 0.23471(9)
N2 N 0.41240(8) 0.47438(6) 0.14194(9)
N3 N 0.42303(11) 0.42720(8) 0.06323(11)
N4 N 0.13032(6) 0.63851(5) 0.25809(7)
C1 C 0.58333(9) 0.70214(8) 0.24911(12)
H1 H 0.57453 0.72021 0.16782
C2 C 0.67074(10) 0.73009(10) 0.31827(15)
H2 H 0.72105 0.76801 0.28445
C3 C 0.68484(11) 0.70279(11) 0.43662(15)
H3 H 0.74474 0.72201 0.48361
C4 C 0.61194(11) 0.6478(1) 0.48598(13)
H4 H 0.62195 0.62846 0.56666
C5 C 0.52391(10) 0.62076(8) 0.41752(11)
H5 H 0.47342 0.58341 0.45202
C6 C 0.50882(8) 0.64785(7) 0.29864(10)
C7 C 0.41154(8) 0.61889(7) 0.22558(10)
H6 H 0.41720 0.63676 0.14022
C8 C 0.31444(8) 0.66336(7) 0.27440(9)
H7 H 0.30621 0.63931 0.35668
C9 C 0.32200(7) 0.76638(7) 0.28124(9)
C10 C 0.35537(8) 0.81917(7) 0.18734(9)
H8 H 0.37693 0.79021 0.11725
C11 C 0.35720(8) 0.91388(8) 0.19584(10)
H9 H 0.37953 0.94928 0.13124
C12 C 0.32664(8) 0.95710(8) 0.29801(11)
H10 H 0.32805 1.02186 0.30344
C13 C 0.29408(9) 0.90530(8) 0.39202(10)
H11 H 0.27334 0.93448 0.46234
C14 C 0.29176(8) 0.81045(7) 0.38337(9)
H12 H 0.26921 0.77531 0.44809
C15 C 0.10271(8) 0.54395(7) 0.29768(9)
C16 C -0.00524(8) 0.55022(7) 0.34835(9)
H13 H -0.02786 0.48800 0.36966
H14 H 0.00055 0.58684 0.42263
C17 C -0.08810(8) 0.59253(8) 0.26358(10)
H15 H -0.15457 0.59731 0.30299
H16 H -0.09955 0.55393 0.19154
C18 C -0.05122(8) 0.68683(8) 0.22892(10)
H17 H -0.04567 0.72592 0.30101
H18 H -0.10391 0.71444 0.17189
C19 C 0.05426(8) 0.68576(7) 0.17205(9)
C20 C 0.08926(9) 0.78495(7) 0.15965(10)
H19 H 0.10380 0.81142 0.23914
H20 H 0.03403 0.82004 0.11666
H21 H 0.15237 0.78697 0.11521
C21 C 0.04219(9) 0.64376(8) 0.04633(10)
H22 H 0.11107 0.63005 0.01836
H23 H 0.00630 0.68718 -0.00843
H24 H 0.00150 0.58731 0.04897
C22 C 0.17931(9) 0.51614(7) 0.40156(10)
H25 H 0.24783 0.50447 0.37129
H26 H 0.15417 0.46063 0.43921
H27 H 0.18482 0.56558 0.46050
C23 C 0.10509(10) 0.46924(8) 0.20190(11)
H28 H 0.04290 0.47421 0.14743
H29 H 0.10653 0.40907 0.24024
H30 H 0.16735 0.47676 0.15687
#END
