
#######################################################################
#
#                 Cambridge Crystallographic Data Centre
#                                CCDC
#
#######################################################################
#
# If this CIF has been generated from an entry in the Cambridge
# Structural Database, then it will include bibliographic, chemical,
# crystal, experimental, refinement or atomic coordinate data resulting
# from the CCDC's data processing and validation procedures.
#
#######################################################################

data_CSD_CIF_GINKAQ
_audit_creation_date 2007-12-14
_audit_creation_method CSD-ConQuest-V1
_database_code_CSD GINKAQ
_database_code_depnum_ccdc_archive 'CCDC 667335'
_chemical_formula_sum 'C31 H21 N3 O5'
_chemical_formula_moiety
;
C31 H21 N3 O5
;
_journal_coeditor_code "IUCr CV2310"
_journal_coden_Cambridge 1370
_journal_volume 63
_journal_year 2007
_journal_page_first o4290
_journal_name_full 'Acta Crystallogr.,Sect.E:Struct.Rep.Online '
loop_
_publ_author_name
"G.Chakkaravarthi"
"G.Periyasamy"
"R.Raghunathan"
"V.Manivannan"
_chemical_name_systematic
;
N'-(Diphenylmethylene)-3-(3-nitrophenyl)-1',3'-dioxospiro(cyclopropane-2'-inda
n)-2-carbohydrazide
;
_cell_volume   1270.688
_exptl_crystal_colour 'colorless'
_exptl_crystal_density_diffrn 1.347
_exptl_crystal_description 'prism'
_exptl_crystal_preparation 'hexane/chloroform'
_diffrn_ambient_temperature 295
#These two values have been output from a single CSD field.
_refine_ls_R_factor_gt 0.0441
_refine_ls_wR_factor_gt 0.0441
_symmetry_cell_setting triclinic
_symmetry_space_group_name_H-M 'P -1'
_symmetry_Int_Tables_number 2
loop_
_symmetry_equiv_pos_site_id
_symmetry_equiv_pos_as_xyz
1 x,y,z
2 -x,-y,-z
_cell_length_a 9.4617(4)
_cell_length_b 12.8806(5)
_cell_length_c 12.9114(8)
_cell_angle_alpha 108.212(2)
_cell_angle_beta 108.535(3)
_cell_angle_gamma 107.424(2)
_cell_formula_units_Z 2
loop_
_atom_type_symbol
_atom_type_radius_bond
C 0.68
H 0.23
N 0.68
O 0.68
loop_
_atom_site_label
_atom_site_type_symbol
_atom_site_fract_x
_atom_site_fract_y
_atom_site_fract_z
O1 O -0.04259(18) 0.28990(11) 0.30518(12)
O2 O -0.38449(18) -0.09220(12) -0.04041(12)
O3 O -0.4375(4) 0.4332(2) 0.2466(3)
O4 O -0.3681(3) 0.59338(18) 0.2206(3)
O5 O 0.13052(18) 0.34678(13) 0.11804(15)
N1 N -0.3744(3) 0.49416(19) 0.2027(2)
N2 N 0.20415(18) 0.23100(13) 0.19914(14)
H1 H 0.30380 0.28830 0.24540
N3 N 0.16360(17) 0.12174(13) 0.20421(13)
C1 C -0.1963(3) 0.34378(19) -0.0334(2)
H2 H -0.15470 0.31140 -0.08510
C2 C -0.2192(3) 0.4456(2) -0.0283(2)
H3 H -0.19500 0.48050 -0.07740
C3 C -0.2776(3) 0.49552(19) 0.0488(2)
H4 H -0.29380 0.56420 0.05290
C4 C -0.3116(2) 0.44166(17) 0.1199(2)
C5 C -0.2928(2) 0.33816(16) 0.11500(18)
H5 H -0.31920 0.30280 0.16320
C6 C -0.2340(2) 0.28869(15) 0.03732(16)
C7 C -0.2306(2) 0.16839(15) 0.01203(15)
H6 H -0.31940 0.10490 -0.06870
C8 C -0.1958(2) 0.11749(14) 0.10371(15)
C9 C -0.3020(2) -0.01311(15) 0.06427(16)
C10 C -0.2864(2) -0.02621(15) 0.17684(16)
C11 C -0.3501(2) -0.13041(17) 0.18977(19)
H7 H -0.41810 -0.20610 0.12190
C12 C -0.3093(3) -0.1183(2) 0.3065(2)
H8 H -0.35090 -0.18700 0.31760
C13 C -0.2078(3) -0.0061(2) 0.4074(2)
H9 H -0.18170 -0.00060 0.48530
C14 C -0.1441(3) 0.09819(19) 0.39477(18)
H10 H -0.07600 0.17380 0.46290
C15 C -0.1851(2) 0.08654(16) 0.27771(16)
C16 C -0.1291(2) 0.18194(16) 0.23871(16)
C17 C -0.0803(2) 0.14712(15) 0.04513(15)
H11 H -0.08840 0.07590 -0.01780
C18 C 0.0907(2) 0.25044(16) 0.12286(17)
C19 C 0.2746(2) 0.11628(15) 0.28863(15)
C20 C 0.2312(2) -0.00189(15) 0.29322(15)
C21 C 0.0669(2) -0.08342(17) 0.24699(18)
H12 H -0.01730 -0.06470 0.21000
C22 C 0.0260(3) -0.19161(18) 0.2548(2)
H13 H -0.08500 -0.24430 0.22490
C23 C 0.1482(3) -0.22227(18) 0.30635(19)
H14 H 0.12040 -0.29580 0.31080
C24 C 0.3110(3) -0.14361(19) 0.35109(19)
H15 H 0.39420 -0.16440 0.38530
C25 C 0.3536(2) -0.03331(18) 0.34610(18)
H16 H 0.46500 0.02010 0.37840
C26 C 0.4357(2) 0.22278(15) 0.38371(16)
C27 C 0.4430(3) 0.29707(19) 0.49105(19)
H17 H 0.34830 0.27940 0.50290
C28 C 0.5895(3) 0.3971(2) 0.5805(2)
H18 H 0.59360 0.44620 0.65270
C29 C 0.7288(3) 0.42418(19) 0.5633(2)
H19 H 0.82720 0.49240 0.62320
C30 C 0.7234(3) 0.3510(2) 0.4581(2)
H20 H 0.81860 0.36890 0.44700
C31 C 0.5770(2) 0.25060(19) 0.36821(19)
H21 H 0.57410 0.20140 0.29660
#END
