
#######################################################################
#
#                 Cambridge Crystallographic Data Centre
#                                CCDC
#
#######################################################################
#
# If this CIF has been generated from an entry in the Cambridge
# Structural Database, then it will include bibliographic, chemical,
# crystal, experimental, refinement or atomic coordinate data resulting
# from the CCDC's data processing and validation procedures.
#
#######################################################################

data_CSD_CIF_GIYYAO
_audit_creation_date 1999-05-04
_audit_creation_method CSD-ConQuest-V1
_database_code_CSD GIYYAO
_chemical_formula_sum 'C22 H25 N5 O7'
_chemical_formula_moiety
;
C22 H25 N5 O7
;
_journal_coden_Cambridge 1277
_journal_volume 102
_journal_year 1998
_journal_page_first 3505
_journal_name_full 'J.Phys.Chem.A '
loop_
_publ_author_name
"G.McGeorge"
"R.K.Harris"
"A.S.Batsanov"
"A.V.Churakov"
"A.M.Chippendale"
"J.F.Bullock"
"Zhehong Gan"
_chemical_name_systematic
;
2'-Acetamido-4'-(N,N-bis(2-methoxycarbonylethyl)amino)-4-nitroazobenzene
;
_chemical_melting_point 383
_cell_volume   2256.399
_exptl_crystal_colour 'brown'
_exptl_crystal_density_diffrn 1.388
_exptl_crystal_description 'needle'
_exptl_crystal_preparation 'perdeuterodichloromethane/methanol'
_diffrn_ambient_temperature 150
_refine_special_details
;
N1,N2 C1-C6 are disordered over two positions with s.o.f.s 0.53:0.47.

;
#These two values have been output from a single CSD field.
_refine_ls_R_factor_gt 0.0787
_refine_ls_wR_factor_gt 0.0787
_symmetry_cell_setting monoclinic
_symmetry_space_group_name_H-M 'P 21/c'
_symmetry_Int_Tables_number 14
loop_
_symmetry_equiv_pos_site_id
_symmetry_equiv_pos_as_xyz
1 x,y,z
2 x,1/2-y,1/2+z
3 -x,-y,-z
4 -x,-1/2+y,-1/2-z
_cell_length_a 18.042(2)
_cell_length_b 12.198(2)
_cell_length_c 10.387(2)
_cell_angle_alpha 90
_cell_angle_beta 99.22(1)
_cell_angle_gamma 90
_cell_formula_units_Z 4
loop_
_atom_type_symbol
_atom_type_radius_bond
C 0.68
H 0.23
N 0.68
O 0.68
loop_
_atom_site_label
_atom_site_type_symbol
_atom_site_fract_x
_atom_site_fract_y
_atom_site_fract_z
O1 O 0.6223(5) -0.0572(8) 0.6098(8)
O2 O 0.7110(6) -0.1767(9) 0.5728(11)
O3 O 0.4698(6) 0.2604(11) 0.6027(10)
O4 O 0.4374(6) 0.3805(9) 0.4557(9)
O5 O 0.9950(6) 0.7946(8) -0.1745(10)
O6 O 1.0145(4) 0.6619(8) -0.3003(8)
O7 O 0.7856(4) -0.0385(7) 0.0960(8)
N1 N 0.8175(5) 0.1406(7) 0.0917(8)
H1 H 0.8477(5) 0.1843(7) 0.0568(8)
N2 N 0.9883(5) 0.6992(10) -0.2074(10)
N3 N 0.6303(5) 0.1293(7) 0.3850(9)
N4 N 0.8222(13) 0.3502(18) 0.1039(22)
N5 N 0.8221(10) 0.4562(16) 0.1134(17)
C1 C 0.8650(9) 0.5078(12) 0.0209(15)
C2 C 0.8762(10) 0.6195(12) 0.0425(15)
H2 H 0.8548(14) 0.6551(16) 0.1090(21)
C3 C 0.9189(11) 0.679(1) -0.0333(19)
H3 H 0.9266(15) 0.7553(10) -0.0185(26)
C4 C 0.9503(12) 0.6268(13) -0.1306(19)
C5 C 0.9390(11) 0.5151(13) -0.1522(16)
H4 H 0.9605(15) 0.4795(18) -0.2188(22)
C6 C 0.8964(9) 0.4557(10) -0.0765(15)
H5 H 0.8887(13) 0.3793(10) -0.0912(22)
N6? N 0.8059(15) 0.3995(28) 0.1144(26)
N7? N 0.8460(11) 0.3652(18) 0.0465(21)
C7? C 0.8817(11) 0.4572(13) -0.0112(17)
C8? C 0.8749(11) 0.5664(15) 0.0235(17)
H6? H 0.8489(16) 0.5849(21) 0.0930(23)
C9? C 0.9063(13) 0.6484(11) -0.0436(22)
H7? H 0.9017(19) 0.7230(12) -0.0198(31)
C10? C 0.9444(14) 0.6213(14) -0.1453(23)
C11? C 0.9512(12) 0.5121(16) -0.1800(18)
H8? H 0.9773(17) 0.4936(23) -0.2495(24)
C12? C 0.9199(10) 0.4301(12) -0.1130(17)
H9? H 0.9245(15) 0.3555(13) -0.1367(25)
C13 C 0.7726(6) 0.3081(11) 0.181(1)
C14 C 0.7307(6) 0.3591(10) 0.2673(11)
H10 H 0.7330(6) 0.4364(10) 0.2775(11)
C15 C 0.6848(6) 0.3005(9) 0.3352(11)
H11 H 0.6580(6) 0.3361(9) 0.3948(11)
C16 C 0.6790(6) 0.1876(9) 0.317(1)
C17 C 0.7220(6) 0.1338(9) 0.2366(10)
H12 H 0.7172(6) 0.0570(9) 0.2223(10)
C18 C 0.7713(6) 0.1933(10) 0.1729(10)
C19 C 0.6057(6) 0.021(1) 0.3432(11)
H13 H 0.5973(6) 0.0186(10) 0.2467(11)
H14 H 0.5568(6) 0.0072(10) 0.3718(11)
C20 C 0.6577(7) -0.0698(10) 0.3952(12)
H15 H 0.7090(7) -0.0502(10) 0.3806(12)
H16 H 0.6424(7) -0.1367(10) 0.3436(12)
C21 C 0.6604(9) -0.0957(12) 0.5402(16)
C22 C 0.7202(8) -0.2100(11) 0.7060(18)
H17 H 0.7490(8) -0.2784(11) 0.7174(18)
H18 H 0.6707(8) -0.2217(11) 0.7310(18)
H19 H 0.7470(8) -0.1528(11) 0.7613(18)
C23 C 0.5881(6) 0.1844(9) 0.4742(10)
H20 H 0.6214(6) 0.2385(9) 0.5258(10)
H21 H 0.5729(6) 0.1298(9) 0.5354(10)
C24 C 0.5186(5) 0.2429(11) 0.4037(10)
H22 H 0.5336(5) 0.2967(11) 0.3413(10)
H23 H 0.4847(5) 0.1887(11) 0.3535(10)
C25 C 0.4782(8) 0.3000(15) 0.4961(16)
C26 C 0.3935(7) 0.4348(12) 0.5439(12)
H24 H 0.3791(7) 0.5078(12) 0.5093(12)
H25 H 0.4243(7) 0.4419(12) 0.6302(12)
H26 H 0.3483(7) 0.3922(12) 0.5511(12)
C27 C 0.8228(6) 0.0366(10) 0.0656(10)
C28 C 0.8820(6) 0.012(1) -0.0238(11)
H27 H 0.9042(6) -0.0605(10) -0.0037(11)
H28 H 0.9213(6) 0.0681(10) -0.0076(11)
H29 H 0.8585(6) 0.0145(10) -0.1157(11)
#END
