
#######################################################################
#
#                 Cambridge Crystallographic Data Centre
#                                CCDC
#
#######################################################################
#
# If this CIF has been generated from an entry in the Cambridge
# Structural Database, then it will include bibliographic, chemical,
# crystal, experimental, refinement or atomic coordinate data resulting
# from the CCDC's data processing and validation procedures.
#
#######################################################################

data_CSD_CIF_GOSTIR
_audit_creation_date 1999-09-09
_audit_creation_method CSD-ConQuest-V1
_database_code_CSD GOSTIR
_database_code_depnum_ccdc_archive 'CCDC 104951; not CCDC 104955 as published'
_chemical_formula_sum 'C15 H14 N2 O1'
_chemical_formula_moiety
;
C15 H14 N2 O1
;
_journal_coden_Cambridge 24
_journal_volume 40
_journal_year 1999
_journal_page_first 4783
_journal_name_full 'Tetrahedron Lett. '
loop_
_publ_author_name
"M.Mazik"
"D.Blaser"
"R.Boese"
_chemical_name_systematic
;
2-Methyl-1-phenyl-3-pyridin-4'-yl-2-propen-1-one oxime unknown solvate
;
_cell_volume   5509.680
_exptl_crystal_colour 'colorless'
_exptl_crystal_description 'plate'
_diffrn_ambient_temperature ?
_diffrn_special_details
;
The study was carried out at room temperature,in the range 283-303K

;
_refine_special_details
;
Atom C19 represents an unknown solvent.

;
#These two values have been output from a single CSD field.
_refine_ls_R_factor_gt 0.048
_refine_ls_wR_factor_gt 0.048
_symmetry_cell_setting tetragonal
_symmetry_space_group_name_H-M 'I 41/a'
_symmetry_Int_Tables_number 88
loop_
_symmetry_equiv_pos_site_id
_symmetry_equiv_pos_as_xyz
1 x,y,z
2 3/4-y,1/4+x,1/4+z
3 1/2+x,1/2+y,1/2+z
4 1/4-y,3/4+x,3/4+z
5 1/4+y,1/4-x,1/4+z
6 1/2-x,-y,1/2+z
7 3/4+y,3/4-x,3/4+z
8 -x,1/2-y,z
9 -x,-y,-z
10 -3/4+y,-1/4-x,-1/4-z
11 -1/2-x,-1/2-y,-1/2-z
12 -1/4+y,-3/4-x,-3/4-z
13 -1/4-y,-1/4+x,-1/4-z
14 -1/2+x,y,-1/2-z
15 -3/4-y,-3/4+x,-3/4-z
16 x,-1/2+y,-z
_cell_length_a 31.5612(3)
_cell_length_b 31.5612(3)
_cell_length_c 5.5312(1)
_cell_angle_alpha 90
_cell_angle_beta 90
_cell_angle_gamma 90
_cell_formula_units_Z 16
loop_
_atom_type_symbol
_atom_type_radius_bond
C 0.68
H 0.23
N 0.68
O 0.68
loop_
_atom_site_label
_atom_site_type_symbol
_atom_site_fract_x
_atom_site_fract_y
_atom_site_fract_z
C1 C 0.33066(6) 0.16578(6) 0.3419(3)
C2 C 0.33890(6) 0.13046(6) 0.5093(4)
C3 C 0.37817(6) 0.12476(5) 0.5948(4)
H1 H 0.39890 0.14510 0.54230
C4 C 0.39387(6) 0.09152(5) 0.7578(3)
C5 C 0.43272(6) 0.07256(6) 0.7134(4)
H2 H 0.44920 0.08120 0.57530
C6 C 0.44755(7) 0.04148(6) 0.8646(4)
H3 H 0.47420 0.02800 0.82790
N1 N 0.42674(6) 0.02874(5) 1.0623(3)
C7 C 0.39035(7) 0.04753(6) 1.1078(4)
H4 H 0.37550 0.03930 1.25250
C8 C 0.37271(7) 0.07844(6) 0.9642(4)
H5 H 0.34580 0.09090 1.00610
N2 N 0.29612(5) 0.16386(5) 0.2190(3)
O1 O 0.29150(5) 0.19843(4) 0.0643(3)
H6 H 0.26440 0.18960 -0.02330
C9 C 0.36172(6) 0.20096(5) 0.3183(3)
C10 C 0.38747(6) 0.20393(6) 0.1165(4)
H7 H 0.38470 0.18340 -0.01120
C11 C 0.41707(6) 0.23615(6) 0.0985(4)
H8 H 0.43510 0.23790 -0.04160
C12 C 0.42076(7) 0.26570(6) 0.2787(4)
H9 H 0.44130 0.28810 0.26600
C13 C 0.39485(7) 0.26343(6) 0.4778(4)
H10 H 0.39740 0.28420 0.60420
C14 C 0.36552(6) 0.23117(6) 0.4988(4)
H11 H 0.34740 0.22970 0.63840
C15 C 0.30272(7) 0.10115(8) 0.5610(6)
H12 H 0.31380 0.07460 0.61920
H13 H 0.28680 0.09640 0.41490
H14 H 0.28440 0.11340 0.68170
C16? C 0.2407(5) 0.0048(4) 0.758(13)
#END
