
#######################################################################
#
#                 Cambridge Crystallographic Data Centre
#                                CCDC
#
#######################################################################
#
# If this CIF has been generated from an entry in the Cambridge
# Structural Database, then it will include bibliographic, chemical,
# crystal, experimental, refinement or atomic coordinate data resulting
# from the CCDC's data processing and validation procedures.
#
#######################################################################

data_CSD_CIF_GUCNIC
_audit_creation_date 2010-05-04
_audit_creation_method CSD-ConQuest-V1
_database_code_CSD GUCNIC
_database_code_depnum_ccdc_archive 'CCDC 718713'
_chemical_formula_sum 'C20 H21 N1 O5'
_chemical_formula_moiety
;
C20 H21 N1 O5
;
_journal_coden_Cambridge 1220
_journal_volume 15
_journal_year 2009
_journal_page_first 6576
_journal_name_full 'Chem.-Eur.J. '
loop_
_publ_author_name
"J.L.G.Ruano"
"V.Marcos"
"J.A.Suanzes"
"L.Marzo"
"J.Aleman"
_chemical_name_systematic
;
(1S,2R,3R,4S,6R)-(2,4-Dihydroxy-6-methyl-3-nitro-2-phenylcyclohexyl)(phenyl)me
thanone
;
_cell_volume    850.909
_exptl_crystal_colour 'colorless'
_exptl_crystal_density_diffrn 1.387
_exptl_special_details
;
Absolute configuration

;
_exptl_crystal_description 'prismatic'
_diffrn_ambient_temperature 100
#These two values have been output from a single CSD field.
_refine_ls_R_factor_gt 0.0269
_refine_ls_wR_factor_gt 0.0269
_symmetry_cell_setting monoclinic
_symmetry_space_group_name_H-M 'P 21'
_symmetry_Int_Tables_number 4
loop_
_symmetry_equiv_pos_site_id
_symmetry_equiv_pos_as_xyz
1 x,y,z
2 -x,1/2+y,-z
_cell_length_a 5.6472(1)
_cell_length_b 14.1588(3)
_cell_length_c 10.9749(2)
_cell_angle_alpha 90
_cell_angle_beta 104.148(1)
_cell_angle_gamma 90
_cell_formula_units_Z 2
loop_
_atom_type_symbol
_atom_type_radius_bond
C 0.68
H 0.23
N 0.68
O 0.68
loop_
_atom_site_label
_atom_site_type_symbol
_atom_site_fract_x
_atom_site_fract_y
_atom_site_fract_z
C1 C 0.9690(2) 0.20881(10) 0.29835(13)
C2 C 1.1875(3) 0.14017(10) 0.32693(13)
C3 C 1.2247(3) 0.09456(11) 0.45586(13)
C4 C 1.2816(3) 0.17345(12) 0.55325(13)
C5 C 1.0828(3) 0.24984(11) 0.53273(12)
C6 C 1.0363(3) 0.28944(10) 0.39814(12)
C7 C 1.1594(3) 0.32887(12) 0.62934(13)
C8 C 0.9259(2) 0.2469(1) 0.16410(13)
C9 C 1.1081(3) 0.29771(11) 0.12671(13)
C10 C 1.0660(3) 0.33736(10) 0.00814(13)
C11 C 0.8419(3) 0.32424(11) -0.07742(13)
C12 C 0.6635(3) 0.27102(11) -0.04277(13)
C13 C 0.7035(3) 0.23336(11) 0.07776(13)
C14 C 0.8317(3) 0.36228(10) 0.37087(12)
C15 C 0.8510(3) 0.44437(10) 0.28799(12)
C16 C 1.0668(3) 0.49519(11) 0.30155(14)
C17 C 1.0755(3) 0.57164(11) 0.22332(14)
C18 C 0.8734(3) 0.59430(11) 0.12797(14)
C19 C 0.6577(3) 0.54410(11) 0.11449(13)
C20 C 0.6453(3) 0.47066(11) 0.19598(13)
N1 N 1.1511(2) 0.06329(9) 0.22882(11)
O1 O 0.75616(17) 0.16607(8) 0.31949(9)
O2 O 0.95811(19) 0.01895(8) 0.20793(10)
O3 O 1.3141(2) 0.04892(8) 0.17625(10)
O4 O 1.42183(19) 0.02976(8) 0.46947(10)
O5 O 0.65131(18) 0.35331(8) 0.41250(9)
H1 H 0.724(4) 0.115(2) 0.282(2)
H2 H 1.336(3) 0.1716(14) 0.3248(14)
H3 H 1.075(3) 0.0636(12) 0.4629(14)
H4 H 1.393(4) -0.016(2) 0.515(2)
H5 H 1.300(3) 0.1447(14) 0.6378(18)
H6 H 1.438(3) 0.2000(14) 0.5487(16)
H7 H 0.930(3) 0.2186(14) 0.5434(16)
H8 H 1.185(3) 0.3170(14) 0.3873(15)
H9 H 1.181(4) 0.3028(18) 0.714(2)
H10 H 1.310(4) 0.3578(18) 0.6181(19)
H11 H 1.032(4) 0.3776(18) 0.6174(19)
H12 H 1.262(3) 0.3065(13) 0.1828(16)
H13 H 1.196(4) 0.3762(16) -0.0149(18)
H14 H 0.806(3) 0.3516(13) -0.1618(15)
H15 H 0.500(4) 0.2591(15) -0.1062(19)
H16 H 0.575(3) 0.1982(14) 0.1018(16)
H17 H 1.204(4) 0.4777(16) 0.3640(18)
H18 H 1.227(4) 0.6104(17) 0.2378(18)
H19 H 0.891(4) 0.648(2) 0.074(2)
H20 H 0.515(3) 0.5577(15) 0.0459(17)
H21 H 0.497(4) 0.4368(15) 0.1910(16)
#END
