
#######################################################################
#
#                 Cambridge Crystallographic Data Centre
#                                CCDC
#
#######################################################################
#
# If this CIF has been generated from an entry in the Cambridge
# Structural Database, then it will include bibliographic, chemical,
# crystal, experimental, refinement or atomic coordinate data resulting
# from the CCDC's data processing and validation procedures.
#
#######################################################################

data_CSD_CIF_GUFLUO
_audit_creation_date 2000-03-09
_audit_creation_method CSD-ConQuest-V1
_database_code_CSD GUFLUO
_database_code_depnum_ccdc_archive 'CCDC 138565'
_chemical_formula_sum 'C10 H8 N4 O3'
_chemical_formula_moiety
;
C10 H8 N4 O3
;
_journal_coeditor_code "IUCr NA0097"
_journal_coden_Cambridge 622
_journal_volume 55
_journal_year 1999
_journal_page_first 994
_journal_name_full 'Acta Crystallogr.,Sect.B:Struct.Sci. '
loop_
_publ_author_name
"V.Bertolasi"
"P.Gilli"
"V.Ferretti"
"G.Gilli"
"K.Vaughan"
"J.V.Jollimore"
_chemical_name_systematic
;
E-2-(2-Nitrophenylhydrazono)-3-oxobutanenitrile
;
_cell_volume   1068.530
_exptl_crystal_colour 'orange'
_exptl_crystal_density_diffrn 1.443
_exptl_crystal_description 'prism'
_exptl_crystal_preparation 'ethyl acetate'
_diffrn_ambient_temperature ?
_diffrn_special_details
;
The study was carried out at room temperature,in the range 283-303K

;
#These two values have been output from a single CSD field.
_refine_ls_R_factor_gt 0.0401
_refine_ls_wR_factor_gt 0.0401
_symmetry_cell_setting monoclinic
_symmetry_space_group_name_H-M 'P 21/n'
_symmetry_Int_Tables_number 14
loop_
_symmetry_equiv_pos_site_id
_symmetry_equiv_pos_as_xyz
1 x,y,z
2 1/2-x,1/2+y,1/2-z
3 -x,-y,-z
4 -1/2+x,-1/2-y,-1/2+z
_cell_length_a 7.184(1)
_cell_length_b 19.491(2)
_cell_length_c 8.084(1)
_cell_angle_alpha 90
_cell_angle_beta 109.27(1)
_cell_angle_gamma 90
_cell_formula_units_Z 4
loop_
_atom_type_symbol
_atom_type_radius_bond
C 0.68
H 0.23
N 0.68
O 0.68
loop_
_atom_site_label
_atom_site_type_symbol
_atom_site_fract_x
_atom_site_fract_y
_atom_site_fract_z
O1 O -0.01208(19) 0.29010(5) -0.29443(15)
O2 O 0.2797(2) -0.02195(6) 0.48349(14)
O3 O 0.2401(2) 0.07871(6) 0.37349(14)
N1 N 0.17042(16) 0.09605(5) 0.03822(14)
N2 N 0.12301(15) 0.12882(5) -0.11270(13)
N3 N 0.0215(3) 0.25581(7) 0.1420(2)
N4 N 0.26505(18) 0.01702(6) 0.36236(14)
C1 C 0.0209(2) 0.22906(7) -0.29076(18)
C2 C 0.06635(19) 0.19232(6) -0.12169(16)
C3 C 0.0150(4) 0.18849(10) -0.4473(2)
C4 C 0.0427(2) 0.22907(7) 0.02465(19)
C5 C 0.23043(17) 0.02783(6) 0.04526(15)
C6 C 0.28031(18) -0.01077(6) 0.20023(15)
C7 C 0.3447(2) -0.07831(7) 0.20570(18)
C8 C 0.3568(2) -0.10876(7) 0.05646(19)
C9 C 0.3024(2) -0.07186(7) -0.09862(18)
C10 C 0.24042(19) -0.00492(6) -0.10542(16)
H1 H 0.182(2) 0.1171(8) 0.135(2)
H2 H -0.026(4) 0.2161(14) -0.546(3)
H3 H -0.064(4) 0.1475(15) -0.460(3)
H4 H 0.134(5) 0.1682(15) -0.434(3)
H5 H 0.378(2) -0.1019(8) 0.313(2)
H6 H 0.402(2) -0.1554(8) 0.059(2)
H7 H 0.305(2) -0.0934(8) -0.201(2)
H8 H 0.204(2) 0.0200(8) -0.209(2)
#END
