
#######################################################################
#
#                 Cambridge Crystallographic Data Centre
#                                CCDC
#
#######################################################################
#
# If this CIF has been generated from an entry in the Cambridge
# Structural Database, then it will include bibliographic, chemical,
# crystal, experimental, refinement or atomic coordinate data resulting
# from the CCDC's data processing and validation procedures.
#
#######################################################################

data_CSD_CIF_HABXUD
_audit_creation_date 1993-09-15
_audit_creation_method CSD-ConQuest-V1
_database_code_CSD HABXUD
_chemical_formula_sum 'C10 H15 N3 O7'
_chemical_formula_moiety
;
C10 H15 N3 O7
;
_journal_coden_Cambridge 1078
_journal_year 1993
_journal_name_full 'CSD Communication(Private Communication) '
loop_
_publ_author_name
"M.Hesse"
"A.Zurcher"
"J.H.Bieri"
"R.Prewo"
"A.Linden"
_chemical_name_systematic
;
Perhydro-1,3,4a-trinitronaphth-8a-ol
;
_cell_volume   1213.355
_exptl_crystal_colour 'colorless'
_exptl_crystal_density_diffrn 1.58
_exptl_special_details
;
contribution from Organisch-Chemisches Institut, Universitat Zurich, 
Winterthurerstrasse 190, CH-8057 Zurich, Switzerland
;
_diffrn_ambient_temperature 133.15
#These two values have been output from a single CSD field.
_refine_ls_R_factor_gt 0.058
_refine_ls_wR_factor_gt 0.058
_symmetry_cell_setting monoclinic
_symmetry_space_group_name_H-M 'P 21/c'
_symmetry_Int_Tables_number 14
loop_
_symmetry_equiv_pos_site_id
_symmetry_equiv_pos_as_xyz
1 x,y,z
2 -x,1/2+y,1/2-z
3 -x,-y,-z
4 x,-1/2-y,-1/2+z
_cell_length_a 7.106(1)
_cell_length_b 12.802(1)
_cell_length_c 14.639(2)
_cell_angle_alpha 90
_cell_angle_beta 114.34(1)
_cell_angle_gamma 90
_cell_formula_units_Z 4
loop_
_atom_type_symbol
_atom_type_radius_bond
C 0.68
H 0.23
N 0.68
O 0.68
loop_
_atom_site_label
_atom_site_type_symbol
_atom_site_fract_x
_atom_site_fract_y
_atom_site_fract_z
C1 C 0.5067(1) 0.58702(7) 0.23789(6)
O1 O 0.3878(1) 0.67544(6) 0.23949(5)
C2 C 0.5783(1) 0.54043(7) 0.34569(6)
N1 N 0.3900(1) 0.50927(7) 0.36294(6)
O2 O 0.3249(1) 0.56977(7) 0.40839(6)
O3 O 0.3127(1) 0.42377(6) 0.33123(6)
C3 C 0.7056(1) 0.61667(8) 0.42791(7)
C4 C 0.8994(1) 0.64366(7) 0.41228(6)
N2 N 1.0282(1) 0.71695(7) 0.49557(6)
O4 O 1.1277(1) 0.67714(7) 0.57829(5)
O5 O 1.0251(1) 0.81052(6) 0.47873(6)
C5 C 0.8470(1) 0.69321(8) 0.31058(7)
C6 C 0.7114(1) 0.61769(7) 0.22788(6)
N3 N 0.6618(1) 0.68039(7) 0.12982(6)
O6 O 0.4851(1) 0.70783(7) 0.07768(6)
O7 O 0.8088(1) 0.70047(8) 0.11013(6)
C7 C 0.8310(2) 0.52084(8) 0.21942(7)
C8 C 0.6979(2) 0.44829(9) 0.13422(8)
C9 C 0.5025(2) 0.41524(8) 0.14599(8)
C10 C 0.3792(2) 0.50944(8) 0.15517(7)
H1 H 0.328(3) 0.698(1) 0.181(1)
H2 H 0.647(2) 0.475(1) 0.351(1)
H3 H 0.628(2) 0.680(1) 0.424(1)
H4 H 0.744(2) 0.585(1) 0.495(1)
H5 H 0.990(2) 0.587(1) 0.424(1)
H6 H 0.972(2) 0.707(1) 0.303(1)
H7 H 0.777(2) 0.756(1) 0.306(1)
H8 H 0.882(2) 0.483(1) 0.283(1)
H9 H 0.954(2) 0.547(1) 0.212(1)
H10 H 0.666(2) 0.484(1) 0.070(1)
H11 H 0.778(3) 0.385(1) 0.131(1)
H12 H 0.414(2) 0.371(1) 0.090(1)
H13 H 0.548(2) 0.370(1) 0.204(1)
H14 H 0.255(2) 0.487(1) 0.165(1)
H15 H 0.327(2) 0.549(1) 0.094(1)
#END
