
#######################################################################
#
#                 Cambridge Crystallographic Data Centre
#                                CCDC
#
#######################################################################
#
# If this CIF has been generated from an entry in the Cambridge
# Structural Database, then it will include bibliographic, chemical,
# crystal, experimental, refinement or atomic coordinate data resulting
# from the CCDC's data processing and validation procedures.
#
#######################################################################

data_CSD_CIF_HACQAF
_audit_creation_date 2012-01-25
_audit_creation_method CSD-ConQuest-V1
_database_code_CSD HACQAF
_database_code_depnum_ccdc_archive 'CCDC 828090'
_chemical_formula_sum 'C14 H13 N3 O2'
_chemical_formula_moiety
;
C14 H13 N3 O2
;
_journal_coden_Cambridge 1336
_journal_volume 13
_journal_year 2011
_journal_page_first 5160
_journal_name_full 'Org.Lett. '
loop_
_publ_author_name
"Weiwen Zhao"
"Ruiyao Wang"
"N.J.Mosey"
"A.Petitjean"
_chemical_name_systematic
;
N-(((Benzyloxy)imino)methyl)pyridine-2-carboxamide
;
_cell_volume   1278.350
_exptl_crystal_colour 'colorless'
_exptl_crystal_density_diffrn 1.326
_exptl_crystal_description 'plate'
_diffrn_ambient_temperature 180
#These two values have been output from a single CSD field.
_refine_ls_R_factor_gt 0.0441
_refine_ls_wR_factor_gt 0.0441
_symmetry_cell_setting monoclinic
_symmetry_space_group_name_H-M 'P 21/c'
_symmetry_Int_Tables_number 14
loop_
_symmetry_equiv_pos_site_id
_symmetry_equiv_pos_as_xyz
1 x,y,z
2 -x,1/2+y,1/2-z
3 -x,-y,-z
4 x,-1/2-y,-1/2+z
_cell_length_a 11.7004(12)
_cell_length_b 15.9776(13)
_cell_length_c 7.1602(6)
_cell_angle_alpha 90
_cell_angle_beta 107.250(5)
_cell_angle_gamma 90
_cell_formula_units_Z 4
loop_
_atom_type_symbol
_atom_type_radius_bond
C 0.68
H 0.23
N 0.68
O 0.68
loop_
_atom_site_label
_atom_site_type_symbol
_atom_site_fract_x
_atom_site_fract_y
_atom_site_fract_z
N1 N 0.22365(13) 0.26662(9) -0.0395(2)
N2 N 0.37404(14) 0.14838(9) 0.1424(2)
H1 H 0.30710 0.14100 0.04720
O1 O 0.49913(11) 0.24464(8) 0.33203(19)
C1 C 0.14663(17) 0.32482(12) -0.1339(3)
H2 H 0.07680 0.30720 -0.23240
C2 C 0.16289(18) 0.40946(12) -0.0961(3)
H3 H 0.10510 0.44870 -0.16660
C3 C 0.26340(18) 0.43605(12) 0.0443(3)
H4 H 0.27640 0.49400 0.07280
C4 C 0.34591(17) 0.37723(11) 0.1441(3)
H5 H 0.41690 0.39370 0.24160
C5 C 0.32163(15) 0.29370(11) 0.0973(2)
C6 C 0.40773(16) 0.22807(11) 0.2021(3)
C7 C 0.43953(17) 0.07905(12) 0.2236(3)
H6 H 0.51170 0.08840 0.32550
N3 N 0.41195(16) 0.00332(10) 0.1742(3)
O2 O 0.30452(14) 0.00115(8) 0.0183(2)
C8 C 0.2657(2) -0.08510(13) -0.0134(3)
H7 H 0.33550 -0.12110 -0.00760
H8 H 0.20800 -0.09070 -0.14550
C9 C 0.20714(12) -0.11482(8) 0.13786(18)
C10 C 0.27697(11) -0.15219(8) 0.30688(18)
H9 H 0.36020 -0.15980 0.32650
C11 C 0.22593(12) -0.17846(8) 0.44744(19)
H10 H 0.27400 -0.20420 0.56390
C12 C 0.10505(13) -0.16737(9) 0.4190(2)
H11 H 0.06990 -0.18550 0.51580
C13 C 0.03522(12) -0.13000(9) 0.2499(3)
H12 H -0.04800 -0.12240 0.23030
C14 C 0.08626(13) -0.10373(9) 0.1094(2)
H13 H 0.03820 -0.07800 -0.00700
#END
