
#######################################################################
#
#                 Cambridge Crystallographic Data Centre
#                                CCDC
#
#######################################################################
#
# If this CIF has been generated from an entry in the Cambridge
# Structural Database, then it will include bibliographic, chemical,
# crystal, experimental, refinement or atomic coordinate data resulting
# from the CCDC's data processing and validation procedures.
#
#######################################################################

data_CSD_CIF_HACXIT
_audit_creation_date 2003-08-21
_audit_creation_method CSD-ConQuest-V1
_database_code_CSD HACXIT
_database_code_depnum_ccdc_archive 'CCDC 169346'
_chemical_formula_sum 'C15 H21 N1 O5'
_chemical_formula_moiety
;
C15 H21 N1 O5
;
_journal_coden_Cambridge 24
_journal_volume 42
_journal_year 2001
_journal_page_first 8535
_journal_name_full 'Tetrahedron Lett. '
loop_
_publ_author_name
"D.Craig"
"M.Y.Lopez"
_chemical_name_systematic
;
2-Methyl-4a,5,7a,8,9,10,11,11a,12,14-decahydro-2H-(1,2)oxazino(2,3-d)(2,7,4)be
nzodioxazecine-7,14-dione
;
_cell_volume   2969.123
_exptl_crystal_colour 'colorless'
_exptl_crystal_density_diffrn 1.321
_exptl_crystal_description 'needles'
_diffrn_ambient_temperature 293
#These two values have been output from a single CSD field.
_refine_ls_R_factor_gt 0.0562
_refine_ls_wR_factor_gt 0.0562
_symmetry_cell_setting monoclinic
_symmetry_space_group_name_H-M 'C 2/c'
_symmetry_Int_Tables_number 15
loop_
_symmetry_equiv_pos_site_id
_symmetry_equiv_pos_as_xyz
1 x,y,z
2 1/2+x,1/2+y,z
3 x,-y,1/2+z
4 1/2+x,1/2-y,1/2+z
5 -x,-y,-z
6 -1/2-x,-1/2-y,-z
7 -x,y,-1/2-z
8 -1/2-x,-1/2+y,-1/2-z
_cell_length_a 21.468(2)
_cell_length_b 5.7876(7)
_cell_length_c 23.897(3)
_cell_angle_alpha 90
_cell_angle_beta 90.284(10)
_cell_angle_gamma 90
_cell_formula_units_Z 8
loop_
_atom_type_symbol
_atom_type_radius_bond
C 0.68
H 0.23
N 0.68
O 0.68
loop_
_atom_site_label
_atom_site_type_symbol
_atom_site_fract_x
_atom_site_fract_y
_atom_site_fract_z
O1 O 0.41479(10) -0.4651(4) 0.28103(8)
C1 C 0.4039(2) -0.4794(6) 0.22106(12)
H1 H 0.4315(2) -0.3711(6) 0.20171(12)
C2 C 0.3379(2) -0.4195(6) 0.20864(12)
H2 H 0.3215(2) -0.4566(6) 0.17368(12)
C3 C 0.3021(2) -0.3168(6) 0.24495(12)
H3 H 0.2603(2) -0.2942(6) 0.23626(12)
C4 C 0.32686(13) -0.2334(5) 0.30082(11)
H4 H 0.31431(13) -0.0720(5) 0.30597(11)
C5 C 0.30056(14) -0.3764(6) 0.34890(12)
H5 H 0.25596(14) -0.3519(6) 0.35137(12)
H6 H 0.30780(14) -0.5392(6) 0.34185(12)
O2 O 0.32986(10) -0.3108(3) 0.40091(8)
C6 C 0.31386(13) -0.1066(5) 0.42285(12)
O3 O 0.26954(11) 0.0019(5) 0.40643(10)
C7 C 0.35786(13) -0.0335(5) 0.46930(11)
H7 H 0.38922(13) -0.1545(5) 0.47488(11)
C8 C 0.3205(2) -0.0055(6) 0.52297(13)
H8 H 0.2855(2) 0.0966(6) 0.51594(13)
H9 H 0.3041(2) -0.1546(6) 0.53414(13)
C9 C 0.3601(2) 0.0931(7) 0.57040(13)
H10 H 0.3342(2) 0.1145(7) 0.60320(13)
H11 H 0.3927(2) -0.0162(7) 0.57995(13)
C10 C 0.3893(2) 0.3220(7) 0.55450(15)
H12 H 0.4157(2) 0.3760(7) 0.58480(15)
H13 H 0.3569(2) 0.4361(7) 0.54831(15)
C11 C 0.4277(2) 0.2944(6) 0.50157(13)
H14 H 0.4630(2) 0.1950(6) 0.50962(13)
H15 H 0.4438(2) 0.4444(6) 0.49073(13)
C12 C 0.39086(14) 0.1925(5) 0.45241(12)
H16 H 0.35887(14) 0.3046(5) 0.44137(12)
C13 C 0.43522(14) 0.1635(5) 0.40390(12)
H17 H 0.45014(14) 0.3141(5) 0.39220(12)
H18 H 0.47090(14) 0.0731(5) 0.41594(12)
O4 O 0.40526(9) 0.0497(3) 0.35698(8)
C14 C 0.43207(13) -0.1466(5) 0.33811(11)
O5 O 0.48203(11) -0.2191(5) 0.35295(11)
N1 N 0.39424(11) -0.2436(4) 0.29824(9)
C15 C 0.4208(2) -0.7246(8) 0.2051(2)
H19 H 0.4637(2) -0.7528(8) 0.2141(2)
H20 H 0.4143(2) -0.7458(8) 0.1656(2)
H21 H 0.3950(2) -0.8309(8) 0.2254(2)
#END
