
#######################################################################
#
#                 Cambridge Crystallographic Data Centre
#                                CCDC
#
#######################################################################
#
# If this CIF has been generated from an entry in the Cambridge
# Structural Database, then it will include bibliographic, chemical,
# crystal, experimental, refinement or atomic coordinate data resulting
# from the CCDC's data processing and validation procedures.
#
#######################################################################

data_CSD_CIF_HAHBEA
_audit_creation_date 2016-12-09
_audit_creation_method CSD-ConQuest-V1
_database_code_CSD HAHBEA
_database_code_depnum_ccdc_archive 'CCDC 913851'
_chemical_formula_sum 'C23 H22 N2 O3'
_chemical_formula_moiety
;
C23 H22 N2 O3
;
_journal_coden_Cambridge 1759
_journal_volume 18
_journal_year 2013
_journal_page_first 65
_journal_name_full 'Univ.Sci. '
loop_
_publ_author_name
"A.R.R.Bohorquez"
"T.Gonzalez"
"V.V.Kouznetsov"
_chemical_name_systematic
;
4-(4-methoxyphenyl)-3-methyl-5-nitro-2-phenyl-1,2,3,4-tetrahydroquinoline
;
_cell_volume   1951.153
_exptl_crystal_colour 'yellow'
_exptl_crystal_density_diffrn 1.275
_exptl_crystal_description 'Prism'
_diffrn_ambient_temperature 295
#These two values have been output from a single CSD field.
_refine_ls_R_factor_gt 0.0668
_refine_ls_wR_factor_gt 0.0668
_symmetry_cell_setting monoclinic
_symmetry_space_group_name_H-M 'P 21/c'
_symmetry_Int_Tables_number 14
loop_
_symmetry_equiv_pos_site_id
_symmetry_equiv_pos_as_xyz
1 x,y,z
2 -x,1/2+y,1/2-z
3 -x,-y,-z
4 x,-1/2-y,-1/2+z
_cell_length_a 7.2170(12)
_cell_length_b 14.026(2)
_cell_length_c 19.484(3)
_cell_angle_alpha 90
_cell_angle_beta 98.394(4)
_cell_angle_gamma 90
_cell_formula_units_Z 4
loop_
_atom_type_symbol
_atom_type_radius_bond
C 0.68
H 0.23
N 0.68
O 0.68
loop_
_atom_site_label
_atom_site_type_symbol
_atom_site_fract_x
_atom_site_fract_y
_atom_site_fract_z
O1 O 0.2015(3) -0.00664(13) 0.45394(10)
O2 O 0.7821(3) 0.27791(14) 0.41522(12)
O3 O 0.7404(3) 0.16613(14) 0.33893(11)
N1 N 0.2913(3) 0.51040(15) 0.28201(11)
H1 H 0.28270 0.55730 0.25410
N2 N 0.7246(3) 0.24915(17) 0.35715(13)
C1 C 0.2621(4) 0.52974(18) 0.35291(14)
H2 H 0.37500 0.56040 0.37730
C2 C 0.2354(4) 0.43464(18) 0.38824(14)
H3 H 0.12900 0.40200 0.36100
C3 C 0.4096(4) 0.37032(17) 0.38898(13)
H4 H 0.50450 0.39320 0.42650
C4 C 0.6359(4) 0.31757(17) 0.30524(13)
C5 C 0.7088(4) 0.31928(19) 0.24408(15)
H5 H 0.80170 0.27660 0.23580
C6 C 0.6393(4) 0.38692(19) 0.19494(14)
H6 H 0.68560 0.39010 0.15290
C7 C 0.5028(4) 0.44878(19) 0.20836(14)
H7 H 0.45820 0.49420 0.17520
C8 C 0.4939(4) 0.37773(17) 0.32171(13)
C9 C 0.4286(4) 0.44543(17) 0.27077(14)
C10 C 0.0989(4) 0.59744(17) 0.35289(14)
C11 C 0.1179(4) 0.6809(2) 0.39043(16)
H8 H 0.23340 0.69620 0.41580
C12 C -0.0316(5) 0.7424(2) 0.39103(18)
H9 H -0.01570 0.79900 0.41610
C13 C -0.2031(5) 0.7200(2) 0.35469(17)
H10 H -0.30410 0.76100 0.35510
C14 C -0.2246(4) 0.6370(2) 0.31785(16)
H11 H -0.34080 0.62140 0.29320
C15 C -0.0743(4) 0.57617(19) 0.31707(15)
H12 H -0.09080 0.51980 0.29180
C16 C 0.1889(6) 0.4489(2) 0.46121(17)
H13 H 0.07910 0.48800 0.45940
H14 H 0.29220 0.47960 0.48930
H15 H 0.16610 0.38810 0.48100
C17 C 0.3595(4) 0.26918(17) 0.40734(13)
C18 C 0.4006(4) 0.23484(19) 0.47403(14)
H16 H 0.46560 0.27370 0.50800
C19 C 0.3482(4) 0.14387(19) 0.49233(14)
H17 H 0.37760 0.12280 0.53790
C20 C 0.2524(4) 0.08514(18) 0.44254(14)
C21 C 0.2063(4) 0.11929(18) 0.37569(14)
H18 H 0.13950 0.08080 0.34190
C22 C 0.2584(4) 0.20970(18) 0.35859(14)
H19 H 0.22520 0.23140 0.31340
C23 C 0.2246(4) -0.0401(2) 0.52414(15)
H20 H 0.18470 -0.10530 0.52490
H21 H 0.15060 -0.00170 0.55060
H22 H 0.35420 -0.03560 0.54390
#END
