
#######################################################################
#
#                 Cambridge Crystallographic Data Centre
#                                CCDC
#
#######################################################################
#
# If this CIF has been generated from an entry in the Cambridge
# Structural Database, then it will include bibliographic, chemical,
# crystal, experimental, refinement or atomic coordinate data resulting
# from the CCDC's data processing and validation procedures.
#
#######################################################################

data_CSD_CIF_HAWSOO
_audit_creation_date 2006-01-24
_audit_creation_method CSD-ConQuest-V1
_database_code_CSD HAWSOO
_database_code_depnum_ccdc_archive 'CCDC 258942'
_chemical_formula_sum 'C8 H8 N2 O4'
_chemical_formula_moiety
;
C8 H8 N2 O4
;
_journal_coden_Cambridge 1268
_journal_volume 10
_journal_year 2005
_journal_page_first 978
_journal_name_full 'Molecules '
loop_
_publ_author_name
"Yan-Hong Liu"
"Tong-Lai Zhang"
"Jian-Guo Zhang"
"Jin-Yu Guo"
"Kai-Bei Yu"
_chemical_name_systematic
;
2,3-Dinitro-p-xylene
;
_cell_volume    916.953
_exptl_crystal_colour 'colorless'
_exptl_crystal_density_diffrn 1.421
_exptl_crystal_description 'Block'
_diffrn_ambient_temperature 293
#These two values have been output from a single CSD field.
_refine_ls_R_factor_gt 0.0556
_refine_ls_wR_factor_gt 0.0556
_symmetry_cell_setting monoclinic
_symmetry_space_group_name_H-M 'P 21/n'
_symmetry_Int_Tables_number 14
loop_
_symmetry_equiv_pos_site_id
_symmetry_equiv_pos_as_xyz
1 x,y,z
2 1/2-x,1/2+y,1/2-z
3 -x,-y,-z
4 -1/2+x,-1/2-y,-1/2+z
_cell_length_a 7.5941(15)
_cell_length_b 11.825(2)
_cell_length_c 10.331(2)
_cell_angle_alpha 90
_cell_angle_beta 98.74(3)
_cell_angle_gamma 90
_cell_formula_units_Z 4
loop_
_atom_type_symbol
_atom_type_radius_bond
C 0.68
H 0.23
N 0.68
O 0.68
loop_
_atom_site_label
_atom_site_type_symbol
_atom_site_fract_x
_atom_site_fract_y
_atom_site_fract_z
O1 O 0.1385(3) 0.01172(19) 0.62627(18)
O2 O 0.3253(2) -0.01099(15) 0.80371(18)
O3 O 0.3450(2) 0.23527(15) 0.78901(18)
O4 O 0.3984(2) 0.2201(2) 0.99902(19)
N1 N 0.1838(2) 0.02226(15) 0.74334(18)
N2 N 0.3008(2) 0.21201(15) 0.8945(2)
C1 C -0.1133(2) 0.03540(15) 0.81438(17)
C2 C 0.0577(2) 0.07798(15) 0.81901(17)
C3 C 0.1174(2) 0.17105(15) 0.89547(17)
C4 C 0.0073(2) 0.22945(15) 0.96836(17)
C5 C -0.1646(2) 0.18624(17) 0.96359(18)
H1 H -0.24330 0.22230 1.01070
C6 C -0.2211(2) 0.09163(17) 0.89100(19)
H2 H -0.33550 0.06440 0.89330
C7 C -0.1819(3) -0.06688(18) 0.7344(2)
H3 H -0.20000 -0.04760 0.64310
H4 H -0.29270 -0.09090 0.75940
H5 H -0.09640 -0.12710 0.75000
C8 C 0.0653(3) 0.33570(17) 1.0433(2)
H6 H 0.14610 0.31660 1.12090
H7 H -0.03710 0.37320 1.06720
H8 H 0.12380 0.38500 0.98940
#END
