
#######################################################################
#
#                 Cambridge Crystallographic Data Centre
#                                CCDC
#
#######################################################################
#
# If this CIF has been generated from an entry in the Cambridge
# Structural Database, then it will include bibliographic, chemical,
# crystal, experimental, refinement or atomic coordinate data resulting
# from the CCDC's data processing and validation procedures.
#
#######################################################################

data_CSD_CIF_HAXJOH
_audit_creation_date 2012-07-11
_audit_creation_method CSD-ConQuest-V1
_database_code_CSD HAXJOH
_database_code_depnum_ccdc_archive 'CCDC 879424'
_chemical_formula_sum 'C28 H20 N4 O7'
_chemical_formula_moiety
;
C28 H20 N4 O7
;
_journal_coeditor_code "IUCr SO5056"
_journal_coden_Cambridge 622
_journal_volume 68
_journal_year 2012
_journal_page_first 171
_journal_name_full 'Acta Crystallogr.,Sect.B:Struct.Sci. '
loop_
_publ_author_name
"T.E.Gorelik"
"J.van de Streek"
"A.F.M.Kilbinger"
"G.Brunklaus"
"U.Kolb"
_chemical_name_systematic
;
4-((4-((4-((4-Nitrobenzoyl)amino)benzoyl)amino)-benzoyl)amino)benzoic acid
;
_cell_volume   4551.857
_exptl_special_details
;
No temperature of study or Rfactor are reported

;
_diffrn_ambient_temperature ?
_diffrn_special_details
;
The study was carried out at room temperature,in the range 283-303K

;
_symmetry_cell_setting monoclinic
_symmetry_space_group_name_H-M 'C 2/c'
_symmetry_Int_Tables_number 15
loop_
_symmetry_equiv_pos_site_id
_symmetry_equiv_pos_as_xyz
1 x,y,z
2 -x,y,1/2-z
3 1/2+x,1/2+y,z
4 1/2-x,1/2+y,1/2-z
5 -x,-y,-z
6 x,-y,-1/2+z
7 -1/2-x,-1/2-y,-z
8 -1/2+x,-1/2-y,-1/2+z
_cell_length_a 51.0843
_cell_length_b 5.1938
_cell_length_c 17.4771
_cell_angle_alpha 90
_cell_angle_beta 101.0
_cell_angle_gamma 90
_cell_formula_units_Z 8
loop_
_atom_type_symbol
_atom_type_radius_bond
C 0.68
H 0.23
N 0.68
O 0.68
loop_
_atom_site_label
_atom_site_type_symbol
_atom_site_fract_x
_atom_site_fract_y
_atom_site_fract_z
C1 C 0.08490 0.58820 0.78180
C2 C 0.09300 0.76920 0.73200
C3 C 0.11820 0.75570 0.71430
C4 C 0.13560 0.55430 0.74420
C5 C 0.12760 0.37000 0.79340
C6 C 0.10250 0.39050 0.81290
C7 C 0.19990 0.38660 0.68070
C8 C 0.20730 0.19960 0.63160
C9 C 0.23090 0.22250 0.60480
C10 C 0.24800 0.43220 0.62780
C11 C 0.24060 0.62230 0.67620
C12 C 0.21660 0.59960 0.70180
C13 C 0.31180 0.59740 0.56020
C14 C 0.31960 0.78380 0.51140
C15 C 0.34350 0.76030 0.48630
C16 C 0.36050 0.55060 0.51080
C17 C 0.35270 0.36090 0.55860
C18 C 0.32840 0.38450 0.58260
C19 C 0.42660 0.40750 0.45570
C20 C 0.43680 0.24650 0.40430
C21 C 0.46070 0.30590 0.38200
C22 C 0.47410 0.52920 0.41220
C23 C 0.46490 0.68810 0.46520
C24 C 0.44100 0.62570 0.48710
C25 C 0.05740 0.61530 0.79620
C26 C 0.17480 0.33920 0.70930
C27 C 0.28660 0.64640 0.58790
C28 C 0.40020 0.34130 0.47520
N1 N 0.16100 0.55280 0.72420
N2 N 0.27260 0.43390 0.60310
N3 N 0.38560 0.55060 0.48950
N4 N 0.49890 0.59890 0.38770
O1 O 0.03880 0.70140 0.74690
O2 O 0.05480 0.54180 0.86810
O3 O 0.16680 0.11560 0.71680
O4 O 0.27870 0.87060 0.59490
O5 O 0.39230 0.11550 0.47580
O6 O 0.50830 0.81900 0.40740
O7 O 0.50950 0.44210 0.35110
H1 H 0.07880 0.92910 0.70573
H2 H 0.12496 0.90810 0.67533
H3 H 0.14158 0.20534 0.81706
H4 H 0.09630 0.24416 0.85469
H5 H 0.19381 0.02660 0.61340
H6 H 0.23663 0.07093 0.56378
H7 H 0.25424 0.79427 0.69434
H8 H 0.21024 0.75523 0.74048
H9 H 0.30618 0.95648 0.49212
H10 H 0.34955 0.91103 0.44556
H11 H 0.36624 0.18877 0.57754
H12 H 0.32173 0.22972 0.62098
H13 H 0.42544 0.06560 0.38059
H14 H 0.46893 0.17409 0.34009
H15 H 0.47693 0.86463 0.48953
H16 H 0.43304 0.75232 0.53079
H17 H 0.17159 0.73698 0.71937
H18 H 0.28257 0.24952 0.59409
H19 H 0.39350 0.74776 0.48459
H20 H 0.03473 0.55275 0.89274
#END
