
#######################################################################
#
#                 Cambridge Crystallographic Data Centre
#                                CCDC
#
#######################################################################
#
# If this CIF has been generated from an entry in the Cambridge
# Structural Database, then it will include bibliographic, chemical,
# crystal, experimental, refinement or atomic coordinate data resulting
# from the CCDC's data processing and validation procedures.
#
#######################################################################

data_CSD_CIF_HAZSUZ
_audit_creation_date 2017-09-19
_audit_creation_method CSD-ConQuest-V1
_database_code_CSD HAZSUZ
_database_code_depnum_ccdc_archive 'CCDC 1534955'
_chemical_formula_sum 'C18 H17 N3 O1'
_chemical_formula_moiety
;
C18 H17 N3 O1
;
_journal_coden_Cambridge 1366
_journal_volume 359
_journal_year 2017
_journal_page_first 2741
_journal_name_full 'Adv.Synth.Catal. '
loop_
_publ_author_name
"Wei-Min Shi"
"Feng-Ping Liu"
"Zhi-Xin Wang"
"Hong-Yan Bi"
"Cui Liang"
"Li-Ping Xu"
"Gui-Fa Su"
"Dong-Liang Mo"
_chemical_name_systematic
;
1-(1,2,3,6-tetrahydrobiphenyl-4-yl)-1H-1,2,3-benzotriazole 3-oxide
;
_cell_volume    760.782
_exptl_crystal_density_diffrn 1.272
_diffrn_ambient_temperature 293
#These two values have been output from a single CSD field.
_refine_ls_R_factor_gt 0.0854
_refine_ls_wR_factor_gt 0.0854
_symmetry_cell_setting triclinic
_symmetry_space_group_name_H-M 'P -1'
_symmetry_Int_Tables_number 2
loop_
_symmetry_equiv_pos_site_id
_symmetry_equiv_pos_as_xyz
1 x,y,z
2 -x,-y,-z
_cell_length_a 7.5023(10)
_cell_length_b 9.1755(10)
_cell_length_c 11.8659(13)
_cell_angle_alpha 91.967(9)
_cell_angle_beta 97.836(10)
_cell_angle_gamma 109.336(11)
_cell_formula_units_Z 2
loop_
_atom_type_symbol
_atom_type_radius_bond
C 0.68
H 0.23
N 0.68
O 0.68
loop_
_atom_site_label
_atom_site_type_symbol
_atom_site_fract_x
_atom_site_fract_y
_atom_site_fract_z
N1 N 0.4426(6) 0.3439(5) 0.7660(4)
N2 N 0.1837(5) 0.2964(4) 0.8371(3)
O1 O 0.6203(5) 0.3718(4) 0.7588(3)
N3 N 0.3755(5) 0.3209(5) 0.8632(3)
C1 C 0.0691(6) 0.2615(5) 0.9264(4)
C2 C 0.2992(7) 0.3319(5) 0.6750(4)
C3 C 0.1338(7) 0.3037(5) 0.7222(4)
C4 C -0.1094(7) 0.1597(6) 0.9013(4)
H1 H -0.15310 0.10990 0.82820
C5 C -0.2864(8) 0.1799(7) 1.1887(4)
C6 C -0.0394(7) 0.2942(6) 0.6532(4)
H2 H -0.15200 0.27840 0.68310
C7 C -0.2387(7) 0.1253(7) 0.9892(4)
H3 H -0.35130 0.15150 0.96220
H4 H -0.28040 0.01480 0.99750
C8 C 0.1583(7) 0.3426(7) 1.0395(4)
H5 H 0.20800 0.45310 1.03200
H6 H 0.26540 0.31000 1.06790
C9 C 0.3064(8) 0.3478(6) 0.5596(5)
H7 H 0.41930 0.36600 0.52960
C10 C -0.3966(8) 0.2696(7) 1.2043(4)
H8 H -0.38510 0.35390 1.16100
C11 C -0.5400(8) 0.1182(8) 1.3459(5)
H9 H -0.62620 0.09710 1.39760
C12 C -0.3029(9) 0.0609(7) 1.2589(5)
H10 H -0.22460 0.00130 1.25480
C13 C -0.5218(8) 0.2414(7) 1.2801(5)
H11 H -0.59460 0.30480 1.28740
C14 C 0.0238(9) 0.3129(9) 1.1242(5)
H12 H 0.08790 0.28480 1.19230
H13 H 0.00950 0.41130 1.14450
C15 C -0.0308(8) 0.3099(7) 0.5394(5)
H14 H -0.14190 0.30350 0.49070
C16 C -0.4307(9) 0.0275(7) 1.3346(5)
H15 H -0.44280 -0.05670 1.37810
C17 C 0.1386(10) 0.3352(7) 0.4930(5)
H16 H 0.13590 0.34350 0.41500
C18 C -0.1517(9) 0.2085(8) 1.1020(5)
H17 H -0.10550 0.12480 1.12680
#END
