
#######################################################################
#
#                 Cambridge Crystallographic Data Centre
#                                CCDC
#
#######################################################################
#
# If this CIF has been generated from an entry in the Cambridge
# Structural Database, then it will include bibliographic, chemical,
# crystal, experimental, refinement or atomic coordinate data resulting
# from the CCDC's data processing and validation procedures.
#
#######################################################################

data_CSD_CIF_HECLAC
_audit_creation_date 1994-11-22
_audit_creation_method CSD-ConQuest-V1
_database_code_CSD HECLAC
_chemical_formula_sum 'C14 H14 N4 O2'
_chemical_formula_moiety
;
C14 H14 N4 O2
;
_journal_coeditor_code "IUCr OH1051"
_journal_coden_Cambridge 591
_journal_volume 50
_journal_year 1994
_journal_page_first 807
_journal_name_full 'Acta Crystallogr.,Sect.C:Cryst.Struct.Commun. '
loop_
_publ_author_name
"T.Hirota"
"K.Sasaki"
"H.Yamamoto"
"K.Mori"
"S.Kashino"
_chemical_name_systematic
;
(2-(3-Methyl(1,2,4)oxadiazol-5-yl)-3,4-dihydro-1-naphthyl)aminoformaldehyde 
oxime
;
_cell_volume   1329.421
_exptl_crystal_colour 'colorless'
_exptl_crystal_density_diffrn 1.35
_diffrn_ambient_temperature ?
_diffrn_special_details
;
The study was carried out at room temperature,in the range 283-303K

;
#These two values have been output from a single CSD field.
_refine_ls_R_factor_gt 0.031
_refine_ls_wR_factor_gt 0.031
_symmetry_cell_setting monoclinic
_symmetry_space_group_name_H-M 'P 21/a'
_symmetry_Int_Tables_number 14
loop_
_symmetry_equiv_pos_site_id
_symmetry_equiv_pos_as_xyz
1 x,y,z
2 1/2-x,1/2+y,-z
3 -x,-y,-z
4 -1/2+x,-1/2-y,z
_cell_length_a 8.246(6)
_cell_length_b 11.016(3)
_cell_length_c 14.740(4)
_cell_angle_alpha 90
_cell_angle_beta 96.84(4)
_cell_angle_gamma 90
_cell_formula_units_Z 4
loop_
_atom_type_symbol
_atom_type_radius_bond
C 0.68
H 0.23
N 0.68
O 0.68
loop_
_atom_site_label
_atom_site_type_symbol
_atom_site_fract_x
_atom_site_fract_y
_atom_site_fract_z
O1 O 0.1902(2) 0.2155(1) 0.56525(9)
O2 O -0.0575(2) 0.0312(1) 0.8924(1)
N1 N 0.2078(2) 0.0913(2) 0.5409(1)
N2 N 0.0881(2) 0.1051(1) 0.6697(1)
N3 N -0.0059(2) 0.2335(2) 0.8141(1)
N4 N -0.0010(2) 0.1262(1) 0.9528(1)
C1 C 0.0293(2) 0.3377(2) 0.7658(1)
C2 C 0.0897(2) 0.3301(2) 0.6842(1)
C3 C 0.1264(3) 0.4448(2) 0.6343(2)
C4 C 0.1800(3) 0.5458(2) 0.7008(2)
C5 C 0.0170(3) 0.6741(2) 0.7991(2)
C6 C -0.0967(3) 0.6863(2) 0.8601(2)
C7 C -0.1699(3) 0.5853(2) 0.8910(2)
C8 C -0.1291(3) 0.4710(2) 0.8618(1)
C9 C -0.0119(2) 0.4572(2) 0.8017(1)
C10 C 0.0601(2) 0.5609(2) 0.7689(1)
C11 C 0.1189(2) 0.2153(2) 0.6433(1)
C12 C 0.1471(3) 0.0332(2) 0.6054(1)
C13 C 0.0183(3) 0.2227(2) 0.9072(1)
C14 C 0.1441(5) -0.1018(2) 0.6098(2)
H1 H -0.050(3) -0.034(2) 0.930(1)
H2 H -0.008(2) 0.158(2) 0.784(1)
H3 H 0.032(2) 0.467(2) 0.593(1)
H4 H 0.216(2) 0.424(2) 0.596(1)
H5 H 0.284(2) 0.522(2) 0.731(1)
H6 H 0.191(2) 0.626(2) 0.667(1)
H7 H 0.064(2) 0.746(2) 0.774(1)
H8 H -0.124(2) 0.770(2) 0.880(1)
H9 H -0.255(2) 0.592(2) 0.931(1)
H10 H -0.185(2) 0.398(2) 0.881(1)
H11 H 0.054(2) 0.295(2) 0.942(1)
H12 H 0.186(3) -0.134(2) 0.559(2)
H13 H 0.031(4) -0.132(2) 0.617(2)
H14 H 0.208(3) -0.131(2) 0.663(2)
#END
