
#######################################################################
#
#                 Cambridge Crystallographic Data Centre
#                                CCDC
#
#######################################################################
#
# If this CIF has been generated from an entry in the Cambridge
# Structural Database, then it will include bibliographic, chemical,
# crystal, experimental, refinement or atomic coordinate data resulting
# from the CCDC's data processing and validation procedures.
#
#######################################################################

data_CSD_CIF_HECLIM
_audit_creation_date 2013-02-01
_audit_creation_method CSD-ConQuest-V1
_database_code_CSD HECLIM
_database_code_depnum_ccdc_archive 'CCDC 904487'
_chemical_formula_sum 'C10 H19 N3 O1'
_chemical_formula_moiety
;
C10 H19 N3 O1
;
_journal_coden_Cambridge 9
_journal_volume 51
_journal_year 2012
_journal_page_first 9385
_journal_name_full 'Inorg.Chem. '
loop_
_publ_author_name
"E.V.Tretyakov"
"S.E.Tolstikov"
"A.O.Suvorova"
"A.V.Polushkin"
"G.V.Romanenko"
"A.S.Bogomyakov"
"S.L.Veber"
"M.V.Fedin"
"D.V.Stass"
"E.Reijerse"
"W.Lubitz"
"E.M.Zueva"
"V.I.Ovcharenko"
_chemical_name_systematic
;
N-t-Butyl-N-hydroxy-1-propyl-1H-pyrazol-4-amine
;
_cell_volume   1160.657
_exptl_crystal_colour 'colorless'
_exptl_crystal_density_diffrn 1.129
_exptl_crystal_description 'bulk'
_diffrn_ambient_temperature 240
#These two values have been output from a single CSD field.
_refine_ls_R_factor_gt 0.0489
_refine_ls_wR_factor_gt 0.0489
_symmetry_cell_setting monoclinic
_symmetry_space_group_name_H-M 'P 21/n'
_symmetry_Int_Tables_number 14
loop_
_symmetry_equiv_pos_site_id
_symmetry_equiv_pos_as_xyz
1 x,y,z
2 1/2-x,1/2+y,1/2-z
3 -x,-y,-z
4 -1/2+x,-1/2-y,-1/2+z
_cell_length_a 9.6557(7)
_cell_length_b 10.1503(8)
_cell_length_c 12.5074(9)
_cell_angle_alpha 90
_cell_angle_beta 108.767(4)
_cell_angle_gamma 90
_cell_formula_units_Z 4
loop_
_atom_type_symbol
_atom_type_radius_bond
C 0.68
H 0.23
N 0.68
O 0.68
loop_
_atom_site_label
_atom_site_type_symbol
_atom_site_fract_x
_atom_site_fract_y
_atom_site_fract_z
O1 O 0.4804(1) 0.40446(10) 0.16895(8)
H1 H 0.531(2) 0.352(2) 0.2301(16)
N1 N 0.33055(12) 0.36048(12) 0.14491(9)
C1 C 0.24950(16) 0.46823(15) 0.18109(12)
N2 N 0.14835(14) 0.23626(13) -0.13809(10)
C2 C 0.27984(15) 0.33034(14) 0.02700(11)
C3 C 0.16374(17) 0.24766(16) -0.02926(12)
H2 H 0.1003(18) 0.2015(17) 0.0004(14)
N3 N 0.25764(14) 0.30844(14) -0.15187(10)
C4 C 0.33782(18) 0.36665(19) -0.05462(12)
H3 H 0.4154(19) 0.4269(18) -0.0556(14)
C5 C 0.2513(2) 0.59656(17) 0.11852(17)
H4 H 0.2066(18) 0.5898(16) 0.0368(15)
H5 H 0.3528(18) 0.6252(16) 0.1312(13)
H6 H 0.189(2) 0.662(2) 0.1426(16)
C6 C 0.0934(2) 0.4215(2) 0.16012(19)
H7 H 0.0943(19) 0.337(2) 0.2017(15)
H8 H 0.039(2) 0.485(2) 0.1905(16)
H9 H 0.0388(19) 0.4105(16) 0.0789(16)
C7 C 0.3228(2) 0.4882(2) 0.30712(14)
H10 H 0.426(2) 0.5260(17) 0.3204(15)
H11 H 0.264(2) 0.552(2) 0.3338(15)
H12 H 0.331(2) 0.403(2) 0.3463(16)
C8 C 0.2757(2) 0.3180(2) -0.26347(14)
H13 H 0.375(2) 0.346(2) -0.2584(16)
H14 H 0.2705(19) 0.2318(19) -0.3032(16)
C9 C 0.1662(3) 0.4053(2) -0.34203(17)
H15 H 0.181(2) 0.487(3) -0.305(2)
H16 H 0.062(2) 0.380(2) -0.3469(17)
C10 C 0.1875(4) 0.4073(3) -0.4579(2)
H17 H 0.173(3) 0.318(3) -0.490(2)
H18 H 0.305(4) 0.401(3) -0.448(2)
H19 H 0.125(3) 0.469(3) -0.507(3)
#END
