
#######################################################################
#
#                 Cambridge Crystallographic Data Centre
#                                CCDC
#
#######################################################################
#
# If this CIF has been generated from an entry in the Cambridge
# Structural Database, then it will include bibliographic, chemical,
# crystal, experimental, refinement or atomic coordinate data resulting
# from the CCDC's data processing and validation procedures.
#
#######################################################################

data_CSD_CIF_HEGLUA
_audit_creation_date 1994-11-22
_audit_creation_method CSD-ConQuest-V1
_database_code_CSD HEGLUA
_chemical_formula_sum 'C19 H23 N1 O4'
_chemical_formula_moiety
;
C19 H23 N1 O4
;
_journal_coden_Cambridge 154
_journal_volume 47
_journal_year 1994
_journal_page_first 649
_journal_name_full 'Aust.J.Chem. '
loop_
_publ_author_name
"D.J.Collins"
"G.D.Fallon"
"C.E.Skene"
_chemical_name_systematic
;
(E)-(1'SR,2RS)-6-Methoxy-2-((1'-methyl-2',5'-dioxocyclopentyl)methyl)-3,4-dihy
dronaphthalen-1(2H)-one
;
_chemical_melting_point 384.15
_cell_volume    854.750
_exptl_crystal_density_diffrn 1.28
_diffrn_ambient_temperature ?
_diffrn_special_details
;
The study was carried out at room temperature,in the range 283-303K

;
#These two values have been output from a single CSD field.
_refine_ls_R_factor_gt 0.039
_refine_ls_wR_factor_gt 0.039
loop_
_citation_database_id_CSD
_citation_special_details
HEGMAH "is a stereoisomer of this entry"
_symmetry_cell_setting triclinic
_symmetry_space_group_name_H-M 'P -1'
_symmetry_Int_Tables_number 2
loop_
_symmetry_equiv_pos_site_id
_symmetry_equiv_pos_as_xyz
1 x,y,z
2 -x,-y,-z
_cell_length_a 12.300(1)
_cell_length_b 10.104(1)
_cell_length_c 8.746(1)
_cell_angle_alpha 119.280(9)
_cell_angle_beta 105.671(6)
_cell_angle_gamma 99.363(8)
_cell_formula_units_Z 2
loop_
_atom_type_symbol
_atom_type_radius_bond
C 0.68
H 0.23
N 0.68
O 0.68
loop_
_atom_site_label
_atom_site_type_symbol
_atom_site_fract_x
_atom_site_fract_y
_atom_site_fract_z
C1 C 0.1183(2) 0.1741(2) 0.3027(2)
C2 C 0.1847(1) 0.1922(2) 0.4914(2)
C3 C 0.1216(1) 0.2783(2) 0.6148(2)
C4 C 0.0166(2) 0.3005(2) 0.5079(2)
C5 C 0.0051(2) 0.2127(2) 0.3007(2)
C6 C 0.1577(2) 0.0185(2) 0.4430(3)
C7 C 0.1223(2) 0.4163(4) 1.0594(3)
C8 C 0.3219(1) 0.2743(2) 0.5742(2)
C9 C 0.3325(1) 0.5454(2) 0.6137(2)
C10 C 0.3789(1) 0.4593(2) 0.7043(2)
C11 C 0.5163(1) 0.5120(2) 0.7816(2)
C12 C 0.5744(1) 0.6941(2) 0.9182(2)
C13 C 0.5291(1) 0.7783(2) 0.8256(2)
C14 C 0.6022(1) 0.9289(2) 0.8840(2)
C15 C 0.5612(2) 1.0069(2) 0.7994(2)
C16 C 0.4461(2) 0.9342(2) 0.6539(2)
C17 C 0.3733(1) 0.7868(2) 0.5969(2)
C18 C 0.4131(1) 0.7049(2) 0.6800(2)
C19 C 0.7478(2) 1.2288(3) 0.9892(3)
N1 N 0.1576(1) 0.3162(2) 0.7867(2)
O1 O 0.1483(1) 0.1236(2) 0.1708(2)
O2 O 0.0838(1) 0.3889(2) 0.8745(2)
O3 O 0.2298(1) 0.4861(2) 0.4925(2)
O4 O 0.6271(1) 1.1529(2) 0.8459(2)
H1 H -0.05610 0.25330 0.51360
H2 H 0.03110 0.41470 0.56160
H3 H -0.00260 0.28170 0.25420
H4 H -0.06460 0.11350 0.21910
H5 H 0.18950 0.02850 0.56390
H6 H 0.19800 -0.03690 0.36350
H7 H 0.07210 -0.04310 0.37750
H8 H 0.07250 0.46960 1.11840
H9 H 0.20600 0.48680 1.13550
H10 H 0.11250 0.31610 1.05270
H11 H 0.34410 0.23950 0.46590
H12 H 0.35800 0.23380 0.64770
H13 H 0.35420 0.49240 0.80990
H14 H 0.54020 0.47640 0.67490
H15 H 0.54320 0.46250 0.84870
H16 H 0.55600 0.72870 1.03000
H17 H 0.66080 0.72380 0.95740
H18 H 0.68250 0.97990 0.98480
H19 H 0.41780 0.98830 0.59360
H20 H 0.29270 0.73760 0.49730
H21 H 0.78040 1.32820 0.99930
H22 H 0.79480 1.16040 0.94900
H23 H 0.75080 1.25440 1.11290
#END
