
#######################################################################
#
#                 Cambridge Crystallographic Data Centre
#                                CCDC
#
#######################################################################
#
# If this CIF has been generated from an entry in the Cambridge
# Structural Database, then it will include bibliographic, chemical,
# crystal, experimental, refinement or atomic coordinate data resulting
# from the CCDC's data processing and validation procedures.
#
#######################################################################

data_CSD_CIF_HEGSET
_audit_creation_date 2012-11-16
_audit_creation_method CSD-ConQuest-V1
_database_code_CSD HEGSET
_database_code_depnum_ccdc_archive 'CCDC 778935'
_chemical_formula_sum 'C22 H22 N4 O9'
_chemical_formula_moiety
;
C22 H22 N4 O9
;
_journal_coden_Cambridge 206
_journal_volume 42
_journal_year 2012
_journal_page_first 3296
_journal_name_full 'Synth.Commun. '
loop_
_publ_author_name
"H.B.Saleh"
"M.Kammoun"
"B.Hamdi"
"M.Damak"
_chemical_name_systematic
;
3,3-Dimethyl-2-((2-(2-methyl-2-nitropropyl)-5-nitrobenzoyl)oxy)-7-nitro-3,4-di
hydroisoquinolin-1(2H)-one
;
_cell_volume   4718.856
_exptl_crystal_colour 'colorless'
_exptl_crystal_density_diffrn 1.369
_exptl_crystal_description 'prism'
_diffrn_ambient_temperature 296
#These two values have been output from a single CSD field.
_refine_ls_R_factor_gt 0.1129
_refine_ls_wR_factor_gt 0.1129
_symmetry_cell_setting monoclinic
_symmetry_space_group_name_H-M 'C 2/c'
_symmetry_Int_Tables_number 15
loop_
_symmetry_equiv_pos_site_id
_symmetry_equiv_pos_as_xyz
1 x,y,z
2 -x,y,1/2-z
3 1/2+x,1/2+y,z
4 1/2-x,1/2+y,1/2-z
5 -x,-y,-z
6 x,-y,-1/2+z
7 -1/2-x,-1/2-y,-z
8 -1/2+x,-1/2-y,-1/2+z
_cell_length_a 26.950(3)
_cell_length_b 7.8778(7)
_cell_length_c 24.092(3)
_cell_angle_alpha 90
_cell_angle_beta 112.695(3)
_cell_angle_gamma 90
_cell_formula_units_Z 8
loop_
_atom_type_symbol
_atom_type_radius_bond
C 0.68
H 0.23
N 0.68
O 0.68
loop_
_atom_site_label
_atom_site_type_symbol
_atom_site_fract_x
_atom_site_fract_y
_atom_site_fract_z
O1 O 0.5659(1) 0.4306(3) 0.09438(11)
N1 N 0.53439(12) 0.4085(4) 0.12922(14)
C1 C 0.47506(13) 0.5501(4) 0.16752(14)
C2 C 0.41513(16) 0.6908(5) 0.20345(16)
O2 O 0.54230(13) 0.6948(4) 0.14423(16)
C3 C 0.45653(15) 0.7007(5) 0.18388(15)
N2 N 0.39516(17) 0.8471(5) 0.22103(16)
C4 C 0.62923(15) 0.3254(5) 0.03591(16)
H1 H 0.59730 0.26650 0.02760
O3 O 0.66315(15) 0.1675(5) -0.08226(15)
C5 C 0.51967(15) 0.5615(5) 0.14529(16)
C6 C 0.64906(13) 0.4285(4) 0.08548(15)
C7 C 0.65646(15) 0.3092(5) -0.00138(16)
C8 C 0.69638(15) 0.5201(5) 0.09720(18)
C9 C 0.39093(15) 0.5385(5) 0.20616(17)
H2 H 0.36230 0.53500 0.21850
C10 C 0.62052(15) 0.4286(5) 0.12772(17)
C11 C 0.49775(14) 0.2622(4) 0.10848(18)
C12 C 0.45167(13) 0.3957(5) 0.17086(15)
C13 C 0.47458(15) 0.2356(5) 0.15601(17)
H3 H 0.44650 0.15040 0.14190
H4 H 0.50260 0.19260 0.19230
N3 N 0.63651(15) 0.1894(5) -0.05175(16)
O4 O 0.64004(12) 0.4257(5) 0.18114(13)
O5 O 0.59420(15) 0.1145(5) -0.06070(16)
C14 C 0.70638(17) 0.8242(6) 0.13957(18)
C15 C 0.72154(19) 0.5039(6) 0.0570(2)
H5 H 0.75270 0.56600 0.06360
O6 O 0.35215(15) 0.8411(5) 0.22734(19)
C16 C 0.40982(15) 0.3926(5) 0.19034(19)
H6 H 0.39410 0.28930 0.19280
O7 O 0.42291(16) 0.9743(4) 0.22806(17)
C17 C 0.70198(17) 0.3992(5) 0.0078(2)
H7 H 0.71940 0.39010 -0.01870
C18 C 0.53105(19) 0.1071(6) 0.1068(2)
H8 H 0.54600 0.12350 0.07690
H9 H 0.50850 0.00820 0.09700
H10 H 0.55960 0.09200 0.14540
C19 C 0.72120(16) 0.6394(6) 0.15026(18)
H11 H 0.71120 0.59990 0.18270
H12 H 0.76000 0.63030 0.16410
C20 C 0.45399(19) 0.2966(7) 0.0468(2)
H13 H 0.47010 0.31410 0.01810
H14 H 0.43420 0.39620 0.04880
H15 H 0.43000 0.20120 0.03480
C21 C 0.6460(2) 0.8538(7) 0.1136(3)
H16 H 0.63880 0.97310 0.10740
H17 H 0.63090 0.81160 0.14110
H18 H 0.63000 0.79520 0.07590
C22 C 0.7344(2) 0.9288(9) 0.1965(2)
H19 H 0.72420 1.04590 0.18840
H20 H 0.77270 0.91840 0.20890
H21 H 0.72390 0.88800 0.22790
N4 N 0.72884(19) 0.8898(6) 0.0940(2)
O8 O 0.6988(2) 0.9380(7) 0.0455(2)
O9 O 0.77745(18) 0.8797(8) 0.1085(2)
#END
