
#######################################################################
#
#                 Cambridge Crystallographic Data Centre
#                                CCDC
#
#######################################################################
#
# If this CIF has been generated from an entry in the Cambridge
# Structural Database, then it will include bibliographic, chemical,
# crystal, experimental, refinement or atomic coordinate data resulting
# from the CCDC's data processing and validation procedures.
#
#######################################################################

data_CSD_CIF_HEHROD
_audit_creation_date 2013-01-17
_audit_creation_method CSD-ConQuest-V1
_database_code_CSD HEHROD
_database_code_depnum_ccdc_archive 'CCDC 876725'
_chemical_formula_sum 'C20 H22 N8 O8'
_chemical_formula_moiety
;
C20 H22 N8 O8
;
_journal_coden_Cambridge 1291
_journal_year 2012
_journal_page_first 4733
_journal_name_full 'Eur.J.Org.Chem. '
loop_
_publ_author_name
"M.Kamuf"
"F.Rominger"
"O.Trapp"
_chemical_name_systematic
;
1,1'-Ethane-1,2-diylbis(2-(2,4-dinitrophenyl)-3,3-dimethyldiaziridine)
;
_cell_volume   1120.185
_exptl_crystal_colour 'yellow'
_exptl_crystal_density_diffrn 1.49
_exptl_crystal_description 'polyhedron'
_diffrn_ambient_temperature 200
#These two values have been output from a single CSD field.
_refine_ls_R_factor_gt 0.0676
_refine_ls_wR_factor_gt 0.0676
_symmetry_cell_setting monoclinic
_symmetry_space_group_name_H-M 'P 21/c'
_symmetry_Int_Tables_number 14
loop_
_symmetry_equiv_pos_site_id
_symmetry_equiv_pos_as_xyz
1 x,y,z
2 -x,1/2+y,1/2-z
3 -x,-y,-z
4 x,-1/2-y,-1/2+z
_cell_length_a 12.003(5)
_cell_length_b 7.965(3)
_cell_length_c 12.208(5)
_cell_angle_alpha 90
_cell_angle_beta 106.306(9)
_cell_angle_gamma 90
_cell_formula_units_Z 2
loop_
_atom_type_symbol
_atom_type_radius_bond
C 0.68
H 0.23
N 0.68
O 0.68
loop_
_atom_site_label
_atom_site_type_symbol
_atom_site_fract_x
_atom_site_fract_y
_atom_site_fract_z
N1 N 0.09135(14) 0.3786(2) 0.42789(14)
N2 N 0.14943(14) 0.2292(2) 0.49390(15)
C1 C 0.09173(18) 0.2170(2) 0.37088(18)
C2 C 0.1666(2) 0.2154(3) 0.29035(19)
H1 H 0.11940 0.24550 0.21350
H2 H 0.19920 0.10280 0.28900
H3 H 0.22980 0.29670 0.31620
C3 C -0.01402(19) 0.1072(3) 0.3363(2)
H4 H -0.04990 0.10080 0.39910
H5 H 0.00840 -0.00560 0.31860
H6 H -0.06960 0.15490 0.26870
C4 C -0.01331(17) 0.4235(2) 0.46138(18)
H7 H -0.03690 0.32850 0.50220
H8 H -0.07790 0.44880 0.39270
C5 C 0.27007(17) 0.2448(2) 0.53458(17)
C6 C 0.34453(18) 0.1047(2) 0.55916(17)
C7 C 0.46225(18) 0.1209(3) 0.60975(18)
H9 H 0.51090 0.02480 0.62700
C8 C 0.50742(18) 0.2795(3) 0.63460(18)
C9 C 0.43829(18) 0.4222(3) 0.61167(19)
H10 H 0.47140 0.53060 0.62960
C10 C 0.32169(18) 0.4035(2) 0.56282(18)
H11 H 0.27400 0.50070 0.54740
N3 N 0.30142(16) -0.0680(2) 0.53422(16)
O1 O 0.20010(14) -0.09028(19) 0.48335(16)
O2 O 0.37178(15) -0.18292(19) 0.56616(15)
N4 N 0.63231(16) 0.2966(2) 0.68854(16)
O3 O 0.69086(14) 0.1682(2) 0.71178(16)
O4 O 0.67191(14) 0.4390(2) 0.70837(16)
N1B N -0.09135(14) 0.6214(2) 0.57211(14)
N2B N -0.14943(14) 0.7708(2) 0.50610(15)
C1B C -0.09173(18) 0.7830(2) 0.62912(18)
C2B C -0.1666(2) 0.7846(3) 0.70965(19)
H1B H -0.11940 0.75450 0.78650
H2B H -0.19920 0.89720 0.71100
H3B H -0.22980 0.70330 0.68380
C3B C 0.01402(19) 0.8928(3) 0.6637(2)
H4B H 0.04990 0.89920 0.60090
H5B H -0.00840 1.00560 0.68140
H6B H 0.06960 0.84510 0.73130
C4B C 0.01331(17) 0.5765(2) 0.53862(18)
H7B H 0.03690 0.67150 0.49780
H8B H 0.07790 0.55120 0.60730
C5B C -0.27007(17) 0.7552(2) 0.46542(17)
C6B C -0.34453(18) 0.8953(2) 0.44084(17)
C7B C -0.46225(18) 0.8791(3) 0.39025(18)
H9B H -0.51090 0.97520 0.37300
C8B C -0.50742(18) 0.7205(3) 0.36540(18)
C9B C -0.43829(18) 0.5778(3) 0.38833(19)
H10B H -0.47140 0.46940 0.37040
C10B C -0.32169(18) 0.5965(2) 0.43718(18)
H11B H -0.27400 0.49930 0.45260
N3B N -0.30142(16) 1.0680(2) 0.46578(16)
O1B O -0.20010(14) 1.09028(19) 0.51665(16)
O2B O -0.37178(15) 1.18292(19) 0.43384(15)
N4B N -0.63231(16) 0.7034(2) 0.31146(16)
O3B O -0.69086(14) 0.8318(2) 0.28822(16)
O4B O -0.67191(14) 0.5610(2) 0.29163(16)
#END
