
#######################################################################
#
#                 Cambridge Crystallographic Data Centre
#                                CCDC
#
#######################################################################
#
# If this CIF has been generated from an entry in the Cambridge
# Structural Database, then it will include bibliographic, chemical,
# crystal, experimental, refinement or atomic coordinate data resulting
# from the CCDC's data processing and validation procedures.
#
#######################################################################

data_CSD_CIF_HEHXEZ
_audit_creation_date 2013-01-17
_audit_creation_method CSD-ConQuest-V1
_database_code_CSD HEHXEZ
_database_code_depnum_ccdc_archive 'CCDC 878843'
_chemical_formula_sum 'C34 H29 N3 O2'
_chemical_formula_moiety
;
C34 H29 N3 O2
;
_journal_coden_Cambridge 1291
_journal_year 2012
_journal_page_first 4853
_journal_name_full 'Eur.J.Org.Chem. '
loop_
_publ_author_name
"Y.Ooyama"
"T.Sugiyama"
"Y.Oda"
"Y.Hagiwara"
"N.Yamaguchi"
"E.Miyazaki"
"H.Fukuoka"
"T.Mizumo"
"Y.Harima"
"J.Ohshita"
_chemical_name_systematic
;
9-Butyl-7-(4-nitrophenyl)-N,N-diphenyl-9H-carbazol-2-amine
;
_cell_volume   5423.139
_exptl_crystal_colour 'red'
_exptl_crystal_density_diffrn 1.253
_exptl_crystal_description 'block'
_diffrn_ambient_temperature 296.2
#These two values have been output from a single CSD field.
_refine_ls_R_factor_gt 0.0831
_refine_ls_wR_factor_gt 0.0831
_symmetry_cell_setting monoclinic
_symmetry_space_group_name_H-M 'C 2/c'
_symmetry_Int_Tables_number 15
loop_
_symmetry_equiv_pos_site_id
_symmetry_equiv_pos_as_xyz
1 x,y,z
2 -x,y,1/2-z
3 1/2+x,1/2+y,z
4 1/2-x,1/2+y,1/2-z
5 -x,-y,-z
6 x,-y,-1/2+z
7 -1/2-x,-1/2-y,-z
8 -1/2+x,-1/2-y,-1/2+z
_cell_length_a 22.627(6)
_cell_length_b 8.805(3)
_cell_length_c 27.315(9)
_cell_angle_alpha 90
_cell_angle_beta 94.77(1)
_cell_angle_gamma 90
_cell_formula_units_Z 8
loop_
_atom_type_symbol
_atom_type_radius_bond
C 0.68
H 0.23
N 0.68
O 0.68
loop_
_atom_site_label
_atom_site_type_symbol
_atom_site_fract_x
_atom_site_fract_y
_atom_site_fract_z
O1 O 0.2337(1) 0.4408(3) -0.0239(1)
O2 O 0.2468(1) 0.2913(4) -0.0827(1)
N1 N 0.62411(9) 0.4047(3) 0.12165(8)
N2 N 0.83371(9) 0.3444(3) 0.18241(8)
N3 N 0.2650(1) 0.3595(3) -0.04609(9)
C1 C 0.7302(1) 0.3888(3) 0.15453(9)
C2 C 0.7840(1) 0.3214(3) 0.14741(9)
C3 C 0.7902(1) 0.2291(4) 0.1070(1)
C4 C 0.7428(1) 0.1996(4) 0.0733(1)
C5 C 0.6878(1) 0.2616(3) 0.0806(1)
C6 C 0.6294(1) 0.2536(3) 0.0545(1)
C7 C 0.6061(1) 0.1830(4) 0.0120(1)
C8 C 0.5470(1) 0.2044(4) -0.0037(1)
C9 C 0.5094(1) 0.2907(3) 0.0230(1)
C10 C 0.5323(1) 0.3614(3) 0.0659(1)
C11 C 0.5918(1) 0.3428(3) 0.08117(9)
C12 C 0.6824(1) 0.3555(3) 0.12123(9)
C13 C 0.8230(1) 0.3663(3) 0.2321(1)
C14 C 0.8508(1) 0.4811(4) 0.2606(1)
C15 C 0.8375(1) 0.5037(4) 0.3084(1)
C16 C 0.7956(2) 0.4169(4) 0.3285(1)
C17 C 0.7681(1) 0.2997(4) 0.3007(1)
C18 C 0.7822(1) 0.2741(4) 0.2537(1)
C19 C 0.8880(1) 0.3964(3) 0.1652(1)
C20 C 0.9416(1) 0.3472(4) 0.1877(1)
C21 C 0.9943(1) 0.4008(5) 0.1720(1)
C22 C 0.9937(1) 0.5002(5) 0.1337(1)
C23 C 0.9414(2) 0.5450(5) 0.1110(1)
C24 C 0.8880(1) 0.4961(4) 0.1264(1)
C25 C 0.4458(1) 0.3099(3) 0.00517(9)
C26 C 0.4087(2) 0.4032(6) 0.0278(2)
C27 C 0.3494(2) 0.4194(5) 0.0115(2)
C28 C 0.3278(1) 0.3434(4) -0.0288(1)
C29 C 0.3635(2) 0.2533(6) -0.0531(2)
C30 C 0.4222(2) 0.2365(6) -0.0358(2)
C31 C 0.6024(1) 0.5021(5) 0.1582(1)
C32 C 0.5911(4) 0.419(1) 0.2051(2)
C33 C 0.5965(5) 0.461(1) 0.2468(3)
C34 C 0.5862(3) 0.3862(9) 0.2925(3)
H1 H 0.72560 0.45530 0.18170
H2 H 0.82750 0.18440 0.10260
H3 H 0.74800 0.13740 0.04530
H4 H 0.63060 0.12100 -0.00650
H5 H 0.53170 0.15810 -0.03340
H6 H 0.50730 0.42380 0.08410
H7 H 0.87960 0.54360 0.24690
H8 H 0.85730 0.58120 0.32730
H9 H 0.78570 0.43760 0.36120
H10 H 0.73860 0.23790 0.31460
H11 H 0.76470 0.19040 0.23530
H12 H 0.94230 0.27530 0.21400
H13 H 1.03100 0.36910 0.18830
H14 H 1.03050 0.53680 0.12330
H15 H 0.94080 0.61250 0.08340
H16 H 0.85150 0.52950 0.11030
H17 H 0.42380 0.45890 0.05600
H18 H 0.32450 0.48580 0.02810
H19 H 0.34830 0.20470 -0.08260
H20 H 0.44710 0.17100 -0.05320
H21 H 0.63060 0.58170 0.16560
H22 H 0.56600 0.54760 0.14510
H23 H 0.55220 0.37950 0.20070
H24 H 0.61830 0.33090 0.20570
H25 H 0.63700 0.49710 0.25170
H26 H 0.57140 0.54970 0.24620
H27 H 0.59390 0.45210 0.32010
H28 H 0.54610 0.35200 0.29180
H29 H 0.61180 0.29930 0.29730
#END
