
#######################################################################
#
#                 Cambridge Crystallographic Data Centre
#                                CCDC
#
#######################################################################
#
# If this CIF has been generated from an entry in the Cambridge
# Structural Database, then it will include bibliographic, chemical,
# crystal, experimental, refinement or atomic coordinate data resulting
# from the CCDC's data processing and validation procedures.
#
#######################################################################

data_CSD_CIF_HEWMED
_audit_creation_date 2013-04-24
_audit_creation_method CSD-ConQuest-V1
_database_code_CSD HEWMED
_database_code_depnum_ccdc_archive 'CCDC 895726'
_chemical_formula_sum 'C15 H17 N1 O2'
_chemical_formula_moiety
;
C15 H17 N1 O2
;
_journal_coden_Cambridge 1441
_journal_volume 5
_journal_year 2013
_journal_page_first 423
_journal_name_full 'Nature Chemistry '
loop_
_publ_author_name
"J.R.Cabrera-Pardo"
"D.I.Chai"
"Song Liu"
"M.Mrksich"
"S.A.Kozmin"
_chemical_name_systematic
;
3-Butyl-1-((hydroxyimino)methyl)-2-naphthol
;
_cell_volume   1272.117
_exptl_crystal_colour 'colorless'
_exptl_crystal_density_diffrn 1.27
_exptl_crystal_preparation 'Hexanes/EtOAc'
_diffrn_ambient_temperature 100
#These two values have been output from a single CSD field.
_refine_ls_R_factor_gt 0.0496
_refine_ls_wR_factor_gt 0.0496
_symmetry_cell_setting monoclinic
_symmetry_space_group_name_H-M 'P 21/c'
_symmetry_Int_Tables_number 14
loop_
_symmetry_equiv_pos_site_id
_symmetry_equiv_pos_as_xyz
1 x,y,z
2 -x,1/2+y,1/2-z
3 -x,-y,-z
4 x,-1/2-y,-1/2+z
_cell_length_a 10.591(4)
_cell_length_b 4.9385(19)
_cell_length_c 24.376(9)
_cell_angle_alpha 90
_cell_angle_beta 93.823(7)
_cell_angle_gamma 90
_cell_formula_units_Z 4
loop_
_atom_type_symbol
_atom_type_radius_bond
C 0.68
H 0.23
N 0.68
O 0.68
loop_
_atom_site_label
_atom_site_type_symbol
_atom_site_fract_x
_atom_site_fract_y
_atom_site_fract_z
C1 C 0.70847(18) 0.1629(4) 0.17540(7)
C2 C 0.82035(18) 0.2795(4) 0.20070(8)
H1 H 0.86160 0.42130 0.18250
C3 C 0.86979(19) 0.1905(4) 0.25103(8)
H2 H 0.94450 0.27170 0.26730
C4 C 0.81111(18) -0.0193(4) 0.27879(8)
H3 H 0.84680 -0.08120 0.31330
C5 C 0.70316(18) -0.1335(4) 0.25613(8)
H4 H 0.66330 -0.27360 0.27530
C6 C 0.64854(18) -0.0466(4) 0.20397(8)
C7 C 0.53606(18) -0.1673(4) 0.18055(8)
H5 H 0.49690 -0.30600 0.20040
C8 C 0.48181(18) -0.0912(4) 0.13028(8)
C9 C 0.54137(18) 0.1189(4) 0.10199(7)
C10 C 0.65222(18) 0.2459(4) 0.12227(8)
C11 C 0.71004(18) 0.4584(4) 0.09091(8)
H6 H 0.78650 0.54030 0.10510
C12 C 0.36290(18) -0.2206(4) 0.10503(8)
H7 H 0.35070 -0.39730 0.12310
H8 H 0.37380 -0.25590 0.06560
C13 C 0.24389(17) -0.0489(4) 0.10985(8)
H9 H 0.22550 -0.03660 0.14910
H10 H 0.26040 0.13670 0.09680
C14 C 0.12791(19) -0.1619(4) 0.07711(8)
H11 H 0.14650 -0.17560 0.03790
H12 H 0.11080 -0.34680 0.09040
C15 C 0.0105(2) 0.0105(5) 0.08163(10)
H13 H -0.00890 0.02390 0.12030
H14 H -0.06100 -0.07300 0.06030
H15 H 0.02560 0.19200 0.06720
N1 N 0.65919(15) 0.5362(3) 0.04451(6)
O1 O 0.48451(12) 0.1861(3) 0.05193(5)
H16 H 0.52730 0.30600 0.03730
O2 O 0.72720(13) 0.7405(3) 0.02003(5)
H17 H 0.68240 0.80880 -0.00610
#END
