
#######################################################################
#
#                 Cambridge Crystallographic Data Centre
#                                CCDC
#
#######################################################################
#
# If this CIF has been generated from an entry in the Cambridge
# Structural Database, then it will include bibliographic, chemical,
# crystal, experimental, refinement or atomic coordinate data resulting
# from the CCDC's data processing and validation procedures.
#
#######################################################################

data_CSD_CIF_HEXQAD01
_audit_creation_date 2008-04-21
_audit_creation_method CSD-ConQuest-V1
_database_code_CSD HEXQAD01
_database_code_depnum_ccdc_archive 'CCDC 659031'
_chemical_formula_sum 'C10 H11 N1 O5'
_chemical_formula_moiety
;
C10 H11 N1 O5
;
_journal_coden_Cambridge 179
_journal_volume 47
_journal_year 2008
_journal_page_first 768
_journal_name_full 'Angew.Chem.,Int.Ed. '
loop_
_publ_author_name
"K.Aelvoet"
"A.S.Batsanov"
"A.J.Blatch"
"C.Grosjean"
"L.G.F.Patrick"
"C.A.Smethurst"
"A.Whiting"
_chemical_name_systematic
;
3,4-Dihydroxy-4-(4-nitrophenyl)butan-2-one
;
_cell_volume   1014.940
_exptl_crystal_colour 'colorless'
_exptl_crystal_density_diffrn 1.474
_exptl_crystal_description 'prism'
_diffrn_ambient_temperature 120
#These two values have been output from a single CSD field.
_refine_ls_R_factor_gt 0.0386
_refine_ls_wR_factor_gt 0.0386
_symmetry_cell_setting orthorhombic
_symmetry_space_group_name_H-M 'P 21 21 21'
_symmetry_Int_Tables_number 19
loop_
_symmetry_equiv_pos_site_id
_symmetry_equiv_pos_as_xyz
1 x,y,z
2 1/2-x,-y,1/2+z
3 1/2+x,1/2-y,-z
4 -x,1/2+y,1/2-z
_cell_length_a 4.6812(6)
_cell_length_b 9.2627(11)
_cell_length_c 23.407(3)
_cell_angle_alpha 90
_cell_angle_beta 90
_cell_angle_gamma 90
_cell_formula_units_Z 4
loop_
_atom_type_symbol
_atom_type_radius_bond
C 0.68
H 0.23
N 0.68
O 0.68
loop_
_atom_site_label
_atom_site_type_symbol
_atom_site_fract_x
_atom_site_fract_y
_atom_site_fract_z
O1 O 0.1507(4) 0.61655(17) 0.79605(6)
O2 O 1.0914(3) 0.37273(16) 0.46821(6)
O3 O 0.5566(3) 0.62539(15) 0.50392(5)
H1 H 0.385(8) 0.615(4) 0.5211(13)
O4 O 1.0660(3) 0.62491(14) 0.56530(5)
H2 H 0.976(6) 0.698(3) 0.5492(9)
O5 O -0.0107(4) 0.40620(18) 0.77255(6)
N1 N 0.1427(4) 0.51112(18) 0.76432(6)
C1 C 0.8102(6) 0.5170(3) 0.40517(9)
H3 H 0.827(7) 0.615(3) 0.4070(12)
H4 H 0.942(8) 0.482(3) 0.3759(13)
H5 H 0.609(11) 0.486(4) 0.3981(17)
C2 C 0.8918(4) 0.4563(2) 0.46210(7)
C3 C 0.7030(4) 0.49299(19) 0.51345(7)
H6 H 0.575(6) 0.411(3) 0.5160(9)
C4 C 0.8803(4) 0.50298(19) 0.56831(7)
H7 H 1.001(6) 0.412(3) 0.5682(10)
C5 C 0.6911(4) 0.50824(19) 0.62093(7)
C6 C 0.6674(4) 0.6319(2) 0.65426(7)
H8 H 0.776(6) 0.721(2) 0.6456(8)
C7 C 0.4851(4) 0.6339(2) 0.70139(7)
H9 H 0.470(6) 0.718(3) 0.7238(9)
C8 C 0.3300(4) 0.5106(2) 0.71368(7)
C9 C 0.3477(4) 0.3858(2) 0.68152(7)
H10 H 0.240(6) 0.300(3) 0.6923(10)
C10 C 0.5321(4) 0.3858(2) 0.63493(7)
H11 H 0.564(7) 0.298(3) 0.612(1)
#END
