
#######################################################################
#
#                 Cambridge Crystallographic Data Centre
#                                CCDC
#
#######################################################################
#
# If this CIF has been generated from an entry in the Cambridge
# Structural Database, then it will include bibliographic, chemical,
# crystal, experimental, refinement or atomic coordinate data resulting
# from the CCDC's data processing and validation procedures.
#
#######################################################################

data_CSD_CIF_HIHLIW
_audit_creation_date 2018-06-21
_audit_creation_method CSD-ConQuest-V1
_database_code_CSD HIHLIW
_database_code_depnum_ccdc_archive 'CCDC 1850829'
_chemical_formula_sum 'C25 H28 N2 O4'
_chemical_formula_moiety
;
C25 H28 N2 O4
;
_journal_coden_Cambridge 24
_journal_volume 57
_journal_year 2016
_journal_page_first 423
_journal_name_full 'Tetrahedron Lett. '
loop_
_publ_author_name
"S.A.Steiger"
"Chun Li"
"C.F.Campana"
"N.R.Natale"
_chemical_name_systematic
;
ethyl 
2,7,7-trimethyl-4-(5-methyl-3-phenyl-1,2-oxazol-4-yl)-5-oxo-1,4,5,6,7,8-hexahy
droquinoline-3-carboxylate
;
_cell_volume   2171.202
_exptl_crystal_colour 'yellow'
_exptl_crystal_density_diffrn 1.286
_exptl_crystal_description 'Prism'
_diffrn_ambient_temperature 100
#These two values have been output from a single CSD field.
_refine_ls_R_factor_gt 0.052
_refine_ls_wR_factor_gt 0.052
_symmetry_cell_setting monoclinic
_symmetry_space_group_name_H-M 'P 21/c'
_symmetry_Int_Tables_number 14
loop_
_symmetry_equiv_pos_site_id
_symmetry_equiv_pos_as_xyz
1 x,y,z
2 -x,1/2+y,1/2-z
3 -x,-y,-z
4 x,-1/2-y,-1/2+z
_cell_length_a 16.0832(7)
_cell_length_b 9.8265(4)
_cell_length_c 13.7577(6)
_cell_angle_alpha 90
_cell_angle_beta 93.053(3)
_cell_angle_gamma 90
_cell_formula_units_Z 4
loop_
_atom_type_symbol
_atom_type_radius_bond
C 0.68
H 0.23
N 0.68
O 0.68
loop_
_atom_site_label
_atom_site_type_symbol
_atom_site_fract_x
_atom_site_fract_y
_atom_site_fract_z
O1 O 0.66669(8) 0.18527(13) 0.86603(9)
O2 O 0.97429(9) 0.04051(15) 0.6156(1)
O3 O 0.90827(8) -0.04685(14) 0.74075(9)
O4 O 0.64612(9) -0.22067(13) 0.6230(1)
N1 N 0.74945(10) 0.26269(15) 0.54932(11)
H1 H 0.73800 0.30190 0.49270
N2 N 0.67802(11) -0.27065(16) 0.71385(12)
C1 C 0.82167(12) 0.18652(18) 0.56128(13)
C2 C 0.83315(12) 0.10627(18) 0.64112(13)
C3 C 0.76320(11) 0.08525(18) 0.71074(13)
H2 H 0.78900 0.08350 0.77850
C4 C 0.70325(11) 0.20429(18) 0.70365(13)
C5 C 0.65400(11) 0.23910(18) 0.78526(13)
C6 C 0.58776(12) 0.34742(19) 0.77125(13)
H3 H 0.61100 0.43510 0.79550
H4 H 0.54070 0.32380 0.81160
C7 C 0.55433(12) 0.36660(19) 0.66574(13)
C8 C 0.62982(12) 0.38838(19) 0.60394(13)
H5 H 0.61110 0.38840 0.53420
H6 H 0.65470 0.47840 0.61940
C9 C 0.69491(11) 0.28000(18) 0.62144(13)
C10 C 0.50377(12) 0.24295(19) 0.62977(14)
H7 H 0.53760 0.16060 0.63870
H8 H 0.48760 0.25430 0.56060
H9 H 0.45370 0.23480 0.66700
C11 C 0.49871(13) 0.4926(2) 0.65870(14)
H10 H 0.45180 0.48080 0.70060
H11 H 0.47760 0.50500 0.59110
H12 H 0.53110 0.57280 0.67990
C12 C 0.87890(13) 0.2075(2) 0.47945(14)
H13 H 0.84760 0.19560 0.41700
H14 H 0.92430 0.14100 0.48490
H15 H 0.90210 0.29980 0.48320
C13 C 0.91233(12) 0.03334(19) 0.66128(13)
C14 C 0.98377(13) -0.1204(2) 0.77004(15)
H16 H 1.01140 -0.15160 0.71140
H17 H 0.96940 -0.20170 0.80820
C15 C 1.04223(15) -0.0320(2) 0.83008(18)
H18 H 1.05790 0.04700 0.79160
H19 H 1.09230 -0.08410 0.84990
H20 H 1.01480 -0.00100 0.88800
C16 C 0.64752(13) -0.0298(2) 0.51659(14)
H21 H 0.67780 -0.07450 0.46550
H22 H 0.66070 0.06760 0.51770
H23 H 0.58750 -0.04210 0.50340
C17 C 0.67258(12) -0.09078(19) 0.61215(14)
C18 C 0.71900(11) -0.05066(18) 0.69256(13)
C19 C 0.72086(12) -0.16911(19) 0.75327(14)
C20 C 0.76418(12) -0.19324(19) 0.84973(14)
C21 C 0.75464(12) -0.1034(2) 0.92632(14)
H24 H 0.71970 -0.02590 0.91730
C22 C 0.79592(13) -0.1264(2) 1.01591(15)
H25 H 0.78900 -0.06490 1.06810
C23 C 0.84727(13) -0.2388(2) 1.02949(15)
H26 H 0.87610 -0.25380 1.09060
C24 C 0.85628(13) -0.3289(2) 0.95385(15)
H27 H 0.89110 -0.40640 0.96310
C25 C 0.81472(13) -0.3066(2) 0.86428(15)
H28 H 0.82090 -0.36930 0.81260
#END
