
#######################################################################
#
#                 Cambridge Crystallographic Data Centre
#                                CCDC
#
#######################################################################
#
# If this CIF has been generated from an entry in the Cambridge
# Structural Database, then it will include bibliographic, chemical,
# crystal, experimental, refinement or atomic coordinate data resulting
# from the CCDC's data processing and validation procedures.
#
#######################################################################

data_CSD_CIF_HIRZIS
_audit_creation_date 2008-02-11
_audit_creation_method CSD-ConQuest-V1
_database_code_CSD HIRZIS
_database_code_depnum_ccdc_archive 'CCDC 674660'
_chemical_formula_sum 'C26 H26 N4 O3'
_chemical_formula_moiety
;
C26 H26 N4 O3
;
_journal_coeditor_code "IUCr HB2606"
_journal_coden_Cambridge 1370
_journal_volume 63
_journal_year 2007
_journal_page_first o4745
_journal_name_full 'Acta Crystallogr.,Sect.E:Struct.Rep.Online '
loop_
_publ_author_name
"Hai-Su Zeng"
"Hai-Bo Wang"
"Si-Shun Kang"
"Hai-Lin Li"
_chemical_name_systematic
;
2-(2-(3-(4-(Dimethylamino)phenyl)-1,2,4-oxadiazol-5-yl)phenoxy)-N-(2,6-dimethy
lphenyl)acetamide
;
_cell_volume   1130.430
_exptl_crystal_colour 'colorless'
_exptl_crystal_density_diffrn 1.3
_exptl_crystal_description 'block'
_exptl_crystal_preparation 'ethanol'
_diffrn_ambient_temperature 293
#These two values have been output from a single CSD field.
_refine_ls_R_factor_gt 0.0773
_refine_ls_wR_factor_gt 0.0773
_symmetry_cell_setting triclinic
_symmetry_space_group_name_H-M 'P -1'
_symmetry_Int_Tables_number 2
loop_
_symmetry_equiv_pos_site_id
_symmetry_equiv_pos_as_xyz
1 x,y,z
2 -x,-y,-z
_cell_length_a 8.9900(18)
_cell_length_b 9.0330(18)
_cell_length_c 15.445(3)
_cell_angle_alpha 83.01(3)
_cell_angle_beta 79.76(3)
_cell_angle_gamma 66.54(3)
_cell_formula_units_Z 2
loop_
_atom_type_symbol
_atom_type_radius_bond
C 0.68
H 0.23
N 0.68
O 0.68
loop_
_atom_site_label
_atom_site_type_symbol
_atom_site_fract_x
_atom_site_fract_y
_atom_site_fract_z
O1 O 1.1192(3) 0.2794(3) 0.45197(18)
O2 O 1.3415(3) 0.4254(4) 0.2256(2)
O3 O 1.2793(3) 0.6748(3) 0.03292(18)
N1 N 0.3072(4) 0.8914(5) 0.3050(3)
N2 N 0.9452(4) 0.3580(5) 0.4585(2)
N3 N 1.0722(4) 0.4657(4) 0.3431(2)
N4 N 1.1088(3) 0.6202(4) 0.1492(2)
H1 H 1.10460 0.58400 0.20330
C1 C 0.1610(5) 0.8702(7) 0.3466(4)
H2 H 0.16270 0.77020 0.33030
H3 H 0.06730 0.95820 0.32800
H4 H 0.15490 0.86780 0.40940
C2 C 0.2944(6) 1.0093(6) 0.2336(3)
H5 H 0.39480 1.02670 0.21960
H6 H 0.20570 1.10900 0.25000
H7 H 0.27400 0.97190 0.18310
C3 C 0.4591(5) 0.7886(5) 0.3270(3)
C4 C 0.5996(5) 0.8191(5) 0.2957(3)
H8 H 0.59270 0.91070 0.25920
C5 C 0.7495(5) 0.7138(5) 0.3185(3)
H9 H 0.84210 0.73660 0.29730
C6 C 0.7651(4) 0.5774(5) 0.3714(2)
C7 C 0.6260(5) 0.5489(5) 0.4033(3)
H10 H 0.63370 0.45770 0.44030
C8 C 0.4748(5) 0.6523(5) 0.3816(3)
H11 H 0.38260 0.62970 0.40420
C9 C 0.9276(5) 0.4658(5) 0.3923(2)
C10 C 1.1844(5) 0.3506(5) 0.3835(2)
C11 C 1.3619(5) 0.2919(5) 0.3645(3)
C12 C 1.4409(5) 0.3316(5) 0.2846(3)
C13 C 1.6095(5) 0.2761(6) 0.2669(3)
H12 H 1.66040 0.30450 0.21340
C14 C 1.7009(5) 0.1783(6) 0.3296(3)
H13 H 1.81460 0.14020 0.31830
C15 C 1.6277(5) 0.1367(6) 0.4075(3)
H14 H 1.69180 0.07000 0.44890
C16 C 1.4578(5) 0.1921(5) 0.4267(3)
H15 H 1.40870 0.16280 0.48060
C17 C 1.4010(4) 0.5052(5) 0.1516(3)
H16 H 1.48290 0.42710 0.11220
H17 H 1.45040 0.57190 0.17010
C18 C 1.2550(4) 0.6091(5) 0.1056(2)
C19 C 0.9582(4) 0.6882(4) 0.1122(2)
C20 C 0.8857(4) 0.5827(4) 0.1007(2)
C21 C 0.7401(5) 0.6480(5) 0.0645(3)
H18 H 0.68890 0.58090 0.05550
C22 C 0.6711(5) 0.8103(6) 0.0420(3)
H19 H 0.57470 0.85160 0.01710
C23 C 0.7425(5) 0.9115(5) 0.0558(3)
H20 H 0.69280 1.02130 0.04070
C24 C 0.8885(4) 0.8547(4) 0.0920(2)
C25 C 0.9578(5) 0.9673(5) 0.1131(3)
H21 H 0.89380 1.07520 0.09290
H22 H 1.06880 0.93650 0.08440
H23 H 0.95570 0.96320 0.17560
C26 C 0.9577(5) 0.4057(5) 0.1276(3)
H24 H 1.05810 0.38110 0.15030
H25 H 0.97920 0.34340 0.07740
H26 H 0.88170 0.37940 0.17230
#END
