
#######################################################################
#
#                 Cambridge Crystallographic Data Centre
#                                CCDC
#
#######################################################################
#
# If this CIF has been generated from an entry in the Cambridge
# Structural Database, then it will include bibliographic, chemical,
# crystal, experimental, refinement or atomic coordinate data resulting
# from the CCDC's data processing and validation procedures.
#
#######################################################################

data_CSD_CIF_HISRUW
_audit_creation_date 1999-06-22
_audit_creation_method CSD-ConQuest-V1
_database_code_CSD HISRUW
_database_code_depnum_ccdc_journal 188/138
_chemical_formula_sum 'C13 H19 N3 O4'
_chemical_formula_moiety
;
C13 H19 N3 O4
;
_journal_coden_Cambridge 188
_journal_year 1998
_journal_page_first 2061
_journal_name_full 'J.Chem.Soc.,Perkin Trans.2 '
loop_
_publ_author_name
"G.W.Stockton"
"R.Godfrey"
"P.Hitchcock"
"R.Mendelsohn"
"P.C.Mowery"
"S.Rajan"
"A.F.Walker"
_chemical_name_systematic
;
N-(1-Ethylpropyl)-3,4-dimethyl-2,6-dinitrobenzenamine
;
_chemical_name_common
;
Pendimethalin II
;
_chemical_melting_point 330.15
_cell_volume   1452.755
_exptl_crystal_colour 'yellow'
_exptl_crystal_density_diffrn 1.28
_exptl_special_details
;
II polymorph
Herbicidal activity by interference with the polymerisation of tubulin
;
_exptl_crystal_preparation 'from the melt'
_diffrn_ambient_temperature ?
_diffrn_special_details
;
The study was carried out at room temperature,in the range 283-303K

;
#These two values have been output from a single CSD field.
_refine_ls_R_factor_gt 0.045
_refine_ls_wR_factor_gt 0.045
_symmetry_cell_setting monoclinic
_symmetry_space_group_name_H-M 'P 21/c'
_symmetry_Int_Tables_number 14
loop_
_symmetry_equiv_pos_site_id
_symmetry_equiv_pos_as_xyz
1 x,y,z
2 -x,1/2+y,1/2-z
3 -x,-y,-z
4 x,-1/2-y,-1/2+z
_cell_length_a 7.197(2)
_cell_length_b 21.937(4)
_cell_length_c 9.432(3)
_cell_angle_alpha 90
_cell_angle_beta 102.69(2)
_cell_angle_gamma 90
_cell_formula_units_Z 4
loop_
_atom_type_symbol
_atom_type_radius_bond
C 0.68
H 0.23
N 0.68
O 0.68
loop_
_atom_site_label
_atom_site_type_symbol
_atom_site_fract_x
_atom_site_fract_y
_atom_site_fract_z
O1 O 0.7791(11) 0.0991(3) 0.6852(7)
O2 O 0.7120(11) 0.0068(4) 0.7287(7)
O3 O 0.9799(9) 0.1060(3) 0.1672(7)
O4 O 0.6966(11) 0.0942(3) 0.0399(7)
N1 N 0.7485(10) 0.0460(4) 0.6468(8)
N2 N 0.8195(11) 0.0843(3) 0.1454(8)
N3 N 0.7803(10) 0.1325(3) 0.4212(8)
C1 C 0.7452(12) -0.0345(4) 0.4733(10)
C2 C 0.7562(12) 0.0276(4) 0.5009(9)
C3 C 0.7703(11) 0.0715(4) 0.3940(9)
C4 C 0.7766(12) 0.0449(4) 0.2600(9)
C5 C 0.7669(12) -0.0159(4) 0.2251(9)
C6 C 0.7475(12) -0.0574(4) 0.3394(10)
C7 C 0.7786(14) -0.0394(4) 0.0737(10)
C8 C 0.7249(16) -0.1259(4) 0.3080(12)
C9 C 0.6799(14) 0.1788(4) 0.3135(11)
C10 C 0.4591(16) 0.1645(6) 0.2879(14)
C11 C 0.7276(16) 0.2408(5) 0.3885(13)
C12 C 0.9371(19) 0.2585(6) 0.3966(17)
C13 C 0.3606(19) 0.2033(6) 0.1547(17)
H1 H 0.70900 -0.05700 0.55700
H2 H 0.79300 0.15200 0.52900
H3 H 0.83400 -0.01600 0.00000
H4 H 0.83400 -0.08400 0.08400
H5 H 0.62500 -0.04300 0.00000
H6 H 0.75000 -0.14100 0.44500
H7 H 0.83400 -0.14100 0.30700
H8 H 0.58400 -0.12500 0.22300
H9 H 0.70900 0.16600 0.19500
H10 H 0.41300 0.17600 0.37100
H11 H 0.43600 0.12200 0.26800
H12 H 0.70600 0.23900 0.48400
H13 H 0.64700 0.27100 0.33500
H14 H 0.96200 0.29700 0.44300
H15 H 1.01900 0.22900 0.45000
H16 H 0.95900 0.26100 0.30100
H17 H 0.22700 0.19600 0.13500
H18 H 0.38500 0.24500 0.17500
H19 H 0.40900 0.19200 0.07200
#END
