
#######################################################################
#
#                 Cambridge Crystallographic Data Centre
#                                CCDC
#
#######################################################################
#
# If this CIF has been generated from an entry in the Cambridge
# Structural Database, then it will include bibliographic, chemical,
# crystal, experimental, refinement or atomic coordinate data resulting
# from the CCDC's data processing and validation procedures.
#
#######################################################################

data_CSD_CIF_HIVXOA
_audit_creation_date 2008-05-27
_audit_creation_method CSD-ConQuest-V1
_database_code_CSD HIVXOA
_database_code_depnum_ccdc_archive 'CCDC 298280'
_chemical_formula_sum 'C16 H12 N2 O2'
_chemical_formula_moiety
;
C16 H12 N2 O2
;
_journal_coden_Cambridge 471
_journal_volume 24
_journal_year 2008
_journal_page_first x13
_journal_name_full 'Anal.Sci.:X-Ray Struct.Anal.Online '
loop_
_publ_author_name
"T.Hokelek"
"Y.Ergun"
_chemical_name_systematic
;
2-nitro-5,6-dihydro-11H-benzo(a)carbazole
;
_chemical_melting_point 531
_cell_volume   1291.613
_exptl_crystal_colour 'purple'
_exptl_crystal_density_diffrn 1.359
_exptl_crystal_description 'rod'
_exptl_crystal_preparation 'methanol'
_diffrn_ambient_temperature 294
#These two values have been output from a single CSD field.
_refine_ls_R_factor_gt 0.0614
_refine_ls_wR_factor_gt 0.0614
_symmetry_cell_setting monoclinic
_symmetry_space_group_name_H-M 'P 21/n'
_symmetry_Int_Tables_number 14
loop_
_symmetry_equiv_pos_site_id
_symmetry_equiv_pos_as_xyz
1 x,y,z
2 1/2-x,1/2+y,1/2-z
3 -x,-y,-z
4 -1/2+x,-1/2-y,-1/2+z
_cell_length_a 12.220(4)
_cell_length_b 6.9647(10)
_cell_length_c 15.304(3)
_cell_angle_alpha 90
_cell_angle_beta 97.414(3)
_cell_angle_gamma 90
_cell_formula_units_Z 4
loop_
_atom_type_symbol
_atom_type_radius_bond
C 0.68
H 0.23
N 0.68
O 0.68
loop_
_atom_site_label
_atom_site_type_symbol
_atom_site_fract_x
_atom_site_fract_y
_atom_site_fract_z
C1 C 0.3507(3) 0.0427(5) 0.9643(3)
C2 C 0.2803(4) -0.0884(6) 0.9990(3)
C3 C 0.2387(5) -0.2608(7) 0.9456(4)
H1 H 0.24390 -0.36990 0.98530
H2 H 0.16080 -0.24000 0.92630
C4 C 0.2880(4) -0.3157(7) 0.8705(4)
H3 H 0.23010 -0.35580 0.82480
H4 H 0.33480 -0.42630 0.88600
C5 C 0.3550(3) -0.1663(6) 0.8335(3)
C6 C 0.4050(5) -0.2791(9) 0.6821(4)
H5 H 0.36540 -0.39350 0.67830
C7 C 0.4047(4) -0.1600(7) 0.7549(3)
C8 C 0.4650(6) -0.2255(13) 0.6152(5)
H6 H 0.461(4) -0.317(8) 0.571(3)
C9 C 0.5234(5) -0.0553(12) 0.6188(4)
H7 H 0.573(4) -0.018(7) 0.573(3)
C10 C 0.5259(5) 0.0692(9) 0.6900(3)
H8 H 0.564(3) 0.188(6) 0.690(3)
C11 C 0.4654(3) 0.0135(7) 0.7564(3)
N1 N 0.4502(3) 0.1078(5) 0.8331(2)
H9 H 0.489(3) 0.227(7) 0.851(3)
C12 C 0.3841(3) -0.0016(5) 0.8797(3)
C13 C 0.3842(3) 0.2078(5) 1.0114(3)
H10 H 0.437(3) 0.292(5) 0.984(2)
C14 C 0.3469(3) 0.2388(6) 1.0906(3)
C15 C 0.2796(4) 0.1132(7) 1.1280(3)
H11 H 0.248(3) 0.131(6) 1.187(3)
C16 C 0.2472(4) -0.0501(8) 1.0807(4)
H12 H 0.205(3) -0.142(6) 1.105(3)
N2 N 0.3813(3) 0.4160(5) 1.1388(2)
O1 O 0.3448(3) 0.4505(5) 1.2072(2)
O2 O 0.4463(3) 0.5221(4) 1.1068(2)
#END
