
#######################################################################
#
#                 Cambridge Crystallographic Data Centre
#                                CCDC
#
#######################################################################
#
# If this CIF has been generated from an entry in the Cambridge
# Structural Database, then it will include bibliographic, chemical,
# crystal, experimental, refinement or atomic coordinate data resulting
# from the CCDC's data processing and validation procedures.
#
#######################################################################

data_CSD_CIF_HIWROU
_audit_creation_date 1999-06-22
_audit_creation_method CSD-ConQuest-V1
_database_code_CSD HIWROU
_database_code_depnum_ccdc_archive 'CCDC 116457'
_database_code_depnum_ccdc_journal 1267/72
_chemical_formula_sum 'C25 H31 N1 O8'
_chemical_formula_moiety
;
C25 H31 N1 O8
;
_journal_coden_Cambridge 1267
_journal_volume 214
_journal_year 1999
_journal_page_first 263
_journal_name_full 'Z.Kristallogr.-New Cryst.Struct. '
loop_
_publ_author_name
"K.Peters"
"E.-M.Peters"
"J.Raczko"
"V.Jager"
_chemical_name_systematic
;
3-O-Benzyl-6,8-di-O-benzylidene-5,7-dideoxy-1,2-di-O-isopropylidene-5-nitro-L-
glycero-D-galacto-octitol
;
_chemical_melting_point 423
_cell_volume   2406.809
_exptl_crystal_colour 'colorless'
_exptl_special_details
;
Melting point range 423-424K

;
_exptl_crystal_description 'plate'
_exptl_crystal_preparation 'dichloromethane/diethyl ether'
_diffrn_ambient_temperature ?
_diffrn_special_details
;
The study was carried out at room temperature,in the range 283-303K

;
#These two values have been output from a single CSD field.
_refine_ls_R_factor_gt 0.0457
_refine_ls_wR_factor_gt 0.0457
_symmetry_cell_setting orthorhombic
_symmetry_space_group_name_H-M 'P 21 21 21'
_symmetry_Int_Tables_number 19
loop_
_symmetry_equiv_pos_site_id
_symmetry_equiv_pos_as_xyz
1 x,y,z
2 1/2-x,-y,1/2+z
3 1/2+x,1/2-y,-z
4 -x,1/2+y,1/2-z
_cell_length_a 10.137(2)
_cell_length_b 28.990(4)
_cell_length_c 8.190(2)
_cell_angle_alpha 90
_cell_angle_beta 90
_cell_angle_gamma 90
_cell_formula_units_Z 4
loop_
_atom_type_symbol
_atom_type_radius_bond
C 0.68
H 0.23
N 0.68
O 0.68
loop_
_atom_site_label
_atom_site_type_symbol
_atom_site_fract_x
_atom_site_fract_y
_atom_site_fract_z
O1 O 0.77674(43) -0.14660(11) 0.69578(45)
C1 C 0.71981(51) -0.10848(15) 0.60986(64)
H1 H 0.66820(51) -0.08950(15) 0.68158(64)
H2 H 0.78595(51) -0.08996(15) 0.55750(64)
O2 O 0.71176(37) -0.17299(9) 0.44649(41)
C2 C 0.63248(52) -0.13311(13) 0.48341(59)
H3 H 0.54571(52) -0.13778(13) 0.52738(59)
O3 O 0.52888(29) -0.13469(9) 0.21730(38)
C3 C 0.60910(45) -0.10725(13) 0.32341(55)
H4 H 0.69479(45) -0.09993(13) 0.28077(55)
O4 O 0.56976(38) -0.03475(11) 0.47098(48)
H5 H 0.6617(63) -0.0201(18) 0.4777(87)
C4 C 0.52609(49) -0.06409(13) 0.34511(53)
H6 H 0.44150(49) -0.07453(13) 0.38269(53)
N1 N 0.63858(51) -0.03110(16) 0.10129(67)
C5 C 0.50699(45) -0.03874(14) 0.18267(55)
H7 H 0.45112(45) -0.05832(14) 0.11819(55)
C6 C 0.44170(48) 0.00833(14) 0.19783(57)
H8 H 0.48501(48) 0.02667(14) 0.27939(57)
O5 O 0.44615(30) 0.02729(9) 0.03313(39)
C7 C 0.29875(42) 0.00494(15) 0.24803(67)
H9 H 0.29389(42) -0.00487(15) 0.35983(67)
H10 H 0.25395(42) -0.01700(15) 0.17996(67)
O6 O 0.25397(32) 0.07007(10) 0.06995(41)
C8 C 0.23522(51) 0.05146(14) 0.23136(70)
H11 H 0.27274(51) 0.07199(14) 0.31076(70)
H12 H 0.14219(51) 0.04851(14) 0.25058(70)
C9 C 0.38919(46) 0.07198(14) 0.03152(61)
H13 H 0.43338(46) 0.09074(14) 0.11112(61)
C10 C 0.78431(56) -0.18561(15) 0.58992(64)
C11 C 0.92501(45) -0.19504(19) 0.54230(83)
H14 H 0.98083(45) -0.19850(19) 0.63618(83)
H15 H 0.95466(45) -0.16928(19) 0.47843(83)
H16 H 0.92870(45) -0.22259(19) 0.47742(83)
C12 C 0.72003(58) -0.22595(18) 0.67219(73)
H17 H 0.77517(58) -0.22903(18) 0.76686(73)
H18 H 0.72822(58) -0.25303(18) 0.60549(73)
H19 H 0.62987(58) -0.22238(18) 0.70573(73)
C13 C 0.59812(46) -0.16401(15) 0.10723(69)
H20 H 0.66149(46) -0.14641(15) 0.04635(69)
H21 H 0.64264(46) -0.18782(15) 0.16722(69)
C14 C 0.49795(46) -0.18527(14) -0.00628(53)
C15 C 0.47239(48) -0.23119(15) -0.00345(62)
H22 H 0.51818(48) -0.25043(15) 0.07331(62)
C16 C 0.38328(54) -0.25029(16) -0.10629(77)
H23 H 0.36786(54) -0.28295(16) -0.10361(77)
C17 C 0.31486(50) -0.22327(18) -0.21508(67)
H24 H 0.25015(50) -0.23677(18) -0.28607(67)
C18 C 0.33912(49) -0.17691(17) -0.22321(67)
H25 H 0.29210(49) -0.15758(17) -0.29851(67)
C19 C 0.43235(48) -0.15810(15) -0.11683(73)
H26 H 0.45171(48) -0.12572(15) -0.12176(73)
O7 O 0.71800(37) -0.00849(13) 0.17642(68)
O8 O 0.65645(50) -0.04853(14) -0.03150(62)
C20 C 0.40347(47) 0.09142(14) -0.14281(62)
C21 C 0.32496(52) 0.12764(14) -0.18801(67)
H27 H 0.25724(52) 0.13895(14) -0.11651(67)
C22 C 0.34334(59) 0.14735(16) -0.34103(74)
H28 H 0.29051(59) 0.17313(16) -0.37474(74)
C23 C 0.43899(57) 0.13099(17) -0.44265(73)
H29 H 0.45146(57) 0.14496(17) -0.54780(73)
C24 C 0.51701(58) 0.09453(16) -0.39758(69)
H30 H 0.58288(58) 0.08307(16) -0.47136(69)
C25 C 0.49865(56) 0.07416(16) -0.24209(69)
H31 H 0.55268(56) 0.04869(16) -0.20831(69)
#END
