
#######################################################################
#
#                 Cambridge Crystallographic Data Centre
#                                CCDC
#
#######################################################################
#
# If this CIF has been generated from an entry in the Cambridge
# Structural Database, then it will include bibliographic, chemical,
# crystal, experimental, refinement or atomic coordinate data resulting
# from the CCDC's data processing and validation procedures.
#
#######################################################################

data_CSD_CIF_HNFMNO
_audit_creation_date 1978-09-01
_audit_creation_method CSD-ConQuest-V1
_database_code_CSD HNFMNO
_database_code_depnum_ccdc_archive 'CCDC 1177290'
_chemical_formula_sum 'C15 H11 N1 O4'
_chemical_formula_moiety
;
C15 H11 N1 O4
;
_journal_coden_Cambridge 189
_journal_volume 7
_journal_year 1978
_journal_page_first 211
_journal_name_full 'Cryst.Struct.Commun. '
loop_
_publ_author_name
"A.Carpy"
"J.M.Leger"
"A.Nuhrich"
_chemical_name_systematic
;
3,4-Dihydro-2-((5-nitro-2-furanyl)methylene)-naphthalen-1(2H)-one
;
_cell_volume    626.944
_diffrn_ambient_temperature ?
_diffrn_special_details
;
The study was carried out at room temperature,in the range 283-303K

;
#These two values have been output from a single CSD field.
_refine_ls_R_factor_gt 0.041
_refine_ls_wR_factor_gt 0.041
_symmetry_cell_setting triclinic
_symmetry_space_group_name_H-M 'P -1'
_symmetry_Int_Tables_number 2
loop_
_symmetry_equiv_pos_site_id
_symmetry_equiv_pos_as_xyz
1 x,y,z
2 -x,-y,-z
_cell_length_a 7.122(2)
_cell_length_b 13.375(2)
_cell_length_c 7.142(3)
_cell_angle_alpha 93.82(2)
_cell_angle_beta 109.81(3)
_cell_angle_gamma 98.99(2)
_cell_formula_units_Z 2
loop_
_atom_type_symbol
_atom_type_radius_bond
C 0.68
H 0.23
N 0.68
O 0.68
loop_
_atom_site_label
_atom_site_type_symbol
_atom_site_fract_x
_atom_site_fract_y
_atom_site_fract_z
C1 C 0.08520 -0.28520 -0.26980
C2 C -0.04040 -0.38060 -0.30670
C3 C 0.04140 -0.46110 -0.21800
C4 C 0.24380 -0.44670 -0.09560
C5 C 0.36990 -0.35220 -0.06200
C6 C 0.29020 -0.27190 -0.14960
C7 C 0.00390 -0.19730 -0.35910
O1 O 0.11790 -0.11730 -0.34950
C8 C -0.22110 -0.20790 -0.45960
C9 C -0.28340 -0.12940 -0.55440
C10 C -0.48450 -0.11390 -0.66430
C11 C -0.53870 -0.03230 -0.76270
C12 C -0.75330 -0.05240 -0.84730
C13 C -0.81190 -0.14340 -0.79400
O2 O -0.65470 -0.18350 -0.68300
N1 N -1.00860 -0.20360 -0.84590
O3 O -1.02690 -0.28750 -0.78850
O4 O -1.15160 -0.16640 -0.94760
C14 C -0.35180 -0.30320 -0.43840
C15 C -0.25870 -0.39590 -0.44700
H1 H -0.04700 -0.53000 -0.24200
H2 H 0.29700 -0.50500 -0.03100
H3 H 0.51900 -0.34200 0.02600
H4 H 0.38200 -0.20300 -0.12600
H5 H -0.17400 -0.07200 -0.55000
H6 H -0.44300 0.02800 -0.77200
H7 H -0.84300 -0.00900 -0.93000
H8 H -0.48900 -0.31600 -0.54300
H9 H -0.36800 -0.29400 -0.29700
H10 H -0.26700 -0.41100 -0.59800
H11 H -0.34000 -0.45600 -0.41200
#END
