
#######################################################################
#
#                 Cambridge Crystallographic Data Centre
#                                CCDC
#
#######################################################################
#
# If this CIF has been generated from an entry in the Cambridge
# Structural Database, then it will include bibliographic, chemical,
# crystal, experimental, refinement or atomic coordinate data resulting
# from the CCDC's data processing and validation procedures.
#
#######################################################################

data_CSD_CIF_HODKAN
_audit_creation_date 2008-10-15
_audit_creation_method CSD-ConQuest-V1
_database_code_CSD HODKAN
_database_code_depnum_ccdc_archive 'CCDC 696508'
_chemical_formula_sum 'C11 H14 N4 O4'
_chemical_formula_moiety
;
C11 H14 N4 O4
;
_journal_coeditor_code "IUCr XU2428"
_journal_coden_Cambridge 1370
_journal_volume 64
_journal_year 2008
_journal_page_first o1229
_journal_name_full 'Acta Crystallogr.,Sect.E:Struct.Rep.Online '
loop_
_publ_author_name
"Lu-Feng Xu"
"Shang Shan"
"Wen-Long Wang"
"Shan-Heng Wang"
_chemical_name_systematic
;
3-Pentanone 2,4-dinitrophenylhydrazone
;
_cell_volume   1303.958
_exptl_crystal_colour 'red'
_exptl_crystal_density_diffrn 1.356
_exptl_crystal_description 'prism'
_exptl_crystal_preparation 'absolute ethanol'
_diffrn_ambient_temperature 294
#These two values have been output from a single CSD field.
_refine_ls_R_factor_gt 0.0433
_refine_ls_wR_factor_gt 0.0433
_symmetry_cell_setting monoclinic
_symmetry_space_group_name_H-M 'P 21/c'
_symmetry_Int_Tables_number 14
loop_
_symmetry_equiv_pos_site_id
_symmetry_equiv_pos_as_xyz
1 x,y,z
2 -x,1/2+y,1/2-z
3 -x,-y,-z
4 x,-1/2-y,-1/2+z
_cell_length_a 12.5298(15)
_cell_length_b 14.089(2)
_cell_length_c 7.3983(8)
_cell_angle_alpha 90
_cell_angle_beta 93.235(12)
_cell_angle_gamma 90
_cell_formula_units_Z 4
loop_
_atom_type_symbol
_atom_type_radius_bond
C 0.68
H 0.23
N 0.68
O 0.68
loop_
_atom_site_label
_atom_site_type_symbol
_atom_site_fract_x
_atom_site_fract_y
_atom_site_fract_z
N1 N 0.49005(19) 0.29067(16) 0.0607(3)
N2 N 0.79233(17) 0.4911(2) 0.2228(3)
N3 N 0.35067(15) 0.43228(17) 0.2123(3)
N4 N 0.28589(14) 0.50533(14) 0.2635(2)
O1 O 0.39384(16) 0.27125(13) 0.0591(3)
O2 O 0.55348(16) 0.23773(14) -0.0069(3)
O3 O 0.84951(15) 0.42733(18) 0.1731(3)
O4 O 0.82618(14) 0.56837(18) 0.2750(3)
C1 C 0.45801(16) 0.44522(16) 0.2116(2)
C2 C 0.52770(16) 0.37825(16) 0.1427(2)
C3 C 0.63704(17) 0.39319(17) 0.1474(3)
H1 H 0.68230 0.34780 0.10190
C4 C 0.67726(16) 0.47555(18) 0.2196(3)
C5 C 0.61123(17) 0.54410(17) 0.2870(3)
H2 H 0.64020 0.60000 0.33520
C6 C 0.50387(17) 0.52968(16) 0.2827(3)
H3 H 0.45990 0.57630 0.32750
C7 C 0.18529(19) 0.4892(2) 0.2520(3)
C8 C 0.11384(19) 0.5688(2) 0.3035(4)
H4 H 0.06150 0.57960 0.20400
H5 H 0.07520 0.54850 0.40680
C9 C 0.1670(2) 0.6608(2) 0.3497(4)
H6 H 0.22040 0.65130 0.44620
H7 H 0.11480 0.70540 0.38740
H8 H 0.20010 0.68510 0.24530
C10 C 0.1317(2) 0.3981(2) 0.1833(4)
H9 H 0.05930 0.41230 0.13800
H10 H 0.17030 0.37330 0.08360
C11 C 0.1285(3) 0.3250(3) 0.3265(4)
H11 H 0.20020 0.30820 0.36700
H12 H 0.09200 0.26970 0.27880
H13 H 0.09140 0.34960 0.42640
H14 H 0.3286(18) 0.3785(18) 0.167(3)
#END
