
#######################################################################
#
#                 Cambridge Crystallographic Data Centre
#                                CCDC
#
#######################################################################
#
# If this CIF has been generated from an entry in the Cambridge
# Structural Database, then it will include bibliographic, chemical,
# crystal, experimental, refinement or atomic coordinate data resulting
# from the CCDC's data processing and validation procedures.
#
#######################################################################

data_CSD_CIF_HOFMIZ
_audit_creation_date 2008-10-15
_audit_creation_method CSD-ConQuest-V1
_database_code_CSD HOFMIZ
_database_code_depnum_ccdc_archive 'CCDC 702522'
_chemical_formula_sum 'C14 H8 N2 O5'
_chemical_formula_moiety
;
C14 H8 N2 O5
;
_journal_coeditor_code "IUCr LH2681"
_journal_coden_Cambridge 1370
_journal_volume 64
_journal_year 2008
_journal_page_first o1770
_journal_name_full 'Acta Crystallogr.,Sect.E:Struct.Rep.Online '
loop_
_publ_author_name
"S.Mansor"
"N.Zakaria"
"A.Ariffin"
"S.W.Ng"
_chemical_name_systematic
;
N-(2-Hydroxyphenyl)-4-nitrophthalimide
;
_cell_volume   1215.654
_exptl_crystal_colour 'yellow'
_exptl_crystal_density_diffrn 1.553
_exptl_crystal_description 'Prism'
_exptl_crystal_preparation 'chloroform'
_diffrn_ambient_temperature 100
_refine_special_details
;
The hydroxy group is disordered over two sites with occupancies 0.571:0.429.

;
#These two values have been output from a single CSD field.
_refine_ls_R_factor_gt 0.0494
_refine_ls_wR_factor_gt 0.0494
_symmetry_cell_setting orthorhombic
_symmetry_space_group_name_H-M 'P 21 21 21'
_symmetry_Int_Tables_number 19
loop_
_symmetry_equiv_pos_site_id
_symmetry_equiv_pos_as_xyz
1 x,y,z
2 1/2-x,-y,1/2+z
3 -x,1/2+y,1/2-z
4 1/2+x,1/2-y,-z
_cell_length_a 7.1114(2)
_cell_length_b 11.7646(3)
_cell_length_c 14.5304(4)
_cell_angle_alpha 90
_cell_angle_beta 90
_cell_angle_gamma 90
_cell_formula_units_Z 4
loop_
_atom_type_symbol
_atom_type_radius_bond
C 0.68
H 0.23
N 0.68
O 0.68
loop_
_atom_site_label
_atom_site_type_symbol
_atom_site_fract_x
_atom_site_fract_y
_atom_site_fract_z
O1 O 0.3544(4) 0.2939(3) 0.8037(3)
H1 H 0.24900 0.30650 0.77970
O2? O 0.8498(5) 0.4876(3) 0.9237(4)
H2? H 0.91400 0.42840 0.91620
O3 O 0.4761(4) 0.1944(2) 0.97117(17)
O4 O 0.9695(3) 0.3018(2) 0.78879(18)
O5 O 1.3585(4) -0.0916(2) 0.8641(2)
O6 O 1.1873(5) -0.2264(2) 0.9238(2)
N1 N 0.7000(4) 0.2751(2) 0.87514(18)
N2 N 1.2106(5) -0.1285(3) 0.8959(2)
C1 C 0.4328(5) 0.3850(3) 0.8206(2)
H3? H 0.36760 0.31630 0.80800
C2 C 0.3486(7) 0.4888(4) 0.8022(3)
H4 H 0.22300 0.49150 0.78000
C3 C 0.4465(8) 0.5871(4) 0.8161(3)
H5 H 0.39040 0.65780 0.80060
C4 C 0.6260(9) 0.5852(3) 0.8525(3)
H6 H 0.69310 0.65420 0.86160
C5 C 0.7071(6) 0.4825(3) 0.8755(3)
H7 H 0.82760 0.48060 0.90370
C6 C 0.6120(5) 0.3820(3) 0.8574(2)
C7 C 0.6224(5) 0.1884(3) 0.9290(2)
C8 C 0.7584(5) 0.0922(3) 0.9252(2)
C9 C 0.7433(5) -0.0146(3) 0.9637(2)
H8 H 0.63480 -0.03710 0.99720
C10 C 0.8946(5) -0.0877(3) 0.9510(2)
H9 H 0.89150 -0.16250 0.97560
C11 C 1.0478(5) -0.0508(3) 0.9029(2)
C12 C 1.0651(5) 0.0568(3) 0.8618(2)
H10 H 1.17330 0.07930 0.82810
C13 C 0.9122(4) 0.1269(3) 0.8746(2)
C14 C 0.8758(4) 0.2439(3) 0.8398(2)
#END
