
#######################################################################
#
#                 Cambridge Crystallographic Data Centre
#                                CCDC
#
#######################################################################
#
# If this CIF has been generated from an entry in the Cambridge
# Structural Database, then it will include bibliographic, chemical,
# crystal, experimental, refinement or atomic coordinate data resulting
# from the CCDC's data processing and validation procedures.
#
#######################################################################

data_CSD_CIF_HUCZOV
_audit_creation_date 2009-10-28
_audit_creation_method CSD-ConQuest-V1
_database_code_CSD HUCZOV
_database_code_depnum_ccdc_archive 'CCDC 747251'
_chemical_formula_sum 'C16 H15 N3 O2'
_chemical_formula_moiety
;
C16 H15 N3 O2
;
_journal_coeditor_code "IUCr XU2579"
_journal_coden_Cambridge 1370
_journal_volume 65
_journal_year 2009
_journal_page_first o2156
_journal_name_full 'Acta Crystallogr.,Sect.E:Struct.Rep.Online '
loop_
_publ_author_name
"Jun-qiang Chen"
"He-ping Li"
"Chang-shan Huang"
"Jin-ying Wu"
_chemical_name_systematic
;
3-Methyl-1-(3-nitrophenyl)-5-phenyl-4,5-dihydro-1H-pyrazole
;
_cell_volume   1458.184
_exptl_crystal_colour 'red'
_exptl_crystal_density_diffrn 1.281
_exptl_crystal_description 'plate'
_exptl_crystal_preparation 'methanol'
_diffrn_ambient_temperature 296
#These two values have been output from a single CSD field.
_refine_ls_R_factor_gt 0.0465
_refine_ls_wR_factor_gt 0.0465
_symmetry_cell_setting monoclinic
_symmetry_space_group_name_H-M 'P 21/n'
_symmetry_Int_Tables_number 14
loop_
_symmetry_equiv_pos_site_id
_symmetry_equiv_pos_as_xyz
1 x,y,z
2 1/2-x,1/2+y,1/2-z
3 -x,-y,-z
4 -1/2+x,-1/2-y,-1/2+z
_cell_length_a 12.0173(4)
_cell_length_b 7.9324(2)
_cell_length_c 15.4944(5)
_cell_angle_alpha 90
_cell_angle_beta 99.160(2)
_cell_angle_gamma 90
_cell_formula_units_Z 4
loop_
_atom_type_symbol
_atom_type_radius_bond
C 0.68
H 0.23
N 0.68
O 0.68
loop_
_atom_site_label
_atom_site_type_symbol
_atom_site_fract_x
_atom_site_fract_y
_atom_site_fract_z
C1 C 0.40009(13) 0.17187(19) 0.06087(10)
N1 N 0.29773(12) 0.18897(16) 0.00749(10)
C2 C 0.54447(14) 0.00161(19) 0.1396(1)
C3 C 0.24060(14) 0.3481(2) -0.02008(11)
H1 H 0.28790 0.41560 -0.05290
C4 C 0.44095(13) 0.01314(19) 0.08743(10)
H2 H 0.39910 -0.08320 0.07030
N2 N 0.23515(12) 0.04742(18) -0.02230(9)
C5 C 0.46581(14) 0.3125(2) 0.08824(11)
H3 H 0.43950 0.41970 0.07140
C6 C 0.21138(13) 0.4493(2) 0.05545(11)
C7 C 0.56934(14) 0.2941(2) 0.13993(12)
H4 H 0.61210 0.38950 0.15720
N3 N 0.58488(14) -0.1672(2) 0.16800(11)
C8 C 0.21969(14) 0.6221(2) 0.05691(13)
H5 H 0.24560 0.67770 0.01110
O1 O 0.67543(13) -0.17917(18) 0.21576(11)
C9 C 0.61085(14) 0.1383(2) 0.16652(11)
H6 H 0.68090 0.12590 0.20130
O2 O 0.52813(13) -0.28871(17) 0.14279(11)
C10 C 0.17261(15) 0.3710(3) 0.12393(13)
H7 H 0.16640 0.25420 0.12410
C11 C 0.13676(16) 0.2830(2) -0.08217(13)
H8 H 0.06750 0.32400 -0.06490
H9 H 0.13910 0.31680 -0.14200
C12 C 0.14648(15) 0.0972(2) -0.07219(12)
C13 C 0.14288(17) 0.4619(3) 0.19199(14)
H10 H 0.11660 0.40650 0.23770
C14 C 0.19016(16) 0.7141(3) 0.12524(16)
H11 H 0.19630 0.83100 0.12550
C15 C 0.15175(17) 0.6329(4) 0.19279(14)
H12 H 0.13180 0.69450 0.23910
C16 C 0.06227(18) -0.0247(3) -0.11675(16)
H13 H 0.08560 -0.13750 -0.10020
H14 H 0.05670 -0.01240 -0.17890
H15 H -0.00980 -0.00290 -0.09990
#END
