
#######################################################################
#
#                 Cambridge Crystallographic Data Centre
#                                CCDC
#
#######################################################################
#
# If this CIF has been generated from an entry in the Cambridge
# Structural Database, then it will include bibliographic, chemical,
# crystal, experimental, refinement or atomic coordinate data resulting
# from the CCDC's data processing and validation procedures.
#
#######################################################################

data_CSD_CIF_HURBUR01
_audit_creation_date 2005-06-30
_audit_creation_method CSD-ConQuest-V1
_database_code_CSD HURBUR01
_database_code_depnum_ccdc_archive 'CCDC 256200'
_chemical_formula_sum 'C11 H12 N4 O3'
_chemical_formula_moiety
;
C11 H12 N4 O3
;
_journal_coden_Cambridge 1078
_journal_year 2004
_journal_name_full 'CSD Communication(Private Communication) '
loop_
_publ_author_name
"H.Napolitano"
_chemical_name_systematic
;
4-Amino-3-((E)-4-nitrophenylazo)pent-3-en-2-one
;
_chemical_melting_point 471.15
_cell_volume   1179.866
_exptl_crystal_colour 'red'
_exptl_crystal_density_diffrn 1.398
_exptl_special_details
;
Melting point range 471.15-472.15K
contribution from Ciencias Exatas e Technologicas, Universidade Estadual de 
Goias, BR 153 Km 18, 75001-970, Anapolis-GO, Brazil
;
_exptl_crystal_description 'prism'
_diffrn_ambient_temperature 293
#These two values have been output from a single CSD field.
_refine_ls_R_factor_gt 0.0426
_refine_ls_wR_factor_gt 0.0426
_symmetry_cell_setting monoclinic
_symmetry_space_group_name_H-M 'P 21/c'
_symmetry_Int_Tables_number 14
loop_
_symmetry_equiv_pos_site_id
_symmetry_equiv_pos_as_xyz
1 x,y,z
2 -x,1/2+y,1/2-z
3 -x,-y,-z
4 x,-1/2-y,-1/2+z
_cell_length_a 10.745(2)
_cell_length_b 8.670(2)
_cell_length_c 12.747(3)
_cell_angle_alpha 90
_cell_angle_beta 96.50(3)
_cell_angle_gamma 90
_cell_formula_units_Z 4
loop_
_atom_type_symbol
_atom_type_radius_bond
C 0.68
H 0.23
N 0.68
O 0.68
loop_
_atom_site_label
_atom_site_type_symbol
_atom_site_fract_x
_atom_site_fract_y
_atom_site_fract_z
O1 O 0.0672(2) -0.2161(3) -0.19885(16)
O2 O 0.7614(2) 0.5096(3) 0.01099(18)
O3 O 0.7420(2) 0.5425(3) 0.17609(18)
N1 N 0.1390(2) -0.1148(3) 0.12449(19)
H1 H 0.099(3) -0.168(4) 0.176(2)
H2 H 0.201(3) -0.045(4) 0.138(2)
N2 N 0.2620(2) 0.0296(3) -0.03802(17)
N3 N 0.3051(2) 0.0675(3) 0.05723(17)
N4 N 0.7110(2) 0.4812(3) 0.0902(2)
C1 C 0.1847(4) -0.0018(4) -0.2470(2)
H3 H 0.15590 -0.03630 -0.31710
H4 H 0.27460 -0.00390 -0.23680
H5 H 0.15590 0.10150 -0.23750
H6? H 0.23500 0.07720 -0.21050
H7? H 0.11640 0.04480 -0.29080
H8? H 0.23500 -0.06060 -0.29010
C2 C 0.1340(3) -0.1066(4) -0.1679(2)
C3 C 0.1669(2) -0.0742(3) -0.0551(2)
C4 C 0.1052(2) -0.1482(3) 0.0247(2)
C5 C 0.0011(3) -0.2620(3) 0.0031(2)
H9 H -0.02550 -0.29610 0.06860
H10 H 0.02990 -0.34880 -0.03420
H11 H -0.06790 -0.21410 -0.03910
H12? H -0.01680 -0.27660 -0.07180
H13? H -0.07220 -0.22390 0.03100
H14? H 0.02560 -0.35860 0.03600
C6 C 0.4080(2) 0.1701(3) 0.0604(2)
C7 C 0.4696(3) 0.2072(3) -0.0270(2)
H15 H 0.44280 0.16400 -0.09240
C8 C 0.5697(3) 0.3072(3) -0.0169(2)
H16 H 0.61110 0.33160 -0.07500
C9 C 0.6078(2) 0.3707(3) 0.0809(2)
C10 C 0.5487(3) 0.3361(4) 0.1691(2)
H17 H 0.57530 0.38040 0.23420
C11 C 0.4496(3) 0.2345(4) 0.1581(2)
H18 H 0.41000 0.20850 0.21680
#END
