
#######################################################################
#
#                 Cambridge Crystallographic Data Centre
#                                CCDC
#
#######################################################################
#
# If this CIF has been generated from an entry in the Cambridge
# Structural Database, then it will include bibliographic, chemical,
# crystal, experimental, refinement or atomic coordinate data resulting
# from the CCDC's data processing and validation procedures.
#
#######################################################################

data_CSD_CIF_HUYJES
_audit_creation_date 2015-11-13
_audit_creation_method CSD-ConQuest-V1
_database_code_CSD HUYJES
_database_code_depnum_ccdc_archive 'CCDC 1046127'
_chemical_formula_sum 'C11 H6 N4 O4'
_chemical_formula_moiety
;
C11 H6 N4 O4
;
_journal_coden_Cambridge 24
_journal_volume 56
_journal_year 2015
_journal_page_first 5701
_journal_name_full 'Tetrahedron Lett. '
loop_
_publ_author_name
"R.S.Begunov"
"A.A.Sokolov"
"V.O.Belova"
"A.N.Fakhrutdinov"
"A.S.Shashkov"
"I.V.Fedyanin"
_chemical_name_systematic
;
7,8-dinitropyrido[1,2-a]benzimidazole
;
_cell_volume   1056.587
_exptl_crystal_density_diffrn 1.623
_exptl_crystal_description 'plate'
_diffrn_ambient_temperature 120
#These two values have been output from a single CSD field.
_refine_ls_R_factor_gt 0.042
_refine_ls_wR_factor_gt 0.042
_symmetry_cell_setting monoclinic
_symmetry_space_group_name_H-M 'P 21/n'
_symmetry_Int_Tables_number 14
loop_
_symmetry_equiv_pos_site_id
_symmetry_equiv_pos_as_xyz
1 x,y,z
2 1/2-x,1/2+y,1/2-z
3 -x,-y,-z
4 -1/2+x,-1/2-y,-1/2+z
_cell_length_a 5.7051(3)
_cell_length_b 8.2034(4)
_cell_length_c 22.5761(12)
_cell_angle_alpha 90
_cell_angle_beta 90.122(1)
_cell_angle_gamma 90
_cell_formula_units_Z 4
loop_
_atom_type_symbol
_atom_type_radius_bond
C 0.68
H 0.23
N 0.68
O 0.68
loop_
_atom_site_label
_atom_site_type_symbol
_atom_site_fract_x
_atom_site_fract_y
_atom_site_fract_z
O1 O 0.81976(18) 0.93024(12) 0.15915(4)
O2 O 0.92899(17) 0.67774(13) 0.16888(4)
O3 O 1.37722(17) 0.73726(13) 0.13392(4)
O4 O 1.42343(18) 0.52165(13) 0.07920(5)
N1 N 0.89549(19) 0.80136(14) 0.13947(5)
N2 N 1.32276(18) 0.64981(14) 0.09201(5)
N3 N 0.65875(19) 0.88855(14) -0.06756(5)
N4 N 0.97192(19) 0.74991(14) -0.10477(5)
C1 C 1.1136(2) 0.68730(17) -0.14841(6)
H1 H 1.25390 0.63110 -0.13860
C2 C 1.0489(3) 0.70738(18) -0.20570(6)
H2 H 1.14450 0.66520 -0.23650
C3 C 0.8381(3) 0.79152(19) -0.21984(6)
H3 H 0.79400 0.80390 -0.26020
C4 C 0.6977(2) 0.85488(18) -0.17663(6)
H4 H 0.55720 0.91080 -0.18660
C5 C 0.7653(2) 0.83562(16) -0.11676(6)
C6 C 0.7998(2) 0.83584(16) -0.02230(5)
C7 C 0.7725(2) 0.85984(15) 0.03885(5)
H5 H 0.64430 0.92020 0.05430
C8 C 0.9398(2) 0.79199(15) 0.07542(5)
C9 C 1.1332(2) 0.70398(15) 0.05317(6)
C10 C 1.1655(2) 0.68090(15) -0.00693(5)
H6 H 1.29600 0.62270 -0.02220
C11 C 0.9954(2) 0.74800(15) -0.04361(5)
#END
