
#######################################################################
#
#                 Cambridge Crystallographic Data Centre
#                                CCDC
#
#######################################################################
#
# If this CIF has been generated from an entry in the Cambridge
# Structural Database, then it will include bibliographic, chemical,
# crystal, experimental, refinement or atomic coordinate data resulting
# from the CCDC's data processing and validation procedures.
#
#######################################################################

data_CSD_CIF_HUZYEG
_audit_creation_date 2003-08-21
_audit_creation_method CSD-ConQuest-V1
_database_code_CSD HUZYEG
_chemical_formula_sum 'C23 H32 N6 O3'
_chemical_formula_moiety
;
C23 H32 N6 O3
;
_journal_coden_Cambridge 35
_journal_volume 68
_journal_year 2003
_journal_page_first 183
_journal_name_full 'J.Org.Chem. '
loop_
_publ_author_name
"Yongping Yu"
"J.M.Ostresh"
"R.A.Houghten"
_chemical_name_systematic
;
1-((1S)-1-Benzyl-2-(1-((1R)-1-benzyl-2-(1-methyl-2-oxohydrazino)ethyl)-2-oxohy
drazino)ethyl)-1-isobutyl-2-oxohydrazine
;
_chemical_name_common
;
N-(1-benzyl-2-[methyl(nitroso)amino]ethyl)-N'-isobutyl-N,N'-dinitroso-3-phenyl
propane-1,2-diamine
;
_cell_volume   1218.392
_exptl_crystal_density_diffrn 1.201
_exptl_crystal_preparation 'acetonitrile/methanol'
_diffrn_ambient_temperature 296
#These two values have been output from a single CSD field.
_refine_ls_R_factor_gt 0.0537
_refine_ls_wR_factor_gt 0.0537
_symmetry_cell_setting monoclinic
_symmetry_space_group_name_H-M 'P 21'
_symmetry_Int_Tables_number 4
loop_
_symmetry_equiv_pos_site_id
_symmetry_equiv_pos_as_xyz
1 x,y,z
2 -x,1/2+y,-z
_cell_length_a 6.1740(6)
_cell_length_b 20.897(2)
_cell_length_c 9.8368(10)
_cell_angle_alpha 90
_cell_angle_beta 106.255(2)
_cell_angle_gamma 90
_cell_formula_units_Z 2
loop_
_atom_type_symbol
_atom_type_radius_bond
C 0.68
H 0.23
N 0.68
O 0.68
loop_
_atom_site_label
_atom_site_type_symbol
_atom_site_fract_x
_atom_site_fract_y
_atom_site_fract_z
O1 O -0.1866(4) 0.3437(2) 0.4992(2)
O2 O 0.1873(8) 0.5423(2) 0.3386(4)
O3 O 0.4785(5) 0.3212(2) 1.0160(3)
N1 N 0.0922(4) 0.3402(1) 0.4102(2)
N2 N -0.1249(5) 0.3507(2) 0.3912(3)
N3 N 0.2034(5) 0.4532(1) 0.2433(3)
N4 N 0.0825(8) 0.4944(2) 0.2902(4)
N5 N 0.4328(4) 0.3326(1) 0.7917(2)
N6 N 0.3580(5) 0.3426(2) 0.9035(2)
C1 C 0.3230(7) 0.1860(2) 0.3014(5)
C2 C 0.3766(12) 0.1330(3) 0.3861(8)
C3 C 0.2357(15) 0.1097(3) 0.4560(6)
C4 C 0.0297(12) 0.1382(3) 0.4380(5)
C5 C -0.0270(7) 0.1905(2) 0.3500(4)
C6 C 0.1208(6) 0.2160(2) 0.2825(3)
C7 C 0.0658(6) 0.2756(2) 0.1960(3)
C8 C 0.1595(5) 0.3366(2) 0.2767(3)
C9 C 0.0850(6) 0.3949(2) 0.1846(3)
C10 C 0.4363(8) 0.4638(2) 0.2441(5)
C11 C 0.7314(7) 0.4740(2) 0.8160(4)
C12 C 0.8055(8) 0.5177(2) 0.9250(4)
C13 C 0.6606(9) 0.5563(2) 0.9622(4)
C14 C 0.4302(9) 0.5534(2) 0.8912(5)
C15 C 0.3554(7) 0.5098(2) 0.7829(4)
C16 C 0.5021(6) 0.4699(2) 0.7434(3)
C17 C 0.4234(6) 0.4230(2) 0.6241(3)
C18 C 0.3013(5) 0.3646(1) 0.6636(2)
C19 C 0.2359(5) 0.3158(1) 0.5426(3)
C20 C 0.6520(5) 0.3030(2) 0.8023(3)
C21 C 0.6493(6) 0.2312(2) 0.7744(4)
C22 C 0.5402(10) 0.1914(3) 0.8523(9)
C23 C 0.8884(7) 0.2087(2) 0.7900(5)
H1 H 0.42590 0.20170 0.25640
H2 H 0.51390 0.11270 0.39540
H3 H 0.27730 0.07460 0.51590
H4 H -0.07080 0.12240 0.48480
H5 H -0.16850 0.20910 0.33590
H6 H -0.06690 0.27940 0.16050
H7 H 0.12520 0.27170 0.11490
H8 H 0.32450 0.33440 0.30180
H9 H 0.10850 0.38700 0.09260
H10 H -0.07550 0.40120 0.17060
H11 H 0.45030 0.50530 0.20580
H12 H 0.48070 0.43160 0.18750
H13 H 0.53180 0.46140 0.33950
H14 H 0.83450 0.44740 0.79090
H15 H 0.95840 0.52010 0.97260
H16 H 0.71260 0.58530 1.03580
H17 H 0.32890 0.58060 0.91670
H18 H 0.20220 0.50760 0.73590
H19 H 0.55260 0.40830 0.59510
H20 H 0.32210 0.44460 0.54400
H21 H 0.16190 0.37990 0.68170
H22 H 0.37290 0.29920 0.52580
H23 H 0.15930 0.28020 0.57270
H24 H 0.75010 0.31090 0.89670
H25 H 0.71840 0.32420 0.73590
H26 H 0.56720 0.22540 0.67430
H27 H 0.54500 0.14780 0.82270
H28 H 0.38600 0.20460 0.83510
H29 H 0.61600 0.19490 0.95150
H30 H 0.88580 0.16520 0.75870
H31 H 0.97440 0.21150 0.88760
H32 H 0.95640 0.23530 0.73370
#END
