
#######################################################################
#
#                 Cambridge Crystallographic Data Centre
#                                CCDC
#
#######################################################################
#
# If this CIF has been generated from an entry in the Cambridge
# Structural Database, then it will include bibliographic, chemical,
# crystal, experimental, refinement or atomic coordinate data resulting
# from the CCDC's data processing and validation procedures.
#
#######################################################################

data_CSD_CIF_HXOXAM10
_audit_creation_date 1980-12-11
_audit_creation_method CSD-ConQuest-V1
_database_code_CSD HXOXAM10
_database_code_depnum_ccdc_archive 'CCDC 1178979'
_chemical_formula_sum 'C2 H4 N2 O3'
_chemical_formula_moiety
;
C2 H4 N2 O3
;
_journal_coden_Cambridge 3
_journal_volume 34
_journal_year 1980
_journal_page_first 209
_journal_name_full 'Acta Chem.Scand. '
loop_
_publ_author_name
"I.K.Larsen"
_chemical_name_systematic
;
N-Hydroxyoxamide
;
_chemical_melting_point 415.15
_cell_volume    781.511
_exptl_crystal_density_diffrn 1.769
_exptl_special_details
;
monoclinic polymorph

;
_diffrn_ambient_temperature ?
_diffrn_special_details
;
The study was carried out at room temperature,in the range 283-303K

;
#These two values have been output from a single CSD field.
_refine_ls_R_factor_gt 0.045
_refine_ls_wR_factor_gt 0.045
_symmetry_cell_setting monoclinic
_symmetry_space_group_name_H-M 'C 2/c'
_symmetry_Int_Tables_number 15
loop_
_symmetry_equiv_pos_site_id
_symmetry_equiv_pos_as_xyz
1 x,y,z
2 1/2+x,1/2+y,z
3 -x,y,1/2-z
4 1/2-x,1/2+y,1/2-z
5 -x,-y,-z
6 -1/2-x,-1/2-y,-z
7 x,-y,-1/2+z
8 -1/2+x,-1/2-y,-1/2+z
_cell_length_a 15.619(7)
_cell_length_b 3.551(2)
_cell_length_c 14.238(8)
_cell_angle_alpha 90
_cell_angle_beta 98.25(5)
_cell_angle_gamma 90
_cell_formula_units_Z 8
loop_
_atom_type_symbol
_atom_type_radius_bond
C 0.68
H 0.23
N 0.68
O 0.68
loop_
_atom_site_label
_atom_site_type_symbol
_atom_site_fract_x
_atom_site_fract_y
_atom_site_fract_z
N1 N 0.60460 -0.25700 1.00120
C1 C 0.58290 -0.31630 0.90950
O1 O 0.51690 -0.48200 0.87250
C2 C 0.64780 -0.15630 0.84970
O2 O 0.71230 0.01720 0.88650
N2 N 0.62690 -0.22760 0.75800
O3 O 0.67490 -0.06980 0.69460
H1 H 0.65500 -0.14900 1.01800
H2 H 0.56600 -0.31700 1.04200
H3 H 0.57700 -0.34200 0.73500
H4 H 0.71300 -0.21300 0.68300
#END
