
#######################################################################
#
#                 Cambridge Crystallographic Data Centre
#                                CCDC
#
#######################################################################
#
# If this CIF has been generated from an entry in the Cambridge
# Structural Database, then it will include bibliographic, chemical,
# crystal, experimental, refinement or atomic coordinate data resulting
# from the CCDC's data processing and validation procedures.
#
#######################################################################

data_CSD_CIF_IBOGIS
_audit_creation_date 2017-01-04
_audit_creation_method CSD-ConQuest-V1
_database_code_CSD IBOGIS
_database_code_depnum_ccdc_archive 'CCDC 1525443'
_chemical_formula_sum 'C12 H15 N1 O6'
_chemical_formula_moiety
;
C12 H15 N1 O6
;
_journal_coden_Cambridge 1336
_journal_volume 19
_journal_year 2017
_journal_page_first 1358
_journal_name_full 'Org.Lett. '
loop_
_publ_author_name
"Chieh-Kai Chan"
"Yu-Lin Tsai"
"Meng-Yang Chang"
_chemical_name_systematic
;
4-(4,5-dimethoxy-2-nitrophenyl)-3-hydroxybutan-2-one
;
_cell_volume   1251.804
_exptl_crystal_colour 'colorless'
_exptl_crystal_density_diffrn 1.429
_diffrn_ambient_temperature 100
#These two values have been output from a single CSD field.
_refine_ls_R_factor_gt 0.0359
_refine_ls_wR_factor_gt 0.0359
_symmetry_cell_setting monoclinic
_symmetry_space_group_name_H-M 'P 21/n'
_symmetry_Int_Tables_number 14
loop_
_symmetry_equiv_pos_site_id
_symmetry_equiv_pos_as_xyz
1 x,y,z
2 1/2-x,1/2+y,1/2-z
3 -x,-y,-z
4 -1/2+x,-1/2-y,-1/2+z
_cell_length_a 13.8557(17)
_cell_length_b 4.7327(5)
_cell_length_c 19.297(2)
_cell_angle_alpha 90
_cell_angle_beta 98.406(4)
_cell_angle_gamma 90
_cell_formula_units_Z 4
loop_
_atom_type_symbol
_atom_type_radius_bond
C 0.68
H 0.23
N 0.68
O 0.68
loop_
_atom_site_label
_atom_site_type_symbol
_atom_site_fract_x
_atom_site_fract_y
_atom_site_fract_z
C1 C 0.63841(11) 0.1134(3) 0.02298(7)
H1 H 0.67790 0.25960 0.00460
H2 H 0.57370 0.18990 0.02700
H3 H 0.63150 -0.04880 -0.00890
C2 C 0.68745(10) 0.0211(3) 0.09379(7)
C3 C 0.65748(9) 0.1728(3) 0.15710(7)
H4 H 0.63860 0.37120 0.14350
C4 C 0.56696(9) 0.0155(3) 0.17538(7)
H5 H 0.51900 -0.00260 0.13230
H6 H 0.58680 -0.17770 0.19120
C5 C 0.51751(9) 0.1548(3) 0.23113(7)
C6 C 0.54418(9) 0.0599(3) 0.30001(7)
H7 H 0.59440 -0.07760 0.30920
C7 C 0.50001(10) 0.1592(3) 0.35517(7)
C8 C 0.42486(10) 0.3647(3) 0.34256(7)
C9 C 0.31254(10) 0.6622(3) 0.39033(8)
H8 H 0.33800 0.83030 0.36950
H9 H 0.29350 0.71140 0.43580
H10 H 0.25560 0.59110 0.35910
C10 C 0.5947(1) -0.1402(3) 0.43835(7)
H11 H 0.57730 -0.30790 0.40940
H12 H 0.59980 -0.19150 0.48800
H13 H 0.65750 -0.06600 0.42880
C11 C 0.44448(9) 0.3608(3) 0.22085(7)
C12 C 0.39779(9) 0.4636(3) 0.27553(7)
H14 H 0.34760 0.60110 0.26630
N1 N 0.41142(8) 0.4816(2) 0.15209(6)
O1 O 0.38632(7) 0.4486(2) 0.39993(5)
O2 O 0.52054(7) 0.0723(2) 0.42207(5)
O3 O 0.73401(6) 0.17928(18) 0.21425(5)
H15 H 0.74410 0.01530 0.23030
O4 O 0.74614(8) -0.1693(2) 0.10191(5)
O5 O 0.45671(7) 0.4295(2) 0.10308(5)
O6 O 0.33931(7) 0.6371(2) 0.14513(6)
#END
