
#######################################################################
#
#                 Cambridge Crystallographic Data Centre
#                                CCDC
#
#######################################################################
#
# If this CIF has been generated from an entry in the Cambridge
# Structural Database, then it will include bibliographic, chemical,
# crystal, experimental, refinement or atomic coordinate data resulting
# from the CCDC's data processing and validation procedures.
#
#######################################################################

data_CSD_CIF_ICUSUX
_audit_creation_date 2017-01-04
_audit_creation_method CSD-ConQuest-V1
_database_code_CSD ICUSUX
_database_code_depnum_ccdc_archive 'CCDC 1504789'
_chemical_formula_sum 'C20 H20 N4 O2'
_chemical_formula_moiety
;
C20 H20 N4 O2
;
_journal_coden_Cambridge 1500
_journal_volume 7
_journal_year 2017
_journal_page_first 1229
_journal_name_full 'RSC Advances '
loop_
_publ_author_name
"Yong Zhang"
"Biao-Wen Wei"
"Wen-Xin Wang"
"Lei-Ling Deng"
"Long-Jun Nie"
"Hai-Qing Luo"
"Xiao-Lin Fan"
_chemical_name_systematic
;
1-((3-methyl-4-nitro-1H-pyrazol-5-yl)methyl)-2-phenyl-1,2,3,4-tetrahydroisoqui
noline
;
_cell_volume    872.020
_exptl_crystal_colour 'colorless'
_exptl_crystal_density_diffrn 1.327
_exptl_crystal_description 'block'
_diffrn_ambient_temperature 296
#These two values have been output from a single CSD field.
_refine_ls_R_factor_gt 0.0504
_refine_ls_wR_factor_gt 0.0504
_symmetry_cell_setting triclinic
_symmetry_space_group_name_H-M 'P -1'
_symmetry_Int_Tables_number 2
loop_
_symmetry_equiv_pos_site_id
_symmetry_equiv_pos_as_xyz
1 x,y,z
2 -x,-y,-z
_cell_length_a 6.3993(3)
_cell_length_b 11.0228(5)
_cell_length_c 13.8844(9)
_cell_angle_alpha 106.376(5)
_cell_angle_beta 98.689(5)
_cell_angle_gamma 106.505(3)
_cell_formula_units_Z 2
loop_
_atom_type_symbol
_atom_type_radius_bond
C 0.68
H 0.23
N 0.68
O 0.68
loop_
_atom_site_label
_atom_site_type_symbol
_atom_site_fract_x
_atom_site_fract_y
_atom_site_fract_z
N1 N 0.3286(2) 0.15731(13) 0.76507(10)
N2 N 0.9803(3) 0.23817(17) 1.05869(14)
N3 N 0.7143(2) 0.48428(13) 1.06167(11)
N4 N 0.5516(2) 0.36537(13) 0.99874(11)
H1 H 0.41980 0.36020 0.96900
C1 C 0.4048(3) 0.20193(15) 0.68577(12)
C2 C 0.5346(3) 0.14731(16) 0.62704(13)
H2 H 0.56680 0.07320 0.63530
C3 C 0.6165(3) 0.2023(2) 0.55637(14)
H3 H 0.70580 0.16580 0.51860
C4 C 0.5674(4) 0.3104(2) 0.54125(15)
H4 H 0.62260 0.34700 0.49360
C5 C 0.4355(4) 0.3634(2) 0.59764(16)
H5 H 0.40070 0.43600 0.58760
C6 C 0.3543(3) 0.31061(18) 0.66872(14)
H6 H 0.26480 0.34770 0.70590
C7 C 0.0821(3) 0.09689(18) 0.74421(15)
H7 H 0.01190 0.15370 0.71990
H8 H 0.04200 0.09230 0.80810
C8 C -0.0067(3) -0.04329(19) 0.66366(17)
H9 H -0.16470 -0.08500 0.65950
H10 H 0.00570 -0.03690 0.59640
C9 C 0.1217(3) -0.13065(17) 0.68969(14)
C10 C 0.0285(3) -0.27099(18) 0.64872(15)
H11 H -0.11620 -0.31130 0.60530
C11 C 0.1444(4) -0.35078(19) 0.67077(16)
H12 H 0.07840 -0.44400 0.64240
C12 C 0.3587(3) -0.29315(17) 0.73494(14)
H13 H 0.43860 -0.34710 0.74950
C13 C 0.4542(3) -0.15466(16) 0.77755(13)
H14 H 0.59840 -0.11570 0.82140
C14 C 0.3370(3) -0.07208(15) 0.75570(12)
C15 C 0.4445(3) 0.07977(15) 0.80780(12)
H15 H 0.59810 0.10600 0.79890
C16 C 0.4613(3) 0.11879(15) 0.92537(12)
H16 H 0.31210 0.10910 0.93620
H17 H 0.51330 0.05630 0.95070
C17 C 0.6152(3) 0.25853(15) 0.98757(12)
C18 C 0.8353(3) 0.31165(15) 1.04752(12)
C19 C 0.8898(3) 0.45202(17) 1.09318(12)
C20 C 1.0983(3) 0.5577(2) 1.16546(14)
H18 H 1.09000 0.64490 1.17100
H19 H 1.22600 0.54840 1.13960
H20 H 1.11410 0.54830 1.23260
O1 O 1.1615(3) 0.29569(18) 1.12247(14)
O2 O 0.9220(3) 0.12050(17) 1.00114(16)
#END
