
#######################################################################
#
#                 Cambridge Crystallographic Data Centre
#                                CCDC
#
#######################################################################
#
# If this CIF has been generated from an entry in the Cambridge
# Structural Database, then it will include bibliographic, chemical,
# crystal, experimental, refinement or atomic coordinate data resulting
# from the CCDC's data processing and validation procedures.
#
#######################################################################

data_CSD_CIF_IDOGAL
_audit_creation_date 2013-08-06
_audit_creation_method CSD-ConQuest-V1
_database_code_CSD IDOGAL
_database_code_depnum_ccdc_archive 'CCDC 954280'
_chemical_formula_sum 'C21 H14 N4 O4'
_chemical_formula_moiety
;
C21 H14 N4 O4
;
_journal_coeditor_code "IUCr bt6891"
_journal_coden_Cambridge 1370
_journal_volume 69
_journal_year 2013
_journal_page_first o705
_journal_name_full 'Acta Crystallogr.,Sect.E:Struct.Rep.Online '
loop_
_publ_author_name
"J.de A.e Silva"
"C.Yuste-Vivas"
"A.J.F.N.Sobral"
"M.R.Silva"
_chemical_name_systematic
;
1-[(E)-Anthracen-9-ylmethylidene]-2-(2,4-dinitrophenyl)hydrazine
;
_cell_volume   1691.935
_exptl_crystal_colour 'colorless'
_exptl_crystal_density_diffrn 1.517
_exptl_crystal_description 'needle'
_diffrn_ambient_temperature 293
#These two values have been output from a single CSD field.
_refine_ls_R_factor_gt 0.0738
_refine_ls_wR_factor_gt 0.0738
_symmetry_cell_setting orthorhombic
_symmetry_space_group_name_H-M 'P 21 21 21'
_symmetry_Int_Tables_number 19
loop_
_symmetry_equiv_pos_site_id
_symmetry_equiv_pos_as_xyz
1 x,y,z
2 1/2-x,-y,1/2+z
3 1/2+x,1/2-y,-z
4 -x,1/2+y,1/2-z
_cell_length_a 5.6355(4)
_cell_length_b 8.1597(5)
_cell_length_c 36.794(2)
_cell_angle_alpha 90
_cell_angle_beta 90
_cell_angle_gamma 90
_cell_formula_units_Z 4
loop_
_atom_type_symbol
_atom_type_radius_bond
C 0.68
H 0.23
N 0.68
O 0.68
loop_
_atom_site_label
_atom_site_type_symbol
_atom_site_fract_x
_atom_site_fract_y
_atom_site_fract_z
O1 O 0.2253(10) 0.1891(7) 0.26020(13)
O2 O -0.0875(10) 0.1412(7) 0.22882(14)
O3 O -0.1033(8) 0.2666(5) 0.10426(11)
O4 O 0.1605(8) 0.4177(5) 0.07843(12)
N1 N 0.1114(12) 0.2008(7) 0.23234(16)
N2 N 0.0789(10) 0.3493(6) 0.10576(14)
N3 N 0.5138(9) 0.5396(6) 0.11586(14)
H1 H 0.44700 0.53850 0.09480
N4 N 0.7204(9) 0.6275(6) 0.12078(13)
C1 C 0.4148(10) 0.4550(7) 0.14367(16)
C2 C 0.2018(10) 0.3647(7) 0.13979(15)
C3 C 0.1020(12) 0.2848(7) 0.16947(17)
H2 H -0.03980 0.22750 0.16710
C4 C 0.2148(11) 0.2921(8) 0.20181(16)
C5 C 0.4246(11) 0.3756(8) 0.20701(17)
H3 H 0.49830 0.37710 0.22960
C6 C 0.5215(11) 0.4563(8) 0.17795(17)
H4 H 0.66260 0.51370 0.18110
C7 C 0.7784(10) 0.7172(7) 0.09321(16)
H5 H 0.67950 0.71360 0.07300
C8 C 0.9857(10) 0.8234(7) 0.09117(16)
C9 C 1.0328(10) 0.8946(7) 0.05641(16)
C10 C 0.8823(13) 0.8738(8) 0.02552(16)
H6 H 0.74770 0.80830 0.02740
C11 C 0.9330(12) 0.9482(8) -0.00647(18)
H7 H 0.82850 0.93550 -0.02580
C12 C 1.1380(13) 1.0440(8) -0.0115(2)
H8 H 1.17240 1.09050 -0.03390
C13 C 1.2834(13) 1.0664(7) 0.01730(19)
H9 H 1.41820 1.13090 0.01450
C14 C 1.2364(12) 0.9944(7) 0.05161(17)
C15 C 1.3859(11) 1.0226(7) 0.08107(18)
H10 H 1.52090 1.08620 0.07770
C16 C 1.134(1) 0.8580(7) 0.12098(15)
C17 C 1.3403(10) 0.9587(7) 0.11560(17)
C18 C 1.4973(12) 0.9911(8) 0.14472(18)
H11 H 1.63040 1.05600 0.14070
C19 C 1.4578(12) 0.9301(8) 0.1779(2)
H12 H 1.56530 0.94910 0.19660
C20 C 1.2511(12) 0.8366(8) 0.18424(18)
H13 H 1.22020 0.79700 0.20750
C21 C 1.0978(12) 0.8040(8) 0.15704(17)
H14 H 0.96230 0.74330 0.16220
#END
