
#######################################################################
#
#                 Cambridge Crystallographic Data Centre
#                                CCDC
#
#######################################################################
#
# If this CIF has been generated from an entry in the Cambridge
# Structural Database, then it will include bibliographic, chemical,
# crystal, experimental, refinement or atomic coordinate data resulting
# from the CCDC's data processing and validation procedures.
#
#######################################################################

data_CSD_CIF_IKAGIK
_audit_creation_date 2003-11-28
_audit_creation_method CSD-ConQuest-V1
_database_code_CSD IKAGIK
_database_code_depnum_ccdc_archive 'CCDC 207743'
_chemical_formula_sum 'C21 H32 N2 O3'
_chemical_formula_moiety
;
C21 H32 N2 O3
;
_journal_coden_Cambridge 1336
_journal_volume 5
_journal_year 2003
_journal_page_first 2723
_journal_name_full 'Org.Lett. '
loop_
_publ_author_name
"R.Luisi"
"V.Capriati"
"L.Degennaro"
"S.Florio"
_chemical_name_systematic
;
(+)-(3R,4R,7S,11S)-10-t-Butyl-2,2-dimethyl-7-isopropyl-11-phenyl-1,5,9-trioxa-
8,10-diazadispiro(2.0.4.3)undecane
;
_chemical_melting_point 402.15
_cell_volume   2058.367
_exptl_crystal_colour 'white'
_exptl_crystal_density_diffrn 1.15
_exptl_special_details
;
Melting point range 402.15-403.15K
Absolute configuration

;
_exptl_crystal_preparation 'hexane'
_diffrn_ambient_temperature 293
#These two values have been output from a single CSD field.
_refine_ls_R_factor_gt 0.0683
_refine_ls_wR_factor_gt 0.0683
_symmetry_cell_setting orthorhombic
_symmetry_space_group_name_H-M 'P 21 21 21'
_symmetry_Int_Tables_number 19
loop_
_symmetry_equiv_pos_site_id
_symmetry_equiv_pos_as_xyz
1 x,y,z
2 1/2-x,-y,1/2+z
3 1/2+x,1/2-y,-z
4 -x,1/2+y,1/2-z
_cell_length_a 9.8038(1)
_cell_length_b 13.2579(2)
_cell_length_c 15.8363(3)
_cell_angle_alpha 90
_cell_angle_beta 90
_cell_angle_gamma 90
_cell_formula_units_Z 4
loop_
_atom_type_symbol
_atom_type_radius_bond
C 0.68
H 0.23
N 0.68
O 0.68
loop_
_atom_site_label
_atom_site_type_symbol
_atom_site_fract_x
_atom_site_fract_y
_atom_site_fract_z
O1 O -0.1076(2) -0.06087(15) -0.18512(13)
O2 O -0.04761(19) -0.03171(15) -0.04417(13)
N1 N -0.1743(2) 0.02468(17) -0.02873(15)
N2 N 0.0250(2) -0.17373(18) -0.11742(15)
H1 H 0.08320 -0.17750 -0.06970
O3 O -0.2211(2) -0.24032(14) -0.03179(12)
C1 C -0.2800(3) -0.05568(19) -0.01888(16)
H2 H -0.29120 -0.07730 0.03860
C2 C -0.0855(3) -0.10461(19) -0.10585(16)
C3 C -0.2226(3) -0.14313(18) -0.07174(15)
C4 C -0.2978(3) -0.2278(2) -0.10976(18)
C5 C -0.5315(3) -0.0220(3) 0.0013(3)
H3 H -0.52620 -0.05360 0.05580
C6 C 0.1096(3) -0.1361(2) -0.1880(2)
H4 H 0.19710 -0.11200 -0.16960
C7 C -0.1443(3) 0.0901(2) 0.04571(19)
C8 C -0.4261(4) 0.0304(2) -0.1269(2)
H5 H -0.34700 0.03530 -0.16250
C9 C -0.4158(3) -0.0146(2) -0.0482(2)
C10 C -0.2747(4) 0.1470(3) 0.0663(3)
H6 H -0.26000 0.19010 0.11420
H7 H -0.29980 0.18720 0.01830
H8 H -0.34670 0.10020 0.07880
C11 C -0.2418(4) -0.2835(3) -0.1847(2)
H9 H -0.29860 -0.27090 -0.23300
H10 H -0.15070 -0.26090 -0.19630
H11 H -0.24070 -0.35450 -0.17290
C12 C 0.0246(3) -0.0475(3) -0.2215(2)
H12 H 0.06090 0.01640 -0.20400
H13 H 0.01740 -0.04890 -0.28200
C13 C -0.0938(5) 0.0325(3) 0.1231(2)
H14 H -0.07650 0.07860 0.16860
H15 H -0.16150 -0.01560 0.14030
H16 H -0.01110 -0.00220 0.10880
C14 C -0.0352(4) 0.1645(3) 0.0171(3)
H17 H -0.01170 0.20860 0.06290
H18 H 0.04460 0.12880 -0.00120
H19 H -0.07090 0.20350 -0.02900
C15 C 0.1329(4) -0.2176(3) -0.2554(2)
H20 H 0.04810 -0.23000 -0.28390
C16 C -0.4506(3) -0.2380(3) -0.1000(3)
H21 H -0.49360 -0.22920 -0.15400
H22 H -0.47250 -0.30350 -0.07810
H23 H -0.48280 -0.18710 -0.06180
C17 C -0.6625(4) 0.0621(3) -0.1053(4)
H24 H -0.74620 0.09070 -0.12570
C18 C -0.5488(4) 0.0689(3) -0.1548(3)
H25 H -0.55600 0.09970 -0.20950
C19 C -0.6551(4) 0.0169(4) -0.0280(4)
H26 H -0.73530 0.01140 0.00640
C20 C 0.1814(5) -0.3142(3) -0.2183(3)
H27 H 0.19540 -0.36400 -0.26150
H28 H 0.26600 -0.30170 -0.18960
H29 H 0.11500 -0.33840 -0.17870
C21 C 0.2364(6) -0.1780(5) -0.3206(3)
H30 H 0.25090 -0.22790 -0.36350
H31 H 0.20220 -0.11730 -0.34590
H32 H 0.32110 -0.16390 -0.29250
#END
