
#######################################################################
#
#                 Cambridge Crystallographic Data Centre
#                                CCDC
#
#######################################################################
#
# If this CIF has been generated from an entry in the Cambridge
# Structural Database, then it will include bibliographic, chemical,
# crystal, experimental, refinement or atomic coordinate data resulting
# from the CCDC's data processing and validation procedures.
#
#######################################################################

data_CSD_CIF_IKALOW
_audit_creation_date 2011-02-28
_audit_creation_method CSD-ConQuest-V1
_database_code_CSD IKALOW
_database_code_depnum_ccdc_archive 'CCDC 811394'
_chemical_formula_sum 'C16 H14 N2 O5'
_chemical_formula_moiety
;
C16 H14 N2 O5
;
_journal_coeditor_code "IUCr HG2769"
_journal_coden_Cambridge 1370
_journal_volume 67
_journal_year 2011
_journal_page_first o465
_journal_name_full 'Acta Crystallogr.,Sect.E:Struct.Rep.Online '
loop_
_publ_author_name
"S.Saeed"
"N.Rashid"
"J.P.Jasinski"
"R.J.Butcher"
_chemical_name_systematic
;
Ethyl 2-((4-nitrobenzoyl)amino)benzoate
;
_chemical_name_common
;
Ethyl 2-(4-nitrobenzamido)benzoate
;
_cell_volume    754.679
_exptl_crystal_colour 'yellow'
_exptl_crystal_density_diffrn 1.383
_exptl_crystal_description 'block'
_diffrn_ambient_temperature 295
_diffrn_special_details
;
non-merohedral twin

;
_refine_special_details
;
C15A,C16A and C15B,C16B disordered over two sites with occupancies 
0.643:0.357.
;
#These two values have been output from a single CSD field.
_refine_ls_R_factor_gt 0.0526
_refine_ls_wR_factor_gt 0.0526
_symmetry_cell_setting triclinic
_symmetry_space_group_name_H-M 'P -1'
_symmetry_Int_Tables_number 2
loop_
_symmetry_equiv_pos_site_id
_symmetry_equiv_pos_as_xyz
1 x,y,z
2 -x,-y,-z
_cell_length_a 6.9802(3)
_cell_length_b 9.3570(4)
_cell_length_c 12.5779(5)
_cell_angle_alpha 102.833(4)
_cell_angle_beta 94.296(4)
_cell_angle_gamma 107.567(4)
_cell_formula_units_Z 2
loop_
_atom_type_symbol
_atom_type_radius_bond
C 0.68
H 0.23
N 0.68
O 0.68
loop_
_atom_site_label
_atom_site_type_symbol
_atom_site_fract_x
_atom_site_fract_y
_atom_site_fract_z
O1 O -0.18667(13) 0.04273(9) 0.01289(7)
O2 O 0.02489(16) 0.25940(11) 0.00650(7)
O3 O 0.12371(18) 0.20254(8) 0.56742(8)
O4 O 0.40086(11) 0.74605(7) 0.55727(5)
O5 O 0.52758(10) 0.93554(6) 0.71099(5)
N1 N -0.05477(14) 0.16683(10) 0.05611(8)
N2 N 0.24927(11) 0.45878(8) 0.57997(6)
H1 H 0.27330 0.52410 0.54010
C1 C 0.11370(12) 0.27848(8) 0.40099(8)
C2 C 0.01013(15) 0.12590(9) 0.34180(9)
H2 H -0.02320 0.04830 0.37890
C3 C -0.04350(15) 0.08854(10) 0.22924(9)
H3 H -0.11310 -0.01340 0.19000
C4 C 0.00737(13) 0.20403(10) 0.17595(8)
C5 C 0.11309(14) 0.35587(10) 0.23110(8)
H4 H 0.14880 0.43230 0.19300
C6 C 0.16450(14) 0.39178(9) 0.34375(8)
H5 H 0.23470 0.49400 0.38220
C7 C 0.16219(14) 0.30877(9) 0.52350(8)
C8 C 0.30613(12) 0.52356(9) 0.69344(7)
C9 C 0.26962(16) 0.43559(12) 0.77040(9)
H6 H 0.20680 0.32870 0.74640
C10 C 0.32558(18) 0.50539(14) 0.88137(10)
H7 H 0.29800 0.44500 0.93150
C11 C 0.42132(18) 0.66243(14) 0.91963(9)
H8 H 0.46100 0.70790 0.99490
C12 C 0.45786(14) 0.75151(11) 0.84562(8)
H9 H 0.52150 0.85810 0.87140
C13 C 0.40165(12) 0.68549(9) 0.73274(7)
C14 C 0.44109(12) 0.78829(9) 0.65684(7)
C15 C 0.5896(13) 1.0482(9) 0.6489(8)
H10 H 0.47160 1.05110 0.60460
H11 H 0.68050 1.02020 0.59970
C16 C 0.6954(13) 1.2037(5) 0.7264(5)
H12 H 0.74930 1.27760 0.68500
H13 H 0.80430 1.19780 0.77470
H14 H 0.60050 1.23590 0.76930
C17? C 0.550(2) 1.0505(18) 0.6437(16)
C18? C 0.6185(17) 1.1998(11) 0.7309(9)
H15? H 0.65080 1.04480 0.59530
H16? H 0.42160 1.03580 0.60010
H17? H 0.65360 1.28470 0.69700
H18? H 0.73520 1.20450 0.77880
H19? H 0.51080 1.20620 0.77290
#END
