
#######################################################################
#
#                 Cambridge Crystallographic Data Centre
#                                CCDC
#
#######################################################################
#
# If this CIF has been generated from an entry in the Cambridge
# Structural Database, then it will include bibliographic, chemical,
# crystal, experimental, refinement or atomic coordinate data resulting
# from the CCDC's data processing and validation procedures.
#
#######################################################################

data_CSD_CIF_ILAFUW
_audit_creation_date 2004-01-22
_audit_creation_method CSD-ConQuest-V1
_database_code_CSD ILAFUW
_database_code_depnum_ccdc_archive 'CCDC 195778'
_chemical_formula_sum 'C9 H15 N6 O2'
_chemical_formula_moiety
;
C9 H15 N6 O2
;
_journal_coden_Cambridge 580
_journal_volume 22
_journal_year 2003
_journal_page_first 1965
_journal_name_full 'Polyhedron '
loop_
_publ_author_name
"E.V.Tretyakov"
"S.V.Fokin"
"G.V.Romanenko"
"V.I.Ovcharenko"
_chemical_name_systematic
;
2-(1-methyl-1H-tetrazol-5-yl)-4,4,5,5-tetramethyl-4,5-dihydro-1H-imidazol-3-ox
ide-1-oxyl
;
_cell_volume   1172.592
_exptl_crystal_colour 'greenish-blue'
_exptl_crystal_density_diffrn 1.355
_exptl_crystal_preparation 'heptane/dichloromethane'
_diffrn_ambient_temperature 293
#These two values have been output from a single CSD field.
_refine_ls_R_factor_gt 0.0486
_refine_ls_wR_factor_gt 0.0486
_symmetry_cell_setting monoclinic
_symmetry_space_group_name_H-M 'P 21/n'
_symmetry_Int_Tables_number 14
loop_
_symmetry_equiv_pos_site_id
_symmetry_equiv_pos_as_xyz
1 x,y,z
2 1/2+x,1/2-y,1/2+z
3 -x,-y,-z
4 -1/2-x,-1/2+y,-1/2-z
_cell_length_a 6.7880(14)
_cell_length_b 15.267(3)
_cell_length_c 11.539(2)
_cell_angle_alpha 90
_cell_angle_beta 101.31(3)
_cell_angle_gamma 90
_cell_formula_units_Z 4
loop_
_atom_type_symbol
_atom_type_radius_bond
C 0.68
H 0.23
N 0.68
O 0.68
loop_
_atom_site_label
_atom_site_type_symbol
_atom_site_fract_x
_atom_site_fract_y
_atom_site_fract_z
O1 O -0.1518(3) 0.57080(12) 1.03443(15)
N1 N -0.0483(3) 0.62383(13) 0.98620(16)
C1 C 0.0566(4) 0.70321(17) 1.0484(2)
C2 C 0.1320(7) 0.6845(3) 1.1769(3)
H1 H 0.021(6) 0.675(3) 1.207(3)
H2 H 0.216(6) 0.629(3) 1.187(3)
H3 H 0.198(5) 0.732(2) 1.209(3)
C3 C -0.0989(5) 0.7771(2) 1.0336(3)
H4 H -0.032(4) 0.837(2) 1.072(3)
H5 H -0.149(5) 0.795(2) 0.947(3)
H6 H -0.212(5) 0.756(2) 1.075(3)
C4 C 0.2174(4) 0.71782(17) 0.9730(2)
C5 C 0.3985(5) 0.6555(2) 1.0074(3)
H7 H 0.480(5) 0.672(2) 1.087(3)
H8 H 0.344(5) 0.592(3) 1.032(3)
H9 H 0.474(5) 0.657(3) 0.937(4)
C6 C 0.2865(6) 0.8099(2) 0.9637(3)
H10 H 0.382(5) 0.814(2) 0.917(3)
H11 H 0.345(6) 0.835(3) 1.042(4)
N2 N 0.1047(3) 0.68501(13) 0.85638(16)
O2 O 0.1435(3) 0.70822(12) 0.75690(15)
C7 C -0.0270(3) 0.62333(15) 0.87309(19)
N3 N -0.3270(3) 0.55336(16) 0.7526(2)
N4 N -0.3546(4) 0.50050(17) 0.6568(2)
N5 N -0.1848(4) 0.48218(15) 0.62632(18)
N6 N -0.0416(3) 0.52369(13) 0.70352(16)
C8 C 0.1693(5) 0.5145(3) 0.6990(4)
H12 H 0.176(6) 0.493(3) 0.635(4)
H13 H 0.226(6) 0.472(3) 0.746(4)
H14 H 0.253(7) 0.561(3) 0.736(4)
H15 H 0.165(6) 0.846(3) 0.930(3)
C9 C -0.1316(3) 0.56700(16) 0.7798(2)
#END
