
#######################################################################
#
#                 Cambridge Crystallographic Data Centre
#                                CCDC
#
#######################################################################
#
# If this CIF has been generated from an entry in the Cambridge
# Structural Database, then it will include bibliographic, chemical,
# crystal, experimental, refinement or atomic coordinate data resulting
# from the CCDC's data processing and validation procedures.
#
#######################################################################

data_CSD_CIF_INECIN
_audit_creation_date 2004-04-07
_audit_creation_method CSD-ConQuest-V1
_database_code_CSD INECIN
_database_code_depnum_ccdc_archive 'CCDC 227862'
_chemical_formula_sum 'C20 H15 N3 O3'
_chemical_formula_moiety
;
C20 H15 N3 O3
;
_journal_coeditor_code "IUCr CV6251"
_journal_coden_Cambridge 1370
_journal_volume 59
_journal_year 2003
_journal_page_first o1886
_journal_name_full 'Acta Crystallogr.,Sect.E:Struct.Rep.Online '
loop_
_publ_author_name
"Shang Shan"
"Hai-Gang Yu"
"Wei-Xiao Hu"
"Duan-Jun Xu"
_chemical_name_systematic
;
Benzil 4-nitrophenylhydrazone
;
_cell_volume   3407.280
_exptl_crystal_colour 'orange'
_exptl_crystal_density_diffrn 1.346
_exptl_crystal_description 'prism'
_exptl_crystal_preparation 'benzene'
_diffrn_ambient_temperature 295
#These two values have been output from a single CSD field.
_refine_ls_R_factor_gt 0.049
_refine_ls_wR_factor_gt 0.049
_symmetry_cell_setting monoclinic
_symmetry_space_group_name_H-M 'C 2/c'
_symmetry_Int_Tables_number 15
loop_
_symmetry_equiv_pos_site_id
_symmetry_equiv_pos_as_xyz
1 x,y,z
2 1/2+x,1/2+y,z
3 x,-y,1/2+z
4 1/2+x,1/2-y,1/2+z
5 -x,-y,-z
6 -1/2-x,-1/2-y,-z
7 -x,y,-1/2-z
8 -1/2-x,-1/2+y,-1/2-z
_cell_length_a 29.2648(15)
_cell_length_b 7.1628(10)
_cell_length_c 16.4396(13)
_cell_angle_alpha 90
_cell_angle_beta 98.601(10)
_cell_angle_gamma 90
_cell_formula_units_Z 8
loop_
_atom_type_symbol
_atom_type_radius_bond
C 0.68
H 0.23
N 0.68
O 0.68
loop_
_atom_site_label
_atom_site_type_symbol
_atom_site_fract_x
_atom_site_fract_y
_atom_site_fract_z
O1 O 0.56565(5) 0.4173(2) 0.74777(8)
O2 O 0.62154(4) 0.2938(2) 0.69499(9)
O3 O 0.44257(4) 0.0708(2) 0.24856(7)
N1 N 0.58094(5) 0.3398(2) 0.69088(9)
N2 N 0.46110(4) 0.20264(18) 0.39834(7)
H1 H 0.47260 0.16820 0.35550
N3 N 0.41547(4) 0.22301(17) 0.39455(7)
C1 C 0.48995(5) 0.23751(19) 0.47203(9)
C2 C 0.53736(5) 0.2124(2) 0.47453(10)
H2 H 0.54890 0.17400 0.42750
C3 C 0.56726(5) 0.2441(2) 0.54625(10)
H3 H 0.59890 0.22590 0.54830
C4 C 0.54939(5) 0.3035(2) 0.61510(9)
C5 C 0.50247(5) 0.3286(2) 0.61379(9)
H4 H 0.49110 0.36770 0.66090
C6 C 0.47255(5) 0.2951(2) 0.54206(9)
H5 H 0.44090 0.31100 0.54060
C7 C 0.38736(5) 0.1894(2) 0.32660(8)
C8 C 0.40295(5) 0.1286(2) 0.24875(9)
C9 C 0.33729(5) 0.2079(2) 0.33342(8)
C10 C 0.32138(5) 0.3564(2) 0.37612(9)
H6 H 0.34180 0.44900 0.39820
C11 C 0.27527(6) 0.3669(3) 0.38582(10)
H7 H 0.26500 0.46670 0.41440
C12 C 0.24455(5) 0.2311(3) 0.35367(10)
H8 H 0.21360 0.23890 0.36050
C13 C 0.25983(6) 0.0835(3) 0.31132(10)
H9 H 0.23920 -0.00870 0.28950
C14 C 0.30588(5) 0.0718(2) 0.30106(9)
H10 H 0.31590 -0.02820 0.27220
C15 C 0.37092(5) 0.1422(2) 0.16905(9)
C16 C 0.34560(6) 0.3016(3) 0.1469(1)
H11 H 0.34670 0.40110 0.18340
C17 C 0.31856(6) 0.3135(3) 0.07019(11)
H12 H 0.30220 0.42240 0.05490
C18 C 0.31584(7) 0.1657(4) 0.01705(11)
H13 H 0.29730 0.17370 -0.03390
C19 C 0.34038(7) 0.0061(3) 0.03873(11)
H14 H 0.33810 -0.09440 0.00250
C20 C 0.36882(6) -0.0072(3) 0.11468(10)
H15 H 0.38610 -0.11450 0.12870
#END
