
#######################################################################
#
#                 Cambridge Crystallographic Data Centre
#                                CCDC
#
#######################################################################
#
# If this CIF has been generated from an entry in the Cambridge
# Structural Database, then it will include bibliographic, chemical,
# crystal, experimental, refinement or atomic coordinate data resulting
# from the CCDC's data processing and validation procedures.
#
#######################################################################

data_CSD_CIF_IPUNUE
_audit_creation_date 2016-07-05
_audit_creation_method CSD-ConQuest-V1
_database_code_CSD IPUNUE
_database_code_depnum_ccdc_archive 'CCDC 1474807'
_chemical_formula_sum 'C23 H19 N1 O3'
_chemical_formula_moiety
;
C23 H19 N1 O3
;
_journal_coden_Cambridge 1336
_journal_volume 18
_journal_year 2016
_journal_page_first 2738
_journal_name_full 'Org.Lett. '
loop_
_publ_author_name
"Chao Li"
"Kun Jiang"
"Qin Ouyang"
"Tian-Yu Liu"
"Ying-Chun Chen"
_chemical_name_systematic
;
1-(benzyloxy)-5-hydroxy-3,5-diphenyl-1,5-dihydro-2H-pyrrol-2-one
;
_cell_volume   1810.544
_exptl_crystal_colour 'colorless'
_exptl_crystal_density_diffrn 1.317
_exptl_crystal_description 'block'
_diffrn_ambient_temperature 290.6
#These two values have been output from a single CSD field.
_refine_ls_R_factor_gt 0.0375
_refine_ls_wR_factor_gt 0.0375
_symmetry_cell_setting orthorhombic
_symmetry_space_group_name_H-M 'P c a 21'
_symmetry_Int_Tables_number 29
loop_
_symmetry_equiv_pos_site_id
_symmetry_equiv_pos_as_xyz
1 x,y,z
2 -x,-y,1/2+z
3 1/2-x,y,1/2+z
4 1/2+x,-y,z
_cell_length_a 20.6513(13)
_cell_length_b 5.9284(4)
_cell_length_c 14.7885(9)
_cell_angle_alpha 90
_cell_angle_beta 90
_cell_angle_gamma 90
_cell_formula_units_Z 4
loop_
_atom_type_symbol
_atom_type_radius_bond
C 0.68
H 0.23
N 0.68
O 0.68
loop_
_atom_site_label
_atom_site_type_symbol
_atom_site_fract_x
_atom_site_fract_y
_atom_site_fract_z
O1 O 0.55530(8) 0.0890(3) 0.95756(11)
O2 O 0.43684(7) 0.3029(3) 0.97718(10)
C1 C 0.60131(10) 0.4057(3) 1.04472(14)
O3 O 0.47358(8) 0.7746(3) 1.03912(13)
H1 H 0.50030 0.83480 1.00590
C2 C 0.57105(11) 0.5744(3) 1.08766(16)
H2 H 0.59230 0.68110 1.12300
C3 C 0.37403(11) 0.2499(4) 0.84268(14)
C4 C 0.55022(10) 0.2691(3) 0.99695(14)
N1 N 0.49549(8) 0.3896(3) 1.00618(13)
C5 C 0.39711(13) 0.4036(5) 1.31754(18)
H3 H 0.37550 0.36730 1.37070
C6 C 0.49885(11) 0.5726(3) 1.07257(16)
C7 C 0.6710(1) 0.3567(4) 1.04071(14)
C8 C 0.42276(12) 0.6702(4) 1.20129(17)
H4 H 0.41850 0.81390 1.17680
C9 C 0.69460(12) 0.1552(4) 1.00486(18)
H5 H 0.66590 0.04830 0.98230
C10 C 0.46794(12) 0.3010(4) 1.19696(17)
H6 H 0.49400 0.19360 1.16910
C11 C 0.46167(10) 0.5117(4) 1.15898(15)
C12 C 0.76047(13) 0.1132(5) 1.0027(2)
H7 H 0.77570 -0.02230 0.97930
C13 C 0.31053(12) 0.3137(4) 0.82829(18)
H8 H 0.29540 0.45080 0.85030
C14 C 0.43587(14) 0.2474(4) 1.27621(18)
H9 H 0.44070 0.10470 1.30150
C15 C 0.39024(13) 0.6143(5) 1.28018(19)
H10 H 0.36360 0.72020 1.30800
C16 C 0.35394(16) -0.0961(5) 0.76309(19)
H11 H 0.36890 -0.23350 0.74120
C17 C 0.80342(13) 0.2698(6) 1.0348(2)
H12 H 0.84770 0.24090 1.03320
C18 C 0.26944(14) 0.1706(6) 0.7804(2)
H13 H 0.22680 0.21360 0.77000
C19 C 0.39471(13) 0.0440(4) 0.81035(19)
H14 H 0.43720 -0.00100 0.82080
C20 C 0.42059(13) 0.4040(4) 0.89050(17)
H15 H 0.45940 0.42360 0.85440
H16 H 0.40090 0.55080 0.89970
C21 C 0.71525(12) 0.5134(5) 1.0722(2)
H17 H 0.70060 0.64990 1.09560
C22 C 0.78083(13) 0.4694(5) 1.0695(2)
H18 H 0.81000 0.57600 1.09130
C23 C 0.29112(15) -0.0323(5) 0.7485(2)
H19 H 0.26320 -0.12680 0.71680
#END
