
#######################################################################
#
#                 Cambridge Crystallographic Data Centre
#                                CCDC
#
#######################################################################
#
# If this CIF has been generated from an entry in the Cambridge
# Structural Database, then it will include bibliographic, chemical,
# crystal, experimental, refinement or atomic coordinate data resulting
# from the CCDC's data processing and validation procedures.
#
#######################################################################

data_CSD_CIF_IPUWOG
_audit_creation_date 2011-08-02
_audit_creation_method CSD-ConQuest-V1
_database_code_CSD IPUWOG
_database_code_depnum_ccdc_archive 'CCDC 794725'
_chemical_formula_sum 'C15 H20 N4 O6'
_chemical_formula_moiety
;
C15 H20 N4 O6
;
_journal_coden_Cambridge 643
_journal_volume 226
_journal_year 2011
_journal_page_first 483
_journal_name_full 'Z.Krist.Cryst.Mater. '
loop_
_publ_author_name
"R.A.Howie"
"M.V.N.de Souza"
"A.Pinheiro"
"C.R.Kaiser"
"J.L.Wardell"
"S.M.S.V.Wardell"
_chemical_name_systematic
;
t-butyl 
(1S)-1-(hydroxymethyl)-2-[(2E)-2-(2-nitrobenzylidene)hydrazino]-2-oxoethylcarb
amate
;
_chemical_name_common
;
t-Butyl 
(3-hydroxy-1-(2-(2-nitrobenzylidene)hydrazino)-1-oxopropan-2-yl)carbamate
;
_cell_volume    817.080
_exptl_crystal_colour 'pale yellow'
_exptl_crystal_density_diffrn 1.432
_exptl_crystal_description 'plate'
_diffrn_ambient_temperature 120
#These two values have been output from a single CSD field.
_refine_ls_R_factor_gt 0.0368
_refine_ls_wR_factor_gt 0.0368
_symmetry_cell_setting monoclinic
_symmetry_space_group_name_H-M 'P 21'
_symmetry_Int_Tables_number 4
loop_
_symmetry_equiv_pos_site_id
_symmetry_equiv_pos_as_xyz
1 x,y,z
2 -x,1/2+y,-z
_cell_length_a 5.9135(2)
_cell_length_b 10.2917(3)
_cell_length_c 13.4274(5)
_cell_angle_alpha 90
_cell_angle_beta 90.947(2)
_cell_angle_gamma 90
_cell_formula_units_Z 2
loop_
_atom_type_symbol
_atom_type_radius_bond
C 0.68
H 0.23
N 0.68
O 0.68
loop_
_atom_site_label
_atom_site_type_symbol
_atom_site_fract_x
_atom_site_fract_y
_atom_site_fract_z
O1 O 0.3058(3) 0.36622(16) 0.44448(13)
O2 O 0.7023(3) 0.59158(18) 0.45996(13)
H1 H 0.747(5) 0.674(4) 0.458(2)
O3 O 0.3737(3) 0.44686(17) 0.14003(13)
O4 O 0.1538(2) 0.61623(16) 0.18914(12)
O5 O 0.8633(3) -0.17670(17) 0.35135(13)
O6 O 1.1942(3) -0.23969(17) 0.40258(13)
N1 N 0.7724(3) 0.20620(18) 0.34848(14)
N2 N 0.5889(3) 0.23038(19) 0.40551(15)
H2 H 0.537(4) 0.172(3) 0.454(2)
N3 N 0.4144(3) 0.5378(2) 0.29309(15)
H3 H 0.359(5) 0.587(3) 0.339(2)
N4 N 1.0692(3) -0.1638(2) 0.35739(15)
C1 C 1.0671(4) 0.0658(2) 0.30241(17)
C2 C 1.1727(4) -0.0558(2) 0.30389(17)
C3 C 1.3687(4) -0.0828(2) 0.25313(18)
H4 H 1.43790 -0.16590 0.25860
C4 C 1.4622(4) 0.0121(3) 0.19465(19)
H5 H 1.59570 -0.00510 0.15850
C5 C 1.3591(4) 0.1337(2) 0.18887(19)
H6 H 1.42120 0.19900 0.14740
C6 C 1.1683(4) 0.1604(2) 0.24250(18)
H7 H 1.10360 0.24480 0.23890
C7 C 0.8710(4) 0.0968(2) 0.36348(18)
H8 H 0.81890 0.03790 0.41250
C8 C 0.4773(4) 0.3457(2) 0.39726(16)
C9 C 0.5820(3) 0.4451(2) 0.32814(17)
H9 H 0.64150 0.39790 0.26900
C10 C 0.7797(4) 0.5150(2) 0.37925(19)
H10 H 0.89070 0.45030 0.40420
H11 H 0.85620 0.57150 0.33050
C11 C 0.3179(4) 0.5249(2) 0.20157(17)
C12 C 0.0409(4) 0.6311(2) 0.09096(17)
C13 C -0.0784(4) 0.5064(3) 0.0610(2)
H12 H -0.17340 0.47690 0.11560
H13 H 0.03420 0.43950 0.04620
H14 H -0.17320 0.52210 0.00160
C14 C 0.2137(4) 0.6736(3) 0.01536(19)
H15 H 0.32530 0.60430 0.00650
H16 H 0.29020 0.75240 0.03920
H17 H 0.13720 0.69150 -0.04850
C15 C -0.1308(4) 0.7380(3) 0.10995(19)
H18 H -0.05160 0.81710 0.13130
H19 H -0.23390 0.71010 0.16220
H20 H -0.21740 0.75550 0.04860
#END
