
#######################################################################
#
#                 Cambridge Crystallographic Data Centre
#                                CCDC
#
#######################################################################
#
# If this CIF has been generated from an entry in the Cambridge
# Structural Database, then it will include bibliographic, chemical,
# crystal, experimental, refinement or atomic coordinate data resulting
# from the CCDC's data processing and validation procedures.
#
#######################################################################

data_CSD_CIF_IQEZIO
_audit_creation_date 2011-07-18
_audit_creation_method CSD-ConQuest-V1
_database_code_CSD IQEZIO
_database_code_depnum_ccdc_archive 'CCDC 785071'
_chemical_formula_sum 'C24 H15 N3 O2'
_chemical_formula_moiety
;
C24 H15 N3 O2
;
_journal_coden_Cambridge 1291
_journal_year 2011
_journal_page_first 1033
_journal_name_full 'Eur.J.Org.Chem. '
loop_
_publ_author_name
"M.A.Petersen"
"S.L.Broman"
"K.Kilsa"
"A.Kadziola"
"M.B.Nielsen"
_chemical_name_systematic
;
7-(4-Nitrophenyl)-2-phenylazulene-1,1(8aH)-dicarbonitrile
;
_cell_volume   1834.798
_exptl_crystal_density_diffrn 1.366
_diffrn_ambient_temperature 122
#These two values have been output from a single CSD field.
_refine_ls_R_factor_gt 0.0587
_refine_ls_wR_factor_gt 0.0587
_symmetry_cell_setting monoclinic
_symmetry_space_group_name_H-M 'P 21/c'
_symmetry_Int_Tables_number 14
loop_
_symmetry_equiv_pos_site_id
_symmetry_equiv_pos_as_xyz
1 x,y,z
2 -x,1/2+y,1/2-z
3 -x,-y,-z
4 x,-1/2-y,-1/2+z
_cell_length_a 11.624(1)
_cell_length_b 11.5770(11)
_cell_length_c 13.6550(14)
_cell_angle_alpha 90
_cell_angle_beta 93.146(8)
_cell_angle_gamma 90
_cell_formula_units_Z 4
loop_
_atom_type_symbol
_atom_type_radius_bond
C 0.68
H 0.23
N 0.68
O 0.68
loop_
_atom_site_label
_atom_site_type_symbol
_atom_site_fract_x
_atom_site_fract_y
_atom_site_fract_z
O1 O 0.86294(10) -0.16368(9) 0.65070(6)
O2 O 0.94915(8) -0.29183(8) 0.56572(7)
N1 N 0.89999(8) -0.19844(9) 0.57365(7)
N2 N 0.66398(9) -0.19122(9) 0.00630(8)
N3 N 0.92045(9) -0.01639(10) -0.15141(8)
C1 C 0.88459(9) -0.12528(9) 0.48653(7)
C2 C 0.84194(9) -0.01443(9) 0.49666(7)
H1 H 0.82350 0.01410 0.55910
C3 C 0.91396(9) -0.16969(9) 0.39674(8)
H2 H 0.94440 -0.24550 0.39190
C4 C 0.82679(9) 0.05413(9) 0.41350(7)
H3 H 0.79910 0.13090 0.41940
C5 C 0.89761(9) -0.10003(9) 0.31406(7)
H4 H 0.91780 -0.12850 0.25200
C6 C 0.85180(8) 0.01154(9) 0.32106(7)
C7 C 0.82913(9) 0.08220(9) 0.23144(7)
C8 C 0.84758(10) 0.20634(10) 0.24083(8)
H5 H 0.90630 0.23070 0.28750
C9 C 0.78969(10) 0.29062(9) 0.18990(8)
H6 H 0.80870 0.36790 0.20780
C10 C 0.70246(10) 0.27621(9) 0.11164(8)
H7 H 0.64520 0.33450 0.10340
C11 C 0.69634(9) 0.18530(9) 0.04887(7)
C12 C 0.61866(9) 0.17221(9) -0.03609(8)
H8 H 0.55590 0.22300 -0.05110
C13 C 0.64367(8) 0.08062(9) -0.09255(7)
C14 C 0.74457(9) 0.01265(9) -0.04123(7)
C15 C 0.78548(9) 0.08997(9) 0.05002(7)
H9 H 0.86220 0.12450 0.03750
C16 C 0.79412(9) 0.02848(9) 0.14698(7)
H10 H 0.77430 -0.05110 0.14910
C17 C 0.70081(9) -0.10279(9) -0.01376(8)
C18 C 0.84295(9) -0.00505(9) -0.10386(8)
C19 C 0.58607(8) 0.04512(9) -0.18612(7)
C20 C 0.48909(9) 0.10679(11) -0.22358(8)
H11 H 0.46060 0.16940 -0.18700
C21 C 0.62638(10) -0.04625(10) -0.24229(8)
H12 H 0.69120 -0.08980 -0.21830
C22 C 0.43438(10) 0.07788(12) -0.31296(9)
H13 H 0.36840 0.12000 -0.33670
C23 C 0.57235(10) -0.07391(11) -0.33316(8)
H14 H 0.60170 -0.13480 -0.37120
C24 C 0.47589(10) -0.01267(11) -0.36801(9)
H15 H 0.43830 -0.03250 -0.42920
#END
