
#######################################################################
#
#                 Cambridge Crystallographic Data Centre
#                                CCDC
#
#######################################################################
#
# If this CIF has been generated from an entry in the Cambridge
# Structural Database, then it will include bibliographic, chemical,
# crystal, experimental, refinement or atomic coordinate data resulting
# from the CCDC's data processing and validation procedures.
#
#######################################################################

data_CSD_CIF_IQOSAJ
_audit_creation_date 2011-06-24
_audit_creation_method CSD-ConQuest-V1
_database_code_CSD IQOSAJ
_database_code_depnum_ccdc_archive 'CCDC 811474'
_chemical_formula_sum 'C17 H21 N1 O8'
_chemical_formula_moiety
;
C17 H21 N1 O8
;
_journal_coden_Cambridge 1078
_journal_year 2010
_journal_name_full 'CSD Communication(Private Communication) '
loop_
_publ_author_name
"H.Reinke"
"B.Stobik"
"K.Peseke"
_chemical_name_systematic
;
Methyl-3-O-acetyl-4,6-O-benzylidene-2-deoxy-3-C-nitromethyl-\a-D-arabino-hexop
yranoside
;
_chemical_name_common
;
6-Methoxy-8-(nitromethyl)-2-phenylhexahydropyrano[3,2-d][1,3]dioxin-8-yl 
acetate
;
_cell_volume   1831.599
_exptl_crystal_colour 'colorless'
_exptl_crystal_density_diffrn 1.332
_exptl_special_details
;
contribution from Institut fur Chemie, Universitat Rostock, 
Albert-Einstein-Str. 3a, D-18059 Rostock, Germany
;
_exptl_crystal_description 'prism'
_diffrn_ambient_temperature 293
#These two values have been output from a single CSD field.
_refine_ls_R_factor_gt 0.042
_refine_ls_wR_factor_gt 0.042
_symmetry_cell_setting orthorhombic
_symmetry_space_group_name_H-M 'P 21 21 21'
_symmetry_Int_Tables_number 19
loop_
_symmetry_equiv_pos_site_id
_symmetry_equiv_pos_as_xyz
1 x,y,z
2 1/2-x,-y,1/2+z
3 -x,1/2+y,1/2-z
4 1/2+x,1/2-y,-z
_cell_length_a 9.770(1)
_cell_length_b 10.698(1)
_cell_length_c 17.524(1)
_cell_angle_alpha 90
_cell_angle_beta 90
_cell_angle_gamma 90
_cell_formula_units_Z 4
loop_
_atom_type_symbol
_atom_type_radius_bond
C 0.68
H 0.23
N 0.68
O 0.68
loop_
_atom_site_label
_atom_site_type_symbol
_atom_site_fract_x
_atom_site_fract_y
_atom_site_fract_z
O1 O 0.76929(19) 0.62759(18) -0.15944(9)
O2 O 0.66090(18) 0.43371(19) -0.16737(10)
O3 O 0.76547(16) 0.68248(13) 0.04650(9)
O4 O 0.66949(19) 0.85318(17) -0.01529(10)
O5 O 0.6780(2) 0.4259(2) 0.13501(12)
O6 O 0.5184(2) 0.5204(2) 0.07342(13)
O7 O 0.92412(16) 0.46794(14) 0.03948(10)
O8 O 0.9352(2) 0.25913(17) 0.02432(13)
N1 N 0.6237(2) 0.4592(2) 0.07675(13)
C1 C 0.7871(3) 0.4964(3) -0.16348(15)
H1 H 0.83770 0.47790 -0.21040
C2 C 0.8686(2) 0.4437(2) -0.09697(15)
H2 H 0.96370 0.46760 -0.10310
H3 H 0.86420 0.35320 -0.09900
C3 C 0.8195(2) 0.4871(2) -0.01741(13)
C4 C 0.8096(2) 0.6285(2) -0.02337(13)
H4 H 0.90110 0.66090 -0.03480
C5 C 0.7143(3) 0.6670(2) -0.08797(13)
H5 H 0.62330 0.63060 -0.08030
C6 C 0.7050(3) 0.8091(2) -0.08928(15)
H6 H 0.79230 0.84430 -0.10460
H7 H 0.63630 0.83520 -0.12590
C7 C 0.6864(2) 0.4190(2) 0.00337(13)
H8 H 0.62050 0.43220 -0.03730
H9 H 0.70490 0.33010 0.00600
C8 C 0.5882(3) 0.4568(4) -0.23587(17)
H10 H 0.50470 0.40950 -0.23580
H11 H 0.64330 0.43210 -0.27870
H12 H 0.56750 0.54420 -0.23960
C9 C 0.7655(3) 0.8150(2) 0.04020(15)
H13 H 0.85700 0.84380 0.02550
C10 C 0.9758(3) 0.3535(2) 0.05335(16)
C11 C 1.0906(3) 0.3627(3) 0.10850(17)
H14 H 1.17130 0.39140 0.08260
H15 H 1.10780 0.28190 0.13040
H16 H 1.06710 0.42060 0.14820
C12 C 0.7253(3) 0.8742(2) 0.11473(16)
C13 C 0.7575(3) 0.9987(3) 0.12577(19)
H17 H 0.80810 1.04190 0.08940
C14 C 0.7140(3) 1.0586(3) 0.1914(2)
H18 H 0.73490 1.14250 0.19900
C15 C 0.6398(4) 0.9945(4) 0.2454(2)
H19 H 0.61060 1.03480 0.28950
C16 C 0.6097(3) 0.8726(4) 0.23423(18)
H20 H 0.56020 0.82950 0.27110
C17 C 0.6512(3) 0.8107(3) 0.16879(17)
H21 H 0.62900 0.72700 0.16160
#END
