
#######################################################################
#
#                 Cambridge Crystallographic Data Centre
#                                CCDC
#
#######################################################################
#
# If this CIF has been generated from an entry in the Cambridge
# Structural Database, then it will include bibliographic, chemical,
# crystal, experimental, refinement or atomic coordinate data resulting
# from the CCDC's data processing and validation procedures.
#
#######################################################################

data_CSD_CIF_ISICUJ01
_audit_creation_date 2011-08-15
_audit_creation_method CSD-ConQuest-V1
_database_code_CSD ISICUJ01
_database_code_depnum_ccdc_archive 'CCDC 801718'
_chemical_formula_sum 'C14 H14 N2 O2'
_chemical_formula_moiety
;
C14 H14 N2 O2
;
_journal_coden_Cambridge 119
_journal_volume 991
_journal_year 2011
_journal_page_first 42
_journal_name_full 'J.Mol.Struct. '
loop_
_publ_author_name
"K.Piela"
"I.Turowska-Tyrk"
"M.Drozd"
"M.M.Szostak"
_chemical_name_systematic
;
N-Benzyl-2-methyl-4-nitroaniline
;
_cell_volume   1274.635
_exptl_crystal_colour 'yellow'
_exptl_crystal_density_diffrn 1.262
_exptl_special_details
;
polymorph 2

;
_exptl_crystal_description 'plate'
_diffrn_ambient_temperature 299
#These two values have been output from a single CSD field.
_refine_ls_R_factor_gt 0.034
_refine_ls_wR_factor_gt 0.034
_symmetry_cell_setting orthorhombic
_symmetry_space_group_name_H-M 'P n a 21'
_symmetry_Int_Tables_number 33
loop_
_symmetry_equiv_pos_site_id
_symmetry_equiv_pos_as_xyz
1 x,y,z
2 -x,-y,1/2+z
3 1/2+x,1/2-y,z
4 1/2-x,1/2+y,1/2+z
_cell_length_a 7.3723(13)
_cell_length_b 21.386(3)
_cell_length_c 8.0845(13)
_cell_angle_alpha 90
_cell_angle_beta 90
_cell_angle_gamma 90
_cell_formula_units_Z 4
loop_
_atom_type_symbol
_atom_type_radius_bond
C 0.68
H 0.23
N 0.68
O 0.68
loop_
_atom_site_label
_atom_site_type_symbol
_atom_site_fract_x
_atom_site_fract_y
_atom_site_fract_z
N1 N 0.4366(3) 0.82470(9) 0.8035(2)
H1 H 0.41710 0.79910 0.88360
C1 C 0.5040(3) 0.80120(11) 0.6594(3)
C2 C 0.5191(3) 0.73548(10) 0.6410(3)
C3 C 0.5817(3) 0.71235(11) 0.4944(3)
H2 H 0.58970 0.66930 0.47990
C4 C 0.6336(3) 0.75179(10) 0.3666(3)
C5 C 0.6241(3) 0.81558(11) 0.3855(3)
H3 H 0.66170 0.84200 0.30080
C6 C 0.5590(3) 0.83967(11) 0.5298(3)
H4 H 0.55110 0.88280 0.54200
C7 C 0.4649(3) 0.69268(12) 0.7786(3)
H5 H 0.48030 0.65010 0.74410
H6 H 0.34000 0.69980 0.80640
H7 H 0.53950 0.70070 0.87360
N2 N 0.6990(3) 0.7251(1) 0.2151(2)
O1 O 0.7648(3) 0.75947(9) 0.1091(2)
O2 O 0.6900(3) 0.66837(9) 0.1943(3)
C8 C 0.3961(3) 0.89008(11) 0.8295(3)
H8 H 0.31120 0.89360 0.92070
H9 H 0.33650 0.90620 0.73140
C9 C 0.5591(3) 0.93062(11) 0.8665(3)
C10 C 0.6920(4) 0.91053(12) 0.9729(3)
H10 H 0.68320 0.87110 1.02070
C11 C 0.8383(4) 0.94809(18) 1.0094(5)
H11 H 0.92760 0.93390 1.08150
C12 C 0.8524(6) 1.0058(2) 0.9405(8)
H12 H 0.95140 1.03110 0.96470
C13 C 0.7215(8) 1.02626(17) 0.8362(7)
H13 H 0.73060 1.06600 0.79000
C14 C 0.5752(5) 0.98902(14) 0.7978(4)
H14 H 0.48700 1.00350 0.72500
#END
