
#######################################################################
#
#                 Cambridge Crystallographic Data Centre
#                                CCDC
#
#######################################################################
#
# If this CIF has been generated from an entry in the Cambridge
# Structural Database, then it will include bibliographic, chemical,
# crystal, experimental, refinement or atomic coordinate data resulting
# from the CCDC's data processing and validation procedures.
#
#######################################################################

data_CSD_CIF_ITECIV
_audit_creation_date 2016-08-17
_audit_creation_method CSD-ConQuest-V1
_database_code_CSD ITECIV
_database_code_depnum_ccdc_archive 'CCDC 1049557'
_chemical_formula_sum 'C20 H21 N1 O2'
_chemical_formula_moiety
;
C20 H21 N1 O2
;
_journal_coden_Cambridge 1490
_journal_volume 6
_journal_year 2015
_journal_page_first 7946
_journal_name_full 'Nat.Commun. '
loop_
_publ_author_name
"Shangze Wu"
"Xin Huang"
"Wangteng Wu"
"Pengbin Li"
"Chunling Fu"
"Shengming Ma"
_chemical_name_systematic
;
N-methoxy-2-(3-methyl-1-phenylpenta-1,2-dien-1-yl)benzamide
;
_cell_volume    904.613
_exptl_crystal_colour 'colorless'
_exptl_crystal_density_diffrn 1.128
_exptl_special_details
;
Absolute configuration

;
_exptl_crystal_description 'prismatic'
_diffrn_ambient_temperature 296
#These two values have been output from a single CSD field.
_refine_ls_R_factor_gt 0.035
_refine_ls_wR_factor_gt 0.035
_symmetry_cell_setting monoclinic
_symmetry_space_group_name_H-M 'P 21'
_symmetry_Int_Tables_number 4
loop_
_symmetry_equiv_pos_site_id
_symmetry_equiv_pos_as_xyz
1 x,y,z
2 -x,1/2+y,-z
_cell_length_a 9.2428(10)
_cell_length_b 8.1334(9)
_cell_length_c 12.1422(13)
_cell_angle_alpha 90
_cell_angle_beta 97.677(7)
_cell_angle_gamma 90
_cell_formula_units_Z 2
loop_
_atom_type_symbol
_atom_type_radius_bond
C 0.68
H 0.23
N 0.68
O 0.68
loop_
_atom_site_label
_atom_site_type_symbol
_atom_site_fract_x
_atom_site_fract_y
_atom_site_fract_z
N1 N 0.47175(19) 0.5914(2) 1.01537(17)
O1 O 0.33583(18) 0.8188(2) 0.98416(17)
O2 O 0.59269(18) 0.6885(2) 1.05249(15)
C1 C 0.3491(2) 0.6705(2) 0.97879(15)
C2 C 0.2249(2) 0.5622(2) 0.93257(16)
C3 C 0.1608(3) 0.4604(3) 1.0044(2)
H1 H 0.20140 0.45280 1.07850
C4 C 0.0376(3) 0.3706(4) 0.9667(2)
H2 H -0.00570 0.30440 1.01550
C5 C -0.0210(3) 0.3794(4) 0.8567(3)
H3 H -0.10330 0.31800 0.83070
C6 C 0.0421(2) 0.4791(3) 0.7851(2)
H4 H 0.00140 0.48440 0.71090
C7 C 0.1651(2) 0.5721(2) 0.82111(16)
C8 C 0.23385(19) 0.6758(3) 0.74027(15)
C9 C 0.3670(2) 0.6395(3) 0.72179(17)
C10 C 0.4990(3) 0.6012(4) 0.7062(2)
C11 C 0.6293(3) 0.6741(6) 0.7765(3)
H5 H 0.59720 0.75140 0.82780
H6 H 0.68970 0.72930 0.72960
H7 H 0.68440 0.58820 0.81690
C12 C 0.5300(4) 0.4819(6) 0.6182(3)
H8 H 0.59630 0.53380 0.57340
H9 H 0.58020 0.38770 0.65450
C13 C 0.4048(6) 0.4229(8) 0.5449(5)
H10 H 0.36140 0.51240 0.50070
H11 H 0.33470 0.37780 0.58820
H12 H 0.43510 0.33930 0.49710
C14 C 0.1508(2) 0.8159(3) 0.68509(15)
C15 C 0.0183(3) 0.8645(3) 0.7150(2)
H13 H -0.02090 0.80740 0.77040
C16 C -0.0567(4) 0.9968(5) 0.6639(3)
H14 H -0.14580 1.02760 0.68500
C17 C -0.0007(4) 1.0830(4) 0.5821(3)
H15 H -0.05130 1.17240 0.54820
C18 C 0.1288(4) 1.0369(4) 0.5512(2)
H16 H 0.16720 1.09480 0.49570
C19 C 0.2042(3) 0.9046(3) 0.60142(19)
H17 H 0.29270 0.87410 0.57880
C20 C 0.6419(4) 0.6553(4) 1.1645(3)
H18 H 0.66310 0.54010 1.17350
H19 H 0.56750 0.68510 1.20900
H20 H 0.72870 0.71780 1.18770
H21 H 0.498(3) 0.482(4) 0.993(3)
#END
