
#######################################################################
#
#                 Cambridge Crystallographic Data Centre
#                                CCDC
#
#######################################################################
#
# If this CIF has been generated from an entry in the Cambridge
# Structural Database, then it will include bibliographic, chemical,
# crystal, experimental, refinement or atomic coordinate data resulting
# from the CCDC's data processing and validation procedures.
#
#######################################################################

data_CSD_CIF_IWIXET
_audit_creation_date 2016-10-10
_audit_creation_method CSD-ConQuest-V1
_database_code_CSD IWIXET
_database_code_depnum_ccdc_archive 'CCDC 1429656'
_chemical_formula_sum 'C22 H26 N4 O12'
_chemical_formula_moiety
;
C22 H26 N4 O12
;
_journal_coden_Cambridge 122
_journal_volume 51
_journal_year 2015
_journal_page_first 903
_journal_name_full 'Khim.Get.Soedin.,SSSR(Russ.)(Chem.Heterocycl.Compd.) '
loop_
_publ_author_name
"P.G.Morozov"
"S.V.Kurbatov"
"Yu.P.Semenyuk"
"O.N.Burov"
"M.E.Kletskii"
"N.S.Fedik"
"K.F.Suzdalev"
_chemical_name_systematic
;
(3bS*,4S*,7aR*,7bS*,8S*,11aR*)-5,9-diacetyl-4,8-diethoxy-6,10-dihydroxy-3b,7b-
dinitro-3b,4,7,7a,7b,8,11,11a-octahydrophenanthro(9,10-c)(1,2,5)oxadiazole 
1-oxide
;
_cell_volume   1208.650
_exptl_crystal_colour 'colorless'
_exptl_crystal_density_diffrn 1.48
_exptl_crystal_description 'prism'
_diffrn_ambient_temperature 100
#These two values have been output from a single CSD field.
_refine_ls_R_factor_gt 0.0349
_refine_ls_wR_factor_gt 0.0349
_symmetry_cell_setting triclinic
_symmetry_space_group_name_H-M 'P -1'
_symmetry_Int_Tables_number 2
loop_
_symmetry_equiv_pos_site_id
_symmetry_equiv_pos_as_xyz
1 x,y,z
2 -x,-y,-z
_cell_length_a 7.8070(2)
_cell_length_b 10.3877(2)
_cell_length_c 15.4959(3)
_cell_angle_alpha 75.5726(12)
_cell_angle_beta 84.2312(10)
_cell_angle_gamma 85.2150(11)
_cell_formula_units_Z 2
loop_
_atom_type_symbol
_atom_type_radius_bond
C 0.68
H 0.23
N 0.68
O 0.68
loop_
_atom_site_label
_atom_site_type_symbol
_atom_site_fract_x
_atom_site_fract_y
_atom_site_fract_z
O1 O 0.32478(12) 0.46888(10) 0.54816(6)
N1 N 0.39407(14) 0.52820(11) 0.59377(7)
O2 O 0.33079(13) 0.6658(1) 0.59253(7)
O3 O 0.49187(13) 0.69518(10) 0.83969(7)
N2 N 0.42856(15) 0.71158(12) 0.64621(8)
C1 C 0.53711(16) 0.61300(13) 0.67883(9)
C2 C 0.68328(17) 0.62199(13) 0.73186(8)
O4 O 0.70350(13) 0.5577(1) 0.88966(6)
N3 N 0.61932(15) 0.62193(11) 0.82972(8)
C3 C 0.76430(17) 0.75823(13) 0.69687(9)
H1 H 0.67590 0.83130 0.70350
O5 O 1.00084(14) 0.26451(11) 0.78851(8)
N4 N 0.89128(15) 0.26971(11) 0.73623(8)
C4 C 0.82795(17) 0.77646(13) 0.60022(9)
O6 O 0.89575(13) 0.19893(9) 0.68394(7)
C5 C 0.91837(17) 0.66674(13) 0.57510(9)
O7 O 0.98573(13) 0.67337(10) 0.49558(7)
O8 O 0.63925(16) -0.05786(11) 0.91766(8)
C6 C 0.81772(16) 0.50580(12) 0.72874(9)
H2 H 0.89030 0.49640 0.77980
C7 C 0.73607(16) 0.36997(12) 0.74104(8)
C8 C 0.94085(19) 0.53535(14) 0.64131(10)
H3 H 1.06050 0.52640 0.65900
H4 H 0.93010 0.46460 0.60990
O9 O 0.51294(14) 0.02006(10) 0.76957(7)
O10 O 0.86304(16) 0.90584(11) 0.45322(7)
C9 C 0.64171(17) 0.31279(13) 0.83436(8)
H5 H 0.71020 0.32350 0.88310
O11 O 0.89696(13) 0.75394(9) 0.75390(6)
C10 C 0.61459(18) 0.16810(13) 0.84334(9)
O12 O 0.48302(12) 0.39161(9) 0.83307(6)
C11 C 0.54218(18) 0.13691(14) 0.77050(9)
C12 C 0.51806(16) 0.49825(13) 0.64795(8)
C13 C 0.61797(17) 0.36678(13) 0.66748(8)
H6 H 0.69290 0.35950 0.61240
C14 C 0.49581(18) 0.24893(13) 0.69208(9)
H7 H 0.37720 0.28480 0.70520
H8 H 0.49490 0.21190 0.63920
C15 C 0.80088(19) 0.89518(14) 0.53496(9)
C16 C 0.66489(19) 0.06689(15) 0.91443(10)
C17 C 0.7005(2) 1.01581(15) 0.55371(10)
H9 H 0.67200 1.07720 0.49720
H10 H 0.76990 1.06030 0.58560
H11 H 0.59390 0.98900 0.59060
C18 C 0.7544(2) 0.08673(17) 0.99036(11)
H12 H 0.75910 0.00350 1.03700
H13 H 0.69110 0.15690 1.01490
H14 H 0.87190 0.11290 0.96900
C19 C 0.9689(2) 0.88069(15) 0.74158(11)
H15 H 0.87590 0.94990 0.74680
H16 H 1.03070 0.90650 0.68140
C20 C 1.0907(3) 0.86903(19) 0.81161(14)
H17 H 1.14100 0.95480 0.80440
H18 H 1.18270 0.80090 0.80570
H19 H 1.02840 0.84370 0.87090
C21 C 0.3843(2) 0.36842(16) 0.9188(1)
H20 H 0.44550 0.39990 0.96190
H21 H 0.36910 0.27200 0.94250
C22 C 0.2120(2) 0.44287(18) 0.90648(11)
H22 H 0.14140 0.42590 0.96370
H23 H 0.15390 0.41290 0.86240
H24 H 0.22810 0.53850 0.88530
H25 H 0.572(4) -0.050(3) 0.854(2)
H26 H 0.929(4) 0.800(3) 0.459(2)
#END
