
#######################################################################
#
#                 Cambridge Crystallographic Data Centre
#                                CCDC
#
#######################################################################
#
# If this CIF has been generated from an entry in the Cambridge
# Structural Database, then it will include bibliographic, chemical,
# crystal, experimental, refinement or atomic coordinate data resulting
# from the CCDC's data processing and validation procedures.
#
#######################################################################

data_CSD_CIF_IWIXOD
_audit_creation_date 2016-10-10
_audit_creation_method CSD-ConQuest-V1
_database_code_CSD IWIXOD
_database_code_depnum_ccdc_archive 'CCDC 1429658'
_chemical_formula_sum 'C18 H13 N5 O8'
_chemical_formula_moiety
;
C18 H13 N5 O8
;
_journal_coden_Cambridge 122
_journal_volume 51
_journal_year 2015
_journal_page_first 903
_journal_name_full 'Khim.Get.Soedin.,SSSR(Russ.)(Chem.Heterocycl.Compd.) '
loop_
_publ_author_name
"P.G.Morozov"
"S.V.Kurbatov"
"Yu.P.Semenyuk"
"O.N.Burov"
"M.E.Kletskii"
"N.S.Fedik"
"K.F.Suzdalev"
_chemical_name_systematic
;
(6bR*,7R*,10aR*)-8-acetyl-9-hydroxy-6b-nitro-7-phenyl-6b,7,10,10a-tetrahydrona
phtho(1,2-c:3,4-c')bis(1,2,5)oxadiazole 1,4-dioxide
;
_cell_volume   1793.794
_exptl_crystal_colour 'colorless'
_exptl_crystal_density_diffrn 1.582
_exptl_crystal_description 'prism'
_diffrn_ambient_temperature 110
#These two values have been output from a single CSD field.
_refine_ls_R_factor_gt 0.0489
_refine_ls_wR_factor_gt 0.0489
loop_
_citation_database_id_CSD
_citation_special_details
IWIXIX "is a stereoisomer of this entry"
_symmetry_cell_setting monoclinic
_symmetry_space_group_name_H-M 'P 21/c'
_symmetry_Int_Tables_number 14
loop_
_symmetry_equiv_pos_site_id
_symmetry_equiv_pos_as_xyz
1 x,y,z
2 -x,1/2+y,1/2-z
3 -x,-y,-z
4 x,-1/2-y,-1/2+z
_cell_length_a 11.9843(16)
_cell_length_b 11.9915(16)
_cell_length_c 12.8347(17)
_cell_angle_alpha 90
_cell_angle_beta 103.462(3)
_cell_angle_gamma 90
_cell_formula_units_Z 4
loop_
_atom_type_symbol
_atom_type_radius_bond
C 0.68
H 0.23
N 0.68
O 0.68
loop_
_atom_site_label
_atom_site_type_symbol
_atom_site_fract_x
_atom_site_fract_y
_atom_site_fract_z
O1 O 0.54519(11) 0.18669(10) -0.03242(9)
N1 N 0.49172(11) 0.23081(11) 0.02643(10)
O2 O 0.36634(10) 0.2152(1) 0.00181(9)
N2 N 0.32332(12) 0.27114(12) 0.07785(11)
C1 C 0.42128(13) 0.39119(13) 0.23091(12)
C2 C 0.41298(13) 0.31666(13) 0.14179(12)
O3 O 0.24552(10) 0.39703(12) 0.28285(10)
N3 N 0.34452(12) 0.42021(12) 0.28517(11)
O4 O 0.4040(1) 0.50195(10) 0.36563(9)
N4 N 0.51337(12) 0.51659(11) 0.35145(11)
C3 C 0.52330(13) 0.45077(13) 0.27337(12)
C4 C 0.62693(13) 0.44169(13) 0.22540(12)
O5 O 0.57519(11) 0.62117(10) 0.15463(10)
N5 N 0.60536(11) 0.52876(11) 0.13290(11)
C5 C 0.74024(13) 0.47723(13) 0.30431(12)
H1 H 0.72460 0.54750 0.34030
O6 O 0.62338(11) 0.50086(11) 0.04674(9)
C6 C 0.77376(13) 0.38854(13) 0.39000(12)
O7 O 0.77790(11) 0.19892(11) 0.44087(10)
H2 H 0.822(3) 0.243(3) 0.508(3)
C7 C 0.74598(13) 0.27972(14) 0.36918(12)
O8 O 0.86913(12) 0.34610(12) 0.56723(10)
C8 C 0.51691(13) 0.29299(13) 0.11276(12)
C9 C 0.67322(14) 0.23711(13) 0.26617(13)
H3 H 0.60420 0.20160 0.28150
H4 H 0.71670 0.17840 0.23850
C10 C 0.63361(13) 0.32494(13) 0.17672(12)
H5 H 0.68870 0.32650 0.12900
C11 C 0.83447(14) 0.50222(14) 0.24536(12)
C12 C 0.85566(16) 0.61229(16) 0.22087(15)
H6 H 0.81300 0.67130 0.24230
C13 C 0.93971(19) 0.6357(2) 0.16468(16)
H7 H 0.95340 0.71070 0.14740
C14 C 1.00296(18) 0.5509(2) 0.13416(16)
H8 H 1.06020 0.56770 0.09630
C15 C 0.98313(15) 0.4418(2) 0.15850(14)
H9 H 1.02650 0.38330 0.13710
C16 C 0.89952(14) 0.41709(16) 0.21456(13)
H10 H 0.88670 0.34190 0.23190
C17 C 0.83896(14) 0.41951(16) 0.49658(13)
C18 C 0.86996(15) 0.53827(16) 0.52303(14)
H11 H 0.92460 0.54230 0.59280
H12 H 0.80070 0.58050 0.52570
H13 H 0.90500 0.57010 0.46790
#END
