
#######################################################################
#
#                 Cambridge Crystallographic Data Centre
#                                CCDC
#
#######################################################################
#
# If this CIF has been generated from an entry in the Cambridge
# Structural Database, then it will include bibliographic, chemical,
# crystal, experimental, refinement or atomic coordinate data resulting
# from the CCDC's data processing and validation procedures.
#
#######################################################################

data_CSD_CIF_IWONOY
_audit_creation_date 2011-10-18
_audit_creation_method CSD-ConQuest-V1
_database_code_CSD IWONOY
_database_code_depnum_ccdc_archive 'CCDC 806306'
_chemical_formula_sum 'C26 H34 N2 O7'
_chemical_formula_moiety
;
C26 H34 N2 O7
;
_journal_coden_Cambridge 24
_journal_volume 52
_journal_year 2011
_journal_page_first 3705
_journal_name_full 'Tetrahedron Lett. '
loop_
_publ_author_name
"O.V.Kulikov"
"C.Incarvito"
"A.D.Hamilton"
_chemical_name_systematic
;
Isobutyl 3-isobutoxy-4-((3-isobutoxy-4-nitrobenzoyl)amino)benzoate
;
_cell_volume   1269.294
_exptl_crystal_colour 'colorless'
_exptl_crystal_density_diffrn 1.273
_exptl_crystal_description 'rod'
_diffrn_ambient_temperature 93
#These two values have been output from a single CSD field.
_refine_ls_R_factor_gt 0.0448
_refine_ls_wR_factor_gt 0.0448
_symmetry_cell_setting triclinic
_symmetry_space_group_name_H-M 'P -1'
_symmetry_Int_Tables_number 2
loop_
_symmetry_equiv_pos_site_id
_symmetry_equiv_pos_as_xyz
1 x,y,z
2 -x,-y,-z
_cell_length_a 7.23604(17)
_cell_length_b 12.2095(3)
_cell_length_c 14.6631(10)
_cell_angle_alpha 83.555(6)
_cell_angle_beta 83.851(6)
_cell_angle_gamma 82.024(6)
_cell_formula_units_Z 2
loop_
_atom_type_symbol
_atom_type_radius_bond
C 0.68
H 0.23
N 0.68
O 0.68
loop_
_atom_site_label
_atom_site_type_symbol
_atom_site_fract_x
_atom_site_fract_y
_atom_site_fract_z
O1 O 0.4467(2) 1.48751(12) 0.64124(11)
O2 O 0.2646(2) 1.41385(13) 0.75239(12)
O3 O 0.3081(2) 1.19627(12) 0.7529(1)
O4 O 0.3716(2) 1.08595(12) 0.36104(11)
O5 O 0.1442(2) 0.81044(12) 0.58907(10)
O6 O 0.0757(2) 0.50775(12) 0.37743(10)
O7 O 0.2120(2) 0.58169(12) 0.24367(11)
N1 N 0.3509(3) 1.41351(16) 0.67557(14)
N2 N 0.2314(3) 0.98115(15) 0.48033(15)
C1 C 0.3397(3) 1.32304(18) 0.61904(16)
C2 C 0.3572(3) 1.34711(18) 0.52455(16)
C3 C 0.3480(3) 1.26510(18) 0.46832(16)
C4 C 0.3194(3) 1.15858(17) 0.50717(16)
C5 C 0.3049(3) 1.13502(18) 0.60197(15)
C6 C 0.3138(3) 1.21601(18) 0.65998(15)
C7 C 0.2952(4) 1.08422(19) 0.79348(16)
C8 C 0.2906(4) 1.0867(2) 0.89668(17)
C9 C 0.4666(4) 1.1260(2) 0.92289(18)
C10 C 0.1157(5) 1.1563(3) 0.9336(2)
C11 C 0.3109(3) 1.07281(18) 0.44270(16)
C12 C 0.2097(3) 0.88627(18) 0.43806(16)
C13 C 0.2298(3) 0.88046(18) 0.34309(16)
C14 C 0.2081(3) 0.78259(18) 0.30848(16)
C15 C 0.1616(3) 0.69141(18) 0.36776(16)
C16 C 0.1366(3) 0.69755(18) 0.46235(16)
C17 C 0.1612(3) 0.79421(18) 0.49778(15)
C18 C 0.1085(3) 0.71681(18) 0.65521(15)
C19 C 0.1210(4) 0.74777(19) 0.75161(16)
C20 C 0.3186(4) 0.7605(2) 0.76813(18)
C21 C -0.0171(4) 0.8488(2) 0.77384(17)
C22 C 0.1428(3) 0.58433(19) 0.33241(16)
C23 C 0.2008(4) 0.48041(18) 0.20349(16)
C24 C 0.3019(4) 0.48634(19) 0.10812(16)
C25 C 0.2957(4) 0.37733(19) 0.06710(17)
C26 C 0.2169(4) 0.5853(2) 0.04669(17)
H1 H 0.191(4) 0.977(2) 0.5403(18)
H2 H 0.37550 1.42000 0.49830
H3 H 0.36130 1.28120 0.40320
H4 H 0.28840 1.06180 0.62790
H5 H 0.40490 1.03340 0.77060
H6 H 0.18000 1.05840 0.77770
H7 H 0.28670 1.00880 0.92580
H8 H 0.47660 1.20140 0.89350
H9 H 0.57690 1.07580 0.90200
H10 H 0.45970 1.12620 0.99000
H11 H 0.11700 1.23370 0.90750
H12 H 0.11140 1.15230 1.00090
H13 H 0.00510 1.12820 0.91640
H14 H 0.25820 0.94330 0.30230
H15 H 0.22500 0.77770 0.24390
H16 H 0.10280 0.63550 0.50260
H17 H 0.20200 0.65180 0.64250
H18 H -0.01770 0.69680 0.65020
H19 H 0.08350 0.68410 0.79540
H20 H 0.35620 0.82750 0.73170
H21 H 0.40350 0.69530 0.74970
H22 H 0.32470 0.76700 0.83370
H23 H -0.14420 0.83530 0.76520
H24 H 0.01510 0.91370 0.73270
H25 H -0.01150 0.86280 0.83790
H26 H 0.06790 0.47120 0.20020
H27 H 0.25900 0.41580 0.24210
H28 H 0.43580 0.49480 0.11320
H29 H 0.16540 0.36280 0.06950
H30 H 0.36770 0.31640 0.10260
H31 H 0.35020 0.38300 0.00290
H32 H 0.22240 0.65400 0.07450
H33 H 0.08610 0.57760 0.04030
H34 H 0.28770 0.58790 -0.01420
#END
