
#######################################################################
#
#                 Cambridge Crystallographic Data Centre
#                                CCDC
#
#######################################################################
#
# If this CIF has been generated from an entry in the Cambridge
# Structural Database, then it will include bibliographic, chemical,
# crystal, experimental, refinement or atomic coordinate data resulting
# from the CCDC's data processing and validation procedures.
#
#######################################################################

data_CSD_CIF_IWOPAM01
_audit_creation_date 2012-09-26
_audit_creation_method CSD-ConQuest-V1
_database_code_CSD IWOPAM01
_database_code_depnum_ccdc_archive 'CCDC 846379'
_chemical_formula_sum 'C21 H24 N2 O7'
_chemical_formula_moiety
;
C21 H24 N2 O7
;
_journal_coden_Cambridge 16
_journal_volume 68
_journal_year 2012
_journal_page_first 4485
_journal_name_full 'Tetrahedron '
loop_
_publ_author_name
"P.Prabhakaran"
"V.Azzarito"
"T.Jacobs"
"M.J.Hardie"
"C.A.Kilner"
"T.A.Edwards"
"S.L.Warriner"
"A.J.Wilson"
_chemical_name_systematic
;
Methyl 3-isopropoxy-4-((3-isopropoxy-4-nitrobenzoyl)amino)benzoate
;
_cell_volume   2107.458
_exptl_crystal_colour 'colorless'
_exptl_crystal_density_diffrn 1.312
_exptl_crystal_description 'plate'
_diffrn_ambient_temperature 150
#These two values have been output from a single CSD field.
_refine_ls_R_factor_gt 0.0421
_refine_ls_wR_factor_gt 0.0421
_symmetry_cell_setting monoclinic
_symmetry_space_group_name_H-M 'P 21/c'
_symmetry_Int_Tables_number 14
loop_
_symmetry_equiv_pos_site_id
_symmetry_equiv_pos_as_xyz
1 x,y,z
2 -x,1/2+y,1/2-z
3 -x,-y,-z
4 x,-1/2-y,-1/2+z
_cell_length_a 11.1751(8)
_cell_length_b 12.8604(9)
_cell_length_c 14.9153(12)
_cell_angle_alpha 90
_cell_angle_beta 100.532(4)
_cell_angle_gamma 90
_cell_formula_units_Z 4
loop_
_atom_type_symbol
_atom_type_radius_bond
C 0.68
H 0.23
N 0.68
O 0.68
loop_
_atom_site_label
_atom_site_type_symbol
_atom_site_fract_x
_atom_site_fract_y
_atom_site_fract_z
O1 O 0.61277(7) 0.29847(6) 0.14944(6)
O2 O 0.31278(8) 0.55411(6) 0.05768(6)
O3 O 0.33281(8) -0.02376(7) 0.17230(7)
O4 O 0.15105(8) 0.04111(7) 0.10057(6)
N1 N 0.46945(9) 0.46180(7) 0.14418(7)
H1 H 0.54260 0.46840 0.17750
O5 O 0.83081(8) 0.70884(6) 0.09673(7)
C1 C 0.49151(11) 0.27419(9) 0.14632(8)
C2 C 0.63167(11) 0.62604(9) 0.09930(8)
H2 H 0.66370 0.55770 0.09810
C3 C 0.42002(11) 0.54852(9) 0.09771(8)
C4 C 0.41316(11) 0.36178(9) 0.14350(8)
C5 C 0.50649(11) 0.64015(9) 0.09938(8)
C6 C 0.65669(11) 0.81248(9) 0.10291(9)
C7 C 0.45656(12) 0.74101(9) 0.09852(9)
H3 H 0.37180 0.75010 0.09690
C8 C 0.44259(11) 0.17399(9) 0.14455(9)
H4 H 0.49430 0.11510 0.14640
C9 C 0.23913(11) 0.24668(9) 0.13844(9)
H5 H 0.15430 0.23710 0.13580
C10 C 0.70977(11) 0.71256(9) 0.10093(8)
C11 C 0.31589(11) 0.16026(9) 0.13998(8)
O6 O 0.69317(11) 0.98058(7) 0.05558(8)
C12 C 0.53247(12) 0.82732(9) 0.10012(9)
H6 H 0.49980 0.89560 0.09930
C13 C 0.28800(11) 0.34754(9) 0.14087(9)
H7 H 0.23630 0.40620 0.14070
N2 N 0.73429(12) 0.90680(9) 0.10639(9)
C14 C 0.69950(11) 0.21457(9) 0.14218(9)
H8 H 0.66270 0.16490 0.09330
C15 C 0.27015(11) 0.05036(9) 0.14002(9)
O7 O 0.83269(10) 0.90867(8) 0.16056(9)
C16 C 0.80979(12) 0.26735(10) 0.11484(10)
H9 H 0.78370 0.30770 0.05900
H10 H 0.86860 0.21440 0.10410
H11 H 0.84790 0.31380 0.16390
C17 C 0.73360(12) 0.15633(10) 0.23267(9)
H12 H 0.76720 0.20550 0.28100
H13 H 0.79460 0.10310 0.22720
H14 H 0.66090 0.12310 0.24780
C18 C 0.92188(13) 0.55850(12) 0.18502(10)
H15 H 0.96610 0.60820 0.22870
H16 H 0.97230 0.49670 0.18230
H17 H 0.84600 0.53840 0.20460
C19 C 0.89248(11) 0.60875(9) 0.09075(9)
H18 H 0.83930 0.56150 0.04740
C20 C 1.00633(12) 0.63711(11) 0.05269(10)
H19 H 0.98230 0.66430 -0.00940
H20 H 1.05690 0.57500 0.05150
H21 H 1.05280 0.69020 0.09150
C21 C 0.10354(13) -0.0654(1) 0.09559(11)
H22 H 0.01740 -0.06490 0.06670
H23 H 0.11190 -0.09410 0.15730
H24 H 0.14950 -0.10840 0.05950
#END
