
#######################################################################
#
#                 Cambridge Crystallographic Data Centre
#                                CCDC
#
#######################################################################
#
# If this CIF has been generated from an entry in the Cambridge
# Structural Database, then it will include bibliographic, chemical,
# crystal, experimental, refinement or atomic coordinate data resulting
# from the CCDC's data processing and validation procedures.
#
#######################################################################

data_CSD_CIF_IWUQEY
_audit_creation_date 2016-10-11
_audit_creation_method CSD-ConQuest-V1
_database_code_CSD IWUQEY
_database_code_depnum_ccdc_archive 'CCDC 1471107'
_chemical_formula_sum 'C25 H27 N1 O5'
_chemical_formula_moiety
;
C25 H27 N1 O5
;
_journal_coden_Cambridge 35
_journal_volume 81
_journal_year 2016
_journal_page_first 8722
_journal_name_full 'J.Org.Chem. '
loop_
_publ_author_name
"H.Tanimoto"
"T.Shitaoka"
"K.Yokoyama"
"T.Morimoto"
"Y.Nishiyama"
"K.Kakiuchi"
_chemical_name_systematic
;
2-butyl-7,7-dimethyl-4,4-diphenyl-6,8-dioxa-1-azaspiro[4.5]dec-1-ene-3,9-dione
 1-oxide
;
_cell_volume   2189.611
_exptl_crystal_colour 'colorless'
_exptl_crystal_density_diffrn 1.278
_exptl_crystal_description 'prism'
_diffrn_ambient_temperature 123
#These two values have been output from a single CSD field.
_refine_ls_R_factor_gt 0.0295
_refine_ls_wR_factor_gt 0.0295
_symmetry_cell_setting orthorhombic
_symmetry_space_group_name_H-M 'P c a 21'
_symmetry_Int_Tables_number 29
loop_
_symmetry_equiv_pos_site_id
_symmetry_equiv_pos_as_xyz
1 x,y,z
2 1/2-x,y,1/2+z
3 1/2+x,-y,z
4 -x,-y,1/2+z
_cell_length_a 22.5932(4)
_cell_length_b 9.89595(19)
_cell_length_c 9.79336(18)
_cell_angle_alpha 90
_cell_angle_beta 90
_cell_angle_gamma 90
_cell_formula_units_Z 4
loop_
_atom_type_symbol
_atom_type_radius_bond
C 0.68
H 0.23
N 0.68
O 0.68
loop_
_atom_site_label
_atom_site_type_symbol
_atom_site_fract_x
_atom_site_fract_y
_atom_site_fract_z
O1 O 0.78501(6) 0.64031(14) 0.51180(14)
O2 O 0.90510(6) 0.73248(13) 0.88113(13)
O3 O 0.87837(5) 0.79308(13) 0.40785(12)
O4 O 0.78590(5) 0.87659(13) 0.32243(13)
O5 O 0.71935(6) 0.96184(14) 0.46146(14)
N1 N 0.82411(6) 0.68933(15) 0.58946(16)
C1 C 0.85981(7) 0.81278(16) 0.54044(17)
C2 C 0.83571(8) 0.65561(18) 0.71641(19)
C3 C 0.88545(7) 0.73516(17) 0.76575(18)
C4 C 0.91234(7) 0.81259(17) 0.64362(18)
C5 C 0.84785(7) 0.85202(18) 0.29298(18)
C6 C 0.76951(8) 0.92606(18) 0.44491(19)
C7 C 0.81729(7) 0.93287(17) 0.55292(18)
C8 C 0.87726(9) 0.98347(19) 0.2517(2)
C9 C 0.84955(9) 0.7466(2) 0.1831(2)
C10 C 0.80260(8) 0.55080(18) 0.7924(2)
C11 C 0.82267(10) 0.4071(2) 0.7589(3)
C12 C 0.79245(11) 0.3027(3) 0.8504(4)
C13 C 0.72651(12) 0.2972(3) 0.8373(4)
C14 C 0.96440(7) 0.71889(17) 0.60381(17)
C15 C 0.95973(8) 0.60944(18) 0.51462(19)
C16 C 1.00829(9) 0.52578(18) 0.49098(19)
C17 C 1.06130(8) 0.54727(19) 0.5584(2)
C18 C 1.06566(8) 0.6526(2) 0.6514(2)
C19 C 1.01772(8) 0.73777(18) 0.67397(19)
C20 C 0.93342(7) 0.95584(17) 0.67187(18)
C21 C 0.91987(8) 1.02594(17) 0.79124(19)
C22 C 0.93905(8) 1.15884(18) 0.8076(2)
C23 C 0.97041(8) 1.22343(18) 0.7052(2)
C24 C 0.98357(8) 1.15460(18) 0.5851(2)
C25 C 0.96549(8) 1.02137(17) 0.56913(18)
H1 H 0.79883 0.93244 0.64459
H2 H 0.83971 1.01825 0.54282
H3 H 0.85696 1.02104 0.17182
H4 H 0.91885 0.96647 0.22905
H5 H 0.87499 1.04790 0.32749
H6 H 0.89077 0.72782 0.15840
H7 H 0.82816 0.77951 0.10263
H8 H 0.83082 0.66358 0.21639
H9 H 0.75994 0.55954 0.77106
H10 H 0.80761 0.56667 0.89157
H11 H 0.81338 0.38691 0.66220
H12 H 0.86609 0.40047 0.77062
H13 H 0.80873 0.21235 0.82870
H14 H 0.80255 0.32297 0.94661
H15 H 0.70964 0.38499 0.86226
H16 H 0.71084 0.22728 0.89831
H17 H 0.71586 0.27558 0.74279
H18 H 0.92325 0.59185 0.46977
H19 H 1.00496 0.45323 0.42792
H20 H 1.09437 0.49048 0.54114
H21 H 1.10157 0.66662 0.69982
H22 H 1.02120 0.80963 0.73779
H23 H 0.89760 0.98325 0.86131
H24 H 0.93049 1.20562 0.88999
H25 H 0.98291 1.31436 0.71696
H26 H 1.00484 1.19860 0.51419
H27 H 0.97502 0.97420 0.48755
#END
