
#######################################################################
#
#                 Cambridge Crystallographic Data Centre
#                                CCDC
#
#######################################################################
#
# If this CIF has been generated from an entry in the Cambridge
# Structural Database, then it will include bibliographic, chemical,
# crystal, experimental, refinement or atomic coordinate data resulting
# from the CCDC's data processing and validation procedures.
#
#######################################################################

data_CSD_CIF_JABMAD01
_audit_creation_date 2015-12-10
_audit_creation_method CSD-ConQuest-V1
_database_code_CSD JABMAD01
_database_code_depnum_ccdc_archive 'CCDC 1407784'
_chemical_formula_sum 'C4 H3 N7 O2'
_chemical_formula_moiety
;
C4 H3 N7 O2
;
_journal_coden_Cambridge 122
_journal_volume 51
_journal_year 2015
_journal_page_first 695
_journal_name_full 'Khim.Get.Soedin.,SSSR(Russ.)(Chem.Heterocycl.Compd.) '
loop_
_publ_author_name
"I.A.Vatsadze"
"O.V.Serushkina"
"M.D.Dutov"
"T.K.Shkineva"
"K.Yu.Suponitsky"
"B.I.Ugrak"
"I.L.Dalinger"
_chemical_name_systematic
;
1-(1-nitro-1H-pyrazol-4-yl)-1H-tetrazole
;
_cell_volume   1392.039
_exptl_crystal_colour 'colorless'
_exptl_crystal_density_diffrn 1.729
_exptl_crystal_description 'Prism'
_diffrn_ambient_temperature 298
#These two values have been output from a single CSD field.
_refine_ls_R_factor_gt 0.0436
_refine_ls_wR_factor_gt 0.0436
_symmetry_cell_setting orthorhombic
_symmetry_space_group_name_H-M 'P b c a'
_symmetry_Int_Tables_number 61
loop_
_symmetry_equiv_pos_site_id
_symmetry_equiv_pos_as_xyz
1 x,y,z
2 1/2-x,-y,1/2+z
3 -x,1/2+y,1/2-z
4 1/2+x,1/2-y,-z
5 -x,-y,-z
6 -1/2+x,y,-1/2-z
7 x,-1/2-y,-1/2+z
8 -1/2-x,-1/2+y,z
_cell_length_a 11.0265(8)
_cell_length_b 10.4626(8)
_cell_length_c 12.0663(9)
_cell_angle_alpha 90
_cell_angle_beta 90
_cell_angle_gamma 90
_cell_formula_units_Z 8
loop_
_atom_type_symbol
_atom_type_radius_bond
C 0.68
H 0.23
N 0.68
O 0.68
loop_
_atom_site_label
_atom_site_type_symbol
_atom_site_fract_x
_atom_site_fract_y
_atom_site_fract_z
O1 O 0.96112(13) 0.38887(16) 0.38412(15)
O2 O 0.77367(10) 0.40101(11) 0.43634(10)
N1 N 0.89051(10) 0.24722(12) 0.50461(10)
N2 N 1.00385(11) 0.21189(14) 0.53210(12)
N3 N 0.80923(9) -0.00914(10) 0.67656(9)
N4 N 0.6884(1) -0.01462(12) 0.69281(11)
N5 N 0.66931(12) -0.11270(13) 0.75473(12)
N6 N 0.77463(12) -0.17269(12) 0.78031(11)
N7 N 0.87374(12) 0.35558(13) 0.43596(10)
C1 C 0.98582(13) 0.11450(16) 0.59935(14)
C2 C 0.86101(11) 0.08867(12) 0.61231(10)
C3 C 0.80007(12) 0.17656(13) 0.55065(10)
C4 C 0.86004(14) -0.10697(14) 0.73114(12)
H1 H 1.0548(19) 0.0714(19) 0.6337(16)
H2 H 0.7185(17) 0.1942(16) 0.5347(14)
H3 H 0.9449(18) -0.1223(15) 0.7340(14)
#END
