
#######################################################################
#
#                 Cambridge Crystallographic Data Centre
#                                CCDC
#
#######################################################################
#
# If this CIF has been generated from an entry in the Cambridge
# Structural Database, then it will include bibliographic, chemical,
# crystal, experimental, refinement or atomic coordinate data resulting
# from the CCDC's data processing and validation procedures.
#
#######################################################################

data_CSD_CIF_JAYSAE
_audit_creation_date 2006-01-09
_audit_creation_method CSD-ConQuest-V1
_database_code_CSD JAYSAE
_database_code_depnum_ccdc_archive 'CCDC 289935'
_chemical_formula_sum 'C24 H29 N5 O3'
_chemical_formula_moiety
;
C24 H29 N5 O3
;
_journal_coeditor_code "IUCr WW6429"
_journal_coden_Cambridge 1370
_journal_volume 61
_journal_year 2005
_journal_page_first o3750
_journal_name_full 'Acta Crystallogr.,Sect.E:Struct.Rep.Online '
loop_
_publ_author_name
"Hai-Bo Wang"
"Yue-Qing Pu"
"Jia-Hui Chen"
"Jin-Tang Wang"
_chemical_name_systematic
;
1-((2,6-Dimethylphenyl)aminocarbonylmethyl)-4-((3-(3-methoxyphenyl)-1,2,4-oxad
iazol-5-yl)methyl)piperazine
;
_cell_volume   2292.876
_exptl_crystal_colour 'colorless'
_exptl_crystal_density_diffrn 1.262
_exptl_special_details
;
potential biological activity

;
_exptl_crystal_description 'block'
_exptl_crystal_preparation 'ethanol'
_diffrn_ambient_temperature 293
#These two values have been output from a single CSD field.
_refine_ls_R_factor_gt 0.0574
_refine_ls_wR_factor_gt 0.0574
_symmetry_cell_setting monoclinic
_symmetry_space_group_name_H-M 'P 21/c'
_symmetry_Int_Tables_number 14
loop_
_symmetry_equiv_pos_site_id
_symmetry_equiv_pos_as_xyz
1 x,y,z
2 -x,1/2+y,1/2-z
3 -x,-y,-z
4 x,-1/2-y,-1/2+z
_cell_length_a 17.120(3)
_cell_length_b 10.271(2)
_cell_length_c 13.042(3)
_cell_angle_alpha 90
_cell_angle_beta 91.10(3)
_cell_angle_gamma 90
_cell_formula_units_Z 4
loop_
_atom_type_symbol
_atom_type_radius_bond
C 0.68
H 0.23
N 0.68
O 0.68
loop_
_atom_site_label
_atom_site_type_symbol
_atom_site_fract_x
_atom_site_fract_y
_atom_site_fract_z
O1 O 0.62504(17) -0.4005(3) 1.1594(2)
O2 O 0.58584(13) 0.2310(2) 0.96094(18)
O3 O 1.01782(14) 0.63426(19) 0.74072(19)
N1 N 0.56240(16) 0.1670(3) 1.0516(2)
N2 N 0.62927(14) 0.0306(2) 0.9501(2)
N3 N 0.71048(14) 0.2991(2) 0.82335(19)
N4 N 0.85797(15) 0.4313(2) 0.8194(2)
N5 N 0.99969(16) 0.4167(2) 0.7270(2)
C1 C 0.6357(3) -0.4449(4) 1.0595(4)
H1 H 0.65010 -0.53520 1.06110
H2 H 0.67640 -0.39540 1.02820
H3 H 0.58800 -0.43460 1.02050
C2 C 0.6044(2) -0.2735(4) 1.1732(3)
C3 C 0.5788(2) -0.2416(4) 1.2691(3)
H4 H 0.57790 -0.30450 1.32040
C4 C 0.5547(2) -0.1178(5) 1.2894(3)
H5 H 0.53610 -0.09790 1.35410
C5 C 0.5573(2) -0.0219(4) 1.2157(3)
H6 H 0.54110 0.06230 1.23080
C6 C 0.58403(17) -0.0519(3) 1.1194(2)
C7 C 0.60720(18) -0.1782(3) 1.0978(3)
H7 H 0.62460 -0.19920 1.03280
C8 C 0.58997(17) 0.0491(3) 1.0398(3)
C9 C 0.62509(17) 0.1432(3) 0.9067(3)
C10 C 0.66072(18) 0.1845(3) 0.8093(2)
H8 H 0.69160 0.11350 0.78250
H9 H 0.61970 0.20410 0.75930
C11 C 0.77107(18) 0.2795(3) 0.9026(3)
H10 H 0.80470 0.20780 0.88350
H11 H 0.74710 0.25780 0.96720
C12 C 0.81898(19) 0.4027(3) 0.9148(3)
H12 H 0.78520 0.47470 0.93270
H13 H 0.85750 0.39150 0.96960
C13 C 0.7987(2) 0.4516(3) 0.7394(3)
H14 H 0.82380 0.47040 0.67500
H15 H 0.76650 0.52570 0.75690
C14 C 0.74802(19) 0.3320(3) 0.7272(2)
H16 H 0.70830 0.34770 0.67460
H17 H 0.77980 0.25930 0.70540
C15 C 0.91131(19) 0.5419(3) 0.8295(3)
H18 H 0.93020 0.54650 0.90000
H19 H 0.88240 0.62120 0.81510
C16 C 0.98010(19) 0.5362(3) 0.7604(2)
C17 C 1.06152(18) 0.3914(3) 0.6586(3)
C18 C 1.1386(2) 0.4080(3) 0.6913(3)
C19 C 1.1964(2) 0.3814(3) 0.6207(4)
H20 H 1.24860 0.39130 0.64010
C20 C 1.1779(3) 0.3407(4) 0.5226(4)
H21 H 1.21750 0.32550 0.47630
C21 C 1.1014(2) 0.3226(3) 0.4930(3)
H22 H 1.08940 0.29420 0.42680
C22 C 1.04223(19) 0.3462(3) 0.5604(3)
C23 C 0.9589(2) 0.3230(3) 0.5282(3)
H23 H 0.92950 0.40190 0.53600
H24 H 0.93700 0.25610 0.57020
H25 H 0.95670 0.29620 0.45770
C24 C 1.1595(2) 0.4499(4) 0.7989(3)
H26 H 1.12340 0.41200 0.84580
H27 H 1.15690 0.54310 0.80360
H28 H 1.21150 0.42130 0.81610
H29 H 0.9669(18) 0.359(3) 0.741(3)
#END
