
#######################################################################
#
#                 Cambridge Crystallographic Data Centre
#                                CCDC
#
#######################################################################
#
# If this CIF has been generated from an entry in the Cambridge
# Structural Database, then it will include bibliographic, chemical,
# crystal, experimental, refinement or atomic coordinate data resulting
# from the CCDC's data processing and validation procedures.
#
#######################################################################

data_CSD_CIF_JAZJUS
_audit_creation_date 2017-06-16
_audit_creation_method CSD-ConQuest-V1
_database_code_CSD JAZJUS
_database_code_depnum_ccdc_archive 'CCDC 1477425'
_chemical_formula_sum 'C23 H21 N1 O6'
_chemical_formula_moiety
;
C23 H21 N1 O6
;
_journal_coden_Cambridge 1366
_journal_volume 359
_journal_year 2017
_journal_page_first 1892
_journal_name_full 'Adv.Synth.Catal. '
loop_
_publ_author_name
"Zi-Min Xing"
"Le-Le Song"
"Feng-Xing Li"
"Nian-sheng Xu"
"Lu-Feng Wang"
"Zi-Fa Shi"
"Xiao-Ping Cao"
_chemical_name_systematic
;
2-(4-(1-naphthyl)-3-nitro-5-oxo-5,6,7,8-tetrahydro-4H-chromen-2-yl)ethyl 
acetate
;
_cell_volume    994.945
_exptl_crystal_colour 'light colorless'
_exptl_crystal_density_diffrn 1.36
_exptl_crystal_description 'block'
_diffrn_ambient_temperature 273.8
#These two values have been output from a single CSD field.
_refine_ls_R_factor_gt 0.0435
_refine_ls_wR_factor_gt 0.0435
_symmetry_cell_setting monoclinic
_symmetry_space_group_name_H-M 'P 21'
_symmetry_Int_Tables_number 4
loop_
_symmetry_equiv_pos_site_id
_symmetry_equiv_pos_as_xyz
1 x,y,z
2 -x,1/2+y,-z
_cell_length_a 6.4071(8)
_cell_length_b 9.4614(11)
_cell_length_c 16.4578(19)
_cell_angle_alpha 90
_cell_angle_beta 94.239(11)
_cell_angle_gamma 90
_cell_formula_units_Z 2
loop_
_atom_type_symbol
_atom_type_radius_bond
C 0.68
H 0.23
N 0.68
O 0.68
loop_
_atom_site_label
_atom_site_type_symbol
_atom_site_fract_x
_atom_site_fract_y
_atom_site_fract_z
O1 O 1.0990(4) 0.3362(3) 0.68921(19)
O2 O 0.4695(4) 0.2925(3) 0.81686(16)
O3 O 0.7636(7) 0.7309(4) 0.8387(3)
O4 O 0.4299(6) 0.7304(4) 0.8408(2)
O5 O 0.5445(5) 0.4758(4) 1.02106(18)
O6 O 0.8003(6) 0.3355(5) 0.9834(3)
N1 N 0.5961(6) 0.6699(4) 0.83118(17)
C1 C 0.6279(5) 0.2425(4) 0.7727(2)
C2 C 0.6149(7) 0.0864(5) 0.7616(3)
H1 H 0.46980 0.05880 0.75070
H2 H 0.66850 0.03990 0.81140
C3 C 0.7386(9) 0.0398(5) 0.6926(3)
H3 H 0.75660 -0.06190 0.69530
H4 H 0.65970 0.06160 0.64150
C4 C 0.9470(8) 0.1071(5) 0.6927(3)
H5 H 1.00410 0.08760 0.64090
H6 H 1.03870 0.06300 0.73490
C5 C 0.9509(6) 0.2642(5) 0.7064(2)
C6 C 0.7717(5) 0.3264(4) 0.74422(19)
C7 C 0.7659(6) 0.4841(4) 0.7518(2)
H7 H 0.90160 0.51710 0.77590
C8 C 0.5987(6) 0.5227(4) 0.8079(2)
C9 C 0.4647(5) 0.4322(4) 0.8374(2)
C10 C 0.3070(6) 0.4522(6) 0.8998(2)
H8 H 0.17590 0.40790 0.88070
H9 H 0.28130 0.55230 0.90690
C11 C 0.3858(7) 0.3875(6) 0.9812(3)
H10 H 0.27020 0.37740 1.01570
H11 H 0.44280 0.29430 0.97230
C12 C 0.7436(8) 0.4352(6) 1.0202(3)
C13 C 0.8862(9) 0.5325(9) 1.0696(5)
H12 H 0.95780 0.59280 1.03390
H13 H 0.98680 0.47810 1.10250
H14 H 0.80570 0.58920 1.10420
C14 C 0.7222(5) 0.5541(4) 0.66732(19)
C15 C 0.5407(5) 0.5185(4) 0.6224(2)
H15 H 0.44920 0.45470 0.64400
C16 C 0.4890(7) 0.5761(5) 0.5442(2)
H16 H 0.36410 0.55150 0.51520
C17 C 0.6230(7) 0.6678(5) 0.5118(2)
H17 H 0.58980 0.70480 0.46010
C18 C 0.8120(7) 0.7078(4) 0.5553(2)
C19 C 0.9519(8) 0.8031(5) 0.5215(3)
H18 H 0.91920 0.84010 0.46970
C20 C 1.1337(9) 0.8411(5) 0.5637(4)
H19 H 1.22500 0.90290 0.54040
C21 C 1.1846(7) 0.7873(5) 0.6427(3)
H20 H 1.30820 0.81550 0.67130
C22 C 1.0560(6) 0.6952(4) 0.6773(3)
H21 H 1.09270 0.66060 0.72930
C23 C 0.8647(6) 0.6506(4) 0.6350(2)
#END
