
#######################################################################
#
#                 Cambridge Crystallographic Data Centre
#                                CCDC
#
#######################################################################
#
# If this CIF has been generated from an entry in the Cambridge
# Structural Database, then it will include bibliographic, chemical,
# crystal, experimental, refinement or atomic coordinate data resulting
# from the CCDC's data processing and validation procedures.
#
#######################################################################

data_CSD_CIF_JEZPOT
_audit_creation_date 1991-07-04
_audit_creation_method CSD-ConQuest-V1
_database_code_CSD JEZPOT
_database_code_depnum_ccdc_archive 'CCDC 1185645'
_chemical_formula_sum 'C13 H12 N2 O5'
_chemical_formula_moiety
;
C13 H12 N2 O5
;
_journal_coden_Cambridge 182
_journal_year 1990
_journal_page_first 1675
_journal_name_full 'Chem.Commun. '
loop_
_publ_author_name
"R.Nesi"
"D.Giomi"
"S.Papaleo"
"P.Dapporto"
"P.Paoli"
_chemical_name_systematic
;
3-(2-Ethoxycarbonyl-2-hydroxyethenyl)-1,2-dihydro-2-oxoquinoxaline 4-oxide
;
_chemical_melting_point 478.15
_cell_volume    620.955
_exptl_crystal_colour 'orange'
_exptl_crystal_density_diffrn 1.48
_exptl_special_details
;
Melting point range 478.15-479.15K

;
_diffrn_ambient_temperature ?
_diffrn_special_details
;
The study was carried out at room temperature,in the range 283-303K

;
#These two values have been output from a single CSD field.
_refine_ls_R_factor_gt 0.057
_refine_ls_wR_factor_gt 0.057
_symmetry_cell_setting triclinic
_symmetry_space_group_name_H-M 'P -1'
_symmetry_Int_Tables_number 2
loop_
_symmetry_equiv_pos_site_id
_symmetry_equiv_pos_as_xyz
1 x,y,z
2 -x,-y,-z
_cell_length_a 6.885(1)
_cell_length_b 7.942(1)
_cell_length_c 12.138(1)
_cell_angle_alpha 76.48(1)
_cell_angle_beta 84.16(1)
_cell_angle_gamma 74.38(1)
_cell_formula_units_Z 2
loop_
_atom_type_symbol
_atom_type_radius_bond
C 0.68
H 0.23
N 0.68
O 0.68
loop_
_atom_site_label
_atom_site_type_symbol
_atom_site_fract_x
_atom_site_fract_y
_atom_site_fract_z
N1 N 0.2566(6) 0.9010(6) 0.4702(4)
C1 C 0.2262(7) 0.7915(7) 0.5692(4)
O1 O 0.0596(5) 0.8078(4) 0.6189(3)
C2 C 0.4028(8) 0.6518(7) 0.6185(4)
N2 N 0.5770(6) 0.6304(5) 0.5558(3)
O2 O 0.7326(5) 0.4911(4) 0.5884(3)
C3 C 0.6058(7) 0.7497(7) 0.4540(4)
C4 C 0.7945(8) 0.7307(8) 0.3962(5)
C5 C 0.8154(9) 0.8487(8) 0.2957(5)
C6 C 0.6496(9) 0.9851(8) 0.2520(5)
C7 C 0.4643(8) 1.0051(7) 0.3090(5)
C8 C 0.4410(7) 0.8865(7) 0.4101(4)
C9 C 0.3774(9) 0.5423(7) 0.7271(5)
C10 C 0.5155(9) 0.4534(8) 0.8038(5)
O3 O 0.7084(7) 0.4507(7) 0.7956(4)
C11 C 0.4610(12) 0.3497(9) 0.9176(6)
O4 O 0.5781(8) 0.2797(8) 0.9905(4)
O5 O 0.2716(8) 0.3470(7) 0.9268(4)
C12 C 0.2162(30) 0.2582(27) 1.0411(12)
C13 C 0.0698(45) 0.1926(51) 1.0448(18)
H1 H 0.140(6) 1.009(5) 0.441(3)
H2 H 0.915(8) 0.634(6) 0.430(4)
H3 H 0.959(8) 0.825(7) 0.247(5)
H4 H 0.665(8) 1.070(7) 0.173(5)
H5 H 0.333(9) 1.116(8) 0.275(5)
H6 H 0.252(6) 0.564(6) 0.737(4)
H7 H 0.742(9) 0.477(8) 0.718(5)
H8 H 0.180(15) 0.312(12) 1.091(6)
H9 H 0.318(10) 0.290(9) 1.067(6)
H10 H 0.04(1) 0.138(8) 1.120(5)
H11 H 0.104(17) 0.152(12) 0.996(7)
H12 H 0.015(14) 0.266(11) 0.993(8)
#END
