
#######################################################################
#
#                 Cambridge Crystallographic Data Centre
#                                CCDC
#
#######################################################################
#
# If this CIF has been generated from an entry in the Cambridge
# Structural Database, then it will include bibliographic, chemical,
# crystal, experimental, refinement or atomic coordinate data resulting
# from the CCDC's data processing and validation procedures.
#
#######################################################################

data_CSD_CIF_JOFHES
_audit_creation_date 2009-02-06
_audit_creation_method CSD-ConQuest-V1
_database_code_CSD JOFHES
_database_code_depnum_ccdc_archive 'CCDC 696599'
_chemical_formula_sum 'C21 H31 N1 O6'
_chemical_formula_moiety
;
C21 H31 N1 O6
;
_journal_coeditor_code "IUCr HK2476"
_journal_coden_Cambridge 1370
_journal_volume 64
_journal_year 2008
_journal_page_first o1343
_journal_name_full 'Acta Crystallogr.,Sect.E:Struct.Rep.Online '
loop_
_publ_author_name
"Ji-Cai Quan"
"Jing Chen"
"Hao Xu"
"Chen-Hui Hu"
"Jin-Tang Wang"
_chemical_name_systematic
;
3-(2-(6-hydroxy-5-hydroxymethyl-5,8a-dimethyl-2-methyleneperhydro-1-napthyl)-1
-(nitromethyl)ethyl)-2(4H)-furanone
;
_chemical_name_common
;
12-Nitromethyl-14-deoxyandrographolide
;
_cell_volume   2032.241
_exptl_crystal_colour 'colorless'
_exptl_crystal_density_diffrn 1.289
_exptl_crystal_description 'block'
_exptl_crystal_preparation 'ethyl acetate'
_diffrn_ambient_temperature 294
#These two values have been output from a single CSD field.
_refine_ls_R_factor_gt 0.0545
_refine_ls_wR_factor_gt 0.0545
_symmetry_cell_setting orthorhombic
_symmetry_space_group_name_H-M 'P 21 21 21'
_symmetry_Int_Tables_number 19
loop_
_symmetry_equiv_pos_site_id
_symmetry_equiv_pos_as_xyz
1 x,y,z
2 1/2-x,-y,1/2+z
3 -x,1/2+y,1/2-z
4 1/2+x,1/2-y,-z
_cell_length_a 11.503(2)
_cell_length_b 13.151(3)
_cell_length_c 13.434(3)
_cell_angle_alpha 90
_cell_angle_beta 90
_cell_angle_gamma 90
_cell_formula_units_Z 4
loop_
_atom_type_symbol
_atom_type_radius_bond
C 0.68
H 0.23
N 0.68
O 0.68
loop_
_atom_site_label
_atom_site_type_symbol
_atom_site_fract_x
_atom_site_fract_y
_atom_site_fract_z
O1 O 0.3022(3) 0.2945(3) 0.3635(3)
H1 H 0.32100 0.28680 0.42190
O2 O 0.4711(3) 0.2805(3) 0.5078(2)
H2 H 0.477(5) 0.325(3) 0.553(3)
O3 O 0.9911(4) 0.6195(2) 0.1980(3)
O4 O 1.0518(4) 0.5831(2) 0.3513(2)
O5 O 1.2868(3) 0.3264(4) 0.0613(3)
O6 O 1.2176(3) 0.4675(3) 0.1109(3)
N1 N 1.2092(3) 0.3771(4) 0.0954(3)
C1 C 0.7547(4) 0.4347(4) 0.0088(3)
H3 H 0.71620 0.47130 -0.04040
H4 H 0.80970 0.38610 -0.00880
C2 C 0.7313(4) 0.4515(3) 0.1031(3)
C3 C 0.6437(4) 0.5286(3) 0.1353(4)
H5 H 0.61290 0.56360 0.07750
H6 H 0.68060 0.57860 0.17800
C4 C 0.5440(4) 0.4763(3) 0.1922(3)
H7 H 0.49090 0.52740 0.21750
H8 H 0.50110 0.43260 0.14700
C5 C 0.5913(3) 0.4130(3) 0.2788(3)
H9 H 0.63780 0.46150 0.31720
C6 C 0.6812(3) 0.3322(3) 0.2437(3)
C7 C 0.7821(3) 0.3923(3) 0.1901(3)
H10 H 0.80880 0.44330 0.23800
C8 C 0.4951(3) 0.3781(3) 0.3532(3)
C9 C 0.5559(4) 0.3237(4) 0.4396(3)
H11 H 0.60210 0.37400 0.47610
C10 C 0.6359(4) 0.2395(3) 0.4063(3)
H12 H 0.59080 0.18760 0.37250
H13 H 0.67170 0.20850 0.46420
C11 C 0.7308(3) 0.2784(3) 0.3364(3)
H14 H 0.77860 0.22160 0.31530
H15 H 0.78020 0.32550 0.37240
C12 C 0.4332(5) 0.4722(4) 0.3948(4)
H16 H 0.37360 0.45130 0.44050
H17 H 0.39880 0.50980 0.34110
H18 H 0.48840 0.51440 0.42890
C13 C 0.4032(3) 0.3085(4) 0.3047(4)
H19 H 0.38060 0.33750 0.24120
H20 H 0.43800 0.24270 0.29170
C14 C 0.6321(4) 0.2524(3) 0.1714(3)
H21 H 0.57020 0.21570 0.20320
H22 H 0.69250 0.20580 0.15270
H23 H 0.60270 0.28570 0.11300
C15 C 0.8890(3) 0.3280(3) 0.1645(3)
H24 H 0.87420 0.29140 0.10310
H25 H 0.90110 0.27830 0.21670
C16 C 1.0006(3) 0.3920(3) 0.1522(3)
H26 H 0.98760 0.44250 0.09980
C17 C 1.0987(4) 0.3222(4) 0.1201(4)
H27 H 1.11410 0.27390 0.17310
H28 H 1.07380 0.28390 0.06210
C18 C 1.0289(3) 0.4467(3) 0.2473(3)
C19 C 1.0200(4) 0.5570(4) 0.2574(3)
C20 C 1.0817(5) 0.4937(4) 0.4047(4)
H29 H 1.03200 0.48550 0.46250
H30 H 1.16200 0.49650 0.42680
C21 C 1.0646(4) 0.4099(4) 0.3342(3)
H31 H 1.07690 0.34150 0.34810
#END
