
#######################################################################
#
#                 Cambridge Crystallographic Data Centre
#                                CCDC
#
#######################################################################
#
# If this CIF has been generated from an entry in the Cambridge
# Structural Database, then it will include bibliographic, chemical,
# crystal, experimental, refinement or atomic coordinate data resulting
# from the CCDC's data processing and validation procedures.
#
#######################################################################

data_CSD_CIF_JOXNOB
_audit_creation_date 2015-03-13
_audit_creation_method CSD-ConQuest-V1
_database_code_CSD JOXNOB
_database_code_depnum_ccdc_archive 'CCDC 999632'
_chemical_formula_sum 'C22 H20 N4 O4'
_chemical_formula_moiety
;
C22 H20 N4 O4
;
_journal_coden_Cambridge 35
_journal_volume 79
_journal_year 2014
_journal_page_first 8882
_journal_name_full 'J.Org.Chem. '
loop_
_publ_author_name
"Xinwei He"
"Yongjia Shang"
"Zhiyu Yu"
"Mei Fang"
"Yao Zhou"
"Guang Han"
"Fuli Wu"
_chemical_name_systematic
;
Ethyl 
6-anilino-5-cyano-2-methyl-4-(4-nitrophenyl)-1,4-dihydropyridine-3-carboxylate

;
_cell_volume   2071.540
_exptl_crystal_colour 'colorless'
_exptl_crystal_density_diffrn 1.297
_exptl_crystal_description 'block'
_diffrn_ambient_temperature 293
#These two values have been output from a single CSD field.
_refine_ls_R_factor_gt 0.0552
_refine_ls_wR_factor_gt 0.0552
_symmetry_cell_setting monoclinic
_symmetry_space_group_name_H-M 'P 21/n'
_symmetry_Int_Tables_number 14
loop_
_symmetry_equiv_pos_site_id
_symmetry_equiv_pos_as_xyz
1 x,y,z
2 1/2-x,1/2+y,1/2-z
3 -x,-y,-z
4 -1/2+x,-1/2-y,-1/2+z
_cell_length_a 8.0882(7)
_cell_length_b 18.5212(15)
_cell_length_c 14.2817(12)
_cell_angle_alpha 90
_cell_angle_beta 104.474(1)
_cell_angle_gamma 90
_cell_formula_units_Z 4
loop_
_atom_type_symbol
_atom_type_radius_bond
C 0.68
H 0.23
N 0.68
O 0.68
loop_
_atom_site_label
_atom_site_type_symbol
_atom_site_fract_x
_atom_site_fract_y
_atom_site_fract_z
C1 C 0.3427(2) 0.15813(10) 0.56276(12)
C2 C 0.4335(2) 0.12276(10) 0.64207(12)
C3 C 0.4202(2) 0.14308(10) 0.74284(12)
H1 H 0.53550 0.14220 0.78580
C4 C 0.3513(2) 0.21978(9) 0.74278(12)
C5 C 0.2622(2) 0.25173(10) 0.66062(12)
C6 C 0.3362(2) 0.1869(1) 0.39323(13)
C7 C 0.2635(3) 0.16572(12) 0.29931(14)
H2 H 0.21350 0.12040 0.28670
C8 C 0.2656(3) 0.21250(14) 0.22396(16)
H3 H 0.21740 0.19830 0.16050
C9 C 0.3383(4) 0.27963(14) 0.24238(19)
H4 H 0.33780 0.31120 0.19170
C10 C 0.4114(4) 0.29985(14) 0.3355(2)
H5 H 0.46110 0.34530 0.34790
C11 C 0.4123(3) 0.25373(12) 0.41123(16)
H6 H 0.46420 0.26760 0.47430
C12 C 0.5384(2) 0.06429(11) 0.62969(13)
C13 C 0.3104(2) 0.09099(9) 0.78318(12)
C14 C 0.1487(3) 0.07206(11) 0.72979(14)
H7 H 0.11020 0.08940 0.66700
C15 C 0.0430(3) 0.02813(11) 0.76714(16)
H8 H -0.06590 0.01630 0.73070
C16 C 0.1027(3) 0.00246(11) 0.85898(16)
C17 C 0.2608(4) 0.01873(13) 0.91421(17)
H9 H 0.29870 0.00010 0.97630
C18 C 0.3649(3) 0.06385(13) 0.87603(16)
H10 H 0.47280 0.07600 0.91350
C19 C 0.3888(3) 0.25302(11) 0.83909(13)
C20 C 0.3372(5) 0.35052(16) 0.93694(19)
H11 H 0.26310 0.32710 0.97170
H12 H 0.45420 0.34460 0.97440
C21 C 0.2992(8) 0.42082(19) 0.9271(3)
H13 H 0.38590 0.44560 0.90440
H14 H 0.29360 0.44040 0.98850
H15 H 0.19080 0.42700 0.88140
C22 C 0.1712(3) 0.32303(11) 0.64871(15)
H16 H 0.09410 0.32460 0.69000
H17 H 0.10800 0.32870 0.58260
H18 H 0.25310 0.36130 0.66590
N1 N 0.2481(2) 0.21763(8) 0.57308(10)
H19 H 0.17680 0.23450 0.52270
N2 N 0.3345(2) 0.13760(9) 0.46894(11)
H20 H 0.32790 0.09230 0.45550
N3 N 0.6224(3) 0.01669(11) 0.61878(14)
N4 N -0.0081(4) -0.04405(13) 0.9009(2)
O1 O -0.1638(4) -0.04151(16) 0.86249(18)
O2 O 0.0571(4) -0.07980(11) 0.9710(2)
O3 O 0.4809(2) 0.22526(8) 0.90978(10)
O4 O 0.3160(3) 0.31646(9) 0.84251(11)
#END
