
#######################################################################
#
#                 Cambridge Crystallographic Data Centre
#                                CCDC
#
#######################################################################
#
# If this CIF has been generated from an entry in the Cambridge
# Structural Database, then it will include bibliographic, chemical,
# crystal, experimental, refinement or atomic coordinate data resulting
# from the CCDC's data processing and validation procedures.
#
#######################################################################

data_CSD_CIF_JUBDIT
_audit_creation_date 1993-03-04
_audit_creation_method CSD-ConQuest-V1
_database_code_CSD JUBDIT
_chemical_formula_sum 'C18 H20 N2 O3'
_chemical_formula_moiety
;
C18 H20 N2 O3
;
_journal_coeditor_code "IUCr CR0293"
_journal_coden_Cambridge 591
_journal_volume 48
_journal_year 1992
_journal_page_first 1996
_journal_name_full 'Acta Crystallogr.,Sect.C:Cryst.Struct.Commun. '
loop_
_publ_author_name
"P.Singh"
"S.G.Levine"
"K.Kasdorf"
_chemical_name_systematic
;
4\b-(Nitromethyl)-2\b,6\b-diphenyl-4\a-piperidinol
;
_chemical_melting_point 400
_cell_volume    811.008
_exptl_crystal_density_diffrn 1.28
_exptl_special_details
;
Melting point range 400-403K

;
_diffrn_ambient_temperature ?
_diffrn_special_details
;
The study was carried out at room temperature,in the range 283-303K

;
#These two values have been output from a single CSD field.
_refine_ls_R_factor_gt 0.0604
_refine_ls_wR_factor_gt 0.0604
loop_
_citation_database_id_CSD
_citation_special_details
JUBDEP "is a stereoisomer of this entry"
_symmetry_cell_setting triclinic
_symmetry_space_group_name_H-M 'P -1'
_symmetry_Int_Tables_number 2
loop_
_symmetry_equiv_pos_site_id
_symmetry_equiv_pos_as_xyz
1 x,y,z
2 -x,-y,-z
_cell_length_a 5.573(2)
_cell_length_b 11.852(6)
_cell_length_c 13.440(7)
_cell_angle_alpha 68.42(4)
_cell_angle_beta 89.46(4)
_cell_angle_gamma 79.82(3)
_cell_formula_units_Z 2
loop_
_atom_type_symbol
_atom_type_radius_bond
C 0.68
H 0.23
N 0.68
O 0.68
loop_
_atom_site_label
_atom_site_type_symbol
_atom_site_fract_x
_atom_site_fract_y
_atom_site_fract_z
O1 O 0.5824(3) 0.3787(1) 0.5870(1)
O2 O 0.1998(3) 0.3810(2) 0.5990(1)
N1 N 0.4002(3) 0.3407(1) 0.5771(1)
C1 C 0.4239(3) 0.2388(2) 0.5354(1)
C2 C 0.2393(3) 0.2658(1) 0.4423(1)
O3 O -0.0011(2) 0.2613(1) 0.4789(1)
C3 C 0.3018(3) 0.1613(1) 0.4009(1)
C4 C 0.1452(3) 0.1843(1) 0.3000(1)
N2 N 0.1785(3) 0.3030(1) 0.2190(1)
C5 C 0.0909(3) 0.4064(1) 0.2531(1)
C6 C 0.2473(3) 0.3893(1) 0.3519(1)
C7 C 0.2153(3) 0.0815(1) 0.2587(1)
C8 C 0.4183(3) 0.0755(2) 0.1994(1)
C9 C 0.4797(4) -0.0185(2) 0.1611(2)
C10 C 0.3405(4) -0.1087(2) 0.1820(2)
C11 C 0.1415(4) -0.1051(2) 0.2422(2)
C12 C 0.0791(3) -0.0111(2) 0.2805(1)
C13 C 0.0993(3) 0.5282(1) 0.1631(1)
C14 C -0.0919(4) 0.6266(2) 0.1420(2)
C15 C -0.0838(4) 0.7388(2) 0.0613(2)
C16 C 0.1121(4) 0.7548(2) -0.0002(1)
C17 C 0.3041(4) 0.6587(2) 0.0205(2)
C18 C 0.2972(4) 0.5461(2) 0.1017(2)
H1 H 0.5966(31) 0.2272(15) 0.5129(14)
H2 H 0.4014(29) 0.1687(14) 0.5944(12)
H3 H -0.0323(36) 0.3148(18) 0.5052(16)
H4 H 0.4759(31) 0.1511(14) 0.3841(12)
H5 H 0.2744(29) 0.0839(14) 0.4573(13)
H6 H -0.0285(29) 0.1873(14) 0.3207(12)
H7 H 0.1002(27) 0.3145(13) 0.1597(12)
H8 H -0.0735(30) 0.4053(14) 0.2729(12)
H9 H 0.4191(31) 0.3923(15) 0.3310(13)
H10 H 0.1939(27) 0.4552(13) 0.3756(12)
H11 H 0.5098(33) 0.1400(16) 0.1849(14)
H12 H 0.6213(34) -0.0203(17) 0.1215(15)
H13 H 0.3873(31) -0.1726(15) 0.1553(14)
H14 H 0.0510(34) -0.1658(17) 0.2609(15)
H15 H -0.0629(29) -0.0051(14) 0.3194(12)
H16 H -0.2291(35) 0.6155(17) 0.1833(15)
H17 H -0.2166(39) 0.8003(18) 0.0464(16)
H18 H 0.1177(30) 0.8317(14) -0.0574(13)
H19 H 0.4355(37) 0.6651(19) -0.0238(16)
H20 H 0.4375(37) 0.4832(18) 0.1148(16)
#END
