
#######################################################################
#
#                 Cambridge Crystallographic Data Centre
#                                CCDC
#
#######################################################################
#
# If this CIF has been generated from an entry in the Cambridge
# Structural Database, then it will include bibliographic, chemical,
# crystal, experimental, refinement or atomic coordinate data resulting
# from the CCDC's data processing and validation procedures.
#
#######################################################################

data_CSD_CIF_JUGSOT
_audit_creation_date 1993-05-11
_audit_creation_method CSD-ConQuest-V1
_database_code_CSD JUGSOT
_database_code_depnum_ccdc_archive 'CCDC 1190385'
_chemical_formula_sum 'C17 H16 N2 O2'
_chemical_formula_moiety
;
C17 H16 N2 O2
;
_journal_coden_Cambridge 34
_journal_volume 29
_journal_year 1992
_journal_page_first 803
_journal_name_full 'J.Heterocycl.Chem. '
loop_
_publ_author_name
"G.J.Gainsford"
"A.D.Woolhouse"
_chemical_name_systematic
;
5,6-Dimethyl-2,2-diphenyl-1,3-diaza-4,7-dioxatricyclo(4.1.0^1,6^.0^3,5^)heptan
e
;
_chemical_melting_point 460.15
_cell_volume    753.805
_exptl_crystal_colour 'colorless'
_exptl_special_details
;
Melting point range 460.15-461.15K

;
_diffrn_ambient_temperature ?
_diffrn_special_details
;
The study was carried out at room temperature,in the range 283-303K

;
_refine_special_details
;
O(7), O(4), C(8), C(9),H(91), H(92) and H(93) are all disordered over two 
sites with occupancies 0.713:0.287.
;
#These two values have been output from a single CSD field.
_refine_ls_R_factor_gt 0.097
_refine_ls_wR_factor_gt 0.097
_symmetry_cell_setting triclinic
_symmetry_space_group_name_H-M 'P -1'
_symmetry_Int_Tables_number 2
loop_
_symmetry_equiv_pos_site_id
_symmetry_equiv_pos_as_xyz
1 x,y,z
2 -x,-y,-z
_cell_length_a 8.081(4)
_cell_length_b 8.854(5)
_cell_length_c 12.23(3)
_cell_angle_alpha 94.91(16)
_cell_angle_beta 100.29(16)
_cell_angle_gamma 116.91(38)
_cell_formula_units_Z 2
loop_
_atom_type_symbol
_atom_type_radius_bond
C 0.68
H 0.23
N 0.68
O 0.68
loop_
_atom_site_label
_atom_site_type_symbol
_atom_site_fract_x
_atom_site_fract_y
_atom_site_fract_z
C1 C -0.1129(19) -0.0640(18) 0.7383(9)
C2 C -0.2261(19) -0.1565(18) 0.6307(9)
C3 C -0.4027(19) -0.3019(18) 0.6189(9)
C4 C -0.4661(19) -0.3547(18) 0.7148(9)
C5 C -0.3529(19) -0.2622(18) 0.8224(9)
C6 C -0.1763(19) -0.1168(18) 0.8342(9)
C7 C 0.0406(15) 0.2537(19) 0.7446(11)
C8 C -0.0261(15) 0.2791(19) 0.6381(11)
C9 C -0.0624(15) 0.4179(19) 0.6288(11)
C10 C -0.0320(15) 0.5312(19) 0.7260(11)
C11 C 0.0348(15) 0.5057(19) 0.8324(11)
C12 C 0.0711(15) 0.3669(19) 0.8417(11)
N1 N 0.1561(15) 0.0681(19) 0.6508(11)
N2 N 0.2131(18) 0.1307(21) 0.8613(12)
C13 C 0.0738(20) 0.0987(22) 0.7500(13)
C14 C 0.3704(23) 0.1208(30) 0.8335(17)
C15 C 0.3476(20) 0.0930(27) 0.7083(17)
O1 O 0.3454(18) 0.2370(21) 0.6664(13)
O2 O 0.2423(23) -0.0255(22) 0.8712(13)
C16 C 0.5805(30) 0.2312(42) 0.9147(21)
C17 C 0.4309(41) -0.0039(47) 0.6548(27)
H1 H -0.18100 -0.11900 0.56200
H2 H -0.48400 -0.36800 0.54200
H3 H -0.59300 -0.45900 0.70600
H4 H -0.39800 -0.30000 0.89100
H5 H -0.09500 -0.05100 0.91100
H6 H -0.04800 0.19800 0.56800
H7 H -0.11000 0.43600 0.55200
H8 H -0.05800 0.63100 0.71900
H9 H 0.05600 0.58700 0.90200
H10 H 0.11900 0.34900 0.91800
H11 H 0.573(24) 0.061(24) 0.688(17)
H12 H 0.427(26) -0.103(25) 0.701(17)
H13 H 0.478(40) 0.074(33) 0.624(22)
O3? O 0.1670(48) -0.0958(50) 0.6637(30)
O4? O 0.3801(52) 0.2846(54) 0.8555(31)
C18? C 0.4649(81) 0.0386(82) 0.9021(50)
C19? C 0.5039(88) 0.1726(85) 0.6406(50)
#END
