
#######################################################################
#
#                 Cambridge Crystallographic Data Centre
#                                CCDC
#
#######################################################################
#
# If this CIF has been generated from an entry in the Cambridge
# Structural Database, then it will include bibliographic, chemical,
# crystal, experimental, refinement or atomic coordinate data resulting
# from the CCDC's data processing and validation procedures.
#
#######################################################################

data_CSD_CIF_JUMFAA
_audit_creation_date 2015-08-13
_audit_creation_method CSD-ConQuest-V1
_database_code_CSD JUMFAA
_database_code_depnum_ccdc_archive 'CCDC 907765'
_chemical_formula_sum 'C5 H7 N3 O5'
_chemical_formula_moiety
;
C5 H7 N3 O5
;
_journal_coden_Cambridge 1468
_journal_volume 91
_journal_year 2015
_journal_page_first 240
_journal_name_full 'J.Chem.Thermodynamics '
loop_
_publ_author_name
"Hong-Ya Li"
"Biao Yan"
"Kai-qi Bai"
"Huan Liu"
"Hai-Xia Ma"
"Ji-Rong Song"
"Long Yan"
_chemical_name_systematic
;
1-(3,3-Dinitroazetidin-1-yl)ethanone
;
_cell_volume    811.249
_exptl_crystal_density_diffrn 1.549
_diffrn_ambient_temperature 293
#These two values have been output from a single CSD field.
_refine_ls_R_factor_gt 0.0335
_refine_ls_wR_factor_gt 0.0335
_symmetry_cell_setting orthorhombic
_symmetry_space_group_name_H-M 'P 21 21 21'
_symmetry_Int_Tables_number 19
loop_
_symmetry_equiv_pos_site_id
_symmetry_equiv_pos_as_xyz
1 x,y,z
2 1/2-x,-y,1/2+z
3 -x,1/2+y,1/2-z
4 1/2+x,1/2-y,-z
_cell_length_a 6.844(3)
_cell_length_b 6.994(3)
_cell_length_c 16.948(6)
_cell_angle_alpha 90
_cell_angle_beta 90
_cell_angle_gamma 90
_cell_formula_units_Z 4
loop_
_atom_type_symbol
_atom_type_radius_bond
C 0.68
H 0.23
N 0.68
O 0.68
loop_
_atom_site_label
_atom_site_type_symbol
_atom_site_fract_x
_atom_site_fract_y
_atom_site_fract_z
N1 N 0.0881(2) 0.9567(2) 0.32358(8)
N2 N 0.3926(2) 0.64765(19) 0.39947(8)
O1 O -0.07559(17) 0.8937(2) 0.31362(8)
O2 O 0.1300(2) 1.12207(19) 0.33691(9)
C1 C 0.4254(2) 0.8434(3) 0.37392(11)
C2 C 0.2178(2) 0.6180(2) 0.35053(10)
O3 O 0.5703(2) 0.6515(2) 0.50924(8)
O4 O 0.2225(2) 0.9189(2) 0.18482(8)
N3 N 0.3117(2) 0.8194(2) 0.23025(9)
C3 C 0.2530(2) 0.8171(2) 0.31627(9)
O5 O 0.4483(2) 0.7166(2) 0.21342(9)
C4 C 0.4455(2) 0.5731(3) 0.46891(10)
C5 C 0.3470(4) 0.3904(3) 0.49151(15)
H1 H 0.097(3) 0.609(2) 0.3818(10)
H2 H 0.390(3) 0.940(3) 0.4134(10)
H3 H 0.544(3) 0.859(3) 0.3488(10)
H4 H 0.227(3) 0.520(3) 0.3127(12)
H5 H 0.410(5) 0.328(5) 0.5347(18)
H6 H 0.324(5) 0.314(6) 0.448(2)
H7 H 0.204(7) 0.421(6) 0.509(3)
#END
