
#######################################################################
#
#                 Cambridge Crystallographic Data Centre
#                                CCDC
#
#######################################################################
#
# If this CIF has been generated from an entry in the Cambridge
# Structural Database, then it will include bibliographic, chemical,
# crystal, experimental, refinement or atomic coordinate data resulting
# from the CCDC's data processing and validation procedures.
#
#######################################################################

data_CSD_CIF_KARYOR
_audit_creation_date 1990-02-23
_audit_creation_method CSD-ConQuest-V1
_database_code_CSD KARYOR
_chemical_formula_sum 'C5 H8 N2 O3'
_chemical_formula_moiety
;
C5 H8 N2 O3
;
_journal_coeditor_code "IUCr AS0140"
_journal_coden_Cambridge 591
_journal_volume 45
_journal_year 1989
_journal_page_first 1084
_journal_name_full 'Acta Crystallogr.,Sect.C:Cryst.Struct.Commun. '
loop_
_publ_author_name
"Y.Yokomori"
"A.Katoh"
"M.Akiyama"
_chemical_name_systematic
;
cyclo-(N-Hydroxyglycyl-L-alanyl)
;
_chemical_name_common
;
PEPSEQ C=2 GLY*-ALA-
;
_cell_volume    647.524
_exptl_crystal_colour 'colorless'
_exptl_crystal_density_diffrn 1.478
_diffrn_ambient_temperature ?
_diffrn_special_details
;
The study was carried out at room temperature,in the range 283-303K

;
#These two values have been output from a single CSD field.
_refine_ls_R_factor_gt 0.042
_refine_ls_wR_factor_gt 0.042
_symmetry_cell_setting orthorhombic
_symmetry_space_group_name_H-M 'P 21 21 21'
_symmetry_Int_Tables_number 19
loop_
_symmetry_equiv_pos_site_id
_symmetry_equiv_pos_as_xyz
1 x,y,z
2 1/2+x,1/2-y,-z
3 -x,1/2+y,1/2-z
4 1/2-x,-y,1/2+z
_cell_length_a 18.081(3)
_cell_length_b 7.760(1)
_cell_length_c 4.615(1)
_cell_angle_alpha 90
_cell_angle_beta 90
_cell_angle_gamma 90
_cell_formula_units_Z 4
loop_
_atom_type_symbol
_atom_type_radius_bond
C 0.68
H 0.23
N 0.68
O 0.68
loop_
_atom_site_label
_atom_site_type_symbol
_atom_site_fract_x
_atom_site_fract_y
_atom_site_fract_z
O1 O 0.9881(1) 0.4215(3) 1.2912(6)
O2 O 0.7978(1) 0.2648(3) 0.4414(5)
O3 O 0.8027(1) 0.5872(3) 0.6249(4)
N1 N 0.8443(1) 0.4591(3) 0.7556(5)
N2 N 0.9418(1) 0.2261(3) 0.9831(6)
C1 C 0.8976(2) 0.5216(4) 0.9624(7)
C2 C 0.9461(1) 0.3836(4) 1.0897(6)
C3 C 0.8924(1) 0.1657(4) 0.7538(6)
C4 C 0.8410(1) 0.3030(4) 0.6406(6)
C5 C 0.8486(2) 0.0095(4) 0.8555(9)
H1 H 0.80750 0.70850 0.66390
H2 H 0.97550 0.13740 1.07160
H3 H 0.86820 0.58410 1.14070
H4 H 0.93300 0.61780 0.86210
H5 H 0.92910 0.13170 0.57580
H6 H 0.81250 -0.03360 0.68240
H7 H 0.81560 0.04410 1.04160
H8 H 0.88570 -0.09370 0.91470
#END
