
#######################################################################
#
#                 Cambridge Crystallographic Data Centre
#                                CCDC
#
#######################################################################
#
# If this CIF has been generated from an entry in the Cambridge
# Structural Database, then it will include bibliographic, chemical,
# crystal, experimental, refinement or atomic coordinate data resulting
# from the CCDC's data processing and validation procedures.
#
#######################################################################

data_CSD_CIF_KASNEX
_audit_creation_date 1990-05-24
_audit_creation_method CSD-ConQuest-V1
_database_code_CSD KASNEX
_chemical_formula_sum 'C21 H24 N4 O6'
_chemical_formula_moiety
;
C21 H24 N4 O6
;
_journal_coden_Cambridge 35
_journal_volume 54
_journal_year 1989
_journal_page_first 3158
_journal_name_full 'J.Org.Chem. '
loop_
_publ_author_name
"A.G.Schultz"
"W.Geiss"
"R.K.Kullnig"
_chemical_name_systematic
;
(1R*,5S*,7S*,8S*,10R*)-1-Carbomethoxy-8-isopropyltricyclo(5.2.1.0^5,10^)dec-2-
en-4-one 2,4-dinitrophenylhydrazone
;
_cell_volume   2112.621
_exptl_crystal_density_diffrn 1.35
_diffrn_ambient_temperature ?
_diffrn_special_details
;
The study was carried out at room temperature,in the range 283-303K

;
_refine_special_details
;
H atoms of carbomethoxy group appear to be disordered.

;
#These two values have been output from a single CSD field.
_refine_ls_R_factor_gt 0.0521
_refine_ls_wR_factor_gt 0.0521
_symmetry_cell_setting monoclinic
_symmetry_space_group_name_H-M 'P 21/a'
_symmetry_Int_Tables_number 14
loop_
_symmetry_equiv_pos_site_id
_symmetry_equiv_pos_as_xyz
1 x,y,z
2 1/2-x,1/2+y,-z
3 -x,-y,-z
4 -1/2+x,-1/2-y,z
_cell_length_a 19.017(4)
_cell_length_b 5.824(1)
_cell_length_c 20.334(3)
_cell_angle_alpha 90
_cell_angle_beta 110.27(1)
_cell_angle_gamma 90
_cell_formula_units_Z 4
loop_
_atom_type_symbol
_atom_type_radius_bond
C 0.68
H 0.23
N 0.68
O 0.68
loop_
_atom_site_label
_atom_site_type_symbol
_atom_site_fract_x
_atom_site_fract_y
_atom_site_fract_z
C1 C 0.0168(1) 0.3181(4) 0.2927(1)
C2 C 0.0937(1) 0.3607(5) 0.2830(1)
C3 C 0.0538(1) 0.3452(4) 0.2026(1)
C4 C 0.0333(1) 0.5658(4) 0.1599(1)
C5 C -0.0488(1) 0.5256(4) 0.1151(1)
C6 C -0.0836(1) 0.4119(3) 0.1656(1)
C7 C -0.1088(1) 0.5940(3) 0.2045(1)
C8 C -0.0765(1) 0.6452(3) 0.2718(1)
C9 C -0.0125(1) 0.5218(3) 0.3188(1)
C10 C -0.0180(1) 0.2644(3) 0.2132(1)
C11 C -0.1486(1) 0.2638(4) 0.1207(1)
O1 O -0.1424(1) 0.0707(3) 0.1034(1)
O2 O -0.2127(1) 0.3777(3) 0.0981(1)
C12 C -0.2771(1) 0.2556(5) 0.0514(2)
C13 C 0.0836(1) 0.6250(4) 0.1170(1)
C14 C 0.0521(2) 0.8175(5) 0.0648(1)
C15 C 0.1626(2) 0.6795(6) 0.1655(2)
N1 N 0.0135(1) 0.5996(3) 0.3823(1)
N2 N 0.0735(1) 0.4764(3) 0.4265(1)
C16 C 0.1046(1) 0.5406(3) 0.4943(1)
C17 C 0.0774(1) 0.7311(4) 0.5202(1)
C18 C 0.1072(1) 0.7963(4) 0.5886(1)
C19 C 0.1673(1) 0.6733(3) 0.6343(1)
C20 C 0.1964(1) 0.4868(3) 0.6116(1)
C21 C 0.1655(1) 0.4191(3) 0.5424(1)
N3 N 0.1987(1) 0.2188(3) 0.5224(1)
O3 O 0.1724(1) 0.1488(3) 0.4616(1)
O4 O 0.2517(1) 0.1257(3) 0.5663(1)
N4 N 0.1992(1) 0.7401(3) 0.7075(1)
O5 O 0.2551(1) 0.6455(3) 0.7450(1)
O6 O 0.1662(1) 0.8861(3) 0.7288(1)
H1 H 0.01130 0.20980 0.32620
H2 H 0.13020 0.24250 0.30230
H3 H 0.11550 0.50790 0.29920
H4 H 0.08130 0.26440 0.17820
H5 H 0.04100 0.69940 0.18910
H6 H -0.07330 0.66860 0.09760
H7 H -0.05260 0.42550 0.07650
H8 H -0.15240 0.68150 0.17840
H9 H -0.09610 0.77190 0.29020
H10 H -0.04010 0.11480 0.20200
H11 H -0.2989(17) 0.3419(41) 0.0089(11)
H12 H -0.3137(12) 0.2357(74) 0.0737(11)
H13 H -0.2617(5) 0.1078(33) 0.0404(20)
H14? H -0.2692(12) 0.2213(74) 0.0083(10)
H15? H -0.3212(5) 0.3492(34) 0.0416(21)
H16? H -0.2840(16) 0.1150(41) 0.0731(11)
H17 H 0.08500 0.49150 0.08970
H18 H 0.00260 0.77760 0.03430
H19 H 0.08390 0.84030 0.03760
H20 H 0.05010 0.95630 0.08960
H21 H 0.19390 0.70940 0.13820
H22 H 0.18230 0.55120 0.19600
H23 H 0.16160 0.81250 0.19310
H24 H 0.0936(10) 0.3579(33) 0.4163(10)
H25 H 0.03660 0.81800 0.48890
H26 H 0.08720 0.92600 0.60530
H27 H 0.23790 0.40400 0.64340
#END
