
#######################################################################
#
#                 Cambridge Crystallographic Data Centre
#                                CCDC
#
#######################################################################
#
# If this CIF has been generated from an entry in the Cambridge
# Structural Database, then it will include bibliographic, chemical,
# crystal, experimental, refinement or atomic coordinate data resulting
# from the CCDC's data processing and validation procedures.
#
#######################################################################

data_CSD_CIF_KEBJUX
_audit_creation_date 2006-05-04
_audit_creation_method CSD-ConQuest-V1
_database_code_CSD KEBJUX
_database_code_depnum_ccdc_archive 'CCDC 274918'
_chemical_formula_sum 'C16 H26 N2 O9'
_chemical_formula_moiety
;
C16 H26 N2 O9
;
_journal_coden_Cambridge 177
_journal_volume 3
_journal_year 2005
_journal_page_first 4395
_journal_name_full 'Org.Biomol.Chem. '
loop_
_publ_author_name
"G.Calvet"
"R.Guillot"
"N.Blanchard"
"C.Kouklovsky"
_chemical_name_systematic
;
5-(5-Acetoxy-2,2-dimethyl-(1,3)dioxan-5-ylazoxy)-2,2-dimethyl-(1,3)dioxan-5-yl
 acetic acid ester
;
_cell_volume   3891.736
_exptl_crystal_colour 'blue'
_exptl_crystal_density_diffrn 1.333
_exptl_crystal_description 'plate'
_diffrn_ambient_temperature 293
#These two values have been output from a single CSD field.
_refine_ls_R_factor_gt 0.0452
_refine_ls_wR_factor_gt 0.0452
_symmetry_cell_setting orthorhombic
_symmetry_space_group_name_H-M 'P b c a'
_symmetry_Int_Tables_number 61
loop_
_symmetry_equiv_pos_site_id
_symmetry_equiv_pos_as_xyz
1 x,y,z
2 1/2-x,-y,1/2+z
3 1/2+x,1/2-y,-z
4 -x,1/2+y,1/2-z
5 -x,-y,-z
6 -1/2+x,y,-1/2-z
7 -1/2-x,-1/2+y,z
8 x,-1/2-y,-1/2+z
_cell_length_a 10.6750(4)
_cell_length_b 10.8521(5)
_cell_length_c 33.5940(12)
_cell_angle_alpha 90
_cell_angle_beta 90
_cell_angle_gamma 90
_cell_formula_units_Z 8
loop_
_atom_type_symbol
_atom_type_radius_bond
C 0.68
H 0.23
N 0.68
O 0.68
loop_
_atom_site_label
_atom_site_type_symbol
_atom_site_fract_x
_atom_site_fract_y
_atom_site_fract_z
O1 O 0.38008(11) -0.06116(12) 0.21269(4)
O2 O 0.65332(11) 0.32917(12) 0.12462(4)
O3 O 0.86640(11) 0.24554(12) 0.07706(4)
O4 O 0.53478(11) -0.13762(12) 0.17037(4)
O5 O 0.67811(13) 0.23148(12) 0.18328(4)
O6 O 0.27458(11) 0.04202(13) 0.13761(4)
N1 N 0.47262(13) 0.13583(15) 0.12851(4)
O7 O 0.69962(12) 0.32600(12) 0.04104(4)
N2 N 0.58237(13) 0.11120(14) 0.11866(4)
O8 O 0.32293(15) 0.00712(18) 0.07367(4)
O9 O 0.41631(12) 0.23755(13) 0.12772(5)
C1 C 0.40252(16) 0.02855(17) 0.14826(5)
C2 C 0.4115(2) 0.05017(19) 0.19309(6)
C3 C 0.65623(16) 0.21527(16) 0.10218(5)
C4 C 0.66571(16) 0.32506(18) 0.16469(5)
C5 C 0.6611(2) 0.4518(2) 0.18158(7)
C6 C 0.45326(18) -0.10008(19) 0.13938(6)
C7 C 0.78964(17) 0.16544(19) 0.09947(6)
C8 C 0.82253(17) 0.27356(18) 0.03814(5)
C9 C 0.2461(2) 0.0300(2) 0.09819(7)
C10 C 0.61162(18) 0.2484(2) 0.06064(6)
C11 C 0.47356(17) -0.15465(18) 0.20793(6)
C12 C 0.8281(3) 0.1635(3) 0.01094(9)
C13 C 0.9062(2) 0.3774(2) 0.02432(8)
C14 C 0.4053(3) -0.2758(3) 0.21004(10)
C15 C 0.5748(2) -0.1415(3) 0.23931(8)
C16 C 0.1091(3) 0.0473(4) 0.09165(12)
H1 H 0.5413(18) 0.2978(18) 0.0611(6)
H2 H 0.606(2) 0.171(2) 0.0423(7)
H3 H 0.8267(18) 0.1629(18) 0.1253(7)
H4 H 0.7857(17) 0.0798(19) 0.0865(6)
H5 H 0.873(2) 0.398(2) -0.0017(8)
H6 H 0.916(2) 0.133(2) 0.0079(7)
H7 H 1.000(3) 0.349(2) 0.0225(7)
H8 H 0.898(2) 0.447(3) 0.0446(8)
H9 H 0.584(2) 0.493(2) 0.1697(6)
H10 H 0.741(3) 0.501(2) 0.1714(7)
H11 H 0.782(2) 0.097(3) 0.0190(8)
H12 H 0.795(2) 0.185(2) -0.0133(9)
H13 H 0.661(2) 0.454(2) 0.2092(8)
H14 H 0.4949(19) 0.0772(17) 0.2002(5)
H15 H 0.352(2) 0.117(2) 0.2009(6)
H16 H 0.641(3) -0.201(3) 0.2321(8)
H17 H 0.363(2) -0.285(2) 0.2360(8)
H18 H 0.539(2) -0.159(2) 0.2645(8)
H19 H 0.462(3) -0.340(3) 0.2083(9)
H20 H 0.341(3) -0.279(3) 0.1866(9)
H21 H 0.617(3) -0.054(3) 0.2368(9)
H22 H 0.3842(18) -0.1544(18) 0.1361(5)
H23 H 0.5007(19) -0.1013(16) 0.1154(6)
H24 H 0.084(4) 0.124(4) 0.0975(12)
H25 H 0.103(3) 0.044(3) 0.0616(14)
H26 H 0.062(4) -0.008(5) 0.0999(13)
#END
