
#######################################################################
#
#                 Cambridge Crystallographic Data Centre
#                                CCDC
#
#######################################################################
#
# If this CIF has been generated from an entry in the Cambridge
# Structural Database, then it will include bibliographic, chemical,
# crystal, experimental, refinement or atomic coordinate data resulting
# from the CCDC's data processing and validation procedures.
#
#######################################################################

data_CSD_CIF_KEDXEZ
_audit_creation_date 2017-07-27
_audit_creation_method CSD-ConQuest-V1
_database_code_CSD KEDXEZ
_database_code_depnum_ccdc_archive 'CCDC 1554454'
_chemical_formula_sum 'C3 H4 N10 O2'
_chemical_formula_moiety
;
C3 H4 N10 O2
;
_journal_coden_Cambridge 1699
_journal_volume 5
_journal_year 2017
_journal_page_first 16767
_journal_name_full 'J.Mater.Chem.A '
loop_
_publ_author_name
"D.Kumar"
"G.H.Imler"
"D.A.Parrish"
"J.M.Shreeve"
_chemical_name_systematic
;
N-nitro-1-[(1H-tetrazol-5-yl)methyl]-1,4-dihydro-5H-tetrazol-5-imine
;
_cell_volume   1588.168
_exptl_crystal_colour 'colorless'
_exptl_crystal_density_diffrn 1.775
_exptl_special_details
;
, Impact and Friction Sensitivity

;
_exptl_crystal_description 'block'
_diffrn_ambient_temperature 150
#These two values have been output from a single CSD field.
_refine_ls_R_factor_gt 0.0336
_refine_ls_wR_factor_gt 0.0336
_symmetry_cell_setting monoclinic
_symmetry_space_group_name_H-M 'C 2/c'
_symmetry_Int_Tables_number 15
loop_
_symmetry_equiv_pos_site_id
_symmetry_equiv_pos_as_xyz
1 x,y,z
2 -x,y,1/2-z
3 1/2+x,1/2+y,z
4 1/2-x,1/2+y,1/2-z
5 -x,-y,-z
6 x,-y,-1/2+z
7 -1/2-x,-1/2-y,-z
8 -1/2+x,-1/2-y,-1/2+z
_cell_length_a 15.6803(6)
_cell_length_b 6.6171(3)
_cell_length_c 17.0112(7)
_cell_angle_alpha 90
_cell_angle_beta 115.870(1)
_cell_angle_gamma 90
_cell_formula_units_Z 8
loop_
_atom_type_symbol
_atom_type_radius_bond
C 0.68
H 0.23
N 0.68
O 0.68
loop_
_atom_site_label
_atom_site_type_symbol
_atom_site_fract_x
_atom_site_fract_y
_atom_site_fract_z
O1 O 0.67623(6) 0.74493(17) 0.61537(6)
O2 O 0.52760(5) 0.65965(13) 0.55872(5)
N1 N 0.60467(6) 0.68997(14) 0.62287(6)
N2 N 0.60552(6) 0.65642(14) 0.70161(5)
C1 C 0.68969(7) 0.68433(15) 0.77006(6)
N3 N 0.77858(6) 0.73164(15) 0.78308(6)
H1 H 0.79640 0.75500 0.74150
N4 N 0.83684(7) 0.73765(16) 0.87093(6)
N5 N 0.78768(6) 0.69503(16) 0.91202(6)
N6 N 0.69719(6) 0.65995(14) 0.85171(5)
C2 C 0.62194(7) 0.60800(16) 0.87644(6)
H2 H 0.56320 0.68060 0.83820
H3 H 0.64020 0.65070 0.93750
C3 C 0.60406(7) 0.38471(16) 0.86830(6)
N7 N 0.56330(7) 0.27827(15) 0.90926(6)
H4 H 0.54210 0.32810 0.94530
N8 N 0.55980(8) 0.08273(16) 0.88666(7)
N9 N 0.59740(7) 0.07195(15) 0.83259(7)
N10 N 0.62531(7) 0.25882(14) 0.81920(6)
#END
