
#######################################################################
#
#                 Cambridge Crystallographic Data Centre
#                                CCDC
#
#######################################################################
#
# If this CIF has been generated from an entry in the Cambridge
# Structural Database, then it will include bibliographic, chemical,
# crystal, experimental, refinement or atomic coordinate data resulting
# from the CCDC's data processing and validation procedures.
#
#######################################################################

data_CSD_CIF_KEKRUO
_audit_creation_date 2006-09-13
_audit_creation_method CSD-ConQuest-V1
_database_code_CSD KEKRUO
_database_code_depnum_ccdc_archive 'CCDC 614412'
_chemical_formula_sum 'C28 H28 N6 O12'
_chemical_formula_moiety
;
C28 H28 N6 O12
;
_journal_coden_Cambridge 35
_journal_volume 71
_journal_year 2006
_journal_page_first 4502
_journal_name_full 'J.Org.Chem. '
loop_
_publ_author_name
"Zhi-Guo Wang"
"Bao-Han Zhou"
"Yun-Feng Chen"
"Guo-Dong Yin"
"Yi-Tao Li"
"An-Xin Wu"
"L.Isaacs"
_chemical_name_systematic
;
Diethyl 
1,11-dimethoxy-4,8-dinitro-6,13-dioxo-5,7,12,13b,13c,14-hexahydro-5a,6a,12a,13
a-tetra-azabenzo(5,6)azuleno(2,1,8-ija)benzo(f)azulene-13b,13c-dicarboxylate
;
_cell_volume   1422.005
_exptl_crystal_colour 'colorless'
_exptl_crystal_density_diffrn 1.496
_exptl_crystal_description 'block'
_diffrn_ambient_temperature 293
_refine_special_details
;
The terminal methyl moiety of one of the ethoxycarbonyl groups is disordered 
over two positions with occupancies 0.58:0.42.
;
#These two values have been output from a single CSD field.
_refine_ls_R_factor_gt 0.0695
_refine_ls_wR_factor_gt 0.0695
_symmetry_cell_setting triclinic
_symmetry_space_group_name_H-M 'P -1'
_symmetry_Int_Tables_number 2
loop_
_symmetry_equiv_pos_site_id
_symmetry_equiv_pos_as_xyz
1 x,y,z
2 -x,-y,-z
_cell_length_a 9.9585(8)
_cell_length_b 10.4964(9)
_cell_length_c 14.6205(12)
_cell_angle_alpha 71.555(2)
_cell_angle_beta 86.280(2)
_cell_angle_gamma 78.775(2)
_cell_formula_units_Z 2
loop_
_atom_type_symbol
_atom_type_radius_bond
C 0.68
H 0.23
N 0.68
O 0.68
loop_
_atom_site_label
_atom_site_type_symbol
_atom_site_fract_x
_atom_site_fract_y
_atom_site_fract_z
C1 C -0.3739(4) 0.4940(5) 0.1558(4)
H1 H -0.38960 0.51730 0.21460
H2 H -0.41800 0.41890 0.15970
H3 H -0.41070 0.57140 0.10260
C2 C -0.1486(4) 0.5483(4) 0.1312(3)
C3 C -0.1985(4) 0.6845(4) 0.1241(3)
H4 H -0.29190 0.71490 0.12970
C4 C -0.1094(4) 0.7732(4) 0.1089(3)
H5 H -0.14240 0.86390 0.10490
C5 C 0.0285(4) 0.7295(4) 0.0994(3)
C6 C 0.0852(4) 0.5925(3) 0.1089(2)
C7 C -0.0070(4) 0.5013(3) 0.1250(2)
C8 C 0.0428(4) 0.3520(3) 0.1338(3)
H6 H -0.03590 0.30780 0.14100
H7 H 0.08920 0.34610 0.07450
C9 C 0.2364(4) 0.5406(4) 0.1029(3)
H8 H 0.25350 0.50570 0.04840
H9 H 0.28400 0.61660 0.09080
C10 C 0.0899(4) 0.2145(3) 0.3048(3)
C11 C 0.3119(3) 0.4632(4) 0.2722(3)
C12 C 0.2758(3) 0.2937(3) 0.2109(2)
C13 C 0.3552(3) 0.2243(4) 0.1415(2)
C14 C 0.4154(5) 0.0103(4) 0.1122(3)
H10 H 0.50290 0.03500 0.08820
H11 H 0.35740 0.02580 0.05760
C15 C 0.4349(5) -0.1333(4) 0.1713(4)
H12 H 0.49400 -0.14800 0.22440
H13 H 0.47570 -0.18990 0.13280
H14 H 0.34790 -0.15640 0.19540
C16 C 0.3181(3) 0.2268(3) 0.3189(2)
C17 C 0.4540(4) 0.1235(4) 0.3378(3)
C18 C 0.6938(5) 0.1133(7) 0.3011(4)
H15 H 0.74720 0.16730 0.32160
H16 H 0.69860 0.02600 0.35120
H17? H 0.75220 0.18100 0.28750
H18? H 0.70500 0.06050 0.36870
C19 C 0.7494(19) 0.092(2) 0.2118(11)
H19 H 0.84620 0.05770 0.21870
H20 H 0.73320 0.17690 0.16040
H21 H 0.70580 0.02680 0.19710
C20? C 0.742(3) 0.025(3) 0.246(2)
H22? H 0.74400 0.07720 0.17870
H23? H 0.68180 -0.03960 0.25420
H24? H 0.83240 -0.02380 0.26610
C21 C 0.3651(4) 0.3337(5) 0.4454(3)
H25 H 0.40550 0.41110 0.44440
H26 H 0.43240 0.25130 0.47160
C22 C 0.1870(4) 0.1274(4) 0.4700(3)
H27 H 0.27210 0.07030 0.49840
H28 H 0.11680 0.07140 0.48770
C23 C 0.1501(4) 0.2407(4) 0.5147(2)
C24 C 0.2397(4) 0.3292(4) 0.5108(3)
C25 C 0.2085(5) 0.4184(5) 0.5675(3)
C26 C 0.0907(6) 0.4262(5) 0.6199(3)
H29 H 0.07170 0.48820 0.65460
C27 C 0.0000(6) 0.3424(5) 0.6214(3)
H30 H -0.08110 0.34860 0.65630
C28 C 0.0295(5) 0.2480(4) 0.5705(3)
C29 C -0.1700(6) 0.1568(6) 0.6310(5)
H31 H -0.14540 0.11710 0.69780
H32 H -0.22750 0.10410 0.61420
H33 H -0.21840 0.24890 0.61990
N1 N 0.1114(4) 0.8360(4) 0.0737(3)
N2 N 0.2938(3) 0.4328(3) 0.1898(2)
N3 N 0.1346(3) 0.2786(3) 0.2137(2)
N4 N 0.3329(3) 0.3449(3) 0.3473(2)
N5 N 0.2028(3) 0.1681(3) 0.3645(2)
N6 N 0.2998(6) 0.5024(7) 0.5752(4)
O1 O -0.2294(3) 0.4559(3) 0.1419(2)
O2 O 0.0793(4) 0.9301(3) 0.1069(3)
O3 O 0.2062(4) 0.8308(3) 0.0162(3)
O4 O 0.3110(3) 0.5779(3) 0.2761(2)
O5 O -0.0257(3) 0.1986(3) 0.3277(2)
O6 O 0.4093(3) 0.2816(3) 0.06892(19)
O7 O 0.3514(3) 0.0925(2) 0.17267(19)
O8 O 0.4686(3) 0.0108(3) 0.3928(2)
O9 O 0.5509(3) 0.1843(3) 0.2864(2)
O10 O -0.0498(3) 0.1575(3) 0.5735(2)
O11 O 0.2736(6) 0.5990(6) 0.5954(5)
O12 O 0.4227(7) 0.4363(6) 0.5925(4)
#END
