
#######################################################################
#
#                 Cambridge Crystallographic Data Centre
#                                CCDC
#
#######################################################################
#
# If this CIF has been generated from an entry in the Cambridge
# Structural Database, then it will include bibliographic, chemical,
# crystal, experimental, refinement or atomic coordinate data resulting
# from the CCDC's data processing and validation procedures.
#
#######################################################################

data_CSD_CIF_KENVOQ
_audit_creation_date 2013-04-04
_audit_creation_method CSD-ConQuest-V1
_database_code_CSD KENVOQ
_database_code_depnum_ccdc_archive 'CCDC 891294'
_chemical_formula_sum 'C20 H12 N2 O4'
_chemical_formula_moiety
;
C20 H12 N2 O4
;
_journal_coden_Cambridge 1290
_journal_year 2013
_journal_page_first 163
_journal_name_full 'Eur.J.Inorg.Chem. '
loop_
_publ_author_name
"S.Wiesner"
"A.Ziesak"
"M.Reinmuth"
"P.Walter"
"E.Kaifer"
"H.Wadepohl"
"H.-J.Himmel"
_chemical_name_systematic
;
4,4'-Dinitro-1,1'-binaphthalene
;
_cell_volume   1530.236
_exptl_crystal_colour 'colorless'
_exptl_crystal_density_diffrn 1.495
_exptl_crystal_description 'cubic'
_diffrn_ambient_temperature 100
#These two values have been output from a single CSD field.
_refine_ls_R_factor_gt 0.0686
_refine_ls_wR_factor_gt 0.0686
_symmetry_cell_setting monoclinic
_symmetry_space_group_name_H-M 'C 2/c'
_symmetry_Int_Tables_number 15
loop_
_symmetry_equiv_pos_site_id
_symmetry_equiv_pos_as_xyz
1 x,y,z
2 -x,y,1/2-z
3 1/2+x,1/2+y,z
4 1/2-x,1/2+y,1/2-z
5 -x,-y,-z
6 x,-y,-1/2+z
7 -1/2-x,-1/2-y,-z
8 -1/2+x,-1/2-y,-1/2+z
_cell_length_a 13.370(3)
_cell_length_b 6.8320(14)
_cell_length_c 17.054(3)
_cell_angle_alpha 90
_cell_angle_beta 100.79(3)
_cell_angle_gamma 90
_cell_formula_units_Z 4
loop_
_atom_type_symbol
_atom_type_radius_bond
C 0.68
H 0.23
N 0.68
O 0.68
loop_
_atom_site_label
_atom_site_type_symbol
_atom_site_fract_x
_atom_site_fract_y
_atom_site_fract_z
O1 O 0.36882(12) 0.0354(3) 0.54810(9)
O2 O 0.36133(14) 0.3501(3) 0.53165(10)
N1 N 0.37556(13) 0.1826(3) 0.50854(10)
C1 C 0.40617(15) 0.1619(3) 0.43006(11)
C2 C 0.46291(17) 0.3109(3) 0.40858(12)
H1 H 0.47650 0.42090 0.44100
C3 C 0.50086(16) 0.2983(3) 0.33756(12)
H2 H 0.54110 0.39890 0.32380
C4 C 0.47948(14) 0.1393(3) 0.28788(10)
C5 C 0.41508(13) -0.0131(3) 0.30776(11)
C6 C 0.38303(14) -0.1704(3) 0.25421(12)
H3 H 0.40430 -0.17460 0.20540
C7 C 0.32154(15) -0.3153(3) 0.27342(13)
H4 H 0.30230 -0.41800 0.23800
C8 C 0.28709(16) -0.3101(3) 0.34656(13)
H5 H 0.24570 -0.41000 0.35940
C9 C 0.31422(16) -0.1590(3) 0.39874(12)
H6 H 0.28990 -0.15640 0.44640
C10 C 0.37873(14) -0.0061(3) 0.38181(11)
O1A O 0.63118(12) 0.0354(3) -0.04810(9)
O2A O 0.63867(14) 0.3501(3) -0.03165(10)
N1A N 0.62444(13) 0.1826(3) -0.00854(10)
C1A C 0.59383(15) 0.1619(3) 0.06994(11)
C2A C 0.53709(17) 0.3109(3) 0.09142(12)
H1A H 0.52350 0.42090 0.05900
C3A C 0.49914(16) 0.2983(3) 0.16244(12)
H2A H 0.45890 0.39890 0.17620
C4A C 0.52052(14) 0.1393(3) 0.21212(10)
C5A C 0.58492(13) -0.0131(3) 0.19224(11)
C6A C 0.61697(14) -0.1704(3) 0.24579(12)
H3A H 0.59570 -0.17460 0.29460
C7A C 0.67846(15) -0.3153(3) 0.22658(13)
H4A H 0.69770 -0.41800 0.26200
C8A C 0.71291(16) -0.3101(3) 0.15344(13)
H5A H 0.75430 -0.41000 0.14060
C9A C 0.68578(16) -0.1590(3) 0.10126(12)
H6A H 0.71010 -0.15640 0.05360
C10A C 0.62127(14) -0.0061(3) 0.11819(11)
#END
