
#######################################################################
#
#                 Cambridge Crystallographic Data Centre
#                                CCDC
#
#######################################################################
#
# If this CIF has been generated from an entry in the Cambridge
# Structural Database, then it will include bibliographic, chemical,
# crystal, experimental, refinement or atomic coordinate data resulting
# from the CCDC's data processing and validation procedures.
#
#######################################################################

data_CSD_CIF_KEPGOB
_audit_creation_date 1991-01-07
_audit_creation_method CSD-ConQuest-V1
_database_code_CSD KEPGOB
_chemical_formula_sum 'C17 H16 N4 O4'
_chemical_formula_moiety
;
C17 H16 N4 O4
;
_journal_coden_Cambridge 35
_journal_volume 55
_journal_year 1990
_journal_page_first 4098
_journal_name_full 'J.Org.Chem. '
loop_
_publ_author_name
"R.E.Drumright"
"R.H.Mas"
"J.S.Merola"
"J.M.Tanko"
_chemical_name_systematic
;
p-Cyclopropylacetophenone 2,4-dinitrophenylhydrazone
;
_chemical_melting_point 496.15
_cell_volume   1568.765
_exptl_crystal_colour 'red'
_exptl_crystal_density_diffrn 1.44
_exptl_special_details
;
Melting point range 496.15-497.15K
The space group is P21/c not P21/n

;
_diffrn_ambient_temperature ?
_diffrn_special_details
;
The study was carried out at room temperature,in the range 283-303K

;
#These two values have been output from a single CSD field.
_refine_ls_R_factor_gt 0.0482
_refine_ls_wR_factor_gt 0.0482
_symmetry_cell_setting monoclinic
_symmetry_space_group_name_H-M 'P 21/c'
_symmetry_Int_Tables_number 14
loop_
_symmetry_equiv_pos_site_id
_symmetry_equiv_pos_as_xyz
1 x,y,z
2 -x,1/2+y,1/2-z
3 -x,-y,-z
4 x,-1/2-y,-1/2+z
_cell_length_a 6.969(5)
_cell_length_b 15.603(9)
_cell_length_c 14.597(5)
_cell_angle_alpha 90
_cell_angle_beta 98.75(5)
_cell_angle_gamma 90
_cell_formula_units_Z 4
loop_
_atom_type_symbol
_atom_type_radius_bond
C 0.68
H 0.23
N 0.68
O 0.53
loop_
_atom_site_label
_atom_site_type_symbol
_atom_site_fract_x
_atom_site_fract_y
_atom_site_fract_z
C1 C -0.4234(4) 0.1975(2) 0.7490(2)
C2 C -0.4061(4) 0.2860(2) 0.7510(2)
C3 C -0.2364(4) 0.3258(2) 0.7885(2)
C4 C -0.0755(3) 0.2789(2) 0.8268(2)
C5 C -0.0938(4) 0.1896(2) 0.8251(2)
C6 C -0.2626(4) 0.1508(2) 0.7872(2)
C7 C -0.6070(4) 0.1561(2) 0.7093(2)
C8 C -0.6088(4) 0.0725(2) 0.6595(2)
C9 C -0.6761(5) 0.0766(2) 0.7491(2)
C10 C 0.1072(4) 0.3179(2) 0.8698(2)
C11 C 0.1425(5) 0.4119(2) 0.8600(2)
C12 C 0.5488(3) 0.2473(2) 0.9903(2)
C13 C 0.7352(4) 0.2766(2) 1.0273(2)
C14 C 0.8827(4) 0.2214(2) 1.0617(2)
C15 C 0.8447(4) 0.1359(2) 1.0615(2)
C16 C 0.6624(4) 0.1041(2) 1.0287(2)
C17 C 0.5175(4) 0.1581(2) 0.9943(2)
N1 N 0.2314(3) 0.2663(1) 0.9137(1)
N2 N 0.4056(3) 0.3000(1) 0.9531(1)
N3 N 0.7854(3) 0.3666(1) 1.0293(2)
O1 O 0.6633(3) 0.4187(1) 0.9948(2)
O2 O 0.9472(3) 0.3875(1) 1.0641(2)
N4 N 1.0005(4) 0.0778(2) 1.0977(2)
O3 O 1.1617(3) 0.1064(2) 1.1224(2)
O4 O 0.9601(3) 0.0019(2) 1.1015(2)
H1 H -0.51620 0.31990 0.72530
H2 H -0.22880 0.38720 0.78810
H3 H 0.01530 0.15520 0.85090
H4 H -0.27090 0.08930 0.78680
H5 H -0.70830 0.19500 0.68440
H6 H -0.48530 0.04610 0.65680
H7 H -0.70430 0.06400 0.60550
H8 H -0.81280 0.07040 0.75020
H9 H -0.59380 0.05250 0.80140
H10 H 0.26850 0.42650 0.89260
H11 H 0.13660 0.42540 0.79550
H12 H 0.04520 0.44410 0.88510
H13 H 1.00970 0.24280 1.08540
H14 H 0.63930 0.04360 1.03040
H15 H 0.39080 0.13550 0.97220
H16 H 0.42440 0.35710 0.95360
#END
