
#######################################################################
#
#                 Cambridge Crystallographic Data Centre
#                                CCDC
#
#######################################################################
#
# If this CIF has been generated from an entry in the Cambridge
# Structural Database, then it will include bibliographic, chemical,
# crystal, experimental, refinement or atomic coordinate data resulting
# from the CCDC's data processing and validation procedures.
#
#######################################################################

data_CSD_CIF_KEPJAR
_audit_creation_date 2006-12-05
_audit_creation_method CSD-ConQuest-V1
_database_code_CSD KEPJAR
_database_code_depnum_ccdc_archive 'CCDC 297583'
_chemical_formula_sum 'C20 H24 N2 O11'
_chemical_formula_moiety
;
C20 H24 N2 O11
;
_journal_coden_Cambridge 156
_journal_volume 341
_journal_year 2006
_journal_page_first 2581
_journal_name_full 'Carbohydr.Res. '
loop_
_publ_author_name
"A.Temeriusz"
"T.Gubica"
"P.Rogowska"
"K.Paradowska"
"M.K.Cyranski"
_chemical_name_systematic
;
N-4-nitrophenyl-2,3,4,6-tetra-O-acetyl-\b-D-glucopyranosylamine
;
_chemical_melting_point 454.15
_cell_volume   1129.460
_exptl_crystal_colour 'yellow'
_exptl_crystal_density_diffrn 1.377
_exptl_special_details
;
Melting point range 454.15-455.15K

;
_exptl_crystal_preparation 'ethanol'
_diffrn_ambient_temperature 100
#These two values have been output from a single CSD field.
_refine_ls_R_factor_gt 0.0278
_refine_ls_wR_factor_gt 0.0278
_symmetry_cell_setting monoclinic
_symmetry_space_group_name_H-M 'P 21'
_symmetry_Int_Tables_number 4
loop_
_symmetry_equiv_pos_site_id
_symmetry_equiv_pos_as_xyz
1 x,y,z
2 -x,1/2+y,-z
_cell_length_a 5.4225(6)
_cell_length_b 22.751(2)
_cell_length_c 9.4038(12)
_cell_angle_alpha 90
_cell_angle_beta 103.202(10)
_cell_angle_gamma 90
_cell_formula_units_Z 2
loop_
_atom_type_symbol
_atom_type_radius_bond
C 0.68
H 0.23
N 0.68
O 0.68
loop_
_atom_site_label
_atom_site_type_symbol
_atom_site_fract_x
_atom_site_fract_y
_atom_site_fract_z
C1 C 0.2420(3) 0.81313(7) 1.07096(18)
H1 H 0.41820 0.80600 1.12220
C2 C 0.1176(3) 0.75572(7) 1.01108(17)
H2 H -0.06130 0.76290 0.96570
O1 O 0.13650(19) 0.71037(5) 1.12141(11)
C3 C -0.0639(3) 0.70309(8) 1.18359(17)
O2 O -0.2350(2) 0.73871(5) 1.16784(12)
C4 C -0.0472(4) 0.64723(8) 1.2668(2)
H3 H -0.18020 0.62120 1.21940
H4 H -0.06460 0.65520 1.36430
H5 H 0.11400 0.62910 1.27060
C5 C 0.2473(3) 0.72916(7) 0.89806(17)
H6 H 0.41300 0.71330 0.94700
O3 O 0.0888(2) 0.68278(5) 0.82577(12)
C6 C 0.1706(3) 0.62645(8) 0.85180(19)
O4 O 0.3752(2) 0.61344(6) 0.92247(15)
C7 C -0.0322(4) 0.58499(9) 0.7779(2)
H7 H 0.01730 0.54540 0.80640
H8 H -0.05680 0.58880 0.67390
H9 H -0.18730 0.59410 0.80600
C8 C 0.2798(3) 0.77413(7) 0.78428(18)
H10 H 0.11560 0.78310 0.71920
O5 O 0.4469(2) 0.74810(5) 0.70244(11)
C9 C 0.3700(3) 0.74592(8) 0.55489(18)
O6 O 0.1724(2) 0.76605(6) 0.48900(13)
C10 C 0.5611(3) 0.71575(9) 0.4891(2)
H11 H 0.52860 0.72470 0.38680
H12 H 0.55010 0.67410 0.50210
H13 H 0.72770 0.72910 0.53620
C11 C 0.3986(3) 0.82976(8) 0.85927(18)
H14 H 0.56460 0.82040 0.92190
O7 O 0.2343(2) 0.85092(5) 0.94769(11)
C12 C 0.4283(4) 0.87743(8) 0.75416(19)
H15 H 0.50930 0.86190 0.68010
H16 H 0.26370 0.89290 0.70610
O8 O 0.5823(2) 0.92336(5) 0.83600(13)
C13 C 0.7762(3) 0.94387(8) 0.7828(2)
O9 O 0.8199(2) 0.92742(7) 0.66918(14)
C14 C 0.9240(4) 0.98865(9) 0.8822(2)
H17 H 1.04760 1.00610 0.83670
H18 H 1.00810 0.97020 0.97210
H19 H 0.81160 1.01860 0.90210
N1 N 0.1093(3) 0.84207(7) 1.16646(15)
C15 C 0.2133(3) 0.89001(7) 1.24980(18)
C16 C 0.4158(3) 0.92155(8) 1.21893(19)
H20 H 0.48610 0.91010 1.14190
C17 C 0.5117(3) 0.96963(8) 1.30241(19)
H21 H 0.64720 0.99050 1.28230
C18 C 0.4050(3) 0.98675(8) 1.41653(18)
C19 C 0.2022(3) 0.95678(8) 1.44827(19)
H22 H 0.13110 0.96910 1.52440
C20 C 0.1075(3) 0.90862(7) 1.36587(18)
H23 H -0.02810 0.88800 1.38690
N2 N 0.5094(3) 1.03756(7) 1.50398(17)
O10 O 0.6769(3) 1.06616(6) 1.46732(16)
O11 O 0.4251(3) 1.05023(6) 1.61159(15)
H24 H 0.008(3) 0.8184(9) 1.195(2)
#END
