
#######################################################################
#
#                 Cambridge Crystallographic Data Centre
#                                CCDC
#
#######################################################################
#
# If this CIF has been generated from an entry in the Cambridge
# Structural Database, then it will include bibliographic, chemical,
# crystal, experimental, refinement or atomic coordinate data resulting
# from the CCDC's data processing and validation procedures.
#
#######################################################################

data_CSD_CIF_KESTEK
_audit_creation_date 2017-11-25
_audit_creation_method CSD-ConQuest-V1
_database_code_CSD KESTEK
_database_code_depnum_ccdc_archive 'CCDC 1569471'
_chemical_formula_sum 'C16 H17 N7 O5'
_chemical_formula_moiety
;
C16 H17 N7 O5
;
_journal_coden_Cambridge 179
_journal_volume 56
_journal_year 2017
_journal_page_first 16218
_journal_name_full 'Angew.Chem.,Int.Ed. '
loop_
_publ_author_name
"K.F.McClure"
"D.W.Piotrowski"
"D.Petersen"
"Liuqing Wei"
"Jun Xiao"
"A.T.Londregan"
"A.S.Kamlet"
"A.-M.Dechert-Schmitt"
"B.Raymer"
"R.B.Ruggeri"
"D.Canterbury"
"C.Limberakis"
"S.Liras"
"P.DaSilva-Jardine"
"R.G.Dullea"
"P.M.Loria"
"B.Reidich"
"C.T.Salatto"
"Heather Eng"
"E.Kimoto"
"K.Atkinson"
"A.King-Ahmad"
"D.Scott"
"K.Beaumont"
"J.R.Chabot"
"M.W.Bolt"
"K.Maresca"
"K.Dahl"
"R.Arakawa"
"A.Takano"
"C.Halldin"
_chemical_name_systematic
;
(S)-ethyl 
(1-(5-(1-methyl-4-(4-nitrophenyl)-1H-pyrazol-5-yl)-1H-tetrazol-1-yl)ethyl) 
carbonate
;
_cell_volume    900.685
_exptl_crystal_colour 'colorless'
_exptl_crystal_density_diffrn 1.428
_exptl_special_details
;
Absolute configuration

;
_exptl_crystal_description 'prism'
_exptl_crystal_preparation 'ethyl acetate'
_diffrn_ambient_temperature 123
#These two values have been output from a single CSD field.
_refine_ls_R_factor_gt 0.0333
_refine_ls_wR_factor_gt 0.0333
_symmetry_cell_setting monoclinic
_symmetry_space_group_name_H-M 'P 21'
_symmetry_Int_Tables_number 4
loop_
_symmetry_equiv_pos_site_id
_symmetry_equiv_pos_as_xyz
1 x,y,z
2 -x,1/2+y,-z
_cell_length_a 9.1284(8)
_cell_length_b 7.4486(7)
_cell_length_c 13.8629(11)
_cell_angle_alpha 90
_cell_angle_beta 107.149(6)
_cell_angle_gamma 90
_cell_formula_units_Z 2
loop_
_atom_type_symbol
_atom_type_radius_bond
C 0.68
H 0.23
N 0.68
O 0.68
loop_
_atom_site_label
_atom_site_type_symbol
_atom_site_fract_x
_atom_site_fract_y
_atom_site_fract_z
O1 O 0.54548(18) 0.7936(3) 1.05767(12)
O2 O 0.73959(17) 0.6144(2) 1.06754(11)
O3 O 0.91801(14) 0.99060(19) 0.80103(9)
O4 O 0.76863(19) 1.2254(2) 0.82151(12)
O5 O 0.89644(15) 1.0424(2) 0.95001(9)
N1 N 0.63067(19) 0.7088(3) 1.01906(13)
N2 N 0.40983(17) 0.8247(3) 0.43006(12)
N3 N 0.56315(17) 0.8100(2) 0.44386(11)
N4 N 0.89150(18) 0.6482(2) 0.54354(12)
N5 N 1.04375(18) 0.6848(3) 0.59294(12)
N6 N 1.05639(17) 0.8228(3) 0.65280(12)
N7 N 0.91143(17) 0.8812(2) 0.64369(11)
C1 C 0.6021(2) 0.7244(3) 0.90939(15)
C2 C 0.4805(2) 0.8298(3) 0.85356(16)
H1 H 0.41320 0.88620 0.88500
C3 C 0.4601(2) 0.8504(3) 0.75145(15)
H2 H 0.37840 0.92250 0.71210
C4 C 0.5595(2) 0.7653(3) 0.70536(15)
C5 C 0.6773(2) 0.6532(3) 0.76396(15)
H3 H 0.74150 0.59070 0.73240
C6 C 0.7005(2) 0.6331(3) 0.86631(15)
H4 H 0.78080 0.55960 0.90610
C7 C 0.5361(2) 0.7905(3) 0.59706(14)
C8 C 0.3932(2) 0.8143(3) 0.52126(15)
H5 H 0.29730 0.82180 0.53480
C9 C 0.6427(2) 0.7901(3) 0.54322(14)
C10 C 0.6234(2) 0.8271(3) 0.35805(14)
H6 H 0.67170 0.94500 0.35980
H7 H 0.53950 0.81490 0.29520
H8 H 0.69960 0.73280 0.36140
C11 C 0.8120(2) 0.7715(3) 0.57607(13)
C12 C 0.8841(2) 1.0452(3) 0.69632(13)
H9 H 0.77370 1.08030 0.67000
C13 C 0.9843(2) 1.2017(3) 0.68398(15)
H10 H 1.09200 1.17390 0.71850
H11 H 0.95440 1.31010 0.71350
H12 H 0.97110 1.22170 0.61200
C14 C 0.8528(2) 1.0995(3) 0.85512(14)
C15 C 0.8366(3) 1.1533(3) 1.01751(15)
H13 H 0.72350 1.16110 0.99160
H14 H 0.87930 1.27630 1.02190
C16 C 0.8841(2) 1.0653(3) 1.12028(15)
H15 H 0.99620 1.06490 1.14690
H16 H 0.84610 0.94150 1.11440
H17 H 0.84080 1.13240 1.16620
#END
