
#######################################################################
#
#                 Cambridge Crystallographic Data Centre
#                                CCDC
#
#######################################################################
#
# If this CIF has been generated from an entry in the Cambridge
# Structural Database, then it will include bibliographic, chemical,
# crystal, experimental, refinement or atomic coordinate data resulting
# from the CCDC's data processing and validation procedures.
#
#######################################################################

data_CSD_CIF_KEWZUJ
_audit_creation_date 2013-05-21
_audit_creation_method CSD-ConQuest-V1
_database_code_CSD KEWZUJ
_database_code_depnum_ccdc_archive 'CCDC 888078'
_chemical_formula_sum 'C14 H19 N1 O4'
_chemical_formula_moiety
;
C14 H19 N1 O4
;
_journal_coden_Cambridge 1220
_journal_volume 19
_journal_year 2013
_journal_page_first 3573
_journal_name_full 'Chem.-Eur.J. '
loop_
_publ_author_name
"Kun Xu"
"Sheng Zhang"
"Yanbin Hu"
"Zhenggen Zha"
"Zhiyong Wang"
_chemical_name_systematic
;
2-(1-Nitro-2-phenylpentan-3-yl)-1,3-dioxolane
;
_cell_volume    703.839
_exptl_crystal_density_diffrn 1.252
_exptl_special_details
;
Absolute configuration

;
_diffrn_ambient_temperature 291
#These two values have been output from a single CSD field.
_refine_ls_R_factor_gt 0.0314
_refine_ls_wR_factor_gt 0.0314
_symmetry_cell_setting monoclinic
_symmetry_space_group_name_H-M 'P 21'
_symmetry_Int_Tables_number 4
loop_
_symmetry_equiv_pos_site_id
_symmetry_equiv_pos_as_xyz
1 x,y,z
2 -x,1/2+y,-z
_cell_length_a 5.5646(1)
_cell_length_b 14.8330(3)
_cell_length_c 8.7196(2)
_cell_angle_alpha 90
_cell_angle_beta 102.056(2)
_cell_angle_gamma 90
_cell_formula_units_Z 2
loop_
_atom_type_symbol
_atom_type_radius_bond
C 0.68
H 0.23
N 0.68
O 0.68
loop_
_atom_site_label
_atom_site_type_symbol
_atom_site_fract_x
_atom_site_fract_y
_atom_site_fract_z
C1 C 0.5198(3) 0.70133(11) 0.80563(18)
H1 H 0.41190 0.66850 0.85220
C2 C 0.67885(19) 0.55380(8) 0.72364(13)
H2 H 0.54490 0.53220 0.77140
C3 C 0.8312(3) 0.70705(10) 0.65529(19)
H3 H 0.93630 0.67820 0.60100
N1 N 0.4102(2) 0.56137(8) 0.45638(12)
O1 O 0.22048(19) 0.56059(13) 0.50279(15)
C4 C 0.6782(2) 0.65614(9) 0.72820(14)
C5 C 0.9236(2) 0.51362(9) 0.81815(15)
H4 H 1.05200 0.52960 0.76140
O2 O 0.4266(2) 0.59367(10) 0.33222(14)
C6 C 0.9188(3) 0.41086(10) 0.82706(17)
H5 H 1.05090 0.39030 0.91260
O3 O 0.6909(3) 0.37826(7) 0.85189(16)
C7 C 0.6332(2) 0.51878(10) 0.55500(15)
H6 H 0.77500 0.53180 0.51030
H7 H 0.61170 0.45390 0.55510
C8 C 1.0002(3) 0.55402(10) 0.98329(16)
H8 H 1.16120 0.53060 1.03100
H9 H 1.01640 0.61870 0.97310
C9 C 0.8291(4) 0.80070(12) 0.6624(2)
H10 H 0.93160 0.83400 0.61230
C10 C 0.5202(4) 0.79461(13) 0.8145(2)
H11 H 0.41540 0.82390 0.86840
O4 O 0.9481(2) 0.37072(7) 0.68510(14)
C11 C 0.8286(3) 0.53631(14) 1.09411(18)
H12 H 0.67180 0.56350 1.05300
H13 H 0.89710 0.56180 1.19500
H14 H 0.80830 0.47250 1.10450
C12 C 0.6581(5) 0.29006(14) 0.7859(3)
H15 H 0.49230 0.28240 0.72520
H16 H 0.68920 0.24450 0.86760
C13 C 0.8412(5) 0.28343(13) 0.6832(3)
H17 H 0.96560 0.23880 0.72360
H18 H 0.76110 0.26670 0.57740
C14 C 0.6762(4) 0.8440(1) 0.74318(19)
H19 H 0.67780 0.90660 0.74990
#END
