
#######################################################################
#
#                 Cambridge Crystallographic Data Centre
#                                CCDC
#
#######################################################################
#
# If this CIF has been generated from an entry in the Cambridge
# Structural Database, then it will include bibliographic, chemical,
# crystal, experimental, refinement or atomic coordinate data resulting
# from the CCDC's data processing and validation procedures.
#
#######################################################################

data_CSD_CIF_KEZMEK
_audit_creation_date 2018-04-16
_audit_creation_method CSD-ConQuest-V1
_database_code_CSD KEZMEK
_database_code_depnum_ccdc_archive 'CCDC 1837278'
_chemical_formula_sum 'C11 H11 N3 O2'
_chemical_formula_moiety
;
C11 H11 N3 O2
;
_journal_coden_Cambridge 1078
_journal_year 2018
_journal_name_full 'CSD Communication(Private Communication) '
loop_
_publ_author_name
"Ajai Singh"
_chemical_name_systematic
;
1,2-dimethyl-5-(4-nitrophenyl)-1H-imidazole
;
_cell_volume   2109.282
_exptl_crystal_colour 'yellow'
_exptl_crystal_density_diffrn 1.368
_exptl_crystal_description 'block'
_diffrn_ambient_temperature 298
#These two values have been output from a single CSD field.
_refine_ls_R_factor_gt 0.0486
_refine_ls_wR_factor_gt 0.0486
_symmetry_cell_setting orthorhombic
_symmetry_space_group_name_H-M 'P b c a'
_symmetry_Int_Tables_number 61
loop_
_symmetry_equiv_pos_site_id
_symmetry_equiv_pos_as_xyz
1 x,y,z
2 1/2-x,-y,1/2+z
3 -x,1/2+y,1/2-z
4 1/2+x,1/2-y,-z
5 -x,-y,-z
6 -1/2+x,y,-1/2-z
7 x,-1/2-y,-1/2+z
8 -1/2-x,-1/2+y,z
_cell_length_a 7.307(5)
_cell_length_b 13.714(8)
_cell_length_c 21.049(11)
_cell_angle_alpha 90
_cell_angle_beta 90
_cell_angle_gamma 90
_cell_formula_units_Z 8
loop_
_atom_type_symbol
_atom_type_radius_bond
C 0.68
H 0.23
N 0.68
O 0.68
loop_
_atom_site_label
_atom_site_type_symbol
_atom_site_fract_x
_atom_site_fract_y
_atom_site_fract_z
N1 N 0.74671(19) 0.44644(10) 0.48692(6)
N2 N 0.7066(2) 0.60631(11) 0.48283(8)
C1 C 0.6711(2) 0.39727(12) 0.37388(8)
C2 C 0.6965(2) 0.46787(12) 0.42492(8)
O1 O 0.6165(3) 0.23032(15) 0.16747(7)
N3 N 0.5859(3) 0.20247(14) 0.22120(8)
C3 C 0.7162(3) 0.42322(13) 0.31177(9)
H1 H 0.76640 0.48440 0.30410
O2 O 0.5269(3) 0.12124(13) 0.23321(9)
C4 C 0.6734(3) 0.56657(13) 0.42449(9)
H2 H 0.63920 0.60230 0.38890
C5 C 0.5957(3) 0.30505(13) 0.38385(8)
H3 H 0.56250 0.28650 0.42470
C6 C 0.6885(3) 0.36091(15) 0.26188(8)
H4 H 0.71820 0.37950 0.22070
C7 C 0.6157(2) 0.27000(13) 0.27404(8)
C8 C 0.7521(2) 0.53200(14) 0.51910(9)
C9 C 0.5695(3) 0.24129(14) 0.33447(9)
H5 H 0.52130 0.17950 0.34180
C10 C 0.7984(3) 0.35247(14) 0.5133(1)
H6 H 0.89590 0.36120 0.54330
H7 H 0.83870 0.31020 0.47970
H8 H 0.69480 0.32380 0.53430
C11 C 0.8041(3) 0.53956(17) 0.58733(9)
H9 H 0.79960 0.60660 0.60040
H10 H 0.92590 0.51490 0.59310
H11 H 0.72030 0.50210 0.61260
#END
