
#######################################################################
#
#                 Cambridge Crystallographic Data Centre
#                                CCDC
#
#######################################################################
#
# If this CIF has been generated from an entry in the Cambridge
# Structural Database, then it will include bibliographic, chemical,
# crystal, experimental, refinement or atomic coordinate data resulting
# from the CCDC's data processing and validation procedures.
#
#######################################################################

data_CSD_CIF_KIBFEG
_audit_creation_date 1991-06-18
_audit_creation_method CSD-ConQuest-V1
_database_code_CSD KIBFEG
_chemical_formula_sum 'C5 H7 N3 O1'
_chemical_formula_moiety
;
C5 H7 N3 O1
;
_journal_coeditor_code "IUCr AS0318"
_journal_coden_Cambridge 591
_journal_volume 46
_journal_year 1990
_journal_page_first 2177
_journal_name_full 'Acta Crystallogr.,Sect.C:Cryst.Struct.Commun. '
loop_
_publ_author_name
"K.Yamaguchi"
"A.Ohsawa"
"T.Itoh"
_chemical_name_systematic
;
4,6-Dimethyl-1,2,3-triazine 2-oxide
;
_cell_volume    636.988
_exptl_crystal_density_diffrn 1.305
_diffrn_ambient_temperature ?
_diffrn_special_details
;
The study was carried out at room temperature,in the range 283-303K

;
#These two values have been output from a single CSD field.
_refine_ls_R_factor_gt 0.05
_refine_ls_wR_factor_gt 0.05
_symmetry_cell_setting orthorhombic
_symmetry_space_group_name_H-M 'P 21 21 21'
_symmetry_Int_Tables_number 19
loop_
_symmetry_equiv_pos_site_id
_symmetry_equiv_pos_as_xyz
1 x,y,z
2 1/2+x,1/2-y,-z
3 -x,1/2+y,1/2-z
4 1/2-x,-y,1/2+z
_cell_length_a 8.932(1)
_cell_length_b 11.743(1)
_cell_length_c 6.073(1)
_cell_angle_alpha 90
_cell_angle_beta 90
_cell_angle_gamma 90
_cell_formula_units_Z 4
loop_
_atom_type_symbol
_atom_type_radius_bond
C 0.68
H 0.23
N 0.68
O 0.68
loop_
_atom_site_label
_atom_site_type_symbol
_atom_site_fract_x
_atom_site_fract_y
_atom_site_fract_z
N1 N 0.6507(3) -0.0369(2) 0.0547(6)
N2 N 0.5626(3) 0.0442(2) -0.0254(6)
N3 N 0.4803(3) 0.0379(2) -0.2081(5)
C1 C 0.4881(3) -0.0601(2) -0.3187(6)
C2 C 0.5751(4) -0.1494(2) -0.2495(6)
C3 C 0.6547(4) -0.1343(2) -0.0595(6)
C4 C 0.3924(6) -0.0657(5) -0.5190(8)
C5 C 0.7520(6) -0.2244(4) 0.0374(11)
O1 O 0.5561(4) 0.1357(2) 0.0799(6)
H1 H 0.578(4) -0.224(3) -0.341(7)
H2 H 0.419(6) -0.137(4) -0.613(9)
H3 H 0.281(7) -0.095(4) -0.486(11)
H4 H 0.375(6) 0.001(4) -0.579(10)
H5 H 0.722(6) -0.298(5) -0.035(13)
H6 H 0.860(7) -0.212(4) 0.027(12)
H7 H 0.742(8) -0.226(6) 0.187(10)
#END
