
#######################################################################
#
#                 Cambridge Crystallographic Data Centre
#                                CCDC
#
#######################################################################
#
# If this CIF has been generated from an entry in the Cambridge
# Structural Database, then it will include bibliographic, chemical,
# crystal, experimental, refinement or atomic coordinate data resulting
# from the CCDC's data processing and validation procedures.
#
#######################################################################

data_CSD_CIF_KIBSAS01
_audit_creation_date 2018-06-27
_audit_creation_method CSD-ConQuest-V1
_database_code_CSD KIBSAS01
_database_code_depnum_ccdc_archive 'CCDC 1851593'
_chemical_formula_sum 'C4 H2 N6 O4'
_chemical_formula_moiety
;
C4 H2 N6 O4
;
_journal_coden_Cambridge 1078
_journal_year 2018
_journal_name_full 'CSD Communication(Private Communication) '
loop_
_publ_author_name
"qian wang"
_chemical_name_systematic
;
3-(4-nitro-1,2,5-oxadiazol-3-yl)-1,2,4-oxadiazol-5-amine
;
_cell_volume    757.148
_exptl_crystal_colour 'colorless'
_exptl_crystal_density_diffrn 1.738
_exptl_crystal_description 'block'
_diffrn_ambient_temperature 296
#These two values have been output from a single CSD field.
_refine_ls_R_factor_gt 0.0314
_refine_ls_wR_factor_gt 0.0314
_symmetry_cell_setting monoclinic
_symmetry_space_group_name_H-M 'P 21/c'
_symmetry_Int_Tables_number 14
loop_
_symmetry_equiv_pos_site_id
_symmetry_equiv_pos_as_xyz
1 x,y,z
2 -x,1/2+y,1/2-z
3 -x,-y,-z
4 x,-1/2-y,-1/2+z
_cell_length_a 6.5817(9)
_cell_length_b 15.5573(18)
_cell_length_c 7.4055(9)
_cell_angle_alpha 90
_cell_angle_beta 93.124(4)
_cell_angle_gamma 90
_cell_formula_units_Z 4
loop_
_atom_type_symbol
_atom_type_radius_bond
C 0.68
H 0.23
N 0.68
O 0.68
loop_
_atom_site_label
_atom_site_type_symbol
_atom_site_fract_x
_atom_site_fract_y
_atom_site_fract_z
C1 C 0.3530(2) 0.35393(9) 0.52829(17)
C2 C 0.1008(2) 0.39181(9) 0.36902(18)
C3 C 0.5290(2) 0.35385(9) 0.65888(19)
C4 C 0.5548(2) 0.37530(8) 0.84455(19)
N1 N 0.3311(2) 0.29009(8) 0.41715(17)
N2 N 0.21570(18) 0.41911(7) 0.50749(15)
N3 N -0.0555(2) 0.42993(9) 0.28574(17)
H1 H -0.09420 0.47960 0.32140
H2 H -0.11930 0.40520 0.19550
N4 N 0.7054(2) 0.32918(11) 0.6076(2)
N5 N 0.7408(2) 0.36407(10) 0.9041(2)
N6 N 0.40752(19) 0.40367(7) 0.96968(16)
O1 O 0.15759(16) 0.31485(6) 0.30745(14)
O2 O 0.83716(17) 0.33507(10) 0.75851(19)
O3 O 0.23283(16) 0.40884(8) 0.91244(14)
O4 O 0.47135(19) 0.42086(8) 1.12333(14)
#END
