
#######################################################################
#
#                 Cambridge Crystallographic Data Centre
#                                CCDC
#
#######################################################################
#
# If this CIF has been generated from an entry in the Cambridge
# Structural Database, then it will include bibliographic, chemical,
# crystal, experimental, refinement or atomic coordinate data resulting
# from the CCDC's data processing and validation procedures.
#
#######################################################################

data_CSD_CIF_KILTAA
_audit_creation_date 2000-07-14
_audit_creation_method CSD-ConQuest-V1
_database_code_CSD KILTAA
_database_code_depnum_ccdc_archive 'CCDC 114361'
_database_code_depnum_ccdc_journal 188/163
_chemical_formula_sum 'C26 H16 N2 O4'
_chemical_formula_moiety
;
C26 H16 N2 O4
;
_journal_coden_Cambridge 188
_journal_year 1999
_journal_page_first 1137
_journal_name_full 'J.Chem.Soc.,Perkin Trans.2 '
loop_
_publ_author_name
"Yu-Lin Lam"
"Lip-Lin Koh"
"Hsing-Hua Huang"
"Li Wang"
_chemical_name_systematic
;
gauche-9,9'-Dinitro-9,9'-bifluorenyl
;
_chemical_melting_point 453.15
_cell_volume   1987.307
_exptl_crystal_colour 'colorless'
_exptl_crystal_density_diffrn 1.405
_exptl_special_details
;
Melts with decomposition.

;
_exptl_crystal_description 'blocks'
_exptl_crystal_preparation 'benzene/light petroleum'
_diffrn_ambient_temperature ?
_diffrn_special_details
;
The study was carried out at room temperature,in the range 283-303K

;
#These two values have been output from a single CSD field.
_refine_ls_R_factor_gt 0.0899
_refine_ls_wR_factor_gt 0.0899
_symmetry_cell_setting monoclinic
_symmetry_space_group_name_H-M 'P 21/n'
_symmetry_Int_Tables_number 14
loop_
_symmetry_equiv_pos_site_id
_symmetry_equiv_pos_as_xyz
1 x,y,z
2 1/2-x,1/2+y,1/2-z
3 -x,-y,-z
4 -1/2+x,-1/2-y,-1/2+z
_cell_length_a 8.990(2)
_cell_length_b 16.499(7)
_cell_length_c 13.445(3)
_cell_angle_alpha 90
_cell_angle_beta 94.78(2)
_cell_angle_gamma 90
_cell_formula_units_Z 4
loop_
_atom_type_symbol
_atom_type_radius_bond
C 0.68
H 0.23
N 0.68
O 0.68
loop_
_atom_site_label
_atom_site_type_symbol
_atom_site_fract_x
_atom_site_fract_y
_atom_site_fract_z
C1 C 0.1024(4) 0.5739(2) 0.6493(3)
C2 C 0.1785(5) 0.5126(2) 0.6045(3)
C3 C 0.3011(5) 0.5295(2) 0.5538(3)
C4 C 0.3523(3) 0.6078(2) 0.5467(2)
C5 C 0.4250(3) 0.8000(2) 0.5606(2)
C6 C 0.4355(3) 0.8815(2) 0.5816(2)
C7 C 0.3351(3) 0.9188(2) 0.6395(3)
C8 C 0.2201(3) 0.8755(2) 0.6764(2)
C9 C 0.0906(3) 0.7317(2) 0.6799(2)
C10 C 0.1514(3) 0.6527(2) 0.6415(2)
C11 C 0.2774(3) 0.6696(2) 0.5906(2)
C12 C 0.3101(3) 0.7557(2) 0.5976(2)
C13 C 0.2069(3) 0.7938(2) 0.6539(2)
C14 C -0.1761(3) 0.8596(2) 0.7537(2)
C15 C -0.2250(4) 0.9391(2) 0.7650(3)
C16 C -0.2266(4) 0.9938(2) 0.6882(3)
C17 C -0.1842(3) 0.9709(2) 0.5958(3)
C18 C -0.0761(3) 0.8806(2) 0.3990(2)
C19 C -0.0314(3) 0.8286(3) 0.3269(2)
C20 C -0.0024(3) 0.7482(3) 0.3489(3)
C21 C -0.0133(3) 0.7182(2) 0.4441(2)
C22 C -0.0674(3) 0.7569(2) 0.6281(2)
C23 C -0.1292(3) 0.8374(2) 0.6624(2)
C24 C -0.1357(3) 0.8920(2) 0.5831(2)
C25 C -0.0890(3) 0.8512(2) 0.4942(2)
C26 C -0.0543(3) 0.7708(2) 0.5172(2)
N1 N 0.0851(3) 0.7267(2) 0.7943(2)
N2 N -0.1818(3) 0.6896(2) 0.6432(3)
O1 O 0.1046(3) 0.7873(2) 0.8429(2)
O2 O 0.0644(5) 0.6632(2) 0.8307(2)
O3 O -0.2193(4) 0.6446(2) 0.5798(3)
O4 O -0.2195(5) 0.6842(2) 0.7264(3)
H1 H 0.01810 0.56180 0.68620
H2 H 0.14270 0.45790 0.60710
H3 H 0.35350 0.48610 0.52440
H4 H 0.43790 0.61990 0.51120
H5 H 0.49600 0.77420 0.52150
H6 H 0.51200 0.91350 0.55500
H7 H 0.34690 0.97520 0.65560
H8 H 0.14970 0.90170 0.71560
H9 H -0.17640 0.82100 0.80720
H10 H -0.25680 0.95620 0.82810
H11 H -0.25820 1.04850 0.69840
H12 H -0.18820 1.00860 0.54130
H13 H -0.09710 0.93660 0.38410
H14 H -0.02140 0.84840 0.26070
H15 H 0.02610 0.71240 0.29760
H16 H 0.00720 0.66230 0.45950
#END
