
#######################################################################
#
#                 Cambridge Crystallographic Data Centre
#                                CCDC
#
#######################################################################
#
# If this CIF has been generated from an entry in the Cambridge
# Structural Database, then it will include bibliographic, chemical,
# crystal, experimental, refinement or atomic coordinate data resulting
# from the CCDC's data processing and validation procedures.
#
#######################################################################

data_CSD_CIF_KIMQEF
_audit_creation_date 2018-09-14
_audit_creation_method CSD-ConQuest-V1
_database_code_CSD KIMQEF
_database_code_depnum_ccdc_archive 'CCDC 1584966'
_chemical_formula_sum 'C14 H10 N4 O2'
_chemical_formula_moiety
;
C14 H10 N4 O2
;
_journal_coden_Cambridge 9
_journal_year 2018
_journal_name_full 'Inorg.Chem. '
loop_
_publ_author_name
"S.Kundu"
"D.Dutta"
"S.Maity"
"T.Weyhermuller"
"P.Ghosh"
_chemical_name_systematic
;
N-(5-nitropyridin-2-yl)quinolin-8-amine
;
_cell_volume    614.988
_exptl_crystal_colour 'yellow'
_exptl_crystal_density_diffrn 1.438
_exptl_crystal_description 'rectengular'
_diffrn_ambient_temperature 296
#These two values have been output from a single CSD field.
_refine_ls_R_factor_gt 0.0381
_refine_ls_wR_factor_gt 0.0381
_symmetry_cell_setting triclinic
_symmetry_space_group_name_H-M 'P -1'
_symmetry_Int_Tables_number 2
loop_
_symmetry_equiv_pos_site_id
_symmetry_equiv_pos_as_xyz
1 x,y,z
2 -x,-y,-z
_cell_length_a 6.8370(14)
_cell_length_b 8.2650(17)
_cell_length_c 11.166(2)
_cell_angle_alpha 92.83(3)
_cell_angle_beta 94.65(3)
_cell_angle_gamma 101.45(3)
_cell_formula_units_Z 2
loop_
_atom_type_symbol
_atom_type_radius_bond
C 0.68
H 0.23
N 0.68
O 0.68
loop_
_atom_site_label
_atom_site_type_symbol
_atom_site_fract_x
_atom_site_fract_y
_atom_site_fract_z
N1 N -0.29947(17) -0.22554(13) 0.04414(10)
C1 C -0.3092(2) -0.33740(17) 0.12695(13)
H1 H -0.34040 -0.44910 0.10130
C2 C -0.27520(19) -0.29445(17) 0.24842(12)
C3 C -0.2285(2) -0.12912(18) 0.28964(12)
H2 H -0.20440 -0.09860 0.37160
C4 C -0.2187(2) -0.01241(17) 0.20701(12)
H3 H -0.18860 0.09970 0.23140
C5 C -0.25550(18) -0.06553(15) 0.08352(11)
N2 N -0.24449(16) 0.05239(12) 0.00152(9)
H4 H -0.21830 0.15220 0.03310
C6 C -0.26784(18) 0.04083(14) -0.12421(11)
C7 C -0.23356(17) 0.19770(14) -0.17707(10)
N3 N -0.18373(16) 0.33700(12) -0.10098(9)
C8 C -0.1528(2) 0.48082(16) -0.15010(13)
H5 H -0.11810 0.57640 -0.09910
C9 C -0.1690(2) 0.49813(17) -0.27480(13)
H6 H -0.14630 0.60260 -0.30470
C10 C -0.2183(2) 0.36028(17) -0.35116(12)
H7 H -0.22980 0.36960 -0.43400
C11 C -0.25196(18) 0.20259(15) -0.30405(11)
C12 C -0.3036(2) 0.05278(17) -0.37654(12)
H8 H -0.31440 0.05480 -0.46000
C13 C -0.3377(2) -0.09450(17) -0.32455(12)
H9 H -0.37290 -0.19220 -0.37330
C14 C -0.3207(2) -0.10236(15) -0.19816(12)
H10 H -0.34530 -0.20450 -0.16480
N4 N -0.2868(2) -0.42259(18) 0.33367(12)
O1 O -0.2587(2) -0.37820(18) 0.44125(11)
O2 O -0.3212(2) -0.56763(15) 0.29543(12)
#END
