
#######################################################################
#
#                 Cambridge Crystallographic Data Centre
#                                CCDC
#
#######################################################################
#
# If this CIF has been generated from an entry in the Cambridge
# Structural Database, then it will include bibliographic, chemical,
# crystal, experimental, refinement or atomic coordinate data resulting
# from the CCDC's data processing and validation procedures.
#
#######################################################################

data_CSD_CIF_KIPMEB02
_audit_creation_date 2000-07-14
_audit_creation_method CSD-ConQuest-V1
_database_code_CSD KIPMEB02
_chemical_formula_sum 'C21 H26 N2 O3'
_chemical_formula_moiety
;
C21 H26 N2 O3
;
_journal_coden_Cambridge 4
_journal_volume 121
_journal_year 1999
_journal_page_first 5809
_journal_name_full 'J.Am.Chem.Soc. '
loop_
_publ_author_name
"J.Harada"
"H.Uekusa"
"Y.Ohashi"
_chemical_name_systematic
;
N-(3,5-Di-t-butylsalicylidene)-3-nitroaniline
;
_cell_volume    969.486
_exptl_crystal_colour 'pale yellow'
_exptl_crystal_density_diffrn 1.214
_exptl_special_details
;
irradiated product

;
_diffrn_ambient_temperature 90
#These two values have been output from a single CSD field.
_refine_ls_R_factor_gt 0.0355
_refine_ls_wR_factor_gt 0.0355
_symmetry_cell_setting triclinic
_symmetry_space_group_name_H-M 'P -1'
_symmetry_Int_Tables_number 2
loop_
_symmetry_equiv_pos_site_id
_symmetry_equiv_pos_as_xyz
1 x,y,z
2 -x,-y,-z
_cell_length_a 6.0956(1)
_cell_length_b 10.3034(2)
_cell_length_c 16.2777(2)
_cell_angle_alpha 102.1639(5)
_cell_angle_beta 92.3604(10)
_cell_angle_gamma 103.0128(5)
_cell_formula_units_Z 2
loop_
_atom_type_symbol
_atom_type_radius_bond
C 0.68
H 0.23
N 0.68
O 0.68
loop_
_atom_site_label
_atom_site_type_symbol
_atom_site_fract_x
_atom_site_fract_y
_atom_site_fract_z
N1 N -0.3223(1) 0.5974(1) 0.3786(1)
N2 N -0.3502(1) 0.9929(1) 0.6040(1)
O1 O -0.1686(1) 0.3856(1) 0.3120(1)
O2 O -0.4642(1) 1.0524(1) 0.6521(1)
O3 O -0.1464(1) 1.0365(1) 0.6004(1)
C1 C -0.0604(1) 0.6005(1) 0.2716(1)
C2 C -0.0499(1) 0.4628(1) 0.2631(1)
C3 C 0.0871(1) 0.4051(1) 0.2050(1)
C4 C 0.2077(1) 0.4903(1) 0.1575(1)
C5 C 0.1991(1) 0.6278(1) 0.1635(1)
C6 C 0.0655(1) 0.6811(1) 0.2218(1)
C7 C -0.1978(1) 0.6635(1) 0.3312(1)
C8 C -0.4409(1) 0.6696(1) 0.4380(1)
C9 C -0.6665(1) 0.6085(1) 0.4467(1)
C10 C -0.7886(1) 0.6764(1) 0.5042(1)
C11 C -0.6877(1) 0.8042(1) 0.5559(1)
C12 C -0.4628(1) 0.8604(1) 0.5475(1)
C13 C -0.3361(1) 0.7971(1) 0.4897(1)
C14 C 0.1024(1) 0.2555(1) 0.1947(1)
C15 C 0.2001(2) 0.2336(1) 0.2783(1)
C16 C -0.1328(2) 0.1573(1) 0.1679(1)
C17 C 0.2588(2) 0.2173(1) 0.1269(1)
C18 C 0.3360(1) 0.7106(1) 0.1066(1)
C19 C 0.2725(1) 0.6358(1) 0.0134(1)
C20 C 0.2915(1) 0.8537(1) 0.1174(1)
C21 C 0.5896(1) 0.7275(1) 0.1292(1)
H1 H -0.250(3) 0.4395(18) 0.3442(12)
H2 H 0.304(2) 0.4522(12) 0.1173(8)
H3 H 0.0546(19) 0.7775(12) 0.2310(7)
H4 H -0.193(2) 0.7620(13) 0.3339(8)
H5 H -0.736(2) 0.5192(13) 0.4107(8)
H6 H -0.947(2) 0.6310(13) 0.5080(8)
H7 H -0.771(2) 0.8522(14) 0.5957(8)
H8 H -0.181(2) 0.8363(13) 0.4853(8)
H9 H 0.212(2) 0.1382(14) 0.2703(8)
H10 H 0.354(2) 0.2945(14) 0.2951(9)
H11 H 0.103(2) 0.2516(13) 0.3253(8)
H12 H -0.242(2) 0.1710(13) 0.2103(8)
H13 H -0.114(2) 0.0637(14) 0.1616(9)
H14 H -0.198(2) 0.1684(14) 0.1133(9)
H15 H 0.265(2) 0.1223(14) 0.1212(8)
H16 H 0.416(2) 0.2713(15) 0.1434(9)
H17 H 0.203(2) 0.2267(13) 0.0707(8)
H18 H 0.301(2) 0.5428(14) 0.0014(8)
H19 H 0.112(2) 0.6269(13) -0.0025(8)
H20 H 0.367(2) 0.6878(14) -0.0237(8)
H21 H 0.129(2) 0.8511(13) 0.1033(8)
H22 H 0.382(2) 0.9025(13) 0.0779(8)
H23 H 0.339(2) 0.9099(13) 0.1752(8)
H24 H 0.636(2) 0.7803(14) 0.1883(9)
H25 H 0.632(2) 0.6391(13) 0.1237(8)
H26 H 0.682(2) 0.7765(13) 0.0917(8)
#END
