
#######################################################################
#
#                 Cambridge Crystallographic Data Centre
#                                CCDC
#
#######################################################################
#
# If this CIF has been generated from an entry in the Cambridge
# Structural Database, then it will include bibliographic, chemical,
# crystal, experimental, refinement or atomic coordinate data resulting
# from the CCDC's data processing and validation procedures.
#
#######################################################################

data_CSD_CIF_KIYBOJ
_audit_creation_date 1991-11-25
_audit_creation_method CSD-ConQuest-V1
_database_code_CSD KIYBOJ
_database_code_depnum_ccdc_archive 'CCDC 1197987'
_database_code_depnum_ccdc_fiz 'CSD 320211'
_chemical_formula_sum 'C21 H36 N6 O6'
_chemical_formula_moiety
;
C21 H36 N6 O6
;
_journal_coden_Cambridge 48
_journal_volume 124
_journal_year 1991
_journal_page_first 1719
_journal_name_full 'Chem.Ber. '
loop_
_publ_author_name
"J.J.Wolff"
"S.F.Nelsen"
"P.A.Petillo"
"D.R.Powell"
_chemical_name_systematic
;
1,3,5-tris(Neopentylamino)-2,4,6-trinitrobenzene
;
_chemical_melting_point 479.15
_cell_volume   4885.015
_exptl_crystal_colour 'yellow'
_exptl_crystal_density_diffrn 1.276
_exptl_special_details
;
Melting point range 479.15-481.15K

;
_diffrn_ambient_temperature 108.15
#These two values have been output from a single CSD field.
_refine_ls_R_factor_gt 0.0462
_refine_ls_wR_factor_gt 0.0462
_symmetry_cell_setting monoclinic
_symmetry_space_group_name_H-M 'C 2/c'
_symmetry_Int_Tables_number 15
loop_
_symmetry_equiv_pos_site_id
_symmetry_equiv_pos_as_xyz
1 x,y,z
2 1/2+x,1/2+y,z
3 -x,y,1/2-z
4 1/2-x,1/2+y,1/2-z
5 -x,-y,-z
6 -1/2-x,-1/2-y,-z
7 x,-y,-1/2+z
8 -1/2+x,-1/2-y,-1/2+z
_cell_length_a 19.679(8)
_cell_length_b 15.214(6)
_cell_length_c 17.245(6)
_cell_angle_alpha 90
_cell_angle_beta 108.89(3)
_cell_angle_gamma 90
_cell_formula_units_Z 8
loop_
_atom_type_symbol
_atom_type_radius_bond
C 0.68
H 0.23
N 0.68
O 0.68
loop_
_atom_site_label
_atom_site_type_symbol
_atom_site_fract_x
_atom_site_fract_y
_atom_site_fract_z
C1 C 0.14986(19) -0.09789(26) 0.97784(23)
N1 N 0.11312(15) -0.11508(21) 1.02851(18)
H1 H 0.08842(15) -0.16598(21) 1.01955(18)
C2 C 0.10711(20) -0.06240(26) 1.09688(21)
H2 H 0.06237(20) -0.03097(26) 1.08083(21)
H3 H 0.14555(20) -0.02029(26) 1.11175(21)
C3 C 0.11209(20) -0.12073(26) 1.17119(24)
C4 C 0.05504(21) -0.19320(27) 1.14752(25)
H4 H 0.06822(21) -0.23657(27) 1.11450(25)
H5 H 0.00856(21) -0.16978(27) 1.11803(25)
H6 H 0.05361(21) -0.21990(27) 1.19741(25)
C5 C 0.09684(23) -0.06197(30) 1.23520(25)
H7 H 0.10279(23) -0.09774(30) 1.28280(25)
H8 H 0.04833(23) -0.04065(30) 1.21509(25)
H9 H 0.12938(23) -0.01304(30) 1.24940(25)
C6 C 0.18703(21) -0.15986(30) 1.20567(27)
H10 H 0.19819(21) -0.19469(30) 1.16493(27)
H11 H 0.19032(21) -0.19578(30) 1.25252(27)
H12 H 0.22052(21) -0.1120(3) 1.22179(27)
C7 C 0.18057(19) -0.01388(25) 0.97289(22)
N2 N 0.14108(17) 0.06380(22) 0.96876(18)
O1 O 0.07908(14) 0.05867(18) 0.97341(16)
O2 O 0.16640(14) 0.13534(18) 0.95538(17)
C8 C 0.24312(20) -0.01058(25) 0.94607(22)
N3 N 0.29547(16) 0.04631(21) 0.97516(18)
H13 H 0.32729(16) 0.04986(21) 0.94769(18)
C9 C 0.30912(20) 0.10314(27) 1.04678(23)
H14 H 0.27368(20) 0.09163(27) 1.07291(23)
H15 H 0.3047(2) 0.16354(27) 1.02963(23)
C10 C 0.38443(20) 0.08792(25) 1.10796(24)
C11 C 0.38808(24) -0.00187(28) 1.14840(27)
H16 H 0.37970(24) -0.04723(28) 1.10770(27)
H17 H 0.35119(24) -0.00391(28) 1.17373(27)
H18 H 0.43409(24) -0.01080(28) 1.18922(27)
C12 C 0.39511(23) 0.16050(28) 1.17233(26)
H19 H 0.44040(23) 0.14938(28) 1.21371(26)
H20 H 0.35750(23) 0.15943(28) 1.19659(26)
H21 H 0.39631(23) 0.21720(28) 1.14828(26)
C13 C 0.44283(21) 0.09543(32) 1.06716(27)
H22 H 0.43768(21) 0.05071(32) 1.02636(27)
H23 H 0.48818(21) 0.08840(32) 1.10962(27)
H24 H 0.44086(21) 0.15235(32) 1.04244(27)
C14 C 0.24231(20) -0.07023(26) 0.88014(22)
N4 N 0.28561(18) -0.05364(24) 0.83167(21)
O3 O 0.33513(15) 0.00212(20) 0.85281(18)
O4 O 0.27397(16) -0.09346(20) 0.76438(18)
C15 C 0.19448(19) -0.14385(25) 0.86460(24)
N5 N 0.18068(15) -0.18966(20) 0.79631(19)
H25 H 0.20509(15) -0.17393(20) 0.76242(19)
C16 C 0.12894(20) -0.26064(25) 0.76575(22)
H26 H 0.09357(20) -0.25792(25) 0.79319(22)
H27 H 0.15349(20) -0.31601(25) 0.77861(22)
C17 C 0.09184(19) -0.25388(26) 0.67226(23)
C18 C 0.04292(20) -0.33372(25) 0.64731(26)
H28 H 0.01762(20) -0.33068(25) 0.58960(26)
H29 H 0.00903(20) -0.33339(25) 0.67683(26)
H30 H 0.0707(2) -0.38689(25) 0.65935(26)
C19 C 0.14807(21) -0.25566(31) 0.62786(25)
H31 H 0.18211(21) -0.20844(31) 0.64454(25)
H32 H 0.12248(21) -0.25068(31) 0.57033(25)
H33 H 0.17302(21) -0.31090(31) 0.63863(25)
C20 C 0.04821(22) -0.16969(27) 0.65103(26)
H34 H 0.07832(22) -0.11906(27) 0.66899(26)
H35 H 0.01110(22) -0.16963(27) 0.67607(26)
H36 H 0.02678(22) -0.16799(27) 0.59254(26)
C21 C 0.16287(19) -0.16549(26) 0.92649(23)
N6 N 0.16198(17) -0.25475(22) 0.94814(19)
O5 O 0.20077(14) -0.30814(18) 0.92686(15)
O6 O 0.12492(14) -0.27933(18) 0.99139(16)
#END
