
#######################################################################
#
#                 Cambridge Crystallographic Data Centre
#                                CCDC
#
#######################################################################
#
# If this CIF has been generated from an entry in the Cambridge
# Structural Database, then it will include bibliographic, chemical,
# crystal, experimental, refinement or atomic coordinate data resulting
# from the CCDC's data processing and validation procedures.
#
#######################################################################

data_CSD_CIF_KOMHAV01
_audit_creation_date 1993-06-03
_audit_creation_method CSD-ConQuest-V1
_database_code_CSD KOMHAV01
_chemical_formula_sum 'C3 H3 N3 O2'
_chemical_formula_moiety
;
C3 H3 N3 O2
;
_journal_coeditor_code "IUCr HH1003"
_journal_coden_Cambridge 591
_journal_volume 49
_journal_year 1993
_journal_page_first 693
_journal_name_full 'Acta Crystallogr.,Sect.C:Cryst.Struct.Commun. '
loop_
_publ_author_name
"H.L.De Bondt"
"E.Ragia"
"N.M.Blaton"
"O.M.Peeters"
"C.J.De Ranter"
_chemical_name_systematic
;
4-Nitroimidazole
;
_cell_volume    438.764
_exptl_crystal_colour 'colorless'
_exptl_special_details
;
antiprotozoic and antibiotic drug

;
_diffrn_ambient_temperature 100
#These two values have been output from a single CSD field.
_refine_ls_R_factor_gt 0.024
_refine_ls_wR_factor_gt 0.024
_symmetry_cell_setting monoclinic
_symmetry_space_group_name_H-M 'P 21/n'
_symmetry_Int_Tables_number 14
loop_
_symmetry_equiv_pos_site_id
_symmetry_equiv_pos_as_xyz
1 x,y,z
2 1/2-x,1/2+y,1/2-z
3 -x,-y,-z
4 -1/2+x,-1/2-y,-1/2+z
_cell_length_a 6.9559(4)
_cell_length_b 9.9130(6)
_cell_length_c 7.3045(4)
_cell_angle_alpha 90
_cell_angle_beta 119.41(4)
_cell_angle_gamma 90
_cell_formula_units_Z 4
loop_
_atom_type_symbol
_atom_type_radius_bond
C 0.68
H 0.23
N 0.68
O 0.68
loop_
_atom_site_label
_atom_site_type_symbol
_atom_site_fract_x
_atom_site_fract_y
_atom_site_fract_z
N1 N 0.7619(2) -0.0101(1) 0.6960(2)
C1 C 0.7581(2) 0.1019(1) 0.8011(2)
N2 N 0.7666(2) 0.2132(1) 0.7071(2)
C2 C 0.7757(2) 0.1673(1) 0.5350(2)
C3 C 0.7724(2) 0.0303(1) 0.5238(2)
N3 N 0.7865(2) 0.2595(1) 0.3902(2)
O1 O 0.7881(2) 0.3815(1) 0.4241(1)
O2 O 0.7937(2) 0.2128(1) 0.2368(1)
H1 H 0.751(2) -0.098(2) 0.735(2)
H2 H 0.746(2) 0.096(2) 0.925(2)
H3 H 0.777(2) -0.028(2) 0.425(2)
#END
