
#######################################################################
#
#                 Cambridge Crystallographic Data Centre
#                                CCDC
#
#######################################################################
#
# If this CIF has been generated from an entry in the Cambridge
# Structural Database, then it will include bibliographic, chemical,
# crystal, experimental, refinement or atomic coordinate data resulting
# from the CCDC's data processing and validation procedures.
#
#######################################################################

data_CSD_CIF_KOWZAX
_audit_creation_date 1992-12-10
_audit_creation_method CSD-ConQuest-V1
_database_code_CSD KOWZAX
_chemical_formula_sum 'C14 H15 N1 O6'
_chemical_formula_moiety
;
C14 H15 N1 O6
;
_journal_coden_Cambridge 82
_journal_volume 32
_journal_year 1991
_journal_page_first 127-3
_journal_name_full 'Zh.Strukt.Khim.(Russ.)(J.Struct.Chem.) '
loop_
_publ_author_name
"B.Ya.Antosyak"
"V.N.Biyushkin"
"T.I.Malinovskii"
"A.V.Moskvin"
"B.A.Ivin"
_chemical_name_systematic
;
Diethyl p-nitrobenzylidenemalonate
;
_cell_volume   1440.744
_exptl_crystal_colour 'pale yellow'
_diffrn_ambient_temperature ?
_diffrn_special_details
;
The study was carried out at room temperature,in the range 283-303K

;
#These two values have been output from a single CSD field.
_refine_ls_R_factor_gt 0.043
_refine_ls_wR_factor_gt 0.043
_symmetry_cell_setting monoclinic
_symmetry_space_group_name_H-M 'P 1 1 21/b'
_symmetry_Int_Tables_number 14
loop_
_symmetry_equiv_pos_site_id
_symmetry_equiv_pos_as_xyz
1 x,y,z
2 -x,1/2-y,1/2+z
3 -x,-y,-z
4 x,-1/2+y,-1/2-z
_cell_length_a 8.172(3)
_cell_length_b 24.921(7)
_cell_length_c 7.179(3)
_cell_angle_alpha 90
_cell_angle_beta 90
_cell_angle_gamma 99.79(2)
_cell_formula_units_Z 4
loop_
_atom_type_symbol
_atom_type_radius_bond
C 0.68
H 0.23
N 0.68
O 0.68
loop_
_atom_site_label
_atom_site_type_symbol
_atom_site_fract_x
_atom_site_fract_y
_atom_site_fract_z
O1 O -0.1192(4) -0.0380(1) 0.2991(6)
O2 O -0.0017(4) -0.0999(1) 0.4249(1)
O3 O 0.5458(4) 0.1916(1) 0.1668(4)
O4 O 0.5446(3) 0.1468(1) 0.4374(4)
O5 O 0.9609(4) 0.1136(1) 0.0576(5)
O6 O 0.9182(5) 0.1906(1) 0.1953(5)
N1 N 0.0033(4) -0.0575(2) 0.3417(6)
C1 C 0.1688(5) -0.0259(2) 0.2901(6)
C2 C 0.1767(5) 0.0247(2) 0.2137(6)
C3 C 0.3305(5) 0.0548(2) 0.1739(6)
C4 C 0.4750(5) 0.0337(1) 0.2099(5)
C5 C 0.4604(5) -0.0189(1) 0.2803(6)
C6 C 0.3080(5) -0.0491(2) 0.3238(6)
C7 C 0.6419(5) 0.0646(2) 0.1710(6)
C8 C 0.6954(5) 0.1173(1) 0.1914(5)
C9 C 0.8712(6) 0.1391(2) 0.1395(6)
C10 C 1.0953(7) 0.2151(3) 0.1496(14)
C11 C 1.1134(12) 0.2729(3) 0.1887(15)
C12 C 0.5895(5) 0.1568(2) 0.2607(8)
C13 C 0.4298(5) 0.1795(2) 0.5174(8)
C14 C 0.4054(9) 0.1656(3) 0.7147(9)
H1 H 0.077(5) 0.038(2) 0.191(6)
H2 H 0.335(4) 0.088(2) 0.113(5)
H3 H 0.565(4) -0.033(1) 0.302(5)
H4 H 0.300(4) -0.085(1) 0.374(5)
H5 H 0.729(4) 0.044(1) 0.132(4)
H6 H 1.167(8) 0.191(3) 0.236(10)
H7 H 1.120(1) 0.21400 0.002(1)
H8 H 1.011(1) 0.29300 0.156(2)
H9 H 1.225(1) 0.29400 0.124(1)
H10 H 1.130(1) 0.27200 0.338(1)
H11 H 0.483(5) 0.217(2) 0.494(5)
H12 H 0.323(6) 0.172(2) 0.457(8)
H13 H 0.329(7) 0.189(2) 0.767(8)
H14 H 0.490(6) 0.175(2) 0.781(7)
H15 H 0.340(7) 0.126(3) 0.736(9)
#END
