
#######################################################################
#
#                 Cambridge Crystallographic Data Centre
#                                CCDC
#
#######################################################################
#
# If this CIF has been generated from an entry in the Cambridge
# Structural Database, then it will include bibliographic, chemical,
# crystal, experimental, refinement or atomic coordinate data resulting
# from the CCDC's data processing and validation procedures.
#
#######################################################################

data_CSD_CIF_KOZTOK01
_audit_creation_date 2016-07-25
_audit_creation_method CSD-ConQuest-V1
_database_code_CSD KOZTOK01
_database_code_depnum_ccdc_archive 'CCDC 969422'
_chemical_formula_sum 'C14 H9 N1 O2'
_chemical_formula_moiety
;
C14 H9 N1 O2
;
_journal_coden_Cambridge 34
_journal_volume 53
_journal_year 2016
_journal_page_first 1094
_journal_name_full 'J.Heterocycl.Chem. '
loop_
_publ_author_name
"R.Matsubara"
"A.Ando"
"Y.Saeki"
"K.Eda"
"N.Asada"
"T.Tsutsumi"
"Yong Soon Shin"
"M.Hayashi"
_chemical_name_systematic
;
3-phenyl-4H-1,2-benzoxazin-4-one
;
_cell_volume   1045.484
_exptl_crystal_colour 'yellow'
_exptl_crystal_density_diffrn 1.418
_exptl_crystal_description 'block'
_diffrn_ambient_temperature 90
#These two values have been output from a single CSD field.
_refine_ls_R_factor_gt 0.0791
_refine_ls_wR_factor_gt 0.0791
_symmetry_cell_setting monoclinic
_symmetry_space_group_name_H-M 'P 21/n'
_symmetry_Int_Tables_number 14
loop_
_symmetry_equiv_pos_site_id
_symmetry_equiv_pos_as_xyz
1 x,y,z
2 1/2-x,1/2+y,1/2-z
3 -x,-y,-z
4 -1/2+x,-1/2-y,-1/2+z
_cell_length_a 8.304(2)
_cell_length_b 6.9611(17)
_cell_length_c 18.087(5)
_cell_angle_alpha 90
_cell_angle_beta 90.463(3)
_cell_angle_gamma 90
_cell_formula_units_Z 4
loop_
_atom_type_symbol
_atom_type_radius_bond
C 0.68
H 0.23
N 0.68
O 0.68
loop_
_atom_site_label
_atom_site_type_symbol
_atom_site_fract_x
_atom_site_fract_y
_atom_site_fract_z
O1 O 0.2585(3) 1.2162(3) 0.09440(11)
O2 O 0.6078(3) 0.8159(3) 0.10252(12)
N1 N 0.4587(3) 0.7727(4) 0.13053(14)
C1 C 0.3690(4) 1.1058(4) 0.10100(14)
C2 C 0.5877(4) 1.3336(5) 0.06248(15)
C3 C 0.5361(3) 1.1514(5) 0.08130(13)
C4 C 0.3458(4) 0.9098(5) 0.13018(14)
C5 C 0.8084(4) 1.0322(5) 0.06865(14)
C6 C 0.1905(3) 0.8501(4) 0.16324(13)
C7 C 0.6456(4) 1.0024(4) 0.08443(13)
C8 C 0.1068(4) 0.9722(4) 0.21031(13)
C9 C 0.8573(4) 1.2155(5) 0.05000(15)
C10 C 0.1355(4) 0.6620(4) 0.15207(15)
C11 C 0.7453(4) 1.3668(5) 0.04686(15)
C12 C -0.0024(4) 0.6003(5) 0.18714(16)
C13 C -0.0848(4) 0.7227(5) 0.23424(15)
C14 C -0.0291(4) 0.9070(5) 0.24587(14)
H1 H 0.51420 1.43430 0.06050
H2 H 0.88170 0.93140 0.07070
H3 H 0.14240 1.09750 0.21780
H4 H 0.96490 1.23890 0.03940
H5 H 0.19150 0.57900 0.12120
H6 H 0.77900 1.48980 0.03410
H7 H -0.04020 0.47620 0.17920
H8 H -0.17740 0.68050 0.25790
H9 H -0.08360 0.98810 0.27800
#END
