
#######################################################################
#
#                 Cambridge Crystallographic Data Centre
#                                CCDC
#
#######################################################################
#
# If this CIF has been generated from an entry in the Cambridge
# Structural Database, then it will include bibliographic, chemical,
# crystal, experimental, refinement or atomic coordinate data resulting
# from the CCDC's data processing and validation procedures.
#
#######################################################################

data_CSD_CIF_KUCMEC
_audit_creation_date 2015-04-09
_audit_creation_method CSD-ConQuest-V1
_database_code_CSD KUCMEC
_database_code_depnum_ccdc_archive 'CCDC 1012225'
_chemical_formula_sum 'C23 H22 N2 O5'
_chemical_formula_moiety
;
C23 H22 N2 O5
;
_journal_coden_Cambridge 24
_journal_volume 55
_journal_year 2014
_journal_page_first 6427
_journal_name_full 'Tetrahedron Lett. '
loop_
_publ_author_name
"N.Kagawa"
"H.Takabatake"
"Y.Masuda"
_chemical_name_systematic
;
ethyl 
3'-allyl-1'-methyl-6-nitro-1',3'-dihydrospiro[chromene-2,2'-indole]-3'-carboxy
late
;
_chemical_name_common
;
(2S,3S)/(2R,3R)-ethyl 
3-allyl-1-methyl-6-nitrospiro[chromene-2,2-indolin]-3-carboxylate; 
3'-allyl-3'-ethoxycarbonyl-indoline spirobenzopyran
;
_chemical_melting_point 405
_cell_volume   2004.921
_exptl_crystal_colour 'colorless'
_exptl_crystal_density_diffrn 1.346
_exptl_special_details
;
Photochromic properties
Light-sensitive, Photo-sensitive

;
_exptl_crystal_description 'platelet'
_exptl_crystal_preparation 'Chloroform/hexane'
_diffrn_ambient_temperature 93
#These two values have been output from a single CSD field.
_refine_ls_R_factor_gt 0.0455
_refine_ls_wR_factor_gt 0.0455
_symmetry_cell_setting monoclinic
_symmetry_space_group_name_H-M 'P 21/c'
_symmetry_Int_Tables_number 14
loop_
_symmetry_equiv_pos_site_id
_symmetry_equiv_pos_as_xyz
1 x,y,z
2 -x,1/2+y,1/2-z
3 -x,-y,-z
4 x,-1/2-y,-1/2+z
_cell_length_a 10.9321(2)
_cell_length_b 13.0690(3)
_cell_length_c 14.2081(3)
_cell_angle_alpha 90
_cell_angle_beta 99.0039(8)
_cell_angle_gamma 90
_cell_formula_units_Z 4
loop_
_atom_type_symbol
_atom_type_radius_bond
C 0.68
H 0.23
N 0.68
O 0.68
loop_
_atom_site_label
_atom_site_type_symbol
_atom_site_fract_x
_atom_site_fract_y
_atom_site_fract_z
O1 O 0.24976(10) 0.23198(9) 0.23500(8)
O2 O 0.41543(11) -0.22113(9) 0.29985(9)
O3 O 0.28517(11) 0.28649(9) 0.44333(8)
O4 O 0.24071(13) -0.22737(10) 0.35362(10)
O5 O 0.41719(12) 0.3864(1) 0.37783(9)
N1 N 0.31887(14) -0.18126(11) 0.31627(10)
N2 N 0.08852(13) 0.33827(10) 0.16156(10)
C1 C 0.16917(15) 0.07558(13) 0.29108(11)
C2 C 0.29731(16) -0.07355(12) 0.29231(12)
C3 C 0.15727(15) 0.42602(12) 0.14748(12)
C4 C 0.18859(15) -0.02828(13) 0.31035(11)
C5 C 0.36774(15) 0.08296(13) 0.23354(12)
C6 C 0.14128(15) 0.29292(13) 0.25158(12)
C7 C 0.26053(15) 0.13036(12) 0.25332(11)
C8 C 0.05895(15) 0.13044(13) 0.30806(11)
C9 C 0.04699(16) 0.23011(13) 0.29149(12)
C10 C 0.22407(15) 0.45966(12) 0.23384(11)
C11 C 0.29338(16) 0.60421(13) 0.15326(13)
C12 C 0.31514(16) 0.35462(13) 0.37961(12)
C13 C 0.38734(16) -0.01957(13) 0.25346(12)
C14 C 0.22917(16) 0.56907(14) 0.06762(12)
C15 C 0.15979(16) 0.47881(13) 0.06303(12)
C16 C 0.19878(15) 0.38717(12) 0.31218(12)
C17 C 0.29248(15) 0.54894(13) 0.23743(12)
C18 C 0.10470(16) 0.43517(13) 0.37149(12)
C19 C 0.04538(17) 0.27065(13) 0.08137(12)
C20 C 0.38581(17) 0.24850(15) 0.51446(13)
C21 C 0.15617(17) 0.52721(14) 0.42737(13)
C22 C 0.43824(19) 0.15147(16) 0.47986(14)
C23 C 0.17592(19) 0.53280(16) 0.52054(14)
H1 H 0.12810 -0.06750 0.33550
H2 H 0.42730 0.12120 0.20640
H3 H -0.00550 0.09430 0.33140
H4 H -0.02520 0.26340 0.30570
H5 H 0.33850 0.66650 0.15490
H6 H 0.46050 -0.05260 0.24100
H7 H 0.23230 0.60690 0.01100
H8 H 0.11600 0.45450 0.00430
H9 H 0.33800 0.57230 0.29590
H10 H 0.02880 0.45520 0.32790
H11 H 0.08120 0.38300 0.41600
H12 H 0.11620 0.24790 0.05220
H13 H -0.01310 0.30760 0.03400
H14 H 0.00410 0.21100 0.10410
H15 H 0.35450 0.23510 0.57500
H16 H 0.45180 0.30090 0.52670
H17 H 0.17580 0.58550 0.39270
H18 H 0.50110 0.12370 0.53010
H19 H 0.47610 0.16630 0.42330
H20 H 0.37160 0.10130 0.46370
H21 H 0.15740 0.47600 0.55750
H22 H 0.20880 0.59370 0.55110
#END
