
#######################################################################
#
#                 Cambridge Crystallographic Data Centre
#                                CCDC
#
#######################################################################
#
# If this CIF has been generated from an entry in the Cambridge
# Structural Database, then it will include bibliographic, chemical,
# crystal, experimental, refinement or atomic coordinate data resulting
# from the CCDC's data processing and validation procedures.
#
#######################################################################

data_CSD_CIF_KUKJIL
_audit_creation_date 2015-04-15
_audit_creation_method CSD-ConQuest-V1
_database_code_CSD KUKJIL
_database_code_depnum_ccdc_archive 'CCDC 1059654'
_chemical_formula_sum 'C8 H6 N8 O9'
_chemical_formula_moiety
;
C8 H6 N8 O9
;
_journal_coden_Cambridge 1078
_journal_year 2015
_journal_name_full 'CSD Communication(Private Communication) '
loop_
_publ_author_name
"D.A.Parrish"
"L.A.Mitchell"
"J.Shreeve"
"Yongxing Tang"
_chemical_name_systematic
;
1,1'-(Oxybis(methylene))bis(3,5-dinitro-1H-pyrazole)
;
_chemical_melting_point 391.15
_cell_volume   1319.403
_exptl_crystal_colour 'colorless'
_exptl_crystal_density_diffrn 1.803
_exptl_special_details
;
impact-sensitive, friction-sensitive

;
_exptl_crystal_description 'plate'
_diffrn_ambient_temperature 100
#These two values have been output from a single CSD field.
_refine_ls_R_factor_gt 0.0377
_refine_ls_wR_factor_gt 0.0377
_symmetry_cell_setting monoclinic
_symmetry_space_group_name_H-M 'P 21/c'
_symmetry_Int_Tables_number 14
loop_
_symmetry_equiv_pos_site_id
_symmetry_equiv_pos_as_xyz
1 x,y,z
2 -x,1/2+y,1/2-z
3 -x,-y,-z
4 x,-1/2-y,-1/2+z
_cell_length_a 11.7306(10)
_cell_length_b 9.7628(8)
_cell_length_c 11.6941(10)
_cell_angle_alpha 90
_cell_angle_beta 99.876(3)
_cell_angle_gamma 90
_cell_formula_units_Z 4
loop_
_atom_type_symbol
_atom_type_radius_bond
C 0.68
H 0.23
N 0.68
O 0.68
loop_
_atom_site_label
_atom_site_type_symbol
_atom_site_fract_x
_atom_site_fract_y
_atom_site_fract_z
O1 O 0.38817(8) 0.57629(10) 0.75748(9)
O2 O 0.13889(10) 0.65121(10) 0.84421(9)
O3 O -0.03211(9) 0.56215(11) 0.79212(10)
O4 O 0.2061(1) 0.12514(11) 0.50689(9)
O5 O 0.03917(10) 0.21477(12) 0.43801(10)
O6 O 0.58679(10) 0.65638(11) 0.61421(9)
O7 O 0.76313(10) 0.58497(11) 0.61653(10)
O8 O 0.80492(9) 0.16282(10) 0.93678(9)
O9 O 0.66105(9) 0.19660(11) 1.02922(9)
N1 N 0.23116(10) 0.42859(12) 0.73823(10)
N2 N 0.24774(10) 0.32897(12) 0.66315(10)
N3 N 0.58469(10) 0.51657(11) 0.82186(10)
N4 N 0.5970(1) 0.41867(12) 0.90381(10)
N5 N 0.12886(11) 0.20887(12) 0.50867(10)
N6 N 0.07175(11) 0.56717(12) 0.7913(1)
N7 N 0.71934(10) 0.22497(12) 0.95472(10)
N8 N 0.67226(11) 0.58733(12) 0.65351(10)
C1 C 0.33150(12) 0.47768(15) 0.81794(12)
H1 H 0.3793(14) 0.3999(18) 0.8395(14)
H2 H 0.3052(13) 0.5181(16) 0.8837(14)
C2 C 0.11727(12) 0.46559(13) 0.72184(12)
C3 C 0.05696(13) 0.39157(14) 0.63251(12)
H3 H -0.0191(16) 0.3943(17) 0.6041(15)
C4 C 0.14364(12) 0.31016(14) 0.60068(12)
C5 C 0.49339(12) 0.61940(14) 0.82404(13)
H4 H 0.4870(13) 0.6316(16) 0.9033(14)
H5 H 0.5169(14) 0.7038(17) 0.7907(14)
C6 C 0.66529(12) 0.49965(14) 0.75195(12)
C7 C 0.73337(13) 0.38919(14) 0.78840(13)
H6 H 0.7952(16) 0.3542(18) 0.7592(16)
C8 C 0.68467(12) 0.34344(13) 0.88167(12)
#END
