
#######################################################################
#
#                 Cambridge Crystallographic Data Centre
#                                CCDC
#
#######################################################################
#
# If this CIF has been generated from an entry in the Cambridge
# Structural Database, then it will include bibliographic, chemical,
# crystal, experimental, refinement or atomic coordinate data resulting
# from the CCDC's data processing and validation procedures.
#
#######################################################################

data_CSD_CIF_KURFAF
_audit_creation_date 2010-05-25
_audit_creation_method CSD-ConQuest-V1
_database_code_CSD KURFAF
_database_code_depnum_ccdc_archive 'CCDC 774910'
_chemical_formula_sum 'C12 H13 N1 O1'
_chemical_formula_moiety
;
C12 H13 N1 O1
;
_journal_coeditor_code "IUCr SK3373"
_journal_coden_Cambridge 591
_journal_volume 66
_journal_year 2010
_journal_page_first o209
_journal_name_full 'Acta Crystallogr.,Sect.C:Cryst.Struct.Commun. '
loop_
_publ_author_name
"L.M.Acosta"
"A.Palma"
"A.Bahsas"
"J.Cobo"
"C.Glidewell"
_chemical_name_systematic
;
(2SR,4RS)-2-exo-vinyl-2,3,4,5-tetrahydro-1H-1,4-epoxy-1-benzazepine
;
_chemical_name_common
;
11-Vinyl-12-oxa-1-azatricyclo[7.2.1.0$2,7!]dodeca-2,4,6-triene
;
_chemical_melting_point 335
_cell_volume    960.771
_exptl_crystal_colour 'colorless'
_exptl_crystal_density_diffrn 1.294
_exptl_special_details
;
Melting point range 335-336K

;
_exptl_crystal_description 'block'
_diffrn_ambient_temperature 120
#These two values have been output from a single CSD field.
_refine_ls_R_factor_gt 0.0446
_refine_ls_wR_factor_gt 0.0446
_symmetry_cell_setting monoclinic
_symmetry_space_group_name_H-M 'P 21/n'
_symmetry_Int_Tables_number 14
loop_
_symmetry_equiv_pos_site_id
_symmetry_equiv_pos_as_xyz
1 x,y,z
2 1/2-x,1/2+y,1/2-z
3 -x,-y,-z
4 -1/2+x,-1/2-y,-1/2+z
_cell_length_a 9.8070(13)
_cell_length_b 7.3982(7)
_cell_length_c 13.738(2)
_cell_angle_alpha 90
_cell_angle_beta 105.441(11)
_cell_angle_gamma 90
_cell_formula_units_Z 4
loop_
_atom_type_symbol
_atom_type_radius_bond
C 0.68
H 0.23
N 0.68
O 0.68
loop_
_atom_site_label
_atom_site_type_symbol
_atom_site_fract_x
_atom_site_fract_y
_atom_site_fract_z
O1 O 0.49055(10) 0.45113(14) 0.10465(8)
N1 N 0.57935(12) 0.40949(16) 0.20407(9)
C1 C 0.67762(15) 0.2748(2) 0.18020(12)
H1 H 0.71760 0.19590 0.24010
C2 C 0.58270(16) 0.1630(2) 0.09360(12)
H2 H 0.62780 0.14730 0.03770
H3 H 0.56240 0.04250 0.11780
C3 C 0.44854(16) 0.2754(2) 0.06014(12)
H4 H 0.41700 0.28430 -0.01520
C4 C 0.32915(15) 0.2113(2) 0.10149(12)
H5 H 0.24200 0.27970 0.06960
H6 H 0.31070 0.08150 0.08570
C5 C 0.36800(14) 0.2388(2) 0.21397(12)
C6 C 0.28380(15) 0.1747(2) 0.27298(12)
H7 H 0.19820 0.11330 0.24170
C7 C 0.32186(16) 0.1984(2) 0.37583(13)
H8 H 0.26250 0.15420 0.41500
C8 C 0.44640(16) 0.2864(2) 0.42228(12)
H9 H 0.47380 0.30050 0.49360
C9 C 0.53088(15) 0.3537(2) 0.36484(12)
H10 H 0.61600 0.41570 0.39630
C10 C 0.49104(14) 0.33046(19) 0.26153(11)
C11 C 0.79369(16) 0.3709(2) 0.15017(12)
H11 H 0.76840 0.45800 0.09770
C12 C 0.92861(16) 0.3425(2) 0.19176(13)
H12 H 0.95730 0.25620 0.24450
H13 H 0.99760 0.40820 0.16920
#END
