
#######################################################################
#
#                 Cambridge Crystallographic Data Centre
#                                CCDC
#
#######################################################################
#
# If this CIF has been generated from an entry in the Cambridge
# Structural Database, then it will include bibliographic, chemical,
# crystal, experimental, refinement or atomic coordinate data resulting
# from the CCDC's data processing and validation procedures.
#
#######################################################################

data_CSD_CIF_LAGZUO
_audit_creation_date 1993-09-30
_audit_creation_method CSD-ConQuest-V1
_database_code_CSD LAGZUO
_chemical_formula_sum 'C22 H25 N3 O5'
_chemical_formula_moiety
;
C22 H25 N3 O5
;
_journal_coden_Cambridge 151
_journal_volume 36
_journal_year 1993
_journal_page_first 815
_journal_name_full 'J.Med.Chem. '
loop_
_publ_author_name
"Y.Kawashima"
"T.Ikemoto"
"A.Horiguchi"
"M.Hayashi"
"K.Matsumoto"
"K.Kawarasaki"
"R.Yamazaki"
"S.Okuyama"
"K.Hatayama"
_chemical_name_systematic
;
2-(Nitro-oxy)ethyl apovincaminate
;
_chemical_melting_point 384.15
_cell_volume   2004.989
_exptl_crystal_density_diffrn 1.36
_exptl_special_details
;
Melting point range 384.15-385.15K
pharmacological activity

;
_diffrn_ambient_temperature ?
_diffrn_special_details
;
The study was carried out at room temperature,in the range 283-303K

;
#These two values have been output from a single CSD field.
_refine_ls_R_factor_gt 0.1
_refine_ls_wR_factor_gt 0.1
_symmetry_cell_setting orthorhombic
_symmetry_space_group_name_H-M 'P 21 21 21'
_symmetry_Int_Tables_number 19
loop_
_symmetry_equiv_pos_site_id
_symmetry_equiv_pos_as_xyz
1 x,y,z
2 1/2-x,-y,1/2+z
3 1/2+x,1/2-y,-z
4 -x,1/2+y,1/2-z
_cell_length_a 24.67(2)
_cell_length_b 9.85(1)
_cell_length_c 8.251(6)
_cell_angle_alpha 90
_cell_angle_beta 90
_cell_angle_gamma 90
_cell_formula_units_Z 4
loop_
_atom_type_symbol
_atom_type_radius_bond
C 0.68
H 0.23
N 0.68
O 0.68
loop_
_atom_site_label
_atom_site_type_symbol
_atom_site_fract_x
_atom_site_fract_y
_atom_site_fract_z
N1 N 0.5931(2) 0.6842(5) 0.7115(5)
C1 C 0.5829(2) 0.5788(6) 0.8182(7)
C2 C 0.5994(2) 0.4364(6) 0.7850(7)
N2 N 0.6010(2) 0.3606(5) 0.9365(6)
C3 C 0.5493(3) 0.3793(6) 1.0225(8)
C4 C 0.5378(3) 0.5249(6) 1.0776(8)
C5 C 0.5547(2) 0.6216(6) 0.9501(6)
C6 C 0.5476(2) 0.7672(6) 0.9289(7)
C7 C 0.5240(3) 0.8650(7) 1.0254(8)
C8 C 0.5261(3) 0.9984(7) 0.9775(9)
C9 C 0.5519(3) 1.0348(6) 0.834(1)
C10 C 0.5758(3) 0.9397(6) 0.7359(8)
C11 C 0.5727(2) 0.8032(6) 0.7821(7)
C12 C 0.6249(2) 0.6572(6) 0.5737(7)
C13 C 0.6516(2) 0.5413(6) 0.5604(8)
C14 C 0.6531(2) 0.4298(6) 0.6874(8)
C15 C 0.7016(2) 0.4580(8) 0.7992(9)
C16 C 0.7002(3) 0.3668(9) 0.9512(9)
C17 C 0.6478(3) 0.3907(8) 1.0400(8)
C18 C 0.6591(3) 0.2913(7) 0.6059(9)
C19 C 0.6153(4) 0.2530(9) 0.486(1)
C20 C 0.6203(2) 0.7513(7) 0.4322(7)
O1 O 0.5807(2) 0.8158(6) 0.3993(6)
O2 O 0.6648(2) 0.7473(6) 0.3389(5)
C21 C 0.6621(3) 0.814(1) 0.1826(9)
C22 C 0.6718(5) 0.954(1) 0.188(1)
O3 O 0.7297(4) 0.973(1) 0.227(2)
N3 N 0.7568(4) 1.067(1) 0.221(2)
O4 O 0.7360(9) 1.172(2) 0.254(2)
O5 O 0.8061(5) 1.084(2) 0.241(4)
H1 H 0.571(3) 0.388(8) 0.71(1)
H2 H 0.5182(4) 0.351(9) 0.945(1)
H3 H 0.5486(4) 0.3195(9) 1.1143(1)
H4 H 0.5589(3) 0.5373(9) 1.1625(1)
H5 H 0.4923(3) 0.5419(9) 1.0848(1)
H6 H 0.506(3) 0.849(9) 1.12(1)
H7 H 0.510(4) 1.07(1) 1.05(1)
H8 H 0.552(4) 1.1332(1) 0.8052(1)
H9 H 0.598(3) 0.9716(9) 0.6127(1)
H10 H 0.6725(3) 0.5225(9) 0.4655(1)
H11 H 0.739(4) 0.44(1) 0.75(1)
H12 H 0.7038(3) 0.5608(1) 0.8266(1)
H13 H 0.7358(4) 0.3726(1) 1.0372(1)
H14 H 0.703(4) 0.27(1) 0.91(1)
H15 H 0.640(3) 0.48(1) 1.06(1)
H16 H 0.6467(4) 0.3274(1) 1.1262(1)
H17 H 0.700(4) 0.29(1) 0.55(1)
H18 H 0.664(4) 0.20(1) 0.70(1)
H19 H 0.604(4) 0.14(1) 0.51(1)
H20 H 0.584(4) 0.28(1) 0.52(1)
H21 H 0.631(4) 0.25(1) 0.37(1)
H22 H 0.699(4) 0.78(1) 0.10(1)
H23 H 0.6277(4) 0.7971(1) 0.1342(1)
H24 H 0.648(4) 1.00(1) 0.28(2)
H25 H 0.673(5) 1.02(1) 0.08(2)
#END
