
#######################################################################
#
#                 Cambridge Crystallographic Data Centre
#                                CCDC
#
#######################################################################
#
# If this CIF has been generated from an entry in the Cambridge
# Structural Database, then it will include bibliographic, chemical,
# crystal, experimental, refinement or atomic coordinate data resulting
# from the CCDC's data processing and validation procedures.
#
#######################################################################

data_CSD_CIF_LAQRIG
_audit_creation_date 2012-04-25
_audit_creation_method CSD-ConQuest-V1
_database_code_CSD LAQRIG
_database_code_depnum_ccdc_archive 'CCDC 838458'
_chemical_formula_sum 'C18 H16 N2 O2'
_chemical_formula_moiety
;
C18 H16 N2 O2
;
_journal_coeditor_code "IUCr BT5756"
_journal_coden_Cambridge 1370
_journal_volume 68
_journal_year 2012
_journal_page_first o570
_journal_name_full 'Acta Crystallogr.,Sect.E:Struct.Rep.Online '
loop_
_publ_author_name
"G.Suresh"
"V.Sabari"
"J.Srinivasan"
"B.Mannickam"
"S.Aravindhan"
_chemical_name_systematic
;
(E)-2-((2-[(E)-(Hydroxyimino)methyl]phenoxy)methyl)-3-p-tolylacrylonitrile
;
_cell_volume    761.100
_exptl_crystal_colour 'colorless'
_exptl_crystal_density_diffrn 1.276
_exptl_crystal_description 'triclinic'
_diffrn_ambient_temperature 293
#These two values have been output from a single CSD field.
_refine_ls_R_factor_gt 0.0468
_refine_ls_wR_factor_gt 0.0468
_symmetry_cell_setting triclinic
_symmetry_space_group_name_H-M 'P -1'
_symmetry_Int_Tables_number 2
loop_
_symmetry_equiv_pos_site_id
_symmetry_equiv_pos_as_xyz
1 x,y,z
2 -x,-y,-z
_cell_length_a 8.4851(2)
_cell_length_b 9.3900(3)
_cell_length_c 10.0779(3)
_cell_angle_alpha 100.208(2)
_cell_angle_beta 90.725(1)
_cell_angle_gamma 105.206(1)
_cell_formula_units_Z 2
loop_
_atom_type_symbol
_atom_type_radius_bond
C 0.68
H 0.23
N 0.68
O 0.68
loop_
_atom_site_label
_atom_site_type_symbol
_atom_site_fract_x
_atom_site_fract_y
_atom_site_fract_z
C1 C 0.2633(2) 0.81093(18) 1.11597(16)
H1 H 0.20240 0.85440 1.17910
C2 C 0.22978(17) 0.64825(16) 1.09291(13)
C3 C 0.13864(19) 0.57501(19) 1.18740(15)
H2 H 0.10030 0.63180 1.25850
C4 C 0.10362(19) 0.42252(19) 1.17926(16)
H3 H 0.04030 0.37670 1.24250
C5 C 0.1631(2) 0.33864(18) 1.07685(16)
H4 H 0.14290 0.23560 1.07210
C6 C 0.25320(19) 0.40619(16) 0.98021(14)
H5 H 0.29380 0.34820 0.91150
C7 C 0.28343(16) 0.55934(15) 0.98496(12)
C8 C 0.3950(2) 0.53835(16) 0.76860(13)
H6 H 0.30040 0.45350 0.73960
H7 H 0.48740 0.50030 0.78660
C9 C 0.43216(17) 0.63100(15) 0.66042(12)
C10 C 0.29368(19) 0.66178(18) 0.60167(15)
C11 C 0.58348(17) 0.67335(15) 0.61876(13)
H8 H 0.66090 0.64330 0.66500
C12 C 0.64990(16) 0.75770(15) 0.51448(12)
C13 C 0.81374(17) 0.77192(17) 0.48925(14)
H9 H 0.87460 0.72720 0.53800
C14 C 0.88750(18) 0.85082(17) 0.39364(15)
H10 H 0.99740 0.85890 0.37950
C15 C 0.80160(19) 0.91823(16) 0.31820(14)
C16 C 0.6389(2) 0.9040(2) 0.34270(17)
H11 H 0.57870 0.94870 0.29330
C17 C 0.56333(19) 0.8258(2) 0.43805(17)
H12 H 0.45350 0.81820 0.45170
C18 C 0.8817(3) 1.0064(2) 0.21478(18)
H13 H 0.84240 0.95110 0.12580
H14 H 0.99820 1.02320 0.22470
H15 H 0.85580 1.10130 0.22780
N1 N 0.36637(16) 0.89828(13) 1.05886(12)
N2 N 0.1784(2) 0.6810(2) 0.55663(18)
O1 O 0.37363(18) 1.04895(13) 1.10956(14)
H16 H 0.44510 1.10350 1.07330
O2 O 0.36281(13) 0.63175(10) 0.88863(9)
#END
