
#######################################################################
#
#                 Cambridge Crystallographic Data Centre
#                                CCDC
#
#######################################################################
#
# If this CIF has been generated from an entry in the Cambridge
# Structural Database, then it will include bibliographic, chemical,
# crystal, experimental, refinement or atomic coordinate data resulting
# from the CCDC's data processing and validation procedures.
#
#######################################################################

data_CSD_CIF_LAXNEF
_audit_creation_date 2012-06-19
_audit_creation_method CSD-ConQuest-V1
_database_code_CSD LAXNEF
_database_code_depnum_ccdc_archive 'CCDC 858018'
_chemical_formula_sum 'C26 H35 N1 O4'
_chemical_formula_moiety
;
C26 H35 N1 O4
;
_journal_coden_Cambridge 179
_journal_volume 51
_journal_year 2012
_journal_page_first 2111
_journal_name_full 'Angew.Chem.,Int.Ed. '
loop_
_publ_author_name
"J.Poulin"
"C.M.Grise-Bard"
"L.Barriault"
_chemical_name_systematic
;
6-Isopropyl-9,13-dimethyltricyclo[8.4.0.0^5,14^]tetradec-13-en-3-yl 
4-nitrobenzoate
;
_cell_volume   5126.573
_exptl_crystal_colour 'colorless'
_exptl_crystal_density_diffrn 1.103
_exptl_crystal_description 'plates'
_exptl_crystal_preparation 'petroleum ether'
_diffrn_ambient_temperature 203
#These two values have been output from a single CSD field.
_refine_ls_R_factor_gt 0.0993
_refine_ls_wR_factor_gt 0.0993
_symmetry_cell_setting monoclinic
_symmetry_space_group_name_H-M 'C 2/c'
_symmetry_Int_Tables_number 15
loop_
_symmetry_equiv_pos_site_id
_symmetry_equiv_pos_as_xyz
1 x,y,z
2 -x,y,1/2-z
3 1/2+x,1/2+y,z
4 1/2-x,1/2+y,1/2-z
5 -x,-y,-z
6 x,-y,-1/2+z
7 -1/2-x,-1/2-y,-z
8 -1/2+x,-1/2-y,-1/2+z
_cell_length_a 40.82(3)
_cell_length_b 13.933(9)
_cell_length_c 9.054(6)
_cell_angle_alpha 90
_cell_angle_beta 95.399(11)
_cell_angle_gamma 90
_cell_formula_units_Z 8
loop_
_atom_type_symbol
_atom_type_radius_bond
C 0.68
H 0.23
N 0.68
O 0.68
loop_
_atom_site_label
_atom_site_type_symbol
_atom_site_fract_x
_atom_site_fract_y
_atom_site_fract_z
O1 O 0.33613(12) 0.5248(3) 0.0510(5)
O2 O 0.35553(15) 0.6418(4) -0.0873(6)
C1 C 0.2911(2) 0.8396(6) 0.0845(10)
H1 H 0.29170 0.90530 0.06120
C2 C 0.3952(2) 0.3081(6) -0.1036(9)
C3 C 0.2674(2) 0.7066(7) 0.2108(9)
H2 H 0.25140 0.68400 0.27020
C4 C 0.2903(2) 0.6442(6) 0.1598(9)
H3 H 0.29040 0.57910 0.18730
C5 C 0.3571(2) 0.4530(5) -0.0142(9)
H4 H 0.35640 0.46390 -0.12250
C6 C 0.3134(2) 0.6784(5) 0.0670(8)
O3 O 0.2472(2) 0.9541(6) 0.1996(9)
C7 C 0.3430(2) 0.3571(5) 0.0130(9)
H5 H 0.32040 0.35430 -0.03460
H6 H 0.34200 0.34840 0.11990
C8 C 0.3635(2) 0.2736(5) -0.0477(9)
H7 H 0.35000 0.24520 -0.13330
C9 C 0.2686(2) 0.8035(7) 0.1722(11)
C10 C 0.3921(2) 0.4601(5) 0.0519(9)
H8 H 0.39400 0.43820 0.15520
H9 H 0.39980 0.52670 0.04960
O4 O 0.2259(2) 0.8384(6) 0.3143(10)
C11 C 0.4100(2) 0.2652(6) -0.2138(10)
C12 C 0.3135(2) 0.7742(6) 0.0301(9)
H10 H 0.32890 0.79660 -0.03280
C13 C 0.4481(2) 0.3740(7) 0.0181(10)
H11 H 0.45930 0.43610 0.04040
C14 C 0.3715(2) 0.1913(6) 0.0683(10)
H12 H 0.38170 0.13790 0.01670
C15 C 0.3965(2) 0.2256(7) 0.1929(9)
H13 H 0.39300 0.18920 0.28270
H14 H 0.39190 0.29320 0.21310
C16 C 0.3378(2) 0.6157(6) 0.0018(10)
N1 N 0.2454(2) 0.8716(7) 0.2346(10)
C17 C 0.3403(3) 0.1527(6) 0.1292(11)
H15 H 0.33320 0.20110 0.19950
C18 C 0.4428(2) 0.3033(8) -0.2460(11)
H16 H 0.43940 0.36250 -0.30380
H17 H 0.45310 0.25660 -0.30790
C19 C 0.4534(2) 0.3108(8) 0.1625(10)
H18 H 0.47650 0.28900 0.16420
C20 C 0.3119(3) 0.1344(6) 0.0156(12)
H19 H 0.29330 0.11140 0.06450
H20 H 0.31810 0.08650 -0.05430
H21 H 0.30600 0.19350 -0.03680
C21 C 0.4127(2) 0.3963(6) -0.0414(9)
H22 H 0.41520 0.43580 -0.13050
C22 C 0.3472(3) 0.0591(6) 0.2162(12)
H23 H 0.32710 0.03720 0.25480
H24 H 0.36390 0.07040 0.29770
H25 H 0.35490 0.01050 0.15080
C23 C 0.3973(2) 0.1759(6) -0.2963(10)
H26 H 0.37640 0.15710 -0.26190
H27 H 0.41300 0.12420 -0.27790
H28 H 0.39420 0.18920 -0.40190
C24 C 0.4526(3) 0.3679(8) 0.3104(10)
H29 H 0.45610 0.32410 0.39370
H30 H 0.43140 0.39910 0.31230
H31 H 0.46990 0.41600 0.31710
C25 C 0.4335(2) 0.2166(7) 0.1645(10)
H32 H 0.44440 0.17480 0.24140
H33 H 0.43470 0.18430 0.06900
C26 C 0.4661(2) 0.3242(7) -0.1119(11)
H34 H 0.48360 0.36660 -0.14020
H35 H 0.47630 0.26410 -0.07490
#END
