
#######################################################################
#
#                 Cambridge Crystallographic Data Centre
#                                CCDC
#
#######################################################################
#
# If this CIF has been generated from an entry in the Cambridge
# Structural Database, then it will include bibliographic, chemical,
# crystal, experimental, refinement or atomic coordinate data resulting
# from the CCDC's data processing and validation procedures.
#
#######################################################################

data_CSD_CIF_LAYGOK
_audit_creation_date 2017-08-21
_audit_creation_method CSD-ConQuest-V1
_database_code_CSD LAYGOK
_database_code_depnum_ccdc_archive 'CCDC 1430832'
_chemical_formula_sum 'C11 H12 N2 O6'
_chemical_formula_moiety
;
C11 H12 N2 O6
;
_journal_coden_Cambridge 579
_journal_volume 36
_journal_year 2017
_journal_page_first 3068
_journal_name_full 'Organometallics '
loop_
_publ_author_name
"S.Z.Vatsadze"
"A.V.Medvedko"
"S.A.Kurzeev"
"O.I.Pokrovskiy"
"O.O.Parenago"
"M.O.Kostenko"
"I.V.Ananyev"
"K.A.Lyssenko"
"D.A.Lemenovsky"
"G.M.Kazankov"
"V.V.Lunin"
_chemical_name_systematic
;
2,4-dinitrophenyl 2-methylbutanoate
;
_cell_volume   1244.531
_exptl_crystal_colour 'colorless'
_exptl_crystal_density_diffrn 1.432
_exptl_crystal_description 'prism'
_diffrn_ambient_temperature 100
#These two values have been output from a single CSD field.
_refine_ls_R_factor_gt 0.0363
_refine_ls_wR_factor_gt 0.0363
_symmetry_cell_setting orthorhombic
_symmetry_space_group_name_H-M 'P 21 21 21'
_symmetry_Int_Tables_number 19
loop_
_symmetry_equiv_pos_site_id
_symmetry_equiv_pos_as_xyz
1 x,y,z
2 1/2-x,-y,1/2+z
3 -x,1/2+y,1/2-z
4 1/2+x,1/2-y,-z
_cell_length_a 6.3444(4)
_cell_length_b 11.1730(6)
_cell_length_c 17.5568(11)
_cell_angle_alpha 90
_cell_angle_beta 90
_cell_angle_gamma 90
_cell_formula_units_Z 4
loop_
_atom_type_symbol
_atom_type_radius_bond
C 0.68
H 0.23
N 0.68
O 0.68
loop_
_atom_site_label
_atom_site_type_symbol
_atom_site_fract_x
_atom_site_fract_y
_atom_site_fract_z
O1 O 0.70392(18) 0.16867(9) 0.22674(7)
N1 N 0.7949(3) -0.05414(13) 0.14321(9)
C1 C 0.8808(3) 0.15596(14) 0.18130(9)
O2 O 0.80292(19) 0.00995(10) 0.29753(7)
C2 C 0.9295(3) 0.05270(14) 0.1404(1)
N2 N 1.4230(2) 0.14177(14) 0.04250(9)
O3 O 0.6035(2) -0.03947(12) 0.14733(8)
C3 C 1.1084(3) 0.04624(15) 0.0954(1)
H1 H 1.14280 -0.02470 0.06830
O4 O 0.8820(2) -0.15143(11) 0.14056(9)
C4 C 1.2348(3) 0.14616(15) 0.09124(10)
O5 O 1.4400(2) 0.05809(14) -0.00227(8)
C5 C 1.1918(3) 0.25003(15) 0.13113(10)
H2 H 1.28250 0.31740 0.12730
C6 C 1.0138(3) 0.25385(15) 0.17677(10)
H3 H 0.98280 0.32410 0.20510
O6 O 1.5529(2) 0.22229(13) 0.04941(8)
C7 C 0.6796(3) 0.08919(14) 0.28633(9)
C8 C 0.4831(3) 0.11407(16) 0.33114(10)
H4 H 0.42820 0.19510 0.31730
C9 C 0.5313(3) 0.11055(16) 0.41625(11)
H5 H 0.39830 0.12160 0.44490
H6 H 0.58800 0.03060 0.42930
C10 C 0.6880(4) 0.20519(19) 0.44151(12)
H7 H 0.70200 0.20310 0.49710
H8 H 0.63790 0.28430 0.42570
H9 H 0.82540 0.18930 0.41810
C11 C 0.3190(3) 0.0192(2) 0.30958(13)
H10 H 0.18760 0.03470 0.33720
H11 H 0.37230 -0.06040 0.32310
H12 H 0.29250 0.02250 0.25460
#END
