
#######################################################################
#
#                 Cambridge Crystallographic Data Centre
#                                CCDC
#
#######################################################################
#
# If this CIF has been generated from an entry in the Cambridge
# Structural Database, then it will include bibliographic, chemical,
# crystal, experimental, refinement or atomic coordinate data resulting
# from the CCDC's data processing and validation procedures.
#
#######################################################################

data_CSD_CIF_LEBGAA02
_audit_creation_date 2015-05-22
_audit_creation_method CSD-ConQuest-V1
_database_code_CSD LEBGAA02
_database_code_depnum_ccdc_archive 'CCDC 1402410'
_chemical_formula_sum 'C22 H39 N1 O8'
_chemical_formula_moiety
;
C22 H39 N1 O8
;
_journal_coden_Cambridge 1078
_journal_year 2015
_journal_name_full 'CSD Communication(Private Communication) '
loop_
_publ_author_name
"F.R.Fronczek"
_chemical_name_systematic
;
di-t-butyl 4-(3-t-butoxy-3-oxopropyl)-4-nitroheptanedioate
;
_cell_volume   5116.740
_exptl_crystal_colour 'colorless'
_exptl_crystal_density_diffrn 1.157
_exptl_crystal_description 'rectangular prism'
_diffrn_ambient_temperature 90
#These two values have been output from a single CSD field.
_refine_ls_R_factor_gt 0.0379
_refine_ls_wR_factor_gt 0.0379
_symmetry_cell_setting orthorhombic
_symmetry_space_group_name_H-M 'P b c a'
_symmetry_Int_Tables_number 61
loop_
_symmetry_equiv_pos_site_id
_symmetry_equiv_pos_as_xyz
1 x,y,z
2 1/2+x,1/2-y,-z
3 -x,1/2+y,1/2-z
4 1/2-x,-y,1/2+z
5 -x,-y,-z
6 -1/2-x,-1/2+y,z
7 x,-1/2-y,-1/2+z
8 -1/2+x,y,-1/2-z
_cell_length_a 20.8822(6)
_cell_length_b 11.2839(3)
_cell_length_c 21.7149(6)
_cell_angle_alpha 90
_cell_angle_beta 90
_cell_angle_gamma 90
_cell_formula_units_Z 8
loop_
_atom_type_symbol
_atom_type_radius_bond
C 0.68
H 0.23
N 0.68
O 0.68
loop_
_atom_site_label
_atom_site_type_symbol
_atom_site_fract_x
_atom_site_fract_y
_atom_site_fract_z
O1 O 0.71146(3) 0.59921(6) 0.82508(3)
O2 O 0.54843(3) 0.70644(5) 0.52647(3)
O3 O 0.77584(3) 0.48996(6) 0.76360(3)
O4 O 0.57673(3) 0.88354(6) 0.56754(3)
O5 O 0.89674(3) 1.00333(6) 0.68843(3)
O6 O 0.96937(3) 0.85963(6) 0.70828(3)
O7 O 0.79371(4) 0.77388(6) 0.51683(3)
O8 O 0.80774(5) 0.60100(7) 0.55426(4)
N1 N 0.78981(4) 0.70252(6) 0.55893(3)
C1 C 0.78666(5) 0.52338(11) 0.90236(5)
H1 H 0.81400 0.48170 0.87270
H2 H 0.78930 0.48390 0.94250
H3 H 0.80120 0.60560 0.90640
C2 C 0.71776(5) 0.52165(8) 0.87980(4)
C3 C 0.74181(4) 0.57503(7) 0.77259(4)
C4 C 0.72821(4) 0.67055(7) 0.72576(4)
H4 H 0.74690 0.74640 0.74010
H5 H 0.68130 0.68140 0.72190
C5 C 0.75615(4) 0.63921(7) 0.66293(4)
H6 H 0.79930 0.60460 0.66870
H7 H 0.72880 0.57840 0.64320
C6 C 0.76113(4) 0.74619(7) 0.62045(4)
C7 C 0.69632(4) 0.80204(7) 0.60437(4)
H8 H 0.67720 0.83460 0.64250
H9 H 0.70370 0.86910 0.57590
C8 C 0.64841(4) 0.71738(7) 0.57486(4)
H10 H 0.66800 0.68060 0.53800
H11 H 0.63790 0.65340 0.60430
C9 C 0.58766(4) 0.78111(8) 0.55638(4)
C10 C 0.48505(4) 0.74728(8) 0.50414(4)
C11 C 0.45547(5) 0.63411(8) 0.47924(5)
H12 H 0.48260 0.60230 0.44630
H13 H 0.41270 0.65130 0.46280
H14 H 0.45200 0.57570 0.51250
C12 C 0.69504(6) 0.39719(9) 0.86484(5)
H15 H 0.65260 0.40100 0.84570
H16 H 0.69250 0.35050 0.90280
H17 H 0.72530 0.35970 0.83640
C13 C 0.67331(6) 0.58169(10) 0.92528(5)
H18 H 0.68810 0.66290 0.93280
H19 H 0.67330 0.53750 0.96410
H20 H 0.62980 0.58350 0.90840
C14 C 0.49446(5) 0.83814(9) 0.45332(5)
H21 H 0.51880 0.90560 0.46940
H22 H 0.45260 0.86560 0.43870
H23 H 0.51800 0.80190 0.41910
C15 C 0.44512(5) 0.79534(10) 0.55689(5)
H24 H 0.44520 0.73830 0.59090
H25 H 0.40110 0.80810 0.54280
H26 H 0.46330 0.87070 0.57100
C16 C 0.80663(4) 0.84235(7) 0.64438(4)
H27 H 0.81570 0.89810 0.61030
H28 H 0.78430 0.88750 0.67700
C17 C 0.87026(4) 0.79852(7) 0.67019(4)
H29 H 0.86210 0.74680 0.70620
H30 H 0.89260 0.75080 0.63850
C18 C 0.91270(4) 0.90056(8) 0.68953(4)
C19 C 1.01997(5) 0.93981(9) 0.73209(5)
C20 C 0.99643(6) 1.00197(12) 0.78972(5)
H31 H 0.96170 1.05670 0.77890
H32 H 1.03180 1.04640 0.80840
H33 H 0.98050 0.94300 0.81910
C21 C 1.03996(5) 1.02633(11) 0.68223(5)
H34 H 1.05140 0.98250 0.64490
H35 H 1.07700 1.07220 0.69640
H36 H 1.00440 1.08020 0.67320
C22 C 1.07398(6) 0.85419(11) 0.74657(7)
H37 H 1.05990 0.79820 0.77830
H38 H 1.11120 0.89850 0.76160
H39 H 1.08570 0.81060 0.70920
#END
