
#######################################################################
#
#                 Cambridge Crystallographic Data Centre
#                                CCDC
#
#######################################################################
#
# If this CIF has been generated from an entry in the Cambridge
# Structural Database, then it will include bibliographic, chemical,
# crystal, experimental, refinement or atomic coordinate data resulting
# from the CCDC's data processing and validation procedures.
#
#######################################################################

data_CSD_CIF_LEDWAS
_audit_creation_date 1994-07-14
_audit_creation_method CSD-ConQuest-V1
_database_code_CSD LEDWAS
_chemical_formula_sum 'C10 H12 N2 O4'
_chemical_formula_moiety
;
C10 H12 N2 O4
;
_journal_coden_Cambridge 41
_journal_volume 38
_journal_year 1993
_journal_page_first 109
_journal_name_full 'Kristallografiya(Russ.)(Crystallogr.Rep.) '
loop_
_publ_author_name
"N.G.Furmanova"
"O.Yu.Rekhlova"
"I.A.Maslyanitsyn"
"V.D.Shigorin"
"G.P.Shipulo"
"N.K.Tolochko"
"I.A.Yadroitsev"
"S.N.Duka"
_chemical_name_systematic
;
N-(4-Nitrophenyl)-4-aminobutyric acid
;
_cell_volume   1062.059
_exptl_crystal_density_diffrn 1.421
_exptl_special_details
;
z(C1) is 0.3858, not 0.3958. z(O4) is 0.2875, not 0.2975

;
_diffrn_ambient_temperature ?
_diffrn_special_details
;
The study was carried out at room temperature,in the range 283-303K

;
#These two values have been output from a single CSD field.
_refine_ls_R_factor_gt 0.06
_refine_ls_wR_factor_gt 0.06
_symmetry_cell_setting orthorhombic
_symmetry_space_group_name_H-M 'P 21 21 21'
_symmetry_Int_Tables_number 19
loop_
_symmetry_equiv_pos_site_id
_symmetry_equiv_pos_as_xyz
1 x,y,z
2 1/2+x,1/2-y,-z
3 -x,1/2+y,1/2-z
4 1/2-x,-y,1/2+z
_cell_length_a 5.414(4)
_cell_length_b 9.806(1)
_cell_length_c 20.005(3)
_cell_angle_alpha 90
_cell_angle_beta 90
_cell_angle_gamma 90
_cell_formula_units_Z 4
loop_
_atom_type_symbol
_atom_type_radius_bond
C 0.68
N 0.68
O 0.68
loop_
_atom_site_label
_atom_site_type_symbol
_atom_site_fract_x
_atom_site_fract_y
_atom_site_fract_z
O1 O 0.4199(9) 0.4532(4) 0.4439(1)
O2 O 0.5329(9) 0.4904(4) 0.3397(1)
O3 O -1.1169(9) -0.3425(4) 0.3917(1)
O4 O -1.0197(9) -0.3209(4) 0.2875(1)
N1 N -0.2674(9) 0.0861(4) 0.4196(2)
N2 N -0.9889(9) -0.2910(4) 0.3466(2)
C1 C 0.3966(11) 0.4299(5) 0.3858(2)
C2 C 0.2125(11) 0.3308(5) 0.3553(2)
C3 C 0.0545(10) 0.2592(5) 0.4069(2)
C4 C -0.1064(11) 0.1545(5) 0.3703(2)
C5 C -0.4378(10) -0.0076(5) 0.3992(2)
C6 C -0.5821(10) -0.0710(5) 0.4490(2)
C7 C -0.7626(11) -0.1649(5) 0.4322(2)
C8 C -0.7999(10) -0.1938(5) 0.3649(2)
C9 C -0.6613(11) -0.1327(5) 0.3144(2)
C10 C -0.4806(10) -0.0390(5) 0.3317(2)
#END
