
#######################################################################
#
#                 Cambridge Crystallographic Data Centre
#                                CCDC
#
#######################################################################
#
# If this CIF has been generated from an entry in the Cambridge
# Structural Database, then it will include bibliographic, chemical,
# crystal, experimental, refinement or atomic coordinate data resulting
# from the CCDC's data processing and validation procedures.
#
#######################################################################

data_CSD_CIF_LEGFAG
_audit_creation_date 2012-09-12
_audit_creation_method CSD-ConQuest-V1
_database_code_CSD LEGFAG
_database_code_depnum_ccdc_archive 'CCDC 896434'
_chemical_formula_sum 'C25 H29 N1 O6'
_chemical_formula_moiety
;
C25 H29 N1 O6
;
_journal_coeditor_code "IUCr BH2444"
_journal_coden_Cambridge 1370
_journal_volume 68
_journal_year 2012
_journal_page_first o2510
_journal_name_full 'Acta Crystallogr.,Sect.E:Struct.Rep.Online '
loop_
_publ_author_name
"J.H.Cha"
"Y.S.Cho"
"J.K.Lee"
"J.Park"
"H.Sato"
_chemical_name_systematic
;
2,2'-[(E)-3-(4-Nitrophenyl)prop-2-ene-1,1-diyl]-bis(3-hydroxy-5,5-dimethylcycl
ohex-2-en-1-one)
;
_cell_volume   4634.733
_exptl_crystal_colour 'colorless'
_exptl_crystal_density_diffrn 1.26
_exptl_crystal_description 'block'
_exptl_crystal_preparation 'ethanol'
_diffrn_ambient_temperature 296
#These two values have been output from a single CSD field.
_refine_ls_R_factor_gt 0.0423
_refine_ls_wR_factor_gt 0.0423
_symmetry_cell_setting monoclinic
_symmetry_space_group_name_H-M 'C 2/c'
_symmetry_Int_Tables_number 15
loop_
_symmetry_equiv_pos_site_id
_symmetry_equiv_pos_as_xyz
1 x,y,z
2 -x,y,1/2-z
3 1/2+x,1/2+y,z
4 1/2-x,1/2+y,1/2-z
5 -x,-y,-z
6 x,-y,-1/2+z
7 -1/2-x,-1/2-y,-z
8 -1/2+x,-1/2-y,-1/2+z
_cell_length_a 25.0742(13)
_cell_length_b 10.2759(5)
_cell_length_c 20.7156(9)
_cell_angle_alpha 90
_cell_angle_beta 119.7359(13)
_cell_angle_gamma 90
_cell_formula_units_Z 8
loop_
_atom_type_symbol
_atom_type_radius_bond
C 0.68
H 0.23
N 0.68
O 0.68
loop_
_atom_site_label
_atom_site_type_symbol
_atom_site_fract_x
_atom_site_fract_y
_atom_site_fract_z
O1 O 0.02930(5) 0.13724(12) 0.14367(7)
O2 O 0.23893(5) 0.11823(12) 0.13709(7)
O3 O 0.21928(5) 0.31987(12) 0.20295(6)
O4 O 0.05837(6) -0.07857(13) 0.10323(7)
O5 O 0.15275(12) -0.42718(19) 0.52346(12)
O6 O 0.06819(10) -0.3408(3) 0.50333(10)
N1 N 0.11093(11) -0.34889(18) 0.49193(9)
C1 C 0.10440(7) -0.07296(17) 0.09272(8)
C2 C 0.10272(8) -0.16048(19) 0.03373(9)
C3 C 0.16465(8) -0.18324(17) 0.03870(8)
C4 C 0.19570(8) -0.05109(17) 0.04924(9)
C5 C 0.19625(7) 0.02967(16) 0.10971(8)
C6 C 0.15405(7) 0.01186(15) 0.13362(8)
C7 C 0.16143(7) 0.08327(15) 0.20220(7)
C8 C 0.13044(7) 0.21521(15) 0.18834(7)
C9 C 0.06831(7) 0.23269(16) 0.16367(8)
C10 C 0.04089(8) 0.36434(18) 0.15737(10)
C11 C 0.08671(9) 0.46759(18) 0.20644(9)
C12 C 0.14051(9) 0.46117(17) 0.19166(10)
C13 C 0.16543(8) 0.32739(16) 0.19520(8)
C14 C 0.15201(7) -0.00807(17) 0.25298(8)
C15 C 0.12608(8) 0.01416(17) 0.29326(8)
C16 C 0.12309(7) -0.08092(15) 0.34496(7)
C17 C 0.16846(8) -0.17428(17) 0.38157(9)
C18 C 0.16503(9) -0.26281(17) 0.42933(9)
C19 C 0.11526(8) -0.25652(16) 0.44083(8)
C20 C 0.06988(8) -0.16539(17) 0.40619(9)
C21 C 0.07438(8) -0.07802(17) 0.35877(8)
C22 C 0.20484(10) -0.27305(19) 0.10411(10)
C23 C 0.15459(10) -0.2466(2) -0.03369(10)
C24 C 0.10892(10) 0.4410(2) 0.2890(1)
C25 C 0.05730(12) 0.6024(2) 0.18634(14)
H1 H 0.04490 0.07120 0.13800
H2 H 0.07490 -0.12320 -0.01450
H3 H 0.08600 -0.24400 0.03660
H4 H 0.23240 0.16810 0.16330
H5 H 0.23770 -0.06480 0.06050
H6 H 0.17470 -0.00320 0.00290
H7 H 0.20530 0.10390 0.23030
H8 H 0.00870 0.35760 0.17030
H9 H 0.02200 0.39260 0.10600
H10 H 0.12740 0.49720 0.14280
H11 H 0.17340 0.51570 0.22770
H12 H 0.16910 -0.09140 0.25540
H13 H 0.10590 0.09600 0.28950
H14 H 0.20190 -0.17700 0.37360
H15 H 0.19550 -0.32530 0.45330
H16 H 0.03670 -0.16260 0.41450
H17 H 0.04390 -0.01540 0.33540
H18 H 0.21020 -0.23550 0.14940
H19 H 0.24420 -0.28350 0.10750
H20 H 0.18530 -0.35640 0.09640
H21 H 0.19350 -0.25820 -0.03140
H22 H 0.12890 -0.19140 -0.07500
H23 H 0.13510 -0.32960 -0.03990
H24 H 0.12930 0.35810 0.30270
H25 H 0.07430 0.44010 0.29700
H26 H 0.13700 0.50810 0.31880
H27 H 0.04220 0.61880 0.13450
H28 H 0.08730 0.66700 0.21550
H29 H 0.02390 0.60620 0.19640
#END
