
#######################################################################
#
#                 Cambridge Crystallographic Data Centre
#                                CCDC
#
#######################################################################
#
# If this CIF has been generated from an entry in the Cambridge
# Structural Database, then it will include bibliographic, chemical,
# crystal, experimental, refinement or atomic coordinate data resulting
# from the CCDC's data processing and validation procedures.
#
#######################################################################

data_CSD_CIF_LENMIB
_audit_creation_date 2006-11-23
_audit_creation_method CSD-ConQuest-V1
_database_code_CSD LENMIB
_database_code_depnum_ccdc_archive 'CCDC 621557'
_chemical_formula_sum 'C18 H17 N1 O4'
_chemical_formula_moiety
;
C18 H17 N1 O4
;
_journal_coeditor_code "IUCr YA2016"
_journal_coden_Cambridge 1370
_journal_volume 62
_journal_year 2006
_journal_page_first o3699
_journal_name_full 'Acta Crystallogr.,Sect.E:Struct.Rep.Online '
loop_
_publ_author_name
"Rui-Fa Jin"
"Hai-Ying Ji"
"Dong Xiang"
"Bin Li"
_chemical_name_systematic
;
Isopropylideneamino-12H-dibenzo(d,g)(1,3)dioxocine-6-carboxylate
;
_chemical_name_common
;
SYP-185
;
_chemical_melting_point 417.0
_cell_volume   6399.193
_exptl_crystal_colour 'colorless'
_exptl_crystal_density_diffrn 1.293
_exptl_special_details
;
acetolactate synthase inhibitor; potential wheat herbicide

;
_exptl_crystal_description 'prism'
_exptl_crystal_preparation 'acetone'
_diffrn_ambient_temperature 298
#These two values have been output from a single CSD field.
_refine_ls_R_factor_gt 0.046
_refine_ls_wR_factor_gt 0.046
_symmetry_cell_setting orthorhombic
_symmetry_space_group_name_H-M 'F d d 2'
_symmetry_Int_Tables_number 43
loop_
_symmetry_equiv_pos_site_id
_symmetry_equiv_pos_as_xyz
1 x,y,z
2 -x,-y,z
3 1/4+x,1/4-y,1/4+z
4 1/4-x,1/4+y,1/4+z
5 x,1/2+y,1/2+z
6 -x,1/2-y,1/2+z
7 1/4+x,3/4-y,3/4+z
8 1/4-x,3/4+y,3/4+z
9 1/2+x,y,1/2+z
10 1/2-x,-y,1/2+z
11 3/4+x,1/4-y,3/4+z
12 3/4-x,1/4+y,3/4+z
13 1/2+x,1/2+y,z
14 1/2-x,1/2-y,z
15 3/4+x,3/4-y,1/4+z
16 3/4-x,3/4+y,1/4+z
_cell_length_a 14.542(4)
_cell_length_b 40.468(11)
_cell_length_c 10.874(3)
_cell_angle_alpha 90
_cell_angle_beta 90
_cell_angle_gamma 90
_cell_formula_units_Z 16
loop_
_atom_type_symbol
_atom_type_radius_bond
C 0.68
H 0.23
N 0.68
O 0.68
loop_
_atom_site_label
_atom_site_type_symbol
_atom_site_fract_x
_atom_site_fract_y
_atom_site_fract_z
O1 O 0.43497(15) 0.04017(6) 0.0953(2)
O2 O 0.34318(15) 0.07464(6) 0.2152(2)
O3 O 0.3834(3) -0.00223(7) 0.2709(3)
O4 O 0.39871(18) 0.03724(6) 0.4135(2)
N1 N 0.3771(3) 0.01244(9) 0.5055(4)
C1 C 0.3605(2) 0.10855(8) 0.2003(3)
C2 C 0.3621(2) 0.1280(1) 0.3035(4)
H1 H 0.35500 0.11850 0.38080
C3 C 0.3742(3) 0.16172(10) 0.2929(4)
H2 H 0.37490 0.17500 0.36280
C4 C 0.3852(3) 0.17563(10) 0.1784(5)
H3 H 0.39320 0.19830 0.17040
C5 C 0.3844(2) 0.15588(10) 0.0766(4)
H4 H 0.39220 0.16550 -0.00040
C6 C 0.3721(2) 0.12164(10) 0.0842(3)
C7 C 0.3766(2) 0.0998(1) -0.0269(3)
H5 H 0.36120 0.11250 -0.09970
H6 H 0.33210 0.08210 -0.01890
C8 C 0.4720(2) 0.08536(8) -0.0406(3)
C9 C 0.5378(3) 0.1009(1) -0.1125(3)
H7 H 0.52200 0.12000 -0.15540
C10 C 0.6255(3) 0.08883(12) -0.1219(4)
H8 H 0.66860 0.09980 -0.17010
C11 C 0.6496(3) 0.06047(11) -0.0597(4)
H9 H 0.70900 0.05220 -0.06660
C12 C 0.5860(3) 0.04438(9) 0.0127(3)
H10 H 0.60180 0.02520 0.05480
C13 C 0.4990(3) 0.05723(8) 0.0214(3)
C14 C 0.4208(2) 0.05357(8) 0.2122(3)
H11 H 0.47580 0.06540 0.24000
C15 C 0.3985(3) 0.02511(10) 0.2994(4)
C16 C 0.3740(3) 0.02559(11) 0.6101(4)
C17 C 0.3534(5) 0.00336(14) 0.7163(5)
H12 H 0.34110 -0.01850 0.68660
H13 H 0.30050 0.01150 0.75970
H14 H 0.40530 0.00280 0.77090
C18 C 0.3860(4) 0.06069(13) 0.6372(5)
H15 H 0.38370 0.07310 0.56200
H16 H 0.44440 0.06410 0.67620
H17 H 0.33770 0.06800 0.69100
#END
