
#######################################################################
#
#                 Cambridge Crystallographic Data Centre
#                                CCDC
#
#######################################################################
#
# If this CIF has been generated from an entry in the Cambridge
# Structural Database, then it will include bibliographic, chemical,
# crystal, experimental, refinement or atomic coordinate data resulting
# from the CCDC's data processing and validation procedures.
#
#######################################################################

data_CSD_CIF_LETBUH
_audit_creation_date 1994-12-19
_audit_creation_method CSD-ConQuest-V1
_database_code_CSD LETBUH
_chemical_formula_sum 'C9 H10 N4 O5'
_chemical_formula_moiety
;
C9 H10 N4 O5
;
_journal_coeditor_code "IUCr VS1011"
_journal_coden_Cambridge 591
_journal_volume 50
_journal_year 1994
_journal_page_first 1124
_journal_name_full 'Acta Crystallogr.,Sect.C:Cryst.Struct.Commun. '
loop_
_publ_author_name
"M.L.Glowka"
"A.W.Sobanska"
_chemical_name_systematic
;
1-(2,4-Dimethoxy-1,3,5-triazin-6-yloxy)pyrrolidine-2,5-dione
;
_cell_volume   1130.992
_exptl_crystal_colour 'white'
_exptl_crystal_density_diffrn 1.492
_diffrn_ambient_temperature ?
_diffrn_special_details
;
The study was carried out at room temperature,in the range 283-303K

;
#These two values have been output from a single CSD field.
_refine_ls_R_factor_gt 0.0438
_refine_ls_wR_factor_gt 0.0438
_symmetry_cell_setting monoclinic
_symmetry_space_group_name_H-M 'P 21/n'
_symmetry_Int_Tables_number 14
loop_
_symmetry_equiv_pos_site_id
_symmetry_equiv_pos_as_xyz
1 x,y,z
2 1/2-x,1/2+y,1/2-z
3 -x,-y,-z
4 -1/2+x,-1/2-y,-1/2+z
_cell_length_a 8.893(1)
_cell_length_b 10.681(2)
_cell_length_c 11.941(2)
_cell_angle_alpha 90
_cell_angle_beta 94.33(1)
_cell_angle_gamma 90
_cell_formula_units_Z 4
loop_
_atom_type_symbol
_atom_type_radius_bond
C 0.68
H 0.23
N 0.68
O 0.68
loop_
_atom_site_label
_atom_site_type_symbol
_atom_site_fract_x
_atom_site_fract_y
_atom_site_fract_z
N1 N -0.0093(2) 0.7120(1) 0.4067(1)
C1 C -0.1131(2) 0.6250(2) 0.4238(1)
O1 O -0.2099(2) 0.6585(1) 0.4961(1)
N2 N -0.1255(2) 0.5132(1) 0.3752(1)
C2 C -0.0230(2) 0.4923(2) 0.3019(2)
O2 O -0.0230(2) 0.3836(1) 0.2482(1)
N3 N 0.0847(2) 0.5710(2) 0.2736(1)
C3 C 0.0815(2) 0.6769(2) 0.3308(2)
O3 O 0.1922(2) 0.7574(1) 0.3013(1)
C4 C -0.3366(3) 0.5766(3) 0.5114(2)
C5 C -0.1362(3) 0.2932(2) 0.2749(3)
N4 N 0.1964(2) 0.8680(1) 0.3617(2)
C6 C 0.1031(2) 0.9674(2) 0.3307(2)
O4 O 0.0052(2) 0.9650(2) 0.2557(1)
C7 C 0.1486(2) 1.0710(2) 0.4100(2)
C8 C 0.2723(3) 1.0190(3) 0.4898(2)
C9 C 0.2956(2) 0.8853(2) 0.4546(2)
O5 O 0.3776(2) 0.8060(2) 0.4949(2)
H1 H -0.396(4) 0.618(3) 0.562(3)
H2 H -0.311(3) 0.499(4) 0.543(3)
H3 H -0.387(3) 0.557(3) 0.445(3)
H4 H -0.113(4) 0.222(3) 0.231(3)
H5 H -0.237(3) 0.324(3) 0.249(2)
H6 H -0.114(3) 0.270(3) 0.358(3)
H7 H 0.182(3) 1.144(2) 0.365(2)
H8 H 0.061(3) 1.100(2) 0.447(2)
H9 H 0.250(4) 1.012(4) 0.574(4)
H10 H 0.368(4) 1.061(3) 0.486(3)
#END
