
#######################################################################
#
#                 Cambridge Crystallographic Data Centre
#                                CCDC
#
#######################################################################
#
# If this CIF has been generated from an entry in the Cambridge
# Structural Database, then it will include bibliographic, chemical,
# crystal, experimental, refinement or atomic coordinate data resulting
# from the CCDC's data processing and validation procedures.
#
#######################################################################

data_CSD_CIF_LIBJEN
_audit_creation_date 2013-05-26
_audit_creation_method CSD-ConQuest-V1
_database_code_CSD LIBJEN
_database_code_depnum_ccdc_archive 'CCDC 822849'
_chemical_formula_sum 'C22 H23 N3 O4'
_chemical_formula_moiety
;
C22 H23 N3 O4
;
_journal_coden_Cambridge 423
_journal_volume 37
_journal_year 2013
_journal_page_first 30
_journal_name_full 'J.Chem.Res. '
loop_
_publ_author_name
"Zheng-Jun Quan"
"Xue-Hong Tang"
"Yu-Xia Da"
"Zhang Zhang"
"Xi-Cun Wang"
_chemical_name_systematic
;
Ethyl 
3-(((benzylideneamino)oxy)methyl)-6-methyl-2-oxo-4-phenyl-1,2,3,4-tetrahydropy
rimidine-5-carboxylate
;
_cell_volume   1020.516
_exptl_crystal_colour 'colorless'
_exptl_crystal_density_diffrn 1.28
_exptl_crystal_description 'block'
_diffrn_ambient_temperature 296
#These two values have been output from a single CSD field.
_refine_ls_R_factor_gt 0.0518
_refine_ls_wR_factor_gt 0.0518
_symmetry_cell_setting triclinic
_symmetry_space_group_name_H-M 'P -1'
_symmetry_Int_Tables_number 2
loop_
_symmetry_equiv_pos_site_id
_symmetry_equiv_pos_as_xyz
1 x,y,z
2 -x,-y,-z
_cell_length_a 9.033(16)
_cell_length_b 9.512(17)
_cell_length_c 12.37(2)
_cell_angle_alpha 101.182(15)
_cell_angle_beta 99.171(15)
_cell_angle_gamma 95.491(15)
_cell_formula_units_Z 2
loop_
_atom_type_symbol
_atom_type_radius_bond
C 0.68
H 0.23
N 0.68
O 0.68
loop_
_atom_site_label
_atom_site_type_symbol
_atom_site_fract_x
_atom_site_fract_y
_atom_site_fract_z
C1 C 0.8541(3) 0.5630(3) 0.3174(2)
H1 H 0.78920 0.52340 0.35800
C2 C 1.0047(4) 0.6033(4) 0.3633(3)
H2 H 1.04080 0.59000 0.43480
C3 C 1.1009(4) 0.6621(3) 0.3063(4)
H3 H 1.20240 0.68950 0.33860
C4 C 1.0495(4) 0.6809(3) 0.2026(4)
H4 H 1.11560 0.72120 0.16300
C5 C 0.8981(4) 0.6402(3) 0.1545(3)
H5 H 0.86350 0.65350 0.08280
C6 C 0.7994(3) 0.5811(2) 0.21114(19)
C7 C 0.6408(3) 0.5407(2) 0.15839(19)
H6 H 0.60820 0.55850 0.08770
C8 C 0.3023(3) 0.3731(2) 0.19011(18)
H7 H 0.19960 0.39210 0.16740
H8 H 0.32960 0.40630 0.27080
C9 C 0.4370(2) 0.1626(2) 0.22032(16)
H9 H 0.52850 0.22850 0.22300
C10 C 0.4547(2) 0.0174(2) 0.15342(16)
C11 C 0.3352(3) -0.0648(2) 0.08356(16)
C12 C 0.1859(3) 0.1338(2) 0.09652(17)
C13 C 0.4197(2) 0.1618(2) 0.34044(17)
C14 C 0.3334(3) 0.0520(3) 0.36719(19)
H10 H 0.28670 -0.02660 0.31090
C15 C 0.3142(3) 0.0555(3) 0.4762(2)
H11 H 0.25620 -0.02070 0.49310
C16 C 0.3809(4) 0.1717(4) 0.5593(2)
H12 H 0.36610 0.17560 0.63250
C17 C 0.4681(4) 0.2806(3) 0.5350(2)
H13 H 0.51430 0.35890 0.59160
C18 C 0.4889(3) 0.2761(3) 0.42601(19)
H14 H 0.55020 0.35100 0.41020
C19 C 0.3300(3) -0.2146(2) 0.01591(18)
H15 H 0.40910 -0.21660 -0.02750
H16 H 0.23380 -0.24270 -0.03340
H17 H 0.34360 -0.28060 0.06520
C20 C 0.6049(3) -0.0307(2) 0.16822(18)
C21 C 0.8616(3) 0.0420(3) 0.2573(2)
H18 H 0.89630 0.01480 0.18680
H19 H 0.86990 -0.03640 0.29680
C22 C 0.9515(3) 0.1755(4) 0.3253(3)
H20 H 0.94040 0.25240 0.28580
H21 H 1.05600 0.16140 0.33960
H22 H 0.91680 0.20010 0.39520
H23 H 0.121(3) -0.060(2) 0.0296(19)
N1 N 0.5469(2) 0.48185(19) 0.20691(15)
N2 N 0.30707(19) 0.22014(16) 0.16210(13)
N3 N 0.1992(2) -0.00965(19) 0.06984(15)
O1 O 0.40009(18) 0.45244(15) 0.13889(13)
O2 O 0.06746(17) 0.17908(15) 0.06121(12)
O3 O 0.63778(19) -0.14468(18) 0.12469(15)
O4 O 0.70656(17) 0.07256(17) 0.23781(13)
#END
