
#######################################################################
#
#                 Cambridge Crystallographic Data Centre
#                                CCDC
#
#######################################################################
#
# If this CIF has been generated from an entry in the Cambridge
# Structural Database, then it will include bibliographic, chemical,
# crystal, experimental, refinement or atomic coordinate data resulting
# from the CCDC's data processing and validation procedures.
#
#######################################################################

data_CSD_CIF_LIVROY01
_audit_creation_date 2016-01-07
_audit_creation_method CSD-ConQuest-V1
_database_code_CSD LIVROY01
_database_code_depnum_ccdc_archive 'CCDC 1003332'
_chemical_formula_sum 'C11 H9 N1 O2'
_chemical_formula_moiety
;
C11 H9 N1 O2
;
_journal_coden_Cambridge 1147
_journal_volume 16
_journal_year 2016
_journal_page_first 126
_journal_name_full 'Cryst.Growth Des. '
loop_
_publ_author_name
"A.Tarai"
"J.B.Baruah"
_chemical_name_systematic
;
1-(hydroxycarbonoimidoyl)-2-naphthol
;
_cell_volume    905.679
_exptl_crystal_colour 'colorless'
_exptl_crystal_density_diffrn 1.373
_exptl_crystal_description 'Block'
_diffrn_ambient_temperature 296
#These two values have been output from a single CSD field.
_refine_ls_R_factor_gt 0.0414
_refine_ls_wR_factor_gt 0.0414
_symmetry_cell_setting monoclinic
_symmetry_space_group_name_H-M 'P 21/c'
_symmetry_Int_Tables_number 14
loop_
_symmetry_equiv_pos_site_id
_symmetry_equiv_pos_as_xyz
1 x,y,z
2 -x,1/2+y,1/2-z
3 -x,-y,-z
4 x,-1/2-y,-1/2+z
_cell_length_a 14.856(2)
_cell_length_b 4.0568(6)
_cell_length_c 16.585(2)
_cell_angle_alpha 90
_cell_angle_beta 115.029(9)
_cell_angle_gamma 90
_cell_formula_units_Z 4
loop_
_atom_type_symbol
_atom_type_radius_bond
C 0.68
H 0.23
N 0.68
O 0.68
loop_
_atom_site_label
_atom_site_type_symbol
_atom_site_fract_x
_atom_site_fract_y
_atom_site_fract_z
C1 C 0.18083(12) 0.3054(5) 0.43328(11)
C2 C 0.33940(13) 0.5993(5) 0.51265(13)
C3 C 0.24791(13) 0.4838(4) 0.51015(12)
C4 C 0.20790(13) 0.2509(5) 0.36389(12)
C5 C 0.22762(14) 0.5506(5) 0.58470(12)
H1 H 0.16770 0.48090 0.58410
C6 C 0.29808(14) 0.3664(5) 0.36696(14)
H2 H 0.31470 0.32510 0.31980
C7 C 0.40574(15) 0.7718(5) 0.58903(16)
H3 H 0.46530 0.85050 0.59070
C8 C 0.36118(14) 0.5385(5) 0.43870(15)
H4 H 0.42020 0.61860 0.43940
C9 C 0.29393(16) 0.7145(5) 0.65722(14)
H5 H 0.27890 0.75320 0.70550
C10 C 0.38414(16) 0.8247(6) 0.65983(15)
H6 H 0.42930 0.93410 0.70990
C11 C 0.08725(13) 0.1813(5) 0.42923(12)
H7 H 0.07100 0.21840 0.47680
O1 O 0.14871(9) 0.0806(4) 0.28862(8)
H8 H 0.09710 0.02660 0.29180
N1 N 0.02705(11) 0.0223(4) 0.36157(10)
O2 O -0.05774(9) -0.0787(4) 0.37122(8)
H9 H -0.09510 -0.17640 0.32620
#END
