
#######################################################################
#
#                 Cambridge Crystallographic Data Centre
#                                CCDC
#
#######################################################################
#
# If this CIF has been generated from an entry in the Cambridge
# Structural Database, then it will include bibliographic, chemical,
# crystal, experimental, refinement or atomic coordinate data resulting
# from the CCDC's data processing and validation procedures.
#
#######################################################################

data_CSD_CIF_LOBWIJ
_audit_creation_date 2008-08-01
_audit_creation_method CSD-ConQuest-V1
_database_code_CSD LOBWIJ
_database_code_depnum_ccdc_archive 'CCDC 690942'
_chemical_formula_sum 'C11 H12 N2 O4'
_chemical_formula_moiety
;
C11 H12 N2 O4
;
_journal_coeditor_code "IUCr DN2332"
_journal_coden_Cambridge 1370
_journal_volume 64
_journal_year 2008
_journal_page_first o1050
_journal_name_full 'Acta Crystallogr.,Sect.E:Struct.Rep.Online '
loop_
_publ_author_name
"H.B.Salah"
"M.Kammoun"
"B.Hamdi"
"L.Bohe"
"M.Damak"
_chemical_name_systematic
;
2-Hydroxy-3,3-dimethyl-7-nitro-3,4-dihydroisoquinolin-1(2H)-one
;
_chemical_name_common
;
hydroxamic
;
_chemical_melting_point 418
_cell_volume   1082.710
_exptl_crystal_colour 'colorless'
_exptl_crystal_density_diffrn 1.449
_exptl_crystal_description 'prism'
_exptl_crystal_preparation 'dichloromethane'
_diffrn_ambient_temperature 296
#These two values have been output from a single CSD field.
_refine_ls_R_factor_gt 0.0441
_refine_ls_wR_factor_gt 0.0441
_symmetry_cell_setting monoclinic
_symmetry_space_group_name_H-M 'P 21/n'
_symmetry_Int_Tables_number 14
loop_
_symmetry_equiv_pos_site_id
_symmetry_equiv_pos_as_xyz
1 x,y,z
2 1/2-x,1/2+y,1/2-z
3 -x,-y,-z
4 -1/2+x,-1/2-y,-1/2+z
_cell_length_a 5.8805(9)
_cell_length_b 18.605(4)
_cell_length_c 10.1588(17)
_cell_angle_alpha 90
_cell_angle_beta 103.056(12)
_cell_angle_gamma 90
_cell_formula_units_Z 4
loop_
_atom_type_symbol
_atom_type_radius_bond
C 0.68
H 0.23
N 0.68
O 0.68
loop_
_atom_site_label
_atom_site_type_symbol
_atom_site_fract_x
_atom_site_fract_y
_atom_site_fract_z
C1 C 0.7652(2) 0.53911(7) 0.36105(13)
C2 C 0.7990(2) 0.67410(7) 0.36068(15)
C3 C 0.8660(3) 0.66689(8) 0.22427(15)
H1 H 0.72560 0.66920 0.15270
H2 H 0.96450 0.70720 0.21270
C4 C 1.1554(3) 0.59404(8) 0.13045(14)
H3 H 1.19030 0.63470 0.08570
C5 C 1.2662(3) 0.52948(8) 0.11699(14)
H4 H 1.37790 0.52680 0.06530
C6 C 1.2075(2) 0.46956(7) 0.18163(13)
C7 C 1.0435(2) 0.47108(7) 0.25982(13)
H5 H 1.00520 0.42970 0.30150
C8 C 0.9371(2) 0.53674(7) 0.27418(12)
C9 C 0.9923(2) 0.59838(7) 0.21048(13)
C10 C 1.0066(3) 0.68808(8) 0.47591(16)
H6 H 0.95660 0.68900 0.55960
H7 H 1.07520 0.73350 0.46250
H8 H 1.12000 0.65060 0.47890
C11 C 0.6172(3) 0.73411(8) 0.35087(19)
H9 H 0.48230 0.72260 0.28130
H10 H 0.68290 0.77870 0.32940
H11 H 0.57270 0.73860 0.43580
N1 N 0.6880(2) 0.60494(6) 0.38233(13)
N2 N 1.3238(2) 0.40117(7) 0.16643(13)
O1 O 0.69294(19) 0.48475(5) 0.40857(11)
O2 O 0.5448(2) 0.61049(6) 0.47313(13)
H12 H 0.51290 0.57020 0.49610
O3 O 1.4723(3) 0.40057(7) 0.09958(16)
O4 O 1.2691(3) 0.34788(6) 0.22078(16)
#END
