
#######################################################################
#
#                 Cambridge Crystallographic Data Centre
#                                CCDC
#
#######################################################################
#
# If this CIF has been generated from an entry in the Cambridge
# Structural Database, then it will include bibliographic, chemical,
# crystal, experimental, refinement or atomic coordinate data resulting
# from the CCDC's data processing and validation procedures.
#
#######################################################################

data_CSD_CIF_LOCVAB
_audit_creation_date 2008-12-19
_audit_creation_method CSD-ConQuest-V1
_database_code_CSD LOCVAB
_database_code_depnum_ccdc_archive 'CCDC 282904'
_chemical_formula_sum 'C6 H7 N5 O1'
_chemical_formula_moiety
;
C6 H7 N5 O1
;
_journal_coden_Cambridge 493
_journal_volume 41
_journal_year 2006
_journal_page_first 1073
_journal_name_full 'Eur.J.Med.Chem. '
loop_
_publ_author_name
"L.Oresmaa"
"H.Kotikoski"
"M.Haukka"
"O.Oksala"
"E.Pohjala"
"H.Vapaatalo"
"E.Moilanen"
"P.Vainiotalo"
"P.Aulaskari"
_chemical_name_systematic
;
(Z)-1-Methyl-5-cyanoimidazole-4-carboxamide oxime
;
_cell_volume    728.195
_exptl_crystal_colour 'colorless'
_exptl_crystal_density_diffrn 1.507
_exptl_special_details
;
no significant effect on intraocular pressure in rabbits

;
_exptl_crystal_description 'needle'
_exptl_crystal_preparation 'methanol'
_diffrn_ambient_temperature 120
#These two values have been output from a single CSD field.
_refine_ls_R_factor_gt 0.039
_refine_ls_wR_factor_gt 0.039
_symmetry_cell_setting monoclinic
_symmetry_space_group_name_H-M 'P 21/n'
_symmetry_Int_Tables_number 14
loop_
_symmetry_equiv_pos_site_id
_symmetry_equiv_pos_as_xyz
1 x,y,z
2 1/2-x,1/2+y,1/2-z
3 -x,-y,-z
4 -1/2+x,-1/2-y,-1/2+z
_cell_length_a 7.3667(4)
_cell_length_b 9.4433(6)
_cell_length_c 10.7573(5)
_cell_angle_alpha 90
_cell_angle_beta 103.325(4)
_cell_angle_gamma 90
_cell_formula_units_Z 4
loop_
_atom_type_symbol
_atom_type_radius_bond
C 0.68
H 0.23
N 0.68
O 0.68
loop_
_atom_site_label
_atom_site_type_symbol
_atom_site_fract_x
_atom_site_fract_y
_atom_site_fract_z
C1 C 0.1907(2) 0.02856(17) 0.41403(15)
C2 C 0.3670(2) 0.10165(17) 0.59394(15)
H1 H 0.44130 0.16130 0.65680
C3 C 0.2198(2) -0.08054(17) 0.50139(14)
C4 C 0.0872(2) 0.03922(17) 0.28563(16)
C5 C 0.2979(3) 0.28347(18) 0.41766(16)
H2 H 0.17760 0.33200 0.40680
H3 H 0.32810 0.27200 0.33420
H4 H 0.39530 0.33980 0.47360
C6 C 0.1495(2) -0.22649(17) 0.48384(14)
N1 N 0.28673(19) 0.14398(14) 0.47508(12)
N2 N 0.33092(19) -0.03335(14) 0.61395(12)
N3 N 0.0060(2) 0.05463(16) 0.18170(15)
N4 N 0.1933(2) -0.31685(17) 0.58522(15)
N5 N 0.0451(2) -0.25613(14) 0.37260(12)
O1 O -0.01209(18) -0.40023(12) 0.37005(11)
H5 H -0.074(3) -0.414(3) 0.283(2)
H6 H 0.289(3) -0.297(2) 0.647(2)
H7 H 0.168(3) -0.408(3) 0.567(2)
#END
