
#######################################################################
#
#                 Cambridge Crystallographic Data Centre
#                                CCDC
#
#######################################################################
#
# If this CIF has been generated from an entry in the Cambridge
# Structural Database, then it will include bibliographic, chemical,
# crystal, experimental, refinement or atomic coordinate data resulting
# from the CCDC's data processing and validation procedures.
#
#######################################################################

data_CSD_CIF_LOJHID
_audit_creation_date 2014-07-24
_audit_creation_method CSD-ConQuest-V1
_database_code_CSD LOJHID
_database_code_depnum_ccdc_archive 'CCDC 994872'
_chemical_formula_sum 'C34 H27 N5 O4'
_chemical_formula_moiety
;
C34 H27 N5 O4
;
_journal_coden_Cambridge 1500
_journal_volume 4
_journal_year 2014
_journal_page_first 32303
_journal_name_full 'RSC Advances '
loop_
_publ_author_name
"R.A.Maurya"
"R.Nayak"
"C.N.Reddy"
"J.S.Kapure"
"J.B.Nanubolu"
"K.K.Singarapu"
"M.Ajitha"
"A.kamal"
_chemical_name_systematic
;
(1'S,2'S,3S,7a'S)-1'-(4-nitrophenyl)-2'-(4-oxo-3-phenyl-3,4-dihydroquinazolin-
2-yl)-1',2',5',6',7',7a'-hexahydrospiro[indoline-3,3'-pyrrolizin]-2-one
;
_chemical_name_common
;
1'-(4-nitrophenyl)-2'-(4-oxo-3-phenyl-3,4-dihydroquinazolin-2-yl)-1',2',5',6',
7',7a'-hexahydrospiro[indole-3,3'-pyrrolizin]-2(1H)-one
;
_cell_volume   2807.656
_exptl_crystal_colour 'orange'
_exptl_crystal_density_diffrn 1.348
_exptl_crystal_description 'rectangle'
_diffrn_ambient_temperature 293
#These two values have been output from a single CSD field.
_refine_ls_R_factor_gt 0.0384
_refine_ls_wR_factor_gt 0.0384
_symmetry_cell_setting monoclinic
_symmetry_space_group_name_H-M 'P 21/c'
_symmetry_Int_Tables_number 14
loop_
_symmetry_equiv_pos_site_id
_symmetry_equiv_pos_as_xyz
1 x,y,z
2 -x,1/2+y,1/2-z
3 -x,-y,-z
4 x,-1/2-y,-1/2+z
_cell_length_a 15.9316(13)
_cell_length_b 11.8821(10)
_cell_length_c 15.2579(12)
_cell_angle_alpha 90
_cell_angle_beta 103.574(1)
_cell_angle_gamma 90
_cell_formula_units_Z 4
loop_
_atom_type_symbol
_atom_type_radius_bond
C 0.68
H 0.23
N 0.68
O 0.68
loop_
_atom_site_label
_atom_site_type_symbol
_atom_site_fract_x
_atom_site_fract_y
_atom_site_fract_z
C1 C 0.16209(9) 0.02788(13) 0.01911(10)
C2 C 0.13938(9) -0.09064(13) 0.01469(10)
C3 C 0.07950(11) -0.13422(16) -0.05925(12)
H1 H 0.05410 -0.08730 -0.10690
C4 C 0.05812(11) -0.24560(17) -0.06170(13)
H2 H 0.01850 -0.27440 -0.11130
C5 C 0.09508(11) -0.31595(15) 0.00920(13)
H3 H 0.07930 -0.39140 0.00730
C6 C 0.15468(10) -0.27524(13) 0.08209(11)
H4 H 0.17980 -0.32320 0.12910
C7 C 0.17769(9) -0.16158(12) 0.08557(9)
C8 C 0.25411(8) -0.01655(11) 0.16705(9)
C9 C 0.23629(9) 0.18024(11) 0.11094(9)
C10 C 0.3079(1) 0.22545(13) 0.08871(10)
H5 H 0.34750 0.17920 0.07000
C11 C 0.32034(12) 0.34074(15) 0.09461(12)
H6 H 0.36890 0.37220 0.08040
C12 C 0.26192(14) 0.40824(15) 0.12113(14)
H7 H 0.26960 0.48590 0.12290
C13 C 0.19178(14) 0.36220(17) 0.14520(17)
H8 H 0.15300 0.40850 0.16510
C14 C 0.17848(12) 0.24760(15) 0.14013(14)
H9 H 0.13080 0.21630 0.15630
C15 C 0.31335(8) 0.02693(11) 0.25208(9)
H10 H 0.33670 0.09980 0.23920
C16 C 0.38902(9) -0.05432(12) 0.28760(9)
H11 H 0.36960 -0.13020 0.26710
C17 C 0.46661(9) -0.02762(12) 0.25121(10)
C18 C 0.48809(11) -0.09639(14) 0.18658(12)
H12 H 0.45440 -0.15930 0.16640
C19 C 0.55854(13) -0.07348(15) 0.15142(14)
H13 H 0.57190 -0.11940 0.10720
C20 C 0.60831(11) 0.01819(14) 0.18307(13)
C21 C 0.58891(10) 0.08995(14) 0.24619(12)
H14 H 0.62330 0.15230 0.26630
C22 C 0.51715(10) 0.06700(13) 0.27882(11)
H15 H 0.50220 0.11590 0.32030
C23 C 0.40219(9) -0.05159(12) 0.39129(9)
H16 H 0.44100 0.01000 0.41730
C24 C 0.43273(11) -0.16334(14) 0.43963(11)
H17 H 0.44680 -0.21780 0.39790
H18 H 0.48320 -0.15160 0.48860
C25 C 0.35650(12) -0.20317(16) 0.47542(13)
H19 H 0.35080 -0.28440 0.47150
H20 H 0.36260 -0.18020 0.53760
C26 C 0.28015(11) -0.14600(14) 0.41426(12)
H21 H 0.26360 -0.18310 0.35610
H22 H 0.23080 -0.14330 0.44130
C27 C 0.26892(9) 0.04172(11) 0.33437(9)
C28 C 0.17124(9) 0.03700(12) 0.31730(9)
C29 C 0.11118(9) -0.04365(13) 0.27989(10)
H23 H 0.12880 -0.11190 0.26030
C30 C 0.02426(10) -0.02160(15) 0.27190(11)
H24 H -0.01670 -0.07500 0.24580
C31 C -0.00210(11) 0.07852(16) 0.30223(12)
H25 H -0.06070 0.09140 0.29660
C32 C 0.05676(11) 0.16011(15) 0.34078(12)
H26 H 0.03890 0.22730 0.36190
C33 C 0.14285(10) 0.13828(13) 0.34679(10)
C34 C 0.28828(10) 0.16226(12) 0.37241(9)
H27 H 0.2086(11) 0.2738(15) 0.4024(12)
N1 N 0.21839(7) 0.06082(9) 0.10058(7)
N2 N 0.23775(7) -0.12253(10) 0.16065(7)
N3 N 0.68688(14) 0.03833(16) 0.15084(17)
N4 N 0.31543(8) -0.03306(10) 0.40650(8)
N5 N 0.21278(9) 0.20932(12) 0.37917(9)
O1 O 0.13546(8) 0.09713(10) -0.03991(7)
O2 O 0.69115(15) -0.00625(17) 0.08001(18)
O3 O 0.74260(11) 0.09980(16) 0.19557(15)
O4 O 0.35956(7) 0.20471(9) 0.39372(8)
#END
