
#######################################################################
#
#                 Cambridge Crystallographic Data Centre
#                                CCDC
#
#######################################################################
#
# If this CIF has been generated from an entry in the Cambridge
# Structural Database, then it will include bibliographic, chemical,
# crystal, experimental, refinement or atomic coordinate data resulting
# from the CCDC's data processing and validation procedures.
#
#######################################################################

data_CSD_CIF_LOLCOG
_audit_creation_date 2014-07-28
_audit_creation_method CSD-ConQuest-V1
_database_code_CSD LOLCOG
_database_code_depnum_ccdc_archive 'CCDC 951824'
_chemical_formula_sum 'C21 H18 N2 O4'
_chemical_formula_moiety
;
C21 H18 N2 O4
;
_journal_coden_Cambridge 1303
_journal_volume 381
_journal_year 2014
_journal_page_first 148
_journal_name_full 'J.Mol.Catal.A:Chem. '
loop_
_publ_author_name
"G.Romanowski"
"J.Kira"
"M.Wera"
_chemical_name_systematic
;
2-((2-hydroxy-1,2-diphenylethyl)carbonoimidoyl)-4-nitrophenol
;
_cell_volume    888.350
_exptl_crystal_colour 'yellow'
_exptl_crystal_density_diffrn 1.355
_exptl_crystal_description 'needle'
_diffrn_ambient_temperature 295
#These two values have been output from a single CSD field.
_refine_ls_R_factor_gt 0.0566
_refine_ls_wR_factor_gt 0.0566
_symmetry_cell_setting monoclinic
_symmetry_space_group_name_H-M 'P 21'
_symmetry_Int_Tables_number 4
loop_
_symmetry_equiv_pos_site_id
_symmetry_equiv_pos_as_xyz
1 x,y,z
2 -x,1/2+y,-z
_cell_length_a 8.621(2)
_cell_length_b 6.283(1)
_cell_length_c 16.404(3)
_cell_angle_alpha 90
_cell_angle_beta 91.17(3)
_cell_angle_gamma 90
_cell_formula_units_Z 2
loop_
_atom_type_symbol
_atom_type_radius_bond
C 0.68
H 0.23
N 0.68
O 0.68
loop_
_atom_site_label
_atom_site_type_symbol
_atom_site_fract_x
_atom_site_fract_y
_atom_site_fract_z
C1 C -0.0310(3) 0.6308(5) 0.13137(17)
C2 C -0.0091(3) 0.8536(5) 0.11523(16)
C3 C -0.1063(3) 0.9593(5) 0.06014(16)
H1 H -0.09020 1.10270 0.04900
C4 C -0.2265(3) 0.8518(5) 0.02199(16)
C5 C -0.2574(3) 0.6382(5) 0.03966(17)
H2 H -0.34100 0.56910 0.01460
C6 C -0.1639(4) 0.5328(5) 0.0938(2)
H3 H -0.18720 0.39240 0.10680
O1 O 0.0621(3) 0.5252(4) 0.17677(14)
H4 H 0.14850 0.52540 0.15680
N1 N -0.3242(3) 0.9621(5) -0.03656(15)
O2 O -0.4101(3) 0.8544(4) -0.08159(14)
O3 O -0.3190(3) 1.1559(4) -0.04043(14)
C7 C 0.1146(3) 0.9672(5) 0.15443(17)
H5 H 0.12510 1.11270 0.14590
N2 N 0.2125(3) 0.8682(4) 0.20191(14)
C8 C 0.3465(3) 0.9644(5) 0.24486(17)
H6 H 0.35230 1.11550 0.23040
C9 C 0.3269(3) 0.9447(5) 0.33616(18)
C10 C 0.3633(4) 1.1153(6) 0.3861(2)
H7 H 0.39950 1.24090 0.36320
C11 C 0.3466(4) 1.1017(7) 0.4696(2)
H8 H 0.37230 1.21710 0.50270
C12 C 0.2920(5) 0.9182(8) 0.5031(2)
H9 H 0.27930 0.90920 0.55920
C13 C 0.2564(5) 0.7485(7) 0.4549(2)
H10 H 0.22000 0.62370 0.47820
C14 C 0.2737(4) 0.7599(6) 0.3711(2)
H11 H 0.24950 0.64290 0.33850
C15 C 0.4917(3) 0.8493(5) 0.21291(18)
H12 H 0.50080 0.88010 0.15460
O4 O 0.4721(2) 0.6270(4) 0.22291(13)
H13 H 0.45580 0.57170 0.17830
C16 C 0.6383(3) 0.9246(5) 0.25693(18)
C17 C 0.6925(3) 1.1279(6) 0.2439(2)
H14 H 0.63960 1.21850 0.20820
C18 C 0.8267(4) 1.1971(6) 0.2844(2)
H15 H 0.86330 1.33420 0.27550
C19 C 0.9049(4) 1.0659(7) 0.3370(2)
H16 H 0.99450 1.11250 0.36390
C20 C 0.8501(4) 0.8652(7) 0.3496(2)
H17 H 0.90270 0.77500 0.38570
C21 C 0.7182(4) 0.7947(6) 0.3099(2)
H18 H 0.68280 0.65710 0.31910
#END
