
#######################################################################
#
#                 Cambridge Crystallographic Data Centre
#                                CCDC
#
#######################################################################
#
# If this CIF has been generated from an entry in the Cambridge
# Structural Database, then it will include bibliographic, chemical,
# crystal, experimental, refinement or atomic coordinate data resulting
# from the CCDC's data processing and validation procedures.
#
#######################################################################

data_CSD_CIF_LOLGAV
_audit_creation_date 2009-06-03
_audit_creation_method CSD-ConQuest-V1
_database_code_CSD LOLGAV
_database_code_depnum_ccdc_archive 'CCDC 679556'
_chemical_formula_sum 'C14 H10 N4 O2'
_chemical_formula_moiety
;
C14 H10 N4 O2
;
_journal_coden_Cambridge 1350
_journal_volume 11
_journal_year 2009
_journal_page_first 143
_journal_name_full 'CrystEngComm '
loop_
_publ_author_name
"C.V.Ramana"
"S.Chatterjee"
"K.A.Durugkar"
"R.G.Gonnade"
_chemical_name_systematic
;
4-Phenyl-1-(2-nitrophenyl)-1H-(1,2,3)-triazole
;
_cell_volume   1283.415
_exptl_crystal_colour 'red'
_exptl_crystal_density_diffrn 1.378
_exptl_special_details
;
Isostructural with the 4-(2-bromophenyl) and 4-(3-bromophenyl) analogues

;
_exptl_crystal_description 'block'
_diffrn_ambient_temperature 297
#These two values have been output from a single CSD field.
_refine_ls_R_factor_gt 0.0619
_refine_ls_wR_factor_gt 0.0619
_symmetry_cell_setting monoclinic
_symmetry_space_group_name_H-M 'P 21/n'
_symmetry_Int_Tables_number 14
loop_
_symmetry_equiv_pos_site_id
_symmetry_equiv_pos_as_xyz
1 x,y,z
2 1/2-x,1/2+y,1/2-z
3 -x,-y,-z
4 -1/2+x,-1/2-y,-1/2+z
_cell_length_a 12.180(4)
_cell_length_b 7.501(3)
_cell_length_c 14.277(5)
_cell_angle_alpha 90
_cell_angle_beta 100.286(7)
_cell_angle_gamma 90
_cell_formula_units_Z 4
loop_
_atom_type_symbol
_atom_type_radius_bond
C 0.68
H 0.23
N 0.68
O 0.68
loop_
_atom_site_label
_atom_site_type_symbol
_atom_site_fract_x
_atom_site_fract_y
_atom_site_fract_z
O1 O 0.69082(19) 0.1782(3) 0.32451(17)
O2 O 0.5724(2) 0.1838(3) 0.41958(16)
N1 N 0.58043(17) 0.0134(3) 0.15993(14)
N2 N 0.5140(2) 0.1600(3) 0.15057(17)
N3 N 0.5440(2) 0.2568(3) 0.08300(17)
N4 N 0.6154(2) 0.1130(3) 0.35831(16)
C1 C 0.6509(2) 0.0187(4) 0.09837(18)
C2 C 0.6286(2) 0.1748(3) 0.04925(18)
C3 C 0.6822(2) 0.2531(3) -0.02445(17)
C4 C 0.6785(3) 0.4383(4) -0.0400(2)
C5 C 0.7313(3) 0.5140(5) -0.1078(2)
C6 C 0.7896(3) 0.4089(5) -0.1604(2)
C7 C 0.7943(3) 0.2263(5) -0.1464(2)
C8 C 0.7402(3) 0.1501(4) -0.0793(2)
C9 C 0.5700(2) -0.1157(3) 0.23118(18)
C10 C 0.5469(2) -0.2919(3) 0.2055(2)
C11 C 0.5307(3) -0.4134(4) 0.2742(2)
C12 C 0.5345(3) -0.3625(4) 0.3666(2)
C13 C 0.5575(2) -0.1863(4) 0.3937(2)
C14 C 0.5776(2) -0.0674(3) 0.32556(18)
H1 H 0.705(2) -0.068(4) 0.0924(18)
H2 H 0.640(2) 0.504(4) -0.0042(19)
H3 H 0.729(3) 0.648(4) -0.118(2)
H4 H 0.826(2) 0.462(4) -0.204(2)
H5 H 0.831(3) 0.148(5) -0.182(2)
H6 H 0.742(2) 0.020(4) -0.0709(18)
H7 H 0.5418(19) -0.323(3) 0.1398(18)
H8 H 0.516(2) -0.535(4) 0.2523(19)
H9 H 0.521(2) -0.440(4) 0.414(2)
H10 H 0.562(2) -0.148(4) 0.459(2)
#END
