
#######################################################################
#
#                 Cambridge Crystallographic Data Centre
#                                CCDC
#
#######################################################################
#
# If this CIF has been generated from an entry in the Cambridge
# Structural Database, then it will include bibliographic, chemical,
# crystal, experimental, refinement or atomic coordinate data resulting
# from the CCDC's data processing and validation procedures.
#
#######################################################################

data_CSD_CIF_LUFVAJ
_audit_creation_date 2003-01-08
_audit_creation_method CSD-ConQuest-V1
_database_code_CSD LUFVAJ
_database_code_depnum_ccdc_archive 'CCDC 190133'
_chemical_formula_sum 'C22 H28 N2 O5'
_chemical_formula_moiety
;
C22 H28 N2 O5
;
_journal_coden_Cambridge 4
_journal_volume 124
_journal_year 2002
_journal_page_first 11689
_journal_name_full 'J.Am.Chem.Soc. '
loop_
_publ_author_name
"T.A.Johnson"
"Doo Ok Jang"
"B.W.Slafer"
"M.D.Curtis"
"P.Beak"
_chemical_name_systematic
;
N-(4-Methoxyphenyl)-N-(2-methyl-3-nitro-1-phenylpropyl)carbamic acid t-butyl 
ester
;
_chemical_melting_point 398
_cell_volume   2173.536
_exptl_crystal_colour 'colorless'
_exptl_crystal_density_diffrn 1.224
_exptl_special_details
;
Melting point range 398-399K

;
_exptl_crystal_description 'prism'
_exptl_crystal_preparation 'diethyl ether/petroleum ether'
_diffrn_ambient_temperature 299
#These two values have been output from a single CSD field.
_refine_ls_R_factor_gt 0.0612
_refine_ls_wR_factor_gt 0.0612
_symmetry_cell_setting orthorhombic
_symmetry_space_group_name_H-M 'P 21 21 21'
_symmetry_Int_Tables_number 19
loop_
_symmetry_equiv_pos_site_id
_symmetry_equiv_pos_as_xyz
1 x,y,z
2 1/2-x,-y,1/2+z
3 -x,1/2+y,1/2-z
4 1/2+x,1/2-y,-z
_cell_length_a 6.2638(2)
_cell_length_b 14.9140(3)
_cell_length_c 23.2667(5)
_cell_angle_alpha 90
_cell_angle_beta 90
_cell_angle_gamma 90
_cell_formula_units_Z 4
loop_
_atom_type_symbol
_atom_type_radius_bond
C 0.68
H 0.23
N 0.68
O 0.68
loop_
_atom_site_label
_atom_site_type_symbol
_atom_site_fract_x
_atom_site_fract_y
_atom_site_fract_z
C1 C 0.0141(4) 0.41792(13) 0.07317(9)
H1 H -0.109(5) 0.4344(18) 0.0517(12)
C2 C 0.1940(5) 0.39783(14) 0.03007(10)
H2 H 0.327(6) 0.3826(19) 0.0512(13)
C3 C 0.2485(6) 0.48301(17) -0.00309(12)
H3 H 0.144(6) 0.500(2) -0.0251(15)
H4 H 0.302(6) 0.537(2) 0.0224(13)
C4 C 0.1253(5) 0.32447(19) -0.01179(12)
H5 H -0.015(5) 0.340(2) -0.0302(13)
H6 H 0.102(5) 0.2663(17) 0.0086(14)
H7 H 0.232(5) 0.314(2) -0.0424(12)
C5 C -0.0391(5) 0.33930(14) 0.11234(10)
C6 C 0.1077(6) 0.27460(19) 0.12846(14)
H8 H 0.274(8) 0.280(3) 0.1154(17)
C7 C 0.0500(8) 0.2068(2) 0.16627(17)
H9 H 0.154(7) 0.169(3) 0.1784(17)
C8 C -0.1524(8) 0.2035(2) 0.18847(16)
H10 H -0.183(10) 0.155(3) 0.217(2)
C9 C -0.3006(7) 0.2666(3) 0.17310(15)
H11 H -0.460(12) 0.270(4) 0.195(3)
C10 C -0.2431(5) 0.33399(19) 0.13434(13)
H12 H -0.362(7) 0.379(3) 0.1271(18)
C11 C 0.2056(4) 0.49929(12) 0.15519(9)
C12 C 0.4045(5) 0.53644(18) 0.14847(11)
H13 H 0.455(9) 0.561(3) 0.1086(19)
C13 C 0.5438(5) 0.54158(19) 0.19483(12)
H14 H 0.688(8) 0.571(3) 0.1894(18)
C14 C 0.4835(5) 0.50780(15) 0.24777(10)
C15 C 0.2841(5) 0.47110(17) 0.25497(11)
H15 H 0.217(7) 0.451(3) 0.2926(15)
C16 C 0.1445(5) 0.46653(16) 0.20871(11)
H16 H 0.001(7) 0.441(2) 0.2147(14)
C17 C 0.5687(7) 0.4967(3) 0.34760(15)
H17 H 0.455(5) 0.533(2) 0.3561(14)
H18 H 0.681(5) 0.509(2) 0.3711(11)
H19 H 0.532(5) 0.4380(19) 0.3496(12)
C18 C -0.0470(5) 0.57682(14) 0.09221(10)
C19 C -0.0388(5) 0.73810(14) 0.11318(11)
C20 C 0.0608(7) 0.78700(19) 0.16380(16)
H20 H -0.007(6) 0.764(2) 0.2003(13)
H21 H 0.035(6) 0.8530(19) 0.1583(13)
H22 H 0.220(5) 0.773(2) 0.1637(16)
C21 C -0.2718(7) 0.7564(2) 0.10827(19)
H23 H -0.340(6) 0.722(2) 0.0788(13)
H24 H -0.303(6) 0.8181(18) 0.0999(14)
H25 H -0.349(6) 0.744(2) 0.1429(13)
C22 C 0.0782(7) 0.7583(2) 0.05803(16)
H26 H 0.228(5) 0.745(2) 0.0607(13)
H27 H 0.065(6) 0.8203(19) 0.0478(14)
H28 H 0.022(6) 0.723(2) 0.0268(11)
N1 N 0.0550(3) 0.49948(11) 0.10815(8)
N2 N 0.4322(4) 0.46913(15) -0.04305(10)
O1 O 0.5843(4) 0.4228(2) -0.02751(12)
O2 O 0.4248(5) 0.50664(18) -0.08966(11)
O3 O 0.6340(4) 0.51711(17) 0.29040(9)
O4 O -0.1643(4) 0.58330(12) 0.05044(8)
O5 O -0.0014(3) 0.64326(10) 0.12881(7)
#END
