
#######################################################################
#
#                 Cambridge Crystallographic Data Centre
#                                CCDC
#
#######################################################################
#
# If this CIF has been generated from an entry in the Cambridge
# Structural Database, then it will include bibliographic, chemical,
# crystal, experimental, refinement or atomic coordinate data resulting
# from the CCDC's data processing and validation procedures.
#
#######################################################################

data_CSD_CIF_LUHWEQ
_audit_creation_date 2003-01-08
_audit_creation_method CSD-ConQuest-V1
_database_code_CSD LUHWEQ
_chemical_formula_sum 'C15 H18 N6 O3'
_chemical_formula_moiety
;
C15 H18 N6 O3
;
_journal_coden_Cambridge 388
_journal_volume 38
_journal_year 2002
_journal_page_first 294
_journal_name_full 'Zh.Org.Khim.(Russ.)(Russ.J.Org.Chem.) '
loop_
_publ_author_name
"E.N.Ulomsky"
"S.L.Deev"
"A.V.Tkachev"
"I.K.Moiseev"
"V.L.Rusinov"
_chemical_name_systematic
;
1-Adamantyl-7-methyl-3-nitro-1,4-dihydro-1,2,4-triazolo(5,1-c)-1,2,4-triazin-4
-one
;
_chemical_melting_point 543.15
_cell_volume   2997.374
_exptl_crystal_density_diffrn 1.464
_exptl_special_details
;
Melting point range 543.15-546.15K
potential anticancer activity

;
_diffrn_ambient_temperature 293
#These two values have been output from a single CSD field.
_refine_ls_R_factor_gt 0.047
_refine_ls_wR_factor_gt 0.047
_symmetry_cell_setting orthorhombic
_symmetry_space_group_name_H-M 'P b c a'
_symmetry_Int_Tables_number 61
loop_
_symmetry_equiv_pos_site_id
_symmetry_equiv_pos_as_xyz
1 x,y,z
2 1/2-x,-y,1/2+z
3 1/2+x,1/2-y,-z
4 -x,1/2+y,1/2-z
5 -x,-y,-z
6 -1/2+x,y,-1/2-z
7 -1/2-x,-1/2+y,z
8 x,-1/2-y,-1/2+z
_cell_length_a 20.437(5)
_cell_length_b 12.650(3)
_cell_length_c 11.594(3)
_cell_angle_alpha 90
_cell_angle_beta 90
_cell_angle_gamma 90
_cell_formula_units_Z 8
loop_
_atom_type_symbol
_atom_type_radius_bond
C 0.68
H 0.23
N 0.68
O 0.68
loop_
_atom_site_label
_atom_site_type_symbol
_atom_site_fract_x
_atom_site_fract_y
_atom_site_fract_z
O1 O 0.5420(1) 0.8625(1) 0.0117(1)
O2 O 0.4853(1) 0.6959(2) -0.1158(2)
O3 O 0.4012(1) 0.7635(2) -0.1989(2)
N1 N 0.3670(1) 0.8305(1) 0.0138(1)
N2 N 0.3505(1) 0.8906(1) 0.1029(1)
N3 N 0.3935(1) 1.0124(1) 0.2463(1)
N4 N 0.5009(1) 0.9961(1) 0.1952(1)
N5 N 0.4623(1) 0.9326(1) 0.1276(1)
N6 N 0.4381(1) 0.7536(2) -0.1165(2)
C1 C 0.4851(1) 0.8696(1) 0.0379(2)
C2 C 0.4278(1) 0.8206(1) -0.0152(2)
C3 C 0.3983(1) 0.9453(1) 0.1609(2)
C4 C 0.4576(1) 1.0413(2) 0.2639(2)
C5 C 0.4773(1) 1.1173(2) 0.3537(2)
C6 C 0.2786(1) 0.8992(1) 0.1338(2)
C7 C 0.2687(1) 0.8645(2) 0.2593(2)
C8 C 0.1960(1) 0.8765(2) 0.2908(2)
C9 C 0.1753(1) 0.9912(2) 0.2752(2)
C10 C 0.1845(1) 1.0241(2) 0.1496(2)
C11 C 0.2571(1) 1.0145(1) 0.1170(2)
C12 C 0.1438(1) 0.9530(2) 0.0707(2)
C13 C 0.1657(1) 0.8381(2) 0.0871(2)
C14 C 0.2385(1) 0.8276(2) 0.0544(2)
C15 C 0.1549(1) 0.8057(2) 0.2123(2)
H1 H 0.52300 1.12600 0.35100
H2 H 0.45600 1.18400 0.34000
H3 H 0.46400 1.09100 0.42800
H4 H 0.29400 0.90700 0.30900
H5 H 0.28200 0.79200 0.26900
H6 H 0.18900 0.85600 0.36900
H7 H 0.20100 1.03500 0.32400
H8 H 0.13000 0.99900 0.29600
H9 H 0.17000 1.09600 0.14000
H10 H 0.26300 1.03400 0.03700
H11 H 0.28300 1.06000 0.16400
H12 H 0.15000 0.97300 -0.00800
H13 H 0.09800 0.96000 0.08800
H14 H 0.14000 0.79300 0.03800
H15 H 0.25200 0.75500 0.06200
H16 H 0.24400 0.84800 -0.02400
H17 H 0.10900 0.81100 0.23200
H18 H 0.16700 0.73300 0.22200
#END
