
#######################################################################
#
#                 Cambridge Crystallographic Data Centre
#                                CCDC
#
#######################################################################
#
# If this CIF has been generated from an entry in the Cambridge
# Structural Database, then it will include bibliographic, chemical,
# crystal, experimental, refinement or atomic coordinate data resulting
# from the CCDC's data processing and validation procedures.
#
#######################################################################

data_CSD_CIF_LUKFIH
_audit_creation_date 2010-06-17
_audit_creation_method CSD-ConQuest-V1
_database_code_CSD LUKFIH
_database_code_depnum_ccdc_archive 'CCDC 712771'
_chemical_formula_sum 'C22 H15 N5 O6'
_chemical_formula_moiety
;
C22 H15 N5 O6
;
_journal_coden_Cambridge 35
_journal_volume 74
_journal_year 2009
_journal_page_first 3305
_journal_name_full 'J.Org.Chem. '
loop_
_publ_author_name
"P.Rodriguez-Dafonte"
"F.Terrier"
"S.Lakhdar"
"S.Kurbatov"
"R.Goumont"
_chemical_name_systematic
;
7-(1-Benzyl-2-methyl-1H-indol-3-yl)-4,6-dinitro-2,1,3-benzoxadiazole 1-oxide
;
_cell_volume   1969.880
_exptl_crystal_colour 'dark red'
_exptl_crystal_density_diffrn 1.502
_exptl_crystal_description 'stick'
_diffrn_ambient_temperature 293
#These two values have been output from a single CSD field.
_refine_ls_R_factor_gt 0.056
_refine_ls_wR_factor_gt 0.056
_symmetry_cell_setting monoclinic
_symmetry_space_group_name_H-M 'P 21/c'
_symmetry_Int_Tables_number 14
loop_
_symmetry_equiv_pos_site_id
_symmetry_equiv_pos_as_xyz
1 x,y,z
2 -x,1/2+y,1/2-z
3 -x,-y,-z
4 x,-1/2-y,-1/2+z
_cell_length_a 7.957(4)
_cell_length_b 24.80(3)
_cell_length_c 10.408(14)
_cell_angle_alpha 90
_cell_angle_beta 106.44(8)
_cell_angle_gamma 90
_cell_formula_units_Z 4
loop_
_atom_type_symbol
_atom_type_radius_bond
C 0.68
H 0.23
N 0.68
O 0.68
loop_
_atom_site_label
_atom_site_type_symbol
_atom_site_fract_x
_atom_site_fract_y
_atom_site_fract_z
N1 N 0.2809(3) 0.40255(10) 0.7541(2)
N2 N 0.1143(3) 0.23885(11) 0.8391(3)
N3 N 0.0778(4) 0.14874(12) 0.7891(3)
N4 N 0.2756(5) 0.08913(11) 0.6267(3)
N5 N 0.5664(4) 0.25753(13) 0.6017(3)
O1 O 0.0236(3) 0.19107(11) 0.8549(3)
O2 O 0.0912(3) 0.27847(10) 0.8996(2)
O3 O 0.1556(4) 0.06548(10) 0.6531(3)
O4 O 0.3766(5) 0.06946(10) 0.5722(3)
O5 O 0.7123(3) 0.23858(11) 0.6277(3)
O6 O 0.5177(4) 0.29630(11) 0.5298(3)
C1 C 0.0264(4) 0.34393(13) 0.6489(3)
H1 H -0.04170 0.35150 0.70960
H2 H 0.00820 0.30720 0.61950
H3 H -0.00910 0.36750 0.57290
C2 C 0.2152(4) 0.35262(12) 0.7183(3)
C3 C 0.3516(3) 0.31601(12) 0.7468(3)
C4 C 0.6870(4) 0.33158(12) 0.8611(3)
H4 H 0.72370 0.29600 0.86050
C5 C 0.8037(4) 0.37150(13) 0.9170(3)
H5 H 0.92090 0.36270 0.95490
C6 C 0.7514(4) 0.42431(13) 0.9183(3)
H6 H 0.83410 0.45050 0.95660
C7 C 0.5799(4) 0.43923(12) 0.8642(3)
H7 H 0.54500 0.47500 0.86500
C8 C 0.4615(4) 0.39929(12) 0.8088(3)
C9 C 0.5112(4) 0.34568(11) 0.8047(3)
C10 C 0.1822(4) 0.45280(12) 0.7414(3)
H8 H 0.20430 0.46930 0.82910
H9 H 0.05800 0.44480 0.70940
C11 C 0.2290(4) 0.49211(12) 0.6474(3)
C12 C 0.2583(4) 0.54514(14) 0.6838(4)
H10 H 0.24800 0.55670 0.76630
C13 C 0.3035(5) 0.58184(15) 0.5974(5)
H11 H 0.32420 0.61780 0.62250
C14 C 0.3172(5) 0.56510(18) 0.4773(5)
H12 H 0.34950 0.58930 0.42040
C15 C 0.2839(5) 0.51294(17) 0.4398(4)
H13 H 0.29070 0.50170 0.35620
C16 C 0.2402(4) 0.47672(14) 0.5242(4)
H14 H 0.21780 0.44110 0.49720
C17 C 0.2977(4) 0.14540(12) 0.6632(3)
C18 C 0.4210(4) 0.17481(12) 0.6299(3)
H15 H 0.49640 0.15810 0.58840
C19 C 0.4378(4) 0.23007(12) 0.6565(3)
C20 C 0.3359(3) 0.25941(11) 0.7186(3)
C21 C 0.2150(4) 0.22578(12) 0.7593(3)
C22 C 0.1919(4) 0.17043(12) 0.7340(3)
#END
