
#######################################################################
#
#                 Cambridge Crystallographic Data Centre
#                                CCDC
#
#######################################################################
#
# If this CIF has been generated from an entry in the Cambridge
# Structural Database, then it will include bibliographic, chemical,
# crystal, experimental, refinement or atomic coordinate data resulting
# from the CCDC's data processing and validation procedures.
#
#######################################################################

data_CSD_CIF_LURZED
_audit_creation_date 2003-04-28
_audit_creation_method CSD-ConQuest-V1
_database_code_CSD LURZED
_database_code_depnum_ccdc_archive 'CCDC 186132'
_chemical_formula_sum 'C9 H20 N4 O4'
_chemical_formula_moiety
;
C9 H20 N4 O4
;
_journal_coden_Cambridge 119
_journal_volume 644
_journal_year 2003
_journal_page_first 37
_journal_name_full 'J.Mol.Struct. '
loop_
_publ_author_name
"D.Spitzer"
"B.Wanders"
"M.R.Schafer"
"R.Welter"
_chemical_name_systematic
;
5,7-Dinitro-5,7-diazaundecane
;
_chemical_melting_point 346
_cell_volume   2675.658
_exptl_crystal_colour 'colorless'
_exptl_crystal_density_diffrn 1.233
_exptl_crystal_description 'prism'
_exptl_crystal_preparation 'ethanol'
_diffrn_ambient_temperature 183
#These two values have been output from a single CSD field.
_refine_ls_R_factor_gt 0.0539
_refine_ls_wR_factor_gt 0.0539
_symmetry_cell_setting monoclinic
_symmetry_space_group_name_H-M 'C 2/c'
_symmetry_Int_Tables_number 15
loop_
_symmetry_equiv_pos_site_id
_symmetry_equiv_pos_as_xyz
1 x,y,z
2 1/2+x,1/2+y,z
3 x,-y,1/2+z
4 1/2+x,1/2-y,1/2+z
5 -x,-y,-z
6 -1/2-x,-1/2-y,-z
7 -x,y,-1/2-z
8 -1/2-x,-1/2+y,-1/2-z
_cell_length_a 26.817(5)
_cell_length_b 9.413(5)
_cell_length_c 11.155(5)
_cell_angle_alpha 90
_cell_angle_beta 108.155(5)
_cell_angle_gamma 90
_cell_formula_units_Z 8
loop_
_atom_type_symbol
_atom_type_radius_bond
C 0.68
H 0.23
N 0.68
O 0.68
loop_
_atom_site_label
_atom_site_type_symbol
_atom_site_fract_x
_atom_site_fract_y
_atom_site_fract_z
O1 O 0.32753(5) 0.11454(16) 0.43066(11)
O2 O 0.18067(6) -0.27549(16) 0.57717(13)
O3 O 0.24405(5) 0.12498(14) 0.41252(11)
O4 O 0.26531(6) -0.24538(14) 0.64987(12)
N1 N 0.21379(6) -0.05997(16) 0.58136(13)
N2 N 0.28998(6) 0.09324(17) 0.46977(13)
N3 N 0.29936(5) 0.02673(17) 0.58153(12)
N4 N 0.22023(7) -0.20108(18) 0.60481(14)
C1 C 0.25814(7) 0.0302(2) 0.64077(15)
H1 H 0.27300 0.00180 0.72830
H2 H 0.24580 0.12730 0.63980
C2 C 0.13633(7) 0.0251(2) 0.63945(17)
H3 H 0.13320 -0.06410 0.68020
H4 H 0.15910 0.08710 0.70250
C3 C 0.16085(7) -0.0025(2) 0.53591(16)
H5 H 0.13880 -0.06840 0.47560
H6 H 0.16170 0.08600 0.49190
C4 C 0.35302(7) -0.0126(2) 0.65212(15)
H7 H 0.37040 -0.04780 0.59360
H8 H 0.35220 -0.08940 0.70950
C5 C 0.38484(7) 0.1090(2) 0.72716(18)
H9 H 0.39150 0.17840 0.66970
H10 H 0.36490 0.15540 0.77510
C6 C 0.08288(8) 0.0925(3) 0.5884(2)
H11 H 0.06050 0.03140 0.52390
H12 H 0.08630 0.18240 0.54910
C7 C 0.05704(9) 0.1183(3) 0.6892(2)
H13 H 0.02310 0.16010 0.65160
H14 H 0.07840 0.18160 0.75180
H15 H 0.05330 0.02970 0.72800
C8 C 0.43632(10) 0.0575(3) 0.8161(2)
H16 H 0.45680 0.01490 0.76750
H17 H 0.42950 -0.01540 0.87040
C9 C 0.46811(12) 0.1760(4) 0.8973(3)
H18 H 0.50040 0.13800 0.95230
H19 H 0.44830 0.21750 0.94680
H20 H 0.47570 0.24740 0.84410
#END
