
#######################################################################
#
#                 Cambridge Crystallographic Data Centre
#                                CCDC
#
#######################################################################
#
# If this CIF has been generated from an entry in the Cambridge
# Structural Database, then it will include bibliographic, chemical,
# crystal, experimental, refinement or atomic coordinate data resulting
# from the CCDC's data processing and validation procedures.
#
#######################################################################

data_CSD_CIF_LUWFOA
_audit_creation_date 2015-10-07
_audit_creation_method CSD-ConQuest-V1
_database_code_CSD LUWFOA
_database_code_depnum_ccdc_archive 'CCDC 1009050'
_chemical_formula_sum 'C17 H19 N3 O5'
_chemical_formula_moiety
;
C17 H19 N3 O5
;
_journal_coden_Cambridge 177
_journal_volume 13
_journal_year 2015
_journal_page_first 10609
_journal_name_full 'Org.Biomol.Chem. '
loop_
_publ_author_name
"P.Disetti"
"M.Moccia"
"D.S.Illera"
"S.Suresh"
"M.F.A.Adamo"
_chemical_name_systematic
;
(2S,3S)-Ethyl 
4-(3-methyl-4-nitroisoxazol-5-yl)-3-phenyl-2,3-dihydro-1H-pyrrole-2-carboxylat
e
;
_chemical_melting_point 327
_cell_volume   1602.408
_exptl_crystal_colour 'colorless'
_exptl_crystal_density_diffrn 1.432
_exptl_special_details
;
The assignment of hydrogens to the nitrogen atoms in the crystal structure is 
incorrect
;
_exptl_crystal_description 'needles'
_exptl_crystal_preparation 'diethyl ether'
_diffrn_ambient_temperature 293
#These two values have been output from a single CSD field.
_refine_ls_R_factor_gt 0.0333
_refine_ls_wR_factor_gt 0.0333
_symmetry_cell_setting orthorhombic
_symmetry_space_group_name_H-M 'P 21 21 21'
_symmetry_Int_Tables_number 19
loop_
_symmetry_equiv_pos_site_id
_symmetry_equiv_pos_as_xyz
1 x,y,z
2 1/2-x,-y,1/2+z
3 1/2+x,1/2-y,-z
4 -x,1/2+y,1/2-z
_cell_length_a 7.0673(14)
_cell_length_b 14.647(3)
_cell_length_c 15.480(3)
_cell_angle_alpha 90
_cell_angle_beta 90
_cell_angle_gamma 90
_cell_formula_units_Z 4
loop_
_atom_type_symbol
_atom_type_radius_bond
C 0.68
H 0.23
N 0.68
O 0.68
loop_
_atom_site_label
_atom_site_type_symbol
_atom_site_fract_x
_atom_site_fract_y
_atom_site_fract_z
O1 O 1.2447(2) 0.28172(10) 0.03068(9)
O2 O 1.0284(2) 0.24953(8) 0.13260(8)
O3 O 0.63617(17) 0.53858(8) -0.02523(8)
O4 O 1.10471(19) 0.70525(9) -0.05667(9)
O5 O 0.9020(2) 0.79443(9) -0.12006(9)
N1 N 1.2216(2) 0.46786(11) 0.07277(10)
N2 N 0.5111(2) 0.59558(10) -0.07416(10)
N3 N 0.9426(2) 0.72253(10) -0.08219(9)
C1 C 0.6328(3) 0.35877(13) 0.15388(12)
H1 H 0.65310 0.30620 0.12150
C2 C 0.4995(3) 0.35803(14) 0.21980(12)
H2 H 0.43370 0.30470 0.23230
C3 C 0.4643(3) 0.43643(15) 0.26689(12)
H3 H 0.37560 0.43580 0.31130
C4 C 0.5616(3) 0.51590(15) 0.24774(12)
H4 H 0.53570 0.56910 0.27830
C5 C 0.6980(3) 0.51651(14) 0.18293(12)
H5 H 0.76400 0.57000 0.17090
C6 C 0.7364(3) 0.43747(12) 0.13585(11)
C7 C 1.0864(3) 0.40318(12) 0.10842(11)
H6 H 1.08180 0.40960 0.17140
C8 C 1.1331(2) 0.30540(12) 0.08488(11)
C9 C 0.8116(3) 0.57619(12) -0.02227(11)
C10 C 0.7993(3) 0.65830(12) -0.06808(11)
C11 C 0.6100(3) 0.66519(12) -0.09833(11)
C12 C 0.5195(3) 0.73661(13) -0.15270(12)
H7 H 0.38880 0.72150 -0.16160
H8 H 0.58290 0.73980 -0.20750
H9 H 0.52850 0.79460 -0.12410
C13 C 0.8912(3) 0.43391(11) 0.06806(11)
H10 H 0.85480 0.38970 0.02350
C14 C 0.9448(3) 0.52398(12) 0.02390(11)
C15 C 1.1372(3) 0.53545(12) 0.03009(12)
H11 H 1.20160 0.58510 0.00700
C16 C 1.0402(3) 0.15203(12) 0.11294(12)
H12 H 1.15970 0.12730 0.13300
H13 H 1.03080 0.14210 0.05110
C17 C 0.8786(4) 0.10702(14) 0.15868(15)
H14 H 0.89440 0.11380 0.21990
H15 H 0.87590 0.04330 0.14420
H16 H 0.76200 0.13510 0.14120
H17? H 1.34220 0.46300 0.07860
H18? H 0.46620 0.56520 -0.12040
H19? H 0.41270 0.61360 -0.04140
#END
