
#######################################################################
#
#                 Cambridge Crystallographic Data Centre
#                                CCDC
#
#######################################################################
#
# If this CIF has been generated from an entry in the Cambridge
# Structural Database, then it will include bibliographic, chemical,
# crystal, experimental, refinement or atomic coordinate data resulting
# from the CCDC's data processing and validation procedures.
#
#######################################################################

data_CSD_CIF_MADMEL
_audit_creation_date 2011-03-25
_audit_creation_method CSD-ConQuest-V1
_database_code_CSD MADMEL
_database_code_depnum_ccdc_archive 'CCDC 756240'
_chemical_formula_sum 'C11 H15 N1 O3'
_chemical_formula_moiety
;
C11 H15 N1 O3
;
_journal_coden_Cambridge 1291
_journal_year 2010
_journal_page_first 5884
_journal_name_full 'Eur.J.Org.Chem. '
loop_
_publ_author_name
"H.Trabulsi"
"R.Guillot"
"G.Rousseau"
_chemical_name_systematic
;
1-((1-Oxaspiro[4.5]dec-3-en-2-ylideneamino)oxy)ethanone
;
_cell_volume   1105.966
_exptl_crystal_colour 'colorless'
_exptl_crystal_density_diffrn 1.257
_exptl_crystal_description 'plate'
_diffrn_ambient_temperature 100
#These two values have been output from a single CSD field.
_refine_ls_R_factor_gt 0.0452
_refine_ls_wR_factor_gt 0.0452
_symmetry_cell_setting monoclinic
_symmetry_space_group_name_H-M 'P 21/n'
_symmetry_Int_Tables_number 14
loop_
_symmetry_equiv_pos_site_id
_symmetry_equiv_pos_as_xyz
1 x,y,z
2 1/2-x,1/2+y,1/2-z
3 -x,-y,-z
4 -1/2+x,-1/2-y,-1/2+z
_cell_length_a 9.6440(17)
_cell_length_b 10.170(2)
_cell_length_c 11.373(2)
_cell_angle_alpha 90
_cell_angle_beta 97.480(4)
_cell_angle_gamma 90
_cell_formula_units_Z 4
loop_
_atom_type_symbol
_atom_type_radius_bond
C 0.68
H 0.23
N 0.68
O 0.68
loop_
_atom_site_label
_atom_site_type_symbol
_atom_site_fract_x
_atom_site_fract_y
_atom_site_fract_z
C1 C 0.39851(9) 0.78255(9) 0.84996(8)
C2 C 0.28951(10) 0.80293(9) 1.01690(8)
C3 C 0.35851(11) 0.67497(10) 1.02330(9)
H1 H 0.35740 0.61300 1.08330
C4 C 0.42325(10) 0.66333(10) 0.92742(9)
H2 H 0.47660 0.59110 0.91070
C5 C 0.31204(10) 0.75211(9) 0.73056(9)
H3 H 0.22370 0.71320 0.74420
H4 H 0.36160 0.68840 0.68810
C6 C 0.28368(10) 0.87558(10) 0.65433(9)
H5 H 0.23520 0.85130 0.57730
H6 H 0.22370 0.93460 0.69180
C7 C 0.41958(11) 0.94613(11) 0.63825(10)
H7 H 0.39830 1.02640 0.59350
H8 H 0.47530 0.89050 0.59340
C8 C 0.50338(11) 0.97948(10) 0.75775(10)
H9 H 0.45170 1.04250 0.79900
H10 H 0.59140 1.01970 0.74490
C9 C 0.53244(10) 0.85663(10) 0.83450(9)
H11 H 0.59460 0.79880 0.79810
H12 H 0.57930 0.88200 0.91180
C10 C 0.11136(10) 1.03439(10) 1.15392(9)
C11 C 0.07298(11) 1.17395(11) 1.12273(10)
H13 H -0.02040 1.19100 1.13940
H14 H 0.07780 1.18820 1.03990
H15 H 0.13690 1.23210 1.16890
N1 N 0.21833(9) 0.84478(8) 1.09743(8)
O1 O 0.31234(7) 0.86741(7) 0.91800(6)
O2 O 0.16961(7) 0.97612(7) 1.06507(6)
O3 O 0.09564(10) 0.98110(8) 1.24530(8)
#END
