
#######################################################################
#
#                 Cambridge Crystallographic Data Centre
#                                CCDC
#
#######################################################################
#
# If this CIF has been generated from an entry in the Cambridge
# Structural Database, then it will include bibliographic, chemical,
# crystal, experimental, refinement or atomic coordinate data resulting
# from the CCDC's data processing and validation procedures.
#
#######################################################################

data_CSD_CIF_MAMBUY
_audit_creation_date 2005-08-04
_audit_creation_method CSD-ConQuest-V1
_database_code_CSD MAMBUY
_database_code_depnum_ccdc_archive 'CCDC 243280'
_chemical_formula_sum 'C13 H12 N2 O3'
_chemical_formula_moiety
;
C13 H12 N2 O3
;
_journal_coden_Cambridge 493
_journal_volume 40
_journal_year 2005
_journal_page_first 391
_journal_name_full 'Eur.J.Med.Chem. '
loop_
_publ_author_name
"H.Poschenrieder"
"H.-D.Stachel"
"G.Hofner"
"P.Mayer"
_chemical_name_systematic
;
(Z)-2-Benzylidene-5-methoxy-4-methylnitronyl-2,4-dihydropyrrol-3-one
;
_chemical_melting_point 412.15
_cell_volume    585.812
_exptl_crystal_colour 'orange-red'
_exptl_crystal_density_diffrn 1.385
_exptl_crystal_description 'platelet'
_diffrn_ambient_temperature 200
#These two values have been output from a single CSD field.
_refine_ls_R_factor_gt 0.0437
_refine_ls_wR_factor_gt 0.0437
_symmetry_cell_setting triclinic
_symmetry_space_group_name_H-M 'P -1'
_symmetry_Int_Tables_number 2
loop_
_symmetry_equiv_pos_site_id
_symmetry_equiv_pos_as_xyz
1 x,y,z
2 -x,-y,-z
_cell_length_a 4.5344(2)
_cell_length_b 11.4755(5)
_cell_length_c 11.9738(7)
_cell_angle_alpha 73.3569(16)
_cell_angle_beta 82.5614(17)
_cell_angle_gamma 80.022(2)
_cell_formula_units_Z 2
loop_
_atom_type_symbol
_atom_type_radius_bond
C 0.68
H 0.23
N 0.68
O 0.68
loop_
_atom_site_label
_atom_site_type_symbol
_atom_site_fract_x
_atom_site_fract_y
_atom_site_fract_z
O1 O -0.2655(3) 0.53217(11) 0.09492(11)
O2 O -0.2899(3) 0.29164(13) 0.23364(13)
O3 O 0.2828(3) 0.40474(12) 0.43238(12)
N1 N 0.0149(3) 0.62999(14) 0.18008(14)
N2 N -0.1166(3) 0.31681(14) 0.29591(14)
C1 C -0.0994(4) 0.53472(16) 0.17746(16)
C2 C -0.0285(4) 0.42595(16) 0.27374(17)
C3 C 0.1617(4) 0.46446(17) 0.34431(17)
C4 C 0.1739(4) 0.59601(16) 0.28114(16)
C5 C -0.3177(5) 0.64705(19) 0.00359(19)
H1 H -0.444(4) 0.6318(18) -0.0515(18)
H2 H -0.111(5) 0.6734(19) -0.0397(19)
H3 H -0.415(5) 0.715(2) 0.038(2)
C6 C -0.0151(7) 0.2162(2) 0.3966(2)
H4 H -0.121(7) 0.146(3) 0.402(3)
H5 H -0.046(8) 0.241(3) 0.462(3)
H6 H 0.187(10) 0.190(4) 0.393(4)
C7 C 0.3204(4) 0.66699(18) 0.32008(18)
H7 H 0.418(4) 0.6272(17) 0.3923(18)
C8 C 0.3537(4) 0.79680(17) 0.27259(17)
C9 C 0.5217(5) 0.84664(19) 0.3327(2)
H8 H 0.608(5) 0.7950(19) 0.399(2)
C10 C 0.5606(5) 0.9688(2) 0.2945(2)
H9 H 0.686(5) 1.001(2) 0.340(2)
C11 C 0.4357(5) 1.0435(2) 0.1954(2)
H10 H 0.458(5) 1.129(2) 0.165(2)
C12 C 0.2710(5) 0.9962(2) 0.1340(2)
H11 H 0.186(5) 1.047(2) 0.064(2)
C13 C 0.2284(5) 0.87400(19) 0.17241(19)
H12 H 0.110(5) 0.841(2) 0.1285(19)
#END
