
#######################################################################
#
#                 Cambridge Crystallographic Data Centre
#                                CCDC
#
#######################################################################
#
# If this CIF has been generated from an entry in the Cambridge
# Structural Database, then it will include bibliographic, chemical,
# crystal, experimental, refinement or atomic coordinate data resulting
# from the CCDC's data processing and validation procedures.
#
#######################################################################

data_CSD_CIF_MAXPOR
_audit_creation_date 2006-03-02
_audit_creation_method CSD-ConQuest-V1
_database_code_CSD MAXPOR
_database_code_depnum_ccdc_archive 'CCDC 291143'
_chemical_formula_sum 'C25 H22 N2 O4'
_chemical_formula_moiety
;
C25 H22 N2 O4
;
_journal_coden_Cambridge 1147
_journal_volume 5
_journal_year 2005
_journal_page_first 2036
_journal_name_full 'Cryst.Growth Des. '
loop_
_publ_author_name
"M.W.Vary"
"J.M.McBride"
_chemical_name_systematic
;
6-methoxy-3',3'-dimethyl-8-nitro-1'-phenyl-1',3'-dihydrospiro(chromene-2,2'-in
dole)
;
_chemical_melting_point 439.15
_cell_volume   2144.023
_exptl_crystal_colour 'yellow'
_exptl_crystal_density_diffrn 1.284
_exptl_special_details
;
Melting point range 439.15-441.15K

;
_exptl_crystal_description 'prism'
_exptl_crystal_preparation 'ethanol/ethyl acetate'
_diffrn_ambient_temperature 296
#These two values have been output from a single CSD field.
_refine_ls_R_factor_gt 0.058
_refine_ls_wR_factor_gt 0.058
_symmetry_cell_setting monoclinic
_symmetry_space_group_name_H-M 'P 21/c'
_symmetry_Int_Tables_number 14
loop_
_symmetry_equiv_pos_site_id
_symmetry_equiv_pos_as_xyz
1 x,y,z
2 -x,1/2+y,1/2-z
3 -x,-y,-z
4 x,-1/2-y,-1/2+z
_cell_length_a 8.179(5)
_cell_length_b 15.831(3)
_cell_length_c 16.908(7)
_cell_angle_alpha 90
_cell_angle_beta 101.67(4)
_cell_angle_gamma 90
_cell_formula_units_Z 4
loop_
_atom_type_symbol
_atom_type_radius_bond
C 0.68
H 0.23
N 0.68
O 0.68
loop_
_atom_site_label
_atom_site_type_symbol
_atom_site_fract_x
_atom_site_fract_y
_atom_site_fract_z
O1 O 0.1628(3) 0.0445(2) 0.1849(1)
O2 O -0.1726(3) -0.1081(2) 0.0436(2)
O3 O -0.1234(3) -0.0261(2) 0.1431(2)
O4 O 0.3704(3) -0.1692(2) -0.0332(2)
N1 N 0.2128(4) 0.1710(2) 0.2554(2)
N2 N -0.0765(4) -0.0656(2) 0.0905(2)
C1 C 0.2831(4) 0.0882(2) 0.2492(2)
C2 C 0.2671(5) 0.0457(3) 0.3311(2)
C3 C 0.1163(5) 0.0906(3) 0.3483(2)
C4 C 0.0927(4) 0.1655(2) 0.3046(2)
C5 C -0.0362(5) 0.2206(3) 0.3105(2)
C6 C -0.1406(5) 0.1977(3) 0.3630(3)
C7 C -0.1187(5) 0.1239(3) 0.4061(3)
C8 C 0.0106(5) 0.0695(3) 0.3989(2)
C9 C 0.4198(5) 0.0699(3) 0.3964(2)
C10 C 0.2493(6) -0.0503(3) 0.3242(3)
C11 C 0.2267(5) 0.2392(2) 0.2027(2)
C12 C 0.2348(5) 0.3211(3) 0.2332(2)
C13 C 0.2453(6) 0.3879(3) 0.1822(3)
C14 C 0.2518(6) 0.3754(3) 0.1027(3)
C15 C 0.2468(6) 0.2941(3) 0.0731(2)
C16 C 0.2331(5) 0.2258(3) 0.1224(2)
C17 C 0.4546(4) 0.0900(3) 0.2312(2)
C18 C 0.4991(4) 0.0413(3) 0.1763(2)
C19 C 0.3809(4) -0.0154(2) 0.1255(2)
C20 C 0.2140(4) -0.0111(2) 0.1341(2)
C21 C 0.0997(4) -0.0623(2) 0.0847(2)
C22 C 0.1453(4) -0.1160(2) 0.0268(2)
C23 C 0.3089(5) -0.1193(2) 0.0200(2)
C24 C 0.4264(4) -0.0692(3) 0.0701(2)
C25 C 0.2522(6) -0.2137(3) -0.0920(3)
H1 H 0.182(5) -0.174(3) -0.126(2)
H2 H 0.320(5) -0.241(3) -0.125(3)
H3 H 0.193(5) -0.255(3) -0.062(2)
H4 H 0.056(3) -0.150(2) -0.004(2)
H5 H 0.540(3) -0.072(2) 0.064(2)
H6 H 0.605(4) 0.042(2) 0.166(2)
H7 H 0.532(4) 0.130(2) 0.264(2)
H8 H 0.406(4) 0.052(2) 0.449(2)
H9 H 0.521(4) 0.045(2) 0.388(2)
H10 H 0.434(4) 0.135(2) 0.402(2)
H11 H 0.350(5) -0.074(3) 0.309(2)
H12 H 0.251(4) -0.073(2) 0.376(2)
H13 H 0.140(4) -0.067(2) 0.284(2)
H14 H 0.025(4) 0.020(2) 0.430(2)
H15 H -0.191(5) 0.107(2) 0.443(2)
H16 H -0.230(4) 0.236(2) 0.364(2)
H17 H -0.055(4) 0.270(2) 0.278(2)
H18 H 0.229(4) 0.167(2) 0.101(2)
H19 H 0.251(4) 0.284(2) 0.017(2)
H20 H 0.262(4) 0.422(2) 0.066(2)
H21 H 0.241(4) 0.445(2) 0.203(2)
H22 H 0.238(4) 0.331(2) 0.293(2)
#END
