
#######################################################################
#
#                 Cambridge Crystallographic Data Centre
#                                CCDC
#
#######################################################################
#
# If this CIF has been generated from an entry in the Cambridge
# Structural Database, then it will include bibliographic, chemical,
# crystal, experimental, refinement or atomic coordinate data resulting
# from the CCDC's data processing and validation procedures.
#
#######################################################################

data_CSD_CIF_MAYKAB
_audit_creation_date 2017-08-25
_audit_creation_method CSD-ConQuest-V1
_database_code_CSD MAYKAB
_database_code_depnum_ccdc_archive 'CCDC 1553871'
_chemical_formula_sum 'C13 H20 N2 O5'
_chemical_formula_moiety
;
C13 H20 N2 O5
;
_journal_coden_Cambridge 1336
_journal_volume 19
_journal_year 2017
_journal_page_first 4403
_journal_name_full 'Org.Lett. '
loop_
_publ_author_name
"S.S.Prasad"
"S.Senthilkumar"
"A.Srivastava"
"S.Baskaran"
_chemical_name_systematic
;
1-[2,2-dimethyl-6-(nitromethyl)-5-(prop-2-yn-1-yl)tetrahydro-2H,3aH-[1,3]dioxo
lo[4,5-c]pyrrol-4-yl]ethan-1-ol
;
_cell_volume   1470.047
_exptl_crystal_colour 'colorless'
_exptl_crystal_density_diffrn 1.285
_exptl_crystal_description 'Block'
_diffrn_ambient_temperature 296
#These two values have been output from a single CSD field.
_refine_ls_R_factor_gt 0.03
_refine_ls_wR_factor_gt 0.03
_symmetry_cell_setting orthorhombic
_symmetry_space_group_name_H-M 'P 21 21 21'
_symmetry_Int_Tables_number 19
loop_
_symmetry_equiv_pos_site_id
_symmetry_equiv_pos_as_xyz
1 x,y,z
2 1/2-x,-y,1/2+z
3 -x,1/2+y,1/2-z
4 1/2+x,1/2-y,-z
_cell_length_a 8.0363(2)
_cell_length_b 9.9816(2)
_cell_length_c 18.3263(5)
_cell_angle_alpha 90
_cell_angle_beta 90
_cell_angle_gamma 90
_cell_formula_units_Z 4
loop_
_atom_type_symbol
_atom_type_radius_bond
C 0.68
H 0.23
N 0.68
O 0.68
loop_
_atom_site_label
_atom_site_type_symbol
_atom_site_fract_x
_atom_site_fract_y
_atom_site_fract_z
C1 C 0.4109(2) 0.74356(17) 0.88435(9)
H1 H 0.36400 0.78710 0.92760
C2 C 0.1928(2) 0.69692(17) 0.79994(10)
H2 H 0.09690 0.71300 0.83180
C3 C 0.2689(2) 0.56176(17) 0.82038(10)
H3 H 0.33760 0.52550 0.78080
C4 C 0.1574(3) 0.4546(2) 0.9218(1)
C5 C 0.3723(2) 0.59430(17) 0.88743(10)
H4 H 0.47310 0.53940 0.89060
C6 C 0.5972(2) 0.7765(2) 0.87965(11)
H5 H 0.61080 0.87400 0.87790
C7 C 0.6823(3) 0.7154(3) 0.81404(14)
H6 H 0.68220 0.61960 0.81850
H7 H 0.79500 0.74710 0.81140
H8 H 0.62390 0.74080 0.77050
C8 C 0.2673(2) 0.93235(17) 0.82344(11)
H9 H 0.23090 0.96130 0.77550
H10 H 0.36110 0.98780 0.83740
C9 C 0.1308(3) 0.95397(19) 0.87591(12)
C10 C 0.0209(3) 0.9608(3) 0.91772(14)
H11 H -0.06640 0.96630 0.95090
C11 C 0.1361(2) 0.7128(2) 0.72082(11)
H12 H 0.06820 0.63660 0.70690
H13 H 0.06880 0.79310 0.71620
C12 C -0.0120(3) 0.4691(3) 0.95560(14)
H14 H -0.05930 0.55350 0.94160
H15 H -0.00230 0.46520 1.00780
H16 H -0.08250 0.39770 0.93900
C13 C 0.2414(4) 0.3234(2) 0.93987(15)
H17 H 0.25350 0.31560 0.99180
H18 H 0.34920 0.32080 0.91730
H19 H 0.17500 0.25060 0.92190
N1 N 0.32253(17) 0.79269(14) 0.81884(8)
N2 N 0.2832(2) 0.72233(19) 0.67115(9)
O1 O 0.67832(19) 0.72658(17) 0.94308(9)
O2 O 0.3543(3) 0.6196(2) 0.65452(10)
O3 O 0.3260(3) 0.83300(18) 0.65084(10)
O4 O 0.14627(19) 0.46823(14) 0.84370(7)
O5 O 0.25623(16) 0.56571(12) 0.94511(6)
H20 H 0.683(6) 0.783(4) 0.977(2)
#END
