
#######################################################################
#
#                 Cambridge Crystallographic Data Centre
#                                CCDC
#
#######################################################################
#
# If this CIF has been generated from an entry in the Cambridge
# Structural Database, then it will include bibliographic, chemical,
# crystal, experimental, refinement or atomic coordinate data resulting
# from the CCDC's data processing and validation procedures.
#
#######################################################################

data_CSD_CIF_MAYSUB
_audit_creation_date 2006-03-02
_audit_creation_method CSD-ConQuest-V1
_database_code_CSD MAYSUB
_database_code_depnum_ccdc_archive 'CCDC 238318'
_chemical_formula_sum 'C22 H22 N2 O1'
_chemical_formula_moiety
;
C22 H22 N2 O1
;
_journal_coden_Cambridge 35
_journal_volume 70
_journal_year 2005
_journal_page_first 9115
_journal_name_full 'J.Org.Chem. '
loop_
_publ_author_name
"M.Mazik"
"D.Blaser"
"R.Boese"
_chemical_name_systematic
;
2-Phenyl-1-(4-quinolyl)-1-hepten-3-one oxime
;
_chemical_melting_point 442.15
_cell_volume   1818.881
_exptl_crystal_colour 'colorless'
_exptl_crystal_density_diffrn 1.207
_exptl_special_details
;
Melting point range 442.15-443.15K

;
_exptl_crystal_description 'block'
_exptl_crystal_preparation 'ethanol'
_diffrn_ambient_temperature 293
#These two values have been output from a single CSD field.
_refine_ls_R_factor_gt 0.0627
_refine_ls_wR_factor_gt 0.0627
_symmetry_cell_setting monoclinic
_symmetry_space_group_name_H-M 'P 21/c'
_symmetry_Int_Tables_number 14
loop_
_symmetry_equiv_pos_site_id
_symmetry_equiv_pos_as_xyz
1 x,y,z
2 -x,1/2+y,1/2-z
3 -x,-y,-z
4 x,-1/2-y,-1/2+z
_cell_length_a 5.5190(8)
_cell_length_b 19.713(4)
_cell_length_c 16.914(2)
_cell_angle_alpha 90
_cell_angle_beta 98.725(7)
_cell_angle_gamma 90
_cell_formula_units_Z 4
loop_
_atom_type_symbol
_atom_type_radius_bond
C 0.68
H 0.23
N 0.68
O 0.68
loop_
_atom_site_label
_atom_site_type_symbol
_atom_site_fract_x
_atom_site_fract_y
_atom_site_fract_z
C1 C -0.2207(4) 0.33698(10) 0.82706(12)
C2 C -0.1006(3) 0.29238(10) 0.77399(11)
C3 C 0.0036(4) 0.31951(11) 0.71460(11)
H1 H -0.00840 0.36790 0.71030
C4 C 0.1337(4) 0.28689(10) 0.65547(11)
C5 C 0.0905(4) 0.22121(11) 0.63008(13)
H2 H -0.02570 0.19410 0.65260
C6 C 0.2161(4) 0.19405(11) 0.57172(13)
H3 H 0.18160 0.14800 0.55570
N1 N 0.3786(3) 0.22675(9) 0.53739(10)
C7 C 0.5973(4) 0.32870(12) 0.52149(13)
H4 H 0.67880 0.30590 0.48310
C8 C 0.6459(4) 0.39491(13) 0.53932(14)
H5 H 0.76200 0.41890 0.51300
C9 C 0.5284(5) 0.42785(12) 0.59582(14)
H6 H 0.56230 0.47480 0.60730
C10 C 0.3649(4) 0.39432(11) 0.63458(13)
H7 H 0.28760 0.41770 0.67360
C11 C 0.3057(3) 0.32535(10) 0.61787(11)
C12 C 0.4247(4) 0.29275(11) 0.55948(11)
N2 N -0.3168(3) 0.30542(9) 0.88106(10)
O1 O -0.4180(3) 0.34999(8) 0.93096(10)
H8 H -0.49130 0.31960 0.96490
C13 C -0.2139(4) 0.41314(10) 0.82134(13)
H9 H -0.35360 0.43170 0.84110
H10 H -0.22310 0.42620 0.76650
C14 C 0.0199(5) 0.44239(11) 0.86915(15)
H11 H 0.15900 0.42550 0.84760
H12 H 0.03300 0.42720 0.92330
C15 C 0.0303(5) 0.51786(12) 0.86900(17)
H13 H -0.10080 0.53490 0.89450
H14 H 0.00430 0.53320 0.81470
C16 C 0.2678(5) 0.54619(14) 0.91123(18)
H15 H 0.28950 0.53270 0.96620
H16 H 0.26850 0.59470 0.90790
H17 H 0.39890 0.52820 0.88650
C17 C -0.0975(4) 0.21839(10) 0.79471(11)
C18 C 0.1044(4) 0.19055(11) 0.84186(13)
H18 H 0.24430 0.21860 0.85950
C19 C 0.1025(5) 0.12319(12) 0.86493(16)
H19 H 0.24540 0.10420 0.89650
C20 C -0.0976(6) 0.08390(13) 0.84127(16)
H20 H -0.09830 0.03760 0.85860
C21 C -0.2983(5) 0.11040(13) 0.79472(16)
H21 H -0.43760 0.08220 0.77680
C22 C -0.2994(4) 0.17806(12) 0.77147(14)
H22 H -0.44190 0.19740 0.73990
#END
