
#######################################################################
#
#                 Cambridge Crystallographic Data Centre
#                                CCDC
#
#######################################################################
#
# If this CIF has been generated from an entry in the Cambridge
# Structural Database, then it will include bibliographic, chemical,
# crystal, experimental, refinement or atomic coordinate data resulting
# from the CCDC's data processing and validation procedures.
#
#######################################################################

data_CSD_CIF_MAYVAL
_audit_creation_date 2013-02-01
_audit_creation_method CSD-ConQuest-V1
_database_code_CSD MAYVAL
_database_code_depnum_ccdc_archive 'CCDC 824255'
_chemical_formula_sum 'C17 H26 N2 O2'
_chemical_formula_moiety
;
C17 H26 N2 O2
;
_journal_coden_Cambridge 151
_journal_volume 54
_journal_year 2011
_journal_page_first 6843
_journal_name_full 'J.Med.Chem. '
loop_
_publ_author_name
"T.A.Wencewicz"
"B.Yang"
"J.R.Rudloff"
"A.G.Oliver"
"M.J.Miller"
_chemical_name_systematic
;
6-((6-Ethylpyridin-2-yl)(hydroxy)amino)-3,7-dimethylocta-2,7-dien-1-ol
;
_cell_volume    845.026
_exptl_crystal_colour 'colorless'
_exptl_crystal_density_diffrn 1.141
_exptl_special_details
;
anti-M. luteus activity

;
_exptl_crystal_description 'block'
_diffrn_ambient_temperature 200
#These two values have been output from a single CSD field.
_refine_ls_R_factor_gt 0.0435
_refine_ls_wR_factor_gt 0.0435
_symmetry_cell_setting triclinic
_symmetry_space_group_name_H-M 'P -1'
_symmetry_Int_Tables_number 2
loop_
_symmetry_equiv_pos_site_id
_symmetry_equiv_pos_as_xyz
1 x,y,z
2 -x,-y,-z
_cell_length_a 8.7695(3)
_cell_length_b 9.2936(3)
_cell_length_c 11.3422(4)
_cell_angle_alpha 102.466(2)
_cell_angle_beta 108.736(2)
_cell_angle_gamma 94.007(2)
_cell_formula_units_Z 2
loop_
_atom_type_symbol
_atom_type_radius_bond
C 0.68
H 0.23
N 0.68
O 0.68
loop_
_atom_site_label
_atom_site_type_symbol
_atom_site_fract_x
_atom_site_fract_y
_atom_site_fract_z
O1 O -0.09777(12) 0.23473(11) 0.07017(10)
H1 H -0.15190 0.22700 -0.00750
O2 O 0.75090(12) 0.25282(12) -0.17294(10)
H2 H 0.79500 0.30590 -0.20780
N1 N 0.05824(14) 0.59512(13) 0.28262(12)
N2 N 0.00483(13) 0.37548(13) 0.12322(11)
C1 C 0.0204(2) 0.68794(17) 0.37525(16)
C2 C -0.1116(2) 0.6493(2) 0.40998(18)
H3 H -0.13500 0.71520 0.47640
C3 C -0.2080(2) 0.5137(2) 0.34641(18)
H4 H -0.29970 0.48600 0.36830
C4 C -0.17262(18) 0.41800(18) 0.25154(16)
H5 H -0.23900 0.32430 0.20680
C5 C -0.03591(16) 0.46268(15) 0.22275(13)
C6 C 0.17771(15) 0.35521(15) 0.15008(13)
H6 H 0.24260 0.45740 0.18220
C7 C 0.20254(16) 0.28388(17) 0.02437(13)
H7 H 0.16710 0.34650 -0.03690
H8 H 0.13420 0.18470 -0.01420
C8 C 0.38128(17) 0.26653(17) 0.04643(14)
H9 H 0.44980 0.36430 0.09360
H10 H 0.41270 0.19650 0.10160
C9 C 0.41666(17) 0.21052(16) -0.07533(14)
C10 C 0.52519(17) 0.29203(16) -0.10271(14)
H11 H 0.57440 0.38500 -0.04250
C11 C 0.57923(18) 0.25562(18) -0.21617(15)
H12 H 0.52110 0.15730 -0.27290
H13 H 0.55340 0.33150 -0.26600
C12 C 0.23965(17) 0.27593(18) 0.25557(14)
C13 C 0.3420(2) 0.3533(2) 0.36914(16)
H14 H 0.38150 0.30540 0.43660
H15 H 0.37610 0.45680 0.38320
C14 C 0.1825(3) 0.1134(2) 0.2285(2)
H16 H 0.24660 0.07460 0.29970
H17 H 0.19620 0.06100 0.14860
H18 H 0.06720 0.09770 0.21940
C15 C 0.3237(3) 0.0616(2) -0.1574(2)
H19 H 0.38080 0.01780 -0.21460
H20 H 0.21430 0.07410 -0.20900
H21 H 0.31530 -0.00430 -0.10240
C16 C 0.1288(2) 0.83671(19) 0.43803(19)
H22 H 0.12660 0.89030 0.37110
H23 H 0.08460 0.89700 0.49920
C17 C 0.3019(3) 0.8237(2) 0.50860(19)
H24 H 0.36830 0.92250 0.53930
H25 H 0.34390 0.75750 0.45050
H26 H 0.30680 0.78260 0.58210
#END
