
#######################################################################
#
#                 Cambridge Crystallographic Data Centre
#                                CCDC
#
#######################################################################
#
# If this CIF has been generated from an entry in the Cambridge
# Structural Database, then it will include bibliographic, chemical,
# crystal, experimental, refinement or atomic coordinate data resulting
# from the CCDC's data processing and validation procedures.
#
#######################################################################

data_CSD_CIF_MAYXOZ
_audit_creation_date 2000-10-02
_audit_creation_method CSD-ConQuest-V1
_database_code_CSD MAYXOZ
_database_code_depnum_ccdc_archive 'CCDC 147284'
_database_code_depnum_ccdc_journal 188/248
_chemical_formula_sum 'C13 H16 N1 O3'
_chemical_formula_moiety
;
C13 H16 N1 O3
;
_journal_coden_Cambridge 188
_journal_year 2000
_journal_page_first 1285
_journal_name_full 'J.Chem.Soc.,Perkin Trans.2 '
loop_
_publ_author_name
"S.E.Bottle"
"D.G.Gillies"
"D.L.Hughes"
"A.S.Micallef"
"A.I.Smirnov"
"L.H.Sutcliffe"
_chemical_name_systematic
;
5-Carboxy-1,1,3,3-tetramethylisoindolin-2-yloxyl
;
_chemical_melting_point 487.15
_cell_volume   1263.761
_exptl_crystal_colour 'pale yellow'
_exptl_crystal_density_diffrn 1.231
_exptl_special_details
;
Melts with decomposition.

;
_exptl_crystal_description 'irregular blocks'
_exptl_crystal_preparation 'acetonitrile'
_diffrn_ambient_temperature ?
_diffrn_special_details
;
The study was carried out at room temperature,in the range 283-303K

;
#These two values have been output from a single CSD field.
_refine_ls_R_factor_gt 0.0326
_refine_ls_wR_factor_gt 0.0326
_symmetry_cell_setting orthorhombic
_symmetry_space_group_name_H-M 'P 21 21 21'
_symmetry_Int_Tables_number 19
loop_
_symmetry_equiv_pos_site_id
_symmetry_equiv_pos_as_xyz
1 x,y,z
2 1/2-x,-y,1/2+z
3 1/2+x,1/2-y,-z
4 -x,1/2+y,1/2-z
_cell_length_a 7.9732(7)
_cell_length_b 10.1799(12)
_cell_length_c 15.570(2)
_cell_angle_alpha 90
_cell_angle_beta 90
_cell_angle_gamma 90
_cell_formula_units_Z 4
loop_
_atom_type_symbol
_atom_type_radius_bond
C 0.68
H 0.23
N 0.68
O 0.68
loop_
_atom_site_label
_atom_site_type_symbol
_atom_site_fract_x
_atom_site_fract_y
_atom_site_fract_z
C1 C 0.1268(3) 0.1863(2) 0.39413(14)
C2 C -0.0017(3) 0.2450(2) 0.4408(2)
H1 H -0.0780(33) 0.1897(25) 0.4692(16)
C3 C -0.0146(3) 0.3799(2) 0.4459(2)
H2 H -0.1077(38) 0.4212(28) 0.4813(18)
C4 C 0.1026(3) 0.4557(2) 0.40331(15)
C5 C 0.2295(3) 0.3986(2) 0.35570(13)
C6 C 0.2435(3) 0.2630(2) 0.35093(15)
H3 H 0.323(3) 0.2223(21) 0.3209(15)
C7 C 0.1096(3) 0.6041(2) 0.40052(14)
C8 C 0.1400(4) 0.6635(3) 0.4887(2)
H4 H 0.1502(34) 0.7590(32) 0.4849(18)
H5 H 0.0378(43) 0.6418(29) 0.5274(20)
H6 H 0.2366(42) 0.622(3) 0.5177(20)
C9 C -0.0434(4) 0.6633(3) 0.3566(2)
H7 H -0.0584(37) 0.6213(28) 0.3007(19)
H8 H -0.0288(35) 0.7609(30) 0.3526(18)
H9 H -0.1406(45) 0.6466(31) 0.3933(20)
C10 C 0.3408(3) 0.5001(2) 0.31315(14)
C11 C 0.5216(3) 0.4942(3) 0.3434(2)
H10 H 0.5751(41) 0.4091(31) 0.3277(19)
H11 H 0.5811(40) 0.5669(29) 0.3199(19)
H12 H 0.5290(36) 0.4986(27) 0.4042(18)
C12 C 0.3301(4) 0.4947(3) 0.2157(2)
H13 H 0.3758(39) 0.4173(29) 0.1968(18)
H14 H 0.3889(40) 0.5679(28) 0.1938(18)
H15 H 0.2113(43) 0.5091(32) 0.1993(20)
C13 C 0.1316(3) 0.0404(2) 0.39169(14)
O1 O 0.2549(3) -0.0074(2) 0.34554(15)
H16 H 0.2549(42) -0.0916(33) 0.3438(19)
O2 O 0.0330(3) -0.0280(2) 0.42850(14)
N1 N 0.2594(3) 0.6217(2) 0.34561(13)
O3 O 0.3163(2) 0.73503(15) 0.32468(14)
#END
