
#######################################################################
#
#                 Cambridge Crystallographic Data Centre
#                                CCDC
#
#######################################################################
#
# If this CIF has been generated from an entry in the Cambridge
# Structural Database, then it will include bibliographic, chemical,
# crystal, experimental, refinement or atomic coordinate data resulting
# from the CCDC's data processing and validation procedures.
#
#######################################################################

data_CSD_CIF_MBZFZO
_audit_creation_date 1972-08-10
_audit_creation_method CSD-ConQuest-V1
_database_code_CSD MBZFZO
_chemical_formula_sum 'C7 H6 N2 O2'
_chemical_formula_moiety
;
C7 H6 N2 O2
;
_journal_coeditor_code "IUCr A08984"
_journal_coden_Cambridge 107
_journal_volume 28
_journal_year 1972
_journal_page_first 1116
_journal_name_full 'Acta Crystallogr.,Sect.B:Struct.Crystallogr.Cryst.Chem. '
loop_
_publ_author_name
"D.Britton"
"W.E.Noland"
_chemical_name_systematic
;
5-Methylbenzfurazan-1-oxide
;
_cell_volume    691.908
_exptl_crystal_density_diffrn 1.441
_diffrn_ambient_temperature ?
_diffrn_special_details
;
The study was carried out at room temperature,in the range 283-303K

;
_refine_special_details
;
HYDROGENS OF METHYL GROUP ARE DISORDERED.

;
#These two values have been output from a single CSD field.
_refine_ls_R_factor_gt 0.059
_refine_ls_wR_factor_gt 0.059
_symmetry_cell_setting monoclinic
_symmetry_space_group_name_H-M 'P 21/c'
_symmetry_Int_Tables_number 14
loop_
_symmetry_equiv_pos_site_id
_symmetry_equiv_pos_as_xyz
1 x,y,z
2 -x,1/2+y,1/2-z
3 -x,-y,-z
4 x,-1/2-y,-1/2+z
_cell_length_a 4.031(3)
_cell_length_b 15.042(7)
_cell_length_c 11.425(9)
_cell_angle_alpha 90
_cell_angle_beta 92.82(7)
_cell_angle_gamma 90
_cell_formula_units_Z 4
loop_
_atom_type_symbol
_atom_type_radius_bond
C 0.68
H 0.20
N 0.68
O 0.68
loop_
_atom_site_label
_atom_site_type_symbol
_atom_site_fract_x
_atom_site_fract_y
_atom_site_fract_z
C1 C -0.27370 0.12540 0.13970
C2 C -0.36580 0.19110 0.21850
C3 C -0.28080 0.28150 0.19760
C4 C -0.11510 0.30010 0.10100
C5 C -0.02330 0.23060 0.02120
C6 C -0.10070 0.14370 0.03860
C7 C -0.02120 0.39410 0.07070
H1 H -0.34900 0.33500 0.26000
H2 H 0.11300 0.24600 -0.05900
H3 H -0.03100 0.09100 -0.02300
N1 N -0.38310 0.04830 0.17920
N2 N -0.53060 0.15820 0.30670
O1 O -0.37600 -0.02990 0.14650
O2 O -0.54790 0.06760 0.28550
#END
