
#######################################################################
#
#                 Cambridge Crystallographic Data Centre
#                                CCDC
#
#######################################################################
#
# If this CIF has been generated from an entry in the Cambridge
# Structural Database, then it will include bibliographic, chemical,
# crystal, experimental, refinement or atomic coordinate data resulting
# from the CCDC's data processing and validation procedures.
#
#######################################################################

data_CSD_CIF_MEHCEI
_audit_creation_date 2006-06-13
_audit_creation_method CSD-ConQuest-V1
_database_code_CSD MEHCEI
_database_code_depnum_ccdc_archive 'CCDC 605057'
_chemical_formula_sum 'C19 H14 N4 O5'
_chemical_formula_moiety
;
C19 H14 N4 O5
;
_journal_coeditor_code "IUCr DN2013"
_journal_coden_Cambridge 1370
_journal_volume 62
_journal_year 2006
_journal_page_first o1623
_journal_name_full 'Acta Crystallogr.,Sect.E:Struct.Rep.Online '
loop_
_publ_author_name
"Heng-Yu Qian"
"Cheng Liu"
"Zhi-Gang Yin"
_chemical_name_systematic
;
3-(2-Furyl)-1-phenylprop-2-en-1-one 2,4-dinitrophenylhydrazone
;
_cell_volume   1821.979
_exptl_crystal_colour 'brown'
_exptl_crystal_density_diffrn 1.379
_exptl_crystal_description 'block'
_exptl_crystal_preparation 'dichloromethane'
_diffrn_ambient_temperature 291
#These two values have been output from a single CSD field.
_refine_ls_R_factor_gt 0.0439
_refine_ls_wR_factor_gt 0.0439
_symmetry_cell_setting monoclinic
_symmetry_space_group_name_H-M 'P 21/n'
_symmetry_Int_Tables_number 14
loop_
_symmetry_equiv_pos_site_id
_symmetry_equiv_pos_as_xyz
1 x,y,z
2 1/2-x,1/2+y,1/2-z
3 -x,-y,-z
4 -1/2+x,-1/2-y,-1/2+z
_cell_length_a 8.1605(5)
_cell_length_b 17.7094(11)
_cell_length_c 12.8041(8)
_cell_angle_alpha 90
_cell_angle_beta 100.058(1)
_cell_angle_gamma 90
_cell_formula_units_Z 4
loop_
_atom_type_symbol
_atom_type_radius_bond
C 0.68
H 0.23
N 0.68
O 0.68
loop_
_atom_site_label
_atom_site_type_symbol
_atom_site_fract_x
_atom_site_fract_y
_atom_site_fract_z
O1 O -0.2015(2) 0.67948(8) 0.72120(17)
O2 O -0.1931(3) 0.79863(9) 0.7206(2)
O3 O 0.21815(17) 0.93777(7) 0.58948(11)
O4 O 0.40617(16) 0.88133(7) 0.52170(12)
O5 O 0.23793(14) 0.26020(6) 0.58043(10)
N1 N -0.1333(2) 0.73854(9) 0.70425(16)
N2 N 0.28778(17) 0.88018(7) 0.56792(11)
N3 N 0.03351(16) 0.60023(7) 0.66072(11)
H1 H -0.05780 0.59840 0.68550
N4 N 0.10987(15) 0.53411(7) 0.64051(11)
C1 C 0.09817(18) 0.66797(8) 0.64275(12)
C2 C 0.0196(2) 0.73669(9) 0.66155(13)
C3 C 0.08410(19) 0.80575(8) 0.63923(12)
H2 H 0.03130 0.85030 0.65290
C4 C 0.22599(18) 0.80770(8) 0.59697(12)
C5 C 0.31055(19) 0.74168(9) 0.57968(13)
H3 H 0.40870 0.74410 0.55230
C6 C 0.24824(19) 0.67373(8) 0.60324(13)
H4 H 0.30630 0.62990 0.59300
C7 C 0.02837(17) 0.47320(8) 0.65660(12)
C8 C 0.09989(18) 0.40185(8) 0.63386(12)
H5 H 0.19880 0.40270 0.60720
C9 C 0.03328(18) 0.33467(8) 0.64856(12)
H6 H -0.06440 0.33470 0.67670
C10 C 0.09750(18) 0.26246(8) 0.62525(12)
C11 C 0.0458(2) 0.19126(8) 0.63888(13)
H7 H -0.04690 0.17730 0.66760
C12 C 0.1585(2) 0.1419(1) 0.60134(15)
H8 H 0.15490 0.08940 0.60050
C13 C 0.2704(3) 0.18551(11) 0.56768(17)
H9 H 0.35990 0.16750 0.53890
C14 C -0.13698(17) 0.47572(7) 0.69188(12)
C15 C -0.1521(2) 0.48766(9) 0.79639(13)
H10 H -0.05760 0.49210 0.84840
C16 C -0.3102(2) 0.49308(10) 0.82338(15)
H11 H -0.32060 0.50030 0.89390
C17 C -0.4499(2) 0.48794(10) 0.74736(16)
H12 H -0.55470 0.49220 0.76590
C18 C -0.4345(2) 0.47654(11) 0.64472(16)
H13 H -0.52950 0.47290 0.59290
C19 C -0.2795(2) 0.47029(10) 0.61636(13)
H14 H -0.27100 0.46240 0.54570
C20? C -0.29390 0.48190 0.72000
#END
