
#######################################################################
#
#                 Cambridge Crystallographic Data Centre
#                                CCDC
#
#######################################################################
#
# If this CIF has been generated from an entry in the Cambridge
# Structural Database, then it will include bibliographic, chemical,
# crystal, experimental, refinement or atomic coordinate data resulting
# from the CCDC's data processing and validation procedures.
#
#######################################################################

data_CSD_CIF_MIPHUP
_audit_creation_date 2008-02-26
_audit_creation_method CSD-ConQuest-V1
_database_code_CSD MIPHUP
_database_code_depnum_ccdc_archive 'CCDC 644968'
_chemical_formula_sum 'C10 H14 N2 O6'
_chemical_formula_moiety
;
C10 H14 N2 O6
;
_journal_coden_Cambridge 16
_journal_volume 63
_journal_year 2007
_journal_page_first 11952
_journal_name_full 'Tetrahedron '
loop_
_publ_author_name
"V.Dulery"
"O.Renaudet"
"P.Dumy"
_chemical_name_systematic
;
Ethyl N-(2-((2,5-dioxopyrrolidin-1-yl)oxy)-2-oxoethoxy)ethanimidoate
;
_chemical_name_common
;
(N-(1-Ethoxyethylidene)aminooxyacetyl) N-oxysuccinimide ester
;
_cell_volume    625.534
_exptl_crystal_colour 'colorless'
_exptl_crystal_density_diffrn 1.371
_exptl_crystal_description 'prism'
_exptl_crystal_preparation 'dichloromethane/pentane'
_diffrn_ambient_temperature 293
#These two values have been output from a single CSD field.
_refine_ls_R_factor_gt 0.0502
_refine_ls_wR_factor_gt 0.0502
_symmetry_cell_setting triclinic
_symmetry_space_group_name_H-M 'P -1'
_symmetry_Int_Tables_number 2
loop_
_symmetry_equiv_pos_site_id
_symmetry_equiv_pos_as_xyz
1 x,y,z
2 -x,-y,-z
_cell_length_a 5.3473(5)
_cell_length_b 10.546(3)
_cell_length_c 12.045(2)
_cell_angle_alpha 73.60(1)
_cell_angle_beta 77.96(1)
_cell_angle_gamma 76.22(2)
_cell_formula_units_Z 2
loop_
_atom_type_symbol
_atom_type_radius_bond
C 0.68
H 0.23
N 0.68
O 0.68
loop_
_atom_site_label
_atom_site_type_symbol
_atom_site_fract_x
_atom_site_fract_y
_atom_site_fract_z
O1 O -0.2013(2) 0.7159(1) 0.77813(8)
O2 O 0.3929(2) 0.5879(1) 0.62987(9)
O3 O 0.1975(2) 0.3681(1) 0.6313(1)
O4 O 0.4934(2) 0.2345(1) 0.74317(9)
O5 O 0.6181(2) 0.0661(1) 0.5942(1)
O6 O 0.0432(3) 0.1788(2) 0.8989(1)
N1 N 0.2017(2) 0.6057(1) 0.7305(1)
N2 N 0.3651(2) 0.1323(1) 0.7512(1)
C1 C -0.4301(4) 0.6887(3) 0.9698(2)
C2 C -0.1799(3) 0.6466(2) 0.8982(1)
C3 C -0.0015(2) 0.6839(1) 0.6965(1)
C4 C 0.5425(3) 0.4589(1) 0.6626(1)
C5 C 0.3841(2) 0.3550(1) 0.6733(1)
C6 C 0.4381(3) 0.0548(1) 0.6707(1)
C7 C 0.2517(3) -0.0393(2) 0.7036(1)
C8 C 0.0643(3) -0.0038(2) 0.8088(2)
C9 C 0.1413(3) 0.1128(2) 0.8301(1)
C10 C -0.0548(3) 0.7481(2) 0.5756(1)
H1 H -0.56700 0.66560 0.94480
H2 H -0.42270 0.64410 1.04980
H3 H -0.46160 0.78330 0.96080
H4 H -0.04210 0.67020 0.92200
H5 H -0.14690 0.55200 0.90680
H6 H 0.69180 0.44830 0.60490
H7 H 0.59590 0.44760 0.73580
H8 H 0.16010 -0.02730 0.64060
H9 H 0.34170 -0.12990 0.72360
H10 H -0.10950 0.02000 0.79260
H11 H 0.07790 -0.07800 0.87530
H12 H -0.18450 0.71040 0.55990
H13? H -0.05020 0.68050 0.53680
H14 H 0.10040 0.73280 0.52200
H15? H 0.07360 0.80020 0.53470
H16 H -0.11460 0.84220 0.56710
H17? H -0.22210 0.80480 0.57760
#END
