
#######################################################################
#
#                 Cambridge Crystallographic Data Centre
#                                CCDC
#
#######################################################################
#
# If this CIF has been generated from an entry in the Cambridge
# Structural Database, then it will include bibliographic, chemical,
# crystal, experimental, refinement or atomic coordinate data resulting
# from the CCDC's data processing and validation procedures.
#
#######################################################################

data_CSD_CIF_MIPTIP
_audit_creation_date 2008-02-26
_audit_creation_method CSD-ConQuest-V1
_database_code_CSD MIPTIP
_database_code_depnum_ccdc_archive 'CCDC 631221'
_chemical_formula_sum 'C13 H9 N3 O2'
_chemical_formula_moiety
;
C13 H9 N3 O2
;
_journal_coden_Cambridge 119
_journal_volume 871
_journal_year 2007
_journal_page_first 98
_journal_name_full 'J.Mol.Struct. '
loop_
_publ_author_name
"A.Gerpe"
"O.E.Piro"
"H.Cerecetto"
"M.Gonzalez"
_chemical_name_systematic
;
3-Cyano-2-(2-furylmethyl)-2H-indazole-N^1^-oxide
;
_cell_volume   1178.151
_exptl_crystal_colour 'colorless'
_exptl_crystal_density_diffrn 1.349
_exptl_crystal_description 'prism'
_exptl_crystal_preparation 'ethanol'
_diffrn_ambient_temperature 296
#These two values have been output from a single CSD field.
_refine_ls_R_factor_gt 0.0471
_refine_ls_wR_factor_gt 0.0471
_symmetry_cell_setting orthorhombic
_symmetry_space_group_name_H-M 'P 21 21 21'
_symmetry_Int_Tables_number 19
loop_
_symmetry_equiv_pos_site_id
_symmetry_equiv_pos_as_xyz
1 x,y,z
2 1/2-x,-y,1/2+z
3 -x,1/2+y,1/2-z
4 1/2+x,1/2-y,-z
_cell_length_a 7.050(2)
_cell_length_b 9.591(2)
_cell_length_c 17.424(4)
_cell_angle_alpha 90
_cell_angle_beta 90
_cell_angle_gamma 90
_cell_formula_units_Z 4
loop_
_atom_type_symbol
_atom_type_radius_bond
C 0.68
H 0.23
N 0.68
O 0.68
loop_
_atom_site_label
_atom_site_type_symbol
_atom_site_fract_x
_atom_site_fract_y
_atom_site_fract_z
O1 O 0.0630(3) 0.37750(19) 0.31538(10)
O2 O 0.3917(3) 0.0073(3) 0.25622(12)
N1 N 0.0892(3) 0.29345(19) 0.37114(11)
N2 N 0.0957(3) 0.15284(19) 0.36028(10)
N3 N 0.1255(6) -0.1764(3) 0.4402(2)
C1 C 0.1161(4) 0.0879(2) 0.42916(13)
C2 C 0.1223(3) 0.1906(2) 0.48577(13)
C3 C 0.1364(4) 0.1896(3) 0.56631(14)
H1 H 0.14910 0.10650 0.59340
C4 C 0.1308(5) 0.3143(4) 0.60314(15)
H2 H 0.13900 0.31560 0.65640
C5 C 0.1131(5) 0.4409(4) 0.56402(18)
H3 H 0.10900 0.52310 0.59220
C6 C 0.1016(4) 0.4482(3) 0.48555(17)
H4 H 0.09190 0.53250 0.45950
C7 C 0.1055(3) 0.3195(2) 0.44752(13)
C8 C 0.1220(5) -0.0585(3) 0.43511(18)
C9 C 0.0789(4) 0.0949(3) 0.28257(14)
H5 H 0.03940 -0.00180 0.28610
H6 H -0.01870 0.14540 0.25490
C10 C 0.2568(4) 0.1024(3) 0.23919(15)
C11 C 0.3171(7) 0.1855(4) 0.1835(2)
H7 H 0.25030 0.25820 0.16070
C12 C 0.5051(7) 0.1410(5) 0.1655(3)
H8 H 0.58530 0.18100 0.12930
C13 C 0.5438(5) 0.0356(5) 0.2083(2)
H9 H 0.65700 -0.01420 0.20730
#END
