
#######################################################################
#
#                 Cambridge Crystallographic Data Centre
#                                CCDC
#
#######################################################################
#
# If this CIF has been generated from an entry in the Cambridge
# Structural Database, then it will include bibliographic, chemical,
# crystal, experimental, refinement or atomic coordinate data resulting
# from the CCDC's data processing and validation procedures.
#
#######################################################################

data_CSD_CIF_MISDAU
_audit_creation_date 2008-02-26
_audit_creation_method CSD-ConQuest-V1
_database_code_CSD MISDAU
_database_code_depnum_ccdc_archive 'CCDC 674621'
_chemical_formula_sum 'C10 H11 N3 O4'
_chemical_formula_moiety
;
C10 H11 N3 O4
;
_journal_coeditor_code "IUCr BT2665"
_journal_coden_Cambridge 1370
_journal_volume 64
_journal_year 2008
_journal_page_first o344
_journal_name_full 'Acta Crystallogr.,Sect.E:Struct.Rep.Online '
loop_
_publ_author_name
"Hai-Yang Yu"
"Xin Fang"
"Ming-Lei Cao"
"Yan-Jun Zhang"
"Jun-Dong Wang"
_chemical_name_systematic
;
(E)-Methyl 2-((4-nitrophenyl)hydrazono)propanoate
;
_chemical_melting_point 482.75
_cell_volume   1059.267
_exptl_crystal_colour 'yellow'
_exptl_crystal_density_diffrn 1.487
_exptl_special_details
;
Melting point range 482.75-484.25K

;
_diffrn_ambient_temperature 173
#These two values have been output from a single CSD field.
_refine_ls_R_factor_gt 0.0416
_refine_ls_wR_factor_gt 0.0416
_symmetry_cell_setting monoclinic
_symmetry_space_group_name_H-M 'P 21/c'
_symmetry_Int_Tables_number 14
loop_
_symmetry_equiv_pos_site_id
_symmetry_equiv_pos_as_xyz
1 x,y,z
2 -x,1/2+y,1/2-z
3 -x,-y,-z
4 x,-1/2-y,-1/2+z
_cell_length_a 12.836(3)
_cell_length_b 6.9260(14)
_cell_length_c 11.915(2)
_cell_angle_alpha 90
_cell_angle_beta 90.11(3)
_cell_angle_gamma 90
_cell_formula_units_Z 4
loop_
_atom_type_symbol
_atom_type_radius_bond
C 0.68
H 0.23
N 0.68
O 0.68
loop_
_atom_site_label
_atom_site_type_symbol
_atom_site_fract_x
_atom_site_fract_y
_atom_site_fract_z
N1 N 0.23523(9) 0.09076(17) 0.62405(10)
N2 N 0.65298(8) 0.28388(17) 0.55245(9)
H1 H 0.6937(13) 0.255(3) 0.6065(15)
N3 N 0.68657(8) 0.33719(16) 0.44935(9)
O1 O 0.21019(8) 0.03458(18) 0.71835(9)
O2 O 0.17278(8) 0.10441(19) 0.5462(1)
O3 O 0.75514(8) 0.43209(18) 0.24033(8)
O4 O 0.90897(7) 0.50736(15) 0.31757(8)
C1 C 0.34331(10) 0.14249(18) 0.60429(11)
C2 C 0.37287(10) 0.2085(2) 0.49903(11)
H2 H 0.3235(14) 0.217(3) 0.4375(16)
C3 C 0.47596(10) 0.25744(19) 0.48098(11)
H3 H 0.4965(13) 0.309(2) 0.4086(15)
C4 C 0.54879(9) 0.23761(19) 0.56748(10)
C5 C 0.51738(10) 0.1701(2) 0.67302(11)
H4 H 0.5685(14) 0.158(3) 0.7310(16)
C6 C 0.41453(10) 0.1227(2) 0.69133(11)
H5 H 0.3938(13) 0.072(3) 0.7635(15)
C7 C 0.78391(10) 0.37883(19) 0.43797(11)
C8 C 0.86529(11) 0.3763(3) 0.52797(12)
H6 H 0.87670 0.50530 0.55480
H7 H 0.92910 0.32580 0.49800
H8 H 0.84230 0.29620 0.58880
C9 C 0.81181(10) 0.44003(19) 0.32127(11)
C10 C 0.94452(11) 0.5806(2) 0.21009(12)
H9 H 1.01300 0.63450 0.21850
H10 H 0.89750 0.67880 0.18410
H11 H 0.94660 0.47700 0.15660
#END
