
#######################################################################
#
#                 Cambridge Crystallographic Data Centre
#                                CCDC
#
#######################################################################
#
# If this CIF has been generated from an entry in the Cambridge
# Structural Database, then it will include bibliographic, chemical,
# crystal, experimental, refinement or atomic coordinate data resulting
# from the CCDC's data processing and validation procedures.
#
#######################################################################

data_CSD_CIF_MIZJAI
_audit_creation_date 2014-03-14
_audit_creation_method CSD-ConQuest-V1
_database_code_CSD MIZJAI
_database_code_depnum_ccdc_archive 'CCDC 878002'
_chemical_formula_sum 'C22 H32 N4 O8'
_chemical_formula_moiety
;
C22 H32 N4 O8
;
_journal_coeditor_code "IUCr im2450"
_journal_coden_Cambridge 1370
_journal_volume 70
_journal_year 2014
_journal_page_first o438
_journal_name_full 'Acta Crystallogr.,Sect.E:Struct.Rep.Online '
loop_
_publ_author_name
"B.Sahlmann"
"C.Nather"
"R.Herges"
_chemical_name_systematic
;
7-Isopropylidene-N,N',N'',N'''-tetramethoxy-N,N',N'',N'''-tetramethylbicyclo[2
.2.1]hepta-2,5-diene-2,3,5,6-tetracarboxamide
;
_cell_volume   1245.744
_exptl_crystal_colour 'colorless'
_exptl_crystal_density_diffrn 1.281
_exptl_crystal_description 'block'
_exptl_crystal_preparation 'ethyl acetate'
_diffrn_ambient_temperature 200
#These two values have been output from a single CSD field.
_refine_ls_R_factor_gt 0.0446
_refine_ls_wR_factor_gt 0.0446
_symmetry_cell_setting triclinic
_symmetry_space_group_name_H-M 'P -1'
_symmetry_Int_Tables_number 2
loop_
_symmetry_equiv_pos_site_id
_symmetry_equiv_pos_as_xyz
1 x,y,z
2 -x,-y,-z
_cell_length_a 9.5830(9)
_cell_length_b 10.2662(8)
_cell_length_c 13.3792(16)
_cell_angle_alpha 94.648(12)
_cell_angle_beta 91.548(13)
_cell_angle_gamma 108.013(10)
_cell_formula_units_Z 2
loop_
_atom_type_symbol
_atom_type_radius_bond
C 0.68
H 0.23
N 0.68
O 0.68
loop_
_atom_site_label
_atom_site_type_symbol
_atom_site_fract_x
_atom_site_fract_y
_atom_site_fract_z
C1 C 0.81447(18) 0.39743(16) 0.81937(12)
C2 C 0.67642(18) 0.36772(16) 0.78212(13)
C3 C 0.63158(18) 0.21966(17) 0.73104(13)
H1 H 0.52400 0.17070 0.71870
C4 C 0.72948(19) 0.21953(16) 0.64136(13)
C5 C 0.86786(18) 0.24874(16) 0.67833(12)
C6 C 0.86494(18) 0.27007(16) 0.79390(13)
H2 H 0.95150 0.26360 0.83430
C7 C 0.71645(19) 0.15921(17) 0.80360(13)
C8 C 0.6783(2) 0.04726(18) 0.85174(13)
C9 C 0.5221(3) -0.0464(2) 0.84862(16)
H3 H 0.46000 -0.01170 0.80550
H4 H 0.48660 -0.04930 0.91670
H5 H 0.51800 -0.13930 0.82170
C10 C 0.7892(3) 0.0025(2) 0.91079(16)
H6 H 0.88820 0.06430 0.90240
H7 H 0.78320 -0.09170 0.88620
H8 H 0.76820 0.00590 0.98210
C11 C 0.89827(19) 0.52489(18) 0.88315(13)
O1 O 0.85560(18) 0.55873(16) 0.96400(11)
N1 N 1.02489(18) 0.60006(17) 0.84779(12)
C12 C 1.1278(3) 0.7203(2) 0.90131(19)
H9 H 1.08570 0.74460 0.96330
H10 H 1.14850 0.79710 0.85920
H11 H 1.21930 0.70100 0.91780
O2 O 1.06466(14) 0.55339(13) 0.75543(10)
C13 C 1.0318(3) 0.6292(2) 0.67700(16)
H12 H 0.93030 0.63060 0.68080
H13 H 1.04370 0.58490 0.61150
H14 H 1.09900 0.72370 0.68530
C14 C 0.58711(19) 0.46339(18) 0.78346(13)
O3 O 0.63333(18) 0.57977(14) 0.75583(12)
N2 N 0.45160(17) 0.41573(17) 0.81724(13)
C15 C 0.3392(2) 0.4826(3) 0.81249(18)
H15 H 0.38310 0.57710 0.79540
H16 H 0.29570 0.48390 0.87780
H17 H 0.26270 0.43190 0.76100
O4 O 0.40977(16) 0.28673(14) 0.85165(12)
C16 C 0.4368(4) 0.3012(3) 0.9592(2)
H18 H 0.54050 0.35240 0.97630
H19 H 0.41340 0.20990 0.98370
H20 H 0.37490 0.35120 0.99080
C17 C 0.6746(2) 0.17624(18) 0.53508(13)
O5 O 0.7086(2) 0.08738(17) 0.48378(11)
N3 N 0.57718(19) 0.23375(16) 0.49947(12)
C18 C 0.5110(3) 0.2035(3) 0.39838(16)
H21 H 0.42170 0.23080 0.39580
H22 H 0.48590 0.10460 0.37860
H23 H 0.58070 0.25460 0.35220
O6 O 0.56596(14) 0.35176(13) 0.55432(10)
C19 C 0.6728(2) 0.4717(2) 0.52256(16)
H24 H 0.77070 0.46070 0.52750
H25 H 0.67210 0.55330 0.56580
H26 H 0.64840 0.48290 0.45280
C20 C 1.00122(19) 0.26034(17) 0.62073(14)
O7 O 1.03798(18) 0.33922(16) 0.55533(12)
N4 N 1.08090(18) 0.18055(17) 0.64597(14)
C21 C 1.2220(2) 0.1841(3) 0.6077(2)
H27 H 1.29630 0.20650 0.66360
H28 H 1.25030 0.25430 0.56010
H29 H 1.21490 0.09400 0.57350
O8 O 1.02474(18) 0.08363(15) 0.71379(11)
C22 C 0.9419(3) -0.0452(2) 0.6592(2)
H30 H 0.86260 -0.03160 0.61760
H31 H 0.89980 -0.11270 0.70670
H32 H 1.00700 -0.07870 0.61600
H33? H 1.21660 0.75050 0.86360
H34? H 1.15390 0.69800 0.96770
H35? H 1.08310 0.79420 0.90910
H36? H 0.57050 0.16250 0.35530
H37? H 0.50630 0.28870 0.37250
H38? H 0.41150 0.13870 0.39890
#END
