
#######################################################################
#
#                 Cambridge Crystallographic Data Centre
#                                CCDC
#
#######################################################################
#
# If this CIF has been generated from an entry in the Cambridge
# Structural Database, then it will include bibliographic, chemical,
# crystal, experimental, refinement or atomic coordinate data resulting
# from the CCDC's data processing and validation procedures.
#
#######################################################################

data_CSD_CIF_MNPHOL18
_audit_creation_date 2006-04-11
_audit_creation_method CSD-ConQuest-V1
_database_code_CSD MNPHOL18
_database_code_depnum_ccdc_archive 'CCDC 296427'
_chemical_formula_sum 'C6 H5 N1 O3'
_chemical_formula_moiety
;
C6 H5 N1 O3
;
_journal_coden_Cambridge 1147
_journal_volume 6
_journal_year 2006
_journal_page_first 274
_journal_name_full 'Cryst.Growth Des. '
loop_
_publ_author_name
"G.Wojcik"
"J.Holband"
"J.J.Szymczak"
"S.Roszak"
"J.Leszczynski"
_chemical_name_systematic
;
m-Nitrophenol
;
_chemical_name_common
;
3-Nitrophenol
;
_chemical_melting_point 370
_cell_volume    621.898
_exptl_crystal_colour 'yellow'
_exptl_crystal_density_diffrn 1.486
_exptl_special_details
;
orthorhombic polymorph
phase transition at about 350 K

;
_exptl_crystal_description 'prism'
_exptl_crystal_preparation 'benzene'
_diffrn_ambient_temperature 330
#These two values have been output from a single CSD field.
_refine_ls_R_factor_gt 0.0762
_refine_ls_wR_factor_gt 0.0762
_symmetry_cell_setting orthorhombic
_symmetry_space_group_name_H-M 'P 21 21 21'
_symmetry_Int_Tables_number 19
loop_
_symmetry_equiv_pos_site_id
_symmetry_equiv_pos_as_xyz
1 x,y,z
2 1/2-x,-y,1/2+z
3 -x,1/2+y,1/2-z
4 1/2+x,1/2-y,-z
_cell_length_a 8.102(2)
_cell_length_b 6.779(5)
_cell_length_c 11.323(7)
_cell_angle_alpha 90
_cell_angle_beta 90
_cell_angle_gamma 90
_cell_formula_units_Z 4
loop_
_atom_type_symbol
_atom_type_radius_bond
C 0.68
H 0.23
N 0.68
O 0.68
loop_
_atom_site_label
_atom_site_type_symbol
_atom_site_fract_x
_atom_site_fract_y
_atom_site_fract_z
O1 O 0.5733(4) 0.0583(6) 0.6070(4)
O2 O 0.6674(4) 0.2301(7) 0.7510(3)
O3 O 1.2678(4) 0.2081(6) 0.7147(3)
H1 H 1.35660 0.17920 0.68460
N1 N 0.6882(4) 0.1279(6) 0.6631(4)
C1 C 0.8574(4) 0.0893(6) 0.6229(4)
C2 C 0.9846(5) 0.1647(6) 0.6871(4)
H2 H 0.96440 0.23720 0.75530
C3 C 1.1439(5) 0.1319(6) 0.6492(4)
C4 C 1.1707(5) 0.0185(7) 0.5484(3)
H3 H 1.27790 -0.00710 0.52340
C5 C 1.0402(5) -0.0552(8) 0.4859(4)
H4 H 1.05950 -0.12930 0.41820
C6 C 0.8792(5) -0.0208(7) 0.5221(4)
H5 H 0.78970 -0.07010 0.48000
#END
