
#######################################################################
#
#                 Cambridge Crystallographic Data Centre
#                                CCDC
#
#######################################################################
#
# If this CIF has been generated from an entry in the Cambridge
# Structural Database, then it will include bibliographic, chemical,
# crystal, experimental, refinement or atomic coordinate data resulting
# from the CCDC's data processing and validation procedures.
#
#######################################################################

data_CSD_CIF_MODNUP
_audit_creation_date 2008-10-10
_audit_creation_method CSD-ConQuest-V1
_database_code_CSD MODNUP
_database_code_depnum_ccdc_archive 'CCDC 700467'
_chemical_formula_sum 'C8 H8 N4 O5'
_chemical_formula_moiety
;
C8 H8 N4 O5
;
_journal_coeditor_code "IUCr BT2733"
_journal_coden_Cambridge 1370
_journal_volume 64
_journal_year 2008
_journal_page_first o1441
_journal_name_full 'Acta Crystallogr.,Sect.E:Struct.Rep.Online '
loop_
_publ_author_name
"M.Zia-ur-Rehman"
"M.R.J.Elsegood"
"S.Mahmud"
"H.L.Siddiqui"
_chemical_name_systematic
;
N'-(2,4-Dinitrophenyl)acetohydrazide
;
_chemical_melting_point 471
_cell_volume    999.764
_exptl_crystal_colour 'orange'
_exptl_crystal_density_diffrn 1.596
_exptl_crystal_description 'lath'
_exptl_crystal_preparation 'ethanol/water'
_diffrn_ambient_temperature 150
#These two values have been output from a single CSD field.
_refine_ls_R_factor_gt 0.0304
_refine_ls_wR_factor_gt 0.0304
_symmetry_cell_setting orthorhombic
_symmetry_space_group_name_H-M 'P 21 21 21'
_symmetry_Int_Tables_number 19
loop_
_symmetry_equiv_pos_site_id
_symmetry_equiv_pos_as_xyz
1 x,y,z
2 1/2-x,-y,1/2+z
3 -x,1/2+y,1/2-z
4 1/2+x,1/2-y,-z
_cell_length_a 4.8585(4)
_cell_length_b 10.7703(8)
_cell_length_c 19.1059(14)
_cell_angle_alpha 90
_cell_angle_beta 90
_cell_angle_gamma 90
_cell_formula_units_Z 4
loop_
_atom_type_symbol
_atom_type_radius_bond
C 0.68
H 0.23
N 0.68
O 0.68
loop_
_atom_site_label
_atom_site_type_symbol
_atom_site_fract_x
_atom_site_fract_y
_atom_site_fract_z
C1 C 0.3396(3) 0.64098(13) 0.89834(7)
N1 N 0.1186(2) 0.67553(11) 0.94555(6)
O1 O 0.0352(2) 0.78314(10) 0.94499(6)
O2 O 0.0219(2) 0.59512(11) 0.98457(6)
C2 C 0.4679(3) 0.73783(13) 0.86286(7)
H1 H 0.41530 0.82150 0.87100
C3 C 0.6722(3) 0.70968(14) 0.81593(7)
N2 N 0.8161(3) 0.81093(13) 0.78132(7)
O3 O 0.7483(3) 0.91873(12) 0.79517(7)
O4 O 1.0012(3) 0.78354(13) 0.73998(7)
C4 C 0.7508(3) 0.58725(15) 0.80240(7)
H2 H 0.89030 0.57000 0.76890
C5 C 0.6255(3) 0.49242(13) 0.83774(7)
H3 H 0.67910 0.40930 0.82830
C6 C 0.4174(3) 0.51517(13) 0.88817(7)
N3 N 0.3089(3) 0.42103(11) 0.92557(7)
H4 H 0.172(4) 0.4329(16) 0.9508(10)
N4 N 0.3548(3) 0.29805(11) 0.90659(7)
H5 H 0.518(4) 0.2710(16) 0.9126(10)
C7 C 0.1401(3) 0.21961(13) 0.91490(7)
O5 O -0.0894(2) 0.25786(10) 0.93114(6)
C8 C 0.2055(4) 0.08501(14) 0.90370(9)
H6 H 0.17470 0.03920 0.94730
H7 H 0.39840 0.07640 0.88950
H8 H 0.08610 0.05150 0.86690
#END
