
#######################################################################
#
#                 Cambridge Crystallographic Data Centre
#                                CCDC
#
#######################################################################
#
# If this CIF has been generated from an entry in the Cambridge
# Structural Database, then it will include bibliographic, chemical,
# crystal, experimental, refinement or atomic coordinate data resulting
# from the CCDC's data processing and validation procedures.
#
#######################################################################

data_CSD_CIF_MOKMAB
_audit_creation_date 2009-02-24
_audit_creation_method CSD-ConQuest-V1
_database_code_CSD MOKMAB
_database_code_depnum_ccdc_archive 'CCDC 717273'
_chemical_formula_sum 'C10 H10 N2 O3'
_chemical_formula_moiety
;
C10 H10 N2 O3
;
_journal_coeditor_code "IUCr HB2868"
_journal_coden_Cambridge 1370
_journal_volume 65
_journal_year 2009
_journal_page_first o54
_journal_name_full 'Acta Crystallogr.,Sect.E:Struct.Rep.Online '
loop_
_publ_author_name
"Dongwei Lei"
"Huibin Yang"
"Bin Li"
"Zhuo Kang"
_chemical_name_systematic
;
2-(3-Methyl-2-nitrophenyl)-4,5-dihydro-1,3-oxazole
;
_cell_volume    486.722
_exptl_crystal_colour 'colorless'
_exptl_crystal_density_diffrn 1.407
_exptl_crystal_description 'block'
_exptl_crystal_preparation 'dichloromethane'
_diffrn_ambient_temperature 296
#These two values have been output from a single CSD field.
_refine_ls_R_factor_gt 0.037
_refine_ls_wR_factor_gt 0.037
_symmetry_cell_setting monoclinic
_symmetry_space_group_name_H-M 'P 21/m'
_symmetry_Int_Tables_number 11
loop_
_symmetry_equiv_pos_site_id
_symmetry_equiv_pos_as_xyz
1 x,y,z
2 -x,1/2+y,-z
3 -x,-y,-z
4 x,-1/2-y,z
_cell_length_a 7.7767(10)
_cell_length_b 7.337(1)
_cell_length_c 8.6468(12)
_cell_angle_alpha 90
_cell_angle_beta 99.414(2)
_cell_angle_gamma 90
_cell_formula_units_Z 2
loop_
_atom_type_symbol
_atom_type_radius_bond
C 0.68
H 0.23
N 0.68
O 0.68
loop_
_atom_site_label
_atom_site_type_symbol
_atom_site_fract_x
_atom_site_fract_y
_atom_site_fract_z
O1 O 0.2190(2) 0.25000 1.12373(17)
O2 O 0.33918(12) 0.10351(17) 0.61731(13)
N1 N 0.4057(2) 0.25000 0.95534(19)
N2 N 0.27535(19) 0.25000 0.64083(17)
C1 C -0.0249(3) 0.25000 0.4054(2)
H1? H 0.07050 0.32680 0.38930
H2? H -0.13090 0.29520 0.34490
H3? H -0.00410 0.12800 0.37280
C2 C -0.0410(2) 0.25000 0.5759(2)
C3 C -0.2030(3) 0.25000 0.6245(3)
H4 H -0.30340 0.25000 0.54950
C4 C -0.2181(3) 0.25000 0.7801(3)
H5 H -0.32810 0.25000 0.80920
C5 C -0.0709(3) 0.25000 0.8946(3)
H6 H -0.08280 0.25000 0.99980
C6 C 0.0946(2) 0.25000 0.8531(2)
C7 C 0.1040(2) 0.25000 0.6938(2)
C8 C 0.2508(2) 0.25000 0.9762(2)
C9 C 0.3878(3) 0.25000 1.2242(3)
H7 H 0.40210 0.14240 1.29020
C10 C 0.5156(3) 0.25000 1.1111(2)
H8 H 0.58900 0.35760 1.12510
O2C O 0.33918(12) 0.39649(17) 0.61731(13)
H7C H 0.40210 0.35760 1.29020
H8C H 0.58900 0.14240 1.12510
#END
