
#######################################################################
#
#                 Cambridge Crystallographic Data Centre
#                                CCDC
#
#######################################################################
#
# If this CIF has been generated from an entry in the Cambridge
# Structural Database, then it will include bibliographic, chemical,
# crystal, experimental, refinement or atomic coordinate data resulting
# from the CCDC's data processing and validation procedures.
#
#######################################################################

data_CSD_CIF_MOPGOO
_audit_creation_date 2009-06-23
_audit_creation_method CSD-ConQuest-V1
_database_code_CSD MOPGOO
_database_code_depnum_ccdc_archive 'CCDC 717074'
_chemical_formula_sum 'C26 H30 N4 O4'
_chemical_formula_moiety
;
C26 H30 N4 O4
;
_journal_coden_Cambridge 179
_journal_volume 47
_journal_year 2008
_journal_page_first 10106
_journal_name_full 'Angew.Chem.,Int.Ed. '
loop_
_publ_author_name
"P.Rubenbauer"
"E.Herdtweck"
"T.Strassner"
"T.Bach"
_chemical_name_systematic
;
1-(3-(Cyclopropylethynyl)-4,5,5-trimethyl-1-phenylhexylidene)-2-(2,4-dinitroph
enyl)hydrazine
;
_cell_volume   1227.825
_exptl_crystal_colour 'orange'
_exptl_crystal_density_diffrn 1.251
_exptl_crystal_description 'plate'
_diffrn_ambient_temperature 173
#These two values have been output from a single CSD field.
_refine_ls_R_factor_gt 0.0405
_refine_ls_wR_factor_gt 0.0405
_symmetry_cell_setting triclinic
_symmetry_space_group_name_H-M 'P -1'
_symmetry_Int_Tables_number 2
loop_
_symmetry_equiv_pos_site_id
_symmetry_equiv_pos_as_xyz
1 x,y,z
2 -x,-y,-z
_cell_length_a 8.9936(8)
_cell_length_b 11.8578(11)
_cell_length_c 12.2524(11)
_cell_angle_alpha 76.448(7)
_cell_angle_beta 75.151(7)
_cell_angle_gamma 86.880(7)
_cell_formula_units_Z 2
loop_
_atom_type_symbol
_atom_type_radius_bond
C 0.68
H 0.23
N 0.68
O 0.68
loop_
_atom_site_label
_atom_site_type_symbol
_atom_site_fract_x
_atom_site_fract_y
_atom_site_fract_z
O1 O -0.5647(2) 0.78640(15) 0.65995(17)
O2 O -0.61039(16) 0.83352(13) 0.48980(14)
O3 O -0.38710(19) 0.62463(15) 0.20630(14)
O4 O -0.23101(19) 0.48320(16) 0.23466(13)
N1 N -0.08094(16) 0.35384(13) 0.51127(13)
N2 N -0.15785(18) 0.41400(14) 0.43235(16)
N3 N -0.54749(19) 0.77303(14) 0.56101(19)
N4 N -0.31557(19) 0.56043(16) 0.26810(16)
C1 C 0.2700(2) 0.09704(17) 0.14881(17)
C2 C 0.0661(2) 0.19862(15) 0.58216(16)
C3 C 0.3422(3) 0.0192(3) 0.2397(3)
C4 C 0.2464(4) 0.0212(3) 0.0684(3)
C5 C 0.3793(4) 0.1975(3) 0.0806(3)
C6 C 0.1109(2) 0.13886(17) 0.20975(18)
C7 C 0.1686(2) 0.10641(16) 0.56502(18)
C8 C 0.0080(3) 0.1899(2) 0.1294(2)
C9 C 0.1201(2) 0.22158(15) 0.29055(16)
C10 C 0.2453(2) 0.05364(18) 0.64745(19)
C11 C -0.0210(2) 0.20105(18) 0.39653(17)
C12 C -0.01503(19) 0.25750(15) 0.49343(16)
C13 C 0.1332(2) 0.34466(17) 0.22898(17)
C14 C 0.2201(2) 0.08911(18) 0.7501(2)
C15 C 0.1407(2) 0.44298(18) 0.17405(18)
C16 C 0.1174(2) 0.17797(18) 0.7696(2)
C17 C 0.1521(3) 0.55985(19) 0.1033(2)
C18 C 0.0420(2) 0.23230(17) 0.68743(18)
C19 C 0.2745(4) 0.6416(3) 0.1013(2)
C20 C 0.2851(3) 0.5933(2) -0.0008(2)
C21 C -0.25171(19) 0.50226(15) 0.46075(17)
C22 C -0.2765(2) 0.52440(16) 0.57283(18)
C23 C -0.3726(2) 0.61131(16) 0.60521(19)
C24 C -0.4474(2) 0.67942(16) 0.52709(18)
C25 C -0.4282(2) 0.66167(17) 0.4181(2)
C26 C -0.3314(2) 0.57371(16) 0.38507(17)
H1 H 0.256(4) -0.048(3) 0.283(3)
H2 H -0.142(2) 0.4074(17) 0.3620(18)
H3 H 0.439(3) -0.008(2) 0.197(2)
H4 H 0.370(3) 0.060(2) 0.291(3)
H5 H 0.163(3) -0.046(3) 0.116(2)
H6 H 0.208(4) 0.064(3) 0.001(3)
H7 H 0.344(3) -0.014(2) 0.043(2)
H8 H 0.480(3) 0.167(2) 0.042(2)
H9 H 0.323(3) 0.238(2) 0.020(2)
H10 H 0.407(4) 0.252(3) 0.135(3)
H11 H -0.085(3) 0.223(2) 0.172(2)
H12 H 0.061(3) 0.256(2) 0.064(2)
H13 H -0.022(2) 0.132(2) 0.0919(19)
H14 H -0.0323(19) 0.1208(17) 0.4296(15)
H15 H -0.114(2) 0.2286(15) 0.3672(15)
H16 H 0.357(4) 0.606(3) 0.145(3)
H17 H 0.240(3) 0.721(3) 0.089(3)
H18 H 0.264(3) 0.645(2) -0.070(2)
H19 H 0.364(3) 0.533(2) -0.0089(19)
H20 H 0.186(2) 0.0811(15) 0.4936(16)
H21 H 0.314(2) -0.0081(17) 0.6332(16)
H22 H 0.0565(19) 0.0658(15) 0.2607(15)
H23 H 0.271(2) 0.0511(17) 0.8063(18)
H24 H 0.099(2) 0.2073(17) 0.8421(18)
H25 H -0.029(2) 0.2936(17) 0.6982(16)
H26 H -0.2231(19) 0.4797(15) 0.6234(15)
H27 H -0.385(2) 0.6241(16) 0.6839(17)
H28 H -0.4766(19) 0.7055(15) 0.3681(15)
H29 H 0.2180(19) 0.2005(14) 0.3195(14)
H30 H 0.053(3) 0.594(2) 0.087(2)
#END
