
#######################################################################
#
#                 Cambridge Crystallographic Data Centre
#                                CCDC
#
#######################################################################
#
# If this CIF has been generated from an entry in the Cambridge
# Structural Database, then it will include bibliographic, chemical,
# crystal, experimental, refinement or atomic coordinate data resulting
# from the CCDC's data processing and validation procedures.
#
#######################################################################

data_CSD_CIF_MOSCON01
_audit_creation_date 2010-03-08
_audit_creation_method CSD-ConQuest-V1
_database_code_CSD MOSCON01
_database_code_depnum_ccdc_archive 'CCDC 704309'
_chemical_formula_sum 'C3 H6 N6 O3'
_chemical_formula_moiety
;
C3 H6 N6 O3
;
_journal_coden_Cambridge 1220
_journal_volume 15
_journal_year 2009
_journal_page_first 5775
_journal_name_full 'Chem.-Eur.J. '
loop_
_publ_author_name
"J.Stierstorfer"
"K.R.Tarantik"
"T.M.Klapotke"
_chemical_name_systematic
;
1-(2-Hydroxyethyl)-5-nitriminotetrazole
;
_cell_volume    333.716
_exptl_crystal_colour 'colorless'
_exptl_crystal_density_diffrn 1.733
_exptl_special_details
;
friction- and impact-sensitive

;
_exptl_crystal_description 'rod'
_exptl_crystal_preparation 'dilute nitric acid'
_diffrn_ambient_temperature 200
#These two values have been output from a single CSD field.
_refine_ls_R_factor_gt 0.0359
_refine_ls_wR_factor_gt 0.0359
_symmetry_cell_setting triclinic
_symmetry_space_group_name_H-M 'P -1'
_symmetry_Int_Tables_number 2
loop_
_symmetry_equiv_pos_site_id
_symmetry_equiv_pos_as_xyz
1 x,y,z
2 -x,-y,-z
_cell_length_a 7.1287(12)
_cell_length_b 7.1304(12)
_cell_length_c 7.9216(12)
_cell_angle_alpha 66.212(16)
_cell_angle_beta 89.240(13)
_cell_angle_gamma 66.858(16)
_cell_formula_units_Z 2
loop_
_atom_type_symbol
_atom_type_radius_bond
C 0.68
H 0.23
N 0.68
O 0.68
loop_
_atom_site_label
_atom_site_type_symbol
_atom_site_fract_x
_atom_site_fract_y
_atom_site_fract_z
H1 H -0.369(3) 1.919(3) -0.370(2)
H2 H -0.133(3) 1.861(3) -0.368(2)
H3 H -0.062(3) 1.469(3) -0.263(2)
H4 H -0.198(3) 1.623(3) -0.465(3)
H5 H -0.588(3) 1.271(4) -0.036(3)
H6 H -0.098(3) 1.763(3) -0.085(3)
O1 O -0.01629(15) 0.91286(16) 0.29458(13)
N1 N -0.16818(17) 1.20944(18) 0.02464(14)
O2 O -0.20636(16) 1.75815(19) -0.11533(13)
N2 N -0.53086(17) 1.34421(19) -0.11967(16)
N3 N -0.17436(17) 1.03057(18) 0.17398(15)
N4 N -0.34906(17) 1.51039(18) -0.26654(15)
O3 O -0.32897(17) 0.98962(18) 0.18622(15)
C1 C -0.3407(2) 1.3371(2) -0.10579(17)
N5 N -0.54208(18) 1.61910(19) -0.37142(16)
N6 N -0.65197(18) 1.5193(2) -0.28248(16)
C2 C -0.1899(2) 1.5928(2) -0.33299(19)
C3 C -0.2266(2) 1.8033(2) -0.30894(19)
#END
