
#######################################################################
#
#                 Cambridge Crystallographic Data Centre
#                                CCDC
#
#######################################################################
#
# If this CIF has been generated from an entry in the Cambridge
# Structural Database, then it will include bibliographic, chemical,
# crystal, experimental, refinement or atomic coordinate data resulting
# from the CCDC's data processing and validation procedures.
#
#######################################################################

data_CSD_CIF_MOSSUJ
_audit_creation_date 2009-06-23
_audit_creation_method CSD-ConQuest-V1
_database_code_CSD MOSSUJ
_database_code_depnum_ccdc_archive 'CCDC 731248'
_chemical_formula_sum 'C16 H15 N1 O5'
_chemical_formula_moiety
;
C16 H15 N1 O5
;
_journal_coeditor_code "IUCr HK2654"
_journal_coden_Cambridge 1370
_journal_volume 65
_journal_year 2009
_journal_page_first o1005
_journal_name_full 'Acta Crystallogr.,Sect.E:Struct.Rep.Online '
loop_
_publ_author_name
"Lei Gao"
"Li-hua Guo"
"Rui Liu"
"Dan-hua Que"
"Hong-fei Ma"
_chemical_name_systematic
;
1-(4-Benzyloxy-5-methoxy-2-nitrophenyl)ethanone
;
_cell_volume   2910.144
_exptl_crystal_colour 'colorless'
_exptl_crystal_density_diffrn 1.375
_exptl_crystal_description 'needle'
_exptl_crystal_preparation 'ethanol'
_diffrn_ambient_temperature 294
#These two values have been output from a single CSD field.
_refine_ls_R_factor_gt 0.0708
_refine_ls_wR_factor_gt 0.0708
_symmetry_cell_setting orthorhombic
_symmetry_space_group_name_H-M 'P b c a'
_symmetry_Int_Tables_number 61
loop_
_symmetry_equiv_pos_site_id
_symmetry_equiv_pos_as_xyz
1 x,y,z
2 1/2-x,-y,1/2+z
3 -x,1/2+y,1/2-z
4 1/2+x,1/2-y,-z
5 -x,-y,-z
6 -1/2+x,y,-1/2-z
7 x,-1/2-y,-1/2+z
8 -1/2-x,-1/2+y,z
_cell_length_a 13.390(3)
_cell_length_b 10.465(2)
_cell_length_c 20.768(4)
_cell_angle_alpha 90
_cell_angle_beta 90
_cell_angle_gamma 90
_cell_formula_units_Z 8
loop_
_atom_type_symbol
_atom_type_radius_bond
C 0.68
H 0.23
N 0.68
O 0.68
loop_
_atom_site_label
_atom_site_type_symbol
_atom_site_fract_x
_atom_site_fract_y
_atom_site_fract_z
N1 N 0.4084(2) 0.3120(3) 0.33235(15)
O1 O 0.07225(17) 0.1644(3) 0.38239(11)
O2 O 0.13768(18) 0.0124(3) 0.46870(13)
O3 O 0.5275(2) 0.0290(3) 0.42219(18)
O4 O 0.4987(2) 0.2830(3) 0.33126(15)
O5 O 0.3740(2) 0.4020(3) 0.30338(14)
C1 C -0.1972(3) 0.0558(5) 0.2841(2)
H1 H -0.21280 -0.01960 0.26260
C2 C -0.2731(4) 0.1305(6) 0.3092(3)
H2 H -0.33940 0.10540 0.30510
C3 C -0.2488(3) 0.2420(5) 0.3400(3)
H3 H -0.29940 0.29420 0.35580
C4 C -0.1506(3) 0.2778(4) 0.3478(2)
H4 H -0.13570 0.35190 0.37060
C5 C -0.0736(3) 0.2049(4) 0.32217(18)
C6 C -0.0996(3) 0.0917(4) 0.2906(2)
H5 H -0.04950 0.03990 0.27370
C7 C 0.0318(3) 0.2420(4) 0.3310(2)
H6 H 0.06900 0.22770 0.29150
H7 H 0.03640 0.33180 0.34200
C8 C 0.1732(3) 0.1672(3) 0.39057(17)
C9 C 0.2392(3) 0.2446(4) 0.35806(18)
H8 H 0.21590 0.30380 0.32820
C10 C 0.3402(2) 0.2336(4) 0.37010(17)
C11 C 0.3807(3) 0.1481(4) 0.41517(18)
C12 C 0.3098(3) 0.0707(4) 0.44838(19)
H9 H 0.33230 0.01180 0.47860
C13 C 0.2105(3) 0.0807(4) 0.43705(18)
C14 C 0.1676(3) -0.0629(5) 0.5236(2)
H10 H 0.11030 -0.10540 0.54130
H11 H 0.19640 -0.00800 0.55570
H12 H 0.21600 -0.12530 0.51040
C15 C 0.4875(3) 0.1311(4) 0.43162(19)
C16 C 0.5384(3) 0.2346(5) 0.4663(2)
H13 H 0.60680 0.21150 0.47350
H14 H 0.50590 0.24860 0.50690
H15 H 0.53560 0.31150 0.44110
#END
