
#######################################################################
#
#                 Cambridge Crystallographic Data Centre
#                                CCDC
#
#######################################################################
#
# If this CIF has been generated from an entry in the Cambridge
# Structural Database, then it will include bibliographic, chemical,
# crystal, experimental, refinement or atomic coordinate data resulting
# from the CCDC's data processing and validation procedures.
#
#######################################################################

data_CSD_CIF_MOZYUW
_audit_creation_date 2009-09-28
_audit_creation_method CSD-ConQuest-V1
_database_code_CSD MOZYUW
_database_code_depnum_ccdc_archive 'CCDC 744281'
_chemical_formula_sum 'C16 H23 N1 O5'
_chemical_formula_moiety
;
C16 H23 N1 O5
;
_journal_coeditor_code "IUCr BG2266"
_journal_coden_Cambridge 1370
_journal_volume 65
_journal_year 2009
_journal_page_first o1742
_journal_name_full 'Acta Crystallogr.,Sect.E:Struct.Rep.Online '
loop_
_publ_author_name
"J.Liu"
"J.K.Clegg"
"R.Codd"
_chemical_name_systematic
;
Methyl 4-(((adamantan-1-ylcarbonyl)oxy)amino)-4-oxobutanoate
;
_cell_volume   3170.910
_exptl_crystal_colour 'colorless'
_exptl_crystal_density_diffrn 1.296
_exptl_crystal_description 'block'
_exptl_crystal_preparation 'ethanol/water'
_diffrn_ambient_temperature 150
#These two values have been output from a single CSD field.
_refine_ls_R_factor_gt 0.0478
_refine_ls_wR_factor_gt 0.0478
_symmetry_cell_setting orthorhombic
_symmetry_space_group_name_H-M 'P c c n'
_symmetry_Int_Tables_number 56
loop_
_symmetry_equiv_pos_site_id
_symmetry_equiv_pos_as_xyz
1 x,y,z
2 1/2-x,1/2-y,z
3 1/2+x,-y,1/2-z
4 -x,1/2+y,1/2-z
5 -x,-y,-z
6 -1/2+x,-1/2+y,-z
7 -1/2-x,y,-1/2+z
8 x,-1/2-y,-1/2+z
_cell_length_a 15.7837(5)
_cell_length_b 21.0715(7)
_cell_length_c 9.5341(3)
_cell_angle_alpha 90
_cell_angle_beta 90
_cell_angle_gamma 90
_cell_formula_units_Z 8
loop_
_atom_type_symbol
_atom_type_radius_bond
C 0.68
H 0.23
N 0.68
O 0.68
loop_
_atom_site_label
_atom_site_type_symbol
_atom_site_fract_x
_atom_site_fract_y
_atom_site_fract_z
C1 C -0.10511(9) 0.03188(7) 0.34190(19)
H1 H -0.12860 0.05210 0.42590
H2 H -0.11950 -0.01340 0.34220
H3 H -0.12890 0.05200 0.25800
C2 C 0.01542(9) 0.09834(6) 0.33007(15)
C3 C 0.11059(9) 0.09992(7) 0.32346(18)
H4 H 0.12930 0.08520 0.22990
H5 H 0.13390 0.07040 0.39440
C4 C 0.14536(9) 0.16607(7) 0.34972(19)
H6 H 0.11740 0.19650 0.28550
H7 H 0.13210 0.17900 0.44710
C5 C 0.24014(10) 0.16868(7) 0.32743(19)
C6 C 0.41331(9) 0.12429(6) 0.41915(16)
C7 C 0.50576(8) 0.13370(5) 0.38462(14)
C8 C 0.51335(8) 0.13881(6) 0.22281(15)
H8 H 0.48890 0.10050 0.17820
H9 H 0.48160 0.17630 0.18900
C9 C 0.60700(8) 0.14499(6) 0.18337(15)
H10 H 0.61240 0.14800 0.07910
C10 C 0.64442(8) 0.20472(6) 0.25077(15)
H11 H 0.70480 0.20900 0.22400
H12 H 0.61370 0.24270 0.21670
C11 C 0.63684(8) 0.20033(6) 0.40991(15)
H13 H 0.66120 0.23950 0.45330
C12 C 0.54299(8) 0.19452(6) 0.45073(16)
H14 H 0.51140 0.23210 0.41690
H15 H 0.53750 0.19260 0.55410
C13 C 0.55512(8) 0.07550(6) 0.43587(16)
H16 H 0.53130 0.03660 0.39300
H17 H 0.54990 0.07180 0.53900
C14 C 0.64869(9) 0.08217(6) 0.39547(17)
H18 H 0.68080 0.04420 0.42920
C15 C 0.68529(9) 0.14227(7) 0.46296(18)
H19 H 0.68040 0.13940 0.56630
H20 H 0.74600 0.14630 0.43880
C16 C 0.65534(9) 0.08664(6) 0.23537(17)
H21 H 0.71560 0.08980 0.20750
H22 H 0.63130 0.04790 0.19220
N1 N 0.28451(7) 0.17669(6) 0.44376(15)
H23 H 0.25950 0.17860 0.52620
O1 O -0.01378(6) 0.03915(5) 0.34139(12)
O2 O -0.02969(6) 0.14408(5) 0.32255(14)
O3 O 0.27389(7) 0.16496(7) 0.21147(14)
O4 O 0.37279(6) 0.18202(4) 0.43133(12)
O5 O 0.37653(7) 0.07535(5) 0.43361(14)
#END
