
#######################################################################
#
#                 Cambridge Crystallographic Data Centre
#                                CCDC
#
#######################################################################
#
# If this CIF has been generated from an entry in the Cambridge
# Structural Database, then it will include bibliographic, chemical,
# crystal, experimental, refinement or atomic coordinate data resulting
# from the CCDC's data processing and validation procedures.
#
#######################################################################

data_CSD_CIF_MUCTEL
_audit_creation_date 2015-05-28
_audit_creation_method CSD-ConQuest-V1
_database_code_CSD MUCTEL
_database_code_depnum_ccdc_archive 'CCDC 769508'
_chemical_formula_sum 'C36 H49 N1 O7'
_chemical_formula_moiety
;
C36 H49 N1 O7
;
_journal_coden_Cambridge 1078
_journal_year 2010
_journal_name_full 'CSD Communication(Private Communication) '
loop_
_publ_author_name
"P.G.Jones"
"I.Dix"
_chemical_name_systematic
;
rac-Triethyl 
2-phenyl-5-(phenyl((2,2,6,6-tetramethylpiperidin-1-yl)oxy)methyl)cyclopentane-
1,1,3-tricarboxylate
;
_cell_volume   3371.714
_exptl_crystal_colour 'colorless'
_exptl_crystal_density_diffrn 1.197
_exptl_special_details
;
contribution from Institut fur Anorganische und Analytische Chemie, 
Technische Universitat Braunschweig, Postfach 3329, 38023 Braunschweig, 
Germany
;
_exptl_crystal_description 'prism'
_diffrn_ambient_temperature 143
#These two values have been output from a single CSD field.
_refine_ls_R_factor_gt 0.0358
_refine_ls_wR_factor_gt 0.0358
_symmetry_cell_setting orthorhombic
_symmetry_space_group_name_H-M 'P 21 21 21'
_symmetry_Int_Tables_number 19
loop_
_symmetry_equiv_pos_site_id
_symmetry_equiv_pos_as_xyz
1 x,y,z
2 1/2-x,-y,1/2+z
3 -x,1/2+y,1/2-z
4 1/2+x,1/2-y,-z
_cell_length_a 10.0854(18)
_cell_length_b 10.646(2)
_cell_length_c 31.403(5)
_cell_angle_alpha 90
_cell_angle_beta 90
_cell_angle_gamma 90
_cell_formula_units_Z 4
loop_
_atom_type_symbol
_atom_type_radius_bond
C 0.68
H 0.23
N 0.68
O 0.68
loop_
_atom_site_label
_atom_site_type_symbol
_atom_site_fract_x
_atom_site_fract_y
_atom_site_fract_z
N1 N 0.43067(15) -0.04691(13) 0.08154(5)
O1 O 0.09071(13) 0.20593(12) 0.16569(4)
O2 O 0.00581(12) 0.31278(11) 0.11042(4)
O3 O 0.26259(13) 0.52590(13) 0.07817(4)
O4 O 0.10041(13) 0.54611(12) 0.12622(4)
O5 O 0.53753(14) 0.36888(16) 0.22477(5)
O6 O 0.64699(14) 0.49156(14) 0.17878(4)
O7 O 0.42904(12) 0.09039(11) 0.08175(4)
C1 C 0.22743(17) 0.35816(16) 0.12949(5)
C2 C 0.30212(17) 0.38556(17) 0.17248(5)
H1 H 0.30680 0.30420 0.18830
C3 C 0.44176(18) 0.41354(17) 0.15647(5)
H2 H 0.44130 0.49370 0.13990
C4 C 0.46625(18) 0.30340(18) 0.12633(6)
H3 H 0.49200 0.22740 0.14250
H4 H 0.53770 0.32380 0.10590
C5 C 0.33313(17) 0.28201(16) 0.10273(5)
H5 H 0.33990 0.32140 0.07390
C6 C 0.10100(17) 0.28390(17) 0.13795(5)
C7 C 0.19914(16) 0.48386(17) 0.10731(5)
C8 C -0.11765(17) 0.24328(18) 0.11411(6)
H6 H -0.16350 0.26480 0.14100
H7 H -0.10050 0.15170 0.11370
C9 C -0.20013(19) 0.2810(2) 0.07657(6)
H8 H -0.22390 0.37000 0.07900
H9 H -0.28100 0.23000 0.07580
H10 H -0.14940 0.26770 0.05030
C10 C 0.0766(2) 0.67324(17) 0.11147(7)
H11 H 0.05330 0.67310 0.08080
H12 H 0.15690 0.72550 0.11550
C11 C -0.0362(2) 0.7239(2) 0.13745(8)
H13 H -0.11540 0.67250 0.13260
H14 H -0.05430 0.81080 0.12900
H15 H -0.01260 0.72140 0.16770
C12 C 0.24240(18) 0.48089(19) 0.20257(5)
C13 C 0.2843(2) 0.6050(2) 0.20318(6)
H16 H 0.35220 0.63100 0.18410
C14 C 0.2298(2) 0.6916(2) 0.23078(8)
H17 H 0.26010 0.77610 0.23050
C15 C 0.1318(2) 0.6560(2) 0.25876(7)
H18 H 0.09360 0.71580 0.27760
C16 C 0.0891(2) 0.5320(2) 0.25921(6)
H19 H 0.02240 0.50650 0.27870
C17 C 0.14366(19) 0.4450(2) 0.23120(6)
H20 H 0.11340 0.36050 0.23160
C18 C 0.54433(18) 0.42125(17) 0.19114(6)
C19 C 0.7514(2) 0.5127(2) 0.21000(7)
H21 H 0.83720 0.52450 0.19520
H22 H 0.75920 0.43840 0.22880
C20 C 0.7211(3) 0.6260(3) 0.23610(9)
H23 H 0.71480 0.69960 0.21750
H24 H 0.79200 0.63900 0.25700
H25 H 0.63670 0.61380 0.25100
C21 C 0.30327(17) 0.14144(16) 0.09677(5)
H26 H 0.28260 0.10390 0.12520
C22 C 0.19003(17) 0.11296(16) 0.06665(5)
C23 C 0.11011(18) 0.00870(17) 0.07470(6)
H27 H 0.12530 -0.04010 0.09950
C24 C 0.00892(19) -0.02495(19) 0.04713(6)
H28 H -0.04420 -0.09640 0.05320
C25 C -0.01492(19) 0.04497(19) 0.01095(6)
H29 H -0.08340 0.02110 -0.00820
C26 C 0.06168(19) 0.15032(19) 0.00269(6)
H30 H 0.04490 0.19950 -0.02200
C27 C 0.16302(18) 0.18408(18) 0.03044(6)
H31 H 0.21460 0.25670 0.02460
C28 C 0.50758(19) -0.09113(18) 0.11960(6)
C29 C 0.5180(2) -0.23538(19) 0.11575(7)
H32 H 0.57270 -0.26760 0.13960
H33 H 0.42830 -0.27210 0.11860
C30 C 0.5779(2) -0.2789(2) 0.07428(7)
H34 H 0.67040 -0.24860 0.07190
H35 H 0.57890 -0.37190 0.07320
C31 C 0.4963(2) -0.22783(19) 0.03798(7)
H36 H 0.40670 -0.26550 0.03920
H37 H 0.53750 -0.25380 0.01080
C32 C 0.48294(19) -0.08393(17) 0.03845(6)
C33 C 0.64483(19) -0.0319(2) 0.12640(7)
H38 H 0.70790 -0.06810 0.10610
H39 H 0.67500 -0.04880 0.15550
H40 H 0.63920 0.05910 0.12190
C34 C 0.4256(2) -0.0649(2) 0.15997(6)
H41 H 0.42570 0.02550 0.16590
H42 H 0.46460 -0.10990 0.18410
H43 H 0.33430 -0.09360 0.15560
C35 C 0.61428(19) -0.0218(2) 0.02556(6)
H44 H 0.60950 0.06860 0.03120
H45 H 0.63030 -0.03590 -0.00490
H46 H 0.68690 -0.05860 0.04210
C36 C 0.3797(2) -0.0477(2) 0.00525(6)
H47 H 0.29360 -0.08310 0.01330
H48 H 0.40630 -0.08080 -0.02260
H49 H 0.37300 0.04400 0.00370
#END
