
#######################################################################
#
#                 Cambridge Crystallographic Data Centre
#                                CCDC
#
#######################################################################
#
# If this CIF has been generated from an entry in the Cambridge
# Structural Database, then it will include bibliographic, chemical,
# crystal, experimental, refinement or atomic coordinate data resulting
# from the CCDC's data processing and validation procedures.
#
#######################################################################

data_CSD_CIF_MUDWEO01
_audit_creation_date 2013-03-18
_audit_creation_method CSD-ConQuest-V1
_database_code_CSD MUDWEO01
_database_code_depnum_ccdc_archive 'CCDC 834913'
_chemical_formula_sum 'C18 H14 N4 O4'
_chemical_formula_moiety
;
C18 H14 N4 O4
;
_journal_coden_Cambridge 1277
_journal_volume 115
_journal_year 2011
_journal_page_first 10087
_journal_name_full 'J.Phys.Chem.A '
loop_
_publ_author_name
"Jong Hoon Lee"
"P.Naumov"
"Ihn Hee Chung"
"Sang Cheol Lee"
_chemical_name_systematic
;
4,6-Dinitro-N,N'-diphenylbenzene-1,3-diamine
;
_cell_volume   1659.383
_exptl_crystal_colour 'orange'
_exptl_crystal_density_diffrn 1.402
_exptl_special_details
;
P21/c polymorph

;
_exptl_crystal_description 'prism'
_diffrn_ambient_temperature 293
#These two values have been output from a single CSD field.
_refine_ls_R_factor_gt 0.0477
_refine_ls_wR_factor_gt 0.0477
_symmetry_cell_setting monoclinic
_symmetry_space_group_name_H-M 'P 21/c'
_symmetry_Int_Tables_number 14
loop_
_symmetry_equiv_pos_site_id
_symmetry_equiv_pos_as_xyz
1 x,y,z
2 -x,1/2+y,1/2-z
3 -x,-y,-z
4 x,-1/2-y,-1/2+z
_cell_length_a 10.9187(3)
_cell_length_b 10.9859(3)
_cell_length_c 14.7065(4)
_cell_angle_alpha 90
_cell_angle_beta 109.838(2)
_cell_angle_gamma 90
_cell_formula_units_Z 4
loop_
_atom_type_symbol
_atom_type_radius_bond
C 0.68
H 0.23
N 0.68
O 0.68
loop_
_atom_site_label
_atom_site_type_symbol
_atom_site_fract_x
_atom_site_fract_y
_atom_site_fract_z
H1 H 0.5940(16) 0.8824(16) 0.0833(13)
H2 H 0.5228(19) 0.3592(18) 0.2175(14)
C1 C 0.44298(14) 0.70241(13) 0.02967(11)
N1 N 0.39453(12) 0.79009(12) -0.04690(9)
N2 N 0.62982(13) 0.82335(13) 0.12276(10)
O1 O 0.44870(12) 0.88974(11) -0.03979(9)
C2 C 0.55899(14) 0.71995(14) 0.11112(11)
N3 N 0.56561(15) 0.42537(14) 0.23540(11)
O2 O 0.30070(12) 0.76326(12) -0.11773(9)
C3 C 0.52613(15) 0.51623(14) 0.16926(11)
N4 N 0.33022(15) 0.39697(13) 0.06588(11)
C4 C 0.37289(14) 0.59682(14) 0.01993(11)
H3 H 0.29740 0.58740 -0.03330
C5 C 0.59482(15) 0.62516(14) 0.17824(11)
H4 H 0.66910 0.63530 0.23230
C6 C 0.41069(15) 0.50476(14) 0.08632(11)
O3 O 0.22556(14) 0.39966(13) -0.00020(11)
C7 C 0.75255(14) 0.84703(15) 0.19422(11)
C8 C 0.67301(17) 0.42501(15) 0.32283(12)
O4 O 0.36971(15) 0.30480(12) 0.11445(11)
C9 C 0.7530(2) 0.32415(18) 0.34427(15)
H5 H 0.73940 0.26090 0.29990
C10 C 0.6945(2) 0.51723(18) 0.38954(13)
H6 H 0.64020 0.58490 0.37630
C11 C 0.85512(16) 0.76710(18) 0.21232(13)
H7 H 0.84440 0.69340 0.17940
C12 C 0.76923(18) 0.95712(17) 0.24130(13)
H8 H 0.70020 1.01160 0.22820
C13 C 0.8532(2) 0.3175(2) 0.43164(17)
H9 H 0.90660 0.24910 0.44620
C14 C 0.97383(19) 0.7972(2) 0.27970(17)
H10 H 1.04340 0.74340 0.29260
C15 C 0.9899(2) 0.9057(2) 0.32768(18)
H11 H 1.06980 0.92490 0.37390
C16 C 0.7959(2) 0.5097(2) 0.47560(15)
H12 H 0.81090 0.57330 0.51980
C17 C 0.8750(2) 0.4098(2) 0.49694(15)
H13 H 0.94320 0.40490 0.55560
C18 C 0.8886(2) 0.9861(2) 0.30784(17)
H14 H 0.90040 1.06080 0.33950
#END
