
#######################################################################
#
#                 Cambridge Crystallographic Data Centre
#                                CCDC
#
#######################################################################
#
# If this CIF has been generated from an entry in the Cambridge
# Structural Database, then it will include bibliographic, chemical,
# crystal, experimental, refinement or atomic coordinate data resulting
# from the CCDC's data processing and validation procedures.
#
#######################################################################

data_CSD_CIF_MUQNUH
_audit_creation_date 2003-04-15
_audit_creation_method CSD-ConQuest-V1
_database_code_CSD MUQNUH
_database_code_depnum_ccdc_archive 'CCDC 186048'
_chemical_formula_sum 'C24 H18 N2 O2'
_chemical_formula_moiety
;
C24 H18 N2 O2
;
_journal_coden_Cambridge 35
_journal_volume 67
_journal_year 2002
_journal_page_first 7631
_journal_name_full 'J.Org.Chem. '
loop_
_publ_author_name
"J.G.Rodriguez"
"J.L.Tejedor"
_chemical_name_systematic
;
N,N-Dimethyl-5-((5-nitro-1-naphthyl)ethynyl)naphthalen-1-amine
;
_chemical_melting_point 410.65
_cell_volume   1820.884
_exptl_crystal_colour 'orange'
_exptl_crystal_density_diffrn 1.337
_exptl_crystal_description 'prism'
_exptl_crystal_preparation 'dichloromethane'
_diffrn_ambient_temperature 296
#These two values have been output from a single CSD field.
_refine_ls_R_factor_gt 0.0348
_refine_ls_wR_factor_gt 0.0348
_symmetry_cell_setting monoclinic
_symmetry_space_group_name_H-M 'P 21/c'
_symmetry_Int_Tables_number 14
loop_
_symmetry_equiv_pos_site_id
_symmetry_equiv_pos_as_xyz
1 x,y,z
2 -x,1/2+y,1/2-z
3 -x,-y,-z
4 x,-1/2-y,-1/2+z
_cell_length_a 7.8944(1)
_cell_length_b 8.2364(1)
_cell_length_c 28.0376(4)
_cell_angle_alpha 90
_cell_angle_beta 92.790(1)
_cell_angle_gamma 90
_cell_formula_units_Z 4
loop_
_atom_type_symbol
_atom_type_radius_bond
C 0.68
H 0.23
N 0.68
O 0.68
loop_
_atom_site_label
_atom_site_type_symbol
_atom_site_fract_x
_atom_site_fract_y
_atom_site_fract_z
C1 C 0.2196(2) -0.4510(1) -0.1405(1)
C2 C 0.2971(2) -0.5515(2) -0.1076(1)
C3 C 0.3391(2) -0.4936(2) -0.0619(1)
C4 C 0.2998(2) -0.3381(2) -0.0502(1)
C5 C 0.2147(1) -0.2334(1) -0.0832(1)
C6 C 0.1729(1) -0.2880(1) -0.1304(1)
C7 C 0.0861(2) -0.1819(2) -0.1629(1)
C8 C 0.0431(2) -0.0293(2) -0.1492(1)
C9 C 0.0850(2) 0.0266(2) -0.1030(1)
C10 C 0.1693(1) -0.0713(2) -0.0702(1)
C11 C 0.2154(2) -0.0124(2) -0.0233(1)
C12 C 0.2570(2) 0.0352(2) 0.0159(1)
C13 C 0.3126(1) 0.0863(2) 0.0630(1)
C14 C 0.4078(2) -0.0184(2) 0.0916(1)
C15 C 0.4710(21) 0.0309(2) 0.1366(1)
C16 C 0.4339(2) 0.1810(2) 0.1538(1)
C17 C 0.3306(1) 0.2905(1) 0.1266(1)
C18 C 0.2725(1) 0.2456(1) 0.0798(1)
C19 C 0.2899(2) 0.4493(1) 0.1441(1)
C20 C 0.2077(2) 0.5569(2) 0.1136(1)
C21 C 0.1561(2) 0.5121(2) 0.0671(1)
C22 C 0.1835(2) 0.3596(2) 0.0506(1)
C23 C 0.2683(2) 0.4012(2) 0.2294(1)
C24 C 0.3525(4) 0.6629(2) 0.2020(1)
N1 N 0.1850(2) -0.5206(2) -0.1882(1)
N2 N 0.3451(1) 0.4906(1) 0.1912(1)
O1 O 0.2036(2) -0.4366(1) -0.2233(1)
O2 O 0.1408(2) -0.6619(1) -0.1906(1)
H1 H 0.322(2) -0.6624(18) -0.1183(6)
H2 H 0.4002(19) -0.5640(18) -0.0377(5)
H3 H 0.3296(17) -0.2959(16) -0.0188(5)
H4 H 0.0596(15) -0.2205(14) -0.1952(4)
H5 H -0.0215(17) 0.0418(16) -0.1730(5)
H6 H 0.0534(17) 0.1380(15) -0.0941(5)
H7 H 0.4362(18) -0.1274(16) 0.0785(5)
H8 H 0.5483(17) -0.0429(16) 0.1559(5)
H9 H 0.4811(15) 0.2172(15) 0.1843(5)
H10 H 0.1826(18) 0.6659(16) 0.1250(5)
H11 H 0.0943(19) 0.5918(18) 0.0465(5)
H12 H 0.1453(16) 0.3280(14) 0.0183(5)
H13 H 0.2508(17) 0.2803(18) 0.2202(5)
H14 H 0.343(2) 0.4103(18) 0.2587(6)
H15 H 0.1552(19) 0.4553(17) 0.2361(5)
H16 H 0.414(2) 0.674(2) 0.2335(7)
H17 H 0.241(3) 0.714(2) 0.2068(7)
H18 H 0.417(2) 0.714(2) 0.1764(6)
#END
