
#######################################################################
#
#                 Cambridge Crystallographic Data Centre
#                                CCDC
#
#######################################################################
#
# If this CIF has been generated from an entry in the Cambridge
# Structural Database, then it will include bibliographic, chemical,
# crystal, experimental, refinement or atomic coordinate data resulting
# from the CCDC's data processing and validation procedures.
#
#######################################################################

data_CSD_CIF_MXPNFP
_audit_creation_date 1978-09-01
_audit_creation_method CSD-ConQuest-V1
_database_code_CSD MXPNFP
_database_code_depnum_ccdc_archive 'CCDC 1215409'
_chemical_formula_sum 'C14 H11 N1 O6'
_chemical_formula_moiety
;
C14 H11 N1 O6
;
_journal_coden_Cambridge 189
_journal_volume 7
_journal_year 1978
_journal_page_first 203
_journal_name_full 'Cryst.Struct.Commun. '
loop_
_publ_author_name
"A.Carpy"
"J.M.Leger"
"A.Nuhrich"
_chemical_name_systematic
;
1-(3-Methoxy-4-hydroxyphenyl)-3-(5-nitro-2-furanyl)-2-propen-1-one
;
_cell_volume   1297.422
_diffrn_ambient_temperature ?
_diffrn_special_details
;
The study was carried out at room temperature,in the range 283-303K

;
#These two values have been output from a single CSD field.
_refine_ls_R_factor_gt 0.068
_refine_ls_wR_factor_gt 0.068
_symmetry_cell_setting monoclinic
_symmetry_space_group_name_H-M 'P 21/c'
_symmetry_Int_Tables_number 14
loop_
_symmetry_equiv_pos_site_id
_symmetry_equiv_pos_as_xyz
1 x,y,z
2 -x,1/2+y,1/2-z
3 -x,-y,-z
4 x,-1/2-y,-1/2+z
_cell_length_a 7.412(2)
_cell_length_b 14.499(1)
_cell_length_c 15.306(3)
_cell_angle_alpha 90
_cell_angle_beta 127.93(1)
_cell_angle_gamma 90
_cell_formula_units_Z 4
loop_
_atom_type_symbol
_atom_type_radius_bond
C 0.68
H 0.23
N 0.68
O 0.68
loop_
_atom_site_label
_atom_site_type_symbol
_atom_site_fract_x
_atom_site_fract_y
_atom_site_fract_z
C1 C -0.16120 -0.09070 0.32730
C2 C -0.35590 -0.03880 0.24870
C3 C -0.55560 -0.08240 0.16290
C4 C -0.56430 -0.17710 0.15360
C5 C -0.37280 -0.22960 0.23340
C6 C -0.17300 -0.18710 0.31890
C7 C 0.05840 -0.04920 0.41780
O1 O 0.21480 -0.09590 0.49440
C8 C 0.09470 0.05160 0.41680
C9 C 0.29260 0.09070 0.49500
C10 C 0.33970 0.18770 0.50230
C11 C 0.52340 0.23980 0.57950
C12 C 0.46810 0.33290 0.54560
C13 C 0.25340 0.33030 0.45060
O2 O 0.16850 0.24430 0.42020
N1 N 0.10920 0.40260 0.37860
O3 O -0.07620 0.38430 0.29120
O4 O 0.18340 0.48120 0.40980
O5 O -0.75800 -0.21830 0.06710
O6 O -0.40420 -0.32230 0.21590
C14 C -0.20840 -0.38000 0.28350
H1 H -0.35000 0.03000 0.25600
H2 H -0.69000 -0.04500 0.10800
H3 H -0.03400 -0.22500 0.37600
H4 H -0.03800 0.09000 0.35400
H5 H 0.41900 0.05100 0.55300
H6 H 0.66800 0.21600 0.64600
H7 H 0.56400 0.38900 0.58200
H8 H -0.73100 -0.28000 0.06600
H9 H -0.15700 -0.37600 0.36100
H10 H -0.08100 -0.36100 0.27800
H11 H -0.25700 -0.44200 0.25000
#END
