
#######################################################################
#
#                 Cambridge Crystallographic Data Centre
#                                CCDC
#
#######################################################################
#
# If this CIF has been generated from an entry in the Cambridge
# Structural Database, then it will include bibliographic, chemical,
# crystal, experimental, refinement or atomic coordinate data resulting
# from the CCDC's data processing and validation procedures.
#
#######################################################################

data_CSD_CIF_MXSALO
_audit_creation_date 1978-06-15
_audit_creation_method CSD-ConQuest-V1
_database_code_CSD MXSALO
_database_code_depnum_ccdc_archive 'CCDC 1215434'
_chemical_formula_sum 'C8 H9 N1 O3'
_chemical_formula_moiety
;
C8 H9 N1 O3
;
_journal_coeditor_code "IUCr A15932"
_journal_coden_Cambridge 107
_journal_volume 34
_journal_year 1978
_journal_page_first 1017
_journal_name_full 'Acta Crystallogr.,Sect.B:Struct.Crystallogr.Cryst.Chem. '
loop_
_publ_author_name
"C.E.Pfluger"
"M.T.Pfluger"
"E.B.Brackett"
_chemical_name_systematic
;
2-[(hydroxyimino)methyl]-4-methoxyphenol
;
_chemical_name_common
;
5-Methoxysalicylaldoxime
;
_cell_volume    788.880
_exptl_crystal_density_diffrn 1.407
_diffrn_ambient_temperature ?
_diffrn_special_details
;
The study was carried out at room temperature,in the range 283-303K

;
#These two values have been output from a single CSD field.
_refine_ls_R_factor_gt 0.036
_refine_ls_wR_factor_gt 0.036
_symmetry_cell_setting monoclinic
_symmetry_space_group_name_H-M 'P 21/c'
_symmetry_Int_Tables_number 14
loop_
_symmetry_equiv_pos_site_id
_symmetry_equiv_pos_as_xyz
1 x,y,z
2 -x,1/2+y,1/2-z
3 -x,-y,-z
4 x,-1/2-y,-1/2+z
_cell_length_a 3.914(2)
_cell_length_b 9.631(7)
_cell_length_c 21.100(15)
_cell_angle_alpha 90
_cell_angle_beta 97.33(6)
_cell_angle_gamma 90
_cell_formula_units_Z 4
loop_
_atom_type_symbol
_atom_type_radius_bond
C 0.68
H 0.23
N 0.68
O 0.68
loop_
_atom_site_label
_atom_site_type_symbol
_atom_site_fract_x
_atom_site_fract_y
_atom_site_fract_z
C1 C 0.05980 -0.07940 0.13250
C2 C 0.16360 -0.00930 0.18950
C3 C 0.10020 0.13080 0.19410
C4 C -0.06330 0.20500 0.14250
C5 C -0.16430 0.13700 0.08600
C6 C -0.11030 -0.00420 0.08130
C7 C 0.11840 -0.22720 0.12460
N1 N 0.27850 -0.29970 0.16910
O1 O 0.30750 -0.43930 0.15120
O2 O 0.32800 -0.07580 0.24260
O3 O -0.32030 0.19940 0.03070
C8 C -0.40320 0.34120 0.03410
H1 H 0.14950 0.17570 0.23280
H2 H -0.09950 0.29840 0.14690
H3 H -0.16060 -0.05130 0.04330
H4 H 0.03490 -0.26850 0.08620
H5 H 0.38670 -0.47830 0.18690
H6 H 0.39700 -0.15560 0.23140
H7 H -0.20880 0.39570 0.04170
H8 H -0.50590 0.36210 -0.00870
H9 H -0.55000 0.35590 0.06430
#END
