
#######################################################################
#
#                 Cambridge Crystallographic Data Centre
#                                CCDC
#
#######################################################################
#
# If this CIF has been generated from an entry in the Cambridge
# Structural Database, then it will include bibliographic, chemical,
# crystal, experimental, refinement or atomic coordinate data resulting
# from the CCDC's data processing and validation procedures.
#
#######################################################################

data_CSD_CIF_NAGFOR
_audit_creation_date 1996-11-18
_audit_creation_method CSD-ConQuest-V1
_database_code_CSD NAGFOR
_database_code_depnum_ccdc_archive 'CCDC 1215973'
_database_code_depnum_ccdc_fiz 'CSD 404649'
_chemical_formula_sum 'C15 H16 N1 O7'
_chemical_formula_moiety
;
C15 H16 N1 O7
;
_journal_coden_Cambridge 392
_journal_volume 43
_journal_year 1996
_journal_page_first 1165
_journal_name_full 'Heterocycles '
loop_
_publ_author_name
"S.Reck"
"K.Bluhm"
"T.Debaerdemaeker"
"J.-P.Declercq"
"B.Klenke"
"W.Friedrichsen"
_chemical_name_systematic
;
Dimethyl 
2,3,4,5-tetrahydro-9-methylisoxazolo(4,3-h)chromen-6-one-5,5-dicarboxylate
;
_chemical_melting_point 434.15
_cell_volume   1490.479
_diffrn_ambient_temperature ?
_diffrn_special_details
;
The study was carried out at room temperature,in the range 283-303K

;
#These two values have been output from a single CSD field.
_refine_ls_R_factor_gt 0.0702
_refine_ls_wR_factor_gt 0.0702
_symmetry_cell_setting monoclinic
_symmetry_space_group_name_H-M 'P 21/a'
_symmetry_Int_Tables_number 14
loop_
_symmetry_equiv_pos_site_id
_symmetry_equiv_pos_as_xyz
1 x,y,z
2 1/2-x,1/2+y,-z
3 -x,-y,-z
4 -1/2+x,-1/2-y,z
_cell_length_a 8.458(2)
_cell_length_b 17.842(6)
_cell_length_c 10.518(2)
_cell_angle_alpha 90
_cell_angle_beta 110.11(2)
_cell_angle_gamma 90
_cell_formula_units_Z 4
loop_
_atom_type_symbol
_atom_type_radius_bond
C 0.68
H 0.23
N 0.68
O 0.68
loop_
_atom_site_label
_atom_site_type_symbol
_atom_site_fract_x
_atom_site_fract_y
_atom_site_fract_z
C1 C 0.7177(3) 0.0763(2) 0.1318(3)
O1 O 0.6385(3) 0.2732(1) 0.0640(2)
C2 C 0.7020(3) 0.1518(2) 0.0765(3)
O2 O 0.7573(3) 0.0240(1) 0.0521(2)
C3 C 0.6486(3) 0.2094(2) 0.1347(3)
O3 O 0.8263(3) 0.2089(1) 0.4924(2)
C4 C 0.6877(4) 0.0623(2) 0.2461(3)
O4 O 0.3701(3) 0.0927(2) 0.2766(3)
C5 C 0.6941(4) -0.0167(2) 0.2985(3)
C6 C 0.6515(4) 0.1267(2) 0.3275(3)
C7 C 0.7845(7) -0.0508(2) 0.1079(5)
O5 O 0.5216(3) 0.2498(1) 0.2900(2)
C8 C 0.7249(4) 0.1844(2) -0.0403(3)
C9 C 0.5983(4) 0.2025(2) 0.2514(3)
O6 O 0.5265(4) 0.0986(2) 0.4967(3)
N1 N 0.6884(4) 0.2557(2) -0.0476(3)
C10 C 0.5100(4) 0.1047(2) 0.3803(3)
C11 C 0.6773(7) -0.0709(2) 0.1868(5)
C12 C 0.8135(5) 0.1412(2) 0.4514(3)
C13 C 0.7793(5) 0.1485(2) -0.1461(4)
O7 O 0.9184(6) 0.0961(2) 0.4976(5)
C14 C 0.9772(5) 0.2292(2) 0.6033(4)
C15 C 0.2205(6) 0.0733(3) 0.3096(6)
H1 H 0.8001(4) -0.0249(2) 0.3714(3)
H2 H 0.6035(4) -0.0243(2) 0.3338(3)
H3 H 0.9014(7) -0.0555(2) 0.1656(5)
H4 H 0.7646(7) -0.0863(2) 0.0343(5)
H5 H 0.7077(7) -0.1206(2) 0.2247(5)
H6 H 0.5608(7) -0.0724(2) 0.1271(5)
H7 H 0.7825(5) 0.1855(2) -0.2115(4)
H8 H 0.7011(5) 0.1097(2) -0.1902(4)
H9 H 0.8894(5) 0.1273(2) -0.1048(4)
H10 H 0.9722(5) 0.2812(2) 0.6248(4)
H11 H 1.0740(5) 0.2206(2) 0.5773(4)
H12 H 0.9856(5) 0.1992(2) 0.6811(4)
H13 H 0.1268(6) 0.0658(3) 0.2274(6)
H14 H 0.1953(6) 0.1132(3) 0.3607(6)
H15 H 0.2413(6) 0.0281(3) 0.3622(6)
#END
