
#######################################################################
#
#                 Cambridge Crystallographic Data Centre
#                                CCDC
#
#######################################################################
#
# If this CIF has been generated from an entry in the Cambridge
# Structural Database, then it will include bibliographic, chemical,
# crystal, experimental, refinement or atomic coordinate data resulting
# from the CCDC's data processing and validation procedures.
#
#######################################################################

data_CSD_CIF_NARLEA
_audit_creation_date 2017-03-22
_audit_creation_method CSD-ConQuest-V1
_database_code_CSD NARLEA
_database_code_depnum_ccdc_archive 'CCDC 1539595'
_chemical_formula_sum 'C17 H21 N1 O4'
_chemical_formula_moiety
;
C17 H21 N1 O4
;
_journal_coden_Cambridge 1078
_journal_year 2017
_journal_name_full 'CSD Communication(Private Communication) '
loop_
_publ_author_name
"J.W.Bats"
"A.Stephen K.Hashmi"
_chemical_name_systematic
;
6-((2-methoxy-5-nitrophenyl)methyl)-3,5,5-trimethylcyclohex-2-en-1-one
;
_chemical_name_common
;
1-(2-methoxy-5-nitrobenzyl)-4,6,6-trimethylcyclohex-3-en-2-one
;
_cell_volume   1574.767
_exptl_crystal_colour 'colorless'
_exptl_crystal_density_diffrn 1.28
_exptl_crystal_description 'prism'
_diffrn_ambient_temperature 136
#These two values have been output from a single CSD field.
_refine_ls_R_factor_gt 0.0567
_refine_ls_wR_factor_gt 0.0567
_symmetry_cell_setting monoclinic
_symmetry_space_group_name_H-M 'P 21/c'
_symmetry_Int_Tables_number 14
loop_
_symmetry_equiv_pos_site_id
_symmetry_equiv_pos_as_xyz
1 x,y,z
2 -x,1/2+y,1/2-z
3 -x,-y,-z
4 x,-1/2-y,-1/2+z
_cell_length_a 12.086(3)
_cell_length_b 11.8749(13)
_cell_length_c 11.2618(17)
_cell_angle_alpha 90
_cell_angle_beta 103.016(9)
_cell_angle_gamma 90
_cell_formula_units_Z 4
loop_
_atom_type_symbol
_atom_type_radius_bond
C 0.68
H 0.23
N 0.68
O 0.68
loop_
_atom_site_label
_atom_site_type_symbol
_atom_site_fract_x
_atom_site_fract_y
_atom_site_fract_z
O1 O 0.19277(9) 0.51577(10) 0.40165(10)
O2 O 0.03831(10) 0.28666(10) 0.04304(11)
N1 N -0.24390(11) 0.52756(12) 0.27680(12)
C1 C 0.00916(12) 0.43982(12) 0.16174(13)
C2 C -0.06136(12) 0.50025(13) 0.21962(13)
O3 O -0.33983(10) 0.49201(13) 0.27525(13)
O4 O -0.20925(10) 0.61877(11) 0.32067(12)
C3 C 0.22502(12) 0.41508(12) 0.22696(13)
H1 H 0.19858 0.33535 0.22777
C4 C 0.42146(12) 0.33747(13) 0.25313(14)
H2 H 0.39797 0.25804 0.23701
H3 H 0.49467 0.34746 0.22891
C5 C -0.16886(12) 0.45911(13) 0.22140(13)
C6 C 0.36328(13) 0.41303(13) 0.43484(14)
C7 C -0.03226(13) 0.33762(13) 0.10414(13)
C8 C 0.12435(12) 0.48356(13) 0.15277(14)
H4 H 0.13173 0.56260 0.18142
H5 H 0.12883 0.48334 0.06607
C9 C 0.25600(12) 0.45438(12) 0.35932(13)
C10 C 0.44015(12) 0.35875(12) 0.38768(14)
C11 C -0.13889(14) 0.29533(14) 0.11008(15)
C12 C 0.33217(12) 0.41361(13) 0.17211(14)
C13 C -0.20776(14) 0.35688(14) 0.16915(15)
C14 C 0.37855(14) 0.53338(14) 0.16721(17)
H6 H 0.44562 0.53129 0.13193
H7 H 0.39958 0.56443 0.24986
H8 H 0.32009 0.58092 0.11671
C15 C 0.54878(13) 0.31405(14) 0.46570(16)
H9 H 0.54902 0.32637 0.55180
H10 H 0.61344 0.35339 0.44553
H11 H 0.55473 0.23323 0.45065
C16 C 0.30560(14) 0.36320(15) 0.04324(15)
H12 H 0.25143 0.41180 -0.01155
H13 H 0.27261 0.28802 0.04520
H14 H 0.37578 0.35761 0.01381
C17 C -0.00270(16) 0.18917(16) -0.02916(17)
H15 H -0.02344 0.13063 0.02320
H16 H 0.05692 0.16067 -0.06750
H17 H -0.06954 0.20973 -0.09240
H18 H 0.3756(16) 0.4246(16) 0.5201(18)
H19 H -0.0363(15) 0.5724(16) 0.2575(16)
H20 H -0.2834(17) 0.3306(17) 0.1727(17)
H21 H -0.1638(17) 0.2232(17) 0.0729(18)
#END
