
#######################################################################
#
#                 Cambridge Crystallographic Data Centre
#                                CCDC
#
#######################################################################
#
# If this CIF has been generated from an entry in the Cambridge
# Structural Database, then it will include bibliographic, chemical,
# crystal, experimental, refinement or atomic coordinate data resulting
# from the CCDC's data processing and validation procedures.
#
#######################################################################

data_CSD_CIF_NASTOR
_audit_creation_date 2005-09-27
_audit_creation_method CSD-ConQuest-V1
_database_code_CSD NASTOR
_chemical_formula_sum 'C27 H29 N3 O3'
_chemical_formula_moiety
;
C27 H29 N3 O3
;
_journal_coden_Cambridge 35
_journal_volume 70
_journal_year 2005
_journal_page_first 1963
_journal_name_full 'J.Org.Chem. '
loop_
_publ_author_name
"J.D.White"
"J.D.Hansen"
_chemical_name_systematic
;
N,N-Dibenzyl-3-methyl-1-((Z)-(4-nitrobenzylidene)(oxido)amino)pent-4-en-2-amin
e
;
_cell_volume   2453.490
_exptl_crystal_colour 'orange'
_exptl_crystal_density_diffrn 1.201
_exptl_crystal_preparation 'diethyl ether/hexane'
_diffrn_ambient_temperature 290
#These two values have been output from a single CSD field.
_refine_ls_R_factor_gt 0.0433
_refine_ls_wR_factor_gt 0.0433
_symmetry_cell_setting orthorhombic
_symmetry_space_group_name_H-M 'P 21 21 21'
_symmetry_Int_Tables_number 19
loop_
_symmetry_equiv_pos_site_id
_symmetry_equiv_pos_as_xyz
1 x,y,z
2 1/2-x,-y,1/2+z
3 1/2+x,1/2-y,-z
4 -x,1/2+y,1/2-z
_cell_length_a 10.277(4)
_cell_length_b 11.329(2)
_cell_length_c 21.073(1)
_cell_angle_alpha 90
_cell_angle_beta 90
_cell_angle_gamma 90
_cell_formula_units_Z 4
loop_
_atom_type_symbol
_atom_type_radius_bond
C 0.68
H 0.23
N 0.68
O 0.68
loop_
_atom_site_label
_atom_site_type_symbol
_atom_site_fract_x
_atom_site_fract_y
_atom_site_fract_z
C1 C 0.2818(4) -0.2051(4) 0.1622(3)
C2 C 0.2279(3) -0.1122(3) 0.1760(2)
C3 C 0.0997(2) -0.0599(2) 0.1589(1)
C4 C 0.0197(3) -0.1376(2) 0.1158(1)
C5 C 0.1180(2) 0.0706(2) 0.1361(1)
C6 C 0.1463(2) 0.0775(2) 0.0647(1)
C7 C 0.1230(2) 0.2717(2) 0.0201(1)
C8 C 0.1519(2) 0.3947(2) 0.0083(1)
C9 C 0.0576(2) 0.4575(2) -0.0248(1)
C10 C 0.0722(2) 0.5770(2) -0.0370(1)
C11 C 0.1844(2) 0.6314(2) -0.0161(1)
C12 C 0.2801(2) 0.5724(2) 0.0165(1)
C13 C 0.2646(2) 0.4528(2) 0.0290(1)
C14 C 0.0235(2) 0.1898(2) 0.2205(1)
C15 C 0.1417(2) 0.2610(2) 0.2354(1)
C16 C 0.1641(3) 0.3675(2) 0.2061(1)
C17 C 0.2724(4) 0.4358(3) 0.2222(2)
C18 C 0.3570(4) 0.3976(5) 0.2666(2)
C19 C 0.3369(4) 0.2914(5) 0.2957(2)
C20 C 0.2307(3) 0.2235(4) 0.2808(1)
C21 C -0.1163(2) 0.1232(2) 0.1358(1)
C22 C -0.2082(2) 0.2279(2) 0.1338(1)
C23 C -0.3376(2) 0.2146(2) 0.1505(1)
C24 C -0.4242(2) 0.3061(3) 0.1458(1)
C25 C -0.3826(3) 0.4149(3) 0.1239(1)
C26 C -0.2548(3) 0.4300(2) 0.1075(1)
C27 C -0.1687(2) 0.3370(2) 0.1120(1)
N1 N 0.1973(2) 0.1956(1) 0.0492(1)
N2 N 0.0160(2) 0.1556(1) 0.1533(1)
N3 N 0.1999(3) 0.7576(2) -0.0287(1)
O1 O 0.3132(2) 0.2162(1) 0.0689(1)
O2 O 0.1096(2) 0.8113(2) -0.0530(1)
O3 O 0.3024(2) 0.8047(2) -0.0141(1)
H1 H 0.24040 -0.25900 0.13570
H2 H 0.36410 -0.22180 0.17820
H3 H 0.27730 -0.06450 0.20270
H4 H 0.05080 -0.05490 0.19870
H5 H -0.06170 -0.09960 0.10670
H6 H 0.00370 -0.21180 0.13640
H7 H 0.06620 -0.15090 0.07700
H8 H 0.19720 0.09880 0.15710
H9 H 0.20960 0.01780 0.05310
H10 H 0.06710 0.06290 0.04090
H11 H 0.04330 0.24400 0.00560
H12 H -0.01650 0.41860 -0.03900
H13 H 0.00830 0.61910 -0.05850
H14 H 0.35430 0.61200 0.03010
H15 H 0.32860 0.41150 0.05090
H16 H 0.02370 0.11910 0.24640
H17 H -0.05340 0.23520 0.23140
H18 H 0.10660 0.39440 0.17520
H19 H 0.28620 0.50790 0.20220
H20 H 0.42870 0.44350 0.27750
H21 H 0.39600 0.26480 0.32590
H22 H 0.21810 0.15170 0.30130
H23 H -0.14890 0.06590 0.16600
H24 H -0.11490 0.08600 0.09430
H25 H -0.36650 0.14190 0.16530
H26 H -0.51070 0.29510 0.15720
H27 H -0.44100 0.47720 0.12030
H28 H -0.22590 0.50330 0.09340
H29 H -0.08240 0.34810 0.10010
#END
