
#######################################################################
#
#                 Cambridge Crystallographic Data Centre
#                                CCDC
#
#######################################################################
#
# If this CIF has been generated from an entry in the Cambridge
# Structural Database, then it will include bibliographic, chemical,
# crystal, experimental, refinement or atomic coordinate data resulting
# from the CCDC's data processing and validation procedures.
#
#######################################################################

data_CSD_CIF_NAXJAZ
_audit_creation_date 2012-09-26
_audit_creation_method CSD-ConQuest-V1
_database_code_CSD NAXJAZ
_database_code_depnum_ccdc_archive 'CCDC 758866'
_chemical_formula_sum 'C11 H12 N4 O2'
_chemical_formula_moiety
;
C11 H12 N4 O2
;
_journal_coden_Cambridge 452
_journal_volume 9
_journal_year 2012
_journal_page_first 1240
_journal_name_full 'Chem.Biodiversity '
loop_
_publ_author_name
"S.Villa"
"D.Masciocchi"
"A.Gelain"
"F.Meneghetti"
_chemical_name_systematic
;
1-Benzyl-3-(4-methyl-1,2,5-oxadiazol-3-yl)urea
;
_cell_volume   1156.260
_exptl_crystal_colour 'colorless'
_exptl_crystal_density_diffrn 1.334
_exptl_crystal_description 'prism'
_diffrn_ambient_temperature 293
#These two values have been output from a single CSD field.
_refine_ls_R_factor_gt 0.0429
_refine_ls_wR_factor_gt 0.0429
_symmetry_cell_setting monoclinic
_symmetry_space_group_name_H-M 'P 21/c'
_symmetry_Int_Tables_number 14
loop_
_symmetry_equiv_pos_site_id
_symmetry_equiv_pos_as_xyz
1 x,y,z
2 -x,1/2+y,1/2-z
3 -x,-y,-z
4 x,-1/2-y,-1/2+z
_cell_length_a 13.261(5)
_cell_length_b 4.972(5)
_cell_length_c 17.840(5)
_cell_angle_alpha 90
_cell_angle_beta 100.58(1)
_cell_angle_gamma 90
_cell_formula_units_Z 4
loop_
_atom_type_symbol
_atom_type_radius_bond
C 0.68
H 0.23
N 0.68
O 0.68
loop_
_atom_site_label
_atom_site_type_symbol
_atom_site_fract_x
_atom_site_fract_y
_atom_site_fract_z
H1 H 0.9106(18) 0.552(5) 0.3475(13)
H2 H 0.7754(16) 0.775(5) 0.3731(13)
H3 H 0.7253(19) 0.283(5) 0.2869(14)
H4 H 1.264(3) 0.019(7) 0.438(2)
H5 H 0.8023(18) 0.664(6) 0.4627(16)
H6 H 1.287(3) -0.074(6) 0.3638(17)
H7 H 0.473(3) -0.033(8) 0.346(2)
H8 H 1.197(3) -0.194(8) 0.3938(19)
H9 H 0.503(3) 0.247(6) 0.4562(17)
H10 H 0.642(2) 0.495(7) 0.4797(18)
H11 H 0.586(2) 0.003(7) 0.2584(19)
H12 H 1.0474(18) 0.073(5) 0.4473(14)
O1 O 0.89947(11) 0.2180(3) 0.48746(9)
N1 N 1.02047(14) 0.2023(5) 0.41365(12)
C1 C 1.16708(17) 0.1750(5) 0.34517(14)
C2 C 1.07136(17) 0.2819(5) 0.35768(13)
C3 C 0.93130(16) 0.3069(5) 0.43213(14)
O2 O 1.11439(15) 0.4818(4) 0.26228(10)
N2 N 0.88332(15) 0.5044(4) 0.38829(13)
N3 N 1.19206(16) 0.2977(5) 0.28737(13)
N4 N 1.03977(15) 0.4692(5) 0.30766(12)
C4 C 0.69779(17) 0.4308(5) 0.38715(15)
C5 C 0.7892(2) 0.6182(6) 0.4053(2)
C6 C 0.6802(2) 0.2784(6) 0.32214(17)
C7 C 1.2325(2) -0.0350(8) 0.3884(2)
C8 C 0.5961(3) 0.1091(7) 0.3056(2)
C9 C 0.5442(3) 0.2432(10) 0.4185(3)
C10 C 0.6292(3) 0.4132(8) 0.4355(2)
C11 C 0.5288(3) 0.0923(8) 0.3538(3)
#END
