
#######################################################################
#
#                 Cambridge Crystallographic Data Centre
#                                CCDC
#
#######################################################################
#
# If this CIF has been generated from an entry in the Cambridge
# Structural Database, then it will include bibliographic, chemical,
# crystal, experimental, refinement or atomic coordinate data resulting
# from the CCDC's data processing and validation procedures.
#
#######################################################################

data_CSD_CIF_NAXJED
_audit_creation_date 2012-09-26
_audit_creation_method CSD-ConQuest-V1
_database_code_CSD NAXJED
_database_code_depnum_ccdc_archive 'CCDC 796642'
_chemical_formula_sum 'C11 H10 N4 O3'
_chemical_formula_moiety
;
C11 H10 N4 O3
;
_journal_coden_Cambridge 452
_journal_volume 9
_journal_year 2012
_journal_page_first 1240
_journal_name_full 'Chem.Biodiversity '
loop_
_publ_author_name
"S.Villa"
"D.Masciocchi"
"A.Gelain"
"F.Meneghetti"
_chemical_name_systematic
;
6-Benzyl-7-hydroxy-6,7-dihydro[1,2,5]oxadiazolo[3,4-d]pyrimidin-5(4H)-one
;
_cell_volume    536.765
_exptl_crystal_colour 'colorless'
_exptl_crystal_density_diffrn 1.524
_exptl_crystal_description 'prism'
_diffrn_ambient_temperature 293
#These two values have been output from a single CSD field.
_refine_ls_R_factor_gt 0.0475
_refine_ls_wR_factor_gt 0.0475
_symmetry_cell_setting triclinic
_symmetry_space_group_name_H-M 'P -1'
_symmetry_Int_Tables_number 2
loop_
_symmetry_equiv_pos_site_id
_symmetry_equiv_pos_as_xyz
1 x,y,z
2 -x,-y,-z
_cell_length_a 6.529(3)
_cell_length_b 8.797(2)
_cell_length_c 9.566(6)
_cell_angle_alpha 81.388(10)
_cell_angle_beta 84.046(10)
_cell_angle_gamma 82.652(10)
_cell_formula_units_Z 2
loop_
_atom_type_symbol
_atom_type_radius_bond
C 0.68
H 0.23
N 0.68
O 0.68
loop_
_atom_site_label
_atom_site_type_symbol
_atom_site_fract_x
_atom_site_fract_y
_atom_site_fract_z
O1 O 0.4142(4) 0.5400(3) 0.2863(3)
O2 O 0.6450(3) 0.0155(2) 0.6680(2)
O3 O 0.0685(3) 0.1717(3) 0.4691(3)
N1 N 0.2396(4) 0.4867(3) 0.3632(3)
N2 N 0.5930(4) 0.4409(3) 0.3204(3)
N3 N 0.3303(3) 0.1481(3) 0.6264(3)
N4 N 0.6327(4) 0.2091(3) 0.4873(3)
C1 C 0.3078(4) 0.3609(3) 0.4407(3)
C2 C 0.5235(4) 0.3339(3) 0.4152(3)
C3 C 0.1857(4) 0.2539(4) 0.5409(4)
C4 C 0.2293(6) 0.0558(4) 0.7502(4)
C5 C 0.1599(5) 0.1485(3) 0.8684(3)
C6 C 0.2987(6) 0.1905(5) 0.9494(4)
C7 C 0.2362(7) 0.2731(5) 1.0587(5)
C8 C 0.0285(7) 0.3183(5) 1.0890(5)
C9 C -0.1110(6) 0.2781(4) 1.0101(4)
C10 C -0.0499(5) 0.1935(4) 0.9000(4)
C11 C 0.5391(4) 0.1191(3) 0.5981(3)
H1 H 0.760(5) 0.199(3) 0.478(3)
H2 H 0.095(4) 0.307(3) 0.606(3)
H3 H 0.123(6) 0.018(4) 0.718(4)
H4 H 0.328(6) 0.301(4) 1.121(4)
H5 H -0.008(6) 0.374(4) 1.162(4)
H6 H 0.325(5) -0.031(4) 0.780(3)
H7 H -0.144(6) 0.161(4) 0.848(4)
H8 H -0.249(6) 0.313(4) 1.031(4)
H9 H 0.444(7) 0.159(5) 0.929(5)
H10 H 0.157(8) 0.093(6) 0.396(6)
#END
