
#######################################################################
#
#                 Cambridge Crystallographic Data Centre
#                                CCDC
#
#######################################################################
#
# If this CIF has been generated from an entry in the Cambridge
# Structural Database, then it will include bibliographic, chemical,
# crystal, experimental, refinement or atomic coordinate data resulting
# from the CCDC's data processing and validation procedures.
#
#######################################################################

data_CSD_CIF_NBZOAO03
_audit_creation_date 2009-06-24
_audit_creation_method CSD-ConQuest-V1
_database_code_CSD NBZOAO03
_database_code_depnum_ccdc_archive 'CCDC 731212'
_chemical_formula_sum 'C7 H5 N1 O4'
_chemical_formula_moiety
;
C7 H5 N1 O4
;
_journal_coeditor_code "IUCr KP2213"
_journal_coden_Cambridge 1370
_journal_volume 65
_journal_year 2009
_journal_page_first o954
_journal_name_full 'Acta Crystallogr.,Sect.E:Struct.Rep.Online '
loop_
_publ_author_name
"G.Portalone"
_chemical_name_systematic
;
2-Nitrobenzoic acid
;
_chemical_name_common
;
o-Nitrobenzoic acid
;
_cell_volume    354.352
_exptl_crystal_colour 'colorless'
_exptl_crystal_density_diffrn 1.566
_exptl_special_details
;
alpha polymorph

;
_exptl_crystal_description 'tablet'
_diffrn_ambient_temperature 298
#These two values have been output from a single CSD field.
_refine_ls_R_factor_gt 0.0769
_refine_ls_wR_factor_gt 0.0769
_symmetry_cell_setting triclinic
_symmetry_space_group_name_H-M 'P -1'
_symmetry_Int_Tables_number 2
loop_
_symmetry_equiv_pos_site_id
_symmetry_equiv_pos_as_xyz
1 x,y,z
2 -x,-y,-z
_cell_length_a 5.0147(15)
_cell_length_b 7.527(2)
_cell_length_c 10.620(2)
_cell_angle_alpha 69.41(2)
_cell_angle_beta 86.07(2)
_cell_angle_gamma 71.01(3)
_cell_formula_units_Z 2
loop_
_atom_type_symbol
_atom_type_radius_bond
C 0.68
H 0.23
N 0.68
O 0.68
loop_
_atom_site_label
_atom_site_type_symbol
_atom_site_fract_x
_atom_site_fract_y
_atom_site_fract_z
O1 O 0.8083(4) 0.3762(3) 0.6058(2)
O2 O 1.2483(4) 0.2482(3) 0.5512(2)
H1 H 1.221(7) 0.378(5) 0.504(3)
O3 O 0.7790(4) 0.2147(3) 0.8921(2)
O4 O 0.4118(4) 0.1514(3) 0.8517(2)
N1 N 0.6642(5) 0.1288(3) 0.8481(2)
C1 C 1.0287(5) 0.0235(3) 0.6923(2)
C2 C 0.8416(5) -0.0231(4) 0.7933(2)
C3 C 0.8224(6) -0.2123(4) 0.8508(3)
H2 H 0.69040 -0.23750 0.91470
C4 C 1.0025(6) -0.3648(4) 0.8123(3)
H3 H 0.99270 -0.49410 0.85030
C5 C 1.1971(6) -0.3249(4) 0.7172(3)
H4 H 1.32190 -0.42860 0.69330
C6 C 1.2084(6) -0.1327(4) 0.6572(3)
H5 H 1.33860 -0.10800 0.59220
C7 C 1.0188(5) 0.2327(4) 0.6144(3)
#END
