
#######################################################################
#
#                 Cambridge Crystallographic Data Centre
#                                CCDC
#
#######################################################################
#
# If this CIF has been generated from an entry in the Cambridge
# Structural Database, then it will include bibliographic, chemical,
# crystal, experimental, refinement or atomic coordinate data resulting
# from the CCDC's data processing and validation procedures.
#
#######################################################################

data_CSD_CIF_NBZOAC12
_audit_creation_date 2015-06-10
_audit_creation_method CSD-ConQuest-V1
_database_code_CSD NBZOAC12
_database_code_depnum_ccdc_archive 'CCDC 1401975'
_chemical_formula_sum 'C7 H5 N1 O4'
_chemical_formula_moiety
;
C7 H5 N1 O4
;
_journal_coden_Cambridge 1147
_journal_volume 15
_journal_year 2015
_journal_page_first 3280
_journal_name_full 'Cryst.Growth Des. '
loop_
_publ_author_name
"T.S.Thakur"
"Shiv Shankar Singh"
_chemical_name_systematic
;
4-nitrobenzoic acid
;
_cell_volume   1345.360
_exptl_crystal_colour 'colorless'
_exptl_crystal_density_diffrn 1.65
_exptl_special_details
;
polymorph I

;
_exptl_crystal_description 'block'
_exptl_crystal_preparation 'acetonitrile'
_diffrn_ambient_temperature 100
_refine_special_details
;
multipole

;
#These two values have been output from a single CSD field.
_refine_ls_R_factor_gt 0.022
_refine_ls_wR_factor_gt 0.022
_symmetry_cell_setting monoclinic
_symmetry_space_group_name_H-M 'C 2/c'
_symmetry_Int_Tables_number 15
loop_
_symmetry_equiv_pos_site_id
_symmetry_equiv_pos_as_xyz
1 x,y,z
2 -x,y,1/2-z
3 1/2+x,1/2+y,z
4 1/2-x,1/2+y,1/2-z
5 -x,-y,-z
6 x,-y,-1/2+z
7 -1/2-x,-1/2-y,-z
8 -1/2+x,-1/2-y,-1/2+z
_cell_length_a 20.98(13)
_cell_length_b 5.03(3)
_cell_length_c 12.85(7)
_cell_angle_alpha 90
_cell_angle_beta 97.20(8)
_cell_angle_gamma 90
_cell_formula_units_Z 8
loop_
_atom_type_symbol
_atom_type_radius_bond
C 0.68
H 0.23
N 0.68
O 0.68
loop_
_atom_site_label
_atom_site_type_symbol
_atom_site_fract_x
_atom_site_fract_y
_atom_site_fract_z
O1 O 0.484951(8) 1.34670(3) 0.623198(13)
O2 O 0.452625(8) 1.25595(3) 0.453887(14)
O3 O 0.246622(14) 0.31606(7) 0.61731(3)
O4 O 0.300553(14) 0.32036(5) 0.77253(2)
N1 N 0.290031(7) 0.39906(3) 0.681791(12)
C1 C 0.410085(7) 0.99880(3) 0.584611(12)
C2 C 0.370607(8) 0.85273(3) 0.509404(13)
C3 C 0.330512(8) 0.65529(3) 0.540679(13)
C4 C 0.331889(7) 0.60810(3) 0.647654(13)
C5 C 0.371007(8) 0.74809(3) 0.724028(13)
C6 C 0.410342(8) 0.94722(3) 0.691755(13)
C7 C 0.451173(7) 1.21189(3) 0.547857(13)
H1 H 0.51249 1.49324 0.59726
H2 H 0.37056 0.89122 0.42649
H3 H 0.30007 0.53713 0.48416
H4 H 0.36992 0.70604 0.80646
H5 H 0.44243 1.05619 0.74913
#END
