
#######################################################################
#
#                 Cambridge Crystallographic Data Centre
#                                CCDC
#
#######################################################################
#
# If this CIF has been generated from an entry in the Cambridge
# Structural Database, then it will include bibliographic, chemical,
# crystal, experimental, refinement or atomic coordinate data resulting
# from the CCDC's data processing and validation procedures.
#
#######################################################################

data_CSD_CIF_NEDDOP
_audit_creation_date 1998-04-14
_audit_creation_method CSD-ConQuest-V1
_database_code_CSD NEDDOP
_database_code_depnum_ccdc_archive 'CCDC 122819; CCDC 100626'
_chemical_formula_sum 'C11 H13 N5 O5'
_chemical_formula_moiety
;
C11 H13 N5 O5
;
_journal_coden_Cambridge 167
_journal_year 1997
_journal_page_first 2525
_journal_name_full 'Liebigs Ann. '
loop_
_publ_author_name
"F.Seela"
"H.Rosemeyer"
"M.Zulauf"
"Y.Chen"
"G.Kastner"
"H.Reuter"
_chemical_name_systematic
;
7-Nitro-7-deaza-2'-deoxyadenosine
;
_chemical_melting_point 460
_cell_volume   1232.863
_exptl_crystal_colour 'bright yellow'
_exptl_crystal_density_diffrn 1.591
_exptl_special_details
;
Melting point range 460-462K

;
_exptl_crystal_description 'needle'
_exptl_crystal_preparation 'methanol'
_diffrn_ambient_temperature ?
_diffrn_special_details
;
The study was carried out at room temperature,in the range 283-303K

;
#These two values have been output from a single CSD field.
_refine_ls_R_factor_gt 0.0424
_refine_ls_wR_factor_gt 0.0424
_symmetry_cell_setting orthorhombic
_symmetry_space_group_name_H-M 'P 21 21 21'
_symmetry_Int_Tables_number 19
loop_
_symmetry_equiv_pos_site_id
_symmetry_equiv_pos_as_xyz
1 x,y,z
2 1/2-x,-y,1/2+z
3 -x,1/2+y,1/2-z
4 1/2+x,1/2-y,-z
_cell_length_a 6.6696(11)
_cell_length_b 9.5062(15)
_cell_length_c 19.445(5)
_cell_angle_alpha 90
_cell_angle_beta 90
_cell_angle_gamma 90
_cell_formula_units_Z 4
loop_
_atom_type_symbol
_atom_type_radius_bond
C 0.68
H 0.23
N 0.68
O 0.68
loop_
_atom_site_label
_atom_site_type_symbol
_atom_site_fract_x
_atom_site_fract_y
_atom_site_fract_z
N1 N 0.8349(4) 0.3198(2) -0.15640(9)
C1 C 0.8456(5) 0.4594(2) -0.14816(10)
H1 H 0.8533(5) 0.5121(2) -0.18839(10)
N2 N 0.8466(3) 0.5318(2) -0.09035(8)
C2 C 0.8408(4) 0.4486(2) -0.03528(9)
C3 C 0.8354(3) 0.3014(2) -0.03473(9)
C4 C 0.8281(3) 0.2376(2) -0.1005(1)
N3 N 0.8135(4) 0.0981(2) -0.11035(10)
H2 H 0.8088(4) 0.0647(2) -0.15142(10)
H3 H 0.8089(4) 0.0422(2) -0.07561(10)
C5 C 0.8331(3) 0.2635(2) 0.0365(1)
N4 N 0.8354(3) 0.1281(2) 0.06715(9)
O1 O 0.8349(4) 0.1210(2) 0.12978(8)
O2 O 0.8383(4) 0.0231(2) 0.03054(9)
C6 C 0.8380(4) 0.3843(2) 0.07459(10)
H4 H 0.8388(4) 0.3888(2) 0.12236(10)
N5 N 0.8414(3) 0.4965(2) 0.03164(8)
C7 C 0.8551(4) 0.6456(2) 0.05215(10)
H5 H 0.8651(4) 0.7045(2) 0.01094(10)
C8 C 0.6814(4) 0.6958(2) 0.09601(11)
H6 H 0.5676(4) 0.6328(2) 0.09200(11)
H7 H 0.6401(4) 0.7898(2) 0.08279(11)
C9 C 0.7653(4) 0.6945(2) 0.16864(9)
H8 H 0.7527(4) 0.6005(2) 0.18884(9)
O3 O 0.6708(3) 0.7957(2) 0.21105(7)
H9 H 0.6647(3) 0.7658(2) 0.25056(7)
C10 C 0.9844(4) 0.7293(2) 0.15554(10)
H10 H 0.9973(4) 0.8311(2) 0.14904(10)
O4 O 1.0320(2) 0.6601(2) 0.09179(7)
C11 C 1.1285(5) 0.6837(3) 0.21015(13)
H11 H 1.2645(5) 0.7049(3) 0.19579(13)
H12 H 1.1017(5) 0.7349(3) 0.25232(13)
O5 O 1.1092(4) 0.5368(2) 0.22221(8)
H13 H 1.1477(4) 0.5184(2) 0.26123(8)
#END
