
#######################################################################
#
#                 Cambridge Crystallographic Data Centre
#                                CCDC
#
#######################################################################
#
# If this CIF has been generated from an entry in the Cambridge
# Structural Database, then it will include bibliographic, chemical,
# crystal, experimental, refinement or atomic coordinate data resulting
# from the CCDC's data processing and validation procedures.
#
#######################################################################

data_CSD_CIF_NEDZOO
_audit_creation_date 2017-08-08
_audit_creation_method CSD-ConQuest-V1
_database_code_CSD NEDZOO
_database_code_depnum_ccdc_archive 'CCDC 1506108'
_chemical_formula_sum 'C17 H18 N2 O6'
_chemical_formula_moiety
;
C17 H18 N2 O6
;
_journal_coden_Cambridge 24
_journal_volume 58
_journal_year 2017
_journal_page_first 3658
_journal_name_full 'Tetrahedron Lett. '
loop_
_publ_author_name
"Lingling Lu"
"Pan Zhou"
"Biao Hu"
"Xiang Li"
"Rong Huang"
"Fuchao Yu"
_chemical_name_systematic
;
3-ethyl 4-propyl 2-methyl-6-nitroquinoline-3,4-dicarboxylate
;
_cell_volume    864.635
_exptl_crystal_colour 'colorless'
_exptl_crystal_density_diffrn 1.33
_exptl_crystal_description 'block'
_diffrn_ambient_temperature 293
#These two values have been output from a single CSD field.
_refine_ls_R_factor_gt 0.0481
_refine_ls_wR_factor_gt 0.0481
_symmetry_cell_setting triclinic
_symmetry_space_group_name_H-M 'P -1'
_symmetry_Int_Tables_number 2
loop_
_symmetry_equiv_pos_site_id
_symmetry_equiv_pos_as_xyz
1 x,y,z
2 -x,-y,-z
_cell_length_a 7.1284(9)
_cell_length_b 10.7581(13)
_cell_length_c 12.0300(14)
_cell_angle_alpha 97.738(1)
_cell_angle_beta 105.523(1)
_cell_angle_gamma 98.401(1)
_cell_formula_units_Z 2
loop_
_atom_type_symbol
_atom_type_radius_bond
C 0.68
H 0.23
N 0.68
O 0.68
loop_
_atom_site_label
_atom_site_type_symbol
_atom_site_fract_x
_atom_site_fract_y
_atom_site_fract_z
N1 N 0.2780(3) 0.0568(2) 0.20882(18)
N2 N 0.2259(2) -0.06053(15) 0.64051(15)
O1 O 0.2451(3) -0.0325(2) 0.12855(17)
O2 O 0.3262(4) 0.1677(2) 0.20091(17)
O3 O 0.2187(2) 0.26650(14) 0.87844(12)
O4 O 0.5345(2) 0.32837(17) 0.88235(16)
O5 O 0.2977(2) 0.40780(13) 0.65992(14)
O6 O 0.5480(3) 0.37077(15) 0.58808(18)
C1 C 0.2632(3) 0.0283(2) 0.32306(18)
C2 C 0.3088(3) 0.1268(2) 0.41480(18)
H1 H 0.34650 0.21020 0.40510
C3 C 0.2983(3) 0.10111(18) 0.52517(17)
C4 C 0.2381(3) -0.02696(18) 0.53668(17)
C5 C 0.1913(3) -0.1251(2) 0.43721(19)
H2 H 0.15140 -0.20920 0.44410
C6 C 0.2035(3) -0.0988(2) 0.33183(19)
H3 H 0.17290 -0.16390 0.26690
C7 C 0.3419(3) 0.19655(18) 0.62736(18)
C8 C 0.3249(3) 0.16191(18) 0.73012(17)
C9 C 0.2673(3) 0.02975(19) 0.73374(18)
C10 C 0.2571(4) -0.0127(2) 0.8466(2)
H4 H 0.21360 -0.10370 0.83230
H5 H 0.16500 0.02820 0.87650
H6 H 0.38600 0.01030 0.90310
C11 C 0.4102(3) 0.3344(2) 0.62221(19)
C12 C 0.3746(3) 0.2620(2) 0.83870(19)
C13 C 0.3606(4) 0.5458(2) 0.6686(3)
H7 H 0.34650 0.56640 0.59110
H8 H 0.49850 0.57300 0.71490
C14 C 0.2297(5) 0.6122(3) 0.7270(3)
H9 H 0.24380 0.58760 0.80300
H10 H 0.27860 0.70360 0.74070
C15 C 0.0213(5) 0.5872(4) 0.6636(3)
H11 H 0.00480 0.60620 0.58630
H12 H -0.04580 0.63980 0.70450
H13 H -0.03370 0.49880 0.65800
C16 C 0.2469(4) 0.3560(2) 0.9860(2)
H14 H 0.28050 0.44300 0.97420
H15 H 0.35420 0.34020 1.04830
C17 C 0.0607(5) 0.3383(3) 1.0179(3)
H16 H -0.04390 0.35560 0.95640
H17 H 0.07660 0.39590 1.08950
H18 H 0.02810 0.25180 1.02880
#END
