
#######################################################################
#
#                 Cambridge Crystallographic Data Centre
#                                CCDC
#
#######################################################################
#
# If this CIF has been generated from an entry in the Cambridge
# Structural Database, then it will include bibliographic, chemical,
# crystal, experimental, refinement or atomic coordinate data resulting
# from the CCDC's data processing and validation procedures.
#
#######################################################################

data_CSD_CIF_NEPTAE
_audit_creation_date 2006-11-27
_audit_creation_method CSD-ConQuest-V1
_database_code_CSD NEPTAE
_database_code_depnum_ccdc_archive 'CCDC 621606'
_chemical_formula_sum 'C17 H23 N1 O4'
_chemical_formula_moiety
;
C17 H23 N1 O4
;
_journal_coden_Cambridge 35
_journal_volume 71
_journal_year 2006
_journal_page_first 5980
_journal_name_full 'J.Org.Chem. '
loop_
_publ_author_name
"Sk.Sahabuddin"
"A.Roy"
"M.G.B.Drew"
"B.G.Roy"
"B.Achari"
"S.B.Mandal"
_chemical_name_systematic
;
(3aR,4R,5R,6S)-1-Benzylspiro(cyclopenta(c)isoxazole-5,2'-tetrahydropyran)-4,6-
diol
;
_chemical_melting_point 413.15
_cell_volume    387.295
_exptl_crystal_colour 'white'
_exptl_crystal_density_diffrn 1.309
_exptl_special_details
;
Melting point range 413.15-415.15K

;
_exptl_crystal_description 'parallelepiped'
_diffrn_ambient_temperature 293
#These two values have been output from a single CSD field.
_refine_ls_R_factor_gt 0.0368
_refine_ls_wR_factor_gt 0.0368
_symmetry_cell_setting triclinic
_symmetry_space_group_name_H-M 'P 1'
_symmetry_Int_Tables_number 1
loop_
_symmetry_equiv_pos_site_id
_symmetry_equiv_pos_as_xyz
1 x,y,z
_cell_length_a 5.502(7)
_cell_length_b 6.094(7)
_cell_length_c 12.278(14)
_cell_angle_alpha 95.19(1)
_cell_angle_beta 91.88(1)
_cell_angle_gamma 108.79(1)
_cell_formula_units_Z 1
loop_
_atom_type_symbol
_atom_type_radius_bond
C 0.68
H 0.23
N 0.68
O 0.68
loop_
_atom_site_label
_atom_site_type_symbol
_atom_site_fract_x
_atom_site_fract_y
_atom_site_fract_z
C1 C 0.4884(3) 0.6245(3) 0.89039(13)
O1 O 0.3692(2) 0.7851(2) 0.94184(10)
C2 C 0.4869(4) 0.9059(3) 1.04688(15)
H1 H 0.38510 0.99800 1.07660
H2 H 0.65720 1.01160 1.03690
C3 C 0.5085(4) 0.7370(4) 1.12821(16)
H3 H 0.33790 0.63950 1.14340
H4 H 0.59470 0.82380 1.19660
C4 C 0.6600(4) 0.5843(4) 1.08118(16)
H5 H 0.66370 0.47070 1.13110
H6 H 0.83580 0.68020 1.07280
C5 C 0.5348(4) 0.4589(3) 0.96993(15)
H7 H 0.37150 0.34290 0.98090
H8 H 0.64430 0.37800 0.93710
C6 C 0.7200(3) 0.7539(3) 0.82649(12)
H9 H 0.78680 0.63740 0.79000
O2 O 0.9310(2) 0.9304(2) 0.8873(1)
H10 H 1.04810 0.87780 0.89880
C7 C 0.5986(3) 0.8557(3) 0.73751(13)
H11 H 0.57980 1.00480 0.76530
C8 C 0.3310(3) 0.6649(3) 0.70661(13)
H12 H 0.19130 0.73190 0.70880
C9 C 0.3034(3) 0.4869(3) 0.79153(14)
H13 H 0.36560 0.36230 0.76070
C10 C 0.3618(4) 0.5708(3) 0.58965(15)
H14 H 0.28810 0.40220 0.57920
H15 H 0.27830 0.63590 0.53640
N1 N 0.7455(3) 0.8775(2) 0.63800(11)
C11 C 0.6940(4) 1.0520(3) 0.57211(14)
H16 H 0.74080 1.20060 0.61710
H17 H 0.51100 1.00410 0.55220
O3 O 0.0438(2) 0.3861(2) 0.81575(12)
H18 H 0.02540 0.26210 0.84100
O4 O 0.6363(3) 0.6438(2) 0.57898(10)
C12 C 0.8390(3) 1.0850(3) 0.46813(13)
C13 C 0.8232(4) 1.2634(4) 0.40665(15)
H19 H 0.71690 1.34970 0.42710
C14 C 0.9660(5) 1.3118(4) 0.31530(17)
H20 H 0.95610 1.43130 0.27520
C15 C 1.1230(5) 1.1826(4) 0.28361(18)
H21 H 1.21930 1.21600 0.22270
C16 C 1.1359(5) 1.0027(4) 0.3434(2)
H22 H 1.24050 0.91530 0.32220
C17 C 0.9929(4) 0.9533(4) 0.43460(16)
H23 H 1.00030 0.83130 0.47350
#END
