
#######################################################################
#
#                 Cambridge Crystallographic Data Centre
#                                CCDC
#
#######################################################################
#
# If this CIF has been generated from an entry in the Cambridge
# Structural Database, then it will include bibliographic, chemical,
# crystal, experimental, refinement or atomic coordinate data resulting
# from the CCDC's data processing and validation procedures.
#
#######################################################################

data_CSD_CIF_NERSOV
_audit_creation_date 2017-12-06
_audit_creation_method CSD-ConQuest-V1
_database_code_CSD NERSOV
_database_code_depnum_ccdc_archive 'CCDC 1564282'
_chemical_formula_sum 'C19 H16 N2 O6'
_chemical_formula_moiety
;
C19 H16 N2 O6
;
_journal_coden_Cambridge 35
_journal_volume 82
_journal_year 2017
_journal_page_first 12590
_journal_name_full 'J.Org.Chem. '
loop_
_publ_author_name
"M.J.V.da Silva"
"J.Poletto"
"A.P.Jacomini"
"K.E.Pianoski"
"D.S.Goncalves"
"G.M.Ribeiro"
"S.M.de S.Melo"
"D.F.Back"
"S.Moura"
"F.A.Rosa"
_chemical_name_systematic
;
ethyl 3-(4-nitrobenzene-1-carbonyl)-2-oxo-4-(phenylamino)but-3-enoate
;
_chemical_name_common
;
(4-nitrobenzoyl)-2-oxo-4-(phenylamino)but-3-enoic acid
;
_cell_volume   1782.318
_exptl_crystal_colour 'yellow'
_exptl_crystal_density_diffrn 1.373
_exptl_crystal_description 'block'
_diffrn_ambient_temperature 303
#These two values have been output from a single CSD field.
_refine_ls_R_factor_gt 0.0686
_refine_ls_wR_factor_gt 0.0686
_symmetry_cell_setting monoclinic
_symmetry_space_group_name_H-M 'P 21/c'
_symmetry_Int_Tables_number 14
loop_
_symmetry_equiv_pos_site_id
_symmetry_equiv_pos_as_xyz
1 x,y,z
2 -x,1/2+y,1/2-z
3 -x,-y,-z
4 x,-1/2-y,-1/2+z
_cell_length_a 11.951(5)
_cell_length_b 7.561(3)
_cell_length_c 20.015(8)
_cell_angle_alpha 90
_cell_angle_beta 99.777(10)
_cell_angle_gamma 90
_cell_formula_units_Z 4
loop_
_atom_type_symbol
_atom_type_radius_bond
C 0.68
H 0.23
N 0.68
O 0.68
loop_
_atom_site_label
_atom_site_type_symbol
_atom_site_fract_x
_atom_site_fract_y
_atom_site_fract_z
O1 O 0.72345(13) 1.1633(2) 0.37756(9)
O2 O 0.50754(14) 1.2142(3) 0.27990(9)
N1 N 0.29763(14) 1.0667(2) 0.26428(9)
H1 H 0.33780 1.14720 0.24930
N2 N 0.23663(17) 0.2751(3) 0.46493(10)
O3 O 0.2295(2) 0.1430(3) 0.43018(11)
O4 O 0.18301(18) 0.2963(3) 0.51032(12)
O5 O 0.70464(17) 0.9456(4) 0.30195(13)
C1 C 0.34826(18) 0.9644(3) 0.31341(10)
H2 H 0.30350 0.87940 0.32970
C2 C 0.53810(18) 1.0921(3) 0.31896(10)
C3 C 0.46166(18) 0.9706(3) 0.34334(11)
C4 C 0.30987(17) 0.4206(3) 0.44967(11)
C5 C 0.18098(17) 1.0541(3) 0.23395(11)
C6 C 0.66543(19) 1.0560(3) 0.33368(12)
C7 C 0.43319(19) 0.7004(3) 0.41598(12)
C8 C 0.1005(2) 0.9937(4) 0.26997(13)
H3 H 0.12090 0.96050 0.31510
C9 C 0.1513(2) 1.1072(4) 0.16708(12)
H4 H 0.20610 1.14840 0.14310
C10 C 0.3463(2) 0.4184(3) 0.38851(12)
H5 H 0.33050 0.32310 0.35910
C11 C 0.4072(2) 0.5625(4) 0.37189(13)
H6 H 0.43080 0.56570 0.33000
C12 C 0.3350(2) 0.5545(4) 0.49521(14)
H7 H 0.31010 0.55090 0.53680
C13 C 0.3978(2) 0.6953(4) 0.47858(15)
H8 H 0.41670 0.78730 0.50930
C14 C 0.5041(2) 0.8520(4) 0.39885(15)
C15 C -0.0114(2) 0.9832(4) 0.23794(17)
H9 H -0.06640 0.93970 0.26130
C16 C 0.0384(2) 1.0977(5) 0.13667(15)
H10 H 0.01730 1.13360 0.09190
C17 C -0.0418(2) 1.0369(5) 0.17142(17)
H11 H -0.11730 1.03140 0.15040
C18 C 0.8464(2) 1.1314(5) 0.39206(18)
H12 H 0.86140 1.00590 0.38910
H13 H 0.88290 1.19230 0.35890
C19 C 0.8926(3) 1.1957(6) 0.46028(19)
H14 H 0.97300 1.17510 0.46960
H15 H 0.85700 1.13400 0.49300
H16 H 0.87800 1.32010 0.46290
O6 O 0.5965(2) 0.8757(4) 0.43382(16)
#END
