
#######################################################################
#
#                 Cambridge Crystallographic Data Centre
#                                CCDC
#
#######################################################################
#
# If this CIF has been generated from an entry in the Cambridge
# Structural Database, then it will include bibliographic, chemical,
# crystal, experimental, refinement or atomic coordinate data resulting
# from the CCDC's data processing and validation procedures.
#
#######################################################################

data_CSD_CIF_NETMEG
_audit_creation_date 2013-04-24
_audit_creation_method CSD-ConQuest-V1
_database_code_CSD NETMEG
_database_code_depnum_ccdc_archive 'CCDC 873129'
_chemical_formula_sum 'C8 H15 N1 O1'
_chemical_formula_moiety
;
C8 H15 N1 O1
;
_journal_coden_Cambridge 154
_journal_volume 65
_journal_year 2012
_journal_page_first 905
_journal_name_full 'Aust.J.Chem. '
loop_
_publ_author_name
"Shin Dee Yeoh"
"B.L.Harris"
"T.J.Simons"
"J.M.White"
_chemical_name_systematic
;
N-Hydroxy-2,2-dimethylcyclohexanimine
;
_cell_volume    836.547
_exptl_crystal_colour 'colorless'
_exptl_crystal_density_diffrn 1.121
_exptl_crystal_description 'plate'
_diffrn_ambient_temperature 130
#These two values have been output from a single CSD field.
_refine_ls_R_factor_gt 0.0446
_refine_ls_wR_factor_gt 0.0446
_symmetry_cell_setting monoclinic
_symmetry_space_group_name_H-M 'P 21/n'
_symmetry_Int_Tables_number 14
loop_
_symmetry_equiv_pos_site_id
_symmetry_equiv_pos_as_xyz
1 x,y,z
2 1/2-x,1/2+y,1/2-z
3 -x,-y,-z
4 -1/2+x,-1/2-y,-1/2+z
_cell_length_a 7.7390(7)
_cell_length_b 10.1658(8)
_cell_length_c 11.1940(8)
_cell_angle_alpha 90
_cell_angle_beta 108.213(9)
_cell_angle_gamma 90
_cell_formula_units_Z 4
loop_
_atom_type_symbol
_atom_type_radius_bond
C 0.68
H 0.23
N 0.68
O 0.68
loop_
_atom_site_label
_atom_site_type_symbol
_atom_site_fract_x
_atom_site_fract_y
_atom_site_fract_z
C1 C -0.0348(2) 0.40781(17) 0.26090(15)
C2 C -0.1897(2) 0.31244(17) 0.20315(15)
C3 C -0.1090(3) 0.19067(18) 0.15739(17)
H1 H -0.03410 0.14270 0.23010
H2 H -0.20770 0.13320 0.11190
C4 C 0.0051(3) 0.2236(2) 0.07300(19)
H3 H -0.07160 0.26370 -0.00400
H4 H 0.05560 0.14340 0.05090
C5 C 0.1585(3) 0.3173(2) 0.13790(18)
H5 H 0.22340 0.34140 0.07980
H6 H 0.24340 0.27290 0.20900
C6 C 0.0882(3) 0.44223(19) 0.18405(17)
H7 H 0.19030 0.49370 0.23490
H8 H 0.02170 0.49520 0.11240
C7 C -0.2870(2) 0.26945(19) 0.29617(16)
H9 H -0.38330 0.20960 0.25550
H10 H -0.33680 0.34520 0.32480
H11 H -0.20200 0.22660 0.36670
C8 C -0.3306(3) 0.3796(2) 0.09134(16)
H12 H -0.42920 0.32000 0.05470
H13 H -0.27410 0.40370 0.02940
H14 H -0.37650 0.45710 0.12010
N1 N -0.01816(19) 0.45132(14) 0.37062(12)
O1 O 0.12669(17) 0.54194(13) 0.41554(11)
H15 H 0.117(3) 0.558(2) 0.4917(19)
#END
