
#######################################################################
#
#                 Cambridge Crystallographic Data Centre
#                                CCDC
#
#######################################################################
#
# If this CIF has been generated from an entry in the Cambridge
# Structural Database, then it will include bibliographic, chemical,
# crystal, experimental, refinement or atomic coordinate data resulting
# from the CCDC's data processing and validation procedures.
#
#######################################################################

data_CSD_CIF_NIHBIR
_audit_creation_date 2013-09-23
_audit_creation_method CSD-ConQuest-V1
_database_code_CSD NIHBIR
_database_code_depnum_ccdc_archive 'CCDC 871603'
_chemical_formula_sum 'C13 H17 N1 O2'
_chemical_formula_moiety
;
C13 H17 N1 O2
;
_journal_coden_Cambridge 35
_journal_volume 77
_journal_year 2012
_journal_page_first 7901
_journal_name_full 'J.Org.Chem. '
loop_
_publ_author_name
"E.Demory"
"D.Farran"
"B.Baptiste"
"V.Blandin"
"P.-Y.Chavant"
_chemical_name_systematic
;
5-(4-Methoxyphenyl)-2,2-dimethyl-3,4-dihydro-2H-pyrrole 1-oxide
;
_cell_volume   1154.460
_exptl_crystal_colour 'colorless'
_exptl_crystal_density_diffrn 1.262
_exptl_crystal_description 'plate'
_diffrn_ambient_temperature 200
#These two values have been output from a single CSD field.
_refine_ls_R_factor_gt 0.0563
_refine_ls_wR_factor_gt 0.0563
_symmetry_cell_setting monoclinic
_symmetry_space_group_name_H-M 'P 21/c'
_symmetry_Int_Tables_number 14
loop_
_symmetry_equiv_pos_site_id
_symmetry_equiv_pos_as_xyz
1 x,y,z
2 -x,1/2+y,1/2-z
3 -x,-y,-z
4 x,-1/2-y,-1/2+z
_cell_length_a 20.131(4)
_cell_length_b 5.5940(11)
_cell_length_c 10.268(2)
_cell_angle_alpha 90
_cell_angle_beta 93.24(3)
_cell_angle_gamma 90
_cell_formula_units_Z 4
loop_
_atom_type_symbol
_atom_type_radius_bond
C 0.68
H 0.23
N 0.68
O 0.68
loop_
_atom_site_label
_atom_site_type_symbol
_atom_site_fract_x
_atom_site_fract_y
_atom_site_fract_z
O1 O 0.05560(8) 0.4433(3) 0.15032(16)
O2 O 0.34554(8) 0.2823(3) 0.45404(16)
C1 C 0.11083(11) 0.6567(5) 0.3199(2)
H1 H 0.07590 0.77120 0.31250
C2 C 0.10919(11) 0.4582(4) 0.2389(2)
N1 N 0.32820(9) 0.4617(3) 0.52341(18)
C3 C 0.16006(12) 0.2918(4) 0.2500(2)
H2 H 0.15880 0.15460 0.19530
C4 C 0.21302(11) 0.3255(4) 0.3412(2)
H3 H 0.24780 0.21060 0.34780
C5 C 0.27117(11) 0.5763(4) 0.5168(2)
C6 C 0.16304(11) 0.6882(4) 0.4111(2)
H4 H 0.16320 0.82340 0.46710
C7 C 0.21601(11) 0.5250(4) 0.4232(2)
C8 C 0.37975(11) 0.5779(4) 0.6161(2)
C9 C 0.27336(12) 0.7806(5) 0.6113(2)
H5 H 0.23270 0.78530 0.66120
H6 H 0.27820 0.93510 0.56590
C10 C 0.33505(12) 0.7250(5) 0.7007(2)
H7 H 0.35760 0.87410 0.73050
H8 H 0.32280 0.63240 0.77800
C11 C 0.42363(12) 0.7304(5) 0.5322(2)
H9 H 0.43990 0.63250 0.46150
H10 H 0.46150 0.79200 0.58610
H11 H 0.39760 0.86450 0.49500
C12 C 0.05527(13) 0.2495(5) 0.0599(3)
H12 H 0.01610 0.26230 -0.00090
H13 H 0.05370 0.09780 0.10730
H14 H 0.09570 0.25540 0.01110
C13 C 0.42014(13) 0.3871(5) 0.6894(2)
H15 H 0.39080 0.29140 0.74170
H16 H 0.45440 0.46320 0.74700
H17 H 0.44130 0.28340 0.62700
#END
