
#######################################################################
#
#                 Cambridge Crystallographic Data Centre
#                                CCDC
#
#######################################################################
#
# If this CIF has been generated from an entry in the Cambridge
# Structural Database, then it will include bibliographic, chemical,
# crystal, experimental, refinement or atomic coordinate data resulting
# from the CCDC's data processing and validation procedures.
#
#######################################################################

data_CSD_CIF_NIJPEB
_audit_creation_date 1998-05-22
_audit_creation_method CSD-ConQuest-V1
_database_code_CSD NIJPEB
_chemical_formula_sum 'C8 H11 N1 O7'
_chemical_formula_moiety
;
C8 H11 N1 O7
;
_journal_coden_Cambridge 35
_journal_volume 62
_journal_year 1997
_journal_page_first 6129
_journal_name_full 'J.Org.Chem. '
loop_
_publ_author_name
"K.Griesbaum"
"Yuxiang Dong"
"K.J.McCullough"
_chemical_name_systematic
;
5-(Acetoxymethyl)-4-hydroximino-1-methyl-2,6,7,8-tetraoxabicyclo(3.2.1)octane
;
_chemical_melting_point 359.65
_cell_volume    493.663
_exptl_crystal_colour 'colorless'
_exptl_crystal_density_diffrn 1.569
_exptl_crystal_description 'needles'
_diffrn_ambient_temperature ?
_diffrn_special_details
;
The study was carried out at room temperature,in the range 283-303K

;
_refine_special_details
;
Oxime and methyl hydrogens are disordered over two sites.

;
#These two values have been output from a single CSD field.
_refine_ls_R_factor_gt 0.037
_refine_ls_wR_factor_gt 0.037
_symmetry_cell_setting triclinic
_symmetry_space_group_name_H-M 'P -1'
_symmetry_Int_Tables_number 2
loop_
_symmetry_equiv_pos_site_id
_symmetry_equiv_pos_as_xyz
1 x,y,z
2 -x,-y,-z
_cell_length_a 7.2522(7)
_cell_length_b 8.8749(7)
_cell_length_c 8.9885(8)
_cell_angle_alpha 109.534(6)
_cell_angle_beta 95.022(9)
_cell_angle_gamma 111.235(5)
_cell_formula_units_Z 2
loop_
_atom_type_symbol
_atom_type_radius_bond
C 0.68
H 0.23
N 0.68
O 0.68
loop_
_atom_site_label
_atom_site_type_symbol
_atom_site_fract_x
_atom_site_fract_y
_atom_site_fract_z
O1 O 0.2980(2) 0.2100(2) -0.0595(1)
N1 N 0.7213(2) 0.4954(2) 0.2917(2)
C1 C 0.3824(2) 0.4744(2) 0.2432(2)
O2 O 0.1116(2) 0.2089(1) 0.1358(1)
C2 C 0.5442(2) 0.4087(2) 0.1990(2)
O3 O 0.2369(2) 0.3528(1) 0.2920(1)
C3 C 0.4736(3) 0.2397(2) 0.0524(2)
O4 O 0.2666(2) 0.4591(1) 0.1000(1)
C4 C 0.1664(2) 0.2753(2) 0.0131(2)
O5 O 0.8472(2) 0.4096(2) 0.2382(2)
C5 C -0.0190(3) 0.2223(3) -0.1133(2)
O6 O 0.2896(2) 0.6931(1) 0.4110(1)
C6 C 0.4618(2) 0.6563(2) 0.3745(2)
O7 O 0.5001(2) 0.9204(2) 0.6372(2)
C7 C 0.3326(2) 0.8353(2) 0.5497(2)
C8 C 0.1497(3) 0.8707(2) 0.5733(2)
H1 H 0.5814(18) 0.2424(2) -0.0017(9)
H2 H 0.4418(6) 0.1443(16) 0.0865(6)
H3 H 0.9616(2) 0.4664(2) 0.2986(2)
H4? H 0.9454(2) 0.4751(2) 0.2178(2)
H5 H -0.1099(3) 0.2675(3) -0.0630(2)
H6 H -0.0864(3) 0.0963(3) -0.1646(2)
H7 H 0.0202(3) 0.2691(3) -0.1934(2)
H8? H -0.0075(3) 0.1545(3) -0.2176(2)
H9? H -0.0310(3) 0.3256(3) -0.1161(2)
H10? H -0.1376(3) 0.1529(3) -0.0873(2)
H11 H 0.5415(12) 0.6625(2) 0.4715(15)
H12 H 0.5493(14) 0.7424(13) 0.3374(6)
H13 H 0.0350(3) 0.7830(2) 0.4860(2)
H14 H 0.1742(3) 0.9849(2) 0.5743(2)
H15 H 0.1217(3) 0.8670(2) 0.6748(2)
H16? H 0.1856(3) 0.9736(2) 0.6707(2)
H17? H 0.0464(3) 0.7717(2) 0.5824(2)
H18? H 0.0989(3) 0.8896(2) 0.4820(2)
#END
