
#######################################################################
#
#                 Cambridge Crystallographic Data Centre
#                                CCDC
#
#######################################################################
#
# If this CIF has been generated from an entry in the Cambridge
# Structural Database, then it will include bibliographic, chemical,
# crystal, experimental, refinement or atomic coordinate data resulting
# from the CCDC's data processing and validation procedures.
#
#######################################################################

data_CSD_CIF_NIMBEQ
_audit_creation_date 1998-05-22
_audit_creation_method CSD-ConQuest-V1
_database_code_CSD NIMBEQ
_database_code_depnum_ccdc_archive 'CCDC 129851'
_chemical_formula_sum 'C26 H23 N5 O4'
_chemical_formula_moiety
;
C26 H23 N5 O4
;
_journal_coeditor_code "IUCr CF1173"
_journal_coden_Cambridge 591
_journal_volume 54
_journal_year 1998
_journal_page_first 519
_journal_name_full 'Acta Crystallogr.,Sect.C:Cryst.Struct.Commun. '
loop_
_publ_author_name
"M.Essaber"
"A.Baouid"
"A.Hasnaoui"
"M.Giorgi"
"M.Pierrot"
_chemical_name_systematic
;
Ethyl 
3a-methyl-3-(4-nitrophenyl)-5-phenyl-3a,4-dihydro-3H-(1,2,4)triazolo(4,3-a)(1,
5)benzodiazepine-1-carboxylate
;
_cell_volume   4551.642
_exptl_crystal_colour 'colorless'
_exptl_crystal_density_diffrn 1.37
_exptl_crystal_description 'prism'
_diffrn_ambient_temperature ?
_diffrn_special_details
;
The study was carried out at room temperature,in the range 283-303K

;
#These two values have been output from a single CSD field.
_refine_ls_R_factor_gt 0.055
_refine_ls_wR_factor_gt 0.055
_symmetry_cell_setting monoclinic
_symmetry_space_group_name_H-M 'C 2/c'
_symmetry_Int_Tables_number 15
loop_
_symmetry_equiv_pos_site_id
_symmetry_equiv_pos_as_xyz
1 x,y,z
2 -x,y,1/2-z
3 1/2+x,1/2+y,z
4 1/2-x,1/2+y,1/2-z
5 -x,-y,-z
6 x,-y,-1/2+z
7 -1/2-x,-1/2-y,-z
8 -1/2+x,-1/2-y,-1/2+z
_cell_length_a 22.711(6)
_cell_length_b 15.498(5)
_cell_length_c 14.642(4)
_cell_angle_alpha 90
_cell_angle_beta 117.97(2)
_cell_angle_gamma 90
_cell_formula_units_Z 8
loop_
_atom_type_symbol
_atom_type_radius_bond
C 0.68
H 0.23
N 0.68
O 0.68
loop_
_atom_site_label
_atom_site_type_symbol
_atom_site_fract_x
_atom_site_fract_y
_atom_site_fract_z
O1 O 0.05574(7) 0.8565(2) 0.4933(1)
O2 O 0.07554(9) 0.8777(2) 0.3602(1)
O3 O 0.48327(9) 0.9134(2) 0.4262(1)
O4 O 0.54712(9) 0.8658(2) 0.5784(2)
N1 N 0.20904(8) 0.8585(2) 0.4911(1)
N2 N 0.27070(8) 0.8429(2) 0.5756(1)
N3 N 0.20219(8) 1.0118(1) 0.6811(1)
N4 N 0.19265(8) 0.8331(2) 0.6287(1)
N5 N 0.4917(1) 0.8875(2) 0.5096(2)
C1 C 0.1667(1) 0.8542(2) 0.5252(2)
C2 C 0.2668(1) 0.8334(2) 0.6739(2)
C3 C 0.2961(1) 0.9117(2) 0.7445(2)
C4 C 0.2604(1) 0.9930(2) 0.6915(2)
C5 C 0.1698(1) 0.9528(2) 0.7162(2)
C6 C 0.1375(1) 0.9844(2) 0.7700(2)
C7 C 0.1030(1) 0.9282(2) 0.8011(2)
C8 C 0.0997(1) 0.8418(2) 0.7793(2)
C9 C 0.1302(1) 0.8100(2) 0.7239(2)
C10 C 0.1644(1) 0.8653(2) 0.6915(2)
C11 C 0.2956(1) 0.7500(2) 0.7317(2)
C12 C 0.2903(1) 1.0497(2) 0.6433(2)
C13 C 0.3589(1) 1.0548(2) 0.6800(2)
C14 C 0.3847(1) 1.1041(2) 0.6280(2)
C15 C 0.3432(1) 1.1476(2) 0.5402(2)
C16 C 0.2752(1) 1.1432(2) 0.5024(2)
C17 C 0.2486(1) 1.0956(2) 0.5541(2)
C18 C 0.0944(1) 0.8645(2) 0.4501(2)
C19 C -0.0159(1) 0.8705(3) 0.4255(2)
C20 C -0.0491(1) 0.8654(3) 0.4904(3)
C21 C 0.3261(1) 0.8582(2) 0.5624(2)
C22 C 0.3196(1) 0.8968(2) 0.4725(2)
C23 C 0.3734(1) 0.9069(2) 0.4557(2)
C24 C 0.4354(1) 0.8802(2) 0.5291(2)
C25 C 0.4433(1) 0.8434(3) 0.6188(2)
C26 C 0.3894(1) 0.8325(3) 0.6363(2)
H1 H 0.34250 0.91700 0.76260
H2 H 0.29190 0.90360 0.80620
H3 H -0.03310 0.82660 0.37290
H4 H -0.02310 0.92620 0.39340
H5 H 0.29110 0.74880 0.79380
H6 H 0.27200 0.70180 0.68880
H7 H 0.34190 0.74610 0.74940
H8 H -0.09610 0.87440 0.44850
H9 H -0.04150 0.80970 0.52250
H10 H -0.03140 0.90920 0.54290
H11 H 0.13920 1.04500 0.78560
H12 H 0.08100 0.95010 0.83860
H13 H 0.07600 0.80350 0.80240
H14 H 0.12780 0.74930 0.70790
H15 H 0.27660 0.91670 0.42140
H16 H 0.36800 0.93270 0.39250
H17 H 0.48700 0.82560 0.67010
H18 H 0.39550 0.80660 0.69990
H19 H 0.38860 1.02380 0.74150
H20 H 0.43210 1.10760 0.65400
H21 H 0.36170 1.18150 0.50460
H22 H 0.24610 1.17330 0.43990
H23 H 0.20120 1.09410 0.52860
#END
