
#######################################################################
#
#                 Cambridge Crystallographic Data Centre
#                                CCDC
#
#######################################################################
#
# If this CIF has been generated from an entry in the Cambridge
# Structural Database, then it will include bibliographic, chemical,
# crystal, experimental, refinement or atomic coordinate data resulting
# from the CCDC's data processing and validation procedures.
#
#######################################################################

data_CSD_CIF_NIMKUP
_audit_creation_date 1998-06-02
_audit_creation_method CSD-ConQuest-V1
_database_code_CSD NIMKUP
_chemical_formula_sum 'C14 H19 N1 O6'
_chemical_formula_moiety
;
C14 H19 N1 O6
;
_journal_coden_Cambridge 16
_journal_volume 53
_journal_year 1997
_journal_page_first 2979
_journal_name_full 'Tetrahedron '
loop_
_publ_author_name
"P.de March"
"M.Figueredo"
"J.Font"
"S.Milan"
"A.Alvarez-Larena"
"J.F.Piniella"
"E.Molins"
_chemical_name_systematic
;
(4aRS,7RS,9aRS,9bRS)-Octahydro-7-((3RS,4RS)-tetrahydro-4-hydroxy-2-oxo-2H-3-py
ranyl)-1H-pyrano(3,4-b)-pyrrolo(1,2-b)isoxazol-1-one
;
_chemical_melting_point 445.15
_cell_volume   1357.760
_exptl_crystal_density_diffrn 1.454
_exptl_special_details
;
Melting point range 445.15-446.15K

;
_diffrn_ambient_temperature ?
_diffrn_special_details
;
The study was carried out at room temperature,in the range 283-303K

;
#These two values have been output from a single CSD field.
_refine_ls_R_factor_gt 0.0416
_refine_ls_wR_factor_gt 0.0416
_symmetry_cell_setting monoclinic
_symmetry_space_group_name_H-M 'P 21/n'
_symmetry_Int_Tables_number 14
loop_
_symmetry_equiv_pos_site_id
_symmetry_equiv_pos_as_xyz
1 x,y,z
2 1/2-x,1/2+y,1/2-z
3 -x,-y,-z
4 -1/2+x,-1/2-y,-1/2+z
_cell_length_a 5.0466(8)
_cell_length_b 22.978(4)
_cell_length_c 11.791(1)
_cell_angle_alpha 90
_cell_angle_beta 96.77(1)
_cell_angle_gamma 90
_cell_formula_units_Z 4
loop_
_atom_type_symbol
_atom_type_radius_bond
C 0.68
H 0.23
N 0.68
O 0.68
loop_
_atom_site_label
_atom_site_type_symbol
_atom_site_fract_x
_atom_site_fract_y
_atom_site_fract_z
C1 C -0.2230(5) 0.7699(1) 0.1327(2)
O1 O -0.0064(3) 0.8038(1) 0.1871(1)
N1 N 0.0550(3) 0.8477(1) 0.1058(1)
C2 C -0.1088(4) 0.9003(1) 0.1163(2)
C3 C -0.1463(5) 0.9225(1) -0.0064(2)
C4 C -0.2103(6) 0.8670(1) -0.0739(2)
C5 C -0.0259(4) 0.8223(1) -0.0107(2)
C6 C -0.1514(4) 0.7633(1) 0.0113(2)
C7 C 0.0335(5) 0.7133(1) -0.0017(2)
O2 O 0.2129(4) 0.7147(1) -0.0606(2)
O3 O -0.0067(4) 0.6644(1) 0.0533(2)
C8 C -0.2312(6) 0.6620(1) 0.1189(2)
C9 C -0.2307(7) 0.7127(1) 0.1967(2)
C10 C 0.0315(4) 0.9428(1) 0.2026(2)
C11 C -0.1419(4) 0.9950(1) 0.2188(2)
O4 O -0.3577(3) 1.0038(1) 0.1664(1)
O5 O -0.0500(3) 1.0328(1) 0.3003(1)
C12 C 0.2193(4) 1.0240(1) 0.3548(2)
C13 C 0.2640(5) 0.9633(1) 0.3988(2)
C14 C 0.1155(4) 0.9172(1) 0.3219(2)
O6 O -0.1176(4) 0.9011(1) 0.3726(1)
H1 H -0.3921(5) 0.7908(1) 0.1327(2)
H2 H -0.2820(4) 0.8892(1) 0.1396(2)
H3 H -0.2921(5) 0.9501(1) -0.0183(2)
H4 H 0.0153(5) 0.9406(1) -0.0266(2)
H5 H -0.1728(6) 0.8714(1) -0.1523(2)
H6 H -0.3959(6) 0.8562(1) -0.0737(2)
H7 H 0.1321(4) 0.8167(1) -0.0505(2)
H8 H -0.3150(4) 0.7582(1) -0.0415(2)
H9 H -0.2230(6) 0.6264(1) 0.1632(2)
H10 H -0.3959(6) 0.6617(1) 0.0673(2)
H11 H -0.0766(7) 0.7103(1) 0.2540(2)
H12 H -0.3896(7) 0.7116(1) 0.2356(2)
H13 H 0.1928(4) 0.9567(1) 0.1724(2)
H14 H 0.2546(4) 1.0512(1) 0.4177(2)
H15 H 0.3442(4) 1.0322(1) 0.3003(2)
H16 H 0.2064(5) 0.9608(1) 0.4743(2)
H17 H 0.4536(5) 0.9549(1) 0.4062(2)
H18 H 0.2299(4) 0.8831(1) 0.3160(2)
H19 H -0.1446(88) 0.8527(28) 0.3670(58)
#END
