
#######################################################################
#
#                 Cambridge Crystallographic Data Centre
#                                CCDC
#
#######################################################################
#
# If this CIF has been generated from an entry in the Cambridge
# Structural Database, then it will include bibliographic, chemical,
# crystal, experimental, refinement or atomic coordinate data resulting
# from the CCDC's data processing and validation procedures.
#
#######################################################################

data_CSD_CIF_NIRJEE04
_audit_creation_date 2008-05-14
_audit_creation_method CSD-ConQuest-V1
_database_code_CSD NIRJEE04
_database_code_depnum_ccdc_archive 'CCDC 657065'
_chemical_formula_sum 'C8 H9 N1 O2'
_chemical_formula_moiety
;
C8 H9 N1 O2
;
_journal_coden_Cambridge 1350
_journal_volume 10
_journal_year 2008
_journal_page_first 239
_journal_name_full 'CrystEngComm '
loop_
_publ_author_name
"P.A.Wood"
"R.S.Forgan"
"A.R.Lennie"
"S.Parsons"
"E.Pidcock"
"P.A.Tasker"
"J.E.Warren"
_chemical_name_systematic
;
3-Methylsalicylaldoxime
;
_chemical_name_common
;
2-hydroxy-3-methylbenzaldehyde oxime
;
_cell_volume    615.458
_exptl_crystal_colour 'yellow'
_exptl_crystal_density_diffrn 1.631
_exptl_crystal_description 'block'
_exptl_crystal_preparation 'hexane'
_diffrn_ambient_temperature 298
_diffrn_ambient_pressure 3500000.0
_diffrn_radiation_probe x-ray
_diffrn_source synchrotron
#These two values have been output from a single CSD field.
_refine_ls_R_factor_gt 0.0616
_refine_ls_wR_factor_gt 0.0616
_symmetry_cell_setting monoclinic
_symmetry_space_group_name_H-M 'P 21/c'
_symmetry_Int_Tables_number 14
loop_
_symmetry_equiv_pos_site_id
_symmetry_equiv_pos_as_xyz
1 x,y,z
2 -x,1/2+y,1/2-z
3 -x,-y,-z
4 x,-1/2-y,-1/2+z
_cell_length_a 12.878(4)
_cell_length_b 3.5363(5)
_cell_length_c 13.5218(16)
_cell_angle_alpha 90
_cell_angle_beta 91.88(2)
_cell_angle_gamma 90
_cell_formula_units_Z 4
loop_
_atom_type_symbol
_atom_type_radius_bond
C 0.68
H 0.23
N 0.68
O 0.68
loop_
_atom_site_label
_atom_site_type_symbol
_atom_site_fract_x
_atom_site_fract_y
_atom_site_fract_z
O1 O 0.5701(4) 0.0334(6) 0.63649(13)
N1 N 0.4749(5) 0.1984(6) 0.60907(14)
C1 C 0.4062(5) 0.1481(7) 0.67347(15)
C2 C 0.3033(5) 0.3018(6) 0.65865(14)
C3 C 0.2693(5) 0.4734(7) 0.56803(14)
O2 O 0.3374(4) 0.5039(5) 0.49213(11)
C4 C 0.1690(5) 0.6079(7) 0.55316(15)
C5 C 0.1387(5) 0.7805(7) 0.45475(15)
C6 C 0.0993(5) 0.5768(7) 0.62928(16)
C7 C 0.1312(6) 0.4152(8) 0.71995(16)
C8 C 0.2295(6) 0.2795(8) 0.73367(15)
H1 H 0.609(6) 0.169(12) 0.594(3)
H2 H 0.42300 0.01070 0.73000
H3 H 0.398(4) 0.387(12) 0.508(3)
H4 H 0.07180 0.89900 0.45800
H5 H 0.18850 0.97250 0.43600
H6 H 0.13570 0.59040 0.40540
H7 H 0.03110 0.66800 0.61980
H8 H 0.08380 0.39880 0.77080
H9 H 0.24850 0.16610 0.79560
#END
