
#######################################################################
#
#                 Cambridge Crystallographic Data Centre
#                                CCDC
#
#######################################################################
#
# If this CIF has been generated from an entry in the Cambridge
# Structural Database, then it will include bibliographic, chemical,
# crystal, experimental, refinement or atomic coordinate data resulting
# from the CCDC's data processing and validation procedures.
#
#######################################################################

data_CSD_CIF_NITBAL02
_audit_creation_date 1994-02-15
_audit_creation_method CSD-ConQuest-V1
_database_code_CSD NITBAL02
_database_code_depnum_ccdc_archive 'CCDC 1220810'
_chemical_formula_sum 'C7 H6 N2 O3'
_chemical_formula_moiety
;
C7 H6 N2 O3
;
_journal_coeditor_code "IUCr AS0633"
_journal_coden_Cambridge 622
_journal_volume 49
_journal_year 1993
_journal_page_first 1031
_journal_name_full 'Acta Crystallogr.,Sect.B:Struct.Sci. '
loop_
_publ_author_name
"M.Tonogaki"
"T.Kawata"
"S.Ohba"
"Y.Iwata"
"I.Shibuya"
_chemical_name_systematic
;
4-Nitrobenzaldehyde oxime
;
_cell_volume    731.715
_exptl_crystal_density_diffrn 1.51
_exptl_special_details
;
Authors indicate H-bonding for this structure

;
_diffrn_ambient_temperature ?
_diffrn_special_details
;
The study was carried out at room temperature,in the range 283-303K

;
#These two values have been output from a single CSD field.
_refine_ls_R_factor_gt 0.043
_refine_ls_wR_factor_gt 0.043
_symmetry_cell_setting monoclinic
_symmetry_space_group_name_H-M 'P 21/c'
_symmetry_Int_Tables_number 14
loop_
_symmetry_equiv_pos_site_id
_symmetry_equiv_pos_as_xyz
1 x,y,z
2 -x,1/2+y,1/2-z
3 -x,-y,-z
4 x,-1/2-y,-1/2+z
_cell_length_a 6.2336(6)
_cell_length_b 4.8377(5)
_cell_length_c 24.352(2)
_cell_angle_alpha 90
_cell_angle_beta 94.87(8)
_cell_angle_gamma 90
_cell_formula_units_Z 4
loop_
_atom_type_symbol
_atom_type_radius_bond
C 0.68
H 0.23
N 0.68
O 0.68
loop_
_atom_site_label
_atom_site_type_symbol
_atom_site_fract_x
_atom_site_fract_y
_atom_site_fract_z
O1 O -0.23368(28) 0.98458(36) 0.02500(7)
O2 O 0.58679(24) -0.20463(33) 0.18022(7)
O3 O 0.33573(25) -0.27527(33) 0.23504(6)
N1 N -0.06722(26) 0.80617(32) 0.04449(7)
N2 N 0.40871(24) -0.15563(31) 0.19630(7)
C1 C 0.02055(25) 0.44946(31) 0.11171(6)
C2 C -0.04895(25) 0.31951(35) 0.15847(7)
C3 C 0.07853(25) 0.12125(33) 0.18656(7)
C4 C 0.27553(24) 0.05688(31) 0.16736(6)
C5 C 0.34930(25) 0.18308(36) 0.12095(7)
C6 C 0.22004(27) 0.38090(34) 0.09304(7)
C7 C -0.12521(29) 0.65320(38) 0.08360(7)
H1 H -0.1852(28) 0.3618(37) 0.1720(8)
H2 H 0.0353(28) 0.0353(35) 0.2190(8)
H3 H 0.4799(31) 0.1307(39) 0.1113(9)
H4 H 0.2667(27) 0.4651(37) 0.0620(8)
H5 H -0.2712(31) 0.6730(39) 0.0940(9)
H6 H -0.1675(35) 1.0947(47) -0.0027(10)
#END
