
#######################################################################
#
#                 Cambridge Crystallographic Data Centre
#                                CCDC
#
#######################################################################
#
# If this CIF has been generated from an entry in the Cambridge
# Structural Database, then it will include bibliographic, chemical,
# crystal, experimental, refinement or atomic coordinate data resulting
# from the CCDC's data processing and validation procedures.
#
#######################################################################

data_CSD_CIF_NITBAL10
_audit_creation_date 1973-04-15
_audit_creation_method CSD-ConQuest-V1
_database_code_CSD NITBAL10
_database_code_depnum_ccdc_archive 'CCDC 1220811'
_chemical_formula_sum 'C7 H6 N2 O3'
_chemical_formula_moiety
;
C7 H6 N2 O3
;
_journal_coeditor_code "IUCr A09454"
_journal_coden_Cambridge 107
_journal_volume 28
_journal_year 1972
_journal_page_first 3646
_journal_name_full 'Acta Crystallogr.,Sect.B:Struct.Crystallogr.Cryst.Chem. '
loop_
_publ_author_name
"L.Brehm"
"K.J.Watson"
_chemical_name_systematic
;
syn-p-Nitrobenzaldoxime
;
_chemical_melting_point 401.15
_cell_volume    752.620
_exptl_crystal_density_diffrn 1.464
_exptl_special_details
;
Melting point range 401.15-402.15K

;
_diffrn_ambient_temperature ?
_diffrn_special_details
;
The study was carried out at room temperature,in the range 283-303K

;
#These two values have been output from a single CSD field.
_refine_ls_R_factor_gt 0.1
_refine_ls_wR_factor_gt 0.1
_symmetry_cell_setting monoclinic
_symmetry_space_group_name_H-M 'P 21/c'
_symmetry_Int_Tables_number 14
loop_
_symmetry_equiv_pos_site_id
_symmetry_equiv_pos_as_xyz
1 x,y,z
2 -x,1/2+y,1/2-z
3 -x,-y,-z
4 x,-1/2-y,-1/2+z
_cell_length_a 6.252(9)
_cell_length_b 4.88(1)
_cell_length_c 24.75(3)
_cell_angle_alpha 90
_cell_angle_beta 94.66(4)
_cell_angle_gamma 90
_cell_formula_units_Z 4
loop_
_atom_type_symbol
_atom_type_radius_bond
C 0.68
H 0.20
N 0.68
O 0.68
loop_
_atom_site_label
_atom_site_type_symbol
_atom_site_fract_x
_atom_site_fract_y
_atom_site_fract_z
C1 C 0.72390 0.57890 0.33320
C2 C 0.91970 0.65380 0.31350
C3 C 1.04380 0.84250 0.34140
C4 C 0.98160 0.97240 0.38810
C5 C 0.77960 0.89150 0.40620
C6 C 0.65530 0.70320 0.37850
C7 C 1.12300 1.16810 0.41660
H1 H 1.17700 1.61000 0.49300
H2 H 0.95600 0.56200 0.28600
H3 H 1.16300 0.91300 0.32700
H4 H 0.76400 0.96200 0.43700
H5 H 0.57600 0.62800 0.38900
H6 H 1.26700 1.16400 0.40800
N1 N 1.06440 1.31190 0.45490
N2 N 0.59470 0.37640 0.30430
O1 O 1.23240 1.48580 0.47430
O2 O 0.41790 0.31980 0.31990
O3 O 0.66440 0.25800 0.26630
#END
