
#######################################################################
#
#                 Cambridge Crystallographic Data Centre
#                                CCDC
#
#######################################################################
#
# If this CIF has been generated from an entry in the Cambridge
# Structural Database, then it will include bibliographic, chemical,
# crystal, experimental, refinement or atomic coordinate data resulting
# from the CCDC's data processing and validation procedures.
#
#######################################################################

data_CSD_CIF_NOBSEE
_audit_creation_date 2014-02-08
_audit_creation_method CSD-ConQuest-V1
_database_code_CSD NOBSEE
_database_code_depnum_ccdc_archive 'CCDC 938486'
_chemical_formula_sum 'C23 H18 N2 O3'
_chemical_formula_moiety
;
C23 H18 N2 O3
;
_journal_coden_Cambridge 1090
_journal_volume 24
_journal_year 2013
_journal_page_first 1276
_journal_name_full 'Tetrahedron:Asymm. '
loop_
_publ_author_name
"Bin Liu"
"Xin Han"
"Ze Dong"
"Hao Lv"
"Hai-Bing Zhou"
"Chune Dong"
_chemical_name_systematic
;
4-(2-nitro-1-phenylethyl)-3,5-diphenyl-1,2-oxazole
;
_cell_volume   3901.560
_exptl_crystal_density_diffrn 1.258
_exptl_crystal_description 'block'
_diffrn_ambient_temperature 293
#These two values have been output from a single CSD field.
_refine_ls_R_factor_gt 0.1447
_refine_ls_wR_factor_gt 0.1447
_symmetry_cell_setting orthorhombic
_symmetry_space_group_name_H-M 'P b c a'
_symmetry_Int_Tables_number 61
loop_
_symmetry_equiv_pos_site_id
_symmetry_equiv_pos_as_xyz
1 x,y,z
2 1/2-x,-y,1/2+z
3 1/2+x,1/2-y,-z
4 -x,1/2+y,1/2-z
5 -x,-y,-z
6 -1/2+x,y,-1/2-z
7 -1/2-x,-1/2+y,z
8 x,-1/2-y,-1/2+z
_cell_length_a 9.7594(12)
_cell_length_b 18.450(2)
_cell_length_c 21.668(3)
_cell_angle_alpha 90
_cell_angle_beta 90
_cell_angle_gamma 90
_cell_formula_units_Z 8
loop_
_atom_type_symbol
_atom_type_radius_bond
C 0.68
H 0.23
N 0.68
O 0.68
loop_
_atom_site_label
_atom_site_type_symbol
_atom_site_fract_x
_atom_site_fract_y
_atom_site_fract_z
C1 C -0.0905(9) 0.2627(6) 0.1908(4)
H1 H -0.17090 0.28700 0.20110
C2 C -0.0726(12) 0.1946(6) 0.2115(5)
H2 H -0.13890 0.17310 0.23640
C3 C 0.0420(11) 0.1572(5) 0.1961(5)
H3 H 0.05360 0.10980 0.20970
C4 C 0.1408(10) 0.1891(5) 0.1605(4)
H4 H 0.22020 0.16390 0.15050
C5 C 0.1221(8) 0.2584(6) 0.1396(4)
H5 H 0.18880 0.27910 0.11450
C6 C 0.0073(8) 0.2986(5) 0.1544(3)
C7 C -0.0144(7) 0.3739(5) 0.1341(3)
C8 C 0.0739(7) 0.4328(5) 0.1241(3)
C9 C -0.0138(7) 0.4904(5) 0.1091(3)
C10 C 0.0123(8) 0.5639(5) 0.0939(3)
C11 C 0.1011(8) 0.5861(5) 0.0483(4)
H6 H 0.15250 0.55110 0.02780
C12 C 0.1177(9) 0.6571(6) 0.0316(4)
H7 H 0.17640 0.67010 -0.00040
C13 C 0.0446(10) 0.7087(6) 0.0636(5)
H8 H 0.05550 0.75730 0.05350
C14 C -0.0437(11) 0.6899(7) 0.1102(6)
H9 H -0.09170 0.72560 0.13140
C15 C -0.0611(9) 0.6179(6) 0.1253(4)
H10 H -0.12170 0.60500 0.15660
C16 C 0.2264(7) 0.4358(7) 0.1364(3)
H11 H 0.23100 0.48820 0.12880
C17 C 0.3192(6) 0.4183(4) 0.0824(3)
C18 C 0.4598(7) 0.4269(4) 0.0892(3)
H12 H 0.49560 0.44240 0.12670
C19 C 0.5456(8) 0.4127(6) 0.0410(4)
H13 H 0.63970 0.41710 0.04640
C20 C 0.4956(9) 0.3923(7) -0.0147(4)
H14 H 0.55460 0.38340 -0.04760
C21 C 0.3572(8) 0.3849(6) -0.0220(4)
H15 H 0.32230 0.37160 -0.06030
C22 C 0.2692(7) 0.3968(4) 0.0259(3)
H16 H 0.17550 0.39030 0.02030
C23 C 0.2669(11) 0.4424(7) 0.1927(5)
H17 H 0.35690 0.42960 0.20150
N1 N -0.1437(6) 0.4678(4) 0.1084(3)
N2 N 0.1842(9) 0.4678(7) 0.2427(4)
O1 O -0.1445(5) 0.3936(4) 0.1244(3)
O2 O 0.1223(11) 0.4166(6) 0.2666(4)
O3 O 0.1699(17) 0.5228(6) 0.2585(5)
#END
