
#######################################################################
#
#                 Cambridge Crystallographic Data Centre
#                                CCDC
#
#######################################################################
#
# If this CIF has been generated from an entry in the Cambridge
# Structural Database, then it will include bibliographic, chemical,
# crystal, experimental, refinement or atomic coordinate data resulting
# from the CCDC's data processing and validation procedures.
#
#######################################################################

data_CSD_CIF_NOCQUR
_audit_creation_date 1998-06-26
_audit_creation_method CSD-ConQuest-V1
_database_code_CSD NOCQUR
_chemical_formula_sum 'C24 H30 N6 O4'
_chemical_formula_moiety
;
C24 H30 N6 O4
;
_journal_coden_Cambridge 241
_journal_year 1997
_journal_page_first 1065
_journal_name_full 'Chem.Lett. '
loop_
_publ_author_name
"H.Oshio"
"M.Umeno"
"T.Fukushi"
"T.Ito"
_chemical_name_systematic
;
2-Phenyl-4,6-bis(1'-oxyl-3'-oxido-4',4',5',5'-tetramethyl-4',5'-dihydro-1'H-im
idazol-2'-yl)pyrimidine diradical
;
_cell_volume   2350.063
_exptl_crystal_colour 'dark green'
_exptl_crystal_density_diffrn 1.319
_exptl_crystal_description 'tablet'
_diffrn_ambient_temperature 213
#These two values have been output from a single CSD field.
_refine_ls_R_factor_gt 0.071
_refine_ls_wR_factor_gt 0.071
_symmetry_cell_setting monoclinic
_symmetry_space_group_name_H-M 'P 21/n'
_symmetry_Int_Tables_number 14
loop_
_symmetry_equiv_pos_site_id
_symmetry_equiv_pos_as_xyz
1 x,y,z
2 1/2+x,1/2-y,1/2+z
3 -x,-y,-z
4 -1/2-x,-1/2+y,-1/2-z
_cell_length_a 6.299(5)
_cell_length_b 17.988(5)
_cell_length_c 20.786(5)
_cell_angle_alpha 90
_cell_angle_beta 93.78(5)
_cell_angle_gamma 90
_cell_formula_units_Z 4
loop_
_atom_type_symbol
_atom_type_radius_bond
C 0.68
H 0.23
N 0.68
O 0.68
loop_
_atom_site_label
_atom_site_type_symbol
_atom_site_fract_x
_atom_site_fract_y
_atom_site_fract_z
O1 O 0.1110(9) 0.0667(2) 0.7215(2)
O2 O -0.2373(13) 0.0339(3) 0.5252(3)
O3 O 0.0937(6) 0.4034(2) 0.4956(2)
O4 O -0.3059(6) 0.2002(2) 0.4243(2)
N1 N 0.2371(6) 0.1601(2) 0.6188(2)
N2 N 0.2170(6) 0.2660(2) 0.5490(2)
N3 N -0.0058(7) 0.0399(2) 0.6756(2)
N4 N -0.1763(9) 0.0249(3) 0.5835(2)
N5 N -0.0403(6) 0.3623(2) 0.4643(2)
N6 N -0.2309(6) 0.2659(2) 0.4308(2)
C1 C 0.3112(7) 0.2245(2) 0.5965(2)
C2 C 0.0513(7) 0.1369(2) 0.5919(2)
C3 C -0.0633(7) 0.1769(2) 0.5437(2)
H1 H -0.1942(7) 0.1606(2) 0.5257(2)
C4 C 0.0289(7) 0.2419(2) 0.5244(2)
C5 C 0.5157(7) 0.2534(2) 0.6264(2)
C6 C 0.5916(7) 0.3218(3) 0.6077(2)
H2 H 0.5110(7) 0.3505(3) 0.5779(2)
C7 C 0.7858(8) 0.3478(3) 0.6328(2)
H3 H 0.8370(8) 0.3933(3) 0.6194(2)
C8 C 0.9042(8) 0.3059(3) 0.6780(2)
H4 H 1.0355(8) 0.3229(3) 0.6951(2)
C9 C 0.8261(8) 0.2391(3) 0.6974(2)
H5 H 0.9051(8) 0.2113(3) 0.7281(2)
C10 C 0.6332(7) 0.2120(3) 0.6724(2)
H6 H 0.5824(7) 0.1666(3) 0.6862(2)
C11 C -0.0381(7) 0.0678(2) 0.6165(2)
C12 C -0.1408(7) -0.0273(2) 0.6868(2)
C13 C -0.2605(8) -0.0386(3) 0.6195(2)
C14 C 0.0083(9) -0.0905(3) 0.7093(3)
H7 H 0.0973(9) -0.1035(3) 0.6753(3)
H8 H -0.0743(9) -0.1329(3) 0.7204(3)
H9 H 0.0954(9) -0.0747(3) 0.7465(3)
C15 C -0.2803(10) -0.0072(3) 0.7405(3)
H10 H -0.3744(10) 0.0325(3) 0.7266(3)
H11 H -0.1929(10) 0.0085(3) 0.7776(3)
H12 H -0.3624(10) -0.0498(3) 0.7515(3)
C16 C -0.2062(11) -0.1083(3) 0.5839(3)
H13 H -0.0544(11) -0.1133(3) 0.5842(3)
H14 H -0.2649(11) -0.1054(3) 0.5402(3)
H15 H -0.2647(11) -0.1506(3) 0.6046(3)
C17 C -0.4979(9) -0.0315(4) 0.6183(3)
H16 H -0.5344(9) 0.0128(4) 0.6409(3)
H17 H -0.5558(9) -0.0740(4) 0.6389(3)
H18 H -0.5554(9) -0.0287(4) 0.5744(3)
C18 C -0.0763(7) 0.2889(2) 0.4743(2)
C19 C -0.1977(7) 0.3957(2) 0.4146(2)
C20 C -0.2903(7) 0.3246(2) 0.3810(2)
C21 C -0.3559(8) 0.4392(3) 0.4519(2)
H19 H -0.4289(8) 0.4058(3) 0.4789(2)
H20 H -0.4572(8) 0.4631(3) 0.4222(2)
H21 H -0.2817(8) 0.4760(3) 0.4781(2)
C22 C -0.0812(8) 0.4480(3) 0.3718(2)
H22 H 0.0186(8) 0.4203(3) 0.3485(2)
H23 H -0.0067(8) 0.4848(3) 0.3980(2)
H24 H -0.1819(8) 0.4720(3) 0.3420(2)
C23 C -0.1806(8) 0.3015(3) 0.3210(2)
H25 H -0.0292(8) 0.3016(3) 0.3302(2)
H26 H -0.2171(8) 0.3358(3) 0.2866(2)
H27 H -0.2263(8) 0.2524(3) 0.3082(2)
C24 C -0.5299(7) 0.3245(3) 0.3673(2)
H28 H -0.5973(7) 0.3392(3) 0.4054(2)
H29 H -0.5764(7) 0.2755(3) 0.3547(2)
H30 H -0.5676(7) 0.3589(3) 0.3331(2)
#END
