
#######################################################################
#
#                 Cambridge Crystallographic Data Centre
#                                CCDC
#
#######################################################################
#
# If this CIF has been generated from an entry in the Cambridge
# Structural Database, then it will include bibliographic, chemical,
# crystal, experimental, refinement or atomic coordinate data resulting
# from the CCDC's data processing and validation procedures.
#
#######################################################################

data_CSD_CIF_NOEURA
_audit_creation_date 1971-12-31
_audit_creation_method CSD-ConQuest-V1
_database_code_CSD NOEURA
_database_code_depnum_ccdc_archive 'CCDC 1221668'
_chemical_formula_sum 'C5 H6 N8 O13'
_chemical_formula_moiety
;
C5 H6 N8 O13
;
_journal_coeditor_code "IUCr A07429"
_journal_coden_Cambridge 107
_journal_volume 26
_journal_year 1970
_journal_page_first 590
_journal_name_full 'Acta Crystallogr.,Sect.B:Struct.Crystallogr.Cryst.Chem. '
loop_
_publ_author_name
"M.D.Lind"
_chemical_name_systematic
;
N,N'-bis(\b,\b,\b-Trinitroethyl)urea
;
_cell_volume    689.057
_exptl_crystal_density_diffrn 1.86
_diffrn_ambient_temperature ?
_diffrn_special_details
;
The study was carried out at room temperature,in the range 283-303K

;
#These two values have been output from a single CSD field.
_refine_ls_R_factor_gt 0.054
_refine_ls_wR_factor_gt 0.054
_symmetry_cell_setting orthorhombic
_symmetry_space_group_name_H-M 'P n n 2'
_symmetry_Int_Tables_number 34
loop_
_symmetry_equiv_pos_site_id
_symmetry_equiv_pos_as_xyz
1 x,y,z
2 1/2-x,1/2+y,1/2+z
3 1/2+x,1/2-y,1/2+z
4 -x,-y,z
_cell_length_a 10.47(2)
_cell_length_b 11.25(2)
_cell_length_c 5.85(1)
_cell_angle_alpha 90
_cell_angle_beta 90
_cell_angle_gamma 90
_cell_formula_units_Z 2
loop_
_atom_type_symbol
_atom_type_radius_bond
C 0.68
H 0.20
N 0.68
O 0.68
loop_
_atom_site_label
_atom_site_type_symbol
_atom_site_fract_x
_atom_site_fract_y
_atom_site_fract_z
C1 C 0.00000 0.00000 0.00000
C2 C 0.16390 0.15440 -0.03060
C3 C 0.13620 0.28280 -0.09460
H1 H 0.15900 0.14520 0.15290
H2 H 0.25750 0.13010 -0.08630
H3 H 0.06600 0.06980 -0.30260
N1 N 0.07160 0.07560 -0.13260
N2 N 0.17020 0.31240 -0.34190
N3 N -0.00240 0.31350 -0.06180
N4 N 0.21290 0.36960 0.04750
O1 O 0.00000 0.00000 0.20830
O2 O 0.21040 0.41080 -0.38080
O3 O 0.15420 0.23250 -0.47720
O4 O -0.05740 0.36180 -0.21910
O5 O -0.04730 0.28590 0.12220
O6 O 0.15850 0.45700 0.12340
O7 O 0.32360 0.34380 0.07060
N1C N -0.07160 -0.07560 -0.13260
C2C C -0.16390 -0.15440 -0.03060
H3C H -0.06600 -0.06980 -0.30260
C3C C -0.13620 -0.28280 -0.09460
H1C H -0.15900 -0.14520 0.15290
H2C H -0.25750 -0.13010 -0.08630
N2C N -0.17020 -0.31240 -0.34190
N3C N 0.00240 -0.31350 -0.06180
N4C N -0.21290 -0.36960 0.04750
O2C O -0.21040 -0.41080 -0.38080
O3C O -0.15420 -0.23250 -0.47720
O4C O 0.05740 -0.36180 -0.21910
O5C O 0.04730 -0.28590 0.12220
O6C O -0.15850 -0.45700 0.12340
O7C O -0.32360 -0.34380 0.07060
#END
