
#######################################################################
#
#                 Cambridge Crystallographic Data Centre
#                                CCDC
#
#######################################################################
#
# If this CIF has been generated from an entry in the Cambridge
# Structural Database, then it will include bibliographic, chemical,
# crystal, experimental, refinement or atomic coordinate data resulting
# from the CCDC's data processing and validation procedures.
#
#######################################################################

data_CSD_CIF_NOHMOO
_audit_creation_date 2014-07-12
_audit_creation_method CSD-ConQuest-V1
_database_code_CSD NOHMOO
_database_code_depnum_ccdc_archive 'CCDC 816635'
_chemical_formula_sum 'C28 H32 N4 O4'
_chemical_formula_moiety
;
C28 H32 N4 O4
;
_journal_coden_Cambridge 1695
_journal_volume 2
_journal_year 2014
_journal_page_first 6618
_journal_name_full 'J.Mater.Chem.C '
loop_
_publ_author_name
"Y.B.Borozdina"
"E.Mostovich"
"V.Enkelmann"
"B.Wolf"
"P.T.Cong"
"U.Tutsch"
"Michael Lang"
"M.Baumgarten"
_chemical_name_systematic
;
2-(4-{2-[4-(1-oxyl-3-oxo-4,4,5,5-tetramethyl-4H,5H-imidazolin-3-ium-2-yl)pheny
l]-ethynyl}phenyl)-4,4,5,5-tetramethylimidazolin-3-ium-1-oxyl-3-oxo biradical
;
_cell_volume   1309.590
_exptl_crystal_colour 'dark blue'
_exptl_crystal_density_diffrn 1.239
_exptl_crystal_description 'prism'
_diffrn_ambient_temperature 120
#These two values have been output from a single CSD field.
_refine_ls_R_factor_gt 0.0453
_refine_ls_wR_factor_gt 0.0453
_symmetry_cell_setting monoclinic
_symmetry_space_group_name_H-M 'P 21/n'
_symmetry_Int_Tables_number 14
loop_
_symmetry_equiv_pos_site_id
_symmetry_equiv_pos_as_xyz
1 x,y,z
2 1/2-x,1/2+y,1/2-z
3 -x,-y,-z
4 -1/2+x,-1/2-y,-1/2+z
_cell_length_a 6.0834(4)
_cell_length_b 11.2581(5)
_cell_length_c 19.1236(9)
_cell_angle_alpha 90
_cell_angle_beta 90.832(3)
_cell_angle_gamma 90
_cell_formula_units_Z 2
loop_
_atom_type_symbol
_atom_type_radius_bond
C 0.68
H 0.23
N 0.68
O 0.68
loop_
_atom_site_label
_atom_site_type_symbol
_atom_site_fract_x
_atom_site_fract_y
_atom_site_fract_z
N1 N 0.57807(19) 0.0447(1) 0.18802(6)
N2 N 0.36850(19) -0.0705(1) 0.12272(6)
C1 C 0.0414(2) 0.45623(13) 0.01254(7)
C2 C 0.1376(2) 0.35195(12) 0.04310(6)
C3 C 0.3502(2) 0.35632(12) 0.07281(7)
C4 C 0.4412(2) 0.25596(12) 0.10348(7)
C5 C 0.3234(2) 0.14880(11) 0.10461(6)
C6 C 0.1123(2) 0.14428(12) 0.07384(7)
C7 C 0.0215(2) 0.24501(13) 0.04356(6)
C8 C 0.4207(2) 0.04403(12) 0.13756(6)
C9 C 0.6231(2) -0.07659(11) 0.21692(7)
C10 C 0.8695(2) -0.08994(14) 0.22899(8)
C11 C 0.5029(3) -0.08314(15) 0.28664(7)
C12 C 0.5212(2) -0.15695(12) 0.15876(7)
C13 C 0.6852(3) -0.19510(15) 0.10348(8)
C14 C 0.3929(3) -0.26367(13) 0.18428(9)
O1 O 0.6659(2) 0.13616(10) 0.21650(6)
O2 O 0.22862(18) -0.10611(10) 0.07688(6)
H1 H 0.43130 0.42840 0.07190
H2 H 0.58390 0.25960 0.12420
H3 H 0.03270 0.07170 0.07370
H4 H -0.12150 0.24140 0.02300
H5 H 0.90060 -0.16630 0.24780
H6 H 0.91990 -0.03070 0.26080
H7 H 0.94210 -0.08100 0.18570
H8 H 0.52720 -0.15880 0.30730
H9 H 0.55760 -0.02300 0.31710
H10 H 0.34980 -0.07170 0.27890
H11 H 0.78630 -0.25030 0.12340
H12 H 0.76270 -0.12750 0.08730
H13 H 0.60870 -0.23130 0.06540
H14 H 0.49030 -0.31790 0.20680
H15 H 0.28540 -0.23790 0.21650
H16 H 0.32250 -0.30180 0.14570
N1B N -0.57807(19) 0.9553(1) -0.18802(6)
N2B N -0.36850(19) 1.0705(1) -0.12272(6)
C1B C -0.0414(2) 0.54377(13) -0.01254(7)
C2B C -0.1376(2) 0.64805(12) -0.04310(6)
C3B C -0.3502(2) 0.64368(12) -0.07281(7)
C4B C -0.4412(2) 0.74404(12) -0.10348(7)
C5B C -0.3234(2) 0.85120(11) -0.10461(6)
C6B C -0.1123(2) 0.85572(12) -0.07384(7)
C7B C -0.0215(2) 0.75499(13) -0.04356(6)
C8B C -0.4207(2) 0.95597(12) -0.13756(6)
C9B C -0.6231(2) 1.07659(11) -0.21692(7)
C10B C -0.8695(2) 1.08994(14) -0.22899(8)
C11B C -0.5029(3) 1.08314(15) -0.28664(7)
C12B C -0.5212(2) 1.15695(12) -0.15876(7)
C13B C -0.6852(3) 1.19510(15) -0.10348(8)
C14B C -0.3929(3) 1.26367(13) -0.18428(9)
O1B O -0.6659(2) 0.86384(10) -0.21650(6)
O2B O -0.22862(18) 1.10611(10) -0.07688(6)
H1B H -0.43130 0.57160 -0.07190
H2B H -0.58390 0.74040 -0.12420
H3B H -0.03270 0.92830 -0.07370
H4B H 0.12150 0.75860 -0.02300
H5B H -0.90060 1.16630 -0.24780
H6B H -0.91990 1.03070 -0.26080
H7B H -0.94210 1.08100 -0.18570
H8B H -0.52720 1.15880 -0.30730
H9B H -0.55760 1.02300 -0.31710
H10B H -0.34980 1.07170 -0.27890
H11B H -0.78630 1.25030 -0.12340
H12B H -0.76270 1.12750 -0.08730
H13B H -0.60870 1.23130 -0.06540
H14B H -0.49030 1.31790 -0.20680
H15B H -0.28540 1.23790 -0.21650
H16B H -0.32250 1.30180 -0.14570
#END
