
#######################################################################
#
#                 Cambridge Crystallographic Data Centre
#                                CCDC
#
#######################################################################
#
# If this CIF has been generated from an entry in the Cambridge
# Structural Database, then it will include bibliographic, chemical,
# crystal, experimental, refinement or atomic coordinate data resulting
# from the CCDC's data processing and validation procedures.
#
#######################################################################

data_CSD_CIF_NOHSAF
_audit_creation_date 2008-12-16
_audit_creation_method CSD-ConQuest-V1
_database_code_CSD NOHSAF
_database_code_depnum_ccdc_archive 'CCDC 658481'
_chemical_formula_sum 'C38 H46 N4 O1'
_chemical_formula_moiety
;
C38 H46 N4 O1
;
_journal_coden_Cambridge 36
_journal_volume 693
_journal_year 2008
_journal_page_first 3063
_journal_name_full 'J.Organomet.Chem. '
loop_
_publ_author_name
"K.Nienkemper"
"G.Kehr"
"S.Kehr"
"R.Frohlich"
"G.Erker"
_chemical_name_systematic
;
2-(1-(N-(2,6-di-isopropylphenyl)ethanimidoyl))-6-(1-(6-(N-(2,6-di-isopropylphe
nyl)ethanimidoyl)-2-pyridinyl))-pyridin-N-oxide
;
_chemical_melting_point 462.15
_cell_volume   3407.189
_exptl_crystal_colour 'light yellow'
_exptl_crystal_density_diffrn 1.121
_exptl_crystal_description 'plate'
_exptl_crystal_preparation 'pentane/chloroform/methanol/triethylamine'
_diffrn_ambient_temperature 223
#These two values have been output from a single CSD field.
_refine_ls_R_factor_gt 0.0976
_refine_ls_wR_factor_gt 0.0976
_symmetry_cell_setting monoclinic
_symmetry_space_group_name_H-M 'P 21/n'
_symmetry_Int_Tables_number 14
loop_
_symmetry_equiv_pos_site_id
_symmetry_equiv_pos_as_xyz
1 x,y,z
2 1/2-x,1/2+y,1/2-z
3 -x,-y,-z
4 -1/2+x,-1/2-y,-1/2+z
_cell_length_a 11.2767(4)
_cell_length_b 10.4211(3)
_cell_length_c 29.1668(9)
_cell_angle_alpha 90
_cell_angle_beta 96.249(2)
_cell_angle_gamma 90
_cell_formula_units_Z 4
loop_
_atom_type_symbol
_atom_type_radius_bond
C 0.68
H 0.23
N 0.68
O 0.68
loop_
_atom_site_label
_atom_site_type_symbol
_atom_site_fract_x
_atom_site_fract_y
_atom_site_fract_z
N1 N 0.4364(3) 0.7064(3) -0.00452(10)
O1 O 0.4872(3) 0.8034(3) 0.01762(10)
C1 C 0.4560(3) 0.6881(4) -0.04983(12)
C2 C 0.4136(4) 0.5807(4) -0.07311(13)
H1 H 0.43020 0.56750 -0.10360
C3 C 0.3471(4) 0.4921(4) -0.05234(14)
H2 H 0.31870 0.41790 -0.06820
C4 C 0.3225(4) 0.5142(4) -0.00743(14)
H3 H 0.27500 0.45560 0.00690
C5 C 0.3670(3) 0.6215(4) 0.01650(13)
C6 C 0.5201(3) 0.7920(4) -0.07200(13)
C7 C 0.4663(4) 0.9235(4) -0.07425(17)
H4 H 0.50410 0.97530 -0.04920
H5 H 0.38140 0.91730 -0.07160
H6 H 0.47840 0.96320 -0.10350
N2 N 0.6114(3) 0.7555(3) -0.09099(10)
C8 C 0.6752(3) 0.8479(4) -0.11547(13)
C9 C 0.7583(4) 0.9281(4) -0.09076(14)
C10 C 0.8235(4) 1.0116(5) -0.11582(17)
H7 H 0.87930 1.06760 -0.10010
C11 C 0.8070(4) 1.0129(5) -0.16363(18)
H8 H 0.85110 1.07000 -0.18000
C12 C 0.7265(4) 0.9312(5) -0.18716(16)
H9 H 0.71650 0.93260 -0.21960
C13 C 0.6593(4) 0.8461(4) -0.16349(14)
C14 C 0.5719(5) 0.7557(5) -0.18972(15)
H10 H 0.53790 0.70070 -0.16670
C15 C 0.4699(7) 0.8289(9) -0.2152(3)
H11 H 0.49920 0.87910 -0.23970
H12 H 0.43520 0.88580 -0.19400
H13 H 0.40980 0.76910 -0.22850
C16 C 0.6292(8) 0.6693(9) -0.2213(3)
H14 H 0.67300 0.72020 -0.24170
H15 H 0.56840 0.61970 -0.23960
H16 H 0.68360 0.61170 -0.20340
C17 C 0.7808(4) 0.9212(5) -0.03860(15)
H17 H 0.70500 0.89510 -0.02710
C18 C 0.8185(6) 1.0466(6) -0.0155(2)
H18 H 0.82600 1.03560 0.01780
H19 H 0.75910 1.11180 -0.02440
H20 H 0.89470 1.07300 -0.02490
C19 C 0.8710(6) 0.8140(6) -0.02626(19)
H21 H 0.94710 0.83720 -0.03650
H22 H 0.84240 0.73510 -0.04130
H23 H 0.88080 0.80150 0.00690
C20 C 0.3387(3) 0.6465(4) 0.06436(13)
N3 N 0.2272(3) 0.6092(3) 0.07061(11)
C21 C 0.1909(3) 0.6233(4) 0.11242(13)
C22 C 0.2654(4) 0.6687(5) 0.14977(15)
H24 H 0.23870 0.67420 0.17920
C23 C 0.3790(4) 0.7056(5) 0.14290(16)
H25 H 0.43110 0.73710 0.16770
C24 C 0.4168(4) 0.6963(5) 0.09924(14)
H26 H 0.49350 0.72330 0.09380
C25 C 0.0643(3) 0.5874(4) 0.11634(13)
C26 C -0.0056(4) 0.5335(5) 0.07438(15)
H27 H 0.02980 0.45300 0.06620
H28 H -0.00480 0.59370 0.04910
H29 H -0.08730 0.51870 0.08060
N4 N 0.0254(3) 0.6091(3) 0.15520(11)
C27 C -0.0933(3) 0.5775(4) 0.16375(13)
C28 C -0.1748(3) 0.6778(4) 0.16605(13)
C29 C -0.2876(4) 0.6488(5) 0.17858(14)
H30 H -0.34400 0.71460 0.18010
C30 C -0.3171(4) 0.5237(5) 0.18880(16)
H31 H -0.39320 0.50530 0.19740
C31 C -0.2360(4) 0.4266(5) 0.18646(16)
H32 H -0.25760 0.34230 0.19350
C32 C -0.1223(4) 0.4501(4) 0.17386(15)
C33 C -0.1411(4) 0.8150(4) 0.15619(16)
H33 H -0.05450 0.82380 0.16560
C34 C -0.1615(6) 0.8441(6) 0.10571(18)
H34 H -0.12140 0.78040 0.08870
H35 H -0.13000 0.92860 0.10000
H36 H -0.24640 0.84240 0.09570
C35 C -0.2041(7) 0.9129(5) 0.1836(2)
H37 H -0.28760 0.91770 0.17150
H38 H -0.16730 0.99640 0.18110
H39 H -0.19770 0.88720 0.21580
C36 C -0.0356(5) 0.3406(5) 0.1730(2)
H40 H 0.03970 0.37550 0.16350
C37 C -0.0830(8) 0.2389(6) 0.1369(3)
H41 H -0.15800 0.20470 0.14490
H42 H -0.02540 0.16990 0.13650
H43 H -0.09520 0.27830 0.10660
C38 C -0.0074(7) 0.2811(7) 0.2206(3)
H44 H 0.02620 0.34590 0.24210
H45 H 0.04970 0.21200 0.21900
H46 H -0.08000 0.24740 0.23100
#END
