
#######################################################################
#
#                 Cambridge Crystallographic Data Centre
#                                CCDC
#
#######################################################################
#
# If this CIF has been generated from an entry in the Cambridge
# Structural Database, then it will include bibliographic, chemical,
# crystal, experimental, refinement or atomic coordinate data resulting
# from the CCDC's data processing and validation procedures.
#
#######################################################################

data_CSD_CIF_NTRACD
_audit_creation_date 1980-09-10
_audit_creation_method CSD-ConQuest-V1
_database_code_CSD NTRACD
_chemical_formula_sum 'C2 H3 N1 O4'
_chemical_formula_moiety
;
C2 H3 N1 O4
;
_journal_coden_Cambridge 189
_journal_volume 9
_journal_year 1980
_journal_page_first 397
_journal_name_full 'Cryst.Struct.Commun. '
loop_
_publ_author_name
"K.von Deuten"
"G.Klar"
_chemical_name_systematic
;
Nitroacetic acid
;
_chemical_melting_point 367
_cell_volume    413.123
_exptl_crystal_colour 'colorless'
_exptl_crystal_density_diffrn 1.69
_diffrn_ambient_temperature ?
_diffrn_special_details
;
The study was carried out at room temperature,in the range 283-303K

;
#These two values have been output from a single CSD field.
_refine_ls_R_factor_gt 0.029
_refine_ls_wR_factor_gt 0.029
_symmetry_cell_setting monoclinic
_symmetry_space_group_name_H-M 'P 21/n'
_symmetry_Int_Tables_number 14
loop_
_symmetry_equiv_pos_site_id
_symmetry_equiv_pos_as_xyz
1 x,y,z
2 1/2-x,1/2+y,1/2-z
3 -x,-y,-z
4 -1/2+x,-1/2-y,-1/2+z
_cell_length_a 5.196(3)
_cell_length_b 11.064(8)
_cell_length_c 7.537(5)
_cell_angle_alpha 90
_cell_angle_beta 107.55(5)
_cell_angle_gamma 90
_cell_formula_units_Z 4
loop_
_atom_type_symbol
_atom_type_radius_bond
C 0.68
H 0.23
N 0.68
O 0.68
loop_
_atom_site_label
_atom_site_type_symbol
_atom_site_fract_x
_atom_site_fract_y
_atom_site_fract_z
C1 C 0.39890 0.41290 0.27080
O1 O 0.62640 0.41470 0.37430
O2 O 0.19060 0.46570 0.29750
C2 C 0.31880 0.34420 0.08940
N1 N 0.56230 0.29200 0.05650
O3 O 0.64890 0.19770 0.13460
O4 O 0.66480 0.34660 -0.04360
H1 H 0.23700 0.50200 0.39200
H2 H 0.19900 0.27800 0.09500
H3 H 0.23800 0.39200 -0.00800
#END
