
#######################################################################
#
#                 Cambridge Crystallographic Data Centre
#                                CCDC
#
#######################################################################
#
# If this CIF has been generated from an entry in the Cambridge
# Structural Database, then it will include bibliographic, chemical,
# crystal, experimental, refinement or atomic coordinate data resulting
# from the CCDC's data processing and validation procedures.
#
#######################################################################

data_CSD_CIF_NUNCOO
_audit_creation_date 1998-09-21
_audit_creation_method CSD-ConQuest-V1
_database_code_CSD NUNCOO
_database_code_depnum_ccdc_archive 'CCDC 130225'
_chemical_formula_sum 'C14 H14 N2 O3'
_chemical_formula_moiety
;
C14 H14 N2 O3
;
_journal_coeditor_code "IUCr SK1162"
_journal_coden_Cambridge 591
_journal_volume 54
_journal_year 1998
_journal_page_first 955
_journal_name_full 'Acta Crystallogr.,Sect.C:Cryst.Struct.Commun. '
loop_
_publ_author_name
"K.Chinnakali"
"Hoong-Kun Fun"
"K.Sriraghavan"
"V.T.Ramakrishnan"
_chemical_name_systematic
;
2-(4-Nitroanilino)-phenylethanol
;
_cell_volume   2140.696
_exptl_crystal_colour 'yellow'
_exptl_crystal_density_diffrn 1.202
_exptl_crystal_description 'needle'
_diffrn_ambient_temperature 293
#These two values have been output from a single CSD field.
_refine_ls_R_factor_gt 0.0446
_refine_ls_wR_factor_gt 0.0446
_symmetry_cell_setting rhombohedral
_symmetry_space_group_name_H-M 'R -3'
_symmetry_Int_Tables_number 148
loop_
_symmetry_equiv_pos_site_id
_symmetry_equiv_pos_as_xyz
1 x,y,z
2 z,x,y
3 y,z,x
4 -x,-y,-z
5 -z,-x,-y
6 -y,-z,-x
_cell_length_a 18.618(2)
_cell_length_b 18.618(2)
_cell_length_c 18.618(2)
_cell_angle_alpha 118.34(1)
_cell_angle_beta 118.34(1)
_cell_angle_gamma 118.34(1)
_cell_formula_units_Z 6
loop_
_atom_type_symbol
_atom_type_radius_bond
C 0.68
H 0.23
N 0.68
O 0.68
loop_
_atom_site_label
_atom_site_type_symbol
_atom_site_fract_x
_atom_site_fract_y
_atom_site_fract_z
O1 O 0.0660(2) -0.4360(2) -0.3447(2)
O2 O 0.2627(2) -0.2309(2) -0.0694(2)
O3 O 0.8785(2) 0.5669(2) 0.2560(2)
N1 N 0.2039(2) -0.2738(2) -0.1793(2)
N2 N 0.5682(2) 0.2765(2) 0.0742(2)
C1 C 0.2975(2) -0.1312(2) -0.1134(3)
C2 C 0.4594(3) 0.0545(3) 0.0753(3)
C3 C 0.5501(3) 0.1908(3) 0.1392(3)
C4 C 0.4805(2) 0.1445(2) 0.0153(2)
C5 C 0.3141(3) -0.0466(3) -0.1764(3)
C6 C 0.2247(3) -0.1820(3) -0.2397(3)
C7 C 0.7446(3) 0.4777(3) 0.2688(3)
C8 C 0.8288(3) 0.5853(3) 0.2902(3)
C9 C 0.7242(3) 0.5300(3) 0.3363(3)
C10 C 0.5557(5) 0.4200(5) 0.2105(5)
C11 C 0.5443(6) 0.4774(7) 0.2774(7)
H1 H 0.4299(6) 0.4022(7) 0.1916(7)
C12 C 0.7000(8) 0.6433(7) 0.4680(8)
H2 H 0.6927(8) 0.6826(7) 0.5125(8)
C13 C 0.8656(6) 0.7505(5) 0.5922(6)
H3 H 0.9711(6) 0.8621(5) 0.7218(6)
C14 C 0.8796(5) 0.6958(4) 0.5282(4)
H4 H 0.520(3) 0.242(3) 0.001(3)
H5 H 0.780(4) 0.459(4) 0.134(4)
H6 H 0.506(3) 0.082(3) 0.155(3)
H7 H 0.669(3) 0.323(3) 0.276(3)
H8 H 0.275(3) -0.073(3) -0.252(3)
H9 H 0.116(3) -0.311(3) -0.371(3)
H10 H 0.837(2) 0.522(2) 0.354(2)
H11 H 0.951(3) 0.726(3) 0.425(3)
H12 H 0.742(2) 0.547(2) 0.208(2)
H13 H 0.432(3) 0.288(3) 0.064(3)
H14 H 0.994(3) 0.768(3) 0.616(3)
#END
