
#######################################################################
#
#                 Cambridge Crystallographic Data Centre
#                                CCDC
#
#######################################################################
#
# If this CIF has been generated from an entry in the Cambridge
# Structural Database, then it will include bibliographic, chemical,
# crystal, experimental, refinement or atomic coordinate data resulting
# from the CCDC's data processing and validation procedures.
#
#######################################################################

data_CSD_CIF_OCEREV
_audit_creation_date 2012-01-25
_audit_creation_method CSD-ConQuest-V1
_database_code_CSD OCEREV
_database_code_depnum_ccdc_archive 'CCDC 852622'
_chemical_formula_sum 'C25 H29 N1 O6'
_chemical_formula_moiety
;
C25 H29 N1 O6
;
_journal_coeditor_code "IUCr CV5170"
_journal_coden_Cambridge 1370
_journal_volume 67
_journal_year 2011
_journal_page_first o3153
_journal_name_full 'Acta Crystallogr.,Sect.E:Struct.Rep.Online '
loop_
_publ_author_name
"J.H.Cha"
"Y.H.Kim"
"S.-J.Min"
"Y.S.Cho"
"J.K.Lee"
_chemical_name_systematic
;
(E)-2,2'-[3-(2-Nitrophenyl)prop-2-ene-1,1-diyl]bis(3-hydroxy-5,5-dimethylcyclo
hex-2-en-1-one)
;
_chemical_name_common
;
2,2'-(1-(2-Nitrophenyl)prop-1-ene-3,3-diyl)bis(3-hydroxy-5,5-dimethylcyclohex-
2-en-1-one)
;
_cell_volume   1161.780
_exptl_crystal_colour 'colorless'
_exptl_crystal_density_diffrn 1.256
_exptl_crystal_description 'block'
_exptl_crystal_preparation 'ethanol'
_diffrn_ambient_temperature 298
_refine_special_details
;
Oxygens of the nitro group are rotationally disordered over two sites with 
occupancies 0.544:0.456.
;
#These two values have been output from a single CSD field.
_refine_ls_R_factor_gt 0.0638
_refine_ls_wR_factor_gt 0.0638
_symmetry_cell_setting triclinic
_symmetry_space_group_name_H-M 'P -1'
_symmetry_Int_Tables_number 2
loop_
_symmetry_equiv_pos_site_id
_symmetry_equiv_pos_as_xyz
1 x,y,z
2 -x,-y,-z
_cell_length_a 9.8306(14)
_cell_length_b 11.0841(14)
_cell_length_c 11.9602(13)
_cell_angle_alpha 69.601(3)
_cell_angle_beta 79.867(4)
_cell_angle_gamma 72.588(4)
_cell_formula_units_Z 2
loop_
_atom_type_symbol
_atom_type_radius_bond
C 0.68
H 0.23
N 0.68
O 0.68
loop_
_atom_site_label
_atom_site_type_symbol
_atom_site_fract_x
_atom_site_fract_y
_atom_site_fract_z
O1 O 0.2599(4) 0.9448(3) 0.8416(3)
O2 O 0.2544(4) 0.9495(3) 0.4491(2)
O3 O 0.3523(3) 0.6854(3) 0.9110(2)
O4 O 0.3900(3) 0.6966(3) 0.5114(2)
O5 O 0.8470(8) 0.5275(8) 0.8424(8)
O6 O 1.0410(9) 0.5912(8) 0.7656(7)
N1 N 0.9230(6) 0.6001(6) 0.8254(5)
C1 C 0.7340(5) 0.8011(5) 0.8334(4)
C2 C 0.8713(5) 0.7226(5) 0.8563(4)
C3 C 0.9652(6) 0.7558(6) 0.9076(5)
C4 C 0.9227(7) 0.8681(6) 0.9389(5)
C5 C 0.7895(7) 0.9491(6) 0.9180(4)
C6 C 0.6967(6) 0.9166(5) 0.8660(4)
C7 C 0.6299(5) 0.7701(4) 0.7807(4)
C8 C 0.5278(5) 0.8605(4) 0.7170(3)
C9 C 0.4195(5) 0.8353(4) 0.6577(3)
C10 C 0.2823(4) 0.9502(4) 0.6418(3)
C11 C 0.2202(5) 1.0022(4) 0.7372(4)
C12 C 0.0991(5) 1.1265(4) 0.7155(4)
C13 C 0.0902(5) 1.2149(4) 0.5852(4)
C14 C 0.0981(5) 1.1248(4) 0.5111(4)
C15 C 0.2178(5) 1.0031(4) 0.5369(4)
C16 C 0.2137(6) 1.2809(5) 0.5453(4)
C17 C -0.0503(5) 1.3220(5) 0.5690(5)
C18 C 0.3973(4) 0.6970(4) 0.7065(3)
C19 C 0.3753(4) 0.6294(4) 0.8266(3)
C20 C 0.3741(5) 0.4871(4) 0.8725(4)
C21 C 0.4418(5) 0.4095(4) 0.7843(4)
C22 C 0.3813(5) 0.4934(4) 0.6638(3)
C23 C 0.3928(5) 0.6342(4) 0.6216(4)
C24 C 0.6045(5) 0.3842(5) 0.7714(4)
C25 C 0.4058(6) 0.2761(4) 0.8278(4)
H1 H 0.30760 0.87460 0.47320
H2 H 1.05710 0.70090 0.92040
H3 H 0.34520 0.76550 0.88040
H4 H 0.98470 0.88990 0.97470
H5 H 0.76070 1.02690 0.93880
H6 H 0.60590 0.97380 0.85230
H7 H 0.63650 0.68090 0.79310
H8 H 0.52130 0.94890 0.70740
H9 H 0.46240 0.84260 0.57590
H10 H 0.10870 1.17830 0.76300
H11 H 0.00990 1.10100 0.74360
H12 H 0.00900 1.09900 0.52610
H13 H 0.10790 1.17510 0.42690
H14 H 0.30280 1.21360 0.55660
H15 H 0.20670 1.33790 0.59200
H16 H 0.20960 1.33280 0.46230
H17 H -0.05280 1.38230 0.61110
H18 H -0.12840 1.28130 0.60010
H19 H -0.05850 1.37020 0.48540
H20 H 0.27590 0.48150 0.89440
H21 H 0.42470 0.44470 0.94470
H22 H 0.43130 0.45110 0.60410
H23 H 0.28130 0.49420 0.66980
H24 H 0.64490 0.33220 0.71840
H25 H 0.64130 0.33680 0.84840
H26 H 0.62950 0.46780 0.73930
H27 H 0.44660 0.22350 0.90250
H28 H 0.44420 0.23040 0.76970
H29 H 0.30380 0.28990 0.83880
O7? O 1.0123(10) 0.4996(9) 0.8776(5)
O8? O 0.8873(10) 0.5826(9) 0.7438(8)
#END
