
#######################################################################
#
#                 Cambridge Crystallographic Data Centre
#                                CCDC
#
#######################################################################
#
# If this CIF has been generated from an entry in the Cambridge
# Structural Database, then it will include bibliographic, chemical,
# crystal, experimental, refinement or atomic coordinate data resulting
# from the CCDC's data processing and validation procedures.
#
#######################################################################

data_CSD_CIF_OFAMUG
_audit_creation_date 2018-08-28
_audit_creation_method CSD-ConQuest-V1
_database_code_CSD OFAMUG
_database_code_depnum_ccdc_archive 'CCDC 1813305'
_chemical_formula_sum 'C26 H34 N4 O6'
_chemical_formula_moiety
;
C26 H34 N4 O6
;
_journal_coden_Cambridge 1441
_journal_year 2018
_journal_name_full 'Nature Chemistry '
loop_
_publ_author_name
"J.Bruffaerts"
"D.Pierrot"
"I.Marek"
_chemical_name_systematic
;
1-[3-butyl-6-(3,4-dimethoxyphenyl)-3-methylhept-4-en-1-ylidene]-2-(2,4-dinitro
phenyl)hydrazine
;
_cell_volume   2647.793
_exptl_crystal_colour 'yellow'
_exptl_crystal_density_diffrn 1.251
_exptl_crystal_description 'plate'
_diffrn_ambient_temperature 293
#These two values have been output from a single CSD field.
_refine_ls_R_factor_gt 0.1106
_refine_ls_wR_factor_gt 0.1106
_symmetry_cell_setting orthorhombic
_symmetry_space_group_name_H-M 'P c a 21'
_symmetry_Int_Tables_number 29
loop_
_symmetry_equiv_pos_site_id
_symmetry_equiv_pos_as_xyz
1 x,y,z
2 -x,-y,1/2+z
3 1/2-x,y,1/2+z
4 1/2+x,-y,z
_cell_length_a 6.690(5)
_cell_length_b 24.410(4)
_cell_length_c 16.214(17)
_cell_angle_alpha 90
_cell_angle_beta 90
_cell_angle_gamma 90
_cell_formula_units_Z 4
loop_
_atom_type_symbol
_atom_type_radius_bond
C 0.68
H 0.23
N 0.68
O 0.68
loop_
_atom_site_label
_atom_site_type_symbol
_atom_site_fract_x
_atom_site_fract_y
_atom_site_fract_z
O1 O 0.579(2) -0.0936(4) 0.5850(11)
O2 O 0.5351(15) -0.1527(4) 0.4888(10)
O3 O 0.4432(17) -0.0941(3) 0.2126(10)
O4 O 0.3457(13) -0.0119(3) 0.1872(9)
O5 O -0.4018(15) 0.4304(4) -0.0211(12)
O6 O -0.0605(16) 0.4397(3) 0.0479(11)
N1 N 0.5415(14) -0.1055(5) 0.5149(11)
N2 N 0.4115(13) -0.0478(4) 0.2335(10)
N3 N 0.4457(11) 0.0668(3) 0.2902(10)
H1 H 0.40360 0.06140 0.24070
N4 N 0.4952(11) 0.1194(3) 0.3167(10)
C1 C 0.5131(13) -0.0607(4) 0.4561(11)
C2 C 0.4747(13) -0.0736(4) 0.3753(11)
H2 H 0.46730 -0.11000 0.35870
C3 C 0.4469(13) -0.0315(4) 0.3188(10)
C4 C 0.4647(12) 0.0245(4) 0.3432(10)
C5 C 0.5013(13) 0.0346(4) 0.4275(10)
H3 H 0.50990 0.07050 0.44640
C6 C 0.5242(13) -0.0078(4) 0.4815(10)
H4 H 0.54800 -0.00020 0.53690
C7 C 0.4761(16) 0.1555(4) 0.2630(11)
H5 H 0.42600 0.14590 0.21150
C8 C 0.5326(18) 0.2149(4) 0.2791(11)
H6 H 0.58000 0.21820 0.33550
H7 H 0.64200 0.22490 0.24290
C9 C 0.364(2) 0.2547(4) 0.2664(11)
C10 C 0.197(3) 0.2386(7) 0.3275(11)
H8 H 0.16500 0.20050 0.32080
H9 H 0.07970 0.26020 0.31680
H10 H 0.24140 0.24500 0.38290
C11 C 0.285(2) 0.2511(4) 0.1789(11)
H11 H 0.38330 0.25440 0.13850
C12 C 0.1097(19) 0.2443(4) 0.1507(11)
H12 H 0.00750 0.24220 0.18950
C13 C 0.0498(17) 0.2392(4) 0.0636(10)
H13 H 0.17210 0.24150 0.03050
C14 C -0.046(2) 0.1843(4) 0.0447(11)
H14 H 0.03780 0.15540 0.06490
H15 H -0.06240 0.18050 -0.01390
H16 H -0.17450 0.18230 0.07100
C15 C -0.0848(16) 0.2895(4) 0.0388(10)
C16 C -0.2685(19) 0.2841(4) 0.0016(11)
H17 H -0.31990 0.24940 -0.00920
C17 C -0.3753(19) 0.3297(5) -0.0194(11)
H18 H -0.49790 0.32560 -0.04570
C18 C -0.3050(17) 0.3822(4) -0.0026(12)
C19 C -0.1238(17) 0.3879(4) 0.0357(11)
C20 C -0.0155(16) 0.3400(4) 0.0560(11)
H19 H 0.10760 0.34360 0.08220
C21 C -0.560(3) 0.4304(7) -0.0746(16)
H20 H -0.52040 0.41420 -0.12600
H21 H -0.60340 0.46740 -0.08410
H22 H -0.66840 0.40970 -0.05130
C22 C 0.104(3) 0.4489(5) 0.1003(13)
H23 H 0.21740 0.42850 0.08050
H24 H 0.07180 0.43710 0.15510
H25 H 0.13600 0.48720 0.10080
C23 C 0.407(4) 0.3107(6) 0.2903(10)
H26 H 0.48290 0.30800 0.34120
H27 H 0.27960 0.32670 0.30510
C24 C 0.512(6) 0.3533(9) 0.2398(10)
H28 H 0.44310 0.35800 0.18780
H29 H 0.64750 0.34130 0.22800
C25 C 0.519(5) 0.4070(8) 0.2848(13)
H30 H 0.39690 0.42790 0.27750
H31 H 0.54560 0.40220 0.34320
C26 C 0.692(5) 0.4325(15) 0.241(2)
H32 H 0.68830 0.47160 0.24750
H33 H 0.68500 0.42380 0.18290
H34 H 0.81520 0.41860 0.26290
#END
