
#######################################################################
#
#                 Cambridge Crystallographic Data Centre
#                                CCDC
#
#######################################################################
#
# If this CIF has been generated from an entry in the Cambridge
# Structural Database, then it will include bibliographic, chemical,
# crystal, experimental, refinement or atomic coordinate data resulting
# from the CCDC's data processing and validation procedures.
#
#######################################################################

data_CSD_CIF_OFOBIX
_audit_creation_date 2018-08-29
_audit_creation_method CSD-ConQuest-V1
_database_code_CSD OFOBIX
_database_code_depnum_ccdc_archive 'CCDC 1864535'
_chemical_formula_sum 'C11 H15 N7 O6'
_chemical_formula_moiety
;
C11 H15 N7 O6
;
_journal_coden_Cambridge 4
_journal_volume 140
_journal_year 2018
_journal_page_first 10619
_journal_name_full 'J.Am.Chem.Soc. '
loop_
_publ_author_name
"Hongze Li"
"Shou-Jie Shen"
"Cheng-Liang Zhu"
"Hao Xu"
_chemical_name_systematic
;
ethyl 3-(acetyloxy)-4,5-diazido-2-nitrocyclohexane-1-carboxylate
;
_cell_volume   3049.854
_exptl_crystal_colour 'yellow'
_exptl_crystal_density_diffrn 1.487
_exptl_crystal_description 'Chunk'
_exptl_crystal_preparation 'used as received'
_diffrn_ambient_temperature 173
#These two values have been output from a single CSD field.
_refine_ls_R_factor_gt 0.0344
_refine_ls_wR_factor_gt 0.0344
_symmetry_cell_setting monoclinic
_symmetry_space_group_name_H-M 'C 2/c'
_symmetry_Int_Tables_number 15
loop_
_symmetry_equiv_pos_site_id
_symmetry_equiv_pos_as_xyz
1 x,y,z
2 -x,y,1/2-z
3 1/2+x,1/2+y,z
4 1/2-x,1/2+y,1/2-z
5 -x,-y,-z
6 x,-y,-1/2+z
7 -1/2-x,-1/2-y,-z
8 -1/2+x,-1/2-y,-1/2+z
_cell_length_a 16.0517(2)
_cell_length_b 8.0441(1)
_cell_length_c 24.0949(3)
_cell_angle_alpha 90
_cell_angle_beta 101.394(1)
_cell_angle_gamma 90
_cell_formula_units_Z 8
loop_
_atom_type_symbol
_atom_type_radius_bond
C 0.68
H 0.23
N 0.68
O 0.68
loop_
_atom_site_label
_atom_site_type_symbol
_atom_site_fract_x
_atom_site_fract_y
_atom_site_fract_z
O1 O 0.60406(5) 0.77979(10) 0.45657(3)
O2 O 0.52405(6) 0.82348(13) 0.52178(4)
O3 O 0.73137(6) 0.62634(13) 0.30049(4)
O4 O 0.60866(6) 0.72785(14) 0.25175(4)
O5 O 0.67220(6) 0.96206(12) 0.35667(4)
O6 O 0.54841(7) 1.07008(11) 0.35517(4)
N1 N 0.61232(7) 0.42652(13) 0.45144(4)
N2 N 0.63948(6) 0.28267(13) 0.45905(4)
N3 N 0.67018(8) 0.15857(14) 0.47126(5)
N4 N 0.40434(6) 0.58155(13) 0.37721(4)
N5 N 0.35194(7) 0.68781(14) 0.38508(5)
N6 N 0.29890(8) 0.77806(18) 0.38756(6)
N7 N 0.59617(7) 0.95137(12) 0.35622(4)
C1 C 0.52827(7) 0.76324(14) 0.41366(4)
H1 H 0.48710 0.85350 0.41780
C2 C 0.48687(7) 0.59180(14) 0.41764(5)
H2 H 0.47700 0.57550 0.45700
C3 C 0.54017(7) 0.44661(14) 0.40244(5)
H3 H 0.50490 0.34320 0.39830
C4 C 0.57187(8) 0.47731(14) 0.34741(5)
H4 H 0.52290 0.47670 0.31520
H5 H 0.61070 0.38630 0.34150
C5 C 0.61879(7) 0.64473(14) 0.34891(5)
H6 H 0.66810 0.64540 0.38160
C6 C 0.55668(7) 0.78079(13) 0.35715(5)
H7 H 0.50560 0.77390 0.32580
C7 C 0.59300(8) 0.80703(14) 0.51033(5)
C8 C 0.67605(9) 0.80817(18) 0.55092(5)
H8 H 0.69970 0.69550 0.55450
H9 H 0.66760 0.84680 0.58800
H10 H 0.71550 0.88300 0.53700
C9 C 0.65063(7) 0.67179(15) 0.29447(5)
C10 C 0.77213(9) 0.6550(2) 0.25229(6)
H11 H 0.75160 0.76030 0.23310
H12 H 0.75890 0.56290 0.22470
C11 C 0.86506(10) 0.6638(3) 0.27478(7)
H13 H 0.89490 0.68020 0.24340
H14 H 0.88430 0.56000 0.29450
H15 H 0.87740 0.75710 0.30130
#END
