
#######################################################################
#
#                 Cambridge Crystallographic Data Centre
#                                CCDC
#
#######################################################################
#
# If this CIF has been generated from an entry in the Cambridge
# Structural Database, then it will include bibliographic, chemical,
# crystal, experimental, refinement or atomic coordinate data resulting
# from the CCDC's data processing and validation procedures.
#
#######################################################################

data_CSD_CIF_OHUJOQ
_audit_creation_date 2003-10-28
_audit_creation_method CSD-ConQuest-V1
_database_code_CSD OHUJOQ
_database_code_depnum_ccdc_archive 'CCDC 197238'
_chemical_formula_sum 'C18 H16 N4 O6'
_chemical_formula_moiety
;
C18 H16 N4 O6
;
_journal_coden_Cambridge 119
_journal_volume 655
_journal_year 2003
_journal_page_first 17
_journal_name_full 'J.Mol.Struct. '
loop_
_publ_author_name
"J.Nowicka-Scheibe"
"E.Grech"
"J.G.Sosnicki"
"T.Glowiak"
"W.Sawka-Dobrowolska"
"L.Sobczyk"
_chemical_name_systematic
;
16,20-dinitro-(3,4;8,9)-dibenzo-2,7-dioxa-5,10-diaza[4.4.4]propellane
;
_chemical_melting_point 500.15
_cell_volume    831.466
_exptl_crystal_colour 'yellow-brown'
_exptl_crystal_density_diffrn 1.535
_exptl_special_details
;
Melts with decomposition.

;
_exptl_crystal_description 'block'
_exptl_crystal_preparation 'ethanol'
_diffrn_ambient_temperature 100
#These two values have been output from a single CSD field.
_refine_ls_R_factor_gt 0.0295
_refine_ls_wR_factor_gt 0.0295
_symmetry_cell_setting orthorhombic
_symmetry_space_group_name_H-M 'P n c 2'
_symmetry_Int_Tables_number 30
loop_
_symmetry_equiv_pos_site_id
_symmetry_equiv_pos_as_xyz
1 x,y,z
2 -x,-y,z
3 x,1/2-y,1/2+z
4 -x,1/2+y,1/2+z
_cell_length_a 6.852(1)
_cell_length_b 16.696(3)
_cell_length_c 7.268(1)
_cell_angle_alpha 90
_cell_angle_beta 90
_cell_angle_gamma 90
_cell_formula_units_Z 2
loop_
_atom_type_symbol
_atom_type_radius_bond
C 0.68
H 0.23
N 0.68
O 0.68
loop_
_atom_site_label
_atom_site_type_symbol
_atom_site_fract_x
_atom_site_fract_y
_atom_site_fract_z
O1 O 0.21203(12) 0.49417(5) 0.20000
O2 O 0.69595(17) 0.30954(7) 0.4746(2)
O3 O 0.58536(16) 0.19089(7) 0.4170(2)
N1 N 0.07565(15) 0.60476(6) 0.0606(2)
N2 N 0.57152(17) 0.26490(8) 0.4105(2)
C1 C 0.10054(15) 0.52077(7) 0.0404(2)
C2 C 0.22671(17) 0.41274(7) 0.2199(2)
C3 C -0.07673(18) 0.63749(7) 0.1558(2)
C4 C 0.21500(19) 0.50329(8) -0.1348(2)
C5 C 0.0972(2) 0.52238(9) -0.3078(3)
C6 C 0.38900(19) 0.38122(8) 0.3059(2)
C7 C 0.3999(2) 0.29867(8) 0.3263(2)
C8 C 0.25367(18) 0.24781(8) 0.2658(3)
C9 C -0.09139(19) 0.72026(7) 0.1815(2)
H1 H 0.494(3) 0.4168(12) 0.350(3)
H2 H 0.266(2) 0.1904(10) 0.281(3)
H3 H 0.015(2) 0.7536(10) 0.141(2)
H4 H 0.173(3) 0.6361(10) 0.023(3)
H5 H 0.251(2) 0.4463(10) -0.140(2)
H6 H 0.333(3) 0.5346(11) -0.127(2)
H7 H 0.073(2) 0.5806(10) -0.316(3)
H8 H 0.169(3) 0.5065(11) -0.412(3)
C2A C -0.22671(17) 0.58726(7) 0.2199(2)
O1A O -0.21203(12) 0.50583(5) 0.20000
C1A C -0.10054(15) 0.47923(7) 0.0404(2)
N1A N -0.07565(15) 0.39524(6) 0.0606(2)
C3A C 0.07673(18) 0.36251(7) 0.1558(2)
C9A C 0.09139(19) 0.27974(7) 0.1815(2)
H3A H -0.015(2) 0.2464(10) 0.141(2)
H4A H -0.173(3) 0.3639(10) 0.023(3)
C5A C -0.0972(2) 0.47762(9) -0.3078(3)
C4A C -0.21500(19) 0.49671(8) -0.1348(2)
H5A H -0.251(2) 0.5537(10) -0.140(2)
H6A H -0.333(3) 0.4654(11) -0.127(2)
H7A H -0.073(2) 0.4194(10) -0.316(3)
H8A H -0.169(3) 0.4935(11) -0.412(3)
C6A C -0.38900(19) 0.61878(8) 0.3059(2)
C7A C -0.3999(2) 0.70133(8) 0.3263(2)
N2A N -0.57152(17) 0.73510(8) 0.4105(2)
O2A O -0.69595(17) 0.69046(7) 0.4746(2)
O3A O -0.58536(16) 0.80911(7) 0.4170(2)
C8A C -0.25367(18) 0.75219(8) 0.2658(3)
H2A H -0.266(2) 0.8096(10) 0.281(3)
H1A H -0.494(3) 0.5832(12) 0.350(3)
#END
