
#######################################################################
#
#                 Cambridge Crystallographic Data Centre
#                                CCDC
#
#######################################################################
#
# If this CIF has been generated from an entry in the Cambridge
# Structural Database, then it will include bibliographic, chemical,
# crystal, experimental, refinement or atomic coordinate data resulting
# from the CCDC's data processing and validation procedures.
#
#######################################################################

data_CSD_CIF_OJETAY
_audit_creation_date 2003-10-28
_audit_creation_method CSD-ConQuest-V1
_database_code_CSD OJETAY
_database_code_depnum_ccdc_archive 'CCDC 217474'
_chemical_formula_sum 'C14 H13 N1 O3'
_chemical_formula_moiety
;
C14 H13 N1 O3
;
_journal_coeditor_code "IUCr AC6044"
_journal_coden_Cambridge 1370
_journal_volume 59
_journal_year 2003
_journal_page_first o1004
_journal_name_full 'Acta Crystallogr.,Sect.E:Struct.Rep.Online '
loop_
_publ_author_name
"E.E.Saad"
"Y.Farina"
"B.M.Yamin"
_chemical_name_systematic
;
o-Methoxy-N-phenylbenzohydroxamic acid
;
_cell_volume   2463.636
_exptl_crystal_colour 'colorless'
_exptl_crystal_density_diffrn 1.312
_exptl_crystal_description 'block'
_exptl_crystal_preparation 'ethyl acetate'
_diffrn_ambient_temperature 293
#These two values have been output from a single CSD field.
_refine_ls_R_factor_gt 0.047
_refine_ls_wR_factor_gt 0.047
_symmetry_cell_setting monoclinic
_symmetry_space_group_name_H-M 'C 2/c'
_symmetry_Int_Tables_number 15
loop_
_symmetry_equiv_pos_site_id
_symmetry_equiv_pos_as_xyz
1 x,y,z
2 1/2+x,1/2+y,z
3 x,-y,1/2+z
4 1/2+x,1/2-y,1/2+z
5 -x,-y,-z
6 -1/2-x,-1/2-y,-z
7 -x,y,-1/2-z
8 -1/2-x,-1/2+y,-1/2-z
_cell_length_a 22.451(3)
_cell_length_b 8.3709(13)
_cell_length_c 14.921(2)
_cell_angle_alpha 90
_cell_angle_beta 118.531(3)
_cell_angle_gamma 90
_cell_formula_units_Z 8
loop_
_atom_type_symbol
_atom_type_radius_bond
C 0.68
H 0.23
N 0.68
O 0.68
loop_
_atom_site_label
_atom_site_type_symbol
_atom_site_fract_x
_atom_site_fract_y
_atom_site_fract_z
O1 O 0.26350(6) 0.88494(14) 0.12891(7)
H1 H 0.24510 0.84310 0.07240
O2 O 0.31734(5) 0.65663(14) 0.07502(7)
O3 O 0.45786(5) 0.77742(14) 0.31765(8)
N1 N 0.30728(6) 0.77572(14) 0.20054(8)
C1 C 0.31973(7) 0.68471(17) 0.36362(10)
H2 H 0.31650 0.57920 0.34220
C2 C 0.32723(8) 0.7194(2) 0.45915(11)
H3 H 0.32980 0.63690 0.50260
C3 C 0.33084(8) 0.8751(2) 0.49009(11)
H4 H 0.33580 0.89770 0.55430
C4 C 0.32725(7) 0.9970(2) 0.42680(11)
H5 H 0.32940 1.10230 0.44800
C5 C 0.32045(7) 0.96475(17) 0.33104(11)
H6 H 0.31810 1.04780 0.28810
C6 C 0.31715(6) 0.80803(16) 0.30051(9)
C7 C 0.33543(6) 0.66695(16) 0.16711(9)
C8 C 0.38821(6) 0.55763(17) 0.24190(9)
C9 C 0.37689(7) 0.39490(19) 0.23187(11)
H7 H 0.33520 0.35590 0.18260
C10 C 0.42684(9) 0.2898(2) 0.29427(14)
H8 H 0.41910 0.18020 0.28770
C11 C 0.48836(9) 0.3493(2) 0.36647(13)
H9 H 0.52210 0.27860 0.40860
C12 C 0.50103(7) 0.5099(2) 0.37769(11)
H10 H 0.54300 0.54750 0.42680
C13 C 0.45093(7) 0.61640(19) 0.31543(9)
C14 C 0.52019(9) 0.8451(2) 0.39225(15)
H11 H 0.51830 0.95920 0.38500
H12 H 0.55680 0.80430 0.38280
H13 H 0.52750 0.81740 0.45920
#END
