
#######################################################################
#
#                 Cambridge Crystallographic Data Centre
#                                CCDC
#
#######################################################################
#
# If this CIF has been generated from an entry in the Cambridge
# Structural Database, then it will include bibliographic, chemical,
# crystal, experimental, refinement or atomic coordinate data resulting
# from the CCDC's data processing and validation procedures.
#
#######################################################################

data_CSD_CIF_OJUKOT
_audit_creation_date 2003-12-12
_audit_creation_method CSD-ConQuest-V1
_database_code_CSD OJUKOT
_database_code_depnum_ccdc_archive 'CCDC 207843'
_chemical_formula_sum 'C25 H24 N4 O9'
_chemical_formula_moiety
;
C25 H24 N4 O9
;
_journal_coden_Cambridge 692
_journal_volume 2003
_journal_year 2003
_journal_page_first 1403
_journal_name_full 'Synthesis '
loop_
_publ_author_name
"Cong-Ying Zhou"
"Philip Wai Hong Chan"
"Wing-Yiu Yu"
"Chi-Ming Che"
_chemical_name_systematic
;
cis-4-[(2,4-dinitrophenyl)hydrazono]-2-ethyl-1-phenyl-8-oxabicyclo[3.2.1]oct-6
-ene-6,7-dicarboxylic acid dimethyl ester
;
_chemical_melting_point 503.15
_cell_volume   1245.853
_exptl_crystal_colour 'yellow'
_exptl_crystal_density_diffrn 1.398
_exptl_special_details
;
Melting point range 503.15-505.15K

;
_exptl_crystal_description 'prism'
_diffrn_ambient_temperature 253
#These two values have been output from a single CSD field.
_refine_ls_R_factor_gt 0.0432
_refine_ls_wR_factor_gt 0.0432
_symmetry_cell_setting triclinic
_symmetry_space_group_name_H-M 'P -1'
_symmetry_Int_Tables_number 2
loop_
_symmetry_equiv_pos_site_id
_symmetry_equiv_pos_as_xyz
1 x,y,z
2 -x,-y,-z
_cell_length_a 10.353(2)
_cell_length_b 10.970(2)
_cell_length_c 12.398(3)
_cell_angle_alpha 82.56(3)
_cell_angle_beta 71.49(3)
_cell_angle_gamma 68.94(3)
_cell_formula_units_Z 2
loop_
_atom_type_symbol
_atom_type_radius_bond
C 0.68
H 0.23
N 0.68
O 0.68
loop_
_atom_site_label
_atom_site_type_symbol
_atom_site_fract_x
_atom_site_fract_y
_atom_site_fract_z
O1 O 0.0348(3) 0.2024(2) 0.1359(2)
O2 O -0.4022(4) 0.4055(3) 0.3398(2)
O3 O -0.3365(3) 0.2376(3) 0.4577(3)
O4 O -0.4096(4) 0.1415(3) 0.2469(3)
O5 O -0.2275(3) -0.0110(3) 0.1318(2)
O6 O 0.2403(4) -0.3877(3) 0.3644(2)
O7 O 0.2980(4) -0.5970(3) 0.3546(3)
O8 O 0.4876(4) -0.8087(3) -0.0008(3)
O9 O 0.4622(4) -0.6979(3) -0.1535(3)
N1 N 0.1232(4) -0.1275(3) 0.1357(3)
N2 N 0.1868(4) -0.2392(3) 0.1927(4)
N3 N 0.2784(4) -0.4883(4) 0.3096(3)
N4 N 0.4469(4) -0.7068(4) -0.0514(4)
C1 C -0.0379(5) 0.2460(4) 0.2530(4)
C2 C -0.1852(5) 0.2300(4) 0.2726(3)
C3 C -0.1710(5) 0.1443(4) 0.1998(4)
C4 C -0.0122(5) 0.0961(3) 0.1294(4)
H1 H 0.00010 0.07740 0.05090
C5 C 0.0665(5) -0.0205(4) 0.1896(4)
C6 C 0.0560(5) 0.0039(3) 0.3097(3)
H2 H 0.14000 -0.05800 0.32910
H3 H -0.02910 -0.01210 0.36130
C7 C 0.0470(5) 0.1451(4) 0.3278(3)
H4 H -0.00670 0.16690 0.40760
C8 C -0.0515(5) 0.3873(4) 0.2595(4)
C9 C -0.0845(5) 0.4436(4) 0.3620(4)
H5 H -0.09080 0.39220 0.42800
C10 C -0.1084(5) 0.5747(4) 0.3690(4)
H6 H -0.12940 0.61050 0.43920
C11 C -0.1014(5) 0.6529(4) 0.2728(4)
H7 H -0.11910 0.74170 0.27730
C12 C -0.0680(5) 0.5977(4) 0.1705(4)
H8 H -0.06200 0.64980 0.10490
C13 C -0.0429(5) 0.4664(4) 0.1621(4)
H9 H -0.02040 0.43090 0.09150
C14 C -0.3209(5) 0.3019(4) 0.3584(4)
C15 C -0.4708(5) 0.2959(4) 0.5470(4)
H10 H -0.47590 0.38060 0.56440
H11 H -0.47270 0.24100 0.61400
H12 H -0.55190 0.30440 0.52140
C16 C -0.2841(6) 0.0939(4) 0.1978(4)
C17 C -0.3284(5) -0.0683(4) 0.1196(4)
H13 H -0.36720 -0.10690 0.19090
H14 H -0.27890 -0.13430 0.06260
H15 H -0.40580 -0.00160 0.09720
C18 C 0.1972(5) 0.1530(4) 0.3065(4)
H16 H 0.19100 0.24390 0.29490
H17 H 0.26100 0.10720 0.23710
C19 C 0.2631(6) 0.0950(4) 0.4035(5)
H18 H 0.20060 0.13990 0.47250
H19 H 0.35620 0.10470 0.38590
H20 H 0.27390 0.00400 0.41320
C20 C 0.2470(4) -0.3541(4) 0.1356(4)
C21 C 0.2960(5) -0.4771(4) 0.1881(4)
C22 C 0.3596(4) -0.5917(4) 0.1283(4)
H21 H 0.39260 -0.67140 0.16460
C23 C 0.3732(5) -0.5858(4) 0.0144(4)
C24 C 0.3248(4) -0.4689(4) -0.0414(4)
H22 H 0.33450 -0.46710 -0.11870
C25 C 0.2618(5) -0.3550(4) 0.0190(4)
H23 H 0.22810 -0.27630 -0.01850
H24 H 0.178(5) -0.237(4) 0.272(4)
#END
