
#######################################################################
#
#                 Cambridge Crystallographic Data Centre
#                                CCDC
#
#######################################################################
#
# If this CIF has been generated from an entry in the Cambridge
# Structural Database, then it will include bibliographic, chemical,
# crystal, experimental, refinement or atomic coordinate data resulting
# from the CCDC's data processing and validation procedures.
#
#######################################################################

data_CSD_CIF_OKEBUC
_audit_creation_date 2011-04-26
_audit_creation_method CSD-ConQuest-V1
_database_code_CSD OKEBUC
_database_code_depnum_ccdc_archive 'CCDC 812291'
_chemical_formula_sum 'C27 H21 N1 O4'
_chemical_formula_moiety
;
C27 H21 N1 O4
;
_journal_coden_Cambridge 24
_journal_volume 52
_journal_year 2011
_journal_page_first 258
_journal_name_full 'Tetrahedron Lett. '
loop_
_publ_author_name
"N.Ayyagari"
"D.Jose"
"S.M.Mobin"
"I.N.N.Namboothiri"
_chemical_name_systematic
;
1-(5-Nitro-4-phenyl-2-(2-phenylvinyl)-4,5-dihydrofuran-3-yl)-3-phenylprop-2-en
-1-one
;
_cell_volume   1053.709
_exptl_crystal_colour 'yellow'
_exptl_crystal_density_diffrn 1.335
_exptl_crystal_description 'block'
_diffrn_ambient_temperature 150
#These two values have been output from a single CSD field.
_refine_ls_R_factor_gt 0.0432
_refine_ls_wR_factor_gt 0.0432
_symmetry_cell_setting triclinic
_symmetry_space_group_name_H-M 'P -1'
_symmetry_Int_Tables_number 2
loop_
_symmetry_equiv_pos_site_id
_symmetry_equiv_pos_as_xyz
1 x,y,z
2 -x,-y,-z
_cell_length_a 9.2799(6)
_cell_length_b 9.5379(7)
_cell_length_c 12.2379(5)
_cell_angle_alpha 88.009(5)
_cell_angle_beta 79.695(4)
_cell_angle_gamma 81.405(6)
_cell_formula_units_Z 2
loop_
_atom_type_symbol
_atom_type_radius_bond
C 0.68
H 0.23
N 0.68
O 0.68
loop_
_atom_site_label
_atom_site_type_symbol
_atom_site_fract_x
_atom_site_fract_y
_atom_site_fract_z
O1 O 0.07164(11) 0.08399(12) 1.10047(9)
O2 O 0.52681(12) 0.14541(12) 1.05850(9)
O3 O -0.09214(16) 0.30992(16) 1.19199(10)
O4 O -0.14219(12) 0.39626(13) 1.03562(10)
N1 N -0.07857(14) 0.30808(15) 1.09187(11)
C1 C 0.02595(16) 0.18770(16) 1.02625(13)
H1 H -0.02630 0.14620 0.97330
C2 C 0.16358(16) 0.24574(17) 0.96211(12)
H2 H 0.14810 0.35160 0.96590
C3 C 0.27732(16) 0.18421(16) 1.03235(12)
C4 C 0.21824(16) 0.09413(17) 1.10846(13)
C5 C 0.20031(15) 0.19939(18) 0.84206(13)
C6 C 0.18540(16) 0.29804(19) 0.75725(13)
H3 H 0.15460 0.39540 0.77470
C7 C 0.21502(18) 0.2559(2) 0.64753(14)
H4 H 0.20440 0.32430 0.59020
C8 C 0.26006(18) 0.1143(2) 0.62103(14)
H5 H 0.28050 0.08540 0.54570
C9 C 0.27516(18) 0.0152(2) 0.70507(15)
H6 H 0.30520 -0.08210 0.68720
C10 C 0.24682(17) 0.05707(18) 0.81504(14)
H7 H 0.25910 -0.01140 0.87220
C11 C 0.43134(16) 0.21390(17) 1.01300(13)
C12 C 0.46441(17) 0.33123(17) 0.93464(13)
H8 H 0.38510 0.39500 0.91340
C13 C 0.60281(17) 0.34911(17) 0.89342(13)
H9 H 0.67820 0.28420 0.91860
C14 C 0.65248(17) 0.45684(17) 0.81389(13)
C15 C 0.55730(17) 0.57416(18) 0.78435(13)
H10 H 0.45530 0.58620 0.81680
C16 C 0.61067(19) 0.67277(19) 0.70825(14)
H11 H 0.54530 0.75260 0.68910
C17 C 0.75831(18) 0.65600(19) 0.65991(14)
H12 H 0.79450 0.72430 0.60790
C18 C 0.85323(18) 0.5399(2) 0.68717(14)
H13 H 0.95440 0.52700 0.65270
C19 C 0.80114(17) 0.44226(19) 0.76462(14)
H14 H 0.86780 0.36400 0.78460
C20 C 0.27492(17) 0.00884(17) 1.19511(13)
H15 H 0.37850 -0.00550 1.19500
C21 C 0.18563(17) -0.05091(18) 1.27585(13)
H16 H 0.08290 -0.03400 1.27280
C22 C 0.22865(17) -0.13908(17) 1.36786(13)
C23 C 0.37489(18) -0.19939(19) 1.37179(14)
H17 H 0.45260 -0.18050 1.31380
C24 C 0.40644(19) -0.2862(2) 1.45966(14)
H18 H 0.50570 -0.32790 1.46100
C25 C 0.29502(19) -0.31333(19) 1.54587(14)
H19 H 0.31770 -0.37350 1.60580
C26 C 0.15093(18) -0.2524(2) 1.54411(14)
H20 H 0.07450 -0.26870 1.60390
C27 C 0.11774(18) -0.16773(19) 1.45540(14)
H21 H 0.01780 -0.12840 1.45390
#END
