
#######################################################################
#
#                 Cambridge Crystallographic Data Centre
#                                CCDC
#
#######################################################################
#
# If this CIF has been generated from an entry in the Cambridge
# Structural Database, then it will include bibliographic, chemical,
# crystal, experimental, refinement or atomic coordinate data resulting
# from the CCDC's data processing and validation procedures.
#
#######################################################################

data_CSD_CIF_OKECAI
_audit_creation_date 2003-12-12
_audit_creation_method CSD-ConQuest-V1
_database_code_CSD OKECAI
_database_code_depnum_ccdc_archive 'CCDC 225832'
_chemical_formula_sum 'C21 H19 N1 O5'
_chemical_formula_moiety
;
C21 H19 N1 O5
;
_journal_coden_Cambridge 4
_journal_volume 125
_journal_year 2003
_journal_page_first 8974
_journal_name_full 'J.Am.Chem.Soc. '
loop_
_publ_author_name
"P.A.Evans"
"D.K.Leahy"
_chemical_name_systematic
;
(6-Benzoylcyclohex-2-enylmethyl) 4-nitrobenzoate
;
_cell_volume   1727.080
_exptl_crystal_colour 'colorless'
_exptl_crystal_density_diffrn 1.405
_exptl_crystal_description 'needle'
_diffrn_ambient_temperature 113
#These two values have been output from a single CSD field.
_refine_ls_R_factor_gt 0.0551
_refine_ls_wR_factor_gt 0.0551
_symmetry_cell_setting monoclinic
_symmetry_space_group_name_H-M 'P 21/c'
_symmetry_Int_Tables_number 14
loop_
_symmetry_equiv_pos_site_id
_symmetry_equiv_pos_as_xyz
1 x,y,z
2 -x,1/2+y,1/2-z
3 -x,-y,-z
4 x,-1/2-y,-1/2+z
_cell_length_a 5.769(17)
_cell_length_b 7.23(2)
_cell_length_c 41.48(12)
_cell_angle_alpha 90
_cell_angle_beta 93.4(2)
_cell_angle_gamma 90
_cell_formula_units_Z 4
loop_
_atom_type_symbol
_atom_type_radius_bond
C 0.68
H 0.23
N 0.68
O 0.68
loop_
_atom_site_label
_atom_site_type_symbol
_atom_site_fract_x
_atom_site_fract_y
_atom_site_fract_z
C1 C 0.7099(5) 0.3554(4) 0.10237(7)
C2 C 0.7568(6) 0.3356(4) 0.06991(7)
C3 C 0.5944(6) 0.3866(4) 0.04570(8)
C4 C 0.3832(5) 0.4594(4) 0.05348(7)
C5 C 0.3346(5) 0.4776(4) 0.08568(7)
C6 C 0.4957(5) 0.4233(4) 0.11045(7)
C7 C 0.4203(5) 0.4293(4) 0.14469(7)
O1 O 0.2160(4) 0.4519(3) 0.14926(5)
C8 C 0.5971(5) 0.4132(4) 0.17329(7)
C9 C 0.6231(6) 0.6059(4) 0.18878(8)
C10 C 0.8104(6) 0.6062(5) 0.21622(8)
C11 C 0.7837(6) 0.4444(4) 0.23850(8)
C12 C 0.6512(5) 0.2997(4) 0.23082(7)
C13 C 0.5182(6) 0.2733(4) 0.19844(7)
C14 C 0.5562(6) 0.0762(4) 0.18774(7)
O2 O 0.4535(3) 0.0391(3) 0.15512(4)
C15 C 0.2318(5) -0.0182(4) 0.15244(7)
O3 O 0.1146(4) -0.0407(3) 0.17543(5)
C16 C 0.1477(5) -0.0557(4) 0.11817(7)
C17 C 0.2812(5) -0.0144(4) 0.09203(7)
C18 C 0.2001(5) -0.0558(4) 0.06080(7)
C19 C -0.0191(5) -0.1332(4) 0.05594(7)
C20 C -0.1574(5) -0.1736(4) 0.08143(7)
C21 C -0.0709(5) -0.1331(4) 0.11256(7)
N1 N -0.1109(5) -0.1751(3) 0.02276(6)
O4 O 0.0307(4) -0.2080(3) 0.00233(5)
O5 O -0.3214(4) -0.1769(3) 0.01732(5)
H1 H 0.819(5) 0.330(4) 0.1190(7)
H2 H 0.901(5) 0.288(4) 0.0653(7)
H3 H 0.620(5) 0.364(5) 0.0255(8)
H4 H 0.276(5) 0.497(4) 0.0357(7)
H5 H 0.191(5) 0.540(4) 0.0908(7)
H6 H 0.743(4) 0.365(4) 0.1673(6)
H7 H 0.467(6) 0.644(4) 0.1955(7)
H8 H 0.666(6) 0.682(5) 0.1714(9)
H9 H 0.965(6) 0.607(4) 0.2090(7)
H10 H 0.794(6) 0.732(5) 0.2283(9)
H11 H 0.868(5) 0.448(5) 0.2593(8)
H12 H 0.640(5) 0.197(5) 0.2475(8)
H13 H 0.353(5) 0.290(4) 0.2012(7)
H14 H 0.722(5) 0.054(4) 0.1866(6)
H15 H 0.496(5) -0.017(4) 0.2030(7)
H16 H 0.429(5) 0.038(4) 0.0957(6)
H17 H 0.292(5) -0.035(4) 0.0436(7)
H18 H -0.309(5) -0.240(4) 0.0773(6)
H19 H -0.167(5) -0.165(5) 0.1319(8)
#END
