
#######################################################################
#
#                 Cambridge Crystallographic Data Centre
#                                CCDC
#
#######################################################################
#
# If this CIF has been generated from an entry in the Cambridge
# Structural Database, then it will include bibliographic, chemical,
# crystal, experimental, refinement or atomic coordinate data resulting
# from the CCDC's data processing and validation procedures.
#
#######################################################################

data_CSD_CIF_OMEKIB
_audit_creation_date 2011-05-17
_audit_creation_method CSD-ConQuest-V1
_database_code_CSD OMEKIB
_database_code_depnum_ccdc_archive 'CCDC 755750'
_chemical_formula_sum 'C12 H14 N4 O2'
_chemical_formula_moiety
;
C12 H14 N4 O2
;
_journal_coden_Cambridge 917
_journal_volume 7
_journal_year 2011
_journal_page_first 46
_journal_name_full 'Beilstein J.Org.Chem. '
loop_
_publ_author_name
"Zhipei Yang"
"Kai Zhang"
"Fangbin Gong"
"Shayu Li"
"Jun Chen"
"Jin Shi Ma"
"L.N.Sobenina"
"A.I.Mihaleva"
"Guoqiang Yang"
"B.A.Trofimov"
_chemical_name_systematic
;
3-Amino-5-(4,5,6,7-tetrahydro-1H-indol-2-yl)-1,2-oxazole-4-carboxamide
;
_cell_volume   1106.102
_exptl_crystal_density_diffrn 1.479
_diffrn_ambient_temperature 113
#These two values have been output from a single CSD field.
_refine_ls_R_factor_gt 0.0447
_refine_ls_wR_factor_gt 0.0447
_symmetry_cell_setting monoclinic
_symmetry_space_group_name_H-M 'P 21/c'
_symmetry_Int_Tables_number 14
loop_
_symmetry_equiv_pos_site_id
_symmetry_equiv_pos_as_xyz
1 x,y,z
2 -x,1/2+y,1/2-z
3 -x,-y,-z
4 x,-1/2-y,-1/2+z
_cell_length_a 13.341(3)
_cell_length_b 6.5946(13)
_cell_length_c 12.590(3)
_cell_angle_alpha 90
_cell_angle_beta 93.03(3)
_cell_angle_gamma 90
_cell_formula_units_Z 4
loop_
_atom_type_symbol
_atom_type_radius_bond
C 0.68
H 0.23
N 0.68
O 0.68
loop_
_atom_site_label
_atom_site_type_symbol
_atom_site_fract_x
_atom_site_fract_y
_atom_site_fract_z
O1 O 0.15721(8) 0.18577(16) 0.66390(8)
O2 O 0.16058(10) -0.03145(18) 0.34087(8)
N1 N 0.25497(10) 0.31391(19) 0.40812(10)
H1 H 0.2323(14) 0.216(3) 0.3631(15)
N2 N 0.10333(10) 0.0178(2) 0.7018(1)
N3 N 0.04115(12) -0.2921(2) 0.63147(11)
H2 H -0.0076(17) -0.279(3) 0.6699(17)
H3 H 0.0771(16) -0.377(3) 0.6706(17)
N4 N 0.08868(11) -0.3045(2) 0.41270(11)
H4 H 0.0939(16) -0.370(3) 0.3545(17)
H5 H 0.0698(16) -0.360(3) 0.4720(17)
C1 C 0.31635(11) 0.4733(2) 0.39011(11)
C2 C 0.35357(12) 0.5324(2) 0.28454(12)
H6 H 0.29960 0.60170 0.24150
H7 H 0.37390 0.41000 0.24550
C3 C 0.44365(12) 0.6747(2) 0.30287(12)
H8 H 0.46060 0.73620 0.23440
H9 H 0.50250 0.59580 0.33060
C4 C 0.42068(13) 0.8429(2) 0.38210(13)
H10 H 0.47730 0.93990 0.38700
H11 H 0.36000 0.91760 0.35580
C5 C 0.40369(12) 0.7576(3) 0.49290(12)
H12 H 0.46900 0.71950 0.52830
H13 H 0.37290 0.86310 0.53660
C6 C 0.33649(11) 0.5751(2) 0.48563(11)
C7 C 0.28467(12) 0.4724(2) 0.56424(12)
H14 H 0.28400 0.50750 0.63740
C8 C 0.23462(11) 0.3098(2) 0.51462(11)
C9 C 0.17516(11) 0.1553(2) 0.55991(11)
C10 C 0.13301(11) -0.0270(2) 0.52671(11)
C11 C 0.09072(11) -0.1050(2) 0.62078(11)
C12 C 0.12953(11) -0.1209(2) 0.41992(11)
#END
