
#######################################################################
#
#                 Cambridge Crystallographic Data Centre
#                                CCDC
#
#######################################################################
#
# If this CIF has been generated from an entry in the Cambridge
# Structural Database, then it will include bibliographic, chemical,
# crystal, experimental, refinement or atomic coordinate data resulting
# from the CCDC's data processing and validation procedures.
#
#######################################################################

data_CSD_CIF_OPOFIK
_audit_creation_date 2016-06-16
_audit_creation_method CSD-ConQuest-V1
_database_code_CSD OPOFIK
_database_code_depnum_ccdc_archive 'CCDC 1430300'
_chemical_formula_sum 'C29 H28 N4 O1'
_chemical_formula_moiety
;
C29 H28 N4 O1
;
_journal_coden_Cambridge 24
_journal_volume 57
_journal_year 2016
_journal_page_first 3194
_journal_name_full 'Tetrahedron Lett. '
loop_
_publ_author_name
"A.K.Franzen"
"W.J.Marshall"
"Kyung-Ho Park"
_chemical_name_systematic
;
4-(2,6-di-isopropylphenyl)-3-phenyl-5-(5-phenyl-1,2-oxazol-3-yl)-4H-1,2,4-tria
zole
;
_cell_volume   2471.162
_exptl_crystal_colour 'colorless'
_exptl_crystal_density_diffrn 1.206
_exptl_crystal_description 'irregular block'
_diffrn_ambient_temperature 173
#These two values have been output from a single CSD field.
_refine_ls_R_factor_gt 0.0485
_refine_ls_wR_factor_gt 0.0485
_symmetry_cell_setting monoclinic
_symmetry_space_group_name_H-M 'P 21/c'
_symmetry_Int_Tables_number 14
loop_
_symmetry_equiv_pos_site_id
_symmetry_equiv_pos_as_xyz
1 x,y,z
2 -x,1/2+y,1/2-z
3 -x,-y,-z
4 x,-1/2-y,-1/2+z
_cell_length_a 16.2719(10)
_cell_length_b 10.2676(7)
_cell_length_c 15.1924(10)
_cell_angle_alpha 90
_cell_angle_beta 103.202(1)
_cell_angle_gamma 90
_cell_formula_units_Z 4
loop_
_atom_type_symbol
_atom_type_radius_bond
C 0.68
H 0.23
N 0.68
O 0.68
loop_
_atom_site_label
_atom_site_type_symbol
_atom_site_fract_x
_atom_site_fract_y
_atom_site_fract_z
C1 C 0.28589(9) 0.78446(14) 0.42884(10)
C2 C 0.35447(9) 0.96527(15) 0.41862(10)
C3 C 0.37946(10) 1.10110(15) 0.41154(10)
C4 C 0.45113(9) 1.27427(15) 0.38734(10)
C5 C 0.45525(10) 1.14256(16) 0.38887(11)
H1 H 0.49940 1.08940 0.37730
C6 C 0.22293(10) 0.68455(14) 0.43892(10)
C7 C 0.13724(10) 0.70851(15) 0.43366(12)
H2 H 0.11640 0.79520 0.42600
C8 C 0.08228(11) 0.60666(17) 0.43946(13)
H3 H 0.02420 0.62430 0.43550
C9 C 0.11158(12) 0.48004(17) 0.45098(13)
H4 H 0.07380 0.41080 0.45470
C10 C 0.19616(12) 0.45484(17) 0.45705(14)
H5 H 0.21660 0.36800 0.46520
C11 C 0.25132(12) 0.55600(16) 0.45124(13)
H6 H 0.30930 0.53750 0.45570
C12 C 0.50742(9) 1.37706(16) 0.36895(10)
C13 C 0.57853(11) 1.34308(18) 0.33641(12)
H7 H 0.58880 1.25430 0.32490
C14 C 0.63402(12) 1.4385(2) 0.32091(14)
H8 H 0.68260 1.41460 0.29990
C15 C 0.61872(13) 1.5681(2) 0.33597(14)
H9 H 0.65690 1.63310 0.32530
C16 C 0.54804(12) 1.60333(18) 0.36645(12)
H10 H 0.53730 1.69260 0.37600
C17 C 0.49260(11) 1.50817(17) 0.38320(12)
H11 H 0.44430 1.53280 0.40450
C18 C 0.20712(9) 0.99384(14) 0.44865(10)
C19 C 0.19884(10) 1.00660(14) 0.53820(11)
C20 C 0.12733(12) 1.07312(16) 0.55124(13)
H12 H 0.11960 1.08420 0.61090
C21 C 0.06786(12) 1.12304(17) 0.47928(14)
H13 H 0.01950 1.16640 0.48990
C22 C 0.07841(11) 1.11024(17) 0.39224(13)
H14 H 0.03730 1.14590 0.34350
C23 C 0.14874(10) 1.04554(15) 0.37424(11)
C24 C 0.26473(13) 0.95265(18) 0.61753(12)
H15 H 0.29720 0.88440 0.59300
C25 C 0.22568(19) 0.8872(3) 0.68835(17)
H16 H 0.18910 0.81560 0.66030
H17 H 0.19220 0.95110 0.71310
H18 H 0.27060 0.85300 0.73720
C26 C 0.32743(16) 1.0590(3) 0.65954(17)
H19 H 0.37140 1.02130 0.70790
H20 H 0.29770 1.12760 0.68460
H21 H 0.35340 1.09620 0.61300
C27 C 0.15884(12) 1.0304(2) 0.27769(12)
H22 H 0.21690 0.99630 0.28050
C28 C 0.09571(18) 0.9312(2) 0.22538(15)
H23 H 0.10490 0.84650 0.25570
H24 H 0.10380 0.92290 0.16360
H25 H 0.03810 0.96090 0.22330
C29 C 0.15043(15) 1.1614(3) 0.22748(15)
H26 H 0.19080 1.22380 0.26210
H27 H 0.09290 1.19480 0.22070
H28 H 0.16220 1.14900 0.16760
N1 N 0.27818(7) 0.91872(11) 0.43196(8)
N2 N 0.36131(8) 0.75392(13) 0.41472(9)
N3 N 0.40493(8) 0.86823(13) 0.40821(9)
N4 N 0.33126(9) 1.19963(14) 0.42343(12)
O1 O 0.37720(8) 1.31150(11) 0.40794(10)
#END
