
#######################################################################
#
#                 Cambridge Crystallographic Data Centre
#                                CCDC
#
#######################################################################
#
# If this CIF has been generated from an entry in the Cambridge
# Structural Database, then it will include bibliographic, chemical,
# crystal, experimental, refinement or atomic coordinate data resulting
# from the CCDC's data processing and validation procedures.
#
#######################################################################

data_CSD_CIF_OQUPUM
_audit_creation_date 2011-06-30
_audit_creation_method CSD-ConQuest-V1
_database_code_CSD OQUPUM
_database_code_depnum_ccdc_archive 'CCDC 829711'
_chemical_formula_sum 'C20 H14 N4 O4'
_chemical_formula_moiety
;
C20 H14 N4 O4
;
_journal_coeditor_code "IUCr BM3102"
_journal_coden_Cambridge 591
_journal_volume 67
_journal_year 2011
_journal_page_first o171
_journal_name_full 'Acta Crystallogr.,Sect.C:Cryst.Struct.Commun. '
loop_
_publ_author_name
"A.Collas"
"M.Zeller"
"F.Blockhuys"
_chemical_name_systematic
;
(E,E)-N,N'-bis(4-nitrobenzylidene)benzene-1,4-diamine
;
_chemical_name_common
;
N,N'-bis(4-nitrobenzylidene)benzene-1,4-diamine
;
_cell_volume    427.197
_exptl_crystal_colour 'orange'
_exptl_crystal_density_diffrn 1.455
_exptl_special_details
;
polymorph 1

;
_exptl_crystal_description 'plate'
_diffrn_ambient_temperature 173
#These two values have been output from a single CSD field.
_refine_ls_R_factor_gt 0.0418
_refine_ls_wR_factor_gt 0.0418
_symmetry_cell_setting triclinic
_symmetry_space_group_name_H-M 'P -1'
_symmetry_Int_Tables_number 2
loop_
_symmetry_equiv_pos_site_id
_symmetry_equiv_pos_as_xyz
1 x,y,z
2 -x,-y,-z
_cell_length_a 6.9357(7)
_cell_length_b 7.3036(7)
_cell_length_c 8.8768(8)
_cell_angle_alpha 73.295(1)
_cell_angle_beta 82.707(1)
_cell_angle_gamma 88.071(1)
_cell_formula_units_Z 1
loop_
_atom_type_symbol
_atom_type_radius_bond
C 0.68
H 0.23
N 0.68
O 0.68
loop_
_atom_site_label
_atom_site_type_symbol
_atom_site_fract_x
_atom_site_fract_y
_atom_site_fract_z
C1 C 0.1930(2) 0.5579(2) 0.66288(18)
C2 C 0.1905(2) 0.6598(2) 0.50347(18)
H1 H 0.15180 0.78710 0.47630
C3 C 0.2451(2) 0.5719(2) 0.38690(18)
H2 H 0.24480 0.63880 0.28060
C4 C 0.3006(2) 0.3814(2) 0.43101(18)
C5 C 0.3016(2) 0.2756(2) 0.58687(19)
H3 H 0.33690 0.14730 0.61320
C6 C 0.2484(2) 0.3660(2) 0.70286(19)
H4 H 0.24950 0.29810 0.80890
C7 C 0.1418(2) 0.6508(2) 0.78899(18)
H5 H 0.16840 0.58850 0.89130
C8 C 0.0322(2) 0.9033(2) 0.88437(17)
C9 C -0.1413(2) 1.0007(2) 0.90212(18)
H6 H -0.23560 1.00230 0.83600
C10 C 0.1744(2) 0.9046(2) 0.98217(18)
H7 H 0.29160 0.84180 0.96970
N1 N 0.36618(18) 0.29163(19) 0.30492(16)
N2 N 0.06211(18) 0.81443(18) 0.76120(15)
O1 O 0.41396(17) 0.12242(16) 0.34468(15)
O2 O 0.37407(18) 0.38908(17) 0.16651(13)
C1A C -0.1930(2) 1.4421(2) 1.33712(18)
C2A C -0.1905(2) 1.3402(2) 1.49653(18)
H1A H -0.15180 1.21290 1.52370
C3A C -0.2451(2) 1.4281(2) 1.61310(18)
H2A H -0.24480 1.36120 1.71940
C4A C -0.3006(2) 1.6186(2) 1.56899(18)
C5A C -0.3016(2) 1.7244(2) 1.41313(19)
H3A H -0.33690 1.85270 1.38680
C6A C -0.2484(2) 1.6340(2) 1.29714(19)
H4A H -0.24950 1.70190 1.19110
C7A C -0.1418(2) 1.3492(2) 1.21101(18)
H5A H -0.16840 1.41150 1.10870
C8A C -0.0322(2) 1.0967(2) 1.11563(17)
C9A C 0.1413(2) 0.9993(2) 1.09788(18)
H6A H 0.23560 0.99770 1.16400
C10A C -0.1744(2) 1.0954(2) 1.01783(18)
H7A H -0.29160 1.15820 1.03030
N1A N -0.36618(18) 1.70837(19) 1.69508(16)
N2A N -0.06211(18) 1.18557(18) 1.23880(15)
O1A O -0.41396(17) 1.87758(16) 1.65532(15)
O2A O -0.37407(18) 1.61092(17) 1.83349(13)
#END
