
#######################################################################
#
#                 Cambridge Crystallographic Data Centre
#                                CCDC
#
#######################################################################
#
# If this CIF has been generated from an entry in the Cambridge
# Structural Database, then it will include bibliographic, chemical,
# crystal, experimental, refinement or atomic coordinate data resulting
# from the CCDC's data processing and validation procedures.
#
#######################################################################

data_CSD_CIF_OSIGAZ01
_audit_creation_date 2013-01-14
_audit_creation_method CSD-ConQuest-V1
_database_code_CSD OSIGAZ01
_database_code_depnum_ccdc_archive 'CCDC 809544'
_chemical_formula_sum 'C11 H22 N3 O3'
_chemical_formula_moiety
;
C11 H22 N3 O3
;
_journal_coden_Cambridge 95
_journal_year 2011
_journal_page_first 2557
_journal_name_full 'Izv.Akad.Nauk SSSR,Ser.Khim.(Russ.)(Russ.Chem.Bull.) '
loop_
_publ_author_name
"E.V.Tret'yakov"
"S.E.Tolstikov"
"G.V.Romanenko"
"A.S.Bogomyakov"
"D.V.Stas'"
"A.G.Mar'yasov"
"N.P.Gritsan"
"V.I.Ovcharenko"
_chemical_name_systematic
;
2-(N-t-Butyl-N-hydroxylamino)-4,4,5,5-tetramethyl-4,5-dihydro-1H-imidazole-1-o
xyl-3-oxide radical
;
_chemical_melting_point 115
_cell_volume   1345.295
_exptl_crystal_colour 'blue-violet'
_exptl_crystal_density_diffrn 1.206
_exptl_special_details
;
Melting point range 115-8K
magnetic and EPR study

;
_exptl_crystal_description 'plate'
_exptl_crystal_preparation 'heptane/ethyl acetate'
_diffrn_ambient_temperature 240
#These two values have been output from a single CSD field.
_refine_ls_R_factor_gt 0.0465
_refine_ls_wR_factor_gt 0.0465
_symmetry_cell_setting orthorhombic
_symmetry_space_group_name_H-M 'P n a 21'
_symmetry_Int_Tables_number 33
loop_
_symmetry_equiv_pos_site_id
_symmetry_equiv_pos_as_xyz
1 x,y,z
2 -x,-y,1/2+z
3 1/2+x,1/2-y,z
4 1/2-x,1/2+y,1/2+z
_cell_length_a 11.9609(9)
_cell_length_b 9.4098(7)
_cell_length_c 11.9529(8)
_cell_angle_alpha 90
_cell_angle_beta 90
_cell_angle_gamma 90
_cell_formula_units_Z 4
loop_
_atom_type_symbol
_atom_type_radius_bond
C 0.68
H 0.23
N 0.68
O 0.68
loop_
_atom_site_label
_atom_site_type_symbol
_atom_site_fract_x
_atom_site_fract_y
_atom_site_fract_z
O1 O 0.06232(16) 0.0162(2) 0.10160(16)
H1 H 0.00870 0.00740 0.05940
N1 N 0.0236(2) 0.0329(3) 0.21314(19)
C1 C 0.0261(3) 0.1839(3) 0.2509(3)
N2 N -0.1570(2) -0.0685(3) 0.1628(2)
O2 O -0.17230(16) 0.0027(2) 0.07156(17)
C2 C -0.0694(2) -0.0506(3) 0.2312(2)
O3 O -0.00787(17) -0.1591(2) 0.39569(16)
N3 N -0.0791(2) -0.1415(2) 0.31735(19)
C3 C -0.2252(2) -0.1950(3) 0.1935(2)
C4 C -0.1919(3) -0.2116(3) 0.3179(2)
C5 C 0.1486(3) 0.2252(4) 0.2540(4)
H2 H 0.18790 0.16350 0.30450
H3 H 0.15550 0.32170 0.27910
H4 H 0.17990 0.21650 0.18040
C6 C -0.0375(3) 0.2815(3) 0.1720(3)
H5 H -0.11490 0.25450 0.17050
H6 H -0.00670 0.27390 0.09810
H7 H -0.03110 0.37790 0.19750
C7 C -0.0244(4) 0.1888(4) 0.3668(3)
H8 H 0.01720 0.12740 0.41570
H9 H -0.10070 0.15760 0.36360
H10 H -0.02150 0.28430 0.39480
C8 C -0.3487(2) -0.1652(3) 0.1717(3)
H11 H -0.36110 -0.15650 0.09270
H12 H -0.36990 -0.07830 0.20820
H13 H -0.39290 -0.24210 0.20060
C9 C -0.1847(3) -0.3163(3) 0.1182(3)
H14 H -0.20840 -0.29900 0.04270
H15 H -0.21590 -0.40450 0.14390
H16 H -0.10460 -0.32140 0.12090
C10 C -0.1814(3) -0.3653(3) 0.3583(3)
H17 H -0.16040 -0.36610 0.43580
H18 H -0.12530 -0.41340 0.31510
H19 H -0.25180 -0.41290 0.34930
C11 C -0.2636(2) -0.1265(3) 0.3997(3)
H20 H -0.23760 -0.14240 0.47460
H21 H -0.34010 -0.15630 0.39360
H22 H -0.25810 -0.02710 0.38220
#END
