
#######################################################################
#
#                 Cambridge Crystallographic Data Centre
#                                CCDC
#
#######################################################################
#
# If this CIF has been generated from an entry in the Cambridge
# Structural Database, then it will include bibliographic, chemical,
# crystal, experimental, refinement or atomic coordinate data resulting
# from the CCDC's data processing and validation procedures.
#
#######################################################################

data_CSD_CIF_OSIGII
_audit_creation_date 2016-08-18
_audit_creation_method CSD-ConQuest-V1
_database_code_CSD OSIGII
_database_code_depnum_ccdc_archive 'CCDC 1049549'
_chemical_formula_sum 'C16 H13 N1 O2'
_chemical_formula_moiety
;
C16 H13 N1 O2
;
_journal_coden_Cambridge 568
_journal_volume 91
_journal_year 2015
_journal_page_first 1324
_journal_name_full 'Photochem.Photobiol. '
loop_
_publ_author_name
"H.Agnihotri"
"M.Paramasivam"
"V.Palakollu"
"S.Kanvah"
_chemical_name_systematic
;
1-nitro-2-(4-phenylbuta-1,3-dien-1-yl)benzene
;
_cell_volume   1323.815
_exptl_crystal_density_diffrn 1.261
_diffrn_ambient_temperature 296
#These two values have been output from a single CSD field.
_refine_ls_R_factor_gt 0.0303
_refine_ls_wR_factor_gt 0.0303
_symmetry_cell_setting orthorhombic
_symmetry_space_group_name_H-M 'P c a 21'
_symmetry_Int_Tables_number 29
loop_
_symmetry_equiv_pos_site_id
_symmetry_equiv_pos_as_xyz
1 x,y,z
2 -x,-y,1/2+z
3 1/2+x,-y,z
4 1/2-x,y,1/2+z
_cell_length_a 24.7041(7)
_cell_length_b 6.5046(2)
_cell_length_c 8.2383(2)
_cell_angle_alpha 90
_cell_angle_beta 90
_cell_angle_gamma 90
_cell_formula_units_Z 4
loop_
_atom_type_symbol
_atom_type_radius_bond
C 0.68
H 0.23
N 0.68
O 0.68
loop_
_atom_site_label
_atom_site_type_symbol
_atom_site_fract_x
_atom_site_fract_y
_atom_site_fract_z
N1 N 0.73393(7) 0.5651(3) 0.4030(2)
O1 O 0.70481(7) 0.4827(3) 0.3034(3)
O2 O 0.78181(7) 0.5283(3) 0.4147(3)
C1 C 0.71060(7) 0.7261(3) 0.5078(2)
C2 C 0.65794(7) 0.7103(3) 0.5682(2)
C3 C 0.62266(7) 0.5318(3) 0.5417(3)
C4 C 0.45455(7) 0.1273(3) 0.6020(2)
C5 C 0.74401(9) 0.8917(3) 0.5393(3)
C6 C 0.53893(7) 0.3335(3) 0.5592(3)
C7 C 0.57150(8) 0.5122(3) 0.5870(3)
C8 C 0.48924(8) 0.3072(4) 0.6168(3)
C9 C 0.64098(9) 0.8764(3) 0.6631(3)
C10 C 0.46608(8) -0.0367(4) 0.5008(3)
C11 C 0.72517(10) 1.0532(4) 0.6296(3)
C12 C 0.38794(9) -0.2188(4) 0.5952(3)
C13 C 0.43324(10) -0.2081(4) 0.4980(3)
C14 C 0.40775(7) 0.1140(4) 0.6960(3)
C15 C 0.67345(10) 1.0446(4) 0.6915(3)
C16 C 0.37555(8) -0.0580(4) 0.6942(3)
H1 H 0.3663(10) -0.346(4) 0.589(4)
H2 H 0.4961(10) -0.033(4) 0.433(4)
H3 H 0.3446(10) -0.067(4) 0.762(3)
H4 H 0.3994(10) 0.233(4) 0.762(4)
H5 H 0.4406(11) -0.318(5) 0.424(4)
H6 H 0.6053(10) 0.868(4) 0.719(3)
H7 H 0.7477(12) 1.173(4) 0.650(4)
H8 H 0.7781(9) 0.898(4) 0.495(3)
H9 H 0.6608(9) 1.156(4) 0.753(3)
H10 H 0.5547(10) 0.625(4) 0.647(3)
H11 H 0.6394(12) 0.418(4) 0.483(4)
H12 H 0.5557(10) 0.230(4) 0.501(3)
H13 H 0.4752(10) 0.419(4) 0.689(4)
#END
