
#######################################################################
#
#                 Cambridge Crystallographic Data Centre
#                                CCDC
#
#######################################################################
#
# If this CIF has been generated from an entry in the Cambridge
# Structural Database, then it will include bibliographic, chemical,
# crystal, experimental, refinement or atomic coordinate data resulting
# from the CCDC's data processing and validation procedures.
#
#######################################################################

data_CSD_CIF_OXAPAG
_audit_creation_date 2016-10-17
_audit_creation_method CSD-ConQuest-V1
_database_code_CSD OXAPAG
_database_code_depnum_ccdc_archive 'CCDC 1510287'
_chemical_formula_sum 'C29 H24 N2 O2'
_chemical_formula_moiety
;
C29 H24 N2 O2
;
_journal_coden_Cambridge 1078
_journal_year 2016
_journal_name_full 'CSD Communication(Private Communication) '
loop_
_publ_author_name
"T.K.Ishida"
_chemical_name_systematic
;
6,6'-methylenebis(6-methylphenanthridin-5-oxyl radical)
;
_chemical_melting_point 455
_cell_volume   2084.312
_exptl_crystal_colour 'red'
_exptl_crystal_density_diffrn 1.378
_exptl_special_details
;
Magnetic properties

;
_exptl_crystal_description 'Block'
_exptl_crystal_preparation 'dichloromethane/heptane'
_diffrn_ambient_temperature 100
#These two values have been output from a single CSD field.
_refine_ls_R_factor_gt 0.0453
_refine_ls_wR_factor_gt 0.0453
_symmetry_cell_setting monoclinic
_symmetry_space_group_name_H-M 'P 21/c'
_symmetry_Int_Tables_number 14
loop_
_symmetry_equiv_pos_site_id
_symmetry_equiv_pos_as_xyz
1 x,y,z
2 -x,1/2+y,1/2-z
3 -x,-y,-z
4 x,-1/2-y,-1/2+z
_cell_length_a 14.933(2)
_cell_length_b 10.7145(18)
_cell_length_c 14.7526(19)
_cell_angle_alpha 90
_cell_angle_beta 117.990(6)
_cell_angle_gamma 90
_cell_formula_units_Z 4
loop_
_atom_type_symbol
_atom_type_radius_bond
C 0.68
H 0.23
N 0.68
O 0.68
loop_
_atom_site_label
_atom_site_type_symbol
_atom_site_fract_x
_atom_site_fract_y
_atom_site_fract_z
O1 O 0.43920(6) 0.33704(8) 0.14794(7)
O2 O 0.40586(6) 0.32548(8) 0.29140(6)
N1 N 0.37270(7) 0.25399(10) 0.09489(7)
N2 N 0.33855(7) 0.24003(10) 0.24907(8)
C1 C 0.28123(9) 0.29370(12) 0.01283(9)
C2 C 0.26269(10) 0.42221(13) -0.00118(10)
C3 C 0.17368(11) 0.46410(14) -0.08229(10)
C4 C 0.10273(11) 0.37908(14) -0.14752(11)
C5 C 0.12121(10) 0.25242(14) -0.13359(10)
C6 C 0.21131(9) 0.20560(12) -0.05321(9)
C7 C 0.41072(9) 0.12238(11) 0.11056(9)
C8 C 0.32941(9) 0.03211(11) 0.03955(9)
C9 C 0.35379(10) -0.09482(12) 0.04952(10)
C10 C 0.28561(10) -0.18231(14) -0.01563(10)
C11 C 0.19129(10) -0.14360(14) -0.09159(11)
C12 C 0.16706(10) -0.01902(14) -0.10232(10)
C13 C 0.23534(9) 0.07166(12) -0.03848(9)
C14 C 0.23576(9) 0.27417(12) 0.19847(9)
C15 C 0.21191(10) 0.40121(13) 0.19065(10)
C16 C 0.11186(10) 0.43767(14) 0.13647(10)
C17 C 0.03584(11) 0.34965(14) 0.08989(10)
C18 C 0.06006(10) 0.22397(14) 0.09999(9)
C19 C 0.16002(9) 0.18259(12) 0.15530(9)
C20 C 0.37701(9) 0.10872(11) 0.26970(9)
C21 C 0.29010(9) 0.01512(12) 0.22765(9)
C22 C 0.31496(10) -0.11118(12) 0.24812(10)
C23 C 0.24093(10) -0.20223(14) 0.21572(10)
C24 C 0.13955(10) -0.16849(13) 0.16124(10)
C25 C 0.11383(10) -0.04479(13) 0.14047(10)
C26 C 0.18782(9) 0.04969(12) 0.17326(9)
C27 C 0.45185(9) 0.09353(12) 0.22521(9)
C28 C 0.49997(10) 0.11942(13) 0.08517(11)
C29 C 0.43812(10) 0.09414(14) 0.38693(10)
H1 H 0.3161(10) 0.4805(13) 0.0486(10)
H2 H 0.1627(9) 0.5545(13) -0.0943(9)
H3 H 0.0405(10) 0.4099(12) -0.2057(10)
H4 H 0.0718(10) 0.1938(13) -0.1814(11)
H5 H 0.4211(11) -0.1230(12) 0.1040(11)
H6 H 0.3020(9) -0.2700(14) -0.0095(9)
H7 H 0.1415(10) -0.2073(13) -0.1385(10)
H8 H 0.1023(10) 0.0088(12) -0.1574(10)
H9 H 0.270(1) 0.4614(12) 0.2252(10)
H10 H 0.0956(10) 0.5248(14) 0.1302(10)
H11 H -0.0349(11) 0.3749(12) 0.0497(10)
H12 H 0.0043(10) 0.1651(12) 0.0685(10)
H13 H 0.3869(10) -0.1353(12) 0.2842(10)
H14 H 0.2596(10) -0.2894(13) 0.229(1)
H15 H 0.0858(11) -0.2327(13) 0.1361(10)
H16 H 0.0404(10) -0.0230(12) 0.1017(9)
H17 H 0.4815(8) 0.0093(12) 0.2410(8)
H18 H 0.5128(10) 0.1500(11) 0.2676(10)
H19 H 0.5517(10) 0.1845(12) 0.1247(10)
H20 H 0.5366(9) 0.0330(12) 0.1045(9)
H21 H 0.4747(9) 0.1401(12) 0.0102(11)
H22 H 0.391(1) 0.1023(12) 0.4184(10)
H23 H 0.4716(10) 0.0103(14) 0.4023(9)
H24 H 0.4921(10) 0.1617(12) 0.4165(10)
#END
