
#######################################################################
#
#                 Cambridge Crystallographic Data Centre
#                                CCDC
#
#######################################################################
#
# If this CIF has been generated from an entry in the Cambridge
# Structural Database, then it will include bibliographic, chemical,
# crystal, experimental, refinement or atomic coordinate data resulting
# from the CCDC's data processing and validation procedures.
#
#######################################################################

data_CSD_CIF_OYAXUI
_audit_creation_date 2011-10-18
_audit_creation_method CSD-ConQuest-V1
_database_code_CSD OYAXUI
_database_code_depnum_ccdc_archive 'CCDC 808598'
_chemical_formula_sum 'C18 H19 N1 O2'
_chemical_formula_moiety
;
C18 H19 N1 O2
;
_journal_coden_Cambridge 1220
_journal_volume 17
_journal_year 2011
_journal_page_first 9070
_journal_name_full 'Chem.-Eur.J. '
loop_
_publ_author_name
"Bei-Li Lu"
"Min Shi"
_chemical_name_systematic
;
2-((Methoxy(methyl)amino)methyl)-3-phenylindan-1-one
;
_cell_volume   1564.511
_exptl_crystal_colour 'colorless'
_exptl_crystal_density_diffrn 1.194
_exptl_crystal_description 'prismatic'
_diffrn_ambient_temperature 293
#These two values have been output from a single CSD field.
_refine_ls_R_factor_gt 0.0463
_refine_ls_wR_factor_gt 0.0463
_symmetry_cell_setting monoclinic
_symmetry_space_group_name_H-M 'P 21/c'
_symmetry_Int_Tables_number 14
loop_
_symmetry_equiv_pos_site_id
_symmetry_equiv_pos_as_xyz
1 x,y,z
2 -x,1/2+y,1/2-z
3 -x,-y,-z
4 x,-1/2-y,-1/2+z
_cell_length_a 15.8068(15)
_cell_length_b 10.7248(10)
_cell_length_c 9.6526(9)
_cell_angle_alpha 90
_cell_angle_beta 107.041(2)
_cell_angle_gamma 90
_cell_formula_units_Z 4
loop_
_atom_type_symbol
_atom_type_radius_bond
C 0.68
H 0.23
N 0.68
O 0.68
loop_
_atom_site_label
_atom_site_type_symbol
_atom_site_fract_x
_atom_site_fract_y
_atom_site_fract_z
N1 N 0.06860(8) 0.12341(12) 0.31647(15)
O1 O 0.23977(9) 0.4464(1) 0.39671(13)
O2 O 0.08407(8) 0.10966(10) 0.17677(11)
C1 C 0.26175(10) 0.34768(12) 0.45829(15)
C2 C 0.21254(9) 0.22457(12) 0.41964(14)
H1 H 0.22840 0.19000 0.33660
C3 C 0.25263(8) 0.13728(11) 0.54985(14)
H2 H 0.21200 0.13410 0.60940
C4 C 0.33588(8) 0.20511(12) 0.63461(14)
C5 C 0.34061(9) 0.32373(13) 0.58157(15)
C6 C 0.41233(11) 0.40164(15) 0.64362(19)
H3 H 0.41530 0.48130 0.60720
C7 C 0.47839(11) 0.35775(17) 0.7597(2)
H4 H 0.52730 0.40770 0.80190
C8 C 0.4729(1) 0.24029(17) 0.81432(18)
H5 H 0.51780 0.21280 0.89430
C9 C 0.40243(9) 0.16264(14) 0.75317(16)
H6 H 0.39960 0.08340 0.79070
C10 C 0.27006(8) 0.00505(11) 0.51031(14)
C11 C 0.32517(10) -0.01767(13) 0.42578(17)
H7 H 0.35380 0.04860 0.39650
C12 C 0.33854(13) -0.13748(16) 0.3838(2)
H8 H 0.37570 -0.15090 0.32630
C13 C 0.29777(15) -0.23599(15) 0.4259(2)
H9 H 0.30570 -0.31630 0.39540
C14 C 0.24546(14) -0.21591(16) 0.5128(2)
H10 H 0.21890 -0.28330 0.54410
C15 C 0.23101(11) -0.09593(14) 0.55580(18)
H11 H 0.19490 -0.08370 0.61540
C16 C 0.11292(9) 0.23955(14) 0.37383(17)
H12 H 0.09420 0.26570 0.45650
H13 H 0.09590 0.30400 0.30040
C17 C -0.02733(12) 0.1368(2) 0.2870(3)
H14 H -0.04780 0.20540 0.22190
H15 H -0.04090 0.15230 0.37620
H16 H -0.05610 0.06150 0.24380
C18 C 0.09992(12) -0.01690(16) 0.1535(2)
H17 H 0.14660 -0.04780 0.23390
H18 H 0.11690 -0.02480 0.06620
H19 H 0.04700 -0.06430 0.14440
#END
