
#######################################################################
#
#                 Cambridge Crystallographic Data Centre
#                                CCDC
#
#######################################################################
#
# If this CIF has been generated from an entry in the Cambridge
# Structural Database, then it will include bibliographic, chemical,
# crystal, experimental, refinement or atomic coordinate data resulting
# from the CCDC's data processing and validation procedures.
#
#######################################################################

data_CSD_CIF_PADQUJ01
_audit_creation_date 2017-08-08
_audit_creation_method CSD-ConQuest-V1
_database_code_CSD PADQUJ01
_database_code_depnum_ccdc_archive 'CCDC 1540034'
_chemical_formula_sum 'C14 H16 N4 O4'
_chemical_formula_moiety
;
C14 H16 N4 O4
;
_journal_coden_Cambridge 9
_journal_volume 56
_journal_year 2017
_journal_page_first 9563
_journal_name_full 'Inorg.Chem. '
loop_
_publ_author_name
"K.Griffiths"
"A.C.Tsipis"
"P.Kumar"
"O.P.E.Townrow"
"A.Abdul-Sada"
"G.R.Akien"
"A.Baldansuren"
"A.C.Spivey"
"G.E.Kostakis"
_chemical_name_systematic
;
6-amino-1,3-dimethyl-5-(2-nitro-1-phenylethyl)pyrimidine-2,4(1H,3H)-dione
;
_cell_volume   1520.132
_exptl_crystal_colour 'colorless'
_exptl_crystal_density_diffrn 1.33
_exptl_crystal_description 'block'
_diffrn_ambient_temperature 100
#These two values have been output from a single CSD field.
_refine_ls_R_factor_gt 0.0624
_refine_ls_wR_factor_gt 0.0624
_symmetry_cell_setting orthorhombic
_symmetry_space_group_name_H-M 'P n a 21'
_symmetry_Int_Tables_number 33
loop_
_symmetry_equiv_pos_site_id
_symmetry_equiv_pos_as_xyz
1 x,y,z
2 -x,-y,1/2+z
3 1/2-x,1/2+y,1/2+z
4 1/2+x,1/2-y,z
_cell_length_a 13.8265(3)
_cell_length_b 10.2290(3)
_cell_length_c 10.7482(3)
_cell_angle_alpha 90
_cell_angle_beta 90
_cell_angle_gamma 90
_cell_formula_units_Z 4
loop_
_atom_type_symbol
_atom_type_radius_bond
C 0.68
H 0.23
N 0.68
O 0.68
loop_
_atom_site_label
_atom_site_type_symbol
_atom_site_fract_x
_atom_site_fract_y
_atom_site_fract_z
O1 O 0.7585(7) 0.8607(10) 0.8928(6)
O2 O 0.8341(3) 0.9582(5) 0.7510(7)
O3 O 0.7359(2) 0.5236(3) 0.7410(3)
O4 O 0.50986(19) 0.6187(3) 0.4494(3)
N1 N 0.8160(4) 0.8616(7) 0.8144(5)
N2 N 0.7997(2) 0.8319(4) 0.4255(4)
H1 H 0.781(4) 0.879(5) 0.362(4)
H2 H 0.857(2) 0.833(5) 0.453(5)
N3 N 0.6530(2) 0.7278(3) 0.4418(3)
N4 N 0.6225(2) 0.5725(3) 0.5964(4)
C1 C 0.8749(3) 0.7070(4) 0.6492(3)
H3 H 0.90210 0.78430 0.60830
C2 C 0.5584(3) 0.4753(5) 0.6510(7)
H4 H 0.53890 0.50340 0.73250
H5 H 0.59170 0.39320 0.65720
H6 H 0.50230 0.46510 0.59930
C3 C 1.0381(3) 0.6008(4) 0.6784(5)
H7 H 1.05610 0.67350 0.72500
C4 C 1.0785(3) 0.3918(4) 0.5920(4)
H8 H 1.12240 0.32420 0.57990
C5 C 1.1041(3) 0.5002(4) 0.6599(5)
H9 H 1.16590 0.50630 0.69360
C6 C 0.9868(3) 0.3844(5) 0.5421(4)
H10 H 0.96890 0.31130 0.49610
C7 C 0.5895(2) 0.6380(3) 0.4933(4)
C8 C 0.8705(4) 0.7364(5) 0.7888(4)
H11 H 0.83890 0.66460 0.83140
H12 H 0.93570 0.74390 0.82130
C9 C 0.7138(3) 0.5902(4) 0.6494(4)
C10 C 0.6198(3) 0.7983(5) 0.3318(4)
H13 H 0.55650 0.76800 0.30910
H14 H 0.66380 0.78310 0.26420
H15 H 0.61720 0.89020 0.34970
C11 C 0.7447(2) 0.7487(3) 0.4884(4)
C12 C 0.9210(3) 0.4853(4) 0.5600(4)
H16 H 0.85950 0.47940 0.52540
C13 C 0.9460(2) 0.5940(4) 0.6284(3)
C14 C 0.7751(2) 0.6849(3) 0.5948(3)
#END
