
#######################################################################
#
#                 Cambridge Crystallographic Data Centre
#                                CCDC
#
#######################################################################
#
# If this CIF has been generated from an entry in the Cambridge
# Structural Database, then it will include bibliographic, chemical,
# crystal, experimental, refinement or atomic coordinate data resulting
# from the CCDC's data processing and validation procedures.
#
#######################################################################

data_CSD_CIF_PAPFES
_audit_creation_date 2005-10-19
_audit_creation_method CSD-ConQuest-V1
_database_code_CSD PAPFES
_database_code_depnum_ccdc_archive 'CCDC 275870'
_chemical_formula_sum 'C24 H22 N2 O6'
_chemical_formula_moiety
;
C24 H22 N2 O6
;
_journal_coden_Cambridge 35
_journal_volume 70
_journal_year 2005
_journal_page_first 4629
_journal_name_full 'J.Org.Chem. '
loop_
_publ_author_name
"S.Coseri"
"G.D.Mendenhall"
"K.U.Ingold"
_chemical_name_systematic
;
1,2-bis(Phthalimido-N-oxyl)cyclo-octane
;
_cell_volume   1016.037
_exptl_crystal_density_diffrn 1.42
_diffrn_ambient_temperature 125
#These two values have been output from a single CSD field.
_refine_ls_R_factor_gt 0.0295
_refine_ls_wR_factor_gt 0.0295
_symmetry_cell_setting monoclinic
_symmetry_space_group_name_H-M 'P n'
_symmetry_Int_Tables_number 7
loop_
_symmetry_equiv_pos_site_id
_symmetry_equiv_pos_as_xyz
1 x,y,z
2 1/2+x,-y,1/2+z
_cell_length_a 10.7023(4)
_cell_length_b 5.7153(2)
_cell_length_c 17.0466(6)
_cell_angle_alpha 90
_cell_angle_beta 102.982(1)
_cell_angle_gamma 90
_cell_formula_units_Z 2
loop_
_atom_type_symbol
_atom_type_radius_bond
C 0.68
H 0.23
N 0.68
O 0.68
loop_
_atom_site_label
_atom_site_type_symbol
_atom_site_fract_x
_atom_site_fract_y
_atom_site_fract_z
O1 O 0.27414(10) -0.01932(19) 0.17934(6)
O2 O 0.05357(9) 0.09642(18) 0.37702(6)
O3 O 0.26579(8) 0.25705(15) 0.31405(6)
O4 O 0.24113(9) 0.66120(15) 0.42430(6)
O5 O 0.29468(10) 0.02127(18) 0.59033(6)
O6 O 0.41161(8) 0.29655(16) 0.48666(5)
N1 N 0.19146(10) 0.06164(19) 0.29016(6)
N2 N 0.29059(10) 0.32537(19) 0.49997(7)
C1 C 0.19863(12) -0.0600(2) 0.22043(8)
C2 C 0.09652(11) -0.2406(2) 0.21220(7)
C3 C 0.06848(12) -0.4231(2) 0.15813(8)
H1 H 0.11620 -0.44800 0.11820
C4 C -0.03304(13) -0.5698(2) 0.16462(8)
H2 H -0.05500 -0.69760 0.12850
C5 C -0.10236(13) -0.5314(3) 0.22328(9)
H3 H -0.17160 -0.63270 0.22620
C6 C -0.07224(13) -0.3466(3) 0.27802(8)
H4 H -0.11960 -0.32070 0.31810
C7 C 0.02834(12) -0.2037(2) 0.27173(7)
C8 C 0.08597(12) -0.0003(2) 0.32227(8)
C9 C 0.40004(11) 0.1860(2) 0.34575(7)
H5 H 0.41940 0.05290 0.31230
C10 C 0.48154(13) 0.3953(2) 0.33214(8)
H6 H 0.51710 0.47180 0.38450
H7 H 0.42610 0.51030 0.29720
C11 C 0.59328(14) 0.3259(3) 0.29277(10)
H8 H 0.55800 0.30600 0.23430
H9 H 0.65440 0.45830 0.29940
C12 C 0.66851(14) 0.1052(3) 0.32403(9)
H10 H 0.60750 -0.02720 0.31780
H11 H 0.72910 0.07280 0.28920
C13 C 0.74426(14) 0.1094(3) 0.41111(9)
H12 H 0.80810 0.23720 0.41670
H13 H 0.79240 -0.03940 0.42200
C14 C 0.66818(13) 0.1420(3) 0.47616(9)
H14 H 0.64100 0.30770 0.47580
H15 H 0.72590 0.11080 0.52920
C15 C 0.54787(13) -0.0148(2) 0.46760(8)
H16 H 0.55770 -0.15030 0.43330
H17 H 0.54560 -0.07650 0.52150
C16 C 0.41854(11) 0.1010(2) 0.43214(7)
H18 H 0.34870 -0.01270 0.43500
C17 C 0.21696(12) 0.5226(2) 0.47148(8)
C18 C 0.10922(12) 0.5131(2) 0.51377(7)
C19 C 0.00992(12) 0.6689(2) 0.51029(8)
H19 H 0.00120 0.80450 0.47730
C20 C -0.07770(13) 0.6173(3) 0.55798(8)
H20 H -0.14730 0.72070 0.55760
C21 C -0.06450(13) 0.4180(3) 0.60567(8)
H21 H -0.12580 0.38680 0.63690
C22 C 0.03688(13) 0.2624(3) 0.60873(8)
H22 H 0.04560 0.12550 0.64110
C23 C 0.12395(12) 0.3157(2) 0.56278(7)
C24 C 0.24440(12) 0.1926(2) 0.55648(8)
#END
