
#######################################################################
#
#                 Cambridge Crystallographic Data Centre
#                                CCDC
#
#######################################################################
#
# If this CIF has been generated from an entry in the Cambridge
# Structural Database, then it will include bibliographic, chemical,
# crystal, experimental, refinement or atomic coordinate data resulting
# from the CCDC's data processing and validation procedures.
#
#######################################################################

data_CSD_CIF_PARHEY
_audit_creation_date 2017-02-06
_audit_creation_method CSD-ConQuest-V1
_database_code_CSD PARHEY
_database_code_depnum_ccdc_archive 'CCDC 1473879'
_chemical_formula_sum 'C17 H14 N2 O8'
_chemical_formula_moiety
;
C17 H14 N2 O8
;
_journal_coden_Cambridge 119
_journal_volume 1135
_journal_year 2017
_journal_page_first 153
_journal_name_full 'J.Mol.Struct. '
loop_
_publ_author_name
"A.U.Augustin"
"F.Katzsch"
"S.H.Prior"
"T.Gruber"
_chemical_name_systematic
;
bis(6-nitro-4H-benzo[d][1,3]dioxin-8-yl)methane
;
_chemical_name_common
;
6-nitro-8-((6-nitro-4H-1,3-benzodioxin-8-yl)methyl)-4H-1,3-benzodioxine
;
_cell_volume   1556.657
_exptl_crystal_colour 'colorless'
_exptl_crystal_density_diffrn 1.597
_exptl_crystal_description 'block'
_exptl_crystal_preparation 'Re-crystallisation from solvent'
_diffrn_ambient_temperature 100
#These two values have been output from a single CSD field.
_refine_ls_R_factor_gt 0.0279
_refine_ls_wR_factor_gt 0.0279
_symmetry_cell_setting monoclinic
_symmetry_space_group_name_H-M 'P 21/n'
_symmetry_Int_Tables_number 14
loop_
_symmetry_equiv_pos_site_id
_symmetry_equiv_pos_as_xyz
1 x,y,z
2 1/2-x,1/2+y,1/2-z
3 -x,-y,-z
4 -1/2+x,-1/2-y,-1/2+z
_cell_length_a 10.1667(2)
_cell_length_b 13.5046(3)
_cell_length_c 11.3379(3)
_cell_angle_alpha 90
_cell_angle_beta 90.151(1)
_cell_angle_gamma 90
_cell_formula_units_Z 4
loop_
_atom_type_symbol
_atom_type_radius_bond
C 0.68
H 0.23
N 0.68
O 0.68
loop_
_atom_site_label
_atom_site_type_symbol
_atom_site_fract_x
_atom_site_fract_y
_atom_site_fract_z
O1 O 0.32917(7) 1.02137(6) 0.84307(7)
O2 O 0.00523(8) 0.62826(6) 0.99821(7)
O3 O 0.04509(7) 0.73600(6) 0.84257(7)
O4 O 0.34514(7) 1.17892(6) 0.92908(7)
O5 O -0.27845(8) 0.98181(7) 0.78369(8)
O6 O 0.62965(8) 0.62083(7) 0.93194(8)
O7 O -0.26982(8) 1.10802(7) 0.90074(8)
O8 O 0.65279(8) 0.74004(7) 0.80590(8)
N1 N -0.21641(9) 1.04290(7) 0.84206(8)
N2 N 0.58489(10) 0.68891(8) 0.87164(9)
C1 C 0.25789(11) 0.79615(8) 0.79802(9)
C2 C 0.19708(11) 0.87371(8) 0.71846(10)
H1 H 0.13490 0.84080 0.66370
H2 H 0.26740 0.90430 0.67040
C3 C 0.19526(10) 1.02691(8) 0.84664(9)
C4 C 0.13201(11) 1.10315(8) 0.90741(9)
C5 C 0.12473(11) 0.95464(8) 0.78401(9)
C6 C -0.01104(11) 0.96055(8) 0.78303(9)
H3 H -0.06160 0.91300 0.74100
C7 C 0.44362(11) 0.70787(9) 0.87521(10)
C8 C -0.07308(10) 1.03661(8) 0.84394(9)
C9 C 0.17805(11) 0.72984(8) 0.86024(10)
C10 C -0.02113(11) 0.64753(9) 0.87922(10)
H4 H -0.11710 0.65530 0.86750
H5 H 0.00880 0.59100 0.83060
C11 C -0.00393(10) 1.10783(8) 0.90598(9)
H6 H -0.04890 1.15900 0.94690
C12 C 0.39272(11) 0.78379(8) 0.80628(10)
H7 H 0.45020 0.82700 0.76500
C13 C 0.21232(10) 1.18001(8) 0.97064(9)
H8 H 0.17350 1.24630 0.95720
H9 H 0.21120 1.16660 1.05650
C14 C 0.36508(11) 0.64668(9) 0.94256(10)
H10 H 0.40300 0.59730 0.99170
C15 C 0.22960(11) 0.65883(8) 0.93702(10)
C16 C 0.39462(10) 1.08289(8) 0.92867(10)
H11 H 0.38380 1.05350 1.00810
H12 H 0.48990 1.08490 0.91090
C17 C 0.13936(12) 0.59716(9) 1.01237(11)
H13 H 0.14760 0.52660 0.98980
H14 H 0.16550 0.60360 1.09620
#END
