
#######################################################################
#
#                 Cambridge Crystallographic Data Centre
#                                CCDC
#
#######################################################################
#
# If this CIF has been generated from an entry in the Cambridge
# Structural Database, then it will include bibliographic, chemical,
# crystal, experimental, refinement or atomic coordinate data resulting
# from the CCDC's data processing and validation procedures.
#
#######################################################################

data_CSD_CIF_PATNUU
_audit_creation_date 2005-10-19
_audit_creation_method CSD-ConQuest-V1
_database_code_CSD PATNUU
_database_code_depnum_ccdc_archive 'CCDC 233361'
_chemical_formula_sum 'C15 H20 N3 O4'
_chemical_formula_moiety
;
C15 H20 N3 O4
;
_journal_coden_Cambridge 1291
_journal_year 2005
_journal_page_first 348
_journal_name_full 'Eur.J.Org.Chem. '
loop_
_publ_author_name
"C.Hirel"
"J.Pecaut"
"S.Choua"
"P.Turek"
"D.Amabilino"
"J.Veciana"
"P.Rey"
_chemical_name_systematic
;
(R,R)-4,5-Diethyl-4,5-dimethyl-2-(4-nitrophenyl)-2-imidazoline-3-oxide-1-oxyl
;
_cell_volume   1607.971
_exptl_crystal_density_diffrn 1.265
_exptl_crystal_preparation 'hexane'
_diffrn_ambient_temperature 298
#These two values have been output from a single CSD field.
_refine_ls_R_factor_gt 0.0389
_refine_ls_wR_factor_gt 0.0389
loop_
_citation_database_id_CSD
_citation_special_details
PASJID "is a stereoisomer of this entry"
_symmetry_cell_setting orthorhombic
_symmetry_space_group_name_H-M 'P 21 21 21'
_symmetry_Int_Tables_number 19
loop_
_symmetry_equiv_pos_site_id
_symmetry_equiv_pos_as_xyz
1 x,y,z
2 1/2-x,-y,1/2+z
3 -x,1/2+y,1/2-z
4 1/2+x,1/2-y,-z
_cell_length_a 9.5443(14)
_cell_length_b 12.7496(16)
_cell_length_c 13.2141(19)
_cell_angle_alpha 90
_cell_angle_beta 90
_cell_angle_gamma 90
_cell_formula_units_Z 4
loop_
_atom_type_symbol
_atom_type_radius_bond
C 0.68
H 0.23
N 0.68
O 0.68
loop_
_atom_site_label
_atom_site_type_symbol
_atom_site_fract_x
_atom_site_fract_y
_atom_site_fract_z
O1 O 0.4759(2) 0.43263(14) 0.21547(13)
O2 O 0.4159(2) 0.39060(15) 0.55991(12)
O3 O -0.1198(4) 0.7080(3) 0.2891(2)
O4 O -0.1011(5) 0.7421(3) 0.4402(2)
N1 N 0.4890(3) 0.39920(18) 0.30634(15)
N2 N 0.4685(3) 0.38817(18) 0.47069(17)
N3 N -0.0627(4) 0.6988(3) 0.3675(3)
C1 C 0.4081(3) 0.4287(2) 0.38595(17)
C2 C 0.5957(3) 0.3182(3) 0.33679(19)
C3 C 0.6112(4) 0.3458(3) 0.4502(2)
C4 C 0.7303(4) 0.3296(3) 0.2752(2)
H1 H 0.71210 0.31150 0.20590
H2 H 0.80070 0.28360 0.30210
H3 H 0.76260 0.40080 0.27880
C5 C 0.5265(4) 0.2108(2) 0.3187(2)
H4 H 0.59470 0.15660 0.33420
H5 H 0.44970 0.20310 0.36620
C6 C 0.4708(4) 0.1912(3) 0.2136(3)
H6 H 0.43090 0.12220 0.21030
H7 H 0.54590 0.19680 0.16550
H8 H 0.40000 0.24230 0.19800
C7 C 0.6376(4) 0.2512(3) 0.5183(2)
H9 H 0.64640 0.27410 0.58720
H10 H 0.72240 0.21680 0.49780
H11 H 0.56050 0.20310 0.51280
C8 C 0.7163(4) 0.4378(4) 0.4654(3)
H12 H 0.81000 0.40930 0.45790
H13 H 0.70230 0.48670 0.41010
C9 C 0.7142(6) 0.4964(4) 0.5563(3)
H14 H 0.78420 0.55030 0.55330
H15 H 0.73330 0.45080 0.61240
H16 H 0.62360 0.52790 0.56480
C10 C 0.2835(3) 0.4936(2) 0.38264(17)
C11 C 0.2422(4) 0.5498(2) 0.46652(19)
H17 H 0.29220 0.54370 0.52660
C12 C 0.1278(4) 0.6147(3) 0.4621(2)
H18 H 0.10030 0.65290 0.51870
C13 C 0.0546(3) 0.6225(2) 0.3736(2)
C14 C 0.0900(4) 0.5655(3) 0.2907(2)
H19 H 0.03730 0.57050 0.23170
C15 C 0.2043(4) 0.5005(2) 0.29485(19)
H20 H 0.22890 0.46080 0.23850
#END
