
#######################################################################
#
#                 Cambridge Crystallographic Data Centre
#                                CCDC
#
#######################################################################
#
# If this CIF has been generated from an entry in the Cambridge
# Structural Database, then it will include bibliographic, chemical,
# crystal, experimental, refinement or atomic coordinate data resulting
# from the CCDC's data processing and validation procedures.
#
#######################################################################

data_CSD_CIF_PATVIP
_audit_creation_date 1993-10-19
_audit_creation_method CSD-ConQuest-V1
_database_code_CSD PATVIP
_database_code_depnum_ccdc_archive 'CCDC 110980'
_database_code_depnum_ccdc_fiz 'CSD 320403'
_chemical_formula_sum 'C17 H21 N3 O8'
_chemical_formula_moiety
;
C17 H21 N3 O8
;
_journal_coden_Cambridge 643
_journal_volume 203
_journal_year 1993
_journal_page_first 129
_journal_name_full 'Z.Krist.Cryst.Mater. '
loop_
_publ_author_name
"G.Bernardinelli"
"J.M.J.Tronchet"
"J.F.Tronchet"
_chemical_name_systematic
;
Methyl 2-O-acetyl-3,5-O-isopropylidene-2-p-nitrophenylazo-\b-D-xylofuranoside
;
_cell_volume    975.504
_exptl_crystal_colour 'yellow'
_diffrn_ambient_temperature ?
_diffrn_special_details
;
The study was carried out at room temperature,in the range 283-303K

;
#These two values have been output from a single CSD field.
_refine_ls_R_factor_gt 0.053
_refine_ls_wR_factor_gt 0.053
_symmetry_cell_setting monoclinic
_symmetry_space_group_name_H-M 'P 21'
_symmetry_Int_Tables_number 4
loop_
_symmetry_equiv_pos_site_id
_symmetry_equiv_pos_as_xyz
1 x,y,z
2 -x,1/2+y,-z
_cell_length_a 10.080(3)
_cell_length_b 8.184(1)
_cell_length_c 12.476(3)
_cell_angle_alpha 90
_cell_angle_beta 108.59(2)
_cell_angle_gamma 90
_cell_formula_units_Z 2
loop_
_atom_type_symbol
_atom_type_radius_bond
C 0.68
H 0.23
N 0.68
O 0.68
loop_
_atom_site_label
_atom_site_type_symbol
_atom_site_fract_x
_atom_site_fract_y
_atom_site_fract_z
O1 O 0.6350(7) -0.1044(8) 0.3204(5)
O2 O 0.3946(6) 0.1182(9) 0.3059(5)
O3 O 0.5424(6) 0.2139(8) 0.2089(4)
O4 O 0.6238(6) -0.1367(9) 0.1336(5)
O5 O 0.9018(6) 0.0715(8) 0.3303(5)
O6 O 0.9401(8) 0.3415(9) 0.3119(6)
O7 O 0.7459(8) 0.304(1) -0.3988(5)
O8 O 0.9546(8) 0.210(1) -0.3612(6)
N1 N 0.7602(8) 0.136(1) 0.1344(6)
N2 N 0.8692(7) 0.109(1) 0.1127(6)
N3 N 0.853(1) 0.247(1) -0.3344(6)
C1 C 0.7113(9) -0.097(1) 0.2411(8)
C2 C 0.7633(9) 0.083(1) 0.2479(7)
C3 C 0.6688(9) 0.179(1) 0.2996(7)
C4 C 0.6414(9) 0.047(1) 0.3784(7)
C5 C 0.506(1) 0.076(1) 0.4047(8)
C6 C 0.427(1) 0.253(1) 0.2461(7)
C7 C 0.302(1) 0.267(1) 0.1389(8)
C8 C 0.450(1) 0.411(1) 0.3159(9)
C9 C 0.607(1) -0.306(2) 0.1172(9)
C10 C 0.9795(9) 0.211(2) 0.3545(7)
C11 C 1.1178(9) 0.179(2) 0.4420(8)
C12 C 0.8629(9) 0.157(1) 0.0005(7)
C13 C 0.7619(9) 0.261(1) -0.0680(8)
C14 C 0.7568(9) 0.290(1) -0.1780(7)
C15 C 0.8597(9) 0.219(1) -0.2145(7)
C16 C 0.9633(9) 0.121(1) -0.1472(8)
C17 C 0.9651(9) 0.087(1) -0.0380(7)
H1 H 0.79890 -0.18130 0.25920
H2 H 0.70970 0.29340 0.34150
H3 H 0.72360 0.05020 0.46040
H4 H 0.47940 -0.03540 0.44190
H5 H 0.52260 0.17510 0.46670
H6 H 0.20880 0.29320 0.16190
H7 H 0.32140 0.36790 0.08840
H8 H 0.28570 0.15570 0.08900
H9 H 0.46880 0.51050 0.26590
H10 H 0.35620 0.43580 0.33950
H11 H 0.53900 0.39920 0.39350
H12 H 0.70770 -0.36160 0.13060
H13 H 0.56040 -0.35310 0.17990
H14 H 0.53710 -0.33780 0.03350
H15 H 1.09200 0.12340 0.51150
H16 H 1.16550 0.08330 0.40200
H17 H 1.19980 0.26480 0.47710
H18 H 0.68560 0.31740 -0.03510
H19 H 0.67640 0.36950 -0.23470
H20 H 1.04230 0.07020 -0.18050
H21 H 1.04450 0.00640 0.01590
#END
