
#######################################################################
#
#                 Cambridge Crystallographic Data Centre
#                                CCDC
#
#######################################################################
#
# If this CIF has been generated from an entry in the Cambridge
# Structural Database, then it will include bibliographic, chemical,
# crystal, experimental, refinement or atomic coordinate data resulting
# from the CCDC's data processing and validation procedures.
#
#######################################################################

data_CSD_CIF_PAYXOC
_audit_creation_date 1998-11-04
_audit_creation_method CSD-ConQuest-V1
_database_code_CSD PAYXOC
_chemical_formula_sum 'C10 H11 N1 O4'
_chemical_formula_moiety
;
C10 H11 N1 O4
;
_journal_coden_Cambridge 315
_journal_volume 52
_journal_year 1996
_journal_page_first 297
_journal_name_full 'Spectrochim.Acta,Part A '
loop_
_publ_author_name
"Ho-Hi Lee"
"H.Yamaguchi"
"H.Senda"
"A.Kuwae"
"K.Hanai"
_chemical_name_systematic
;
Methyl (N-benzoylamino-oxy)acetate
;
_chemical_melting_point 378.15
_cell_volume    998.055
_exptl_crystal_density_diffrn 1.392
_exptl_special_details
;
Melting point range 378.15-379.15K

;
_exptl_crystal_preparation 'dichloromethane/hexane'
_diffrn_ambient_temperature ?
_diffrn_special_details
;
The study was carried out at room temperature,in the range 283-303K

;
#These two values have been output from a single CSD field.
_refine_ls_R_factor_gt 0.04
_refine_ls_wR_factor_gt 0.04
_symmetry_cell_setting monoclinic
_symmetry_space_group_name_H-M 'P 21/c'
_symmetry_Int_Tables_number 14
loop_
_symmetry_equiv_pos_site_id
_symmetry_equiv_pos_as_xyz
1 x,y,z
2 -x,1/2+y,1/2-z
3 -x,-y,-z
4 x,-1/2-y,-1/2+z
_cell_length_a 8.4342(9)
_cell_length_b 4.9845(5)
_cell_length_c 23.776(3)
_cell_angle_alpha 90
_cell_angle_beta 93.134(9)
_cell_angle_gamma 90
_cell_formula_units_Z 4
loop_
_atom_type_symbol
_atom_type_radius_bond
C 0.68
N 0.68
O 0.68
loop_
_atom_site_label
_atom_site_type_symbol
_atom_site_fract_x
_atom_site_fract_y
_atom_site_fract_z
O1 O 0.6438(2) 0.7534(3) 0.10972(6)
O2 O 0.5348(2) 0.3335(3) 0.05071(5)
O3 O 0.1160(2) 0.2109(4) 0.04787(7)
O4 O 0.2526(2) 0.5600(4) 0.08529(7)
N1 N 0.5758(2) 0.3136(3) 0.10854(6)
C1 C 0.6947(2) 0.4963(3) 0.19357(8)
C2 C 0.6369(2) 0.2952(4) 0.22758(8)
C3 C 0.6911(2) 0.2754(4) 0.28359(9)
C4 C 0.8013(2) 0.4557(4) 0.30573(9)
C5 C 0.8593(3) 0.6548(4) 0.2725(1)
C6 C 0.8064(2) 0.6755(4) 0.21663(9)
C7 C 0.6372(2) 0.5354(3) 0.13366(8)
C8 C 0.3868(2) 0.2053(4) 0.03815(9)
C9 C 0.2480(3) 0.3517(5) 0.06072(8)
C10 C -0.0310(4) 0.320(1) 0.0670(2)
#END
