
#######################################################################
#
#                 Cambridge Crystallographic Data Centre
#                                CCDC
#
#######################################################################
#
# If this CIF has been generated from an entry in the Cambridge
# Structural Database, then it will include bibliographic, chemical,
# crystal, experimental, refinement or atomic coordinate data resulting
# from the CCDC's data processing and validation procedures.
#
#######################################################################

data_CSD_CIF_PAZYOF
_audit_creation_date 2006-05-11
_audit_creation_method CSD-ConQuest-V1
_database_code_CSD PAZYOF
_database_code_depnum_ccdc_archive 'CCDC 283079'
_chemical_formula_sum 'C27 H37 N3 O2'
_chemical_formula_moiety
;
C27 H37 N3 O2
;
_journal_coden_Cambridge 7
_journal_volume 79
_journal_year 2006
_journal_page_first 118
_journal_name_full 'Bull.Chem.Soc.Jpn. '
loop_
_publ_author_name
"C.Shimokawa"
"Y.Tachi"
"N.Nishiwaki"
"M.Ariga"
"S.Itoh"
_chemical_name_systematic
;
N-(2,6-Di-isopropylphenyl)-3-(2,6-di-isopropylphenylamino)-2-nitro-2-propenimi
ne
;
_cell_volume   1252.671
_exptl_crystal_colour 'yellow'
_exptl_crystal_density_diffrn 1.152
_exptl_crystal_description 'prism'
_exptl_crystal_preparation 'chloroform/methanol'
_diffrn_ambient_temperature 158.1
#These two values have been output from a single CSD field.
_refine_ls_R_factor_gt 0.057
_refine_ls_wR_factor_gt 0.057
_symmetry_cell_setting triclinic
_symmetry_space_group_name_H-M 'P -1'
_symmetry_Int_Tables_number 2
loop_
_symmetry_equiv_pos_site_id
_symmetry_equiv_pos_as_xyz
1 x,y,z
2 -x,-y,-z
_cell_length_a 9.075(5)
_cell_length_b 10.793(3)
_cell_length_c 13.935(7)
_cell_angle_alpha 107.092(10)
_cell_angle_beta 95.994(15)
_cell_angle_gamma 102.53(2)
_cell_formula_units_Z 2
loop_
_atom_type_symbol
_atom_type_radius_bond
C 0.68
H 0.23
N 0.68
O 0.68
loop_
_atom_site_label
_atom_site_type_symbol
_atom_site_fract_x
_atom_site_fract_y
_atom_site_fract_z
O1 O 0.34021(12) 0.40161(12) 0.98504(9)
O2 O 0.31484(14) 0.50603(12) 0.87534(10)
N1 N 0.56112(14) 0.16138(12) 0.81527(11)
N2 N 0.52112(16) 0.28255(12) 0.67879(10)
N3 N 0.36011(14) 0.41902(12) 0.90291(11)
C1 C 0.43516(18) 0.33538(14) 0.83716(12)
C2 C 0.49218(17) 0.24238(14) 0.87250(12)
C3 C 0.45306(18) 0.35480(14) 0.74276(12)
C4 C 0.61331(19) 0.05909(16) 0.84434(12)
C5 C 0.50614(19) -0.04997(16) 0.85311(12)
C6 C 0.5646(2) -0.14570(17) 0.88127(12)
C7 C 0.7224(2) -0.13421(18) 0.89876(12)
C8 C 0.8247(2) -0.02827(18) 0.88652(12)
C9 C 0.77345(19) 0.07130(16) 0.85799(12)
C10 C 0.33293(19) -0.06446(17) 0.82935(12)
C11 C 0.2371(2) -0.1758(2) 0.86051(17)
C12 C 0.2778(2) -0.0825(2) 0.71757(13)
C13 C 0.8817(2) 0.18910(18) 0.84266(14)
C14 C 0.9247(2) 0.31276(19) 0.93904(18)
C15 C 1.0286(2) 0.1578(2) 0.80794(17)
C16 C 0.5447(2) 0.31091(16) 0.58691(12)
C17 C 0.6883(2) 0.39005(17) 0.58588(12)
C18 C 0.7085(2) 0.42005(19) 0.49675(16)
C19 C 0.5906(2) 0.3700(2) 0.41127(14)
C20 C 0.4551(2) 0.2867(2) 0.41257(14)
C21 C 0.4270(2) 0.25343(18) 0.49970(13)
C22 C 0.8145(2) 0.44177(19) 0.67915(14)
C23 C 0.8107(2) 0.5778(2) 0.75123(17)
C24 C 0.9755(2) 0.4472(2) 0.6546(2)
C25 C 0.2778(2) 0.1548(2) 0.49831(16)
C26 C 0.2852(2) 0.0113(2) 0.4492(2)
C27 C 0.1344(2) 0.1772(2) 0.4434(2)
H1 H 0.48030 0.23740 0.93830
H2 H 0.41500 0.42240 0.72560
H3 H 0.49560 -0.22130 0.88800
H4 H 0.75920 -0.19990 0.91960
H5 H 0.93150 -0.02240 0.89700
H6 H 0.31520 0.01740 0.86860
H7 H 0.21150 -0.25720 0.80480
H8 H 0.14580 -0.15330 0.87830
H9 H 0.29410 -0.18650 0.91730
H10 H 0.28480 0.00240 0.70860
H11 H 0.17410 -0.13440 0.69780
H12 H 0.33960 -0.12800 0.67660
H13 H 0.82970 0.21260 0.79060
H14 H 0.85390 0.36580 0.93830
H15 H 1.02500 0.36470 0.94180
H16 H 0.92300 0.28390 0.99720
H17 H 1.10460 0.17890 0.86670
H18 H 1.06420 0.21040 0.76700
H19 H 1.00860 0.06530 0.76970
H20 H 0.80350 0.47600 0.49430
H21 H 0.60580 0.39320 0.35170
H22 H 0.37760 0.25050 0.35310
H23 H 0.79640 0.38010 0.71590
H24 H 0.87460 0.64570 0.73240
H25 H 0.84750 0.58660 0.81990
H26 H 0.70870 0.58690 0.74500
H27 H 1.00060 0.36440 0.64720
H28 H 1.04760 0.51680 0.70800
H29 H 0.97810 0.46690 0.59260
H30 H 0.26600 0.16580 0.56700
H31 H 0.24620 -0.01540 0.37820
H32 H 0.22420 -0.04590 0.47860
H33 H 0.38820 0.00510 0.45910
H34 H 0.09430 0.23870 0.49050
H35 H 0.05870 0.09400 0.41430
H36 H 0.16210 0.21250 0.39100
H37 H 0.575(3) 0.175(2) 0.756(2)
#END
