
#######################################################################
#
#                 Cambridge Crystallographic Data Centre
#                                CCDC
#
#######################################################################
#
# If this CIF has been generated from an entry in the Cambridge
# Structural Database, then it will include bibliographic, chemical,
# crystal, experimental, refinement or atomic coordinate data resulting
# from the CCDC's data processing and validation procedures.
#
#######################################################################

data_CSD_CIF_PEFTIE01
_audit_creation_date 2006-05-11
_audit_creation_method CSD-ConQuest-V1
_database_code_CSD PEFTIE01
_database_code_depnum_ccdc_archive 'CCDC 278156'
_chemical_formula_sum 'C9 H9 N3 O2'
_chemical_formula_moiety
;
C9 H9 N3 O2
;
_journal_coden_Cambridge 119
_journal_volume 784
_journal_year 2006
_journal_page_first 214
_journal_name_full 'J.Mol.Struct. '
loop_
_publ_author_name
"D.S.Yufit"
"O.V.Chetina"
"J.A.K.Howard"
_chemical_name_systematic
;
N-(4-nitrophenyl)-N-methylaminoacetonitrile
;
_chemical_name_common
;
NPAN
;
_chemical_melting_point 387.15
_cell_volume   3684.256
_exptl_crystal_colour 'light yellow'
_exptl_crystal_density_diffrn 1.379
_exptl_special_details
;
Melting point range 387.15-388.15K
polymorph 1
phase transitions at 95-98 C and 330-340 K
;
_exptl_crystal_description 'prism'
_exptl_crystal_preparation 'ethanol'
_diffrn_ambient_temperature 120
#These two values have been output from a single CSD field.
_refine_ls_R_factor_gt 0.0393
_refine_ls_wR_factor_gt 0.0393
_symmetry_cell_setting orthorhombic
_symmetry_space_group_name_H-M 'F d d 2'
_symmetry_Int_Tables_number 43
loop_
_symmetry_equiv_pos_site_id
_symmetry_equiv_pos_as_xyz
1 x,y,z
2 -x,-y,z
3 1/4+x,1/4-y,1/4+z
4 1/4-x,1/4+y,1/4+z
5 x,1/2+y,1/2+z
6 -x,1/2-y,1/2+z
7 1/4+x,3/4-y,3/4+z
8 1/4-x,3/4+y,3/4+z
9 1/2+x,y,1/2+z
10 1/2-x,-y,1/2+z
11 3/4+x,1/4-y,3/4+z
12 3/4-x,1/4+y,3/4+z
13 1/2+x,1/2+y,z
14 1/2-x,1/2-y,z
15 3/4+x,3/4-y,1/4+z
16 3/4-x,3/4+y,1/4+z
_cell_length_a 25.8337(5)
_cell_length_b 34.3252(7)
_cell_length_c 4.1548(1)
_cell_angle_alpha 90
_cell_angle_beta 90
_cell_angle_gamma 90
_cell_formula_units_Z 16
loop_
_atom_type_symbol
_atom_type_radius_bond
C 0.68
H 0.23
N 0.68
O 0.68
loop_
_atom_site_label
_atom_site_type_symbol
_atom_site_fract_x
_atom_site_fract_y
_atom_site_fract_z
O1 O 0.35316(5) 0.18865(4) 0.3294(5)
O2 O 0.27321(5) 0.18065(4) 0.4702(5)
N1 N 0.31898(6) 0.17057(4) 0.4752(4)
N2 N 0.37619(5) 0.03515(4) 1.1416(4)
N3 N 0.28714(6) -0.03608(4) 0.9587(5)
C1 C 0.33350(6) 0.13607(4) 0.6540(5)
C2 C 0.29538(6) 0.11365(5) 0.8022(5)
C3 C 0.30923(6) 0.08007(4) 0.9650(5)
C4 C 0.36171(5) 0.06856(4) 0.9825(4)
C5 C 0.39941(6) 0.09199(4) 0.8301(5)
C6 C 0.38539(6) 0.12552(4) 0.6680(5)
C7 C 0.42976(6) 0.02140(5) 1.1344(5)
C8 C 0.33878(6) 0.01275(4) 1.3242(4)
C9 C 0.30945(5) -0.01519(5) 1.1214(5)
H1 H 0.2564(8) 0.1219(5) 0.802(7)
H2 H 0.2818(8) 0.0649(6) 1.073(7)
H3 H 0.4357(9) 0.0838(8) 0.845(9)
H4 H 0.4113(9) 0.1411(7) 0.569(9)
H5 H 0.4293(8) -0.0045(7) 1.233(7)
H6 H 0.4529(9) 0.0395(7) 1.259(8)
H7 H 0.4438(9) 0.0203(8) 0.911(8)
H8 H 0.3123(8) 0.0297(6) 1.434(6)
H9 H 0.3594(8) -0.0020(7) 1.477(8)
#END
