
#######################################################################
#
#                 Cambridge Crystallographic Data Centre
#                                CCDC
#
#######################################################################
#
# If this CIF has been generated from an entry in the Cambridge
# Structural Database, then it will include bibliographic, chemical,
# crystal, experimental, refinement or atomic coordinate data resulting
# from the CCDC's data processing and validation procedures.
#
#######################################################################

data_CSD_CIF_PEHVIH
_audit_creation_date 1994-02-10
_audit_creation_method CSD-ConQuest-V1
_database_code_CSD PEHVIH
_chemical_formula_sum 'C15 H18 N2 O1'
_chemical_formula_moiety
;
C15 H18 N2 O1
;
_journal_coden_Cambridge 154
_journal_volume 46
_journal_year 1993
_journal_page_first 603
_journal_name_full 'Aust.J.Chem. '
loop_
_publ_author_name
"D.St.C.Black"
"D.C.Craig"
"R.B.Deb-Das"
"N.Kumar"
_chemical_name_systematic
;
1,3,10-Trimethyl-1,3a,4,10b-tetrahydro-3H-isoxazolo(3',4':3,4)pyrrolo(1,2-a)in
dole
;
_chemical_melting_point 361.15
_cell_volume   1319.831
_exptl_crystal_colour 'white'
_exptl_crystal_density_diffrn 1.22
_exptl_special_details
;
Melting point range 361.15-363.15K

;
_diffrn_ambient_temperature ?
_diffrn_special_details
;
The study was carried out at room temperature,in the range 283-303K

;
#These two values have been output from a single CSD field.
_refine_ls_R_factor_gt 0.046
_refine_ls_wR_factor_gt 0.046
_symmetry_cell_setting monoclinic
_symmetry_space_group_name_H-M 'P 21/c'
_symmetry_Int_Tables_number 14
loop_
_symmetry_equiv_pos_site_id
_symmetry_equiv_pos_as_xyz
1 x,y,z
2 -x,1/2+y,1/2-z
3 -x,-y,-z
4 x,-1/2-y,-1/2+z
_cell_length_a 11.2674(10)
_cell_length_b 13.3663(7)
_cell_length_c 9.5523(7)
_cell_angle_alpha 90
_cell_angle_beta 113.446(3)
_cell_angle_gamma 90
_cell_formula_units_Z 4
loop_
_atom_type_symbol
_atom_type_radius_bond
C 0.68
H 0.23
N 0.68
O 0.68
loop_
_atom_site_label
_atom_site_type_symbol
_atom_site_fract_x
_atom_site_fract_y
_atom_site_fract_z
O1 O 0.8698(1) 0.1999(1) 0.8260(1)
N1 N 0.5590(1) 0.1515(1) 0.5585(2)
N2 N 0.8631(1) 0.0922(1) 0.8217(2)
C1 C 0.6281(2) 0.0841(1) 0.6697(2)
C2 C 0.5530(2) 0.0444(1) 0.7383(2)
C3 C 0.4277(2) 0.0899(1) 0.6630(2)
C4 C 0.3090(2) 0.0809(2) 0.6768(2)
C5 C 0.2044(2) 0.1344(2) 0.5794(3)
C6 C 0.2129(2) 0.1974(2) 0.4690(3)
C7 C 0.3286(2) 0.2094(1) 0.4510(3)
C8 C 0.4344(2) 0.1554(1) 0.5488(2)
C9 C 0.7604(2) 0.0725(1) 0.6724(2)
C10 C 0.8521(2) 0.2356(1) 0.6756(2)
C11 C 0.7669(2) 0.1569(1) 0.5627(2)
C12 C 0.6269(2) 0.1862(2) 0.4664(2)
C13 C 0.5939(2) -0.0308(2) 0.8648(2)
C14 C 0.9881(2) 0.0529(2) 0.8317(3)
C15 C 0.8000(2) 0.3403(1) 0.6623(2)
H1 H 0.30080 0.03570 0.75620
H2 H 0.11960 0.12770 0.58970
H3 H 0.13470 0.23480 0.40070
H4 H 0.33530 0.25420 0.37140
H5 H 0.77110 0.00520 0.63340
H6 H 0.93820 0.23780 0.66830
H7 H 0.81000 0.13200 0.49620
H8 H 0.59470 0.15090 0.36540
H9 H 0.61810 0.25960 0.45000
H10 H 0.51800 -0.07330 0.85460
H11 H 0.66350 -0.07410 0.85650
H12 H 0.62730 0.00420 0.96470
H13 H 1.05600 0.06770 0.93500
H14 H 0.98110 -0.02100 0.81480
H15 H 1.01160 0.08540 0.75200
H16 H 0.86520 0.38340 0.74240
H17 H 0.78410 0.36760 0.55930
H18 H 0.71780 0.33960 0.67820
#END
