
#######################################################################
#
#                 Cambridge Crystallographic Data Centre
#                                CCDC
#
#######################################################################
#
# If this CIF has been generated from an entry in the Cambridge
# Structural Database, then it will include bibliographic, chemical,
# crystal, experimental, refinement or atomic coordinate data resulting
# from the CCDC's data processing and validation procedures.
#
#######################################################################

data_CSD_CIF_PERCEV
_audit_creation_date 2007-01-23
_audit_creation_method CSD-ConQuest-V1
_database_code_CSD PERCEV
_database_code_depnum_ccdc_archive 'CCDC 626256'
_database_code_depnum_ccdc_journal 1267/1774
_chemical_formula_sum 'C23 H27 N1 O4'
_chemical_formula_moiety
;
C23 H27 N1 O4
;
_journal_coden_Cambridge 1267
_journal_volume 221
_journal_year 2006
_journal_page_first 213
_journal_name_full 'Z.Kristallogr.-New Cryst.Struct. '
loop_
_publ_author_name
"M.A.Chowdhury"
"I.Brudgam"
"H.Hartl"
"H.-U.Reissig"
_chemical_name_systematic
;
(3R,6S,4'S)-2-benzyl-3-(2',2'-dimethyl(1',3')dioxolan-4'-yl)-4-methoxy-6-pheny
l-3,6-dihydro-2H-1,2-oxazine
;
_chemical_melting_point 436
_cell_volume   1005.445
_exptl_crystal_colour 'colorless'
_exptl_crystal_density_diffrn 1.26
_exptl_special_details
;
Melting point range 436-438K

;
_exptl_crystal_description 'prism'
_exptl_crystal_preparation 'diethyl ether/hexane'
_diffrn_ambient_temperature 173
#These two values have been output from a single CSD field.
_refine_ls_R_factor_gt 0.0541
_refine_ls_wR_factor_gt 0.0541
_symmetry_cell_setting monoclinic
_symmetry_space_group_name_H-M 'P 21'
_symmetry_Int_Tables_number 4
loop_
_symmetry_equiv_pos_site_id
_symmetry_equiv_pos_as_xyz
1 x,y,z
2 -x,1/2+y,-z
_cell_length_a 10.053(3)
_cell_length_b 9.859(3)
_cell_length_c 10.202(3)
_cell_angle_alpha 90
_cell_angle_beta 96.087(6)
_cell_angle_gamma 90
_cell_formula_units_Z 2
loop_
_atom_type_symbol
_atom_type_radius_bond
C 0.68
H 0.23
N 0.68
O 0.68
loop_
_atom_site_label
_atom_site_type_symbol
_atom_site_fract_x
_atom_site_fract_y
_atom_site_fract_z
O1 O 0.70556(11) 0.84172(12) 0.90991(11)
O2 O 0.42904(12) 0.79192(13) 1.15470(12)
O3 O 0.27957(12) 0.81012(11) 0.76753(12)
O4 O 0.26648(14) 1.03826(12) 0.75207(14)
N1 N 0.56948(13) 0.85278(14) 0.84425(13)
C1 C 0.7459(2) 0.7626(2) 0.56406(19)
H1 H 0.75950 0.66920 0.58420
C2 C 0.8177(2) 0.8232(3) 0.4710(2)
C3 C 0.7991(2) 0.9591(3) 0.4411(2)
H2 H 0.84900 1.00130 0.37840
C4 C 0.7072(3) 1.0330(2) 0.5030(2)
H3 H 0.69350 1.12620 0.48210
C5 C 0.6343(2) 0.9721(2) 0.5961(2)
H4 H 0.57080 1.02370 0.63760
C6 C 0.65437(18) 0.83596(18) 0.62831(16)
C7 C 0.57453(18) 0.76885(17) 0.72646(17)
H5 H 0.48240 0.75220 0.68510
H6 H 0.61530 0.68010 0.75220
C8 C 0.72003(15) 0.94750(15) 1.00773(15)
H7 H 0.69890 1.03750 0.96530
C9 C 0.62378(15) 0.91825(16) 1.10788(16)
H8 H 0.63900 0.95410 1.19460
C10 C 0.51737(15) 0.84152(16) 1.07278(15)
C11 C 0.47532(15) 0.79811(16) 0.93261(16)
H9 H 0.47260 0.69690 0.92670
C12 C 0.33441(16) 0.85730(16) 0.89424(16)
H10 H 0.27430 0.82910 0.96140
C13 C 0.33088(18) 1.01407(16) 0.88105(18)
H11 H 0.27960 1.05510 0.94860
H12 H 0.42260 1.05210 0.89070
C14 C 0.19543(17) 0.91716(17) 0.71144(17)
C15 C 0.1872(2) 0.9067(2) 0.5631(2)
H13 H 0.27690 0.91590 0.53490
H14 H 0.12950 0.97900 0.52320
H15 H 0.14970 0.81830 0.53490
C16 C 0.05910(18) 0.9137(2) 0.7627(2)
H16 H 0.00480 0.98960 0.72510
H17 H 0.07010 0.92120 0.85900
H18 H 0.01430 0.82800 0.73700
C17 C 0.46421(19) 0.8155(2) 1.29241(17)
H19 H 0.47040 0.91330 1.30890
H20 H 0.55070 0.77290 1.32020
H21 H 0.39560 0.77640 1.34250
C18 C 0.86308(15) 0.94565(16) 1.06966(15)
C19 C 0.91959(17) 0.82886(17) 1.12912(18)
H22 H 0.86840 0.74780 1.12920
C20 C 1.05057(19) 0.83074(19) 1.18829(19)
H23 H 1.08920 0.75060 1.22750
C21 C 1.12538(17) 0.9495(2) 1.19041(19)
H24 H 1.21490 0.95040 1.23100
H25 H 0.88000 0.77170 0.42810
C22 C 1.06945(18) 1.0663(2) 1.1335(2)
H26 H 1.11990 1.14790 1.13620
C23 C 0.93874(17) 1.06393(17) 1.07203(18)
H27 H 0.90100 1.14380 1.03140
#END
