
#######################################################################
#
#                 Cambridge Crystallographic Data Centre
#                                CCDC
#
#######################################################################
#
# If this CIF has been generated from an entry in the Cambridge
# Structural Database, then it will include bibliographic, chemical,
# crystal, experimental, refinement or atomic coordinate data resulting
# from the CCDC's data processing and validation procedures.
#
#######################################################################

data_CSD_CIF_PEYSOB
_audit_creation_date 1994-06-13
_audit_creation_method CSD-ConQuest-V1
_database_code_CSD PEYSOB
_database_code_depnum_ccdc_archive 'CCDC 1231985'
_chemical_formula_sum 'C15 H28 N3 O4'
_chemical_formula_moiety
;
C15 H28 N3 O4
;
_journal_coden_Cambridge 4
_journal_volume 115
_journal_year 1993
_journal_page_first 8898
_journal_name_full 'J.Am.Chem.Soc. '
loop_
_publ_author_name
"V.Dupont"
"A.Lecoq"
"J.-P.Mangeot"
"A.Aubry"
"G.Boussard"
"M.Marraud"
_chemical_name_systematic
;
N-Pivaloylprolyl-(N-hydroxy)glycyl-isopropylamide
;
_chemical_name_common
;
PEPSEQ A=2 PRO*-GLY*
;
_cell_volume   1753.878
_exptl_crystal_density_diffrn 1.19
_exptl_special_details
;
z(C2A) is -0.1854 not -0.1584

;
_diffrn_ambient_temperature ?
_diffrn_special_details
;
The study was carried out at room temperature,in the range 283-303K

;
_refine_special_details
;
The structure is disordered.

;
#These two values have been output from a single CSD field.
_refine_ls_R_factor_gt 0.046
_refine_ls_wR_factor_gt 0.046
_symmetry_cell_setting orthorhombic
_symmetry_space_group_name_H-M 'P 21 21 21'
_symmetry_Int_Tables_number 19
loop_
_symmetry_equiv_pos_site_id
_symmetry_equiv_pos_as_xyz
1 x,y,z
2 1/2+x,1/2-y,-z
3 -x,1/2+y,1/2-z
4 1/2-x,-y,1/2+z
_cell_length_a 9.553(1)
_cell_length_b 10.890(2)
_cell_length_c 16.859(3)
_cell_angle_alpha 90
_cell_angle_beta 90
_cell_angle_gamma 90
_cell_formula_units_Z 4
loop_
_atom_type_symbol
_atom_type_radius_bond
C 0.68
H 0.23
N 0.68
O 0.68
loop_
_atom_site_label
_atom_site_type_symbol
_atom_site_fract_x
_atom_site_fract_y
_atom_site_fract_z
C1 C 0.1407(4) 0.6126(3) 0.1704(2)
C2 C 0.1845(4) 0.3982(4) 0.2113(2)
C3 C -0.0607(3) 0.4869(3) 0.2138(2)
C4 C 0.0792(2) 0.4828(2) 0.1699(1)
C5 C 0.0608(2) 0.4429(2) 0.0826(1)
O1 O 0.1078(2) 0.5083(2) 0.02884(8)
N1 N -0.0016(2) 0.3369(2) 0.0639(1)
C6 C -0.0707(3) 0.2433(3) 0.1127(2)
C7 C -0.0622(3) 0.1299(2) 0.0616(2)
C8 C -0.0867(3) 0.1801(2) -0.0213(2)
C9 C -0.0066(2) 0.3033(2) -0.0210(1)
C10 C -0.0867(2) 0.3995(2) -0.0667(1)
O2 O -0.1944(2) 0.4455(2) -0.0418(1)
N2 N -0.0370(2) 0.4293(2) -0.1394(1)
O3 O 0.0943(2) 0.3867(2) -0.1634(1)
C11 C -0.0894(3) 0.5297(3) -0.1854(1)
C12 C -0.0056(3) 0.6474(3) -0.1799(1)
O4 O -0.0166(3) 0.7236(2) -0.2333(1)
N3 N 0.0768(2) 0.6632(2) -0.1177(1)
C13 C 0.1628(3) 0.7736(2) -0.1071(2)
C14 C 0.0795(4) 0.8785(4) -0.0737(3)
C15 C 0.2900(3) 0.7419(3) -0.0579(2)
H1 H 0.080(3) 0.655(2) 0.142(1)
H2 H 0.277(3) 0.416(2) 0.188(2)
H3 H -0.046(3) 0.525(2) 0.272(1)
H4 H -0.026(2) 0.238(2) 0.164(1)
H5 H 0.034(3) 0.096(2) 0.068(1)
H6 H -0.194(3) 0.202(2) -0.023(1)
H7 H 0.082(3) 0.302(2) -0.036(1)
H8 H -0.154(3) 0.510(2) -0.210(2)
H9 H 0.188(2) 0.797(2) -0.162(2)
H10 H 0.067(2) 0.854(3) -0.017(1)
H11 H 0.341(3) 0.812(2) -0.046(1)
H12 H 0.069(3) 0.607(3) -0.069(2)
H13 H 0.084(2) 0.316(2) -0.203(1)
C16? C 0.225(3) 0.611(3) 0.140(1)
C17? C 0.170(3) 0.633(2) 0.218(2)
C18? C 0.194(3) 0.437(2) 0.262(2)
C19? C 0.170(3) 0.331(2) 0.207(2)
C20? C -0.101(3) 0.428(2) 0.222(1)
C21? C -0.139(3) 0.530(2) 0.185(1)
C22? C -0.173(3) 0.271(2) 0.128(1)
C23? C -0.130(3) 0.057(2) 0.080(1)
C24? C -0.044(3) 0.138(2) -0.066(1)
C25? C -0.156(2) 0.556(2) -0.109(1)
C26? C 0.004(3) 0.881(3) -0.105(1)
C27? C 0.143(3) 0.956(2) -0.070(1)
C28? C 0.253(3) 0.718(2) -0.009(2)
C29? C 0.333(3) 0.691(2) -0.079(1)
#END
