
#######################################################################
#
#                 Cambridge Crystallographic Data Centre
#                                CCDC
#
#######################################################################
#
# If this CIF has been generated from an entry in the Cambridge
# Structural Database, then it will include bibliographic, chemical,
# crystal, experimental, refinement or atomic coordinate data resulting
# from the CCDC's data processing and validation procedures.
#
#######################################################################

data_CSD_CIF_PEZPIV
_audit_creation_date 2013-05-19
_audit_creation_method CSD-ConQuest-V1
_database_code_CSD PEZPIV
_database_code_depnum_ccdc_archive 'CCDC 904803'
_chemical_formula_sum 'C12 H10 N6 O3'
_chemical_formula_moiety
;
C12 H10 N6 O3
;
_journal_coden_Cambridge 1291
_journal_year 2013
_journal_page_first 3721
_journal_name_full 'Eur.J.Org.Chem. '
loop_
_publ_author_name
"R.Centore"
"S.Fusco"
"A.Capobianco"
"V.Piccialli"
"S.Zaccaria"
"A.Peluso"
_chemical_name_systematic
;
1-(6-Methyl-3-(4-nitrophenyl)-1H-[1,2,4]triazolo[4,3-b][1,2,4]triazol-1-yl)eth
anone
;
_cell_volume   2555.537
_exptl_crystal_colour 'pale yellow'
_exptl_crystal_density_diffrn 1.488
_exptl_crystal_description 'plate'
_diffrn_ambient_temperature 296
#These two values have been output from a single CSD field.
_refine_ls_R_factor_gt 0.0617
_refine_ls_wR_factor_gt 0.0617
_symmetry_cell_setting orthorhombic
_symmetry_space_group_name_H-M 'P b c a'
_symmetry_Int_Tables_number 61
loop_
_symmetry_equiv_pos_site_id
_symmetry_equiv_pos_as_xyz
1 x,y,z
2 1/2-x,-y,1/2+z
3 1/2+x,1/2-y,-z
4 -x,1/2+y,1/2-z
5 -x,-y,-z
6 -1/2+x,y,-1/2-z
7 -1/2-x,-1/2+y,z
8 x,-1/2-y,-1/2+z
_cell_length_a 12.606(4)
_cell_length_b 7.298(1)
_cell_length_c 27.778(2)
_cell_angle_alpha 90
_cell_angle_beta 90
_cell_angle_gamma 90
_cell_formula_units_Z 8
loop_
_atom_type_symbol
_atom_type_radius_bond
C 0.68
H 0.23
N 0.68
O 0.68
loop_
_atom_site_label
_atom_site_type_symbol
_atom_site_fract_x
_atom_site_fract_y
_atom_site_fract_z
C1 C 0.6841(3) -0.0395(5) 0.64936(14)
H1 H 0.66860 -0.13320 0.67260
H2 H 0.71080 0.06710 0.66560
H3 H 0.73640 -0.08380 0.62710
C2 C 0.5858(3) 0.0087(5) 0.62279(15)
C3 C 0.4804(3) 0.1062(5) 0.57144(14)
C4 C 0.3176(3) 0.0542(4) 0.59768(13)
C5 C 0.2307(3) -0.0040(4) 0.62951(11)
C6 C 0.1269(3) 0.0291(4) 0.61555(11)
H4 H 0.11320 0.08600 0.58630
C7 C 0.0444(3) -0.0217(4) 0.64485(13)
H5 H -0.02540 0.00080 0.63570
C8 C 0.0661(3) -0.1066(4) 0.68809(12)
C9 C 0.1683(3) -0.1388(4) 0.70267(11)
H6 H 0.18150 -0.19570 0.73200
C10 C 0.2516(3) -0.0863(4) 0.67352(12)
H7 H 0.32120 -0.10580 0.68330
C11 C 0.4262(4) 0.2661(5) 0.49611(14)
C12 C 0.3329(3) 0.3427(5) 0.47123(12)
H8 H 0.35530 0.40400 0.44240
H9 H 0.29780 0.42850 0.49200
H10 H 0.28490 0.24540 0.46310
N1 N 0.5845(2) 0.0949(4) 0.57916(11)
N2 N 0.4076(2) 0.1721(4) 0.53893(10)
N3 N 0.3057(2) 0.1394(3) 0.55601(10)
N4 N 0.4236(2) 0.0322(4) 0.60745(10)
N5 N 0.4899(3) -0.0334(4) 0.64235(10)
N6 N -0.0222(3) -0.1663(4) 0.71935(13)
O1 O 0.5178(2) 0.2775(3) 0.48264(9)
O2 O -0.1106(2) -0.1280(4) 0.70675(10)
O3 O -0.0015(2) -0.2511(4) 0.75512(12)
#END
