
#######################################################################
#
#                 Cambridge Crystallographic Data Centre
#                                CCDC
#
#######################################################################
#
# If this CIF has been generated from an entry in the Cambridge
# Structural Database, then it will include bibliographic, chemical,
# crystal, experimental, refinement or atomic coordinate data resulting
# from the CCDC's data processing and validation procedures.
#
#######################################################################

data_CSD_CIF_PILVEO
_audit_creation_date 2018-07-26
_audit_creation_method CSD-ConQuest-V1
_database_code_CSD PILVEO
_database_code_depnum_ccdc_archive 'CCDC 1840705'
_chemical_formula_sum 'C17 H18 N2 O2'
_chemical_formula_moiety
;
C17 H18 N2 O2
;
_journal_coden_Cambridge 1267
_journal_volume 233
_journal_year 2018
_journal_page_first 533
_journal_name_full 'Z.Kristallogr.-New Cryst.Struct. '
loop_
_publ_author_name
"Peng-Peng Li"
"Jin-Xia Ma"
"Qing-Lin Li"
"Ji-Xing Zhao"
"Li Zhao"
_chemical_name_systematic
;
(E,E)-2-({[4-(N-methoxyethanimidoyl)phenyl]imino}methyl)-4-methylphenol
;
_chemical_name_common
;
(E)-1-(4-(((E)-2-hydroxy-5-methylbenzylidene)amino)phenyl)ethan-1-one 
O-methyl oxime
;
_cell_volume   1454.942
_exptl_crystal_density_diffrn 1.289
_diffrn_ambient_temperature 296
#These two values have been output from a single CSD field.
_refine_ls_R_factor_gt 0.0672
_refine_ls_wR_factor_gt 0.0672
_symmetry_cell_setting monoclinic
_symmetry_space_group_name_H-M 'P 21/c'
_symmetry_Int_Tables_number 14
loop_
_symmetry_equiv_pos_site_id
_symmetry_equiv_pos_as_xyz
1 x,y,z
2 -x,1/2+y,1/2-z
3 -x,-y,-z
4 x,-1/2-y,-1/2+z
_cell_length_a 33.536(6)
_cell_length_b 7.0566(10)
_cell_length_c 6.1491(10)
_cell_angle_alpha 90
_cell_angle_beta 91.048(5)
_cell_angle_gamma 90
_cell_formula_units_Z 4
loop_
_atom_type_symbol
_atom_type_radius_bond
C 0.68
H 0.23
N 0.68
O 0.68
loop_
_atom_site_label
_atom_site_type_symbol
_atom_site_fract_x
_atom_site_fract_y
_atom_site_fract_z
C1 C 0.95780(9) 0.5644(4) 0.6769(5)
H1 H 0.94940 0.59510 0.53100
H2 H 0.97380 0.45170 0.67550
H3 H 0.97320 0.66730 0.73680
C2 C 0.92159(8) 0.5315(4) 0.8142(5)
C3 C 0.92576(8) 0.4614(4) 1.0274(5)
H4 H 0.95120 0.43790 1.08360
C4 C 0.89317(9) 0.4263(4) 1.1564(5)
H5 H 0.89690 0.38080 1.29710
C5 C 0.85451(8) 0.4594(4) 1.0748(4)
C6 C 0.84919(8) 0.5251(4) 0.8590(4)
C7 C 0.88313(8) 0.5626(4) 0.7346(4)
H6 H 0.87970 0.60990 0.59440
C8 C 0.80954(8) 0.5434(4) 0.7598(4)
H7 H 0.80690 0.57750 0.61420
C9 C 0.73938(8) 0.5115(4) 0.7737(4)
C10 C 0.70825(8) 0.5849(4) 0.8945(4)
H8 H 0.71340 0.63590 1.03160
C11 C 0.66963(8) 0.5824(4) 0.8115(4)
H9 H 0.64920 0.63520 0.89200
C12 C 0.66069(8) 0.5012(4) 0.6072(4)
C13 C 0.69205(8) 0.4245(4) 0.4899(4)
H10 H 0.68670 0.36880 0.35540
C14 C 0.73118(8) 0.4297(4) 0.5701(4)
H11 H 0.75170 0.37920 0.48890
C15 C 0.61809(8) 0.4948(4) 0.5283(4)
C16 C 0.60732(9) 0.4619(4) 0.2926(5)
H12 H 0.58930 0.35660 0.28060
H13 H 0.63100 0.43460 0.21330
H14 H 0.59480 0.57330 0.23360
C17 C 0.52729(9) 0.5371(5) 0.7733(5)
H15 H 0.53070 0.43100 0.86950
H16 H 0.50010 0.54260 0.72230
H17 H 0.53380 0.65190 0.84970
N1 N 0.77815(6) 0.5128(3) 0.8721(4)
N2 N 0.59276(7) 0.5218(3) 0.6784(4)
O1 O 0.82324(6) 0.4246(3) 1.2059(3)
H18 H 0.80230 0.44600 1.13920
O2 O 0.55292(6) 0.5162(3) 0.5928(3)
#END
