
#######################################################################
#
#                 Cambridge Crystallographic Data Centre
#                                CCDC
#
#######################################################################
#
# If this CIF has been generated from an entry in the Cambridge
# Structural Database, then it will include bibliographic, chemical,
# crystal, experimental, refinement or atomic coordinate data resulting
# from the CCDC's data processing and validation procedures.
#
#######################################################################

data_CSD_CIF_PIXTOH
_audit_creation_date 2013-12-13
_audit_creation_method CSD-ConQuest-V1
_database_code_CSD PIXTOH
_database_code_depnum_ccdc_archive 'CCDC 974343'
_chemical_formula_sum 'C39 H38 N4 O8'
_chemical_formula_moiety
;
C39 H38 N4 O8
;
_journal_coeditor_code "IUCr im2440"
_journal_coden_Cambridge 1370
_journal_volume 70
_journal_year 2014
_journal_page_first o38
_journal_name_full 'Acta Crystallogr.,Sect.E:Struct.Rep.Online '
loop_
_publ_author_name
"T.Anuradha"
"J.Naga Siva Rao"
"P.R.Seshadri"
"R.Raghunathan"
_chemical_name_systematic
;
6a-Nitro-6-(2,2,7,7-tetramethyltetrahydro-3aH-bis[1,3]dioxolo[4,5-b:4',5'-d]py
ran-5-yl)-6a,6b,7,8,9,11a-hexahydro-6H-spiro[chromeno[3,4-a]pyrrolizine-11,11'
-indeno[1,2-b]quinoxaline]
;
_cell_volume   3434.097
_exptl_crystal_colour 'colorless'
_exptl_crystal_density_diffrn 1.336
_exptl_crystal_description 'block'
_diffrn_ambient_temperature 293
#These two values have been output from a single CSD field.
_refine_ls_R_factor_gt 0.0499
_refine_ls_wR_factor_gt 0.0499
_symmetry_cell_setting orthorhombic
_symmetry_space_group_name_H-M 'P 21 21 21'
_symmetry_Int_Tables_number 19
loop_
_symmetry_equiv_pos_site_id
_symmetry_equiv_pos_as_xyz
1 x,y,z
2 1/2-x,-y,1/2+z
3 -x,1/2+y,1/2-z
4 1/2+x,1/2-y,-z
_cell_length_a 11.3150(9)
_cell_length_b 15.629(2)
_cell_length_c 19.419(2)
_cell_angle_alpha 90
_cell_angle_beta 90
_cell_angle_gamma 90
_cell_formula_units_Z 4
loop_
_atom_type_symbol
_atom_type_radius_bond
C 0.68
H 0.23
N 0.68
O 0.68
loop_
_atom_site_label
_atom_site_type_symbol
_atom_site_fract_x
_atom_site_fract_y
_atom_site_fract_z
O1 O 0.03697(19) 0.83284(16) -0.00002(10)
O2 O -0.1751(2) 0.73787(18) 0.04849(14)
O3 O -0.3060(2) 0.8322(2) 0.07234(15)
O4 O 0.00221(19) 0.73589(14) 0.16455(9)
O5 O -0.0801(2) 0.60162(17) 0.15228(13)
O6 O 0.0907(2) 0.55340(17) 0.10693(13)
O7 O 0.2843(2) 0.68893(18) 0.20258(12)
O8 O 0.23002(19) 0.81048(15) 0.14967(12)
N1 N 0.0704(3) 1.2133(2) 0.11551(13)
N2 N 0.0858(2) 1.03075(19) 0.13143(14)
N3 N -0.1654(2) 0.98556(18) 0.16878(13)
N4 N -0.2032(3) 0.8083(2) 0.06782(14)
C1 C -0.2053(3) 1.1070(2) 0.08517(16)
C2 C -0.3219(3) 1.1091(3) 0.06145(19)
H1 H -0.36670 1.05930 0.05870
C3 C -0.3687(4) 1.1872(3) 0.0422(2)
H2 H -0.44600 1.18930 0.02610
C4 C -0.3057(4) 1.2611(3) 0.0460(2)
H3 H -0.34070 1.31270 0.03370
C5 C -0.1888(4) 1.2597(3) 0.06840(18)
H4 H -0.14430 1.30960 0.07050
C6 C -0.1408(3) 1.1816(2) 0.08745(15)
C7 C -0.0190(3) 1.1607(2) 0.10770(15)
C8 C 0.1751(3) 1.1725(3) 0.13211(17)
C9 C 0.2774(4) 1.2228(3) 0.1405(2)
H5 H 0.27390 1.28180 0.13460
C10 C 0.3812(4) 1.1847(4) 0.1572(2)
H6 H 0.44820 1.21820 0.16370
C11 C 0.3893(4) 1.0961(4) 0.1649(3)
H7 H 0.46140 1.07120 0.17600
C12 C 0.2919(3) 1.0457(3) 0.1562(2)
H8 H 0.29770 0.98670 0.16100
C13 C 0.1827(3) 1.0838(3) 0.13974(18)
C14 C -0.0112(3) 1.0707(2) 0.11541(15)
C15 C -0.1313(3) 1.0280(2) 0.10405(15)
C16 C -0.2921(3) 0.9806(3) 0.18833(17)
H9 H -0.34130 0.96530 0.14930
H10 H -0.31980 1.03410 0.20780
C17 C -0.2893(3) 0.9102(3) 0.24158(18)
H11 H -0.36630 0.88340 0.24570
H12 H -0.26640 0.93270 0.28620
C18 C -0.1979(3) 0.8461(3) 0.21548(16)
H13 H -0.23590 0.79920 0.19140
H14 H -0.15200 0.82300 0.25340
C19 C -0.1189(3) 0.8974(2) 0.16643(14)
H15 H -0.03910 0.89830 0.18590
C20 C -0.1080(3) 0.8724(2) 0.08846(15)
C21 C 0.0170(3) 0.8386(2) 0.07265(14)
H16 H 0.07350 0.88030 0.09110
C22 C 0.0241(3) 0.9087(2) -0.03512(15)
C23 C 0.0911(3) 0.9177(3) -0.09451(17)
H17 H 0.14340 0.87490 -0.10780
C24 C 0.0793(4) 0.9897(3) -0.13301(18)
H18 H 0.12430 0.99650 -0.17270
C25 C 0.0006(4) 1.0533(3) -0.11346(18)
H19 H -0.00680 1.10260 -0.13990
C26 C -0.0667(3) 1.0433(2) -0.05465(16)
H20 H -0.12010 1.08570 -0.04210
C27 C -0.0553(3) 0.9703(2) -0.01397(14)
C28 C -0.1323(3) 0.9566(2) 0.04885(15)
H21 H -0.21380 0.95280 0.03200
C29 C 0.0536(3) 0.7508(2) 0.09899(15)
H22 H 0.02580 0.70700 0.06670
C30 C 0.0092(3) 0.6504(2) 0.18407(17)
H23 H -0.00120 0.64680 0.23410
C31 C -0.0300(3) 0.5300(3) 0.1170(2)
C32 C 0.1236(3) 0.6036(2) 0.16469(18)
H24 H 0.14890 0.56650 0.20260
C33 C 0.2250(3) 0.6609(2) 0.14226(18)
H25 H 0.27960 0.62880 0.11290
C34 C 0.3182(3) 0.7751(3) 0.19214(18)
C35 C 0.1876(3) 0.7440(2) 0.10601(16)
H26 H 0.22510 0.74790 0.06060
C36 C -0.0875(4) 0.5211(3) 0.0485(2)
H27 H -0.16880 0.50530 0.05450
H28 H -0.04760 0.47760 0.02240
H29 H -0.08310 0.57450 0.02430
C37 C -0.0398(4) 0.4515(3) 0.1621(2)
H30 H -0.12150 0.43700 0.16810
H31 H -0.00480 0.46310 0.20610
H32 H 0.00080 0.40470 0.14060
C38 C 0.4382(3) 0.7814(3) 0.1578(2)
H33 H 0.45870 0.84050 0.15170
H34 H 0.43540 0.75360 0.11370
H35 H 0.49650 0.75410 0.18620
C39 C 0.3150(4) 0.8192(3) 0.2610(2)
H36 H 0.33770 0.87800 0.25550
H37 H 0.36890 0.79140 0.29200
H38 H 0.23640 0.81640 0.27950
#END
