
#######################################################################
#
#                 Cambridge Crystallographic Data Centre
#                                CCDC
#
#######################################################################
#
# If this CIF has been generated from an entry in the Cambridge
# Structural Database, then it will include bibliographic, chemical,
# crystal, experimental, refinement or atomic coordinate data resulting
# from the CCDC's data processing and validation procedures.
#
#######################################################################

data_CSD_CIF_POBKAU
_audit_creation_date 2014-05-22
_audit_creation_method CSD-ConQuest-V1
_database_code_CSD POBKAU
_database_code_depnum_ccdc_archive 'CCDC 953446'
_chemical_formula_sum 'C14 H27 N2 O2'
_chemical_formula_moiety
;
C14 H27 N2 O2
;
_journal_coden_Cambridge 177
_journal_volume 12
_journal_year 2014
_journal_page_first 4491
_journal_name_full 'Org.Biomol.Chem. '
loop_
_publ_author_name
"M.Kavala"
"V.Brezova"
"L.Svorc"
"Z.Vihonska"
"P.Olejnikova"
"Jan Moncol"
"J.Kozisek"
"P.Herich"
"P.Szolcsanyi"
_chemical_name_systematic
;
N-(1-oxy-2,2,6,6-tetramethylpiperidin-4-yl)-2,2-dimethylpropanamide
;
_cell_volume   3359.236
_exptl_crystal_colour 'orange'
_exptl_crystal_density_diffrn 1.01
_exptl_crystal_description 'plate'
_diffrn_ambient_temperature 293
_refine_special_details
;
C12A,C13A,C14A and C12B,C13B,C14B and C12C,C13C,C14C disordered over three 
sites with occupancies 0.620000:0.220000:0.160000.
;
#These two values have been output from a single CSD field.
_refine_ls_R_factor_gt 0.0507
_refine_ls_wR_factor_gt 0.0507
_symmetry_cell_setting orthorhombic
_symmetry_space_group_name_H-M 'P b c a'
_symmetry_Int_Tables_number 61
loop_
_symmetry_equiv_pos_site_id
_symmetry_equiv_pos_as_xyz
1 x,y,z
2 1/2+x,1/2-y,-z
3 -x,1/2+y,1/2-z
4 1/2-x,-y,1/2+z
5 -x,-y,-z
6 -1/2-x,-1/2+y,z
7 x,-1/2-y,-1/2+z
8 -1/2+x,y,-1/2-z
_cell_length_a 11.7026(4)
_cell_length_b 9.9471(3)
_cell_length_c 28.8577(12)
_cell_angle_alpha 90
_cell_angle_beta 90
_cell_angle_gamma 90
_cell_formula_units_Z 8
loop_
_atom_type_symbol
_atom_type_radius_bond
C 0.68
H 0.23
N 0.68
O 0.68
loop_
_atom_site_label
_atom_site_type_symbol
_atom_site_fract_x
_atom_site_fract_y
_atom_site_fract_z
O1 O 0.09670(9) 0.22903(14) 0.51631(4)
O2 O -0.29386(12) 0.43413(10) 0.66288(5)
C1 C 0.05812(13) 0.24403(16) 0.59585(6)
C2 C -0.03663(14) 0.20677(18) 0.62985(6)
H1 H -0.03941(14) 0.10969(18) 0.63281(6)
H2 H -0.01802(14) 0.24357(18) 0.66005(6)
C3 C -0.15320(13) 0.25692(14) 0.61562(6)
H3 H -0.14995(13) 0.35478(14) 0.61193(6)
C4 C -0.18319(12) 0.19451(15) 0.56964(6)
H4 H -0.18313(12) 0.09746(15) 0.57292(6)
H5 H -0.25990(12) 0.22187(15) 0.56109(6)
C5 C -0.10121(11) 0.23346(15) 0.53081(5)
C6 C 0.16118(15) 0.1527(2) 0.60400(7)
H6 H 0.1400(4) 0.0610(3) 0.5981(5)
H7 H 0.2220(5) 0.1781(10) 0.5835(4)
H8 H 0.1863(9) 0.1615(12) 0.63552(17)
C7 C 0.09259(17) 0.3915(2) 0.60062(7)
H9 H 0.1452(10) 0.4146(5) 0.5764(3)
H10 H 0.0259(2) 0.4472(2) 0.5983(5)
H11 H 0.1284(12) 0.4054(4) 0.6302(2)
C8 C -0.11672(15) 0.1379(2) 0.49015(6)
H12 H -0.0651(8) 0.1624(9) 0.46571(19)
H13 H -0.1009(11) 0.0476(3) 0.49999(13)
H14 H -0.1939(3) 0.1434(10) 0.4791(3)
C9 C -0.12214(15) 0.37724(17) 0.51462(7)
H15 H -0.1142(11) 0.4376(2) 0.54038(11)
H16 H -0.0675(7) 0.4003(5) 0.4911(3)
H17 H -0.1980(4) 0.3844(3) 0.5022(4)
C10 C -0.30296(14) 0.31457(14) 0.67151(6)
C11 C -0.39063(19) 0.26291(17) 0.70641(8)
C12 C -0.3296(4) 0.1801(6) 0.74542(15)
H18 H -0.2923(4) 0.2405(6) 0.76651(15)
H19 H -0.3851(4) 0.1276(6) 0.76192(15)
H20 H -0.2739(4) 0.1214(6) 0.73172(15)
C13 C -0.4595(5) 0.3754(4) 0.7273(2)
H21 H -0.4590(5) 0.4512(4) 0.7068(2)
H22 H -0.5367(5) 0.3458(4) 0.7321(2)
H23 H -0.4266(5) 0.4008(4) 0.7565(2)
C14 C -0.4693(4) 0.1579(5) 0.68303(18)
H24 H -0.5187(4) 0.2022(5) 0.66127(18)
H25 H -0.4235(4) 0.0926(5) 0.66709(18)
H26 H -0.5146(4) 0.1138(5) 0.70622(18)
N1 N 0.01908(10) 0.21990(13) 0.54756(4)
N2 N -0.23816(13) 0.22442(12) 0.65076(5)
H27 H -0.24655(13) 0.14146(12) 0.65842(5)
C15? C -0.3660(15) 0.1263(11) 0.7246(5)
H28? H -0.3193(15) 0.0783(11) 0.7029(5)
H29? H -0.3264(15) 0.1336(11) 0.7537(5)
H30? H -0.4365(15) 0.0787(11) 0.7292(5)
C16? C -0.3883(13) 0.3754(14) 0.7437(5)
H31? H -0.4049(13) 0.4604(14) 0.7294(5)
H32? H -0.4446(13) 0.3566(14) 0.7670(5)
H33? H -0.3140(13) 0.3788(14) 0.7577(5)
C17? C -0.5030(7) 0.2697(16) 0.6776(4)
H34? H -0.5145(7) 0.3599(16) 0.6668(4)
H35? H -0.4974(7) 0.2100(16) 0.6516(4)
H36? H -0.5663(7) 0.2435(16) 0.6967(4)
C18? C -0.3313(14) 0.294(2) 0.7530(3)
H37? H -0.3269(14) 0.390(2) 0.7572(3)
H38? H -0.3746(14) 0.256(2) 0.7779(3)
H39? H -0.2556(14) 0.257(2) 0.7529(3)
C19? C -0.4958(13) 0.354(2) 0.6986(7)
H40? H -0.4715(13) 0.438(2) 0.6854(7)
H41? H -0.5481(13) 0.311(2) 0.6778(7)
H42? H -0.5331(13) 0.371(2) 0.7277(7)
C20? C -0.4142(18) 0.1152(11) 0.6982(10)
H43? H -0.4626(18) 0.1052(11) 0.6715(10)
H44? H -0.3434(18) 0.0688(11) 0.6929(10)
H45? H -0.4515(18) 0.0777(11) 0.7248(10)
#END
