
#######################################################################
#
#                 Cambridge Crystallographic Data Centre
#                                CCDC
#
#######################################################################
#
# If this CIF has been generated from an entry in the Cambridge
# Structural Database, then it will include bibliographic, chemical,
# crystal, experimental, refinement or atomic coordinate data resulting
# from the CCDC's data processing and validation procedures.
#
#######################################################################

data_CSD_CIF_POHHEA
_audit_creation_date 2009-03-09
_audit_creation_method CSD-ConQuest-V1
_database_code_CSD POHHEA
_database_code_depnum_ccdc_archive 'CCDC 688759'
_chemical_formula_sum 'C21 H15 N5 O2'
_chemical_formula_moiety
;
C21 H15 N5 O2
;
_journal_coden_Cambridge 177
_journal_volume 6
_journal_year 2008
_journal_page_first 3616
_journal_name_full 'Org.Biomol.Chem. '
loop_
_publ_author_name
"Xiao-Yang Guan"
"Min Shi"
_chemical_name_systematic
;
2-Amino-4,6-diphenyl-1,3,3-tricyano-5-nitrocyclohexene
;
_chemical_melting_point 435.15
_cell_volume   1874.781
_exptl_crystal_colour 'colorless'
_exptl_crystal_density_diffrn 1.309
_exptl_special_details
;
Melting point range 435.15-437.15K
P21/c as given in the cif, not P21/n as published
;
_exptl_crystal_description 'prismatic'
_diffrn_ambient_temperature 293
#These two values have been output from a single CSD field.
_refine_ls_R_factor_gt 0.0561
_refine_ls_wR_factor_gt 0.0561
_symmetry_cell_setting monoclinic
_symmetry_space_group_name_H-M 'P 21/n'
_symmetry_Int_Tables_number 14
loop_
_symmetry_equiv_pos_site_id
_symmetry_equiv_pos_as_xyz
1 x,y,z
2 1/2-x,1/2+y,1/2-z
3 -x,-y,-z
4 -1/2+x,-1/2-y,-1/2+z
_cell_length_a 13.2254(13)
_cell_length_b 11.3377(12)
_cell_length_c 14.1441(15)
_cell_angle_alpha 90
_cell_angle_beta 117.874(2)
_cell_angle_gamma 90
_cell_formula_units_Z 4
loop_
_atom_type_symbol
_atom_type_radius_bond
C 0.68
H 0.23
N 0.68
O 0.68
loop_
_atom_site_label
_atom_site_type_symbol
_atom_site_fract_x
_atom_site_fract_y
_atom_site_fract_z
N1 N 0.22827(16) 0.42903(16) 0.30156(15)
N2 N 0.45894(16) 0.15244(17) 0.32992(15)
N3 N 0.12857(16) 0.17565(17) 0.15552(16)
N4 N 0.03163(15) 0.04085(16) -0.09619(14)
N5 N 0.44638(16) 0.34339(15) 0.02372(16)
O1 O 0.54836(13) 0.34564(15) 0.08301(14)
O2 O 0.39940(15) 0.38957(15) -0.06346(14)
C1 C 0.35623(15) 0.36552(15) 0.14026(14)
H1 H 0.43240 0.38690 0.19680
C2 C 0.29821(15) 0.29178(16) 0.19520(14)
C3 C 0.19992(14) 0.21311(15) 0.11763(14)
C4 C 0.19105(15) 0.18441(15) 0.02152(14)
C5 C 0.26623(15) 0.23041(16) -0.02535(14)
H2 H 0.22550 0.29400 -0.07580
C6 C 0.37486(15) 0.28042(16) 0.06516(14)
H3 H 0.42000 0.21380 0.10850
C7 C 0.25873(16) 0.37094(17) 0.25460(15)
C8 C 0.38710(17) 0.21198(18) 0.27366(16)
C9 C 0.10235(17) 0.10492(17) -0.04405(15)
C10 C 0.29652(17) 0.47996(16) 0.09029(15)
C11 C 0.17974(18) 0.48957(18) 0.02456(16)
H4 H 0.13350 0.42310 0.00910
C12 C 0.1316(2) 0.5976(2) -0.01808(18)
H5 H 0.05320 0.60330 -0.06250
C13 C 0.1989(3) 0.6968(2) 0.0047(2)
H6 H 0.16610 0.76940 -0.02360
C14 C 0.3143(3) 0.6879(2) 0.0693(2)
H7 H 0.35990 0.75490 0.08480
C15 C 0.3635(2) 0.58071(18) 0.11149(17)
H8 H 0.44220 0.57560 0.15450
C16 C 0.29476(16) 0.13400(17) -0.08442(15)
C17 C 0.33217(18) 0.02514(18) -0.03902(18)
H9 H 0.33780 0.00870 0.02770
C18 C 0.3615(2) -0.0603(2) -0.0915(2)
H10 H 0.38680 -0.13380 -0.05990
C19 C 0.3536(2) -0.0376(2) -0.1893(2)
H11 H 0.37400 -0.09500 -0.22420
C20 C 0.3159(2) 0.0696(3) -0.2355(2)
H12 H 0.31020 0.08510 -0.30240
C21 C 0.2859(2) 0.1553(2) -0.18413(17)
H13 H 0.25960 0.22810 -0.21680
H14 H 0.0835(16) 0.1160(18) 0.1231(16)
H15 H 0.1458(17) 0.1846(19) 0.2230(18)
#END
