
#######################################################################
#
#                 Cambridge Crystallographic Data Centre
#                                CCDC
#
#######################################################################
#
# If this CIF has been generated from an entry in the Cambridge
# Structural Database, then it will include bibliographic, chemical,
# crystal, experimental, refinement or atomic coordinate data resulting
# from the CCDC's data processing and validation procedures.
#
#######################################################################

data_CSD_CIF_POJJOO
_audit_creation_date 2009-03-09
_audit_creation_method CSD-ConQuest-V1
_database_code_CSD POJJOO
_database_code_depnum_ccdc_archive 'CCDC 671318'
_chemical_formula_sum 'C16 H23 N1 O3'
_chemical_formula_moiety
;
C16 H23 N1 O3
;
_journal_coden_Cambridge 24
_journal_volume 49
_journal_year 2008
_journal_page_first 6134
_journal_name_full 'Tetrahedron Lett. '
loop_
_publ_author_name
"H.S.P.Rao"
"S.Rafi"
_chemical_name_systematic
;
trans-cis-2-(3,4-Dimethoxyphenyl)octahydro-1H-cyclopenta(b)pyridin-1-ol
;
_cell_volume   3027.543
_exptl_crystal_colour 'colorless'
_exptl_crystal_density_diffrn 1.217
_exptl_crystal_description 'block'
_diffrn_ambient_temperature 290
#These two values have been output from a single CSD field.
_refine_ls_R_factor_gt 0.0487
_refine_ls_wR_factor_gt 0.0487
_symmetry_cell_setting orthorhombic
_symmetry_space_group_name_H-M 'P b c a'
_symmetry_Int_Tables_number 61
loop_
_symmetry_equiv_pos_site_id
_symmetry_equiv_pos_as_xyz
1 x,y,z
2 1/2-x,-y,1/2+z
3 -x,1/2+y,1/2-z
4 1/2+x,1/2-y,-z
5 -x,-y,-z
6 -1/2+x,y,-1/2-z
7 x,-1/2-y,-1/2+z
8 -1/2-x,-1/2+y,z
_cell_length_a 15.065(7)
_cell_length_b 8.539(4)
_cell_length_c 23.535(11)
_cell_angle_alpha 90
_cell_angle_beta 90
_cell_angle_gamma 90
_cell_formula_units_Z 8
loop_
_atom_type_symbol
_atom_type_radius_bond
C 0.68
H 0.23
N 0.68
O 0.68
loop_
_atom_site_label
_atom_site_type_symbol
_atom_site_fract_x
_atom_site_fract_y
_atom_site_fract_z
O1 O 0.53506(10) 0.70981(17) 0.62041(6)
H1 H 0.55920 0.76730 0.59710
C1 C 0.43992(16) 1.2795(2) 0.52744(9)
H2 H 0.39860 1.29280 0.55810
H3 H 0.45030 1.37860 0.50940
H4 H 0.49490 1.23920 0.54200
C2 C 0.57600(14) 0.7794(3) 0.73895(9)
H5 H 0.59610 0.88300 0.72800
H6 H 0.62030 0.70300 0.72770
C3 C 0.55838(15) 0.7713(3) 0.80290(9)
H7 H 0.58370 0.86170 0.82180
H8 H 0.58470 0.67750 0.81890
O2 O 0.40437(9) 1.17254(14) 0.48716(5)
O3 O 0.31925(9) 1.00500(16) 0.41430(5)
N1 N 0.47344(10) 0.80057(18) 0.65459(6)
C4 C 0.39753(12) 0.9678(2) 0.55897(7)
H9 H 0.42870 1.02850 0.58500
C5 C 0.37991(11) 1.0269(2) 0.50581(7)
C6 C 0.36932(12) 0.8178(2) 0.57439(8)
C7 C 0.30499(13) 0.7893(2) 0.48138(8)
H10 H 0.27350 0.72870 0.45550
C8 C 0.33303(12) 0.9363(2) 0.46630(8)
C9 C 0.38411(13) 0.7576(2) 0.63403(8)
H11 H 0.37940 0.64310 0.63350
C10 C 0.32322(13) 0.7303(2) 0.53506(8)
H12 H 0.30400 0.63030 0.54460
C11 C 0.48639(12) 0.7423(2) 0.71226(8)
H13 H 0.47770 0.62850 0.71240
C12 C 0.31304(13) 0.8223(3) 0.67399(8)
H14 H 0.25530 0.78590 0.66140
H15 H 0.31320 0.93570 0.67170
C13 C 0.42059(13) 0.8162(2) 0.75262(8)
H16 H 0.42660 0.93010 0.74920
C14 C 0.25487(17) 0.9342(3) 0.37845(9)
H17 H 0.27410 0.83070 0.36830
H18 H 0.24790 0.99590 0.34470
H19 H 0.19920 0.92810 0.39810
C15 C 0.32662(13) 0.7737(3) 0.73594(8)
H20 H 0.28460 0.82780 0.76020
H21 H 0.31740 0.66190 0.74010
C16 C 0.45729(15) 0.7687(3) 0.81058(9)
H22 H 0.43700 0.66480 0.82110
H23 H 0.43900 0.84240 0.83970
#END
