
#######################################################################
#
#                 Cambridge Crystallographic Data Centre
#                                CCDC
#
#######################################################################
#
# If this CIF has been generated from an entry in the Cambridge
# Structural Database, then it will include bibliographic, chemical,
# crystal, experimental, refinement or atomic coordinate data resulting
# from the CCDC's data processing and validation procedures.
#
#######################################################################

data_CSD_CIF_POKPEK
_audit_creation_date 1995-06-12
_audit_creation_method CSD-ConQuest-V1
_database_code_CSD POKPEK
_chemical_formula_sum 'C19 H25 N1 O8'
_chemical_formula_moiety
;
C19 H25 N1 O8
;
_journal_coden_Cambridge 35
_journal_volume 59
_journal_year 1994
_journal_page_first 355
_journal_name_full 'J.Org.Chem. '
loop_
_publ_author_name
"K.F.McClure"
"S.J.Danishefsky"
"G.K.Schulte"
_chemical_name_systematic
;
3,4-Isopropylidenedioxy-9-methoxycarbonyl-3,7-dimethoxy-6-hydroxymethyl-1,5-ep
oxy-benzazocine
;
_chemical_melting_point 435.15
_cell_volume   1964.970
_exptl_crystal_colour 'colorless'
_exptl_special_details
;
Melting point range 435.15-436.15K

;
_diffrn_ambient_temperature ?
_diffrn_special_details
;
The study was carried out at room temperature,in the range 283-303K

;
_symmetry_cell_setting monoclinic
_symmetry_space_group_name_H-M 'P 21/n'
_symmetry_Int_Tables_number 14
loop_
_symmetry_equiv_pos_site_id
_symmetry_equiv_pos_as_xyz
1 x,y,z
2 1/2-x,1/2+y,1/2-z
3 -x,-y,-z
4 -1/2+x,-1/2-y,-1/2+z
_cell_length_a 11.176(2)
_cell_length_b 12.518(3)
_cell_length_c 14.466(2)
_cell_angle_alpha 90
_cell_angle_beta 103.85(1)
_cell_angle_gamma 90
_cell_formula_units_Z 4
loop_
_atom_type_symbol
_atom_type_radius_bond
C 0.68
H 0.23
N 0.68
O 0.68
loop_
_atom_site_label
_atom_site_type_symbol
_atom_site_fract_x
_atom_site_fract_y
_atom_site_fract_z
O1 O 0.95875(29) 0.29967(26) 0.77520(22)
O2 O 0.92195(32) 0.47537(27) 0.78511(24)
O3 O 0.95219(39) 0.56651(29) 0.62385(30)
O4 O 0.75284(34) 0.37245(29) 0.44520(23)
O5 O 0.62595(32) 0.21816(28) 0.70376(25)
O6 O 0.64388(32) 0.39704(29) 0.71758(27)
O7 O 0.78196(48) -0.02411(36) 0.3624(3)
O8 O 0.85330(36) -0.09813(29) 0.50422(26)
N1 N 0.91668(35) 0.19503(31) 0.74139(26)
C1 C 0.86954(41) 0.19332(39) 0.63975(31)
C2 C 0.86407(43) 0.09446(38) 0.59579(34)
C3 C 0.81986(44) 0.08717(42) 0.49769(35)
C4 C 0.78195(47) 0.17993(45) 0.44515(33)
C5 C 0.78903(45) 0.27781(41) 0.48929(34)
C6 C 0.83519(42) 0.28641(38) 0.58869(32)
C7 C 0.84864(45) 0.39480(39) 0.63657(34)
C8 C 0.86659(44) 0.38155(37) 0.74316(33)
C9 C 0.75133(46) 0.35509(40) 0.77954(32)
C10 C 0.71967(47) 0.23603(40) 0.78610(35)
C11 C 0.82755(50) 0.16040(39) 0.79574(33)
C12 C 0.81652(48) -0.01586(48) 0.44669(40)
C13 C 0.95837(52) 0.45362(43) 0.61132(39)
C14 C 0.85753(56) -0.19980(47) 0.45925(44)
C15 C 0.72282(54) 0.37586(52) 0.34355(39)
C16 C 0.96556(54) 0.48053(48) 0.88465(39)
C17 C 0.55660(49) 0.31398(46) 0.68646(37)
C18 C 0.45754(52) 0.31688(51) 0.74213(45)
C19 C 0.50177(58) 0.32503(59) 0.57974(44)
H1 H 0.89130 0.03150 0.63300
H2 H 0.75050 0.17390 0.37760
H3 H 0.77430 0.43660 0.61150
H4 H 0.76030 0.38650 0.84090
H5 H 0.68440 0.22730 0.83980
H6 H 0.79700 0.09090 0.77350
H7 H 0.86900 0.15420 0.86160
H8 H 0.96440 0.43680 0.54900
H9 H 1.03450 0.42710 0.65500
H10 H 0.77850 -0.22030 0.42290
H11 H 0.91420 -0.19880 0.42000
H12 H 0.88490 -0.25390 0.50810
H13 H 0.69970 0.44680 0.32380
H14 H 0.79450 0.35660 0.32240
H15 H 0.65850 0.32820 0.31950
H16 H 0.89550 0.46950 0.91300
H17 H 1.02360 0.42690 0.90640
H18 H 0.99820 0.54890 0.90290
H19 H 0.41580 0.38390 0.73220
H20 H 0.39960 0.26110 0.72130
H21 H 0.49400 0.30830 0.80810
H22 H 0.45570 0.38940 0.56890
H23 H 0.56630 0.32690 0.54810
H24 H 0.44940 0.26600 0.55870
#END
