
#######################################################################
#
#                 Cambridge Crystallographic Data Centre
#                                CCDC
#
#######################################################################
#
# If this CIF has been generated from an entry in the Cambridge
# Structural Database, then it will include bibliographic, chemical,
# crystal, experimental, refinement or atomic coordinate data resulting
# from the CCDC's data processing and validation procedures.
#
#######################################################################

data_CSD_CIF_PONKAE
_audit_creation_date 1995-11-06
_audit_creation_method CSD-ConQuest-V1
_database_code_CSD PONKAE
_chemical_formula_sum 'C17 H14 N2 O6'
_chemical_formula_moiety
;
C17 H14 N2 O6
;
_journal_coden_Cambridge 4
_journal_volume 116
_journal_year 1994
_journal_page_first 9345
_journal_name_full 'J.Am.Chem.Soc. '
loop_
_publ_author_name
"E.J.Corey"
"S.A.Rao"
"M.C.Noe"
_chemical_name_systematic
;
1-Methyl-2-phenylcyclopropyl 3,5-dinitrobenzoate
;
_chemical_melting_point 423.15
_cell_volume   1583.505
_exptl_crystal_colour 'orange'
_exptl_crystal_density_diffrn 1.436
_exptl_special_details
;
Melting point range 423.15-424.15K

;
_diffrn_ambient_temperature ?
_diffrn_special_details
;
The study was carried out at room temperature,in the range 283-303K

;
#These two values have been output from a single CSD field.
_refine_ls_R_factor_gt 0.0552
_refine_ls_wR_factor_gt 0.0552
_symmetry_cell_setting monoclinic
_symmetry_space_group_name_H-M 'P 21/n'
_symmetry_Int_Tables_number 14
loop_
_symmetry_equiv_pos_site_id
_symmetry_equiv_pos_as_xyz
1 x,y,z
2 1/2-x,1/2+y,1/2-z
3 -x,-y,-z
4 -1/2+x,-1/2-y,-1/2+z
_cell_length_a 10.119
_cell_length_b 15.299
_cell_length_c 10.321
_cell_angle_alpha 90
_cell_angle_beta 97.67
_cell_angle_gamma 90
_cell_formula_units_Z 4
loop_
_atom_type_symbol
_atom_type_radius_bond
C 0.68
H 0.23
N 0.68
O 0.68
loop_
_atom_site_label
_atom_site_type_symbol
_atom_site_fract_x
_atom_site_fract_y
_atom_site_fract_z
C1 C 0.2465(4) 1.1786(3) 0.4966(3)
C2 C 0.2662(4) 1.2616(3) 0.5457(4)
C3 C 0.2267(4) 1.3330(3) 0.4703(4)
C4 C 0.1658(4) 1.3210(2) 0.3447(4)
C5 C 0.1458(4) 1.2378(2) 0.2941(4)
C6 C 0.1885(3) 1.1645(2) 0.3689(3)
C7 C 0.1779(4) 1.0731(2) 0.3166(3)
C8 C 0.1222(4) 1.0519(2) 0.1784(3)
C9 C 0.0487(3) 1.0248(2) 0.2845(3)
C10 C -0.0817(4) 1.0625(3) 0.3097(4)
C11 C 0.0015(3) 0.8781(2) 0.2270(3)
C12 C 0.0177(3) 0.7847(2) 0.2691(3)
C13 C -0.0335(3) 0.7225(2) 0.1773(3)
C14 C -0.0248(3) 0.6359(2) 0.2121(3)
C15 C 0.0307(3) 0.6076(2) 0.3342(3)
C16 C 0.0794(3) 0.6709(2) 0.4217(3)
C17 C 0.0751(3) 0.7589(2) 0.3922(3)
N1 N -0.0795(3) 0.5702(3) 0.1139(4)
N2 N 0.1355(3) 0.6433(2) 0.5547(3)
O1 O 0.0595(2) 0.9336(1) 0.3184(2)
O2 O -0.0566(3) 0.8999(2) 0.1236(2)
O3 O -0.1466(3) 0.5965(2) 0.0150(3)
O4 O -0.0542(3) 0.4938(2) 0.1394(3)
O5 O 0.1364(3) 0.5648(2) 0.5795(3)
O6 O 0.1769(3) 0.6995(2) 0.6330(2)
H1 H 0.27250 1.12940 0.55210
H2 H 0.30850 1.26980 0.63380
H3 H 0.24130 1.39090 0.50470
H4 H 0.13680 1.37070 0.29150
H5 H 0.10250 1.23030 0.20630
H6 H 0.25100 1.03620 0.35130
H7 H 0.08620 1.09900 0.12300
H8 H 0.16600 1.00710 0.13490
H9 H -0.15160 1.02150 0.28280
H10 H -0.07900 1.07450 0.40130
H11 H -0.09840 1.11580 0.26100
H12 H -0.07410 0.73970 0.09160
#END
