
#######################################################################
#
#                 Cambridge Crystallographic Data Centre
#                                CCDC
#
#######################################################################
#
# If this CIF has been generated from an entry in the Cambridge
# Structural Database, then it will include bibliographic, chemical,
# crystal, experimental, refinement or atomic coordinate data resulting
# from the CCDC's data processing and validation procedures.
#
#######################################################################

data_CSD_CIF_PORFUZ
_audit_creation_date 2014-10-27
_audit_creation_method CSD-ConQuest-V1
_database_code_CSD PORFUZ
_database_code_depnum_ccdc_archive 'CCDC 1031244'
_chemical_formula_sum 'C10 H8 N2 O3'
_chemical_formula_moiety
;
C10 H8 N2 O3
;
_journal_coden_Cambridge 1500
_journal_volume 5
_journal_year 2015
_journal_page_first 32835
_journal_name_full 'RSC Advances '
loop_
_publ_author_name
"Jingjing Zhao"
"Pan Li"
"Chungu Xia"
"Fuwei Li"
_chemical_name_systematic
;
7-Methyl-3-nitroquinoline 1-oxide
;
_cell_volume    940.731
_exptl_crystal_colour 'yellow'
_exptl_crystal_density_diffrn 1.442
_exptl_crystal_description 'block'
_diffrn_ambient_temperature 296
#These two values have been output from a single CSD field.
_refine_ls_R_factor_gt 0.1825
_refine_ls_wR_factor_gt 0.1825
_symmetry_cell_setting orthorhombic
_symmetry_space_group_name_H-M 'P c a 21'
_symmetry_Int_Tables_number 29
loop_
_symmetry_equiv_pos_site_id
_symmetry_equiv_pos_as_xyz
1 x,y,z
2 -x,-y,1/2+z
3 1/2+x,-y,z
4 1/2-x,y,1/2+z
_cell_length_a 20.775(7)
_cell_length_b 6.040(2)
_cell_length_c 7.497(3)
_cell_angle_alpha 90
_cell_angle_beta 90
_cell_angle_gamma 90
_cell_formula_units_Z 4
loop_
_atom_type_symbol
_atom_type_radius_bond
C 0.68
H 0.23
N 0.68
O 0.68
loop_
_atom_site_label
_atom_site_type_symbol
_atom_site_fract_x
_atom_site_fract_y
_atom_site_fract_z
C1 C 0.1704(7) 0.3876(15) 0.7288(17)
H1 H 0.13250 0.46130 0.75770
C2 C 0.1683(6) 0.1791(19) 0.6474(15)
C3 C 0.2215(7) 0.058(2) 0.5975(19)
H2 H 0.21940 -0.08050 0.54390
C4 C 0.2839(3) 0.1776(11) 0.6402(8)
C5 C 0.3413(4) 0.0717(12) 0.5985(11)
H3 H 0.34070 -0.06750 0.54550
C6 C 0.3998(3) 0.1737(18) 0.6361(15)
H4 H 0.43820 0.10280 0.60820
C7 C 0.4007(3) 0.3817(17) 0.7154(16)
C8 C 0.3433(5) 0.4877(12) 0.7570(15)
H5 H 0.34390 0.62680 0.81010
C9 C 0.2848(3) 0.3856(11) 0.7195(11)
C10 C 0.4687(8) 0.450(3) 0.755(3)
H6 H 0.49770 0.33610 0.71520
H7 H 0.47370 0.47020 0.88140
H8 H 0.47820 0.58560 0.69450
N1 N 0.2293(5) 0.4826(18) 0.7657(15)
N2 N 0.1011(8) 0.0776(16) 0.6162(19)
O1 O 0.1051(5) -0.136(2) 0.549(2)
O2 O 0.0573(5) 0.154(3) 0.649(3)
O3 O 0.2323(6) 0.635(2) 0.8427(19)
#END
