
#######################################################################
#
#                 Cambridge Crystallographic Data Centre
#                                CCDC
#
#######################################################################
#
# If this CIF has been generated from an entry in the Cambridge
# Structural Database, then it will include bibliographic, chemical,
# crystal, experimental, refinement or atomic coordinate data resulting
# from the CCDC's data processing and validation procedures.
#
#######################################################################

data_CSD_CIF_POZPAW
_audit_creation_date 2009-12-22
_audit_creation_method CSD-ConQuest-V1
_database_code_CSD POZPAW
_database_code_depnum_ccdc_archive 'CCDC 695999'
_chemical_formula_sum 'C13 H17 N1 O2'
_chemical_formula_moiety
;
C13 H17 N1 O2
;
_journal_coden_Cambridge 1336
_journal_volume 10
_journal_year 2008
_journal_page_first 2333
_journal_name_full 'Org.Lett. '
loop_
_publ_author_name
"Fong Tian Wong"
"P.K.Patra"
"J.Seayad"
"Yugen Zhang"
"J.Y.Ying"
_chemical_name_systematic
;
N-Hydroxy-N-phenylcyclohexanecarboxamide
;
_cell_volume   1149.829
_exptl_crystal_density_diffrn 1.267
_diffrn_ambient_temperature 223
#These two values have been output from a single CSD field.
_refine_ls_R_factor_gt 0.0459
_refine_ls_wR_factor_gt 0.0459
_symmetry_cell_setting orthorhombic
_symmetry_space_group_name_H-M 'P 21 21 21'
_symmetry_Int_Tables_number 19
loop_
_symmetry_equiv_pos_site_id
_symmetry_equiv_pos_as_xyz
1 x,y,z
2 1/2-x,-y,1/2+z
3 -x,1/2+y,1/2-z
4 1/2+x,1/2-y,-z
_cell_length_a 5.5011(5)
_cell_length_b 6.6715(6)
_cell_length_c 31.330(3)
_cell_angle_alpha 90
_cell_angle_beta 90
_cell_angle_gamma 90
_cell_formula_units_Z 4
loop_
_atom_type_symbol
_atom_type_radius_bond
C 0.68
H 0.23
N 0.68
O 0.68
loop_
_atom_site_label
_atom_site_type_symbol
_atom_site_fract_x
_atom_site_fract_y
_atom_site_fract_z
O1 O 0.6173(2) 0.4801(2) 0.9038(1)
O2 O 1.1995(2) 0.5651(2) 0.8654(1)
N1 N 1.0029(2) 0.5797(2) 0.8937(1)
C1 C 1.0053(3) 0.7522(2) 0.9207(1)
C2 C 1.1787(3) 0.8996(3) 0.9141(1)
C3 C 1.1832(4) 1.0681(3) 0.9398(1)
C4 C 1.0177(4) 1.0911(3) 0.9722(1)
C5 C 0.8483(4) 0.9438(3) 0.9794(1)
C6 C 0.8404(3) 0.7724(3) 0.9543(1)
C7 C 0.8109(3) 0.4592(2) 0.8848(1)
C8 C 0.8437(3) 0.3020(2) 0.8503(1)
C9 C 0.8047(4) 0.3948(3) 0.8061(1)
C10 C 0.8343(4) 0.2371(3) 0.7713(1)
C11 C 0.6657(4) 0.0606(3) 0.7784(1)
C12 C 0.7011(4) -0.0302(3) 0.8226(1)
C13 C 0.6692(3) 0.1272(2) 0.8572(1)
H1 H 1.32280 0.52960 0.87870
H2 H 1.29370 0.88510 0.89220
H3 H 1.30070 1.16780 0.93500
H4 H 1.02030 1.20680 0.98930
H5 H 0.73580 0.95920 1.00170
H6 H 0.72560 0.67140 0.95980
H7 H 1.01220 0.25040 0.85180
H8 H 0.64130 0.45280 0.80450
H9 H 0.92270 0.50280 0.80160
H10 H 0.79960 0.29770 0.74350
H11 H 1.00300 0.18980 0.77100
H12 H 0.69730 -0.04170 0.75670
H13 H 0.49680 0.10490 0.77530
H14 H 0.58280 -0.13820 0.82690
H15 H 0.86440 -0.08820 0.82460
H16 H 0.69990 0.06670 0.88520
H17 H 0.50140 0.17650 0.85690
#END
