
#######################################################################
#
#                 Cambridge Crystallographic Data Centre
#                                CCDC
#
#######################################################################
#
# If this CIF has been generated from an entry in the Cambridge
# Structural Database, then it will include bibliographic, chemical,
# crystal, experimental, refinement or atomic coordinate data resulting
# from the CCDC's data processing and validation procedures.
#
#######################################################################

data_CSD_CIF_PUBLUT
_audit_creation_date 1998-11-26
_audit_creation_method CSD-ConQuest-V1
_database_code_CSD PUBLUT
_database_code_depnum_ccdc_archive 'CCDC 117773'
_chemical_formula_sum 'C14 H18 N8 O8'
_chemical_formula_moiety
;
C14 H18 N8 O8
;
_journal_coden_Cambridge 16
_journal_volume 54
_journal_year 1998
_journal_page_first 11793
_journal_name_full 'Tetrahedron '
loop_
_publ_author_name
"A.T.Nielsen"
"A.P.Chafin"
"S.L.Christian"
"D.W.Moore"
"M.P.Nadler"
"R.A.Nissan"
"D.J.Vanderah"
"R.D.Gilardi"
"C.F.George"
"J.L.Flippen-Anderson"
_chemical_name_systematic
;
4,10-Dinitro-2,6,8,12-tetra-acetyl-2,4,6,8,10,12-hexa-azatetracyclo(5.5.0.0^5,
9^.0^3,11^)dodecane
;
_chemical_name_common
;
Dinitrotetra-acetylhexa-azaisowurtzitane
;
_chemical_melting_point 586
_cell_volume   1795.038
_exptl_crystal_colour 'colorless'
_exptl_crystal_density_diffrn 1.578
_exptl_special_details
;
Melting point range 586-588K

;
_exptl_crystal_description 'parallelepiped'
_exptl_crystal_preparation 'acetonitrile'
_diffrn_ambient_temperature ?
_diffrn_special_details
;
The study was carried out at room temperature,in the range 283-303K

;
_refine_special_details
;
One methyl group is disordered.

;
#These two values have been output from a single CSD field.
_refine_ls_R_factor_gt 0.0492
_refine_ls_wR_factor_gt 0.0492
_symmetry_cell_setting monoclinic
_symmetry_space_group_name_H-M 'P 21/n'
_symmetry_Int_Tables_number 14
loop_
_symmetry_equiv_pos_site_id
_symmetry_equiv_pos_as_xyz
1 x,y,z
2 1/2-x,1/2+y,1/2-z
3 -x,-y,-z
4 -1/2+x,-1/2-y,-1/2+z
_cell_length_a 11.241(2)
_cell_length_b 14.221(3)
_cell_length_c 11.491(2)
_cell_angle_alpha 90
_cell_angle_beta 102.26(3)
_cell_angle_gamma 90
_cell_formula_units_Z 4
loop_
_atom_type_symbol
_atom_type_radius_bond
C 0.68
H 0.23
N 0.68
O 0.68
loop_
_atom_site_label
_atom_site_type_symbol
_atom_site_fract_x
_atom_site_fract_y
_atom_site_fract_z
C1 C -0.0408(3) 0.5749(3) 0.7620(3)
H1 H -0.1049(3) 0.5343(3) 0.7802(3)
N1 N 0.0368(3) 0.5239(2) 0.6968(3)
C2 C 0.0923(4) 0.5917(3) 0.6311(4)
H2 H 0.0985(4) 0.5663(3) 0.5534(4)
N2 N 0.2102(3) 0.6249(2) 0.6958(3)
C3 C 0.2151(3) 0.6630(3) 0.8143(4)
H3 H 0.2983(3) 0.6819(3) 0.8518(4)
N3 N 0.1649(3) 0.6001(2) 0.8919(3)
C4 C 0.0362(3) 0.6220(3) 0.8783(4)
H4 H 0.0061(3) 0.6035(3) 0.9490(4)
N4 N 0.0378(3) 0.7241(2) 0.8658(3)
C5 C 0.1266(3) 0.7503(3) 0.7975(4)
H5 H 0.1696(3) 0.8080(3) 0.8286(4)
N5 N 0.0635(3) 0.7616(2) 0.6722(3)
C6 C 0.0035(3) 0.6771(3) 0.6157(4)
H6 H -0.0308(3) 0.6886(3) 0.5311(4)
N6 N -0.0905(3) 0.6461(2) 0.6756(3)
C7 C 0.0525(4) 0.4302(3) 0.6889(4)
O1 O 0.1178(3) 0.4004(2) 0.6246(3)
C8 C -0.0100(5) 0.3665(3) 0.7593(5)
H7 H -0.0964(5) 0.3758(18) 0.7364(23)
H8 H 0.0170(25) 0.3801(17) 0.8426(5)
H9 H 0.0091(27) 0.3024(3) 0.7445(26)
N7 N 0.3150(4) 0.5828(3) 0.6705(4)
O2 O 0.3036(3) 0.5428(3) 0.5763(4)
O3 O 0.4092(3) 0.5961(3) 0.7430(4)
C9 C 0.2271(4) 0.5564(3) 0.9931(4)
O4 O 0.1694(3) 0.5190(2) 1.0584(3)
C10 C 0.3602(3) 0.5553(3) 1.0165(4)
H10 H 0.3865(3) 0.5454(35) 0.9432(8)
H11 H 0.3904(4) 0.5053(22) 1.0710(34)
H12 H 0.3912(4) 0.6143(13) 1.0507(41)
C11 C -0.0376(4) 0.7811(3) 0.9112(4)
O5 O -0.1098(4) 0.7487(2) 0.9649(4)
C12 C -0.0276(5) 0.8832(3) 0.8866(5)
H13 H 0.0549(9) 0.9034(7) 0.9152(30)
H14 H -0.0806(26) 0.9180(4) 0.9263(28)
H15 H -0.0508(32) 0.8940(5) 0.8023(6)
N8 N 0.1260(3) 0.8143(3) 0.6006(4)
O6 O 0.1965(3) 0.8734(3) 0.6517(3)
O7 O 0.0989(3) 0.8014(3) 0.4935(3)
C13 C -0.2082(4) 0.6772(3) 0.6414(4)
O8 O -0.2330(3) 0.7370(2) 0.5639(3)
C14 C -0.2986(4) 0.6362(4) 0.7051(5)
H16 H -0.3756(9) 0.6672(17) 0.6794(23)
H17 H -0.2705(15) 0.6447(21) 0.7893(5)
H18 H -0.3078(23) 0.5702(6) 0.6874(24)
H19? H 0.3922(3) 0.5646(35) 1.1001(8)
H20? H 0.3883(4) 0.6047(22) 0.9722(34)
H21? H 0.3875(3) 0.4957(13) 0.9926(41)
#END
