
#######################################################################
#
#                 Cambridge Crystallographic Data Centre
#                                CCDC
#
#######################################################################
#
# If this CIF has been generated from an entry in the Cambridge
# Structural Database, then it will include bibliographic, chemical,
# crystal, experimental, refinement or atomic coordinate data resulting
# from the CCDC's data processing and validation procedures.
#
#######################################################################

data_CSD_CIF_PXZNOD
_audit_creation_date 1978-03-30
_audit_creation_method CSD-ConQuest-V1
_database_code_CSD PXZNOD
_chemical_formula_sum 'C15 H16 N2 O3'
_chemical_formula_moiety
;
C15 H16 N2 O3
;
_journal_coden_Cambridge 207
_journal_year 1977
_journal_page_first 2521
_journal_name_full 'J.Chem.Soc.,Perkin Trans.1 '
loop_
_publ_author_name
"W.S.Murphy"
"K.P.Raman"
"B.J.Hathaway"
_chemical_name_systematic
;
9-Ethoxycarbonyl-8-phenyl-7-oxa-8,9-diazabicyclo(4.2.1)nona-2,4-diene
;
_chemical_melting_point 388.15
_cell_volume   1429.740
_exptl_crystal_density_diffrn 1.264
_exptl_special_details
;
Melting point range 388.15-389.15K

;
_diffrn_ambient_temperature ?
_diffrn_special_details
;
The study was carried out at room temperature,in the range 283-303K

;
#These two values have been output from a single CSD field.
_refine_ls_R_factor_gt 0.0665
_refine_ls_wR_factor_gt 0.0665
_symmetry_cell_setting monoclinic
_symmetry_space_group_name_H-M 'C c'
_symmetry_Int_Tables_number 9
loop_
_symmetry_equiv_pos_site_id
_symmetry_equiv_pos_as_xyz
1 x,y,z
2 1/2+x,1/2+y,z
3 x,-y,1/2+z
4 1/2+x,1/2-y,1/2+z
_cell_length_a 17.01(7)
_cell_length_b 10.18(5)
_cell_length_c 8.54(5)
_cell_angle_alpha 90
_cell_angle_beta 104.8(1)
_cell_angle_gamma 90
_cell_formula_units_Z 4
loop_
_atom_type_symbol
_atom_type_radius_bond
C 0.68
H 0.23
N 0.68
O 0.68
loop_
_atom_site_label
_atom_site_type_symbol
_atom_site_fract_x
_atom_site_fract_y
_atom_site_fract_z
C1 C 0.42690 -0.40700 -0.28900
C2 C 0.35260 -0.47520 -0.26220
C3 C 0.29490 -0.42270 -0.19640
C4 C 0.28780 -0.29490 -0.12470
C5 C 0.34230 -0.20140 -0.09740
C6 C 0.42160 -0.21310 -0.13740
O1 O 0.46860 -0.32160 -0.03490
N1 N 0.49440 -0.41370 -0.13690
N2 N 0.41400 -0.26220 -0.30060
C7 C 0.43930 -0.18480 -0.41370
O2 O 0.44730 -0.25590 -0.53840
O3 O 0.44600 -0.06760 -0.40070
C8 C 0.47460 -0.18580 -0.66250
C9 C 0.56270 -0.15740 -0.61670
C10 C 0.57550 -0.38100 -0.16020
C11 C 0.62160 -0.28260 -0.07330
C12 C 0.70080 -0.26200 -0.09450
C13 C 0.72960 -0.33890 -0.19890
C14 C 0.68290 -0.43890 -0.28410
C15 C 0.60640 -0.46080 -0.26160
H1 H 0.43940 -0.45150 -0.39430
H2 H 0.34390 -0.57670 -0.29920
H3 H 0.24560 -0.48890 -0.19400
H4 H 0.23020 -0.27260 -0.09900
H5 H 0.32860 -0.11270 -0.04020
H6 H 0.45070 -0.11830 -0.11350
H7 H 0.46230 -0.24370 -0.76500
H8 H 0.44730 -0.09180 -0.67770
H9 H 0.57900 -0.10310 -0.71040
H10 H 0.58700 -0.24870 -0.59540
H11 H 0.57190 -0.09670 -0.50810
H12 H 0.59730 -0.22040 0.00550
H13 H 0.74080 -0.18990 -0.02230
H14 H 0.78850 -0.31830 -0.21930
H15 H 0.70540 -0.49860 -0.36780
H16 H 0.56930 -0.54060 -0.32320
#END
