
#######################################################################
#
#                 Cambridge Crystallographic Data Centre
#                                CCDC
#
#######################################################################
#
# If this CIF has been generated from an entry in the Cambridge
# Structural Database, then it will include bibliographic, chemical,
# crystal, experimental, refinement or atomic coordinate data resulting
# from the CCDC's data processing and validation procedures.
#
#######################################################################

data_CSD_CIF_QAGLAM
_audit_creation_date 2003-05-06
_audit_creation_method CSD-ConQuest-V1
_database_code_CSD QAGLAM
_database_code_depnum_ccdc_archive 'CCDC 186903'
_chemical_formula_sum 'C19 H21 N1 O1'
_chemical_formula_moiety
;
C19 H21 N1 O1
;
_journal_coden_Cambridge 35
_journal_volume 68
_journal_year 2003
_journal_page_first 1207
_journal_name_full 'J.Org.Chem. '
loop_
_publ_author_name
"M.C.Whisler"
"P.Beak"
_chemical_name_systematic
;
(5S)-1-Benzyl-5-phenyl-hexahydrocyclopenta(c)isoxazole
;
_chemical_melting_point 328.15
_cell_volume    758.303
_exptl_crystal_colour 'colorless'
_exptl_crystal_density_diffrn 1.223
_exptl_special_details
;
Melting point range 328.15-330.15K
Absolute configuration

;
_exptl_crystal_description 'tabular'
_exptl_crystal_preparation 'ethanol'
_diffrn_ambient_temperature 193
#These two values have been output from a single CSD field.
_refine_ls_R_factor_gt 0.0396
_refine_ls_wR_factor_gt 0.0396
_symmetry_cell_setting monoclinic
_symmetry_space_group_name_H-M 'P 21'
_symmetry_Int_Tables_number 4
loop_
_symmetry_equiv_pos_site_id
_symmetry_equiv_pos_as_xyz
1 x,y,z
2 -x,1/2+y,-z
_cell_length_a 6.042(3)
_cell_length_b 8.346(4)
_cell_length_c 15.178(7)
_cell_angle_alpha 90
_cell_angle_beta 97.794(9)
_cell_angle_gamma 90
_cell_formula_units_Z 2
loop_
_atom_type_symbol
_atom_type_radius_bond
C 0.68
H 0.23
N 0.68
O 0.68
loop_
_atom_site_label
_atom_site_type_symbol
_atom_site_fract_x
_atom_site_fract_y
_atom_site_fract_z
O1 O 0.5805(2) 0.12003(17) 0.53082(9)
N1 N 0.8089(3) 0.0606(2) 0.54249(12)
C1 C 0.7802(3) -0.0064(2) 0.38310(14)
C2 C 0.6229(4) 0.3106(3) 0.97719(15)
H1 H 0.50010 0.31570 1.01010
C3 C 0.9756(4) 0.2953(3) 0.88038(16)
H2 H 1.09850 0.29150 0.84750
C4 C 0.8241(3) -0.0686(2) 0.47671(14)
H3 H 0.71410 -0.15330 0.48490
H4 H 0.97500 -0.11700 0.48700
C5 C 0.6223(4) 0.1996(3) 0.90942(15)
H5 H 0.49920 0.12860 0.89690
C6 C 0.7984(3) 0.1897(3) 0.85916(14)
C7 C 0.8332(3) -0.0045(3) 0.63308(14)
H6 H 0.93960 -0.09680 0.63880
C8 C 0.5982(4) -0.0597(2) 0.65146(14)
H7 H 0.58990 -0.17910 0.65500
C9 C 0.9057(3) 0.1217(3) 0.70468(14)
H8 H 1.07040 0.12380 0.71950
H9 H 0.85320 0.22960 0.68440
C10 C 0.7959(3) 0.0685(3) 0.78471(14)
H10 H 0.87530 -0.02980 0.81000
C11 C 0.8002(4) 0.4138(3) 0.99715(16)
H11 H 0.80120 0.48950 1.04390
C12 C 0.9044(4) 0.1315(3) 0.25927(16)
H12 H 1.01850 0.18670 0.23430
C13 C 0.5639(4) 0.0180(3) 0.74045(14)
H13 H 0.46440 0.11230 0.73030
H14 H 0.49640 -0.05960 0.77840
C14 C 0.9768(4) 0.4057(3) 0.94826(16)
H15 H 1.09990 0.47650 0.96140
C15 C 0.5761(4) -0.0299(3) 0.33145(15)
H16 H 0.46190 -0.08610 0.35590
C16 C 0.5340(4) 0.0262(3) 0.24525(16)
H17 H 0.39250 0.00890 0.21090
C17 C 0.9445(4) 0.0757(3) 0.34538(15)
H18 H 1.08620 0.09350 0.37950
C18 C 0.6993(5) 0.1074(3) 0.20936(16)
H19 H 0.67160 0.14690 0.15020
C19 C 0.4489(3) 0.0030(3) 0.57046(14)
H20 H 0.40360 -0.08510 0.52810
H21 H 0.31280 0.05300 0.58800
#END
