
#######################################################################
#
#                 Cambridge Crystallographic Data Centre
#                                CCDC
#
#######################################################################
#
# If this CIF has been generated from an entry in the Cambridge
# Structural Database, then it will include bibliographic, chemical,
# crystal, experimental, refinement or atomic coordinate data resulting
# from the CCDC's data processing and validation procedures.
#
#######################################################################

data_CSD_CIF_QALCUB
_audit_creation_date 2001-03-02
_audit_creation_method CSD-ConQuest-V1
_database_code_CSD QALCUB
_database_code_depnum_ccdc_archive 'CCDC 141624'
_chemical_formula_sum 'C14 H19 N2 O3'
_chemical_formula_moiety
;
C14 H19 N2 O3
;
_journal_coden_Cambridge 1291
_journal_year 2000
_journal_page_first 3347
_journal_name_full 'Eur.J.Org.Chem. '
loop_
_publ_author_name
"R.Endtner"
"E.Rentschler"
"D.Blaser"
"R.Boese"
"R.Sustmann"
_chemical_name_systematic
;
4,4,5,5-Tetramethyl-2-(m-(hydroxymethyl)phenyl)-3-oxylimidazoline 1-oxide
;
_chemical_melting_point 378.15
_cell_volume   1387.144
_exptl_crystal_colour 'dark blue'
_exptl_crystal_density_diffrn 1.261
_exptl_crystal_description 'plate'
_exptl_crystal_preparation 'diethyl ether'
_diffrn_ambient_temperature ?
_diffrn_special_details
;
The study was carried out at room temperature,in the range 283-303K

;
_refine_special_details
;
The hydroxymethyl group is disordered over two sites with occupancies of 
0.6:0.4.
;
#These two values have been output from a single CSD field.
_refine_ls_R_factor_gt 0.0554
_refine_ls_wR_factor_gt 0.0554
_symmetry_cell_setting orthorhombic
_symmetry_space_group_name_H-M 'P 21 21 21'
_symmetry_Int_Tables_number 19
loop_
_symmetry_equiv_pos_site_id
_symmetry_equiv_pos_as_xyz
1 x,y,z
2 1/2-x,-y,1/2+z
3 -x,1/2+y,1/2-z
4 1/2+x,1/2-y,-z
_cell_length_a 7.0311(4)
_cell_length_b 10.9230(7)
_cell_length_c 18.0616(11)
_cell_angle_alpha 90
_cell_angle_beta 90
_cell_angle_gamma 90
_cell_formula_units_Z 4
loop_
_atom_type_symbol
_atom_type_radius_bond
C 0.68
H 0.23
N 0.68
O 0.68
loop_
_atom_site_label
_atom_site_type_symbol
_atom_site_fract_x
_atom_site_fract_y
_atom_site_fract_z
N1 N 0.2981(3) 0.24212(18) 0.18805(11)
N2 N 0.0931(2) 0.11277(17) 0.14186(10)
O1 O 0.3896(3) 0.33983(17) 0.20201(13)
O2 O -0.0353(2) 0.06571(17) 0.1006(1)
C1 C 0.1569(3) 0.2284(2) 0.13780(12)
C2 C 0.3551(3) 0.1220(2) 0.22195(14)
C3 C 0.1714(3) 0.0467(2) 0.20779(14)
C4 C 0.5264(3) 0.0772(3) 0.17831(16)
H1 H 0.49240 0.06430 0.12740
H2 H 0.57080 0.00180 0.19940
H3 H 0.62530 0.13760 0.18120
C5 C 0.4061(4) 0.1386(3) 0.30273(16)
H4 H 0.52300 0.18360 0.30660
H5 H 0.42070 0.06020 0.32610
H6 H 0.30610 0.18330 0.32680
C6 C 0.0238(4) 0.0608(3) 0.26900(18)
H7 H 0.00090 0.14620 0.27760
H8 H 0.06820 0.02330 0.31390
H9 H -0.09220 0.02200 0.25360
C7 C 0.2048(5) -0.0867(2) 0.1896(2)
H10 H 0.08960 -0.12250 0.17100
H11 H 0.24260 -0.12830 0.23400
H12 H 0.30340 -0.09420 0.15310
C8 C 0.0794(3) 0.3266(2) 0.09142(13)
C9 C 0.1913(3) 0.4262(2) 0.07098(14)
H13 H 0.32450 0.42750 0.08270
C10 C 0.1111(4) 0.5241(3) 0.03314(14)
C11 C -0.0807(5) 0.5214(3) 0.01691(15)
H14 H -0.13640 0.59100 -0.00730
C12 C -0.1912(4) 0.4223(3) 0.03476(16)
H15 H -0.32360 0.42200 0.02180
C13 C -0.1132(4) 0.3245(3) 0.07179(14)
H16 H -0.19050 0.25490 0.08390
O3 O 0.2765(8) 0.6531(4) -0.0597(3)
H17 H 0.39150 0.64550 -0.06550
C14 C 0.2331(6) 0.6337(3) 0.0131(2)
H18 H 0.34920 0.62670 0.04070
H19 H 0.16840 0.70550 0.03060
O4? O 0.4021(10) 0.6186(6) 0.0019(4)
H20? H 0.42610 0.54530 0.00450
C15? C 0.2331(6) 0.6337(3) 0.0131(2)
H21? H 0.22430 0.69000 0.05370
H22? H 0.17960 0.67350 -0.02950
#END
