
#######################################################################
#
#                 Cambridge Crystallographic Data Centre
#                                CCDC
#
#######################################################################
#
# If this CIF has been generated from an entry in the Cambridge
# Structural Database, then it will include bibliographic, chemical,
# crystal, experimental, refinement or atomic coordinate data resulting
# from the CCDC's data processing and validation procedures.
#
#######################################################################

data_CSD_CIF_QATHUP
_audit_creation_date 2005-10-28
_audit_creation_method CSD-ConQuest-V1
_database_code_CSD QATHUP
_database_code_depnum_ccdc_archive 'CCDC 263632'
_chemical_formula_sum 'C18 H22 N4 O2'
_chemical_formula_moiety
;
C18 H22 N4 O2
;
_journal_coden_Cambridge 10
_journal_volume 88
_journal_year 2005
_journal_page_first 1421
_journal_name_full 'Helv.Chim.Acta '
loop_
_publ_author_name
"M.Christl"
"S.Lesch"
"S.Deuerlein"
"D.Stalke"
_chemical_name_systematic
;
2,3,4,5-Tetramethyl-N-(1-methyl-2-((4-nitrophenyl)imino)propylidene)-1H-pyrrol
-1-amine
;
_chemical_melting_point 441.15
_cell_volume   3415.983
_exptl_crystal_colour 'orange'
_exptl_crystal_density_diffrn 1.269
_exptl_special_details
;
Melting point range 441.15-445.15K

;
_exptl_crystal_description 'block'
_exptl_crystal_preparation 'diethyl ether'
_diffrn_ambient_temperature 100
#These two values have been output from a single CSD field.
_refine_ls_R_factor_gt 0.0404
_refine_ls_wR_factor_gt 0.0404
_symmetry_cell_setting orthorhombic
_symmetry_space_group_name_H-M 'P b c a'
_symmetry_Int_Tables_number 61
loop_
_symmetry_equiv_pos_site_id
_symmetry_equiv_pos_as_xyz
1 x,y,z
2 1/2-x,-y,1/2+z
3 -x,1/2+y,1/2-z
4 1/2+x,1/2-y,-z
5 -x,-y,-z
6 -1/2+x,y,-1/2-z
7 x,-1/2-y,-1/2+z
8 -1/2-x,-1/2+y,z
_cell_length_a 15.3012(10)
_cell_length_b 14.4327(9)
_cell_length_c 15.4683(10)
_cell_angle_alpha 90
_cell_angle_beta 90
_cell_angle_gamma 90
_cell_formula_units_Z 8
loop_
_atom_type_symbol
_atom_type_radius_bond
C 0.68
H 0.23
N 0.68
O 0.68
loop_
_atom_site_label
_atom_site_type_symbol
_atom_site_fract_x
_atom_site_fract_y
_atom_site_fract_z
O1 O 1.14676(6) 0.76729(7) 0.48734(6)
O2 O 1.20634(6) 0.68767(7) 0.59027(6)
N1 N 1.14387(7) 0.70713(8) 0.54369(7)
N2 N 0.54632(6) 0.45825(7) 0.67379(7)
N3 N 0.83217(7) 0.50508(7) 0.58424(7)
N4 N 0.62465(6) 0.50952(7) 0.67343(7)
C1 C 0.76959(7) 0.53298(8) 0.63202(8)
C2 C 0.69086(8) 0.38483(9) 0.58298(8)
H1 H 0.63230 0.35730 0.58300
H2 H 0.73220 0.34190 0.61010
H3 H 0.70910 0.39710 0.52330
C3 C 1.05994(8) 0.58300(9) 0.61334(8)
H4 H 1.11040 0.56680 0.64570
C4 C 0.98285(8) 0.53397(9) 0.62315(8)
H5 H 0.98050 0.48300 0.66190
C5 C 0.68927(7) 0.47366(8) 0.63256(7)
C6 C 0.90888(8) 0.55898(8) 0.57651(8)
C7 C 1.06207(8) 0.65599(8) 0.55550(8)
C8 C 0.40347(8) 0.43688(9) 0.66543(8)
C9 C 0.52976(8) 0.37665(8) 0.71815(8)
C10 C 0.98937(9) 0.68212(9) 0.50829(9)
H6 H 0.99240 0.73260 0.46900
C11 C 0.91231(8) 0.63363(9) 0.51924(9)
H7 H 0.86160 0.65110 0.48780
C12 C 0.76956(9) 0.62040(9) 0.68427(9)
H8 H 0.82990 0.64130 0.69300
H9 H 0.74220 0.60870 0.74050
H10 H 0.73660 0.66840 0.65350
C13 C 0.44096(8) 0.36226(8) 0.71319(8)
C14 C 0.39178(9) 0.28607(9) 0.75765(9)
H11 H 0.42390 0.22770 0.75140
H12 H 0.33380 0.27970 0.73140
H13 H 0.38550 0.30100 0.81910
C15 C 0.59746(9) 0.32708(9) 0.76948(9)
H14 H 0.61640 0.36630 0.81770
H15 H 0.64770 0.31300 0.73240
H16 H 0.57290 0.26930 0.79210
C16 C 0.47058(8) 0.58615(9) 0.59559(9)
H17 H 0.49260 0.57570 0.53690
H18 H 0.50870 0.63040 0.62550
H19 H 0.41110 0.61120 0.59270
C17 C 0.46964(8) 0.49684(9) 0.64381(8)
C18 C 0.30882(8) 0.44671(10) 0.64121(9)
H20 H 0.29870 0.50850 0.61690
H21 H 0.27240 0.43850 0.69280
H22 H 0.29360 0.39960 0.59820
#END
