
#######################################################################
#
#                 Cambridge Crystallographic Data Centre
#                                CCDC
#
#######################################################################
#
# If this CIF has been generated from an entry in the Cambridge
# Structural Database, then it will include bibliographic, chemical,
# crystal, experimental, refinement or atomic coordinate data resulting
# from the CCDC's data processing and validation procedures.
#
#######################################################################

data_CSD_CIF_QAXDOI
_audit_creation_date 2001-04-25
_audit_creation_method CSD-ConQuest-V1
_database_code_CSD QAXDOI
_chemical_formula_sum 'C8 H10 N2 O3'
_chemical_formula_moiety
;
C8 H10 N2 O3
;
_journal_coden_Cambridge 151
_journal_volume 42
_journal_year 1999
_journal_page_first 5402
_journal_name_full 'J.Med.Chem. '
loop_
_publ_author_name
"E.Falch"
"J.Perregaard"
"B.Frolund"
"B.Sokilde"
"A.Buur"
"L.M.Hansen"
"K.Frydenvang"
"L.Brehm"
"T.Bolvig"
"O.M.Larsson"
"C.Sanchez"
"H.S.White"
"A.Schousboe"
"P.Krogsgaard-Larsen"
_chemical_name_systematic
;
(E)-4-(Hydroxyimino)-3-methoxy-4,5,6,7-tetrahydro-1,2-benzisoxazole
;
_chemical_melting_point 481.15
_cell_volume    404.764
_exptl_crystal_colour 'colorless'
_exptl_crystal_density_diffrn 1.495
_exptl_special_details
;
Melting point range 481.15-483.15K

;
_exptl_crystal_description 'prism'
_diffrn_ambient_temperature 122
#These two values have been output from a single CSD field.
_refine_ls_R_factor_gt 0.037
_refine_ls_wR_factor_gt 0.037
_symmetry_cell_setting triclinic
_symmetry_space_group_name_H-M 'P -1'
_symmetry_Int_Tables_number 2
loop_
_symmetry_equiv_pos_site_id
_symmetry_equiv_pos_as_xyz
1 x,y,z
2 -x,-y,-z
_cell_length_a 5.0678(3)
_cell_length_b 9.600(1)
_cell_length_c 9.6965(9)
_cell_angle_alpha 116.171(8)
_cell_angle_beta 93.305(7)
_cell_angle_gamma 103.453(8)
_cell_formula_units_Z 2
loop_
_atom_type_symbol
_atom_type_radius_bond
C 0.68
H 0.23
N 0.68
O 0.68
loop_
_atom_site_label
_atom_site_type_symbol
_atom_site_fract_x
_atom_site_fract_y
_atom_site_fract_z
O1 O 1.2793(2) 0.4171(1) 0.5776(1)
N1 N 1.1168(2) 0.2761(1) 0.5811(1)
C1 C 0.9660(2) 0.3308(1) 0.6880(1)
C2 C 1.0190(2) 0.5025(1) 0.7575(1)
C3 C 0.9223(2) 0.6211(1) 0.8824(1)
C4 C 1.0803(2) 0.7952(1) 0.9347(1)
C5 C 1.1759(3) 0.8233(2) 0.7986(1)
C6 C 1.3528(3) 0.7134(2) 0.7113(1)
C7 C 1.2152(2) 0.5469(2) 0.6839(1)
O2 O 0.7840(2) 0.2344(1) 0.7259(1)
C8 C 0.7882(3) 0.0677(2) 0.6533(1)
N2 N 0.7203(2) 0.5697(1) 0.9381(1)
O3 O 0.6481(2) 0.6969(1) 1.0589(1)
H1 H 0.750(3) 0.021(2) 0.541(2)
H2 H 0.972(4) 0.064(2) 0.690(2)
H3 H 0.641(3) 0.014(2) 0.689(2)
H4 H 0.516(4) 0.633(2) 1.088(2)
H5 H 1.240(4) 0.825(2) 1.013(2)
H6 H 0.966(4) 0.866(2) 0.987(2)
H7 H 1.016(3) 0.803(2) 0.724(2)
H8 H 1.282(3) 0.939(2) 0.836(2)
H9 H 1.542(3) 0.755(2) 0.776(2)
H10 H 1.376(3) 0.715(2) 0.610(2)
#END
