
#######################################################################
#
#                 Cambridge Crystallographic Data Centre
#                                CCDC
#
#######################################################################
#
# If this CIF has been generated from an entry in the Cambridge
# Structural Database, then it will include bibliographic, chemical,
# crystal, experimental, refinement or atomic coordinate data resulting
# from the CCDC's data processing and validation procedures.
#
#######################################################################

data_CSD_CIF_QAYQOX
_audit_creation_date 2006-02-15
_audit_creation_method CSD-ConQuest-V1
_database_code_CSD QAYQOX
_database_code_depnum_ccdc_archive 'CCDC 280425'
_chemical_formula_sum 'C11 H14 N2 O2'
_chemical_formula_moiety
;
C11 H14 N2 O2
;
_journal_coeditor_code "IUCr HG6281"
_journal_coden_Cambridge 1370
_journal_volume 62
_journal_year 2006
_journal_page_first o215
_journal_name_full 'Acta Crystallogr.,Sect.E:Struct.Rep.Online '
loop_
_publ_author_name
"K.R.Scott"
"R.J.Butcher"
"C.D.Hanson"
_chemical_name_systematic
;
5-Methyl-3-((5-methylisoxazol-3-yl)amino)cyclohex-2-enone
;
_chemical_melting_point 478
_cell_volume   1096.632
_exptl_crystal_colour 'colorless'
_exptl_crystal_density_diffrn 1.249
_exptl_special_details
;
Melting point range 478-479K
active in maximal electroshock seizure evaluation in mice; displays activity 
in subcutaneous pentylenetetrazole assessment in mice
;
_exptl_crystal_description 'needle'
_exptl_crystal_preparation 'ethyl acetate'
_diffrn_ambient_temperature 293
_refine_special_details
;
Four C atoms of the cyclohexene ring are disordered over two positions, with 
occupancies 0.61:0.39.
;
#These two values have been output from a single CSD field.
_refine_ls_R_factor_gt 0.0523
_refine_ls_wR_factor_gt 0.0523
_symmetry_cell_setting monoclinic
_symmetry_space_group_name_H-M 'P 21/a'
_symmetry_Int_Tables_number 14
loop_
_symmetry_equiv_pos_site_id
_symmetry_equiv_pos_as_xyz
1 x,y,z
2 1/2-x,1/2+y,-z
3 -x,-y,-z
4 -1/2+x,-1/2-y,z
_cell_length_a 11.1239(10)
_cell_length_b 9.0159(7)
_cell_length_c 11.9664(9)
_cell_angle_alpha 90
_cell_angle_beta 113.970(7)
_cell_angle_gamma 90
_cell_formula_units_Z 4
loop_
_atom_type_symbol
_atom_type_radius_bond
C 0.68
H 0.23
N 0.68
O 0.68
loop_
_atom_site_label
_atom_site_type_symbol
_atom_site_fract_x
_atom_site_fract_y
_atom_site_fract_z
O1 O 0.37259(13) 0.51400(16) 0.30704(16)
O2 O 0.35458(14) -0.09121(18) 0.09492(16)
N1 N 0.63076(14) 0.13327(17) 0.24535(15)
H1 H 0.71100 0.10950 0.26170
N2 N 0.41139(17) 0.0427(2) 0.1545(2)
C1 C 0.61190(16) 0.27119(19) 0.28237(16)
C2 C 0.49270(17) 0.3291(2) 0.26277(17)
H2 H 0.41710 0.27660 0.21540
C3 C 0.48032(17) 0.4689(2) 0.31324(18)
C4 C 0.5957(17) 0.5668(18) 0.3687(15)
H3 H 0.62360 0.56660 0.45670
H4 H 0.57010 0.66740 0.34000
C5 C 0.711(2) 0.522(2) 0.340(2)
H5 H 0.68730 0.54350 0.25280
C6 C 0.7355(19) 0.3557(18) 0.3572(13)
H6 H 0.80530 0.32740 0.33250
H7 H 0.76340 0.33110 0.44300
C7 C 0.835(2) 0.611(3) 0.413(3)
H8 H 0.81790 0.71450 0.39340
H9 H 0.90550 0.57850 0.39280
H10 H 0.85780 0.59660 0.49860
C8? C 0.610(3) 0.552(3) 0.391(2)
H11? H 0.59260 0.65750 0.38970
H12? H 0.64240 0.51830 0.47500
C9? C 0.715(3) 0.526(3) 0.342(4)
H13? H 0.68110 0.56470 0.25880
C10? C 0.736(3) 0.360(3) 0.335(2)
H14? H 0.78520 0.34380 0.28480
H15? H 0.78910 0.32290 0.41610
C11? C 0.844(4) 0.606(4) 0.415(5)
H16? H 0.82570 0.70750 0.42700
H17? H 0.89910 0.60240 0.37110
H18? H 0.88760 0.55870 0.49320
C12 C 0.53717(17) 0.0265(2) 0.18471(17)
C13 C 0.5667(2) -0.1127(2) 0.14681(19)
H19 H 0.64890 -0.14930 0.15780
C14 C 0.4500(2) -0.1797(2) 0.09180(18)
C15 C 0.4069(3) -0.3253(3) 0.0312(2)
H20 H 0.47690 -0.36870 0.01490
H21 H 0.33130 -0.31170 -0.04430
H22 H 0.38470 -0.38970 0.08380
#END
