
#######################################################################
#
#                 Cambridge Crystallographic Data Centre
#                                CCDC
#
#######################################################################
#
# If this CIF has been generated from an entry in the Cambridge
# Structural Database, then it will include bibliographic, chemical,
# crystal, experimental, refinement or atomic coordinate data resulting
# from the CCDC's data processing and validation procedures.
#
#######################################################################

data_CSD_CIF_QEBYIF
_audit_creation_date 2001-05-07
_audit_creation_method CSD-ConQuest-V1
_database_code_CSD QEBYIF
_chemical_formula_sum 'C16 H17 N3 O2'
_chemical_formula_moiety
;
C16 H17 N3 O2
;
_journal_coden_Cambridge 35
_journal_volume 64
_journal_year 1999
_journal_page_first 7863
_journal_name_full 'J.Org.Chem. '
loop_
_publ_author_name
"E.Vedejs"
"A.W.Kruger"
"E.Suna"
_chemical_name_systematic
;
1-(5'-Nitro-2'-(methylamino)phenyl)-1,2,3,4-tetrahydroisoquinoline
;
_chemical_melting_point 445.15
_cell_volume   1429.195
_exptl_crystal_colour 'orange'
_exptl_crystal_density_diffrn 1.317
_exptl_special_details
;
Melting point range 445.15-446.65K

;
_exptl_crystal_description 'cubes'
_exptl_crystal_preparation 'benzene/pentane'
_diffrn_ambient_temperature 113
#These two values have been output from a single CSD field.
_refine_ls_R_factor_gt 0.0515
_refine_ls_wR_factor_gt 0.0515
_symmetry_cell_setting orthorhombic
_symmetry_space_group_name_H-M 'P 21 21 21'
_symmetry_Int_Tables_number 19
loop_
_symmetry_equiv_pos_site_id
_symmetry_equiv_pos_as_xyz
1 x,y,z
2 1/2-x,-y,1/2+z
3 1/2+x,1/2-y,-z
4 -x,1/2+y,1/2-z
_cell_length_a 6.8483(9)
_cell_length_b 11.702(4)
_cell_length_c 17.834(3)
_cell_angle_alpha 90
_cell_angle_beta 90
_cell_angle_gamma 90
_cell_formula_units_Z 4
loop_
_atom_type_symbol
_atom_type_radius_bond
C 0.68
H 0.23
N 0.68
O 0.68
loop_
_atom_site_label
_atom_site_type_symbol
_atom_site_fract_x
_atom_site_fract_y
_atom_site_fract_z
N1 N 0.9252(4) 0.9559(2) 0.1425(1)
C1 C 0.9547(5) 0.9320(3) 0.0628(2)
C2 C 1.1566(5) 0.9731(3) 0.0418(2)
C3 C 1.1966(5) 1.0915(3) 0.0707(2)
C4 C 1.3554(5) 1.1531(3) 0.0434(2)
C5 C 1.3910(5) 1.2636(3) 0.0664(2)
C6 C 1.2693(5) 1.3145(3) 0.1184(2)
C7 C 1.1130(5) 1.2540(3) 0.1469(2)
C8 C 1.0754(4) 1.1429(3) 0.1238(2)
C9 C 0.8977(5) 1.0786(2) 0.1546(2)
C10 C 0.8629(4) 1.1033(2) 0.2370(2)
C11 C 0.7013(5) 1.1648(2) 0.2592(2)
C12 C 0.6759(5) 1.1931(3) 0.3341(2)
C13 C 0.8117(5) 1.1633(3) 0.3884(2)
C14 C 0.9738(5) 1.1019(3) 0.3672(2)
C15 C 1.0015(4) 1.0681(2) 0.2924(2)
N2 N 1.1553(4) 1.0033(2) 0.2709(2)
C16 C 1.3024(5) 0.9608(3) 0.3220(2)
N3 N 0.5042(4) 1.2565(2) 0.3557(2)
O1 O 0.4680(4) 1.2711(2) 0.4227(1)
O2 O 0.3978(4) 1.2948(2) 0.3055(1)
H1 H 0.8376(4) 0.9079(2) 0.1601(1)
H2 H 0.8549(5) 0.9723(3) 0.0325(2)
H3 H 0.9428(5) 0.8490(3) 0.0533(2)
H4 H 1.2550(5) 0.9197(3) 0.0625(2)
H5 H 1.1697(5) 0.9727(3) -0.0135(2)
H6 H 1.4408(5) 1.1183(3) 0.0082(2)
H7 H 1.4989(5) 1.3046(3) 0.0465(2)
H8 H 1.2931(5) 1.3907(3) 0.1345(2)
H9 H 1.0298(5) 1.2889(3) 0.1829(2)
H10 H 0.7798(5) 1.1035(2) 0.1258(2)
H11 H 0.6071(5) 1.1879(2) 0.2232(2)
H12 H 0.7930(5) 1.1849(3) 0.4393(2)
H13 H 1.0688(5) 1.0821(3) 0.4037(2)
H14 H 1.1475(4) 0.9784(2) 0.2244(2)
H15 H 1.3992(5) 0.9162(3) 0.2940(2)
H16 H 1.2406(5) 0.9122(3) 0.3599(2)
H17 H 1.3672(5) 1.0254(3) 0.3466(2)
#END
