
#######################################################################
#
#                 Cambridge Crystallographic Data Centre
#                                CCDC
#
#######################################################################
#
# If this CIF has been generated from an entry in the Cambridge
# Structural Database, then it will include bibliographic, chemical,
# crystal, experimental, refinement or atomic coordinate data resulting
# from the CCDC's data processing and validation procedures.
#
#######################################################################

data_CSD_CIF_QEFFEP
_audit_creation_date 2017-09-04
_audit_creation_method CSD-ConQuest-V1
_database_code_CSD QEFFEP
_database_code_depnum_ccdc_archive 'CCDC 1483579'
_chemical_formula_sum 'C20 H21 N1 O2'
_chemical_formula_moiety
;
C20 H21 N1 O2
;
_journal_coden_Cambridge 1748
_journal_volume 4
_journal_year 2017
_journal_page_first 2002
_journal_name_full 'Org.Chem.Front. '
loop_
_publ_author_name
"Shangze Wu"
"Xin Huang"
"Chunling Fu"
"Shengming Ma"
_chemical_name_systematic
;
3-t-butyl-N-methoxy-4-phenyl-1H-isochromen-1-imine
;
_cell_volume   1649.448
_exptl_crystal_colour 'colorless'
_exptl_crystal_density_diffrn 1.238
_exptl_crystal_description 'plate'
_diffrn_ambient_temperature 293.1
#These two values have been output from a single CSD field.
_refine_ls_R_factor_gt 0.0489
_refine_ls_wR_factor_gt 0.0489
_symmetry_cell_setting monoclinic
_symmetry_space_group_name_H-M 'P 21/n'
_symmetry_Int_Tables_number 14
loop_
_symmetry_equiv_pos_site_id
_symmetry_equiv_pos_as_xyz
1 x,y,z
2 1/2-x,1/2+y,1/2-z
3 -x,-y,-z
4 -1/2+x,-1/2-y,-1/2+z
_cell_length_a 11.8310(8)
_cell_length_b 8.4718(5)
_cell_length_c 16.4581(10)
_cell_angle_alpha 90
_cell_angle_beta 90.759(6)
_cell_angle_gamma 90
_cell_formula_units_Z 4
loop_
_atom_type_symbol
_atom_type_radius_bond
C 0.68
H 0.23
N 0.68
O 0.68
loop_
_atom_site_label
_atom_site_type_symbol
_atom_site_fract_x
_atom_site_fract_y
_atom_site_fract_z
O1 O 0.04152(11) 0.97980(14) 0.18646(8)
O2 O -0.03370(12) 1.16397(16) 0.29255(9)
N1 N 0.07008(15) 1.21003(18) 0.25808(10)
C1 C 0.24087(16) 1.0325(2) 0.10182(11)
C2 C 0.34119(17) 1.0609(2) 0.06061(12)
H1 H 0.36380 0.99150 0.02020
C3 C 0.40718(18) 1.1905(2) 0.07909(14)
H2 H 0.47420 1.20700 0.05140
C4 C 0.37444(19) 1.2963(2) 0.13857(13)
H3 H 0.41930 1.38350 0.15070
C5 C 0.27577(18) 1.2718(2) 0.17940(12)
H4 H 0.25340 1.34310 0.21900
C6 C 0.20856(16) 1.1400(2) 0.16172(11)
C7 C 0.10373(16) 1.1120(2) 0.20414(11)
C8 C 0.07451(16) 0.8711(2) 0.12753(11)
C9 C 0.16848(16) 0.8940(2) 0.08490(11)
C10 C -0.0678(2) 1.2886(3) 0.34495(15)
H5 H -0.07820 1.38350 0.31390
H6 H -0.01060 1.30550 0.38590
H7 H -0.13760 1.26070 0.37040
C11 C -0.01073(17) 0.7337(2) 0.12456(12)
C12 C -0.1039(2) 0.7570(3) 0.18645(16)
H8 H -0.07120 0.76130 0.24010
H9 H -0.15620 0.67040 0.18310
H10 H -0.14310 0.85390 0.17520
C13 C 0.0503(2) 0.5788(2) 0.14587(16)
H11 H 0.10320 0.55390 0.10410
H12 H -0.00410 0.49520 0.15000
H13 H 0.08980 0.59060 0.19680
C14 C -0.0653(2) 0.7211(3) 0.04016(15)
H14 H -0.10160 0.81920 0.02660
H15 H -0.12040 0.63790 0.03990
H16 H -0.00830 0.69840 0.00090
C15 C 0.20817(16) 0.7878(2) 0.01844(11)
C16 C 0.17580(19) 0.8161(2) -0.06170(12)
H17 H 0.12330 0.89500 -0.07320
C17 C 0.2205(2) 0.7288(3) -0.12453(14)
H18 H 0.19820 0.74960 -0.17790
C18 C 0.2978(2) 0.6115(2) -0.10841(14)
H19 H 0.32780 0.55270 -0.15070
C19 C 0.33028(19) 0.5815(2) -0.02958(14)
H20 H 0.38200 0.50140 -0.01850
C20 C 0.28687(18) 0.6694(2) 0.03335(13)
H21 H 0.31060 0.64910 0.08640
#END
