
#######################################################################
#
#                 Cambridge Crystallographic Data Centre
#                                CCDC
#
#######################################################################
#
# If this CIF has been generated from an entry in the Cambridge
# Structural Database, then it will include bibliographic, chemical,
# crystal, experimental, refinement or atomic coordinate data resulting
# from the CCDC's data processing and validation procedures.
#
#######################################################################

data_CSD_CIF_QEGFAM
_audit_creation_date 2017-09-04
_audit_creation_method CSD-ConQuest-V1
_database_code_CSD QEGFAM
_database_code_depnum_ccdc_archive 'CCDC 1525136'
_chemical_formula_sum 'C14 H15 N1 O7'
_chemical_formula_moiety
;
C14 H15 N1 O7
;
_journal_coden_Cambridge 1499
_journal_volume 7
_journal_year 2017
_journal_page_first 5456
_journal_name_full 'ACS Catalysis '
loop_
_publ_author_name
"Hui Yao"
"Shasha Zhang"
"Wei-Lin Leng"
"Min-Li Leow"
"Shaohua Xiang"
"Jingxi He"
"Hongze Liao"
"Kim Le Mai Hoang"
"Xue-Wei Liu"
_chemical_name_systematic
;
(3-hydroxy-6-methoxy-3,6-dihydro-2H-pyran-2-yl)methyl 4-nitrobenzoate
;
_cell_volume   1503.997
_exptl_crystal_colour 'colorless'
_exptl_crystal_density_diffrn 1.366
_exptl_crystal_description 'needle'
_diffrn_ambient_temperature 296
#These two values have been output from a single CSD field.
_refine_ls_R_factor_gt 0.0452
_refine_ls_wR_factor_gt 0.0452
_symmetry_cell_setting orthorhombic
_symmetry_space_group_name_H-M 'P 21 21 21'
_symmetry_Int_Tables_number 19
loop_
_symmetry_equiv_pos_site_id
_symmetry_equiv_pos_as_xyz
1 x,y,z
2 1/2-x,-y,1/2+z
3 -x,1/2+y,1/2-z
4 1/2+x,1/2-y,-z
_cell_length_a 4.2909(2)
_cell_length_b 10.6038(7)
_cell_length_c 33.055(2)
_cell_angle_alpha 90
_cell_angle_beta 90
_cell_angle_gamma 90
_cell_formula_units_Z 4
loop_
_atom_type_symbol
_atom_type_radius_bond
C 0.68
H 0.23
N 0.68
O 0.68
loop_
_atom_site_label
_atom_site_type_symbol
_atom_site_fract_x
_atom_site_fract_y
_atom_site_fract_z
C1 C 0.2526(9) 0.7603(3) 0.59621(10)
H1 H 0.24710 0.67400 0.60120
C2 C 0.1145(11) 0.8083(3) 0.56183(11)
H2 H 0.01770 0.75500 0.54340
C3 C 0.1223(9) 0.9345(3) 0.5554(1)
C4 C 0.2577(11) 1.0155(3) 0.58189(11)
H3 H 0.25660 1.10190 0.57700
C5 C 0.3971(9) 0.9672(3) 0.61616(10)
H4 H 0.49080 1.02150 0.63460
C6 C 0.3985(7) 0.8395(3) 0.62322(9)
C7 C 0.5566(7) 0.7909(3) 0.66006(9)
C8 C 0.6843(8) 0.6083(3) 0.69717(10)
H5 H 0.58290 0.62680 0.72270
H6 H 0.89790 0.63800 0.69850
C9 C 0.6772(7) 0.4699(3) 0.68901(8)
H7 H 0.46360 0.44510 0.68220
C10 C 0.7866(7) 0.3931(3) 0.72503(9)
H8 H 0.61330 0.38460 0.74420
C11 C 0.8835(8) 0.2647(3) 0.71157(12)
H9 H 0.93200 0.20470 0.73110
C12 C 0.9032(8) 0.2329(3) 0.67345(12)
H10 H 0.96190 0.15110 0.66680
C13 C 0.8344(8) 0.3236(3) 0.64058(10)
H11 H 0.62000 0.31150 0.63110
C14 C 0.9550(13) 0.3722(4) 0.57322(11)
H12 H 0.95970 0.46110 0.57870
H13 H 0.74860 0.34820 0.56510
H14 H 1.09940 0.35310 0.55190
N1 N -0.0233(12) 0.9861(4) 0.51883(10)
O1 O -0.0425(12) 1.0977(4) 0.51473(10)
O2 O -0.1319(15) 0.9155(3) 0.49484(11)
O3 O 0.7060(7) 0.8563(2) 0.68270(7)
O4 O 0.5208(5) 0.6694(2) 0.66421(6)
O5 O 0.8723(5) 0.44895(18) 0.65477(5)
O6 O 1.0398(6) 0.3045(2) 0.60876(7)
O7 O 1.0357(5) 0.4598(2) 0.74449(6)
H15 H 1.08720 0.42220 0.76510
#END
