
#######################################################################
#
#                 Cambridge Crystallographic Data Centre
#                                CCDC
#
#######################################################################
#
# If this CIF has been generated from an entry in the Cambridge
# Structural Database, then it will include bibliographic, chemical,
# crystal, experimental, refinement or atomic coordinate data resulting
# from the CCDC's data processing and validation procedures.
#
#######################################################################

data_CSD_CIF_QEKBOX
_audit_creation_date 2001-05-10
_audit_creation_method CSD-ConQuest-V1
_database_code_CSD QEKBOX
_chemical_formula_sum 'C17 H19 N5 O9'
_chemical_formula_moiety
;
C17 H19 N5 O9
;
_journal_coden_Cambridge 24
_journal_volume 41
_journal_year 2000
_journal_page_first 569
_journal_name_full 'Tetrahedron Lett. '
loop_
_publ_author_name
"P.Y.F.Deghati"
"H.Bieraugel"
"M.J.Wanner"
"G.-J.Koomen"
_chemical_name_systematic
;
5-Nitro-7-amino-3-(2,3,5-tri-O-acetyl-\b-D-ribofuranosyl)-3H-imidazo(4,5-b)pyr
idine
;
_cell_volume   1971.245
_exptl_crystal_density_diffrn 1.47
_exptl_special_details
;
Absolute configuration

;
_diffrn_ambient_temperature ?
_diffrn_special_details
;
The study was carried out at room temperature,in the range 283-303K

;
#These two values have been output from a single CSD field.
_refine_ls_R_factor_gt 0.059
_refine_ls_wR_factor_gt 0.059
_symmetry_cell_setting orthorhombic
_symmetry_space_group_name_H-M 'P 21 21 21'
_symmetry_Int_Tables_number 19
loop_
_symmetry_equiv_pos_site_id
_symmetry_equiv_pos_as_xyz
1 x,y,z
2 1/2-x,-y,1/2+z
3 1/2+x,1/2-y,-z
4 -x,1/2+y,1/2-z
_cell_length_a 6.9775(8)
_cell_length_b 9.7014(4)
_cell_length_c 29.121(2)
_cell_angle_alpha 90
_cell_angle_beta 90
_cell_angle_gamma 90
_cell_formula_units_Z 4
loop_
_atom_type_symbol
_atom_type_radius_bond
C 0.68
H 0.23
N 0.68
O 0.68
loop_
_atom_site_label
_atom_site_type_symbol
_atom_site_fract_x
_atom_site_fract_y
_atom_site_fract_z
C1 C 0.306(1) 0.3683(6) 0.4510(2)
C2 C 0.311(1) 0.4015(7) 0.4964(2)
C3 C 0.308(1) 0.2956(7) 0.5288(2)
C4 C 0.293(1) 0.1622(6) 0.5105(2)
C5 C 0.287(1) 0.1478(6) 0.4631(2)
C6 C 0.275(1) -0.0519(7) 0.4988(2)
C7 C 0.279(1) -0.0647(6) 0.4118(2)
C8 C 0.146(1) -0.0393(7) 0.3400(2)
C9 C 0.336(1) 0.0385(7) 0.3389(2)
C10 C 0.441(1) -0.0192(6) 0.3801(2)
C11 C -0.018(1) 0.0206(8) 0.3134(3)
C12 C -0.027(1) 0.2612(9) 0.2952(3)
C13 C -0.073(2) 0.400(1) 0.3152(4)
C14 C 0.506(1) 0.126(1) 0.2752(3)
C15 C 0.571(2) 0.092(1) 0.2280(3)
C16 C 0.667(1) -0.1942(7) 0.3963(2)
C17 C 0.782(2) -0.3115(9) 0.3763(3)
N1 N 0.2933(9) 0.2458(5) 0.4309(2)
N2 N 0.287(1) 0.0358(6) 0.5322(2)
N3 N 0.2735(9) 0.0062(5) 0.4557(1)
N4 N 0.315(1) 0.4840(6) 0.4174(2)
N5 N 0.317(1) 0.3177(7) 0.5753(2)
O1 O 0.337(2) 0.4588(6) 0.3775(2)
O2 O 0.310(1) 0.6000(5) 0.4320(2)
O3 O 0.1017(7) -0.0420(5) 0.3882(1)
O4 O -0.0507(9) 0.1617(5) 0.3273(2)
O5 O 0.020(1) 0.2407(6) 0.2569(2)
O6 O 0.4220(9) 0.0172(5) 0.2955(2)
O7 O 0.522(1) 0.2313(8) 0.2948(3)
O8 O 0.5509(8) -0.1372(4) 0.3644(1)
O9 O 0.6745(9) -0.1560(5) 0.4355(2)
H1 H 0.31(1) 0.501(2) 0.506(2)
H2 H 0.269(7) -0.154(1) 0.502(2)
H3 H 0.29(1) -0.164(2) 0.421(2)
H4 H 0.135(8) -0.135(2) 0.328(2)
H5 H 0.32(1) 0.140(2) 0.344(2)
H6 H 0.531(9) 0.047(6) 0.395(2)
H7 H 0.00(1) 0.020(8) 0.2794(6)
H8 H -0.134(7) -0.036(7) 0.320(3)
H9 H -0.200(8) 0.39(1) 0.331(4)
H10 H -0.05(2) 0.42(1) 0.349(1)
H11 H -0.05(1) 0.480(6) 0.295(2)
H12 H 0.58(2) -0.010(2) 0.227(4)
H13 H 0.49(2) 0.15(1) 0.205(4)
H14 H 0.709(4) 0.12(1) 0.230(3)
H15 H 0.69(2) -0.39(1) 0.374(5)
H16 H 0.78(1) -0.299(9) 0.3422(6)
H17 H 0.913(5) -0.323(9) 0.390(3)
H18 H 0.35(1) 0.238(5) 0.595(2)
H19 H 0.37(1) 0.408(5) 0.586(3)
#END
