
#######################################################################
#
#                 Cambridge Crystallographic Data Centre
#                                CCDC
#
#######################################################################
#
# If this CIF has been generated from an entry in the Cambridge
# Structural Database, then it will include bibliographic, chemical,
# crystal, experimental, refinement or atomic coordinate data resulting
# from the CCDC's data processing and validation procedures.
#
#######################################################################

data_CSD_CIF_QERTUD
_audit_creation_date 2007-01-05
_audit_creation_method CSD-ConQuest-V1
_database_code_CSD QERTUD
_database_code_depnum_ccdc_archive 'CCDC 628046'
_chemical_formula_sum 'C8 H5 N1 O5'
_chemical_formula_moiety
;
C8 H5 N1 O5
;
_journal_coeditor_code "IUCr OM2063"
_journal_coden_Cambridge 1370
_journal_volume 62
_journal_year 2006
_journal_page_first o5323
_journal_name_full 'Acta Crystallogr.,Sect.E:Struct.Rep.Online '
loop_
_publ_author_name
"M.Hussain"
"S.Ali"
"M.Altaf"
"H.Stoeckli-Evans"
_chemical_name_systematic
;
6-Nitro-1,3-benzodioxole-4-carbaldehyde
;
_chemical_melting_point 423
_cell_volume    764.320
_exptl_crystal_colour 'yellow'
_exptl_crystal_density_diffrn 1.696
_exptl_special_details
;
Melting point range 423-426K

;
_exptl_crystal_description 'plate'
_exptl_crystal_preparation 'acetone'
_diffrn_ambient_temperature 173
#These two values have been output from a single CSD field.
_refine_ls_R_factor_gt 0.0408
_refine_ls_wR_factor_gt 0.0408
_symmetry_cell_setting monoclinic
_symmetry_space_group_name_H-M 'P 21/c'
_symmetry_Int_Tables_number 14
loop_
_symmetry_equiv_pos_site_id
_symmetry_equiv_pos_as_xyz
1 x,y,z
2 -x,1/2+y,1/2-z
3 -x,-y,-z
4 x,-1/2-y,-1/2+z
_cell_length_a 7.462(1)
_cell_length_b 14.166(2)
_cell_length_c 7.3202(10)
_cell_angle_alpha 90
_cell_angle_beta 98.975(11)
_cell_angle_gamma 90
_cell_formula_units_Z 4
loop_
_atom_type_symbol
_atom_type_radius_bond
C 0.68
H 0.23
N 0.68
O 0.68
loop_
_atom_site_label
_atom_site_type_symbol
_atom_site_fract_x
_atom_site_fract_y
_atom_site_fract_z
O1 O 0.74307(17) 1.05449(8) 0.12610(18)
O2 O 0.70215(14) 0.65053(7) 0.27721(14)
O3 O 0.87287(14) 0.76767(7) 0.16668(14)
O4 O 0.1829(2) 0.95479(9) 0.3843(2)
O5 O 0.16909(16) 0.81293(9) 0.48801(17)
N1 N 0.24299(18) 0.87460(9) 0.40923(18)
C1 C 0.67432(19) 0.90000(9) 0.21585(18)
C2 C 0.5105(2) 0.92180(9) 0.27806(19)
C3 C 0.41175(19) 0.85088(9) 0.34309(18)
C4 C 0.4629(2) 0.75554(9) 0.35097(18)
C5 C 0.62143(19) 0.73630(9) 0.29023(18)
C6 C 0.72612(18) 0.80620(9) 0.22424(17)
C7 C 0.8735(2) 0.66945(10) 0.2188(2)
C8 C 0.7846(2) 0.97229(10) 0.1421(2)
H1 H 0.466(3) 0.9874(14) 0.276(3)
H2 H 0.387(3) 0.7099(13) 0.396(3)
H3 H 0.976(3) 0.6597(13) 0.325(3)
H4 H 0.883(3) 0.6311(14) 0.106(3)
H5 H 0.892(3) 0.9531(15) 0.092(3)
#END
