
#######################################################################
#
#                 Cambridge Crystallographic Data Centre
#                                CCDC
#
#######################################################################
#
# If this CIF has been generated from an entry in the Cambridge
# Structural Database, then it will include bibliographic, chemical,
# crystal, experimental, refinement or atomic coordinate data resulting
# from the CCDC's data processing and validation procedures.
#
#######################################################################

data_CSD_CIF_QEWQUG
_audit_creation_date 2013-05-28
_audit_creation_method CSD-ConQuest-V1
_database_code_CSD QEWQUG
_database_code_depnum_ccdc_archive 'CCDC 919663'
_chemical_formula_sum 'C31 H36 N2 O4'
_chemical_formula_moiety
;
C31 H36 N2 O4
;
_journal_coden_Cambridge 10
_journal_volume 96
_journal_year 2013
_journal_page_first 799
_journal_name_full 'Helv.Chim.Acta '
loop_
_publ_author_name
"D.Seebach"
"Xiaoyu Sun"
"M.-O.Ebert"
"W.Bernd Schweizer"
"N.Purkayastha"
"A.K.Beck"
"J.Duschmale"
"H.Wennemers"
"T.Mukaiyama"
"M.Benohoud"
"Yujiro Hayashi"
"M.Reiher"
_chemical_name_systematic
;
(1-(3-Isopropyl-5-nitro-4-phenyltetrahydro-2H-pyran-2-yl)pyrrolidin-2-yl)(diph
enyl)methanol
;
_cell_volume   2610.712
_exptl_crystal_colour 'colorless'
_exptl_crystal_density_diffrn 1.274
_exptl_crystal_description 'rod'
_diffrn_ambient_temperature 100
#These two values have been output from a single CSD field.
_refine_ls_R_factor_gt 0.0367
_refine_ls_wR_factor_gt 0.0367
_symmetry_cell_setting monoclinic
_symmetry_space_group_name_H-M 'C 2'
_symmetry_Int_Tables_number 5
loop_
_symmetry_equiv_pos_site_id
_symmetry_equiv_pos_as_xyz
1 x,y,z
2 -x,y,-z
3 1/2+x,1/2+y,z
4 1/2-x,1/2+y,-z
_cell_length_a 23.940(2)
_cell_length_b 7.1220(6)
_cell_length_c 15.3957(13)
_cell_angle_alpha 90
_cell_angle_beta 95.976(7)
_cell_angle_gamma 90
_cell_formula_units_Z 4
loop_
_atom_type_symbol
_atom_type_radius_bond
C 0.68
H 0.23
N 0.68
O 0.68
loop_
_atom_site_label
_atom_site_type_symbol
_atom_site_fract_x
_atom_site_fract_y
_atom_site_fract_z
O1 O -0.32958(5) -0.10722(18) -0.22141(7)
O2 O -0.22770(5) -0.21074(19) 0.01449(8)
O3 O -0.17952(5) 0.02086(19) -0.03001(9)
O4 O -0.42897(5) -0.58300(18) -0.38512(8)
H1 H -0.3973(11) -0.549(4) -0.3869(15)
N1 N -0.35849(6) -0.2928(2) -0.34217(9)
N2 N -0.21389(6) -0.1049(2) -0.04275(9)
C1 C -0.32460(7) -0.2925(2) -0.25912(10)
H2 H -0.3403(7) -0.384(3) -0.2176(12)
C2 C -0.26228(7) -0.3404(3) -0.26243(11)
H3 H -0.2458(8) -0.240(3) -0.2951(12)
C3 C -0.23283(7) -0.3289(2) -0.16720(11)
H4 H -0.2536(7) -0.419(2) -0.1292(11)
C4 C -0.24216(7) -0.1304(3) -0.13369(11)
H5 H -0.2253(8) -0.036(3) -0.1674(12)
C5 C -0.30489(7) -0.0948(3) -0.13361(11)
H6 H -0.3126(9) 0.034(3) -0.1117(14)
H7 H -0.3223(7) -0.185(3) -0.0938(11)
C6 C -0.41966(7) -0.2635(3) -0.33649(11)
H8 H -0.4275(7) -0.193(3) -0.2872(12)
C7 C -0.43928(8) -0.1651(3) -0.42280(13)
H9 H -0.4726(9) -0.105(3) -0.4101(12)
H10 H -0.4448(9) -0.253(4) -0.4695(15)
C8 C -0.39059(8) -0.0409(3) -0.43891(12)
H11 H -0.3873(9) 0.078(3) -0.4003(15)
H12 H -0.3936(9) -0.002(3) -0.5036(14)
C9 C -0.33960(8) -0.1591(3) -0.40834(12)
H13 H -0.3089(8) -0.077(3) -0.3829(12)
H14 H -0.3282(8) -0.231(3) -0.4581(14)
C10 C -0.24989(8) -0.5323(3) -0.30384(11)
H15 H -0.2083(8) -0.552(3) -0.2866(12)
C11 C -0.28106(9) -0.6940(3) -0.26699(13)
H16 H -0.2683(8) -0.816(3) -0.2910(13)
H17 H -0.2755(9) -0.696(3) -0.1992(16)
H18 H -0.3206(9) -0.692(3) -0.2836(14)
C12 C -0.25759(9) -0.5349(3) -0.40343(12)
H19 H -0.2330(9) -0.428(3) -0.4229(14)
H20 H -0.2456(10) -0.648(4) -0.4294(15)
H21 H -0.2995(10) -0.535(3) -0.4285(14)
C13 C -0.17128(7) -0.3822(2) -0.15796(11)
C14 C -0.15425(8) -0.5460(3) -0.11391(12)
H22 H -0.1808(8) -0.627(3) -0.0913(11)
C15 C -0.09793(8) -0.5975(3) -0.10406(13)
H23 H -0.0886(8) -0.711(3) -0.0751(12)
C16 C -0.05815(8) -0.4839(3) -0.13649(13)
H24 H -0.0185(9) -0.516(3) -0.1268(13)
C17 C -0.07440(8) -0.3217(3) -0.18019(12)
H25 H -0.0459(9) -0.237(3) -0.2044(14)
C18 C -0.13069(7) -0.2706(3) -0.19136(12)
H26 H -0.1431(8) -0.160(3) -0.2234(12)
C19 C -0.44984(7) -0.4547(3) -0.32563(11)
C20 C -0.51344(7) -0.4409(3) -0.34811(11)
C21 C -0.54276(7) -0.5818(3) -0.39567(11)
H27 H -0.5219(8) -0.680(3) -0.4203(12)
C22 C -0.60105(8) -0.5755(3) -0.41083(12)
H28 H -0.6196(7) -0.658(3) -0.4424(12)
C23 C -0.63074(8) -0.4299(3) -0.37920(13)
H29 H -0.6711(8) -0.430(3) -0.3877(12)
C24 C -0.60177(8) -0.2872(3) -0.33270(13)
H30 H -0.6210(9) -0.184(3) -0.3101(14)
C25 C -0.54372(8) -0.2938(3) -0.31718(13)
H31 H -0.5251(9) -0.192(3) -0.2851(15)
C26 C -0.44045(7) -0.5352(3) -0.23214(11)
C27 C -0.42729(7) -0.7234(3) -0.21882(13)
H32 H -0.4218(8) -0.795(3) -0.2698(13)
C28 C -0.42195(7) -0.8007(3) -0.13568(13)
H33 H -0.4107(9) -0.934(3) -0.1276(14)
C29 C -0.43041(8) -0.6918(4) -0.06444(14)
H34 H -0.4283(10) -0.745(4) -0.0048(17)
C30 C -0.44416(9) -0.5057(4) -0.07673(14)
H35 H -0.4514(10) -0.427(4) -0.0341(18)
C31 C -0.44901(8) -0.4256(3) -0.15943(12)
H36 H -0.4593(9) -0.285(3) -0.1694(13)
#END
