
#######################################################################
#
#                 Cambridge Crystallographic Data Centre
#                                CCDC
#
#######################################################################
#
# If this CIF has been generated from an entry in the Cambridge
# Structural Database, then it will include bibliographic, chemical,
# crystal, experimental, refinement or atomic coordinate data resulting
# from the CCDC's data processing and validation procedures.
#
#######################################################################

data_CSD_CIF_QIKFIZ
_audit_creation_date 2001-06-22
_audit_creation_method CSD-ConQuest-V1
_database_code_CSD QIKFIZ
_database_code_depnum_ccdc_archive 'CCDC 163934'
_chemical_formula_sum 'C12 H11 N3 O1'
_chemical_formula_moiety
;
C12 H11 N3 O1
;
_journal_coeditor_code "IUCr DA1152"
_journal_coden_Cambridge 591
_journal_volume 57
_journal_year 2001
_journal_page_first 467
_journal_name_full 'Acta Crystallogr.,Sect.C:Cryst.Struct.Commun. '
loop_
_publ_author_name
"A.Domanski"
"K.Ejsmont"
"J.B.Kyziol"
"J.Zaleski"
_chemical_name_systematic
;
\b-trans-2-(4-Aminophenyl)-1-phenyldiazene 2-oxide
;
_chemical_melting_point 410.6
_cell_volume    531.410
_exptl_crystal_colour 'yellow'
_exptl_crystal_density_diffrn 1.333
_exptl_special_details
;
Melting point range 410.6-411.5K
beta monoclinic polymorph

;
_exptl_crystal_description 'prism'
_exptl_crystal_preparation 'benzene/n-heptane'
_diffrn_ambient_temperature ?
_diffrn_special_details
;
The study was carried out at room temperature,in the range 283-303K

;
#These two values have been output from a single CSD field.
_refine_ls_R_factor_gt 0.031
_refine_ls_wR_factor_gt 0.031
_symmetry_cell_setting monoclinic
_symmetry_space_group_name_H-M 'P 21'
_symmetry_Int_Tables_number 4
loop_
_symmetry_equiv_pos_site_id
_symmetry_equiv_pos_as_xyz
1 x,y,z
2 -x,1/2+y,-z
_cell_length_a 8.764(2)
_cell_length_b 6.103(1)
_cell_length_c 10.791(2)
_cell_angle_alpha 90
_cell_angle_beta 112.97(3)
_cell_angle_gamma 90
_cell_formula_units_Z 2
loop_
_atom_type_symbol
_atom_type_radius_bond
C 0.68
H 0.23
N 0.68
O 0.68
loop_
_atom_site_label
_atom_site_type_symbol
_atom_site_fract_x
_atom_site_fract_y
_atom_site_fract_z
O1 O -0.13808(19) 0.3189(3) 0.19579(18)
N1 N -0.0237(2) 0.4585(3) 0.22602(18)
N2 N -0.0175(2) 0.6360(3) 0.2885(2)
N3 N 0.5030(3) 0.2624(5) 0.0737(3)
C1 C 0.1115(3) 0.4122(4) 0.1843(2)
C2 C 0.1128(3) 0.2151(4) 0.1242(3)
C3 C 0.2433(3) 0.1629(5) 0.0886(3)
C4 C 0.3736(3) 0.3084(5) 0.1129(2)
C5 C 0.3690(3) 0.5085(5) 0.1727(3)
C6 C 0.2387(3) 0.5618(5) 0.2087(2)
C7 C -0.1405(3) 0.6676(4) 0.3421(2)
C8 C -0.1675(3) 0.5181(5) 0.4271(3)
C9 C -0.2678(4) 0.5751(6) 0.4941(3)
C10 C -0.3439(4) 0.7748(6) 0.4745(3)
C11 C -0.3203(4) 0.9209(6) 0.3882(4)
C12 C -0.2163(4) 0.8694(5) 0.3225(3)
H1 H 0.032(3) 0.113(5) 0.113(3)
H2 H 0.246(3) 0.030(6) 0.049(3)
H3 H 0.466(3) 0.602(5) 0.204(3)
H4 H 0.239(3) 0.689(6) 0.265(3)
H5 H 0.604(4) 0.331(7) 0.132(3)
H6 H 0.508(4) 0.136(6) 0.059(3)
H7 H -0.115(3) 0.383(6) 0.444(3)
H8 H -0.282(4) 0.477(7) 0.560(3)
H9 H -0.415(3) 0.814(6) 0.520(3)
H10 H -0.378(4) 1.058(7) 0.373(3)
H11 H -0.195(3) 0.966(6) 0.276(3)
#END
