
#######################################################################
#
#                 Cambridge Crystallographic Data Centre
#                                CCDC
#
#######################################################################
#
# If this CIF has been generated from an entry in the Cambridge
# Structural Database, then it will include bibliographic, chemical,
# crystal, experimental, refinement or atomic coordinate data resulting
# from the CCDC's data processing and validation procedures.
#
#######################################################################

data_CSD_CIF_QIRCOJ
_audit_creation_date 2001-07-02
_audit_creation_method CSD-ConQuest-V1
_database_code_CSD QIRCOJ
_database_code_depnum_ccdc_archive 'CCDC 158185'
_chemical_formula_sum 'C17 H19 N2 O2'
_chemical_formula_moiety
;
C17 H19 N2 O2
;
_journal_coden_Cambridge 208
_journal_volume 145
_journal_year 1999
_journal_page_first 427
_journal_name_full 'J.Solid State Chem. '
loop_
_publ_author_name
"T.Sugano"
"M.Kurmoo"
"H.Uekusa"
"Y.Ohashi"
"P.Day"
_chemical_name_systematic
;
2-(2-Naphthyl)-4,4,5,5-tetramethyl-4,5-dihydro-1H-imidazolyl-1-oxyl-3-oxide
;
_chemical_name_common
;
2-Naphthyl nitronyl nitroxide
;
_cell_volume   1502.900
_exptl_crystal_colour 'black'
_exptl_crystal_density_diffrn 1.25
_exptl_crystal_description 'needle'
_exptl_crystal_preparation 'methanol'
_diffrn_ambient_temperature ?
_diffrn_special_details
;
The study was carried out at room temperature,in the range 283-303K

;
#These two values have been output from a single CSD field.
_refine_ls_R_factor_gt 0.046
_refine_ls_wR_factor_gt 0.046
_symmetry_cell_setting orthorhombic
_symmetry_space_group_name_H-M 'P 21 21 21'
_symmetry_Int_Tables_number 19
loop_
_symmetry_equiv_pos_site_id
_symmetry_equiv_pos_as_xyz
1 x,y,z
2 1/2-x,-y,1/2+z
3 1/2+x,1/2-y,-z
4 -x,1/2+y,1/2-z
_cell_length_a 11.087(4)
_cell_length_b 22.020(4)
_cell_length_c 6.156(4)
_cell_angle_alpha 90
_cell_angle_beta 90
_cell_angle_gamma 90
_cell_formula_units_Z 4
loop_
_atom_type_symbol
_atom_type_radius_bond
C 0.68
H 0.23
N 0.68
O 0.68
loop_
_atom_site_label
_atom_site_type_symbol
_atom_site_fract_x
_atom_site_fract_y
_atom_site_fract_z
O1 O 0.6473(4) 0.2164(2) 0.3815(8)
O2 O 0.3700(4) 0.1006(2) -0.0005(8)
N1 N 0.5468(5) 0.1949(2) 0.3096(8)
N2 N 0.4162(5) 0.1410(2) 0.1260(9)
C1 C 0.5361(6) 0.1510(3) 0.158(1)
C2 C 0.6347(6) 0.1205(2) 0.0465(10)
C3 C 0.7468(6) 0.1157(3) 0.139(1)
C4 C 0.8427(6) 0.0857(3) 0.032(1)
C5 C 0.9580(7) 0.0797(3) 0.123(1)
C6 C 1.0485(7) 0.0500(3) 0.014(2)
C7 C 1.0266(8) 0.0260(3) -0.192(2)
C8 C 0.9171(8) 0.0312(3) -0.288(1)
C9 C 0.8217(6) 0.0610(3) -0.179(1)
C10 C 0.7070(7) 0.0676(3) -0.274(1)
C11 C 0.6150(6) 0.0956(3) -0.166(1)
C12 C 0.4294(6) 0.2241(3) 0.367(1)
C13 C 0.3376(5) 0.1769(3) 0.2769(10)
C14 C 0.4248(6) 0.2354(3) 0.608(1)
C15 C 0.4283(7) 0.2849(3) 0.247(1)
C16 C 0.2333(6) 0.2033(3) 0.150(1)
C17 C 0.2919(6) 0.1327(3) 0.446(1)
H1 H 0.76090 0.13450 0.28510
H2 H 0.97990 0.09910 0.26560
H3 H 1.13050 0.04340 0.08670
H4 H 1.09420 0.00530 -0.26640
H5 H 0.90550 0.01350 -0.43060
H6 H 0.68940 0.05180 -0.42060
H7 H 0.53220 0.10010 -0.23250
H8 H 0.48900 0.25980 0.66030
H9 H 0.34940 0.25580 0.64840
H10 H 0.42520 0.19750 0.68440
H11 H 0.49110 0.31020 0.28460
H12 H 0.42650 0.27770 0.09360
H13 H 0.35140 0.30600 0.28070
H14 H 0.18020 0.22660 0.23640
H15 H 0.26140 0.22850 0.03120
H16 H 0.18650 0.17080 0.08280
H17 H 0.23820 0.15290 0.55130
H18 H 0.24570 0.10050 0.38340
H19 H 0.35600 0.11530 0.52910
#END
