
#######################################################################
#
#                 Cambridge Crystallographic Data Centre
#                                CCDC
#
#######################################################################
#
# If this CIF has been generated from an entry in the Cambridge
# Structural Database, then it will include bibliographic, chemical,
# crystal, experimental, refinement or atomic coordinate data resulting
# from the CCDC's data processing and validation procedures.
#
#######################################################################

data_CSD_CIF_QOFGIC
_audit_creation_date 2008-09-17
_audit_creation_method CSD-ConQuest-V1
_database_code_CSD QOFGIC
_database_code_depnum_ccdc_archive 'CCDC 698073'
_chemical_formula_sum 'C13 H7 N5 O4'
_chemical_formula_moiety
;
C13 H7 N5 O4
;
_journal_coden_Cambridge 95
_journal_year 2007
_journal_page_first 2018
_journal_name_full 'Izv.Akad.Nauk SSSR,Ser.Khim.(Russ.)(Russ.Chem.Bull.) '
loop_
_publ_author_name
"A.V.Samet"
"K.A.Kislyi"
"V.N.Marshalkin"
"Yu.A.Strelenko"
"Yu.V.Nelyubina"
"K.A.Lyssenko"
"V.V.Semenov"
_chemical_name_systematic
;
3-Azido-1-nitrodibenz(b,j)(1,4)oxazepin-11(10H)-one
;
_chemical_melting_point 503.15
_cell_volume    616.561
_exptl_crystal_colour 'light yellow'
_exptl_crystal_density_diffrn 1.601
_exptl_special_details
;
Melts above 503.15K

;
_exptl_crystal_description 'prism'
_exptl_crystal_preparation 'dimethylformamide'
_diffrn_ambient_temperature 100
#These two values have been output from a single CSD field.
_refine_ls_R_factor_gt 0.0374
_refine_ls_wR_factor_gt 0.0374
_symmetry_cell_setting triclinic
_symmetry_space_group_name_H-M 'P -1'
_symmetry_Int_Tables_number 2
loop_
_symmetry_equiv_pos_site_id
_symmetry_equiv_pos_as_xyz
1 x,y,z
2 -x,-y,-z
_cell_length_a 7.0390(9)
_cell_length_b 9.2063(9)
_cell_length_c 10.801(1)
_cell_angle_alpha 68.130(8)
_cell_angle_beta 81.279(7)
_cell_angle_gamma 71.796(7)
_cell_formula_units_Z 2
loop_
_atom_type_symbol
_atom_type_radius_bond
C 0.68
H 0.23
N 0.68
O 0.68
loop_
_atom_site_label
_atom_site_type_symbol
_atom_site_fract_x
_atom_site_fract_y
_atom_site_fract_z
C1 C 0.81719(17) 0.42277(15) 0.41671(13)
C2 C 0.74287(18) 0.42904(15) 0.54091(13)
H1 H 0.73650 0.33480 0.61240
C3 C 0.67724(17) 0.58220(15) 0.55587(12)
C4 C 0.68612(17) 0.72223(15) 0.44887(13)
H2 H 0.64170 0.82360 0.45910
C5 C 0.76283(17) 0.70858(15) 0.32549(12)
O1 O 0.76914(13) 0.85040(11) 0.22035(9)
C6 C 0.96725(18) 0.85175(15) 0.17830(12)
C7 C 1.0450(2) 0.95872(16) 0.20355(13)
H3 H 0.96760 1.02740 0.24840
C8 C 1.2406(2) 0.96135(16) 0.16063(14)
H4 H 1.29480 1.03230 0.17690
C9 C 1.3553(2) 0.85876(16) 0.09371(14)
H5 H 1.48600 0.86150 0.06510
C10 C 1.2763(2) 0.75163(16) 0.06896(13)
H6 H 1.35350 0.68360 0.02340
C11 C 1.08073(19) 0.74685(15) 0.11284(12)
N1 N 0.99961(16) 0.63933(13) 0.08630(11)
H7 H 1.04150 0.60730 0.02020
C12 C 0.88568(18) 0.54692(15) 0.16951(12)
C13 C 0.82836(17) 0.55923(15) 0.30543(12)
N2 N 0.89741(16) 0.25821(13) 0.40726(11)
O2 O 1.06481(14) 0.22531(12) 0.35491(10)
O3 O 0.79453(14) 0.16319(11) 0.45513(10)
O4 O 0.82869(14) 0.45204(12) 0.13743(9)
N3 N 0.60375(17) 0.57794(13) 0.68620(11)
N4 N 0.54940(16) 0.71031(14) 0.70617(11)
N5 N 0.49413(19) 0.81838(16) 0.74087(13)
#END
