
#######################################################################
#
#                 Cambridge Crystallographic Data Centre
#                                CCDC
#
#######################################################################
#
# If this CIF has been generated from an entry in the Cambridge
# Structural Database, then it will include bibliographic, chemical,
# crystal, experimental, refinement or atomic coordinate data resulting
# from the CCDC's data processing and validation procedures.
#
#######################################################################

data_CSD_CIF_QOMSIU
_audit_creation_date 2001-08-08
_audit_creation_method CSD-ConQuest-V1
_database_code_CSD QOMSIU
_database_code_depnum_ccdc_archive 'CCDC 158299'
_chemical_formula_sum 'C17 H21 N1 O4'
_chemical_formula_moiety
;
C17 H21 N1 O4
;
_journal_coden_Cambridge 16
_journal_volume 57
_journal_year 2001
_journal_page_first 4237
_journal_name_full 'Tetrahedron '
loop_
_publ_author_name
"D.Giomi"
"S.Turchi"
"A.Danesi"
"C.Faggi"
_chemical_name_systematic
;
(5SR,7RS)-5,7-Diethoxy-3-phenyl-4,5,7,8-tetrahydroisoxazolo(4,5-d)oxepine
;
_chemical_melting_point 385.15
_cell_volume   3273.390
_exptl_crystal_colour 'colorless'
_exptl_crystal_density_diffrn 1.231
_exptl_special_details
;
Melting point range 385.15-386.15K
There are slight variations in the published cell parameters a (38.72) and 
beta (120.83)
;
_exptl_crystal_description 'needles'
_exptl_crystal_preparation 'ethanol'
_diffrn_ambient_temperature ?
_diffrn_special_details
;
The study was carried out at room temperature,in the range 283-303K

;
_refine_special_details
;
The phenyl ring has four C atoms equally disordered over two sets of 
positions.
;
#These two values have been output from a single CSD field.
_refine_ls_R_factor_gt 0.1302
_refine_ls_wR_factor_gt 0.1302
_symmetry_cell_setting monoclinic
_symmetry_space_group_name_H-M 'C 2/c'
_symmetry_Int_Tables_number 15
loop_
_symmetry_equiv_pos_site_id
_symmetry_equiv_pos_as_xyz
1 x,y,z
2 1/2+x,1/2+y,z
3 -x,y,1/2-z
4 1/2-x,1/2+y,1/2-z
5 -x,-y,-z
6 -1/2-x,-1/2-y,-z
7 x,-y,-1/2+z
8 -1/2+x,-1/2-y,-1/2+z
_cell_length_a 38.721(2)
_cell_length_b 4.853(1)
_cell_length_c 20.280(1)
_cell_angle_alpha 90
_cell_angle_beta 120.80(3)
_cell_angle_gamma 90
_cell_formula_units_Z 8
loop_
_atom_type_symbol
_atom_type_radius_bond
C 0.68
H 0.23
N 0.68
O 0.68
loop_
_atom_site_label
_atom_site_type_symbol
_atom_site_fract_x
_atom_site_fract_y
_atom_site_fract_z
O1 O 0.1550(2) 0.6249(14) 0.2551(3)
O2 O 0.17477(14) 0.2076(10) 0.0936(3)
O3 O 0.23326(14) 0.4506(13) 0.1466(3)
O4 O 0.1197(2) 0.0344(11) -0.0122(3)
N1 N 0.1150(2) 0.6184(16) 0.2400(4)
C1 C 0.0529(2) 0.4053(14) 0.1513(4)
C2 C 0.0241(5) 0.3726(33) 0.0663(8)
C3 C -0.0168(4) 0.3355(32) 0.0418(9)
C4 C -0.0294(3) 0.3254(18) 0.0965(6)
C5 C -0.0042(5) 0.3613(35) 0.1699(11)
C6 C 0.0363(5) 0.3993(36) 0.1947(9)
C7 C 0.0954(2) 0.4502(14) 0.1808(4)
C8 C 0.1211(2) 0.3474(14) 0.1554(4)
C9 C 0.1127(2) 0.1490(16) 0.0921(4)
H1 H 0.1220(2) -0.0326(16) 0.1142(4)
H2 H 0.0839(2) 0.1382(16) 0.0573(4)
C10 C 0.1320(2) 0.2241(15) 0.0476(4)
H3 H 0.1239(2) 0.4106(15) 0.0267(4)
C11 C 0.1947(2) 0.4482(16) 0.1351(5)
H4 H 0.1800(2) 0.6116(16) 0.1058(5)
C12 C 0.1979(2) 0.4512(20) 0.2117(5)
H5 H 0.2119(2) 0.2865(20) 0.2398(5)
H6 H 0.2137(2) 0.6093(20) 0.2406(5)
C13 C 0.1583(2) 0.4637(17) 0.2055(4)
C14 C 0.2353(3) 0.5201(26) 0.0819(6)
H7 H 0.2222(3) 0.6966(26) 0.0625(6)
H8 H 0.2207(3) 0.3836(26) 0.0422(6)
C15 C 0.2757(3) 0.5361(30) 0.0970(6)
H9 H 0.2865(10) 0.7156(71) 0.1166(53)
H10 H 0.2758(5) 0.504(20) 0.0503(13)
H11 H 0.2919(8) 0.399(14) 0.1342(43)
C16 C 0.1285(4) 0.1114(22) -0.0700(6)
H12 H 0.1144(4) 0.2812(22) -0.0939(6)
H13 H 0.1571(4) 0.1475(22) -0.0458(6)
C17 C 0.1177(5) -0.0903(25) -0.1273(7)
H14 H 0.1319(22) -0.057(12) -0.1539(37)
H15 H 0.0892(7) -0.081(13) -0.163(3)
H16 H 0.1245(26) -0.2695(31) -0.1040(8)
C18? C 0.0309(4) 0.6278(28) 0.1582(9)
C19? C 0.0371(5) 0.1468(32) 0.1316(11)
C20? C -0.0034(6) 0.1108(34) 0.1030(12)
C21? C -0.0112(5) 0.5695(44) 0.1292(12)
#END
