
#######################################################################
#
#                 Cambridge Crystallographic Data Centre
#                                CCDC
#
#######################################################################
#
# If this CIF has been generated from an entry in the Cambridge
# Structural Database, then it will include bibliographic, chemical,
# crystal, experimental, refinement or atomic coordinate data resulting
# from the CCDC's data processing and validation procedures.
#
#######################################################################

data_CSD_CIF_QONBIG
_audit_creation_date 2014-08-15
_audit_creation_method CSD-ConQuest-V1
_database_code_CSD QONBIG
_database_code_depnum_ccdc_archive 'CCDC 995475'
_chemical_formula_sum 'C16 H12 N2 O3'
_chemical_formula_moiety
;
C16 H12 N2 O3
;
_journal_coden_Cambridge 1336
_journal_volume 16
_journal_year 2014
_journal_page_first 3560
_journal_name_full 'Org.Lett. '
loop_
_publ_author_name
"Jing Zheng"
"Yan Zhang"
"Sunliang Cui"
_chemical_name_systematic
;
2'-methoxy-4H-spiro[cyclohexa-2,5-diene-1,1'-imidazo[1,5-a]indole]-3',4(2'H)-d
ione
;
_cell_volume   1404.108
_exptl_crystal_colour 'yellow'
_exptl_crystal_density_diffrn 1.326
_exptl_crystal_description 'block'
_diffrn_ambient_temperature 293
#These two values have been output from a single CSD field.
_refine_ls_R_factor_gt 0.0418
_refine_ls_wR_factor_gt 0.0418
_symmetry_cell_setting monoclinic
_symmetry_space_group_name_H-M 'P 21/n'
_symmetry_Int_Tables_number 14
loop_
_symmetry_equiv_pos_site_id
_symmetry_equiv_pos_as_xyz
1 x,y,z
2 1/2-x,1/2+y,1/2-z
3 -x,-y,-z
4 -1/2+x,-1/2-y,-1/2+z
_cell_length_a 9.8869(9)
_cell_length_b 8.4979(7)
_cell_length_c 17.1534(17)
_cell_angle_alpha 90
_cell_angle_beta 103.026(11)
_cell_angle_gamma 90
_cell_formula_units_Z 4
loop_
_atom_type_symbol
_atom_type_radius_bond
C 0.68
H 0.23
N 0.68
O 0.68
loop_
_atom_site_label
_atom_site_type_symbol
_atom_site_fract_x
_atom_site_fract_y
_atom_site_fract_z
O1 O 0.07437(13) -0.15017(14) -0.02875(8)
O2 O 0.08736(15) 0.10702(16) -0.12813(8)
O3 O 0.32692(18) 0.63472(18) -0.11197(12)
N1 N 0.25067(13) -0.01886(15) 0.06043(8)
N2 N 0.19310(14) 0.06564(16) -0.06290(8)
C1 C 0.29859(17) -0.0983(2) 0.13234(10)
C2 C 0.2531(2) -0.2346(2) 0.16156(13)
H1 H 0.17850 -0.29190 0.13230
C3 C 0.3243(3) -0.2813(3) 0.23667(15)
H2 H 0.29760 -0.37340 0.25840
C4 C 0.4342(3) -0.1951(3) 0.28062(14)
H3 H 0.47900 -0.23010 0.33120
C5 C 0.4784(2) -0.0599(3) 0.25133(13)
H4 H 0.55230 -0.00290 0.28150
C6 C 0.41052(17) -0.0090(2) 0.17529(10)
C7 C 0.42981(18) 0.1243(2) 0.12708(11)
H5 H 0.49710 0.20220 0.14040
C8 C 0.33138(17) 0.11377(18) 0.05914(10)
C9 C 0.27870(17) 0.19646(18) -0.0199(1)
C10 C 0.15925(17) -0.04712(19) -0.01248(10)
C11 C 0.19008(18) 0.3349(2) -0.01067(11)
H6 H 0.11790 0.32050 0.01530
C12 C 0.20964(19) 0.4762(2) -0.03758(12)
H7 H 0.15330 0.55870 -0.02840
C13 C 0.3173(2) 0.5069(2) -0.08138(12)
C14 C 0.4097(2) 0.3773(2) -0.08864(12)
H8 H 0.48290 0.39480 -0.11340
C15 C 0.39256(19) 0.2362(2) -0.06124(11)
H9 H 0.45410 0.15710 -0.06780
C16 C 0.1252(3) 0.0665(3) -0.20112(13)
H10 H 0.04670 0.08080 -0.24510
H11 H 0.15430 -0.04150 -0.19900
H12 H 0.19990 0.13290 -0.20840
#END
