
#######################################################################
#
#                 Cambridge Crystallographic Data Centre
#                                CCDC
#
#######################################################################
#
# If this CIF has been generated from an entry in the Cambridge
# Structural Database, then it will include bibliographic, chemical,
# crystal, experimental, refinement or atomic coordinate data resulting
# from the CCDC's data processing and validation procedures.
#
#######################################################################

data_CSD_CIF_QOYJOD02
_audit_creation_date 2003-06-24
_audit_creation_method CSD-ConQuest-V1
_database_code_CSD QOYJOD02
_database_code_depnum_ccdc_archive 'CCDC 200143'
_chemical_formula_sum 'C2 H2 N4 O3'
_chemical_formula_moiety
;
C2 H2 N4 O3
;
_journal_coeditor_code "IUCr DO0018"
_journal_coden_Cambridge 228
_journal_volume 36
_journal_year 2003
_journal_page_first 280
_journal_name_full 'J.Appl.Crystallogr. '
loop_
_publ_author_name
"N.B.Bolotina"
"E.A.Zhurova"
"A.A.Pinkerton"
_chemical_name_systematic
;
5-Nitro-2,4-dihydro-3H-1,2,4-triazol-3-one
;
_cell_volume    451.478
_exptl_crystal_colour 'colorless'
_exptl_crystal_density_diffrn 1.914
_exptl_special_details
;
metastable beta polymorph

;
_exptl_crystal_description 'plate-like'
_diffrn_ambient_temperature 150
#These two values have been output from a single CSD field.
_refine_ls_R_factor_gt 0.0392
_refine_ls_wR_factor_gt 0.0392
_symmetry_cell_setting monoclinic
_symmetry_space_group_name_H-M 'P 21/c'
_symmetry_Int_Tables_number 14
loop_
_symmetry_equiv_pos_site_id
_symmetry_equiv_pos_as_xyz
1 x,y,z
2 -x,1/2+y,1/2-z
3 -x,-y,-z
4 x,-1/2-y,-1/2+z
_cell_length_a 9.3185(4)
_cell_length_b 5.4615(2)
_cell_length_c 9.0475(3)
_cell_angle_alpha 90
_cell_angle_beta 101.332(1)
_cell_angle_gamma 90
_cell_formula_units_Z 4
loop_
_atom_type_symbol
_atom_type_radius_bond
C 0.68
H 0.23
N 0.68
O 0.68
loop_
_atom_site_label
_atom_site_type_symbol
_atom_site_fract_x
_atom_site_fract_y
_atom_site_fract_z
N1 N 0.6538(2) 0.7362(3) 0.2357(2)
H1 H 0.5845(32) 0.6396(49) 0.1983(32)
O1 O 0.8630(2) 0.5905(2) 0.1601(2)
N2 N 0.6155(2) 0.9272(3) 0.3179(2)
N3 N 0.8522(2) 0.9456(3) 0.3060(2)
H2 H 0.9445(37) 0.9947(60) 0.3178(37)
C1 C 0.7987(2) 0.7406(3) 0.2251(2)
O2 O 0.8699(2) 1.3613(3) 0.4764(2)
O3 O 0.6413(2) 1.3242(3) 0.4975(2)
N4 N 0.7507(2) 1.2599(3) 0.4508(2)
C2 C 0.7378(2) 1.0433(3) 0.3572(2)
#END
