
#######################################################################
#
#                 Cambridge Crystallographic Data Centre
#                                CCDC
#
#######################################################################
#
# If this CIF has been generated from an entry in the Cambridge
# Structural Database, then it will include bibliographic, chemical,
# crystal, experimental, refinement or atomic coordinate data resulting
# from the CCDC's data processing and validation procedures.
#
#######################################################################

data_CSD_CIF_QUXTIO
_audit_creation_date 2015-11-04
_audit_creation_method CSD-ConQuest-V1
_database_code_CSD QUXTIO
_database_code_depnum_ccdc_archive 'CCDC 1404357'
_chemical_formula_sum 'C20 H14 N4 O2'
_chemical_formula_moiety
;
C20 H14 N4 O2
;
_journal_coden_Cambridge 1336
_journal_volume 17
_journal_year 2015
_journal_page_first 4308
_journal_name_full 'Org.Lett. '
loop_
_publ_author_name
"P.R.Adiyala"
"G.S.Mani"
"J.B.Nanubolu"
"K.C.Shekar"
"R.A.Maurya"
_chemical_name_systematic
;
1-(4-nitrophenyl)-N-(2-phenylimidazo[1,2-a]pyridin-3-yl)methanimine
;
_cell_volume   1663.920
_exptl_crystal_density_diffrn 1.367
_exptl_crystal_description 'block'
_diffrn_ambient_temperature 293
#These two values have been output from a single CSD field.
_refine_ls_R_factor_gt 0.072
_refine_ls_wR_factor_gt 0.072
_symmetry_cell_setting monoclinic
_symmetry_space_group_name_H-M 'P 21/c'
_symmetry_Int_Tables_number 14
loop_
_symmetry_equiv_pos_site_id
_symmetry_equiv_pos_as_xyz
1 x,y,z
2 -x,1/2+y,1/2-z
3 -x,-y,-z
4 x,-1/2-y,-1/2+z
_cell_length_a 6.3161(4)
_cell_length_b 8.2581(5)
_cell_length_c 31.901(2)
_cell_angle_alpha 90
_cell_angle_beta 90.120(1)
_cell_angle_gamma 90
_cell_formula_units_Z 4
loop_
_atom_type_symbol
_atom_type_radius_bond
C 0.68
H 0.23
N 0.68
O 0.68
loop_
_atom_site_label
_atom_site_type_symbol
_atom_site_fract_x
_atom_site_fract_y
_atom_site_fract_z
C1 C 0.0770(4) 0.2721(3) 0.11992(9)
C2 C -0.0783(5) 0.3513(4) 0.09605(10)
H1 H -0.20120 0.38940 0.10870
C3 C -0.0470(5) 0.3714(4) 0.05436(11)
H2 H -0.15000 0.42250 0.03820
C4 C 0.1401(5) 0.3156(4) 0.03529(10)
H3 H 0.16090 0.33220 0.00680
C5 C 0.2890(5) 0.2388(4) 0.05790(9)
H4 H 0.41200 0.20110 0.04520
C6 C 0.3793(4) 0.1376(3) 0.12989(8)
C7 C 0.2675(4) 0.1550(3) 0.16718(8)
C8 C 0.3229(4) 0.1044(3) 0.21019(8)
C9 C 0.1668(4) 0.0447(4) 0.23625(9)
H5 H 0.02990 0.03150 0.22600
C10 C 0.2118(5) 0.0044(4) 0.27730(9)
H6 H 0.10600 -0.03700 0.29450
C11 C 0.4130(5) 0.0255(4) 0.29276(10)
H7 H 0.44320 -0.00060 0.32050
C12 C 0.5688(5) 0.0847(4) 0.26742(9)
H8 H 0.70490 0.09890 0.27800
C13 C 0.5257(4) 0.1233(4) 0.22643(9)
H9 H 0.63330 0.16250 0.20940
C14 C 0.6689(4) -0.0378(3) 0.13577(8)
H10 H 0.63030 -0.06350 0.16310
C15 C 0.8565(4) -0.1127(3) 0.11760(8)
C16 C 0.9140(4) -0.0840(4) 0.07624(9)
H11 H 0.82970 -0.01790 0.05950
C17 C 1.0940(4) -0.1522(4) 0.05985(9)
H12 H 1.13270 -0.13220 0.03220
C18 C 1.2157(4) -0.2502(4) 0.08487(9)
C19 C 1.1633(5) -0.2815(4) 0.12558(10)
H13 H 1.24760 -0.34850 0.14200
C20 C 0.9837(5) -0.2120(4) 0.14175(9)
H14 H 0.94690 -0.23220 0.16950
N1 N 0.2564(3) 0.2168(3) 0.09989(7)
N2 N 0.0822(3) 0.2362(3) 0.16068(7)
N3 N 0.5571(3) 0.0620(3) 0.11496(7)
N4 N 1.4086(4) -0.3227(4) 0.06752(10)
O1 O 1.4562(4) -0.2899(5) 0.03183(10)
O2 O 1.5121(4) -0.4120(4) 0.08954(10)
#END
