
#######################################################################
#
#                 Cambridge Crystallographic Data Centre
#                                CCDC
#
#######################################################################
#
# If this CIF has been generated from an entry in the Cambridge
# Structural Database, then it will include bibliographic, chemical,
# crystal, experimental, refinement or atomic coordinate data resulting
# from the CCDC's data processing and validation procedures.
#
#######################################################################

data_CSD_CIF_RAGFOW
_audit_creation_date 2012-01-25
_audit_creation_method CSD-ConQuest-V1
_database_code_CSD RAGFOW
_database_code_depnum_ccdc_archive 'CCDC 717982 (not 717983 as published)'
_chemical_formula_sum 'C27 H41 N1 O4'
_chemical_formula_moiety
;
C27 H41 N1 O4
;
_journal_coden_Cambridge 82
_journal_volume 51
_journal_year 2010
_journal_page_first 1242
_journal_name_full 'Zh.Strukt.Khim.(Russ.)(J.Struct.Chem.) '
loop_
_publ_author_name
"I.E.Smirnova"
"E.V.Tret'yakova"
"O.B.Kazakova"
"K.Yu.Suponitsky"
_chemical_name_systematic
;
Methyl 
20-isopropyl-15(E)-hydroxyimino-5,9-dimethyl-18-oxahexacyclo(12.4.0.2^2,13^.1^
18,20^.0^5,10^.0^4,13^)henicosane-9-carboxylate
;
_chemical_name_common
;
1,13-epoxy-4-oximino-dihydroquinopimaric acid
;
_chemical_melting_point 277
_cell_volume   1187.942
_exptl_crystal_colour 'colorless'
_exptl_crystal_density_diffrn 1.24
_exptl_special_details
;
Melting point range 277-279K

;
_exptl_crystal_description 'plate'
_exptl_crystal_preparation 'methanol'
_diffrn_ambient_temperature 120
#These two values have been output from a single CSD field.
_refine_ls_R_factor_gt 0.0597
_refine_ls_wR_factor_gt 0.0597
_symmetry_cell_setting monoclinic
_symmetry_space_group_name_H-M 'P 21'
_symmetry_Int_Tables_number 4
loop_
_symmetry_equiv_pos_site_id
_symmetry_equiv_pos_as_xyz
1 x,y,z
2 -x,1/2+y,-z
_cell_length_a 7.6511(7)
_cell_length_b 12.0698(11)
_cell_length_c 12.9182(12)
_cell_angle_alpha 90
_cell_angle_beta 95.257(2)
_cell_angle_gamma 90
_cell_formula_units_Z 2
loop_
_atom_type_symbol
_atom_type_radius_bond
C 0.68
H 0.23
N 0.68
O 0.68
loop_
_atom_site_label
_atom_site_type_symbol
_atom_site_fract_x
_atom_site_fract_y
_atom_site_fract_z
O1 O -0.1885(3) -0.9338(2) -0.59121(18)
O2 O -0.6558(3) -1.2251(2) -0.43482(19)
H1 H -0.70220 -1.28560 -0.41780
O3 O -0.4412(3) -1.5751(2) -0.81306(19)
O4 O -0.5394(4) -1.5745(3) -0.9804(2)
N1 N -0.4961(4) -1.2494(3) -0.4787(2)
C1 C 0.0529(4) -1.3782(3) -0.8216(3)
H2 H 0.15990 -1.33200 -0.82050
H3 H 0.06260 -1.42420 -0.75790
C2 C 0.0438(5) -1.4546(3) -0.9171(3)
H4 H 0.04060 -1.40930 -0.98120
H5 H 0.14970 -1.50200 -0.91390
C3 C -0.1206(5) -1.5273(3) -0.9203(3)
H6 H -0.11360 -1.57510 -0.85780
H7 H -0.12500 -1.57600 -0.98220
C4 C -0.2913(4) -1.4570(3) -0.9246(2)
C5 C -0.2761(4) -1.3750(3) -0.8328(2)
H8 H -0.26810 -1.42280 -0.76940
C6 C -0.4396(4) -1.3039(3) -0.8244(3)
H9 H -0.54620 -1.34940 -0.84040
H10 H -0.44190 -1.24250 -0.87530
C7 C -0.4378(4) -1.2566(3) -0.7143(2)
H11 H -0.44940 -1.31860 -0.66510
H12 H -0.54140 -1.20800 -0.71110
C8 C -0.2719(4) -1.1903(3) -0.6785(2)
C9 C -0.1042(4) -1.2519(3) -0.7081(2)
H13 H -0.09230 -1.31730 -0.66050
C10 C -0.1082(4) -1.3021(3) -0.8204(3)
C11 C 0.0582(4) -1.1793(3) -0.6758(3)
H14 H 0.14650 -1.22390 -0.63340
H15 H 0.11150 -1.15430 -0.73880
C12 C 0.0087(4) -1.0785(3) -0.6135(3)
H16 H 0.11710 -1.03640 -0.58850
C13 C -0.0952(4) -1.1068(3) -0.5210(3)
H17 H -0.01750 -1.14070 -0.46300
C14 C -0.2496(4) -1.1847(3) -0.5565(2)
H18 H -0.21080 -1.26050 -0.53300
C15 C -0.4164(4) -1.1626(3) -0.5056(3)
C16 C -0.4698(5) -1.0451(3) -0.4862(3)
H19 H -0.56910 -1.04420 -0.44220
H20 H -0.50800 -1.00840 -0.55300
C17 C -0.3128(5) -0.9832(3) -0.4315(3)
H21 H -0.34480 -0.90450 -0.42270
H22 H -0.28390 -1.01540 -0.36150
C18 C -0.1528(5) -0.9898(3) -0.4924(3)
H23 H -0.05240 -0.95190 -0.45180
C19 C -0.4391(5) -1.5398(3) -0.9120(3)
C20 C -0.5704(5) -1.6583(3) -0.7957(3)
H24 H -0.55840 -1.68010 -0.72230
H25 H -0.55240 -1.72320 -0.83900
H26 H -0.68820 -1.62820 -0.81380
C21 C -0.3305(5) -1.4033(3) -1.0323(3)
H27 H -0.43540 -1.35670 -1.03230
H28 H -0.35070 -1.46140 -1.08510
H29 H -0.23030 -1.35770 -1.04810
C22 C -0.0995(5) -1.2142(3) -0.9059(3)
H30 H -0.05420 -1.24800 -0.96700
H31 H -0.02140 -1.15390 -0.88010
H32 H -0.21730 -1.18460 -0.92500
C23 C -0.2752(4) -1.0721(3) -0.7239(2)
H33 H -0.38820 -1.03640 -0.71230
H34 H -0.26690 -1.07630 -0.79980
C24 C -0.1225(4) -1.0004(3) -0.6737(3)
C25 C -0.0463(5) -0.9220(3) -0.7514(3)
H35 H 0.00020 -0.96900 -0.80640
C26 C 0.1065(6) -0.8527(4) -0.7026(3)
H36 H 0.14060 -0.79810 -0.75320
H37 H 0.20650 -0.90120 -0.68210
H38 H 0.07070 -0.81420 -0.64120
C27 C -0.1867(5) -0.8465(3) -0.8052(3)
H39 H -0.13550 -0.80270 -0.85860
H40 H -0.23160 -0.79680 -0.75380
H41 H -0.28310 -0.89170 -0.83760
#END
