
#######################################################################
#
#                 Cambridge Crystallographic Data Centre
#                                CCDC
#
#######################################################################
#
# If this CIF has been generated from an entry in the Cambridge
# Structural Database, then it will include bibliographic, chemical,
# crystal, experimental, refinement or atomic coordinate data resulting
# from the CCDC's data processing and validation procedures.
#
#######################################################################

data_CSD_CIF_RALSUV
_audit_creation_date 2017-01-17
_audit_creation_method CSD-ConQuest-V1
_database_code_CSD RALSUV
_database_code_depnum_ccdc_archive 'CCDC 867543'
_chemical_formula_sum 'C14 H25 N1 O3'
_chemical_formula_moiety
;
C14 H25 N1 O3
;
_journal_coden_Cambridge 241
_journal_volume 41
_journal_year 2012
_journal_page_first 999
_journal_name_full 'Chem.Lett. '
loop_
_publ_author_name
"T.Koike"
"Yusuke Yasu"
"M.Akita"
_chemical_name_systematic
;
3-((2,2,6,6-tetramethylpiperidin-1-yl)oxy)pentane-2,4-dione
;
_cell_volume   1416.250
_exptl_crystal_colour 'colorless'
_exptl_crystal_density_diffrn 1.197
_exptl_crystal_description 'prism'
_diffrn_ambient_temperature 90
#These two values have been output from a single CSD field.
_refine_ls_R_factor_gt 0.0602
_refine_ls_wR_factor_gt 0.0602
_symmetry_cell_setting monoclinic
_symmetry_space_group_name_H-M 'P 21/n'
_symmetry_Int_Tables_number 14
loop_
_symmetry_equiv_pos_site_id
_symmetry_equiv_pos_as_xyz
1 x,y,z
2 1/2-x,1/2+y,1/2-z
3 -x,-y,-z
4 -1/2+x,-1/2-y,-1/2+z
_cell_length_a 14.016(10)
_cell_length_b 5.872(4)
_cell_length_c 18.197(13)
_cell_angle_alpha 90
_cell_angle_beta 108.977(9)
_cell_angle_gamma 90
_cell_formula_units_Z 4
loop_
_atom_type_symbol
_atom_type_radius_bond
C 0.68
H 0.23
N 0.68
O 0.68
loop_
_atom_site_label
_atom_site_type_symbol
_atom_site_fract_x
_atom_site_fract_y
_atom_site_fract_z
O1 O 0.48933(12) 0.7462(3) 0.22091(8)
O2 O 0.56995(14) 1.0907(3) 0.0969(1)
O3 O 0.31143(15) 0.7882(4) 0.10670(11)
C1 C 0.53805(19) 0.9198(4) 0.11790(13)
C2 C 0.66503(19) 0.8025(5) 0.42125(13)
H1 H 0.73270 0.73700 0.44750
H2 H 0.67130 0.97040 0.42450
C3 C 0.62978(18) 0.7312(4) 0.33564(13)
C4 C 0.48992(19) 0.8212(5) 0.42192(13)
H3 H 0.49300 0.98960 0.42490
H4 H 0.44300 0.76950 0.44910
C5 C 0.69461(19) 0.8538(4) 0.29605(13)
H5 H 0.67920 0.79660 0.24290
H6 H 0.76600 0.82670 0.32500
H7 H 0.68070 1.01760 0.29470
C6 C 0.44789(19) 0.7506(4) 0.33697(13)
C7 C 0.35439(19) 0.8900(5) 0.29778(13)
H8 H 0.37350 1.04920 0.29430
H9 H 0.30830 0.88080 0.32820
H10 H 0.32080 0.83040 0.24540
C8 C 0.6432(2) 0.4757(4) 0.32772(14)
H11 H 0.61220 0.39340 0.36100
H12 H 0.71530 0.43940 0.34360
H13 H 0.61080 0.43000 0.27350
C9 C 0.59385(19) 0.7262(5) 0.46372(13)
H14 H 0.59110 0.55780 0.46480
H15 H 0.61810 0.78200 0.51800
C10 C 0.4188(2) 0.4999(5) 0.32851(14)
H16 H 0.40600 0.45230 0.27450
H17 H 0.35760 0.47730 0.34260
H18 H 0.47390 0.40880 0.36290
C11 C 0.3648(2) 0.9532(5) 0.11855(13)
C12 C 0.47450(19) 0.9376(4) 0.17148(13)
H19 H 0.49300 1.07920 0.20350
C13 C 0.5514(2) 0.6904(5) 0.08903(14)
H20 H 0.49180 0.65100 0.04490
H21 H 0.56010 0.57860 0.13070
H22 H 0.61130 0.68980 0.07240
C14 C 0.3317(2) 1.1790(6) 0.08192(16)
H23 H 0.26250 1.16740 0.04610
H24 H 0.37660 1.22690 0.05320
H25 H 0.33430 1.29130 0.12240
N1 N 0.52572(15) 0.8198(3) 0.30162(10)
#END
