
#######################################################################
#
#                 Cambridge Crystallographic Data Centre
#                                CCDC
#
#######################################################################
#
# If this CIF has been generated from an entry in the Cambridge
# Structural Database, then it will include bibliographic, chemical,
# crystal, experimental, refinement or atomic coordinate data resulting
# from the CCDC's data processing and validation procedures.
#
#######################################################################

data_CSD_CIF_RAQROR
_audit_creation_date 2005-11-21
_audit_creation_method CSD-ConQuest-V1
_database_code_CSD RAQROR
_database_code_depnum_ccdc_archive 'CCDC 267386'
_chemical_formula_sum 'C11 H7 N5 O6'
_chemical_formula_moiety
;
C11 H7 N5 O6
;
_journal_coden_Cambridge 16
_journal_volume 61
_journal_year 2005
_journal_page_first 8167
_journal_name_full 'Tetrahedron '
loop_
_publ_author_name
"S.Kurbatov"
"R.Goumont"
"S.Lakhdar"
"J.Marrot"
"F.Terrier"
_chemical_name_systematic
;
13-Nitro-4,9-dioxy-5,10-dioxa-6,11-diaza-4,9-diazoniapentacyclo[12.2.1.0^2,13^
.0^3,7^.0^8,12^]heptadeca-3,6,8,11,15-pentaene
;
_cell_volume    603.164
_exptl_crystal_colour 'colorless'
_exptl_crystal_density_diffrn 1.681
_exptl_crystal_description 'prism'
_diffrn_ambient_temperature 293
#These two values have been output from a single CSD field.
_refine_ls_R_factor_gt 0.0381
_refine_ls_wR_factor_gt 0.0381
_symmetry_cell_setting triclinic
_symmetry_space_group_name_H-M 'P -1'
_symmetry_Int_Tables_number 2
loop_
_symmetry_equiv_pos_site_id
_symmetry_equiv_pos_as_xyz
1 x,y,z
2 -x,-y,-z
_cell_length_a 7.3592(15)
_cell_length_b 8.1394(16)
_cell_length_c 11.141(2)
_cell_angle_alpha 101.96(3)
_cell_angle_beta 98.09(3)
_cell_angle_gamma 108.60(3)
_cell_formula_units_Z 2
loop_
_atom_type_symbol
_atom_type_radius_bond
C 0.68
H 0.23
N 0.68
O 0.68
loop_
_atom_site_label
_atom_site_type_symbol
_atom_site_fract_x
_atom_site_fract_y
_atom_site_fract_z
O1 O 0.3162(2) 1.13773(17) 0.54409(11)
O2 O 0.12358(17) 0.88599(17) 0.59374(11)
O3 O 1.09741(17) 1.09466(18) 0.86216(12)
O4 O 0.95411(18) 1.23516(15) 0.73741(12)
O5 O 0.1759(2) 0.6678(3) 0.89268(14)
O6 O 0.4548(2) 0.82275(17) 1.01995(11)
N1 N 0.31240(19) 1.02606(17) 0.60343(11)
N2 N 0.15682(19) 0.77462(19) 0.66486(13)
N3 N 0.94226(19) 1.09671(17) 0.80624(12)
N4 N 0.7673(2) 1.21418(17) 0.68222(14)
N5 N 0.35117(19) 0.75148(18) 0.91507(12)
C1 C 0.44421(19) 0.75418(17) 0.79921(12)
C2 C 0.67381(19) 0.84520(18) 0.84057(13)
H1 H 0.713(2) 0.883(2) 0.9313(16)
C3 C 0.7538(2) 1.00170(18) 0.78902(12)
C4 C 0.6521(2) 1.07780(18) 0.71392(13)
C5 C 0.4431(2) 0.99330(18) 0.67912(13)
C6 C 0.3436(2) 0.83941(18) 0.71657(13)
C7 C 0.4111(2) 0.55391(18) 0.72882(14)
H2 H 0.281(3) 0.496(2) 0.6746(17)
C8 C 0.4831(2) 0.47199(19) 0.82714(15)
H3 H 0.395(3) 0.391(3) 0.8590(18)
C9 C 0.6755(2) 0.5494(2) 0.86105(14)
H4 H 0.764(3) 0.535(3) 0.9267(17)
C10 C 0.7400(2) 0.6845(2) 0.78668(14)
H5 H 0.877(3) 0.727(2) 0.7881(16)
C11 C 0.5845(2) 0.5915(2) 0.66351(14)
H6 H 0.582(2) 0.665(2) 0.6060(15)
H7 H 0.591(2) 0.481(2) 0.6168(15)
#END
