
#######################################################################
#
#                 Cambridge Crystallographic Data Centre
#                                CCDC
#
#######################################################################
#
# If this CIF has been generated from an entry in the Cambridge
# Structural Database, then it will include bibliographic, chemical,
# crystal, experimental, refinement or atomic coordinate data resulting
# from the CCDC's data processing and validation procedures.
#
#######################################################################

data_CSD_CIF_RESKIJ
_audit_creation_date 1997-10-02
_audit_creation_method CSD-ConQuest-V1
_database_code_CSD RESKIJ
_database_code_depnum_ccdc_archive 'CCDC 129014'
_chemical_formula_sum 'C17 H22 N2 O2'
_chemical_formula_moiety
;
C17 H22 N2 O2
;
_journal_coeditor_code "IUCr VJ1058"
_journal_coden_Cambridge 591
_journal_volume 53
_journal_year 1997
_journal_page_first 1086
_journal_name_full 'Acta Crystallogr.,Sect.C:Cryst.Struct.Commun. '
loop_
_publ_author_name
"A.Thiruvalluvar"
"V.Parthasarathi"
"D.Natarajan"
"N.Bhavani"
"M.Bhadbhade"
_chemical_name_systematic
;
3,3-Dimethyl-N-nitroso-2-phenyldecahydroquinolin-4-one
;
_chemical_name_common
;
trans-decahydroquinoline
;
_chemical_melting_point 372
_cell_volume   1519.015
_exptl_crystal_colour 'pale yellow'
_exptl_crystal_density_diffrn 1.252
_exptl_special_details
;
Melting point range 372-373K

;
_diffrn_ambient_temperature ?
_diffrn_special_details
;
The study was carried out at room temperature,in the range 283-303K

;
#These two values have been output from a single CSD field.
_refine_ls_R_factor_gt 0.0587
_refine_ls_wR_factor_gt 0.0587
_symmetry_cell_setting monoclinic
_symmetry_space_group_name_H-M 'P 21/a'
_symmetry_Int_Tables_number 14
loop_
_symmetry_equiv_pos_site_id
_symmetry_equiv_pos_as_xyz
1 x,y,z
2 1/2-x,1/2+y,-z
3 -x,-y,-z
4 -1/2+x,-1/2-y,z
_cell_length_a 7.596(2)
_cell_length_b 22.882(11)
_cell_length_c 9.311(2)
_cell_angle_alpha 90
_cell_angle_beta 110.18(2)
_cell_angle_gamma 90
_cell_formula_units_Z 4
loop_
_atom_type_symbol
_atom_type_radius_bond
C 0.68
H 0.23
N 0.68
O 0.68
loop_
_atom_site_label
_atom_site_type_symbol
_atom_site_fract_x
_atom_site_fract_y
_atom_site_fract_z
O1 O 0.0707(3) 0.78789(8) -0.2969(2)
O2 O 0.2075(3) 0.97853(8) 0.1825(2)
N1 N 0.1806(2) 0.93462(7) -0.0291(2)
C1 C 0.1523(3) 0.87917(9) 0.0405(2)
C2 C 0.0313(3) 0.83693(9) -0.0840(2)
C3 C 0.1051(3) 0.83082(9) -0.2166(2)
C4 C 0.2072(4) 0.88474(14) -0.4118(3)
C5 C 0.3345(4) 0.9325(2) -0.4326(3)
C6 C 0.2916(4) 0.99036(15) -0.3759(3)
C7 C 0.2972(4) 0.98748(12) -0.2113(3)
C8 C 0.1697(3) 0.93965(9) -0.1900(2)
C9 C 0.2176(3) 0.88088(10) -0.2455(2)
N2 N 0.2048(3) 0.98380(8) 0.0493(2)
C10 C 0.3376(3) 0.85644(9) 0.1523(2)
C11 C 0.5099(3) 0.86901(10) 0.1391(3)
C12 C 0.6748(3) 0.84968(12) 0.2465(3)
C13 C 0.6731(4) 0.81725(11) 0.3703(3)
C14 C 0.5028(5) 0.80457(12) 0.3842(3)
C15 C 0.3389(4) 0.82364(11) 0.2780(3)
C16 C 0.0187(3) 0.77669(11) -0.0182(3)
C17 C -0.1699(3) 0.86159(12) -0.1533(3)
H1 H 0.08240 0.88800 0.10520
H2 H 0.08100 0.89160 -0.47490
H3 H 0.23610 0.84680 -0.43980
H4 H 0.32360 0.93400 -0.53750
H5 H 0.46280 0.92330 -0.37940
H6 H 0.17190 1.00380 -0.43920
H7 H 0.37250 1.02060 -0.38550
H8 H 0.42310 0.97880 -0.14940
H9 H 0.26280 1.02420 -0.18110
H10 H 0.04170 0.94780 -0.24680
H11 H 0.34340 0.87280 -0.18270
H12 H 0.51210 0.89200 0.05460
H13 H 0.79020 0.86060 0.23580
H14 H 0.78470 0.80540 0.44900
H15 H 0.49390 0.78280 0.46820
H16 H 0.21940 0.81620 0.28560
H17 H 0.13930 0.75930 0.02420
H18 H -0.02460 0.77860 0.06580
H19 H -0.06260 0.75460 -0.10080
H20 H -0.24490 0.83770 -0.23540
H21 H -0.17360 0.90020 -0.19240
H22 H -0.21370 0.86460 -0.06960
#END
