
#######################################################################
#
#                 Cambridge Crystallographic Data Centre
#                                CCDC
#
#######################################################################
#
# If this CIF has been generated from an entry in the Cambridge
# Structural Database, then it will include bibliographic, chemical,
# crystal, experimental, refinement or atomic coordinate data resulting
# from the CCDC's data processing and validation procedures.
#
#######################################################################

data_CSD_CIF_REZROG
_audit_creation_date 2018-07-04
_audit_creation_method CSD-ConQuest-V1
_database_code_CSD REZROG
_database_code_depnum_ccdc_archive 'CCDC 1825178'
_chemical_formula_sum 'C15 H12 N4 O6'
_chemical_formula_moiety
;
C15 H12 N4 O6
;
_journal_coden_Cambridge 179
_journal_volume 57
_journal_year 2018
_journal_page_first 4912
_journal_name_full 'Angew.Chem.,Int.Ed. '
loop_
_publ_author_name
"S.M.Meckler"
"J.E.Bachman"
"B.P.Robertson"
"Chenhui Zhu"
"J.R.Long"
"B.A.Helms"
_chemical_name_systematic
;
1,7-dinitro-6H,12H-5,11-methanodibenzo[b,f][1,5]diazocine-2,8-diol
;
_cell_volume   1343.216
_exptl_crystal_colour 'orange'
_exptl_crystal_density_diffrn 1.702
_exptl_crystal_description 'Block'
_exptl_crystal_preparation 'N,N-Dimethylformamide/ethyl acetate/hexanes'
_diffrn_ambient_temperature 100
#These two values have been output from a single CSD field.
_refine_ls_R_factor_gt 0.03
_refine_ls_wR_factor_gt 0.03
_symmetry_cell_setting orthorhombic
_symmetry_space_group_name_H-M 'P c c n'
_symmetry_Int_Tables_number 56
loop_
_symmetry_equiv_pos_site_id
_symmetry_equiv_pos_as_xyz
1 x,y,z
2 1/2-x,1/2-y,z
3 -x,1/2+y,1/2-z
4 1/2+x,-y,1/2-z
5 -x,-y,-z
6 -1/2+x,-1/2+y,-z
7 x,-1/2-y,-1/2+z
8 -1/2-x,y,-1/2+z
_cell_length_a 10.7400(11)
_cell_length_b 11.7587(12)
_cell_length_c 10.6361(11)
_cell_angle_alpha 90
_cell_angle_beta 90
_cell_angle_gamma 90
_cell_formula_units_Z 4
loop_
_atom_type_symbol
_atom_type_radius_bond
C 0.68
H 0.23
N 0.68
O 0.68
loop_
_atom_site_label
_atom_site_type_symbol
_atom_site_fract_x
_atom_site_fract_y
_atom_site_fract_z
C1 C 0.62918(11) 0.46685(10) 0.39386(11)
C2 C 0.51639(11) 0.44708(10) 0.33054(11)
C3 C 0.45159(11) 0.34703(10) 0.35693(11)
H1 H 0.37560 0.33120 0.31470
C4 C 0.49729(11) 0.27167(10) 0.44358(11)
H2 H 0.45090 0.20500 0.46230
C5 C 0.61111(11) 0.29031(10) 0.50558(10)
C6 C 0.68058(10) 0.38767(10) 0.48011(11)
C7 C 0.80942(11) 0.40015(10) 0.53980(11)
H3 H 0.87000 0.42420 0.47480
H4 H 0.80650 0.45990 0.60530
C8 C 0.75000 0.25000 0.67490(15)
H5 H 0.78130 0.18810 0.72950
N1 N 0.69362(9) 0.57327(8) 0.37144(9)
N2 N 0.64890(9) 0.20736(9) 0.59648(9)
O1 O 0.77440(8) 0.60476(7) 0.44435(8)
O2 O 0.66390(8) 0.63084(7) 0.27716(8)
O3 O 0.46311(8) 0.51966(8) 0.24771(8)
H6 H 0.519(2) 0.5755(19) 0.2358(19)
H7? H 0.78130 0.18810 0.72950
H5A H 0.71870 0.31190 0.72950
C1A C 0.87082(11) 0.03315(10) 0.39386(11)
C2A C 0.98361(11) 0.05292(10) 0.33054(11)
C3A C 1.04841(11) 0.15297(10) 0.35693(11)
H1A H 1.12440 0.16880 0.31470
C4A C 1.00271(11) 0.22833(10) 0.44358(11)
H2A H 1.04910 0.29500 0.46230
C5A C 0.88889(11) 0.20969(10) 0.50558(10)
C6A C 0.81942(10) 0.11233(10) 0.48011(11)
C7A C 0.69058(11) 0.09985(10) 0.53980(11)
H3A H 0.63000 0.07580 0.47480
H4A H 0.69350 0.04010 0.60530
N1A N 0.80638(9) -0.07327(8) 0.37144(9)
N2A N 0.85110(9) 0.29264(9) 0.59648(9)
O1A O 0.72560(8) -0.10476(7) 0.44435(8)
O2A O 0.83610(8) -0.13084(7) 0.27716(8)
O3A O 1.03689(8) -0.01966(8) 0.24771(8)
H6A H 0.981(2) -0.0755(19) 0.2358(19)
#END
