
#######################################################################
#
#                 Cambridge Crystallographic Data Centre
#                                CCDC
#
#######################################################################
#
# If this CIF has been generated from an entry in the Cambridge
# Structural Database, then it will include bibliographic, chemical,
# crystal, experimental, refinement or atomic coordinate data resulting
# from the CCDC's data processing and validation procedures.
#
#######################################################################

data_CSD_CIF_RIGHUK05
_audit_creation_date 2006-01-09
_audit_creation_method CSD-ConQuest-V1
_database_code_CSD RIGHUK05
_database_code_depnum_ccdc_archive 'CCDC 285675'
_chemical_formula_sum 'C13 H11 N3 O4'
_chemical_formula_moiety
;
C13 H11 N3 O4
;
_journal_coden_Cambridge 1147
_journal_volume 5
_journal_year 2005
_journal_page_first 1699
_journal_name_full 'Cryst.Growth Des. '
loop_
_publ_author_name
"P.Naumov"
"K.Sakurai"
_chemical_name_systematic
;
3-Methyl-2-(2',4'-dinitrobenzyl)pyridine
;
_cell_volume   1291.525
_exptl_crystal_colour 'colorless'
_exptl_special_details
;
photochromic
monoclinic P21/c polymorph A
light-sensitive
reversible phase transition between polymorph A and polymorph B upon 
heating/cooling
;
_exptl_crystal_description 'prism'
_exptl_crystal_preparation 'ethanol'
_diffrn_ambient_temperature 316
#These two values have been output from a single CSD field.
_refine_ls_R_factor_gt 0.0473
_refine_ls_wR_factor_gt 0.0473
_symmetry_cell_setting monoclinic
_symmetry_space_group_name_H-M 'P 21/c'
_symmetry_Int_Tables_number 14
loop_
_symmetry_equiv_pos_site_id
_symmetry_equiv_pos_as_xyz
1 x,y,z
2 -x,1/2+y,1/2-z
3 -x,-y,-z
4 x,-1/2-y,-1/2+z
_cell_length_a 11.3850(7)
_cell_length_b 15.422(1)
_cell_length_c 7.6590(5)
_cell_angle_alpha 90
_cell_angle_beta 106.176(1)
_cell_angle_gamma 90
_cell_formula_units_Z 4
loop_
_atom_type_symbol
_atom_type_radius_bond
C 0.68
H 0.23
N 0.68
O 0.68
loop_
_atom_site_label
_atom_site_type_symbol
_atom_site_fract_x
_atom_site_fract_y
_atom_site_fract_z
N1 N 0.75998(16) 0.04761(12) 0.7901(3)
N2 N 0.84075(19) 0.14407(14) 0.5249(3)
N3 N 0.4678(2) 0.22833(17) 0.0730(4)
C1 C 0.71925(18) 0.11802(14) 0.4104(3)
O1 O 0.92586(15) 0.09444(13) 0.5377(3)
C2 C 0.5620(2) 0.01620(14) 0.2959(3)
H1 H 0.52950 -0.03920 0.29450
C3 C 0.78753(17) -0.02806(13) 0.7263(3)
C4 C 0.65168(19) 0.18279(14) 0.3038(3)
H2 H 0.68110 0.23920 0.30850
C5 C 0.7491(2) -0.04048(14) 0.5232(3)
H3 H 0.69970 -0.09260 0.49600
H4 H 0.82210 -0.05050 0.48420
C6 C 0.4936(2) 0.07859(16) 0.1847(3)
H5 H 0.41720 0.06520 0.10670
O2 O 0.84912(17) 0.21526(12) 0.5984(3)
C7 C 0.84844(18) -0.09503(14) 0.8392(3)
C8 C 0.67809(19) 0.03278(13) 0.4104(3)
C9 C 0.54007(19) 0.16088(14) 0.1911(3)
O3 O 0.5006(2) 0.30345(14) 0.1021(3)
O4 O 0.3820(2) 0.20545(17) -0.0509(4)
C10 C 0.7953(2) 0.05923(17) 0.9696(4)
H6 H 0.77780 0.11220 1.01470
C11 C 0.8819(2) -0.07943(18) 1.0240(4)
H7 H 0.92270 -0.12210 1.10380
C12 C 0.8785(2) -0.17943(17) 0.7615(4)
H8 H 0.91730 -0.21800 0.85890
H9 H 0.93280 -0.16850 0.68800
H10 H 0.80460 -0.20550 0.68830
C13 C 0.8554(2) -0.00144(19) 1.0913(4)
H11 H 0.87780 0.00960 1.21560
#END
