
#######################################################################
#
#                 Cambridge Crystallographic Data Centre
#                                CCDC
#
#######################################################################
#
# If this CIF has been generated from an entry in the Cambridge
# Structural Database, then it will include bibliographic, chemical,
# crystal, experimental, refinement or atomic coordinate data resulting
# from the CCDC's data processing and validation procedures.
#
#######################################################################

data_CSD_CIF_RIHHUL
_audit_creation_date 1997-11-11
_audit_creation_method CSD-ConQuest-V1
_database_code_CSD RIHHUL
_database_code_depnum_ccdc_archive 'CCDC 1249858'
_chemical_formula_sum 'C20 H14 N4 O5'
_chemical_formula_moiety
;
C20 H14 N4 O5
;
_journal_coden_Cambridge 1234
_journal_volume 264
_journal_year 1995
_journal_page_first 215
_journal_name_full 'Mol.Cryst.Liq.Cryst.Sci.Technol.,Sect.A '
loop_
_publ_author_name
"S.M.Aldoshin"
"I.I.Chuev"
"O.A.Kozina"
_chemical_name_systematic
;
o-(p-Nitrobenzamido)-N-(o-nitrobenzilidene)aniline
;
_cell_volume   3599.959
_exptl_crystal_colour 'yellow'
_exptl_crystal_density_diffrn 1.448
_exptl_special_details
;
Several negative signs were missing from z coordinates and coordinates of C7, 
H20 and H14 have been corrected; space group should probably be Pcab (not 
Pbac)
;
_diffrn_ambient_temperature ?
_diffrn_special_details
;
The study was carried out at room temperature,in the range 283-303K

;
#These two values have been output from a single CSD field.
_refine_ls_R_factor_gt 0.047
_refine_ls_wR_factor_gt 0.047
_symmetry_cell_setting orthorhombic
_symmetry_space_group_name_H-M 'P c a b'
_symmetry_Int_Tables_number 61
loop_
_symmetry_equiv_pos_site_id
_symmetry_equiv_pos_as_xyz
1 x,y,z
2 -x,1/2-y,1/2+z
3 1/2+x,-y,1/2-z
4 1/2-x,1/2+y,-z
5 -x,-y,-z
6 x,-1/2+y,-1/2-z
7 -1/2-x,y,-1/2+z
8 -1/2+x,-1/2-y,z
_cell_length_a 39.060(17)
_cell_length_b 14.026(14)
_cell_length_c 6.571(9)
_cell_angle_alpha 90
_cell_angle_beta 90
_cell_angle_gamma 90
_cell_formula_units_Z 8
loop_
_atom_type_symbol
_atom_type_radius_bond
C 0.58
H 0.23
N 0.68
O 0.68
loop_
_atom_site_label
_atom_site_type_symbol
_atom_site_fract_x
_atom_site_fract_y
_atom_site_fract_z
O1 O 0.56470 0.3173(2) 0.5486(4)
O2 O 0.4250(1) 0.4383(2) -0.0340(4)
O3 O 0.4508(1) 0.3837(2) -0.2978(4)
O4 O 0.73650 0.4213(2) 0.2499(4)
O5 O 0.7473(1) 0.5582(2) 0.3864(4)
N1 N 0.59920 0.3314(2) 0.2715(3)
N2 N 0.65200 0.3713(1) 0.0394(3)
N3 N 0.4497(1) 0.4030(2) -0.1166(4)
N4 N 0.7275(1) 0.4944(2) 0.3319(4)
C1 C 0.5686(1) 0.3334(2) 0.3667(5)
C2 C 0.5385(1) 0.3354(2) 0.2310(4)
C3 C 0.5098(1) 0.3952(2) 0.3219(4)
C4 C 0.4805(1) 0.4101(2) 0.2078(4)
C5 C 0.4806(1) 0.3858(2) -0.0044(4)
C6 C 0.5087(1) 0.3459(2) -0.0866(4)
C7 C 0.5381(1) 0.3314(2) 0.0270(4)
C8 C 0.6316(1) 0.3036(2) 0.3511(4)
C9 C 0.6359(1) 0.2569(2) 0.5349(4)
C10 C 0.6685(1) 0.2297(2) 0.5920(5)
C11 C 0.6965(1) 0.2476(2) 0.4690(5)
C12 C 0.6919(1) 0.2950(2) 0.2853(5)
C13 C 0.6595(1) 0.3247(2) 0.2256(4)
C14 C 0.6742(1) 0.4243(2) 0.0456(4)
C15 C 0.6664(1) 0.4732(2) 0.2401(4)
C16 C 0.6911(1) 0.5089(2) 0.3728(4)
C17 C 0.6832(1) 0.5577(2) 0.5496(4)
C18 C 0.6493(1) 0.5725(2) 0.5968(4)
C19 C 0.6242(1) 0.5377(2) 0.4682(5)
C20 C 0.6325(1) 0.4897(2) 0.2939(5)
H1 H 0.600(6) 0.352(2) 0.148(4)
H2 H 0.558(6) 0.298(2) -0.029(4)
H3 H 0.508(6) 0.330(2) -0.225(4)
H4 H 0.461(6) 0.444(2) 0.279(4)
H5 H 0.510(6) 0.409(2) 0.471(4)
H6 H 0.614(6) 0.238(2) 0.629(4)
H7 H 0.673(6) 0.197(2) 0.722(4)
H8 H 0.718(6) 0.222(2) 0.518(4)
H9 H 0.712(6) 0.306(2) 0.198(4)
H10 H 0.697(6) 0.436(2) -0.066(4)
H11 H 0.702(6) 0.582(2) 0.627(4)
H12 H 0.643(6) 0.602(2) 0.728(4)
H13 H 0.600(6) 0.544(2) 0.502(4)
H14 H 0.616(6) 0.467(2) 0.197(4)
#END
