
#######################################################################
#
#                 Cambridge Crystallographic Data Centre
#                                CCDC
#
#######################################################################
#
# If this CIF has been generated from an entry in the Cambridge
# Structural Database, then it will include bibliographic, chemical,
# crystal, experimental, refinement or atomic coordinate data resulting
# from the CCDC's data processing and validation procedures.
#
#######################################################################

data_CSD_CIF_RIJGOG
_audit_creation_date 1997-11-11
_audit_creation_method CSD-ConQuest-V1
_database_code_CSD RIJGOG
_database_code_depnum_ccdc_archive 'CCDC 1249949; CCDC 406533'
_database_code_depnum_ccdc_fiz 'CSD 406533'
_chemical_formula_sum 'C17 H23 N1 O5'
_chemical_formula_moiety
;
C17 H23 N1 O5
;
_journal_coden_Cambridge 1090
_journal_volume 8
_journal_year 1997
_journal_page_first 1545
_journal_name_full 'Tetrahedron:Asymm. '
loop_
_publ_author_name
"A.Bartels"
"P.G.Jones"
"J.Liebscher"
_chemical_name_systematic
;
2R,6R,1'R-2-t-Butyl-6-methyl-5-(2-nitro-1-phenylethyl)-1,3-dioxane-4-one
;
_chemical_melting_point 493.15
_cell_volume    827.877
_exptl_crystal_colour 'colorless'
_exptl_crystal_density_diffrn 1.289
_diffrn_ambient_temperature 173
#These two values have been output from a single CSD field.
_refine_ls_R_factor_gt 0.0453
_refine_ls_wR_factor_gt 0.0453
_symmetry_cell_setting monoclinic
_symmetry_space_group_name_H-M 'P 21'
_symmetry_Int_Tables_number 4
loop_
_symmetry_equiv_pos_site_id
_symmetry_equiv_pos_as_xyz
1 x,y,z
2 -x,1/2+y,-z
_cell_length_a 10.800(2)
_cell_length_b 6.4651(12)
_cell_length_c 12.913(2)
_cell_angle_alpha 90
_cell_angle_beta 113.335(10)
_cell_angle_gamma 90
_cell_formula_units_Z 2
loop_
_atom_type_symbol
_atom_type_radius_bond
C 0.68
H 0.23
N 0.68
O 0.68
loop_
_atom_site_label
_atom_site_type_symbol
_atom_site_fract_x
_atom_site_fract_y
_atom_site_fract_z
C1 C 0.2742(2) 0.2708(4) 0.3727(2)
H1 H 0.3278(2) 0.2033(4) 0.4467(2)
C2 C 0.3222(2) 0.4971(4) 0.3833(2)
H2 H 0.2470(2) 0.5866(4) 0.3329(2)
C3 C 0.3912(3) 0.4588(4) 0.2357(2)
H3 H 0.3108(3) 0.5451(4) 0.1911(2)
C4 C 0.2990(3) 0.1447(4) 0.2830(2)
C5 C 0.3703(3) 0.5754(5) 0.5026(2)
H4 H 0.2964(7) 0.5679(32) 0.5284(7)
H5 H 0.4000(21) 0.7193(12) 0.5055(4)
H6 H 0.4457(15) 0.4901(21) 0.5516(4)
C6 C 0.5017(3) 0.4957(4) 0.1926(2)
C7 C 0.5368(4) 0.7265(5) 0.2072(3)
H7 H 0.5748(20) 0.7613(8) 0.2877(3)
H8 H 0.4550(5) 0.8082(5) 0.1683(15)
H9 H 0.6030(16) 0.7575(8) 0.1750(16)
C8 C 0.6257(3) 0.3649(6) 0.2576(3)
H10 H 0.6620(13) 0.4043(24) 0.3374(5)
H11 H 0.6943(9) 0.3880(27) 0.2270(13)
H12 H 0.6005(6) 0.2184(6) 0.2502(15)
C9 C 0.4459(4) 0.4411(6) 0.0668(3)
H13 H 0.5147(9) 0.4689(35) 0.0369(5)
H14 H 0.3657(14) 0.5252(26) 0.0261(4)
H15 H 0.4215(22) 0.2942(10) 0.0569(3)
C10 C 0.1238(2) 0.2635(4) 0.3580(2)
H16 H 0.1155(2) 0.3593(4) 0.4157(2)
C11 C 0.0865(3) 0.0471(4) 0.3851(2)
H17 H 0.0809(3) -0.0506(4) 0.3244(2)
H18 H 0.1566(3) -0.0033(4) 0.4567(2)
C12 C 0.0255(3) 0.3410(4) 0.2436(2)
C13 C -0.0043(3) 0.2284(5) 0.1440(2)
H19 H 0.0359(3) 0.0968(5) 0.1464(2)
C14 C -0.0927(3) 0.3091(6) 0.0415(3)
H20 H -0.1113(3) 0.2329(6) -0.0259(3)
C15 C -0.1537(3) 0.4987(6) 0.0365(2)
H21 H -0.2143(3) 0.5523(6) -0.0339(2)
C16 C -0.1260(3) 0.6101(5) 0.1346(3)
H22 H -0.1676(3) 0.7405(5) 0.1318(3)
C17 C -0.0372(3) 0.5312(4) 0.2375(2)
H23 H -0.0191(3) 0.6084(4) 0.3045(2)
N1 N -0.0473(2) 0.0582(3) 0.3952(2)
O1 O 0.4339(2) 0.5079(3) 0.34892(14)
O2 O 0.3542(2) 0.2394(3) 0.2186(2)
O3 O 0.2716(2) -0.0350(3) 0.2684(2)
O4 O -0.0555(2) 0.1708(4) 0.4680(2)
O5 O -0.1394(2) -0.0455(4) 0.3326(2)
#END
