
#######################################################################
#
#                 Cambridge Crystallographic Data Centre
#                                CCDC
#
#######################################################################
#
# If this CIF has been generated from an entry in the Cambridge
# Structural Database, then it will include bibliographic, chemical,
# crystal, experimental, refinement or atomic coordinate data resulting
# from the CCDC's data processing and validation procedures.
#
#######################################################################

data_CSD_CIF_RIKBUI
_audit_creation_date 1997-11-11
_audit_creation_method CSD-ConQuest-V1
_database_code_CSD RIKBUI
_database_code_depnum_ccdc_archive 'CCDC 132110'
_chemical_formula_sum 'C26 H39 N1 O3'
_chemical_formula_moiety
;
C26 H39 N1 O3
;
_journal_coden_Cambridge 364
_journal_volume 23
_journal_year 1997
_journal_page_first 147
_journal_name_full 'Bioorg.Khim.(Russ.)(Bioorg.Chem.) '
loop_
_publ_author_name
"R.P.Litvinovskaya"
"A.S.Lyakhov"
"A.A.Govorova"
"S.V.Drach"
"V.A.Khripach"
_chemical_name_systematic
;
(20R,22S,5'S)-22-(3'-Methylisoxazolin-5'-yl)-6-oxo-3\a,5-cyclo-23-nor-5\a-chol
estan-22-ol
;
_cell_volume   1184.639
_exptl_crystal_colour 'colorless'
_exptl_crystal_density_diffrn 1.168
_diffrn_ambient_temperature ?
_diffrn_special_details
;
The study was carried out at room temperature,in the range 283-303K

;
#These two values have been output from a single CSD field.
_refine_ls_R_factor_gt 0.0396
_refine_ls_wR_factor_gt 0.0396
_symmetry_cell_setting monoclinic
_symmetry_space_group_name_H-M 'P 21'
_symmetry_Int_Tables_number 4
loop_
_symmetry_equiv_pos_site_id
_symmetry_equiv_pos_as_xyz
1 x,y,z
2 -x,1/2+y,-z
_cell_length_a 12.476(4)
_cell_length_b 6.408(1)
_cell_length_c 14.922(4)
_cell_angle_alpha 90
_cell_angle_beta 96.77(2)
_cell_angle_gamma 90
_cell_formula_units_Z 2
loop_
_atom_type_symbol
_atom_type_radius_bond
C 0.68
H 0.23
N 0.68
O 0.68
loop_
_atom_site_label
_atom_site_type_symbol
_atom_site_fract_x
_atom_site_fract_y
_atom_site_fract_z
C1 C -0.4071(2) -0.2958(1) -0.5827(2)
C2 C -0.3974(2) -0.0978(9) -0.6381(2)
C3 C -0.2857(2) -0.1029(8) -0.6648(2)
C4 C -0.2466(2) -0.3028(8) -0.7013(2)
C5 C -0.2187(2) -0.2561(7) -0.6018(1)
C6 C -0.1064(2) -0.1927(7) -0.5722(2)
C7 C -0.0785(2) -0.1409(8) -0.4744(1)
C8 C -0.1459(2) -0.2492(7) -0.4092(1)
C9 C -0.2670(2) -0.2341(7) -0.4442(1)
C10 C -0.2916(2) -0.3482(8) -0.5363(2)
C11 C -0.3384(2) -0.3037(8) -0.3734(2)
C12 C -0.3091(2) -0.2032(8) -0.2797(2)
C13 C -0.1904(2) -0.2393(7) -0.2442(1)
C14 C -0.1241(2) -0.1501(7) -0.3158(1)
C15 C -0.0082(2) -0.1505(8) -0.2705(1)
C16 C -0.0203(2) -0.0975(8) -0.1715(1)
C17 C -0.1434(2) -0.1058(7) -0.1612(1)
C18 C -0.1682(2) -0.4720(8) -0.2259(2)
C19 C -0.2755(3) -0.5845(8) -0.5264(2)
C20 C -0.1634(2) -0.1713(7) -0.0654(1)
C21 C -0.0973(2) -0.0353(8) 0.0049(2)
C22 C -0.2840(2) -0.1629(7) -0.0524(2)
O1 O -0.0395(2) -0.1702(7) -0.6249(1)
O2 O -0.3174(2) 0.0492(7) -0.0623(1)
O3 O -0.4214(1) -0.2282(7) 0.0451(1)
N1 N -0.4529(2) -0.4012(7) 0.0951(1)
C23 C -0.3792(2) -0.5394(7) 0.1014(1)
C24 C -0.2841(2) -0.4787(8) 0.0548(2)
C25 C -0.3061(2) -0.2487(7) 0.0382(1)
C26 C -0.3929(3) -0.7398(8) 0.1474(2)
H1 H -0.387(3) 0.052(6) -0.074(2)
#END
