
#######################################################################
#
#                 Cambridge Crystallographic Data Centre
#                                CCDC
#
#######################################################################
#
# If this CIF has been generated from an entry in the Cambridge
# Structural Database, then it will include bibliographic, chemical,
# crystal, experimental, refinement or atomic coordinate data resulting
# from the CCDC's data processing and validation procedures.
#
#######################################################################

data_CSD_CIF_RIPNIN
_audit_creation_date 1997-11-21
_audit_creation_method CSD-ConQuest-V1
_database_code_CSD RIPNIN
_chemical_formula_sum 'C17 H20 N4 O5'
_chemical_formula_moiety
;
C17 H20 N4 O5
;
_journal_coden_Cambridge 35
_journal_volume 62
_journal_year 1997
_journal_page_first 1702
_journal_name_full 'J.Org.Chem. '
loop_
_publ_author_name
"L.A.Paquette"
"J.C.Lanter"
"J.N.Johnston"
_chemical_name_systematic
;
(2R,5R)-2-Methyl-2-vinyl-1-oxaspiro(4.4)nonan-6-one 2,4-dinitrophenylhydrazone
;
_chemical_melting_point 412.15
_cell_volume   1771.378
_exptl_crystal_colour 'yellow'
_exptl_crystal_density_diffrn 1.35
_exptl_special_details
;
Melting point range 412.15-413.15K

;
_diffrn_ambient_temperature ?
_diffrn_special_details
;
The study was carried out at room temperature,in the range 283-303K

;
_refine_special_details
;
The proximal methyl and vinyl groups are disordered with respect to each 
other; occupancy factors are 0.74:0.26 for C11:C18.
;
#These two values have been output from a single CSD field.
_refine_ls_R_factor_gt 0.055
_refine_ls_wR_factor_gt 0.055
_symmetry_cell_setting monoclinic
_symmetry_space_group_name_H-M 'P 21/c'
_symmetry_Int_Tables_number 14
loop_
_symmetry_equiv_pos_site_id
_symmetry_equiv_pos_as_xyz
1 x,y,z
2 -x,1/2+y,1/2-z
3 -x,-y,-z
4 x,-1/2-y,-1/2+z
_cell_length_a 13.573(2)
_cell_length_b 9.271(3)
_cell_length_c 14.677(2)
_cell_angle_alpha 90
_cell_angle_beta 106.44(1)
_cell_angle_gamma 90
_cell_formula_units_Z 4
loop_
_atom_type_symbol
_atom_type_radius_bond
C 0.68
H 0.23
N 0.68
O 0.68
loop_
_atom_site_label
_atom_site_type_symbol
_atom_site_fract_x
_atom_site_fract_y
_atom_site_fract_z
O1 O 0.7738(3) 0.1585(5) 0.3155(3)
O2 O 0.5041(4) 0.7427(5) 0.3293(4)
O3 O 0.3720(4) 0.8007(6) 0.3740(4)
O4 O 0.1393(4) 0.4410(7) 0.4156(5)
O5 O 0.1762(5) 0.2175(7) 0.4109(5)
N1 N 0.6501(4) 0.3712(6) 0.3679(4)
N2 N 0.5815(4) 0.4831(7) 0.3621(4)
N3 N 0.4307(5) 0.7098(8) 0.3586(4)
N4 N 0.1981(5) 0.3452(9) 0.4112(5)
C1 C 0.8164(5) 0.2941(8) 0.3516(5)
C2 C 0.8814(5) 0.2617(8) 0.4538(5)
C3 C 0.8230(5) 0.1389(8) 0.4821(5)
C4 C 0.7887(5) 0.0520(8) 0.3901(5)
C5 C 0.8762(5) 0.3647(9) 0.2895(6)
C6 C 0.8749(6) 0.5267(9) 0.3117(6)
C7 C 0.7650(5) 0.5484(9) 0.3202(6)
C8 C 0.7333(5) 0.4056(7) 0.3490(5)
C9 C 0.6875(6) -0.0243(8) 0.3779(6)
C10 C 0.8675(6) -0.0550(9) 0.3820(6)
C11 C 0.9224(8) -0.051(1) 0.3249(7)
C12 C 0.4891(5) 0.4522(9) 0.3743(4)
C13 C 0.4121(5) 0.5599(9) 0.3746(4)
C14 C 0.3193(5) 0.5228(9) 0.3873(5)
C15 C 0.2986(5) 0.3848(10) 0.4006(5)
C16 C 0.3690(6) 0.2747(8) 0.4034(5)
C17 C 0.4627(5) 0.3082(9) 0.3916(5)
C18? C 0.634(3) 0.006(4) 0.435(2)
H1 H 0.26790 0.59750 0.38660
H2 H 0.35150 0.17460 0.41360
H3 H 0.51300 0.23100 0.39510
H4 H 0.95120 0.23210 0.45510
H5 H 0.88480 0.34580 0.49490
H6 H 0.86760 0.08180 0.53390
H7 H 0.76410 0.17440 0.50190
H8 H 0.94690 0.32860 0.30580
H9 H 0.84260 0.34670 0.22200
H10 H 0.92650 0.55060 0.37150
H11 H 0.88680 0.58530 0.26030
H12 H 0.76460 0.62150 0.36820
H13 H 0.71860 0.57820 0.25880
H14 H 0.579(4) 0.581(6) 0.339(4)
H15 H 0.87780 -0.13870 0.42430
H16 H 0.97050 -0.12620 0.32580
H17 H 0.91590 0.02690 0.28190
H18 H 0.66310 -0.09410 0.32870
H19? H 0.65970 0.07680 0.48390
H20? H 0.57050 -0.03900 0.42960
H21? H 0.84480 -0.10340 0.31980
H22? H 0.93180 -0.00550 0.38840
H23 H 0.63050 0.03970 0.36250
H24 H 0.68610 -0.07930 0.43260
#END
