
#######################################################################
#
#                 Cambridge Crystallographic Data Centre
#                                CCDC
#
#######################################################################
#
# If this CIF has been generated from an entry in the Cambridge
# Structural Database, then it will include bibliographic, chemical,
# crystal, experimental, refinement or atomic coordinate data resulting
# from the CCDC's data processing and validation procedures.
#
#######################################################################

data_CSD_CIF_RITKUC
_audit_creation_date 2013-12-06
_audit_creation_method CSD-ConQuest-V1
_database_code_CSD RITKUC
_database_code_depnum_ccdc_archive 'CCDC 974567'
_chemical_formula_sum 'C15 H10 N2 O7'
_chemical_formula_moiety
;
C15 H10 N2 O7
;
_journal_coeditor_code "IUCr ng5349"
_journal_coden_Cambridge 1370
_journal_volume 70
_journal_year 2014
_journal_page_first o17
_journal_name_full 'Acta Crystallogr.,Sect.E:Struct.Rep.Online '
loop_
_publ_author_name
"R.Moreno-Fuquen"
"G.Hernandez"
"A.R.Kennedy"
_chemical_name_systematic
;
4-formyl-2-nitrophenyl 3-nitro-2-methyl benzoate
;
_chemical_melting_point 398
_cell_volume   1353.758
_exptl_crystal_colour 'pale yellow'
_exptl_crystal_density_diffrn 1.62
_exptl_crystal_description 'block'
_diffrn_ambient_temperature 123
#These two values have been output from a single CSD field.
_refine_ls_R_factor_gt 0.0402
_refine_ls_wR_factor_gt 0.0402
_symmetry_cell_setting monoclinic
_symmetry_space_group_name_H-M 'P 21/c'
_symmetry_Int_Tables_number 14
loop_
_symmetry_equiv_pos_site_id
_symmetry_equiv_pos_as_xyz
1 x,y,z
2 -x,1/2+y,1/2-z
3 -x,-y,-z
4 x,-1/2-y,-1/2+z
_cell_length_a 12.7162(5)
_cell_length_b 8.0719(2)
_cell_length_c 14.1156(5)
_cell_angle_alpha 90
_cell_angle_beta 110.877(4)
_cell_angle_gamma 90
_cell_formula_units_Z 4
loop_
_atom_type_symbol
_atom_type_radius_bond
C 0.68
H 0.23
N 0.68
O 0.68
loop_
_atom_site_label
_atom_site_type_symbol
_atom_site_fract_x
_atom_site_fract_y
_atom_site_fract_z
O1 O -0.02565(8) 0.82147(13) 0.96445(8)
O2 O -0.00317(8) 0.97501(13) 0.83848(7)
O3 O -0.14515(10) 0.70025(14) 0.76210(9)
O4 O -0.2737(1) 0.70420(14) 0.83088(10)
O5 O -0.44451(10) 1.42910(14) 0.70371(9)
O6 O 0.32188(10) 0.37636(14) 0.95119(9)
O7 O 0.45585(9) 0.47549(15) 1.08175(8)
N1 N -0.20884(10) 0.77299(16) 0.79668(10)
N2 N 0.36621(10) 0.48942(16) 1.01005(9)
C1 C 0.15564(12) 0.83319(18) 0.94637(10)
C2 C 0.22771(12) 0.96879(18) 0.95875(11)
H1 H 0.19730 1.07740 0.94450
C3 C 0.34317(13) 0.94602(19) 0.99163(11)
H2 H 0.39210 1.03860 1.00170
C4 C 0.38658(12) 0.78678(19) 1.00971(11)
H3 H 0.46560 0.76890 1.03330
C5 C 0.31330(12) 0.65466(18) 0.99296(11)
C6 C 0.19555(12) 0.66950(18) 0.96223(10)
C7 C 0.03361(12) 0.87005(17) 0.92016(10)
C8 C -0.11021(12) 1.04391(18) 0.81185(10)
C9 C -0.20853(12) 0.95402(18) 0.79489(10)
C10 C -0.31127(12) 1.03321(18) 0.77283(10)
H4 H -0.37710 0.97130 0.76600
C11 C -0.31668(12) 1.20438(18) 0.76078(10)
C12 C -0.21895(12) 1.29445(18) 0.77370(11)
H5 H -0.22310 1.41100 0.76380
C13 C -0.11619(12) 1.21503(18) 0.80080(11)
H6 H -0.04950 1.27750 0.81190
C14 C -0.42791(13) 1.2872(2) 0.73352(11)
H7 H -0.4883(14) 1.218(2) 0.7426(12)
C15 C 0.11801(13) 0.52338(19) 0.94709(12)
H8 H 0.04040 0.56250 0.92960
H9 H 0.13960 0.45830 1.00970
H10 H 0.12340 0.45400 0.89200
#END
