
#######################################################################
#
#                 Cambridge Crystallographic Data Centre
#                                CCDC
#
#######################################################################
#
# If this CIF has been generated from an entry in the Cambridge
# Structural Database, then it will include bibliographic, chemical,
# crystal, experimental, refinement or atomic coordinate data resulting
# from the CCDC's data processing and validation procedures.
#
#######################################################################

data_CSD_CIF_ROGJUT
_audit_creation_date 2008-11-06
_audit_creation_method CSD-ConQuest-V1
_database_code_CSD ROGJUT
_database_code_depnum_ccdc_archive 'CCDC 669700'
_chemical_formula_sum 'C18 H20 N2 O6'
_chemical_formula_moiety
;
C18 H20 N2 O6
;
_journal_coeditor_code "IUCr FL2218"
_journal_coden_Cambridge 1370
_journal_volume 64
_journal_year 2008
_journal_page_first o1917
_journal_name_full 'Acta Crystallogr.,Sect.E:Struct.Rep.Online '
loop_
_publ_author_name
"W.-K.Dong"
"X.-N.He"
"Y.-X.Sun"
"L.Xu"
"Y.-H.Guan"
_chemical_name_systematic
;
6,6'-Dihydroxy-2,2'-((butane-1,4-diyldioxy)bis(nitrilomethylidyne))diphenol
;
_chemical_melting_point 388
_cell_volume   1757.335
_exptl_crystal_colour 'pale brown'
_exptl_crystal_density_diffrn 1.362
_exptl_special_details
;
Melting point range 388-389K

;
_exptl_crystal_description 'block'
_exptl_crystal_preparation 'ethanol'
_diffrn_ambient_temperature 298
#These two values have been output from a single CSD field.
_refine_ls_R_factor_gt 0.0355
_refine_ls_wR_factor_gt 0.0355
_symmetry_cell_setting monoclinic
_symmetry_space_group_name_H-M 'C 2/c'
_symmetry_Int_Tables_number 15
loop_
_symmetry_equiv_pos_site_id
_symmetry_equiv_pos_as_xyz
1 x,y,z
2 1/2+x,1/2+y,z
3 -x,y,1/2-z
4 1/2-x,1/2+y,1/2-z
5 -x,-y,-z
6 -1/2-x,-1/2-y,-z
7 x,-y,-1/2+z
8 -1/2+x,-1/2-y,-1/2+z
_cell_length_a 27.484(3)
_cell_length_b 4.7106(7)
_cell_length_c 14.0081(19)
_cell_angle_alpha 90
_cell_angle_beta 104.306(2)
_cell_angle_gamma 90
_cell_formula_units_Z 4
loop_
_atom_type_symbol
_atom_type_radius_bond
C 0.68
H 0.23
N 0.68
O 0.68
loop_
_atom_site_label
_atom_site_type_symbol
_atom_site_fract_x
_atom_site_fract_y
_atom_site_fract_z
N1 N 0.08963(5) 0.5854(3) 0.37586(9)
O1 O 0.07135(4) 0.7516(3) 0.44261(7)
O2 O 0.09612(4) 0.3675(3) 0.20520(8)
H1 H 0.08480 0.47410 0.24070
O3 O 0.14491(5) 0.0061(3) 0.11078(8)
H2 H 0.12130 0.11370 0.08900
C1 C 0.02835(6) 0.9102(4) 0.39001(12)
H3 H 0.00200 0.78190 0.35650
H4 H 0.03750 1.03120 0.34110
C2 C 0.01029(6) 1.0875(4) 0.46377(12)
H5 H -0.01580 1.21500 0.42870
H6 H 0.03790 1.20270 0.50020
C3 C 0.12781(6) 0.4381(4) 0.41858(12)
H7 H 0.14010 0.45260 0.48650
C4 C 0.15231(5) 0.2489(3) 0.36349(11)
C5 C 0.13584(6) 0.2207(4) 0.26086(11)
C6 C 0.16024(6) 0.0352(4) 0.21112(12)
C7 C 0.20050(7) -0.1205(4) 0.26152(13)
H8 H 0.21650 -0.24510 0.22770
C8 C 0.21755(6) -0.0930(4) 0.36307(13)
H9 H 0.24510 -0.19770 0.39710
C9 C 0.19369(6) 0.0890(4) 0.41324(12)
H10 H 0.20520 0.10620 0.48120
N1D N -0.08963(5) 1.4146(3) 0.62414(9)
O1D O -0.07135(4) 1.2484(3) 0.55739(7)
O2D O -0.09612(4) 1.6325(3) 0.79480(8)
H1D H -0.08480 1.52590 0.75930
O3D O -0.14491(5) 1.9939(3) 0.88922(8)
H2D H -0.12130 1.88630 0.91100
C1D C -0.02835(6) 1.0898(4) 0.60999(12)
H3D H -0.00200 1.21810 0.64350
H4D H -0.03750 0.96880 0.65890
C2D C -0.01029(6) 0.9125(4) 0.53623(12)
H5D H 0.01580 0.78500 0.57130
H6D H -0.03790 0.79730 0.49980
C3D C -0.12781(6) 1.5619(4) 0.58142(12)
H7D H -0.14010 1.54740 0.51350
C4D C -0.15231(5) 1.7511(3) 0.63651(11)
C5D C -0.13584(6) 1.7793(4) 0.73914(11)
C6D C -0.16024(6) 1.9648(4) 0.78888(12)
C7D C -0.20050(7) 2.1205(4) 0.73848(13)
H8D H -0.21650 2.24510 0.77230
C8D C -0.21755(6) 2.0930(4) 0.63693(13)
H9D H -0.24510 2.19770 0.60290
C9D C -0.19369(6) 1.9110(4) 0.58676(12)
H10D H -0.20520 1.89380 0.51880
#END
