
#######################################################################
#
#                 Cambridge Crystallographic Data Centre
#                                CCDC
#
#######################################################################
#
# If this CIF has been generated from an entry in the Cambridge
# Structural Database, then it will include bibliographic, chemical,
# crystal, experimental, refinement or atomic coordinate data resulting
# from the CCDC's data processing and validation procedures.
#
#######################################################################

data_CSD_CIF_ROJZOH
_audit_creation_date 2014-10-09
_audit_creation_method CSD-ConQuest-V1
_database_code_CSD ROJZOH
_database_code_depnum_ccdc_archive 'CCDC 1013201'
_chemical_formula_sum 'C18 H23 N1 O8'
_chemical_formula_moiety
;
C18 H23 N1 O8
;
_journal_coden_Cambridge 1291
_journal_year 2014
_journal_page_first 7364
_journal_name_full 'Eur.J.Org.Chem. '
loop_
_publ_author_name
"M.Richard"
"A.-S.Felten"
"C.Didierjean"
"M.Ruiz-Lopez"
"Y.Chapleur"
"N.Pellegrini-Moise"
_chemical_name_systematic
;
methyl 
(2,2-dimethyl-4-(nitromethyl)tetrahydrofuro[3,4-d][1,3]dioxol-4-yl)(4-methoxyp
henyl)acetate
;
_cell_volume   1874.823
_exptl_crystal_density_diffrn 1.351
_diffrn_ambient_temperature 100
#These two values have been output from a single CSD field.
_refine_ls_R_factor_gt 0.0455
_refine_ls_wR_factor_gt 0.0455
_symmetry_cell_setting orthorhombic
_symmetry_space_group_name_H-M 'P 21 21 21'
_symmetry_Int_Tables_number 19
loop_
_symmetry_equiv_pos_site_id
_symmetry_equiv_pos_as_xyz
1 x,y,z
2 1/2+x,1/2-y,-z
3 -x,1/2+y,1/2-z
4 1/2-x,-y,1/2+z
_cell_length_a 9.1919(4)
_cell_length_b 10.7472(5)
_cell_length_c 18.9784(10)
_cell_angle_alpha 90
_cell_angle_beta 90
_cell_angle_gamma 90
_cell_formula_units_Z 4
loop_
_atom_type_symbol
_atom_type_radius_bond
C 0.68
H 0.23
N 0.68
O 0.68
loop_
_atom_site_label
_atom_site_type_symbol
_atom_site_fract_x
_atom_site_fract_y
_atom_site_fract_z
O1 O 0.86716(15) 0.57967(10) 0.89297(6)
O2 O 0.57993(15) 0.20722(13) 0.65442(7)
O3 O 0.95018(14) 0.65983(10) 0.99500(6)
O4 O 1.05744(13) 0.39525(10) 0.98014(6)
O5 O 0.90918(16) 0.05386(12) 0.95513(8)
O6 O 0.99305(15) 0.16018(12) 1.04317(7)
O7 O 1.15816(14) 0.18599(11) 0.89042(7)
O8 O 1.21250(14) 0.31817(12) 0.80254(7)
N1 N 0.92130(17) 0.15039(13) 0.98866(8)
C1 C 1.0019(2) 0.76955(17) 0.88943(10)
H1 H 0.96730 0.78430 0.84130
H2 H 1.09360 0.72310 0.88790
H3 H 1.01770 0.84950 0.91310
C2 C 0.89010(19) 0.69554(14) 0.92939(9)
C3 C 0.83535(18) 0.48731(14) 0.94394(9)
H4 H 0.733(3) 0.4616(19) 0.9435(11)
C4 C 0.93496(18) 0.37008(14) 0.93614(8)
C5 C 0.99305(18) 0.35566(14) 0.86054(8)
H5 H 1.021(2) 0.4404(19) 0.8474(10)
C6 C 0.88066(18) 0.31067(15) 0.80737(8)
C7 C 0.8002(2) 0.39763(16) 0.76902(9)
H6 H 0.818(2) 0.483(2) 0.7796(11)
C8 C 0.6993(2) 0.35976(17) 0.71948(9)
H7 H 0.645(3) 0.418(2) 0.6948(12)
C9 C 0.67768(18) 0.23347(17) 0.70627(9)
C10 C 0.5711(3) 0.0811(2) 0.63065(12)
H8 H 0.50930 0.07690 0.58870
H9 H 0.52930 0.02930 0.66800
H10 H 0.66880 0.05090 0.61900
C11 C 0.7479(2) 0.76305(17) 0.93956(11)
H11 H 0.70650 0.78400 0.89350
H12 H 0.76480 0.83960 0.96640
H13 H 0.68000 0.70950 0.96540
C12 C 0.88548(19) 0.54496(15) 1.01500(9)
H14 H 0.809(2) 0.555(2) 1.0478(11)
C13 C 1.0020(2) 0.45734(16) 1.04197(9)
H15 H 1.082(3) 0.502(2) 1.0637(11)
H16 H 0.962(3) 0.395(2) 1.0744(12)
C14 C 0.83979(19) 0.26242(15) 0.96437(9)
H17 H 0.789(2) 0.2889(19) 1.0048(11)
H18 H 0.775(2) 0.233(2) 0.9309(11)
C15 C 1.12871(18) 0.27589(15) 0.85543(8)
C16 C 1.3426(2) 0.2467(2) 0.78805(10)
H19 H 1.38850 0.27780 0.74490
H20 H 1.31680 0.15890 0.78190
H21 H 1.41070 0.25500 0.82750
C17 C 0.7552(2) 0.14550(16) 0.74439(9)
H22 H 0.745(3) 0.059(2) 0.7369(12)
C18 C 0.85636(19) 0.18450(15) 0.79437(9)
H23 H 0.907(2) 0.127(2) 0.8212(12)
#END
