
#######################################################################
#
#                 Cambridge Crystallographic Data Centre
#                                CCDC
#
#######################################################################
#
# If this CIF has been generated from an entry in the Cambridge
# Structural Database, then it will include bibliographic, chemical,
# crystal, experimental, refinement or atomic coordinate data resulting
# from the CCDC's data processing and validation procedures.
#
#######################################################################

data_CSD_CIF_ROLBAV
_audit_creation_date 1998-01-15
_audit_creation_method CSD-ConQuest-V1
_database_code_CSD ROLBAV
_database_code_depnum_ccdc_archive 'CCDC 129319'
_chemical_formula_sum 'C10 H6 N4 O4'
_chemical_formula_moiety
;
C10 H6 N4 O4
;
_journal_coeditor_code "IUCr KA1243"
_journal_coden_Cambridge 591
_journal_volume 53
_journal_year 1997
_journal_page_first 1719
_journal_name_full 'Acta Crystallogr.,Sect.C:Cryst.Struct.Commun. '
loop_
_publ_author_name
"M.Pilkington"
"S.Capelli"
"J.Hauser"
"C.Hoffmann"
"H.-B.Burgi"
_chemical_name_systematic
;
4,4'-Dinitro-2,2'-bipyridine
;
_chemical_melting_point 468
_cell_volume    526.230
_exptl_crystal_colour 'pale yellow-orange'
_exptl_crystal_density_diffrn 1.554
_exptl_crystal_description 'plate'
_diffrn_ambient_temperature ?
_diffrn_special_details
;
The study was carried out at room temperature,in the range 283-303K

;
#These two values have been output from a single CSD field.
_refine_ls_R_factor_gt 0.0359
_refine_ls_wR_factor_gt 0.0359
_symmetry_cell_setting monoclinic
_symmetry_space_group_name_H-M 'P 21/c'
_symmetry_Int_Tables_number 14
loop_
_symmetry_equiv_pos_site_id
_symmetry_equiv_pos_as_xyz
1 x,y,z
2 -x,1/2+y,1/2-z
3 -x,-y,-z
4 x,-1/2-y,-1/2+z
_cell_length_a 5.8295(7)
_cell_length_b 5.5407(7)
_cell_length_c 16.345(2)
_cell_angle_alpha 90
_cell_angle_beta 94.607(2)
_cell_angle_gamma 90
_cell_formula_units_Z 2
loop_
_atom_type_symbol
_atom_type_radius_bond
C 0.68
H 0.23
N 0.68
O 0.68
loop_
_atom_site_label
_atom_site_type_symbol
_atom_site_fract_x
_atom_site_fract_y
_atom_site_fract_z
N1 N 0.7757(2) -0.0354(2) 0.05643(7)
C1 C 0.5711(2) 0.0627(2) 0.03357(8)
C2 C 0.4891(2) 0.2682(2) 0.07046(9)
H1 H 0.3474(23) 0.3237(24) 0.0533(9)
C3 C 0.6294(2) 0.3718(2) 0.13211(8)
C4 C 0.8421(3) 0.2798(3) 0.1559(1)
H2 H 0.9418(28) 0.3526(27) 0.197(1)
C5 C 0.9074(3) 0.0744(3) 0.1157(1)
H3 H 1.0540(29) -0.0016(26) 0.1321(10)
N2 N 0.5450(2) 0.5856(2) 0.17480(7)
O1 O 0.3528(2) 0.6587(2) 0.15346(7)
O2 O 0.6726(2) 0.6769(2) 0.22907(7)
C1B C 0.4289(2) -0.0627(2) -0.03357(8)
N1B N 0.2243(2) 0.0354(2) -0.05643(7)
C5B C 0.0926(3) -0.0744(3) -0.1157(1)
C4B C 0.1579(3) -0.2798(3) -0.1559(1)
C3B C 0.3706(2) -0.3718(2) -0.13211(8)
C2B C 0.5109(2) -0.2682(2) -0.07046(9)
H1B H 0.6526(23) -0.3237(24) -0.0533(9)
N2B N 0.4550(2) -0.5856(2) -0.17480(7)
O1B O 0.6472(2) -0.6587(2) -0.15346(7)
O2B O 0.3274(2) -0.6769(2) -0.22907(7)
H2B H 0.0582(28) -0.3526(27) -0.197(1)
H3B H -0.0540(29) 0.0016(26) -0.1321(10)
#END
