
#######################################################################
#
#                 Cambridge Crystallographic Data Centre
#                                CCDC
#
#######################################################################
#
# If this CIF has been generated from an entry in the Cambridge
# Structural Database, then it will include bibliographic, chemical,
# crystal, experimental, refinement or atomic coordinate data resulting
# from the CCDC's data processing and validation procedures.
#
#######################################################################

data_CSD_CIF_RUTVOR
_audit_creation_date 1998-03-12
_audit_creation_method CSD-ConQuest-V1
_database_code_CSD RUTVOR
_chemical_formula_sum 'C24 H20 N2 O2'
_chemical_formula_moiety
;
C24 H20 N2 O2
;
_journal_coden_Cambridge 9
_journal_volume 36
_journal_year 1997
_journal_page_first 5826
_journal_name_full 'Inorg.Chem. '
loop_
_publ_author_name
"M.del Rosario Benites"
"F.R.Fronczek"
"R.P.Hammer"
"A.W.Maverick"
_chemical_name_systematic
;
1,8-bis(3,5-Dimethylisoxazol-4-yl)-anthracene
;
_cell_volume   2026.739
_exptl_crystal_colour 'pale yellow'
_exptl_crystal_density_diffrn 1.207
_exptl_crystal_description 'parallelepiped'
_diffrn_ambient_temperature ?
_diffrn_special_details
;
The study was carried out at room temperature,in the range 283-303K

;
#These two values have been output from a single CSD field.
_refine_ls_R_factor_gt 0.061
_refine_ls_wR_factor_gt 0.061
_symmetry_cell_setting orthorhombic
_symmetry_space_group_name_H-M 'P 21 21 21'
_symmetry_Int_Tables_number 19
loop_
_symmetry_equiv_pos_site_id
_symmetry_equiv_pos_as_xyz
1 x,y,z
2 1/2-x,-y,1/2+z
3 1/2+x,1/2-y,-z
4 -x,1/2+y,1/2-z
_cell_length_a 7.104(1)
_cell_length_b 12.805(1)
_cell_length_c 22.280(2)
_cell_angle_alpha 90
_cell_angle_beta 90
_cell_angle_gamma 90
_cell_formula_units_Z 4
loop_
_atom_type_symbol
_atom_type_radius_bond
C 0.68
H 0.23
N 0.68
O 0.68
loop_
_atom_site_label
_atom_site_type_symbol
_atom_site_fract_x
_atom_site_fract_y
_atom_site_fract_z
O1 O 0.5195(4) 0.4361(2) 0.2184(1)
O2 O 0.5313(4) 0.7376(2) 0.3733(1)
N1 N 0.6822(4) 0.3871(2) 0.2388(1)
N2 N 0.6854(4) 0.6698(2) 0.3820(1)
C1 C 0.3177(4) 0.2564(2) 0.3284(1)
C2 C 0.2677(5) 0.1564(2) 0.3144(1)
C3 C 0.1611(5) 0.0950(2) 0.3553(1)
C4 C 0.1064(4) 0.1337(2) 0.4086(1)
C5 C 0.0978(4) 0.4254(2) 0.5534(1)
C6 C 0.1440(5) 0.5243(2) 0.5680(1)
C7 C 0.2579(5) 0.5846(2) 0.5287(1)
C8 C 0.3177(4) 0.5476(2) 0.4753(1)
C9 C 0.2663(4) 0.4427(2) 0.4575(1)
C10 C 0.1538(4) 0.3808(2) 0.4981(1)
C11 C 0.2646(4) 0.2999(2) 0.3851(1)
C12 C 0.1554(4) 0.2377(2) 0.4261(1)
C13 C 0.3160(4) 0.4011(2) 0.4023(1)
C14 C 0.1037(4) 0.2800(2) 0.4809(1)
C15 C 0.1815(7) 0.4311(4) 0.2328(2)
C16 C 0.3740(5) 0.3937(3) 0.2475(1)
C17 C 0.4310(4) 0.3199(2) 0.2864(1)
C18 C 0.6251(5) 0.3188(3) 0.2786(2)
C19 C 0.7673(7) 0.2538(4) 0.3097(3)
C20 C 0.2081(7) 0.7600(3) 0.4039(2)
C21 C 0.3851(5) 0.7008(2) 0.4066(1)
C22 C 0.4370(4) 0.6118(2) 0.4352(1)
C23 C 0.6248(5) 0.5983(2) 0.4184(1)
C24 C 0.7599(5) 0.5139(3) 0.4368(2)
H1 H 0.30450 0.12750 0.27690
H2 H 0.12810 0.02540 0.34480
H3 H 0.03420 0.09150 0.43500
H4 H 0.02610 0.38480 0.58080
H5 H 0.10040 0.55370 0.60460
H6 H 0.29310 0.65320 0.54040
H7 H 0.38730 0.44270 0.37530
H8 H 0.03130 0.23870 0.50780
H9 H 0.11120 0.43890 0.26880
H10 H 0.12100 0.38180 0.20750
H11 H 0.18930 0.49650 0.21290
H12 H 0.87130 0.29610 0.32100
H13 H 0.80920 0.20010 0.28340
H14 H 0.71290 0.22340 0.34450
H15 H 0.11590 0.72010 0.38330
H16 H 0.22850 0.82390 0.38320
H17 H 0.16550 0.77430 0.44350
H18 H 0.88220 0.53030 0.42240
H19 H 0.72020 0.44910 0.42030
H20 H 0.76270 0.50900 0.47930
#END
