
#######################################################################
#
#                 Cambridge Crystallographic Data Centre
#                                CCDC
#
#######################################################################
#
# If this CIF has been generated from an entry in the Cambridge
# Structural Database, then it will include bibliographic, chemical,
# crystal, experimental, refinement or atomic coordinate data resulting
# from the CCDC's data processing and validation procedures.
#
#######################################################################

data_CSD_CIF_SADKUF
_audit_creation_date 2011-01-20
_audit_creation_method CSD-ConQuest-V1
_database_code_CSD SADKUF
_database_code_depnum_ccdc_archive 'CCDC 745588'
_chemical_formula_sum 'C17 H17 N3 O4'
_chemical_formula_moiety
;
C17 H17 N3 O4
;
_journal_coden_Cambridge 1096
_journal_volume 22
_journal_year 2010
_journal_page_first 2720
_journal_name_full 'Chem.Mater. '
loop_
_publ_author_name
"K.Schreiter"
"K.Hofmann"
"A.Seifert"
"A.Oehlke"
"K.Ladewig"
"T.Rueffer"
"H.Lang"
"S.Spange"
_chemical_name_systematic
;
2-Nitro-4-(2-(4-nitrophenyl)vinyl)-N-propylaniline
;
_cell_volume   3125.564
_exptl_crystal_colour 'red'
_exptl_crystal_density_diffrn 1.391
_exptl_crystal_description 'block'
_diffrn_ambient_temperature 150
#These two values have been output from a single CSD field.
_refine_ls_R_factor_gt 0.0355
_refine_ls_wR_factor_gt 0.0355
_symmetry_cell_setting orthorhombic
_symmetry_space_group_name_H-M 'P b c a'
_symmetry_Int_Tables_number 61
loop_
_symmetry_equiv_pos_site_id
_symmetry_equiv_pos_as_xyz
1 x,y,z
2 1/2-x,-y,1/2+z
3 -x,1/2+y,1/2-z
4 1/2+x,1/2-y,-z
5 -x,-y,-z
6 -1/2+x,y,-1/2-z
7 x,-1/2-y,-1/2+z
8 -1/2-x,-1/2+y,z
_cell_length_a 14.0954(2)
_cell_length_b 13.6059(2)
_cell_length_c 16.2976(2)
_cell_angle_alpha 90
_cell_angle_beta 90
_cell_angle_gamma 90
_cell_formula_units_Z 8
loop_
_atom_type_symbol
_atom_type_radius_bond
C 0.68
H 0.23
N 0.68
O 0.68
loop_
_atom_site_label
_atom_site_type_symbol
_atom_site_fract_x
_atom_site_fract_y
_atom_site_fract_z
C1 C -0.40208(11) 0.33403(11) -0.28066(9)
C2 C -0.45857(11) 0.30582(12) -0.21597(9)
H1 H -0.52110 0.28650 -0.22460
C3 C -0.42065(11) 0.30682(12) -0.13817(9)
H2 H -0.45770 0.28590 -0.09430
C4 C -0.32806(10) 0.33838(10) -0.12341(9)
C5 C -0.27336(10) 0.36746(12) -0.19088(9)
H3 H -0.21150 0.38900 -0.18260
C6 C -0.30961(11) 0.36468(11) -0.26925(9)
H4 H -0.27240 0.38310 -0.31380
C7 C -0.29385(11) 0.34194(11) -0.03894(8)
H5 H -0.33450 0.31770 0.00120
C8 C -0.21055(10) 0.37624(11) -0.01355(8)
H6 H -0.16880 0.39780 -0.05390
C9 C -0.17813(10) 0.38348(10) 0.07110(9)
C10 C -0.23827(10) 0.36763(12) 0.13922(9)
H7 H -0.30130 0.35090 0.12980
C11 C -0.20773(10) 0.37590(11) 0.21787(8)
H8 H -0.25010 0.36350 0.26040
C12 C -0.11331(10) 0.40279(10) 0.23716(9)
C13 C -0.05282(10) 0.41854(10) 0.16842(9)
C14 C -0.0854(1) 0.40901(11) 0.08804(8)
H9 H -0.04370 0.42010 0.04480
C15 C -0.1459(1) 0.39214(12) 0.38641(8)
H10 H -0.16460 0.32350 0.38670
H11 H -0.20280 0.43200 0.38370
C16 C -0.09111(11) 0.41598(13) 0.46374(9)
H12 H -0.07210 0.48450 0.46230
H13 H -0.03390 0.37630 0.46530
C17 C -0.14827(12) 0.39737(13) 0.54093(9)
H14 H -0.11060 0.41350 0.58810
H15 H -0.16610 0.32930 0.54320
H16 H -0.20430 0.43750 0.54030
N1 N -0.44103(10) 0.33120(9) -0.36382(8)
N2 N -0.08612(9) 0.41191(10) 0.31575(7)
N3 N 0.04528(9) 0.44424(9) 0.17896(7)
O1 O -0.5266(1) 0.31717(13) -0.37147(8)
O2 O -0.38807(9) 0.34357(10) -0.42162(7)
O3 O 0.07631(7) 0.46061(10) 0.24890(7)
O4 O 0.09693(8) 0.44908(10) 0.11834(7)
H17 H -0.0320(14) 0.4280(12) 0.3256(10)
#END
