
#######################################################################
#
#                 Cambridge Crystallographic Data Centre
#                                CCDC
#
#######################################################################
#
# If this CIF has been generated from an entry in the Cambridge
# Structural Database, then it will include bibliographic, chemical,
# crystal, experimental, refinement or atomic coordinate data resulting
# from the CCDC's data processing and validation procedures.
#
#######################################################################

data_CSD_CIF_SAJBUD
_audit_creation_date 2017-02-07
_audit_creation_method CSD-ConQuest-V1
_database_code_CSD SAJBUD
_database_code_depnum_ccdc_archive 'CCDC 1485928'
_chemical_formula_sum 'C17 H18 N2 O4'
_chemical_formula_moiety
;
C17 H18 N2 O4
;
_journal_coden_Cambridge 1336
_journal_volume 19
_journal_year 2017
_journal_page_first 632
_journal_name_full 'Org.Lett. '
loop_
_publ_author_name
"Yuhuang Wang"
"Yu Du"
"Xuan Huang"
"Xingxing Wu"
"Yuexia Zhang"
"Song Yang"
"Yonggui Robin Chi"
_chemical_name_systematic
;
1-(2-methyl-4-nitro-3-phenylbutan-2-yl)-4-nitrobenzene
;
_chemical_melting_point 404.15
_cell_volume   1515.351
_exptl_crystal_colour 'colorless'
_exptl_crystal_density_diffrn 1.378
_exptl_special_details
;
Melting point range 404.15-405.15K

;
_exptl_crystal_description 'block'
_exptl_crystal_preparation 'hexane/ethyl acetate'
_diffrn_ambient_temperature 103
#These two values have been output from a single CSD field.
_refine_ls_R_factor_gt 0.0475
_refine_ls_wR_factor_gt 0.0475
_symmetry_cell_setting monoclinic
_symmetry_space_group_name_H-M 'P 21/n'
_symmetry_Int_Tables_number 14
loop_
_symmetry_equiv_pos_site_id
_symmetry_equiv_pos_as_xyz
1 x,y,z
2 1/2-x,1/2+y,1/2-z
3 -x,-y,-z
4 -1/2+x,-1/2-y,-1/2+z
_cell_length_a 12.8739(16)
_cell_length_b 6.1492(8)
_cell_length_c 19.983(3)
_cell_angle_alpha 90
_cell_angle_beta 106.683(4)
_cell_angle_gamma 90
_cell_formula_units_Z 4
loop_
_atom_type_symbol
_atom_type_radius_bond
C 0.68
H 0.23
N 0.68
O 0.68
loop_
_atom_site_label
_atom_site_type_symbol
_atom_site_fract_x
_atom_site_fract_y
_atom_site_fract_z
C1 C 0.75447(10) 0.2117(2) 0.92787(6)
C2 C 0.82589(10) 0.3742(2) 0.96196(7)
H1 H 0.81850 0.51690 0.94300
C3 C 0.90783(10) 0.3313(2) 1.02328(7)
H2 H 0.95590 0.44330 1.04610
C4 C 0.91782(10) 0.1230(2) 1.05020(6)
C5 C 0.84726(11) -0.0415(2) 1.01923(7)
H3 H 0.85390 -0.18260 1.03930
C6 C 0.76664(11) 0.0043(2) 0.95819(7)
H4 H 0.71820 -0.10810 0.93620
C7 C 0.66769(10) 0.2501(2) 0.85781(6)
C8 C 0.70136(10) 0.1157(2) 0.80235(7)
H5 H 0.77410 0.15970 0.80140
H6 H 0.64970 0.14110 0.75640
H7 H 0.70180 -0.03920 0.81400
C9 C 0.66101(11) 0.4894(2) 0.83530(7)
H8 H 0.63950 0.57840 0.86980
H9 H 0.60720 0.50520 0.78960
H10 H 0.73200 0.53750 0.83220
C10 C 0.5545(1) 0.1677(2) 0.86349(6)
H11 H 0.56360 0.01050 0.87660
C11 C 0.52617(10) 0.2854(2) 0.92334(7)
H12 H 0.58770 0.27240 0.96630
H13 H 0.51500 0.44180 0.91180
C12 C 0.46366(10) 0.1807(2) 0.79520(6)
C13 C 0.39833(10) 0.3646(2) 0.77545(7)
H14 H 0.41040 0.48800 0.80530
C14 C 0.31566(11) 0.3698(2) 0.71253(7)
H15 H 0.27180 0.49590 0.69990
C15 C 0.29744(11) 0.1910(2) 0.66839(7)
H16 H 0.24160 0.19480 0.62530
C16 C 0.36115(11) 0.0062(2) 0.68742(7)
H17 H 0.34880 -0.11670 0.65740
C17 C 0.44315(10) 0.0010(2) 0.75047(7)
H18 H 0.48580 -0.12670 0.76330
N1 N 1.00595(9) 0.07572(19) 1.11379(6)
N2 N 0.42582(9) 0.1948(2) 0.93703(6)
O1 O 1.00871(8) -0.10560(18) 1.14031(6)
O2 O 1.07330(8) 0.21844(18) 1.13676(5)
O3 O 0.40918(9) -0.00174(18) 0.93019(5)
O4 O 0.36711(9) 0.3222(2) 0.95648(7)
#END
