
#######################################################################
#
#                 Cambridge Crystallographic Data Centre
#                                CCDC
#
#######################################################################
#
# If this CIF has been generated from an entry in the Cambridge
# Structural Database, then it will include bibliographic, chemical,
# crystal, experimental, refinement or atomic coordinate data resulting
# from the CCDC's data processing and validation procedures.
#
#######################################################################

data_CSD_CIF_SAVJEH01
_audit_creation_date 2017-06-27
_audit_creation_method CSD-ConQuest-V1
_database_code_CSD SAVJEH01
_database_code_depnum_ccdc_archive 'CCDC 1546399'
_chemical_formula_sum 'C25 H24 N4 O5'
_chemical_formula_moiety
;
C25 H24 N4 O5
;
_journal_coden_Cambridge 177
_journal_volume 15
_journal_year 2017
_journal_page_first 5737
_journal_name_full 'Org.Biomol.Chem. '
loop_
_publ_author_name
"S.Balalaie"
"M.Shamakli"
"A.Nikbakht"
"N.S.Alavijeh"
"F.Rominger"
"S.Rostamizadeh"
"H.R.Bijanzadeh"
_chemical_name_systematic
;
N-cyclohexyl-2-(3-nitrophenyl)-2-(6-oxo-4H-[1,2]oxazolo[4,3-d][2]benzazepin-5(
6H)-yl)acetamide
;
_cell_volume   1113.852
_exptl_crystal_colour 'colorless'
_exptl_crystal_density_diffrn 1.373
_exptl_special_details
;
P-1 polymorph

;
_exptl_crystal_description 'polyhedron'
_diffrn_ambient_temperature 100
#These two values have been output from a single CSD field.
_refine_ls_R_factor_gt 0.0352
_refine_ls_wR_factor_gt 0.0352
_symmetry_cell_setting triclinic
_symmetry_space_group_name_H-M 'P -1'
_symmetry_Int_Tables_number 2
loop_
_symmetry_equiv_pos_site_id
_symmetry_equiv_pos_as_xyz
1 x,y,z
2 -x,-y,-z
_cell_length_a 8.6689(3)
_cell_length_b 10.6916(4)
_cell_length_c 13.0284(4)
_cell_angle_alpha 77.844(3)
_cell_angle_beta 81.090(3)
_cell_angle_gamma 71.413(3)
_cell_formula_units_Z 2
loop_
_atom_type_symbol
_atom_type_radius_bond
C 0.68
H 0.23
N 0.68
O 0.68
loop_
_atom_site_label
_atom_site_type_symbol
_atom_site_fract_x
_atom_site_fract_y
_atom_site_fract_z
C1 C 0.77846(18) 0.50727(14) 0.38689(12)
O1 O 0.71787(12) 0.46757(10) 0.47554(8)
N1 N 0.69444(15) 0.61938(11) 0.32542(9)
C2 C 0.77188(19) 0.67881(15) 0.22700(12)
H1 H 0.88000 0.68310 0.23900
H2 H 0.70300 0.77110 0.20300
C3 C 0.79170(19) 0.59503(15) 0.14547(12)
C4 C 0.89077(19) 0.45918(15) 0.15851(12)
N2 N 0.88670(17) 0.39999(13) 0.08076(10)
C5 C 0.51768(17) 0.67289(14) 0.35724(11)
H3 H 0.48200 0.59760 0.40320
C6 C 0.48771(18) 0.78246(14) 0.42408(11)
O2 O 0.55180(13) 0.87333(10) 0.39555(8)
N3 N 0.38782(15) 0.76829(12) 0.51097(9)
H4 H 0.34950 0.69910 0.52270
C7 C 0.7264(2) 0.61327(16) 0.05455(12)
H5 H 0.65270 0.69450 0.02370
O3 O 0.78034(15) 0.49931(11) 0.01306(8)
C8 C 0.94516(18) 0.42257(14) 0.34875(12)
C9 C 0.99090(19) 0.39051(14) 0.24666(12)
C10 C 1.13529(19) 0.28798(15) 0.22858(13)
H6 H 1.16610 0.26530 0.16010
C11 C 1.23294(19) 0.21985(16) 0.30837(14)
H7 H 1.32910 0.14940 0.29500
C12 C 1.19167(19) 0.25345(16) 0.40836(14)
H8 H 1.26160 0.20910 0.46270
C13 C 1.04735(19) 0.35246(15) 0.42813(13)
H9 H 1.01730 0.37310 0.49730
C14 C 0.41523(18) 0.72198(14) 0.26454(11)
C15 C 0.39561(18) 0.84839(15) 0.20381(11)
H10 H 0.44550 0.90810 0.22030
C16 C 0.30265(19) 0.88646(15) 0.11905(12)
C17 C 0.2233(2) 0.80507(17) 0.09356(13)
H11 H 0.15920 0.83400 0.03530
C18 C 0.2403(2) 0.68049(17) 0.15551(13)
H12 H 0.18650 0.62280 0.14020
C19 C 0.33531(19) 0.63880(16) 0.24004(12)
H13 H 0.34610 0.55260 0.28170
N4 N 0.29088(17) 1.01868(14) 0.05402(10)
O4 O 0.37526(15) 1.08319(11) 0.07270(9)
O5 O 0.19891(17) 1.05849(13) -0.01632(10)
C20 C 0.33581(18) 0.85783(14) 0.58916(11)
H14 H 0.40490 0.91990 0.57500
C21 C 0.15731(19) 0.94024(15) 0.58134(12)
H15 H 0.08950 0.87920 0.58930
H16 H 0.14540 0.99710 0.51070
C22 C 0.0956(2) 1.02929(16) 0.66607(13)
H17 H 0.15430 1.09760 0.65300
H18 H -0.02230 1.07650 0.66170
C23 C 0.1217(2) 0.94740(17) 0.77579(13)
H19 H 0.05150 0.88730 0.79250
H20 H 0.08900 1.00830 0.82820
C24 C 0.2997(2) 0.86420(17) 0.78368(13)
H21 H 0.31150 0.80750 0.85440
H22 H 0.36840 0.92460 0.77530
C25 C 0.35914(19) 0.77502(15) 0.69922(12)
H23 H 0.47640 0.72550 0.70420
H24 H 0.29760 0.70860 0.71180
#END
