
#######################################################################
#
#                 Cambridge Crystallographic Data Centre
#                                CCDC
#
#######################################################################
#
# If this CIF has been generated from an entry in the Cambridge
# Structural Database, then it will include bibliographic, chemical,
# crystal, experimental, refinement or atomic coordinate data resulting
# from the CCDC's data processing and validation procedures.
#
#######################################################################

data_CSD_CIF_SAWVES
_audit_creation_date 2006-02-24
_audit_creation_method CSD-ConQuest-V1
_database_code_CSD SAWVES
_database_code_depnum_ccdc_archive 'CCDC 283657'
_chemical_formula_sum 'C16 H8 N2 O4'
_chemical_formula_moiety
;
C16 H8 N2 O4
;
_journal_coden_Cambridge 1078
_journal_year 2005
_journal_name_full 'CSD Communication(Private Communication) '
loop_
_publ_author_name
"W.Clegg"
_chemical_name_systematic
;
1,1'-Dioxy-3H,3'H-2,2'-biindolyl-3,3'-dione
;
_chemical_name_common
;
2,2'-Bi-isatogen
;
_cell_volume   1223.854
_exptl_crystal_colour 'orange-red'
_exptl_crystal_density_diffrn 1.586
_exptl_special_details
;
contribution from School of Natural Sciences (Chemistry), University of 
Newcastle, Newcastle upon Tyne NE1 7RU, UK
;
_exptl_crystal_description 'plate'
_diffrn_ambient_temperature 160
_refine_special_details
;
A C atom and the N atom in the indole ring are disordered with occupancies 
0.69:0.31.
;
#These two values have been output from a single CSD field.
_refine_ls_R_factor_gt 0.0464
_refine_ls_wR_factor_gt 0.0464
_symmetry_cell_setting monoclinic
_symmetry_space_group_name_H-M 'C 2/c'
_symmetry_Int_Tables_number 15
loop_
_symmetry_equiv_pos_site_id
_symmetry_equiv_pos_as_xyz
1 x,y,z
2 1/2+x,1/2+y,z
3 -x,y,1/2-z
4 1/2-x,1/2+y,1/2-z
5 -x,-y,-z
6 -1/2-x,-1/2-y,-z
7 x,-y,-1/2+z
8 -1/2+x,-1/2-y,-1/2+z
_cell_length_a 14.205(5)
_cell_length_b 12.151(4)
_cell_length_c 7.154(2)
_cell_angle_alpha 90
_cell_angle_beta 97.64(4)
_cell_angle_gamma 90
_cell_formula_units_Z 4
loop_
_atom_type_symbol
_atom_type_radius_bond
C 0.68
H 0.23
N 0.68
O 0.68
loop_
_atom_site_label
_atom_site_type_symbol
_atom_site_fract_x
_atom_site_fract_y
_atom_site_fract_z
O1 O 0.42058(15) 0.19920(18) 0.3683(3)
O2 O 0.41110(16) 0.54881(18) 0.0982(3)
N1 N 0.39397(19) 0.2865(2) 0.2833(4)
C1? C 0.39397(19) 0.2865(2) 0.2833(4)
C2 C 0.4491(2) 0.3715(2) 0.2348(4)
C3 C 0.3879(2) 0.4571(3) 0.1550(4)
N2? N 0.3879(2) 0.4571(3) 0.1550(4)
C4 C 0.2036(2) 0.4626(3) 0.0739(5)
H1 H 0.20010 0.53360 0.01780
C5 C 0.1223(2) 0.4003(3) 0.0857(5)
H2 H 0.06210 0.42910 0.03460
C6 C 0.1269(2) 0.2979(3) 0.1697(5)
H3 H 0.07000 0.25810 0.17700
C7 C 0.2144(2) 0.2516(3) 0.2445(5)
H4 H 0.21850 0.18130 0.30340
C8 C 0.2934(2) 0.3131(2) 0.2280(4)
C9 C 0.2894(2) 0.4166(3) 0.1472(4)
O1B O 0.57942(15) 0.19920(18) 0.1317(3)
O2B O 0.58890(16) 0.54881(18) 0.4018(3)
N1B N 0.60603(19) 0.2865(2) 0.2167(4)
C2B C 0.5509(2) 0.3715(2) 0.2652(4)
C3B C 0.6121(2) 0.4571(3) 0.3450(4)
C4B C 0.7964(2) 0.4626(3) 0.4261(5)
H1B H 0.79990 0.53360 0.48220
C5B C 0.8777(2) 0.4003(3) 0.4143(5)
H2B H 0.93790 0.42910 0.46540
C6B C 0.8731(2) 0.2979(3) 0.3303(5)
H3B H 0.93000 0.25810 0.32300
C7B C 0.7856(2) 0.2516(3) 0.2555(5)
H4B H 0.78150 0.18130 0.19660
C8B C 0.7066(2) 0.3131(2) 0.2720(4)
C9B C 0.7106(2) 0.4166(3) 0.3528(4)
#END
