
#######################################################################
#
#                 Cambridge Crystallographic Data Centre
#                                CCDC
#
#######################################################################
#
# If this CIF has been generated from an entry in the Cambridge
# Structural Database, then it will include bibliographic, chemical,
# crystal, experimental, refinement or atomic coordinate data resulting
# from the CCDC's data processing and validation procedures.
#
#######################################################################

data_CSD_CIF_SAYWEW
_audit_creation_date 2012-06-01
_audit_creation_method CSD-ConQuest-V1
_database_code_CSD SAYWEW
_database_code_depnum_ccdc_archive 'CCDC 869485'
_chemical_formula_sum 'C18 H18 N2 O4'
_chemical_formula_moiety
;
C18 H18 N2 O4
;
_journal_coden_Cambridge 182
_journal_volume 48
_journal_year 2012
_journal_page_first 4893
_journal_name_full 'Chem.Commun. '
loop_
_publ_author_name
"P.R.Girling"
"A.S.Batsanov"
"H.C.Shen"
"A.Whiting"
_chemical_name_systematic
;
1,1'-(1-Allyl-4-(4-nitrophenyl)-1,4-dihydropyridine-3,5-diyl)diethanone
;
_chemical_melting_point 379.7
_cell_volume    807.020
_exptl_crystal_colour 'light yellow'
_exptl_crystal_density_diffrn 1.343
_exptl_crystal_description 'block'
_diffrn_ambient_temperature 120
#These two values have been output from a single CSD field.
_refine_ls_R_factor_gt 0.0475
_refine_ls_wR_factor_gt 0.0475
_symmetry_cell_setting triclinic
_symmetry_space_group_name_H-M 'P -1'
_symmetry_Int_Tables_number 2
loop_
_symmetry_equiv_pos_site_id
_symmetry_equiv_pos_as_xyz
1 x,y,z
2 -x,-y,-z
_cell_length_a 8.0656(3)
_cell_length_b 8.3174(3)
_cell_length_c 12.3033(4)
_cell_angle_alpha 95.465(2)
_cell_angle_beta 99.984(2)
_cell_angle_gamma 93.148(2)
_cell_formula_units_Z 2
loop_
_atom_type_symbol
_atom_type_radius_bond
C 0.68
H 0.23
N 0.68
O 0.68
loop_
_atom_site_label
_atom_site_type_symbol
_atom_site_fract_x
_atom_site_fract_y
_atom_site_fract_z
O1 O 0.06037(12) -0.09224(11) 0.60772(8)
O2 O -0.34875(11) 0.34815(11) 0.58650(8)
O3 O -0.34588(17) -0.07884(18) 1.05590(11)
O4 O -0.20248(19) 0.13255(17) 1.14893(10)
N1 N 0.23821(13) 0.46256(12) 0.70538(9)
N2 N -0.25259(17) 0.04435(17) 1.06261(11)
C1 C 0.26659(15) 0.30036(15) 0.68803(10)
C2 C 0.14081(15) 0.18298(14) 0.66142(10)
C3 C -0.04059(15) 0.22093(14) 0.6636(1)
C4 C -0.05775(15) 0.39859(14) 0.6485(1)
C5 C 0.07707(15) 0.50782(15) 0.67385(10)
C6 C 0.38431(16) 0.58186(16) 0.73179(12)
C7 C 0.47412(18) 0.58427(17) 0.84924(12)
C8 C 0.6297(2) 0.5431(2) 0.87704(15)
C9 C 0.17468(16) 0.01544(14) 0.62757(10)
C10 C 0.35272(18) -0.02092(17) 0.61621(13)
C11 C -0.22645(15) 0.44849(15) 0.60599(10)
C12 C -0.24958(17) 0.62349(17) 0.58777(13)
C13 C -0.09562(15) 0.17548(14) 0.76986(10)
C14 C -0.21383(17) 0.04621(17) 0.76554(11)
C15 C -0.26585(18) 0.00199(18) 0.86122(12)
C16 C -0.19724(17) 0.09045(17) 0.96100(11)
C17 C -0.0785(2) 0.21852(18) 0.96926(12)
C18 C -0.02788(19) 0.26044(17) 0.87248(11)
H1 H 0.383(2) 0.2811(19) 0.6930(13)
H2 H -0.116(2) 0.1524(19) 0.6007(13)
H3 H 0.0699(19) 0.6216(19) 0.6699(13)
H4 H 0.339(2) 0.686(2) 0.7181(15)
H5 H 0.462(2) 0.552(2) 0.6779(15)
H6 H 0.410(2) 0.622(2) 0.9051(16)
H7 H 0.682(3) 0.551(2) 0.9556(17)
H8 H 0.697(3) 0.504(3) 0.821(2)
H9 H 0.351(2) -0.131(2) 0.5765(15)
H10 H 0.422(3) -0.015(2) 0.6886(18)
H11 H 0.401(2) 0.058(2) 0.5751(16)
H12 H -0.233(2) 0.691(2) 0.6585(18)
H13 H -0.365(2) 0.633(2) 0.5473(15)
H14 H -0.164(2) 0.667(2) 0.5471(16)
H15 H -0.259(2) -0.015(2) 0.6927(14)
H16 H -0.351(2) -0.088(2) 0.8563(16)
H17 H -0.033(2) 0.279(2) 1.0396(16)
H18 H 0.059(2) 0.351(2) 0.8772(15)
#END
