
#######################################################################
#
#                 Cambridge Crystallographic Data Centre
#                                CCDC
#
#######################################################################
#
# If this CIF has been generated from an entry in the Cambridge
# Structural Database, then it will include bibliographic, chemical,
# crystal, experimental, refinement or atomic coordinate data resulting
# from the CCDC's data processing and validation procedures.
#
#######################################################################

data_CSD_CIF_SAZQIU
_audit_creation_date 2006-02-24
_audit_creation_method CSD-ConQuest-V1
_database_code_CSD SAZQIU
_database_code_depnum_ccdc_archive 'CCDC 284714'
_chemical_formula_sum 'C14 H8 N2 O4'
_chemical_formula_moiety
;
C14 H8 N2 O4
;
_journal_coden_Cambridge 1078
_journal_year 2005
_journal_name_full 'CSD Communication(Private Communication) '
loop_
_publ_author_name
"W.Clegg"
"M.R.J.Elsegood"
_chemical_name_systematic
;
2-(2-Nitrophenyl)-1-oxy-3H-indol-3-one
;
_chemical_name_common
;
2-(2-Nitrophenyl)isatogen
;
_cell_volume    591.423
_exptl_crystal_colour 'orange'
_exptl_crystal_density_diffrn 1.506
_exptl_special_details
;
contribution from School of Natural Sciences (Chemistry), University of 
Newcastle, Newcastle upon Tyne NE1 7RU, UK
;
_exptl_crystal_description 'thin plate'
_diffrn_ambient_temperature 298
_refine_special_details
;
The NO and CO groups are disordered in the ratio 0.60:0.40.

;
#These two values have been output from a single CSD field.
_refine_ls_R_factor_gt 0.0315
_refine_ls_wR_factor_gt 0.0315
_symmetry_cell_setting triclinic
_symmetry_space_group_name_H-M 'P -1'
_symmetry_Int_Tables_number 2
loop_
_symmetry_equiv_pos_site_id
_symmetry_equiv_pos_as_xyz
1 x,y,z
2 -x,-y,-z
_cell_length_a 7.4293(15)
_cell_length_b 7.5049(15)
_cell_length_c 12.462(3)
_cell_angle_alpha 76.361(10)
_cell_angle_beta 76.429(10)
_cell_angle_gamma 62.284(8)
_cell_formula_units_Z 2
loop_
_atom_type_symbol
_atom_type_radius_bond
C 0.68
H 0.23
N 0.68
O 0.68
loop_
_atom_site_label
_atom_site_type_symbol
_atom_site_fract_x
_atom_site_fract_y
_atom_site_fract_z
O1 O 0.5041(2) 0.5340(2) 0.17242(12)
O2 O 1.0217(2) -0.0673(2) 0.31287(12)
O3 O 0.4004(2) 0.1865(2) 0.23657(12)
O4 O 0.1054(2) 0.3559(3) 0.32657(14)
N1 N 0.6687(3) 0.3760(3) 0.18203(14)
C1? C 0.6687(3) 0.3760(3) 0.18203(14)
N2 N 0.2938(2) 0.2725(2) 0.31589(14)
C2 C 0.7210(3) 0.2362(3) 0.27666(15)
C3 C 0.9223(3) 0.0870(3) 0.25018(15)
N3? N 0.9223(3) 0.0870(3) 0.25018(15)
C4 C 1.1784(3) 0.0429(3) 0.06601(19)
H1 H 1.28590 -0.07400 0.09410
C5 C 1.1938(4) 0.1301(4) -0.0459(2)
H2 H 1.31530 0.07060 -0.09350
C6 C 1.0341(4) 0.3015(4) -0.08740(19)
H3 H 1.04910 0.35420 -0.16260
C7 C 0.8513(3) 0.3976(3) -0.01980(17)
H4 H 0.74280 0.51380 -0.04760
C8 C 0.8384(3) 0.3131(3) 0.08990(15)
C9 C 0.9966(3) 0.1388(3) 0.13212(15)
C10 C 0.5961(3) 0.2428(3) 0.38625(14)
C11 C 0.3917(3) 0.2715(3) 0.40607(15)
C12 C 0.2778(3) 0.2864(3) 0.51063(17)
H5 H 0.14190 0.30630 0.52130
C13 C 0.3677(3) 0.2713(3) 0.59957(16)
H6 H 0.29140 0.28240 0.67050
C14 C 0.5685(3) 0.2403(3) 0.58412(16)
H7 H 0.62840 0.22910 0.64450
C15 C 0.6816(3) 0.2255(3) 0.47884(16)
H8 H 0.81800 0.20360 0.46940
#END
