
#######################################################################
#
#                 Cambridge Crystallographic Data Centre
#                                CCDC
#
#######################################################################
#
# If this CIF has been generated from an entry in the Cambridge
# Structural Database, then it will include bibliographic, chemical,
# crystal, experimental, refinement or atomic coordinate data resulting
# from the CCDC's data processing and validation procedures.
#
#######################################################################

data_CSD_CIF_SEMYOZ01
_audit_creation_date 2006-10-10
_audit_creation_method CSD-ConQuest-V1
_database_code_CSD SEMYOZ01
_database_code_depnum_ccdc_archive 'CCDC 611739'
_chemical_formula_sum 'C11 H8 N2 O5'
_chemical_formula_moiety
;
C11 H8 N2 O5
;
_journal_coden_Cambridge 1078
_journal_year 2006
_journal_name_full 'CSD Communication(Private Communication) '
loop_
_publ_author_name
"S.Parsons"
"G.Brown"
"G.Tennant"
"R.Johnstone"
_chemical_name_systematic
;
methyl 2-cyano-3-hydroxy-3-(2-nitrophenyl)acrylate
;
_chemical_melting_point 416.15
_cell_volume   1078.372
_exptl_crystal_colour 'colorless'
_exptl_crystal_density_diffrn 1.529
_exptl_special_details
;
contribution from School of Chemistry, The University of Edinburgh King's 
Buildings, West Mains Road, Edinburgh, Scotland EH9 3JJ
;
_exptl_crystal_description 'block'
_exptl_crystal_preparation 'methanol'
_diffrn_ambient_temperature 150
#These two values have been output from a single CSD field.
_refine_ls_R_factor_gt 0.0488
_refine_ls_wR_factor_gt 0.0488
_symmetry_cell_setting monoclinic
_symmetry_space_group_name_H-M 'P 21/c'
_symmetry_Int_Tables_number 14
loop_
_symmetry_equiv_pos_site_id
_symmetry_equiv_pos_as_xyz
1 x,y,z
2 -x,1/2+y,1/2-z
3 -x,-y,-z
4 x,-1/2-y,-1/2+z
_cell_length_a 6.8425(11)
_cell_length_b 21.710(4)
_cell_length_c 7.2695(12)
_cell_angle_alpha 90
_cell_angle_beta 93.037(2)
_cell_angle_gamma 90
_cell_formula_units_Z 4
loop_
_atom_type_symbol
_atom_type_radius_bond
C 0.68
H 0.23
N 0.68
O 0.68
loop_
_atom_site_label
_atom_site_type_symbol
_atom_site_fract_x
_atom_site_fract_y
_atom_site_fract_z
C1 C 0.1835(2) 0.55047(7) -0.4337(2)
N1 N 0.1886(2) 0.55340(7) -0.59023(19)
C2 C 0.1782(2) 0.54788(7) -0.23713(19)
O1 O 0.08253(16) 0.59771(5) 0.03494(14)
H1 H 0.139(3) 0.5642(9) 0.086(3)
C3 C 0.0910(2) 0.59420(7) -0.1455(2)
C4 C -0.0225(2) 0.64394(7) -0.24419(18)
C5 C -0.2043(2) 0.62795(8) -0.3246(2)
H2 H -0.24580 0.58620 -0.32340
C6 C -0.3253(2) 0.67237(8) -0.4063(2)
H3 H -0.44930 0.66090 -0.46080
C7 C -0.2671(2) 0.73334(8) -0.4092(2)
H4 H -0.35140 0.76360 -0.46470
C8 C -0.0861(2) 0.75035(7) -0.3314(2)
H5 H -0.04460 0.79210 -0.33370
C9 C 0.0327(2) 0.70566(7) -0.25038(19)
N2 N 0.22515(19) 0.72527(6) -0.17111(17)
O2 O 0.2578(2) 0.78005(6) -0.1564(2)
O3 O 0.34258(17) 0.68549(5) -0.12221(16)
O4 O 0.26643(15) 0.49242(5) 0.03221(14)
C10 C 0.2636(2) 0.49552(7) -0.1350(2)
O5 O 0.33359(16) 0.45258(5) -0.24352(14)
C11 C 0.4125(2) 0.39838(7) -0.1518(2)
H6 H 0.46640 0.40960 -0.02870
H7 H 0.51630 0.38090 -0.22360
H8 H 0.30830 0.36780 -0.14080
#END
