
#######################################################################
#
#                 Cambridge Crystallographic Data Centre
#                                CCDC
#
#######################################################################
#
# If this CIF has been generated from an entry in the Cambridge
# Structural Database, then it will include bibliographic, chemical,
# crystal, experimental, refinement or atomic coordinate data resulting
# from the CCDC's data processing and validation procedures.
#
#######################################################################

data_CSD_CIF_SIFDOB
_audit_creation_date 2007-08-28
_audit_creation_method CSD-ConQuest-V1
_database_code_CSD SIFDOB
_database_code_depnum_ccdc_archive 'CCDC 290851'
_chemical_formula_sum 'C13 H10 N2 O7'
_chemical_formula_moiety
;
C13 H10 N2 O7
;
_journal_coden_Cambridge 1291
_journal_year 2007
_journal_page_first 2352
_journal_name_full 'Eur.J.Org.Chem. '
loop_
_publ_author_name
"R.Herrera"
"J.A.Mendoza"
"M.A.Morales"
"F.Mendez"
"H.A.Jimenez-Vazquez"
"F.Delgado"
"J.Tamariz"
_chemical_name_systematic
;
2-(3,5-Dinitrobenzoyloxy)-2-cyclohexen-1-one
;
_chemical_melting_point 426
_cell_volume   1353.995
_exptl_crystal_colour 'yellow'
_exptl_crystal_density_diffrn 1.502
_exptl_special_details
;
Melting point range 426-427K

;
_exptl_crystal_description 'plate'
_exptl_crystal_preparation 'hexane/ethyl acetate'
_diffrn_ambient_temperature 293
_refine_special_details
;
Four cyclohexen-1-one C atoms and an O atom are disordered over two sites 
with occupancies of 0.56:0.44.
;
#These two values have been output from a single CSD field.
_refine_ls_R_factor_gt 0.0543
_refine_ls_wR_factor_gt 0.0543
_symmetry_cell_setting monoclinic
_symmetry_space_group_name_H-M 'P 21/n'
_symmetry_Int_Tables_number 14
loop_
_symmetry_equiv_pos_site_id
_symmetry_equiv_pos_as_xyz
1 x,y,z
2 1/2-x,1/2+y,1/2-z
3 -x,-y,-z
4 -1/2+x,-1/2-y,-1/2+z
_cell_length_a 10.7549(11)
_cell_length_b 5.4943(4)
_cell_length_c 22.919(4)
_cell_angle_alpha 90
_cell_angle_beta 91.214(9)
_cell_angle_gamma 90
_cell_formula_units_Z 4
loop_
_atom_type_symbol
_atom_type_radius_bond
C 0.68
H 0.23
N 0.68
O 0.68
loop_
_atom_site_label
_atom_site_type_symbol
_atom_site_fract_x
_atom_site_fract_y
_atom_site_fract_z
O1 O 0.8417(2) 0.8670(3) 0.09619(7)
C1 C 0.9048(2) 0.8687(4) 0.19511(9)
C2 C 0.9813(2) 0.6679(4) 0.18675(10)
H1 H 0.9883(2) 0.5972(4) 0.1501(1)
C3 C 0.9618(2) 0.8720(4) 0.29589(9)
C4 C 0.8349(2) 0.9906(5) 0.14645(10)
C5 C 1.0380(2) 0.6736(4) 0.28939(10)
H2 H 1.0822(2) 0.6074(4) 0.32091(10)
C6 C 0.8959(2) 0.9705(4) 0.24981(9)
H3 H 0.8453(2) 1.1053(4) 0.25544(9)
O2 O 0.7794(2) 1.1775(4) 0.15209(7)
O3 O 1.1710(2) 0.2658(3) 0.26978(9)
C7 C 1.0462(2) 0.5771(4) 0.23423(10)
N1 N 1.1311(2) 0.3687(4) 0.22618(11)
N2 N 0.9539(2) 0.9895(5) 0.35341(10)
O4 O 0.9055(2) 1.1871(4) 0.35570(9)
O5 O 1.1567(2) 0.3132(4) 0.17646(9)
C8 C 0.7997(2) 0.9913(5) 0.04587(10)
O6 O 0.9974(2) 0.8847(4) 0.39535(9)
C9 C 0.8803(3) 1.1862(6) 0.02727(14)
C10 C 0.6904(14) 0.9591(26) 0.0183(8)
H4 H 0.6351(14) 0.8514(26) 0.0353(8)
C11 C 0.6498(15) 1.0756(30) -0.0353(7)
H5 H 0.5964(15) 1.2131(30) -0.0270(7)
H6 H 0.6034(15) 0.9616(30) -0.0597(7)
C12 C 0.7695(13) 1.1635(22) -0.0673(3)
H7 H 0.8121(13) 1.0212(22) -0.0820(3)
H8 H 0.7435(13) 1.2604(22) -0.1008(3)
C13 C 0.8539(13) 1.2985(30) -0.0344(7)
H9 H 0.8219(13) 1.4623(30) -0.0298(7)
H10 H 0.9314(13) 1.3094(30) -0.0551(7)
O7 O 0.9614(16) 1.2554(29) 0.0618(9)
C14? C 0.7158(19) 0.8797(34) 0.0158(9)
H11? H 0.6774(19) 0.7400(34) 0.0296(9)
C15? C 0.6816(21) 0.9883(41) -0.0442(10)
H12? H 0.7213(21) 0.8923(41) -0.0741(10)
H13? H 0.5924(21) 0.9745(41) -0.0505(10)
C16? C 0.7183(18) 1.2506(45) -0.0518(11)
H14? H 0.7295(18) 1.2813(45) -0.0930(11)
H15? H 0.6503(18) 1.3524(45) -0.0391(11)
C17? C 0.8271(20) 1.3214(26) -0.0213(9)
H16? H 0.8124(20) 1.4851(26) -0.0071(9)
H17? H 0.8917(20) 1.3344(26) -0.0500(9)
O8? O 0.9822(19) 1.2250(41) 0.0496(11)
#END
