
#######################################################################
#
#                 Cambridge Crystallographic Data Centre
#                                CCDC
#
#######################################################################
#
# If this CIF has been generated from an entry in the Cambridge
# Structural Database, then it will include bibliographic, chemical,
# crystal, experimental, refinement or atomic coordinate data resulting
# from the CCDC's data processing and validation procedures.
#
#######################################################################

data_CSD_CIF_SINBEX
_audit_creation_date 2007-12-12
_audit_creation_method CSD-ConQuest-V1
_database_code_CSD SINBEX
_database_code_depnum_ccdc_archive 'CCDC 662948'
_chemical_formula_sum 'C16 H14 N4 O5'
_chemical_formula_moiety
;
C16 H14 N4 O5
;
_journal_coeditor_code "IUCr SJ2374"
_journal_coden_Cambridge 1370
_journal_volume 63
_journal_year 2007
_journal_page_first o4320
_journal_name_full 'Acta Crystallogr.,Sect.E:Struct.Rep.Online '
loop_
_publ_author_name
"Qing-Yun Ren"
"Hong-Wu He"
"Yong-Yan Yao"
"Yu-Cheng Gu"
_chemical_name_systematic
;
Ethyl 4-amino-5-cyano-2-methyl-6-(2-nitrophenoxy)nicotinate
;
_cell_volume    809.825
_exptl_crystal_colour 'yellow'
_exptl_crystal_density_diffrn 1.404
_exptl_crystal_description 'block'
_exptl_crystal_preparation 'ethanol'
_diffrn_ambient_temperature 294
#These two values have been output from a single CSD field.
_refine_ls_R_factor_gt 0.0493
_refine_ls_wR_factor_gt 0.0493
_symmetry_cell_setting triclinic
_symmetry_space_group_name_H-M 'P -1'
_symmetry_Int_Tables_number 2
loop_
_symmetry_equiv_pos_site_id
_symmetry_equiv_pos_as_xyz
1 x,y,z
2 -x,-y,-z
_cell_length_a 7.9831(6)
_cell_length_b 8.8661(7)
_cell_length_c 12.2797(10)
_cell_angle_alpha 69.012(1)
_cell_angle_beta 86.342(1)
_cell_angle_gamma 88.835(1)
_cell_formula_units_Z 2
loop_
_atom_type_symbol
_atom_type_radius_bond
C 0.68
H 0.23
N 0.68
O 0.68
loop_
_atom_site_label
_atom_site_type_symbol
_atom_site_fract_x
_atom_site_fract_y
_atom_site_fract_z
C1 C 0.2580(2) 0.4848(2) 0.52656(15)
C2 C 0.3286(2) 0.6325(2) 0.52562(14)
C3 C 0.3988(2) 0.6298(2) 0.62939(15)
C4 C 0.3964(2) 0.4853(2) 0.72421(15)
C5 C 0.2584(2) 0.3490(2) 0.63016(15)
C6 C 0.1914(2) 0.4850(2) 0.41669(15)
C7 C 0.0793(3) 0.3396(3) 0.31026(17)
H1 H 0.16910 0.36570 0.24940
H2 H -0.00980 0.41800 0.28440
C8 C 0.0149(3) 0.1740(3) 0.3342(2)
H3 H 0.10430 0.09760 0.35870
H4 H -0.02810 0.16830 0.26450
H5 H -0.07330 0.14920 0.39490
C9 C 0.1826(3) 0.1880(2) 0.64853(17)
H6 H 0.24940 0.13510 0.60510
H7 H 0.07070 0.20290 0.62210
H8 H 0.17900 0.12270 0.73010
C10 C 0.4724(2) 0.7727(2) 0.63351(15)
C11 C 0.4771(3) 0.3499(2) 0.91776(16)
C12 C 0.3363(3) 0.2736(3) 0.98573(16)
C13 C 0.3529(3) 0.1356(3) 1.08299(17)
H9 H 0.25780 0.08290 1.12670
C14 C 0.5091(3) 0.0763(3) 1.11508(18)
H10 H 0.52060 -0.01650 1.18060
C15 C 0.6482(3) 0.1545(3) 1.05021(19)
H11 H 0.75440 0.11580 1.07290
C16 C 0.6325(3) 0.2898(3) 0.95177(17)
H12 H 0.72810 0.34090 0.90790
N1 N 0.3292(2) 0.35024(18) 0.72735(13)
N2 N 0.3315(2) 0.7694(2) 0.43277(15)
H13 H 0.376(3) 0.855(3) 0.4358(18)
H14 H 0.280(3) 0.763(2) 0.3694(18)
N3 N 0.5293(3) 0.8913(2) 0.63011(14)
O1 O 0.1840(2) 0.60489(18) 0.32916(12)
O2 O 0.14144(18) 0.34349(16) 0.41824(11)
O3 O 0.47215(18) 0.49029(15) 0.81893(11)
N4 N 0.1667(3) 0.3358(4) 0.95640(18)
O4 O 0.1477(2) 0.4784(3) 0.90715(17)
O5 O 0.0543(3) 0.2366(4) 0.9836(3)
#END
