
#######################################################################
#
#                 Cambridge Crystallographic Data Centre
#                                CCDC
#
#######################################################################
#
# If this CIF has been generated from an entry in the Cambridge
# Structural Database, then it will include bibliographic, chemical,
# crystal, experimental, refinement or atomic coordinate data resulting
# from the CCDC's data processing and validation procedures.
#
#######################################################################

data_CSD_CIF_SIPBAU
_audit_creation_date 1999-02-18
_audit_creation_method CSD-ConQuest-V1
_database_code_CSD SIPBAU
_database_code_depnum_ccdc_archive 'CCDC 1259684'
_chemical_formula_sum 'C19 H23 N1 O4'
_chemical_formula_moiety
;
C19 H23 N1 O4
;
_journal_coden_Cambridge 3
_journal_volume 52
_journal_year 1998
_journal_page_first 385
_journal_name_full 'Acta Chem.Scand. '
loop_
_publ_author_name
"I.R.Aukrust"
"N.O.Nilsen"
"C.Romming"
"L.Skattebol"
_chemical_name_systematic
;
1-(3,5-Methano-2-methylene-4,4-dimethylcyclohexyl)-ethyl p-nitrobenzoate
;
_cell_volume    886.150
_exptl_crystal_density_diffrn 1.234
_diffrn_ambient_temperature 138
#These two values have been output from a single CSD field.
_refine_ls_R_factor_gt 0.0649
_refine_ls_wR_factor_gt 0.0649
_symmetry_cell_setting monoclinic
_symmetry_space_group_name_H-M 'P 21'
_symmetry_Int_Tables_number 4
loop_
_symmetry_equiv_pos_site_id
_symmetry_equiv_pos_as_xyz
1 x,y,z
2 -x,1/2+y,-z
_cell_length_a 7.002(1)
_cell_length_b 6.637(2)
_cell_length_c 19.154(2)
_cell_angle_alpha 90
_cell_angle_beta 95.42(2)
_cell_angle_gamma 90
_cell_formula_units_Z 2
loop_
_atom_type_symbol
_atom_type_radius_bond
C 0.68
H 0.23
N 0.68
O 0.68
loop_
_atom_site_label
_atom_site_type_symbol
_atom_site_fract_x
_atom_site_fract_y
_atom_site_fract_z
O1 O 0.6499(3) 0.1887(5) 0.3340(1)
O2 O 1.3108(3) 0.1718(5) 0.6209(1)
O3 O 1.0853(3) 0.2054(6) 0.6890(1)
N1 N 1.1419(4) 0.1863(5) 0.6307(1)
C1 C 0.5649(7) 0.3389(8) 0.0868(2)
C2 C 0.4902(5) 0.3913(7) 0.1548(2)
C3 C 0.6218(5) 0.3345(6) 0.2199(2)
C4 C 0.8157(5) 0.2412(7) 0.2037(2)
C5 C 0.8343(7) 0.2241(7) 0.1248(2)
C6 C 0.6511(8) 0.1267(8) 0.0897(2)
C7 C 0.7733(6) 0.4197(7) 0.0847(2)
C8 C 0.8170(8) 0.6258(7) 0.1170(3)
C9 C 0.8364(9) 0.4236(11) 0.0099(2)
C10 C 0.3261(7) 0.4824(10) 0.1579(3)
C11 C 0.5133(5) 0.2060(7) 0.2713(2)
C12 C 0.4493(9) 0.0014(9) 0.2483(3)
C13 C 0.5761(4) 0.1848(6) 0.3958(1)
C14 C 0.7301(4) 0.1784(6) 0.4558(1)
C15 C 0.6723(4) 0.1759(7) 0.5237(2)
C16 C 0.8063(4) 0.1782(7) 0.5813(2)
C17 C 0.9985(4) 0.1812(6) 0.5696(1)
C18 C 1.0601(4) 0.1809(5) 0.5027(1)
C19 C 0.9236(4) 0.1807(6) 0.4462(1)
O4 O 0.4073(3) 0.1851(6) 0.4032(1)
H1 H 0.4689(58) 0.3786(69) 0.0447(22)
H2 H 0.6376(46) 0.4652(57) 0.2436(16)
H3 H 0.9281(43) 0.2886(48) 0.2357(15)
H4 H 0.8241(53) 0.1039(70) 0.2249(19)
H5 H 0.9569(54) 0.1655(69) 0.1157(18)
H6 H 0.6615(61) 0.0864(79) 0.0424(24)
H7 H 0.5624(61) 0.0403(79) 0.1208(24)
H8 H 0.7836(56) 0.6296(71) 0.1656(22)
H9 H 0.7296(96) 0.737(13) 0.0784(35)
H10 H 0.9559(69) 0.6561(80) 0.1176(22)
H11 H 0.8073(84) 0.305(11) -0.0161(31)
H12 H 1.0009(74) 0.4230(75) 0.0154(20)
H13 H 0.7614(86) 0.542(11) -0.0134(30)
H14 H 0.2424(70) 0.4963(89) 0.1132(26)
H15 H 0.2741(66) 0.5106(86) 0.2018(27)
H16 H 0.4058(52) 0.2964(57) 0.2835(18)
H17 H 0.3711(47) -0.0597(58) 0.2813(18)
H18 H 0.5505(73) -0.0678(84) 0.2383(23)
H19 H 0.3601(66) 0.0174(83) 0.2081(26)
H20 H 0.5474(45) 0.1758(71) 0.5325(16)
H21 H 0.7617(44) 0.1946(70) 0.6297(17)
H22 H 1.1935(50) 0.1738(72) 0.4983(17)
H23 H 0.9563(41) 0.1909(69) 0.4001(17)
#END
