
#######################################################################
#
#                 Cambridge Crystallographic Data Centre
#                                CCDC
#
#######################################################################
#
# If this CIF has been generated from an entry in the Cambridge
# Structural Database, then it will include bibliographic, chemical,
# crystal, experimental, refinement or atomic coordinate data resulting
# from the CCDC's data processing and validation procedures.
#
#######################################################################

data_CSD_CIF_SITQAP
_audit_creation_date 2013-12-18
_audit_creation_method CSD-ConQuest-V1
_database_code_CSD SITQAP
_database_code_depnum_ccdc_archive 'CCDC 902996'
_chemical_formula_sum 'C9 H7 N5 O4'
_chemical_formula_moiety
;
C9 H7 N5 O4
;
_journal_coden_Cambridge 920
_journal_volume 9
_journal_year 2014
_journal_page_first 166
_journal_name_full 'Chem.Asian J. '
loop_
_publ_author_name
"N.Kommu"
"V.D.Ghule"
"A.Sudheer Kumar"
"A.K.Sahoo"
_chemical_name_systematic
;
1-(2-Methyl-3,5-dinitrophenyl)-1H-1,2,4-triazole
;
_cell_volume    524.103
_exptl_crystal_density_diffrn 1.579
_exptl_special_details
;
Study temperature given as 571 K in CIF

;
_diffrn_ambient_temperature 298
#These two values have been output from a single CSD field.
_refine_ls_R_factor_gt 0.0452
_refine_ls_wR_factor_gt 0.0452
_symmetry_cell_setting triclinic
_symmetry_space_group_name_H-M 'P -1'
_symmetry_Int_Tables_number 2
loop_
_symmetry_equiv_pos_site_id
_symmetry_equiv_pos_as_xyz
1 x,y,z
2 -x,-y,-z
_cell_length_a 6.3837(15)
_cell_length_b 8.174(2)
_cell_length_c 11.050(3)
_cell_angle_alpha 96.428(4)
_cell_angle_beta 106.431(4)
_cell_angle_gamma 104.780(4)
_cell_formula_units_Z 2
loop_
_atom_type_symbol
_atom_type_radius_bond
C 0.68
H 0.23
N 0.68
O 0.68
loop_
_atom_site_label
_atom_site_type_symbol
_atom_site_fract_x
_atom_site_fract_y
_atom_site_fract_z
O1 O 1.2424(2) 0.05063(16) 0.94483(14)
C1 C 1.0096(3) 0.20511(19) 0.84965(14)
N1 N 1.2333(2) 0.19033(18) 0.92022(13)
O2 O 0.6632(2) 0.56837(16) 0.64558(13)
N2 N 0.4316(2) -0.08378(16) 0.68239(12)
C2 C 0.7773(3) 0.37257(19) 0.76463(15)
C3 C 0.5836(3) 0.23008(19) 0.70901(14)
C4 C 0.6179(3) 0.07153(19) 0.72975(14)
O3 O 1.3987(2) 0.31752(18) 0.95072(14)
C5 C 0.8273(3) 0.05713(19) 0.79770(14)
H1 H 0.84530 -0.05030 0.80830
O4 O 0.8563(3) 0.66065(16) 0.84602(13)
N3 N 0.1962(2) -0.33517(18) 0.66970(14)
C6 C 0.9886(3) 0.36583(19) 0.83575(14)
H2 H 1.11180 0.46540 0.87280
N4 N 0.7621(2) 0.54651(17) 0.75053(14)
C7 C 0.3611(3) -0.2036(2) 0.74709(16)
H3 H 0.42160 -0.19450 0.83550
N5 N 0.3073(3) -0.13887(18) 0.55497(13)
C8 C 0.3537(3) 0.2422(2) 0.63507(17)
H4 H 0.33670 0.34970 0.66880
H5 H 0.23580 0.14830 0.64300
H6 H 0.34140 0.23640 0.54600
C9 C 0.1713(3) -0.2882(2) 0.55440(17)
H7 H 0.06340 -0.35840 0.47890
#END
