
#######################################################################
#
#                 Cambridge Crystallographic Data Centre
#                                CCDC
#
#######################################################################
#
# If this CIF has been generated from an entry in the Cambridge
# Structural Database, then it will include bibliographic, chemical,
# crystal, experimental, refinement or atomic coordinate data resulting
# from the CCDC's data processing and validation procedures.
#
#######################################################################

data_CSD_CIF_SOMGUX
_audit_creation_date 2009-07-29
_audit_creation_method CSD-ConQuest-V1
_database_code_CSD SOMGUX
_database_code_depnum_ccdc_archive 'CCDC 715597'
_database_code_depnum_ccdc_journal 1267/2405
_chemical_formula_sum 'C15 H24 N2 O3'
_chemical_formula_moiety
;
C15 H24 N2 O3
;
_journal_coden_Cambridge 1267
_journal_volume 223
_journal_year 2008
_journal_page_first 453
_journal_name_full 'Z.Kristallogr.-New Cryst.Struct. '
loop_
_publ_author_name
"W.Frey"
"M.Ibrahim"
"V.Jager"
_chemical_name_systematic
;
(3S,1'S)-3-(1',2'-O-Cyclohexylidenedioxyethyl)-2,5,5-trimethyl-tetrahydro-1,2-
oxazole-3-carbonitrile
;
_chemical_name_common
;
3-(1,4-Dioxaspiro[4.5]dec-2-yl)-2,5,5-trimethyl-3-isoxazolidinecarbonitrile
;
_chemical_melting_point 365
_cell_volume    807.569
_exptl_crystal_colour 'colorless'
_exptl_crystal_density_diffrn 1.153
_exptl_special_details
;
Melting point range 365-367K

;
_exptl_crystal_description 'needles'
_exptl_crystal_preparation 'petroleum ether'
_diffrn_ambient_temperature 293
#These two values have been output from a single CSD field.
_refine_ls_R_factor_gt 0.0781
_refine_ls_wR_factor_gt 0.0781
_symmetry_cell_setting monoclinic
_symmetry_space_group_name_H-M 'P 21'
_symmetry_Int_Tables_number 4
loop_
_symmetry_equiv_pos_site_id
_symmetry_equiv_pos_as_xyz
1 x,y,z
2 -x,1/2+y,-z
_cell_length_a 9.7176(19)
_cell_length_b 6.7290(16)
_cell_length_c 12.792(2)
_cell_angle_alpha 90
_cell_angle_beta 105.104(14)
_cell_angle_gamma 90
_cell_formula_units_Z 2
loop_
_atom_type_symbol
_atom_type_radius_bond
C 0.68
H 0.23
N 0.68
O 0.68
loop_
_atom_site_label
_atom_site_type_symbol
_atom_site_fract_x
_atom_site_fract_y
_atom_site_fract_z
N1 N 0.7920(4) 0.2809(7) 0.2895(3)
C1 C 0.6581(5) 0.2898(7) 0.2019(3)
O1 O 0.8975(3) 0.2555(6) 0.2275(3)
C2 C 0.6999(5) 0.4266(8) 0.1210(4)
H1 H 0.67070 0.56210 0.12960
H2 H 0.65630 0.38370 0.04740
O2 O 0.2940(4) 0.4072(6) 0.2091(3)
N2 N 0.5855(5) -0.0628(8) 0.1208(4)
O3 O 0.4905(3) 0.2485(5) 0.3127(3)
C3 C 0.8653(5) 0.4109(9) 0.1473(4)
C4 C 0.6157(5) 0.0936(8) 0.1547(4)
C5 C 0.8099(6) 0.1059(10) 0.3599(4)
H3 H 0.74300 0.11170 0.40330
H4 H 0.90510 0.10350 0.40620
H5 H 0.79340 -0.01220 0.31630
C6 C 0.9160(6) 0.334(1) 0.0531(5)
H6 H 0.89670 0.43110 -0.00390
H7 H 0.86700 0.21270 0.02690
H8 H 1.01670 0.30920 0.07610
C7 C 0.9347(6) 0.6018(12) 0.1926(6)
H9 H 0.91120 0.70350 0.13820
H10 H 1.03620 0.58430 0.21460
H11 H 0.90140 0.64030 0.25400
C8 C 0.5370(5) 0.3809(7) 0.2431(4)
H12 H 0.57150 0.50320 0.28290
C9 C 0.4033(5) 0.4272(10) 0.1552(4)
H13 H 0.40610 0.56100 0.12770
H14 H 0.39030 0.33380 0.09570
C10 C 0.3361(5) 0.2549(9) 0.2847(4)
C11 C 0.2805(7) 0.0555(9) 0.2413(5)
H15 H 0.17750 0.06170 0.21590
H16 H 0.31760 0.02320 0.17990
C12 C 0.3206(8) -0.1039(10) 0.3234(6)
H17 H 0.42350 -0.11770 0.34520
H18 H 0.28030 -0.22910 0.29230
C13 C 0.2666(8) -0.0561(11) 0.4225(6)
H19 H 0.16320 -0.05320 0.40220
H20 H 0.29750 -0.15840 0.47700
C14 C 0.3244(8) 0.1446(11) 0.4684(5)
H21 H 0.28530 0.17740 0.52870
H22 H 0.42710 0.13580 0.49580
C15 C 0.2888(6) 0.3057(9) 0.3865(5)
H23 H 0.33510 0.42760 0.41770
H24 H 0.18670 0.32810 0.36700
#END
