
#######################################################################
#
#                 Cambridge Crystallographic Data Centre
#                                CCDC
#
#######################################################################
#
# If this CIF has been generated from an entry in the Cambridge
# Structural Database, then it will include bibliographic, chemical,
# crystal, experimental, refinement or atomic coordinate data resulting
# from the CCDC's data processing and validation procedures.
#
#######################################################################

data_CSD_CIF_SOWNID
_audit_creation_date 2014-11-05
_audit_creation_method CSD-ConQuest-V1
_database_code_CSD SOWNID
_database_code_depnum_ccdc_archive 'CCDC 966333'
_chemical_formula_sum 'C26 H21 N3 O2'
_chemical_formula_moiety
;
C26 H21 N3 O2
;
_journal_coden_Cambridge 35
_journal_volume 79
_journal_year 2014
_journal_page_first 1842
_journal_name_full 'J.Org.Chem. '
loop_
_publ_author_name
"M.R.Zanwar"
"V.Kavala"
"S.D.Gawande"
"Chun-Wei Kuo"
"Wen-Chang Huang"
"Ting-Shen Kuo"
"Hsiu-Ni Huang"
"Chiu-Hui He"
"Ching-Fa Yao"
_chemical_name_systematic
;
6-(1-(1H-Indol-3-yl)-2-nitroethyl)-4-methyl-2-phenylquinoline
;
_cell_volume   2098.144
_exptl_crystal_colour 'colorless'
_exptl_crystal_density_diffrn 1.29
_exptl_crystal_description 'prism'
_diffrn_ambient_temperature 200
#These two values have been output from a single CSD field.
_refine_ls_R_factor_gt 0.0698
_refine_ls_wR_factor_gt 0.0698
_symmetry_cell_setting monoclinic
_symmetry_space_group_name_H-M 'P 21/c'
_symmetry_Int_Tables_number 14
loop_
_symmetry_equiv_pos_site_id
_symmetry_equiv_pos_as_xyz
1 x,y,z
2 -x,1/2+y,1/2-z
3 -x,-y,-z
4 x,-1/2-y,-1/2+z
_cell_length_a 12.3676(17)
_cell_length_b 10.7025(16)
_cell_length_c 16.056(3)
_cell_angle_alpha 90
_cell_angle_beta 99.159(7)
_cell_angle_gamma 90
_cell_formula_units_Z 4
loop_
_atom_type_symbol
_atom_type_radius_bond
C 0.68
H 0.23
N 0.68
O 0.68
loop_
_atom_site_label
_atom_site_type_symbol
_atom_site_fract_x
_atom_site_fract_y
_atom_site_fract_z
C1 C 1.0206(3) 0.6869(3) 0.4399(2)
H1 H 0.97150 0.70350 0.48170
H2 H 1.05840 0.60660 0.45490
C2 C 0.9532(3) 0.6761(3) 0.3534(2)
H3 H 1.00970 0.66050 0.31530
C3 C 0.8816(3) 0.5588(3) 0.35223(19)
C4 C 0.9290(3) 0.4416(3) 0.3412(2)
H4 H 1.00370 0.43760 0.33370
C5 C 0.8707(3) 0.3340(3) 0.3408(2)
H5 H 0.90460 0.25630 0.33280
C6 C 0.7598(3) 0.3369(3) 0.35244(18)
C7 C 0.7103(3) 0.4530(3) 0.36226(18)
C8 C 0.7730(3) 0.5634(3) 0.36181(18)
H6 H 0.73960 0.64210 0.36820
C9 C 0.6006(3) 0.2281(3) 0.36449(18)
C10 C 0.5448(3) 0.3413(3) 0.3725(2)
H7 H 0.46960 0.33930 0.37840
C11 C 0.5966(3) 0.4534(3) 0.3718(2)
C12 C 0.5373(3) 0.5736(3) 0.3829(2)
H8 H 0.58720 0.64420 0.38080
H9 H 0.51160 0.57280 0.43760
H10 H 0.47450 0.58200 0.33770
C13 C 0.5444(3) 0.1070(3) 0.37224(19)
C14 C 0.6010(3) 0.0081(3) 0.4153(2)
H11 H 0.67650 0.01710 0.43750
C15 C 0.5478(3) -0.1038(3) 0.4261(2)
H12 H 0.58670 -0.17070 0.45620
C16 C 0.4379(3) -0.1174(3) 0.3930(2)
H13 H 0.40200 -0.19440 0.39930
C17 C 0.3804(3) -0.0195(3) 0.3509(2)
H14 H 0.30480 -0.02890 0.32910
C18 C 0.4331(3) 0.0925(3) 0.3405(2)
H15 H 0.39330 0.15980 0.31170
C19 C 0.8913(3) 0.7930(3) 0.3246(2)
C20 C 0.8450(3) 0.8165(3) 0.2387(2)
C21 C 0.8017(3) 0.9394(3) 0.2359(2)
C22 C 0.8721(3) 0.8960(3) 0.3696(2)
H16 H 0.90860 0.90460 0.43820
C23 C 0.8379(3) 0.7488(4) 0.1631(2)
H17 H 0.86490 0.66570 0.16310
C24 C 0.7907(3) 0.8054(5) 0.0886(2)
H18 H 0.78410 0.76030 0.03710
C25 C 0.7526(3) 0.9287(5) 0.0884(3)
H19 H 0.72320 0.96660 0.03620
C26 C 0.7566(3) 0.9957(4) 0.1610(3)
H20 H 0.72920 1.07870 0.16010
N1 N 1.1044(3) 0.7899(3) 0.4442(2)
N2 N 0.7055(2) 0.2241(2) 0.35421(15)
N3 N 0.8198(2) 0.9858(3) 0.31693(18)
H21 H 0.78460 1.07250 0.33030
O1 O 1.1692(3) 0.7862(3) 0.3957(2)
O2 O 1.1012(2) 0.8721(3) 0.49643(19)
#END
