
#######################################################################
#
#                 Cambridge Crystallographic Data Centre
#                                CCDC
#
#######################################################################
#
# If this CIF has been generated from an entry in the Cambridge
# Structural Database, then it will include bibliographic, chemical,
# crystal, experimental, refinement or atomic coordinate data resulting
# from the CCDC's data processing and validation procedures.
#
#######################################################################

data_CSD_CIF_SOXNEA
_audit_creation_date 2015-03-20
_audit_creation_method CSD-ConQuest-V1
_database_code_CSD SOXNEA
_database_code_depnum_ccdc_archive 'CCDC 1001226'
_chemical_formula_sum 'C8 H5 N3 O3'
_chemical_formula_moiety
;
C8 H5 N3 O3
;
_journal_coden_Cambridge 16
_journal_volume 70
_journal_year 2014
_journal_page_first 9321
_journal_name_full 'Tetrahedron '
loop_
_publ_author_name
"Wen-Ming Shu"
"Jun-Rui Ma"
"Kai-Lu Zheng"
"Hui-Ying Sun"
"Mei Wang"
"Yan Yang"
"An-Xin Wu"
_chemical_name_systematic
;
2-Diazo-1-(3-nitrophenyl)ethanone
;
_cell_volume   1678.530
_diffrn_ambient_temperature 298
#These two values have been output from a single CSD field.
_refine_ls_R_factor_gt 0.0457
_refine_ls_wR_factor_gt 0.0457
_symmetry_cell_setting monoclinic
_symmetry_space_group_name_H-M 'C 2/c'
_symmetry_Int_Tables_number 15
loop_
_symmetry_equiv_pos_site_id
_symmetry_equiv_pos_as_xyz
1 x,y,z
2 -x,y,1/2-z
3 1/2+x,1/2+y,z
4 1/2-x,1/2+y,1/2-z
5 -x,-y,-z
6 x,-y,-1/2+z
7 -1/2-x,-1/2-y,-z
8 -1/2+x,-1/2-y,-1/2+z
_cell_length_a 13.209(4)
_cell_length_b 12.046(3)
_cell_length_c 10.889(3)
_cell_angle_alpha 90
_cell_angle_beta 104.353(4)
_cell_angle_gamma 90
_cell_formula_units_Z 8
loop_
_atom_type_symbol
_atom_type_radius_bond
C 0.68
H 0.23
N 0.68
O 0.68
loop_
_atom_site_label
_atom_site_type_symbol
_atom_site_fract_x
_atom_site_fract_y
_atom_site_fract_z
O1 O 0.13280(12) -0.00304(10) 0.69653(12)
C1 C 0.12194(12) 0.22194(12) 0.64375(15)
H1 H 0.12570 0.19940 0.72650
N1 N 0.14696(12) -0.15918(11) 0.53269(13)
C2 C 0.13147(13) 0.02468(12) 0.58774(14)
C3 C 0.11511(13) 0.18029(13) 0.42627(14)
H2 H 0.11440 0.12860 0.36260
C4 C 0.11610(12) 0.33279(12) 0.61250(15)
O2 O 0.12057(12) 0.38054(11) 0.82004(13)
C5 C 0.13897(14) -0.05511(12) 0.49367(16)
H3 H 0.13830 -0.03530 0.41090
C6 C 0.12217(12) 0.14428(12) 0.54962(13)
O3 O 0.11161(14) 0.51187(12) 0.68375(17)
N2 N 0.15308(15) -0.24479(12) 0.57155(19)
C7 C 0.11028(14) 0.37001(13) 0.49099(17)
H4 H 0.10720 0.44550 0.47250
C8 C 0.10911(14) 0.29193(14) 0.39770(16)
H5 H 0.10420 0.31490 0.31490
N3 N 0.11659(11) 0.41378(12) 0.71269(16)
#END
