
#######################################################################
#
#                 Cambridge Crystallographic Data Centre
#                                CCDC
#
#######################################################################
#
# If this CIF has been generated from an entry in the Cambridge
# Structural Database, then it will include bibliographic, chemical,
# crystal, experimental, refinement or atomic coordinate data resulting
# from the CCDC's data processing and validation procedures.
#
#######################################################################

data_CSD_CIF_SOYKAT
_audit_creation_date 2009-07-30
_audit_creation_method CSD-ConQuest-V1
_database_code_CSD SOYKAT
_database_code_depnum_ccdc_archive 'CCDC 738160'
_chemical_formula_sum 'C29 H30 N2 O4'
_chemical_formula_moiety
;
C29 H30 N2 O4
;
_journal_coeditor_code "IUCr AT2776"
_journal_coden_Cambridge 1370
_journal_volume 65
_journal_year 2009
_journal_page_first o1238
_journal_name_full 'Acta Crystallogr.,Sect.E:Struct.Rep.Online '
loop_
_publ_author_name
"Yin-Xia Sun"
"Jian-Chao Wu"
"Wen-Kui Dong"
"Shang-sheng Gong"
"Jun-Feng Tong"
_chemical_name_systematic
;
2,2'-(1,1'-[Pentane-1,5-diylbis(oxynitrilo)]diethylidyne)di-1-naphthol
;
_chemical_melting_point 394
_cell_volume   1213.563
_exptl_crystal_colour 'yellow'
_exptl_crystal_density_diffrn 1.288
_exptl_special_details
;
Melting point range 394-396K

;
_exptl_crystal_description 'block'
_exptl_crystal_preparation 'chloroform/methanol'
_diffrn_ambient_temperature 298
#These two values have been output from a single CSD field.
_refine_ls_R_factor_gt 0.043
_refine_ls_wR_factor_gt 0.043
_symmetry_cell_setting monoclinic
_symmetry_space_group_name_H-M 'C 2'
_symmetry_Int_Tables_number 5
loop_
_symmetry_equiv_pos_site_id
_symmetry_equiv_pos_as_xyz
1 x,y,z
2 -x,y,-z
3 1/2+x,1/2+y,z
4 1/2-x,1/2+y,-z
_cell_length_a 14.0683(12)
_cell_length_b 4.5659(7)
_cell_length_c 19.048(2)
_cell_angle_alpha 90
_cell_angle_beta 97.321(1)
_cell_angle_gamma 90
_cell_formula_units_Z 2
loop_
_atom_type_symbol
_atom_type_radius_bond
C 0.68
H 0.23
N 0.68
O 0.68
loop_
_atom_site_label
_atom_site_type_symbol
_atom_site_fract_x
_atom_site_fract_y
_atom_site_fract_z
N1 N 0.2185(2) -0.0996(7) 0.16024(12)
O1 O 0.24369(16) -0.2609(7) 0.10176(10)
O2 O 0.09872(13) 0.1007(6) 0.23812(10)
H1 H 0.11570 0.00560 0.20540
C1 C 0.1626(2) -0.4239(10) 0.07147(17)
H2 H 0.13760 -0.53430 0.10860
H3 H 0.18290 -0.56330 0.03790
C2 C 0.0834(2) -0.2382(10) 0.03427(15)
H4 H 0.10850 -0.12180 -0.00180
H5 H 0.06060 -0.10490 0.06810
C3 C 0.00000 -0.4226(13) 0.00000
H6 H -0.02230 -0.54780 0.03570
C4 C 0.3854(2) 0.0583(12) 0.16832(16)
H7 H 0.38630 -0.06680 0.12790
H8 H 0.43210 -0.00870 0.20610
H9 H 0.40040 0.25520 0.15590
C5 C 0.2876(2) 0.0510(9) 0.19192(15)
C6 C 0.1752(2) 0.2479(9) 0.27207(14)
C7 C 0.2658(2) 0.2281(8) 0.25198(13)
C8 C 0.3400(2) 0.3899(9) 0.29307(16)
H10 H 0.40220 0.37710 0.28160
C9 C 0.3230(2) 0.561(1) 0.34806(16)
H11 H 0.37310 0.66600 0.37280
C10 C 0.2308(2) 0.5826(8) 0.36834(14)
C11 C 0.1552(2) 0.4251(8) 0.32992(14)
C12 C 0.0631(2) 0.4448(10) 0.35059(15)
H12 H 0.01280 0.34200 0.32550
C13 C 0.0467(3) 0.6102(10) 0.40623(17)
H13 H -0.01450 0.61700 0.41980
C14 C 0.1205(3) 0.7717(11) 0.44378(16)
H14 H 0.10830 0.88830 0.48170
C15 C 0.2101(3) 0.7583(10) 0.42496(17)
H15 H 0.25890 0.86760 0.45010
N1A N -0.2185(2) -0.0996(7) -0.16024(12)
O1A O -0.24369(16) -0.2609(7) -0.10176(10)
O2A O -0.09872(13) 0.1007(6) -0.23812(10)
H1A H -0.11570 0.00560 -0.20540
C1A C -0.1626(2) -0.4239(10) -0.07147(17)
H2A H -0.13760 -0.53430 -0.10860
H3A H -0.18290 -0.56330 -0.03790
C2A C -0.0834(2) -0.2382(10) -0.03427(15)
H4A H -0.10850 -0.12180 0.00180
H5A H -0.06060 -0.10490 -0.06810
H6A H 0.02230 -0.54780 -0.03570
C4A C -0.3854(2) 0.0583(12) -0.16832(16)
H7A H -0.38630 -0.06680 -0.12790
H8A H -0.43210 -0.00870 -0.20610
H9A H -0.40040 0.25520 -0.15590
C5A C -0.2876(2) 0.0510(9) -0.19192(15)
C6A C -0.1752(2) 0.2479(9) -0.27207(14)
C7A C -0.2658(2) 0.2281(8) -0.25198(13)
C8A C -0.3400(2) 0.3899(9) -0.29307(16)
H10A H -0.40220 0.37710 -0.28160
C9A C -0.3230(2) 0.561(1) -0.34806(16)
H11A H -0.37310 0.66600 -0.37280
C10A C -0.2308(2) 0.5826(8) -0.36834(14)
C11A C -0.1552(2) 0.4251(8) -0.32992(14)
C12A C -0.0631(2) 0.4448(10) -0.35059(15)
H12A H -0.01280 0.34200 -0.32550
C13A C -0.0467(3) 0.6102(10) -0.40623(17)
H13A H 0.01450 0.61700 -0.41980
C14A C -0.1205(3) 0.7717(11) -0.44378(16)
H14A H -0.10830 0.88830 -0.48170
C15A C -0.2101(3) 0.7583(10) -0.42496(17)
H15A H -0.25890 0.86760 -0.45010
#END
