
#######################################################################
#
#                 Cambridge Crystallographic Data Centre
#                                CCDC
#
#######################################################################
#
# If this CIF has been generated from an entry in the Cambridge
# Structural Database, then it will include bibliographic, chemical,
# crystal, experimental, refinement or atomic coordinate data resulting
# from the CCDC's data processing and validation procedures.
#
#######################################################################

data_CSD_CIF_SUGBED
_audit_creation_date 2015-03-25
_audit_creation_method CSD-ConQuest-V1
_database_code_CSD SUGBED
_database_code_depnum_ccdc_archive 'CCDC 1055657'
_chemical_formula_sum 'C20 H18 N2 O4'
_chemical_formula_moiety
;
C20 H18 N2 O4
;
_journal_coden_Cambridge 35
_journal_volume 79
_journal_year 2014
_journal_page_first 10956
_journal_name_full 'J.Org.Chem. '
loop_
_publ_author_name
"O.A.Mukhina"
"N.N.Bhuvan Kumar"
"T.M.Cowger"
"A.G.Kutateladze"
_chemical_name_systematic
;
3-(nitromethyl)-21-oxa-14-azapentacyclo[11.7.1.0^1,10^.0^4,9^.0^15,20^]henicos
a-4,6,8,11,15,17,19-heptaen-10-ol
;
_cell_volume   1640.653
_exptl_crystal_colour 'colorless'
_exptl_crystal_density_diffrn 1.418
_exptl_crystal_description 'rectangular'
_diffrn_ambient_temperature 296
#These two values have been output from a single CSD field.
_refine_ls_R_factor_gt 0.0403
_refine_ls_wR_factor_gt 0.0403
_symmetry_cell_setting monoclinic
_symmetry_space_group_name_H-M 'P 21/n'
_symmetry_Int_Tables_number 14
loop_
_symmetry_equiv_pos_site_id
_symmetry_equiv_pos_as_xyz
1 x,y,z
2 1/2-x,1/2+y,1/2-z
3 -x,-y,-z
4 -1/2+x,-1/2-y,-1/2+z
_cell_length_a 7.4392(2)
_cell_length_b 21.5625(6)
_cell_length_c 10.4467(3)
_cell_angle_alpha 90
_cell_angle_beta 101.744(1)
_cell_angle_gamma 90
_cell_formula_units_Z 4
loop_
_atom_type_symbol
_atom_type_radius_bond
C 0.68
H 0.23
N 0.68
O 0.68
loop_
_atom_site_label
_atom_site_type_symbol
_atom_site_fract_x
_atom_site_fract_y
_atom_site_fract_z
C1 C 0.25294(19) 0.11947(6) 0.34153(13)
H1 H 0.35480 0.09100 0.34530
H2 H 0.21250 0.11670 0.42400
O1 O 0.3882(2) 0.21672(8) 0.60335(13)
O2 O -0.03747(12) 0.14879(4) 0.21966(10)
O3 O 0.28711(13) 0.04612(4) 0.10006(10)
H3 H 0.22600 0.01440 0.08450
C2 C 0.31901(18) 0.18523(6) 0.32472(13)
H4 H 0.22950 0.21460 0.34700
C3 C 0.09690(17) 0.09995(6) 0.23175(12)
O4 O 0.5633(2) 0.13779(8) 0.61076(16)
N1 N 0.48612(18) 0.18267(7) 0.55517(13)
C4 C 0.5044(2) 0.19532(8) 0.41834(15)
H5 H 0.59570 0.16790 0.39480
H6 H 0.54480 0.23770 0.41120
C5 C 0.01036(18) 0.03928(6) 0.26372(13)
C6 C -0.18232(19) 0.03426(7) 0.24214(14)
C7 C -0.2616(2) -0.02067(7) 0.27542(15)
H7 H -0.38870 -0.02450 0.25950
C8 C -0.1537(2) -0.06906(7) 0.33133(15)
H8 H -0.20830 -0.10550 0.35220
C9 C -0.20201(19) 0.13230(7) 0.13176(15)
H9 H -0.28250 0.16870 0.11650
N2 N -0.29178(16) 0.08425(6) 0.19330(14)
H10 H -0.40530 0.08670 0.19900
C10 C 0.0354(2) -0.06412(7) 0.35694(15)
H11 H 0.10820 -0.09660 0.39670
C11 C 0.1154(2) -0.01024(7) 0.32268(14)
H12 H 0.24270 -0.00710 0.33950
C12 C -0.1632(2) 0.11090(7) 0.00335(15)
H13 H -0.25910 0.10940 -0.06920
C13 C 0.0027(2) 0.09409(6) -0.00990(14)
H14 H 0.01890 0.07930 -0.09040
C14 C 0.16709(17) 0.09810(6) 0.10189(13)
C15 C 0.28018(17) 0.15569(6) 0.08505(13)
C16 C 0.31901(19) 0.16720(7) -0.03843(14)
H15 H 0.28500 0.13800 -0.10450
C17 C 0.4065(2) 0.22076(7) -0.06433(15)
H16 H 0.43230 0.22740 -0.14670
C18 C 0.4552(2) 0.26443(7) 0.03316(15)
H17 H 0.50830 0.30170 0.01550
C19 C 0.42505(19) 0.25278(6) 0.15657(15)
H18 H 0.46120 0.28210 0.22210
C20 C 0.34113(17) 0.19784(6) 0.18584(13)
#END
