
#######################################################################
#
#                 Cambridge Crystallographic Data Centre
#                                CCDC
#
#######################################################################
#
# If this CIF has been generated from an entry in the Cambridge
# Structural Database, then it will include bibliographic, chemical,
# crystal, experimental, refinement or atomic coordinate data resulting
# from the CCDC's data processing and validation procedures.
#
#######################################################################

data_CSD_CIF_SUTTUY
_audit_creation_date 2015-09-01
_audit_creation_method CSD-ConQuest-V1
_database_code_CSD SUTTUY
_database_code_depnum_ccdc_archive 'CCDC 1059382'
_chemical_formula_sum 'C22 H19 N1 O4'
_chemical_formula_moiety
;
C22 H19 N1 O4
;
_journal_coden_Cambridge 4
_journal_volume 137
_journal_year 2015
_journal_page_first 9760
_journal_name_full 'J.Am.Chem.Soc. '
loop_
_publ_author_name
"E.J.Tollefson"
"L.W.Erickson"
"E.R.Jarvo"
_chemical_name_systematic
;
2-(2-(2-naphthyl)cyclopropyl)ethyl 4-nitrobenzoate
;
_cell_volume   1757.643
_exptl_crystal_colour 'colorless'
_exptl_crystal_density_diffrn 1.366
_exptl_crystal_description 'polyhedron'
_diffrn_ambient_temperature 88
#These two values have been output from a single CSD field.
_refine_ls_R_factor_gt 0.0477
_refine_ls_wR_factor_gt 0.0477
_symmetry_cell_setting monoclinic
_symmetry_space_group_name_H-M 'P 21/c'
_symmetry_Int_Tables_number 14
loop_
_symmetry_equiv_pos_site_id
_symmetry_equiv_pos_as_xyz
1 x,y,z
2 -x,1/2+y,1/2-z
3 -x,-y,-z
4 x,-1/2-y,-1/2+z
_cell_length_a 16.4673(7)
_cell_length_b 8.7330(4)
_cell_length_c 12.2472(5)
_cell_angle_alpha 90
_cell_angle_beta 93.6709(5)
_cell_angle_gamma 90
_cell_formula_units_Z 4
loop_
_atom_type_symbol
_atom_type_radius_bond
C 0.68
H 0.23
N 0.68
O 0.68
loop_
_atom_site_label
_atom_site_type_symbol
_atom_site_fract_x
_atom_site_fract_y
_atom_site_fract_z
N1 N 0.00808(8) -0.03459(15) -0.23215(11)
O1 O 0.30106(6) 0.35891(12) -0.01621(7)
O2 O 0.33271(6) 0.37748(12) -0.19187(8)
O3 O -0.00844(7) -0.06269(15) -0.32917(10)
O4 O -0.03161(8) -0.08244(16) -0.15797(11)
C1 C 0.45746(9) 0.53138(17) 0.18303(12)
C2 C 0.45977(9) 0.61729(17) 0.29109(12)
C3 C 0.46107(10) 0.70333(18) 0.18511(12)
C4 C 0.38008(9) 0.45229(17) 0.14087(12)
C5 C 0.37627(8) 0.43935(17) 0.01709(11)
C6 C 0.28820(8) 0.33313(16) -0.12377(11)
C7 C 0.21283(8) 0.24107(15) -0.14971(11)
C8 C 0.19749(8) 0.19130(16) -0.25723(11)
C9 C 0.13053(9) 0.10049(17) -0.28515(12)
C10 C 0.07957(8) 0.06209(16) -0.20339(12)
C11 C 0.09238(9) 0.11153(17) -0.09639(12)
C12 C 0.15989(8) 0.20174(17) -0.06967(11)
C13 C 0.38898(9) 0.61833(16) 0.36236(11)
C14 C 0.32299(9) 0.71327(17) 0.34708(12)
C15 C 0.25877(9) 0.71309(16) 0.42026(11)
C16 C 0.18995(10) 0.81031(19) 0.40578(13)
C17 C 0.13106(10) 0.81056(19) 0.47999(14)
C18 C 0.13786(10) 0.71295(19) 0.57251(13)
C19 C 0.20282(9) 0.61645(18) 0.58812(12)
C20 C 0.26484(9) 0.61366(16) 0.51240(11)
C21 C 0.33274(9) 0.51404(17) 0.52559(12)
C22 C 0.39213(9) 0.51544(17) 0.45246(12)
H1 H 0.5084(11) 0.475(2) 0.1682(14)
H2 H 0.5150(12) 0.611(2) 0.3334(15)
H3 H 0.5140(12) 0.756(2) 0.1666(16)
H4 H 0.4104(12) 0.757(2) 0.1594(16)
H5 H 0.3369(10) 0.5239(19) 0.1441(13)
H6 H 0.3762(12) 0.343(2) 0.1775(16)
H7 H 0.3761(10) 0.540(2) -0.0171(14)
H8 H 0.4234(10) 0.3806(19) -0.0062(13)
H9 H 0.2335(11) 0.219(2) -0.3118(14)
H10 H 0.1182(11) 0.064(2) -0.3595(14)
H11 H 0.0571(12) 0.080(2) -0.0450(15)
H12 H 0.1705(11) 0.236(2) 0.0059(15)
H13 H 0.3178(10) 0.780(2) 0.2877(14)
H14 H 0.1856(12) 0.876(2) 0.3397(16)
H15 H 0.0837(13) 0.876(2) 0.4695(17)
H16 H 0.0971(12) 0.713(2) 0.6233(15)
H17 H 0.2071(11) 0.545(2) 0.6495(14)
H18 H 0.3375(11) 0.447(2) 0.5872(15)
H19 H 0.4373(11) 0.444(2) 0.4631(15)
#END
