
#######################################################################
#
#                 Cambridge Crystallographic Data Centre
#                                CCDC
#
#######################################################################
#
# If this CIF has been generated from an entry in the Cambridge
# Structural Database, then it will include bibliographic, chemical,
# crystal, experimental, refinement or atomic coordinate data resulting
# from the CCDC's data processing and validation procedures.
#
#######################################################################

data_CSD_CIF_SUWXIR
_audit_creation_date 2001-11-29
_audit_creation_method CSD-ConQuest-V1
_database_code_CSD SUWXIR
_database_code_depnum_ccdc_archive 'CCDC 156875'
_chemical_formula_sum 'C11 H21 N2 O4'
_chemical_formula_moiety
;
C11 H21 N2 O4
;
_journal_coden_Cambridge 1291
_journal_year 2001
_journal_page_first 3127
_journal_name_full 'Eur.J.Org.Chem. '
loop_
_publ_author_name
"R.Endtner"
"C.Loick"
"E.Rentschler"
"W.Sicking"
"R.Boese"
"R.Sustmann"
_chemical_name_systematic
;
2-(2-Methyl-1,3-propanediol)-4,4,5,5-tetramethyl-3-oxylimidazoline 1-oxide
;
_chemical_melting_point 392.15
_cell_volume   5016.245
_exptl_crystal_colour 'dark blue'
_exptl_crystal_density_diffrn 1.299
_exptl_crystal_description 'block'
_exptl_crystal_preparation 'ethyl acetate'
_diffrn_ambient_temperature 193
#These two values have been output from a single CSD field.
_refine_ls_R_factor_gt 0.0625
_refine_ls_wR_factor_gt 0.0625
_symmetry_cell_setting orthorhombic
_symmetry_space_group_name_H-M 'F d d 2'
_symmetry_Int_Tables_number 43
loop_
_symmetry_equiv_pos_site_id
_symmetry_equiv_pos_as_xyz
1 x,y,z
2 -x,-y,z
3 1/4+x,1/4-y,1/4+z
4 1/4-x,1/4+y,1/4+z
5 x,1/2+y,1/2+z
6 -x,1/2-y,1/2+z
7 1/4+x,-1/4-y,-1/4+z
8 1/4-x,-1/4+y,-1/4+z
9 1/2+x,y,1/2+z
10 1/2-x,-y,1/2+z
11 -1/4+x,1/4-y,-1/4+z
12 -1/4-x,1/4+y,-1/4+z
13 1/2+x,1/2+y,z
14 1/2-x,1/2-y,z
15 -1/4+x,-1/4-y,1/4+z
16 -1/4-x,-1/4+y,1/4+z
_cell_length_a 17.168(10)
_cell_length_b 47.18(3)
_cell_length_c 6.193(3)
_cell_angle_alpha 90
_cell_angle_beta 90
_cell_angle_gamma 90
_cell_formula_units_Z 16
loop_
_atom_type_symbol
_atom_type_radius_bond
C 0.68
H 0.23
N 0.68
O 0.68
loop_
_atom_site_label
_atom_site_type_symbol
_atom_site_fract_x
_atom_site_fract_y
_atom_site_fract_z
O1 O 0.44853(15) 0.02473(7) 0.3677(5)
O2 O 0.45179(16) 0.09860(7) 0.8612(5)
O3 O 0.44981(15) 0.10869(7) 0.3044(5)
H1 H 0.57140 0.02260 0.35760
O4 O 0.60853(15) 0.03480(6) 0.3352(6)
H2 H 0.45720 0.10230 0.18140
N1 N 0.43084(16) 0.04140(8) 0.5257(6)
N2 N 0.43134(17) 0.07609(9) 0.7577(6)
C1 C 0.47071(19) 0.06441(9) 0.5896(7)
C2 C 0.3642(2) 0.03404(10) 0.6755(7)
C3 C 0.3507(2) 0.06361(10) 0.7811(8)
C4 C 0.3963(2) 0.01207(10) 0.8308(9)
H3 H 0.41120 -0.00490 0.74960
H4 H 0.35600 0.00720 0.93650
H5 H 0.44200 0.01960 0.90620
C5 C 0.2958(2) 0.02251(11) 0.5501(9)
H6 H 0.28440 0.03480 0.42660
H7 H 0.25010 0.02160 0.64490
H8 H 0.30830 0.00340 0.49830
C6 C 0.3262(2) 0.06263(11) 1.0156(8)
H9 H 0.36280 0.05080 1.09720
H10 H 0.27380 0.05450 1.02610
H11 H 0.32610 0.08190 1.07520
C7 C 0.2970(2) 0.08310(12) 0.6499(9)
H12 H 0.29620 0.10200 0.71600
H13 H 0.24420 0.07520 0.64890
H14 H 0.31630 0.08450 0.50140
C8 C 0.54325(19) 0.0770(1) 0.4946(7)
C9 C 0.6086(2) 0.07921(11) 0.6660(8)
H15 H 0.62240 0.06040 0.71160
H16 H 0.65340 0.08830 0.60460
H17 H 0.59070 0.08990 0.78820
C10 C 0.5209(2) 0.10796(10) 0.4207(8)
H18 H 0.51590 0.11990 0.54520
H19 H 0.56190 0.11550 0.33210
C11 C 0.5732(2) 0.06174(10) 0.2939(8)
H20 H 0.53020 0.05910 0.19700
H21 H 0.61070 0.07350 0.22210
#END
