
#######################################################################
#
#                 Cambridge Crystallographic Data Centre
#                                CCDC
#
#######################################################################
#
# If this CIF has been generated from an entry in the Cambridge
# Structural Database, then it will include bibliographic, chemical,
# crystal, experimental, refinement or atomic coordinate data resulting
# from the CCDC's data processing and validation procedures.
#
#######################################################################

data_CSD_CIF_TACHUA
_audit_creation_date 1991-05-01
_audit_creation_method CSD-ConQuest-V1
_database_code_CSD TACHUA
_chemical_formula_sum 'C26 H36 N2 O2'
_chemical_formula_moiety
;
C26 H36 N2 O2
;
_journal_coden_Cambridge 582
_journal_volume 20
_journal_year 1990
_journal_page_first 291
_journal_name_full 'J.Crystallogr.Spectrosc.Res. '
loop_
_publ_author_name
"T.Taga"
"A.Uchiyama"
"K.Machida"
"T.Miyasaka"
_chemical_name_systematic
;
(E)-O-Myristoyl-phenyl-2-pyridyl ketone oxime
;
_cell_volume   2375.818
_exptl_crystal_density_diffrn 1.142
_exptl_special_details
;
Isomorphous with the octanoyl and palmitoyl derivatives
Correct H atom coordinates have been supplied by the author
;
_diffrn_ambient_temperature ?
_diffrn_special_details
;
The study was carried out at room temperature,in the range 283-303K

;
#These two values have been output from a single CSD field.
_refine_ls_R_factor_gt 0.067
_refine_ls_wR_factor_gt 0.067
_symmetry_cell_setting monoclinic
_symmetry_space_group_name_H-M 'P 21/n'
_symmetry_Int_Tables_number 14
loop_
_symmetry_equiv_pos_site_id
_symmetry_equiv_pos_as_xyz
1 x,y,z
2 1/2-x,1/2+y,1/2-z
3 -x,-y,-z
4 -1/2+x,-1/2-y,-1/2+z
_cell_length_a 8.191(4)
_cell_length_b 50.45(2)
_cell_length_c 5.791(3)
_cell_angle_alpha 90
_cell_angle_beta 96.88(4)
_cell_angle_gamma 90
_cell_formula_units_Z 4
loop_
_atom_type_symbol
_atom_type_radius_bond
C 0.68
H 0.23
N 0.68
O 0.68
loop_
_atom_site_label
_atom_site_type_symbol
_atom_site_fract_x
_atom_site_fract_y
_atom_site_fract_z
N1 N 0.8430(3) 0.3416(1) 1.2428(4)
C1 C 0.8350(3) 0.3217(1) 1.3800(5)
C2 C 0.9771(3) 0.3206(1) 1.5657(5)
C3 C 1.1170(4) 0.3357(1) 1.5540(6)
C4 C 1.2448(4) 0.3343(1) 1.7299(6)
C5 C 1.2314(4) 0.3178(1) 1.9136(6)
C6 C 1.0899(4) 0.3032(1) 1.9125(6)
N2 N 0.9625(3) 0.3041(1) 1.7431(4)
C7 C 0.7049(3) 0.3009(1) 1.3540(5)
C8 C 0.5943(4) 0.2985(1) 1.5137(6)
C9 C 0.4712(4) 0.2797(1) 1.4818(6)
C10 C 0.4599(4) 0.2631(1) 1.2953(6)
C11 C 0.5706(4) 0.2650(1) 1.1359(6)
C12 C 0.6927(4) 0.2842(1) 1.1645(6)
O1 O 0.7063(2) 0.3422(1) 1.0641(4)
C13 C 0.7231(3) 0.3614(1) 0.9002(5)
O2 O 0.6112(3) 0.3628(1) 0.7480(4)
C14 C 0.8737(3) 0.3781(1) 0.9196(5)
C15 C 0.8719(4) 0.3967(1) 0.7137(5)
C16 C 1.0177(4) 0.4152(1) 0.7301(5)
C17 C 1.0074(4) 0.4345(1) 0.5269(5)
C18 C 1.1463(4) 0.4544(1) 0.5389(5)
C19 C 1.1309(3) 0.4736(1) 0.3338(5)
C20 C 1.2698(4) 0.4937(1) 0.3426(5)
C21 C 1.2542(3) 0.5127(1) 0.1406(5)
C22 C 1.3919(4) 0.5329(1) 0.1495(5)
C23 C 1.3778(4) 0.5520(1) -0.0551(5)
C24 C 1.5153(4) 0.5723(1) -0.0460(5)
C25 C 1.4998(4) 0.5911(1) -0.2503(5)
C26 C 1.6363(5) 0.6114(1) -0.2422(7)
H1 H 1.120(4) 0.347(1) 1.421(5)
H2 H 1.339(4) 0.343(1) 1.727(5)
H3 H 1.316(4) 0.315(1) 2.033(5)
H4 H 1.069(4) 0.291(1) 2.044(5)
H5 H 0.606(4) 0.310(1) 1.653(5)
H6 H 0.391(4) 0.278(1) 1.600(6)
H7 H 0.384(4) 0.248(1) 1.285(6)
H8 H 0.564(4) 0.253(1) 0.992(6)
H9 H 0.773(4) 0.286(1) 1.045(5)
H10 H 0.879(4) 0.387(1) 1.078(5)
H11 H 0.974(4) 0.366(1) 0.930(5)
H12 H 0.772(3) 0.408(1) 0.700(5)
H13 H 0.868(4) 0.386(1) 0.566(5)
H14 H 1.021(4) 0.426(1) 0.882(5)
H15 H 1.120(4) 0.405(1) 0.732(5)
H16 H 0.896(4) 0.445(1) 0.511(5)
H17 H 1.011(4) 0.424(1) 0.378(5)
H18 H 1.155(4) 0.465(1) 0.691(5)
H19 H 1.260(4) 0.445(1) 0.552(5)
H20 H 1.026(4) 0.483(1) 0.322(5)
H21 H 1.130(4) 0.463(1) 0.183(5)
H22 H 1.271(4) 0.504(1) 0.489(5)
H23 H 1.380(4) 0.484(1) 0.345(6)
H24 H 1.150(4) 0.523(1) 0.137(5)
H25 H 1.249(4) 0.502(1) -0.014(5)
H26 H 1.399(3) 0.544(1) 0.303(4)
H27 H 1.492(4) 0.523(1) 0.156(6)
H28 H 1.273(4) 0.562(1) -0.062(6)
H29 H 1.380(4) 0.541(1) -0.196(5)
H30 H 1.517(4) 0.582(1) 0.106(5)
H31 H 1.616(4) 0.562(1) -0.043(5)
H32 H 1.387(4) 0.601(1) -0.267(5)
H33 H 1.499(4) 0.580(1) -0.400(6)
H34 H 1.639(5) 0.621(1) -0.096(7)
H35 H 1.745(4) 0.602(1) -0.232(6)
H36 H 1.620(5) 0.623(1) -0.380(7)
#END
