
#######################################################################
#
#                 Cambridge Crystallographic Data Centre
#                                CCDC
#
#######################################################################
#
# If this CIF has been generated from an entry in the Cambridge
# Structural Database, then it will include bibliographic, chemical,
# crystal, experimental, refinement or atomic coordinate data resulting
# from the CCDC's data processing and validation procedures.
#
#######################################################################

data_CSD_CIF_TALDAO
_audit_creation_date 2016-02-12
_audit_creation_method CSD-ConQuest-V1
_database_code_CSD TALDAO
_database_code_depnum_ccdc_archive 'CCDC 1431780'
_chemical_formula_sum 'C6 H11 N1 O6'
_chemical_formula_moiety
;
C6 H11 N1 O6
;
_journal_coden_Cambridge 179
_journal_volume 55
_journal_year 2016
_journal_page_first 523
_journal_name_full 'Angew.Chem.,Int.Ed. '
loop_
_publ_author_name
"Ziyang Zhang"
"T.Fukuzaki"
"A.G.Myers"
_chemical_name_systematic
;
3,4-Dideoxy-3-nitro-\a-D-glucose
;
_cell_volume    401.339
_exptl_crystal_colour 'colorless'
_exptl_crystal_density_diffrn 1.598
_exptl_special_details
;
Absolute configuration

;
_exptl_crystal_description 'block'
_diffrn_ambient_temperature 100
#These two values have been output from a single CSD field.
_refine_ls_R_factor_gt 0.0242
_refine_ls_wR_factor_gt 0.0242
_symmetry_cell_setting monoclinic
_symmetry_space_group_name_H-M 'P 21'
_symmetry_Int_Tables_number 4
loop_
_symmetry_equiv_pos_site_id
_symmetry_equiv_pos_as_xyz
1 x,y,z
2 -x,1/2+y,-z
_cell_length_a 8.3913(4)
_cell_length_b 5.0220(3)
_cell_length_c 9.6538(5)
_cell_angle_alpha 90
_cell_angle_beta 99.417(2)
_cell_angle_gamma 90
_cell_formula_units_Z 2
loop_
_atom_type_symbol
_atom_type_radius_bond
C 0.68
H 0.23
N 0.68
O 0.68
loop_
_atom_site_label
_atom_site_type_symbol
_atom_site_fract_x
_atom_site_fract_y
_atom_site_fract_z
C1 C 0.1942(2) 0.4266(5) 0.0505(2)
H1 H 0.17200 0.48470 -0.04990
C2 C 0.3514(3) 0.5560(5) 0.1218(2)
H2 H 0.34350 0.75350 0.10950
C3 C 0.3776(3) 0.4892(5) 0.2773(2)
H3 H 0.39290 0.29270 0.29010
C4 C 0.2327(2) 0.5793(5) 0.3436(2)
H4 H 0.24910 0.53000 0.44420
H5 H 0.22030 0.77510 0.33610
C5 C 0.0824(3) 0.4421(5) 0.2653(2)
H6 H 0.09600 0.24500 0.27590
C6 C -0.0706(3) 0.5243(5) 0.3174(2)
H7 H -0.16520 0.44230 0.25790
H8 H -0.06740 0.46120 0.41500
N1 N 0.5268(2) 0.6331(4) 0.34934(18)
O1 O 0.06283(17) 0.5093(3) 0.11798(14)
O2 O 0.21382(18) 0.1510(4) 0.05493(16)
H9 H 0.139(5) 0.087(7) -0.006(4)
O3 O 0.48374(19) 0.4588(4) 0.06124(15)
H10 H 0.518(4) 0.583(7) 0.024(3)
O4 O 0.60620(18) 0.5251(4) 0.45166(15)
O5 O 0.56138(18) 0.8496(4) 0.30358(16)
O6 O -0.0856(2) 0.8075(4) 0.31270(17)
H11 H -0.184(5) 0.826(10) 0.318(4)
#END
