
#######################################################################
#
#                 Cambridge Crystallographic Data Centre
#                                CCDC
#
#######################################################################
#
# If this CIF has been generated from an entry in the Cambridge
# Structural Database, then it will include bibliographic, chemical,
# crystal, experimental, refinement or atomic coordinate data resulting
# from the CCDC's data processing and validation procedures.
#
#######################################################################

data_CSD_CIF_TAYKAI
_audit_creation_date 2017-08-10
_audit_creation_method CSD-ConQuest-V1
_database_code_CSD TAYKAI
_database_code_depnum_ccdc_archive 'CCDC 1427392'
_chemical_formula_sum 'C16 H18 N2 O1'
_chemical_formula_moiety
;
C16 H18 N2 O1
;
_journal_coden_Cambridge 119
_journal_volume 1148
_journal_year 2017
_journal_page_first 371
_journal_name_full 'J.Mol.Struct. '
loop_
_publ_author_name
"G.Purushothaman"
"V.Thiruvenkatam"
_chemical_name_systematic
;
4-(N-hydroxy-2-phenylethanimidoyl)-N,N-dimethylaniline
;
_cell_volume   1442.863
_exptl_crystal_density_diffrn 1.171
_diffrn_ambient_temperature 273
#These two values have been output from a single CSD field.
_refine_ls_R_factor_gt 0.0698
_refine_ls_wR_factor_gt 0.0698
_symmetry_cell_setting monoclinic
_symmetry_space_group_name_H-M 'P 21/n'
_symmetry_Int_Tables_number 14
loop_
_symmetry_equiv_pos_site_id
_symmetry_equiv_pos_as_xyz
1 x,y,z
2 1/2-x,1/2+y,1/2-z
3 -x,-y,-z
4 -1/2+x,-1/2-y,-1/2+z
_cell_length_a 14.361(3)
_cell_length_b 5.6154(13)
_cell_length_c 17.901(4)
_cell_angle_alpha 90
_cell_angle_beta 91.814(5)
_cell_angle_gamma 90
_cell_formula_units_Z 4
loop_
_atom_type_symbol
_atom_type_radius_bond
C 0.68
H 0.23
N 0.68
O 0.68
loop_
_atom_site_label
_atom_site_type_symbol
_atom_site_fract_x
_atom_site_fract_y
_atom_site_fract_z
O1 O 0.57876(12) 0.2019(4) 0.49921(9)
H1 H 0.56530 0.10770 0.53210
N1 N 0.51887(13) 0.1664(4) 0.43593(11)
C1 C 0.52605(16) 0.3330(5) 0.38746(14)
C2 C 0.47013(16) 0.3053(5) 0.31749(13)
C3 C 0.71956(19) 0.3213(5) 0.33933(15)
H2 H 0.67790 0.20120 0.32560
C4 C 0.68857(17) 0.5142(4) 0.37859(13)
C5 C 0.36536(18) 0.2430(5) 0.18064(15)
C6 C 0.47716(17) 0.4609(5) 0.25841(15)
H3 H 0.51680 0.59120 0.26360
C7 C 0.58805(16) 0.5451(4) 0.40040(14)
H4 H 0.58740 0.58610 0.45300
H5 H 0.56170 0.67860 0.37260
C8 C 0.35740(19) 0.0864(5) 0.24058(15)
H6 H 0.31670 -0.04200 0.23620
N2 N 0.31582(18) 0.2101(5) 0.11427(14)
C9 C 0.40861(19) 0.1182(5) 0.30614(15)
H7 H 0.40150 0.00890 0.34460
C10 C 0.42707(19) 0.4300(6) 0.19140(16)
H8 H 0.43520 0.53800 0.15280
C11 C 0.8116(2) 0.3025(6) 0.31986(17)
H9 H 0.83100 0.17110 0.29280
C12 C 0.7527(2) 0.6864(5) 0.39853(15)
H10 H 0.73370 0.81840 0.42550
C13 C 0.8449(2) 0.6674(6) 0.37926(18)
H11 H 0.88710 0.78630 0.39310
C14 C 0.3369(3) 0.3454(7) 0.04918(18)
H12 H 0.32290 0.51020 0.05760
H13 H 0.30010 0.28810 0.00720
H14 H 0.40180 0.32860 0.03900
C15 C 0.2476(3) 0.0246(7) 0.10756(18)
H15 H 0.27830 -0.12740 0.10860
H16 H 0.21280 0.04220 0.06120
H17 H 0.20610 0.03460 0.14840
C16 C 0.8741(2) 0.4745(6) 0.34003(18)
H18 H 0.93610 0.46090 0.32720
#END
