
#######################################################################
#
#                 Cambridge Crystallographic Data Centre
#                                CCDC
#
#######################################################################
#
# If this CIF has been generated from an entry in the Cambridge
# Structural Database, then it will include bibliographic, chemical,
# crystal, experimental, refinement or atomic coordinate data resulting
# from the CCDC's data processing and validation procedures.
#
#######################################################################

data_CSD_CIF_TEHKIC
_audit_creation_date 2012-11-07
_audit_creation_method CSD-ConQuest-V1
_database_code_CSD TEHKIC
_database_code_depnum_ccdc_archive 'CCDC 865883'
_chemical_formula_sum 'C14 H11 N3 O6'
_chemical_formula_moiety
;
C14 H11 N3 O6
;
_journal_coden_Cambridge 580
_journal_volume 43
_journal_year 2012
_journal_page_first 194
_journal_name_full 'Polyhedron '
loop_
_publ_author_name
"M.Rodriguez"
"J.L.Maldonado"
"G.Ramos-Ortiz"
"O.Dominguez"
"Ma.E.Ochoa"
"R.Santillan"
"N.Farfan"
"M.A.Meneses-Nava"
"O.Barbosa-Garcia"
_chemical_name_systematic
;
2-(((3,5-Dinitrophenyl)imino)methyl)-5-methoxyphenol
;
_cell_volume   1404.625
_exptl_crystal_colour 'yellow'
_exptl_crystal_density_diffrn 1.5
_exptl_crystal_description 'prism'
_diffrn_ambient_temperature 293
#These two values have been output from a single CSD field.
_refine_ls_R_factor_gt 0.0508
_refine_ls_wR_factor_gt 0.0508
_symmetry_cell_setting monoclinic
_symmetry_space_group_name_H-M 'P 21/c'
_symmetry_Int_Tables_number 14
loop_
_symmetry_equiv_pos_site_id
_symmetry_equiv_pos_as_xyz
1 x,y,z
2 -x,1/2+y,1/2-z
3 -x,-y,-z
4 x,-1/2-y,-1/2+z
_cell_length_a 15.6324(6)
_cell_length_b 6.9274(3)
_cell_length_c 14.2773(5)
_cell_angle_alpha 90
_cell_angle_beta 114.703(3)
_cell_angle_gamma 90
_cell_formula_units_Z 4
loop_
_atom_type_symbol
_atom_type_radius_bond
C 0.68
H 0.23
N 0.68
O 0.68
loop_
_atom_site_label
_atom_site_type_symbol
_atom_site_fract_x
_atom_site_fract_y
_atom_site_fract_z
C1 C -0.10816(13) 0.5255(3) 0.33562(18)
C2 C -0.19884(13) 0.4774(3) 0.32189(17)
H1 H -0.24560 0.57120 0.30280
C3 C -0.21882(13) 0.2892(3) 0.33687(16)
C4 C -0.14886(14) 0.1475(3) 0.36691(17)
H2 H -0.16300 0.02030 0.37600
C5 C -0.05975(14) 0.1980(3) 0.38274(17)
H3 H -0.01300 0.10410 0.40460
C6 C -0.03595(12) 0.3870(3) 0.36730(17)
C7 C 0.05894(14) 0.4374(3) 0.38531(17)
H4 H 0.10520 0.34250 0.40800
C8 C 0.17615(13) 0.6538(3) 0.39244(16)
C9 C 0.23603(13) 0.5292(3) 0.37110(16)
H5 H 0.21450 0.41010 0.34010
C10 C 0.32744(13) 0.5860(3) 0.39682(17)
C11 C 0.36423(14) 0.7582(3) 0.44441(18)
H6 H 0.42690 0.79150 0.46310
C12 C 0.30272(14) 0.8785(3) 0.46272(17)
C13 C 0.20973(14) 0.8325(3) 0.43495(18)
H7 H 0.16960 0.92130 0.44470
C14 C -0.37995(14) 0.3670(4) 0.2987(2)
H8 H -0.36170 0.46030 0.35330
H9 H -0.43690 0.30410 0.29220
H10 H -0.39030 0.43070 0.23520
N1 N 0.08182(11) 0.6099(3) 0.37092(14)
N2 N 0.38893(13) 0.4561(3) 0.37062(16)
N3 N 0.33798(14) 1.0615(3) 0.51782(17)
O1 O -0.09188(12) 0.7101(2) 0.31698(15)
O2 O -0.30627(9) 0.2256(2) 0.32196(12)
O3 O 0.35916(13) 0.2962(3) 0.33802(18)
O4 O 0.46628(10) 0.5140(3) 0.38384(15)
O5 O 0.42273(12) 1.0873(3) 0.55656(18)
O6 O 0.28106(13) 1.1761(2) 0.52385(15)
H11 H -0.028(2) 0.721(4) 0.331(2)
#END
