
#######################################################################
#
#                 Cambridge Crystallographic Data Centre
#                                CCDC
#
#######################################################################
#
# If this CIF has been generated from an entry in the Cambridge
# Structural Database, then it will include bibliographic, chemical,
# crystal, experimental, refinement or atomic coordinate data resulting
# from the CCDC's data processing and validation procedures.
#
#######################################################################

data_CSD_CIF_TEKMIF
_audit_creation_date 1997-01-23
_audit_creation_method CSD-ConQuest-V1
_database_code_CSD TEKMIF
_database_code_depnum_ccdc_archive 'CCDC 127968'
_chemical_formula_sum 'C14 H12 N2 O3'
_chemical_formula_moiety
;
C14 H12 N2 O3
;
_journal_coeditor_code "IUCr AB1402"
_journal_coden_Cambridge 591
_journal_volume 52
_journal_year 1996
_journal_page_first 2548
_journal_name_full 'Acta Crystallogr.,Sect.C:Cryst.Struct.Commun. '
loop_
_publ_author_name
"W.Clegg"
"M.R.J.Elsegood"
"S.L.Heath"
"A.Houlton"
"M.A.Shipman"
_chemical_name_systematic
;
m-Nitro-N-(p-methoxybenzylidene)aniline
;
_chemical_melting_point 386
_cell_volume   1188.465
_exptl_crystal_colour 'pale yellow'
_exptl_crystal_density_diffrn 1.432
_exptl_special_details
;
Melting point range 386-387K

;
_diffrn_ambient_temperature 160
#These two values have been output from a single CSD field.
_refine_ls_R_factor_gt 0.0715
_refine_ls_wR_factor_gt 0.0715
_symmetry_cell_setting monoclinic
_symmetry_space_group_name_H-M 'P 21/n'
_symmetry_Int_Tables_number 14
loop_
_symmetry_equiv_pos_site_id
_symmetry_equiv_pos_as_xyz
1 x,y,z
2 1/2-x,1/2+y,1/2-z
3 -x,-y,-z
4 -1/2+x,-1/2-y,-1/2+z
_cell_length_a 16.535(5)
_cell_length_b 3.8939(10)
_cell_length_c 19.890(5)
_cell_angle_alpha 90
_cell_angle_beta 111.870(8)
_cell_angle_gamma 90
_cell_formula_units_Z 4
loop_
_atom_type_symbol
_atom_type_radius_bond
C 0.68
H 0.23
N 0.68
O 0.68
loop_
_atom_site_label
_atom_site_type_symbol
_atom_site_fract_x
_atom_site_fract_y
_atom_site_fract_z
N1 N 0.5973(2) 1.3155(11) 0.62649(19)
O1 O 0.5242(2) 1.3724(11) 0.58159(17)
O2 O 0.6184(2) 1.3895(12) 0.69040(17)
C1 C 0.6618(3) 1.1552(12) 0.6019(2)
C2 C 0.7425(3) 1.0697(12) 0.6539(2)
H1 H 0.75580 1.11240 0.70390
C3 C 0.8024(3) 0.9201(12) 0.6298(2)
H2 H 0.85800 0.85530 0.66380
C4 C 0.7826(3) 0.8632(12) 0.5564(2)
H3 H 0.82480 0.76060 0.54080
C5 C 0.7011(3) 0.9552(12) 0.5051(2)
C6 C 0.6396(3) 1.0994(12) 0.5287(2)
H4 H 0.58330 1.15860 0.49510
N2 N 0.6874(2) 0.885(1) 0.43142(19)
C7 C 0.6235(3) 1.0265(12) 0.3817(2)
H5 H 0.58680 1.17670 0.39510
C8 C 0.6045(3) 0.9668(11) 0.3048(2)
C9 C 0.6610(3) 0.7897(12) 0.2801(2)
H6 H 0.71260 0.69290 0.31450
C10 C 0.6443(3) 0.7504(12) 0.2073(2)
H7 H 0.68500 0.63620 0.19180
C11 C 0.5674(3) 0.8792(12) 0.1569(2)
C12 C 0.5088(3) 1.0535(12) 0.1800(2)
H8 H 0.45610 1.14140 0.14530
C13 C 0.5268(3) 1.0991(12) 0.2530(2)
H9 H 0.48690 1.21990 0.26840
O3 O 0.54291(19) 0.8528(9) 0.08336(15)
C14 C 0.6031(3) 0.6950(13) 0.0567(2)
H10 H 0.57990 0.70560 0.00370
H11 H 0.61180 0.45450 0.07230
H12 H 0.65900 0.81660 0.07590
#END
