
#######################################################################
#
#                 Cambridge Crystallographic Data Centre
#                                CCDC
#
#######################################################################
#
# If this CIF has been generated from an entry in the Cambridge
# Structural Database, then it will include bibliographic, chemical,
# crystal, experimental, refinement or atomic coordinate data resulting
# from the CCDC's data processing and validation procedures.
#
#######################################################################

data_CSD_CIF_TELNED
_audit_creation_date 1996-12-16
_audit_creation_method CSD-ConQuest-V1
_database_code_CSD TELNED
_database_code_depnum_ccdc_archive 'CCDC 128141'
_chemical_formula_sum 'C16 H13 N1 O4'
_chemical_formula_moiety
;
C16 H13 N1 O4
;
_journal_coeditor_code "IUCr KA1206"
_journal_coden_Cambridge 591
_journal_volume 52
_journal_year 1996
_journal_page_first 2807
_journal_name_full 'Acta Crystallogr.,Sect.C:Cryst.Struct.Commun. '
loop_
_publ_author_name
"M.Bolte"
"G.Schutz"
"H.J.Bader"
_chemical_name_systematic
;
3-(4-Nitrophenyl)-2-methoxy-1-phenyl-prop-2-en-1-one
;
_chemical_melting_point 357
_cell_volume   2852.996
_exptl_crystal_colour 'yellow'
_exptl_crystal_density_diffrn 1.319
_diffrn_ambient_temperature ?
_diffrn_special_details
;
The study was carried out at room temperature,in the range 283-303K

;
#These two values have been output from a single CSD field.
_refine_ls_R_factor_gt 0.0575
_refine_ls_wR_factor_gt 0.0575
_symmetry_cell_setting orthorhombic
_symmetry_space_group_name_H-M 'P b c a'
_symmetry_Int_Tables_number 61
loop_
_symmetry_equiv_pos_site_id
_symmetry_equiv_pos_as_xyz
1 x,y,z
2 1/2-x,-y,1/2+z
3 1/2+x,1/2-y,-z
4 -x,1/2+y,1/2-z
5 -x,-y,-z
6 -1/2+x,y,-1/2-z
7 -1/2-x,-1/2+y,z
8 x,-1/2-y,-1/2+z
_cell_length_a 14.140(5)
_cell_length_b 8.028(2)
_cell_length_c 25.133(4)
_cell_angle_alpha 90
_cell_angle_beta 90
_cell_angle_gamma 90
_cell_formula_units_Z 8
loop_
_atom_type_symbol
_atom_type_radius_bond
C 0.68
H 0.23
N 0.68
O 0.68
loop_
_atom_site_label
_atom_site_type_symbol
_atom_site_fract_x
_atom_site_fract_y
_atom_site_fract_z
C1 C 0.31538(17) 0.2612(3) 0.61596(11)
H1 H 0.36330 0.20890 0.63500
C2 C 0.34203(17) 0.3262(3) 0.56947(11)
C3 C 0.43554(18) 0.2764(3) 0.54627(12)
C4 C 0.22293(16) 0.2594(3) 0.64149(10)
C5 C 0.14159(18) 0.3290(3) 0.62005(12)
H2 H 0.14470 0.38180 0.58720
C6 C 0.05616(18) 0.3216(3) 0.64645(13)
H3 H 0.00220 0.36950 0.63190
C7 C 0.05257(16) 0.2414(3) 0.69501(12)
N1 N -0.03777(17) 0.2319(4) 0.72313(13)
O1 O -0.10574(17) 0.3031(4) 0.70451(12)
O2 O -0.04179(17) 0.1470(5) 0.76369(12)
C8 C 0.13039(19) 0.1671(4) 0.71681(12)
H4 H 0.12610 0.11020 0.74890
C9 C 0.21538(18) 0.1783(3) 0.69023(11)
H5 H 0.26900 0.13040 0.70520
O3 O 0.28065(12) 0.4115(2) 0.53837(8)
C10 C 0.3191(2) 0.5372(4) 0.50407(12)
H6 H 0.26890 0.58860 0.48430
H7 H 0.36330 0.48730 0.47990
H8 H 0.35080 0.62000 0.52510
O4 O 0.44021(15) 0.2432(3) 0.49897(10)
C11 C 0.51935(17) 0.2604(3) 0.58123(11)
C12 C 0.5357(2) 0.3673(4) 0.62295(12)
H9 H 0.49090 0.44810 0.63130
C13 C 0.6169(2) 0.3566(4) 0.65237(15)
H10 H 0.62840 0.43230 0.67960
C14 C 0.6806(2) 0.2347(6) 0.64154(16)
H11 H 0.73550 0.22620 0.66180
C15 C 0.6646(2) 0.1239(5) 0.60093(17)
H12 H 0.70810 0.03970 0.59410
C16 C 0.5848(2) 0.1372(4) 0.57038(13)
H13 H 0.57460 0.06340 0.54240
#END
