
#######################################################################
#
#                 Cambridge Crystallographic Data Centre
#                                CCDC
#
#######################################################################
#
# If this CIF has been generated from an entry in the Cambridge
# Structural Database, then it will include bibliographic, chemical,
# crystal, experimental, refinement or atomic coordinate data resulting
# from the CCDC's data processing and validation procedures.
#
#######################################################################

data_CSD_CIF_TENTOY
_audit_creation_date 2017-12-11
_audit_creation_method CSD-ConQuest-V1
_database_code_CSD TENTOY
_database_code_depnum_ccdc_archive 'CCDC 1565546'
_chemical_formula_sum 'C4 H2 N6 O3'
_chemical_formula_moiety
;
C4 H2 N6 O3
;
_journal_coden_Cambridge 1220
_journal_volume 23
_journal_year 2017
_journal_page_first 15022
_journal_name_full 'Chem.-Eur.J. '
loop_
_publ_author_name
"Yongxing Tang"
"Chunlin He"
"G.H.Imler"
"D.A.Parrish"
"J.M.Shreeve"
_chemical_name_systematic
;
7-nitro[1,2,5]oxadiazolo[3,4-c]pyridazin-6-amine
;
_cell_volume    663.747
_exptl_crystal_colour 'red'
_exptl_crystal_density_diffrn 1.822
_exptl_crystal_description 'needle'
_diffrn_ambient_temperature 150
#These two values have been output from a single CSD field.
_refine_ls_R_factor_gt 0.0291
_refine_ls_wR_factor_gt 0.0291
_symmetry_cell_setting monoclinic
_symmetry_space_group_name_H-M 'C c'
_symmetry_Int_Tables_number 9
loop_
_symmetry_equiv_pos_site_id
_symmetry_equiv_pos_as_xyz
1 x,y,z
2 x,-y,1/2+z
3 1/2+x,1/2+y,z
4 1/2+x,1/2-y,1/2+z
_cell_length_a 13.4067(9)
_cell_length_b 5.3751(3)
_cell_length_c 9.2125(6)
_cell_angle_alpha 90
_cell_angle_beta 91.121(2)
_cell_angle_gamma 90
_cell_formula_units_Z 4
loop_
_atom_type_symbol
_atom_type_radius_bond
C 0.68
H 0.23
N 0.68
O 0.68
loop_
_atom_site_label
_atom_site_type_symbol
_atom_site_fract_x
_atom_site_fract_y
_atom_site_fract_z
O1 O 0.55122(13) 0.6323(3) 0.36683(17)
O2 O 0.39274(12) 0.5879(3) 0.31999(16)
N1 N 0.47151(13) 0.5187(3) 0.37892(18)
C1 C 0.47187(15) 0.3017(4) 0.4660(2)
C2 C 0.38718(15) 0.1567(4) 0.4882(2)
N2 N 0.29773(14) 0.1885(3) 0.4300(2)
H1 H 0.28650 0.31280 0.36960
H2 H 0.24910 0.08560 0.45140
N3 N 0.38898(12) -0.0570(3) 0.58209(19)
N4 N 0.46846(13) -0.1322(3) 0.64518(19)
C3 C 0.55434(15) 0.0010(4) 0.6221(2)
N5 N 0.64165(14) -0.0556(4) 0.6805(2)
O3 O 0.70344(12) 0.1246(3) 0.63196(19)
N6 N 0.65402(14) 0.2986(3) 0.5406(2)
C4 C 0.56101(15) 0.2197(4) 0.5363(2)
#END
