
#######################################################################
#
#                 Cambridge Crystallographic Data Centre
#                                CCDC
#
#######################################################################
#
# If this CIF has been generated from an entry in the Cambridge
# Structural Database, then it will include bibliographic, chemical,
# crystal, experimental, refinement or atomic coordinate data resulting
# from the CCDC's data processing and validation procedures.
#
#######################################################################

data_CSD_CIF_TIBGET
_audit_creation_date 2018-05-05
_audit_creation_method CSD-ConQuest-V1
_database_code_CSD TIBGET
_database_code_depnum_ccdc_archive 'CCDC 1585273'
_chemical_formula_sum 'C15 H11 N3 O4'
_chemical_formula_moiety
;
C15 H11 N3 O4
;
_journal_coeditor_code "zp4015"
_journal_coden_Cambridge 1959
_journal_volume 3
_journal_year 2018
_journal_page_first x180664
_journal_name_full 'IUCrData '
loop_
_publ_author_name
"Y.AaminaNaaz"
"J.Kamalraja"
"P.T.Perumal"
"A.SubbiahPandi"
_chemical_name_systematic
;
5'-nitro-1,4-dihydrospiro[3,1-benzoxazine-2,3'-indol]-2'(1'H)-one
;
_cell_volume   1302.979
_exptl_crystal_colour 'colorless'
_exptl_crystal_density_diffrn 1.515
_exptl_crystal_description 'block'
_diffrn_ambient_temperature 293
#These two values have been output from a single CSD field.
_refine_ls_R_factor_gt 0.0423
_refine_ls_wR_factor_gt 0.0423
_symmetry_cell_setting monoclinic
_symmetry_space_group_name_H-M 'P 21/c'
_symmetry_Int_Tables_number 14
loop_
_symmetry_equiv_pos_site_id
_symmetry_equiv_pos_as_xyz
1 x,y,z
2 -x,1/2+y,1/2-z
3 -x,-y,-z
4 x,-1/2-y,-1/2+z
_cell_length_a 12.8698(6)
_cell_length_b 8.1365(3)
_cell_length_c 13.0309(6)
_cell_angle_alpha 90
_cell_angle_beta 107.275(5)
_cell_angle_gamma 90
_cell_formula_units_Z 4
loop_
_atom_type_symbol
_atom_type_radius_bond
C 0.68
H 0.23
N 0.68
O 0.68
loop_
_atom_site_label
_atom_site_type_symbol
_atom_site_fract_x
_atom_site_fract_y
_atom_site_fract_z
C1 C 0.50260(15) 0.1988(2) 0.59411(14)
C2 C 0.31973(15) 0.2340(2) 0.56038(14)
C3 C 0.20908(16) 0.2224(2) 0.51299(16)
H1 H 0.18020 0.15870 0.45190
C4 C 0.14245(16) 0.3091(3) 0.55982(17)
H2 H 0.06730 0.30550 0.52950
C5 C 0.18727(15) 0.4006(2) 0.65135(15)
C6 C 0.29914(15) 0.4182(2) 0.69722(14)
H3 H 0.32800 0.48260 0.75800
C7 C 0.36486(14) 0.3360(2) 0.64857(14)
C8 C 0.48666(14) 0.3376(2) 0.67193(14)
C9 C 0.63047(15) 0.5016(2) 0.64088(15)
H4 H 0.64880 0.61560 0.63320
H5 H 0.64270 0.44050 0.58160
C10 C 0.70370(15) 0.4361(2) 0.74414(14)
C11 C 0.81548(16) 0.4608(2) 0.77324(17)
H6 H 0.84550 0.51760 0.72700
C12 C 0.88258(17) 0.4028(3) 0.86935(19)
H7 H 0.95740 0.41910 0.88750
C13 C 0.83782(16) 0.3201(3) 0.93859(18)
H8 H 0.88250 0.28360 1.00460
C14 C 0.72727(16) 0.2913(2) 0.91047(15)
H9 H 0.69780 0.23510 0.95740
C15 C 0.65979(14) 0.3459(2) 0.81216(14)
O1 O 0.15323(14) 0.5344(2) 0.79367(14)
O2 O 0.01794(13) 0.4940(3) 0.65155(16)
O3 O 0.58905(11) 0.14139(15) 0.59145(10)
O4 O 0.51663(10) 0.49075(14) 0.63476(10)
N1 N 0.11430(14) 0.4820(2) 0.70211(16)
N2 N 0.40246(13) 0.15524(18) 0.52997(12)
H10 H 0.39140 0.08750 0.47720
N3 N 0.54687(11) 0.31629(18) 0.78242(11)
H11 H 0.51540 0.28650 0.82910
#END
