
#######################################################################
#
#                 Cambridge Crystallographic Data Centre
#                                CCDC
#
#######################################################################
#
# If this CIF has been generated from an entry in the Cambridge
# Structural Database, then it will include bibliographic, chemical,
# crystal, experimental, refinement or atomic coordinate data resulting
# from the CCDC's data processing and validation procedures.
#
#######################################################################

data_CSD_CIF_TIBKIY
_audit_creation_date 1997-03-12
_audit_creation_method CSD-ConQuest-V1
_database_code_CSD TIBKIY
_chemical_formula_sum 'C15 H16 N2 O6'
_chemical_formula_moiety
;
C15 H16 N2 O6
;
_journal_coden_Cambridge 95
_journal_year 1996
_journal_page_first 1222
_journal_name_full 'Izv.Akad.Nauk SSSR,Ser.Khim.(Russ.)(Russ.Chem.Bull.) '
loop_
_publ_author_name
"L.Yu.Ukhin"
"Zh.I.Orlova"
"O.V.Shishkin"
"Yu.T.Struchkov"
_chemical_name_systematic
;
2-Methoxycarbonylmethyl-3-morpholino-5-nitrobenzofuran
;
_chemical_melting_point 390
_cell_volume   1511.636
_exptl_crystal_colour 'yellow'
_exptl_crystal_density_diffrn 1.407
_exptl_special_details
;
Melting point range 390-391K

;
_diffrn_ambient_temperature ?
_diffrn_special_details
;
The study was carried out at room temperature,in the range 283-303K

;
#These two values have been output from a single CSD field.
_refine_ls_R_factor_gt 0.041
_refine_ls_wR_factor_gt 0.041
_symmetry_cell_setting monoclinic
_symmetry_space_group_name_H-M 'P 21/c'
_symmetry_Int_Tables_number 14
loop_
_symmetry_equiv_pos_site_id
_symmetry_equiv_pos_as_xyz
1 x,y,z
2 -x,1/2+y,1/2-z
3 -x,-y,-z
4 x,-1/2-y,-1/2+z
_cell_length_a 10.397(4)
_cell_length_b 9.321(4)
_cell_length_c 15.599(9)
_cell_angle_alpha 90
_cell_angle_beta 90.55
_cell_angle_gamma 90
_cell_formula_units_Z 4
loop_
_atom_type_symbol
_atom_type_radius_bond
C 0.68
H 0.23
N 0.68
O 0.68
loop_
_atom_site_label
_atom_site_type_symbol
_atom_site_fract_x
_atom_site_fract_y
_atom_site_fract_z
N1 N -0.37265(19) -0.05160(22) 0.35452(14)
N2 N 0.13880(16) 0.04629(19) 0.26555(11)
O1 O 0.06915(15) 0.21119(17) 0.4726(1)
O2 O -0.36933(18) -0.11274(24) 0.28545(13)
O3 O -0.46890(19) -0.05268(27) 0.39878(14)
O4 O 0.19725(16) 0.48376(19) 0.38485(12)
O5 O 0.40671(15) 0.45483(17) 0.41448(11)
O6 O 0.25005(18) -0.02610(24) 0.10720(12)
C1 C -0.14719(20) 0.01688(22) 0.33692(14)
H1 H -0.1480(24) -0.0300(25) 0.2816(17)
C2 C -0.25723(20) 0.02010(24) 0.38658(14)
C3 C -0.26344(25) 0.08904(25) 0.46614(15)
H2 H -0.3432(26) 0.0886(26) 0.4967(15)
C4 C -0.15642(24) 0.15636(27) 0.49946(16)
H3 H -0.1560(22) 0.2034(26) 0.5523(17)
C5 C -0.04665(22) 0.15260(23) 0.45027(14)
C6 C 0.15212(20) 0.18518(25) 0.40362(14)
C7 C 0.09202(20) 0.10819(23) 0.34146(13)
C8 C -0.03892(20) 0.08624(22) 0.37042(13)
C9 C 0.28203(24) 0.24833(27) 0.41685(19)
H4 H 0.3408(24) 0.2029(28) 0.3816(15)
H5 H 0.3124(24) 0.2304(25) 0.4761(17)
C10 C 0.28642(21) 0.40837(26) 0.40326(13)
C11 C 0.42680(33) 0.60718(33) 0.40582(26)
H6 H 0.3816(29) 0.6554(33) 0.4574(21)
H7 H 0.3981(24) 0.6379(27) 0.3514(17)
H8 H 0.5231(27) 0.6210(26) 0.4069(14)
C12 C 0.27556(24) 0.01341(32) 0.25967(18)
H9 H 0.3046(23) -0.0410(25) 0.3125(16)
H10 H 0.3310(24) 0.1097(27) 0.2497(14)
C13 C 0.29567(28) -0.08726(35) 0.18530(19)
H11 H 0.3844(26) -0.1074(26) 0.1794(14)
H12 H 0.2522(24) -0.1824(28) 0.2005(15)
C14 C 0.08834(26) 0.10679(27) 0.18503(14)
H13 H 0.1290(24) 0.1965(27) 0.1754(14)
H14 H -0.0024(27) 0.1221(25) 0.1908(15)
C15 C 0.11560(27) 0.00548(35) 0.11273(18)
H15 H 0.0845(24) 0.0430(25) 0.0588(17)
H16 H 0.0710(25) -0.0933(29) 0.1239(15)
#END
