
#######################################################################
#
#                 Cambridge Crystallographic Data Centre
#                                CCDC
#
#######################################################################
#
# If this CIF has been generated from an entry in the Cambridge
# Structural Database, then it will include bibliographic, chemical,
# crystal, experimental, refinement or atomic coordinate data resulting
# from the CCDC's data processing and validation procedures.
#
#######################################################################

data_CSD_CIF_TIHBES01
_audit_creation_date 2012-03-05
_audit_creation_method CSD-ConQuest-V1
_database_code_CSD TIHBES01
_database_code_depnum_ccdc_archive 'CCDC 775006'
_chemical_formula_sum 'C16 H14 N4 O4'
_chemical_formula_moiety
;
C16 H14 N4 O4
;
_journal_coden_Cambridge 527
_journal_volume 21
_journal_year 2010
_journal_page_first 10-5
_journal_name_full 'Huaxue Yanjiu(Chin.)(Chem.Res.) '
loop_
_publ_author_name
"Ya-ning Guo"
_chemical_name_systematic
;
1,5-Dimethyl-4-(((5-nitro-2-furyl)methylene)amino)-2-phenyl-1,2-dihydro-3H-pyr
azol-3-one
;
_cell_volume   1525.127
_exptl_crystal_colour 'yellow'
_exptl_crystal_density_diffrn 1.421
_exptl_crystal_description 'block'
_diffrn_ambient_temperature 298
#These two values have been output from a single CSD field.
_refine_ls_R_factor_gt 0.0417
_refine_ls_wR_factor_gt 0.0417
_symmetry_cell_setting monoclinic
_symmetry_space_group_name_H-M 'P 21/n'
_symmetry_Int_Tables_number 14
loop_
_symmetry_equiv_pos_site_id
_symmetry_equiv_pos_as_xyz
1 x,y,z
2 1/2-x,1/2+y,1/2-z
3 -x,-y,-z
4 -1/2+x,-1/2-y,-1/2+z
_cell_length_a 7.0411(6)
_cell_length_b 7.7804(9)
_cell_length_c 27.858(2)
_cell_angle_alpha 90
_cell_angle_beta 92.080(1)
_cell_angle_gamma 90
_cell_formula_units_Z 4
loop_
_atom_type_symbol
_atom_type_radius_bond
C 0.68
H 0.23
N 0.68
O 0.68
loop_
_atom_site_label
_atom_site_type_symbol
_atom_site_fract_x
_atom_site_fract_y
_atom_site_fract_z
N1 N 0.4519(2) 0.8044(2) 0.35275(6)
N2 N 0.4133(2) 0.9715(2) 0.36927(6)
N3 N 0.2856(2) 0.7365(2) 0.47228(6)
N4 N 0.1096(3) 0.1754(3) 0.60085(8)
O1 O 0.3978(2) 0.52811(19) 0.38076(5)
O2 O 0.20650(19) 0.35629(17) 0.53918(5)
O3 O 0.1505(3) 0.0529(2) 0.57564(7)
O4 O 0.0483(3) 0.1632(2) 0.64173(7)
C1 C 0.3992(3) 0.6850(3) 0.38734(7)
C2 C 0.3471(3) 0.7876(3) 0.42783(7)
C3 C 0.3623(3) 0.9576(3) 0.41547(7)
C4 C 0.3328(4) 1.1113(3) 0.44588(8)
H1 H 0.25830 1.08020 0.47270
H2 H 0.26740 1.19820 0.42730
H3 H 0.45370 1.15490 0.45730
C5 C 0.5215(3) 1.1149(3) 0.35013(8)
H4 H 0.47860 1.22060 0.36380
H5 H 0.50280 1.11890 0.31580
H6 H 0.65410 1.09920 0.35820
C6 C 0.4629(3) 0.7706(3) 0.30255(7)
C7 C 0.3531(3) 0.8603(3) 0.26923(8)
H7 H 0.26730 0.94280 0.27920
C8 C 0.3715(3) 0.8268(3) 0.22078(8)
H8 H 0.30110 0.88990 0.19800
C9 C 0.4927(4) 0.7015(3) 0.20629(9)
H9 H 0.50390 0.67890 0.17370
C10 C 0.5981(3) 0.6085(3) 0.23973(8)
H10 H 0.67770 0.52110 0.22980
C11 C 0.5860(3) 0.6447(3) 0.28815(8)
H11 H 0.66030 0.58460 0.31080
C12 C 0.2808(3) 0.5765(3) 0.48339(7)
H12 H 0.32200 0.49320 0.46220
C13 C 0.2103(3) 0.5292(3) 0.52928(7)
C14 C 0.1389(3) 0.6181(3) 0.56675(7)
H13 H 0.12600 0.73670 0.56900
C15 C 0.0886(3) 0.4975(3) 0.60125(8)
H14 H 0.03590 0.51930 0.63080
C16 C 0.1322(3) 0.3436(3) 0.58288(7)
#END
