
#######################################################################
#
#                 Cambridge Crystallographic Data Centre
#                                CCDC
#
#######################################################################
#
# If this CIF has been generated from an entry in the Cambridge
# Structural Database, then it will include bibliographic, chemical,
# crystal, experimental, refinement or atomic coordinate data resulting
# from the CCDC's data processing and validation procedures.
#
#######################################################################

data_CSD_CIF_TIJROU
_audit_creation_date 2008-01-10
_audit_creation_method CSD-ConQuest-V1
_database_code_CSD TIJROU
_database_code_depnum_ccdc_archive 'CCDC 633708'
_chemical_formula_sum 'C11 H11 N3 O4'
_chemical_formula_moiety
;
C11 H11 N3 O4
;
_journal_coden_Cambridge 1137
_journal_volume 20
_journal_year 2007
_journal_page_first 716
_journal_name_full 'J.Phys.Org.Chem. '
loop_
_publ_author_name
"J.Marten"
"W.Seichter"
"E.Weber"
"U.Bohme"
_chemical_name_systematic
;
3-(2-Nitrophenylhydrazono)pentane-2,4-dione
;
_chemical_melting_point 410.15
_cell_volume    573.636
_exptl_crystal_colour 'yellow'
_exptl_crystal_density_diffrn 1.443
_exptl_crystal_description 'irregular'
_diffrn_ambient_temperature 296
#These two values have been output from a single CSD field.
_refine_ls_R_factor_gt 0.0458
_refine_ls_wR_factor_gt 0.0458
_symmetry_cell_setting triclinic
_symmetry_space_group_name_H-M 'P -1'
_symmetry_Int_Tables_number 2
loop_
_symmetry_equiv_pos_site_id
_symmetry_equiv_pos_as_xyz
1 x,y,z
2 -x,-y,-z
_cell_length_a 7.2182(1)
_cell_length_b 8.2163(2)
_cell_length_c 11.4241(2)
_cell_angle_alpha 70.059(1)
_cell_angle_beta 87.663(1)
_cell_angle_gamma 65.129(1)
_cell_formula_units_Z 2
loop_
_atom_type_symbol
_atom_type_radius_bond
C 0.68
H 0.23
N 0.68
O 0.68
loop_
_atom_site_label
_atom_site_type_symbol
_atom_site_fract_x
_atom_site_fract_y
_atom_site_fract_z
O1 O 0.26936(11) 1.10196(9) 0.15893(7)
O2 O 0.22047(19) 0.73280(16) 0.50226(8)
O3 O 0.26055(14) 1.13084(10) -0.11683(8)
O4 O 0.26129(13) 1.12258(11) -0.30158(7)
N1 N 0.2430(1) 0.75601(9) 0.19499(6)
N2 N 0.24918(10) 0.85248(9) 0.07764(6)
H1 H 0.2542(16) 0.9532(18) 0.0541(12)
N3 N 0.25997(11) 1.05038(10) -0.18903(7)
C1 C 0.2669(2) 1.06659(19) 0.37241(12)
H2 H 0.28280 1.18370 0.34230
H3 H 0.38090 0.96910 0.43400
H4 H 0.14120 1.08790 0.40970
C2 C 0.26073(12) 1.00289(13) 0.26552(8)
C3 C 0.24648(11) 0.82061(11) 0.28501(7)
C4 C 0.23381(15) 0.69037(14) 0.40956(8)
C5 C 0.23760(19) 0.50253(15) 0.41793(10)
H5 H 0.24220 0.42760 0.50410
H6 H 0.35710 0.43360 0.38430
H7 H 0.11600 0.52630 0.37070
C6 C 0.24611(10) 0.77343(10) -0.01249(6)
C7 C 0.23382(12) 0.59831(11) 0.02271(7)
H8 H 0.22380 0.53670 0.10610
C8 C 0.23638(13) 0.51513(12) -0.06419(8)
H9 H 0.22870 0.39810 -0.03860
C9 C 0.25034(14) 0.60417(14) -0.18968(9)
H10 H 0.25370 0.54640 -0.24750
C10 C 0.25915(13) 0.77784(13) -0.22748(8)
H11 H 0.26710 0.83880 -0.31140
C11 C 0.25616(11) 0.86327(10) -0.14008(7)
#END
