
#######################################################################
#
#                 Cambridge Crystallographic Data Centre
#                                CCDC
#
#######################################################################
#
# If this CIF has been generated from an entry in the Cambridge
# Structural Database, then it will include bibliographic, chemical,
# crystal, experimental, refinement or atomic coordinate data resulting
# from the CCDC's data processing and validation procedures.
#
#######################################################################

data_CSD_CIF_TIPHIL
_audit_creation_date 2013-10-10
_audit_creation_method CSD-ConQuest-V1
_database_code_CSD TIPHIL
_database_code_depnum_ccdc_archive 'CCDC 921935'
_chemical_formula_sum 'C7 H4 N2 O6'
_chemical_formula_moiety
;
C7 H4 N2 O6
;
_journal_coden_Cambridge 643
_journal_volume 228
_journal_year 2013
_journal_page_first 295
_journal_name_full 'Z.Krist.Cryst.Mater. '
loop_
_publ_author_name
"H.D.Arman"
"T.Miller"
"P.Poplaukhin"
"E.R.T.Tiekink"
_chemical_name_systematic
;
2,6-Dinitrobenzoic acid
;
_cell_volume    815.618
_exptl_crystal_colour 'colorless'
_exptl_crystal_density_diffrn 1.727
_exptl_crystal_description 'prism'
_diffrn_ambient_temperature 98
#These two values have been output from a single CSD field.
_refine_ls_R_factor_gt 0.0349
_refine_ls_wR_factor_gt 0.0349
_symmetry_cell_setting orthorhombic
_symmetry_space_group_name_H-M 'P 21 21 21'
_symmetry_Int_Tables_number 19
loop_
_symmetry_equiv_pos_site_id
_symmetry_equiv_pos_as_xyz
1 x,y,z
2 1/2-x,-y,1/2+z
3 -x,1/2+y,1/2-z
4 1/2+x,1/2-y,-z
_cell_length_a 4.8347(12)
_cell_length_b 12.142(3)
_cell_length_c 13.894(4)
_cell_angle_alpha 90
_cell_angle_beta 90
_cell_angle_gamma 90
_cell_formula_units_Z 4
loop_
_atom_type_symbol
_atom_type_radius_bond
C 0.68
H 0.23
N 0.68
O 0.68
loop_
_atom_site_label
_atom_site_type_symbol
_atom_site_fract_x
_atom_site_fract_y
_atom_site_fract_z
O1 O 0.5718(4) 0.65804(13) 0.08732(12)
H1 H 0.611(6) 0.689(2) 0.0352(11)
O2 O 0.1846(4) 0.76186(13) 0.08375(12)
O3 O 0.0760(4) 0.52945(14) 0.05550(12)
O4 O -0.2178(4) 0.43319(15) 0.13715(14)
O5 O 0.6060(4) 0.81889(15) 0.23164(13)
O6 O 0.6868(5) 0.78232(15) 0.38172(14)
N1 N -0.0324(4) 0.50222(16) 0.13145(15)
N2 N 0.5629(5) 0.76688(16) 0.30597(15)
C1 C 0.2546(5) 0.64097(18) 0.21531(16)
C2 C 0.0636(5) 0.55485(19) 0.22093(17)
C3 C -0.0356(5) 0.5130(2) 0.30698(18)
H2 H -0.16710 0.45490 0.30720
C4 C 0.0597(6) 0.5571(2) 0.39268(18)
H3 H -0.01120 0.53110 0.45220
C5 C 0.2586(5) 0.6393(2) 0.39148(18)
H4 H 0.33110 0.66760 0.45000
C6 C 0.3507(5) 0.67964(18) 0.30367(17)
C7 C 0.3347(5) 0.69330(18) 0.12052(17)
#END
