
#######################################################################
#
#                 Cambridge Crystallographic Data Centre
#                                CCDC
#
#######################################################################
#
# If this CIF has been generated from an entry in the Cambridge
# Structural Database, then it will include bibliographic, chemical,
# crystal, experimental, refinement or atomic coordinate data resulting
# from the CCDC's data processing and validation procedures.
#
#######################################################################

data_CSD_CIF_TISMUE
_audit_creation_date 2008-03-24
_audit_creation_method CSD-ConQuest-V1
_database_code_CSD TISMUE
_database_code_depnum_ccdc_archive 'CCDC 640786'
_chemical_formula_sum 'C19 H24 N2 O1'
_chemical_formula_moiety
;
C19 H24 N2 O1
;
_journal_coden_Cambridge 16
_journal_volume 63
_journal_year 2007
_journal_page_first 12896
_journal_name_full 'Tetrahedron '
loop_
_publ_author_name
"M.Fabio"
"L.Ronzini"
"L.Troisi"
_chemical_name_systematic
;
2-t-Butyl-3-(pyridin-2-yl)-5-p-tolylisoxazolidine
;
_chemical_melting_point 341.15
_cell_volume    885.092
_exptl_crystal_colour 'colorless'
_exptl_crystal_density_diffrn 1.112
_exptl_special_details
;
Melting point range 341.15-342.15K

;
_exptl_crystal_description 'wedge'
_diffrn_ambient_temperature 295
#These two values have been output from a single CSD field.
_refine_ls_R_factor_gt 0.048
_refine_ls_wR_factor_gt 0.048
_symmetry_cell_setting triclinic
_symmetry_space_group_name_H-M 'P -1'
_symmetry_Int_Tables_number 2
loop_
_symmetry_equiv_pos_site_id
_symmetry_equiv_pos_as_xyz
1 x,y,z
2 -x,-y,-z
_cell_length_a 8.0826(8)
_cell_length_b 10.3580(11)
_cell_length_c 11.3458(11)
_cell_angle_alpha 70.012(1)
_cell_angle_beta 85.903(2)
_cell_angle_gamma 82.743(2)
_cell_formula_units_Z 2
loop_
_atom_type_symbol
_atom_type_radius_bond
C 0.68
H 0.23
N 0.68
O 0.68
loop_
_atom_site_label
_atom_site_type_symbol
_atom_site_fract_x
_atom_site_fract_y
_atom_site_fract_z
O1 O 0.42504(10) 0.74326(9) 0.32396(8)
N1 N 0.36712(11) 0.72262(10) 0.45423(9)
C1 C 0.46732(15) 0.80395(12) 0.50107(11)
H1 H 0.4073(16) 0.8926(14) 0.4972(12)
C2 C 0.61518(15) 0.83075(14) 0.40943(12)
H2 H 0.66110 0.91440 0.40530
H3 H 0.70220 0.75370 0.43220
C3 C 0.53974(16) 0.84631(14) 0.28748(12)
H4 H 0.4779(17) 0.9357(15) 0.2555(13)
C4 C 0.18305(15) 0.76361(14) 0.45260(13)
C5 C 0.12551(19) 0.74054(18) 0.58843(15)
H5 H 0.17240 0.80390 0.61830
H6 H 0.16190 0.64740 0.63920
H7 H 0.00600 0.75580 0.59330
C6 C 0.13271(19) 0.91240(18) 0.37238(16)
H8 H 0.16880 0.92610 0.28690
H9 H 0.18390 0.97320 0.40270
H10 H 0.01360 0.93200 0.37670
C7 C 0.10735(19) 0.6638(2) 0.4054(2)
H11 H 0.14320 0.67820 0.31980
H12 H -0.01210 0.67970 0.41060
H13 H 0.14330 0.57060 0.45620
C8 C 0.51976(15) 0.72643(12) 0.63350(11)
N2 N 0.53154(18) 0.80399(13) 0.70457(12)
C9 C 0.5853(3) 0.73899(18) 0.82035(16)
H14 H 0.59440 0.79200 0.87080
C10 C 0.6279(3) 0.6001(2) 0.86995(16)
H15 H 0.66460 0.55970 0.95160
C11 C 0.6149(2) 0.52148(17) 0.79598(15)
H16 H 0.64270 0.42630 0.82670
C12 C 0.56059(19) 0.58517(14) 0.67631(13)
H17 H 0.55130 0.53380 0.62450
C13 C 0.66234(16) 0.81943(13) 0.19023(12)
C14 C 0.74090(18) 0.68835(15) 0.20547(13)
H18 H 0.71120 0.61390 0.27380
C15 C 0.86303(19) 0.66668(17) 0.12043(14)
H19 H 0.91390 0.57760 0.13240
C16 C 0.9106(2) 0.7740(2) 0.01873(14)
C17 C 0.8320(2) 0.9039(2) 0.00328(15)
H20 H 0.86250 0.97820 -0.06480
C18 C 0.7078(2) 0.92653(16) 0.08735(14)
H21 H 0.65480 1.01520 0.07380
C19 C 1.0455(3) 0.7499(2) -0.07442(19)
H22 H 1.06220 0.83630 -0.13870
H23 H 1.01150 0.68750 -0.11170
H24 H 1.14770 0.71080 -0.03160
#END
