
#######################################################################
#
#                 Cambridge Crystallographic Data Centre
#                                CCDC
#
#######################################################################
#
# If this CIF has been generated from an entry in the Cambridge
# Structural Database, then it will include bibliographic, chemical,
# crystal, experimental, refinement or atomic coordinate data resulting
# from the CCDC's data processing and validation procedures.
#
#######################################################################

data_CSD_CIF_TIVBOQ
_audit_creation_date 2008-03-24
_audit_creation_method CSD-ConQuest-V1
_database_code_CSD TIVBOQ
_database_code_depnum_ccdc_archive 'CCDC 680664'
_chemical_formula_sum 'C31 H26 N4 O4'
_chemical_formula_moiety
;
C31 H26 N4 O4
;
_journal_coeditor_code "IUCr FL2188"
_journal_coden_Cambridge 1370
_journal_volume 64
_journal_year 2008
_journal_page_first o595
_journal_name_full 'Acta Crystallogr.,Sect.E:Struct.Rep.Online '
loop_
_publ_author_name
"M.A.Rodriguez"
"T.Zifer"
"A.L.Vance"
"B.M.Wong"
"F.Leonard"
_chemical_name_systematic
;
(E)-2-(Ethyl(4-(4-nitrophenyldiazenyl)phenyl)amino)ethyl 
anthracene-9-carboxylate
;
_chemical_name_common
;
(Disperse Red 1)-anthracene ester
;
_cell_volume   1241.174
_exptl_crystal_colour 'orange'
_exptl_crystal_density_diffrn 1.388
_exptl_crystal_description 'irregular'
_exptl_crystal_preparation 'acetonitrile/ethanol'
_diffrn_ambient_temperature 173
#These two values have been output from a single CSD field.
_refine_ls_R_factor_gt 0.0661
_refine_ls_wR_factor_gt 0.0661
_symmetry_cell_setting triclinic
_symmetry_space_group_name_H-M 'P -1'
_symmetry_Int_Tables_number 2
loop_
_symmetry_equiv_pos_site_id
_symmetry_equiv_pos_as_xyz
1 x,y,z
2 -x,-y,-z
_cell_length_a 9.3161(9)
_cell_length_b 10.6586(10)
_cell_length_c 13.5328(13)
_cell_angle_alpha 101.134(3)
_cell_angle_beta 104.667(4)
_cell_angle_gamma 99.779(3)
_cell_formula_units_Z 2
loop_
_atom_type_symbol
_atom_type_radius_bond
C 0.68
H 0.23
N 0.68
O 0.68
loop_
_atom_site_label
_atom_site_type_symbol
_atom_site_fract_x
_atom_site_fract_y
_atom_site_fract_z
C1 C 0.4311(4) 0.4301(3) 1.1818(2)
H1 H 0.35520 0.38780 1.11670
C2 C 0.3871(4) 0.4647(3) 1.2740(2)
H2 H 0.28230 0.44550 1.27050
C3 C 0.5796(3) 0.4565(3) 1.1849(2)
H3 H 0.60660 0.43320 1.12180
C4 C 0.4936(3) 0.5249(3) 1.3672(2)
H4 H 0.46240 0.54860 1.42850
C5 C 0.6965(3) 0.5190(3) 1.2820(2)
C6 C 0.6513(3) 0.5536(3) 1.3752(2)
C7 C 0.8515(3) 0.5491(3) 1.2887(2)
C8 C 0.7638(3) 0.6146(3) 1.4708(2)
H5 H 0.73390 0.63710 1.53280
C9 C 0.9635(3) 0.6111(3) 1.3845(2)
C10 C 0.9183(3) 0.6438(3) 1.4782(2)
C11 C 1.1225(3) 0.6452(3) 1.3946(2)
H6 H 1.15600 0.62500 1.33390
C12 C 1.0315(4) 0.7073(3) 1.5759(2)
H7 H 1.00170 0.72920 1.63800
C13 C 1.2262(4) 0.7058(3) 1.4892(3)
H8 H 1.33130 0.72790 1.49380
C14 C 1.1804(4) 0.7369(3) 1.5816(3)
H9 H 1.25480 0.77850 1.64760
C15 C 0.8955(3) 0.5179(3) 1.1890(2)
C16 C 0.9915(3) 0.3710(3) 1.0822(2)
H10 H 1.08230 0.43720 1.08560
H11 H 0.90860 0.36720 1.01850
C17 C 1.0292(3) 0.2372(3) 1.0778(2)
H12 H 1.10230 0.22860 1.03640
H13 H 1.08080 0.23340 1.15030
C18 C 0.8293(4) 0.0686(3) 1.1033(2)
H14 H 0.90520 0.09190 1.17390
H15 H 0.80350 -0.02830 1.07770
C19 C 0.6864(4) 0.1132(3) 1.1141(2)
H16 H 0.71240 0.20810 1.14540
H17 H 0.64280 0.06700 1.15950
H18 H 0.61170 0.09340 1.04430
C20 C 0.8434(3) 0.0764(3) 0.9246(2)
C21 C 0.9076(3) 0.1361(3) 0.8559(2)
H19 H 0.98500 0.21480 0.88460
C22 C 0.8607(3) 0.0830(3) 0.7490(2)
H20 H 0.90830 0.12380 0.70530
C23 C 0.7442(3) -0.0300(3) 0.7038(2)
C24 C 0.6742(3) -0.0860(3) 0.7695(2)
H21 H 0.59220 -0.16140 0.73940
C25 C 0.7210(3) -0.0349(3) 0.8769(2)
H22 H 0.67040 -0.07500 0.91950
C26 C 0.6993(3) -0.0968(3) 0.4302(2)
C27 C 0.7983(3) -0.1047(3) 0.3689(2)
H23 H 0.90510 -0.07330 0.40090
C28 C 0.7414(3) -0.1583(3) 0.2614(2)
H24 H 0.80810 -0.16630 0.21900
C29 C 0.5850(3) -0.1999(3) 0.2170(2)
C30 C 0.4844(3) -0.1891(3) 0.2755(2)
H25 H 0.37750 -0.21720 0.24270
C31 C 0.5424(3) -0.1365(3) 0.3829(2)
H26 H 0.47510 -0.12740 0.42460
N1 N 0.8986(3) 0.1256(2) 1.03191(18)
N2 N 0.6851(3) -0.0883(2) 0.59401(18)
N3 N 0.7671(3) -0.0435(2) 0.54054(18)
N4 N 0.5237(3) -0.2560(2) 0.10309(19)
O1 O 0.9436(2) 0.40590(19) 1.17640(14)
O2 O 0.8885(3) 0.5849(2) 1.12621(17)
O3 O 0.6111(3) -0.2485(2) 0.04881(16)
O4 O 0.3869(3) -0.3075(2) 0.06570(16)
#END
