
#######################################################################
#
#                 Cambridge Crystallographic Data Centre
#                                CCDC
#
#######################################################################
#
# If this CIF has been generated from an entry in the Cambridge
# Structural Database, then it will include bibliographic, chemical,
# crystal, experimental, refinement or atomic coordinate data resulting
# from the CCDC's data processing and validation procedures.
#
#######################################################################

data_CSD_CIF_TIWDEI
_audit_creation_date 1997-04-03
_audit_creation_method CSD-ConQuest-V1
_database_code_CSD TIWDEI
_chemical_formula_sum 'C20 H28 N4 O6'
_chemical_formula_moiety
;
C20 H28 N4 O6
;
_journal_coden_Cambridge 151
_journal_volume 39
_journal_year 1996
_journal_page_first 3139
_journal_name_full 'J.Med.Chem. '
loop_
_publ_author_name
"T.Weller"
"L.Alig"
"M.Beresini"
"B.Blackburn"
"S.Bunting"
"P.Hadvary"
"M.H.Muller"
"D.Knopp"
"B.Levet-Trafit"
"M.T.Lipari"
"N.B.Modi"
"M.Muller"
"C.J.Refino"
"M.Schmitt"
"P.Schonholzer"
"S.Weiss"
"B.Steiner"
_chemical_name_systematic
;
(Z)-(S)-((1-(2-((4-(Amino(hydroxyimino)methyl)benzoyl)amino)-1-oxopropyl)-4-pi
peridinyl)oxy)acetic acid ethyl ester
;
_chemical_melting_point 474.15
_cell_volume   1030.192
_exptl_crystal_density_diffrn 1.355
_exptl_special_details
;
Melting point range 474.15-476.15K
prophylactic agent

;
_diffrn_ambient_temperature 173
#These two values have been output from a single CSD field.
_refine_ls_R_factor_gt 0.0662
_refine_ls_wR_factor_gt 0.0662
_symmetry_cell_setting monoclinic
_symmetry_space_group_name_H-M 'P 21'
_symmetry_Int_Tables_number 4
loop_
_symmetry_equiv_pos_site_id
_symmetry_equiv_pos_as_xyz
1 x,y,z
2 -x,1/2+y,-z
_cell_length_a 11.390(4)
_cell_length_b 5.386(2)
_cell_length_c 16.793(7)
_cell_angle_alpha 90
_cell_angle_beta 90.04(3)
_cell_angle_gamma 90
_cell_formula_units_Z 2
loop_
_atom_type_symbol
_atom_type_radius_bond
C 0.68
H 0.23
N 0.68
O 0.68
loop_
_atom_site_label
_atom_site_type_symbol
_atom_site_fract_x
_atom_site_fract_y
_atom_site_fract_z
C1 C 0.9396(9) 0.0139(32) 0.9185(6)
C2 C 0.9285(8) -0.0651(28) 0.8372(5)
O1 O 0.8496(6) 0.1214(18) 0.7971(3)
C3 C 0.8542(7) 0.1427(24) 0.7206(5)
O2 O 0.9230(7) 0.0242(27) 0.6825(4)
C4 C 0.7681(13) 0.2979(41) 0.6849(6)
C5 C 0.7616(9) 0.5854(21) 0.5813(5)
C6 C 0.6413(9) 0.6041(30) 0.5435(5)
C7 C 0.6399(7) 0.4657(26) 0.4647(5)
N1 N 0.7301(5) 0.5633(15) 0.4118(3)
C8 C 0.8467(6) 0.5384(19) 0.4448(4)
C9 C 0.8542(9) 0.6807(26) 0.5234(4)
C10 C 0.7007(6) 0.6802(16) 0.3432(4)
O3 O 0.5961(4) 0.7103(12) 0.3257(3)
C11 C 0.7986(7) 0.7708(17) 0.2907(4)
C12 C 0.8455(11) 1.0203(21) 0.3209(5)
N2 N 0.7576(6) 0.8149(13) 0.2092(3)
C13 C 0.7452(6) 0.6215(16) 0.1579(4)
O4 O 0.7678(5) 0.4084(11) 0.1782(3)
C14 C 0.7058(6) 0.6815(15) 0.0752(4)
C15 C 0.6437(6) 0.8990(15) 0.0561(4)
C16 C 0.6048(5) 0.9314(15) -0.0218(4)
C17 C 0.6279(5) 0.7586(14) -0.0803(4)
C18 C 0.6947(6) 0.5519(16) -0.0617(4)
C19 C 0.7324(6) 0.5135(16) 0.0161(4)
C20 C 0.5765(6) 0.7879(15) -0.1628(4)
N3 N 0.5486(7) 1.0099(15) -0.1897(4)
N4 N 0.5563(6) 0.5781(14) -0.1977(3)
O5 O 0.5046(5) 0.6335(12) -0.2740(3)
O6 O 0.7901(8) 0.3499(19) 0.6044(4)
H1 H 0.9904(9) -0.1022(32) 0.9474(6)
H2 H 0.8619(9) 0.0174(32) 0.9435(6)
H3 H 0.9742(9) 0.1804(32) 0.9202(6)
H4 H 0.8936(8) -0.2332(28) 0.8344(5)
H5 H 1.0064(8) -0.0690(28) 0.8110(5)
H6 H 0.6905(13) 0.2162(41) 0.6895(6)
H7 H 0.7643(13) 0.4561(41) 0.7147(6)
H8 H 0.7626(9) 0.6943(21) 0.6295(5)
H9 H 0.6219(9) 0.7808(30) 0.5344(5)
H10 H 0.5822(9) 0.5326(30) 0.5797(5)
H11 H 0.6539(7) 0.2867(26) 0.4741(5)
H12 H 0.5618(7) 0.4842(26) 0.4394(5)
H13 H 0.9052(6) 0.6049(19) 0.4069(4)
H14 H 0.8645(6) 0.3608(19) 0.4541(4)
H15 H 0.9332(8) 0.6593(26) 0.5470(4)
H16 H 0.8416(8) 0.8600(26) 0.5135(4)
H17 H 0.8636(7) 0.6459(17) 0.2902(4)
H18 H 0.9092(11) 1.0773(21) 0.2861(5)
H19 H 0.8753(11) 1.0012(21) 0.3753(5)
H20 H 0.7820(11) 1.1435(21) 0.3205(5)
H21 H 0.7410(6) 0.9668(13) 0.1935(3)
H22 H 0.6287(6) 1.0213(15) 0.0955(4)
H23 H 0.5612(5) 1.0760(15) -0.0350(4)
H24 H 0.7148(6) 0.4362(16) -0.1022(4)
H25 H 0.7771(6) 0.3698(16) 0.0287(4)
H26 H 0.5131(7) 1.0245(15) -0.2360(4)
H27 H 0.5655(7) 1.1433(15) -0.1616(4)
H28 H 0.4556(65) 0.523(10) -0.2858(28)
#END
