
#######################################################################
#
#                 Cambridge Crystallographic Data Centre
#                                CCDC
#
#######################################################################
#
# If this CIF has been generated from an entry in the Cambridge
# Structural Database, then it will include bibliographic, chemical,
# crystal, experimental, refinement or atomic coordinate data resulting
# from the CCDC's data processing and validation procedures.
#
#######################################################################

data_CSD_CIF_TONFUX
_audit_creation_date 1997-05-05
_audit_creation_method CSD-ConQuest-V1
_database_code_CSD TONFUX
_chemical_formula_sum 'C11 H13 N3 O4'
_chemical_formula_moiety
;
C11 H13 N3 O4
;
_journal_coden_Cambridge 1003
_journal_volume 25
_journal_year 1995
_journal_page_first 801
_journal_name_full 'J.Chem.Cryst. '
loop_
_publ_author_name
"J.Ellena"
"G.Punte"
"B.E.Rivero"
"M.V.Remedi"
"E.B.de Vargas"
"R.H.de Rossi"
_chemical_name_systematic
;
1-Piperidine-2,4-dinitrobenzene
;
_cell_volume   1182.553
_diffrn_ambient_temperature ?
_diffrn_special_details
;
The study was carried out at room temperature,in the range 283-303K

;
#These two values have been output from a single CSD field.
_refine_ls_R_factor_gt 0.0482
_refine_ls_wR_factor_gt 0.0482
_symmetry_cell_setting monoclinic
_symmetry_space_group_name_H-M 'P 21/n'
_symmetry_Int_Tables_number 14
loop_
_symmetry_equiv_pos_site_id
_symmetry_equiv_pos_as_xyz
1 x,y,z
2 1/2-x,1/2+y,1/2-z
3 -x,-y,-z
4 -1/2+x,-1/2-y,-1/2+z
_cell_length_a 9.968(2)
_cell_length_b 9.156(2)
_cell_length_c 13.249(2)
_cell_angle_alpha 90
_cell_angle_beta 102.05(2)
_cell_angle_gamma 90
_cell_formula_units_Z 4
loop_
_atom_type_symbol
_atom_type_radius_bond
C 0.68
H 0.23
N 0.68
O 0.68
loop_
_atom_site_label
_atom_site_type_symbol
_atom_site_fract_x
_atom_site_fract_y
_atom_site_fract_z
C1 C 0.8474(1) 0.0314(2) 0.5763(1)
C2 C 0.7499(1) 0.0211(2) 0.4810(1)
C3 C 0.7385(2) 0.1243(2) 0.4043(1)
C4 C 0.8292(2) 0.2393(2) 0.4176(1)
C5 C 0.9353(2) 0.2477(2) 0.5045(1)
C6 C 0.9442(2) 0.1458(2) 0.5807(1)
C7 C 0.9673(2) -0.0802(2) 0.7409(1)
C8 C 0.9499(2) -0.0168(3) 0.8426(1)
C9 C 0.8210(2) -0.0763(3) 0.8713(2)
C10 C 0.6979(2) -0.0556(2) 0.7838(2)
C11 C 0.7206(2) -0.1163(2) 0.6821(2)
O1 O 0.7198(2) -0.2293(2) 0.4806(1)
O2 O 0.5523(1) -0.0972(2) 0.3998(1)
O3 O 0.7312(1) 0.3336(2) 0.2582(1)
O4 O 0.8955(2) 0.4544(2) 0.3522(1)
N1 N 0.8461(1) -0.0559(2) 0.6585(1)
N2 N 0.6674(1) -0.1110(2) 0.4532(1)
N3 N 0.8181(2) 0.3503(2) 0.3379(1)
H1 H 0.6709(19) 0.1115(21) 0.3426(15)
H2 H 0.9991(18) 0.3238(21) 0.5124(14)
H3 H 1.0115(18) 0.1567(20) 0.6387(14)
H4 H 1.0469(19) -0.0404(19) 0.7208(13)
H5 H 0.9780(18) -0.1873(23) 0.7468(14)
H6 H 1.0293(21) -0.0392(22) 0.8922(16)
H7 H 0.9521(20) 0.0909(25) 0.8370(16)
H8 H 0.8081(23) -0.0330(26) 0.9343(19)
H9 H 0.8359(24) -0.1821(29) 0.8870(19)
H10 H 0.6733(19) 0.0465(23) 0.7738(15)
H11 H 0.6162(25) -0.1030(27) 0.7995(18)
H12 H 0.638(2) -0.0867(21) 0.6267(15)
H13 H 0.7275(20) -0.2225(24) 0.6839(15)
#END
