
#######################################################################
#
#                 Cambridge Crystallographic Data Centre
#                                CCDC
#
#######################################################################
#
# If this CIF has been generated from an entry in the Cambridge
# Structural Database, then it will include bibliographic, chemical,
# crystal, experimental, refinement or atomic coordinate data resulting
# from the CCDC's data processing and validation procedures.
#
#######################################################################

data_CSD_CIF_TPNITR01
_audit_creation_date 1986-07-02
_audit_creation_method CSD-ConQuest-V1
_database_code_CSD TPNITR01
_chemical_formula_sum 'C19 H15 N1 O1'
_chemical_formula_moiety
;
C19 H15 N1 O1
;
_journal_coden_Cambridge 207
_journal_year 1985
_journal_page_first 1837
_journal_name_full 'J.Chem.Soc.,Perkin Trans.1 '
loop_
_publ_author_name
"C.P.Falshaw"
"N.A.Hashi"
"G.A.Taylor"
_chemical_name_systematic
;
Triphenylnitrone
;
_cell_volume   2865.169
_exptl_crystal_density_diffrn 1.27
_diffrn_ambient_temperature ?
_diffrn_special_details
;
The study was carried out at room temperature,in the range 283-303K

;
#These two values have been output from a single CSD field.
_refine_ls_R_factor_gt 0.0484
_refine_ls_wR_factor_gt 0.0484
_symmetry_cell_setting orthorhombic
_symmetry_space_group_name_H-M 'P b c a'
_symmetry_Int_Tables_number 61
loop_
_symmetry_equiv_pos_site_id
_symmetry_equiv_pos_as_xyz
1 x,y,z
2 1/2-x,1/2+y,z
3 x,1/2-y,1/2+z
4 1/2-x,-y,1/2+z
5 -x,-y,-z
6 -1/2+x,-1/2-y,-z
7 -x,-1/2+y,-1/2-z
8 -1/2+x,y,-1/2-z
_cell_length_a 17.831(1)
_cell_length_b 8.840(1)
_cell_length_c 18.177(2)
_cell_angle_alpha 90
_cell_angle_beta 90
_cell_angle_gamma 90
_cell_formula_units_Z 8
loop_
_atom_type_symbol
_atom_type_radius_bond
C 0.68
H 0.23
N 0.68
O 0.68
loop_
_atom_site_label
_atom_site_type_symbol
_atom_site_fract_x
_atom_site_fract_y
_atom_site_fract_z
N1 N 0.2266(2) 0.2528(5) 0.2060(2)
O1 O 0.2953(2) 0.2327(5) 0.1832(2)
C1 C 0.2619(3) 0.2604(6) 0.3345(3)
C2 C 0.2405(3) 0.2017(7) 0.4020(3)
C3 C 0.2900(3) 0.1999(7) 0.4606(3)
C4 C 0.3614(3) 0.2571(8) 0.4525(4)
C5 C 0.3828(3) 0.3148(8) 0.3858(4)
C6 C 0.3344(3) 0.3165(7) 0.3271(3)
C7 C 0.2062(2) 0.2647(6) 0.2750(3)
C8 C 0.1257(2) 0.2831(6) 0.2936(2)
C9 C 0.0718(3) 0.1774(6) 0.2737(3)
C10 C -0.0020(3) 0.1970(7) 0.2946(3)
C11 C -0.0227(3) 0.3204(8) 0.3357(3)
C12 C 0.0303(3) 0.4260(7) 0.3558(3)
C13 C 0.1042(3) 0.4064(6) 0.3353(3)
C14 C 0.1744(2) 0.2652(8) 0.1452(2)
C15 C 0.1620(3) 0.1395(7) 0.1021(3)
C16 C 0.1146(3) 0.1510(8) 0.0419(3)
C17 C 0.0803(3) 0.2874(9) 0.0263(3)
C18 C 0.0935(3) 0.4113(8) 0.0692(3)
C19 C 0.1409(3) 0.4021(7) 0.1293(3)
H1 H 0.18880 0.16010 0.40840
H2 H 0.27390 0.15700 0.50900
H3 H 0.39720 0.25650 0.49480
H4 H 0.43450 0.35650 0.37980
H5 H 0.35130 0.35830 0.27880
H6 H 0.08650 0.08660 0.24420
H7 H -0.04060 0.12100 0.27970
H8 H -0.07620 0.33360 0.35110
H9 H 0.01520 0.51670 0.38510
H10 H 0.14260 0.48230 0.35090
H11 H 0.15080 0.49300 0.16060
H12 H 0.06870 0.50960 0.05710
H13 H 0.04560 0.29540 -0.01670
H14 H 0.10520 0.06090 0.00990
H15 H 0.18680 0.04120 0.11410
#END
