
#######################################################################
#
#                 Cambridge Crystallographic Data Centre
#                                CCDC
#
#######################################################################
#
# If this CIF has been generated from an entry in the Cambridge
# Structural Database, then it will include bibliographic, chemical,
# crystal, experimental, refinement or atomic coordinate data resulting
# from the CCDC's data processing and validation procedures.
#
#######################################################################

data_CSD_CIF_TUDREP
_audit_creation_date 1997-05-29
_audit_creation_method CSD-ConQuest-V1
_database_code_CSD TUDREP
_database_code_depnum_ccdc_archive 'CCDC 128609'
_chemical_formula_sum 'C12 H12 N2 O2'
_chemical_formula_moiety
;
C12 H12 N2 O2
;
_journal_coeditor_code "IUCr OH1103"
_journal_coden_Cambridge 591
_journal_volume 53
_journal_year 1997
_journal_page_first 498
_journal_name_full 'Acta Crystallogr.,Sect.C:Cryst.Struct.Commun. '
loop_
_publ_author_name
"H.Kanno"
"K.Iijima"
_chemical_name_systematic
;
4,4'-Dimethyl-2,2'-bipyridine 1,1'-dioxide
;
_cell_volume   1028.767
_exptl_crystal_colour 'colorless'
_exptl_crystal_density_diffrn 1.396
_diffrn_ambient_temperature ?
_diffrn_special_details
;
The study was carried out at room temperature,in the range 283-303K

;
#These two values have been output from a single CSD field.
_refine_ls_R_factor_gt 0.0572
_refine_ls_wR_factor_gt 0.0572
_symmetry_cell_setting monoclinic
_symmetry_space_group_name_H-M 'C 2/c'
_symmetry_Int_Tables_number 15
loop_
_symmetry_equiv_pos_site_id
_symmetry_equiv_pos_as_xyz
1 x,y,z
2 -x,y,1/2-z
3 1/2+x,1/2+y,z
4 1/2-x,1/2+y,1/2-z
5 -x,-y,-z
6 x,-y,-1/2+z
7 -1/2-x,-1/2-y,-z
8 -1/2+x,-1/2-y,-1/2+z
_cell_length_a 11.232(4)
_cell_length_b 9.175(3)
_cell_length_c 10.444(4)
_cell_angle_alpha 90
_cell_angle_beta 107.09(3)
_cell_angle_gamma 90
_cell_formula_units_Z 4
loop_
_atom_type_symbol
_atom_type_radius_bond
C 0.68
H 0.23
N 0.68
O 0.68
loop_
_atom_site_label
_atom_site_type_symbol
_atom_site_fract_x
_atom_site_fract_y
_atom_site_fract_z
O1 O 0.07679(9) 0.37492(12) 0.15658(9)
N1 N -0.00741(10) 0.27788(13) 0.10241(11)
C1 C -0.03299(13) 0.16608(15) 0.17728(12)
C2 C -0.11315(13) 0.05656(15) 0.11614(13)
C3 C -0.17504(12) 0.05802(15) -0.02047(13)
C4 C -0.15232(13) 0.17816(16) -0.09051(13)
C5 C -0.07021(13) 0.28429(15) -0.03061(13)
C6 C -0.26282(14) -0.06115(17) -0.08518(14)
H1 H -0.12525 -0.02222 0.17152
H2 H -0.19672 0.18756 -0.18390
H3 H -0.05573 0.37339 -0.07186
H4 H -0.33090 -0.02816 -0.15876
H5 H -0.22593 -0.14503 -0.11327
H6 H -0.30023 -0.10066 -0.02107
C1A C 0.03299(13) 0.16608(15) 0.32272(12)
N1A N 0.00741(10) 0.27788(13) 0.39759(11)
O1A O -0.07679(9) 0.37492(12) 0.34342(9)
C5A C 0.07021(13) 0.28429(15) 0.53061(13)
C4A C 0.15232(13) 0.17816(16) 0.59051(13)
C3A C 0.17504(12) 0.05802(15) 0.52047(13)
C2A C 0.11315(13) 0.05656(15) 0.38386(13)
H1A H 0.12525 -0.02222 0.32848
C6A C 0.26282(14) -0.06115(17) 0.58518(14)
H4A H 0.33090 -0.02816 0.65876
H5A H 0.22593 -0.14503 0.61327
H6A H 0.30023 -0.10066 0.52107
H2A H 0.19672 0.18756 0.68390
H3A H 0.05573 0.37339 0.57186
#END
