
#######################################################################
#
#                 Cambridge Crystallographic Data Centre
#                                CCDC
#
#######################################################################
#
# If this CIF has been generated from an entry in the Cambridge
# Structural Database, then it will include bibliographic, chemical,
# crystal, experimental, refinement or atomic coordinate data resulting
# from the CCDC's data processing and validation procedures.
#
#######################################################################

data_CSD_CIF_TUFNEP
_audit_creation_date 2015-05-11
_audit_creation_method CSD-ConQuest-V1
_database_code_CSD TUFNEP
_database_code_depnum_ccdc_archive 'CCDC 1034676'
_chemical_formula_sum 'C26 H23 N3 O4'
_chemical_formula_moiety
;
C26 H23 N3 O4
;
_journal_coden_Cambridge 182
_journal_volume 51
_journal_year 2015
_journal_page_first 11374
_journal_name_full 'Chem.Commun. '
loop_
_publ_author_name
"Tianyu Huang"
"Lili Lin"
"Xiaolei Hu"
"Jianfeng Zheng"
"Xiaohua Liu"
"Xiaoming Feng"
_chemical_name_systematic
;
3-(biphenyl-4-yl)-3-(3,5-dimethyl-4-nitro-1H-pyrazol-1-yl)-2-hydroxy-1-phenylp
ropan-1-one
;
_cell_volume   2307.807
_exptl_crystal_colour 'light colorless'
_exptl_crystal_density_diffrn 1.268
_exptl_special_details
;
Absolute configuration

;
_diffrn_ambient_temperature 293
#These two values have been output from a single CSD field.
_refine_ls_R_factor_gt 0.0446
_refine_ls_wR_factor_gt 0.0446
_symmetry_cell_setting orthorhombic
_symmetry_space_group_name_H-M 'P 21 21 21'
_symmetry_Int_Tables_number 19
loop_
_symmetry_equiv_pos_site_id
_symmetry_equiv_pos_as_xyz
1 x,y,z
2 1/2-x,-y,1/2+z
3 -x,1/2+y,1/2-z
4 1/2+x,1/2-y,-z
_cell_length_a 6.9776(1)
_cell_length_b 12.8353(1)
_cell_length_c 25.7684(3)
_cell_angle_alpha 90
_cell_angle_beta 90
_cell_angle_gamma 90
_cell_formula_units_Z 4
loop_
_atom_type_symbol
_atom_type_radius_bond
C 0.68
H 0.23
N 0.68
O 0.68
loop_
_atom_site_label
_atom_site_type_symbol
_atom_site_fract_x
_atom_site_fract_y
_atom_site_fract_z
O1 O 0.5422(2) 0.57740(13) 0.49973(7)
O2 O 0.7815(2) 0.75498(11) 0.49283(5)
H1 H 0.86530 0.79910 0.49670
O3 O 0.4449(3) 0.44601(18) 0.72784(9)
O4 O 0.6918(3) 0.34795(16) 0.72711(9)
N1 N 0.7321(2) 0.60265(12) 0.61329(6)
N2 N 0.8946(2) 0.54295(14) 0.61259(7)
N3 N 0.5995(3) 0.42144(16) 0.71066(8)
C1 C 0.7333(5) 0.4046(2) 0.46147(15)
H2 H 0.60070 0.40750 0.45810
C2 C 0.8303(9) 0.3177(3) 0.44376(17)
H3 H 0.76230 0.26190 0.42990
C3 C 1.0215(7) 0.3137(3) 0.44646(16)
H4 H 1.08680 0.25540 0.43440
C4 C 1.1189(6) 0.3942(3) 0.4668(2)
H5 H 1.25200 0.39190 0.46780
C5 C 1.0235(4) 0.4811(2) 0.48621(16)
H6 H 1.09240 0.53570 0.50090
C6 C 0.8272(4) 0.48582(16) 0.48364(8)
C7 C 0.7167(3) 0.57663(16) 0.50305(7)
C8 C 0.8155(3) 0.67079(15) 0.52715(7)
H7 H 0.95330 0.65810 0.53080
C9 C 0.7258(3) 0.69617(15) 0.58014(7)
H8 H 0.59060 0.71310 0.57420
C10 C 0.8159(3) 0.78828(14) 0.60635(6)
C11 C 1.0106(3) 0.79075(16) 0.61701(8)
H9 H 1.08810 0.73600 0.60620
C12 C 1.0906(3) 0.87301(15) 0.64338(8)
H10 H 1.22140 0.87240 0.65030
C13 C 0.9813(3) 0.95697(15) 0.66002(7)
C14 C 0.7870(3) 0.95541(17) 0.64787(9)
H11 H 0.70980 1.01110 0.65770
C15 C 0.7069(3) 0.87269(17) 0.62150(9)
H12 H 0.57680 0.87380 0.61380
C16 C 1.0670(3) 1.04387(15) 0.68962(7)
C17 C 1.2535(4) 1.07625(19) 0.68129(10)
H13 H 1.32760 1.04280 0.65630
C18 C 1.3319(5) 1.1578(2) 0.70947(12)
H14 H 1.45740 1.17870 0.70320
C19 C 1.2252(5) 1.20728(19) 0.74634(11)
H15 H 1.27780 1.26190 0.76530
C20 C 1.0412(5) 1.1763(2) 0.75527(10)
H16 H 0.96850 1.21010 0.78040
C21 C 0.9623(4) 1.09594(18) 0.72766(8)
H17 H 0.83670 1.07580 0.73440
C22 C 0.4153(3) 0.6233(2) 0.65632(12)
H18 H 0.43780 0.69540 0.66400
H19 H 0.34990 0.59120 0.68490
H20 H 0.33810 0.61760 0.62560
C23 C 0.6015(3) 0.56989(16) 0.64770(8)
C24 C 0.6836(3) 0.48256(15) 0.67016(8)
C25 C 0.8643(3) 0.46844(16) 0.64685(8)
C26 C 1.0143(4) 0.3882(2) 0.65690(14)
H21 H 1.12010 0.39880 0.63370
H22 H 0.96130 0.32000 0.65140
H23 H 1.05800 0.39400 0.69210
#END
