
#######################################################################
#
#                 Cambridge Crystallographic Data Centre
#                                CCDC
#
#######################################################################
#
# If this CIF has been generated from an entry in the Cambridge
# Structural Database, then it will include bibliographic, chemical,
# crystal, experimental, refinement or atomic coordinate data resulting
# from the CCDC's data processing and validation procedures.
#
#######################################################################

data_CSD_CIF_TULGAK
_audit_creation_date 2015-05-13
_audit_creation_method CSD-ConQuest-V1
_database_code_CSD TULGAK
_database_code_depnum_ccdc_archive 'CCDC 1008034'
_chemical_formula_sum 'C22 H15 N3 O4'
_chemical_formula_moiety
;
C22 H15 N3 O4
;
_journal_coden_Cambridge 1268
_journal_volume 19
_journal_year 2014
_journal_page_first 13509
_journal_name_full 'Molecules '
loop_
_publ_author_name
"Z.Travnicek"
"R.Buchtik"
"I.Nemec"
_chemical_name_systematic
;
3-((2-Hydroxy-5-nitrobenzylidene)amino)-2-phenylquinolin-4(1H)-one
;
_chemical_melting_point 565.15
_cell_volume   7185.193
_exptl_crystal_density_diffrn 1.425
_diffrn_ambient_temperature 120
#These two values have been output from a single CSD field.
_refine_ls_R_factor_gt 0.0431
_refine_ls_wR_factor_gt 0.0431
_symmetry_cell_setting orthorhombic
_symmetry_space_group_name_H-M 'F d d 2'
_symmetry_Int_Tables_number 43
loop_
_symmetry_equiv_pos_site_id
_symmetry_equiv_pos_as_xyz
1 x,y,z
2 -x,-y,z
3 1/4-x,1/4+y,1/4+z
4 3/4+x,3/4-y,1/4+z
5 x,1/2+y,1/2+z
6 -x,1/2-y,1/2+z
7 1/4-x,3/4+y,3/4+z
8 3/4+x,1/4-y,3/4+z
9 1/2+x,y,1/2+z
10 1/2-x,-y,1/2+z
11 3/4-x,1/4+y,3/4+z
12 1/4+x,3/4-y,3/4+z
13 1/2+x,1/2+y,z
14 1/2-x,1/2-y,z
15 3/4-x,3/4+y,1/4+z
16 1/4+x,1/4-y,1/4+z
_cell_length_a 12.6476(10)
_cell_length_b 23.833(4)
_cell_length_c 23.837(3)
_cell_angle_alpha 90
_cell_angle_beta 90
_cell_angle_gamma 90
_cell_formula_units_Z 16
loop_
_atom_type_symbol
_atom_type_radius_bond
C 0.68
H 0.23
N 0.68
O 0.68
loop_
_atom_site_label
_atom_site_type_symbol
_atom_site_fract_x
_atom_site_fract_y
_atom_site_fract_z
C1 C 0.6942(2) 0.15116(10) 0.18549(11)
C2 C 0.6408(2) 0.13506(10) 0.23655(10)
C3 C 0.5403(2) 0.10606(10) 0.23012(11)
C4 C 0.4817(2) 0.08827(11) 0.27689(11)
H1 H 0.50950 0.09380 0.31350
C5 C 0.3855(2) 0.06322(12) 0.27062(12)
H2 H 0.34660 0.05160 0.30270
C6 C 0.3443(2) 0.05466(12) 0.21686(12)
H3 H 0.27740 0.03700 0.21270
C7 C 0.3984(2) 0.07119(12) 0.17043(12)
H4 H 0.36960 0.06530 0.13410
C8 C 0.4974(2) 0.09721(11) 0.17694(11)
C9 C 0.6492(2) 0.1397(1) 0.13367(10)
C10 C 0.6973(2) 0.15186(11) 0.07876(10)
C11 C 0.6411(2) 0.18022(11) 0.03738(11)
H5 H 0.57340 0.19530 0.04570
C12 C 0.6830(3) 0.18654(12) -0.01561(12)
H6 H 0.64410 0.20590 -0.04370
C13 C 0.7812(3) 0.16485(12) -0.02800(13)
H7 H 0.80950 0.16870 -0.06470
C14 C 0.8378(2) 0.13779(12) 0.01264(12)
H8 H 0.90620 0.12370 0.00410
C15 C 0.7974(2) 0.13056(11) 0.06583(11)
H9 H 0.83730 0.11130 0.09350
C16 C 0.8385(2) 0.19948(10) 0.22699(11)
H10 H 0.80750 0.19430 0.26290
C17 C 0.9386(2) 0.22872(10) 0.22240(11)
C18 C 0.9875(2) 0.24643(11) 0.27117(11)
H11 H 0.95440 0.24040 0.30640
C19 C 1.0844(2) 0.27283(11) 0.26856(11)
C20 C 1.1335(2) 0.28309(11) 0.21807(12)
H12 H 1.19980 0.30170 0.21700
C21 C 1.0854(2) 0.26603(11) 0.16940(11)
H13 H 1.11870 0.27300 0.13440
C22 C 0.9881(2) 0.23859(11) 0.1709(1)
N1 N 0.79107(17) 0.18043(8) 0.18347(8)
N2 N 0.55294(17) 0.11504(9) 0.13058(8)
H14 H 0.52440 0.11020 0.09730
N3 N 1.13384(19) 0.28962(10) 0.32051(11)
O1 O 0.67547(14) 0.14539(8) 0.28478(8)
O2 O 0.94444(15) 0.22202(8) 0.12277(7)
H15 H 0.88890 0.20390 0.12950
O3 O 1.22136(16) 0.31231(9) 0.31851(9)
O4 O 1.08646(17) 0.28126(10) 0.36482(9)
#END
