
#######################################################################
#
#                 Cambridge Crystallographic Data Centre
#                                CCDC
#
#######################################################################
#
# If this CIF has been generated from an entry in the Cambridge
# Structural Database, then it will include bibliographic, chemical,
# crystal, experimental, refinement or atomic coordinate data resulting
# from the CCDC's data processing and validation procedures.
#
#######################################################################

data_CSD_CIF_TUNQEY
_audit_creation_date 1997-07-04
_audit_creation_method CSD-ConQuest-V1
_database_code_CSD TUNQEY
_database_code_depnum_ccdc_archive 'CCDC 1276956'
_chemical_formula_sum 'C17 H13 N3 O2'
_chemical_formula_moiety
;
C17 H13 N3 O2
;
_journal_coden_Cambridge 7
_journal_volume 69
_journal_year 1996
_journal_page_first 1621
_journal_name_full 'Bull.Chem.Soc.Jpn. '
loop_
_publ_author_name
"Chunmin Li"
"Yunhong Go"
"Zihua Mao"
"K.Koyano"
"Y.Kai"
"N.Kanehisa"
"Qingtai Zhu"
"Zhonghua Zhou"
"Souyu Wu"
_chemical_name_systematic
;
Indirubin mono-oxime O-methyl ether
;
_chemical_melting_point 540.15
_cell_volume   1373.103
_exptl_crystal_colour 'dark red'
_exptl_crystal_density_diffrn 1.409
_exptl_special_details
;
in vivo and in vitro antileukemic activity

;
_diffrn_ambient_temperature ?
_diffrn_special_details
;
The study was carried out at room temperature,in the range 283-303K

;
#These two values have been output from a single CSD field.
_refine_ls_R_factor_gt 0.0398
_refine_ls_wR_factor_gt 0.0398
_symmetry_cell_setting monoclinic
_symmetry_space_group_name_H-M 'P 21/c'
_symmetry_Int_Tables_number 14
loop_
_symmetry_equiv_pos_site_id
_symmetry_equiv_pos_as_xyz
1 x,y,z
2 -x,1/2+y,1/2-z
3 -x,-y,-z
4 x,-1/2-y,-1/2+z
_cell_length_a 5.061(1)
_cell_length_b 15.502(1)
_cell_length_c 17.509(1)
_cell_angle_alpha 90
_cell_angle_beta 91.66(1)
_cell_angle_gamma 90
_cell_formula_units_Z 4
loop_
_atom_type_symbol
_atom_type_radius_bond
C 0.68
N 0.68
O 0.68
loop_
_atom_site_label
_atom_site_type_symbol
_atom_site_fract_x
_atom_site_fract_y
_atom_site_fract_z
O1 O 1.2570(4) 0.5908(1) -0.0186(1)
O2 O 0.3388(4) 0.7627(1) 0.1898(1)
N1 N 1.3204(4) 0.5029(2) 0.0865(1)
N2 N 0.8670(4) 0.7035(2) -0.0015(1)
N3 N 0.5374(4) 0.7038(1) 0.1716(1)
C1 C 1.2107(5) 0.4911(2) 0.1574(2)
C2 C 1.2873(6) 0.4347(2) 0.2141(2)
C3 C 1.1512(6) 0.4355(2) 0.2817(2)
C4 C 0.9420(6) 0.4922(2) 0.2908(2)
C5 C 0.8632(5) 0.5484(2) 0.2334(2)
C6 C 0.9987(5) 0.5503(2) 0.1651(2)
C7 C 1.1971(5) 0.5662(2) 0.0463(2)
C8 C 0.9841(5) 0.6003(2) 0.0950(2)
C9 C 0.8337(5) 0.6682(2) 0.0689(2)
C10 C 0.6174(5) 0.7097(2) 0.1037(2)
C11 C 0.6971(5) 0.7728(2) -0.0159(2)
C12 C 0.5377(5) 0.7844(2) 0.0474(2)
C13 C 0.3458(6) 0.8494(2) 0.0454(2)
C14 C 0.3229(6) 0.9004(2) -0.0189(2)
C15 C 0.4853(6) 0.8885(2) -0.0809(2)
C16 C 0.6777(6) 0.8242(2) -0.0798(2)
C17 C 0.2397(6) 0.7427(2) 0.2637(2)
#END
