
#######################################################################
#
#                 Cambridge Crystallographic Data Centre
#                                CCDC
#
#######################################################################
#
# If this CIF has been generated from an entry in the Cambridge
# Structural Database, then it will include bibliographic, chemical,
# crystal, experimental, refinement or atomic coordinate data resulting
# from the CCDC's data processing and validation procedures.
#
#######################################################################

data_CSD_CIF_TUWLIG
_audit_creation_date 2003-06-05
_audit_creation_method CSD-ConQuest-V1
_database_code_CSD TUWLIG
_database_code_depnum_ccdc_archive 'CCDC 127841'
_chemical_formula_sum 'C17 H14 N2 O1'
_chemical_formula_moiety
;
C17 H14 N2 O1
;
_journal_coden_Cambridge 1320
_journal_year 2003
_journal_name_full 'Thesis '
loop_
_publ_author_name
"M.Zohri"
"H.M.R.Hoffmann"
"R.Wartchow"
_chemical_name_systematic
;
2,3,3a,8-Tetrahydro-1-oxa-12b-aza-dibenzo(e,h)azulene-3-carbonitrile
;
_chemical_melting_point 413
_cell_volume    673.051
_exptl_crystal_colour 'colorless'
_exptl_crystal_density_diffrn 1.294
_exptl_special_details
;
contribution from the Thesis, M.Zohri, Universitat Hannover, Germany, (1999)

;
_exptl_crystal_description 'prismatic'
_diffrn_ambient_temperature 300
#These two values have been output from a single CSD field.
_refine_ls_R_factor_gt 0.0341
_refine_ls_wR_factor_gt 0.0341
_symmetry_cell_setting monoclinic
_symmetry_space_group_name_H-M 'P 21'
_symmetry_Int_Tables_number 4
loop_
_symmetry_equiv_pos_site_id
_symmetry_equiv_pos_as_xyz
1 x,y,z
2 -x,1/2+y,-z
_cell_length_a 8.166(2)
_cell_length_b 8.114(1)
_cell_length_c 10.671(2)
_cell_angle_alpha 90
_cell_angle_beta 107.84(2)
_cell_angle_gamma 90
_cell_formula_units_Z 2
loop_
_atom_type_symbol
_atom_type_radius_bond
C 0.68
H 0.23
N 0.68
O 0.68
loop_
_atom_site_label
_atom_site_type_symbol
_atom_site_fract_x
_atom_site_fract_y
_atom_site_fract_z
O1 O 0.6102(2) 0.2577(2) 0.4995(2)
C1 C 0.6654(3) 0.2632(3) 0.3848(3)
H1 H 0.7689(3) 0.1982(3) 0.3975(3)
H2 H 0.6886(3) 0.3757(3) 0.3646(3)
C2 C 0.5149(3) 0.1903(3) 0.2736(2)
H3 H 0.5461(3) 0.0819(3) 0.2473(2)
C3 C 0.3721(3) 0.1730(3) 0.3404(2)
H4 H 0.3831(3) 0.0644(3) 0.3824(2)
C4 C 0.1893(3) 0.1922(3) 0.2510(2)
C5 C 0.1364(4) 0.0802(3) 0.1467(3)
H5 H 0.2137(4) 0.0008(3) 0.1369(3)
C6 C -0.0252(4) 0.0840(3) 0.0588(3)
H6 H -0.0571(4) 0.0076(3) -0.0094(3)
C7 C -0.1408(3) 0.2013(4) 0.0715(3)
H7 H -0.2509(3) 0.2057(4) 0.0118(3)
C8 C -0.0913(3) 0.3118(3) 0.1738(2)
H8 H -0.1700(3) 0.3908(3) 0.1816(2)
C9 C 0.0710(3) 0.3106(3) 0.2657(2)
C10 C 0.1105(3) 0.4344(3) 0.3766(2)
H9 H 0.1910(3) 0.5149(3) 0.3626(2)
H10 H 0.0054(3) 0.4923(3) 0.3733(2)
C11 C 0.1849(3) 0.3613(3) 0.5116(3)
C12 C 0.1016(4) 0.3665(3) 0.6069(3)
H11 H -0.0076(4) 0.4126(3) 0.5867(3)
C13 C 0.1794(4) 0.3035(3) 0.7321(3)
H12 H 0.1225(4) 0.3088(3) 0.7953(3)
C14 C 0.3384(4) 0.2342(3) 0.7626(3)
H13 H 0.3892(4) 0.1914(3) 0.8464(3)
C15 C 0.4247(4) 0.2268(3) 0.6700(3)
H14 H 0.5335(4) 0.1795(3) 0.6910(3)
C16 C 0.3478(3) 0.2907(3) 0.5456(2)
N1 N 0.4286(2) 0.2987(2) 0.4441(2)
C17 C 0.4665(3) 0.3018(3) 0.1610(3)
N2 N 0.4329(3) 0.3931(3) 0.0745(2)
#END
