
#######################################################################
#
#                 Cambridge Crystallographic Data Centre
#                                CCDC
#
#######################################################################
#
# If this CIF has been generated from an entry in the Cambridge
# Structural Database, then it will include bibliographic, chemical,
# crystal, experimental, refinement or atomic coordinate data resulting
# from the CCDC's data processing and validation procedures.
#
#######################################################################

data_CSD_CIF_UBINEA
_audit_creation_date 2012-01-16
_audit_creation_method CSD-ConQuest-V1
_database_code_CSD UBINEA
_database_code_depnum_ccdc_archive 'CCDC 827122'
_chemical_formula_sum 'C8 H7 N1 O2'
_chemical_formula_moiety
;
C8 H7 N1 O2
;
_journal_coden_Cambridge 1088
_journal_year 2011
_journal_page_first 2525
_journal_name_full 'Synlett '
loop_
_publ_author_name
"T.Kukosha"
"N.Trufilkina"
"M.Katkevics"
_chemical_name_systematic
;
2-hydroxy-3H-indole-1-oxide
;
_cell_volume   2689.667
_exptl_crystal_colour 'colorless'
_exptl_crystal_density_diffrn 1.473
_exptl_crystal_description 'cube'
_diffrn_ambient_temperature 193
#These two values have been output from a single CSD field.
_refine_ls_R_factor_gt 0.0446
_refine_ls_wR_factor_gt 0.0446
_symmetry_cell_setting orthorhombic
_symmetry_space_group_name_H-M 'F d d 2'
_symmetry_Int_Tables_number 43
loop_
_symmetry_equiv_pos_site_id
_symmetry_equiv_pos_as_xyz
1 x,y,z
2 x,1/2+y,1/2+z
3 1/2+x,y,1/2+z
4 1/2+x,1/2+y,z
5 -x,-y,z
6 -x,1/2-y,1/2+z
7 1/2-x,-y,1/2+z
8 1/2-x,1/2-y,z
9 1/4-x,1/4+y,1/4+z
10 1/4-x,3/4+y,3/4+z
11 3/4-x,1/4+y,3/4+z
12 3/4-x,3/4+y,1/4+z
13 1/4+x,1/4-y,1/4+z
14 1/4+x,3/4-y,3/4+z
15 3/4+x,1/4-y,3/4+z
16 3/4+x,3/4-y,1/4+z
_cell_length_a 11.8440(4)
_cell_length_b 30.1702(12)
_cell_length_c 7.5270(7)
_cell_angle_alpha 90
_cell_angle_beta 90
_cell_angle_gamma 90
_cell_formula_units_Z 16
loop_
_atom_type_symbol
_atom_type_radius_bond
C 0.68
H 0.23
N 0.68
O 0.68
loop_
_atom_site_label
_atom_site_type_symbol
_atom_site_fract_x
_atom_site_fract_y
_atom_site_fract_z
O1 O 0.7633(2) -0.00797(7) 0.4129(3)
C1 C 0.7273(3) 0.10457(10) 0.5024(4)
O2 O 0.6276(2) 0.04331(8) 0.6445(3)
C2 C 0.8074(3) 0.10887(10) 0.3689(4)
C3 C 0.7684(3) 0.03296(10) 0.4169(4)
N1 N 0.7089(2) 0.05875(8) 0.5298(4)
C4 C 0.8385(3) 0.0632(1) 0.3032(4)
C5 C 0.7952(3) 0.18759(10) 0.4081(5)
C6 C 0.6788(3) 0.13983(10) 0.5907(4)
C7 C 0.7152(3) 0.1823(1) 0.5400(4)
C8 C 0.8423(3) 0.15136(10) 0.3207(5)
H1 H 0.78980 -0.02170 0.29830
H2 H 0.82220 0.05700 0.18180
H3 H 0.91470 0.05630 0.32430
H4 H 0.82250 0.21700 0.37430
H5 H 0.62310 0.13390 0.68030
H6 H 0.68410 0.20780 0.59840
H7 H 0.89850 0.15500 0.23000
#END
