
#######################################################################
#
#                 Cambridge Crystallographic Data Centre
#                                CCDC
#
#######################################################################
#
# If this CIF has been generated from an entry in the Cambridge
# Structural Database, then it will include bibliographic, chemical,
# crystal, experimental, refinement or atomic coordinate data resulting
# from the CCDC's data processing and validation procedures.
#
#######################################################################

data_CSD_CIF_UBURER
_audit_creation_date 2016-12-17
_audit_creation_method CSD-ConQuest-V1
_database_code_CSD UBURER
_database_code_depnum_ccdc_archive 'CCDC 1522251'
_chemical_formula_sum 'C24 H24 N2 O1'
_chemical_formula_moiety
;
C24 H24 N2 O1
;
_journal_coeditor_code "su4109"
_journal_coden_Cambridge 1959
_journal_volume 1
_journal_year 2016
_journal_page_first x161982
_journal_name_full 'IUCrData '
loop_
_publ_author_name
"R.Arulraj"
"S.Sivakumar"
"A.Thiruvalluvar"
"A.Manimekalai"
_chemical_name_systematic
;
3-benzyl-N-hydroxy-2,6-diphenylpiperidin-4-imine
;
_chemical_name_common
;
t(3)-Benzyl-r(2),c(6)-diphenylpiperidin-4-one oxime
;
_cell_volume   1952.580
_exptl_crystal_colour 'colorless'
_exptl_crystal_density_diffrn 1.213
_exptl_crystal_description 'plate'
_diffrn_ambient_temperature 296
#These two values have been output from a single CSD field.
_refine_ls_R_factor_gt 0.0439
_refine_ls_wR_factor_gt 0.0439
_symmetry_cell_setting monoclinic
_symmetry_space_group_name_H-M 'P 21/c'
_symmetry_Int_Tables_number 14
loop_
_symmetry_equiv_pos_site_id
_symmetry_equiv_pos_as_xyz
1 x,y,z
2 -x,1/2+y,1/2-z
3 -x,-y,-z
4 x,-1/2-y,-1/2+z
_cell_length_a 19.5024(9)
_cell_length_b 8.7503(4)
_cell_length_c 11.6500(6)
_cell_angle_alpha 90
_cell_angle_beta 100.846(2)
_cell_angle_gamma 90
_cell_formula_units_Z 4
loop_
_atom_type_symbol
_atom_type_radius_bond
C 0.68
H 0.23
N 0.68
O 0.68
loop_
_atom_site_label
_atom_site_type_symbol
_atom_site_fract_x
_atom_site_fract_y
_atom_site_fract_z
C1 C 0.71287(6) 0.48150(14) 0.53698(11)
H1 H 0.69634 0.44850 0.60743
C2 C 0.75685(6) 0.62853(14) 0.56741(11)
H2 H 0.77430 0.66042 0.49755
C3 C 0.70827(6) 0.75152(14) 0.59598(11)
C4 C 0.64540(7) 0.77889(15) 0.50245(12)
H3 H 0.65949 0.80945 0.43028
H4 H 0.61663 0.85913 0.52599
C5 C 0.60474(6) 0.62797(15) 0.48523(11)
H5 H 0.59617 0.59506 0.56169
C6 C 0.75469(6) 0.35187(14) 0.49844(11)
C7 C 0.76226(7) 0.21623(16) 0.56053(13)
H6 H 0.73939 0.20356 0.62311
C8 C 0.80339(9) 0.09896(17) 0.53092(16)
H7 H 0.80800 0.00840 0.57347
C9 C 0.83739(9) 0.11667(19) 0.43848(16)
H8 H 0.86552 0.03861 0.41915
C10 C 0.82978(9) 0.2496(2) 0.37481(14)
H9 H 0.85240 0.26094 0.31182
C11 C 0.78851(8) 0.36688(17) 0.40403(13)
H10 H 0.78338 0.45636 0.36017
C12 C 0.81996(7) 0.59761(15) 0.66502(13)
H11 H 0.80428 0.59518 0.73923
H12 H 0.83866 0.49751 0.65266
C13 C 0.87751(7) 0.71372(15) 0.67239(12)
C14 C 0.91929(8) 0.7167(2) 0.58864(14)
H13 H 0.91140 0.64650 0.52765
C15 C 0.97260(9) 0.8224(3) 0.59409(18)
H14 H 0.99976 0.82374 0.53649
C16 C 0.98532(10) 0.9249(2) 0.6844(2)
H15 H 1.02092 0.99643 0.68809
C17 C 0.94536(10) 0.9215(2) 0.7691(2)
H16 H 0.95439 0.98985 0.83127
C18 C 0.89179(8) 0.81725(19) 0.76293(15)
H17 H 0.86482 0.81677 0.82081
C19 C 0.53459(6) 0.64409(15) 0.40399(12)
C20 C 0.48520(7) 0.73866(17) 0.43985(15)
H18 H 0.49632 0.78901 0.51123
C21 C 0.41999(8) 0.75889(19) 0.37115(17)
H19 H 0.38803 0.82420 0.39581
C22 C 0.40208(8) 0.6831(2) 0.26665(16)
H20 H 0.35807 0.69626 0.22057
C23 C 0.45010(8) 0.5872(2) 0.23073(15)
H21 H 0.43821 0.53471 0.16038
C24 C 0.51617(7) 0.56853(18) 0.29906(13)
H22 H 0.54825 0.50432 0.27359
N1 N 0.65090(5) 0.51402(12) 0.44530(9)
N2 N 0.71857(6) 0.80763(13) 0.69892(10)
O1 O 0.66591(5) 0.91461(13) 0.71101(10)
H23 H 0.6278(8) 0.4224(18) 0.4301(13)
H24 H 0.6709(10) 0.935(2) 0.7877(19)
#END
