
#######################################################################
#
#                 Cambridge Crystallographic Data Centre
#                                CCDC
#
#######################################################################
#
# If this CIF has been generated from an entry in the Cambridge
# Structural Database, then it will include bibliographic, chemical,
# crystal, experimental, refinement or atomic coordinate data resulting
# from the CCDC's data processing and validation procedures.
#
#######################################################################

data_CSD_CIF_UDADIO
_audit_creation_date 2012-01-25
_audit_creation_method CSD-ConQuest-V1
_database_code_CSD UDADIO
_database_code_depnum_ccdc_archive 'CCDC 855575'
_chemical_formula_sum 'C28 H26 N2 O8'
_chemical_formula_moiety
;
C28 H26 N2 O8
;
_journal_coden_Cambridge 35
_journal_volume 76
_journal_year 2011
_journal_page_first 7866
_journal_name_full 'J.Org.Chem. '
loop_
_publ_author_name
"P.N.Basa"
"A.Bhowmick"
"M.M.Schulz"
"A.G.Sykes"
_chemical_name_systematic
;
27-((4-Nitrophenyl)imino)-6,9,12,15,18-pentaoxatetracyclo[21.3.1.0^5,26^.0^19,
24^]heptacosa-1(26),2,4,19,21,23-hexaen-25-one
;
_cell_volume   1240.727
_exptl_crystal_colour 'yellow'
_exptl_crystal_density_diffrn 1.388
_exptl_crystal_description 'block'
_diffrn_ambient_temperature 100
#These two values have been output from a single CSD field.
_refine_ls_R_factor_gt 0.0327
_refine_ls_wR_factor_gt 0.0327
_symmetry_cell_setting monoclinic
_symmetry_space_group_name_H-M 'P c'
_symmetry_Int_Tables_number 7
loop_
_symmetry_equiv_pos_site_id
_symmetry_equiv_pos_as_xyz
1 x,y,z
2 x,-y,1/2+z
_cell_length_a 8.2670(6)
_cell_length_b 10.4877(7)
_cell_length_c 14.6808(10)
_cell_angle_alpha 90
_cell_angle_beta 102.900(1)
_cell_angle_gamma 90
_cell_formula_units_Z 2
loop_
_atom_type_symbol
_atom_type_radius_bond
C 0.68
H 0.23
N 0.68
O 0.68
loop_
_atom_site_label
_atom_site_type_symbol
_atom_site_fract_x
_atom_site_fract_y
_atom_site_fract_z
O1 O 0.96355(14) 0.00992(12) 0.34336(8)
O2 O 0.85979(14) -0.55607(11) 0.27048(8)
O3 O 0.95443(14) -0.48419(11) 0.45993(8)
O4 O 0.87691(15) -0.11670(11) 0.16126(8)
O5 O 0.94546(14) -0.36763(11) 0.16538(9)
C1 C 0.58801(19) -0.52943(15) 0.03765(11)
C2 C 0.55519(19) -0.43579(16) -0.04050(11)
N1 N 0.42982(18) -0.93339(14) -0.30875(10)
N2 N 0.50035(17) -0.45883(13) -0.12814(10)
C3 C 0.5895(2) -0.29998(16) -0.01545(12)
C4 C 0.7390(2) -0.58633(15) 0.19431(11)
O6 O 0.30246(16) -0.95463(13) -0.36848(10)
C5 C 0.6472(2) -0.69891(16) 0.18791(12)
H1 H 0.66440 -0.75640 0.23920
C6 C 0.7578(2) -0.14092(16) 0.08266(11)
C7 C 0.3132(2) -0.72854(16) -0.27455(12)
H2 H 0.20990 -0.75240 -0.31370
C8 C 0.5580(2) -0.07816(17) -0.05538(12)
H3 H 0.50480 -0.01260 -0.09580
C9 C 0.70709(19) -0.49841(16) 0.11970(12)
O7 O 0.54088(17) -1.01216(12) -0.28491(9)
C10 C 0.71333(19) -0.26986(15) 0.06398(11)
C11 C 0.3312(2) -0.61296(16) -0.22790(12)
H4 H 0.23980 -0.55610 -0.23510
C12 C 1.0749(2) -0.41695(18) 0.52748(13)
H5 H 1.17340 -0.39860 0.50180
H6 H 1.11070 -0.47010 0.58410
C13 C 1.0240(2) -0.58993(17) 0.42221(13)
H7 H 1.06320 -0.65420 0.47160
H8 H 1.11990 -0.56200 0.39720
C14 C 0.4834(2) -0.57983(16) -0.17028(11)
C15 C 0.6035(2) -0.77722(16) -0.20744(12)
H9 H 0.69480 -0.83410 -0.20100
C16 C 0.6210(2) -0.66121(16) -0.16191(12)
H10 H 0.72580 -0.63640 -0.12500
C17 C 0.5308(2) -0.72686(16) 0.10666(12)
H11 H 0.46960 -0.80410 0.10270
C18 C 0.8935(2) -0.64695(16) 0.34563(12)
H12 H 0.93350 -0.72810 0.32410
H13 H 0.79150 -0.66440 0.36830
C19 C 0.6796(2) -0.04620(16) 0.02210(12)
H14 H 0.71000 0.04060 0.03410
C20 C 0.5119(2) -0.20391(16) -0.07545(12)
H15 H 0.42870 -0.22450 -0.12930
C21 C 0.8025(2) -0.37729(15) 0.12193(12)
C22 C 0.4499(2) -0.80885(16) -0.26279(12)
C23 C 1.0523(2) 0.01493(16) 0.27092(12)
H16 H 1.12790 -0.05910 0.27560
H17 H 1.11950 0.09380 0.27660
C24 C 0.9294(2) 0.01292(16) 0.17889(12)
H18 H 0.83330 0.06800 0.18130
H19 H 0.98150 0.04450 0.12870
C25 C 1.0018(3) -0.29411(18) 0.55262(13)
H20 H 0.89790 -0.31410 0.57260
H21 H 1.08000 -0.25650 0.60700
C26 C 0.5021(2) -0.64446(16) 0.03133(12)
H22 H 0.42420 -0.66620 -0.02450
O8 O 0.96570(15) -0.20060(11) 0.48083(9)
C27 C 1.1090(2) -0.14231(18) 0.45992(13)
H23 H 1.14130 -0.18820 0.40780
H24 H 1.20280 -0.14700 0.51520
C28 C 1.0714(2) -0.00438(17) 0.43310(12)
H25 H 1.01980 0.03630 0.48050
H26 H 1.17680 0.04070 0.43360
#END
