
#######################################################################
#
#                 Cambridge Crystallographic Data Centre
#                                CCDC
#
#######################################################################
#
# If this CIF has been generated from an entry in the Cambridge
# Structural Database, then it will include bibliographic, chemical,
# crystal, experimental, refinement or atomic coordinate data resulting
# from the CCDC's data processing and validation procedures.
#
#######################################################################

data_CSD_CIF_UDOVAL
_audit_creation_date 2007-09-12
_audit_creation_method CSD-ConQuest-V1
_database_code_CSD UDOVAL
_database_code_depnum_ccdc_archive 'CCDC 651865'
_chemical_formula_sum 'C20 H15 N1 O4'
_chemical_formula_moiety
;
C20 H15 N1 O4
;
_journal_coden_Cambridge 35
_journal_volume 72
_journal_year 2007
_journal_page_first 3232
_journal_name_full 'J.Org.Chem. '
loop_
_publ_author_name
"C.Brule"
"K.K.Laali"
"T.Okazaki"
"M.K.Lakshman"
_chemical_name_systematic
;
3,4-dimethoxy-1-nitrobenzo(c)phenanthrene
;
_cell_volume   1512.366
_exptl_crystal_colour 'colorless'
_exptl_crystal_density_diffrn 1.464
_exptl_crystal_description 'irregular'
_diffrn_ambient_temperature 273
#These two values have been output from a single CSD field.
_refine_ls_R_factor_gt 0.0398
_refine_ls_wR_factor_gt 0.0398
_symmetry_cell_setting monoclinic
_symmetry_space_group_name_H-M 'P 21/n'
_symmetry_Int_Tables_number 14
loop_
_symmetry_equiv_pos_site_id
_symmetry_equiv_pos_as_xyz
1 x,y,z
2 1/2-x,1/2+y,1/2-z
3 -x,-y,-z
4 -1/2+x,-1/2-y,-1/2+z
_cell_length_a 10.244(3)
_cell_length_b 4.5021(14)
_cell_length_c 33.041(9)
_cell_angle_alpha 90
_cell_angle_beta 97.034(8)
_cell_angle_gamma 90
_cell_formula_units_Z 4
loop_
_atom_type_symbol
_atom_type_radius_bond
C 0.68
H 0.23
N 0.68
O 0.68
loop_
_atom_site_label
_atom_site_type_symbol
_atom_site_fract_x
_atom_site_fract_y
_atom_site_fract_z
N1 N 0.47512(19) 0.0449(4) 0.06771(6)
O1 O 0.43114(16) 0.2719(4) 0.08134(5)
O2 O 0.41293(16) -0.1082(4) 0.04124(5)
O3 O 0.88324(16) -0.3407(4) 0.03266(5)
O4 O 1.01462(15) -0.0958(4) 0.10010(5)
C1 C 0.8118(2) -0.2082(5) 0.05962(8)
C2 C 0.8794(2) -0.0805(5) 0.09385(8)
C3 C 0.8135(2) 0.0558(5) 0.12359(8)
C4 C 0.8870(2) 0.2119(6) 0.15656(8)
C5 C 0.8255(2) 0.3534(5) 0.18440(8)
C6 C 0.6871(2) 0.3128(5) 0.18595(8)
C7 C 0.6284(3) 0.4318(5) 0.21914(8)
C8 C 0.5030(3) 0.3676(5) 0.22442(9)
C9 C 0.4288(2) 0.1633(5) 0.19830(8)
C10 C 0.3020(3) 0.0725(6) 0.20599(9)
C11 C 0.2333(3) -0.1377(6) 0.18239(9)
C12 C 0.2912(2) -0.2734(6) 0.15109(8)
C13 C 0.4129(2) -0.1871(5) 0.14280(8)
C14 C 0.4838(2) 0.0420(5) 0.16467(8)
C15 C 0.6121(2) 0.1401(5) 0.15616(8)
C16 C 0.6735(2) 0.0529(5) 0.12078(7)
C17 C 0.6111(2) -0.0403(5) 0.08231(8)
C18 C 0.6758(2) -0.1741(5) 0.05330(8)
C19 C 0.8111(3) -0.5119(6) 0.00071(9)
C20 C 1.0792(3) 0.1067(6) 0.07517(9)
H1 H 0.872(2) 0.478(6) 0.2055(8)
H2 H 0.270(2) 0.165(5) 0.2291(8)
H3 H 0.467(3) 0.446(6) 0.2472(9)
H4 H 0.681(3) 0.560(6) 0.2388(9)
H5 H 0.250(3) -0.436(6) 0.1368(8)
H6 H 0.455(2) -0.282(6) 0.1229(8)
H7 H 0.144(2) -0.197(5) 0.1874(7)
H8 H 0.628(2) -0.230(6) 0.0293(8)
H9 H 0.982(3) 0.220(6) 0.1571(8)
H10 H 0.754(2) -0.668(6) 0.0133(8)
H11 H 0.756(3) -0.386(6) -0.0195(8)
H12 H 0.880(3) -0.608(6) -0.0124(9)
H13 H 1.055(3) 0.315(7) 0.0829(9)
H14 H 1.175(3) 0.061(6) 0.0826(8)
H15 H 1.050(2) 0.073(5) 0.0465(8)
#END
