
#######################################################################
#
#                 Cambridge Crystallographic Data Centre
#                                CCDC
#
#######################################################################
#
# If this CIF has been generated from an entry in the Cambridge
# Structural Database, then it will include bibliographic, chemical,
# crystal, experimental, refinement or atomic coordinate data resulting
# from the CCDC's data processing and validation procedures.
#
#######################################################################

data_CSD_CIF_UFAVUU
_audit_creation_date 2013-07-31
_audit_creation_method CSD-ConQuest-V1
_database_code_CSD UFAVUU
_database_code_depnum_ccdc_archive 'CCDC 716935'
_chemical_formula_sum 'C12 H16 N4 O2'
_chemical_formula_moiety
;
C12 H16 N4 O2
;
_journal_coden_Cambridge 1078
_journal_year 2009
_journal_name_full 'CSD Communication(Private Communication) '
loop_
_publ_author_name
"I.N.Polyakova"
"V.V.Saraev"
"E.L.Golod"
_chemical_name_systematic
;
1-(Adamantan-1-yl)-3-nitro-1H-1,2,4-triazole
;
_cell_volume   1213.019
_exptl_crystal_colour 'colorless'
_exptl_crystal_density_diffrn 1.36
_exptl_special_details
;
contribution from Kurnakov Institute of General and Inorganic Chemistry, 
Russian Academy of Sciences,Leninskii pr. 31, Moscow, 119991 Russia
;
_exptl_crystal_description 'prism'
_diffrn_ambient_temperature 296
_refine_special_details
;
C10,C2,C3,C4,C5,C6,C7,C8,C9 and C10A,C2A,C3A,C4A,C5A, C6A,C7A,C8A,C9A 
disordered over two sites with occupancies 0.745:0.255.
;
#These two values have been output from a single CSD field.
_refine_ls_R_factor_gt 0.0514
_refine_ls_wR_factor_gt 0.0514
_symmetry_cell_setting monoclinic
_symmetry_space_group_name_H-M 'P 21/c'
_symmetry_Int_Tables_number 14
loop_
_symmetry_equiv_pos_site_id
_symmetry_equiv_pos_as_xyz
1 x,y,z
2 -x,1/2+y,1/2-z
3 -x,-y,-z
4 x,-1/2-y,-1/2+z
_cell_length_a 11.4984(10)
_cell_length_b 10.4528(8)
_cell_length_c 10.9207(15)
_cell_angle_alpha 90
_cell_angle_beta 112.458(10)
_cell_angle_gamma 90
_cell_formula_units_Z 4
loop_
_atom_type_symbol
_atom_type_radius_bond
C 0.68
H 0.23
N 0.68
O 0.68
loop_
_atom_site_label
_atom_site_type_symbol
_atom_site_fract_x
_atom_site_fract_y
_atom_site_fract_z
O1 O 1.1329(3) 0.0444(3) 0.6813(3)
O2 O 1.2510(3) 0.0370(3) 0.5689(3)
N1 N 0.9254(2) 0.2817(2) 0.3972(2)
N2 N 0.9766(2) 0.2089(2) 0.5076(2)
N3 N 1.0931(3) 0.1937(3) 0.3813(3)
N4 N 1.1597(3) 0.0741(3) 0.5879(3)
C1 C 0.8080(3) 0.3567(3) 0.3685(3)
C2 C 0.7744(5) 0.3622(6) 0.4917(4)
H1 H 0.84250 0.40250 0.56390
H2 H 0.76420 0.27590 0.51880
C3 C 0.6516(7) 0.4383(6) 0.4627(5)
H3 H 0.63140 0.44090 0.54210
C4 C 0.6694(6) 0.5707(5) 0.4226(7)
H4 H 0.73720 0.61170 0.49470
H5 H 0.59320 0.61970 0.40590
C5 C 0.7002(6) 0.5716(7) 0.2989(8)
H6 H 0.71100 0.65950 0.27360
C6 C 0.5943(6) 0.5054(7) 0.1882(5)
H7 H 0.51710 0.55380 0.16760
H8 H 0.61380 0.50290 0.10930
C7 C 0.5752(4) 0.3714(6) 0.2269(8)
H9 H 0.50610 0.33020 0.15460
C8 C 0.6981(4) 0.2947(6) 0.2584(6)
H10 H 0.68640 0.20850 0.28460
H11 H 0.71690 0.28900 0.17930
C9 C 0.8212(4) 0.4954(5) 0.3311(7)
H12 H 0.88810 0.53640 0.40400
H13 H 0.84480 0.49630 0.25480
C10 C 0.5472(5) 0.3728(6) 0.3516(7)
H14 H 0.46850 0.41730 0.33450
H15 H 0.53820 0.28570 0.37730
C11 C 1.0740(3) 0.1612(3) 0.4901(3)
C12 C 0.9963(4) 0.2698(4) 0.3255(4)
H16 H 0.983(3) 0.317(3) 0.250(4)
C13? C 0.8269(11) 0.4364(12) 0.4867(10)
H17? H 0.89560 0.49620 0.50240
H18? H 0.84520 0.38340 0.56480
C14? C 0.7026(11) 0.5069(18) 0.4531(16)
H19? H 0.70480 0.55950 0.52830
C15? C 0.6836(19) 0.5901(18) 0.3338(17)
H20? H 0.74970 0.65400 0.35790
H21? H 0.60390 0.63460 0.30940
C16? C 0.6843(13) 0.5166(14) 0.2146(16)
H22? H 0.67490 0.57450 0.14080
C17? C 0.5722(16) 0.429(2) 0.1806(17)
H23? H 0.56410 0.37940 0.10240
H24? H 0.49660 0.47980 0.15930
C18? C 0.5820(13) 0.3371(13) 0.2922(13)
H25? H 0.50870 0.28030 0.26610
C19? C 0.7034(9) 0.2604(10) 0.3353(15)
H26? H 0.71290 0.20840 0.41210
H27? H 0.70340 0.20470 0.26420
C20? C 0.7988(11) 0.4314(12) 0.2451(11)
H28? H 0.87400 0.48220 0.26210
H29? H 0.78790 0.37380 0.17180
C21? C 0.5896(17) 0.4197(17) 0.4094(16)
H30? H 0.51380 0.47090 0.38540
H31? H 0.59400 0.36490 0.48280
#END
