
#######################################################################
#
#                 Cambridge Crystallographic Data Centre
#                                CCDC
#
#######################################################################
#
# If this CIF has been generated from an entry in the Cambridge
# Structural Database, then it will include bibliographic, chemical,
# crystal, experimental, refinement or atomic coordinate data resulting
# from the CCDC's data processing and validation procedures.
#
#######################################################################

data_CSD_CIF_UHIQEH
_audit_creation_date 2003-10-08
_audit_creation_method CSD-ConQuest-V1
_database_code_CSD UHIQEH
_database_code_depnum_ccdc_archive 'CCDC 135125'
_chemical_formula_sum 'C17 H22 N2 O7'
_chemical_formula_moiety
;
C17 H22 N2 O7
;
_journal_coden_Cambridge 1078
_journal_year 2003
_journal_name_full 'CSD Communication(Private Communication) '
loop_
_publ_author_name
"A.Rieker"
_chemical_name_systematic
;
1-Acetyl-3-(t-butylperoxy)-3-(5-methoxy-2-nitrophenyl)pyrrolidin-2-one
;
_cell_volume   1860.040
_exptl_crystal_colour 'yellow'
_exptl_crystal_density_diffrn 1.308
_exptl_special_details
;
contribution from Institut fur Organische Chemie, Universitat Tubingen, Auf 
der Morgenstelle 18, D-72076 Tubingen, Germany
;
_exptl_crystal_description 'plate'
_diffrn_ambient_temperature 213
#These two values have been output from a single CSD field.
_refine_ls_R_factor_gt 0.057
_refine_ls_wR_factor_gt 0.057
_symmetry_cell_setting monoclinic
_symmetry_space_group_name_H-M 'P 21/c'
_symmetry_Int_Tables_number 14
loop_
_symmetry_equiv_pos_site_id
_symmetry_equiv_pos_as_xyz
1 x,y,z
2 x,1/2-y,1/2+z
3 -x,-y,-z
4 -x,-1/2+y,-1/2-z
_cell_length_a 9.8658(15)
_cell_length_b 28.305(3)
_cell_length_c 6.909(2)
_cell_angle_alpha 90
_cell_angle_beta 105.404(9)
_cell_angle_gamma 90
_cell_formula_units_Z 4
loop_
_atom_type_symbol
_atom_type_radius_bond
C 0.68
H 0.23
N 0.68
O 0.68
loop_
_atom_site_label
_atom_site_type_symbol
_atom_site_fract_x
_atom_site_fract_y
_atom_site_fract_z
O1 O 0.5387(2) 0.24271(9) 1.1748(3)
O2 O 0.3369(2) 0.39801(6) 0.9316(3)
O3 O 0.3924(2) 0.38380(7) 0.7596(3)
O4 O 0.0975(2) 0.36753(7) 0.5525(3)
O5 O -0.1241(3) 0.48382(8) 0.6713(3)
N1 N 0.0347(2) 0.42560(8) 0.7487(3)
N2 N -0.0068(2) 0.29329(9) 0.7789(4)
O6 O -0.0700(2) 0.26486(9) 0.6533(4)
O7 O -0.0611(2) 0.32908(8) 0.8251(3)
C1 C 0.2383(3) 0.31950(9) 0.9445(4)
C2 C 0.1398(3) 0.2834(1) 0.8797(4)
C3 C 0.1755(3) 0.23624(10) 0.9087(4)
H1 H 0.1074(3) 0.21286(10) 0.8596(4)
C4 C 0.3088(3) 0.22349(10) 1.0079(4)
H2 H 0.3328(3) 0.19142(10) 1.0294(4)
C5 C 0.4083(3) 0.25811(11) 1.0764(4)
C6 C 0.3741(3) 0.30563(10) 1.0432(4)
H3 H 0.4440(3) 0.32869(10) 1.0881(4)
C7 C 0.2097(3) 0.37190(9) 0.9140(4)
C8 C 0.1082(3) 0.38617(9) 0.7124(4)
C9 C 0.0706(4) 0.43893(11) 0.9632(4)
H4 H -0.0145(4) 0.44514(11) 1.0069(4)
H5 H 0.1305(4) 0.46708(11) 0.9883(4)
C10 C 0.1493(3) 0.39584(10) 1.0713(4)
H6 H 0.2245(3) 0.40546(10) 1.1883(4)
H7 H 0.0851(3) 0.37456(10) 1.1156(4)
C11 C 0.6451(4) 0.2769(2) 1.2484(6)
H8 H 0.7323(4) 0.2611(2) 1.3149(6)
H9 H 0.6169(4) 0.2974(2) 1.3432(6)
H10 H 0.6588(4) 0.2956(2) 1.1373(6)
C12 C 0.4968(3) 0.41792(11) 0.7448(5)
C13 C 0.5422(4) 0.39950(15) 0.5656(6)
H11 H 0.5838(4) 0.36842(15) 0.5963(6)
H12 H 0.6108(4) 0.42087(15) 0.5358(6)
H13 H 0.4610(4) 0.39742(15) 0.4502(6)
C14 C 0.6162(4) 0.4173(2) 0.9332(6)
H14 H 0.6560(4) 0.3858(2) 0.9544(6)
H15 H 0.5815(4) 0.4263(2) 1.0469(6)
H16 H 0.6880(4) 0.4395(2) 0.9197(6)
C15 C 0.4313(6) 0.46622(14) 0.7052(7)
H17 H 0.3550(6) 0.46543(14) 0.5832(7)
H18 H 0.5017(6) 0.48881(14) 0.6899(7)
H19 H 0.3951(6) 0.47555(14) 0.8171(7)
C16 C -0.0697(3) 0.45052(10) 0.6126(4)
C17 C -0.1103(4) 0.43447(13) 0.4000(4)
H20 H -0.0538(4) 0.40732(13) 0.3854(4)
H21 H -0.0945(4) 0.45984(13) 0.3141(4)
H22 H -0.2089(4) 0.42579(13) 0.3618(4)
#END
