
#######################################################################
#
#                 Cambridge Crystallographic Data Centre
#                                CCDC
#
#######################################################################
#
# If this CIF has been generated from an entry in the Cambridge
# Structural Database, then it will include bibliographic, chemical,
# crystal, experimental, refinement or atomic coordinate data resulting
# from the CCDC's data processing and validation procedures.
#
#######################################################################

data_CSD_CIF_UHISOT
_audit_creation_date 2003-10-08
_audit_creation_method CSD-ConQuest-V1
_database_code_CSD UHISOT
_database_code_depnum_ccdc_archive 'CCDC 208856'
_chemical_formula_sum 'C13 H22 N2 O2'
_chemical_formula_moiety
;
C13 H22 N2 O2
;
_journal_coden_Cambridge 1078
_journal_year 2003
_journal_name_full 'CSD Communication(Private Communication) '
loop_
_publ_author_name
"K.Mereiter"
"C.Sperger"
"J.Frohlich"
_chemical_name_systematic
;
Spiro(5.5)undecane-1,7-dione bis(O-methyl-oxime)
;
_cell_volume    667.901
_exptl_crystal_colour 'colorless'
_exptl_crystal_density_diffrn 1.185
_exptl_special_details
;
contribution from Department of Chemistry, Vienna University of Technology, 
Getreidemarkt 9, A-1060 Vienna, Austria
;
_exptl_crystal_description 'block'
_exptl_crystal_preparation 'ethanol'
_diffrn_ambient_temperature 297
#These two values have been output from a single CSD field.
_refine_ls_R_factor_gt 0.0385
_refine_ls_wR_factor_gt 0.0385
_symmetry_cell_setting monoclinic
_symmetry_space_group_name_H-M 'P 21'
_symmetry_Int_Tables_number 4
loop_
_symmetry_equiv_pos_site_id
_symmetry_equiv_pos_as_xyz
1 x,y,z
2 -x,1/2+y,-z
_cell_length_a 7.2192(5)
_cell_length_b 11.5041(8)
_cell_length_c 8.4568(6)
_cell_angle_alpha 90
_cell_angle_beta 108.017(1)
_cell_angle_gamma 90
_cell_formula_units_Z 2
loop_
_atom_type_symbol
_atom_type_radius_bond
C 0.68
H 0.23
N 0.68
O 0.68
loop_
_atom_site_label
_atom_site_type_symbol
_atom_site_fract_x
_atom_site_fract_y
_atom_site_fract_z
O1 O 0.00067(17) 0.47144(11) 0.17414(13)
O2 O 0.56386(17) 0.25154(11) 0.89546(13)
N1 N -0.00576(18) 0.38767(10) 0.29576(14)
N2 N 0.45725(16) 0.21546(10) 0.73269(14)
C1 C 0.17613(18) 0.24995(11) 0.49657(16)
C2 C 0.1631(2) 0.34898(12) 0.37392(16)
C3 C 0.3510(2) 0.37752(17) 0.3418(2)
H1 H 0.45060 0.39590 0.44550
H2 H 0.33370 0.44450 0.26890
C4 C 0.4126(3) 0.2723(2) 0.2605(2)
H3 H 0.53850 0.28740 0.24600
H4 H 0.31920 0.26000 0.15150
C5 C 0.4251(3) 0.16307(19) 0.3653(2)
H5 H 0.53780 0.16890 0.46370
H6 H 0.44400 0.09630 0.30190
C6 C 0.2439(3) 0.14319(14) 0.4187(2)
H7 H 0.27010 0.08000 0.49860
H8 H 0.13820 0.11880 0.32240
C7 C 0.31537(19) 0.28306(11) 0.66689(16)
C8 C 0.2526(2) 0.38530(14) 0.7488(2)
H9 H 0.23420 0.45300 0.67720
H10 H 0.35140 0.40330 0.85310
C9 C 0.0616(3) 0.3535(2) 0.7800(2)
H11 H 0.08420 0.29000 0.85930
H12 H 0.01480 0.41970 0.82760
C10 C -0.0920(2) 0.31748(18) 0.6195(2)
H13 H -0.13000 0.38490 0.54790
H14 H -0.20640 0.28980 0.64510
C11 C -0.0207(2) 0.22246(14) 0.52636(19)
H15 H -0.11870 0.20990 0.41970
H16 H -0.00720 0.15060 0.58900
C12 C -0.1931(3) 0.50381(16) 0.0870(2)
H17 H -0.19250 0.56080 0.00430
H18 H -0.25360 0.53600 0.16350
H19 H -0.26460 0.43660 0.03400
C13 C 0.7106(3) 0.16884(17) 0.9659(2)
H20 H 0.79260 0.19680 1.07130
H21 H 0.78750 0.15680 0.89280
H22 H 0.65160 0.09680 0.98160
#END
