
#######################################################################
#
#                 Cambridge Crystallographic Data Centre
#                                CCDC
#
#######################################################################
#
# If this CIF has been generated from an entry in the Cambridge
# Structural Database, then it will include bibliographic, chemical,
# crystal, experimental, refinement or atomic coordinate data resulting
# from the CCDC's data processing and validation procedures.
#
#######################################################################

data_CSD_CIF_UHOQUE01
_audit_creation_date 2015-11-04
_audit_creation_method CSD-ConQuest-V1
_database_code_CSD UHOQUE01
_database_code_depnum_ccdc_archive 'CCDC 1435133'
_chemical_formula_sum 'C7 H14 N2 O3'
_chemical_formula_moiety
;
C7 H14 N2 O3
;
_journal_coden_Cambridge 1078
_journal_year 2015
_journal_name_full 'CSD Communication(Private Communication) '
loop_
_publ_author_name
"D.Schollmeyer"
"E.Tretyakov"
_chemical_name_systematic
;
N-(2,3-dimethyl-3-nitrobutan-2-yl)formamide
;
_cell_volume    435.518
_exptl_crystal_colour 'colorless'
_exptl_crystal_density_diffrn 1.328
_exptl_crystal_description 'block'
_diffrn_ambient_temperature 193
#These two values have been output from a single CSD field.
_refine_ls_R_factor_gt 0.0338
_refine_ls_wR_factor_gt 0.0338
_symmetry_cell_setting triclinic
_symmetry_space_group_name_H-M 'P -1'
_symmetry_Int_Tables_number 2
loop_
_symmetry_equiv_pos_site_id
_symmetry_equiv_pos_as_xyz
1 x,y,z
2 -x,-y,-z
_cell_length_a 6.2422(7)
_cell_length_b 6.4745(8)
_cell_length_c 12.2833(14)
_cell_angle_alpha 94.716(9)
_cell_angle_beta 97.964(9)
_cell_angle_gamma 116.158(9)
_cell_formula_units_Z 2
loop_
_atom_type_symbol
_atom_type_radius_bond
C 0.68
H 0.23
N 0.68
O 0.68
loop_
_atom_site_label
_atom_site_type_symbol
_atom_site_fract_x
_atom_site_fract_y
_atom_site_fract_z
O1 O 0.63089(16) 0.80338(15) 0.00282(7)
N1 N 0.37859(17) 0.60848(16) 0.11598(7)
H1 H 0.384(3) 0.478(3) 0.0902(12)
N2 N 0.40605(19) 0.43175(17) 0.33594(8)
O2 O 0.56400(19) 0.41299(18) 0.29358(9)
C1 C 0.21908(19) 0.59193(18) 0.19572(8)
C2 C 0.5079(2) 0.79830(19) 0.07376(9)
H2 H 0.499(2) 0.940(3) 0.1038(11)
C3 C 0.3613(2) 0.64362(19) 0.31972(8)
O3 O 0.2787(2) 0.28605(18) 0.38737(9)
C4 C 0.2133(3) 0.6642(3) 0.40493(10)
H3 H 0.048(3) 0.538(3) 0.3899(13)
H4 H 0.205(3) 0.814(3) 0.4023(13)
H5 H 0.294(3) 0.665(3) 0.4783(14)
C5 C 0.6108(2) 0.8554(2) 0.34226(10)
H6 H 0.690(3) 0.874(3) 0.4177(15)
H7 H 0.592(3) 0.997(3) 0.3349(14)
H8 H 0.714(3) 0.842(3) 0.2926(14)
C6 C 0.0096(2) 0.3441(2) 0.16705(10)
H9 H -0.089(3) 0.331(3) 0.0956(14)
H10 H -0.096(3) 0.309(3) 0.2196(14)
H11 H 0.070(3) 0.227(3) 0.1615(13)
C7 C 0.1157(3) 0.7657(2) 0.18263(10)
H12 H 0.242(3) 0.931(3) 0.2116(14)
H13 H -0.019(3) 0.724(3) 0.2204(13)
H14 H 0.054(3) 0.751(3) 0.1052(14)
#END
