
#######################################################################
#
#                 Cambridge Crystallographic Data Centre
#                                CCDC
#
#######################################################################
#
# If this CIF has been generated from an entry in the Cambridge
# Structural Database, then it will include bibliographic, chemical,
# crystal, experimental, refinement or atomic coordinate data resulting
# from the CCDC's data processing and validation procedures.
#
#######################################################################

data_CSD_CIF_UHUHEK
_audit_creation_date 2003-10-08
_audit_creation_method CSD-ConQuest-V1
_database_code_CSD UHUHEK
_database_code_depnum_ccdc_archive 'CCDC 109503'
_chemical_formula_sum 'C21 H25 N1 O9'
_chemical_formula_moiety
;
C21 H25 N1 O9
;
_journal_coden_Cambridge 599
_journal_volume 18
_journal_year 1999
_journal_page_first 343
_journal_name_full 'J.Carbohydr.Chem. '
loop_
_publ_author_name
"J.M.J.Tronchet"
"S.Zerelli"
"G.Bernardinelli"
_chemical_name_systematic
;
(2S)-2-(1,2:3,4-Di-O-isopropylidene-\b-D-arabinopyranos-1-C-yl)-6-methoxy-3-ni
tro-2H-chromene
;
_chemical_melting_point 436.85
_cell_volume   1030.936
_exptl_crystal_colour 'yellow'
_exptl_crystal_density_diffrn 1.403
_exptl_special_details
;
Melting point range 436.85-438.85K

;
_exptl_crystal_description 'needle'
_exptl_crystal_preparation 'ether/hexane'
_diffrn_ambient_temperature 200
#These two values have been output from a single CSD field.
_refine_ls_R_factor_gt 0.038
_refine_ls_wR_factor_gt 0.038
_symmetry_cell_setting monoclinic
_symmetry_space_group_name_H-M 'P 21'
_symmetry_Int_Tables_number 4
loop_
_symmetry_equiv_pos_site_id
_symmetry_equiv_pos_as_xyz
1 x,y,z
2 -x,1/2+y,-z
_cell_length_a 9.438(2)
_cell_length_b 8.743(3)
_cell_length_c 13.033(2)
_cell_angle_alpha 90
_cell_angle_beta 106.54(1)
_cell_angle_gamma 90
_cell_formula_units_Z 2
loop_
_atom_type_symbol
_atom_type_radius_bond
C 0.68
H 0.23
N 0.68
O 0.68
loop_
_atom_site_label
_atom_site_type_symbol
_atom_site_fract_x
_atom_site_fract_y
_atom_site_fract_z
O1 O -0.0358(4) 0.50000 0.8193(3)
O2 O -0.0404(4) 0.2605(6) 0.8933(3)
O3 O -0.2739(5) 0.2180(6) 0.7871(3)
O4 O -0.2709(4) 0.5030(6) 0.5912(3)
O5 O -0.3030(5) 0.6975(6) 0.6950(3)
O6 O 0.0818(4) 0.3672(6) 0.6604(3)
O7 O 0.3826(5) 0.2354(8) 1.0032(4)
O8 O 0.2311(5) 0.0720(7) 0.9036(4)
O9 O 0.3159(5) 0.9479(6) 0.6728(4)
N1 N 0.2843(6) 0.2014(9) 0.9214(5)
C1 C -0.0489(6) 0.3417(7) 0.7971(4)
C2 C -0.2027(6) 0.2999(8) 0.7213(5)
C3 C -0.3061(7) 0.4315(8) 0.6787(4)
C4 C -0.2992(6) 0.5629(8) 0.7578(4)
C5 C -0.1586(6) 0.5602(9) 0.8515(5)
C6 C -0.1654(7) 0.1588(9) 0.8786(6)
C7 C -0.2260(7) 0.1751(10) 0.9739(6)
C8 C -0.1228(8) -0.0002(9) 0.8593(7)
C9 C -0.3312(7) 0.6532(8) 0.5856(5)
C10 C -0.2505(7) 0.7594(9) 0.5317(6)
C11 C -0.4969(7) 0.6524(8) 0.5309(5)
C12 C 0.0825(7) 0.2937(8) 0.7593(5)
C13 C 0.2287(6) 0.3210(8) 0.8416(4)
C14 C 0.3085(7) 0.4454(9) 0.8430(5)
C15 C 0.2580(6) 0.5558(8) 0.7576(4)
C16 C 0.3186(7) 0.7028(9) 0.7613(5)
C17 C 0.2673(6) 0.7997(8) 0.6768(5)
C18 C 0.1603(6) 0.7514(8) 0.5850(5)
C19 C 0.1004(7) 0.6082(8) 0.5805(5)
C20 C 0.1446(6) 0.5124(8) 0.6674(4)
C21 C 0.4485(7) 0.9902(9) 0.7515(6)
H1 H -0.185(6) 0.236(7) 0.656(4)
H2 H -0.413(6) 0.389(7) 0.659(4)
H3 H -0.392(6) 0.561(7) 0.790(4)
H4 H -0.131(7) 0.667(7) 0.872(5)
H5 H -0.170(6) 0.491(7) 0.909(5)
H6 H -0.32352 0.10273 0.96063
H7 H -0.14169 0.13653 1.04506
H8 H -0.25731 0.29169 0.98811
H9 H -0.03831 -0.03907 0.93032
H10 H -0.22014 -0.07288 0.84589
H11 H -0.07906 -0.01209 0.79060
H12 H -0.26971 0.72338 0.44881
H13 H -0.29329 0.87492 0.53366
H14 H -0.13200 0.75989 0.57084
H15 H -0.53960 0.76812 0.53288
H16 H -0.51602 0.61658 0.44803
H17 H -0.55562 0.57528 0.57019
H18 H 0.087(6) 0.188(8) 0.749(5)
H19 H 0.400(6) 0.459(7) 0.900(5)
H20 H 0.395(7) 0.731(7) 0.825(5)
H21 H 0.141(6) 0.826(7) 0.519(5)
H22 H 0.035(6) 0.582(7) 0.521(5)
H23 H 0.43081 0.97358 0.82984
H24 H 0.53575 0.91401 0.74309
H25 H 0.48684 1.10742 0.74839
#END
