
#######################################################################
#
#                 Cambridge Crystallographic Data Centre
#                                CCDC
#
#######################################################################
#
# If this CIF has been generated from an entry in the Cambridge
# Structural Database, then it will include bibliographic, chemical,
# crystal, experimental, refinement or atomic coordinate data resulting
# from the CCDC's data processing and validation procedures.
#
#######################################################################

data_CSD_CIF_UPUXAF
_audit_creation_date 2011-07-11
_audit_creation_method CSD-ConQuest-V1
_database_code_CSD UPUXAF
_database_code_depnum_ccdc_archive 'CCDC 804663'
_chemical_formula_sum 'C27 H25 N3 O4'
_chemical_formula_moiety
;
C27 H25 N3 O4
;
_journal_coden_Cambridge 16
_journal_volume 67
_journal_year 2011
_journal_page_first 2863
_journal_name_full 'Tetrahedron '
loop_
_publ_author_name
"Hui Li"
"Chao-Guo Yan"
_chemical_name_systematic
;
17,17-Dimethyl-12-(4-nitrobenzyl)-14-oxa-9,12-diazapentacyclo[11.7.1.0^2,11^.0
^5,10^.0^15,20^]henicosa-2(11),3,5,7,9,15(20)-hexaen-19-one
;
_cell_volume   4568.499
_exptl_crystal_colour 'colorless'
_exptl_crystal_density_diffrn 1.324
_exptl_crystal_description 'block'
_diffrn_ambient_temperature 296
#These two values have been output from a single CSD field.
_refine_ls_R_factor_gt 0.051
_refine_ls_wR_factor_gt 0.051
_symmetry_cell_setting monoclinic
_symmetry_space_group_name_H-M 'C 2/c'
_symmetry_Int_Tables_number 15
loop_
_symmetry_equiv_pos_site_id
_symmetry_equiv_pos_as_xyz
1 x,y,z
2 -x,y,1/2-z
3 1/2+x,1/2+y,z
4 1/2-x,1/2+y,1/2-z
5 -x,-y,-z
6 x,-y,-1/2+z
7 -1/2-x,-1/2-y,-z
8 -1/2+x,-1/2-y,-1/2+z
_cell_length_a 34.338(6)
_cell_length_b 6.7802(11)
_cell_length_c 20.611(3)
_cell_angle_alpha 90
_cell_angle_beta 107.816(2)
_cell_angle_gamma 90
_cell_formula_units_Z 8
loop_
_atom_type_symbol
_atom_type_radius_bond
C 0.68
H 0.23
N 0.68
O 0.68
loop_
_atom_site_label
_atom_site_type_symbol
_atom_site_fract_x
_atom_site_fract_y
_atom_site_fract_z
C1 C 0.17198(7) 0.3892(4) 0.79789(11)
H1 H 0.16130 0.45960 0.82720
C2 C 0.19228(7) 0.2135(4) 0.82189(11)
H2 H 0.19390 0.16620 0.86500
C3 C 0.20967(6) 0.1129(3) 0.78112(11)
H3 H 0.22330 -0.00510 0.79600
C4 C 0.20711(6) 0.1877(3) 0.71572(10)
C5 C 0.18366(5) 0.3619(3) 0.69438(9)
C6 C 0.17908(5) 0.4369(3) 0.62717(9)
C7 C 0.20183(5) 0.3554(3) 0.58928(9)
C8 C 0.22623(6) 0.1874(3) 0.61312(10)
H4 H 0.24170 0.13510 0.58730
C9 C 0.22756(6) 0.1005(3) 0.67325(10)
H5 H 0.24200 -0.01640 0.68630
C10 C 0.20042(5) 0.4571(3) 0.52334(9)
H6 H 0.22500 0.42500 0.51080
C11 C 0.19878(6) 0.6781(3) 0.53578(10)
H7 H 0.22100 0.71690 0.57560
H8 H 0.20110 0.75160 0.49670
C12 C 0.15815(6) 0.7174(3) 0.5469(1)
H9 H 0.15710 0.85710 0.55850
C13 C 0.16251(5) 0.3969(3) 0.46667(9)
C14 C 0.16233(6) 0.2104(3) 0.43151(10)
C15 C 0.12380(6) 0.1509(3) 0.37662(11)
H10 H 0.12180 0.00820 0.37620
H11 H 0.12620 0.19160 0.33290
C16 C 0.08407(6) 0.2372(3) 0.38440(11)
C17 C 0.09019(6) 0.4611(3) 0.39461(10)
H12 H 0.09130 0.52070 0.35240
H13 H 0.06700 0.51690 0.40570
C18 C 0.12847(6) 0.5091(3) 0.4501(1)
C19 C 0.07512(7) 0.1453(4) 0.44621(13)
H14 H 0.07050 0.00640 0.43880
H15 H 0.05120 0.20590 0.45240
H16 H 0.09800 0.16630 0.48620
C20 C 0.04828(7) 0.1968(4) 0.31974(14)
H17 H 0.05400 0.25510 0.28120
H18 H 0.02370 0.25310 0.32470
H19 H 0.04480 0.05710 0.31290
C21 C 0.11067(6) 0.5844(3) 0.60433(11)
H20 H 0.11000 0.49150 0.63970
H21 H 0.09380 0.53120 0.56120
C22 C 0.09243(5) 0.7758(3) 0.6173(1)
C23 C 0.05421(6) 0.8330(3) 0.57710(12)
H22 H 0.04010 0.75520 0.54020
C24 C 0.03645(7) 1.0047(4) 0.59076(14)
H23 H 0.01080 1.04370 0.56300
C25 C 0.05715(7) 1.1158(3) 0.64557(13)
C26 C 0.09508(7) 1.0637(3) 0.68641(13)
H24 H 0.10880 1.14110 0.72360
C27 C 0.11276(7) 0.8942(3) 0.67153(12)
H25 H 0.13890 0.85900 0.69850
N1 N 0.16679(5) 0.4635(3) 0.73658(9)
N2 N 0.15289(5) 0.6001(2) 0.60240(8)
N3 N 0.03806(8) 1.2985(4) 0.66001(18)
O1 O 0.12530(4) 0.67898(19) 0.48335(7)
O2 O 0.19277(4) 0.1038(2) 0.44606(7)
O3 O 0.00767(8) 1.3579(4) 0.61686(18)
O4 O 0.05461(9) 1.3859(4) 0.71223(16)
#END
