
#######################################################################
#
#                 Cambridge Crystallographic Data Centre
#                                CCDC
#
#######################################################################
#
# If this CIF has been generated from an entry in the Cambridge
# Structural Database, then it will include bibliographic, chemical,
# crystal, experimental, refinement or atomic coordinate data resulting
# from the CCDC's data processing and validation procedures.
#
#######################################################################

data_CSD_CIF_UREROA
_audit_creation_date 2016-07-04
_audit_creation_method CSD-ConQuest-V1
_database_code_CSD UREROA
_database_code_depnum_ccdc_archive 'CCDC 1489809'
_chemical_formula_sum 'C26 H20 N2 O6'
_chemical_formula_moiety
;
C26 H20 N2 O6
;
_journal_coden_Cambridge 1078
_journal_year 2016
_journal_name_full 'CSD Communication(Private Communication) '
loop_
_publ_author_name
"Xie-Xue Peng"
"Bing Han"
_chemical_name_systematic
;
5-((1,3-dioxo-1,3-dihydro-2H-isoindol-2-yl)oxy)-4,4-dimethyl-3-phenyl-4,5-dihy
dro-1,2-oxazol-5-yl benzoate
;
_cell_volume   1119.867
_exptl_crystal_colour 'light colorless'
_exptl_crystal_density_diffrn 1.354
_exptl_crystal_description 'block'
_diffrn_ambient_temperature 295
#These two values have been output from a single CSD field.
_refine_ls_R_factor_gt 0.0703
_refine_ls_wR_factor_gt 0.0703
_symmetry_cell_setting triclinic
_symmetry_space_group_name_H-M 'P -1'
_symmetry_Int_Tables_number 2
loop_
_symmetry_equiv_pos_site_id
_symmetry_equiv_pos_as_xyz
1 x,y,z
2 -x,-y,-z
_cell_length_a 9.0157(15)
_cell_length_b 11.7092(17)
_cell_length_c 12.3154(15)
_cell_angle_alpha 115.906(13)
_cell_angle_beta 97.997(12)
_cell_angle_gamma 99.564(13)
_cell_formula_units_Z 2
loop_
_atom_type_symbol
_atom_type_radius_bond
C 0.68
H 0.23
N 0.68
O 0.68
loop_
_atom_site_label
_atom_site_type_symbol
_atom_site_fract_x
_atom_site_fract_y
_atom_site_fract_z
O1 O 0.8210(3) 0.1141(3) 0.2088(2)
O2 O 0.9227(3) 0.2779(3) 0.1799(2)
O3 O 0.9059(4) 0.4911(3) 0.2642(3)
O4 O 0.8526(5) 0.1825(4) 0.5046(3)
O5 O 0.8754(3) 0.3269(3) 0.3749(2)
O6 O 1.2001(3) 0.4163(3) 0.3911(3)
N1 N 0.6743(4) 0.0468(3) 0.2100(3)
N2 N 0.9988(5) 0.2929(4) 0.4239(3)
C1 C 0.5961(5) 0.3605(4) 0.2955(4)
H1 H 0.48510 0.34210 0.27400
H2 H 0.64030 0.43660 0.28840
H3 H 0.63030 0.37660 0.37950
C2 C 0.2945(6) 0.0884(5) 0.1583(4)
H4 H 0.30820 0.13060 0.11020
C3 C 0.1478(7) 0.0431(5) 0.1658(5)
H5 H 0.06300 0.05480 0.12320
C4 C 0.1265(7) -0.0189(6) 0.2358(6)
H6 H 0.02690 -0.05010 0.24020
C5 C 0.2509(8) -0.0357(5) 0.2997(5)
H7 H 0.23520 -0.07900 0.34660
C6 C 0.4014(6) 0.0120(4) 0.2948(4)
H8 H 0.48610 0.00350 0.34050
C7 C 0.4228(5) 0.0721(4) 0.2212(4)
C8 C 0.5796(5) 0.1185(4) 0.2119(3)
C9 C 0.6475(5) 0.2432(4) 0.2078(4)
C10 C 0.8182(5) 0.2446(4) 0.2428(4)
C11 C 0.9771(8) 0.2274(5) 0.4941(4)
C12 C 1.1344(7) 0.2287(5) 0.5451(4)
C13 C 1.1837(9) 0.1743(5) 0.6183(5)
H9 H 1.11330 0.12750 0.64210
C14 C 1.3398(11) 0.1914(7) 0.6549(6)
H10 H 1.37570 0.15560 0.70440
C15 C 1.4454(8) 0.2607(7) 0.6200(5)
H11 H 1.55080 0.27090 0.64610
C16 C 1.3952(7) 0.3153(5) 0.5460(4)
H12 H 1.46520 0.36190 0.52190
C17 C 1.2395(6) 0.2981(4) 0.5101(4)
C18 C 1.1537(5) 0.3478(4) 0.4347(4)
C19 C 0.9612(6) 0.4079(5) 0.2029(4)
C20 C 1.0770(6) 0.4231(6) 0.1329(4)
C21 C 1.1356(7) 0.5475(6) 0.1501(5)
H13 H 1.10480 0.61760 0.20640
C22 C 1.2393(8) 0.5697(8) 0.0850(6)
H14 H 1.27940 0.65460 0.09860
C23 C 1.2831(7) 0.4681(9) 0.0011(6)
H15 H 1.35200 0.48370 -0.04350
C24 C 1.2258(7) 0.3402(8) -0.0192(5)
H16 H 1.25670 0.27050 -0.07610
C25 C 1.1213(6) 0.3195(6) 0.0479(5)
H17 H 1.08110 0.23490 0.03500
C26 C 0.6076(5) 0.2228(4) 0.0738(4)
H18 H 0.64510 0.15120 0.02070
H19 H 0.65560 0.30130 0.07190
H20 H 0.49730 0.20320 0.04510
#END
