
#######################################################################
#
#                 Cambridge Crystallographic Data Centre
#                                CCDC
#
#######################################################################
#
# If this CIF has been generated from an entry in the Cambridge
# Structural Database, then it will include bibliographic, chemical,
# crystal, experimental, refinement or atomic coordinate data resulting
# from the CCDC's data processing and validation procedures.
#
#######################################################################

data_CSD_CIF_UTOSAZ
_audit_creation_date 2016-09-05
_audit_creation_method CSD-ConQuest-V1
_database_code_CSD UTOSAZ
_database_code_depnum_ccdc_archive 'CCDC 1502761'
_chemical_formula_sum 'C10 H13 N1 O1'
_chemical_formula_moiety
;
C10 H13 N1 O1
;
_journal_coden_Cambridge 579
_journal_volume 35
_journal_year 2016
_journal_page_first 2026
_journal_name_full 'Organometallics '
loop_
_publ_author_name
"T.Shimbayashi"
"K.Okamoto"
"Kouichi Ohe"
_chemical_name_systematic
;
N-hydroxy-2-methyl-1-phenylpropan-1-imine
;
_cell_volume   3904.988
_exptl_crystal_colour 'colorless'
_exptl_crystal_density_diffrn 1.11
_exptl_crystal_description 'prism'
_diffrn_ambient_temperature 143
#These two values have been output from a single CSD field.
_refine_ls_R_factor_gt 0.0509
_refine_ls_wR_factor_gt 0.0509
_symmetry_cell_setting tetragonal
_symmetry_space_group_name_H-M 'I 41/a'
_symmetry_Int_Tables_number 88
loop_
_symmetry_equiv_pos_site_id
_symmetry_equiv_pos_as_xyz
1 x,y,z
2 3/4-y,1/4+x,1/4+z
3 1/2-x,-y,1/2+z
4 3/4+y,3/4-x,3/4+z
5 1/2+x,1/2+y,1/2+z
6 1/4-y,3/4+x,3/4+z
7 -x,1/2-y,z
8 1/4+y,1/4-x,1/4+z
9 -x,-y,-z
10 -3/4+y,-1/4-x,-1/4-z
11 -1/2+x,y,-1/2-z
12 -3/4-y,-3/4+x,-3/4-z
13 -1/2-x,-1/2-y,-1/2-z
14 -1/4+y,-3/4-x,-3/4-z
15 x,-1/2+y,-z
16 -1/4-y,-1/4+x,-1/4-z
_cell_length_a 18.2136(14)
_cell_length_b 18.2136(14)
_cell_length_c 11.7714(14)
_cell_angle_alpha 90
_cell_angle_beta 90
_cell_angle_gamma 90
_cell_formula_units_Z 16
loop_
_atom_type_symbol
_atom_type_radius_bond
C 0.68
H 0.23
N 0.68
O 0.68
loop_
_atom_site_label
_atom_site_type_symbol
_atom_site_fract_x
_atom_site_fract_y
_atom_site_fract_z
O1 O 0.38752(5) 0.69997(5) 1.05675(8)
N1 N 0.45349(6) 0.66840(6) 1.01980(9)
C1 C 0.44802(7) 0.63742(7) 0.92214(11)
C2 C 0.37821(8) 0.63616(9) 0.85275(13)
C3 C 0.39249(11) 0.63685(14) 0.72525(15)
C4 C 0.32980(9) 0.57128(11) 0.88859(18)
C5 C 0.51708(7) 0.60249(7) 0.88128(11)
C6 C 0.52008(9) 0.52796(8) 0.85641(14)
C7 C 0.58503(10) 0.49615(9) 0.82105(15)
C8 C 0.64719(9) 0.53829(9) 0.80811(13)
C9 C 0.64496(9) 0.61207(9) 0.83184(14)
C10 C 0.58018(8) 0.64435(8) 0.86892(13)
H1 H 0.39506 0.72394 1.11658
H2 H 0.35052 0.68203 0.87125
H3 H 0.34558 0.63598 0.68449
H4 H 0.41961 0.68142 0.70493
H5 H 0.42147 0.59358 0.70429
H6 H 0.28477 0.57109 0.84301
H7 H 0.35655 0.52525 0.87648
H8 H 0.31715 0.57604 0.96917
H9 H 0.47717 0.49869 0.86377
H10 H 0.58680 0.44499 0.80560
H11 H 0.69159 0.51635 0.78278
H12 H 0.68789 0.64112 0.82287
H13 H 0.57908 0.69533 0.88589
#END
