
#######################################################################
#
#                 Cambridge Crystallographic Data Centre
#                                CCDC
#
#######################################################################
#
# If this CIF has been generated from an entry in the Cambridge
# Structural Database, then it will include bibliographic, chemical,
# crystal, experimental, refinement or atomic coordinate data resulting
# from the CCDC's data processing and validation procedures.
#
#######################################################################

data_CSD_CIF_UWOQII
_audit_creation_date 2016-10-05
_audit_creation_method CSD-ConQuest-V1
_database_code_CSD UWOQII
_database_code_depnum_ccdc_archive 'CCDC 909537'
_chemical_formula_sum 'C27 H23 N7 O2'
_chemical_formula_moiety
;
C27 H23 N7 O2
;
_journal_coden_Cambridge 34
_journal_volume 53
_journal_year 2016
_journal_page_first 1640
_journal_name_full 'J.Heterocycl.Chem. '
loop_
_publ_author_name
"Ting-Hong Fei"
"Ying-Lei Zhou"
"Le Huang"
"Fang-Ming Liu"
_chemical_name_systematic
;
3-(4-methoxyphenyl)-5-(3-methyl-1-phenyl-5-(1H-1,2,4-triazol-1-yl)-1H-pyrazol-
4-yl)-4-phenyl-4,5-dihydro-1,2,4-oxadiazole
;
_cell_volume   1241.609
_exptl_crystal_density_diffrn 1.277
_diffrn_ambient_temperature 296
#These two values have been output from a single CSD field.
_refine_ls_R_factor_gt 0.0512
_refine_ls_wR_factor_gt 0.0512
_symmetry_cell_setting triclinic
_symmetry_space_group_name_H-M 'P -1'
_symmetry_Int_Tables_number 2
loop_
_symmetry_equiv_pos_site_id
_symmetry_equiv_pos_as_xyz
1 x,y,z
2 -x,-y,-z
_cell_length_a 7.607(5)
_cell_length_b 12.478(7)
_cell_length_c 15.128(9)
_cell_angle_alpha 114.315(10)
_cell_angle_beta 92.963(13)
_cell_angle_gamma 105.226(11)
_cell_formula_units_Z 2
loop_
_atom_type_symbol
_atom_type_radius_bond
C 0.68
H 0.23
N 0.68
O 0.68
loop_
_atom_site_label
_atom_site_type_symbol
_atom_site_fract_x
_atom_site_fract_y
_atom_site_fract_z
O1 O 0.3391(3) 0.12005(15) 0.93038(14)
O2 O 0.5334(2) 0.43055(13) 0.58155(10)
N1 N 0.4719(3) 0.33450(15) 0.61278(14)
N2 N 0.6557(2) 0.50327(13) 0.74314(12)
N3 N 0.7163(2) 0.83679(14) 0.67465(13)
N4 N 0.5712(2) 0.82574(15) 0.72414(14)
N5 N 0.9115(2) 0.71708(14) 0.58798(12)
N6 N 1.0929(3) 0.78588(19) 0.62467(16)
N7 N 1.0624(3) 0.6371(2) 0.47057(15)
C1 C 0.3103(5) -0.0090(2) 0.8912(3)
H1 H 0.42310 -0.02580 0.87400
H2 H 0.21480 -0.05160 0.83350
H3 H 0.27330 -0.03710 0.93980
C2 C 0.3924(3) 0.17668(19) 0.87084(17)
C3 C 0.4164(3) 0.30260(19) 0.91240(17)
H4 H 0.39590 0.34240 0.97620
C4 C 0.4703(3) 0.36899(17) 0.85961(16)
H5 H 0.48730 0.45360 0.88860
C5 C 0.5000(3) 0.31111(16) 0.76297(15)
C6 C 0.4759(3) 0.18497(18) 0.72275(17)
H6 H 0.49570 0.14480 0.65880
C7 C 0.4229(3) 0.11777(19) 0.77578(18)
H7 H 0.40800 0.03340 0.74760
C8 C 0.5467(3) 0.38058(16) 0.70423(15)
C9 C 0.6775(3) 0.53091(16) 0.65737(14)
H8 H 0.79830 0.52700 0.63930
C10 C 0.8122(3) 0.55740(17) 0.82140(14)
C11 C 0.9240(3) 0.4907(2) 0.83202(19)
H9 H 0.89870 0.40810 0.78730
C12 C 1.0733(3) 0.5464(3) 0.9090(2)
H10 H 1.14680 0.50080 0.91680
C13 C 1.1132(4) 0.6693(3) 0.9739(2)
H11 H 1.21320 0.70670 1.02590
C14 C 1.0062(4) 0.7363(3) 0.96185(19)
H12 H 1.03590 0.81990 1.00480
C15 C 0.8543(3) 0.68127(19) 0.88666(16)
H13 H 0.78050 0.72720 0.87990
C16 C 0.6569(3) 0.65225(17) 0.67265(14)
C17 C 0.5333(3) 0.71409(19) 0.72171(16)
C18 C 0.7699(2) 0.73364(16) 0.64361(13)
C19 C 0.3766(4) 0.6696(2) 0.7673(2)
H14 H 0.28150 0.70570 0.76290
H15 H 0.42160 0.69370 0.83540
H16 H 0.32670 0.58110 0.73290
C20 C 0.7941(3) 0.94864(17) 0.66474(15)
C21 C 0.8900(4) 1.0546(2) 0.7471(2)
H17 H 0.90370 1.05410 0.80840
C22 C 0.9664(4) 1.1622(2) 0.7379(3)
H18 H 1.03390 1.23420 0.79320
C23 C 0.9435(4) 1.1637(2) 0.6488(3)
H19 H 0.99340 1.23660 0.64310
C24 C 0.8471(6) 1.0580(3) 0.5683(2)
H20 H 0.83370 1.05850 0.50700
C25 C 0.7683(5) 0.9491(2) 0.5756(2)
H21 H 0.69900 0.87770 0.52040
C26 C 0.8995(3) 0.6296(2) 0.49685(16)
H22 H 0.78930 0.57070 0.45710
C27 C 1.1744(3) 0.7329(2) 0.5517(2)
H23 H 1.30210 0.75990 0.55590
#END
