
#######################################################################
#
#                 Cambridge Crystallographic Data Centre
#                                CCDC
#
#######################################################################
#
# If this CIF has been generated from an entry in the Cambridge
# Structural Database, then it will include bibliographic, chemical,
# crystal, experimental, refinement or atomic coordinate data resulting
# from the CCDC's data processing and validation procedures.
#
#######################################################################

data_CSD_CIF_UWUGEA
_audit_creation_date 2016-10-05
_audit_creation_method CSD-ConQuest-V1
_database_code_CSD UWUGEA
_database_code_depnum_ccdc_archive 'CCDC 1041247'
_chemical_formula_sum 'C15 H13 N3 O4'
_chemical_formula_moiety
;
C15 H13 N3 O4
;
_journal_coden_Cambridge 1012
_journal_volume 42
_journal_year 2016
_journal_page_first 5927
_journal_name_full 'Res.Chem.Intermed. '
loop_
_publ_author_name
"A.Alizadeh"
"F.Bayat"
"Zhe Zhu"
_chemical_name_systematic
;
5-nitro-2,3,4,12a-tetrahydro-1H,7H-chromeno[3',2':5,6]pyrido[1,2-a]pyrimidin-7
-one
;
_cell_volume   2642.033
_exptl_crystal_density_diffrn 1.505
_diffrn_ambient_temperature 293
#These two values have been output from a single CSD field.
_refine_ls_R_factor_gt 0.0559
_refine_ls_wR_factor_gt 0.0559
_symmetry_cell_setting monoclinic
_symmetry_space_group_name_H-M 'C 2/c'
_symmetry_Int_Tables_number 15
loop_
_symmetry_equiv_pos_site_id
_symmetry_equiv_pos_as_xyz
1 x,y,z
2 -x,y,1/2-z
3 1/2+x,1/2+y,z
4 1/2-x,1/2+y,1/2-z
5 -x,-y,-z
6 x,-y,-1/2+z
7 -1/2-x,-1/2-y,-z
8 -1/2+x,-1/2-y,-1/2+z
_cell_length_a 19.2939(17)
_cell_length_b 12.4436(11)
_cell_length_c 14.2947(13)
_cell_angle_alpha 90
_cell_angle_beta 129.661(1)
_cell_angle_gamma 90
_cell_formula_units_Z 8
loop_
_atom_type_symbol
_atom_type_radius_bond
C 0.68
H 0.23
N 0.68
O 0.68
loop_
_atom_site_label
_atom_site_type_symbol
_atom_site_fract_x
_atom_site_fract_y
_atom_site_fract_z
O1 O 0.12982(12) 0.80388(16) 0.29437(16)
C1 C 0.09477(17) 0.8698(2) 0.1885(2)
H1 H 0.11990 0.84330 0.15100
C2 C -0.05856(18) 0.9446(2) 0.0622(2)
H2 H -0.12060 0.93510 0.00690
C3 C -0.00493(17) 0.8594(2) 0.0985(2)
O2 O -0.16479(15) 1.1168(2) -0.0182(2)
C4 C -0.02354(18) 1.0491(2) 0.1057(2)
C5 C 0.07274(19) 1.0636(2) 0.1933(2)
N1 N 0.12654(14) 0.9773(2) 0.2305(2)
N2 N -0.08238(17) 1.1342(2) 0.0597(2)
C6 C -0.03798(19) 0.7489(3) 0.0623(3)
C7 C 0.10741(19) 0.6972(2) 0.2628(3)
O3 O -0.11500(15) 0.7263(2) -0.0285(2)
O4 O -0.05555(17) 1.2298(2) 0.0919(3)
N3 N 0.10847(18) 1.1587(2) 0.2355(3)
H3 H 0.07210 1.21160 0.21220
C8 C 0.02818(19) 0.6671(2) 0.1486(3)
C9 C 0.1656(2) 0.6210(3) 0.3496(3)
H4 H 0.21740 0.64150 0.42610
C10 C 0.0098(3) 0.5577(3) 0.1225(4)
H5 H -0.04260 0.53580 0.04720
C11 C 0.2255(2) 0.9897(3) 0.3125(4)
H6 H 0.25120 0.95820 0.39060
H7 H 0.24850 0.94980 0.27910
C12 C 0.1444(3) 0.5137(3) 0.3191(4)
H8 H 0.18290 0.46160 0.37630
C13 C 0.0689(3) 0.4821(3) 0.2078(4)
H9 H 0.05710 0.40930 0.18930
C14 C 0.2040(3) 1.1831(3) 0.3181(4)
H10 H 0.21510 1.24490 0.28790
H11 H 0.22250 1.20170 0.39710
C15 C 0.2548(3) 1.0974(4) 0.3306(6)
H12 H 0.31220 1.10150 0.41220
H13 H 0.26700 1.11050 0.27540
#END
