
#######################################################################
#
#                 Cambridge Crystallographic Data Centre
#                                CCDC
#
#######################################################################
#
# If this CIF has been generated from an entry in the Cambridge
# Structural Database, then it will include bibliographic, chemical,
# crystal, experimental, refinement or atomic coordinate data resulting
# from the CCDC's data processing and validation procedures.
#
#######################################################################

data_CSD_CIF_UYISEC
_audit_creation_date 2016-11-04
_audit_creation_method CSD-ConQuest-V1
_database_code_CSD UYISEC
_database_code_depnum_ccdc_archive 'CCDC 1048022'
_chemical_formula_sum 'C34 H25 N1 O3'
_chemical_formula_moiety
;
C34 H25 N1 O3
;
_journal_coden_Cambridge 1540
_journal_volume 5
_journal_year 2015
_journal_page_first 15987
_journal_name_full 'Scientific Reports '
loop_
_publ_author_name
"Zhijun Ruan"
"Conggang Li"
"Jian-Rong Li"
"Jingui Qin"
"Zhen Li"
_chemical_name_systematic
;
2-(4-nitrophenyl)-1-(4-(triphenylvinyl)phenyl)ethanone
;
_cell_volume   5172.766
_exptl_crystal_colour 'colorless'
_exptl_crystal_density_diffrn 1.273
_exptl_crystal_description 'block'
_diffrn_ambient_temperature 173
#These two values have been output from a single CSD field.
_refine_ls_R_factor_gt 0.0569
_refine_ls_wR_factor_gt 0.0569
_symmetry_cell_setting monoclinic
_symmetry_space_group_name_H-M 'C 2/c'
_symmetry_Int_Tables_number 15
loop_
_symmetry_equiv_pos_site_id
_symmetry_equiv_pos_as_xyz
1 x,y,z
2 -x,y,1/2-z
3 1/2+x,1/2+y,z
4 1/2-x,1/2+y,1/2-z
5 -x,-y,-z
6 x,-y,-1/2+z
7 -1/2-x,-1/2-y,-z
8 -1/2+x,-1/2-y,-1/2+z
_cell_length_a 52.118(2)
_cell_length_b 5.4773(2)
_cell_length_c 19.3544(8)
_cell_angle_alpha 90
_cell_angle_beta 110.570(4)
_cell_angle_gamma 90
_cell_formula_units_Z 8
loop_
_atom_type_symbol
_atom_type_radius_bond
C 0.68
H 0.23
N 0.68
O 0.68
loop_
_atom_site_label
_atom_site_type_symbol
_atom_site_fract_x
_atom_site_fract_y
_atom_site_fract_z
O1 O 0.19120(4) 0.7562(3) 0.49915(8)
O2 O 0.20725(3) 0.2261(3) 0.18211(8)
O3 O 0.23228(3) 0.5505(3) 0.20741(8)
N1 N 0.21932(3) 0.3885(3) 0.22450(9)
C1 C 0.05646(4) 0.2655(4) 0.67305(12)
H1 H 0.07010 0.38160 0.69790
C2 C 0.03522(4) 0.2177(4) 0.69866(12)
H2 H 0.03440 0.30170 0.74080
C3 C 0.01527(4) 0.0490(5) 0.66325(13)
H3 H 0.00090 0.01520 0.68130
C4 C 0.01632(5) -0.0696(5) 0.60182(14)
H4 H 0.00270 -0.18660 0.57740
C5 C 0.03728(5) -0.0186(4) 0.57539(13)
H5 H 0.03750 -0.09740 0.53180
C6 C 0.05794(4) 0.1451(4) 0.61132(11)
C7 C 0.08028(4) 0.1929(4) 0.58135(11)
C8 C 0.10722(4) 0.1957(3) 0.62414(11)
C9 C 0.11747(4) 0.1181(4) 0.70301(11)
C10 C 0.10918(4) -0.1006(4) 0.72542(12)
H6 H 0.09700 -0.20540 0.68970
C11 C 0.11857(5) -0.1667(4) 0.79920(13)
H7 H 0.11270 -0.31600 0.81380
C12 C 0.13639(5) -0.0173(5) 0.85158(13)
H8 H 0.14250 -0.06160 0.90220
C13 C 0.14539(5) 0.1974(4) 0.83013(13)
H9 H 0.15790 0.29970 0.86610
C14 C 0.13625(4) 0.2637(4) 0.75620(12)
H10 H 0.14290 0.40950 0.74170
C15 C 0.07078(4) 0.2271(4) 0.49981(11)
C16 C 0.07987(4) 0.0748(4) 0.45558(11)
H11 H 0.09320 -0.04700 0.47810
C17 C 0.06999(4) 0.0972(4) 0.37987(12)
H12 H 0.07620 -0.01050 0.35070
C18 C 0.05102(4) 0.2759(4) 0.34628(13)
H13 H 0.04440 0.29340 0.29410
C19 C 0.04165(4) 0.4289(4) 0.38884(13)
H14 H 0.02880 0.55340 0.36590
C20 C 0.05097(4) 0.4019(4) 0.46506(13)
H15 H 0.04380 0.50330 0.49370
C21 C 0.12884(4) 0.2808(3) 0.59531(11)
C22 C 0.12580(4) 0.4968(4) 0.55492(11)
H16 H 0.10940 0.58870 0.54390
C23 C 0.14621(4) 0.5791(4) 0.53074(11)
H17 H 0.14380 0.72760 0.50390
C24 C 0.17044(4) 0.4451(4) 0.54554(10)
C25 C 0.17359(4) 0.2300(3) 0.58576(10)
H18 H 0.18980 0.13590 0.59570
C26 C 0.15327(4) 0.1515(3) 0.61143(10)
H19 H 0.15610 0.00740 0.64040
C27 C 0.19205(4) 0.5455(4) 0.51973(11)
C28 C 0.21521(4) 0.3801(4) 0.51690(11)
H20 H 0.23280 0.43670 0.55340
H21 H 0.21190 0.21120 0.53000
C29 C 0.21696(4) 0.3829(4) 0.44055(11)
C30 C 0.20431(5) 0.2056(4) 0.39113(13)
H22 H 0.19500 0.07790 0.40580
C31 C 0.20465(6) 0.2067(5) 0.31995(13)
H23 H 0.19560 0.08210 0.28610
C32 C 0.21817(4) 0.3888(4) 0.29916(10)
C33 C 0.23092(6) 0.5676(6) 0.34643(14)
H24 H 0.24040 0.69390 0.33160
C34 C 0.23004(8) 0.5641(6) 0.41699(15)
H25 H 0.23880 0.69150 0.45020
#END
