
#######################################################################
#
#                 Cambridge Crystallographic Data Centre
#                                CCDC
#
#######################################################################
#
# If this CIF has been generated from an entry in the Cambridge
# Structural Database, then it will include bibliographic, chemical,
# crystal, experimental, refinement or atomic coordinate data resulting
# from the CCDC's data processing and validation procedures.
#
#######################################################################

data_CSD_CIF_VACRUM
_audit_creation_date 1989-07-31
_audit_creation_method CSD-ConQuest-V1
_database_code_CSD VACRUM
_chemical_formula_sum 'C8 H11 N5 O3'
_chemical_formula_moiety
;
C8 H11 N5 O3
;
_journal_coeditor_code "IUCr AN0171"
_journal_coden_Cambridge 622
_journal_volume 44
_journal_year 1988
_journal_page_first 672
_journal_name_full 'Acta Crystallogr.,Sect.B:Struct.Sci. '
loop_
_publ_author_name
"R.McKenna"
"T.C.Jenkins"
"S.Neidle"
_chemical_name_systematic
;
5-(1-Aziridinyl)-3-nitro-1-(3-oxo-butyl)-1,2,4-triazole
;
_chemical_melting_point 385
_cell_volume   1032.144
_exptl_crystal_colour 'very pale yellow'
_exptl_crystal_density_diffrn 1.45
_exptl_special_details
;
Melting point range 385-385.5K
potential anticancer agent (RB-6162)

;
_diffrn_ambient_temperature ?
_diffrn_special_details
;
The study was carried out at room temperature,in the range 283-303K

;
#These two values have been output from a single CSD field.
_refine_ls_R_factor_gt 0.042
_refine_ls_wR_factor_gt 0.042
_symmetry_cell_setting monoclinic
_symmetry_space_group_name_H-M 'P 21/c'
_symmetry_Int_Tables_number 14
loop_
_symmetry_equiv_pos_site_id
_symmetry_equiv_pos_as_xyz
1 x,y,z
2 -x,1/2+y,1/2-z
3 -x,-y,-z
4 x,-1/2-y,-1/2+z
_cell_length_a 7.515(1)
_cell_length_b 14.758(2)
_cell_length_c 9.813(1)
_cell_angle_alpha 90
_cell_angle_beta 108.49(1)
_cell_angle_gamma 90
_cell_formula_units_Z 4
loop_
_atom_type_symbol
_atom_type_radius_bond
C 0.68
H 0.23
N 0.68
O 0.68
loop_
_atom_site_label
_atom_site_type_symbol
_atom_site_fract_x
_atom_site_fract_y
_atom_site_fract_z
N1 N 0.1699(3) 0.8377(1) 0.2958(2)
N2 N 0.1765(3) 0.8627(2) 0.4306(2)
C1 C 0.2207(4) 0.9484(2) 0.4292(3)
N3 N 0.2430(3) 0.9826(1) 0.3095(2)
C2 C 0.2099(4) 0.9096(2) 0.2258(2)
N4 N 0.2421(4) 1.0041(2) 0.5552(2)
O1 O 0.2082(4) 0.9701(2) 0.6571(2)
O2 O 0.2951(4) 1.0817(1) 0.5524(2)
N5 N 0.2132(3) 0.9012(1) 0.0858(2)
C3 C 0.3924(4) 0.9296(2) 0.0644(3)
C4 C 0.2289(4) 0.9870(2) 0.0138(3)
C5 C 0.1297(4) 0.7437(2) 0.2475(3)
C6 C -0.0458(4) 0.7082(2) 0.2705(3)
C7 C -0.2246(4) 0.7495(2) 0.1776(3)
O3 O -0.2261(3) 0.8035(1) 0.0845(2)
C8 C -0.3973(5) 0.7199(2) 0.2064(3)
H1 H 0.424(4) 0.889(2) -0.002(3)
H2 H 0.490(4) 0.949(2) 0.144(3)
H3 H 0.157(4) 0.988(2) -0.085(3)
H4 H 0.225(4) 1.041(2) 0.068(3)
H5? H 1.22(3) 0.748(2) 0.148(2)
H6 H 0.244(3) 0.706(2) 0.301(2)
H7 H -0.054(3) 0.644(2) 0.249(2)
H8 H -0.042(4) 0.712(2) 0.371(3)
H9 H -0.400(4) 0.660(2) 0.209(3)
H10 H -0.507(4) 0.735(2) 0.133(3)
H11 H -0.402(4) 0.740(2) 0.298(2)
#END
