
#######################################################################
#
#                 Cambridge Crystallographic Data Centre
#                                CCDC
#
#######################################################################
#
# If this CIF has been generated from an entry in the Cambridge
# Structural Database, then it will include bibliographic, chemical,
# crystal, experimental, refinement or atomic coordinate data resulting
# from the CCDC's data processing and validation procedures.
#
#######################################################################

data_CSD_CIF_VAKQOO
_audit_creation_date 2003-09-16
_audit_creation_method CSD-ConQuest-V1
_database_code_CSD VAKQOO
_database_code_depnum_ccdc_archive 'CCDC 199828'
_chemical_formula_sum 'C21 H18 N2 O4'
_chemical_formula_moiety
;
C21 H18 N2 O4
;
_journal_coden_Cambridge 24
_journal_volume 44
_journal_year 2003
_journal_page_first 3581
_journal_name_full 'Tetrahedron Lett. '
loop_
_publ_author_name
"M.O.F.Goulart"
"A.G.Cioletti"
"J.D.de Souza Filho"
"C.A.De Simone"
"E.E.Castellano"
"F.S.Emery"
"K.C.G.De Moura"
"M.C.F.R.Pinto"
"A.V.Pinto"
_chemical_name_systematic
;
7,7-Dimethyl-7,8,9,10-tetrahydro-5H-benzo[3,4]oxecino[5,6-b]quinoxaline-5,10-d
ione-16-N-oxide
;
_chemical_melting_point 485.15
_cell_volume   1767.090
_exptl_crystal_colour 'colorless'
_exptl_crystal_density_diffrn 1.373
_diffrn_ambient_temperature 293
#These two values have been output from a single CSD field.
_refine_ls_R_factor_gt 0.0568
_refine_ls_wR_factor_gt 0.0568
_symmetry_cell_setting monoclinic
_symmetry_space_group_name_H-M 'P 21/c'
_symmetry_Int_Tables_number 14
loop_
_symmetry_equiv_pos_site_id
_symmetry_equiv_pos_as_xyz
1 x,y,z
2 -x,1/2+y,1/2-z
3 -x,-y,-z
4 x,-1/2-y,-1/2+z
_cell_length_a 12.206(5)
_cell_length_b 10.534(4)
_cell_length_c 14.685(5)
_cell_angle_alpha 90
_cell_angle_beta 110.63(2)
_cell_angle_gamma 90
_cell_formula_units_Z 4
loop_
_atom_type_symbol
_atom_type_radius_bond
C 0.68
H 0.23
N 0.68
O 0.68
loop_
_atom_site_label
_atom_site_type_symbol
_atom_site_fract_x
_atom_site_fract_y
_atom_site_fract_z
N1 N 0.60851(15) 0.37715(19) -0.04034(13)
O1 O 0.76658(16) 0.22400(19) 0.31868(12)
O2 O 0.83473(14) 0.33915(15) 0.22137(10)
O3 O 0.95678(15) 0.23361(17) 0.08502(12)
N2 N 0.82082(16) 0.50701(18) -0.00167(13)
O4 O 0.50904(15) 0.32375(19) -0.05813(14)
C1 C 0.77520(19) 0.2432(2) 0.24063(15)
C2 C 0.72247(18) 0.1601(2) 0.15372(15)
C3 C 0.6989(2) 0.0361(2) 0.17492(18)
H1 H 0.71080 0.01410 0.23900
C4 C 0.6587(2) -0.0544(2) 0.1035(2)
H2 H 0.64450 -0.13680 0.11920
C5 C 0.6397(2) -0.0217(3) 0.0085(2)
H3 H 0.61380 -0.08260 -0.04020
C6 C 0.6588(2) 0.1009(2) -0.01472(17)
H4 H 0.64370 0.12180 -0.07960
C7 C 0.70034(18) 0.1948(2) 0.05620(15)
C8 C 0.70985(18) 0.3247(2) 0.01975(14)
C9 C 0.81463(18) 0.3949(2) 0.03553(15)
C10 C 0.93176(18) 0.3418(2) 0.09793(15)
C11 C 1.0149(2) 0.4308(3) 0.16968(17)
H5 H 1.04500 0.49060 0.13400
H6 H 1.08080 0.38200 0.21160
C12 C 0.9627(2) 0.5053(2) 0.23331(18)
H7 H 0.90030 0.55870 0.19170
H8 H 1.02260 0.56070 0.27560
C13 C 0.9138(2) 0.4242(2) 0.29606(17)
C14 C 0.8429(3) 0.5026(3) 0.3413(3)
H9 H 0.77960 0.54290 0.29090
H10 H 0.89210 0.56620 0.38260
H11 H 0.81200 0.44860 0.37900
C15 C 1.0081(3) 0.3476(3) 0.37106(19)
H12 H 1.06510 0.40410 0.41360
H13 H 1.04550 0.29270 0.33870
H14 H 0.97350 0.29750 0.40840
C16 C 0.6116(2) 0.4943(2) -0.08537(15)
C17 C 0.5076(2) 0.5453(3) -0.15164(18)
H15 H 0.43630 0.50410 -0.16490
C18 C 0.5150(3) 0.6589(3) -0.19650(19)
H16 H 0.44760 0.69400 -0.24130
C19 C 0.6213(3) 0.7218(3) -0.1760(2)
H17 H 0.62390 0.79780 -0.20730
C20 C 0.7212(2) 0.6733(2) -0.11059(18)
H18 H 0.79150 0.71710 -0.09620
C21 C 0.7185(2) 0.5565(2) -0.06455(16)
#END
