
#######################################################################
#
#                 Cambridge Crystallographic Data Centre
#                                CCDC
#
#######################################################################
#
# If this CIF has been generated from an entry in the Cambridge
# Structural Database, then it will include bibliographic, chemical,
# crystal, experimental, refinement or atomic coordinate data resulting
# from the CCDC's data processing and validation procedures.
#
#######################################################################

data_CSD_CIF_VANDEV
_audit_creation_date 2012-04-24
_audit_creation_method CSD-ConQuest-V1
_database_code_CSD VANDEV
_database_code_depnum_ccdc_archive 'CCDC 837921'
_chemical_formula_sum 'C34 H41 N3 O2'
_chemical_formula_moiety
;
C34 H41 N3 O2
;
_journal_coden_Cambridge 692
_journal_volume 2011
_journal_year 2011
_journal_page_first 3784
_journal_name_full 'Synthesis '
loop_
_publ_author_name
"C.E.I.Knappke"
"A.J.Arduengo III"
"Haijun Jiao"
"J.-M.Neudorfl"
"A.J.von Wangelin"
_chemical_name_systematic
;
1,3-bis(2,6-Di-isopropylphenyl)-2-(4-methylbenzylidene)-2,3-dihydro-1H-imidazo
le
;
_cell_volume   3042.750
_exptl_crystal_colour 'blue'
_exptl_crystal_density_diffrn 1.143
_exptl_special_details
;
The c cell value was published as 18.7758 we have used 18.1216 from the 
deposited CIF
;
_exptl_crystal_description 'prism'
_diffrn_ambient_temperature 100
_refine_special_details
;
The isopropyl groups are disordered over two sites with occupancies of 
0.60:0.40.
;
#These two values have been output from a single CSD field.
_refine_ls_R_factor_gt 0.0435
_refine_ls_wR_factor_gt 0.0435
_symmetry_cell_setting monoclinic
_symmetry_space_group_name_H-M 'P 21/c'
_symmetry_Int_Tables_number 14
loop_
_symmetry_equiv_pos_site_id
_symmetry_equiv_pos_as_xyz
1 x,y,z
2 -x,1/2+y,1/2-z
3 -x,-y,-z
4 x,-1/2-y,-1/2+z
_cell_length_a 18.7758(7)
_cell_length_b 9.1454(4)
_cell_length_c 18.1216(7)
_cell_angle_alpha 90
_cell_angle_beta 102.084(2)
_cell_angle_gamma 90
_cell_formula_units_Z 4
loop_
_atom_type_symbol
_atom_type_radius_bond
C 0.68
H 0.23
N 0.68
O 0.68
loop_
_atom_site_label
_atom_site_type_symbol
_atom_site_fract_x
_atom_site_fract_y
_atom_site_fract_z
O1 O 0.14626(5) 0.16963(12) 0.36487(6)
O2 O 0.25290(6) 0.27203(11) 0.37857(6)
N1 N 0.20830(6) 0.17601(14) 0.35072(7)
N2 N 0.19811(5) -0.37998(12) 0.06946(7)
N3 N 0.31151(6) -0.42011(12) 0.06411(7)
C1 C 0.22908(7) 0.06905(15) 0.30189(8)
C2 C 0.29553(7) 0.08421(16) 0.27956(8)
H1 H 0.32650 0.16490 0.29650
C3 C 0.31530(7) -0.01850(16) 0.23308(8)
H2 H 0.36100 -0.00810 0.21890
C4 C 0.27081(7) -0.14062(15) 0.20472(8)
C5 C 0.29849(7) -0.23692(15) 0.15637(8)
H3 H 0.34990 -0.22960 0.16240
C6 C 0.26844(7) -0.33969(15) 0.10210(8)
C7 C 0.13130(7) -0.31798(16) 0.08335(8)
C8 C 0.11465(7) -0.17234(16) 0.06223(8)
C9 C 0.05101(7) -0.11554(17) 0.07889(9)
H4 H 0.03820 -0.01670 0.06650
C10 C 0.00611(8) -0.19994(17) 0.11308(9)
H5 H -0.03680 -0.15840 0.12440
C11 C 0.02315(8) -0.34407(17) 0.13092(9)
H6 H -0.00900 -0.40140 0.15310
C12 C 0.08662(7) -0.40727(16) 0.11702(8)
C13 C 0.10720(9) -0.56409(17) 0.14052(10)
H7 H 0.13290 -0.60310 0.10160
C14 C 0.0470(6) -0.6667(14) 0.1497(4)
H8 H 0.02800 -0.63780 0.19400
H9 H 0.06600 -0.76670 0.15660
H10 H 0.00780 -0.66250 0.10460
C15 C 0.16997(17) -0.5686(5) 0.2113(2)
H11 H 0.15290 -0.52800 0.25460
H12 H 0.21110 -0.51060 0.20200
H13 H 0.18550 -0.67010 0.22200
C16 C 0.16201(7) -0.08144(16) 0.02113(8)
H14 H 0.21330 -0.11620 0.03850
C17 C 0.14064(8) -0.10954(18) -0.06396(9)
H15 H 0.14680 -0.21360 -0.07400
H16 H 0.17180 -0.05140 -0.08980
H17 H 0.08960 -0.08160 -0.08250
C18 C 0.16124(8) 0.08225(16) 0.03857(9)
H18 H 0.11240 0.12160 0.01910
H19 H 0.19640 0.13280 0.01450
H20 H 0.17450 0.09710 0.09330
C19 C 0.19910(7) -0.48292(16) 0.01284(9)
H21 H 0.15770 -0.52820 -0.01780
C20 C 0.26836(7) -0.50648(16) 0.00939(9)
H22 H 0.28520 -0.57080 -0.02440
C21 C 0.38812(7) -0.39382(15) 0.06826(8)
C22 C 0.40744(7) -0.28580(16) 0.02155(8)
C23 C 0.48169(8) -0.26533(17) 0.02477(9)
H23 H 0.49700 -0.19320 -0.00630
C24 C 0.53336(8) -0.34810(17) 0.07242(9)
H24 H 0.58360 -0.33370 0.07300
C25 C 0.51245(7) -0.45184(17) 0.11933(9)
H25 H 0.54860 -0.50700 0.15230
C26 C 0.43902(7) -0.47662(16) 0.11892(8)
C27 C 0.41534(8) -0.58866(17) 0.17092(9)
H26 H 0.36310 -0.56780 0.17100
C28 C 0.46587(17) -0.6035(4) 0.24524(17)
H27 H 0.51200 -0.64560 0.23820
H28 H 0.44410 -0.66790 0.27770
H29 H 0.47490 -0.50710 0.26890
C29 C 0.40305(18) -0.7347(3) 0.12790(19)
H30 H 0.44960 -0.77120 0.11910
H31 H 0.36930 -0.71980 0.07940
H32 H 0.38240 -0.80630 0.15790
C30 C 0.35163(8) -0.19000(17) -0.02950(9)
H33 H 0.30230 -0.22370 -0.02420
C31 C 0.35505(10) -0.2051(2) -0.11195(10)
H34 H 0.40290 -0.17270 -0.11920
H35 H 0.31700 -0.14480 -0.14270
H36 H 0.34750 -0.30770 -0.12730
C32 C 0.35951(9) -0.03047(18) -0.00399(11)
H37 H 0.35570 -0.02380 0.04900
H38 H 0.32080 0.02800 -0.03510
H39 H 0.40710 0.00670 -0.00950
C33 C 0.20460(7) -0.15296(16) 0.23089(8)
H40 H 0.17370 -0.23460 0.21560
C34 C 0.18434(7) -0.05033(16) 0.27745(8)
H41 H 0.13940 -0.06060 0.29320
C35? C 0.0376(9) -0.659(2) 0.1166(7)
H42? H 0.04990 -0.76230 0.12730
H43? H 0.01800 -0.64690 0.06240
H44? H 0.00110 -0.62850 0.14480
C36? C 0.1242(6) -0.5674(8) 0.2275(4)
H45? H 0.08810 -0.50850 0.24620
H46? H 0.17290 -0.52720 0.24670
H47? H 0.12230 -0.66850 0.24490
C37? C 0.4283(3) -0.5222(5) 0.2545(3)
H48? H 0.41260 -0.59320 0.28830
H49? H 0.40020 -0.43190 0.25380
H50? H 0.48020 -0.50090 0.27240
C38? C 0.4569(3) -0.7355(5) 0.1785(3)
H51? H 0.50910 -0.71730 0.19630
H52? H 0.44870 -0.78410 0.12920
H53? H 0.43920 -0.79830 0.21460
#END
