
#######################################################################
#
#                 Cambridge Crystallographic Data Centre
#                                CCDC
#
#######################################################################
#
# If this CIF has been generated from an entry in the Cambridge
# Structural Database, then it will include bibliographic, chemical,
# crystal, experimental, refinement or atomic coordinate data resulting
# from the CCDC's data processing and validation procedures.
#
#######################################################################

data_CSD_CIF_VAPMAA
_audit_creation_date 1990-01-22
_audit_creation_method CSD-ConQuest-V1
_database_code_CSD VAPMAA
_chemical_formula_sum 'C14 H12 N2 O8'
_chemical_formula_moiety
;
C14 H12 N2 O8
;
_journal_coden_Cambridge 582
_journal_volume 19
_journal_year 1989
_journal_page_first 223
_journal_name_full 'J.Crystallogr.Spectrosc.Res. '
loop_
_publ_author_name
"A.M.M.Houwen-Claassen"
"A.J.H.Klunder"
"H.Behm"
"F.G.Moers"
"P.T.Beurskens"
"D.Heydenrijk"
"H.Schenk"
_chemical_name_systematic
;
(4R*,5S*)-5-(3,5-Dinitrophenylcarboxylato)-4-methoxy-4-methylcyclopent-2-en-1-
one
;
_cell_volume   3031.570
_exptl_crystal_density_diffrn 1.474
_diffrn_ambient_temperature ?
_diffrn_special_details
;
The study was carried out at room temperature,in the range 283-303K

;
#These two values have been output from a single CSD field.
_refine_ls_R_factor_gt 0.049
_refine_ls_wR_factor_gt 0.049
_symmetry_cell_setting orthorhombic
_symmetry_space_group_name_H-M 'P c a b'
_symmetry_Int_Tables_number 61
loop_
_symmetry_equiv_pos_site_id
_symmetry_equiv_pos_as_xyz
1 x,y,z
2 1/2-x,y,1/2+z
3 1/2+x,1/2-y,z
4 -x,1/2-y,1/2+z
5 -x,-y,-z
6 -1/2+x,-y,-1/2-z
7 -1/2-x,-1/2+y,-z
8 x,-1/2+y,-1/2-z
_cell_length_a 17.657(3)
_cell_length_b 24.482(3)
_cell_length_c 7.013(1)
_cell_angle_alpha 90
_cell_angle_beta 90
_cell_angle_gamma 90
_cell_formula_units_Z 8
loop_
_atom_type_symbol
_atom_type_radius_bond
C 0.68
H 0.23
N 0.68
O 0.68
loop_
_atom_site_label
_atom_site_type_symbol
_atom_site_fract_x
_atom_site_fract_y
_atom_site_fract_z
C1 C 0.2736(5) 0.0962(3) 0.3738(10)
O1 O 0.2152(4) 0.1185(2) 0.4196(8)
C2 C 0.2870(6) 0.0392(3) 0.3294(12)
C3 C 0.3604(6) 0.0283(3) 0.3337(12)
C4 C 0.4071(5) 0.0772(3) 0.3875(11)
O2 O 0.4748(3) 0.0818(2) 0.2810(8)
C5 C 0.4658(6) 0.0812(4) 0.0797(11)
C6 C 0.4351(5) 0.0719(3) 0.5968(11)
C7 C 0.3505(4) 0.1235(3) 0.3614(10)
O3 O 0.3600(3) 0.1661(2) 0.5000(7)
C8 C 0.3331(4) 0.2160(3) 0.4533(11)
O4 O 0.3021(3) 0.2269(2) 0.3068(7)
C9 C 0.3489(4) 0.2559(3) 0.6058(11)
C10 C 0.3325(4) 0.3100(4) 0.5668(11)
C11 C 0.3493(5) 0.3493(3) 0.7010(15)
C12 C 0.3812(4) 0.3374(3) 0.8730(14)
C13 C 0.3972(4) 0.2833(4) 0.9061(13)
C14 C 0.3813(4) 0.2416(3) 0.7795(12)
N1 N 0.3348(5) 0.4073(4) 0.6585(16)
O5 O 0.3454(4) 0.4410(3) 0.7811(13)
O6 O 0.3118(6) 0.4178(3) 0.4982(15)
N2 N 0.4359(4) 0.2683(4) 1.0906(11)
O7 O 0.4539(3) 0.2203(3) 1.1121(8)
O8 O 0.4461(4) 0.3053(3) 1.2068(8)
H1 H 0.2464(6) 0.0120(3) 0.2997(12)
H2 H 0.3823(6) -0.0084(3) 0.3045(12)
H3 H 0.5130(6) 0.0745(4) 0.0040(11)
H4 H 0.4407(6) 0.1154(4) 0.0331(11)
H5 H 0.4304(6) 0.0496(4) 0.0637(11)
H6 H 0.3909(5) 0.0747(3) 0.6855(11)
H7 H 0.4731(5) 0.1008(3) 0.6293(11)
H8 H 0.4591(5) 0.0350(3) 0.6098(11)
H9 H 0.3575(4) 0.1426(3) 0.2368(10)
H10 H 0.3087(4) 0.3205(4) 0.4427(11)
H11 H 0.3924(4) 0.3663(3) 0.9696(14)
H12 H 0.3928(4) 0.2027(3) 0.8116(12)
#END
