
#######################################################################
#
#                 Cambridge Crystallographic Data Centre
#                                CCDC
#
#######################################################################
#
# If this CIF has been generated from an entry in the Cambridge
# Structural Database, then it will include bibliographic, chemical,
# crystal, experimental, refinement or atomic coordinate data resulting
# from the CCDC's data processing and validation procedures.
#
#######################################################################

data_CSD_CIF_VAVNIR
_audit_creation_date 2012-04-25
_audit_creation_method CSD-ConQuest-V1
_database_code_CSD VAVNIR
_database_code_depnum_ccdc_archive 'CCDC 837239'
_chemical_formula_sum 'C16 H19 N1 O5'
_chemical_formula_moiety
;
C16 H19 N1 O5
;
_journal_coden_Cambridge 1336
_journal_volume 14
_journal_year 2012
_journal_page_first 114
_journal_name_full 'Org.Lett. '
loop_
_publ_author_name
"M.Adachi"
"K.Higuchi"
"N.Thasana"
"H.Yamada"
"T.Nishikawa"
_chemical_name_systematic
;
(3,3-Dimethyloxiran-2-yl)(3-((2-methylbut-3-yn-2-yl)oxy)-4-nitrophenyl)methano
l
;
_cell_volume   1527.225
_exptl_crystal_colour 'colorless'
_exptl_crystal_density_diffrn 1.328
_exptl_crystal_description 'block'
_diffrn_ambient_temperature 93
#These two values have been output from a single CSD field.
_refine_ls_R_factor_gt 0.0601
_refine_ls_wR_factor_gt 0.0601
_symmetry_cell_setting monoclinic
_symmetry_space_group_name_H-M 'P 21/n'
_symmetry_Int_Tables_number 14
loop_
_symmetry_equiv_pos_site_id
_symmetry_equiv_pos_as_xyz
1 x,y,z
2 1/2-x,1/2+y,1/2-z
3 -x,-y,-z
4 -1/2+x,-1/2-y,-1/2+z
_cell_length_a 13.6228(17)
_cell_length_b 6.4397(8)
_cell_length_c 17.484(2)
_cell_angle_alpha 90
_cell_angle_beta 95.313(2)
_cell_angle_gamma 90
_cell_formula_units_Z 4
loop_
_atom_type_symbol
_atom_type_radius_bond
C 0.68
H 0.23
N 0.68
O 0.68
loop_
_atom_site_label
_atom_site_type_symbol
_atom_site_fract_x
_atom_site_fract_y
_atom_site_fract_z
N1 N 1.07861(15) 0.6410(3) 0.88994(12)
O1 O 0.57283(13) 0.6414(3) 1.07032(11)
O2 O 0.62900(13) 0.4197(3) 0.93044(10)
H1 H 0.56810 0.42510 0.93470
O3 O 1.11156(13) 0.5261(3) 0.84313(11)
O4 O 1.12754(13) 0.7766(3) 0.92502(11)
O5 O 0.96127(12) 0.2668(3) 0.86020(9)
C1 C 0.93340(18) 0.7925(4) 0.93862(14)
H2 H 0.97170 0.91410 0.94940
C2 C 0.78095(18) 0.6062(4) 0.94125(14)
C3 C 0.83667(19) 0.7856(4) 0.95601(15)
H3 H 0.80810 0.90320 0.97810
C4 C 0.93883(18) 0.2232(4) 0.77728(14)
C5 C 0.92006(18) 0.4405(4) 0.88939(13)
C6 C 0.82359(18) 0.4348(4) 0.90935(14)
H4 H 0.78610 0.31100 0.90100
C7 C 0.97459(18) 0.6215(4) 0.90535(13)
C8 C 0.92800(18) 0.4177(4) 0.73263(14)
C9 C 0.9151(2) 0.5661(5) 0.69312(16)
C10 C 0.67117(19) 0.6128(4) 1.04542(16)
H5 H 0.71310 0.50790 1.07530
C11 C 0.84394(19) 0.0971(4) 0.76520(15)
H6 H 0.78830 0.18210 0.77850
H7 H 0.84950 -0.02650 0.79800
H8 H 0.83300 0.05450 0.71130
C12 C 1.0272(2) 0.1003(4) 0.75570(15)
H9 H 1.08670 0.18560 0.76440
H10 H 1.01720 0.06120 0.70140
H11 H 1.03470 -0.02530 0.78740
C13 C 0.6745(2) 0.6042(4) 0.96081(16)
H12 H 0.63920 0.72740 0.93680
C14 C 0.6262(2) 1.0098(5) 1.05578(19)
H13 H 0.59650 0.99490 1.00290
H14 H 0.68760 1.08940 1.05600
H15 H 0.58030 1.08280 1.08640
C15 C 0.6862(2) 0.8015(5) 1.17199(17)
H16 H 0.63780 0.86650 1.20250
H17 H 0.74830 0.87940 1.17860
H18 H 0.69790 0.65800 1.18910
C16 C 0.64775(18) 0.8026(4) 1.08898(16)
H19 H 0.907(2) 0.678(5) 0.6616(19)
#END
