
#######################################################################
#
#                 Cambridge Crystallographic Data Centre
#                                CCDC
#
#######################################################################
#
# If this CIF has been generated from an entry in the Cambridge
# Structural Database, then it will include bibliographic, chemical,
# crystal, experimental, refinement or atomic coordinate data resulting
# from the CCDC's data processing and validation procedures.
#
#######################################################################

data_CSD_CIF_VAZNAL
_audit_creation_date 1990-07-26
_audit_creation_method CSD-ConQuest-V1
_database_code_CSD VAZNAL
_chemical_formula_sum 'C19 H24 N2 O5'
_chemical_formula_moiety
;
C19 H24 N2 O5
;
_journal_coden_Cambridge 154
_journal_volume 42
_journal_year 1989
_journal_page_first 1547
_journal_name_full 'Aust.J.Chem. '
loop_
_publ_author_name
"M.P.Hartshorn"
"W.T.Robinson"
"A.G.Waller"
"G.J.Wright"
_chemical_name_systematic
;
c-6-Benzyl-4-t-butyl-2,6-dimethyl-r-2,t-5-dinitrocyclohex-3-enone
;
_chemical_melting_point 405.65
_cell_volume   1896.600
_exptl_crystal_colour 'colorless'
_exptl_crystal_density_diffrn 1.26
_exptl_special_details
;
Melts with decomposition.

;
_diffrn_ambient_temperature 183
#These two values have been output from a single CSD field.
_refine_ls_R_factor_gt 0.044
_refine_ls_wR_factor_gt 0.044
_symmetry_cell_setting orthorhombic
_symmetry_space_group_name_H-M 'P 21 21 21'
_symmetry_Int_Tables_number 19
loop_
_symmetry_equiv_pos_site_id
_symmetry_equiv_pos_as_xyz
1 x,y,z
2 1/2+x,1/2-y,-z
3 -x,1/2+y,1/2-z
4 1/2-x,-y,1/2+z
_cell_length_a 16.417(5)
_cell_length_b 16.012(6)
_cell_length_c 7.215(2)
_cell_angle_alpha 90
_cell_angle_beta 90
_cell_angle_gamma 90
_cell_formula_units_Z 4
loop_
_atom_type_symbol
_atom_type_radius_bond
C 0.68
H 0.23
N 0.68
O 0.68
loop_
_atom_site_label
_atom_site_type_symbol
_atom_site_fract_x
_atom_site_fract_y
_atom_site_fract_z
C1 C 0.8217(2) 0.2350(2) 0.3910(5)
C2 C 0.9164(2) 0.2405(2) 0.3532(5)
C3 C 0.9563(2) 0.3184(2) 0.4237(5)
C4 C 0.9176(2) 0.3859(2) 0.4852(5)
C5 C 0.8242(2) 0.3875(2) 0.4784(5)
C6 C 0.7828(2) 0.3024(2) 0.5129(5)
C7 C 0.9354(3) 0.2225(2) 0.1499(6)
C8 C 0.9603(2) 0.4616(2) 0.5753(5)
C9 C 0.9260(2) 0.5446(2) 0.4990(6)
C10 C 0.9444(2) 0.4570(2) 0.7853(6)
C11 C 1.0538(2) 0.4598(2) 0.5407(7)
C12 C 0.6898(2) 0.3078(2) 0.4754(5)
C13 C 0.7997(2) 0.2813(2) 0.7242(5)
C14 C 0.7503(2) 0.2101(2) 0.8041(5)
C15 C 0.6823(2) 0.2274(2) 0.9137(6)
C16 C 0.6363(2) 0.1629(2) 0.9926(6)
C17 C 0.6578(2) 0.0813(3) 0.9616(7)
C18 C 0.7245(2) 0.0632(2) 0.8540(7)
C19 C 0.7716(2) 0.1274(2) 0.7762(6)
N1 N 0.9528(2) 0.1676(2) 0.4696(5)
N2 N 0.7988(2) 0.4186(2) 0.2857(4)
O1 O 0.7841(2) 0.1765(1) 0.3300(4)
O2 O 0.9781(2) 0.1826(2) 0.6261(5)
O3 O 0.9523(2) 0.0982(2) 0.4002(5)
O4 O 0.8098(2) 0.3730(2) 0.1510(4)
O5 O 0.7665(2) 0.4874(2) 0.2752(4)
H1 H 1.01470 0.31960 0.42450
H2 H 0.80670 0.42390 0.57440
H3 H 0.78820 0.33050 0.79570
H4 H 0.85630 0.26720 0.73620
H5 H 0.66680 0.28440 0.93530
H6 H 0.58990 0.17580 1.06820
H7 H 0.62640 0.03690 1.01520
H8 H 0.73910 0.00610 0.83150
H9 H 0.81870 0.11400 0.70320
H10 H 0.91400 0.26660 0.07410
H11 H 0.91080 0.17050 0.11450
H12 H 0.99330 0.21910 0.13330
H13 H 0.86820 0.54620 0.51750
H14 H 0.93780 0.54850 0.38890
H15 H 0.95090 0.59060 0.56280
H16 H 0.97090 0.50300 0.84540
H17 H 0.96550 0.40540 0.83340
H18 H 0.88680 0.45980 0.80810
H19 H 1.06410 0.46260 0.40990
H20 H 1.07620 0.40910 0.58980
H21 H 1.07860 0.50680 0.60080
H22 H 0.66630 0.35020 0.55290
H23 H 0.66500 0.25490 0.50250
H24 H 0.68070 0.32160 0.34760
#END
