
#######################################################################
#
#                 Cambridge Crystallographic Data Centre
#                                CCDC
#
#######################################################################
#
# If this CIF has been generated from an entry in the Cambridge
# Structural Database, then it will include bibliographic, chemical,
# crystal, experimental, refinement or atomic coordinate data resulting
# from the CCDC's data processing and validation procedures.
#
#######################################################################

data_CSD_CIF_VAZRIX01
_audit_creation_date 1990-07-27
_audit_creation_method CSD-ConQuest-V1
_database_code_CSD VAZRIX01
_database_code_depnum_ccdc_archive 'CCDC 1280929'
_chemical_formula_sum 'C24 H30 N2 O6'
_chemical_formula_moiety
;
C24 H30 N2 O6
;
_journal_coden_Cambridge 182
_journal_year 1989
_journal_page_first 1523
_journal_name_full 'Chem.Commun. '
loop_
_publ_author_name
"D.W.Wiley"
"J.C.Calabrese"
"J.S.Miller"
_chemical_name_systematic
;
2,4-Hexadiyne-1,6-diyl-bis(2,2,5,5-tetramethyl-1-oxyl-3-pyrroline-3-carboxylat
e)
;
_chemical_melting_point 381.15
_cell_volume   2448.386
_exptl_crystal_colour 'yellow'
_exptl_crystal_density_diffrn 1.2
_exptl_special_details
;
Melting point range 381.15-382.15K
beta-polymorph

;
_diffrn_ambient_temperature 203.15
#These two values have been output from a single CSD field.
_refine_ls_R_factor_gt 0.047
_refine_ls_wR_factor_gt 0.047
_symmetry_cell_setting monoclinic
_symmetry_space_group_name_H-M 'P 21/n'
_symmetry_Int_Tables_number 14
loop_
_symmetry_equiv_pos_site_id
_symmetry_equiv_pos_as_xyz
1 x,y,z
2 1/2-x,1/2+y,1/2-z
3 -x,-y,-z
4 -1/2+x,-1/2-y,-1/2+z
_cell_length_a 8.152(1)
_cell_length_b 33.763(4)
_cell_length_c 9.192(2)
_cell_angle_alpha 90
_cell_angle_beta 104.59(1)
_cell_angle_gamma 90
_cell_formula_units_Z 4
loop_
_atom_type_symbol
_atom_type_radius_bond
C 0.68
H 0.23
N 0.68
O 0.68
loop_
_atom_site_label
_atom_site_type_symbol
_atom_site_fract_x
_atom_site_fract_y
_atom_site_fract_z
O1 O 0.3821(2) 0.45180 0.8235(1)
O2 O 0.2129(2) 0.66400 1.0848(2)
O3 O 0.1222(2) 0.4403(1) 0.6773(2)
O4 O 0.1178(2) 0.6802(1) 0.8407(2)
O5 O 0.3918(2) 0.3966(1) 0.2254(2)
O6 O 0.8378(2) 0.71110 1.1046(2)
N1 N 0.4114(2) 0.4101(1) 0.3578(2)
N2 N 0.6813(2) 0.7106(1) 1.0367(2)
C1 C 0.3113(3) 0.4561(1) 0.9518(2)
C2 C 0.0658(3) 0.6391(1) 1.0730(3)
C3 C 0.2528(3) 0.4963(1) 0.9678(2)
C4 C 0.1098(3) 0.5987(1) 1.0415(3)
C5 C 0.2075(3) 0.5287(1) 0.9908(2)
C6 C 0.1553(3) 0.5662(1) 1.0180(2)
C7 C 0.2719(3) 0.4418(1) 0.6932(2)
C8 C 0.2280(3) 0.6807(1) 0.9553(3)
C9 C 0.3620(3) 0.4318(1) 0.5772(2)
C10 C 0.3971(3) 0.6983(1) 0.9709(2)
C11 C 0.2662(3) 0.4195(1) 0.4209(2)
C12 C 0.5535(3) 0.6893(1) 1.0963(2)
C13 C 0.5797(3) 0.4174(1) 0.4591(2)
C14 C 0.6118(3) 0.7331(1) 0.8959(2)
C15 C 0.5272(3) 0.4309(1) 0.5956(2)
C16 C 0.4306(3) 0.7218(1) 0.8673(3)
C17 C 0.1661(3) 0.4537(1) 0.3322(3)
C18 C 0.5983(3) 0.6455(1) 1.1104(3)
C19 C 0.1581(4) 0.3829(1) 0.4163(3)
C20 C 0.5513(3) 0.7069(1) 1.2487(3)
C21 C 0.6816(4) 0.3790(1) 0.4858(3)
C22 C 0.6448(3) 0.7772(1) 0.9252(3)
C23 C 0.6736(3) 0.4489(1) 0.3939(3)
C24 C 0.6908(3) 0.7181(1) 0.7732(3)
H1 H 0.39360 0.44870 1.04060
H2 H -0.02500 0.64820 0.99340
H3 H 0.21910 0.43810 0.94250
H4 H 0.03330 0.63950 1.16570
H5 H 0.60930 0.43800 0.68470
H6 H 0.34940 0.73070 0.77910
H7 H 0.07130 0.45980 0.37230
H8 H 0.12550 0.44640 0.22980
H9 H 0.70740 0.64220 1.17710
H10 H 0.51680 0.63160 1.14880
H11 H 0.59900 0.63510 1.01440
H12 H 0.23590 0.47650 0.34020
H13 H 0.06500 0.38860 0.45710
H14 H 0.22560 0.36240 0.47620
H15 H 0.52290 0.73410 1.23700
H16 H 0.46900 0.69330 1.28710
H17 H 0.65970 0.70380 1.31570
H18 H 0.11930 0.37370 0.31650
H19 H 0.79000 0.38430 0.55110
H20 H 0.69490 0.36930 0.39290
H21 H 0.76340 0.78160 0.95880
H22 H 0.60030 0.79160 0.83550
H23 H 0.59130 0.78570 1.00070
H24 H 0.62390 0.36020 0.53100
H25 H 0.78190 0.45290 0.46160
H26 H 0.61120 0.47280 0.38240
H27 H 0.66540 0.69080 0.75680
H28 H 0.64710 0.73260 0.68430
H29 H 0.81050 0.72160 0.80540
H30 H 0.68750 0.44020 0.30010
#END
