
#######################################################################
#
#                 Cambridge Crystallographic Data Centre
#                                CCDC
#
#######################################################################
#
# If this CIF has been generated from an entry in the Cambridge
# Structural Database, then it will include bibliographic, chemical,
# crystal, experimental, refinement or atomic coordinate data resulting
# from the CCDC's data processing and validation procedures.
#
#######################################################################

data_CSD_CIF_VEBVAA
_audit_creation_date 2006-05-24
_audit_creation_method CSD-ConQuest-V1
_database_code_CSD VEBVAA
_database_code_depnum_ccdc_archive 'CCDC 282892'
_chemical_formula_sum 'C12 H19 N1 O4'
_chemical_formula_moiety
;
C12 H19 N1 O4
;
_journal_coden_Cambridge 1090
_journal_volume 17
_journal_year 2006
_journal_page_first 68
_journal_name_full 'Tetrahedron:Asymm. '
loop_
_publ_author_name
"S.Stecko"
"K.Pasniczek"
"M.Jurczak"
"Z.Urbanczyk-Lipkowska"
"M.Chmielewski"
_chemical_name_systematic
;
(3aR,8S,8aR,8bS)-8-(t-Butoxy)hexahydrofuro[3,4-d]pyrrolo[1,2-b]isoxazol-1(3H)-
one
;
_chemical_melting_point 423.15
_cell_volume   1282.985
_exptl_crystal_colour 'colorless'
_exptl_crystal_density_diffrn 1.249
_exptl_special_details
;
Melting point range 423.15-424.15K

;
_exptl_crystal_description 'needle'
_diffrn_ambient_temperature 293
#These two values have been output from a single CSD field.
_refine_ls_R_factor_gt 0.0566
_refine_ls_wR_factor_gt 0.0566
loop_
_citation_database_id_CSD
_citation_special_details
ODEMIU "is a stereoisomer of this entry"
ODEMOA "is a stereoisomer of this entry"
_symmetry_cell_setting orthorhombic
_symmetry_space_group_name_H-M 'P 21 21 21'
_symmetry_Int_Tables_number 19
loop_
_symmetry_equiv_pos_site_id
_symmetry_equiv_pos_as_xyz
1 x,y,z
2 1/2-x,-y,1/2+z
3 1/2+x,1/2-y,-z
4 -x,1/2+y,1/2-z
_cell_length_a 5.7346(2)
_cell_length_b 11.0129(5)
_cell_length_c 20.315(3)
_cell_angle_alpha 90
_cell_angle_beta 90
_cell_angle_gamma 90
_cell_formula_units_Z 4
loop_
_atom_type_symbol
_atom_type_radius_bond
C 0.68
H 0.23
N 0.68
O 0.68
loop_
_atom_site_label
_atom_site_type_symbol
_atom_site_fract_x
_atom_site_fract_y
_atom_site_fract_z
O1 O 0.3916(9) 0.4159(4) 0.01480(19)
O2 O 0.8220(7) 0.6114(4) 0.0432(2)
C1 C 0.4338(10) 0.5406(5) 0.0251(2)
H1 H 0.29010 0.58350 0.03700
O3 O 0.3874(8) 0.4610(4) -0.19396(18)
N1 N 0.5594(10) 0.3785(4) -0.0364(2)
C2 C 0.5353(10) 0.4795(5) -0.0837(2)
H2 H 0.67370 0.48220 -0.11200
O4 O 0.9227(9) 0.6718(4) -0.0567(3)
C3 C 0.5349(9) 0.5891(5) -0.0391(3)
H3 H 0.44290 0.65630 -0.05710
C4 C 0.2747(11) 0.5395(7) -0.2377(3)
C5 C 0.7803(11) 0.6283(6) -0.0197(3)
C6 C 0.3206(11) 0.4555(6) -0.1261(2)
H4 H 0.19660 0.51410 -0.11640
C7 C 0.2454(15) 0.3255(7) -0.1071(3)
H5 H 0.10530 0.32700 -0.08040
H6 H 0.21600 0.27700 -0.14610
C8 C 0.6219(11) 0.5605(6) 0.0762(3)
H7 H 0.56700 0.61570 0.11000
H8 H 0.66310 0.48400 0.09680
C9 C 0.4487(15) 0.2748(5) -0.0686(4)
H9 H 0.39470 0.21670 -0.03610
H10 H 0.55800 0.23450 -0.09770
C10 C 0.3782(14) 0.5145(7) -0.3039(3)
H11 H 0.54340 0.52820 -0.30230
H12 H 0.30930 0.56760 -0.33590
H13 H 0.34840 0.43160 -0.31590
C11 C 0.340(3) 0.6676(8) -0.2177(4)
H14 H 0.50670 0.67520 -0.21670
H15 H 0.27800 0.68460 -0.17480
H16 H 0.27670 0.72420 -0.24890
C12 C 0.0202(14) 0.5262(14) -0.2388(4)
H17 H -0.01950 0.44480 -0.25160
H18 H -0.04510 0.58250 -0.26980
H19 H -0.04140 0.54250 -0.19580
#END
