
#######################################################################
#
#                 Cambridge Crystallographic Data Centre
#                                CCDC
#
#######################################################################
#
# If this CIF has been generated from an entry in the Cambridge
# Structural Database, then it will include bibliographic, chemical,
# crystal, experimental, refinement or atomic coordinate data resulting
# from the CCDC's data processing and validation procedures.
#
#######################################################################

data_CSD_CIF_VEGLUP
_audit_creation_date 2006-05-24
_audit_creation_method CSD-ConQuest-V1
_database_code_CSD VEGLUP
_database_code_depnum_ccdc_archive 'CCDC 601241'
_chemical_formula_sum 'C14 H15 N3 O5'
_chemical_formula_moiety
;
C14 H15 N3 O5
;
_journal_coeditor_code "IUCr RZ6175"
_journal_coden_Cambridge 1370
_journal_volume 62
_journal_year 2006
_journal_page_first o1089
_journal_name_full 'Acta Crystallogr.,Sect.E:Struct.Rep.Online '
loop_
_publ_author_name
"Jian-Jun Li"
"Lai Jiang"
"Xue-Ping Wu"
"Wei-Ke Su"
_chemical_name_systematic
;
Methyl 
1,6-dimethyl-4-(3-nitrophenyl)-2-oxo-1,2,3,4-tetrahydropyrimidine-5-carboxylat
e
;
_chemical_melting_point 461
_cell_volume   1400.034
_exptl_crystal_colour 'colorless'
_exptl_crystal_density_diffrn 1.448
_exptl_special_details
;
Melting point range 461-463K

;
_exptl_crystal_description 'block'
_exptl_crystal_preparation 'ethanol'
_diffrn_ambient_temperature 298
#These two values have been output from a single CSD field.
_refine_ls_R_factor_gt 0.0874
_refine_ls_wR_factor_gt 0.0874
_symmetry_cell_setting monoclinic
_symmetry_space_group_name_H-M 'P 21/c'
_symmetry_Int_Tables_number 14
loop_
_symmetry_equiv_pos_site_id
_symmetry_equiv_pos_as_xyz
1 x,y,z
2 -x,1/2+y,1/2-z
3 -x,-y,-z
4 x,-1/2-y,-1/2+z
_cell_length_a 7.5489(7)
_cell_length_b 19.616(2)
_cell_length_c 9.5165(9)
_cell_angle_alpha 90
_cell_angle_beta 96.537(2)
_cell_angle_gamma 90
_cell_formula_units_Z 4
loop_
_atom_type_symbol
_atom_type_radius_bond
C 0.68
H 0.23
N 0.68
O 0.68
loop_
_atom_site_label
_atom_site_type_symbol
_atom_site_fract_x
_atom_site_fract_y
_atom_site_fract_z
O1 O 0.2783(3) 0.47516(12) 1.0316(2)
O2 O 0.5734(4) 0.27431(13) 0.6466(3)
O3 O 0.3444(4) 0.20767(14) 0.6783(3)
O4 O 0.1785(5) 0.62727(17) 0.6297(4)
O5 O 0.0968(5) 0.63030(16) 0.4084(3)
N1 N 0.4422(4) 0.42869(14) 0.8718(3)
H1 H 0.53810 0.44900 0.90690
N2 N 0.1660(3) 0.38406(14) 0.9009(3)
N3 N 0.1606(4) 0.60093(17) 0.5145(4)
C1 C 0.2969(4) 0.43255(16) 0.9399(3)
C2 C 0.4423(4) 0.39134(16) 0.7406(3)
H2 H 0.56650 0.38170 0.72640
C3 C 0.3484(4) 0.32376(16) 0.7570(3)
C4 C 0.2070(4) 0.32388(16) 0.8313(3)
C5 C 0.0033(5) 0.3896(2) 0.9705(4)
H3 H 0.01800 0.36460 1.05780
H4 H -0.09540 0.37120 0.90980
H5 H -0.01920 0.43670 0.98970
C6 C 0.0865(5) 0.26434(18) 0.8492(4)
H6 H -0.03020 0.27370 0.80200
H7 H 0.07890 0.25690 0.94810
H8 H 0.13380 0.22430 0.80900
C7 C 0.4150(5) 0.26206(18) 0.6927(4)
C8 C 0.6555(6) 0.2188(2) 0.5798(5)
H9 H 0.67970 0.18220 0.64630
H10 H 0.76520 0.23400 0.54820
H11 H 0.57660 0.20300 0.50020
C9 C 0.3565(4) 0.43065(17) 0.6119(3)
C10 C 0.3375(5) 0.39981(19) 0.4794(4)
H12 H 0.37790 0.35540 0.47060
C11 C 0.2605(5) 0.4335(2) 0.3610(4)
H13 H 0.24950 0.41170 0.27370
C12 C 0.1997(5) 0.4992(2) 0.3709(4)
H14 H 0.14600 0.52220 0.29180
C13 C 0.2210(4) 0.52984(18) 0.5019(4)
C14 C 0.2975(4) 0.49708(18) 0.6227(3)
H15 H 0.30900 0.51930 0.70960
#END
