
#######################################################################
#
#                 Cambridge Crystallographic Data Centre
#                                CCDC
#
#######################################################################
#
# If this CIF has been generated from an entry in the Cambridge
# Structural Database, then it will include bibliographic, chemical,
# crystal, experimental, refinement or atomic coordinate data resulting
# from the CCDC's data processing and validation procedures.
#
#######################################################################

data_CSD_CIF_VEKNUV
_audit_creation_date 2006-09-28
_audit_creation_method CSD-ConQuest-V1
_database_code_CSD VEKNUV
_database_code_depnum_ccdc_archive 'CCDC 295187'
_chemical_formula_sum 'C12 H13 N3 O3'
_chemical_formula_moiety
;
C12 H13 N3 O3
;
_journal_coden_Cambridge 16
_journal_volume 62
_journal_year 2006
_journal_page_first 7999
_journal_name_full 'Tetrahedron '
loop_
_publ_author_name
"Shuling Ma"
"Jiarong Li"
"Yongjiang Sun"
"Jianmin Zhao"
"Xiaofan Zhao"
"Xiquan Yang"
"Lijun Zhang"
"Lijun Wang"
"Zhiming Zhou"
_chemical_name_systematic
;
6-Nitro-1,2-dihydro-2,2-(1',4'-butylene)-4-imino-4H-3,1-benzoxazine
;
_chemical_melting_point 554.15
_cell_volume   2309.975
_exptl_crystal_colour 'colorless'
_exptl_crystal_density_diffrn 1.422
_exptl_special_details
;
Melting point range 554.15-556.15K

;
_exptl_crystal_description 'block'
_diffrn_ambient_temperature 293
#These two values have been output from a single CSD field.
_refine_ls_R_factor_gt 0.0665
_refine_ls_wR_factor_gt 0.0665
_symmetry_cell_setting monoclinic
_symmetry_space_group_name_H-M 'C 2/c'
_symmetry_Int_Tables_number 15
loop_
_symmetry_equiv_pos_site_id
_symmetry_equiv_pos_as_xyz
1 x,y,z
2 1/2+x,1/2+y,z
3 -x,y,1/2-z
4 1/2-x,1/2+y,1/2-z
5 -x,-y,-z
6 -1/2-x,-1/2-y,-z
7 x,-y,-1/2+z
8 -1/2+x,-1/2-y,-1/2+z
_cell_length_a 19.206(4)
_cell_length_b 8.7663(18)
_cell_length_c 13.720(3)
_cell_angle_alpha 90
_cell_angle_beta 90.03(3)
_cell_angle_gamma 90
_cell_formula_units_Z 8
loop_
_atom_type_symbol
_atom_type_radius_bond
C 0.68
H 0.23
N 0.68
O 0.68
loop_
_atom_site_label
_atom_site_type_symbol
_atom_site_fract_x
_atom_site_fract_y
_atom_site_fract_z
O1 O 0.67814(12) 0.3412(3) 0.05999(19)
O2 O 0.39760(13) -0.1600(3) 0.1686(2)
O3 O 0.49715(15) -0.2571(3) 0.1338(2)
N1 N 0.56661(13) 0.4444(3) 0.0909(2)
H1 H 0.5377(19) 0.519(4) 0.102(2)
N2 N 0.69111(11) 0.0844(2) 0.03376(17)
H2 H 0.72660 0.11200 0.01920
N3 N 0.45828(13) -0.1458(3) 0.14493(18)
C1 C 0.65563(14) 0.1938(3) 0.0617(2)
C2 C 0.58310(14) 0.1720(3) 0.09513(19)
C3 C 0.55624(15) 0.0251(3) 0.10843(19)
H3 H 0.58510 -0.05970 0.10300
C4 C 0.48632(14) 0.0071(3) 0.12976(19)
C5 C 0.44191(15) 0.1340(3) 0.1365(2)
H4 H 0.39490 0.12010 0.15030
C6 C 0.46778(14) 0.2786(3) 0.1226(2)
H5 H 0.43790 0.36200 0.12560
C7 C 0.53934(14) 0.3015(3) 0.10388(19)
C8 C 0.64116(14) 0.4686(3) 0.1066(2)
C9 C 0.66681(16) 0.6208(3) 0.0643(2)
H6 H 0.68200 0.60730 -0.00260
H7 H 0.62970 0.69590 0.06530
C10 C 0.7270(2) 0.6730(4) 0.1274(3)
H8 H 0.71880 0.77590 0.15080
H9 H 0.76990 0.67230 0.09020
C11 C 0.7321(2) 0.5624(4) 0.2129(3)
H10 H 0.76970 0.49020 0.20310
H11 H 0.73990 0.61680 0.27350
C12 C 0.66225(16) 0.4815(3) 0.2143(2)
H12 H 0.62820 0.54020 0.25060
H13 H 0.66650 0.38130 0.24370
#END
