
#######################################################################
#
#                 Cambridge Crystallographic Data Centre
#                                CCDC
#
#######################################################################
#
# If this CIF has been generated from an entry in the Cambridge
# Structural Database, then it will include bibliographic, chemical,
# crystal, experimental, refinement or atomic coordinate data resulting
# from the CCDC's data processing and validation procedures.
#
#######################################################################

data_CSD_CIF_VENKOP
_audit_creation_date 2006-12-04
_audit_creation_method CSD-ConQuest-V1
_database_code_CSD VENKOP
_database_code_depnum_ccdc_archive 'CCDC 621464'
_chemical_formula_sum 'C16 H14 N2 O3'
_chemical_formula_moiety
;
C16 H14 N2 O3
;
_journal_coeditor_code "IUCr SG2050"
_journal_coden_Cambridge 1370
_journal_volume 62
_journal_year 2006
_journal_page_first o4070
_journal_name_full 'Acta Crystallogr.,Sect.E:Struct.Rep.Online '
loop_
_publ_author_name
"Xiao-Yan Yang"
"Ying Li"
"Xiao-Lian He"
"Sai Bi"
"Shu-Sheng Zhang"
_chemical_name_systematic
;
4-Methoxy-N-(3-(2-nitrophenyl)allylidene)aniline
;
_cell_volume   1410.966
_exptl_crystal_colour 'yellow'
_exptl_crystal_density_diffrn 1.329
_exptl_crystal_description 'plate'
_exptl_crystal_preparation 'ethanol/water'
_diffrn_ambient_temperature 293
#These two values have been output from a single CSD field.
_refine_ls_R_factor_gt 0.0556
_refine_ls_wR_factor_gt 0.0556
_symmetry_cell_setting monoclinic
_symmetry_space_group_name_H-M 'P 21/c'
_symmetry_Int_Tables_number 14
loop_
_symmetry_equiv_pos_site_id
_symmetry_equiv_pos_as_xyz
1 x,y,z
2 -x,1/2+y,1/2-z
3 -x,-y,-z
4 x,-1/2-y,-1/2+z
_cell_length_a 7.4308(15)
_cell_length_b 7.8556(16)
_cell_length_c 24.569(5)
_cell_angle_alpha 90
_cell_angle_beta 100.322(6)
_cell_angle_gamma 90
_cell_formula_units_Z 4
loop_
_atom_type_symbol
_atom_type_radius_bond
C 0.68
H 0.23
N 0.68
O 0.68
loop_
_atom_site_label
_atom_site_type_symbol
_atom_site_fract_x
_atom_site_fract_y
_atom_site_fract_z
O1 O 0.1456(3) -0.1551(3) -0.24872(9)
O2 O -0.0160(3) -0.2517(3) -0.19281(8)
O3 O -0.5184(2) -0.0956(2) 0.16355(7)
N1 N 0.0079(3) -0.2985(3) 0.04202(8)
N2 N 0.1306(3) -0.2311(3) -0.20712(9)
C1 C -0.2990(3) -0.1760(3) 0.04347(9)
H1 H -0.32170 -0.16430 0.00520
C2 C -0.4314(3) -0.1270(3) 0.07307(10)
H2 H -0.54250 -0.08420 0.05470
C3 C -0.3988(3) -0.1416(3) 0.13003(9)
C4 C -0.2349(3) -0.2102(3) 0.15656(10)
H3 H -0.21220 -0.22150 0.19490
C5 C -0.1056(3) -0.2620(3) 0.12661(9)
H4 H 0.00220 -0.31150 0.14480
C6 C -0.1335(3) -0.2419(3) 0.06930(8)
C7 C 0.0212(3) -0.2475(3) -0.0059(1)
H5 H -0.06110 -0.16610 -0.02280
C8 C 0.1580(3) -0.3100(3) -0.0353(1)
H6 H 0.23870 -0.39210 -0.01800
C9 C 0.1772(3) -0.2604(3) -0.08489(9)
H7 H 0.09790 -0.17610 -0.10140
C10 C 0.3118(3) -0.3240(3) -0.11673(9)
C11 C 0.4721(3) -0.4023(3) -0.08999(11)
H8 H 0.48960 -0.41580 -0.05180
C12 C 0.6048(4) -0.4605(3) -0.11782(13)
H9 H 0.70810 -0.51510 -0.09870
C13 C 0.5838(4) -0.4377(4) -0.17428(14)
H10 H 0.67420 -0.47480 -0.19320
C14 C 0.4299(4) -0.3599(4) -0.20232(12)
H11 H 0.41540 -0.34340 -0.24030
C15 C 0.2961(3) -0.3064(3) -0.17384(10)
C16 C -0.6852(3) -0.0182(4) 0.13887(12)
H12 H -0.75510 0.00900 0.16700
H13 H -0.66020 0.08410 0.12020
H14 H -0.75340 -0.09550 0.11270
#END
