
#######################################################################
#
#                 Cambridge Crystallographic Data Centre
#                                CCDC
#
#######################################################################
#
# If this CIF has been generated from an entry in the Cambridge
# Structural Database, then it will include bibliographic, chemical,
# crystal, experimental, refinement or atomic coordinate data resulting
# from the CCDC's data processing and validation procedures.
#
#######################################################################

data_CSD_CIF_VENLEG01
_audit_creation_date 2007-10-23
_audit_creation_method CSD-ConQuest-V1
_database_code_CSD VENLEG01
_database_code_depnum_ccdc_archive 'CCDC 644363'
_chemical_formula_sum 'C27 H27 N7 O6'
_chemical_formula_moiety
;
C27 H27 N7 O6
;
_journal_coden_Cambridge 1078
_journal_year 2007
_journal_name_full 'CSD Communication(Private Communication) '
loop_
_publ_author_name
"P.Elizondo Martinez"
"B.Najera Martinez"
"J.F.Gongora Gomez"
"S.Bernes"
"C.Rodriguez de Barbarin"
_chemical_name_systematic
;
tris(2-(2-nitrobenzylideneamino)ethyl)amine
;
_cell_volume   4001.905
_exptl_crystal_colour 'yellow'
_exptl_crystal_density_diffrn 1.358
_exptl_special_details
;
contribution from Facultad de Ciencias Quimicas, UANL Guerrero y Progreso 
S/N, Col. Trevino, 64570 Monterrey, N.L., Mexico
;
_exptl_crystal_description 'prism'
_diffrn_ambient_temperature 298
_refine_special_details
;
The aminoethyl chains are disordered over two sites with occupancies of 
0.65:0.35.
;
#These two values have been output from a single CSD field.
_refine_ls_R_factor_gt 0.0599
_refine_ls_wR_factor_gt 0.0599
_symmetry_cell_setting rhombohedral
_symmetry_space_group_name_H-M 'R -3'
_symmetry_Int_Tables_number 148
loop_
_symmetry_equiv_pos_site_id
_symmetry_equiv_pos_as_xyz
1 x,y,z
2 -y,x-y,z
3 -x+y,-x,z
4 2/3+x,1/3+y,1/3+z
5 2/3-y,1/3+x-y,1/3+z
6 2/3-x+y,1/3-x,1/3+z
7 1/3+x,2/3+y,2/3+z
8 1/3-y,2/3+x-y,2/3+z
9 1/3-x+y,2/3-x,2/3+z
10 -x,-y,-z
11 y,-x+y,-z
12 x-y,x,-z
13 -2/3-x,-1/3-y,-1/3-z
14 -2/3+y,-1/3-x+y,-1/3-z
15 -2/3+x-y,-1/3+x,-1/3-z
16 -1/3-x,-2/3-y,-2/3-z
17 -1/3+y,-2/3-x+y,-2/3-z
18 -1/3+x-y,-2/3+x,-2/3-z
_cell_length_a 20.839(3)
_cell_length_b 20.839(3)
_cell_length_c 10.641(2)
_cell_angle_alpha 90
_cell_angle_beta 90
_cell_angle_gamma 120
_cell_formula_units_Z 6
loop_
_atom_type_symbol
_atom_type_radius_bond
C 0.68
H 0.23
N 0.68
O 0.68
loop_
_atom_site_label
_atom_site_type_symbol
_atom_site_fract_x
_atom_site_fract_y
_atom_site_fract_z
N1 N 0.66670 0.33330 0.0802(5)
C1? C 0.6000(6) 0.2788(9) 0.1476(16)
H1? H 0.61360 0.25850 0.21820
H2? H 0.57280 0.30190 0.17920
C2? C 0.5551(8) 0.2207(9) 0.059(2)
H3? H 0.57780 0.19050 0.04510
H4? H 0.55460 0.24310 -0.02030
N2? N 0.4785(9) 0.1727(13) 0.1013(19)
C3 C 0.5875(3) 0.2831(3) 0.1013(8)
H5 H 0.58170 0.25930 0.18210
H6 H 0.56360 0.31280 0.10740
C4 C 0.5486(5) 0.2269(5) 0.0102(8)
H7 H 0.57440 0.19960 -0.00370
H8 H 0.54730 0.24950 -0.06880
N3 N 0.4725(4) 0.1757(5) 0.0521(10)
C5 C 0.44969(13) 0.10787(14) 0.0459(3)
H9? H 0.47820 0.09630 -0.00650
H10 H 0.48250 0.09130 0.02660
C6 C 0.37058(11) 0.05374(12) 0.0692(2)
C7 C 0.32069(13) 0.07938(14) 0.0742(3)
H11 H 0.33850 0.13010 0.07110
C8 C 0.24551(14) 0.03167(17) 0.0837(3)
H12 H 0.21340 0.05040 0.08740
C9 C 0.21787(14) -0.04329(16) 0.0878(3)
H13 H 0.16700 -0.07540 0.09330
C10 C 0.26510(14) -0.07091(14) 0.0836(3)
H14 H 0.24670 -0.12180 0.08590
C11 C 0.34029(12) -0.02247(12) 0.0759(2)
N4 N 0.38751(14) -0.05666(13) 0.0808(2)
O1 O 0.45103(12) -0.01881(13) 0.1155(2)
O2 O 0.36028(15) -0.12150(12) 0.0529(3)
C3A C 0.7169(3) 0.3044(3) 0.1013(8)
C3B C 0.6956(3) 0.4125(3) 0.1013(8)
H5A H 0.74070 0.32240 0.18210
H5B H 0.67760 0.41830 0.18210
H6A H 0.68720 0.25080 0.10740
H6B H 0.74920 0.43640 0.10740
C4A C 0.7731(5) 0.3217(5) 0.0102(8)
C4B C 0.6783(5) 0.4514(5) 0.0102(8)
H7A H 0.80040 0.37480 -0.00370
H7B H 0.62520 0.42560 -0.00370
H8A H 0.75050 0.29780 -0.06880
H8B H 0.70220 0.45270 -0.06880
N3A N 0.8243(4) 0.2968(5) 0.0521(10)
N3B N 0.7032(4) 0.5275(5) 0.0521(10)
C5A C 0.89213(13) 0.34182(14) 0.0459(3)
C5B C 0.65818(13) 0.55031(14) 0.0459(3)
H10A H 0.90870 0.39120 0.02660
H10B H 0.60880 0.51750 0.02660
C6A C 0.94626(11) 0.31684(12) 0.0692(2)
C6B C 0.68316(11) 0.62942(12) 0.0692(2)
C7A C 0.92062(13) 0.24131(14) 0.0742(3)
C7B C 0.75869(13) 0.67931(14) 0.0742(3)
H11A H 0.86990 0.20840 0.07110
H11B H 0.79160 0.66150 0.07110
C8A C 0.96833(14) 0.21384(17) 0.0837(3)
C8B C 0.78616(14) 0.75449(17) 0.0837(3)
H12A H 0.94960 0.16300 0.08740
H12B H 0.83700 0.78660 0.08740
C9A C 1.04329(14) 0.26116(16) 0.0878(3)
C9B C 0.73884(14) 0.78213(16) 0.0878(3)
H13A H 1.07540 0.24240 0.09330
H13B H 0.75760 0.83300 0.09330
C10A C 1.07091(14) 0.33601(14) 0.0836(3)
C10B C 0.66399(14) 0.73490(14) 0.0836(3)
H14A H 1.12180 0.36850 0.08590
H14B H 0.63150 0.75330 0.08590
C11A C 1.02247(12) 0.36276(12) 0.0759(2)
C11B C 0.63724(12) 0.65971(12) 0.0759(2)
N4A N 1.05666(14) 0.44417(13) 0.0808(2)
N4B N 0.55583(14) 0.61249(13) 0.0808(2)
O1A O 1.01881(12) 0.46984(13) 0.1155(2)
O1B O 0.53016(12) 0.54897(13) 0.1155(2)
O2A O 1.12150(15) 0.48178(12) 0.0529(3)
O2B O 0.51822(15) 0.63972(12) 0.0529(3)
#END
