
#######################################################################
#
#                 Cambridge Crystallographic Data Centre
#                                CCDC
#
#######################################################################
#
# If this CIF has been generated from an entry in the Cambridge
# Structural Database, then it will include bibliographic, chemical,
# crystal, experimental, refinement or atomic coordinate data resulting
# from the CCDC's data processing and validation procedures.
#
#######################################################################

data_CSD_CIF_VETPAL
_audit_creation_date 1991-03-28
_audit_creation_method CSD-ConQuest-V1
_database_code_CSD VETPAL
_chemical_formula_sum 'C24 H27 N1 O5'
_chemical_formula_moiety
;
C24 H27 N1 O5
;
_journal_coden_Cambridge 207
_journal_year 1990
_journal_page_first 2263
_journal_name_full 'J.Chem.Soc.,Perkin Trans.1 '
loop_
_publ_author_name
"M.J.Begley"
"P.V.Fish"
"G.Pattenden"
"S.T.Hodgson"
_chemical_name_systematic
;
(1'S*,6'S*)-2',2',6',7-Tetramethylspiro(benzofuran-2(3H),1'-cyclohexane)-5-p-n
itrobenzoate
;
_cell_volume   2201.547
_exptl_crystal_density_diffrn 1.24
_diffrn_ambient_temperature ?
_diffrn_special_details
;
The study was carried out at room temperature,in the range 283-303K

;
#These two values have been output from a single CSD field.
_refine_ls_R_factor_gt 0.0631
_refine_ls_wR_factor_gt 0.0631
_symmetry_cell_setting monoclinic
_symmetry_space_group_name_H-M 'P 21/c'
_symmetry_Int_Tables_number 14
loop_
_symmetry_equiv_pos_site_id
_symmetry_equiv_pos_as_xyz
1 x,y,z
2 -x,1/2+y,1/2-z
3 -x,-y,-z
4 x,-1/2-y,-1/2+z
_cell_length_a 19.079(3)
_cell_length_b 8.140(2)
_cell_length_c 14.181(4)
_cell_angle_alpha 90
_cell_angle_beta 91.55(2)
_cell_angle_gamma 90
_cell_formula_units_Z 4
loop_
_atom_type_symbol
_atom_type_radius_bond
C 0.68
H 0.23
N 0.68
O 0.68
loop_
_atom_site_label
_atom_site_type_symbol
_atom_site_fract_x
_atom_site_fract_y
_atom_site_fract_z
O1 O 0.3366(3) 0.0643(6) 0.5135(3)
C1 C 0.2840(4) 0.069(1) 0.4467(5)
C2 C 0.2787(4) -0.046(1) 0.3741(5)
C3 C 0.2234(5) -0.022(1) 0.3087(5)
C4 C 0.1787(4) 0.106(1) 0.3194(5)
C5 C 0.1833(4) 0.219(1) 0.3931(6)
C6 C 0.2382(4) 0.1955(9) 0.4573(5)
C7 C 0.2595(4) 0.295(1) 0.5425(6)
C8 C 0.3275(4) 0.2110(9) 0.5776(6)
C9 C 0.3930(4) 0.317(1) 0.5685(5)
C10 C 0.4587(5) 0.223(1) 0.6008(7)
C11 C 0.4539(5) 0.148(1) 0.6949(7)
C12 C 0.3896(5) 0.043(1) 0.7034(5)
C13 C 0.3224(5) 0.135(1) 0.6752(6)
C14 C 0.3303(5) -0.181(1) 0.3656(6)
C15 C 0.4018(5) 0.363(1) 0.4660(6)
C16 C 0.3850(6) 0.479(1) 0.6270(7)
C17 C 0.2608(5) 0.019(1) 0.6836(6)
O2 O 0.1279(3) 0.1342(8) 0.2421(4)
C18 C 0.0641(5) 0.102(1) 0.2629(6)
O3 O 0.0444(3) 0.0539(9) 0.3366(5)
C19 C 0.0140(5) 0.135(1) 0.1802(6)
C20 C 0.0349(4) 0.202(1) 0.0970(6)
C21 C -0.0141(5) 0.231(1) 0.0248(5)
C22 C -0.0816(5) 0.195(1) 0.0396(6)
C23 C -0.1040(4) 0.133(1) 0.1233(7)
C24 C -0.0553(5) 0.105(1) 0.1919(5)
N1 N -0.1344(5) 0.217(1) -0.0388(7)
O4 O -0.1154(5) 0.278(2) -0.1091(7)
O5 O -0.1931(4) 0.185(1) -0.0266(6)
H1 H 0.21940 -0.10330 0.25260
H2 H 0.14470 0.30850 0.39910
H3 H 0.22080 0.29300 0.59450
H4 H 0.26620 0.41740 0.52970
H5 H 0.50370 0.29200 0.59600
H6 H 0.46740 0.12470 0.55400
H7 H 0.49720 0.09330 0.71800
H8 H 0.44650 0.24860 0.74200
H9 H 0.38840 -0.01330 0.76490
H10 H 0.39540 -0.04950 0.65220
H11 H 0.31480 0.22380 0.72840
H12 H 0.33460 -0.21340 0.28860
H13 H 0.37990 -0.15360 0.39070
H14 H 0.31650 -0.28670 0.40030
H15 H 0.44700 0.43010 0.45580
H16 H 0.40920 0.25710 0.42570
H17 H 0.36220 0.42320 0.43720
H18 H 0.42450 0.55740 0.62080
H19 H 0.37570 0.45840 0.69460
H20 H 0.34000 0.54360 0.60080
H21 H 0.25700 -0.03050 0.74990
H22 H 0.21490 0.07840 0.67000
H23 H 0.26510 -0.07330 0.63820
H24 H 0.08840 0.22630 0.08370
H25 H -0.00070 0.27980 -0.03940
H26 H -0.15790 0.10730 0.13530
H27 H -0.07060 0.05820 0.25520
#END
