
#######################################################################
#
#                 Cambridge Crystallographic Data Centre
#                                CCDC
#
#######################################################################
#
# If this CIF has been generated from an entry in the Cambridge
# Structural Database, then it will include bibliographic, chemical,
# crystal, experimental, refinement or atomic coordinate data resulting
# from the CCDC's data processing and validation procedures.
#
#######################################################################

data_CSD_CIF_VIFBAQ
_audit_creation_date 2018-06-10
_audit_creation_method CSD-ConQuest-V1
_database_code_CSD VIFBAQ
_database_code_depnum_ccdc_archive 'CCDC 1828890'
_chemical_formula_sum 'C12 H10 N2 O5'
_chemical_formula_moiety
;
C12 H10 N2 O5
;
_journal_coden_Cambridge 2038
_journal_volume 4
_journal_year 2018
_journal_page_first 1427
_journal_name_full 'Chem Cell mPress '
loop_
_publ_author_name
"Jun Pan"
"Xinyao Li"
"Fengguirong Lin"
"Jianzhong Liu"
"Ning Jiao"
_chemical_name_systematic
;
dimethyl 1-oxo-quinoxaline-2,3-dicarboxylate
;
_cell_volume   1169.065
_exptl_crystal_colour 'light yellow'
_exptl_crystal_density_diffrn 1.49
_exptl_crystal_description 'plate'
_diffrn_ambient_temperature 293
#These two values have been output from a single CSD field.
_refine_ls_R_factor_gt 0.0345
_refine_ls_wR_factor_gt 0.0345
_symmetry_cell_setting monoclinic
_symmetry_space_group_name_H-M 'P 21/n'
_symmetry_Int_Tables_number 14
loop_
_symmetry_equiv_pos_site_id
_symmetry_equiv_pos_as_xyz
1 x,y,z
2 1/2-x,1/2+y,1/2-z
3 -x,-y,-z
4 -1/2+x,-1/2-y,-1/2+z
_cell_length_a 8.04068(9)
_cell_length_b 15.20844(16)
_cell_length_c 10.15800(13)
_cell_angle_alpha 90
_cell_angle_beta 109.7566(14)
_cell_angle_gamma 90
_cell_formula_units_Z 4
loop_
_atom_type_symbol
_atom_type_radius_bond
C 0.68
H 0.23
N 0.68
O 0.68
loop_
_atom_site_label
_atom_site_type_symbol
_atom_site_fract_x
_atom_site_fract_y
_atom_site_fract_z
O1 O 0.39162(15) 0.34811(7) 0.78020(12)
O2 O 0.80761(15) 0.34205(7) 0.74418(12)
O3 O 0.55859(12) 0.32517(6) 0.56045(10)
O4 O 0.76326(14) 0.49295(7) 0.53742(11)
O5 O 0.83479(12) 0.61958(6) 0.65476(10)
N1 N 0.44521(15) 0.42630(7) 0.76955(11)
N2 N 0.56754(14) 0.59733(7) 0.75216(11)
C1 C 0.37171(18) 0.49790(9) 0.81756(13)
C2 C 0.2368(2) 0.48557(12) 0.87409(17)
H1 H 0.19090 0.42990 0.87800
C3 C 0.1744(2) 0.55762(13) 0.92342(18)
H2 H 0.08560 0.55030 0.96200
C4 C 0.2402(2) 0.64131(12) 0.91743(17)
H3 H 0.19580 0.68900 0.95230
C5 C 0.3694(2) 0.65391(10) 0.86081(16)
H4 H 0.41170 0.71030 0.85610
C6 C 0.43939(17) 0.58201(9) 0.80930(13)
C7 C 0.62746(16) 0.52851(8) 0.70465(12)
C8 C 0.57288(17) 0.44149(8) 0.71449(13)
C9 C 0.66035(18) 0.36334(9) 0.67602(14)
C10 C 0.6379(2) 0.25318(10) 0.51018(17)
H5 H 0.55290 0.22870 0.42760
H6 H 0.67550 0.20870 0.58120
H7 H 0.73810 0.27430 0.48840
C11 C 0.75091(16) 0.54400(8) 0.62406(13)
C12 C 0.9442(2) 0.64131(11) 0.57179(17)
H8 H 0.87210 0.64450 0.47490
H9 H 1.03280 0.59680 0.58410
H10 H 1.00020 0.69710 0.60130
#END
