
#######################################################################
#
#                 Cambridge Crystallographic Data Centre
#                                CCDC
#
#######################################################################
#
# If this CIF has been generated from an entry in the Cambridge
# Structural Database, then it will include bibliographic, chemical,
# crystal, experimental, refinement or atomic coordinate data resulting
# from the CCDC's data processing and validation procedures.
#
#######################################################################

data_CSD_CIF_VIKYOD
_audit_creation_date 1991-09-04
_audit_creation_method CSD-ConQuest-V1
_database_code_CSD VIKYOD
_chemical_formula_sum 'C11 H12 N2 O4'
_chemical_formula_moiety
;
C11 H12 N2 O4
;
_journal_coeditor_code "IUCr HH0428"
_journal_coden_Cambridge 591
_journal_volume 47
_journal_year 1991
_journal_page_first 813
_journal_name_full 'Acta Crystallogr.,Sect.C:Cryst.Struct.Commun. '
loop_
_publ_author_name
"J.L.Flippen-Anderson"
"C.George"
"R.Gilardi"
"W.W.Zajac Junior"
"T.R.Walters"
"A.Marchand"
"P.R.Dave"
"B.E.Arney Junior"
_chemical_name_systematic
;
8,11-Dinitropentacyclo(5.4.0.0^2,6^.0^3,10^.0^5,9^)undecane
;
_cell_volume   1030.987
_exptl_crystal_density_diffrn 1.52
_diffrn_ambient_temperature ?
_diffrn_special_details
;
The study was carried out at room temperature,in the range 283-303K

;
#These two values have been output from a single CSD field.
_refine_ls_R_factor_gt 0.048
_refine_ls_wR_factor_gt 0.048
_symmetry_cell_setting monoclinic
_symmetry_space_group_name_H-M 'P 21/c'
_symmetry_Int_Tables_number 14
loop_
_symmetry_equiv_pos_site_id
_symmetry_equiv_pos_as_xyz
1 x,y,z
2 -x,1/2+y,1/2-z
3 -x,-y,-z
4 x,-1/2-y,-1/2+z
_cell_length_a 8.530(1)
_cell_length_b 9.909(1)
_cell_length_c 12.277(1)
_cell_angle_alpha 90
_cell_angle_beta 96.52(2)
_cell_angle_gamma 90
_cell_formula_units_Z 4
loop_
_atom_type_symbol
_atom_type_radius_bond
C 0.68
H 0.23
N 0.68
O 0.68
loop_
_atom_site_label
_atom_site_type_symbol
_atom_site_fract_x
_atom_site_fract_y
_atom_site_fract_z
C1 C 0.4521(3) 0.0342(2) 0.2310(2)
N1 N 0.5487(2) 0.0701(2) 0.1386(2)
O1 O 0.5388(3) 0.1838(2) 0.1008(2)
O2 O 0.6281(2) -0.0186(3) 0.1053(2)
C2 C 0.3926(3) 0.1570(2) 0.2861(2)
C3 C 0.2971(3) 0.1137(2) 0.3819(2)
C4 C 0.2929(3) -0.0392(2) 0.3906(2)
N2 N 0.2122(3) -0.0836(2) 0.4875(2)
O3 O 0.2721(3) -0.0493(3) 0.5774(2)
O4 O 0.0918(3) -0.1497(2) 0.4741(2)
C5 C 0.2023(3) -0.0766(2) 0.2813(2)
C6 C 0.2980(3) -0.0333(2) 0.1843(2)
C7 C 0.1975(3) 0.0841(2) 0.1306(2)
C8 C 0.2359(3) 0.1960(2) 0.2167(2)
C9 C 0.1412(3) 0.1529(2) 0.3115(2)
C10 C 0.0604(3) 0.0213(3) 0.2680(2)
C11 C 0.0296(3) 0.0434(3) 0.1453(2)
H1 H 0.3944(29) -0.0782(22) 0.3999(20)
H2 H 0.4741(27) 0.2254(26) 0.3017(20)
H3 H 0.3202(28) 0.1608(25) 0.4509(23)
H4 H 0.5216(28) -0.0205(26) 0.2726(21)
H5 H 0.1750(25) -0.1693(24) 0.2777(18)
H6 H 0.3160(25) -0.1092(22) 0.1350(19)
H7 H 0.2187(25) 0.1006(22) 0.0622(22)
H8 H 0.2282(26) 0.2871(28) 0.1901(20)
H9 H 0.0766(26) 0.2167(23) 0.3356(18)
H10 H -0.0242(27) -0.0116(24) 0.3087(19)
H11 H -0.0472(30) 0.1160(24) 0.1259(21)
H12 H -0.0029(28) -0.0420(27) 0.1069(21)
#END
