
#######################################################################
#
#                 Cambridge Crystallographic Data Centre
#                                CCDC
#
#######################################################################
#
# If this CIF has been generated from an entry in the Cambridge
# Structural Database, then it will include bibliographic, chemical,
# crystal, experimental, refinement or atomic coordinate data resulting
# from the CCDC's data processing and validation procedures.
#
#######################################################################

data_CSD_CIF_VIQWUO
_audit_creation_date 2008-04-07
_audit_creation_method CSD-ConQuest-V1
_database_code_CSD VIQWUO
_database_code_depnum_ccdc_archive 'CCDC 649284'
_chemical_formula_sum 'C16 H18 N2 O3'
_chemical_formula_moiety
;
C16 H18 N2 O3
;
_journal_coden_Cambridge 1090
_journal_volume 18
_journal_year 2007
_journal_page_first 2365
_journal_name_full 'Tetrahedron:Asymm. '
loop_
_publ_author_name
"U.Groselj"
"A.Meden"
"B.Stanovnik"
"J.Svete"
_chemical_name_systematic
;
(1R,3E,4S)-1,7,7-Trimethyl-3-(3-nitrophenylimino)bicyclo(2.2.1)heptan-2-one
;
_cell_volume   1516.477
_exptl_crystal_colour 'yellow'
_exptl_crystal_density_diffrn 1.254
_exptl_crystal_description 'block'
_exptl_crystal_preparation 'chloroform/n-heptane'
_diffrn_ambient_temperature 293
#These two values have been output from a single CSD field.
_refine_ls_R_factor_gt 0.044
_refine_ls_wR_factor_gt 0.044
_symmetry_cell_setting orthorhombic
_symmetry_space_group_name_H-M 'P 21 21 21'
_symmetry_Int_Tables_number 19
loop_
_symmetry_equiv_pos_site_id
_symmetry_equiv_pos_as_xyz
1 x,y,z
2 1/2-x,-y,1/2+z
3 1/2+x,1/2-y,-z
4 -x,1/2+y,1/2-z
_cell_length_a 7.2772(1)
_cell_length_b 11.1566(2)
_cell_length_c 18.6784(3)
_cell_angle_alpha 90
_cell_angle_beta 90
_cell_angle_gamma 90
_cell_formula_units_Z 4
loop_
_atom_type_symbol
_atom_type_radius_bond
C 0.68
H 0.23
N 0.68
O 0.68
loop_
_atom_site_label
_atom_site_type_symbol
_atom_site_fract_x
_atom_site_fract_y
_atom_site_fract_z
O1 O -0.8152(3) -0.35227(16) -0.03486(10)
O2 O -1.2682(5) 0.1674(4) 0.1391(3)
O3 O -1.1155(6) 0.3221(2) 0.1666(2)
N1 N -0.8192(3) -0.10933(18) 0.02296(10)
N2 N -1.1291(5) 0.2256(3) 0.13762(16)
C1 C -0.8706(3) -0.2520(2) -0.15002(13)
C2 C -0.8383(3) -0.2635(2) -0.07018(12)
C3 C -0.8431(3) -0.1348(2) -0.04236(11)
C4 C -0.8801(3) -0.0598(2) -0.10798(11)
C5 C -1.0818(3) -0.0859(3) -0.12784(14)
C6 C -1.0767(4) -0.2157(3) -0.15477(16)
C7 C -0.7718(3) -0.1308(2) -0.16526(11)
C8 C -0.5647(3) -0.1355(3) -0.14985(18)
C9 C -0.8019(4) -0.0830(3) -0.24120(12)
C10 C -0.8155(6) -0.3613(3) -0.19347(16)
C11 C -0.8200(4) 0.0130(2) 0.04363(11)
C12 C -0.6625(5) 0.0822(3) 0.03666(14)
C13 C -0.6611(6) 0.2005(3) 0.06032(16)
C14 C -0.8155(5) 0.2493(2) 0.09245(13)
C15 C -0.9675(4) 0.1773(2) 0.09996(13)
C16 C -0.9749(4) 0.0605(2) 0.07612(13)
H1 H -0.54492 0.04535 0.01388
H2 H -0.54384 0.25244 0.05409
H3 H -0.81586 0.33746 0.11008
H4 H -1.09367 0.00967 0.08230
H5 H -0.86165 0.03082 -0.09668
H6 H -1.16634 -0.07821 -0.08320
H7 H -1.12721 -0.02839 -0.16775
H8 H -1.15689 -0.27104 -0.12246
H9 H -1.12303 -0.22111 -0.20734
H10 H -0.54271 -0.16901 -0.09868
H11 H -0.50109 -0.19136 -0.18715
H12 H -0.50959 -0.04986 -0.15378
H13 H -0.94110 -0.08752 -0.25387
H14 H -0.75745 0.00500 -0.24420
H15 H -0.72790 -0.13549 -0.27726
H16 H -0.89535 -0.43437 -0.17802
H17 H -0.83695 -0.34408 -0.24760
H18 H -0.67775 -0.38052 -0.18478
#END
