
#######################################################################
#
#                 Cambridge Crystallographic Data Centre
#                                CCDC
#
#######################################################################
#
# If this CIF has been generated from an entry in the Cambridge
# Structural Database, then it will include bibliographic, chemical,
# crystal, experimental, refinement or atomic coordinate data resulting
# from the CCDC's data processing and validation procedures.
#
#######################################################################

data_CSD_CIF_VITPUK
_audit_creation_date 2008-04-06
_audit_creation_method CSD-ConQuest-V1
_database_code_CSD VITPUK
_database_code_depnum_ccdc_archive 'CCDC 625917'
_chemical_formula_sum 'C15 H13 N1 O2'
_chemical_formula_moiety
;
C15 H13 N1 O2
;
_journal_coden_Cambridge 1003
_journal_volume 37
_journal_year 2007
_journal_page_first 859
_journal_name_full 'J.Chem.Cryst. '
loop_
_publ_author_name
"K.Bania"
"R.J.Sarma"
"A.Karmakar"
"J.B.Baruah"
_chemical_name_systematic
;
2-(Benzo(c)isoxazol-3-yl)-4,6-dimethylphenol
;
_cell_volume   1226.364
_exptl_crystal_colour 'light yellow'
_exptl_crystal_density_diffrn 1.296
_exptl_crystal_description 'needles'
_diffrn_ambient_temperature 296
#These two values have been output from a single CSD field.
_refine_ls_R_factor_gt 0.0527
_refine_ls_wR_factor_gt 0.0527
_symmetry_cell_setting orthorhombic
_symmetry_space_group_name_H-M 'P 21 21 21'
_symmetry_Int_Tables_number 19
loop_
_symmetry_equiv_pos_site_id
_symmetry_equiv_pos_as_xyz
1 x,y,z
2 1/2-x,-y,1/2+z
3 -x,1/2+y,1/2-z
4 1/2+x,1/2-y,-z
_cell_length_a 7.7374(6)
_cell_length_b 11.8849(9)
_cell_length_c 13.3361(8)
_cell_angle_alpha 90
_cell_angle_beta 90
_cell_angle_gamma 90
_cell_formula_units_Z 4
loop_
_atom_type_symbol
_atom_type_radius_bond
C 0.68
H 0.23
N 0.68
O 0.68
loop_
_atom_site_label
_atom_site_type_symbol
_atom_site_fract_x
_atom_site_fract_y
_atom_site_fract_z
C1 C 0.3154(3) 0.81850(18) 0.31810(16)
C2 C 0.3512(3) 0.70464(19) 0.29997(17)
C3 C 0.3143(4) 0.62812(19) 0.37464(19)
H1 H 0.33800 0.55250 0.36310
C4 C 0.2433(3) 0.6587(2) 0.4665(2)
C5 C 0.2057(3) 0.77073(19) 0.48163(18)
H2 H 0.15580 0.79270 0.54200
C6 C 0.2405(3) 0.85245(19) 0.40868(17)
C7 C 0.1966(3) 0.96996(19) 0.42861(16)
C8 C 0.1533(3) 1.06563(17) 0.37472(17)
C9 C 0.1316(4) 1.0947(2) 0.27191(18)
H3 H 0.14900 1.04170 0.22160
C10 C 0.0848(4) 1.2017(2) 0.2493(2)
H4 H 0.07130 1.22180 0.18240
C11 C 0.0560(4) 1.2832(2) 0.3240(2)
H5 H 0.02670 1.35600 0.30470
C12 C 0.0693(4) 1.2595(2) 0.4226(2)
H6 H 0.04730 1.31370 0.47130
C13 C 0.1186(3) 1.1478(2) 0.44903(19)
C14 C 0.4244(4) 0.6683(2) 0.2008(2)
H7 H 0.46390 0.59190 0.20570
H8 H 0.51950 0.71620 0.18320
H9 H 0.33650 0.67340 0.15020
C15 C 0.2062(5) 0.5718(2) 0.5463(2)
H10 H 0.20220 0.60770 0.61070
H11 H 0.29570 0.51590 0.54600
H12 H 0.09690 0.53670 0.53280
H13 H 0.374(5) 0.880(3) 0.188(3)
N1 N 0.1379(4) 1.10787(16) 0.54122(16)
O1 O 0.3568(3) 0.89956(13) 0.25048(15)
O2 O 0.1886(3) 0.99524(13) 0.52728(12)
#END
