
#######################################################################
#
#                 Cambridge Crystallographic Data Centre
#                                CCDC
#
#######################################################################
#
# If this CIF has been generated from an entry in the Cambridge
# Structural Database, then it will include bibliographic, chemical,
# crystal, experimental, refinement or atomic coordinate data resulting
# from the CCDC's data processing and validation procedures.
#
#######################################################################

data_CSD_CIF_VITTOJ
_audit_creation_date 2014-02-11
_audit_creation_method CSD-ConQuest-V1
_database_code_CSD VITTOJ
_database_code_depnum_ccdc_archive 'CCDC 984809'
_chemical_formula_sum 'C25 H23 N1 O4'
_chemical_formula_moiety
;
C25 H23 N1 O4
;
_journal_coeditor_code "su2676"
_journal_coden_Cambridge 1370
_journal_volume 70
_journal_year 2014
_journal_page_first o281
_journal_name_full 'Acta Crystallogr.,Sect.E:Struct.Rep.Online '
loop_
_publ_author_name
"B.Raghuvarman"
"J.Srinivasan"
"M.Bakthadoss"
"S.Aravindhan"
_chemical_name_systematic
;
Methyl 
3-(4-methylphenyl)-1-phenyl-1,9b-dihydro-3H-chromeno[4,3-c][1,2]oxazole-3a(4H)
-carboxylate
;
_cell_volume   2035.015
_exptl_crystal_colour 'colorless'
_exptl_crystal_density_diffrn 1.31
_exptl_crystal_description 'block'
_diffrn_ambient_temperature 293
#These two values have been output from a single CSD field.
_refine_ls_R_factor_gt 0.0508
_refine_ls_wR_factor_gt 0.0508
_symmetry_cell_setting monoclinic
_symmetry_space_group_name_H-M 'P 21/n'
_symmetry_Int_Tables_number 14
loop_
_symmetry_equiv_pos_site_id
_symmetry_equiv_pos_as_xyz
1 x,y,z
2 1/2-x,1/2+y,1/2-z
3 -x,-y,-z
4 -1/2+x,-1/2-y,-1/2+z
_cell_length_a 14.0674(7)
_cell_length_b 7.8105(4)
_cell_length_c 19.7680(9)
_cell_angle_alpha 90
_cell_angle_beta 110.456(3)
_cell_angle_gamma 90
_cell_formula_units_Z 4
loop_
_atom_type_symbol
_atom_type_radius_bond
C 0.68
H 0.23
N 0.68
O 0.68
loop_
_atom_site_label
_atom_site_type_symbol
_atom_site_fract_x
_atom_site_fract_y
_atom_site_fract_z
C1 C 0.28173(13) 0.2285(2) 0.03324(9)
C2 C 0.21242(16) 0.2949(3) -0.03043(10)
H1 H 0.14320 0.29210 -0.03850
C3 C 0.24774(18) 0.3646(3) -0.08108(10)
H2 H 0.20200 0.40920 -0.12360
C4 C 0.35030(19) 0.3690(3) -0.06946(10)
H3 H 0.37370 0.41810 -0.10360
C5 C 0.41795(16) 0.3000(2) -0.00667(10)
H4 H 0.48700 0.30130 0.00070
C6 C 0.38480(13) 0.2284(2) 0.04573(9)
C7 C 0.46000(12) 0.1483(2) 0.11273(8)
H5 H 0.49200 0.05030 0.09830
C8 C 0.41150(12) 0.0860(2) 0.16788(8)
C9 C 0.31056(13) 0.1770(2) 0.15550(9)
H6 H 0.27880 0.12830 0.18740
H7 H 0.32340 0.29710 0.16770
C10 C 0.49094(12) 0.1477(2) 0.24007(8)
H8 H 0.54820 0.06760 0.25480
C11 C 0.64415(12) 0.2269(2) 0.16687(9)
C12 C 0.67274(15) 0.1419(2) 0.11511(10)
H9 H 0.62360 0.10260 0.07290
C13 C 0.77511(17) 0.1158(3) 0.12682(13)
H10 H 0.79400 0.05840 0.09230
C14 C 0.84856(16) 0.1735(3) 0.18855(13)
H11 H 0.91680 0.15670 0.19560
C15 C 0.82042(14) 0.2561(3) 0.23968(12)
H12 H 0.87010 0.29440 0.28180
C16 C 0.71910(13) 0.2836(2) 0.22953(10)
H13 H 0.70120 0.34010 0.26470
C17 C 0.45771(12) 0.1822(2) 0.30376(8)
C18 C 0.43833(14) 0.3468(2) 0.32141(10)
H14 H 0.44120 0.43780 0.29190
C19 C 0.41461(14) 0.3771(3) 0.38296(10)
H15 H 0.40310 0.48870 0.39460
C20 C 0.40780(14) 0.2438(3) 0.42726(10)
C21 C 0.42430(16) 0.0803(3) 0.40799(10)
H16 H 0.41780 -0.01140 0.43610
C22 C 0.45034(15) 0.0490(3) 0.34767(9)
H17 H 0.46300 -0.06260 0.33670
C23 C 0.3852(2) 0.2806(4) 0.49513(12)
H18 H 0.36970 0.17540 0.51420
H19 H 0.32820 0.35670 0.48400
H20 H 0.44330 0.33290 0.53030
C24 C 0.39583(14) -0.1064(2) 0.16638(9)
C25 C 0.3720(2) -0.3606(3) 0.09983(16)
H21 H 0.43200 -0.41810 0.13030
H22 H 0.35700 -0.39610 0.05070
H23 H 0.31610 -0.38910 0.11490
N1 N 0.5405(1) 0.27177(18) 0.15286(7)
O1 O 0.24239(9) 0.16260(17) 0.08243(6)
O2 O 0.52327(8) 0.30692(14) 0.21877(6)
O3 O 0.3903(2) -0.1874(2) 0.21509(9)
O4 O 0.38844(14) -0.17740(17) 0.10527(8)
#END
