
#######################################################################
#
#                 Cambridge Crystallographic Data Centre
#                                CCDC
#
#######################################################################
#
# If this CIF has been generated from an entry in the Cambridge
# Structural Database, then it will include bibliographic, chemical,
# crystal, experimental, refinement or atomic coordinate data resulting
# from the CCDC's data processing and validation procedures.
#
#######################################################################

data_CSD_CIF_VOFWUI
_audit_creation_date 1992-05-19
_audit_creation_method CSD-ConQuest-V1
_database_code_CSD VOFWUI
_chemical_formula_sum 'C15 H12 N2 O3'
_chemical_formula_moiety
;
C15 H12 N2 O3
;
_journal_coden_Cambridge 82
_journal_volume 31
_journal_year 1990
_journal_page_first 155-5
_journal_name_full 'Zh.Strukt.Khim.(Russ.)(J.Struct.Chem.) '
loop_
_publ_author_name
"Z.Kaluski"
"E.Gzhesyak-Figas"
"V.D.Orlov"
"F.G.Yaremenko"
_chemical_name_systematic
;
trans-2-(4-Nitrophenyl)-3-benzoylaziridine
;
_chemical_melting_point 415.15
_cell_volume   1309.258
_exptl_crystal_density_diffrn 1.37
_diffrn_ambient_temperature ?
_diffrn_special_details
;
The study was carried out at room temperature,in the range 283-303K

;
#These two values have been output from a single CSD field.
_refine_ls_R_factor_gt 0.055
_refine_ls_wR_factor_gt 0.055
_symmetry_cell_setting monoclinic
_symmetry_space_group_name_H-M 'P 21/n'
_symmetry_Int_Tables_number 14
loop_
_symmetry_equiv_pos_site_id
_symmetry_equiv_pos_as_xyz
1 x,y,z
2 1/2-x,1/2+y,1/2-z
3 -x,-y,-z
4 -1/2+x,-1/2-y,-1/2+z
_cell_length_a 13.468(2)
_cell_length_b 8.090(1)
_cell_length_c 12.617(1)
_cell_angle_alpha 90
_cell_angle_beta 107.75(1)
_cell_angle_gamma 90
_cell_formula_units_Z 4
loop_
_atom_type_symbol
_atom_type_radius_bond
C 0.68
H 0.23
N 0.68
O 0.68
loop_
_atom_site_label
_atom_site_type_symbol
_atom_site_fract_x
_atom_site_fract_y
_atom_site_fract_z
N1 N 0.2400(3) 0.5431(4) 0.0034(3)
C1 C 0.2628(3) 0.4409(4) -0.0818(3)
C2 C 0.1820(3) 0.3880(5) -0.0285(3)
C3 C 0.0707(3) 0.4009(5) -0.0976(3)
C4 C 0.0068(3) 0.2486(4) -0.1251(3)
C5 C -0.1015(3) 0.2595(5) -0.1595(3)
C6 C -0.1611(3) 0.1189(7) -0.1847(3)
C7 C -0.1139(4) -0.0343(6) -0.1766(4)
C8 C -0.0077(4) -0.0460(5) -0.1439(3)
C9 C 0.0545(3) 0.0946(4) -0.1159(3)
C10 C 0.3654(3) 0.3564(4) -0.0531(3)
C11 C 0.4312(3) 0.3490(5) 0.0571(3)
C12 C 0.5263(3) 0.2680(5) 0.0822(2)
C13 C 0.5537(2) 0.1946(4) -0.0027(3)
C14 C 0.4911(3) 0.1989(5) -0.1122(3)
C15 C 0.3968(3) 0.2813(4) -0.1360(3)
N2 N 0.6539(2) 0.1058(4) 0.0231(3)
O1 O 0.7123(2) 0.1131(4) 0.1192(3)
O2 O 0.6748(2) 0.0304(4) -0.0506(3)
O3 O 0.0339(2) 0.5364(3) -0.1300(3)
H1 H 0.18400 0.64900 0.03900
H2 H 0.22500 0.49300 -0.17100
H3 H 0.19700 0.27800 0.04200
H4 H -0.13000 0.38000 -0.16000
H5 H -0.24500 0.12500 -0.20200
H6 H 0.39500 0.39800 0.12600
H7 H 0.58100 0.25600 0.16900
H8 H 0.52000 0.12900 -0.17400
H9 H 0.34800 0.28200 -0.22400
#END
