
#######################################################################
#
#                 Cambridge Crystallographic Data Centre
#                                CCDC
#
#######################################################################
#
# If this CIF has been generated from an entry in the Cambridge
# Structural Database, then it will include bibliographic, chemical,
# crystal, experimental, refinement or atomic coordinate data resulting
# from the CCDC's data processing and validation procedures.
#
#######################################################################

data_CSD_CIF_VOGCOL
_audit_creation_date 2014-08-20
_audit_creation_method CSD-ConQuest-V1
_database_code_CSD VOGCOL
_database_code_depnum_ccdc_archive 'CCDC 999254'
_chemical_formula_sum 'C20 H23 N3 O5'
_chemical_formula_moiety
;
C20 H23 N3 O5
;
_journal_coden_Cambridge 1350
_journal_volume 16
_journal_year 2014
_journal_page_first 9001
_journal_name_full 'CrystEngComm '
loop_
_publ_author_name
"K.Salorinne"
"T.Lahtinen"
"V.Marjomaki"
"H.Hakkinen"
_chemical_name_systematic
;
Ethyl 
5-(3-(2,6-dimethyl-4-(5-methyl-1,2,4-oxadiazol-3-yl)phenoxy)propyl)isoxazole-3
-carboxylate
;
_cell_volume   1933.113
_exptl_crystal_colour 'colorless'
_exptl_crystal_density_diffrn 1.324
_exptl_special_details
;
form I polymorph

;
_exptl_crystal_description 'needle'
_diffrn_ambient_temperature 176.2
#These two values have been output from a single CSD field.
_refine_ls_R_factor_gt 0.053
_refine_ls_wR_factor_gt 0.053
_symmetry_cell_setting monoclinic
_symmetry_space_group_name_H-M 'P 21/n'
_symmetry_Int_Tables_number 14
loop_
_symmetry_equiv_pos_site_id
_symmetry_equiv_pos_as_xyz
1 x,y,z
2 1/2-x,1/2+y,1/2-z
3 -x,-y,-z
4 -1/2+x,-1/2-y,-1/2+z
_cell_length_a 7.8644(2)
_cell_length_b 23.7196(5)
_cell_length_c 10.4242(2)
_cell_angle_alpha 90
_cell_angle_beta 96.213(3)
_cell_angle_gamma 90
_cell_formula_units_Z 4
loop_
_atom_type_symbol
_atom_type_radius_bond
C 0.68
H 0.23
N 0.68
O 0.68
loop_
_atom_site_label
_atom_site_type_symbol
_atom_site_fract_x
_atom_site_fract_y
_atom_site_fract_z
C1 C 0.5985(3) 0.82907(11) 0.9493(2)
H1 H 0.53550 0.79440 0.96390
H2 H 0.58300 0.85620 1.01800
H3 H 0.72040 0.82040 0.94980
C2 C 0.5325(3) 0.85364(9) 0.8222(2)
H4 H 0.40780 0.86030 0.81840
H5 H 0.58980 0.89000 0.80870
C3 C 0.5006(2) 0.82350(7) 0.6051(2)
C4 C 0.5427(2) 0.77910(7) 0.51295(18)
C5 C 0.5459(2) 0.72628(7) 0.34173(17)
C6 C 0.4712(2) 0.77257(7) 0.38422(18)
H6 H 0.38800 0.79590 0.33740
C7 C 0.5311(2) 0.69390(8) 0.21959(17)
H7 H 0.63670 0.69900 0.17710
H8 H 0.43410 0.70890 0.16100
C8 C 0.5030(2) 0.63118(7) 0.24132(17)
H9 H 0.59890 0.61640 0.30130
H10 H 0.39640 0.62610 0.28250
C9 C 0.4908(2) 0.59765(8) 0.11840(19)
H11 H 0.59130 0.60540 0.07150
H12 H 0.48880 0.55680 0.13810
C10 C 0.3199(2) 0.58725(7) -0.07944(17)
C11 C 0.2547(2) 0.53264(7) -0.09144(17)
C12 C 0.2336(2) 0.50871(7) -0.21468(16)
H13 H 0.18500 0.47210 -0.22600
C13 C 0.2823(2) 0.53733(7) -0.32044(16)
C14 C 0.3510(2) 0.59142(8) -0.30451(18)
H14 H 0.38620 0.61080 -0.37690
C15 C 0.3686(2) 0.61730(7) -0.18490(18)
C16 C 0.4410(3) 0.67609(8) -0.1672(2)
H15 H 0.35860 0.70030 -0.12950
H16 H 0.46340 0.69130 -0.25110
H17 H 0.54800 0.67480 -0.10960
C17 C 0.2153(3) 0.49979(8) 0.02513(18)
H18 H 0.13760 0.46870 -0.00200
H19 H 0.16090 0.52470 0.08370
H20 H 0.32160 0.48460 0.06970
C18 C 0.2653(2) 0.51098(7) -0.44901(17)
C19 C 0.2170(3) 0.45189(8) -0.59663(18)
C20 C 0.1730(3) 0.40321(9) -0.68382(19)
H21 H 0.19300 0.36800 -0.63540
H22 H 0.24470 0.40400 -0.75510
H23 H 0.05230 0.40560 -0.71840
N1 N 0.6544(2) 0.73962(6) 0.54870(15)
N2 N 0.3102(3) 0.53777(7) -0.54920(15)
N3 N 0.2065(2) 0.45705(6) -0.47441(14)
O1 O 0.56914(17) 0.81310(5) 0.72413(13)
O2 O 0.4108(2) 0.86316(6) 0.57185(16)
O3 O 0.65771(17) 0.70565(5) 0.43902(12)
O4 O 0.33606(16) 0.61355(5) 0.04001(12)
O5 O 0.2777(2) 0.49789(6) -0.65038(13)
#END
