
#######################################################################
#
#                 Cambridge Crystallographic Data Centre
#                                CCDC
#
#######################################################################
#
# If this CIF has been generated from an entry in the Cambridge
# Structural Database, then it will include bibliographic, chemical,
# crystal, experimental, refinement or atomic coordinate data resulting
# from the CCDC's data processing and validation procedures.
#
#######################################################################

data_CSD_CIF_VOLXID
_audit_creation_date 1992-08-18
_audit_creation_method CSD-ConQuest-V1
_database_code_CSD VOLXID
_chemical_formula_sum 'C18 H21 N3 O5'
_chemical_formula_moiety
;
C18 H21 N3 O5
;
_journal_coden_Cambridge 24
_journal_volume 32
_journal_year 1991
_journal_page_first 6223
_journal_name_full 'Tetrahedron Lett. '
loop_
_publ_author_name
"R.Nesi"
"D.Giomi"
"S.Papaleo"
"S.Turchi"
"P.Dapporto"
"P.Paoli"
_chemical_name_systematic
;
Methyl 
6,6a-dihydro-6-(N,N-diethylcarbamoyl)-6-methyl-3-phenylisoxazolo(4,5-c)isoxazo
le-6a-carboxylate
;
_chemical_melting_point 411.15
_cell_volume   1817.737
_exptl_crystal_colour 'white'
_exptl_crystal_density_diffrn 1.31
_exptl_special_details
;
Melting point range 411.15-412.15K

;
_diffrn_ambient_temperature ?
_diffrn_special_details
;
The study was carried out at room temperature,in the range 283-303K

;
#These two values have been output from a single CSD field.
_refine_ls_R_factor_gt 0.044
_refine_ls_wR_factor_gt 0.044
_symmetry_cell_setting orthorhombic
_symmetry_space_group_name_H-M 'P 21 21 21'
_symmetry_Int_Tables_number 19
loop_
_symmetry_equiv_pos_site_id
_symmetry_equiv_pos_as_xyz
1 x,y,z
2 1/2+x,1/2-y,-z
3 -x,1/2+y,1/2-z
4 1/2-x,-y,1/2+z
_cell_length_a 5.845(2)
_cell_length_b 16.557(5)
_cell_length_c 18.783(4)
_cell_angle_alpha 90
_cell_angle_beta 90
_cell_angle_gamma 90
_cell_formula_units_Z 4
loop_
_atom_type_symbol
_atom_type_radius_bond
C 0.68
H 0.23
N 0.68
O 0.68
loop_
_atom_site_label
_atom_site_type_symbol
_atom_site_fract_x
_atom_site_fract_y
_atom_site_fract_z
O1 O -0.0816(7) 0.0587(2) 0.8518(2)
O2 O 0.2909(7) 0.2096(3) 0.9172(2)
O3 O 0.1893(8) 0.0382(2) 0.7384(2)
O4 O 0.4415(7) 0.1295(3) 0.7794(2)
O5 O 0.0406(7) 0.2230(2) 0.7469(2)
N1 N -0.0332(9) -0.0102(3) 0.8953(3)
N2 N 0.3381(9) 0.1349(3) 0.9508(3)
N3 N 0.186(1) 0.3271(3) 0.8076(3)
C1 C 0.0908(11) 0.1973(4) 0.8680(3)
C2 C 0.1193(10) 0.1078(3) 0.8494(3)
C3 C 0.2456(11) 0.0791(4) 0.9133(3)
C4 C 0.1589(12) -0.0008(4) 0.9297(3)
C5 C 0.2476(12) -0.0593(4) 0.9791(3)
C6 C 0.4519(14) -0.0439(5) 1.0139(4)
C7 C 0.5261(16) -0.0986(5) 1.0635(4)
C8 C 0.4149(16) -0.1687(5) 1.0775(4)
C9 C 0.2202(18) -0.1849(5) 1.0419(4)
C10 C 0.1322(15) -0.1303(4) 0.9923(4)
C11 C 0.2467(12) 0.0874(4) 0.7806(3)
C12 C 0.5789(13) 0.1179(4) 0.7159(3)
C13 C -0.1281(11) 0.2122(4) 0.9091(4)
C14 C 0.1083(12) 0.2517(3) 0.8031(3)
C15 C 0.2196(14) 0.3737(5) 0.8751(4)
C16 C 0.4741(15) 0.3988(6) 0.8823(5)
C17 C 0.1936(14) 0.3737(4) 0.7407(4)
C18 C 0.4139(16) 0.3555(5) 0.6999(4)
H1 H 0.552(1) 0.009(1) 1.002(1)
H2 H 0.679(2) -0.085(1) 1.093(1)
H3 H 0.481(2) -0.211(1) 1.116(1)
H4 H 0.131(2) -0.241(1) 1.052(1)
H5 H -0.025(2) -0.144(1) 0.964(1)
H6 H 0.733(1) 0.154(1) 0.720(1)
H7 H 0.483(1) 0.137(1) 0.670(1)
H8 H 0.623(1) 0.055(1) 0.711(1)
H9 H -0.274(1) 0.204(1) 0.875(1)
H10 H -0.128(1) 0.273(1) 0.929(1)
H11 H -0.138(1) 0.170(1) 0.953(1)
H12 H 0.113(1) 0.427(1) 0.873(1)
H13 H 0.170(1) 0.337(1) 0.920(1)
H14 H 0.493(1) 0.433(1) 0.931(1)
H15 H 0.524(1) 0.435(1) 0.837(1)
H16 H 0.581(1) 0.346(1) 0.885(1)
H17 H 0.045(1) 0.360(1) 0.709(1)
H18 H 0.194(1) 0.437(1) 0.754(1)
H19 H 0.418(2) 0.391(1) 0.652(1)
H20 H 0.414(2) 0.292(1) 0.686(1)
H21 H 0.563(2) 0.369(1) 0.732(1)
#END
