
#######################################################################
#
#                 Cambridge Crystallographic Data Centre
#                                CCDC
#
#######################################################################
#
# If this CIF has been generated from an entry in the Cambridge
# Structural Database, then it will include bibliographic, chemical,
# crystal, experimental, refinement or atomic coordinate data resulting
# from the CCDC's data processing and validation procedures.
#
#######################################################################

data_CSD_CIF_VOPZAB
_audit_creation_date 1992-09-08
_audit_creation_method CSD-ConQuest-V1
_database_code_CSD VOPZAB
_chemical_formula_sum 'C9 H8 N2 O2'
_chemical_formula_moiety
;
C9 H8 N2 O2
;
_journal_coden_Cambridge 614
_journal_volume 9
_journal_year 1989
_journal_page_first 295
_journal_name_full 'Revista Cubana de Fisica '
loop_
_publ_author_name
"O.Au"
"V.A.Tafeenko"
"L.A.Aslanov"
_chemical_name_systematic
;
2-Methyl-3-nitroindolizine
;
_cell_volume    823.364
_diffrn_ambient_temperature ?
_diffrn_special_details
;
The study was carried out at room temperature,in the range 283-303K

;
#These two values have been output from a single CSD field.
_refine_ls_R_factor_gt 0.042
_refine_ls_wR_factor_gt 0.042
_symmetry_cell_setting monoclinic
_symmetry_space_group_name_H-M 'P 21/c'
_symmetry_Int_Tables_number 14
loop_
_symmetry_equiv_pos_site_id
_symmetry_equiv_pos_as_xyz
1 x,y,z
2 -x,1/2+y,1/2-z
3 -x,-y,-z
4 x,-1/2-y,-1/2+z
_cell_length_a 7.486(2)
_cell_length_b 16.008(3)
_cell_length_c 7.858(2)
_cell_angle_alpha 90
_cell_angle_beta 119.03(2)
_cell_angle_gamma 90
_cell_formula_units_Z 4
loop_
_atom_type_symbol
_atom_type_radius_bond
C 0.68
H 0.23
N 0.68
O 0.68
loop_
_atom_site_label
_atom_site_type_symbol
_atom_site_fract_x
_atom_site_fract_y
_atom_site_fract_z
O1 O 0.2977(3) -0.1868(1) 0.9038(3)
O2 O 0.0780(3) -0.1038(1) 0.6806(3)
N1 N 0.2133(3) -0.1176(1) 0.8506(3)
N2 N 0.1910(3) 0.0258(1) 0.9448(3)
C1 C 0.4445(4) 0.0226(2) 1.2563(3)
C2 C 0.4328(3) -0.0559(2) 1.1827(3)
C3 C 0.2762(3) -0.0540(2) 0.9881(3)
C4 C 0.0341(4) 0.0601(2) 0.7767(4)
C5 C -0.0181(4) 0.1409(2) 0.7785(4)
C6 C 0.0814(4) 0.1901(2) 0.9452(4)
C7 C 0.2366(4) 0.1572(2) 1.1097(4)
C8 C 0.2959(4) 0.0734(2) 1.1131(3)
C9 C 0.5595(4) -0.1297(2) 1.2910(4)
H1 H 0.526(3) 0.039(2) 1.385(3)
H2 H -0.014(4) 0.025(2) 0.662(3)
H3 H -0.126(4) 0.166(2) 0.658(4)
H4 H 0.041(4) 0.248(2) 0.950(4)
H5 H 0.299(4) 0.188(2) 1.228(4)
H6 H 0.632(4) -0.157(2) 1.222(4)
H7 H 0.472(4) -0.174(2) 1.307(4)
H8 H 0.656(5) -0.117(2) 1.422(4)
#END
