
#######################################################################
#
#                 Cambridge Crystallographic Data Centre
#                                CCDC
#
#######################################################################
#
# If this CIF has been generated from an entry in the Cambridge
# Structural Database, then it will include bibliographic, chemical,
# crystal, experimental, refinement or atomic coordinate data resulting
# from the CCDC's data processing and validation procedures.
#
#######################################################################

data_CSD_CIF_VOQSOK
_audit_creation_date 2009-05-27
_audit_creation_method CSD-ConQuest-V1
_database_code_CSD VOQSOK
_database_code_depnum_ccdc_archive 'CCDC 726494'
_chemical_formula_sum 'C24 H24 N6 O2'
_chemical_formula_moiety
;
C24 H24 N6 O2
;
_journal_coeditor_code "IUCr BT2912"
_journal_coden_Cambridge 1370
_journal_volume 65
_journal_year 2009
_journal_page_first o918
_journal_name_full 'Acta Crystallogr.,Sect.E:Struct.Rep.Online '
loop_
_publ_author_name
"B.R.D.Nayagam"
"S.R.Jebas"
"C.Daisy"
"D.Schollmeyer"
_chemical_name_systematic
;
1,1'-[2,3,5,6-Tetramethyl-p-phenylenebis(methyleneoxy)]di-1H-benzotriazole
;
_chemical_name_common
;
1,1'-((2,3,5,6-Tetramethyl-1,4-phenylene)bis(methyleneoxy))bis(1H-benzotriazol
e)
;
_cell_volume   1050.135
_exptl_crystal_colour 'colorless'
_exptl_crystal_density_diffrn 1.355
_exptl_crystal_description 'block'
_exptl_crystal_preparation 'ethanol'
_diffrn_ambient_temperature 193
#These two values have been output from a single CSD field.
_refine_ls_R_factor_gt 0.0519
_refine_ls_wR_factor_gt 0.0519
_symmetry_cell_setting monoclinic
_symmetry_space_group_name_H-M 'P 21/c'
_symmetry_Int_Tables_number 14
loop_
_symmetry_equiv_pos_site_id
_symmetry_equiv_pos_as_xyz
1 x,y,z
2 -x,1/2+y,1/2-z
3 -x,-y,-z
4 x,-1/2-y,-1/2+z
_cell_length_a 9.3895(6)
_cell_length_b 7.5960(2)
_cell_length_c 15.7471(13)
_cell_angle_alpha 90
_cell_angle_beta 110.770(3)
_cell_angle_gamma 90
_cell_formula_units_Z 2
loop_
_atom_type_symbol
_atom_type_radius_bond
C 0.68
H 0.23
N 0.68
O 0.68
loop_
_atom_site_label
_atom_site_type_symbol
_atom_site_fract_x
_atom_site_fract_y
_atom_site_fract_z
N1 N 0.25022(16) -0.07614(18) 0.47932(9)
N2 N 0.17398(19) -0.1201(2) 0.53429(10)
N3 N 0.08837(19) -0.2555(2) 0.49841(11)
C1 C 0.10897(19) -0.2985(2) 0.41828(12)
C2 C 0.0438(2) -0.4308(2) 0.35473(14)
H1 H -0.02760 -0.51180 0.36270
C3 C 0.0873(2) -0.4389(3) 0.28015(13)
H2 H 0.04380 -0.52640 0.23530
C4 C 0.1948(2) -0.3209(2) 0.26842(12)
H3 H 0.22120 -0.33090 0.21570
C5 C 0.26238(19) -0.1922(2) 0.33068(12)
H4 H 0.33670 -0.11460 0.32350
C6 C 0.21514(17) -0.1820(2) 0.40554(11)
O1 O 0.34983(13) 0.06259(15) 0.50086(8)
C7 C 0.27184(18) 0.2246(2) 0.45748(11)
H5 H 0.19070 0.25610 0.48120
H6 H 0.22530 0.20870 0.39090
C8 C 0.39164(17) 0.3661(2) 0.48003(10)
C9 C 0.47071(18) 0.3997(2) 0.4206(1)
C10 C 0.42305(17) 0.4639(2) 0.55983(10)
C11 C 0.4428(2) 0.2893(2) 0.33658(12)
H7 H 0.37970 0.35540 0.28300
H8 H 0.39010 0.18060 0.34160
H9 H 0.54040 0.26010 0.33050
C12 C 0.3446(2) 0.4206(3) 0.62620(13)
H10 H 0.41830 0.42830 0.68840
H11 H 0.30320 0.30090 0.61470
H12 H 0.26160 0.50440 0.61850
N1B N 0.74978(16) 1.07614(18) 0.52068(9)
N2B N 0.82602(19) 1.1201(2) 0.46571(10)
N3B N 0.91163(19) 1.2555(2) 0.50159(11)
C1B C 0.89103(19) 1.2985(2) 0.58172(12)
C2B C 0.9562(2) 1.4308(2) 0.64527(14)
H1B H 1.02760 1.51180 0.63730
C3B C 0.9127(2) 1.4389(3) 0.71985(13)
H2B H 0.95620 1.52640 0.76470
C4B C 0.8052(2) 1.3209(2) 0.73158(12)
H3B H 0.77880 1.33090 0.78430
C5B C 0.73762(19) 1.1922(2) 0.66932(12)
H4B H 0.66330 1.11460 0.67650
C6B C 0.78486(17) 1.1820(2) 0.59446(11)
O1B O 0.65017(13) 0.93741(15) 0.49914(8)
C7B C 0.72816(18) 0.7754(2) 0.54252(11)
H5B H 0.80930 0.74390 0.51880
H6B H 0.77470 0.79130 0.60910
C8B C 0.60836(17) 0.6339(2) 0.51997(10)
C9B C 0.52929(18) 0.6003(2) 0.5794(1)
C10B C 0.57695(17) 0.5361(2) 0.44017(10)
C11B C 0.5572(2) 0.7107(2) 0.66342(12)
H7B H 0.62030 0.64460 0.71700
H8B H 0.60990 0.81940 0.65840
H9B H 0.45960 0.73990 0.66950
C12B C 0.6554(2) 0.5794(3) 0.37380(13)
H10B H 0.58170 0.57170 0.31160
H11B H 0.69680 0.69910 0.38530
H12B H 0.73840 0.49560 0.38150
#END
