
#######################################################################
#
#                 Cambridge Crystallographic Data Centre
#                                CCDC
#
#######################################################################
#
# If this CIF has been generated from an entry in the Cambridge
# Structural Database, then it will include bibliographic, chemical,
# crystal, experimental, refinement or atomic coordinate data resulting
# from the CCDC's data processing and validation procedures.
#
#######################################################################

data_CSD_CIF_VOXJEX
_audit_creation_date 1992-10-19
_audit_creation_method CSD-ConQuest-V1
_database_code_CSD VOXJEX
_chemical_formula_sum 'C21 H32 N2 O2'
_chemical_formula_moiety
;
C21 H32 N2 O2
;
_journal_coeditor_code "IUCr HE0035"
_journal_coden_Cambridge 591
_journal_volume 48
_journal_year 1992
_journal_page_first 1092
_journal_name_full 'Acta Crystallogr.,Sect.C:Cryst.Struct.Commun. '
loop_
_publ_author_name
"D.Maes"
"L.Wyns"
"J.Lisgarten"
"D.Lisgarten"
"R.Palmer"
_chemical_name_systematic
;
(20R)-5\a-Pregnano(3,4-c)(1,2,5)oxadiazol-20-ol
;
_chemical_name_common
;
HS1011
;
_cell_volume   1890.563
_exptl_crystal_colour 'colorless'
_exptl_crystal_density_diffrn 1.21
_diffrn_ambient_temperature ?
_diffrn_special_details
;
The study was carried out at room temperature,in the range 283-303K

;
#These two values have been output from a single CSD field.
_refine_ls_R_factor_gt 0.054
_refine_ls_wR_factor_gt 0.054
_symmetry_cell_setting orthorhombic
_symmetry_space_group_name_H-M 'P 21 21 21'
_symmetry_Int_Tables_number 19
loop_
_symmetry_equiv_pos_site_id
_symmetry_equiv_pos_as_xyz
1 x,y,z
2 1/2+x,1/2-y,-z
3 -x,1/2+y,1/2-z
4 1/2-x,-y,1/2+z
_cell_length_a 7.353(1)
_cell_length_b 10.153(1)
_cell_length_c 25.324(3)
_cell_angle_alpha 90
_cell_angle_beta 90
_cell_angle_gamma 90
_cell_formula_units_Z 4
loop_
_atom_type_symbol
_atom_type_radius_bond
C 0.68
H 0.23
N 0.68
O 0.68
loop_
_atom_site_label
_atom_site_type_symbol
_atom_site_fract_x
_atom_site_fract_y
_atom_site_fract_z
C1 C -0.1769(3) -0.0443(2) -0.3907(1)
C2 C -0.1790(3) 0.0235(3) -0.3364(1)
C3 C 0.0072(3) 0.0750(2) -0.3231(1)
C4 C 0.1518(3) 0.0758(2) -0.3596(1)
C5 C 0.1396(2) 0.0216(2) -0.4141(1)
C6 C 0.2736(3) 0.0809(2) -0.4531(1)
C7 C 0.2621(3) 0.0080(2) -0.5056(1)
C8 C 0.0675(2) 0.0059(2) -0.5271(1)
C9 C -0.0692(2) -0.0479(2) -0.4859(1)
C10 C -0.0607(2) 0.0269(2) -0.4329(1)
C11 C -0.2590(2) -0.0556(2) -0.5108(1)
C12 C -0.2643(3) -0.1373(2) -0.5614(1)
C13 C -0.1312(3) -0.0856(2) -0.6027(1)
C14 C 0.0563(3) -0.0796(2) -0.5761(1)
C15 C 0.1873(3) -0.0542(2) -0.6223(1)
C16 C 0.1036(3) -0.1340(2) -0.6682(1)
C17 C -0.0864(3) -0.1799(2) -0.6487(1)
C18 C -0.2189(3) -0.1924(2) -0.6948(1)
C19 C -0.1610(4) -0.2952(2) -0.7340(1)
C20 C -0.1966(4) 0.0479(2) -0.6242(1)
C21 C -0.1261(3) 0.1709(2) -0.4388(1)
N1 N 0.2957(3) 0.1303(2) -0.3377(1)
N2 N 0.0588(3) 0.1279(3) -0.2790(1)
O1 O -0.3944(2) -0.2239(2) -0.6740(1)
O2 O 0.2412(3) 0.1641(2) -0.2874(1)
H1 H -0.3151(3) -0.0490(2) -0.4050(1)
H2 H -0.1243(3) -0.1429(2) -0.3859(1)
H3 H -0.2192(3) -0.0474(3) -0.3068(1)
H4 H -0.2750(3) 0.1040(3) -0.3368(1)
H5 H 0.1818(2) -0.0802(2) -0.4124(1)
H6 H 0.4097(3) 0.0715(2) -0.4375(1)
H7 H 0.2424(3) 0.1837(2) -0.4590(1)
H8 H 0.3483(3) 0.0575(2) -0.5338(1)
H9 H 0.3090(3) -0.0919(2) -0.5002(1)
H10 H 0.0315(2) 0.1064(2) -0.5364(1)
H11 H -0.0308(2) -0.1470(2) -0.4751(1)
H12 H -0.3027(2) 0.0433(2) -0.5200(1)
H13 H -0.3514(2) -0.0987(2) -0.4825(1)
H14 H -0.4002(3) -0.1340(2) -0.5775(1)
H15 H -0.2293(3) -0.2397(2) -0.5520(1)
H16 H 0.0955(3) -0.1692(2) -0.5562(1)
H17 H 0.1926(3) 0.0492(2) -0.6321(1)
H18 H 0.3225(3) -0.0889(2) -0.6131(1)
H19 H 0.1875(3) -0.2184(2) -0.6771(1)
H20 H 0.0898(3) -0.0736(2) -0.7031(1)
H21 H -0.0945(3) -0.2784(2) -0.6327(1)
H22 H -0.2230(3) -0.1006(2) -0.7163(1)
H23 H -0.0246(4) -0.2723(2) -0.7469(1)
H24 H -0.2519(4) -0.2888(2) -0.7671(1)
H25 H -0.1624(4) -0.3938(2) -0.7180(1)
H26 H -0.0974(4) 0.0745(2) -0.6537(1)
H27 H -0.2035(4) 0.1243(2) -0.5946(1)
H28 H -0.3282(4) 0.0365(2) -0.6425(1)
H29 H -0.0486(3) 0.2157(2) -0.4703(1)
H30 H -0.0941(3) 0.2190(2) -0.4019(1)
H31 H -0.2695(3) 0.1812(2) -0.4469(1)
H32 H -0.484(3) -0.218(2) -0.7003(8)
#END
