
#######################################################################
#
#                 Cambridge Crystallographic Data Centre
#                                CCDC
#
#######################################################################
#
# If this CIF has been generated from an entry in the Cambridge
# Structural Database, then it will include bibliographic, chemical,
# crystal, experimental, refinement or atomic coordinate data resulting
# from the CCDC's data processing and validation procedures.
#
#######################################################################

data_CSD_CIF_VOYQIL
_audit_creation_date 2015-02-11
_audit_creation_method CSD-ConQuest-V1
_database_code_CSD VOYQIL
_database_code_depnum_ccdc_archive 'CCDC 986551'
_chemical_formula_sum 'C23 H22 N4 O6'
_chemical_formula_moiety
;
C23 H22 N4 O6
;
_journal_coden_Cambridge 1090
_journal_volume 26
_journal_year 2015
_journal_page_first 152
_journal_name_full 'Tetrahedron:Asymm. '
loop_
_publ_author_name
"S.Celik"
"M.Cakici"
"H.Kilic"
"E.Sahin"
_chemical_name_systematic
;
(1S)-1-(3-((3R)-3-Acetyl-2,2-dimethylaziridin-1-yl)-4-oxo-3,4-dihydroquinazoli
n-2-yl)ethyl 4-nitrobenzoate
;
_cell_volume   2214.433
_exptl_crystal_colour 'colorless'
_exptl_crystal_density_diffrn 1.351
_exptl_crystal_description 'prism'
_diffrn_ambient_temperature 293
#These two values have been output from a single CSD field.
_refine_ls_R_factor_gt 0.0708
_refine_ls_wR_factor_gt 0.0708
_symmetry_cell_setting monoclinic
_symmetry_space_group_name_H-M 'C 2'
_symmetry_Int_Tables_number 5
loop_
_symmetry_equiv_pos_site_id
_symmetry_equiv_pos_as_xyz
1 x,y,z
2 -x,y,-z
3 1/2+x,1/2+y,z
4 1/2-x,1/2+y,-z
_cell_length_a 22.9393(17)
_cell_length_b 6.7784(10)
_cell_length_c 14.3646(11)
_cell_angle_alpha 90
_cell_angle_beta 97.507(5)
_cell_angle_gamma 90
_cell_formula_units_Z 4
loop_
_atom_type_symbol
_atom_type_radius_bond
C 0.68
H 0.23
N 0.68
O 0.68
loop_
_atom_site_label
_atom_site_type_symbol
_atom_site_fract_x
_atom_site_fract_y
_atom_site_fract_z
O1 O -0.04755(17) 0.0848(7) 0.3752(2)
N1 N -0.03268(19) -0.1019(7) 0.2031(3)
N2 N -0.09488(18) -0.0681(7) 0.2008(3)
O2 O -0.04263(17) -0.4233(7) 0.1549(3)
O3 O -0.1122(2) 0.3263(7) 0.3887(3)
O4 O -0.2480(2) -0.3028(8) 0.6736(3)
N3 N 0.0591(2) 0.0509(9) 0.2422(3)
O5 O -0.2289(2) -0.2674(10) 0.0813(4)
N4 N -0.2066(3) -0.3647(10) 0.6376(4)
C1 C 0.0827(3) -0.098(1) 0.1933(4)
C2 C 0.0041(2) 0.0455(9) 0.2458(4)
C3 C -0.1327(2) -0.1558(9) 0.1220(4)
H1 H -0.11270 -0.23720 0.07960
C4 C -0.1669(3) 0.0894(10) 0.5149(4)
H2 H -0.17910 0.22010 0.50850
C5 C 0.0513(2) -0.2674(10) 0.1629(4)
C6 C -0.0230(2) 0.2023(9) 0.3042(4)
H3 H -0.05450 0.27250 0.26500
C7 C -0.1211(3) 0.0226(9) 0.4690(4)
C8 C -0.0107(2) -0.2779(11) 0.1734(4)
O6 O -0.1884(3) -0.5343(10) 0.6475(5)
C9 C -0.1218(2) 0.0599(9) 0.1177(4)
C10 C -0.1652(3) 0.2073(10) 0.1408(5)
H4 H -0.15000 0.33770 0.13410
H5 H -0.17280 0.18820 0.20440
H6 H -0.20120 0.19170 0.09900
C11 C -0.1896(3) -0.2362(11) 0.1459(5)
C12 C 0.1362(3) -0.4015(17) 0.1057(5)
H7 H 0.15430 -0.50550 0.07850
C13 C -0.0821(3) 0.1288(10) 0.0477(4)
H8 H -0.05540 0.02480 0.03680
H9 H -0.06020 0.24210 0.07230
H10 H -0.10560 0.16300 -0.01040
C14 C 0.0214(3) 0.347(1) 0.3500(5)
H11 H 0.00210 0.44210 0.38490
H12 H 0.03990 0.41330 0.30260
H13 H 0.05060 0.27800 0.39170
C15 C 0.1421(3) -0.0804(14) 0.1768(5)
H14 H 0.16390 0.03170 0.19580
C16 C -0.1754(3) -0.2319(11) 0.5798(4)
C17 C -0.0936(3) 0.1647(11) 0.4085(4)
C18 C -0.1947(3) -0.0397(12) 0.5705(5)
H15 H -0.22580 0.00340 0.60100
C19 C -0.1306(3) -0.3027(11) 0.5345(5)
H16 H -0.11880 -0.43390 0.54060
C20 C -0.1035(3) -0.1722(11) 0.4795(5)
H17 H -0.07280 -0.21670 0.44880
C21 C 0.0788(3) -0.4143(13) 0.1197(5)
H18 H 0.05750 -0.52650 0.09930
C22 C -0.1978(3) -0.2828(12) 0.2439(5)
H19 H -0.23700 -0.33070 0.24560
H20 H -0.19170 -0.16580 0.28160
H21 H -0.17000 -0.38210 0.26810
C23 C 0.1668(3) -0.2325(19) 0.1324(5)
H22 H 0.20540 -0.22070 0.12010
#END
