
#######################################################################
#
#                 Cambridge Crystallographic Data Centre
#                                CCDC
#
#######################################################################
#
# If this CIF has been generated from an entry in the Cambridge
# Structural Database, then it will include bibliographic, chemical,
# crystal, experimental, refinement or atomic coordinate data resulting
# from the CCDC's data processing and validation procedures.
#
#######################################################################

data_CSD_CIF_VUFSEV
_audit_creation_date 2010-05-14
_audit_creation_method CSD-ConQuest-V1
_database_code_CSD VUFSEV
_database_code_depnum_ccdc_archive 'CCDC 655342'
_chemical_formula_sum 'C14 H19 N2 O4'
_chemical_formula_moiety
;
C14 H19 N2 O4
;
_journal_coden_Cambridge 944
_journal_volume 52
_journal_year 2008
_journal_page_first 54
_journal_name_full 'J.Mex.Chem.Soc. '
loop_
_publ_author_name
"A.Vega"
"J.Padilla"
"M.A.Leyva"
"M.del J.Rosales"
"S.Bernes"
_chemical_name_systematic
;
2-(2'-Hydroxy-3'-methoxyphenyl)-4,4,5,5-tetramethyl-4,5-dihydro-1H-imidazoyl-1
-oxyl-3-oxide
;
_chemical_melting_point 423.15
_cell_volume   2971.688
_exptl_crystal_colour 'dark brown'
_exptl_crystal_density_diffrn 1.249
_exptl_special_details
;
Melting point range 423.15-424.15K

;
_exptl_crystal_description 'parallelepiped'
_exptl_crystal_preparation 'diethyl ether'
_diffrn_ambient_temperature 298
#These two values have been output from a single CSD field.
_refine_ls_R_factor_gt 0.0479
_refine_ls_wR_factor_gt 0.0479
_symmetry_cell_setting tetragonal
_symmetry_space_group_name_H-M 'P 42/n'
_symmetry_Int_Tables_number 86
loop_
_symmetry_equiv_pos_site_id
_symmetry_equiv_pos_as_xyz
1 x,y,z
2 1/2-x,1/2-y,z
3 -y,1/2+x,1/2+z
4 1/2+y,-x,1/2+z
5 -x,-y,-z
6 -1/2+x,-1/2+y,-z
7 y,-1/2-x,-1/2-z
8 -1/2-y,x,-1/2-z
_cell_length_a 20.0640(8)
_cell_length_b 20.0640(8)
_cell_length_c 7.3819(5)
_cell_angle_alpha 90
_cell_angle_beta 90
_cell_angle_gamma 90
_cell_formula_units_Z 8
loop_
_atom_type_symbol
_atom_type_radius_bond
C 0.68
H 0.23
N 0.68
O 0.68
loop_
_atom_site_label
_atom_site_type_symbol
_atom_site_fract_x
_atom_site_fract_y
_atom_site_fract_z
C1 C 0.25238(9) 0.48022(9) 0.4561(3)
C2 C 0.20407(10) 0.45142(11) 0.5700(3)
H1 H 0.20240 0.46300 0.69190
C3 C 0.15987(12) 0.40674(13) 0.5015(3)
H2 H 0.12710 0.38900 0.57640
C4 C 0.16290(12) 0.38718(12) 0.3207(3)
H3 H 0.13280 0.35590 0.27640
C5 C 0.21026(10) 0.41394(10) 0.2076(3)
C6 C 0.25500(9) 0.46255(9) 0.2724(3)
C7 C 0.29877(9) 0.52881(9) 0.5309(2)
N1 N 0.32477(8) 0.57842(8) 0.4419(2)
C8 C 0.36317(11) 0.62424(11) 0.5591(3)
C9 C 0.37958(11) 0.57573(12) 0.7160(3)
N2 N 0.31834(8) 0.53266(8) 0.7105(2)
O1 O 0.21903(8) 0.39757(8) 0.0289(2)
C10 C 0.18507(19) 0.34101(16) -0.0378(4)
H4 H 0.20050 0.33110 -0.15790
H5 H 0.13810 0.34990 -0.04070
H6 H 0.19360 0.30360 0.04000
O2 O 0.29960(7) 0.48783(7) 0.15614(18)
H7 H 0.3068(15) 0.5363(17) 0.187(4)
C11 C 0.31414(16) 0.68000(12) 0.6119(4)
H8 H 0.29810 0.70160 0.50440
H9 H 0.33650 0.71200 0.68730
H10 H 0.27720 0.66120 0.67700
C12 C 0.42264(14) 0.65310(14) 0.4576(4)
H11 H 0.40710 0.67990 0.35860
H12 H 0.44970 0.61740 0.41180
H13 H 0.44860 0.68010 0.53860
C13 C 0.44095(12) 0.53257(16) 0.6748(4)
H14 H 0.44380 0.49710 0.76180
H15 H 0.48040 0.55950 0.68150
H16 H 0.43700 0.51410 0.55540
C14 C 0.38591(17) 0.60872(16) 0.9003(3)
H17 H 0.39700 0.57570 0.98950
H18 H 0.34440 0.62940 0.93180
H19 H 0.42040 0.64190 0.89610
O3 O 0.30657(8) 0.59939(7) 0.2773(2)
O4 O 0.32669(7) 0.46908(7) 0.7926(2)
#END
