
#######################################################################
#
#                 Cambridge Crystallographic Data Centre
#                                CCDC
#
#######################################################################
#
# If this CIF has been generated from an entry in the Cambridge
# Structural Database, then it will include bibliographic, chemical,
# crystal, experimental, refinement or atomic coordinate data resulting
# from the CCDC's data processing and validation procedures.
#
#######################################################################

data_CSD_CIF_VUMTUU
_audit_creation_date 2015-06-19
_audit_creation_method CSD-ConQuest-V1
_database_code_CSD VUMTUU
_database_code_depnum_ccdc_archive 'CCDC 1407437'
_chemical_formula_sum 'C19 H17 N1 O3'
_chemical_formula_moiety
;
C19 H17 N1 O3
;
_journal_coden_Cambridge 920
_journal_volume 11
_journal_year 2016
_journal_page_first 991
_journal_name_full 'Chem.Asian J. '
loop_
_publ_author_name
"Bin Rao"
"Jinghua Tang"
"Yu Wei"
"Xiaoming Zeng"
_chemical_name_systematic
;
9-(4-nitrophenyl)tricyclo[8.2.1.0^3,8^]trideca-3,5,7-trien-2-one
;
_cell_volume   1533.542
_exptl_crystal_colour 'colorless'
_exptl_crystal_density_diffrn 1.331
_exptl_crystal_description 'block'
_diffrn_ambient_temperature 296
#These two values have been output from a single CSD field.
_refine_ls_R_factor_gt 0.0415
_refine_ls_wR_factor_gt 0.0415
_symmetry_cell_setting monoclinic
_symmetry_space_group_name_H-M 'P 21/c'
_symmetry_Int_Tables_number 14
loop_
_symmetry_equiv_pos_site_id
_symmetry_equiv_pos_as_xyz
1 x,y,z
2 -x,1/2+y,1/2-z
3 -x,-y,-z
4 x,-1/2-y,-1/2+z
_cell_length_a 16.47(2)
_cell_length_b 10.566(14)
_cell_length_c 8.854(12)
_cell_angle_alpha 90
_cell_angle_beta 95.56(2)
_cell_angle_gamma 90
_cell_formula_units_Z 4
loop_
_atom_type_symbol
_atom_type_radius_bond
C 0.68
H 0.23
N 0.68
O 0.68
loop_
_atom_site_label
_atom_site_type_symbol
_atom_site_fract_x
_atom_site_fract_y
_atom_site_fract_z
N1 N 0.01672(8) 0.77252(14) -0.14123(15)
O1 O -0.03344(8) 0.72924(14) -0.23951(16)
O2 O 0.02074(10) 0.88517(14) -0.10851(18)
C1 C 0.18336(7) 0.52038(12) 0.10519(13)
C2 C 0.12855(8) 0.47635(13) -0.01457(14)
H1 H 0.12830 0.39080 -0.03920
C3 C 0.07559(8) 0.68441(14) -0.05897(15)
C4 C 0.12957(9) 0.73305(14) 0.05730(17)
H2 H 0.13000 0.81900 0.07990
C5 C 0.07432(8) 0.55771(14) -0.09764(15)
H3 H 0.03830 0.52740 -0.17680
C6 C 0.18289(9) 0.65015(14) 0.13913(16)
H4 H 0.21890 0.68140 0.21780
C7 C 0.25666(7) 0.45924(12) 0.36204(13)
C8 C 0.31852(8) 0.53957(13) 0.42948(14)
C9 C 0.19971(8) 0.41096(13) 0.45536(16)
H5 H 0.15780 0.35940 0.41260
C10 C 0.20395(9) 0.43784(15) 0.60938(16)
H6 H 0.16600 0.40310 0.66870
C11 C 0.32112(9) 0.56833(14) 0.58541(15)
H7 H 0.36120 0.62280 0.62890
C12 C 0.26513(9) 0.51686(15) 0.67486(15)
H8 H 0.26840 0.53500 0.77810
C13 C 0.24163(8) 0.42591(12) 0.19228(14)
H9 H 0.21150 0.34580 0.18930
C14 C 0.31779(9) 0.39843(14) 0.10676(15)
H10 H 0.29980 0.36010 0.00840
C15 C 0.38410(8) 0.60204(14) 0.34634(16)
C16 C 0.37095(9) 0.51432(16) 0.08023(16)
H11 H 0.33760 0.58930 0.06040
H12 H 0.40290 0.50030 -0.00470
C17 C 0.37807(10) 0.30653(16) 0.1969(2)
H13 H 0.35040 0.25910 0.27040
H14 H 0.40070 0.24730 0.12860
C18 C 0.44632(10) 0.38947(17) 0.2780(2)
H15 H 0.49910 0.36460 0.24780
H16 H 0.44730 0.38040 0.38720
C19 C 0.42682(9) 0.52826(16) 0.23013(18)
H17 H 0.47730 0.57180 0.21040
O3 O 0.40348(8) 0.71122(12) 0.37833(15)
#END
