
#######################################################################
#
#                 Cambridge Crystallographic Data Centre
#                                CCDC
#
#######################################################################
#
# If this CIF has been generated from an entry in the Cambridge
# Structural Database, then it will include bibliographic, chemical,
# crystal, experimental, refinement or atomic coordinate data resulting
# from the CCDC's data processing and validation procedures.
#
#######################################################################

data_CSD_CIF_VUWFAW
_audit_creation_date 2015-10-28
_audit_creation_method CSD-ConQuest-V1
_database_code_CSD VUWFAW
_database_code_depnum_ccdc_archive 'CCDC 1433642'
_chemical_formula_sum 'C29 H47 N1 O3'
_chemical_formula_moiety
;
C29 H47 N1 O3
;
_journal_coden_Cambridge 119
_journal_volume 1116
_journal_year 2016
_journal_page_first 317
_journal_name_full 'J.Mol.Struct. '
loop_
_publ_author_name
"F.Ahmad"
"M.Parveen"
"M.Alam"
"S.Azaz"
"A.M.Malla"
"M.J.Alam"
"Dong-Ung Lee"
"S.Ahmad"
_chemical_name_systematic
;
7-(hydroxyimino)cholest-5-en-3-yl acetate
;
_chemical_name_common
;
3beta-acetoxycholest-5-en-7-one oxime
;
_chemical_melting_point 461.15
_cell_volume   2711.503
_exptl_crystal_colour 'white'
_exptl_crystal_density_diffrn 1.121
_exptl_special_details
;
Absolute configuration

;
_exptl_crystal_description 'block'
_exptl_crystal_preparation 'chloroform/methanol'
_diffrn_ambient_temperature 200
#These two values have been output from a single CSD field.
_refine_ls_R_factor_gt 0.0582
_refine_ls_wR_factor_gt 0.0582
_symmetry_cell_setting monoclinic
_symmetry_space_group_name_H-M 'C 2'
_symmetry_Int_Tables_number 5
loop_
_symmetry_equiv_pos_site_id
_symmetry_equiv_pos_as_xyz
1 x,y,z
2 -x,y,-z
3 1/2+x,1/2+y,z
4 1/2-x,1/2+y,-z
_cell_length_a 22.229(4)
_cell_length_b 7.6064(13)
_cell_length_c 18.114(3)
_cell_angle_alpha 90
_cell_angle_beta 117.710(4)
_cell_angle_gamma 90
_cell_formula_units_Z 4
loop_
_atom_type_symbol
_atom_type_radius_bond
C 0.68
H 0.23
N 0.68
O 0.68
loop_
_atom_site_label
_atom_site_type_symbol
_atom_site_fract_x
_atom_site_fract_y
_atom_site_fract_z
O1 O 0.06136(12) 0.8187(4) 0.94190(17)
H1 H 0.09090 0.89790 0.95540
N1 N 0.06347(14) 0.7113(4) 0.8791(2)
C1 C 0.01492(16) 0.5975(5) 0.8512(2)
C2 C -0.03653(16) 0.5836(5) 0.8792(2)
H2 H -0.03990 0.67570 0.91250
C3 C -0.07905(17) 0.4485(5) 0.8606(2)
C4 C -0.13421(18) 0.4509(5) 0.8873(3)
H3 H -0.17870 0.47230 0.83800
H4 H -0.12560 0.54830 0.92720
C5 C -0.13687(16) 0.2782(5) 0.9279(2)
H5 H -0.09520 0.26640 0.98290
O2 O -0.19646(10) 0.2898(3) 0.94134(15)
C6 C -0.19853(18) 0.1840(5) 0.9986(3)
O3 O -0.15320(12) 0.0834(4) 1.04046(17)
C7 C -0.26174(19) 0.2066(6) 1.0066(3)
H6 H -0.25710 0.30930 1.04150
H7 H -0.26940 0.10140 1.03240
H8 H -0.30040 0.22380 0.95120
C8 C -0.14211(18) 0.1222(5) 0.8736(2)
H9 H -0.18530 0.12820 0.82100
H10 H -0.14200 0.01200 0.90270
C9 C -0.08269(18) 0.1223(5) 0.8543(2)
H11 H -0.08710 0.02000 0.81840
H12 H -0.04020 0.10710 0.90710
C10 C -0.07660(15) 0.2916(5) 0.8104(2)
C11 C -0.13770(16) 0.3026(6) 0.7226(2)
H13 H -0.12990 0.39650 0.69090
H14 H -0.17900 0.32810 0.72730
H15 H -0.14300 0.19030 0.69370
C12 C -0.00811(16) 0.2868(5) 0.8079(2)
H16 H 0.02720 0.26000 0.86610
C13 C 0.01164(17) 0.4689(5) 0.7857(2)
H17 H -0.02620 0.50670 0.73080
C14 C -0.00383(18) 0.1377(5) 0.7532(2)
H18 H -0.00890 0.02390 0.77630
H19 H -0.04240 0.14920 0.69650
C15 C 0.06122(19) 0.1342(5) 0.7467(3)
H20 H 0.05870 0.03950 0.70780
H21 H 0.09950 0.10720 0.80210
C16 C 0.07475(16) 0.3090(5) 0.7158(2)
C17 C 0.02027(17) 0.3421(6) 0.6255(2)
H22 H -0.02420 0.35430 0.62380
H23 H 0.01920 0.24300 0.59040
H24 H 0.03110 0.45030 0.60480
C18 C 0.07576(17) 0.4551(5) 0.7757(2)
H25 H 0.11280 0.42200 0.83200
C19 C 0.10215(18) 0.6146(5) 0.7486(3)
H26 H 0.12520 0.69780 0.79550
H27 H 0.06450 0.67670 0.70190
C20 C 0.15213(19) 0.5392(5) 0.7211(3)
H28 H 0.19900 0.57700 0.75980
H29 H 0.14080 0.58100 0.66440
C21 C 0.14637(17) 0.3354(5) 0.7219(2)
H30 H 0.18010 0.29560 0.77890
C22 C 0.16487(18) 0.2416(5) 0.6602(3)
H31 H 0.13250 0.28210 0.60270
C23 C 0.1590(2) 0.0414(6) 0.6628(4)
H32 H 0.11120 0.00880 0.64250
H33 H 0.18570 0.00020 0.72030
H34 H 0.17630 -0.01280 0.62730
C24 C 0.23731(17) 0.2913(6) 0.6769(2)
H35 H 0.24200 0.42080 0.68170
H36 H 0.27010 0.24050 0.73110
C25 C 0.2559(2) 0.2301(6) 0.6107(3)
H37 H 0.22000 0.26870 0.55550
H38 H 0.25670 0.10000 0.61060
C26 C 0.32406(17) 0.2971(6) 0.6215(2)
H39 H 0.32280 0.42720 0.62100
H40 H 0.35960 0.26030 0.67720
C27 C 0.3452(2) 0.2375(10) 0.5576(4)
H41 H 0.36420 0.12040 0.58280
C28 C 0.3066(4) 0.1860(15) 0.4871(5)
H42 H 0.30380 0.27450 0.44630
H43 H 0.26130 0.16680 0.48230
H44 H 0.32370 0.07540 0.47630
C29 C 0.4117(2) 0.3232(10) 0.5717(3)
H45 H 0.40450 0.44930 0.55990
H46 H 0.42740 0.26950 0.53440
H47 H 0.44610 0.30570 0.62970
#END
