
#######################################################################
#
#                 Cambridge Crystallographic Data Centre
#                                CCDC
#
#######################################################################
#
# If this CIF has been generated from an entry in the Cambridge
# Structural Database, then it will include bibliographic, chemical,
# crystal, experimental, refinement or atomic coordinate data resulting
# from the CCDC's data processing and validation procedures.
#
#######################################################################

data_CSD_CIF_WACVOM
_audit_creation_date 2003-07-25
_audit_creation_method CSD-ConQuest-V1
_database_code_CSD WACVOM
_database_code_depnum_ccdc_archive 'CCDC 199205'
_chemical_formula_sum 'C11 H16 N3 O2'
_chemical_formula_moiety
;
C11 H16 N3 O2
;
_journal_coden_Cambridge 1145
_journal_volume 13
_journal_year 2003
_journal_page_first 1011
_journal_name_full 'J.Mater.Chem. '
loop_
_publ_author_name
"J.Nakazaki"
"InGwon Chung"
"M.M.Matsushita"
"T.Sugawara"
"R.Watanabe"
"A.Izuoka"
"Y.Kawada"
_chemical_name_systematic
;
2-(Pyrrol-3'-yl)-4,4,5,5-tetramethylimidazoline 3-oxide 1-oxyl
;
_cell_volume   2425.013
_exptl_crystal_colour 'blue'
_exptl_crystal_density_diffrn 1.218
_exptl_crystal_description 'block'
_exptl_crystal_preparation 'diethyl ether'
_diffrn_ambient_temperature 298.2
#These two values have been output from a single CSD field.
_refine_ls_R_factor_gt 0.0414
_refine_ls_wR_factor_gt 0.0414
_symmetry_cell_setting orthorhombic
_symmetry_space_group_name_H-M 'P b c a'
_symmetry_Int_Tables_number 61
loop_
_symmetry_equiv_pos_site_id
_symmetry_equiv_pos_as_xyz
1 x,y,z
2 1/2-x,1/2+y,z
3 x,1/2-y,1/2+z
4 1/2+x,y,1/2-z
5 -x,-y,-z
6 -1/2+x,-1/2-y,-z
7 -x,-1/2+y,-1/2-z
8 -1/2-x,-y,-1/2+z
_cell_length_a 13.0654(13)
_cell_length_b 14.4171(19)
_cell_length_c 12.8740(17)
_cell_angle_alpha 90
_cell_angle_beta 90
_cell_angle_gamma 90
_cell_formula_units_Z 8
loop_
_atom_type_symbol
_atom_type_radius_bond
C 0.68
H 0.23
N 0.68
O 0.68
loop_
_atom_site_label
_atom_site_type_symbol
_atom_site_fract_x
_atom_site_fract_y
_atom_site_fract_z
O1 O 0.08022(9) 0.48833(7) 0.72925(8)
O2 O 0.09807(10) 0.71946(7) 0.97703(8)
N1 N 0.30136(10) 0.50092(9) 1.04247(11)
N2 N 0.06283(9) 0.56427(8) 0.78005(8)
N3 N 0.07134(9) 0.67361(8) 0.89632(9)
C1 C 0.23646(11) 0.56859(10) 1.01256(11)
C2 C 0.18447(10) 0.53827(10) 0.92517(10)
C3 C 0.22130(13) 0.44724(11) 0.90381(13)
C4 C 0.29220(13) 0.42723(12) 0.97697(13)
C5 C 0.10917(10) 0.58967(9) 0.86882(9)
C6 C -0.02633(10) 0.62518(10) 0.75452(11)
C7 C 0.00508(11) 0.71472(10) 0.81324(10)
C8 C -0.11997(14) 0.57684(15) 0.80093(16)
C9 C -0.03843(16) 0.63597(15) 0.63814(13)
C10 C -0.08229(17) 0.76854(15) 0.86285(17)
C11 C 0.07355(18) 0.77945(13) 0.75002(17)
H1 H 0.3430(16) 0.5041(13) 1.1003(18)
H2 H 0.2299(13) 0.6267(12) 1.0514(13)
H3 H 0.1992(13) 0.4086(13) 0.8477(14)
H4 H 0.3303(16) 0.3731(14) 0.9896(15)
H5 H -0.1261(18) 0.5137(16) 0.7670(18)
H6 H -0.1808(18) 0.6141(16) 0.7871(17)
H7 H -0.1139(15) 0.5688(14) 0.8756(16)
H8 H -0.0508(16) 0.5752(17) 0.6080(17)
H9 H 0.0244(16) 0.6599(13) 0.6062(15)
H10 H -0.0975(15) 0.6786(14) 0.6262(15)
H11 H -0.1281(17) 0.7872(14) 0.8069(18)
H12 H -0.0512(18) 0.8250(19) 0.896(2)
H13 H -0.1216(15) 0.7259(14) 0.9107(17)
H14 H 0.1323(15) 0.7438(13) 0.7198(14)
H15 H 0.1047(18) 0.8299(17) 0.7936(18)
H16 H 0.0345(16) 0.8115(14) 0.6973(16)
#END
