
#######################################################################
#
#                 Cambridge Crystallographic Data Centre
#                                CCDC
#
#######################################################################
#
# If this CIF has been generated from an entry in the Cambridge
# Structural Database, then it will include bibliographic, chemical,
# crystal, experimental, refinement or atomic coordinate data resulting
# from the CCDC's data processing and validation procedures.
#
#######################################################################

data_CSD_CIF_WALWEO
_audit_creation_date 2016-02-24
_audit_creation_method CSD-ConQuest-V1
_database_code_CSD WALWEO
_database_code_depnum_ccdc_archive 'CCDC 636031'
_chemical_formula_sum 'C26 H19 N3 O4'
_chemical_formula_moiety
;
C26 H19 N3 O4
;
_journal_coden_Cambridge 1287
_journal_volume 26
_journal_year 2014
_journal_page_first 7460
_journal_name_full 'Asian J.Chem. '
loop_
_publ_author_name
"Ye Zhang"
"Wen Qin"
"Yongzhi Liao"
"Xianghui Yi"
_chemical_name_systematic
;
2-benzyl-6-(benzylamino)-5-nitro-1H-benzo[de]isoquinoline-1,3(2H)-dione
;
_cell_volume   1005.938
_exptl_crystal_colour 'orange'
_exptl_crystal_density_diffrn 1.444
_exptl_crystal_description 'block'
_diffrn_ambient_temperature 153
#These two values have been output from a single CSD field.
_refine_ls_R_factor_gt 0.1116
_refine_ls_wR_factor_gt 0.1116
_symmetry_cell_setting triclinic
_symmetry_space_group_name_H-M 'P -1'
_symmetry_Int_Tables_number 2
loop_
_symmetry_equiv_pos_site_id
_symmetry_equiv_pos_as_xyz
1 x,y,z
2 -x,-y,-z
_cell_length_a 8.8032(14)
_cell_length_b 8.822(2)
_cell_length_c 13.994(4)
_cell_angle_alpha 86.928(19)
_cell_angle_beta 76.376(17)
_cell_angle_gamma 72.284(16)
_cell_formula_units_Z 2
loop_
_atom_type_symbol
_atom_type_radius_bond
C 0.68
H 0.23
N 0.68
O 0.68
loop_
_atom_site_label
_atom_site_type_symbol
_atom_site_fract_x
_atom_site_fract_y
_atom_site_fract_z
O1 O 0.2700(5) 0.5742(5) 0.7930(3)
O2 O -0.1283(5) 1.0249(5) 0.7531(3)
O3 O 0.7751(5) 0.4125(5) 0.5533(3)
O4 O 0.8333(5) 0.5333(5) 0.4183(3)
N1 N 0.0687(6) 0.7957(6) 0.7716(3)
N2 N 0.7378(6) 0.5231(6) 0.4974(4)
N3 N 0.5901(6) 0.7394(6) 0.3603(4)
H1 H 0.69760 0.69960 0.34570
C1 C 0.2254(7) 0.6890(7) 0.7423(4)
C2 C 0.3287(7) 0.7205(7) 0.6489(4)
C3 C 0.2677(7) 0.8502(7) 0.5908(4)
C4 C 0.1138(7) 0.9622(7) 0.6274(4)
C5 C 0.0081(8) 0.9330(7) 0.7207(4)
C6 C 0.4852(7) 0.6222(7) 0.6181(4)
H2 H 0.53000 0.54190 0.66040
C7 C 0.5798(7) 0.6383(7) 0.5255(4)
C8 C 0.5170(7) 0.7479(7) 0.4580(4)
C9 C 0.3634(7) 0.8712(6) 0.4965(4)
C10 C 0.3089(7) 1.0158(7) 0.4487(4)
H3 H 0.37520 1.03700 0.38850
C11 C 0.1608(7) 1.1269(7) 0.4882(4)
H4 H 0.12590 1.22390 0.45530
C12 C 0.0623(7) 1.0966(7) 0.5764(4)
H5 H -0.04220 1.17070 0.60130
C13 C -0.0318(8) 0.7660(8) 0.8675(4)
H6 H -0.11730 0.86700 0.89190
H7 H 0.03940 0.73580 0.91500
C14 C -0.1140(7) 0.6398(7) 0.8671(4)
C15 C -0.1246(7) 0.5711(8) 0.7832(4)
H8 H -0.07790 0.60480 0.72050
C16 C -0.2018(7) 0.4546(8) 0.7883(5)
H9 H -0.20480 0.40680 0.72980
C17 C -0.2734(8) 0.4088(8) 0.8779(5)
H10 H -0.32750 0.32970 0.88170
C18 C -0.2678(8) 0.4770(7) 0.9632(5)
H11 H -0.31850 0.44550 1.02550
C19 C -0.1879(7) 0.5914(7) 0.9575(5)
H12 H -0.18360 0.63750 1.01630
C20 C 0.5149(7) 0.7873(7) 0.2764(4)
H13 H 0.39670 0.84300 0.30100
H14 H 0.52470 0.69090 0.23950
C21 C 0.5922(7) 0.8954(7) 0.2072(4)
C22 C 0.7601(8) 0.8607(7) 0.1786(4)
H15 H 0.82730 0.77300 0.20680
C23 C 0.8315(8) 0.9498(7) 0.1108(5)
H16 H 0.94750 0.92300 0.09120
C24 C 0.7349(9) 1.0797(8) 0.0702(5)
H17 H 0.78480 1.14190 0.02290
C25 C 0.5681(8) 1.1180(9) 0.0982(5)
H18 H 0.50140 1.20700 0.07070
C26 C 0.4970(8) 1.0264(8) 0.1669(5)
H19 H 0.38100 1.05370 0.18690
#END
