
#######################################################################
#
#                 Cambridge Crystallographic Data Centre
#                                CCDC
#
#######################################################################
#
# If this CIF has been generated from an entry in the Cambridge
# Structural Database, then it will include bibliographic, chemical,
# crystal, experimental, refinement or atomic coordinate data resulting
# from the CCDC's data processing and validation procedures.
#
#######################################################################

data_CSD_CIF_WAVLOU
_audit_creation_date 1994-04-11
_audit_creation_method CSD-ConQuest-V1
_database_code_CSD WAVLOU
_chemical_formula_sum 'C36 H45 N5 O2'
_chemical_formula_moiety
;
C36 H45 N5 O2
;
_journal_coden_Cambridge 9
_journal_volume 32
_journal_year 1993
_journal_page_first 3134
_journal_name_full 'Inorg.Chem. '
loop_
_publ_author_name
"M.O.Senge"
"C.W.Eigenbrot"
"T.D.Brennan"
"J.Shusta"
"W.R.Scheidt"
"K.M.Smith"
_chemical_name_systematic
;
2,3,7,8,12,13,17,18-Octaethyl-5-nitroporphyrin
;
_cell_volume   1599.674
_exptl_crystal_colour 'red'
_exptl_crystal_density_diffrn 1.204
_diffrn_ambient_temperature 130
_refine_special_details
;
The nitro group is disordered over two opposite meso- positions with 
occupancies of 0.4 and 0.6.
;
#These two values have been output from a single CSD field.
_refine_ls_R_factor_gt 0.078
_refine_ls_wR_factor_gt 0.078
_symmetry_cell_setting triclinic
_symmetry_space_group_name_H-M 'P -1'
_symmetry_Int_Tables_number 2
loop_
_symmetry_equiv_pos_site_id
_symmetry_equiv_pos_as_xyz
1 x,y,z
2 -x,-y,-z
_cell_length_a 9.374(3)
_cell_length_b 13.794(6)
_cell_length_c 14.221(4)
_cell_angle_alpha 104.69(3)
_cell_angle_beta 106.39(2)
_cell_angle_gamma 104.57(3)
_cell_formula_units_Z 2
loop_
_atom_type_symbol
_atom_type_radius_bond
C 0.68
H 0.23
N 0.68
O 0.68
loop_
_atom_site_label
_atom_site_type_symbol
_atom_site_fract_x
_atom_site_fract_y
_atom_site_fract_z
N1 N 0.2365(3) 0.3823(2) 0.4682(2)
N2 N 0.1652(4) 0.1635(3) 0.4447(2)
N3 N 0.4175(3) 0.2169(2) 0.6551(2)
N4 N 0.4855(3) 0.4367(2) 0.6798(2)
C1 C 0.2956(5) 0.4909(3) 0.4982(3)
C2 C 0.2097(5) 0.5222(3) 0.4171(3)
C3 C 0.2355(5) 0.6355(3) 0.4225(3)
C4 C 0.1563(6) 0.6892(4) 0.4894(4)
C5 C 0.0999(4) 0.4315(4) 0.3386(3)
C6 C -0.0172(4) 0.4252(4) 0.2384(3)
C7 C -0.1633(5) 0.4467(5) 0.2512(4)
C8 C 0.1183(4) 0.3434(3) 0.3720(3)
C9 C 0.0351(5) 0.2338(4) 0.3182(3)
C10 C 0.0571(4) 0.1491(4) 0.3505(3)
C11 C -0.0313(4) 0.0360(4) 0.2909(3)
C12 C -0.1530(5) -0.0119(4) 0.1818(3)
C13 C -0.0809(7) -0.0283(6) 0.0981(4)
C14 C 0.0257(5) -0.0174(3) 0.3521(3)
C15 C -0.0231(5) -0.1358(3) 0.3287(4)
C16 C 0.0830(6) -0.1864(4) 0.2860(4)
C17 C 0.1500(5) 0.0635(3) 0.4478(3)
C18 C 0.2391(5) 0.0399(4) 0.5296(3)
C19 C 0.3610(5) 0.1080(2) 0.6218(3)
C20 C 0.4509(5) 0.0764(3) 0.7002(3)
C21 C 0.4306(5) -0.0367(3) 0.6932(4)
C22 C 0.5242(6) -0.0824(4) 0.6333(4)
C23 C 0.5615(5) 0.1672(4) 0.7800(3)
C24 C 0.6763(5) 0.1667(5) 0.8775(3)
C25 C 0.6090(7) 0.1674(7) 0.9632(4)
C26 C 0.5374(3) 0.2565(3) 0.7507(2)
C27 C 0.6165(5) 0.3665(4) 0.8049(3)
C28 C 0.5928(4) 0.4522(4) 0.7747(2)
C29 C 0.6790(4) 0.5662(4) 0.8346(3)
C30 C 0.7953(5) 0.6182(4) 0.9454(3)
C31 C 0.7155(7) 0.6296(6) 1.0251(4)
C32 C 0.6238(5) 0.6176(3) 0.7711(3)
C33 C 0.6730(5) 0.7358(3) 0.7930(4)
C34 C 0.5681(6) 0.7881(4) 0.8350(4)
C35 C 0.5040(4) 0.5365(2) 0.6753(3)
C36 C 0.4181(5) 0.5600(4) 0.5919(3)
N5 N -0.0828(9) 0.2061(6) 0.2224(7)
O1 O -0.2162(8) 0.2027(6) 0.2201(6)
O2 O -0.0566(8) 0.1813(6) 0.1389(6)
N6? N 0.7475(7) 0.3912(4) 0.9002(5)
O3? O 0.7242(7) 0.3993(4) 0.9820(4)
O4? O 0.8799(6) 0.4023(4) 0.8949(4)
H1 H 0.26990 0.34350 0.50610
H2 H 0.38190 0.25640 0.61890
H3 H 0.19250 0.63580 0.35280
H4 H 0.34700 0.67600 0.45100
H5 H 0.17320 0.76120 0.49100
H6 H 0.04450 0.64920 0.46030
H7 H 0.20030 0.68970 0.55930
H8 H -0.04960 0.35590 0.18640
H9 H 0.03410 0.47750 0.21390
H10 H -0.23470 0.44310 0.18590
H11 H -0.21570 0.39370 0.27470
H12 H -0.13130 0.51640 0.30240
H13 H -0.21470 0.03310 0.17130
H14 H -0.22320 -0.08040 0.17300
H15 H -0.16140 -0.05950 0.02910
H16 H -0.01190 0.04030 0.10620
H17 H -0.02050 -0.07420 0.10790
H18 H -0.13000 -0.16960 0.27880
H19 H -0.02120 -0.15010 0.39170
H20 H 0.04730 -0.26200 0.27220
H21 H 0.07990 -0.17370 0.22220
H22 H 0.18970 -0.15400 0.33630
H23 H 0.21220 -0.03480 0.51970
H24 H 0.32000 -0.07930 0.65810
H25 H 0.46480 -0.04000 0.76220
H26 H 0.50820 -0.15510 0.62930
H27 H 0.48890 -0.08000 0.56390
H28 H 0.63490 -0.04030 0.66890
H29 H 0.76760 0.23060 0.90410
H30 H 0.71050 0.10660 0.86090
H31 H 0.68740 0.16870 1.02430
H32 H 0.57650 0.22810 0.98090
H33 H 0.51880 0.10290 0.93730
H34 H 0.86220 0.68800 0.95480
H35 H 0.86140 0.57640 0.95860
H36 H 0.79330 0.66280 1.09500
H37 H 0.65080 0.67250 1.01270
H38 H 0.65000 0.55980 1.01650
H39 H 0.67180 0.74960 0.72990
H40 H 0.78000 0.76890 0.84290
H41 H 0.60510 0.86360 0.84850
H42 H 0.46140 0.75630 0.78460
H43 H 0.57060 0.77580 0.89880
H44 H 0.44970 0.63430 0.59970
#END
