
#######################################################################
#
#                 Cambridge Crystallographic Data Centre
#                                CCDC
#
#######################################################################
#
# If this CIF has been generated from an entry in the Cambridge
# Structural Database, then it will include bibliographic, chemical,
# crystal, experimental, refinement or atomic coordinate data resulting
# from the CCDC's data processing and validation procedures.
#
#######################################################################

data_CSD_CIF_WAYJUE
_audit_creation_date 2017-08-22
_audit_creation_method CSD-ConQuest-V1
_database_code_CSD WAYJUE
_database_code_depnum_ccdc_archive 'CCDC 1556833'
_chemical_formula_sum 'C20 H27 N1 O4'
_chemical_formula_moiety
;
C20 H27 N1 O4
;
_journal_coden_Cambridge 1441
_journal_volume 9
_journal_year 2017
_journal_page_first 1213
_journal_name_full 'Nature Chemistry '
loop_
_publ_author_name
"C.K.Hill"
"J.F.Hartwig"
_chemical_name_systematic
;
3-[2-(5a,9b-dimethyl-7-methylidene-1,4,5,5a,6,7,8,9,9a,9b-decahydronaphtho[2,1
-c][1,2]oxazol-6-yl)ethylidene]-4-hydroxyoxolan-2-one
;
_chemical_name_common
;
Andrographolide isoxazole
;
_cell_volume    904.004
_exptl_crystal_colour 'colorless'
_exptl_crystal_density_diffrn 1.269
_exptl_special_details
;
Absolute configuration

;
_exptl_crystal_description 'rod'
_diffrn_ambient_temperature 100
#These two values have been output from a single CSD field.
_refine_ls_R_factor_gt 0.0279
_refine_ls_wR_factor_gt 0.0279
_symmetry_cell_setting monoclinic
_symmetry_space_group_name_H-M 'P 21'
_symmetry_Int_Tables_number 4
loop_
_symmetry_equiv_pos_site_id
_symmetry_equiv_pos_as_xyz
1 x,y,z
2 -x,1/2+y,-z
_cell_length_a 6.4097(3)
_cell_length_b 8.4981(5)
_cell_length_c 16.8156(9)
_cell_angle_alpha 90
_cell_angle_beta 99.264(2)
_cell_angle_gamma 90
_cell_formula_units_Z 2
loop_
_atom_type_symbol
_atom_type_radius_bond
C 0.68
H 0.23
N 0.68
O 0.68
loop_
_atom_site_label
_atom_site_type_symbol
_atom_site_fract_x
_atom_site_fract_y
_atom_site_fract_z
C1 C 0.6043(3) 0.4553(2) 0.77141(10)
C2 C 0.5511(3) 0.2772(2) 0.77161(11)
H1 H 0.56420 0.23310 0.71810
H2 H 0.40170 0.26540 0.77900
C3 C 0.6910(3) 0.1780(3) 0.83720(12)
H3 H 0.60210 0.13350 0.87470
H4 H 0.75480 0.08930 0.81130
C4 C 0.8612(3) 0.2757(3) 0.88302(11)
C5 C 1.0306(3) 0.5025(3) 0.92929(12)
H5 H 1.04850 0.57090 0.88320
H6 H 1.05770 0.56550 0.97940
C6 C 0.8084(3) 0.4313(2) 0.91765(11)
C7 C 0.6303(3) 0.5167(2) 0.86004(11)
H7 H 0.49600 0.48800 0.87960
C8 C 0.6464(3) 0.6958(2) 0.86739(12)
H8 H 0.65450 0.72670 0.92460
H9 H 0.77700 0.73220 0.84870
C9 C 0.4544(3) 0.7736(2) 0.81697(12)
H10 H 0.32450 0.74400 0.83820
H11 H 0.46940 0.88950 0.82010
C10 C 0.4378(3) 0.7208(2) 0.73074(12)
C11 C 0.4137(3) 0.5441(2) 0.72109(10)
H12 H 0.28680 0.51520 0.74560
C12 C 0.8025(3) 0.4817(2) 0.73216(10)
H13 H 0.83130 0.59470 0.72990
H14 H 0.77870 0.43840 0.67740
H15 H 0.92370 0.42880 0.76420
C13 C 0.7387(3) 0.4037(3) 1.00015(11)
H16 H 0.61680 0.33250 0.99360
H17 H 0.69930 0.50440 1.02200
H18 H 0.85550 0.35670 1.03730
C14 C 0.4532(3) 0.8211(2) 0.67152(13)
H19 H 0.47540 0.92990 0.68300
H20 H 0.44200 0.78420 0.61770
C15 C 0.3649(3) 0.4914(2) 0.63259(10)
H21 H 0.47780 0.52980 0.60370
H22 H 0.36470 0.37500 0.63030
C16 C 0.1562(3) 0.5517(2) 0.59121(11)
H23 H 0.05420 0.57480 0.62470
C17 C 0.0978(3) 0.5765(2) 0.51289(11)
C18 C -0.1185(3) 0.6248(2) 0.47873(11)
C19 C 0.0390(3) 0.5403(3) 0.37325(12)
H24 H 0.07410 0.59270 0.32450
H25 H 0.01250 0.42740 0.36110
C20 C 0.2192(3) 0.5599(2) 0.44365(10)
H26 H 0.31480 0.46620 0.45020
N1 N 1.0567(3) 0.2408(2) 0.89206(11)
O1 O 1.1717(2) 0.3687(2) 0.93414(10)
O2 O -0.1466(2) 0.61327(17) 0.39804(8)
O3 O -0.2594(2) 0.67067(17) 0.51347(8)
O4 O 0.3300(2) 0.70026(18) 0.43090(8)
H27 H 0.45100 0.69780 0.45890
#END
