
#######################################################################
#
#                 Cambridge Crystallographic Data Centre
#                                CCDC
#
#######################################################################
#
# If this CIF has been generated from an entry in the Cambridge
# Structural Database, then it will include bibliographic, chemical,
# crystal, experimental, refinement or atomic coordinate data resulting
# from the CCDC's data processing and validation procedures.
#
#######################################################################

data_CSD_CIF_WEGJOH
_audit_creation_date 1994-07-24
_audit_creation_method CSD-ConQuest-V1
_database_code_CSD WEGJOH
_database_code_depnum_ccdc_archive 'CCDC 1291416'
_chemical_formula_sum 'C16 H14 N4 O1'
_chemical_formula_moiety
;
C16 H14 N4 O1
;
_journal_coden_Cambridge 34
_journal_volume 30
_journal_year 1993
_journal_page_first 1073
_journal_name_full 'J.Heterocycl.Chem. '
loop_
_publ_author_name
"A.R.Katritzky"
"V.Gupta"
"M.Gordeev"
_chemical_name_systematic
;
6-(Benzotriazolyl)-2-phenyl-3,6-dihydro-1,2-oxazine
;
_chemical_melting_point 399.15
_cell_volume   1404.159
_exptl_crystal_colour 'colorless'
_exptl_crystal_density_diffrn 1.316
_diffrn_ambient_temperature 183.15
#These two values have been output from a single CSD field.
_refine_ls_R_factor_gt 0.037
_refine_ls_wR_factor_gt 0.037
_symmetry_cell_setting monoclinic
_symmetry_space_group_name_H-M 'P 21/n'
_symmetry_Int_Tables_number 14
loop_
_symmetry_equiv_pos_site_id
_symmetry_equiv_pos_as_xyz
1 x,y,z
2 1/2-x,1/2+y,1/2-z
3 -x,-y,-z
4 -1/2+x,-1/2-y,-1/2+z
_cell_length_a 6.946(2)
_cell_length_b 8.153(3)
_cell_length_c 24.883(13)
_cell_angle_alpha 90
_cell_angle_beta 94.82(3)
_cell_angle_gamma 90
_cell_formula_units_Z 4
loop_
_atom_type_symbol
_atom_type_radius_bond
C 0.68
H 0.23
N 0.68
O 0.68
loop_
_atom_site_label
_atom_site_type_symbol
_atom_site_fract_x
_atom_site_fract_y
_atom_site_fract_z
O1 O 0.1138(2) 0.0187(2) 0.6347(1)
N1 N 0.1629(3) 0.1463(2) 0.6746(1)
C1 C 0.3748(3) 0.1533(3) 0.6826(1)
C2 C 0.4570(4) 0.1706(3) 0.6289(1)
C3 C 0.3502(3) 0.1463(3) 0.5830(1)
C4 C 0.1490(3) 0.0824(3) 0.5832(1)
N2 N 0.0011(3) 0.2009(2) 0.5637(1)
N3 N -0.1548(3) 0.1435(3) 0.5314(1)
N4 N -0.2690(3) 0.2654(3) 0.5178(1)
C5 C -0.1898(3) 0.4072(3) 0.5414(1)
C6 C -0.2577(3) 0.5692(3) 0.5385(1)
C7 C -0.1468(4) 0.6866(3) 0.5660(1)
C8 C 0.0276(4) 0.6442(3) 0.5963(1)
C9 C 0.0955(3) 0.4857(3) 0.5998(1)
C10 C -0.0166(3) 0.3674(3) 0.5712(1)
C11 C 0.0633(3) 0.1110(3) 0.7210(1)
C12 C -0.0965(3) 0.0063(3) 0.7183(1)
C13 C -0.1970(3) -0.0180(3) 0.7638(1)
C14 C -0.1431(4) 0.0623(3) 0.8118(1)
C15 C 0.0153(4) 0.1661(3) 0.8145(1)
C16 C 0.1193(4) 0.1894(3) 0.7700(1)
H1 H 0.41300 0.24570 0.70490
H2 H 0.42270 0.05430 0.69980
H3 H 0.59040 0.20020 0.62790
H4 H 0.40250 0.17000 0.54930
H5 H 0.13880 -0.00630 0.55780
H6 H -0.37680 0.59690 0.51820
H7 H -0.18830 0.79890 0.56460
H8 H 0.10130 0.72930 0.61510
H9 H 0.21330 0.45790 0.62080
H10 H -0.13700 -0.04900 0.68520
H11 H -0.30550 -0.09140 0.76180
H12 H -0.21460 0.04610 0.84270
H13 H 0.05330 0.22240 0.84760
H14 H 0.23050 0.25980 0.77280
#END
