
#######################################################################
#
#                 Cambridge Crystallographic Data Centre
#                                CCDC
#
#######################################################################
#
# If this CIF has been generated from an entry in the Cambridge
# Structural Database, then it will include bibliographic, chemical,
# crystal, experimental, refinement or atomic coordinate data resulting
# from the CCDC's data processing and validation procedures.
#
#######################################################################

data_CSD_CIF_WEHJOJ01
_audit_creation_date 2015-09-04
_audit_creation_method CSD-ConQuest-V1
_database_code_CSD WEHJOJ01
_database_code_depnum_ccdc_archive 'CCDC 1021475'
_chemical_formula_sum 'C12 H19 N4 O2'
_chemical_formula_moiety
;
C12 H19 N4 O2
;
_journal_coden_Cambridge 154
_journal_volume 68
_journal_year 2015
_journal_page_first 970
_journal_name_full 'Aust.J.Chem. '
loop_
_publ_author_name
"E.V.Tretyakov"
"G.V.Romanenko"
"S.L.Veber"
"M.V.Fedin"
"A.V.Polushkin"
"A.O.Tkacheva"
"V.I.Ovcharenko"
_chemical_name_systematic
;
2-(1-ethyl-1H-pyrazol-4-yl)-4,4,5,5-tetramethyl-4,5-dihydro-1H-imidazol-1-ol 
3-oxide
;
_cell_volume   1411.644
_exptl_crystal_colour 'blue'
_exptl_crystal_density_diffrn 1.182
_exptl_crystal_description 'prism'
_diffrn_ambient_temperature 296
#These two values have been output from a single CSD field.
_refine_ls_R_factor_gt 0.0755
_refine_ls_wR_factor_gt 0.0755
_symmetry_cell_setting monoclinic
_symmetry_space_group_name_H-M 'P 21/c'
_symmetry_Int_Tables_number 14
loop_
_symmetry_equiv_pos_site_id
_symmetry_equiv_pos_as_xyz
1 x,y,z
2 -x,1/2+y,1/2-z
3 -x,-y,-z
4 x,-1/2-y,-1/2+z
_cell_length_a 7.3177(12)
_cell_length_b 18.179(3)
_cell_length_c 10.792(2)
_cell_angle_alpha 90
_cell_angle_beta 100.491(10)
_cell_angle_gamma 90
_cell_formula_units_Z 4
loop_
_atom_type_symbol
_atom_type_radius_bond
C 0.68
H 0.23
N 0.68
O 0.68
loop_
_atom_site_label
_atom_site_type_symbol
_atom_site_fract_x
_atom_site_fract_y
_atom_site_fract_z
O1 O 0.6432(4) 0.91148(14) 0.3864(2)
N1 N 0.5742(3) 0.96471(14) 0.3130(2)
C1 C 0.6761(4) 1.03472(18) 0.3083(3)
C2 C 0.8386(5) 1.0175(3) 0.2441(4)
H1 H 0.90980 0.97780 0.28760
H2 H 0.91590 1.06020 0.24580
H3 H 0.79310 1.00340 0.15830
C3 C 0.7436(5) 1.0614(2) 0.4445(4)
H4 H 0.63840 1.07470 0.48140
H5 H 0.82280 1.10340 0.44390
H6 H 0.81160 1.02270 0.49290
C4 C 0.5223(4) 1.08308(17) 0.2295(3)
C5 C 0.4198(5) 1.13234(19) 0.3041(3)
H7 H 0.50150 1.17050 0.34290
H8 H 0.37630 1.10420 0.36820
H9 H 0.31570 1.15400 0.24930
C6 C 0.5842(6) 1.1276(2) 0.1236(3)
H10 H 0.48090 1.15550 0.07970
H11 H 0.62780 1.09470 0.06580
H12 H 0.68250 1.16050 0.15910
N2 N 0.3875(3) 1.02572(13) 0.1718(2)
O2 O 0.2485(3) 1.04120(11) 0.0834(2)
C7 C 0.4166(4) 0.96070(16) 0.2285(3)
C8 C 0.3015(5) 0.89757(15) 0.2014(3)
C9 C 0.3309(6) 0.82549(19) 0.2506(4)
H13 H 0.43500 0.81150 0.30880
N3 N 0.1970(6) 0.78155(17) 0.2057(4)
N4 N 0.0742(4) 0.82387(17) 0.1258(4)
C10 C -0.1018(8) 0.7919(3) 0.0644(6)
H14 H -0.15940 0.76780 0.12760
H15 H -0.18400 0.83130 0.02790
C11 C -0.0845(10) 0.7412(4) -0.0299(8)
H16 H -0.20510 0.72280 -0.06670
H17 H -0.00690 0.70110 0.00590
H18 H -0.02950 0.76480 -0.09370
C12 C 0.1330(5) 0.89238(16) 0.1198(3)
H19 H 0.07240 0.93000 0.07000
#END
