
#######################################################################
#
#                 Cambridge Crystallographic Data Centre
#                                CCDC
#
#######################################################################
#
# If this CIF has been generated from an entry in the Cambridge
# Structural Database, then it will include bibliographic, chemical,
# crystal, experimental, refinement or atomic coordinate data resulting
# from the CCDC's data processing and validation procedures.
#
#######################################################################

data_CSD_CIF_WEKBUK
_audit_creation_date 2006-11-14
_audit_creation_method CSD-ConQuest-V1
_database_code_CSD WEKBUK
_database_code_depnum_ccdc_archive 'CCDC 293264'
_chemical_formula_sum 'C32 H29 N3 O7'
_chemical_formula_moiety
;
C32 H29 N3 O7
;
_journal_coden_Cambridge 1090
_journal_volume 17
_journal_year 2006
_journal_page_first 1323
_journal_name_full 'Tetrahedron:Asymm. '
loop_
_publ_author_name
"M.Periasamy"
"S.Suresh"
"S.S.Ganesan"
_chemical_name_systematic
;
(2S,3S,\aR)-methyl 
2-benzyl-3-phenyl-3-(N-(1-phenylethyl)-3,5-dinitrophenylcarboxamido)propanoate

;
_chemical_melting_point 363.15
_cell_volume   2927.321
_exptl_crystal_colour 'colorless'
_exptl_crystal_density_diffrn 1.288
_exptl_special_details
;
Melting point range 363.15-365.15K

;
_exptl_crystal_description 'needle'
_diffrn_ambient_temperature 293
#These two values have been output from a single CSD field.
_refine_ls_R_factor_gt 0.0582
_refine_ls_wR_factor_gt 0.0582
_symmetry_cell_setting tetragonal
_symmetry_space_group_name_H-M 'P 43'
_symmetry_Int_Tables_number 78
loop_
_symmetry_equiv_pos_site_id
_symmetry_equiv_pos_as_xyz
1 x,y,z
2 -x,-y,1/2+z
3 -y,x,3/4+z
4 y,-x,1/4+z
_cell_length_a 9.1861(2)
_cell_length_b 9.1861(2)
_cell_length_c 34.6903(13)
_cell_angle_alpha 90
_cell_angle_beta 90
_cell_angle_gamma 90
_cell_formula_units_Z 4
loop_
_atom_type_symbol
_atom_type_radius_bond
C 0.68
H 0.23
N 0.68
O 0.68
loop_
_atom_site_label
_atom_site_type_symbol
_atom_site_fract_x
_atom_site_fract_y
_atom_site_fract_z
O1 O 0.9452(3) 0.2277(3) 0.77420(6)
C1 C 0.6857(4) 0.0589(3) 0.76870(9)
H1 H 0.75010 0.10530 0.74980
C2 C 0.7806(4) -0.0161(3) 0.79953(9)
H2 H 0.71170 -0.06260 0.81730
C3 C 0.6000(4) -0.0577(4) 0.74861(11)
C4 C 0.9366(4) 0.2021(4) 0.80899(10)
O2 O 0.6048(3) -0.0837(3) 0.71477(7)
N1 N 0.8687(3) 0.0844(3) 0.82385(7)
C5 C 0.9710(5) 0.5198(4) 0.87684(9)
C6 C 1.0008(4) 0.3145(4) 0.83544(9)
C7 C 1.2022(4) 0.4651(4) 0.8527(1)
C8 C 1.0485(4) 0.0430(4) 0.87708(9)
O3 O 0.5142(3) -0.1290(3) 0.77325(7)
O4 O 0.9279(4) 0.7156(3) 0.91695(9)
C9 C 0.5841(4) 0.1752(4) 0.78546(10)
H3 H 0.52160 0.13060 0.80470
H4 H 0.64210 0.24900 0.79830
C10 C 0.9108(4) 0.4029(4) 0.85754(10)
H5 H 0.81170 0.38360 0.85930
N2 N 0.8731(5) 0.6163(4) 0.89905(9)
O5 O 1.3948(3) 0.6247(4) 0.85490(9)
C11 C 1.1157(5) 0.5536(4) 0.87478(9)
H6 H 1.15390 0.63340 0.88780
C12 C 0.8696(4) -0.1396(4) 0.78257(9)
C13 C 0.4909(5) 0.2467(4) 0.75526(10)
O6 O 0.7440(4) 0.5896(4) 0.89845(9)
C14 C 1.0573(5) -0.2274(7) 0.74075(13)
H7 H 1.13390 -0.20880 0.72390
C15 C 0.8926(4) 0.0279(4) 0.86384(9)
H8 H 0.87550 -0.07720 0.86210
C16 C 0.9825(4) -0.1125(5) 0.75762(10)
H9 H 1.00900 -0.01710 0.75200
N3 N 1.3586(4) 0.4997(5) 0.84932(10)
C17 C 1.1468(4) 0.3478(4) 0.83310(9)
H10 H 1.20810 0.29040 0.81810
C18 C 0.4592(7) 0.4217(5) 0.70480(14)
H11 H 0.49690 0.49690 0.68990
C19 C 1.3009(5) -0.0150(4) 0.86667(12)
H12 H 1.37270 -0.05880 0.85170
C20 C 0.7756(4) 0.0847(5) 0.89158(11)
H13 H 0.79410 0.18530 0.89730
H14 H 0.77810 0.02910 0.91500
H15 H 0.68150 0.07530 0.87980
C21 C 0.3504(5) 0.1991(5) 0.74854(11)
H16 H 0.31250 0.12230 0.76280
C22 C 0.5443(5) 0.3585(5) 0.73287(13)
H17 H 0.63890 0.39170 0.73680
C23 C 1.0877(5) 0.1152(4) 0.91025(10)
H18 H 1.01670 0.15930 0.92540
C24 C 0.9081(7) -0.3963(5) 0.77297(15)
H19 H 0.88260 -0.49240 0.77810
C25 C 0.8320(5) -0.2820(5) 0.79036(11)
H20 H 0.75590 -0.30210 0.80720
C26 C 1.2310(6) 0.1225(5) 0.92114(12)
H21 H 1.25580 0.17150 0.94370
C27 C 0.2660(6) 0.2659(7) 0.72055(15)
H22 H 0.17070 0.23470 0.71680
C28 C 1.3374(5) 0.0595(5) 0.89968(14)
H23 H 1.43430 0.06660 0.90730
C29 C 1.1569(5) -0.0239(4) 0.85598(11)
H24 H 1.13200 -0.07630 0.83400
O7 O 1.4396(4) 0.4028(4) 0.84080(12)
C30 C 0.3187(7) 0.3749(6) 0.69860(14)
H25 H 0.26130 0.41760 0.67960
C31 C 0.4358(6) -0.2528(6) 0.75813(16)
H26 H 0.49820 -0.33660 0.75820
H27 H 0.40490 -0.23240 0.73220
H28 H 0.35210 -0.27150 0.77400
C32 C 1.0190(7) -0.3662(7) 0.74869(16)
H29 H 1.06980 -0.44240 0.73720
#END
