
#######################################################################
#
#                 Cambridge Crystallographic Data Centre
#                                CCDC
#
#######################################################################
#
# If this CIF has been generated from an entry in the Cambridge
# Structural Database, then it will include bibliographic, chemical,
# crystal, experimental, refinement or atomic coordinate data resulting
# from the CCDC's data processing and validation procedures.
#
#######################################################################

data_CSD_CIF_WIDCOB
_audit_creation_date 1995-04-20
_audit_creation_method CSD-ConQuest-V1
_database_code_CSD WIDCOB
_chemical_formula_sum 'C14 H17 N1 O3'
_chemical_formula_moiety
;
C14 H17 N1 O3
;
_journal_coden_Cambridge 1003
_journal_volume 24
_journal_year 1994
_journal_page_first 311
_journal_name_full 'J.Chem.Cryst. '
loop_
_publ_author_name
"J.P.Michael"
"D.G.Billing"
"T.L.Maqutu"
_chemical_name_systematic
;
6-exo-Methyl-6-endo-nitro-2-exo-phenylbicyclo(2.2.1)heptan-2-endo-ol
;
_chemical_melting_point 412.15
_cell_volume   1251.968
_exptl_crystal_colour 'colorless'
_exptl_crystal_density_diffrn 1.31
_exptl_special_details
;
Melting point range 412.15-413.15K

;
_diffrn_ambient_temperature ?
_diffrn_special_details
;
The study was carried out at room temperature,in the range 283-303K

;
#These two values have been output from a single CSD field.
_refine_ls_R_factor_gt 0.069
_refine_ls_wR_factor_gt 0.069
_symmetry_cell_setting orthorhombic
_symmetry_space_group_name_H-M 'P 21 21 21'
_symmetry_Int_Tables_number 19
loop_
_symmetry_equiv_pos_site_id
_symmetry_equiv_pos_as_xyz
1 x,y,z
2 1/2+x,1/2-y,-z
3 -x,1/2+y,1/2-z
4 1/2-x,-y,1/2+z
_cell_length_a 6.685(3)
_cell_length_b 10.0788(5)
_cell_length_c 18.5816(10)
_cell_angle_alpha 90
_cell_angle_beta 90
_cell_angle_gamma 90
_cell_formula_units_Z 4
loop_
_atom_type_symbol
_atom_type_radius_bond
C 0.68
H 0.23
N 0.68
O 0.68
loop_
_atom_site_label
_atom_site_type_symbol
_atom_site_fract_x
_atom_site_fract_y
_atom_site_fract_z
O1 O 0.1026(4) 0.7361(2) 0.3570(1)
O2 O -0.1530(3) 0.6374(2) 0.4032(1)
O3 O 0.1239(3) 0.6611(2) 0.5166(1)
H1 H 0.1975(32) 0.7109(3) 0.5393(16)
N1 N 0.0234(4) 0.6402(2) 0.3842(1)
C1 C 0.1067(3) 0.4411(2) 0.4627(1)
C2 C 0.1882(4) 0.5272(2) 0.5263(1)
C3 C 0.4175(4) 0.5161(3) 0.5176(1)
C4 C 0.4406(4) 0.4383(2) 0.4481(2)
C5 C 0.3669(4) 0.5250(3) 0.3848(1)
C6 C 0.1391(4) 0.5096(2) 0.3894(1)
C7 C 0.2739(4) 0.3357(2) 0.4572(1)
C8 C 0.0502(5) 0.4308(3) 0.3264(1)
C9 C 0.0993(4) 0.4730(2) 0.5967(1)
C10 C 0.1905(5) 0.3764(3) 0.6386(1)
C11 C 0.0932(6) 0.3265(3) 0.6995(1)
C12 C -0.0922(6) 0.3715(3) 0.7189(1)
C13 C -0.1845(6) 0.4682(4) 0.6777(2)
C14 C -0.0884(5) 0.5179(3) 0.6169(1)
#END
