
#######################################################################
#
#                 Cambridge Crystallographic Data Centre
#                                CCDC
#
#######################################################################
#
# If this CIF has been generated from an entry in the Cambridge
# Structural Database, then it will include bibliographic, chemical,
# crystal, experimental, refinement or atomic coordinate data resulting
# from the CCDC's data processing and validation procedures.
#
#######################################################################

data_CSD_CIF_WOFJUX
_audit_creation_date 2008-12-09
_audit_creation_method CSD-ConQuest-V1
_database_code_CSD WOFJUX
_database_code_depnum_ccdc_archive 'CCDC 665432'
_chemical_formula_sum 'C27 H35 N5 O6'
_chemical_formula_moiety
;
C27 H35 N5 O6
;
_journal_coden_Cambridge 392
_journal_volume 75
_journal_year 2008
_journal_page_first 799
_journal_name_full 'Heterocycles '
loop_
_publ_author_name
"C.Rabong"
"C.Hametner"
"K.Mereiter"
"V.G.Kartsev"
"U.Jordis"
_chemical_name_systematic
;
(+-)-1,1'-((1,3,5-Trinitropentane-2,4-diyl)bis(2,1-phenylene))dipiperidine
;
_chemical_melting_point 418.05
_cell_volume   1303.729
_exptl_crystal_colour 'yellow'
_exptl_crystal_density_diffrn 1.339
_exptl_crystal_description 'prism'
_exptl_crystal_preparation 'dichloromethane/diethyl ether'
_diffrn_ambient_temperature 100
#These two values have been output from a single CSD field.
_refine_ls_R_factor_gt 0.0437
_refine_ls_wR_factor_gt 0.0437
_symmetry_cell_setting triclinic
_symmetry_space_group_name_H-M 'P -1'
_symmetry_Int_Tables_number 2
loop_
_symmetry_equiv_pos_site_id
_symmetry_equiv_pos_as_xyz
1 x,y,z
2 -x,-y,-z
_cell_length_a 9.0392(5)
_cell_length_b 11.9206(6)
_cell_length_c 13.2712(7)
_cell_angle_alpha 75.358(2)
_cell_angle_beta 73.601(2)
_cell_angle_gamma 75.792(2)
_cell_formula_units_Z 2
loop_
_atom_type_symbol
_atom_type_radius_bond
C 0.68
H 0.23
N 0.68
O 0.68
loop_
_atom_site_label
_atom_site_type_symbol
_atom_site_fract_x
_atom_site_fract_y
_atom_site_fract_z
O1 O 0.93021(10) 0.32145(8) -0.04747(7)
O2 O 0.69583(10) 0.42476(7) -0.04169(6)
O3 O 0.81880(11) 0.56853(8) 0.27863(8)
O4 O 0.69019(11) 0.65611(7) 0.15681(8)
O5 O 0.30714(9) 0.17884(7) 0.24249(7)
O6 O 0.20455(9) 0.30038(8) 0.11800(7)
N1 N 0.79353(10) 0.35032(8) -0.00076(7)
N2 N 0.78010(11) 0.57339(8) 0.19647(8)
N3 N 0.31109(10) 0.26095(8) 0.16521(7)
N4 N 0.42272(10) 0.41605(7) 0.34817(7)
N5 N 0.7676(1) 0.00053(7) 0.19329(7)
C1 C 0.74343(11) 0.29485(8) 0.11637(8)
H1 H 0.83320 0.23260 0.13550
C2 C 0.83907(12) 0.46892(9) 0.14282(9)
H2 H 0.93940 0.42410 0.16020
H3 H 0.85700 0.49530 0.06410
C3 C 0.44938(11) 0.32182(9) 0.12821(9)
H4 H 0.43480 0.38050 0.17300
H5 H 0.45580 0.36450 0.05320
C4 C 0.71297(11) 0.39056(8) 0.18440(8)
H6 H 0.60910 0.44240 0.17890
C5 C 0.70163(12) 0.32886(9) 0.30122(8)
C6 C 0.83629(14) 0.25717(10) 0.33153(10)
H7 H 0.93370 0.25070 0.28000
C7 C 0.82867(16) 0.19523(10) 0.43660(11)
H8 H 0.92080 0.14760 0.45650
C8 C 0.68718(17) 0.20319(10) 0.51169(10)
H9 H 0.68150 0.15920 0.58280
C9 C 0.55321(15) 0.27539(10) 0.48346(9)
H10 H 0.45660 0.28170 0.53580
C10 C 0.55934(13) 0.33909(9) 0.37840(8)
C11 C 0.27319(13) 0.37553(10) 0.40134(8)
H11 H 0.24550 0.37980 0.47820
H12 H 0.28410 0.29240 0.39620
C12 C 0.14385(13) 0.45281(10) 0.34817(9)
H13 H 0.04310 0.42640 0.38520
H14 H 0.16870 0.44430 0.27260
C13 C 0.12717(13) 0.58241(10) 0.35225(9)
H15 H 0.05170 0.63200 0.31000
H16 H 0.08590 0.59340 0.42730
C14 C 0.28614(13) 0.62058(9) 0.30705(9)
H17 H 0.31980 0.62090 0.22920
H18 H 0.27650 0.70180 0.31710
C15 C 0.40886(13) 0.53748(9) 0.36260(8)
H19 H 0.51140 0.56290 0.33190
H20 H 0.37810 0.53970 0.43990
C16 C 0.60239(11) 0.23363(8) 0.13539(8)
H21 H 0.58680 0.18760 0.21060
C17 C 0.64036(11) 0.14433(8) 0.06288(8)
C18 C 0.59508(12) 0.17420(9) -0.03419(8)
H22 H 0.53540 0.25030 -0.05400
C19 C 0.63587(13) 0.09438(10) -0.10237(9)
H23 H 0.60410 0.11590 -0.16810
C20 C 0.72282(13) -0.0163(1) -0.07396(9)
H24 H 0.75270 -0.07050 -0.12100
C21 C 0.76675(12) -0.04867(9) 0.02325(9)
H25 H 0.82530 -0.12540 0.04270
C22 C 0.72569(11) 0.03040(9) 0.09248(8)
C23 C 0.91738(12) -0.08203(10) 0.19724(9)
H26 H 0.99950 -0.05830 0.13310
H27 H 0.90570 -0.16280 0.19830
C24 C 0.96427(13) -0.07988(11) 0.29807(9)
H28 H 0.97890 0.00050 0.29550
H29 H 1.06520 -0.13490 0.30190
C25 C 0.83780(14) -0.11590(11) 0.39752(9)
H30 H 0.83530 -0.20040 0.40630
H31 H 0.86390 -0.10530 0.46170
C26 C 0.67637(13) -0.04207(10) 0.38845(9)
H32 H 0.59490 -0.07450 0.44850
H33 H 0.67260 0.04000 0.39360
C27 C 0.64197(12) -0.04214(9) 0.28280(8)
H34 H 0.63590 -0.12310 0.28010
H35 H 0.53970 0.00970 0.27660
#END
