
#######################################################################
#
#                 Cambridge Crystallographic Data Centre
#                                CCDC
#
#######################################################################
#
# If this CIF has been generated from an entry in the Cambridge
# Structural Database, then it will include bibliographic, chemical,
# crystal, experimental, refinement or atomic coordinate data resulting
# from the CCDC's data processing and validation procedures.
#
#######################################################################

data_CSD_CIF_WOGPAJ
_audit_creation_date 2000-12-19
_audit_creation_method CSD-ConQuest-V1
_database_code_CSD WOGPAJ
_database_code_depnum_ccdc_archive 'CCDC 149369'
_database_code_depnum_ccdc_journal 440/074
_chemical_formula_sum 'C10 H8 N4 O5'
_chemical_formula_moiety
;
C10 H8 N4 O5
;
_journal_coden_Cambridge 440
_journal_volume 22
_journal_year 1998
_journal_page_first 1421
_journal_name_full 'New J.Chem. '
loop_
_publ_author_name
"C.Dardonville"
"J.Elguero"
"I.Rozas"
"C.Fernandez-Castano"
"C.Foces-Foces"
"I.Sobrados"
_chemical_name_systematic
;
1-(2',4'-Dinitrophenyl)-3-hydroxy-5-methylpyrazole
;
_chemical_melting_point 495.15
_cell_volume    559.531
_exptl_crystal_colour 'yellow'
_exptl_crystal_density_diffrn 1.568
_exptl_special_details
;
Melting point range 495.15-498.15K

;
_exptl_crystal_description 'plate'
_diffrn_ambient_temperature ?
_diffrn_special_details
;
The study was carried out at room temperature,in the range 283-303K

;
#These two values have been output from a single CSD field.
_refine_ls_R_factor_gt 0.045
_refine_ls_wR_factor_gt 0.045
_symmetry_cell_setting triclinic
_symmetry_space_group_name_H-M 'P -1'
_symmetry_Int_Tables_number 2
loop_
_symmetry_equiv_pos_site_id
_symmetry_equiv_pos_as_xyz
1 x,y,z
2 -x,-y,-z
_cell_length_a 6.5974(3)
_cell_length_b 7.3075(4)
_cell_length_c 13.0001(9)
_cell_angle_alpha 83.638(6)
_cell_angle_beta 88.966(5)
_cell_angle_gamma 115.742(4)
_cell_formula_units_Z 2
loop_
_atom_type_symbol
_atom_type_radius_bond
C 0.68
H 0.23
N 0.68
O 0.68
loop_
_atom_site_label
_atom_site_type_symbol
_atom_site_fract_x
_atom_site_fract_y
_atom_site_fract_z
N1 N 0.4252(3) 0.3096(2) 0.36754(11)
N2 N 0.2390(3) 0.1804(2) 0.43404(11)
C1 C 0.3281(3) 0.1487(3) 0.52025(14)
C2 C 0.5637(3) 0.2510(3) 0.51208(15)
C3 C 0.6213(3) 0.3525(3) 0.41338(14)
O1 O 0.2008(3) 0.0311(2) 0.6058(1)
C4 C 0.8483(4) 0.4776(4) 0.3582(2)
C5 C 0.3922(3) 0.3845(3) 0.26796(13)
C6 C 0.2662(3) 0.2564(3) 0.19725(14)
C7 C 0.2231(3) 0.3344(3) 0.10266(14)
C8 C 0.3169(3) 0.5449(3) 0.07824(14)
C9 C 0.4482(3) 0.6768(3) 0.14392(16)
C10 C 0.4832(3) 0.5954(3) 0.23926(15)
N3 N 0.1852(3) 0.0327(2) 0.21519(13)
O2 O 0.2918(3) -0.0354(3) 0.26849(14)
O3 O 0.0192(4) -0.0712(3) 0.17257(16)
N4 N 0.2759(3) 0.6277(3) -0.02332(14)
O4 O 0.1770(3) 0.5095(3) -0.08374(11)
O5 O 0.3440(4) 0.8110(3) -0.04228(18)
H1 H 0.665(4) 0.244(4) 0.565(2)
H2 H 0.053(6) -0.036(5) 0.591(2)
H3 H 0.959(6) 0.433(5) 0.388(3)
H4 H 0.860(7) 0.442(6) 0.292(4)
H5 H 0.883(8) 0.613(8) 0.352(4)
H6 H 0.137(4) 0.247(4) 0.0549(18)
H7 H 0.510(4) 0.821(4) 0.128(2)
H8 H 0.568(5) 0.683(4) 0.287(2)
#END
