
#######################################################################
#
#                 Cambridge Crystallographic Data Centre
#                                CCDC
#
#######################################################################
#
# If this CIF has been generated from an entry in the Cambridge
# Structural Database, then it will include bibliographic, chemical,
# crystal, experimental, refinement or atomic coordinate data resulting
# from the CCDC's data processing and validation procedures.
#
#######################################################################

data_CSD_CIF_WOKSIY01
_audit_creation_date 2002-03-27
_audit_creation_method CSD-ConQuest-V1
_database_code_CSD WOKSIY01
_database_code_depnum_ccdc_archive 'CCDC 177237'
_chemical_formula_sum 'C15 H16 N4 O2'
_chemical_formula_moiety
;
C15 H16 N4 O2
;
_journal_coeditor_code "IUCr OB6093"
_journal_coden_Cambridge 1370
_journal_volume 57
_journal_year 2001
_journal_page_first o1250
_journal_name_full 'Acta Crystallogr.,Sect.E:Struct.Rep.Online '
loop_
_publ_author_name
"O.Ya.Borbulevych"
"M.Yu.Antipin"
_chemical_name_systematic
;
N,N-Dimethyl-N-(4-((E)-(4-methyl-3-nitrophenyl)diazenyl)phenyl)amine
;
_cell_volume   1419.964
_exptl_crystal_colour 'red'
_exptl_crystal_density_diffrn 1.33
_exptl_crystal_description 'prism'
_diffrn_ambient_temperature 193
#These two values have been output from a single CSD field.
_refine_ls_R_factor_gt 0.055
_refine_ls_wR_factor_gt 0.055
_symmetry_cell_setting monoclinic
_symmetry_space_group_name_H-M 'P 21/c'
_symmetry_Int_Tables_number 14
loop_
_symmetry_equiv_pos_site_id
_symmetry_equiv_pos_as_xyz
1 x,y,z
2 x,1/2-y,1/2+z
3 -x,-y,-z
4 -x,-1/2+y,-1/2-z
_cell_length_a 10.509(6)
_cell_length_b 10.763(5)
_cell_length_c 13.146(7)
_cell_angle_alpha 90
_cell_angle_beta 107.26(4)
_cell_angle_gamma 90
_cell_formula_units_Z 4
loop_
_atom_type_symbol
_atom_type_radius_bond
C 0.68
H 0.23
N 0.68
O 0.68
loop_
_atom_site_label
_atom_site_type_symbol
_atom_site_fract_x
_atom_site_fract_y
_atom_site_fract_z
N1 N 0.8869(2) 0.6658(2) 0.56096(18)
N2 N 0.8808(2) 0.6234(2) 0.47194(18)
N3 N 1.2254(3) 0.9493(3) 0.4950(2)
N4 N 0.5326(2) 0.22395(19) 0.32050(17)
O1 O 1.2173(3) 0.8883(3) 0.4162(2)
O2 O 1.2976(3) 1.0381(3) 0.5199(2)
C1 C 0.9804(2) 0.7696(2) 0.5898(2)
C2 C 0.7888(3) 0.5217(2) 0.4412(2)
C3 C 1.0606(3) 0.8100(2) 0.5290(2)
H1 H 1.05780 0.76930 0.46430
C4 C 0.7045(3) 0.4750(2) 0.4979(2)
H2 H 0.70690 0.51070 0.56450
C5 C 1.1455(2) 0.9119(2) 0.5647(2)
C6 C 0.6195(3) 0.3788(2) 0.45812(19)
H3 H 0.56350 0.34870 0.49770
C7 C 1.1503(2) 0.9769(2) 0.65675(19)
C8 C 0.6129(2) 0.3230(2) 0.35933(18)
C9 C 0.6964(2) 0.3732(2) 0.3028(2)
H4 H 0.69340 0.33940 0.23540
C10 C 1.0698(3) 0.9298(3) 0.7150(2)
H5 H 1.07250 0.96920 0.78030
C11 C 0.7809(3) 0.4691(2) 0.3432(2)
H6 H 0.83560 0.50080 0.30330
C12 C 0.9871(3) 0.8298(3) 0.6830(2)
H7 H 0.93410 0.80190 0.72580
C13 C 0.4466(3) 0.1732(3) 0.3795(2)
H8 H 0.50120 0.14720 0.45050
H9 H 0.39800 0.10130 0.34110
H10 H 0.38310 0.23690 0.38640
C14 C 0.5184(3) 0.1771(3) 0.2148(2)
H11 H 0.60580 0.15190 0.20950
H12 H 0.48130 0.24230 0.16240
H13 H 0.45830 0.10530 0.20080
C15 C 1.2335(3) 1.0900(2) 0.6991(2)
H14 H 1.22030 1.11480 0.76700
H15 H 1.20660 1.15820 0.64780
H16 H 1.32780 1.07060 0.71010
#END
