
#######################################################################
#
#                 Cambridge Crystallographic Data Centre
#                                CCDC
#
#######################################################################
#
# If this CIF has been generated from an entry in the Cambridge
# Structural Database, then it will include bibliographic, chemical,
# crystal, experimental, refinement or atomic coordinate data resulting
# from the CCDC's data processing and validation procedures.
#
#######################################################################

data_CSD_CIF_WOMHUD
_audit_creation_date 2014-08-04
_audit_creation_method CSD-ConQuest-V1
_database_code_CSD WOMHUD
_database_code_depnum_ccdc_archive 'CCDC 1002412'
_chemical_formula_sum 'C12 H10 N4 O3'
_chemical_formula_moiety
;
C12 H10 N4 O3
;
_journal_coden_Cambridge 182
_journal_volume 50
_journal_year 2014
_journal_page_first 10819
_journal_name_full 'Chem.Commun. '
loop_
_publ_author_name
"Komala Pandurangan"
"J.A.Kitchen"
"S.Blasco"
"F.Paradisi"
"T.Gunnlaugsson"
_chemical_name_systematic
;
1-(2-nitrophenyl)-3-pyridin-3-ylurea
;
_cell_volume   2244.845
_exptl_crystal_colour 'yellow'
_exptl_crystal_density_diffrn 1.528
_exptl_crystal_description 'Rod'
_diffrn_ambient_temperature 107
#These two values have been output from a single CSD field.
_refine_ls_R_factor_gt 0.0354
_refine_ls_wR_factor_gt 0.0354
_symmetry_cell_setting orthorhombic
_symmetry_space_group_name_H-M 'P b c a'
_symmetry_Int_Tables_number 61
loop_
_symmetry_equiv_pos_site_id
_symmetry_equiv_pos_as_xyz
1 x,y,z
2 1/2-x,-y,1/2+z
3 -x,1/2+y,1/2-z
4 1/2+x,1/2-y,-z
5 -x,-y,-z
6 -1/2+x,y,-1/2-z
7 x,-1/2-y,-1/2+z
8 -1/2-x,-1/2+y,z
_cell_length_a 11.9799(18)
_cell_length_b 7.3695(13)
_cell_length_c 25.427(4)
_cell_angle_alpha 90
_cell_angle_beta 90
_cell_angle_gamma 90
_cell_formula_units_Z 8
loop_
_atom_type_symbol
_atom_type_radius_bond
C 0.68
H 0.23
N 0.68
O 0.68
loop_
_atom_site_label
_atom_site_type_symbol
_atom_site_fract_x
_atom_site_fract_y
_atom_site_fract_z
O1 O 0.83864(8) -0.02895(15) 0.36476(4)
O2 O 0.44944(9) 0.16829(18) 0.36272(5)
O3 O 0.42318(10) 0.39835(17) 0.41412(5)
N1 N 0.98303(10) -0.18406(18) 0.22083(5)
N2 N 0.72258(10) -0.11393(18) 0.29710(5)
H1 H 0.6517(19) -0.130(3) 0.2875(9)
N3 N 0.64820(11) 0.01159(18) 0.37084(5)
H2 H 0.5926(19) 0.022(3) 0.3498(9)
N4 N 0.47022(10) 0.25557(18) 0.40298(5)
C1 C 0.94033(12) -0.2693(2) 0.17903(6)
H3 H 0.98930 -0.30680 0.15170
C2 C 0.82708(12) -0.3052(2) 0.17403(6)
H4 H 0.79900 -0.36570 0.14380
C3 C 0.75634(12) -0.2513(2) 0.21371(6)
H5 H 0.67830 -0.27200 0.21070
C4 C 0.79947(12) -0.1664(2) 0.25826(6)
C5 C 0.91440(12) -0.1350(2) 0.26015(6)
H6 H 0.94510 -0.07700 0.29020
C6 C 0.74567(12) -0.0436(2) 0.34559(6)
C7 C 0.63886(12) 0.0679(2) 0.42266(6)
C8 C 0.71388(12) 0.0097(2) 0.46178(6)
H7 H 0.77480 -0.06610 0.45230
C9 C 0.70078(13) 0.0605(2) 0.51353(6)
H8 H 0.75220 0.01730 0.53910
C10 C 0.61382(13) 0.1739(2) 0.52930(6)
H9 H 0.60560 0.20720 0.56520
C11 C 0.54008(12) 0.2366(2) 0.49196(6)
H10 H 0.48090 0.31550 0.50180
C12 C 0.55255(12) 0.1841(2) 0.43969(6)
#END
