
#######################################################################
#
#                 Cambridge Crystallographic Data Centre
#                                CCDC
#
#######################################################################
#
# If this CIF has been generated from an entry in the Cambridge
# Structural Database, then it will include bibliographic, chemical,
# crystal, experimental, refinement or atomic coordinate data resulting
# from the CCDC's data processing and validation procedures.
#
#######################################################################

data_CSD_CIF_WOVXOU01
_audit_creation_date 2005-07-11
_audit_creation_method CSD-ConQuest-V1
_database_code_CSD WOVXOU01
_database_code_depnum_ccdc_archive 'CCDC 267860'
_chemical_formula_sum 'C9 H7 N3 O2'
_chemical_formula_moiety
;
C9 H7 N3 O2
;
_journal_coden_Cambridge 1278
_journal_volume 106
_journal_year 2002
_journal_page_first 3706
_journal_name_full 'J.Phys.Chem.B '
loop_
_publ_author_name
"M.Kubicki"
"T.Borowiak"
"G.Dutkiewicz"
"M.Souhassou"
"C.Jelsch"
"C.Lecomte"
_chemical_name_systematic
;
1-phenyl-4-nitroimidazole
;
_cell_volume   1680.316
_exptl_crystal_colour 'colorless'
_exptl_crystal_density_diffrn 1.493
_exptl_crystal_description 'prism'
_diffrn_ambient_temperature 130
_refine_special_details
;
multipolar refinement

;
#These two values have been output from a single CSD field.
_refine_ls_R_factor_gt 0.023
_refine_ls_wR_factor_gt 0.023
_symmetry_cell_setting orthorhombic
_symmetry_space_group_name_H-M 'P b c a'
_symmetry_Int_Tables_number 61
loop_
_symmetry_equiv_pos_site_id
_symmetry_equiv_pos_as_xyz
1 x,y,z
2 1/2-x,-y,1/2+z
3 -x,1/2+y,1/2-z
4 1/2+x,1/2-y,-z
5 -x,-y,-z
6 -1/2+x,y,-1/2-z
7 x,-1/2-y,-1/2+z
8 -1/2-x,-1/2+y,z
_cell_length_a 11.0844(4)
_cell_length_b 6.8878(3)
_cell_length_c 22.0089(8)
_cell_angle_alpha 90
_cell_angle_beta 90
_cell_angle_gamma 90
_cell_formula_units_Z 8
loop_
_atom_type_symbol
_atom_type_radius_bond
C 0.68
H 0.23
N 0.68
O 0.68
loop_
_atom_site_label
_atom_site_type_symbol
_atom_site_fract_x
_atom_site_fract_y
_atom_site_fract_z
N1 N 0.32363(4) 0.26099(4) -0.06636(4)
C1 C 0.39510(5) 0.21196(5) -0.01801(5)
C2 C 0.31438(4) 0.16357(7) 0.02698(2)
N2 N 0.19710(3) 0.18230(6) 0.00879(1)
C3 C 0.20604(4) 0.24311(7) -0.04788(2)
N3 N 0.34468(3) 0.09243(6) 0.08616(1)
O1 O 0.26333(3) 0.03342(6) 0.11910(1)
O2 O 0.45258(3) 0.09027(5) 0.10022(1)
C4 C 0.36277(4) 0.32361(7) -0.12510(2)
C5 C 0.47460(4) 0.41464(7) -0.13129(2)
C6 C 0.51027(4) 0.47805(8) -0.18876(2)
C7 C 0.43587(5) 0.45098(7) -0.23910(2)
C8 C 0.32495(5) 0.35801(8) -0.23213(2)
C9 C 0.28775(4) 0.29369(7) -0.17510(2)
H1 H 0.4907(6) 0.215(1) -0.0203(3)
H2 H 0.1310(6) 0.2770(11) -0.0781(3)
H3 H 0.5319(5) 0.4375(9) -0.0922(3)
H4 H 0.5966(6) 0.549(1) -0.1930(3)
H5 H 0.4651(6) 0.4971(11) -0.2837(3)
H6 H 0.2640(5) 0.3359(10) -0.2703(3)
H7 H 0.2018(5) 0.2231(10) -0.1695(3)
#END
