
#######################################################################
#
#                 Cambridge Crystallographic Data Centre
#                                CCDC
#
#######################################################################
#
# If this CIF has been generated from an entry in the Cambridge
# Structural Database, then it will include bibliographic, chemical,
# crystal, experimental, refinement or atomic coordinate data resulting
# from the CCDC's data processing and validation procedures.
#
#######################################################################

data_CSD_CIF_WUGCUX
_audit_creation_date 2010-06-29
_audit_creation_method CSD-ConQuest-V1
_database_code_CSD WUGCUX
_database_code_depnum_ccdc_archive 'CCDC 720239'
_chemical_formula_sum 'C9 H11 N3 O4'
_chemical_formula_moiety
;
C9 H11 N3 O4
;
_journal_coden_Cambridge 222
_journal_year 2009
_journal_page_first 8406
_journal_name_full 'Dalton Trans. '
loop_
_publ_author_name
"J.McGinley"
"V.McKee"
"H.Toftlund"
"J.M.D.Walsh"
_chemical_name_systematic
;
2-((2-Ammonioethyl)carbamoyl)-4-nitrophenolate
;
_cell_volume   1908.462
_exptl_crystal_colour 'yellow'
_exptl_crystal_density_diffrn 1.568
_exptl_crystal_description 'block'
_exptl_crystal_preparation 'water'
_diffrn_ambient_temperature 150
#These two values have been output from a single CSD field.
_refine_ls_R_factor_gt 0.0445
_refine_ls_wR_factor_gt 0.0445
_symmetry_cell_setting monoclinic
_symmetry_space_group_name_H-M 'C 2/c'
_symmetry_Int_Tables_number 15
loop_
_symmetry_equiv_pos_site_id
_symmetry_equiv_pos_as_xyz
1 x,y,z
2 -x,y,1/2-z
3 1/2+x,1/2+y,z
4 1/2-x,1/2+y,1/2-z
5 -x,-y,-z
6 x,-y,-1/2+z
7 -1/2-x,-1/2-y,-z
8 -1/2+x,-1/2-y,-1/2+z
_cell_length_a 15.5904(13)
_cell_length_b 9.6611(8)
_cell_length_c 13.7196(11)
_cell_angle_alpha 90
_cell_angle_beta 112.550(1)
_cell_angle_gamma 90
_cell_formula_units_Z 8
loop_
_atom_type_symbol
_atom_type_radius_bond
C 0.68
H 0.23
N 0.68
O 0.68
loop_
_atom_site_label
_atom_site_type_symbol
_atom_site_fract_x
_atom_site_fract_y
_atom_site_fract_z
O1 O 0.04143(7) 0.8847(1) 0.14303(7)
C1 C 0.05569(9) 0.75307(13) 0.16215(10)
C2 C -0.00967(9) 0.65387(14) 0.09877(11)
H1 H -0.06430 0.68560 0.04320
C3 C 0.00384(9) 0.51413(14) 0.11547(11)
H2 H -0.04160 0.45030 0.07330
C4 C 0.08529(9) 0.46679(13) 0.19523(10)
N1 N 0.09990(9) 0.32042(12) 0.21432(10)
O2 O 0.04273(8) 0.23849(12) 0.15433(10)
O3 O 0.16906(8) 0.28117(11) 0.29013(9)
C5 C 0.15016(9) 0.55926(14) 0.25995(10)
H3 H 0.20500 0.52510 0.31380
C6 C 0.13610(9) 0.70096(13) 0.24714(10)
C7 C 0.20238(9) 0.79002(14) 0.33127(10)
O4 O 0.27503(7) 0.74204(10) 0.39818(8)
N2 N 0.17758(8) 0.92271(12) 0.33552(9)
H4 H 0.1295(14) 0.950(2) 0.2842(16)
C8 C 0.23030(9) 1.01305(14) 0.42268(10)
H5 H 0.26320 1.08340 0.39750
H6 H 0.27760 0.95780 0.47840
C9 C 0.16809(9) 1.08536(13) 0.46913(10)
H7 H 0.20620 1.14730 0.52700
H8 H 0.12210 1.14300 0.41400
N3 N 0.11834(8) 0.98420(11) 0.51073(9)
H9 H 0.08180 1.03060 0.53790
H10 H 0.16050 0.93210 0.56230
H11 H 0.08240 0.92810 0.45740
#END
