
#######################################################################
#
#                 Cambridge Crystallographic Data Centre
#                                CCDC
#
#######################################################################
#
# If this CIF has been generated from an entry in the Cambridge
# Structural Database, then it will include bibliographic, chemical,
# crystal, experimental, refinement or atomic coordinate data resulting
# from the CCDC's data processing and validation procedures.
#
#######################################################################

data_CSD_CIF_WUMDIR
_audit_creation_date 2003-03-25
_audit_creation_method CSD-ConQuest-V1
_database_code_CSD WUMDIR
_database_code_depnum_ccdc_archive 'CCDC 190319'
_chemical_formula_sum 'C18 H15 N1 O4'
_chemical_formula_moiety
;
C18 H15 N1 O4
;
_journal_coden_Cambridge 1088
_journal_volume 2002
_journal_year 2002
_journal_page_first 1787
_journal_name_full 'Synlett '
loop_
_publ_author_name
"C.Muthiah"
"K.S.Kumar"
"J.J.Vittal"
"K.C.K.Swamy"
_chemical_name_systematic
;
(E,E)-Methyl 2-benzylidene-4-(4-nitrophenyl)but-3-enoate
;
_cell_volume   1515.186
_exptl_crystal_colour 'yellow'
_exptl_crystal_density_diffrn 1.356
_exptl_crystal_description 'plate'
_diffrn_ambient_temperature 298
#These two values have been output from a single CSD field.
_refine_ls_R_factor_gt 0.1259
_refine_ls_wR_factor_gt 0.1259
_symmetry_cell_setting monoclinic
_symmetry_space_group_name_H-M 'P 21/c'
_symmetry_Int_Tables_number 14
loop_
_symmetry_equiv_pos_site_id
_symmetry_equiv_pos_as_xyz
1 x,y,z
2 -x,1/2+y,1/2-z
3 -x,-y,-z
4 x,-1/2-y,-1/2+z
_cell_length_a 6.3461(6)
_cell_length_b 7.7638(8)
_cell_length_c 30.753(3)
_cell_angle_alpha 90
_cell_angle_beta 90.203(3)
_cell_angle_gamma 90
_cell_formula_units_Z 4
loop_
_atom_type_symbol
_atom_type_radius_bond
C 0.68
H 0.23
N 0.68
O 0.68
loop_
_atom_site_label
_atom_site_type_symbol
_atom_site_fract_x
_atom_site_fract_y
_atom_site_fract_z
O1 O 1.0002(9) 0.0732(8) 0.58416(16)
O2 O 0.7555(9) 0.1545(8) 0.62678(15)
O3 O -0.0436(8) 0.4692(9) 0.40409(17)
O4 O -0.0315(7) 0.5099(6) 0.33362(13)
N1 N 0.8268(9) 0.1330(8) 0.59061(18)
C1 C 0.3768(10) 0.2850(9) 0.52345(19)
H1 H 0.24050 0.32550 0.52770
C2 C 0.4974(11) 0.2399(9) 0.5587(2)
H2 H 0.44210 0.24840 0.58660
C3 C 0.7018(10) 0.1817(8) 0.55287(19)
C4 C 0.7817(10) 0.1709(9) 0.5120(2)
H3 H 0.91970 0.13360 0.50830
C5 C 0.6648(11) 0.2133(9) 0.4766(2)
H4 H 0.72370 0.20390 0.44910
C6 C 0.4556(10) 0.2712(8) 0.48087(19)
C7 C 0.3189(10) 0.3108(8) 0.44445(19)
H5 H 0.17890 0.33540 0.45080
C8 C 0.374(1) 0.3152(8) 0.40319(19)
H6 H 0.51460 0.28930 0.39780
C9 C 0.2481(9) 0.3544(8) 0.36456(18)
C10 C 0.0468(10) 0.4473(8) 0.3700(2)
C11 C 0.3109(10) 0.3204(7) 0.32297(19)
H7 H 0.21340 0.35200 0.30180
C12 C 0.5058(9) 0.2422(7) 0.30550(17)
C13 C 0.6356(9) 0.1294(8) 0.32804(18)
H8 H 0.59820 0.09200 0.35570
C14 C 0.8223(10) 0.0723(8) 0.3091(2)
H9 H 0.91080 -0.00090 0.32470
C15 C 0.878(1) 0.1228(8) 0.2676(2)
H10 H 1.00380 0.08610 0.25530
C16 C 0.7425(10) 0.2288(8) 0.24489(19)
H11 H 0.77600 0.26150 0.21670
C17 C 0.5579(9) 0.2873(8) 0.26332(18)
H12 H 0.46780 0.35750 0.24730
C18 C -0.2249(10) 0.6084(9) 0.3366(2)
H13 H -0.33070 0.54060 0.35080
H14 H -0.27260 0.63820 0.30790
H15 H -0.19970 0.71160 0.35300
#END
