
#######################################################################
#
#                 Cambridge Crystallographic Data Centre
#                                CCDC
#
#######################################################################
#
# If this CIF has been generated from an entry in the Cambridge
# Structural Database, then it will include bibliographic, chemical,
# crystal, experimental, refinement or atomic coordinate data resulting
# from the CCDC's data processing and validation procedures.
#
#######################################################################

data_CSD_CIF_WUTWIT
_audit_creation_date 2015-10-14
_audit_creation_method CSD-ConQuest-V1
_database_code_CSD WUTWIT
_database_code_depnum_ccdc_archive 'CCDC 984695'
_chemical_formula_sum 'C13 H13 N1 O2'
_chemical_formula_moiety
;
C13 H13 N1 O2
;
_journal_coden_Cambridge 35
_journal_volume 80
_journal_year 2015
_journal_page_first 9518
_journal_name_full 'J.Org.Chem. '
loop_
_publ_author_name
"Duangduan Chaiyaveij"
"A.S.Batsanov"
"M.A.Fox"
"T.B.Marder"
"Andrew Whiting"
_chemical_name_systematic
;
2-Oxa-3-azabicyclo[2.2.2]oct-5-en-3-yl(phenyl)methanone
;
_chemical_melting_point 386
_cell_volume   1059.747
_exptl_crystal_colour 'colorless'
_exptl_crystal_density_diffrn 1.349
_exptl_crystal_description 'tablet'
_exptl_crystal_preparation 'ether'
_diffrn_ambient_temperature 120
#These two values have been output from a single CSD field.
_refine_ls_R_factor_gt 0.0465
_refine_ls_wR_factor_gt 0.0465
_symmetry_cell_setting monoclinic
_symmetry_space_group_name_H-M 'P 21/c'
_symmetry_Int_Tables_number 14
loop_
_symmetry_equiv_pos_site_id
_symmetry_equiv_pos_as_xyz
1 x,y,z
2 -x,1/2+y,1/2-z
3 -x,-y,-z
4 x,-1/2-y,-1/2+z
_cell_length_a 9.0358(9)
_cell_length_b 10.3716(13)
_cell_length_c 11.8962(14)
_cell_angle_alpha 90
_cell_angle_beta 108.091(10)
_cell_angle_gamma 90
_cell_formula_units_Z 4
loop_
_atom_type_symbol
_atom_type_radius_bond
C 0.68
H 0.23
N 0.68
O 0.68
loop_
_atom_site_label
_atom_site_type_symbol
_atom_site_fract_x
_atom_site_fract_y
_atom_site_fract_z
O1 O 0.41409(9) 0.25324(7) 0.10014(8)
O2 O 0.70867(10) 0.02995(8) 0.21902(7)
N1 N 0.48331(11) 0.12697(8) 0.11513(8)
C1 C 0.64197(12) 0.12599(10) 0.16652(9)
C2 C 0.38716(13) 0.03073(10) 0.15278(10)
H1 H 0.43350 -0.05750 0.15800
C3 C 0.37918(14) 0.07513(12) 0.27166(10)
H2 H 0.40850 0.02330 0.34090
C4 C 0.32591(14) 0.19611(12) 0.26798(10)
H3 H 0.31800 0.24090 0.33550
C5 C 0.28013(13) 0.25367(11) 0.14645(10)
H4 H 0.24100 0.34360 0.14810
C6 C 0.15505(13) 0.17063(12) 0.06182(10)
H5 H 0.12410 0.20810 -0.01870
H6 H 0.06180 0.16590 0.08860
C7 C 0.22437(13) 0.03530(11) 0.0610(1)
H7 H 0.15630 -0.03010 0.08040
H8 H 0.23160 0.01580 -0.01860
C8 C 0.73074(12) 0.24036(10) 0.14629(9)
C9 C 0.86196(13) 0.27885(11) 0.23749(10)
H9 H 0.89020 0.23480 0.31110
C10 C 0.95158(14) 0.38178(11) 0.22075(10)
H10 H 1.03940 0.40950 0.28350
C11 C 0.91228(14) 0.44390(11) 0.11204(10)
H11 H 0.97380 0.51390 0.10050
C12 C 0.78341(14) 0.40416(11) 0.0200(1)
H12 H 0.75820 0.44590 -0.05470
C13 C 0.69125(13) 0.30322(11) 0.03721(9)
H13 H 0.60180 0.27720 -0.02500
#END
