
#######################################################################
#
#                 Cambridge Crystallographic Data Centre
#                                CCDC
#
#######################################################################
#
# If this CIF has been generated from an entry in the Cambridge
# Structural Database, then it will include bibliographic, chemical,
# crystal, experimental, refinement or atomic coordinate data resulting
# from the CCDC's data processing and validation procedures.
#
#######################################################################

data_CSD_CIF_WUXJII
_audit_creation_date 2003-05-15
_audit_creation_method CSD-ConQuest-V1
_database_code_CSD WUXJII
_database_code_depnum_ccdc_archive 'CCDC 208028'
_chemical_formula_sum 'C24 H19 N3 O1'
_chemical_formula_moiety
;
C24 H19 N3 O1
;
_journal_coeditor_code "IUCr NA1587"
_journal_coden_Cambridge 591
_journal_volume 59
_journal_year 2003
_journal_page_first o153
_journal_name_full 'Acta Crystallogr.,Sect.C:Cryst.Struct.Commun. '
loop_
_publ_author_name
"B.Sivakumar"
"K.Sethu Sankar"
"U.P.Senthil Kumar"
"R.Jeyaraman"
"D.Velmurugan"
_chemical_name_systematic
;
2-Nitroso-1,3-diphenyl-1,2,3,4-tetrahydrobenzo(b)(1,6)naphthyridine
;
_cell_volume   1882.091
_exptl_crystal_colour 'pale yellow'
_exptl_crystal_density_diffrn 1.29
_exptl_crystal_description 'plate'
_exptl_crystal_preparation 'ethanol'
_diffrn_ambient_temperature 293
#These two values have been output from a single CSD field.
_refine_ls_R_factor_gt 0.057
_refine_ls_wR_factor_gt 0.057
_symmetry_cell_setting monoclinic
_symmetry_space_group_name_H-M 'P 21/a'
_symmetry_Int_Tables_number 14
loop_
_symmetry_equiv_pos_site_id
_symmetry_equiv_pos_as_xyz
1 x,y,z
2 1/2+x,1/2-y,z
3 -x,-y,-z
4 -1/2-x,-1/2+y,-z
_cell_length_a 9.713(6)
_cell_length_b 19.265(8)
_cell_length_c 10.450(2)
_cell_angle_alpha 90
_cell_angle_beta 105.74(3)
_cell_angle_gamma 90
_cell_formula_units_Z 4
loop_
_atom_type_symbol
_atom_type_radius_bond
C 0.68
H 0.23
N 0.68
O 0.68
loop_
_atom_site_label
_atom_site_type_symbol
_atom_site_fract_x
_atom_site_fract_y
_atom_site_fract_z
O1 O -0.2538(2) 0.74971(9) -0.15540(15)
N1 N 0.26428(18) 0.85872(8) 0.22203(15)
N2 N -0.14707(17) 0.81452(8) 0.00869(15)
N3 N -0.2456(2) 0.76712(9) -0.04006(17)
C1 C 0.0730(2) 0.88174(11) 0.02359(18)
H1 H 0.15250 0.88310 -0.01600
H2 H 0.03970 0.92900 0.02680
C2 C -0.0481(2) 0.83912(9) -0.06702(18)
H3 H -0.00530 0.79820 -0.09670
C3 C -0.1325(2) 0.8311(1) 0.15039(18)
H4 H -0.17620 0.79250 0.18630
C4 C 0.0682(2) 0.81396(10) 0.3577(2)
H5 H 0.00270 0.79770 0.40100
C5 C 0.2679(3) 0.80539(12) 0.5640(2)
H6 H 0.20640 0.79030 0.61260
C6 C 0.4089(3) 0.81350(11) 0.6254(2)
H7 H 0.44270 0.80430 0.71590
C7 C 0.5048(3) 0.83554(11) 0.5549(2)
H8 H 0.60140 0.84070 0.59830
C8 C 0.4556(2) 0.84951(11) 0.4216(2)
H9 H 0.51940 0.86430 0.37510
C9 C 0.3103(2) 0.84176(9) 0.35445(19)
C10 C 0.2133(2) 0.81961(9) 0.42672(19)
C11 C 0.1265(2) 0.85525(10) 0.16292(18)
C12 C 0.0236(2) 0.83237(9) 0.22719(18)
C13 C -0.2166(2) 0.89604(10) 0.16495(17)
C14 C -0.3646(2) 0.89194(13) 0.1294(2)
H10 H -0.40910 0.85050 0.09610
C15 C -0.4473(3) 0.94873(15) 0.1426(3)
H11 H -0.54660 0.94540 0.11860
C16 C -0.3817(3) 1.00969(14) 0.1911(3)
H12 H -0.43670 1.04800 0.20010
C17 C -0.2354(3) 1.01483(13) 0.2266(2)
H13 H -0.19180 1.05670 0.25880
C18 C -0.1518(2) 0.95774(11) 0.2149(2)
H14 H -0.05260 0.96120 0.24060
C19 C -0.12092(19) 0.88110(9) -0.18879(17)
C20 C -0.0778(2) 0.87241(11) -0.30400(19)
H15 H -0.01280 0.83770 -0.30840
C21 C -0.1313(3) 0.91526(13) -0.4122(2)
H16 H -0.10100 0.90930 -0.48870
C22 C -0.2287(3) 0.96660(12) -0.4083(2)
H17 H -0.26350 0.99550 -0.48130
C23 C -0.2742(2) 0.97476(11) -0.2953(2)
H18 H -0.34170 1.00850 -0.29250
C24 C -0.2195(2) 0.93276(10) -0.18588(19)
H19 H -0.24920 0.93930 -0.10930
#END
