
#######################################################################
#
#                 Cambridge Crystallographic Data Centre
#                                CCDC
#
#######################################################################
#
# If this CIF has been generated from an entry in the Cambridge
# Structural Database, then it will include bibliographic, chemical,
# crystal, experimental, refinement or atomic coordinate data resulting
# from the CCDC's data processing and validation procedures.
#
#######################################################################

data_CSD_CIF_XABCOT
_audit_creation_date 2003-07-04
_audit_creation_method CSD-ConQuest-V1
_database_code_CSD XABCOT
_database_code_depnum_ccdc_archive 'CCDC 196736'
_chemical_formula_sum 'C9 H9 N3 O5'
_chemical_formula_moiety
;
C9 H9 N3 O5
;
_journal_coden_Cambridge 1220
_journal_volume 9
_journal_year 2003
_journal_page_first 963
_journal_name_full 'Chem.-Eur.J. '
loop_
_publ_author_name
"P.M.Dominiak"
"E.Grech"
"G.Barr"
"S.Teat"
"P.Mallinson"
"K.Wozniak"
_chemical_name_systematic
;
3,5-Dinitro-N-salicylidenoethylamine
;
_cell_volume   1045.713
_exptl_crystal_colour 'yellow'
_exptl_crystal_density_diffrn 1.519
_exptl_crystal_description 'prism'
_exptl_crystal_preparation 'acetonitrile'
_diffrn_ambient_temperature 100
#These two values have been output from a single CSD field.
_refine_ls_R_factor_gt 0.0343
_refine_ls_wR_factor_gt 0.0343
_symmetry_cell_setting monoclinic
_symmetry_space_group_name_H-M 'P 21/c'
_symmetry_Int_Tables_number 14
loop_
_symmetry_equiv_pos_site_id
_symmetry_equiv_pos_as_xyz
1 x,y,z
2 x,1/2-y,1/2+z
3 -x,-y,-z
4 -x,-1/2+y,-1/2-z
_cell_length_a 8.153
_cell_length_b 11.284
_cell_length_c 11.373
_cell_angle_alpha 90
_cell_angle_beta 91.916
_cell_angle_gamma 90
_cell_formula_units_Z 4
loop_
_atom_type_symbol
_atom_type_radius_bond
C 0.68
H 0.23
N 0.68
O 0.68
loop_
_atom_site_label
_atom_site_type_symbol
_atom_site_fract_x
_atom_site_fract_y
_atom_site_fract_z
O1 O 0.05850(4) 0.32697(3) 0.18103(3)
O2 O -0.33227(5) 0.41030(3) -0.29208(3)
O3 O -0.43582(4) 0.55026(3) -0.18654(3)
O4 O -0.15950(4) 0.45080(3) 0.30877(2)
O5 O -0.25158(4) 0.60470(3) 0.21286(2)
N1 N 0.21538(4) 0.19084(3) 0.03339(2)
N2 N -0.34408(4) 0.46442(4) -0.19854(3)
N3 N -0.19401(4) 0.50318(3) 0.21645(3)
C1 C -0.02896(4) 0.30110(3) -0.01827(2)
C2 C -0.04013(4) 0.35407(3) 0.09800(3)
C3 C -0.16795(4) 0.44301(3) 0.10574(3)
C4 C -0.26331(4) 0.47968(3) 0.01015(3)
C5 C -0.24484(4) 0.42498(3) -0.09858(3)
C6 C -0.13062(4) 0.33515(3) -0.11291(3)
C7 C 0.10065(4) 0.21922(3) -0.04296(2)
C8 C 0.35908(4) 0.11976(3) 0.00479(3)
C9 C 0.49969(5) 0.19993(3) -0.02915(3)
H1 H 0.21167 0.22779 0.11607
H2 H -0.35224 0.54948 0.02076
H3 H -0.11726 0.29653 -0.19895
H4 H 0.11069 0.17946 -0.12928
H5 H 0.32302 0.05993 -0.06674
H6 H 0.39343 0.07010 0.08405
H7 H 0.60508 0.14872 -0.04669
H8 H 0.52944 0.25747 0.04208
H9 H 0.46384 0.25033 -0.10435
#END
