
#######################################################################
#
#                 Cambridge Crystallographic Data Centre
#                                CCDC
#
#######################################################################
#
# If this CIF has been generated from an entry in the Cambridge
# Structural Database, then it will include bibliographic, chemical,
# crystal, experimental, refinement or atomic coordinate data resulting
# from the CCDC's data processing and validation procedures.
#
#######################################################################

data_CSD_CIF_XAKKUP
_audit_creation_date 2001-01-24
_audit_creation_method CSD-ConQuest-V1
_database_code_CSD XAKKUP
_database_code_depnum_ccdc_archive 'CCDC 151091'
_database_code_depnum_ccdc_journal 207/463
_chemical_formula_sum 'C16 H28 N2 O6'
_chemical_formula_moiety
;
C16 H28 N2 O6
;
_journal_coden_Cambridge 207
_journal_year 2000
_journal_page_first 3292
_journal_name_full 'J.Chem.Soc.,Perkin Trans.1 '
loop_
_publ_author_name
"M.B.Gravestock"
"D.W.Knight"
"K.M.A.Malik"
"S.R.Thornton"
_chemical_name_systematic
;
(-)-cis-6-(2-Deoxy-3,5-isopropylidene-1,2-isopropylidenedioxy-\b-L-xylofuranos
yl)-2,3-dimethyl-1,2,5-oxadiazinane
;
_cell_volume   1782.949
_exptl_crystal_colour 'colorless'
_exptl_crystal_density_diffrn 1.283
_exptl_crystal_description 'prism'
_exptl_crystal_preparation 'ethyl acetate/light petroleum'
_diffrn_ambient_temperature ?
_diffrn_special_details
;
The study was carried out at room temperature,in the range 283-303K

;
#These two values have been output from a single CSD field.
_refine_ls_R_factor_gt 0.0541
_refine_ls_wR_factor_gt 0.0541
_symmetry_cell_setting orthorhombic
_symmetry_space_group_name_H-M 'P 21 21 21'
_symmetry_Int_Tables_number 19
loop_
_symmetry_equiv_pos_site_id
_symmetry_equiv_pos_as_xyz
1 x,y,z
2 1/2-x,-y,1/2+z
3 -x,1/2+y,1/2-z
4 1/2+x,1/2-y,-z
_cell_length_a 9.311(2)
_cell_length_b 11.104(2)
_cell_length_c 17.245(3)
_cell_angle_alpha 90
_cell_angle_beta 90
_cell_angle_gamma 90
_cell_formula_units_Z 4
loop_
_atom_type_symbol
_atom_type_radius_bond
C 0.68
H 0.23
N 0.68
O 0.68
loop_
_atom_site_label
_atom_site_type_symbol
_atom_site_fract_x
_atom_site_fract_y
_atom_site_fract_z
O1 O 0.0581(3) 0.0199(2) 0.42502(16)
O2 O 0.2936(3) 0.1448(2) 0.36681(15)
O3 O 0.5314(3) 0.1202(2) 0.38771(14)
O4 O 0.4935(3) -0.0023(2) 0.57647(15)
O5 O 0.3499(3) 0.1006(3) 0.66411(17)
O6 O 0.2626(3) 0.1465(2) 0.50049(15)
N1 N -0.0401(4) -0.0833(3) 0.4117(2)
N2 N 0.2184(4) -0.1088(3) 0.4933(3)
H1 H 0.2236(58) -0.0608(45) 0.5339(27)
C1 C -0.0431(4) -0.1518(4) 0.4840(3)
H2 H -0.10850 -0.21990 0.47630
C2 C 0.1069(4) -0.2027(4) 0.4930(3)
H3 H 0.11210 -0.24770 0.54110
H4 H 0.12560 -0.25820 0.45080
C3 C 0.2004(4) -0.0303(4) 0.4300(3)
H5 H 0.22120 -0.07420 0.38200
C4 C 0.3023(4) 0.0765(3) 0.4363(2)
C5 C 0.4295(4) 0.1400(4) 0.3280(2)
C6 C 0.4642(4) 0.0480(3) 0.4450(2)
H6 H 0.48570 -0.03790 0.43910
C7 C 0.5043(4) 0.0959(3) 0.5237(2)
H7 H 0.60100 0.13080 0.52370
C8 C 0.4756(4) 0.0313(3) 0.6560(2)
C9 C 0.3573(5) 0.2127(4) 0.6229(2)
H8 H 0.43170 0.26290 0.64540
H9 H 0.26650 0.25490 0.62780
C10 C 0.3898(4) 0.1914(4) 0.5382(2)
H10 H 0.41910 0.26740 0.51390
C11 C -0.0959(5) -0.0819(5) 0.5555(3)
H11 H -0.09660 -0.13440 0.59980
H12 H -0.19130 -0.05250 0.54620
H13 H -0.03280 -0.01520 0.56530
C12 C -0.1762(4) -0.0263(4) 0.3938(3)
H14 H -0.20180 0.02790 0.43490
H15 H -0.24910 -0.08680 0.38840
H16 H -0.16770 0.01770 0.34610
C13 C 0.4348(5) 0.0370(4) 0.2704(2)
H17 H 0.52730 0.03530 0.24580
H18 H 0.36160 0.04810 0.23190
H19 H 0.41890 -0.03770 0.29710
C14 C 0.4592(5) 0.2601(4) 0.2916(3)
H20 H 0.46320 0.32080 0.33120
H21 H 0.38400 0.27920 0.25560
H22 H 0.54940 0.25720 0.26470
C15 C 0.6086(4) 0.0950(4) 0.6873(3)
H23 H 0.63220 0.16170 0.65420
H24 H 0.68760 0.03950 0.68860
H25 H 0.58970 0.12390 0.73870
C16 C 0.4480(5) -0.0852(4) 0.6987(3)
H26 H 0.52930 -0.13760 0.69280
H27 H 0.36410 -0.12350 0.67780
H28 H 0.43310 -0.06860 0.75280
#END
