
#######################################################################
#
#                 Cambridge Crystallographic Data Centre
#                                CCDC
#
#######################################################################
#
# If this CIF has been generated from an entry in the Cambridge
# Structural Database, then it will include bibliographic, chemical,
# crystal, experimental, refinement or atomic coordinate data resulting
# from the CCDC's data processing and validation procedures.
#
#######################################################################

data_CSD_CIF_XAKLUR
_audit_creation_date 2005-08-12
_audit_creation_method CSD-ConQuest-V1
_database_code_CSD XAKLUR
_database_code_depnum_ccdc_archive 'CCDC 268432'
_chemical_formula_sum 'C24 H24 N4 O2'
_chemical_formula_moiety
;
C24 H24 N4 O2
;
_journal_coden_Cambridge 1278
_journal_volume 109
_journal_year 2005
_journal_page_first 4377
_journal_name_full 'J.Phys.Chem.B '
loop_
_publ_author_name
"B.Bag"
"P.K.Bharadwaj"
_chemical_name_systematic
;
N,N-Dimethyl-N'-(anthracen-9-ylmethyl)-N'-(5-nitropyrid-2-yl)ethylenediamine
;
_chemical_melting_point 462.15
_cell_volume   2071.610
_exptl_crystal_colour 'light yellow'
_exptl_crystal_density_diffrn 1.284
_exptl_special_details
;
temperature published as 273 K

;
_exptl_crystal_description 'blocks'
_exptl_crystal_preparation 'ethyl acetate'
_diffrn_ambient_temperature 293
#These two values have been output from a single CSD field.
_refine_ls_R_factor_gt 0.0492
_refine_ls_wR_factor_gt 0.0492
_symmetry_cell_setting monoclinic
_symmetry_space_group_name_H-M 'P 21/c'
_symmetry_Int_Tables_number 14
loop_
_symmetry_equiv_pos_site_id
_symmetry_equiv_pos_as_xyz
1 x,y,z
2 -x,1/2+y,1/2-z
3 -x,-y,-z
4 x,-1/2-y,-1/2+z
_cell_length_a 12.453(2)
_cell_length_b 6.328(4)
_cell_length_c 26.349(2)
_cell_angle_alpha 90
_cell_angle_beta 93.88(5)
_cell_angle_gamma 90
_cell_formula_units_Z 4
loop_
_atom_type_symbol
_atom_type_radius_bond
C 0.68
H 0.23
N 0.68
O 0.68
loop_
_atom_site_label
_atom_site_type_symbol
_atom_site_fract_x
_atom_site_fract_y
_atom_site_fract_z
O1 O 0.3261(3) 0.6953(6) 0.06151(15)
O2 O 0.4038(3) 0.8386(6) 0.12695(15)
N1 N 0.7795(3) -0.2522(6) 0.00061(12)
N2 N 0.7134(2) 0.0904(5) 0.11031(10)
N3 N 0.6405(2) 0.4022(5) 0.13680(11)
N4 N 0.3981(3) 0.7006(7) 0.09489(17)
C1 C 0.8154(5) -0.2066(10) -0.04975(18)
H1 H 0.81360 -0.33390 -0.06970
H2 H 0.88760 -0.15240 -0.04650
H3 H 0.76870 -0.10350 -0.06620
C2 C 0.8456(4) -0.4183(8) 0.02532(19)
H4 H 0.84280 -0.54240 0.00430
H5 H 0.81880 -0.45140 0.05770
H6 H 0.91880 -0.37020 0.03020
C3 C 0.7796(3) -0.0612(7) 0.03161(14)
H7 H 0.74810 0.05410 0.01150
H8 H 0.85320 -0.02280 0.04230
C4 C 0.7167(3) -0.0942(6) 0.07784(13)
H9 H 0.64360 -0.13430 0.06680
H10 H 0.74850 -0.21030 0.09750
C5 C 0.6354(3) 0.2391(6) 0.10376(13)
C6 C 0.5515(3) 0.2257(7) 0.06491(14)
H11 H 0.55010 0.11510 0.04160
C7 C 0.4734(3) 0.3744(7) 0.06179(16)
H12 H 0.41750 0.36700 0.03660
C8 C 0.4783(3) 0.5373(6) 0.09684(15)
C9 C 0.5624(3) 0.5445(7) 0.13287(14)
H13 H 0.56500 0.65580 0.15600
C10 C 0.8046(3) 0.1217(6) 0.14796(14)
H14 H 0.78810 0.23650 0.17060
H15 H 0.86760 0.16210 0.13050
C11 C 0.8301(3) -0.0739(6) 0.17907(12)
C12 C 0.9225(3) -0.1962(6) 0.17192(13)
C13 C 1.0041(3) -0.1372(7) 0.13919(14)
H16 H 0.99640 -0.01190 0.12090
C14 C 1.0924(3) -0.2578(8) 0.13389(15)
H17 H 1.14450 -0.21420 0.11250
C15 C 1.1055(3) -0.4494(8) 0.16081(16)
H18 H 1.16650 -0.53130 0.15720
C16 C 1.0308(3) -0.5144(7) 0.19157(15)
H19 H 1.03990 -0.64300 0.20830
C17 C 0.9380(3) -0.3907(6) 0.19918(13)
C18 C 0.8640(3) -0.4527(6) 0.23271(13)
H20 H 0.87380 -0.58130 0.24940
C19 C 0.7759(3) -0.3311(6) 0.24245(14)
C20 C 0.7047(3) -0.3892(7) 0.27961(15)
H21 H 0.71570 -0.51570 0.29710
C21 C 0.6213(3) -0.2655(8) 0.29031(16)
H22 H 0.57580 -0.30620 0.31510
C22 C 0.6033(3) -0.0757(8) 0.26401(15)
H23 H 0.54560 0.00910 0.27160
C23 C 0.6681(3) -0.0132(7) 0.22774(14)
H24 H 0.65350 0.11260 0.21050
C24 C 0.7588(3) -0.1368(6) 0.21539(14)
#END
