
#######################################################################
#
#                 Cambridge Crystallographic Data Centre
#                                CCDC
#
#######################################################################
#
# If this CIF has been generated from an entry in the Cambridge
# Structural Database, then it will include bibliographic, chemical,
# crystal, experimental, refinement or atomic coordinate data resulting
# from the CCDC's data processing and validation procedures.
#
#######################################################################

data_CSD_CIF_XAPQUD
_audit_creation_date 2017-02-28
_audit_creation_method CSD-ConQuest-V1
_database_code_CSD XAPQUD
_database_code_depnum_ccdc_archive 'CCDC 1529824'
_chemical_formula_sum 'C9 H9 N3 O6'
_chemical_formula_moiety
;
C9 H9 N3 O6
;
_journal_coden_Cambridge 119
_journal_volume 1136
_journal_year 2017
_journal_page_first 100
_journal_name_full 'J.Mol.Struct. '
loop_
_publ_author_name
"D.Premuzic"
"A.Filarowski"
"M.Holynska"
_chemical_name_systematic
;
2,4,6-tris((hydroxyimino)methyl)benzene-1,3,5-triol
;
_cell_volume    961.864
_exptl_crystal_colour 'colorless'
_exptl_crystal_density_diffrn 1.762
_exptl_crystal_description 'block'
_diffrn_ambient_temperature 100
#These two values have been output from a single CSD field.
_refine_ls_R_factor_gt 0.0319
_refine_ls_wR_factor_gt 0.0319
_symmetry_cell_setting monoclinic
_symmetry_space_group_name_H-M 'P 21/c'
_symmetry_Int_Tables_number 14
loop_
_symmetry_equiv_pos_site_id
_symmetry_equiv_pos_as_xyz
1 x,y,z
2 -x,1/2+y,1/2-z
3 -x,-y,-z
4 x,-1/2-y,-1/2+z
_cell_length_a 10.630(3)
_cell_length_b 4.465(3)
_cell_length_c 20.961(4)
_cell_angle_alpha 90
_cell_angle_beta 104.80(3)
_cell_angle_gamma 90
_cell_formula_units_Z 4
loop_
_atom_type_symbol
_atom_type_radius_bond
C 0.68
H 0.23
N 0.68
O 0.68
loop_
_atom_site_label
_atom_site_type_symbol
_atom_site_fract_x
_atom_site_fract_y
_atom_site_fract_z
O1 O 0.58642(11) 0.5374(2) 0.72469(5)
H1 H 0.523(2) 0.670(5) 0.7082(9)
O2 O 0.35544(12) 1.1322(3) 0.61929(5)
H2 H 0.303(2) 1.142(5) 0.6496(10)
O3 O 0.64074(11) 0.6696(3) 0.50922(5)
H3 H 0.700(2) 0.613(5) 0.4865(9)
O4 O 0.90763(10) -0.0249(2) 0.65549(5)
H4 H 0.9116(18) -0.092(5) 0.6936(9)
O5 O 0.89889(12) 0.2648(3) 0.43499(5)
H5 H 0.886(2) 0.413(5) 0.4039(10)
N1 N 0.86507(13) -0.0826(3) 0.77236(6)
O6 O 0.86718(11) -0.2113(3) 0.83453(5)
H6 H 0.938(2) -0.331(5) 0.8407(9)
N2 N 0.82674(13) 0.3763(3) 0.47738(6)
N3 N 0.44217(13) 0.8940(3) 0.64020(6)
C1 C 0.80985(15) 0.1805(3) 0.64314(7)
C2 C 0.64533(15) 0.4679(3) 0.67670(7)
C3 C 0.60899(15) 0.6056(3) 0.61457(7)
C4 C 0.67711(15) 0.5272(3) 0.56756(6)
C5 C 0.77334(15) 0.1089(4) 0.75575(7)
H7 H 0.72250 0.15630 0.78570
C6 C 0.84570(15) 0.2276(4) 0.53084(7)
H8 H 0.90410 0.06260 0.53850
C7 C 0.50789(15) 0.8326(3) 0.59895(7)
H9 H 0.49080 0.93530 0.55790
C8 C 0.74553(15) 0.2553(3) 0.69196(7)
C9 C 0.77689(15) 0.3128(3) 0.58041(7)
#END
