
#######################################################################
#
#                 Cambridge Crystallographic Data Centre
#                                CCDC
#
#######################################################################
#
# If this CIF has been generated from an entry in the Cambridge
# Structural Database, then it will include bibliographic, chemical,
# crystal, experimental, refinement or atomic coordinate data resulting
# from the CCDC's data processing and validation procedures.
#
#######################################################################

data_CSD_CIF_XEFQAD
_audit_creation_date 2017-07-22
_audit_creation_method CSD-ConQuest-V1
_database_code_CSD XEFQAD
_database_code_depnum_ccdc_archive 'CCDC 1537017'
_chemical_formula_sum 'C22 H19 N3 O2'
_chemical_formula_moiety
;
C22 H19 N3 O2
;
_journal_coden_Cambridge 917
_journal_volume 13
_journal_year 2017
_journal_page_first 1396
_journal_name_full 'Beilstein J.Org.Chem. '
loop_
_publ_author_name
"R.Irgashev"
"N.Kazin"
"G.Rusinov"
"V.Charushin"
_chemical_name_systematic
;
5,11-diethyl-6-nitro-5,11-dihydroindolo[3,2-b]carbazole
;
_cell_volume    892.633
_exptl_crystal_colour 'red'
_exptl_crystal_density_diffrn 1.33
_exptl_crystal_description 'prism'
_diffrn_ambient_temperature 295
_refine_special_details
;
O1,O3 and O2,O4 disordered over two sites with occupancies 0.50:0.50.

;
#These two values have been output from a single CSD field.
_refine_ls_R_factor_gt 0.0483
_refine_ls_wR_factor_gt 0.0483
_symmetry_cell_setting monoclinic
_symmetry_space_group_name_H-M 'P 21'
_symmetry_Int_Tables_number 4
loop_
_symmetry_equiv_pos_site_id
_symmetry_equiv_pos_as_xyz
1 x,y,z
2 -x,1/2+y,-z
_cell_length_a 8.2838(8)
_cell_length_b 12.4443(10)
_cell_length_c 8.7429(5)
_cell_angle_alpha 90
_cell_angle_beta 97.939(6)
_cell_angle_gamma 90
_cell_formula_units_Z 2
loop_
_atom_type_symbol
_atom_type_radius_bond
C 0.68
H 0.23
N 0.68
O 0.68
loop_
_atom_site_label
_atom_site_type_symbol
_atom_site_fract_x
_atom_site_fract_y
_atom_site_fract_z
C1 C -0.2576(3) -0.3459(2) -0.8249(2)
N1 N -0.2568(3) -0.3457(2) -0.6547(2)
C2 C 0.3392(5) -0.5243(3) -0.7459(5)
H1 H 0.44120 -0.55630 -0.72360
C3 C -0.8396(4) -0.1877(3) -1.2466(4)
H2 H -0.94130 -0.15650 -1.27530
N2 N -0.5377(3) -0.2644(2) -0.9082(2)
C4 C -0.3815(3) -0.3193(2) -1.0908(2)
C5 C -0.5337(3) -0.2776(2) -1.1675(3)
C6 C -0.3884(3) -0.3097(2) -0.9282(3)
O1 O -0.2689(10) -0.427(1) -0.5906(12)
C7 C -0.2472(3) -0.3612(2) -1.1474(2)
N3 N 0.0277(3) -0.4411(2) -1.0672(2)
C8 C 0.0728(4) -0.4676(3) -1.2175(3)
H3 H 0.19050 -0.46440 -1.21160
H4 H 0.02700 -0.41400 -1.29180
C9 C 0.2728(4) -0.5116(3) -0.8952(4)
H5 H 0.32820 -0.53420 -0.97500
C10 C 0.2585(5) -0.4905(3) -0.6253(4)
H6 H 0.30790 -0.49990 -0.52400
C11 C -0.1176(3) -0.3952(2) -1.0405(3)
C12 C -0.1198(3) -0.3877(2) -0.8785(3)
C13 C -0.5984(4) -0.2673(3) -1.3238(3)
H7 H -0.53960 -0.29000 -1.40110
C14 C -0.7797(4) -0.1976(3) -1.0904(3)
H8 H -0.83990 -0.17520 -1.01390
C15 C -0.7513(5) -0.2230(3) -1.3600(3)
H9 H -0.79610 -0.21660 -1.46310
C16 C -0.6246(4) -0.2429(2) -1.0542(3)
C17 C 0.1193(4) -0.4638(3) -0.9270(3)
C18 C -0.5383(5) -0.1168(3) -0.7224(4)
H10 H -0.58190 -0.06830 -0.80300
H11 H -0.42140 -0.11360 -0.70910
H12 H -0.57670 -0.09670 -0.62770
C19 C 0.0162(5) -0.5755(3) -1.2739(4)
H13 H 0.06610 -0.59380 -1.36320
H14 H -0.10010 -0.57480 -1.30070
H15 H 0.04620 -0.62770 -1.19410
O2 O -0.2495(8) -0.2555(5) -0.5893(6)
C20 C 0.1079(4) -0.4438(3) -0.6525(3)
H16 H 0.05520 -0.42140 -0.57090
C21 C -0.5934(4) -0.2302(3) -0.7656(3)
H17 H -0.55110 -0.27890 -0.68300
H18 H -0.71150 -0.23350 -0.77740
C22 C 0.0344(3) -0.4304(2) -0.8059(3)
H19 H -0.247(3) -0.367(2) -1.261(3)
O3? O -0.1555(8) -0.2919(6) -0.5735(6)
O4? O -0.3442(9) -0.4101(11) -0.5988(12)
#END
