
#######################################################################
#
#                 Cambridge Crystallographic Data Centre
#                                CCDC
#
#######################################################################
#
# If this CIF has been generated from an entry in the Cambridge
# Structural Database, then it will include bibliographic, chemical,
# crystal, experimental, refinement or atomic coordinate data resulting
# from the CCDC's data processing and validation procedures.
#
#######################################################################

data_CSD_CIF_XEGDIX
_audit_creation_date 2006-06-06
_audit_creation_method CSD-ConQuest-V1
_database_code_CSD XEGDIX
_database_code_depnum_ccdc_archive 'CCDC 602034'
_chemical_formula_sum 'C13 H15 N1 O4'
_chemical_formula_moiety
;
C13 H15 N1 O4
;
_journal_coden_Cambridge 1336
_journal_volume 7
_journal_year 2005
_journal_page_first 5689
_journal_name_full 'Org.Lett. '
loop_
_publ_author_name
"K.Minami"
"Y.Kawamura"
"K.Koga"
"T.Hosokawa"
_chemical_name_systematic
;
2-Ethoxy-(Z)-4-(4-nitrobenzylidene)tetrahydrofuran
;
_chemical_melting_point 348.15
_cell_volume    629.983
_exptl_crystal_colour 'yellow'
_exptl_crystal_density_diffrn 1.314
_exptl_special_details
;
Melting point range 348.15-349.15K

;
_exptl_crystal_description 'plate'
_exptl_crystal_preparation 'hexane/ethyl acetate'
_diffrn_ambient_temperature 296.2
#These two values have been output from a single CSD field.
_refine_ls_R_factor_gt 0.0607
_refine_ls_wR_factor_gt 0.0607
_symmetry_cell_setting triclinic
_symmetry_space_group_name_H-M 'P -1'
_symmetry_Int_Tables_number 2
loop_
_symmetry_equiv_pos_site_id
_symmetry_equiv_pos_as_xyz
1 x,y,z
2 -x,-y,-z
_cell_length_a 11.014(1)
_cell_length_b 13.147(2)
_cell_length_c 4.8355(6)
_cell_angle_alpha 95.35(1)
_cell_angle_beta 97.18(1)
_cell_angle_gamma 113.337(8)
_cell_formula_units_Z 2
loop_
_atom_type_symbol
_atom_type_radius_bond
C 0.68
H 0.23
N 0.68
O 0.68
loop_
_atom_site_label
_atom_site_type_symbol
_atom_site_fract_x
_atom_site_fract_y
_atom_site_fract_z
O1 O 0.6603(2) 0.5439(2) -0.1830(5)
O2 O 0.8724(2) 0.5839(2) -0.1017(5)
O3 O 0.9013(2) 0.0825(2) 0.8647(5)
O4 O 0.7393(2) -0.0887(2) 0.6318(4)
N1 N 0.7563(3) 0.5281(2) -0.0719(5)
C1 C 0.7317(2) 0.4413(2) 0.1062(5)
C2 C 0.6022(3) 0.3813(3) 0.1516(7)
C3 C 0.5805(2) 0.2991(3) 0.3152(6)
C4 C 0.6840(2) 0.2727(2) 0.4406(5)
C5 C 0.8135(2) 0.3362(2) 0.3886(6)
C6 C 0.8367(2) 0.4185(2) 0.2244(6)
C7 C 0.6513(2) 0.1841(2) 0.6099(6)
C8 C 0.7265(3) 0.1347(2) 0.7265(5)
C9 C 0.8703(3) 0.1586(2) 0.7116(6)
C10 C 0.6787(3) 0.0404(2) 0.8933(6)
C11 C 0.7816(3) -0.0072(3) 0.8871(7)
C12 C 0.8257(3) -0.1437(3) 0.5962(7)
C13 C 0.7585(4) -0.2438(3) 0.3776(8)
H1 H 0.52890 0.39760 0.06770
H2 H 0.49110 0.25930 0.35240
H3 H 0.88740 0.32090 0.47290
H4 H 0.92600 0.46130 0.19410
H5 H 0.56050 0.15580 0.64640
H6 H 0.92910 0.23420 0.79160
H7 H 0.88230 0.14640 0.51930
H8 H 0.67200 0.06580 1.08090
H9 H 0.58950 -0.01520 0.80490
H10 H 0.79340 -0.04080 1.05520
H11 H 0.90890 -0.09430 0.54850
H12 H 0.85000 -0.16680 0.77460
H13 H 0.67710 -0.29370 0.42950
H14 H 0.73600 -0.22110 0.20340
H15 H 0.81400 -0.28230 0.35260
#END
