
#######################################################################
#
#                 Cambridge Crystallographic Data Centre
#                                CCDC
#
#######################################################################
#
# If this CIF has been generated from an entry in the Cambridge
# Structural Database, then it will include bibliographic, chemical,
# crystal, experimental, refinement or atomic coordinate data resulting
# from the CCDC's data processing and validation procedures.
#
#######################################################################

data_CSD_CIF_XEKLOR
_audit_creation_date 2017-11-15
_audit_creation_method CSD-ConQuest-V1
_database_code_CSD XEKLOR
_database_code_depnum_ccdc_archive 'CCDC 1525569'
_chemical_formula_sum 'C15 H14 N4 O4'
_chemical_formula_moiety
;
C15 H14 N4 O4
;
_journal_coden_Cambridge 1336
_journal_volume 19
_journal_year 2017
_journal_page_first 5964
_journal_name_full 'Org.Lett. '
loop_
_publ_author_name
"R.R.Mondal"
"S.Khamarui"
"D.K.Maiti"
_chemical_name_systematic
;
1,2-bis(2-nitrobenzyl)diaziridine
;
_cell_volume   1504.797
_exptl_crystal_colour 'colorless'
_exptl_crystal_density_diffrn 1.264
_exptl_crystal_description 'prismatic'
_diffrn_ambient_temperature 296
#These two values have been output from a single CSD field.
_refine_ls_R_factor_gt 0.0506
_refine_ls_wR_factor_gt 0.0506
_symmetry_cell_setting monoclinic
_symmetry_space_group_name_H-M 'P 21/n'
_symmetry_Int_Tables_number 14
loop_
_symmetry_equiv_pos_site_id
_symmetry_equiv_pos_as_xyz
1 x,y,z
2 1/2-x,1/2+y,1/2-z
3 -x,-y,-z
4 -1/2+x,-1/2-y,-1/2+z
_cell_length_a 8.006(14)
_cell_length_b 12.99(2)
_cell_length_c 14.70(2)
_cell_angle_alpha 90
_cell_angle_beta 100.16(2)
_cell_angle_gamma 90
_cell_formula_units_Z 4
loop_
_atom_type_symbol
_atom_type_radius_bond
C 0.68
H 0.23
N 0.68
O 0.68
loop_
_atom_site_label
_atom_site_type_symbol
_atom_site_fract_x
_atom_site_fract_y
_atom_site_fract_z
O1 O 0.0514(3) 0.13149(17) 0.20983(17)
O2 O 0.4559(3) 0.1690(2) -0.1742(2)
O3 O 0.5778(3) 0.2852(2) -0.0796(2)
N1 N 0.2138(3) 0.05287(15) 0.05097(17)
N2 N 0.2899(3) 0.06399(15) -0.03410(16)
O4 O -0.0651(3) 0.25658(18) 0.12443(18)
N3 N 0.0594(3) 0.2099(2) 0.16449(19)
C1 C 0.2278(3) 0.25278(18) 0.15952(19)
C2 C 0.3618(3) 0.18902(19) 0.14706(19)
C3 C 0.3459(4) 0.07426(19) 0.1318(2)
H1 H 0.45350 0.04630 0.12180
H2 H 0.31640 0.04150 0.18620
C4 C 0.1585(4) 0.1012(2) -0.1098(2)
H3 H 0.04970 0.07210 -0.10340
H4 H 0.18510 0.07850 -0.16850
C5 C 0.1472(4) 0.2170(2) -0.1091(2)
C6 C 0.2831(4) 0.2825(2) -0.1113(2)
N4 N 0.4520(4) 0.2419(3) -0.1219(3)
C7 C -0.0036(4) 0.2640(2) -0.1015(2)
H5 H -0.09820 0.22320 -0.09920
C8 C -0.0194(4) 0.3696(3) -0.0970(3)
H6 H -0.12420 0.39860 -0.09340
C9 C 0.1178(5) 0.4316(3) -0.0979(3)
H7 H 0.10710 0.50270 -0.09470
C10 C 0.2719(4) 0.3878(2) -0.1036(3)
H8 H 0.36750 0.42890 -0.10230
C11 C 0.2519(3) -0.0361(2) -0.00079(18)
H9 H 0.15710 -0.07350 -0.03600
H10 H 0.34680 -0.07900 0.02660
C12 C 0.2435(4) 0.35828(19) 0.1677(2)
H11 H 0.15080 0.39860 0.17500
C13 C 0.3984(4) 0.4031(2) 0.1649(2)
H12 H 0.41180 0.47400 0.17180
C14 C 0.5319(4) 0.3432(2) 0.1521(2)
H13 H 0.63610 0.37350 0.14940
C15 C 0.5137(4) 0.2381(2) 0.1430(2)
H14 H 0.60650 0.19880 0.13390
#END
