
#######################################################################
#
#                 Cambridge Crystallographic Data Centre
#                                CCDC
#
#######################################################################
#
# If this CIF has been generated from an entry in the Cambridge
# Structural Database, then it will include bibliographic, chemical,
# crystal, experimental, refinement or atomic coordinate data resulting
# from the CCDC's data processing and validation procedures.
#
#######################################################################

data_CSD_CIF_XEPBIE
_audit_creation_date 2007-02-02
_audit_creation_method CSD-ConQuest-V1
_database_code_CSD XEPBIE
_database_code_depnum_ccdc_archive 'CCDC 625731'
_chemical_formula_sum 'C34 H42 N4 O9'
_chemical_formula_moiety
;
C34 H42 N4 O9
;
_journal_coden_Cambridge 4
_journal_volume 128
_journal_year 2006
_journal_page_first 12307
_journal_name_full 'J.Am.Chem.Soc. '
loop_
_publ_author_name
"Jiang Zhu"
"Jian-Bin Lin"
"Yun-Xiang Xu"
"Xue-Bin Shao"
"Xi-Kui Jiang"
"Zhan-Ting Li"
_chemical_name_systematic
;
1-((5-(Acetylamino)-2-butoxyphenyl)carbonylamino)-3-((2-butoxy-5-nitrophenyl)c
arbonylamino)-4,6-diethoxybenzene
;
_cell_volume   1662.208
_diffrn_ambient_temperature ?
_diffrn_special_details
;
The study was carried out at room temperature,in the range 283-303K

;
_symmetry_cell_setting triclinic
_symmetry_space_group_name_H-M 'P -1'
_symmetry_Int_Tables_number 2
loop_
_symmetry_equiv_pos_site_id
_symmetry_equiv_pos_as_xyz
1 x,y,z
2 -x,-y,-z
_cell_length_a 12.561(2)
_cell_length_b 12.6365(19)
_cell_length_c 12.816(2)
_cell_angle_alpha 116.838(2)
_cell_angle_beta 92.624(3)
_cell_angle_gamma 109.601(3)
_cell_formula_units_Z 2
loop_
_atom_type_symbol
_atom_type_radius_bond
C 0.68
H 0.23
N 0.68
O 0.68
loop_
_atom_site_label
_atom_site_type_symbol
_atom_site_fract_x
_atom_site_fract_y
_atom_site_fract_z
O1 O 0.3672(2) 0.6134(3) 0.0736(2)
O2 O 0.1138(3) 0.4935(3) -0.1849(2)
O3 O 0.2314(3) 0.8813(4) 0.3836(3)
O4 O -0.0581(3) 0.7838(4) 0.0535(3)
O5 O 0.4419(2) 0.7771(2) 0.44261(19)
O6 O -0.1588(2) 0.5859(3) -0.2609(2)
O7 O 0.6194(3) 0.3180(3) 0.2793(2)
O8 O 0.0458(4) 0.2032(4) -0.5936(3)
O9 O -0.0827(4) 0.1795(4) -0.7265(3)
N1 N 0.2986(3) 0.7044(3) 0.2375(3)
N2 N 0.0079(3) 0.6085(3) -0.1002(3)
N3 N 0.5936(3) 0.3962(3) 0.1574(3)
N4 N -0.0330(4) 0.2281(4) -0.6225(4)
C1 C 0.0837(4) 0.8379(5) 0.2239(4)
H1 H 0.05960 0.90000 0.27670
C2 C 0.1732(4) 0.8178(4) 0.2669(3)
C3 C 0.2100(3) 0.7254(4) 0.1878(3)
C4 C 0.1557(3) 0.6542(4) 0.0664(3)
H2 H 0.17990 0.59210 0.01360
C5 C 0.0660(3) 0.6747(4) 0.0230(3)
C6 C 0.0295(4) 0.7667(5) 0.1030(4)
C7 C 0.3687(3) 0.6487(3) 0.1799(3)
C8 C 0.4471(3) 0.6234(3) 0.2502(3)
C9 C 0.4877(3) 0.5306(3) 0.1824(3)
H3 H 0.46740 0.49170 0.09900
C10 C 0.5573(3) 0.4930(3) 0.2331(3)
C11 C 0.5877(4) 0.5523(4) 0.3576(3)
H4 H 0.63430 0.52880 0.39400
C12 C 0.5492(4) 0.6459(4) 0.4276(3)
H5 H 0.57040 0.68490 0.51090
C13 C 0.4796(3) 0.6827(3) 0.3760(3)
C14 C 0.0337(4) 0.5247(4) -0.1938(3)
C15 C -0.0397(3) 0.4671(4) -0.3189(3)
C16 C -0.0094(3) 0.3790(4) -0.4103(3)
H6 H 0.05100 0.35880 -0.39190
C17 C -0.0672(4) 0.3209(4) -0.5280(3)
C18 C -0.1573(4) 0.3473(4) -0.5587(4)
H7 H -0.19630 0.30640 -0.63880
C19 C -0.1890(4) 0.4337(4) -0.4710(4)
H8 H -0.25040 0.45140 -0.49160
C20 C -0.1313(3) 0.4968(4) -0.3500(4)
C21 C 0.1612(6) 0.9438(8) 0.4783(7)
H9 H 0.07810 0.90490 0.44460
H10 H 0.17700 0.94210 0.55220
C22 C 0.2122(7) 1.0614(8) 0.4918(7)
H11 H 0.29500 1.09120 0.51570
H12 H 0.18610 1.11970 0.55240
H13 H 0.19230 1.05830 0.41690
C23 C -0.1374(5) 0.8206(5) 0.1275(4)
H14 H -0.18650 0.84440 0.08920
H15 H -0.09300 0.89570 0.20500
C24 C -0.2116(5) 0.7138(6) 0.1458(7)
H16 H -0.25060 0.63720 0.06910
H17 H -0.26810 0.73810 0.18790
H18 H -0.16390 0.69710 0.19210
C25 C 0.4778(3) 0.8436(4) 0.5720(3)
H19 H 0.56180 0.88820 0.59760
H20 H 0.45370 0.78190 0.60040
C26 C 0.4235(3) 0.9381(4) 0.6228(3)
H21 H 0.33960 0.89250 0.59650
H22 H 0.44680 0.99810 0.59240
C27 C 0.4578(4) 1.0132(4) 0.7590(3)
H23 H 0.44640 0.95290 0.78880
H24 H 0.53990 1.06940 0.78500
C28 C 0.3890(4) 1.0939(5) 0.8132(4)
H25 H 0.39880 1.15270 0.78290
H26 H 0.41630 1.14190 0.89910
H27 H 0.30820 1.03830 0.79190
C29 C -0.2346(4) 0.6356(4) -0.2924(4)
H28 H -0.31380 0.57100 -0.32380
H29 H -0.21120 0.65670 -0.35410
C30 C -0.2276(4) 0.7540(5) -0.1826(4)
H30 H -0.26250 0.72960 -0.12660
H31 H -0.14660 0.81120 -0.14380
C31 C -0.2872(5) 0.8241(6) -0.2107(5)
H32 H -0.36890 0.76800 -0.24640
H33 H -0.25460 0.84510 -0.26940
C32 C -0.2763(8) 0.9472(8) -0.1006(6)
H34 H -0.32030 0.92590 -0.04840
H35 H -0.30560 0.99580 -0.12470
H36 H -0.19600 0.99790 -0.05880
C33 C 0.6218(3) 0.3151(4) 0.1825(3)
C34 C 0.6530(4) 0.2173(4) 0.0841(3)
H37 H 0.72880 0.22530 0.11270
H38 H 0.65330 0.23190 0.01680
H39 H 0.59700 0.13200 0.05960
H40 H 0.306(3) 0.738(4) 0.314(4)
H41 H -0.051(3) 0.623(4) -0.112(4)
H42 H 0.605(3) 0.394(3) 0.089(3)
#END
