
#######################################################################
#
#                 Cambridge Crystallographic Data Centre
#                                CCDC
#
#######################################################################
#
# If this CIF has been generated from an entry in the Cambridge
# Structural Database, then it will include bibliographic, chemical,
# crystal, experimental, refinement or atomic coordinate data resulting
# from the CCDC's data processing and validation procedures.
#
#######################################################################

data_CSD_CIF_XERJIN
_audit_creation_date 2001-06-21
_audit_creation_method CSD-ConQuest-V1
_database_code_CSD XERJIN
_chemical_formula_sum 'C20 H23 N1 O5'
_chemical_formula_moiety
;
C20 H23 N1 O5
;
_journal_coden_Cambridge 24
_journal_volume 41
_journal_year 2000
_journal_page_first 2723
_journal_name_full 'Tetrahedron Lett. '
loop_
_publ_author_name
"A.J.Phillips"
"J.C.Morris"
"A.D.Abell"
_chemical_name_systematic
;
7,10,10-Trimethyl-2-oxobicyclo(4.3.1)dec-7-en-4-yl p-nitrobenzoate
;
_cell_volume    891.109
_diffrn_ambient_temperature 162
#These two values have been output from a single CSD field.
_refine_ls_R_factor_gt 0.0435
_refine_ls_wR_factor_gt 0.0435
_symmetry_cell_setting triclinic
_symmetry_space_group_name_H-M 'P -1'
_symmetry_Int_Tables_number 2
loop_
_symmetry_equiv_pos_site_id
_symmetry_equiv_pos_as_xyz
1 x,y,z
2 -x,-y,-z
_cell_length_a 7.011(2)
_cell_length_b 7.292(2)
_cell_length_c 18.357(6)
_cell_angle_alpha 83.099(4)
_cell_angle_beta 83.957(4)
_cell_angle_gamma 73.564(4)
_cell_formula_units_Z 2
loop_
_atom_type_symbol
_atom_type_radius_bond
C 0.68
H 0.23
N 0.68
O 0.68
loop_
_atom_site_label
_atom_site_type_symbol
_atom_site_fract_x
_atom_site_fract_y
_atom_site_fract_z
O1 O 0.2334(2) 1.3350(2) 0.2026(1)
O2 O 0.6578(2) 0.9624(2) 0.3493(1)
O3 O 0.7249(2) 1.1619(2) 0.4215(1)
O4 O 0.7740(3) 0.2449(2) 0.6329(1)
O5 O 0.9458(3) 0.3873(2) 0.6852(1)
N1 N 0.8394(3) 0.3803(3) 0.6369(1)
C1 C 0.5208(3) 1.2991(3) 0.1190(1)
C2 C 0.4031(3) 1.2410(3) 0.1872(1)
C3 C 0.4956(3) 1.0657(3) 0.2385(1)
C4 C 0.6306(3) 1.1156(3) 0.2885(1)
C5 C 0.8357(3) 1.1282(3) 0.2542(1)
C6 C 0.8579(3) 1.1750(3) 0.1700(1)
C7 C 0.8954(3) 1.0058(3) 0.1270(1)
C8 C 0.7680(3) 0.9956(3) 0.0783(1)
C9 C 0.5756(3) 1.1417(3) 0.0657(1)
C10 C 0.7073(3) 1.3541(3) 0.1365(1)
C11 C 0.6477(3) 1.5190(3) 0.1867(1)
C12 C 0.8059(3) 1.4294(3) 0.0644(1)
C13 C 1.0829(3) 0.8473(3) 0.1378(1)
C14 C 0.7062(3) 1.0076(3) 0.4128(1)
C15 C 0.7351(3) 0.8406(3) 0.4706(1)
C16 C 0.7974(3) 0.8643(3) 0.5380(1)
C17 C 0.8312(3) 0.7141(3) 0.5927(1)
C18 C 0.7988(3) 0.5436(3) 0.5793(1)
C19 C 0.7345(3) 0.5155(3) 0.5139(1)
C20 C 0.7030(3) 0.6676(3) 0.4593(1)
H1 H 0.43180 1.41600 0.09350
H2 H 0.57420 0.96030 0.20930
H3 H 0.38890 1.02120 0.26880
H4 H 0.55880 1.24040 0.30860
H5 H 0.93380 1.00390 0.26710
H6 H 0.87260 1.22750 0.27760
H7 H 0.98680 1.21050 0.16190
H8 H 0.80400 0.88790 0.05030
H9 H 0.46820 1.07640 0.07050
H10 H 0.58210 1.20290 0.01470
H11 H 0.56260 1.63360 0.16090
H12 H 0.76800 1.54760 0.19930
H13 H 0.57470 1.48090 0.23180
H14 H 0.70810 1.53670 0.04000
H15 H 0.85380 1.32600 0.03180
H16 H 0.91860 1.47330 0.07550
H17 H 1.08900 0.74610 0.10630
H18 H 1.08400 0.79410 0.18940
H19 H 1.19860 0.89820 0.12470
H20 H 0.81630 0.98400 0.54620
H21 H 0.87570 0.72770 0.63830
H22 H 0.71270 0.39640 0.50660
H23 H 0.65900 0.65280 0.41370
#END
