
#######################################################################
#
#                 Cambridge Crystallographic Data Centre
#                                CCDC
#
#######################################################################
#
# If this CIF has been generated from an entry in the Cambridge
# Structural Database, then it will include bibliographic, chemical,
# crystal, experimental, refinement or atomic coordinate data resulting
# from the CCDC's data processing and validation procedures.
#
#######################################################################

data_CSD_CIF_XEZBAI
_audit_creation_date 2018-04-09
_audit_creation_method CSD-ConQuest-V1
_database_code_CSD XEZBAI
_database_code_depnum_ccdc_archive 'CCDC 1586503'
_chemical_formula_sum 'C28 H23 N3 O4'
_chemical_formula_moiety
;
C28 H23 N3 O4
;
_journal_coden_Cambridge 1220
_journal_volume 24
_journal_year 2018
_journal_page_first 2379
_journal_name_full 'Chem.-Eur.J. '
loop_
_publ_author_name
"Qingwei Du"
"J.-M.Neudorfl"
"H.-G.Schmalz"
_chemical_name_systematic
;
3-methyl-10-(4-nitrophenyl)-1,4-diphenyl-7,8-dihydro-4H,6H,10H-furo[3,4-d]pyra
zolo[1,2-a]pyridazin-6-one
;
_cell_volume   1147.061
_exptl_crystal_colour 'yellow'
_exptl_crystal_density_diffrn 1.348
_exptl_crystal_description 'block'
_diffrn_ambient_temperature 100
#These two values have been output from a single CSD field.
_refine_ls_R_factor_gt 0.0398
_refine_ls_wR_factor_gt 0.0398
_symmetry_cell_setting triclinic
_symmetry_space_group_name_H-M 'P -1'
_symmetry_Int_Tables_number 2
loop_
_symmetry_equiv_pos_site_id
_symmetry_equiv_pos_as_xyz
1 x,y,z
2 -x,-y,-z
_cell_length_a 6.5305(2)
_cell_length_b 12.9780(3)
_cell_length_c 14.2009(4)
_cell_angle_alpha 74.422(1)
_cell_angle_beta 83.304(1)
_cell_angle_gamma 83.412(1)
_cell_formula_units_Z 2
loop_
_atom_type_symbol
_atom_type_radius_bond
C 0.68
H 0.23
N 0.68
O 0.68
loop_
_atom_site_label
_atom_site_type_symbol
_atom_site_fract_x
_atom_site_fract_y
_atom_site_fract_z
O1 O 0.43991(19) 0.11948(10) -0.09543(9)
C1 C 0.6416(2) 0.44672(10) 0.24411(9)
N1 N 0.6106(2) 0.10467(10) -0.06350(9)
O2 O 0.7647(2) 0.06346(10) -0.10195(8)
N2 N 0.59968(16) 0.15933(8) 0.37653(8)
C2 C 0.58472(19) 0.34521(10) 0.28742(9)
O3 O 0.12058(14) 0.08611(7) 0.33722(8)
C3 C 0.69068(19) 0.23580(9) 0.28577(9)
H1 H 0.84120 0.23680 0.29230
N3 N 0.38011(16) 0.16833(8) 0.37371(8)
O4 O 0.48793(15) 0.51991(7) 0.26905(7)
C4 C 0.65743(19) 0.04339(9) 0.38069(9)
H2 H 0.67600 0.00170 0.44910
H3 H 0.78850 0.03490 0.33970
C5 C 0.3861(2) 0.35732(10) 0.33959(9)
C6 C 0.26343(19) 0.26461(10) 0.39333(9)
H4 H 0.12870 0.27440 0.36360
C7 C 0.30298(19) 0.08803(10) 0.34873(9)
C8 C 0.4800(2) 0.00377(10) 0.34165(10)
H5 H 0.51580 0.00000 0.27290
H6 H 0.44570 -0.06790 0.38250
C9 C 0.3341(2) 0.46395(10) 0.32702(10)
C10 C 0.1527(2) 0.52759(11) 0.36226(11)
H7 H 0.09050 0.57740 0.30590
H8 H 0.19700 0.56830 0.40410
H9 H 0.05050 0.47910 0.40010
C11 C 0.8178(2) 0.4945(1) 0.18120(9)
C12 C 0.8139(2) 0.60661(11) 0.14672(10)
H10 H 0.69440 0.65020 0.16220
C13 C 0.9813(2) 0.65420(11) 0.09065(11)
H11 H 0.97690 0.73030 0.06890
C14 C 1.1563(2) 0.59228(11) 0.06558(11)
H12 H 1.27200 0.62540 0.02750
C15 C 1.1598(2) 0.48138(11) 0.09690(11)
H13 H 1.27780 0.43820 0.07910
C16 C 0.9923(2) 0.43273(10) 0.15411(10)
H14 H 0.99680 0.35660 0.17500
C17 C 0.67064(19) 0.20487(9) 0.19147(9)
C18 C 0.8354(2) 0.14651(10) 0.15152(10)
H15 H 0.96170 0.12970 0.18170
C19 C 0.8163(2) 0.11286(10) 0.06838(10)
H16 H 0.92840 0.07340 0.04110
C20 C 0.6304(2) 0.13806(10) 0.02601(10)
C21 C 0.4625(2) 0.19468(10) 0.06401(10)
H17 H 0.33560 0.20980 0.03430
C22 C 0.4852(2) 0.22858(10) 0.14660(9)
H18 H 0.37290 0.26860 0.17310
C23 C 0.2164(2) 0.25025(10) 0.50327(10)
C24 C 0.0417(2) 0.19982(11) 0.55050(11)
H19 H -0.05280 0.18100 0.51310
C25 C 0.0047(2) 0.17685(11) 0.65238(11)
H20 H -0.11450 0.14210 0.68440
C26 C 0.1417(3) 0.20469(11) 0.70676(11)
H21 H 0.11780 0.18800 0.77630
C27 C 0.3140(2) 0.25696(12) 0.65997(11)
H22 H 0.40650 0.27710 0.69750
C28 C 0.3516(2) 0.27994(11) 0.55846(10)
H23 H 0.46940 0.31590 0.52660
#END
