
#######################################################################
#
#                 Cambridge Crystallographic Data Centre
#                                CCDC
#
#######################################################################
#
# If this CIF has been generated from an entry in the Cambridge
# Structural Database, then it will include bibliographic, chemical,
# crystal, experimental, refinement or atomic coordinate data resulting
# from the CCDC's data processing and validation procedures.
#
#######################################################################

data_CSD_CIF_XICFUL
_audit_creation_date 2007-08-03
_audit_creation_method CSD-ConQuest-V1
_database_code_CSD XICFUL
_database_code_depnum_ccdc_archive 'CCDC 647147'
_chemical_formula_sum 'C21 H17 N3 O6'
_chemical_formula_moiety
;
C21 H17 N3 O6
;
_journal_coeditor_code "IUCr CI2320"
_journal_coden_Cambridge 1370
_journal_volume 63
_journal_year 2007
_journal_page_first o2218
_journal_name_full 'Acta Crystallogr.,Sect.E:Struct.Rep.Online '
loop_
_publ_author_name
"C.Remya"
"D.Gayathri"
"D.Velmurugan"
"K.Ravikumar"
"M.Poornachandran"
_chemical_name_systematic
;
1'-Nitro-2'-(3-nitrophenyl)-2',3',5',6',7',7a'-hexahydroindan-2-spiro-3'-1'H-p
yrrolizine-1,3-dione
;
_cell_volume   3804.504
_exptl_crystal_colour 'yellow'
_exptl_crystal_density_diffrn 1.422
_exptl_crystal_description 'block'
_exptl_crystal_preparation 'methanol'
_diffrn_ambient_temperature 293
#These two values have been output from a single CSD field.
_refine_ls_R_factor_gt 0.0597
_refine_ls_wR_factor_gt 0.0597
_symmetry_cell_setting orthorhombic
_symmetry_space_group_name_H-M 'P b c n'
_symmetry_Int_Tables_number 60
loop_
_symmetry_equiv_pos_site_id
_symmetry_equiv_pos_as_xyz
1 x,y,z
2 1/2-x,1/2-y,1/2+z
3 -x,y,1/2-z
4 1/2+x,1/2-y,-z
5 -x,-y,-z
6 -1/2+x,-1/2+y,-1/2-z
7 x,-y,-1/2+z
8 -1/2-x,-1/2+y,z
_cell_length_a 26.1766(15)
_cell_length_b 8.1726(5)
_cell_length_c 17.7838(10)
_cell_angle_alpha 90
_cell_angle_beta 90
_cell_angle_gamma 90
_cell_formula_units_Z 8
loop_
_atom_type_symbol
_atom_type_radius_bond
C 0.68
H 0.23
N 0.68
O 0.68
loop_
_atom_site_label
_atom_site_type_symbol
_atom_site_fract_x
_atom_site_fract_y
_atom_site_fract_z
C1 C 0.57952(13) 0.5449(4) 0.2524(2)
H1 H 0.54370 0.57470 0.24930
H2 H 0.59770 0.59420 0.21070
C2 C 0.60190(14) 0.5963(4) 0.3258(2)
H3 H 0.61000 0.71210 0.32610
H4 H 0.57900 0.57220 0.36730
C3 C 0.64867(11) 0.4950(4) 0.32952(18)
H5 H 0.66030 0.48360 0.38100
H6 H 0.67580 0.54320 0.29980
C4 C 0.63267(9) 0.3284(3) 0.29712(12)
H7 H 0.62420 0.25340 0.33830
C5 C 0.67000(8) 0.2433(2) 0.24176(11)
H8 H 0.66900 0.12500 0.25040
C6 C 0.64935(7) 0.2793(2) 0.16423(10)
H9 H 0.65930 0.39170 0.15180
C7 C 0.59131(8) 0.2811(3) 0.18035(12)
C8 C 0.66610(7) 0.1721(2) 0.09944(10)
C9 C 0.67085(7) 0.0026(2) 0.10568(11)
H10 H 0.66520 -0.04930 0.15150
C10 C 0.68403(7) -0.0862(2) 0.04307(12)
C11 C 0.69335(8) -0.0176(3) -0.02588(13)
H11 H 0.70210 -0.08150 -0.06720
C12 C 0.68931(9) 0.1500(3) -0.03149(12)
H12 H 0.69590 0.20090 -0.07720
C13 C 0.67554(8) 0.2433(2) 0.02998(11)
H13 H 0.67250 0.35610 0.02470
C14 C 0.56706(8) 0.1100(3) 0.18843(13)
C15 C 0.52226(8) 0.1035(3) 0.13853(13)
C16 C 0.48735(11) -0.0245(4) 0.12877(17)
H14 H 0.48980 -0.12080 0.15640
C17 C 0.44938(12) -0.0014(6) 0.0766(2)
H15 H 0.42570 -0.08440 0.06870
C18 C 0.44540(11) 0.1384(7) 0.0364(2)
H16 H 0.41890 0.14860 0.00190
C19 C 0.47935(10) 0.2667(5) 0.04483(18)
H17 H 0.47650 0.36220 0.01680
C20 C 0.51810(8) 0.2452(4) 0.09759(14)
C21 C 0.56005(9) 0.3589(3) 0.11630(15)
N1 N 0.58597(7) 0.3644(3) 0.25275(11)
N2 N 0.72315(7) 0.3039(3) 0.25456(11)
N3 N 0.68717(8) -0.2649(2) 0.05024(15)
O1 O 0.74122(8) 0.4013(3) 0.21189(13)
O2 O 0.74468(8) 0.2511(3) 0.30968(12)
O3 O 0.68728(11) -0.3242(2) 0.11208(15)
O4 O 0.68983(10) -0.3462(2) -0.00626(15)
O5 O 0.58248(7) 0.0023(2) 0.22942(11)
O6 O 0.56975(8) 0.4864(3) 0.08570(13)
#END
