
#######################################################################
#
#                 Cambridge Crystallographic Data Centre
#                                CCDC
#
#######################################################################
#
# If this CIF has been generated from an entry in the Cambridge
# Structural Database, then it will include bibliographic, chemical,
# crystal, experimental, refinement or atomic coordinate data resulting
# from the CCDC's data processing and validation procedures.
#
#######################################################################

data_CSD_CIF_XIKHAD
_audit_creation_date 2018-09-06
_audit_creation_method CSD-ConQuest-V1
_database_code_CSD XIKHAD
_database_code_depnum_ccdc_archive 'CCDC 1584500'
_chemical_formula_sum 'C21 H15 N3 O3'
_chemical_formula_moiety
;
C21 H15 N3 O3
;
_journal_coden_Cambridge 1475
_journal_volume 9
_journal_year 2018
_journal_page_first 7318
_journal_name_full 'Chemical Science '
loop_
_publ_author_name
"D.K.Das"
"V.Kishore Kumar Pampana"
"Kuo Chu Hwang"
_chemical_name_systematic
;
1-benzyl-3-(3-nitrophenyl)quinoxalin-2(1H)-one
;
_cell_volume   1649.473
_exptl_crystal_colour 'yellow'
_exptl_crystal_density_diffrn 1.439
_exptl_crystal_description 'Tabular'
_diffrn_ambient_temperature 100
#These two values have been output from a single CSD field.
_refine_ls_R_factor_gt 0.0591
_refine_ls_wR_factor_gt 0.0591
_symmetry_cell_setting monoclinic
_symmetry_space_group_name_H-M 'P 21/c'
_symmetry_Int_Tables_number 14
loop_
_symmetry_equiv_pos_site_id
_symmetry_equiv_pos_as_xyz
1 x,y,z
2 -x,1/2+y,1/2-z
3 -x,-y,-z
4 x,-1/2-y,-1/2+z
_cell_length_a 10.2072(5)
_cell_length_b 22.8173(11)
_cell_length_c 7.0823(3)
_cell_angle_alpha 90
_cell_angle_beta 90.009(1)
_cell_angle_gamma 90
_cell_formula_units_Z 4
loop_
_atom_type_symbol
_atom_type_radius_bond
C 0.68
H 0.23
N 0.68
O 0.68
loop_
_atom_site_label
_atom_site_type_symbol
_atom_site_fract_x
_atom_site_fract_y
_atom_site_fract_z
O1 O 0.12303(19) 0.74530(9) 0.1773(3)
O2 O 0.2995(2) 0.77369(9) 0.0362(3)
O3 O 0.27288(19) 0.44346(8) 0.1265(3)
N1 N 0.2283(2) 0.73495(10) 0.0994(3)
N2 N 0.0683(2) 0.42367(9) 0.2301(3)
N3 N 0.0138(2) 0.54308(9) 0.2258(3)
C1 C 0.2709(3) 0.67371(11) 0.0840(4)
C2 C 0.1852(2) 0.62974(11) 0.1342(3)
H1 H 0.09870 0.63890 0.17410
C3 C 0.2268(2) 0.57147(12) 0.1257(3)
C4 C 0.1295(2) 0.52499(11) 0.1781(3)
C5 C 0.1663(3) 0.46200(12) 0.1754(3)
C6 C 0.1045(3) 0.36034(11) 0.2234(4)
H2 H 0.16090 0.35320 0.11200
H3 H 0.02400 0.33660 0.20850
C7 C 0.1763(3) 0.34075(11) 0.3998(4)
C8 C 0.3121(3) 0.34248(12) 0.4096(4)
H4 H 0.36100 0.35630 0.30450
C9 C 0.3773(3) 0.32411(13) 0.5716(5)
H5 H 0.47020 0.32550 0.57700
C10 C 0.3063(3) 0.30380(13) 0.7253(4)
H6 H 0.35050 0.29160 0.83660
C11 C -0.0802(2) 0.50322(11) 0.2815(3)
C12 C -0.2042(3) 0.52464(12) 0.3333(4)
H7 H -0.22150 0.56550 0.32700
C13 C -0.3007(3) 0.48686(13) 0.3929(4)
H8 H -0.38410 0.50150 0.42920
C14 C -0.2746(3) 0.42634(13) 0.3997(4)
H9 H -0.34150 0.40020 0.44000
C15 C -0.1547(3) 0.40425(12) 0.3492(4)
H10 H -0.13900 0.36330 0.35580
C16 C -0.0548(3) 0.44216(11) 0.2877(3)
C17 C 0.1712(3) 0.30144(12) 0.7159(4)
H11 H 0.12270 0.28710 0.82050
C18 C 0.1062(3) 0.31986(11) 0.5552(4)
H12 H 0.01320 0.31830 0.55050
C19 C 0.3562(3) 0.56012(12) 0.0708(4)
H13 H 0.38730 0.52090 0.06830
C20 C 0.4400(3) 0.60570(13) 0.0198(4)
H14 H 0.52740 0.59710 -0.01740
C21 C 0.3977(3) 0.66311(12) 0.0225(4)
H15 H 0.45330 0.69420 -0.01620
#END
