
#######################################################################
#
#                 Cambridge Crystallographic Data Centre
#                                CCDC
#
#######################################################################
#
# If this CIF has been generated from an entry in the Cambridge
# Structural Database, then it will include bibliographic, chemical,
# crystal, experimental, refinement or atomic coordinate data resulting
# from the CCDC's data processing and validation procedures.
#
#######################################################################

data_CSD_CIF_XILGUX
_audit_creation_date 2018-09-07
_audit_creation_method CSD-ConQuest-V1
_database_code_CSD XILGUX
_database_code_depnum_ccdc_archive 'CCDC 1840301'
_chemical_formula_sum 'C19 H17 N5 O6'
_chemical_formula_moiety
;
C19 H17 N5 O6
;
_journal_coden_Cambridge 16
_journal_volume 74
_journal_year 2018
_journal_page_first 6288
_journal_name_full 'Tetrahedron '
loop_
_publ_author_name
"E.E.Galenko"
"V.K.Ivanov"
"M.S.Novikov"
"A.A.Zolotarev"
"A.F.Khlebnikov"
_chemical_name_systematic
;
methyl 1-[(2,4-dinitrophenyl)amino]-5-ethyl-3-phenyl-1H-pyrazole-4-carboxylate
;
_cell_volume   1878.174
_exptl_crystal_colour 'colorless'
_exptl_crystal_density_diffrn 1.455
_exptl_crystal_description 'prism'
_diffrn_ambient_temperature 100
#These two values have been output from a single CSD field.
_refine_ls_R_factor_gt 0.0373
_refine_ls_wR_factor_gt 0.0373
_symmetry_cell_setting monoclinic
_symmetry_space_group_name_H-M 'P 21/n'
_symmetry_Int_Tables_number 14
loop_
_symmetry_equiv_pos_site_id
_symmetry_equiv_pos_as_xyz
1 x,y,z
2 1/2-x,1/2+y,1/2-z
3 -x,-y,-z
4 -1/2+x,-1/2-y,-1/2+z
_cell_length_a 10.6894(5)
_cell_length_b 8.2917(4)
_cell_length_c 21.3266(9)
_cell_angle_alpha 90
_cell_angle_beta 96.479(4)
_cell_angle_gamma 90
_cell_formula_units_Z 4
loop_
_atom_type_symbol
_atom_type_radius_bond
C 0.68
H 0.23
N 0.68
O 0.68
loop_
_atom_site_label
_atom_site_type_symbol
_atom_site_fract_x
_atom_site_fract_y
_atom_site_fract_z
C1 C 0.62861(13) 0.62341(17) 0.61510(6)
C2 C 0.59731(13) 0.40349(17) 0.55404(6)
C3 C 0.54917(13) 0.48722(17) 0.60196(6)
C4 C 0.60214(16) 0.10424(19) 0.56812(7)
H1 H 0.57846 0.00427 0.54738
H2 H 0.56191 0.11300 0.60601
H3 H 0.69185 0.10719 0.57856
C5 C 0.56088(13) 0.24533(17) 0.52401(6)
H4 H 0.59961 0.23452 0.48522
H5 H 0.47026 0.24192 0.51337
C6 C 0.88358(13) 0.35263(17) 0.52114(6)
C7 C 0.91173(14) 0.32070(18) 0.58649(6)
H6 H 0.86016 0.36359 0.61462
C8 C 1.01291(14) 0.22832(19) 0.60922(7)
H7 H 1.02965 0.20915 0.65232
C9 C 1.09091(13) 0.16296(18) 0.56744(7)
C10 C 1.06715(13) 0.18767(18) 0.50332(6)
H8 H 1.11904 0.14267 0.47580
C11 C 0.96428(13) 0.28101(17) 0.48069(6)
C12 C 0.61756(13) 0.75547(16) 0.66072(6)
C13 C 0.44057(13) 0.42698(16) 0.63222(6)
C14 C 0.35575(15) 0.3798(2) 0.72740(7)
H9 H 0.33314 0.27158 0.71476
H10 H 0.28508 0.44993 0.71676
H11 H 0.37963 0.38276 0.77215
C15 C 0.50048(14) 0.79859(18) 0.67899(6)
H12 H 0.42795 0.74646 0.66125
C16 C 0.49232(15) 0.91927(19) 0.72364(7)
H13 H 0.41428 0.94675 0.73587
C17 C 0.59947(15) 0.99888(19) 0.75004(7)
H14 H 0.59367 1.07807 0.78046
C18 C 0.71606(15) 0.95961(19) 0.73074(7)
H15 H 0.78803 1.01420 0.74770
C19 C 0.72487(14) 0.83907(18) 0.68622(6)
H16 H 0.80277 0.81384 0.67330
N1 N 0.72083(11) 0.62554(15) 0.57770(5)
N2 N 0.69931(11) 0.49014(14) 0.54167(5)
N3 N 0.78244(11) 0.44538(15) 0.49999(5)
H17 H 0.77066 0.47554 0.46119
N4 N 1.19774(12) 0.06267(16) 0.59160(6)
N5 N 0.94048(11) 0.29673(16) 0.41229(5)
O1 O 0.34541(9) 0.37277(13) 0.60338(4)
O2 O 0.4607(1) 0.43293(13) 0.69494(4)
O3 O 0.99576(10) 0.20503(15) 0.37967(5)
O4 O 0.86518(11) 0.40043(14) 0.39017(5)
O5 O 1.25778(12) -0.00491(16) 0.55345(6)
O6 O 1.22071(10) 0.04824(15) 0.64901(5)
#END
