
#######################################################################
#
#                 Cambridge Crystallographic Data Centre
#                                CCDC
#
#######################################################################
#
# If this CIF has been generated from an entry in the Cambridge
# Structural Database, then it will include bibliographic, chemical,
# crystal, experimental, refinement or atomic coordinate data resulting
# from the CCDC's data processing and validation procedures.
#
#######################################################################

data_CSD_CIF_XIMHIK
_audit_creation_date 2002-06-19
_audit_creation_method CSD-ConQuest-V1
_database_code_CSD XIMHIK
_database_code_depnum_ccdc_archive 'CCDC 184737'
_chemical_formula_sum 'C25 H20 N2 O9'
_chemical_formula_moiety
;
C25 H20 N2 O9
;
_journal_coden_Cambridge 4
_journal_volume 124
_journal_year 2002
_journal_page_first 3608
_journal_name_full 'J.Am.Chem.Soc. '
loop_
_publ_author_name
"S.R.Angle"
"N.A.El-Said"
_chemical_name_systematic
;
2-Phenyl-3-(4-nitrobenzoato-O)-5-(4-nitrobenzoyloxymethyl)-tetrahydrofuran
;
_cell_volume   2251.378
_exptl_crystal_colour 'colorless'
_exptl_crystal_density_diffrn 1.453
_diffrn_ambient_temperature 213
#These two values have been output from a single CSD field.
_refine_ls_R_factor_gt 0.0445
_refine_ls_wR_factor_gt 0.0445
_symmetry_cell_setting monoclinic
_symmetry_space_group_name_H-M 'P 21/c'
_symmetry_Int_Tables_number 14
loop_
_symmetry_equiv_pos_site_id
_symmetry_equiv_pos_as_xyz
1 x,y,z
2 x,1/2-y,1/2+z
3 -x,-y,-z
4 -x,-1/2+y,-1/2-z
_cell_length_a 13.8887(12)
_cell_length_b 21.6453(18)
_cell_length_c 7.7372(7)
_cell_angle_alpha 90
_cell_angle_beta 104.552(2)
_cell_angle_gamma 90
_cell_formula_units_Z 4
loop_
_atom_type_symbol
_atom_type_radius_bond
C 0.68
H 0.23
N 0.68
O 0.68
loop_
_atom_site_label
_atom_site_type_symbol
_atom_site_fract_x
_atom_site_fract_y
_atom_site_fract_z
O1 O 0.09685(6) 0.46725(4) 0.20180(14)
C1 C 0.15918(9) 0.41531(6) 0.26527(17)
H1 H 0.14540 0.38240 0.17360
C2 C 0.26594(9) 0.43860(6) 0.28889(17)
H2 H 0.31240 0.41740 0.38960
C3 C 0.25844(9) 0.50662(6) 0.32707(19)
H3 H 0.30640 0.53050 0.28070
H4 H 0.27080 0.51410 0.45570
C4 C 0.1519(1) 0.52393(6) 0.23069(19)
H5 H 0.12380 0.55160 0.30750
C5 C 0.14373(9) 0.39000(6) 0.43887(17)
C6 C 0.10325(11) 0.42446(7) 0.5542(2)
H6 H 0.08280 0.46540 0.52490
C7 C 0.09276(12) 0.39847(9) 0.7141(2)
H7 H 0.06590 0.42220 0.79240
C8 C 0.12128(11) 0.33857(8) 0.7577(2)
H8 H 0.11250 0.32110 0.86390
C9 C 0.16268(13) 0.30435(8) 0.6452(2)
H9 H 0.18310 0.26350 0.67520
C10 C 0.17433(12) 0.33008(7) 0.4875(2)
H10 H 0.20350 0.30650 0.41220
C11 C 0.14033(11) 0.55343(6) 0.0493(2)
H11 H 0.17590 0.52920 -0.02200
H12 H 0.06990 0.55520 -0.01470
O2 O 0.18154(7) 0.61539(4) 0.07824(15)
O3 O 0.03101(7) 0.65817(5) -0.02763(17)
C12 C 0.11774(10) 0.66285(6) 0.04373(17)
C13 C 0.16792(9) 0.72274(6) 0.10554(16)
C14 C 0.11313(10) 0.77670(6) 0.06168(19)
H13 H 0.04710 0.77480 -0.00760
C15 C 0.15535(10) 0.83334(6) 0.1196(2)
H14 H 0.11920 0.87020 0.08910
C16 C 0.25196(10) 0.83430(6) 0.22327(17)
C17 C 0.30810(9) 0.78154(6) 0.27021(19)
H15 H 0.37350 0.78370 0.34220
C18 C 0.26558(9) 0.72539(6) 0.20862(19)
H16 H 0.30280 0.68880 0.23650
N1 N 0.29652(10) 0.89412(5) 0.29099(17)
O4 O 0.25294(10) 0.94116(5) 0.22596(16)
O5 O 0.37360(9) 0.89401(5) 0.40939(17)
O6 O 0.29878(7) 0.43288(4) 0.12545(12)
O7 O 0.33032(9) 0.33206(5) 0.18639(15)
C19 C 0.33395(9) 0.37711(6) 0.09565(18)
C20 C 0.38015(9) 0.37744(6) -0.05860(17)
C21 C 0.40584(10) 0.32077(6) -0.11976(19)
H17 H 0.39220 0.28400 -0.06580
C22 C 0.45117(10) 0.31839(6) -0.25926(19)
H18 H 0.46870 0.28040 -0.30150
C23 C 0.46997(9) 0.37323(6) -0.33480(17)
C24 C 0.4459(1) 0.43022(6) -0.27704(18)
H19 H 0.46010 0.46680 -0.33130
C25 C 0.4003(1) 0.43212(6) -0.13709(18)
H20 H 0.38300 0.47030 -0.09530
N2 N 0.51642(9) 0.37093(7) -0.48636(17)
O8 O 0.5440(1) 0.32047(7) -0.52812(17)
O9 O 0.52379(10) 0.41914(6) -0.56484(17)
#END
