
#######################################################################
#
#                 Cambridge Crystallographic Data Centre
#                                CCDC
#
#######################################################################
#
# If this CIF has been generated from an entry in the Cambridge
# Structural Database, then it will include bibliographic, chemical,
# crystal, experimental, refinement or atomic coordinate data resulting
# from the CCDC's data processing and validation procedures.
#
#######################################################################

data_CSD_CIF_XINBIH
_audit_creation_date 2013-09-05
_audit_creation_method CSD-ConQuest-V1
_database_code_CSD XINBIH
_database_code_depnum_ccdc_archive 'CCDC 889116'
_chemical_formula_sum 'C20 H19 N3 O1'
_chemical_formula_moiety
;
C20 H19 N3 O1
;
_journal_coden_Cambridge 35
_journal_volume 77
_journal_year 2012
_journal_page_first 9087
_journal_name_full 'J.Org.Chem. '
loop_
_publ_author_name
"M.V.Varaksin"
"I.A.Utepova"
"O.N.Chupakhin"
"V.N.Charushin"
_chemical_name_systematic
;
2,2-Dimethyl-5-(1-methyl-1H-indol-3-yl)-4-phenyl-2H-1\l^5^-imidazol-1-ol
;
_cell_volume   1682.442
_exptl_crystal_colour 'light yellow'
_exptl_crystal_density_diffrn 1.253
_exptl_crystal_description 'prism'
_diffrn_ambient_temperature 293
#These two values have been output from a single CSD field.
_refine_ls_R_factor_gt 0.0325
_refine_ls_wR_factor_gt 0.0325
_symmetry_cell_setting monoclinic
_symmetry_space_group_name_H-M 'P 21/c'
_symmetry_Int_Tables_number 14
loop_
_symmetry_equiv_pos_site_id
_symmetry_equiv_pos_as_xyz
1 x,y,z
2 -x,1/2+y,1/2-z
3 -x,-y,-z
4 x,-1/2-y,-1/2+z
_cell_length_a 8.7269(11)
_cell_length_b 19.5851(17)
_cell_length_c 10.0288(6)
_cell_angle_alpha 90
_cell_angle_beta 101.028(8)
_cell_angle_gamma 90
_cell_formula_units_Z 4
loop_
_atom_type_symbol
_atom_type_radius_bond
C 0.68
H 0.23
N 0.68
O 0.68
loop_
_atom_site_label
_atom_site_type_symbol
_atom_site_fract_x
_atom_site_fract_y
_atom_site_fract_z
O1 O 0.16526(13) 0.37894(5) 0.18003(9)
N1 N 0.28615(15) 0.34856(6) 0.24650(11)
N2 N 0.52649(13) 0.33673(6) 0.39022(10)
N3 N 0.03045(14) 0.18441(7) 0.02376(12)
C1 C 0.47300(17) 0.27804(7) 0.34259(12)
C2 C 0.21413(17) 0.23120(7) 0.18463(14)
C3 C 0.57082(16) 0.21634(7) 0.36815(14)
C4 C 0.06872(18) 0.13551(8) 0.12308(16)
C5 C 0.41490(18) 0.38838(7) 0.33314(14)
C6 C 0.31891(18) 0.28246(7) 0.25376(13)
C7 C 0.1155(2) 0.24111(8) 0.06188(17)
C8 C 0.57924(19) 0.17127(7) 0.26337(16)
C9 C 0.18486(17) 0.16307(7) 0.22632(14)
C10 C 0.6684(2) 0.20639(8) 0.49252(16)
C11 C 0.2409(2) 0.12235(8) 0.34010(17)
C12 C 0.7812(2) 0.10880(9) 0.4059(2)
C13 C 0.6843(2) 0.11825(8) 0.28198(19)
C14 C 0.0126(2) 0.06971(9) 0.1281(2)
C15 C 0.1837(2) 0.05704(9) 0.3446(2)
C16 C 0.7720(2) 0.15256(9) 0.5108(2)
C17 C 0.34715(17) 0.42472(6) 0.44187(13)
H1 H 0.30170 0.39180 0.49370
H2 H 0.26830 0.45630 0.40000
H3 H 0.42850 0.44910 0.50090
C18 C 0.48581(18) 0.43575(7) 0.24208(14)
H4 H 0.52830 0.40930 0.17720
H5 H 0.56740 0.46220 0.29620
H6 H 0.40670 0.46580 0.19500
C19 C 0.0711(2) 0.03116(10) 0.2394(2)
C20 C -0.07640(18) 0.17501(7) -0.10612(14)
H7 H -0.09010 0.21770 -0.15400
H8 H -0.17550 0.15930 -0.09020
H9 H -0.03380 0.14190 -0.15950
H10 H 0.3218(15) 0.1402(6) 0.4157(12)
H11 H 0.1086(15) 0.2804(6) 0.0062(11)
H12 H 0.5127(14) 0.1777(5) 0.1763(11)
H13 H 0.8575(17) 0.0711(6) 0.4154(12)
H14 H 0.6613(14) 0.2394(6) 0.5666(11)
H15 H -0.0660(17) 0.0534(7) 0.0532(12)
H16 H 0.8402(18) 0.1465(7) 0.5942(14)
H17 H 0.6974(15) 0.0884(6) 0.2051(12)
H18 H 0.0335(17) -0.0129(7) 0.2515(13)
H19 H 0.2259(16) 0.0290(7) 0.4231(12)
#END
