
#######################################################################
#
#                 Cambridge Crystallographic Data Centre
#                                CCDC
#
#######################################################################
#
# If this CIF has been generated from an entry in the Cambridge
# Structural Database, then it will include bibliographic, chemical,
# crystal, experimental, refinement or atomic coordinate data resulting
# from the CCDC's data processing and validation procedures.
#
#######################################################################

data_CSD_CIF_XOCNUA
_audit_creation_date 2014-01-23
_audit_creation_method CSD-ConQuest-V1
_database_code_CSD XOCNUA
_database_code_depnum_ccdc_archive 'CCDC 927840'
_chemical_formula_sum 'C5 H5 N9 O10'
_chemical_formula_moiety
;
C5 H5 N9 O10
;
_journal_coden_Cambridge 1699
_journal_volume 2
_journal_year 2014
_journal_page_first 3200
_journal_name_full 'J.Mater.Chem.A '
loop_
_publ_author_name
"Ping Yin"
"Jiaheng Zhang"
"Chunlin He"
"D.A.Parrish"
"J.M.Shreeve"
_chemical_name_systematic
;
3,5-Dinitro-N^1^-(2,2,2-trinitroethyl)-1H-pyrazole-1,4-diamine
;
_cell_volume   2538.092
_exptl_crystal_colour 'yellow'
_exptl_crystal_density_diffrn 1.838
_exptl_crystal_description 'plate'
_diffrn_ambient_temperature 150
#These two values have been output from a single CSD field.
_refine_ls_R_factor_gt 0.0351
_refine_ls_wR_factor_gt 0.0351
_symmetry_cell_setting orthorhombic
_symmetry_space_group_name_H-M 'P b c a'
_symmetry_Int_Tables_number 61
loop_
_symmetry_equiv_pos_site_id
_symmetry_equiv_pos_as_xyz
1 x,y,z
2 1/2+x,1/2-y,-z
3 -x,1/2+y,1/2-z
4 1/2-x,-y,1/2+z
5 -x,-y,-z
6 -1/2-x,-1/2+y,z
7 x,-1/2-y,-1/2+z
8 -1/2+x,y,-1/2-z
_cell_length_a 11.0318(17)
_cell_length_b 10.0035(15)
_cell_length_c 22.999(3)
_cell_angle_alpha 90
_cell_angle_beta 90
_cell_angle_gamma 90
_cell_formula_units_Z 8
loop_
_atom_type_symbol
_atom_type_radius_bond
C 0.68
H 0.23
N 0.68
O 0.68
loop_
_atom_site_label
_atom_site_type_symbol
_atom_site_fract_x
_atom_site_fract_y
_atom_site_fract_z
N1 N 1.02262(11) 0.87182(13) 0.58544(5)
N2 N 0.93224(11) 0.89438(13) 0.54933(5)
C1 C 0.88801(13) 0.77365(15) 0.53731(6)
C2 C 0.94847(14) 0.66744(16) 0.56561(6)
C3 C 1.03619(13) 0.73714(15) 0.59745(6)
N3 N 0.78964(12) 0.76109(13) 0.49788(6)
O1 O 0.73467(10) 0.86181(12) 0.48216(5)
O2 O 0.76529(11) 0.64708(12) 0.48114(5)
N4 N 0.92738(13) 0.53614(13) 0.56320(6)
H1 H 0.97230 0.48070 0.58370
H2 H 0.86860 0.50510 0.54110
N5 N 1.12968(11) 0.68217(13) 0.63085(5)
O3 O 1.13289(10) 0.55800(11) 0.63410(5)
O4 O 1.20401(10) 0.75622(12) 0.65475(5)
N6 N 1.08941(12) 0.98200(13) 0.60364(6)
H3 H 1.1612(17) 0.9724(18) 0.5937(8)
C4 C 1.07689(13) 1.01863(16) 0.66453(6)
H4 H 1.15190 1.06370 0.67770
H5 H 1.06620 0.93670 0.68810
C5 C 0.96887(14) 1.11147(17) 0.67420(7)
N7 N 0.99299(13) 1.20701(16) 0.72441(6)
O5 O 1.02963(12) 1.15278(15) 0.76804(5)
O6 O 0.97272(17) 1.32475(15) 0.71742(7)
N8 N 0.94124(14) 1.19646(15) 0.62136(6)
O7 O 1.02668(12) 1.26075(13) 0.60313(6)
O8 O 0.83889(12) 1.19240(16) 0.60212(6)
N9 N 0.85221(12) 1.03831(17) 0.69085(6)
O9 O 0.78338(12) 1.09817(19) 0.72285(7)
O10 O 0.83939(11) 0.92756(15) 0.67062(6)
#END
