
#######################################################################
#
#                 Cambridge Crystallographic Data Centre
#                                CCDC
#
#######################################################################
#
# If this CIF has been generated from an entry in the Cambridge
# Structural Database, then it will include bibliographic, chemical,
# crystal, experimental, refinement or atomic coordinate data resulting
# from the CCDC's data processing and validation procedures.
#
#######################################################################

data_CSD_CIF_XUGLAO
_audit_creation_date 2015-04-07
_audit_creation_method CSD-ConQuest-V1
_database_code_CSD XUGLAO
_database_code_depnum_ccdc_archive 'CCDC 1045401'
_chemical_formula_sum 'C11 H16 N2 O1'
_chemical_formula_moiety
;
C11 H16 N2 O1
;
_journal_coden_Cambridge 1135
_journal_volume 25
_journal_year 2015
_journal_page_first 93
_journal_name_full 'Mendeleev Commun. '
loop_
_publ_author_name
"S.N.Bizyaev"
"Y.V.Gatilov"
"A.V.Tkachev"
_chemical_name_systematic
;
(1R,2R,5R,E)-3-Hydroxyimino-2,6,6-trimethylbicyclo[3.1.1]heptane-2-carbonitril
e
;
_chemical_name_common
;
(1R,2R,5R,E)-2-Cyanopinan-3-one E-oxime
;
_chemical_melting_point 423.55
_cell_volume   1105.828
_exptl_crystal_colour 'colorless'
_exptl_crystal_density_diffrn 1.155
_exptl_special_details
;
Melting point range 423.55-424.15K

;
_exptl_crystal_description 'prism'
_exptl_crystal_preparation 'benzene'
_diffrn_ambient_temperature 296
#These two values have been output from a single CSD field.
_refine_ls_R_factor_gt 0.0432
_refine_ls_wR_factor_gt 0.0432
_symmetry_cell_setting orthorhombic
_symmetry_space_group_name_H-M 'P 21 21 21'
_symmetry_Int_Tables_number 19
loop_
_symmetry_equiv_pos_site_id
_symmetry_equiv_pos_as_xyz
1 x,y,z
2 1/2-x,-y,1/2+z
3 -x,1/2+y,1/2-z
4 1/2+x,1/2-y,-z
_cell_length_a 7.1736(3)
_cell_length_b 11.5193(4)
_cell_length_c 13.3821(6)
_cell_angle_alpha 90
_cell_angle_beta 90
_cell_angle_gamma 90
_cell_formula_units_Z 4
loop_
_atom_type_symbol
_atom_type_radius_bond
C 0.68
H 0.23
N 0.68
O 0.68
loop_
_atom_site_label
_atom_site_type_symbol
_atom_site_fract_x
_atom_site_fract_y
_atom_site_fract_z
O1 O 0.9686(3) 0.77211(13) 0.13363(14)
H1 H 1.001(5) 0.756(3) 0.189(3)
N1 N 1.0474(2) 0.88278(14) 0.11934(12)
C1 C 1.0582(3) 1.05387(15) 0.02135(12)
C2 C 0.9827(2) 0.93053(14) 0.04177(12)
C3 C 0.9937(3) 1.12834(17) 0.10451(14)
C4 C 0.9650(3) 1.00991(16) -0.16196(13)
C5 C 0.9674(2) 1.10057(13) -0.07485(12)
H2 H 1.00770 1.17860 -0.09430
N2 N 0.9454(4) 1.18722(18) 0.16781(15)
C6 C 1.2725(3) 1.0603(3) 0.01875(18)
H3 H 1.32220 1.02860 0.07950
H4 H 1.31080 1.13980 0.01230
H5 H 1.31830 1.01650 -0.03710
C7 C 0.8344(3) 0.88096(18) -0.02576(16)
H6 H 0.72310 0.86530 0.01310
H7 H 0.87790 0.80800 -0.05340
C8 C 0.7863(3) 0.96342(18) -0.11048(15)
H8 H 0.68890 0.93590 -0.15600
C9 C 1.1238(4) 0.9260(2) -0.17948(18)
H9 H 1.09410 0.87630 -0.23490
H10 H 1.14260 0.87970 -0.12070
H11 H 1.23550 0.96860 -0.19400
C10 C 0.7549(3) 1.08482(19) -0.06749(17)
H12 H 0.70690 1.08540 0.00030
H13 H 0.68380 1.13610 -0.11060
C11 C 0.9216(4) 1.0707(2) -0.26134(15)
H14 H 0.91740 1.01420 -0.31400
H15 H 1.01700 1.12680 -0.27550
H16 H 0.80320 1.10920 -0.25660
#END
