
#######################################################################
#
#                 Cambridge Crystallographic Data Centre
#                                CCDC
#
#######################################################################
#
# If this CIF has been generated from an entry in the Cambridge
# Structural Database, then it will include bibliographic, chemical,
# crystal, experimental, refinement or atomic coordinate data resulting
# from the CCDC's data processing and validation procedures.
#
#######################################################################

data_CSD_CIF_XUMRON
_audit_creation_date 2010-09-20
_audit_creation_method CSD-ConQuest-V1
_database_code_CSD XUMRON
_database_code_depnum_ccdc_archive 'CCDC 738836'
_chemical_formula_sum 'C15 H14 N4 O4'
_chemical_formula_moiety
;
C15 H14 N4 O4
;
_journal_coden_Cambridge 35
_journal_volume 74
_journal_year 2009
_journal_page_first 7947
_journal_name_full 'J.Org.Chem. '
loop_
_publ_author_name
"M.K.Agrawal"
"P.K.Ghosh"
_chemical_name_systematic
;
1-(2,4-Dinitrophenyl)-2-(2-phenylpropylidene)hydrazine
;
_cell_volume    743.215
_exptl_crystal_colour 'yellow'
_exptl_crystal_density_diffrn 1.405
_exptl_crystal_description 'plates'
_diffrn_ambient_temperature 293
#These two values have been output from a single CSD field.
_refine_ls_R_factor_gt 0.1072
_refine_ls_wR_factor_gt 0.1072
_symmetry_cell_setting triclinic
_symmetry_space_group_name_H-M 'P -1'
_symmetry_Int_Tables_number 2
loop_
_symmetry_equiv_pos_site_id
_symmetry_equiv_pos_as_xyz
1 x,y,z
2 -x,-y,-z
_cell_length_a 7.703(4)
_cell_length_b 9.545(5)
_cell_length_c 10.342(5)
_cell_angle_alpha 99.212(10)
_cell_angle_beta 94.034(9)
_cell_angle_gamma 96.202(10)
_cell_formula_units_Z 2
loop_
_atom_type_symbol
_atom_type_radius_bond
C 0.68
H 0.23
N 0.68
O 0.68
loop_
_atom_site_label
_atom_site_type_symbol
_atom_site_fract_x
_atom_site_fract_y
_atom_site_fract_z
N1 N 0.1169(5) 0.9381(4) 0.7412(4)
N2 N 0.1952(7) 1.0192(5) 0.8578(4)
C1 C 0.1732(6) 1.2071(5) 1.0451(5)
C2 C 0.1121(7) 1.1232(5) 0.9217(5)
O1 O 0.4329(5) 1.1092(5) 1.0596(4)
N3 N 0.3356(6) 1.1865(5) 1.1148(4)
O2 O -0.1154(6) 1.5085(5) 1.2183(5)
O3 O 0.3699(5) 1.2470(5) 1.2283(4)
C3 C -0.1403(8) 1.2548(6) 0.9254(5)
H1 H -0.24650 1.27130 0.88560
C4 C 0.1968(7) 0.8370(5) 0.6916(5)
H2 H 0.30260 0.82290 0.73380
N4 N -0.1741(8) 1.4423(5) 1.1125(5)
C5 C 0.0802(7) 1.3105(5) 1.1054(5)
H3 H 0.12370 1.36410 1.18660
C6 C -0.0748(7) 1.3347(5) 1.0472(5)
C7 C -0.0491(7) 1.1525(6) 0.8644(5)
H4 H -0.09430 1.10050 0.78300
C8 C 0.1256(7) 0.7380(5) 0.5658(5)
H5 H 0.10490 0.64160 0.58730
C9 C 0.3329(7) 0.8556(5) 0.4267(5)
H6 H 0.28980 0.94140 0.45570
C10 C 0.2671(6) 0.7351(5) 0.4692(4)
O4 O -0.3130(7) 1.4578(5) 1.0574(5)
C11 C 0.3319(7) 0.6087(6) 0.4245(6)
H7 H 0.28830 0.52500 0.45260
C12 C 0.5256(7) 0.7266(7) 0.2956(6)
H8 H 0.61120 0.72390 0.23630
C13 C 0.4622(8) 0.8535(6) 0.3413(5)
H9 H 0.50700 0.93760 0.31450
C14 C -0.0467(7) 0.7723(6) 0.5090(5)
H10 H -0.13150 0.76810 0.57250
H11 H -0.08690 0.70400 0.43110
H12 H -0.03190 0.86660 0.48710
C15 C 0.4611(8) 0.6055(7) 0.3384(6)
H13 H 0.50430 0.51970 0.30950
H14 H 0.284(6) 1.005(5) 0.888(5)
#END
