
#######################################################################
#
#                 Cambridge Crystallographic Data Centre
#                                CCDC
#
#######################################################################
#
# If this CIF has been generated from an entry in the Cambridge
# Structural Database, then it will include bibliographic, chemical,
# crystal, experimental, refinement or atomic coordinate data resulting
# from the CCDC's data processing and validation procedures.
#
#######################################################################

data_CSD_CIF_XURBOC
_audit_creation_date 2010-09-21
_audit_creation_method CSD-ConQuest-V1
_database_code_CSD XURBOC
_database_code_depnum_ccdc_archive 'CCDC 770247'
_chemical_formula_sum 'C24 H27 N1 O3'
_chemical_formula_moiety
;
C24 H27 N1 O3
;
_journal_coden_Cambridge 35
_journal_volume 74
_journal_year 2009
_journal_page_first 6647
_journal_name_full 'J.Org.Chem. '
loop_
_publ_author_name
"J.G.Andreu"
"L.Carrasquer"
"S.Franco"
"J.Garin"
"J.Orduna"
"N.M.de Baroja"
"R.Alicante"
"B.Villacampa"
"M.Allain"
_chemical_name_systematic
;
4-(2-(2,6-Di-t-butyl-4H-pyran-4-ylidene)ethylidene)-3-phenyl-1,2-oxazol-5(4H)-
one
;
_cell_volume   2186.989
_exptl_crystal_colour 'black'
_exptl_crystal_density_diffrn 1.146
_exptl_crystal_description 'prism'
_diffrn_ambient_temperature 293
#These two values have been output from a single CSD field.
_refine_ls_R_factor_gt 0.044
_refine_ls_wR_factor_gt 0.044
_symmetry_cell_setting monoclinic
_symmetry_space_group_name_H-M 'P 21/n'
_symmetry_Int_Tables_number 14
loop_
_symmetry_equiv_pos_site_id
_symmetry_equiv_pos_as_xyz
1 x,y,z
2 1/2-x,1/2+y,1/2-z
3 -x,-y,-z
4 -1/2+x,-1/2-y,-1/2+z
_cell_length_a 10.340(1)
_cell_length_b 12.560(1)
_cell_length_c 16.843(2)
_cell_angle_alpha 90
_cell_angle_beta 91.12(1)
_cell_angle_gamma 90
_cell_formula_units_Z 4
loop_
_atom_type_symbol
_atom_type_radius_bond
C 0.68
H 0.23
N 0.68
O 0.68
loop_
_atom_site_label
_atom_site_type_symbol
_atom_site_fract_x
_atom_site_fract_y
_atom_site_fract_z
C1 C 1.05025(17) 0.06960(14) 0.88273(9)
H1 H 1.13910 0.07220 0.89220
C2 C 0.97061(18) 0.11741(13) 0.93796(9)
H2 H 0.88270 0.12030 0.92530
C3 C 1.00968(17) 0.16100(14) 1.00976(9)
C4 C 1.1412(2) 0.16718(16) 1.03956(11)
C5 C 0.9343(2) 0.21119(13) 1.06937(9)
C6 C 0.7926(2) 0.21926(14) 1.07571(9)
C7 C 0.7365(2) 0.30670(17) 1.11172(11)
H3 H 0.78800 0.36340 1.12840
C8 C 0.6047(3) 0.3101(2) 1.12300(13)
H4 H 0.56860 0.36910 1.14740
C9 C 0.5268(2) 0.2285(2) 1.09897(12)
H5 H 0.43810 0.23150 1.10690
C10 C 0.5807(2) 0.14184(19) 1.06293(11)
H6 H 0.52810 0.08580 1.04610
C11 C 0.7125(2) 0.13683(16) 1.05132(10)
H7 H 0.74780 0.07740 1.02690
C12 C 1.00599(16) 0.01812(13) 0.81415(9)
C13 C 1.09400(16) -0.03788(13) 0.76528(9)
H8 H 1.18210 -0.03430 0.77720
C14 C 1.05348(16) -0.09550(14) 0.70281(9)
C15 C 0.87375(16) 0.01236(13) 0.78875(9)
H9 H 0.81170 0.04950 0.81690
C16 C 0.83676(16) -0.04530(14) 0.72529(9)
C17 C 1.13186(17) -0.16320(15) 0.64756(10)
C18 C 1.27457(19) -0.1587(2) 0.66978(13)
H10 H 1.32230 -0.20230 0.63390
H11 H 1.28730 -0.18440 0.72300
H12 H 1.30440 -0.08650 0.66650
C19 C 1.1122(2) -0.12094(19) 0.56267(10)
H13 H 1.16100 -0.16360 0.52670
H14 H 1.14120 -0.04840 0.56020
H15 H 1.02210 -0.12430 0.54810
C20 C 1.0842(2) -0.27827(17) 0.65228(14)
H16 H 1.13310 -0.32190 0.61700
H17 H 0.99430 -0.28120 0.63710
H18 H 1.09520 -0.30390 0.70570
C21 C 0.70243(18) -0.06325(17) 0.69213(11)
C22 C 0.6953(2) -0.0253(2) 0.60541(13)
H19 H 0.60960 -0.03680 0.58420
H20 H 0.75630 -0.06450 0.57470
H21 H 0.71550 0.04930 0.60320
C23 C 0.6734(2) -0.1830(2) 0.69664(16)
H22 H 0.58780 -0.19640 0.67590
H23 H 0.67920 -0.20600 0.75090
H24 H 0.73510 -0.22150 0.66590
C24 C 0.60321(19) -0.0017(2) 0.74000(15)
H25 H 0.51820 -0.01450 0.71820
H26 H 0.62210 0.07300 0.73760
H27 H 0.60700 -0.02510 0.79430
N1 N 1.00641(18) 0.24945(14) 1.12714(9)
O1 O 0.92563(11) -0.09927(10) 0.68244(6)
O2 O 1.13841(14) 0.22508(11) 1.10913(7)
O3 O 1.24348(15) 0.13257(13) 1.01648(8)
#END
