
#######################################################################
#
#                 Cambridge Crystallographic Data Centre
#                                CCDC
#
#######################################################################
#
# If this CIF has been generated from an entry in the Cambridge
# Structural Database, then it will include bibliographic, chemical,
# crystal, experimental, refinement or atomic coordinate data resulting
# from the CCDC's data processing and validation procedures.
#
#######################################################################

data_CSD_CIF_XUTWEQ
_audit_creation_date 2015-09-17
_audit_creation_method CSD-ConQuest-V1
_database_code_CSD XUTWEQ
_database_code_depnum_ccdc_archive 'CCDC 1410378'
_chemical_formula_sum 'C16 H15 N1 O5'
_chemical_formula_moiety
;
C16 H15 N1 O5
;
_journal_coden_Cambridge 24
_journal_volume 56
_journal_year 2015
_journal_page_first 6030
_journal_name_full 'Tetrahedron Lett. '
loop_
_publ_author_name
"N.R.Modugu"
"G.Mehta"
_chemical_name_systematic
;
5-Methyl-4-oxo-6-vinylcyclohex-2-en-1-yl 4-nitrobenzoate
;
_cell_volume    734.474
_exptl_crystal_colour 'colorless'
_exptl_crystal_density_diffrn 1.362
_exptl_crystal_description 'needle'
_diffrn_ambient_temperature 298
#These two values have been output from a single CSD field.
_refine_ls_R_factor_gt 0.0498
_refine_ls_wR_factor_gt 0.0498
_symmetry_cell_setting triclinic
_symmetry_space_group_name_H-M 'P -1'
_symmetry_Int_Tables_number 2
loop_
_symmetry_equiv_pos_site_id
_symmetry_equiv_pos_as_xyz
1 x,y,z
2 -x,-y,-z
_cell_length_a 7.2989(4)
_cell_length_b 10.8489(8)
_cell_length_c 10.8706(8)
_cell_angle_alpha 106.536(7)
_cell_angle_beta 108.156(6)
_cell_angle_gamma 103.311(5)
_cell_formula_units_Z 2
loop_
_atom_type_symbol
_atom_type_radius_bond
C 0.68
H 0.23
N 0.68
O 0.68
loop_
_atom_site_label
_atom_site_type_symbol
_atom_site_fract_x
_atom_site_fract_y
_atom_site_fract_z
O1 O 0.0884(2) 0.89643(12) 0.74951(12)
O2 O 0.0186(3) 0.81982(16) 0.90510(15)
O3 O -0.5238(3) 0.18294(15) 0.3596(2)
O4 O -0.4383(3) 0.26646(16) 0.22055(17)
O5 O 0.4614(2) 1.40526(15) 0.83660(15)
N1 N -0.4366(2) 0.27748(16) 0.33574(19)
C1 C 0.0032(3) 0.80018(17) 0.78820(18)
C2 C -0.1098(2) 0.66456(16) 0.66795(17)
C3 C -0.1967(3) 0.55152(18) 0.69398(19)
H1 H -0.1824(3) 0.56181(18) 0.78476(19)
C4 C -0.3042(3) 0.42410(18) 0.5857(2)
H2 H -0.3632(3) 0.34812(18) 0.6021(2)
C5 C -0.3214(2) 0.41291(16) 0.45290(18)
C6 C -0.2390(3) 0.52242(18) 0.42302(18)
H3 H -0.2549(3) 0.51155(18) 0.33186(18)
C7 C -0.1318(3) 0.64925(18) 0.53256(18)
H4 H -0.0740(3) 0.72486(18) 0.51519(18)
C8 C 0.1975(3) 1.03706(17) 0.85306(17)
H5 H 0.2112(3) 1.03841(17) 0.94608(17)
C9 C 0.0741(2) 1.12657(16) 0.81517(16)
H6 H -0.0409(2) 1.10936(16) 0.84380(16)
C10 C 0.2154(2) 1.27891(16) 0.90070(16)
H7 H 0.2684(2) 1.29161(16) 0.99980(16)
C11 C 0.3980(2) 1.30481(18) 0.86173(17)
C12 C 0.4972(3) 1.2018(2) 0.8569(2)
H8 H 0.6285(3) 1.2233(2) 0.8576(2)
C13 C 0.4052(3) 1.0791(2) 0.8517(2)
H9 H 0.4734(3) 1.0164(2) 0.8469(2)
C14 C -0.0122(3) 1.09746(16) 0.66113(16)
H10 H 0.0786(3) 1.09866(16) 0.61711(16)
C15 C -0.2051(3) 1.0706(2) 0.5842(2)
H11 H -0.310(4) 1.066(3) 0.629(3)
H12 H -0.258(4) 1.053(3) 0.480(3)
C16 C 0.1021(3) 1.37777(19) 0.8864(2)
H13 H 0.1961(6) 1.4702(2) 0.9422(13)
H14 H 0.045(2) 1.3665(11) 0.7898(3)
H15 H -0.0065(15) 1.3595(10) 0.9180(15)
#END
