
#######################################################################
#
#                 Cambridge Crystallographic Data Centre
#                                CCDC
#
#######################################################################
#
# If this CIF has been generated from an entry in the Cambridge
# Structural Database, then it will include bibliographic, chemical,
# crystal, experimental, refinement or atomic coordinate data resulting
# from the CCDC's data processing and validation procedures.
#
#######################################################################

data_CSD_CIF_XUVKUW
_audit_creation_date 2015-09-17
_audit_creation_method CSD-ConQuest-V1
_database_code_CSD XUVKUW
_database_code_depnum_ccdc_archive 'CCDC 1059813'
_chemical_formula_sum 'C14 H12 N2 O5'
_chemical_formula_moiety
;
C14 H12 N2 O5
;
_journal_coden_Cambridge 580
_journal_volume 101
_journal_year 2015
_journal_page_first 306
_journal_name_full 'Polyhedron '
loop_
_publ_author_name
"K.Traven"
"N.Eleftheriadis"
"S.Sersen"
"J.Kljun"
"J.Bezensek"
"B.Stanovnik"
"I.Turel"
"F.J.Dekker"
_chemical_name_systematic
;
dimethyl 1-hydroxy-6-(pyridin-2-yl)-1\l^5^-pyridine-3,4-dicarboxylate
;
_chemical_name_common
;
4,5-bis(methoxycarbonyl)-[2,2'-bipyridine] 1-oxide
;
_cell_volume    662.047
_exptl_crystal_colour 'colorless'
_exptl_crystal_density_diffrn 1.446
_exptl_crystal_description 'prism'
_diffrn_ambient_temperature 150
#These two values have been output from a single CSD field.
_refine_ls_R_factor_gt 0.0416
_refine_ls_wR_factor_gt 0.0416
_symmetry_cell_setting triclinic
_symmetry_space_group_name_H-M 'P -1'
_symmetry_Int_Tables_number 2
loop_
_symmetry_equiv_pos_site_id
_symmetry_equiv_pos_as_xyz
1 x,y,z
2 -x,-y,-z
_cell_length_a 5.7678(3)
_cell_length_b 10.6510(5)
_cell_length_c 11.7170(7)
_cell_angle_alpha 70.360(4)
_cell_angle_beta 77.661(5)
_cell_angle_gamma 87.258(4)
_cell_formula_units_Z 2
loop_
_atom_type_symbol
_atom_type_radius_bond
C 0.68
H 0.23
N 0.68
O 0.68
loop_
_atom_site_label
_atom_site_type_symbol
_atom_site_fract_x
_atom_site_fract_y
_atom_site_fract_z
O1 O 0.31211(18) 0.00680(9) 0.42568(8)
O2 O 0.53434(19) -0.05666(9) 0.27267(9)
O3 O 1.03508(19) 0.15789(10) 0.02877(9)
O4 O 0.6641(2) 0.56946(9) 0.06092(10)
O5 O 1.01291(19) 0.05155(10) 0.23231(9)
N1 N 0.6126(2) 0.44510(11) 0.12528(11)
C1 C 0.4612(2) 0.02837(13) 0.31666(12)
C2 C 0.5223(3) 0.17380(13) 0.25401(12)
C3 C 0.3633(3) 0.26888(13) 0.27492(12)
H1 H 0.21910 0.24010 0.33420
C4 C 0.4051(3) 0.40506(13) 0.21295(13)
C5 C 0.9387(3) 0.13087(13) 0.14842(12)
C6 C 0.7340(3) 0.21838(13) 0.16641(12)
C7 C 0.7720(3) 0.35286(13) 0.10361(13)
H2 H 0.91440 0.38240 0.04310
C8 C 0.2269(3) -0.12925(13) 0.48988(13)
H3 H 0.12040 -0.15310 0.44510
H4 H 0.14060 -0.13810 0.57400
H5 H 0.36190 -0.18890 0.49420
C9 C 0.2297(3) 0.50150(13) 0.24322(13)
N2 N 0.0140(3) 0.44561(13) 0.30273(14)
C10 C 1.2580(3) 0.09490(16) 0.00153(14)
H6 H 1.30460 0.11190 -0.08790
H7 H 1.23980 -0.00140 0.04530
H8 H 1.38060 0.13160 0.02870
C11 C 0.2804(3) 0.63583(14) 0.21938(14)
H9 H 0.43390 0.67330 0.17710
C12 C -0.1530(3) 0.52387(18) 0.3379(2)
H10 H -0.30620 0.48520 0.37920
C13 C 0.1026(4) 0.71342(15) 0.25862(15)
H11 H 0.13350 0.80490 0.24420
C14 C -0.1178(4) 0.65760(17) 0.31830(17)
H12 H -0.24270 0.70910 0.34540
#END
