
#######################################################################
#
#                 Cambridge Crystallographic Data Centre
#                                CCDC
#
#######################################################################
#
# If this CIF has been generated from an entry in the Cambridge
# Structural Database, then it will include bibliographic, chemical,
# crystal, experimental, refinement or atomic coordinate data resulting
# from the CCDC's data processing and validation procedures.
#
#######################################################################

data_CSD_CIF_XUVNUY
_audit_creation_date 2010-07-07
_audit_creation_method CSD-ConQuest-V1
_database_code_CSD XUVNUY
_database_code_depnum_ccdc_archive 'CCDC 716648'
_chemical_formula_sum 'C7 H12 N2 O1'
_chemical_formula_moiety
;
C7 H12 N2 O1
;
_journal_coden_Cambridge 1078
_journal_year 2009
_journal_name_full 'CSD Communication(Private Communication) '
loop_
_publ_author_name
"D.E.Lynch"
_chemical_name_systematic
;
3-amino-5-t-butylisoxazole
;
_cell_volume   1635.288
_exptl_crystal_colour 'colorless'
_exptl_crystal_density_diffrn 1.139
_exptl_special_details
;
contribution from Faculty of Health and Life Sciences, Coventry University, 
Coventry CV1 5FB, UK
;
_exptl_crystal_description 'prism'
_diffrn_ambient_temperature 120
#These two values have been output from a single CSD field.
_refine_ls_R_factor_gt 0.0512
_refine_ls_wR_factor_gt 0.0512
_symmetry_cell_setting orthorhombic
_symmetry_space_group_name_H-M 'P b c a'
_symmetry_Int_Tables_number 61
loop_
_symmetry_equiv_pos_site_id
_symmetry_equiv_pos_as_xyz
1 x,y,z
2 1/2-x,-y,1/2+z
3 1/2+x,1/2-y,-z
4 -x,1/2+y,1/2-z
5 -x,-y,-z
6 -1/2+x,y,-1/2-z
7 -1/2-x,-1/2+y,z
8 x,-1/2-y,-1/2+z
_cell_length_a 8.2727(10)
_cell_length_b 8.9974(9)
_cell_length_c 21.970(3)
_cell_angle_alpha 90
_cell_angle_beta 90
_cell_angle_gamma 90
_cell_formula_units_Z 8
loop_
_atom_type_symbol
_atom_type_radius_bond
C 0.68
H 0.23
N 0.68
O 0.68
loop_
_atom_site_label
_atom_site_type_symbol
_atom_site_fract_x
_atom_site_fract_y
_atom_site_fract_z
O1 O 0.54730(15) 0.22954(13) 0.10906(6)
N1 N 0.51909(19) 0.14284(17) 0.05544(8)
N2 N 0.3591(2) 0.17173(19) -0.03090(8)
H1 H 0.39570 0.08760 -0.04600
H2 H 0.28790 0.22430 -0.05150
C1 C 0.4121(2) 0.2202(2) 0.02375(9)
C2 C 0.3683(2) 0.35404(19) 0.05448(10)
H3 H 0.29350 0.42740 0.04130
C3 C 0.4552(2) 0.3541(2) 0.10597(9)
C4 C 0.4745(2) 0.4608(2) 0.15818(9)
C5 C 0.4469(3) 0.3804(3) 0.2184(1)
H4 H 0.33470 0.34610 0.22060
H5 H 0.46850 0.44860 0.25220
H6 H 0.51990 0.29490 0.22110
C6 C 0.3554(3) 0.5885(3) 0.15011(11)
H7 H 0.37790 0.63990 0.11170
H8 H 0.36690 0.65840 0.18400
H9 H 0.24490 0.54930 0.14940
C7 C 0.6472(3) 0.5222(2) 0.15654(10)
H10 H 0.72430 0.44050 0.16180
H11 H 0.66140 0.59460 0.18940
H12 H 0.66650 0.57080 0.11730
#END
