
#######################################################################
#
#                 Cambridge Crystallographic Data Centre
#                                CCDC
#
#######################################################################
#
# If this CIF has been generated from an entry in the Cambridge
# Structural Database, then it will include bibliographic, chemical,
# crystal, experimental, refinement or atomic coordinate data resulting
# from the CCDC's data processing and validation procedures.
#
#######################################################################

data_CSD_CIF_YAHJIB
_audit_creation_date 2004-12-09
_audit_creation_method CSD-ConQuest-V1
_database_code_CSD YAHJIB
_database_code_depnum_ccdc_archive 'CCDC 255122'
_chemical_formula_sum 'C7 H5 N3 O6'
_chemical_formula_moiety
;
C7 H5 N3 O6
;
_journal_coeditor_code "IUCr NA5014"
_journal_coden_Cambridge 622
_journal_volume 60
_journal_year 2004
_journal_page_first 609
_journal_name_full 'Acta Crystallogr.,Sect.B:Struct.Sci. '
loop_
_publ_author_name
"F.Demartin"
"G.Filippini"
"A.Gavezzotti"
"S.Rizzato"
_chemical_name_systematic
;
3,4,5-Trinitrotoluene
;
_cell_volume    974.533
_exptl_crystal_colour 'very light yellow'
_exptl_crystal_density_diffrn 1.548
_exptl_crystal_description 'block'
_diffrn_ambient_temperature 293
#These two values have been output from a single CSD field.
_refine_ls_R_factor_gt 0.0342
_refine_ls_wR_factor_gt 0.0342
_symmetry_cell_setting monoclinic
_symmetry_space_group_name_H-M 'C 2/c'
_symmetry_Int_Tables_number 15
loop_
_symmetry_equiv_pos_site_id
_symmetry_equiv_pos_as_xyz
1 x,y,z
2 1/2+x,1/2+y,z
3 x,-y,1/2+z
4 1/2+x,1/2-y,1/2+z
5 -x,-y,-z
6 -1/2-x,-1/2-y,-z
7 -x,y,-1/2-z
8 -1/2-x,-1/2+y,-1/2-z
_cell_length_a 13.644(1)
_cell_length_b 9.550(1)
_cell_length_c 8.754(1)
_cell_angle_alpha 90
_cell_angle_beta 121.31(2)
_cell_angle_gamma 90
_cell_formula_units_Z 4
loop_
_atom_type_symbol
_atom_type_radius_bond
C 0.68
H 0.23
N 0.68
O 0.68
loop_
_atom_site_label
_atom_site_type_symbol
_atom_site_fract_x
_atom_site_fract_y
_atom_site_fract_z
C1 C 0.50000 0.6741(3) 0.25000
C2 C 0.50000 0.5173(3) 0.25000
H1? H 0.56890 0.48380 0.25810
H2? H 0.43450 0.48380 0.14140
H3? H 0.49660 0.48380 0.35050
C3 C 0.59018(15) 0.7495(2) 0.2605(3)
H4 H 0.65220 0.70200 0.26860
C4 C 0.58925(15) 0.8928(2) 0.2590(2)
C5 C 0.50000 0.9686(3) 0.25000
N1 N 0.68412(18) 0.9648(2) 0.2580(3)
O1 O 0.77696(16) 0.9086(2) 0.3351(3)
O2 O 0.66271(15) 1.07438(18) 0.1755(3)
N2 N 0.50000 1.1226(3) 0.25000
O3 O 0.42778(17) 1.17968(16) 0.1136(2)
C4F C 0.41075(15) 0.8928(2) 0.2410(2)
C3F C 0.40982(15) 0.7495(2) 0.2395(3)
H4F H 0.34780 0.70200 0.23140
N1F N 0.31588(18) 0.9648(2) 0.2420(3)
O1F O 0.22304(16) 0.9086(2) 0.1649(3)
O2F O 0.33729(15) 1.07438(18) 0.3245(3)
O3F O 0.57222(17) 1.17968(16) 0.3864(2)
#END
