
#######################################################################
#
#                 Cambridge Crystallographic Data Centre
#                                CCDC
#
#######################################################################
#
# If this CIF has been generated from an entry in the Cambridge
# Structural Database, then it will include bibliographic, chemical,
# crystal, experimental, refinement or atomic coordinate data resulting
# from the CCDC's data processing and validation procedures.
#
#######################################################################

data_CSD_CIF_YAHJOH01
_audit_creation_date 2005-06-02
_audit_creation_method CSD-ConQuest-V1
_database_code_CSD YAHJOH01
_database_code_depnum_ccdc_archive 'CCDC 225848 (not 255848 as published)'
_chemical_formula_sum 'C7 H5 N3 O6'
_chemical_formula_moiety
;
C7 H5 N3 O6
;
_journal_coden_Cambridge 423
_journal_year 2004
_journal_page_first 670
_journal_name_full 'J.Chem.Res. '
loop_
_publ_author_name
"J.R.Hanson"
"P.B.Hitchcock"
_chemical_name_systematic
;
2,3,4-Trinitrotoluene
;
_cell_volume    449.988
_exptl_crystal_colour 'colorless'
_exptl_crystal_density_diffrn 1.676
_exptl_crystal_description 'needle'
_diffrn_ambient_temperature 173
#These two values have been output from a single CSD field.
_refine_ls_R_factor_gt 0.0383
_refine_ls_wR_factor_gt 0.0383
_symmetry_cell_setting triclinic
_symmetry_space_group_name_H-M 'P -1'
_symmetry_Int_Tables_number 2
loop_
_symmetry_equiv_pos_site_id
_symmetry_equiv_pos_as_xyz
1 x,y,z
2 -x,-y,-z
_cell_length_a 7.7097(4)
_cell_length_b 8.2267(6)
_cell_length_c 8.6514(7)
_cell_angle_alpha 87.143(3)
_cell_angle_beta 64.730(3)
_cell_angle_gamma 66.439(3)
_cell_formula_units_Z 2
loop_
_atom_type_symbol
_atom_type_radius_bond
C 0.68
H 0.23
N 0.68
O 0.68
loop_
_atom_site_label
_atom_site_type_symbol
_atom_site_fract_x
_atom_site_fract_y
_atom_site_fract_z
O1 O 0.0823(3) 0.9408(3) 1.2994(3)
O2 O 0.1675(3) 0.6881(2) 1.1577(2)
O3 O 0.2642(3) 0.8788(3) 0.8569(3)
O4 O 0.4824(3) 0.6004(2) 0.7517(2)
O5 O 0.7528(3) 0.7736(3) 0.5864(3)
O6 O 1.0501(3) 0.6176(3) 0.5974(3)
N1 N 0.2099(3) 0.8037(3) 1.1967(3)
N2 N 0.4189(3) 0.7429(3) 0.8380(3)
N3 N 0.8580(4) 0.7018(3) 0.6647(3)
C1 C 0.5339(4) 0.7694(3) 1.2159(3)
C2 C 0.4330(3) 0.7755(3) 1.1131(3)
C3 C 0.5355(4) 0.7489(3) 0.9349(3)
C4 C 0.7450(4) 0.7211(3) 0.8537(3)
C5 C 0.8484(5) 0.7178(3) 0.9501(4)
H1 H 0.976(4) 0.707(3) 0.901(3)
C6 C 0.7449(4) 0.7396(3) 1.1278(4)
H2 H 0.812(4) 0.736(4) 1.194(4)
C7 C 0.4273(6) 0.7860(5) 1.4092(4)
H3 H 0.534(6) 0.739(5) 1.442(5)
H4 H 0.346(6) 0.901(6) 1.459(5)
H5 H 0.338(5) 0.729(4) 1.445(4)
#END
