
#######################################################################
#
#                 Cambridge Crystallographic Data Centre
#                                CCDC
#
#######################################################################
#
# If this CIF has been generated from an entry in the Cambridge
# Structural Database, then it will include bibliographic, chemical,
# crystal, experimental, refinement or atomic coordinate data resulting
# from the CCDC's data processing and validation procedures.
#
#######################################################################

data_CSD_CIF_YAHMUR
_audit_creation_date 2011-11-29
_audit_creation_method CSD-ConQuest-V1
_database_code_CSD YAHMUR
_database_code_depnum_ccdc_archive 'CCDC 852278'
_chemical_formula_sum 'C17 H15 N1 O5'
_chemical_formula_moiety
;
C17 H15 N1 O5
;
_journal_coeditor_code "IUCr IS2794"
_journal_coden_Cambridge 1370
_journal_volume 67
_journal_year 2011
_journal_page_first o3058
_journal_name_full 'Acta Crystallogr.,Sect.E:Struct.Rep.Online '
loop_
_publ_author_name
"H.-K.Fun"
"T.S.Chia"
"B.Narayana"
"P.S.Nayak"
"B.K.Sarojini"
_chemical_name_systematic
;
(2E)-1-(2,5-Dimethoxyphenyl)-3-(3-nitrophenyl)prop-2-en-1-one
;
_chemical_melting_point 377
_cell_volume    760.957
_exptl_crystal_colour 'yellow'
_exptl_crystal_density_diffrn 1.367
_exptl_special_details
;
Melting point range 377-379K

;
_exptl_crystal_description 'block'
_exptl_crystal_preparation 'dimethylformamide'
_diffrn_ambient_temperature 296
#These two values have been output from a single CSD field.
_refine_ls_R_factor_gt 0.0479
_refine_ls_wR_factor_gt 0.0479
_symmetry_cell_setting triclinic
_symmetry_space_group_name_H-M 'P -1'
_symmetry_Int_Tables_number 2
loop_
_symmetry_equiv_pos_site_id
_symmetry_equiv_pos_as_xyz
1 x,y,z
2 -x,-y,-z
_cell_length_a 7.5015(5)
_cell_length_b 7.9962(5)
_cell_length_c 13.2468(8)
_cell_angle_alpha 86.507(1)
_cell_angle_beta 80.342(1)
_cell_angle_gamma 76.332(1)
_cell_formula_units_Z 2
loop_
_atom_type_symbol
_atom_type_radius_bond
C 0.68
H 0.23
N 0.68
O 0.68
loop_
_atom_site_label
_atom_site_type_symbol
_atom_site_fract_x
_atom_site_fract_y
_atom_site_fract_z
O1 O 0.15506(16) 0.16718(11) 0.39750(8)
O2 O 0.11277(18) -0.21224(13) 0.07147(7)
O3 O 0.3565(2) -0.36287(12) 0.39765(9)
O4 O 0.2174(3) 0.37169(16) 0.74170(13)
O5 O 0.3301(3) 0.3286(2) 0.88284(13)
N1 N 0.2941(2) 0.2780(2) 0.80490(12)
C1 C 0.14468(17) 0.07338(14) 0.31743(9)
C2 C 0.07436(19) 0.15014(15) 0.23001(10)
H1 H 0.03120 0.26900 0.22650
C3 C 0.0682(2) 0.05257(17) 0.14937(10)
H2 H 0.02280 0.10570 0.09140
C4 C 0.12955(19) -0.12516(16) 0.15424(9)
C5 C 0.19828(17) -0.20273(14) 0.23995(9)
H3 H 0.23910 -0.32190 0.24290
C6 C 0.20797(16) -0.10584(13) 0.32289(8)
C7 C 0.29087(19) -0.20926(14) 0.40881(9)
C8 C 0.2943(2) -0.12935(16) 0.50575(9)
H4 H 0.23640 -0.01370 0.51480
C9 C 0.37566(19) -0.21468(15) 0.57977(9)
H5 H 0.43340 -0.33000 0.56890
C10 C 0.38354(17) -0.14415(15) 0.67833(8)
C11 C 0.33505(18) 0.03198(16) 0.69527(9)
H6 H 0.29670 0.10940 0.64360
C12 C 0.34453(19) 0.09026(18) 0.78952(10)
C13 C 0.3995(2) -0.0188(2) 0.86864(11)
H7 H 0.40440 0.02400 0.93160
C14 C 0.4467(2) -0.1924(2) 0.85189(11)
H8 H 0.48390 -0.26850 0.90440
C15 C 0.4399(2) -0.25623(18) 0.75773(10)
H9 H 0.47320 -0.37430 0.74760
C16 C 0.0965(3) 0.34867(17) 0.39303(15)
H10 H 0.11640 0.39560 0.45410
H11 H -0.03330 0.38080 0.38760
H12 H 0.16650 0.39280 0.33440
C17 C 0.1863(3) -0.3918(2) 0.07001(13)
H13 H 0.17410 -0.43570 0.00630
H14 H 0.11950 -0.44610 0.12560
H15 H 0.31520 -0.41580 0.07720
#END
