
#######################################################################
#
#                 Cambridge Crystallographic Data Centre
#                                CCDC
#
#######################################################################
#
# If this CIF has been generated from an entry in the Cambridge
# Structural Database, then it will include bibliographic, chemical,
# crystal, experimental, refinement or atomic coordinate data resulting
# from the CCDC's data processing and validation procedures.
#
#######################################################################

data_CSD_CIF_YAHXOU
_audit_creation_date 1993-06-03
_audit_creation_method CSD-ConQuest-V1
_database_code_CSD YAHXOU
_chemical_formula_sum 'C23 H22 N4 O1'
_chemical_formula_moiety
;
C23 H22 N4 O1
;
_journal_coden_Cambridge 207
_journal_year 1992
_journal_page_first 3055
_journal_name_full 'J.Chem.Soc.,Perkin Trans.1 '
loop_
_publ_author_name
"A.R.Katritzky"
"Jinlong Jiang"
"J.V.Greenhill"
"P.J.Steel"
_chemical_name_systematic
;
O-(1-Benzotriazol-1-yl-2-methylpropyl)benzophenone oxime
;
_chemical_melting_point 412.65
_cell_volume   7849.851
_exptl_crystal_density_diffrn 1.246
_exptl_special_details
;
Melting point range 412.65-413.65K

;
_diffrn_ambient_temperature 193.15
#These two values have been output from a single CSD field.
_refine_ls_R_factor_gt 0.048
_refine_ls_wR_factor_gt 0.048
_symmetry_cell_setting orthorhombic
_symmetry_space_group_name_H-M 'F d d 2'
_symmetry_Int_Tables_number 43
loop_
_symmetry_equiv_pos_site_id
_symmetry_equiv_pos_as_xyz
1 x,y,z
2 x,1/2+y,1/2+z
3 1/2+x,y,1/2+z
4 1/2+x,1/2+y,z
5 1/4-x,1/4+y,1/4+z
6 1/4-x,3/4+y,3/4+z
7 3/4-x,1/4+y,3/4+z
8 3/4-x,3/4+y,1/4+z
9 1/4+x,1/4-y,1/4+z
10 1/4+x,3/4-y,3/4+z
11 3/4+x,1/4-y,3/4+z
12 3/4+x,3/4-y,1/4+z
13 1/2-x,-y,1/2+z
14 1/2-x,1/2-y,z
15 -x,-y,z
16 -x,1/2-y,1/2+z
_cell_length_a 20.718(14)
_cell_length_b 63.84(4)
_cell_length_c 5.935(5)
_cell_angle_alpha 90
_cell_angle_beta 90
_cell_angle_gamma 90
_cell_formula_units_Z 16
loop_
_atom_type_symbol
_atom_type_radius_bond
C 0.68
H 0.23
N 0.68
O 0.68
loop_
_atom_site_label
_atom_site_type_symbol
_atom_site_fract_x
_atom_site_fract_y
_atom_site_fract_z
N1 N 0.1076(4) 0.0778(1) 0.50000
N2 N 0.1027(4) 0.0859(1) 0.7103(19)
N3 N 0.0629(4) 0.0743(2) 0.8269(22)
C1 C 0.0422(4) 0.0580(2) 0.6904(23)
C2 C -0.0004(4) 0.0415(2) 0.7311(23)
C3 C -0.0126(4) 0.0279(2) 0.5620(26)
C4 C 0.0175(5) 0.0297(2) 0.3527(26)
C5 C 0.0608(5) 0.0456(2) 0.3088(23)
C6 C 0.0723(4) 0.0598(2) 0.4827(24)
C7 C 0.1521(4) 0.0875(2) 0.3338(21)
C8 C 0.1466(4) 0.1110(1) 0.3273(22)
C9 C 0.1889(4) 0.1196(2) 0.1308(22)
C10 C 0.0754(4) 0.1180(2) 0.2911(24)
O1 O 0.2175(3) 0.0827(1) 0.4006(18)
N4 N 0.2296(3) 0.0612(1) 0.3441(21)
C11 C 0.2826(5) 0.0553(2) 0.4381(23)
C12 C 0.3048(4) 0.0334(2) 0.3728(22)
C13 C 0.3430(4) 0.0220(2) 0.5251(24)
C14 C 0.3626(5) 0.0015(2) 0.4688(24)
C15 C 0.3450(4) -0.0070(2) 0.2596(25)
C16 C 0.3080(4) 0.0043(2) 0.1113(24)
C17 C 0.2891(4) 0.0247(2) 0.1670(23)
C18 C 0.3230(4) 0.0677(1) 0.5991(22)
C19 C 0.3872(4) 0.0713(1) 0.5444(22)
C20 C 0.4270(5) 0.0816(2) 0.6989(21)
C21 C 0.4029(4) 0.0878(2) 0.9035(23)
C22 C 0.3381(5) 0.0844(2) 0.9589(24)
C23 C 0.2971(4) 0.0743(2) 0.8015(22)
H1 H -0.02040 0.03980 0.87540
H2 H -0.04270 0.01670 0.58610
H3 H 0.00790 0.01970 0.23690
H4 H 0.08190 0.04680 0.16600
H5 H 0.14100 0.08210 0.18860
H6 H 0.16130 0.11640 0.46880
H7 H 0.18540 0.13460 0.12620
H8 H 0.17410 0.11390 -0.00900
H9 H 0.23300 0.11580 0.15450
H10 H 0.07340 0.13300 0.28750
H11 H 0.04930 0.11290 0.41200
H12 H 0.05980 0.11250 0.15130
H13 H 0.35550 0.02810 0.66590
H14 H 0.38780 -0.00660 0.57270
H15 H 0.35910 -0.02090 0.22010
H16 H 0.29500 -0.00180 -0.02910
H17 H 0.26500 0.03290 0.06050
H18 H 0.40410 0.06680 0.40240
H19 H 0.47120 0.08440 0.66160
H20 H 0.43080 0.09440 1.01010
H21 H 0.32160 0.08890 1.10180
H22 H 0.25240 0.07220 0.83460
#END
