
#######################################################################
#
#                 Cambridge Crystallographic Data Centre
#                                CCDC
#
#######################################################################
#
# If this CIF has been generated from an entry in the Cambridge
# Structural Database, then it will include bibliographic, chemical,
# crystal, experimental, refinement or atomic coordinate data resulting
# from the CCDC's data processing and validation procedures.
#
#######################################################################

data_CSD_CIF_YAJXOX
_audit_creation_date 2005-07-12
_audit_creation_method CSD-ConQuest-V1
_database_code_CSD YAJXOX
_database_code_depnum_ccdc_archive 'CCDC 252806'
_chemical_formula_sum 'C5 H7 N5 O1'
_chemical_formula_moiety
;
C5 H7 N5 O1
;
_journal_coden_Cambridge 24
_journal_volume 46
_journal_year 2005
_journal_page_first 1841
_journal_name_full 'Tetrahedron Lett. '
loop_
_publ_author_name
"I.Susvilo"
"A.Brukstus"
"S.Tumkevicius"
_chemical_name_systematic
;
4-Amino-6-methylamino-5-nitrosopyrimidine
;
_chemical_melting_point 529
_cell_volume    654.775
_exptl_crystal_colour 'blue'
_exptl_crystal_density_diffrn 1.554
_exptl_special_details
;
Melts with decomposition.

;
_diffrn_ambient_temperature 293
#These two values have been output from a single CSD field.
_refine_ls_R_factor_gt 0.0444
_refine_ls_wR_factor_gt 0.0444
_symmetry_cell_setting orthorhombic
_symmetry_space_group_name_H-M 'P c a 21'
_symmetry_Int_Tables_number 29
loop_
_symmetry_equiv_pos_site_id
_symmetry_equiv_pos_as_xyz
1 x,y,z
2 -x,-y,1/2+z
3 1/2-x,y,1/2+z
4 1/2+x,-y,z
_cell_length_a 16.4250(4)
_cell_length_b 4.7520(18)
_cell_length_c 8.3890(8)
_cell_angle_alpha 90
_cell_angle_beta 90
_cell_angle_gamma 90
_cell_formula_units_Z 4
loop_
_atom_type_symbol
_atom_type_radius_bond
C 0.68
H 0.23
N 0.68
O 0.68
loop_
_atom_site_label
_atom_site_type_symbol
_atom_site_fract_x
_atom_site_fract_y
_atom_site_fract_z
N1 N 0.05412(16) 0.7332(5) 0.3592(2)
N2 N 0.15821(14) 0.3882(5) 0.4042(2)
C1 C 0.10019(18) 0.6424(6) 0.6287(3)
N3 N 0.20584(15) 0.2944(5) 0.6560(3)
H1 H 0.202(2) 0.347(9) 0.754(6)
N4 N -0.00381(19) 0.9828(6) 0.5624(3)
H2 H -0.0335(18) 1.063(6) 0.489(4)
H3 H -0.009(2) 1.031(9) 0.677(5)
O1 O 0.13748(13) 0.5977(5) 0.8855(2)
C2 C 0.2626(2) 0.0851(8) 0.5958(4)
H4 H 0.277(3) -0.028(11) 0.671(6)
H5 H 0.311(4) 0.183(10) 0.554(6)
H6 H 0.235(2) -0.020(6) 0.514(5)
N5 N 0.09133(15) 0.7174(5) 0.7837(2)
C3 C 0.15554(16) 0.4387(6) 0.5639(3)
C4 C 0.10759(18) 0.5385(6) 0.3174(3)
H7 H 0.1107(18) 0.498(7) 0.200(4)
C5 C 0.04907(17) 0.7888(6) 0.5182(3)
#END
