
#######################################################################
#
#                 Cambridge Crystallographic Data Centre
#                                CCDC
#
#######################################################################
#
# If this CIF has been generated from an entry in the Cambridge
# Structural Database, then it will include bibliographic, chemical,
# crystal, experimental, refinement or atomic coordinate data resulting
# from the CCDC's data processing and validation procedures.
#
#######################################################################

data_CSD_CIF_YAPDEA
_audit_creation_date 2012-06-19
_audit_creation_method CSD-ConQuest-V1
_database_code_CSD YAPDEA
_database_code_depnum_ccdc_archive 'CCDC 809168'
_chemical_formula_sum 'C19 H21 N3 O7'
_chemical_formula_moiety
;
C19 H21 N3 O7
;
_journal_coden_Cambridge 1336
_journal_volume 13
_journal_year 2011
_journal_page_first 5948
_journal_name_full 'Org.Lett. '
loop_
_publ_author_name
"Peng Fu"
"Peipei Liu"
"Xia Li"
"Yi Wang"
"Shuxia Wang"
"Kui Hong"
"Weiming Zhu"
_chemical_name_systematic
;
8-((Hydroxyimino)methyl)-3,4a-dimethoxy-2-methyl-6-(pyridin-2-yl)-3,4,4a,10a-t
etrahydro-2H-pyrano[2',3':5,6][1,4]dioxino[2,3-c]pyridin-4-ol
;
_chemical_name_common
;
Cyanogriside A
;
_cell_volume   1885.758
_exptl_crystal_density_diffrn 1.421
_diffrn_ambient_temperature 298
_diffrn_radiation_source 'Mo/Kalpha radiation'
#These two values have been output from a single CSD field.
_refine_ls_R_factor_gt 0.038
_refine_ls_wR_factor_gt 0.038
_symmetry_cell_setting orthorhombic
_symmetry_space_group_name_H-M 'P 21 21 21'
_symmetry_Int_Tables_number 19
loop_
_symmetry_equiv_pos_site_id
_symmetry_equiv_pos_as_xyz
1 x,y,z
2 1/2-x,-y,1/2+z
3 -x,1/2+y,1/2-z
4 1/2+x,1/2-y,-z
_cell_length_a 7.2572(9)
_cell_length_b 10.3636(12)
_cell_length_c 25.073(3)
_cell_angle_alpha 90
_cell_angle_beta 90
_cell_angle_gamma 90
_cell_formula_units_Z 4
loop_
_atom_type_symbol
_atom_type_radius_bond
C 0.68
H 0.23
N 0.68
O 0.68
loop_
_atom_site_label
_atom_site_type_symbol
_atom_site_fract_x
_atom_site_fract_y
_atom_site_fract_z
N1 N 0.1206(3) 0.38771(17) -0.00843(7)
N2 N 0.1092(3) 0.22974(19) -0.09207(8)
N3 N 0.0208(3) 0.68456(19) 0.05168(9)
O1 O 0.1440(2) 0.08942(14) 0.06763(6)
O2 O 0.1695(3) 0.27407(16) 0.14896(6)
O3 O 0.1775(3) 0.11838(17) 0.21264(6)
O4 O 0.1538(2) -0.07430(16) 0.12792(7)
O5 O -0.2028(2) -0.01640(16) 0.10021(7)
H1 H -0.24660 0.02650 0.07580
O6 O -0.3174(3) 0.0462(2) 0.20582(8)
O7 O -0.0132(3) 0.80576(17) 0.02955(8)
H2 H -0.05390 0.85410 0.05260
C1 C 0.0818(4) 0.6067(2) 0.01675(10)
H3 H 0.10510 0.63470 -0.01780
C2 C 0.1146(4) 0.4723(2) 0.03186(10)
C3 C 0.1322(4) 0.4366(2) 0.08489(9)
H4 H 0.13360 0.49840 0.11180
C4 C 0.1474(4) 0.3093(2) 0.09649(9)
C5 C 0.1396(4) 0.2184(2) 0.05579(9)
C6 C 0.1287(3) 0.2600(2) 0.00261(10)
C7 C 0.1247(3) 0.1713(2) -0.04455(9)
C8 C 0.1339(5) 0.0391(2) -0.04116(11)
H5 H 0.14420 -0.00050 -0.00800
C9 C 0.1277(5) -0.0347(3) -0.08680(12)
H6 H 0.13480 -0.12410 -0.08460
C10 C 0.1114(4) 0.0236(3) -0.13488(11)
H7 H 0.10550 -0.02420 -0.16620
C11 C 0.1039(4) 0.1560(3) -0.13568(10)
H8 H 0.09460 0.19670 -0.16860
C12 C 0.2161(4) 0.1421(2) 0.15946(10)
H9 H 0.34800 0.12920 0.15310
C13 C 0.1063(4) 0.0546(2) 0.12223(9)
C14 C -0.0988(4) 0.0647(2) 0.13417(9)
H10 H -0.13760 0.15410 0.12820
C15 C -0.1275(4) 0.0324(3) 0.19305(10)
H11 H -0.08780 -0.05640 0.20010
C16 C -0.0147(4) 0.1258(3) 0.22685(10)
H12 H -0.05860 0.21380 0.22030
C17 C -0.0244(5) 0.0986(4) 0.28617(11)
H13 H 0.01980 0.01290 0.29310
H14 H -0.14970 0.10580 0.29800
H15 H 0.05070 0.15980 0.30500
C18 C 0.3316(4) -0.1134(3) 0.10913(12)
H16 H 0.33130 -0.11560 0.07090
H17 H 0.35980 -0.19780 0.12270
H18 H 0.42290 -0.05320 0.12120
C19 C -0.3963(4) -0.0654(4) 0.22920(14)
H19 H -0.37550 -0.13840 0.20640
H20 H -0.52640 -0.05260 0.23370
H21 H -0.34040 -0.08080 0.26330
#END
