
#######################################################################
#
#                 Cambridge Crystallographic Data Centre
#                                CCDC
#
#######################################################################
#
# If this CIF has been generated from an entry in the Cambridge
# Structural Database, then it will include bibliographic, chemical,
# crystal, experimental, refinement or atomic coordinate data resulting
# from the CCDC's data processing and validation procedures.
#
#######################################################################

data_CSD_CIF_YARQOX
_audit_creation_date 2001-10-24
_audit_creation_method CSD-ConQuest-V1
_database_code_CSD YARQOX
_chemical_formula_sum 'C16 H26 N2 O4'
_chemical_formula_moiety
;
C16 H26 N2 O4
;
_journal_coden_Cambridge 35
_journal_volume 65
_journal_year 2000
_journal_page_first 5685
_journal_name_full 'J.Org.Chem. '
loop_
_publ_author_name
"D.S.Bohle"
"J.A.Imonigie"
_chemical_name_systematic
;
(Z)-1-(4-(2,6-Di-t-butyl-4-methoxymethylenecyclohexadienonyl))diazen-1-ium-1,2
-diolinic acid
;
_cell_volume   1728.320
_exptl_crystal_density_diffrn 1.193
_exptl_crystal_preparation 'hexane/ether'
_diffrn_ambient_temperature 173.15
#These two values have been output from a single CSD field.
_refine_ls_R_factor_gt 0.0398
_refine_ls_wR_factor_gt 0.0398
_symmetry_cell_setting orthorhombic
_symmetry_space_group_name_H-M 'P 21 21 21'
_symmetry_Int_Tables_number 19
loop_
_symmetry_equiv_pos_site_id
_symmetry_equiv_pos_as_xyz
1 x,y,z
2 1/2-x,-y,1/2+z
3 1/2+x,1/2-y,-z
4 -x,1/2+y,1/2-z
_cell_length_a 6.111(2)
_cell_length_b 14.938(5)
_cell_length_c 18.933(5)
_cell_angle_alpha 90
_cell_angle_beta 90
_cell_angle_gamma 90
_cell_formula_units_Z 4
loop_
_atom_type_symbol
_atom_type_radius_bond
C 0.68
H 0.23
N 0.68
O 0.68
loop_
_atom_site_label
_atom_site_type_symbol
_atom_site_fract_x
_atom_site_fract_y
_atom_site_fract_z
O1 O 0.9419(4) 1.1444(1) 0.2265(1)
O2 O 0.2772(3) 0.9528(1) 0.4754(1)
N1 N 0.4698(3) 0.9769(1) 0.4438(1)
N2 N 0.5183(4) 0.9210(1) 0.3951(1)
O3 O 0.4026(3) 0.8535(1) 0.3798(1)
C1 C 0.8554(4) 1.0893(2) 0.2652(1)
C2 C 0.8998(4) 1.0904(2) 0.3434(1)
C3 C 0.8381(4) 1.0202(2) 0.3824(1)
C4 C 0.7253(4) 0.9396(2) 0.3526(1)
C5 C 0.6477(4) 0.9505(2) 0.2777(1)
C6 C 0.7046(4) 1.0193(2) 0.2363(1)
C7 C 1.0112(4) 1.1729(2) 0.3753(1)
C8 C 0.8801(6) 1.2571(2) 0.3563(2)
C9 C 1.0183(6) 1.1666(2) 0.4568(2)
C10 C 1.2493(5) 1.1817(2) 0.3491(2)
C11 C 0.8643(4) 0.8547(2) 0.3585(1)
O4 O 0.9210(3) 0.8411(1) 0.4306(1)
C12 C 0.9817(5) 0.7505(2) 0.4443(2)
C13 C 0.6206(4) 1.0286(2) 0.1602(1)
C14 C 0.8125(5) 1.0190(2) 0.1080(1)
C15 C 0.5082(5) 1.1196(2) 0.1505(1)
C16 C 0.4512(6) 0.9559(2) 0.1432(1)
H1 H 0.2202(68) 0.9038(25) 0.4540(19)
H2 H 0.8846(46) 1.0167(16) 0.4334(13)
H3 H 0.5545(54) 0.9026(20) 0.2629(15)
H4 H 0.8891(66) 1.2696(23) 0.3049(19)
H5 H 0.9502(73) 1.3104(28) 0.379(2)
H6 H 0.7134(83) 1.2567(31) 0.3748(24)
H7 H 0.8722(69) 1.1598(23) 0.4780(18)
H8 H 1.1131(65) 1.1186(24) 0.4698(17)
H9 H 1.0800(61) 1.2256(21) 0.4741(15)
H10 H 1.3269(76) 1.2300(29) 0.3781(22)
H11 H 1.326(6) 1.1237(21) 0.3567(15)
H12 H 1.2625(71) 1.1956(27) 0.2985(22)
H13 H 0.7782(50) 0.8025(19) 0.3413(14)
H14 H 0.9999(59) 0.8588(20) 0.3295(15)
H15 H 0.8636(58) 0.7114(20) 0.4339(16)
H16 H 1.1132(62) 0.7291(21) 0.4143(17)
H17 H 1.0090(58) 0.7437(20) 0.4941(17)
H18 H 0.9324(64) 1.0668(23) 0.1181(17)
H19 H 0.7573(66) 1.0251(23) 0.0615(19)
H20 H 0.8776(73) 0.9557(27) 0.1107(19)
H21 H 0.3871(65) 1.1267(23) 0.1803(18)
H22 H 0.4683(63) 1.1297(22) 0.1024(18)
H23 H 0.5979(48) 1.1700(19) 0.1625(14)
H24 H 0.3180(63) 0.9593(21) 0.1761(17)
H25 H 0.3960(66) 0.9672(23) 0.0968(18)
H26 H 0.5183(63) 0.8957(22) 0.1484(15)
#END
