
#######################################################################
#
#                 Cambridge Crystallographic Data Centre
#                                CCDC
#
#######################################################################
#
# If this CIF has been generated from an entry in the Cambridge
# Structural Database, then it will include bibliographic, chemical,
# crystal, experimental, refinement or atomic coordinate data resulting
# from the CCDC's data processing and validation procedures.
#
#######################################################################

data_CSD_CIF_YASXAS
_audit_creation_date 2005-07-14
_audit_creation_method CSD-ConQuest-V1
_database_code_CSD YASXAS
_database_code_depnum_ccdc_archive 'CCDC 275543'
_chemical_formula_sum 'C22 H19 N3 O2'
_chemical_formula_moiety
;
C22 H19 N3 O2
;
_journal_coeditor_code "IUCr SK1842"
_journal_coden_Cambridge 591
_journal_volume 61
_journal_year 2005
_journal_page_first o404
_journal_name_full 'Acta Crystallogr.,Sect.C:Cryst.Struct.Commun. '
loop_
_publ_author_name
"H.Torres"
"B.Insuasty"
"J.Cobo"
"J.N.Low"
"C.Glidewell"
_chemical_name_systematic
;
1-Benzyl-4-(4-nitrophenyl)-2,3-dihydro-1H-1,5-benzodiazepine
;
_chemical_melting_point 392
_cell_volume   1764.501
_exptl_crystal_colour 'red'
_exptl_crystal_density_diffrn 1.345
_exptl_crystal_description 'block'
_exptl_crystal_preparation 'ethanol'
_diffrn_ambient_temperature 120
#These two values have been output from a single CSD field.
_refine_ls_R_factor_gt 0.0438
_refine_ls_wR_factor_gt 0.0438
_symmetry_cell_setting orthorhombic
_symmetry_space_group_name_H-M 'P 21 21 21'
_symmetry_Int_Tables_number 19
loop_
_symmetry_equiv_pos_site_id
_symmetry_equiv_pos_as_xyz
1 x,y,z
2 1/2-x,-y,1/2+z
3 1/2+x,1/2-y,-z
4 -x,1/2+y,1/2-z
_cell_length_a 7.3810(2)
_cell_length_b 10.8016(3)
_cell_length_c 22.1319(5)
_cell_angle_alpha 90
_cell_angle_beta 90
_cell_angle_gamma 90
_cell_formula_units_Z 4
loop_
_atom_type_symbol
_atom_type_radius_bond
C 0.68
H 0.23
N 0.68
O 0.68
loop_
_atom_site_label
_atom_site_type_symbol
_atom_site_fract_x
_atom_site_fract_y
_atom_site_fract_z
O1 O -0.1912(2) 0.15148(16) 0.01598(8)
O2 O -0.2876(2) -0.00225(14) 0.06924(7)
N1 N 0.6100(2) 0.08669(14) 0.31442(7)
N2 N 0.5770(2) 0.17704(14) 0.18991(7)
N3 N -0.1706(2) 0.07260(15) 0.05545(8)
C1 C 0.6251(3) 0.0814(2) 0.38081(8)
C2 C 0.5229(3) -0.02509(16) 0.29030(8)
C3 C 0.5539(3) -0.03925(16) 0.22264(8)
C4 C 0.4901(3) 0.07385(16) 0.18898(8)
C5 C 0.7381(3) 0.18672(17) 0.22433(8)
C6 C 0.8767(3) 0.25633(17) 0.19874(8)
C7 C 1.0438(3) 0.26822(18) 0.22697(9)
C8 C 1.0716(3) 0.21083(18) 0.28233(9)
C9 C 0.9322(3) 0.14745(18) 0.31009(9)
C10 C 0.7605(2) 0.13598(17) 0.28313(8)
C11 C 0.4412(3) 0.08352(19) 0.41082(8)
C12 C 0.3610(3) 0.19673(19) 0.42456(8)
C13 C 0.1934(3) 0.2011(2) 0.45328(9)
C14 C 0.1037(3) 0.09308(19) 0.46813(9)
C15 C 0.1815(3) -0.0202(2) 0.45434(9)
C16 C 0.3499(3) -0.02467(19) 0.42624(9)
C17 C 0.3222(3) 0.06828(16) 0.15215(8)
C18 C 0.2926(3) 0.15603(17) 0.10663(8)
C19 C 0.1333(3) 0.15706(17) 0.07421(8)
C20 C 0.0029(3) 0.06916(17) 0.08755(8)
C21 C 0.0287(3) -0.02115(17) 0.13111(8)
C22 C 0.1900(3) -0.02151(17) 0.16321(8)
H1 H 0.69730 0.15290 0.39520
H2 H 0.68980 0.00480 0.39260
H3 H 0.39110 -0.02110 0.29840
H4 H 0.57180 -0.09870 0.31140
H5 H 0.68450 -0.05230 0.21480
H6 H 0.48750 -0.11290 0.20780
H7 H 0.85670 0.29660 0.16120
H8 H 1.13790 0.31500 0.20860
H9 H 1.18710 0.21520 0.30120
H10 H 0.95280 0.11060 0.34850
H11 H 0.42120 0.27160 0.41420
H12 H 0.14040 0.27890 0.46270
H13 H -0.01080 0.09640 0.48770
H14 H 0.11980 -0.09480 0.46410
H15 H 0.40330 -0.10260 0.41740
H16 H 0.38360 0.21570 0.09800
H17 H 0.11340 0.21680 0.04340
H18 H -0.06200 -0.08150 0.13880
H19 H 0.21080 -0.08330 0.19300
#END
