
#######################################################################
#
#                 Cambridge Crystallographic Data Centre
#                                CCDC
#
#######################################################################
#
# If this CIF has been generated from an entry in the Cambridge
# Structural Database, then it will include bibliographic, chemical,
# crystal, experimental, refinement or atomic coordinate data resulting
# from the CCDC's data processing and validation procedures.
#
#######################################################################

data_CSD_CIF_YAVNUH
_audit_creation_date 2017-05-11
_audit_creation_method CSD-ConQuest-V1
_database_code_CSD YAVNUH
_database_code_depnum_ccdc_archive 'CCDC 1525349'
_chemical_formula_sum 'C16 H15 N3 O3'
_chemical_formula_moiety
;
C16 H15 N3 O3
;
_journal_coden_Cambridge 179
_journal_volume 56
_journal_year 2017
_journal_page_first 3344
_journal_name_full 'Angew.Chem.,Int.Ed. '
loop_
_publ_author_name
"Heejeong Kim"
"Sukbok Chang"
_chemical_name_systematic
;
5-methyl-2-nitro-9,14-dihydro-8H-dibenzo[d,g][1,2,6]oxadiazecine
;
_cell_volume   1408.937
_exptl_crystal_colour 'yellow'
_exptl_crystal_density_diffrn 1.402
_exptl_crystal_description 'block'
_diffrn_ambient_temperature 128
#These two values have been output from a single CSD field.
_refine_ls_R_factor_gt 0.0639
_refine_ls_wR_factor_gt 0.0639
_symmetry_cell_setting monoclinic
_symmetry_space_group_name_H-M 'P 21/n'
_symmetry_Int_Tables_number 14
loop_
_symmetry_equiv_pos_site_id
_symmetry_equiv_pos_as_xyz
1 x,y,z
2 1/2-x,1/2+y,1/2-z
3 -x,-y,-z
4 -1/2+x,-1/2-y,-1/2+z
_cell_length_a 10.3988(6)
_cell_length_b 8.1074(4)
_cell_length_c 16.7122(10)
_cell_angle_alpha 90
_cell_angle_beta 90.321(2)
_cell_angle_gamma 90
_cell_formula_units_Z 4
loop_
_atom_type_symbol
_atom_type_radius_bond
C 0.68
H 0.23
N 0.68
O 0.68
loop_
_atom_site_label
_atom_site_type_symbol
_atom_site_fract_x
_atom_site_fract_y
_atom_site_fract_z
C1 C 0.62855(10) 0.63196(12) 0.25085(6)
C2 C 0.64522(11) 0.72202(13) 0.32087(7)
H1 H 0.72320 0.77880 0.33220
C3 C 0.54254(10) 0.72503(13) 0.37347(6)
H2 H 0.54990 0.78720 0.42150
C4 C 0.42882(10) 0.63927(12) 0.35788(6)
C5 C 0.41895(10) 0.53635(12) 0.28927(5)
C6 C 0.52007(10) 0.53953(12) 0.23415(6)
H3 H 0.51400 0.47860 0.18570
C7 C 0.3174(1) 0.65453(12) 0.41265(6)
C8 C 0.32919(13) 0.60818(18) 0.49910(6)
H4 H 0.27530 0.68160 0.53130
H5 H 0.41910 0.61880 0.51630
H6 H 0.30090 0.49390 0.50630
C9 C 0.00160(12) 0.61904(15) 0.38136(8)
H7 H -0.03810 0.71020 0.35050
H8 H -0.06480 0.57390 0.41750
C10 C 0.04354(11) 0.48350(15) 0.32316(7)
H9 H -0.03400 0.42750 0.30180
H10 H 0.08860 0.53510 0.27750
C11 C 0.13079(11) 0.35645(13) 0.36074(6)
C12 C 0.08428(12) 0.25320(15) 0.42118(7)
H11 H -0.00280 0.26320 0.43730
C13 C 0.16224(15) 0.13647(15) 0.45825(7)
H12 H 0.12830 0.06770 0.49900
C14 C 0.28940(14) 0.12079(14) 0.43557(7)
H13 H 0.34310 0.04110 0.46070
C15 C 0.33859(12) 0.22223(13) 0.37568(7)
H14 H 0.42610 0.21210 0.36030
C16 C 0.25936(11) 0.33909(12) 0.33810(6)
N1 N 0.7319(1) 0.63547(12) 0.19107(6)
N2 N 0.21341(9) 0.69929(11) 0.37729(6)
N3 N 0.31246(9) 0.43712(11) 0.27443(5)
H15 H 0.27760 0.43420 0.22630
O1 O 0.83118(11) 0.70999(18) 0.20752(7)
O2 O 0.71413(10) 0.56475(12) 0.12709(6)
O3 O 0.10601(8) 0.68409(11) 0.42892(5)
#END
