
#######################################################################
#
#                 Cambridge Crystallographic Data Centre
#                                CCDC
#
#######################################################################
#
# If this CIF has been generated from an entry in the Cambridge
# Structural Database, then it will include bibliographic, chemical,
# crystal, experimental, refinement or atomic coordinate data resulting
# from the CCDC's data processing and validation procedures.
#
#######################################################################

data_CSD_CIF_YEBDOA
_audit_creation_date 2013-01-14
_audit_creation_method CSD-ConQuest-V1
_database_code_CSD YEBDOA
_database_code_depnum_ccdc_archive 'CCDC 869857'
_chemical_formula_sum 'C16 H16 N2 O1'
_chemical_formula_moiety
;
C16 H16 N2 O1
;
_journal_coden_Cambridge 119
_journal_volume 1024
_journal_year 2012
_journal_page_first 65
_journal_name_full 'J.Mol.Struct. '
loop_
_publ_author_name
"Y.Kaya"
"V.T.Yilmaz"
"T.Arslan"
"O.Buyukgungor"
_chemical_name_systematic
;
N-(2-(Hydroxyimino)-1-phenylethylidene)-1-phenylethanamine
;
_cell_volume   1417.380
_exptl_crystal_colour 'colorless'
_exptl_crystal_density_diffrn 1.182
_exptl_crystal_description 'prism'
_diffrn_ambient_temperature 298
#These two values have been output from a single CSD field.
_refine_ls_R_factor_gt 0.0395
_refine_ls_wR_factor_gt 0.0395
_symmetry_cell_setting monoclinic
_symmetry_space_group_name_H-M 'P 21/c'
_symmetry_Int_Tables_number 14
loop_
_symmetry_equiv_pos_site_id
_symmetry_equiv_pos_as_xyz
1 x,y,z
2 -x,1/2+y,1/2-z
3 -x,-y,-z
4 x,-1/2-y,-1/2+z
_cell_length_a 12.3416(7)
_cell_length_b 9.5990(6)
_cell_length_c 11.9750(7)
_cell_angle_alpha 90
_cell_angle_beta 92.417(4)
_cell_angle_gamma 90
_cell_formula_units_Z 4
loop_
_atom_type_symbol
_atom_type_radius_bond
C 0.68
H 0.23
N 0.68
O 0.68
loop_
_atom_site_label
_atom_site_type_symbol
_atom_site_fract_x
_atom_site_fract_y
_atom_site_fract_z
C1 C 0.83430(11) 0.43974(12) 0.43024(12)
C2 C 0.90534(12) 0.36569(15) 0.50047(15)
H1 H 0.89610 0.36700 0.57710
C3 C 0.98952(15) 0.29014(18) 0.4586(3)
H2 H 1.03570 0.24020 0.50720
C4 C 1.00563(17) 0.2880(2) 0.3473(3)
H3 H 1.06220 0.23610 0.31960
C5 C 0.93753(17) 0.3635(3) 0.2752(2)
H4 H 0.94870 0.36370 0.19890
C6 C 0.85242(14) 0.43875(19) 0.31744(15)
H5 H 0.80680 0.48940 0.26880
C7 C 0.74323(11) 0.52415(12) 0.47690(11)
H6 H 0.77150 0.61610 0.49860
C8 C 0.69104(16) 0.45912(18) 0.57723(13)
H7 H 0.65970 0.37100 0.55610
H8 H 0.63540 0.51990 0.60270
H9 H 0.74510 0.44540 0.63620
C9 C 0.62141(10) 0.66420(12) 0.36359(10)
C10 C 0.53121(10) 0.67157(12) 0.28077(10)
H10 H 0.50090 0.59070 0.25020
C11 C 0.66535(10) 0.79789(11) 0.41054(10)
C12 C 0.61895(14) 0.86053(15) 0.49921(13)
H11 H 0.55930 0.81960 0.53090
C13 C 0.66009(18) 0.98421(18) 0.54206(17)
H12 H 0.62830 1.02600 0.60260
C14 C 0.74651(17) 1.04463(16) 0.49609(17)
H13 H 0.77460 1.12720 0.52580
C15 C 0.79265(16) 0.98506(18) 0.40637(19)
H14 H 0.85140 1.02770 0.37430
C16 C 0.75186(13) 0.86067(15) 0.36291(15)
H15 H 0.78320 0.82000 0.30160
N1 N 0.65639(9) 0.54273(9) 0.39041(9)
N2 N 0.49472(8) 0.79077(10) 0.25106(9)
O1 O 0.41020(9) 0.77893(10) 0.17223(9)
H16 H 0.3940(16) 0.866(2) 0.1539(17)
#END
