
#######################################################################
#
#                 Cambridge Crystallographic Data Centre
#                                CCDC
#
#######################################################################
#
# If this CIF has been generated from an entry in the Cambridge
# Structural Database, then it will include bibliographic, chemical,
# crystal, experimental, refinement or atomic coordinate data resulting
# from the CCDC's data processing and validation procedures.
#
#######################################################################

data_CSD_CIF_YEHROV
_audit_creation_date 2017-09-18
_audit_creation_method CSD-ConQuest-V1
_database_code_CSD YEHROV
_database_code_depnum_ccdc_archive 'CCDC 1003266'
_chemical_formula_sum 'C22 H14 N4 O4'
_chemical_formula_moiety
;
C22 H14 N4 O4
;
_journal_coden_Cambridge 440
_journal_volume 41
_journal_year 2017
_journal_page_first 11881
_journal_name_full 'New J.Chem. '
loop_
_publ_author_name
"T.Guerrero"
"R.Santillan"
"H.Garcia-Ortega"
"O.G.Morales-Saavedra"
"N.Farfan"
"P.G.Lacroix"
_chemical_name_systematic
;
2,2'-(1,4-phenylenediethyne-2,1-diyl)bis(4-nitroaniline)
;
_cell_volume    464.894
_exptl_crystal_colour 'colorless'
_exptl_crystal_density_diffrn 1.423
_exptl_special_details
;
ONL

;
_exptl_crystal_description 'prism'
_exptl_crystal_preparation 'Sublimation'
_diffrn_ambient_temperature 133
#These two values have been output from a single CSD field.
_refine_ls_R_factor_gt 0.0511
_refine_ls_wR_factor_gt 0.0511
_symmetry_cell_setting triclinic
_symmetry_space_group_name_H-M 'P -1'
_symmetry_Int_Tables_number 2
loop_
_symmetry_equiv_pos_site_id
_symmetry_equiv_pos_as_xyz
1 x,y,z
2 -x,-y,-z
_cell_length_a 4.4715(5)
_cell_length_b 6.6057(7)
_cell_length_c 16.7243(18)
_cell_angle_alpha 101.339(9)
_cell_angle_beta 91.268(9)
_cell_angle_gamma 105.658(10)
_cell_formula_units_Z 1
loop_
_atom_type_symbol
_atom_type_radius_bond
C 0.68
H 0.23
N 0.68
O 0.68
loop_
_atom_site_label
_atom_site_type_symbol
_atom_site_fract_x
_atom_site_fract_y
_atom_site_fract_z
C1 C 0.1489(5) 0.9108(3) 0.23696(12)
C2 C 0.2941(5) 0.7493(3) 0.23603(13)
H1 H 0.36660 0.72400 0.28600
C3 C 0.3328(4) 0.6257(3) 0.16238(12)
C4 C 0.2327(5) 0.6598(3) 0.08816(13)
H2 H 0.26580 0.57510 0.03810
C5 C 0.0854(4) 0.8173(3) 0.08799(12)
H3 H 0.01560 0.84070 0.03740
C6 C 0.0368(4) 0.9441(3) 0.16172(13)
C7 C 0.1077(5) 1.0482(4) 0.31074(13)
C8 C 0.0670(5) 1.1765(4) 0.36801(13)
C9 C 0.0302(5) 1.3383(4) 0.43524(13)
C10 C -0.0929(5) 1.5030(4) 0.42081(14)
H4 H -0.15640 1.50520 0.36650
C11 C 0.1229(5) 1.3377(4) 0.51509(13)
H5 H 0.20720 1.22720 0.52570
N1 N -0.1104(4) 1.0983(3) 0.16162(14)
N2 N 0.4831(4) 0.4566(3) 0.16186(11)
O1 O 0.5126(3) 0.3459(2) 0.09487(9)
O2 O 0.5754(3) 0.4285(2) 0.22809(9)
H6 H -0.157(5) 1.166(4) 0.2083(15)
H7 H -0.204(5) 1.111(4) 0.1137(15)
C1A C -0.1489(5) 2.0892(3) 0.76304(12)
C2A C -0.2941(5) 2.2507(3) 0.76397(13)
H1A H -0.36660 2.27600 0.71400
C3A C -0.3328(4) 2.3743(3) 0.83762(12)
C4A C -0.2327(5) 2.3402(3) 0.91184(13)
H2A H -0.26580 2.42490 0.96190
C5A C -0.0854(4) 2.1827(3) 0.91201(12)
H3A H -0.01560 2.15930 0.96260
C6A C -0.0368(4) 2.0559(3) 0.83828(13)
C7A C -0.1077(5) 1.9518(4) 0.68926(13)
C8A C -0.0670(5) 1.8235(4) 0.63199(13)
C9A C -0.0302(5) 1.6617(4) 0.56476(13)
C10A C 0.0929(5) 1.4970(4) 0.57919(14)
H4A H 0.15640 1.49480 0.63350
C11A C -0.1229(5) 1.6623(4) 0.48491(13)
H5A H -0.20720 1.77280 0.47430
N1A N 0.1104(4) 1.9017(3) 0.83838(14)
N2A N -0.4831(4) 2.5434(3) 0.83814(11)
O1A O -0.5126(3) 2.6541(2) 0.90513(9)
O2A O -0.5754(3) 2.5715(2) 0.77191(9)
H6A H 0.157(5) 1.834(4) 0.7917(15)
H7A H 0.204(5) 1.889(4) 0.8863(15)
#END
