
#######################################################################
#
#                 Cambridge Crystallographic Data Centre
#                                CCDC
#
#######################################################################
#
# If this CIF has been generated from an entry in the Cambridge
# Structural Database, then it will include bibliographic, chemical,
# crystal, experimental, refinement or atomic coordinate data resulting
# from the CCDC's data processing and validation procedures.
#
#######################################################################

data_CSD_CIF_YELKEI
_audit_creation_date 2018-01-25
_audit_creation_method CSD-ConQuest-V1
_database_code_CSD YELKEI
_database_code_depnum_ccdc_archive 'CCDC 1577308'
_chemical_formula_sum 'C8 H7 N3 O3'
_chemical_formula_moiety
;
C8 H7 N3 O3
;
_journal_coden_Cambridge 1267
_journal_volume 232
_journal_year 2017
_journal_page_first 1043
_journal_name_full 'Z.Kristallogr.-New Cryst.Struct. '
loop_
_publ_author_name
"Minxia Yu"
_chemical_name_systematic
;
(3-oxido-1H-1,2,3-benzotriazol-1-yl)acetic acid
;
_cell_volume    842.833
_exptl_crystal_colour 'colorless'
_exptl_crystal_density_diffrn 1.522
_exptl_crystal_description 'block'
_diffrn_ambient_temperature 293
#These two values have been output from a single CSD field.
_refine_ls_R_factor_gt 0.0375
_refine_ls_wR_factor_gt 0.0375
_symmetry_cell_setting monoclinic
_symmetry_space_group_name_H-M 'P 21/c'
_symmetry_Int_Tables_number 14
loop_
_symmetry_equiv_pos_site_id
_symmetry_equiv_pos_as_xyz
1 x,y,z
2 -x,1/2+y,1/2-z
3 -x,-y,-z
4 x,-1/2-y,-1/2+z
_cell_length_a 7.2526(12)
_cell_length_b 10.0770(18)
_cell_length_c 11.906(2)
_cell_angle_alpha 90
_cell_angle_beta 104.393(3)
_cell_angle_gamma 90
_cell_formula_units_Z 4
loop_
_atom_type_symbol
_atom_type_radius_bond
C 0.68
H 0.23
N 0.68
O 0.68
loop_
_atom_site_label
_atom_site_type_symbol
_atom_site_fract_x
_atom_site_fract_y
_atom_site_fract_z
C1 C 0.7606(2) 0.00246(17) 0.86168(14)
C2 C 0.7214(3) -0.12802(19) 0.88667(17)
H1 H 0.70500 -0.19530 0.83160
C3 C 0.7088(3) -0.1504(2) 0.99762(18)
H2 H 0.68220 -0.23570 1.01890
C4 C 0.7348(3) -0.0484(2) 1.08055(18)
H3 H 0.72450 -0.06870 1.15500
C5 C 0.7745(3) 0.0796(2) 1.05629(16)
H4 H 0.79130 0.14660 1.11170
C6 C 0.7883(2) 0.10338(17) 0.94307(15)
C7 C 0.8661(3) 0.34894(18) 0.92805(18)
H5 H 0.96410 0.38680 0.89530
H6 H 0.91380 0.34860 1.01170
C8 C 0.6915(3) 0.43563(18) 0.89612(15)
N1 N 0.7873(2) 0.06056(15) 0.76254(12)
N2 N 0.8291(2) 0.18682(15) 0.77669(13)
N3 N 0.8311(2) 0.21316(14) 0.88787(13)
O1 O 0.77648(19) 0.00258(14) 0.66317(11)
O2 O 0.53514(19) 0.37066(13) 0.89260(13)
H7 H 0.44470 0.42210 0.87770
O3 O 0.7021(2) 0.55186(14) 0.87779(14)
#END
