
#######################################################################
#
#                 Cambridge Crystallographic Data Centre
#                                CCDC
#
#######################################################################
#
# If this CIF has been generated from an entry in the Cambridge
# Structural Database, then it will include bibliographic, chemical,
# crystal, experimental, refinement or atomic coordinate data resulting
# from the CCDC's data processing and validation procedures.
#
#######################################################################

data_CSD_CIF_YERBIG
_audit_creation_date 1995-05-18
_audit_creation_method CSD-ConQuest-V1
_database_code_CSD YERBIG
_chemical_formula_sum 'C10 H15 N1 O5'
_chemical_formula_moiety
;
C10 H15 N1 O5
;
_journal_coden_Cambridge 24
_journal_volume 35
_journal_year 1994
_journal_page_first 9185
_journal_name_full 'Tetrahedron Lett. '
loop_
_publ_author_name
"H.Koyama"
"R.G.Ball"
"G.D.Berger"
_chemical_name_systematic
;
7-Hydroxy-5-methyl-1-methoxycarbonyl-2-oximo-1,5-epoxycyclo-octane
;
_chemical_melting_point 463.15
_cell_volume   1095.424
_exptl_crystal_density_diffrn 1.39
_diffrn_ambient_temperature ?
_diffrn_special_details
;
The study was carried out at room temperature,in the range 283-303K

;
#These two values have been output from a single CSD field.
_refine_ls_R_factor_gt 0.046
_refine_ls_wR_factor_gt 0.046
_symmetry_cell_setting monoclinic
_symmetry_space_group_name_H-M 'P 21/c'
_symmetry_Int_Tables_number 14
loop_
_symmetry_equiv_pos_site_id
_symmetry_equiv_pos_as_xyz
1 x,y,z
2 -x,1/2+y,1/2-z
3 -x,-y,-z
4 x,-1/2-y,-1/2+z
_cell_length_a 7.949(9)
_cell_length_b 11.076(2)
_cell_length_c 12.551(3)
_cell_angle_alpha 90
_cell_angle_beta 97.56(1)
_cell_angle_gamma 90
_cell_formula_units_Z 4
loop_
_atom_type_symbol
_atom_type_radius_bond
C 0.68
H 0.23
N 0.68
O 0.68
loop_
_atom_site_label
_atom_site_type_symbol
_atom_site_fract_x
_atom_site_fract_y
_atom_site_fract_z
O1 O 0.0726(2) 0.1350(2) 0.6290(2)
O2 O 0.1758(3) 0.5072(2) 0.7626(2)
O3 O 0.1978(3) 0.3575(2) 0.4494(2)
O4 O -0.2395(3) 0.2363(2) 0.6168(2)
O5 O -0.1710(3) 0.3594(2) 0.4885(2)
N1 N 0.0702(3) 0.4331(2) 0.6917(2)
C1 C 0.2493(4) 0.1044(3) 0.6188(3)
C2 C 0.3598(4) 0.1709(3) 0.7073(3)
C3 C 0.3310(4) 0.3076(3) 0.7009(3)
C4 C 0.1500(4) 0.3407(3) 0.6649(2)
C5 C 0.0520(3) 0.2544(2) 0.5862(2)
C6 C 0.1321(4) 0.2457(3) 0.4800(2)
C7 C 0.2728(4) 0.1526(3) 0.5067(3)
C8 C 0.2656(5) -0.0318(3) 0.6297(4)
C9 C -0.1359(4) 0.2813(3) 0.5689(2)
C10 C -0.3478(5) 0.3867(4) 0.4573(4)
H1 H 0.47550 0.15440 0.70140
H2 H 0.33390 0.14260 0.77480
H3 H 0.39940 0.34050 0.65130
H4 H 0.36420 0.34150 0.77000
H5 H 0.05150 0.22430 0.42020
H6 H 0.26120 0.08870 0.45570
H7 H 0.38110 0.18890 0.50810
H8 H 0.28300 -0.05290 0.70370
H9 H 0.16440 -0.06880 0.59610
H10 H 0.35900 -0.05870 0.59610
H11 H -0.40200 0.39670 0.51950
H12 H -0.35800 0.45810 0.41550
H13 H -0.39980 0.32130 0.41550
H14 H 0.12810 0.55960 0.81040
H15 H 0.12660 0.41250 0.40650
#END
