
#######################################################################
#
#                 Cambridge Crystallographic Data Centre
#                                CCDC
#
#######################################################################
#
# If this CIF has been generated from an entry in the Cambridge
# Structural Database, then it will include bibliographic, chemical,
# crystal, experimental, refinement or atomic coordinate data resulting
# from the CCDC's data processing and validation procedures.
#
#######################################################################

data_CSD_CIF_YETTUP
_audit_creation_date 2018-01-30
_audit_creation_method CSD-ConQuest-V1
_database_code_CSD YETTUP
_database_code_depnum_ccdc_archive 'CCDC 1042077'
_chemical_formula_sum 'C21 H18 N2 O3'
_chemical_formula_moiety
;
C21 H18 N2 O3
;
_journal_coden_Cambridge 2020
_journal_volume 3
_journal_year 2018
_journal_page_first 946
_journal_name_full 'Chem. Sel. '
loop_
_publ_author_name
"T.Shah"
"W.Raza"
"M.Muneer"
"N.A.Mir"
"M.Ahmad"
_chemical_name_systematic
;
2-((3,5-dimethyl-1,2-oxazol-4-yl)amino)-1,4-diphenylbut-2-ene-1,4-dione
;
_cell_volume   1771.749
_exptl_crystal_colour 'green'
_exptl_crystal_density_diffrn 1.299
_exptl_crystal_description 'Block'
_diffrn_ambient_temperature 100
#These two values have been output from a single CSD field.
_refine_ls_R_factor_gt 0.0537
_refine_ls_wR_factor_gt 0.0537
_symmetry_cell_setting monoclinic
_symmetry_space_group_name_H-M 'P 21/c'
_symmetry_Int_Tables_number 14
loop_
_symmetry_equiv_pos_site_id
_symmetry_equiv_pos_as_xyz
1 x,y,z
2 -x,1/2+y,1/2-z
3 -x,-y,-z
4 x,-1/2-y,-1/2+z
_cell_length_a 9.886(5)
_cell_length_b 15.266(5)
_cell_length_c 11.740(5)
_cell_angle_alpha 90
_cell_angle_beta 90.423(5)
_cell_angle_gamma 90
_cell_formula_units_Z 4
loop_
_atom_type_symbol
_atom_type_radius_bond
C 0.68
H 0.23
N 0.68
O 0.68
loop_
_atom_site_label
_atom_site_type_symbol
_atom_site_fract_x
_atom_site_fract_y
_atom_site_fract_z
C1 C 0.1510(2) 0.06496(15) 0.32263(19)
C2 C 0.2843(2) 0.05703(14) 0.29647(18)
C3 C 0.2871(2) 0.00601(15) 0.19562(18)
C4 C 0.0778(3) 0.11040(18) 0.4158(2)
H1 H -0.01780 0.10170 0.40620
H2 H 0.09760 0.17190 0.41330
H3 H 0.10620 0.08690 0.48800
C5 C 0.4082(2) -0.02281(16) 0.1308(2)
H4 H 0.37990 -0.05650 0.06580
H5 H 0.46490 -0.05820 0.17910
H6 H 0.45780 0.02760 0.10590
C6 C 0.4493(2) 0.17173(15) 0.33808(18)
C7 C 0.3893(2) 0.22371(15) 0.23917(19)
C8 C 0.3334(2) 0.31184(15) 0.26298(19)
C9 C 0.2909(2) 0.33625(16) 0.37180(19)
H7 H 0.29900 0.29710 0.43210
C10 C 0.2366(2) 0.41873(17) 0.3898(2)
H8 H 0.20680 0.43450 0.46190
C11 C 0.2268(2) 0.47771(17) 0.3003(2)
H9 H 0.19150 0.53330 0.31280
C12 C 0.2693(2) 0.45423(17) 0.1919(2)
H10 H 0.26310 0.49410 0.13220
C13 C 0.3209(2) 0.37141(16) 0.1731(2)
H11 H 0.34750 0.35520 0.10030
C14 C 0.5570(2) 0.20758(16) 0.3945(2)
C15 C 0.6350(2) 0.16311(14) 0.48090(18)
C16 C 0.7583(2) 0.20696(14) 0.53012(18)
C17 C 0.8220(2) 0.16892(16) 0.62417(19)
H12 H 0.78520 0.11880 0.65660
C18 C 0.9396(2) 0.20466(17) 0.6704(2)
H13 H 0.98150 0.17820 0.73270
C19 C 0.9941(2) 0.27989(15) 0.6232(2)
H14 H 1.07290 0.30380 0.65360
C20 C 0.9312(2) 0.31955(16) 0.5307(2)
H15 H 0.96720 0.37050 0.49990
C21 C 0.8143(2) 0.28317(15) 0.4839(2)
H16 H 0.77300 0.30970 0.42140
N1 N 0.16514(18) -0.01521(12) 0.16270(15)
N2 N 0.39698(19) 0.09105(12) 0.35737(16)
O1 O 0.07606(15) 0.02266(11) 0.24430(14)
O2 O 0.39392(18) 0.19332(11) 0.14344(14)
O3 O 0.60215(16) 0.08864(10) 0.51545(13)
H17 H 0.438(3) 0.058(2) 0.412(3)
H18 H 0.582(2) 0.2688(17) 0.374(2)
#END
