
#######################################################################
#
#                 Cambridge Crystallographic Data Centre
#                                CCDC
#
#######################################################################
#
# If this CIF has been generated from an entry in the Cambridge
# Structural Database, then it will include bibliographic, chemical,
# crystal, experimental, refinement or atomic coordinate data resulting
# from the CCDC's data processing and validation procedures.
#
#######################################################################

data_CSD_CIF_YEYTIG
_audit_creation_date 2007-04-11
_audit_creation_method CSD-ConQuest-V1
_database_code_CSD YEYTIG
_database_code_depnum_ccdc_archive 'CCDC 636847'
_chemical_formula_sum 'C19 H13 N3 O6'
_chemical_formula_moiety
;
C19 H13 N3 O6
;
_journal_coeditor_code "IUCr YM2044"
_journal_coden_Cambridge 1370
_journal_volume 63
_journal_year 2007
_journal_page_first o476
_journal_name_full 'Acta Crystallogr.,Sect.E:Struct.Rep.Online '
loop_
_publ_author_name
"M.S.Butt"
"Z.Akhter"
"M.Bolte"
"H.M.Siddiqui"
"E.Shamsi"
_chemical_name_systematic
;
4-Nitro-N-(4-(4-nitrophenoxy)phenyl)benzamide
;
_chemical_melting_point 491
_cell_volume   1678.567
_exptl_crystal_colour 'light brown'
_exptl_crystal_density_diffrn 1.501
_exptl_crystal_description 'rod'
_exptl_crystal_preparation 'toluene'
_diffrn_ambient_temperature 173
#These two values have been output from a single CSD field.
_refine_ls_R_factor_gt 0.029
_refine_ls_wR_factor_gt 0.029
_symmetry_cell_setting orthorhombic
_symmetry_space_group_name_H-M 'P 21 21 21'
_symmetry_Int_Tables_number 19
loop_
_symmetry_equiv_pos_site_id
_symmetry_equiv_pos_as_xyz
1 x,y,z
2 1/2-x,-y,1/2+z
3 -x,1/2+y,1/2-z
4 1/2+x,1/2-y,-z
_cell_length_a 5.0815(2)
_cell_length_b 13.5782(8)
_cell_length_c 24.3279(12)
_cell_angle_alpha 90
_cell_angle_beta 90
_cell_angle_gamma 90
_cell_formula_units_Z 4
loop_
_atom_type_symbol
_atom_type_radius_bond
C 0.68
H 0.23
N 0.68
O 0.68
loop_
_atom_site_label
_atom_site_type_symbol
_atom_site_fract_x
_atom_site_fract_y
_atom_site_fract_z
N1 N 0.5383(3) 0.50065(11) 0.32605(5)
O1 O 0.3305(3) 0.54604(14) 0.32297(6)
O2 O 0.6715(4) 0.4769(1) 0.28625(4)
C1 C 0.8533(3) 0.36481(10) 0.53873(6)
O3 O 1.0812(2) 0.33727(9) 0.54683(4)
N2 N 0.6592(3) 0.3617(1) 0.57693(5)
H1 H 0.507(5) 0.3762(17) 0.5662(9)
O4 O 0.7498(3) 0.28587(10) 0.80199(4)
N3 N -0.0228(3) 0.10357(9) 0.92925(5)
O5 O -0.1695(3) 0.04335(9) 0.90759(5)
O6 O -0.0415(3) 0.12776(10) 0.97780(5)
C2 C 0.6300(3) 0.47200(11) 0.38129(6)
C3 C 0.8459(3) 0.41023(11) 0.38582(5)
H2 H 0.94290 0.39090 0.35420
C4 C 0.9163(3) 0.37747(10) 0.43768(6)
H3 H 1.06450 0.33550 0.44200
C5 C 0.7707(3) 0.40576(10) 0.48373(5)
C6 C 0.5611(3) 0.47130(11) 0.47812(6)
H4 H 0.46770 0.49310 0.50970
C7 C 0.4890(3) 0.50474(11) 0.42628(6)
H5 H 0.34600 0.54910 0.42190
C8 C 0.6845(3) 0.33624(10) 0.63336(5)
C9 C 0.8846(3) 0.27623(12) 0.65337(6)
H6 H 1.01080 0.24890 0.62890
C10 C 0.8987(3) 0.25635(12) 0.70980(6)
H7 H 1.03470 0.21550 0.72390
C11 C 0.7140(3) 0.29648(12) 0.74487(6)
C12 C 0.5098(3) 0.35383(12) 0.72519(6)
H8 H 0.38100 0.37940 0.74960
C13 C 0.4950(3) 0.37369(11) 0.66923(6)
H9 H 0.35530 0.41290 0.65530
C14 C 0.5567(3) 0.23850(11) 0.83140(5)
C15 C 0.5257(4) 0.26777(12) 0.88616(6)
H10 H 0.63310 0.31850 0.90100
C16 C 0.3384(4) 0.22261(11) 0.91845(6)
H11 H 0.31510 0.24170 0.95570
C17 C 0.1841(3) 0.14874(10) 0.89559(5)
C18 C 0.2166(3) 0.11743(11) 0.84176(6)
H12 H 0.11040 0.06610 0.82720
C19 C 0.4075(3) 0.16259(11) 0.80950(5)
H13 H 0.43540 0.14160 0.77270
#END
