
#######################################################################
#
#                 Cambridge Crystallographic Data Centre
#                                CCDC
#
#######################################################################
#
# If this CIF has been generated from an entry in the Cambridge
# Structural Database, then it will include bibliographic, chemical,
# crystal, experimental, refinement or atomic coordinate data resulting
# from the CCDC's data processing and validation procedures.
#
#######################################################################

data_CSD_CIF_YIBGIZ
_audit_creation_date 1995-07-20
_audit_creation_method CSD-ConQuest-V1
_database_code_CSD YIBGIZ
_chemical_formula_sum 'C10 H15 N1 O3'
_chemical_formula_moiety
;
C10 H15 N1 O3
;
_journal_coden_Cambridge 1003
_journal_volume 24
_journal_year 1994
_journal_page_first 503
_journal_name_full 'J.Chem.Cryst. '
loop_
_publ_author_name
"K.Burak"
"Z.Ciunik"
"T.Glowiak"
_chemical_name_systematic
;
rac-2\a-Hydroxy-4-hydroxyiminopinan-3-one
;
_cell_volume    980.637
_exptl_crystal_colour 'pale yellow'
_exptl_crystal_density_diffrn 1.336
_diffrn_ambient_temperature ?
_diffrn_special_details
;
The study was carried out at room temperature,in the range 283-303K

;
#These two values have been output from a single CSD field.
_refine_ls_R_factor_gt 0.037
_refine_ls_wR_factor_gt 0.037
_symmetry_cell_setting monoclinic
_symmetry_space_group_name_H-M 'P 21/c'
_symmetry_Int_Tables_number 14
loop_
_symmetry_equiv_pos_site_id
_symmetry_equiv_pos_as_xyz
1 x,y,z
2 -x,1/2+y,1/2-z
3 -x,-y,-z
4 x,-1/2-y,-1/2+z
_cell_length_a 7.838(2)
_cell_length_b 10.776(3)
_cell_length_c 12.025(3)
_cell_angle_alpha 90
_cell_angle_beta 105.09(1)
_cell_angle_gamma 90
_cell_formula_units_Z 4
loop_
_atom_type_symbol
_atom_type_radius_bond
C 0.68
H 0.23
N 0.68
O 0.68
loop_
_atom_site_label
_atom_site_type_symbol
_atom_site_fract_x
_atom_site_fract_y
_atom_site_fract_z
O1 O 0.34569(1) 0.05423(9) 0.09687(8)
O2 O 0.04050(12) -0.12604(9) 0.06597(8)
O3 O -0.30232(12) 0.09318(10) 0.18621(9)
N1 N -0.19601(13) 0.0196(1) 0.13671(9)
C1 C 0.31877(15) 0.07027(11) 0.28836(10)
C2 C 0.29138(14) -0.01610(11) 0.1841(1)
C3 C 0.09156(15) -0.04683(10) 0.13832(10)
C4 C -0.03217(14) 0.02751(11) 0.18992(10)
C5 C 0.05259(15) 0.10650(12) 0.29181(11)
C6 C 0.2077(2) 0.03361(12) 0.37464(10)
C7 C 0.1956(2) 0.18433(12) 0.25424(12)
C8 C 0.1762(2) -0.1019(2) 0.40025(13)
C9 C 0.2757(2) 0.1029(2) 0.48920(13)
C10 C 0.3990(2) -0.13535(13) 0.20623(13)
H1 H 0.4460(23) 0.0852(15) 0.3188(14)
H2 H 0.2872(30) 0.0283(20) 0.0302(19)
H3 H -0.4173(30) 0.0732(19) 0.1439(18)
H4 H -0.0320(22) 0.1486(15) 0.3268(14)
H5 H 0.2334(24) 0.2558(18) 0.3072(15)
H6 H 0.1672(22) 0.2111(15) 0.1713(14)
H7 H 0.0967(31) -0.1064(20) 0.4529(19)
H8 H 0.1251(26) -0.1537(18) 0.3276(17)
H9 H 0.2906(28) -0.1430(18) 0.4417(18)
H10 H 0.3921(33) 0.0762(20) 0.5294(18)
H11 H 0.2003(33) 0.0943(20) 0.540(2)
H12 H 0.2874(35) 0.1928(24) 0.4759(21)
H13 H 0.5247(28) -0.1167(18) 0.2310(17)
H14 H 0.3759(26) -0.1833(18) 0.1309(16)
H15 H 0.3669(27) -0.1856(19) 0.2626(18)
#END
