
#######################################################################
#
#                 Cambridge Crystallographic Data Centre
#                                CCDC
#
#######################################################################
#
# If this CIF has been generated from an entry in the Cambridge
# Structural Database, then it will include bibliographic, chemical,
# crystal, experimental, refinement or atomic coordinate data resulting
# from the CCDC's data processing and validation procedures.
#
#######################################################################

data_CSD_CIF_YICRIN
_audit_creation_date 2013-06-16
_audit_creation_method CSD-ConQuest-V1
_database_code_CSD YICRIN
_database_code_depnum_ccdc_archive 'CCDC 928334'
_chemical_formula_sum 'C20 H18 N2 O5'
_chemical_formula_moiety
;
C20 H18 N2 O5
;
_journal_coden_Cambridge 1500
_journal_volume 3
_journal_year 2013
_journal_page_first 10644
_journal_name_full 'RSC Advances '
loop_
_publ_author_name
"P.K.Jaiswal"
"S.Biswas"
"Shivendra Singh"
"B.Pathak"
"S.M.Mobin"
"S.Samanta"
_chemical_name_systematic
;
Methyl 
4-hydroxy-3-nitro-2-phenyl-2,3,4,9-tetrahydro-1H-carbazole-1-carboxylate
;
_cell_volume   1753.320
_exptl_crystal_colour 'colorless'
_exptl_crystal_density_diffrn 1.384
_exptl_crystal_description 'block'
_diffrn_ambient_temperature 150
#These two values have been output from a single CSD field.
_refine_ls_R_factor_gt 0.0962
_refine_ls_wR_factor_gt 0.0962
loop_
_citation_database_id_CSD
_citation_special_details
YICREJ "is a stereoisomer of this entry"
_symmetry_cell_setting monoclinic
_symmetry_space_group_name_H-M 'P 21/c'
_symmetry_Int_Tables_number 14
loop_
_symmetry_equiv_pos_site_id
_symmetry_equiv_pos_as_xyz
1 x,y,z
2 -x,1/2+y,1/2-z
3 -x,-y,-z
4 x,-1/2-y,-1/2+z
_cell_length_a 9.0098(8)
_cell_length_b 11.0194(11)
_cell_length_c 18.008(2)
_cell_angle_alpha 90
_cell_angle_beta 101.284(10)
_cell_angle_gamma 90
_cell_formula_units_Z 4
loop_
_atom_type_symbol
_atom_type_radius_bond
C 0.68
H 0.23
N 0.68
O 0.68
loop_
_atom_site_label
_atom_site_type_symbol
_atom_site_fract_x
_atom_site_fract_y
_atom_site_fract_z
O1 O 0.7792(4) 0.5434(3) 0.9185(4)
O2 O 0.9973(4) 0.2993(4) 0.9385(3)
O3 O 0.9172(4) 0.3238(4) 0.8202(3)
O4 O 0.3750(5) 0.1433(4) 0.7718(2)
O5 O 0.2537(4) 0.1312(3) 0.8663(2)
N1 N 0.8971(4) 0.3146(3) 0.8850(3)
N2 N 0.2914(4) 0.4014(3) 0.8964(2)
H1 H 0.21520 0.35340 0.90010
C1 C 0.6897(4) 0.4547(4) 0.8865(3)
H2 H 0.68850 0.46580 0.83130
C2 C 0.7401(5) 0.3263(4) 0.9005(4)
H3 H 0.75190 0.31490 0.95650
C3 C 0.6402(5) 0.2282(4) 0.8670(3)
H4 H 0.61890 0.24420 0.81130
C4 C 0.4848(4) 0.2339(4) 0.8909(3)
H5 H 0.49440 0.19790 0.94260
C5 C 0.4372(4) 0.3647(4) 0.8934(2)
C6 C 0.5267(4) 0.4630(3) 0.8911(2)
C7 C 0.7059(4) 0.1008(3) 0.8762(3)
C8 C 0.7481(6) 0.0430(5) 0.9443(3)
H6 H 0.74040 0.08440 0.98970
C9 C 0.8017(7) -0.0748(5) 0.9479(4)
H7 H 0.83150 -0.11380 0.99550
C10 C 0.8118(6) -0.1349(4) 0.8831(4)
H8 H 0.84540 -0.21670 0.88520
C11 C 0.7735(6) -0.0773(5) 0.8155(4)
H9 H 0.78340 -0.11830 0.77030
C12 C 0.7210(5) 0.0390(5) 0.8117(3)
H10 H 0.69440 0.07790 0.76390
C13 C 0.3697(5) 0.1638(4) 0.8370(3)
C14 C 0.1274(6) 0.0720(5) 0.8184(4)
H11 H 0.08510 0.12550 0.77610
H12 H 0.04950 0.05380 0.84790
H13 H 0.16180 -0.00370 0.79870
C15 C 0.2867(4) 0.5267(4) 0.8924(2)
C16 C 0.1639(5) 0.6053(4) 0.8883(3)
H14 H 0.06520 0.57620 0.88970
C17 C 0.1929(5) 0.7274(4) 0.8820(3)
H15 H 0.11180 0.78360 0.87810
C18 C 0.3376(6) 0.7702(4) 0.8813(3)
H16 H 0.35330 0.85510 0.87800
C19 C 0.4585(5) 0.6932(4) 0.8853(3)
H17 H 0.55670 0.72390 0.88440
C20 C 0.4338(4) 0.5684(3) 0.8906(2)
#END
