
#######################################################################
#
#                 Cambridge Crystallographic Data Centre
#                                CCDC
#
#######################################################################
#
# If this CIF has been generated from an entry in the Cambridge
# Structural Database, then it will include bibliographic, chemical,
# crystal, experimental, refinement or atomic coordinate data resulting
# from the CCDC's data processing and validation procedures.
#
#######################################################################

data_CSD_CIF_YIFXUJ
_audit_creation_date 2018-06-14
_audit_creation_method CSD-ConQuest-V1
_database_code_CSD YIFXUJ
_database_code_depnum_ccdc_archive 'CCDC 1499615'
_chemical_formula_sum 'C12 H19 N1 O5'
_chemical_formula_moiety
;
C12 H19 N1 O5
;
_journal_coden_Cambridge 1291
_journal_year 2017
_journal_page_first 1086
_journal_name_full 'Eur.J.Org.Chem. '
loop_
_publ_author_name
"T.Malatinsky"
"M.Spisakova"
"M.Babjak"
"J.Dohanosova"
"J.Marek"
"J.Moncol"
"R.Fischer"
_chemical_name_systematic
;
4-(2,2-dimethyl-1,3-dioxolan-4-yl)-2,2-dimethyl-5-oxo-4,6a-dihydro-2H,3aH-5\l^
5^-[1,3]dioxolo[4,5-c]pyrrole
;
_cell_volume   1293.956
_exptl_crystal_colour 'colorless'
_exptl_crystal_density_diffrn 1.321
_exptl_special_details
;
Absolute configuration

;
_exptl_crystal_description 'block'
_diffrn_ambient_temperature 100
#These two values have been output from a single CSD field.
_refine_ls_R_factor_gt 0.0339
_refine_ls_wR_factor_gt 0.0339
loop_
_citation_database_id_CSD
_citation_special_details
YIFXOD "is a stereoisomer of this entry"
_symmetry_cell_setting orthorhombic
_symmetry_space_group_name_H-M 'P 21 21 21'
_symmetry_Int_Tables_number 19
loop_
_symmetry_equiv_pos_site_id
_symmetry_equiv_pos_as_xyz
1 x,y,z
2 1/2+x,1/2-y,-z
3 -x,1/2+y,1/2-z
4 1/2-x,-y,1/2+z
_cell_length_a 8.9686(6)
_cell_length_b 10.4636(7)
_cell_length_c 13.7884(11)
_cell_angle_alpha 90
_cell_angle_beta 90
_cell_angle_gamma 90
_cell_formula_units_Z 4
loop_
_atom_type_symbol
_atom_type_radius_bond
C 0.68
H 0.23
N 0.68
O 0.68
loop_
_atom_site_label
_atom_site_type_symbol
_atom_site_fract_x
_atom_site_fract_y
_atom_site_fract_z
C1 C 0.52579(17) 0.40535(14) 0.46126(12)
H1 H 0.60067(17) 0.34910(14) 0.42862(12)
N1 N 0.38654(16) 0.33074(12) 0.48165(9)
C2 C 0.26653(18) 0.38612(16) 0.44940(11)
H2 H 0.16845(18) 0.35506(16) 0.46043(11)
C3 C 0.30087(18) 0.50336(16) 0.39343(11)
H3 H 0.25647(18) 0.58181(16) 0.42313(11)
C4 C 0.47258(17) 0.50765(15) 0.39081(11)
H4 H 0.51310(17) 0.59423(15) 0.40658(11)
O1 O 0.25527(13) 0.48528(13) 0.29451(8)
C5 C 0.38370(18) 0.49876(16) 0.23365(11)
O2 O 0.50752(12) 0.46825(11) 0.29432(8)
O3 O 0.39711(15) 0.22565(10) 0.52948(8)
C6 C 0.3753(2) 0.39948(17) 0.15408(13)
H5 H 0.4659(8) 0.4035(10) 0.1145(7)
H6 H 0.3665(17) 0.3143(2) 0.18303(13)
H7 H 0.2881(10) 0.4163(9) 0.1132(7)
C7 C 0.3924(2) 0.63444(17) 0.19597(13)
H8 H 0.3951(17) 0.69403(18) 0.25077(13)
H9 H 0.4829(9) 0.6447(4) 0.1569(9)
H10 H 0.3047(8) 0.6525(5) 0.1558(9)
C8 C 0.58852(18) 0.45379(16) 0.55638(12)
H11 H 0.60343(18) 0.38084(16) 0.60222(12)
O4 O 0.48711(12) 0.54378(10) 0.59700(8)
C9 C 0.57735(19) 0.63447(17) 0.64845(13)
O5 O 0.70375(14) 0.65145(12) 0.58649(10)
C10 C 0.73497(19) 0.52965(17) 0.54529(15)
H12 H 0.81738(19) 0.48699(17) 0.58042(15)
H13 H 0.76275(19) 0.53799(17) 0.47609(15)
C11 C 0.4946(2) 0.75839(18) 0.65533(19)
H14 H 0.4644(17) 0.7859(8) 0.5903(2)
H15 H 0.4059(11) 0.7470(5) 0.6959(10)
H16 H 0.5594(7) 0.8234(5) 0.6843(12)
C12 C 0.6217(2) 0.5823(2) 0.74728(14)
H17 H 0.5319(2) 0.5608(14) 0.7843(5)
H18 H 0.6828(15) 0.5054(9) 0.73876(14)
H19 H 0.6792(15) 0.6471(6) 0.7825(5)
#END
