
#######################################################################
#
#                 Cambridge Crystallographic Data Centre
#                                CCDC
#
#######################################################################
#
# If this CIF has been generated from an entry in the Cambridge
# Structural Database, then it will include bibliographic, chemical,
# crystal, experimental, refinement or atomic coordinate data resulting
# from the CCDC's data processing and validation procedures.
#
#######################################################################

data_CSD_CIF_YIKCIE
_audit_creation_date 1995-09-14
_audit_creation_method CSD-ConQuest-V1
_database_code_CSD YIKCIE
_chemical_formula_sum 'C14 H14 N6 O3'
_chemical_formula_moiety
;
C14 H14 N6 O3
;
_journal_coden_Cambridge 122
_journal_year 1992
_journal_page_first 1546
_journal_name_full 'Khim.Get.Soedin.,SSSR(Russ.)(Chem.Heterocycl.Compd.) '
loop_
_publ_author_name
"V.L.Rusinov"
"M.N.Kushnir"
"O.N.Chupakhin"
"G.G.Aleksandrov"
_chemical_name_systematic
;
5-Methyl-7-(N-methyl-p-methoxyphenylamino)-6-nitrotriazolo(1,5-a)pyrimidine
;
_chemical_melting_point 482.15
_cell_volume   1427.312
_exptl_special_details
;
Melting point range 482.15-484.15K
x(C5) is -0.0714 not 0.0714. x(C3) is -0.0974 not 0.0974. x(C2) is -0.0937 
not 0.0937
;
_diffrn_ambient_temperature ?
_diffrn_special_details
;
The study was carried out at room temperature,in the range 283-303K

;
#These two values have been output from a single CSD field.
_refine_ls_R_factor_gt 0.053
_refine_ls_wR_factor_gt 0.053
_symmetry_cell_setting monoclinic
_symmetry_space_group_name_H-M 'P 21/n'
_symmetry_Int_Tables_number 14
loop_
_symmetry_equiv_pos_site_id
_symmetry_equiv_pos_as_xyz
1 x,y,z
2 1/2-x,1/2+y,1/2-z
3 -x,-y,-z
4 -1/2+x,-1/2-y,-1/2+z
_cell_length_a 13.458
_cell_length_b 12.191
_cell_length_c 9.265
_cell_angle_alpha 90
_cell_angle_beta 110.12
_cell_angle_gamma 90
_cell_formula_units_Z 4
loop_
_atom_type_symbol
_atom_type_radius_bond
C 0.68
H 0.23
N 0.68
O 0.68
loop_
_atom_site_label
_atom_site_type_symbol
_atom_site_fract_x
_atom_site_fract_y
_atom_site_fract_z
O1 O 0.0155(2) 0.6389(2) -0.1603(2)
O2 O 0.1607(1) 0.7108(2) -0.0071(2)
O3 O 0.3769(1) 0.9168(1) 0.7988(2)
N1 N -0.0247(1) 0.9011(1) 0.3402(2)
N2 N -0.1397(1) 1.0113(2) 0.1589(2)
N3 N -0.1198(1) 0.9302(1) -0.0655(2)
N4 N -0.0257(1) 0.8748(1) 0.1955(2)
N5 N 0.0642(1) 0.7046(1) -0.0603(2)
N6 N 0.0925(1) 0.7258(1) 0.2687(2)
C1 C -0.0937(2) 0.9829(2) 0.3079(3)
C2 C -0.0974(1) 0.9411(1) 0.0869(2)
C3 C -0.0714(1) 0.8489(2) -0.1103(2)
C4 C 0.0028(1) 0.7804(1) -0.0019(2)
C5 C 0.0281(1) 0.7905(1) 0.1561(2)
C6 C -0.0972(2) 0.8365(2) -0.2797(3)
C7 C 0.1055(2) 0.6087(2) 0.2416(3)
C8 C 0.1647(1) 0.7729(1) 0.4070(2)
C9 C 0.1791(2) 0.7265(2) 0.5500(2)
C10 C 0.2498(2) 0.7715(2) 0.6830(2)
C11 C 0.3069(1) 0.8648(2) 0.6748(2)
C12 C 0.2928(2) 0.9114(2) 0.5313(2)
C13 C 0.2232(2) 0.8651(2) 0.3982(2)
C14 C 0.3914(2) 0.8720(2) 0.9473(3)
H1 H -0.113(2) 1.022(2) 0.394(3)
H2 H 0.139(2) 0.665(2) 0.560(3)
H3 H 0.260(2) 0.742(2) 0.778(4)
H4 H 0.337(2) 0.972(2) 0.525(3)
H5 H 0.214(2) 0.894(2) 0.305(3)
H6 H -0.033(2) 0.820(2) -0.301(4)
H7 H -0.145(2) 0.774(3) -0.319(4)
H8 H -0.132(2) 0.903(3) -0.331(3)
H9 H 0.046(2) 0.588(2) 0.159(3)
H10 H 0.109(3) 0.565(3) 0.334(4)
H11 H 0.169(2) 0.596(3) 0.217(4)
H12 H 0.414(2) 0.921(3) 1.016(4)
H13 H 0.322(2) 0.878(2) 0.961(3)
H14 H 0.418(2) 0.799(2) 0.956(3)
#END
