
#######################################################################
#
#                 Cambridge Crystallographic Data Centre
#                                CCDC
#
#######################################################################
#
# If this CIF has been generated from an entry in the Cambridge
# Structural Database, then it will include bibliographic, chemical,
# crystal, experimental, refinement or atomic coordinate data resulting
# from the CCDC's data processing and validation procedures.
#
#######################################################################

data_CSD_CIF_YIPQOF
_audit_creation_date 2013-11-04
_audit_creation_method CSD-ConQuest-V1
_database_code_CSD YIPQOF
_database_code_depnum_ccdc_archive 'CCDC 930108'
_chemical_formula_sum 'C21 H22 N2 O4'
_chemical_formula_moiety
;
C21 H22 N2 O4
;
_journal_coden_Cambridge 16
_journal_volume 69
_journal_year 2013
_journal_page_first 8751
_journal_name_full 'Tetrahedron '
loop_
_publ_author_name
"S.Roy"
"M.Amireddy"
"Kwunmin Chen"
_chemical_name_systematic
;
2-Hydroxy-1',2-dimethyl-5-nitro-6-phenylspiro[cyclohexane-1,3'-indol]-2'(1'H)-
one
;
_cell_volume   1807.070
_exptl_crystal_colour 'colorless'
_exptl_crystal_density_diffrn 1.347
_exptl_crystal_description 'prism'
_diffrn_ambient_temperature 200
#These two values have been output from a single CSD field.
_refine_ls_R_factor_gt 0.0361
_refine_ls_wR_factor_gt 0.0361
_symmetry_cell_setting monoclinic
_symmetry_space_group_name_H-M 'P 21/n'
_symmetry_Int_Tables_number 14
loop_
_symmetry_equiv_pos_site_id
_symmetry_equiv_pos_as_xyz
1 x,y,z
2 1/2-x,1/2+y,1/2-z
3 -x,-y,-z
4 -1/2+x,-1/2-y,-1/2+z
_cell_length_a 10.1049(4)
_cell_length_b 12.2556(5)
_cell_length_c 14.6987(6)
_cell_angle_alpha 90
_cell_angle_beta 96.915(2)
_cell_angle_gamma 90
_cell_formula_units_Z 4
loop_
_atom_type_symbol
_atom_type_radius_bond
C 0.68
H 0.23
N 0.68
O 0.68
loop_
_atom_site_label
_atom_site_type_symbol
_atom_site_fract_x
_atom_site_fract_y
_atom_site_fract_z
C1 C 0.50387(14) 0.68983(12) 0.03132(9)
H1 H 0.46270 0.63030 0.06500
C2 C 0.54639(14) 0.64385(13) -0.05674(9)
H2 H 0.61370 0.58570 -0.04250
H3 H 0.58630 0.70210 -0.09130
C3 C 0.42310(15) 0.59747(13) -0.11364(10)
H4 H 0.44940 0.56570 -0.17070
H5 H 0.38590 0.53800 -0.07880
C4 C 0.31639(14) 0.68277(12) -0.13810(9)
C5 C 0.19446(15) 0.63153(14) -0.19262(10)
C6 C 0.27709(14) 0.74166(12) -0.04921(9)
C7 C 0.17911(14) 0.83337(12) -0.07447(9)
C8 C 0.19356(15) 0.93212(13) -0.11694(10)
H6 H 0.27760 0.95380 -0.13360
C9 C 0.08247(16) 0.99955(13) -0.13494(10)
H7 H 0.09110 1.06800 -0.16400
C10 C -0.03971(16) 0.96819(14) -0.11109(10)
H8 H -0.11460 1.01460 -0.12530
C11 C -0.05521(15) 0.86980(14) -0.06662(11)
H9 H -0.13910 0.84820 -0.04970
C12 C 0.05610(14) 0.80472(12) -0.04807(9)
C13 C -0.03936(16) 0.65180(15) 0.03981(12)
C14 C 0.19255(14) 0.66300(12) 0.00156(9)
C15 C 0.40363(14) 0.78295(12) 0.01237(9)
H10 H 0.44660 0.83840 -0.02450
C16 C 0.37541(14) 0.83991(13) 0.10021(9)
C17 C 0.33188(16) 0.78366(15) 0.17313(10)
H11 H 0.31570 0.70740 0.16810
C18 C 0.31182(18) 0.83808(16) 0.25334(11)
H12 H 0.28030 0.79900 0.30220
C19 C 0.33721(17) 0.94806(16) 0.26258(11)
H13 H 0.32360 0.98470 0.31760
C20 C 0.38236(17) 1.00452(15) 0.19159(12)
H14 H 0.40160 1.08020 0.19780
C21 C 0.39976(15) 0.95066(14) 0.11071(11)
H15 H 0.42900 0.99070 0.06150
N1 N 0.62802(12) 0.73026(11) 0.08889(8)
N2 N 0.06724(12) 0.70376(11) -0.00234(8)
O1 O 0.67744(11) 0.81602(10) 0.06851(8)
O2 O 0.67540(12) 0.67152(10) 0.15193(8)
O3 O 0.3747(1) 0.76316(9) -0.19190(6)
O4 O 0.22984(10) 0.57632(9) 0.03837(7)
H16 H 0.30910 0.78740 -0.24090
H17 H 0.12140 0.68340 -0.20560
H18 H 0.15740 0.57060 -0.15860
H19 H 0.21890 0.60220 -0.24840
H20 H -0.00350 0.58950 0.07520
H21 H -0.07280 0.70000 0.08120
H22 H -0.11620 0.63060 -0.00540
#END
