
#######################################################################
#
#                 Cambridge Crystallographic Data Centre
#                                CCDC
#
#######################################################################
#
# If this CIF has been generated from an entry in the Cambridge
# Structural Database, then it will include bibliographic, chemical,
# crystal, experimental, refinement or atomic coordinate data resulting
# from the CCDC's data processing and validation procedures.
#
#######################################################################

data_CSD_CIF_YITBEJ
_audit_creation_date 2008-05-23
_audit_creation_method CSD-ConQuest-V1
_database_code_CSD YITBEJ
_database_code_depnum_ccdc_archive 'CCDC 676411'
_chemical_formula_sum 'C19 H20 N2 O3'
_chemical_formula_moiety
;
C19 H20 N2 O3
;
_journal_coden_Cambridge 1336
_journal_volume 9
_journal_year 2007
_journal_page_first 5445
_journal_name_full 'Org.Lett. '
loop_
_publ_author_name
"T.Vacas"
"E.Alvarez"
"J.L.Chiara"
_chemical_name_systematic
;
1-(Benzyl(hydroxy)amino)-9b-hydroxy-1-methyl-1,2,3,9b-tetrahydropyrrolo(2,1-a)
isoindol-5-one
;
_cell_volume   1636.954
_exptl_crystal_colour 'colorless'
_exptl_crystal_density_diffrn 1.316
_exptl_crystal_description 'prism'
_exptl_crystal_preparation 'methanol/acetone'
_diffrn_ambient_temperature 100
#These two values have been output from a single CSD field.
_refine_ls_R_factor_gt 0.0467
_refine_ls_wR_factor_gt 0.0467
_symmetry_cell_setting monoclinic
_symmetry_space_group_name_H-M 'P 21/c'
_symmetry_Int_Tables_number 14
loop_
_symmetry_equiv_pos_site_id
_symmetry_equiv_pos_as_xyz
1 x,y,z
2 -x,1/2+y,1/2-z
3 -x,-y,-z
4 x,-1/2-y,-1/2+z
_cell_length_a 7.3633(3)
_cell_length_b 15.3041(6)
_cell_length_c 14.7261(6)
_cell_angle_alpha 90
_cell_angle_beta 99.448(2)
_cell_angle_gamma 90
_cell_formula_units_Z 4
loop_
_atom_type_symbol
_atom_type_radius_bond
C 0.68
H 0.23
N 0.68
O 0.68
loop_
_atom_site_label
_atom_site_type_symbol
_atom_site_fract_x
_atom_site_fract_y
_atom_site_fract_z
O1 O 1.02498(14) -0.24840(6) 0.72089(7)
O2 O 1.05742(14) 0.00130(7) 0.88856(7)
H1 H 0.982(3) 0.0389(13) 0.9069(13)
O3 O 0.71877(15) 0.12047(7) 0.77557(7)
H2 H 0.798(3) 0.1609(13) 0.8005(13)
N1 N 0.71624(15) 0.06006(7) 0.85120(8)
N2 N 0.97269(16) -0.13434(7) 0.81555(8)
C1 C 0.74306(17) -0.02767(8) 0.81414(9)
C2 C 0.71756(19) -0.09797(9) 0.88651(10)
H3 H 0.75770 -0.07550 0.94970
H4 H 0.58700 -0.11600 0.88010
C3 C 0.8391(2) -0.17510(9) 0.86634(10)
H5 H 0.90170 -0.20230 0.92410
H6 H 0.76540 -0.22010 0.82850
C4 C 1.02735(18) -0.16980(9) 0.73958(9)
C5 C 1.08007(18) -0.09610(9) 0.68435(9)
C6 C 1.16352(19) -0.09775(10) 0.60632(9)
H7 H 1.19440 -0.15130 0.58010
C7 C 1.2000(2) -0.01789(10) 0.56822(10)
H8 H 1.25600 -0.01640 0.51460
C8 C 1.1547(2) 0.06009(10) 0.60825(10)
H9 H 1.18150 0.11400 0.58130
C9 C 1.07126(19) 0.06122(9) 0.68679(10)
H10 H 1.04190 0.11470 0.71380
C10 C 1.03279(17) -0.01851(9) 0.72395(9)
C11 C 0.95379(18) -0.03884(8) 0.81025(9)
C12 C 0.62245(19) -0.0471(1) 0.72198(10)
H11 H 0.49250 -0.04130 0.72830
H12 H 0.64610 -0.10680 0.70280
H13 H 0.65120 -0.00570 0.67560
C13 C 0.53645(18) 0.07310(9) 0.88066(10)
H14 H 0.51070 0.02330 0.91950
H15 H 0.43860 0.07490 0.82590
C14 C 0.53414(18) 0.15686(9) 0.93411(9)
C15 C 0.67247(19) 0.17533(9) 1.00854(10)
H16 H 0.77270 0.13600 1.02370
C16 C 0.6649(2) 0.25054(10) 1.06048(10)
H17 H 0.76010 0.26260 1.11080
C17 C 0.5180(2) 0.30846(10) 1.03903(10)
H18 H 0.51220 0.35980 1.07470
C18 C 0.3804(2) 0.29054(10) 0.9652(1)
H19 H 0.28010 0.32980 0.95030
C19 C 0.3884(2) 0.21532(10) 0.91278(9)
H20 H 0.29380 0.20380 0.86210
#END
