
#######################################################################
#
#                 Cambridge Crystallographic Data Centre
#                                CCDC
#
#######################################################################
#
# If this CIF has been generated from an entry in the Cambridge
# Structural Database, then it will include bibliographic, chemical,
# crystal, experimental, refinement or atomic coordinate data resulting
# from the CCDC's data processing and validation procedures.
#
#######################################################################

data_CSD_CIF_YITJES
_audit_creation_date 2013-11-06
_audit_creation_method CSD-ConQuest-V1
_database_code_CSD YITJES
_database_code_depnum_ccdc_archive 'CCDC 940373'
_chemical_formula_sum 'C5 H7 N7 O12'
_chemical_formula_moiety
;
C5 H7 N7 O12
;
_journal_coden_Cambridge 1290
_journal_year 2013
_journal_page_first 6028
_journal_name_full 'Eur.J.Inorg.Chem. '
loop_
_publ_author_name
"Bianca Aas"
"M.A.Kettner"
"T.M.Klapotke"
"M.Suceska"
"C.Zoller"
_chemical_name_systematic
;
2,2,2-Trinitroethyl ((methyl(nitro)amino)methyl)nitrocarbamate
;
_chemical_name_common
;
2,2,2-trinitroethyl-(2-nitro-2-azapropyl)nitrocarbamate
;
_cell_volume   1290.747
_exptl_crystal_colour 'colorless'
_exptl_crystal_density_diffrn 1.838
_exptl_crystal_description 'block'
_exptl_crystal_preparation 'dichloromethane'
_diffrn_ambient_temperature 173
#These two values have been output from a single CSD field.
_refine_ls_R_factor_gt 0.0351
_refine_ls_wR_factor_gt 0.0351
_symmetry_cell_setting monoclinic
_symmetry_space_group_name_H-M 'P 21/c'
_symmetry_Int_Tables_number 14
loop_
_symmetry_equiv_pos_site_id
_symmetry_equiv_pos_as_xyz
1 x,y,z
2 -x,1/2+y,1/2-z
3 -x,-y,-z
4 x,-1/2-y,-1/2+z
_cell_length_a 9.3625(3)
_cell_length_b 20.2565(6)
_cell_length_c 6.8065(3)
_cell_angle_alpha 90
_cell_angle_beta 90.768(3)
_cell_angle_gamma 90
_cell_formula_units_Z 4
loop_
_atom_type_symbol
_atom_type_radius_bond
C 0.68
H 0.23
N 0.68
O 0.68
loop_
_atom_site_label
_atom_site_type_symbol
_atom_site_fract_x
_atom_site_fract_y
_atom_site_fract_z
O1 O 0.58854(12) 0.08336(6) 0.70720(16)
O2 O 0.91142(11) 0.15068(5) 0.97592(16)
O3 O 0.94891(12) 0.25877(5) 0.91456(17)
O4 O 0.65144(13) 0.18685(6) 0.73236(17)
O5 O 0.78591(13) 0.02493(6) 0.96591(18)
O6 O 0.88904(12) 0.10044(6) 0.56387(17)
N1 N 1.12433(13) 0.08945(6) 0.55455(19)
O7 O 0.98721(13) 0.05605(6) 0.30612(17)
N2 N 1.09956(13) 0.17721(6) 0.79523(18)
O8 O 0.54143(14) 0.16998(7) 1.27677(18)
O9 O 1.31143(13) 0.19534(6) 0.6608(2)
O10 O 1.18230(14) 0.28035(6) 0.7333(2)
N3 N 1.20543(14) 0.22154(7) 0.7263(2)
N4 N 0.99346(14) 0.08135(6) 0.47132(19)
N5 N 0.52758(15) 0.14289(7) 1.1199(2)
O11 O 0.41673(13) 0.12774(8) 1.0381(2)
O12 O 0.62102(16) 0.02616(7) 1.1870(2)
N6 N 0.69187(15) 0.05085(6) 1.0586(2)
N7 N 0.63353(13) 0.13137(6) 0.79528(18)
C1 C 1.24777(19) 0.06473(10) 0.4473(3)
C2 C 1.12880(18) 0.10669(7) 0.7608(2)
C3 C 0.66555(16) 0.12384(7) 1.0155(2)
C4 C 0.78759(17) 0.16697(8) 1.0868(2)
C5 C 0.98182(16) 0.20231(7) 0.8961(2)
H1 H 0.7624(17) 0.2117(9) 1.069(2)
H2 H 0.8027(16) 0.1569(8) 1.223(2)
H3 H 1.2212(18) 0.0962(8) 0.805(2)
H4 H 1.0579(17) 0.0829(8) 0.831(2)
H5 H 1.239(2) 0.0178(11) 0.428(3)
H6 H 1.333(2) 0.0792(10) 0.522(3)
H7 H 1.251(2) 0.0858(10) 0.320(3)
#END
