
#######################################################################
#
#                 Cambridge Crystallographic Data Centre
#                                CCDC
#
#######################################################################
#
# If this CIF has been generated from an entry in the Cambridge
# Structural Database, then it will include bibliographic, chemical,
# crystal, experimental, refinement or atomic coordinate data resulting
# from the CCDC's data processing and validation procedures.
#
#######################################################################

data_CSD_CIF_YIXNUP
_audit_creation_date 2008-05-22
_audit_creation_method CSD-ConQuest-V1
_database_code_CSD YIXNUP
_database_code_depnum_ccdc_archive 'CCDC 684476'
_chemical_formula_sum 'C8 H7 N3 O2'
_chemical_formula_moiety
;
C8 H7 N3 O2
;
_journal_coeditor_code "IUCr NC2091"
_journal_coden_Cambridge 1370
_journal_volume 64
_journal_year 2008
_journal_page_first o671
_journal_name_full 'Acta Crystallogr.,Sect.E:Struct.Rep.Online '
loop_
_publ_author_name
"J.Lokaj"
"V.Kettmann"
"T.Solcan"
"S.Katuscak"
_chemical_name_systematic
;
1-Methyl-6-nitro-1H-benzimidazole
;
_chemical_melting_point 455
_cell_volume   1601.239
_exptl_crystal_colour 'yellow'
_exptl_crystal_density_diffrn 1.47
_exptl_crystal_description 'prism'
_diffrn_ambient_temperature 296
#These two values have been output from a single CSD field.
_refine_ls_R_factor_gt 0.045
_refine_ls_wR_factor_gt 0.045
_symmetry_cell_setting orthorhombic
_symmetry_space_group_name_H-M 'P b c a'
_symmetry_Int_Tables_number 61
loop_
_symmetry_equiv_pos_site_id
_symmetry_equiv_pos_as_xyz
1 x,y,z
2 1/2-x,-y,1/2+z
3 -x,1/2+y,1/2-z
4 1/2+x,1/2-y,-z
5 -x,-y,-z
6 -1/2+x,y,-1/2-z
7 x,-1/2-y,-1/2+z
8 -1/2-x,-1/2+y,z
_cell_length_a 12.852(3)
_cell_length_b 7.043(2)
_cell_length_c 17.690(4)
_cell_angle_alpha 90
_cell_angle_beta 90
_cell_angle_gamma 90
_cell_formula_units_Z 8
loop_
_atom_type_symbol
_atom_type_radius_bond
C 0.68
H 0.23
N 0.68
O 0.68
loop_
_atom_site_label
_atom_site_type_symbol
_atom_site_fract_x
_atom_site_fract_y
_atom_site_fract_z
N1 N 0.42194(9) 0.26257(16) 0.47003(6)
C1 C 0.52515(10) 0.2941(2) 0.45973(9)
H1 H 0.55250 0.33600 0.41400
N2 N 0.58338(9) 0.26080(19) 0.51910(7)
C2 C 0.53023(11) 0.1419(2) 0.64798(8)
H2 H 0.59680 0.14190 0.66860
C3 C 0.44659(12) 0.0845(2) 0.68983(8)
H3 H 0.45610 0.04320 0.73930
C4 C 0.34599(10) 0.08772(19) 0.65813(7)
C5 C 0.32568(9) 0.14664(19) 0.58497(7)
H4 H 0.25870 0.14960 0.56500
C6 C 0.41167(10) 0.20061(17) 0.54376(7)
C7 C 0.51357(10) 0.20067(19) 0.57335(8)
C8 C 0.33948(11) 0.2912(3) 0.41540(9)
H5 H 0.34280 0.41850 0.39620
H6 H 0.27330 0.27110 0.43930
H7 H 0.34760 0.20290 0.37450
N3 N 0.25815(11) 0.03037(18) 0.70486(7)
O1 O 0.16986(9) 0.0586(2) 0.68211(6)
O2 O 0.27589(11) -0.0462(2) 0.76606(6)
#END
