
#######################################################################
#
#                 Cambridge Crystallographic Data Centre
#                                CCDC
#
#######################################################################
#
# If this CIF has been generated from an entry in the Cambridge
# Structural Database, then it will include bibliographic, chemical,
# crystal, experimental, refinement or atomic coordinate data resulting
# from the CCDC's data processing and validation procedures.
#
#######################################################################

data_CSD_CIF_YIXQAY01
_audit_creation_date 2015-03-20
_audit_creation_method CSD-ConQuest-V1
_database_code_CSD YIXQAY01
_database_code_depnum_ccdc_archive 'CCDC 1012073'
_chemical_formula_sum 'C13 H9 N5 O7'
_chemical_formula_moiety
;
C13 H9 N5 O7
;
_journal_coden_Cambridge 1500
_journal_volume 5
_journal_year 2015
_journal_page_first 27387
_journal_name_full 'RSC Advances '
loop_
_publ_author_name
"P.Ghosh"
"B.G.Roy"
"S.K.Mukhopadhyay"
"P.Banerjee"
_chemical_name_systematic
;
2-((2,4-dinitrophenyl)carbonohydrazonoyl)-4-nitrophenol
;
_cell_volume   1349.164
_exptl_crystal_colour 'red'
_exptl_crystal_density_diffrn 1.71
_exptl_crystal_description 'block'
_diffrn_ambient_temperature 150
#These two values have been output from a single CSD field.
_refine_ls_R_factor_gt 0.035
_refine_ls_wR_factor_gt 0.035
_symmetry_cell_setting monoclinic
_symmetry_space_group_name_H-M 'P 21/n'
_symmetry_Int_Tables_number 14
loop_
_symmetry_equiv_pos_site_id
_symmetry_equiv_pos_as_xyz
1 x,y,z
2 1/2-x,1/2+y,1/2-z
3 -x,-y,-z
4 -1/2+x,-1/2-y,-1/2+z
_cell_length_a 12.745(5)
_cell_length_b 8.223(5)
_cell_length_c 13.910(5)
_cell_angle_alpha 90
_cell_angle_beta 112.259(5)
_cell_angle_gamma 90
_cell_formula_units_Z 4
loop_
_atom_type_symbol
_atom_type_radius_bond
C 0.68
H 0.23
N 0.68
O 0.68
loop_
_atom_site_label
_atom_site_type_symbol
_atom_site_fract_x
_atom_site_fract_y
_atom_site_fract_z
O1 O 0.05165(8) 0.68629(12) 0.61816(7)
O2 O -0.34544(9) 1.15958(15) 0.38191(9)
O3 O -0.29824(9) 1.08494(14) 0.25534(8)
O4 O 0.38709(10) 0.37057(14) 0.27151(8)
O5 O 0.28707(8) 0.58000(13) 0.27608(8)
O6 O 0.54745(10) 0.09181(15) 0.71162(8)
O7 O 0.60025(10) 0.08799(17) 0.58191(9)
N1 N -0.28738(9) 1.07851(14) 0.34652(9)
N2 N 0.12225(8) 0.63644(13) 0.46288(8)
N3 N 0.19295(9) 0.58139(14) 0.41634(8)
H1 H 0.18150 0.61200 0.35250
N4 N 0.34016(9) 0.45544(14) 0.31560(9)
N5 N 0.53937(10) 0.13748(15) 0.62548(9)
C1 C -0.03144(10) 0.77533(15) 0.54928(9)
C2 C -0.10782(10) 0.85403(16) 0.58442(10)
H2 H -0.10170 0.83860 0.65400
C3 C -0.19154(10) 0.95334(16) 0.51925(10)
H3 H -0.24220 1.00830 0.54360
C4 C -0.20054(10) 0.97168(15) 0.41676(10)
C5 C -0.12812(10) 0.89225(15) 0.37922(9)
H4 H -0.13700 0.90530 0.30870
C6 C -0.04221(10) 0.79317(15) 0.44493(9)
C7 C 0.03553(10) 0.71833(15) 0.40376(9)
H5 H 0.02220 0.73000 0.33210
C8 C 0.28019(10) 0.48034(15) 0.46753(9)
C9 C 0.3033(1) 0.43418(16) 0.5718(1)
H6 H 0.25970 0.48050 0.60710
C10 C 0.38673(11) 0.32474(16) 0.62303(10)
H7 H 0.40020 0.29520 0.69270
C11 C 0.45209(10) 0.25669(16) 0.57186(10)
C12 C 0.43497(11) 0.29884(16) 0.47134(10)
H8 H 0.48000 0.25210 0.43750
C13 C 0.35089(11) 0.41082(16) 0.42014(10)
H9 H 0.0950(17) 0.647(3) 0.5850(16)
#END
