
#######################################################################
#
#                 Cambridge Crystallographic Data Centre
#                                CCDC
#
#######################################################################
#
# If this CIF has been generated from an entry in the Cambridge
# Structural Database, then it will include bibliographic, chemical,
# crystal, experimental, refinement or atomic coordinate data resulting
# from the CCDC's data processing and validation procedures.
#
#######################################################################

data_CSD_CIF_YOCQEO
_audit_creation_date 2014-04-03
_audit_creation_method CSD-ConQuest-V1
_database_code_CSD YOCQEO
_database_code_depnum_ccdc_archive 'CCDC 884212'
_chemical_formula_sum 'C28 H30 N2 O4'
_chemical_formula_moiety
;
C28 H30 N2 O4
;
_journal_coden_Cambridge 1366
_journal_volume 356
_journal_year 2014
_journal_page_first 999
_journal_name_full 'Adv.Synth.Catal. '
loop_
_publ_author_name
"J.L.Wang"
"X.Y.Chen"
"Q.Wu"
"X.F.Lin"
_chemical_name_systematic
;
6'-(4-methoxyphenyl)-1'-(4-nitrophenyl)-7',8',9',9a'-tetrahydro-1'H-spiro[cycl
ohexane-1,3'-[1,3]oxazino[5,4,3-hi]indole]
;
_cell_volume   1183.257
_exptl_crystal_colour 'yellow'
_exptl_crystal_density_diffrn 1.287
_exptl_crystal_description 'platelet'
_diffrn_ambient_temperature 293
#These two values have been output from a single CSD field.
_refine_ls_R_factor_gt 0.0438
_refine_ls_wR_factor_gt 0.0438
_symmetry_cell_setting triclinic
_symmetry_space_group_name_H-M 'P -1'
_symmetry_Int_Tables_number 2
loop_
_symmetry_equiv_pos_site_id
_symmetry_equiv_pos_as_xyz
1 x,y,z
2 -x,-y,-z
_cell_length_a 9.7600(6)
_cell_length_b 10.9026(9)
_cell_length_c 12.4389(8)
_cell_angle_alpha 81.462(6)
_cell_angle_beta 80.813(5)
_cell_angle_gamma 65.420(7)
_cell_formula_units_Z 2
loop_
_atom_type_symbol
_atom_type_radius_bond
C 0.68
H 0.23
N 0.68
O 0.68
loop_
_atom_site_label
_atom_site_type_symbol
_atom_site_fract_x
_atom_site_fract_y
_atom_site_fract_z
O1 O 0.96385(19) 0.3233(2) -0.54895(14)
O2 O 0.8071(3) 0.2277(2) -0.50421(15)
O3 O 0.75813(13) 0.31514(12) 0.02755(9)
O4 O 0.64993(18) 0.85297(17) 0.65174(12)
N1 N 0.8778(2) 0.2883(2) -0.48216(16)
N2 N 0.70024(16) 0.44348(15) 0.17695(12)
C1 C 0.7267(2) 0.3315(2) -0.19081(16)
H1 H 0.65210 0.31680 -0.14090
C2 C 0.7436(2) 0.3018(2) -0.29725(17)
H2 H 0.68200 0.26640 -0.31950
C3 C 0.8537(2) 0.3258(2) -0.36971(16)
C4 C 0.9425(2) 0.3816(2) -0.34033(16)
H3 H 1.01280 0.40110 -0.39170
C5 C 0.9263(2) 0.4085(2) -0.23381(16)
H4 H 0.98810 0.44440 -0.21250
C6 C 0.81910(19) 0.38304(18) -0.15717(14)
C7 C 0.8046(2) 0.41212(18) -0.04056(14)
H5 H 0.90430 0.39950 -0.02310
C8 C 0.69162(19) 0.55233(18) -0.01426(14)
H6 H 0.59240 0.56380 -0.03180
C9 C 0.7232(2) 0.6728(2) -0.06924(16)
H7 H 0.70820 0.68470 -0.14600
H8 H 0.82810 0.65540 -0.06480
C10 C 0.6209(3) 0.8017(2) -0.01671(17)
H9 H 0.51620 0.81830 -0.02110
H10 H 0.63990 0.87690 -0.05790
C11 C 0.6429(2) 0.79756(19) 0.10266(16)
H11 H 0.73190 0.81460 0.10630
H12 H 0.55580 0.86810 0.13770
C12 C 0.66167(18) 0.66183(17) 0.16232(15)
C13 C 0.68152(19) 0.55683(18) 0.10585(14)
C14 C 0.66673(18) 0.61231(18) 0.27577(14)
C15 C 0.6919(2) 0.47820(19) 0.27995(15)
H13 H 0.70180 0.41950 0.34340
C16 C 0.65375(18) 0.68259(18) 0.37130(15)
C17 C 0.6837(2) 0.7972(2) 0.36327(17)
H14 H 0.70570 0.83500 0.29410
C18 C 0.6823(2) 0.8581(2) 0.45376(18)
H15 H 0.70200 0.93570 0.44480
C19 C 0.6518(2) 0.8035(2) 0.55648(17)
C20 C 0.6207(2) 0.6899(2) 0.56746(17)
H16 H 0.59970 0.65220 0.63690
C21 C 0.6202(2) 0.6318(2) 0.47683(16)
H17 H 0.59670 0.55630 0.48640
C22 C 0.7035(3) 0.9572(3) 0.6448(2)
H18 H 0.64190 1.03480 0.60080
H19 H 0.80670 0.92520 0.61200
H20 H 0.69800 0.98180 0.71680
C23 C 0.76751(19) 0.30530(17) 0.14236(14)
C24 C 0.9303(2) 0.2312(2) 0.16992(16)
H21 H 0.93260 0.23090 0.24760
H22 H 0.99080 0.27880 0.13080
C25 C 0.9992(2) 0.0846(2) 0.13890(19)
H23 H 1.00740 0.08510 0.06010
H24 H 1.10040 0.03840 0.16150
C26 C 0.9032(3) 0.0091(2) 0.1926(2)
H25 H 0.94560 -0.08110 0.16820
H26 H 0.90350 0.00030 0.27130
C27 C 0.7435(2) 0.0830(2) 0.16417(19)
H27 H 0.68240 0.03540 0.20200
H28 H 0.74250 0.08400 0.08620
C28 C 0.6753(2) 0.22664(18) 0.19540(15)
H29 H 0.57350 0.27200 0.17380
H30 H 0.66810 0.22520 0.27420
#END
