
#######################################################################
#
#                 Cambridge Crystallographic Data Centre
#                                CCDC
#
#######################################################################
#
# If this CIF has been generated from an entry in the Cambridge
# Structural Database, then it will include bibliographic, chemical,
# crystal, experimental, refinement or atomic coordinate data resulting
# from the CCDC's data processing and validation procedures.
#
#######################################################################

data_CSD_CIF_YOMYII
_audit_creation_date 1996-01-03
_audit_creation_method CSD-ConQuest-V1
_database_code_CSD YOMYII
_database_code_depnum_ccdc_archive 'CCDC 1305169'
_chemical_formula_sum 'C13 H17 N2 O3'
_chemical_formula_moiety
;
C13 H17 N2 O3
;
_journal_coden_Cambridge 182
_journal_year 1995
_journal_page_first 709
_journal_name_full 'Chem.Commun. '
loop_
_publ_author_name
"J.Cirujeda"
"M.Mas"
"E.Molins"
"F.L.de Panthou"
"J.Laugier"
"J.G.Park"
"C.Paulsen"
"P.Rey"
"C.Rovira"
"J.Veciana"
_chemical_name_systematic
;
2-(2-Hydroxyphenyl)-4,4,5,5-tetramethyl-4,5-dihydro-1H-imidazol-3-oxide-1-oxyl
 radical
;
_cell_volume   2591.188
_exptl_crystal_density_diffrn 1.27
_diffrn_ambient_temperature ?
_diffrn_special_details
;
The study was carried out at room temperature,in the range 283-303K

;
#These two values have been output from a single CSD field.
_refine_ls_R_factor_gt 0.048
_refine_ls_wR_factor_gt 0.048
_symmetry_cell_setting orthorhombic
_symmetry_space_group_name_H-M 'P b c a'
_symmetry_Int_Tables_number 61
loop_
_symmetry_equiv_pos_site_id
_symmetry_equiv_pos_as_xyz
1 x,y,z
2 1/2-x,-y,1/2+z
3 1/2+x,1/2-y,-z
4 -x,1/2+y,1/2-z
5 -x,-y,-z
6 -1/2+x,y,-1/2-z
7 -1/2-x,-1/2+y,z
8 x,-1/2-y,-1/2+z
_cell_length_a 12.957(8)
_cell_length_b 13.584(9)
_cell_length_c 14.722(9)
_cell_angle_alpha 90
_cell_angle_beta 90
_cell_angle_gamma 90
_cell_formula_units_Z 8
loop_
_atom_type_symbol
_atom_type_radius_bond
C 0.68
H 0.23
N 0.68
O 0.68
loop_
_atom_site_label
_atom_site_type_symbol
_atom_site_fract_x
_atom_site_fract_y
_atom_site_fract_z
H1 H 0.03170 -0.27170 0.42310
O1 O 0.10640 0.01140 0.24740
O2 O -0.07300 -0.23850 0.38840
O3 O 0.11120 -0.27360 0.44310
N1 N 0.03840 -0.05400 0.26380
N2 N -0.04260 -0.17390 0.32880
C1 C 0.03210 -0.10910 0.34050
C2 C -0.08390 -0.17520 0.23390
C3 C -0.05100 -0.07250 0.20130
C4 C -0.02870 -0.25870 0.18580
H2 H -0.05560 -0.26330 0.11670
H3 H -0.04480 -0.32720 0.22020
H4 H 0.05340 -0.24520 0.18630
C5 C -0.19990 -0.19430 0.23580
H5 H -0.22940 -0.19520 0.16750
H6 H -0.23760 -0.13670 0.27380
H7 H -0.21470 -0.26450 0.26760
C6 C -0.01480 -0.06660 0.10360
H8 H -0.07930 -0.07990 0.05890
H9 H 0.04410 -0.12140 0.09190
H10 H 0.01640 0.00570 0.09060
C7 C -0.12880 0.00930 0.22030
H11 H -0.19540 0.00000 0.17710
H12 H -0.09360 0.07990 0.20690
H13 H -0.15260 0.00600 0.29030
C8 C 0.09930 -0.09880 0.41920
C9 C 0.13780 -0.18060 0.46530
C10 C 0.21010 -0.16970 0.53320
H14 H 0.23710 -0.22580 0.56340
C11 C 0.24280 -0.07650 0.55680
H15 H 0.29320 -0.06920 0.60300
C12 C 0.20380 0.00640 0.51470
H16 H 0.22560 0.07010 0.53310
C13 C 0.13210 -0.00440 0.44480
H17 H 0.10560 0.05200 0.41470
#END
