
#######################################################################
#
#                 Cambridge Crystallographic Data Centre
#                                CCDC
#
#######################################################################
#
# If this CIF has been generated from an entry in the Cambridge
# Structural Database, then it will include bibliographic, chemical,
# crystal, experimental, refinement or atomic coordinate data resulting
# from the CCDC's data processing and validation procedures.
#
#######################################################################

data_CSD_CIF_YONDUC
_audit_creation_date 2014-08-26
_audit_creation_method CSD-ConQuest-V1
_database_code_CSD YONDUC
_database_code_depnum_ccdc_archive 'CCDC 998616'
_chemical_formula_sum 'C13 H11 N1 O4'
_chemical_formula_moiety
;
C13 H11 N1 O4
;
_journal_coden_Cambridge 1500
_journal_volume 4
_journal_year 2014
_journal_page_first 37806
_journal_name_full 'RSC Advances '
loop_
_publ_author_name
"R.R.Rajawinslin"
"S.D.Gawande"
"V.Kavala"
"Yi-Hsiang Huang"
"Chun-Wei Kuo"
"Ting-Shen Kuo"
"Mei-Ling Chen"
"Chiu-Hui He"
"Ching-Fa Yao"
_chemical_name_systematic
;
2-(2-Nitrobenzylidene)cyclohexane-1,3-dione
;
_cell_volume   1129.088
_exptl_crystal_colour 'pink'
_exptl_crystal_density_diffrn 1.443
_exptl_crystal_description 'prism'
_diffrn_ambient_temperature 200
#These two values have been output from a single CSD field.
_refine_ls_R_factor_gt 0.0459
_refine_ls_wR_factor_gt 0.0459
_symmetry_cell_setting monoclinic
_symmetry_space_group_name_H-M 'P 21/c'
_symmetry_Int_Tables_number 14
loop_
_symmetry_equiv_pos_site_id
_symmetry_equiv_pos_as_xyz
1 x,y,z
2 -x,1/2+y,1/2-z
3 -x,-y,-z
4 x,-1/2-y,-1/2+z
_cell_length_a 6.6756(2)
_cell_length_b 8.2693(3)
_cell_length_c 20.4546(7)
_cell_angle_alpha 90
_cell_angle_beta 90.578(2)
_cell_angle_gamma 90
_cell_formula_units_Z 4
loop_
_atom_type_symbol
_atom_type_radius_bond
C 0.68
H 0.23
N 0.68
O 0.68
loop_
_atom_site_label
_atom_site_type_symbol
_atom_site_fract_x
_atom_site_fract_y
_atom_site_fract_z
C1 C 0.7734(2) 0.58620(19) 0.03201(8)
C2 C 0.7304(2) 0.5181(2) -0.02831(8)
H1 H 0.71010 0.58450 -0.06570
C3 C 0.7176(2) 0.3519(2) -0.03317(8)
H2 H 0.69010 0.30300 -0.07430
C4 C 0.7447(3) 0.2563(2) 0.02183(9)
H3 H 0.73460 0.14200 0.01840
C5 C 0.7866(3) 0.3269(2) 0.08191(9)
H4 H 0.80440 0.26000 0.11930
C6 C 0.8032(2) 0.4940(2) 0.08857(8)
C7 C 0.8712(3) 0.5603(2) 0.15211(8)
H5 H 0.99410 0.61810 0.15190
C8 C 0.7805(3) 0.5486(2) 0.20983(8)
C9 C 0.5723(3) 0.4850(2) 0.21721(8)
C10 C 0.5140(3) 0.4273(3) 0.28404(10)
H6 H 0.36610 0.42740 0.28710
H7 H 0.56070 0.31460 0.29000
C11 C 0.5991(3) 0.5293(3) 0.33751(10)
H8 H 0.53640 0.63770 0.33540
H9 H 0.56390 0.48040 0.38010
C12 C 0.8204(3) 0.5480(3) 0.33451(9)
H10 H 0.88330 0.44330 0.34610
H11 H 0.86280 0.62810 0.36790
C13 C 0.8980(3) 0.6007(2) 0.26951(8)
N1 N 0.7788(2) 0.76313(18) 0.03586(7)
O1 O 0.8094(2) 0.82599(16) 0.08921(7)
O2 O 0.7510(2) 0.84108(16) -0.01406(7)
O3 O 0.4560(2) 0.48208(19) 0.17139(6)
O4 O 1.0513(2) 0.6779(2) 0.26442(7)
#END
