
#######################################################################
#
#                 Cambridge Crystallographic Data Centre
#                                CCDC
#
#######################################################################
#
# If this CIF has been generated from an entry in the Cambridge
# Structural Database, then it will include bibliographic, chemical,
# crystal, experimental, refinement or atomic coordinate data resulting
# from the CCDC's data processing and validation procedures.
#
#######################################################################

data_CSD_CIF_YOQTUU
_audit_creation_date 2009-08-17
_audit_creation_method CSD-ConQuest-V1
_database_code_CSD YOQTUU
_database_code_depnum_ccdc_archive 'CCDC 723886'
_chemical_formula_sum 'C15 H17 N1 O7'
_chemical_formula_moiety
;
C15 H17 N1 O7
;
_journal_coden_Cambridge 1336
_journal_volume 11
_journal_year 2009
_journal_page_first 507
_journal_name_full 'Org.Lett. '
loop_
_publ_author_name
"A.P.Ramirez"
"A.M.Thomas"
"K.A.Woerpel"
_chemical_name_systematic
;
(1,4-Dimethyl-2,3,8-trioxabicyclo[3.2.1]oct-4-yl)methyl 4-nitrobenzoate
;
_cell_volume   1456.448
_exptl_crystal_colour 'colorless'
_exptl_crystal_density_diffrn 1.474
_exptl_crystal_description 'irregular'
_diffrn_ambient_temperature 103
#These two values have been output from a single CSD field.
_refine_ls_R_factor_gt 0.0347
_refine_ls_wR_factor_gt 0.0347
_symmetry_cell_setting monoclinic
_symmetry_space_group_name_H-M 'P 21/n'
_symmetry_Int_Tables_number 14
loop_
_symmetry_equiv_pos_site_id
_symmetry_equiv_pos_as_xyz
1 x,y,z
2 1/2-x,1/2+y,1/2-z
3 -x,-y,-z
4 -1/2+x,-1/2-y,-1/2+z
_cell_length_a 7.0878(4)
_cell_length_b 21.6199(13)
_cell_length_c 9.7231(6)
_cell_angle_alpha 90
_cell_angle_beta 102.172(1)
_cell_angle_gamma 90
_cell_formula_units_Z 4
loop_
_atom_type_symbol
_atom_type_radius_bond
C 0.68
H 0.23
N 0.68
O 0.68
loop_
_atom_site_label
_atom_site_type_symbol
_atom_site_fract_x
_atom_site_fract_y
_atom_site_fract_z
N1 N 0.89486(13) -0.09519(4) 0.58992(10)
O1 O 0.38256(11) 0.35809(3) 0.23499(8)
O2 O 0.46783(12) 0.31020(4) 0.45274(8)
O3 O 0.41300(12) 0.24839(3) 0.39309(8)
O4 O 0.47327(12) 0.13851(4) 0.27369(8)
O5 O 0.43597(14) 0.07567(4) 0.08492(9)
O6 O 0.92330(14) -0.14622(4) 0.54338(9)
O7 O 0.94192(13) -0.08112(4) 0.71472(9)
C1 C 0.34027(16) 0.35490(5) 0.37215(11)
C2 C 0.13007(16) 0.33296(6) 0.34657(12)
C3 C 0.10014(16) 0.29987(5) 0.20336(11)
C4 C 0.30420(15) 0.30053(5) 0.17201(11)
C5 C 0.43395(15) 0.24843(5) 0.24758(11)
C6 C 0.35615(16) 0.18586(5) 0.19121(12)
C7 C 0.49800(15) 0.08562(5) 0.20788(11)
C8 C 0.61068(15) 0.04011(5) 0.30895(11)
C9 C 0.65305(16) -0.01734(5) 0.25703(11)
C10 C 0.74845(16) -0.06198(5) 0.34884(12)
C11 C 0.79823(15) -0.04765(5) 0.49096(11)
C12 C 0.76380(15) 0.00977(5) 0.54455(11)
C13 C 0.66907(15) 0.05390(5) 0.45201(11)
C14 C 0.3909(2) 0.41540(6) 0.44783(13)
C15 C 0.64477(16) 0.25642(6) 0.23925(13)
H1 H 0.049(2) 0.3687(7) 0.3451(16)
H2 H 0.108(2) 0.3049(7) 0.4224(15)
H3 H 0.048(2) 0.2575(7) 0.2076(15)
H4 H 0.011(2) 0.3232(6) 0.1276(15)
H5 H 0.306(2) 0.3018(6) 0.0747(14)
H6 H 0.364(2) 0.1812(7) 0.0937(16)
H7 H 0.226(2) 0.1787(7) 0.2033(14)
H8 H 0.616(2) -0.0255(7) 0.1585(16)
H9 H 0.783(2) -0.1007(7) 0.3162(15)
H10 H 0.802(2) 0.0183(7) 0.6396(16)
H11 H 0.639(2) 0.0925(7) 0.4868(15)
H12 H 0.314(2) 0.4495(8) 0.3956(17)
H13 H 0.526(3) 0.4232(8) 0.4602(18)
H14 H 0.356(3) 0.4135(8) 0.5374(19)
H15 H 0.721(2) 0.2211(7) 0.2807(16)
H16 H 0.657(3) 0.2603(8) 0.1430(19)
H17 H 0.697(2) 0.2943(8) 0.2869(16)
#END
