
#######################################################################
#
#                 Cambridge Crystallographic Data Centre
#                                CCDC
#
#######################################################################
#
# If this CIF has been generated from an entry in the Cambridge
# Structural Database, then it will include bibliographic, chemical,
# crystal, experimental, refinement or atomic coordinate data resulting
# from the CCDC's data processing and validation procedures.
#
#######################################################################

data_CSD_CIF_YORKOH
_audit_creation_date 2014-08-28
_audit_creation_method CSD-ConQuest-V1
_database_code_CSD YORKOH
_database_code_depnum_ccdc_archive 'CCDC 1010994'
_chemical_formula_sum 'C20 H24 N2 O6'
_chemical_formula_moiety
;
C20 H24 N2 O6
;
_journal_coden_Cambridge 179
_journal_volume 53
_journal_year 2014
_journal_page_first 10970
_journal_name_full 'Angew.Chem.,Int.Ed. '
loop_
_publ_author_name
"K.C.Nicolaou"
"Lei Shi"
"Min Lu"
"M.R.Pattanayak"
"A.A.Shah"
"H.A.Ioannidou"
"M.Lamani"
_chemical_name_systematic
;
3,4a,6-trimethyl-1,2,4a,5,6,7,8,8a-octahydronaphthalen-2-yl 
3,5-dinitrobenzoate
;
_cell_volume   2018.321
_exptl_crystal_colour 'colorless'
_exptl_crystal_density_diffrn 1.278
_exptl_crystal_description 'Needle-like'
_diffrn_ambient_temperature 296
#These two values have been output from a single CSD field.
_refine_ls_R_factor_gt 0.0488
_refine_ls_wR_factor_gt 0.0488
_symmetry_cell_setting orthorhombic
_symmetry_space_group_name_H-M 'P 21 21 21'
_symmetry_Int_Tables_number 19
loop_
_symmetry_equiv_pos_site_id
_symmetry_equiv_pos_as_xyz
1 x,y,z
2 1/2-x,-y,1/2+z
3 -x,1/2+y,1/2-z
4 1/2+x,1/2-y,-z
_cell_length_a 5.7916(7)
_cell_length_b 13.9659(18)
_cell_length_c 24.953(3)
_cell_angle_alpha 90
_cell_angle_beta 90
_cell_angle_gamma 90
_cell_formula_units_Z 4
loop_
_atom_type_symbol
_atom_type_radius_bond
C 0.68
H 0.23
N 0.68
O 0.68
loop_
_atom_site_label
_atom_site_type_symbol
_atom_site_fract_x
_atom_site_fract_y
_atom_site_fract_z
O1 O 0.6030(5) 0.64735(16) 0.85749(9)
O2 O 0.8834(6) 0.71109(19) 0.90855(10)
O3 O 0.8599(7) 0.6581(2) 1.09980(11)
O4 O 0.5614(6) 0.59397(19) 1.1378(1)
O5 O -0.0337(5) 0.4570(2) 1.02774(11)
O6 O -0.0291(5) 0.47720(18) 0.94206(11)
N1 N 0.6675(8) 0.6217(3) 1.09847(14)
N2 N 0.0520(6) 0.4886(2) 0.98685(14)
C1 C 0.4392(9) 0.8223(3) 0.68873(16)
H1 H 0.28590 0.79530 0.68450
H2 H 0.42500 0.88230 0.70810
C2 C 0.5456(9) 0.8405(3) 0.63373(16)
H3 H 0.44200 0.88060 0.61300
H4 H 0.68940 0.87510 0.63830
C3 C 0.5928(8) 0.7491(3) 0.60259(14)
H5 H 0.44400 0.71980 0.59360
C4 C 0.7278(6) 0.6785(3) 0.63713(12)
H6 H 0.74340 0.61880 0.61760
H7 H 0.88180 0.70380 0.64290
C5 C 0.6194(6) 0.6575(2) 0.69124(13)
C6 C 0.5925(8) 0.7526(3) 0.72061(13)
H8 H 0.74650 0.78150 0.72230
C7 C 0.5152(9) 0.7367(3) 0.77812(14)
H9 H 0.48330 0.79770 0.79520
H10 H 0.37530 0.69850 0.77880
C8 C 0.7067(7) 0.6852(3) 0.80770(13)
H11 H 0.82890 0.73100 0.81680
C9 C 0.8084(6) 0.6033(3) 0.77663(14)
C10 C 0.7710(6) 0.5942(2) 0.72503(13)
H12 H 0.84520 0.54400 0.70770
C11 C 0.7169(9) 0.7716(3) 0.55089(15)
H13 H 0.86670 0.79740 0.55880
H14 H 0.62920 0.81760 0.53080
H15 H 0.73360 0.71410 0.53020
C12 C 0.3910(6) 0.6013(3) 0.68265(15)
H16 H 0.30820 0.59760 0.71590
H17 H 0.42560 0.53790 0.67030
H18 H 0.29800 0.63370 0.65650
C13 C 0.9680(6) 0.5372(3) 0.80725(14)
H19 H 1.09200 0.57370 0.82250
H20 H 1.02990 0.48990 0.78330
H21 H 0.88330 0.50600 0.83530
C14 C 0.7033(8) 0.6686(3) 0.90387(15)
C15 C 0.5746(7) 0.6303(2) 0.95095(13)
C16 C 0.6693(6) 0.6463(2) 1.00133(13)
H22 H 0.80330 0.68240 1.00510
C17 C 0.5629(7) 0.6083(3) 1.04525(13)
C18 C 0.3607(7) 0.5571(2) 1.04234(13)
H23 H 0.28910 0.53280 1.07280
C19 C 0.2693(6) 0.5436(2) 0.99176(14)
C20 C 0.3709(7) 0.5790(2) 0.94579(13)
H24 H 0.30460 0.56880 0.91230
#END
