
#######################################################################
#
#                 Cambridge Crystallographic Data Centre
#                                CCDC
#
#######################################################################
#
# If this CIF has been generated from an entry in the Cambridge
# Structural Database, then it will include bibliographic, chemical,
# crystal, experimental, refinement or atomic coordinate data resulting
# from the CCDC's data processing and validation procedures.
#
#######################################################################

data_CSD_CIF_YUDBAC
_audit_creation_date 2015-02-20
_audit_creation_method CSD-ConQuest-V1
_database_code_CSD YUDBAC
_database_code_depnum_ccdc_archive 'CCDC 1028841'
_chemical_formula_sum 'C18 H16 N2 O6'
_chemical_formula_moiety
;
C18 H16 N2 O6
;
_journal_coden_Cambridge 1291
_journal_year 2015
_journal_page_first 2175
_journal_name_full 'Eur.J.Org.Chem. '
loop_
_publ_author_name
"J.Selvakumar"
"R.S.Rao"
"V.Srinivasapriyan"
"S.Marutheeswaran"
"C.R.Ramanathan"
_chemical_name_systematic
;
12b-hydroxy-2,3-dimethoxy-12-nitro-5,12b-dihydroisoindolo[1,2-a]isoquinolin-8(
6H)-one
;
_cell_volume   1606.141
_exptl_crystal_colour 'colorless'
_exptl_crystal_density_diffrn 1.474
_exptl_crystal_description 'plate'
_diffrn_ambient_temperature 298
#These two values have been output from a single CSD field.
_refine_ls_R_factor_gt 0.054
_refine_ls_wR_factor_gt 0.054
_symmetry_cell_setting monoclinic
_symmetry_space_group_name_H-M 'P 21/n'
_symmetry_Int_Tables_number 14
loop_
_symmetry_equiv_pos_site_id
_symmetry_equiv_pos_as_xyz
1 x,y,z
2 1/2-x,1/2+y,1/2-z
3 -x,-y,-z
4 -1/2+x,-1/2-y,-1/2+z
_cell_length_a 13.3576(9)
_cell_length_b 9.2632(6)
_cell_length_c 14.2940(9)
_cell_angle_alpha 90
_cell_angle_beta 114.754(8)
_cell_angle_gamma 90
_cell_formula_units_Z 4
loop_
_atom_type_symbol
_atom_type_radius_bond
C 0.68
H 0.23
N 0.68
O 0.68
loop_
_atom_site_label
_atom_site_type_symbol
_atom_site_fract_x
_atom_site_fract_y
_atom_site_fract_z
O1 O 0.66538(12) 0.13004(17) 0.07144(10)
H1 H 0.66440 0.15900 0.12530
O2 O 0.81567(13) 0.04354(18) -0.27911(10)
C1 C 0.78322(16) 0.0454(2) -0.00307(13)
O3 O 0.95848(13) 0.18400(17) -0.12607(11)
C2 C 0.80244(17) 0.0349(2) -0.18931(14)
C3 C 0.86938(16) 0.1177(2) -0.01382(14)
H2 H 0.92040 0.16910 0.04150
O4 O 0.82783(15) -0.26986(18) 0.24524(12)
C4 C 0.85929(16) 0.0959(2) 0.19388(14)
C5 C 0.87961(16) 0.1136(2) -0.10646(15)
C6 C 0.72099(16) -0.0430(2) -0.17620(14)
H3 H 0.67240 -0.09900 -0.23010
C7 C 0.76248(16) 0.0507(2) 0.09383(14)
N1 N 0.74687(15) -0.10085(19) 0.11865(12)
C8 C 0.71086(16) -0.0384(2) -0.08296(14)
C9 C 0.97583(19) -0.0118(3) 0.35943(15)
H4 H 0.99370 -0.09090 0.40350
C10 C 0.62429(19) -0.1252(3) -0.06629(16)
H5 H 0.59500 -0.19830 -0.11950
H6 H 0.56410 -0.06230 -0.07150
C11 C 0.82033(19) -0.1460(2) 0.21110(15)
C12 C 0.91765(17) 0.2235(2) 0.22732(14)
C13 C 0.89084(17) -0.0203(2) 0.26166(15)
N2 N 0.8898(2) 0.3553(2) 0.16411(15)
C14 C 1.00582(18) 0.2319(3) 0.32401(16)
H7 H 1.04650 0.31670 0.34420
C15 C 1.03321(19) 0.1151(3) 0.39005(16)
H8 H 1.09060 0.12250 0.45540
C16 C 1.03765(19) 0.2657(3) -0.04432(17)
H9 H 1.08750 0.31130 -0.06780
H10 H 1.07820 0.20290 0.01240
H11 H 1.00070 0.33820 -0.02240
C17 C 0.7322(2) -0.0175(3) -0.36764(16)
H12 H 0.74370 0.00950 -0.42730
H13 H 0.66170 0.01710 -0.37470
H14 H 0.73450 -0.12070 -0.36130
C18 C 0.6722(2) -0.1978(3) 0.03910(16)
H15 H 0.61270 -0.22670 0.05700
H16 H 0.71200 -0.28400 0.03620
O5 O 0.7958(2) 0.3852(2) 0.11340(16)
O6 O 0.9650(2) 0.4254(3) 0.1618(2)
#END
