
#######################################################################
#
#                 Cambridge Crystallographic Data Centre
#                                CCDC
#
#######################################################################
#
# If this CIF has been generated from an entry in the Cambridge
# Structural Database, then it will include bibliographic, chemical,
# crystal, experimental, refinement or atomic coordinate data resulting
# from the CCDC's data processing and validation procedures.
#
#######################################################################

data_CSD_CIF_YUDKIS
_audit_creation_date 2010-07-30
_audit_creation_method CSD-ConQuest-V1
_database_code_CSD YUDKIS
_database_code_depnum_ccdc_archive 'CCDC 675836'
_chemical_formula_sum 'C17 H16 N2 O6'
_chemical_formula_moiety
;
C17 H16 N2 O6
;
_journal_coden_Cambridge 1366
_journal_volume 351
_journal_year 2009
_journal_page_first 2553
_journal_name_full 'Adv.Synth.Catal. '
loop_
_publ_author_name
"Xianfeng Sun"
"Wei Li"
"Guohua Hou"
"Le Zhou"
"Xumu Zhang"
_chemical_name_systematic
;
6,8-Dimethyl-1,13-dinitro-7,8-dihydro-6H-dibenzo[f,h][1,5]dioxonine
;
_cell_volume   1668.042
_exptl_crystal_colour 'yellow'
_exptl_crystal_density_diffrn 1.371
_exptl_crystal_description 'block'
_diffrn_ambient_temperature 133
#These two values have been output from a single CSD field.
_refine_ls_R_factor_gt 0.0777
_refine_ls_wR_factor_gt 0.0777
_symmetry_cell_setting orthorhombic
_symmetry_space_group_name_H-M 'P 21 21 21'
_symmetry_Int_Tables_number 19
loop_
_symmetry_equiv_pos_site_id
_symmetry_equiv_pos_as_xyz
1 x,y,z
2 1/2-x,-y,1/2+z
3 -x,1/2+y,1/2-z
4 1/2+x,1/2-y,-z
_cell_length_a 8.3892(7)
_cell_length_b 12.8437(11)
_cell_length_c 15.4809(14)
_cell_angle_alpha 90
_cell_angle_beta 90
_cell_angle_gamma 90
_cell_formula_units_Z 4
loop_
_atom_type_symbol
_atom_type_radius_bond
C 0.68
H 0.23
N 0.68
O 0.68
loop_
_atom_site_label
_atom_site_type_symbol
_atom_site_fract_x
_atom_site_fract_y
_atom_site_fract_z
C1 C -0.0770(4) 0.9438(3) 0.0853(2)
C2 C -0.1501(4) 0.8557(3) 0.1197(2)
H1 H -0.16220 0.84950 0.18050
C3 C -0.2050(5) 0.7776(3) 0.0667(3)
H2 H -0.25560 0.71840 0.09110
C4 C -0.1872(5) 0.7847(3) -0.0203(3)
H3 H -0.22570 0.73100 -0.05700
C5 C -0.1123(4) 0.8709(3) -0.0546(2)
C6 C -0.0555(4) 0.9531(2) -0.00416(19)
C7 C 0.0332(4) 1.0463(2) -0.03640(18)
C8 C -0.0269(5) 1.1250(3) -0.0882(2)
C9 C 0.0653(7) 1.2078(3) -0.1156(2)
H4 H 0.01990 1.26080 -0.15070
C10 C 0.2186(7) 1.2131(3) -0.0926(3)
H5 H 0.28310 1.26850 -0.11340
C11 C 0.2846(5) 1.1382(3) -0.0386(3)
H6 H 0.39270 1.14390 -0.02090
C12 C 0.1929(4) 1.0552(3) -0.0105(2)
C13 C 0.4904(5) 0.9743(4) 0.1248(4)
H7 H 0.49800 0.89900 0.11530
H8 H 0.53860 0.99190 0.18060
H9 H 0.54690 1.01100 0.07850
C14 C 0.3169(4) 1.0066(3) 0.1248(2)
H10 H 0.31010 1.08380 0.13220
C15 C 0.2181(5) 0.9550(3) 0.1930(2)
H11 H 0.28120 0.95310 0.24700
H12 H 0.19930 0.88200 0.17510
C16 C 0.0574(5) 1.0043(3) 0.2132(2)
H13 H -0.00610 0.95380 0.24830
C17 C 0.0684(7) 1.1032(5) 0.2617(3)
H14 H 0.12430 1.09120 0.31630
H15 H -0.03910 1.12940 0.27350
H16 H 0.12720 1.15450 0.22730
N1 N -0.0858(4) 0.8697(3) -0.1473(2)
N2 N -0.1934(5) 1.1254(3) -0.1145(2)
O1 O 0.2523(3) 0.97821(19) 0.03983(16)
O2 O -0.0293(3) 1.02580(18) 0.13409(14)
O3 O 0.0349(6) 0.9068(4) -0.1758(2)
O4 O -0.1729(7) 0.8199(4) -0.1925(2)
O5 O -0.2381(7) 1.1868(4) -0.1660(4)
O6 O -0.2859(5) 1.0743(5) -0.0778(5)
#END
