
#######################################################################
#
#                 Cambridge Crystallographic Data Centre
#                                CCDC
#
#######################################################################
#
# If this CIF has been generated from an entry in the Cambridge
# Structural Database, then it will include bibliographic, chemical,
# crystal, experimental, refinement or atomic coordinate data resulting
# from the CCDC's data processing and validation procedures.
#
#######################################################################

data_CSD_CIF_YUPGOF
_audit_creation_date 1996-02-22
_audit_creation_method CSD-ConQuest-V1
_database_code_CSD YUPGOF
_chemical_formula_sum 'C9 H19 N1 O1'
_chemical_formula_moiety
;
C9 H19 N1 O1
;
_journal_coden_Cambridge 4
_journal_volume 117
_journal_year 1995
_journal_page_first 4858
_journal_name_full 'J.Am.Chem.Soc. '
loop_
_publ_author_name
"F.G.Bordwell"
"Shizhong Zhang"
_chemical_name_systematic
;
Di-t-butylketoxime
;
_chemical_melting_point 430.15
_cell_volume    984.286
_exptl_crystal_colour 'colorless'
_exptl_crystal_density_diffrn 1.061
_diffrn_ambient_temperature 153.15
#These two values have been output from a single CSD field.
_refine_ls_R_factor_gt 0.038
_refine_ls_wR_factor_gt 0.038
_symmetry_cell_setting monoclinic
_symmetry_space_group_name_H-M 'P 21/c'
_symmetry_Int_Tables_number 14
loop_
_symmetry_equiv_pos_site_id
_symmetry_equiv_pos_as_xyz
1 x,y,z
2 -x,1/2+y,1/2-z
3 -x,-y,-z
4 x,-1/2-y,-1/2+z
_cell_length_a 11.239(2)
_cell_length_b 8.373(2)
_cell_length_c 10.698(3)
_cell_angle_alpha 90
_cell_angle_beta 102.12(2)
_cell_angle_gamma 90
_cell_formula_units_Z 4
loop_
_atom_type_symbol
_atom_type_radius_bond
C 0.68
H 0.23
N 0.68
O 0.68
loop_
_atom_site_label
_atom_site_type_symbol
_atom_site_fract_x
_atom_site_fract_y
_atom_site_fract_z
O1 O 0.8749(1) 0.0991(1) 0.9893(1)
N1 N 0.8866(1) -0.0097(2) 0.8915(1)
C1 C 0.8199(1) -0.1395(2) 0.6957(2)
C2 C 0.7979(1) -0.0156(2) 0.7943(1)
C3 C 0.6822(1) 0.0899(2) 0.7809(2)
C4 C 0.9462(2) -0.2153(3) 0.7367(2)
C5 C 0.8162(2) -0.0631(3) 0.5642(2)
C6 C 0.7277(2) -0.2760(3) 0.6853(3)
C7 C 0.7197(2) 0.2660(2) 0.7818(2)
C8 C 0.6200(2) 0.0530(3) 0.8926(2)
C9 C 0.5844(2) 0.0671(3) 0.6583(2)
H1 H 0.948(2) 0.086(2) 1.046(2)
H2 H 1.013(2) -0.125(3) 0.740(2)
H3 H 0.957(2) -0.291(3) 0.671(2)
H4 H 0.955(2) -0.273(3) 0.819(2)
H5 H 0.850(2) -0.142(3) 0.513(2)
H6 H 0.871(3) 0.026(4) 0.567(3)
H7 H 0.733(2) -0.043(3) 0.522(3)
H8 H 0.749(2) -0.359(3) 0.639(2)
H9 H 0.644(2) -0.241(3) 0.647(2)
H10 H 0.726(3) -0.327(4) 0.772(3)
H11 H 0.779(2) 0.296(2) 0.859(2)
H12 H 0.651(2) 0.330(3) 0.776(2)
H13 H 0.756(2) 0.292(2) 0.702(2)
H14 H 0.673(2) 0.070(2) 0.976(2)
H15 H 0.542(2) 0.116(2) 0.882(2)
H16 H 0.600(2) -0.067(3) 0.887(2)
H17 H 0.512(2) 0.141(3) 0.666(2)
H18 H 0.555(2) -0.040(3) 0.647(2)
H19 H 0.615(2) 0.097(2) 0.583(2)
#END
