
#######################################################################
#
#                 Cambridge Crystallographic Data Centre
#                                CCDC
#
#######################################################################
#
# If this CIF has been generated from an entry in the Cambridge
# Structural Database, then it will include bibliographic, chemical,
# crystal, experimental, refinement or atomic coordinate data resulting
# from the CCDC's data processing and validation procedures.
#
#######################################################################

data_CSD_CIF_YUVBIC
_audit_creation_date 2015-11-06
_audit_creation_method CSD-ConQuest-V1
_database_code_CSD YUVBIC
_database_code_depnum_ccdc_archive 'CCDC 1435490'
_chemical_formula_sum 'C17 H29 N3 O3'
_chemical_formula_moiety
;
C17 H29 N3 O3
;
_journal_coden_Cambridge 1078
_journal_year 2015
_journal_name_full 'CSD Communication(Private Communication) '
loop_
_publ_author_name
"H.K.T.Ishida"
_chemical_name_systematic
;
4-t-butoxy-N,N'-di-t-butylpyridine-2,6-diamine N,N'-dioxide
;
_chemical_melting_point 349
_cell_volume    897.387
_exptl_crystal_colour 'orange'
_exptl_crystal_density_diffrn 1.197
_exptl_special_details
;
Melts above 349K

;
_exptl_crystal_description 'block'
_exptl_crystal_preparation 'Re-crystallisation from solvent'
_diffrn_ambient_temperature 100
#These two values have been output from a single CSD field.
_refine_ls_R_factor_gt 0.067
_refine_ls_wR_factor_gt 0.067
_symmetry_cell_setting triclinic
_symmetry_space_group_name_H-M 'P -1'
_symmetry_Int_Tables_number 2
loop_
_symmetry_equiv_pos_site_id
_symmetry_equiv_pos_as_xyz
1 x,y,z
2 -x,-y,-z
_cell_length_a 6.338(13)
_cell_length_b 9.39(3)
_cell_length_c 15.71(3)
_cell_angle_alpha 97.83(5)
_cell_angle_beta 98.35(5)
_cell_angle_gamma 100.31(5)
_cell_formula_units_Z 2
loop_
_atom_type_symbol
_atom_type_radius_bond
C 0.68
H 0.23
N 0.68
O 0.68
loop_
_atom_site_label
_atom_site_type_symbol
_atom_site_fract_x
_atom_site_fract_y
_atom_site_fract_z
O1 O -0.2293(3) 0.31911(14) 0.65181(9)
O2 O 0.4231(3) 0.97442(14) 0.85528(9)
O3 O -0.07785(19) 0.82475(12) 0.58593(7)
N1 N -0.0738(3) 0.38349(15) 0.71440(9)
N2 N 0.4026(3) 0.83293(15) 0.84565(9)
N3 N 0.1702(2) 0.60533(14) 0.77965(8)
C1 C 0.0084(3) 0.53405(17) 0.71499(10)
C2 C -0.0886(3) 0.59712(18) 0.64757(10)
C3 C -0.0119(3) 0.74502(17) 0.64646(10)
C4 C 0.1558(3) 0.82425(17) 0.71322(10)
C5 C 0.2382(3) 0.74916(17) 0.77714(10)
C6 C -0.0010(3) 0.29207(18) 0.78153(11)
C7 C -0.1284(4) 0.13482(19) 0.75006(13)
C8 C -0.0591(4) 0.3516(2) 0.86858(11)
C9 C 0.2427(3) 0.2948(2) 0.78775(12)
C10 C 0.5695(3) 0.77125(18) 0.89979(10)
C11 C 0.6745(4) 0.6787(3) 0.83703(14)
C12 C 0.4619(4) 0.6863(3) 0.96302(12)
C13 C 0.7433(3) 0.9000(2) 0.95115(12)
C14 C -0.2781(3) 0.77585(17) 0.52012(10)
C15 C -0.2626(4) 0.6438(2) 0.45564(11)
C16 C -0.4733(3) 0.7532(2) 0.56650(12)
C17 C -0.2800(3) 0.90722(19) 0.47298(12)
H1 H -0.205(4) 0.540(3) 0.6080(15)
H2 H 0.24110 0.93910 0.71660
H3 H -0.094(4) 0.091(3) 0.6950(17)
H4 H -0.079(4) 0.079(3) 0.7891(15)
H5 H -0.281(4) 0.127(3) 0.7530(14)
H6 H -0.220(5) 0.350(3) 0.8621(15)
H7 H -0.019(4) 0.283(3) 0.9107(15)
H8 H 0.016(4) 0.453(3) 0.8912(14)
H9 H 0.280(5) 0.271(3) 0.7273(17)
H10 H 0.328(4) 0.393(3) 0.8133(13)
H11 H 0.282(4) 0.220(3) 0.8245(15)
H12 H 0.749(5) 0.741(3) 0.8001(18)
H13 H 0.773(5) 0.641(3) 0.8768(17)
H14 H 0.572(4) 0.591(3) 0.8046(15)
H15 H 0.338(5) 0.594(3) 0.9280(16)
H16 H 0.569(5) 0.649(3) 0.9979(17)
H17 H 0.389(5) 0.760(3) 0.9974(17)
H18 H 0.688(4) 0.964(3) 0.9936(15)
H19 H 0.852(5) 0.866(3) 0.9774(16)
H20 H 0.812(4) 0.957(3) 0.9072(15)
H21 H -0.271(4) 0.563(3) 0.4783(13)
H22 H -0.380(4) 0.629(3) 0.4018(15)
H23 H -0.126(4) 0.660(3) 0.4333(15)
H24 H -0.464(4) 0.844(3) 0.6056(15)
H25 H -0.607(4) 0.732(3) 0.5249(15)
H26 H -0.473(4) 0.672(3) 0.6003(13)
H27 H -0.144(4) 0.916(3) 0.4471(14)
H28 H -0.414(4) 0.895(3) 0.4325(14)
H29 H -0.268(4) 0.999(3) 0.5145(14)
#END
