
#######################################################################
#
#                 Cambridge Crystallographic Data Centre
#                                CCDC
#
#######################################################################
#
# If this CIF has been generated from an entry in the Cambridge
# Structural Database, then it will include bibliographic, chemical,
# crystal, experimental, refinement or atomic coordinate data resulting
# from the CCDC's data processing and validation procedures.
#
#######################################################################

data_CSD_CIF_YUXDUS
_audit_creation_date 2015-11-06
_audit_creation_method CSD-ConQuest-V1
_database_code_CSD YUXDUS
_database_code_depnum_ccdc_archive 'CCDC 1424763'
_chemical_formula_sum 'C21 H41 N1 O2'
_chemical_formula_moiety
;
C21 H41 N1 O2
;
_journal_coden_Cambridge 1291
_journal_year 2015
_journal_page_first 7785
_journal_name_full 'Eur.J.Org.Chem. '
loop_
_publ_author_name
"E.Jahn"
"J.Smrcek"
"R.Pohl"
"I.Cisarova"
"P.G.Jones"
"U.Jahn"
_chemical_name_systematic
;
2-((2,2,6,6-tetramethylpiperidin-1-yl)oxy)cyclododecanol
;
_cell_volume   1012.454
_exptl_crystal_colour 'colorless'
_exptl_crystal_density_diffrn 1.114
_exptl_crystal_description 'prism'
_diffrn_ambient_temperature 150
#These two values have been output from a single CSD field.
_refine_ls_R_factor_gt 0.0441
_refine_ls_wR_factor_gt 0.0441
_symmetry_cell_setting triclinic
_symmetry_space_group_name_H-M 'P -1'
_symmetry_Int_Tables_number 2
loop_
_symmetry_equiv_pos_site_id
_symmetry_equiv_pos_as_xyz
1 x,y,z
2 -x,-y,-z
_cell_length_a 7.9274(2)
_cell_length_b 10.8653(3)
_cell_length_c 12.2044(4)
_cell_angle_alpha 102.826(1)
_cell_angle_beta 91.188(1)
_cell_angle_gamma 98.396(1)
_cell_formula_units_Z 2
loop_
_atom_type_symbol
_atom_type_radius_bond
C 0.68
H 0.23
N 0.68
O 0.68
loop_
_atom_site_label
_atom_site_type_symbol
_atom_site_fract_x
_atom_site_fract_y
_atom_site_fract_z
C1 C 0.16610(15) 0.21862(11) 0.71007(10)
H1 H 0.05750 0.22840 0.74900
C2 C 0.28290(14) 0.16451(10) 0.78269(9)
H2 H 0.39440 0.15980 0.74640
C3 C 0.31770(15) 0.24525(11) 0.90222(10)
H3 H 0.35490 0.33520 0.89840
H4 H 0.20930 0.24180 0.94110
C4 C 0.45156(17) 0.20560(12) 0.97295(10)
H5 H 0.42560 0.11220 0.96640
H6 H 0.44390 0.24820 1.05290
C5 C 0.63428(17) 0.23852(13) 0.93874(11)
H7 H 0.63790 0.20680 0.85640
H8 H 0.70990 0.19310 0.97570
C6 C 0.70439(16) 0.38241(12) 0.96957(10)
H9 H 0.60720 0.43060 0.97230
H10 H 0.76100 0.40390 1.04590
C7 C 0.83090(17) 0.42689(16) 0.88878(12)
H11 H 0.92600 0.37640 0.88390
H12 H 0.87940 0.51740 0.92060
C8 C 0.75613(18) 0.41520(15) 0.77011(11)
H13 H 0.70380 0.32530 0.73900
H14 H 0.85010 0.43630 0.72200
C9 C 0.62198(17) 0.50138(12) 0.76410(11)
H15 H 0.67850 0.59150 0.78290
H16 H 0.53800 0.49070 0.82150
C10 C 0.52683(17) 0.47393(12) 0.64889(11)
H17 H 0.46260 0.54490 0.64630
H18 H 0.61160 0.47220 0.59040
C11 C 0.40282(16) 0.34854(12) 0.62053(10)
H19 H 0.46390 0.27880 0.63200
H20 H 0.36500 0.33000 0.53990
C12 C 0.24436(15) 0.34880(11) 0.69115(11)
H21 H 0.27590 0.40770 0.76540
H22 H 0.15610 0.38330 0.65350
C13 C 0.26115(15) -0.14703(11) 0.66407(10)
C14 C 0.16377(17) -0.25576(12) 0.57211(11)
H23 H 0.13610 -0.22090 0.50670
H24 H 0.23920 -0.32040 0.54700
C15 C -0.00018(19) -0.32076(12) 0.60983(12)
H25 H -0.05940 -0.38710 0.54620
H26 H 0.02600 -0.36250 0.67110
C16 C -0.11344(16) -0.22107(12) 0.65101(10)
H27 H -0.21980 -0.26280 0.67690
H28 H -0.14510 -0.18450 0.58740
C17 C -0.02786(14) -0.11255(11) 0.74729(10)
C18 C -0.01067(17) -0.15824(13) 0.85692(10)
H29 H 0.03480 -0.23920 0.84110
H30 H -0.12310 -0.17080 0.88830
H31 H 0.06720 -0.09390 0.91130
C19 C -0.14054(15) -0.00778(13) 0.76855(12)
H32 H -0.09000 0.06110 0.83180
H33 H -0.25470 -0.04350 0.78640
H34 H -0.14920 0.02620 0.70100
C20 C 0.34559(17) -0.19818(13) 0.75570(12)
H35 H 0.37600 -0.12890 0.82280
H36 H 0.44890 -0.23140 0.72770
H37 H 0.26570 -0.26690 0.77500
C21 C 0.40299(17) -0.07477(13) 0.60869(12)
H38 H 0.35200 -0.03080 0.55750
H39 H 0.47140 -0.13540 0.56630
H40 H 0.47630 -0.01190 0.66690
N1 N 0.13723(11) -0.05745(8) 0.70572(7)
O1 O 0.12526(11) 0.13634(8) 0.60195(7)
H41 H 0.10760 0.05580 0.61860
O2 O 0.21808(10) 0.03924(7) 0.80220(6)
#END
