
#######################################################################
#
#                 Cambridge Crystallographic Data Centre
#                                CCDC
#
#######################################################################
#
# If this CIF has been generated from an entry in the Cambridge
# Structural Database, then it will include bibliographic, chemical,
# crystal, experimental, refinement or atomic coordinate data resulting
# from the CCDC's data processing and validation procedures.
#
#######################################################################

data_CSD_CIF_YUXFAA
_audit_creation_date 2015-11-06
_audit_creation_method CSD-ConQuest-V1
_database_code_CSD YUXFAA
_database_code_depnum_ccdc_archive 'CCDC 1424764'
_chemical_formula_sum 'C21 H39 N1 O2'
_chemical_formula_moiety
;
C21 H39 N1 O2
;
_journal_coden_Cambridge 1291
_journal_year 2015
_journal_page_first 7785
_journal_name_full 'Eur.J.Org.Chem. '
loop_
_publ_author_name
"E.Jahn"
"J.Smrcek"
"R.Pohl"
"I.Cisarova"
"P.G.Jones"
"U.Jahn"
_chemical_name_systematic
;
2-((2,2,6,6-tetramethylpiperidin-1-yl)oxy)cyclododecanone
;
_cell_volume   2037.198
_exptl_crystal_colour 'colorless'
_exptl_crystal_density_diffrn 1.101
_exptl_crystal_description 'prism'
_diffrn_ambient_temperature 150
#These two values have been output from a single CSD field.
_refine_ls_R_factor_gt 0.0372
_refine_ls_wR_factor_gt 0.0372
_symmetry_cell_setting monoclinic
_symmetry_space_group_name_H-M 'P 21/c'
_symmetry_Int_Tables_number 14
loop_
_symmetry_equiv_pos_site_id
_symmetry_equiv_pos_as_xyz
1 x,y,z
2 -x,1/2+y,1/2-z
3 -x,-y,-z
4 x,-1/2-y,-1/2+z
_cell_length_a 15.2323(4)
_cell_length_b 5.9310(2)
_cell_length_c 22.5864(7)
_cell_angle_alpha 90
_cell_angle_beta 93.269(1)
_cell_angle_gamma 90
_cell_formula_units_Z 4
loop_
_atom_type_symbol
_atom_type_radius_bond
C 0.68
H 0.23
N 0.68
O 0.68
loop_
_atom_site_label
_atom_site_type_symbol
_atom_site_fract_x
_atom_site_fract_y
_atom_site_fract_z
C1 C 0.19076(6) 0.64016(16) 0.20274(4)
C2 C 0.24153(6) 0.68384(15) 0.26198(4)
H1 H 0.22020 0.82580 0.28030
C3 C 0.33963(6) 0.70460(18) 0.25052(4)
H2 H 0.37290 0.72690 0.28900
H3 H 0.35950 0.56040 0.23370
C4 C 0.36307(6) 0.89551(18) 0.20885(5)
H4 H 0.35290 1.04190 0.22840
H5 H 0.32380 0.88800 0.17240
C5 C 0.45909(7) 0.8840(2) 0.19170(5)
H6 H 0.47350 1.02580 0.17130
H7 H 0.49770 0.87440 0.22840
C6 C 0.47955(7) 0.6856(2) 0.15168(5)
H8 H 0.45830 0.54530 0.16980
H9 H 0.54410 0.67290 0.14990
C7 C 0.43846(8) 0.7041(2) 0.08832(5)
H10 H 0.38500 0.79890 0.08880
H11 H 0.48050 0.78150 0.06340
C8 C 0.41372(8) 0.4773(2) 0.06001(5)
H12 H 0.46580 0.37720 0.06290
H13 H 0.39760 0.50120 0.01740
C9 C 0.33727(7) 0.35862(19) 0.08855(5)
H14 H 0.33220 0.20320 0.07270
H15 H 0.35110 0.34760 0.13180
C10 C 0.24884(7) 0.47621(19) 0.07808(4)
H16 H 0.23130 0.46920 0.03520
H17 H 0.25600 0.63720 0.08890
C11 C 0.17457(7) 0.3768(2) 0.11282(5)
H18 H 0.11880 0.45270 0.10000
H19 H 0.16820 0.21490 0.10270
C12 C 0.18872(7) 0.39958(17) 0.18018(4)
H20 H 0.14110 0.31770 0.19900
H21 H 0.24500 0.32570 0.19290
C13 C 0.09747(6) 0.47592(16) 0.35273(4)
C14 C 0.05807(7) 0.5393(2) 0.41146(5)
H22 H 0.05210 0.70530 0.41350
H23 H -0.00160 0.47350 0.41230
C15 C 0.11309(8) 0.4583(2) 0.46568(5)
H24 H 0.08680 0.51180 0.50220
H25 H 0.11450 0.29150 0.46650
C16 C 0.20580(7) 0.5502(2) 0.46289(4)
H26 H 0.24210 0.49250 0.49740
H27 H 0.20390 0.71660 0.46610
C17 C 0.25010(6) 0.48691(16) 0.40589(4)
C18 C 0.33563(7) 0.62192(18) 0.40439(5)
H28 H 0.37080 0.56370 0.37280
H29 H 0.36900 0.60740 0.44260
H30 H 0.32180 0.78110 0.39680
C19 C 0.27492(7) 0.23554(17) 0.40522(5)
H31 H 0.22590 0.14550 0.41870
H32 H 0.32720 0.21030 0.43170
H33 H 0.28750 0.19070 0.36480
C20 C 0.08694(7) 0.22231(17) 0.34007(5)
H34 H 0.12250 0.18040 0.30700
H35 H 0.02500 0.18850 0.32970
H36 H 0.10660 0.13640 0.37540
C21 C 0.04514(6) 0.60255(17) 0.30335(4)
H37 H 0.05620 0.76470 0.30750
H38 H -0.01780 0.57280 0.30630
H39 H 0.06350 0.55120 0.26470
N1 N 0.18968(5) 0.56458(13) 0.35552(3)
O1 O 0.15680(5) 0.79534(13) 0.17487(3)
O2 O 0.23004(4) 0.49517(10) 0.30129(3)
#END
