
#######################################################################
#
#                 Cambridge Crystallographic Data Centre
#                                CCDC
#
#######################################################################
#
# If this CIF has been generated from an entry in the Cambridge
# Structural Database, then it will include bibliographic, chemical,
# crystal, experimental, refinement or atomic coordinate data resulting
# from the CCDC's data processing and validation procedures.
#
#######################################################################

data_CSD_CIF_ZALVUG
_audit_creation_date 2017-02-14
_audit_creation_method CSD-ConQuest-V1
_database_code_CSD ZALVUG
_database_code_depnum_ccdc_archive 'CCDC 1476852'
_chemical_formula_sum 'C9 H8 N2 O6'
_chemical_formula_moiety
;
C9 H8 N2 O6
;
_journal_coden_Cambridge 1220
_journal_volume 22
_journal_year 2016
_journal_page_first 16187
_journal_name_full 'Chem.-Eur.J. '
loop_
_publ_author_name
"D.F.Schrempp"
"E.Kaifer"
"H.Wadepohl"
"H.-J.Himmel"
_chemical_name_systematic
;
2,2-dimethyl-5,6-dinitro-1,3-benzodioxole
;
_cell_volume    995.335
_exptl_crystal_colour 'colorless'
_exptl_crystal_density_diffrn 1.603
_exptl_crystal_description 'plate'
_diffrn_ambient_temperature 100
#These two values have been output from a single CSD field.
_refine_ls_R_factor_gt 0.0824
_refine_ls_wR_factor_gt 0.0824
_symmetry_cell_setting monoclinic
_symmetry_space_group_name_H-M 'P 21/c'
_symmetry_Int_Tables_number 14
loop_
_symmetry_equiv_pos_site_id
_symmetry_equiv_pos_as_xyz
1 x,y,z
2 -x,1/2+y,1/2-z
3 -x,-y,-z
4 x,-1/2-y,-1/2+z
_cell_length_a 10.131(2)
_cell_length_b 14.024(3)
_cell_length_c 7.2700(15)
_cell_angle_alpha 90
_cell_angle_beta 105.50(3)
_cell_angle_gamma 90
_cell_formula_units_Z 4
loop_
_atom_type_symbol
_atom_type_radius_bond
C 0.68
H 0.23
N 0.68
O 0.68
loop_
_atom_site_label
_atom_site_type_symbol
_atom_site_fract_x
_atom_site_fract_y
_atom_site_fract_z
O1 O 0.1782(3) 0.4218(2) 0.0979(5)
O2 O 0.2886(3) 0.2750(2) 0.1302(5)
O3 O -0.0907(4) 0.0340(2) -0.1996(5)
O4 O -0.2250(4) 0.0855(3) -0.0312(6)
O5 O -0.3217(4) 0.2182(3) -0.3183(5)
O6 O -0.3294(3) 0.3575(3) -0.1895(5)
N1 N -0.1322(4) 0.0959(3) -0.1088(6)
N2 N -0.2698(4) 0.2841(3) -0.2122(6)
C1 C -0.0579(5) 0.1875(3) -0.0797(7)
C2 C -0.1239(5) 0.2754(3) -0.1112(6)
C3 C -0.0511(5) 0.3604(3) -0.0583(7)
H1 H -0.09400 0.41960 -0.07810
C4 C 0.0869(5) 0.3515(3) 0.0244(7)
C5 C 0.1529(5) 0.2637(3) 0.0473(7)
C6 C 0.0830(5) 0.1793(3) -0.0022(7)
H2 H 0.12720 0.12060 0.01510
C7 C 0.3153(5) 0.3784(3) 0.1303(7)
C8 C 0.4021(5) 0.4071(4) 0.3243(7)
H3 H 0.41270 0.47510 0.32950
H4 H 0.49060 0.37760 0.34740
H5 H 0.35860 0.38680 0.41990
C9 C 0.3715(5) 0.4028(4) -0.0340(8)
H6 H 0.31110 0.37900 -0.15000
H7 H 0.46030 0.37430 -0.01520
H8 H 0.37920 0.47080 -0.04250
#END
