
#######################################################################
#
#                 Cambridge Crystallographic Data Centre
#                                CCDC
#
#######################################################################
#
# If this CIF has been generated from an entry in the Cambridge
# Structural Database, then it will include bibliographic, chemical,
# crystal, experimental, refinement or atomic coordinate data resulting
# from the CCDC's data processing and validation procedures.
#
#######################################################################

data_CSD_CIF_ZARJEJ
_audit_creation_date 2012-06-01
_audit_creation_method CSD-ConQuest-V1
_database_code_CSD ZARJEJ
_database_code_depnum_ccdc_archive 'CCDC 817821'
_chemical_formula_sum 'C6 H4 N8 O3'
_chemical_formula_moiety
;
C6 H4 N8 O3
;
_journal_coeditor_code "IUCr BT5881"
_journal_coden_Cambridge 1370
_journal_volume 68
_journal_year 2012
_journal_page_first o1573
_journal_name_full 'Acta Crystallogr.,Sect.E:Struct.Rep.Online '
loop_
_publ_author_name
"Si-Yuan Jia"
"Bo-Zhou Wang"
"Xue-Zhong Fan"
"Ping Li"
"Seik Weng Ng"
_chemical_name_systematic
;
4-[4-(4-Amino-1,2,5-oxadiazol-3-yl)-1,2,5-oxadiazol-3-yl]-1,2,5-oxadiazol-3-am
ine
;
_chemical_name_common
;
3,3':4',3''-Ter-1,2,5-oxadiazole-4,4''-diamine
;
_chemical_melting_point 456
_cell_volume    931.866
_exptl_crystal_colour 'colorless'
_exptl_crystal_density_diffrn 1.683
_exptl_special_details
;
Melting point range 456-457K

;
_exptl_crystal_description 'prism'
_exptl_crystal_preparation 'ethyl acetate/diethyl ether'
_diffrn_ambient_temperature 293
#These two values have been output from a single CSD field.
_refine_ls_R_factor_gt 0.031
_refine_ls_wR_factor_gt 0.031
_symmetry_cell_setting monoclinic
_symmetry_space_group_name_H-M 'C 2/c'
_symmetry_Int_Tables_number 15
loop_
_symmetry_equiv_pos_site_id
_symmetry_equiv_pos_as_xyz
1 x,y,z
2 -x,y,1/2-z
3 1/2+x,1/2+y,z
4 1/2-x,1/2+y,1/2-z
5 -x,-y,-z
6 x,-y,-1/2+z
7 -1/2-x,-1/2-y,-z
8 -1/2+x,-1/2-y,-1/2+z
_cell_length_a 7.1681(9)
_cell_length_b 10.8147(13)
_cell_length_c 12.3448(18)
_cell_angle_alpha 90
_cell_angle_beta 103.155(1)
_cell_angle_gamma 90
_cell_formula_units_Z 4
loop_
_atom_type_symbol
_atom_type_radius_bond
C 0.68
H 0.23
N 0.68
O 0.68
loop_
_atom_site_label
_atom_site_type_symbol
_atom_site_fract_x
_atom_site_fract_y
_atom_site_fract_z
O1 O 0.00000 0.80892(10) 0.75000
O2 O 0.16242(12) 0.35531(8) 0.56878(8)
N1 N 0.09563(14) 0.73719(9) 0.68904(8)
N2 N 0.06415(14) 0.41475(9) 0.63634(9)
N3 N 0.29963(15) 0.43342(9) 0.54042(9)
N4 N 0.3974(2) 0.63687(11) 0.58898(12)
H1 H 0.372(2) 0.7101(14) 0.6165(12)
H2 H 0.480(3) 0.6342(15) 0.5474(15)
C1 C 0.06039(15) 0.62259(9) 0.71097(9)
C2 C 0.13553(15) 0.52528(10) 0.65104(9)
C3 C 0.28563(16) 0.53785(10) 0.59138(10)
O2A O -0.16242(12) 0.35531(8) 0.93122(8)
N1A N -0.09563(14) 0.73719(9) 0.81096(8)
N2A N -0.06415(14) 0.41475(9) 0.86366(9)
N3A N -0.29963(15) 0.43342(9) 0.95958(9)
N4A N -0.3974(2) 0.63687(11) 0.91102(12)
H1A H -0.372(2) 0.7101(14) 0.8835(12)
H2A H -0.480(3) 0.6342(15) 0.9526(15)
C1A C -0.06039(15) 0.62259(9) 0.78903(9)
C2A C -0.13553(15) 0.52528(10) 0.84896(9)
C3A C -0.28563(16) 0.53785(10) 0.90862(10)
#END
