
#######################################################################
#
#                 Cambridge Crystallographic Data Centre
#                                CCDC
#
#######################################################################
#
# If this CIF has been generated from an entry in the Cambridge
# Structural Database, then it will include bibliographic, chemical,
# crystal, experimental, refinement or atomic coordinate data resulting
# from the CCDC's data processing and validation procedures.
#
#######################################################################

data_CSD_CIF_ZAYGEO
_audit_creation_date 2017-07-05
_audit_creation_method CSD-ConQuest-V1
_database_code_CSD ZAYGEO
_database_code_depnum_ccdc_archive 'CCDC 1538330'
_chemical_formula_sum 'C8 H14 N6 O15'
_chemical_formula_moiety
;
C8 H14 N6 O15
;
_journal_coden_Cambridge 1291
_journal_year 2017
_journal_page_first 3666
_journal_name_full 'Eur.J.Org.Chem. '
loop_
_publ_author_name
"T.M.Klapotke"
"B.Krumm"
"T.Reith"
_chemical_name_systematic
;
(bis(2-nitrooxyethyl)amino)tris(nitrooxymethyl)methane
;
_chemical_name_common
;
2-(bis(2-(nitrooxy)ethyl)amino)-2-((nitrooxy)methyl)propane-1,3-diyl dinitrate
;
_cell_volume    831.835
_exptl_crystal_colour 'colorless'
_exptl_crystal_density_diffrn 1.734
_exptl_crystal_description 'block'
_diffrn_ambient_temperature 123
#These two values have been output from a single CSD field.
_refine_ls_R_factor_gt 0.0358
_refine_ls_wR_factor_gt 0.0358
_symmetry_cell_setting triclinic
_symmetry_space_group_name_H-M 'P -1'
_symmetry_Int_Tables_number 2
loop_
_symmetry_equiv_pos_site_id
_symmetry_equiv_pos_as_xyz
1 x,y,z
2 -x,-y,-z
_cell_length_a 8.514(7)
_cell_length_b 9.094(5)
_cell_length_c 12.743(8)
_cell_angle_alpha 102.652(5)
_cell_angle_beta 100.336(6)
_cell_angle_gamma 114.808(7)
_cell_formula_units_Z 2
loop_
_atom_type_symbol
_atom_type_radius_bond
C 0.68
H 0.23
N 0.68
O 0.68
loop_
_atom_site_label
_atom_site_type_symbol
_atom_site_fract_x
_atom_site_fract_y
_atom_site_fract_z
O1 O -0.21240(14) 0.29500(12) 0.48006(8)
O2 O -0.03188(16) 0.55776(12) 0.22858(9)
O3 O -0.27810(13) -0.13738(11) 0.22257(8)
O4 O 0.13404(13) 0.32079(11) 0.45296(8)
O5 O 0.33638(14) 0.21049(13) 0.16691(8)
O6 O 0.23354(15) 0.19874(12) 0.56379(9)
O7 O -0.37656(15) -0.41200(12) 0.16250(9)
O8 O 0.39024(15) 0.46974(13) 0.58741(9)
N1 N -0.07325(16) 0.22460(13) 0.22461(9)
O9 O 0.42191(16) 0.17662(15) 0.01758(9)
O10 O -0.57381(15) -0.32122(12) 0.17604(10)
O11 O -0.51750(16) 0.16516(14) 0.40642(10)
O12 O 0.23950(15) 0.28649(13) 0.02293(9)
N2 N 0.26243(17) 0.32805(15) 0.54247(10)
O13 O 0.08835(18) 0.74553(14) 0.14162(12)
O14 O -0.38753(19) 0.23582(19) 0.58577(11)
N3 N -0.42366(17) -0.30419(14) 0.18401(10)
C1 C 0.0293(2) 0.14787(17) 0.17640(13)
N4 N 0.33090(17) 0.22732(15) 0.06039(10)
O15 O 0.07844(19) 0.83016(14) 0.31254(11)
N5 N -0.38984(19) 0.22535(16) 0.48996(12)
C2 C -0.0791(2) 0.42679(18) 0.12260(13)
C3 C -0.0190(2) 0.14946(16) 0.39782(12)
C4 C -0.3302(2) -0.00773(17) 0.26186(13)
C5 C -0.2004(2) 0.30250(18) 0.36952(12)
N6 N 0.05226(19) 0.72480(16) 0.22607(13)
C6 C -0.15349(19) 0.16520(16) 0.30965(11)
C7 C 0.2309(2) 0.27461(19) 0.22165(13)
C8 C -0.1839(2) 0.25921(18) 0.14129(13)
H1 H -0.071(2) 0.1096(17) 0.4515(13)
H2 H -0.102(2) 0.4124(19) 0.3835(12)
H3 H 0.024(2) 0.0722(17) 0.3665(12)
H4 H -0.3877(19) -0.0320(16) 0.3197(12)
H5 H -0.313(2) 0.2888(18) 0.3236(12)
H6 H 0.027(2) 0.4368(18) 0.1037(13)
H7 H -0.151(2) 0.4423(18) 0.0637(13)
H8 H -0.282(2) 0.2616(17) 0.1674(12)
H9 H 0.283(2) 0.2904(18) 0.2978(14)
H10 H 0.256(2) 0.3856(19) 0.2142(13)
H11 H -0.007(2) 0.1204(19) 0.0952(14)
H12 H -0.415(2) -0.0083(18) 0.1990(13)
H13 H -0.231(2) 0.1671(18) 0.0687(13)
H14 H 0.010(2) 0.0429(19) 0.1914(13)
#END
