
#######################################################################
#
#                 Cambridge Crystallographic Data Centre
#                                CCDC
#
#######################################################################
#
# If this CIF has been generated from an entry in the Cambridge
# Structural Database, then it will include bibliographic, chemical,
# crystal, experimental, refinement or atomic coordinate data resulting
# from the CCDC's data processing and validation procedures.
#
#######################################################################

data_CSD_CIF_ZAYGOY
_audit_creation_date 2017-07-05
_audit_creation_method CSD-ConQuest-V1
_database_code_CSD ZAYGOY
_database_code_depnum_ccdc_archive 'CCDC 1538332'
_chemical_formula_sum 'C11 H16 N8 O20'
_chemical_formula_moiety
;
C11 H16 N8 O20
;
_journal_coden_Cambridge 1291
_journal_year 2017
_journal_page_first 3666
_journal_name_full 'Eur.J.Org.Chem. '
loop_
_publ_author_name
"T.M.Klapotke"
"B.Krumm"
"T.Reith"
_chemical_name_systematic
;
((1,3-dioxopropane-1,3-diyl)bis(azanediyl)-2-((nitrooxy)methyl)propane-2,1,3-t
riyl) tetranitrate
;
_chemical_name_common
;
N$1!,N$3!-bis(tris(nitrooxymethyl)methyl)malonamide
;
_cell_volume   2248.665
_exptl_crystal_colour 'colorless'
_exptl_crystal_density_diffrn 1.714
_exptl_crystal_description 'block'
_diffrn_ambient_temperature 123
#These two values have been output from a single CSD field.
_refine_ls_R_factor_gt 0.0312
_refine_ls_wR_factor_gt 0.0312
_symmetry_cell_setting monoclinic
_symmetry_space_group_name_H-M 'P 21/n'
_symmetry_Int_Tables_number 14
loop_
_symmetry_equiv_pos_site_id
_symmetry_equiv_pos_as_xyz
1 x,y,z
2 1/2-x,1/2+y,1/2-z
3 -x,-y,-z
4 -1/2+x,-1/2-y,-1/2+z
_cell_length_a 9.516(3)
_cell_length_b 18.668(6)
_cell_length_c 12.934(4)
_cell_angle_alpha 90
_cell_angle_beta 101.853(3)
_cell_angle_gamma 90
_cell_formula_units_Z 4
loop_
_atom_type_symbol
_atom_type_radius_bond
C 0.68
H 0.23
N 0.68
O 0.68
loop_
_atom_site_label
_atom_site_type_symbol
_atom_site_fract_x
_atom_site_fract_y
_atom_site_fract_z
O1 O 0.97231(10) -0.23839(5) 0.58992(8)
O2 O 0.41930(13) -0.23172(7) 0.4069(1)
O3 O 0.83185(9) -0.08555(5) 0.24593(7)
O4 O 0.77928(14) -0.05470(9) 0.93897(10)
O5 O 0.32875(11) -0.13755(6) 0.19446(8)
N1 N 0.49121(14) -0.23811(7) 0.49428(12)
C1 C 0.81815(13) -0.14367(7) 0.62222(10)
N2 N 0.86443(14) -0.08286(7) 0.89575(10)
O6 O 0.7057(1) 0.12526(5) 0.21479(8)
N3 N 0.66507(14) 0.19268(7) 0.17120(9)
O7 O 0.54166(12) 0.20085(6) 0.12839(9)
O8 O 1.02192(12) -0.15228(6) 0.28608(9)
O9 O 0.30127(11) -0.11677(6) 0.02614(8)
O10 O 0.53249(9) 0.06326(5) 0.41104(8)
O11 O 0.80077(10) -0.10502(6) 0.79257(7)
O12 O 0.99015(12) -0.09352(7) 0.92604(9)
O13 O 0.76363(13) 0.23419(6) 0.18358(10)
O14 O 0.46745(10) -0.05828(5) 0.13352(7)
O15 O 0.61579(10) -0.19534(5) 0.50990(8)
N4 N 0.72414(12) 0.01607(6) 0.35772(8)
N5 N 0.75937(11) -0.07423(6) 0.58199(8)
O16 O 1.02385(12) -0.06541(6) 0.17431(9)
O17 O 0.96809(9) -0.01211(5) 0.61143(7)
O18 O 1.14444(11) -0.31516(5) 0.60063(9)
O19 O 1.18177(11) -0.20767(6) 0.54925(11)
N6 N 0.97233(13) -0.10213(7) 0.2331(1)
N7 N 1.11266(12) -0.25438(6) 0.57810(9)
N8 N 0.35555(12) -0.10892(6) 0.11775(9)
C2 C 0.75077(14) 0.05181(7) 0.54074(10)
C3 C 0.83698(13) -0.01441(7) 0.58159(9)
C4 C 0.77125(14) -0.02242(7) 0.18925(11)
C5 C 0.69308(14) -0.19543(7) 0.61822(11)
C6 C 0.92103(15) -0.16834(7) 0.55199(11)
C7 C 0.59084(14) 0.07315(7) 0.19291(11)
C8 C 0.53666(14) -0.05154(8) 0.24359(10)
C9 C 0.65580(13) 0.00420(7) 0.24662(10)
C10 C 0.65878(13) 0.04431(6) 0.43077(10)
C11 C 0.89993(14) -0.13827(8) 0.73671(10)
O20 O 0.47276(13) -0.27448(7) 0.56674(11)
H1 H 0.8144(16) 0.0900(9) 0.5410(12)
H2 H 0.6900(17) 0.0640(9) 0.5884(12)
H3 H 0.5140(17) 0.0893(9) 0.2231(13)
H4 H 0.6699(18) -0.0711(8) 0.5670(12)
H5 H 1.0020(15) -0.1349(8) 0.5581(11)
H6 H 0.9242(16) -0.1847(9) 0.7635(12)
H7 H 0.7269(16) -0.2427(9) 0.6375(12)
H8 H 0.5765(15) -0.0973(9) 0.2697(11)
H9 H 0.9826(17) -0.1075(9) 0.7412(12)
H10 H 0.8464(16) 0.0118(8) 0.1902(11)
H11 H 0.7291(16) -0.0347(8) 0.1198(13)
H12 H 0.8746(16) -0.1716(8) 0.4802(13)
H13 H 0.8076(18) 0.0082(8) 0.3742(12)
H14 H 0.5616(15) 0.0664(8) 0.1162(13)
H15 H 0.6290(16) -0.1780(9) 0.6628(12)
H16 H 0.4662(16) -0.0350(8) 0.2832(12)
#END
