
#######################################################################
#
#                 Cambridge Crystallographic Data Centre
#                                CCDC
#
#######################################################################
#
# If this CIF has been generated from an entry in the Cambridge
# Structural Database, then it will include bibliographic, chemical,
# crystal, experimental, refinement or atomic coordinate data resulting
# from the CCDC's data processing and validation procedures.
#
#######################################################################

data_CSD_CIF_ZAYGUE
_audit_creation_date 2017-07-05
_audit_creation_method CSD-ConQuest-V1
_database_code_CSD ZAYGUE
_database_code_depnum_ccdc_archive 'CCDC 1538333'
_chemical_formula_sum 'C6 H9 N5 O13'
_chemical_formula_moiety
;
C6 H9 N5 O13
;
_journal_coden_Cambridge 1291
_journal_year 2017
_journal_page_first 3666
_journal_name_full 'Eur.J.Org.Chem. '
loop_
_publ_author_name
"T.M.Klapotke"
"B.Krumm"
"T.Reith"
_chemical_name_systematic
;
N-(tris(nitrooxymethyl)methyl)-N-nitroglycine
;
_chemical_name_common
;
((1,3-bis(nitrooxy)-2-((nitrooxy)methyl)propan-2-yl)(nitro)amino)acetic acid
;
_cell_volume   1346.818
_exptl_crystal_colour 'colorless'
_exptl_crystal_density_diffrn 1.771
_exptl_crystal_description 'plate'
_diffrn_ambient_temperature 123
#These two values have been output from a single CSD field.
_refine_ls_R_factor_gt 0.0366
_refine_ls_wR_factor_gt 0.0366
_symmetry_cell_setting monoclinic
_symmetry_space_group_name_H-M 'P 21/c'
_symmetry_Int_Tables_number 14
loop_
_symmetry_equiv_pos_site_id
_symmetry_equiv_pos_as_xyz
1 x,y,z
2 -x,1/2+y,1/2-z
3 -x,-y,-z
4 x,-1/2-y,-1/2+z
_cell_length_a 14.690(6)
_cell_length_b 7.217(2)
_cell_length_c 13.364(5)
_cell_angle_alpha 90
_cell_angle_beta 108.086(4)
_cell_angle_gamma 90
_cell_formula_units_Z 4
loop_
_atom_type_symbol
_atom_type_radius_bond
C 0.68
H 0.23
N 0.68
O 0.68
loop_
_atom_site_label
_atom_site_type_symbol
_atom_site_fract_x
_atom_site_fract_y
_atom_site_fract_z
O1 O 0.41885(6) 0.90274(14) 0.28567(8)
O2 O 0.52326(8) 1.08156(18) 0.40217(11)
O3 O 0.57127(8) 0.86787(19) 0.31625(10)
O4 O 0.08481(6) 1.06716(14) 0.16567(7)
O5 O 0.01115(8) 0.88516(17) 0.25284(10)
O6 O -0.06569(8) 1.0036(2) 0.10104(10)
O7 O 0.33108(6) 1.02478(13) 0.08844(7)
O8 O 0.28087(8) 1.24821(14) -0.03191(8)
O9 O 0.40854(8) 1.08831(18) -0.02201(10)
O10 O 0.25583(7) 0.71736(14) 0.36498(8)
O11 O 0.23450(8) 0.48835(13) 0.25344(8)
O12 O 0.05833(7) 0.65118(14) 0.08855(8)
O13 O 0.11565(7) 0.48057(15) -0.01827(8)
N1 N 0.51197(8) 0.95777(19) 0.33972(10)
N2 N 0.00337(8) 0.97560(19) 0.17551(10)
N3 N 0.34045(8) 1.13090(17) 0.00315(9)
N4 N 0.23978(8) 0.77451(14) 0.19629(8)
N5 N 0.24375(8) 0.65418(16) 0.27633(9)
C1 C 0.25224(9) 0.97586(17) 0.21922(10)
C2 C 0.34678(9) 1.01951(18) 0.3067(1)
C3 C 0.17012(9) 1.05532(19) 0.25542(10)
C4 C 0.24920(9) 1.08146(19) 0.11891(11)
C5 C 0.22237(10) 0.68550(19) 0.09484(10)
C6 C 0.12302(9) 0.60324(18) 0.05546(10)
H1 H 0.1933(11) 1.058(2) 0.0645(12)
H2 H 0.3624(10) 1.147(2) 0.3010(11)
H3 H 0.2283(11) 0.777(2) 0.0462(13)
H4 H 0.2533(10) 1.212(2) 0.1360(11)
H5 H 0.1580(11) 0.981(2) 0.3076(13)
H6 H 0.3438(10) 0.991(2) 0.3763(12)
H7 H 0.2683(12) 0.593(2) 0.0986(13)
H8 H 0.1860(11) 1.182(2) 0.2780(13)
H9 H 0.0535(15) 0.438(3) -0.0406(16)
#END
