
#######################################################################
#
#                 Cambridge Crystallographic Data Centre
#                                CCDC
#
#######################################################################
#
# If this CIF has been generated from an entry in the Cambridge
# Structural Database, then it will include bibliographic, chemical,
# crystal, experimental, refinement or atomic coordinate data resulting
# from the CCDC's data processing and validation procedures.
#
#######################################################################

data_CSD_CIF_ZEGKUU
_audit_creation_date 2017-11-02
_audit_creation_method CSD-ConQuest-V1
_database_code_CSD ZEGKUU
_database_code_depnum_ccdc_archive 'CCDC 1522408'
_chemical_formula_sum 'C17 H15 N1 O4'
_chemical_formula_moiety
;
C17 H15 N1 O4
;
_journal_coden_Cambridge 182
_journal_volume 53
_journal_year 2017
_journal_page_first 12286
_journal_name_full 'Chem.Commun. '
loop_
_publ_author_name
"Meiyan Ni"
"Jianguo Zhang"
"Xiaoyu Liang"
"Yaojia Jiang"
"Teck-Peng Loh"
_chemical_name_systematic
;
2-methyl-4-(4-nitrophenyl)-4-oxo-2-phenylbutanal
;
_cell_volume   1429.487
_exptl_crystal_colour 'colorless'
_exptl_crystal_density_diffrn 1.381
_exptl_crystal_description 'prism'
_diffrn_ambient_temperature 173
_refine_special_details
;
C10,C11,C12,C13,C14,C15,C16,C17,C8,C9,O4 and 
C10',C11',C12',C13',C14',C15',C16',C17',C8',C9',O4' disordered over two sites 
with occupancies 0.888:0.112.
;
#These two values have been output from a single CSD field.
_refine_ls_R_factor_gt 0.0557
_refine_ls_wR_factor_gt 0.0557
_symmetry_cell_setting monoclinic
_symmetry_space_group_name_H-M 'P 21/n'
_symmetry_Int_Tables_number 14
loop_
_symmetry_equiv_pos_site_id
_symmetry_equiv_pos_as_xyz
1 x,y,z
2 1/2-x,1/2+y,1/2-z
3 -x,-y,-z
4 -1/2+x,-1/2-y,-1/2+z
_cell_length_a 6.3645(5)
_cell_length_b 14.4689(12)
_cell_length_c 15.7267(12)
_cell_angle_alpha 90
_cell_angle_beta 99.228(3)
_cell_angle_gamma 90
_cell_formula_units_Z 4
loop_
_atom_type_symbol
_atom_type_radius_bond
C 0.68
H 0.23
N 0.68
O 0.68
loop_
_atom_site_label
_atom_site_type_symbol
_atom_site_fract_x
_atom_site_fract_y
_atom_site_fract_z
C1 C 0.6684(4) 1.09700(17) 0.63338(16)
C2 C 0.7529(4) 1.01094(19) 0.65659(18)
H1 H 0.89780 1.00420 0.68200
C3 C 0.6204(4) 0.93500(18) 0.64171(18)
H2 H 0.67440 0.87510 0.65720
C4 C 0.4090(4) 0.94559(17) 0.60431(17)
C5 C 0.3292(4) 1.03328(17) 0.58168(17)
H3 H 0.18450 1.04050 0.55610
C6 C 0.4599(4) 1.11014(18) 0.59632(17)
H4 H 0.40680 1.17030 0.58120
C7 C 0.2593(4) 0.86591(18) 0.58522(19)
C8 C 0.3288(7) 0.7686(2) 0.6102(4)
H5 H 0.42850 0.77020 0.66540
H6 H 0.40620 0.74280 0.56580
C9 C 0.1414(6) 0.7049(3) 0.6199(3)
C10 C 0.2103(5) 0.60174(16) 0.6271(2)
C11 C 0.4063(4) 0.57164(18) 0.6096(2)
H7 H 0.50550 0.61490 0.59390
C12 C 0.4572(4) 0.4782(2) 0.6151(2)
H8 H 0.59110 0.45760 0.60310
C13 C 0.3120(5) 0.41480(15) 0.6381(2)
H9 H 0.34680 0.35090 0.64180
C14 C 0.1160(5) 0.44490(18) 0.6556(2)
H10 H 0.01680 0.40160 0.67130
C15 C 0.0651(4) 0.5384(2) 0.6501(2)
H11 H -0.06880 0.55890 0.66210
C16 C -0.0276(8) 0.7092(3) 0.5395(3)
H12 H 0.01990 0.70850 0.48520
C17 C 0.0458(7) 0.7351(4) 0.6988(3)
H13 H 0.01520 0.80150 0.69520
H14 H 0.14720 0.72220 0.75120
H15 H -0.08640 0.70090 0.70060
O1 O -0.2167(3) 0.71358(15) 0.53950(14)
N1 N 0.8072(4) 1.17858(16) 0.64875(15)
O2 O 0.9955(4) 1.16665(15) 0.67762(16)
O3 O 0.7297(4) 1.25505(14) 0.63103(16)
O4 O 0.0812(3) 0.87959(14) 0.54506(16)
C18? C 0.322(6) 0.7653(13) 0.594(4)
H16? H 0.43810 0.75900 0.64430
H17? H 0.38080 0.74640 0.54240
C19? C 0.142(5) 0.6981(18) 0.607(2)
C20? C 0.226(4) 0.5984(14) 0.6250(17)
C21? C 0.390(4) 0.5719(17) 0.5817(17)
H18? H 0.45550 0.61620 0.54970
C22? C 0.459(4) 0.4806(19) 0.5852(18)
H19? H 0.57140 0.46250 0.55560
C23? C 0.364(5) 0.4158(15) 0.6319(19)
H20? H 0.41080 0.35340 0.63430
C24? C 0.199(4) 0.4423(16) 0.6752(18)
H21? H 0.13420 0.39800 0.70720
C25? C 0.131(4) 0.5335(17) 0.6717(17)
H22? H 0.01820 0.55160 0.70130
C26? C 0.033(4) 0.724(3) 0.682(2)
H23? H 0.11610 0.74750 0.73240
C27? C -0.012(7) 0.695(3) 0.521(2)
H24? H -0.13200 0.65420 0.52700
H25? H 0.06230 0.67140 0.47570
H26? H -0.06550 0.75740 0.50600
O5? O -0.156(3) 0.7145(14) 0.6789(12)
#END
