
#######################################################################
#
#                 Cambridge Crystallographic Data Centre
#                                CCDC
#
#######################################################################
#
# If this CIF has been generated from an entry in the Cambridge
# Structural Database, then it will include bibliographic, chemical,
# crystal, experimental, refinement or atomic coordinate data resulting
# from the CCDC's data processing and validation procedures.
#
#######################################################################

data_CSD_CIF_ZELVAN
_audit_creation_date 1996-05-01
_audit_creation_method CSD-ConQuest-V1
_database_code_CSD ZELVAN
_database_code_depnum_ccdc_archive 'CCDC 1310953'
_chemical_formula_sum 'C22 H22 N2 O4'
_chemical_formula_moiety
;
C22 H22 N2 O4
;
_journal_coden_Cambridge 154
_journal_volume 48
_journal_year 1995
_journal_page_first 1511
_journal_name_full 'Aust.J.Chem. '
loop_
_publ_author_name
"S.G.Pyne"
"J.Safaei-G."
"B.W.Skelton"
"A.H.White"
_chemical_name_systematic
;
(2R,2'R,3aR)-3'-Benzoyl-2'-phenylhexahydrospiro(2H-isoxazolo(2,3-a)pyridine-2,
4'-oxazolidin)-5-one
;
_chemical_melting_point 428.15
_cell_volume    949.349
_exptl_crystal_density_diffrn 1.32
_exptl_special_details
;
Melting point range 428.15-430.15K

;
_diffrn_ambient_temperature ?
_diffrn_special_details
;
The study was carried out at room temperature,in the range 283-303K

;
#These two values have been output from a single CSD field.
_refine_ls_R_factor_gt 0.033
_refine_ls_wR_factor_gt 0.033
_symmetry_cell_setting monoclinic
_symmetry_space_group_name_H-M 'P 21'
_symmetry_Int_Tables_number 4
loop_
_symmetry_equiv_pos_site_id
_symmetry_equiv_pos_as_xyz
1 x,y,z
2 -x,1/2+y,-z
_cell_length_a 9.408(4)
_cell_length_b 8.610(3)
_cell_length_c 11.720(2)
_cell_angle_alpha 90
_cell_angle_beta 90.19(2)
_cell_angle_gamma 90
_cell_formula_units_Z 2
loop_
_atom_type_symbol
_atom_type_radius_bond
C 0.68
H 0.23
N 0.68
O 0.68
loop_
_atom_site_label
_atom_site_type_symbol
_atom_site_fract_x
_atom_site_fract_y
_atom_site_fract_z
O1 O 0.6650(5) 0.00000 0.1005(4)
C1 C 0.6473(7) 0.1257(8) 0.1783(6)
C2 C 0.7464(7) 0.1063(9) 0.2766(6)
C3 C 0.7143(7) 0.009(1) 0.3653(6)
C4 C 0.8083(8) -0.011(1) 0.4557(6)
C5 C 0.9351(9) 0.066(1) 0.4534(7)
C6 C 0.9692(8) 0.165(1) 0.3657(8)
C7 C 0.8729(8) 0.184(1) 0.2778(6)
N1 N 0.4960(5) 0.1184(8) 0.2065(4)
C8 C 0.4267(8) 0.226(1) 0.2748(6)
O2 O 0.3026(5) 0.2147(8) 0.2987(4)
C9 C 0.5197(7) 0.3545(9) 0.3176(6)
C10 C 0.5591(8) 0.477(1) 0.2496(6)
C11 C 0.6453(8) 0.593(1) 0.2907(7)
C12 C 0.6922(8) 0.587(1) 0.4002(8)
C13 C 0.6489(8) 0.470(1) 0.4722(6)
C14 C 0.5619(8) 0.3540(9) 0.4297(6)
C15 C 0.4237(7) -0.007(1) 0.1507(5)
C16 C 0.5418(8) -0.071(1) 0.0753(6)
O3 O 0.5341(5) -0.1757(9) 0.0090(4)
C17 C 0.2857(7) 0.025(1) 0.0855(5)
C18 C 0.1824(7) -0.080(1) 0.1487(7)
N2 N 0.2739(6) -0.2064(8) 0.1805(5)
O4 O 0.3927(5) -0.1229(7) 0.2342(4)
C19 C 0.2101(8) -0.303(1) 0.2664(6)
C20 C 0.084(1) -0.383(1) 0.2069(8)
C21 C -0.0161(9) -0.262(1) 0.1550(8)
C22 C 0.0590(8) -0.147(1) 0.0783(7)
H1 H 0.67170 0.22550 0.14660
H2 H 0.62220 -0.04760 0.36410
H3 H 0.78210 -0.08690 0.51970
H4 H 1.00380 0.04210 0.51650
H5 H 1.05890 0.21770 0.36490
H6 H 0.89580 0.25130 0.21120
H7 H 0.51950 0.48080 0.17130
H8 H 0.67430 0.67100 0.24060
H9 H 0.75270 0.66480 0.42880
H10 H 0.68570 0.46030 0.55110
H11 H 0.52880 0.26350 0.48460
H12 H 0.25530 0.13280 0.08880
H13 H 0.29060 -0.00070 0.00450
H14 H 0.13710 -0.02340 0.20640
H15 H 0.27590 -0.38630 0.29870
H16 H 0.17360 -0.25290 0.33300
H17 H 0.12160 -0.45670 0.14570
H18 H 0.03330 -0.46040 0.25730
H19 H -0.09200 -0.31570 0.11740
H20 H -0.05320 -0.20810 0.21910
H21 H 0.09550 -0.20790 0.01050
H22 H -0.00530 -0.07520 0.04900
#END
