
#######################################################################
#
#                 Cambridge Crystallographic Data Centre
#                                CCDC
#
#######################################################################
#
# If this CIF has been generated from an entry in the Cambridge
# Structural Database, then it will include bibliographic, chemical,
# crystal, experimental, refinement or atomic coordinate data resulting
# from the CCDC's data processing and validation procedures.
#
#######################################################################

data_CSD_CIF_ZEXDIS
_audit_creation_date 2018-03-26
_audit_creation_method CSD-ConQuest-V1
_database_code_CSD ZEXDIS
_database_code_depnum_ccdc_archive 'CCDC 1537156'
_chemical_formula_sum 'C18 H22 N4 O6'
_chemical_formula_moiety
;
C18 H22 N4 O6
;
_journal_coden_Cambridge 16
_journal_volume 74
_journal_year 2018
_journal_page_first 5119
_journal_name_full 'Tetrahedron '
loop_
_publ_author_name
"E.Badarau"
"F.Robert"
"S.Massip"
"F.Jakob"
"S.Lucas"
"S.Frormann"
"L.Ghosez"
_chemical_name_systematic
;
ethyl 4-(4-(2-(2,4-dinitrophenyl)hydrazinylidene)cyclohex-2-en-1-yl)butanoate
;
_cell_volume   7639.519
_exptl_crystal_colour 'red'
_exptl_crystal_density_diffrn 1.358
_exptl_crystal_description 'needle'
_diffrn_ambient_temperature 113
#These two values have been output from a single CSD field.
_refine_ls_R_factor_gt 0.0582
_refine_ls_wR_factor_gt 0.0582
_symmetry_cell_setting orthorhombic
_symmetry_space_group_name_H-M 'F d d 2'
_symmetry_Int_Tables_number 43
loop_
_symmetry_equiv_pos_site_id
_symmetry_equiv_pos_as_xyz
1 x,y,z
2 -x,-y,z
3 1/4-x,1/4+y,1/4+z
4 3/4+x,3/4-y,1/4+z
5 x,1/2+y,1/2+z
6 -x,1/2-y,1/2+z
7 1/4-x,3/4+y,3/4+z
8 3/4+x,1/4-y,3/4+z
9 1/2+x,y,1/2+z
10 1/2-x,-y,1/2+z
11 3/4-x,1/4+y,3/4+z
12 1/4+x,3/4-y,3/4+z
13 1/2+x,1/2+y,z
14 1/2-x,1/2-y,z
15 3/4-x,3/4+y,1/4+z
16 1/4+x,1/4-y,1/4+z
_cell_length_a 37.233(15)
_cell_length_b 42.675(17)
_cell_length_c 4.8080(19)
_cell_angle_alpha 90
_cell_angle_beta 90
_cell_angle_gamma 90
_cell_formula_units_Z 16
loop_
_atom_type_symbol
_atom_type_radius_bond
C 0.68
H 0.23
N 0.68
O 0.68
loop_
_atom_site_label
_atom_site_type_symbol
_atom_site_fract_x
_atom_site_fract_y
_atom_site_fract_z
C1 C 0.32944(9) 0.06357(7) -0.0803(7)
C2 C 0.30484(8) 0.06110(7) 0.1297(7)
H1 H 0.29060 0.07860 0.18130
C3 C 0.30092(8) 0.03275(7) 0.2662(7)
C4 C 0.32147(8) 0.00598(7) 0.1875(7)
C5 C 0.34691(8) 0.01019(8) -0.0281(8)
H2 H 0.36150 -0.00700 -0.08160
C6 C 0.35110(8) 0.03792(7) -0.1603(8)
H3 H 0.36830 0.04010 -0.30480
N1 N 0.33250(8) 0.09317(6) -0.2278(7)
O1 O 0.31350(8) 0.11515(6) -0.1538(8)
O2 O 0.35449(8) 0.09495(6) -0.4214(6)
N2 N 0.27443(7) 0.03178(6) 0.4843(6)
O3 O 0.25592(7) 0.05522(5) 0.5284(6)
O4 O 0.27140(6) 0.00760(5) 0.6265(5)
N3 N 0.31683(7) -0.02214(6) 0.3094(6)
H4 H 0.30220 -0.02390 0.45200
N4 N 0.33473(7) -0.04803(6) 0.2133(7)
C7 C 0.32533(8) -0.07435(7) 0.3214(8)
C8 C 0.29648(9) -0.07884(7) 0.5378(9)
H5 H 0.27740 -0.06300 0.51010
H6 H 0.30690 -0.07560 0.72510
C9 C 0.28006(10) -0.11148(8) 0.5210(11)
H7 H 0.26310 -0.11430 0.67780
H8 H 0.26620 -0.11330 0.34610
C10 C 0.30790(9) -0.13737(8) 0.5304(10)
H9 H 0.31850 -0.13750 0.72150
C11 C 0.33739(10) -0.13045(8) 0.3303(9)
H10 H 0.35190 -0.14740 0.26920
C12 C 0.34469(10) -0.10208(8) 0.2316(9)
H11 H 0.36330 -0.09990 0.09740
C13 C 0.29123(11) -0.16927(8) 0.4797(13)
H12 H 0.26780 -0.17020 0.57650
H13 H 0.28660 -0.17160 0.27800
C14 C 0.31377(10) -0.19624(8) 0.5751(11)
H14 H 0.31710 -0.19480 0.77890
H15 H 0.33770 -0.19470 0.48710
C15 C 0.29733(12) -0.22795(9) 0.5052(15)
H16 H 0.27210 -0.22830 0.56970
H17 H 0.29720 -0.23070 0.30070
C16 C 0.31669(11) -0.25444(10) 0.6323(12)
O5 O 0.34411(10) -0.25249(8) 0.7565(11)
O6 O 0.30113(8) -0.28149(6) 0.5685(12)
C17 C 0.31900(18) -0.30991(12) 0.665(2)
H18 H 0.31490 -0.32680 0.52690
H19 H 0.34520 -0.30600 0.67270
C18 C 0.3081(4) -0.3200(2) 0.914(2)
H20 H 0.32530 -0.31340 1.05640
H21 H 0.30640 -0.34290 0.91280
H22 H 0.28440 -0.31100 0.95610
#END
