
#######################################################################
#
#                 Cambridge Crystallographic Data Centre
#                                CCDC
#
#######################################################################
#
# If this CIF has been generated from an entry in the Cambridge
# Structural Database, then it will include bibliographic, chemical,
# crystal, experimental, refinement or atomic coordinate data resulting
# from the CCDC's data processing and validation procedures.
#
#######################################################################

data_CSD_CIF_ZICMAC
_audit_creation_date 2018-03-28
_audit_creation_method CSD-ConQuest-V1
_database_code_CSD ZICMAC
_database_code_depnum_ccdc_archive 'CCDC 1817419'
_chemical_formula_sum 'C16 H26 N2 O7'
_chemical_formula_moiety
;
C16 H26 N2 O7
;
_journal_coden_Cambridge 177
_journal_volume 16
_journal_year 2018
_journal_page_first 2705
_journal_name_full 'Org.Biomol.Chem. '
loop_
_publ_author_name
"L.Josa-Cullere"
"K.E.Christensen"
"M.G.Moloney"
_chemical_name_systematic
;
methyl 
3-t-butyl-7-methoxy-6-[methoxy(methyl)carbamoyl]-5-oxodihydro-1H,3H-pyrrolo[1,
2-c][1,3]oxazole-7a(5H)-carboxylate
;
_cell_volume   1796.561
_exptl_crystal_colour 'colorless'
_exptl_crystal_density_diffrn 1.325
_exptl_special_details
;
Absolute configuration

;
_exptl_crystal_description 'block'
_diffrn_ambient_temperature 150
_refine_special_details
;
C14,O13 and C114,O113 disordered over two sites with occupancies 0.895:0.105.

;
#These two values have been output from a single CSD field.
_refine_ls_R_factor_gt 0.0356
_refine_ls_wR_factor_gt 0.0356
_symmetry_cell_setting orthorhombic
_symmetry_space_group_name_H-M 'P 21 21 21'
_symmetry_Int_Tables_number 19
loop_
_symmetry_equiv_pos_site_id
_symmetry_equiv_pos_as_xyz
1 x,y,z
2 1/2-x,-y,1/2+z
3 1/2+x,1/2-y,-z
4 -x,1/2+y,1/2-z
_cell_length_a 8.5004(2)
_cell_length_b 12.8701(2)
_cell_length_c 16.4218(3)
_cell_angle_alpha 90
_cell_angle_beta 90
_cell_angle_gamma 90
_cell_formula_units_Z 4
loop_
_atom_type_symbol
_atom_type_radius_bond
C 0.68
H 0.23
N 0.68
O 0.68
loop_
_atom_site_label
_atom_site_type_symbol
_atom_site_fract_x
_atom_site_fract_y
_atom_site_fract_z
N1 N 0.30977(12) 0.56267(8) 0.54226(6)
C1 C 0.35268(16) 0.52806(10) 0.45971(7)
O1 O 0.20431(13) 0.51227(9) 0.42081(6)
C2 C 0.08081(16) 0.55950(11) 0.46689(8)
C3 C 0.13940(14) 0.55985(10) 0.55511(7)
C4 C 0.10782(14) 0.66134(10) 0.60522(7)
C5 C 0.26471(14) 0.68169(10) 0.64628(7)
O2 O 0.50967(12) 0.67937(8) 0.56526(6)
C6 C 0.38122(14) 0.64418(9) 0.58116(7)
C7 C 0.28842(16) 0.79507(10) 0.66891(8)
O3 O 0.21435(16) 0.86439(9) 0.63733(8)
N2 N 0.39223(16) 0.81479(10) 0.72943(7)
C8 C 0.4434(2) 0.91920(14) 0.74913(11)
O4 O 0.50422(13) 0.73673(9) 0.74693(7)
C9 C 0.4760(4) 0.6965(3) 0.82729(18)
O5 O -0.01285(11) 0.65304(8) 0.66278(6)
C10 C -0.16514(16) 0.66261(12) 0.62676(10)
C11 C 0.08367(16) 0.46582(10) 0.60456(8)
O6 O -0.03021(14) 0.41526(9) 0.58806(8)
O7 O 0.17433(12) 0.45127(8) 0.66991(6)
C12 C 0.1223(2) 0.37182(12) 0.72603(10)
C13 C 0.44842(17) 0.42724(10) 0.45614(8)
C14 C 0.60425(17) 0.44441(12) 0.50062(9)
C15 C 0.4834(2) 0.40441(12) 0.36593(9)
C16 C 0.3577(2) 0.33709(10) 0.49436(9)
H1 H 0.41320 0.58530 0.43310
H2 H 0.06200 0.63060 0.44650
H3 H -0.01320 0.51600 0.45990
H4 H 0.08300 0.71740 0.56840
H5 H 0.27590 0.63790 0.69440
H6 H 0.48580 0.92080 0.80360
H7 H 0.35240 0.96130 0.75200
H8 H 0.52230 0.95090 0.71160
H9 H 0.56450 0.65460 0.84460
H10 H 0.46250 0.75220 0.86600
H11 H 0.38340 0.65230 0.82810
H12 H -0.24090 0.65610 0.66970
H13 H -0.17720 0.72780 0.59940
H14 H -0.18390 0.60700 0.58760
H15 H 0.18430 0.37770 0.77590
H16 H 0.01310 0.38270 0.73590
H17 H 0.13620 0.30620 0.70030
H18 H 0.67250 0.38650 0.49450
H19 H 0.59050 0.45680 0.55880
H20 H 0.65600 0.50140 0.47690
H21 H 0.54580 0.34190 0.36120
H22 H 0.54370 0.46090 0.34010
H23 H 0.38570 0.39530 0.33570
H24 H 0.41370 0.27300 0.48710
H25 H 0.34500 0.34890 0.55230
H26 H 0.25780 0.33020 0.47000
O8? O 0.3633(13) 0.7466(8) 0.7960(6)
C17? C 0.505(3) 0.692(3) 0.8157(19)
H27? H 0.48170 0.63650 0.85230
H28? H 0.57830 0.73930 0.84100
H29? H 0.55040 0.66460 0.76670
#END
