
#######################################################################
#
#                 Cambridge Crystallographic Data Centre
#                                CCDC
#
#######################################################################
#
# If this CIF has been generated from an entry in the Cambridge
# Structural Database, then it will include bibliographic, chemical,
# crystal, experimental, refinement or atomic coordinate data resulting
# from the CCDC's data processing and validation procedures.
#
#######################################################################

data_CSD_CIF_ZIFCEW
_audit_creation_date 1996-06-21
_audit_creation_method CSD-ConQuest-V1
_database_code_CSD ZIFCEW
_database_code_depnum_ccdc_archive 'CCDC 1312234'
_chemical_formula_sum 'C17 H17 N3 O3'
_chemical_formula_moiety
;
C17 H17 N3 O3
;
_journal_coden_Cambridge 188
_journal_year 1995
_journal_page_first 2311
_journal_name_full 'J.Chem.Soc.,Perkin Trans.2 '
loop_
_publ_author_name
"G.S.Chen"
"J.K.Wilbur"
"C.L.Barnes"
"R.Glaser"
_chemical_name_systematic
;
(E,E)-4-Methoxy-4'-nitroacetophenone azine
;
_cell_volume   1592.199
_exptl_crystal_colour 'orange'
_exptl_crystal_density_diffrn 1.299
_diffrn_ambient_temperature ?
_diffrn_special_details
;
The study was carried out at room temperature,in the range 283-303K

;
#These two values have been output from a single CSD field.
_refine_ls_R_factor_gt 0.052
_refine_ls_wR_factor_gt 0.052
_symmetry_cell_setting orthorhombic
_symmetry_space_group_name_H-M 'P 21 21 21'
_symmetry_Int_Tables_number 19
loop_
_symmetry_equiv_pos_site_id
_symmetry_equiv_pos_as_xyz
1 x,y,z
2 1/2-x,-y,1/2+z
3 1/2+x,1/2-y,-z
4 -x,1/2+y,1/2-z
_cell_length_a 7.8946(8)
_cell_length_b 10.5559(8)
_cell_length_c 19.1061(9)
_cell_angle_alpha 90
_cell_angle_beta 90
_cell_angle_gamma 90
_cell_formula_units_Z 4
loop_
_atom_type_symbol
_atom_type_radius_bond
C 0.68
H 0.23
N 0.68
O 0.68
loop_
_atom_site_label
_atom_site_type_symbol
_atom_site_fract_x
_atom_site_fract_y
_atom_site_fract_z
O1 O 0.8690(6) 0.8674(3) 0.12124(14)
O2 O 0.9558(5) 0.6775(3) 0.13650(13)
O3 O 0.9107(4) 0.7582(3) 0.89190(12)
N1 N 0.9029(4) 0.7489(3) 0.49165(15)
N2 N 0.9043(4) 0.7696(3) 0.56382(13)
N3 N 0.9014(4) 0.7780(3) 0.15910(16)
C1 C 0.8413(4) 0.8409(3) 0.45484(16)
C2 C 0.8524(4) 0.8209(3) 0.37749(16)
C3 C 0.7909(5) 0.9141(3) 0.33114(17)
C4 C 0.8046(5) 0.8992(3) 0.26003(17)
C5 C 0.8800(4) 0.7920(3) 0.23472(15)
C6 C 0.9410(4) 0.6970(3) 0.27776(16)
C7 C 0.9270(5) 0.7126(3) 0.34971(15)
C8 C 0.7650(6) 0.9567(3) 0.48441(18)
C9 C 0.8513(4) 0.6780(3) 0.60119(16)
C10 C 0.8643(4) 0.6930(3) 0.67783(15)
C11 C 0.7954(4) 0.6073(3) 0.72444(17)
C12 C 0.8089(5) 0.6239(3) 0.79669(17)
C13 C 0.8901(4) 0.7298(3) 0.82245(17)
C14 C 0.9585(5) 0.8175(3) 0.77724(17)
C15 C 0.9464(5) 0.8013(3) 0.70591(17)
C16 C 0.7819(5) 0.5558(4) 0.57108(18)
C17 C 0.8471(7) 0.6696(5) 0.94238(19)
H1 H 0.73100 0.99800 0.35200
H2 H 0.75700 0.97100 0.22500
H3 H 0.99900 0.61300 0.25600
H4 H 0.97200 0.63900 0.38500
H5 H 0.80300 0.96700 0.53800
H6 H 0.80800 1.03800 0.45500
H7 H 0.63000 0.94400 0.47900
H8 H 0.72700 0.52700 0.70400
H9 H 0.75700 0.55400 0.83200
H10 H 1.02200 0.90000 0.79800
H11 H 1.00100 0.87000 0.67100
H12 H 0.64900 0.55100 0.58300
H13 H 0.79800 0.55800 0.51500
H14 H 0.85300 0.48000 0.59500
H15 H 0.89600 0.57600 0.93200
H16 H 0.88300 0.69900 0.99400
H17 H 0.71100 0.67300 0.93600
#END
