
#######################################################################
#
#                 Cambridge Crystallographic Data Centre
#                                CCDC
#
#######################################################################
#
# If this CIF has been generated from an entry in the Cambridge
# Structural Database, then it will include bibliographic, chemical,
# crystal, experimental, refinement or atomic coordinate data resulting
# from the CCDC's data processing and validation procedures.
#
#######################################################################

data_CSD_CIF_ZIQCIN
_audit_creation_date 2014-01-08
_audit_creation_method CSD-ConQuest-V1
_database_code_CSD ZIQCIN
_database_code_depnum_ccdc_archive 'CCDC 860534'
_chemical_formula_sum 'C31 H35 N3 O3'
_chemical_formula_moiety
;
C31 H35 N3 O3
;
_journal_coden_Cambridge 917
_journal_volume 9
_journal_year 2013
_journal_page_first 838
_journal_name_full 'Beilstein J.Org.Chem. '
loop_
_publ_author_name
"L.L.de Carvalho"
"R.A.Burrow"
"V.L.P.Pereira"
_chemical_name_systematic
;
4-(1-(Dibenzylamino)-2-phenylethyl)-6-ethoxyhexahydro[1,2]oxazolo[2,3-b][1,2]o
xazine-2-carbonitrile
;
_cell_volume   1400.394
_exptl_crystal_colour 'colorless'
_exptl_crystal_density_diffrn 1.18
_exptl_crystal_description 'Block'
_diffrn_ambient_temperature 296
#These two values have been output from a single CSD field.
_refine_ls_R_factor_gt 0.0501
_refine_ls_wR_factor_gt 0.0501
_symmetry_cell_setting monoclinic
_symmetry_space_group_name_H-M 'P 21'
_symmetry_Int_Tables_number 4
loop_
_symmetry_equiv_pos_site_id
_symmetry_equiv_pos_as_xyz
1 x,y,z
2 -x,1/2+y,-z
_cell_length_a 10.2933(5)
_cell_length_b 11.2552(6)
_cell_length_c 12.6152(6)
_cell_angle_alpha 90
_cell_angle_beta 106.628(2)
_cell_angle_gamma 90
_cell_formula_units_Z 2
loop_
_atom_type_symbol
_atom_type_radius_bond
C 0.68
H 0.23
N 0.68
O 0.68
loop_
_atom_site_label
_atom_site_type_symbol
_atom_site_fract_x
_atom_site_fract_y
_atom_site_fract_z
O1 O 0.41159(13) 0.46950(18) 0.33025(14)
C1 C 0.3866(2) 0.4187(2) 0.2218(2)
H1 H 0.36030 0.33520 0.22300
C2 C 0.51784(19) 0.4282(2) 0.19050(19)
H2 H 0.50260 0.46160 0.11710
H3 H 0.56140 0.35130 0.19350
C3 C 0.60129(17) 0.51134(19) 0.27866(17)
H4 H 0.58240 0.59330 0.25250
C4 C 0.75518(16) 0.49195(19) 0.31232(16)
H5 H 0.76920 0.40920 0.29400
C5 C 0.8074(2) 0.5014(2) 0.43787(17)
H6 H 0.90550 0.49480 0.46170
H7 H 0.78240 0.57760 0.46210
C6 C 0.7451(2) 0.4021(2) 0.48706(19)
H8 H 0.79800 0.33000 0.48600
C7 C 0.7222(3) 0.3258(3) 0.6549(2)
H9 H 0.77530 0.25770 0.64510
H10 H 0.62690 0.30580 0.62640
O2 O 0.60902(14) 0.37976(14) 0.42203(12)
C8 C 0.7550(4) 0.3571(4) 0.7739(3)
H11 H 0.70290 0.42520 0.78270
H12 H 0.84980 0.37490 0.80180
H13 H 0.73330 0.29130 0.81420
N1 N 0.54976(15) 0.49437(17) 0.37562(14)
O3 O 0.75326(14) 0.42687(15) 0.59655(13)
C9 C 0.2763(2) 0.4862(3) 0.1495(3)
N2 N 0.1922(3) 0.5391(4) 0.0902(3)
C10 C 0.97305(18) 0.5392(2) 0.2618(2)
H14 H 1.00860 0.58980 0.21440
H15 H 1.02120 0.55870 0.33780
N3 N 0.79101(15) 0.69538(15) 0.24385(14)
C11 C 0.82155(18) 0.56867(19) 0.24220(17)
H16 H 0.77800 0.54380 0.16580
C12 C 0.7765(2) 0.7529(2) 0.13663(18)
H17 H 0.85380 0.73290 0.11070
H18 H 0.77540 0.83850 0.14570
C13 C 0.8804(2) 0.7642(2) 0.33454(19)
H19 H 0.96210 0.78570 0.31530
H20 H 0.90670 0.71550 0.40070
C14 C 1.00280(18) 0.4129(2) 0.24096(19)
C15 C 1.0871(3) 0.3446(3) 0.3197(2)
H21 H 1.12600 0.37600 0.38980
C16 C 1.1163(4) 0.2282(4) 0.2971(5)
H22 H 1.17440 0.18280 0.35220
C17 C 1.0607(4) 0.1805(3) 0.1953(5)
H23 H 1.07940 0.10240 0.18040
C18 C 0.9772(3) 0.2491(4) 0.1153(4)
H24 H 0.93970 0.21790 0.04490
C19 C 0.9480(2) 0.3630(3) 0.1377(2)
H25 H 0.89010 0.40810 0.08210
C20 C 0.6492(2) 0.71480(19) 0.05261(19)
C21 C 0.6496(3) 0.6452(2) -0.0367(2)
H26 H 0.73090 0.62420 -0.04990
C22 C 0.5242(5) 0.6058(3) -0.1085(2)
H27 H 0.52270 0.55740 -0.16850
C23 C 0.4056(4) 0.6395(4) -0.0888(3)
H28 H 0.32350 0.61340 -0.13570
C24 C 0.4059(3) 0.7092(4) -0.0034(3)
H29 H 0.32440 0.73260 0.00820
C25 C 0.5258(2) 0.7462(3) 0.0668(2)
H30 H 0.52440 0.79420 0.12640
C26 C 0.81170(19) 0.8750(2) 0.35773(16)
C27 C 0.6929(2) 0.8684(2) 0.38730(19)
H31 H 0.65360 0.79460 0.39070
C28 C 0.6314(2) 0.9692(3) 0.41195(19)
H32 H 0.55230 0.96300 0.43330
C29 C 0.6871(3) 1.0787(2) 0.4049(2)
H33 H 0.64540 1.14720 0.42030
C30 C 0.8043(3) 1.0861(2) 0.3750(2)
H34 H 0.84300 1.16000 0.37090
C31 C 0.8657(2) 0.9851(2) 0.35085(18)
H35 H 0.94480 0.99160 0.32960
#END
