
#######################################################################
#
#                 Cambridge Crystallographic Data Centre
#                                CCDC
#
#######################################################################
#
# If this CIF has been generated from an entry in the Cambridge
# Structural Database, then it will include bibliographic, chemical,
# crystal, experimental, refinement or atomic coordinate data resulting
# from the CCDC's data processing and validation procedures.
#
#######################################################################

data_CSD_CIF_ZIVQEA
_audit_creation_date 1996-04-05
_audit_creation_method CSD-ConQuest-V1
_database_code_CSD ZIVQEA
_database_code_depnum_ccdc_archive 'CCDC 126249'
_chemical_formula_sum 'C15 H22 N2 O3'
_chemical_formula_moiety
;
C15 H22 N2 O3
;
_journal_coeditor_code "IUCr NA1197"
_journal_coden_Cambridge 591
_journal_volume 52
_journal_year 1996
_journal_page_first 218
_journal_name_full 'Acta Crystallogr.,Sect.C:Cryst.Struct.Commun. '
loop_
_publ_author_name
"P.Merino"
"F.L.Merchan"
"T.Tejero"
"A.Lanaspa"
_chemical_name_systematic
;
(Z)-N-((2S)-2-(t-Butoxycarbonylamino)propylidene)benzylamine N-oxide
;
_chemical_melting_point 367
_cell_volume   1571.037
_exptl_crystal_colour 'colorless'
_exptl_crystal_density_diffrn 1.177
_diffrn_ambient_temperature 223
#These two values have been output from a single CSD field.
_refine_ls_R_factor_gt 0.0416
_refine_ls_wR_factor_gt 0.0416
_symmetry_cell_setting orthorhombic
_symmetry_space_group_name_H-M 'P 21 21 21'
_symmetry_Int_Tables_number 19
loop_
_symmetry_equiv_pos_site_id
_symmetry_equiv_pos_as_xyz
1 x,y,z
2 1/2-x,-y,1/2+z
3 1/2+x,1/2-y,-z
4 -x,1/2+y,1/2-z
_cell_length_a 5.916(1)
_cell_length_b 13.112(3)
_cell_length_c 20.253(4)
_cell_angle_alpha 90
_cell_angle_beta 90
_cell_angle_gamma 90
_cell_formula_units_Z 4
loop_
_atom_type_symbol
_atom_type_radius_bond
C 0.68
H 0.23
N 0.68
O 0.68
loop_
_atom_site_label
_atom_site_type_symbol
_atom_site_fract_x
_atom_site_fract_y
_atom_site_fract_z
O1 O 0.0114(3) 0.23203(12) 0.27315(9)
O2 O 0.4041(3) 0.48101(13) 0.35813(8)
N1 N -0.1369(4) 0.30125(15) 0.28955(9)
O3 O 0.3358(3) 0.65110(12) 0.34419(8)
N2 N 0.1642(4) 0.54074(15) 0.27922(10)
H1 H 0.1032(4) 0.59511(15) 0.26224(10)
C1 C -0.1023(5) 0.3986(2) 0.28363(12)
H2 H -0.2122(5) 0.4440(2) 0.29973(12)
C2 C 0.3097(4) 0.5506(2) 0.32999(11)
C3 C 0.1066(5) 0.4411(2) 0.25205(12)
H3 H 0.2339(5) 0.3937(2) 0.26006(12)
C4 C 0.4912(5) 0.6862(2) 0.39605(12)
C5 C -0.3538(5) 0.1999(2) 0.37511(12)
C6 C -0.3612(4) 0.2633(2) 0.31265(12)
H4 H -0.4290(4) 0.2223(2) 0.27740(12)
H5 H -0.4602(4) 0.3221(2) 0.32022(12)
C7 C -0.1776(5) 0.2041(2) 0.42059(13)
H6 H -0.0484(5) 0.2435(2) 0.41168(13)
C8 C 0.4561(6) 0.8010(2) 0.39415(14)
H7 H 0.3007(6) 0.8167(2) 0.40556(14)
H8 H 0.4883(6) 0.8262(2) 0.35010(14)
H9 H 0.5568(6) 0.8334(2) 0.42556(14)
C9 C -0.5418(5) 0.1405(2) 0.38883(14)
H10 H -0.6610(5) 0.1372(2) 0.35820(14)
C10 C 0.0678(5) 0.4501(2) 0.17726(12)
H11 H 0.2023(5) 0.4776(2) 0.15648(12)
H12 H -0.0591(5) 0.4952(2) 0.16896(12)
H13 H 0.0355(5) 0.3832(2) 0.15913(12)
C11 C -0.1943(7) 0.1495(3) 0.47945(14)
H14 H -0.0762(7) 0.1525(3) 0.51045(14)
C12 C 0.7333(5) 0.6591(2) 0.3783(2)
H15 H 0.7522(5) 0.5857(2) 0.3798(2)
H16 H 0.8355(5) 0.6908(2) 0.4096(2)
H17 H 0.7668(5) 0.6836(2) 0.3342(2)
C13 C -0.5559(6) 0.0855(2) 0.4476(2)
H18 H -0.6833(6) 0.0449(2) 0.4564(2)
C14 C -0.3831(7) 0.0911(3) 0.4925(2)
H19 H -0.3932(7) 0.0548(3) 0.5324(2)
C15 C 0.4221(6) 0.6426(2) 0.46255(13)
H20 H 0.2670(6) 0.6615(2) 0.47201(13)
H21 H 0.5204(6) 0.6695(2) 0.49668(13)
H22 H 0.4348(6) 0.5688(2) 0.46141(13)
#END
