
#######################################################################
#
#                 Cambridge Crystallographic Data Centre
#                                CCDC
#
#######################################################################
#
# If this CIF has been generated from an entry in the Cambridge
# Structural Database, then it will include bibliographic, chemical,
# crystal, experimental, refinement or atomic coordinate data resulting
# from the CCDC's data processing and validation procedures.
#
#######################################################################

data_CSD_CIF_ZIWZIQ
_audit_creation_date 2014-01-13
_audit_creation_method CSD-ConQuest-V1
_database_code_CSD ZIWZIQ
_database_code_depnum_ccdc_archive 'CCDC 961909'
_chemical_formula_sum 'C30 H25 N3 O5'
_chemical_formula_moiety
;
C30 H25 N3 O5
;
_journal_coden_Cambridge 1078
_journal_year 2013
_journal_name_full 'CSD Communication(Private Communication) '
loop_
_publ_author_name
"J.G.Malecki"
_chemical_name_systematic
;
2-((4-((1,3-dioxo-1,3-dihydro-2H-isoindol-2-yl)methyl)-3-mesityl-4,5-dihydro-1
,2-oxazol-5-yl)methyl)-1H-isoindole-1,3(2H)-dione
;
_cell_volume   2541.907
_exptl_crystal_colour 'colorless'
_exptl_crystal_density_diffrn 1.326
_exptl_crystal_description 'block'
_diffrn_ambient_temperature 295
#These two values have been output from a single CSD field.
_refine_ls_R_factor_gt 0.0483
_refine_ls_wR_factor_gt 0.0483
_symmetry_cell_setting monoclinic
_symmetry_space_group_name_H-M 'P 21/n'
_symmetry_Int_Tables_number 14
loop_
_symmetry_equiv_pos_site_id
_symmetry_equiv_pos_as_xyz
1 x,y,z
2 1/2-x,1/2+y,1/2-z
3 -x,-y,-z
4 -1/2+x,-1/2-y,-1/2+z
_cell_length_a 13.805(3)
_cell_length_b 14.3383(19)
_cell_length_c 14.405(3)
_cell_angle_alpha 90
_cell_angle_beta 116.94(2)
_cell_angle_gamma 90
_cell_formula_units_Z 4
loop_
_atom_type_symbol
_atom_type_radius_bond
C 0.68
H 0.23
N 0.68
O 0.68
loop_
_atom_site_label
_atom_site_type_symbol
_atom_site_fract_x
_atom_site_fract_y
_atom_site_fract_z
O1 O 0.4023(5) 0.4410(4) 0.3715(5)
O2 O 0.0799(5) 0.5009(4) 0.3672(5)
O3 O 0.1553(6) 0.1969(5) 0.3369(5)
O4 O 0.2724(6) 0.4363(5) 0.6253(6)
O5 O 0.3864(6) 0.1392(4) 0.6327(5)
N1 N 0.4874(6) 0.3781(5) 0.3905(5)
N2 N 0.1406(5) 0.3552(4) 0.3509(5)
N3 N 0.3476(5) 0.2943(5) 0.6205(5)
C1 C 0.4842(6) 0.3101(5) 0.4466(5)
C2 C 0.3902(6) 0.3159(5) 0.4733(5)
H1 H 0.34410 0.26050 0.44680
C3 C 0.3302(6) 0.4011(5) 0.4102(6)
H2 H 0.32050 0.44620 0.45640
C4 C 0.5679(6) 0.2372(5) 0.4829(5)
C5 C 0.5411(6) 0.1448(5) 0.4437(6)
C6 C 0.6238(8) 0.0809(6) 0.4805(7)
H3 H 0.60840 0.02090 0.45320
C7 C 0.7271(7) 0.0991(5) 0.5543(6)
C8 C 0.7503(6) 0.1889(6) 0.5913(6)
H4 H 0.82070 0.20380 0.64010
C9 C 0.6723(6) 0.2570(5) 0.5579(5)
C10 C 0.4317(9) 0.1214(7) 0.3627(8)
H5 H 0.43660 0.07260 0.31950
H6 H 0.39930 0.17560 0.32090
H7 H 0.38780 0.10090 0.39480
C11 C 0.8136(9) 0.0244(7) 0.5908(9)
H8 H 0.88410 0.05300 0.62360
H9 H 0.80710 -0.01180 0.53220
H10 H 0.80460 -0.01550 0.63990
C12 C 0.7054(8) 0.3543(6) 0.6029(8)
H11 H 0.75660 0.34990 0.67520
H12 H 0.64230 0.38790 0.59600
H13 H 0.73810 0.38670 0.56580
C13 C 0.2244(7) 0.3840(6) 0.3192(6)
H14 H 0.23270 0.33560 0.27620
H15 H 0.20070 0.44040 0.27770
C14 C 0.0756(6) 0.4169(6) 0.3716(6)
C15 C 0.0033(6) 0.3581(6) 0.3985(5)
C16 C 0.0257(7) 0.2660(6) 0.3891(6)
C17 C 0.1130(7) 0.2634(6) 0.3557(6)
C18 C -0.0746(7) 0.3835(8) 0.4276(7)
H16 H -0.08920 0.44580 0.43400
C19 C -0.1313(9) 0.3117(10) 0.4471(7)
H17 H -0.18540 0.32600 0.46640
C20 C -0.1078(9) 0.2202(11) 0.4380(7)
H18 H -0.14610 0.17360 0.45210
C21 C -0.0290(8) 0.1951(7) 0.4088(7)
H19 H -0.01370 0.13290 0.40270
C22 C 0.4307(6) 0.3234(6) 0.5915(5)
H20 H 0.49450 0.28450 0.62700
H21 H 0.45130 0.38730 0.61340
C23 C 0.3316(7) 0.2022(6) 0.6386(5)
C24 C 0.2428(7) 0.2022(7) 0.6682(6)
C25 C 0.2106(6) 0.2922(7) 0.6676(6)
C26 C 0.2758(7) 0.3527(7) 0.6363(6)
C27 C 0.1973(8) 0.1281(8) 0.6971(7)
H22 H 0.21870 0.06670 0.69630
C28 C 0.1178(10) 0.1511(13) 0.7273(8)
H23 H 0.08600 0.10370 0.74820
C29 C 0.0850(9) 0.2407(13) 0.7274(8)
H24 H 0.03250 0.25300 0.74950
C30 C 0.1277(8) 0.3133(10) 0.6955(7)
H25 H 0.10280 0.37400 0.69250
#END
