
#######################################################################
#
#                 Cambridge Crystallographic Data Centre
#                                CCDC
#
#######################################################################
#
# If this CIF has been generated from an entry in the Cambridge
# Structural Database, then it will include bibliographic, chemical,
# crystal, experimental, refinement or atomic coordinate data resulting
# from the CCDC's data processing and validation procedures.
#
#######################################################################

data_CSD_CIF_ZOLZUV
_audit_creation_date 1996-08-19
_audit_creation_method CSD-ConQuest-V1
_database_code_CSD ZOLZUV
_database_code_depnum_ccdc_archive 'CCDC 1314678'
_chemical_formula_sum 'C12 H10 N4 O2'
_chemical_formula_moiety
;
C12 H10 N4 O2
;
_journal_coden_Cambridge 34
_journal_volume 32
_journal_year 1995
_journal_page_first 1189
_journal_name_full 'J.Heterocycl.Chem. '
loop_
_publ_author_name
"D.J.Anderson"
"C.R.Muchmore"
_chemical_name_systematic
;
N-(4-Cyano-3-phenyl-1H-pyrazol-1-yl)acetamide N-oxide
;
_chemical_melting_point 484.15
_cell_volume   1161.532
_exptl_crystal_colour 'white'
_exptl_crystal_density_diffrn 1.38
_exptl_special_details
;
Melts with decomposition.

;
_diffrn_ambient_temperature 118.15
#These two values have been output from a single CSD field.
_refine_ls_R_factor_gt 0.032
_refine_ls_wR_factor_gt 0.032
_symmetry_cell_setting monoclinic
_symmetry_space_group_name_H-M 'P 21/c'
_symmetry_Int_Tables_number 14
loop_
_symmetry_equiv_pos_site_id
_symmetry_equiv_pos_as_xyz
1 x,y,z
2 -x,1/2+y,1/2-z
3 -x,-y,-z
4 x,-1/2-y,-1/2+z
_cell_length_a 9.505(3)
_cell_length_b 11.474(2)
_cell_length_c 11.577(2)
_cell_angle_alpha 90
_cell_angle_beta 113.08(3)
_cell_angle_gamma 90
_cell_formula_units_Z 4
loop_
_atom_type_symbol
_atom_type_radius_bond
C 0.68
H 0.23
N 0.68
O 0.68
loop_
_atom_site_label
_atom_site_type_symbol
_atom_site_fract_x
_atom_site_fract_y
_atom_site_fract_z
N1 N 0.5078(2) -0.0844(1) 0.3206(1)
N2 N 0.4151(2) 0.0105(1) 0.2632(1)
O1 O 0.4105(1) 0.1004(1) 0.3289(1)
C1 C 0.3453(2) -0.0118(2) 0.1399(1)
C2 C 0.4004(2) -0.1221(2) 0.1200(2)
N3 N 0.3242(2) -0.2313(1) -0.0898(2)
C3 C 0.3573(2) -0.1825(2) 0.0034(2)
C4 C 0.5017(2) -0.1629(2) 0.2331(2)
N4 N 0.6174(2) -0.0736(1) 0.4395(1)
C5 C 0.7476(2) -0.0117(2) 0.4519(2)
O2 O 0.7695(1) 0.0199(1) 0.3606(1)
C6 C 0.8537(2) 0.0081(2) 0.5856(2)
C7 C 0.2352(2) 0.0681(2) 0.0507(2)
C8 C 0.1318(2) 0.1322(2) 0.0826(2)
C9 C 0.0255(2) 0.2037(2) -0.0056(2)
C10 C 0.0229(2) 0.2120(2) -0.1262(2)
C11 C 0.1260(2) 0.1493(2) -0.1577(2)
C12 C 0.2318(2) 0.0769(2) -0.0709(2)
H1 H 0.56100 -0.23800 0.24700
H2 H 0.60400 -0.10800 0.51400
H3 H 0.84200 0.08900 0.61100
H4 H 0.96200 -0.00400 0.59500
H5 H 0.83000 -0.04700 0.64200
H6 H 0.13200 0.12500 0.17000
H7 H -0.05000 0.25100 0.01800
H8 H -0.05400 0.26300 -0.19000
H9 H 0.12600 0.15800 -0.24500
H10 H 0.30600 0.02900 -0.09500
#END
