
#######################################################################
#
#                 Cambridge Crystallographic Data Centre
#                                CCDC
#
#######################################################################
#
# If this CIF has been generated from an entry in the Cambridge
# Structural Database, then it will include bibliographic, chemical,
# crystal, experimental, refinement or atomic coordinate data resulting
# from the CCDC's data processing and validation procedures.
#
#######################################################################

data_CSD_CIF_ZUTFEB
_audit_creation_date 2015-09-04
_audit_creation_method CSD-ConQuest-V1
_database_code_CSD ZUTFEB
_database_code_depnum_ccdc_archive 'CCDC 1422475'
_chemical_formula_sum 'C17 H33 N3 O2'
_chemical_formula_moiety
;
C17 H33 N3 O2
;
_journal_coden_Cambridge 35
_journal_volume 78
_journal_year 2013
_journal_page_first 6558
_journal_name_full 'J.Org.Chem. '
loop_
_publ_author_name
"M.Kavala"
"R.Boca"
"L.Dlhan"
"V.Brezova"
"M.Breza"
"J.Kozisek"
"M.Fronc"
"P.Herich"
"L.Svorc"
"P.Szolcsanyi"
_chemical_name_systematic
;
N-(1-Oxido-2,2,6,6-tetramethylpiperidin-4-yl)-N-(1-oxido-2,2,5,5-tetramethylpy
rrolidin-3-yl)amine radical
;
_cell_volume    925.304
_exptl_crystal_density_diffrn 1.118
_diffrn_ambient_temperature 293
#These two values have been output from a single CSD field.
_refine_ls_R_factor_gt 0.0386
_refine_ls_wR_factor_gt 0.0386
_symmetry_cell_setting monoclinic
_symmetry_space_group_name_H-M 'P 21'
_symmetry_Int_Tables_number 4
loop_
_symmetry_equiv_pos_site_id
_symmetry_equiv_pos_as_xyz
1 x,y,z
2 -x,1/2+y,-z
_cell_length_a 7.8821(8)
_cell_length_b 11.6183(7)
_cell_length_c 10.8273(8)
_cell_angle_alpha 90
_cell_angle_beta 111.059(10)
_cell_angle_gamma 90
_cell_formula_units_Z 2
loop_
_atom_type_symbol
_atom_type_radius_bond
C 0.68
H 0.23
N 0.68
O 0.68
loop_
_atom_site_label
_atom_site_type_symbol
_atom_site_fract_x
_atom_site_fract_y
_atom_site_fract_z
C1 C 0.3534(2) 0.44802(14) 0.29836(14)
H1 H 0.32870 0.37310 0.33000
C2 C 0.5338(2) 0.49200(17) 0.39344(16)
H2 H 0.56040 0.56470 0.36020
H3 H 0.62800 0.43800 0.39430
C3 C 0.5434(2) 0.50971(19) 0.53564(16)
C4 C 0.1940(2) 0.55069(16) 0.43620(16)
C5 C 0.2072(2) 0.53150(15) 0.29989(16)
H4 H 0.09090 0.50350 0.23990
H5 H 0.22980 0.60510 0.26630
C6 C 0.4643(2) 0.35108(13) 0.13715(14)
H6 H 0.48830 0.29100 0.20480
C7 C 0.37753(19) 0.29336(13) -0.00022(14)
C8 C 0.7150(2) 0.30517(14) 0.06087(14)
C9 C 0.6487(2) 0.39518(16) 0.13681(16)
H7 H 0.63420 0.46950 0.09340
H8 H 0.73490 0.40300 0.22660
C10 C 0.5552(4) 0.3942(2) 0.6072(2)
H9 H 0.56190 0.40800 0.69630
H10 H 0.66180 0.35350 0.60870
H11 H 0.44920 0.34910 0.56140
C11 C 0.7084(3) 0.5820(3) 0.6127(2)
H12 H 0.71220 0.59270 0.70160
H13 H 0.70030 0.65560 0.57060
H14 H 0.81700 0.54340 0.61460
C12 C 0.0776(3) 0.6562(2) 0.4317(2)
H15 H 0.06960 0.66820 0.51710
H16 H -0.04200 0.64460 0.36720
H17 H 0.13180 0.72250 0.40780
C13 C 0.1100(3) 0.4473(2) 0.48085(19)
H18 H 0.10480 0.46260 0.56650
H19 H 0.18330 0.38030 0.48550
H20 H -0.01060 0.43420 0.41850
C14 C 0.2589(3) 0.19237(17) 0.0042(2)
H21 H 0.20640 0.15930 -0.08250
H22 H 0.16370 0.21820 0.03330
H23 H 0.33120 0.13550 0.06470
C15 C 0.2773(3) 0.37724(17) -0.10964(16)
H24 H 0.22640 0.33640 -0.19180
H25 H 0.36060 0.43460 -0.11740
H26 H 0.18160 0.41380 -0.08890
C16 C 0.8356(3) 0.21340(19) 0.14949(19)
H27 H 0.87270 0.15990 0.09650
H28 H 0.76940 0.17330 0.19530
H29 H 0.94110 0.24900 0.21270
C17 C 0.8075(3) 0.35871(17) -0.02670(17)
H30 H 0.84640 0.29900 -0.07170
H31 H 0.91100 0.40250 0.02690
H32 H 0.72340 0.40840 -0.09050
N1 N 0.34282(18) 0.43523(12) 0.16103(12)
H33 H 0.361(2) 0.5042(18) 0.1317(17)
N2 N 0.3798(2) 0.57153(14) 0.53554(14)
N3 N 0.54119(18) 0.25218(12) -0.02305(13)
O1 O 0.3870(2) 0.61439(19) 0.64592(16)
O2 O 0.53187(19) 0.18223(12) -0.11540(14)
#END
