
#######################################################################
#
#                 Cambridge Crystallographic Data Centre
#                                CCDC
#
#######################################################################
#
# If this CIF has been generated from an entry in the Cambridge
# Structural Database, then it will include bibliographic, chemical,
# crystal, experimental, refinement or atomic coordinate data resulting
# from the CCDC's data processing and validation procedures.
#
#######################################################################

data_CSD_CIF_ZZZFYW01
_audit_creation_date 1991-01-07
_audit_creation_method CSD-ConQuest-V1
_database_code_CSD ZZZFYW01
_chemical_formula_sum 'C6 H4 N2 O4'
_chemical_formula_moiety
;
C6 H4 N2 O4
;
_journal_coeditor_code "IUCr an0318"
_journal_coden_Cambridge 622
_journal_volume 46
_journal_year 1990
_journal_page_first 567
_journal_name_full 'Acta Crystallogr.,Sect.B:Struct.Sci. '
loop_
_publ_author_name
"F.H.Herbstein"
"M.Kapon"
_chemical_name_systematic
;
1,2-Dinitrobenzene
;
_chemical_melting_point 389
_cell_volume    709.898
_exptl_crystal_colour 'yellow'
_exptl_crystal_density_diffrn 1.573
_exptl_special_details
;
Melting point range 389-389.5K
Only corrected bond lengths given in this paper
;
_diffrn_ambient_temperature ?
_diffrn_special_details
;
The study was carried out at room temperature,in the range 283-303K

;
#These two values have been output from a single CSD field.
_refine_ls_R_factor_gt 0.0541
_refine_ls_wR_factor_gt 0.0541
_symmetry_cell_setting monoclinic
_symmetry_space_group_name_H-M 'P 21/c'
_symmetry_Int_Tables_number 14
loop_
_symmetry_equiv_pos_site_id
_symmetry_equiv_pos_as_xyz
1 x,y,z
2 -x,1/2+y,1/2-z
3 -x,-y,-z
4 x,-1/2-y,-1/2+z
_cell_length_a 7.945(5)
_cell_length_b 12.975(8)
_cell_length_c 7.421(5)
_cell_angle_alpha 90
_cell_angle_beta 111.88(1)
_cell_angle_gamma 90
_cell_formula_units_Z 4
loop_
_atom_type_symbol
_atom_type_radius_bond
C 0.68
H 0.23
N 0.68
O 0.68
loop_
_atom_site_label
_atom_site_type_symbol
_atom_site_fract_x
_atom_site_fract_y
_atom_site_fract_z
C1 C 0.3727(2) 0.7836(2) 0.1858(3)
C2 C 0.2208(3) 0.8435(1) 0.1578(3)
C3 C 0.0557(3) 0.7980(2) 0.1261(3)
C4 C 0.0430(3) 0.6918(2) 0.1215(4)
C5 C 0.1928(4) 0.6321(2) 0.1462(3)
C6 C 0.3595(3) 0.6778(2) 0.1793(3)
N1 N 0.5541(2) 0.8299(2) 0.2400(3)
O1 O 0.6558(2) 0.7918(2) 0.1688(4)
O2 O 0.5921(2) 0.9008(2) 0.3566(3)
N2 N 0.2262(3) 0.9565(1) 0.1474(3)
O3 O 0.3127(3) 0.9948(1) 0.0584(3)
O4 O 0.1372(3) 1.0048(1) 0.2224(3)
H1 H -0.0446(36) 0.8436(21) 0.1168(37)
H2 H -0.0704(37) 0.6596(21) 0.1099(38)
H3 H 0.1815(33) 0.5596(20) 0.1513(35)
H4 H 0.4604(39) 0.6390(22) 0.2005(41)
#END
