
#######################################################################
#
#                 Cambridge Crystallographic Data Centre
#                                CCDC
#
#######################################################################
#
# If this CIF has been generated from an entry in the Cambridge
# Structural Database, then it will include bibliographic, chemical,
# crystal, experimental, refinement or atomic coordinate data resulting
# from the CCDC's data processing and validation procedures.
#
#######################################################################

data_CSD_CIF_ZZZMBE02
_audit_creation_date 2006-01-09
_audit_creation_method CSD-ConQuest-V1
_database_code_CSD ZZZMBE02
_database_code_depnum_ccdc_archive 'CCDC 290316'
_chemical_formula_sum 'C9 H7 N1 O4'
_chemical_formula_moiety
;
C9 H7 N1 O4
;
_journal_coeditor_code "IUCr WN6388"
_journal_coden_Cambridge 1370
_journal_volume 61
_journal_year 2005
_journal_page_first o3636
_journal_name_full 'Acta Crystallogr.,Sect.E:Struct.Rep.Online '
loop_
_publ_author_name
"K.U.Lakshmi"
"S.Thamotharan"
"M.Srinivasan"
"K.Ramamurthi"
"B.Varghese"
_chemical_name_systematic
;
3-Nitrocinnamic acid
;
_cell_volume    867.501
_exptl_crystal_colour 'colorless'
_exptl_crystal_density_diffrn 1.479
_exptl_special_details
;
beta polymorph

;
_exptl_crystal_description 'block'
_exptl_crystal_preparation 'ethanol'
_diffrn_ambient_temperature 293
#These two values have been output from a single CSD field.
_refine_ls_R_factor_gt 0.0462
_refine_ls_wR_factor_gt 0.0462
_symmetry_cell_setting monoclinic
_symmetry_space_group_name_H-M 'P 21/n'
_symmetry_Int_Tables_number 14
loop_
_symmetry_equiv_pos_site_id
_symmetry_equiv_pos_as_xyz
1 x,y,z
2 1/2-x,1/2+y,1/2-z
3 -x,-y,-z
4 -1/2+x,-1/2-y,-1/2+z
_cell_length_a 3.7756(2)
_cell_length_b 9.4584(13)
_cell_length_c 24.295(4)
_cell_angle_alpha 90
_cell_angle_beta 90.875(8)
_cell_angle_gamma 90
_cell_formula_units_Z 4
loop_
_atom_type_symbol
_atom_type_radius_bond
C 0.68
H 0.23
N 0.68
O 0.68
loop_
_atom_site_label
_atom_site_type_symbol
_atom_site_fract_x
_atom_site_fract_y
_atom_site_fract_z
C1 C 0.3333(6) 0.0198(2) 0.1143(1)
C2 C 0.4539(6) 0.0178(2) 0.16858(9)
H1 H 0.55480 -0.06360 0.18350
C3 C 0.4216(6) 0.1376(2) 0.19963(9)
C4 C 0.2784(7) 0.2620(2) 0.17952(12)
H2 H 0.26000 0.34170 0.20170
C5 C 0.1638(7) 0.2640(3) 0.12542(13)
H3 H 0.06880 0.34640 0.11050
C6 C 0.1888(7) 0.1455(3) 0.09359(11)
H4 H 0.10780 0.14850 0.05730
N1 N 0.5488(6) 0.1356(2) 0.25715(9)
C7 C 0.3562(7) -0.1043(3) 0.07858(10)
H5 H 0.26660 -0.09320 0.04300
C8 C 0.4884(7) -0.2302(3) 0.09062(10)
H6 H 0.58260 -0.24590 0.12570
C9 C 0.4915(7) -0.3454(3) 0.05071(10)
O1 O 0.4837(7) 0.2370(2) 0.28617(9)
O2 O 0.7153(6) 0.0337(2) 0.27319(8)
O3 O 0.3566(5) -0.3298(2) 0.00408(7)
O4 O 0.6367(6) -0.4602(2) 0.06723(8)
H7 H 0.61650 -0.52060 0.04320
#END
