
#######################################################################
#
#                 Cambridge Crystallographic Data Centre
#                                CCDC
#
#######################################################################
#
# If this CIF has been generated from an entry in the Cambridge
# Structural Database, then it will include bibliographic, chemical,
# crystal, experimental, refinement or atomic coordinate data resulting
# from the CCDC's data processing and validation procedures.
#
#######################################################################

data_CSD_CIF_ZZZTLC01
_audit_creation_date 2000-05-08
_audit_creation_method CSD-ConQuest-V1
_database_code_CSD ZZZTLC01
_database_code_depnum_ccdc_archive 'CCDC 136083'
_chemical_formula_sum 'C4 H8 N4 O4'
_chemical_formula_moiety
;
C4 H8 N4 O4
;
_journal_coden_Cambridge 1078
_journal_year 1999
_journal_name_full 'CSD Communication(Private Communication) '
loop_
_publ_author_name
"R.Gilardi"
_chemical_name_systematic
;
1,4-Dinitro-1,4-diazacyclohexane
;
_cell_volume    715.614
_exptl_crystal_colour 'colorless'
_exptl_crystal_density_diffrn 1.635
_exptl_special_details
;
contribution from Laboratory for the Structure of Matter, The Naval Research 
Laboratory, Washington, D.C., USA
;
_exptl_crystal_description 'thin plate'
_diffrn_ambient_temperature ?
_diffrn_special_details
;
The study was carried out at room temperature,in the range 283-303K

;
#These two values have been output from a single CSD field.
_refine_ls_R_factor_gt 0.064
_refine_ls_wR_factor_gt 0.064
_symmetry_cell_setting orthorhombic
_symmetry_space_group_name_H-M 'P n m a'
_symmetry_Int_Tables_number 62
loop_
_symmetry_equiv_pos_site_id
_symmetry_equiv_pos_as_xyz
1 x,y,z
2 1/2+x,y,1/2-z
3 x,1/2-y,z
4 1/2-x,1/2+y,1/2+z
5 -x,-y,-z
6 -1/2-x,-y,-1/2+z
7 -x,-1/2+y,-z
8 -1/2+x,-1/2-y,-1/2-z
_cell_length_a 12.1241(10)
_cell_length_b 10.931(2)
_cell_length_c 5.3997(6)
_cell_angle_alpha 90
_cell_angle_beta 90
_cell_angle_gamma 90
_cell_formula_units_Z 4
loop_
_atom_type_symbol
_atom_type_radius_bond
C 0.68
H 0.23
N 0.68
O 0.68
loop_
_atom_site_label
_atom_site_type_symbol
_atom_site_fract_x
_atom_site_fract_y
_atom_site_fract_z
N1 N 0.5673(4) 0.25000 0.2718(9)
N2 N 0.4881(6) 0.25000 0.0901(13)
O1 O 0.4583(3) 0.1515(7) 0.0104(8)
C1 C 0.5737(4) 0.1382(6) 0.4161(9)
H1 H 0.5719(4) 0.0680(6) 0.3063(9)
H2 H 0.5109(4) 0.1330(6) 0.5266(9)
C2 C 0.6795(3) 0.1369(4) 0.5653(8)
H3 H 0.6797(3) 0.0673(4) 0.6766(8)
H4 H 0.7423(3) 0.1298(4) 0.4552(8)
N3 N 0.6871(3) 0.25000 0.7069(8)
N4 N 0.7634(4) 0.25000 0.8934(8)
O2 O 0.7935(2) 0.1510(3) 0.9762(5)
O1B O 0.4583(3) 0.3485(7) 0.0104(8)
C2B C 0.6795(3) 0.3631(4) 0.5653(8)
C1B C 0.5737(4) 0.3618(6) 0.4161(9)
H1B H 0.5719(4) 0.4320(6) 0.3063(9)
H2B H 0.5109(4) 0.3670(6) 0.5266(9)
H3B H 0.6797(3) 0.4327(4) 0.6766(8)
H4B H 0.7423(3) 0.3702(4) 0.4552(8)
O2B O 0.7935(2) 0.3490(3) 0.9762(5)
#END
