
#######################################################################
#
#                 Cambridge Crystallographic Data Centre
#                                CCDC
#
#######################################################################
#
# If this CIF has been generated from an entry in the Cambridge
# Structural Database, then it will include bibliographic, chemical,
# crystal, experimental, refinement or atomic coordinate data resulting
# from the CCDC's data processing and validation procedures.
#
#######################################################################

data_CSD_CIF_ABAHIW
_audit_creation_date 2011-11-16
_audit_creation_method CSD-ConQuest-V1
_database_code_CSD ABAHIW
_database_code_depnum_ccdc_archive 'CCDC 850675'
_chemical_formula_sum 'C10 H11 N1 O4'
_chemical_formula_moiety
;
C10 H11 N1 O4
;
_journal_coeditor_code "IUCr XU5329"
_journal_coden_Cambridge 1370
_journal_volume 67
_journal_year 2011
_journal_page_first o2806
_journal_name_full 'Acta Crystallogr.,Sect.E:Struct.Rep.Online '
loop_
_publ_author_name
"P.Zou"
"M.-H.Xie"
"H.Wu"
"Y.-L.Liu"
"Z.-P.Chen"
_chemical_name_systematic
;
Isopropyl 4-nitrobenzoate
;
_cell_volume    497.654
_exptl_crystal_colour 'colorless'
_exptl_crystal_density_diffrn 1.396
_exptl_crystal_description 'platelet'
_diffrn_ambient_temperature 153
#These two values have been output from a single CSD field.
_refine_ls_R_factor_gt 0.0458
_refine_ls_wR_factor_gt 0.0458
_symmetry_cell_setting triclinic
_symmetry_space_group_name_H-M 'P -1'
_symmetry_Int_Tables_number 2
loop_
_symmetry_equiv_pos_site_id
_symmetry_equiv_pos_as_xyz
1 x,y,z
2 -x,-y,-z
_cell_length_a 6.729(4)
_cell_length_b 7.192(4)
_cell_length_c 10.388(6)
_cell_angle_alpha 94.751(9)
_cell_angle_beta 92.503(7)
_cell_angle_gamma 95.901(10)
_cell_formula_units_Z 2
loop_
_atom_type_symbol
_atom_type_radius_bond
C 0.68
H 0.23
N 0.68
O 0.68
loop_
_atom_site_label
_atom_site_type_symbol
_atom_site_fract_x
_atom_site_fract_y
_atom_site_fract_z
O1 O 0.24504(18) 0.35230(15) 0.1288(1)
O2 O 0.3016(2) 0.12996(17) 0.26213(12)
O3 O 0.2023(2) 0.79014(18) 0.77175(11)
O4 O 0.2382(3) 1.00939(19) 0.64283(13)
N1 N 0.2278(2) 0.8444(2) 0.66434(13)
C1 C 0.2535(2) 0.3845(2) 0.47750(14)
H1 H 0.25400 0.25590 0.49220
C2 C 0.2421(2) 0.5176(2) 0.58075(14)
H2 H 0.23250 0.48180 0.66650
C3 C 0.2450(2) 0.7032(2) 0.55569(14)
C4 C 0.2586(2) 0.7627(2) 0.43241(14)
H3 H 0.26180 0.89190 0.41860
C5 C 0.2672(2) 0.6275(2) 0.32976(14)
H4 H 0.27520 0.66380 0.24410
C6 C 0.2642(2) 0.4393(2) 0.35198(14)
C7 C 0.2732(2) 0.2890(2) 0.24432(14)
C8 C 0.2391(2) 0.2167(2) 0.01385(15)
H5 H 0.20270 0.08700 0.03920
C9 C 0.4432(3) 0.2293(3) -0.04028(18)
H6 H 0.47660 0.35510 -0.06820
H7 H 0.44350 0.13580 -0.11450
H8 H 0.54240 0.20520 0.02650
C10 C 0.0769(3) 0.2689(3) -0.07652(17)
H9 H -0.04970 0.26380 -0.03310
H10 H 0.06240 0.18060 -0.15430
H11 H 0.11250 0.39630 -0.10100
#END
