
#######################################################################
#
#                 Cambridge Crystallographic Data Centre
#                                CCDC
#
#######################################################################
#
# If this CIF has been generated from an entry in the Cambridge
# Structural Database, then it will include bibliographic, chemical,
# crystal, experimental, refinement or atomic coordinate data resulting
# from the CCDC's data processing and validation procedures.
#
#######################################################################

data_CSD_CIF_ABANAU
_audit_creation_date 2011-11-16
_audit_creation_method CSD-ConQuest-V1
_database_code_CSD ABANAU
_database_code_depnum_ccdc_archive 'CCDC 750333'
_chemical_formula_sum 'C15 H10 N4 O10'
_chemical_formula_moiety
;
C15 H10 N4 O10
;
_journal_coeditor_code "IUCr HB6396"
_journal_coden_Cambridge 1370
_journal_volume 67
_journal_year 2011
_journal_page_first o2720
_journal_name_full 'Acta Crystallogr.,Sect.E:Struct.Rep.Online '
loop_
_publ_author_name
"D.Kalaivani"
"R.Malarvizhi"
"M.Nethaji"
"S.Rajeswari"
_chemical_name_systematic
;
Methyl bis(2,4-dinitrophenyl)acetate
;
_cell_volume   1724.859
_exptl_crystal_colour 'colorless'
_exptl_crystal_density_diffrn 1.565
_exptl_crystal_description 'block'
_diffrn_ambient_temperature 293
_refine_special_details
;
O3 and O3A disordered over two sites with occupancies 0.7:0.3.

;
#These two values have been output from a single CSD field.
_refine_ls_R_factor_gt 0.0768
_refine_ls_wR_factor_gt 0.0768
_symmetry_cell_setting monoclinic
_symmetry_space_group_name_H-M 'P 21/c'
_symmetry_Int_Tables_number 14
loop_
_symmetry_equiv_pos_site_id
_symmetry_equiv_pos_as_xyz
1 x,y,z
2 -x,1/2+y,1/2-z
3 -x,-y,-z
4 x,-1/2-y,-1/2+z
_cell_length_a 9.812(5)
_cell_length_b 10.974(6)
_cell_length_c 16.025(9)
_cell_angle_alpha 90
_cell_angle_beta 91.589(10)
_cell_angle_gamma 90
_cell_formula_units_Z 4
loop_
_atom_type_symbol
_atom_type_radius_bond
C 0.68
H 0.23
N 0.68
O 0.68
loop_
_atom_site_label
_atom_site_type_symbol
_atom_site_fract_x
_atom_site_fract_y
_atom_site_fract_z
O1 O 0.5549(3) 0.1001(4) 0.33068(19)
O2 O 0.5029(2) 0.1801(3) 0.20813(16)
O3 O 0.5184(7) 0.3122(6) 0.4951(5)
O4 O 0.4263(4) 0.3497(3) 0.38083(18)
O5 O 0.2382(4) 0.1011(2) 0.69206(16)
O6 O 0.1291(3) -0.0550(3) 0.64934(17)
O7 O 0.0686(2) 0.2483(2) 0.30932(14)
O8 O -0.0449(3) 0.2648(3) 0.19403(17)
O9 O -0.0984(4) -0.1013(3) 0.03896(17)
O10 O 0.0800(5) -0.2084(3) 0.0167(2)
N1 N 0.4152(5) 0.3015(4) 0.4429(2)
N2 N 0.1982(3) 0.0338(3) 0.63757(17)
N3 N 0.0397(3) 0.2146(2) 0.23940(17)
N4 N 0.0206(4) -0.1288(3) 0.05241(18)
C1 C 0.4734(4) 0.1400(4) 0.2825(2)
C2 C 0.3221(3) 0.1506(3) 0.29780(19)
H1 H 0.29690 0.23610 0.28890
C3 C 0.2927(3) 0.1203(3) 0.38819(19)
C4 C 0.3366(4) 0.1903(3) 0.4556(2)
C5 C 0.3089(4) 0.1621(3) 0.5366(2)
H2 H 0.34120 0.21080 0.58040
C6 C 0.2338(3) 0.0622(3) 0.55141(19)
C7 C 0.1878(4) -0.0127(3) 0.4884(2)
H3 H 0.13710 -0.08190 0.49990
C8 C 0.2183(4) 0.0169(3) 0.4073(2)
H4 H 0.18810 -0.03390 0.36420
C9 C 0.2407(3) 0.0761(3) 0.23477(18)
C10 C 0.1093(3) 0.1079(3) 0.20720(18)
C11 C 0.0366(4) 0.0419(3) 0.14770(19)
H5 H -0.05060 0.06540 0.13020
C12 C 0.0968(4) -0.0586(3) 0.1154(2)
C13 C 0.2250(5) -0.0943(3) 0.1401(2)
H6 H 0.26450 -0.16320 0.11710
C14 C 0.2945(4) -0.0269(3) 0.1994(2)
H7 H 0.38150 -0.05170 0.21640
C15 C 0.6420(4) 0.1669(5) 0.1825(3)
H8 H 0.70020 0.21840 0.21630
H9 H 0.64830 0.19000 0.12500
H10 H 0.67000 0.08360 0.18920
O11? O 0.4078(11) 0.3806(10) 0.5064(7)
#END
