
#######################################################################
#
#                 Cambridge Crystallographic Data Centre
#                                CCDC
#
#######################################################################
#
# If this CIF has been generated from an entry in the Cambridge
# Structural Database, then it will include bibliographic, chemical,
# crystal, experimental, refinement or atomic coordinate data resulting
# from the CCDC's data processing and validation procedures.
#
#######################################################################

data_CSD_CIF_ABAVUW
_audit_creation_date 2011-11-29
_audit_creation_method CSD-ConQuest-V1
_database_code_CSD ABAVUW
_database_code_depnum_ccdc_archive 'CCDC 850901'
_chemical_formula_sum 'C12 H17 N1 O3'
_chemical_formula_moiety
;
C12 H17 N1 O3
;
_journal_coden_Cambridge 9
_journal_volume 50
_journal_year 2011
_journal_page_first 4515
_journal_name_full 'Inorg.Chem. '
loop_
_publ_author_name
"R.S.Forgan"
"B.D.Roach"
"P.A.Wood"
"F.J.White"
"J.Campbell"
"D.K.Henderson"
"E.Kamenetzky"
"F.E.McAllister"
"S.Parsons"
"E.Pidcock"
"P.Richardson"
"R.M.Swart"
"P.A.Tasker"
_chemical_name_systematic
;
4-t-Butyl-2-((hydroxyimino)methyl)-6-methoxyphenol
;
_cell_volume   1205.281
_exptl_crystal_colour 'colorless'
_exptl_crystal_density_diffrn 1.23
_exptl_crystal_description 'block'
_exptl_crystal_preparation 'acetone'
_diffrn_ambient_temperature 150
#These two values have been output from a single CSD field.
_refine_ls_R_factor_gt 0.0399
_refine_ls_wR_factor_gt 0.0399
_symmetry_cell_setting orthorhombic
_symmetry_space_group_name_H-M 'P 21 21 21'
_symmetry_Int_Tables_number 19
loop_
_symmetry_equiv_pos_site_id
_symmetry_equiv_pos_as_xyz
1 x,y,z
2 1/2-x,-y,1/2+z
3 -x,1/2+y,1/2-z
4 1/2+x,1/2-y,-z
_cell_length_a 9.6192(4)
_cell_length_b 10.6124(4)
_cell_length_c 11.8069(5)
_cell_angle_alpha 90
_cell_angle_beta 90
_cell_angle_gamma 90
_cell_formula_units_Z 4
loop_
_atom_type_symbol
_atom_type_radius_bond
C 0.68
H 0.23
N 0.68
O 0.68
loop_
_atom_site_label
_atom_site_type_symbol
_atom_site_fract_x
_atom_site_fract_y
_atom_site_fract_z
O1 O 0.02305(13) 0.31584(11) 0.67530(9)
H1 H -0.007(2) 0.243(2) 0.6911(18)
C1 C -0.01938(16) 0.34447(14) 0.56842(12)
C2 C -0.10071(16) 0.26454(14) 0.50224(13)
C3 C -0.13987(16) 0.30215(13) 0.39243(12)
H2 H -0.19690 0.24800 0.34830
C4 C -0.09701(16) 0.41649(13) 0.34714(12)
C5 C -0.01507(16) 0.49522(13) 0.41541(12)
H3 H 0.01620 0.57360 0.38600
C6 C 0.02102(16) 0.46118(14) 0.52434(12)
C7 C -0.14484(16) 0.14133(14) 0.54297(12)
H4 H -0.20300 0.09030 0.49680
N1 N -0.10622(16) 0.10092(12) 0.64029(11)
O2 O -0.15597(15) -0.02084(12) 0.66155(11)
H5 H -0.119(3) -0.040(2) 0.724(2)
C8 C -0.12686(17) 0.45268(14) 0.22420(13)
C9 C -0.1595(2) 0.59364(16) 0.21289(17)
H6 H -0.23710 0.61540 0.26300
H7 H -0.18490 0.61260 0.13430
H8 H -0.07740 0.64290 0.23410
C10 C -0.2499(2) 0.37962(18) 0.17513(14)
H9 H -0.23020 0.28910 0.17830
H10 H -0.26460 0.40490 0.09620
H11 H -0.33360 0.39800 0.21940
C11 C 0.0033(2) 0.4228(2) 0.15422(14)
H12 H 0.08270 0.46950 0.18480
H13 H -0.01210 0.44760 0.07530
H14 H 0.02250 0.33220 0.15780
O3 O 0.09934(13) 0.5324(1) 0.59763(9)
C12 C 0.1328(2) 0.65659(15) 0.56440(15)
H15 H 0.19230 0.65410 0.49710
H16 H 0.18200 0.69910 0.62620
H17 H 0.04710 0.70270 0.54690
#END
