
#######################################################################
#
#                 Cambridge Crystallographic Data Centre
#                                CCDC
#
#######################################################################
#
# If this CIF has been generated from an entry in the Cambridge
# Structural Database, then it will include bibliographic, chemical,
# crystal, experimental, refinement or atomic coordinate data resulting
# from the CCDC's data processing and validation procedures.
#
#######################################################################

data_CSD_CIF_ABAWAD
_audit_creation_date 2011-11-29
_audit_creation_method CSD-ConQuest-V1
_database_code_CSD ABAWAD
_database_code_depnum_ccdc_archive 'CCDC 850902'
_chemical_formula_sum 'C15 H23 N1 O2'
_chemical_formula_moiety
;
C15 H23 N1 O2
;
_journal_coden_Cambridge 9
_journal_volume 50
_journal_year 2011
_journal_page_first 4515
_journal_name_full 'Inorg.Chem. '
loop_
_publ_author_name
"R.S.Forgan"
"B.D.Roach"
"P.A.Wood"
"F.J.White"
"J.Campbell"
"D.K.Henderson"
"E.Kamenetzky"
"F.E.McAllister"
"S.Parsons"
"E.Pidcock"
"P.Richardson"
"R.M.Swart"
"P.A.Tasker"
_chemical_name_systematic
;
2-((Hydroxyimino)methyl)-4-(2,4,4-trimethylpentan-2-yl)phenol
;
_cell_volume   1415.752
_exptl_crystal_colour 'colorless'
_exptl_crystal_density_diffrn 1.17
_exptl_crystal_description 'block'
_exptl_crystal_preparation 'hexane'
_diffrn_ambient_temperature 150
_diffrn_special_details
;
twin

;
#These two values have been output from a single CSD field.
_refine_ls_R_factor_gt 0.0474
_refine_ls_wR_factor_gt 0.0474
_symmetry_cell_setting monoclinic
_symmetry_space_group_name_H-M 'P 21/a'
_symmetry_Int_Tables_number 14
loop_
_symmetry_equiv_pos_site_id
_symmetry_equiv_pos_as_xyz
1 x,y,z
2 1/2-x,1/2+y,-z
3 -x,-y,-z
4 -1/2+x,-1/2-y,z
_cell_length_a 12.5153(8)
_cell_length_b 8.0997(5)
_cell_length_c 14.0564(8)
_cell_angle_alpha 90
_cell_angle_beta 96.496(4)
_cell_angle_gamma 90
_cell_formula_units_Z 4
loop_
_atom_type_symbol
_atom_type_radius_bond
C 0.68
H 0.23
N 0.68
O 0.68
loop_
_atom_site_label
_atom_site_type_symbol
_atom_site_fract_x
_atom_site_fract_y
_atom_site_fract_z
O1 O 0.79807(7) 0.05447(13) 0.92217(7)
H1 H 0.8056(14) 0.127(2) 0.9673(13)
C1 C 0.89204(10) 0.04917(16) 0.88055(9)
O2 O 0.90257(9) 0.40629(12) 1.10272(7)
H2 H 0.8360(15) 0.435(2) 1.1030(11)
C2 C 0.98087(10) 0.14735(15) 0.91333(8)
N1 N 0.89072(9) 0.28893(13) 1.02855(7)
C3 C 1.07357(10) 0.13412(16) 0.86732(8)
H3 H 1.13430 0.19930 0.89000
C4 C 1.08104(10) 0.02999(15) 0.78994(9)
C5 C 0.99079(11) -0.06605(16) 0.76016(9)
H4 H 0.99320 -0.13980 0.70790
C6 C 0.89814(11) -0.05664(17) 0.80464(9)
H5 H 0.83810 -0.12370 0.78270
C7 C 0.97796(11) 0.26342(16) 0.99251(8)
H6 H 1.04160 0.32010 1.01720
C8 C 1.18489(10) 0.02385(17) 0.74174(9)
C9 C 1.27923(11) -0.01185(18) 0.81965(10)
H7 H 1.28370 0.07610 0.86780
H8 H 1.34660 -0.01630 0.79030
H9 H 1.26730 -0.11800 0.85030
C10 C 1.18345(12) -0.11984(18) 0.67027(10)
H10 H 1.17200 -0.22380 0.70330
H11 H 1.25230 -0.12420 0.64340
H12 H 1.12510 -0.10310 0.61850
C11 C 1.21027(11) 0.19067(17) 0.69507(9)
H13 H 1.23250 0.26730 0.74860
H14 H 1.27490 0.17130 0.66200
C12 C 1.13061(11) 0.28776(17) 0.62385(9)
C13 C 1.07566(15) 0.1855(2) 0.54206(11)
H15 H 1.02830 0.10410 0.56740
H16 H 1.13010 0.12830 0.50940
H17 H 1.03310 0.25800 0.49660
C14 C 1.19698(15) 0.4224(2) 0.58060(11)
H18 H 1.24950 0.37070 0.54330
H19 H 1.23470 0.48880 0.63220
H20 H 1.14900 0.49360 0.53870
C15 C 1.04393(14) 0.3758(2) 0.67383(11)
H21 H 1.00300 0.45050 0.62850
H22 H 1.07810 0.43950 0.72830
H23 H 0.99520 0.29380 0.69670
#END
