
#######################################################################
#
#                 Cambridge Crystallographic Data Centre
#                                CCDC
#
#######################################################################
#
# If this CIF has been generated from an entry in the Cambridge
# Structural Database, then it will include bibliographic, chemical,
# crystal, experimental, refinement or atomic coordinate data resulting
# from the CCDC's data processing and validation procedures.
#
#######################################################################

data_CSD_CIF_ABEJOH
_audit_creation_date 2004-11-10
_audit_creation_method CSD-ConQuest-V1
_database_code_CSD ABEJOH
_database_code_depnum_ccdc_archive 'CCDC 251725'
_chemical_formula_sum 'C4 H5 N7 O7'
_chemical_formula_moiety
;
C4 H5 N7 O7
;
_journal_coeditor_code "IUCr FL6113"
_journal_coden_Cambridge 1370
_journal_volume 60
_journal_year 2004
_journal_page_first o1543
_journal_name_full 'Acta Crystallogr.,Sect.E:Struct.Rep.Online '
loop_
_publ_author_name
"R.J.Butcher"
"R.Evans"
"R.Gilardi"
_chemical_name_systematic
;
2,4,6-Trinitro-2,4,6,8-tetraazabicyclo(3.3.0)octan-7-one
;
_cell_volume    892.007
_exptl_crystal_colour 'colorless'
_exptl_crystal_density_diffrn 1.959
_exptl_crystal_description 'faceted brick'
_diffrn_ambient_temperature 94
#These two values have been output from a single CSD field.
_refine_ls_R_factor_gt 0.0348
_refine_ls_wR_factor_gt 0.0348
_symmetry_cell_setting monoclinic
_symmetry_space_group_name_H-M 'P 21/c'
_symmetry_Int_Tables_number 14
loop_
_symmetry_equiv_pos_site_id
_symmetry_equiv_pos_as_xyz
1 x,y,z
2 x,1/2-y,1/2+z
3 -x,-y,-z
4 -x,-1/2+y,-1/2-z
_cell_length_a 11.3962(12)
_cell_length_b 6.4089(7)
_cell_length_c 12.3267(13)
_cell_angle_alpha 90
_cell_angle_beta 97.786(2)
_cell_angle_gamma 90
_cell_formula_units_Z 4
loop_
_atom_type_symbol
_atom_type_radius_bond
C 0.68
H 0.23
N 0.68
O 0.68
loop_
_atom_site_label
_atom_site_type_symbol
_atom_site_fract_x
_atom_site_fract_y
_atom_site_fract_z
C1 C 0.23819(13) 0.3106(2) 0.25848(11)
H1 H 0.18110 0.20630 0.28140
N1 N 0.19933(12) 0.3969(2) 0.14998(10)
N2 N 0.17937(10) 0.2712(2) 0.06298(10)
O1 O 0.1425(1) 0.35235(18) -0.02520(8)
O2 O 0.20144(10) 0.08454(17) 0.07874(9)
C2 C 0.17288(14) 0.6193(2) 0.14282(12)
H2 H 0.09170 0.64600 0.10580
H3 H 0.23050 0.69600 0.10450
N3 N 0.18504(10) 0.6734(2) 0.25966(10)
N4 N 0.08590(11) 0.7637(2) 0.29647(10)
O3 O 0.02421(9) 0.87154(17) 0.22884(9)
O4 O 0.07162(9) 0.73897(18) 0.39110(9)
C3 C 0.24503(12) 0.5110(2) 0.32855(11)
H4 H 0.21080 0.49180 0.39840
N5 N 0.37274(10) 0.5452(2) 0.34674(10)
N6 N 0.41858(11) 0.7013(2) 0.41883(10)
O5 O 0.52556(9) 0.71164(18) 0.44186(9)
O6 O 0.34467(10) 0.81506(18) 0.45017(9)
C4 C 0.43940(13) 0.3747(2) 0.31217(11)
O7 O 0.54561(9) 0.36373(17) 0.31827(9)
N7 N 0.35740(11) 0.2336(2) 0.27083(11)
H5 H 0.3753(17) 0.129(3) 0.2314(15)
#END
