
#######################################################################
#
#                 Cambridge Crystallographic Data Centre
#                                CCDC
#
#######################################################################
#
# If this CIF has been generated from an entry in the Cambridge
# Structural Database, then it will include bibliographic, chemical,
# crystal, experimental, refinement or atomic coordinate data resulting
# from the CCDC's data processing and validation procedures.
#
#######################################################################

data_CSD_CIF_ABEQIK
_audit_creation_date 2016-11-23
_audit_creation_method CSD-ConQuest-V1
_database_code_CSD ABEQIK
_database_code_depnum_ccdc_archive 'CCDC 1518803'
_chemical_formula_sum 'C25 H23 N3 O3'
_chemical_formula_moiety
;
C25 H23 N3 O3
;
_journal_coden_Cambridge 1078
_journal_year 2016
_journal_name_full 'CSD Communication(Private Communication) '
loop_
_publ_author_name
"Jie Zhao"
_chemical_name_systematic
;
(1-(4'-nitrobiphenyl-2-yl)-7-azabicyclo[4.1.1]octan-7-yl)(pyridin-2-yl)methano
ne
;
_cell_volume   2020.471
_exptl_crystal_colour 'colorless'
_exptl_crystal_density_diffrn 1.359
_exptl_crystal_description 'prism'
_diffrn_ambient_temperature 100
_refine_special_details
;
C17A,C18A and C17B,C18B disordered over two sites with occupancies 
0.770:0.230.
;
#These two values have been output from a single CSD field.
_refine_ls_R_factor_gt 0.0506
_refine_ls_wR_factor_gt 0.0506
_symmetry_cell_setting monoclinic
_symmetry_space_group_name_H-M 'P 21/c'
_symmetry_Int_Tables_number 14
loop_
_symmetry_equiv_pos_site_id
_symmetry_equiv_pos_as_xyz
1 x,y,z
2 -x,1/2+y,1/2-z
3 -x,-y,-z
4 x,-1/2-y,-1/2+z
_cell_length_a 7.6849(8)
_cell_length_b 18.935(2)
_cell_length_c 13.9418(15)
_cell_angle_alpha 90
_cell_angle_beta 95.169(2)
_cell_angle_gamma 90
_cell_formula_units_Z 4
loop_
_atom_type_symbol
_atom_type_radius_bond
C 0.68
H 0.23
N 0.68
O 0.68
loop_
_atom_site_label
_atom_site_type_symbol
_atom_site_fract_x
_atom_site_fract_y
_atom_site_fract_z
O1 O 1.13568(18) 0.62383(8) 0.55496(9)
O2 O 1.27632(17) 0.60296(9) 0.43034(11)
O3 O 0.11120(16) 0.64607(7) 0.10139(9)
N1 N 0.22861(18) 0.63909(8) -0.13615(10)
N2 N 0.37385(17) 0.61426(7) 0.05048(9)
N3 N 1.14234(19) 0.60233(8) 0.47227(11)
C1 C 0.0735(2) 0.7226(1) -0.24240(13)
H1 H 0.04880 0.74040 -0.30590
C2 C 0.1846(2) 0.6651(1) -0.22441(12)
H2 H 0.23180 0.64310 -0.27760
C3 C 0.1591(2) 0.67061(8) -0.06219(11)
C4 C 0.2124(2) 0.64297(8) 0.03765(11)
C5 C 0.47830(19) 0.59528(8) 0.14237(11)
C6 C 0.4176(2) 0.52841(8) 0.18984(11)
C7 C 0.5084(2) 0.49862(8) 0.27277(11)
C8 C 0.6747(2) 0.52725(8) 0.32234(11)
C9 C 0.8316(2) 0.52599(9) 0.27854(12)
H3 H 0.83290 0.50790 0.21510
C10 C 0.9861(2) 0.55101(9) 0.32703(12)
H4 H 1.09210 0.55130 0.29680
C11 C 0.9810(2) 0.57543(9) 0.42054(11)
C12 C 0.4427(2) 0.43748(9) 0.31319(12)
H5 H 0.50240 0.41810 0.36980
C13 C 0.2919(2) 0.40456(9) 0.27232(12)
H6 H 0.24910 0.36320 0.30070
C14 C 0.2046(2) 0.43284(9) 0.18959(12)
H7 H 0.10280 0.41040 0.16040
C15 C 0.2668(2) 0.49416(8) 0.14953(11)
H8 H 0.20520 0.51330 0.09330
C16 C 0.4955(2) 0.65955(9) 0.21042(12)
H9 H 0.60210 0.65370 0.25510
H10 H 0.39420 0.66010 0.24950
C17 C 0.5818(2) 0.70253(10) -0.01140(13)
H11 H 0.67910 0.70590 -0.05320
H12 H 0.48070 0.72810 -0.04400
C18 C 0.5324(2) 0.62502(9) -0.00247(12)
H13 H 0.52680 0.59910 -0.06520
C19 C -0.0001(2) 0.75322(9) -0.16539(14)
H14 H -0.07850 0.79180 -0.17540
C20 C 0.0424(2) 0.72672(9) -0.07318(13)
H15 H -0.00700 0.74640 -0.01920
C21 C 0.6371(2) 0.58506(9) 0.08032(12)
H16 H 0.74480 0.60970 0.10640
H17 H 0.66140 0.53510 0.06530
C22 C 0.6762(2) 0.55144(9) 0.41750(12)
H18 H 0.57090 0.55130 0.44830
C23 C 0.8293(2) 0.57560(9) 0.46735(12)
H19 H 0.83000 0.59180 0.53190
C24 C 0.5053(5) 0.73168(14) 0.1590(2)
H20 H 0.38760 0.74260 0.12780
H21 H 0.53330 0.76810 0.20890
C25 C 0.6361(3) 0.73925(13) 0.08298(17)
H22 H 0.65290 0.79010 0.07020
H23 H 0.75010 0.71990 0.10950
C26? C 0.5780(19) 0.7243(5) 0.1803(7)
H24? H 0.70570 0.71630 0.18360
H25? H 0.55700 0.76180 0.22730
C27? C 0.5172(12) 0.7515(4) 0.0793(6)
H26? H 0.56150 0.80020 0.07280
H27? H 0.38800 0.75380 0.07280
#END
