
#######################################################################
#
#                 Cambridge Crystallographic Data Centre
#                                CCDC
#
#######################################################################
#
# If this CIF has been generated from an entry in the Cambridge
# Structural Database, then it will include bibliographic, chemical,
# crystal, experimental, refinement or atomic coordinate data resulting
# from the CCDC's data processing and validation procedures.
#
#######################################################################

data_CSD_CIF_ABIFUO
_audit_creation_date 2011-11-29
_audit_creation_method CSD-ConQuest-V1
_database_code_CSD ABIFUO
_database_code_depnum_ccdc_archive 'CCDC 814150'
_chemical_formula_sum 'C22 H24 N2 O3'
_chemical_formula_moiety
;
C22 H24 N2 O3
;
_journal_coden_Cambridge 1336
_journal_volume 13
_journal_year 2011
_journal_page_first 3734
_journal_name_full 'Org.Lett. '
loop_
_publ_author_name
"T.Pirali"
"R.Mossetti"
"S.Galli"
"G.C.Tron"
_chemical_name_systematic
;
N-Cyclohexyl-2-phenyl-2-((2-phenylacetoxy)imino)acetamide
;
_cell_volume   1974.981
_exptl_crystal_colour 'colorless'
_exptl_crystal_density_diffrn 1.226
_exptl_crystal_description 'prism'
_diffrn_ambient_temperature 298
#These two values have been output from a single CSD field.
_refine_ls_R_factor_gt 0.0502
_refine_ls_wR_factor_gt 0.0502
_symmetry_cell_setting monoclinic
_symmetry_space_group_name_H-M 'P 21/n'
_symmetry_Int_Tables_number 14
loop_
_symmetry_equiv_pos_site_id
_symmetry_equiv_pos_as_xyz
1 x,y,z
2 1/2-x,1/2+y,1/2-z
3 -x,-y,-z
4 -1/2+x,-1/2-y,-1/2+z
_cell_length_a 11.885(4)
_cell_length_b 12.547(8)
_cell_length_c 13.276(8)
_cell_angle_alpha 90
_cell_angle_beta 93.97(5)
_cell_angle_gamma 90
_cell_formula_units_Z 4
loop_
_atom_type_symbol
_atom_type_radius_bond
C 0.68
H 0.23
N 0.68
O 0.68
loop_
_atom_site_label
_atom_site_type_symbol
_atom_site_fract_x
_atom_site_fract_y
_atom_site_fract_z
C1 C 0.1458(2) 0.0267(2) 0.11781(18)
C2 C 0.1387(2) -0.0451(2) 0.03933(19)
H1 H 0.07730 -0.09100 0.03150
C3 C 0.2228(3) -0.0495(3) -0.0284(2)
H2 H 0.21770 -0.09840 -0.08120
C4 C 0.3129(3) 0.0182(3) -0.0173(2)
H3 H 0.36880 0.01590 -0.06290
C5 C 0.3208(3) 0.0886(3) 0.0604(3)
H4 H 0.38280 0.13390 0.06820
C6 C 0.2377(3) 0.0938(3) 0.1280(2)
H5 H 0.24370 0.14280 0.18060
C7 C 0.0549(2) 0.0300(2) 0.19230(18)
H6 H 0.03790 0.10380 0.20700
H7 H -0.01320 -0.00230 0.16140
C8 C 0.0875(2) -0.02663(19) 0.28948(17)
O1 O 0.17988(15) -0.04628(17) 0.32411(12)
O2 O -0.00787(13) -0.05077(13) 0.33629(11)
N1 N 0.01626(17) -0.11020(15) 0.42773(14)
C9 C -0.07641(19) -0.13445(17) 0.46633(16)
C10 C -0.0694(2) -0.20049(18) 0.55850(16)
C11 C 0.0337(2) -0.2310(2) 0.60450(19)
H8 H 0.09990 -0.20840 0.57760
C12 C 0.0399(3) -0.2945(2) 0.6897(2)
H9 H 0.10950 -0.31400 0.72040
C13 C -0.0582(3) -0.3285(2) 0.7287(2)
H10 H -0.05460 -0.37190 0.78560
C14 C -0.1605(3) -0.2991(2) 0.6847(2)
H11 H -0.22640 -0.32250 0.71160
C15 C -0.1664(2) -0.2344(2) 0.60005(19)
H12 H -0.23640 -0.21360 0.57090
C16 C -0.1913(2) -0.1033(2) 0.41759(17)
O3 O -0.24176(15) -0.16471(14) 0.35959(14)
N2 N -0.22843(17) -0.00838(17) 0.44463(15)
C17 C -0.33471(19) 0.0377(2) 0.40357(17)
H13 H -0.39040 -0.01980 0.39580
C18 C -0.3766(3) 0.1180(2) 0.4770(2)
H14 H -0.32040 0.17340 0.48920
H15 H -0.38750 0.08310 0.54080
C19 C -0.4873(3) 0.1678(3) 0.4360(3)
H16 H -0.54540 0.11340 0.43010
H17 H -0.51050 0.22160 0.48290
C20 C -0.4752(3) 0.2184(3) 0.3334(3)
H18 H -0.54760 0.24610 0.30740
H19 H -0.42260 0.27750 0.34060
C21 C -0.4331(2) 0.1382(3) 0.2596(2)
H20 H -0.42150 0.17350 0.19620
H21 H -0.48970 0.08320 0.24670
C22 C -0.3231(2) 0.0871(2) 0.30059(19)
H22 H -0.30120 0.03250 0.25400
H23 H -0.26410 0.14070 0.30560
H24 H -0.189(2) 0.025(2) 0.493(2)
#END
