
#######################################################################
#
#                 Cambridge Crystallographic Data Centre
#                                CCDC
#
#######################################################################
#
# If this CIF has been generated from an entry in the Cambridge
# Structural Database, then it will include bibliographic, chemical,
# crystal, experimental, refinement or atomic coordinate data resulting
# from the CCDC's data processing and validation procedures.
#
#######################################################################

data_CSD_CIF_ABOFIH
_audit_creation_date 2005-02-04
_audit_creation_method CSD-ConQuest-V1
_database_code_CSD ABOFIH
_database_code_depnum_ccdc_archive 'CCDC 235731'
_chemical_formula_sum 'C26 H28 N2 O4'
_chemical_formula_moiety
;
C26 H28 N2 O4
;
_journal_coden_Cambridge 16
_journal_volume 60
_journal_year 2004
_journal_page_first 8881
_journal_name_full 'Tetrahedron '
loop_
_publ_author_name
"V.Sridharan"
"S.Muthusubramanian"
"S.Sivasubramanian"
"K.Polborn"
_chemical_name_systematic
;
3-r-[5-(t-butyl)-2-methoxyphenyl]-4-trans-nitro-2-phenyl-5-cis-phenyltetrahydr
oisoxazole
;
_chemical_melting_point 435.15
_cell_volume   1172.999
_exptl_crystal_colour 'colorless'
_exptl_crystal_density_diffrn 1.225
_exptl_special_details
;
Melting point range 435.15-436.15K

;
_exptl_crystal_description 'block'
_diffrn_ambient_temperature 295
_refine_special_details
;
O atoms of the nitro group are disordered over two positions with occupancies 
0.576:0.424.
;
#These two values have been output from a single CSD field.
_refine_ls_R_factor_gt 0.0409
_refine_ls_wR_factor_gt 0.0409
_symmetry_cell_setting triclinic
_symmetry_space_group_name_H-M 'P -1'
_symmetry_Int_Tables_number 2
loop_
_symmetry_equiv_pos_site_id
_symmetry_equiv_pos_as_xyz
1 x,y,z
2 -x,-y,-z
_cell_length_a 10.5569(12)
_cell_length_b 11.341(2)
_cell_length_c 11.379(2)
_cell_angle_alpha 109.402(13)
_cell_angle_beta 96.960(12)
_cell_angle_gamma 109.118(12)
_cell_formula_units_Z 2
loop_
_atom_type_symbol
_atom_type_radius_bond
C 0.68
H 0.23
N 0.68
O 0.68
loop_
_atom_site_label
_atom_site_type_symbol
_atom_site_fract_x
_atom_site_fract_y
_atom_site_fract_z
O1 O 0.09817(11) -0.00580(11) 0.18844(10)
O2 O -0.0129(5) -0.2830(4) 0.3990(4)
O3 O 0.1335(9) -0.0777(5) 0.4872(5)
O4? O -0.0258(9) -0.2228(22) 0.4296(12)
O5? O 0.1869(10) -0.1173(14) 0.4748(8)
O6 O 0.19418(13) -0.37839(12) 0.21160(12)
N1 N 0.23371(13) 0.00583(12) 0.24194(12)
N2 N 0.0685(2) -0.1782(2) 0.3961(2)
C1 C 0.2102(2) -0.12944(15) 0.23998(14)
H1 H 0.2797(2) -0.12234(15) 0.31019(14)
C2 C 0.0644(2) -0.1807(2) 0.26321(15)
H2 H 0.0087(2) -0.2729(2) 0.19888(15)
C3 C 0.0023(2) -0.0816(2) 0.24280(15)
H3 H 0.0009(2) -0.0199(2) 0.32628(15)
C4 C 0.3023(2) 0.1214(2) 0.36140(15)
C5 C 0.2561(2) 0.2250(2) 0.3981(2)
H4 H 0.1746(2) 0.2171(2) 0.3485(2)
C6 C 0.3307(3) 0.3407(2) 0.5086(2)
H5 H 0.2990(3) 0.4105(2) 0.5327(2)
C7 C 0.4502(3) 0.3540(2) 0.5826(2)
H6 H 0.4992(3) 0.4317(2) 0.6574(2)
C8 C 0.4971(2) 0.2518(2) 0.5458(2)
H7 H 0.5790(2) 0.2607(2) 0.5958(2)
C9 C 0.4248(2) 0.1357(2) 0.4356(2)
H8 H 0.4582(2) 0.0671(2) 0.4111(2)
C10 C 0.2141(2) -0.22566(15) 0.11237(14)
C11 C 0.2039(2) -0.3552(2) 0.1015(2)
C12 C 0.2052(2) -0.4471(2) -0.0130(2)
H9 H 0.1993(2) -0.5330(2) -0.0203(2)
C13 C 0.2152(2) -0.4106(2) -0.1174(2)
H10 H 0.2147(2) -0.4738(2) -0.1947(2)
C14 C 0.2261(2) -0.2832(2) -0.1106(2)
C15 C 0.2254(2) -0.1920(2) 0.00740(15)
H11 H 0.2328(2) -0.1056(2) 0.01520(15)
C16 C 0.1706(3) -0.5111(2) 0.2051(2)
H12 H 0.1636(15) -0.5138(4) 0.2876(5)
H13 H 0.2464(8) -0.5344(6) 0.1822(13)
H14 H 0.0858(8) -0.5748(3) 0.1412(10)
C17 C 0.2354(2) -0.2387(2) -0.2235(2)
C18 C 0.1080(3) -0.2087(3) -0.2582(2)
H15 H 0.1170(7) -0.1733(14) -0.3239(10)
H16 H 0.1009(9) -0.1430(11) -0.1830(4)
H17 H 0.0261(3) -0.2910(4) -0.2894(13)
C19 C 0.3657(3) -0.1067(2) -0.1835(2)
H18 H 0.3691(9) -0.0774(9) -0.2535(6)
H19 H 0.4473(3) -0.1236(5) -0.1628(14)
H20 H 0.3618(8) -0.0373(5) -0.1095(9)
C20 C 0.2439(3) -0.3455(3) -0.3419(2)
H21 H 0.2529(19) -0.3118(7) -0.4088(6)
H22 H 0.1611(8) -0.4268(7) -0.3716(10)
H23 H 0.3231(11) -0.3655(13) -0.3202(5)
C21 C -0.1409(2) -0.1494(2) 0.1527(2)
C22 C -0.1634(2) -0.1612(2) 0.0265(2)
H24 H -0.0888(2) -0.1259(2) -0.0048(2)
C23 C -0.2963(2) -0.2251(2) -0.0535(2)
H25 H -0.3108(2) -0.2310(2) -0.1379(2)
C24 C -0.4062(2) -0.2796(2) -0.0093(3)
H26 H -0.4953(2) -0.3236(2) -0.0639(3)
C25 C -0.3854(2) -0.2696(3) 0.1157(3)
H27 H -0.4603(2) -0.3076(3) 0.1455(3)
C26 C -0.2534(2) -0.2031(2) 0.1970(2)
H28 H -0.2400(2) -0.1944(2) 0.2823(2)
#END
