
#######################################################################
#
#                 Cambridge Crystallographic Data Centre
#                                CCDC
#
#######################################################################
#
# If this CIF has been generated from an entry in the Cambridge
# Structural Database, then it will include bibliographic, chemical,
# crystal, experimental, refinement or atomic coordinate data resulting
# from the CCDC's data processing and validation procedures.
#
#######################################################################

data_CSD_CIF_ABOFUT
_audit_creation_date 2005-02-04
_audit_creation_method CSD-ConQuest-V1
_database_code_CSD ABOFUT
_database_code_depnum_ccdc_archive 'CCDC 235733'
_chemical_formula_sum 'C39 H37 N1 O3'
_chemical_formula_moiety
;
C39 H37 N1 O3
;
_journal_coden_Cambridge 16
_journal_volume 60
_journal_year 2004
_journal_page_first 8881
_journal_name_full 'Tetrahedron '
loop_
_publ_author_name
"V.Sridharan"
"S.Muthusubramanian"
"S.Sivasubramanian"
"K.Polborn"
_chemical_name_systematic
;
[3-[2-methoxy-5-(1-methyl-1-phenylethyl)phenyl]-5-(4-methylphenyl)-2-phenyltet
rahydro-4-isoxazolyl]phenylmethanone
;
_chemical_melting_point 442.15
_cell_volume   1556.519
_exptl_crystal_colour 'colorless'
_exptl_crystal_density_diffrn 1.211
_exptl_special_details
;
Melting point range 442.15-443.15K

;
_exptl_crystal_description 'plate'
_diffrn_ambient_temperature 295
#These two values have been output from a single CSD field.
_refine_ls_R_factor_gt 0.0422
_refine_ls_wR_factor_gt 0.0422
_symmetry_cell_setting triclinic
_symmetry_space_group_name_H-M 'P -1'
_symmetry_Int_Tables_number 2
loop_
_symmetry_equiv_pos_site_id
_symmetry_equiv_pos_as_xyz
1 x,y,z
2 -x,-y,-z
_cell_length_a 8.748(3)
_cell_length_b 9.972(2)
_cell_length_c 18.744(4)
_cell_angle_alpha 100.79(2)
_cell_angle_beta 94.44(2)
_cell_angle_gamma 102.46(2)
_cell_formula_units_Z 2
loop_
_atom_type_symbol
_atom_type_radius_bond
C 0.68
H 0.23
N 0.68
O 0.68
loop_
_atom_site_label
_atom_site_type_symbol
_atom_site_fract_x
_atom_site_fract_y
_atom_site_fract_z
O1 O 0.3935(2) 0.6384(2) 0.27155(8)
O2 O 0.1719(2) 0.1629(2) 0.13086(8)
O3 O 0.1382(2) 0.4966(2) 0.08095(8)
N1 N 0.4675(2) 0.5532(2) 0.22149(9)
C1 C 0.3443(2) 0.4237(2) 0.19028(11)
H1 H 0.3506(2) 0.3967(2) 0.13775(11)
C2 C 0.1842(2) 0.4654(2) 0.20106(11)
H2 H 0.1278(2) 0.4138(2) 0.23453(11)
C3 C 0.2366(2) 0.6230(2) 0.23565(11)
H3 H 0.2427(2) 0.6768(2) 0.19681(11)
C4 C 0.5416(2) 0.6277(2) 0.17090(11)
C5 C 0.6018(3) 0.5543(2) 0.11362(13)
H4 H 0.5882(3) 0.4576(2) 0.10788(13)
C6 C 0.6812(3) 0.6223(3) 0.06526(14)
H5 H 0.7185(3) 0.5711(3) 0.02647(14)
C7 C 0.7056(3) 0.7650(3) 0.0739(2)
H6 H 0.7586(3) 0.8112(3) 0.0410(2)
C8 C 0.6509(3) 0.8388(3) 0.1315(2)
H7 H 0.6689(3) 0.9359(3) 0.1379(2)
C9 C 0.5693(3) 0.7718(2) 0.18033(14)
H8 H 0.5334(3) 0.8237(2) 0.21930(14)
C10 C 0.3607(2) 0.3027(2) 0.22572(11)
C11 C 0.2686(2) 0.1689(2) 0.19347(11)
C12 C 0.2775(3) 0.0555(2) 0.22391(13)
H9 H 0.2188(3) -0.0338(2) 0.20119(13)
C13 C 0.3751(3) 0.0752(2) 0.28893(12)
H10 H 0.3788(3) -0.0017(2) 0.30990(12)
C14 C 0.4668(2) 0.2056(2) 0.32331(11)
C15 C 0.4599(2) 0.3179(2) 0.28943(11)
H11 H 0.5241(2) 0.4060(2) 0.31039(11)
C16 C 0.0551(3) 0.0366(3) 0.10330(15)
H12 H 0.1050(4) -0.0370(5) 0.0841(8)
H13 H -0.0157(12) 0.0503(6) 0.0651(6)
H14 H -0.0029(13) 0.0109(10) 0.1421(3)
C17 C 0.5729(3) 0.2299(2) 0.39626(11)
C18 C 0.5520(3) 0.3623(3) 0.44726(13)
H15 H 0.4429(5) 0.3520(8) 0.4544(7)
H16 H 0.5858(18) 0.4422(4) 0.4258(4)
H17 H 0.6144(15) 0.3757(10) 0.4936(3)
C19 C 0.5232(3) 0.1084(3) 0.43568(14)
H18 H 0.4138(6) 0.0967(11) 0.4424(8)
H19 H 0.5858(13) 0.1292(8) 0.4825(4)
H20 H 0.5391(17) 0.0234(4) 0.4068(4)
C20 C 0.7442(2) 0.2406(2) 0.38059(11)
C21 C 0.7864(3) 0.1239(3) 0.34186(14)
H21 H 0.7088(3) 0.0418(3) 0.32410(14)
C22 C 0.9398(3) 0.1261(3) 0.3289(2)
H22 H 0.9644(3) 0.0459(3) 0.3032(2)
C23 C 1.0552(3) 0.2451(4) 0.3537(2)
H23 H 1.1589(3) 0.2465(4) 0.3454(2)
C24 C 1.0179(3) 0.3617(4) 0.3906(2)
H24 H 1.0965(3) 0.4436(4) 0.4071(2)
C25 C 0.8625(3) 0.3604(3) 0.40412(14)
H25 H 0.8389(3) 0.4416(3) 0.42933(14)
C26 C 0.0822(2) 0.4389(2) 0.12760(11)
C27 C -0.0797(2) 0.3461(2) 0.11322(11)
C28 C -0.1625(2) 0.2970(2) 0.16684(12)
H26 H -0.1161(2) 0.3210(2) 0.21524(12)
C29 C -0.3132(3) 0.2125(2) 0.14906(14)
H27 H -0.3678(3) 0.1801(2) 0.18544(14)
C30 C -0.3826(3) 0.1764(3) 0.0777(2)
H28 H -0.4839(3) 0.1192(3) 0.0658(2)
C31 C -0.3027(3) 0.2246(3) 0.02397(15)
H29 H -0.3503(3) 0.2002(3) -0.02425(15)
C32 C -0.1519(3) 0.3094(2) 0.04111(12)
H30 H -0.0984(3) 0.3419(2) 0.00443(12)
C33 C 0.1352(3) 0.6777(2) 0.29030(12)
C34 C -0.0182(3) 0.6781(3) 0.26731(14)
H31 H -0.0559(3) 0.6497(3) 0.21778(14)
C35 C -0.1171(3) 0.7201(3) 0.3166(2)
H32 H -0.2209(3) 0.7168(3) 0.2997(2)
C36 C -0.0658(3) 0.7665(3) 0.38968(14)
C37 C 0.0880(3) 0.7690(3) 0.41213(14)
H33 H 0.1267(3) 0.8013(3) 0.46143(14)
C38 C 0.1872(3) 0.7250(3) 0.36371(13)
H34 H 0.2905(3) 0.7273(3) 0.38098(13)
C39 C -0.1746(4) 0.8132(4) 0.4430(2)
H35 H -0.1660(17) 0.9121(5) 0.4479(8)
H36 H -0.1454(15) 0.7938(19) 0.4898(3)
H37 H -0.2814(5) 0.7631(15) 0.4252(6)
#END
