
#######################################################################
#
#                 Cambridge Crystallographic Data Centre
#                                CCDC
#
#######################################################################
#
# If this CIF has been generated from an entry in the Cambridge
# Structural Database, then it will include bibliographic, chemical,
# crystal, experimental, refinement or atomic coordinate data resulting
# from the CCDC's data processing and validation procedures.
#
#######################################################################

data_CSD_CIF_ABULIT04
_audit_creation_date 2008-05-14
_audit_creation_method CSD-ConQuest-V1
_database_code_CSD ABULIT04
_database_code_depnum_ccdc_archive 'CCDC 657080'
_chemical_formula_sum 'C8 H9 N1 O3'
_chemical_formula_moiety
;
C8 H9 N1 O3
;
_journal_coden_Cambridge 1350
_journal_volume 10
_journal_year 2008
_journal_page_first 239
_journal_name_full 'CrystEngComm '
loop_
_publ_author_name
"P.A.Wood"
"R.S.Forgan"
"A.R.Lennie"
"S.Parsons"
"E.Pidcock"
"P.A.Tasker"
"J.E.Warren"
_chemical_name_systematic
;
3-Methoxysalicylaldoxime
;
_chemical_name_common
;
2-hydroxy-3-methoxybenzaldehyde oxime; O-vanillin oxime
;
_cell_volume   1327.710
_exptl_crystal_colour 'yellow'
_exptl_crystal_density_diffrn 1.672
_exptl_crystal_description 'block'
_exptl_crystal_preparation 'chloroform'
_diffrn_ambient_temperature 298
_diffrn_ambient_pressure 2700000.0
_diffrn_radiation_probe x-ray
_diffrn_source synchrotron
#These two values have been output from a single CSD field.
_refine_ls_R_factor_gt 0.0408
_refine_ls_wR_factor_gt 0.0408
_symmetry_cell_setting orthorhombic
_symmetry_space_group_name_H-M 'P b c a'
_symmetry_Int_Tables_number 61
loop_
_symmetry_equiv_pos_site_id
_symmetry_equiv_pos_as_xyz
1 x,y,z
2 1/2+x,1/2-y,-z
3 -x,1/2+y,1/2-z
4 1/2-x,-y,1/2+z
5 -x,-y,-z
6 -1/2-x,-1/2+y,z
7 x,-1/2-y,-1/2+z
8 -1/2+x,y,-1/2-z
_cell_length_a 12.5814(4)
_cell_length_b 7.0265(4)
_cell_length_c 15.0188(4)
_cell_angle_alpha 90
_cell_angle_beta 90
_cell_angle_gamma 90
_cell_formula_units_Z 8
loop_
_atom_type_symbol
_atom_type_radius_bond
C 0.68
H 0.23
N 0.68
O 0.68
loop_
_atom_site_label
_atom_site_type_symbol
_atom_site_fract_x
_atom_site_fract_y
_atom_site_fract_z
O1 O 0.48778(15) -0.0227(4) 0.68007(10)
N1 N 0.52963(16) 0.1003(4) 0.61613(12)
C1 C 0.56227(18) 0.2575(5) 0.64700(14)
C2 C 0.60149(17) 0.4015(4) 0.58626(14)
C3 C 0.61158(17) 0.3642(4) 0.49534(15)
O2 O 0.59315(14) 0.1892(3) 0.46024(10)
C4 C 0.64380(18) 0.5076(4) 0.43717(14)
O3 O 0.64879(14) 0.4518(3) 0.34959(10)
C5 C 0.6990(2) 0.5834(5) 0.29099(16)
C6 C 0.66643(18) 0.6857(4) 0.46929(16)
C7 C 0.65795(19) 0.7235(5) 0.56003(17)
C8 C 0.62481(19) 0.5832(4) 0.61773(16)
H1 H 0.465(3) -0.104(5) 0.641(2)
H2 H 0.55930 0.28160 0.70870
H3 H 0.570(3) 0.121(5) 0.504(2)
H4 H 0.70270 0.52150 0.23300
H5 H 0.77000 0.61110 0.31150
H6 H 0.65770 0.69940 0.28690
H7 H 0.68860 0.78070 0.42960
H8 H 0.67440 0.84490 0.58130
H9 H 0.61860 0.60820 0.67890
#END
