
#######################################################################
#
#                 Cambridge Crystallographic Data Centre
#                                CCDC
#
#######################################################################
#
# If this CIF has been generated from an entry in the Cambridge
# Structural Database, then it will include bibliographic, chemical,
# crystal, experimental, refinement or atomic coordinate data resulting
# from the CCDC's data processing and validation procedures.
#
#######################################################################

data_CSD_CIF_ABULIT03
_audit_creation_date 2008-05-14
_audit_creation_method CSD-ConQuest-V1
_database_code_CSD ABULIT03
_database_code_depnum_ccdc_archive 'CCDC 657079'
_chemical_formula_sum 'C8 H9 N1 O3'
_chemical_formula_moiety
;
C8 H9 N1 O3
;
_journal_coden_Cambridge 1350
_journal_volume 10
_journal_year 2008
_journal_page_first 239
_journal_name_full 'CrystEngComm '
loop_
_publ_author_name
"P.A.Wood"
"R.S.Forgan"
"A.R.Lennie"
"S.Parsons"
"E.Pidcock"
"P.A.Tasker"
"J.E.Warren"
_chemical_name_systematic
;
3-Methoxysalicylaldoxime
;
_chemical_name_common
;
2-hydroxy-3-methoxybenzaldehyde oxime; O-vanillin oxime
;
_cell_volume   1415.081
_exptl_crystal_colour 'yellow'
_exptl_crystal_density_diffrn 1.569
_exptl_crystal_description 'block'
_exptl_crystal_preparation 'chloroform'
_diffrn_ambient_temperature 298
_diffrn_ambient_pressure 1400000.0
_diffrn_radiation_probe x-ray
_diffrn_source synchrotron
#These two values have been output from a single CSD field.
_refine_ls_R_factor_gt 0.0464
_refine_ls_wR_factor_gt 0.0464
_symmetry_cell_setting orthorhombic
_symmetry_space_group_name_H-M 'P b c a'
_symmetry_Int_Tables_number 61
loop_
_symmetry_equiv_pos_site_id
_symmetry_equiv_pos_as_xyz
1 x,y,z
2 1/2+x,1/2-y,-z
3 -x,1/2+y,1/2-z
4 1/2-x,-y,1/2+z
5 -x,-y,-z
6 -1/2-x,-1/2+y,z
7 x,-1/2-y,-1/2+z
8 -1/2+x,y,-1/2-z
_cell_length_a 13.0765(5)
_cell_length_b 7.0982(4)
_cell_length_c 15.2455(5)
_cell_angle_alpha 90
_cell_angle_beta 90
_cell_angle_gamma 90
_cell_formula_units_Z 8
loop_
_atom_type_symbol
_atom_type_radius_bond
C 0.68
H 0.23
N 0.68
O 0.68
loop_
_atom_site_label
_atom_site_type_symbol
_atom_site_fract_x
_atom_site_fract_y
_atom_site_fract_z
O1 O 0.48742(19) -0.0183(4) 0.67811(12)
N1 N 0.52884(19) 0.1016(4) 0.61483(15)
C1 C 0.5591(2) 0.2584(6) 0.64472(18)
C2 C 0.5994(2) 0.4006(5) 0.58545(17)
C3 C 0.6106(2) 0.3628(5) 0.49583(18)
O2 O 0.59083(16) 0.1921(4) 0.46076(12)
C4 C 0.6441(2) 0.5054(5) 0.43900(18)
O3 O 0.65027(16) 0.4504(4) 0.35281(12)
C5 C 0.6977(3) 0.5806(6) 0.2945(2)
C6 C 0.6688(2) 0.6790(6) 0.4718(2)
C7 C 0.6589(2) 0.7171(6) 0.5611(2)
C8 C 0.6244(2) 0.5794(5) 0.61742(19)
H1 H 0.457(3) -0.097(7) 0.648(3)
H2 H 0.55460 0.28520 0.70470
H3 H 0.568(3) 0.116(6) 0.501(3)
H4 H 0.70400 0.52380 0.23730
H5 H 0.76490 0.61430 0.31510
H6 H 0.65910 0.69390 0.28780
H7 H 0.69210 0.77200 0.43390
H8 H 0.67680 0.83390 0.58260
H9 H 0.61780 0.60140 0.67800
#END
