
#######################################################################
#
#                 Cambridge Crystallographic Data Centre
#                                CCDC
#
#######################################################################
#
# If this CIF has been generated from an entry in the Cambridge
# Structural Database, then it will include bibliographic, chemical,
# crystal, experimental, refinement or atomic coordinate data resulting
# from the CCDC's data processing and validation procedures.
#
#######################################################################

data_CSD_CIF_ABULIT
_audit_creation_date 2005-02-04
_audit_creation_method CSD-ConQuest-V1
_database_code_CSD ABULIT
_database_code_depnum_ccdc_archive 'CCDC 253273'
_chemical_formula_sum 'C8 H9 N1 O3'
_chemical_formula_moiety
;
C8 H9 N1 O3
;
_journal_coden_Cambridge 577
_journal_volume 12
_journal_year 2004
_journal_page_first 22
_journal_name_full 'Hecheng Huaxue(Chin.)(Chin.J.Synth.Chem.) '
loop_
_publ_author_name
"Tao Xu"
"Lian-zhi Li"
"Hai-Wei Ji"
_chemical_name_systematic
;
2-Hydroxy-3-methoxybenzaldehyde oxime
;
_chemical_name_common
;
o-Vanillin-hydroxylammonium
;
_chemical_melting_point 400.15
_cell_volume   1628.104
_exptl_crystal_density_diffrn 1.364
_diffrn_ambient_temperature 273
#These two values have been output from a single CSD field.
_refine_ls_R_factor_gt 0.0362
_refine_ls_wR_factor_gt 0.0362
_symmetry_cell_setting orthorhombic
_symmetry_space_group_name_H-M 'P b c a'
_symmetry_Int_Tables_number 61
loop_
_symmetry_equiv_pos_site_id
_symmetry_equiv_pos_as_xyz
1 x,y,z
2 1/2+x,y,1/2-z
3 x,1/2-y,1/2+z
4 1/2-x,1/2+y,z
5 -x,-y,-z
6 -1/2-x,-y,-1/2+z
7 -x,-1/2+y,-1/2-z
8 -1/2+x,-1/2-y,-z
_cell_length_a 14.300(13)
_cell_length_b 7.205(7)
_cell_length_c 15.802(15)
_cell_angle_alpha 90
_cell_angle_beta 90
_cell_angle_gamma 90
_cell_formula_units_Z 8
loop_
_atom_type_symbol
_atom_type_radius_bond
C 0.68
H 0.23
N 0.68
O 0.68
loop_
_atom_site_label
_atom_site_type_symbol
_atom_site_fract_x
_atom_site_fract_y
_atom_site_fract_z
N1 N 0.02445(14) 0.1071(3) 0.38790(11)
O1 O -0.01728(15) -0.0074(3) 0.32674(10)
O2 O 0.08323(13) 0.1979(2) 0.53704(10)
O3 O 0.15119(12) 0.4478(2) 0.63834(10)
C1 C 0.05285(17) 0.2619(4) 0.35951(16)
C2 C 0.09533(15) 0.3982(3) 0.41537(14)
C3 C 0.10708(15) 0.3635(3) 0.50148(15)
C4 C 0.14479(16) 0.4983(3) 0.55500(15)
C5 C 0.17218(18) 0.6671(4) 0.52152(19)
C6 C 0.1621(2) 0.7021(4) 0.4356(2)
C7 C 0.12352(18) 0.5701(4) 0.38320(18)
C8 C 0.1932(3) 0.5759(6) 0.6955(2)
H1 H -0.045(2) -0.102(5) 0.363(2)
H2 H 0.048(2) 0.116(5) 0.495(2)
H3 H 0.0486(16) 0.293(3) 0.2999(16)
H4 H 0.1979(17) 0.759(4) 0.5582(15)
H5 H 0.1806(17) 0.824(4) 0.4127(17)
H6 H 0.1139(17) 0.596(3) 0.3212(17)
H7 H 0.160(2) 0.694(5) 0.6955(19)
H8 H 0.256(2) 0.603(4) 0.6746(19)
H9 H 0.194(2) 0.509(4) 0.751(2)
#END
