
#######################################################################
#
#                 Cambridge Crystallographic Data Centre
#                                CCDC
#
#######################################################################
#
# If this CIF has been generated from an entry in the Cambridge
# Structural Database, then it will include bibliographic, chemical,
# crystal, experimental, refinement or atomic coordinate data resulting
# from the CCDC's data processing and validation procedures.
#
#######################################################################

data_CSD_CIF_ABULIT05
_audit_creation_date 2008-05-14
_audit_creation_method CSD-ConQuest-V1
_database_code_CSD ABULIT05
_database_code_depnum_ccdc_archive 'CCDC 657081'
_chemical_formula_sum 'C8 H9 N1 O3'
_chemical_formula_moiety
;
C8 H9 N1 O3
;
_journal_coden_Cambridge 1350
_journal_volume 10
_journal_year 2008
_journal_page_first 239
_journal_name_full 'CrystEngComm '
loop_
_publ_author_name
"P.A.Wood"
"R.S.Forgan"
"A.R.Lennie"
"S.Parsons"
"E.Pidcock"
"P.A.Tasker"
"J.E.Warren"
_chemical_name_systematic
;
3-Methoxysalicylaldoxime
;
_chemical_name_common
;
2-hydroxy-3-methoxybenzaldehyde oxime; O-vanillin oxime
;
_cell_volume   1279.944
_exptl_crystal_colour 'yellow'
_exptl_crystal_density_diffrn 1.735
_exptl_crystal_description 'block'
_exptl_crystal_preparation 'chloroform'
_diffrn_ambient_temperature 298
_diffrn_ambient_pressure 4400000.0
_diffrn_radiation_probe x-ray
_diffrn_source synchrotron
#These two values have been output from a single CSD field.
_refine_ls_R_factor_gt 0.0488
_refine_ls_wR_factor_gt 0.0488
_symmetry_cell_setting orthorhombic
_symmetry_space_group_name_H-M 'P b c a'
_symmetry_Int_Tables_number 61
loop_
_symmetry_equiv_pos_site_id
_symmetry_equiv_pos_as_xyz
1 x,y,z
2 1/2+x,1/2-y,-z
3 -x,1/2+y,1/2-z
4 1/2-x,-y,1/2+z
5 -x,-y,-z
6 -1/2-x,-1/2+y,z
7 x,-1/2-y,-1/2+z
8 -1/2+x,y,-1/2-z
_cell_length_a 12.3113(5)
_cell_length_b 6.9800(4)
_cell_length_c 14.8947(5)
_cell_angle_alpha 90
_cell_angle_beta 90
_cell_angle_gamma 90
_cell_formula_units_Z 8
loop_
_atom_type_symbol
_atom_type_radius_bond
C 0.68
H 0.23
N 0.68
O 0.68
loop_
_atom_site_label
_atom_site_type_symbol
_atom_site_fract_x
_atom_site_fract_y
_atom_site_fract_z
O1 O 0.48832(16) -0.0257(4) 0.68105(10)
N1 N 0.52970(16) 0.0989(4) 0.61710(11)
C1 C 0.56425(18) 0.2558(4) 0.64851(14)
C2 C 0.60256(17) 0.4039(4) 0.58695(13)
C3 C 0.61199(17) 0.3638(4) 0.49513(13)
O2 O 0.59428(14) 0.1875(3) 0.4604(1)
C4 C 0.64287(17) 0.5083(4) 0.43629(13)
O3 O 0.64787(14) 0.4530(3) 0.3481(1)
C5 C 0.7005(2) 0.5823(5) 0.28909(15)
C6 C 0.66558(18) 0.6893(4) 0.46805(15)
C7 C 0.65729(18) 0.7271(5) 0.55987(16)
C8 C 0.62541(19) 0.5853(4) 0.61827(14)
H1 H 0.461(3) -0.116(5) 0.647(2)
H2 H 0.56350 0.27940 0.71090
H3 H 0.570(3) 0.120(5) 0.504(2)
H4 H 0.70470 0.52460 0.23070
H5 H 0.77280 0.60920 0.31010
H6 H 0.66120 0.70220 0.28500
H7 H 0.68600 0.78460 0.42790
H8 H 0.67170 0.84990 0.58100
H9 H 0.61800 0.61300 0.67970
#END
