
#######################################################################
#
#                 Cambridge Crystallographic Data Centre
#                                CCDC
#
#######################################################################
#
# If this CIF has been generated from an entry in the Cambridge
# Structural Database, then it will include bibliographic, chemical,
# crystal, experimental, refinement or atomic coordinate data resulting
# from the CCDC's data processing and validation procedures.
#
#######################################################################

data_CSD_CIF_ABUSIC
_audit_creation_date 2016-11-24
_audit_creation_method CSD-ConQuest-V1
_database_code_CSD ABUSIC
_database_code_depnum_ccdc_archive 'CCDC 1491107'
_chemical_formula_sum 'C32 H28 N2 O4'
_chemical_formula_moiety
;
C32 H28 N2 O4
;
_journal_coden_Cambridge 493
_journal_volume 126
_journal_year 2017
_journal_page_first 408
_journal_name_full 'Eur.J.Med.Chem. '
loop_
_publ_author_name
"M.Miliutina"
"S.A.Ejaz"
"Shafi Ullah Khan"
"V.O.Iaroshenko"
"A.Villinger"
"J.Iqbal"
"P.Langer"
_chemical_name_systematic
;
3-(3,5-dimethylphenyl)-1-(4-methoxybenzyl)-2-(4-methylphenyl)-6-nitroquinolin-
4(1H)-one
;
_chemical_melting_point 552.15
_cell_volume   2615.545
_exptl_crystal_colour 'yellow'
_exptl_crystal_density_diffrn 1.281
_exptl_special_details
;
Melting point range 552.15-554.15K

;
_exptl_crystal_description 'block'
_diffrn_ambient_temperature 173
_refine_special_details
;
C10A,C11A,C12A,C13A,C14A,C15A,C16A,C17A and 
C10B,C11B,C12B,C13B,C14B,C15B,C16B,C17B disordered over two sites with 
occupancies 0.670:0.330; C25A,C26A,C27A,C28A,C29A,C30A,C31A,C32A,O3A and 
C25B,C26B,C27B,C28B,C29B,C30B,C31B,C32B,O3B disordered over two sites with 
occupancies 0.726:0.274.
;
#These two values have been output from a single CSD field.
_refine_ls_R_factor_gt 0.0487
_refine_ls_wR_factor_gt 0.0487
_symmetry_cell_setting monoclinic
_symmetry_space_group_name_H-M 'P 21/n'
_symmetry_Int_Tables_number 14
loop_
_symmetry_equiv_pos_site_id
_symmetry_equiv_pos_as_xyz
1 x,y,z
2 1/2-x,1/2+y,1/2-z
3 -x,-y,-z
4 -1/2+x,-1/2-y,-1/2+z
_cell_length_a 15.4229(4)
_cell_length_b 8.1449(3)
_cell_length_c 21.9984(7)
_cell_angle_alpha 90
_cell_angle_beta 108.827(2)
_cell_angle_gamma 90
_cell_formula_units_Z 4
loop_
_atom_type_symbol
_atom_type_radius_bond
C 0.68
H 0.23
N 0.68
O 0.68
loop_
_atom_site_label
_atom_site_type_symbol
_atom_site_fract_x
_atom_site_fract_y
_atom_site_fract_z
N1 N 0.43356(8) 0.72781(16) 0.10179(5)
N2 N 0.64915(9) 0.86953(16) -0.05411(6)
O1 O 0.31440(8) 0.74410(18) -0.09386(5)
O2 O 0.73145(8) 0.89144(17) -0.02855(6)
O3 O 0.61048(9) 0.88234(18) -0.11223(6)
C1 C 0.2984(1) 0.69668(18) 0.00830(7)
C2 C 0.34028(10) 0.69726(18) 0.07344(7)
C3 C 0.48819(10) 0.75643(18) 0.06390(7)
C4 C 0.58367(10) 0.7820(2) 0.09112(7)
H1 H 0.61180 0.77510 0.13630
C5 C 0.63609(10) 0.8166(2) 0.05287(7)
H2 H 0.70020 0.83320 0.07130
C6 C 0.59398(10) 0.82711(18) -0.01343(7)
C7 C 0.50192(10) 0.79966(18) -0.04167(7)
H3 H 0.47510 0.80580 -0.08700
C8 C 0.44808(10) 0.76269(18) -0.00334(7)
C9 C 0.34913(10) 0.73462(19) -0.03508(7)
C10 C 0.1992(3) 0.6534(7) -0.0221(2)
C11 C 0.1340(3) 0.7714(6) -0.0513(3)
H4 H 0.15160 0.88300 -0.05180
C12 C 0.0429(3) 0.7262(6) -0.0798(3)
C13 C 0.0171(3) 0.5629(6) -0.0791(3)
H5 H -0.04510 0.53200 -0.09850
C14 C 0.0823(4) 0.4448(5) -0.0499(3)
C15 C 0.1734(4) 0.4901(7) -0.0214(3)
H6 H 0.21800 0.40940 -0.00140
C16 C -0.0290(3) 0.8550(6) -0.1125(4)
H7 H -0.01050 0.91210 -0.14550
H8 H -0.03460 0.93440 -0.08050
H9 H -0.08820 0.80110 -0.13250
C17 C 0.0545(5) 0.2653(6) -0.0523(4)
H10 H -0.00760 0.25720 -0.04960
H11 H 0.09730 0.20640 -0.01610
H12 H 0.05570 0.21650 -0.09270
C18 C 0.28537(10) 0.6686(2) 0.11738(7)
C19 C 0.23048(11) 0.7939(2) 0.12760(8)
H13 H 0.22880 0.89710 0.10710
C20 C 0.17828(12) 0.7691(2) 0.16747(8)
H14 H 0.14200 0.85660 0.17460
C21 C 0.17774(12) 0.6195(2) 0.19719(8)
C22 C 0.23177(14) 0.4947(2) 0.18604(9)
H15 H 0.23220 0.39080 0.20580
C23 C 0.28526(13) 0.5178(2) 0.14677(8)
H16 H 0.32190 0.43040 0.14000
C24 C 0.11849(16) 0.5930(3) 0.23941(11)
H17 H 0.07030 0.51330 0.21900
H18 H 0.09050 0.69740 0.24520
H19 H 0.15630 0.55110 0.28130
C25 C 0.4727(9) 0.7516(10) 0.1737(3)
H20 H 0.42150 0.76350 0.19130
H21 H 0.50820 0.85520 0.18250
C26 C 0.53440(15) 0.6121(3) 0.20891(13)
C27 C 0.5242(2) 0.4521(4) 0.18572(14)
H22 H 0.47930 0.42760 0.14570
C28 C 0.5798(2) 0.3280(3) 0.22113(16)
H23 H 0.57280 0.21860 0.20530
C29 C 0.64551(18) 0.3639(3) 0.27973(14)
C30 C 0.6557(3) 0.5239(3) 0.30293(13)
H24 H 0.70060 0.54850 0.34300
C31 C 0.6001(3) 0.6480(3) 0.26752(14)
H25 H 0.60710 0.75740 0.28340
O4 O 0.7055(3) 0.2515(4) 0.31788(19)
C32 C 0.6889(18) 0.0815(10) 0.3013(7)
H26 H 0.62520 0.05470 0.29660
H27 H 0.73000 0.01350 0.33520
H28 H 0.70020 0.06030 0.26060
C33? C 0.1998(6) 0.6517(16) -0.0191(5)
C34? C 0.1314(7) 0.7703(12) -0.0326(4)
H29? H 0.14690 0.88230 -0.02280
C35? C 0.0402(7) 0.7250(12) -0.0603(5)
C36? C 0.0174(7) 0.5611(13) -0.0745(6)
H30? H -0.04490 0.53010 -0.09350
C37? C 0.0859(9) 0.4425(11) -0.0610(7)
C38? C 0.1770(8) 0.4878(14) -0.0333(7)
H31? H 0.22380 0.40680 -0.02410
C39? C -0.0365(8) 0.8535(15) -0.0798(8)
H32? H -0.09590 0.79880 -0.08900
H33? H -0.03430 0.91180 -0.11820
H34? H -0.02830 0.93190 -0.04460
C40? C 0.0601(12) 0.2638(14) -0.0768(9)
H35? H 0.01010 0.23390 -0.06050
H36? H 0.11340 0.19400 -0.05660
H37? H 0.04020 0.24820 -0.12340
C41? C 0.474(2) 0.757(3) 0.1663(9)
H38? H 0.42530 0.78410 0.18470
H39? H 0.51360 0.85480 0.17100
C42? C 0.5319(4) 0.6193(10) 0.2066(3)
C43? C 0.5470(6) 0.4731(12) 0.1790(3)
H40? H 0.52160 0.45750 0.13390
C44? C 0.5993(7) 0.3498(10) 0.2173(4)
H41? H 0.60960 0.24980 0.19850
C45? C 0.6364(6) 0.3726(9) 0.2833(4)
C46? C 0.6213(6) 0.5189(10) 0.3109(3)
H42? H 0.64670 0.53450 0.35600
C47? C 0.5691(6) 0.6422(9) 0.2725(4)
H43? H 0.55880 0.74210 0.29140
O5? O 0.6802(7) 0.2534(14) 0.3262(6)
C48? C 0.692(5) 0.095(3) 0.3012(19)
H44? H 0.73230 0.02790 0.33550
H45? H 0.71850 0.10860 0.26670
H46? H 0.63190 0.04130 0.28410
#END
