
#######################################################################
#
#                 Cambridge Crystallographic Data Centre
#                                CCDC
#
#######################################################################
#
# If this CIF has been generated from an entry in the Cambridge
# Structural Database, then it will include bibliographic, chemical,
# crystal, experimental, refinement or atomic coordinate data resulting
# from the CCDC's data processing and validation procedures.
#
#######################################################################

data_CSD_CIF_ABUVOJ
_audit_creation_date 2005-02-04
_audit_creation_method CSD-ConQuest-V1
_database_code_CSD ABUVOJ
_database_code_depnum_ccdc_archive 'CCDC 231301'
_chemical_formula_sum 'C17 H19 N3 O3'
_chemical_formula_moiety
;
C17 H19 N3 O3
;
_journal_coden_Cambridge 155
_journal_volume 357
_journal_year 2004
_journal_page_first 3825
_journal_name_full 'Inorg.Chim.Acta '
loop_
_publ_author_name
"P.G.Lacroix"
"F.Averseng"
"I.Malfant"
"K.Nakatani"
_chemical_name_systematic
;
5-(Diethylamino)-2-((4-nitrophenyl)iminomethyl)phenol
;
_cell_volume   1559.993
_exptl_crystal_colour 'orange'
_exptl_crystal_density_diffrn 1.33
_exptl_crystal_description 'elongated plate'
_exptl_crystal_preparation 'ethanol'
_diffrn_ambient_temperature ?
_diffrn_special_details
;
The study was carried out at room temperature,in the range 283-303K

;
#These two values have been output from a single CSD field.
_refine_ls_R_factor_gt 0.0324
_refine_ls_wR_factor_gt 0.0324
_symmetry_cell_setting monoclinic
_symmetry_space_group_name_H-M 'P 21/c'
_symmetry_Int_Tables_number 14
loop_
_symmetry_equiv_pos_site_id
_symmetry_equiv_pos_as_xyz
1 x,y,z
2 x,1/2-y,1/2+z
3 -x,-y,-z
4 -x,-1/2+y,-1/2-z
_cell_length_a 16.272(2)
_cell_length_b 7.900(1)
_cell_length_c 13.288(1)
_cell_angle_alpha 90
_cell_angle_beta 114.04(1)
_cell_angle_gamma 90
_cell_formula_units_Z 4
loop_
_atom_type_symbol
_atom_type_radius_bond
C 0.68
H 0.23
N 0.68
O 0.68
loop_
_atom_site_label
_atom_site_type_symbol
_atom_site_fract_x
_atom_site_fract_y
_atom_site_fract_z
O1 O 0.3500(1) 0.34331(19) 0.53179(14)
O2 O 0.87215(11) 0.0059(2) 0.56487(15)
O3 O 0.83449(13) 0.2312(3) 0.46470(18)
N1 N 0.50305(12) 0.1898(2) 0.58987(16)
N2 N 0.81960(13) 0.1220(3) 0.52031(17)
N3 N 0.15525(12) 0.1794(2) 0.70071(16)
C1 C 0.58257(13) 0.1609(3) 0.57469(18)
C2 C 0.64404(15) 0.0312(3) 0.6235(2)
C3 C 0.72049(14) 0.0165(3) 0.6046(2)
C4 C 0.73610(15) 0.1325(3) 0.53622(19)
C5 C 0.67594(16) 0.2591(3) 0.4845(2)
C6 C 0.59895(15) 0.2721(3) 0.5037(2)
C7 C 0.48615(14) 0.1113(3) 0.66518(19)
C8 C 0.40423(13) 0.1375(3) 0.67777(18)
C9 C 0.33690(14) 0.2497(2) 0.60926(18)
C10 C 0.25574(14) 0.2663(3) 0.61829(19)
C11 C 0.23683(13) 0.1690(3) 0.69498(18)
C12 C 0.30526(14) 0.0601(3) 0.76593(19)
C13 C 0.38504(14) 0.0464(3) 0.75606(18)
C14 C 0.13552(15) 0.0832(3) 0.7825(2)
C15 C 0.10425(17) -0.0954(3) 0.7448(2)
C16 C 0.07923(15) 0.2687(3) 0.6184(2)
C17 C 0.07332(17) 0.4512(3) 0.6483(2)
H1 H 0.4088(18) 0.310(3) 0.534(2)
H2 H 0.63140 -0.05150 0.67440
H3 H 0.76650 -0.07660 0.64150
H4 H 0.68860 0.34100 0.43420
H5 H 0.55330 0.36450 0.46520
H6 H 0.53310 0.02880 0.71530
H7 H 0.20860 0.34970 0.56740
H8 H 0.29480 -0.00790 0.82450
H9 H 0.43290 -0.03160 0.80830
H10 H 0.19220 0.07730 0.85420
H11 H 0.08830 0.14440 0.80040
H12 H 0.09080 -0.16000 0.80140
H13 H 0.15080 -0.15810 0.72830
H14 H 0.04690 -0.09100 0.67460
H15 H 0.02120 0.20820 0.60970
H16 H 0.08370 0.26250 0.54500
H17 H 0.02010 0.51070 0.58990
H18 H 0.06700 0.46050 0.72030
H19 H 0.12950 0.51480 0.65570
#END
