
#######################################################################
#
#                 Cambridge Crystallographic Data Centre
#                                CCDC
#
#######################################################################
#
# If this CIF has been generated from an entry in the Cambridge
# Structural Database, then it will include bibliographic, chemical,
# crystal, experimental, refinement or atomic coordinate data resulting
# from the CCDC's data processing and validation procedures.
#
#######################################################################

data_CSD_CIF_ACAGES
_audit_creation_date 2013-02-22
_audit_creation_method CSD-ConQuest-V1
_database_code_CSD ACAGES
_database_code_depnum_ccdc_archive 'CCDC 880875'
_chemical_formula_sum 'C24 H24 N2 O6'
_chemical_formula_moiety
;
C24 H24 N2 O6
;
_journal_coden_Cambridge 177
_journal_volume 10
_journal_year 2012
_journal_page_first 8236
_journal_name_full 'Org.Biomol.Chem. '
loop_
_publ_author_name
"Hai-Bin Yang"
"Min Shi"
_chemical_name_systematic
;
Dimethyl 
1-methyl-2-oxo-2'-phenyl-6'-vinyl-1,2-dihydro-4'H-spiro[indole-3,3'-[1,2]oxazi
nane]-4',4'-dicarboxylate
;
_cell_volume   1131.550
_exptl_crystal_colour 'colorless'
_exptl_crystal_density_diffrn 1.281
_exptl_crystal_description 'prismatic'
_diffrn_ambient_temperature 293
#These two values have been output from a single CSD field.
_refine_ls_R_factor_gt 0.05
_refine_ls_wR_factor_gt 0.05
_symmetry_cell_setting triclinic
_symmetry_space_group_name_H-M 'P -1'
_symmetry_Int_Tables_number 2
loop_
_symmetry_equiv_pos_site_id
_symmetry_equiv_pos_as_xyz
1 x,y,z
2 -x,-y,-z
_cell_length_a 8.7826(18)
_cell_length_b 9.574(2)
_cell_length_c 13.717(3)
_cell_angle_alpha 89.306(4)
_cell_angle_beta 81.155(4)
_cell_angle_gamma 83.165(4)
_cell_formula_units_Z 2
loop_
_atom_type_symbol
_atom_type_radius_bond
C 0.68
H 0.23
N 0.68
O 0.68
loop_
_atom_site_label
_atom_site_type_symbol
_atom_site_fract_x
_atom_site_fract_y
_atom_site_fract_z
O1 O 0.74983(17) 0.90047(16) 0.44525(10)
O2 O 1.04378(14) 0.81811(13) 0.15442(9)
O3 O 0.57063(18) 0.6009(2) 0.20510(13)
O4 O 0.51057(15) 0.78325(16) 0.31104(11)
O5 O 0.95292(16) 0.61323(16) 0.38211(10)
O6 O 0.69957(16) 0.58234(15) 0.41556(10)
N1 N 0.64491(19) 1.06272(17) 0.34005(12)
N2 N 0.97692(16) 0.87239(15) 0.25315(10)
C1 C 0.7302(2) 0.9415(2) 0.36263(14)
C2 C 0.6394(2) 1.0730(2) 0.23746(15)
C3 C 0.5627(3) 1.1810(3) 0.1882(2)
H1 H 0.50520 1.25820 0.22210
C4 C 0.5756(3) 1.1689(3) 0.0859(2)
H2 H 0.52510 1.23940 0.05110
C5 C 0.6616(3) 1.0547(3) 0.03491(18)
H3 H 0.66890 1.04970 -0.03330
C6 C 0.7376(2) 0.9467(2) 0.08546(14)
H4 H 0.79510 0.86990 0.05110
C7 C 0.7264(2) 0.95503(19) 0.18791(13)
C8 C 0.8038(2) 0.86479(18) 0.26313(12)
C9 C 0.7800(2) 0.70351(19) 0.26543(13)
C10 C 0.8871(2) 0.62442(19) 0.17676(13)
H5 H 0.89190 0.52400 0.18840
H6 H 0.84120 0.64400 0.11730
C11 C 1.0530(2) 0.66573(18) 0.15978(13)
H7 H 1.10780 0.63140 0.21410
C12 C 0.6095(2) 0.6870(2) 0.25646(14)
C13 C 0.3476(2) 0.7888(3) 0.3000(2)
H8 H 0.33670 0.80460 0.23200
H9 H 0.28830 0.86420 0.33970
H10 H 0.31030 0.70140 0.32090
C14 C 0.8231(2) 0.63165(19) 0.36143(14)
C15 C 0.7307(3) 0.5077(3) 0.50487(17)
H11 H 0.81060 0.43060 0.48800
H12 H 0.63780 0.47240 0.53660
H13 H 0.76410 0.57090 0.54880
C16 C 1.1432(2) 0.6111(2) 0.06270(15)
H14 H 1.10140 0.63560 0.00570
C17 C 1.2774(3) 0.5309(2) 0.05323(18)
H15 H 1.32230 0.50450 0.10880
H16 H 1.32710 0.50070 -0.00900
C18 C 0.5678(3) 1.1684(3) 0.41317(19)
H17 H 0.59250 1.14140 0.47710
H18 H 0.45750 1.17510 0.41460
H19 H 0.60280 1.25790 0.39580
C19 C 1.0179(2) 1.01487(18) 0.25799(13)
C20 C 1.0452(2) 1.0991(2) 0.17474(14)
H20 H 1.03400 1.06630 0.11300
C21 C 1.0891(3) 1.2324(2) 0.18489(17)
H21 H 1.10930 1.28790 0.12940
C22 C 1.1032(3) 1.2834(2) 0.27710(18)
H22 H 1.13130 1.37310 0.28350
C23 C 1.0750(3) 1.1994(2) 0.35986(17)
H23 H 1.08310 1.23360 0.42180
C24 C 1.0348(2) 1.0648(2) 0.35057(15)
H24 H 1.01910 1.00800 0.40580
#END
