
#######################################################################
#
#                 Cambridge Crystallographic Data Centre
#                                CCDC
#
#######################################################################
#
# If this CIF has been generated from an entry in the Cambridge
# Structural Database, then it will include bibliographic, chemical,
# crystal, experimental, refinement or atomic coordinate data resulting
# from the CCDC's data processing and validation procedures.
#
#######################################################################

data_CSD_CIF_ACALAR
_audit_creation_date 2001-10-17
_audit_creation_method CSD-ConQuest-V1
_database_code_CSD ACALAR
_database_code_depnum_ccdc_archive 'CCDC 158577'
_chemical_formula_sum 'C13 H10 N2 O3'
_chemical_formula_moiety
;
C13 H10 N2 O3
;
_journal_coden_Cambridge 182
_journal_year 2001
_journal_page_first 1500
_journal_name_full 'Chem.Commun. '
loop_
_publ_author_name
"H.Adams"
"P.L.Bernad Junior"
"D.S.Eggleston"
"R.C.Haltiwanger"
"K.D.M.Harris"
"G.A.Hembury"
"C.A.Hunter"
"D.J.Livingstone"
"B.M.Kariuki"
"J.F.McCabe"
_chemical_name_systematic
;
N-phenyl 4-nitrobenzamide
;
_cell_volume    559.008
_exptl_crystal_colour 'colorless'
_exptl_crystal_density_diffrn 1.439
_exptl_crystal_description 'blocks'
_diffrn_ambient_temperature 293
#These two values have been output from a single CSD field.
_refine_ls_R_factor_gt 0.0664
_refine_ls_wR_factor_gt 0.0664
_symmetry_cell_setting triclinic
_symmetry_space_group_name_H-M 'P -1'
_symmetry_Int_Tables_number 2
loop_
_symmetry_equiv_pos_site_id
_symmetry_equiv_pos_as_xyz
1 x,y,z
2 -x,-y,-z
_cell_length_a 5.218(2)
_cell_length_b 8.412(3)
_cell_length_c 13.249(6)
_cell_angle_alpha 102.61(4)
_cell_angle_beta 98.64(5)
_cell_angle_gamma 92.87(3)
_cell_formula_units_Z 2
loop_
_atom_type_symbol
_atom_type_radius_bond
C 0.68
H 0.23
N 0.68
O 0.68
loop_
_atom_site_label
_atom_site_type_symbol
_atom_site_fract_x
_atom_site_fract_y
_atom_site_fract_z
O1 O 0.3829(4) 0.2201(3) 0.49448(17)
O2 O 0.4490(6) -0.2762(4) 0.0116(2)
O3 O 0.7624(6) -0.1149(4) -0.0032(2)
N1 N 0.8206(5) 0.2786(3) 0.52374(19)
H1 H 0.95860 0.26610 0.49560
N2 N 0.6058(6) -0.1583(4) 0.0462(2)
C1 C 0.8532(6) 0.3699(4) 0.6295(2)
C2 C 1.0703(6) 0.3503(4) 0.6981(2)
H2 H 1.18960 0.27820 0.67490
C3 C 1.1099(6) 0.4371(4) 0.8005(3)
H3 H 1.25720 0.42420 0.84610
C4 C 0.9314(6) 0.5444(4) 0.8369(3)
H4 H 0.95570 0.60100 0.90670
C5 C 0.7189(7) 0.5649(4) 0.7674(3)
H5 H 0.60090 0.63810 0.79060
C6 C 0.6765(6) 0.4795(4) 0.6641(2)
H6 H 0.53170 0.49490 0.61810
C7 C 0.5929(6) 0.2095(4) 0.4633(2)
C8 C 0.6064(5) 0.1148(3) 0.3542(2)
C9 C 0.7935(6) 0.1536(4) 0.2963(2)
H7 H 0.91930 0.24000 0.32620
C10 C 0.7946(6) 0.0662(4) 0.1960(2)
H8 H 0.91890 0.09250 0.15740
C11 C 0.6058(6) -0.0620(4) 0.1538(2)
C12 C 0.4175(6) -0.1047(4) 0.2085(3)
H9 H 0.29360 -0.19230 0.17870
C13 C 0.4190(6) -0.0135(4) 0.3085(2)
H10 H 0.29170 -0.03860 0.34600
#END
