
#######################################################################
#
#                 Cambridge Crystallographic Data Centre
#                                CCDC
#
#######################################################################
#
# If this CIF has been generated from an entry in the Cambridge
# Structural Database, then it will include bibliographic, chemical,
# crystal, experimental, refinement or atomic coordinate data resulting
# from the CCDC's data processing and validation procedures.
#
#######################################################################

data_CSD_CIF_ACALEV
_audit_creation_date 2001-10-17
_audit_creation_method CSD-ConQuest-V1
_database_code_CSD ACALEV
_database_code_depnum_ccdc_archive 'CCDC 158578'
_chemical_formula_sum 'C15 H14 N2 O3'
_chemical_formula_moiety
;
C15 H14 N2 O3
;
_journal_coden_Cambridge 182
_journal_year 2001
_journal_page_first 1500
_journal_name_full 'Chem.Commun. '
loop_
_publ_author_name
"H.Adams"
"P.L.Bernad Junior"
"D.S.Eggleston"
"R.C.Haltiwanger"
"K.D.M.Harris"
"G.A.Hembury"
"C.A.Hunter"
"D.J.Livingstone"
"B.M.Kariuki"
"J.F.McCabe"
_chemical_name_systematic
;
N-2,6-dimethylphenyl 4-nitrobenzamide
;
_cell_volume   1369.285
_exptl_crystal_colour 'colorless'
_exptl_crystal_density_diffrn 1.311
_exptl_crystal_description 'oblongs'
_diffrn_ambient_temperature 293
#These two values have been output from a single CSD field.
_refine_ls_R_factor_gt 0.0555
_refine_ls_wR_factor_gt 0.0555
_symmetry_cell_setting orthorhombic
_symmetry_space_group_name_H-M 'P 21 21 21'
_symmetry_Int_Tables_number 19
loop_
_symmetry_equiv_pos_site_id
_symmetry_equiv_pos_as_xyz
1 x,y,z
2 1/2-x,-y,1/2+z
3 -x,1/2+y,1/2-z
4 1/2+x,1/2-y,-z
_cell_length_a 5.639(2)
_cell_length_b 9.699(5)
_cell_length_c 25.036(8)
_cell_angle_alpha 90
_cell_angle_beta 90
_cell_angle_gamma 90
_cell_formula_units_Z 4
loop_
_atom_type_symbol
_atom_type_radius_bond
C 0.68
H 0.23
N 0.68
O 0.68
loop_
_atom_site_label
_atom_site_type_symbol
_atom_site_fract_x
_atom_site_fract_y
_atom_site_fract_z
N1 N 0.0523(10) 0.3896(5) 0.9791(2)
N2 N -0.0245(5) 0.3381(3) 0.72196(11)
H1 H -0.0595(5) 0.4230(3) 0.73412(11)
C1 C 0.0468(8) 0.3533(5) 0.9217(2)
C2 C -0.1143(10) 0.4136(4) 0.8894(2)
H2 H -0.2318(10) 0.4725(4) 0.9052(2)
C3 C -0.1237(8) 0.3796(4) 0.8355(2)
H3 H -0.2350(8) 0.4226(4) 0.8118(2)
C4 C 0.0384(7) 0.2862(4) 0.81527(14)
C5 C 0.2005(8) 0.2265(4) 0.8495(2)
H4 H 0.3125(8) 0.1613(4) 0.8355(2)
C6 C 0.2072(9) 0.2608(5) 0.9026(2)
H5 H 0.3064(9) 0.2134(5) 0.9278(2)
C7 C 0.0352(6) 0.2423(4) 0.75803(14)
C8 C -0.0459(6) 0.3120(4) 0.66572(14)
C9 C -0.2229(7) 0.2245(4) 0.6475(2)
C10 C -0.2451(9) 0.2081(5) 0.5918(2)
H6 H -0.3693(9) 0.1500(5) 0.5784(2)
C11 C -0.0975(10) 0.2758(5) 0.5575(2)
H7 H -0.1104(10) 0.2604(5) 0.5197(2)
C12 C 0.0740(9) 0.3592(5) 0.5768(2)
H8 H 0.1777(9) 0.4054(5) 0.5522(2)
C13 C 0.1071(7) 0.3797(4) 0.6311(2)
C14 C -0.3917(8) 0.1527(5) 0.6838(2)
H9 H -0.4995(8) 0.0973(5) 0.6633(2)
H10 H -0.3043(8) 0.0947(5) 0.7078(2)
H11 H -0.4795(8) 0.2198(5) 0.7039(2)
C15 C 0.2998(8) 0.4739(4) 0.6505(2)
H12 H 0.2990(8) 0.4772(4) 0.6888(2)
H13 H 0.4491(8) 0.4383(4) 0.6383(2)
H14 H 0.2769(8) 0.5652(4) 0.6365(2)
O1 O 0.2044(9) 0.3399(5) 1.0073(2)
O2 O -0.096(1) 0.4675(4) 0.99561(13)
O3 O 0.0858(4) 0.1233(3) 0.74592(9)
#END
