
#######################################################################
#
#                 Cambridge Crystallographic Data Centre
#                                CCDC
#
#######################################################################
#
# If this CIF has been generated from an entry in the Cambridge
# Structural Database, then it will include bibliographic, chemical,
# crystal, experimental, refinement or atomic coordinate data resulting
# from the CCDC's data processing and validation procedures.
#
#######################################################################

data_CSD_CIF_ACAMOX
_audit_creation_date 1974-05-08
_audit_creation_method CSD-ConQuest-V1
_database_code_CSD ACAMOX
_chemical_formula_sum 'C4 H10 N2 O1'
_chemical_formula_moiety
;
C4 H10 N2 O1
;
_journal_coden_Cambridge 188
_journal_year 1973
_journal_page_first 2106
_journal_name_full 'J.Chem.Soc.,Perkin Trans.2 '
loop_
_publ_author_name
"D.Bright"
"H.A.Plessius"
"J.de Boer"
_chemical_name_systematic
;
N,N-Dimethylacetamidoxime
;
_cell_volume    299.211
_exptl_crystal_density_diffrn 1.35
_diffrn_ambient_temperature ?
_diffrn_special_details
;
The study was carried out at room temperature,in the range 283-303K

;
#These two values have been output from a single CSD field.
_refine_ls_R_factor_gt 0.045
_refine_ls_wR_factor_gt 0.045
_symmetry_cell_setting triclinic
_symmetry_space_group_name_H-M 'P -1'
_symmetry_Int_Tables_number 2
loop_
_symmetry_equiv_pos_site_id
_symmetry_equiv_pos_as_xyz
1 x,y,z
2 -x,-y,-z
_cell_length_a 6.069(5)
_cell_length_b 7.582(5)
_cell_length_c 7.364(5)
_cell_angle_alpha 84.97(5)
_cell_angle_beta 79.66(5)
_cell_angle_gamma 114.16(5)
_cell_formula_units_Z 2
loop_
_atom_type_symbol
_atom_type_radius_bond
C 0.68
H 0.20
N 0.68
O 0.68
loop_
_atom_site_label
_atom_site_type_symbol
_atom_site_fract_x
_atom_site_fract_y
_atom_site_fract_z
C1 C 0.21800 0.25770 0.10540
C2 C 0.32530 0.16210 -0.03000
C3 C 0.39920 0.15780 0.34360
C4 C 0.14350 0.33540 0.41450
H1 H 0.01900 0.45500 -0.14400
H2 H 0.29300 0.18400 -0.14600
H3 H 0.26100 0.01600 0.01900
H4 H 0.50500 0.20800 -0.04900
H5 H 0.56300 0.26100 0.32500
H6 H 0.34600 0.11400 0.46200
H7 H 0.38300 0.04700 0.29100
H8 H 0.00000 0.33200 0.41000
H9 H 0.12700 0.28800 0.53900
H10 H 0.23600 0.47000 0.38700
N1 N 0.22880 0.22820 0.28880
N2 N 0.10890 0.36370 0.06280
O1 O 0.08840 0.36910 -0.12780
#END
