
#######################################################################
#
#                 Cambridge Crystallographic Data Centre
#                                CCDC
#
#######################################################################
#
# If this CIF has been generated from an entry in the Cambridge
# Structural Database, then it will include bibliographic, chemical,
# crystal, experimental, refinement or atomic coordinate data resulting
# from the CCDC's data processing and validation procedures.
#
#######################################################################

data_CSD_CIF_ACAMOG
_audit_creation_date 2001-10-17
_audit_creation_method CSD-ConQuest-V1
_database_code_CSD ACAMOG
_database_code_depnum_ccdc_archive 'CCDC 158585'
_chemical_formula_sum 'C23 H30 N2 O3'
_chemical_formula_moiety
;
C23 H30 N2 O3
;
_journal_coden_Cambridge 182
_journal_year 2001
_journal_page_first 1500
_journal_name_full 'Chem.Commun. '
loop_
_publ_author_name
"H.Adams"
"P.L.Bernad Junior"
"D.S.Eggleston"
"R.C.Haltiwanger"
"K.D.M.Harris"
"G.A.Hembury"
"C.A.Hunter"
"D.J.Livingstone"
"B.M.Kariuki"
"J.F.McCabe"
_chemical_name_systematic
;
N-2,6-diisopropyl-4-nitrophenyl 4-t-butylbenzamide
;
_cell_volume   4622.353
_exptl_crystal_density_diffrn 1.099
_diffrn_ambient_temperature 296
_refine_special_details
;
The t-butylphenyl group was refined equally over two positions. The carboxyl 
O atoms are disordered.
;
#These two values have been output from a single CSD field.
_refine_ls_R_factor_gt 0.2215
_refine_ls_wR_factor_gt 0.2215
_symmetry_cell_setting monoclinic
_symmetry_space_group_name_H-M 'I 2/a'
_symmetry_Int_Tables_number 15
loop_
_symmetry_equiv_pos_site_id
_symmetry_equiv_pos_as_xyz
1 x,y,z
2 1/2+x,1/2+y,1/2+z
3 1/2+x,-y,z
4 x,1/2-y,1/2+z
5 -x,-y,-z
6 -1/2-x,-1/2-y,-1/2-z
7 -1/2-x,y,-z
8 -x,-1/2+y,-1/2-z
_cell_length_a 19.540(42)
_cell_length_b 10.668(32)
_cell_length_c 24.230(72)
_cell_angle_alpha 90
_cell_angle_beta 113.77(19)
_cell_angle_gamma 90
_cell_formula_units_Z 8
loop_
_atom_type_symbol
_atom_type_radius_bond
C 0.68
H 0.23
N 0.68
O 0.68
loop_
_atom_site_label
_atom_site_type_symbol
_atom_site_fract_x
_atom_site_fract_y
_atom_site_fract_z
O1 O 1.0201(25) 0.1593(33) 0.7720(12)
O2 O 1.0047(14) -0.0211(32) 0.7784(11)
O3 O 0.7607(14) 0.0708(30) 0.4766(12)
N1 N 1.0026(23) 0.0669(51) 0.7473(15)
N2 N 0.8747(4) 0.0351(8) 0.5036(4)
H1 H 0.9083(4) 0.0214(8) 0.4898(4)
C1 C 0.9667(4) 0.0579(8) 0.6849(4)
C2 C 0.9591(4) 0.1655(8) 0.6506(4)
H2 H 0.9744(4) 0.2426(8) 0.6695(4)
C3 C 0.9287(4) 0.1578(8) 0.5880(4)
C4 C 0.9058(4) 0.0426(8) 0.5598(4)
C5 C 0.9134(4) -0.0650(8) 0.5941(4)
C6 C 0.9439(4) -0.0573(8) 0.6567(4)
H3 H 0.9490(4) -0.1293(8) 0.6797(4)
C7 C 0.9192(15) 0.278(2) 0.5505(10)
H4 H 0.9043(15) 0.2523(20) 0.5085(10)
C8 C 0.9940(15) 0.3434(26) 0.5698(15)
H5 H 0.9954(39) 0.390(13) 0.5365(28)
H6 H 1.0333(16) 0.2821(28) 0.5824(76)
H7 H 1.0008(46) 0.399(13) 0.6027(55)
C9 C 0.8595(15) 0.3635(28) 0.5525(17)
H8 H 0.8223(65) 0.3151(37) 0.56(1)
H9 H 0.8366(82) 0.407(15) 0.5148(37)
H10 H 0.8812(25) 0.423(13) 0.5845(62)
C10 C 0.8880(15) -0.1905(19) 0.5627(9)
H11 H 0.8607(15) -0.1755(19) 0.5193(9)
C11 C 0.8362(16) -0.2562(27) 0.5862(14)
H12 H 0.8076(78) -0.1948(28) 0.5968(81)
H13 H 0.8654(18) -0.305(15) 0.6212(53)
H14 H 0.8030(73) -0.311(14) 0.5556(34)
C12 C 0.9551(20) -0.2740(31) 0.5720(17)
H15 H 0.9974(40) -0.2227(31) 0.577(11)
H16 H 0.9435(51) -0.328(16) 0.5378(52)
H17 H 0.9666(87) -0.324(17) 0.6076(64)
C13 C 0.8094(7) 0.0406(15) 0.4583(6)
C14 C 0.7951(7) 0.0481(15) 0.3862(6)
C15 C 0.7208(7) 0.0759(15) 0.3505(6)
H18 H 0.6879(7) 0.0945(15) 0.3684(6)
C16 C 0.6956(7) 0.0760(15) 0.2881(6)
H19 H 0.6459(7) 0.0946(15) 0.2642(6)
C17 C 0.7447(7) 0.0482(15) 0.2613(6)
C18 C 0.8190(7) 0.0204(15) 0.2970(6)
H20 H 0.8519(7) 0.0018(15) 0.2791(6)
C19 C 0.8442(7) 0.0203(15) 0.3595(6)
H21 H 0.8939(7) 0.0017(15) 0.3834(6)
C20 C 0.7197(21) 0.0433(34) 0.1941(11)
C21 C 0.6469(23) 0.0681(57) 0.1584(20)
H22 H 0.6162(31) 0.047(32) 0.1795(66)
H23 H 0.6318(64) 0.020(26) 0.1221(76)
H24 H 0.6413(42) 0.1557(87) 0.149(14)
C22 C 0.7779(29) 0.1047(51) 0.1753(19)
H25 H 0.8179(89) 0.047(11) 0.182(13)
H26 H 0.797(13) 0.179(17) 0.199(10)
H27 H 0.7548(49) 0.128(27) 0.1335(42)
C23 C 0.7342(35) -0.1101(40) 0.1813(21)
H28 H 0.709(20) -0.1634(40) 0.199(16)
H29 H 0.7868(36) -0.128(11) 0.199(17)
H30 H 0.715(22) -0.125(11) 0.1387(21)
O4? O 0.9684(15) 0.0126(34) 0.4774(12)
H31? H 0.8269(10) 0.0261(16) 0.4890(7)
C24? C 0.9036(10) 0.0388(16) 0.4642(7)
C25? C 0.8563(10) 0.0021(16) 0.3866(7)
C26? C 0.780(1) 0.0263(16) 0.3617(7)
H32? H 0.756(1) 0.0490(16) 0.3864(7)
C27? C 0.7395(10) 0.0164(16) 0.2997(7)
H33? H 0.6883(10) 0.0325(16) 0.2830(7)
C28? C 0.7753(10) -0.0176(16) 0.2627(7)
C29? C 0.8517(10) -0.0417(16) 0.2877(7)
H34? H 0.8757(10) -0.0645(16) 0.2630(7)
C30? C 0.8922(10) -0.0319(16) 0.3496(7)
H35? H 0.9433(10) -0.0480(16) 0.3663(7)
C31? C 0.7304(22) -0.0215(39) 0.1955(12)
C32? C 0.6712(25) 0.1019(43) 0.1782(18)
H36? H 0.649(12) 0.113(17) 0.1352(20)
H37? H 0.6984(33) 0.1764(57) 0.197(10)
H38? H 0.6330(85) 0.087(11) 0.193(11)
C33? C 0.7784(26) 0.0136(52) 0.1635(18)
H39? H 0.8209(99) -0.041(21) 0.176(12)
H40? H 0.795(16) 0.099(12) 0.173(13)
H41? H 0.7503(58) 0.006(31) 0.1208(18)
C34? C 0.6843(28) -0.1267(41) 0.1753(20)
H42? H 0.6343(45) -0.1004(43) 0.151(12)
H43? H 0.684(15) -0.173(17) 0.2093(21)
H44? H 0.703(11) -0.179(16) 0.152(13)
O3F O 0.7393(14) 0.0708(30) 0.5234(12)
C13F C 0.6906(7) 0.0406(15) 0.5417(6)
N2F N 0.6253(4) 0.0351(8) 0.4964(4)
H1F H 0.5917(4) 0.0214(8) 0.5102(4)
C4F C 0.5942(4) 0.0426(8) 0.4402(4)
C3F C 0.5713(4) 0.1578(8) 0.4120(4)
C2F C 0.5409(4) 0.1655(8) 0.3494(4)
C1F C 0.5333(4) 0.0579(8) 0.3151(4)
N1F N 0.4974(23) 0.0669(51) 0.2527(15)
O1F O 0.4799(25) 0.1593(33) 0.2280(12)
O2F O 0.4953(14) -0.0211(32) 0.2216(11)
C6F C 0.5561(4) -0.0573(8) 0.3433(4)
C5F C 0.5866(4) -0.0650(8) 0.4059(4)
C10F C 0.6120(15) -0.1905(19) 0.4373(9)
H11F H 0.6393(15) -0.1755(19) 0.4807(9)
C11F C 0.6638(16) -0.2562(27) 0.4138(14)
H12F H 0.6924(78) -0.1948(28) 0.4032(81)
H13F H 0.6346(18) -0.305(15) 0.3788(53)
H14F H 0.6970(73) -0.311(14) 0.4444(34)
C12F C 0.5449(20) -0.2740(31) 0.4280(17)
H15F H 0.5026(40) -0.2227(31) 0.423(11)
H16F H 0.5565(51) -0.328(16) 0.4622(52)
H17F H 0.5334(87) -0.324(17) 0.3924(64)
H3F H 0.5510(4) -0.1293(8) 0.3203(4)
H2F H 0.5256(4) 0.2426(8) 0.3305(4)
C7F C 0.5808(15) 0.278(2) 0.4495(10)
H4F H 0.5957(15) 0.2523(20) 0.4915(10)
C8F C 0.5060(15) 0.3434(26) 0.4302(15)
H5F H 0.5046(39) 0.390(13) 0.4635(28)
H6F H 0.4667(16) 0.2821(28) 0.4176(76)
H7F H 0.4992(46) 0.399(13) 0.3973(55)
C9F C 0.6405(15) 0.3635(28) 0.4475(17)
H8F H 0.6777(65) 0.3151(37) 0.44(1)
H9F H 0.6634(82) 0.407(15) 0.4852(37)
H10F H 0.6188(25) 0.423(13) 0.4155(62)
C14F C 0.7049(7) 0.0481(15) 0.6138(6)
C15F C 0.7792(7) 0.0759(15) 0.6495(6)
H18F H 0.8121(7) 0.0945(15) 0.6316(6)
C16F C 0.8044(7) 0.0760(15) 0.7119(6)
H19F H 0.8541(7) 0.0946(15) 0.7358(6)
C17F C 0.7553(7) 0.0482(15) 0.7387(6)
C18F C 0.6810(7) 0.0204(15) 0.7030(6)
H20F H 0.6481(7) 0.0018(15) 0.7209(6)
C19F C 0.6558(7) 0.0203(15) 0.6405(6)
H21F H 0.6061(7) 0.0017(15) 0.6166(6)
C20F C 0.7803(21) 0.0433(34) 0.8059(11)
C21F C 0.8531(23) 0.0681(57) 0.8416(20)
H22F H 0.8838(31) 0.047(32) 0.8205(66)
H23F H 0.8682(64) 0.020(26) 0.8779(76)
H24F H 0.8587(42) 0.1557(87) 0.851(14)
C22F C 0.7221(29) 0.1047(51) 0.8247(19)
H25F H 0.6821(89) 0.047(11) 0.818(13)
H26F H 0.703(13) 0.179(17) 0.801(10)
H27F H 0.7452(49) 0.128(27) 0.8665(42)
C23F C 0.7658(35) -0.1101(40) 0.8187(21)
H28F H 0.791(20) -0.1634(40) 0.801(16)
H29F H 0.7132(36) -0.128(11) 0.801(17)
H30F H 0.785(22) -0.125(11) 0.8613(21)
#END
