
#######################################################################
#
#                 Cambridge Crystallographic Data Centre
#                                CCDC
#
#######################################################################
#
# If this CIF has been generated from an entry in the Cambridge
# Structural Database, then it will include bibliographic, chemical,
# crystal, experimental, refinement or atomic coordinate data resulting
# from the CCDC's data processing and validation procedures.
#
#######################################################################

data_CSD_CIF_ACANIB
_audit_creation_date 2001-10-17
_audit_creation_method CSD-ConQuest-V1
_database_code_CSD ACANIB
_database_code_depnum_ccdc_archive 'CCDC 158589'
_chemical_formula_sum 'C21 H27 N3 O3'
_chemical_formula_moiety
;
C21 H27 N3 O3
;
_journal_coden_Cambridge 182
_journal_year 2001
_journal_page_first 1500
_journal_name_full 'Chem.Commun. '
loop_
_publ_author_name
"H.Adams"
"P.L.Bernad Junior"
"D.S.Eggleston"
"R.C.Haltiwanger"
"K.D.M.Harris"
"G.A.Hembury"
"C.A.Hunter"
"D.J.Livingstone"
"B.M.Kariuki"
"J.F.McCabe"
_chemical_name_systematic
;
N-(2,6-diisopropyl-4-nitrophenyl) 4-dimethylaminobenzamide
;
_cell_volume   2018.856
_exptl_crystal_colour 'yellow'
_exptl_crystal_density_diffrn 1.216
_exptl_crystal_description 'needles'
_diffrn_ambient_temperature 293
_refine_special_details
;
One O atom of the nitro group was refined over two positions with s.o.f.s 
0.52:0.48.
;
#These two values have been output from a single CSD field.
_refine_ls_R_factor_gt 0.0663
_refine_ls_wR_factor_gt 0.0663
_symmetry_cell_setting monoclinic
_symmetry_space_group_name_H-M 'P 21/c'
_symmetry_Int_Tables_number 14
loop_
_symmetry_equiv_pos_site_id
_symmetry_equiv_pos_as_xyz
1 x,y,z
2 x,1/2-y,1/2+z
3 -x,-y,-z
4 -x,-1/2+y,-1/2-z
_cell_length_a 13.062(5)
_cell_length_b 10.059(4)
_cell_length_c 16.675(5)
_cell_angle_alpha 90
_cell_angle_beta 112.86(2)
_cell_angle_gamma 90
_cell_formula_units_Z 4
loop_
_atom_type_symbol
_atom_type_radius_bond
C 0.68
H 0.23
N 0.68
O 0.68
loop_
_atom_site_label
_atom_site_type_symbol
_atom_site_fract_x
_atom_site_fract_y
_atom_site_fract_z
O1 O 0.9535(2) 0.0989(2) 0.7496(2)
O2 O 1.4394(31) 0.0031(33) 1.0754(14)
O3? O 1.4565(21) -0.061(11) 1.0688(24)
O4 O 1.3554(3) -0.1135(4) 1.1354(2)
N1 N 0.9988(2) -0.1153(3) 0.7508(2)
H1 H 0.9851(2) -0.1944(3) 0.7234(2)
N2 N 1.3644(3) -0.0734(4) 1.0708(2)
N3 N 0.5523(3) -0.0675(4) 0.3976(2)
C1 C 1.0930(3) -0.1040(3) 0.8321(2)
C2 C 1.0818(3) -0.1536(3) 0.9073(2)
C3 C 1.1733(3) -0.1429(3) 0.9857(2)
H2 H 1.1706(3) -0.1777(3) 1.0384(2)
C4 C 1.2690(3) -0.0848(3) 0.9867(2)
C5 C 1.2807(3) -0.0380(3) 0.9129(2)
H3 H 1.3494(3) 0.0009(3) 0.9164(2)
C6 C 1.1911(3) -0.0481(3) 0.8334(2)
C7 C 0.9313(3) -0.0114(4) 0.7153(2)
C8 C 0.8311(3) -0.0339(3) 0.6343(2)
C9 C 0.8018(3) -0.1550(4) 0.5918(2)
H4 H 0.8469(3) -0.2319(4) 0.6155(2)
C10 C 0.7083(3) -0.1676(4) 0.5144(2)
H5 H 0.6881(3) -0.2529(4) 0.4869(2)
C11 C 0.6423(3) -0.0579(4) 0.4766(2)
C12 C 0.6704(3) 0.0625(4) 0.5206(2)
H6 H 0.6254(3) 0.1397(4) 0.4971(2)
C13 C 0.7614(3) 0.0721(4) 0.5980(2)
H7 H 0.7771(3) 0.1558(4) 0.6281(2)
C14 C 0.9738(3) -0.2178(4) 0.9020(2)
H8 H 0.9401(3) -0.2577(4) 0.8454(2)
C15 C 0.9915(4) -0.3262(5) 0.9700(3)
H9 H 0.9207(4) -0.3632(5) 0.9628(3)
H10 H 1.0383(4) -0.3950(5) 0.9629(3)
H11 H 1.0259(4) -0.2884(5) 1.0271(3)
C16 C 0.8918(3) -0.1149(4) 0.9082(3)
H12 H 0.8805(3) -0.0460(4) 0.8657(3)
H13 H 0.8220(3) -0.1566(4) 0.8989(3)
H14 H 0.9222(3) -0.0770(4) 0.9655(3)
C17 C 1.2025(3) -0.0077(4) 0.7487(2)
H15 H 1.1308(3) 0.0222(4) 0.7092(2)
C18 C 1.2833(4) 0.1055(5) 0.7591(3)
H16 H 1.2865(4) 0.1283(5) 0.7042(3)
H17 H 1.2609(4) 0.1819(5) 0.7828(3)
H18 H 1.3553(4) 0.0766(5) 0.7986(3)
C19 C 1.2331(4) -0.1285(5) 0.7077(3)
H19 H 1.1802(4) -0.1988(5) 0.6994(3)
H20 H 1.2349(4) -0.1042(5) 0.6526(3)
H21 H 1.3054(4) -0.1581(5) 0.7461(3)
C20 C 0.5148(4) -0.1959(5) 0.3575(3)
H22 H 0.5622(4) -0.2650(5) 0.3922(3)
H23 H 0.4402(4) -0.2104(5) 0.3533(3)
H24 H 0.5160(4) -0.1971(5) 0.3004(3)
C21 C 0.4891(4) 0.0485(5) 0.3545(3)
H25 H 0.5211(4) 0.1281(5) 0.3859(3)
H26 H 0.4897(4) 0.0531(5) 0.2972(3)
H27 H 0.4139(4) 0.0399(5) 0.3501(3)
#END
