
#######################################################################
#
#                 Cambridge Crystallographic Data Centre
#                                CCDC
#
#######################################################################
#
# If this CIF has been generated from an entry in the Cambridge
# Structural Database, then it will include bibliographic, chemical,
# crystal, experimental, refinement or atomic coordinate data resulting
# from the CCDC's data processing and validation procedures.
#
#######################################################################

data_CSD_CIF_ACEMUR
_audit_creation_date 2005-02-04
_audit_creation_method CSD-ConQuest-V1
_database_code_CSD ACEMUR
_database_code_depnum_ccdc_archive 'CCDC 228639'
_chemical_formula_sum 'C14 H10 N4 O6'
_chemical_formula_moiety
;
C14 H10 N4 O6
;
_journal_coden_Cambridge 456
_journal_volume 78
_journal_year 2004
_journal_page_first 869
_journal_name_full 'Pol.J.Chem. '
loop_
_publ_author_name
"J.-L.Wang"
"Y.-J.Jia"
_chemical_name_systematic
;
3,4-(Methylenedioxy)benzaldehyde 2,4-dinitrophenylhydrazone
;
_chemical_melting_point 571.15
_cell_volume   1373.875
_exptl_crystal_colour 'orange'
_exptl_crystal_density_diffrn 1.597
_exptl_crystal_description 'block'
_exptl_crystal_preparation 'ethanol'
_diffrn_ambient_temperature 293
#These two values have been output from a single CSD field.
_refine_ls_R_factor_gt 0.0494
_refine_ls_wR_factor_gt 0.0494
_symmetry_cell_setting monoclinic
_symmetry_space_group_name_H-M 'P 21/c'
_symmetry_Int_Tables_number 14
loop_
_symmetry_equiv_pos_site_id
_symmetry_equiv_pos_as_xyz
1 x,y,z
2 x,1/2-y,1/2+z
3 -x,-y,-z
4 -x,-1/2+y,-1/2-z
_cell_length_a 6.6064(18)
_cell_length_b 14.354(4)
_cell_length_c 14.549(4)
_cell_angle_alpha 90
_cell_angle_beta 95.247(5)
_cell_angle_gamma 90
_cell_formula_units_Z 4
loop_
_atom_type_symbol
_atom_type_radius_bond
C 0.68
H 0.23
N 0.68
O 0.68
loop_
_atom_site_label
_atom_site_type_symbol
_atom_site_fract_x
_atom_site_fract_y
_atom_site_fract_z
O1 O 0.6702(3) 0.44629(12) 0.53173(14)
O2 O 0.9673(3) 0.40641(13) 0.59361(15)
O3 O 1.1689(3) 0.08790(14) 0.62630(17)
O4 O 0.9380(3) -0.01800(13) 0.60371(15)
O5 O -0.6363(3) 0.23247(13) 0.20241(13)
O6 O -0.4048(3) 0.11802(12) 0.25036(13)
N1 N 0.4059(3) 0.32165(16) 0.46444(15)
H1 H 0.430(4) 0.3779(19) 0.4642(17)
N2 N 0.2298(3) 0.28633(14) 0.41789(14)
N3 N 0.7980(3) 0.38640(15) 0.55684(15)
N4 N 0.9958(4) 0.06349(16) 0.60075(16)
C1 C 0.5539(4) 0.26145(17) 0.49826(16)
C2 C 0.7452(4) 0.28975(16) 0.54291(16)
C3 C 0.8922(4) 0.22497(18) 0.57487(17)
H2 H 1.018(4) 0.2465(17) 0.6012(17)
C4 C 0.8489(4) 0.13243(17) 0.56429(17)
C5 C 0.6628(4) 0.10241(19) 0.52125(19)
H3 H 0.636(4) 0.034(2) 0.5166(17)
C6 C 0.5193(4) 0.16490(19) 0.4892(2)
H4 H 0.397(4) 0.1440(19) 0.4613(18)
C7 C -0.0874(4) 0.31770(17) 0.33123(16)
C8 C -0.2267(4) 0.38594(19) 0.30094(18)
H5 H -0.185(3) 0.4471(18) 0.3078(15)
C9 C -0.4186(4) 0.3649(2) 0.25641(19)
H6 H -0.512(4) 0.4122(19) 0.2352(18)
C10 C -0.4618(4) 0.27263(19) 0.24462(17)
C11 C -0.3232(4) 0.20414(16) 0.27384(17)
C12 C -0.1358(4) 0.22336(19) 0.31707(18)
H7 H -0.047(4) 0.1751(17) 0.3338(16)
C13 C 0.1060(4) 0.3467(2) 0.38045(17)
H8 H 0.138(4) 0.409(2) 0.3848(17)
C14 C -0.6131(5) 0.1347(2) 0.2176(3)
H9 H -0.640(4) 0.101(2) 0.153(2)
H10 H -0.694(4) 0.118(2) 0.2669(18)
#END
