
#######################################################################
#
#                 Cambridge Crystallographic Data Centre
#                                CCDC
#
#######################################################################
#
# If this CIF has been generated from an entry in the Cambridge
# Structural Database, then it will include bibliographic, chemical,
# crystal, experimental, refinement or atomic coordinate data resulting
# from the CCDC's data processing and validation procedures.
#
#######################################################################

data_CSD_CIF_ACEREG
_audit_creation_date 2005-02-04
_audit_creation_method CSD-ConQuest-V1
_database_code_CSD ACEREG
_database_code_depnum_ccdc_archive 'CCDC 255874'
_chemical_formula_sum 'C18 H18 N2 O4'
_chemical_formula_moiety
;
C18 H18 N2 O4
;
_journal_coeditor_code "IUCr BT6531"
_journal_coden_Cambridge 1370
_journal_volume 60
_journal_year 2004
_journal_page_first o1952
_journal_name_full 'Acta Crystallogr.,Sect.E:Struct.Rep.Online '
loop_
_publ_author_name
"D.V.Albov"
"V.B.Rybakov"
"E.V.Babaev"
"L.A.Aslanov"
_chemical_name_systematic
;
4-Methyl-1-(3-nitrophenacyl)-5,6,7,8-tetrahydroquinolin-2(1H)-one
;
_chemical_melting_point 441
_cell_volume    789.480
_exptl_crystal_colour 'light yellow'
_exptl_crystal_density_diffrn 1.373
_exptl_special_details
;
Melting point range 441-443K

;
_exptl_crystal_description 'prism'
_exptl_crystal_preparation 'acetone'
_diffrn_ambient_temperature 293
#These two values have been output from a single CSD field.
_refine_ls_R_factor_gt 0.0495
_refine_ls_wR_factor_gt 0.0495
_symmetry_cell_setting triclinic
_symmetry_space_group_name_H-M 'P -1'
_symmetry_Int_Tables_number 2
loop_
_symmetry_equiv_pos_site_id
_symmetry_equiv_pos_as_xyz
1 x,y,z
2 -x,-y,-z
_cell_length_a 9.115(3)
_cell_length_b 9.271(3)
_cell_length_c 11.248(3)
_cell_angle_alpha 92.00(2)
_cell_angle_beta 105.09(2)
_cell_angle_gamma 118.82(2)
_cell_formula_units_Z 2
loop_
_atom_type_symbol
_atom_type_radius_bond
C 0.68
H 0.23
N 0.68
O 0.68
loop_
_atom_site_label
_atom_site_type_symbol
_atom_site_fract_x
_atom_site_fract_y
_atom_site_fract_z
N1 N 0.1011(2) 0.51708(19) 0.23979(13)
C1 C -0.0685(3) 0.4844(3) 0.17853(14)
O1 O -0.1551(2) 0.3911(2) 0.07592(12)
C2 C -0.1231(3) 0.5741(2) 0.24244(17)
H1 H -0.23150 0.56460 0.20320
C3 C -0.0269(3) 0.6732(2) 0.35754(16)
C4 C 0.1393(3) 0.6880(2) 0.42141(16)
C5 C 0.2346(3) 0.7864(3) 0.5548(2)
H2 H 0.17910 0.71700 0.61040
H3 H 0.22100 0.88370 0.56050
C6 C 0.4317(4) 0.8452(4) 0.5999(3)
H4 H 0.49640 0.96460 0.60060
H5 H 0.46190 0.83040 0.68610
C7 C 0.4996(4) 0.7619(4) 0.5271(3)
H6 H 0.59140 0.85080 0.50140
H7 H 0.55680 0.71690 0.58650
C8 C 0.3813(3) 0.6262(4) 0.4140(2)
H8 H 0.36340 0.52000 0.43600
H9 H 0.43860 0.64770 0.34980
C9 C 0.2013(2) 0.6125(2) 0.36066(16)
C10 C -0.0957(4) 0.7634(4) 0.4176(2)
H10 H -0.21340 0.72940 0.36650
H11 H -0.02090 0.88210 0.42570
H12 H -0.09690 0.73660 0.49910
C11 C 0.1657(3) 0.4367(3) 0.1718(2)
H13 H 0.29230 0.50910 0.19180
H14 H 0.11270 0.42470 0.08260
C12 C 0.1276(2) 0.2665(2) 0.20025(13)
O2 O 0.0498(2) 0.2083(2) 0.27461(14)
C13 C 0.1884(2) 0.1749(2) 0.13568(13)
C14 C 0.1561(2) 0.0174(2) 0.16037(18)
H15 H 0.10130 -0.02530 0.22040
C15 C 0.2027(3) -0.0758(3) 0.0989(2)
H16 H 0.17780 -0.18080 0.11690
C16 C 0.2861(3) -0.0158(2) 0.01074(17)
H17 H 0.31720 -0.07900 -0.03200
C17 C 0.3221(2) 0.1415(2) -0.01210(14)
C18 C 0.2735(2) 0.2377(2) 0.04819(15)
H18 H 0.29800 0.34250 0.02980
N2 N 0.4063(2) 0.2046(2) -0.10723(14)
O3 O 0.4482(2) 0.3488(2) -0.12227(16)
O4 O 0.4358(3) 0.1178(3) -0.16753(17)
#END
