
#######################################################################
#
#                 Cambridge Crystallographic Data Centre
#                                CCDC
#
#######################################################################
#
# If this CIF has been generated from an entry in the Cambridge
# Structural Database, then it will include bibliographic, chemical,
# crystal, experimental, refinement or atomic coordinate data resulting
# from the CCDC's data processing and validation procedures.
#
#######################################################################

data_CSD_CIF_ACEZAK
_audit_creation_date 2005-02-04
_audit_creation_method CSD-ConQuest-V1
_database_code_CSD ACEZAK
_database_code_depnum_ccdc_archive 'CCDC 255907'
_chemical_formula_sum 'C23 H26 N6 O4'
_chemical_formula_moiety
;
C23 H26 N6 O4
;
_journal_coeditor_code "IUCr CV6388"
_journal_coden_Cambridge 1370
_journal_volume 60
_journal_year 2004
_journal_page_first o2041
_journal_name_full 'Acta Crystallogr.,Sect.E:Struct.Rep.Online '
loop_
_publ_author_name
"Hai-Bo Wang"
"Jia-Hui Chen"
"Yue-Qing Pu"
"Jin-Tang Wang"
_chemical_name_systematic
;
1-((2,6-Dimethylphenyl)aminocarbonylmethyl)-4-((3-(4-nitrophenyl)-1,2,4-oxadia
zol-5-yl)methyl)piperazine
;
_cell_volume   2287.621
_exptl_crystal_colour 'colorless'
_exptl_crystal_density_diffrn 1.308
_exptl_special_details
;
potential physiological activity

;
_exptl_crystal_description 'block'
_exptl_crystal_preparation 'ethanol'
_diffrn_ambient_temperature 293
#These two values have been output from a single CSD field.
_refine_ls_R_factor_gt 0.0702
_refine_ls_wR_factor_gt 0.0702
_symmetry_cell_setting monoclinic
_symmetry_space_group_name_H-M 'P 21/c'
_symmetry_Int_Tables_number 14
loop_
_symmetry_equiv_pos_site_id
_symmetry_equiv_pos_as_xyz
1 x,y,z
2 x,1/2-y,1/2+z
3 -x,-y,-z
4 -x,-1/2+y,-1/2-z
_cell_length_a 7.2240(14)
_cell_length_b 9.5650(19)
_cell_length_c 33.245(7)
_cell_angle_alpha 90
_cell_angle_beta 95.22(3)
_cell_angle_gamma 90
_cell_formula_units_Z 4
loop_
_atom_type_symbol
_atom_type_radius_bond
C 0.68
H 0.23
N 0.68
O 0.68
loop_
_atom_site_label
_atom_site_type_symbol
_atom_site_fract_x
_atom_site_fract_y
_atom_site_fract_z
O1 O 1.8788(7) 0.4733(5) 0.58690(18)
O2 O 1.6967(5) 0.6481(4) 0.58167(13)
O3 O 1.0678(5) 0.0232(3) 0.45423(9)
O4 O 0.4168(4) 0.1776(3) 0.24756(8)
N1 N 1.7262(6) 0.5252(5) 0.57816(13)
N2 N 1.2290(5) 0.0682(4) 0.47816(11)
N3 N 1.0023(5) 0.2308(4) 0.47869(10)
N4 N 0.7285(4) 0.1971(3) 0.39802(9)
N5 N 0.6681(4) 0.2514(3) 0.31297(9)
N6 N 0.3833(4) 0.4042(3) 0.22882(9)
H1 H 0.43400 0.48560 0.23000
C1 C 1.5798(6) 0.4369(5) 0.55821(13)
C2 C 1.6269(6) 0.3037(5) 0.54670(13)
H2 H 1.74670 0.26960 0.55290
C3 C 1.4938(6) 0.2230(4) 0.52599(13)
H3 H 1.52280 0.13280 0.51830
C4 C 1.3156(6) 0.2749(4) 0.51642(12)
C5 C 1.2699(6) 0.4067(4) 0.52980(12)
H4 H 1.14910 0.44000 0.52460
C6 C 1.4030(6) 0.4889(4) 0.55076(13)
H5 H 1.37350 0.57760 0.55970
C7 C 1.1810(6) 0.1891(4) 0.49123(12)
C8 C 0.9414(6) 0.1257(4) 0.45614(12)
C9 C 0.7604(6) 0.1012(5) 0.43166(12)
H6 H 0.75800 0.00620 0.42140
H7 H 0.66020 0.11060 0.44900
C10 C 0.8804(5) 0.1926(4) 0.37181(11)
H8 H 0.89510 0.09790 0.36220
H9 H 0.99550 0.22000 0.38710
C11 C 0.8416(5) 0.2892(4) 0.33638(12)
H10 H 0.83340 0.38460 0.34590
H11 H 0.94310 0.28430 0.31920
C12 C 0.5178(5) 0.2560(4) 0.33946(11)
H12 H 0.40150 0.23070 0.32430
H13 H 0.50570 0.35030 0.34970
C13 C 0.5571(5) 0.1572(4) 0.37401(12)
H14 H 0.45440 0.15840 0.39090
H15 H 0.56910 0.06290 0.36380
C14 C 0.6330(5) 0.3456(4) 0.27838(11)
H16 H 0.74220 0.34830 0.26340
H17 H 0.61160 0.43930 0.28810
C15 C 0.4680(5) 0.3006(4) 0.25053(11)
C16 C 0.2112(5) 0.3866(4) 0.20343(12)
C17 C 0.0577(6) 0.4557(5) 0.21543(14)
C18 C -0.1104(6) 0.4418(6) 0.19084(18)
H18 H -0.21690 0.48700 0.19790
C19 C -0.1174(8) 0.3608(7) 0.15622(19)
H19 H -0.22890 0.35240 0.14010
C20 C 0.0349(8) 0.2940(6) 0.14553(15)
H20 H 0.02630 0.23870 0.12240
C21 C 0.2053(6) 0.3065(4) 0.16861(12)
C22 C 0.0681(6) 0.5409(5) 0.25327(15)
H21 H 0.19240 0.53780 0.26620
H22 H -0.01650 0.50370 0.27120
H23 H 0.03510 0.63600 0.24670
C23 C 0.3727(7) 0.2354(5) 0.15469(14)
H24 H 0.47860 0.25380 0.17350
H25 H 0.39570 0.27030 0.12850
H26 H 0.35110 0.13640 0.15310
#END
