
#######################################################################
#
#                 Cambridge Crystallographic Data Centre
#                                CCDC
#
#######################################################################
#
# If this CIF has been generated from an entry in the Cambridge
# Structural Database, then it will include bibliographic, chemical,
# crystal, experimental, refinement or atomic coordinate data resulting
# from the CCDC's data processing and validation procedures.
#
#######################################################################

data_CSD_CIF_ACIDAR
_audit_creation_date 2002-02-27
_audit_creation_method CSD-ConQuest-V1
_database_code_CSD ACIDAR
_database_code_depnum_ccdc_archive 'CCDC 176003'
_chemical_formula_sum 'C16 H11 N3 O3'
_chemical_formula_moiety
;
C16 H11 N3 O3
;
_journal_coeditor_code "IUCr CF6106"
_journal_coden_Cambridge 1370
_journal_volume 57
_journal_year 2001
_journal_page_first o1025
_journal_name_full 'Acta Crystallogr.,Sect.E:Struct.Rep.Online '
loop_
_publ_author_name
"A.V.Yatsenko"
"K.A.Paseshnichenko"
_chemical_name_systematic
;
4-((2-Nitrophenyl)hydrazono)-4H-naphthalen-1-one
;
_chemical_melting_point 517
_cell_volume   1317.281
_exptl_crystal_colour 'dark red'
_exptl_crystal_density_diffrn 1.479
_exptl_crystal_description 'needle'
_exptl_crystal_preparation 'chloroform'
_diffrn_ambient_temperature 293
#These two values have been output from a single CSD field.
_refine_ls_R_factor_gt 0.045
_refine_ls_wR_factor_gt 0.045
_symmetry_cell_setting monoclinic
_symmetry_space_group_name_H-M 'P 21/n'
_symmetry_Int_Tables_number 14
loop_
_symmetry_equiv_pos_site_id
_symmetry_equiv_pos_as_xyz
1 x,y,z
2 1/2+x,1/2-y,1/2+z
3 -x,-y,-z
4 -1/2-x,-1/2+y,-1/2-z
_cell_length_a 7.328(2)
_cell_length_b 16.366(4)
_cell_length_c 11.131(3)
_cell_angle_alpha 90
_cell_angle_beta 99.33(2)
_cell_angle_gamma 90
_cell_formula_units_Z 4
loop_
_atom_type_symbol
_atom_type_radius_bond
C 0.68
H 0.23
N 0.68
O 0.68
loop_
_atom_site_label
_atom_site_type_symbol
_atom_site_fract_x
_atom_site_fract_y
_atom_site_fract_z
O1 O 0.60667(17) 0.57864(7) 0.93712(9)
O2 O 0.23492(18) 0.27875(7) 0.44880(11)
O3 O 0.1408(2) 0.20724(7) 0.28875(13)
N1 N 0.21431(17) 0.43700(7) 0.44329(10)
N2 N 0.23925(16) 0.51405(7) 0.48507(10)
N3 N 0.15886(19) 0.27320(8) 0.34107(13)
C1 C 0.5250(2) 0.56377(9) 0.83466(13)
C2 C 0.5072(2) 0.48104(9) 0.78856(14)
C3 C 0.4199(2) 0.46339(9) 0.67641(14)
C4 C 0.33440(19) 0.52586(8) 0.59335(12)
C5 C 0.2814(2) 0.67590(9) 0.55850(14)
C6 C 0.2949(2) 0.7552(1) 0.59902(16)
C7 C 0.3810(2) 0.77243(9) 0.71679(16)
C8 C 0.4546(2) 0.71045(10) 0.79169(15)
C9 C 0.4430(2) 0.62964(9) 0.75147(13)
C10 C 0.35333(19) 0.61141(8) 0.63376(12)
C11 C 0.11540(19) 0.42454(8) 0.32735(12)
C12 C 0.0890(2) 0.34606(9) 0.27546(13)
C13 C -0.0090(2) 0.33540(11) 0.15852(15)
C14 C -0.0833(2) 0.40066(11) 0.09289(15)
C15 C -0.0601(2) 0.47837(11) 0.14233(15)
C16 C 0.0393(2) 0.49030(9) 0.25649(14)
H1 H 0.555(2) 0.4411(10) 0.8370(14)
H2 H 0.419(2) 0.4083(11) 0.6500(16)
H3 H 0.226(2) 0.663(1) 0.4827(15)
H4 H 0.241(2) 0.7953(11) 0.5459(14)
H5 H 0.383(2) 0.827(1) 0.7417(13)
H6 H 0.508(2) 0.7184(11) 0.8724(16)
H7 H -0.022(3) 0.2800(12) 0.1302(16)
H8 H -0.153(2) 0.3925(10) 0.0167(15)
H9 H -0.114(2) 0.5221(10) 0.0985(14)
H10 H 0.054(2) 0.5419(10) 0.2910(13)
H11 H 0.257(2) 0.3828(10) 0.4895(13)
#END
