
#######################################################################
#
#                 Cambridge Crystallographic Data Centre
#                                CCDC
#
#######################################################################
#
# If this CIF has been generated from an entry in the Cambridge
# Structural Database, then it will include bibliographic, chemical,
# crystal, experimental, refinement or atomic coordinate data resulting
# from the CCDC's data processing and validation procedures.
#
#######################################################################

data_CSD_CIF_ACISAI
_audit_creation_date 2013-02-01
_audit_creation_method CSD-ConQuest-V1
_database_code_CSD ACISAI
_database_code_depnum_ccdc_archive 'CCDC 833044'
_chemical_formula_sum 'C14 H12 N6 O4'
_chemical_formula_moiety
;
C14 H12 N6 O4
;
_journal_coden_Cambridge 580
_journal_volume 47
_journal_year 2012
_journal_page_first 151
_journal_name_full 'Polyhedron '
loop_
_publ_author_name
"Xin-Yu Wang"
"Shu-Qing Liu"
"Chun-Yan Zhang"
"Ge Song"
"Feng-Ying Bai"
"Yong-Heng Xing"
"Zhan Shi"
_chemical_name_systematic
;
1,1'-(1,4-Phenylenebis(methylene))bis(4-nitro-1H-pyrazole)
;
_chemical_name_common
;
1,4-bis((4-Nitro-1H-pyrazol-1-yl)methyl)benzene
;
_cell_volume    723.711
_exptl_crystal_density_diffrn 1.507
_diffrn_ambient_temperature 293
#These two values have been output from a single CSD field.
_refine_ls_R_factor_gt 0.0582
_refine_ls_wR_factor_gt 0.0582
_symmetry_cell_setting monoclinic
_symmetry_space_group_name_H-M 'P 21/c'
_symmetry_Int_Tables_number 14
loop_
_symmetry_equiv_pos_site_id
_symmetry_equiv_pos_as_xyz
1 x,y,z
2 -x,1/2+y,1/2-z
3 -x,-y,-z
4 x,-1/2-y,-1/2+z
_cell_length_a 11.151(2)
_cell_length_b 4.5954(9)
_cell_length_c 14.707(3)
_cell_angle_alpha 90
_cell_angle_beta 106.20(3)
_cell_angle_gamma 90
_cell_formula_units_Z 2
loop_
_atom_type_symbol
_atom_type_radius_bond
C 0.68
H 0.23
N 0.68
O 0.68
loop_
_atom_site_label
_atom_site_type_symbol
_atom_site_fract_x
_atom_site_fract_y
_atom_site_fract_z
C1 C 1.0583(2) 0.0513(5) 0.09390(16)
H1 H 1.09840 0.08520 0.15750
C2 C 0.9467(2) 0.1893(5) 0.05189(16)
C3 C 0.8886(2) 0.1368(5) -0.04268(16)
H2 H 0.81340 0.22840 -0.07210
C4 C 0.8895(2) 0.3917(5) 0.10897(18)
H3 H 0.95290 0.45020 0.16580
H4 H 0.85950 0.56540 0.07210
C5 C 0.6997(2) -0.0361(6) 0.21097(17)
H5 H 0.68650 -0.17500 0.25310
C6 C 0.6058(2) 0.1082(5) 0.14487(15)
C7 C 0.6644(2) 0.2939(5) 0.09792(16)
H6 H 0.62670 0.42180 0.04940
N1 N 0.78538(17) 0.2538(4) 0.13572(13)
N2 N 0.81071(19) 0.0501(5) 0.20603(14)
N3 N 0.47510(19) 0.0782(5) 0.12930(15)
O1 O 0.43663(17) -0.1030(5) 0.17508(14)
O2 O 0.40517(18) 0.2365(5) 0.07121(15)
C1B C 0.9417(2) -0.0513(5) -0.09390(16)
H1B H 0.90160 -0.08520 -0.15750
C2B C 1.0533(2) -0.1893(5) -0.05189(16)
C3B C 1.1114(2) -0.1368(5) 0.04268(16)
H2B H 1.18660 -0.22840 0.07210
C4B C 1.1105(2) -0.3917(5) -0.10897(18)
H3B H 1.04710 -0.45020 -0.16580
H4B H 1.14050 -0.56540 -0.07210
C5B C 1.3003(2) 0.0361(6) -0.21097(17)
H5B H 1.31350 0.17500 -0.25310
C6B C 1.3942(2) -0.1082(5) -0.14487(15)
C7B C 1.3356(2) -0.2939(5) -0.09792(16)
H6B H 1.37330 -0.42180 -0.04940
N1B N 1.21462(17) -0.2538(4) -0.13572(13)
N2B N 1.18929(19) -0.0501(5) -0.20603(14)
N3B N 1.52490(19) -0.0782(5) -0.12930(15)
O1B O 1.56337(17) 0.1030(5) -0.17508(14)
O2B O 1.59483(18) -0.2365(5) -0.07121(15)
#END
