
#######################################################################
#
#                 Cambridge Crystallographic Data Centre
#                                CCDC
#
#######################################################################
#
# If this CIF has been generated from an entry in the Cambridge
# Structural Database, then it will include bibliographic, chemical,
# crystal, experimental, refinement or atomic coordinate data resulting
# from the CCDC's data processing and validation procedures.
#
#######################################################################

data_CSD_CIF_ACOFOQ
_audit_creation_date 2017-09-30
_audit_creation_method CSD-ConQuest-V1
_database_code_CSD ACOFOQ
_database_code_depnum_ccdc_archive 'CCDC 1572979'
_chemical_formula_sum 'C18 H25 N1 O4'
_chemical_formula_moiety
;
C18 H25 N1 O4
;
_journal_coeditor_code "fn3243"
_journal_coden_Cambridge 1777
_journal_volume 73
_journal_year 2017
_journal_page_first 814
_journal_name_full 'Acta Crystallogr.,Sect.C:Cryst.Struct.Chem. '
loop_
_publ_author_name
"S.M.Oburn"
"E.Bosch"
_chemical_name_systematic
;
1-ethynyl-2-nitro-4,5-bis(pentoxy)benzene
;
_cell_volume    898.225
_exptl_crystal_colour 'colorless'
_exptl_crystal_density_diffrn 1.181
_exptl_crystal_description 'square'
_diffrn_ambient_temperature 100
#These two values have been output from a single CSD field.
_refine_ls_R_factor_gt 0.0852
_refine_ls_wR_factor_gt 0.0852
_symmetry_cell_setting triclinic
_symmetry_space_group_name_H-M 'P -1'
_symmetry_Int_Tables_number 2
loop_
_symmetry_equiv_pos_site_id
_symmetry_equiv_pos_as_xyz
1 x,y,z
2 -x,-y,-z
_cell_length_a 4.570(4)
_cell_length_b 9.415(8)
_cell_length_c 20.968(18)
_cell_angle_alpha 94.003(12)
_cell_angle_beta 90.758(12)
_cell_angle_gamma 93.435(11)
_cell_formula_units_Z 2
loop_
_atom_type_symbol
_atom_type_radius_bond
C 0.68
H 0.23
N 0.68
O 0.68
loop_
_atom_site_label
_atom_site_type_symbol
_atom_site_fract_x
_atom_site_fract_y
_atom_site_fract_z
O1 O 0.5970(9) 0.2146(5) 0.48201(18)
N1 N 0.4403(9) 0.2986(5) 0.5092(2)
C1 C 0.6541(10) 0.2513(5) 0.6159(2)
O2 O 0.2526(9) 0.3609(5) 0.48100(18)
C2 C 0.4709(10) 0.3307(5) 0.5786(2)
O3 O 0.1873(6) 0.5814(3) 0.70199(15)
C3 C 0.3139(10) 0.4410(5) 0.6053(2)
O4 O 0.5189(7) 0.4440(3) 0.77303(15)
C4 C 0.3319(9) 0.4762(5) 0.6707(2)
C5 C 0.5148(9) 0.4001(5) 0.7095(2)
C6 C 0.6704(10) 0.2917(5) 0.6818(2)
H1 H 0.79366 0.24213 0.70831
C7 C 0.8201(11) 0.1340(5) 0.5926(2)
C8 C 0.9653(13) 0.0361(6) 0.5791(3)
C9 C 0.0258(10) 0.6727(5) 0.6633(2)
H2 H -0.12264 0.61503 0.63620
H3 H 0.16079 0.72436 0.63510
C10 C -0.1205(10) 0.7763(5) 0.7078(2)
H4 H -0.24903 0.72184 0.73631
H5 H -0.24743 0.83328 0.68228
C11 C 0.0872(10) 0.8788(5) 0.7493(2)
H6 H 0.22434 0.82261 0.77268
H7 H 0.20459 0.93946 0.72123
C12 C -0.0696(10) 0.9732(5) 0.7969(3)
H8 H -0.18489 0.91235 0.82529
H9 H -0.20896 1.02812 0.77350
C13 C 0.1374(13) 1.0785(6) 0.8384(3)
H10 H 0.27522 1.02511 0.86208
H11 H 0.02188 1.13518 0.86860
H12 H 0.24660 1.14200 0.81084
C14 C 0.7373(11) 0.3898(5) 0.8135(2)
H13 H 0.93623 0.41894 0.79917
H14 H 0.71655 0.28428 0.81146
C15 C 0.6920(12) 0.4506(5) 0.8810(2)
H15 H 0.82866 0.40764 0.91006
H16 H 0.48986 0.42290 0.89372
C16 C 0.7393(14) 0.6118(6) 0.8896(3)
H17 H 0.60610 0.65533 0.85992
H18 H 0.94323 0.63992 0.87824
C17 C 0.6833(16) 0.6703(6) 0.9585(3)
H19 H 0.47998 0.64087 0.96979
H20 H 0.81727 0.62664 0.98794
C18 C 0.726(2) 0.8298(8) 0.9686(3)
H21 H 0.92813 0.85996 0.95857
H22 H 0.68757 0.85938 1.01334
H23 H 0.59016 0.87418 0.94063
H24 H 0.187(15) 0.483(8) 0.578(3)
H25 H 1.065(17) -0.045(6) 0.564(4)
#END
