
#######################################################################
#
#                 Cambridge Crystallographic Data Centre
#                                CCDC
#
#######################################################################
#
# If this CIF has been generated from an entry in the Cambridge
# Structural Database, then it will include bibliographic, chemical,
# crystal, experimental, refinement or atomic coordinate data resulting
# from the CCDC's data processing and validation procedures.
#
#######################################################################

data_CSD_CIF_ACOWOE
_audit_creation_date 2002-02-27
_audit_creation_method CSD-ConQuest-V1
_database_code_CSD ACOWOE
_database_code_depnum_ccdc_archive 'CCDC 159436'
_chemical_formula_sum 'C4 H5 N3 O5'
_chemical_formula_moiety
;
C4 H5 N3 O5
;
_journal_coden_Cambridge 1003
_journal_volume 30
_journal_year 2000
_journal_page_first 647
_journal_name_full 'J.Chem.Cryst. '
loop_
_publ_author_name
"S.M.Peiris"
"R.Gilardi"
"P.R.Dave"
"T.P.Russell"
_chemical_name_systematic
;
3,3-Dinitroazetidinecarbaldehyde
;
_chemical_name_common
;
1-Formyl-3,3-dinitroazetidine
;
_cell_volume    693.235
_exptl_crystal_colour 'colorless'
_exptl_crystal_density_diffrn 1.678
_exptl_crystal_description 'prism'
_diffrn_ambient_temperature 294
#These two values have been output from a single CSD field.
_refine_ls_R_factor_gt 0.036
_refine_ls_wR_factor_gt 0.036
_symmetry_cell_setting monoclinic
_symmetry_space_group_name_H-M 'P 21/c'
_symmetry_Int_Tables_number 14
loop_
_symmetry_equiv_pos_site_id
_symmetry_equiv_pos_as_xyz
1 x,y,z
2 x,1/2-y,1/2+z
3 -x,-y,-z
4 -x,-1/2+y,-1/2-z
_cell_length_a 10.327(1)
_cell_length_b 6.0615(12)
_cell_length_c 11.2514(12)
_cell_angle_alpha 90
_cell_angle_beta 100.172(11)
_cell_angle_gamma 90
_cell_formula_units_Z 4
loop_
_atom_type_symbol
_atom_type_radius_bond
C 0.68
H 0.23
N 0.68
O 0.68
loop_
_atom_site_label
_atom_site_type_symbol
_atom_site_fract_x
_atom_site_fract_y
_atom_site_fract_z
O1 O 1.0254(2) 0.6915(3) 0.13917(15)
C1 C 0.9221(3) 0.5890(3) 0.1216(2)
H1 H 0.8918(22) 0.5037(37) 0.0499(19)
N1 N 0.8371(2) 0.5884(3) 0.19564(14)
C2 C 0.8500(3) 0.6800(3) 0.3175(2)
H2 H 0.9297(26) 0.6265(37) 0.3703(20)
H3 H 0.8434(25) 0.8421(39) 0.3195(18)
C3 C 0.7248(2) 0.5526(3) 0.32955(15)
N2 N 0.6101(2) 0.6999(3) 0.3401(2)
O2 O 0.5606(2) 0.6889(3) 0.4294(2)
O3 O 0.5775(2) 0.8261(3) 0.25692(15)
N3 N 0.7379(2) 0.3931(3) 0.43310(14)
O4 O 0.6835(2) 0.2173(2) 0.41552(14)
O5 O 0.8037(2) 0.4537(3) 0.52788(12)
C4 C 0.7220(3) 0.4534(4) 0.2037(2)
H4 H 0.7369(25) 0.2994(37) 0.2063(17)
H5 H 0.6415(25) 0.4913(35) 0.1490(19)
#END
