
#######################################################################
#
#                 Cambridge Crystallographic Data Centre
#                                CCDC
#
#######################################################################
#
# If this CIF has been generated from an entry in the Cambridge
# Structural Database, then it will include bibliographic, chemical,
# crystal, experimental, refinement or atomic coordinate data resulting
# from the CCDC's data processing and validation procedures.
#
#######################################################################

data_CSD_CIF_ACPIXZ
_audit_creation_date 1975-02-01
_audit_creation_method CSD-ConQuest-V1
_database_code_CSD ACPIXZ
_chemical_formula_sum 'C19 H16 N2 O3'
_chemical_formula_moiety
;
C19 H16 N2 O3
;
_journal_coden_Cambridge 188
_journal_year 1974
_journal_page_first 1409
_journal_name_full 'J.Chem.Soc.,Perkin Trans.2 '
loop_
_publ_author_name
"K.Simon"
"K.Sasvari"
"P.Dvortsak"
"K.Horvath"
"K.Harsanyi"
_chemical_name_systematic
;
5-Diacetylamino-3,4-diphenylisoxazole
;
_cell_volume   1636.365
_exptl_crystal_density_diffrn 1.301
_diffrn_ambient_temperature ?
_diffrn_special_details
;
The study was carried out at room temperature,in the range 283-303K

;
#These two values have been output from a single CSD field.
_refine_ls_R_factor_gt 0.063
_refine_ls_wR_factor_gt 0.063
_symmetry_cell_setting orthorhombic
_symmetry_space_group_name_H-M 'P 21 21 21'
_symmetry_Int_Tables_number 19
loop_
_symmetry_equiv_pos_site_id
_symmetry_equiv_pos_as_xyz
1 x,y,z
2 1/2+x,1/2-y,-z
3 -x,1/2+y,1/2-z
4 1/2-x,-y,1/2+z
_cell_length_a 9.216(4)
_cell_length_b 9.324(5)
_cell_length_c 19.043(8)
_cell_angle_alpha 90
_cell_angle_beta 90
_cell_angle_gamma 90
_cell_formula_units_Z 4
loop_
_atom_type_symbol
_atom_type_radius_bond
C 0.68
H 0.20
N 0.68
O 0.68
loop_
_atom_site_label
_atom_site_type_symbol
_atom_site_fract_x
_atom_site_fract_y
_atom_site_fract_z
C1 C 0.26550 -0.16380 0.17020
C2 C 0.21260 -0.07590 0.11750
C3 C 0.08810 -0.06610 -0.04160
C4 C 0.03820 -0.20440 -0.02660
C5 C 0.09130 -0.32200 -0.06190
C6 C 0.19670 -0.30480 -0.11270
C7 C 0.25040 -0.16850 -0.12760
C8 C 0.19730 -0.04970 -0.09240
C9 C -0.20420 0.10950 -0.13040
C10 C -0.00090 0.29510 -0.13950
C11 C -0.28880 0.02790 -0.07950
C12 C -0.04480 0.33650 -0.21340
C13 C 0.02800 0.08770 0.06930
C14 C 0.03120 0.05700 -0.00420
C15 C -0.04510 0.16820 -0.03210
C16 C 0.08570 0.00200 0.12640
C17 C 0.01420 -0.00710 0.19090
C18 C 0.06880 -0.09320 0.24350
C19 C 0.19340 -0.17290 0.23370
H1 H -0.07900 0.05200 0.19200
H2 H 0.02400 -0.09600 0.28800
H3 H 0.24500 -0.23300 0.27500
H4 H 0.34800 -0.23300 0.16800
H5 H 0.26700 -0.07300 0.07000
H6 H -0.02800 -0.22200 0.00500
H7 H 0.05100 -0.42300 -0.05300
H8 H 0.25100 -0.38500 -0.13700
H9 H 0.33500 -0.14800 -0.16500
H10 H 0.23700 0.04000 -0.10300
H11 H -0.30000 0.09800 -0.03800
H12 H -0.24800 -0.07000 -0.05900
H13 H -0.38200 0.00300 -0.10900
H14 H -0.00200 0.40200 -0.23300
H15 H -0.01900 0.25100 -0.24300
H16 H -0.14800 0.36500 -0.21900
N1 N -0.08980 0.19490 -0.10200
N2 N -0.04310 0.20930 0.08260
O1 O -0.09020 0.26220 0.01730
O2 O -0.22310 0.10510 -0.19270
O3 O 0.10330 0.34250 -0.11020
#END
