
#######################################################################
#
#                 Cambridge Crystallographic Data Centre
#                                CCDC
#
#######################################################################
#
# If this CIF has been generated from an entry in the Cambridge
# Structural Database, then it will include bibliographic, chemical,
# crystal, experimental, refinement or atomic coordinate data resulting
# from the CCDC's data processing and validation procedures.
#
#######################################################################

data_CSD_CIF_ACUNAO
_audit_creation_date 2006-07-27
_audit_creation_method CSD-ConQuest-V1
_database_code_CSD ACUNAO
_database_code_depnum_ccdc_archive 'CCDC 298642'
_chemical_formula_sum 'C30 H24 N4 O12'
_chemical_formula_moiety
;
C30 H24 N4 O12
;
_journal_coden_Cambridge 24
_journal_volume 47
_journal_year 2006
_journal_page_first 4041
_journal_name_full 'Tetrahedron Lett. '
loop_
_publ_author_name
"H.Konishi"
"K.Tanaka"
"Y.Teshima"
"T.Mita"
"O.Morikawa"
"K.Kobayashi"
_chemical_name_systematic
;
anti-1^4^,1^6^,5^4^,5^6^-Tetranitro-3^2^,7^2^-di-n-propyl-2,4,6,8-tetraoxa-1,3
,5,7(1,3)-tetrabenzenacyclo-octaphane
;
_cell_volume   1454.612
_exptl_crystal_colour 'colorless'
_exptl_crystal_density_diffrn 1.444
_exptl_special_details
;
chair conformation

;
_exptl_crystal_description 'block'
_exptl_crystal_preparation 'hexane/chloroform'
_diffrn_ambient_temperature 173.1
#These two values have been output from a single CSD field.
_refine_ls_R_factor_gt 0.0768
_refine_ls_wR_factor_gt 0.0768
loop_
_citation_database_id_CSD
_citation_special_details
ADINIL "is a stereoisomer of this entry"
_symmetry_cell_setting monoclinic
_symmetry_space_group_name_H-M 'P 21/n'
_symmetry_Int_Tables_number 14
loop_
_symmetry_equiv_pos_site_id
_symmetry_equiv_pos_as_xyz
1 x,y,z
2 1/2-x,1/2+y,1/2-z
3 -x,-y,-z
4 -1/2+x,-1/2-y,-1/2+z
_cell_length_a 8.814(5)
_cell_length_b 9.514(6)
_cell_length_c 17.606(11)
_cell_angle_alpha 90
_cell_angle_beta 99.85(3)
_cell_angle_gamma 90
_cell_formula_units_Z 2
loop_
_atom_type_symbol
_atom_type_radius_bond
C 0.68
H 0.23
N 0.68
O 0.68
loop_
_atom_site_label
_atom_site_type_symbol
_atom_site_fract_x
_atom_site_fract_y
_atom_site_fract_z
O1 O 0.6005(2) 0.2931(2) 0.60783(12)
O2 O 0.3347(2) -0.1330(2) 0.64422(12)
O3 O 0.7061(3) 0.4247(2) 0.73922(14)
O4 O 0.5385(4) 0.4288(3) 0.81286(19)
O5 O 0.2549(4) 0.0014(3) 0.84467(17)
O6 O 0.3355(3) -0.1826(3) 0.79489(14)
N1 N 0.5966(4) 0.3745(3) 0.76280(17)
N2 N 0.3199(3) -0.0550(3) 0.79832(16)
C1 C 0.5333(4) 0.2061(3) 0.65328(18)
C2 C 0.5283(4) 0.2441(3) 0.72960(17)
C3 C 0.4551(4) 0.1596(3) 0.77420(17)
C4 C 0.3926(3) 0.0338(3) 0.74661(17)
C5 C 0.4018(3) -0.0096(3) 0.67231(17)
C6 C 0.4678(4) 0.0793(3) 0.62609(18)
C7 C 0.4160(4) -0.2061(3) 0.59512(19)
C8 C 0.5467(5) -0.2787(3) 0.6290(2)
C9 C 0.6324(4) -0.3512(3) 0.5836(2)
C10 C 0.5849(5) -0.3512(3) 0.5041(2)
C11 C 0.5503(4) 0.2806(3) 0.52712(19)
C12 C 0.3618(4) -0.2053(2) 0.51553(17)
C13 C 0.2179(4) -0.1277(4) 0.4790(2)
C14 C 0.0745(8) -0.2100(7) 0.4587(4)
C15 C 0.0241(10) -0.2957(10) 0.4942(4)
H1 H 0.44790 0.18860 0.82510
H2 H 0.46800 0.05370 0.57390
H3 H 0.64280 -0.39900 0.47130
H4 H 0.72340 -0.39940 0.60610
H5 H 0.57560 -0.27820 0.68350
H6 H 0.24120 -0.08230 0.43430
H7 H 0.19730 -0.05890 0.51500
H8 H 0.08610 -0.25760 0.41260
H9 H -0.00670 -0.14340 0.44780
H10 H -0.07140 -0.33450 0.47000
H11 H 0.01170 -0.25300 0.54150
H12 H 0.09890 -0.36830 0.50390
O1B O 0.3995(2) -0.2931(2) 0.39217(12)
O2B O 0.6653(2) 0.1330(2) 0.35578(12)
O3B O 0.2939(3) -0.4247(2) 0.26078(14)
O4B O 0.4615(4) -0.4288(3) 0.18714(19)
O5B O 0.7451(4) -0.0014(3) 0.15533(17)
O6B O 0.6645(3) 0.1826(3) 0.20511(14)
N1B N 0.4034(4) -0.3745(3) 0.23720(17)
N2B N 0.6801(3) 0.0550(3) 0.20168(16)
C1B C 0.4667(4) -0.2061(3) 0.34672(18)
C2B C 0.4717(4) -0.2441(3) 0.27040(17)
C3B C 0.5449(4) -0.1596(3) 0.22580(17)
C4B C 0.6074(3) -0.0338(3) 0.25339(17)
C5B C 0.5982(3) 0.0096(3) 0.32769(17)
C6B C 0.5322(4) -0.0793(3) 0.37391(18)
C7B C 0.5840(4) 0.2061(3) 0.40488(19)
C8B C 0.4533(5) 0.2787(3) 0.3710(2)
C9B C 0.3676(4) 0.3512(3) 0.4164(2)
C10B C 0.4151(5) 0.3512(3) 0.4959(2)
C11B C 0.4497(4) -0.2806(3) 0.47288(19)
C12B C 0.6382(4) 0.2053(2) 0.48447(17)
C13B C 0.7821(4) 0.1277(4) 0.5210(2)
C14B C 0.9255(8) 0.2100(7) 0.5413(4)
C15B C 0.9759(10) 0.2957(10) 0.5058(4)
H1B H 0.55210 -0.18860 0.17490
H2B H 0.53200 -0.05370 0.42610
H3B H 0.35720 0.39900 0.52870
H4B H 0.27660 0.39940 0.39390
H5B H 0.42440 0.27820 0.31650
H6B H 0.75880 0.08230 0.56570
H7B H 0.80270 0.05890 0.48500
H8B H 0.91390 0.25760 0.58740
H9B H 1.00670 0.14340 0.55220
H10B H 1.07140 0.33450 0.53000
H11B H 0.98830 0.25300 0.45850
H12B H 0.90110 0.36830 0.49610
#END
