
#######################################################################
#
#                 Cambridge Crystallographic Data Centre
#                                CCDC
#
#######################################################################
#
# If this CIF has been generated from an entry in the Cambridge
# Structural Database, then it will include bibliographic, chemical,
# crystal, experimental, refinement or atomic coordinate data resulting
# from the CCDC's data processing and validation procedures.
#
#######################################################################

data_CSD_CIF_ACUPEV
_audit_creation_date 2013-03-18
_audit_creation_method CSD-ConQuest-V1
_database_code_CSD ACUPEV
_database_code_depnum_ccdc_archive 'CCDC 769241'
_chemical_formula_sum 'C22 H16 N2 O4'
_chemical_formula_moiety
;
C22 H16 N2 O4
;
_journal_coden_Cambridge 1336
_journal_volume 13
_journal_year 2011
_journal_page_first 1098
_journal_name_full 'Org.Lett. '
loop_
_publ_author_name
"T.Saito"
"S.Ogawa"
"N.Takei"
"N.Kutsumura"
"T.Otani"
_chemical_name_systematic
;
4-(4-Methoxybenzylidene)-2-(4-nitrophenyl)-4H-3,1-benzoxazine
;
_cell_volume   1727.553
_exptl_crystal_colour 'red'
_exptl_crystal_density_diffrn 1.432
_exptl_crystal_description 'block'
_exptl_crystal_preparation 'chloroform/hexane'
_diffrn_ambient_temperature 100.1
#These two values have been output from a single CSD field.
_refine_ls_R_factor_gt 0.0656
_refine_ls_wR_factor_gt 0.0656
_symmetry_cell_setting orthorhombic
_symmetry_space_group_name_H-M 'P 21 21 21'
_symmetry_Int_Tables_number 19
loop_
_symmetry_equiv_pos_site_id
_symmetry_equiv_pos_as_xyz
1 x,y,z
2 1/2+x,1/2-y,-z
3 -x,1/2+y,1/2-z
4 1/2-x,-y,1/2+z
_cell_length_a 6.0165(4)
_cell_length_b 8.1091(4)
_cell_length_c 35.4091(18)
_cell_angle_alpha 90
_cell_angle_beta 90
_cell_angle_gamma 90
_cell_formula_units_Z 4
loop_
_atom_type_symbol
_atom_type_radius_bond
C 0.68
H 0.23
N 0.68
O 0.68
loop_
_atom_site_label
_atom_site_type_symbol
_atom_site_fract_x
_atom_site_fract_y
_atom_site_fract_z
O1 O -0.0010(3) -0.0421(2) 0.54551(6)
O2 O -0.0568(3) -0.0142(2) 0.60555(6)
O3 O 0.5572(3) 0.6102(2) 0.80184(6)
O4 O 0.8621(3) 0.4660(2) 0.62449(5)
N1 N 0.9456(4) 0.4405(3) 0.55976(7)
N2 N 0.0516(4) 0.0101(3) 0.57670(7)
C1 C 0.8270(5) 0.4085(3) 0.58846(8)
C2 C 1.0362(5) 0.5745(3) 0.63199(9)
C3 C 1.1870(5) 0.6079(4) 0.60022(9)
C4 C 1.3793(5) 0.7027(4) 0.60404(9)
C5 C 1.5139(5) 0.7332(3) 0.57291(9)
C6 C 1.4565(5) 0.6686(3) 0.53808(9)
C7 C 1.2679(5) 0.5729(3) 0.53405(9)
C8 C 1.1332(5) 0.5415(3) 0.56504(9)
C9 C 1.0525(5) 0.6386(3) 0.66670(8)
C10 C 0.9163(5) 0.6227(3) 0.70065(8)
C11 C 0.7181(5) 0.5322(4) 0.70299(9)
C12 C 0.5934(5) 0.5252(4) 0.73614(8)
C13 C 0.6655(5) 0.6096(4) 0.76775(9)
C14 C 0.8597(6) 0.7012(4) 0.76598(9)
C15 C 0.9818(5) 0.7071(4) 0.73311(9)
C16 C 0.6280(5) 0.3028(3) 0.58610(8)
C17 C 0.5704(5) 0.2335(3) 0.55100(8)
C18 C 0.3817(5) 0.1365(3) 0.54776(8)
C19 C 0.2549(5) 0.1096(3) 0.57961(8)
C20 C 0.3093(5) 0.1731(3) 0.61441(9)
C21 C 0.4967(5) 0.2694(4) 0.61709(8)
C22 C 0.3758(5) 0.4979(4) 0.80601(9)
H1 H 1.41830 0.74660 0.62800
H2 H 1.64450 0.79800 0.57550
H3 H 1.54760 0.69030 0.51670
H4 H 1.23050 0.52860 0.51000
H5 H 0.66740 0.47400 0.68140
H6 H 0.45990 0.46280 0.73700
H7 H 0.90890 0.76040 0.78760
H8 H 1.11450 0.77040 0.73250
H9 H 0.66100 0.25330 0.52950
H10 H 0.34080 0.08970 0.52420
H11 H 0.22010 0.15100 0.63600
H12 H 0.53670 0.31420 0.64090
H13 H 0.31170 0.50950 0.83130
H14 H 0.42920 0.38470 0.80250
H15 H 0.26200 0.52240 0.78700
H16 H 1.17790 0.70840 0.66990
#END
