
#######################################################################
#
#                 Cambridge Crystallographic Data Centre
#                                CCDC
#
#######################################################################
#
# If this CIF has been generated from an entry in the Cambridge
# Structural Database, then it will include bibliographic, chemical,
# crystal, experimental, refinement or atomic coordinate data resulting
# from the CCDC's data processing and validation procedures.
#
#######################################################################

data_CSD_CIF_ACXHTZ
_audit_creation_date 1978-05-18
_audit_creation_method CSD-ConQuest-V1
_database_code_CSD ACXHTZ
_database_code_depnum_ccdc_archive 'CCDC 1101120'
_chemical_formula_sum 'C9 H15 N3 O6'
_chemical_formula_moiety
;
C9 H15 N3 O6
;
_journal_coden_Cambridge 3
_journal_volume 31
_journal_year 1977
_journal_page_first 875
_journal_name_full 'Acta Chem.Scand. '
loop_
_publ_author_name
"B.Jerslev"
"L.Brehm"
"M.V.Gabrielsen"
_chemical_name_systematic
;
1,3,5-Triacetoxy-hexahydro-1,3,5-triazine
;
_chemical_melting_point 406.15
_cell_volume   2532.774
_exptl_crystal_density_diffrn 1.378
_diffrn_ambient_temperature ?
_diffrn_special_details
;
The study was carried out at room temperature,in the range 283-303K

;
#These two values have been output from a single CSD field.
_refine_ls_R_factor_gt 0.043
_refine_ls_wR_factor_gt 0.043
_symmetry_cell_setting monoclinic
_symmetry_space_group_name_H-M 'C 2/c'
_symmetry_Int_Tables_number 15
loop_
_symmetry_equiv_pos_site_id
_symmetry_equiv_pos_as_xyz
1 x,y,z
2 1/2+x,1/2+y,z
3 -x,y,1/2-z
4 1/2-x,1/2+y,1/2-z
5 -x,-y,-z
6 -1/2-x,-1/2-y,-z
7 x,-y,-1/2+z
8 -1/2+x,-1/2-y,-1/2+z
_cell_length_a 18.448(4)
_cell_length_b 12.991(3)
_cell_length_c 10.860(8)
_cell_angle_alpha 90
_cell_angle_beta 103.31(3)
_cell_angle_gamma 90
_cell_formula_units_Z 8
loop_
_atom_type_symbol
_atom_type_radius_bond
C 0.68
H 0.23
N 0.68
O 0.68
loop_
_atom_site_label
_atom_site_type_symbol
_atom_site_fract_x
_atom_site_fract_y
_atom_site_fract_z
N1 N 0.45200 0.39850 0.45200
C1 C 0.44240 0.40090 0.58120
N2 N 0.37240 0.36130 0.60410
C2 C 0.30900 0.40130 0.51070
N3 N 0.31280 0.40180 0.37800
C3 C 0.38590 0.43560 0.36250
O1 O 0.46580 0.29090 0.42280
O2 O 0.58310 0.34190 0.42590
C4 C 0.53790 0.27550 0.42050
C5 C 0.55320 0.16280 0.41160
O3 O 0.37010 0.24890 0.58650
O4 O 0.42350 0.23520 0.79360
C6 C 0.39760 0.19600 0.69460
C7 C 0.38980 0.08330 0.66920
O5 O 0.30110 0.29530 0.33280
O6 O 0.24230 0.36510 0.14650
C8 C 0.26210 0.29040 0.20990
C9 C 0.24940 0.18040 0.17170
H1 H 0.48300 0.36400 0.63000
H2 H 0.26300 0.36600 0.51700
H3 H 0.39000 0.42000 0.27900
H4 H 0.44500 0.47400 0.60400
H5 H 0.30500 0.47700 0.53300
H6 H 0.38600 0.50900 0.37700
#END
