
#######################################################################
#
#                 Cambridge Crystallographic Data Centre
#                                CCDC
#
#######################################################################
#
# If this CIF has been generated from an entry in the Cambridge
# Structural Database, then it will include bibliographic, chemical,
# crystal, experimental, refinement or atomic coordinate data resulting
# from the CCDC's data processing and validation procedures.
#
#######################################################################

data_CSD_CIF_ADANEZ
_audit_creation_date 2006-07-27
_audit_creation_method CSD-ConQuest-V1
_database_code_CSD ADANEZ
_database_code_depnum_ccdc_archive 'CCDC 608538'
_chemical_formula_sum 'C19 H18 N2 O5'
_chemical_formula_moiety
;
C19 H18 N2 O5
;
_journal_coeditor_code "IUCr YA2003"
_journal_coden_Cambridge 1370
_journal_volume 62
_journal_year 2006
_journal_page_first o1839
_journal_name_full 'Acta Crystallogr.,Sect.E:Struct.Rep.Online '
loop_
_publ_author_name
"Hai-Bo Wang"
"Zhi-Qian Liu"
"Xiao-Chen Yan"
_chemical_name_systematic
;
Methyl 2-((3-(3-methoxyphenyl)-1,2,4-oxadiazol-5-yl)methoxy)phenylacetate
;
_cell_volume   1771.199
_exptl_crystal_colour 'colorless'
_exptl_crystal_density_diffrn 1.329
_exptl_crystal_description 'block'
_exptl_crystal_preparation 'ethanol'
_diffrn_ambient_temperature 293
#These two values have been output from a single CSD field.
_refine_ls_R_factor_gt 0.064
_refine_ls_wR_factor_gt 0.064
_symmetry_cell_setting monoclinic
_symmetry_space_group_name_H-M 'P 21/n'
_symmetry_Int_Tables_number 14
loop_
_symmetry_equiv_pos_site_id
_symmetry_equiv_pos_as_xyz
1 x,y,z
2 1/2-x,1/2+y,1/2-z
3 -x,-y,-z
4 -1/2+x,-1/2-y,-1/2+z
_cell_length_a 8.9620(18)
_cell_length_b 7.9500(16)
_cell_length_c 25.021(5)
_cell_angle_alpha 90
_cell_angle_beta 96.51(3)
_cell_angle_gamma 90
_cell_formula_units_Z 4
loop_
_atom_type_symbol
_atom_type_radius_bond
C 0.68
H 0.23
N 0.68
O 0.68
loop_
_atom_site_label
_atom_site_type_symbol
_atom_site_fract_x
_atom_site_fract_y
_atom_site_fract_z
O1 O 0.6405(4) 0.1837(4) 0.26370(12)
O2 O 0.2142(2) 0.7674(3) 0.10408(10)
O3 O 0.5771(2) 0.9452(2) 0.08893(8)
O4 O 0.8433(3) 1.2865(3) 0.12248(9)
O5 O 0.7804(3) 1.2363(3) 0.03521(10)
N1 N 0.4337(3) 0.6648(3) 0.13539(10)
N2 N 0.1849(3) 0.6123(4) 0.12978(12)
C1 C 0.7608(5) 0.2998(6) 0.26534(18)
H1 H 0.84560 0.25670 0.28810
H2 H 0.73040 0.40530 0.27930
H3 H 0.78800 0.31610 0.22970
C2 C 0.5096(4) 0.2217(5) 0.23335(15)
C3 C 0.4836(4) 0.3701(4) 0.20404(13)
H4 H 0.55970 0.44940 0.20340
C4 C 0.3445(4) 0.3985(4) 0.17601(12)
C5 C 0.2311(4) 0.2810(4) 0.17618(14)
H5 H 0.13760 0.30060 0.15700
C6 C 0.2582(5) 0.1330(5) 0.20528(16)
H6 H 0.18230 0.05330 0.20560
C7 C 0.3942(5) 0.1042(5) 0.23316(16)
H7 H 0.41080 0.00470 0.25240
C8 C 0.3189(3) 0.5598(4) 0.14702(11)
C9 C 0.3617(3) 0.7860(4) 0.10968(12)
C10 C 0.4186(3) 0.9415(4) 0.08541(14)
H8 H 0.37750 0.94800 0.04790
H9 H 0.38390 1.03920 0.10370
C11 C 0.6473(3) 0.8548(3) 0.05144(12)
C12 C 0.5734(4) 0.7454(4) 0.01446(12)
H10 H 0.47050 0.72780 0.01330
C13 C 0.6570(4) 0.6626(4) -0.02078(13)
H11 H 0.60900 0.58880 -0.04600
C14 C 0.8091(4) 0.6872(4) -0.01928(14)
H12 H 0.86410 0.62920 -0.04270
C15 C 0.8791(4) 0.7991(4) 0.01745(14)
H13 H 0.98170 0.81800 0.01810
C16 C 0.7997(3) 0.8838(4) 0.05343(12)
C17 C 0.8748(4) 1.0094(4) 0.09283(14)
H14 H 0.98280 1.00110 0.09290
H15 H 0.85100 0.98220 0.12870
C18 C 0.8255(3) 1.1887(4) 0.07910(14)
C19 C 0.8050(4) 1.4631(4) 0.11286(16)
H16 H 0.82190 1.52420 0.14610
H17 H 0.70120 1.47220 0.09860
H18 H 0.86680 1.50910 0.08750
#END
