
#######################################################################
#
#                 Cambridge Crystallographic Data Centre
#                                CCDC
#
#######################################################################
#
# If this CIF has been generated from an entry in the Cambridge
# Structural Database, then it will include bibliographic, chemical,
# crystal, experimental, refinement or atomic coordinate data resulting
# from the CCDC's data processing and validation procedures.
#
#######################################################################

data_CSD_CIF_ADAXIN
_audit_creation_date 2006-07-27
_audit_creation_method CSD-ConQuest-V1
_database_code_CSD ADAXIN
_database_code_depnum_ccdc_archive 'CCDC 610821'
_chemical_formula_sum 'C22 H18 N4 O6'
_chemical_formula_moiety
;
C22 H18 N4 O6
;
_journal_coeditor_code "IUCr IS2039"
_journal_coden_Cambridge 1370
_journal_volume 62
_journal_year 2006
_journal_page_first o2535
_journal_name_full 'Acta Crystallogr.,Sect.E:Struct.Rep.Online '
loop_
_publ_author_name
"Xue-Mei Li"
"Li-Ping Du"
"Shu-Sheng Zhang"
_chemical_name_systematic
;
3,3'-Dimethyl-2,2'-dinitro-N,N'-(o-phenylene)dibenzamide
;
_cell_volume   1023.102
_exptl_crystal_colour 'pale yellow'
_exptl_crystal_density_diffrn 1.41
_exptl_crystal_description 'column'
_exptl_crystal_preparation 'glacial acetic acid'
_diffrn_ambient_temperature 293
#These two values have been output from a single CSD field.
_refine_ls_R_factor_gt 0.0625
_refine_ls_wR_factor_gt 0.0625
_symmetry_cell_setting triclinic
_symmetry_space_group_name_H-M 'P -1'
_symmetry_Int_Tables_number 2
loop_
_symmetry_equiv_pos_site_id
_symmetry_equiv_pos_as_xyz
1 x,y,z
2 -x,-y,-z
_cell_length_a 9.607(2)
_cell_length_b 10.542(2)
_cell_length_c 11.408(3)
_cell_angle_alpha 86.301(3)
_cell_angle_beta 65.394(3)
_cell_angle_gamma 77.029(3)
_cell_formula_units_Z 2
loop_
_atom_type_symbol
_atom_type_radius_bond
C 0.68
H 0.23
N 0.68
O 0.68
loop_
_atom_site_label
_atom_site_type_symbol
_atom_site_fract_x
_atom_site_fract_y
_atom_site_fract_z
O1 O 0.5133(4) 0.8983(3) 0.1763(3)
O2 O 0.6174(3) 0.8783(2) 0.3108(2)
O3 O 0.43719(18) 0.67844(17) 0.46133(15)
O4 O 0.97132(19) 0.45546(16) 0.66248(18)
O5 O 1.0133(4) 0.1646(3) 0.8634(3)
O6 O 0.8042(3) 0.2330(3) 0.8391(2)
N1 N 0.5980(3) 0.8362(2) 0.2243(3)
N2 N 0.6725(2) 0.61657(18) 0.47493(17)
H1 H 0.77150 0.58760 0.43150
N3 N 0.7699(2) 0.42272(18) 0.62302(18)
H2 H 0.74070 0.37330 0.58460
N4 N 0.9386(3) 0.1840(2) 0.7968(2)
C1 C 0.6745(3) 0.7010(3) 0.1772(2)
C2 C 0.7546(3) 0.6719(3) 0.0450(3)
C3 C 0.8175(3) 0.5420(4) 0.0087(3)
H3 H 0.86960 0.51880 -0.07870
C4 C 0.8056(3) 0.4456(3) 0.0976(3)
H4 H 0.84650 0.35880 0.06960
C5 C 0.7336(3) 0.4770(3) 0.2273(3)
H5 H 0.72970 0.41190 0.28700
C6 C 0.6666(3) 0.6060(2) 0.2692(2)
C7 C 0.5801(2) 0.6390(2) 0.4110(2)
C8 C 0.6167(2) 0.6378(2) 0.6101(2)
C9 C 0.5163(3) 0.7549(2) 0.6702(2)
H6 H 0.48510 0.82020 0.62180
C10 C 0.4632(3) 0.7735(3) 0.8016(3)
H7 H 0.39640 0.85160 0.84150
C11 C 0.5085(3) 0.6772(3) 0.8745(2)
H8 H 0.47090 0.68980 0.96320
C12 C 0.6099(3) 0.5621(3) 0.8151(2)
H9 H 0.64120 0.49760 0.86410
C13 C 0.6653(2) 0.5422(2) 0.6832(2)
C14 C 0.9122(2) 0.3849(2) 0.6244(2)
C15 C 1.0013(2) 0.2490(2) 0.5739(2)
C16 C 1.0226(3) 0.1517(2) 0.6577(2)
C17 C 1.1165(3) 0.0283(2) 0.6159(2)
C18 C 1.1930(3) 0.0054(2) 0.4835(3)
H10 H 1.25820 -0.07560 0.45140
C19 C 1.1748(3) 0.0994(2) 0.3983(3)
H11 H 1.22760 0.08100 0.31000
C20 C 1.0787(3) 0.2210(2) 0.4428(2)
H12 H 1.06620 0.28360 0.38460
C21 C 0.7804(5) 0.7769(5) -0.0545(3)
H13 H 0.83870 0.73710 -0.13930
H14 H 0.83810 0.83270 -0.03920
H15 H 0.68080 0.82750 -0.04790
C22 C 1.1334(4) -0.0781(3) 0.7071(3)
H16 H 1.07340 -0.04540 0.79440
H17 H 1.24190 -0.10640 0.69180
H18 H 1.09570 -0.15010 0.69300
#END
