
#######################################################################
#
#                 Cambridge Crystallographic Data Centre
#                                CCDC
#
#######################################################################
#
# If this CIF has been generated from an entry in the Cambridge
# Structural Database, then it will include bibliographic, chemical,
# crystal, experimental, refinement or atomic coordinate data resulting
# from the CCDC's data processing and validation procedures.
#
#######################################################################

data_CSD_CIF_ADEQIK
_audit_creation_date 2006-07-27
_audit_creation_method CSD-ConQuest-V1
_database_code_CSD ADEQIK
_database_code_depnum_ccdc_archive 'CCDC 613673'
_chemical_formula_sum 'C32 H24 N2 O6'
_chemical_formula_moiety
;
C32 H24 N2 O6
;
_journal_coeditor_code "IUCr ER2009"
_journal_coden_Cambridge 1370
_journal_volume 62
_journal_year 2006
_journal_page_first o2819
_journal_name_full 'Acta Crystallogr.,Sect.E:Struct.Rep.Online '
loop_
_publ_author_name
"M.Arslan"
"E.Asker"
"J.Masnovi"
"R.J.Baker"
_chemical_name_systematic
;
10,10'-Dinitro-10,10'-(butane-1,4-diyl)dianthracen-9(10H)-one
;
_chemical_melting_point 464
_cell_volume   1296.477
_exptl_crystal_colour 'pale yellow'
_exptl_crystal_density_diffrn 1.364
_exptl_special_details
;
Melting point range 464-465K

;
_exptl_crystal_description 'cube'
_exptl_crystal_preparation 'dichloromethane'
_diffrn_ambient_temperature 295
#These two values have been output from a single CSD field.
_refine_ls_R_factor_gt 0.042
_refine_ls_wR_factor_gt 0.042
_symmetry_cell_setting monoclinic
_symmetry_space_group_name_H-M 'P 21/c'
_symmetry_Int_Tables_number 14
loop_
_symmetry_equiv_pos_site_id
_symmetry_equiv_pos_as_xyz
1 x,y,z
2 -x,1/2+y,1/2-z
3 -x,-y,-z
4 x,-1/2-y,-1/2+z
_cell_length_a 11.316(1)
_cell_length_b 8.330(1)
_cell_length_c 13.880(2)
_cell_angle_alpha 90
_cell_angle_beta 97.728(9)
_cell_angle_gamma 90
_cell_formula_units_Z 2
loop_
_atom_type_symbol
_atom_type_radius_bond
C 0.68
H 0.23
N 0.68
O 0.68
loop_
_atom_site_label
_atom_site_type_symbol
_atom_site_fract_x
_atom_site_fract_y
_atom_site_fract_z
O1 O 0.06637(16) 0.2101(2) 0.80619(12)
O2 O 0.24334(15) 0.2982(2) 0.82085(12)
O3 O 0.48438(13) 0.2286(2) 0.54283(13)
N1 N 0.15881(15) 0.2324(2) 0.77504(12)
C1 C 0.4565(2) -0.0539(3) 0.64346(17)
H1 H 0.52400 -0.04320 0.61250
C2 C 0.4420(2) -0.1881(3) 0.69632(18)
H2 H 0.49880 -0.26930 0.70030
C3 C 0.3432(2) -0.2045(3) 0.74425(18)
H3 H 0.33450 -0.29570 0.78140
C4 C 0.2574(2) -0.0851(3) 0.73693(16)
H4 H 0.19100 -0.09620 0.76920
C5 C 0.27012(16) 0.0511(2) 0.68162(13)
C6 C 0.12032(18) 0.4543(2) 0.61030(15)
H5 H 0.05210 0.44660 0.64060
C7 C 0.1405(2) 0.5918(3) 0.56053(17)
H6 H 0.08690 0.67670 0.55840
C8 C 0.2398(2) 0.6041(3) 0.51388(18)
H7 H 0.25280 0.69650 0.47920
C9 C 0.3192(2) 0.4805(3) 0.51862(16)
H8 H 0.38620 0.48920 0.48690
C10 C 0.30146(16) 0.3405(2) 0.57054(13)
C11 C 0.39230(17) 0.2126(3) 0.57908(14)
C12 C 0.37151(16) 0.0677(3) 0.63519(14)
C13 C 0.17176(15) 0.1757(2) 0.66974(12)
C14 C 0.19957(15) 0.3267(2) 0.61629(13)
C15 C 0.05311(15) 0.1013(2) 0.62416(13)
H9 H 0.03260 0.01370 0.66490
H10 H -0.00930 0.18150 0.62190
C16 C 0.05872(15) 0.0383(2) 0.52187(13)
H11 H 0.07750 0.12630 0.48070
H12 H 0.12210 -0.04040 0.52390
O1B O -0.06637(16) -0.2101(2) 0.19381(12)
O2B O -0.24334(15) -0.2982(2) 0.17915(12)
O3B O -0.48438(13) -0.2286(2) 0.45717(13)
N1B N -0.15881(15) -0.2324(2) 0.22496(12)
C1B C -0.4565(2) 0.0539(3) 0.35654(17)
H1B H -0.52400 0.04320 0.38750
C2B C -0.4420(2) 0.1881(3) 0.30368(18)
H2B H -0.49880 0.26930 0.29970
C3B C -0.3432(2) 0.2045(3) 0.25575(18)
H3B H -0.33450 0.29570 0.21860
C4B C -0.2574(2) 0.0851(3) 0.26307(16)
H4B H -0.19100 0.09620 0.23080
C5B C -0.27012(16) -0.0511(2) 0.31838(13)
C6B C -0.12032(18) -0.4543(2) 0.38970(15)
H5B H -0.05210 -0.44660 0.35940
C7B C -0.1405(2) -0.5918(3) 0.43947(17)
H6B H -0.08690 -0.67670 0.44160
C8B C -0.2398(2) -0.6041(3) 0.48612(18)
H7B H -0.25280 -0.69650 0.52080
C9B C -0.3192(2) -0.4805(3) 0.48138(16)
H8B H -0.38620 -0.48920 0.51310
C10B C -0.30146(16) -0.3405(2) 0.42946(13)
C11B C -0.39230(17) -0.2126(3) 0.42092(14)
C12B C -0.37151(16) -0.0677(3) 0.36481(14)
C13B C -0.17176(15) -0.1757(2) 0.33026(12)
C14B C -0.19957(15) -0.3267(2) 0.38371(13)
C15B C -0.05311(15) -0.1013(2) 0.37584(13)
H9B H -0.03260 -0.01370 0.33510
H10B H 0.00930 -0.18150 0.37810
C16B C -0.05872(15) -0.0383(2) 0.47813(13)
H11B H -0.07750 -0.12630 0.51930
H12B H -0.12210 0.04040 0.47610
#END
