
#######################################################################
#
#                 Cambridge Crystallographic Data Centre
#                                CCDC
#
#######################################################################
#
# If this CIF has been generated from an entry in the Cambridge
# Structural Database, then it will include bibliographic, chemical,
# crystal, experimental, refinement or atomic coordinate data resulting
# from the CCDC's data processing and validation procedures.
#
#######################################################################

data_CSD_CIF_ADIFEA
_audit_creation_date 2013-02-01
_audit_creation_method CSD-ConQuest-V1
_database_code_CSD ADIFEA
_database_code_depnum_ccdc_archive 'CCDC 907945'
_chemical_formula_sum 'C23 H18 N4 O4'
_chemical_formula_moiety
;
C23 H18 N4 O4
;
_journal_coden_Cambridge 35
_journal_volume 77
_journal_year 2012
_journal_page_first 1101
_journal_name_full 'J.Org.Chem. '
loop_
_publ_author_name
"M.L.McIntosh"
"R.C.Johnston"
"O.Pattawong"
"B.O.Ashburn"
"M.R.Naffziger"
"P.H.-Y.Cheong"
"R.G.Carter"
_chemical_name_systematic
;
Methyl 1-benzyl-4-(3-nitrobiphenyl-2-yl)-1H-1,2,3-triazole-5-carboxylate
;
_cell_volume   1988.411
_exptl_crystal_colour 'colorless'
_exptl_crystal_density_diffrn 1.384
_exptl_crystal_description 'block'
_diffrn_ambient_temperature 173
#These two values have been output from a single CSD field.
_refine_ls_R_factor_gt 0.0373
_refine_ls_wR_factor_gt 0.0373
_symmetry_cell_setting monoclinic
_symmetry_space_group_name_H-M 'P 21/c'
_symmetry_Int_Tables_number 14
loop_
_symmetry_equiv_pos_site_id
_symmetry_equiv_pos_as_xyz
1 x,y,z
2 -x,1/2+y,1/2-z
3 -x,-y,-z
4 x,-1/2-y,-1/2+z
_cell_length_a 9.3017(7)
_cell_length_b 9.7642(7)
_cell_length_c 21.9140(16)
_cell_angle_alpha 90
_cell_angle_beta 92.503(1)
_cell_angle_gamma 90
_cell_formula_units_Z 4
loop_
_atom_type_symbol
_atom_type_radius_bond
C 0.68
H 0.23
N 0.68
O 0.68
loop_
_atom_site_label
_atom_site_type_symbol
_atom_site_fract_x
_atom_site_fract_y
_atom_site_fract_z
O1 O 0.12191(18) 0.92115(15) -0.09501(6)
O2 O 0.23326(12) 0.73918(11) -0.06412(5)
O3 O 0.40871(10) 0.43099(10) 0.09393(5)
O4 O 0.49092(9) 0.64331(9) 0.07822(5)
N1 N 0.20036(14) 0.85947(13) -0.05851(5)
N2 N 0.04797(11) 0.73725(11) 0.05451(5)
N3 N 0.00496(11) 0.61086(11) 0.06473(5)
N4 N 0.12148(11) 0.53409(10) 0.07692(4)
C1 C 0.26850(13) 0.87307(12) 0.05166(5)
C2 C 0.26171(14) 0.93504(13) -0.00562(6)
C3 C 0.31590(16) 1.06367(14) -0.01727(6)
C4 C 0.38479(16) 1.13365(14) 0.03014(7)
C5 C 0.39469(14) 1.07557(14) 0.08779(6)
C6 C 0.33611(12) 0.94690(13) 0.10000(5)
C7 C 0.34389(13) 0.89630(13) 0.16398(5)
C8 C 0.47391(15) 0.90094(17) 0.19781(6)
C9 C 0.48196(16) 0.86210(19) 0.25852(7)
C10 C 0.35965(16) 0.81830(15) 0.28662(6)
C11 C 0.22954(15) 0.81383(13) 0.25375(6)
C12 C 0.22153(13) 0.85241(13) 0.19276(6)
C13 C 0.19404(13) 0.74098(12) 0.06093(5)
C14 C 0.24319(13) 0.61140(12) 0.07508(5)
C15 C 0.38742(13) 0.55034(12) 0.08380(5)
C16 C 0.63642(15) 0.59018(17) 0.08664(9)
C17 C 0.10089(15) 0.39030(13) 0.09391(6)
C18 C 0.12339(13) 0.36606(12) 0.16179(6)
C19 C 0.11893(14) 0.47164(13) 0.20408(6)
C20 C 0.13384(14) 0.44434(15) 0.26612(6)
C21 C 0.15294(14) 0.31133(15) 0.28650(6)
C22 C 0.15887(15) 0.20527(15) 0.24459(7)
C23 C 0.14366(14) 0.23246(13) 0.18263(6)
H1 H 0.3086(18) 1.1008(17) -0.0579(8)
H2 H 0.4249(17) 1.2204(17) 0.0247(7)
H3 H 0.4396(16) 1.1278(16) 0.1209(7)
H4 H 0.5607(18) 0.9311(17) 0.1777(7)
H5 H 0.5721(19) 0.8647(18) 0.2806(8)
H6 H 0.3640(17) 0.7904(16) 0.3287(8)
H7 H 0.1424(17) 0.7864(16) 0.2733(7)
H8 H 0.1321(16) 0.8536(14) 0.1708(7)
H9 H 0.654(2) 0.562(2) 0.1299(9)
H10 H 0.700(2) 0.663(2) 0.0763(8)
H11 H 0.647(2) 0.511(2) 0.0619(9)
H12 H 0.0036(17) 0.3703(16) 0.0812(7)
H13 H 0.1673(17) 0.3318(16) 0.0703(7)
H14 H 0.1055(16) 0.5662(17) 0.1905(7)
H15 H 0.1283(17) 0.5192(17) 0.2943(7)
H16 H 0.1614(16) 0.2937(16) 0.3301(7)
H17 H 0.1725(17) 0.1144(17) 0.2577(7)
H18 H 0.1440(17) 0.1594(17) 0.1540(7)
#END
