
#######################################################################
#
#                 Cambridge Crystallographic Data Centre
#                                CCDC
#
#######################################################################
#
# If this CIF has been generated from an entry in the Cambridge
# Structural Database, then it will include bibliographic, chemical,
# crystal, experimental, refinement or atomic coordinate data resulting
# from the CCDC's data processing and validation procedures.
#
#######################################################################

data_CSD_CIF_ADOGUX
_audit_creation_date 2013-02-01
_audit_creation_method CSD-ConQuest-V1
_database_code_CSD ADOGUX
_database_code_depnum_ccdc_archive 'CCDC 858581'
_chemical_formula_sum 'C20 H20 N4 O5'
_chemical_formula_moiety
;
C20 H20 N4 O5
;
_journal_coden_Cambridge 182
_journal_volume 48
_journal_year 2012
_journal_page_first 11205
_journal_name_full 'Chem.Commun. '
loop_
_publ_author_name
"V.V.E.Ramesh"
"G.Priya"
"A.S.Kotmale"
"R.G.Gonnade"
"P.R.Rajamohanan"
"G.J.Sanjayan"
_chemical_name_systematic
;
N-Methyl-1-(2-((2-nitrobenzoyl)amino)benzoyl)prolinamide
;
_cell_volume    984.095
_exptl_crystal_colour 'colorless'
_exptl_crystal_density_diffrn 1.338
_exptl_crystal_description 'needle'
_diffrn_ambient_temperature 100
#These two values have been output from a single CSD field.
_refine_ls_R_factor_gt 0.0386
_refine_ls_wR_factor_gt 0.0386
_symmetry_cell_setting monoclinic
_symmetry_space_group_name_H-M 'P 21'
_symmetry_Int_Tables_number 4
loop_
_symmetry_equiv_pos_site_id
_symmetry_equiv_pos_as_xyz
1 x,y,z
2 -x,1/2+y,-z
_cell_length_a 10.9252(7)
_cell_length_b 8.9395(6)
_cell_length_c 11.2908(7)
_cell_angle_alpha 90
_cell_angle_beta 116.821(2)
_cell_angle_gamma 90
_cell_formula_units_Z 2
loop_
_atom_type_symbol
_atom_type_radius_bond
C 0.68
H 0.23
N 0.68
O 0.68
loop_
_atom_site_label
_atom_site_type_symbol
_atom_site_fract_x
_atom_site_fract_y
_atom_site_fract_z
N1 N 0.23037(13) 0.60240(17) 0.73226(12)
N2 N 0.34339(12) 0.94110(16) 0.75319(11)
N3 N 0.39620(15) 0.98635(19) 1.09508(13)
N4 N -0.12151(14) 0.66226(19) 0.72707(15)
O1 O 0.0512(1) 0.43549(14) 0.63954(10)
O2 O 0.53361(11) 0.80128(15) 0.86041(11)
O3 O 0.31492(15) 0.79683(16) 0.95045(12)
O4 O -0.08456(12) 0.71649(16) 0.64860(12)
O5 O -0.23962(12) 0.6637(2) 0.71104(16)
C1 C 0.12258(14) 0.52091(18) 0.72725(13)
C2 C 0.28039(14) 0.60475(18) 0.63656(13)
C3 C 0.37267(14) 0.71766(19) 0.64570(14)
C4 C 0.42750(16) 0.7247(2) 0.55530(15)
C5 C 0.38957(17) 0.6184(2) 0.45524(15)
C6 C 0.29961(16) 0.5056(2) 0.44722(14)
C7 C 0.24366(15) 0.4970(2) 0.53651(14)
C8 C 0.42352(14) 0.82526(18) 0.76079(14)
C9 C 0.36865(16) 1.02900(19) 0.87187(14)
C10 C 0.25481(18) 1.1479(2) 0.81739(17)
C11 C 0.13739(18) 1.0682(2) 0.70146(19)
C12 C 0.21112(17) 0.9792(2) 0.63807(15)
C13 C 0.35768(16) 0.9259(2) 0.97596(15)
C14 C 0.3914(2) 0.8985(2) 1.20165(17)
C15 C 0.10322(14) 0.53944(18) 0.85110(14)
C16 C -0.01578(16) 0.5966(2) 0.84948(16)
C17 C -0.03711(19) 0.6013(3) 0.96176(19)
C18 C 0.0652(2) 0.5491(3) 1.08027(18)
C19 C 0.18506(18) 0.4911(2) 1.08481(16)
C20 C 0.20368(15) 0.4863(2) 0.97107(14)
H1 H 0.260(2) 0.666(3) 0.793(2)
H2 H 0.418(2) 1.073(3) 1.1073(18)
H3 H 0.4887(17) 0.802(2) 0.5626(15)
H4 H 0.4267(18) 0.620(2) 0.3933(17)
H5 H 0.2754(17) 0.428(2) 0.3833(17)
H6 H 0.1800(19) 0.415(2) 0.5271(17)
H7 H 0.4593(19) 1.073(2) 0.9105(17)
H8 H 0.289(2) 1.229(3) 0.7913(19)
H9 H 0.2359(18) 1.180(2) 0.8882(18)
H10 H 0.073(2) 1.144(3) 0.640(2)
H11 H 0.087(2) 0.991(3) 0.7328(19)
H12 H 0.166(2) 0.895(3) 0.595(2)
H13 H 0.2310(19) 1.043(2) 0.5739(19)
H14 H 0.300(2) 0.866(3) 1.174(2)
H15 H 0.4176(19) 0.954(2) 1.2787(19)
H16 H 0.453(3) 0.801(4) 1.220(2)
H17 H -0.122(2) 0.646(3) 0.9509(18)
H18 H 0.054(2) 0.559(3) 1.159(2)
H19 H 0.2601(18) 0.453(2) 1.1712(18)
H20 H 0.2870(18) 0.447(2) 0.9777(17)
#END
