
#######################################################################
#
#                 Cambridge Crystallographic Data Centre
#                                CCDC
#
#######################################################################
#
# If this CIF has been generated from an entry in the Cambridge
# Structural Database, then it will include bibliographic, chemical,
# crystal, experimental, refinement or atomic coordinate data resulting
# from the CCDC's data processing and validation procedures.
#
#######################################################################

data_CSD_CIF_ADOHAE
_audit_creation_date 2013-02-01
_audit_creation_method CSD-ConQuest-V1
_database_code_CSD ADOHAE
_database_code_depnum_ccdc_archive 'CCDC 858582'
_chemical_formula_sum 'C23 H26 N4 O5'
_chemical_formula_moiety
;
C23 H26 N4 O5
;
_journal_coden_Cambridge 182
_journal_volume 48
_journal_year 2012
_journal_page_first 11205
_journal_name_full 'Chem.Commun. '
loop_
_publ_author_name
"V.V.E.Ramesh"
"G.Priya"
"A.S.Kotmale"
"R.G.Gonnade"
"P.R.Rajamohanan"
"G.J.Sanjayan"
_chemical_name_systematic
;
N-t-Butyl-1-(2-((2-nitrobenzoyl)amino)benzoyl)prolinamide
;
_cell_volume   2249.586
_exptl_crystal_colour 'colorless'
_exptl_crystal_density_diffrn 1.295
_exptl_crystal_description 'needle'
_diffrn_ambient_temperature 100
#These two values have been output from a single CSD field.
_refine_ls_R_factor_gt 0.042
_refine_ls_wR_factor_gt 0.042
_symmetry_cell_setting orthorhombic
_symmetry_space_group_name_H-M 'P 21 21 21'
_symmetry_Int_Tables_number 19
loop_
_symmetry_equiv_pos_site_id
_symmetry_equiv_pos_as_xyz
1 x,y,z
2 1/2-x,-y,1/2+z
3 -x,1/2+y,1/2-z
4 1/2+x,1/2-y,-z
_cell_length_a 7.564(3)
_cell_length_b 15.725(7)
_cell_length_c 18.913(8)
_cell_angle_alpha 90
_cell_angle_beta 90
_cell_angle_gamma 90
_cell_formula_units_Z 4
loop_
_atom_type_symbol
_atom_type_radius_bond
C 0.68
H 0.23
N 0.68
O 0.68
loop_
_atom_site_label
_atom_site_type_symbol
_atom_site_fract_x
_atom_site_fract_y
_atom_site_fract_z
O1 O 0.5790(2) 0.37348(10) 0.82335(8)
O2 O 0.4688(2) 0.72205(10) 0.91805(8)
O3 O 0.4052(2) 0.56324(9) 1.01145(8)
O4 O 0.1946(2) 0.39273(11) 0.90750(9)
O5 O 0.1141(2) 0.40064(12) 1.01753(10)
N1 N 0.5031(2) 0.50282(11) 0.86956(10)
N2 N 0.2225(2) 0.64133(11) 0.90664(9)
N3 N 0.2884(3) 0.64902(13) 1.09633(10)
N4 N 0.2251(3) 0.39013(12) 0.97135(11)
C1 C 0.5383(3) 0.41915(14) 0.87274(12)
C2 C 0.5031(3) 0.55472(14) 0.80806(11)
C3 C 0.4405(3) 0.63813(14) 0.81393(11)
C4 C 0.4408(3) 0.69212(15) 0.75577(12)
C5 C 0.5022(3) 0.66311(15) 0.69129(13)
C6 C 0.5668(3) 0.58161(15) 0.68559(13)
C7 C 0.5695(3) 0.52734(15) 0.74313(12)
C8 C 0.3774(3) 0.67198(13) 0.88365(11)
C9 C 0.1642(3) 0.65582(14) 0.97950(11)
H1 H 0.14640 0.71790 0.98850
C10 C -0.0134(3) 0.60784(15) 0.98326(12)
H2 H 0.00350 0.54970 1.00210
H3 H -0.09870 0.63850 1.01370
C11 C -0.0780(3) 0.60503(15) 0.90684(12)
H4 H -0.13840 0.65860 0.89380
H5 H -0.16000 0.55680 0.89930
C12 C 0.0927(3) 0.59335(14) 0.86426(12)
H6 H 0.12570 0.53260 0.86070
H7 H 0.08120 0.61740 0.81610
C13 C 0.3004(3) 0.61883(13) 1.03095(11)
C14 C 0.4001(3) 0.62272(15) 1.15731(11)
C15 C 0.3319(4) 0.6722(2) 1.22099(14)
C16 C 0.5918(3) 0.64617(18) 1.14220(14)
C17 C 0.3834(4) 0.52757(17) 1.17048(14)
C18 C 0.5466(3) 0.38255(13) 0.94682(12)
C19 C 0.4067(3) 0.37081(14) 0.99355(12)
C20 C 0.4285(3) 0.33709(14) 1.06063(12)
C21 C 0.5961(4) 0.31307(14) 1.08183(13)
C22 C 0.7368(3) 0.32328(15) 1.03675(13)
C23 C 0.7135(3) 0.35797(14) 0.97002(12)
H8 H 0.473(3) 0.5265(16) 0.9101(13)
H9 H 0.208(3) 0.6872(15) 1.1040(12)
H10 H 0.400(3) 0.7507(15) 0.7623(12)
H11 H 0.501(3) 0.7019(15) 0.6528(12)
H12 H 0.614(3) 0.5637(14) 0.6409(12)
H13 H 0.614(3) 0.4711(15) 0.7378(11)
H14 H 0.323(3) 0.3316(14) 1.0924(12)
H15 H 0.603(3) 0.2893(15) 1.1250(13)
H16 H 0.849(4) 0.3092(17) 1.0500(14)
H17 H 0.813(3) 0.3663(14) 0.9367(11)
H18 H 0.407(4) 0.6585(16) 1.2632(13)
H19 H 0.347(4) 0.7332(19) 1.2142(14)
H20 H 0.204(5) 0.662(2) 1.2312(16)
H21 H 0.665(3) 0.6329(16) 1.1828(13)
H22 H 0.605(4) 0.7113(18) 1.1323(14)
H23 H 0.641(4) 0.6124(18) 1.1002(15)
H24 H 0.461(3) 0.5157(15) 1.2140(13)
H25 H 0.265(4) 0.5131(18) 1.1790(15)
H26 H 0.429(4) 0.4972(16) 1.1297(14)
#END
