
#######################################################################
#
#                 Cambridge Crystallographic Data Centre
#                                CCDC
#
#######################################################################
#
# If this CIF has been generated from an entry in the Cambridge
# Structural Database, then it will include bibliographic, chemical,
# crystal, experimental, refinement or atomic coordinate data resulting
# from the CCDC's data processing and validation procedures.
#
#######################################################################

data_CSD_CIF_ADOKEJ
_audit_creation_date 2002-05-16
_audit_creation_method CSD-ConQuest-V1
_database_code_CSD ADOKEJ
_database_code_depnum_ccdc_archive 'CCDC 181425'
_database_code_depnum_ccdc_journal 1267/713
_chemical_formula_sum 'C14 H17 N1 O1'
_chemical_formula_moiety
;
C14 H17 N1 O1
;
_journal_coden_Cambridge 1267
_journal_volume 216
_journal_year 2001
_journal_page_first 653
_journal_name_full 'Z.Kristallogr.-New Cryst.Struct. '
loop_
_publ_author_name
"C.Meenakshi"
"V.Ramamoorthy"
"S.Muthusubramanian"
"S.Sivasubramanian"
"T.Ziegler"
"J.Lex"
_chemical_name_systematic
;
2-(3,4-Dimethylphenyl)-2-cyclohexene-1-one oxime
;
_chemical_melting_point 428
_cell_volume    604.992
_exptl_crystal_colour 'pale yellow'
_exptl_crystal_density_diffrn 1.182
_exptl_crystal_description 'prism'
_exptl_crystal_preparation 'ethanol'
_diffrn_ambient_temperature 293
#These two values have been output from a single CSD field.
_refine_ls_R_factor_gt 0.0415
_refine_ls_wR_factor_gt 0.0415
_symmetry_cell_setting triclinic
_symmetry_space_group_name_H-M 'P -1'
_symmetry_Int_Tables_number 2
loop_
_symmetry_equiv_pos_site_id
_symmetry_equiv_pos_as_xyz
1 x,y,z
2 -x,-y,-z
_cell_length_a 6.731(1)
_cell_length_b 8.757(1)
_cell_length_c 11.348(1)
_cell_angle_alpha 67.69(1)
_cell_angle_beta 80.71(1)
_cell_angle_gamma 79.29(1)
_cell_formula_units_Z 2
loop_
_atom_type_symbol
_atom_type_radius_bond
C 0.68
H 0.23
N 0.68
O 0.68
loop_
_atom_site_label
_atom_site_type_symbol
_atom_site_fract_x
_atom_site_fract_y
_atom_site_fract_z
C1 C 0.62504(17) 0.68387(14) 0.04289(10)
C2 C 0.50140(17) 0.76848(14) -0.06648(10)
C3 C 0.31097(19) 0.83924(16) -0.04623(12)
C4 C 0.2059(2) 0.83508(19) 0.08170(13)
C5 C 0.3117(2) 0.7010(2) 0.19079(13)
C6 C 0.5402(2) 0.7029(2) 0.16856(13)
C7 C 0.58952(17) 0.77740(14) -0.19785(11)
C8 C 0.47586(19) 0.74609(15) -0.27662(12)
C9 C 0.5493(2) 0.75660(16) -0.40122(12)
C10 C 0.7445(2) 0.79971(17) -0.44951(12)
C11 C 0.8571(2) 0.83183(18) -0.37126(12)
C12 C 0.78238(19) 0.82160(16) -0.24793(12)
C13 C 0.4192(3) 0.7219(3) -0.48179(17)
C14 C 0.8327(3) 0.8109(3) -0.58334(16)
N1 N 0.79653(14) 0.59960(13) 0.02391(9)
O1 O 0.90147(14) 0.52519(13) 0.13440(9)
H1 H 0.232(2) 0.9034(18) -0.1228(14)
H2 H 0.060(3) 0.821(2) 0.0878(16)
H3 H 0.199(3) 0.947(2) 0.0861(15)
H4 H 0.282(2) 0.586(2) 0.1962(15)
H5 H 0.259(3) 0.717(2) 0.2725(18)
H6 H 0.610(2) 0.616(2) 0.2383(16)
H7 H 0.572(3) 0.811(2) 0.1647(16)
H8 H 0.492(3) 0.644(2) -0.5202(17)
H9 H 0.292(3) 0.674(2) -0.4287(19)
H10 H 0.378(3) 0.821(3) -0.553(2)
H11 H 0.843(3) 0.703(3) -0.592(2)
H12 H 0.973(4) 0.848(3) -0.607(2)
H13 H 0.741(4) 0.888(3) -0.646(2)
H14 H 0.342(2) 0.7105(17) -0.2415(13)
H15 H 0.998(3) 0.864(2) -0.4045(15)
H16 H 0.866(2) 0.8450(19) -0.1949(15)
H17 H 1.015(3) 0.477(2) 0.1024(18)
#END
