
#######################################################################
#
#                 Cambridge Crystallographic Data Centre
#                                CCDC
#
#######################################################################
#
# If this CIF has been generated from an entry in the Cambridge
# Structural Database, then it will include bibliographic, chemical,
# crystal, experimental, refinement or atomic coordinate data resulting
# from the CCDC's data processing and validation procedures.
#
#######################################################################

data_CSD_CIF_AFEXEP
_audit_creation_date 2007-10-17
_audit_creation_method CSD-ConQuest-V1
_database_code_CSD AFEXEP
_database_code_depnum_ccdc_archive 'CCDC 660362'
_chemical_formula_sum 'C9 H10 N2 O3'
_chemical_formula_moiety
;
C9 H10 N2 O3
;
_journal_coeditor_code "IUCr CV2289"
_journal_coden_Cambridge 1370
_journal_volume 63
_journal_year 2007
_journal_page_first o3903
_journal_name_full 'Acta Crystallogr.,Sect.E:Struct.Rep.Online '
loop_
_publ_author_name
"Hou-Ying Zhang"
"Ming-Lin Guo"
"Chen-Hu Guo"
"Ya-Nan Ye"
_chemical_name_systematic
;
N-(4-Nitrophenyl)propionamide
;
_cell_volume   1864.703
_exptl_crystal_colour 'yellow'
_exptl_crystal_density_diffrn 1.383
_exptl_crystal_description 'prism'
_diffrn_ambient_temperature 294
#These two values have been output from a single CSD field.
_refine_ls_R_factor_gt 0.0504
_refine_ls_wR_factor_gt 0.0504
_symmetry_cell_setting orthorhombic
_symmetry_space_group_name_H-M 'P b c a'
_symmetry_Int_Tables_number 61
loop_
_symmetry_equiv_pos_site_id
_symmetry_equiv_pos_as_xyz
1 x,y,z
2 1/2-x,-y,1/2+z
3 -x,1/2+y,1/2-z
4 1/2+x,1/2-y,-z
5 -x,-y,-z
6 -1/2+x,y,-1/2-z
7 x,-1/2-y,-1/2+z
8 -1/2-x,-1/2+y,z
_cell_length_a 9.763(3)
_cell_length_b 9.278(3)
_cell_length_c 20.586(5)
_cell_angle_alpha 90
_cell_angle_beta 90
_cell_angle_gamma 90
_cell_formula_units_Z 8
loop_
_atom_type_symbol
_atom_type_radius_bond
C 0.68
H 0.23
N 0.68
O 0.68
loop_
_atom_site_label
_atom_site_type_symbol
_atom_site_fract_x
_atom_site_fract_y
_atom_site_fract_z
N1 N 0.18357(19) 0.9563(2) 0.29421(10)
H1 H 0.10120 0.98150 0.28340
N2 N 0.2399(3) 0.5853(3) 0.50795(12)
O1 O 0.39868(18) 0.9788(2) 0.25400(9)
O2 O 0.1359(2) 0.5464(3) 0.53559(11)
O3 O 0.3528(3) 0.5507(3) 0.52575(13)
C1 C 0.2042(2) 0.8624(3) 0.34674(12)
C2 C 0.3325(3) 0.8307(3) 0.37243(13)
H2 H 0.41070 0.87140 0.35440
C3 C 0.3431(3) 0.7388(3) 0.42472(13)
H3 H 0.42860 0.71640 0.44180
C4 C 0.2270(3) 0.6805(3) 0.45151(12)
C5 C 0.0993(3) 0.7117(3) 0.42755(14)
H4 H 0.02130 0.67280 0.44670
C6 C 0.0888(3) 0.8013(3) 0.37478(13)
H5 H 0.00280 0.82140 0.35750
C7 C 0.2767(2) 1.0102(3) 0.25161(13)
C8 C 0.2166(3) 1.1091(3) 0.20158(13)
H6 H 0.16010 1.18020 0.22340
H7 H 0.15760 1.05340 0.17320
C9 C 0.3215(4) 1.1863(4) 0.16084(15)
H8 H 0.38100 1.24120 0.18850
H9 H 0.27600 1.24980 0.13100
H10 H 0.37450 1.11700 0.13700
#END
