
#######################################################################
#
#                 Cambridge Crystallographic Data Centre
#                                CCDC
#
#######################################################################
#
# If this CIF has been generated from an entry in the Cambridge
# Structural Database, then it will include bibliographic, chemical,
# crystal, experimental, refinement or atomic coordinate data resulting
# from the CCDC's data processing and validation procedures.
#
#######################################################################

data_CSD_CIF_AFIKAC
_audit_creation_date 2007-10-17
_audit_creation_method CSD-ConQuest-V1
_database_code_CSD AFIKAC
_database_code_depnum_ccdc_archive 'CCDC 662413'
_chemical_formula_sum 'C18 H17 N3 O4'
_chemical_formula_moiety
;
C18 H17 N3 O4
;
_journal_coeditor_code "IUCr XU2310"
_journal_coden_Cambridge 1370
_journal_volume 63
_journal_year 2007
_journal_page_first o3827
_journal_name_full 'Acta Crystallogr.,Sect.E:Struct.Rep.Online '
loop_
_publ_author_name
"O.Ozel Guven"
"N.Caylak"
"T.Hokelek"
_chemical_name_systematic
;
N,N-bis(2-(2-Furyl)-2-(hydroxyimino)ethyl)aniline
;
_chemical_melting_point 486
_cell_volume   1631.426
_exptl_crystal_colour 'dark yellow'
_exptl_crystal_density_diffrn 1.382
_exptl_special_details
;
Melting point range 486-487K

;
_exptl_crystal_description 'block'
_exptl_crystal_preparation 'dmso'
_diffrn_ambient_temperature 298
#These two values have been output from a single CSD field.
_refine_ls_R_factor_gt 0.0419
_refine_ls_wR_factor_gt 0.0419
_symmetry_cell_setting monoclinic
_symmetry_space_group_name_H-M 'P 21/n'
_symmetry_Int_Tables_number 14
loop_
_symmetry_equiv_pos_site_id
_symmetry_equiv_pos_as_xyz
1 x,y,z
2 1/2-x,1/2+y,1/2-z
3 -x,-y,-z
4 -1/2+x,-1/2-y,-1/2+z
_cell_length_a 11.2363(2)
_cell_length_b 11.9889(3)
_cell_length_c 12.8785(4)
_cell_angle_alpha 90
_cell_angle_beta 109.886(10)
_cell_angle_gamma 90
_cell_formula_units_Z 4
loop_
_atom_type_symbol
_atom_type_radius_bond
C 0.68
H 0.23
N 0.68
O 0.68
loop_
_atom_site_label
_atom_site_type_symbol
_atom_site_fract_x
_atom_site_fract_y
_atom_site_fract_z
O1 O -0.22619(16) 0.61727(18) 0.45244(14)
O2 O 0.15196(17) 0.66194(17) 0.58964(14)
H1 H 0.230(3) 0.687(3) 0.604(3)
O3 O 0.15759(15) 0.60813(16) 0.08792(13)
O4 O -0.19768(17) 0.72757(18) -0.06184(14)
H2 H -0.279(3) 0.754(3) -0.071(3)
N1 N -0.02799(19) 0.77039(19) 0.27240(16)
N2 N 0.09068(19) 0.69508(17) 0.48006(16)
N3 N -0.14059(18) 0.73967(18) 0.05252(15)
C1 C -0.0994(3) 0.7060(3) 0.3259(2)
H3 H -0.128(3) 0.636(2) 0.286(2)
H4 H -0.176(2) 0.7478(19) 0.3208(17)
C2 C -0.0290(2) 0.67560(19) 0.44496(19)
C3 C -0.0995(2) 0.6263(2) 0.5084(2)
C4 C -0.0747(3) 0.5883(2) 0.6112(2)
H5 H -0.001(2) 0.588(2) 0.661(2)
C5 C -0.1896(3) 0.5536(3) 0.6213(2)
H6 H -0.197(2) 0.523(2) 0.686(2)
C6 C -0.2763(3) 0.5709(3) 0.5256(3)
H7 H -0.363(3) 0.560(2) 0.492(2)
C7 C -0.0231(2) 0.8855(2) 0.27923(19)
C8 C -0.0736(3) 0.9441(3) 0.3477(2)
H8 H -0.108(2) 0.9039(18) 0.3939(18)
C9 C -0.0730(3) 1.0586(3) 0.3505(3)
H9 H -0.106(3) 1.095(2) 0.404(2)
C10 C -0.0184(3) 1.1184(3) 0.2890(3)
H10 H -0.019(3) 1.196(3) 0.288(2)
C11 C 0.0357(3) 1.0632(3) 0.2229(3)
H11 H 0.082(2) 1.100(2) 0.184(2)
C12 C 0.0337(2) 0.9481(3) 0.2178(2)
H12 H 0.067(2) 0.9119(19) 0.1705(19)
C13 C 0.0401(3) 0.7107(3) 0.2132(2)
H13 H 0.127(2) 0.745(2) 0.2293(18)
H14 H 0.057(2) 0.634(2) 0.2408(18)
C14 C -0.0271(2) 0.7019(2) 0.08969(19)
C15 C 0.0415(2) 0.6506(2) 0.02531(19)
C16 C 0.0236(3) 0.6337(2) -0.0823(2)
H15 H -0.052(2) 0.655(2) -0.142(2)
C17 C 0.1327(3) 0.5777(3) -0.0875(3)
H16 H 0.145(3) 0.554(2) -0.151(2)
C18 C 0.2093(3) 0.5647(3) 0.0156(3)
H17 H 0.291(2) 0.529(2) 0.048(2)
#END
