
#######################################################################
#
#                 Cambridge Crystallographic Data Centre
#                                CCDC
#
#######################################################################
#
# If this CIF has been generated from an entry in the Cambridge
# Structural Database, then it will include bibliographic, chemical,
# crystal, experimental, refinement or atomic coordinate data resulting
# from the CCDC's data processing and validation procedures.
#
#######################################################################

data_CSD_CIF_AFIMOT
_audit_creation_date 2013-09-18
_audit_creation_method CSD-ConQuest-V1
_database_code_CSD AFIMOT
_database_code_depnum_ccdc_archive 'CCDC 961846'
_chemical_formula_sum 'C9 H7 N1 O3'
_chemical_formula_moiety
;
C9 H7 N1 O3
;
_journal_coeditor_code "gk2583"
_journal_coden_Cambridge 1370
_journal_volume 69
_journal_year 2013
_journal_page_first o1312
_journal_name_full 'Acta Crystallogr.,Sect.E:Struct.Rep.Online '
loop_
_publ_author_name
"Y.Ishikawa"
"S.Matsuo"
_chemical_name_systematic
;
2-Hydroxyisoquinoline-1,3(2H,4H)-dione
;
_chemical_name_common
;
PDB Chemical Component code: 0N7
;
_cell_volume    730.883
_exptl_crystal_colour 'orange'
_exptl_crystal_density_diffrn 1.61
_exptl_crystal_description 'block'
_diffrn_ambient_temperature 100
#These two values have been output from a single CSD field.
_refine_ls_R_factor_gt 0.0322
_refine_ls_wR_factor_gt 0.0322
_symmetry_cell_setting monoclinic
_symmetry_space_group_name_H-M 'P 21/n'
_symmetry_Int_Tables_number 14
loop_
_symmetry_equiv_pos_site_id
_symmetry_equiv_pos_as_xyz
1 x,y,z
2 1/2-x,1/2+y,1/2-z
3 -x,-y,-z
4 -1/2+x,-1/2-y,-1/2+z
_cell_length_a 12.336(5)
_cell_length_b 8.666(4)
_cell_length_c 7.052(7)
_cell_angle_alpha 90
_cell_angle_beta 104.19(5)
_cell_angle_gamma 90
_cell_formula_units_Z 4
loop_
_atom_type_symbol
_atom_type_radius_bond
C 0.68
H 0.23
N 0.68
O 0.68
loop_
_atom_site_label
_atom_site_type_symbol
_atom_site_fract_x
_atom_site_fract_y
_atom_site_fract_z
O1 O 0.41291(6) 0.60097(8) 0.84881(11)
O2 O 0.71902(6) 0.89780(9) 0.89569(11)
O3 O 0.63125(6) 0.62843(8) 0.92088(12)
N1 N 0.56130(7) 0.75393(9) 0.86013(12)
C1 C 0.37267(8) 0.86193(11) 0.74485(15)
C2 C 0.61776(8) 0.89219(11) 0.84438(14)
C3 C 0.54474(8) 1.02389(11) 0.76248(13)
C4 C 0.42836(8) 1.01072(11) 0.71477(13)
C5 C 0.59616(8) 1.16334(12) 0.73257(14)
C6 C 0.44805(8) 0.72873(11) 0.82056(14)
C7 C 0.53109(9) 1.28959(12) 0.65699(15)
C8 C 0.36371(8) 1.13890(12) 0.63746(15)
C9 C 0.41430(9) 1.27737(12) 0.60954(15)
H1 H 0.32530 0.88130 0.83720
H2 H 0.32240 0.83120 0.61840
H3 H 0.60040 0.56660 0.98290
H4 H 0.67540 1.17100 0.76410
H5 H 0.56550 1.38430 0.63730
H6 H 0.28450 1.13120 0.60370
H7 H 0.36960 1.36410 0.55810
#END
