
#######################################################################
#
#                 Cambridge Crystallographic Data Centre
#                                CCDC
#
#######################################################################
#
# If this CIF has been generated from an entry in the Cambridge
# Structural Database, then it will include bibliographic, chemical,
# crystal, experimental, refinement or atomic coordinate data resulting
# from the CCDC's data processing and validation procedures.
#
#######################################################################

data_CSD_CIF_AFIYAQ
_audit_creation_date 2009-01-29
_audit_creation_method CSD-ConQuest-V1
_database_code_CSD AFIYAQ
_database_code_depnum_ccdc_archive 'CCDC 701419'
_chemical_formula_sum 'C33 H36 N2 O6'
_chemical_formula_moiety
;
C33 H36 N2 O6
;
_journal_coden_Cambridge 4
_journal_volume 130
_journal_year 2008
_journal_page_first 9244
_journal_name_full 'J.Am.Chem.Soc. '
loop_
_publ_author_name
"N.D.Shapiro"
"F.D.Toste"
_chemical_name_systematic
;
1-(4-Hydroxy-2,6-dimethylphenyl)-6-methyl-4-(4-methoxyphenyl)-5-(4-nitrophenyl
)-4,5-dihydroazepin-3-yl pivalate
;
_cell_volume   1473.764
_exptl_crystal_colour 'yellow'
_exptl_crystal_density_diffrn 1.254
_exptl_crystal_description 'block'
_exptl_crystal_preparation 'ethanol'
_diffrn_ambient_temperature 152.2
_refine_special_details
;
The hydroxy moiety is disordered with occupancy 0.43:0.57.

;
#These two values have been output from a single CSD field.
_refine_ls_R_factor_gt 0.0462
_refine_ls_wR_factor_gt 0.0462
_symmetry_cell_setting triclinic
_symmetry_space_group_name_H-M 'P -1'
_symmetry_Int_Tables_number 2
loop_
_symmetry_equiv_pos_site_id
_symmetry_equiv_pos_as_xyz
1 x,y,z
2 -x,-y,-z
_cell_length_a 10.009(1)
_cell_length_b 11.164(1)
_cell_length_c 14.152(2)
_cell_angle_alpha 91.177(2)
_cell_angle_beta 108.735(2)
_cell_angle_gamma 99.232(2)
_cell_formula_units_Z 2
loop_
_atom_type_symbol
_atom_type_radius_bond
C 0.68
H 0.23
N 0.68
O 0.68
loop_
_atom_site_label
_atom_site_type_symbol
_atom_site_fract_x
_atom_site_fract_y
_atom_site_fract_z
O1 O 0.4752(2) 0.8843(2) -0.0411(1)
O2 O 0.5336(2) 0.3115(1) 0.3349(1)
O3 O 0.2362(2) 0.3457(2) 0.6784(1)
O4 O 0.0655(3) -0.0020(2) -0.2058(1)
O5 O -0.1324(3) 0.0686(2) -0.2470(2)
O6? O 0.4870(5) 0.1161(5) 0.2606(4)
O7 O 0.5316(4) 0.1641(4) 0.2310(3)
N1 N 0.3096(2) 0.5031(2) 0.1697(2)
N2 N -0.0163(3) 0.0578(2) -0.1864(2)
C1 C 0.4135(3) 0.4371(2) 0.2216(2)
C2 C 0.3996(3) 0.3398(2) 0.2726(2)
C3 C 0.2733(3) 0.2635(2) 0.2898(2)
C4 C 0.1305(3) 0.2804(2) 0.2128(2)
C5 C 0.1031(3) 0.4109(2) 0.2164(2)
C6 C 0.1812(3) 0.5034(2) 0.1901(2)
C7 C 0.3549(3) 0.6024(2) 0.1164(2)
C8 C 0.3423(3) 0.5787(2) 0.0161(2)
C9 C 0.3854(3) 0.6750(2) -0.0351(2)
C10 C 0.4363(3) 0.7905(2) 0.0114(2)
C11 C 0.4491(3) 0.8127(2) 0.1108(2)
C12 C 0.4094(3) 0.7190(2) 0.1651(2)
C13 C 0.2838(3) 0.4542(2) -0.0355(2)
C14 C 0.4220(3) 0.7466(2) 0.2728(2)
C15 C 0.5749(3) 0.2081(3) 0.3174(2)
C16 C 0.6997(3) 0.1792(2) 0.4005(2)
C17 C 0.7960(4) 0.2913(3) 0.4630(3)
C18 C 0.7857(4) 0.1089(3) 0.3552(3)
C19 C 0.6338(5) 0.0982(4) 0.4643(3)
C20 C 0.2681(3) 0.2844(2) 0.3952(2)
C21 C 0.3198(3) 0.3966(2) 0.4507(2)
C22 C 0.3068(3) 0.4141(2) 0.5436(2)
C23 C 0.2418(3) 0.3192(2) 0.5843(2)
C24 C 0.1897(3) 0.2065(2) 0.5312(2)
C25 C 0.2047(3) 0.1911(2) 0.4373(2)
C26 C 0.1774(4) 0.2475(3) 0.7231(2)
C27 C 0.1019(3) 0.2287(2) 0.1061(2)
C28 C 0.1951(3) 0.1659(2) 0.0786(2)
C29 C 0.1579(3) 0.1108(2) -0.0176(2)
C30 C 0.0270(3) 0.1193(2) -0.0859(2)
C31 C -0.0665(3) 0.1828(2) -0.0613(2)
C32 C -0.0285(3) 0.2364(2) 0.0337(2)
C33 C -0.0182(3) 0.4324(2) 0.2517(2)
H1 H 0.50750 0.46560 0.22030
H2 H 0.28210 0.18080 0.28140
H3 H 0.05880 0.23360 0.23420
H4 H 0.14650 0.57820 0.18440
H5 H 0.37960 0.66070 -0.10280
H6 H 0.48520 0.89270 0.14220
H7 H 0.33650 0.39730 0.00190
H8 H 0.29190 0.45340 -0.10060
H9 H 0.18580 0.43250 -0.04070
H10 H 0.43810 0.67630 0.30850
H11 H 0.50010 0.81130 0.30220
H12 H 0.33590 0.76970 0.27550
H13 H 0.87210 0.26740 0.51480
H14 H 0.83440 0.34250 0.42180
H15 H 0.74200 0.33420 0.49170
H16 H 0.72700 0.03510 0.32120
H17 H 0.81760 0.15670 0.30930
H18 H 0.86620 0.09110 0.40690
H19 H 0.57630 0.14110 0.48970
H20 H 0.57590 0.02720 0.42480
H21 H 0.70770 0.07560 0.51840
H22 H 0.36500 0.46230 0.42380
H23 H 0.34240 0.49140 0.57990
H24 H 0.14450 0.14090 0.55820
H25 H 0.17000 0.11360 0.40110
H26 H 0.23280 0.18470 0.72980
H27 H 0.08150 0.21690 0.68220
H28 H 0.17830 0.27510 0.78730
H29 H 0.28540 0.16070 0.12620
H30 H 0.22180 0.06810 -0.03580
H31 H -0.15590 0.18910 -0.10970
H32 H -0.09270 0.28010 0.05060
H33 H -0.03210 0.51420 0.24310
H34 H 0.00420 0.41790 0.32050
H35 H -0.10330 0.37870 0.21390
H36 H 0.47130 0.86270 -0.11250
H37? H 0.47710 0.96370 -0.00770
#END
