
#######################################################################
#
#                 Cambridge Crystallographic Data Centre
#                                CCDC
#
#######################################################################
#
# If this CIF has been generated from an entry in the Cambridge
# Structural Database, then it will include bibliographic, chemical,
# crystal, experimental, refinement or atomic coordinate data resulting
# from the CCDC's data processing and validation procedures.
#
#######################################################################

data_CSD_CIF_AFIZIA
_audit_creation_date 2013-09-18
_audit_creation_method CSD-ConQuest-V1
_database_code_CSD AFIZIA
_database_code_depnum_ccdc_archive 'CCDC 961848'
_chemical_formula_sum 'C16 H13 N1 O3'
_chemical_formula_moiety
;
C16 H13 N1 O3
;
_journal_coeditor_code "IUCr zl2556"
_journal_coden_Cambridge 1370
_journal_volume 69
_journal_year 2013
_journal_page_first o1311
_journal_name_full 'Acta Crystallogr.,Sect.E:Struct.Rep.Online '
loop_
_publ_author_name
"Y.Ishikawa"
"S.Matsuo"
_chemical_name_systematic
;
2-(Benzyloxy)isoquinoline-1,3(2H,4H)-dione
;
_cell_volume   1279.462
_exptl_crystal_colour 'colorless'
_exptl_crystal_density_diffrn 1.387
_exptl_crystal_description 'block'
_diffrn_ambient_temperature 100
#These two values have been output from a single CSD field.
_refine_ls_R_factor_gt 0.0686
_refine_ls_wR_factor_gt 0.0686
_symmetry_cell_setting orthorhombic
_symmetry_space_group_name_H-M 'P n a 21'
_symmetry_Int_Tables_number 33
loop_
_symmetry_equiv_pos_site_id
_symmetry_equiv_pos_as_xyz
1 x,y,z
2 1/2-x,1/2+y,1/2+z
3 1/2+x,1/2-y,z
4 -x,-y,1/2+z
_cell_length_a 7.677(4)
_cell_length_b 12.003(10)
_cell_length_c 13.885(10)
_cell_angle_alpha 90
_cell_angle_beta 90
_cell_angle_gamma 90
_cell_formula_units_Z 4
loop_
_atom_type_symbol
_atom_type_radius_bond
C 0.68
H 0.23
N 0.68
O 0.68
loop_
_atom_site_label
_atom_site_type_symbol
_atom_site_fract_x
_atom_site_fract_y
_atom_site_fract_z
O1 O 0.3591(6) 0.8028(4) 0.3730(4)
O2 O 0.1647(6) 0.4679(4) 0.2670(4)
O3 O 0.2975(6) 0.6634(4) 0.2295(3)
N1 N 0.2641(7) 0.6331(4) 0.3243(4)
C1 C 0.2937(8) 0.7121(5) 0.3953(5)
C2 C 0.1810(7) 0.5289(5) 0.3351(5)
C3 C 0.1218(8) 0.5009(5) 0.4351(5)
C4 C 0.1467(8) 0.5476(5) 0.6103(5)
C5 C 0.1916(9) 0.6178(5) 0.6834(5)
C6 C 0.2712(9) 0.7203(6) 0.6642(5)
C7 C 0.3035(9) 0.7490(6) 0.5712(5)
C8 C 0.1770(7) 0.5759(5) 0.5142(5)
C9 C 0.2574(8) 0.6785(5) 0.4957(6)
C10 C 0.4704(9) 0.6278(6) 0.2021(5)
C11 C 0.4750(8) 0.6293(5) 0.0941(5)
C12 C 0.5520(8) 0.7162(5) 0.0431(5)
C13 C 0.5527(9) 0.7163(5) -0.0557(5)
C14 C 0.4772(8) 0.6294(6) -0.1066(5)
C15 C 0.3991(8) 0.5420(6) -0.0573(6)
C16 C 0.3984(8) 0.5424(5) 0.0420(5)
H1 H -0.00710 0.49820 0.43490
H2 H 0.16360 0.42490 0.45040
H3 H 0.09360 0.47820 0.62510
H4 H 0.16860 0.59680 0.74810
H5 H 0.30220 0.76900 0.71540
H6 H 0.35840 0.81810 0.55750
H7 H 0.49390 0.55180 0.22660
H8 H 0.55910 0.67910 0.22880
H9 H 0.60470 0.77600 0.07710
H10 H 0.60520 0.77640 -0.08950
H11 H 0.47890 0.62960 -0.17500
H12 H 0.34660 0.48240 -0.09170
H13 H 0.34490 0.48250 0.07560
#END
