
#######################################################################
#
#                 Cambridge Crystallographic Data Centre
#                                CCDC
#
#######################################################################
#
# If this CIF has been generated from an entry in the Cambridge
# Structural Database, then it will include bibliographic, chemical,
# crystal, experimental, refinement or atomic coordinate data resulting
# from the CCDC's data processing and validation procedures.
#
#######################################################################

data_CSD_CIF_AFONOA
_audit_creation_date 2013-09-18
_audit_creation_method CSD-ConQuest-V1
_database_code_CSD AFONOA
_database_code_depnum_ccdc_archive 'CCDC 961814'
_chemical_formula_sum 'C12 H10 N4 O2'
_chemical_formula_moiety
;
C12 H10 N4 O2
;
_journal_coeditor_code "IUCr HB7085"
_journal_coden_Cambridge 1370
_journal_volume 69
_journal_year 2013
_journal_page_first o1073
_journal_name_full 'Acta Crystallogr.,Sect.E:Struct.Rep.Online '
loop_
_publ_author_name
"G.-L.Liu"
"J.Sun"
"J.-C.Zhang"
"J.Mei"
"C.Guo"
_chemical_name_systematic
;
4-Nitro-N^2^-(pyridin-4-ylmethylidene)benzene-1,2-diamine
;
_chemical_melting_point 449.65
_cell_volume   2263.514
_exptl_crystal_colour 'yellow'
_exptl_crystal_density_diffrn 1.422
_exptl_crystal_description 'block'
_exptl_crystal_preparation 'ethanol'
_diffrn_ambient_temperature 293
#These two values have been output from a single CSD field.
_refine_ls_R_factor_gt 0.0575
_refine_ls_wR_factor_gt 0.0575
_symmetry_cell_setting monoclinic
_symmetry_space_group_name_H-M 'C 2/c'
_symmetry_Int_Tables_number 15
loop_
_symmetry_equiv_pos_site_id
_symmetry_equiv_pos_as_xyz
1 x,y,z
2 -x,y,1/2-z
3 1/2+x,1/2+y,z
4 1/2-x,1/2+y,1/2-z
5 -x,-y,-z
6 x,-y,-1/2+z
7 -1/2-x,-1/2-y,-z
8 -1/2+x,-1/2-y,-1/2+z
_cell_length_a 21.324(4)
_cell_length_b 9.1480(18)
_cell_length_c 12.950(3)
_cell_angle_alpha 90
_cell_angle_beta 116.36(3)
_cell_angle_gamma 90
_cell_formula_units_Z 8
loop_
_atom_type_symbol
_atom_type_radius_bond
C 0.68
H 0.23
N 0.68
O 0.68
loop_
_atom_site_label
_atom_site_type_symbol
_atom_site_fract_x
_atom_site_fract_y
_atom_site_fract_z
C1 C 0.32477(14) 0.2795(3) -0.0542(3)
H1 H 0.32290 0.21450 -0.11080
N1 N 0.23039(15) 0.4169(4) -0.2041(3)
O1 O 0.18599(16) 0.5126(4) -0.2272(3)
N2 N 0.42131(15) 0.3378(3) 0.2557(2)
H2 H 0.42190 0.39800 0.30720
H3 H 0.44990 0.26520 0.27540
C2 C 0.27963(16) 0.3970(4) -0.0840(3)
O2 O 0.23537(15) 0.3379(4) -0.2766(3)
N3 N 0.42154(12) 0.1420(2) 0.09465(19)
C3 C 0.28139(17) 0.4952(4) -0.0015(4)
H4 H 0.25060 0.57400 -0.02230
C4 C 0.32854(17) 0.4753(3) 0.1102(4)
H5 H 0.32970 0.54140 0.16560
N4 N 0.53086(14) -0.3605(2) 0.1282(2)
C5 C 0.37562(15) 0.3574(3) 0.1443(3)
C6 C 0.37257(14) 0.2579(3) 0.0586(2)
C7 C 0.40423(15) 0.0216(3) 0.0405(2)
H6 H 0.35970 0.01410 -0.02050
C8 C 0.45009(14) -0.1054(3) 0.0682(2)
C9 C 0.52046(15) -0.1025(3) 0.1456(2)
H7 H 0.54200 -0.01480 0.17890
C10 C 0.55786(15) -0.2301(3) 0.1725(2)
H8 H 0.60500 -0.22580 0.22470
C11 C 0.46362(17) -0.3624(3) 0.0523(3)
H9 H 0.44350 -0.45130 0.01940
C12 C 0.42246(16) -0.2395(3) 0.0201(3)
H10 H 0.37590 -0.24640 -0.03410
#END
