
#######################################################################
#
#                 Cambridge Crystallographic Data Centre
#                                CCDC
#
#######################################################################
#
# If this CIF has been generated from an entry in the Cambridge
# Structural Database, then it will include bibliographic, chemical,
# crystal, experimental, refinement or atomic coordinate data resulting
# from the CCDC's data processing and validation procedures.
#
#######################################################################

data_CSD_CIF_AFOPAM
_audit_creation_date 2002-07-24
_audit_creation_method CSD-ConQuest-V1
_database_code_CSD AFOPAM
_database_code_depnum_ccdc_archive 'CCDC 186064'
_database_code_depnum_ccdc_journal 1267/602
_chemical_formula_sum 'C20 H20 N4 O6'
_chemical_formula_moiety
;
C20 H20 N4 O6
;
_journal_coden_Cambridge 1267
_journal_volume 216
_journal_year 2001
_journal_page_first 383
_journal_name_full 'Z.Kristallogr.-New Cryst.Struct. '
loop_
_publ_author_name
"M.Mathuraman"
"J.-F.Nicoud"
"R.Masse"
"G.R.Desiraju"
_chemical_name_systematic
;
N,N'-Di-5-nitrosalicylidene-(R,S)-1,2-cyclohexanediamine
;
_cell_volume   1953.191
_exptl_crystal_colour 'yellow'
_exptl_crystal_density_diffrn 1.402
_exptl_crystal_description 'oblique prism'
_exptl_crystal_preparation 'ethyl acetate'
_diffrn_ambient_temperature 296.2
#These two values have been output from a single CSD field.
_refine_ls_R_factor_gt 0.042
_refine_ls_wR_factor_gt 0.042
loop_
_citation_database_id_CSD
_citation_special_details
AFONUE "is a stereoisomer of this entry"
_symmetry_cell_setting monoclinic
_symmetry_space_group_name_H-M 'P 21/n'
_symmetry_Int_Tables_number 14
loop_
_symmetry_equiv_pos_site_id
_symmetry_equiv_pos_as_xyz
1 x,y,z
2 1/2-x,1/2+y,1/2-z
3 -x,-y,-z
4 -1/2+x,-1/2-y,-1/2+z
_cell_length_a 9.1865(4)
_cell_length_b 10.7102(7)
_cell_length_c 19.865(1)
_cell_angle_alpha 90
_cell_angle_beta 92.099(3)
_cell_angle_gamma 90
_cell_formula_units_Z 4
loop_
_atom_type_symbol
_atom_type_radius_bond
C 0.68
H 0.23
N 0.68
O 0.68
loop_
_atom_site_label
_atom_site_type_symbol
_atom_site_fract_x
_atom_site_fract_y
_atom_site_fract_z
O1 O 0.41966(12) -0.22763(9) 0.23885(6)
O2 O 0.7275(1) -0.03437(13) 0.50110(6)
O3 O 0.6123(1) 0.13369(13) 0.47177(6)
O4 O 0.54913(13) 0.25797(10) 0.23271(6)
O5 O 0.6912(2) 0.79481(12) 0.13398(7)
O6 O 0.5359(2) 0.73870(11) 0.05632(7)
N1 N 0.27871(13) -0.03072(12) 0.20516(6)
N2 N 0.6440(2) 0.0234(2) 0.46282(7)
N3 N 0.36160(13) 0.19792(11) 0.13967(6)
N4 N 0.6073(2) 0.71867(13) 0.10847(8)
C1 C 0.1794(2) 0.0317(2) 0.15649(8)
C2 C 0.2654(2) 0.1074(1) 0.10519(8)
C3 C 0.3521(2) 0.0238(2) 0.05980(9)
C4 C 0.2534(2) -0.0712(2) 0.02368(10)
C5 C 0.1694(2) -0.1481(2) 0.07328(10)
C6 C 0.0841(2) -0.0649(2) 0.11981(10)
C7 C 0.3246(2) 0.0184(2) 0.26128(8)
C8 C 0.4252(2) -0.04364(13) 0.30575(7)
C9 C 0.4704(2) -0.1688(1) 0.29096(8)
C10 C 0.5729(2) -0.2260(2) 0.33742(9)
C11 C 0.6261(2) -0.1640(2) 0.39226(9)
C12 C 0.5812(2) -0.0416(2) 0.40490(8)
C13 C 0.4824(2) 0.0176(2) 0.36286(8)
C14 C 0.3764(2) 0.3060(1) 0.11387(9)
C15 C 0.4773(2) 0.39726(13) 0.14375(7)
C16 C 0.5603(2) 0.3695(1) 0.20279(8)
C17 C 0.6572(2) 0.4581(2) 0.23027(9)
C18 C 0.6722(2) 0.5714(2) 0.19946(9)
C19 C 0.5910(2) 0.59751(13) 0.14103(8)
C20 C 0.4947(2) 0.5131(1) 0.11334(9)
H1 H 0.122(1) 0.0914(12) 0.1823(7)
H2 H 0.190(2) 0.1514(12) 0.0778(7)
H3 H 0.400(2) 0.0786(13) 0.0266(8)
H4 H 0.428(2) -0.0202(13) 0.0889(8)
H5 H 0.187(2) -0.026(1) -0.0083(8)
H6 H 0.314(2) -0.126(2) -0.0031(8)
H7 H 0.101(2) -0.204(2) 0.0491(9)
H8 H 0.241(2) -0.205(1) 0.1018(8)
H9 H 0.035(2) -0.112(1) 0.1523(8)
H10 H 0.008(2) -0.015(1) 0.0935(8)
H11 H 0.321(2) -0.118(2) 0.2004(9)
H12 H 0.2881(13) 0.0989(12) 0.2722(6)
H13 H 0.604(2) -0.312(1) 0.3278(7)
H14 H 0.693(2) -0.197(1) 0.4254(8)
H15 H 0.454(2) 0.1002(13) 0.3704(7)
H16 H 0.319(2) 0.3303(13) 0.0713(8)
H17 H 0.472(3) 0.206(2) 0.1991(12)
H18 H 0.714(2) 0.4338(13) 0.2707(8)
H19 H 0.736(2) 0.6325(13) 0.2160(7)
H20 H 0.438(2) 0.5310(12) 0.0739(7)
#END
