
#######################################################################
#
#                 Cambridge Crystallographic Data Centre
#                                CCDC
#
#######################################################################
#
# If this CIF has been generated from an entry in the Cambridge
# Structural Database, then it will include bibliographic, chemical,
# crystal, experimental, refinement or atomic coordinate data resulting
# from the CCDC's data processing and validation procedures.
#
#######################################################################

data_CSD_CIF_AFZPYM
_audit_creation_date 1972-07-26
_audit_creation_method CSD-ConQuest-V1
_database_code_CSD AFZPYM
_database_code_depnum_ccdc_archive 'CCDC 1101613'
_chemical_formula_sum 'C4 H3 N5 O1'
_chemical_formula_moiety
;
C4 H3 N5 O1
;
_journal_coden_Cambridge 4
_journal_volume 93
_journal_year 1971
_journal_page_first 7281
_journal_name_full 'J.Am.Chem.Soc. '
loop_
_publ_author_name
"E.Shefter"
"B.E.Evans"
"E.C.Taylor"
_chemical_name_systematic
;
7-Amino-furazano(3,4-d)pyrimidine
;
_cell_volume    541.367
_exptl_crystal_density_diffrn 1.681
_diffrn_ambient_temperature ?
_diffrn_special_details
;
The study was carried out at room temperature,in the range 283-303K

;
_refine_special_details
;
Long C=N bond at N5.

;
#These two values have been output from a single CSD field.
_refine_ls_R_factor_gt 0.076
_refine_ls_wR_factor_gt 0.076
_symmetry_cell_setting monoclinic
_symmetry_space_group_name_H-M 'P 21/c'
_symmetry_Int_Tables_number 14
loop_
_symmetry_equiv_pos_site_id
_symmetry_equiv_pos_as_xyz
1 x,y,z
2 -x,1/2+y,1/2-z
3 -x,-y,-z
4 x,-1/2-y,-1/2+z
_cell_length_a 3.703(1)
_cell_length_b 12.463(2)
_cell_length_c 11.989(3)
_cell_angle_alpha 90
_cell_angle_beta 101.92(3)
_cell_angle_gamma 90
_cell_formula_units_Z 4
loop_
_atom_type_symbol
_atom_type_radius_bond
C 0.68
H 0.20
N 0.68
O 0.68
loop_
_atom_site_label
_atom_site_type_symbol
_atom_site_fract_x
_atom_site_fract_y
_atom_site_fract_z
C1 C 0.18590 0.35340 -0.21420
C2 C 0.39950 0.18840 -0.17170
C3 C 0.59330 0.22200 -0.06280
C4 C 0.55920 0.33470 -0.03320
H1 H 0.05330 0.40450 -0.26790
H2 H 0.68860 0.43910 0.07440
H3 H 0.82840 0.32670 0.10970
N1 N 0.35920 0.39650 -0.11230
N2 N 0.19110 0.25390 -0.25050
N3 N 0.71540 0.37160 0.06630
N4 N 0.76830 0.14210 -0.00700
N5 N 0.46170 0.05400 -0.18290
O1 O 0.69200 0.05700 -0.08060
#END
