
#######################################################################
#
#                 Cambridge Crystallographic Data Centre
#                                CCDC
#
#######################################################################
#
# If this CIF has been generated from an entry in the Cambridge
# Structural Database, then it will include bibliographic, chemical,
# crystal, experimental, refinement or atomic coordinate data resulting
# from the CCDC's data processing and validation procedures.
#
#######################################################################

data_CSD_CIF_AGAFUL
_audit_creation_date 2013-09-19
_audit_creation_method CSD-ConQuest-V1
_database_code_CSD AGAFUL
_database_code_depnum_ccdc_archive 'CCDC 925345'
_chemical_formula_sum 'C34 H28 N6 O6'
_chemical_formula_moiety
;
C34 H28 N6 O6
;
_journal_coden_Cambridge 388
_journal_volume 49
_journal_year 2013
_journal_page_first 607
_journal_name_full 'Zh.Org.Khim.(Russ.)(Russ.J.Org.Chem.) '
loop_
_publ_author_name
"I.V.Galkina"
"G.L.Takhautdinova"
"E.V.Tudrii"
"L.M.Yusupova"
"I.F.Falyakhov"
"O.K.Pozdeev"
"M.P.Shulaeva"
"L.V.Kipenskaya"
"V.G.Sakhibullina"
"D.B.Krivolapov"
"I.A.Litvinov"
"V.I.Galkin"
"R.A.Cherkasov"
_chemical_name_systematic
;
N,N,N',N'-Tetrabenzyl-5,7-dinitro-2,1,3-benzoxadiazole-4,6-diamine 1-oxide
;
_cell_volume   1497.563
_exptl_crystal_colour 'orange'
_exptl_crystal_density_diffrn 1.367
_exptl_crystal_description 'prism'
_diffrn_ambient_temperature 296
#These two values have been output from a single CSD field.
_refine_ls_R_factor_gt 0.0753
_refine_ls_wR_factor_gt 0.0753
_symmetry_cell_setting triclinic
_symmetry_space_group_name_H-M 'P -1'
_symmetry_Int_Tables_number 2
loop_
_symmetry_equiv_pos_site_id
_symmetry_equiv_pos_as_xyz
1 x,y,z
2 -x,-y,-z
_cell_length_a 9.548(5)
_cell_length_b 12.465(7)
_cell_length_c 13.608(7)
_cell_angle_alpha 79.515(7)
_cell_angle_beta 71.609(6)
_cell_angle_gamma 79.489(7)
_cell_formula_units_Z 2
loop_
_atom_type_symbol
_atom_type_radius_bond
C 0.68
H 0.23
N 0.68
O 0.68
loop_
_atom_site_label
_atom_site_type_symbol
_atom_site_fract_x
_atom_site_fract_y
_atom_site_fract_z
N1 N 0.1398(4) 0.1268(4) 0.1910(3)
O1 O -0.0779(4) 0.1767(3) 0.3805(3)
N2 N 0.4152(5) -0.1767(3) 0.3387(3)
C1 C 0.2681(5) -0.0537(4) 0.2332(4)
C2 C 0.0101(5) -0.0006(5) 0.3327(4)
C3 C 0.5516(5) -0.0091(5) 0.2721(5)
O2 O -0.1780(4) 0.0386(3) 0.4802(3)
C4 C 0.0032(5) 0.1892(4) 0.1686(4)
H1 H -0.02400 0.25550 0.20190
H2 H -0.07760 0.14490 0.19900
C5 C 0.4838(5) 0.0481(5) 0.3549(4)
H3 H 0.43190 0.01270 0.41880
C6 C 0.5573(5) -0.1318(4) 0.2818(4)
H4 H 0.59130 -0.15300 0.21200
H5 H 0.63120 -0.16660 0.31700
C7 C 0.1374(5) 0.0288(4) 0.2508(4)
C8 C 0.2772(5) 0.1777(4) 0.1386(3)
H6 H 0.30020 0.17940 0.06360
H7 H 0.35910 0.13270 0.16040
C9 C 0.2897(6) -0.1382(4) 0.3166(4)
C10 C 0.0209(5) 0.2207(5) 0.0527(4)
N3 N 0.3517(5) -0.0772(4) 0.1308(4)
C11 C 0.0153(7) -0.1124(5) 0.3768(4)
O3 O 0.4414(4) -0.1622(3) 0.1219(3)
O4 O 0.3229(4) -0.0164(3) 0.0557(3)
C12 C 0.4291(5) -0.2655(4) 0.4241(4)
H8 H 0.33290 -0.29020 0.45910
H9 H 0.46000 -0.23720 0.47470
C13 C 0.6283(6) 0.0428(6) 0.1783(5)
H10 H 0.67410 0.00340 0.12210
O5 O -0.0180(6) -0.2878(3) 0.4437(3)
C14 C 0.5400(6) -0.3610(4) 0.3842(5)
C15 C 0.0101(6) 0.3283(5) 0.0092(5)
H11 H -0.00620 0.38350 0.05070
C16 C 0.6377(6) 0.1536(7) 0.1670(6)
H12 H 0.68960 0.18890 0.10300
O6 O -0.2231(5) -0.1651(3) 0.4352(3)
C17 C 0.4932(7) 0.1585(6) 0.3429(6)
H13 H 0.44590 0.19810 0.39870
C18 C 0.5720(8) 0.2116(6) 0.2487(7)
H14 H 0.57980 0.28610 0.24150
C19 C 0.0497(6) 0.1693(6) -0.1138(5)
H15 H 0.06080 0.11480 -0.15520
C20 C 0.2634(6) 0.2919(5) 0.1627(6)
C21 C 0.3228(6) 0.3712(7) 0.0830(5)
H16 H 0.36460 0.35470 0.01500
C22 C 0.3193(9) 0.4780(8) 0.1063(8)
H17 H 0.36060 0.53190 0.05360
C23 C 0.2018(6) 0.3191(6) 0.2619(6)
H18 H 0.16160 0.26570 0.31570
C24 C 0.0398(6) 0.1407(5) -0.0085(5)
H19 H 0.04610 0.06700 0.02020
N4 N 0.1357(6) -0.2884(5) 0.4104(3)
C25 C 0.1502(7) -0.1798(5) 0.3737(4)
C26 C 0.0433(7) 0.2754(7) -0.1558(5)
H20 H 0.05270 0.29430 -0.22670
C27 C 0.0230(8) 0.3558(6) -0.0948(6)
H21 H 0.01790 0.42940 -0.12400
C28 C 0.2552(9) 0.5016(8) 0.2061(10)
H22 H 0.25070 0.57230 0.22090
C29 C 0.1978(7) 0.4223(8) 0.2839(6)
H23 H 0.15590 0.43840 0.35210
C30 C 0.7365(11) -0.5417(7) 0.3166(8)
H24 H 0.80050 -0.60420 0.29450
C31 C 0.6351(10) -0.4922(6) 0.2652(7)
H25 H 0.63250 -0.51960 0.20670
C32 C 0.6451(7) -0.4081(5) 0.4341(4)
H26 H 0.65030 -0.37870 0.49080
C33 C 0.5379(7) -0.4033(5) 0.2990(5)
H27 H 0.46890 -0.37060 0.26350
C34 C 0.7445(8) -0.5003(6) 0.3999(7)
H28 H 0.81530 -0.53290 0.43380
N5 N -0.0853(5) 0.0781(5) 0.3981(4)
N6 N -0.0902(6) -0.1751(5) 0.4180(4)
#END
