
#######################################################################
#
#                 Cambridge Crystallographic Data Centre
#                                CCDC
#
#######################################################################
#
# If this CIF has been generated from an entry in the Cambridge
# Structural Database, then it will include bibliographic, chemical,
# crystal, experimental, refinement or atomic coordinate data resulting
# from the CCDC's data processing and validation procedures.
#
#######################################################################

data_CSD_CIF_AGESAG
_audit_creation_date 2002-07-24
_audit_creation_method CSD-ConQuest-V1
_database_code_CSD AGESAG
_database_code_depnum_ccdc_archive 'CCDC 176281'
_chemical_formula_sum 'C27 H18 N2 O4'
_chemical_formula_moiety
;
C27 H18 N2 O4
;
_journal_coden_Cambridge 16
_journal_volume 58
_journal_year 2002
_journal_page_first 3003
_journal_name_full 'Tetrahedron '
loop_
_publ_author_name
"V.Nair"
"D.Sethumadhavan"
"S.M.Nair"
"S.Viji"
"N.P.Rath"
_chemical_name_systematic
;
2'-(4-Methylphenyl)-4'-(4-nitrophenyl)-spiro(acenaphthylene-1(2H),5'(4H)-oxazo
l)-2-one
;
_chemical_melting_point 469.15
_cell_volume   2060.633
_exptl_crystal_colour 'colorless'
_exptl_crystal_density_diffrn 1.4
_exptl_special_details
;
Melting point range 469.15-471.15K

;
_exptl_crystal_description 'rectangular'
_exptl_crystal_preparation 'hexane/dichloromethane'
_diffrn_ambient_temperature 200
#These two values have been output from a single CSD field.
_refine_ls_R_factor_gt 0.0499
_refine_ls_wR_factor_gt 0.0499
_symmetry_cell_setting monoclinic
_symmetry_space_group_name_H-M 'P 21/c'
_symmetry_Int_Tables_number 14
loop_
_symmetry_equiv_pos_site_id
_symmetry_equiv_pos_as_xyz
1 x,y,z
2 x,1/2-y,1/2+z
3 -x,-y,-z
4 -x,-1/2+y,-1/2-z
_cell_length_a 12.9483(4)
_cell_length_b 15.3159(4)
_cell_length_c 11.5138(4)
_cell_angle_alpha 90
_cell_angle_beta 115.517(2)
_cell_angle_gamma 90
_cell_formula_units_Z 4
loop_
_atom_type_symbol
_atom_type_radius_bond
C 0.68
H 0.23
N 0.68
O 0.68
loop_
_atom_site_label
_atom_site_type_symbol
_atom_site_fract_x
_atom_site_fract_y
_atom_site_fract_z
O1 O 0.21031(10) 0.39742(7) -0.02397(11)
O2 O 0.11514(10) 0.49488(8) 0.12664(12)
O3 O 0.53907(12) 0.77497(9) 0.55198(13)
O4 O 0.41578(13) 0.71741(9) 0.60961(13)
N1 N 0.34154(12) 0.36549(9) 0.17908(13)
N2 N 0.46933(13) 0.71823(10) 0.54395(14)
C1 C 0.25273(13) 0.48171(10) 0.03232(15)
C2 C 0.26168(13) 0.33834(10) 0.07474(16)
C3 C 0.36299(13) 0.45664(10) 0.15371(15)
H1 H 0.42730 0.45550 0.12770
C4 C 0.26858(13) 0.54381(10) -0.05979(15)
C5 C 0.33666(15) 0.54114(12) -0.12303(16)
H2 H 0.38520 0.49250 -0.11360
C6 C 0.33366(16) 0.61214(13) -0.20286(17)
H3 H 0.37990 0.60980 -0.24820
C7 C 0.26651(16) 0.68421(12) -0.21723(17)
H4 H 0.26660 0.73040 -0.27230
C8 C 0.19694(14) 0.69021(10) -0.15040(16)
C9 C 0.12499(15) 0.75964(11) -0.15040(18)
H5 H 0.12030 0.81060 -0.19950
C10 C 0.06177(16) 0.75488(12) -0.0808(2)
H6 H 0.01480 0.80300 -0.08260
C11 C 0.06418(15) 0.68089(11) -0.00664(18)
H7 H 0.01840 0.67810 0.03920
C12 C 0.13470(13) 0.61319(10) -0.00294(16)
C13 C 0.20002(13) 0.61808(10) -0.07328(15)
C14 C 0.15844(13) 0.52728(11) 0.06272(15)
C15 C 0.21903(13) 0.24853(10) 0.04127(17)
C16 C 0.15860(15) 0.22473(11) -0.08728(17)
H8 H 0.14270 0.26740 -0.15270
C17 C 0.12145(16) 0.13996(12) -0.12090(19)
H9 H 0.08160 0.12460 -0.20920
C18 C 0.14171(15) 0.07718(11) -0.0272(2)
C19 C 0.20019(16) 0.10151(11) 0.10113(19)
H10 H 0.21290 0.05930 0.16640
C20 C 0.24035(14) 0.18578(11) 0.13626(18)
H11 H 0.28210 0.20060 0.22450
C21 C 0.10085(19) -0.01548(12) -0.0652(2)
H12 H 0.12300 -0.05130 0.01240
H13 H 0.13570 -0.03930 -0.11890
H14 H 0.01740 -0.01590 -0.11370
C22 C 0.39527(13) 0.52059(10) 0.26323(15)
C23 C 0.35800(14) 0.51208(11) 0.35951(16)
H15 H 0.31520 0.46210 0.36130
C24 C 0.38300(14) 0.57608(12) 0.45258(16)
H16 H 0.35700 0.57080 0.51790
C25 C 0.44646(14) 0.64789(11) 0.44891(15)
C26 C 0.48639(14) 0.65772(11) 0.35649(16)
H17 H 0.53070 0.70710 0.35650
C27 C 0.45998(14) 0.59338(11) 0.26353(16)
H18 H 0.48650 0.59900 0.19870
#END
