
#######################################################################
#
#                 Cambridge Crystallographic Data Centre
#                                CCDC
#
#######################################################################
#
# If this CIF has been generated from an entry in the Cambridge
# Structural Database, then it will include bibliographic, chemical,
# crystal, experimental, refinement or atomic coordinate data resulting
# from the CCDC's data processing and validation procedures.
#
#######################################################################

data_CSD_CIF_AGEXEQ
_audit_creation_date 2009-01-29
_audit_creation_method CSD-ConQuest-V1
_database_code_CSD AGEXEQ
_database_code_depnum_ccdc_archive 'CCDC 615110'
_chemical_formula_sum 'C20 H26 N2 O4'
_chemical_formula_moiety
;
C20 H26 N2 O4
;
_journal_coden_Cambridge 1003
_journal_volume 38
_journal_year 2008
_journal_page_first 701
_journal_name_full 'J.Chem.Cryst. '
loop_
_publ_author_name
"A.Habibi"
"M.R.Yazdanbakhsh"
"L.Mousavifar"
_chemical_name_systematic
;
N-t-Butyl-1-(3,5-dioxo-2-phenyltetrahydro-4-isoxazolyl)cyclohexane-1-carboxami
de
;
_cell_volume   3752.705
_exptl_crystal_colour 'colorless'
_exptl_crystal_density_diffrn 1.269
_exptl_crystal_description 'prism'
_exptl_crystal_preparation 'acetone/hexane'
_diffrn_ambient_temperature 120
#These two values have been output from a single CSD field.
_refine_ls_R_factor_gt 0.0463
_refine_ls_wR_factor_gt 0.0463
_symmetry_cell_setting orthorhombic
_symmetry_space_group_name_H-M 'P b c a'
_symmetry_Int_Tables_number 61
loop_
_symmetry_equiv_pos_site_id
_symmetry_equiv_pos_as_xyz
1 x,y,z
2 1/2-x,-y,1/2+z
3 -x,1/2+y,1/2-z
4 1/2+x,1/2-y,-z
5 -x,-y,-z
6 -1/2+x,y,-1/2-z
7 x,-1/2-y,-1/2+z
8 -1/2-x,-1/2+y,z
_cell_length_a 10.6556(6)
_cell_length_b 18.0132(11)
_cell_length_c 19.5513(12)
_cell_angle_alpha 90
_cell_angle_beta 90
_cell_angle_gamma 90
_cell_formula_units_Z 8
loop_
_atom_type_symbol
_atom_type_radius_bond
C 0.68
H 0.23
N 0.68
O 0.68
loop_
_atom_site_label
_atom_site_type_symbol
_atom_site_fract_x
_atom_site_fract_y
_atom_site_fract_z
O1 O 0.96775(10) 0.16338(6) 0.50997(6)
O2 O 1.06275(10) 0.00343(6) 0.59359(6)
O3 O 1.26411(12) -0.01721(7) 0.57492(8)
O4 O 1.17721(11) 0.14780(7) 0.63552(6)
N1 N 0.97153(12) 0.05578(7) 0.57154(7)
N2 N 1.31566(13) 0.23906(7) 0.60901(7)
H1 H 1.35670 0.25770 0.57500
C1 C 1.02468(14) 0.10998(8) 0.53116(8)
C2 C 1.15837(14) 0.08582(8) 0.51571(8)
H2 H 1.16020 0.06670 0.46880
C3 C 1.17571(15) 0.02101(9) 0.56331(9)
C4 C 1.25800(14) 0.14829(8) 0.52106(8)
C5 C 1.24556(14) 0.17940(9) 0.59407(8)
C6 C 1.32572(15) 0.27406(9) 0.67746(8)
C7 C 1.19914(17) 0.30589(12) 0.69852(10)
H3 H 1.13950 0.26630 0.70330
H4 H 1.17050 0.34000 0.66410
H5 H 1.20760 0.33150 0.74130
C8 C 1.37370(17) 0.21759(9) 0.72889(9)
H6 H 1.45330 0.19860 0.71390
H7 H 1.31480 0.17750 0.73260
H8 H 1.38340 0.24100 0.77270
C9 C 1.42085(19) 0.33661(10) 0.66935(9)
H9 H 1.50040 0.31630 0.65590
H10 H 1.43000 0.36230 0.71210
H11 H 1.39210 0.37070 0.63500
C10 C 1.39276(15) 0.11737(9) 0.51105(9)
H12 H 1.45280 0.15660 0.52050
H13 H 1.40700 0.07790 0.54390
C11 C 1.41609(16) 0.08748(10) 0.43921(9)
H14 H 1.50250 0.07110 0.43530
H15 H 1.36210 0.04500 0.43100
C12 C 1.39004(16) 0.14711(11) 0.38585(9)
H16 H 1.39960 0.12610 0.34050
H17 H 1.45070 0.18690 0.39080
C13 C 1.25789(16) 0.17846(10) 0.39353(8)
H18 H 1.24610 0.21850 0.36100
H19 H 1.19720 0.13990 0.38320
C14 C 1.23489(15) 0.20747(9) 0.46561(8)
H20 H 1.14890 0.22480 0.46900
H21 H 1.28970 0.24950 0.47390
C15 C 0.86601(15) 0.05996(8) 0.61610(8)
C16 C 0.86642(16) 0.02143(9) 0.67785(9)
H22 H 0.93550 -0.00700 0.69060
C17 C 0.76189(18) 0.02615(10) 0.72009(9)
H23 H 0.76100 0.00050 0.76140
C18 C 0.65945(17) 0.06832(10) 0.70165(9)
H24 H 0.59070 0.07210 0.73070
C19 C 0.65964(16) 0.10508(10) 0.63949(9)
H25 H 0.59020 0.13310 0.62680
C20 C 0.76156(15) 0.10070(9) 0.59599(9)
H26 H 0.76030 0.12470 0.55390
#END
