
#######################################################################
#
#                 Cambridge Crystallographic Data Centre
#                                CCDC
#
#######################################################################
#
# If this CIF has been generated from an entry in the Cambridge
# Structural Database, then it will include bibliographic, chemical,
# crystal, experimental, refinement or atomic coordinate data resulting
# from the CCDC's data processing and validation procedures.
#
#######################################################################

data_CSD_CIF_AGUBOV
_audit_creation_date 2013-09-23
_audit_creation_method CSD-ConQuest-V1
_database_code_CSD AGUBOV
_database_code_depnum_ccdc_archive 'CCDC 891219'
_chemical_formula_sum 'C24 H24 N2 O4'
_chemical_formula_moiety
;
C24 H24 N2 O4
;
_journal_coden_Cambridge 35
_journal_volume 77
_journal_year 2012
_journal_page_first 6970
_journal_name_full 'J.Org.Chem. '
loop_
_publ_author_name
"Feng Shi"
"Gui-Juan Xing"
"Zhong-Lin Tao"
"Shi-Wei Luo"
"Shu-Jiang Tu"
"Liu-Zhu Gong"
_chemical_name_systematic
;
2-(4-Ethyl-6-methoxy-2-(4-nitrophenyl)-1,2,3,4-tetrahydroquinolin-4-yl)phenol
;
_cell_volume   2090.591
_exptl_crystal_density_diffrn 1.285
_exptl_special_details
;
Absolute configuration

;
_diffrn_ambient_temperature 291
#These two values have been output from a single CSD field.
_refine_ls_R_factor_gt 0.0306
_refine_ls_wR_factor_gt 0.0306
_symmetry_cell_setting orthorhombic
_symmetry_space_group_name_H-M 'P 21 21 21'
_symmetry_Int_Tables_number 19
loop_
_symmetry_equiv_pos_site_id
_symmetry_equiv_pos_as_xyz
1 x,y,z
2 1/2-x,-y,1/2+z
3 1/2+x,1/2-y,-z
4 -x,1/2+y,1/2-z
_cell_length_a 9.5228(1)
_cell_length_b 9.7155(1)
_cell_length_c 22.5964(3)
_cell_angle_alpha 90
_cell_angle_beta 90
_cell_angle_gamma 90
_cell_formula_units_Z 4
loop_
_atom_type_symbol
_atom_type_radius_bond
C 0.68
H 0.23
N 0.68
O 0.68
loop_
_atom_site_label
_atom_site_type_symbol
_atom_site_fract_x
_atom_site_fract_y
_atom_site_fract_z
O1 O 0.47562(15) 0.18955(12) 0.86083(6)
C1 C 0.28308(14) -0.06397(15) 0.80406(5)
H1 H 0.19160 -0.09290 0.81820
H2 H 0.28190 0.03550 0.80060
O2 O 0.91409(10) -0.04204(12) 0.86940(5)
C2 C 0.54210(13) -0.08420(13) 0.82349(5)
N1 N 0.44687(12) -0.08266(14) 0.72264(5)
O3 O -0.07822(14) 0.15660(14) 0.54668(6)
C3 C 0.40547(16) 0.12407(15) 0.90638(6)
C4 C 0.79371(14) -0.05713(14) 0.83659(6)
C5 C 0.56008(13) -0.08210(13) 0.76196(6)
C6 C 0.39590(13) -0.10602(13) 0.85005(5)
C7 C 0.66031(13) -0.07073(14) 0.85992(6)
H3 H 0.64870 -0.07100 0.90080
C8 C 0.69627(15) -0.07209(15) 0.73905(6)
H4 H 0.70940 -0.07430 0.69830
N2 N -0.08685(14) 0.04158(15) 0.56618(6)
C9 C 0.81100(15) -0.05905(15) 0.77545(7)
H5 H 0.90040 -0.05150 0.75920
C10 C 0.18711(16) 0.05576(15) 0.68222(6)
H6 H 0.24480 0.12100 0.70000
C11 C 0.25508(15) 0.02026(19) 0.99994(6)
H7 H 0.20380 -0.01580 1.03140
C12 C 0.00679(14) -0.00136(15) 0.61443(6)
C13 C 0.36943(13) -0.01521(14) 0.90489(5)
C14 C 0.10955(16) -0.17656(14) 0.67293(6)
H8 H 0.11480 -0.26840 0.68440
C15 C 0.19899(14) -0.08141(14) 0.69840(5)
C16 C 0.29394(14) -0.06378(16) 0.95328(5)
H9 H 0.26860 -0.15620 0.95430
C17 C 0.09087(16) 0.09668(15) 0.64013(6)
H10 H 0.08310 0.18880 0.62940
C18 C 0.37835(16) -0.26190(14) 0.86311(6)
H11 H 0.28330 -0.27670 0.87710
H12 H 0.38780 -0.31120 0.82600
C19 C 0.29217(19) 0.15665(19) 0.99986(7)
H13 H 0.26520 0.21370 1.03090
C20 C 0.47829(19) -0.32689(16) 0.90753(7)
H14 H 0.57230 -0.32360 0.89230
H15 H 0.45170 -0.42100 0.91410
H16 H 0.47390 -0.27720 0.94420
C21 C 0.01211(15) -0.13721(16) 0.63053(7)
H17 H -0.04800 -0.20140 0.61350
C22 C 0.36948(19) 0.20823(17) 0.95353(7)
H18 H 0.39770 0.29990 0.95380
C23 C 0.89815(19) -0.0295(2) 0.93182(8)
H19 H 0.83470 0.04460 0.94050
H20 H 0.98780 -0.01080 0.94950
H21 H 0.86120 -0.11380 0.94760
C24 C 0.30867(14) -0.12658(14) 0.74299(5)
H22 H 0.30720 -0.22720 0.74620
O4 O -0.1703(2) -0.04034(19) 0.54778(10)
H23 H 0.4669(18) -0.1137(17) 0.6880(7)
H24 H 0.515(3) 0.128(3) 0.8355(11)
#END
