
#######################################################################
#
#                 Cambridge Crystallographic Data Centre
#                                CCDC
#
#######################################################################
#
# If this CIF has been generated from an entry in the Cambridge
# Structural Database, then it will include bibliographic, chemical,
# crystal, experimental, refinement or atomic coordinate data resulting
# from the CCDC's data processing and validation procedures.
#
#######################################################################

data_CSD_CIF_AGUQUO
_audit_creation_date 2003-02-06
_audit_creation_method CSD-ConQuest-V1
_database_code_CSD AGUQUO
_database_code_depnum_ccdc_archive 'CCDC 198585'
_chemical_formula_sum 'C26 H22 N2 O8'
_chemical_formula_moiety
;
C26 H22 N2 O8
;
_journal_coden_Cambridge 4
_journal_volume 124
_journal_year 2002
_journal_page_first 13442
_journal_name_full 'J.Am.Chem.Soc. '
loop_
_publ_author_name
"M.Yasuda"
"K.Hirata"
"M.Nishino"
"A.Yamamoto"
"A.Baba"
_chemical_name_systematic
;
(3R*,4S*)-4-Methyl-4,5-bis(4-nitrobenzoyloxy)-3-phenylpent-1-ene
;
_chemical_melting_point 384.15
_cell_volume   1213.082
_exptl_crystal_colour 'colorless'
_exptl_crystal_density_diffrn 1.343
_exptl_special_details
;
Melting point range 384.15-385.15K

;
_exptl_crystal_description 'prismatic'
_exptl_crystal_preparation 'hexane/ethanol/chloroform'
_diffrn_ambient_temperature 296.2
#These two values have been output from a single CSD field.
_refine_ls_R_factor_gt 0.0443
_refine_ls_wR_factor_gt 0.0443
_symmetry_cell_setting triclinic
_symmetry_space_group_name_H-M 'P -1'
_symmetry_Int_Tables_number 2
loop_
_symmetry_equiv_pos_site_id
_symmetry_equiv_pos_as_xyz
1 x,y,z
2 -x,-y,-z
_cell_length_a 10.421(2)
_cell_length_b 12.772(2)
_cell_length_c 10.248(1)
_cell_angle_alpha 91.75(1)
_cell_angle_beta 110.754(9)
_cell_angle_gamma 106.06(1)
_cell_formula_units_Z 2
loop_
_atom_type_symbol
_atom_type_radius_bond
C 0.68
H 0.23
N 0.68
O 0.68
loop_
_atom_site_label
_atom_site_type_symbol
_atom_site_fract_x
_atom_site_fract_y
_atom_site_fract_z
O1 O 0.6704(2) 0.2924(2) 0.3152(2)
O2 O 0.8746(2) 0.1376(2) 0.5527(2)
O3 O 1.0191(5) -0.2247(3) 1.0215(4)
O4 O 0.6869(3) 0.1966(2) 0.1362(3)
O5 O 0.6349(3) 0.6366(3) -0.2287(3)
O6 O 1.2385(4) -0.1187(3) 1.1178(3)
O7 O 0.6802(4) 0.7373(3) -0.0394(4)
O8 O 1.1072(3) 0.2047(2) 0.5898(3)
N1 N 0.6636(4) 0.6502(3) -0.1042(4)
N2 N 1.1178(6) -0.1450(4) 1.0268(4)
C1 C 0.6462(4) 0.4562(4) -0.0995(4)
C2 C 0.9223(5) -0.0185(3) 0.7287(4)
C3 C 1.0872(6) -0.0755(3) 0.9133(4)
C4 C 1.0115(4) 0.1412(3) 0.6133(4)
C5 C 0.6481(4) 0.3666(3) -0.0277(4)
C6 C 0.6913(4) 0.2105(3) 0.4138(3)
C7 C 0.6990(4) 0.5702(3) 0.1158(4)
C8 C 0.6727(3) 0.3774(3) 0.1152(3)
C9 C 0.8475(4) 0.2153(3) 0.4529(4)
C10 C 0.7195(5) 0.4615(4) 0.5456(4)
C11 C 1.0342(4) 0.0612(3) 0.7149(3)
C12 C 0.6996(4) 0.4793(3) 0.1862(4)
C13 C 0.5858(5) 0.0976(3) 0.3468(5)
C14 C 0.5071(4) 0.2405(3) 0.5096(4)
C15 C 0.4393(5) 0.1946(4) 0.5884(5)
C16 C 1.1749(5) 0.0700(3) 0.7997(4)
C17 C 0.8045(7) 0.5672(4) 0.6065(6)
C18 C 1.2021(6) 0.0016(4) 0.9026(4)
C19 C 0.9481(5) -0.0889(3) 0.8286(4)
C20 C 0.8754(5) 0.3936(4) 0.7297(4)
C21 C 0.9566(5) 0.5017(6) 0.7922(5)
C22 C 0.9224(7) 0.5865(5) 0.7277(7)
C23 C 0.6705(3) 0.5553(3) -0.0262(4)
C24 C 0.7555(4) 0.3725(3) 0.6053(4)
C25 C 0.6759(4) 0.2779(3) 0.1873(4)
C26 C 0.6637(4) 0.2559(3) 0.5401(3)
H1 H 0.631(3) 0.453(2) -0.199(3)
H2 H 0.824(3) -0.028(3) 0.671(3)
H3 H 0.632(3) 0.294(3) -0.074(3)
H4 H 0.713(4) 0.641(3) 0.161(3)
H5 H 0.632(3) 0.451(2) 0.465(3)
H6 H 0.722(3) 0.490(2) 0.287(3)
H7 H 0.457(4) 0.268(3) 0.426(4)
H8 H 1.251(4) 0.133(3) 0.798(3)
H9 H 0.784(4) 0.622(3) 0.560(4)
H10 H 1.299(4) 0.013(3) 0.961(4)
H11 H 0.873(4) -0.146(3) 0.841(4)
H12 H 0.894(4) 0.332(3) 0.763(4)
H13 H 1.041(4) 0.510(3) 0.880(4)
H14 H 0.981(5) 0.660(4) 0.772(5)
H15 H 0.686(3) 0.206(2) 0.602(3)
H16 H 0.915(3) 0.291(3) 0.502(3)
H17 H 0.870(3) 0.193(2) 0.373(3)
H18 H 0.485(4) 0.102(3) 0.308(4)
H19 H 0.609(4) 0.059(3) 0.282(4)
H20 H 0.592(5) 0.056(3) 0.426(4)
H21 H 0.492(4) 0.166(3) 0.669(4)
H22 H 0.339(4) 0.188(3) 0.566(3)
#END
