
#######################################################################
#
#                 Cambridge Crystallographic Data Centre
#                                CCDC
#
#######################################################################
#
# If this CIF has been generated from an entry in the Cambridge
# Structural Database, then it will include bibliographic, chemical,
# crystal, experimental, refinement or atomic coordinate data resulting
# from the CCDC's data processing and validation procedures.
#
#######################################################################

data_CSD_CIF_AGUQOI
_audit_creation_date 2003-02-06
_audit_creation_method CSD-ConQuest-V1
_database_code_CSD AGUQOI
_database_code_depnum_ccdc_archive 'CCDC 198584'
_chemical_formula_sum 'C23 H21 N1 O4'
_chemical_formula_moiety
;
C23 H21 N1 O4
;
_journal_coden_Cambridge 4
_journal_volume 124
_journal_year 2002
_journal_page_first 13442
_journal_name_full 'J.Am.Chem.Soc. '
loop_
_publ_author_name
"M.Yasuda"
"K.Hirata"
"M.Nishino"
"A.Yamamoto"
"A.Baba"
_chemical_name_systematic
;
4-Nitrobenzoic acid (2S*,3S*)-2-(naphth-1-yl)-3-methylpent-4-en-2-yl ester
;
_chemical_melting_point 420.15
_cell_volume    994.265
_exptl_crystal_colour 'colorless'
_exptl_crystal_density_diffrn 1.254
_exptl_special_details
;
Melting point range 420.15-421.15K

;
_exptl_crystal_description 'prismatic'
_exptl_crystal_preparation 'hexane/ethanol'
_diffrn_ambient_temperature 296.2
#These two values have been output from a single CSD field.
_refine_ls_R_factor_gt 0.0467
_refine_ls_wR_factor_gt 0.0467
_symmetry_cell_setting triclinic
_symmetry_space_group_name_H-M 'P -1'
_symmetry_Int_Tables_number 2
loop_
_symmetry_equiv_pos_site_id
_symmetry_equiv_pos_as_xyz
1 x,y,z
2 -x,-y,-z
_cell_length_a 11.656(2)
_cell_length_b 12.003(2)
_cell_length_c 7.257(3)
_cell_angle_alpha 92.12(2)
_cell_angle_beta 101.38(2)
_cell_angle_gamma 91.17(2)
_cell_formula_units_Z 2
loop_
_atom_type_symbol
_atom_type_radius_bond
C 0.68
H 0.23
N 0.68
O 0.68
loop_
_atom_site_label
_atom_site_type_symbol
_atom_site_fract_x
_atom_site_fract_y
_atom_site_fract_z
O1 O 0.7479(6) 0.2086(5) 0.907(1)
O2 O 0.6321(6) 0.1708(6) 1.113(1)
O3 O 0.1827(7) 0.0569(8) 0.354(1)
O4 O 0.2959(7) 0.0931(8) 0.162(1)
N1 N 0.276(1) 0.0832(9) 0.318(2)
C1 C 0.842(2) 0.451(2) 1.471(2)
C2 C 0.773(2) 0.530(1) 1.391(3)
C3 C 0.716(1) 0.526(1) 1.197(2)
C4 C 0.694(1) 0.4388(10) 0.887(2)
C5 C 0.7429(10) 0.434(1) 1.082(2)
C6 C 0.814(1) 0.348(1) 1.165(2)
C7 C 0.5527(9) 0.1503(8) 0.784(2)
C8 C 0.448(1) 0.1074(9) 0.813(2)
C9 C 0.3578(10) 0.0849(9) 0.657(2)
C10 C 0.375(1) 0.1083(9) 0.481(2)
C11 C 0.480(1) 0.1488(9) 0.453(2)
C12 C 0.571(1) 0.1717(9) 0.607(2)
C13 C 1.058(2) 0.168(1) 0.761(3)
C14 C 0.961(1) 0.195(1) 0.796(2)
C15 C 0.9406(10) 0.287(1) 0.933(2)
C16 C 0.8507(9) 0.2489(9) 1.053(2)
C17 C 0.647(1) 0.1761(9) 0.953(2)
C18 C 0.600(1) 0.611(2) 0.939(3)
C19 C 0.897(1) 0.149(1) 1.168(2)
C20 C 0.641(2) 0.610(1) 1.113(3)
C21 C 1.050(1) 0.340(1) 1.060(2)
C22 C 0.623(1) 0.524(1) 0.814(2)
C23 C 0.859(1) 0.361(1) 1.355(3)
H1 H 0.892(10) 0.466(9) 1.64(2)
H2 H 0.750(8) 0.606(8) 1.47(1)
H3 H 0.708(7) 0.378(6) 0.82(1)
H4 H 0.438(5) 0.101(5) 0.936(8)
H5 H 0.285(5) 0.066(5) 0.649(9)
H6 H 0.482(10) 0.156(9) 0.31(2)
H7 H 0.641(6) 0.198(6) 0.56(1)
H8 H 0.89(1) 0.15(1) 0.75(2)
H9 H 0.539(6) 0.651(6) 0.85(1)
H10 H 0.643(7) 0.671(6) 1.26(1)
H11 H 0.610(6) 0.500(6) 0.681(9)
H12 H 0.912(6) 0.309(6) 1.39(1)
H13 H 0.908(6) 0.354(6) 0.875(10)
H14 H 0.847(8) 0.135(9) 1.24(1)
H15 H 0.895(9) 0.092(9) 1.09(1)
H16 H 0.976(8) 0.170(9) 1.27(1)
H17 H 1.12(1) 0.29(1) 1.15(2)
H18 H 1.101(7) 0.358(7) 0.99(1)
H19 H 1.03(1) 0.38(1) 1.13(2)
H20 H 1.083(9) 0.245(8) 0.80(1)
H21 H 1.07(1) 0.115(9) 0.65(1)
#END
