
#######################################################################
#
#                 Cambridge Crystallographic Data Centre
#                                CCDC
#
#######################################################################
#
# If this CIF has been generated from an entry in the Cambridge
# Structural Database, then it will include bibliographic, chemical,
# crystal, experimental, refinement or atomic coordinate data resulting
# from the CCDC's data processing and validation procedures.
#
#######################################################################

data_CSD_CIF_AHEMAB02
_audit_creation_date 2008-02-21
_audit_creation_method CSD-ConQuest-V1
_database_code_CSD AHEMAB02
_database_code_depnum_ccdc_archive 'CCDC 648205'
_chemical_formula_sum 'C4 H4 N2 O2'
_chemical_formula_moiety
;
C4 H4 N2 O2
;
_journal_coden_Cambridge 1350
_journal_volume 9
_journal_year 2007
_journal_page_first 980
_journal_name_full 'CrystEngComm '
loop_
_publ_author_name
"N.J.Babu"
"A.Nangia"
_chemical_name_systematic
;
Pyrazine-N,N'-dioxide
;
_chemical_melting_point 557
_cell_volume    231.625
_exptl_crystal_colour 'colorless'
_exptl_crystal_density_diffrn 1.607
_exptl_special_details
;
Melts with decomposition.
monoclinic polymorph 2

;
_exptl_crystal_description 'plate'
_diffrn_ambient_temperature 293
#These two values have been output from a single CSD field.
_refine_ls_R_factor_gt 0.0564
_refine_ls_wR_factor_gt 0.0564
_symmetry_cell_setting monoclinic
_symmetry_space_group_name_H-M 'P 21/c'
_symmetry_Int_Tables_number 14
loop_
_symmetry_equiv_pos_site_id
_symmetry_equiv_pos_as_xyz
1 x,y,z
2 -x,1/2+y,1/2-z
3 -x,-y,-z
4 x,-1/2-y,-1/2+z
_cell_length_a 3.7239(13)
_cell_length_b 11.010(4)
_cell_length_c 5.683(2)
_cell_angle_alpha 90
_cell_angle_beta 96.237(5)
_cell_angle_gamma 90
_cell_formula_units_Z 2
loop_
_atom_type_symbol
_atom_type_radius_bond
C 0.68
H 0.23
N 0.68
O 0.68
loop_
_atom_site_label
_atom_site_type_symbol
_atom_site_fract_x
_atom_site_fract_y
_atom_site_fract_z
O1 O 0.9201(5) 0.13590(15) 0.3060(3)
N1 N 0.7144(5) 0.06973(17) 0.1585(3)
C1 C 0.5745(6) 0.1156(2) -0.0528(4)
H1 H 0.62430 0.19550 -0.09150
C2 C 0.6380(6) -0.0460(2) 0.2089(4)
H2 H 0.73210 -0.07910 0.35310
O1B O 0.0799(5) -0.13590(15) -0.3060(3)
N1B N 0.2856(5) -0.06973(17) -0.1585(3)
C1B C 0.4255(6) -0.1156(2) 0.0528(4)
H1B H 0.37570 -0.19550 0.09150
C2B C 0.3620(6) 0.0460(2) -0.2089(4)
H2B H 0.26790 0.07910 -0.35310
#END
