
#######################################################################
#
#                 Cambridge Crystallographic Data Centre
#                                CCDC
#
#######################################################################
#
# If this CIF has been generated from an entry in the Cambridge
# Structural Database, then it will include bibliographic, chemical,
# crystal, experimental, refinement or atomic coordinate data resulting
# from the CCDC's data processing and validation procedures.
#
#######################################################################

data_CSD_CIF_AHIBUO
_audit_creation_date 2003-02-06
_audit_creation_method CSD-ConQuest-V1
_database_code_CSD AHIBUO
_database_code_depnum_ccdc_archive 'CCDC 188686'
_chemical_formula_sum 'C21 H17 N3 O4'
_chemical_formula_moiety
;
C21 H17 N3 O4
;
_journal_coden_Cambridge 186
_journal_year 2002
_journal_page_first 4672
_journal_name_full 'J.Chem.Soc.,Dalton Trans. '
loop_
_publ_author_name
"B.Chiari"
"A.Cinti"
"O.Crispu"
"F.Demartin"
"A.Pasini"
"O.Piovesana"
_chemical_name_systematic
;
2,2'-((4-Nitrophenyl)methanediyl)bis(iminomethyl)diphenol
;
_cell_volume   1867.858
_exptl_crystal_colour 'colorless'
_exptl_crystal_density_diffrn 1.335
_exptl_crystal_description 'prism'
_exptl_crystal_preparation 'ethanol'
_diffrn_ambient_temperature 293
#These two values have been output from a single CSD field.
_refine_ls_R_factor_gt 0.0361
_refine_ls_wR_factor_gt 0.0361
_symmetry_cell_setting orthorhombic
_symmetry_space_group_name_H-M 'P n a 21'
_symmetry_Int_Tables_number 33
loop_
_symmetry_equiv_pos_site_id
_symmetry_equiv_pos_as_xyz
1 x,y,z
2 -x,-y,1/2+z
3 1/2-x,1/2+y,1/2+z
4 1/2+x,1/2-y,z
_cell_length_a 9.2106(18)
_cell_length_b 15.578(3)
_cell_length_c 13.018(3)
_cell_angle_alpha 90
_cell_angle_beta 90
_cell_angle_gamma 90
_cell_formula_units_Z 4
loop_
_atom_type_symbol
_atom_type_radius_bond
C 0.68
H 0.23
N 0.68
O 0.68
loop_
_atom_site_label
_atom_site_type_symbol
_atom_site_fract_x
_atom_site_fract_y
_atom_site_fract_z
O1 O -0.1067(3) 0.55548(16) 0.56588(18)
O2 O 0.4472(3) 0.64659(15) 0.9191(2)
O3 O 0.6604(4) 0.5326(2) 0.3382(3)
O4 O 0.6795(5) 0.6646(3) 0.2996(3)
N1 N 0.1056(3) 0.63244(15) 0.66287(17)
N2 N 0.2916(3) 0.70322(15) 0.76442(19)
N3 N 0.6298(4) 0.6075(3) 0.3510(2)
C1 C -0.1268(3) 0.50940(19) 0.6531(2)
C2 C -0.2315(4) 0.4466(2) 0.6550(3)
C3 C -0.2525(4) 0.3986(2) 0.7422(3)
C4 C -0.1708(4) 0.4121(2) 0.8278(3)
C5 C -0.0659(4) 0.4740(2) 0.8273(3)
C6 C -0.0413(3) 0.52408(17) 0.7403(2)
C7 C 0.0730(3) 0.58904(18) 0.7416(2)
C8 C 0.2213(3) 0.69655(18) 0.6645(2)
C9 C 0.2717(3) 0.7721(2) 0.8161(2)
C10 C 0.3324(3) 0.78487(19) 0.9167(2)
C11 C 0.3012(4) 0.8607(2) 0.9700(3)
C12 C 0.3524(5) 0.8740(3) 1.0674(3)
C13 C 0.4372(5) 0.8128(3) 1.1124(3)
C14 C 0.4709(5) 0.7373(3) 1.0630(3)
C15 C 0.4163(3) 0.7228(2) 0.9645(2)
C16 C 0.3319(3) 0.67339(17) 0.5836(2)
C17 C 0.3919(4) 0.5916(2) 0.5799(2)
C18 C 0.4902(4) 0.5698(2) 0.5042(3)
C19 C 0.5288(3) 0.6307(2) 0.4336(2)
C20 C 0.4733(4) 0.7127(2) 0.4353(3)
C21 C 0.3727(4) 0.73299(19) 0.5107(3)
H1 H -0.036(4) 0.589(2) 0.574(3)
H2 H -0.272(4) 0.435(2) 0.599(3)
H3 H -0.321(4) 0.354(2) 0.739(3)
H4 H -0.185(4) 0.376(3) 0.885(3)
H5 H -0.008(4) 0.488(2) 0.883(3)
H6 H 0.131(3) 0.594(2) 0.807(3)
H7 H 0.182(3) 0.7507(17) 0.645(2)
H8 H 0.212(3) 0.820(2) 0.789(3)
H9 H 0.241(4) 0.901(2) 0.934(3)
H10 H 0.303(6) 0.927(3) 1.107(4)
H11 H 0.470(5) 0.825(3) 1.180(4)
H12 H 0.531(4) 0.693(2) 1.086(3)
H13 H 0.376(6) 0.646(4) 0.858(5)
H14 H 0.342(4) 0.551(2) 0.630(3)
H15 H 0.537(5) 0.512(3) 0.500(3)
H16 H 0.515(5) 0.758(3) 0.379(4)
H17 H 0.322(4) 0.788(2) 0.511(3)
#END
