
#######################################################################
#
#                 Cambridge Crystallographic Data Centre
#                                CCDC
#
#######################################################################
#
# If this CIF has been generated from an entry in the Cambridge
# Structural Database, then it will include bibliographic, chemical,
# crystal, experimental, refinement or atomic coordinate data resulting
# from the CCDC's data processing and validation procedures.
#
#######################################################################

data_CSD_CIF_AHIDIG
_audit_creation_date 2015-07-24
_audit_creation_method CSD-ConQuest-V1
_database_code_CSD AHIDIG
_database_code_depnum_ccdc_archive 'CCDC 1415150'
_chemical_formula_sum 'C16 H15 N3 O4'
_chemical_formula_moiety
;
C16 H15 N3 O4
;
_journal_coden_Cambridge 1078
_journal_year 2015
_journal_name_full 'CSD Communication(Private Communication) '
loop_
_publ_author_name
"J.Poisson"
"I.S.Butler"
"D.Scott Bohle"
_chemical_name_systematic
;
N-acetyl-N'-(2-nitrophenyl)-N'-phenylacetohydrazide
;
_chemical_melting_point 447
_cell_volume   1575.020
_exptl_crystal_colour 'red'
_exptl_crystal_density_diffrn 1.321
_exptl_crystal_description 'prism'
_diffrn_ambient_temperature 100
#These two values have been output from a single CSD field.
_refine_ls_R_factor_gt 0.0485
_refine_ls_wR_factor_gt 0.0485
_symmetry_cell_setting monoclinic
_symmetry_space_group_name_H-M 'P 21/c'
_symmetry_Int_Tables_number 14
loop_
_symmetry_equiv_pos_site_id
_symmetry_equiv_pos_as_xyz
1 x,y,z
2 -x,1/2+y,1/2-z
3 -x,-y,-z
4 x,-1/2-y,-1/2+z
_cell_length_a 11.0898(9)
_cell_length_b 9.1986(7)
_cell_length_c 15.4627(12)
_cell_angle_alpha 90
_cell_angle_beta 93.121(1)
_cell_angle_gamma 90
_cell_formula_units_Z 4
loop_
_atom_type_symbol
_atom_type_radius_bond
C 0.68
H 0.23
N 0.68
O 0.68
loop_
_atom_site_label
_atom_site_type_symbol
_atom_site_fract_x
_atom_site_fract_y
_atom_site_fract_z
N1 N 0.73407(14) 0.75743(17) 0.41241(9)
N2 N 0.66389(14) 0.78968(18) 0.48264(9)
O1 O 0.51144(14) 0.66278(19) 0.41769(11)
N3 N 0.93188(16) 0.7843(2) 0.29911(13)
O2 O 0.98597(15) 0.7905(2) 0.36955(12)
O3 O 0.96577(16) 0.7144(2) 0.23795(13)
O4 O 0.64626(18) 0.9412(3) 0.59677(12)
C1 C 0.76649(16) 0.6089(2) 0.40260(12)
C2 C 0.72525(17) 0.8542(2) 0.34156(11)
C3 C 0.81959(17) 0.8678(2) 0.28600(12)
C4 C 0.54866(18) 0.7211(2) 0.48307(14)
C5 C 0.62480(19) 0.9413(2) 0.32394(13)
H1 H 0.55840 0.93560 0.36010
C6 C 0.74915(19) 0.5392(2) 0.32377(13)
H2 H 0.71240 0.58940 0.27550
C7 C 0.8138(2) 0.9606(2) 0.21557(13)
H3 H 0.87890 0.96550 0.17820
C8 C 0.7103(2) 0.8909(3) 0.54396(13)
C9 C 0.8176(2) 0.5337(3) 0.47255(14)
H4 H 0.82970 0.58060 0.52710
C10 C 0.6199(2) 1.0359(3) 0.25465(14)
H5 H 0.55080 1.09580 0.24440
C11 C 0.7137(2) 1.0450(3) 0.20016(14)
H6 H 0.70870 1.10960 0.15210
C12 C 0.7852(2) 0.3968(3) 0.31508(17)
H7 H 0.77480 0.34990 0.26040
C13 C 0.8512(2) 0.3898(3) 0.46314(19)
H8 H 0.88520 0.33790 0.51170
C14 C 0.8361(2) 0.3221(3) 0.3850(2)
H9 H 0.86060 0.22390 0.37870
C15 C 0.4849(2) 0.7159(3) 0.56478(17)
H10 H 0.53120 0.77060 0.60980
H11 H 0.40450 0.75920 0.55540
H12 H 0.47690 0.61460 0.58320
C16 C 0.8389(2) 0.9330(3) 0.53871(17)
H13 H 0.87410 0.87950 0.49140
H14 H 0.84420 1.03760 0.52770
H15 H 0.88320 0.90960 0.59350
#END
