
#######################################################################
#
#                 Cambridge Crystallographic Data Centre
#                                CCDC
#
#######################################################################
#
# If this CIF has been generated from an entry in the Cambridge
# Structural Database, then it will include bibliographic, chemical,
# crystal, experimental, refinement or atomic coordinate data resulting
# from the CCDC's data processing and validation procedures.
#
#######################################################################

data_CSD_CIF_AHIHIK
_audit_creation_date 2015-07-25
_audit_creation_method CSD-ConQuest-V1
_database_code_CSD AHIHIK
_database_code_depnum_ccdc_archive 'CCDC 1400368'
_chemical_formula_sum 'C18 H24 N2 O7'
_chemical_formula_moiety
;
C18 H24 N2 O7
;
_journal_coden_Cambridge 1291
_journal_year 2015
_journal_page_first 5572
_journal_name_full 'Eur.J.Org.Chem. '
loop_
_publ_author_name
"V.Rjabovs"
"P.Ostrovskis"
"D.Posevins"
"G.Kiselovs"
"V.Kumpins"
"A.Mishnev"
"M.Turks"
_chemical_name_systematic
;
benzyl 
N-[[(3aR,5R,6R,6aR)-2,2-dimethyl-5-(2-nitroethyl)-3a,5,6,6a-tetrahydrofuro[2,3
-d][1,3]dioxol-6-yl]methyl]carbamate
;
_chemical_name_common
;
3,5-dideoxy-3-C-(N-benzyloxycarbonyl)aminomethyl-5-C-nitromethyl-1,2-O-isoprop
ylidene-alpha-D-ribofuranose
;
_chemical_melting_point 348
_cell_volume   1856.339
_exptl_crystal_colour 'colorless'
_exptl_crystal_density_diffrn 1.361
_exptl_crystal_description 'plate'
_diffrn_ambient_temperature 193
#These two values have been output from a single CSD field.
_refine_ls_R_factor_gt 0.0591
_refine_ls_wR_factor_gt 0.0591
_symmetry_cell_setting orthorhombic
_symmetry_space_group_name_H-M 'P 21 21 21'
_symmetry_Int_Tables_number 19
loop_
_symmetry_equiv_pos_site_id
_symmetry_equiv_pos_as_xyz
1 x,y,z
2 1/2-x,-y,1/2+z
3 1/2+x,1/2-y,-z
4 -x,1/2+y,1/2-z
_cell_length_a 5.2458(1)
_cell_length_b 8.9999(2)
_cell_length_c 39.3195(10)
_cell_angle_alpha 90
_cell_angle_beta 90
_cell_angle_gamma 90
_cell_formula_units_Z 4
loop_
_atom_type_symbol
_atom_type_radius_bond
C 0.68
H 0.23
N 0.68
O 0.68
loop_
_atom_site_label
_atom_site_type_symbol
_atom_site_fract_x
_atom_site_fract_y
_atom_site_fract_z
O1 O 0.1921(4) 0.5501(2) 0.36581(6)
O2 O -0.1106(4) 0.5003(2) 0.29940(7)
O3 O 0.3340(4) 0.0668(3) 0.43057(7)
N1 N 0.2502(5) 0.1776(3) 0.38193(8)
H1 H 0.09430 0.17080 0.38850
C1 C 0.3056(6) 0.2455(3) 0.34920(9)
H2 H 0.35790 0.16960 0.33310
H3 H 0.44440 0.31590 0.35160
O4 O 0.6625(4) 0.1316(3) 0.39574(7)
O5 O -0.0931(4) 0.6973(2) 0.33810(7)
C2 C 0.4351(6) 0.1255(3) 0.40206(10)
C3 C -0.0189(5) 0.4556(3) 0.35746(9)
H4 H -0.11830 0.42520 0.37740
C4 C -0.1710(6) 0.5504(3) 0.33244(9)
H5 H -0.35420 0.54000 0.33670
C5 C 0.0697(6) 0.3251(3) 0.33590(9)
H6 H -0.06970 0.25280 0.33470
C6 C 0.0986(6) 0.3961(3) 0.30100(9)
H7 H 0.26150 0.44900 0.29950
C7 C 0.0717(6) 0.2899(3) 0.27153(9)
H8 H -0.08950 0.23800 0.27370
H9 H 0.20650 0.21630 0.27300
C8 C 0.3773(6) 0.0117(4) 0.48883(10)
C9 C 0.0826(6) 0.3620(4) 0.23684(10)
H10 H 0.01450 0.29380 0.22000
H11 H -0.02360 0.45020 0.23690
C10 C 0.5078(7) 0.0041(4) 0.45523(10)
H12 H 0.66540 0.06030 0.45580
H13 H 0.54710 -0.09820 0.44950
C11 C 0.3115(7) 0.7994(4) 0.35185(11)
H14 H 0.44200 0.80340 0.36890
H15 H 0.24590 0.89750 0.34790
H16 H 0.38210 0.76100 0.33110
C12 C -0.0142(8) 0.7482(4) 0.39719(11)
H17 H 0.11600 0.75040 0.41430
H18 H -0.14460 0.67900 0.40370
H19 H -0.08730 0.84550 0.39480
C13 C 0.1228(7) 0.0343(4) 0.55093(11)
H20 H 0.03710 0.04340 0.57150
C14 C 0.1015(6) 0.7006(3) 0.36356(9)
C15 C 0.4625(7) 0.1075(4) 0.51401(11)
H21 H 0.60600 0.16570 0.51010
C16 C 0.0348(7) -0.0629(4) 0.52649(12)
H22 H -0.10930 -0.12030 0.53070
C17 C 0.3371(8) 0.1176(4) 0.54479(11)
H23 H 0.39830 0.18140 0.56150
C18 C 0.1619(7) -0.0747(4) 0.49571(10)
H24 H 0.10290 -0.14100 0.47940
N2 N 0.3500(7) 0.4042(5) 0.22705(10)
O6 O 0.5168(6) 0.3136(7) 0.23436(11)
O7 O 0.3790(8) 0.5130(4) 0.21021(13)
#END
