
#######################################################################
#
#                 Cambridge Crystallographic Data Centre
#                                CCDC
#
#######################################################################
#
# If this CIF has been generated from an entry in the Cambridge
# Structural Database, then it will include bibliographic, chemical,
# crystal, experimental, refinement or atomic coordinate data resulting
# from the CCDC's data processing and validation procedures.
#
#######################################################################

data_CSD_CIF_AHOVOI
_audit_creation_date 2003-11-05
_audit_creation_method CSD-ConQuest-V1
_database_code_CSD AHOVOI
_database_code_depnum_ccdc_archive 'CCDC 214230'
_chemical_formula_sum 'C22 H30 N2 O6'
_chemical_formula_moiety
;
C22 H30 N2 O6
;
_journal_coden_Cambridge 35
_journal_volume 68
_journal_year 2003
_journal_page_first 3838
_journal_name_full 'J.Org.Chem. '
loop_
_publ_author_name
"N.A.Yakelis"
"W.R.Roush"
_chemical_name_systematic
;
2-(3-Acetyl-2,2,4-trimethyl-1,3-oxazol-5-yl)-4-methylhex-5-en-3-yl 
4-nitrobenzoate
;
_chemical_melting_point 402.15
_cell_volume   2253.114
_exptl_crystal_colour 'colorless'
_exptl_crystal_density_diffrn 1.234
_exptl_special_details
;
Melting point range 402.15-406.15K

;
_exptl_crystal_description 'plate'
_exptl_crystal_preparation 'diethyl ether/hexanes'
_diffrn_ambient_temperature 150
_diffrn_special_details
;
The scale factors for the twin components refined to 0.3614(6)

;
#These two values have been output from a single CSD field.
_refine_ls_R_factor_gt 0.0493
_refine_ls_wR_factor_gt 0.0493
_symmetry_cell_setting monoclinic
_symmetry_space_group_name_H-M 'P 21/c'
_symmetry_Int_Tables_number 14
loop_
_symmetry_equiv_pos_site_id
_symmetry_equiv_pos_as_xyz
1 x,y,z
2 -x,1/2+y,1/2-z
3 -x,-y,-z
4 x,-1/2-y,-1/2+z
_cell_length_a 11.7459(9)
_cell_length_b 15.2229(12)
_cell_length_c 12.689(1)
_cell_angle_alpha 90
_cell_angle_beta 96.758(4)
_cell_angle_gamma 90
_cell_formula_units_Z 4
loop_
_atom_type_symbol
_atom_type_radius_bond
C 0.68
H 0.23
N 0.68
O 0.68
loop_
_atom_site_label
_atom_site_type_symbol
_atom_site_fract_x
_atom_site_fract_y
_atom_site_fract_z
N1 N 0.08247(17) 0.15958(12) 0.27227(16)
N2 N 0.76101(13) 0.51669(10) 0.62765(11)
C1 C 0.18639(17) 0.17693(13) 0.34623(16)
C2 C 0.18016(18) 0.16860(12) 0.45431(16)
H1 H 0.11060 0.15230 0.48050
C3 C 0.27859(18) 0.18488(12) 0.52264(16)
H2 H 0.27720 0.17890 0.59700
C4 C 0.37958(16) 0.20986(11) 0.48373(15)
C5 C 0.38223(17) 0.21749(11) 0.37458(14)
H3 H 0.45130 0.23420 0.34780
C6 C 0.28477(19) 0.20088(13) 0.30518(16)
H4 H 0.28590 0.20590 0.23070
C7 C 0.48327(17) 0.22642(12) 0.56199(15)
C8 C 0.68853(16) 0.24609(11) 0.57846(14)
H5 H 0.67460 0.26210 0.65230
C9 C 0.74977(17) 0.15716(12) 0.58047(15)
H6 H 0.75570 0.13900 0.50560
C10 C 0.68177(18) 0.08891(13) 0.63081(16)
H7 H 0.67240 0.09600 0.70370
C11 C 0.63451(19) 0.02051(14) 0.58174(17)
H8 H 0.64200 0.01130 0.50880
H9 H 0.59250 -0.02010 0.61890
C12 C 0.87146(17) 0.16445(13) 0.63881(15)
H10 H 0.90970 0.10730 0.63820
H11 H 0.86740 0.18280 0.71230
H12 H 0.91500 0.20800 0.60310
C13 C 0.75060(16) 0.32133(12) 0.53068(14)
H13 H 0.82200 0.33420 0.57920
C14 C 0.78525(16) 0.29887(13) 0.42119(14)
H14 H 0.83230 0.24550 0.42630
H15 H 0.82930 0.34770 0.39600
H16 H 0.71630 0.28910 0.37120
C15 C 0.67827(16) 0.40549(12) 0.51947(14)
H17 H 0.62520 0.40150 0.45200
C16 C 0.66759(16) 0.47922(12) 0.68240(14)
C17 C 0.74958(16) 0.48933(12) 0.51561(13)
H18 H 0.82670 0.47490 0.49410
C18 C 0.71418(18) 0.42731(14) 0.78036(14)
H19 H 0.76900 0.38340 0.76090
H20 H 0.65080 0.39780 0.80970
H21 H 0.75280 0.46730 0.83360
C19 C 0.58134(16) 0.54747(13) 0.70685(15)
H22 H 0.55440 0.58000 0.64200
H23 H 0.61740 0.58830 0.76050
H24 H 0.51620 0.51850 0.73390
C20 C 0.69004(18) 0.55823(13) 0.44041(14)
H25 H 0.73920 0.61020 0.43950
H26 H 0.61700 0.57490 0.46490
H27 H 0.67580 0.53370 0.36870
C21 C 0.84016(17) 0.57330(13) 0.67482(16)
C22 C 0.93574(17) 0.59971(14) 0.61161(16)
H28 H 0.98730 0.64070 0.65330
H29 H 0.90330 0.62820 0.54560
H30 H 0.97880 0.54740 0.59490
O1 O -0.00947(14) 0.15468(12) 0.30878(13)
O2 O 0.09132(14) 0.15301(12) 0.17749(13)
O3 O 0.48068(11) 0.23011(8) 0.6562(1)
O4 O 0.57762(11) 0.23579(7) 0.51239(9)
O5 O 0.61085(10) 0.42059(8) 0.60450(9)
O6 O 0.83651(11) 0.60101(9) 0.76537(11)
#END
