
#######################################################################
#
#                 Cambridge Crystallographic Data Centre
#                                CCDC
#
#######################################################################
#
# If this CIF has been generated from an entry in the Cambridge
# Structural Database, then it will include bibliographic, chemical,
# crystal, experimental, refinement or atomic coordinate data resulting
# from the CCDC's data processing and validation procedures.
#
#######################################################################

data_CSD_CIF_AHUXIK
_audit_creation_date 2003-11-05
_audit_creation_method CSD-ConQuest-V1
_database_code_CSD AHUXIK
_database_code_depnum_ccdc_archive 'CCDC 215237'
_chemical_formula_sum 'C31 H41 N1 O6'
_chemical_formula_moiety
;
C31 H41 N1 O6
;
_journal_coden_Cambridge 1336
_journal_volume 5
_journal_year 2003
_journal_page_first 2351
_journal_name_full 'Org.Lett. '
loop_
_publ_author_name
"N.R.Irlapati"
"J.E.Baldwin"
"R.M.Adlington"
"G.J.Pritchard"
"A.Cowley"
_chemical_name_systematic
;
3-acetyl-1-(3,5-di-t-butyl-4-hydroxyphenyl)-2-hydroxy-6a,7,8,9,10,11,12,13,14a
,14b-decahydro-4H-cyclodeca[4,5]isoxazolo[2,3-a]pyridine-4,14(1H)-dione
;
_cell_volume   1382.883
_exptl_crystal_colour 'colorless'
_exptl_crystal_density_diffrn 1.258
_exptl_special_details
;
for quinone tautomer see [AHUXEG]

;
_exptl_crystal_description 'plate'
_diffrn_ambient_temperature 150
#These two values have been output from a single CSD field.
_refine_ls_R_factor_gt 0.0318
_refine_ls_wR_factor_gt 0.0318
loop_
_citation_database_id_CSD
_citation_special_details
FIDGUV "is a stereoisomer of this entry"
_symmetry_cell_setting monoclinic
_symmetry_space_group_name_H-M 'P 21'
_symmetry_Int_Tables_number 4
loop_
_symmetry_equiv_pos_site_id
_symmetry_equiv_pos_as_xyz
1 x,y,z
2 -x,1/2+y,-z
_cell_length_a 6.0298(2)
_cell_length_b 19.8766(6)
_cell_length_c 11.5736(4)
_cell_angle_alpha 90
_cell_angle_beta 94.4784(15)
_cell_angle_gamma 90
_cell_formula_units_Z 2
loop_
_atom_type_symbol
_atom_type_radius_bond
C 0.68
H 0.23
N 0.68
O 0.68
loop_
_atom_site_label
_atom_site_type_symbol
_atom_site_fract_x
_atom_site_fract_y
_atom_site_fract_z
N1 N 0.2226(3) 0.18312(11) -0.13342(17)
C1 C 0.3881(4) 0.22093(13) -0.1781(2)
C2 C 0.5254(4) 0.25536(12) -0.0890(2)
C3 C 0.4816(4) 0.24855(13) 0.0289(2)
C4 C 0.3008(4) 0.21013(12) 0.06501(19)
C5 C 0.2511(4) 0.20594(13) 0.1892(2)
C6 C 0.1416(4) 0.25826(12) 0.2396(2)
C7 C 0.0904(4) 0.25571(13) 0.3549(2)
C8 C 0.1543(4) 0.19764(13) 0.41890(19)
C9 C 0.2638(4) 0.14323(13) 0.36999(19)
C10 C 0.3132(4) 0.14971(13) 0.2545(2)
C11 C 0.1755(4) 0.17761(12) -0.02088(19)
C12 C -0.0248(4) 0.13366(13) -0.0159(2)
C13 C 0.0300(4) 0.06792(13) 0.0497(2)
O1 O 0.1978(3) 0.0375(1) 0.03188(16)
C14 C -0.1277(4) 0.04566(14) 0.1375(2)
C15 C -0.1341(5) -0.02996(14) 0.1600(2)
C16 C -0.3101(5) -0.06812(15) 0.0830(3)
C17 C -0.2628(5) -0.07886(14) -0.0436(3)
C18 C -0.4206(5) -0.04326(16) -0.1337(3)
C19 C -0.3903(4) 0.03254(14) -0.1410(2)
C20 C -0.1674(4) 0.05321(14) -0.1861(2)
C21 C -0.0985(4) 0.12296(14) -0.1470(2)
O2 O 0.0945(3) 0.1413(1) -0.20895(14)
O3 O 0.4066(3) 0.2211(1) -0.28373(14)
C22 C 0.7140(4) 0.29622(13) -0.1181(2)
O4 O 0.8393(3) 0.32179(11) -0.03963(17)
C23 C 0.7660(6) 0.30831(16) -0.2402(3)
O5 O 0.6111(3) 0.27779(11) 0.11191(15)
C24 C -0.0336(4) 0.31405(14) 0.4082(2)
C25 C -0.0780(5) 0.37193(14) 0.3221(2)
C26 C -0.2611(5) 0.28928(17) 0.4433(2)
C27 C 0.1052(5) 0.34350(15) 0.5135(2)
O6 O 0.0921(3) 0.19333(11) 0.53143(15)
C28 C 0.3264(4) 0.07824(14) 0.4374(2)
C29 C 0.4257(5) 0.02519(14) 0.3604(2)
C30 C 0.5042(6) 0.09274(17) 0.5373(3)
C31 C 0.1203(5) 0.04687(16) 0.4853(3)
H1 H 0.728(7) 0.297(2) 0.085(3)
H2 H 0.207(7) 0.195(2) 0.579(4)
H3 H 0.09810 0.29890 0.19220
H4 H 0.39580 0.11270 0.21810
H5 H -0.14520 0.15360 0.02790
H6 H -0.08270 0.06860 0.21260
H7 H -0.28110 0.06040 0.10920
H8 H -0.16530 -0.03710 0.24270
H9 H 0.01520 -0.04910 0.14660
H10 H -0.32850 -0.11350 0.11840
H11 H -0.45280 -0.04250 0.08350
H12 H -0.27110 -0.12820 -0.05980
H13 H -0.10860 -0.06240 -0.05330
H14 H -0.57660 -0.05230 -0.11420
H15 H -0.39740 -0.06290 -0.21140
H16 H -0.51330 0.05130 -0.19440
H17 H -0.39880 0.05200 -0.06180
H18 H -0.18200 0.05200 -0.27280
H19 H -0.05020 0.02060 -0.15650
H20 H -0.23600 0.15060 -0.16310
H21 H 0.90110 0.33740 -0.24090
H22 H 0.63710 0.33130 -0.28320
H23 H 0.79460 0.26430 -0.27830
H24 H -0.15880 0.40890 0.35980
H25 H 0.06660 0.38940 0.29760
H26 H -0.17090 0.35530 0.25260
H27 H -0.34150 0.32740 0.47800
H28 H -0.23820 0.25220 0.50140
H29 H -0.35120 0.27220 0.37310
H30 H 0.02160 0.38140 0.54690
H31 H 0.24990 0.36060 0.48860
H32 H 0.13410 0.30770 0.57350
H33 H 0.46400 -0.01610 0.40720
H34 H 0.56310 0.04350 0.32890
H35 H 0.31460 0.01350 0.29470
H36 H 0.54270 0.05010 0.58000
H37 H 0.44480 0.12620 0.59160
H38 H 0.64050 0.11140 0.50500
H39 H 0.16390 0.00480 0.52880
H40 H 0.05420 0.07950 0.53870
H41 H 0.00830 0.03580 0.41970
#END
