
#######################################################################
#
#                 Cambridge Crystallographic Data Centre
#                                CCDC
#
#######################################################################
#
# If this CIF has been generated from an entry in the Cambridge
# Structural Database, then it will include bibliographic, chemical,
# crystal, experimental, refinement or atomic coordinate data resulting
# from the CCDC's data processing and validation procedures.
#
#######################################################################

data_CSD_CIF_AHUXUX
_audit_creation_date 2010-03-08
_audit_creation_method CSD-ConQuest-V1
_database_code_CSD AHUXUX
_database_code_depnum_ccdc_archive 'CCDC 692184'
_chemical_formula_sum 'C13 H14 N4 O3'
_chemical_formula_moiety
;
C13 H14 N4 O3
;
_journal_coden_Cambridge 493
_journal_volume 44
_journal_year 2009
_journal_page_first 2975
_journal_name_full 'Eur.J.Med.Chem. '
loop_
_publ_author_name
"E.Hernandez-Nunez"
"H.Tlahuext"
"R.Moo-Puc"
"H.Torres-Gomez"
"R.Reyes-Martinez"
"R.Cedillo-Rivera"
"C.Nava-Zuazo"
"G.Navarrete-Vazquez"
_chemical_name_systematic
;
N-Benzyl-2-(2-methyl-4-nitro-1H-imidazol-1-yl)acetamide
;
_chemical_melting_point 471.15
_cell_volume   1313.691
_exptl_crystal_colour 'yellow'
_exptl_crystal_density_diffrn 1.387
_exptl_special_details
;
Melting point range 471.15-474.05K
Antiparasitic activity when tested against three unicellular parasites. The 
compound was also shown to be non-cytotoxic against the MDCK cell line
;
_exptl_crystal_description 'prism'
_exptl_crystal_preparation 'dimethylsulfoxide'
_diffrn_ambient_temperature 100
#These two values have been output from a single CSD field.
_refine_ls_R_factor_gt 0.0737
_refine_ls_wR_factor_gt 0.0737
_symmetry_cell_setting orthorhombic
_symmetry_space_group_name_H-M 'P n a 21'
_symmetry_Int_Tables_number 33
loop_
_symmetry_equiv_pos_site_id
_symmetry_equiv_pos_as_xyz
1 x,y,z
2 -x,-y,1/2+z
3 1/2+x,1/2-y,z
4 1/2-x,1/2+y,1/2+z
_cell_length_a 13.0874(13)
_cell_length_b 8.4150(8)
_cell_length_c 11.9285(12)
_cell_angle_alpha 90
_cell_angle_beta 90
_cell_angle_gamma 90
_cell_formula_units_Z 4
loop_
_atom_type_symbol
_atom_type_radius_bond
C 0.68
H 0.23
N 0.68
O 0.68
loop_
_atom_site_label
_atom_site_type_symbol
_atom_site_fract_x
_atom_site_fract_y
_atom_site_fract_z
C1 C 0.2263(3) 0.1509(4) 0.3326(4)
C2 C 0.2544(3) 0.2358(6) 0.4226(4)
H1 H 0.26950 0.19720 0.49550
C3 C 0.2297(3) 0.3867(5) 0.2769(4)
C4 C 0.2807(3) 0.5248(6) 0.4562(4)
H2 H 0.25850 0.50360 0.53410
H3 H 0.24180 0.61780 0.42840
C5 C 0.3938(3) 0.5645(4) 0.4560(4)
C6 C 0.5241(4) 0.7095(7) 0.5657(6)
H4 H 0.57020 0.67300 0.50510
H5 H 0.54950 0.66440 0.63720
C7 C 0.5281(3) 0.8872(6) 0.5722(5)
C8 C 0.5541(5) 0.9640(7) 0.6706(5)
H6 H 0.57080 0.90300 0.73510
C9 C 0.5562(5) 1.1273(8) 0.6768(6)
H7 H 0.57330 1.17830 0.74530
C10 C 0.5335(5) 1.2158(8) 0.5839(7)
H8 H 0.53500 1.32850 0.58760
C11 C 0.5092(5) 1.1424(9) 0.4871(7)
H9 H 0.49330 1.20470 0.42300
C12 C 0.5070(5) 0.9815(9) 0.4791(5)
H10 H 0.49100 0.93290 0.40950
C13 C 0.2250(5) 0.5334(6) 0.2071(5)
H11 H 0.20370 0.50560 0.13080
H12 H 0.29260 0.58330 0.20470
H13 H 0.17560 0.60770 0.23970
N1 N 0.2566(3) 0.3879(4) 0.3871(3)
N2 N 0.2102(3) 0.2426(4) 0.2421(3)
N3 N 0.2131(3) -0.0186(5) 0.3266(5)
N4 N 0.4217(3) 0.6499(5) 0.5445(4)
O1 O 0.2332(4) -0.0934(5) 0.4118(4)
O2 O 0.1837(4) -0.0775(4) 0.2398(5)
O3 O 0.4499(3) 0.5245(5) 0.3810(3)
H14 H 0.378(3) 0.668(5) 0.593(4)
#END
