
#######################################################################
#
#                 Cambridge Crystallographic Data Centre
#                                CCDC
#
#######################################################################
#
# If this CIF has been generated from an entry in the Cambridge
# Structural Database, then it will include bibliographic, chemical,
# crystal, experimental, refinement or atomic coordinate data resulting
# from the CCDC's data processing and validation procedures.
#
#######################################################################

data_CSD_CIF_AJAROT
_audit_creation_date 2010-03-08
_audit_creation_method CSD-ConQuest-V1
_database_code_CSD AJAROT
_database_code_depnum_ccdc_archive 'CCDC 704312'
_chemical_formula_sum 'C3 H5 N9 O2'
_chemical_formula_moiety
;
C3 H5 N9 O2
;
_journal_coden_Cambridge 1220
_journal_volume 15
_journal_year 2009
_journal_page_first 5775
_journal_name_full 'Chem.-Eur.J. '
loop_
_publ_author_name
"J.Stierstorfer"
"K.R.Tarantik"
"T.M.Klapotke"
_chemical_name_systematic
;
1-(2-Azidoethyl)-5-nitriminotetrazole
;
_cell_volume    794.629
_exptl_crystal_colour 'colorless'
_exptl_crystal_density_diffrn 1.665
_exptl_special_details
;
friction- and impact-sensitive

;
_exptl_crystal_description 'plate'
_exptl_crystal_preparation 'methanol'
_diffrn_ambient_temperature 200
#These two values have been output from a single CSD field.
_refine_ls_R_factor_gt 0.0332
_refine_ls_wR_factor_gt 0.0332
_symmetry_cell_setting monoclinic
_symmetry_space_group_name_H-M 'P 21/n'
_symmetry_Int_Tables_number 14
loop_
_symmetry_equiv_pos_site_id
_symmetry_equiv_pos_as_xyz
1 x,y,z
2 1/2-x,1/2+y,1/2-z
3 -x,-y,-z
4 -1/2+x,-1/2-y,-1/2+z
_cell_length_a 6.2652(7)
_cell_length_b 7.9142(9)
_cell_length_c 16.0260(19)
_cell_angle_alpha 90
_cell_angle_beta 90.204(9)
_cell_angle_gamma 90
_cell_formula_units_Z 4
loop_
_atom_type_symbol
_atom_type_radius_bond
C 0.68
H 0.23
N 0.68
O 0.68
loop_
_atom_site_label
_atom_site_type_symbol
_atom_site_fract_x
_atom_site_fract_y
_atom_site_fract_z
O1 O -0.2491(2) 0.28833(19) 0.74351(9)
O2 O -0.3839(2) 0.47008(18) 0.65637(8)
N1 N 0.1014(3) 0.1312(2) 0.70770(11)
N2 N -0.0898(3) 0.3422(2) 0.61929(9)
N3 N -0.2434(3) 0.3651(2) 0.67653(11)
N4 N -0.1002(3) 0.2464(2) 0.41151(11)
N5 N 0.2905(3) 0.0478(2) 0.69810(11)
N6 N 0.2403(2) 0.2168(2) 0.59566(10)
N7 N 0.3747(3) 0.1006(2) 0.62994(11)
N8 N 0.0168(3) 0.1307(2) 0.43465(11)
C1 C 0.2896(4) 0.2912(3) 0.51464(13)
C2 C 0.0658(3) 0.2360(2) 0.64346(11)
C3 C 0.2440(4) 0.1725(3) 0.44349(15)
N9 N -0.2278(3) 0.3397(3) 0.39132(13)
H1 H 0.206(3) 0.392(3) 0.5096(11)
H2 H 0.296(3) 0.223(2) 0.3925(12)
H3 H 0.439(4) 0.319(3) 0.5167(12)
H4 H 0.004(4) 0.099(3) 0.7510(14)
H5 H 0.311(3) 0.070(3) 0.4537(11)
#END
