
#######################################################################
#
#                 Cambridge Crystallographic Data Centre
#                                CCDC
#
#######################################################################
#
# If this CIF has been generated from an entry in the Cambridge
# Structural Database, then it will include bibliographic, chemical,
# crystal, experimental, refinement or atomic coordinate data resulting
# from the CCDC's data processing and validation procedures.
#
#######################################################################

data_CSD_CIF_AJEREM
_audit_creation_date 2003-11-05
_audit_creation_method CSD-ConQuest-V1
_database_code_CSD AJEREM
_database_code_depnum_ccdc_archive 'CCDC 213981'
_database_code_depnum_ccdc_journal 1135/138
_chemical_formula_sum 'C5 H9 N3 O3'
_chemical_formula_moiety
;
C5 H9 N3 O3
;
_journal_coden_Cambridge 1135
_journal_year 2003
_journal_page_first 111
_journal_name_full 'Mendeleev Commun. '
loop_
_publ_author_name
"R.G.Kostyanovsky"
"V.R.Kostyanovsky"
"G.K.Kadorkina"
"K.A.Lyssenko"
_chemical_name_systematic
;
1-Methoxyaziridine-2,2-dicarboxamide
;
_cell_volume    748.078
_exptl_crystal_colour 'colorless'
_exptl_crystal_density_diffrn 1.413
_exptl_crystal_description 'prism'
_diffrn_ambient_temperature 193
#These two values have been output from a single CSD field.
_refine_ls_R_factor_gt 0.0423
_refine_ls_wR_factor_gt 0.0423
_symmetry_cell_setting orthorhombic
_symmetry_space_group_name_H-M 'P 21 21 21'
_symmetry_Int_Tables_number 19
loop_
_symmetry_equiv_pos_site_id
_symmetry_equiv_pos_as_xyz
1 x,y,z
2 1/2-x,-y,1/2+z
3 -x,1/2+y,1/2-z
4 1/2+x,1/2-y,-z
_cell_length_a 7.439(2)
_cell_length_b 7.522(2)
_cell_length_c 13.369(4)
_cell_angle_alpha 90
_cell_angle_beta 90
_cell_angle_gamma 90
_cell_formula_units_Z 4
loop_
_atom_type_symbol
_atom_type_radius_bond
C 0.68
H 0.23
N 0.68
O 0.68
loop_
_atom_site_label
_atom_site_type_symbol
_atom_site_fract_x
_atom_site_fract_y
_atom_site_fract_z
O1 O 0.0934(2) 0.9243(3) 0.32075(10)
N1 N 0.1619(2) 0.8909(2) 0.41999(10)
C1 C 0.3459(2) 0.9714(2) 0.42931(11)
O2 O 0.5550(2) 1.0792(3) 0.54620(13)
N2 N 0.2796(3) 1.0120(4) 0.60393(14)
O3 O 0.5046(2) 1.0330(2) 0.27752(11)
N3 N 0.3583(3) 1.2582(2) 0.35180(14)
C2 C 0.3217(3) 0.7781(2) 0.40892(15)
C3 C 0.4097(2) 1.0904(2) 0.34525(12)
C4 C 0.4018(3) 1.0283(3) 0.53275(13)
C5 C -0.0756(4) 1.0074(5) 0.3296(2)
H1 H 0.332(4) 0.690(3) 0.461(2)
H2 H 0.286(4) 1.284(4) 0.398(2)
H3 H 0.391(3) 1.327(4) 0.311(2)
H4 H 0.304(7) 1.048(6) 0.657(4)
H5 H 0.339(4) 0.742(4) 0.346(2)
H6 H -0.076(7) 1.098(6) 0.371(4)
H7 H 0.178(6) 0.976(6) 0.587(3)
H8 H -0.107(6) 1.042(6) 0.272(4)
H9 H -0.170(9) 0.962(8) 0.364(5)
#END
