
#######################################################################
#
#                 Cambridge Crystallographic Data Centre
#                                CCDC
#
#######################################################################
#
# If this CIF has been generated from an entry in the Cambridge
# Structural Database, then it will include bibliographic, chemical,
# crystal, experimental, refinement or atomic coordinate data resulting
# from the CCDC's data processing and validation procedures.
#
#######################################################################

data_CSD_CIF_AJIMAJ01
_audit_creation_date 2017-02-23
_audit_creation_method CSD-ConQuest-V1
_database_code_CSD AJIMAJ01
_database_code_depnum_ccdc_archive 'CCDC 1407564'
_chemical_formula_sum 'C21 H28 N2 O8'
_chemical_formula_moiety
;
C21 H28 N2 O8
;
_journal_coden_Cambridge 119
_journal_volume 1122
_journal_year 2016
_journal_page_first 37
_journal_name_full 'J.Mol.Struct. '
loop_
_publ_author_name
"M.Samipillai"
"N.Bhatt"
"T.Govender"
"T.Naicker"
_chemical_name_systematic
;
1-t-butyl 2-ethyl 
2-(1-(4-methoxyphenyl)-2-nitroethyl)-3-oxopyrrolidine-1,2-dicarboxylate
;
_cell_volume   2203.057
_exptl_crystal_colour 'colorless'
_exptl_crystal_density_diffrn 1.316
_exptl_crystal_description 'Plate'
_diffrn_ambient_temperature 173
#These two values have been output from a single CSD field.
_refine_ls_R_factor_gt 0.026
_refine_ls_wR_factor_gt 0.026
_symmetry_cell_setting orthorhombic
_symmetry_space_group_name_H-M 'P 21 21 21'
_symmetry_Int_Tables_number 19
loop_
_symmetry_equiv_pos_site_id
_symmetry_equiv_pos_as_xyz
1 x,y,z
2 1/2-x,-y,1/2+z
3 1/2+x,1/2-y,-z
4 -x,1/2+y,1/2-z
_cell_length_a 8.9828(4)
_cell_length_b 14.8284(6)
_cell_length_c 16.5394(7)
_cell_angle_alpha 90
_cell_angle_beta 90
_cell_angle_gamma 90
_cell_formula_units_Z 4
loop_
_atom_type_symbol
_atom_type_radius_bond
C 0.68
H 0.23
N 0.68
O 0.68
loop_
_atom_site_label
_atom_site_type_symbol
_atom_site_fract_x
_atom_site_fract_y
_atom_site_fract_z
N1 N 1.05302(14) 0.42828(9) 0.15025(8)
C1 C 1.20414(18) 0.41925(11) 0.18325(10)
H1 H 1.256(2) 0.3693(15) 0.1554(13)
H2 H 1.202(2) 0.4056(14) 0.2419(13)
C2 C 1.27475(19) 0.51087(12) 0.16773(11)
H3 H 1.331(3) 0.5314(15) 0.2114(15)
H4 H 1.332(3) 0.5104(16) 0.1200(15)
C3 C 1.14840(18) 0.57486(11) 0.15109(9)
C4 C 1.00177(18) 0.52087(10) 0.14100(9)
O1 O 1.15492(14) 0.65582(8) 0.14555(8)
C5 C 0.94041(19) 0.53692(10) 0.05502(10)
O2 O 0.83277(14) 0.58159(8) 0.03999(7)
O3 O 1.02610(14) 0.49527(8) 0.00077(7)
C6 C 0.9754(2) 0.49812(12) -0.08325(10)
H5 H 0.867(3) 0.4899(14) -0.0833(12)
H6 H 1.025(2) 0.4474(14) -0.1068(13)
C7 C 1.0230(2) 0.58380(14) -0.12456(11)
H7 H 0.971(3) 0.6340(15) -0.1035(13)
H8 H 0.993(3) 0.5781(16) -0.1808(16)
H9 H 1.123(3) 0.5932(17) -0.1179(15)
C8 C 0.88448(18) 0.54754(11) 0.20713(10)
H10 H 0.796(2) 0.5178(13) 0.1910(12)
C9 C 0.85219(19) 0.64884(11) 0.20781(11)
H11 H 0.905(2) 0.6813(14) 0.2485(12)
H12 H 0.861(2) 0.6791(14) 0.1557(13)
N2 N 0.69238(17) 0.66754(10) 0.22960(9)
O4 O 0.65020(16) 0.74502(9) 0.21962(10)
O5 O 0.61271(17) 0.60676(10) 0.25466(10)
C10 C 0.93222(18) 0.51017(11) 0.28870(9)
C11 C 0.87632(18) 0.42769(12) 0.31462(10)
H13 H 0.801(2) 0.3989(13) 0.2829(12)
C12 C 0.9258(2) 0.38624(12) 0.38535(10)
H14 H 0.889(2) 0.3319(14) 0.4011(12)
C13 C 1.03443(19) 0.42868(11) 0.43123(9)
C14 C 1.0922(2) 0.51145(12) 0.40646(10)
H15 H 1.168(3) 0.5417(16) 0.4400(15)
C15 C 1.04064(19) 0.55165(11) 0.33612(10)
H16 H 1.084(2) 0.6072(15) 0.3204(13)
O6 O 1.09160(16) 0.39561(8) 0.50189(7)
C16 C 1.0319(2) 0.31244(13) 0.53107(12)
H17 H 0.929(3) 0.3183(16) 0.5412(15)
H18 H 1.079(3) 0.3013(15) 0.5837(14)
H19 H 1.047(3) 0.2629(17) 0.4929(15)
C17 C 0.96695(18) 0.35459(10) 0.13725(9)
O7 O 1.00784(14) 0.27745(8) 0.14767(8)
O8 O 0.83182(13) 0.38101(7) 0.11124(7)
C18 C 0.7124(2) 0.31661(12) 0.09071(12)
C19 C 0.5893(3) 0.37979(18) 0.0655(3)
H20 H 0.501(4) 0.345(2) 0.056(2)
H21 H 0.567(4) 0.424(3) 0.106(2)
H22 H 0.617(4) 0.409(2) 0.0187(19)
C20 C 0.7633(3) 0.25467(16) 0.02345(14)
H23 H 0.79380 0.29080 -0.02330
H24 H 0.68130 0.21470 0.00790
H25 H 0.84770 0.21840 0.04220
C21 C 0.6674(3) 0.26378(16) 0.16560(16)
H26 H 0.747(3) 0.2277(18) 0.1895(18)
H27 H 0.589(3) 0.2208(18) 0.1483(17)
H28 H 0.623(4) 0.307(2) 0.207(2)
#END
