
#######################################################################
#
#                 Cambridge Crystallographic Data Centre
#                                CCDC
#
#######################################################################
#
# If this CIF has been generated from an entry in the Cambridge
# Structural Database, then it will include bibliographic, chemical,
# crystal, experimental, refinement or atomic coordinate data resulting
# from the CCDC's data processing and validation procedures.
#
#######################################################################

data_CSD_CIF_AJITOC
_audit_creation_date 2003-11-05
_audit_creation_method CSD-ConQuest-V1
_database_code_CSD AJITOC
_database_code_depnum_ccdc_archive 'CCDC 199132'
_chemical_formula_sum 'C11 H17 N4 O2'
_chemical_formula_moiety
;
C11 H17 N4 O2
;
_journal_coden_Cambridge 580
_journal_volume 22
_journal_year 2003
_journal_page_first 1957
_journal_name_full 'Polyhedron '
loop_
_publ_author_name
"E.Fursova"
"G.Romanenko"
"V.Ikorskii"
"V.Ovcharenko"
_chemical_name_systematic
;
2-(5-Methylimidazol-4-yl)-4,4,5,5-tetramethyl-2-imidazoline-3-oxide-1-oxyl
;
_chemical_melting_point 456.15
_cell_volume   1224.302
_exptl_crystal_colour 'deep violet blue'
_exptl_crystal_density_diffrn 1.282
_exptl_crystal_preparation 'methanol'
_diffrn_ambient_temperature 293
#These two values have been output from a single CSD field.
_refine_ls_R_factor_gt 0.0385
_refine_ls_wR_factor_gt 0.0385
_symmetry_cell_setting monoclinic
_symmetry_space_group_name_H-M 'P 21/n'
_symmetry_Int_Tables_number 14
loop_
_symmetry_equiv_pos_site_id
_symmetry_equiv_pos_as_xyz
1 x,y,z
2 1/2+x,1/2-y,1/2+z
3 -x,-y,-z
4 -1/2-x,-1/2+y,-1/2-z
_cell_length_a 10.010(2)
_cell_length_b 10.021(2)
_cell_length_c 13.092(3)
_cell_angle_alpha 90
_cell_angle_beta 111.21(3)
_cell_angle_gamma 90
_cell_formula_units_Z 4
loop_
_atom_type_symbol
_atom_type_radius_bond
C 0.68
H 0.23
N 0.68
O 0.68
loop_
_atom_site_label
_atom_site_type_symbol
_atom_site_fract_x
_atom_site_fract_y
_atom_site_fract_z
O1 O 0.35563(16) 1.12642(13) 0.42215(11)
N1 N 0.28098(16) 1.02635(13) 0.43141(11)
C1 C 0.2261(2) 0.92444(17) 0.34204(14)
C2 C 0.0906(3) 0.9855(3) 0.25840(18)
H1 H 0.011(3) 0.996(2) 0.293(2)
H2 H 0.055(3) 0.927(2) 0.193(2)
H3 H 0.115(3) 1.067(3) 0.2332(19)
C3 C 0.3369(3) 0.8936(3) 0.2927(2)
H4 H 0.306(2) 0.817(3) 0.245(2)
H5 H 0.353(3) 0.969(2) 0.2514(18)
H6 H 0.433(3) 0.872(2) 0.351(2)
C4 C 0.19294(19) 0.80846(17) 0.40747(13)
C5 C 0.0650(3) 0.7240(2) 0.34241(19)
H7 H 0.055(3) 0.650(2) 0.387(2)
H8 H 0.078(2) 0.687(2) 0.2736(19)
H9 H -0.027(3) 0.776(2) 0.3162(19)
C6 C 0.3227(3) 0.7213(2) 0.46748(19)
H10 H 0.408(3) 0.771(2) 0.5057(19)
H11 H 0.299(3) 0.664(2) 0.520(2)
H12 H 0.346(3) 0.662(2) 0.414(2)
N2 N 0.16331(16) 0.88612(13) 0.49470(11)
O2 O 0.09391(14) 0.83628(12) 0.55046(10)
C7 C 0.23254(19) 1.00418(16) 0.51310(13)
C8 C 0.25798(19) 1.08575(16) 0.60916(13)
N3 N 0.28869(17) 1.02566(14) 0.71064(11)
C9 C 0.3140(2) 1.12594(19) 0.77861(16)
H13 H 0.337(2) 1.121(2) 0.8581(19)
N4 N 0.30043(18) 1.24475(16) 0.72819(12)
H14 H 0.303(2) 1.318(2) 0.7580(16)
C10 C 0.26316(19) 1.22185(17) 0.61847(14)
C11 C 0.2304(3) 1.3313(2) 0.5366(2)
H15 H 0.308(5) 1.373(4) 0.538(3)
H16 H 0.186(4) 1.400(3) 0.553(3)
H17 H 0.195(4) 1.303(4) 0.464(3)
#END
