
#######################################################################
#
#                 Cambridge Crystallographic Data Centre
#                                CCDC
#
#######################################################################
#
# If this CIF has been generated from an entry in the Cambridge
# Structural Database, then it will include bibliographic, chemical,
# crystal, experimental, refinement or atomic coordinate data resulting
# from the CCDC's data processing and validation procedures.
#
#######################################################################

data_CSD_CIF_AKAWIS
_audit_creation_date 2003-12-16
_audit_creation_method CSD-ConQuest-V1
_database_code_CSD AKAWIS
_database_code_depnum_ccdc_archive 'CCDC 209721'
_chemical_formula_sum 'C10 H16 N4 O1'
_chemical_formula_moiety
;
C10 H16 N4 O1
;
_journal_coden_Cambridge 24
_journal_volume 44
_journal_year 2003
_journal_page_first 6397
_journal_name_full 'Tetrahedron Lett. '
loop_
_publ_author_name
"E.Yu.Fursova"
"V.I.Ovcharenko"
"G.V.Romanenko"
"E.V.Tretyakov"
_chemical_name_systematic
;
4,4,5,5-tetramethyl-4,5-dihydro-1H,3'H-[2,4']-biimidazolyl-3-oxide
;
_chemical_melting_point 489.15
_cell_volume   1136.674
_exptl_crystal_density_diffrn 1.217
_exptl_special_details
;
Melting point range 489.15-493.15K

;
_diffrn_ambient_temperature 273
#These two values have been output from a single CSD field.
_refine_ls_R_factor_gt 0.0391
_refine_ls_wR_factor_gt 0.0391
_symmetry_cell_setting orthorhombic
_symmetry_space_group_name_H-M 'P 21 21 21'
_symmetry_Int_Tables_number 19
loop_
_symmetry_equiv_pos_site_id
_symmetry_equiv_pos_as_xyz
1 x,y,z
2 1/2-x,-y,1/2+z
3 -x,1/2+y,1/2-z
4 1/2+x,1/2-y,-z
_cell_length_a 7.5254(9)
_cell_length_b 12.0955(15)
_cell_length_c 12.4877(15)
_cell_angle_alpha 90
_cell_angle_beta 90
_cell_angle_gamma 90
_cell_formula_units_Z 4
loop_
_atom_type_symbol
_atom_type_radius_bond
C 0.68
H 0.23
N 0.68
O 0.68
loop_
_atom_site_label
_atom_site_type_symbol
_atom_site_fract_x
_atom_site_fract_y
_atom_site_fract_z
O1 O 0.26102(17) 0.05152(11) 0.9428(1)
N1 N 0.31769(19) 0.02001(13) 1.04036(12)
C1 C 0.4521(2) -0.06779(16) 1.05511(15)
C2 C 0.6119(3) -0.0453(2) 0.9845(2)
H1 H 0.574(4) -0.053(3) 0.908(3)
H2 H 0.699(3) -0.097(2) 1.0012(18)
H3 H 0.656(3) 0.031(3) 0.989(2)
C3 C 0.3677(4) -0.17730(18) 1.02412(18)
H4 H 0.322(3) -0.170(2) 0.953(2)
H5 H 0.253(3) -0.195(2) 1.067(2)
H6 H 0.456(3) -0.235(2) 1.0249(19)
C4 C 0.4858(3) -0.05524(18) 1.17870(15)
H7 H 0.552(4) -0.145(3) 1.306(3)
H8 H 0.411(4) -0.216(3) 1.236(2)
H9 H 0.649(4) -0.195(3) 1.211(3)
C5 C 0.6282(3) 0.0304(3) 1.2033(2)
H10 H 0.764(3) -0.001(2) 1.185(2)
H11 H 0.630(4) 0.036(3) 1.275(3)
H12 H 0.602(4) 0.102(3) 1.175(2)
C6 C 0.5256(4) -0.1632(2) 1.2359(2)
N2 N 0.3123(2) -0.01098(14) 1.21272(13)
H13 H 0.288(3) 0.012(2) 1.279(2)
C7 C 0.2436(2) 0.04872(16) 1.13033(14)
C8 C 0.1152(2) 0.13478(17) 1.14374(14)
C9 C 0.0326(3) 0.20064(18) 1.06987(17)
H14 H 0.035(4) 0.197(2) 0.999(2)
N3 N -0.0584(2) 0.27746(16) 1.12472(14)
H15 H -0.129(3) 0.335(2) 1.0988(18)
C10 C -0.0285(3) 0.25625(18) 1.22882(17)
H16 H -0.084(3) 0.299(3) 1.284(2)
N4 N 0.0737(2) 0.17129(15) 1.24445(12)
#END
