
#######################################################################
#
#                 Cambridge Crystallographic Data Centre
#                                CCDC
#
#######################################################################
#
# If this CIF has been generated from an entry in the Cambridge
# Structural Database, then it will include bibliographic, chemical,
# crystal, experimental, refinement or atomic coordinate data resulting
# from the CCDC's data processing and validation procedures.
#
#######################################################################

data_CSD_CIF_AKAYOB
_audit_creation_date 2011-03-04
_audit_creation_method CSD-ConQuest-V1
_database_code_CSD AKAYOB
_database_code_depnum_ccdc_archive 'CCDC 694327'
_chemical_formula_sum 'C18 H24 N6 O3'
_chemical_formula_moiety
;
C18 H24 N6 O3
;
_journal_coden_Cambridge 388
_journal_volume 45
_journal_year 2009
_journal_page_first 1340
_journal_name_full 'Zh.Org.Khim.(Russ.)(Russ.J.Org.Chem.) '
loop_
_publ_author_name
"I.N.Bardasov"
"O.V.Kayukova"
"Ya.S.Kayukov"
"O.V.Ershov"
"O.E.Nasakin"
"V.A.Tafeenko"
_chemical_name_systematic
;
2-Amino-6-(2,2-dimethylpropanoyl)-4,4-bis((isopropylideneamino)oxy)-3-azabicyc
lo[3.1.0]hex-2-ene-1,5-dicarbonitrile
;
_chemical_name_common
;
4-Amino-6-pivaloyl-2,2-bis((isoprop-2-ylideneamino)oxy)-3-azabicyclo[3.1.0]hex
-3-ene-1,5-dicarbonitrile
;
_chemical_melting_point 453.15
_cell_volume   2039.387
_exptl_crystal_density_diffrn 1.213
_exptl_special_details
;
Melts with decomposition.

;
_diffrn_ambient_temperature 295
#These two values have been output from a single CSD field.
_refine_ls_R_factor_gt 0.075
_refine_ls_wR_factor_gt 0.075
_symmetry_cell_setting monoclinic
_symmetry_space_group_name_H-M 'P 21/c'
_symmetry_Int_Tables_number 14
loop_
_symmetry_equiv_pos_site_id
_symmetry_equiv_pos_as_xyz
1 x,y,z
2 -x,1/2+y,1/2-z
3 -x,-y,-z
4 x,-1/2-y,-1/2+z
_cell_length_a 10.1568(14)
_cell_length_b 12.8889(16)
_cell_length_c 15.8516(15)
_cell_angle_alpha 90
_cell_angle_beta 100.65(2)
_cell_angle_gamma 90
_cell_formula_units_Z 4
loop_
_atom_type_symbol
_atom_type_radius_bond
C 0.68
H 0.23
N 0.68
O 0.68
loop_
_atom_site_label
_atom_site_type_symbol
_atom_site_fract_x
_atom_site_fract_y
_atom_site_fract_z
O1 O 0.4591(3) 0.2833(2) 0.1545(2)
O2 O 0.4171(3) 0.2154(2) 0.0164(2)
O3 O -0.0476(3) 0.3366(3) 0.0970(2)
N1 N 0.4199(3) 0.3970(3) 0.0421(2)
N2 N 0.4031(4) 0.1950(3) 0.1913(3)
N3 N 0.5606(3) 0.2139(3) 0.0212(3)
N4 N 0.1025(4) 0.1209(4) 0.0254(4)
N5 N -0.0276(4) 0.4114(3) -0.0925(3)
N6 N 0.3061(4) 0.5400(3) -0.0229(3)
C1 C 0.3879(4) 0.2954(3) 0.0711(3)
C2 C 0.2350(4) 0.2909(3) 0.0659(3)
C3 C 0.1847(4) 0.3930(3) 0.0258(3)
C4 C 0.3115(4) 0.4470(3) 0.0133(3)
C5 C 0.1815(4) 0.3723(4) 0.1190(3)
C6 C 0.0501(5) 0.3574(4) 0.1488(3)
C7 C 0.0506(5) 0.3649(5) 0.2433(4)
C8 C 0.1201(8) 0.4618(6) 0.2841(4)
H1 H 0.21490 0.45590 0.28610
H2 H 0.10290 0.46930 0.34130
H3 H 0.08660 0.52140 0.25060
C9 C 0.1328(10) 0.2742(6) 0.2859(5)
H4 H 0.09380 0.21030 0.26230
H5 H 0.13360 0.27560 0.34660
H6 H 0.22290 0.27950 0.27580
C10 C -0.0878(7) 0.3617(11) 0.2598(5)
H7 H -0.13840 0.41800 0.23030
H8 H -0.08610 0.36790 0.32040
H9 H -0.12880 0.29700 0.23950
C11 C 0.0636(4) 0.4019(3) -0.0381(3)
C12 C 0.1618(4) 0.1948(4) 0.0445(3)
C13 C 0.5930(5) 0.1468(4) -0.0296(4)
C14 C 0.4878(6) 0.1537(4) 0.2504(4)
C15 C 0.4343(7) 0.0664(5) 0.2976(4)
H10 H 0.34530 0.04920 0.26900
H11 H 0.43250 0.08760 0.35540
H12 H 0.49120 0.00680 0.29840
C16 C 0.6299(6) 0.1864(5) 0.2749(4)
H13 H 0.67690 0.16920 0.22950
H14 H 0.67060 0.15120 0.32650
H15 H 0.63400 0.26000 0.28440
C17 C 0.7427(5) 0.1374(5) -0.0264(4)
H16 H 0.78890 0.18680 0.01390
H17 H 0.76250 0.15090 -0.08230
H18 H 0.77150 0.06850 -0.00860
C18 C 0.5006(6) 0.0805(5) -0.0901(4)
H19 H 0.41860 0.07110 -0.06900
H20 H 0.54160 0.01430 -0.09510
H21 H 0.48160 0.11330 -0.14540
H22 H 0.224(5) 0.577(3) -0.043(3)
H23 H 0.377(4) 0.569(3) -0.028(3)
H24 H 0.244(4) 0.403(3) 0.152(2)
#END
