
#######################################################################
#
#                 Cambridge Crystallographic Data Centre
#                                CCDC
#
#######################################################################
#
# If this CIF has been generated from an entry in the Cambridge
# Structural Database, then it will include bibliographic, chemical,
# crystal, experimental, refinement or atomic coordinate data resulting
# from the CCDC's data processing and validation procedures.
#
#######################################################################

data_CSD_CIF_AKUJAT
_audit_creation_date 2016-04-18
_audit_creation_method CSD-ConQuest-V1
_database_code_CSD AKUJAT
_database_code_depnum_ccdc_archive 'CCDC 1443142'
_chemical_formula_sum 'C18 H21 N1 O5'
_chemical_formula_moiety
;
C18 H21 N1 O5
;
_journal_coden_Cambridge 1336
_journal_volume 18
_journal_year 2016
_journal_page_first 1760
_journal_name_full 'Org.Lett. '
loop_
_publ_author_name
"Arun Raja"
"Bor-Cherng Hong"
"Ju-Hsiou Liao"
"Gene-Hsiang Lee"
_chemical_name_systematic
;
4a-hydroxy-8a-methyl-4-nitro-8-oxo-3-phenyldecahydronaphthalene-2-carbaldehyde
;
_cell_volume   1584.894
_exptl_crystal_colour 'colorless'
_exptl_crystal_density_diffrn 1.389
_exptl_crystal_description 'Irregular'
_diffrn_ambient_temperature 173
#These two values have been output from a single CSD field.
_refine_ls_R_factor_gt 0.0465
_refine_ls_wR_factor_gt 0.0465
_symmetry_cell_setting monoclinic
_symmetry_space_group_name_H-M 'P 21/n'
_symmetry_Int_Tables_number 14
loop_
_symmetry_equiv_pos_site_id
_symmetry_equiv_pos_as_xyz
1 x,y,z
2 1/2-x,1/2+y,1/2-z
3 -x,-y,-z
4 -1/2+x,-1/2-y,-1/2+z
_cell_length_a 12.4616(14)
_cell_length_b 7.5556(8)
_cell_length_c 17.8282(19)
_cell_angle_alpha 90
_cell_angle_beta 109.236(2)
_cell_angle_gamma 90
_cell_formula_units_Z 4
loop_
_atom_type_symbol
_atom_type_radius_bond
C 0.68
H 0.23
N 0.68
O 0.68
loop_
_atom_site_label
_atom_site_type_symbol
_atom_site_fract_x
_atom_site_fract_y
_atom_site_fract_z
O1 O 0.52443(11) 0.3032(2) 1.04980(8)
O2 O 0.88818(11) 0.23476(17) 1.02925(8)
H1 H 0.95140 0.28610 1.04640
O3 O 0.82715(14) 0.73141(18) 0.97888(9)
O4 O 0.89685(12) 0.53122(19) 0.92215(8)
O5 O 0.45525(13) 0.0656(2) 0.80732(9)
N1 N 0.82817(14) 0.5816(2) 0.95348(9)
C1 C 0.67434(18) 0.4494(3) 1.14985(12)
H2 H 0.70930 0.38120 1.19930
H3 H 0.61230 0.52210 1.15690
C2 C 0.62575(17) 0.3229(3) 1.08158(11)
C3 C 0.71261(15) 0.2157(2) 1.05600(11)
C4 C 0.80347(15) 0.3433(2) 1.04238(11)
C5 C 0.85355(16) 0.4658(3) 1.11371(11)
H4 H 0.89760 0.39410 1.16010
H5 H 0.90670 0.54960 1.10160
C6 C 0.76350(18) 0.5706(3) 1.13541(12)
H6 H 0.72580 0.65400 1.09180
H7 H 0.80050 0.64090 1.18390
C7 C 0.76932(18) 0.0849(3) 1.12412(12)
H8 H 0.71060 0.01440 1.13570
H9 H 0.81280 0.15110 1.17170
H10 H 0.82050 0.00630 1.10820
C8 C 0.65486(16) 0.1073(2) 0.98152(11)
H11 H 0.59340 0.03620 0.99040
H12 H 0.71100 0.02380 0.97310
C9 C 0.60427(16) 0.2183(2) 0.90593(11)
H13 H 0.54260 0.29580 0.91200
C10 C 0.69782(15) 0.3348(2) 0.89115(10)
H14 H 0.76050 0.25570 0.88790
C11 C 0.74349(15) 0.4509(2) 0.9647(1)
H15 H 0.67860 0.51810 0.97210
C12 C 0.55504(19) 0.0918(3) 0.83856(12)
H16 H 0.60630 0.02800 0.81930
C13 C 0.65232(15) 0.4373(2) 0.81363(10)
C14 C 0.66940(17) 0.3711(3) 0.74557(11)
H17 H 0.71270 0.26620 0.74880
C15 C 0.62395(17) 0.4564(3) 0.67309(11)
H18 H 0.63570 0.40910 0.62710
C16 C 0.56163(16) 0.6098(3) 0.66762(11)
H19 H 0.53030 0.66790 0.61790
C17 C 0.54511(16) 0.6784(3) 0.73468(11)
H20 H 0.50250 0.78420 0.73120
C18 C 0.59072(15) 0.5930(2) 0.80741(11)
H21 H 0.57960 0.64180 0.85340
#END
