
#######################################################################
#
#                 Cambridge Crystallographic Data Centre
#                                CCDC
#
#######################################################################
#
# If this CIF has been generated from an entry in the Cambridge
# Structural Database, then it will include bibliographic, chemical,
# crystal, experimental, refinement or atomic coordinate data resulting
# from the CCDC's data processing and validation procedures.
#
#######################################################################

data_CSD_CIF_AKUPIG
_audit_creation_date 2011-04-26
_audit_creation_method CSD-ConQuest-V1
_database_code_CSD AKUPIG
_database_code_depnum_ccdc_archive 'CCDC 813625'
_chemical_formula_sum 'C11 H12 N2 O3'
_chemical_formula_moiety
;
C11 H12 N2 O3
;
_journal_coden_Cambridge 35
_journal_volume 75
_journal_year 2010
_journal_page_first 5882
_journal_name_full 'J.Org.Chem. '
loop_
_publ_author_name
"M.Angelin"
"M.Rahm"
"A.Fischer"
"T.Brinck"
"O.Ramstrom"
_chemical_name_systematic
;
3-(2-Nitropropan-2-yl)-2-benzofuran-1(3H)-imine
;
_cell_volume   1042.035
_exptl_crystal_colour 'colorless'
_exptl_crystal_density_diffrn 1.404
_exptl_crystal_description 'plate'
_diffrn_ambient_temperature 299
#These two values have been output from a single CSD field.
_refine_ls_R_factor_gt 0.057
_refine_ls_wR_factor_gt 0.057
_symmetry_cell_setting monoclinic
_symmetry_space_group_name_H-M 'P 21/c'
_symmetry_Int_Tables_number 14
loop_
_symmetry_equiv_pos_site_id
_symmetry_equiv_pos_as_xyz
1 x,y,z
2 -x,1/2+y,1/2-z
3 -x,-y,-z
4 x,-1/2-y,-1/2+z
_cell_length_a 6.2542(5)
_cell_length_b 15.983(2)
_cell_length_c 10.437(1)
_cell_angle_alpha 90
_cell_angle_beta 92.812(8)
_cell_angle_gamma 90
_cell_formula_units_Z 4
loop_
_atom_type_symbol
_atom_type_radius_bond
C 0.68
H 0.23
N 0.68
O 0.68
loop_
_atom_site_label
_atom_site_type_symbol
_atom_site_fract_x
_atom_site_fract_y
_atom_site_fract_z
C1 C 0.1031(5) 0.20121(19) 0.7320(3)
C2 C 0.2975(5) 0.20301(17) 0.8147(3)
C3 C 0.4526(5) 0.1420(2) 0.8306(3)
C4 C 0.6192(6) 0.1574(2) 0.9163(3)
C5 C 0.6283(5) 0.2306(2) 0.9843(3)
C6 C 0.4731(5) 0.2918(2) 0.9696(3)
C7 C 0.3057(4) 0.27682(17) 0.8818(2)
C8 C 0.1098(4) 0.32662(17) 0.8441(3)
C9 C 0.1484(4) 0.41071(17) 0.7809(3)
C10 C 0.2469(5) 0.47218(19) 0.8768(3)
C11 C 0.2750(6) 0.4037(2) 0.6617(3)
N1 N 0.0320(4) 0.15095(14) 0.6580(2)
N2 N -0.0745(5) 0.44470(16) 0.7435(3)
O1 O -0.0055(3) 0.27380(12) 0.75199(19)
O2 O -0.2059(4) 0.44381(17) 0.8253(3)
O3 O -0.1101(5) 0.4726(2) 0.6383(3)
H1 H 0.44380 0.09220 0.78460
H2 H 0.72750 0.11800 0.92860
H3 H 0.74330 0.23950 1.04260
H4 H 0.48130 0.34110 1.01690
H5 H 0.02400 0.33480 0.91920
H6 H 0.16170 0.47450 0.95080
H7 H 0.25230 0.52660 0.83830
H8 H 0.38940 0.45440 0.90230
H9 H 0.20690 0.36420 0.60370
H10 H 0.41760 0.38510 0.68490
H11 H 0.28100 0.45740 0.62080
H12 H 0.12100 0.12420 0.63510
#END
