
#######################################################################
#
#                 Cambridge Crystallographic Data Centre
#                                CCDC
#
#######################################################################
#
# If this CIF has been generated from an entry in the Cambridge
# Structural Database, then it will include bibliographic, chemical,
# crystal, experimental, refinement or atomic coordinate data resulting
# from the CCDC's data processing and validation procedures.
#
#######################################################################

data_CSD_CIF_AKUPUS
_audit_creation_date 2011-04-26
_audit_creation_method CSD-ConQuest-V1
_database_code_CSD AKUPUS
_database_code_depnum_ccdc_archive 'CCDC 813627'
_chemical_formula_sum 'C10 H10 N2 O4'
_chemical_formula_moiety
;
C10 H10 N2 O4
;
_journal_coden_Cambridge 35
_journal_volume 75
_journal_year 2010
_journal_page_first 5882
_journal_name_full 'J.Org.Chem. '
loop_
_publ_author_name
"M.Angelin"
"M.Rahm"
"A.Fischer"
"T.Brinck"
"O.Ramstrom"
_chemical_name_systematic
;
3-(2-Hydroxy-1-nitroethyl)isoindolin-1-one
;
_cell_volume   1000.486
_exptl_crystal_colour 'colorless'
_exptl_crystal_density_diffrn 1.475
_exptl_crystal_description 'needle'
_diffrn_ambient_temperature 299
#These two values have been output from a single CSD field.
_refine_ls_R_factor_gt 0.055
_refine_ls_wR_factor_gt 0.055
_symmetry_cell_setting monoclinic
_symmetry_space_group_name_H-M 'P 21/n'
_symmetry_Int_Tables_number 14
loop_
_symmetry_equiv_pos_site_id
_symmetry_equiv_pos_as_xyz
1 x,y,z
2 1/2-x,1/2+y,1/2-z
3 -x,-y,-z
4 -1/2+x,-1/2-y,-1/2+z
_cell_length_a 10.626(2)
_cell_length_b 5.8228(12)
_cell_length_c 16.673(4)
_cell_angle_alpha 90
_cell_angle_beta 104.11(2)
_cell_angle_gamma 90
_cell_formula_units_Z 4
loop_
_atom_type_symbol
_atom_type_radius_bond
C 0.68
H 0.23
N 0.68
O 0.68
loop_
_atom_site_label
_atom_site_type_symbol
_atom_site_fract_x
_atom_site_fract_y
_atom_site_fract_z
C1 C 0.7306(3) 0.4616(5) 0.42678(16)
C2 C 0.7265(3) 0.4397(5) 0.50898(15)
C3 C 0.8011(3) 0.5741(6) 0.57007(18)
C4 C 0.8814(4) 0.7327(7) 0.5477(2)
C5 C 0.8884(4) 0.7493(8) 0.4663(2)
C6 C 0.8134(3) 0.6161(6) 0.40489(18)
C7 C 0.6353(3) 0.2548(5) 0.51469(17)
C8 C 0.6310(2) 0.3043(5) 0.37440(15)
C9 C 0.5180(3) 0.4386(5) 0.31842(16)
C10 C 0.4160(3) 0.2895(6) 0.2645(2)
N1 N 0.5834(2) 0.1823(4) 0.43720(13)
N2 N 0.5715(2) 0.5947(4) 0.26310(14)
O1 O 0.61098(18) 0.1758(3) 0.57851(11)
O2 O 0.3169(2) 0.4385(4) 0.22220(15)
O3 O 0.6270(2) 0.5089(4) 0.21499(12)
O4 O 0.5581(2) 0.8010(4) 0.26936(14)
H1 H 0.79710 0.55800 0.62490
H2 H 0.93130 0.82930 0.58730
H3 H 0.94580 0.85410 0.45250
H4 H 0.81880 0.63050 0.35030
H5 H 0.664(2) 0.196(4) 0.3409(15)
H6 H 0.482(2) 0.538(5) 0.3527(16)
H7 H 0.380(3) 0.190(5) 0.3013(17)
H8 H 0.456(3) 0.208(5) 0.2278(17)
H9 H 0.526(3) 0.071(5) 0.4276(16)
H10 H 0.271(4) 0.367(7) 0.185(2)
#END
