
#######################################################################
#
#                 Cambridge Crystallographic Data Centre
#                                CCDC
#
#######################################################################
#
# If this CIF has been generated from an entry in the Cambridge
# Structural Database, then it will include bibliographic, chemical,
# crystal, experimental, refinement or atomic coordinate data resulting
# from the CCDC's data processing and validation procedures.
#
#######################################################################

data_CSD_CIF_AKURAA
_audit_creation_date 2011-04-26
_audit_creation_method CSD-ConQuest-V1
_database_code_CSD AKURAA
_database_code_depnum_ccdc_archive 'CCDC 778487'
_chemical_formula_sum 'C16 H21 N3 O5'
_chemical_formula_moiety
;
C16 H21 N3 O5
;
_journal_coden_Cambridge 35
_journal_volume 75
_journal_year 2010
_journal_page_first 5941
_journal_name_full 'J.Org.Chem. '
loop_
_publ_author_name
"D.S.Radchenko"
"S.O.Pavlenko"
"O.O.Grygorenko"
"D.M.Volochnyuk"
"S.V.Shishkina"
"O.V.Shishkin"
"I.V.Komarov"
_chemical_name_systematic
;
t-Butyl (3-((4-nitrobenzoyl)amino)cyclobutyl)carbamate
;
_cell_volume   1684.966
_exptl_crystal_colour 'colorless'
_exptl_crystal_density_diffrn 1.322
_exptl_crystal_description 'stick'
_diffrn_ambient_temperature 293
#These two values have been output from a single CSD field.
_refine_ls_R_factor_gt 0.0386
_refine_ls_wR_factor_gt 0.0386
_symmetry_cell_setting monoclinic
_symmetry_space_group_name_H-M 'P 21/c'
_symmetry_Int_Tables_number 14
loop_
_symmetry_equiv_pos_site_id
_symmetry_equiv_pos_as_xyz
1 x,y,z
2 -x,1/2+y,1/2-z
3 -x,-y,-z
4 x,-1/2-y,-1/2+z
_cell_length_a 15.128(3)
_cell_length_b 5.9797(11)
_cell_length_c 19.539(4)
_cell_angle_alpha 90
_cell_angle_beta 107.58(2)
_cell_angle_gamma 90
_cell_formula_units_Z 4
loop_
_atom_type_symbol
_atom_type_radius_bond
C 0.68
H 0.23
N 0.68
O 0.68
loop_
_atom_site_label
_atom_site_type_symbol
_atom_site_fract_x
_atom_site_fract_y
_atom_site_fract_z
O1 O 0.70143(7) 0.24981(18) 0.28516(5)
O2 O 0.74990(6) 0.06434(18) 0.39110(5)
O3 O 0.41457(7) 0.78765(18) 0.48997(5)
O4 O 0.09484(11) 1.6257(3) 0.4155(1)
O5 O 0.03414(10) 1.4975(3) 0.30921(9)
N1 N 0.61888(9) 0.2509(2) 0.36393(7)
H1 H 0.6221(10) 0.216(2) 0.4024(8)
N2 N 0.39101(9) 0.7193(2) 0.37268(7)
H2 H 0.3622(10) 0.760(2) 0.3289(8)
N3 N 0.09228(12) 1.4959(3) 0.36719(11)
C1 C 0.46607(10) 0.5601(2) 0.38348(8)
H3 H 0.48510 0.50470 0.43300
C2 C 0.55091(10) 0.6347(3) 0.36178(9)
H4 H 0.53890 0.76010 0.32880
H5 H 0.60580 0.66080 0.40220
C3 C 0.55033(10) 0.4091(3) 0.32570(7)
H6 H 0.55020 0.42580 0.27580
C4 C 0.45322(10) 0.3661(3) 0.33065(9)
H7 H 0.44630 0.22200 0.35120
H8 H 0.40440 0.39040 0.28590
C5 C 0.69154(10) 0.1943(3) 0.34209(8)
C6 C 0.83562(10) -0.0225(3) 0.38073(8)
C7 C 0.89879(12) 0.1661(4) 0.37664(12)
H9 H 0.87140 0.25180 0.33390
H10 H 0.95730 0.10720 0.37530
H11 H 0.90830 0.26040 0.41800
C8 C 0.81442(14) -0.1682(4) 0.31524(10)
H12 H 0.78790 -0.07900 0.27320
H13 H 0.77120 -0.28240 0.31830
H14 H 0.87060 -0.23660 0.31230
C9 C 0.87715(12) -0.1570(4) 0.44799(9)
H15 H 0.83720 -0.28080 0.44920
H16 H 0.88370 -0.06380 0.48930
H17 H 0.93690 -0.21200 0.44840
C10 C 0.37272(10) 0.8253(3) 0.42660(8)
C11 C 0.29802(10) 0.9981(3) 0.40692(7)
C12 C 0.31040(11) 1.1858(3) 0.44924(8)
H18 H 0.36460 1.20170 0.48720
C13 C 0.24409(12) 1.3505(3) 0.43643(9)
H19 H 0.25300 1.47800 0.46500
C14 C 0.16551(11) 1.3222(3) 0.38117(9)
C15 C 0.15057(11) 1.1388(3) 0.33710(8)
H20 H 0.09600 1.12430 0.29930
C16 C 0.21827(10) 0.9762(3) 0.35002(8)
H21 H 0.21010 0.85160 0.32030
#END
