
#######################################################################
#
#                 Cambridge Crystallographic Data Centre
#                                CCDC
#
#######################################################################
#
# If this CIF has been generated from an entry in the Cambridge
# Structural Database, then it will include bibliographic, chemical,
# crystal, experimental, refinement or atomic coordinate data resulting
# from the CCDC's data processing and validation procedures.
#
#######################################################################

data_CSD_CIF_AKUVUX
_audit_creation_date 2004-02-17
_audit_creation_method CSD-ConQuest-V1
_database_code_CSD AKUVUX
_database_code_depnum_ccdc_archive 'CCDC 203659'
_chemical_formula_sum 'C31 H27 N1 O4'
_chemical_formula_moiety
;
C31 H27 N1 O4
;
_journal_coden_Cambridge 24
_journal_volume 44
_journal_year 2003
_journal_page_first 8019
_journal_name_full 'Tetrahedron Lett. '
loop_
_publ_author_name
"N.Rosas"
"P.Sharma"
"C.Alvarez"
"E.Gomez"
"Y.Gutierrez"
"M.Mendez"
"R.A.Toscano"
"L.A.Maldonado"
_chemical_name_systematic
;
5,7-Diethyl-6-(4-nitrophenyl)-2-phenyl-8-(phenylethynyl)-5,6-dihydro-4H-oxocin
-4-one
;
_chemical_melting_point 423.15
_cell_volume   5132.713
_exptl_crystal_colour 'colorless'
_exptl_crystal_density_diffrn 1.236
_exptl_special_details
;
Melting point range 423.15-425.15K

;
_exptl_crystal_description 'prism'
_diffrn_ambient_temperature 293
#These two values have been output from a single CSD field.
_refine_ls_R_factor_gt 0.0463
_refine_ls_wR_factor_gt 0.0463
_symmetry_cell_setting orthorhombic
_symmetry_space_group_name_H-M 'P b c a'
_symmetry_Int_Tables_number 61
loop_
_symmetry_equiv_pos_site_id
_symmetry_equiv_pos_as_xyz
1 x,y,z
2 1/2+x,y,1/2-z
3 x,1/2-y,1/2+z
4 1/2-x,1/2+y,z
5 -x,-y,-z
6 -1/2-x,-y,-1/2+z
7 -x,-1/2+y,-1/2-z
8 -1/2+x,-1/2-y,-z
_cell_length_a 21.624(1)
_cell_length_b 8.875(1)
_cell_length_c 26.745(2)
_cell_angle_alpha 90
_cell_angle_beta 90
_cell_angle_gamma 90
_cell_formula_units_Z 8
loop_
_atom_type_symbol
_atom_type_radius_bond
C 0.68
H 0.23
N 0.68
O 0.68
loop_
_atom_site_label
_atom_site_type_symbol
_atom_site_fract_x
_atom_site_fract_y
_atom_site_fract_z
O1 O 0.41483(6) 0.58393(15) 0.08252(6)
C1 C 0.39759(11) 0.6786(3) 0.04285(9)
C2 C 0.42982(10) 0.8018(2) 0.03394(8)
H1 H 0.41520 0.86890 0.01000
C3 C 0.48797(11) 0.8386(3) 0.06007(9)
C4 C 0.53183(10) 0.7090(2) 0.07248(8)
H2 H 0.51740 0.61830 0.05510
C5 C 0.53075(10) 0.6786(2) 0.12952(8)
H3 H 0.55510 0.75940 0.14490
C6 C 0.46738(11) 0.6856(2) 0.15385(9)
C7 C 0.41503(11) 0.6529(2) 0.13025(9)
C8 C 0.34288(11) 0.6199(3) 0.01567(10)
C9 C 0.30239(12) 0.5201(3) 0.03821(9)
H4 H 0.31020 0.48630 0.07050
C10 C 0.25030(12) 0.4703(3) 0.01296(11)
H5 H 0.22310 0.40330 0.02820
C11 C 0.23897(12) 0.5209(3) -0.03500(12)
H6 H 0.20370 0.48840 -0.05180
C12 C 0.27893(14) 0.6181(3) -0.0582(1)
H7 H 0.27100 0.65120 -0.09060
C13 C 0.33127(11) 0.6667(3) -0.03293(10)
H8 H 0.35890 0.73130 -0.04870
C14 C 0.59622(10) 0.7473(2) 0.05353(8)
H9 H 0.60990 0.84040 0.06900
H10 H 0.62470 0.66820 0.06340
C15 C 0.59808(9) 0.7649(2) -0.00286(8)
H11 H 0.58500 0.67260 -0.01830
H12 H 0.63950 0.78800 -0.01320
H13 H 0.57090 0.84510 -0.01270
C16 C 0.56375(10) 0.5328(3) 0.14227(8)
C17 C 0.53918(10) 0.3944(3) 0.12895(8)
H14 H 0.50120 0.39140 0.11270
C18 C 0.56934(11) 0.2608(3) 0.13905(8)
H15 H 0.55250 0.16890 0.12950
C19 C 0.62517(12) 0.2678(3) 0.16379(9)
C20 C 0.65114(11) 0.4019(3) 0.17789(9)
H16 H 0.68900 0.40410 0.19430
C21 C 0.62004(11) 0.5340(3) 0.16724(8)
H17 H 0.63710 0.62550 0.17700
C22 C 0.46623(11) 0.7382(2) 0.20734(9)
H18 H 0.42750 0.70690 0.22240
H19 H 0.49940 0.68860 0.22540
C23 C 0.47291(12) 0.9033(3) 0.21363(9)
H20 H 0.51140 0.93550 0.19930
H21 H 0.47230 0.92790 0.24860
H22 H 0.43930 0.95360 0.19710
C24 C 0.35336(12) 0.6786(3) 0.14862(9)
C25 C 0.30068(12) 0.7026(3) 0.15798(9)
C26 C 0.23596(11) 0.7262(3) 0.16844(10)
C27 C 0.19196(14) 0.6670(3) 0.13721(10)
H23 H 0.20420 0.61020 0.10970
C28 C 0.13006(14) 0.6901(4) 0.14582(12)
H24 H 0.10070 0.65010 0.12410
C29 C 0.11211(13) 0.7713(3) 0.18601(12)
H25 H 0.07020 0.78630 0.19210
C30 C 0.15455(15) 0.8311(3) 0.21748(11)
H26 H 0.14190 0.88670 0.24510
C31 C 0.21654(13) 0.8093(3) 0.20842(10)
H27 H 0.24560 0.85180 0.22980
N1 N 0.65935(12) 0.1274(3) 0.17229(9)
O2 O 0.70958(10) 0.1345(2) 0.19118(9)
O3 O 0.63578(10) 0.0087(2) 0.16119(8)
O4 O 0.50228(6) 0.96863(17) 0.06880(6)
#END
