
#######################################################################
#
#                 Cambridge Crystallographic Data Centre
#                                CCDC
#
#######################################################################
#
# If this CIF has been generated from an entry in the Cambridge
# Structural Database, then it will include bibliographic, chemical,
# crystal, experimental, refinement or atomic coordinate data resulting
# from the CCDC's data processing and validation procedures.
#
#######################################################################

data_CSD_CIF_AKUWAE
_audit_creation_date 2004-02-17
_audit_creation_method CSD-ConQuest-V1
_database_code_CSD AKUWAE
_database_code_depnum_ccdc_archive 'CCDC 203660'
_chemical_formula_sum 'C25 H31 N1 O4'
_chemical_formula_moiety
;
C25 H31 N1 O4
;
_journal_coden_Cambridge 24
_journal_volume 44
_journal_year 2003
_journal_page_first 8019
_journal_name_full 'Tetrahedron Lett. '
loop_
_publ_author_name
"N.Rosas"
"P.Sharma"
"C.Alvarez"
"E.Gomez"
"Y.Gutierrez"
"M.Mendez"
"R.A.Toscano"
"L.A.Maldonado"
_chemical_name_systematic
;
5,7-Diethyl-6-(4-nitrophenyl)-8-(pent-1-ynyl)-2-n-propyl-5,6-dihydro-4H-oxocin
-4-one
;
_chemical_melting_point 375.15
_cell_volume   2333.284
_exptl_crystal_colour 'colorless'
_exptl_crystal_density_diffrn 1.166
_exptl_special_details
;
Melting point range 375.15-377.15K

;
_exptl_crystal_description 'prism'
_diffrn_ambient_temperature 293
_refine_special_details
;
The pentyne chain is disordered over two sites with occupancies 0.589:0.411.

;
#These two values have been output from a single CSD field.
_refine_ls_R_factor_gt 0.0615
_refine_ls_wR_factor_gt 0.0615
_symmetry_cell_setting orthorhombic
_symmetry_space_group_name_H-M 'P 21 21 21'
_symmetry_Int_Tables_number 19
loop_
_symmetry_equiv_pos_site_id
_symmetry_equiv_pos_as_xyz
1 x,y,z
2 1/2-x,-y,1/2+z
3 -x,1/2+y,1/2-z
4 1/2+x,1/2-y,-z
_cell_length_a 8.726(1)
_cell_length_b 14.021(1)
_cell_length_c 19.071(1)
_cell_angle_alpha 90
_cell_angle_beta 90
_cell_angle_gamma 90
_cell_formula_units_Z 4
loop_
_atom_type_symbol
_atom_type_radius_bond
C 0.68
H 0.23
N 0.68
O 0.68
loop_
_atom_site_label
_atom_site_type_symbol
_atom_site_fract_x
_atom_site_fract_y
_atom_site_fract_z
O1 O 0.9592(2) 0.25921(14) 0.91178(10)
O2 O 1.4019(3) 0.2628(2) 0.53685(12)
O3 O 1.5333(3) 0.2672(2) 0.63105(14)
O4 O 0.5550(3) 0.33153(16) 0.82980(11)
N1 N 1.4123(3) 0.2658(2) 0.60005(16)
C1 C 0.8522(4) 0.3064(2) 0.95350(15)
C2 C 0.7234(4) 0.3395(2) 0.92537(15)
H1 H 0.65090 0.36550 0.95560
C3 C 0.6868(4) 0.3381(2) 0.85058(17)
C4 C 0.8198(3) 0.3504(2) 0.79841(15)
H2 H 0.91020 0.37320 0.82390
C5 C 0.8586(3) 0.2532(2) 0.76392(14)
H3 H 0.77520 0.23960 0.73100
C6 C 0.8654(3) 0.1688(2) 0.81423(15)
C7 C 0.9068(3) 0.1744(2) 0.88115(15)
C8 C 0.9088(4) 0.3141(3) 1.02784(16)
H4 H 0.89870 0.25200 1.04980
H5 H 1.01720 0.32950 1.02660
C9 C 0.8318(5) 0.3842(3) 1.07207(19)
H6 H 0.86530 0.37480 1.12010
H7 H 0.72250 0.37180 1.07060
C10 C 0.8582(5) 0.4873(3) 1.0528(2)
H8 H 0.96410 0.50310 1.06020
H9 H 0.79510 0.52730 1.08160
H10 H 0.83240 0.49690 1.00440
C11 C 0.7759(3) 0.4244(2) 0.74322(15)
H11 H 0.85500 0.42670 0.70760
H12 H 0.68120 0.40490 0.72080
C12 C 0.7550(4) 0.5232(2) 0.77378(17)
H13 H 0.67110 0.52260 0.80630
H14 H 0.73380 0.56760 0.73670
H15 H 0.84700 0.54190 0.79770
C13 C 1.0047(3) 0.2589(2) 0.72022(15)
C14 C 1.0004(4) 0.2466(2) 0.64805(16)
H16 H 0.90680 0.23630 0.62590
C15 C 1.1334(4) 0.2493(2) 0.60856(15)
H17 H 1.13000 0.24120 0.56020
C16 C 1.2697(4) 0.2642(2) 0.64190(17)
C17 C 1.2799(3) 0.27777(19) 0.71319(16)
H18 H 1.37390 0.28870 0.73470
C18 C 1.1452(3) 0.27460(19) 0.75192(14)
H19 H 1.14950 0.28320 0.80020
C19 C 0.8211(3) 0.0744(2) 0.78226(15)
H20 H 0.86920 0.02340 0.80860
H21 H 0.85930 0.07160 0.73460
C20 C 0.6492(4) 0.0589(2) 0.78159(18)
H22 H 0.61300 0.05160 0.82880
H23 H 0.62580 0.00240 0.75520
H24 H 0.60000 0.11290 0.76030
C21 C 0.9034(4) 0.0949(2) 0.92893(18)
C22 C 0.9029(5) 0.0333(3) 0.96985(19)
C23 C 0.9071(12) -0.0387(11) 1.0294(11)
H25 H 0.93740 -0.09990 1.01020
H26 H 0.98610 -0.01920 1.06220
C24 C 0.776(2) -0.0508(10) 1.0652(10)
H27 H 0.79590 -0.09830 1.10110
H28 H 0.70230 -0.07870 1.03310
C25 C 0.6979(16) 0.0320(8) 1.1007(6)
H29 H 0.75330 0.04890 1.14230
H30 H 0.59500 0.01440 1.11290
H31 H 0.69570 0.08560 1.06930
C26? C 0.899(3) -0.053(2) 1.0122(14)
H32? H 0.99890 -0.08350 1.01340
H33? H 0.82530 -0.09850 0.99320
C27? C 0.848(2) -0.0194(11) 1.0903(8)
H34? H 0.84750 -0.07320 1.12220
H35? H 0.91870 0.02820 1.10800
C28? C 0.704(3) 0.018(2) 1.0844(14)
H36? H 0.68910 0.06600 1.11990
H37? H 0.62920 -0.03140 1.09030
H38? H 0.69190 0.04670 1.03890
#END
