
#######################################################################
#
#                 Cambridge Crystallographic Data Centre
#                                CCDC
#
#######################################################################
#
# If this CIF has been generated from an entry in the Cambridge
# Structural Database, then it will include bibliographic, chemical,
# crystal, experimental, refinement or atomic coordinate data resulting
# from the CCDC's data processing and validation procedures.
#
#######################################################################

data_CSD_CIF_ALAJIG
_audit_creation_date 2004-02-17
_audit_creation_method CSD-ConQuest-V1
_database_code_CSD ALAJIG
_database_code_depnum_ccdc_archive 'CCDC 176787'
_chemical_formula_sum 'C20 H24 N2 O7'
_chemical_formula_moiety
;
C20 H24 N2 O7
;
_journal_coden_Cambridge 156
_journal_volume 338
_journal_year 2003
_journal_page_first 257
_journal_name_full 'Carbohydr.Res. '
loop_
_publ_author_name
"Jianxin Yu"
"Suna Zhang"
"Zhongjun Li"
"Wenjie Lu"
"Rong Zhou"
"Yuting Liu"
"Mengshen Cai"
_chemical_name_systematic
;
1,2:4,5-Di-O-isopropylidene-3-C-(5-phenyl-1,2,4-oxadiazol-3-yl)-\b-D-psicopyra
nose
;
_chemical_melting_point 389.15
_cell_volume   2013.329
_exptl_crystal_colour 'colorless'
_exptl_crystal_density_diffrn 1.334
_exptl_special_details
;
Melting point range 389.15-390.15K
Space group may be incorrect

;
_diffrn_ambient_temperature 291
#These two values have been output from a single CSD field.
_refine_ls_R_factor_gt 0.0334
_refine_ls_wR_factor_gt 0.0334
_symmetry_cell_setting orthorhombic
_symmetry_space_group_name_H-M 'P 21 21 21'
_symmetry_Int_Tables_number 19
loop_
_symmetry_equiv_pos_site_id
_symmetry_equiv_pos_as_xyz
1 x,y,z
2 1/2-x,-y,1/2+z
3 1/2+x,1/2-y,-z
4 -x,1/2+y,1/2-z
_cell_length_a 10.309(1)
_cell_length_b 10.474(1)
_cell_length_c 18.646(3)
_cell_angle_alpha 90
_cell_angle_beta 90
_cell_angle_gamma 90
_cell_formula_units_Z 4
loop_
_atom_type_symbol
_atom_type_radius_bond
C 0.68
H 0.23
N 0.68
O 0.68
loop_
_atom_site_label
_atom_site_type_symbol
_atom_site_fract_x
_atom_site_fract_y
_atom_site_fract_z
O1 O 0.43106(15) 0.13850(14) 0.06380(8)
O2 O 0.11891(15) 0.20360(14) 0.02872(8)
O3 O 0.23317(14) 0.14501(14) 0.12617(8)
O4 O 0.45264(14) 0.40175(13) 0.08020(7)
H1 H 0.49650 0.35290 0.05580
O5 O 0.51687(14) 0.38035(14) 0.22484(8)
O6 O 0.64714(14) 0.24522(15) 0.16197(8)
O7 O 0.10225(16) 0.51034(17) 0.19743(8)
N1 N 0.20607(19) 0.4232(2) 0.20587(10)
N2 N 0.19860(16) 0.49461(17) 0.09264(9)
C1 C 0.2480(2) 0.2403(2) 0.01357(12)
H2 H 0.25270 0.33030 0.00160
H3? H 0.28300 0.19090 0.02600
C2 C 0.3212(2) 0.21227(19) 0.08284(11)
C3 C 0.36935(19) 0.33017(18) 0.12533(10)
C4 C 0.4373(2) 0.2835(2) 0.19430(11)
H4 H 0.37210 0.25610 0.22930
C5 C 0.5328(2) 0.1758(2) 0.18088(12)
H5 H 0.54800 0.12940 0.22580
C6 C 0.4974(2) 0.0830(2) 0.12331(13)
H6 H 0.57590 0.04240 0.10600
H7 H 0.44280 0.01710 0.14390
C7 C 0.2573(2) 0.4178(2) 0.14262(11)
C8 C 0.1059(2) 0.5475(2) 0.12872(11)
C9 C 0.0085(2) 0.6396(2) 0.10368(11)
C10 C 0.0650(2) 0.7115(2) 0.15092(12)
H8 H 0.05430 0.70100 0.20010
C11 C 0.1539(2) 0.7985(2) 0.12529(14)
H9 H 0.20340 0.84630 0.15710
C12 C 0.1693(2) 0.8144(2) 0.05278(15)
H10 H 0.22870 0.87380 0.03560
C13 C 0.0974(2) 0.7432(3) 0.00553(14)
H11? H 0.10830 0.75420 0.04360
C14 C 0.0089(2) 0.6553(2) 0.03076(12)
H12 H 0.03920 0.60650 0.00140
C15 C 0.1234(2) 0.1083(2) 0.08284(12)
C16 C 0.1461(2) 0.0218(2) 0.05032(14)
H13 H 0.22760 0.02220 0.02540
H14 H 0.07740 0.04100 0.01720
H15? H 0.14750 0.08490 0.08760
C17 C 0.0034(2) 0.1181(3) 0.12730(15)
H16 H 0.00860 0.05890 0.16650
H17? H 0.07080 0.09830 0.09830
H18 H 0.00460 0.20330 0.14570
C18 C 0.6508(2) 0.3502(2) 0.20988(14)
C19 C 0.7175(3) 0.3129(3) 0.27893(15)
H19 H 0.67240 0.24230 0.30030
H20 H 0.71690 0.38410 0.31140
H21 H 0.80550 0.28870 0.26900
C20 C 0.7151(3) 0.4612(3) 0.17393(18)
H22 H 0.80200 0.43820 0.16070
H23 H 0.71730 0.53250 0.20630
H24 H 0.66720 0.48410 0.13170
#END
