
#######################################################################
#
#                 Cambridge Crystallographic Data Centre
#                                CCDC
#
#######################################################################
#
# If this CIF has been generated from an entry in the Cambridge
# Structural Database, then it will include bibliographic, chemical,
# crystal, experimental, refinement or atomic coordinate data resulting
# from the CCDC's data processing and validation procedures.
#
#######################################################################

data_CSD_CIF_ALASOV
_audit_creation_date 2004-02-17
_audit_creation_method CSD-ConQuest-V1
_database_code_CSD ALASOV
_database_code_depnum_ccdc_archive 'CCDC 215693'
_chemical_formula_sum 'C34 H31 N3 O12'
_chemical_formula_moiety
;
C34 H31 N3 O12
;
_journal_coden_Cambridge 182
_journal_year 2003
_journal_page_first 2592
_journal_name_full 'Chem.Commun. '
loop_
_publ_author_name
"Hongda Zhao"
"B.L.Pagenkopf"
_chemical_name_systematic
;
4-Methyl-4-(4'-methylpent-3'-enyl)-1,5,6-tris(4-nitrobenzoyloxy)hex-2-yne
;
_cell_volume   3220.689
_exptl_crystal_colour 'colorless'
_exptl_crystal_density_diffrn 1.389
_exptl_crystal_description 'laths'
_exptl_crystal_preparation 'ethyl acetate/diethyl ether'
_diffrn_ambient_temperature 153
_refine_special_details
;
One of the p-nitrobenzoate groups is disordered over two sites with 
occupancies 0.56:0.44.
;
#These two values have been output from a single CSD field.
_refine_ls_R_factor_gt 0.1309
_refine_ls_wR_factor_gt 0.1309
_symmetry_cell_setting monoclinic
_symmetry_space_group_name_H-M 'P 21/c'
_symmetry_Int_Tables_number 14
loop_
_symmetry_equiv_pos_site_id
_symmetry_equiv_pos_as_xyz
1 x,y,z
2 x,1/2-y,1/2+z
3 -x,-y,-z
4 -x,-1/2+y,-1/2-z
_cell_length_a 6.2704(5)
_cell_length_b 22.667(2)
_cell_length_c 22.866(3)
_cell_angle_alpha 90
_cell_angle_beta 97.697(6)
_cell_angle_gamma 90
_cell_formula_units_Z 4
loop_
_atom_type_symbol
_atom_type_radius_bond
C 0.68
H 0.23
N 0.68
O 0.68
loop_
_atom_site_label
_atom_site_type_symbol
_atom_site_fract_x
_atom_site_fract_y
_atom_site_fract_z
O1 O 0.1189(11) 0.8096(3) 0.1304(3)
O2 O 0.4232(13) 0.8161(4) 0.0890(4)
O3 O -0.4260(17) 0.6947(5) -0.1209(4)
O4 O -0.1632(15) 0.7186(4) -0.1702(4)
O5 O 0.3881(12) 0.7509(4) 0.2257(3)
O6 O 0.3263(13) 0.7028(4) 0.3062(4)
O7 O 1.2534(14) 0.5421(4) 0.2747(4)
O8 O 1.203(2) 0.5654(6) 0.1865(6)
N1 N -0.256(2) 0.7182(5) -0.1263(6)
N2 N 1.157(2) 0.5709(7) 0.2350(7)
O9 O 0.5285(16) 0.9608(4) 0.3741(4)
O10 O 0.532(2) 1.0229(6) 0.4375(5)
O11? O 0.755(2) 0.9560(8) 0.3193(6)
C1 C 0.269(2) 0.9515(6) 0.2861(6)
C2 C 0.367(2) 0.9917(5) 0.3352(5)
H1 H 0.42920 1.02540 0.31850
H2 H 0.25660 1.00490 0.35740
C3? C 0.707(3) 0.9490(13) 0.3674(10)
C4? C 0.856(3) 0.9276(10) 0.4199(6)
C5? C 0.802(2) 0.9274(8) 0.4769(8)
H3? H 0.66630 0.94330 0.48430
C6? C 0.944(3) 0.9043(9) 0.5231(6)
H4? H 0.90660 0.90420 0.56240
C7? C 1.141(3) 0.8813(11) 0.5123(8)
C8? C 1.195(3) 0.8815(12) 0.4553(10)
H5? H 1.33090 0.86570 0.44790
C9? C 1.053(3) 0.9047(12) 0.4091(7)
H6? H 1.09060 0.90480 0.36980
N3? N 1.300(3) 0.8507(15) 0.5536(9)
O12? O 1.494(4) 0.8473(13) 0.5533(10)
O13? O 1.224(4) 0.8435(18) 0.5995(12)
C10 C 0.613(3) 0.9822(10) 0.4181(9)
C11 C 0.801(2) 0.9477(8) 0.4475(7)
C12 C 0.832(3) 0.9512(7) 0.5088(7)
H7 H 0.73100 0.97210 0.52900
C13 C 1.010(3) 0.9243(9) 0.5407(6)
H8 H 1.03200 0.92670 0.58300
C14 C 1.157(3) 0.894(1) 0.5114(9)
C15 C 1.126(3) 0.8905(10) 0.4502(9)
H9 H 1.22700 0.86960 0.42990
C16 C 0.948(3) 0.9174(9) 0.4182(6)
H10 H 0.92600 0.91500 0.37590
N4 N 1.330(3) 0.8683(10) 0.5525(10)
O14 O 1.288(4) 0.8433(16) 0.5968(10)
O15 O 1.462(3) 0.8473(9) 0.5238(8)
C17 C 0.2727(18) 1.0950(5) 0.0167(5)
H11 H 0.11890 1.09320 0.00740
H12 H 0.31350 1.13260 0.03420
H13 H 0.33720 1.09020 -0.01880
C18 C 0.5845(18) 1.0464(6) 0.0795(5)
H14 H 0.61780 1.01430 0.10670
H15 H 0.65610 1.04040 0.04540
H16 H 0.63240 1.08280 0.09840
C19 C 0.350(2) 1.0470(6) 0.0606(5)
C20 C 0.2084(17) 1.0094(5) 0.0786(5)
H17 H 0.05940 1.01300 0.06270
C21 C 0.2609(18) 0.9608(6) 0.1229(5)
H18 H 0.34380 0.97730 0.15740
H19 H 0.34390 0.93080 0.10680
C22 C 0.0572(16) 0.9349(5) 0.1412(5)
H20 H -0.01320 0.91540 0.10660
H21 H -0.03170 0.96750 0.14930
C23 C 0.0698(19) 0.8911(6) 0.1935(5)
C24 C -0.1587(16) 0.8752(5) 0.2059(4)
H22 H -0.14710 0.84820 0.23850
H23 H -0.23240 0.91020 0.21580
H24 H -0.23790 0.85700 0.17180
C25 C 0.2126(19) 0.8381(5) 0.1847(5)
H25 H 0.35560 0.85130 0.18090
C26 C 0.238(2) 0.8041(6) 0.0844(5)
C27 C 0.101(2) 0.7822(5) 0.0314(6)
C28 C 0.1885(19) 0.7849(5) -0.0212(6)
H26 H 0.32820 0.80250 -0.02050
C29 C 0.068(2) 0.7648(5) -0.0733(6)
H27 H 0.12340 0.76610 -0.11040
C30 C -0.127(2) 0.7409(6) -0.0712(5)
C31 C -0.2234(19) 0.7365(6) -0.0210(5)
H28 H -0.36470 0.71990 -0.02210
C32 C -0.102(2) 0.7591(5) 0.0314(5)
H29 H -0.16330 0.75900 0.06780
C33 C 0.2214(18) 0.7927(5) 0.2340(5)
H30 H 0.24920 0.81120 0.27210
H31 H 0.08490 0.77290 0.23060
C34 C 0.437(2) 0.7082(6) 0.2670(5)
C35 C 0.618(2) 0.6734(6) 0.2543(6)
C36 C 0.7123(19) 0.6789(6) 0.2052(5)
H32 H 0.65550 0.70710 0.17580
C37 C 0.891(2) 0.6437(6) 0.1968(6)
H33 H 0.96350 0.64660 0.16250
C38 C 0.958(2) 0.6050(6) 0.2404(6)
C39 C 0.878(2) 0.5995(6) 0.2927(6)
H34 H 0.94520 0.57340 0.32270
C40 C 0.702(2) 0.6333(6) 0.2979(6)
H35 H 0.63090 0.62910 0.33230
C41 C 0.181(2) 0.9243(5) 0.2445(6)
#END
