
#######################################################################
#
#                 Cambridge Crystallographic Data Centre
#                                CCDC
#
#######################################################################
#
# If this CIF has been generated from an entry in the Cambridge
# Structural Database, then it will include bibliographic, chemical,
# crystal, experimental, refinement or atomic coordinate data resulting
# from the CCDC's data processing and validation procedures.
#
#######################################################################

data_CSD_CIF_ALECAW
_audit_creation_date 2011-05-12
_audit_creation_method CSD-ConQuest-V1
_database_code_CSD ALECAW
_database_code_depnum_ccdc_archive 'CCDC 813824'
_chemical_formula_sum 'C18 H25 N1 O5'
_chemical_formula_moiety
;
C18 H25 N1 O5
;
_journal_coden_Cambridge 1336
_journal_volume 12
_journal_year 2010
_journal_page_first 3010
_journal_name_full 'Org.Lett. '
loop_
_publ_author_name
"K.E.Lazarski"
"D.X.Hu"
"C.L.Stern"
"R.J.Thomson"
_chemical_name_systematic
;
6,6-Dimethyl-10-nitro-2,14-dioxapentacyclo[6.5.3.2^9,12^.0^1,9^.0^3,8^]octadec
an-15-one
;
_cell_volume   1617.169
_exptl_crystal_colour 'colorless'
_exptl_crystal_density_diffrn 1.378
_exptl_crystal_description 'needle'
_diffrn_ambient_temperature 100
#These two values have been output from a single CSD field.
_refine_ls_R_factor_gt 0.0544
_refine_ls_wR_factor_gt 0.0544
_symmetry_cell_setting monoclinic
_symmetry_space_group_name_H-M 'P 21/c'
_symmetry_Int_Tables_number 14
loop_
_symmetry_equiv_pos_site_id
_symmetry_equiv_pos_as_xyz
1 x,y,z
2 -x,1/2+y,1/2-z
3 -x,-y,-z
4 x,-1/2-y,-1/2+z
_cell_length_a 11.2417(2)
_cell_length_b 12.5001(2)
_cell_length_c 12.3596(2)
_cell_angle_alpha 90
_cell_angle_beta 111.390(1)
_cell_angle_gamma 90
_cell_formula_units_Z 4
loop_
_atom_type_symbol
_atom_type_radius_bond
C 0.68
H 0.23
N 0.68
O 0.68
loop_
_atom_site_label
_atom_site_type_symbol
_atom_site_fract_x
_atom_site_fract_y
_atom_site_fract_z
O1 O 0.39424(16) 0.11682(14) 0.42869(16)
O2 O 0.38314(16) 0.28693(14) 0.35168(16)
O3 O 0.15628(19) -0.03527(18) 0.0750(2)
O4 O 0.24719(18) 0.05979(15) 0.49341(17)
O5 O 0.3249(2) -0.04529(17) 0.03195(19)
C1 C 0.2074(2) 0.19620(19) 0.2141(2)
N1 N 0.2709(2) -0.02439(17) 0.0986(2)
C2 C 0.2706(2) 0.10247(19) 0.4159(2)
C3 C 0.0954(2) 0.2125(2) 0.0991(2)
C4 C 0.5610(2) 0.1656(2) 0.3626(3)
C5 C 0.3886(2) 0.1868(2) 0.1280(2)
C6 C -0.0058(2) 0.2965(2) 0.1032(2)
C7 C 0.0588(3) 0.3985(2) 0.1702(3)
C8 C 0.3462(2) 0.0193(2) 0.2191(2)
C9 C 0.1667(2) 0.1369(2) 0.3038(2)
C10 C 0.3334(2) 0.14274(19) 0.2165(2)
C11 C 0.4886(3) -0.0116(2) 0.2628(3)
C12 C 0.2610(2) 0.30761(19) 0.2584(2)
C13 C 0.4194(2) 0.18117(19) 0.3399(2)
C14 C -0.0829(3) 0.3279(2) -0.0227(3)
C15 C 0.1683(2) 0.3789(2) 0.2873(3)
C16 C -0.1012(3) 0.2514(2) 0.1548(3)
C17 C 0.5726(2) 0.0881(2) 0.2710(3)
C18 C 0.5252(3) 0.1435(2) 0.1524(3)
H1 H 0.500(3) -0.063(3) 0.214(3)
H2 H 0.584(3) 0.202(3) 0.157(3)
H3 H 0.598(3) 0.237(3) 0.360(3)
H4 H 0.666(3) 0.061(2) 0.292(3)
H5 H 0.307(3) -0.011(3) 0.261(3)
H6 H 0.333(3) 0.167(2) 0.052(3)
H7 H 0.389(3) 0.270(2) 0.132(3)
H8 H 0.608(3) 0.133(3) 0.441(3)
H9 H 0.526(3) 0.081(3) 0.092(3)
H10 H 0.217(3) 0.447(2) 0.321(2)
H11 H -0.125(3) 0.265(2) -0.063(3)
H12 H 0.278(3) 0.345(2) 0.200(3)
H13 H 0.122(3) 0.074(3) 0.268(3)
H14 H 0.130(3) 0.240(2) 0.040(3)
H15 H 0.055(3) 0.141(2) 0.069(3)
H16 H 0.514(3) -0.043(3) 0.338(3)
H17 H 0.142(3) 0.344(3) 0.348(3)
H18 H -0.063(3) 0.244(3) 0.245(3)
H19 H -0.007(3) 0.439(3) 0.187(3)
H20 H 0.103(3) 0.173(3) 0.326(3)
H21 H -0.130(3) 0.177(3) 0.119(3)
H22 H -0.026(3) 0.362(3) -0.059(3)
H23 H 0.093(3) 0.437(3) 0.121(3)
H24 H -0.142(3) 0.383(3) -0.032(3)
H25 H -0.175(4) 0.298(3) 0.134(3)
#END
