
#######################################################################
#
#                 Cambridge Crystallographic Data Centre
#                                CCDC
#
#######################################################################
#
# If this CIF has been generated from an entry in the Cambridge
# Structural Database, then it will include bibliographic, chemical,
# crystal, experimental, refinement or atomic coordinate data resulting
# from the CCDC's data processing and validation procedures.
#
#######################################################################

data_CSD_CIF_ALEDIF
_audit_creation_date 2011-05-12
_audit_creation_method CSD-ConQuest-V1
_database_code_CSD ALEDIF
_database_code_depnum_ccdc_archive 'CCDC 814020'
_chemical_formula_sum 'C22 H23 N1 O7'
_chemical_formula_moiety
;
C22 H23 N1 O7
;
_journal_coden_Cambridge 1336
_journal_volume 12
_journal_year 2010
_journal_page_first 3042
_journal_name_full 'Org.Lett. '
loop_
_publ_author_name
"K.Chattopadhyay"
"R.Jana"
"V.W.Day"
"J.T.Douglas"
"J.A.Tunge"
_chemical_name_systematic
;
3-Allyl-5,6,7-trimethoxy-3-methyl-4-(4-nitrophenyl)chroman-2-one
;
_cell_volume   1985.275
_exptl_crystal_colour 'colorless'
_exptl_crystal_density_diffrn 1.383
_exptl_crystal_description 'rectangular parallelepiped'
_diffrn_ambient_temperature 100
#These two values have been output from a single CSD field.
_refine_ls_R_factor_gt 0.0569
_refine_ls_wR_factor_gt 0.0569
_symmetry_cell_setting monoclinic
_symmetry_space_group_name_H-M 'P 21/c'
_symmetry_Int_Tables_number 14
loop_
_symmetry_equiv_pos_site_id
_symmetry_equiv_pos_as_xyz
1 x,y,z
2 -x,1/2+y,1/2-z
3 -x,-y,-z
4 x,-1/2-y,-1/2+z
_cell_length_a 11.5178(17)
_cell_length_b 9.2600(14)
_cell_length_c 18.695(3)
_cell_angle_alpha 90
_cell_angle_beta 95.335(3)
_cell_angle_gamma 90
_cell_formula_units_Z 4
loop_
_atom_type_symbol
_atom_type_radius_bond
C 0.68
H 0.23
N 0.68
O 0.68
loop_
_atom_site_label
_atom_site_type_symbol
_atom_site_fract_x
_atom_site_fract_y
_atom_site_fract_z
O1 O 0.06354(9) 0.38551(13) 0.19283(6)
O2 O 0.02935(10) 0.51787(13) 0.28577(6)
O3 O 0.44573(9) 0.20203(12) 0.16100(6)
O4 O 0.36253(10) 0.09686(12) 0.02744(6)
O5 O 0.13545(10) 0.12999(13) -0.02093(6)
O6 O 0.17074(12) -0.10986(18) 0.48937(8)
O7 O 0.34822(11) -0.06571(15) 0.52846(7)
N1 N 0.26308(12) -0.04782(16) 0.48525(8)
C1 C 0.10249(14) 0.46829(17) 0.25117(8)
C2 C 0.23239(14) 0.49489(17) 0.26496(8)
C3 C 0.29947(14) 0.35215(17) 0.25307(8)
H1 H 0.3836(15) 0.3792(18) 0.2541(9)
C4 C 0.25696(13) 0.29193(17) 0.18020(8)
C5 C 0.32944(13) 0.21834(17) 0.13669(9)
C6 C 0.28733(14) 0.16443(17) 0.06984(9)
C7 C 0.16988(14) 0.18582(17) 0.04516(8)
C8 C 0.09676(14) 0.26138(18) 0.08670(9)
H2 H 0.0176(16) 0.2780(19) 0.0704(10)
C9 C 0.14269(14) 0.31181(17) 0.15328(8)
C10 C 0.26794(16) 0.60766(19) 0.20917(9)
H3 H 0.3532(17) 0.6217(19) 0.2196(10)
H4 H 0.2559(15) 0.5633(19) 0.162(1)
C11 C 0.20246(17) 0.74725(19) 0.20805(10)
H5 H 0.114(2) 0.739(2) 0.2040(12)
C12 C 0.2497(2) 0.8756(2) 0.20815(10)
H6 H 0.2014(19) 0.965(2) 0.2056(11)
H7 H 0.340(2) 0.888(2) 0.2099(11)
C13 C 0.25977(16) 0.55205(19) 0.34116(9)
H8 H 0.3433(16) 0.5607(19) 0.3491(10)
H9 H 0.2237(16) 0.646(2) 0.3477(10)
H10 H 0.2309(15) 0.4865(19) 0.3779(10)
C14 C 0.28983(13) 0.24342(16) 0.31312(9)
C15 C 0.38196(14) 0.22608(18) 0.36614(9)
H11 H 0.4535(17) 0.279(2) 0.3635(11)
C16 C 0.37417(14) 0.13155(18) 0.42280(9)
H12 H 0.4386(16) 0.124(2) 0.4594(10)
C17 C 0.27279(14) 0.05338(17) 0.42528(8)
C18 C 0.17991(14) 0.06525(18) 0.37317(9)
H13 H 0.1131(17) 0.008(2) 0.3764(10)
C19 C 0.18951(14) 0.16072(18) 0.31711(9)
H14 H 0.1238(16) 0.1712(19) 0.2833(10)
C20 C 0.51509(15) 0.3145(2) 0.13312(10)
H15 H 0.5967(18) 0.307(2) 0.1569(11)
H16 H 0.4820(16) 0.409(2) 0.1433(10)
H17 H 0.5213(18) 0.298(2) 0.0814(12)
C21 C 0.35487(18) -0.0576(2) 0.02929(11)
H18 H 0.2785(18) -0.090(2) 0.0105(10)
H19 H 0.4169(19) -0.092(2) 0.0035(11)
H20 H 0.3671(17) -0.095(2) 0.0784(12)
C22 C 0.01796(16) 0.1597(2) -0.04984(10)
H21 H -0.0363(16) 0.124(2) -0.0191(10)
H22 H 0.0046(16) 0.269(2) -0.0585(10)
H23 H 0.0095(17) 0.107(2) -0.0928(11)
#END
