
#######################################################################
#
#                 Cambridge Crystallographic Data Centre
#                                CCDC
#
#######################################################################
#
# If this CIF has been generated from an entry in the Cambridge
# Structural Database, then it will include bibliographic, chemical,
# crystal, experimental, refinement or atomic coordinate data resulting
# from the CCDC's data processing and validation procedures.
#
#######################################################################

data_CSD_CIF_ALORIE
_audit_creation_date 2016-05-17
_audit_creation_method CSD-ConQuest-V1
_database_code_CSD ALORIE
_database_code_depnum_ccdc_archive 'CCDC 1475776'
_chemical_formula_sum 'C20 H15 N3 O3'
_chemical_formula_moiety
;
C20 H15 N3 O3
;
_journal_coden_Cambridge 1078
_journal_year 2016
_journal_name_full 'CSD Communication(Private Communication) '
loop_
_publ_author_name
"M.E.Light"
"C.Haynes"
"P.A.Gale"
_chemical_name_systematic
;
1-((4-(Benzyloxy)benzoyl)oxy)-1H-benzotriazole
;
_cell_volume   1641.270
_exptl_crystal_colour 'colorless'
_exptl_crystal_density_diffrn 1.398
_diffrn_ambient_temperature 120
#These two values have been output from a single CSD field.
_refine_ls_R_factor_gt 0.0615
_refine_ls_wR_factor_gt 0.0615
_symmetry_cell_setting monoclinic
_symmetry_space_group_name_H-M 'P 21/c'
_symmetry_Int_Tables_number 14
loop_
_symmetry_equiv_pos_site_id
_symmetry_equiv_pos_as_xyz
1 x,y,z
2 -x,1/2+y,1/2-z
3 -x,-y,-z
4 x,-1/2-y,-1/2+z
_cell_length_a 11.5955(2)
_cell_length_b 5.5921(1)
_cell_length_c 25.3157(7)
_cell_angle_alpha 90
_cell_angle_beta 91.060(1)
_cell_angle_gamma 90
_cell_formula_units_Z 4
loop_
_atom_type_symbol
_atom_type_radius_bond
C 0.68
H 0.23
N 0.68
O 0.68
loop_
_atom_site_label
_atom_site_type_symbol
_atom_site_fract_x
_atom_site_fract_y
_atom_site_fract_z
O1 O 0.36048(14) 0.2014(3) 0.47406(7)
O2 O 0.15321(16) -0.5661(4) 0.63151(8)
O3 O -0.00841(15) -0.3779(3) 0.60027(8)
N1 N -0.06797(18) -0.5469(4) 0.62831(9)
N2 N -0.10338(19) -0.7479(4) 0.60331(9)
N3 N -0.16542(19) -0.8683(4) 0.63663(9)
C1 C 0.4472(2) 0.6542(5) 0.40284(12)
H1 H 0.43300 0.75460 0.43230
C2 C 0.5269(3) 0.7231(5) 0.36590(12)
H2 H 0.56710 0.87000 0.37020
C3 C 0.5483(2) 0.5805(5) 0.32302(11)
H3 H 0.60330 0.62820 0.29780
C4 C 0.4893(3) 0.3671(6) 0.31680(11)
H4 H 0.50370 0.26760 0.28720
C5 C 0.4089(2) 0.2988(5) 0.35402(11)
H5 H 0.36810 0.15280 0.34950
C6 C 0.3877(2) 0.4403(5) 0.3975(1)
C7 C 0.3015(2) 0.3616(5) 0.43752(11)
H6 H 0.27100 0.50180 0.45660
H7 H 0.23620 0.27820 0.41980
C8 C 0.2941(2) 0.0693(5) 0.50685(10)
C9 C 0.1764(2) 0.1033(5) 0.51372(11)
H8 H 0.13760 0.23080 0.49610
C10 C 0.1163(2) -0.0486(5) 0.54616(10)
H9 H 0.03590 -0.02530 0.55080
C11 C 0.1724(2) -0.2359(5) 0.57218(10)
C12 C 0.2915(2) -0.2643(5) 0.56647(11)
H10 H 0.33110 -0.38820 0.58500
C13 C 0.3512(2) -0.1131(5) 0.53411(11)
H11 H 0.43200 -0.13320 0.53030
C14 C 0.1130(2) -0.4113(5) 0.60472(10)
C15 C -0.1072(2) -0.5302(5) 0.67835(10)
C16 C -0.0942(2) -0.3635(5) 0.71865(11)
H12 H -0.04960 -0.22240 0.71480
C17 C -0.1504(2) -0.4161(6) 0.76454(12)
H13 H -0.14480 -0.30750 0.79330
C18 C -0.2159(2) -0.6260(5) 0.77019(11)
H14 H -0.25350 -0.65470 0.80260
C19 C -0.2271(2) -0.7904(5) 0.73021(11)
H15 H -0.27140 -0.93180 0.73420
C20 C -0.1700(2) -0.7401(5) 0.68322(10)
#END
