
#######################################################################
#
#                 Cambridge Crystallographic Data Centre
#                                CCDC
#
#######################################################################
#
# If this CIF has been generated from an entry in the Cambridge
# Structural Database, then it will include bibliographic, chemical,
# crystal, experimental, refinement or atomic coordinate data resulting
# from the CCDC's data processing and validation procedures.
#
#######################################################################

data_CSD_CIF_AMEVOF
_audit_creation_date 2016-05-18
_audit_creation_method CSD-ConQuest-V1
_database_code_CSD AMEVOF
_database_code_depnum_ccdc_archive 'CCDC 1475438'
_chemical_formula_sum 'C13 H19 N3 O3'
_chemical_formula_moiety
;
C13 H19 N3 O3
;
_journal_coden_Cambridge 1078
_journal_year 2016
_journal_name_full 'CSD Communication(Private Communication) '
loop_
_publ_author_name
"M.E.Light"
"Somchai Keawwangchai"
"P.A.Gale"
_chemical_name_systematic
;
1-hexyl-3-(4-nitrophenyl)urea
;
_cell_volume    652.145
_exptl_crystal_colour 'colorless'
_exptl_crystal_density_diffrn 1.351
_exptl_special_details
;
Chemistry Faculty of Natural & Environmental Sciences, University of 
Southampton, Highfield, Southampton, SO17 1BJ
;
_exptl_crystal_description 'Plate'
_diffrn_ambient_temperature 120
#These two values have been output from a single CSD field.
_refine_ls_R_factor_gt 0.0986
_refine_ls_wR_factor_gt 0.0986
_symmetry_cell_setting monoclinic
_symmetry_space_group_name_H-M 'P 21'
_symmetry_Int_Tables_number 4
loop_
_symmetry_equiv_pos_site_id
_symmetry_equiv_pos_as_xyz
1 x,y,z
2 -x,1/2+y,-z
_cell_length_a 4.902(8)
_cell_length_b 6.382(6)
_cell_length_c 20.86(8)
_cell_angle_alpha 90
_cell_angle_beta 92.13(18)
_cell_angle_gamma 90
_cell_formula_units_Z 2
loop_
_atom_type_symbol
_atom_type_radius_bond
C 0.68
H 0.23
N 0.68
O 0.68
loop_
_atom_site_label
_atom_site_type_symbol
_atom_site_fract_x
_atom_site_fract_y
_atom_site_fract_z
C1 C 0.4013(19) 1.077(2) 0.3246(6)
H1 H 0.48520 1.13080 0.28780
C2 C 0.491(2) 0.8941(17) 0.3522(6)
H2 H 0.64120 0.82170 0.33510
C3 C 0.363(2) 0.8141(16) 0.4051(5)
C4 C 0.145(2) 0.9148(15) 0.4319(5)
H3 H 0.05710 0.85910 0.46800
C5 C 0.062(2) 1.0987(17) 0.4037(5)
H4 H -0.08730 1.17130 0.42120
C6 C 0.183(2) 1.1833(18) 0.3517(5)
C7 C 0.186(2) 1.4807(17) 0.2758(5)
C8 C 0.079(2) 1.7576(17) 0.2001(5)
H5 H 0.10260 1.67810 0.15990
H6 H 0.25760 1.81960 0.21290
C9 C -0.122(2) 1.9324(17) 0.1868(6)
H7 H -0.14200 2.01490 0.22650
H8 H -0.30260 1.87070 0.17510
C10 C -0.040(2) 2.079(2) 0.1335(6)
H9 H 0.00190 1.99410 0.09540
H10 H 0.12850 2.15340 0.14750
C11 C -0.257(2) 2.241(2) 0.1139(6)
H11 H -0.42530 2.16720 0.09880
H12 H -0.30200 2.32510 0.15190
C12 C -0.168(2) 2.3823(19) 0.0629(6)
H13 H -0.13540 2.29840 0.02400
H14 H 0.00720 2.44760 0.07690
C13 C -0.374(2) 2.556(2) 0.0455(7)
H15 H -0.53700 2.49420 0.02440
H16 H -0.29120 2.65610 0.01640
H17 H -0.42590 2.62870 0.08460
N1 N 0.458(2) 0.6193(15) 0.4329(5)
N2 N 0.0725(17) 1.3641(15) 0.3224(4)
H18 H -0.08680 1.40630 0.33560
N3 N 0.0013(19) 1.6172(14) 0.2482(4)
H19 H -0.16820 1.61730 0.26070
O1 O 0.3266(14) 0.5412(11) 0.4747(4)
O2 O 0.6614(14) 0.5338(13) 0.4119(4)
O3 O 0.4234(14) 1.4734(11) 0.2611(4)
#END
