
#######################################################################
#
#                 Cambridge Crystallographic Data Centre
#                                CCDC
#
#######################################################################
#
# If this CIF has been generated from an entry in the Cambridge
# Structural Database, then it will include bibliographic, chemical,
# crystal, experimental, refinement or atomic coordinate data resulting
# from the CCDC's data processing and validation procedures.
#
#######################################################################

data_CSD_CIF_AMIKUD
_audit_creation_date 2011-06-07
_audit_creation_method CSD-ConQuest-V1
_database_code_CSD AMIKUD
_database_code_depnum_ccdc_archive 'CCDC 787882'
_chemical_formula_sum 'C23 H18 N6 O1'
_chemical_formula_moiety
;
C23 H18 N6 O1
;
_journal_coden_Cambridge 222
_journal_volume 40
_journal_year 2011
_journal_page_first 2173
_journal_name_full 'Dalton Trans. '
loop_
_publ_author_name
"Zhenghao Yang"
"Chongchong Yan"
"Yuncong Chen"
"Chengcheng Zhu"
"Changli Zhang"
"Xindian Dong"
"Weiqi Yang"
"Zijian Guo"
"Yi Lu"
"Weijiang He"
_chemical_name_systematic
;
N,N-Dimethyl-7-(2,2':6',2''-terpyridin-4'-yl)-2,1,3-benzoxadiazol-4-amine
;
_cell_volume    939.642
_exptl_crystal_colour 'red'
_exptl_crystal_density_diffrn 1.394
_exptl_crystal_description 'block'
_diffrn_ambient_temperature 298
#These two values have been output from a single CSD field.
_refine_ls_R_factor_gt 0.0554
_refine_ls_wR_factor_gt 0.0554
_symmetry_cell_setting triclinic
_symmetry_space_group_name_H-M 'P -1'
_symmetry_Int_Tables_number 2
loop_
_symmetry_equiv_pos_site_id
_symmetry_equiv_pos_as_xyz
1 x,y,z
2 -x,-y,-z
_cell_length_a 8.7846(14)
_cell_length_b 9.1746(15)
_cell_length_c 12.361(2)
_cell_angle_alpha 90.693(3)
_cell_angle_beta 97.346(2)
_cell_angle_gamma 107.751(2)
_cell_formula_units_Z 2
loop_
_atom_type_symbol
_atom_type_radius_bond
C 0.68
H 0.23
N 0.68
O 0.68
loop_
_atom_site_label
_atom_site_type_symbol
_atom_site_fract_x
_atom_site_fract_y
_atom_site_fract_z
C1 C 0.7512(3) 0.4889(3) 0.5000(2)
C2 C 0.6916(3) 0.5644(3) 0.5781(2)
C3 C 0.7222(3) 0.7300(4) 0.5807(2)
C4 C 0.5841(4) 0.7386(4) 0.7424(3)
H1 H 0.50220 0.64310 0.71980
H2 H 0.53610 0.80790 0.77280
H3 H 0.66430 0.72110 0.79660
C5 C 0.6712(4) 0.9644(4) 0.6352(3)
H4 H 0.77670 1.02790 0.66660
H5 H 0.59110 0.98980 0.67090
H6 H 0.65420 0.98130 0.55870
C6 C 0.8193(3) 0.8008(3) 0.5062(2)
H7 H 0.84780 0.90700 0.50510
C7 C 0.8789(3) 0.7226(3) 0.4308(2)
H8 H 0.94300 0.78140 0.38300
C8 C 0.8501(3) 0.5670(3) 0.4224(2)
C9 C 0.9091(3) 0.4924(3) 0.3376(2)
C10 C 1.0133(3) 0.5762(3) 0.2696(2)
H9 H 1.04770 0.68260 0.27750
C11 C 1.0674(3) 0.5044(3) 0.1899(2)
C12 C 1.1778(3) 0.5936(3) 0.1167(2)
C13 C 1.3015(4) 0.8306(4) 0.0566(3)
H10 H 1.32240 0.93640 0.06110
C14 C 1.3702(4) 0.7706(4) -0.0187(3)
H11 H 1.43350 0.83310 -0.06520
C15 C 1.3431(4) 0.6167(4) -0.0233(3)
H12 H 1.39010 0.57220 -0.07230
C16 C 1.2462(3) 0.5277(3) 0.0443(2)
H13 H 1.22670 0.42220 0.04120
C17 C 0.9409(4) 0.0285(3) 0.1537(3)
H14 H 1.03520 0.08500 0.12800
C18 C 0.8796(4) -0.1281(4) 0.1300(3)
H15 H 0.93150 -0.17810 0.08850
C19 C 0.7414(4) -0.2070(4) 0.1690(3)
H16 H 0.69560 -0.31190 0.15360
C20 C 0.6710(4) -0.1281(4) 0.2315(3)
H17 H 0.57800 -0.18340 0.25920
C21 C 0.8622(4) 0.1000(3) 0.2153(2)
C22 C 0.9207(3) 0.2702(3) 0.2396(2)
C23 C 0.8630(3) 0.3339(3) 0.3211(2)
H18 H 0.79390 0.27130 0.36460
N1 N 0.7001(3) 0.3379(3) 0.5134(2)
N2 N 0.6039(3) 0.4644(3) 0.6384(2)
N3 N 0.6587(3) 0.8043(3) 0.6493(2)
N4 N 1.2061(3) 0.7470(3) 0.1242(2)
N5 N 1.0251(3) 0.3510(3) 0.17610(19)
N6 N 0.7277(3) 0.0233(3) 0.2554(2)
O1 O 0.6105(2) 0.3254(2) 0.59972(17)
#END
