
#######################################################################
#
#                 Cambridge Crystallographic Data Centre
#                                CCDC
#
#######################################################################
#
# If this CIF has been generated from an entry in the Cambridge
# Structural Database, then it will include bibliographic, chemical,
# crystal, experimental, refinement or atomic coordinate data resulting
# from the CCDC's data processing and validation procedures.
#
#######################################################################

data_CSD_CIF_AMNTPY01
_audit_creation_date 1999-04-26
_audit_creation_method CSD-ConQuest-V1
_database_code_CSD AMNTPY01
_database_code_depnum_ccdc_archive 'CCDC 759880'
_database_code_depnum_ccdc_journal 1145/89
_chemical_formula_sum 'C5 H5 N3 O2'
_chemical_formula_moiety
;
C5 H5 N3 O2
;
_journal_coden_Cambridge 1145
_journal_volume 8
_journal_year 1998
_journal_page_first 1385
_journal_name_full 'J.Mater.Chem. '
loop_
_publ_author_name
"C.B.Aakeroy"
"A.M.Beatty"
"M.Nieuwenhuyzen"
"Min Zou"
_chemical_name_systematic
;
2-Amino-3-nitropyridine
;
_chemical_melting_point 438.15
_cell_volume    594.527
_exptl_crystal_colour 'yellow'
_exptl_crystal_density_diffrn 1.554
_exptl_special_details
;
Melting point range 438.15-440.15K
II, 1D 'flat'-ribbon polymorph

;
_exptl_crystal_description 'diamond-like'
_exptl_crystal_preparation 'ethanol'
_diffrn_ambient_temperature 153
#These two values have been output from a single CSD field.
_refine_ls_R_factor_gt 0.0575
_refine_ls_wR_factor_gt 0.0575
_symmetry_cell_setting monoclinic
_symmetry_space_group_name_H-M 'P 21/c'
_symmetry_Int_Tables_number 14
loop_
_symmetry_equiv_pos_site_id
_symmetry_equiv_pos_as_xyz
1 x,y,z
2 -x,1/2+y,1/2-z
3 -x,-y,-z
4 x,-1/2-y,-1/2+z
_cell_length_a 4.917(1)
_cell_length_b 6.940(2)
_cell_length_c 17.507(3)
_cell_angle_alpha 90
_cell_angle_beta 95.63(2)
_cell_angle_gamma 90
_cell_formula_units_Z 4
loop_
_atom_type_symbol
_atom_type_radius_bond
C 0.68
H 0.23
N 0.68
O 0.68
loop_
_atom_site_label
_atom_site_type_symbol
_atom_site_fract_x
_atom_site_fract_y
_atom_site_fract_z
N1 N 0.7670(6) 0.5804(5) 0.9182(2)
C1 C 0.6376(8) 0.4089(5) 0.9244(2)
N2 N 0.7500(6) 0.2919(4) 0.9789(2)
C2 C 0.3998(8) 0.3684(5) 0.8741(2)
N3 N 0.2550(7) 0.1889(4) 0.8770(2)
O1 O 0.3300(6) 0.0697(4) 0.9275(1)
O2 O 0.0576(6) 0.1579(4) 0.8287(1)
C3 C 0.2994(8) 0.5048(6) 0.8201(2)
C4 C 0.4324(8) 0.6760(6) 0.8151(2)
C5 C 0.6687(8) 0.7063(6) 0.8657(2)
H1 H 0.6547(6) 0.1864(4) 0.9984(2)
H2 H 0.1326(8) 0.4739(6) 0.7807(2)
H3 H 0.3558(8) 0.7731(6) 0.7810(2)
H4 H 0.7892(8) 0.8316(6) 0.8592(2)
H5 H 0.9101(8) 0.3114(6) 1.0096(2)
#END
