
#######################################################################
#
#                 Cambridge Crystallographic Data Centre
#                                CCDC
#
#######################################################################
#
# If this CIF has been generated from an entry in the Cambridge
# Structural Database, then it will include bibliographic, chemical,
# crystal, experimental, refinement or atomic coordinate data resulting
# from the CCDC's data processing and validation procedures.
#
#######################################################################

data_CSD_CIF_AMNTPY02
_audit_creation_date 1999-04-26
_audit_creation_method CSD-ConQuest-V1
_database_code_CSD AMNTPY02
_database_code_depnum_ccdc_archive 'CCDC 759881'
_database_code_depnum_ccdc_journal 1145/89
_chemical_formula_sum 'C5 H5 N3 O2'
_chemical_formula_moiety
;
C5 H5 N3 O2
;
_journal_coden_Cambridge 1145
_journal_volume 8
_journal_year 1998
_journal_page_first 1385
_journal_name_full 'J.Mater.Chem. '
loop_
_publ_author_name
"C.B.Aakeroy"
"A.M.Beatty"
"M.Nieuwenhuyzen"
"Min Zou"
_chemical_name_systematic
;
2-Amino-3-nitropyridine
;
_chemical_melting_point 435.15
_cell_volume    583.514
_exptl_crystal_colour 'yellow-brown'
_exptl_crystal_density_diffrn 1.584
_exptl_special_details
;
Melting point range 435.15-436.15K
III, 1D 'step'-ribbon polymorph

;
_exptl_crystal_description 'cuboid'
_diffrn_ambient_temperature 173
#These two values have been output from a single CSD field.
_refine_ls_R_factor_gt 0.0716
_refine_ls_wR_factor_gt 0.0716
_symmetry_cell_setting monoclinic
_symmetry_space_group_name_H-M 'P 21/n'
_symmetry_Int_Tables_number 14
loop_
_symmetry_equiv_pos_site_id
_symmetry_equiv_pos_as_xyz
1 x,y,z
2 1/2-x,1/2+y,1/2-z
3 -x,-y,-z
4 -1/2+x,-1/2-y,-1/2+z
_cell_length_a 3.737(2)
_cell_length_b 7.445(2)
_cell_length_c 20.974(6)
_cell_angle_alpha 90
_cell_angle_beta 90.52(3)
_cell_angle_gamma 90
_cell_formula_units_Z 4
loop_
_atom_type_symbol
_atom_type_radius_bond
C 0.68
H 0.23
N 0.68
O 0.68
loop_
_atom_site_label
_atom_site_type_symbol
_atom_site_fract_x
_atom_site_fract_y
_atom_site_fract_z
N1 N 0.3521(9) 1.0211(5) 0.5825(2)
N2 N 0.3038(10) 0.7711(5) 0.5208(2)
N3 N -0.0633(9) 0.5842(5) 0.6266(2)
O1 O -0.2199(10) 0.5216(4) 0.6730(2)
O2 O -0.0126(10) 0.4935(4) 0.5781(2)
C1 C 0.2373(10) 0.8474(5) 0.5770(2)
C2 C 0.0614(11) 0.7651(6) 0.6300(2)
C3 C 0.0146(11) 0.8598(6) 0.6858(2)
C4 C 0.1325(11) 1.0357(6) 0.6899(2)
C5 C 0.2991(11) 1.1072(6) 0.6372(2)
H1 H 0.2408(10) 0.6475(5) 0.5216(2)
H2 H 0.4449(10) 0.8110(5) 0.4802(2)
H3 H -0.1198(11) 0.8012(6) 0.7193(2)
H4 H 0.1237(11) 1.1033(6) 0.7403(2)
H5 H 0.3604(11) 1.2378(6) 0.6388(2)
#END
