
#######################################################################
#
#                 Cambridge Crystallographic Data Centre
#                                CCDC
#
#######################################################################
#
# If this CIF has been generated from an entry in the Cambridge
# Structural Database, then it will include bibliographic, chemical,
# crystal, experimental, refinement or atomic coordinate data resulting
# from the CCDC's data processing and validation procedures.
#
#######################################################################

data_CSD_CIF_AMOTEC
_audit_creation_date 2011-05-16
_audit_creation_method CSD-ConQuest-V1
_database_code_CSD AMOTEC
_database_code_depnum_ccdc_archive 'CCDC 783965'
_chemical_formula_sum 'C33 H39 N1 O9'
_chemical_formula_moiety
;
C33 H39 N1 O9
;
_journal_coden_Cambridge 179
_journal_volume 50
_journal_year 2011
_journal_page_first 2297
_journal_name_full 'Angew.Chem.,Int.Ed. '
loop_
_publ_author_name
"A.Takada"
"Y.Hashimoto"
"H.Takikawa"
"K.Hikita"
"K.Suzuki"
_chemical_name_systematic
;
3,3,8,10-Tetramethoxy-5a-(3-methylbut-2-en-1-yl)-5a,6-dihydro-3H-anthra[9,1-cd
][1,2]oxazol-6-yl 
4,7,7-trimethyl-3-oxo-2-oxabicyclo[2.2.1]heptane-1-carboxylate
;
_cell_volume   3102.489
_exptl_crystal_colour 'beige'
_exptl_crystal_density_diffrn 1.271
_exptl_crystal_description 'block'
_diffrn_ambient_temperature 176
#These two values have been output from a single CSD field.
_refine_ls_R_factor_gt 0.0519
_refine_ls_wR_factor_gt 0.0519
_symmetry_cell_setting orthorhombic
_symmetry_space_group_name_H-M 'P 21 21 21'
_symmetry_Int_Tables_number 19
loop_
_symmetry_equiv_pos_site_id
_symmetry_equiv_pos_as_xyz
1 x,y,z
2 1/2+x,1/2-y,-z
3 -x,1/2+y,1/2-z
4 1/2-x,-y,1/2+z
_cell_length_a 6.5253(2)
_cell_length_b 11.6956(3)
_cell_length_c 40.6525(10)
_cell_angle_alpha 90
_cell_angle_beta 90
_cell_angle_gamma 90
_cell_formula_units_Z 4
loop_
_atom_type_symbol
_atom_type_radius_bond
C 0.68
H 0.23
N 0.68
O 0.68
loop_
_atom_site_label
_atom_site_type_symbol
_atom_site_fract_x
_atom_site_fract_y
_atom_site_fract_z
O1 O -1.0377(2) 0.48291(12) -0.87500(3)
O2 O -0.7891(2) 0.46252(12) -0.83720(4)
O3 O -1.0159(2) -0.05382(12) -0.87108(3)
O4 O -0.6730(2) -0.03331(14) -0.86784(4)
O5 O -1.0048(2) -0.23214(12) -0.90831(3)
O6 O -1.1147(3) -0.34872(14) -0.94855(4)
O7 O -1.5177(3) -0.25475(13) -0.80803(4)
O8 O -1.5780(3) 0.13405(13) -0.76773(4)
O9 O -1.1489(2) 0.37649(11) -0.80297(3)
N1 N -1.2584(3) 0.28471(14) -0.78738(4)
C1 C -0.9407(3) 0.40194(16) -0.85504(5)
C2 C -0.8454(3) 0.31365(18) -0.87822(5)
H1 H -0.73390 0.33880 -0.89140
C3 C -0.9028(3) 0.20579(17) -0.88181(5)
H2 H -0.82330 0.15860 -0.89590
C4 C -1.0867(3) 0.15250(16) -0.86492(4)
C5 C -1.0463(3) 0.03687(15) -0.84724(4)
H3 H -0.92010 0.04420 -0.83340
C6 C -1.2259(3) 0.00013(16) -0.82520(4)
C7 C -1.2908(3) -0.11258(16) -0.82471(5)
H4 H -1.22170 -0.16840 -0.83750
C8 C -1.4581(3) -0.14394(17) -0.80532(5)
C9 C -1.5556(3) -0.06517(18) -0.78526(5)
H5 H -1.66650 -0.08800 -0.77160
C10 C -1.4885(3) 0.04884(16) -0.78535(4)
C11 C -1.3237(3) 0.08188(16) -0.80513(4)
C12 C -1.2511(3) 0.19914(15) -0.80853(5)
C13 C -1.1436(3) 0.23002(15) -0.83746(4)
C14 C -1.0827(3) 0.33747(16) -0.83273(4)
C15 C -1.1745(4) 0.5596(2) -0.85829(6)
H6 H -1.09870 0.62740 -0.85100
H7 H -1.23380 0.52100 -0.83910
H8 H -1.28450 0.58280 -0.87330
C16 C -0.6668(4) 0.3937(2) -0.81615(7)
H9 H -0.54630 0.36650 -0.82820
H10 H -0.74720 0.32810 -0.80850
H11 H -0.62240 0.43910 -0.79720
C17 C -1.2627(3) 0.13827(17) -0.89048(5)
H12 H -1.22220 0.07950 -0.90680
H13 H -1.38670 0.11030 -0.87900
C18 C -1.3143(4) 0.24635(19) -0.90830(5)
H14 H -1.34640 0.31050 -0.89490
C19 C -1.3206(6) 0.2633(2) -0.94038(6)
C20 C -1.3678(8) 0.3809(3) -0.95449(9)
H15 H -1.23980 0.42350 -0.95750
H16 H -1.45740 0.42260 -0.93930
H17 H -1.43670 0.37230 -0.97580
C21 C -1.2807(13) 0.1739(3) -0.96564(7)
H18 H -1.40910 0.13460 -0.97100
H19 H -1.18180 0.11840 -0.95700
H20 H -1.22480 0.20960 -0.98550
C22 C -0.8201(3) -0.08204(16) -0.87795(4)
C23 C -0.8041(3) -0.18570(16) -0.89997(4)
C24 C -0.6808(4) -0.28558(17) -0.88530(5)
H21 H -0.75990 -0.32650 -0.86820
H22 H -0.54920 -0.25920 -0.87590
C25 C -0.6466(4) -0.36117(18) -0.91610(5)
H23 H -0.71180 -0.43700 -0.91340
H24 H -0.49860 -0.37190 -0.92050
C26 C -0.7505(3) -0.29252(16) -0.94425(5)
C27 C -0.9758(3) -0.29831(16) -0.93592(5)
C28 C -0.6964(4) -0.3325(2) -0.97850(5)
H25 H -0.79470 -0.39090 -0.98560
H26 H -0.55800 -0.36500 -0.97840
H27 H -0.70140 -0.26750 -0.99370
C29 C -0.7063(3) -0.16563(16) -0.93431(4)
C30 C -0.4796(4) -0.1352(2) -0.93340(6)
H28 H -0.39770 -0.20540 -0.93440
H29 H -0.44890 -0.09440 -0.91290
H30 H -0.44620 -0.08640 -0.95220
C31 C -0.8240(4) -0.07926(19) -0.95496(5)
H31 H -0.77090 -0.00230 -0.95070
H32 H -0.96970 -0.08220 -0.94920
H33 H -0.80730 -0.09760 -0.97830
C32 C -1.7152(4) -0.2852(2) -0.79537(5)
H34 H -1.81840 -0.27620 -0.81270
H35 H -1.74940 -0.23520 -0.77680
H36 H -1.71290 -0.36490 -0.78800
C33 C -1.7615(4) 0.1087(2) -0.75004(6)
H37 H -1.72650 0.08220 -0.72790
H38 H -1.83790 0.04890 -0.76160
H39 H -1.84600 0.17780 -0.74850
#END
