
#######################################################################
#
#                 Cambridge Crystallographic Data Centre
#                                CCDC
#
#######################################################################
#
# If this CIF has been generated from an entry in the Cambridge
# Structural Database, then it will include bibliographic, chemical,
# crystal, experimental, refinement or atomic coordinate data resulting
# from the CCDC's data processing and validation procedures.
#
#######################################################################

data_CSD_CIF_AMUZOY
_audit_creation_date 2011-06-07
_audit_creation_method CSD-ConQuest-V1
_database_code_CSD AMUZOY
_database_code_depnum_ccdc_archive 'CCDC 791760'
_chemical_formula_sum 'C16 H15 N1 O4'
_chemical_formula_moiety
;
C16 H15 N1 O4
;
_journal_coden_Cambridge 1350
_journal_volume 13
_journal_year 2011
_journal_page_first 1931
_journal_name_full 'CrystEngComm '
loop_
_publ_author_name
"C.Klein"
"C.Fischer"
"W.Seichter"
"A.Schwarzer"
"E.Weber"
_chemical_name_systematic
;
(Z)-2-(Hydroxyimino)-1,2-bis(4-methoxyphenyl)ethanone
;
_cell_volume   1372.649
_exptl_crystal_colour 'colorless'
_exptl_crystal_density_diffrn 1.381
_exptl_crystal_description 'splitter'
_diffrn_ambient_temperature 93
#These two values have been output from a single CSD field.
_refine_ls_R_factor_gt 0.0733
_refine_ls_wR_factor_gt 0.0733
_symmetry_cell_setting orthorhombic
_symmetry_space_group_name_H-M 'P 21 21 21'
_symmetry_Int_Tables_number 19
loop_
_symmetry_equiv_pos_site_id
_symmetry_equiv_pos_as_xyz
1 x,y,z
2 1/2-x,-y,1/2+z
3 -x,1/2+y,1/2-z
4 1/2+x,1/2-y,-z
_cell_length_a 6.015(1)
_cell_length_b 7.3126(13)
_cell_length_c 31.207(6)
_cell_angle_alpha 90
_cell_angle_beta 90
_cell_angle_gamma 90
_cell_formula_units_Z 4
loop_
_atom_type_symbol
_atom_type_radius_bond
C 0.68
H 0.23
N 0.68
O 0.68
loop_
_atom_site_label
_atom_site_type_symbol
_atom_site_fract_x
_atom_site_fract_y
_atom_site_fract_z
O1 O 0.6354(5) 0.2379(4) 0.89462(9)
O2 O 1.1914(5) 0.2720(4) 0.90275(9)
H1 H 1.338(8) 0.269(6) 0.9035(13)
O3 O 0.8126(5) 1.0358(4) 0.96970(9)
O4 O 0.6584(5) 0.2776(4) 0.67902(9)
N1 N 1.1439(6) 0.2673(5) 0.85857(11)
C1 C 0.7870(7) 0.5326(6) 0.90800(13)
C2 C 0.9554(7) 0.6601(6) 0.89921(13)
H2 H 1.06610 0.63150 0.87860
C3 C 0.9626(8) 0.8262(6) 0.92012(13)
H3 H 1.08030 0.90970 0.91470
C4 C 0.7935(7) 0.8706(5) 0.94954(12)
C5 C 0.6253(7) 0.7467(6) 0.95806(12)
H4 H 0.51160 0.77650 0.97800
C6 C 0.6233(8) 0.5780(6) 0.93727(13)
H5 H 0.50800 0.49310 0.94330
C7 C 0.7790(7) 0.3541(6) 0.88632(13)
C8 C 0.9425(7) 0.3070(5) 0.85115(13)
C9 C 0.8578(7) 0.2997(5) 0.80657(12)
C10 C 0.6539(7) 0.3742(5) 0.79504(13)
H6 H 0.56280 0.42800 0.81650
C11 C 0.5799(7) 0.3717(5) 0.75261(13)
H7 H 0.44140 0.42540 0.74510
C12 C 0.7123(7) 0.2891(5) 0.72130(12)
C13 C 0.9145(7) 0.2114(6) 0.73264(13)
H8 H 1.00300 0.15310 0.71140
C14 C 0.9877(7) 0.2181(6) 0.77442(13)
H9 H 1.12800 0.16680 0.78160
C15 C 0.6291(9) 1.0952(6) 0.99440(15)
H10 H 0.60780 1.01220 1.01870
H11 H 0.49500 1.09550 0.97660
H12 H 0.65730 1.21910 1.00500
C16 C 0.4725(8) 0.3809(6) 0.66453(14)
H13 H 0.49580 0.51040 0.67120
H14 H 0.33770 0.33750 0.67890
H15 H 0.45610 0.36570 0.63350
#END
