
#######################################################################
#
#                 Cambridge Crystallographic Data Centre
#                                CCDC
#
#######################################################################
#
# If this CIF has been generated from an entry in the Cambridge
# Structural Database, then it will include bibliographic, chemical,
# crystal, experimental, refinement or atomic coordinate data resulting
# from the CCDC's data processing and validation procedures.
#
#######################################################################

data_CSD_CIF_ANANAG
_audit_creation_date 2016-05-19
_audit_creation_method CSD-ConQuest-V1
_database_code_CSD ANANAG
_database_code_depnum_ccdc_archive 'CCDC 1430175'
_chemical_formula_sum 'C21 H23 N3 O3'
_chemical_formula_moiety
;
C21 H23 N3 O3
;
_journal_coden_Cambridge 151
_journal_volume 59
_journal_year 2016
_journal_page_first 4221
_journal_name_full 'J.Med.Chem. '
loop_
_publ_author_name
"G.Mariaule"
"S.De Cesco"
"F.Airaghi"
"J.Kurian"
"P.Schiavini"
"S.Rocheleau"
"I.Huskic"
"K.Auclair"
"A.Mittermaier"
"N.Moitessier"
_chemical_name_systematic
;
(S)-1-((3aR,4S,7aS)-(2-Benzyloxy-3-oxo-2,3,3a,4,5,7a-hexahydro-1H-isoindol-4-y
l)carbonyl)pyrrolidine-2-carbonitrile
;
_cell_volume   1964.148
_exptl_crystal_colour 'colorless'
_exptl_crystal_density_diffrn 1.236
_exptl_special_details
;
prolyl oligopeptidase inhibitor activity

;
_exptl_crystal_description 'Needle'
_exptl_crystal_preparation 'methanol'
_diffrn_ambient_temperature 100
#These two values have been output from a single CSD field.
_refine_ls_R_factor_gt 0.0533
_refine_ls_wR_factor_gt 0.0533
_symmetry_cell_setting orthorhombic
_symmetry_space_group_name_H-M 'P 21 21 21'
_symmetry_Int_Tables_number 19
loop_
_symmetry_equiv_pos_site_id
_symmetry_equiv_pos_as_xyz
1 x,y,z
2 1/2-x,-y,1/2+z
3 -x,1/2+y,1/2-z
4 1/2+x,1/2-y,-z
_cell_length_a 9.202(5)
_cell_length_b 10.604(5)
_cell_length_c 20.129(10)
_cell_angle_alpha 90
_cell_angle_beta 90
_cell_angle_gamma 90
_cell_formula_units_Z 4
loop_
_atom_type_symbol
_atom_type_radius_bond
C 0.68
H 0.23
N 0.68
O 0.68
loop_
_atom_site_label
_atom_site_type_symbol
_atom_site_fract_x
_atom_site_fract_y
_atom_site_fract_z
O1 O 0.4374(5) 0.4054(4) 0.29694(19)
C1 C 0.5877(7) 0.1617(6) 0.3965(3)
H1 H 0.64720 0.10520 0.36840
H2 H 0.54650 0.11360 0.43420
O2 O 0.6415(4) 0.5382(4) 0.48251(18)
N1 N 0.4760(5) 0.2266(6) 0.3585(3)
C2 C 0.5126(6) 0.3399(7) 0.3336(3)
O3 O 0.3608(4) 0.1580(4) 0.3320(2)
N2 N 0.5387(4) 0.6536(4) 0.40251(19)
C3 C 0.6725(6) 0.2769(6) 0.4196(3)
H3 H 0.61510 0.31760 0.45590
N3 N 0.2331(7) 0.5821(7) 0.4917(4)
C4 C 0.8255(7) 0.2678(7) 0.4428(3)
H4 H 0.85710 0.19440 0.46560
C5 C 0.9171(7) 0.3602(8) 0.4321(3)
H5 H 1.01320 0.35100 0.44860
C6 C 0.8815(6) 0.4781(7) 0.3960(3)
H6 H 0.94630 0.48380 0.35690
H7 H 0.90520 0.55000 0.42540
C7 C 0.7233(5) 0.4948(6) 0.3717(2)
H8 H 0.72360 0.54350 0.32910
C8 C 0.6639(5) 0.3633(6) 0.3588(2)
H9 H 0.73030 0.32510 0.32510
C9 C 0.6318(5) 0.5651(5) 0.4229(3)
C10 C 0.5190(6) 0.7058(6) 0.3358(3)
H10 H 0.49180 0.63920 0.30370
H11 H 0.60850 0.74820 0.32010
C11 C 0.3978(8) 0.7987(7) 0.3448(3)
H12 H 0.41260 0.87290 0.31570
H13 H 0.30340 0.75940 0.33350
C12 C 0.4000(8) 0.8369(6) 0.4154(3)
H14 H 0.30200 0.86250 0.43050
H15 H 0.46820 0.90780 0.42260
C13 C 0.4506(6) 0.7197(5) 0.4516(3)
H16 H 0.51270 0.74440 0.49020
C14 C 0.3293(7) 0.6420(7) 0.4747(3)
C15 C 0.2336(6) 0.1728(7) 0.3736(3)
H17 H 0.21750 0.26300 0.38390
H18 H 0.24670 0.12660 0.41600
C16 C 0.1061(6) 0.1203(7) 0.3360(3)
C17 C 0.0599(10) 0.1788(8) 0.2798(4)
H19 H 0.11020 0.25060 0.26360
C18 C -0.0550(12) 0.1356(12) 0.2478(4)
H20 H -0.08420 0.17760 0.20830
C19 C -0.1323(9) 0.0364(13) 0.2679(6)
H21 H -0.21530 0.00890 0.24390
C20 C -0.0873(8) -0.0258(8) 0.3253(5)
H22 H -0.13810 -0.09790 0.34090
C21 C 0.0329(7) 0.0193(7) 0.3594(3)
H23 H 0.06380 -0.02090 0.39910
#END
