
#######################################################################
#
#                 Cambridge Crystallographic Data Centre
#                                CCDC
#
#######################################################################
#
# If this CIF has been generated from an entry in the Cambridge
# Structural Database, then it will include bibliographic, chemical,
# crystal, experimental, refinement or atomic coordinate data resulting
# from the CCDC's data processing and validation procedures.
#
#######################################################################

data_CSD_CIF_ANEMEN
_audit_creation_date 2016-05-20
_audit_creation_method CSD-ConQuest-V1
_database_code_CSD ANEMEN
_database_code_depnum_ccdc_archive 'CCDC 1474125'
_chemical_formula_sum 'C17 H18 N2 O4'
_chemical_formula_moiety
;
C17 H18 N2 O4
;
_journal_coden_Cambridge 1078
_journal_year 2016
_journal_name_full 'CSD Communication(Private Communication) '
loop_
_publ_author_name
"W.Clegg"
"R.W.Harrington"
_chemical_name_systematic
;
1,1'-(2,6-dimethyl-4-(4-nitrophenyl)-1,4-dihydropyridine-3,5-diyl)diethanone
;
_cell_volume   1516.365
_exptl_crystal_colour 'colorless'
_exptl_crystal_density_diffrn 1.377
_exptl_crystal_description 'block'
_diffrn_ambient_temperature 150
#These two values have been output from a single CSD field.
_refine_ls_R_factor_gt 0.0371
_refine_ls_wR_factor_gt 0.0371
_symmetry_cell_setting monoclinic
_symmetry_space_group_name_H-M 'P 21/n'
_symmetry_Int_Tables_number 14
loop_
_symmetry_equiv_pos_site_id
_symmetry_equiv_pos_as_xyz
1 x,y,z
2 1/2-x,1/2+y,1/2-z
3 -x,-y,-z
4 -1/2+x,-1/2-y,-1/2+z
_cell_length_a 7.4786(5)
_cell_length_b 14.4974(11)
_cell_length_c 14.2242(10)
_cell_angle_alpha 90
_cell_angle_beta 100.5004(8)
_cell_angle_gamma 90
_cell_formula_units_Z 4
loop_
_atom_type_symbol
_atom_type_radius_bond
C 0.68
H 0.23
N 0.68
O 0.68
loop_
_atom_site_label
_atom_site_type_symbol
_atom_site_fract_x
_atom_site_fract_y
_atom_site_fract_z
O1 O 0.72109(11) 0.76375(7) 0.73971(6)
O2 O 0.81974(11) 0.88758(7) 0.45298(6)
O3 O 0.81253(12) 0.39144(6) 0.44032(9)
O4 O 0.59133(13) 0.41734(6) 0.32194(6)
N1 N 0.22285(12) 0.85277(6) 0.50647(6)
H1 H 0.107(2) 0.864(1) 0.4900(11)
N2 N 0.69029(13) 0.44027(7) 0.39716(7)
C1 C 0.28375(13) 0.81936(7) 0.59793(7)
C2 C 0.46444(13) 0.80140(7) 0.62623(7)
C3 C 0.58617(12) 0.80172(7) 0.55105(7)
H2 H 0.70910 0.82340 0.58310
C4 C 0.51743(13) 0.86918(7) 0.47067(7)
C5 C 0.33563(13) 0.88835(7) 0.44853(7)
C6 C 0.13219(15) 0.80941(9) 0.65382(8)
H3 H 0.12230 0.86610 0.69000
H4 H 0.15820 0.75730 0.69810
H5 H 0.01740 0.79830 0.60970
C7 C 0.55804(14) 0.78347(7) 0.72493(7)
C8 C 0.46554(18) 0.79259(10) 0.81052(8)
H6 H 0.38930 0.73830 0.81450
H7 H 0.38960 0.84820 0.80360
H8 H 0.55780 0.79730 0.86890
C9 C 0.65830(14) 0.90236(7) 0.41912(7)
C10 C 0.61408(17) 0.95043(9) 0.32377(9)
H9 H 0.55680 1.01000 0.33170
H10 H 0.53050 0.91220 0.27890
H11 H 0.72620 0.96040 0.29870
C11 C 0.23376(15) 0.94571(8) 0.36769(8)
H12 H 0.24090 0.91610 0.30660
H13 H 0.28810 1.00730 0.36950
H14 H 0.10610 0.95100 0.37450
C12 C 0.60987(13) 0.70479(7) 0.51132(7)
C13 C 0.74187(14) 0.64449(7) 0.55975(8)
H15 H 0.81400 0.66320 0.61870
C14 C 0.76885(14) 0.55783(8) 0.52292(8)
H16 H 0.85920 0.51750 0.55580
C15 C 0.66126(14) 0.53154(7) 0.43730(8)
C16 C 0.52770(15) 0.58861(8) 0.38777(7)
H17 H 0.45450 0.56890 0.32950
C17 C 0.50340(14) 0.67545(7) 0.42542(7)
H18 H 0.41280 0.71550 0.39210
#END
