
#######################################################################
#
#                 Cambridge Crystallographic Data Centre
#                                CCDC
#
#######################################################################
#
# If this CIF has been generated from an entry in the Cambridge
# Structural Database, then it will include bibliographic, chemical,
# crystal, experimental, refinement or atomic coordinate data resulting
# from the CCDC's data processing and validation procedures.
#
#######################################################################

data_CSD_CIF_ANEVAS
_audit_creation_date 2016-05-20
_audit_creation_method CSD-ConQuest-V1
_database_code_CSD ANEVAS
_database_code_depnum_ccdc_archive 'CCDC 1470348'
_chemical_formula_sum 'C31 H26 N2 O6'
_chemical_formula_moiety
;
C31 H26 N2 O6
;
_journal_coden_Cambridge 1748
_journal_volume 3
_journal_year 2016
_journal_page_first 861
_journal_name_full 'Org.Chem.Front. '
loop_
_publ_author_name
"Guang-Yao Ran"
"Pan Wang"
"Wei Du"
"Ying-Chun Chen"
_chemical_name_systematic
;
methyl 
5-(3-(benzyloxy)prop-1-yn-1-yl)-1'-methyl-5-nitro-2'-oxo-4-phenyl-1',2'-dihydr
ospiro[cyclopent-2-ene-1,3'-indole]-2-carboxylate
;
_cell_volume   2636.805
_exptl_crystal_colour 'colorless'
_exptl_crystal_density_diffrn 1.314
_exptl_crystal_description 'block'
_diffrn_ambient_temperature 291.3
#These two values have been output from a single CSD field.
_refine_ls_R_factor_gt 0.0532
_refine_ls_wR_factor_gt 0.0532
_symmetry_cell_setting orthorhombic
_symmetry_space_group_name_H-M 'P 21 21 21'
_symmetry_Int_Tables_number 19
loop_
_symmetry_equiv_pos_site_id
_symmetry_equiv_pos_as_xyz
1 x,y,z
2 1/2-x,-y,1/2+z
3 1/2+x,1/2-y,-z
4 -x,1/2+y,1/2-z
_cell_length_a 9.02156(13)
_cell_length_b 9.44417(11)
_cell_length_c 30.9480(4)
_cell_angle_alpha 90
_cell_angle_beta 90
_cell_angle_gamma 90
_cell_formula_units_Z 4
loop_
_atom_type_symbol
_atom_type_radius_bond
C 0.68
H 0.23
N 0.68
O 0.68
loop_
_atom_site_label
_atom_site_type_symbol
_atom_site_fract_x
_atom_site_fract_y
_atom_site_fract_z
O1 O -0.8959(3) -0.5943(3) -0.10109(8)
O2 O -0.7881(3) -0.8239(2) -0.23154(7)
C1 C -0.8050(3) -0.7035(3) -0.20984(9)
N1 N -0.8611(3) -0.3749(3) -0.13158(8)
C2 C -0.7022(3) -0.6906(3) -0.17265(8)
O3 O -0.3668(3) -0.6005(3) -0.17018(8)
O4 O -0.8947(3) -0.6144(3) -0.21843(9)
C3 C -0.7702(3) -0.3176(3) -0.16386(9)
C4 C -0.6855(3) -0.5501(3) -0.15039(8)
C5 C -0.6668(3) -0.4180(3) -0.17758(8)
O5 O -0.6168(3) -0.3670(3) 0.02759(7)
C6 C -0.6005(3) -0.8103(3) -0.07110(9)
C7 C -0.6308(3) -0.7953(3) -0.15257(8)
H1 H -0.63320 -0.88890 -0.16190
N2 N -0.4086(3) -0.5333(3) -0.13924(8)
C8 C -0.7802(4) -0.1852(3) -0.18308(11)
H2 H -0.84680 -0.11750 -0.17310
C9 C -0.5558(3) -0.5806(3) -0.11726(8)
C10 C -0.8281(3) -0.5139(3) -0.12434(8)
C11 C -0.5950(4) -0.4201(3) -0.04859(10)
C12 C -0.5708(4) -0.4989(3) -0.07764(9)
C13 C -0.5754(4) -0.3887(3) -0.21241(9)
H3 H -0.50810 -0.45580 -0.22230
C14 C -0.5863(4) -0.2562(4) -0.23238(10)
H4 H -0.52520 -0.23470 -0.25570
C15 C -0.5092(4) -0.8014(4) -0.03502(10)
H5 H -0.41900 -0.75410 -0.03690
C16 C -0.6866(4) -0.1575(3) -0.21782(11)
H6 H -0.69210 -0.07010 -0.23150
C17 C -0.5464(3) -0.7472(3) -0.11359(8)
H7 H -0.44260 -0.77480 -0.11740
O6 O -0.3465(4) -0.4291(4) -0.12527(13)
C18 C -0.6835(5) -0.9347(4) 0.00697(12)
H8 H -0.71070 -0.97720 0.03290
C19 C -0.7342(4) -0.8815(4) -0.06759(11)
H9 H -0.79640 -0.88780 -0.09150
C20 C -0.7243(4) -0.5001(4) 0.08415(12)
C21 C -0.6410(5) -0.6053(5) 0.10180(14)
H10 H -0.58340 -0.66030 0.08340
C22 C -0.7763(5) -0.9436(4) -0.02881(13)
H11 H -0.86630 -0.99110 -0.02680
C23 C -0.8865(5) -0.8442(5) -0.26795(13)
H12 H -0.86830 -0.77210 -0.28910
H13 H -0.98750 -0.83840 -0.25830
H14 H -0.86900 -0.93560 -0.28050
C24 C -0.9823(4) -0.3014(4) -0.11056(13)
H15 H -0.94450 -0.22090 -0.09520
H16 H -1.03050 -0.36440 -0.09060
H17 H -1.05230 -0.27040 -0.13190
C25 C -0.8086(6) -0.4194(5) 0.11126(16)
H18 H -0.86600 -0.34700 0.09960
C26 C -0.6281(7) -0.3156(4) -0.01484(11)
H19 H -0.56070 -0.23620 -0.01810
H20 H -0.72790 -0.28030 -0.01930
C27 C -0.5522(5) -0.8631(4) 0.00384(10)
H21 H -0.49110 -0.85560 0.02790
C28 C -0.7203(5) -0.4712(5) 0.03609(13)
H22 H -0.77850 -0.51640 0.01550
C29 C -0.8115(7) -0.4407(7) 0.1539(2)
H23 H -0.87040 -0.38400 0.17140
C30 C -0.6371(6) -0.6349(7) 0.14504(17)
H24 H -0.57900 -0.70820 0.15580
C31 C -0.7233(8) -0.5516(9) 0.17253(16)
H25 H -0.72350 -0.56740 0.20220
#END
