
#######################################################################
#
#                 Cambridge Crystallographic Data Centre
#                                CCDC
#
#######################################################################
#
# If this CIF has been generated from an entry in the Cambridge
# Structural Database, then it will include bibliographic, chemical,
# crystal, experimental, refinement or atomic coordinate data resulting
# from the CCDC's data processing and validation procedures.
#
#######################################################################

data_CSD_CIF_ANISUN
_audit_creation_date 2016-05-23
_audit_creation_method CSD-ConQuest-V1
_database_code_CSD ANISUN
_database_code_depnum_ccdc_archive 'CCDC 1438117'
_chemical_formula_sum 'C11 H9 N3 O3'
_chemical_formula_moiety
;
C11 H9 N3 O3
;
_journal_coden_Cambridge 1366
_journal_volume 358
_journal_year 2016
_journal_page_first 1679
_journal_name_full 'Adv.Synth.Catal. '
loop_
_publ_author_name
"C.J.Whiteoak"
"O.Planas"
"Anna Company"
"X.Ribas"
_chemical_name_systematic
;
N-(7-nitroquinolin-8-yl)acetamide
;
_cell_volume   1021.916
_exptl_crystal_colour 'yellow'
_exptl_crystal_density_diffrn 1.503
_exptl_crystal_description 'prism'
_diffrn_ambient_temperature 100
#These two values have been output from a single CSD field.
_refine_ls_R_factor_gt 0.029
_refine_ls_wR_factor_gt 0.029
_symmetry_cell_setting monoclinic
_symmetry_space_group_name_H-M 'C c'
_symmetry_Int_Tables_number 9
loop_
_symmetry_equiv_pos_site_id
_symmetry_equiv_pos_as_xyz
1 x,y,z
2 x,-y,1/2+z
3 1/2+x,1/2+y,z
4 1/2+x,1/2-y,1/2+z
_cell_length_a 10.0842(8)
_cell_length_b 16.0119(12)
_cell_length_c 7.0635(5)
_cell_angle_alpha 90
_cell_angle_beta 116.362(1)
_cell_angle_gamma 90
_cell_formula_units_Z 4
loop_
_atom_type_symbol
_atom_type_radius_bond
C 0.68
H 0.23
N 0.68
O 0.68
loop_
_atom_site_label
_atom_site_type_symbol
_atom_site_fract_x
_atom_site_fract_y
_atom_site_fract_z
N1 N 0.27449(15) 0.55218(9) 0.6136(2)
O1 O 0.67626(14) 0.73282(8) 0.92509(19)
C1 C 0.41332(18) 0.53360(11) 0.6387(2)
O2 O 0.88023(14) 0.63941(10) 0.7695(2)
C2 C 0.51059(18) 0.60246(11) 0.6609(2)
N2 N 0.45934(17) 0.68262(9) 0.6717(2)
H1 H 0.367(3) 0.6931(15) 0.611(4)
C3 C 0.64835(17) 0.58372(10) 0.6753(3)
N3 N 0.74675(16) 0.64884(9) 0.6628(2)
O3 O 0.69086(15) 0.70582(8) 0.5372(2)
C4 C 0.69949(19) 0.50122(11) 0.6844(3)
H2 H 0.797(3) 0.4937(16) 0.693(4)
C5 C 0.60883(19) 0.43560(11) 0.6687(3)
H3 H 0.642(3) 0.3824(15) 0.671(4)
C6 C 0.46318(18) 0.45058(10) 0.6429(2)
C7 C 0.36306(19) 0.38519(12) 0.6214(3)
H4 H 0.391(3) 0.3330(16) 0.625(4)
C8 C 0.22397(19) 0.40447(11) 0.5947(3)
H5 H 0.153(3) 0.3641(15) 0.573(4)
C9 C 0.18550(19) 0.48908(11) 0.5919(3)
H6 H 0.083(3) 0.5038(15) 0.568(4)
C10 C 0.54388(19) 0.74230(11) 0.8120(3)
C11 C 0.4628(2) 0.81982(11) 0.8197(3)
H7 H 0.528(4) 0.860(2) 0.905(6)
H8 H 0.408(4) 0.839(2) 0.681(5)
H9 H 0.388(4) 0.805(2) 0.861(6)
#END
