
#######################################################################
#
#                 Cambridge Crystallographic Data Centre
#                                CCDC
#
#######################################################################
#
# If this CIF has been generated from an entry in the Cambridge
# Structural Database, then it will include bibliographic, chemical,
# crystal, experimental, refinement or atomic coordinate data resulting
# from the CCDC's data processing and validation procedures.
#
#######################################################################

data_CSD_CIF_ANIVOJ
_audit_creation_date 2011-05-25
_audit_creation_method CSD-ConQuest-V1
_database_code_CSD ANIVOJ
_database_code_depnum_ccdc_archive 'CCDC 722321'
_chemical_formula_sum 'C22 H18 N2 O4'
_chemical_formula_moiety
;
C22 H18 N2 O4
;
_journal_coden_Cambridge 891
_journal_volume 5
_journal_year 2010
_journal_page_first 739
_journal_name_full 'ChemMedChem '
loop_
_publ_author_name
"A.Cappelli"
"C.Nannicini"
"S.Valenti"
"G.Giuliani"
"M.Anzini"
"L.Mennuni"
"A.Giordani"
"G.Caselli"
"L.P.Stasi"
"F.Makovec"
"G.Giorgi"
"S.Vomero"
_chemical_name_systematic
;
2-(4-(Benzyloxy)phenyl)-N-hydroxy-3-oxoisoindoline-4-carboxamide
;
_cell_volume   1769.935
_exptl_crystal_colour 'pale yellow'
_exptl_crystal_density_diffrn 1.401
_exptl_crystal_description 'prism'
_diffrn_ambient_temperature 293
#These two values have been output from a single CSD field.
_refine_ls_R_factor_gt 0.0615
_refine_ls_wR_factor_gt 0.0615
_symmetry_cell_setting monoclinic
_symmetry_space_group_name_H-M 'P 21/c'
_symmetry_Int_Tables_number 14
loop_
_symmetry_equiv_pos_site_id
_symmetry_equiv_pos_as_xyz
1 x,y,z
2 -x,1/2+y,1/2-z
3 -x,-y,-z
4 x,-1/2-y,-1/2+z
_cell_length_a 9.360(1)
_cell_length_b 20.574(2)
_cell_length_c 9.191(1)
_cell_angle_alpha 90
_cell_angle_beta 90.00(1)
_cell_angle_gamma 90
_cell_formula_units_Z 4
loop_
_atom_type_symbol
_atom_type_radius_bond
C 0.68
H 0.23
N 0.68
O 0.68
loop_
_atom_site_label
_atom_site_type_symbol
_atom_site_fract_x
_atom_site_fract_y
_atom_site_fract_z
C1 C 0.0508(6) 0.1732(2) 0.8742(5)
H1 H 0.11120 0.14980 0.94220
H2 H -0.00190 0.14210 0.81580
N1 N 0.1349(5) 0.21690(18) 0.7826(4)
C2 C 0.0941(6) 0.2804(3) 0.7987(6)
O1 O 0.1461(4) 0.32641(15) 0.7288(3)
C3 C -0.0214(6) 0.2820(2) 0.9071(5)
C4 C -0.1046(6) 0.3330(2) 0.9661(5)
C5 C -0.2080(6) 0.3164(2) 1.0672(6)
H3 H -0.26350 0.34920 1.10800
C6 C -0.2316(6) 0.2525(2) 1.1095(5)
H4 H -0.30260 0.24320 1.17720
C7 C -0.1511(6) 0.2028(2) 1.0524(5)
H5 H -0.16580 0.15990 1.08070
C8 C -0.0484(6) 0.2186(2) 0.9523(5)
C9 C -0.0902(6) 0.4050(3) 0.9369(6)
O2 O -0.1605(4) 0.44479(16) 1.0129(4)
N2 N -0.0028(5) 0.42149(18) 0.8285(5)
O3 O 0.0084(4) 0.48792(14) 0.7968(4)
H6 H 0.05360 0.50610 0.86150
C10 C 0.2348(6) 0.1930(2) 0.6797(6)
C11 C 0.3355(6) 0.2333(2) 0.6147(6)
H7 H 0.34400 0.27610 0.64630
C12 C 0.4226(5) 0.2115(2) 0.5052(6)
H8 H 0.48650 0.24000 0.46120
C13 C 0.4163(6) 0.1466(2) 0.4591(6)
C14 C 0.3222(6) 0.1056(2) 0.5276(6)
H9 H 0.31870 0.06200 0.50100
C15 C 0.2327(6) 0.1283(2) 0.6356(5)
H10 H 0.16940 0.09970 0.68000
O4 O 0.5025(4) 0.13190(15) 0.3437(4)
C16 C 0.4840(7) 0.0694(2) 0.2789(6)
H11 H 0.38340 0.06130 0.26110
H12 H 0.51960 0.03590 0.34360
C17 C 0.5645(7) 0.0680(2) 0.1389(7)
C18 C 0.5109(7) 0.0976(2) 0.0167(7)
H13 H 0.42470 0.11990 0.02280
C19 C 0.5806(8) 0.0953(3) -0.1135(7)
H14 H 0.54270 0.11640 -0.19430
C20 C 0.7073(7) 0.0617(3) -0.1249(7)
H15 H 0.75530 0.06010 -0.21340
C21 C 0.7622(7) 0.0308(3) -0.0056(8)
H16 H 0.84660 0.00720 -0.01340
C22 C 0.6923(7) 0.0346(2) 0.1263(7)
H17 H 0.73160 0.01460 0.20770
#END
