
#######################################################################
#
#                 Cambridge Crystallographic Data Centre
#                                CCDC
#
#######################################################################
#
# If this CIF has been generated from an entry in the Cambridge
# Structural Database, then it will include bibliographic, chemical,
# crystal, experimental, refinement or atomic coordinate data resulting
# from the CCDC's data processing and validation procedures.
#
#######################################################################

data_CSD_CIF_ANOXUX
_audit_creation_date 2011-06-30
_audit_creation_method CSD-ConQuest-V1
_database_code_CSD ANOXUX
_database_code_depnum_ccdc_archive 'CCDC 789360'
_chemical_formula_sum 'C14 H18 N2 O4'
_chemical_formula_moiety
;
C14 H18 N2 O4
;
_journal_coden_Cambridge 10
_journal_volume 94
_journal_year 2011
_journal_page_first 611
_journal_name_full 'Helv.Chim.Acta '
loop_
_publ_author_name
"A.Ramazani"
"A.Mahyari"
"H.Lashgari"
"K.Slepokura"
"T.Lis"
_chemical_name_systematic
;
N-Cyclohexyl-2-hydroxy-2-(2-nitrophenyl)acetamide
;
_chemical_melting_point 405
_cell_volume   1419.790
_exptl_crystal_colour 'colorless'
_exptl_crystal_density_diffrn 1.302
_exptl_special_details
;
Melting point range 405-407K

;
_exptl_crystal_description 'block'
_diffrn_ambient_temperature 86
#These two values have been output from a single CSD field.
_refine_ls_R_factor_gt 0.0315
_refine_ls_wR_factor_gt 0.0315
_symmetry_cell_setting orthorhombic
_symmetry_space_group_name_H-M 'P 21 21 21'
_symmetry_Int_Tables_number 19
loop_
_symmetry_equiv_pos_site_id
_symmetry_equiv_pos_as_xyz
1 x,y,z
2 1/2-x,-y,1/2+z
3 -x,1/2+y,1/2-z
4 1/2+x,1/2-y,-z
_cell_length_a 10.132(3)
_cell_length_b 11.388(4)
_cell_length_c 12.305(4)
_cell_angle_alpha 90
_cell_angle_beta 90
_cell_angle_gamma 90
_cell_formula_units_Z 4
loop_
_atom_type_symbol
_atom_type_radius_bond
C 0.68
H 0.23
N 0.68
O 0.68
loop_
_atom_site_label
_atom_site_type_symbol
_atom_site_fract_x
_atom_site_fract_y
_atom_site_fract_z
O1 O 0.00948(8) 0.12144(8) 0.27043(6)
O2 O 0.21560(7) 0.17376(7) 0.27468(5)
O3 O 0.09785(6) 0.23941(6) 0.48697(5)
O4 O 0.40549(6) 0.12399(5) 0.57796(5)
H1 H 0.4752(15) 0.1643(15) 0.5571(12)
N1 N 0.23278(7) 0.29111(6) 0.62625(6)
H2 H 0.3090(18) 0.2793(16) 0.6523(14)
N2 N 0.12324(8) 0.11158(7) 0.30451(6)
C1 C 0.14309(7) 0.37693(6) 0.67566(6)
H3 H 0.0551(13) 0.3504(12) 0.6580(11)
C2 C 0.16023(9) 0.50011(7) 0.62765(7)
H4 H 0.1427(18) 0.4955(16) 0.5447(16)
H5 H 0.2501(16) 0.5235(15) 0.6396(14)
C3 C 0.06482(10) 0.58550(8) 0.68316(9)
H6 H 0.0763(18) 0.6636(18) 0.6478(17)
H7 H -0.0271(18) 0.5601(16) 0.6618(15)
C4 C 0.08602(10) 0.58732(8) 0.80584(8)
H8 H 0.0215(19) 0.6456(18) 0.8370(16)
H9 H 0.1823(16) 0.6120(13) 0.8168(14)
C5 C 0.0695(1) 0.46444(9) 0.85342(8)
H10 H -0.0246(18) 0.4370(15) 0.8384(14)
H11 H 0.093(2) 0.473(2) 0.937(2)
C6 C 0.16269(8) 0.37724(8) 0.79859(6)
H12 H 0.2553(13) 0.4035(12) 0.8127(12)
H13 H 0.1518(16) 0.2940(14) 0.8281(14)
C7 C 0.24379(7) 0.02766(6) 0.46455(6)
C8 C 0.15158(8) 0.01500(7) 0.38064(6)
C9 C 0.08619(9) -0.09047(8) 0.35993(8)
H14 H 0.0170(16) -0.0922(13) 0.2979(14)
C10 C 0.11575(10) -0.18826(8) 0.42267(9)
H15 H 0.0758(16) -0.2676(14) 0.4043(13)
C11 C 0.21086(10) -0.17979(7) 0.50387(8)
H16 H 0.2379(17) -0.2501(15) 0.5488(14)
C12 C 0.27213(8) -0.07316(7) 0.52493(6)
H17 H 0.3385(13) -0.0669(12) 0.5828(11)
C13 C 0.30858(7) 0.14305(6) 0.49744(6)
H18 H 0.3467(13) 0.1769(12) 0.4364(11)
C14 C 0.20280(7) 0.22981(6) 0.53778(6)
#END
