
#######################################################################
#
#                 Cambridge Crystallographic Data Centre
#                                CCDC
#
#######################################################################
#
# If this CIF has been generated from an entry in the Cambridge
# Structural Database, then it will include bibliographic, chemical,
# crystal, experimental, refinement or atomic coordinate data resulting
# from the CCDC's data processing and validation procedures.
#
#######################################################################

data_CSD_CIF_ANUCUJ
_audit_creation_date 2016-06-17
_audit_creation_method CSD-ConQuest-V1
_database_code_CSD ANUCUJ
_database_code_depnum_ccdc_archive 'CCDC 1486136'
_chemical_formula_sum 'C19 H19 N3 O2'
_chemical_formula_moiety
;
C19 H19 N3 O2
;
_journal_coden_Cambridge 1078
_journal_year 2016
_journal_name_full 'CSD Communication(Private Communication) '
loop_
_publ_author_name
"Gaobin Zhang"
_chemical_name_systematic
;
3-(4-(diethylamino)phenyl)-2-(4-nitrophenyl)acrylonitrile
;
_cell_volume   1657.348
_exptl_crystal_colour 'red'
_exptl_crystal_density_diffrn 1.288
_exptl_crystal_description 'rodlike'
_diffrn_ambient_temperature 296
#These two values have been output from a single CSD field.
_refine_ls_R_factor_gt 0.0537
_refine_ls_wR_factor_gt 0.0537
_symmetry_cell_setting monoclinic
_symmetry_space_group_name_H-M 'P 21/c'
_symmetry_Int_Tables_number 14
loop_
_symmetry_equiv_pos_site_id
_symmetry_equiv_pos_as_xyz
1 x,y,z
2 -x,1/2+y,1/2-z
3 -x,-y,-z
4 x,-1/2-y,-1/2+z
_cell_length_a 17.832(2)
_cell_length_b 7.7320(13)
_cell_length_c 12.5884(13)
_cell_angle_alpha 90
_cell_angle_beta 107.276(1)
_cell_angle_gamma 90
_cell_formula_units_Z 4
loop_
_atom_type_symbol
_atom_type_radius_bond
C 0.68
H 0.23
N 0.68
O 0.68
loop_
_atom_site_label
_atom_site_type_symbol
_atom_site_fract_x
_atom_site_fract_y
_atom_site_fract_z
C1 C 0.40052(11) 0.3369(3) -0.02541(16)
C2 C 0.61523(12) 0.1607(3) 0.07620(16)
C3 C 0.48018(11) 0.2979(3) 0.04924(16)
C4 C 0.25299(13) 0.4200(3) -0.16455(18)
C5 C 0.53511(12) 0.2071(3) 0.01784(16)
H1 H 0.51800 0.16720 -0.05510
C6 C 0.37840(13) 0.2962(3) -0.13883(17)
H2 H 0.41390 0.23920 -0.16780
C7 C 0.66115(12) 0.0919(3) 0.01338(17)
H3 H 0.63790 0.07430 -0.06240
C8 C 0.30581(13) 0.3382(3) -0.20795(18)
H4 H 0.29230 0.31190 -0.28340
C9 C 0.49677(12) 0.3710(3) 0.15848(17)
C10 C 0.65248(12) 0.1788(3) 0.19020(17)
H5 H 0.62390 0.22160 0.23540
C11 C 0.77631(12) 0.0696(3) 0.17335(18)
C12 C 0.72972(13) 0.1354(3) 0.23743(17)
H6 H 0.75210 0.14960 0.31370
C13 C 0.34519(12) 0.4202(3) 0.01500(18)
H7 H 0.35830 0.44900 0.09000
C14 C 0.73890(13) 0.0493(3) 0.05870(18)
H8 H 0.76720 0.00650 0.01310
C15 C 0.27161(14) 0.4609(3) -0.05385(19)
H9 H 0.23510 0.51540 -0.02560
C16 C 0.89651(16) 0.0754(4) 0.3364(2)
H10 H 0.95070 0.10080 0.34130
H11 H 0.87340 0.17940 0.35620
C17 C 0.90129(16) -0.0473(5) 0.1540(2)
H12 H 0.94360 -0.11570 0.20190
H13 H 0.86890 -0.12310 0.09740
C18 C 0.8945(2) -0.0631(5) 0.4162(3)
H14 H 0.84100 -0.09470 0.40780
H15 H 0.91860 -0.02260 0.49060
H16 H 0.92260 -0.16210 0.40210
C19 C 0.9343(2) 0.0895(6) 0.1009(3)
H17 H 0.89240 0.15590 0.05260
H18 H 0.96530 0.03860 0.05840
H19 H 0.96690 0.16380 0.15700
N1 N 0.17561(12) 0.4683(3) -0.23900(19)
N2 N 0.50771(12) 0.4350(3) 0.24364(16)
N3 N 0.85351(12) 0.0269(3) 0.22041(16)
O1 O 0.16528(12) 0.4629(3) -0.33896(16)
O2 O 0.12559(11) 0.5143(3) -0.19745(18)
#END
