
#######################################################################
#
#                 Cambridge Crystallographic Data Centre
#                                CCDC
#
#######################################################################
#
# If this CIF has been generated from an entry in the Cambridge
# Structural Database, then it will include bibliographic, chemical,
# crystal, experimental, refinement or atomic coordinate data resulting
# from the CCDC's data processing and validation procedures.
#
#######################################################################

data_CSD_CIF_ANUDAQ
_audit_creation_date 2016-06-17
_audit_creation_method CSD-ConQuest-V1
_database_code_CSD ANUDAQ
_database_code_depnum_ccdc_archive 'CCDC 1486137'
_chemical_formula_sum 'C21 H23 N3 O3'
_chemical_formula_moiety
;
C21 H23 N3 O3
;
_journal_coden_Cambridge 1078
_journal_year 2016
_journal_name_full 'CSD Communication(Private Communication) '
loop_
_publ_author_name
"Gaobin Zhang"
_chemical_name_systematic
;
3-(4-(diethylamino)-2-ethoxyphenyl)-2-(4-nitrophenyl)acrylonitrile
;
_cell_volume   1854.853
_exptl_crystal_colour 'red'
_exptl_crystal_density_diffrn 1.309
_exptl_crystal_description 'rodlike'
_diffrn_ambient_temperature 296
#These two values have been output from a single CSD field.
_refine_ls_R_factor_gt 0.0405
_refine_ls_wR_factor_gt 0.0405
_symmetry_cell_setting monoclinic
_symmetry_space_group_name_H-M 'P 21/c'
_symmetry_Int_Tables_number 14
loop_
_symmetry_equiv_pos_site_id
_symmetry_equiv_pos_as_xyz
1 x,y,z
2 -x,1/2+y,1/2-z
3 -x,-y,-z
4 x,-1/2-y,-1/2+z
_cell_length_a 4.7414(5)
_cell_length_b 17.2225(19)
_cell_length_c 22.721(3)
_cell_angle_alpha 90
_cell_angle_beta 91.351(2)
_cell_angle_gamma 90
_cell_formula_units_Z 4
loop_
_atom_type_symbol
_atom_type_radius_bond
C 0.68
H 0.23
N 0.68
O 0.68
loop_
_atom_site_label
_atom_site_type_symbol
_atom_site_fract_x
_atom_site_fract_y
_atom_site_fract_z
C1 C 0.7756(3) 0.34338(9) 0.12230(7)
C2 C 0.5707(3) 0.33794(10) 0.17009(7)
C3 C 0.2163(3) 0.40773(9) 0.23507(7)
C4 C 0.8605(4) 0.41526(10) 0.09936(7)
H1 H 0.78530 0.46070 0.11450
C5 C 1.1592(4) 0.35224(10) 0.03172(7)
C6 C 0.4201(3) 0.39955(10) 0.18972(7)
H2 H 0.45630 0.44550 0.16980
C7 C 0.8948(4) 0.27675(10) 0.09820(8)
H3 H 0.84580 0.22840 0.11310
C8 C 1.0529(4) 0.4200(1) 0.05482(7)
H4 H 1.10990 0.46800 0.04060
C9 C -0.1861(4) 0.43494(10) 0.32438(7)
C10 C 0.0750(3) 0.47985(9) 0.24035(7)
C11 C -0.1198(3) 0.49338(10) 0.28349(7)
H5 H -0.20810 0.54150 0.28560
C12 C 1.0836(4) 0.28063(10) 0.05285(8)
H6 H 1.15820 0.23550 0.03690
C13 C 0.5336(4) 0.26127(11) 0.19383(8)
C14 C -0.5022(4) 0.52477(11) 0.37564(8)
H7 H -0.67350 0.51900 0.39770
H8 H -0.55480 0.54540 0.33720
C15 C -0.0238(4) 0.60469(10) 0.19605(8)
H9 H -0.00020 0.63550 0.23160
H10 H -0.22210 0.59200 0.19070
C16 C 0.1419(4) 0.35036(10) 0.27574(7)
H11 H 0.22730 0.30190 0.27340
C17 C -0.0510(4) 0.36264(10) 0.31879(7)
H12 H -0.09320 0.32270 0.34460
C18 C -0.4471(4) 0.38800(11) 0.41012(8)
H13 H -0.45580 0.33860 0.38960
H14 H -0.63380 0.39860 0.42470
C19 C 0.0801(4) 0.64873(11) 0.14366(8)
H15 H 0.26750 0.66750 0.15190
H16 H -0.04300 0.69190 0.13550
H17 H 0.08200 0.61500 0.11010
C20 C -0.2448(4) 0.38038(13) 0.46198(8)
H18 H -0.06200 0.36590 0.44840
H19 H -0.31190 0.34120 0.48830
H20 H -0.23170 0.42910 0.48230
C21 C -0.3117(4) 0.58292(11) 0.40714(8)
H21 H -0.26120 0.56360 0.44560
H22 H -0.40920 0.63150 0.41080
H23 H -0.14400 0.59050 0.38500
N1 N -0.3760(3) 0.44836(8) 0.36794(6)
N2 N 1.3596(3) 0.35671(10) -0.01638(6)
N3 N 0.5081(4) 0.19899(9) 0.21086(7)
O1 O 0.1435(2) 0.53485(6) 0.20015(5)
O2 O 1.4578(3) 0.29584(8) -0.03512(6)
O3 O 1.4176(3) 0.42097(8) -0.03628(6)
#END
