
#######################################################################
#
#                 Cambridge Crystallographic Data Centre
#                                CCDC
#
#######################################################################
#
# If this CIF has been generated from an entry in the Cambridge
# Structural Database, then it will include bibliographic, chemical,
# crystal, experimental, refinement or atomic coordinate data resulting
# from the CCDC's data processing and validation procedures.
#
#######################################################################

data_CSD_CIF_APACIF
_audit_creation_date 2016-06-17
_audit_creation_method CSD-ConQuest-V1
_database_code_CSD APACIF
_database_code_depnum_ccdc_archive 'CCDC 1437250'
_chemical_formula_sum 'C19 H20 N2 O4'
_chemical_formula_moiety
;
C19 H20 N2 O4
;
_journal_coden_Cambridge 182
_journal_volume 52
_journal_year 2016
_journal_page_first 8541
_journal_name_full 'Chem.Commun. '
loop_
_publ_author_name
"J.F.Briones"
"G.S.Basarab"
_chemical_name_systematic
;
ethyl 1-methyl-3-nitro-2-phenyl-1,2,3,4-tetrahydroquinoline-3-carboxylate
;
_cell_volume   1719.855
_exptl_crystal_colour 'yellow'
_exptl_crystal_density_diffrn 1.315
_exptl_crystal_description 'Prismatic'
_diffrn_ambient_temperature 296
#These two values have been output from a single CSD field.
_refine_ls_R_factor_gt 0.0515
_refine_ls_wR_factor_gt 0.0515
_symmetry_cell_setting monoclinic
_symmetry_space_group_name_H-M 'P 21/n'
_symmetry_Int_Tables_number 14
loop_
_symmetry_equiv_pos_site_id
_symmetry_equiv_pos_as_xyz
1 x,y,z
2 1/2-x,1/2+y,1/2-z
3 -x,-y,-z
4 -1/2+x,-1/2-y,-1/2+z
_cell_length_a 7.7910(4)
_cell_length_b 13.1164(6)
_cell_length_c 16.9526(8)
_cell_angle_alpha 90
_cell_angle_beta 96.895(1)
_cell_angle_gamma 90
_cell_formula_units_Z 4
loop_
_atom_type_symbol
_atom_type_radius_bond
C 0.68
H 0.23
N 0.68
O 0.68
loop_
_atom_site_label
_atom_site_type_symbol
_atom_site_fract_x
_atom_site_fract_y
_atom_site_fract_z
O1 O 0.44072(19) 0.69842(13) 0.23788(8)
O2 O 0.64491(19) 0.69177(17) 0.16474(10)
O3 O 0.33723(17) 0.66457(9) -0.02425(7)
O4 O 0.3292(2) 0.56238(9) 0.08126(9)
N1 N 0.21924(17) 0.87782(10) 0.16585(8)
N2 N 0.49657(19) 0.70873(11) 0.17494(8)
C1 C 0.4638(2) 0.82751(11) 0.06087(9)
H1 H 0.57530 0.80410 0.04810
H2 H 0.39420 0.84640 0.01170
C2 C 0.48807(18) 0.91848(11) 0.11468(8)
C3 C 0.6307(2) 0.98169(13) 0.1146(1)
H3 H 0.71280 0.96700 0.08070
C4 C 0.6539(2) 1.06593(14) 0.16362(12)
H4 H 0.74900 1.10840 0.16220
C5 C 0.5335(2) 1.08564(13) 0.21451(11)
H5 H 0.54820 1.14200 0.24800
C6 C 0.3912(2) 1.02379(12) 0.21708(10)
H6 H 0.31220 1.03840 0.25250
C7 C 0.36469(18) 0.93888(11) 0.16656(8)
C8 C 0.0937(2) 0.89671(16) 0.22055(12)
H7 H 0.11250 0.96330 0.24350
H8 H 0.10620 0.84630 0.26190
H9 H -0.02070 0.89310 0.19250
C9 C 0.20185(18) 0.77832(11) 0.12706(8)
H10 H 0.16920 0.72920 0.16620
C10 C 0.06010(18) 0.77730(11) 0.05701(8)
C11 C -0.0437(2) 0.69173(13) 0.04254(11)
H11 H -0.03010 0.63680 0.07740
C12 C -0.1676(2) 0.68740(16) -0.02339(12)
H12 H -0.23550 0.62940 -0.03290
C13 C -0.1902(2) 0.76880(17) -0.07475(11)
H13 H -0.27280 0.76570 -0.11910
C14 C -0.0903(3) 0.85470(15) -0.06022(11)
H14 H -0.10620 0.91000 -0.09470
C15 C 0.0338(2) 0.85944(12) 0.00538(10)
H15 H 0.10000 0.91810 0.01490
C16 C 0.37519(19) 0.74247(11) 0.10109(8)
C17 C 0.3463(2) 0.64470(12) 0.05197(10)
C18 C 0.2853(3) 0.58193(16) -0.07991(13)
H16 H 0.18870 0.54450 -0.06300
H17 H 0.38060 0.53500 -0.08280
C19 C 0.2348(4) 0.6301(2) -0.15787(14)
H18 H 0.19940 0.57840 -0.19650
H19 H 0.33150 0.66680 -0.17380
H20 H 0.14070 0.67630 -0.15400
#END
