
#######################################################################
#
#                 Cambridge Crystallographic Data Centre
#                                CCDC
#
#######################################################################
#
# If this CIF has been generated from an entry in the Cambridge
# Structural Database, then it will include bibliographic, chemical,
# crystal, experimental, refinement or atomic coordinate data resulting
# from the CCDC's data processing and validation procedures.
#
#######################################################################

data_CSD_CIF_APERIX
_audit_creation_date 2011-07-11
_audit_creation_method CSD-ConQuest-V1
_database_code_CSD APERIX
_database_code_depnum_ccdc_archive 'CCDC 769055'
_chemical_formula_sum 'C24 H21 N3 O3'
_chemical_formula_moiety
;
C24 H21 N3 O3
;
_journal_coden_Cambridge 1291
_journal_year 2010
_journal_page_first 4976
_journal_name_full 'Eur.J.Org.Chem. '
loop_
_publ_author_name
"Hong-Gang Cheng"
"Cai-Bao Chen"
"Fen Tan"
"Ning-Jie Chang"
"Jia-Rong Chen"
"Wen-Jing Xiao"
_chemical_name_systematic
;
4-(1H-Indol-2-yl)-6-methoxy-2-(4-nitrophenyl)-1,2,3,4-tetrahydroquinoline
;
_cell_volume   1002.567
_exptl_crystal_density_diffrn 1.323
_diffrn_ambient_temperature 298
#These two values have been output from a single CSD field.
_refine_ls_R_factor_gt 0.0779
_refine_ls_wR_factor_gt 0.0779
_symmetry_cell_setting monoclinic
_symmetry_space_group_name_H-M 'P 21'
_symmetry_Int_Tables_number 4
loop_
_symmetry_equiv_pos_site_id
_symmetry_equiv_pos_as_xyz
1 x,y,z
2 -x,1/2+y,-z
_cell_length_a 10.5425(15)
_cell_length_b 6.9493(10)
_cell_length_c 14.339(2)
_cell_angle_alpha 90
_cell_angle_beta 107.378(2)
_cell_angle_gamma 90
_cell_formula_units_Z 2
loop_
_atom_type_symbol
_atom_type_radius_bond
C 0.68
H 0.23
N 0.68
O 0.68
loop_
_atom_site_label
_atom_site_type_symbol
_atom_site_fract_x
_atom_site_fract_y
_atom_site_fract_z
C1 C 1.0772(4) 0.8918(7) 0.6138(4)
H1 H 1.08930 0.95170 0.67610
H2 H 1.06790 0.98920 0.56470
H3 H 1.15280 0.81280 0.61640
C2 C 0.9556(4) 0.6263(6) 0.6507(3)
C3 C 1.0530(4) 0.5837(6) 0.7363(3)
H4 H 1.13090 0.65560 0.75570
C4 C 1.0332(4) 0.4324(6) 0.7928(3)
H5 H 1.09860 0.40450 0.85100
C5 C 0.9193(3) 0.3213(6) 0.7658(3)
C6 C 0.8224(3) 0.3605(5) 0.6775(2)
C7 C 0.8422(3) 0.5142(6) 0.6220(2)
H6 H 0.77740 0.54290 0.56370
C8 C 0.6940(3) 0.2427(6) 0.6436(2)
H7 H 0.62150 0.32830 0.64670
C9 C 0.6941(4) 0.0743(6) 0.7115(3)
H8 H 0.73620 -0.03550 0.69130
H9 H 0.60300 0.03920 0.70560
C10 C 0.7665(3) 0.1195(6) 0.8182(2)
H10 H 0.72380 0.22970 0.83920
C11 C 0.7630(4) -0.0527(6) 0.8828(2)
C12 C 0.8495(4) -0.2048(6) 0.8884(3)
H11 H 0.91310 -0.19770 0.85540
C13 C 0.8429(4) -0.3664(6) 0.9420(3)
H12 H 0.90200 -0.46750 0.94600
C14 C 0.7481(4) -0.3764(6) 0.9892(2)
C15 C 0.6605(4) -0.2266(7) 0.9845(3)
H13 H 0.59650 -0.23460 1.01710
C16 C 0.6689(4) -0.0668(6) 0.9316(3)
H14 H 0.61010 0.03450 0.92830
C17 C 0.6621(3) 0.1753(5) 0.5392(2)
C18 C 0.5682(4) 0.2345(6) 0.4582(3)
H15 H 0.50790 0.33370 0.45520
C19 C 0.5767(3) 0.1203(6) 0.3777(2)
C20 C 0.5099(4) 0.1071(7) 0.2780(3)
H16 H 0.44160 0.19290 0.24960
C21 C 0.5434(4) -0.0290(8) 0.2220(3)
H17 H 0.49870 -0.03400 0.15550
C22 C 0.6436(5) -0.1614(8) 0.2624(3)
H18 H 0.66310 -0.25700 0.22350
C23 C 0.7139(4) -0.1512(7) 0.3600(3)
H19 H 0.78310 -0.23630 0.38720
C24 C 0.6796(3) -0.0126(5) 0.4165(2)
N1 N 0.9021(3) 0.1686(5) 0.8249(2)
H20 H 0.946(4) 0.181(7) 0.882(3)
N2 N 0.7408(4) -0.5492(6) 1.0452(2)
N3 N 0.7307(3) 0.0276(5) 0.5143(2)
H21 H 0.791(4) -0.030(6) 0.550(3)
O1 O 0.9621(3) 0.7772(4) 0.59040(19)
O2 O 0.8175(4) -0.6815(5) 1.0466(2)
O3 O 0.6563(4) -0.5549(7) 1.0870(3)
#END
