
#######################################################################
#
#                 Cambridge Crystallographic Data Centre
#                                CCDC
#
#######################################################################
#
# If this CIF has been generated from an entry in the Cambridge
# Structural Database, then it will include bibliographic, chemical,
# crystal, experimental, refinement or atomic coordinate data resulting
# from the CCDC's data processing and validation procedures.
#
#######################################################################

data_CSD_CIF_APEZOL
_audit_creation_date 2011-05-03
_audit_creation_method CSD-ConQuest-V1
_database_code_CSD APEZOL
_database_code_depnum_ccdc_archive 'CCDC 794177'
_chemical_formula_sum 'C6 H6 N6 O6'
_chemical_formula_moiety
;
C6 H6 N6 O6
;
_journal_coden_Cambridge 95
_journal_year 2009
_journal_page_first 2141
_journal_name_full 'Izv.Akad.Nauk SSSR,Ser.Khim.(Russ.)(Russ.Chem.Bull.) '
loop_
_publ_author_name
"A.V.Shastin"
"V.L.Korolev"
"T.S.Pivina"
"T.I.Godovikov"
"B.L.Korsunsky"
"P.A.Belyakov"
"N.I.Golovina"
"G.V.Shilov"
_chemical_name_systematic
;
2,4,6-tris(Nitromethyl)-1,3,5-triazine
;
_cell_volume   1035.948
_exptl_crystal_density_diffrn 1.655
_exptl_crystal_preparation 'methanol'
_diffrn_ambient_temperature 295
_refine_special_details
;
oxygen atoms (O5,O6) in one NO2 group disordered by symmetry over two sites 
with occupancy 0.50.
;
#These two values have been output from a single CSD field.
_refine_ls_R_factor_gt 0.0445
_refine_ls_wR_factor_gt 0.0445
_symmetry_cell_setting orthorhombic
_symmetry_space_group_name_H-M 'P n m a'
_symmetry_Int_Tables_number 62
loop_
_symmetry_equiv_pos_site_id
_symmetry_equiv_pos_as_xyz
1 x,y,z
2 1/2-x,-y,1/2+z
3 1/2+x,1/2-y,1/2-z
4 -x,1/2+y,-z
5 -x,-y,-z
6 -1/2+x,y,-1/2-z
7 -1/2-x,-1/2+y,-1/2+z
8 x,-1/2-y,z
_cell_length_a 15.387(3)
_cell_length_b 12.756(3)
_cell_length_c 5.278(1)
_cell_angle_alpha 90
_cell_angle_beta 90
_cell_angle_gamma 90
_cell_formula_units_Z 4
loop_
_atom_type_symbol
_atom_type_radius_bond
C 0.68
H 0.23
N 0.68
O 0.68
loop_
_atom_site_label
_atom_site_type_symbol
_atom_site_fract_x
_atom_site_fract_y
_atom_site_fract_z
O1 O -0.1219(2) 0.2739(8) 0.8593(7)
O2 O -0.2531(2) 0.2280(18) 0.7667(9)
O3 O 0.18103(15) -0.0166(3) -0.0473(5)
O4 O 0.07409(15) 0.08252(17) -0.1414(4)
N1 N -0.0249(1) 0.15707(14) 0.3709(3)
N2 N 0.10570(14) 0.25000 0.2915(5)
N3 N -0.1794(2) 0.25000 0.7105(7)
N4 N 0.12303(12) 0.04288(17) 0.0101(5)
C1 C -0.06352(18) 0.25000 0.3919(6)
C2 C 0.06028(12) 0.16242(16) 0.3197(4)
C3 C -0.15976(19) 0.25000 0.4398(7)
H1 H -0.18550 0.18850 0.36190
C4 C 0.10855(14) 0.06116(19) 0.2854(5)
H2 H 0.07510 0.00380 0.35670
H3 H 0.16390 0.06450 0.37290
O1G O -0.1219(2) 0.2261(8) 0.8593(7)
O2G O -0.2531(2) 0.2720(18) 0.7667(9)
O3G O 0.18103(15) 0.5166(3) -0.0473(5)
O4G O 0.07409(15) 0.41748(17) -0.1414(4)
N1G N -0.0249(1) 0.34293(14) 0.3709(3)
N4G N 0.12303(12) 0.45712(17) 0.0101(5)
C2G C 0.06028(12) 0.33758(16) 0.3197(4)
H1G H -0.18550 0.31150 0.36190
C4G C 0.10855(14) 0.43884(19) 0.2854(5)
H2G H 0.07510 0.49620 0.35670
H3G H 0.16390 0.43550 0.37290
#END
