
#######################################################################
#
#                 Cambridge Crystallographic Data Centre
#                                CCDC
#
#######################################################################
#
# If this CIF has been generated from an entry in the Cambridge
# Structural Database, then it will include bibliographic, chemical,
# crystal, experimental, refinement or atomic coordinate data resulting
# from the CCDC's data processing and validation procedures.
#
#######################################################################

data_CSD_CIF_APOREE
_audit_creation_date 2016-06-21
_audit_creation_method CSD-ConQuest-V1
_database_code_CSD APOREE
_database_code_depnum_ccdc_archive 'CCDC 1473985'
_chemical_formula_sum 'C21 H22 N2 O5'
_chemical_formula_moiety
;
C21 H22 N2 O5
;
_journal_coden_Cambridge 182
_journal_volume 52
_journal_year 2016
_journal_page_first 8600
_journal_name_full 'Chem.Commun. '
loop_
_publ_author_name
"Yanan Li"
"Huihui Gao"
"Zhenlei Zhang"
"Peng Qian"
"Meixiang Bi"
"Zhenggen Zha"
"Zhiyong Wang"
_chemical_name_systematic
;
(E)-ethyl 4-(naphthalen-2-yl)-2-nitro-4-oxo-3-(piperidin-1-yl)but-2-enoate
;
_chemical_melting_point 417
_cell_volume   1955.344
_exptl_crystal_colour 'yellow'
_exptl_crystal_density_diffrn 1.299
_exptl_special_details
;
Melting point range 417-418K
Heat-sensitive

;
_exptl_crystal_description 'plate'
_diffrn_ambient_temperature 290
#These two values have been output from a single CSD field.
_refine_ls_R_factor_gt 0.0575
_refine_ls_wR_factor_gt 0.0575
_symmetry_cell_setting monoclinic
_symmetry_space_group_name_H-M 'P 21/n'
_symmetry_Int_Tables_number 14
loop_
_symmetry_equiv_pos_site_id
_symmetry_equiv_pos_as_xyz
1 x,y,z
2 1/2-x,1/2+y,1/2-z
3 -x,-y,-z
4 -1/2+x,-1/2-y,-1/2+z
_cell_length_a 14.2787(9)
_cell_length_b 9.4954(4)
_cell_length_c 14.5637(8)
_cell_angle_alpha 90
_cell_angle_beta 98.003(5)
_cell_angle_gamma 90
_cell_formula_units_Z 4
loop_
_atom_type_symbol
_atom_type_radius_bond
C 0.68
H 0.23
N 0.68
O 0.68
loop_
_atom_site_label
_atom_site_type_symbol
_atom_site_fract_x
_atom_site_fract_y
_atom_site_fract_z
O1 O 0.65629(15) -0.1690(2) 0.31294(15)
O2 O 0.73157(14) 0.0327(2) 0.04791(14)
N1 N 0.62107(14) 0.1271(2) 0.20065(14)
O3 O 0.51312(18) -0.2533(2) 0.1538(2)
O4 O 0.5994(2) -0.3093(2) 0.05041(18)
C1 C 0.50468(19) -0.0705(3) 0.31642(17)
C2 C 0.34724(19) 0.0291(3) 0.31048(18)
C3 C 0.60822(16) -0.0114(3) 0.18926(17)
N2 N 0.57187(18) -0.2227(2) 0.10331(17)
C4 C 0.43338(18) 0.0129(3) 0.27368(17)
H1 H 0.44170 0.05990 0.21940
C5 C 0.3345(2) -0.0451(3) 0.3921(2)
C6 C 0.59347(19) -0.0931(3) 0.27736(19)
C7 C 0.61022(17) -0.0848(3) 0.10797(18)
C8 C 0.6108(2) 0.2299(3) 0.1242(2)
H2 H 0.58120 0.18510 0.06760
H3 H 0.67260 0.26350 0.11390
O5 O 0.6183(2) -0.0680(3) -0.05269(16)
C9 C 0.2466(3) -0.0319(4) 0.4265(3)
H4 H 0.23670 -0.08070 0.47970
C10 C 0.6517(2) -0.0418(3) 0.0251(2)
C11 C 0.6571(2) 0.1884(3) 0.2921(2)
H5 H 0.72180 0.21930 0.29200
H6 H 0.65710 0.11660 0.33950
C12 C 0.2735(2) 0.1156(4) 0.2678(2)
H7 H 0.28160 0.16640 0.21480
C13 C 0.4919(2) -0.1423(3) 0.3987(2)
H8 H 0.54010 -0.19850 0.42850
C14 C 0.5978(3) 0.3118(3) 0.3155(2)
H9 H 0.62650 0.35410 0.37320
H10 H 0.53520 0.27890 0.32390
C15 C 0.1776(3) 0.0503(4) 0.3831(3)
H11 H 0.12040 0.05710 0.40650
C16 C 0.5504(3) 0.3534(3) 0.1479(3)
H12 H 0.54740 0.42320 0.09890
H13 H 0.48660 0.32070 0.15100
C17 C 0.4086(3) -0.1292(4) 0.4344(2)
H14 H 0.40110 -0.17770 0.48830
C18 C 0.1905(2) 0.1253(4) 0.3037(3)
H15 H 0.14210 0.18240 0.27500
C19 C 0.7720(3) 0.1075(5) -0.0260(3)
H16 H 0.72880 0.10030 -0.08340
H17 H 0.77900 0.20640 -0.00990
C20 C 0.5893(3) 0.4213(4) 0.2392(3)
H18 H 0.54760 0.49650 0.25320
H19 H 0.65100 0.46170 0.23490
C21 C 0.8606(3) 0.0523(6) -0.0395(4)
H20 H 0.88640 0.10740 -0.08520
H21 H 0.85300 -0.04340 -0.06040
H22 H 0.90270 0.05530 0.01790
#END
