
#######################################################################
#
#                 Cambridge Crystallographic Data Centre
#                                CCDC
#
#######################################################################
#
# If this CIF has been generated from an entry in the Cambridge
# Structural Database, then it will include bibliographic, chemical,
# crystal, experimental, refinement or atomic coordinate data resulting
# from the CCDC's data processing and validation procedures.
#
#######################################################################

data_CSD_CIF_APOYOU
_audit_creation_date 2011-07-10
_audit_creation_method CSD-ConQuest-V1
_database_code_CSD APOYOU
_database_code_depnum_ccdc_archive 'CCDC 765270'
_chemical_formula_sum 'C11 H14 N2 O5'
_chemical_formula_moiety
;
C11 H14 N2 O5
;
_journal_coden_Cambridge 1291
_journal_year 2010
_journal_page_first 5263
_journal_name_full 'Eur.J.Org.Chem. '
loop_
_publ_author_name
"R.F.Martinez"
"M.Avalos"
"R.Babiano"
"P.Cintas"
"J.L.Jimenez"
"M.E.Light"
"J.C.Palacios"
"E.M.S.Perez"
_chemical_name_systematic
;
(2-(3-Nitrophenyl)-1,3-oxazolidine-4,4-diyl)dimethanol
;
_chemical_name_common
;
4,4-bis(Hydroxymethyl)-2-(3-nitrophenyl)oxazolidine
;
_chemical_melting_point 365.15
_cell_volume   2278.065
_exptl_crystal_colour 'colorless'
_exptl_crystal_density_diffrn 1.483
_exptl_special_details
;
Melting point range 365.15-366.15K

;
_diffrn_ambient_temperature 120
#These two values have been output from a single CSD field.
_refine_ls_R_factor_gt 0.0443
_refine_ls_wR_factor_gt 0.0443
_symmetry_cell_setting orthorhombic
_symmetry_space_group_name_H-M 'P b c a'
_symmetry_Int_Tables_number 61
loop_
_symmetry_equiv_pos_site_id
_symmetry_equiv_pos_as_xyz
1 x,y,z
2 1/2-x,-y,1/2+z
3 -x,1/2+y,1/2-z
4 1/2+x,1/2-y,-z
5 -x,-y,-z
6 -1/2+x,y,-1/2-z
7 x,-1/2-y,-1/2+z
8 -1/2-x,-1/2+y,z
_cell_length_a 12.6509(2)
_cell_length_b 8.5153(1)
_cell_length_c 21.1468(3)
_cell_angle_alpha 90
_cell_angle_beta 90
_cell_angle_gamma 90
_cell_formula_units_Z 8
loop_
_atom_type_symbol
_atom_type_radius_bond
C 0.68
H 0.23
N 0.68
O 0.68
loop_
_atom_site_label
_atom_site_type_symbol
_atom_site_fract_x
_atom_site_fract_y
_atom_site_fract_z
N1 N 0.00346(9) -0.19763(14) 0.16775(6)
H1 H 0.0353(14) -0.270(2) 0.1433(9)
N2 N -0.09512(10) -0.43727(15) -0.06095(6)
O1 O 0.18052(9) -0.31851(13) 0.23537(6)
H2 H 0.246(2) -0.348(3) 0.2476(9)
O2 O 0.12869(8) 0.07861(13) 0.27999(5)
H3 H 0.0904(17) 0.159(3) 0.2934(10)
O3 O 0.02096(8) 0.00180(12) 0.09519(5)
O4 O -0.00365(9) -0.40861(14) -0.07516(6)
O5 O -0.14773(10) -0.54015(15) -0.08711(6)
C1 C 0.19300(11) -0.18473(16) 0.19596(7)
H4 H 0.21390 -0.21800 0.15290
H5 H 0.24920 -0.11590 0.21310
C2 C 0.05588(11) -0.03938(17) 0.25888(7)
H6 H -0.01650 0.00460 0.25720
H7 H 0.05590 -0.12880 0.28880
C3 C 0.08886(11) -0.09552(16) 0.19332(7)
C4 C 0.09353(12) 0.04236(17) 0.14501(7)
H8 H 0.07220 0.14210 0.16540
H9 H 0.16600 0.05440 0.12810
C5 C -0.05651(11) -0.09256(16) 0.12650(7)
H10 H -0.10230 -0.02330 0.15310
C6 C -0.12488(11) -0.18111(16) 0.08055(7)
C7 C -0.23266(12) -0.19843(17) 0.09264(7)
H11 H -0.26360 -0.14590 0.12770
C8 C -0.29519(12) -0.29176(17) 0.05388(7)
H12 H -0.36850 -0.30240 0.06250
C9 C -0.25133(12) -0.36939(17) 0.00273(7)
H13 H -0.29340 -0.43440 -0.02380
C10 C -0.14438(12) -0.34957(17) -0.00872(7)
C11 C -0.07998(12) -0.25569(16) 0.02856(7)
H14 H -0.00720 -0.24270 0.01880
#END
