
#######################################################################
#
#                 Cambridge Crystallographic Data Centre
#                                CCDC
#
#######################################################################
#
# If this CIF has been generated from an entry in the Cambridge
# Structural Database, then it will include bibliographic, chemical,
# crystal, experimental, refinement or atomic coordinate data resulting
# from the CCDC's data processing and validation procedures.
#
#######################################################################

data_CSD_CIF_APUVAI
_audit_creation_date 2004-04-27
_audit_creation_method CSD-ConQuest-V1
_database_code_CSD APUVAI
_database_code_depnum_ccdc_archive 'CCDC 220605'
_chemical_formula_sum 'C15 H24 N2 O8'
_chemical_formula_moiety
;
C15 H24 N2 O8
;
_journal_coden_Cambridge 4
_journal_volume 125
_journal_year 2003
_journal_page_first 15284
_journal_name_full 'J.Am.Chem.Soc. '
loop_
_publ_author_name
"M.Bruggemann"
"A.I.McDonald"
"L.E.Overman"
"M.D.Rosen"
"L.Schwink"
"J.P.Scott"
_chemical_name_systematic
;
7-t-Butyl 3-methyl 
1-(hydroxymethyl)-6-methoxy-2-nitro-7-azabicyclo(2.2.1)cycloheptane-2,3-dioate

;
_cell_volume   1707.068
_exptl_crystal_colour 'colorless'
_exptl_crystal_density_diffrn 1.402
_exptl_crystal_description 'Cube'
_diffrn_ambient_temperature 158
#These two values have been output from a single CSD field.
_refine_ls_R_factor_gt 0.0356
_refine_ls_wR_factor_gt 0.0356
_symmetry_cell_setting monoclinic
_symmetry_space_group_name_H-M 'P 21/c'
_symmetry_Int_Tables_number 14
loop_
_symmetry_equiv_pos_site_id
_symmetry_equiv_pos_as_xyz
1 x,y,z
2 x,1/2-y,1/2+z
3 -x,-y,-z
4 -x,-1/2+y,-1/2-z
_cell_length_a 8.9977(4)
_cell_length_b 17.6292(9)
_cell_length_c 11.0600(5)
_cell_angle_alpha 90
_cell_angle_beta 103.334(1)
_cell_angle_gamma 90
_cell_formula_units_Z 4
loop_
_atom_type_symbol
_atom_type_radius_bond
C 0.68
H 0.23
N 0.68
O 0.68
loop_
_atom_site_label
_atom_site_type_symbol
_atom_site_fract_x
_atom_site_fract_y
_atom_site_fract_z
C1 C 0.17908(12) 0.59512(6) 0.19594(10)
C2 C 0.32573(12) 0.64343(6) 0.24915(10)
C3 C 0.33382(13) 0.70031(6) 0.14533(10)
C4 C 0.19099(13) 0.67815(6) 0.0438(1)
C5 C 0.22175(14) 0.60140(6) -0.01261(11)
C6 C 0.20270(13) 0.54384(6) 0.08906(10)
C7 C 0.33186(14) 0.78133(6) 0.19230(11)
C8 C 0.32570(17) 0.91078(7) 0.13884(13)
C9 C 0.11402(13) 0.55584(7) 0.29494(11)
C10 C 0.33474(16) 0.43701(7) 0.04139(12)
C11 C -0.02367(13) 0.69843(6) 0.15546(10)
C12 C -0.17157(13) 0.81481(6) 0.09518(11)
C13 C -0.31651(15) 0.77248(8) 0.03433(15)
C14 C -0.14382(15) 0.88085(7) 0.01500(12)
C15 C -0.1704(2) 0.84106(8) 0.22633(13)
N1 N 0.08395(11) 0.65424(5) 0.12006(9)
N2 N 0.46941(11) 0.59730(5) 0.29371(9)
O1 O -0.09884(10) 0.67750(5) 0.22781(9)
O2 O -0.03828(9) 0.76498(5) 0.09522(8)
O3 O 0.47201(10) 0.55744(5) 0.38523(8)
O4 O 0.57474(10) 0.60263(5) 0.24126(9)
O5 O 0.34197(16) 0.79816(5) 0.29931(9)
O6 O 0.32292(10) 0.83144(5) 0.10121(8)
O7 O -0.03132(10) 0.52280(5) 0.24601(9)
O8 O 0.32776(9) 0.49429(5) 0.13089(7)
H1 H 0.3143(16) 0.6685(8) 0.3215(13)
H2 H 0.4258(18) 0.6937(9) 0.1154(14)
H3 H 0.1517(16) 0.7179(8) -0.0137(14)
H4 H 0.3261(18) 0.5992(8) -0.0267(14)
H5 H 0.1471(17) 0.5914(8) -0.0890(14)
H6 H 0.1107(16) 0.5141(8) 0.0612(13)
H7 H -0.091(2) 0.5592(12) 0.2368(18)
H8 H 0.419(2) 0.9212(11) 0.1993(18)
H9 H 0.238(2) 0.9216(10) 0.1716(16)
H10 H 0.3250(19) 0.9406(10) 0.0647(16)
H11 H 0.1123(16) 0.5916(8) 0.3616(14)
H12 H 0.1849(16) 0.5155(8) 0.3293(13)
H13 H 0.3556(19) 0.4601(10) -0.0324(16)
H14 H 0.2363(18) 0.4095(9) 0.0172(14)
H15 H 0.4152(19) 0.4026(10) 0.0807(15)
H16 H -0.403(2) 0.8058(10) 0.0301(16)
H17 H -0.330(2) 0.7268(10) 0.0807(16)
H18 H -0.313(2) 0.7574(12) -0.052(2)
H19 H -0.2311(18) 0.9164(9) 0.0041(14)
H20 H -0.0530(19) 0.9076(9) 0.0547(15)
H21 H -0.1312(18) 0.8625(9) -0.0638(16)
H22 H -0.250(2) 0.8772(11) 0.2207(17)
H23 H -0.073(2) 0.8667(11) 0.2640(18)
H24 H -0.189(2) 0.8004(12) 0.2770(19)
#END
