
#######################################################################
#
#                 Cambridge Crystallographic Data Centre
#                                CCDC
#
#######################################################################
#
# If this CIF has been generated from an entry in the Cambridge
# Structural Database, then it will include bibliographic, chemical,
# crystal, experimental, refinement or atomic coordinate data resulting
# from the CCDC's data processing and validation procedures.
#
#######################################################################

data_CSD_CIF_AQADOM
_audit_creation_date 2011-07-11
_audit_creation_method CSD-ConQuest-V1
_database_code_CSD AQADOM
_database_code_depnum_ccdc_archive 'CCDC 769655'
_chemical_formula_sum 'C13 H13 N1 O3'
_chemical_formula_moiety
;
C13 H13 N1 O3
;
_journal_coden_Cambridge 16
_journal_volume 67
_journal_year 2011
_journal_page_first 2681
_journal_name_full 'Tetrahedron '
loop_
_publ_author_name
"Ming-Yu Wu"
"Kun Li"
"Ting He"
"Xing-Wen Feng"
"Na Wang"
"Xiao-Yan Wang"
"Xiao-Qi Yu"
_chemical_name_systematic
;
1-(5-(Hydroxyimino)-2-methyl-4-phenyl-4,5-dihydrofuran-3-yl)ethanone
;
_cell_volume   1189.292
_exptl_crystal_colour 'colorless'
_exptl_crystal_density_diffrn 1.291
_exptl_crystal_description 'block'
_diffrn_ambient_temperature 292
#These two values have been output from a single CSD field.
_refine_ls_R_factor_gt 0.0637
_refine_ls_wR_factor_gt 0.0637
_symmetry_cell_setting monoclinic
_symmetry_space_group_name_H-M 'P 21/n'
_symmetry_Int_Tables_number 14
loop_
_symmetry_equiv_pos_site_id
_symmetry_equiv_pos_as_xyz
1 x,y,z
2 1/2-x,1/2+y,1/2-z
3 -x,-y,-z
4 -1/2+x,-1/2-y,-1/2+z
_cell_length_a 10.905(3)
_cell_length_b 9.222(3)
_cell_length_c 11.873(4)
_cell_angle_alpha 90
_cell_angle_beta 95.10(2)
_cell_angle_gamma 90
_cell_formula_units_Z 4
loop_
_atom_type_symbol
_atom_type_radius_bond
C 0.68
H 0.23
N 0.68
O 0.68
loop_
_atom_site_label
_atom_site_type_symbol
_atom_site_fract_x
_atom_site_fract_y
_atom_site_fract_z
O1 O 0.3624(2) 0.5415(2) 0.40424(17)
O2 O 0.3746(2) 0.8137(3) 0.3751(2)
H1 H 0.378(4) 0.903(5) 0.348(3)
O3 O 0.3679(2) 0.0981(2) 0.3234(2)
N1 N 0.4120(2) 0.7295(3) 0.2847(2)
C1 C 0.6608(3) 0.4069(4) 0.2712(3)
H2 H 0.63990 0.35320 0.33300
C2 C 0.7823(3) 0.4133(4) 0.2465(4)
H3 H 0.84250 0.36160 0.29000
C3 C 0.8133(4) 0.4950(4) 0.1586(4)
H4 H 0.89530 0.50050 0.14310
C4 C 0.7259(4) 0.5697(4) 0.0923(3)
H5 H 0.74790 0.62520 0.03180
C5 C 0.6040(3) 0.5615(3) 0.1164(3)
H6 H 0.54410 0.61230 0.07190
C6 C 0.5707(3) 0.4793(3) 0.2052(3)
C7 C 0.4369(3) 0.4750(3) 0.2303(2)
H7 H 0.38440 0.48120 0.15900
C8 C 0.4047(3) 0.5963(3) 0.3064(3)
C9 C 0.3572(3) 0.3927(3) 0.3925(3)
C10 C 0.3978(3) 0.3463(3) 0.2967(3)
C11 C 0.3066(4) 0.3194(4) 0.4883(3)
H8 H 0.25450 0.24090 0.46060
H9 H 0.25940 0.38730 0.52790
H10 H 0.37280 0.28220 0.53870
C12 C 0.3975(3) 0.1951(3) 0.2621(3)
C13 C 0.4343(3) 0.1607(4) 0.1461(3)
H11 H 0.43670 0.05740 0.13640
H12 H 0.51420 0.20070 0.13770
H13 H 0.37540 0.20190 0.09020
#END
