
#######################################################################
#
#                 Cambridge Crystallographic Data Centre
#                                CCDC
#
#######################################################################
#
# If this CIF has been generated from an entry in the Cambridge
# Structural Database, then it will include bibliographic, chemical,
# crystal, experimental, refinement or atomic coordinate data resulting
# from the CCDC's data processing and validation procedures.
#
#######################################################################

data_CSD_CIF_AQIJOZ
_audit_creation_date 2004-04-27
_audit_creation_method CSD-ConQuest-V1
_database_code_CSD AQIJOZ
_database_code_depnum_ccdc_archive 'CCDC 217331'
_chemical_formula_sum 'C13 H16 N5 O1'
_chemical_formula_moiety
;
C13 H16 N5 O1
;
_journal_coden_Cambridge 16
_journal_volume 60
_journal_year 2004
_journal_page_first 99
_journal_name_full 'Tetrahedron '
loop_
_publ_author_name
"E.V.Tretyakov"
"G.V.Romanenko"
"V.I.Ovcharenko"
_chemical_name_systematic
;
2-(benzotriazol-1-yl)-4,4,5,5-tetramethyl-4,5-dihydro-1H-imidazole-1-oxyl
;
_chemical_melting_point 386.15
_cell_volume   1334.784
_exptl_crystal_colour 'red'
_exptl_crystal_density_diffrn 1.285
_exptl_special_details
;
Melting point range 386.15-387.15K

;
_diffrn_ambient_temperature 295
#These two values have been output from a single CSD field.
_refine_ls_R_factor_gt 0.0731
_refine_ls_wR_factor_gt 0.0731
_symmetry_cell_setting monoclinic
_symmetry_space_group_name_H-M 'P 21/n'
_symmetry_Int_Tables_number 14
loop_
_symmetry_equiv_pos_site_id
_symmetry_equiv_pos_as_xyz
1 x,y,z
2 1/2+x,1/2-y,1/2+z
3 -x,-y,-z
4 -1/2-x,-1/2+y,-1/2-z
_cell_length_a 11.1398(14)
_cell_length_b 10.5462(13)
_cell_length_c 12.6534(16)
_cell_angle_alpha 90
_cell_angle_beta 116.116(3)
_cell_angle_gamma 90
_cell_formula_units_Z 4
loop_
_atom_type_symbol
_atom_type_radius_bond
C 0.68
H 0.23
N 0.68
O 0.68
loop_
_atom_site_label
_atom_site_type_symbol
_atom_site_fract_x
_atom_site_fract_y
_atom_site_fract_z
O1 O 0.47012(19) 0.6338(2) -0.08402(19)
N1 N 0.59628(19) 0.6259(2) -0.03539(17)
C1 C 0.6877(3) 0.7189(3) 0.0470(2)
C2 C 0.6988(4) 0.8266(4) -0.0272(3)
H1 H 0.608(5) 0.866(4) -0.066(4)
H2 H 0.743(4) 0.803(4) -0.079(4)
H3 H 0.760(5) 0.900(5) 0.023(4)
C3 C 0.6326(5) 0.7650(5) 0.1312(4)
H4 H 0.554(4) 0.799(4) 0.088(3)
H5 H 0.704(5) 0.807(5) 0.192(4)
H6 H 0.625(4) 0.691(4) 0.181(4)
C4 C 0.8142(2) 0.6377(3) 0.10210(19)
C5 C 0.9430(3) 0.7073(4) 0.1297(3)
H7 H 1.025(4) 0.650(4) 0.168(3)
H8 H 0.960(3) 0.769(3) 0.188(3)
H9 H 0.946(3) 0.752(3) 0.062(3)
C6 C 0.8258(4) 0.5662(4) 0.2111(2)
H10 H 0.902(3) 0.498(3) 0.233(3)
H11 H 0.736(4) 0.520(4) 0.193(3)
H12 H 0.842(3) 0.629(3) 0.272(3)
N2 N 0.79666(19) 0.5397(2) 0.01253(15)
C7 C 0.6735(2) 0.5367(2) -0.05488(18)
N3 N 0.6184(2) 0.4473(2) -0.14380(14)
C8 C 0.6635(2) 0.3299(2) -0.14777(17)
C9 C 0.7568(2) 0.2516(3) -0.06576(19)
H13 H 0.802(3) 0.284(3) 0.011(3)
C10 C 0.7722(3) 0.1364(3) -0.1033(2)
H14 H 0.833(3) 0.077(3) -0.052(3)
C11 C 0.6962(3) 0.0959(3) -0.2194(2)
H15 H 0.712(3) 0.018(3) -0.241(2)
C12 C 0.6036(3) 0.1712(3) -0.2985(2)
H16 H 0.550(3) 0.141(3) -0.372(3)
C13 C 0.5879(2) 0.2911(3) -0.26274(17)
N4 N 0.5039(2) 0.3871(2) -0.32139(16)
N5 N 0.5213(2) 0.4810(2) -0.25308(16)
#END
