
#######################################################################
#
#                 Cambridge Crystallographic Data Centre
#                                CCDC
#
#######################################################################
#
# If this CIF has been generated from an entry in the Cambridge
# Structural Database, then it will include bibliographic, chemical,
# crystal, experimental, refinement or atomic coordinate data resulting
# from the CCDC's data processing and validation procedures.
#
#######################################################################

data_CSD_CIF_AQIKOA
_audit_creation_date 2004-04-27
_audit_creation_method CSD-ConQuest-V1
_database_code_CSD AQIKOA
_database_code_depnum_ccdc_archive 'CCDC 217336'
_chemical_formula_sum 'C10 H15 N4 O2'
_chemical_formula_moiety
;
C10 H15 N4 O2
;
_journal_coden_Cambridge 16
_journal_volume 60
_journal_year 2004
_journal_page_first 99
_journal_name_full 'Tetrahedron '
loop_
_publ_author_name
"E.V.Tretyakov"
"G.V.Romanenko"
"V.I.Ovcharenko"
_chemical_name_systematic
;
2-(imidazol-1-yl)-4,4,5,5-tetramethyl-4,5-dihydro-1H-imidazole-3-oxide-1-oxyl
;
_cell_volume   1127.802
_exptl_crystal_density_diffrn 1.315
_diffrn_ambient_temperature 273
#These two values have been output from a single CSD field.
_refine_ls_R_factor_gt 0.039
_refine_ls_wR_factor_gt 0.039
_symmetry_cell_setting monoclinic
_symmetry_space_group_name_H-M 'P 21/n'
_symmetry_Int_Tables_number 14
loop_
_symmetry_equiv_pos_site_id
_symmetry_equiv_pos_as_xyz
1 x,y,z
2 1/2+x,1/2-y,1/2+z
3 -x,-y,-z
4 -1/2-x,-1/2+y,-1/2-z
_cell_length_a 7.0699(12)
_cell_length_b 16.526(3)
_cell_length_c 9.7341(16)
_cell_angle_alpha 90
_cell_angle_beta 97.412(3)
_cell_angle_gamma 90
_cell_formula_units_Z 4
loop_
_atom_type_symbol
_atom_type_radius_bond
C 0.68
H 0.23
N 0.68
O 0.68
loop_
_atom_site_label
_atom_site_type_symbol
_atom_site_fract_x
_atom_site_fract_y
_atom_site_fract_z
O1 O -0.2194(3) 0.52108(10) 0.09428(18)
N1 N -0.1552(2) 0.45143(10) 0.13240(18)
C1 C -0.2488(3) 0.37488(12) 0.0788(2)
C2 C -0.4233(4) 0.3664(2) 0.1554(4)
H1 H -0.382(4) 0.357(2) 0.267(3)
H2 H -0.514(4) 0.414(2) 0.132(3)
H3 H -0.486(4) 0.318(2) 0.127(3)
C3 C -0.3103(5) 0.3816(2) -0.0752(3)
H4 H -0.397(4) 0.421(2) -0.099(3)
H5 H -0.194(4) 0.3996(19) -0.117(3)
H6 H -0.357(4) 0.327(2) -0.112(3)
C4 C -0.0893(3) 0.31313(12) 0.1225(2)
C5 C 0.0434(4) 0.29952(19) 0.0125(3)
H7 H -0.026(3) 0.2712(15) -0.065(3)
H8 H 0.081(3) 0.3544(17) -0.024(2)
H9 H 0.152(4) 0.2701(16) 0.060(3)
C6 C -0.1563(4) 0.23285(16) 0.1710(3)
H10 H -0.213(3) 0.2447(13) 0.259(2)
H11 H -0.241(3) 0.2042(16) 0.091(3)
H12 H -0.044(3) 0.1963(16) 0.186(3)
N2 N 0.0260(2) 0.35748(10) 0.23869(16)
O2 O 0.1552(2) 0.32354(9) 0.32278(16)
C7 C -0.0120(3) 0.43630(12) 0.2321(2)
N3 N 0.0801(2) 0.49487(9) 0.31635(16)
C8 C 0.2641(3) 0.49466(16) 0.3822(2)
H13 H 0.343(3) 0.4517(15) 0.372(2)
N4 N 0.2980(3) 0.56087(13) 0.4547(2)
C9 C 0.1327(4) 0.60452(16) 0.4367(3)
H14 H 0.123(3) 0.6476(16) 0.475(3)
C10 C 0.0005(4) 0.56619(14) 0.3552(2)
H15 H -0.118(3) 0.5795(15) 0.320(2)
#END
