
#######################################################################
#
#                 Cambridge Crystallographic Data Centre
#                                CCDC
#
#######################################################################
#
# If this CIF has been generated from an entry in the Cambridge
# Structural Database, then it will include bibliographic, chemical,
# crystal, experimental, refinement or atomic coordinate data resulting
# from the CCDC's data processing and validation procedures.
#
#######################################################################

data_CSD_CIF_AQIKEQ
_audit_creation_date 2004-04-27
_audit_creation_method CSD-ConQuest-V1
_database_code_CSD AQIKEQ
_database_code_depnum_ccdc_archive 'CCDC 217334'
_chemical_formula_sum 'C10 H15 N4 O1'
_chemical_formula_moiety
;
C10 H15 N4 O1
;
_journal_coden_Cambridge 16
_journal_volume 60
_journal_year 2004
_journal_page_first 99
_journal_name_full 'Tetrahedron '
loop_
_publ_author_name
"E.V.Tretyakov"
"G.V.Romanenko"
"V.I.Ovcharenko"
_chemical_name_systematic
;
2-(imidazol-1-yl)-4,4,5,5-tetramethyl-4,5-dihydro-1H-imidazole-1-oxyl
;
_chemical_melting_point 339.15
_cell_volume   1099.108
_exptl_crystal_colour 'red'
_exptl_crystal_density_diffrn 1.253
_exptl_special_details
;
Melting point range 339.15-340.15K

;
_diffrn_ambient_temperature 295
#These two values have been output from a single CSD field.
_refine_ls_R_factor_gt 0.0451
_refine_ls_wR_factor_gt 0.0451
_symmetry_cell_setting monoclinic
_symmetry_space_group_name_H-M 'P 21/n'
_symmetry_Int_Tables_number 14
loop_
_symmetry_equiv_pos_site_id
_symmetry_equiv_pos_as_xyz
1 x,y,z
2 1/2+x,1/2-y,1/2+z
3 -x,-y,-z
4 -1/2-x,-1/2+y,-1/2-z
_cell_length_a 7.7185(11)
_cell_length_b 12.0694(18)
_cell_length_c 11.8747(16)
_cell_angle_alpha 90
_cell_angle_beta 96.500(4)
_cell_angle_gamma 90
_cell_formula_units_Z 4
loop_
_atom_type_symbol
_atom_type_radius_bond
C 0.68
H 0.23
N 0.68
O 0.68
loop_
_atom_site_label
_atom_site_type_symbol
_atom_site_fract_x
_atom_site_fract_y
_atom_site_fract_z
O1 O 0.0000(3) 0.8675(2) 0.4246(2)
N1 N 0.0865(3) 0.8708(2) 0.3406(2)
C1 C 0.2636(4) 0.8216(3) 0.3384(3)
C2 C 0.2700(8) 0.7080(4) 0.3934(6)
H1 H 0.179(6) 0.663(4) 0.352(3)
H2 H 0.239(7) 0.709(4) 0.470(5)
H3 H 0.385(6) 0.681(3) 0.385(3)
C3 C 0.3902(6) 0.8990(4) 0.4073(5)
H4 H 0.517(5) 0.866(3) 0.408(3)
H5 H 0.387(5) 0.972(4) 0.373(3)
H6 H 0.364(6) 0.898(4) 0.482(5)
C4 C 0.2742(4) 0.8269(3) 0.2088(3)
C5 C 0.4526(5) 0.8608(5) 0.1765(5)
H7 H 0.492(5) 0.939(3) 0.215(3)
H8 H 0.537(6) 0.811(4) 0.212(3)
H9 H 0.455(5) 0.868(3) 0.097(4)
C6 C 0.2155(7) 0.7208(4) 0.1460(5)
H10 H 0.102(6) 0.701(3) 0.165(3)
H11 H 0.303(6) 0.663(4) 0.164(3)
H12 H 0.208(6) 0.730(4) 0.064(5)
N2 N 0.1465(4) 0.9142(2) 0.1656(2)
C7 C 0.0442(4) 0.9291(3) 0.2410(3)
N3 N -0.0986(3) 1.0004(2) 0.2291(2)
C8 C -0.1729(4) 1.0439(3) 0.1281(4)
H13 H -0.147(4) 1.016(3) 0.057(3)
C9 C -0.2868(5) 1.1197(4) 0.1554(4)
H14 H -0.354(5) 1.163(3) 0.106(3)
N4 N -0.2889(4) 1.1268(3) 0.2706(3)
C10 C -0.1749(5) 1.0551(3) 0.3123(4)
H15 H -0.134(6) 1.040(4) 0.389(4)
#END
