
#######################################################################
#
#                 Cambridge Crystallographic Data Centre
#                                CCDC
#
#######################################################################
#
# If this CIF has been generated from an entry in the Cambridge
# Structural Database, then it will include bibliographic, chemical,
# crystal, experimental, refinement or atomic coordinate data resulting
# from the CCDC's data processing and validation procedures.
#
#######################################################################

data_CSD_CIF_AQIKAM
_audit_creation_date 2004-04-27
_audit_creation_method CSD-ConQuest-V1
_database_code_CSD AQIKAM
_database_code_depnum_ccdc_archive 'CCDC 217333'
_chemical_formula_sum 'C13 H16 N5 O2'
_chemical_formula_moiety
;
C13 H16 N5 O2
;
_journal_coden_Cambridge 16
_journal_volume 60
_journal_year 2004
_journal_page_first 99
_journal_name_full 'Tetrahedron '
loop_
_publ_author_name
"E.V.Tretyakov"
"G.V.Romanenko"
"V.I.Ovcharenko"
_chemical_name_systematic
;
2-(benzotriazol-1-yl)-4,4,5,5-tetramethyl-4,5-dihydro-1H-imidazole-3-oxide-1-o
xyl
;
_chemical_melting_point 421.15
_cell_volume   1350.349
_exptl_crystal_colour 'violet'
_exptl_crystal_density_diffrn 1.349
_exptl_special_details
;
Melting point range 421.15-423.15K

;
_diffrn_ambient_temperature 293
#These two values have been output from a single CSD field.
_refine_ls_R_factor_gt 0.0823
_refine_ls_wR_factor_gt 0.0823
_symmetry_cell_setting monoclinic
_symmetry_space_group_name_H-M 'P 21/c'
_symmetry_Int_Tables_number 14
loop_
_symmetry_equiv_pos_site_id
_symmetry_equiv_pos_as_xyz
1 x,y,z
2 x,1/2-y,1/2+z
3 -x,-y,-z
4 -x,-1/2+y,-1/2-z
_cell_length_a 10.904(2)
_cell_length_b 9.967(2)
_cell_length_c 13.119(3)
_cell_angle_alpha 90
_cell_angle_beta 108.72(3)
_cell_angle_gamma 90
_cell_formula_units_Z 4
loop_
_atom_type_symbol
_atom_type_radius_bond
C 0.68
H 0.23
N 0.68
O 0.68
loop_
_atom_site_label
_atom_site_type_symbol
_atom_site_fract_x
_atom_site_fract_y
_atom_site_fract_z
O1 O 0.5171(3) 0.0534(3) 0.8893(3)
N1 N 0.4108(4) -0.0115(3) 0.8497(3)
C1 C 0.4044(4) -0.1467(4) 0.7959(3)
C2 C 0.4175(7) -0.1171(6) 0.6842(4)
H1 H 0.314(6) -0.064(6) 0.638(5)
H2 H 0.442(5) -0.185(6) 0.659(4)
H3 H 0.510(5) -0.056(5) 0.690(4)
C3 C 0.5192(6) -0.2328(5) 0.8594(5)
H4 H 0.510(7) -0.252(7) 0.934(6)
H5 H 0.596(6) -0.187(6) 0.847(4)
H6 H 0.479(7) -0.322(8) 0.837(6)
C4 C 0.2718(4) -0.1958(4) 0.7952(3)
C5 C 0.1946(8) -0.2774(6) 0.6974(5)
H7 H 0.206(5) -0.228(5) 0.625(5)
H8 H 0.116(7) -0.303(7) 0.708(5)
H9 H 0.238(5) -0.353(5) 0.688(4)
C6 C 0.2690(7) -0.2649(5) 0.8987(5)
H10 H 0.307(4) -0.343(5) 0.896(3)
H11 H 0.160(9) -0.281(8) 0.878(7)
H12 H 0.320(5) -0.212(5) 0.956(4)
N2 N 0.2027(4) -0.0637(3) 0.7961(3)
O2 O 0.0821(4) -0.0498(3) 0.7719(3)
C7 C 0.2930(5) 0.0310(4) 0.8376(3)
N3 N 0.2600(4) 0.1548(3) 0.8693(3)
N4 N 0.2941(4) 0.2727(3) 0.8278(3)
N5 N 0.2522(4) 0.3713(3) 0.8701(3)
C8 C 0.1920(5) 0.3234(4) 0.9405(3)
C9 C 0.1366(5) 0.3901(5) 1.0083(4)
H13 H 0.141(5) 0.494(5) 1.011(4)
C10 C 0.0895(6) 0.3156(5) 1.0738(4)
H14 H 0.054(4) 0.358(4) 1.127(4)
C11 C 0.0956(6) 0.1737(5) 1.0741(4)
H15 H 0.064(4) 0.131(4) 1.119(3)
C12 C 0.1459(5) 0.1063(5) 1.0071(3)
H16 H 0.142(4) 0.015(5) 1.007(4)
C13 C 0.1957(4) 0.1832(4) 0.9408(3)
#END
