
#######################################################################
#
#                 Cambridge Crystallographic Data Centre
#                                CCDC
#
#######################################################################
#
# If this CIF has been generated from an entry in the Cambridge
# Structural Database, then it will include bibliographic, chemical,
# crystal, experimental, refinement or atomic coordinate data resulting
# from the CCDC's data processing and validation procedures.
#
#######################################################################

data_CSD_CIF_AQURUB
_audit_creation_date 2016-07-22
_audit_creation_method CSD-ConQuest-V1
_database_code_CSD AQURUB
_database_code_depnum_ccdc_archive 'CCDC 1471649'
_chemical_formula_sum 'C8 H7 N3 O2'
_chemical_formula_moiety
;
C8 H7 N3 O2
;
_journal_coden_Cambridge 1048
_journal_volume 18
_journal_year 2016
_journal_page_first 4623
_journal_name_full 'Green Chemistry '
loop_
_publ_author_name
"M.R.Chapman"
"M.H.T.Kwan"
"G.E.King"
"B.A.Kyffin"
"A.John Blacker"
"C.E.Willans"
"B.N.Nguyen"
_chemical_name_systematic
;
2-methyl-6-nitroimidazo[1,2-a]pyridine
;
_cell_volume   3508.143
_exptl_crystal_colour 'yellow'
_exptl_crystal_density_diffrn 1.509
_exptl_crystal_description 'block'
_diffrn_ambient_temperature 120.0
#These two values have been output from a single CSD field.
_refine_ls_R_factor_gt 0.0526
_refine_ls_wR_factor_gt 0.0526
_symmetry_cell_setting rhombohedral
_symmetry_space_group_name_H-M 'R -3'
_symmetry_Int_Tables_number 148
loop_
_symmetry_equiv_pos_site_id
_symmetry_equiv_pos_as_xyz
1 x,y,z
2 -y,x-y,z
3 -x+y,-x,z
4 2/3+x,1/3+y,1/3+z
5 2/3-y,1/3+x-y,1/3+z
6 2/3-x+y,1/3-x,1/3+z
7 1/3+x,2/3+y,2/3+z
8 1/3-y,2/3+x-y,2/3+z
9 1/3-x+y,2/3-x,2/3+z
10 -x,-y,-z
11 y,-x+y,-z
12 x-y,x,-z
13 -2/3-x,-1/3-y,-1/3-z
14 -2/3+y,-1/3-x+y,-1/3-z
15 -2/3+x-y,-1/3+x,-1/3-z
16 -1/3-x,-2/3-y,-2/3-z
17 -1/3+y,-2/3-x+y,-2/3-z
18 -1/3+x-y,-2/3+x,-2/3-z
_cell_length_a 24.304(2)
_cell_length_b 24.304(2)
_cell_length_c 6.8579(5)
_cell_angle_alpha 90
_cell_angle_beta 90
_cell_angle_gamma 120
_cell_formula_units_Z 18
loop_
_atom_type_symbol
_atom_type_radius_bond
C 0.68
H 0.23
N 0.68
O 0.68
loop_
_atom_site_label
_atom_site_type_symbol
_atom_site_fract_x
_atom_site_fract_y
_atom_site_fract_z
O1 O 0.25580(6) 0.28922(6) 0.62655(19)
O2 O 0.15656(6) 0.22172(6) 0.6809(2)
N1 N 0.21550(6) 0.42759(6) 0.50885(19)
N2 N 0.15167(6) 0.46958(7) 0.48463(19)
N3 N 0.19961(7) 0.27484(7) 0.6347(2)
C1 C 0.15296(7) 0.41681(8) 0.5231(2)
C2 C 0.23074(8) 0.38182(8) 0.5435(2)
H1 H 0.27240 0.39030 0.53430
C3 C 0.21370(8) 0.51488(8) 0.4444(2)
C4 C 0.18265(8) 0.32316(8) 0.5922(2)
C5 C 0.11835(8) 0.30819(8) 0.6085(2)
H2 H 0.08670 0.26740 0.64220
C6 C 0.10414(8) 0.35494(8) 0.5734(2)
H3 H 0.06230 0.34620 0.58270
C7 C 0.25358(8) 0.49066(8) 0.4584(2)
H4 H 0.29730 0.51220 0.43830
C8 C 0.23129(9) 0.58146(8) 0.3943(3)
H5 H 0.20720 0.58120 0.28310
H6 H 0.27580 0.60550 0.36440
H7 H 0.22220 0.60050 0.50310
#END
