
#######################################################################
#
#                 Cambridge Crystallographic Data Centre
#                                CCDC
#
#######################################################################
#
# If this CIF has been generated from an entry in the Cambridge
# Structural Database, then it will include bibliographic, chemical,
# crystal, experimental, refinement or atomic coordinate data resulting
# from the CCDC's data processing and validation procedures.
#
#######################################################################

data_CSD_CIF_ARADIH
_audit_creation_date 2011-08-02
_audit_creation_method CSD-ConQuest-V1
_database_code_CSD ARADIH
_database_code_depnum_ccdc_archive 'CCDC 756956'
_chemical_formula_sum 'C11 H13 N1 O3'
_chemical_formula_moiety
;
C11 H13 N1 O3
;
_journal_coden_Cambridge 1220
_journal_volume 16
_journal_year 2010
_journal_page_first 5454
_journal_name_full 'Chem.-Eur.J. '
loop_
_publ_author_name
"Hongchao Zheng"
"R.McDonald"
"D.G.Hall"
_chemical_name_systematic
;
2-Methyl-3-phenyl-1,2-oxazolidine-5-carboxylic acid
;
_cell_volume   1053.345
_exptl_crystal_colour 'colorless'
_exptl_crystal_density_diffrn 1.307
_exptl_crystal_description 'prism'
_diffrn_ambient_temperature 173
#These two values have been output from a single CSD field.
_refine_ls_R_factor_gt 0.0308
_refine_ls_wR_factor_gt 0.0308
_symmetry_cell_setting orthorhombic
_symmetry_space_group_name_H-M 'P n a 21'
_symmetry_Int_Tables_number 33
loop_
_symmetry_equiv_pos_site_id
_symmetry_equiv_pos_as_xyz
1 x,y,z
2 -x,-y,1/2+z
3 1/2+x,1/2-y,z
4 1/2-x,1/2+y,1/2+z
_cell_length_a 15.6021(9)
_cell_length_b 10.4979(6)
_cell_length_c 6.4311(4)
_cell_angle_alpha 90
_cell_angle_beta 90
_cell_angle_gamma 90
_cell_formula_units_Z 4
loop_
_atom_type_symbol
_atom_type_radius_bond
C 0.68
H 0.23
N 0.68
O 0.68
loop_
_atom_site_label
_atom_site_type_symbol
_atom_site_fract_x
_atom_site_fract_y
_atom_site_fract_z
O1 O 0.24035(8) 0.48063(13) 0.2426(2)
O2 O 0.16091(11) 0.52967(14) 0.6159(2)
O3 O 0.24479(8) 0.38908(14) 0.7752(2)
H1 H 0.21540 0.40800 0.88010
N1 N 0.16526(9) 0.44071(13) 0.1198(2)
C1 C 0.25138(11) 0.39293(18) 0.4110(3)
H2 H 0.31370 0.37380 0.43050
C2 C 0.20408(11) 0.27280(16) 0.3426(3)
H3 H 0.23900 0.22110 0.24560
H4 H 0.18710 0.21980 0.46310
C3 C 0.12649(11) 0.33080(15) 0.2345(3)
H5 H 0.08640 0.36460 0.34250
C4 C 0.21373(11) 0.44622(15) 0.6127(3)
C5 C 0.10770(12) 0.55088(16) 0.1100(3)
H6 H 0.13590 0.62030 0.03440
H7 H 0.09390 0.57910 0.25130
H8 H 0.05480 0.52690 0.03770
C6 C 0.07659(10) 0.24766(15) 0.0858(3)
C7 C -0.01262(11) 0.24925(17) 0.0957(4)
H9 H -0.04070 0.29980 0.19760
C8 C -0.06077(12) 0.17716(18) -0.0430(4)
H10 H -0.12160 0.17910 -0.03600
C9 C -0.02065(13) 0.10283(18) -0.1907(4)
H11 H -0.05370 0.05280 -0.28420
C10 C 0.06831(13) 0.10151(17) -0.2021(3)
H12 H 0.09610 0.05140 -0.30500
C11 C 0.11680(11) 0.17315(16) -0.0638(3)
H13 H 0.17760 0.17120 -0.07140
#END
