
#######################################################################
#
#                 Cambridge Crystallographic Data Centre
#                                CCDC
#
#######################################################################
#
# If this CIF has been generated from an entry in the Cambridge
# Structural Database, then it will include bibliographic, chemical,
# crystal, experimental, refinement or atomic coordinate data resulting
# from the CCDC's data processing and validation procedures.
#
#######################################################################

data_CSD_CIF_ARAGUW
_audit_creation_date 2011-08-01
_audit_creation_method CSD-ConQuest-V1
_database_code_CSD ARAGUW
_database_code_depnum_ccdc_archive 'CCDC 741926'
_chemical_formula_sum 'C34 H31 N1 O4'
_chemical_formula_moiety
;
C34 H31 N1 O4
;
_journal_coden_Cambridge 1220
_journal_volume 16
_journal_year 2010
_journal_page_first 6146
_journal_name_full 'Chem.-Eur.J. '
loop_
_publ_author_name
"Yanqing Zhang"
"Feng Liu"
"Junliang Zhang"
_chemical_name_systematic
;
4,8-bis(4-methoxyphenyl)-6-methyl-1,2-diphenyl-1,2,4,5-tetrahydrofuro[3,4-d][1
,2]oxazepine
;
_cell_volume   2621.787
_exptl_crystal_colour 'colorless'
_exptl_crystal_density_diffrn 1.311
_exptl_crystal_description 'block'
_diffrn_ambient_temperature 173
#These two values have been output from a single CSD field.
_refine_ls_R_factor_gt 0.0381
_refine_ls_wR_factor_gt 0.0381
_symmetry_cell_setting monoclinic
_symmetry_space_group_name_H-M 'P 21/c'
_symmetry_Int_Tables_number 14
loop_
_symmetry_equiv_pos_site_id
_symmetry_equiv_pos_as_xyz
1 x,y,z
2 -x,1/2+y,1/2-z
3 -x,-y,-z
4 x,-1/2-y,-1/2+z
_cell_length_a 13.3634(5)
_cell_length_b 24.9001(9)
_cell_length_c 7.9690(3)
_cell_angle_alpha 90
_cell_angle_beta 98.612(1)
_cell_angle_gamma 90
_cell_formula_units_Z 4
loop_
_atom_type_symbol
_atom_type_radius_bond
C 0.68
H 0.23
N 0.68
O 0.68
loop_
_atom_site_label
_atom_site_type_symbol
_atom_site_fract_x
_atom_site_fract_y
_atom_site_fract_z
N1 N -0.17383(10) 0.60513(5) 0.16586(17)
O1 O -0.52411(10) 0.40688(6) 0.48987(18)
O2 O -0.20603(8) 0.57297(4) 0.29566(14)
O3 O 0.13677(8) 0.53047(4) 0.14543(14)
O4 O 0.35555(9) 0.73829(5) -0.05645(17)
C1 C -0.27580(13) 0.46142(7) 0.4673(2)
H1 H -0.21120 0.46110 0.53600
C2 C -0.35596(14) 0.43538(7) 0.5232(2)
H2 H -0.34590 0.41770 0.63010
C3 C -0.45044(13) 0.43476(7) 0.4255(2)
C4 C -0.46448(14) 0.46117(8) 0.2712(2)
H3 H -0.52910 0.46130 0.20270
C5 C -0.38349(13) 0.48752(8) 0.2171(2)
H4 H -0.39390 0.50580 0.11120
C6 C -0.28801(12) 0.48801(6) 0.3125(2)
C7 C -0.20275(12) 0.51685(6) 0.2448(2)
H5 H -0.21490 0.51490 0.11800
C8 C -0.09807(12) 0.49486(7) 0.3081(2)
H6 H -0.08520 0.49830 0.43330
H7 H -0.09750 0.45610 0.28080
C9 C -0.01255(12) 0.52155(6) 0.2365(2)
C10 C 0.00256(12) 0.57757(6) 0.1997(2)
C11 C -0.06921(12) 0.62353(6) 0.2184(2)
H8 H -0.05590 0.65170 0.13500
C12 C -0.05044(12) 0.64991(6) 0.3945(2)
C13 C 0.04159(13) 0.64376(7) 0.5006(2)
H9 H 0.09240 0.62150 0.46560
C14 C 0.06036(13) 0.66954(7) 0.6563(2)
H10 H 0.12340 0.66460 0.72730
C15 C -0.01235(14) 0.70247(7) 0.7088(2)
H11 H 0.00050 0.72050 0.81500
C16 C -0.10393(14) 0.70875(7) 0.6047(2)
H12 H -0.15440 0.73130 0.63970
C17 C -0.12316(13) 0.68261(7) 0.4497(2)
H13 H -0.18690 0.68710 0.38030
C18 C -0.34682(13) 0.64057(8) 0.1465(2)
H14 H -0.36070 0.61640 0.23250
C19 C -0.42176(14) 0.67490(8) 0.0705(3)
H15 H -0.48630 0.67460 0.10690
C20 C -0.40448(14) 0.70960(8) -0.0573(3)
H16 H -0.45630 0.73310 -0.10830
C21 C -0.31058(14) 0.70949(7) -0.1093(2)
H17 H -0.29800 0.73290 -0.19790
C22 C -0.23441(13) 0.67581(7) -0.0343(2)
H18 H -0.17040 0.67610 -0.07240
C23 C -0.25114(12) 0.64139(6) 0.0969(2)
C24 C 0.07017(12) 0.49532(7) 0.2019(2)
C25 C 0.09419(12) 0.58095(6) 0.1454(2)
C26 C 0.15807(12) 0.62368(7) 0.0923(2)
C27 C 0.14335(12) 0.67803(7) 0.1237(2)
H19 H 0.08850 0.68840 0.17990
C28 C 0.20682(13) 0.71724(7) 0.0748(2)
H20 H 0.19470 0.75400 0.09670
C29 C 0.28778(12) 0.70293(7) -0.0058(2)
C30 C 0.30385(13) 0.64902(7) -0.0390(2)
H21 H 0.35880 0.63880 -0.09510
C31 C 0.24019(12) 0.61038(7) 0.0096(2)
H22 H 0.25230 0.57370 -0.01360
C32 C -0.62200(15) 0.40568(9) 0.3904(3)
H23 H -0.66790 0.38450 0.44930
H24 H -0.61750 0.38930 0.28000
H25 H -0.64790 0.44240 0.37350
C33 C 0.34956(15) 0.79306(7) -0.0057(3)
H26 H 0.40230 0.81400 -0.04920
H27 H 0.35940 0.79520 0.11850
H28 H 0.28290 0.80760 -0.05150
C34 C 0.10558(13) 0.43872(7) 0.2230(2)
H29 H 0.05320 0.41680 0.26370
H30 H 0.16770 0.43730 0.30560
H31 H 0.11910 0.42480 0.11360
#END
