
#######################################################################
#
#                 Cambridge Crystallographic Data Centre
#                                CCDC
#
#######################################################################
#
# If this CIF has been generated from an entry in the Cambridge
# Structural Database, then it will include bibliographic, chemical,
# crystal, experimental, refinement or atomic coordinate data resulting
# from the CCDC's data processing and validation procedures.
#
#######################################################################

data_CSD_CIF_AREFIO
_audit_creation_date 2016-07-25
_audit_creation_method CSD-ConQuest-V1
_database_code_CSD AREFIO
_database_code_depnum_ccdc_archive 'CCDC 1455126'
_chemical_formula_sum 'C9 H9 N1 O3'
_chemical_formula_moiety
;
C9 H9 N1 O3
;
_journal_coden_Cambridge 182
_journal_volume 52
_journal_year 2016
_journal_page_first 10060
_journal_name_full 'Chem.Commun. '
loop_
_publ_author_name
"A.Vidal-Albalat"
"K.Swiderek"
"J.Izquierdo"
"S.Rodriguez"
"V.Moliner"
"F.V.Gonzalez"
_chemical_name_systematic
;
2-methyl-2-nitro-3-phenyloxirane
;
_cell_volume    885.123
_exptl_crystal_colour 'white'
_exptl_crystal_density_diffrn 1.345
_exptl_crystal_description 'needle'
_diffrn_ambient_temperature 200
#These two values have been output from a single CSD field.
_refine_ls_R_factor_gt 0.0414
_refine_ls_wR_factor_gt 0.0414
_symmetry_cell_setting orthorhombic
_symmetry_space_group_name_H-M 'P 21 21 21'
_symmetry_Int_Tables_number 19
loop_
_symmetry_equiv_pos_site_id
_symmetry_equiv_pos_as_xyz
1 x,y,z
2 1/2+x,1/2-y,-z
3 -x,1/2+y,1/2-z
4 1/2-x,-y,1/2+z
_cell_length_a 5.4300(2)
_cell_length_b 7.8748(5)
_cell_length_c 20.6997(9)
_cell_angle_alpha 90
_cell_angle_beta 90
_cell_angle_gamma 90
_cell_formula_units_Z 4
loop_
_atom_type_symbol
_atom_type_radius_bond
C 0.68
H 0.23
N 0.68
O 0.68
loop_
_atom_site_label
_atom_site_type_symbol
_atom_site_fract_x
_atom_site_fract_y
_atom_site_fract_z
C1 C -0.0570(3) -0.2100(3) -0.24616(8)
H1 H 0.0848(3) -0.2666(3) -0.23315(8)
C2 C -0.1238(3) -0.2085(2) -0.31086(8)
H2 H -0.0271(3) -0.2648(2) -0.34112(8)
C3 C -0.4788(3) -0.0408(2) -0.28504(9)
H3 H -0.6203(3) 0.0164(2) -0.29798(9)
N1 N -0.3218(4) -0.0373(3) -0.51369(7)
C4 C -0.4132(4) -0.0432(2) -0.22039(8)
H4 H -0.5111(4) 0.0116(2) -0.19000(8)
C5 C -0.4060(4) -0.1270(3) -0.39976(9)
H5 H -0.4106(4) -0.2398(3) -0.41976(9)
C6 C -0.3344(3) -0.1232(2) -0.33055(8)
C7 C -0.2016(4) -0.1272(2) -0.20099(8)
H6 H -0.1568(4) -0.1280(2) -0.15763(8)
O1 O -0.1464(4) 0.0178(3) -0.54252(7)
O2 O -0.5903(3) -0.0093(2) -0.42178(7)
O3 O -0.4738(4) -0.1339(3) -0.53645(8)
C8 C -0.2128(4) 0.1711(3) -0.42680(9)
H7 H -0.262(2) 0.2615(6) -0.4551(5)
H8 H -0.248(2) 0.2023(11) -0.3829(3)
H9 H -0.0395(5) 0.1506(6) -0.4316(7)
C9 C -0.3515(4) 0.0144(3) -0.44353(8)
#END
