
#######################################################################
#
#                 Cambridge Crystallographic Data Centre
#                                CCDC
#
#######################################################################
#
# If this CIF has been generated from an entry in the Cambridge
# Structural Database, then it will include bibliographic, chemical,
# crystal, experimental, refinement or atomic coordinate data resulting
# from the CCDC's data processing and validation procedures.
#
#######################################################################

data_CSD_CIF_AROBAL
_audit_creation_date 2011-08-22
_audit_creation_method CSD-ConQuest-V1
_database_code_CSD AROBAL
_database_code_depnum_ccdc_archive 'CCDC 629597'
_chemical_formula_sum 'C22 H28 N2 O6'
_chemical_formula_moiety
;
C22 H28 N2 O6
;
_journal_coden_Cambridge 4
_journal_volume 129
_journal_year 2007
_journal_page_first 5376
_journal_name_full 'J.Am.Chem.Soc. '
loop_
_publ_author_name
"Hongjun Ren"
"G.Dunet"
"P.Mayer"
"P.Knochel"
_chemical_name_systematic
;
1-(6,6-Dimethyl-2-methylenebicyclo[3.1.1]hept-3-yl)-2,2-dimethylpropyl 
3,5-dinitrobenzoate
;
_cell_volume   1077.462
_exptl_crystal_colour 'colorless'
_exptl_crystal_density_diffrn 1.284
_exptl_crystal_description 'platelet'
_diffrn_ambient_temperature 200
#These two values have been output from a single CSD field.
_refine_ls_R_factor_gt 0.0401
_refine_ls_wR_factor_gt 0.0401
_symmetry_cell_setting monoclinic
_symmetry_space_group_name_H-M 'P 21'
_symmetry_Int_Tables_number 4
loop_
_symmetry_equiv_pos_site_id
_symmetry_equiv_pos_as_xyz
1 x,y,z
2 -x,1/2+y,-z
_cell_length_a 10.0151(3)
_cell_length_b 9.6694(2)
_cell_length_c 11.7012(3)
_cell_angle_alpha 90
_cell_angle_beta 108.0363(15)
_cell_angle_gamma 90
_cell_formula_units_Z 2
loop_
_atom_type_symbol
_atom_type_radius_bond
C 0.68
H 0.23
N 0.68
O 0.68
loop_
_atom_site_label
_atom_site_type_symbol
_atom_site_fract_x
_atom_site_fract_y
_atom_site_fract_z
O1 O 0.39764(13) 0.53638(12) 0.85638(10)
O2 O 0.46542(15) 0.69436(14) 1.00498(12)
O3 O -0.0019(2) 0.15364(19) 1.02167(16)
O4 O 0.0466(2) 0.1950(2) 0.85962(17)
O5 O 0.18559(19) 0.4396(2) 1.36839(13)
O6 O 0.3021(2) 0.62290(19) 1.35606(14)
N1 N 0.0588(2) 0.21880(19) 0.96370(16)
N2 N 0.24168(17) 0.5170(2) 1.31425(14)
C1 C 0.40121(18) 0.59223(19) 0.96090(15)
C2 C 0.31402(18) 0.51072(18) 1.02058(15)
C3 C 0.22993(19) 0.40089(19) 0.96339(16)
C4 C 0.15060(19) 0.33346(19) 1.02379(16)
C5 C 0.15261(19) 0.3678(2) 1.13891(16)
C6 C 0.23755(18) 0.47745(18) 1.19180(15)
C7 C 0.31694(19) 0.55037(19) 1.13564(15)
C8 C 0.46237(18) 0.61138(18) 0.77884(15)
C9 C 0.5459(2) 0.50134(19) 0.73443(16)
C10 C 0.6083(3) 0.5623(2) 0.6411(2)
C11 C 0.6674(2) 0.4512(3) 0.8428(2)
C12 C 0.4529(3) 0.3783(2) 0.6788(2)
C13 C 0.34782(18) 0.68949(18) 0.67879(15)
C14 C 0.21628(19) 0.72788(19) 0.71310(15)
C15 C 0.1215(2) 0.6345(2) 0.71705(19)
C16 C 0.1961(2) 0.8795(2) 0.73071(17)
C17 C 0.3402(2) 0.9486(2) 0.79062(16)
C18 C 0.35454(19) 0.9552(2) 0.66274(16)
C19 C 0.4136(2) 0.8179(2) 0.63588(16)
C20 C 0.1911(2) 0.9590(2) 0.61256(17)
C21 C 0.1350(3) 1.1054(2) 0.6100(3)
C22 C 0.1171(2) 0.8884(3) 0.49344(19)
H1 H 0.228(2) 0.373(2) 0.8844(19)
H2 H 0.3180(18) 0.6216(19) 0.6118(16)
H3 H 0.094(2) 0.314(2) 1.1780(19)
H4 H 0.522(3) 0.820(2) 0.680(2)
H5 H 0.5286(18) 0.6821(19) 0.8321(16)
H6 H 0.119(2) 0.895(2) 0.763(2)
H7 H 0.373(2) 0.625(2) 1.1754(18)
H8 H 0.409(2) 1.036(2) 0.6430(16)
H9 H 0.508(3) 0.313(3) 0.646(2)
H10 H 0.416(2) 0.889(2) 0.8560(18)
H11 H 0.3952(19) 0.808(2) 0.5454(17)
H12 H 0.332(2) 1.043(3) 0.823(2)
H13 H 0.135(2) 0.541(2) 0.7025(18)
H14 H 0.377(3) 0.401(3) 0.612(3)
H15 H 0.037(2) 0.659(2) 0.7362(19)
H16 H 0.031(3) 1.107(3) 0.596(2)
H17 H 0.423(2) 0.330(2) 0.738(2)
H18 H 0.670(3) 0.639(3) 0.676(2)
H19 H 0.728(3) 0.375(3) 0.818(2)
H20 H 0.160(3) 1.168(3) 0.544(3)
H21 H 0.631(3) 0.403(3) 0.907(2)
H22 H 0.533(3) 0.597(3) 0.568(2)
H23 H 0.664(3) 0.489(3) 0.615(3)
H24 H 0.175(3) 1.152(3) 0.681(3)
H25 H 0.125(2) 0.944(3) 0.422(2)
H26 H 0.150(3) 0.797(3) 0.483(2)
H27 H 0.022(3) 0.884(3) 0.488(2)
H28 H 0.729(3) 0.529(3) 0.883(2)
#END
