
#######################################################################
#
#                 Cambridge Crystallographic Data Centre
#                                CCDC
#
#######################################################################
#
# If this CIF has been generated from an entry in the Cambridge
# Structural Database, then it will include bibliographic, chemical,
# crystal, experimental, refinement or atomic coordinate data resulting
# from the CCDC's data processing and validation procedures.
#
#######################################################################

data_CSD_CIF_AROFIW
_audit_creation_date 2004-05-11
_audit_creation_method CSD-ConQuest-V1
_database_code_CSD AROFIW
_database_code_depnum_ccdc_archive 'CCDC 185559'
_chemical_formula_sum 'C18 H12 N2 O1'
_chemical_formula_moiety
;
C18 H12 N2 O1
;
_journal_coden_Cambridge 34
_journal_volume 40
_journal_year 2003
_journal_page_first 523
_journal_name_full 'J.Heterocycl.Chem. '
loop_
_publ_author_name
"J.Suwinski"
"K.Swierczek"
"P.Wagner"
"M.Kubicki"
"T.Borowiak"
"J.Slowikowska"
_chemical_name_systematic
;
(E)-4-(\a-Cyanobenzylidene)-1-(4H)naphthalenone (E)-oxime
;
_chemical_melting_point 452.15
_cell_volume   2788.057
_exptl_crystal_colour 'yellow'
_exptl_crystal_density_diffrn 1.297
_exptl_special_details
;
Melting point range 452.15-454.15K

;
_exptl_crystal_description 'needles'
_diffrn_ambient_temperature 295
#These two values have been output from a single CSD field.
_refine_ls_R_factor_gt 0.0352
_refine_ls_wR_factor_gt 0.0352
_symmetry_cell_setting orthorhombic
_symmetry_space_group_name_H-M 'P b c a'
_symmetry_Int_Tables_number 61
loop_
_symmetry_equiv_pos_site_id
_symmetry_equiv_pos_as_xyz
1 x,y,z
2 1/2-x,-y,1/2+z
3 -x,1/2+y,1/2-z
4 1/2+x,1/2-y,-z
5 -x,-y,-z
6 -1/2+x,y,-1/2-z
7 x,-1/2-y,-1/2+z
8 -1/2-x,-1/2+y,z
_cell_length_a 13.666(3)
_cell_length_b 8.807(2)
_cell_length_c 23.165(5)
_cell_angle_alpha 90
_cell_angle_beta 90
_cell_angle_gamma 90
_cell_formula_units_Z 8
loop_
_atom_type_symbol
_atom_type_radius_bond
C 0.68
H 0.23
N 0.68
O 0.68
loop_
_atom_site_label
_atom_site_type_symbol
_atom_site_fract_x
_atom_site_fract_y
_atom_site_fract_z
O1 O 0.25238(9) 0.11809(14) 0.56348(5)
C1 C 0.31126(10) 0.37269(15) 0.44667(6)
C2 C 0.31225(11) 0.54840(17) 0.36675(7)
C3 C 0.25848(10) 0.28382(16) 0.49071(5)
C4 C 0.11644(10) 0.55288(16) 0.30214(6)
C5 C 0.1505(1) 0.45216(15) 0.40546(6)
C6 C 0.41340(11) 0.38104(19) 0.44773(7)
N1 N 0.31032(9) 0.19607(15) 0.52378(5)
C7 C -0.01158(11) 0.52007(17) 0.37345(6)
C8 C 0.15385(11) 0.30203(18) 0.49471(6)
C9 C 0.25883(10) 0.45545(15) 0.40491(5)
C10 C 0.09161(10) 0.50755(15) 0.36230(6)
C11 C 0.10472(11) 0.38403(17) 0.45575(6)
C12 C 0.46362(12) 0.46993(19) 0.40912(8)
N2 N -0.0942(1) 0.53476(17) 0.37960(6)
C13 C 0.41274(11) 0.55435(19) 0.36876(7)
C14 C 0.15749(13) 0.6349(3) 0.18892(8)
C15 C 0.09547(13) 0.69769(19) 0.28258(8)
C16 C 0.11743(16) 0.7383(2) 0.22655(9)
C17 C 0.15560(13) 0.4483(2) 0.26369(7)
C18 C 0.17545(14) 0.4896(3) 0.20740(8)
H1 H 0.2771(12) 0.611(2) 0.3380(7)
H2 H 0.1222(12) 0.2518(19) 0.5276(7)
H3 H 0.0683(14) 0.773(2) 0.3103(8)
H4 H 0.0350(13) 0.3937(18) 0.4584(6)
H5 H 0.5353(14) 0.4759(19) 0.4105(8)
H6 H 0.4458(14) 0.621(2) 0.3410(8)
H7 H 0.4475(14) 0.326(2) 0.4775(8)
H8 H 0.1652(14) 0.345(2) 0.2761(8)
H9 H 0.1710(13) 0.665(2) 0.1492(8)
H10 H 0.1983(18) 0.411(3) 0.1785(10)
H11 H 0.1054(16) 0.837(3) 0.2154(10)
H12 H 0.2978(17) 0.063(3) 0.5815(9)
#END
