
#######################################################################
#
#                 Cambridge Crystallographic Data Centre
#                                CCDC
#
#######################################################################
#
# If this CIF has been generated from an entry in the Cambridge
# Structural Database, then it will include bibliographic, chemical,
# crystal, experimental, refinement or atomic coordinate data resulting
# from the CCDC's data processing and validation procedures.
#
#######################################################################

data_CSD_CIF_ASAYEZ
_audit_creation_date 2011-08-04
_audit_creation_method CSD-ConQuest-V1
_database_code_CSD ASAYEZ
_database_code_depnum_ccdc_archive 'CCDC 783672'
_chemical_formula_sum 'C14 H7 N3 O8'
_chemical_formula_moiety
;
C14 H7 N3 O8
;
_journal_coden_Cambridge 644
_journal_volume 66
_journal_year 2011
_journal_page_first 479
_journal_name_full 'Z.Naturforsch.,B:Chem.Sci. '
loop_
_publ_author_name
"G.Laus"
"V.Kahlenberg"
"K.Wurst"
"S.Nerdinger"
"H.Schottenberger"
_chemical_name_systematic
;
3-(2-Hydroxy-3-nitrophenyl)-8-nitro-2H-1,3-benzoxazine-2,4(3H)-dione
;
_cell_volume   1362.072
_exptl_crystal_colour 'pale yellow'
_exptl_crystal_density_diffrn 1.683
_exptl_crystal_description 'prism'
_diffrn_ambient_temperature 173
#These two values have been output from a single CSD field.
_refine_ls_R_factor_gt 0.067
_refine_ls_wR_factor_gt 0.067
_symmetry_cell_setting monoclinic
_symmetry_space_group_name_H-M 'P 21/a'
_symmetry_Int_Tables_number 14
loop_
_symmetry_equiv_pos_site_id
_symmetry_equiv_pos_as_xyz
1 x,y,z
2 1/2-x,1/2+y,-z
3 -x,-y,-z
4 -1/2+x,-1/2-y,z
_cell_length_a 7.8824(11)
_cell_length_b 13.463(2)
_cell_length_c 13.015(2)
_cell_angle_alpha 90
_cell_angle_beta 99.537(12)
_cell_angle_gamma 90
_cell_formula_units_Z 4
loop_
_atom_type_symbol
_atom_type_radius_bond
C 0.68
H 0.23
N 0.68
O 0.68
loop_
_atom_site_label
_atom_site_type_symbol
_atom_site_fract_x
_atom_site_fract_y
_atom_site_fract_z
N1 N -0.0143(4) 0.1358(2) 0.2282(2)
O1 O 0.3250(3) 0.1196(2) 0.30825(19)
H1 H 0.42720 0.12220 0.33930
O2 O -0.0189(3) 0.21134(19) 0.06501(18)
O3 O 0.1060(3) 0.28701(19) 0.20790(18)
O4 O 0.4869(4) 0.1057(2) 0.6265(2)
O5 O 0.5558(4) 0.1103(2) 0.4727(2)
C1 C 0.0423(5) 0.1373(3) 0.3404(3)
N2 N 0.4478(4) 0.1133(2) 0.5325(2)
C2 C -0.1137(5) 0.1339(3) 0.0165(3)
C3 C -0.1598(5) 0.1338(3) -0.0922(3)
C4 C -0.0761(5) 0.1438(3) 0.4064(3)
H2 H -0.19490 0.14980 0.37840
C5 C 0.1481(5) 0.1327(3) 0.5542(3)
H3 H 0.18520 0.13090 0.62740
C6 C 0.2177(5) 0.1273(3) 0.3779(3)
C7 C 0.0281(5) 0.2152(3) 0.1712(3)
N3 N -0.1069(5) 0.2117(3) -0.1583(2)
O6 O -0.1453(5) -0.0136(2) 0.2409(2)
C8 C 0.2674(5) 0.1261(3) 0.4871(3)
C9 C -0.1662(5) 0.0557(3) 0.0727(3)
C10 C -0.1126(6) 0.0531(3) 0.1861(3)
C11 C -0.2598(5) 0.0570(3) -0.1409(3)
H4 H -0.29070 0.05730 -0.21460
C12 C -0.0237(5) 0.1417(3) 0.5142(3)
H5 H -0.10610 0.14650 0.55950
C13 C -0.2673(5) -0.0205(3) 0.0223(3)
H6 H -0.30370 -0.07350 0.06160
O7 O -0.1440(9) 0.2046(4) -0.2498(3)
C14 C -0.3147(5) -0.0190(3) -0.0851(3)
H7 H -0.38480 -0.07040 -0.11960
O8 O -0.0276(8) 0.2791(4) -0.1217(3)
#END
