
#######################################################################
#
#                 Cambridge Crystallographic Data Centre
#                                CCDC
#
#######################################################################
#
# If this CIF has been generated from an entry in the Cambridge
# Structural Database, then it will include bibliographic, chemical,
# crystal, experimental, refinement or atomic coordinate data resulting
# from the CCDC's data processing and validation procedures.
#
#######################################################################

data_CSD_CIF_ASIMUL
_audit_creation_date 2011-08-22
_audit_creation_method CSD-ConQuest-V1
_database_code_CSD ASIMUL
_database_code_depnum_ccdc_archive 'CCDC 784222'
_chemical_formula_sum 'C16 H17 N1 O7'
_chemical_formula_moiety
;
C16 H17 N1 O7
;
_journal_coden_Cambridge 1336
_journal_volume 13
_journal_year 2011
_journal_page_first 86
_journal_name_full 'Org.Lett. '
loop_
_publ_author_name
"Yan Chen"
"Tong Ju"
_chemical_name_systematic
;
(1S,2S,4R,6S)-4-Acetoxy-1-methyl-7-oxabicyclo[4.1.0]hept-2-yl 4-nitrobenzoate
;
_chemical_melting_point 397.15
_cell_volume    802.681
_exptl_crystal_colour 'colorless'
_exptl_crystal_density_diffrn 1.387
_exptl_special_details
;
Melting point range 397.15-399.15K

;
_exptl_crystal_description 'block'
_diffrn_ambient_temperature 293
#These two values have been output from a single CSD field.
_refine_ls_R_factor_gt 0.0371
_refine_ls_wR_factor_gt 0.0371
_symmetry_cell_setting monoclinic
_symmetry_space_group_name_H-M 'P 21'
_symmetry_Int_Tables_number 4
loop_
_symmetry_equiv_pos_site_id
_symmetry_equiv_pos_as_xyz
1 x,y,z
2 -x,1/2+y,-z
_cell_length_a 7.4253(15)
_cell_length_b 6.7697(14)
_cell_length_c 16.333(3)
_cell_angle_alpha 90
_cell_angle_beta 102.13(3)
_cell_angle_gamma 90
_cell_formula_units_Z 2
loop_
_atom_type_symbol
_atom_type_radius_bond
C 0.68
H 0.23
N 0.68
O 0.68
loop_
_atom_site_label
_atom_site_type_symbol
_atom_site_fract_x
_atom_site_fract_y
_atom_site_fract_z
C1 C -0.0459(3) 0.5339(4) -0.07547(13)
N1 N -0.2077(3) 0.5241(4) -0.14551(13)
O1 O -0.3577(3) 0.5681(4) -0.13146(12)
C2 C -0.0715(3) 0.5272(4) 0.00506(14)
H1 H -0.18930 0.52360 0.01610
O2 O -0.1843(3) 0.4722(4) -0.21384(11)
C3 C 0.0818(3) 0.5259(4) 0.06914(13)
H2 H 0.06770 0.52040 0.12430
O3 O 0.5789(2) 0.4831(4) 0.10665(10)
C4 C 0.2583(3) 0.5327(4) 0.05229(13)
O4 O 0.3891(2) 0.5358(3) 0.19544(8)
C5 C 0.2787(4) 0.5465(4) -0.03059(14)
H3 H 0.39580 0.55490 -0.04230
O5 O 0.1946(3) 0.4113(4) 0.4092(1)
C6 C 0.1261(3) 0.5476(4) -0.09493(14)
H4 H 0.13830 0.55750 -0.15030
O6 O -0.0194(3) 0.3178(4) 0.29821(12)
C7 C 0.4278(3) 0.5142(4) 0.11926(13)
O7 O 0.7130(3) 0.6540(4) 0.3920(1)
C8 C 0.5307(3) 0.4895(4) 0.26939(14)
H5 H 0.62460 0.40350 0.25410
C9 C 0.4303(4) 0.3816(4) 0.32781(15)
H6 H 0.51860 0.33450 0.37630
H7 H 0.36630 0.26800 0.29930
C10 C 0.2928(4) 0.5183(5) 0.35589(14)
H8 H 0.20530 0.56820 0.30680
C11 C 0.3875(5) 0.6905(6) 0.40661(19)
H9 H 0.29850 0.79550 0.40630
H10 H 0.43020 0.64830 0.46420
C12 C 0.5477(5) 0.7703(5) 0.37451(18)
H11 H 0.56630 0.91330 0.38070
C13 C 0.6171(4) 0.6805(5) 0.30577(15)
C14 C 0.0402(4) 0.3147(5) 0.37202(18)
C15 C -0.0420(5) 0.2057(6) 0.43401(19)
H12 H -0.09970 0.29750 0.46520
H13 H 0.05290 0.13480 0.47160
H14 H -0.13230 0.11410 0.40530
C16 C 0.7206(4) 0.7990(6) 0.25303(18)
H15 H 0.77350 0.91330 0.28370
H16 H 0.63770 0.83990 0.20260
H17 H 0.81690 0.71940 0.23910
#END
