
#######################################################################
#
#                 Cambridge Crystallographic Data Centre
#                                CCDC
#
#######################################################################
#
# If this CIF has been generated from an entry in the Cambridge
# Structural Database, then it will include bibliographic, chemical,
# crystal, experimental, refinement or atomic coordinate data resulting
# from the CCDC's data processing and validation procedures.
#
#######################################################################

data_CSD_CIF_ASOFIX
_audit_creation_date 2004-06-09
_audit_creation_method CSD-ConQuest-V1
_database_code_CSD ASOFIX
_database_code_depnum_ccdc_archive 'CCDC 232733'
_chemical_formula_sum 'C10 H17 N1 O3'
_chemical_formula_moiety
;
C10 H17 N1 O3
;
_journal_coden_Cambridge 4
_journal_volume 126
_journal_year 2004
_journal_page_first 1816
_journal_name_full 'J.Am.Chem.Soc. '
loop_
_publ_author_name
"F.A.Villamena"
"C.M.Hadad"
"J.L.Zweier"
_chemical_name_systematic
;
5-t-butoxycarbonyl-5-methyl-1-pyrroline-N-oxide
;
_cell_volume   1060.709
_exptl_crystal_colour 'colorless'
_exptl_crystal_density_diffrn 1.248
_exptl_crystal_description 'rectangular plate'
_diffrn_ambient_temperature 150
#These two values have been output from a single CSD field.
_refine_ls_R_factor_gt 0.037
_refine_ls_wR_factor_gt 0.037
_symmetry_cell_setting monoclinic
_symmetry_space_group_name_H-M 'P 21/n'
_symmetry_Int_Tables_number 14
loop_
_symmetry_equiv_pos_site_id
_symmetry_equiv_pos_as_xyz
1 x,y,z
2 1/2-x,1/2+y,1/2-z
3 -x,-y,-z
4 -1/2+x,-1/2-y,-1/2+z
_cell_length_a 12.198(2)
_cell_length_b 6.272(1)
_cell_length_c 14.501(3)
_cell_angle_alpha 90
_cell_angle_beta 107.04(1)
_cell_angle_gamma 90
_cell_formula_units_Z 4
loop_
_atom_type_symbol
_atom_type_radius_bond
C 0.68
H 0.23
N 0.68
O 0.68
loop_
_atom_site_label
_atom_site_type_symbol
_atom_site_fract_x
_atom_site_fract_y
_atom_site_fract_z
O1 O 0.17692(8) 0.16472(14) 1.02983(6)
O2 O 0.17842(7) 0.18965(14) 0.77701(6)
O3 O 0.02778(7) 0.00753(14) 0.79918(6)
N1 N 0.16039(8) -0.0215(2) 0.98958(7)
C1 C 0.20919(9) -0.0663(2) 0.90716(8)
C2 C 0.18767(10) -0.3070(2) 0.89210(9)
H1 H 0.25872(10) -0.3883(2) 0.92221(9)
H2 H 0.16085(10) -0.3417(2) 0.82248(9)
C3 C 0.09451(11) -0.3609(2) 0.94094(9)
H3 H 0.01784(11) -0.3698(2) 0.89300(9)
H4 H 0.11139(11) -0.4972(2) 0.97670(9)
C4 C 0.10125(10) -0.1788(2) 1.00743(9)
H5 H 0.06593(10) -0.1778(2) 1.05776(9)
C5 C 0.33387(10) 0.0006(2) 0.93396(9)
H6 H 0.3654(2) -0.0336(14) 0.8809(3)
H7 H 0.3772(2) -0.0758(11) 0.9922(4)
H8 H 0.33968(12) 0.1545(3) 0.9462(7)
C6 C 0.13832(10) 0.0628(2) 0.82027(8)
C7 C -0.05879(10) 0.0868(2) 0.71081(8)
C8 C -0.02487(12) 0.0177(2) 0.62256(9)
H9 H 0.0436(5) 0.0963(12) 0.6201(4)
H10 H -0.0879(3) 0.0477(15) 0.56427(10)
H11 H -0.0085(8) -0.1356(4) 0.6264(4)
C9 C -0.07174(11) 0.3264(2) 0.71669(9)
H12 H -0.1350(5) 0.3750(3) 0.6619(4)
H13 H -0.0005(3) 0.3961(2) 0.7149(7)
H14 H -0.0881(8) 0.3628(2) 0.7770(3)
C10 C -0.16713(11) -0.0266(2) 0.71477(10)
H15 H -0.2321(2) 0.0237(12) 0.6618(4)
H16 H -0.1814(5) 0.0039(13) 0.7765(3)
H17 H -0.1579(3) -0.1806(3) 0.7085(7)
#END
