
#######################################################################
#
#                 Cambridge Crystallographic Data Centre
#                                CCDC
#
#######################################################################
#
# If this CIF has been generated from an entry in the Cambridge
# Structural Database, then it will include bibliographic, chemical,
# crystal, experimental, refinement or atomic coordinate data resulting
# from the CCDC's data processing and validation procedures.
#
#######################################################################

data_CSD_CIF_ASULAC
_audit_creation_date 2011-08-22
_audit_creation_method CSD-ConQuest-V1
_database_code_CSD ASULAC
_database_code_depnum_ccdc_archive 'CCDC 795202'
_chemical_formula_sum 'C33 H25 N1 O8'
_chemical_formula_moiety
;
C33 H25 N1 O8
;
_journal_coden_Cambridge 1336
_journal_volume 13
_journal_year 2011
_journal_page_first 688
_journal_name_full 'Org.Lett. '
loop_
_publ_author_name
"Wanxiang Zhao"
"Junliang Zhang"
_chemical_name_systematic
;
Dimethyl 
5-(4-nitrophenyl)-4-oxo-2,3-diphenyl-4,8-dihydro-3H-naphtho[1,8-bc]furan-7,7(6
H)-dicarboxylate
;
_cell_volume   2755.851
_exptl_crystal_colour 'yellow'
_exptl_crystal_density_diffrn 1.358
_exptl_crystal_description 'block'
_diffrn_ambient_temperature 296
#These two values have been output from a single CSD field.
_refine_ls_R_factor_gt 0.0414
_refine_ls_wR_factor_gt 0.0414
_symmetry_cell_setting monoclinic
_symmetry_space_group_name_H-M 'P 21/n'
_symmetry_Int_Tables_number 14
loop_
_symmetry_equiv_pos_site_id
_symmetry_equiv_pos_as_xyz
1 x,y,z
2 1/2-x,1/2+y,1/2-z
3 -x,-y,-z
4 -1/2+x,-1/2-y,-1/2+z
_cell_length_a 11.4787(9)
_cell_length_b 9.9688(8)
_cell_length_c 24.0837(18)
_cell_angle_alpha 90
_cell_angle_beta 90.213(1)
_cell_angle_gamma 90
_cell_formula_units_Z 4
loop_
_atom_type_symbol
_atom_type_radius_bond
C 0.68
H 0.23
N 0.68
O 0.68
loop_
_atom_site_label
_atom_site_type_symbol
_atom_site_fract_x
_atom_site_fract_y
_atom_site_fract_z
O1 O 0.17506(11) 0.87007(12) 0.05309(6)
O2 O 0.32438(15) 0.41674(16) 0.18460(7)
O3 O -0.18233(16) 0.86180(16) 0.10547(7)
O4 O -0.11064(12) 0.67088(13) 0.13768(6)
O5 O -0.0711(2) 1.08581(19) 0.21541(9)
O6 O -0.18571(18) 0.9107(2) 0.23060(8)
O7 O 0.0012(2) 0.3941(2) 0.44005(9)
O8 O -0.02294(17) 0.2077(2) 0.39585(9)
N1 N 0.00670(18) 0.3252(2) 0.39849(11)
C1 C 0.1399(2) 0.5737(2) 0.30161(9)
H1 H 0.17040 0.66010 0.30310
C2 C 0.0987(2) 0.5144(2) 0.34972(10)
H2 H 0.10090 0.56070 0.38320
C3 C 0.05476(19) 0.3871(2) 0.34726(10)
C4 C 0.0532(2) 0.3157(2) 0.29868(11)
H3 H 0.02460 0.22840 0.29790
C5 C 0.0947(2) 0.3751(2) 0.25083(10)
H4 H 0.09480 0.32670 0.21780
C6 C 0.13640(18) 0.50636(19) 0.25134(9)
C7 C 0.17179(18) 0.57101(19) 0.19827(8)
C8 C 0.26177(18) 0.50295(19) 0.16446(9)
C9 C 0.27541(17) 0.53268(18) 0.10198(8)
H5 H 0.35820 0.52700 0.09250
C10 C 0.23217(15) 0.67098(18) 0.08751(8)
C11 C 0.16248(16) 0.73917(17) 0.12713(8)
C12 C 0.12705(16) 0.68975(18) 0.18005(8)
C13 C 0.04244(18) 0.77946(19) 0.21036(8)
H6 H 0.08520 0.83300 0.23720
H7 H -0.01210 0.72390 0.23070
C14 C -0.02722(17) 0.87484(18) 0.17144(8)
C15 C 0.05220(19) 0.95598(19) 0.13197(9)
H8 H 0.00590 1.00280 0.10430
H9 H 0.09730 1.02140 0.15270
C16 C 0.12990(17) 0.85730(18) 0.10516(8)
C17 C 0.23843(16) 0.75264(18) 0.04236(9)
C18 C 0.29092(16) 0.74451(19) -0.01240(9)
C19 C 0.35592(17) 0.6324(2) -0.02763(10)
H10 H 0.36700 0.56290 -0.00240
C20 C 0.40393(19) 0.6240(2) -0.08001(11)
H11 H 0.44710 0.54870 -0.08970
C21 C 0.3888(2) 0.7251(3) -0.11777(11)
H12 H 0.42150 0.71870 -0.15290
C22 C 0.3248(2) 0.8364(3) -0.10332(11)
H13 H 0.31440 0.90550 -0.12880
C23 C 0.2759(2) 0.8457(2) -0.0513(1)
H14 H 0.23220 0.92100 -0.04210
C24 C 0.21092(17) 0.41989(18) 0.07231(8)
C25 C 0.2702(2) 0.30694(19) 0.05496(10)
H15 H 0.35060 0.30240 0.05950
C26 C 0.2118(3) 0.2011(2) 0.03097(10)
H16 H 0.25300 0.12620 0.01900
C27 C 0.0938(3) 0.2058(2) 0.02473(10)
H17 H 0.05430 0.13340 0.00930
C28 C 0.0338(2) 0.3172(3) 0.04125(11)
H18 H -0.04660 0.32090 0.03660
C29 C 0.09238(19) 0.4246(2) 0.06498(10)
H19 H 0.05110 0.50030 0.07600
C30 C -0.11669(18) 0.8024(2) 0.13481(8)
C31 C -0.1890(2) 0.5991(2) 0.10022(10)
H20 H -0.17880 0.50420 0.10510
H21 H -0.17160 0.62290 0.06250
H22 H -0.26810 0.62290 0.10840
C32 C -0.0955(2) 0.9719(2) 0.20810(9)
C33 C -0.2607(3) 0.9917(4) 0.26563(14)
H23 H -0.32260 0.93710 0.27990
H24 H -0.29310 1.06400 0.24420
H25 H -0.21610 1.02770 0.29600
#END
