
#######################################################################
#
#                 Cambridge Crystallographic Data Centre
#                                CCDC
#
#######################################################################
#
# If this CIF has been generated from an entry in the Cambridge
# Structural Database, then it will include bibliographic, chemical,
# crystal, experimental, refinement or atomic coordinate data resulting
# from the CCDC's data processing and validation procedures.
#
#######################################################################

data_CSD_CIF_ASUMAC
_audit_creation_date 2004-06-10
_audit_creation_method CSD-ConQuest-V1
_database_code_CSD ASUMAC
_database_code_depnum_ccdc_archive 'CCDC 238698'
_chemical_formula_sum 'C12 H11 N1 O4'
_chemical_formula_moiety
;
C12 H11 N1 O4
;
_journal_coeditor_code "IUCr WW6165"
_journal_coden_Cambridge 1370
_journal_volume 60
_journal_year 2004
_journal_page_first o486
_journal_name_full 'Acta Crystallogr.,Sect.E:Struct.Rep.Online '
loop_
_publ_author_name
"Fangjun Huo"
"Caixia Yin"
"Wei Guo"
"Chizhong Xia"
_chemical_name_systematic
;
rac-2-(Hydroxy(4-nitrophenyl)methyl)cyclopent-2-en-1-one
;
_chemical_melting_point 409
_cell_volume   1072.284
_exptl_crystal_colour 'yellow'
_exptl_crystal_density_diffrn 1.445
_exptl_crystal_description 'block'
_exptl_crystal_preparation 'chloroform'
_diffrn_ambient_temperature 183
#These two values have been output from a single CSD field.
_refine_ls_R_factor_gt 0.0694
_refine_ls_wR_factor_gt 0.0694
_symmetry_cell_setting monoclinic
_symmetry_space_group_name_H-M 'P 21/c'
_symmetry_Int_Tables_number 14
loop_
_symmetry_equiv_pos_site_id
_symmetry_equiv_pos_as_xyz
1 x,y,z
2 x,1/2-y,1/2+z
3 -x,-y,-z
4 -x,-1/2+y,-1/2-z
_cell_length_a 12.746(4)
_cell_length_b 11.657(4)
_cell_length_c 7.250(2)
_cell_angle_alpha 90
_cell_angle_beta 95.479(4)
_cell_angle_gamma 90
_cell_formula_units_Z 4
loop_
_atom_type_symbol
_atom_type_radius_bond
C 0.68
H 0.23
N 0.68
O 0.68
loop_
_atom_site_label
_atom_site_type_symbol
_atom_site_fract_x
_atom_site_fract_y
_atom_site_fract_z
O1 O 0.61859(19) -0.04164(19) 1.0523(3)
H1 H 0.58690 -0.00390 1.12860
O2 O 0.46854(17) -0.0920(2) 0.6870(3)
O3 O 1.0076(2) 0.3986(2) 1.1147(4)
O4 O 1.08198(18) 0.2501(2) 1.2363(3)
N1 N 1.0091(2) 0.2973(3) 1.1467(4)
C1 C 0.5601(3) -0.1017(3) 0.6488(4)
C2 C 0.6522(2) -0.0430(3) 0.7399(4)
C3 C 0.7351(3) -0.0700(3) 0.6512(5)
H2 H 0.80390 -0.04120 0.68600
C4 C 0.7107(3) -0.1495(3) 0.4924(5)
H3 H 0.75280 -0.22070 0.50890
H4 H 0.72490 -0.11270 0.37420
C5 C 0.5943(2) -0.1744(3) 0.4957(4)
H5 H 0.55500 -0.15370 0.37600
H6 H 0.58250 -0.25670 0.52060
C6 C 0.6442(2) 0.0320(3) 0.9060(4)
H7 H 0.58420 0.08650 0.87720
C7 C 0.7421(2) 0.1014(3) 0.9632(4)
C8 C 0.8318(2) 0.0493(3) 1.0491(4)
H8 H 0.83220 -0.03130 1.06860
C9 C 0.9201(2) 0.1123(3) 1.1065(4)
H9 H 0.98130 0.07630 1.16520
C10 C 0.9174(2) 0.2287(3) 1.0768(4)
C11 C 0.8300(2) 0.2843(3) 0.9913(4)
H10 H 0.83050 0.36480 0.97130
C12 C 0.7418(2) 0.2190(3) 0.9358(4)
H11 H 0.68040 0.25530 0.87820
#END
