
#######################################################################
#
#                 Cambridge Crystallographic Data Centre
#                                CCDC
#
#######################################################################
#
# If this CIF has been generated from an entry in the Cambridge
# Structural Database, then it will include bibliographic, chemical,
# crystal, experimental, refinement or atomic coordinate data resulting
# from the CCDC's data processing and validation procedures.
#
#######################################################################

data_CSD_CIF_ATAZAX
_audit_creation_date 2011-08-22
_audit_creation_method CSD-ConQuest-V1
_database_code_CSD ATAZAX
_database_code_depnum_ccdc_archive 'CCDC 772457'
_chemical_formula_sum 'C13 H16 N2 O2'
_chemical_formula_moiety
;
C13 H16 N2 O2
;
_journal_coden_Cambridge 16
_journal_volume 67
_journal_year 2011
_journal_page_first 3945
_journal_name_full 'Tetrahedron '
loop_
_publ_author_name
"V.Martynaitis"
"R.Steponaviciute"
"S.Krikstolaityte"
"J.Solovjova"
"S.Mangelinckx"
"N.De Kimpe"
"W.Holzer"
"A.Sackus"
_chemical_name_systematic
;
1-Hydroxy-9,9,9a-trimethyl-9,9a-dihydro-1H-imidazo[1,2-a]indol-2(3H)-one
;
_cell_volume   1237.406
_exptl_crystal_colour 'colorless'
_exptl_crystal_density_diffrn 1.247
_exptl_crystal_description 'prism'
_diffrn_ambient_temperature 198
#These two values have been output from a single CSD field.
_refine_ls_R_factor_gt 0.0517
_refine_ls_wR_factor_gt 0.0517
_symmetry_cell_setting monoclinic
_symmetry_space_group_name_H-M 'P 21/a'
_symmetry_Int_Tables_number 14
loop_
_symmetry_equiv_pos_site_id
_symmetry_equiv_pos_as_xyz
1 x,y,z
2 1/2-x,1/2+y,-z
3 -x,-y,-z
4 -1/2+x,-1/2-y,z
_cell_length_a 7.3986(1)
_cell_length_b 18.9176(2)
_cell_length_c 9.3134(5)
_cell_angle_alpha 90
_cell_angle_beta 108.3289(11)
_cell_angle_gamma 90
_cell_formula_units_Z 4
loop_
_atom_type_symbol
_atom_type_radius_bond
C 0.68
H 0.23
N 0.68
O 0.68
loop_
_atom_site_label
_atom_site_type_symbol
_atom_site_fract_x
_atom_site_fract_y
_atom_site_fract_z
O1 O 0.82978(18) 0.26099(9) 0.03058(15)
O2 O 0.58126(18) 0.14906(9) -0.01486(14)
N1 N 0.99141(18) 0.12939(8) 0.31611(16)
C1 C 1.0457(3) 0.18443(9) 0.5714(2)
N2 N 0.73337(19) 0.15933(9) 0.11780(16)
C2 C 0.9425(2) 0.14380(8) 0.44911(18)
C3 C 1.0411(2) 0.19177(11) 0.2417(2)
C4 C 0.7022(2) 0.06563(9) 0.3046(2)
C5 C 0.7786(2) 0.10861(8) 0.4485(2)
C6 C 0.7141(3) 0.11372(10) 0.5727(2)
C7 C 0.8607(2) 0.21017(11) 0.1174(2)
C8 C 0.8214(2) 0.09616(10) 0.2069(2)
C9 C 0.8782(3) 0.04447(14) 0.1029(3)
C10 C 0.9786(3) 0.18871(11) 0.6949(2)
C11 C 0.8153(4) 0.15378(12) 0.6955(2)
C12 C 0.4863(3) 0.07434(13) 0.2331(3)
C13 C 0.7498(3) -0.01296(10) 0.3417(3)
H1 H 0.48800 0.18150 -0.00770
H2 H 1.17010 0.20610 0.55940
H3 H 1.08880 0.23410 0.31570
H4 H 1.14470 0.18070 0.20390
H5 H 0.59410 0.08600 0.56270
H6 H 0.76610 0.02380 0.03350
H7 H 0.95660 0.00790 0.16280
H8 H 0.94820 0.06910 0.04730
H9 H 1.04720 0.21610 0.78180
H10 H 0.78800 0.16420 0.79070
H11 H 0.40510 0.05250 0.29630
H12 H 0.45440 0.12970 0.22500
H13 H 0.44770 0.04600 0.13650
H14 H 0.67670 -0.04150 0.23990
H15 H 0.89450 -0.01800 0.38760
H16 H 0.67700 -0.02520 0.41050
#END
