
#######################################################################
#
#                 Cambridge Crystallographic Data Centre
#                                CCDC
#
#######################################################################
#
# If this CIF has been generated from an entry in the Cambridge
# Structural Database, then it will include bibliographic, chemical,
# crystal, experimental, refinement or atomic coordinate data resulting
# from the CCDC's data processing and validation procedures.
#
#######################################################################

data_CSD_CIF_ATIXOQ
_audit_creation_date 2004-07-02
_audit_creation_method CSD-ConQuest-V1
_database_code_CSD ATIXOQ
_database_code_depnum_ccdc_archive 'CCDC 233614'
_database_code_depnum_ccdc_journal 1003/6207
_chemical_formula_sum 'C20 H11 N1 O2'
_chemical_formula_moiety
;
C20 H11 N1 O2
;
_journal_coden_Cambridge 1003
_journal_volume 33
_journal_year 2003
_journal_page_first 213
_journal_name_full 'J.Chem.Cryst. '
loop_
_publ_author_name
"S.D.Warner"
"A.-M.Lebuis"
"J.-P.Farant"
"I.S.Butler"
_chemical_name_systematic
;
6-Nitrobenzo(a)pyrene
;
_cell_volume   1328.920
_exptl_crystal_colour 'brown'
_exptl_crystal_density_diffrn 1.486
_exptl_special_details
;
environmental pollutant with mutagenic and carcinogenic activity
light-sensitive
;
_exptl_crystal_description 'plate'
_exptl_crystal_preparation 'ethyl acetate'
_diffrn_ambient_temperature 220
#These two values have been output from a single CSD field.
_refine_ls_R_factor_gt 0.0511
_refine_ls_wR_factor_gt 0.0511
_symmetry_cell_setting monoclinic
_symmetry_space_group_name_H-M 'P 21/c'
_symmetry_Int_Tables_number 14
loop_
_symmetry_equiv_pos_site_id
_symmetry_equiv_pos_as_xyz
1 x,y,z
2 x,1/2-y,1/2+z
3 -x,-y,-z
4 -x,-1/2+y,-1/2-z
_cell_length_a 8.3239(3)
_cell_length_b 8.9530(3)
_cell_length_c 18.0678(5)
_cell_angle_alpha 90
_cell_angle_beta 99.264(2)
_cell_angle_gamma 90
_cell_formula_units_Z 4
loop_
_atom_type_symbol
_atom_type_radius_bond
C 0.68
H 0.23
N 0.68
O 0.68
loop_
_atom_site_label
_atom_site_type_symbol
_atom_site_fract_x
_atom_site_fract_y
_atom_site_fract_z
N1 N 0.6127(2) 0.87485(19) -0.08504(10)
O1 O 0.4788(2) 0.92334(19) -0.08208(13)
O2 O 0.7150(2) 0.94500(19) -0.11198(10)
C1 C 1.1063(2) 0.4001(3) 0.19565(12)
C2 C 1.1713(3) 0.5258(3) 0.23271(12)
C3 C 1.1233(2) 0.6663(3) 0.20609(11)
C4 C 1.0076(2) 0.6840(2) 0.14137(11)
C5 C 0.9377(2) 0.5550(2) 0.10331(10)
C6 C 0.9555(2) 0.8282(2) 0.11217(12)
C7 C 0.8445(2) 0.8441(2) 0.05007(12)
C8 C 0.7717(2) 0.71600(19) 0.0096(1)
C9 C 0.8185(2) 0.56958(19) 0.03705(10)
C10 C 0.6571(2) 0.7250(2) -0.05444(10)
C11 C 0.5814(2) 0.6008(2) -0.0944(1)
C12 C 0.4659(2) 0.6151(3) -0.16128(11)
C13 C 0.3989(3) 0.4911(3) -0.19759(12)
C14 C 0.4427(3) 0.3484(3) -0.17025(12)
C15 C 0.5545(2) 0.3314(2) -0.10648(12)
C16 C 0.6282(2) 0.4565(2) -0.06686(10)
C17 C 0.7490(2) 0.44083(19) -0.00045(10)
C18 C 0.8037(2) 0.2982(2) 0.02906(12)
C19 C 0.9172(2) 0.2844(2) 0.09119(12)
C20 C 0.9880(2) 0.4114(2) 0.13069(11)
H1 H 1.141(3) 0.297(3) 0.2117(12)
H2 H 1.253(3) 0.513(2) 0.2752(12)
H3 H 1.174(3) 0.759(2) 0.2314(11)
H4 H 1.010(2) 0.914(2) 0.1374(11)
H5 H 0.813(2) 0.945(2) 0.0311(10)
H6 H 0.440(3) 0.714(3) -0.1808(12)
H7 H 0.325(3) 0.510(3) -0.2432(13)
H8 H 0.395(3) 0.257(2) -0.1973(12)
H9 H 0.587(2) 0.239(2) -0.088(1)
H10 H 0.756(2) 0.208(2) 0.0032(11)
H11 H 0.954(2) 0.181(3) 0.1101(11)
#END
