
#######################################################################
#
#                 Cambridge Crystallographic Data Centre
#                                CCDC
#
#######################################################################
#
# If this CIF has been generated from an entry in the Cambridge
# Structural Database, then it will include bibliographic, chemical,
# crystal, experimental, refinement or atomic coordinate data resulting
# from the CCDC's data processing and validation procedures.
#
#######################################################################

data_CSD_CIF_ATOTUY
_audit_creation_date 2004-07-02
_audit_creation_method CSD-ConQuest-V1
_database_code_CSD ATOTUY
_database_code_depnum_ccdc_archive 'CCDC 212026'
_chemical_formula_sum 'C14 H13 N1 O2'
_chemical_formula_moiety
;
C14 H13 N1 O2
;
_journal_coden_Cambridge 10
_journal_volume 87
_journal_year 2004
_journal_page_first 106
_journal_name_full 'Helv.Chim.Acta '
loop_
_publ_author_name
"A.S.Demir"
"O.Sesenoglu"
"D.Ulku"
"C.Arici"
_chemical_name_systematic
;
(E)-(Furan-2-yl)(2-phenylcyclopropyl)methanone oxime
;
_cell_volume   1204.331
_exptl_crystal_colour 'colorless'
_exptl_crystal_density_diffrn 1.264
_exptl_crystal_description 'prism'
_exptl_crystal_preparation 'hexane/diethyl ether'
_diffrn_ambient_temperature ?
_diffrn_special_details
;
The study was carried out at room temperature,in the range 283-303K

;
#These two values have been output from a single CSD field.
_refine_ls_R_factor_gt 0.0792
_refine_ls_wR_factor_gt 0.0792
_symmetry_cell_setting monoclinic
_symmetry_space_group_name_H-M 'P 21/n'
_symmetry_Int_Tables_number 14
loop_
_symmetry_equiv_pos_site_id
_symmetry_equiv_pos_as_xyz
1 x,y,z
2 1/2-x,1/2+y,1/2-z
3 -x,-y,-z
4 -1/2+x,-1/2-y,-1/2+z
_cell_length_a 13.9937(12)
_cell_length_b 6.1683(11)
_cell_length_c 14.3233(14)
_cell_angle_alpha 90
_cell_angle_beta 103.068(4)
_cell_angle_gamma 90
_cell_formula_units_Z 4
loop_
_atom_type_symbol
_atom_type_radius_bond
C 0.68
H 0.23
N 0.68
O 0.68
loop_
_atom_site_label
_atom_site_type_symbol
_atom_site_fract_x
_atom_site_fract_y
_atom_site_fract_z
C1 C 0.8918(10) 0.761(2) 0.4485(7)
H1 H 0.95310 0.81930 0.48140
C2 C 0.3586(5) 0.2780(16) 0.1795(4)
H2 H 0.36710 0.42370 0.16140
C3 C 0.2939(7) 0.130(2) 0.1268(5)
H3 H 0.25230 0.15280 0.06530
C4 C 0.3009(6) -0.0406(19) 0.1762(7)
H4 H 0.26320 -0.16810 0.15820
O1 O 0.3716(4) -0.0156(12) 0.2608(3)
N1 N 0.4909(3) 0.1378(8) 0.4152(3)
C5 C 0.5346(5) 0.4694(13) 0.3403(4)
H5 H 0.53680 0.56290 0.39780
C6 C 0.5416(4) 0.5885(13) 0.2526(5)
H6 H 0.50560 0.52930 0.19030
H7 H 0.54450 0.74880 0.25600
C7 C 0.6260(5) 0.4683(11) 0.3048(4)
H8 H 0.63870 0.32960 0.27360
C8 C 0.7176(5) 0.5818(9) 0.3601(4)
C9 C 0.8047(5) 0.4822(11) 0.3610(4)
H9 H 0.80440 0.34600 0.33000
C10 C 0.8924(6) 0.5728(15) 0.4054(5)
H10 H 0.95250 0.50130 0.40510
C11 C 0.8101(12) 0.8772(17) 0.4493(7)
H11 H 0.81350 1.01700 0.47760
C12 C 0.7202(7) 0.7810(12) 0.4062(5)
H12 H 0.66060 0.85240 0.40840
C13 C 0.4793(4) 0.2571(12) 0.3403(3)
C14 C 0.4064(5) 0.1836(14) 0.2586(4)
O2 O 0.5667(3) 0.2092(7) 0.4908(2)
H13 H 0.55430 0.33530 0.50680
#END
