
#######################################################################
#
#                 Cambridge Crystallographic Data Centre
#                                CCDC
#
#######################################################################
#
# If this CIF has been generated from an entry in the Cambridge
# Structural Database, then it will include bibliographic, chemical,
# crystal, experimental, refinement or atomic coordinate data resulting
# from the CCDC's data processing and validation procedures.
#
#######################################################################

data_CSD_CIF_ATOVAG
_audit_creation_date 2004-07-02
_audit_creation_method CSD-ConQuest-V1
_database_code_CSD ATOVAG
_database_code_depnum_ccdc_archive 'CCDC 212027'
_chemical_formula_sum 'C15 H15 N1 O2'
_chemical_formula_moiety
;
C15 H15 N1 O2
;
_journal_coden_Cambridge 10
_journal_volume 87
_journal_year 2004
_journal_page_first 106
_journal_name_full 'Helv.Chim.Acta '
loop_
_publ_author_name
"A.S.Demir"
"O.Sesenoglu"
"D.Ulku"
"C.Arici"
_chemical_name_systematic
;
(E)-(Furan-2-yl)(2-(3-methylphenyl)cyclopropyl)methanone oxime
;
_cell_volume   2536.823
_exptl_crystal_colour 'colorless'
_exptl_crystal_density_diffrn 1.263
_exptl_special_details
;
Space group published as Pbca

;
_exptl_crystal_description 'prism'
_exptl_crystal_preparation 'hexane/diethyl ether'
_diffrn_ambient_temperature ?
_diffrn_special_details
;
The study was carried out at room temperature,in the range 283-303K

;
#These two values have been output from a single CSD field.
_refine_ls_R_factor_gt 0.0464
_refine_ls_wR_factor_gt 0.0464
loop_
_citation_database_id_CSD
_citation_special_details
ATOVEK "is a stereoisomer of this entry"
_symmetry_cell_setting orthorhombic
_symmetry_space_group_name_H-M 'P c a b'
_symmetry_Int_Tables_number 61
loop_
_symmetry_equiv_pos_site_id
_symmetry_equiv_pos_as_xyz
1 x,y,z
2 -x,1/2-y,1/2+z
3 1/2+x,-y,1/2-z
4 1/2-x,1/2+y,-z
5 -x,-y,-z
6 x,-1/2+y,-1/2-z
7 -1/2-x,y,-1/2+z
8 -1/2+x,-1/2-y,z
_cell_length_a 6.9182(11)
_cell_length_b 14.3302(12)
_cell_length_c 25.5885(14)
_cell_angle_alpha 90
_cell_angle_beta 90
_cell_angle_gamma 90
_cell_formula_units_Z 8
loop_
_atom_type_symbol
_atom_type_radius_bond
C 0.68
H 0.23
N 0.68
O 0.68
loop_
_atom_site_label
_atom_site_type_symbol
_atom_site_fract_x
_atom_site_fract_y
_atom_site_fract_z
C1 C -0.0606(3) 0.80865(12) 0.52440(7)
H1 H -0.08040 0.75870 0.50060
C2 C -0.1761(3) 0.82790(13) 0.56457(8)
H2 H -0.28960 0.79510 0.57450
C3 C -0.0957(2) 0.90719(12) 0.58956(7)
H3 H -0.14570 0.93790 0.61950
C4 C 0.0647(2) 0.93077(10) 0.56291(6)
C5 C 0.2091(2) 1.00307(10) 0.57138(6)
C6 C 0.1851(2) 1.06254(10) 0.61871(6)
H4 H 0.23310 1.03370 0.65190
C7 C 0.1987(3) 1.16638(11) 0.61703(7)
H5 H 0.22490 1.19590 0.58280
H6 H 0.25850 1.19820 0.64730
C8 C 0.0039(2) 1.12222(11) 0.62493(6)
H7 H -0.08150 1.12360 0.59340
C9 C -0.1019(2) 1.12272(10) 0.67573(6)
C10 C -0.2980(2) 1.10148(12) 0.67640(7)
H8 H -0.36350 1.08920 0.64450
C11 C -0.3983(3) 1.09803(13) 0.72291(8)
H9 H -0.53190 1.08270 0.72290
C12 C -0.3055(3) 1.11672(12) 0.76944(7)
H10 H -0.37610 1.11440 0.80130
C13 C -0.1106(3) 1.13885(11) 0.77032(6)
C14 C -0.0113(2) 1.14200(11) 0.72296(6)
H11 H 0.12210 1.15780 0.72300
C15 C -0.0069(3) 1.15808(17) 0.82093(7)
H12 H 0.12920 1.17200 0.81370
H13 H -0.01550 1.10310 0.84360
H14 H -0.06690 1.21160 0.83840
N1 N 0.34907(19) 1.00563(9) 0.53870(5)
O1 O 0.09042(16) 0.87013(8) 0.52193(4)
O2 O 0.48988(17) 1.07270(9) 0.54987(5)
H15 H 0.57680 1.07070 0.52700
#END
