
#######################################################################
#
#                 Cambridge Crystallographic Data Centre
#                                CCDC
#
#######################################################################
#
# If this CIF has been generated from an entry in the Cambridge
# Structural Database, then it will include bibliographic, chemical,
# crystal, experimental, refinement or atomic coordinate data resulting
# from the CCDC's data processing and validation procedures.
#
#######################################################################

data_CSD_CIF_ATUMAD
_audit_creation_date 2004-07-02
_audit_creation_method CSD-ConQuest-V1
_database_code_CSD ATUMAD
_database_code_depnum_ccdc_archive 'CCDC 220603'
_chemical_formula_sum 'C18 H15 N5 O5'
_chemical_formula_moiety
;
C18 H15 N5 O5
;
_journal_coden_Cambridge 1090
_journal_volume 15
_journal_year 2004
_journal_page_first 867
_journal_name_full 'Tetrahedron:Asymm. '
loop_
_publ_author_name
"A.Scheurer"
"W.Bauer"
"F.Hampel"
"C.Schmidt"
"R.W.Saalfrank"
"P.Mosset"
"R.Puchta"
"N.J.R.van E.Hommes"
_chemical_name_systematic
;
p-Nitrobenzoic acid (2S)-azido-2-(2-phenyl-4,5-dihydrooxazol-(4S)-yl)ethyl 
ester
;
_cell_volume    863.317
_exptl_crystal_colour 'yellow'
_exptl_crystal_density_diffrn 1.467
_exptl_crystal_description 'block'
_exptl_crystal_preparation 'deuterochloroform'
_diffrn_ambient_temperature 173
#These two values have been output from a single CSD field.
_refine_ls_R_factor_gt 0.0467
_refine_ls_wR_factor_gt 0.0467
_symmetry_cell_setting monoclinic
_symmetry_space_group_name_H-M 'P 21'
_symmetry_Int_Tables_number 4
loop_
_symmetry_equiv_pos_site_id
_symmetry_equiv_pos_as_xyz
1 x,y,z
2 -x,1/2+y,-z
_cell_length_a 5.0702(2)
_cell_length_b 30.3384(11)
_cell_length_c 5.6305(1)
_cell_angle_alpha 90
_cell_angle_beta 94.589(2)
_cell_angle_gamma 90
_cell_formula_units_Z 2
loop_
_atom_type_symbol
_atom_type_radius_bond
C 0.68
H 0.23
N 0.68
O 0.68
loop_
_atom_site_label
_atom_site_type_symbol
_atom_site_fract_x
_atom_site_fract_y
_atom_site_fract_z
O1 O 0.8533(6) 0.32256(7) 0.1774(5)
N1 N 0.8164(8) 0.40380(9) -0.0534(7)
C1 C 1.0762(10) 0.38765(10) 0.0552(7)
H1 H 1.17370 0.37250 -0.06900
O2 O 0.9645(8) 0.28609(8) 0.5195(6)
C2 C 1.0423(10) 0.35651(10) 0.2580(8)
H2 H 1.21430 0.34290 0.31120
H3 H 0.97700 0.37270 0.39410
N2 N 0.7001(9) 0.37979(11) -0.2064(8)
N3 N 0.5686(9) 0.36148(11) -0.3464(8)
O3 O -0.1263(8) 0.17341(8) -0.1293(7)
C3 C 0.8318(11) 0.28940(11) 0.3349(10)
O4 O -0.0447(7) 0.13936(9) 0.2026(6)
N4 N -0.0030(9) 0.16859(9) 0.0619(9)
C4 C 0.8218(8) 0.52279(11) 0.2826(8)
C5 C 0.6881(10) 0.51579(11) 0.4856(8)
H4 H 0.72470 0.49050 0.58190
C6 C 0.5009(10) 0.54624(11) 0.5454(8)
H5 H 0.40820 0.54150 0.68330
C7 C 0.4469(10) 0.58341(12) 0.4073(9)
H6 H 0.31720 0.60400 0.44910
C8 C 0.5830(11) 0.59014(12) 0.2092(10)
H7 H 0.54750 0.61570 0.11460
C9 C 0.7692(10) 0.56056(11) 0.1458(9)
H8 H 0.86250 0.56580 0.00880
C10 C 1.2309(9) 0.42846(10) 0.1449(8)
H9 H 1.40250 0.41950 0.23140
C11 C 1.2805(10) 0.46168(11) -0.0524(8)
H10 H 1.46810 0.47110 -0.04200
H11 H 1.23390 0.44890 -0.21200
O5 O 1.1091(6) 0.49815(7) -0.0071(5)
C12 C 1.0069(9) 0.48943(10) 0.2053(8)
N5 N 1.0669(8) 0.45305(9) 0.3077(6)
C13 C 0.6131(10) 0.25794(10) 0.2523(8)
C14 C 0.5648(10) 0.22308(11) 0.4044(8)
H12 H 0.66940 0.21950 0.55070
C15 C 0.3624(10) 0.19377(12) 0.3395(9)
H13 H 0.32620 0.16980 0.44070
C16 C 0.2164(10) 0.19972(11) 0.1293(9)
C17 C 0.2588(10) 0.23389(10) -0.0265(8)
H14 H 0.15380 0.23710 -0.17290
C18 C 0.4612(10) 0.26327(11) 0.0402(9)
H15 H 0.49530 0.28730 -0.06130
#END
