
#######################################################################
#
#                 Cambridge Crystallographic Data Centre
#                                CCDC
#
#######################################################################
#
# If this CIF has been generated from an entry in the Cambridge
# Structural Database, then it will include bibliographic, chemical,
# crystal, experimental, refinement or atomic coordinate data resulting
# from the CCDC's data processing and validation procedures.
#
#######################################################################

data_CSD_CIF_AVAHIO
_audit_creation_date 2004-07-21
_audit_creation_method CSD-ConQuest-V1
_database_code_CSD AVAHIO
_database_code_depnum_ccdc_archive 'CCDC 215674 (not 214521 as published)'
_chemical_formula_sum 'C12 H21 N3 O4'
_chemical_formula_moiety
;
C12 H21 N3 O4
;
_journal_coden_Cambridge 1291
_journal_year 2004
_journal_page_first 749
_journal_name_full 'Eur.J.Org.Chem. '
loop_
_publ_author_name
"V.A.Reznikov"
"G.I.Roshchupkina"
"D.G.Mazhukin"
"P.A.Petrov"
"S.A.Popov"
"S.V.Fokin"
"G.V.Romanenko"
"T.V.Rybalova"
"Y.V.Gatilov"
"Y.G.Shvedenkov"
"I.G.Irtegova"
"L.A.Shundrin"
"V.I.Ovcharenko"
_chemical_name_systematic
;
Ethyl 2-(1-hydroxy-4,4,5,5-tetramethylimidazolidin-2-ylidene)malonamate
;
_chemical_melting_point 398.15
_cell_volume    727.628
_exptl_crystal_density_diffrn 1.238
_exptl_special_details
;
Melting point range 398.15-401.15K

;
_exptl_crystal_preparation 'diethyl ether'
_diffrn_ambient_temperature 293
#These two values have been output from a single CSD field.
_refine_ls_R_factor_gt 0.0508
_refine_ls_wR_factor_gt 0.0508
_symmetry_cell_setting triclinic
_symmetry_space_group_name_H-M 'P -1'
_symmetry_Int_Tables_number 2
loop_
_symmetry_equiv_pos_site_id
_symmetry_equiv_pos_as_xyz
1 x,y,z
2 -x,-y,-z
_cell_length_a 7.6330(15)
_cell_length_b 9.993(2)
_cell_length_c 10.691(2)
_cell_angle_alpha 65.52(3)
_cell_angle_beta 79.86(3)
_cell_angle_gamma 81.18(3)
_cell_formula_units_Z 2
loop_
_atom_type_symbol
_atom_type_radius_bond
C 0.68
H 0.23
N 0.68
O 0.68
loop_
_atom_site_label
_atom_site_type_symbol
_atom_site_fract_x
_atom_site_fract_y
_atom_site_fract_z
N1 N 0.1640(4) 0.7052(3) 0.6333(3)
H1 H 0.106(5) 0.750(4) 0.571(4)
C1 C 0.1685(4) 0.5432(3) 0.6957(3)
C2 C 0.2437(6) 0.4804(5) 0.5880(4)
H2 H 0.171(5) 0.511(4) 0.521(4)
H3 H 0.367(6) 0.519(4) 0.537(4)
H4 H 0.267(5) 0.380(5) 0.628(4)
C3 C -0.0193(5) 0.4986(4) 0.7561(4)
H5 H -0.020(5) 0.385(5) 0.803(4)
H6 H -0.095(5) 0.545(4) 0.686(4)
H7 H -0.074(4) 0.527(4) 0.829(4)
C4 C 0.2925(4) 0.5076(3) 0.8094(3)
C5 C 0.4914(5) 0.5073(5) 0.7542(4)
H8 H 0.547(5) 0.499(4) 0.831(5)
H9 H 0.526(5) 0.416(4) 0.733(4)
H10 H 0.513(5) 0.593(4) 0.666(4)
C6 C 0.2581(6) 0.3702(4) 0.9391(4)
H11 H 0.281(5) 0.289(4) 0.914(4)
H12 H 0.119(6) 0.369(4) 0.983(4)
H13 H 0.334(4) 0.357(3) 1.001(4)
N2 N 0.2388(3) 0.6426(3) 0.8376(2)
O1 O 0.3369(3) 0.6609(2) 0.9271(2)
H14 H 0.243(6) 0.728(5) 0.959(4)
C7 C 0.1923(4) 0.7582(3) 0.7241(3)
C8 C 0.1639(4) 0.9099(3) 0.7055(3)
C9 C 0.1854(4) 1.0245(3) 0.5682(3)
O2 O 0.1464(3) 1.1572(2) 0.5360(2)
O3 O 0.2627(3) 0.9742(2) 0.4708(2)
C10 C 0.3143(6) 1.0792(4) 0.3327(4)
H15 H 0.403(5) 1.146(4) 0.340(4)
H16 H 0.210(6) 1.135(5) 0.301(4)
C11 C 0.3978(9) 0.9928(6) 0.2495(5)
H17 H 0.299(7) 0.937(6) 0.243(5)
H18 H 0.445(6) 1.065(5) 0.152(6)
H19 H 0.483(7) 0.934(6) 0.291(6)
C12 C 0.1070(4) 0.9457(3) 0.8259(3)
N3 N 0.0625(5) 1.0874(3) 0.8070(4)
H20 H 0.067(5) 1.150(4) 0.721(4)
H21 H 0.010(6) 1.106(5) 0.884(5)
O4 O 0.0922(3) 0.8496(2) 0.9479(2)
#END
