
#######################################################################
#
#                 Cambridge Crystallographic Data Centre
#                                CCDC
#
#######################################################################
#
# If this CIF has been generated from an entry in the Cambridge
# Structural Database, then it will include bibliographic, chemical,
# crystal, experimental, refinement or atomic coordinate data resulting
# from the CCDC's data processing and validation procedures.
#
#######################################################################

data_CSD_CIF_AVUZIB
_audit_creation_date 2011-10-18
_audit_creation_method CSD-ConQuest-V1
_database_code_CSD AVUZIB
_database_code_depnum_ccdc_archive 'CCDC 727318'
_chemical_formula_sum 'C14 H12 N2 O3'
_chemical_formula_moiety
;
C14 H12 N2 O3
;
_journal_coden_Cambridge 119
_journal_volume 994
_journal_year 2011
_journal_page_first 371
_journal_name_full 'J.Mol.Struct. '
loop_
_publ_author_name
"X.H.Zhang"
"L.Y.Wang"
"Y.H.Zhan"
"Y.L.Fu"
"G.H.Zhai"
"Z.Y.Wen"
_chemical_name_systematic
;
4-((5-Methoxy-1H-indol-3-yl)methylene)-3-methyl-1,2-oxazol-5(4H)-one
;
_chemical_name_common
;
3-methyl-4-(3-(5-methoxy-1H-indole)methylene)-isoxazol-5(4H)-one
;
_chemical_melting_point 508.15
_cell_volume   1217.942
_exptl_crystal_density_diffrn 1.398
_exptl_special_details
;
Melting point range 508.15-510.15K

;
_diffrn_ambient_temperature 298
#These two values have been output from a single CSD field.
_refine_ls_R_factor_gt 0.0474
_refine_ls_wR_factor_gt 0.0474
_symmetry_cell_setting monoclinic
_symmetry_space_group_name_H-M 'P 21/n'
_symmetry_Int_Tables_number 14
loop_
_symmetry_equiv_pos_site_id
_symmetry_equiv_pos_as_xyz
1 x,y,z
2 1/2-x,1/2+y,1/2-z
3 -x,-y,-z
4 -1/2+x,-1/2-y,-1/2+z
_cell_length_a 6.4195(16)
_cell_length_b 7.5759(19)
_cell_length_c 25.181(6)
_cell_angle_alpha 90
_cell_angle_beta 95.995(3)
_cell_angle_gamma 90
_cell_formula_units_Z 4
loop_
_atom_type_symbol
_atom_type_radius_bond
C 0.68
H 0.23
N 0.68
O 0.68
loop_
_atom_site_label
_atom_site_type_symbol
_atom_site_fract_x
_atom_site_fract_y
_atom_site_fract_z
N1 N 0.7631(3) 0.8888(3) 0.50501(7)
N2 N -0.0979(3) 0.4803(3) 0.39763(7)
H1 H -0.19960 0.43130 0.41180
O1 O 0.6221(3) 0.7939(2) 0.53651(6)
O2 O 0.3282(3) 0.6374(2) 0.52272(6)
O3 O 0.0744(3) 0.5447(2) 0.19020(6)
C1 C 0.7967(4) 0.9571(3) 0.41315(9)
H2 H 0.91900 1.01730 0.42910
H3 H 0.70350 1.04050 0.39440
H4 H 0.83710 0.86970 0.38860
C2 C 0.6887(4) 0.8695(3) 0.45555(9)
C3 C 0.5006(3) 0.7654(3) 0.44923(8)
C4 C 0.4639(4) 0.7214(3) 0.50372(9)
C5 C 0.3902(3) 0.7207(3) 0.40185(8)
H5 H 0.45010 0.76010 0.37190
C6 C 0.2014(4) 0.6254(3) 0.38977(8)
C7 C 0.0672(4) 0.5574(3) 0.42474(9)
H6 H 0.08970 0.56460 0.46180
C8 C -0.0815(4) 0.4911(3) 0.34327(9)
C9 C -0.2121(4) 0.4238(3) 0.30081(10)
H7 H -0.33570 0.36560 0.30610
C10 C -0.1513(4) 0.4465(3) 0.25057(9)
H8 H -0.23480 0.40210 0.22120
C11 C 0.0345(4) 0.5358(3) 0.24280(8)
C12 C 0.1635(4) 0.6047(3) 0.28502(8)
H9 H 0.28560 0.66480 0.27940
C13 C 0.1048(4) 0.5815(3) 0.33667(8)
C14 C 0.2688(4) 0.6147(4) 0.17828(10)
H10 H 0.28310 0.73360 0.19130
H11 H 0.27420 0.61420 0.14030
H12 H 0.38090 0.54390 0.19510
#END
