
#######################################################################
#
#                 Cambridge Crystallographic Data Centre
#                                CCDC
#
#######################################################################
#
# If this CIF has been generated from an entry in the Cambridge
# Structural Database, then it will include bibliographic, chemical,
# crystal, experimental, refinement or atomic coordinate data resulting
# from the CCDC's data processing and validation procedures.
#
#######################################################################

data_CSD_CIF_AWENIB02
_audit_creation_date 2016-09-23
_audit_creation_method CSD-ConQuest-V1
_database_code_CSD AWENIB02
_database_code_depnum_ccdc_archive 'CCDC 1498919'
_chemical_formula_sum 'C13 H9 N1 O5'
_chemical_formula_moiety
;
C13 H9 N1 O5
;
_journal_coden_Cambridge 177
_journal_volume 14
_journal_year 2016
_journal_page_first 9768
_journal_name_full 'Org.Biomol.Chem. '
loop_
_publ_author_name
"Asik Hossian"
"Ranjan Jana"
_chemical_name_systematic
;
phenyl 2-hydroxy-5-nitrobenzoate
;
_cell_volume   1215.174
_exptl_crystal_colour 'white'
_exptl_crystal_density_diffrn 1.417
_exptl_crystal_description 'Block'
_exptl_crystal_preparation 'Chloroform'
_diffrn_ambient_temperature 293.1
#These two values have been output from a single CSD field.
_refine_ls_R_factor_gt 0.0468
_refine_ls_wR_factor_gt 0.0468
_symmetry_cell_setting monoclinic
_symmetry_space_group_name_H-M 'P 21/c'
_symmetry_Int_Tables_number 14
loop_
_symmetry_equiv_pos_site_id
_symmetry_equiv_pos_as_xyz
1 x,y,z
2 -x,1/2+y,1/2-z
3 -x,-y,-z
4 x,-1/2-y,-1/2+z
_cell_length_a 10.7430(9)
_cell_length_b 16.6008(14)
_cell_length_c 6.9203(7)
_cell_angle_alpha 90
_cell_angle_beta 100.069(5)
_cell_angle_gamma 90
_cell_formula_units_Z 4
loop_
_atom_type_symbol
_atom_type_radius_bond
C 0.68
H 0.23
N 0.68
O 0.68
loop_
_atom_site_label
_atom_site_type_symbol
_atom_site_fract_x
_atom_site_fract_y
_atom_site_fract_z
O1 O 0.23910(11) 0.44958(7) 0.5945(2)
N1 N 0.28180(16) 0.15210(9) 0.6052(2)
C1 C 0.18083(16) 0.52644(10) 0.5814(3)
O2 O 0.43085(12) 0.50269(7) 0.6993(2)
C2 C 0.1720(2) 0.56763(13) 0.7502(4)
H1 H 0.20940 0.54770 0.87220
O3 O 0.62155(11) 0.40311(8) 0.8076(2)
H2 H 0.58680 0.44710 0.79000
C3 C 0.1065(2) 0.63918(15) 0.7345(5)
H3 H 0.09950 0.66800 0.84740
O4 O 0.17139(15) 0.16714(9) 0.5447(3)
C4 C 0.0524(2) 0.66804(15) 0.5582(6)
H4 H 0.00880 0.71660 0.55010
O5 O 0.32145(15) 0.08333(8) 0.6213(3)
C5 C 0.0613(2) 0.62645(17) 0.3914(5)
H5 H 0.02300 0.64670 0.27020
C6 C 0.12812(19) 0.55302(13) 0.4011(4)
H6 H 0.13560 0.52420 0.28840
C7 C 0.36347(16) 0.44456(10) 0.6601(3)
C8 C 0.40844(15) 0.36038(9) 0.6801(2)
C9 C 0.32579(16) 0.29618(9) 0.6314(2)
H7 H 0.24070 0.30560 0.58330
C10 C 0.37078(16) 0.21851(9) 0.6548(2)
C11 C 0.49739(17) 0.20207(10) 0.7250(3)
H8 H 0.52600 0.14920 0.73880
C12 C 0.57972(16) 0.26504(11) 0.7737(3)
H9 H 0.66470 0.25470 0.82070
C13 C 0.53675(16) 0.34474(10) 0.7530(3)
#END
