
#######################################################################
#
#                 Cambridge Crystallographic Data Centre
#                                CCDC
#
#######################################################################
#
# If this CIF has been generated from an entry in the Cambridge
# Structural Database, then it will include bibliographic, chemical,
# crystal, experimental, refinement or atomic coordinate data resulting
# from the CCDC's data processing and validation procedures.
#
#######################################################################

data_CSD_CIF_AWIWUZ01
_audit_creation_date 2014-05-22
_audit_creation_method CSD-ConQuest-V1
_database_code_CSD AWIWUZ01
_database_code_depnum_ccdc_archive 'CCDC 1004720'
_database_code_depnum_ccdc_journal 1267/2682
_chemical_formula_sum 'C8 H10 N2 O2'
_chemical_formula_moiety
;
C8 H10 N2 O2
;
_journal_coden_Cambridge 1267
_journal_volume 224
_journal_year 2009
_journal_page_first 547
_journal_name_full 'Z.Kristallogr.-New Cryst.Struct. '
loop_
_publ_author_name
"Xi Mai"
"Hong-Ying Xia"
"Yu-Sheng Cao"
"Xiao-San Lu"
"Yi-Jing Liao"
_chemical_name_systematic
;
1-(benzyloxy)urea
;
_cell_volume    848.731
_exptl_crystal_colour 'colorless'
_exptl_crystal_density_diffrn 1.301
_exptl_crystal_description 'needle'
_exptl_crystal_preparation 'acetone/chloroform'
_diffrn_ambient_temperature 296
#These two values have been output from a single CSD field.
_refine_ls_R_factor_gt 0.0574
_refine_ls_wR_factor_gt 0.0574
_symmetry_cell_setting monoclinic
_symmetry_space_group_name_H-M 'P 21/c'
_symmetry_Int_Tables_number 14
loop_
_symmetry_equiv_pos_site_id
_symmetry_equiv_pos_as_xyz
1 x,y,z
2 -x,1/2+y,1/2-z
3 -x,-y,-z
4 x,-1/2-y,-1/2+z
_cell_length_a 12.456(3)
_cell_length_b 5.0081(13)
_cell_length_c 13.681(4)
_cell_angle_alpha 90
_cell_angle_beta 96.017(4)
_cell_angle_gamma 90
_cell_formula_units_Z 4
loop_
_atom_type_symbol
_atom_type_radius_bond
C 0.68
H 0.23
N 0.68
O 0.68
loop_
_atom_site_label
_atom_site_type_symbol
_atom_site_fract_x
_atom_site_fract_y
_atom_site_fract_z
C1 C 0.2619(2) 1.1055(6) 1.00658(19)
H1 H 0.23760 1.04450 1.06790
H2 H 0.25030 1.29660 1.00090
C2 C 0.2072(2) 0.9724(5) 0.92707(18)
C3 C 0.1237(3) 0.7997(8) 0.9473(2)
H3 H 0.10550 0.77310 1.01080
C4 C 0.0739(4) 0.6807(10) 0.8728(3)
H4 H 0.01820 0.56140 0.88090
C5 C 0.2393(3) 1.0227(8) 0.8299(2)
H5 H 0.29540 1.14000 0.82150
C6 C 0.1052(3) 0.7341(8) 0.7781(3)
H6 H 0.06620 0.64870 0.72540
C7 C 0.1894(3) 0.9035(9) 0.7559(2)
H7 H 0.20740 0.92710 0.69220
O1 O 0.37421(13) 1.0419(3) 1.00284(12)
N1 N 0.38869(16) 0.7727(4) 1.03028(13)
H8 H 0.36800 0.64090 0.99260
C8 C 0.43575(18) 0.7452(4) 1.11692(15)
O2 O 0.47237(15) 0.5232(3) 1.13619(11)
N2 N 0.43326(17) 0.9545(4) 1.17602(14)
H9 H 0.45990 0.94260 1.23650
H10 H 0.40500 1.10210 1.15390
#END
