
#######################################################################
#
#                 Cambridge Crystallographic Data Centre
#                                CCDC
#
#######################################################################
#
# If this CIF has been generated from an entry in the Cambridge
# Structural Database, then it will include bibliographic, chemical,
# crystal, experimental, refinement or atomic coordinate data resulting
# from the CCDC's data processing and validation procedures.
#
#######################################################################

data_CSD_CIF_AWIXEL
_audit_creation_date 2016-09-26
_audit_creation_method CSD-ConQuest-V1
_database_code_CSD AWIXEL
_database_code_depnum_ccdc_archive 'CCDC 1496575'
_chemical_formula_sum 'C17 H31 N1 O4'
_chemical_formula_moiety
;
C17 H31 N1 O4
;
_journal_coden_Cambridge 1748
_journal_volume 3
_journal_year 2016
_journal_page_first 1651
_journal_name_full 'Org.Chem.Front. '
loop_
_publ_author_name
"F.M.Cordero"
"C.Vurchio"
"C.Faggi"
"A.Brandi"
_chemical_name_systematic
;
(4',5'-di-t-butoxytetrahydro-3'H-spiro[cyclopropane-1,2'-pyrrolo[1,2-b][1,2]ox
azol]-3'-yl)methanol
;
_chemical_name_common
;
((3'S,3a'R,4'R,5'R)-4',5'-di-tert-butoxytetrahydro-3'H-spiro[cyclopropane-1,2'
-pyrrolo[1,2-b]isoxazol]-3'-yl)methanol
;
_cell_volume   1880.154
_exptl_crystal_colour 'white'
_exptl_crystal_density_diffrn 1.107
_exptl_crystal_description 'prismatic'
_diffrn_ambient_temperature 100
#These two values have been output from a single CSD field.
_refine_ls_R_factor_gt 0.0456
_refine_ls_wR_factor_gt 0.0456
loop_
_citation_database_id_CSD
_citation_special_details
AWIXIP "is a stereoisomer of this entry"
_symmetry_cell_setting orthorhombic
_symmetry_space_group_name_H-M 'P 21 21 2'
_symmetry_Int_Tables_number 18
loop_
_symmetry_equiv_pos_site_id
_symmetry_equiv_pos_as_xyz
1 x,y,z
2 -x,-y,z
3 1/2+x,1/2-y,-z
4 1/2-x,1/2+y,-z
_cell_length_a 17.643(1)
_cell_length_b 16.144(1)
_cell_length_c 6.601(1)
_cell_angle_alpha 90
_cell_angle_beta 90
_cell_angle_gamma 90
_cell_formula_units_Z 4
loop_
_atom_type_symbol
_atom_type_radius_bond
C 0.68
H 0.23
N 0.68
O 0.68
loop_
_atom_site_label
_atom_site_type_symbol
_atom_site_fract_x
_atom_site_fract_y
_atom_site_fract_z
N1 N 0.69296(14) 0.27327(14) -0.0737(4)
O1 O 0.71761(11) 0.35721(12) -0.0119(4)
O2 O 0.61653(12) 0.27236(13) 0.5645(3)
H1 H 0.63300 0.27620 0.68040
O3 O 0.67432(12) 0.09642(11) 0.1317(4)
O4 O 0.81814(11) 0.24690(12) 0.2505(4)
C1 C 0.64868(16) 0.24186(16) 0.1069(5)
H2 H 0.60280 0.21470 0.05610
C2 C 0.62418(17) 0.32046(17) 0.2241(5)
H3 H 0.56870 0.32260 0.22960
C3 C 0.65233(17) 0.38798(17) 0.0847(5)
C4 C 0.76273(17) 0.2231(2) -0.0859(5)
H4 H 0.80470 0.25700 -0.13250
H5 H 0.75580 0.17790 -0.18080
C5 C 0.77939(16) 0.18940(18) 0.1244(5)
H6 H 0.80740 0.13710 0.11590
C6 C 0.69869(17) 0.17492(16) 0.2075(5)
H7 H 0.69680 0.17760 0.35580
C7 C 0.6528(2) 0.47874(18) 0.1227(6)
H8 H 0.69670 0.51000 0.07830
H9 H 0.62950 0.49860 0.24670
C8 C 0.60122(19) 0.44264(18) -0.0389(6)
H10 H 0.54730 0.44070 -0.01110
H11 H 0.61450 0.45210 -0.17960
C9 C 0.65541(17) 0.32925(18) 0.4368(5)
H12 H 0.70930 0.31740 0.43750
H13 H 0.64790 0.38540 0.48510
C10 C 0.64841(17) 0.03524(18) 0.2760(6)
C11 C 0.58506(19) 0.0699(2) 0.4067(7)
H14 H 0.56870 0.02830 0.50120
H15 H 0.60320 0.11740 0.47940
H16 H 0.54320 0.08570 0.32210
C12 C 0.6207(2) -0.03450(19) 0.1408(7)
H17 H 0.60200 -0.07900 0.22310
H18 H 0.58080 -0.01450 0.05500
H19 H 0.66190 -0.05410 0.05860
C13 C 0.7143(2) 0.0068(2) 0.4081(6)
H20 H 0.69670 -0.03370 0.50340
H21 H 0.75300 -0.01710 0.32420
H22 H 0.73480 0.05350 0.47990
C14 C 0.89776(17) 0.2308(2) 0.2884(5)
C15 C 0.92325(18) 0.3059(2) 0.4059(7)
H23 H 0.97610 0.30070 0.43830
H24 H 0.91550 0.35470 0.32550
H25 H 0.89440 0.31010 0.52880
C16 C 0.94219(18) 0.2235(2) 0.0905(6)
H26 H 0.99460 0.21280 0.12020
H27 H 0.92200 0.17870 0.01130
H28 H 0.93790 0.27430 0.01580
C17 C 0.90716(18) 0.1531(2) 0.4147(6)
H29 H 0.96010 0.14330 0.43850
H30 H 0.88160 0.16010 0.54200
H31 H 0.88580 0.10680 0.34370
#END
