
#######################################################################
#
#                 Cambridge Crystallographic Data Centre
#                                CCDC
#
#######################################################################
#
# If this CIF has been generated from an entry in the Cambridge
# Structural Database, then it will include bibliographic, chemical,
# crystal, experimental, refinement or atomic coordinate data resulting
# from the CCDC's data processing and validation procedures.
#
#######################################################################

data_CSD_CIF_AWIXIP
_audit_creation_date 2016-09-26
_audit_creation_method CSD-ConQuest-V1
_database_code_CSD AWIXIP
_database_code_depnum_ccdc_archive 'CCDC 1496576'
_chemical_formula_sum 'C17 H31 N1 O4'
_chemical_formula_moiety
;
C17 H31 N1 O4
;
_journal_coden_Cambridge 1748
_journal_volume 3
_journal_year 2016
_journal_page_first 1651
_journal_name_full 'Org.Chem.Front. '
loop_
_publ_author_name
"F.M.Cordero"
"C.Vurchio"
"C.Faggi"
"A.Brandi"
_chemical_name_systematic
;
(4',5'-di-t-butoxytetrahydro-3'H-spiro[cyclopropane-1,2'-pyrrolo[1,2-b][1,2]ox
azol]-3'-yl)methanol
;
_chemical_name_common
;
((3'R,3a'R,4'R,5'R)-4',5'-di-t-butoxytetrahydro-3'H-spiro[cyclopropane-1,2'-py
rrolo[1,2-b]isoxazol]-3'-yl)methanol
;
_cell_volume   1794.955
_exptl_crystal_colour 'white'
_exptl_crystal_density_diffrn 1.16
_exptl_crystal_description 'prismatic'
_diffrn_ambient_temperature 100
#These two values have been output from a single CSD field.
_refine_ls_R_factor_gt 0.0333
_refine_ls_wR_factor_gt 0.0333
loop_
_citation_database_id_CSD
_citation_special_details
AWIXEL "is a stereoisomer of this entry"
_symmetry_cell_setting orthorhombic
_symmetry_space_group_name_H-M 'P 21 21 21'
_symmetry_Int_Tables_number 19
loop_
_symmetry_equiv_pos_site_id
_symmetry_equiv_pos_as_xyz
1 x,y,z
2 1/2-x,-y,1/2+z
3 1/2+x,1/2-y,-z
4 -x,1/2+y,1/2-z
_cell_length_a 6.030(1)
_cell_length_b 16.334(1)
_cell_length_c 18.224(1)
_cell_angle_alpha 90
_cell_angle_beta 90
_cell_angle_gamma 90
_cell_formula_units_Z 4
loop_
_atom_type_symbol
_atom_type_radius_bond
C 0.68
H 0.23
N 0.68
O 0.68
loop_
_atom_site_label
_atom_site_type_symbol
_atom_site_fract_x
_atom_site_fract_y
_atom_site_fract_z
N1 N 1.0947(3) 0.75198(12) 0.33410(11)
O1 O 1.0073(3) 0.67517(10) 0.30088(9)
O2 O 0.3953(3) 0.67364(11) 0.43157(10)
H1 H 0.31140 0.68210 0.39700
O3 O 0.8356(3) 0.79913(10) 0.19751(9)
O4 O 0.9666(3) 0.94132(11) 0.34307(10)
C1 C 0.8909(4) 0.79509(15) 0.36302(13)
H2 H 0.91740 0.81250 0.41370
C2 C 0.7049(4) 0.73154(15) 0.36165(13)
H3 H 0.60790 0.74290 0.31970
C3 C 0.8299(4) 0.65324(15) 0.34710(14)
C4 C 1.1717(5) 0.80071(16) 0.27059(14)
H4 H 1.22790 0.76490 0.23240
H5 H 1.28960 0.83750 0.28540
C5 C 0.9741(5) 0.84915(16) 0.24246(13)
H6 H 1.02190 0.89840 0.21620
C6 C 0.8557(4) 0.87116(14) 0.31439(13)
H7 H 0.69770 0.88200 0.30630
C7 C 0.7369(5) 0.57104(16) 0.33210(16)
H8 H 0.80540 0.53870 0.29360
H9 H 0.57790 0.56400 0.33690
C8 C 0.8694(5) 0.58598(16) 0.40140(16)
H10 H 0.78960 0.58810 0.44760
H11 H 1.01730 0.56280 0.40430
C9 C 0.5667(4) 0.73293(16) 0.43138(14)
H12 H 0.66310 0.72330 0.47310
H13 H 0.50160 0.78690 0.43710
C10 C 0.8302(5) 1.00541(16) 0.37573(15)
C11 C 0.6926(6) 0.97100(17) 0.43843(16)
H14 H 0.60380 1.01380 0.45940
H15 H 0.59780 0.92840 0.42020
H16 H 0.78940 0.94900 0.47530
C12 C 1.0001(7) 1.06582(19) 0.40354(19)
H17 H 0.92600 1.11110 0.42640
H18 H 1.09470 1.03940 0.43870
H19 H 1.08780 1.08530 0.36320
C13 C 0.6838(6) 1.04478(17) 0.31798(16)
H20 H 0.59520 1.08680 0.34030
H21 H 0.77500 1.06850 0.28040
H22 H 0.58870 1.00400 0.29670
C14 C 0.7731(4) 0.83178(16) 0.12678(13)
C15 C 0.6277(5) 0.76510(17) 0.09456(14)
H23 H 0.57730 0.78150 0.04680
H24 H 0.71140 0.71530 0.09050
H25 H 0.50210 0.75630 0.12600
C16 C 0.9784(5) 0.84438(17) 0.07962(14)
H26 H 0.93550 0.86610 0.03280
H27 H 1.07670 0.88210 0.10350
H28 H 1.05250 0.79290 0.07280
C17 C 0.6426(5) 0.91080(16) 0.13545(15)
H29 H 0.60280 0.93140 0.08790
H30 H 0.51060 0.90030 0.16340
H31 H 0.73200 0.95060 0.16060
#END
