
#######################################################################
#
#                 Cambridge Crystallographic Data Centre
#                                CCDC
#
#######################################################################
#
# If this CIF has been generated from an entry in the Cambridge
# Structural Database, then it will include bibliographic, chemical,
# crystal, experimental, refinement or atomic coordinate data resulting
# from the CCDC's data processing and validation procedures.
#
#######################################################################

data_CSD_CIF_AWIZIR
_audit_creation_date 2016-09-27
_audit_creation_method CSD-ConQuest-V1
_database_code_CSD AWIZIR
_database_code_depnum_ccdc_archive 'CCDC 1451590'
_chemical_formula_sum 'C26 H18 N2 O4'
_chemical_formula_moiety
;
C26 H18 N2 O4
;
_journal_coden_Cambridge 1475
_journal_volume 8
_journal_year 2017
_journal_page_first 1163
_journal_name_full 'Chemical Science '
loop_
_publ_author_name
"Tao Yu"
"Depei Ou"
"Zhiyong Yang"
"Qiuyi Huang"
"Zhu Mao"
"Junru Chen"
"Yi Zhang"
"Siwei Liu"
"Jiarui Xu"
"M.R.Bryce"
"Zhenguo Chi"
_chemical_name_systematic
;
1-nitro-4-(1-(4-nitrophenyl)-2,2-diphenylvinyl)benzene
;
_cell_volume   2114.533
_exptl_crystal_colour 'yellow'
_exptl_crystal_density_diffrn 1.327
_exptl_crystal_description 'block'
_diffrn_ambient_temperature 293
#These two values have been output from a single CSD field.
_refine_ls_R_factor_gt 0.0411
_refine_ls_wR_factor_gt 0.0411
_symmetry_cell_setting monoclinic
_symmetry_space_group_name_H-M 'P 21/c'
_symmetry_Int_Tables_number 14
loop_
_symmetry_equiv_pos_site_id
_symmetry_equiv_pos_as_xyz
1 x,y,z
2 -x,1/2+y,1/2-z
3 -x,-y,-z
4 x,-1/2-y,-1/2+z
_cell_length_a 10.52308(18)
_cell_length_b 8.79827(18)
_cell_length_c 22.9441(4)
_cell_angle_alpha 90
_cell_angle_beta 95.4899(16)
_cell_angle_gamma 90
_cell_formula_units_Z 4
loop_
_atom_type_symbol
_atom_type_radius_bond
C 0.68
H 0.23
N 0.68
O 0.68
loop_
_atom_site_label
_atom_site_type_symbol
_atom_site_fract_x
_atom_site_fract_y
_atom_site_fract_z
C1 C 0.14423(13) 0.54011(17) 0.37941(6)
H1 H 0.18850 0.61450 0.36080
C2 C 0.34099(11) 0.39646(15) 0.30801(5)
C3 C 0.19726(12) 0.39554(15) 0.38726(5)
C4 C 0.23144(11) 0.42787(15) 0.26332(5)
C5 C 0.32215(12) 0.36103(15) 0.36425(5)
C6 C 0.01475(13) 0.32066(18) 0.43714(6)
H2 H -0.02880 0.24820 0.45700
C7 C 0.46870(12) 0.40586(16) 0.28541(6)
C8 C 0.43230(12) 0.32446(17) 0.46523(6)
H3 H 0.37640 0.39450 0.47930
C9 C 0.12719(12) 0.32945(16) 0.25747(6)
H4 H 0.12400 0.24760 0.28290
C10 C 0.48520(14) 0.35412(17) 0.22912(7)
H5 H 0.41780 0.30650 0.20710
C11 C 0.13229(13) 0.28748(16) 0.41761(6)
H6 H 0.16830 0.19200 0.42480
C12 C 0.52570(13) 0.25802(18) 0.50373(6)
H7 H 0.53300 0.28290 0.54330
C13 C -0.03606(12) 0.46341(18) 0.42643(6)
C14 C 0.60745(13) 0.15436(16) 0.48217(6)
C15 C 0.42076(12) 0.28796(15) 0.40579(5)
C16 C 0.59601(14) 0.11041(17) 0.42412(6)
H8 H 0.65040 0.03770 0.41080
O1 O 0.71506(12) 0.11622(18) 0.57392(5)
C17 C 0.50203(13) 0.17670(16) 0.38638(6)
H9 H 0.49250 0.14690 0.34730
C18 C 0.02752(14) 0.57531(18) 0.39859(6)
H10 H -0.00740 0.67190 0.39290
O2 O -0.21178(12) 0.40763(17) 0.47565(7)
N1 N 0.71326(12) 0.09209(16) 0.52137(6)
N2 N -0.16197(12) 0.49996(19) 0.44566(6)
C19 C 0.23402(13) 0.54895(17) 0.22429(6)
H11 H 0.30340 0.61490 0.22710
C20 C 0.02864(13) 0.35258(19) 0.21416(7)
H12 H -0.04050 0.28620 0.21080
O3 O 0.79703(14) 0.02105(18) 0.49959(6)
C21 C 0.60040(17) 0.3728(2) 0.20572(8)
H13 H 0.61040 0.33680 0.16830
O4 O -0.21064(12) 0.6222(2) 0.43117(6)
C22 C 0.57151(13) 0.47631(18) 0.31768(7)
H14 H 0.56300 0.51050 0.35550
C23 C 0.13411(15) 0.5720(2) 0.18127(7)
H15 H 0.13600 0.65440 0.15600
C24 C 0.03181(14) 0.4733(2) 0.17589(7)
H16 H -0.03460 0.48790 0.14670
C25 C 0.70029(16) 0.4446(2) 0.23762(10)
H17 H 0.77730 0.45890 0.22150
C26 C 0.68602(15) 0.4954(2) 0.29355(10)
H18 H 0.75400 0.54280 0.31520
#END
