
#######################################################################
#
#                 Cambridge Crystallographic Data Centre
#                                CCDC
#
#######################################################################
#
# If this CIF has been generated from an entry in the Cambridge
# Structural Database, then it will include bibliographic, chemical,
# crystal, experimental, refinement or atomic coordinate data resulting
# from the CCDC's data processing and validation procedures.
#
#######################################################################

data_CSD_CIF_AWIZIR01
_audit_creation_date 2018-08-20
_audit_creation_method CSD-ConQuest-V1
_database_code_CSD AWIZIR01
_database_code_depnum_ccdc_archive 'CCDC 1850424; not CCDC 1550424 as published'
_chemical_formula_sum 'C26 H18 N2 O4'
_chemical_formula_moiety
;
C26 H18 N2 O4
;
_journal_coden_Cambridge 1490
_journal_volume 9
_journal_year 2018
_journal_page_first 3044
_journal_name_full 'Nat.Commun. '
loop_
_publ_author_name
"Weijun Zhao"
"Zikai He"
"Qian Peng"
"J.W.Y.Lam"
"Huili Ma"
"Zijie Qiu"
"Yuncong Chen"
"Zheng Zhao"
"Zhigang Shuai"
"Yongqiang Dong"
"Ben Zhong Tang"
_chemical_name_systematic
;
1,1'-[2,2-bis(4-nitrophenyl)ethene-1,1-diyl]dibenzene
;
_cell_volume   2065.230
_exptl_crystal_colour 'yellow'
_exptl_crystal_density_diffrn 1.359
_exptl_crystal_description 'block'
_diffrn_ambient_temperature 110
#These two values have been output from a single CSD field.
_refine_ls_R_factor_gt 0.0454
_refine_ls_wR_factor_gt 0.0454
_symmetry_cell_setting monoclinic
_symmetry_space_group_name_H-M 'P 21/c'
_symmetry_Int_Tables_number 14
loop_
_symmetry_equiv_pos_site_id
_symmetry_equiv_pos_as_xyz
1 x,y,z
2 -x,1/2+y,1/2-z
3 -x,-y,-z
4 x,-1/2-y,-1/2+z
_cell_length_a 10.4723(16)
_cell_length_b 8.6413(14)
_cell_length_c 22.938(4)
_cell_angle_alpha 90
_cell_angle_beta 95.773(3)
_cell_angle_gamma 90
_cell_formula_units_Z 4
loop_
_atom_type_symbol
_atom_type_radius_bond
C 0.68
H 0.23
N 0.68
O 0.68
loop_
_atom_site_label
_atom_site_type_symbol
_atom_site_fract_x
_atom_site_fract_y
_atom_site_fract_z
C1 C 0.61332(15) 0.34764(19) 0.48337(7)
C2 C 0.52878(15) 0.24586(19) 0.50540(7)
H1 H 0.53500 0.22310 0.54610
C3 C 0.43455(15) 0.17743(19) 0.46711(7)
H2 H 0.37580 0.10710 0.48180
C4 C 0.42471(14) 0.21044(18) 0.40709(6)
C5 C 0.50835(15) 0.32062(19) 0.38714(7)
H3 H 0.49950 0.34900 0.34690
C6 C 0.60342(15) 0.38878(19) 0.42477(7)
H4 H 0.66060 0.46210 0.41080
C7 C 0.32517(14) 0.13490(18) 0.36568(6)
C8 C 0.19978(14) 0.09863(19) 0.38857(6)
C9 C 0.13341(15) 0.2089(2) 0.41834(6)
H5 H 0.16980 0.30860 0.42570
C10 C 0.01505(15) 0.1745(2) 0.43721(6)
H6 H -0.03070 0.24980 0.45700
C11 C -0.03473(15) 0.0282(2) 0.42658(6)
C12 C 0.03028(15) -0.0861(2) 0.39951(7)
H7 H -0.00500 -0.18690 0.39390
C13 C 0.14797(15) -0.04967(19) 0.38081(7)
H8 H 0.19440 -0.12690 0.36240
C14 C 0.34367(14) 0.09834(18) 0.30933(7)
C15 C 0.47155(14) 0.08813(19) 0.28652(7)
C16 C 0.57591(15) 0.0175(2) 0.31875(8)
H9 H 0.56810 -0.01650 0.35760
C17 C 0.69096(16) -0.0035(2) 0.29452(9)
H10 H 0.76140 -0.05170 0.31680
C18 C 0.70299(18) 0.0453(2) 0.23815(9)
H11 H 0.78120 0.02890 0.22140
C19 C 0.60184(17) 0.1180(2) 0.20599(8)
H12 H 0.61130 0.15390 0.16750
C20 C 0.48682(16) 0.13846(19) 0.22971(7)
H13 H 0.41720 0.18740 0.20710
C21 C 0.23297(14) 0.06619(19) 0.26459(6)
C22 C 0.12737(15) 0.16589(19) 0.25910(7)
H14 H 0.12380 0.24970 0.28570
C23 C 0.02809(15) 0.1443(2) 0.21550(7)
H15 H -0.04290 0.21330 0.21230
C24 C 0.03155(16) 0.0225(2) 0.17645(7)
H16 H -0.03650 0.00830 0.14630
C25 C 0.13483(16) -0.0785(2) 0.18162(7)
H17 H 0.13680 -0.16340 0.15540
C26 C 0.23538(15) -0.05605(19) 0.22493(7)
H18 H 0.30670 -0.12460 0.22760
N1 N 0.72007(13) 0.41037(17) 0.52248(6)
N2 N -0.16172(13) -0.01022(19) 0.44495(6)
O1 O 0.71875(12) 0.39426(16) 0.57560(5)
O2 O 0.80810(12) 0.47448(16) 0.50028(5)
O3 O -0.21389(11) 0.08553(16) 0.47407(6)
O4 O -0.20997(12) -0.13522(17) 0.43007(6)
#END
