
#######################################################################
#
#                 Cambridge Crystallographic Data Centre
#                                CCDC
#
#######################################################################
#
# If this CIF has been generated from an entry in the Cambridge
# Structural Database, then it will include bibliographic, chemical,
# crystal, experimental, refinement or atomic coordinate data resulting
# from the CCDC's data processing and validation procedures.
#
#######################################################################

data_CSD_CIF_AWODEX
_audit_creation_date 2016-09-27
_audit_creation_method CSD-ConQuest-V1
_database_code_CSD AWODEX
_database_code_depnum_ccdc_archive 'CCDC 1436324'
_chemical_formula_sum 'C22 H17 N3 O2'
_chemical_formula_moiety
;
C22 H17 N3 O2
;
_journal_coden_Cambridge 1122
_journal_volume 34
_journal_year 2016
_journal_page_first 901
_journal_name_full 'Chin.J.Chem. '
loop_
_publ_author_name
"Guanghao Shi"
"Xinwei He"
"Yongjia Shang"
"Liwei Xiang"
"Cheng Yang"
"Guang Han"
"Bing Du"
_chemical_name_systematic
;
4'-(4-methylphenyl)-3'-phenyl-4'H-spiro[indole-3,5'-[1,2,4]oxadiazol]-2(1H)-on
e
;
_cell_volume    885.302
_exptl_crystal_colour 'yellow'
_exptl_crystal_density_diffrn 1.333
_exptl_crystal_description 'prismatic'
_diffrn_ambient_temperature 293
#These two values have been output from a single CSD field.
_refine_ls_R_factor_gt 0.0425
_refine_ls_wR_factor_gt 0.0425
_symmetry_cell_setting triclinic
_symmetry_space_group_name_H-M 'P -1'
_symmetry_Int_Tables_number 2
loop_
_symmetry_equiv_pos_site_id
_symmetry_equiv_pos_as_xyz
1 x,y,z
2 -x,-y,-z
_cell_length_a 6.6117(8)
_cell_length_b 10.4562(13)
_cell_length_c 13.3718(17)
_cell_angle_alpha 83.340(3)
_cell_angle_beta 79.712(3)
_cell_angle_gamma 77.553(3)
_cell_formula_units_Z 2
loop_
_atom_type_symbol
_atom_type_radius_bond
C 0.68
H 0.23
N 0.68
O 0.68
loop_
_atom_site_label
_atom_site_type_symbol
_atom_site_fract_x
_atom_site_fract_y
_atom_site_fract_z
N1 N 0.2713(2) -0.06649(13) 0.94013(10)
N2 N 0.38103(19) 0.09304(11) 0.69454(9)
N3 N 0.2149(2) -0.02085(14) 0.61564(10)
O1 O 0.01323(17) 0.06888(11) 0.86172(8)
O2 O 0.29314(18) -0.10334(10) 0.70006(8)
C1 C 0.4851(2) -0.12246(14) 0.91199(11)
C2 C 0.6237(3) -0.19280(15) 0.97311(12)
H1 H 0.58230 -0.20920 1.04280
C3 C 0.8277(3) -0.23835(16) 0.92703(14)
H2 H 0.92480 -0.28630 0.96660
C4 C 0.8896(3) -0.21408(16) 0.82392(14)
H3 H 1.02720 -0.24620 0.79470
C5 C 0.7482(3) -0.14208(15) 0.76332(13)
H4 H 0.78970 -0.12460 0.69380
C6 C 0.5460(2) -0.09735(13) 0.80822(11)
C7 C 0.3599(2) -0.02386(14) 0.76301(11)
C8 C 0.1892(2) 0.00215(14) 0.86005(11)
C9 C 0.2679(2) 0.08912(16) 0.61739(11)
C10 C 0.2214(3) 0.19922(16) 0.54036(11)
C11 C 0.0304(3) 0.22415(19) 0.50605(13)
H5 H -0.06620 0.17070 0.53070
C12 C -0.0167(3) 0.3280(2) 0.43552(14)
H6 H -0.14550 0.34510 0.41270
C13 C 0.1258(4) 0.4064(2) 0.39868(14)
H7 H 0.09270 0.47730 0.35160
C14 C 0.3162(3) 0.38099(19) 0.43077(14)
H8 H 0.41310 0.43380 0.40480
C15 C 0.3651(3) 0.27740(18) 0.50136(13)
H9 H 0.49530 0.26000 0.52280
C16 C 0.4027(2) 0.21011(14) 0.73384(10)
C17 C 0.2330(3) 0.31113(15) 0.75412(12)
H10 H 0.10160 0.30330 0.74280
C18 C 0.2567(3) 0.42363(15) 0.79097(13)
H11 H 0.14110 0.49170 0.80300
C19 C 0.4485(3) 0.43751(15) 0.81048(12)
C20 C 0.6156(3) 0.33485(17) 0.79117(13)
H12 H 0.74590 0.34150 0.80480
C21 C 0.5960(2) 0.22197(15) 0.75209(11)
H13 H 0.71220 0.15480 0.73830
C22 C 0.4723(4) 0.55991(18) 0.85218(17)
H14 H 0.60740 0.54600 0.87310
H15 H 0.36460 0.58040 0.90970
H16 H 0.46010 0.63160 0.80030
H17 H 0.201(3) -0.0695(16) 1.0039(14)
#END
