
#######################################################################
#
#                 Cambridge Crystallographic Data Centre
#                                CCDC
#
#######################################################################
#
# If this CIF has been generated from an entry in the Cambridge
# Structural Database, then it will include bibliographic, chemical,
# crystal, experimental, refinement or atomic coordinate data resulting
# from the CCDC's data processing and validation procedures.
#
#######################################################################

data_CSD_CIF_AWOJIF
_audit_creation_date 2004-08-19
_audit_creation_method CSD-ConQuest-V1
_database_code_CSD AWOJIF
_database_code_depnum_ccdc_archive 'CCDC 191966'
_chemical_formula_sum 'C22 H18 N4 O6'
_chemical_formula_moiety
;
C22 H18 N4 O6
;
_journal_coden_Cambridge 16
_journal_volume 58
_journal_year 2002
_journal_page_first 10437
_journal_name_full 'Tetrahedron '
loop_
_publ_author_name
"Mei-Hsiu Shih"
_chemical_name_systematic
;
6a-Methyl-3-(3-(4'-ethoxyphenyl)sydnon-4-yl)-5-phenyl-3a,6a-dihydropyrrolo[3,4
-d]isoxazole-4,6-dione
;
_chemical_melting_point 477.15
_cell_volume   1028.801
_exptl_crystal_colour 'yellow'
_exptl_crystal_density_diffrn 1.402
_exptl_special_details
;
Melting point range 477.15-478.15K
cell a value is 8.132, not 8.312 as published
;
_exptl_crystal_description 'prism'
_exptl_crystal_preparation 'dichloromethane/ethanol'
_diffrn_ambient_temperature 298
#These two values have been output from a single CSD field.
_refine_ls_R_factor_gt 0.048
_refine_ls_wR_factor_gt 0.048
_symmetry_cell_setting triclinic
_symmetry_space_group_name_H-M 'P -1'
_symmetry_Int_Tables_number 2
loop_
_symmetry_equiv_pos_site_id
_symmetry_equiv_pos_as_xyz
1 x,y,z
2 -x,-y,-z
_cell_length_a 8.132(2)
_cell_length_b 12.110(5)
_cell_length_c 12.566(5)
_cell_angle_alpha 61.14(3)
_cell_angle_beta 74.25(3)
_cell_angle_gamma 74.33(3)
_cell_formula_units_Z 2
loop_
_atom_type_symbol
_atom_type_radius_bond
C 0.68
N 0.68
O 0.68
loop_
_atom_site_label
_atom_site_type_symbol
_atom_site_fract_x
_atom_site_fract_y
_atom_site_fract_z
O1 O -0.0830(3) 0.3046(2) 0.9052(2)
O2 O -0.0657(4) 0.4696(3) 0.7134(2)
O3 O 0.5583(4) -0.3013(3) 1.0552(2)
O4 O 0.5103(3) 0.2807(2) 0.5347(2)
O5 O 0.4784(3) 0.2617(3) 0.3120(3)
O6 O -0.0441(3) 0.2927(2) 0.5546(2)
N1 N 0.1340(3) 0.1692(3) 0.8818(2)
N2 N 0.0043(4) 0.1844(3) 0.9651(3)
N3 N 0.4239(4) 0.2424(3) 0.6568(2)
N4 N 0.2066(3) 0.2530(2) 0.4299(2)
C1 C -0.0056(5) 0.3630(4) 0.7809(3)
C2 C 0.1372(4) 0.2708(3) 0.7698(3)
C3 C 0.2451(4) 0.0465(3) 0.9227(3)
C4 C 0.2749(5) -0.0137(3) 1.0434(3)
C5 C 0.3765(5) -0.1307(4) 1.0856(3)
C6 C 0.4529(5) -0.1885(4) 1.0065(3)
C7 C 0.4193(5) -0.1282(3) 0.8871(3)
C8 C 0.3151(5) -0.0121(3) 0.8460(3)
C9 C 0.6505(7) -0.3620(5) 0.9755(4)
C10 C 0.7546(8) -0.4807(6) 1.0482(5)
C11 C 0.2641(4) 0.2908(3) 0.6572(3)
C12 C 0.2150(4) 0.3710(3) 0.5318(3)
C13 C 0.3887(4) 0.3632(3) 0.4501(3)
C14 C 0.3691(4) 0.2878(3) 0.3869(3)
C15 C 0.1031(4) 0.3045(3) 0.5097(3)
C16 C 0.1437(4) 0.1846(3) 0.3858(3)
C17 C 0.2268(4) 0.0638(3) 0.4034(3)
C18 C 0.1656(5) -0.0021(4) 0.3609(4)
C19 C 0.0260(5) 0.0532(4) 0.3028(4)
C20 C -0.0561(5) 0.1739(5) 0.2853(4)
C21 C 0.0036(5) 0.2411(4) 0.3273(3)
C22 C 0.4569(5) 0.4853(4) 0.3599(3)
#END
