
#######################################################################
#
#                 Cambridge Crystallographic Data Centre
#                                CCDC
#
#######################################################################
#
# If this CIF has been generated from an entry in the Cambridge
# Structural Database, then it will include bibliographic, chemical,
# crystal, experimental, refinement or atomic coordinate data resulting
# from the CCDC's data processing and validation procedures.
#
#######################################################################

data_CSD_CIF_AWUSAM
_audit_creation_date 2004-08-19
_audit_creation_method CSD-ConQuest-V1
_database_code_CSD AWUSAM
_database_code_depnum_ccdc_archive 'CCDC 233657'
_chemical_formula_sum 'C25 H18 N2 O4'
_chemical_formula_moiety
;
C25 H18 N2 O4
;
_journal_coden_Cambridge 1350
_journal_volume 6
_journal_year 2004
_journal_page_first 120
_journal_name_full 'CrystEngComm '
loop_
_publ_author_name
"S.Basavoju"
"S.Aitipamula"
"G.R.Desiraju"
_chemical_name_systematic
;
bis(4-Nitrophenyl)diphenylmethane
;
_chemical_melting_point 513.15
_cell_volume   1967.537
_exptl_crystal_colour 'colorless'
_exptl_crystal_density_diffrn 1.385
_exptl_crystal_description 'needle'
_exptl_crystal_preparation 'benzene/triethylamine'
_diffrn_ambient_temperature 293
#These two values have been output from a single CSD field.
_refine_ls_R_factor_gt 0.0642
_refine_ls_wR_factor_gt 0.0642
_symmetry_cell_setting monoclinic
_symmetry_space_group_name_H-M 'P 21/n'
_symmetry_Int_Tables_number 14
loop_
_symmetry_equiv_pos_site_id
_symmetry_equiv_pos_as_xyz
1 x,y,z
2 1/2+x,1/2-y,1/2+z
3 -x,-y,-z
4 -1/2-x,-1/2+y,-1/2-z
_cell_length_a 7.5520(15)
_cell_length_b 16.296(3)
_cell_length_c 16.174(3)
_cell_angle_alpha 90
_cell_angle_beta 98.71(3)
_cell_angle_gamma 90
_cell_formula_units_Z 4
loop_
_atom_type_symbol
_atom_type_radius_bond
C 0.68
H 0.23
N 0.68
O 0.68
loop_
_atom_site_label
_atom_site_type_symbol
_atom_site_fract_x
_atom_site_fract_y
_atom_site_fract_z
C1 C 0.5555(3) 0.13673(13) 0.23588(13)
N1 N 0.2041(3) 0.04141(14) 0.51521(13)
C2 C 0.6602(3) 0.06729(14) 0.19960(14)
O1 O 0.1852(3) -0.03218(12) 0.52934(12)
O2 O 0.1632(3) 0.09698(13) 0.55956(12)
C3 C 0.7464(3) 0.22020(15) 0.35211(14)
C4 C 0.8869(3) 0.27317(16) 0.37973(15)
C5 C 0.9814(3) 0.30638(15) 0.32192(15)
O3 O 1.2053(3) 0.39616(13) 0.29793(13)
C6 C 0.4043(3) 0.17103(14) 0.16950(13)
C7 C 0.8026(3) 0.23526(15) 0.21073(15)
C8 C 0.9416(3) 0.28893(16) 0.23711(15)
C9 C 0.4588(3) 0.10754(14) 0.30838(13)
N2 N 1.1338(3) 0.36056(14) 0.35060(14)
C10 C 0.2845(3) 0.06371(16) 0.44061(15)
C11 C 0.7398(4) -0.01153(16) 0.08374(16)
O4 O 1.1860(3) 0.36539(14) 0.42631(13)
C12 C 0.2766(3) 0.14474(16) 0.41431(15)
C13 C 0.6329(3) 0.04712(15) 0.11492(15)
C14 C 0.7001(3) 0.20084(14) 0.26780(14)
C15 C 0.4580(4) 0.02649(15) 0.33490(15)
C16 C 0.3693(4) 0.00401(16) 0.40092(16)
C17 C 0.4018(4) 0.25002(16) 0.13672(15)
C18 C 0.2592(3) 0.11924(16) 0.14209(15)
C19 C 0.3620(3) 0.16543(15) 0.34714(15)
C20 C 0.1181(4) 0.14525(18) 0.08360(15)
C21 C 0.1187(4) 0.22391(18) 0.05029(16)
C22 C 0.7989(3) 0.02849(16) 0.25142(16)
C23 C 0.2603(4) 0.27529(16) 0.07669(16)
C24 C 0.9048(4) -0.03011(16) 0.22045(17)
C25 C 0.8756(4) -0.05027(16) 0.13599(17)
H1 H 0.352(3) 0.2213(15) 0.3266(15)
H2 H 0.814(4) 0.0422(17) 0.3036(19)
H3 H 0.958(4) -0.0953(19) 0.1143(18)
H4 H 0.683(4) 0.1986(16) 0.3914(17)
H5 H 0.540(4) 0.0753(15) 0.0777(16)
H6 H 0.489(4) 0.2842(19) 0.1539(19)
H7 H 0.265(4) 0.3288(18) 0.0577(18)
H8 H 0.727(4) -0.0228(18) 0.023(2)
H9 H 0.915(4) 0.2862(17) 0.4385(18)
H10 H 1.004(4) -0.0553(17) 0.2577(17)
H11 H 0.365(4) -0.0487(18) 0.4146(18)
H12 H 0.018(4) 0.1086(17) 0.0673(17)
H13 H 0.515(4) -0.0121(18) 0.3105(18)
H14 H 0.259(4) 0.0670(19) 0.1602(18)
H15 H 0.772(4) 0.2215(17) 0.1496(18)
H16 H 0.008(4) 0.2440(17) 0.0117(18)
H17 H 1.012(4) 0.3126(18) 0.1955(19)
H18 H 0.212(5) 0.184(2) 0.443(2)
#END
