
#######################################################################
#
#                 Cambridge Crystallographic Data Centre
#                                CCDC
#
#######################################################################
#
# If this CIF has been generated from an entry in the Cambridge
# Structural Database, then it will include bibliographic, chemical,
# crystal, experimental, refinement or atomic coordinate data resulting
# from the CCDC's data processing and validation procedures.
#
#######################################################################

data_CSD_CIF_AXALAM
_audit_creation_date 2004-08-19
_audit_creation_method CSD-ConQuest-V1
_database_code_CSD AXALAM
_database_code_depnum_ccdc_archive 'CCDC 221532'
_chemical_formula_sum 'C11 H13 N3 O3'
_chemical_formula_moiety
;
C11 H13 N3 O3
;
_journal_coden_Cambridge 702
_journal_volume 20
_journal_year 2004
_journal_page_first 513
_journal_name_full 'Wuji Huaxue Xuebao(Chin.)(Chin.J.Inorg.Chem.) '
loop_
_publ_author_name
"Zi-Jing Xiao"
"Shi-Xiong Liu"
"Chi-Chang Lin"
_chemical_name_systematic
;
3-(Salicyloylhydrazono)butan-2-one oxime
;
_cell_volume   1150.290
_exptl_crystal_colour 'yellow'
_exptl_crystal_density_diffrn 1.358
_exptl_crystal_description 'prism'
_diffrn_ambient_temperature 293
#These two values have been output from a single CSD field.
_refine_ls_R_factor_gt 0.0435
_refine_ls_wR_factor_gt 0.0435
_symmetry_cell_setting monoclinic
_symmetry_space_group_name_H-M 'P 21/n'
_symmetry_Int_Tables_number 14
loop_
_symmetry_equiv_pos_site_id
_symmetry_equiv_pos_as_xyz
1 x,y,z
2 1/2+x,1/2-y,1/2+z
3 -x,-y,-z
4 -1/2-x,-1/2+y,-1/2-z
_cell_length_a 4.5187(2)
_cell_length_b 20.8680(14)
_cell_length_c 12.2448(9)
_cell_angle_alpha 90
_cell_angle_beta 94.974(3)
_cell_angle_gamma 90
_cell_formula_units_Z 4
loop_
_atom_type_symbol
_atom_type_radius_bond
C 0.68
H 0.23
N 0.68
O 0.68
loop_
_atom_site_label
_atom_site_type_symbol
_atom_site_fract_x
_atom_site_fract_y
_atom_site_fract_z
C1 C -0.2179(3) 0.30256(7) 0.49199(11)
C2 C -0.1522(3) 0.30592(7) 0.38241(11)
C3 C -0.2753(4) 0.35628(9) 0.31863(13)
H1 H -0.21810 0.36040 0.24620
C4 C -0.4596(4) 0.40142(9) 0.36020(15)
H2 H -0.52680 0.43800 0.31760
C5 C -0.5235(4) 0.39669(9) 0.46807(14)
H3 H -0.65300 0.42320 0.49700
C6 C -0.4054(4) 0.34793(8) 0.53291(12)
H4 H -0.45210 0.34290 0.60000
C7 C 0.0404(3) 0.26016(7) 0.32642(11)
C8 C 0.4727(3) 0.12690(7) 0.40873(11)
C9 C 0.6609(3) 0.08002(7) 0.35610(11)
C10 C 0.6618(5) 0.07744(10) 0.23456(13)
H5 H 0.84480 0.06820 0.21200
H6 H 0.59590 0.11790 0.20410
H7 H 0.52300 0.04530 0.20680
C11 C 0.4470(4) 0.12306(8) 0.52964(12)
H8 H 0.60120 0.13760 0.56660
H9 H 0.41710 0.07920 0.54970
H10 H 0.27640 0.14710 0.54730
N1 N 0.1692(3) 0.21285(6) 0.38916(9)
H11 H 0.14510 0.21260 0.45770
N2 N 0.3450(3) 0.16851(6) 0.34321(10)
N3 N 0.8181(3) 0.04343(6) 0.42214(10)
O1 O -0.0990(3) 0.25527(5) 0.55857(9)
H12 H -0.16650 0.25500 0.61700
O2 O 0.0761(3) 0.26589(6) 0.22879(9)
O3 O 0.9968(3) 0.00102(6) 0.36758(9)
H13 H 1.08690 -0.01950 0.41900
#END
