
#######################################################################
#
#                 Cambridge Crystallographic Data Centre
#                                CCDC
#
#######################################################################
#
# If this CIF has been generated from an entry in the Cambridge
# Structural Database, then it will include bibliographic, chemical,
# crystal, experimental, refinement or atomic coordinate data resulting
# from the CCDC's data processing and validation procedures.
#
#######################################################################

data_CSD_CIF_AXAQOG
_audit_creation_date 2011-09-15
_audit_creation_method CSD-ConQuest-V1
_database_code_CSD AXAQOG
_database_code_depnum_ccdc_archive 'CCDC 841239'
_chemical_formula_sum 'C10 H19 N1 O3'
_chemical_formula_moiety
;
C10 H19 N1 O3
;
_journal_coeditor_code "IUCr NC2235"
_journal_coden_Cambridge 1370
_journal_volume 67
_journal_year 2011
_journal_page_first o2061
_journal_name_full 'Acta Crystallogr.,Sect.E:Struct.Rep.Online '
loop_
_publ_author_name
"O.Brucher"
"U.Bergstraser"
"H.Kelm"
"J.Hartung"
_chemical_name_systematic
;
t-Butyl 1-hydroxypiperidine-2-carboxylate
;
_chemical_melting_point 356
_cell_volume   1180.055
_exptl_crystal_colour 'colorless'
_exptl_crystal_density_diffrn 1.133
_exptl_crystal_preparation 'sublimation'
_diffrn_ambient_temperature 150
#These two values have been output from a single CSD field.
_refine_ls_R_factor_gt 0.0485
_refine_ls_wR_factor_gt 0.0485
_symmetry_cell_setting monoclinic
_symmetry_space_group_name_H-M 'P 21/n'
_symmetry_Int_Tables_number 14
loop_
_symmetry_equiv_pos_site_id
_symmetry_equiv_pos_as_xyz
1 x,y,z
2 1/2-x,1/2+y,1/2-z
3 -x,-y,-z
4 -1/2+x,-1/2-y,-1/2+z
_cell_length_a 10.1685(3)
_cell_length_b 12.1271(2)
_cell_length_c 10.2083(3)
_cell_angle_alpha 90
_cell_angle_beta 110.377(3)
_cell_angle_gamma 90
_cell_formula_units_Z 4
loop_
_atom_type_symbol
_atom_type_radius_bond
C 0.68
H 0.23
N 0.68
O 0.68
loop_
_atom_site_label
_atom_site_type_symbol
_atom_site_fract_x
_atom_site_fract_y
_atom_site_fract_z
C1 C 0.22238(18) 0.85238(14) -0.04530(19)
O1 O 0.11112(15) 0.80571(12) -0.08516(16)
O2 O 0.32151(13) 0.84628(10) -0.10296(13)
C2 C 0.27379(18) 0.92188(14) 0.08639(18)
H1 H 0.35320 0.96990 0.08500
N1 N 0.15807(15) 0.98997(12) 0.09477(14)
O3 O 0.12723(13) 1.06522(10) -0.02218(14)
H2 H 0.04250 1.08390 -0.04810
C3 C 0.3223(2) 0.84527(16) 0.2126(2)
H3 H 0.24490 0.79460 0.20930
H4 H 0.40190 0.80020 0.20850
C4 C 0.3675(2) 0.9091(2) 0.3492(2)
H5 H 0.45260 0.95280 0.35900
H6 H 0.39010 0.85720 0.42890
C5 C 0.2493(2) 0.9855(2) 0.3503(2)
H7 H 0.16860 0.94110 0.35320
H8 H 0.28140 1.03230 0.43510
C6 C 0.2036(2) 1.05791(16) 0.2217(2)
H9 H 0.12540 1.10600 0.22300
H10 H 0.28260 1.10560 0.22170
C7 C 0.3043(2) 0.77301(16) -0.22421(19)
C8 C 0.1799(2) 0.8114(2) -0.3490(2)
H11 H 0.19100 0.88970 -0.36640
H12 H 0.09310 0.80080 -0.32920
H13 H 0.17550 0.76830 -0.43170
C9 C 0.2929(3) 0.65452(17) -0.1852(2)
H14 H 0.20540 0.64400 -0.16680
H15 H 0.37280 0.63600 -0.10120
H16 H 0.29320 0.60650 -0.26230
C10 C 0.4397(2) 0.79292(19) -0.2509(2)
H17 H 0.51930 0.77040 -0.16880
H18 H 0.44810 0.87150 -0.26910
H19 H 0.43950 0.74980 -0.33220
#END
