
#######################################################################
#
#                 Cambridge Crystallographic Data Centre
#                                CCDC
#
#######################################################################
#
# If this CIF has been generated from an entry in the Cambridge
# Structural Database, then it will include bibliographic, chemical,
# crystal, experimental, refinement or atomic coordinate data resulting
# from the CCDC's data processing and validation procedures.
#
#######################################################################

data_CSD_CIF_AXEPAV
_audit_creation_date 2011-10-27
_audit_creation_method CSD-ConQuest-V1
_database_code_CSD AXEPAV
_database_code_depnum_ccdc_archive 'CCDC 816561'
_chemical_formula_sum 'C24 H26 N2 O5'
_chemical_formula_moiety
;
C24 H26 N2 O5
;
_journal_coden_Cambridge 920
_journal_volume 6
_journal_year 2011
_journal_page_first 2009
_journal_name_full 'Chem.Asian J. '
loop_
_publ_author_name
"Dong Eun Kim"
"Sang Hee Park"
"Yun Hee Choi"
"Sueg-Geun Lee"
"Dohyun Moon"
"Jungju Seo"
"Nakcheol Jeong"
_chemical_name_systematic
;
4-Phenylhexahydro-1H-cyclopenta[c]furan-5-yl 1-(2-nitrophenyl)prolinate
;
_cell_volume   2087.096
_exptl_crystal_colour 'yellow'
_exptl_crystal_density_diffrn 1.345
_exptl_crystal_description 'needle'
_diffrn_ambient_temperature 223
#These two values have been output from a single CSD field.
_refine_ls_R_factor_gt 0.0494
_refine_ls_wR_factor_gt 0.0494
_symmetry_cell_setting monoclinic
_symmetry_space_group_name_H-M 'C 2'
_symmetry_Int_Tables_number 5
loop_
_symmetry_equiv_pos_site_id
_symmetry_equiv_pos_as_xyz
1 x,y,z
2 -x,y,-z
3 1/2+x,1/2+y,z
4 1/2-x,1/2+y,-z
_cell_length_a 23.533(5)
_cell_length_b 5.3630(11)
_cell_length_c 18.146(4)
_cell_angle_alpha 90
_cell_angle_beta 114.31(3)
_cell_angle_gamma 90
_cell_formula_units_Z 4
loop_
_atom_type_symbol
_atom_type_radius_bond
C 0.68
H 0.23
N 0.68
O 0.68
loop_
_atom_site_label
_atom_site_type_symbol
_atom_site_fract_x
_atom_site_fract_y
_atom_site_fract_z
O1 O 0.59963(10) 1.1692(5) -0.07844(15)
O2 O 0.73588(9) 0.8744(4) 0.18509(12)
O3 O 0.79657(10) 0.5298(4) 0.21305(13)
O4 O 0.93299(10) 0.5887(5) 0.55216(13)
O5 O 0.94498(11) 0.1909(5) 0.53895(15)
N1 N 0.91391(12) 0.3838(6) 0.51986(16)
N2 N 0.85698(10) 0.7170(5) 0.37538(14)
C1 C 0.55810(14) 1.0766(7) -0.0457(2)
H1 H 0.51780 1.03240 -0.08910
H2 H 0.55110 1.20250 -0.01110
C2 C 0.58962(14) 0.8454(7) 0.00384(18)
H3 H 0.55900 0.71030 -0.00400
C3 C 0.62838(12) 0.8959(6) 0.09418(17)
H4 H 0.63760 1.07680 0.09980
C4 C 0.68996(13) 0.7619(6) 0.11254(18)
H5 H 0.68610 0.58100 0.12030
C5 C 0.70198(14) 0.8109(7) 0.03760(18)
H6 H 0.73270 0.69370 0.03420
H7 H 0.71680 0.98160 0.03750
C6 C 0.63773(14) 0.7707(7) -0.03217(19)
H8 H 0.63200 0.59550 -0.05090
C7 C 0.62238(17) 0.9504(8) -0.1020(2)
H9 H 0.65970 0.98830 -0.11120
H10 H 0.59050 0.87990 -0.15170
C8 C 0.59993(14) 0.8315(6) 0.15347(19)
C9 C 0.61055(14) 0.9866(7) 0.21853(19)
H11 H 0.63530 1.12950 0.22530
C10 C 0.58561(15) 0.9369(7) 0.2740(2)
H12 H 0.59350 1.04510 0.31790
C11 C 0.54879(15) 0.7263(7) 0.2646(2)
H13 H 0.53120 0.69240 0.30160
C12 C 0.53833(15) 0.5685(7) 0.2007(2)
H14 H 0.51330 0.42640 0.19410
C13 C 0.56430(13) 0.6162(6) 0.1456(2)
H15 H 0.55790 0.50380 0.10320
C14 C 0.78587(14) 0.7358(6) 0.23117(19)
C15 C 0.82614(13) 0.8831(7) 0.30602(18)
H16 H 0.80100 1.01030 0.31860
C16 C 0.88055(14) 1.0054(7) 0.2940(2)
H17 H 0.86870 1.04910 0.23710
H18 H 0.89480 1.15600 0.32720
C17 C 0.93066(14) 0.8035(7) 0.32150(19)
H19 H 0.92290 0.67770 0.27930
H20 H 0.97220 0.87500 0.33630
C18 C 0.92417(13) 0.6929(6) 0.39489(19)
H21 H 0.93710 0.51770 0.40240
H22 H 0.94930 0.78600 0.44410
C19 C 0.82351(13) 0.5572(6) 0.40035(18)
C20 C 0.84876(13) 0.3723(6) 0.45999(17)
C21 C 0.81378(15) 0.1828(6) 0.47349(19)
H23 H 0.83360 0.05520 0.51070
C22 C 0.74988(14) 0.1835(7) 0.43196(19)
H24 H 0.72560 0.05490 0.43930
C23 C 0.72213(14) 0.3793(7) 0.37882(19)
H25 H 0.67840 0.38780 0.35300
C24 C 0.75687(13) 0.5600(7) 0.36309(18)
H26 H 0.73630 0.68910 0.32690
#END
