
#######################################################################
#
#                 Cambridge Crystallographic Data Centre
#                                CCDC
#
#######################################################################
#
# If this CIF has been generated from an entry in the Cambridge
# Structural Database, then it will include bibliographic, chemical,
# crystal, experimental, refinement or atomic coordinate data resulting
# from the CCDC's data processing and validation procedures.
#
#######################################################################

data_CSD_CIF_AXEQEA
_audit_creation_date 2011-10-27
_audit_creation_method CSD-ConQuest-V1
_database_code_CSD AXEQEA
_database_code_depnum_ccdc_archive 'CCDC 845705'
_chemical_formula_sum 'C16 H15 N1 O3'
_chemical_formula_moiety
;
C16 H15 N1 O3
;
_journal_coden_Cambridge 4
_journal_volume 133
_journal_year 2011
_journal_page_first 11952
_journal_name_full 'J.Am.Chem.Soc. '
loop_
_publ_author_name
"C.R.Solorio-Alvarado"
"Yahui Wang"
"A.M.Echavarren"
_chemical_name_systematic
;
1-(2-(4-Methoxyphenyl)cyclopropyl)-3-nitrobenzene
;
_cell_volume   1317.310
_exptl_crystal_colour 'colorless'
_exptl_crystal_density_diffrn 1.358
_exptl_crystal_description 'needle'
_diffrn_ambient_temperature 100
#These two values have been output from a single CSD field.
_refine_ls_R_factor_gt 0.0471
_refine_ls_wR_factor_gt 0.0471
_symmetry_cell_setting monoclinic
_symmetry_space_group_name_H-M 'P 21/c'
_symmetry_Int_Tables_number 14
loop_
_symmetry_equiv_pos_site_id
_symmetry_equiv_pos_as_xyz
1 x,y,z
2 -x,1/2+y,1/2-z
3 -x,-y,-z
4 x,-1/2-y,-1/2+z
_cell_length_a 12.306(2)
_cell_length_b 15.287(2)
_cell_length_c 7.0855(11)
_cell_angle_alpha 90
_cell_angle_beta 98.782(6)
_cell_angle_gamma 90
_cell_formula_units_Z 4
loop_
_atom_type_symbol
_atom_type_radius_bond
C 0.68
H 0.23
N 0.68
O 0.68
loop_
_atom_site_label
_atom_site_type_symbol
_atom_site_fract_x
_atom_site_fract_y
_atom_site_fract_z
C1 C 0.95436(12) 0.20351(10) 1.0679(2)
C2 C 0.99791(12) 0.28724(10) 1.0862(2)
H1 H 0.95310 0.33560 1.05390
C3 C 1.10877(13) 0.29815(10) 1.1531(2)
C4 C 1.17978(12) 0.22904(10) 1.2012(2)
H2 H 1.25410 0.23830 1.24430
C5 C 1.13613(13) 0.14537(10) 1.1828(2)
H3 H 1.18170 0.09730 1.21430
C6 C 1.02527(13) 0.1326(1) 1.1178(2)
H4 H 0.99740 0.07600 1.10700
C7 C 0.83498(12) 0.19237(10) 1.0015(2)
H5 H 0.79380 0.24680 0.97210
C8 C 0.79153(12) 0.11369(10) 0.8819(2)
H6 H 0.84780 0.07120 0.85900
C9 C 0.77354(13) 0.12083(12) 1.0871(2)
H7 H 0.81550 0.08220 1.17940
H8 H 0.69970 0.13370 1.11130
C10 C 0.69664(12) 0.12060(9) 0.7258(2)
C11 C 0.69304(12) 0.06932(9) 0.5630(2)
H9 H 0.75280 0.03370 0.55040
C12 C 0.60305(12) 0.06954(9) 0.4187(2)
H10 H 0.60240 0.03390 0.31210
C13 C 0.51389(12) 0.12351(9) 0.4349(2)
C14 C 0.51561(12) 0.17559(10) 0.5966(2)
H11 H 0.45590 0.21130 0.60880
C15 C 0.60563(13) 0.17428(10) 0.7389(2)
H12 H 0.60600 0.20970 0.84570
C16 C 0.42226(13) 0.08241(12) 0.1269(2)
H13 H 0.48250 0.10180 0.06600
H14 H 0.35440 0.09220 0.04310
H15 H 0.43030 0.02110 0.15510
N1 N 1.15217(11) 0.38761(9) 1.17218(19)
O1 O 1.08741(11) 0.44880(8) 1.1452(2)
O2 O 1.2519(1) 0.39752(8) 1.21350(19)
O3 O 0.42170(9) 0.12998(7) 0.29964(16)
#END
