
#######################################################################
#
#                 Cambridge Crystallographic Data Centre
#                                CCDC
#
#######################################################################
#
# If this CIF has been generated from an entry in the Cambridge
# Structural Database, then it will include bibliographic, chemical,
# crystal, experimental, refinement or atomic coordinate data resulting
# from the CCDC's data processing and validation procedures.
#
#######################################################################

data_CSD_CIF_AXEQEB
_audit_creation_date 2016-10-21
_audit_creation_method CSD-ConQuest-V1
_database_code_CSD AXEQEB
_database_code_depnum_ccdc_archive 'CCDC 773164'
_chemical_formula_sum 'C13 H14 N2 O2'
_chemical_formula_moiety
;
C13 H14 N2 O2
;
_journal_coden_Cambridge 231
_journal_volume 55
_journal_year 2010
_journal_page_first 989
_journal_name_full 'Rev.Roum.Chim. '
loop_
_publ_author_name
"C.-V.Maftei"
"E.Fodor"
"I.Mangalagiu"
"P.G.Jones"
"C.-G.Daniluc"
"M.Heiko Franz"
"Ion Neda"
_chemical_name_systematic
;
4-(3-t-butyl-1,2,4-oxadiazol-5-yl)benzaldehyde
;
_cell_volume    592.581
_exptl_crystal_colour 'colorless'
_exptl_crystal_density_diffrn 1.29
_exptl_crystal_description 'prism'
_diffrn_ambient_temperature 100
#These two values have been output from a single CSD field.
_refine_ls_R_factor_gt 0.0363
_refine_ls_wR_factor_gt 0.0363
_symmetry_cell_setting monoclinic
_symmetry_space_group_name_H-M 'P 21/m'
_symmetry_Int_Tables_number 11
loop_
_symmetry_equiv_pos_site_id
_symmetry_equiv_pos_as_xyz
1 x,y,z
2 -x,1/2+y,-z
3 -x,-y,-z
4 x,-1/2-y,z
_cell_length_a 9.2714(2)
_cell_length_b 6.7055(2)
_cell_length_c 9.6182(2)
_cell_angle_alpha 90
_cell_angle_beta 97.689(2)
_cell_angle_gamma 90
_cell_formula_units_Z 2
loop_
_atom_type_symbol
_atom_type_radius_bond
C 0.68
H 0.23
N 0.68
O 0.68
loop_
_atom_site_label
_atom_site_type_symbol
_atom_site_fract_x
_atom_site_fract_y
_atom_site_fract_z
O1 O 0.70553(8) 0.25000 0.92680(8)
O2 O 0.07181(10) 0.25000 1.26805(9)
N1 N 0.80403(10) 0.25000 0.82550(9)
N2 N 0.57156(9) 0.25000 0.71802(9)
C1 C 0.71861(10) 0.25000 0.70546(11)
C2 C 0.77564(11) 0.25000 0.56595(11)
C3 C 0.94191(11) 0.25000 0.58744(12)
H1 H 0.981(1) 0.1311(14) 0.6392(10)
H2 H 0.9764(18) 0.25000 0.4961(15)
C4 C 0.71862(9) 0.06364(12) 0.48338(8)
H3 H 0.75380 -0.05610 0.53570
H4 H 0.75370 0.06350 0.39170
H5 H 0.61200 0.06460 0.47010
C5 C 0.57145(10) 0.25000 0.85323(11)
C6 C 0.44596(11) 0.25000 0.9305(1)
C7 C 0.46421(11) 0.25000 1.07785(11)
H6 H 0.55920 0.25000 1.12920
C8 C 0.34275(11) 0.25000 1.14802(11)
H7 H 0.35430 0.25000 1.24770
C9 C 0.20317(11) 0.25000 1.07168(11)
C10 C 0.18590(12) 0.25000 0.92573(11)
H8 H 0.09090 0.25000 0.87450
C11 C 0.30684(11) 0.25000 0.85447(11)
H9 H 0.29480 0.25000 0.75480
C12 C 0.07147(12) 0.25000 1.14283(12)
H10 H -0.02030 0.25000 1.08550
H1C H 0.981(1) 0.3689(14) 0.6392(10)
C4C C 0.71862(9) 0.43636(12) 0.48338(8)
H3C H 0.75380 0.55610 0.53570
H4C H 0.75370 0.43650 0.39170
H5C H 0.61200 0.43540 0.47010
#END
