
#######################################################################
#
#                 Cambridge Crystallographic Data Centre
#                                CCDC
#
#######################################################################
#
# If this CIF has been generated from an entry in the Cambridge
# Structural Database, then it will include bibliographic, chemical,
# crystal, experimental, refinement or atomic coordinate data resulting
# from the CCDC's data processing and validation procedures.
#
#######################################################################

data_CSD_CIF_AXIQAA
_audit_creation_date 2011-10-27
_audit_creation_method CSD-ConQuest-V1
_database_code_CSD AXIQAA
_database_code_depnum_ccdc_archive 'CCDC 636622'
_chemical_formula_sum 'C10 H8 N2 O1'
_chemical_formula_moiety
;
C10 H8 N2 O1
;
_journal_coden_Cambridge 1255
_journal_volume 15
_journal_year 2009
_journal_page_first 181
_journal_name_full 'Heterocyclic Communications '
loop_
_publ_author_name
"S.E.McKay"
"R.W.Lashlee III"
"L.W.Maina"
"K.A.Wheeler"
"A.B.Brown"
_chemical_name_systematic
;
4-pyridin-2-ylpyridine 1-oxide
;
_chemical_name_common
;
2,4'-bipyridine-1'-oxide
;
_chemical_melting_point 393.15
_cell_volume    867.175
_exptl_crystal_density_diffrn 1.319
_exptl_special_details
;
Melting point range 393.15-394.15K
Published unit-cell dimensions differ slightly than those published
;
_diffrn_ambient_temperature 298
#These two values have been output from a single CSD field.
_refine_ls_R_factor_gt 0.047
_refine_ls_wR_factor_gt 0.047
_symmetry_cell_setting orthorhombic
_symmetry_space_group_name_H-M 'P 21 21 21'
_symmetry_Int_Tables_number 19
loop_
_symmetry_equiv_pos_site_id
_symmetry_equiv_pos_as_xyz
1 x,y,z
2 1/2-x,-y,1/2+z
3 1/2+x,1/2-y,-z
4 -x,1/2+y,1/2-z
_cell_length_a 7.3810(12)
_cell_length_b 10.1501(17)
_cell_length_c 11.575(2)
_cell_angle_alpha 90
_cell_angle_beta 90
_cell_angle_gamma 90
_cell_formula_units_Z 4
loop_
_atom_type_symbol
_atom_type_radius_bond
C 0.68
H 0.23
N 0.68
O 0.68
loop_
_atom_site_label
_atom_site_type_symbol
_atom_site_fract_x
_atom_site_fract_y
_atom_site_fract_z
O1 O 0.1531(3) 0.36022(14) 0.82578(14)
N1 N 0.1476(3) 0.47727(16) 0.87514(14)
N2 N 0.1540(3) 0.96395(16) 0.95967(15)
C1 C 0.1014(3) 0.5856(2) 0.81314(17)
H1 H 0.06970 0.57630 0.73580
C2 C 0.1006(3) 0.7100(2) 0.86281(16)
H2 H 0.07100 0.78290 0.81790
C3 C 0.1439(3) 0.72745(18) 0.98067(15)
C4 C 0.1873(3) 0.61365(19) 1.04273(18)
H3 H 0.21530 0.62000 1.12090
C5 C 0.1892(4) 0.4912(2) 0.98936(19)
H4 H 0.21950 0.41710 1.03240
C6 C 0.1419(3) 0.86140(18) 1.03384(16)
C7 C 0.1302(4) 0.8803(2) 1.15355(16)
H5 H 0.12380 0.80840 1.20320
C8 C 0.1282(4) 1.0077(2) 1.1972(2)
H6 H 0.11820 1.02220 1.27630
C9 C 0.1415(5) 1.1127(2) 1.1217(2)
H7 H 0.14280 1.19890 1.14890
C10 C 0.1527(5) 1.0865(2) 1.0045(2)
H8 H 0.15980 1.15750 0.95390
#END
