
#######################################################################
#
#                 Cambridge Crystallographic Data Centre
#                                CCDC
#
#######################################################################
#
# If this CIF has been generated from an entry in the Cambridge
# Structural Database, then it will include bibliographic, chemical,
# crystal, experimental, refinement or atomic coordinate data resulting
# from the CCDC's data processing and validation procedures.
#
#######################################################################

data_CSD_CIF_AXUYIB
_audit_creation_date 2004-09-24
_audit_creation_method CSD-ConQuest-V1
_database_code_CSD AXUYIB
_database_code_depnum_ccdc_archive 'CCDC 214288'
_chemical_formula_sum 'C23 H20 N4 O5'
_chemical_formula_moiety
;
C23 H20 N4 O5
;
_journal_coden_Cambridge 469
_journal_volume 67
_journal_year 2004
_journal_page_first 878
_journal_name_full 'J.Nat.Prod. '
loop_
_publ_author_name
"P.W.Dalsgaard"
"T.O.Larsen"
"K.Frydenvang"
"C.Christophersen"
_chemical_name_systematic
;
Psychrophilin A
;
_chemical_melting_point 437.15
_cell_volume   1999.000
_exptl_crystal_colour 'colorless'
_exptl_crystal_density_diffrn 1.437
_exptl_special_details
;
Melting point range 437.15-440.15K

;
_exptl_crystal_description 'prism'
_exptl_crystal_preparation 'methanol'
_diffrn_ambient_temperature 122
#These two values have been output from a single CSD field.
_refine_ls_R_factor_gt 0.0305
_refine_ls_wR_factor_gt 0.0305
_chemical_compound_source
;
Penicillium ribeum
;
_symmetry_cell_setting orthorhombic
_symmetry_space_group_name_H-M 'P 21 21 21'
_symmetry_Int_Tables_number 19
loop_
_symmetry_equiv_pos_site_id
_symmetry_equiv_pos_as_xyz
1 x,y,z
2 1/2-x,-y,1/2+z
3 1/2+x,1/2-y,-z
4 -x,1/2+y,1/2-z
_cell_length_a 7.6077(5)
_cell_length_b 8.7862(9)
_cell_length_c 29.906(3)
_cell_angle_alpha 90
_cell_angle_beta 90
_cell_angle_gamma 90
_cell_formula_units_Z 4
loop_
_atom_type_symbol
_atom_type_radius_bond
C 0.68
H 0.23
N 0.68
O 0.68
loop_
_atom_site_label
_atom_site_type_symbol
_atom_site_fract_x
_atom_site_fract_y
_atom_site_fract_z
N1 N 0.2546(2) 0.59740(18) 0.81146(5)
H1 H 0.316(3) 0.521(2) 0.8216(6)
C1 C 0.0822(2) 0.5698(2) 0.80379(5)
O1 O -0.02318(16) 0.66579(14) 0.79185(4)
C2 C 0.0300(2) 0.4015(2) 0.81163(5)
H2 H 0.124(2) 0.336(2) 0.7993(6)
N2 N 0.01618(18) 0.37052(16) 0.86057(4)
C3 C 0.1589(2) 0.34864(18) 0.88567(6)
O2 O 0.31096(15) 0.35189(14) 0.87118(4)
C4 C 0.1300(2) 0.3341(2) 0.93616(6)
H3 H 0.015(3) 0.298(2) 0.9439(6)
C5 C 0.1802(3) 0.4839(2) 0.95944(6)
H4 H 0.13990 0.48170 0.99020
H5 H 0.30710 0.49470 0.95970
C6 C 0.0995(2) 0.61743(19) 0.93578(6)
C7 C 0.1801(2) 0.69921(19) 0.90372(6)
H6 H 0.299(3) 0.697(2) 0.8945(6)
N3 N 0.06428(18) 0.80372(16) 0.88446(5)
C8 C 0.1000(2) 0.89887(19) 0.84801(6)
O3 O -0.00131(16) 0.99897(14) 0.83720(4)
C9 C 0.2741(2) 0.8776(2) 0.82559(5)
C10 C 0.3432(2) 0.7404(2) 0.80896(6)
C11 C 0.5108(2) 0.7391(2) 0.79034(6)
H7 H 0.55650 0.64840 0.77930
C12 C 0.6102(2) 0.8703(2) 0.78795(6)
H8 H 0.72380 0.86700 0.77650
C13 C 0.5401(2) 1.0066(2) 0.80274(6)
H9 H 0.60510 1.09590 0.80050
C14 C 0.3737(2) 1.0096(2) 0.82084(6)
H10 H 0.32670 1.10200 0.83010
C15 C -0.0792(2) 0.67274(19) 0.93866(5)
C16 C -0.2216(2) 0.6345(2) 0.96581(6)
H11 H -0.21200 0.55700 0.98680
C17 C -0.3775(2) 0.7143(2) 0.96085(6)
H12 H -0.47360 0.68970 0.97860
C18 C -0.3919(2) 0.8315(2) 0.92939(6)
H13 H -0.49740 0.88420 0.92690
C19 C -0.2529(2) 0.8709(2) 0.90191(6)
H14 H -0.26320 0.94860 0.88090
C20 C -0.0978(2) 0.78993(19) 0.90690(6)
C21 C -0.1690(2) 0.3452(2) 0.87405(6)
H15 H -0.19750 0.40190 0.90090
H16 H -0.19210 0.23810 0.87920
C22 C -0.2718(2) 0.4038(2) 0.83436(6)
H17 H -0.29160 0.51260 0.83670
H18 H -0.38430 0.35250 0.83180
C23 C -0.1535(2) 0.3664(2) 0.79453(6)
H19 H -0.16420 0.26010 0.78610
H20 H -0.18250 0.42930 0.76890
N4 N 0.2449(2) 0.20435(18) 0.95168(5)
O4 O 0.2146(2) 0.08007(15) 0.93514(5)
O5 O 0.3577(2) 0.22718(16) 0.97974(5)
#END
