
#######################################################################
#
#                 Cambridge Crystallographic Data Centre
#                                CCDC
#
#######################################################################
#
# If this CIF has been generated from an entry in the Cambridge
# Structural Database, then it will include bibliographic, chemical,
# crystal, experimental, refinement or atomic coordinate data resulting
# from the CCDC's data processing and validation procedures.
#
#######################################################################

data_CSD_CIF_AYALOC
_audit_creation_date 2011-10-03
_audit_creation_method CSD-ConQuest-V1
_database_code_CSD AYALOC
_database_code_depnum_ccdc_archive 'CCDC 813544'
_chemical_formula_sum 'C10 H10 N2 O6'
_chemical_formula_moiety
;
C10 H10 N2 O6
;
_journal_coden_Cambridge 95
_journal_year 2010
_journal_page_first 1026
_journal_name_full 'Izv.Akad.Nauk SSSR,Ser.Khim.(Russ.)(Russ.Chem.Bull.) '
loop_
_publ_author_name
"L.B.Romanova"
"L.S.Barinova"
"V.V.Zakharov"
"L.T.Eremenko"
"G.G.Aleksandrov"
"I.L.Eremenko"
_chemical_name_systematic
;
Pentacyclo[4.2.0.0^2,5^.0^3,8^.0^4,7^]octane-1,4-diylbis(methylene) dinitrate
;
_chemical_name_common
;
1,4-bis((Nitrooxy)methyl)cubane
;
_chemical_melting_point 396.15
_cell_volume   1107.932
_exptl_crystal_density_diffrn 1.512
_exptl_special_details
;
Melts with decomposition.
coronary protector

;
_exptl_crystal_preparation 'carbon tetrachloride'
_diffrn_ambient_temperature 295
#These two values have been output from a single CSD field.
_refine_ls_R_factor_gt 0.0483
_refine_ls_wR_factor_gt 0.0483
_symmetry_cell_setting orthorhombic
_symmetry_space_group_name_H-M 'C m c a'
_symmetry_Int_Tables_number 64
loop_
_symmetry_equiv_pos_site_id
_symmetry_equiv_pos_as_xyz
1 x,y,z
2 -x,1/2-y,1/2+z
3 x,-y,-z
4 -x,1/2+y,1/2-z
5 1/2+x,1/2+y,z
6 1/2-x,-y,1/2+z
7 1/2+x,1/2-y,-z
8 1/2-x,y,1/2-z
9 -x,-y,-z
10 x,-1/2+y,-1/2-z
11 -x,y,z
12 x,-1/2-y,-1/2+z
13 -1/2-x,-1/2-y,-z
14 -1/2+x,y,-1/2-z
15 -1/2-x,-1/2+y,z
16 -1/2+x,-y,-1/2+z
_cell_length_a 6.178(3)
_cell_length_b 10.362(4)
_cell_length_c 17.307(8)
_cell_angle_alpha 90
_cell_angle_beta 90
_cell_angle_gamma 90
_cell_formula_units_Z 4
loop_
_atom_type_symbol
_atom_type_radius_bond
C 0.68
H 0.23
N 0.68
O 0.68
loop_
_atom_site_label
_atom_site_type_symbol
_atom_site_fract_x
_atom_site_fract_y
_atom_site_fract_z
O1 O 0.00000 0.24081(16) 0.63042(8)
O2 O 0.00000 0.0487(2) 0.67767(16)
O3 O 0.00000 0.2114(3) 0.75650(13)
N1 N 0.00000 0.1624(2) 0.69373(13)
C1 C 0.00000 0.44131(18) 0.56962(10)
C2 C 0.00000 0.59080(19) 0.55638(11)
C3 C 0.1785(2) 0.42573(13) 0.50671(8)
C4 C 0.00000 0.3790(2) 0.64779(11)
H1 H 0.00000 0.657(3) 0.6010(16)
H2 H 0.311(3) 0.370(2) 0.5125(11)
H3 H 0.125(4) 0.397(3) 0.6783(14)
O1B O 0.00000 0.75919(16) 0.36958(8)
O2B O 0.00000 0.9513(2) 0.32233(16)
O3B O 0.00000 0.7886(3) 0.24350(13)
N1B N 0.00000 0.8376(2) 0.30627(13)
C1B C 0.00000 0.55869(18) 0.43038(10)
C2B C 0.00000 0.40920(19) 0.44362(11)
C3B C 0.1785(2) 0.57427(13) 0.49329(8)
C3J C -0.1785(2) 0.42573(13) 0.50671(8)
C3H C -0.1785(2) 0.57427(13) 0.49329(8)
C4B C 0.00000 0.6210(2) 0.35221(11)
H1B H 0.00000 0.343(3) 0.3990(16)
H2H H -0.311(3) 0.630(2) 0.4875(11)
H2J H -0.311(3) 0.370(2) 0.5125(11)
H2B H 0.311(3) 0.630(2) 0.4875(11)
H3B H 0.125(4) 0.603(3) 0.3217(14)
H3H H -0.125(4) 0.603(3) 0.3217(14)
H3J H -0.125(4) 0.397(3) 0.6783(14)
#END
