
#######################################################################
#
#                 Cambridge Crystallographic Data Centre
#                                CCDC
#
#######################################################################
#
# If this CIF has been generated from an entry in the Cambridge
# Structural Database, then it will include bibliographic, chemical,
# crystal, experimental, refinement or atomic coordinate data resulting
# from the CCDC's data processing and validation procedures.
#
#######################################################################

data_CSD_CIF_AYAMIX
_audit_creation_date 2011-10-03
_audit_creation_method CSD-ConQuest-V1
_database_code_CSD AYAMIX
_database_code_depnum_ccdc_archive 'CCDC 226855'
_chemical_formula_sum 'C16 H18 N4 O2'
_chemical_formula_moiety
;
C16 H18 N4 O2
;
_journal_coden_Cambridge 95
_journal_year 2010
_journal_page_first 992
_journal_name_full 'Izv.Akad.Nauk SSSR,Ser.Khim.(Russ.)(Russ.Chem.Bull.) '
loop_
_publ_author_name
"A.V.Varlamov"
"A.I.Komarova"
"A.N.Levov"
"E.V.Savitkina"
"A.P.Krapivko"
"V.N.Khrustalev"
"E.A.Sorokina"
"L.N.Kulikova"
"E.V.Nikitina"
"V.P.Zaitsev"
"F.I.Zubkov"
_chemical_name_systematic
;
1-Allyl-2-((1E,3E)-4-(N,N-dimethylaminobuta-1,3-dien-1-yl))-6-nitro-1H-benzimi
dazole
;
_chemical_melting_point 402.15
_cell_volume    768.887
_exptl_crystal_colour 'dark red'
_exptl_crystal_density_diffrn 1.289
_exptl_special_details
;
Melting point range 402.15-404.15K

;
_exptl_crystal_description 'prism'
_exptl_crystal_preparation 'ethyl acetate/hexane'
_diffrn_ambient_temperature 295
#These two values have been output from a single CSD field.
_refine_ls_R_factor_gt 0.0543
_refine_ls_wR_factor_gt 0.0543
_symmetry_cell_setting triclinic
_symmetry_space_group_name_H-M 'P -1'
_symmetry_Int_Tables_number 2
loop_
_symmetry_equiv_pos_site_id
_symmetry_equiv_pos_as_xyz
1 x,y,z
2 -x,-y,-z
_cell_length_a 8.4565(17)
_cell_length_b 9.3177(19)
_cell_length_c 11.531(2)
_cell_angle_alpha 68.83(3)
_cell_angle_beta 85.42(3)
_cell_angle_gamma 65.58(3)
_cell_formula_units_Z 2
loop_
_atom_type_symbol
_atom_type_radius_bond
C 0.68
H 0.23
N 0.68
O 0.68
loop_
_atom_site_label
_atom_site_type_symbol
_atom_site_fract_x
_atom_site_fract_y
_atom_site_fract_z
N1 N 0.25480(18) -0.01106(18) 0.44330(14)
C1 C 0.4047(2) -0.0441(2) 0.38982(17)
N2 N 0.39824(18) 0.09111(17) 0.28450(14)
C2 C 0.2349(2) 0.2188(2) 0.27200(15)
C3 C 0.1576(2) 0.3802(2) 0.18480(16)
H1 H 0.21650 0.42400 0.11970
C4 C -0.0136(2) 0.4726(2) 0.20073(16)
C5 C -0.1042(2) 0.4107(2) 0.29730(19)
H2 H -0.21890 0.47890 0.30410
C6 C -0.0254(2) 0.2489(2) 0.38315(18)
H3 H -0.08580 0.20600 0.44750
C7 C 0.1471(2) 0.1513(2) 0.37111(16)
O1 O -0.0193(2) 0.70189(18) 0.03059(15)
O2 O -0.2584(2) 0.7210(2) 0.11577(17)
N3 N -0.1023(2) 0.6425(2) 0.11001(16)
C8 C 0.5573(2) -0.1995(2) 0.43506(18)
H4 H 0.66010 -0.20700 0.39710
C9 C 0.5565(2) -0.3348(2) 0.53077(17)
H5 H 0.44950 -0.32380 0.56310
C10 C 0.6989(2) -0.4920(2) 0.58826(18)
H6 H 0.80830 -0.51110 0.55820
C11 C 0.6772(2) -0.6146(2) 0.68653(18)
H7 H 0.56400 -0.58830 0.71050
N4 N 0.7948(2) -0.76818(19) 0.75412(17)
C12 C 0.9740(3) -0.8272(3) 0.7250(3)
H8 H 0.98920 -0.74050 0.65470
H9 H 1.00440 -0.92650 0.70510
H10 H 1.04780 -0.85400 0.79560
C13 C 0.7491(4) -0.8831(3) 0.8575(2)
H11 H 0.62710 -0.83090 0.86770
H12 H 0.81560 -0.91070 0.93220
H13 H 0.77390 -0.98440 0.84180
C14 C 0.5291(2) 0.0973(2) 0.19418(18)
H14 H 0.47170 0.15180 0.11050
H15 H 0.60960 -0.01730 0.20380
C15 C 0.6282(2) 0.1888(3) 0.2085(2)
H16 H 0.67450 0.16200 0.28780
C16 C 0.6542(4) 0.3058(3) 0.1151(3)
H17 H 0.60910 0.33480 0.03480
H18 H 0.71770 0.36000 0.12890
#END
