
#######################################################################
#
#                 Cambridge Crystallographic Data Centre
#                                CCDC
#
#######################################################################
#
# If this CIF has been generated from an entry in the Cambridge
# Structural Database, then it will include bibliographic, chemical,
# crystal, experimental, refinement or atomic coordinate data resulting
# from the CCDC's data processing and validation procedures.
#
#######################################################################

data_CSD_CIF_AYAVIG
_audit_creation_date 2011-10-03
_audit_creation_method CSD-ConQuest-V1
_database_code_CSD AYAVIG
_database_code_depnum_ccdc_archive 'CCDC 736560'
_chemical_formula_sum 'C14 H17 N5 O5'
_chemical_formula_moiety
;
C14 H17 N5 O5
;
_journal_coden_Cambridge 122
_journal_year 2010
_journal_page_first 1709
_journal_name_full 'Khim.Get.Soedin.,SSSR(Russ.)(Chem.Heterocycl.Compd.) '
loop_
_publ_author_name
"V.V.Bakharev"
"A.A.Gidaspov"
"E.V.Selezneva"
"I.V.Ul'yankina"
"D.B.Krivolapov"
"I.A.Litvinov"
"O.S.El'tsov"
_chemical_name_systematic
;
3-(4-methoxy-6-piperidino-1,3,5-triazin-2-yl)-4-methoxycarbonyl-4,5-dihydroiso
xazol-5-one
;
_chemical_melting_point 418.15
_cell_volume    773.882
_exptl_crystal_colour 'colorless'
_exptl_crystal_density_diffrn 1.439
_exptl_special_details
;
Melting point range 418.15-420.15K

;
_exptl_crystal_description 'prism'
_diffrn_ambient_temperature 295
#These two values have been output from a single CSD field.
_refine_ls_R_factor_gt 0.0369
_refine_ls_wR_factor_gt 0.0369
_symmetry_cell_setting triclinic
_symmetry_space_group_name_H-M 'P -1'
_symmetry_Int_Tables_number 2
loop_
_symmetry_equiv_pos_site_id
_symmetry_equiv_pos_as_xyz
1 x,y,z
2 -x,-y,-z
_cell_length_a 7.0908(5)
_cell_length_b 10.5571(7)
_cell_length_c 11.1432(8)
_cell_angle_alpha 98.552(1)
_cell_angle_beta 107.493(1)
_cell_angle_gamma 97.187(1)
_cell_formula_units_Z 2
loop_
_atom_type_symbol
_atom_type_radius_bond
C 0.68
H 0.23
N 0.68
O 0.68
loop_
_atom_site_label
_atom_site_type_symbol
_atom_site_fract_x
_atom_site_fract_y
_atom_site_fract_z
N1 N 0.59304(16) 0.19812(10) 0.38968(10)
O1 O 0.37775(15) 0.44025(9) 0.16021(9)
N2 N 0.56962(16) 0.40614(11) 0.34676(10)
C1 C 0.43893(19) 0.35305(13) 0.22789(12)
C2 C 0.79082(18) 0.38363(12) 0.55173(11)
N3 N 0.37833(17) 0.22864(11) 0.18614(10)
O2 O 0.71869(16) 0.64249(9) 0.4640(1)
C3 C 0.64400(18) 0.32448(12) 0.42364(11)
O3 O 1.00277(16) 0.37691(10) 0.73587(9)
N4 N 0.86187(18) 0.30117(11) 0.62272(11)
O4 O 0.96049(17) 0.74077(10) 0.64572(10)
C4 C 0.87719(18) 0.51615(12) 0.61082(11)
C5 C 0.84311(19) 0.63369(12) 0.56583(12)
O5 O 1.13837(18) 0.58797(11) 0.82045(9)
C6 C 0.45741(19) 0.15230(13) 0.26953(12)
N5 N 0.39778(19) 0.02464(11) 0.23229(11)
C7 C 0.4764(3) -0.06825(15) 0.31176(16)
C8 C 0.2306(3) 0.39362(18) 0.03324(15)
C9 C 0.2365(3) -0.03478(17) 0.11060(19)
C10 C 1.0183(2) 0.50955(14) 0.73072(12)
C11 C 0.3770(3) -0.23892(16) 0.11197(19)
C12 C 0.3006(3) -0.13995(16) 0.03371(17)
C13 C 0.5441(3) -0.17259(17) 0.2343(2)
C14 C 0.9429(3) 0.86140(15) 0.6012(2)
H1 H 0.128(3) -0.073(2) 0.138(2)
H2 H 0.198(3) 0.036(2) 0.065(2)
H3 H 0.192(3) -0.179(2) -0.045(2)
H4 H 0.412(3) -0.100(2) 0.007(2)
H5 H 0.256(3) -0.287(2) 0.1303(19)
H6 H 0.416(3) -0.304(2) 0.061(2)
H7 H 0.661(4) -0.132(3) 0.215(2)
H8 H 0.593(3) -0.232(3) 0.290(2)
H9 H 0.584(3) -0.0209(19) 0.3836(18)
H10 H 0.360(3) -0.108(2) 0.337(2)
H11 H 0.102(4) 0.359(2) 0.040(2)
H12 H 0.215(3) 0.469(2) -0.001(2)
H13 H 0.278(3) 0.329(2) -0.015(2)
H14 H 1.026(3) 0.932(2) 0.679(2)
H15 H 0.992(3) 0.860(2) 0.530(2)
H16 H 0.807(3) 0.873(2) 0.578(2)
H17 H 0.616(3) 0.499(2) 0.3783(18)
#END
