
#######################################################################
#
#                 Cambridge Crystallographic Data Centre
#                                CCDC
#
#######################################################################
#
# If this CIF has been generated from an entry in the Cambridge
# Structural Database, then it will include bibliographic, chemical,
# crystal, experimental, refinement or atomic coordinate data resulting
# from the CCDC's data processing and validation procedures.
#
#######################################################################

data_CSD_CIF_AYECEM
_audit_creation_date 2004-09-24
_audit_creation_method CSD-ConQuest-V1
_database_code_CSD AYECEM
_database_code_depnum_ccdc_archive 'CCDC 242356'
_chemical_formula_sum 'C10 H12 N4 O5'
_chemical_formula_moiety
;
C10 H12 N4 O5
;
_journal_coeditor_code "IUCr TK6169"
_journal_coden_Cambridge 1370
_journal_volume 60
_journal_year 2004
_journal_page_first o1084
_journal_name_full 'Acta Crystallogr.,Sect.E:Struct.Rep.Online '
loop_
_publ_author_name
"Cheng-Xia Tan"
"Jian-Ming Gu"
"De-Long Shen"
"Jian-Quan Weng"
"De-Fang Fan"
_chemical_name_systematic
;
3-(3-Ethyl-1-methyl-4-nitro-1H-pyrazol-5-ylcarbonyl)oxazolidin-2-one
;
_chemical_melting_point 414
_cell_volume   1232.250
_exptl_crystal_colour 'colorless'
_exptl_crystal_density_diffrn 1.446
_exptl_special_details
;
Melting point range 414-415K

;
_exptl_crystal_description 'block'
_exptl_crystal_preparation 'ethanol'
_diffrn_ambient_temperature 293.0
#These two values have been output from a single CSD field.
_refine_ls_R_factor_gt 0.064
_refine_ls_wR_factor_gt 0.064
_symmetry_cell_setting monoclinic
_symmetry_space_group_name_H-M 'P 21/n'
_symmetry_Int_Tables_number 14
loop_
_symmetry_equiv_pos_site_id
_symmetry_equiv_pos_as_xyz
1 x,y,z
2 1/2+x,1/2-y,1/2+z
3 -x,-y,-z
4 -1/2-x,-1/2+y,-1/2-z
_cell_length_a 15.2175(3)
_cell_length_b 5.2970(1)
_cell_length_c 15.8185(3)
_cell_angle_alpha 90
_cell_angle_beta 104.893(4)
_cell_angle_gamma 90
_cell_formula_units_Z 4
loop_
_atom_type_symbol
_atom_type_radius_bond
C 0.68
H 0.23
N 0.68
O 0.68
loop_
_atom_site_label
_atom_site_type_symbol
_atom_site_fract_x
_atom_site_fract_y
_atom_site_fract_z
O1 O 0.7832(2) 0.4240(6) 0.6271(2)
O2 O 0.6775(2) 0.3917(5) 0.7024(2)
O3 O 0.6433(2) -0.1824(5) 0.4905(2)
O4 O 0.5784(2) 0.3380(5) 0.3902(2)
O5 O 0.6402(2) 0.5719(6) 0.3084(2)
N1 N 0.6672(2) 0.1260(5) 0.5918(2)
N2 N 0.8363(2) 0.0864(5) 0.4936(2)
N3 N 0.8811(2) 0.2257(5) 0.4452(2)
N4 N 0.6448(2) 0.4170(5) 0.3669(2)
C1 C 0.7154(3) 0.3253(6) 0.6382(2)
C2 C 0.5977(3) 0.2385(8) 0.6982(3)
C3 C 0.5969(3) 0.0365(8) 0.6328(3)
C4 C 0.6823(2) 0.0108(6) 0.5191(2)
C5 C 0.7475(2) 0.1396(6) 0.4753(2)
C6 C 0.7325(2) 0.3163(6) 0.4096(2)
C7 C 0.8169(2) 0.3702(6) 0.3929(2)
C8 C 0.8419(2) 0.5541(6) 0.3305(2)
C9 C 0.9430(3) 0.5555(9) 0.3338(3)
C10 C 0.8880(3) -0.0840(8) 0.5609(3)
H1 H 0.60160 0.16510 0.75520
H2 H 0.54310 0.34030 0.68060
H3 H 0.53840 0.02470 0.59040
H4 H 0.61290 -0.12640 0.66050
H5 H 0.80810 0.51210 0.27130
H6 H 0.82440 0.72110 0.34540
H7 H 0.97360 0.67480 0.37710
H8 H 0.95180 0.60150 0.27780
H9 H 0.96730 0.38980 0.34940
H10 H 0.89160 -0.24750 0.53580
H11 H 0.85780 -0.09830 0.60700
H12 H 0.94820 -0.01860 0.58420
#END
