
#######################################################################
#
#                 Cambridge Crystallographic Data Centre
#                                CCDC
#
#######################################################################
#
# If this CIF has been generated from an entry in the Cambridge
# Structural Database, then it will include bibliographic, chemical,
# crystal, experimental, refinement or atomic coordinate data resulting
# from the CCDC's data processing and validation procedures.
#
#######################################################################

data_CSD_CIF_AYUQIU
_audit_creation_date 2004-10-19
_audit_creation_method CSD-ConQuest-V1
_database_code_CSD AYUQIU
_database_code_depnum_ccdc_archive 'CCDC 192380'
_chemical_formula_sum 'C13 H13 N5 O5'
_chemical_formula_moiety
;
C13 H13 N5 O5
;
_journal_coden_Cambridge 1003
_journal_volume 34
_journal_year 2004
_journal_page_first 317
_journal_name_full 'J.Chem.Cryst. '
loop_
_publ_author_name
"C.Zalaru"
"M.R.Caira"
"M.Iovu"
"E.Cristea"
_chemical_name_systematic
;
2-(3,5-Dimethyl-4-nitro-pyrazol-1-yl)-2'-nitroacetanilide
;
_chemical_melting_point 429
_cell_volume    713.539
_exptl_crystal_colour 'yellow'
_exptl_crystal_density_diffrn 1.486
_exptl_special_details
;
Melting point range 429-430K
anaesthetic and antiarrhythmic activity

;
_exptl_crystal_description 'prism'
_exptl_crystal_preparation '2-ethoxyethyl acetate'
_diffrn_ambient_temperature 173
#These two values have been output from a single CSD field.
_refine_ls_R_factor_gt 0.0529
_refine_ls_wR_factor_gt 0.0529
_symmetry_cell_setting monoclinic
_symmetry_space_group_name_H-M 'P 21'
_symmetry_Int_Tables_number 4
loop_
_symmetry_equiv_pos_site_id
_symmetry_equiv_pos_as_xyz
1 x,y,z
2 -x,1/2+y,-z
_cell_length_a 5.7788(2)
_cell_length_b 8.9844(3)
_cell_length_c 14.0304(5)
_cell_angle_alpha 90
_cell_angle_beta 101.611(1)
_cell_angle_gamma 90
_cell_formula_units_Z 2
loop_
_atom_type_symbol
_atom_type_radius_bond
C 0.68
H 0.23
N 0.68
O 0.68
loop_
_atom_site_label
_atom_site_type_symbol
_atom_site_fract_x
_atom_site_fract_y
_atom_site_fract_z
C1 C 0.4765(3) 0.7637(2) 0.64859(12)
C2 C 0.2993(3) 0.6721(2) 0.66973(14)
C3 C 0.3210(5) 0.5998(3) 0.75891(16)
H1 H 0.20060 0.53460 0.77080
C4 C 0.5207(5) 0.6248(3) 0.82972(16)
H2 H 0.53820 0.57650 0.89100
C5 C 0.6957(5) 0.7200(3) 0.81179(16)
H3 H 0.83090 0.73840 0.86130
C6 C 0.6745(4) 0.7885(3) 0.72191(15)
H4 H 0.79590 0.85310 0.71020
N1 N 0.0754(3) 0.65409(19) 0.60005(13)
O1 O -0.0115(2) 0.76341(18) 0.55513(11)
O2 O -0.0166(3) 0.52967(19) 0.59303(15)
N2 N 0.4706(3) 0.82906(16) 0.55649(11)
C7 C 0.4320(3) 0.75106(19) 0.47259(12)
O3 O 0.3645(2) 0.62130(14) 0.46553(9)
C8 C 0.4818(3) 0.8408(2) 0.38718(13)
H5 H 0.37630 0.92870 0.37750
H6 H 0.64660 0.87740 0.40330
N3 N 0.4490(3) 0.75781(19) 0.29731(11)
N4 N 0.2515(3) 0.7846(2) 0.22696(13)
C9 C 0.2776(5) 0.6969(3) 0.15291(15)
C10 C 0.4897(4) 0.6163(3) 0.17752(15)
C11 C 0.5979(4) 0.6584(2) 0.27075(14)
C12 C 0.0953(6) 0.7011(4) 0.05959(19)
H7 H -0.03200 0.76960 0.06690
H8 H 0.03020 0.60110 0.04470
H9 H 0.16920 0.73540 0.00650
C13 C 0.8254(4) 0.6144(3) 0.33402(17)
H10 H 0.95630 0.64400 0.30320
H11 H 0.82840 0.50630 0.34340
H12 H 0.84190 0.66390 0.39730
N5 N 0.5849(5) 0.5063(3) 0.11915(15)
O4 O 0.7776(5) 0.4460(3) 0.15431(19)
O5 O 0.4595(6) 0.4766(3) 0.03949(14)
H13 H 0.547(4) 0.9283(13) 0.5574(18)
#END
