
#######################################################################
#
#                 Cambridge Crystallographic Data Centre
#                                CCDC
#
#######################################################################
#
# If this CIF has been generated from an entry in the Cambridge
# Structural Database, then it will include bibliographic, chemical,
# crystal, experimental, refinement or atomic coordinate data resulting
# from the CCDC's data processing and validation procedures.
#
#######################################################################

data_CSD_CIF_AZABUA
_audit_creation_date 2016-10-27
_audit_creation_method CSD-ConQuest-V1
_database_code_CSD AZABUA
_database_code_depnum_ccdc_archive 'CCDC 995271'
_chemical_formula_sum 'C29 H24 N10 O4'
_chemical_formula_moiety
;
C29 H24 N10 O4
;
_journal_coden_Cambridge 1078
_journal_year 2016
_journal_name_full 'CSD Communication(Private Communication) '
loop_
_publ_author_name
"V.A.Tafeenko"
_chemical_name_systematic
;
methyl 
1,3''-dibenzyl-5-methyl-3'-(4-nitrophenyl)-1H,3'H,3''H-4,4':5',4''-ter-1,2,3-t
riazole-5''-carboxylate
;
_chemical_melting_point 487
_cell_volume   2863.058
_exptl_crystal_colour 'colorless'
_exptl_crystal_density_diffrn 1.338
_exptl_crystal_description 'prism'
_diffrn_ambient_temperature 295
#These two values have been output from a single CSD field.
_refine_ls_R_factor_gt 0.0393
_refine_ls_wR_factor_gt 0.0393
_symmetry_cell_setting monoclinic
_symmetry_space_group_name_H-M 'P 21/c'
_symmetry_Int_Tables_number 14
loop_
_symmetry_equiv_pos_site_id
_symmetry_equiv_pos_as_xyz
1 x,y,z
2 -x,1/2+y,1/2-z
3 -x,-y,-z
4 x,-1/2-y,-1/2+z
_cell_length_a 18.0100(3)
_cell_length_b 7.5819(1)
_cell_length_c 20.9737(4)
_cell_angle_alpha 90
_cell_angle_beta 91.437(1)
_cell_angle_gamma 90
_cell_formula_units_Z 4
loop_
_atom_type_symbol
_atom_type_radius_bond
C 0.68
H 0.23
N 0.68
O 0.68
loop_
_atom_site_label
_atom_site_type_symbol
_atom_site_fract_x
_atom_site_fract_y
_atom_site_fract_z
O1 O 0.10523(7) 0.2096(2) 0.03714(7)
O2 O 0.21554(6) 0.2830(2) -0.00078(6)
O3 O 0.40271(9) 1.3495(2) -0.11526(8)
O4 O 0.49018(9) 1.1964(2) -0.15558(7)
N1 N 0.37131(7) 0.64930(19) 0.04199(6)
N2 N 0.42751(7) 0.5404(2) 0.06091(7)
N3 N 0.39914(7) 0.4133(2) 0.09425(7)
N4 N 0.28826(8) 0.2469(2) 0.18598(7)
N5 N 0.23350(11) 0.1357(2) 0.20225(9)
N6 N 0.18536(10) 0.1279(2) 0.15421(9)
N7 N 0.12294(7) 0.7729(2) 0.06086(7)
N8 N 0.13966(8) 0.7794(2) -0.00154(7)
N9 N 0.20710(7) 0.7180(2) -0.00669(7)
N10 N 0.4405(1) 1.2170(3) -0.11798(8)
C1 C 0.30520(8) 0.5897(2) 0.06386(7)
C2 C 0.32423(8) 0.4389(2) 0.09654(7)
C3 C 0.27580(9) 0.3113(2) 0.12650(8)
C4 C 0.21030(9) 0.2332(2) 0.10696(9)
C5 C 0.23293(8) 0.6726(2) 0.05253(7)
C6 C 0.17978(8) 0.7068(2) 0.09646(8)
C7 C 0.17924(10) 0.6859(3) 0.16692(8)
H1 H 0.15650 0.78740 0.18560
H2 H 0.22930 0.67460 0.18320
H3 H 0.15160 0.58210 0.17750
C8 C 0.16987(10) 0.2408(3) 0.04471(9)
C9 C 0.18308(13) 0.2952(4) -0.06457(10)
H4 H 0.16130 0.18390 -0.07630
H5 H 0.22100 0.32490 -0.09410
H6 H 0.14540 0.38490 -0.06550
C10 C 0.38864(8) 0.7971(2) 0.00263(7)
C11 C 0.35539(9) 0.9584(3) 0.01147(8)
H7 H 0.32150 0.97360 0.04370
C12 C 0.37271(9) 1.0966(3) -0.02768(9)
H8 H 0.35010 1.20590 -0.02290
C13 C 0.42412(9) 1.0707(3) -0.07413(8)
C14 C 0.45897(9) 0.9115(3) -0.08240(8)
H9 H 0.49440 0.89820 -0.11350
C15 C 0.44054(9) 0.7718(3) -0.04386(8)
H10 H 0.46270 0.66210 -0.04910
C16 C 0.33462(11) 0.4652(3) 0.26423(8)
C17 C 0.27684(12) 0.4847(3) 0.30556(9)
H11 H 0.24580 0.38960 0.31360
C18 C 0.26469(16) 0.6456(4) 0.33521(11)
H12 H 0.22580 0.65860 0.36320
C19 C 0.3104(2) 0.7842(4) 0.32290(15)
H13 H 0.30230 0.89240 0.34250
C20 C 0.36787(17) 0.7659(4) 0.28211(15)
H14 H 0.39900 0.86100 0.27440
C21 C 0.37969(12) 0.6079(3) 0.25272(10)
H15 H 0.41860 0.59660 0.22470
C22 C 0.34777(11) 0.2903(3) 0.23245(9)
H16 H 0.39480 0.29390 0.21100
H17 H 0.35090 0.19860 0.26470
C23 C 0.05033(9) 0.8368(3) 0.0811(1)
H18 H 0.02060 0.86880 0.04370
H19 H 0.05740 0.94220 0.10680
C24 C 0.00885(9) 0.7023(3) 0.11895(9)
C25 C -0.02753(11) 0.7515(4) 0.17257(10)
H20 H -0.02550 0.86810 0.18630
C26 C -0.06742(18) 0.6285(8) 0.20664(15)
H21 H -0.09110 0.66220 0.24360
C27 C -0.0720(2) 0.4600(8) 0.1862(2)
H22 H -0.10010 0.37890 0.20850
C28 C -0.03594(17) 0.4078(4) 0.13340(17)
H23 H -0.03860 0.29080 0.12010
C29 C 0.00452(11) 0.5282(3) 0.09955(10)
H24 H 0.02920 0.49220 0.06330
#END
