
#######################################################################
#
#                 Cambridge Crystallographic Data Centre
#                                CCDC
#
#######################################################################
#
# If this CIF has been generated from an entry in the Cambridge
# Structural Database, then it will include bibliographic, chemical,
# crystal, experimental, refinement or atomic coordinate data resulting
# from the CCDC's data processing and validation procedures.
#
#######################################################################

data_CSD_CIF_AZAPOG
_audit_creation_date 2006-10-09
_audit_creation_method CSD-ConQuest-V1
_database_code_CSD AZAPOG
_database_code_depnum_ccdc_archive 'CCDC 238143'
_chemical_formula_sum 'C25 H25 N1 O1'
_chemical_formula_moiety
;
C25 H25 N1 O1
;
_journal_coden_Cambridge 1291
_journal_year 2006
_journal_page_first 3001
_journal_name_full 'Eur.J.Org.Chem. '
loop_
_publ_author_name
"A.A.Aly"
"H.Hopf"
"J.Ernst"
"I.Dix"
"P.G.Jones"
_chemical_name_systematic
;
(3R*)-2,3-Dimethyl-3-((4S*)-4'-(2.2)paracyclophanyl)-2,3-dihydrobenzo(d)isoxaz
ole
;
_chemical_melting_point 415.15
_cell_volume   1865.850
_exptl_crystal_colour 'colorless'
_exptl_crystal_density_diffrn 1.265
_exptl_crystal_description 'prism'
_diffrn_ambient_temperature 143
#These two values have been output from a single CSD field.
_refine_ls_R_factor_gt 0.047
_refine_ls_wR_factor_gt 0.047
_symmetry_cell_setting orthorhombic
_symmetry_space_group_name_H-M 'P 21 21 21'
_symmetry_Int_Tables_number 19
loop_
_symmetry_equiv_pos_site_id
_symmetry_equiv_pos_as_xyz
1 x,y,z
2 1/2-x,-y,1/2+z
3 -x,1/2+y,1/2-z
4 1/2+x,1/2-y,-z
_cell_length_a 9.709(2)
_cell_length_b 12.275(2)
_cell_length_c 15.656(2)
_cell_angle_alpha 90
_cell_angle_beta 90
_cell_angle_gamma 90
_cell_formula_units_Z 4
loop_
_atom_type_symbol
_atom_type_radius_bond
C 0.68
H 0.23
N 0.68
O 0.68
loop_
_atom_site_label
_atom_site_type_symbol
_atom_site_fract_x
_atom_site_fract_y
_atom_site_fract_z
O1 O 0.32661(19) 0.69926(15) 0.66712(12)
N1 N 0.3528(2) 0.64546(16) 0.75116(13)
C1 C 0.4375(3) 0.5464(2) 0.72827(17)
C2 C 0.5079(3) 0.58403(19) 0.64710(17)
C3 C 0.6250(3) 0.5471(2) 0.60516(19)
H1 H 0.67570 0.48660 0.62640
C4 C 0.6660(3) 0.6009(2) 0.53129(19)
H2 H 0.74530 0.57650 0.50120
C5 C 0.5926(3) 0.6899(2) 0.50096(19)
H3 H 0.62230 0.72560 0.45040
C6 C 0.4763(3) 0.7276(2) 0.54340(18)
H4 H 0.42570 0.78850 0.52300
C7 C 0.4377(3) 0.6728(2) 0.61642(17)
C8 C 0.4286(3) 0.7282(2) 0.79893(18)
H5 H 0.51490 0.74490 0.76920
H6 H 0.44910 0.70080 0.85630
H7 H 0.37270 0.79440 0.80330
C9 C 0.5439(3) 0.5164(2) 0.79659(18)
H8 H 0.60810 0.57710 0.80450
H9 H 0.59500 0.45150 0.77830
H10 H 0.49680 0.50120 0.85060
C10 C 0.0795(3) 0.5234(2) 0.8533(2)
H11 H 0.01830 0.50240 0.90110
H12 H 0.09550 0.60290 0.85720
C11 C 0.2218(3) 0.4623(2) 0.86359(17)
H13 H 0.29360 0.51610 0.87900
H14 H 0.21440 0.40940 0.91110
C12 C 0.2665(3) 0.4022(2) 0.78314(16)
C13 C 0.3393(2) 0.44940(19) 0.71446(16)
C14 C 0.3182(3) 0.40613(19) 0.63313(16)
H15 H 0.36280 0.43930 0.58580
C15 C 0.2341(3) 0.3160(2) 0.61874(17)
C16 C 0.1953(3) 0.2555(2) 0.68928(17)
H16 H 0.15830 0.18450 0.68220
C17 C 0.2106(3) 0.2992(2) 0.77026(17)
H17 H 0.18220 0.25770 0.81830
C18 C 0.1653(3) 0.2966(2) 0.53326(17)
H18 H 0.16780 0.21780 0.52010
H19 H 0.21790 0.33510 0.48830
C19 C 0.0108(3) 0.3370(3) 0.53119(19)
H20 H -0.00440 0.38010 0.47860
H21 H -0.05100 0.27290 0.52900
C20 C -0.0265(3) 0.4057(2) 0.60763(18)
C21 C 0.0259(3) 0.5111(2) 0.61700(19)
H22 H 0.05030 0.55190 0.56770
C22 C 0.0427(3) 0.5566(2) 0.69660(19)
H23 H 0.07880 0.62820 0.70170
C23 C 0.0074(3) 0.4986(2) 0.76977(19)
C24 C -0.0732(3) 0.4055(2) 0.75901(19)
H24 H -0.11730 0.37350 0.80700
C25 C -0.0895(3) 0.3594(2) 0.67890(19)
H25 H -0.14410 0.29570 0.67250
#END
