
#######################################################################
#
#                 Cambridge Crystallographic Data Centre
#                                CCDC
#
#######################################################################
#
# If this CIF has been generated from an entry in the Cambridge
# Structural Database, then it will include bibliographic, chemical,
# crystal, experimental, refinement or atomic coordinate data resulting
# from the CCDC's data processing and validation procedures.
#
#######################################################################

data_CSD_CIF_AZAVUT01
_audit_creation_date 2015-01-02
_audit_creation_method CSD-ConQuest-V1
_database_code_CSD AZAVUT01
_database_code_depnum_ccdc_archive 'CCDC 1041574'
_chemical_formula_sum 'C18 H15 N1 O1'
_chemical_formula_moiety
;
C18 H15 N1 O1
;
_journal_coden_Cambridge 651
_journal_volume 11
_journal_year 2009
_journal_page_first 21
_journal_name_full 'J.Soc.Chim.Tunis '
loop_
_publ_author_name
"I.Garrouch"
"M.M.Rammah"
"M.Askri"
"M.B.Rammah"
"M.Knoor"
"C.Strohmann"
_chemical_name_systematic
;
3-(4-methylphenyl)-4,5-dihydronaphtho[2,1-d][1,2]oxazole
;
_cell_volume   1338.170
_exptl_crystal_colour 'colorless'
_exptl_crystal_density_diffrn 1.297
_exptl_crystal_preparation 'Benzene'
_diffrn_ambient_temperature 193
#These two values have been output from a single CSD field.
_refine_ls_R_factor_gt 0.0492
_refine_ls_wR_factor_gt 0.0492
_symmetry_cell_setting monoclinic
_symmetry_space_group_name_H-M 'P 21/c'
_symmetry_Int_Tables_number 14
loop_
_symmetry_equiv_pos_site_id
_symmetry_equiv_pos_as_xyz
1 x,y,z
2 -x,1/2+y,1/2-z
3 -x,-y,-z
4 x,-1/2-y,-1/2+z
_cell_length_a 5.9782(14)
_cell_length_b 10.772(4)
_cell_length_c 20.789(5)
_cell_angle_alpha 90
_cell_angle_beta 91.69(3)
_cell_angle_gamma 90
_cell_formula_units_Z 4
loop_
_atom_type_symbol
_atom_type_radius_bond
C 0.68
H 0.23
N 0.68
O 0.68
loop_
_atom_site_label
_atom_site_type_symbol
_atom_site_fract_x
_atom_site_fract_y
_atom_site_fract_z
C1 C 1.2607(4) 0.2568(2) 0.39600(12)
H1 H 1.38380 0.31620 0.39240
H2 H 1.31940 0.17200 0.39330
H3 H 1.18890 0.26820 0.43740
C2 C 1.0905(3) 0.27819(19) 0.34162(11)
C3 C 1.1216(4) 0.36760(19) 0.29427(11)
H4 H 1.25520 0.41540 0.29550
C4 C 0.9634(4) 0.38872(18) 0.24558(11)
H5 H 0.98920 0.45070 0.21420
C5 C 0.7653(3) 0.31916(17) 0.24237(10)
C6 C 0.7332(4) 0.22818(18) 0.28902(11)
H6 H 0.60110 0.17920 0.28740
C7 C 0.8932(4) 0.20882(19) 0.33782(11)
H7 H 0.86780 0.14690 0.36930
C8 C 0.5910(3) 0.34250(18) 0.19162(10)
C9 C 0.4271(3) 0.25942(18) 0.16488(10)
C10 C 0.3608(4) 0.12643(18) 0.17619(11)
H8 H 0.25600 0.12200 0.21210
H9 H 0.49500 0.07660 0.18800
C11 C 0.2482(4) 0.07394(19) 0.11467(11)
H10 H 0.36510 0.05590 0.08320
H11 H 0.17460 -0.00560 0.12520
C12 C 0.0751(4) 0.16017(19) 0.08335(10)
C13 C -0.1142(4) 0.1160(2) 0.05048(11)
H12 H -0.14290 0.02930 0.04980
C14 C -0.2628(4) 0.1959(3) 0.01855(12)
H13 H -0.39040 0.16360 -0.00400
C15 C -0.2240(4) 0.3235(2) 0.01975(11)
H14 H -0.32450 0.37830 -0.00230
C16 C -0.0387(4) 0.3701(2) 0.05315(11)
H15 H -0.01450 0.45720 0.05490
C17 C 0.1130(4) 0.29000(19) 0.08428(10)
C18 C 0.3089(4) 0.32914(17) 0.12201(10)
N1 N 0.5721(3) 0.45432(16) 0.16605(9)
O1 O 0.3897(3) 0.44706(12) 0.12037(7)
#END
