
#######################################################################
#
#                 Cambridge Crystallographic Data Centre
#                                CCDC
#
#######################################################################
#
# If this CIF has been generated from an entry in the Cambridge
# Structural Database, then it will include bibliographic, chemical,
# crystal, experimental, refinement or atomic coordinate data resulting
# from the CCDC's data processing and validation procedures.
#
#######################################################################

data_CSD_CIF_AZEHOD
_audit_creation_date 2011-12-12
_audit_creation_method CSD-ConQuest-V1
_database_code_CSD AZEHOD
_database_code_depnum_ccdc_archive 'CCDC 823684'
_chemical_formula_sum 'C9 H14 N2 O2'
_chemical_formula_moiety
;
C9 H14 N2 O2
;
_journal_coden_Cambridge 1090
_journal_volume 22
_journal_year 2011
_journal_page_first 1266
_journal_name_full 'Tetrahedron:Asymm. '
loop_
_publ_author_name
"M.Thiverny"
"E.Demory"
"B.Baptiste"
"C.Philouze"
"P.Y.Chavant"
"V.Blandin"
_chemical_name_systematic
;
4-Methyl-3-oxo-1,4-diazaspiro[4.5]dec-1-ene 1-oxide
;
_cell_volume    941.252
_exptl_crystal_colour 'colorless'
_exptl_crystal_density_diffrn 1.286
_exptl_crystal_description 'prism'
_diffrn_ambient_temperature 296
#These two values have been output from a single CSD field.
_refine_ls_R_factor_gt 0.0425
_refine_ls_wR_factor_gt 0.0425
_symmetry_cell_setting monoclinic
_symmetry_space_group_name_H-M 'P 21/a'
_symmetry_Int_Tables_number 14
loop_
_symmetry_equiv_pos_site_id
_symmetry_equiv_pos_as_xyz
1 x,y,z
2 1/2-x,1/2+y,-z
3 -x,-y,-z
4 -1/2+x,-1/2-y,z
_cell_length_a 11.213(2)
_cell_length_b 9.824(3)
_cell_length_c 8.631(3)
_cell_angle_alpha 90
_cell_angle_beta 98.11(2)
_cell_angle_gamma 90
_cell_formula_units_Z 4
loop_
_atom_type_symbol
_atom_type_radius_bond
C 0.68
H 0.23
N 0.68
O 0.68
loop_
_atom_site_label
_atom_site_type_symbol
_atom_site_fract_x
_atom_site_fract_y
_atom_site_fract_z
O1 O 0.0378(1) 0.2023(1) 0.9660(1)
O2 O 0.1305(1) -0.0807(1) 0.5704(2)
N1 N 0.0694(1) 0.1548(1) 0.8408(2)
N2 N 0.1379(1) 0.1510(1) 0.6061(2)
C1 C 0.1064(1) 0.2498(2) 0.7191(2)
C2 C 0.1168(1) 0.0209(2) 0.6474(2)
C3 C 0.0752(2) 0.0282(2) 0.7989(2)
C4 C 0.1616(2) 0.1860(2) 0.4500(2)
C5 C 0.2156(1) 0.3353(2) 0.7869(2)
C6 C 0.1856(2) 0.4561(2) 0.8850(2)
C7 C 0.0828(2) 0.5417(2) 0.8017(2)
C8 C -0.0280(2) 0.4543(2) 0.7541(2)
C9 C -0.0007(1) 0.3375(2) 0.6501(2)
H1 H 0.05530 -0.04790 0.85830
H2 H 0.17070 0.10500 0.39260
H3 H 0.23350 0.23830 0.45710
H4 H 0.09620 0.23760 0.39820
H5 H 0.27030 0.27800 0.85090
H6 H 0.25310 0.36880 0.70240
H7 H 0.16310 0.42310 0.98020
H8 H 0.25510 0.51190 0.90710
H9 H 0.06360 0.61160 0.87010
H10 H 0.10720 0.58140 0.71090
H11 H -0.05470 0.41860 0.84550
H12 H -0.08970 0.50910 0.69880
H13 H -0.06990 0.28090 0.63170
H14 H 0.01600 0.37410 0.55360
#END
