
#######################################################################
#
#                 Cambridge Crystallographic Data Centre
#                                CCDC
#
#######################################################################
#
# If this CIF has been generated from an entry in the Cambridge
# Structural Database, then it will include bibliographic, chemical,
# crystal, experimental, refinement or atomic coordinate data resulting
# from the CCDC's data processing and validation procedures.
#
#######################################################################

data_CSD_CIF_AZEJEU
_audit_creation_date 2004-10-19
_audit_creation_method CSD-ConQuest-V1
_database_code_CSD AZEJEU
_database_code_depnum_ccdc_archive 'CCDC 251267'
_chemical_formula_sum 'C23 H15 N5 O3'
_chemical_formula_moiety
;
C23 H15 N5 O3
;
_journal_coden_Cambridge 95
_journal_year 2004
_journal_page_first 159
_journal_name_full 'Izv.Akad.Nauk SSSR,Ser.Khim.(Russ.)(Russ.Chem.Bull.) '
loop_
_publ_author_name
"V.A.Mamedov"
"A.A.Kalinin"
"A.T.Gubaidullin"
"A.V.Chernova"
"I.A.Litvinov"
"Ya.A.Levin"
"R.R.Shagidullin"
_chemical_name_systematic
;
2-(1-Acetylbenzimidazol-2-yl)-6-nitro-3-phenylquinoxaline
;
_chemical_melting_point 489.15
_cell_volume   1907.785
_exptl_crystal_colour 'yellow'
_exptl_crystal_density_diffrn 1.43
_exptl_special_details
;
Melting point range 489.15-491.15K

;
_exptl_crystal_description 'prism'
_diffrn_ambient_temperature 295
#These two values have been output from a single CSD field.
_refine_ls_R_factor_gt 0.059
_refine_ls_wR_factor_gt 0.059
_symmetry_cell_setting monoclinic
_symmetry_space_group_name_H-M 'P 21/c'
_symmetry_Int_Tables_number 14
loop_
_symmetry_equiv_pos_site_id
_symmetry_equiv_pos_as_xyz
1 x,y,z
2 -x,1/2+y,1/2-z
3 -x,-y,-z
4 x,-1/2-y,-1/2+z
_cell_length_a 7.487(8)
_cell_length_b 21.28(2)
_cell_length_c 12.245(6)
_cell_angle_alpha 90
_cell_angle_beta 102.07(4)
_cell_angle_gamma 90
_cell_formula_units_Z 4
loop_
_atom_type_symbol
_atom_type_radius_bond
C 0.68
H 0.23
N 0.68
O 0.68
loop_
_atom_site_label
_atom_site_type_symbol
_atom_site_fract_x
_atom_site_fract_y
_atom_site_fract_z
O1 O 0.6071(4) 0.1603(1) 0.2000(2)
O2 O -0.0666(5) 0.4472(1) 0.1446(3)
O3 O -0.1700(5) 0.4372(1) -0.0316(2)
N1 N 0.1504(4) 0.1680(1) 0.0694(2)
N2 N 0.2096(4) 0.2394(1) 0.2662(2)
N3 N -0.0926(5) 0.4166(1) 0.0582(3)
N4 N 0.4899(4) 0.0627(1) 0.1702(2)
N5 N 0.1937(4) 0.0343(1) 0.1278(2)
C1 C 0.2414(4) 0.1458(1) 0.1637(2)
C2 C 0.2657(5) 0.1820(1) 0.2668(2)
C3 C 0.1186(5) 0.2649(1) 0.1661(2)
C4 C 0.0598(5) 0.3273(2) 0.1616(3)
C5 C -0.0344(5) 0.3502(2) 0.0637(3)
C6 C -0.0770(5) 0.3139(2) -0.0341(3)
C7 C 0.0851(5) 0.2274(2) 0.0685(2)
C8 C -0.0199(6) 0.2538(2) -0.0317(3)
C9 C 0.3069(4) 0.0799(1) 0.1567(2)
C10 C 0.3026(5) -0.0187(2) 0.1225(2)
C11 C 0.2450(5) -0.0798(2) 0.0925(3)
C12 C 0.3754(6) -0.1232(2) 0.0855(3)
C13 C 0.5594(6) -0.1074(2) 0.1081(3)
C14 C 0.4875(5) -0.0024(1) 0.1470(2)
C15 C 0.6178(5) -0.0476(2) 0.1385(3)
C16 C 0.3503(5) 0.1556(2) 0.3790(2)
C17 C 0.3240(5) 0.0945(2) 0.4104(3)
C18 C 0.3933(6) 0.0747(2) 0.5183(3)
C19 C 0.4876(6) 0.1168(2) 0.5968(3)
C20 C 0.5133(6) 0.1771(2) 0.5668(3)
C21 C 0.4460(5) 0.1970(2) 0.4588(3)
C22 C 0.6385(5) 0.1049(2) 0.1931(3)
C23 C 0.8228(5) 0.0794(2) 0.2072(3)
H1 H 0.08410 0.35330 0.22670
H2 H -0.14610 0.33160 -0.10110
H3 H -0.04800 0.22880 -0.09690
H4 H 0.11920 -0.09080 0.07810
H5 H 0.34080 -0.16510 0.06540
H6 H 0.64720 -0.13870 0.10160
H7 H 0.74470 -0.03760 0.15340
H8 H 0.25780 0.06590 0.35770
H9 H 0.38220 0.03220 0.53900
H10 H 0.53220 0.10370 0.67140
H11 H 0.57790 0.20560 0.62020
H12 H 0.46260 0.23960 0.43870
H13 H 0.81730 0.03440 0.19870
H14 H 0.88330 0.09630 0.15310
H15 H 0.89140 0.08880 0.28010
#END
