
#######################################################################
#
#                 Cambridge Crystallographic Data Centre
#                                CCDC
#
#######################################################################
#
# If this CIF has been generated from an entry in the Cambridge
# Structural Database, then it will include bibliographic, chemical,
# crystal, experimental, refinement or atomic coordinate data resulting
# from the CCDC's data processing and validation procedures.
#
#######################################################################

data_CSD_CIF_AZEJAR
_audit_creation_date 2011-12-12
_audit_creation_method CSD-ConQuest-V1
_database_code_CSD AZEJAR
_database_code_depnum_ccdc_archive 'CCDC 836864'
_chemical_formula_sum 'C16 H22 N2 O4'
_chemical_formula_moiety
;
C16 H22 N2 O4
;
_journal_coden_Cambridge 1090
_journal_volume 22
_journal_year 2011
_journal_page_first 1274
_journal_name_full 'Tetrahedron:Asymm. '
loop_
_publ_author_name
"M.Thiverny"
"D.Farran"
"C.Philouze"
"V.Blandin"
"P.Y.Chavant"
_chemical_name_systematic
;
(2R,5R)-1-Hydroxy-5-(4-methoxycarbonylphenyl)-2-iso-propyl-2,3-dimethylimidazo
lidin-4-one
;
_cell_volume    810.278
_exptl_crystal_colour 'colorless'
_exptl_crystal_density_diffrn 1.256
_exptl_crystal_description 'plate'
_diffrn_ambient_temperature 200
#These two values have been output from a single CSD field.
_refine_ls_R_factor_gt 0.0436
_refine_ls_wR_factor_gt 0.0436
_symmetry_cell_setting monoclinic
_symmetry_space_group_name_H-M 'P 21'
_symmetry_Int_Tables_number 4
loop_
_symmetry_equiv_pos_site_id
_symmetry_equiv_pos_as_xyz
1 x,y,z
2 -x,1/2+y,-z
_cell_length_a 10.8777(14)
_cell_length_b 7.1579(10)
_cell_length_c 11.0375(14)
_cell_angle_alpha 90
_cell_angle_beta 109.465(8)
_cell_angle_gamma 90
_cell_formula_units_Z 2
loop_
_atom_type_symbol
_atom_type_radius_bond
C 0.68
H 0.23
N 0.68
O 0.68
loop_
_atom_site_label
_atom_site_type_symbol
_atom_site_fract_x
_atom_site_fract_y
_atom_site_fract_z
O1 O 0.47192(14) -0.0855(2) 0.23575(15)
O2 O 0.39529(15) 0.5538(2) 0.26298(15)
H1 H 0.42730 0.65260 0.24520
O3 O 1.06560(15) 0.2611(4) 0.70921(14)
O4 O 1.10239(12) 0.2509(3) 0.52166(12)
N1 N 0.35346(16) 0.1331(2) 0.09302(17)
N2 N 0.43273(16) 0.3996(2) 0.20120(16)
C1 C 0.32155(19) 0.3339(3) 0.0881(2)
C2 C 0.47395(16) 0.2459(3) 0.29413(16)
C3 C 0.43470(19) 0.0756(3) 0.2072(2)
C4 C 0.3345(2) 0.4243(4) -0.0315(2)
H2 H 0.34280 0.55990 -0.01930
H3 H 0.25690 0.39610 -0.10550
H4 H 0.41210 0.37530 -0.04700
C5 C 0.1800(2) 0.3567(3) 0.0928(2)
C6 C 0.1251(2) 0.5548(4) 0.0622(3)
H5 H 0.18070 0.64250 0.12500
H6 H 0.03650 0.55880 0.06630
H7 H 0.12300 0.58990 -0.02430
C7 C 0.1617(2) 0.2835(4) 0.2152(2)
H8 H 0.19500 0.15540 0.23130
H9 H 0.06880 0.28460 0.20530
H10 H 0.20950 0.36320 0.28770
C8 C 0.2951(2) 0.0072(4) -0.0154(2)
H11 H 0.36320 -0.04020 -0.04730
H12 H 0.22980 0.07520 -0.08430
H13 H 0.25340 -0.09770 0.01270
C9 C 0.61795(16) 0.2537(3) 0.37141(15)
C10 C 0.71076(17) 0.2453(4) 0.30992(17)
C11 C 0.84259(18) 0.2478(4) 0.37957(17)
C12 C 0.88383(17) 0.2582(3) 0.51307(16)
C13 C 0.7917(2) 0.2692(4) 0.57454(19)
C14 C 0.6593(2) 0.2675(4) 0.50425(17)
C15 C 1.02490(18) 0.2573(4) 0.59342(18)
C16 C 1.24172(19) 0.2504(4) 0.5900(2)
H14 H 1.28820 0.22440 0.52960
H15 H 1.26270 0.15370 0.65670
H16 H 1.26840 0.37280 0.63000
H17 H 0.4210(16) 0.233(3) 0.3521(15)
H18 H 0.134(2) 0.276(4) 0.019(2)
H19 H 0.6849(19) 0.232(4) 0.218(2)
H20 H 0.907(2) 0.238(4) 0.3369(19)
H21 H 0.822(2) 0.278(4) 0.668(2)
H22 H 0.5934(19) 0.284(3) 0.5548(17)
#END
