
#######################################################################
#
#                 Cambridge Crystallographic Data Centre
#                                CCDC
#
#######################################################################
#
# If this CIF has been generated from an entry in the Cambridge
# Structural Database, then it will include bibliographic, chemical,
# crystal, experimental, refinement or atomic coordinate data resulting
# from the CCDC's data processing and validation procedures.
#
#######################################################################

data_CSD_CIF_AZIQUV
_audit_creation_date 2004-11-10
_audit_creation_method CSD-ConQuest-V1
_database_code_CSD AZIQUV
_database_code_depnum_ccdc_archive 'CCDC 231356'
_chemical_formula_sum 'C11 H11 N3 O3'
_chemical_formula_moiety
;
C11 H11 N3 O3
;
_journal_coden_Cambridge 119
_journal_volume 698
_journal_year 2004
_journal_page_first 67
_journal_name_full 'J.Mol.Struct. '
loop_
_publ_author_name
"M.Kubicki"
_chemical_name_systematic
;
1-(4-Methoxyphenyl)-5-methyl-4-nitroimidazole
;
_cell_volume   1084.979
_exptl_crystal_colour 'colorless'
_exptl_crystal_density_diffrn 1.428
_exptl_crystal_description 'prism'
_diffrn_ambient_temperature 100
#These two values have been output from a single CSD field.
_refine_ls_R_factor_gt 0.0408
_refine_ls_wR_factor_gt 0.0408
_symmetry_cell_setting orthorhombic
_symmetry_space_group_name_H-M 'P 21 21 21'
_symmetry_Int_Tables_number 19
loop_
_symmetry_equiv_pos_site_id
_symmetry_equiv_pos_as_xyz
1 x,y,z
2 1/2-x,-y,1/2+z
3 1/2+x,1/2-y,-z
4 -x,1/2+y,1/2-z
_cell_length_a 7.3712(9)
_cell_length_b 11.9530(13)
_cell_length_c 12.3142(14)
_cell_angle_alpha 90
_cell_angle_beta 90
_cell_angle_gamma 90
_cell_formula_units_Z 4
loop_
_atom_type_symbol
_atom_type_radius_bond
C 0.68
H 0.23
N 0.68
O 0.68
loop_
_atom_site_label
_atom_site_type_symbol
_atom_site_fract_x
_atom_site_fract_y
_atom_site_fract_z
N1 N 0.1748(3) 0.76721(16) 0.59762(15)
C1 C 0.1583(3) 0.79976(19) 0.48479(17)
C2 C 0.2144(3) 0.7289(2) 0.4033(2)
H1 H 0.260(3) 0.6593(18) 0.4230(16)
C3 C 0.1980(3) 0.7605(2) 0.29426(19)
H2 H 0.239(3) 0.7092(17) 0.2384(16)
C4 C 0.1273(3) 0.8652(2) 0.26936(18)
O1 O 0.1039(2) 0.90468(13) 0.16486(12)
C5 C 0.1385(4) 0.8261(2) 0.0773(2)
H3 H 0.060(3) 0.7621(19) 0.0868(17)
H4 H 0.266(3) 0.8025(19) 0.0723(17)
H5 H 0.113(3) 0.8704(17) 0.0019(17)
C6 C 0.0755(3) 0.9381(2) 0.3519(2)
H6 H 0.029(3) 1.0107(18) 0.3366(16)
C7 C 0.0892(3) 0.9054(2) 0.45996(19)
H7 H 0.041(3) 0.9603(17) 0.5162(17)
C8 C 0.2269(3) 0.8392(2) 0.6803(2)
H8 H 0.257(3) 0.9244(18) 0.6641(17)
N2 N 0.2272(3) 0.79007(16) 0.77607(15)
C9 C 0.1739(3) 0.6821(2) 0.75190(19)
N3 N 0.1594(3) 0.60098(18) 0.83636(17)
O2 O 0.1306(2) 0.50182(14) 0.80879(13)
O3 O 0.1721(3) 0.63029(15) 0.93223(13)
C10 C 0.1398(3) 0.6639(2) 0.64358(18)
C11 C 0.0725(4) 0.5646(2) 0.5830(2)
H9 H 0.176(3) 0.5161(19) 0.5603(16)
H10 H -0.012(3) 0.5259(19) 0.6291(18)
H11 H 0.009(3) 0.5905(19) 0.5127(18)
#END
