
#######################################################################
#
#                 Cambridge Crystallographic Data Centre
#                                CCDC
#
#######################################################################
#
# If this CIF has been generated from an entry in the Cambridge
# Structural Database, then it will include bibliographic, chemical,
# crystal, experimental, refinement or atomic coordinate data resulting
# from the CCDC's data processing and validation procedures.
#
#######################################################################

data_CSD_CIF_AZIQIJ
_audit_creation_date 2004-11-10
_audit_creation_method CSD-ConQuest-V1
_database_code_CSD AZIQIJ
_database_code_depnum_ccdc_archive 'CCDC 231354'
_chemical_formula_sum 'C10 H9 N3 O2'
_chemical_formula_moiety
;
C10 H9 N3 O2
;
_journal_coden_Cambridge 119
_journal_volume 698
_journal_year 2004
_journal_page_first 67
_journal_name_full 'J.Mol.Struct. '
loop_
_publ_author_name
"M.Kubicki"
_chemical_name_systematic
;
5-Methyl-4-nitro-1-phenylimidazole
;
_cell_volume    938.833
_exptl_crystal_colour 'colorless'
_exptl_crystal_density_diffrn 1.438
_exptl_crystal_description 'plate'
_diffrn_ambient_temperature 100
#These two values have been output from a single CSD field.
_refine_ls_R_factor_gt 0.0291
_refine_ls_wR_factor_gt 0.0291
_symmetry_cell_setting orthorhombic
_symmetry_space_group_name_H-M 'P n a 21'
_symmetry_Int_Tables_number 33
loop_
_symmetry_equiv_pos_site_id
_symmetry_equiv_pos_as_xyz
1 x,y,z
2 -x,-y,1/2+z
3 1/2-x,1/2+y,1/2+z
4 1/2+x,1/2-y,z
_cell_length_a 6.7748(7)
_cell_length_b 19.9918(15)
_cell_length_c 6.9317(7)
_cell_angle_alpha 90
_cell_angle_beta 90
_cell_angle_gamma 90
_cell_formula_units_Z 4
loop_
_atom_type_symbol
_atom_type_radius_bond
C 0.68
H 0.23
N 0.68
O 0.68
loop_
_atom_site_label
_atom_site_type_symbol
_atom_site_fract_x
_atom_site_fract_y
_atom_site_fract_z
N1 N 0.68677(14) 0.18198(5) 0.63204(15)
C1 C 0.68725(17) 0.12003(6) 0.52564(19)
C2 C 0.86142(19) 0.08330(6) 0.5179(2)
H1 H 0.981(2) 0.1014(7) 0.579(2)
C3 C 0.8640(2) 0.02394(7) 0.4142(2)
H2 H 0.981(2) -0.0019(9) 0.406(2)
C4 C 0.6958(2) 0.00244(7) 0.3179(2)
H3 H 0.698(2) -0.0394(7) 0.248(3)
C5 C 0.5254(2) 0.04053(7) 0.3225(2)
H4 H 0.412(2) 0.0258(6) 0.259(2)
C6 C 0.51917(19) 0.09967(6) 0.4288(2)
H5 H 0.406(2) 0.1263(7) 0.437(2)
C7 C 0.65300(19) 0.24436(6) 0.55417(19)
H6 H 0.616(2) 0.2481(6) 0.416(2)
N2 N 0.68352(14) 0.29232(5) 0.67964(15)
C8 C 0.74001(18) 0.25852(6) 0.84324(19)
N3 N 0.79502(15) 0.29413(5) 1.01359(17)
O1 O 0.86640(14) 0.26173(5) 1.14818(13)
O2 O 0.77232(14) 0.35526(4) 1.01841(16)
C9 C 0.74292(17) 0.19030(6) 0.82091(19)
C10 C 0.7803(2) 0.13358(7) 0.9550(2)
H7 H 0.926(2) 0.1260(7) 0.962(2)
H8 H 0.712(2) 0.0949(8) 0.915(2)
H9 H 0.735(2) 0.1479(8) 1.079(3)
#END
