
#######################################################################
#
#                 Cambridge Crystallographic Data Centre
#                                CCDC
#
#######################################################################
#
# If this CIF has been generated from an entry in the Cambridge
# Structural Database, then it will include bibliographic, chemical,
# crystal, experimental, refinement or atomic coordinate data resulting
# from the CCDC's data processing and validation procedures.
#
#######################################################################

data_CSD_CIF_AZIQOP
_audit_creation_date 2004-11-10
_audit_creation_method CSD-ConQuest-V1
_database_code_CSD AZIQOP
_database_code_depnum_ccdc_archive 'CCDC 231355'
_chemical_formula_sum 'C11 H11 N3 O2'
_chemical_formula_moiety
;
C11 H11 N3 O2
;
_journal_coden_Cambridge 119
_journal_volume 698
_journal_year 2004
_journal_page_first 67
_journal_name_full 'J.Mol.Struct. '
loop_
_publ_author_name
"M.Kubicki"
_chemical_name_systematic
;
5-Methyl-4-nitro-1-p-tolylimidazole
;
_cell_volume   1045.344
_exptl_crystal_colour 'colorless'
_exptl_crystal_density_diffrn 1.38
_exptl_crystal_description 'block'
_diffrn_ambient_temperature 100
#These two values have been output from a single CSD field.
_refine_ls_R_factor_gt 0.036
_refine_ls_wR_factor_gt 0.036
_symmetry_cell_setting monoclinic
_symmetry_space_group_name_H-M 'P 21/a'
_symmetry_Int_Tables_number 14
loop_
_symmetry_equiv_pos_site_id
_symmetry_equiv_pos_as_xyz
1 x,y,z
2 1/2+x,1/2-y,z
3 -x,-y,-z
4 -1/2-x,-1/2+y,-z
_cell_length_a 6.8507(5)
_cell_length_b 22.0264(15)
_cell_length_c 6.9303(6)
_cell_angle_alpha 90
_cell_angle_beta 91.610(6)
_cell_angle_gamma 90
_cell_formula_units_Z 4
loop_
_atom_type_symbol
_atom_type_radius_bond
C 0.68
H 0.23
N 0.68
O 0.68
loop_
_atom_site_label
_atom_site_type_symbol
_atom_site_fract_x
_atom_site_fract_y
_atom_site_fract_z
N1 N 0.28475(13) 0.31023(4) 0.62037(13)
C1 C 0.28531(16) 0.36520(5) 0.50699(15)
C2 C 0.10881(17) 0.39421(6) 0.46511(17)
H1 H -0.0094(19) 0.3761(6) 0.5112(19)
C3 C 0.10835(18) 0.44670(6) 0.35480(17)
H2 H -0.018(2) 0.4681(6) 0.323(2)
C4 C 0.28135(17) 0.47107(5) 0.28570(16)
C5 C 0.2785(2) 0.52847(6) 0.1673(2)
H3 H 0.228(2) 0.5631(8) 0.235(3)
H4 H 0.197(3) 0.5246(8) 0.051(3)
H5 H 0.409(3) 0.5401(7) 0.119(2)
C6 C 0.45585(18) 0.44061(6) 0.32932(17)
H6 H 0.583(2) 0.4573(6) 0.281(2)
C7 C 0.45950(17) 0.38785(5) 0.43935(17)
H7 H 0.583(2) 0.3655(6) 0.4673(19)
C8 C 0.31956(16) 0.25263(5) 0.55282(16)
H8 H 0.359(2) 0.2457(6) 0.422(2)
N2 N 0.28980(13) 0.21083(4) 0.68298(13)
C9 C 0.23247(15) 0.24355(5) 0.84081(15)
N3 N 0.17835(14) 0.21370(4) 1.01458(14)
O1 O 0.10667(12) 0.24558(4) 1.14241(11)
O2 O 0.20248(13) 0.15853(4) 1.02988(13)
C10 C 0.22861(15) 0.30526(5) 0.80905(15)
C11 C 0.18693(19) 0.35863(6) 0.93294(18)
H9 H 0.042(2) 0.3638(7) 0.944(2)
H10 H 0.245(2) 0.3510(6) 1.062(2)
H11 H 0.2433(19) 0.3957(7) 0.877(2)
#END
