
#######################################################################
#
#                 Cambridge Crystallographic Data Centre
#                                CCDC
#
#######################################################################
#
# If this CIF has been generated from an entry in the Cambridge
# Structural Database, then it will include bibliographic, chemical,
# crystal, experimental, refinement or atomic coordinate data resulting
# from the CCDC's data processing and validation procedures.
#
#######################################################################

data_CSD_CIF_AZOLOR
_audit_creation_date 2011-12-21
_audit_creation_method CSD-ConQuest-V1
_database_code_CSD AZOLOR
_database_code_depnum_ccdc_archive 'CCDC 850478'
_chemical_formula_sum 'C5 H5 N1 O3'
_chemical_formula_moiety
;
C5 H5 N1 O3
;
_journal_coeditor_code "IUCr JH2316"
_journal_coden_Cambridge 1370
_journal_volume 67
_journal_year 2011
_journal_page_first o2545
_journal_name_full 'Acta Crystallogr.,Sect.E:Struct.Rep.Online '
loop_
_publ_author_name
"Mei-Ling Pan"
"Yang-Hui Luo"
"Jin-Feng Li"
_chemical_name_systematic
;
5-Methyl-1,2-oxazole-3-carboxylic acid
;
_chemical_name_common
;
PDB Chemical Component code: 02J
;
_cell_volume    280.954
_exptl_crystal_colour 'colorless'
_exptl_crystal_density_diffrn 1.502
_exptl_crystal_description 'prism'
_diffrn_ambient_temperature 293
#These two values have been output from a single CSD field.
_refine_ls_R_factor_gt 0.0836
_refine_ls_wR_factor_gt 0.0836
_symmetry_cell_setting triclinic
_symmetry_space_group_name_H-M 'P -1'
_symmetry_Int_Tables_number 2
loop_
_symmetry_equiv_pos_site_id
_symmetry_equiv_pos_as_xyz
1 x,y,z
2 -x,-y,-z
_cell_length_a 4.9125(10)
_cell_length_b 5.6909(11)
_cell_length_c 10.464(2)
_cell_angle_alpha 82.21(3)
_cell_angle_beta 79.72(3)
_cell_angle_gamma 78.96(3)
_cell_formula_units_Z 2
loop_
_atom_type_symbol
_atom_type_radius_bond
C 0.68
H 0.23
N 0.68
O 0.68
loop_
_atom_site_label
_atom_site_type_symbol
_atom_site_fract_x
_atom_site_fract_y
_atom_site_fract_z
O1 O -0.2313(3) 0.3175(2) 0.15660(15)
N1 N -0.0692(4) 0.1507(3) 0.2343(2)
C1 C 0.0502(4) 0.2811(3) 0.29544(17)
C2 C 0.2432(4) 0.1560(3) 0.38652(18)
C3 C -0.0274(4) 0.5290(3) 0.26092(19)
H1 H 0.02930 0.65510 0.29150
C4 C -0.2024(4) 0.5436(3) 0.17357(18)
O2 O 0.2945(3) -0.0687(3) 0.40024(16)
C5 C -0.3597(5) 0.7439(4) 0.0956(2)
H2 H -0.33710 0.70680 0.00710
H3 H -0.28860 0.88920 0.09710
H4 H -0.55530 0.76550 0.13230
O3 O 0.3450(3) 0.2937(2) 0.44412(15)
H5 H 0.4849(14) 0.1977(10) 0.4948(5)
#END
