
#######################################################################
#
#                 Cambridge Crystallographic Data Centre
#                                CCDC
#
#######################################################################
#
# If this CIF has been generated from an entry in the Cambridge
# Structural Database, then it will include bibliographic, chemical,
# crystal, experimental, refinement or atomic coordinate data resulting
# from the CCDC's data processing and validation procedures.
#
#######################################################################

data_CSD_CIF_AZOMAD
_audit_creation_date 2004-11-10
_audit_creation_method CSD-ConQuest-V1
_database_code_CSD AZOMAD
_database_code_depnum_ccdc_archive 'CCDC 232856'
_chemical_formula_sum 'C20 H26 N2 O2'
_chemical_formula_moiety
;
C20 H26 N2 O2
;
_journal_coden_Cambridge 191
_journal_volume 392
_journal_year 2004
_journal_page_first 74
_journal_name_full 'Chem.Phys.Lett. '
loop_
_publ_author_name
"G.Kurokawa"
"T.Ishida"
"T.Nogami"
_chemical_name_systematic
;
3,5-bis(N-t-Butyl-N-oxyamino)biphenyl diradical
;
_chemical_name_common
;
Biphenyl-3,5-diyl bis(N-t-butyl nitroxide) diradical
;
_chemical_melting_point 368.15
_cell_volume    891.248
_exptl_crystal_colour 'orange'
_exptl_crystal_density_diffrn 1.216
_exptl_special_details
;
Melting point range 368.15-370.15K
alpha polymorph

;
_exptl_crystal_description 'block'
_exptl_crystal_preparation 'dichloromethane/hexane'
_diffrn_ambient_temperature 100
#These two values have been output from a single CSD field.
_refine_ls_R_factor_gt 0.026
_refine_ls_wR_factor_gt 0.026
_symmetry_cell_setting triclinic
_symmetry_space_group_name_H-M 'P -1'
_symmetry_Int_Tables_number 2
loop_
_symmetry_equiv_pos_site_id
_symmetry_equiv_pos_as_xyz
1 x,y,z
2 -x,-y,-z
_cell_length_a 8.830(3)
_cell_length_b 10.727(5)
_cell_length_c 11.192(5)
_cell_angle_alpha 102.33(3)
_cell_angle_beta 106.21(3)
_cell_angle_gamma 110.89(3)
_cell_formula_units_Z 2
loop_
_atom_type_symbol
_atom_type_radius_bond
C 0.68
H 0.23
N 0.68
O 0.68
loop_
_atom_site_label
_atom_site_type_symbol
_atom_site_fract_x
_atom_site_fract_y
_atom_site_fract_z
O1 O 0.3503(1) 0.3819(1) 0.4512(1)
O2 O 1.0412(1) 0.5582(1) 0.9115(1)
N1 N 0.4980(2) 0.3719(1) 0.4772(1)
N2 N 0.9632(2) 0.4209(2) 0.8755(1)
C1 C 0.5533(2) 0.3342(2) 0.5933(1)
C2 C 0.7300(2) 0.3993(2) 0.6809(2)
C3 C 0.7778(2) 0.3542(2) 0.7871(2)
C4 C 0.6520(2) 0.2500(2) 0.8104(2)
C5 C 0.4730(2) 0.1878(2) 0.7256(2)
C6 C 0.4265(2) 0.2305(2) 0.6166(2)
C7 C 0.3371(2) 0.0755(2) 0.7494(2)
C8 C 0.1809(2) -0.0281(2) 0.6437(2)
C9 C 0.0565(2) -0.1354(2) 0.6648(2)
C10 C 0.0857(2) -0.1409(2) 0.7920(2)
C11 C 0.2383(2) -0.0389(2) 0.8978(2)
C12 C 0.3636(2) 0.0693(2) 0.8776(2)
C13 C 0.5365(2) 0.3141(2) 0.3576(2)
C14 C 0.4701(3) 0.3705(2) 0.2504(2)
C15 C 0.4371(3) 0.1511(2) 0.3080(2)
C16 C 0.7356(3) 0.3632(3) 0.4002(2)
C17 C 1.0709(2) 0.3396(2) 0.8561(1)
C18 C 0.9974(3) 0.1999(2) 0.8830(2)
C19 C 1.2606(2) 0.4322(2) 0.9521(2)
C20 C 1.0579(3) 0.3078(3) 0.7121(2)
H1 H 0.817(2) 0.476(2) 0.670(1)
H2 H 0.687(2) 0.227(2) 0.885(1)
H3 H 0.307(2) 0.193(2) 0.557(1)
H4 H 0.159(2) -0.026(2) 0.557(2)
H5 H -0.044(2) -0.201(2) 0.597(1)
H6 H 0.004(2) -0.215(2) 0.807(2)
H7 H 0.259(2) -0.038(2) 0.982(2)
H8 H 0.470(2) 0.143(2) 0.959(2)
H9 H 0.491(2) 0.328(2) 0.177(2)
H10 H 0.536(2) 0.471(2) 0.279(2)
H11 H 0.338(2) 0.340(2) 0.223(2)
H12 H 0.299(2) 0.118(2) 0.278(2)
H13 H 0.486(2) 0.115(2) 0.377(2)
H14 H 0.453(2) 0.111(2) 0.223(2)
H15 H 0.757(2) 0.334(2) 0.316(2)
H16 H 0.809(2) 0.471(2) 0.443(2)
H17 H 0.788(2) 0.317(2) 0.470(2)
H18 H 0.884(2) 0.144(2) 0.819(2)
H19 H 1.077(2) 0.149(2) 0.876(2)
H20 H 0.999(2) 0.226(2) 0.977(2)
H21 H 1.312(2) 0.525(2) 0.938(2)
H22 H 1.272(2) 0.450(2) 1.043(2)
H23 H 1.335(2) 0.383(2) 0.939(1)
H24 H 1.133(2) 0.266(2) 0.697(2)
H25 H 1.093(2) 0.396(2) 0.688(2)
H26 H 0.936(2) 0.244(2) 0.645(2)
#END
