
#######################################################################
#
#                 Cambridge Crystallographic Data Centre
#                                CCDC
#
#######################################################################
#
# If this CIF has been generated from an entry in the Cambridge
# Structural Database, then it will include bibliographic, chemical,
# crystal, experimental, refinement or atomic coordinate data resulting
# from the CCDC's data processing and validation procedures.
#
#######################################################################

data_CSD_CIF_AZONUZ
_audit_creation_date 2011-12-21
_audit_creation_method CSD-ConQuest-V1
_database_code_CSD AZONUZ
_database_code_depnum_ccdc_archive 'CCDC 850489'
_chemical_formula_sum 'C18 H17 N5 O2'
_chemical_formula_moiety
;
C18 H17 N5 O2
;
_journal_coeditor_code "IUCr IS2768"
_journal_coden_Cambridge 1370
_journal_volume 67
_journal_year 2011
_journal_page_first o2559
_journal_name_full 'Acta Crystallogr.,Sect.E:Struct.Rep.Online '
loop_
_publ_author_name
"Fuqiang Shi"
"Li-Hong Zhu"
"Long Zhang"
"Ya-Feng Li"
_chemical_name_systematic
;
N^4^,N^6^-Dimethyl-5-nitro-N^4^,N^6^-diphenylpyrimidine-4,6-diamine
;
_cell_volume   1689.847
_exptl_crystal_colour 'colorless'
_exptl_crystal_density_diffrn 1.318
_exptl_crystal_description 'block'
_diffrn_ambient_temperature 293
#These two values have been output from a single CSD field.
_refine_ls_R_factor_gt 0.0741
_refine_ls_wR_factor_gt 0.0741
_symmetry_cell_setting monoclinic
_symmetry_space_group_name_H-M 'P 21/c'
_symmetry_Int_Tables_number 14
loop_
_symmetry_equiv_pos_site_id
_symmetry_equiv_pos_as_xyz
1 x,y,z
2 -x,1/2+y,1/2-z
3 -x,-y,-z
4 x,-1/2-y,-1/2+z
_cell_length_a 10.794(2)
_cell_length_b 7.0019(14)
_cell_length_c 23.650(6)
_cell_angle_alpha 90
_cell_angle_beta 109.02(3)
_cell_angle_gamma 90
_cell_formula_units_Z 4
loop_
_atom_type_symbol
_atom_type_radius_bond
C 0.68
H 0.23
N 0.68
O 0.68
loop_
_atom_site_label
_atom_site_type_symbol
_atom_site_fract_x
_atom_site_fract_y
_atom_site_fract_z
O1 O 0.84317(18) 0.0703(3) 0.35192(9)
O2 O 0.85674(17) 0.2808(3) 0.42079(8)
N1 N 0.5774(2) 0.2175(3) 0.41820(9)
N2 N 0.45045(19) 0.3519(3) 0.32882(10)
N3 N 0.52690(19) 0.3954(3) 0.24557(9)
N4 N 0.7997(2) 0.2043(3) 0.37282(10)
N5 N 0.74616(19) 0.3627(3) 0.25459(9)
C1 C 0.7275(3) -0.2635(4) 0.44234(13)
H1 H 0.72160 -0.37820 0.42180
C2 C 0.8135(3) -0.2471(5) 0.49962(14)
H2 H 0.86630 -0.34980 0.51760
C3 C 0.8210(3) -0.0796(5) 0.53010(13)
H3 H 0.87840 -0.06920 0.56900
C4 C 0.6587(2) 0.0578(4) 0.44551(10)
C5 C 0.6500(3) -0.1108(4) 0.41512(11)
H4 H 0.59210 -0.12240 0.37630
C6 C 0.7441(3) 0.0745(4) 0.50349(12)
H5 H 0.74960 0.18850 0.52430
C7 C 0.4741(3) 0.2699(5) 0.44293(13)
H6 H 0.45310 0.40280 0.43540
H7 H 0.50410 0.24700 0.48530
H8 H 0.39750 0.19430 0.42430
C8 C 0.6703(2) 0.2779(3) 0.33805(10)
C9 C 0.5681(2) 0.2799(3) 0.36205(11)
C10 C 0.6494(2) 0.3447(3) 0.27970(11)
C11 C 0.4380(2) 0.3965(4) 0.27283(13)
H9 H 0.35450 0.43410 0.24930
C12 C 0.8912(3) 0.5770(4) 0.32865(12)
H10 H 0.81810 0.64420 0.33030
C13 C 0.9840(3) 0.3278(4) 0.28633(12)
H11 H 0.97420 0.22560 0.26010
C14 C 1.0143(3) 0.6310(4) 0.36414(13)
H12 H 1.02460 0.73320 0.39040
C15 C 1.1078(3) 0.3861(4) 0.32153(13)
H13 H 1.18150 0.32410 0.31840
C16 C 1.1223(3) 0.5339(5) 0.36078(13)
H14 H 1.20560 0.56900 0.38530
C17 C 0.8759(2) 0.4228(3) 0.29054(10)
C18 C 0.7094(3) 0.3940(4) 0.1904(1)
H15 H 0.65090 0.29450 0.16970
H16 H 0.78650 0.39270 0.17860
H17 H 0.66640 0.51540 0.18050
#END
