
#######################################################################
#
#                 Cambridge Crystallographic Data Centre
#                                CCDC
#
#######################################################################
#
# If this CIF has been generated from an entry in the Cambridge
# Structural Database, then it will include bibliographic, chemical,
# crystal, experimental, refinement or atomic coordinate data resulting
# from the CCDC's data processing and validation procedures.
#
#######################################################################

data_CSD_CIF_AZORUD
_audit_creation_date 2011-11-16
_audit_creation_method CSD-ConQuest-V1
_database_code_CSD AZORUD
_database_code_depnum_ccdc_archive 'CCDC 850505'
_chemical_formula_sum 'C21 H14 N2 O2'
_chemical_formula_moiety
;
C21 H14 N2 O2
;
_journal_coeditor_code "IUCr IM2315"
_journal_coden_Cambridge 1370
_journal_volume 67
_journal_year 2011
_journal_page_first o2577
_journal_name_full 'Acta Crystallogr.,Sect.E:Struct.Rep.Online '
loop_
_publ_author_name
"K.Geetha"
"D.K.A.P.Kumar"
"D.Lakshmanan"
"R.Savitha"
"S.Murugavel"
_chemical_name_systematic
;
(E)-N-(9-Anthrylmethylene)-4-nitroaniline
;
_cell_volume    800.563
_exptl_crystal_colour 'orange'
_exptl_crystal_density_diffrn 1.354
_exptl_crystal_description 'flat'
_diffrn_ambient_temperature 293
#These two values have been output from a single CSD field.
_refine_ls_R_factor_gt 0.0699
_refine_ls_wR_factor_gt 0.0699
_symmetry_cell_setting triclinic
_symmetry_space_group_name_H-M 'P -1'
_symmetry_Int_Tables_number 2
loop_
_symmetry_equiv_pos_site_id
_symmetry_equiv_pos_as_xyz
1 x,y,z
2 -x,-y,-z
_cell_length_a 8.3634(4)
_cell_length_b 8.9045(4)
_cell_length_c 11.5119(6)
_cell_angle_alpha 75.235(2)
_cell_angle_beta 84.544(3)
_cell_angle_gamma 75.054(2)
_cell_formula_units_Z 2
loop_
_atom_type_symbol
_atom_type_radius_bond
C 0.68
H 0.23
N 0.68
O 0.68
loop_
_atom_site_label
_atom_site_type_symbol
_atom_site_fract_x
_atom_site_fract_y
_atom_site_fract_z
C1 C 0.4268(3) -0.1323(3) 0.7152(2)
C2 C 0.5139(4) -0.2566(4) 0.8071(2)
H1 H 0.59120 -0.23540 0.84980
C3 C 0.4872(4) -0.4052(4) 0.8341(3)
H2 H 0.54630 -0.48400 0.89500
C4 C 0.3730(4) -0.4430(4) 0.7726(3)
H3 H 0.35530 -0.54550 0.79360
C5 C 0.2885(4) -0.3314(4) 0.6829(3)
H4 H 0.21340 -0.35790 0.64170
C6 C 0.3125(3) -0.1725(3) 0.6501(2)
C7 C 0.2314(3) -0.0591(3) 0.5551(2)
H5 H 0.15990 -0.08750 0.51210
C8 C 0.2524(3) 0.0973(3) 0.5211(2)
C9 C 0.1657(3) 0.2116(4) 0.4241(2)
H6 H 0.09790 0.18080 0.37980
C10 C 0.1794(4) 0.3636(4) 0.3950(3)
H7 H 0.12110 0.43750 0.33120
C11 C 0.2830(4) 0.4104(4) 0.4619(3)
H8 H 0.29040 0.51640 0.44270
C12 C 0.3710(3) 0.3050(3) 0.5525(2)
H9 H 0.43950 0.33930 0.59390
C13 C 0.3618(3) 0.1421(3) 0.5868(2)
C14 C 0.4501(3) 0.0265(3) 0.6825(2)
C15 C 0.5698(3) 0.0602(4) 0.7521(3)
H10 H 0.58350 0.00050 0.83110
C16 C 0.7666(3) 0.1767(3) 0.7942(2)
C17 C 0.9203(4) 0.1906(4) 0.7470(3)
H11 H 0.94670 0.18770 0.66720
C18 C 1.0355(4) 0.2085(4) 0.8158(3)
H12 H 1.14070 0.21470 0.78410
C19 C 0.9936(3) 0.2169(3) 0.9316(2)
C20 C 0.8419(3) 0.2054(4) 0.9826(2)
H13 H 0.81680 0.21050 1.06220
C21 C 0.7263(3) 0.1859(3) 0.9128(2)
H14 H 0.62140 0.17910 0.94510
N1 N 0.6547(3) 0.1602(3) 0.7163(2)
N2 N 1.1188(4) 0.2349(4) 1.0045(3)
O1 O 1.0791(4) 0.2499(5) 1.1057(3)
O2 O 1.2591(3) 0.2269(4) 0.9629(2)
#END
