
#######################################################################
#
#                 Cambridge Crystallographic Data Centre
#                                CCDC
#
#######################################################################
#
# If this CIF has been generated from an entry in the Cambridge
# Structural Database, then it will include bibliographic, chemical,
# crystal, experimental, refinement or atomic coordinate data resulting
# from the CCDC's data processing and validation procedures.
#
#######################################################################

data_CSD_CIF_AZOVIV
_audit_creation_date 2011-11-16
_audit_creation_method CSD-ConQuest-V1
_database_code_CSD AZOVIV
_database_code_depnum_ccdc_archive 'CCDC 850518'
_chemical_formula_sum 'C24 H26 N2 O8'
_chemical_formula_moiety
;
C24 H26 N2 O8
;
_journal_coeditor_code "IUCr XU5319"
_journal_coden_Cambridge 1370
_journal_volume 67
_journal_year 2011
_journal_page_first o2593
_journal_name_full 'Acta Crystallogr.,Sect.E:Struct.Rep.Online '
loop_
_publ_author_name
"Long He"
_chemical_name_systematic
;
2,2-Diethyl 4-methyl 
5-(4-nitrophenyl)-4-phenylpyrrolidine-2,2,4-tricarboxylate
;
_cell_volume   2391.169
_exptl_crystal_colour 'colorless'
_exptl_crystal_density_diffrn 1.307
_exptl_crystal_description 'block'
_diffrn_ambient_temperature 120
#These two values have been output from a single CSD field.
_refine_ls_R_factor_gt 0.0254
_refine_ls_wR_factor_gt 0.0254
_symmetry_cell_setting orthorhombic
_symmetry_space_group_name_H-M 'P 21 21 21'
_symmetry_Int_Tables_number 19
loop_
_symmetry_equiv_pos_site_id
_symmetry_equiv_pos_as_xyz
1 x,y,z
2 1/2-x,-y,1/2+z
3 1/2+x,1/2-y,-z
4 -x,1/2+y,1/2-z
_cell_length_a 9.7948(1)
_cell_length_b 10.9356(2)
_cell_length_c 22.3240(3)
_cell_angle_alpha 90
_cell_angle_beta 90
_cell_angle_gamma 90
_cell_formula_units_Z 4
loop_
_atom_type_symbol
_atom_type_radius_bond
C 0.68
H 0.23
N 0.68
O 0.68
loop_
_atom_site_label
_atom_site_type_symbol
_atom_site_fract_x
_atom_site_fract_y
_atom_site_fract_z
O1 O 0.85432(8) 0.19604(7) 0.82698(3)
O2 O 0.54703(9) 0.22728(8) 0.84562(4)
O3 O 0.78904(8) 0.37692(7) 0.78836(4)
O4 O 0.84169(9) 0.10400(8) 0.56346(4)
O5 O 0.78250(9) -0.05809(7) 0.61949(4)
O6 O 0.48509(10) 0.06449(9) 0.79096(4)
N1 N 0.6089(1) 0.26899(9) 0.70963(4)
O7 O 0.24732(10) 0.03877(8) 0.44941(4)
O8 O 0.17733(13) -0.06248(12) 0.52573(5)
C1 C 0.73152(11) 0.08472(10) 0.72218(5)
H1 H 0.66210 0.02390 0.71370
H2 H 0.80530 0.04670 0.74440
N2 N 0.25329(10) 0.01249(9) 0.50266(4)
C2 C 0.66436(11) 0.2355(1) 0.65042(5)
H3 H 0.70060 0.30860 0.63060
C3 C 0.35612(11) 0.07188(10) 0.54019(5)
C4 C 0.45396(13) 0.14517(11) 0.51335(5)
H4 H 0.45330 0.15890 0.47220
C5 C 0.77782(11) 0.26768(10) 0.79176(5)
C6 C 0.92478(11) 0.20396(10) 0.67511(5)
C7 C 0.43853(15) 0.20090(13) 0.88861(6)
H5 H 0.44010 0.11510 0.89970
H6 H 0.35010 0.21940 0.87130
C8 C 0.67169(11) 0.1935(1) 0.75643(5)
C9 C 0.78413(11) 0.14446(9) 0.66437(5)
C10 C 1.02741(12) 0.13124(10) 0.70024(5)
H7 H 1.00870 0.05000 0.70940
C11 C 0.35244(12) 0.05137(11) 0.60140(5)
H8 H 0.28520 0.00220 0.61830
C12 C 0.46374(15) 0.27937(13) 0.94241(6)
H9 H 0.46160 0.36390 0.93090
H10 H 0.55160 0.26030 0.95900
H11 H 0.39430 0.26430 0.97180
C13 C 0.96208(13) 0.25973(11) 0.85989(6)
H12 H 0.92250 0.31790 0.88770
H13 H 1.02080 0.30370 0.83230
C14 C 0.45103(12) 0.10576(11) 0.63675(5)
H14 H 0.44920 0.09390 0.67800
C15 C 0.55327(11) 0.17816(10) 0.61151(5)
C16 C 0.95634(12) 0.32441(10) 0.66059(5)
H15 H 0.89010 0.37440 0.64360
C17 C 1.15604(12) 0.17777(11) 0.71167(6)
H16 H 1.22220 0.12840 0.72920
C18 C 1.18663(12) 0.29794(11) 0.69709(6)
H17 H 1.27320 0.32940 0.70450
C19 C 0.80173(11) 0.05013(10) 0.61454(5)
C20 C 1.08674(13) 0.37060(11) 0.67138(6)
H18 H 1.10680 0.45110 0.66120
C21 C 0.55725(12) 0.1516(1) 0.79941(5)
C22 C 0.55285(12) 0.19731(11) 0.54968(5)
H19 H 0.62020 0.24600 0.53250
C23 C 0.84991(17) 0.02457(14) 0.51173(6)
H20 H 0.87720 0.07130 0.47740
H21 H 0.76220 -0.01160 0.50440
H22 H 0.91580 -0.03870 0.51910
C24 C 1.04251(14) 0.16528(12) 0.89319(6)
H23 H 1.08600 0.11130 0.86510
H24 H 0.98240 0.11910 0.91850
H25 H 1.11070 0.20480 0.91730
H26 H 0.6194(16) 0.3476(12) 0.7157(7)
#END
