
#######################################################################
#
#                 Cambridge Crystallographic Data Centre
#                                CCDC
#
#######################################################################
#
# If this CIF has been generated from an entry in the Cambridge
# Structural Database, then it will include bibliographic, chemical,
# crystal, experimental, refinement or atomic coordinate data resulting
# from the CCDC's data processing and validation procedures.
#
#######################################################################

data_CSD_CIF_AZOXOD
_audit_creation_date 2011-11-29
_audit_creation_method CSD-ConQuest-V1
_database_code_CSD AZOXOD
_database_code_depnum_ccdc_archive 'CCDC 850529'
_chemical_formula_sum 'C15 H18 N4 O4'
_chemical_formula_moiety
;
C15 H18 N4 O4
;
_journal_coeditor_code "IUCr IS2771"
_journal_coden_Cambridge 1370
_journal_volume 67
_journal_year 2011
_journal_page_first o2606
_journal_name_full 'Acta Crystallogr.,Sect.E:Struct.Rep.Online '
loop_
_publ_author_name
"Y.K.Yoon"
"M.A.Ali"
"T.S.Choon"
"W.-S.Loh"
"H.-K.Fun"
_chemical_name_systematic
;
Ethyl 4-((3-(1H-imidazol-1-yl)propyl)amino)-3-nitrobenzoate
;
_cell_volume    775.829
_exptl_crystal_colour 'yellow'
_exptl_crystal_density_diffrn 1.363
_exptl_crystal_description 'block'
_diffrn_ambient_temperature 297
#These two values have been output from a single CSD field.
_refine_ls_R_factor_gt 0.0494
_refine_ls_wR_factor_gt 0.0494
_symmetry_cell_setting triclinic
_symmetry_space_group_name_H-M 'P -1'
_symmetry_Int_Tables_number 2
loop_
_symmetry_equiv_pos_site_id
_symmetry_equiv_pos_as_xyz
1 x,y,z
2 -x,-y,-z
_cell_length_a 8.4860(4)
_cell_length_b 8.6175(4)
_cell_length_c 11.7507(6)
_cell_angle_alpha 77.489(1)
_cell_angle_beta 81.732(1)
_cell_angle_gamma 67.977(1)
_cell_formula_units_Z 2
loop_
_atom_type_symbol
_atom_type_radius_bond
C 0.68
H 0.23
N 0.68
O 0.68
loop_
_atom_site_label
_atom_site_type_symbol
_atom_site_fract_x
_atom_site_fract_y
_atom_site_fract_z
O1 O 0.70039(15) 1.08819(19) 0.76638(14)
O2 O 0.66111(13) 0.92725(15) 0.66648(11)
O3 O 0.28465(12) 1.36380(12) 1.04716(9)
O4 O 0.04276(15) 1.30975(15) 1.09224(9)
N1 N 0.39536(14) 0.82823(14) 0.71627(10)
N2 N 0.16593(13) 0.56169(13) 0.55424(9)
N3 N 0.32584(19) 0.38579(17) 0.43667(11)
N4 N 0.61326(13) 1.01531(14) 0.74276(10)
C1 C 0.1987(2) 0.4015(2) 0.61436(12)
H1 H 0.16130 0.37020 0.69120
C2 C 0.2965(2) 0.29595(19) 0.54111(13)
H2 H 0.33760 0.17790 0.56010
C3 C 0.2444(2) 0.5452(2) 0.44782(13)
H3 H 0.24150 0.63680 0.38830
C4 C 0.06090(17) 0.72024(18) 0.59566(13)
H4 H 0.00240 0.69340 0.67020
H5 H -0.02490 0.78780 0.54060
C5 C 0.16440(18) 0.82458(16) 0.60979(12)
H6 H 0.08790 0.93130 0.63180
H7 H 0.22400 0.85050 0.53550
C6 C 0.29333(16) 0.73156(15) 0.70181(11)
H8 H 0.23320 0.70640 0.77600
H9 H 0.36860 0.62420 0.68010
C7 C 0.34741(14) 0.94586(14) 0.78555(10)
C8 C 0.18281(16) 0.98950(16) 0.84576(11)
H10 H 0.10760 0.94080 0.83270
C9 C 0.13241(16) 1.10113(16) 0.92231(11)
H11 H 0.02380 1.12610 0.95980
C10 C 0.23935(15) 1.17874(14) 0.94578(10)
C11 C 0.39749(15) 1.14588(14) 0.88549(10)
H12 H 0.46950 1.19850 0.89820
C12 C 0.44984(14) 1.03452(14) 0.80583(10)
C13 C 0.17697(17) 1.28977(15) 1.03544(10)
C14 C 0.22780(19) 1.47706(18) 1.13211(12)
H13 H 0.24020 1.41150 1.21070
H14 H 0.10870 1.54750 1.12450
C15 C 0.3332(3) 1.5847(2) 1.10987(17)
H15 H 0.29720 1.66120 1.16480
H16 H 0.32030 1.64880 1.03190
H17 H 0.45060 1.51400 1.11850
H18 H 0.495(2) 0.808(2) 0.6809(15)
#END
