
#######################################################################
#
#                 Cambridge Crystallographic Data Centre
#                                CCDC
#
#######################################################################
#
# If this CIF has been generated from an entry in the Cambridge
# Structural Database, then it will include bibliographic, chemical,
# crystal, experimental, refinement or atomic coordinate data resulting
# from the CCDC's data processing and validation procedures.
#
#######################################################################

data_CSD_CIF_AZUDIJ
_audit_creation_date 2011-11-21
_audit_creation_method CSD-ConQuest-V1
_database_code_CSD AZUDIJ
_database_code_depnum_ccdc_archive 'CCDC 850553'
_chemical_formula_sum 'C8 H11 N3 O2'
_chemical_formula_moiety
;
C8 H11 N3 O2
;
_journal_coeditor_code "IUCr HY2464"
_journal_coden_Cambridge 1370
_journal_volume 67
_journal_year 2011
_journal_page_first o2634
_journal_name_full 'Acta Crystallogr.,Sect.E:Struct.Rep.Online '
loop_
_publ_author_name
"S.Malinkin"
"L.Penkova"
"V.A.Pavlenko"
"M.Haukka"
"S.V.Pavlova"
_chemical_name_systematic
;
1-(3-[1-(Hydroxyimino)ethyl]-4-methyl-1H-pyrazol-5-yl)ethanone
;
_cell_volume    848.411
_exptl_crystal_colour 'yellow'
_exptl_crystal_density_diffrn 1.419
_exptl_crystal_description 'block'
_exptl_crystal_preparation 'water/methanol'
_diffrn_ambient_temperature 120
#These two values have been output from a single CSD field.
_refine_ls_R_factor_gt 0.1149
_refine_ls_wR_factor_gt 0.1149
_symmetry_cell_setting monoclinic
_symmetry_space_group_name_H-M 'P 21/c'
_symmetry_Int_Tables_number 14
loop_
_symmetry_equiv_pos_site_id
_symmetry_equiv_pos_as_xyz
1 x,y,z
2 -x,1/2+y,1/2-z
3 -x,-y,-z
4 x,-1/2-y,-1/2+z
_cell_length_a 9.0721(2)
_cell_length_b 11.7030(7)
_cell_length_c 8.2401(9)
_cell_angle_alpha 90
_cell_angle_beta 104.124(3)
_cell_angle_gamma 90
_cell_formula_units_Z 4
loop_
_atom_type_symbol
_atom_type_radius_bond
C 0.68
H 0.23
N 0.68
O 0.68
loop_
_atom_site_label
_atom_site_type_symbol
_atom_site_fract_x
_atom_site_fract_y
_atom_site_fract_z
O1 O -0.1219(4) 0.1464(4) 0.8109(6)
H1 H -0.13540 0.05840 0.83030
O2 O 0.5690(4) 0.3709(3) 0.4582(5)
N1 N 0.0051(5) 0.1629(3) 0.7433(6)
N2 N 0.1958(4) 0.4074(3) 0.6374(5)
N3 N 0.3189(4) 0.4064(3) 0.5780(5)
H2 H 0.35510 0.46810 0.53960
C1 C 0.0281(5) 0.2679(4) 0.7208(6)
C2 C -0.0687(6) 0.3628(4) 0.7597(8)
H3 H -0.17250 0.35470 0.69030
H4 H -0.02680 0.43640 0.73600
H5 H -0.07000 0.35940 0.87810
C3 C 0.1637(5) 0.2962(4) 0.6571(6)
C4 C 0.2704(5) 0.2239(4) 0.6090(6)
C5 C 0.2749(6) 0.0955(4) 0.6118(7)
H6 H 0.18010 0.06610 0.63270
H7 H 0.36100 0.06970 0.70090
H8 H 0.28650 0.06710 0.50370
C6 C 0.3685(5) 0.2991(4) 0.5583(6)
C7 C 0.5069(6) 0.2844(4) 0.4959(7)
C8 C 0.5688(6) 0.1672(4) 0.4798(7)
H9 H 0.65030 0.17220 0.42100
H10 H 0.48730 0.11810 0.41650
H11 H 0.60910 0.13480 0.59150
#END
