
#######################################################################
#
#                 Cambridge Crystallographic Data Centre
#                                CCDC
#
#######################################################################
#
# If this CIF has been generated from an entry in the Cambridge
# Structural Database, then it will include bibliographic, chemical,
# crystal, experimental, refinement or atomic coordinate data resulting
# from the CCDC's data processing and validation procedures.
#
#######################################################################

data_CSD_CIF_AZUHIN
_audit_creation_date 2011-11-21
_audit_creation_method CSD-ConQuest-V1
_database_code_CSD AZUHIN
_database_code_depnum_ccdc_archive 'CCDC 850568'
_chemical_formula_sum 'C20 H18 N2 O3'
_chemical_formula_moiety
;
C20 H18 N2 O3
;
_journal_coeditor_code "IUCr RK2291"
_journal_coden_Cambridge 1370
_journal_volume 67
_journal_year 2011
_journal_page_first o2658
_journal_name_full 'Acta Crystallogr.,Sect.E:Struct.Rep.Online '
loop_
_publ_author_name
"P.Narayanan"
"K.Sethusankar"
"K.Ramachandiran"
"P.T.Perumal"
_chemical_name_systematic
;
2-Methyl-3-(2-nitro-1-(2-(prop-2-yn-1-yloxy)phenyl)ethyl)-1H-indole
;
_cell_volume   7006.511
_exptl_crystal_colour 'brown'
_exptl_crystal_density_diffrn 1.268
_exptl_crystal_description 'block'
_diffrn_ambient_temperature 295
#These two values have been output from a single CSD field.
_refine_ls_R_factor_gt 0.0491
_refine_ls_wR_factor_gt 0.0491
_symmetry_cell_setting tetragonal
_symmetry_space_group_name_H-M 'I 41/a'
_symmetry_Int_Tables_number 88
loop_
_symmetry_equiv_pos_site_id
_symmetry_equiv_pos_as_xyz
1 x,y,z
2 1/2-x,-y,1/2+z
3 3/4-y,1/4+x,1/4+z
4 3/4+y,3/4-x,3/4+z
5 1/2+x,1/2+y,1/2+z
6 -x,1/2-y,z
7 1/4-y,3/4+x,3/4+z
8 1/4+y,1/4-x,1/4+z
9 -x,-y,-z
10 -1/2+x,y,-1/2-z
11 -3/4+y,-1/4-x,-1/4-z
12 -3/4-y,-3/4+x,-3/4-z
13 -1/2-x,-1/2-y,-1/2-z
14 x,-1/2+y,-z
15 -1/4+y,-3/4-x,-3/4-z
16 -1/4-y,-1/4+x,-1/4-z
_cell_length_a 23.3474(7)
_cell_length_b 23.3474(7)
_cell_length_c 12.8536(7)
_cell_angle_alpha 90
_cell_angle_beta 90
_cell_angle_gamma 90
_cell_formula_units_Z 16
loop_
_atom_type_symbol
_atom_type_radius_bond
C 0.68
H 0.23
N 0.68
O 0.68
loop_
_atom_site_label
_atom_site_type_symbol
_atom_site_fract_x
_atom_site_fract_y
_atom_site_fract_z
C1 C 0.57180(8) 0.58359(8) 0.28887(15)
H1 H 0.60500 0.59070 0.25110
C2 C 0.54456(11) 0.62723(10) 0.34038(18)
H2 H 0.55950 0.66410 0.33650
C3 C 0.49531(12) 0.61764(12) 0.39812(19)
H3 H 0.47840 0.64800 0.43350
C4 C 0.47114(10) 0.56413(12) 0.40392(16)
H4 H 0.43790 0.55770 0.44210
C5 C 0.49805(8) 0.52014(9) 0.35072(14)
C6 C 0.54906(7) 0.52835(8) 0.29372(12)
C7 C 0.56448(7) 0.47343(7) 0.25110(12)
C8 C 0.52332(8) 0.43530(9) 0.28289(14)
C9 C 0.51646(12) 0.37274(10) 0.2625(2)
H5 H 0.49370 0.35590 0.31670
H6 H 0.55350 0.35480 0.26100
H7 H 0.49780 0.36730 0.19670
C10 C 0.61764(7) 0.45897(7) 0.19019(12)
H8 H 0.61500 0.41850 0.17030
C11 C 0.67081(8) 0.46567(9) 0.25835(14)
H9 H 0.70490 0.45680 0.21820
H10 H 0.67380 0.50490 0.28260
C12 C 0.62457(7) 0.49375(7) 0.09048(12)
C13 C 0.66337(9) 0.53799(9) 0.07902(15)
H11 H 0.68770 0.54690 0.13390
C14 C 0.66695(11) 0.56947(10) -0.01207(17)
H12 H 0.69360 0.59890 -0.01820
C15 C 0.63101(11) 0.55691(10) -0.09283(17)
H13 H 0.63270 0.57850 -0.15360
C16 C 0.59234(10) 0.51273(9) -0.08517(14)
H14 H 0.56810 0.50440 -0.14060
C17 C 0.58959(8) 0.48052(8) 0.00541(13)
C18 C 0.52168(9) 0.41607(9) -0.06941(14)
H15 H 0.54760 0.40810 -0.12660
H16 H 0.49520 0.44580 -0.09120
C19 C 0.49038(9) 0.36474(10) -0.04196(16)
C20 C 0.46475(12) 0.32315(15) -0.0253(2)
N1 N 0.48348(7) 0.46368(8) 0.34151(12)
H17 H 0.45360 0.44820 0.36870
N2 N 0.66652(9) 0.42633(9) 0.34832(17)
O1 O 0.66570(12) 0.44706(10) 0.43438(16)
O2 O 0.66138(13) 0.37606(8) 0.3327(2)
O3 O 0.55338(6) 0.43482(6) 0.01938(9)
H18 H 0.4442(13) 0.2919(12) -0.011(2)
#END
