
#######################################################################
#
#                 Cambridge Crystallographic Data Centre
#                                CCDC
#
#######################################################################
#
# If this CIF has been generated from an entry in the Cambridge
# Structural Database, then it will include bibliographic, chemical,
# crystal, experimental, refinement or atomic coordinate data resulting
# from the CCDC's data processing and validation procedures.
#
#######################################################################

data_CSD_CIF_AZUZIE
_audit_creation_date 2004-11-10
_audit_creation_method CSD-ConQuest-V1
_database_code_CSD AZUZIE
_database_code_depnum_ccdc_archive 'CCDC 243813'
_chemical_formula_sum 'C18 H15 N1 O4'
_chemical_formula_moiety
;
C18 H15 N1 O4
;
_journal_coden_Cambridge 35
_journal_volume 69
_journal_year 2004
_journal_page_first 4412
_journal_name_full 'J.Org.Chem. '
loop_
_publ_author_name
"J.W.J.Kennedy"
"D.G.Hall"
_chemical_name_systematic
;
4-Methyl-3-methylene-5-(4-nitrophenyl)-4-phenyl-4,5-dihydrofuran-2-one
;
_cell_volume   3057.793
_exptl_crystal_colour 'colorless'
_exptl_crystal_density_diffrn 1.344
_exptl_crystal_description 'block'
_diffrn_ambient_temperature 193
#These two values have been output from a single CSD field.
_refine_ls_R_factor_gt 0.0439
_refine_ls_wR_factor_gt 0.0439
_symmetry_cell_setting monoclinic
_symmetry_space_group_name_H-M 'C 2/c'
_symmetry_Int_Tables_number 15
loop_
_symmetry_equiv_pos_site_id
_symmetry_equiv_pos_as_xyz
1 x,y,z
2 1/2+x,1/2+y,z
3 x,-y,1/2+z
4 1/2+x,1/2-y,1/2+z
5 -x,-y,-z
6 -1/2-x,-1/2-y,-z
7 -x,y,-1/2-z
8 -1/2-x,-1/2+y,-1/2-z
_cell_length_a 13.6632(13)
_cell_length_b 9.8807(9)
_cell_length_c 22.901(2)
_cell_angle_alpha 90
_cell_angle_beta 98.491(2)
_cell_angle_gamma 90
_cell_formula_units_Z 8
loop_
_atom_type_symbol
_atom_type_radius_bond
C 0.68
H 0.23
N 0.68
O 0.68
loop_
_atom_site_label
_atom_site_type_symbol
_atom_site_fract_x
_atom_site_fract_y
_atom_site_fract_z
O1 O 0.10517(9) 0.79345(11) 0.42449(5)
O2 O 0.26342(10) 0.85952(13) 0.44336(6)
O3 O -0.36983(10) 0.61485(16) 0.25537(6)
O4 O -0.33200(12) 0.81750(16) 0.23114(7)
N1 N -0.31483(12) 0.71358(18) 0.26017(7)
C1 C 0.20447(13) 0.77057(18) 0.42888(7)
C2 C 0.22182(12) 0.62843(17) 0.41313(7)
C3 C 0.12284(11) 0.56867(16) 0.38650(6)
C4 C 0.05200(12) 0.66601(15) 0.41490(7)
H1 H 0.04130 0.62830 0.45400
C5 C 0.31061(13) 0.5740(2) 0.42043(9)
H2 H 0.36650 0.62640 0.43640
H3 H 0.31890 0.48220 0.40980
C6 C 0.11281(13) 0.59161(18) 0.31943(7)
H4 H 0.15770 0.53050 0.30260
H5 H 0.12980 0.68560 0.31160
H6 H 0.04450 0.57340 0.30140
C7 C 0.10646(10) 0.42219(15) 0.40317(7)
C8 C 0.05794(12) 0.32983(17) 0.36310(8)
H7 H 0.03440 0.35790 0.32390
C9 C 0.04349(13) 0.19733(18) 0.37971(9)
H8 H 0.01040 0.13550 0.35170
C10 C 0.07650(13) 0.15426(18) 0.43638(9)
H9 H 0.06770 0.06280 0.44730
C11 C 0.12263(12) 0.24561(18) 0.47708(8)
H10 H 0.14430 0.21720 0.51650
C12 C 0.13752(11) 0.37846(16) 0.46094(7)
H11 H 0.16910 0.44030 0.48940
C13 C -0.04695(12) 0.68814(16) 0.37777(7)
C14 C -0.06571(13) 0.79881(17) 0.34010(8)
H12 H -0.01720 0.86780 0.34030
C15 C -0.15439(14) 0.80909(18) 0.30249(8)
H13 H -0.16760 0.88480 0.27700
C16 C -0.22309(12) 0.70722(18) 0.30284(7)
C17 C -0.20818(12) 0.59793(18) 0.34067(8)
H14 H -0.25750 0.53030 0.34080
C18 C -0.11965(12) 0.58951(17) 0.37842(7)
H15 H -0.10820 0.51560 0.40510
#END
