
#######################################################################
#
#                 Cambridge Crystallographic Data Centre
#                                CCDC
#
#######################################################################
#
# If this CIF has been generated from an entry in the Cambridge
# Structural Database, then it will include bibliographic, chemical,
# crystal, experimental, refinement or atomic coordinate data resulting
# from the CCDC's data processing and validation procedures.
#
#######################################################################

data_CSD_CIF_BABBUB
_audit_creation_date 1982-02-03
_audit_creation_method CSD-ConQuest-V1
_database_code_CSD BABBUB
_database_code_depnum_ccdc_archive 'CCDC 1104427'
_chemical_formula_sum 'C3 H6 N4 O2'
_chemical_formula_moiety
;
C3 H6 N4 O2
;
_journal_coeditor_code "IUCr A20301"
_journal_coden_Cambridge 107
_journal_volume 37
_journal_year 1981
_journal_page_first 1774
_journal_name_full 'Acta Crystallogr.,Sect.B:Struct.Crystallogr.Cryst.Chem. '
loop_
_publ_author_name
"S.Nordenson"
_chemical_name_systematic
;
2-Nitrimino-imidazolidine
;
_cell_volume    565.491
_exptl_crystal_density_diffrn 1.528
_diffrn_ambient_temperature ?
_diffrn_special_details
;
The study was carried out at room temperature,in the range 283-303K

;
#These two values have been output from a single CSD field.
_refine_ls_R_factor_gt 0.049
_refine_ls_wR_factor_gt 0.049
_symmetry_cell_setting monoclinic
_symmetry_space_group_name_H-M 'P 21/n'
_symmetry_Int_Tables_number 14
loop_
_symmetry_equiv_pos_site_id
_symmetry_equiv_pos_as_xyz
1 x,y,z
2 1/2-x,1/2+y,1/2-z
3 -x,-y,-z
4 -1/2+x,-1/2-y,-1/2+z
_cell_length_a 5.2089(5)
_cell_length_b 17.0775(11)
_cell_length_c 6.8283(4)
_cell_angle_alpha 90
_cell_angle_beta 111.411(6)
_cell_angle_gamma 90
_cell_formula_units_Z 4
loop_
_atom_type_symbol
_atom_type_radius_bond
C 0.68
H 0.23
N 0.68
O 0.68
loop_
_atom_site_label
_atom_site_type_symbol
_atom_site_fract_x
_atom_site_fract_y
_atom_site_fract_z
C1 C 0.20210 0.45309 0.79870
C2 C 0.30790 0.33101 0.70750
C3 C 0.14130 0.32238 0.84850
N1 N 0.11130 0.40261 0.90560
N2 N 0.17240 0.53013 0.83190
N3 N 0.31000 0.41571 0.67670
N4 N 0.26390 0.58205 0.72550
O1 O 0.23110 0.65153 0.76210
O2 O 0.37110 0.56319 0.59770
H1 H 0.02800 0.41700 0.98100
H2 H 0.39600 0.43900 0.60300
H3 H 0.50000 0.31200 0.77800
H4 H 0.22900 0.30500 0.56900
H5 H -0.03800 0.29900 0.77200
H6 H 0.22800 0.28900 0.97200
#END
