
#######################################################################
#
#                 Cambridge Crystallographic Data Centre
#                                CCDC
#
#######################################################################
#
# If this CIF has been generated from an entry in the Cambridge
# Structural Database, then it will include bibliographic, chemical,
# crystal, experimental, refinement or atomic coordinate data resulting
# from the CCDC's data processing and validation procedures.
#
#######################################################################

data_CSD_CIF_BABTEG
_audit_creation_date 2015-12-08
_audit_creation_method CSD-ConQuest-V1
_database_code_CSD BABTEG
_database_code_depnum_ccdc_archive 'CCDC 1049226'
_chemical_formula_sum 'C27 H29 N1 O7'
_chemical_formula_moiety
;
C27 H29 N1 O7
;
_journal_coden_Cambridge 4
_journal_volume 137
_journal_year 2015
_journal_page_first 13706
_journal_name_full 'J.Am.Chem.Soc. '
loop_
_publ_author_name
"Liqiang Song"
"Guili Zhu"
"Yongjiang Liu"
"Bo Liu"
"Song Qin"
_chemical_name_systematic
;
3-Hydroxy-13,14-dioxoatisa-9(11),15-dien-17-yl 4-nitrobenzoate
;
_cell_volume   1310.534
_diffrn_ambient_temperature 293.1
#These two values have been output from a single CSD field.
_refine_ls_R_factor_gt 0.067
_refine_ls_wR_factor_gt 0.067
_symmetry_cell_setting triclinic
_symmetry_space_group_name_H-M 'P -1'
_symmetry_Int_Tables_number 2
loop_
_symmetry_equiv_pos_site_id
_symmetry_equiv_pos_as_xyz
1 x,y,z
2 -x,-y,-z
_cell_length_a 7.3411(4)
_cell_length_b 11.6358(6)
_cell_length_c 15.8361(8)
_cell_angle_alpha 89.249(4)
_cell_angle_beta 79.724(4)
_cell_angle_gamma 79.991(4)
_cell_formula_units_Z 2
loop_
_atom_type_symbol
_atom_type_radius_bond
C 0.68
H 0.23
N 0.68
O 0.68
loop_
_atom_site_label
_atom_site_type_symbol
_atom_site_fract_x
_atom_site_fract_y
_atom_site_fract_z
C1 C 0.5461(4) 0.8444(2) 0.52499(16)
C2 C 0.3552(4) 0.8728(2) 0.54800(16)
H1 H 0.29850 0.88160 0.60550
C3 C 0.2484(4) 0.8879(2) 0.48422(16)
H2 H 0.11820 0.90700 0.49860
C4 C 0.3344(3) 0.8749(2) 0.39859(14)
C5 C 0.5273(3) 0.8477(2) 0.37767(15)
H3 H 0.58530 0.84000 0.32030
C6 C 0.6345(4) 0.8318(2) 0.44102(16)
H4 H 0.76480 0.81280 0.42710
C7 C 0.2111(4) 0.8893(2) 0.33241(16)
C8 C 0.2004(4) 0.88340(19) 0.18425(15)
H5 H 0.09590 0.84250 0.20210
H6 H 0.27960 0.84290 0.13410
C9 C 0.1270(3) 1.00538(18) 0.16129(13)
C10 C -0.0527(3) 1.04978(18) 0.16242(13)
H7 H -0.14790 1.00760 0.18240
C11 C -0.0947(3) 1.17234(18) 0.12962(13)
C12 C 0.0133(3) 1.25110(17) 0.17168(12)
C13 C 0.1937(3) 1.20538(19) 0.16895(14)
H8 H 0.27380 1.24460 0.19220
C14 C 0.2621(3) 1.0856(2) 0.12594(15)
H9 H 0.39380 1.05370 0.12820
C15 C 0.2243(4) 1.1105(2) 0.03568(16)
C16 C 0.0154(3) 1.16189(19) 0.03904(14)
C17 C -0.0881(3) 1.36918(17) 0.20770(12)
C18 C 0.0549(3) 1.44757(19) 0.21870(16)
H10 H 0.11770 1.41890 0.26570
H11 H 0.14940 1.44210 0.16690
C19 C -0.0343(4) 1.57552(19) 0.23659(16)
H12 H -0.12250 1.58250 0.29050
H13 H 0.06260 1.62070 0.24180
C20 C -0.1351(3) 1.62306(18) 0.16540(14)
H14 H -0.04270 1.61700 0.11200
C21 C -0.2906(3) 1.55657(18) 0.15208(14)
C22 C -0.2046(3) 1.42365(18) 0.13956(13)
H15 H -0.11310 1.41900 0.08590
C23 C -0.3500(4) 1.3506(2) 0.1216(2)
H16 H -0.46910 1.38000 0.15840
H17 H -0.36780 1.36310 0.06270
C24 C -0.3017(3) 1.2196(2) 0.13474(16)
H18 H -0.36810 1.20140 0.19050
H19 H -0.34760 1.17940 0.09180
C25 C -0.2043(4) 1.3510(2) 0.29634(15)
H20 H -0.23900 1.42390 0.32770
H21 H -0.13060 1.29530 0.32750
H22 H -0.31570 1.32240 0.28910
C26 C -0.4573(4) 1.5840(2) 0.22631(19)
H23 H -0.55110 1.53850 0.21940
H24 H -0.51020 1.66550 0.22650
H25 H -0.41530 1.56520 0.27970
C27 C -0.3579(5) 1.5990(2) 0.06827(19)
H26 H -0.25750 1.57740 0.02040
H27 H -0.39490 1.68240 0.07100
H28 H -0.46320 1.56370 0.06130
N1 N 0.6604(4) 0.8288(3) 0.59352(17)
O1 O 0.5761(4) 0.8375(3) 0.66747(16)
O2 O 0.8296(4) 0.8130(3) 0.57426(16)
O3 O 0.0426(3) 0.9056(2) 0.34943(13)
O4 O 0.3081(2) 0.88136(13) 0.25303(9)
O5 O 0.3328(3) 1.09719(19) -0.03068(13)
O6 O -0.0454(3) 1.19083(16) -0.02536(10)
O7 O -0.2066(3) 1.74437(13) 0.18415(10)
H29 H -0.19430 1.78130 0.13960
#END
