
#######################################################################
#
#                 Cambridge Crystallographic Data Centre
#                                CCDC
#
#######################################################################
#
# If this CIF has been generated from an entry in the Cambridge
# Structural Database, then it will include bibliographic, chemical,
# crystal, experimental, refinement or atomic coordinate data resulting
# from the CCDC's data processing and validation procedures.
#
#######################################################################

data_CSD_CIF_BACBAL
_audit_creation_date 2015-12-08
_audit_creation_method CSD-ConQuest-V1
_database_code_CSD BACBAL
_database_code_depnum_ccdc_archive 'CCDC 1049122'
_chemical_formula_sum 'C35 H41 N1 O8'
_chemical_formula_moiety
;
C35 H41 N1 O8
;
_journal_coden_Cambridge 4
_journal_volume 137
_journal_year 2015
_journal_page_first 13706
_journal_name_full 'J.Am.Chem.Soc. '
loop_
_publ_author_name
"Liqiang Song"
"Guili Zhu"
"Yongjiang Liu"
"Bo Liu"
"Song Qin"
_chemical_name_systematic
;
13,13-Dimethoxy-15-(4-methoxyphenyl)-5,5,9-trimethyl-14-oxotetracyclo[10.2.2.0
^1,10^.0^4,9^]hexadec-10-en-6-yl 4-nitrobenzoate
;
_cell_volume   3200.483
_exptl_crystal_colour 'colorless'
_exptl_crystal_density_diffrn 1.253
_diffrn_ambient_temperature 293
#These two values have been output from a single CSD field.
_refine_ls_R_factor_gt 0.0559
_refine_ls_wR_factor_gt 0.0559
_symmetry_cell_setting monoclinic
_symmetry_space_group_name_H-M 'P 21/n'
_symmetry_Int_Tables_number 14
loop_
_symmetry_equiv_pos_site_id
_symmetry_equiv_pos_as_xyz
1 x,y,z
2 1/2-x,1/2+y,1/2-z
3 -x,-y,-z
4 -1/2+x,-1/2-y,-1/2+z
_cell_length_a 18.9567(8)
_cell_length_b 7.1117(3)
_cell_length_c 25.0982(11)
_cell_angle_alpha 90
_cell_angle_beta 108.936(5)
_cell_angle_gamma 90
_cell_formula_units_Z 4
loop_
_atom_type_symbol
_atom_type_radius_bond
C 0.68
H 0.23
N 0.68
O 0.68
loop_
_atom_site_label
_atom_site_type_symbol
_atom_site_fract_x
_atom_site_fract_y
_atom_site_fract_z
O1 O 0.72647(7) 0.6739(2) 0.10524(6)
O2 O 0.63178(8) 0.7211(2) 0.01940(5)
O3 O 0.57400(8) 0.4296(2) 0.38489(5)
O4 O 0.61144(8) 0.3707(2) 0.06371(6)
O5 O 0.58845(11) 0.7029(3) 0.43236(7)
C1 C 0.60106(10) 0.6386(2) 0.17294(7)
C2 C 0.61114(9) 0.5296(2) 0.22697(7)
C3 C 0.55119(10) 0.5562(2) 0.11746(7)
C4 C 0.51153(11) 0.3771(2) 0.12440(8)
H1 H 0.54510 0.27210 0.12700
H2 H 0.46890 0.35900 0.09070
C5 C 0.53219(10) 0.4791(3) 0.22842(7)
H3 H 0.50710 0.60090 0.22590
C6 C 0.60425(10) 0.5210(3) 0.08406(7)
C7 C 0.64901(11) 0.6978(3) 0.07787(8)
C8 C 0.63693(11) 0.7937(3) 0.16725(8)
H4 H 0.66800 0.85840 0.19820
C9 C 0.42997(11) 0.7426(3) 0.10024(8)
C10 C 0.49634(10) 0.7110(3) 0.08117(8)
H5 H 0.47730 0.66300 0.04250
C11 C 0.52771(11) 0.3913(3) 0.28402(8)
C12 C 0.48435(11) 0.3715(3) 0.17547(8)
H6 H 0.48150 0.24100 0.18580
H7 H 0.43420 0.42220 0.16420
C13 C 0.62435(11) 0.8587(3) 0.10794(8)
H8 H 0.65270 0.97340 0.10740
C14 C 0.64986(11) 0.6525(3) 0.27858(8)
H9 H 0.70080 0.67640 0.28000
H10 H 0.62440 0.77260 0.27460
O6 O 0.58277(14) -0.0828(4) 0.61421(9)
N1 N 0.59737(15) 0.0827(5) 0.62143(10)
C15 C 0.43303(12) 0.8455(3) 0.14777(9)
H11 H 0.47760 0.90420 0.16790
C16 C 0.57138(11) 0.5217(3) 0.33214(8)
H12 H 0.54460 0.64120 0.32890
C17 C 0.65043(12) 0.5606(3) 0.33361(8)
H13 H 0.67830 0.44370 0.33900
H14 H 0.67480 0.64320 0.36500
C18 C 0.66191(11) 0.3596(3) 0.22658(9)
H15 H 0.63320 0.26420 0.20190
H16 H 0.68200 0.30970 0.26400
H17 H 0.70190 0.39940 0.21360
C19 C 0.59118(12) 0.4125(3) 0.48100(8)
C20 C 0.58487(13) 0.5341(4) 0.43108(9)
C21 C 0.54068(12) 0.8907(3) 0.07938(9)
H18 H 0.53140 0.92790 0.04050
H19 H 0.52400 0.99180 0.09840
C22 C 0.36129(12) 0.6622(3) 0.0704(1)
H20 H 0.35670 0.59430 0.03780
C23 C 0.55691(14) 0.1876(3) 0.29507(9)
H21 H 0.53510 0.11310 0.26190
H22 H 0.54360 0.13570 0.32580
H23 H 0.61020 0.18730 0.30440
C24 C 0.58341(13) 0.2197(3) 0.47603(9)
H24 H 0.57590 0.16250 0.44130
O7 O 0.24303(11) 0.7863(4) 0.15161(10)
C25 C 0.44563(12) 0.3908(3) 0.28198(10)
H25 H 0.42550 0.51550 0.27400
H26 H 0.44270 0.35020 0.31770
H27 H 0.41750 0.30650 0.25300
C26 C 0.37257(14) 0.8642(4) 0.16640(11)
H28 H 0.37650 0.93360 0.19870
C27 C 0.59764(14) 0.1988(4) 0.57293(10)
C28 C 0.58682(14) 0.1115(4) 0.52243(10)
H29 H 0.58180 -0.01850 0.51940
C29 C 0.30596(14) 0.7786(5) 0.13664(12)
C30 C 0.76273(13) 0.5302(4) 0.08382(11)
H30 H 0.75290 0.54910 0.04420
H31 H 0.74410 0.40930 0.09000
H32 H 0.81550 0.53560 0.10290
O8 O 0.61097(18) 0.1602(4) 0.66684(9)
C31 C 0.66443(16) 0.8834(4) 0.00260(11)
H33 H 0.65520 0.87950 -0.03730
H34 H 0.71720 0.88400 0.02190
H35 H 0.64270 0.99530 0.01200
C32 C 0.60420(15) 0.4967(4) 0.53289(10)
H36 H 0.61110 0.62610 0.53660
C33 C 0.30061(14) 0.6811(4) 0.08820(12)
H37 H 0.25530 0.62750 0.06730
C34 C 0.60694(16) 0.3888(4) 0.57938(10)
H38 H 0.61500 0.44460 0.61440
C35 C 0.2481(2) 0.8661(8) 0.20297(16)
H39 H 0.25430 0.99960 0.20110
H40 H 0.29010 0.81390 0.23180
H41 H 0.20330 0.84010 0.21160
#END
