
#######################################################################
#
#                 Cambridge Crystallographic Data Centre
#                                CCDC
#
#######################################################################
#
# If this CIF has been generated from an entry in the Cambridge
# Structural Database, then it will include bibliographic, chemical,
# crystal, experimental, refinement or atomic coordinate data resulting
# from the CCDC's data processing and validation procedures.
#
#######################################################################

data_CSD_CIF_BACTUV
_audit_creation_date 2002-04-24
_audit_creation_method CSD-ConQuest-V1
_database_code_CSD BACTUV
_database_code_depnum_ccdc_archive 'CCDC 158467'
_chemical_formula_sum 'C23 H31 N1 O5'
_chemical_formula_moiety
;
C23 H31 N1 O5
;
_journal_coden_Cambridge 15
_journal_volume 79
_journal_year 2001
_journal_page_first 1606
_journal_name_full 'Can.J.Chem. '
loop_
_publ_author_name
"S.E.Denmark"
"V.Guagnano"
"J.Vaugeois"
_chemical_name_systematic
;
rel-((3aS,6S,6aR)-6a-Methyl-(1R,2S)-2-(2-phenylcyclohexyloxy)-3,3a,4,5,6-penta
hydrocyclopenta(d)pyrrol-6-yl N-oxide)-(2S)-hydroxyacetic acid methyl ester
;
_chemical_melting_point 435.15
_cell_volume   2080.370
_exptl_crystal_density_diffrn 1.282
_exptl_crystal_preparation 'hexane/ethyl acetate'
_diffrn_ambient_temperature 198
#These two values have been output from a single CSD field.
_refine_ls_R_factor_gt 0.0298
_refine_ls_wR_factor_gt 0.0298
_symmetry_cell_setting monoclinic
_symmetry_space_group_name_H-M 'P 21/c'
_symmetry_Int_Tables_number 14
loop_
_symmetry_equiv_pos_site_id
_symmetry_equiv_pos_as_xyz
1 x,y,z
2 -x,1/2+y,1/2-z
3 -x,-y,-z
4 x,-1/2-y,-1/2+z
_cell_length_a 18.0854(15)
_cell_length_b 10.4325(8)
_cell_length_c 11.5299(9)
_cell_angle_alpha 90
_cell_angle_beta 106.999(2)
_cell_angle_gamma 90
_cell_formula_units_Z 4
loop_
_atom_type_symbol
_atom_type_radius_bond
C 0.68
H 0.23
N 0.68
O 0.68
loop_
_atom_site_label
_atom_site_type_symbol
_atom_site_fract_x
_atom_site_fract_y
_atom_site_fract_z
O1 O 0.2674(1) 0.8797(1) 0.3505(1)
O2 O 0.1982(1) 0.7576(1) 0.1397(1)
O3 O 0.3322(1) 1.1017(1) 0.4354(1)
O4 O 0.4152(1) 1.3153(1) 0.3919(1)
O5 O 0.3142(1) 1.3388(1) 0.2256(1)
N1 N 0.3007(1) 0.8631(1) 0.2627(1)
C1 C 0.3822(1) 0.9049(1) 0.2780(1)
C2 C 0.3894(1) 1.0533(1) 0.2714(1)
C3 C 0.3861(1) 1.0814(1) 0.1401(1)
C4 C 0.4278(1) 0.9681(1) 0.1055(1)
C5 C 0.3976(1) 0.8540(1) 0.1609(1)
C6 C 0.3193(1) 0.8030(1) 0.0800(1)
C7 C 0.2687(1) 0.8071(1) 0.1600(1)
C8 C 0.4342(1) 0.8476(2) 0.3940(1)
C9 C 0.3334(1) 1.1336(1) 0.3165(1)
C10 C 0.3594(1) 1.2718(1) 0.3190(1)
C11 C 0.3392(1) 1.4688(2) 0.2145(2)
C12 C 0.1571(1) 0.7148(1) 0.0162(1)
C13 C 0.0912(1) 0.8082(1) -0.0382(1)
C14 C 0.0462(1) 0.7590(1) -0.1646(1)
C15 C 0.0170(1) 0.6226(1) -0.1604(1)
C16 C 0.0828(1) 0.5324(2) -0.1006(1)
C17 C 0.1279(1) 0.5801(1) 0.0250(1)
C18 C 0.1193(1) 0.9446(1) -0.0381(1)
C19 C 0.1575(1) 0.9855(1) -0.1196(1)
C20 C 0.1836(1) 1.1108(2) -0.1182(2)
C21 C 0.1727(1) 1.1957(2) -0.0340(2)
C22 C 0.1355(1) 1.1580(2) 0.0480(2)
C23 C 0.1086(1) 1.0325(1) 0.0455(1)
H1 H 0.3080(9) 1.0212(14) 0.4238(14)
H2 H 0.4397(6) 1.0739(9) 0.3232(8)
H3 H 0.4098(6) 1.1646(11) 0.1327(10)
H4 H 0.3319(6) 1.0838(9) 0.0896(9)
H5 H 0.4857(6) 0.9772(10) 0.1468(9)
H6 H 0.4185(6) 0.9596(10) 0.0155(10)
H7 H 0.4340(6) 0.7815(9) 0.1818(9)
H8 H 0.3220(6) 0.7148(11) 0.0454(10)
H9 H 0.2982(6) 0.859(1) 0.0086(10)
H10 H 0.4883(7) 0.8639(11) 0.4028(10)
H11 H 0.4234(7) 0.8842(11) 0.4650(11)
H12 H 0.4280(6) 0.7543(12) 0.3972(10)
H13 H 0.2813(5) 1.1255(9) 0.2583(8)
H14 H 0.3074(12) 1.4950(18) 0.1270(13)
H15 H 0.3967(8) 1.470(2) 0.222(3)
H16 H 0.3203(16) 1.5211(15) 0.2781(18)
H17? H 0.3689(18) 1.507(2) 0.2996(14)
H18? H 0.2898(11) 1.522(2) 0.176(4)
H19? H 0.3759(19) 1.467(2) 0.159(3)
H20 H 0.1932(5) 0.7147(8) -0.0333(8)
H21 H 0.0588(5) 0.8045(9) 0.0133(8)
H22 H 0.0029(6) 0.8198(10) -0.2026(9)
H23 H 0.0791(6) 0.7624(10) -0.2194(9)
H24 H -0.0222(6) 0.6216(10) -0.1125(10)
H25 H -0.0093(6) 0.5944(11) -0.2428(11)
H26 H 0.0636(6) 0.4454(11) -0.0909(10)
H27 H 0.1178(7) 0.5268(11) -0.1512(10)
H28 H 0.0940(6) 0.5816(10) 0.0787(10)
H29 H 0.1725(6) 0.5212(10) 0.0629(9)
H30 H 0.1643(6) 0.9255(11) -0.1804(10)
H31 H 0.2127(7) 1.1329(12) -0.1800(11)
H32 H 0.1903(7) 1.2808(13) -0.0312(11)
H33 H 0.1273(7) 1.2141(13) 0.1122(12)
H34 H 0.0851(6) 1.0082(11) 0.103(1)
#END
