
#######################################################################
#
#                 Cambridge Crystallographic Data Centre
#                                CCDC
#
#######################################################################
#
# If this CIF has been generated from an entry in the Cambridge
# Structural Database, then it will include bibliographic, chemical,
# crystal, experimental, refinement or atomic coordinate data resulting
# from the CCDC's data processing and validation procedures.
#
#######################################################################

data_CSD_CIF_BAFGUL
_audit_creation_date 2002-04-24
_audit_creation_method CSD-ConQuest-V1
_database_code_CSD BAFGUL
_database_code_depnum_ccdc_archive 'CCDC 177492'
_chemical_formula_sum 'C13 H10 N4 O5'
_chemical_formula_moiety
;
C13 H10 N4 O5
;
_journal_coden_Cambridge 440
_journal_volume 26
_journal_year 2002
_journal_page_first 243
_journal_name_full 'New J.Chem. '
loop_
_publ_author_name
"B.Szczesna"
"Z.Urbanczyk-Lipkowska"
_chemical_name_systematic
;
2-((2,4-Dinitrophenyl)hydrazonomethyl)phenol
;
_cell_volume   1265.522
_exptl_crystal_colour 'red'
_exptl_crystal_density_diffrn 1.586
_exptl_special_details
;
temperature given as 150 K in cif

;
_exptl_crystal_description 'needle'
_exptl_crystal_preparation 'methanol'
_diffrn_ambient_temperature 200
#These two values have been output from a single CSD field.
_refine_ls_R_factor_gt 0.0478
_refine_ls_wR_factor_gt 0.0478
_symmetry_cell_setting monoclinic
_symmetry_space_group_name_H-M 'P 21/n'
_symmetry_Int_Tables_number 14
loop_
_symmetry_equiv_pos_site_id
_symmetry_equiv_pos_as_xyz
1 x,y,z
2 1/2+x,1/2-y,1/2+z
3 -x,-y,-z
4 -1/2-x,-1/2+y,-1/2-z
_cell_length_a 13.7670(4)
_cell_length_b 4.3530(1)
_cell_length_c 21.1180(7)
_cell_angle_alpha 90
_cell_angle_beta 90.4070(12)
_cell_angle_gamma 90
_cell_formula_units_Z 4
loop_
_atom_type_symbol
_atom_type_radius_bond
C 0.68
H 0.23
N 0.68
O 0.68
loop_
_atom_site_label
_atom_site_type_symbol
_atom_site_fract_x
_atom_site_fract_y
_atom_site_fract_z
O1 O 0.23874(10) -0.8297(3) 0.18071(5)
H1 H 0.2860(18) -0.689(5) 0.1790(11)
O2 O 0.61380(9) 0.0874(3) 0.37671(6)
O3 O 0.70349(10) 0.3753(3) 0.31787(6)
O4 O 0.65633(9) 0.4045(3) 0.09726(5)
O5 O 0.55388(9) 0.1104(2) 0.04801(5)
N1 N 0.63815(10) 0.1873(3) 0.32500(7)
N2 N 0.59343(10) 0.2049(3) 0.09761(7)
N3 N 0.43869(10) -0.2556(3) 0.11095(7)
H2 H 0.4543(14) -0.196(4) 0.0718(10)
N4 N 0.36589(9) -0.4709(3) 0.11878(6)
C1 C 0.32792(12) -0.5724(3) 0.06680(8)
H3 H 0.3534(11) -0.500(3) 0.0269(8)
C2 C 0.25001(11) -0.7954(3) 0.06643(8)
C3 C 0.20758(12) -0.9117(3) 0.12179(8)
C4 C 0.13120(13) -1.1197(4) 0.11751(9)
H4 H 0.1029(13) -1.196(4) 0.1562(9)
C5 C 0.09601(14) -1.2099(4) 0.05900(9)
H5 H 0.0446(13) -1.347(4) 0.0551(8)
C6 C 0.13651(13) -1.0965(4) 0.00387(9)
H6 H 0.1145(13) -1.153(4) -0.0352(9)
C7 C 0.21237(13) -0.8912(3) 0.00753(8)
H7 H 0.2400(11) -0.807(3) -0.0288(8)
C8 C 0.48520(12) -0.1359(3) 0.16208(7)
C9 C 0.45849(13) -0.2256(4) 0.22422(8)
H8 H 0.4051(13) -0.354(3) 0.2282(7)
C10 C 0.50801(12) -0.1240(4) 0.27626(8)
H9 H 0.4895(13) -0.186(4) 0.3165(9)
C11 C 0.58505(12) 0.0788(3) 0.26915(7)
C12 C 0.61190(12) 0.1847(4) 0.21076(8)
H10 H 0.6626(13) 0.327(4) 0.2058(8)
C13 C 0.56219(12) 0.0798(3) 0.15756(7)
#END
