
#######################################################################
#
#                 Cambridge Crystallographic Data Centre
#                                CCDC
#
#######################################################################
#
# If this CIF has been generated from an entry in the Cambridge
# Structural Database, then it will include bibliographic, chemical,
# crystal, experimental, refinement or atomic coordinate data resulting
# from the CCDC's data processing and validation procedures.
#
#######################################################################

data_CSD_CIF_BAFHEW
_audit_creation_date 2002-04-24
_audit_creation_method CSD-ConQuest-V1
_database_code_CSD BAFHEW
_database_code_depnum_ccdc_archive 'CCDC 177494'
_chemical_formula_sum 'C13 H10 N4 O5'
_chemical_formula_moiety
;
C13 H10 N4 O5
;
_journal_coden_Cambridge 440
_journal_volume 26
_journal_year 2002
_journal_page_first 243
_journal_name_full 'New J.Chem. '
loop_
_publ_author_name
"B.Szczesna"
"Z.Urbanczyk-Lipkowska"
_chemical_name_systematic
;
4-((2,4-Dinitrophenyl)hydrazonomethyl)phenol
;
_cell_volume   1288.294
_exptl_crystal_colour 'red'
_exptl_crystal_density_diffrn 1.558
_exptl_crystal_preparation 'methanol'
_diffrn_ambient_temperature 293
#These two values have been output from a single CSD field.
_refine_ls_R_factor_gt 0.0571
_refine_ls_wR_factor_gt 0.0571
_symmetry_cell_setting monoclinic
_symmetry_space_group_name_H-M 'P 21/n'
_symmetry_Int_Tables_number 14
loop_
_symmetry_equiv_pos_site_id
_symmetry_equiv_pos_as_xyz
1 x,y,z
2 1/2+x,1/2-y,1/2+z
3 -x,-y,-z
4 -1/2-x,-1/2+y,-1/2-z
_cell_length_a 8.4297(4)
_cell_length_b 6.1857(7)
_cell_length_c 24.7150(14)
_cell_angle_alpha 90
_cell_angle_beta 91.488(11)
_cell_angle_gamma 90
_cell_formula_units_Z 4
loop_
_atom_type_symbol
_atom_type_radius_bond
C 0.68
H 0.23
N 0.68
O 0.68
loop_
_atom_site_label
_atom_site_type_symbol
_atom_site_fract_x
_atom_site_fract_y
_atom_site_fract_z
C1 C 0.7690(3) 0.7435(4) 0.09023(10)
C2 C 0.7299(3) 0.5494(4) 0.1175(1)
C3 C 0.7976(3) 0.4994(4) 0.1679(1)
H1 H 0.77250 0.37070 0.18510
C4 C 0.9016(3) 0.6424(5) 0.19169(10)
C5 C 0.9411(3) 0.8359(5) 0.16672(11)
H2 H 1.01230 0.93060 0.18360
C6 C 0.8750(3) 0.8862(4) 0.11749(10)
H3 H 0.90020 1.01720 0.10140
C7 C 0.6951(3) 1.0128(4) -0.03175(10)
H4 H 0.626(3) 0.901(4) -0.0483(10)
C8 C 0.7313(3) 1.2020(4) -0.06396(9)
C9 C 0.6587(3) 1.2232(4) -0.11539(10)
H5 H 0.59120 1.11490 -0.12830
C10 C 0.6859(3) 1.4016(4) -0.14712(10)
H6 H 0.63770 1.41240 -0.18130
C11 C 0.7848(3) 1.5646(4) -0.12825(10)
C12 C 0.8602(3) 1.5456(4) -0.07751(10)
H7 H 0.92840 1.65380 -0.06500
C13 C 0.8336(3) 1.3669(4) -0.04609(10)
H8 H 0.88440 1.35520 -0.01240
N1 N 0.7579(3) 0.9844(3) 0.01585(8)
N2 N 0.7097(3) 0.7948(3) 0.04030(8)
H9 H 0.640(3) 0.688(4) 0.020(1)
N3 N 0.6228(2) 0.3908(3) 0.09448(8)
N4 N 0.9798(3) 0.5837(5) 0.24286(10)
O1 O 0.5644(2) 0.4233(3) 0.04866(7)
O2 O 0.5910(2) 0.2298(3) 0.12101(8)
O3 O 1.0823(3) 0.7083(5) 0.26058(9)
O4 O 0.9422(3) 0.4168(5) 0.26549(10)
O5 O 0.8155(3) 1.7464(3) -0.15712(8)
H10 H 0.734(3) 1.771(7) -0.1855(11)
#END
