
#######################################################################
#
#                 Cambridge Crystallographic Data Centre
#                                CCDC
#
#######################################################################
#
# If this CIF has been generated from an entry in the Cambridge
# Structural Database, then it will include bibliographic, chemical,
# crystal, experimental, refinement or atomic coordinate data resulting
# from the CCDC's data processing and validation procedures.
#
#######################################################################

data_CSD_CIF_BAFMIG
_audit_creation_date 2012-01-16
_audit_creation_method CSD-ConQuest-V1
_database_code_CSD BAFMIG
_database_code_depnum_ccdc_archive 'CCDC 757217'
_chemical_formula_sum 'C30 H45 N1 O6'
_chemical_formula_moiety
;
C30 H45 N1 O6
;
_journal_coden_Cambridge 444
_journal_volume 81
_journal_year 2011
_journal_page_first 630
_journal_name_full 'Zh.Obshch.Khim.(Russ.)(Russ.J.Gen.Chem.) '
loop_
_publ_author_name
"R.P.Litvinovskaya"
"G.A.Zhilitskaya"
"S.V.Drach"
"A.S.Lyakhov"
"V.A.Khripach"
_chemical_name_systematic
;
(2\b,3\b,14\a,20R,5'R)-14,20-dihydroxy-20-(3'-isopropylisoxazolin-5'-yl)-2,3-i
sopropylidenedioxy-5\b-pregn-7-en-6-one
;
_cell_volume   2806.026
_exptl_crystal_colour 'colorless'
_exptl_crystal_density_diffrn 1.221
_exptl_crystal_description 'block'
_exptl_crystal_preparation 'methanol/water'
_diffrn_ambient_temperature 295
_refine_special_details
;
The structure is disordered.

;
#These two values have been output from a single CSD field.
_refine_ls_R_factor_gt 0.0624
_refine_ls_wR_factor_gt 0.0624
_symmetry_cell_setting orthorhombic
_symmetry_space_group_name_H-M 'P 21 21 21'
_symmetry_Int_Tables_number 19
loop_
_symmetry_equiv_pos_site_id
_symmetry_equiv_pos_as_xyz
1 x,y,z
2 1/2-x,-y,1/2+z
3 -x,1/2+y,1/2-z
4 1/2+x,1/2-y,-z
_cell_length_a 11.751(2)
_cell_length_b 12.146(2)
_cell_length_c 19.660(4)
_cell_angle_alpha 90
_cell_angle_beta 90
_cell_angle_gamma 90
_cell_formula_units_Z 4
loop_
_atom_type_symbol
_atom_type_radius_bond
C 0.68
H 0.23
N 0.68
O 0.68
loop_
_atom_site_label
_atom_site_type_symbol
_atom_site_fract_x
_atom_site_fract_y
_atom_site_fract_z
C1 C 0.6001(4) 0.8183(4) 0.4145(2)
H1 H 0.62010 0.84120 0.36880
H2 H 0.67010 0.81350 0.44050
C2 C 0.5485(4) 0.7046(4) 0.4106(2)
H3 H 0.55230 0.66840 0.45510
O1 O 0.6068(3) 0.6391(3) 0.35980(16)
C3 C 0.4266(4) 0.7044(4) 0.3841(2)
H4 H 0.39030 0.63390 0.39500
O2 O 0.4453(3) 0.7114(3) 0.31224(15)
C4 C 0.3521(4) 0.7974(4) 0.4076(2)
H5 H 0.32610 0.78190 0.45340
H6 H 0.28560 0.80120 0.37850
C5 C 0.4114(4) 0.9091(4) 0.4071(2)
H7 H 0.42790 0.92790 0.35960
C6 C 0.3330(4) 0.9951(4) 0.4346(2)
O3 O 0.2681(3) 1.0471(3) 0.39735(17)
C7 C 0.3322(4) 1.0112(4) 0.5086(2)
H8 H 0.27670 1.05640 0.52750
C8 C 0.4081(3) 0.9636(3) 0.5500(2)
C9 C 0.5004(3) 0.8866(4) 0.52357(19)
H9 H 0.46970 0.81180 0.52680
C10 C 0.5257(4) 0.9080(3) 0.4462(2)
C11 C 0.6098(4) 0.8885(4) 0.5662(2)
H10 H 0.65160 0.82120 0.55730
H11 H 0.65650 0.94930 0.55070
C12 C 0.5940(4) 0.8995(4) 0.6434(2)
H12 H 0.56230 0.83170 0.66130
H13 H 0.66740 0.91120 0.66470
C13 C 0.5153(3) 0.9950(3) 0.6608(2)
C14 C 0.3976(3) 0.9723(3) 0.62685(19)
O4 O 0.3595(2) 0.8651(2) 0.64940(14)
H14 H 0.29380 0.85500 0.63680
C15 C 0.3213(4) 1.0588(4) 0.6572(2)
H15 H 0.24190 1.03760 0.65360
H16 H 0.33210 1.12920 0.63480
C16 C 0.3595(4) 1.0639(4) 0.7323(2)
H17 H 0.30500 1.02630 0.76120
H18 H 0.36550 1.13980 0.74720
C17 C 0.4782(4) 1.0060(4) 0.7364(2)
H19 H 0.46400 0.93110 0.75280
C18 C 0.5628(4) 1.1037(4) 0.6325(2)
H20 H 0.64130 1.11110 0.64540
H21 H 0.52010 1.16430 0.65060
H22 H 0.55690 1.10360 0.58380
C19 C 0.5843(4) 1.0191(4) 0.4350(2)
H23 H 0.58680 1.03510 0.38720
H24 H 0.66040 1.01610 0.45260
H25 H 0.54250 1.07580 0.45800
C20 C 0.5588(4) 1.0605(4) 0.7886(2)
O5 O 0.5629(4) 1.1759(3) 0.77325(16)
H26 H 0.60230 1.20750 0.80160
C21 C 0.6788(4) 1.0126(5) 0.7868(3)
H27 H 0.71670 1.03650 0.74620
H28 H 0.67460 0.93370 0.78730
H29 H 0.72050 1.03760 0.82590
C22 C 0.5409(4) 0.6427(4) 0.2976(2)
C23 C 0.6084(6) 0.6939(5) 0.2413(3)
H30 H 0.56320 0.69580 0.20060
H31 H 0.67580 0.65110 0.23330
H32 H 0.62940 0.76750 0.25380
C24 C 0.5022(6) 0.5258(5) 0.2811(3)
H33 H 0.46300 0.49530 0.31950
H34 H 0.56730 0.48120 0.27060
H35 H 0.45190 0.52740 0.24260
O6 O 0.5766(4) 1.1136(4) 0.90671(17)
N1 N 0.6025(5) 1.0503(6) 0.9639(2)
C25 C 0.5628(5) 0.9530(7) 0.9571(3)
C26 C 0.5060(5) 0.9338(5) 0.8911(3)
H36 H 0.42880 0.90740 0.89730
H37 H 0.54800 0.88140 0.86350
C27 C 0.5074(4) 1.0484(4) 0.8593(2)
H38 H 0.42970 1.07770 0.85880
C28 C 0.5761(6) 0.8684(8) 1.0110(4)
H39 H 0.61530 0.91130 1.04610
C29 C 0.4649(6) 0.8459(7) 1.0460(4)
H40 H 0.41060 0.81930 1.01350
H41 H 0.43710 0.91260 1.06620
H42 H 0.47600 0.79150 1.08080
C30 C 0.6545(10) 0.7937(9) 0.9970(7)
H43 H 0.72310 0.82980 0.98260
H44 H 0.62760 0.74650 0.96130
H45 H 0.66970 0.75060 1.03690
C31? C 0.6668(11) 0.8461(15) 1.0486(8)
H46? H 0.57800 0.80310 0.98170
H47? H 0.64770 0.79120 1.08180
H48? H 0.69170 0.91190 1.07120
H49? H 0.72680 0.81900 1.01990
#END
