
#######################################################################
#
#                 Cambridge Crystallographic Data Centre
#                                CCDC
#
#######################################################################
#
# If this CIF has been generated from an entry in the Cambridge
# Structural Database, then it will include bibliographic, chemical,
# crystal, experimental, refinement or atomic coordinate data resulting
# from the CCDC's data processing and validation procedures.
#
#######################################################################

data_CSD_CIF_BAFXIP
_audit_creation_date 1982-03-29
_audit_creation_method CSD-ConQuest-V1
_database_code_CSD BAFXIP
_database_code_depnum_ccdc_archive 'CCDC 1105053'
_chemical_formula_sum 'C5 H11 N1 O2'
_chemical_formula_moiety
;
C5 H11 N1 O2
;
_journal_coeditor_code "IUCr A20326"
_journal_coden_Cambridge 107
_journal_volume 37
_journal_year 1981
_journal_page_first 1858
_journal_name_full 'Acta Crystallogr.,Sect.B:Struct.Crystallogr.Cryst.Chem. '
loop_
_publ_author_name
"E.Maia"
"E.Peguy"
"S.Perez"
_chemical_name_systematic
;
N-Methylmorpholine-N-oxide
;
_chemical_melting_point 445
_cell_volume    311.239
_exptl_crystal_colour 'white'
_exptl_crystal_density_diffrn 1.25
_diffrn_ambient_temperature ?
_diffrn_special_details
;
The study was carried out at room temperature,in the range 283-303K

;
#These two values have been output from a single CSD field.
_refine_ls_R_factor_gt 0.043
_refine_ls_wR_factor_gt 0.043
_symmetry_cell_setting monoclinic
_symmetry_space_group_name_H-M 'P 21/m'
_symmetry_Int_Tables_number 11
loop_
_symmetry_equiv_pos_site_id
_symmetry_equiv_pos_as_xyz
1 x,y,z
2 -x,1/2+y,-z
3 -x,-y,-z
4 x,-1/2-y,z
_cell_length_a 9.886(5)
_cell_length_b 6.621(5)
_cell_length_c 5.112(4)
_cell_angle_alpha 90
_cell_angle_beta 111.54(10)
_cell_angle_gamma 90
_cell_formula_units_Z 2
loop_
_atom_type_symbol
_atom_type_radius_bond
C 0.68
H 0.23
N 0.68
O 0.68
loop_
_atom_site_label
_atom_site_type_symbol
_atom_site_fract_x
_atom_site_fract_y
_atom_site_fract_z
O1 O 0.44540 0.25000 0.65010
C1 C 0.36570 0.07530 0.66270
C2 C 0.22140 0.06730 0.42730
N1 N 0.13440 0.25000 0.43880
C3 C -0.00520 0.25000 0.19480
O2 O 0.10730 0.25000 0.68720
H1 H 0.35100 0.06300 0.84900
H2 H 0.42200 -0.03900 0.65400
H3 H 0.16200 -0.05500 0.43300
H4 H 0.23500 0.07900 0.24100
H5 H -0.05700 0.38800 0.22200
H6 H 0.01900 0.25000 0.01000
C1C C 0.36570 0.42470 0.66270
C2C C 0.22140 0.43270 0.42730
H5C H -0.05700 0.11200 0.22200
H1C H 0.35100 0.43700 0.84900
H2C H 0.42200 0.53900 0.65400
H3C H 0.16200 0.55500 0.43300
H4C H 0.23500 0.42100 0.24100
#END
