
#######################################################################
#
#                 Cambridge Crystallographic Data Centre
#                                CCDC
#
#######################################################################
#
# If this CIF has been generated from an entry in the Cambridge
# Structural Database, then it will include bibliographic, chemical,
# crystal, experimental, refinement or atomic coordinate data resulting
# from the CCDC's data processing and validation procedures.
#
#######################################################################

data_CSD_CIF_BAJCIY04
_audit_creation_date 2013-02-01
_audit_creation_method CSD-ConQuest-V1
_database_code_CSD BAJCIY04
_database_code_depnum_ccdc_archive 'CCDC 618688'
_chemical_formula_sum 'C7 H8 N2 O2'
_chemical_formula_moiety
;
C7 H8 N2 O2
;
_journal_coden_Cambridge 1277
_journal_volume 110
_journal_year 2006
_journal_page_first 8763
_journal_name_full 'J.Phys.Chem.A '
loop_
_publ_author_name
"A.E.Whitten"
"P.Turner"
"W.T.Klooster"
"R.O.Piltz"
"M.A.Spackman"
_chemical_name_systematic
;
2-methyl-4-nitroaniline
;
_cell_volume    689.066
_exptl_crystal_colour 'light-yellow'
_exptl_crystal_density_diffrn 1.45
_exptl_crystal_description 'truncated cone'
_diffrn_ambient_temperature 100.0
_diffrn_radiation_probe 'neutron radiation'
#These two values have been output from a single CSD field.
_refine_ls_R_factor_gt 0.0206
_refine_ls_wR_factor_gt 0.0206
_symmetry_cell_setting monoclinic
_symmetry_space_group_name_H-M 'I a'
_symmetry_Int_Tables_number 9
loop_
_symmetry_equiv_pos_site_id
_symmetry_equiv_pos_as_xyz
1 x,y,z
2 1/2+x,-y,z
3 1/2+x,1/2+y,1/2+z
4 x,1/2-y,1/2+z
_cell_length_a 8.131(2)
_cell_length_b 11.515(2)
_cell_length_c 7.371(2)
_cell_angle_alpha 90
_cell_angle_beta 93.19(2)
_cell_angle_gamma 90
_cell_formula_units_Z 4
loop_
_atom_type_symbol
_atom_type_radius_bond
C 0.68
H 0.23
N 0.68
O 0.68
loop_
_atom_site_label
_atom_site_type_symbol
_atom_site_fract_x
_atom_site_fract_y
_atom_site_fract_z
O1 O 0.91584(22) 0.09877(11) 0.4748(3)
O2 O 1.00001 0.27490(12) 0.50000
N1 N 0.29800(19) 0.36506(7) 0.14894(27)
N2 N 0.89350(18) 0.20308(7) 0.45433(26)
C1 C 0.44299(20) 0.32427(9) 0.22131(28)
C2 C 0.46879(20) 0.20298(9) 0.24344(28)
C3 C 0.61733(23) 0.16514(9) 0.3198(3)
C4 C 0.74003(19) 0.24391(10) 0.37530(29)
C5 C 0.71553(22) 0.36301(9) 0.35587(29)
C6 C 0.56829(21) 0.40249(8) 0.27945(29)
C7 C 0.33627(20) 0.11978(10) 0.18204(28)
H1 H 0.2068(4) 0.31083(23) 0.1016(5)
H2 H 0.2916(4) 0.44883(22) 0.1132(5)
H3 H 0.6395(3) 0.07318(18) 0.3381(5)
H4 H 0.8116(4) 0.42296(20) 0.4019(5)
H5 H 0.5468(4) 0.49499(19) 0.2629(5)
H6 H 0.2988(4) 0.13074(22) 0.0375(5)
H7 H 0.2248(3) 0.13275(24) 0.2551(5)
H8 H 0.3778(4) 0.03119(21) 0.2031(5)
#END
