
#######################################################################
#
#                 Cambridge Crystallographic Data Centre
#                                CCDC
#
#######################################################################
#
# If this CIF has been generated from an entry in the Cambridge
# Structural Database, then it will include bibliographic, chemical,
# crystal, experimental, refinement or atomic coordinate data resulting
# from the CCDC's data processing and validation procedures.
#
#######################################################################

data_CSD_CIF_BAKJUV
_audit_creation_date 2017-01-20
_audit_creation_method CSD-ConQuest-V1
_database_code_CSD BAKJUV
_database_code_depnum_ccdc_archive 'CCDC 1438224'
_chemical_formula_sum 'C16 H17 N1 O5'
_chemical_formula_moiety
;
C16 H17 N1 O5
;
_journal_coden_Cambridge 1220
_journal_volume 22
_journal_year 2016
_journal_page_first 18339
_journal_name_full 'Chem.-Eur.J. '
loop_
_publ_author_name
"You-Ming Huang"
"Yang Liu"
"Chang-Wu Zheng"
"Qiao-Wen Jin"
"Lu Pan"
"Ren-Ming Pan"
"Jun Liu"
"Gang Zhao"
_chemical_name_systematic
;
4'-hydroxy-1-methoxy-9'H-spiro[indole-3,2'-[7]oxabicyclo[3.2.2]nonane]-2,9'(1H
)-dione
;
_cell_volume    746.021
_exptl_crystal_colour 'colorless'
_exptl_crystal_density_diffrn 1.35
_exptl_crystal_description 'prismatic'
_diffrn_ambient_temperature 293
#These two values have been output from a single CSD field.
_refine_ls_R_factor_gt 0.0536
_refine_ls_wR_factor_gt 0.0536
_symmetry_cell_setting triclinic
_symmetry_space_group_name_H-M 'P -1'
_symmetry_Int_Tables_number 2
loop_
_symmetry_equiv_pos_site_id
_symmetry_equiv_pos_as_xyz
1 x,y,z
2 -x,-y,-z
_cell_length_a 7.685(2)
_cell_length_b 9.787(3)
_cell_length_c 11.692(3)
_cell_angle_alpha 65.890(5)
_cell_angle_beta 72.218(6)
_cell_angle_gamma 71.709(6)
_cell_formula_units_Z 2
loop_
_atom_type_symbol
_atom_type_radius_bond
C 0.68
H 0.23
N 0.68
O 0.68
loop_
_atom_site_label
_atom_site_type_symbol
_atom_site_fract_x
_atom_site_fract_y
_atom_site_fract_z
N1 N -0.0947(2) 0.1513(2) 0.19919(19)
O1 O 0.4761(3) -0.45249(18) 0.34549(18)
O2 O 0.2647(2) -0.08690(17) 0.47409(14)
O3 O 0.6854(2) -0.1460(2) 0.13703(16)
H1 H 0.78450 -0.13730 0.14330
O4 O -0.0232(2) -0.09554(19) 0.20226(18)
O5 O -0.2705(2) 0.19538(19) 0.17205(16)
C1 C 0.4136(3) -0.3362(2) 0.3720(2)
C2 C 0.2092(3) -0.2819(3) 0.4182(2)
H2 H 0.17270 -0.34460 0.50680
H3 H 0.13890 -0.29470 0.36830
C3 C 0.1594(3) -0.1140(2) 0.4074(2)
H4 H 0.02740 -0.09120 0.44890
C4 C 0.4517(3) -0.1758(3) 0.4742(2)
H5 H 0.45380 -0.26260 0.55360
H6 H 0.53110 -0.11360 0.47060
C5 C 0.5308(3) -0.2340(2) 0.3622(2)
H7 H 0.65840 -0.29440 0.36820
C6 C 0.5378(3) -0.1015(2) 0.2316(2)
H8 H 0.55970 -0.01340 0.24080
C7 C 0.3610(3) -0.0510(2) 0.1792(2)
H9 H 0.34740 -0.13530 0.16150
H10 H 0.37610 0.03320 0.09860
C8 C 0.1799(3) 0.0001(2) 0.2676(2)
C9 C 0.0112(3) 0.0086(3) 0.2187(2)
C10 C -0.0195(3) 0.2482(2) 0.2236(2)
C11 C 0.1474(3) 0.1636(2) 0.2626(2)
C12 C 0.2502(3) 0.2360(3) 0.2888(2)
H11 H 0.36320 0.18260 0.31450
C13 C 0.1835(4) 0.3893(3) 0.2764(2)
H12 H 0.25300 0.43910 0.29310
C14 C 0.0160(4) 0.4684(3) 0.2398(2)
H13 H -0.02710 0.57080 0.23340
C15 C -0.0904(3) 0.3997(3) 0.2121(2)
H14 H -0.20390 0.45320 0.18700
C16 C -0.2627(5) 0.2610(4) 0.0373(3)
H15 H -0.21320 0.35170 0.00260
H16 H -0.38630 0.28710 0.02120
H17 H -0.18320 0.18820 -0.00250
#END
