
#######################################################################
#
#                 Cambridge Crystallographic Data Centre
#                                CCDC
#
#######################################################################
#
# If this CIF has been generated from an entry in the Cambridge
# Structural Database, then it will include bibliographic, chemical,
# crystal, experimental, refinement or atomic coordinate data resulting
# from the CCDC's data processing and validation procedures.
#
#######################################################################

data_CSD_CIF_BAKMIL
_audit_creation_date 2012-02-16
_audit_creation_method CSD-ConQuest-V1
_database_code_CSD BAKMIL
_database_code_depnum_ccdc_archive 'CCDC 291468'
_chemical_formula_sum 'C20 H20 N2 O1'
_chemical_formula_moiety
;
C20 H20 N2 O1
;
_journal_coden_Cambridge 1003
_journal_volume 42
_journal_year 2012
_journal_page_first 43
_journal_name_full 'J.Chem.Cryst. '
loop_
_publ_author_name
"P.Quadrelli"
"B.Bovio"
"A.Piccanello"
_chemical_name_systematic
;
8-Benzyl-5-phenyl-3-oxa-4,8-diazatricyclo[5.2.1.0^2,6^]dec-4-ene
;
_cell_volume   1628.698
_exptl_crystal_colour 'colorless'
_exptl_crystal_density_diffrn 1.241
_exptl_special_details
;
We calculate 32% void space in the structure

;
_exptl_crystal_description 'needles'
_diffrn_ambient_temperature 293
_refine_special_details
;
Large void space, possible disorder.

;
#These two values have been output from a single CSD field.
_refine_ls_R_factor_gt 0.049
_refine_ls_wR_factor_gt 0.049
_symmetry_cell_setting monoclinic
_symmetry_space_group_name_H-M 'P 21'
_symmetry_Int_Tables_number 4
loop_
_symmetry_equiv_pos_site_id
_symmetry_equiv_pos_as_xyz
1 x,y,z
2 1/2-x,1/2+y,1/2-z
_cell_length_a 10.931(1)
_cell_length_b 10.327(1)
_cell_length_c 14.441(1)
_cell_angle_alpha 90
_cell_angle_beta 92.43(1)
_cell_angle_gamma 90
_cell_formula_units_Z 4
loop_
_atom_type_symbol
_atom_type_radius_bond
C 0.68
H 0.23
N 0.68
O 0.68
loop_
_atom_site_label
_atom_site_type_symbol
_atom_site_fract_x
_atom_site_fract_y
_atom_site_fract_z
C1 C 1.1071(2) 0.0574(2) 0.8612(2)
H1 H 1.173(2) 0.057(2) 0.905(1)
C2 C 1.1503(2) 0.0616(2) 0.7627(2)
H2 H 1.188(2) 0.146(2) 0.748(1)
O1 O 1.2367(1) -0.0423(2) 0.7447(1)
N1 N 1.1870(1) -0.1263(2) 0.6754(1)
C3 C 1.0778(1) -0.0899(2) 0.6522(1)
C4 C 1.0346(1) 0.0257(2) 0.7040(1)
H3 H 1.010(1) 0.093(2) 0.662(1)
C5 C 0.9409(2) -0.0006(2) 0.7792(1)
H4 H 0.870(1) -0.052(2) 0.758(1)
N2 N 0.9041(1) 0.1212(1) 0.8234(1)
C6 C 1.0189(2) 0.1698(2) 0.8701(2)
H5 H 1.001(2) 0.195(2) 0.934(2)
H6 H 1.047(2) 0.246(2) 0.835(1)
C7 C 1.0208(2) -0.0589(2) 0.8570(2)
H7 H 0.976(2) -0.070(2) 0.914(1)
H8 H 1.062(2) -0.138(2) 0.840(1)
C8 C 1.0063(2) -0.1606(2) 0.5805(1)
C9 C 1.0544(2) -0.2686(2) 0.5360(1)
H9 H 1.136(2) -0.299(2) 0.556(1)
C10 C 0.9861(3) -0.3329(2) 0.4691(2)
H10 H 1.025(2) -0.406(2) 0.438(2)
C11 C 0.8696(3) -0.2937(2) 0.4450(2)
H11 H 0.819(2) -0.343(2) 0.396(1)
C12 C 0.8204(2) -0.1886(2) 0.4877(1)
H12 H 0.734(2) -0.163(2) 0.472(1)
C13 C 0.8891(2) -0.1214(2) 0.5550(1)
H13 H 0.854(2) -0.046(2) 0.584(1)
C14 C 0.8383(2) 0.2151(2) 0.7659(2)
H14 H 0.892(2) 0.248(2) 0.715(1)
H15 H 0.821(2) 0.288(2) 0.810(1)
C15 C 0.7208(2) 0.1606(2) 0.7247(1)
C16 C 0.6956(2) 0.1609(2) 0.6301(1)
H16 H 0.754(2) 0.195(2) 0.592(1)
C17 C 0.5862(2) 0.1094(2) 0.5931(2)
H17 H 0.571(2) 0.110(2) 0.527(2)
C18 C 0.5028(2) 0.0588(2) 0.6505(2)
H18 H 0.421(2) 0.021(2) 0.625(2)
C19 C 0.5263(2) 0.0595(2) 0.7434(2)
H19 H 0.461(2) 0.023(2) 0.784(1)
C20 C 0.6334(2) 0.1082(2) 0.7805(1)
H20 H 0.650(2) 0.108(2) 0.847(1)
#END
