
#######################################################################
#
#                 Cambridge Crystallographic Data Centre
#                                CCDC
#
#######################################################################
#
# If this CIF has been generated from an entry in the Cambridge
# Structural Database, then it will include bibliographic, chemical,
# crystal, experimental, refinement or atomic coordinate data resulting
# from the CCDC's data processing and validation procedures.
#
#######################################################################

data_CSD_CIF_BAKTOX
_audit_creation_date 2003-03-06
_audit_creation_method CSD-ConQuest-V1
_database_code_CSD BAKTOX
_database_code_depnum_ccdc_archive 'CCDC 191573'
_chemical_formula_sum 'C6 H7 N1 O3'
_chemical_formula_moiety
;
C6 H7 N1 O3
;
_journal_coden_Cambridge 188
_journal_year 2002
_journal_page_first 2031
_journal_name_full 'J.Chem.Soc.,Perkin Trans.2 '
loop_
_publ_author_name
"C.K.Y.Lee"
"C.J.Easton"
"M.Gebara-Coghlan"
"L.Radom"
"A.P.Scott"
"G.W.Simpson"
"A.C.Willis"
_chemical_name_systematic
;
3-Methylisoxazole-4-carboxylic acid methyl ester
;
_chemical_melting_point 297.15
_cell_volume    692.493
_exptl_crystal_colour 'colorless'
_exptl_crystal_density_diffrn 1.354
_exptl_special_details
;
Melting point range 297.15-298.15K

;
_exptl_crystal_description 'block'
_exptl_crystal_preparation 'hexanes/diethyl ether'
_diffrn_ambient_temperature 200.0
#These two values have been output from a single CSD field.
_refine_ls_R_factor_gt 0.0363
_refine_ls_wR_factor_gt 0.0363
_symmetry_cell_setting monoclinic
_symmetry_space_group_name_H-M 'P 21/c'
_symmetry_Int_Tables_number 14
loop_
_symmetry_equiv_pos_site_id
_symmetry_equiv_pos_as_xyz
1 x,y,z
2 x,1/2-y,1/2+z
3 -x,-y,-z
4 -x,-1/2+y,-1/2-z
_cell_length_a 7.8027(3)
_cell_length_b 11.2422(5)
_cell_length_c 8.4806(4)
_cell_angle_alpha 90
_cell_angle_beta 111.428(2)
_cell_angle_gamma 90
_cell_formula_units_Z 4
loop_
_atom_type_symbol
_atom_type_radius_bond
C 0.68
H 0.23
N 0.68
O 0.68
loop_
_atom_site_label
_atom_site_type_symbol
_atom_site_fract_x
_atom_site_fract_y
_atom_site_fract_z
O1 O 0.8648(2) 0.1281(1) 0.5621(2)
O2 O 0.4879(2) -0.1816(1) 0.3079(2)
O3 O 0.4321(2) -0.0083(1) 0.1671(1)
N1 N 0.9201(2) 0.0232(1) 0.6625(2)
C1 C 0.8053(2) -0.0596(2) 0.5783(2)
C2 C 0.6744(2) -0.0143(1) 0.4248(2)
C3 C 0.7203(3) 0.1010(2) 0.4239(2)
C4 C 0.8238(4) -0.1823(2) 0.6479(3)
C5 C 0.5243(2) -0.0779(2) 0.2973(2)
C6 C 0.2800(3) -0.0635(3) 0.0316(3)
H1 H 0.663(3) 0.167(2) 0.341(2)
H2 H 0.931(3) -0.190(2) 0.744(3)
H3 H 0.712(3) -0.206(2) 0.667(3)
H4 H 0.835(3) -0.242(2) 0.570(3)
H5 H 0.327(3) -0.129(2) -0.023(3)
H6 H 0.196(3) -0.092(2) 0.077(3)
H7 H 0.218(3) 0.004(2) -0.058(3)
#END
