
#######################################################################
#
#                 Cambridge Crystallographic Data Centre
#                                CCDC
#
#######################################################################
#
# If this CIF has been generated from an entry in the Cambridge
# Structural Database, then it will include bibliographic, chemical,
# crystal, experimental, refinement or atomic coordinate data resulting
# from the CCDC's data processing and validation procedures.
#
#######################################################################

data_CSD_CIF_BAMCUP
_audit_creation_date 2012-02-16
_audit_creation_method CSD-ConQuest-V1
_database_code_CSD BAMCUP
_database_code_depnum_ccdc_archive 'CCDC 773748'
_chemical_formula_sum 'C12 H21 N5 O5'
_chemical_formula_moiety
;
C12 H21 N5 O5
;
_journal_coden_Cambridge 1122
_journal_volume 29
_journal_year 2011
_journal_page_first 1011
_journal_name_full 'Chin.J.Chem. '
loop_
_publ_author_name
"Sijia Xue"
"Hongfei Bu"
"Li Liu"
"Xiao Xu"
"Xubo Ma"
_chemical_name_systematic
;
Ethyl 
(4-(nitroimino)-3-(tetrahydrofuran-2-ylmethyl)-1,3,5-triazinan-1-yl)acetate
;
_cell_volume   3107.922
_exptl_crystal_colour 'colorless'
_exptl_crystal_density_diffrn 1.348
_exptl_crystal_description 'block'
_diffrn_ambient_temperature 298
#These two values have been output from a single CSD field.
_refine_ls_R_factor_gt 0.0642
_refine_ls_wR_factor_gt 0.0642
_symmetry_cell_setting monoclinic
_symmetry_space_group_name_H-M 'C 2/c'
_symmetry_Int_Tables_number 15
loop_
_symmetry_equiv_pos_site_id
_symmetry_equiv_pos_as_xyz
1 x,y,z
2 -x,y,1/2-z
3 1/2+x,1/2+y,z
4 1/2-x,1/2+y,1/2-z
5 -x,-y,-z
6 x,-y,-1/2+z
7 -1/2-x,-1/2-y,-z
8 -1/2+x,-1/2-y,-1/2+z
_cell_length_a 20.155(2)
_cell_length_b 18.135(2)
_cell_length_c 8.820(1)
_cell_angle_alpha 90
_cell_angle_beta 105.409(2)
_cell_angle_gamma 90
_cell_formula_units_Z 8
loop_
_atom_type_symbol
_atom_type_radius_bond
C 0.68
H 0.23
N 0.68
O 0.68
loop_
_atom_site_label
_atom_site_type_symbol
_atom_site_fract_x
_atom_site_fract_y
_atom_site_fract_z
C1 C 0.15617(14) 0.28723(13) 0.0443(3)
H1 H 0.17020 0.29190 -0.05340
C2 C 0.15711(19) 0.36289(16) 0.1189(4)
H2 H 0.11570 0.37120 0.15270
H3 H 0.16150 0.40160 0.04620
C3 C 0.2205(2) 0.3596(3) 0.2589(4)
H4 H 0.26070 0.37890 0.23170
H5 H 0.21330 0.38710 0.34750
C4 C 0.2281(2) 0.2802(3) 0.2949(4)
H6 H 0.27590 0.26840 0.34410
H7 H 0.20090 0.26640 0.36610
C5 C 0.08591(12) 0.25162(13) 0.0091(3)
H8 H 0.06870 0.25500 0.10160
H9 H 0.05460 0.27860 -0.07510
C6 C 0.0864(1) 0.15282(12) -0.1826(2)
C7 C 0.09012(13) 0.02532(13) -0.0924(3)
H10 H 0.04360 0.01180 -0.09190
H11 H 0.11290 -0.01850 -0.11680
C8 C 0.09353(12) 0.11928(13) 0.0915(3)
H12 H 0.12000 0.14090 0.18960
H13 H 0.04820 0.10750 0.10300
C9 C 0.19990(12) 0.06265(13) 0.0729(3)
H14 H 0.20520 0.10650 0.01410
H15 H 0.21610 0.02090 0.02390
C10 C 0.24392(12) 0.07029(12) 0.2375(3)
C11 C 0.36075(15) 0.08243(18) 0.3848(4)
H16 H 0.35510 0.04510 0.45920
H17 H 0.35540 0.13060 0.42790
C12 C 0.42965(18) 0.0760(3) 0.3559(5)
H18 H 0.43310 0.02960 0.30630
H19 H 0.46440 0.07880 0.45420
H20 H 0.43600 0.11540 0.28860
N1 N 0.08666(9) 0.17397(10) -0.0369(2)
N2 N 0.08758(10) 0.08102(10) -0.2132(2)
H21 H 0.08680 0.06710 -0.30680
N3 N 0.12677(10) 0.05224(10) 0.0623(2)
N4 N 0.08535(10) 0.20973(10) -0.2841(2)
N5 N 0.08403(10) 0.19405(11) -0.4340(2)
O1 O 0.20535(10) 0.24280(12) 0.1535(2)
O2 O 0.07996(11) 0.24701(11) -0.5217(2)
O3 O 0.08633(12) 0.13088(11) -0.4851(2)
O4 O 0.22477(10) 0.07421(11) 0.3538(2)
O5 O 0.30976(9) 0.07224(11) 0.2348(2)
#END
