
#######################################################################
#
#                 Cambridge Crystallographic Data Centre
#                                CCDC
#
#######################################################################
#
# If this CIF has been generated from an entry in the Cambridge
# Structural Database, then it will include bibliographic, chemical,
# crystal, experimental, refinement or atomic coordinate data resulting
# from the CCDC's data processing and validation procedures.
#
#######################################################################

data_CSD_CIF_BAMKOP
_audit_creation_date 1983-10-06
_audit_creation_method CSD-ConQuest-V1
_database_code_CSD BAMKOP
_database_code_depnum_ccdc_archive 'CCDC 1105820'
_chemical_formula_sum 'C22 H32 N2 O14'
_chemical_formula_moiety
;
C22 H32 N2 O14
;
_journal_coeditor_code "IUCr A22384"
_journal_coden_Cambridge 591
_journal_volume 39
_journal_year 1983
_journal_page_first 464
_journal_name_full 'Acta Crystallogr.,Sect.C:Cryst.Struct.Commun. '
loop_
_publ_author_name
"R.Vega"
"A.Lopez-Castro"
"R.Marquez"
_chemical_name_systematic
;
Methyl 
5,6,7,8,9-penta-acetoxy-2-amino-4-nitromethyl-D-glycero-L-gluco-non-2-ene-3-ca
rboxylate
;
_cell_volume   2757.272
_exptl_crystal_colour 'grey'
_exptl_crystal_density_diffrn 1.32
_exptl_special_details
;
H1(C1), H2(C1) and H3(C1) removed for suspectd coord. errors

;
_diffrn_ambient_temperature ?
_diffrn_special_details
;
The study was carried out at room temperature,in the range 283-303K

;
#These two values have been output from a single CSD field.
_refine_ls_R_factor_gt 0.074
_refine_ls_wR_factor_gt 0.074
_symmetry_cell_setting orthorhombic
_symmetry_space_group_name_H-M 'P 21 21 21'
_symmetry_Int_Tables_number 19
loop_
_symmetry_equiv_pos_site_id
_symmetry_equiv_pos_as_xyz
1 x,y,z
2 1/2+x,1/2-y,-z
3 -x,1/2+y,1/2-z
4 1/2-x,-y,1/2+z
_cell_length_a 14.270(2)
_cell_length_b 18.743(2)
_cell_length_c 10.309(1)
_cell_angle_alpha 90
_cell_angle_beta 90
_cell_angle_gamma 90
_cell_formula_units_Z 4
loop_
_atom_type_symbol
_atom_type_radius_bond
C 0.68
H 0.23
N 0.68
O 0.68
loop_
_atom_site_label
_atom_site_type_symbol
_atom_site_fract_x
_atom_site_fract_y
_atom_site_fract_z
C1 C -0.07000 0.49650 0.25620
C2 C 0.02100 0.45540 0.25030
C3 C 0.02330 0.38190 0.27080
C4 C -0.06670 0.34090 0.29900
C5 C -0.05500 0.28680 0.41140
C6 C -0.03080 0.32240 0.53930
C7 C -0.01990 0.26530 0.65130
C8 C -0.00730 0.29920 0.78360
C9 C 0.02060 0.24400 0.88610
C10 C 0.10960 0.34360 0.24560
C11 C 0.18540 0.22920 0.20020
C12 C -0.09790 0.30250 0.17160
C13 C -0.15230 0.17990 0.40380
C14 C -0.24450 0.14980 0.44230
C15 C -0.08210 0.44040 0.60180
C16 C -0.16470 0.48200 0.64530
C17 C 0.05510 0.15360 0.60460
C18 C 0.14360 0.12090 0.54130
C19 C 0.05120 0.41040 0.86020
C20 C 0.13170 0.46340 0.84820
C21 C -0.04860 0.14040 0.97720
C22 C -0.13710 0.09550 0.98090
O1 O 0.10020 0.27190 0.23180
O2 O 0.18850 0.37270 0.23020
O3 O -0.25240 0.34910 0.18800
O4 O -0.23950 0.23690 0.14570
O5 O -0.14610 0.25150 0.42890
O6 O -0.08720 0.14760 0.35640
O7 O -0.10660 0.37050 0.57830
O8 O -0.00540 0.46230 0.58620
O9 O 0.06230 0.22600 0.61110
O10 O -0.01080 0.12480 0.64570
O11 O 0.06500 0.35370 0.78100
O12 O -0.01870 0.41630 0.92660
O13 O -0.06050 0.20000 0.90320
O14 O 0.02320 0.12710 1.02910
N1 N 0.09970 0.49360 0.22600
N2 N -0.20620 0.29540 0.16830
H1 H -0.11500 0.38300 0.32500
H2 H 0.00400 0.24700 0.38700
H3 H 0.03100 0.35500 0.53100
H4 H -0.07800 0.22900 0.65200
H5 H -0.06900 0.32800 0.81300
H6 H 0.04400 0.26800 0.97600
H7 H 0.08200 0.21400 0.86000
H8 H 0.17600 0.47300 0.21900
H9 H 0.09800 0.55000 0.21000
H10 H 0.23600 0.23800 0.27700
H11 H 0.21300 0.25000 0.11000
H12 H 0.17800 0.17200 0.18900
H13 H -0.06400 0.25100 0.16100
H14 H -0.07200 0.32900 0.08600
H15 H -0.22800 0.10800 0.51100
H16 H -0.27200 0.12600 0.35500
H17 H -0.30300 0.17900 0.48500
H18 H -0.17200 0.52400 0.57500
H19 H -0.14500 0.50400 0.73800
H20 H -0.23500 0.46200 0.66000
H21 H 0.11700 0.09000 0.46000
H22 H 0.17100 0.08500 0.61400
H23 H 0.20500 0.14800 0.50300
H24 H 0.15800 0.47000 0.94600
H25 H 0.09900 0.51200 0.81600
H26 H 0.19400 0.45800 0.78900
H27 H -0.15400 0.09100 1.08300
H28 H -0.11700 0.04400 0.94300
H29 H -0.20300 0.10800 0.93400
#END
