
#######################################################################
#
#                 Cambridge Crystallographic Data Centre
#                                CCDC
#
#######################################################################
#
# If this CIF has been generated from an entry in the Cambridge
# Structural Database, then it will include bibliographic, chemical,
# crystal, experimental, refinement or atomic coordinate data resulting
# from the CCDC's data processing and validation procedures.
#
#######################################################################

data_CSD_CIF_BANDEB
_audit_creation_date 2012-04-10
_audit_creation_method CSD-ConQuest-V1
_database_code_CSD BANDEB
_database_code_depnum_ccdc_archive 'CCDC 835935'
_chemical_formula_sum 'C23 H26 N2 O7'
_chemical_formula_moiety
;
C23 H26 N2 O7
;
_journal_coden_Cambridge 1336
_journal_volume 13
_journal_year 2011
_journal_page_first 6460
_journal_name_full 'Org.Lett. '
loop_
_publ_author_name
"P.G.McGarraugh"
"S.E.Brenner-Moyer"
_chemical_name_systematic
;
2-(6-Methyltetrahydro-2H-pyran-2-yl)-4-nitro-3-phenylbutyl 4-nitrobenzoate
;
_cell_volume   2279.315
_exptl_crystal_colour 'colorless'
_exptl_crystal_density_diffrn 1.289
_exptl_crystal_description 'block'
_diffrn_ambient_temperature 223
#These two values have been output from a single CSD field.
_refine_ls_R_factor_gt 0.0736
_refine_ls_wR_factor_gt 0.0736
_symmetry_cell_setting monoclinic
_symmetry_space_group_name_H-M 'P 21/c'
_symmetry_Int_Tables_number 14
loop_
_symmetry_equiv_pos_site_id
_symmetry_equiv_pos_as_xyz
1 x,y,z
2 -x,1/2+y,1/2-z
3 -x,-y,-z
4 x,-1/2-y,-1/2+z
_cell_length_a 16.582(2)
_cell_length_b 9.8096(14)
_cell_length_c 14.674(2)
_cell_angle_alpha 90
_cell_angle_beta 107.269(4)
_cell_angle_gamma 90
_cell_formula_units_Z 4
loop_
_atom_type_symbol
_atom_type_radius_bond
C 0.68
H 0.23
N 0.68
O 0.68
loop_
_atom_site_label
_atom_site_type_symbol
_atom_site_fract_x
_atom_site_fract_y
_atom_site_fract_z
O1 O 0.32333(10) 0.15762(19) 0.62428(12)
O2 O 0.12205(14) 0.3714(2) 0.34967(13)
O3 O 0.01427(14) 0.4792(2) 0.36738(14)
O4 O 0.06585(10) 0.15095(17) 0.63413(11)
O5 O 0.03351(12) -0.07219(19) 0.62140(14)
O6 O -0.32057(15) 0.3186(3) 0.68144(18)
O7 O -0.35518(16) 0.1054(4) 0.6716(2)
N1 N 0.07398(16) 0.4003(2) 0.39568(15)
N2 N -0.30603(18) 0.1981(4) 0.67105(18)
C1 C 0.4345(2) 0.0736(4) 0.5695(3)
C2 C 0.41416(17) 0.1507(4) 0.6499(2)
C3 C 0.44949(19) 0.0860(4) 0.7477(2)
C4 C 0.41997(19) 0.1635(4) 0.8223(2)
C5 C 0.32305(17) 0.1765(3) 0.78907(18)
C6 C 0.29411(16) 0.2396(3) 0.68946(17)
C7 C 0.19883(15) 0.2568(3) 0.64475(16)
C8 C 0.18182(15) 0.3321(3) 0.54730(16)
C9 C 0.08766(15) 0.3350(3) 0.49177(16)
C10 C 0.21818(17) 0.4760(3) 0.55867(17)
C11 C 0.1781(2) 0.5830(3) 0.58959(18)
C12 C 0.2102(3) 0.7139(3) 0.5994(2)
C13 C 0.2842(3) 0.7402(4) 0.5804(3)
C14 C 0.3266(2) 0.6380(5) 0.5504(2)
C15 C 0.29267(19) 0.5033(4) 0.5377(2)
C16 C 0.15204(15) 0.1210(3) 0.63474(18)
C17 C 0.01446(16) 0.0441(3) 0.63143(17)
C18 C -0.06876(16) 0.0880(3) 0.64195(16)
C19 C -0.08512(17) 0.2222(3) 0.65999(19)
C20 C -0.16264(19) 0.2598(3) 0.6694(2)
C21 C -0.22246(17) 0.1611(3) 0.66112(18)
C22 C -0.20816(18) 0.0264(3) 0.6445(2)
C23 C -0.13051(18) -0.0094(3) 0.63548(19)
H1 H 0.41060 0.12170 0.50980
H2 H 0.41070 -0.01730 0.56470
H3 H 0.49530 0.06730 0.58270
H4 H 0.43670 0.24450 0.65220
H5 H 0.51130 0.08660 0.76590
H6 H 0.43080 -0.00910 0.74530
H7 H 0.44560 0.25440 0.83180
H8 H 0.43800 0.11480 0.88340
H9 H 0.29740 0.08630 0.78790
H10 H 0.30470 0.23390 0.83390
H11 H 0.32050 0.33070 0.69300
H12 H 0.17780 0.31560 0.68760
H13 H 0.21090 0.28000 0.50850
H14 H 0.06550 0.24170 0.48340
H15 H 0.05680 0.38620 0.52810
H16 H 0.12760 0.56580 0.60430
H17 H 0.18110 0.78470 0.61920
H18 H 0.30640 0.82910 0.58790
H19 H 0.37800 0.65660 0.53810
H20 H 0.32070 0.43350 0.51530
H21 H 0.15210 0.07560 0.57530
H22 H 0.17950 0.06080 0.68830
H23 H -0.04300 0.28860 0.66590
H24 H -0.17390 0.35100 0.68110
H25 H -0.25040 -0.03960 0.63950
H26 H -0.11940 -0.10100 0.62480
#END
