
#######################################################################
#
#                 Cambridge Crystallographic Data Centre
#                                CCDC
#
#######################################################################
#
# If this CIF has been generated from an entry in the Cambridge
# Structural Database, then it will include bibliographic, chemical,
# crystal, experimental, refinement or atomic coordinate data resulting
# from the CCDC's data processing and validation procedures.
#
#######################################################################

data_CSD_CIF_BANFIG
_audit_creation_date 2003-03-06
_audit_creation_method CSD-ConQuest-V1
_database_code_CSD BANFIG
_database_code_depnum_ccdc_archive 'CCDC 167509'
_chemical_formula_sum 'C7 H7 N3 O3'
_chemical_formula_moiety
;
C7 H7 N3 O3
;
_journal_coden_Cambridge 119
_journal_volume 596
_journal_year 2001
_journal_page_first 17
_journal_name_full 'J.Mol.Struct. '
loop_
_publ_author_name
"H.Ratajczak"
"J.Baran"
"A.J.Barnes"
"J.Barycki"
"S.Debrus"
"Z.Latajka"
"M.May"
"A.Pietraszko"
_chemical_name_systematic
;
3-Nitrobenzoic acid hydrazide
;
_cell_volume    793.927
_exptl_crystal_density_diffrn 1.516
_exptl_crystal_preparation 'water'
_diffrn_ambient_temperature 293
#These two values have been output from a single CSD field.
_refine_ls_R_factor_gt 0.0449
_refine_ls_wR_factor_gt 0.0449
_symmetry_cell_setting orthorhombic
_symmetry_space_group_name_H-M 'P 21 21 21'
_symmetry_Int_Tables_number 19
loop_
_symmetry_equiv_pos_site_id
_symmetry_equiv_pos_as_xyz
1 x,y,z
2 1/2-x,-y,1/2+z
3 -x,1/2+y,1/2-z
4 1/2+x,1/2-y,-z
_cell_length_a 3.889(1)
_cell_length_b 7.137(1)
_cell_length_c 28.604(6)
_cell_angle_alpha 90
_cell_angle_beta 90
_cell_angle_gamma 90
_cell_formula_units_Z 4
loop_
_atom_type_symbol
_atom_type_radius_bond
C 0.68
H 0.23
N 0.68
O 0.68
loop_
_atom_site_label
_atom_site_type_symbol
_atom_site_fract_x
_atom_site_fract_y
_atom_site_fract_z
O1 O 0.4095(3) 0.04553(12) 0.13835(3)
O2 O 0.4602(3) 0.12584(14) 0.21026(3)
N1 N 0.3656(3) 0.15606(14) 0.17019(3)
C1 C -0.0835(3) 0.52947(15) 0.10406(3)
C2 C -0.1006(3) 0.66978(16) 0.13771(4)
C3 C 0.0377(3) 0.63920(18) 0.18217(4)
C4 C 0.1831(3) 0.46899(18) 0.19371(4)
C5 C 0.1970(3) 0.33593(16) 0.15955(4)
C6 C 0.0719(3) 0.35948(15) 0.11461(4)
C7 C -0.2389(3) 0.57168(15) 0.05710(3)
O3 O -0.3777(2) 0.72411(10) 0.04912(2)
N2 N -0.2257(2) 0.43535(12) 0.02475(3)
N3 N -0.3855(2) 0.45977(12) -0.01950(3)
H1 H -0.20150 0.80800 0.12610
H2 H -0.00950 0.73110 0.20700
H3 H 0.28620 0.44540 0.23030
H4 H 0.08170 0.25370 0.08760
H5 H -0.11420 0.30140 0.03060
H6 H -0.23010 0.54130 -0.04060
H7 H -0.63390 0.50780 -0.01880
#END
