
#######################################################################
#
#                 Cambridge Crystallographic Data Centre
#                                CCDC
#
#######################################################################
#
# If this CIF has been generated from an entry in the Cambridge
# Structural Database, then it will include bibliographic, chemical,
# crystal, experimental, refinement or atomic coordinate data resulting
# from the CCDC's data processing and validation procedures.
#
#######################################################################

data_CSD_CIF_BANHOO
_audit_creation_date 2003-03-06
_audit_creation_method CSD-ConQuest-V1
_database_code_CSD BANHOO
_database_code_depnum_ccdc_archive 'CCDC 202489'
_chemical_formula_sum 'C16 H12 N2 O3'
_chemical_formula_moiety
;
C16 H12 N2 O3
;
_journal_coden_Cambridge 1147
_journal_volume 2
_journal_year 2002
_journal_page_first 609
_journal_name_full 'Cryst.Growth Des. '
loop_
_publ_author_name
"R.M.Vrcelj"
"E.E.A.Shepherd"
"Choon-Sup Yoon"
"J.N.Sherwood"
"A.R.Kennedy"
_chemical_name_systematic
;
trans-\a-((4-Methoxyphenyl)methylene)-4-nitrobenzeneacetonitrile
;
_chemical_melting_point 437.65
_cell_volume   1326.897
_exptl_crystal_colour 'yellow'
_exptl_crystal_density_diffrn 1.403
_exptl_special_details
;
deep yellow (most stable) P21/n polymorph I

;
_exptl_crystal_description 'needle'
_diffrn_ambient_temperature 123
#These two values have been output from a single CSD field.
_refine_ls_R_factor_gt 0.065
_refine_ls_wR_factor_gt 0.065
loop_
_citation_database_id_CSD
_citation_special_details
BANJEG "is a stereoisomer of this entry"
_symmetry_cell_setting monoclinic
_symmetry_space_group_name_H-M 'P 21/n'
_symmetry_Int_Tables_number 14
loop_
_symmetry_equiv_pos_site_id
_symmetry_equiv_pos_as_xyz
1 x,y,z
2 1/2+x,1/2-y,1/2+z
3 -x,-y,-z
4 -1/2-x,-1/2+y,-1/2-z
_cell_length_a 3.814(1)
_cell_length_b 12.371(3)
_cell_length_c 28.132(5)
_cell_angle_alpha 90
_cell_angle_beta 91.50(2)
_cell_angle_gamma 90
_cell_formula_units_Z 4
loop_
_atom_type_symbol
_atom_type_radius_bond
C 0.68
H 0.23
N 0.68
O 0.68
loop_
_atom_site_label
_atom_site_type_symbol
_atom_site_fract_x
_atom_site_fract_y
_atom_site_fract_z
O1 O 0.3839(5) 0.3719(1) 0.29084(6)
O2 O 0.1837(5) 0.4818(1) 0.23703(5)
O3 O 1.1605(4) 1.3543(1) 0.41817(5)
N1 N 0.3438(5) 0.4634(1) 0.27479(6)
N2 N 1.2435(5) 0.7802(2) 0.45555(7)
C1 C 1.3272(6) 1.3806(2) 0.46293(8)
C2 C 0.4919(6) 0.5551(2) 0.30124(7)
C3 C 0.6246(6) 0.5395(2) 0.34686(7)
C4 C 0.7591(6) 0.6282(2) 0.37134(7)
C5 C 0.7624(5) 0.7310(2) 0.35088(7)
C6 C 0.6308(6) 0.7420(2) 0.30415(7)
C7 C 0.4917(6) 0.6553(2) 0.27952(7)
C8 C 0.8990(5) 0.8266(2) 0.37771(7)
C9 C 1.0900(5) 0.8028(2) 0.42156(7)
C10 C 0.8401(6) 0.9289(2) 0.36270(7)
C11 C 0.9383(5) 1.0344(2) 0.38127(7)
C12 C 1.1126(6) 1.0570(2) 0.42479(7)
C13 C 1.1908(6) 1.1623(2) 0.43845(7)
C14 C 1.0970(6) 1.2471(2) 0.40852(8)
C15 C 0.9221(6) 1.2274(2) 0.36527(7)
C16 C 0.8442(5) 1.1231(2) 0.35249(7)
H1 H 0.62370 0.46990 0.36110
H2 H 0.85130 0.61880 0.40280
H3 H 0.63780 0.81080 0.28920
H4 H 0.39730 0.66420 0.24820
H5 H 0.70580 0.93260 0.33380
H6 H 1.17820 0.99890 0.44530
H7 H 1.30760 1.17620 0.46810
H8 H 0.85750 1.28570 0.34490
H9 H 0.72230 1.11030 0.32310
H10 H 1.18460 1.35670 0.48800
H11 H 1.54910 1.34590 0.46530
H12 H 1.35830 1.45660 0.46510
#END
