
#######################################################################
#
#                 Cambridge Crystallographic Data Centre
#                                CCDC
#
#######################################################################
#
# If this CIF has been generated from an entry in the Cambridge
# Structural Database, then it will include bibliographic, chemical,
# crystal, experimental, refinement or atomic coordinate data resulting
# from the CCDC's data processing and validation procedures.
#
#######################################################################

data_CSD_CIF_BANMOS
_audit_creation_date 1982-05-11
_audit_creation_method CSD-ConQuest-V1
_database_code_CSD BANMOS
_chemical_formula_sum 'C17 H19 N5 O2'
_chemical_formula_moiety
;
C17 H19 N5 O2
;
_journal_coden_Cambridge 24
_journal_volume 22
_journal_year 1981
_journal_page_first 4037
_journal_name_full 'Tetrahedron Lett. '
loop_
_publ_author_name
"E.Dijkstra"
"A.T.Hutton"
"H.M.N.H.Irving"
"L.R.Nassimbeni"
_chemical_name_systematic
;
3-Nitro-1,5-di(2,6-dimethylphenyl)-formazan
;
_cell_volume   1654.622
_exptl_crystal_colour 'red'
_exptl_crystal_density_diffrn 1.31
_diffrn_ambient_temperature ?
_diffrn_special_details
;
The study was carried out at room temperature,in the range 283-303K

;
#These two values have been output from a single CSD field.
_refine_ls_R_factor_gt 0.063
_refine_ls_wR_factor_gt 0.063
_symmetry_cell_setting monoclinic
_symmetry_space_group_name_H-M 'P 21/n'
_symmetry_Int_Tables_number 14
loop_
_symmetry_equiv_pos_site_id
_symmetry_equiv_pos_as_xyz
1 x,y,z
2 1/2-x,1/2+y,1/2-z
3 -x,-y,-z
4 -1/2+x,-1/2-y,-1/2+z
_cell_length_a 16.419(8)
_cell_length_b 7.497(4)
_cell_length_c 13.443(6)
_cell_angle_alpha 90
_cell_angle_beta 90.69(5)
_cell_angle_gamma 90
_cell_formula_units_Z 4
loop_
_atom_type_symbol
_atom_type_radius_bond
C 0.68
N 0.68
O 0.68
loop_
_atom_site_label
_atom_site_type_symbol
_atom_site_fract_x
_atom_site_fract_y
_atom_site_fract_z
N1 N 0.19220 0.61020 0.68600
N2 N 0.12410 0.67310 0.65070
N3 N 0.03340 0.74430 0.52190
N4 N 0.15860 0.62690 0.47360
N5 N 0.23140 0.56530 0.49160
O1 O 0.00640 0.69950 0.43960
O2 O -0.00220 0.84110 0.58070
C1 C 0.11490 0.67510 0.55110
C2 C 0.19960 0.60420 0.79140
C3 C 0.13180 0.59320 0.85460
C4 C 0.14710 0.59280 0.95640
C5 C 0.22500 0.59840 0.99430
C6 C 0.29130 0.60370 0.93210
C7 C 0.27970 0.60420 0.82960
C8 C 0.04450 0.57060 0.81850
C9 C 0.35200 0.61350 0.76310
C10 C 0.27810 0.51190 0.40700
C11 C 0.24120 0.43680 0.32240
C12 C 0.29390 0.38500 0.24580
C13 C 0.37680 0.40890 0.25190
C14 C 0.41080 0.48320 0.33650
C15 C 0.36190 0.53730 0.41550
C16 C 0.15230 0.39810 0.31060
C17 C 0.39980 0.61920 0.50670
#END
