
#######################################################################
#
#                 Cambridge Crystallographic Data Centre
#                                CCDC
#
#######################################################################
#
# If this CIF has been generated from an entry in the Cambridge
# Structural Database, then it will include bibliographic, chemical,
# crystal, experimental, refinement or atomic coordinate data resulting
# from the CCDC's data processing and validation procedures.
#
#######################################################################

data_CSD_CIF_BANWUJ
_audit_creation_date 2003-09-24
_audit_creation_method CSD-ConQuest-V1
_database_code_CSD BANWUJ
_database_code_depnum_ccdc_archive 'CCDC 149616'
_chemical_formula_sum 'C17 H23 N2 O6'
_chemical_formula_moiety
;
C17 H23 N2 O6
;
_journal_coden_Cambridge 214
_journal_volume 132
_journal_year 2001
_journal_page_first 71
_journal_name_full 'Monatsh.Chem. '
loop_
_publ_author_name
"M.Minguet"
"D.B.Amabilino"
"K.Wurst"
"J.Veciana"
_chemical_name_systematic
;
(R)-Methyl 
2-(3-(4,4,5,5-tetramethyl-4,5-dihydro-1H-imidazolyl-1-oxy-3-oxide)-4-hydroxyph
enoxy)propionate
;
_chemical_melting_point 387.15
_cell_volume   1777.594
_exptl_crystal_colour 'black'
_exptl_crystal_density_diffrn 1.313
_exptl_crystal_description 'small needles'
_exptl_crystal_preparation 'dichloromethane/hexane'
_diffrn_ambient_temperature 218
#These two values have been output from a single CSD field.
_refine_ls_R_factor_gt 0.0401
_refine_ls_wR_factor_gt 0.0401
_symmetry_cell_setting orthorhombic
_symmetry_space_group_name_H-M 'P 21 21 21'
_symmetry_Int_Tables_number 19
loop_
_symmetry_equiv_pos_site_id
_symmetry_equiv_pos_as_xyz
1 x,y,z
2 1/2-x,-y,1/2+z
3 -x,1/2+y,1/2-z
4 1/2+x,1/2-y,-z
_cell_length_a 6.3348(4)
_cell_length_b 12.342(1)
_cell_length_c 22.736(2)
_cell_angle_alpha 90
_cell_angle_beta 90
_cell_angle_gamma 90
_cell_formula_units_Z 4
loop_
_atom_type_symbol
_atom_type_radius_bond
C 0.68
H 0.23
N 0.68
O 0.68
loop_
_atom_site_label
_atom_site_type_symbol
_atom_site_fract_x
_atom_site_fract_y
_atom_site_fract_z
O1 O 0.8979(4) 0.8532(2) 0.76509(13)
O2 O 0.4845(4) 1.0937(2) 0.86909(13)
O3 O 0.6954(6) 0.4305(3) 0.8889(2)
O4 O 0.5850(5) 0.3968(2) 0.97960(13)
O5 O 0.8618(4) 0.6262(2) 0.92874(11)
O6 O 0.2430(4) 0.9257(3) 0.87432(13)
H1 H 0.313(8) 0.9852(45) 0.8698(22)
N1 N 0.8168(5) 0.9411(2) 0.78349(13)
N2 N 0.6185(5) 1.0550(3) 0.83131(14)
C1 C 0.6748(5) 0.9509(3) 0.8274(2)
C2 C 0.8458(5) 1.0454(3) 0.7502(2)
C3 C 0.7560(6) 1.1282(3) 0.7951(2)
C4 C 0.6033(6) 0.8613(3) 0.86506(15)
C5 C 0.7523(5) 0.7829(3) 0.88023(15)
H2 H 0.89080 0.78880 0.86580
C6 C 0.6994(6) 0.6972(3) 0.9161(2)
C7 C 0.4937(6) 0.6868(3) 0.9360(2)
H3 H 0.45500 0.62710 0.95930
C8 C 0.3457(5) 0.7646(3) 0.9215(2)
H4 H 0.20700 0.75750 0.93570
C9 C 0.3968(6) 0.8531(3) 0.8864(2)
C10 C 0.8236(5) 0.5406(3) 0.9689(2)
H5 H 0.74740 0.56860 1.00380
C11 C 0.6957(6) 0.4518(3) 0.9401(2)
C12 C 1.0367(6) 0.4990(3) 0.9870(2)
H6 H 1.0195(6) 0.4415(16) 1.0157(9)
H7 H 1.1181(17) 0.5575(6) 1.0042(11)
H8 H 1.1102(18) 0.471(2) 0.9528(3)
C13 C 0.4680(7) 0.3051(3) 0.9573(3)
H9 H 0.3828(42) 0.2744(17) 0.9886(4)
H10 H 0.5657(7) 0.2507(12) 0.9428(14)
H11 H 0.3769(40) 0.3285(6) 0.9254(10)
C14 C 0.7168(7) 1.0335(4) 0.6940(2)
H12 H 0.7342(39) 1.0977(12) 0.6699(6)
H13 H 0.5689(9) 1.0246(24) 0.7039(2)
H14 H 0.7652(32) 0.9705(15) 0.6723(7)
C15 C 1.0786(6) 1.0611(3) 0.7351(2)
H15 H 1.0984(9) 1.1315(9) 0.7171(11)
H16 H 1.1230(12) 1.0049(13) 0.7079(9)
H17 H 1.1623(7) 1.0566(21) 0.7708(2)
C16 C 0.6254(6) 1.2201(3) 0.7690(2)
H18 H 0.7153(11) 1.2656(12) 0.7448(9)
H19 H 0.5647(33) 1.2630(13) 0.8005(2)
H20 H 0.5132(26) 1.1900(3) 0.7450(9)
C17 C 0.9181(6) 1.1736(3) 0.8378(2)
H21 H 0.9970(26) 1.1144(3) 0.8553(8)
H22 H 0.8467(7) 1.2141(16) 0.8685(6)
H23 H 1.0142(24) 1.2211(16) 0.8169(3)
#END
