
#######################################################################
#
#                 Cambridge Crystallographic Data Centre
#                                CCDC
#
#######################################################################
#
# If this CIF has been generated from an entry in the Cambridge
# Structural Database, then it will include bibliographic, chemical,
# crystal, experimental, refinement or atomic coordinate data resulting
# from the CCDC's data processing and validation procedures.
#
#######################################################################

data_CSD_CIF_BAPHAD
_audit_creation_date 2012-02-24
_audit_creation_method CSD-ConQuest-V1
_database_code_CSD BAPHAD
_database_code_depnum_ccdc_archive 'CCDC 831712'
_chemical_formula_sum 'C15 H14 N2 O2'
_chemical_formula_moiety
;
C15 H14 N2 O2
;
_journal_coden_Cambridge 177
_journal_volume 10
_journal_year 2012
_journal_page_first 431
_journal_name_full 'Org.Biomol.Chem. '
loop_
_publ_author_name
"X.Companyo"
"G.Valero"
"O.Pineda"
"T.Calvet"
"M.Font-Bardia"
"A.Moyano"
"R.Rios"
_chemical_name_systematic
;
3-(Hydroxy(phenyl)amino)-3-methyl-1,3-dihydro-2H-indol-2-one
;
_cell_volume   1368.796
_exptl_crystal_colour 'colorless'
_exptl_crystal_density_diffrn 1.234
_exptl_crystal_description 'prism'
_diffrn_ambient_temperature 105
#These two values have been output from a single CSD field.
_refine_ls_R_factor_gt 0.0571
_refine_ls_wR_factor_gt 0.0571
loop_
_citation_database_id_CSD
_citation_special_details
BAPHEH "is a racemate of this entry"
_symmetry_cell_setting orthorhombic
_symmetry_space_group_name_H-M 'P 21 21 21'
_symmetry_Int_Tables_number 19
loop_
_symmetry_equiv_pos_site_id
_symmetry_equiv_pos_as_xyz
1 x,y,z
2 1/2-x,-y,1/2+z
3 1/2+x,1/2-y,-z
4 -x,1/2+y,1/2-z
_cell_length_a 10.021(7)
_cell_length_b 12.749(6)
_cell_length_c 10.714(6)
_cell_angle_alpha 90
_cell_angle_beta 90
_cell_angle_gamma 90
_cell_formula_units_Z 4
loop_
_atom_type_symbol
_atom_type_radius_bond
C 0.68
H 0.23
N 0.68
O 0.68
loop_
_atom_site_label
_atom_site_type_symbol
_atom_site_fract_x
_atom_site_fract_y
_atom_site_fract_z
O1 O -0.33198(12) 0.11547(11) 0.15763(14)
H1 H -0.4046(16) 0.129(2) 0.123(2)
O2 O -0.06350(13) 0.32381(11) -0.03919(14)
N1 N -0.23176(14) 0.15379(12) 0.07278(15)
N2 N 0.08251(15) 0.24560(12) 0.09939(16)
H2 H 0.15610 0.26290 0.06360
C1 C -0.09292(18) 0.07336(16) -0.08877(19)
H3 H -0.09950 0.13560 -0.13350
C2 C -0.0175(2) -0.00967(17) -0.1360(2)
H4 H 0.02880 -0.00190 -0.21070
C3 C -0.0117(2) -0.10372(18) -0.0715(2)
H5 H 0.03610 -0.15990 -0.10410
C4 C -0.0769(2) -0.11368(19) 0.0408(2)
H6 H -0.07110 -0.17660 0.08440
C5 C -0.1517(2) -0.03100(16) 0.0909(2)
H7 H -0.19620 -0.03880 0.16650
C6 C -0.15844(17) 0.06322(14) 0.02525(18)
C7 C -0.14519(17) 0.22744(15) 0.14621(18)
C8 C -0.2304(2) 0.31675(18) 0.1987(2)
H8 H -0.28230 0.34730 0.13280
H9 H -0.17330 0.36930 0.23440
H10 H -0.28890 0.28970 0.26190
C9 C -0.04085(17) 0.27239(14) 0.05615(19)
C10 C 0.07421(16) 0.18568(15) 0.21077(18)
C11 C 0.17694(19) 0.14382(17) 0.2795(2)
H11 H 0.26520 0.15100 0.25420
C12 C 0.1438(2) 0.08991(18) 0.3891(2)
C13 C 0.0105(2) 0.07935(17) 0.4260(2)
C14 C -0.0924(2) 0.12189(17) 0.3543(2)
C15 C -0.05936(18) 0.17420(15) 0.24461(17)
H12 H -0.188(3) 0.114(2) 0.378(2)
H13 H 0.209(2) 0.046(2) 0.444(3)
H14 H -0.012(2) 0.0438(18) 0.504(2)
#END
