
#######################################################################
#
#                 Cambridge Crystallographic Data Centre
#                                CCDC
#
#######################################################################
#
# If this CIF has been generated from an entry in the Cambridge
# Structural Database, then it will include bibliographic, chemical,
# crystal, experimental, refinement or atomic coordinate data resulting
# from the CCDC's data processing and validation procedures.
#
#######################################################################

data_CSD_CIF_BAPXIB
_audit_creation_date 2012-02-16
_audit_creation_method CSD-ConQuest-V1
_database_code_CSD BAPXIB
_database_code_depnum_ccdc_archive 'CCDC 836895'
_chemical_formula_sum 'C14 H16 N2 O7'
_chemical_formula_moiety
;
C14 H16 N2 O7
;
_journal_coden_Cambridge 1291
_journal_year 2011
_journal_page_first 6567
_journal_name_full 'Eur.J.Org.Chem. '
loop_
_publ_author_name
"P.Merino"
"T.Tejero"
"A.Diez-Martinez"
"Z.Gultekin"
_chemical_name_systematic
;
(2S*,4S*,5R*)-dimethyl 
1-hydroxy-5-(4-nitrophenyl)pyrrolidine-2,4-dicarboxylate
;
_chemical_melting_point 407
_cell_volume   1460.321
_exptl_crystal_colour 'colorless'
_exptl_crystal_density_diffrn 1.475
_exptl_crystal_description 'block'
_diffrn_ambient_temperature 293
#These two values have been output from a single CSD field.
_refine_ls_R_factor_gt 0.0428
_refine_ls_wR_factor_gt 0.0428
_symmetry_cell_setting monoclinic
_symmetry_space_group_name_H-M 'P 21/n'
_symmetry_Int_Tables_number 14
loop_
_symmetry_equiv_pos_site_id
_symmetry_equiv_pos_as_xyz
1 x,y,z
2 1/2-x,1/2+y,1/2-z
3 -x,-y,-z
4 -1/2+x,-1/2-y,-1/2+z
_cell_length_a 7.766
_cell_length_b 20.926
_cell_length_c 9.1
_cell_angle_alpha 90
_cell_angle_beta 99.08
_cell_angle_gamma 90
_cell_formula_units_Z 4
loop_
_atom_type_symbol
_atom_type_radius_bond
C 0.68
H 0.23
N 0.68
O 0.68
loop_
_atom_site_label
_atom_site_type_symbol
_atom_site_fract_x
_atom_site_fract_y
_atom_site_fract_z
O1 O 0.02316(17) 0.17202(6) 0.91254(14)
H1 H 0.01140 0.18050 0.99830
O2 O 0.36477(19) 0.06356(6) 1.04462(15)
O3 O 0.17689(17) 0.01409(6) 0.87034(14)
O4 O 0.63265(18) 0.23843(6) 0.93072(15)
O5 O 0.56188(17) 0.30562(6) 0.73912(14)
O6 O 0.1762(2) 0.52361(6) 0.96193(16)
O7 O 0.2769(3) 0.48544(7) 1.17506(19)
N1 N 0.20454(19) 0.17691(7) 0.89743(16)
N2 N 0.2240(2) 0.47898(8) 1.0442(2)
C1 C 0.2502(3) 0.11945(8) 0.8204(2)
H2 H 0.16090 0.11010 0.73440
C2 C 0.4187(2) 0.14055(8) 0.7701(2)
H3 H 0.43740 0.11740 0.68170
H4 H 0.51740 0.13330 0.84790
C3 C 0.3945(2) 0.21224(8) 0.7369(2)
H5 H 0.38190 0.21940 0.62930
C4 C 0.2205(2) 0.22890(8) 0.7925(2)
H6 H 0.12500 0.22530 0.70860
C5 C 0.2725(3) 0.06362(9) 0.9262(2)
C6 C 0.5434(3) 0.25122(9) 0.8145(2)
C7 C 0.1879(3) -0.04199(8) 0.9641(2)
H7 H 0.11510 -0.07510 0.91470
H8 H 0.14940 -0.03150 1.05640
H9 H 0.30650 -0.05660 0.98360
C8 C 0.6868(3) 0.35116(9) 0.8148(2)
H10 H 0.69060 0.38820 0.75330
H11 H 0.80030 0.33180 0.83370
H12 H 0.65210 0.36350 0.90750
C9 C 0.2114(2) 0.29360(8) 0.8626(2)
C10 C 0.2764(2) 0.30370(9) 1.0116(2)
H13 H 0.31840 0.26920 1.07120
C11 C 0.2797(2) 0.36406(9) 1.0729(2)
H14 H 0.32440 0.37080 1.17270
C12 C 0.2151(3) 0.41394(8) 0.9824(2)
C13 C 0.1430(3) 0.40545(9) 0.8359(2)
H15 H 0.09650 0.43980 0.77800
C14 C 0.1413(2) 0.34479(9) 0.7766(2)
H16 H 0.09250 0.33810 0.67780
#END
