
#######################################################################
#
#                 Cambridge Crystallographic Data Centre
#                                CCDC
#
#######################################################################
#
# If this CIF has been generated from an entry in the Cambridge
# Structural Database, then it will include bibliographic, chemical,
# crystal, experimental, refinement or atomic coordinate data resulting
# from the CCDC's data processing and validation procedures.
#
#######################################################################

data_CSD_CIF_BAPXEX
_audit_creation_date 2012-02-16
_audit_creation_method CSD-ConQuest-V1
_database_code_CSD BAPXEX
_database_code_depnum_ccdc_archive 'CCDC 836894'
_chemical_formula_sum 'C15 H19 N1 O5'
_chemical_formula_moiety
;
C15 H19 N1 O5
;
_journal_coden_Cambridge 1291
_journal_year 2011
_journal_page_first 6567
_journal_name_full 'Eur.J.Org.Chem. '
loop_
_publ_author_name
"P.Merino"
"T.Tejero"
"A.Diez-Martinez"
"Z.Gultekin"
_chemical_name_systematic
;
(2S*,4S*,5R*)-dimethyl 1-hydroxy-5-p-tolylpyrrolidine-2,4-dicarboxylate
;
_chemical_melting_point 401
_cell_volume   1447.827
_exptl_crystal_colour 'colorless'
_exptl_crystal_density_diffrn 2.018
_exptl_special_details
;
We calculate 54.15% void space in the structure

;
_exptl_crystal_description 'plate'
_diffrn_ambient_temperature 150
#These two values have been output from a single CSD field.
_refine_ls_R_factor_gt 0.0482
_refine_ls_wR_factor_gt 0.0482
_symmetry_cell_setting monoclinic
_symmetry_space_group_name_H-M 'P 21/n'
_symmetry_Int_Tables_number 14
loop_
_symmetry_equiv_pos_site_id
_symmetry_equiv_pos_as_xyz
1 x,y,z
2 1/2-x,1/2+y,1/2-z
3 -x,-y,-z
4 -1/2+x,-1/2-y,-1/2+z
_cell_length_a 7.8659(4)
_cell_length_b 20.9012(9)
_cell_length_c 8.8850(4)
_cell_angle_alpha 90
_cell_angle_beta 97.628(5)
_cell_angle_gamma 90
_cell_formula_units_Z 6
loop_
_atom_type_symbol
_atom_type_radius_bond
C 0.68
H 0.23
N 0.68
O 0.68
loop_
_atom_site_label
_atom_site_type_symbol
_atom_site_fract_x
_atom_site_fract_y
_atom_site_fract_z
O1 O -0.46345(18) 0.82716(8) 0.94050(16)
H1 H -0.47430 0.81600 1.02720
O2 O -0.1526(2) 0.94241(8) 1.06006(18)
O3 O -0.3227(2) 0.98830(8) 0.86821(17)
O4 O 0.14316(19) 0.77119(8) 0.94728(17)
O5 O 0.08043(19) 0.69909(7) 0.76255(16)
N1 N -0.2848(2) 0.82411(9) 0.91956(19)
C1 C -0.2489(3) 0.88139(11) 0.8346(2)
H2 H -0.33900 0.88790 0.74860
C2 C -0.0817(3) 0.86273(11) 0.7781(3)
H3 H 0.01560 0.87310 0.85300
H4 H -0.06900 0.88480 0.68410
C3 C -0.0952(3) 0.78994(11) 0.7525(2)
H5 H -0.10540 0.78070 0.64350
C4 C -0.2653(3) 0.7713(1) 0.8138(2)
H6 H -0.35920 0.77380 0.72970
C5 C -0.2714(3) 0.70697(11) 0.8874(2)
C6 C -0.2045(3) 0.69688(11) 1.0381(2)
H7 H -0.16020 0.73120 1.09740
C7 C -0.2032(3) 0.63635(11) 1.1008(2)
H8 H -0.15830 0.63060 1.20210
C8 C -0.2674(3) 0.58408(11) 1.0160(3)
C9 C -0.3393(3) 0.59469(12) 0.8675(3)
H9 H -0.38740 0.56060 0.80930
C10 C -0.3407(3) 0.65523(11) 0.8040(3)
H10 H -0.38910 0.66110 0.70370
C11 C -0.2584(3) 0.51762(11) 1.0833(3)
H11 H -0.30750 0.48760 1.00810
H12 H -0.32110 0.51650 1.16880
H13 H -0.14070 0.50650 1.11560
C12 C -0.2339(3) 0.93949(11) 0.9364(3)
C13 C -0.3168(3) 1.04714(11) 0.9539(3)
H14 H -0.38470 1.07910 0.89610
H15 H -0.20020 1.06160 0.97480
H16 H -0.36150 1.03980 1.04790
C14 C 0.0559(3) 0.75479(12) 0.8336(3)
C15 C 0.2136(3) 0.65825(12) 0.8386(3)
H17 H 0.22160 0.62000 0.78010
H18 H 0.18610 0.64710 0.93740
H19 H 0.32120 0.68050 0.84890
#END
