
#######################################################################
#
#                 Cambridge Crystallographic Data Centre
#                                CCDC
#
#######################################################################
#
# If this CIF has been generated from an entry in the Cambridge
# Structural Database, then it will include bibliographic, chemical,
# crystal, experimental, refinement or atomic coordinate data resulting
# from the CCDC's data processing and validation procedures.
#
#######################################################################

data_CSD_CIF_BAPYIC
_audit_creation_date 2012-02-16
_audit_creation_method CSD-ConQuest-V1
_database_code_CSD BAPYIC
_database_code_depnum_ccdc_archive 'CCDC 826507'
_chemical_formula_sum 'C10 H15 N1 O6'
_chemical_formula_moiety
;
C10 H15 N1 O6
;
_journal_coden_Cambridge 1291
_journal_year 2011
_journal_page_first 6574
_journal_name_full 'Eur.J.Org.Chem. '
loop_
_publ_author_name
"L.F.Tietze"
"S.Dietz"
"N.Bohnke"
"A.Dufert"
"I.Objartel"
"D.Stalke"
_chemical_name_systematic
;
2-Ethoxy-6-methyl-5-nitro-3,4-dihydro-2H-pyran-3-yl acetate
;
_cell_volume   1164.517
_exptl_crystal_colour 'colorless'
_exptl_crystal_density_diffrn 1.399
_exptl_crystal_description 'plate'
_diffrn_ambient_temperature 100
#These two values have been output from a single CSD field.
_refine_ls_R_factor_gt 0.044
_refine_ls_wR_factor_gt 0.044
_symmetry_cell_setting monoclinic
_symmetry_space_group_name_H-M 'P 21/c'
_symmetry_Int_Tables_number 14
loop_
_symmetry_equiv_pos_site_id
_symmetry_equiv_pos_as_xyz
1 x,y,z
2 -x,1/2+y,1/2-z
3 -x,-y,-z
4 x,-1/2-y,-1/2+z
_cell_length_a 11.951(3)
_cell_length_b 9.930(2)
_cell_length_c 10.025(2)
_cell_angle_alpha 90
_cell_angle_beta 101.81(2)
_cell_angle_gamma 90
_cell_formula_units_Z 4
loop_
_atom_type_symbol
_atom_type_radius_bond
C 0.68
H 0.23
N 0.68
O 0.68
loop_
_atom_site_label
_atom_site_type_symbol
_atom_site_fract_x
_atom_site_fract_y
_atom_site_fract_z
O1 O 0.29915(13) 0.16976(14) 0.01190(14)
O2 O 0.24536(13) -0.09180(15) 0.07226(16)
O3 O 0.06998(15) -0.16994(19) 0.0755(2)
O4 O 0.19688(13) 0.24634(14) 0.17281(14)
N1 N 0.54866(16) 0.07774(17) 0.27332(18)
O5 O 0.62430(14) 0.15012(16) 0.24384(16)
O6 O 0.56909(14) -0.00442(16) 0.36865(16)
C1 C 0.4884(2) 0.1979(2) -0.0085(2)
H1 H 0.51030 0.29160 0.01430
H2 H 0.45070 0.19190 -0.10470
H3 H 0.55690 0.14110 0.00820
C2 C 0.40853(19) 0.1511(2) 0.0779(2)
C3 C 0.20750(19) 0.1434(2) 0.0832(2)
H4 H 0.13400 0.13330 0.01540
C4 C 0.1545(2) 0.3709(2) 0.1066(2)
H5 H 0.08690 0.35300 0.03350
H6 H 0.21430 0.41350 0.06540
C5 C 0.1226(2) 0.4624(2) 0.2119(2)
H7 H 0.06540 0.41810 0.25420
H8 H 0.09100 0.54630 0.16850
H9 H 0.19080 0.48250 0.28190
C6 C 0.2318(2) 0.0154(2) 0.1656(2)
H10 H 0.16780 -0.00540 0.21280
C7 C 0.15720(19) -0.1776(2) 0.0348(2)
C8 C 0.1856(2) -0.2837(2) -0.0595(2)
H11 H 0.24040 -0.34750 -0.00770
H12 H 0.21920 -0.24120 -0.13030
H13 H 0.11570 -0.33170 -0.10200
C9 C 0.34405(19) 0.0275(2) 0.2683(2)
H14 H 0.33300 0.08360 0.34620
H15 H 0.37000 -0.06290 0.30340
C10 C 0.43286(18) 0.0905(2) 0.2019(2)
#END
