
#######################################################################
#
#                 Cambridge Crystallographic Data Centre
#                                CCDC
#
#######################################################################
#
# If this CIF has been generated from an entry in the Cambridge
# Structural Database, then it will include bibliographic, chemical,
# crystal, experimental, refinement or atomic coordinate data resulting
# from the CCDC's data processing and validation procedures.
#
#######################################################################

data_CSD_CIF_BAPYEY
_audit_creation_date 2012-02-16
_audit_creation_method CSD-ConQuest-V1
_database_code_CSD BAPYEY
_database_code_depnum_ccdc_archive 'CCDC 836899'
_chemical_formula_sum 'C16 H19 N1 O7'
_chemical_formula_moiety
;
C16 H19 N1 O7
;
_journal_coden_Cambridge 1291
_journal_year 2011
_journal_page_first 6567
_journal_name_full 'Eur.J.Org.Chem. '
loop_
_publ_author_name
"P.Merino"
"T.Tejero"
"A.Diez-Martinez"
"Z.Gultekin"
_chemical_name_systematic
;
(2R*,3S*,4R*,5S*)-trimethyl 
1-hydroxy-5-(4-methoxyphenyl)pyrrolidine-2,3,4-tricarboxylate
;
_chemical_name_common
;
Trimethyl 1-hydroxy-5-phenylpyrrolidine-2,3,4-tricarboxylate
;
_chemical_melting_point 387
_cell_volume   1589.289
_exptl_crystal_density_diffrn 1.41
_exptl_crystal_description 'block'
_diffrn_ambient_temperature 150
#These two values have been output from a single CSD field.
_refine_ls_R_factor_gt 0.0477
_refine_ls_wR_factor_gt 0.0477
_symmetry_cell_setting orthorhombic
_symmetry_space_group_name_H-M 'P 21 21 21'
_symmetry_Int_Tables_number 19
loop_
_symmetry_equiv_pos_site_id
_symmetry_equiv_pos_as_xyz
1 x,y,z
2 1/2-x,-y,1/2+z
3 1/2+x,1/2-y,-z
4 -x,1/2+y,1/2-z
_cell_length_a 5.5002(3)
_cell_length_b 14.0071(6)
_cell_length_c 20.6289(11)
_cell_angle_alpha 90
_cell_angle_beta 90
_cell_angle_gamma 90
_cell_formula_units_Z 4
loop_
_atom_type_symbol
_atom_type_radius_bond
C 0.68
H 0.23
N 0.68
O 0.68
loop_
_atom_site_label
_atom_site_type_symbol
_atom_site_fract_x
_atom_site_fract_y
_atom_site_fract_z
N1 N 0.0407(4) 0.37292(12) -0.0336(1)
O1 O 0.1165(4) 0.27604(10) -0.02066(8)
H1 H 0.01610 0.24990 0.00440
O2 O -0.3732(3) 0.35062(14) -0.10971(9)
O3 O -0.1364(3) 0.32582(12) -0.19609(8)
O4 O -0.2177(4) 0.52730(13) -0.18271(10)
O5 O 0.0086(3) 0.64733(12) -0.14353(8)
O6 O -0.2546(3) 0.56835(12) -0.02729(10)
O7 O 0.0269(3) 0.64621(11) 0.03070(8)
C1 C 0.0546(5) 0.38671(16) -0.10405(12)
H2 H 0.19100 0.34710 -0.12140
C2 C 0.1225(5) 0.49387(15) -0.11143(12)
H3 H 0.28170 0.49650 -0.13470
C3 C 0.1685(4) 0.53023(15) -0.04146(11)
H4 H 0.31490 0.57250 -0.04050
C4 C 0.2204(5) 0.43688(16) -0.00424(12)
H5 H 0.38800 0.41390 -0.01470
C5 C 0.1907(5) 0.44428(17) 0.06819(12)
C6 C -0.0148(5) 0.41276(17) 0.09971(13)
H6 H -0.14080 0.38260 0.07580
C7 C -0.0391(6) 0.42480(19) 0.16619(13)
H7 H -0.18200 0.40310 0.18750
C8 C 0.1424(6) 0.46789(19) 0.20130(13)
H8 H 0.12470 0.47590 0.24680
C9 C 0.3471(6) 0.49913(18) 0.17122(14)
H9 H 0.47190 0.52930 0.19560
C10 C 0.3738(5) 0.48680(16) 0.10454(13)
H10 H 0.51850 0.50770 0.08380
C11 C -0.1791(5) 0.35446(18) -0.13517(13)
C12 C -0.0538(5) 0.55383(19) -0.14954(13)
C13 C -0.0471(6) 0.58170(17) -0.01354(12)
C14 C -0.1634(6) 0.69427(18) 0.06550(13)
H11 H -0.09160 0.73950 0.09630
H12 H -0.26120 0.64720 0.08910
H13 H -0.26710 0.72890 0.03480
C15 C -0.1527(6) 0.71226(18) -0.17642(14)
H14 H -0.09800 0.77800 -0.16930
H15 H -0.31790 0.70460 -0.15940
H16 H -0.15190 0.69830 -0.22300
C16 C -0.3527(6) 0.30348(19) -0.23290(13)
H17 H -0.30650 0.28340 -0.27670
H18 H -0.45660 0.36020 -0.23550
H19 H -0.44150 0.25170 -0.21140
#END
