
#######################################################################
#
#                 Cambridge Crystallographic Data Centre
#                                CCDC
#
#######################################################################
#
# If this CIF has been generated from an entry in the Cambridge
# Structural Database, then it will include bibliographic, chemical,
# crystal, experimental, refinement or atomic coordinate data resulting
# from the CCDC's data processing and validation procedures.
#
#######################################################################

data_CSD_CIF_BAPZOK
_audit_creation_date 2017-01-24
_audit_creation_method CSD-ConQuest-V1
_database_code_CSD BAPZOK
_database_code_depnum_ccdc_archive 'CCDC 1459027'
_chemical_formula_sum 'C13 H9 N1 O4'
_chemical_formula_moiety
;
C13 H9 N1 O4
;
_journal_coden_Cambridge 35
_journal_volume 82
_journal_year 2017
_journal_page_first 1105
_journal_name_full 'J.Org.Chem. '
loop_
_publ_author_name
"P.Sharma"
"S.Rohilla"
"Nidhi Jain"
_chemical_name_systematic
;
phenyl 3-nitrobenzoate
;
_cell_volume   1162.272
_exptl_crystal_colour 'white'
_exptl_crystal_density_diffrn 1.39
_exptl_crystal_description 'block'
_diffrn_ambient_temperature 298
#These two values have been output from a single CSD field.
_refine_ls_R_factor_gt 0.0552
_refine_ls_wR_factor_gt 0.0552
_symmetry_cell_setting monoclinic
_symmetry_space_group_name_H-M 'P 21/c'
_symmetry_Int_Tables_number 14
loop_
_symmetry_equiv_pos_site_id
_symmetry_equiv_pos_as_xyz
1 x,y,z
2 -x,1/2+y,1/2-z
3 -x,-y,-z
4 x,-1/2-y,-1/2+z
_cell_length_a 11.779(2)
_cell_length_b 8.8723(18)
_cell_length_c 11.827(2)
_cell_angle_alpha 90
_cell_angle_beta 109.890(4)
_cell_angle_gamma 90
_cell_formula_units_Z 4
loop_
_atom_type_symbol
_atom_type_radius_bond
C 0.68
H 0.23
N 0.68
O 0.68
loop_
_atom_site_label
_atom_site_type_symbol
_atom_site_fract_x
_atom_site_fract_y
_atom_site_fract_z
O1 O 0.7629(2) 0.6023(2) 0.35382(19)
O2 O 0.8579(2) 0.3880(3) 0.4318(2)
O3 O 0.4625(3) 0.7376(4) 0.6816(3)
O4 O 0.4805(3) 0.8214(4) 0.5201(4)
C1 C 0.7934(3) 0.4901(3) 0.4352(3)
C2 C 0.8096(3) 0.5963(3) 0.2584(3)
N1 N 0.5086(3) 0.7367(4) 0.6050(4)
C3 C 0.7366(3) 0.5082(3) 0.5289(3)
C4 C 0.6508(3) 0.6177(3) 0.5220(3)
H1 H 0.62650 0.68520 0.45810
C5 C 0.6025(3) 0.6235(3) 0.6135(3)
C6 C 0.7712(3) 0.4116(3) 0.6259(3)
H2 H 0.82900 0.33810 0.63060
C7 C 0.7222(4) 0.4216(4) 0.7156(3)
H3 H 0.74720 0.35570 0.78060
C8 C 0.8986(3) 0.6940(4) 0.2599(3)
H4 H 0.93210 0.75910 0.32430
C9 C 0.7577(4) 0.5013(4) 0.1647(3)
H5 H 0.69580 0.43700 0.16600
C10 C 0.6366(3) 0.5284(4) 0.7096(3)
H6 H 0.60240 0.53590 0.76960
C11 C 0.8869(5) 0.5952(6) 0.0679(4)
H7 H 0.91430 0.59330 0.00290
C12 C 0.9379(4) 0.6932(6) 0.1617(4)
H8 H 0.99870 0.75880 0.15930
C13 C 0.7966(5) 0.5011(5) 0.0701(3)
H9 H 0.76150 0.43630 0.00580
#END
