
#######################################################################
#
#                 Cambridge Crystallographic Data Centre
#                                CCDC
#
#######################################################################
#
# If this CIF has been generated from an entry in the Cambridge
# Structural Database, then it will include bibliographic, chemical,
# crystal, experimental, refinement or atomic coordinate data resulting
# from the CCDC's data processing and validation procedures.
#
#######################################################################

data_CSD_CIF_BAQCED
_audit_creation_date 2012-02-16
_audit_creation_method CSD-ConQuest-V1
_database_code_CSD BAQCED
_database_code_depnum_ccdc_archive 'CCDC 835393 (not 85393 as published)'
_chemical_formula_sum 'C33 H26 N4 O2'
_chemical_formula_moiety
;
C33 H26 N4 O2
;
_journal_coden_Cambridge 1291
_journal_year 2011
_journal_page_first 7194
_journal_name_full 'Eur.J.Org.Chem. '
loop_
_publ_author_name
"Li Hui"
"Yu-Xiu Jin"
"Jin-Xiu Wang"
"Chao-Guo Yan"
_chemical_name_systematic
;
4-Benzyl-3-(4-isopropylphenyl)-1-(4-nitrophenyl)-4H-pyrrolo[1,2-a]benzimidazol
e-2-carbonitrile
;
_cell_volume   1310.439
_exptl_crystal_density_diffrn 1.294
_diffrn_ambient_temperature 296
#These two values have been output from a single CSD field.
_refine_ls_R_factor_gt 0.0563
_refine_ls_wR_factor_gt 0.0563
_symmetry_cell_setting triclinic
_symmetry_space_group_name_H-M 'P -1'
_symmetry_Int_Tables_number 2
loop_
_symmetry_equiv_pos_site_id
_symmetry_equiv_pos_as_xyz
1 x,y,z
2 -x,-y,-z
_cell_length_a 8.9789(16)
_cell_length_b 12.082(2)
_cell_length_c 13.224(2)
_cell_angle_alpha 85.848(2)
_cell_angle_beta 74.419(2)
_cell_angle_gamma 71.515(2)
_cell_formula_units_Z 2
loop_
_atom_type_symbol
_atom_type_radius_bond
C 0.68
H 0.23
N 0.68
O 0.68
loop_
_atom_site_label
_atom_site_type_symbol
_atom_site_fract_x
_atom_site_fract_y
_atom_site_fract_z
C1 C 0.1533(3) 0.2163(2) 0.46240(18)
H1 H 0.15970 0.24720 0.52300
C2 C 0.0399(3) 0.1598(2) 0.46515(19)
H2 H -0.03360 0.15470 0.52870
C3 C 0.0333(3) 0.1104(2) 0.37540(19)
H3 H -0.04260 0.07140 0.38050
C4 C 0.1377(3) 0.1181(2) 0.27806(18)
H4 H 0.13480 0.08350 0.21830
C5 C 0.2466(3) 0.1793(2) 0.27361(17)
C6 C 0.2567(3) 0.2247(2) 0.36547(17)
C7 C 0.4460(3) 0.26648(19) 0.23185(16)
C8 C 0.5611(3) 0.2971(2) 0.15275(17)
C9 C 0.5419(3) 0.2566(2) 0.05857(16)
C10 C 0.4188(3) 0.20470(19) 0.08141(17)
C11 C 0.3469(3) 0.16265(19) 0.01100(17)
C12 C 0.1793(3) 0.1838(2) 0.03288(17)
H5 H 0.11170 0.22670 0.09270
C13 C 0.1119(3) 0.1420(2) -0.03298(18)
H6 H 0.00050 0.15360 -0.01670
C14 C 0.2149(3) 0.0824(2) -0.12392(19)
C15 C 0.3797(3) 0.0657(2) -0.15122(18)
H7 H 0.44530 0.02880 -0.21430
C16 C 0.4460(3) 0.1048(2) -0.08313(17)
H8 H 0.55750 0.09260 -0.10000
C17 C 0.6358(3) 0.2688(2) -0.04512(18)
C18 C 0.6723(3) 0.3618(2) 0.16028(17)
C19 C 0.6914(3) 0.4537(2) 0.09215(18)
H9 H 0.63480 0.47320 0.04060
C20 C 0.7935(3) 0.5160(2) 0.10058(18)
H10 H 0.80530 0.57570 0.05360
C21 C 0.8789(3) 0.4916(2) 0.17763(17)
C22 C 0.8586(3) 0.4003(2) 0.24566(17)
H11 H 0.91330 0.38220 0.29820
C23 C 0.7591(3) 0.3358(2) 0.23686(17)
H12 H 0.75020 0.27450 0.28250
C24 C 0.9850(3) 0.5643(2) 0.18700(18)
H13 H 1.00420 0.60670 0.12120
C25 C 0.8997(3) 0.6551(2) 0.2752(2)
H14 H 0.79730 0.70280 0.26430
H15 H 0.96650 0.70320 0.27550
H16 H 0.88150 0.61640 0.34130
C26 C 1.1507(3) 0.4891(2) 0.2000(2)
H17 H 1.13660 0.44850 0.26530
H18 H 1.21680 0.53790 0.19990
H19 H 1.20290 0.43350 0.14310
C27 C 0.3994(3) 0.3575(2) 0.40872(17)
H20 H 0.29290 0.41020 0.44190
H21 H 0.46320 0.40400 0.36670
C28 C 0.4806(3) 0.2979(2) 0.49357(16)
C29 C 0.4812(3) 0.3669(2) 0.57361(18)
H22 H 0.43030 0.44700 0.57460
C30 C 0.5573(3) 0.3166(3) 0.65163(19)
H23 H 0.55820 0.36330 0.70430
C31 C 0.6317(3) 0.1976(3) 0.65128(19)
H24 H 0.68350 0.16400 0.70320
C32 C 0.6288(3) 0.1285(2) 0.5733(2)
H25 H 0.67720 0.04810 0.57370
C33 C 0.5538(3) 0.1787(2) 0.49421(18)
H26 H 0.55310 0.13180 0.44170
N1 N 0.3803(2) 0.27711(17) 0.33930(14)
N2 N 0.3622(2) 0.20976(16) 0.19060(14)
N3 N 0.7124(3) 0.2782(2) -0.12820(16)
N4 N 0.1456(3) 0.0354(2) -0.19305(19)
O1 O 0.0039(3) 0.0360(2) -0.16061(18)
O2 O 0.2324(3) -0.0011(2) -0.28048(18)
#END
