
#######################################################################
#
#                 Cambridge Crystallographic Data Centre
#                                CCDC
#
#######################################################################
#
# If this CIF has been generated from an entry in the Cambridge
# Structural Database, then it will include bibliographic, chemical,
# crystal, experimental, refinement or atomic coordinate data resulting
# from the CCDC's data processing and validation procedures.
#
#######################################################################

data_CSD_CIF_BAQFIK
_audit_creation_date 2012-02-16
_audit_creation_method CSD-ConQuest-V1
_database_code_CSD BAQFIK
_database_code_depnum_ccdc_archive 'CCDC 836358'
_chemical_formula_sum 'C25 H22 N2 O7'
_chemical_formula_moiety
;
C25 H22 N2 O7
;
_journal_coden_Cambridge 1291
_journal_year 2011
_journal_page_first 6952
_journal_name_full 'Eur.J.Org.Chem. '
loop_
_publ_author_name
"Jing Sun"
"Yan Sun"
"Hong Gao"
"Chao-Guo Yan"
_chemical_name_systematic
;
Dimethyl 
1-(4-methylphenyl)-4-(3-nitrophenyl)-5-oxo-4,5,6,7-tetrahydro-1H-cyclopenta[b]
pyridine-2,3-dicarboxylate
;
_cell_volume   1143.914
_exptl_crystal_density_diffrn 1.343
_diffrn_ambient_temperature 296
#These two values have been output from a single CSD field.
_refine_ls_R_factor_gt 0.0442
_refine_ls_wR_factor_gt 0.0442
_symmetry_cell_setting triclinic
_symmetry_space_group_name_H-M 'P -1'
_symmetry_Int_Tables_number 2
loop_
_symmetry_equiv_pos_site_id
_symmetry_equiv_pos_as_xyz
1 x,y,z
2 -x,-y,-z
_cell_length_a 8.0267(9)
_cell_length_b 9.9400(11)
_cell_length_c 15.557(2)
_cell_angle_alpha 93.973(2)
_cell_angle_beta 104.921(1)
_cell_angle_gamma 105.353(1)
_cell_formula_units_Z 2
loop_
_atom_type_symbol
_atom_type_radius_bond
C 0.68
H 0.23
N 0.68
O 0.68
loop_
_atom_site_label
_atom_site_type_symbol
_atom_site_fract_x
_atom_site_fract_y
_atom_site_fract_z
C1 C 0.32407(19) -0.21421(15) 0.15584(9)
H1 H 0.39500 -0.13590 0.13930
C2 C 0.2854(2) -0.34794(16) 0.10819(10)
H2 H 0.33240 -0.35850 0.06020
C3 C 0.17760(19) -0.46585(14) 0.13130(9)
C4 C 0.1315(2) -0.61134(16) 0.07869(11)
H3 H 0.00310 -0.64830 0.05380
H4 H 0.17480 -0.67270 0.11800
H5 H 0.18740 -0.60520 0.03090
C5 C 0.1106(2) -0.44744(14) 0.20394(10)
H6 H 0.03780 -0.52540 0.21990
C6 C 0.15021(18) -0.31483(13) 0.25340(9)
H7 H 0.10640 -0.30430 0.30250
C7 C 0.25623(16) -0.19859(13) 0.22802(8)
C8 C 0.47001(15) -0.01440(12) 0.34733(8)
C9 C 0.59746(17) -0.10247(14) 0.36870(9)
H8 H 0.63770 -0.12440 0.31720
H9 H 0.54160 -0.18970 0.38790
C10 C 0.75447(16) -0.00617(14) 0.44574(9)
H10 H 0.77590 -0.05360 0.49820
H11 H 0.86400 0.02000 0.42740
C11 C 0.69687(16) 0.12414(13) 0.46673(8)
C12 C 0.52586(15) 0.11116(12) 0.40086(8)
C13 C 0.42513(15) 0.21981(12) 0.38993(8)
H12 H 0.42080 0.25700 0.44910
C14 C 0.51857(14) 0.34121(12) 0.34748(8)
C15 C 0.61269(15) 0.47351(12) 0.39795(8)
H13 H 0.61680 0.48910 0.45820
C16 C 0.70084(17) 0.58299(13) 0.35923(10)
H14 H 0.76440 0.67030 0.39410
C17 C 0.69411(17) 0.56234(14) 0.26913(10)
H15 H 0.74910 0.63530 0.24220
C18 C 0.60280(17) 0.42941(14) 0.22075(9)
C19 C 0.51585(16) 0.31792(13) 0.25770(8)
H16 H 0.45710 0.22970 0.22320
C20 C 0.23342(15) 0.14659(12) 0.33073(8)
C21 C 0.09335(15) 0.22003(12) 0.32670(8)
C22 C 0.02474(17) 0.40795(14) 0.40010(9)
H17 H -0.06780 0.39030 0.34390
H18 H 0.08650 0.50710 0.41490
H19 H -0.02880 0.37720 0.44660
C23 C 0.18729(15) 0.01972(12) 0.27915(8)
C24 C -0.00138(16) -0.04842(12) 0.21656(8)
C25 C -0.1867(2) -0.0795(3) 0.06875(12)
H20 H -0.22980 -0.17860 0.07100
H21 H -0.17760 -0.06560 0.00950
H22 H -0.26920 -0.03320 0.08290
N1 N 0.30727(13) -0.06052(10) 0.28135(7)
N2 N 0.59975(18) 0.40385(16) 0.12572(9)
O1 O 0.78174(13) 0.22181(10) 0.52811(6)
O2 O 0.6635(2) 0.50549(16) 0.09146(9)
O3 O 0.53383(19) 0.28264(15) 0.08541(8)
O4 O -0.05451(13) 0.18564(11) 0.27334(8)
O5 O 0.15233(12) 0.33101(10) 0.39240(6)
O6 O -0.12141(12) -0.12153(10) 0.24046(7)
O7 O -0.00981(13) -0.02034(12) 0.13382(7)
#END
