
#######################################################################
#
#                 Cambridge Crystallographic Data Centre
#                                CCDC
#
#######################################################################
#
# If this CIF has been generated from an entry in the Cambridge
# Structural Database, then it will include bibliographic, chemical,
# crystal, experimental, refinement or atomic coordinate data resulting
# from the CCDC's data processing and validation procedures.
#
#######################################################################

data_CSD_CIF_BAQJIM
_audit_creation_date 1999-11-09
_audit_creation_method CSD-ConQuest-V1
_database_code_CSD BAQJIM
_database_code_depnum_ccdc_archive 'CCDC 123401'
_chemical_formula_sum 'C18 H16 N2 O5'
_chemical_formula_moiety
;
C18 H16 N2 O5
;
_journal_coden_Cambridge 1078
_journal_year 1999
_journal_name_full 'CSD Communication(Private Communication) '
loop_
_publ_author_name
"K.Peseke"
"L.Goetze"
"H.Reinke"
_chemical_name_systematic
;
(2RS)-(+-)-3,4-Dihydro-6-methyl-3\b-nitro-2\a-(2-nitrophenyl)-4\a-phenyl-2H-py
ran
;
_chemical_melting_point 393
_cell_volume   1672.091
_exptl_crystal_colour 'colorless'
_exptl_crystal_density_diffrn 1.352
_exptl_special_details
;
contribution from Fachbereich Chemie, Universitat Rostock,Germany

;
_exptl_crystal_description 'rod'
_diffrn_ambient_temperature ?
_diffrn_special_details
;
The study was carried out at room temperature,in the range 283-303K

;
_refine_special_details
;
The structure is disordered.

;
#These two values have been output from a single CSD field.
_refine_ls_R_factor_gt 0.0366
_refine_ls_wR_factor_gt 0.0366
_symmetry_cell_setting monoclinic
_symmetry_space_group_name_H-M 'P 21/c'
_symmetry_Int_Tables_number 14
loop_
_symmetry_equiv_pos_site_id
_symmetry_equiv_pos_as_xyz
1 x,y,z
2 -x,1/2+y,1/2-z
3 -x,-y,-z
4 x,-1/2-y,-1/2+z
_cell_length_a 12.684(2)
_cell_length_b 14.408(2)
_cell_length_c 9.479(2)
_cell_angle_alpha 90
_cell_angle_beta 105.15(2)
_cell_angle_gamma 90
_cell_formula_units_Z 4
loop_
_atom_type_symbol
_atom_type_radius_bond
C 0.68
H 0.23
N 0.68
O 0.68
loop_
_atom_site_label
_atom_site_type_symbol
_atom_site_fract_x
_atom_site_fract_y
_atom_site_fract_z
O1 O 0.30544(11) 0.58771(10) 0.07162(13)
O2 O 0.21909(14) 0.68556(12) -0.38740(16)
O3 O 0.16301(15) 0.54505(12) -0.38737(16)
O4 O 0.3801(6) 0.4140(4) -0.2099(9)
O5 O 0.4101(8) 0.4655(9) -0.4107(6)
N1 N 0.19126(12) 0.61904(12) -0.32742(17)
N2 N 0.41014(16) 0.47346(12) -0.2837(2)
C1 C 0.29442(15) 0.57123(13) -0.08020(18)
H1 H 0.28350 0.50490 -0.10190
C2 C 0.39881(14) 0.60386(12) -0.11284(18)
C3 C 0.44899(15) 0.56239(13) -0.21088(19)
C4 C 0.53750(17) 0.60189(16) -0.2484(2)
H2 H 0.56870 0.57280 -0.31520
C5 C 0.57869(18) 0.68494(17) -0.1853(3)
H3 H 0.63860 0.71190 -0.20850
C6 C 0.53144(18) 0.72757(16) -0.0886(2)
H4 H 0.55920 0.78370 -0.04640
C7 C 0.44331(16) 0.68823(14) -0.0533(2)
H5 H 0.41220 0.71870 0.01240
C8 C 0.19560(14) 0.62705(12) -0.16869(17)
H6 H 0.20620 0.69250 -0.14010
C9 C 0.08955(15) 0.59333(13) -0.1382(2)
H7 H 0.07430 0.53040 -0.17750
C10 C -0.00570(15) 0.65550(14) -0.2114(2)
C11 C -0.01401(16) 0.74492(16) -0.1622(2)
H8 H 0.03800 0.76650 -0.08050
C12 C -0.09831(19) 0.80262(17) -0.2325(3)
H9 H -0.10210 0.86280 -0.19870
C13 C -0.17629(19) 0.7715(2) -0.3515(3)
H10 H -0.23340 0.81030 -0.39840
C14 C -0.16995(18) 0.6831(2) -0.4012(3)
H11 H -0.22310 0.66170 -0.48190
C15 C -0.08506(16) 0.62539(17) -0.3322(2)
H12 H -0.08130 0.56560 -0.36750
C16 C 0.11195(17) 0.58874(13) 0.0255(2)
H13 H 0.05230 0.58640 0.06530
C17 C 0.21034(17) 0.58773(13) 0.1165(2)
C18 C 0.2372(2) 0.59050(17) 0.2793(2)
H14 H 0.17090 0.59050 0.31010
H15 H 0.27810 0.64580 0.31390
H16 H 0.28000 0.53700 0.31860
O6? O 0.3606(16) 0.4165(11) -0.234(2)
O7? O 0.439(2) 0.454(2) -0.3930(18)
#END
