
#######################################################################
#
#                 Cambridge Crystallographic Data Centre
#                                CCDC
#
#######################################################################
#
# If this CIF has been generated from an entry in the Cambridge
# Structural Database, then it will include bibliographic, chemical,
# crystal, experimental, refinement or atomic coordinate data resulting
# from the CCDC's data processing and validation procedures.
#
#######################################################################

data_CSD_CIF_BAQLIO
_audit_creation_date 1999-11-09
_audit_creation_method CSD-ConQuest-V1
_database_code_CSD BAQLIO
_database_code_depnum_ccdc_archive 'CCDC 129620'
_chemical_formula_sum 'C25 H31 N1 O12'
_chemical_formula_moiety
;
C25 H31 N1 O12
;
_journal_coden_Cambridge 1078
_journal_year 1999
_journal_name_full 'CSD Communication(Private Communication) '
loop_
_publ_author_name
"K.Peseke"
"L.Goetze"
"H.Reinke"
_chemical_name_systematic
;
7,8,9,11-Tetra-O-acetyl-6,10-anhydro-1,3,4,5-tetradeoxy-5-C-nitro-4-C-phenyl-D
-arabino-D-galacto-2-undecanulose
;
_chemical_melting_point 428
_cell_volume    679.766
_exptl_crystal_colour 'colorless'
_exptl_crystal_density_diffrn 1.313
_exptl_special_details
;
contribution from Fachbereich Chemie, Universitat Rostock,Germ any

;
_exptl_crystal_description 'prism'
_diffrn_ambient_temperature ?
_diffrn_special_details
;
The study was carried out at room temperature,in the range 283-303K

;
#These two values have been output from a single CSD field.
_refine_ls_R_factor_gt 0.0562
_refine_ls_wR_factor_gt 0.0562
_symmetry_cell_setting triclinic
_symmetry_space_group_name_H-M 'P 1'
_symmetry_Int_Tables_number 1
loop_
_symmetry_equiv_pos_site_id
_symmetry_equiv_pos_as_xyz
1 x,y,z
_cell_length_a 5.652(1)
_cell_length_b 9.488(1)
_cell_length_c 13.659(2)
_cell_angle_alpha 107.59(1)
_cell_angle_beta 100.47(1)
_cell_angle_gamma 94.42(1)
_cell_formula_units_Z 1
loop_
_atom_type_symbol
_atom_type_radius_bond
C 0.68
H 0.23
N 0.68
O 0.68
loop_
_atom_site_label
_atom_site_type_symbol
_atom_site_fract_x
_atom_site_fract_y
_atom_site_fract_z
O1 O 0.1639(6) 0.1066(3) 0.9437(2)
O2 O 0.9217(8) 0.3072(5) 1.2994(4)
O3 O -0.0413(7) -0.1090(4) 1.0394(3)
O4 O 0.1462(9) -0.2940(4) 0.9783(4)
O5 O 0.4333(5) -0.2171(3) 0.8192(2)
O6 O 0.1528(8) -0.4177(4) 0.7375(3)
O7 O 0.1158(6) -0.1572(4) 0.6403(2)
O8 O 0.4732(9) -0.2158(5) 0.6030(3)
O9 O 0.0905(6) 0.1497(4) 0.6821(3)
O10 O -0.3067(9) 0.1709(5) 0.6602(4)
O11 O 0.0975(6) 0.4009(4) 1.0009(3)
O12 O -0.2689(10) 0.4506(6) 1.0248(4)
N1 N 0.1368(8) -0.1609(5) 1.0139(3)
C1 C 0.5404(12) 0.3895(7) 1.2960(6)
H1 H 0.61750 0.45620 1.36480
H2 H 0.40320 0.32780 1.30100
H3 H 0.48690 0.44640 1.25090
C2 C 0.7171(10) 0.2934(6) 1.2517(4)
C3 C 0.6305(9) 0.1803(5) 1.1432(4)
H4 H 0.76350 0.12690 1.12400
H5 H 0.58550 0.23270 1.09310
C4 C 0.4120(9) 0.0666(5) 1.1349(3)
H6 H 0.26890 0.11830 1.13970
C5 C 0.3637(8) -0.0545(5) 1.0273(4)
H7 H 0.50110 -0.11160 1.02560
C6 C 0.3344(8) 0.0023(5) 0.9331(3)
H8 H 0.49170 0.05520 0.93470
C7 C 0.2502(8) -0.1192(5) 0.8259(3)
H9 H 0.09230 -0.17410 0.82130
C8 C 0.2339(9) -0.0478(5) 0.7396(3)
H10 H 0.39600 -0.00710 0.73640
C9 C 0.0725(9) 0.0741(5) 0.7590(4)
H11 H -0.09610 0.03020 0.74980
C10 C 0.1616(9) 0.1866(5) 0.8695(4)
H12 H 0.32500 0.23690 0.87690
C11 C -0.0098(9) 0.3005(5) 0.8968(4)
H13 H -0.02990 0.35470 0.84670
H14 H -0.16790 0.25140 0.89550
C12 C 0.4551(8) -0.0013(5) 1.2238(3)
C13 C 0.3188(10) 0.0270(6) 1.2994(4)
H15 H 0.19220 0.08330 1.29430
C14 C 0.3688(11) -0.0281(7) 1.3837(4)
H16 H 0.27730 -0.00650 1.43520
C15 C 0.5493(11) -0.1125(7) 1.3914(4)
H17 H 0.58160 -0.14940 1.44760
C16 C 0.6835(11) -0.1431(7) 1.3155(4)
H18 H 0.80750 -0.20130 1.31990
C17 C 0.6359(9) -0.0883(6) 1.2331(4)
H19 H 0.72850 -0.11050 1.18200
C18 C 0.3579(10) -0.3667(5) 0.7761(4)
C19 C 0.5696(13) -0.4508(7) 0.7823(6)
H20 H 0.51400 -0.55600 0.75140
H21 H 0.64900 -0.42930 0.85460
H22 H 0.68200 -0.42120 0.74480
C20 C 0.2601(14) -0.2352(6) 0.5804(4)
C21 C 0.0974(16) -0.3519(7) 0.4857(5)
H23 H 0.19550 -0.40800 0.44200
H24 H -0.00700 -0.30370 0.44630
H25 H 0.00040 -0.41800 0.50870
C22 C -0.1166(13) 0.1859(6) 0.6343(5)
C23 C -0.0769(15) 0.2496(7) 0.5526(5)
H26 H -0.22750 0.27410 0.52100
H27 H -0.01720 0.17820 0.49980
H28 H 0.04000 0.33840 0.58330
C24 C -0.0564(13) 0.4706(6) 1.0552(5)
C25 C 0.0752(16) 0.5774(7) 1.1596(5)
H29 H -0.04010 0.62640 1.19670
H30 H 0.18610 0.65060 1.14910
H31 H 0.16390 0.52390 1.19990
#END
