
#######################################################################
#
#                 Cambridge Crystallographic Data Centre
#                                CCDC
#
#######################################################################
#
# If this CIF has been generated from an entry in the Cambridge
# Structural Database, then it will include bibliographic, chemical,
# crystal, experimental, refinement or atomic coordinate data resulting
# from the CCDC's data processing and validation procedures.
#
#######################################################################

data_CSD_CIF_BAQLUA
_audit_creation_date 1999-11-09
_audit_creation_method CSD-ConQuest-V1
_database_code_CSD BAQLUA
_database_code_depnum_ccdc_archive 'CCDC 129622'
_chemical_formula_sum 'C25 H31 N1 O12'
_chemical_formula_moiety
;
C25 H31 N1 O12
;
_journal_coden_Cambridge 1078
_journal_year 1999
_journal_name_full 'CSD Communication(Private Communication) '
loop_
_publ_author_name
"K.Peseke"
"L.Goetze"
"H.Reinke"
_chemical_name_systematic
;
7,8,9,11-Tetra-O-acetyl-6,10-anhydro-1,3,4,5-tetradesoxy-5-C-nitro-4-C-phenyl-
D-lyxo-D-ido-2-undecanulose
;
_chemical_melting_point 457
_cell_volume   1378.202
_exptl_crystal_colour 'colorless'
_exptl_crystal_density_diffrn 1.295
_exptl_special_details
;
contribution from Fachbereich Chemie, Universitat Rostock,Germ any

;
_exptl_crystal_description 'part of rod'
_diffrn_ambient_temperature ?
_diffrn_special_details
;
The study was carried out at room temperature,in the range 283-303K

;
#These two values have been output from a single CSD field.
_refine_ls_R_factor_gt 0.0414
_refine_ls_wR_factor_gt 0.0414
_symmetry_cell_setting monoclinic
_symmetry_space_group_name_H-M 'P 21'
_symmetry_Int_Tables_number 4
loop_
_symmetry_equiv_pos_site_id
_symmetry_equiv_pos_as_xyz
1 x,y,z
2 -x,1/2+y,-z
_cell_length_a 11.993(1)
_cell_length_b 10.350(1)
_cell_length_c 12.478(1)
_cell_angle_alpha 90
_cell_angle_beta 117.15
_cell_angle_gamma 90
_cell_formula_units_Z 2
loop_
_atom_type_symbol
_atom_type_radius_bond
C 0.68
H 0.23
N 0.68
O 0.68
loop_
_atom_site_label
_atom_site_type_symbol
_atom_site_fract_x
_atom_site_fract_y
_atom_site_fract_z
O1 O 0.42158(17) 0.09503(19) 0.10674(17)
O2 O 0.6568(3) -0.0214(3) -0.0291(2)
O3 O 0.50619(19) 0.27655(19) 0.38175(17)
O4 O 0.4721(3) 0.1566(3) 0.5143(2)
O5 O 0.23778(19) 0.2696(2) 0.27757(18)
O6 O 0.1443(3) 0.4512(3) 0.1815(3)
O7 O 0.18677(17) 0.0638(2) 0.11576(17)
O8 O 0.0021(2) 0.1521(3) 0.0817(3)
O9 O 0.3147(2) 0.0899(2) -0.14922(19)
O10 O 0.2228(3) -0.0811(3) -0.2627(2)
O11 O 0.6797(4) 0.0311(5) 0.4644(3)
O12 O 0.5719(3) -0.0924(4) 0.3114(4)
N1 N 0.6257(4) 0.0085(5) 0.3573(4)
C1 C 0.6945(4) 0.1808(4) -0.0946(3)
H1 H 0.68950 0.13250 -0.16230
H2 H 0.77520 0.22130 -0.05410
H3 H 0.63040 0.24590 -0.12210
C2 C 0.6763(3) 0.0917(4) -0.0093(3)
C3 C 0.6810(3) 0.1518(3) 0.1019(3)
H4 H 0.61010 0.20960 0.07850
H5 H 0.75660 0.20340 0.14060
C4 C 0.6792(3) 0.0549(3) 0.1930(3)
H6 H 0.62310 -0.01580 0.14760
C5 C 0.6272(3) 0.1138(3) 0.2742(3)
H7 H 0.68510 0.18150 0.32340
C6 C 0.4961(3) 0.1734(3) 0.2070(2)
H8 H 0.50510 0.25790 0.17640
C7 C 0.4286(3) 0.1943(3) 0.2839(2)
H9 H 0.41480 0.11160 0.31410
C8 C 0.3042(3) 0.2608(3) 0.2064(3)
H10 H 0.32030 0.34800 0.18620
C9 C 0.2277(3) 0.1861(3) 0.0907(3)
H11 H 0.15450 0.23740 0.03760
C10 C 0.3075(3) 0.1581(3) 0.0273(3)
H12 H 0.32830 0.24030 0.00180
C11 C 0.2452(3) 0.0720(3) -0.0812(3)
H13 H 0.24860 -0.01750 -0.05690
H14 H 0.15820 0.09650 -0.12900
C12 C 0.5252(3) 0.2433(4) 0.4946(3)
C13 C 0.6231(4) 0.3288(4) 0.5855(3)
H15 H 0.63620 0.30520 0.66480
H16 H 0.59600 0.41720 0.56990
H17 H 0.70010 0.31900 0.58030
C14 C 0.1606(3) 0.3714(4) 0.2560(4)
C15 C 0.0955(4) 0.3667(5) 0.3332(4)
H18 H 0.04060 0.43980 0.31560
H19 H 0.15650 0.36890 0.41650
H20 H 0.04750 0.28850 0.31720
C16 C 0.0697(3) 0.0597(4) 0.1062(3)
C17 C 0.0391(4) -0.0723(4) 0.1304(4)
H21 H -0.04420 -0.07330 0.12280
H22 H 0.09760 -0.09770 0.21060
H23 H 0.04410 -0.13150 0.07360
C18 C 0.2930(3) 0.0085(3) -0.2393(3)
C19 C 0.3654(3) 0.0444(4) -0.3054(3)
H24 H 0.34760 -0.01610 -0.36950
H25 H 0.45340 0.04290 -0.25090
H26 H 0.34170 0.12970 -0.33840
C20 C 0.8072(3) -0.0037(3) 0.2721(3)
C21 C 0.8220(3) -0.1363(3) 0.2799(3)
H27 H 0.75420 -0.18870 0.23270
C22 C 0.9350(4) -0.1928(4) 0.3560(3)
H28 H 0.94360 -0.28220 0.35930
C23 C 1.0353(4) -0.1150(5) 0.4271(3)
H29 H 1.11160 -0.15180 0.47970
C24 C 1.0219(4) 0.0156(5) 0.4199(4)
H30 H 1.08990 0.06780 0.46670
C25 C 0.9090(3) 0.0716(4) 0.3442(3)
H31 H 0.90130 0.16110 0.34150
#END
