
#######################################################################
#
#                 Cambridge Crystallographic Data Centre
#                                CCDC
#
#######################################################################
#
# If this CIF has been generated from an entry in the Cambridge
# Structural Database, then it will include bibliographic, chemical,
# crystal, experimental, refinement or atomic coordinate data resulting
# from the CCDC's data processing and validation procedures.
#
#######################################################################

data_CSD_CIF_BAQMOV
_audit_creation_date 1999-11-09
_audit_creation_method CSD-ConQuest-V1
_database_code_CSD BAQMOV
_database_code_depnum_ccdc_archive 'CCDC 130646'
_chemical_formula_sum 'C20 H23 N1 O12'
_chemical_formula_moiety
;
C20 H23 N1 O12
;
_journal_coden_Cambridge 1078
_journal_year 1999
_journal_name_full 'CSD Communication(Private Communication) '
loop_
_publ_author_name
"K.Peseke"
"L.Goetze"
"H.Reinke"
_chemical_name_systematic
;
2,3,4,6-Tetra-O-acetyl-1-C-((1E)-2-(2-furyl)-1-nitrovinyl)-\a-D-glucopyranose
;
_chemical_melting_point 438
_cell_volume   1182.269
_exptl_crystal_colour 'yellow'
_exptl_crystal_density_diffrn 1.319
_exptl_special_details
;
contribution from Fachbereich Chemie, Universitat Rostock,Germany

;
_exptl_crystal_description 'bar'
_diffrn_ambient_temperature ?
_diffrn_special_details
;
The study was carried out at room temperature,in the range 283-303K

;
#These two values have been output from a single CSD field.
_refine_ls_R_factor_gt 0.0616
_refine_ls_wR_factor_gt 0.0616
_symmetry_cell_setting monoclinic
_symmetry_space_group_name_H-M 'P 21'
_symmetry_Int_Tables_number 4
loop_
_symmetry_equiv_pos_site_id
_symmetry_equiv_pos_as_xyz
1 x,y,z
2 -x,1/2+y,-z
_cell_length_a 9.503(1)
_cell_length_b 7.360(2)
_cell_length_c 17.335(2)
_cell_angle_alpha 90
_cell_angle_beta 102.81
_cell_angle_gamma 90
_cell_formula_units_Z 2
loop_
_atom_type_symbol
_atom_type_radius_bond
C 0.68
H 0.23
N 0.68
O 0.68
loop_
_atom_site_label
_atom_site_type_symbol
_atom_site_fract_x
_atom_site_fract_y
_atom_site_fract_z
O1 O 0.5409(3) 0.0856(5) 0.78519(18)
O2 O 0.2287(4) 0.1704(7) 0.9219(2)
O3 O 0.2739(4) 0.4359(6) 0.7925(2)
O4 O 0.3879(6) 0.6991(7) 0.8224(3)
O5 O 0.3062(4) 0.4495(5) 0.6312(2)
O6 O 0.0758(5) 0.3821(9) 0.5853(4)
O7 O 0.3505(4) 0.0843(6) 0.57892(19)
O8 O 0.4748(5) 0.2379(8) 0.5056(2)
O9 O 0.7089(4) -0.0045(8) 0.6772(2)
O10 O 0.8461(5) -0.0881(12) 0.7935(3)
O11 O 0.7667(4) 0.2731(9) 0.9669(3)
O12 O 0.7110(4) 0.3700(7) 0.8476(3)
N1 N 0.6784(5) 0.3032(8) 0.9050(3)
C1 C 0.4798(5) 0.2648(8) 0.9663(3)
H1 H 0.55000 0.29780 1.01060
C2 C 0.3390(5) 0.2398(8) 0.9806(3)
C3 C 0.2864(7) 0.2759(10) 1.0458(3)
H2 H 0.33830 0.32200 1.09360
C4 C 0.1394(7) 0.2308(11) 1.0276(4)
H3 H 0.07580 0.24050 1.06120
C5 C 0.1081(6) 0.1719(12) 0.9538(4)
H4 H 0.01660 0.13600 0.92680
C6 C 0.5272(5) 0.2486(8) 0.8998(3)
C7 C 0.4468(5) 0.1954(8) 0.8184(3)
H5 H 0.36400 0.12080 0.82370
C8 C 0.3907(5) 0.3552(8) 0.7647(3)
H6 H 0.46770 0.44430 0.76570
C9 C 0.3298(5) 0.2902(7) 0.6803(3)
H7 H 0.23730 0.22900 0.67790
C10 C 0.4295(5) 0.1636(8) 0.6517(3)
H8 H 0.51350 0.23010 0.64240
C11 C 0.4779(6) 0.0086(8) 0.7099(3)
H9 H 0.39390 -0.06450 0.71430
C12 C 0.5902(6) -0.1123(9) 0.6880(3)
H10 H 0.62280 -0.20080 0.72960
H11 H 0.54910 -0.17730 0.63960
C13 C 0.2835(7) 0.6051(10) 0.8197(3)
C14 C 0.1522(7) 0.6574(13) 0.8477(5)
H12 H 0.16190 0.78010 0.86690
H13 H 0.14060 0.57730 0.88960
H14 H 0.06920 0.64850 0.80470
C15 C 0.1752(8) 0.4844(10) 0.5858(4)
C16 C 0.1764(9) 0.6452(14) 0.5384(6)
H15 H 0.08130 0.66640 0.50680
H16 H 0.24260 0.62850 0.50450
H17 H 0.20600 0.74770 0.57240
C17 C 0.3802(6) 0.1352(9) 0.5093(3)
C18 C 0.2796(7) 0.0544(11) 0.4403(3)
H18 H 0.30470 0.09490 0.39250
H19 H 0.18270 0.09160 0.44030
H20 H 0.28600 -0.07560 0.44340
C19 C 0.8275(7) 0.0021(14) 0.7352(4)
C20 C 0.9304(8) 0.139(2) 0.7205(6)
H21 H 1.01360 0.13980 0.76360
H22 H 0.88560 0.25680 0.71590
H23 H 0.95950 0.11080 0.67220
#END
