
#######################################################################
#
#                 Cambridge Crystallographic Data Centre
#                                CCDC
#
#######################################################################
#
# If this CIF has been generated from an entry in the Cambridge
# Structural Database, then it will include bibliographic, chemical,
# crystal, experimental, refinement or atomic coordinate data resulting
# from the CCDC's data processing and validation procedures.
#
#######################################################################

data_CSD_CIF_BAQNEM
_audit_creation_date 1999-11-09
_audit_creation_method CSD-ConQuest-V1
_database_code_CSD BAQNEM
_database_code_depnum_ccdc_archive 'CCDC 130649'
_chemical_formula_sum 'C20 H20 N2 O7'
_chemical_formula_moiety
;
C20 H20 N2 O7
;
_journal_coden_Cambridge 1078
_journal_year 1999
_journal_name_full 'CSD Communication(Private Communication) '
loop_
_publ_author_name
"K.Peseke"
"L.Goetze"
"H.Reinke"
_chemical_name_systematic
;
((1RS,2RS,3RS)-(+-)-2-Nitro-1-(2-nitrophenyl)-5-oxo-3-phenyl-hexyl) acetate
;
_chemical_melting_point 418
_cell_volume   2020.699
_exptl_crystal_colour 'colorless'
_exptl_crystal_density_diffrn 1.316
_exptl_special_details
;
contribution from Fachbereich Chemie, Universitat Rostock,Germany

;
_exptl_crystal_description 'block'
_diffrn_ambient_temperature ?
_diffrn_special_details
;
The study was carried out at room temperature,in the range 283-303K

;
#These two values have been output from a single CSD field.
_refine_ls_R_factor_gt 0.0502
_refine_ls_wR_factor_gt 0.0502
_symmetry_cell_setting monoclinic
_symmetry_space_group_name_H-M 'P 21/n'
_symmetry_Int_Tables_number 14
loop_
_symmetry_equiv_pos_site_id
_symmetry_equiv_pos_as_xyz
1 x,y,z
2 1/2+x,1/2-y,1/2+z
3 -x,-y,-z
4 -1/2-x,-1/2+y,-1/2-z
_cell_length_a 9.756(1)
_cell_length_b 8.431
_cell_length_c 24.760(3)
_cell_angle_alpha 90
_cell_angle_beta 97.16(1)
_cell_angle_gamma 90
_cell_formula_units_Z 4
loop_
_atom_type_symbol
_atom_type_radius_bond
C 0.68
H 0.23
N 0.68
O 0.68
loop_
_atom_site_label
_atom_site_type_symbol
_atom_site_fract_x
_atom_site_fract_y
_atom_site_fract_z
O1 O 0.77860(19) 0.1917(2) 0.14934(7)
O2 O 0.1493(2) 0.3489(3) 0.07017(12)
O3 O 0.8458(3) 0.0287(4) 0.21853(10)
O4 O 0.7020(2) 0.3318(3) 0.03728(9)
O5 O 0.6607(2) 0.1156(3) -0.00710(8)
O6 O 0.5711(3) -0.2316(4) 0.10794(18)
O7 O 0.7044(4) -0.4128(3) 0.14224(14)
N1 N 0.6564(2) 0.1981(3) 0.03294(9)
N2 N 0.6843(4) -0.2902(3) 0.11618(14)
C1 C 0.7069(3) 0.0600(3) 0.12218(10)
H1 H 0.66310 -0.00050 0.14920
C2 C 0.5931(2) 0.1260(3) 0.08012(9)
H2 H 0.53560 0.03640 0.06580
C3 C 0.4980(3) 0.2468(3) 0.10302(10)
H3 H 0.55290 0.34050 0.11500
C4 C 0.3817(3) 0.2986(4) 0.05831(11)
H4 H 0.42170 0.36250 0.03170
H5 H 0.34200 0.20480 0.03980
C5 C 0.2681(3) 0.3919(4) 0.07953(12)
C6 C 0.3053(4) 0.5384(4) 0.11095(14)
H6 H 0.22340 0.58520 0.12190
H7 H 0.34820 0.61200 0.08870
H8 H 0.36840 0.51290 0.14270
C7 C 0.8467(4) 0.1575(5) 0.19949(14)
C8 C 0.9204(5) 0.3007(5) 0.22352(19)
H9 H 0.96750 0.27510 0.25880
H10 H 0.85480 0.38390 0.22690
H11 H 0.98620 0.33550 0.20030
C9 C 0.8105(3) -0.0479(3) 0.0990(1)
C10 C 0.8007(3) -0.2106(4) 0.09629(13)
C11 C 0.9002(5) -0.3067(5) 0.07562(16)
H12 H 0.89150 -0.41660 0.07500
C12 C 1.0097(5) -0.2340(8) 0.05660(18)
H13 H 1.07480 -0.29430 0.04130
C13 C 1.0239(4) -0.0756(7) 0.05992(15)
H14 H 1.10010 -0.02770 0.04770
C14 C 0.9276(3) 0.0167(4) 0.08111(12)
H15 H 0.94130 0.12580 0.08350
C15 C 0.4390(3) 0.1781(3) 0.15185(10)
C16 C 0.4765(4) 0.2398(4) 0.20303(12)
H16 H 0.54140 0.32090 0.20840
C17 C 0.4148(5) 0.1779(6) 0.24714(14)
H17 H 0.43960 0.21660 0.28220
C18 C 0.3173(6) 0.0592(7) 0.2378(2)
H18 H 0.27510 0.02020 0.26680
C19 C 0.2820(4) -0.0012(6) 0.18767(19)
H19 H 0.21650 -0.08160 0.18210
C20 C 0.3429(3) 0.0562(4) 0.14535(13)
H20 H 0.31950 0.01250 0.11090
#END
