
#######################################################################
#
#                 Cambridge Crystallographic Data Centre
#                                CCDC
#
#######################################################################
#
# If this CIF has been generated from an entry in the Cambridge
# Structural Database, then it will include bibliographic, chemical,
# crystal, experimental, refinement or atomic coordinate data resulting
# from the CCDC's data processing and validation procedures.
#
#######################################################################

data_CSD_CIF_BASNIT
_audit_creation_date 2003-09-24
_audit_creation_method CSD-ConQuest-V1
_database_code_CSD BASNIT
_database_code_depnum_ccdc_archive 'CCDC 186220'
_chemical_formula_sum 'C12 H16 N2 O2'
_chemical_formula_moiety
;
C12 H16 N2 O2
;
_journal_coden_Cambridge 1291
_journal_year 2002
_journal_page_first 3855
_journal_name_full 'Eur.J.Org.Chem. '
loop_
_publ_author_name
"T.Ohta"
"H.Kamizono"
"A.Kawamoto"
"K.Hori"
"I.Furukawa"
_chemical_name_systematic
;
cis-2,5-Dimethyl-5-phenylisoxazolidine-3-carboxamide
;
_chemical_melting_point 389.15
_cell_volume   1192.301
_exptl_crystal_colour 'colorless'
_exptl_crystal_density_diffrn 1.227
_exptl_special_details
;
Melting point range 389.15-390.15K

;
_exptl_crystal_description 'prismatic'
_diffrn_ambient_temperature 296
#These two values have been output from a single CSD field.
_refine_ls_R_factor_gt 0.076
_refine_ls_wR_factor_gt 0.076
_symmetry_cell_setting monoclinic
_symmetry_space_group_name_H-M 'P 21/c'
_symmetry_Int_Tables_number 14
loop_
_symmetry_equiv_pos_site_id
_symmetry_equiv_pos_as_xyz
1 x,y,z
2 -x,1/2+y,1/2-z
3 -x,-y,-z
4 x,-1/2-y,-1/2+z
_cell_length_a 11.231(4)
_cell_length_b 7.745(4)
_cell_length_c 14.041(2)
_cell_angle_alpha 90
_cell_angle_beta 102.52(2)
_cell_angle_gamma 90
_cell_formula_units_Z 4
loop_
_atom_type_symbol
_atom_type_radius_bond
C 0.68
H 0.23
N 0.68
O 0.68
loop_
_atom_site_label
_atom_site_type_symbol
_atom_site_fract_x
_atom_site_fract_y
_atom_site_fract_z
O1 O 0.6226(1) 0.3039(2) 0.1587(1)
O2 O 1.0028(1) 0.4906(3) 0.1340(1)
N1 N 0.6769(2) 0.4444(3) 0.1108(1)
N2 N 0.8471(2) 0.4394(3) 0.0048(1)
C1 C 0.8046(2) 0.4599(3) 0.1674(2)
C2 C 0.8251(2) 0.2995(3) 0.2348(2)
C3 C 0.7196(2) 0.1823(3) 0.1897(2)
C4 C 0.6045(2) 0.5952(4) 0.1208(2)
C5 C 0.6792(2) 0.0616(4) 0.2627(2)
C6 C 0.7436(2) 0.0809(3) 0.1031(2)
C7 C 0.8517(2) -0.0151(4) 0.1121(2)
C8 C 0.8744(3) -0.1097(4) 0.0342(2)
C9 C 0.7882(3) -0.1156(4) -0.0522(2)
C10 C 0.6799(3) -0.0252(4) -0.0612(2)
C11 C 0.6577(2) 0.0716(4) 0.0159(2)
C12 C 0.8933(2) 0.4626(3) 0.0988(2)
H1 H 0.83530 0.55430 0.22240
H2 H 0.90850 0.24410 0.24800
H3 H 0.82240 0.34000 0.30630
H4 H 0.51800 0.55580 0.08050
H5 H 0.63430 0.68760 0.08240
H6 H 0.60180 0.63290 0.18970
H7 H 0.66150 0.14410 0.31370
H8 H 0.74440 -0.03410 0.29750
H9 H 0.60500 0.03360 0.23240
H10 H 0.91670 0.00000 0.18750
H11 H 0.94980 -0.18840 0.04650
H12 H 0.80700 -0.20440 -0.10750
H13 H 0.63740 -0.02640 -0.12970
H14 H 0.56630 0.13890 0.00540
H15 H 0.76490 0.38790 -0.01510
H16 H 0.89500 0.42310 -0.05000
#END
