
#######################################################################
#
#                 Cambridge Crystallographic Data Centre
#                                CCDC
#
#######################################################################
#
# If this CIF has been generated from an entry in the Cambridge
# Structural Database, then it will include bibliographic, chemical,
# crystal, experimental, refinement or atomic coordinate data resulting
# from the CCDC's data processing and validation procedures.
#
#######################################################################

data_CSD_CIF_BASQOB
_audit_creation_date 1999-11-09
_audit_creation_method CSD-ConQuest-V1
_database_code_CSD BASQOB
_database_code_depnum_ccdc_archive 'CCDC 134687'
_chemical_formula_sum 'C27 H33 N1 O4'
_chemical_formula_moiety
;
C27 H33 N1 O4
;
_journal_coden_Cambridge 16
_journal_volume 55
_journal_year 1999
_journal_page_first 6435
_journal_name_full 'Tetrahedron '
loop_
_publ_author_name
"P.Magnus"
"N.Westwood"
"M.Spyvee"
"C.Frost"
"P.Linnane"
"F.Tavares"
"V.Lynch"
_chemical_name_systematic
;
9-Benzyloxy-6-methylidene-10,14,17,17-tetramethyl-4-oxa-3-azatetracyclo(11.3.1
.0^3,13^.0^5,10^)heptadec-14-ene-2,12-dione
;
_chemical_melting_point 468.15
_cell_volume   2320.850
_exptl_crystal_colour 'colorless'
_exptl_crystal_density_diffrn 1.249
_exptl_special_details
;
Melting point range 468.15-470.15K

;
_exptl_crystal_description 'needles'
_exptl_crystal_preparation 'diethyl ether/hexane'
_diffrn_ambient_temperature 183
#These two values have been output from a single CSD field.
_refine_ls_R_factor_gt 0.0957
_refine_ls_wR_factor_gt 0.0957
_symmetry_cell_setting orthorhombic
_symmetry_space_group_name_H-M 'P 21 21 21'
_symmetry_Int_Tables_number 19
loop_
_symmetry_equiv_pos_site_id
_symmetry_equiv_pos_as_xyz
1 x,y,z
2 1/2-x,-y,1/2+z
3 -x,1/2+y,1/2-z
4 1/2+x,1/2-y,-z
_cell_length_a 9.238(2)
_cell_length_b 14.217(2)
_cell_length_c 17.671(4)
_cell_angle_alpha 90
_cell_angle_beta 90
_cell_angle_gamma 90
_cell_formula_units_Z 4
loop_
_atom_type_symbol
_atom_type_radius_bond
C 0.68
H 0.23
N 0.68
O 0.68
loop_
_atom_site_label
_atom_site_type_symbol
_atom_site_fract_x
_atom_site_fract_y
_atom_site_fract_z
N1 N 0.3122(8) 0.7917(6) -0.1076(5)
O1 O 0.3070(7) 0.8883(4) -0.1192(4)
C1 C 0.1551(11) 0.9180(6) -0.1092(6)
H1 H 0.1170(11) 0.8914(6) -0.0635(6)
C2 C 0.1656(11) 1.0237(7) -0.1003(6)
C3 C 0.2147(10) 1.0758(7) -0.1687(5)
H2 H 0.312(1) 1.0571(7) -0.1804(5)
H3 H 0.214(1) 1.1424(7) -0.1598(5)
C4 C 0.1188(10) 1.0495(6) -0.2357(5)
H4 H 0.1513(10) 1.0801(6) -0.2810(5)
H5 H 0.0223(10) 1.0705(6) -0.2249(5)
C5 C 0.1111(11) 0.9437(7) -0.2474(5)
H6 H 0.2066(11) 0.9233(7) -0.2611(5)
C6 C 0.0595(10) 0.8913(8) -0.1765(6)
C7 C 0.0617(9) 0.7838(6) -0.1915(6)
H7 H -0.0178(9) 0.7697(6) -0.2246(6)
H8 H 0.0432(9) 0.7533(6) -0.1440(6)
C8 C 0.1966(12) 0.7397(7) -0.2236(6)
C9 C 0.3299(11) 0.7311(7) -0.1755(6)
C10 C 0.3409(12) 0.6349(7) -0.1354(6)
C11 C 0.4498(11) 0.6617(7) -0.0746(5)
H9 H 0.4510(11) 0.6178(7) -0.0333(5)
C12 C 0.3978(10) 0.7597(8) -0.0485(6)
C13 C 0.4722(11) 0.7549(7) -0.2158(6)
C14 C 0.5933(11) 0.7299(7) -0.1824(7)
H10 H 0.6834(11) 0.7477(7) -0.2053(7)
C15 C 0.6004(10) 0.6757(8) -0.1082(6)
H11 H 0.6441(10) 0.6157(8) -0.1179(6)
H12 H 0.6596(10) 0.7083(8) -0.0720(6)
O2 O 0.4269(7) 0.8013(5) 0.0084(4)
C16 C 0.1259(9) 1.0636(7) -0.0351(5)
H13 H 0.1365(9) 1.1307(7) -0.0376(5)
H14 H 0.0268(9) 1.0481(7) -0.0243(5)
H15? H 0.1869(9) 1.0392(7) 0.0043(5)
O3 O 0.0120(7) 0.9203(5) -0.3063(4)
C17 C 0.0737(10) 0.9183(7) -0.3805(5)
H16 H 0.1539(10) 0.8754(7) -0.3819(5)
H17 H 0.1072(10) 0.9805(7) -0.3925(5)
C18 C -0.0390(12) 0.8897(8) -0.4366(5)
C19 C -0.1576(12) 0.8370(7) -0.4137(6)
H18 H -0.1658(12) 0.8165(7) -0.3621(6)
C20 C -0.2632(12) 0.8115(9) -0.4647(6)
H19 H -0.3476(12) 0.7781(9) -0.4480(6)
C21 C -0.2530(12) 0.8390(8) -0.5396(6)
H20 H -0.3234(12) 0.8180(8) -0.5758(6)
C22 C -0.1357(14) 0.8937(9) -0.5626(6)
H21 H -0.1266(14) 0.9137(9) -0.6142(6)
C23 C -0.0324(12) 0.9180(9) -0.5116(6)
H22 H 0.0454(12) 0.9585(9) -0.5270(6)
C24 C -0.0979(8) 0.9182(7) -0.1552(5)
H23 H -0.1062(8) 0.9845(7) -0.1459(5)
H24 H -0.1594(8) 0.9010(7) -0.1967(5)
H25 H -0.1266(8) 0.8841(7) -0.1107(5)
O4 O 0.1929(7) 0.7022(5) -0.2853(3)
C25 C 0.2012(9) 0.6024(6) -0.0974(5)
H26 H 0.2094(9) 0.5415(6) -0.0743(5)
H27 H 0.1808(9) 0.6486(6) -0.0592(5)
H28 H 0.1242(9) 0.6017(6) -0.1339(5)
C26 C 0.3886(10) 0.5560(6) -0.1873(5)
H29 H 0.3928(10) 0.4970(6) -0.1610(5)
H30 H 0.3201(10) 0.5516(6) -0.2280(5)
H31 H 0.4825(10) 0.5707(6) -0.2074(5)
C27 C 0.4767(9) 0.8068(6) -0.2896(5)
H32 H 0.5740(9) 0.8159(6) -0.3072(5)
H33 H 0.4233(9) 0.7713(6) -0.3265(5)
H34 H 0.4312(9) 0.8668(6) -0.2823(5)
#END
