
#######################################################################
#
#                 Cambridge Crystallographic Data Centre
#                                CCDC
#
#######################################################################
#
# If this CIF has been generated from an entry in the Cambridge
# Structural Database, then it will include bibliographic, chemical,
# crystal, experimental, refinement or atomic coordinate data resulting
# from the CCDC's data processing and validation procedures.
#
#######################################################################

data_CSD_CIF_BATWOK
_audit_creation_date 2012-08-21
_audit_creation_method CSD-ConQuest-V1
_database_code_CSD BATWOK
_database_code_depnum_ccdc_archive 'CCDC 871252'
_chemical_formula_sum 'C2 H1 N7 O2'
_chemical_formula_moiety
;
C2 H1 N7 O2
;
_journal_coden_Cambridge 1546
_journal_volume 2
_journal_year 2012
_journal_page_first 294
_journal_name_full 'Crystals '
loop_
_publ_author_name
"D.Izsak"
"T.M.Klapotke"
_chemical_name_systematic
;
5-Azido-3-nitro-1H-1,2,4-triazole
;
_chemical_melting_point 390
_cell_volume    580.853
_exptl_crystal_colour 'colorless'
_exptl_crystal_density_diffrn 1.774
_exptl_crystal_description 'block'
_exptl_crystal_preparation 'ethyl acetate'
_diffrn_ambient_temperature 173
#These two values have been output from a single CSD field.
_refine_ls_R_factor_gt 0.0309
_refine_ls_wR_factor_gt 0.0309
_symmetry_cell_setting orthorhombic
_symmetry_space_group_name_H-M 'P n m a'
_symmetry_Int_Tables_number 62
loop_
_symmetry_equiv_pos_site_id
_symmetry_equiv_pos_as_xyz
1 x,y,z
2 1/2-x,-y,1/2+z
3 1/2+x,1/2-y,1/2-z
4 -x,1/2+y,-z
5 -x,-y,-z
6 -1/2+x,y,-1/2-z
7 -1/2-x,-1/2+y,-1/2+z
8 x,-1/2-y,z
_cell_length_a 10.4057(8)
_cell_length_b 5.8792(6)
_cell_length_c 9.4946(8)
_cell_angle_alpha 90
_cell_angle_beta 90
_cell_angle_gamma 90
_cell_formula_units_Z 4
loop_
_atom_type_symbol
_atom_type_radius_bond
C 0.68
H 0.23
N 0.68
O 0.68
loop_
_atom_site_label
_atom_site_type_symbol
_atom_site_fract_x
_atom_site_fract_y
_atom_site_fract_z
N1 N 0.18032(15) 0.25000 0.26054(16)
O1 O 0.32605(13) 0.25000 -0.12701(14)
N2 N 0.39056(13) 0.25000 0.23818(15)
N3 N 0.40209(14) 0.25000 0.53139(16)
O2 O 0.50944(12) 0.25000 -0.01674(15)
N4 N 0.19927(13) 0.25000 0.11923(15)
C1 C 0.29351(15) 0.25000 0.32890(19)
N5 N 0.29314(14) 0.25000 0.47452(16)
N6 N 0.39156(14) 0.25000 -0.01946(16)
N7 N 0.49053(16) 0.25000 0.59943(17)
C2 C 0.32547(16) 0.25000 0.11521(17)
H1 H 0.104(3) 0.25000 0.291(2)
#END
