
#######################################################################
#
#                 Cambridge Crystallographic Data Centre
#                                CCDC
#
#######################################################################
#
# If this CIF has been generated from an entry in the Cambridge
# Structural Database, then it will include bibliographic, chemical,
# crystal, experimental, refinement or atomic coordinate data resulting
# from the CCDC's data processing and validation procedures.
#
#######################################################################

data_CSD_CIF_BATWOJ
_audit_creation_date 2003-09-24
_audit_creation_method CSD-ConQuest-V1
_database_code_CSD BATWOJ
_database_code_depnum_ccdc_archive 'CCDC 217887'
_chemical_formula_sum 'C18 H17 N1 O4'
_chemical_formula_moiety
;
C18 H17 N1 O4
;
_journal_coden_Cambridge 1078
_journal_year 2003
_journal_name_full 'CSD Communication(Private Communication) '
loop_
_publ_author_name
"M.B.Hursthouse"
"D.E.Hibbs"
_chemical_name_systematic
;
1^2^-Methoxycarbonyl-4^3^-nitro-1,4-(1,4)dibenzenacyclohexaphane
;
_cell_volume   1472.450
_exptl_crystal_density_diffrn 1.404
_exptl_special_details
;
contribution from Department of Chemistry, University of Cardiff, Cardiff 
CF10 3TB, UK
;
_diffrn_ambient_temperature 293
#These two values have been output from a single CSD field.
_refine_ls_R_factor_gt 0.0551
_refine_ls_wR_factor_gt 0.0551
_symmetry_cell_setting orthorhombic
_symmetry_space_group_name_H-M 'P 21 21 21'
_symmetry_Int_Tables_number 19
loop_
_symmetry_equiv_pos_site_id
_symmetry_equiv_pos_as_xyz
1 x,y,z
2 1/2-x,-y,1/2+z
3 -x,1/2+y,1/2-z
4 1/2+x,1/2-y,-z
_cell_length_a 7.309(2)
_cell_length_b 12.351(1)
_cell_length_c 16.311(8)
_cell_angle_alpha 90
_cell_angle_beta 90
_cell_angle_gamma 90
_cell_formula_units_Z 4
loop_
_atom_type_symbol
_atom_type_radius_bond
C 0.68
H 0.23
N 0.68
O 0.68
loop_
_atom_site_label
_atom_site_type_symbol
_atom_site_fract_x
_atom_site_fract_y
_atom_site_fract_z
O1 O 0.2198(6) 0.7221(2) 0.3629(2)
O2 O 0.1569(7) 0.8843(3) 0.4037(2)
O3 O 0.5189(7) 1.0493(3) 0.4151(3)
O4 O 0.6046(5) 0.8910(2) 0.3754(2)
N1 N 0.1576(5) 0.8039(3) 0.3468(2)
C1 C 0.2422(6) 0.8195(3) 0.1243(2)
C2 C 0.2427(5) 0.7867(3) 0.2048(2)
H1 H 0.3100(5) 0.7261(3) 0.2201(2)
C3 C 0.1450(4) 0.8425(2) 0.2627(2)
C4 C 0.0479(4) 0.9374(2) 0.2453(2)
C5 C 0.0189(5) 0.9519(3) 0.1621(3)
H2 H -0.0677(5) 1.0028(3) 0.1458(3)
C6 C 0.1099(6) 0.8960(4) 0.1028(2)
H3 H 0.0839(6) 0.9088(4) 0.0478(2)
C7 C 0.3977(7) 0.7959(4) 0.0671(3)
H4 H 0.3506(7) 0.7929(4) 0.0116(3)
H5 H 0.4467(7) 0.7250(4) 0.0802(3)
C8 C 0.5519(6) 0.8775(3) 0.0701(2)
H6 H 0.5645(6) 0.9108(3) 0.0166(2)
H7 H 0.6653(6) 0.8399(3) 0.0822(2)
C9 C 0.5231(5) 0.9657(3) 0.1336(2)
C10 C 0.5588(4) 0.9450(3) 0.2156(2)
H8 H 0.6424(4) 0.8913(3) 0.2295(2)
C11 C 0.4721(4) 1.0028(2) 0.2771(2)
C12 C 0.3387(5) 1.0807(2) 0.2570(2)
C13 C 0.3335(5) 1.1149(3) 0.1764(2)
H9 H 0.2684(5) 1.1771(3) 0.1630(2)
C14 C 0.4225(6) 1.0587(3) 0.1155(3)
H10 H 0.4157(6) 1.0830(3) 0.0616(3)
C15 C 0.1772(5) 1.1084(2) 0.3123(2)
H11 H 0.1353(5) 1.1810(2) 0.2994(2)
H12 H 0.2181(5) 1.1083(2) 0.3688(2)
C16 C 0.0133(5) 1.0283(3) 0.3034(3)
H13 H -0.0150(5) 0.9984(3) 0.3569(3)
H14 H -0.0932(5) 1.0682(3) 0.2849(3)
C17 C 0.5100(6) 0.9749(3) 0.3636(2)
C18 C 0.6426(7) 0.8599(3) 0.4583(2)
H15 H 0.7608(19) 0.8261(22) 0.4610(4)
H16 H 0.5510(24) 0.8098(19) 0.4768(7)
H17 H 0.6415(42) 0.9229(4) 0.4928(4)
#END
