
#######################################################################
#
#                 Cambridge Crystallographic Data Centre
#                                CCDC
#
#######################################################################
#
# If this CIF has been generated from an entry in the Cambridge
# Structural Database, then it will include bibliographic, chemical,
# crystal, experimental, refinement or atomic coordinate data resulting
# from the CCDC's data processing and validation procedures.
#
#######################################################################

data_CSD_CIF_BATXAX
_audit_creation_date 2012-08-21
_audit_creation_method CSD-ConQuest-V1
_database_code_CSD BATXAX
_database_code_depnum_ccdc_archive 'CCDC 875278'
_chemical_formula_sum 'C3 H3 N7 O2'
_chemical_formula_moiety
;
C3 H3 N7 O2
;
_journal_coden_Cambridge 1546
_journal_volume 2
_journal_year 2012
_journal_page_first 294
_journal_name_full 'Crystals '
loop_
_publ_author_name
"D.Izsak"
"T.M.Klapotke"
_chemical_name_systematic
;
5-Azido-1-methyl-3-nitro-1H-1,2,4-triazole
;
_chemical_melting_point 395
_cell_volume    339.492
_exptl_crystal_colour 'colorless'
_exptl_crystal_density_diffrn 1.654
_exptl_crystal_description 'needle'
_diffrn_ambient_temperature 173
#These two values have been output from a single CSD field.
_refine_ls_R_factor_gt 0.0407
_refine_ls_wR_factor_gt 0.0407
_symmetry_cell_setting monoclinic
_symmetry_space_group_name_H-M 'P 21/m'
_symmetry_Int_Tables_number 11
loop_
_symmetry_equiv_pos_site_id
_symmetry_equiv_pos_as_xyz
1 x,y,z
2 -x,1/2+y,-z
3 -x,-y,-z
4 x,-1/2-y,z
_cell_length_a 6.9585(16)
_cell_length_b 5.9641(13)
_cell_length_c 8.5356(16)
_cell_angle_alpha 90
_cell_angle_beta 106.59(2)
_cell_angle_gamma 90
_cell_formula_units_Z 2
loop_
_atom_type_symbol
_atom_type_radius_bond
C 0.68
H 0.23
N 0.68
O 0.68
loop_
_atom_site_label
_atom_site_type_symbol
_atom_site_fract_x
_atom_site_fract_y
_atom_site_fract_z
O1 O 1.0865(3) 0.25000 -0.1685(2)
O2 O 0.7691(3) 0.25000 -0.2971(2)
N1 N 1.0056(3) 0.25000 0.1260(2)
N2 N 0.6730(3) 0.25000 -0.0152(2)
N3 N 0.9520(3) 0.25000 0.3972(2)
N4 N 0.6967(3) 0.25000 0.1485(2)
N5 N 0.9087(3) 0.25000 -0.1726(3)
N6 N 1.1383(3) 0.25000 0.4587(3)
C1 C 0.8613(3) 0.25000 -0.0180(3)
C2 C 0.8934(3) 0.25000 0.2281(3)
N7 N 1.2991(4) 0.25000 0.5305(3)
C3 C 0.5252(4) 0.25000 0.2154(4)
H1 H 0.40050 0.25000 0.12560
H2 H 0.53010 0.38420 0.28270
H2C H 0.53010 0.11580 0.28270
#END
