
#######################################################################
#
#                 Cambridge Crystallographic Data Centre
#                                CCDC
#
#######################################################################
#
# If this CIF has been generated from an entry in the Cambridge
# Structural Database, then it will include bibliographic, chemical,
# crystal, experimental, refinement or atomic coordinate data resulting
# from the CCDC's data processing and validation procedures.
#
#######################################################################

data_CSD_CIF_BAVLES
_audit_creation_date 2017-06-06
_audit_creation_method CSD-ConQuest-V1
_database_code_CSD BAVLES
_database_code_depnum_ccdc_archive 'CCDC 1539452'
_chemical_formula_sum 'C11 H8 N6 O2'
_chemical_formula_moiety
;
C11 H8 N6 O2
;
_journal_coden_Cambridge 222
_journal_volume 46
_journal_year 2017
_journal_page_first 7733
_journal_name_full 'Dalton Trans. '
loop_
_publ_author_name
"D.J.Strohecker"
"V.M.Lynch"
"B.J.Holliday"
"R.A.Jones"
_chemical_name_systematic
;
2-(4-nitro-1H-pyrazol-1-yl)-6-(1H-pyrazol-1-yl)pyridine
;
_chemical_melting_point 440.15
_cell_volume    540.724
_exptl_crystal_colour 'colorless'
_exptl_crystal_density_diffrn 1.574
_exptl_special_details
;
Luminescent

;
_exptl_crystal_description 'prism'
_exptl_crystal_preparation 'dichloromethane'
_diffrn_ambient_temperature 100
#These two values have been output from a single CSD field.
_refine_ls_R_factor_gt 0.0332
_refine_ls_wR_factor_gt 0.0332
_symmetry_cell_setting triclinic
_symmetry_space_group_name_H-M 'P -1'
_symmetry_Int_Tables_number 2
loop_
_symmetry_equiv_pos_site_id
_symmetry_equiv_pos_as_xyz
1 x,y,z
2 -x,-y,-z
_cell_length_a 6.0442(17)
_cell_length_b 8.393(2)
_cell_length_c 11.447(3)
_cell_angle_alpha 72.362(7)
_cell_angle_beta 89.297(7)
_cell_angle_gamma 78.103(7)
_cell_formula_units_Z 2
loop_
_atom_type_symbol
_atom_type_radius_bond
C 0.68
H 0.23
N 0.68
O 0.68
loop_
_atom_site_label
_atom_site_type_symbol
_atom_site_fract_x
_atom_site_fract_y
_atom_site_fract_z
C1 C 1.07317(18) 0.98655(14) 0.19211(10)
C2 C 1.26880(19) 1.01573(14) 0.23892(11)
H1 H 1.30456 1.12579 0.21465
C3 C 1.40791(19) 0.87659(15) 0.32233(11)
H2 H 1.54251 0.89055 0.35640
C4 C 1.35173(19) 0.71630(15) 0.35659(10)
H3 H 1.44613 0.61898 0.41252
C5 C 1.15060(18) 0.70642(14) 0.30468(10)
C6 C 0.71923(19) 1.11441(14) 0.05874(10)
H4 H 0.65078 1.01804 0.07704
C7 C 0.6317(2) 1.27511(15) -0.01889(11)
H5 H 0.49092 1.31342 -0.06510
C8 C 0.7963(2) 1.37139(15) -0.01530(11)
H6 H 0.78153 1.48866 -0.06087
C9 C 0.89105(18) 0.52279(14) 0.2847(1)
H7 H 0.78754 0.60314 0.22221
C10 C 0.88494(18) 0.35476(14) 0.34349(10)
C11 C 1.07354(19) 0.28696(14) 0.42786(10)
H8 H 1.11157 0.17228 0.48044
N1 N 0.97404(17) 1.27856(12) 0.05932(9)
N2 N 0.92412(16) 1.11996(12) 0.10465(9)
N3 N 1.01079(15) 0.83629(12) 0.22504(8)
N4 N 1.07587(15) 0.54890(12) 0.33494(8)
N5 N 1.19063(16) 0.40590(12) 0.42354(9)
N6 N 0.71511(16) 0.26917(12) 0.32187(9)
O1 O 0.55850(14) 0.35123(11) 0.24556(8)
O2 O 0.73516(16) 0.11662(11) 0.38190(8)
#END
