
#######################################################################
#
#                 Cambridge Crystallographic Data Centre
#                                CCDC
#
#######################################################################
#
# If this CIF has been generated from an entry in the Cambridge
# Structural Database, then it will include bibliographic, chemical,
# crystal, experimental, refinement or atomic coordinate data resulting
# from the CCDC's data processing and validation procedures.
#
#######################################################################

data_CSD_CIF_BAVTAT
_audit_creation_date 1999-11-09
_audit_creation_method CSD-ConQuest-V1
_database_code_CSD BAVTAT
_database_code_depnum_ccdc_archive 'CCDC 136309'
_chemical_formula_sum 'C16 H14 N2 O6'
_chemical_formula_moiety
;
C16 H14 N2 O6
;
_journal_coden_Cambridge 95
_journal_year 1999
_journal_page_first 1146
_journal_name_full 'Izv.Akad.Nauk SSSR,Ser.Khim.(Russ.)(Russ.Chem.Bull.) '
loop_
_publ_author_name
"V.P.Kislyi"
"V.N.Nesterov"
"A.M.Shestopalov"
"V.V.Semenov"
_chemical_name_systematic
;
2-Amino-3-nitro-4-(2-methoxyphenyl)-7-methylpyrano(3,2-c)pyran-5(4H)-one
;
_chemical_melting_point 523.15
_cell_volume   1481.124
_exptl_crystal_colour 'light yellow'
_exptl_crystal_density_diffrn 1.481
_exptl_special_details
;
Melting point range 523.15-524.15K

;
_diffrn_ambient_temperature ?
_diffrn_special_details
;
The study was carried out at room temperature,in the range 283-303K

;
#These two values have been output from a single CSD field.
_refine_ls_R_factor_gt 0.0594
_refine_ls_wR_factor_gt 0.0594
_symmetry_cell_setting monoclinic
_symmetry_space_group_name_H-M 'P 21/c'
_symmetry_Int_Tables_number 14
loop_
_symmetry_equiv_pos_site_id
_symmetry_equiv_pos_as_xyz
1 x,y,z
2 x,1/2-y,1/2+z
3 -x,-y,-z
4 -x,-1/2+y,-1/2-z
_cell_length_a 11.799(3)
_cell_length_b 11.304(2)
_cell_length_c 11.419(3)
_cell_angle_alpha 90
_cell_angle_beta 103.47(2)
_cell_angle_gamma 90
_cell_formula_units_Z 4
loop_
_atom_type_symbol
_atom_type_radius_bond
C 0.68
H 0.23
N 0.68
O 0.68
loop_
_atom_site_label
_atom_site_type_symbol
_atom_site_fract_x
_atom_site_fract_y
_atom_site_fract_z
O1 O 0.63763(15) -0.20660(13) 0.58090(13)
O2 O 0.46959(14) -0.2384(2) 0.22652(15)
O3 O 0.5324(2) -0.06458(15) 0.18811(14)
O4 O 0.83760(15) -0.18720(15) 0.4683(2)
O5 O 0.7406(2) 0.1942(2) 0.5459(2)
O6 O 0.7535(2) 0.11307(14) 0.72463(15)
N1 N 0.5287(2) -0.3233(2) 0.4480(2)
N2 N 0.52674(15) -0.1462(2) 0.2611(2)
C1 C 0.5813(2) -0.2201(2) 0.4636(2)
C2 C 0.5868(2) -0.1322(2) 0.3802(2)
C3 C 0.6571(2) -0.0201(2) 0.4122(2)
C4 C 0.6856(2) -0.0068(2) 0.5473(2)
C5 C 0.7271(2) 0.1062(2) 0.5991(2)
C6 C 0.7438(2) 0.0195(2) 0.7968(2)
C7 C 0.7087(2) -0.0862(2) 0.7494(2)
C8 C 0.6777(2) -0.0964(2) 0.6219(2)
C9 C 0.7663(2) -0.0141(2) 0.3618(2)
C10 C 0.8557(2) -0.0986(2) 0.3930(2)
C11 C 0.9548(2) -0.0884(2) 0.3475(3)
C12 C 0.9650(2) 0.0051(3) 0.2720(3)
C13 C 0.8784(2) 0.0883(2) 0.2404(2)
C14 C 0.7798(2) 0.0782(2) 0.2863(2)
C15 C 0.9321(3) -0.2645(3) 0.5148(3)
C16 C 0.7748(3) 0.0522(3) 0.9263(3)
H1 H 0.4869(26) -0.3384(27) 0.376(3)
H2 H 0.5297(28) -0.3642(31) 0.5053(33)
H3 H 0.6069(22) 0.0516(23) 0.3737(23)
H4 H 0.7024(26) -0.1544(28) 0.8008(29)
H5 H 1.0114(29) -0.1461(28) 0.3687(29)
H6 H 1.0310(32) 0.0053(32) 0.2430(33)
H7 H 0.8815(25) 0.1546(27) 0.1833(27)
H8 H 0.7184(28) 0.1373(29) 0.2669(29)
H9 H 0.9503(30) -0.3145(31) 0.4433(33)
H10 H 1.0008(30) -0.2216(29) 0.5521(31)
H11 H 0.9064(33) -0.3158(34) 0.5697(34)
H12 H 0.7611(31) -0.0135(35) 0.9756(34)
H13 H 0.8655(36) 0.0638(34) 0.9486(36)
H14 H 0.7301(40) 0.1164(43) 0.9440(43)
#END
