
#######################################################################
#
#                 Cambridge Crystallographic Data Centre
#                                CCDC
#
#######################################################################
#
# If this CIF has been generated from an entry in the Cambridge
# Structural Database, then it will include bibliographic, chemical,
# crystal, experimental, refinement or atomic coordinate data resulting
# from the CCDC's data processing and validation procedures.
#
#######################################################################

data_CSD_CIF_BAWCUY
_audit_creation_date 2004-01-20
_audit_creation_method CSD-ConQuest-V1
_database_code_CSD BAWCUY
_database_code_depnum_ccdc_archive 'CCDC 190073'
_chemical_formula_sum 'C25 H23 N3 O8'
_chemical_formula_moiety
;
C25 H23 N3 O8
;
_journal_coden_Cambridge 24
_journal_volume 44
_journal_year 2003
_journal_page_first 6625
_journal_name_full 'Tetrahedron Lett. '
loop_
_publ_author_name
"J.E.Moses"
"J.E.Baldwin"
"R.M.Adlington"
"A.R.Cowley"
"R.Marquez"
_chemical_name_systematic
;
(1,3,5-Trimethyl-8-(4-nitrophenyl)tricyclo(3.2.1.0^2,7^)oct-3-en-6-yl)methyl 
3,5-dinitrobenzoate
;
_cell_volume   1138.441
_exptl_crystal_colour 'pale yellow'
_exptl_crystal_density_diffrn 1.439
_exptl_crystal_description 'plate'
_diffrn_ambient_temperature 150
#These two values have been output from a single CSD field.
_refine_ls_R_factor_gt 0.0495
_refine_ls_wR_factor_gt 0.0495
_symmetry_cell_setting triclinic
_symmetry_space_group_name_H-M 'P -1'
_symmetry_Int_Tables_number 2
loop_
_symmetry_equiv_pos_site_id
_symmetry_equiv_pos_as_xyz
1 x,y,z
2 -x,-y,-z
_cell_length_a 8.0506(4)
_cell_length_b 12.3846(5)
_cell_length_c 13.2746(7)
_cell_angle_alpha 64.465(2)
_cell_angle_beta 86.930(2)
_cell_angle_gamma 73.060(2)
_cell_formula_units_Z 2
loop_
_atom_type_symbol
_atom_type_radius_bond
C 0.68
H 0.23
N 0.68
O 0.68
loop_
_atom_site_label
_atom_site_type_symbol
_atom_site_fract_x
_atom_site_fract_y
_atom_site_fract_z
C1 C 0.8972(3) 0.2420(2) 0.54274(18)
C2 C 0.9123(3) 0.1214(2) 0.57861(19)
C3 C 0.7513(3) 0.0811(2) 0.61746(18)
C4 C 0.6864(3) 0.1263(2) 0.71129(18)
C5 C 0.6142(3) 0.2673(2) 0.64403(18)
C6 C 0.7234(3) 0.3226(2) 0.54838(19)
C7 C 0.5610(3) 0.2918(2) 0.52717(18)
C8 C 0.6003(3) 0.1670(2) 0.52237(18)
C9 C 1.0373(4) 0.3033(3) 0.4953(2)
C10 C 0.7838(3) -0.0584(2) 0.6541(2)
C11 C 0.5200(3) 0.3483(2) 0.7007(2)
C12 C 0.5532(3) 0.0667(2) 0.77847(17)
C13 C 0.6056(3) -0.0393(2) 0.88117(18)
C14 C 0.4885(3) -0.0988(2) 0.94344(18)
C15 C 0.3154(3) -0.0510(2) 0.90090(19)
C16 C 0.2571(3) 0.0541(2) 0.80093(19)
C17 C 0.3766(3) 0.1126(2) 0.74072(18)
N1 N 0.1900(3) -0.11430(19) 0.96385(17)
O1 O 0.2393(3) -0.2009(2) 1.05757(16)
O2 O 0.0424(2) -0.0802(2) 0.92189(18)
C18 C 0.6443(3) 0.1731(2) 0.40777(19)
O3 O 0.4926(2) 0.26356(15) 0.33187(13)
C19 C 0.5092(3) 0.2958(2) 0.22264(18)
O4 O 0.6324(2) 0.24710(15) 0.18496(14)
C20 C 0.3581(3) 0.4033(2) 0.15159(18)
C21 C 0.2398(3) 0.4744(2) 0.19604(19)
C22 C 0.1081(3) 0.5759(2) 0.12515(19)
C23 C 0.0875(3) 0.6107(2) 0.01123(19)
C24 C 0.2085(3) 0.5371(2) -0.02910(18)
C25 C 0.3431(3) 0.4342(2) 0.03761(19)
N2 N -0.0198(3) 0.65030(19) 0.17185(18)
O5 O 0.0143(3) 0.6353(2) 0.26631(16)
O6 O -0.1544(2) 0.72284(19) 0.11291(16)
N3 N 0.1905(3) 0.56993(18) -0.14943(16)
O7 O 0.0580(2) 0.65114(18) -0.20459(15)
O8 O 0.3077(3) 0.51474(17) -0.18769(15)
H1 H 1.02560 0.05970 0.57990
H2 H 0.78050 0.10170 0.77010
H3 H 0.76460 0.39860 0.51740
H4 H 0.45650 0.34100 0.47190
H5 H 0.49760 0.13420 0.53440
H6 H 1.14680 0.23840 0.49660
H7 H 1.05920 0.34440 0.54150
H8 H 0.99910 0.36770 0.41640
H9 H 0.67400 -0.08070 0.67900
H10 H 0.87680 -0.10730 0.71750
H11 H 0.82210 -0.07880 0.58980
H12 H 0.48150 0.43810 0.64430
H13 H 0.60040 0.33820 0.76120
H14 H 0.41590 0.32200 0.73420
H15 H 0.73100 -0.07300 0.91030
H16 H 0.52730 -0.17410 1.01710
H17 H 0.13140 0.08720 0.77250
H18 H 0.33560 0.18970 0.66850
H19 H 0.75010 0.20190 0.38470
H20 H 0.66540 0.08910 0.40850
H21 H 0.24990 0.45240 0.27780
H22 H -0.00910 0.68450 -0.03880
H23 H 0.42750 0.38330 0.00510
#END
