
#######################################################################
#
#                 Cambridge Crystallographic Data Centre
#                                CCDC
#
#######################################################################
#
# If this CIF has been generated from an entry in the Cambridge
# Structural Database, then it will include bibliographic, chemical,
# crystal, experimental, refinement or atomic coordinate data resulting
# from the CCDC's data processing and validation procedures.
#
#######################################################################

data_CSD_CIF_BAWJIT
_audit_creation_date 2004-01-20
_audit_creation_method CSD-ConQuest-V1
_database_code_CSD BAWJIT
_database_code_depnum_ccdc_archive 'CCDC 217560'
_chemical_formula_sum 'C16 H17 N1 O4'
_chemical_formula_moiety
;
C16 H17 N1 O4
;
_journal_coden_Cambridge 1090
_journal_volume 14
_journal_year 2003
_journal_page_first 1917
_journal_name_full 'Tetrahedron:Asymm. '
loop_
_publ_author_name
"T.Bako"
"P.Bako"
"G.Keglevich"
"N.Bathori"
"M.Czugler"
"J.Tatai"
"T.Novak"
"G.Parlagh"
"L.Toke"
_chemical_name_systematic
;
(rac)-3-Furan-2-yl-4-methyl-4-nitro-1-phenylpentan-1-one
;
_chemical_melting_point 352.15
_cell_volume   1500.210
_exptl_crystal_colour 'colorless'
_exptl_crystal_density_diffrn 1.272
_exptl_special_details
;
Melting point range 352.15-353.15K

;
_exptl_crystal_description 'prism'
_diffrn_ambient_temperature 293
#These two values have been output from a single CSD field.
_refine_ls_R_factor_gt 0.0398
_refine_ls_wR_factor_gt 0.0398
loop_
_citation_database_id_CSD
_citation_special_details
VODQEK "is a stereoisomer of this entry"
_symmetry_cell_setting monoclinic
_symmetry_space_group_name_H-M 'P 21/c'
_symmetry_Int_Tables_number 14
loop_
_symmetry_equiv_pos_site_id
_symmetry_equiv_pos_as_xyz
1 x,y,z
2 x,1/2-y,1/2+z
3 -x,-y,-z
4 -x,-1/2+y,-1/2-z
_cell_length_a 10.850(1)
_cell_length_b 12.760(1)
_cell_length_c 11.238(1)
_cell_angle_alpha 90
_cell_angle_beta 105.37(1)
_cell_angle_gamma 90
_cell_formula_units_Z 4
loop_
_atom_type_symbol
_atom_type_radius_bond
C 0.68
H 0.23
N 0.68
O 0.68
loop_
_atom_site_label
_atom_site_type_symbol
_atom_site_fract_x
_atom_site_fract_y
_atom_site_fract_z
O1 O 0.39734(11) 0.24375(11) 0.32506(10)
O2 O 0.32983(12) 0.04025(10) 0.52355(11)
O3 O 0.02235(13) 0.35969(10) 0.38582(14)
O4 O 0.05767(15) 0.35733(11) 0.58170(14)
N1 N 0.05199(11) 0.31429(10) 0.48423(13)
C1 C 0.41285(12) 0.27715(11) 0.42924(12)
C2 C 0.31361(12) 0.25951(11) 0.49893(13)
H1 H 0.28030 0.32680 0.51590
H2 H 0.35400 0.22670 0.57750
C3 C 0.20179(12) 0.19043(10) 0.42869(12)
H3 H 0.17450 0.21660 0.34380
C4 C 0.08451(13) 0.19733(10) 0.48361(13)
C5 C 0.24186(14) 0.07878(11) 0.42289(13)
C6 C 0.3490(2) -0.06267(16) 0.4967(2)
H4 H 0.40470 -0.10820 0.54950
C7 C 0.2785(2) -0.08802(15) 0.3867(2)
H5 H 0.27550 -0.15280 0.34800
C8 C 0.2075(2) 0.00306(14) 0.33815(18)
H6 H 0.14810 0.00900 0.26170
C9 C 0.52995(12) 0.33746(11) 0.49088(13)
C10 C 0.55291(15) 0.37482(14) 0.60992(15)
H7 H 0.49370 0.36260 0.65500
C11 C 0.66354(18) 0.43040(17) 0.66280(18)
H8 H 0.67780 0.45590 0.74280
C12 C 0.75213(16) 0.44808(15) 0.59770(19)
H9 H 0.82690 0.48450 0.63410
C13 C 0.73057(16) 0.41243(16) 0.4800(2)
H10 H 0.79050 0.42510 0.43590
C14 C 0.62005(15) 0.35743(14) 0.42538(17)
H11 H 0.60590 0.33370 0.34460
C15 C -0.03378(15) 0.14711(14) 0.39821(17)
H12 H -0.10620 0.15910 0.43030
H13 H -0.02010 0.07310 0.39310
H14 H -0.04940 0.17760 0.31750
C16 C 0.11111(17) 0.15548(14) 0.61359(14)
H15 H 0.13180 0.08230 0.61400
H16 H 0.03670 0.16460 0.64350
H17 H 0.18170 0.19290 0.66590
#END
