
#######################################################################
#
#                 Cambridge Crystallographic Data Centre
#                                CCDC
#
#######################################################################
#
# If this CIF has been generated from an entry in the Cambridge
# Structural Database, then it will include bibliographic, chemical,
# crystal, experimental, refinement or atomic coordinate data resulting
# from the CCDC's data processing and validation procedures.
#
#######################################################################

data_CSD_CIF_BAWXOP
_audit_creation_date 2017-06-07
_audit_creation_method CSD-ConQuest-V1
_database_code_CSD BAWXOP
_database_code_depnum_ccdc_archive 'CCDC 1554711'
_chemical_formula_sum 'C22 H20 N4 O5'
_chemical_formula_moiety
;
C22 H20 N4 O5
;
_journal_coden_Cambridge 1336
_journal_volume 19
_journal_year 2017
_journal_page_first 3017
_journal_name_full 'Org.Lett. '
loop_
_publ_author_name
"Jiaxin Xie"
"Jianchun Wang"
"Guangbin Dong"
_chemical_name_systematic
;
1-(2,4-dinitrophenyl)-2-(1'-methyl-3H-spiro[1-benzofuran-2,7'-bicyclo[4.2.0]oc
tan]-3-ylidene)hydrazine
;
_cell_volume    958.695
_exptl_crystal_colour 'orange'
_exptl_crystal_density_diffrn 1.456
_exptl_crystal_description 'prism'
_diffrn_ambient_temperature 100
#These two values have been output from a single CSD field.
_refine_ls_R_factor_gt 0.0381
_refine_ls_wR_factor_gt 0.0381
_symmetry_cell_setting triclinic
_symmetry_space_group_name_H-M 'P -1'
_symmetry_Int_Tables_number 2
loop_
_symmetry_equiv_pos_site_id
_symmetry_equiv_pos_as_xyz
1 x,y,z
2 -x,-y,-z
_cell_length_a 7.3583(3)
_cell_length_b 8.6653(3)
_cell_length_c 15.7812(5)
_cell_angle_alpha 94.049(3)
_cell_angle_beta 95.948(3)
_cell_angle_gamma 105.631(3)
_cell_formula_units_Z 2
loop_
_atom_type_symbol
_atom_type_radius_bond
C 0.68
H 0.23
N 0.68
O 0.68
loop_
_atom_site_label
_atom_site_type_symbol
_atom_site_fract_x
_atom_site_fract_y
_atom_site_fract_z
O1 O 1.00023(12) 0.94704(11) 0.70760(6)
O2 O 0.58713(12) 0.40914(11) 0.93578(6)
O3 O 0.35606(13) 0.23330(11) 0.97985(6)
O4 O -0.27844(14) 0.10615(12) 0.84577(7)
O5 O -0.36128(13) 0.26062(12) 0.75545(6)
N1 N 0.56831(14) 0.67674(12) 0.74857(7)
N2 N 0.52078(15) 0.58092(12) 0.81319(7)
H1 H 0.607(3) 0.561(2) 0.8511(12)
N3 N 0.41504(15) 0.33528(12) 0.93161(7)
N4 N -0.24041(15) 0.22046(13) 0.80220(7)
C1 C 1.05971(17) 0.89133(14) 0.78094(8)
C2 C 1.24725(17) 0.94009(16) 0.81937(9)
H2 H 1.34309 1.01434 0.79521
C3 C 1.28844(18) 0.87575(16) 0.89444(9)
H3 H 1.41567 0.90540 0.92207
C4 C 1.14666(19) 0.76799(17) 0.93046(8)
H4 H 1.17852 0.72696 0.98251
C5 C 0.95993(18) 0.72032(16) 0.89101(8)
H5 H 0.86384 0.64770 0.91588
C6 C 0.91536(17) 0.78091(14) 0.81400(8)
C7 C 0.74416(17) 0.75756(14) 0.75287(8)
C8 C 0.80746(16) 0.85039(14) 0.67786(8)
C9 C 0.79363(17) 0.75562(14) 0.59137(8)
C10 C 0.92176(17) 0.70677(15) 0.55186(8)
H6 H 1.038(2) 0.6975(19) 0.5835(10)
C11 C 0.90383(17) 0.68588(15) 0.45597(8)
H7 H 0.88557 0.57081 0.43686
H8 H 1.02434 0.74817 0.43753
C12 C 0.73835(18) 0.74026(15) 0.41131(8)
H9 H 0.77161 0.77691 0.35545
H10 H 0.62346 0.64697 0.40000
C13 C 0.69245(18) 0.87720(15) 0.46482(8)
H11 H 0.80515 0.97249 0.47514
H12 H 0.58664 0.90868 0.43338
C14 C 0.63628(17) 0.81941(14) 0.55028(8)
C15 C 0.67891(17) 0.94346(15) 0.63263(8)
H13 H 0.74845 1.05428 0.62288
H14 H 0.56485 0.94339 0.66086
C16 C 0.43411(17) 0.70762(16) 0.54029(9)
H15 H 0.42110 0.61887 0.49596
H16 H 0.34343 0.76812 0.52369
H17 H 0.40799 0.66407 0.59480
C17 C 0.33813(17) 0.49286(14) 0.81186(8)
C18 C 0.28079(17) 0.37242(14) 0.86805(8)
C19 C 0.09141(18) 0.28266(14) 0.86456(8)
H18 H 0.05569 0.20174 0.90206
C20 C -0.04266(17) 0.31339(15) 0.80586(8)
C21 C 0.00670(17) 0.43217(15) 0.75002(8)
H19 H -0.08838 0.45224 0.71031
C22 C 0.19291(17) 0.51910(15) 0.75308(8)
H20 H 0.22572 0.59911 0.71482
#END
