
#######################################################################
#
#                 Cambridge Crystallographic Data Centre
#                                CCDC
#
#######################################################################
#
# If this CIF has been generated from an entry in the Cambridge
# Structural Database, then it will include bibliographic, chemical,
# crystal, experimental, refinement or atomic coordinate data resulting
# from the CCDC's data processing and validation procedures.
#
#######################################################################

data_CSD_CIF_BAWZIJ01
_audit_creation_date 2010-08-24
_audit_creation_method CSD-ConQuest-V1
_database_code_CSD BAWZIJ01
_database_code_depnum_ccdc_archive 'CCDC 753210'
_chemical_formula_sum 'C22 H24 N2 O5'
_chemical_formula_moiety
;
C22 H24 N2 O5
;
_journal_coden_Cambridge 10
_journal_volume 93
_journal_year 2010
_journal_page_first 90
_journal_name_full 'Helv.Chim.Acta '
loop_
_publ_author_name
"H.Sprecher"
"S.Pletscher"
"M.Mori"
"R.Marti"
"C.Gaul"
"K.Patora-Komisarska"
"E.Otchertianova"
"A.K.Beck"
"D.Seebach"
_chemical_name_systematic
;
4-Isopropyl-3-(2-methyl-3-nitropropanoyl)-5,5-diphenyl-1,3-oxazolidin-2-one
;
_chemical_name_common
;
(S)-4-isopropyl-3-((S)-2-methyl-3-nitropropanoyl)-5,5-diphenyloxazolidin-2-one
;
_chemical_melting_point 444.15
_cell_volume   2138.805
_exptl_crystal_colour 'colorless'
_exptl_crystal_density_diffrn 1.231
_exptl_special_details
;
Melting point range 444.15-446.15K

;
_exptl_crystal_description 'cube'
_diffrn_ambient_temperature 223
#These two values have been output from a single CSD field.
_refine_ls_R_factor_gt 0.0515
_refine_ls_wR_factor_gt 0.0515
_symmetry_cell_setting orthorhombic
_symmetry_space_group_name_H-M 'P 21 21 21'
_symmetry_Int_Tables_number 19
loop_
_symmetry_equiv_pos_site_id
_symmetry_equiv_pos_as_xyz
1 x,y,z
2 1/2-x,-y,1/2+z
3 1/2+x,1/2-y,-z
4 -x,1/2+y,1/2-z
_cell_length_a 9.1660(2)
_cell_length_b 10.9238(2)
_cell_length_c 21.3608(5)
_cell_angle_alpha 90
_cell_angle_beta 90
_cell_angle_gamma 90
_cell_formula_units_Z 4
loop_
_atom_type_symbol
_atom_type_radius_bond
C 0.68
H 0.23
N 0.68
O 0.68
loop_
_atom_site_label
_atom_site_type_symbol
_atom_site_fract_x
_atom_site_fract_y
_atom_site_fract_z
O1 O 0.79069(16) 0.98330(12) 0.69678(6)
O2 O 0.83249(18) 0.66169(14) 0.57291(7)
O3 O 1.1597(3) 0.6818(3) 0.6217(2)
O4 O 1.1948(4) 0.5177(4) 0.56858(17)
O5 O 0.8541(2) 0.81870(15) 0.75226(6)
N1 N 0.78983(19) 0.80419(14) 0.64667(7)
N2 N 1.1308(3) 0.5762(3) 0.60936(14)
C1 C 0.8163(2) 0.86223(18) 0.70354(9)
C2 C 0.7196(2) 0.89014(16) 0.60267(8)
C3 C 0.7813(2) 1.01181(16) 0.62894(8)
C4 C 0.8428(2) 0.69003(16) 0.62728(9)
C5 C 0.9081(3) 0.60464(18) 0.6762(1)
C6 C 0.7871(5) 0.5381(3) 0.71154(17)
C7 C 1.0075(3) 0.5138(2) 0.64276(13)
C8 C 0.5524(2) 0.87479(19) 0.60057(10)
C9 C 0.4789(3) 0.8730(3) 0.66440(12)
C10 C 0.5121(3) 0.7598(2) 0.56350(12)
C11 C 0.6847(2) 1.12330(16) 0.62059(9)
C12 C 0.6622(2) 1.1651(2) 0.55987(10)
C13 C 0.5728(3) 1.2666(2) 0.54928(13)
C14 C 0.5079(2) 1.32682(19) 0.59915(13)
C15 C 0.5293(3) 1.2851(2) 0.65869(13)
C16 C 0.6176(2) 1.1826(2) 0.67049(10)
C17 C 0.9388(2) 1.03811(17) 0.60859(8)
C18 C 1.0096(2) 1.1380(2) 0.63573(10)
C19 C 1.1537(2) 1.1632(2) 0.62232(11)
C20 C 1.2302(2) 1.0876(2) 0.58162(11)
C21 C 1.1626(2) 0.9890(2) 0.55404(12)
C22 C 1.0163(2) 0.96422(19) 0.56767(11)
H1 H 0.759(2) 0.877(2) 0.5616(11)
H2 H 0.952(3) 1.199(3) 0.6632(13)
H3 H 1.341(4) 1.108(3) 0.5730(16)
H4 H 1.204(4) 1.250(4) 0.6370(17)
H5 H 0.710(3) 1.119(3) 0.5233(13)
H6 H 1.206(3) 0.933(3) 0.5239(13)
H7 H 0.643(3) 1.153(3) 0.7162(13)
H8 H 0.406(3) 0.752(3) 0.5592(13)
H9 H 0.491(4) 1.328(3) 0.6954(15)
H10 H 0.548(3) 0.754(3) 0.5228(14)
H11 H 0.516(4) 0.805(3) 0.6878(14)
H12 H 0.972(3) 0.905(3) 0.5499(14)
H13 H 0.742(4) 0.498(3) 0.6847(17)
H14 H 0.440(3) 1.397(3) 0.5920(15)
H15 H 0.378(4) 0.867(3) 0.6586(14)
H16 H 0.540(3) 0.671(3) 0.5834(14)
H17 H 0.719(4) 0.602(3) 0.7339(18)
H18 H 0.496(3) 0.946(3) 0.6853(14)
H19 H 0.960(3) 0.651(2) 0.7057(11)
H20 H 0.513(3) 0.952(3) 0.5769(13)
H21 H 0.550(3) 1.290(2) 0.5051(13)
H22 H 0.951(3) 0.475(3) 0.6086(15)
H23 H 0.833(5) 0.474(4) 0.746(2)
H24 H 1.045(4) 0.461(3) 0.6714(15)
#END
