
#######################################################################
#
#                 Cambridge Crystallographic Data Centre
#                                CCDC
#
#######################################################################
#
# If this CIF has been generated from an entry in the Cambridge
# Structural Database, then it will include bibliographic, chemical,
# crystal, experimental, refinement or atomic coordinate data resulting
# from the CCDC's data processing and validation procedures.
#
#######################################################################

data_CSD_CIF_BAWZIJ
_audit_creation_date 2004-01-20
_audit_creation_method CSD-ConQuest-V1
_database_code_CSD BAWZIJ
_database_code_depnum_ccdc_archive 'CCDC 206950'
_chemical_formula_sum 'C22 H24 N2 O5'
_chemical_formula_moiety
;
C22 H24 N2 O5
;
_journal_coden_Cambridge 10
_journal_volume 86
_journal_year 2003
_journal_page_first 1852
_journal_name_full 'Helv.Chim.Acta '
loop_
_publ_author_name
"D.Seebach"
"L.Schaeffer"
"F.Gessier"
"P.Bindschadler"
"C.Jager"
"D.Josien"
"S.Kopp"
"G.Lelais"
"Y.R.Mahajan"
"P.Micuch"
"R.Sebesta"
"B.W.Schweizer"
_chemical_name_systematic
;
3-(2-Methyl-3-nitropropionyl)-4-isopropyl-5,5-diphenyloxazolidin-2-one
;
_cell_volume   2167.342
_exptl_crystal_colour 'colorless'
_exptl_crystal_density_diffrn 1.215
_exptl_crystal_description 'plate'
_diffrn_ambient_temperature 298
#These two values have been output from a single CSD field.
_refine_ls_R_factor_gt 0.0647
_refine_ls_wR_factor_gt 0.0647
_symmetry_cell_setting orthorhombic
_symmetry_space_group_name_H-M 'P 21 21 21'
_symmetry_Int_Tables_number 19
loop_
_symmetry_equiv_pos_site_id
_symmetry_equiv_pos_as_xyz
1 x,y,z
2 1/2-x,-y,1/2+z
3 1/2+x,1/2-y,-z
4 -x,1/2+y,1/2-z
_cell_length_a 9.1805(2)
_cell_length_b 10.9527(3)
_cell_length_c 21.5546(7)
_cell_angle_alpha 90
_cell_angle_beta 90
_cell_angle_gamma 90
_cell_formula_units_Z 4
loop_
_atom_type_symbol
_atom_type_radius_bond
C 0.68
H 0.23
N 0.68
O 0.68
loop_
_atom_site_label
_atom_site_type_symbol
_atom_site_fract_x
_atom_site_fract_y
_atom_site_fract_z
O1 O 0.2918(3) 0.02036(19) 0.30349(9)
O2 O 0.3550(4) 0.1847(2) 0.24851(10)
N1 N 0.2908(3) 0.1993(2) 0.35270(11)
C1 C 0.3175(4) 0.1408(3) 0.29658(14)
C2 C 0.2202(3) 0.1132(3) 0.39645(13)
C3 C 0.2828(4) -0.0083(3) 0.37076(13)
C4 C 0.0533(4) 0.1277(3) 0.39804(15)
C5 C 0.0107(5) 0.2399(4) 0.4363(2)
C6 C -0.0202(5) 0.1298(4) 0.33491(18)
C7 C 0.4394(3) -0.0342(3) 0.39085(14)
C8 C 0.5162(4) 0.0368(3) 0.43308(17)
C9 C 0.6597(4) 0.0105(3) 0.44733(19)
C10 C 0.7289(4) -0.0850(3) 0.41928(17)
C11 C 0.6540(4) -0.1562(4) 0.37759(17)
C12 C 0.5117(4) -0.1318(3) 0.36383(15)
C13 C 0.1869(3) -0.1189(3) 0.37906(15)
C14 C 0.1656(4) -0.1612(3) 0.43878(16)
C15 C 0.0761(5) -0.2625(4) 0.4495(2)
C16 C 0.0114(5) -0.3217(3) 0.4006(2)
C17 C 0.0317(5) -0.2803(4) 0.3417(2)
C18 C 0.1191(4) -0.1791(3) 0.32998(16)
C19 C 0.3428(4) 0.3132(3) 0.37182(15)
C20 C 0.4062(5) 0.3992(3) 0.32398(16)
C21 C 0.5050(6) 0.4906(4) 0.3565(2)
N2 N 0.6313(6) 0.4295(5) 0.3884(3)
O3 O 0.6604(6) 0.3263(7) 0.3748(4)
O4 O 0.6921(7) 0.4877(6) 0.4282(3)
O5 O 0.3315(3) 0.3415(2) 0.42572(11)
C22 C 0.2838(7) 0.4644(5) 0.2895(3)
H1 H 0.25050 0.12340 0.43880
H2 H 0.01730 0.05530 0.41790
H3 H -0.09340 0.24770 0.43690
H4 H 0.05280 0.31170 0.41810
H5 H 0.04600 0.23050 0.47800
H6 H -0.12350 0.13850 0.34010
H7 H 0.00020 0.05500 0.31340
H8 H 0.01660 0.19740 0.31130
H9 H 0.46980 0.10550 0.45240
H10 H 0.71130 0.05960 0.47700
H11 H 0.82890 -0.10220 0.42910
H12 H 0.70080 -0.22360 0.35730
H13 H 0.46130 -0.18400 0.33520
H14 H 0.21430 -0.12240 0.47290
H15 H 0.05850 -0.28880 0.49140
H16 H -0.04730 -0.39290 0.40760
H17 H -0.01520 -0.32140 0.30780
H18 H 0.13360 -0.15100 0.28830
H19 H 0.46230 0.35390 0.29430
H20 H 0.54300 0.54730 0.32670
H21 H 0.44970 0.53400 0.38720
H22 H 0.32320 0.51890 0.25890
H23 H 0.22680 0.50990 0.31880
H24 H 0.22330 0.40470 0.26950
#END
