
#######################################################################
#
#                 Cambridge Crystallographic Data Centre
#                                CCDC
#
#######################################################################
#
# If this CIF has been generated from an entry in the Cambridge
# Structural Database, then it will include bibliographic, chemical,
# crystal, experimental, refinement or atomic coordinate data resulting
# from the CCDC's data processing and validation procedures.
#
#######################################################################

data_CSD_CIF_BAXBAE
_audit_creation_date 2004-01-20
_audit_creation_method CSD-ConQuest-V1
_database_code_CSD BAXBAE
_database_code_depnum_ccdc_archive 'CCDC 206953'
_chemical_formula_sum 'C18 H18 N2 O3'
_chemical_formula_moiety
;
C18 H18 N2 O3
;
_journal_coden_Cambridge 10
_journal_volume 86
_journal_year 2003
_journal_page_first 1852
_journal_name_full 'Helv.Chim.Acta '
loop_
_publ_author_name
"D.Seebach"
"L.Schaeffer"
"F.Gessier"
"P.Bindschadler"
"C.Jager"
"D.Josien"
"S.Kopp"
"G.Lelais"
"Y.R.Mahajan"
"P.Micuch"
"R.Sebesta"
"B.W.Schweizer"
_chemical_name_systematic
;
4-Isopropyl-3-nitroso-5,5-diphenyloxazolidin-2-one
;
_chemical_melting_point 416.15
_cell_volume   1719.163
_exptl_crystal_colour 'light yellow'
_exptl_crystal_density_diffrn 1.199
_exptl_special_details
;
Melting point range 416.15-418.15K

;
_exptl_crystal_description 'cube'
_diffrn_ambient_temperature 202
#These two values have been output from a single CSD field.
_refine_ls_R_factor_gt 0.0563
_refine_ls_wR_factor_gt 0.0563
_symmetry_cell_setting orthorhombic
_symmetry_space_group_name_H-M 'P 21 21 21'
_symmetry_Int_Tables_number 19
loop_
_symmetry_equiv_pos_site_id
_symmetry_equiv_pos_as_xyz
1 x,y,z
2 1/2-x,-y,1/2+z
3 1/2+x,1/2-y,-z
4 -x,1/2+y,1/2-z
_cell_length_a 9.1413(2)
_cell_length_b 12.8482(2)
_cell_length_c 14.6375(3)
_cell_angle_alpha 90
_cell_angle_beta 90
_cell_angle_gamma 90
_cell_formula_units_Z 4
loop_
_atom_type_symbol
_atom_type_radius_bond
C 0.68
H 0.23
N 0.68
O 0.68
loop_
_atom_site_label
_atom_site_type_symbol
_atom_site_fract_x
_atom_site_fract_y
_atom_site_fract_z
O1 O 0.71280(12) 0.29727(7) 0.71507(8)
O2 O 0.59260(19) 0.16301(9) 0.77801(12)
N1 N 0.50748(15) 0.33287(9) 0.78938(9)
N2 N 0.3706(2) 0.30669(15) 0.81763(15)
C1 C 0.60336(19) 0.25321(12) 0.76195(12)
C2 C 0.56886(15) 0.43600(9) 0.77055(9)
C3 C 0.67043(15) 0.40486(9) 0.68993(8)
C4 C 0.64285(19) 0.48395(14) 0.85537(10)
C5 C 0.7489(3) 0.4109(2) 0.90376(14)
C6 C 0.5283(3) 0.5250(2) 0.92256(14)
O3 O 0.29239(17) 0.38050(15) 0.83295(17)
C7 C 0.58949(16) 0.39692(10) 0.59838(9)
C8 C 0.6406(3) 0.32524(15) 0.53451(13)
C9 C 0.5727(4) 0.3189(2) 0.44903(15)
C10 C 0.4579(3) 0.3822(2) 0.42724(15)
C11 C 0.4085(3) 0.4546(3) 0.48940(16)
C12 C 0.4747(2) 0.46230(16) 0.57573(12)
C13 C 0.80829(15) 0.46966(11) 0.67986(9)
C14 C 0.94771(19) 0.42700(17) 0.68755(13)
C15 C 1.0687(2) 0.4906(2) 0.67595(16)
C16 C 1.0530(2) 0.5957(2) 0.65698(15)
C17 C 0.9163(2) 0.63736(16) 0.64968(15)
C18 C 0.79310(18) 0.57476(12) 0.66043(12)
H1 H 0.570(4) 0.560(3) 0.977(3)
H2 H 0.491(2) 0.4804(15) 0.7502(15)
H3 H 0.693(2) 0.5360(18) 0.8358(15)
H4 H 0.822(4) 0.387(2) 0.863(2)
H5 H 0.804(4) 0.445(3) 0.952(3)
H6 H 0.688(3) 0.356(2) 0.9252(19)
H7 H 0.468(3) 0.469(2) 0.949(2)
H8 H 0.442(3) 0.5267(19) 0.6212(18)
H9 H 0.734(3) 0.277(2) 0.548(2)
H10 H 0.607(5) 0.263(3) 0.404(3)
H11 H 0.422(3) 0.376(2) 0.364(2)
H12 H 0.322(3) 0.5000(19) 0.4771(18)
H13 H 0.439(3) 0.558(2) 0.890(2)
H14 H 0.954(3) 0.355(2) 0.694(2)
H15 H 1.160(4) 0.461(2) 0.686(2)
H16 H 1.140(3) 0.6337(19) 0.6514(19)
H17 H 0.892(4) 0.729(3) 0.643(2)
H18 H 0.696(2) 0.6040(16) 0.6559(16)
#END
