
#######################################################################
#
#                 Cambridge Crystallographic Data Centre
#                                CCDC
#
#######################################################################
#
# If this CIF has been generated from an entry in the Cambridge
# Structural Database, then it will include bibliographic, chemical,
# crystal, experimental, refinement or atomic coordinate data resulting
# from the CCDC's data processing and validation procedures.
#
#######################################################################

data_CSD_CIF_BAYGAL
_audit_creation_date 2012-08-03
_audit_creation_method CSD-ConQuest-V1
_database_code_CSD BAYGAL
_database_code_depnum_ccdc_archive 'CCDC 882144'
_chemical_formula_sum 'C9 H13 N1 O4'
_chemical_formula_moiety
;
C9 H13 N1 O4
;
_journal_coden_Cambridge 4
_journal_volume 134
_journal_year 2012
_journal_page_first 5938
_journal_name_full 'J.Am.Chem.Soc. '
loop_
_publ_author_name
"F.Beaumier"
"M.Dupuis"
"C.Spino"
"C.Y.Legault"
_chemical_name_systematic
;
7a-Methoxy-7-nitro-2,3,4,4a,7,7a-hexahydrocyclopenta[b]pyran
;
_cell_volume    936.426
_exptl_crystal_colour 'colorless'
_exptl_crystal_density_diffrn 1.413
_exptl_crystal_description 'prism'
_exptl_crystal_preparation 'diethyl ether'
_diffrn_ambient_temperature 198
#These two values have been output from a single CSD field.
_refine_ls_R_factor_gt 0.053
_refine_ls_wR_factor_gt 0.053
_symmetry_cell_setting monoclinic
_symmetry_space_group_name_H-M 'P 21/n'
_symmetry_Int_Tables_number 14
loop_
_symmetry_equiv_pos_site_id
_symmetry_equiv_pos_as_xyz
1 x,y,z
2 1/2-x,1/2+y,1/2-z
3 -x,-y,-z
4 -1/2+x,-1/2-y,-1/2+z
_cell_length_a 6.6278(17)
_cell_length_b 8.754(2)
_cell_length_c 16.144(6)
_cell_angle_alpha 90
_cell_angle_beta 91.31(3)
_cell_angle_gamma 90
_cell_formula_units_Z 4
loop_
_atom_type_symbol
_atom_type_radius_bond
C 0.68
H 0.23
N 0.68
O 0.68
loop_
_atom_site_label
_atom_site_type_symbol
_atom_site_fract_x
_atom_site_fract_y
_atom_site_fract_z
H1 H 0.579(4) 0.593(3) 0.9460(14)
H2 H 0.067(4) 0.516(3) 0.8140(14)
H3 H 0.394(3) 0.829(3) 0.8780(13)
H4 H 0.413(3) 0.413(3) 0.8448(13)
C1 C 0.1798(4) 0.5752(3) 0.81873(16)
C2 C 0.3671(4) 0.5118(3) 0.85843(15)
C3 C 0.4529(4) 0.6101(3) 0.90895(15)
C4 C 0.3393(4) 0.7582(3) 0.91291(15)
C5 C 0.3273(4) 0.8326(3) 0.99826(16)
H5 H 0.46010 0.83190 1.02480
H6 H 0.28540 0.93820 0.99180
C6 C 0.1799(4) 0.7503(3) 1.05319(16)
H7 H 0.23120 0.64960 1.06720
H8 H 0.16300 0.80710 1.10420
C7 C -0.0193(4) 0.7367(3) 1.00727(16)
H9 H -0.11580 0.68630 1.04240
H10 H -0.07050 0.83800 0.99440
C8 C 0.1329(4) 0.7145(3) 0.87459(14)
C9 C -0.1577(4) 0.8326(4) 0.80933(17)
H11 H -0.18170 0.73820 0.78040
H12 H -0.19270 0.91670 0.77360
H13 H -0.23890 0.83600 0.85780
N1 N 0.2181(4) 0.6315(2) 0.73154(13)
O1 O 0.0828(3) 0.6123(2) 0.67916(11)
O2 O 0.3761(3) 0.6975(2) 0.71883(11)
O3 O 0.0516(2) 0.84273(18) 0.83342(10)
O4 O -0.0002(2) 0.65111(19) 0.93152(10)
#END
