
#######################################################################
#
#                 Cambridge Crystallographic Data Centre
#                                CCDC
#
#######################################################################
#
# If this CIF has been generated from an entry in the Cambridge
# Structural Database, then it will include bibliographic, chemical,
# crystal, experimental, refinement or atomic coordinate data resulting
# from the CCDC's data processing and validation procedures.
#
#######################################################################

data_CSD_CIF_BAYJUJ
_audit_creation_date 2017-06-07
_audit_creation_method CSD-ConQuest-V1
_database_code_CSD BAYJUJ
_database_code_depnum_ccdc_archive 'CCDC 1507477'
_chemical_formula_sum 'C17 H17 N1 O4'
_chemical_formula_moiety
;
C17 H17 N1 O4
;
_journal_coden_Cambridge 1475
_journal_volume 8
_journal_year 2017
_journal_page_first 5482
_journal_name_full 'Chemical Science '
loop_
_publ_author_name
"Jinxian Liu"
"M.Skaria"
"P.Sharma"
"Yun-Wei Chiang"
"Rai-Shung Liu"
_chemical_name_systematic
;
N-(4-methoxyphenyl)-N-(3-methyl-3-phenyl-1,2-dioxolan-4-ylidene)imine oxide
;
_cell_volume    755.303
_exptl_crystal_colour 'colorless'
_exptl_crystal_density_diffrn 1.316
_exptl_crystal_description 'prism'
_diffrn_ambient_temperature 200
#These two values have been output from a single CSD field.
_refine_ls_R_factor_gt 0.1803
_refine_ls_wR_factor_gt 0.1803
_symmetry_cell_setting monoclinic
_symmetry_space_group_name_H-M 'P 21'
_symmetry_Int_Tables_number 4
loop_
_symmetry_equiv_pos_site_id
_symmetry_equiv_pos_as_xyz
1 x,y,z
2 -x,1/2+y,-z
_cell_length_a 8.480(7)
_cell_length_b 5.698(4)
_cell_length_c 15.656(13)
_cell_angle_alpha 90
_cell_angle_beta 93.20(5)
_cell_angle_gamma 90
_cell_formula_units_Z 2
loop_
_atom_type_symbol
_atom_type_radius_bond
C 0.68
H 0.23
N 0.68
O 0.68
loop_
_atom_site_label
_atom_site_type_symbol
_atom_site_fract_x
_atom_site_fract_y
_atom_site_fract_z
C1 C 0.724(2) 0.785(3) 0.0958(11)
C2 C 0.822(2) 0.949(3) 0.0554(10)
H1 H 0.86610 1.07970 0.08570
C3 C 0.850(2) 0.912(3) -0.0264(12)
H2 H 0.91330 1.02160 -0.05490
C4 C 0.7879(19) 0.715(3) -0.0722(10)
C5 C 0.781(3) 0.482(4) -0.2007(11)
H3 H 0.82200 0.48410 -0.25790
H4 H 0.66490 0.48000 -0.20590
H5 H 0.81880 0.34160 -0.16990
C6 C 0.693(2) 0.564(3) -0.0339(11)
H6 H 0.64980 0.43340 -0.06480
C7 C 0.658(3) 0.598(3) 0.0508(11)
H7 H 0.58810 0.49400 0.07750
C8 C 0.7474(19) 0.697(3) 0.2414(9)
C9 C 0.846(2) 0.484(3) 0.2287(10)
H8 H 0.92200 0.50890 0.18370
H9 H 0.78070 0.34430 0.21450
C10 C 0.732(3) 0.728(3) 0.3413(11)
C11 C 0.823(3) 0.927(3) 0.3711(13)
H10 H 0.93260 0.90910 0.35510
H11 H 0.82080 0.93800 0.43350
H12 H 0.77820 1.07030 0.34500
C12 C 0.5530(17) 0.716(2) 0.3601(9)
C13 C 0.461(2) 0.523(3) 0.3347(10)
H13 H 0.50770 0.40110 0.30320
C14 C 0.301(2) 0.504(3) 0.3544(11)
H14 H 0.23430 0.38010 0.33380
C15 C 0.250(3) 0.683(3) 0.4070(12)
H15 H 0.14710 0.66630 0.42770
C16 C 0.322(3) 0.859(3) 0.4289(11)
H16 H 0.26900 0.97880 0.45790
C17 C 0.490(2) 0.892(3) 0.4120(11)
H17 H 0.55120 1.02040 0.43420
N1 N 0.6869(16) 0.831(2) 0.1799(7)
O1 O 0.6110(15) 1.0298(18) 0.1972(7)
O2 O 0.8349(16) 0.694(3) -0.1531(7)
O3 O 0.9293(10) 0.463(2) 0.3160(6)
O4 O 0.7857(15) 0.507(2) 0.3673(7)
#END
