
#######################################################################
#
#                 Cambridge Crystallographic Data Centre
#                                CCDC
#
#######################################################################
#
# If this CIF has been generated from an entry in the Cambridge
# Structural Database, then it will include bibliographic, chemical,
# crystal, experimental, refinement or atomic coordinate data resulting
# from the CCDC's data processing and validation procedures.
#
#######################################################################

data_CSD_CIF_BAZPIC
_audit_creation_date 2004-01-20
_audit_creation_method CSD-ConQuest-V1
_database_code_CSD BAZPIC
_database_code_depnum_ccdc_archive 'CCDC 220700'
_chemical_formula_sum 'C8 H11 N3 O2'
_chemical_formula_moiety
;
C8 H11 N3 O2
;
_journal_coden_Cambridge 119
_journal_volume 604
_journal_year 2002
_journal_page_first 73
_journal_name_full 'J.Mol.Struct. '
loop_
_publ_author_name
"O.Ya.Borbulevych"
"R.D.Clark"
"A.Romero"
"Li Tan"
"M.Yu.Antipin"
"V.N.Nesterov"
"B.H.Cardelino"
"C.E.Moore"
"M.Sanghadasa"
"T.V.Timofeeva"
_chemical_name_systematic
;
2-amino-N,N-dimethyl-4-nitroaniline
;
_cell_volume    912.392
_exptl_crystal_density_diffrn 1.319
_diffrn_ambient_temperature 293
#These two values have been output from a single CSD field.
_refine_ls_R_factor_gt 0.0646
_refine_ls_wR_factor_gt 0.0646
_symmetry_cell_setting monoclinic
_symmetry_space_group_name_H-M 'P 21/c'
_symmetry_Int_Tables_number 14
loop_
_symmetry_equiv_pos_site_id
_symmetry_equiv_pos_as_xyz
1 x,y,z
2 x,1/2-y,1/2+z
3 -x,-y,-z
4 -x,-1/2+y,-1/2-z
_cell_length_a 9.411(2)
_cell_length_b 11.054(3)
_cell_length_c 9.487(2)
_cell_angle_alpha 90
_cell_angle_beta 112.41(2)
_cell_angle_gamma 90
_cell_formula_units_Z 4
loop_
_atom_type_symbol
_atom_type_radius_bond
C 0.68
H 0.23
N 0.68
O 0.68
loop_
_atom_site_label
_atom_site_type_symbol
_atom_site_fract_x
_atom_site_fract_y
_atom_site_fract_z
N1 N 0.9025(2) 0.41647(13) 0.27789(15)
N2 N 0.4058(2) 0.3674(2) -0.2861(2)
N3 N 0.8349(2) 0.59633(14) 0.0625(2)
H1 H 0.8682(26) 0.6139(19) 0.1581(29)
H2 H 0.7870(27) 0.6571(24) 0.0020(27)
O1 O 0.3168(2) 0.2819(2) -0.3056(2)
O2 O 0.3933(2) 0.4425(2) -0.3843(2)
C1 C 0.7764(2) 0.39988(14) 0.1390(2)
C2 C 0.7450(2) 0.49335(13) 0.0289(2)
C3 C 0.6246(2) 0.48001(15) -0.1112(2)
H3 H 0.5993(25) 0.5458(22) -0.1905(27)
C4 C 0.5333(2) 0.3776(2) -0.1378(2)
C5 C 0.5567(2) 0.2879(2) -0.0310(2)
H4 H 0.4929(23) 0.2208(21) -0.0524(22)
C6 C 0.6793(2) 0.30002(15) 0.1072(2)
H5 H 0.7007(26) 0.2312(23) 0.1834(26)
C7 C 1.0522(2) 0.4113(2) 0.2656(3)
H6 H 1.1371(34) 0.4369(27) 0.3561(37)
H7 H 1.0527(26) 0.4578(22) 0.1830(28)
H8 H 1.0751(27) 0.3203(23) 0.2478(27)
C8 C 0.9010(3) 0.3470(2) 0.4081(2)
H9 H 0.9845(29) 0.3755(23) 0.4992(29)
H10 H 0.9101(29) 0.2592(31) 0.3958(31)
H11 H 0.8068(27) 0.3588(20) 0.4228(26)
#END
