
#######################################################################
#
#                 Cambridge Crystallographic Data Centre
#                                CCDC
#
#######################################################################
#
# If this CIF has been generated from an entry in the Cambridge
# Structural Database, then it will include bibliographic, chemical,
# crystal, experimental, refinement or atomic coordinate data resulting
# from the CCDC's data processing and validation procedures.
#
#######################################################################

data_CSD_CIF_BAZQOJ
_audit_creation_date 2004-01-20
_audit_creation_method CSD-ConQuest-V1
_database_code_CSD BAZQOJ
_database_code_depnum_ccdc_archive 'CCDC 220706'
_chemical_formula_sum 'C26 H28 N2 O12'
_chemical_formula_moiety
;
C26 H28 N2 O12
;
_journal_coden_Cambridge 1182
_journal_volume 12
_journal_year 2001
_journal_page_first 1131
_journal_name_full 'Chin.Chem.Lett. '
loop_
_publ_author_name
"Zhen Hua Wang"
"Zhao Long Li"
"Xiao Yin Hong"
_chemical_name_systematic
;
diethyl [2,3-di(ethoxycarbonyl)-2,3-di(p-nitrophenyl)]succinate
;
_chemical_melting_point 415
_cell_volume   2774.723
_exptl_crystal_colour 'colorless'
_exptl_crystal_density_diffrn 1.342
_exptl_special_details
;
Melting point range 415-416K

;
_exptl_crystal_description 'prism'
_exptl_crystal_preparation 'methanol'
_diffrn_ambient_temperature 293
#These two values have been output from a single CSD field.
_refine_ls_R_factor_gt 0.0546
_refine_ls_wR_factor_gt 0.0546
_symmetry_cell_setting monoclinic
_symmetry_space_group_name_H-M 'P 21/c'
_symmetry_Int_Tables_number 14
loop_
_symmetry_equiv_pos_site_id
_symmetry_equiv_pos_as_xyz
1 x,y,z
2 -x,1/2+y,1/2-z
3 -x,-y,-z
4 x,-1/2-y,-1/2+z
_cell_length_a 13.561(7)
_cell_length_b 14.614(4)
_cell_length_c 15.148(9)
_cell_angle_alpha 90
_cell_angle_beta 112.44(5)
_cell_angle_gamma 90
_cell_formula_units_Z 4
loop_
_atom_type_symbol
_atom_type_radius_bond
C 0.68
H 0.23
N 0.68
O 0.68
loop_
_atom_site_label
_atom_site_type_symbol
_atom_site_fract_x
_atom_site_fract_y
_atom_site_fract_z
O1 O 0.04430(17) 0.40404(16) 0.29968(18)
O2 O 0.01396(18) 0.25813(17) 0.32671(17)
O3 O 0.03450(17) 0.2914(2) 0.13999(16)
O4 O 0.20097(17) 0.27706(15) 0.14559(15)
O5 O 0.37611(17) 0.42759(16) 0.48510(15)
O6 O 0.21538(19) 0.38010(16) 0.47526(16)
O7 O 0.23254(18) 0.53453(15) 0.33713(16)
O8 O 0.16891(18) 0.46829(16) 0.19343(17)
O9 O 0.4166(3) -0.0869(2) 0.4518(2)
O10 O 0.3776(3) -0.0470(2) 0.5712(2)
O11 O 0.6945(3) 0.3515(3) 0.2604(3)
O12 O 0.7268(2) 0.2492(3) 0.3659(3)
N1 N 0.3727(3) -0.0361(2) 0.4895(3)
N2 N 0.6685(3) 0.3049(3) 0.3134(3)
C1 C 0.1716(2) 0.2945(2) 0.2939(2)
C2 C 0.2588(2) 0.3741(2) 0.3337(2)
C3 C 0.2182(2) 0.2025(2) 0.3414(2)
C4 C 0.2185(3) 0.1810(2) 0.4310(2)
H1 H 0.18490 0.22020 0.45900
C5 C 0.2673(3) 0.1033(2) 0.4793(3)
H2 H 0.26730 0.09030 0.53940
C6 C 0.3162(3) 0.0452(2) 0.4369(3)
C7 C 0.3157(3) 0.0620(2) 0.3480(3)
H3 H 0.34780 0.02150 0.31980
C8 C 0.2663(3) 0.1408(2) 0.3005(2)
H4 H 0.26540 0.15260 0.23990
C9 C 0.3650(2) 0.3517(2) 0.3225(2)
C10 C 0.4374(2) 0.2915(2) 0.3863(2)
H5 H 0.41940 0.26290 0.43290
C11 C 0.5353(3) 0.2736(2) 0.3818(2)
H6 H 0.58280 0.23280 0.42400
C12 C 0.5608(2) 0.3179(2) 0.3130(2)
C13 C 0.4912(3) 0.3757(2) 0.2477(2)
H7 H 0.50950 0.40310 0.20060
C14 C 0.3931(2) 0.3928(2) 0.2529(2)
H8 H 0.34550 0.43240 0.20920
C15 C 0.0674(2) 0.3155(2) 0.3102(2)
C16 C -0.0527(3) 0.4316(3) 0.3113(5)
H9 H -0.10870 0.44120 0.24890
H10 H -0.07550 0.38300 0.34290
C17 C -0.0375(5) 0.5121(5) 0.3652(5)
H11 H -0.10340 0.52930 0.37050
H12 H -0.01480 0.56030 0.33410
H13 H 0.01600 0.50210 0.42780
C18 C 0.1393(3) 0.2877(2) 0.1845(2)
C19 C -0.0080(3) 0.2979(5) 0.0357(3)
H14 H 0.05020 0.29740 0.01330
H15 H -0.05370 0.24580 0.00800
C20 C -0.0685(7) 0.3820(4) 0.0061(4)
H16 H -0.09640 0.38650 -0.06230
H17 H -0.02280 0.43340 0.03330
H18 H -0.12640 0.38190 0.02790
C21 C 0.2791(3) 0.3929(2) 0.4394(2)
C22 C 0.4050(3) 0.4530(3) 0.5844(2)
H19 H 0.34150 0.47110 0.59480
H20 H 0.45330 0.50480 0.59940
C23 C 0.4568(4) 0.3755(3) 0.6477(3)
H21 H 0.47560 0.39350 0.71310
H22 H 0.52010 0.35810 0.63780
H23 H 0.40850 0.32460 0.63350
C24 C 0.2126(2) 0.4637(2) 0.2779(2)
C25 C 0.1931(3) 0.6235(2) 0.2934(3)
H24 H 0.11600 0.62220 0.26090
H25 H 0.22420 0.63900 0.24730
C26 C 0.2252(4) 0.6919(3) 0.3728(3)
H26 H 0.20170 0.75170 0.34720
H27 H 0.30150 0.69180 0.40490
H28 H 0.19320 0.67610 0.41740
#END
