
#######################################################################
#
#                 Cambridge Crystallographic Data Centre
#                                CCDC
#
#######################################################################
#
# If this CIF has been generated from an entry in the Cambridge
# Structural Database, then it will include bibliographic, chemical,
# crystal, experimental, refinement or atomic coordinate data resulting
# from the CCDC's data processing and validation procedures.
#
#######################################################################

data_CSD_CIF_BEBHIC
_audit_creation_date 2017-06-09
_audit_creation_method CSD-ConQuest-V1
_database_code_CSD BEBHIC
_database_code_depnum_ccdc_archive 'CCDC 1490079'
_chemical_formula_sum 'C25 H16 N2 O2'
_chemical_formula_moiety
;
C25 H16 N2 O2
;
_journal_coden_Cambridge 388
_journal_volume 53
_journal_year 2017
_journal_page_first 562
_journal_name_full 'Zh.Org.Khim.(Russ.)(Russ.J.Org.Chem.) '
loop_
_publ_author_name
"V.D.Pak"
"Ya V.Bykov"
"N.N.Yaganova"
"A.A.Gorbunov"
"V.A.Glushkov"
"M.V.Dmitriev"
"P.A.Slepukhin"
_chemical_name_systematic
;
1-(4-nitrophenyl)-3-phenylbenzo[f]quinoline
;
_cell_volume    929.368
_exptl_crystal_colour 'yellow'
_exptl_crystal_density_diffrn 1.345
_exptl_crystal_description 'prism'
_diffrn_ambient_temperature 295
#These two values have been output from a single CSD field.
_refine_ls_R_factor_gt 0.0512
_refine_ls_wR_factor_gt 0.0512
_symmetry_cell_setting triclinic
_symmetry_space_group_name_H-M 'P -1'
_symmetry_Int_Tables_number 2
loop_
_symmetry_equiv_pos_site_id
_symmetry_equiv_pos_as_xyz
1 x,y,z
2 -x,-y,-z
_cell_length_a 8.7263(14)
_cell_length_b 9.7151(13)
_cell_length_c 12.4512(18)
_cell_angle_alpha 69.683(13)
_cell_angle_beta 70.802(14)
_cell_angle_gamma 88.946(12)
_cell_formula_units_Z 2
loop_
_atom_type_symbol
_atom_type_radius_bond
C 0.68
H 0.23
N 0.68
O 0.68
loop_
_atom_site_label
_atom_site_type_symbol
_atom_site_fract_x
_atom_site_fract_y
_atom_site_fract_z
N1 N 0.58132(13) 0.67461(10) 0.02728(9)
C1 C 0.73881(14) 0.46102(12) 0.03316(11)
C2 C 0.65452(15) 0.40020(12) 0.16057(11)
C3 C 0.69031(14) 0.59840(13) -0.02905(11)
C4 C 0.51389(15) 0.61976(12) 0.14752(11)
C5 C 0.39636(15) 0.70738(13) 0.20625(11)
C6 C 0.92205(16) 0.46102(14) -0.16621(12)
C7 C 0.75511(16) 0.66127(14) -0.15887(11)
H1 H 0.72310 0.75070 -0.19920
C8 C 0.67385(16) -0.03557(13) 0.39016(11)
C9 C 0.54778(16) 0.48125(13) 0.21584(11)
H2 H 0.49690 0.44370 0.30010
C10 C 0.86621(15) 0.39557(13) -0.03731(11)
C11 C 0.60198(15) 0.12567(13) 0.22619(11)
H3 H 0.55790 0.14060 0.16490
C12 C 0.66326(15) 0.24665(13) 0.24077(10)
C13 C 0.31062(19) 0.65700(15) 0.33046(13)
H4 H 0.32780 0.56600 0.38040
C14 C 0.60585(16) -0.01630(13) 0.30168(12)
H5 H 0.56330 -0.09710 0.29280
C15 C 0.72465(17) 0.22309(14) 0.33406(12)
H6 H 0.76100 0.30340 0.34690
C16 C 0.36755(18) 0.84471(14) 0.13527(12)
H7 H 0.42280 0.88080 0.05150
N2 N 0.68386(17) -0.18616(14) 0.46850(11)
C17 C 0.86135(17) 0.59389(15) -0.22393(11)
H8 H 0.89640 0.63450 -0.30860
C18 C 1.04051(18) 0.39715(16) -0.23625(13)
H9 H 1.07370 0.43840 -0.32090
C19 C 0.94390(16) 0.27397(14) 0.01396(13)
H10 H 0.91530 0.23260 0.09830
C20 C 0.73254(19) 0.08162(15) 0.40834(12)
H11 H 0.77680 0.06590 0.46960
C21 C 0.2589(2) 0.92825(16) 0.18654(14)
H12 H 0.24300 1.02030 0.13740
O1 O 0.7551(2) -0.20017(14) 0.54011(12)
C22 C 0.1738(2) 0.87634(17) 0.30988(15)
H13 H 0.10000 0.93240 0.34450
O2 O 0.62006(19) -0.29020(12) 0.45892(10)
C23 C 1.05988(17) 0.21551(15) -0.05693(14)
H14 H 1.10710 0.13420 -0.02010
C24 C 0.1995(2) 0.74045(17) 0.38127(14)
H15 H 0.14160 0.70400 0.46470
C25 C 1.10803(19) 0.27584(17) -0.18296(15)
H16 H 1.18540 0.23420 -0.23070
#END
