
#######################################################################
#
#                 Cambridge Crystallographic Data Centre
#                                CCDC
#
#######################################################################
#
# If this CIF has been generated from an entry in the Cambridge
# Structural Database, then it will include bibliographic, chemical,
# crystal, experimental, refinement or atomic coordinate data resulting
# from the CCDC's data processing and validation procedures.
#
#######################################################################

data_CSD_CIF_BEBKUP
_audit_creation_date 2004-01-20
_audit_creation_method CSD-ConQuest-V1
_database_code_CSD BEBKUP
_database_code_depnum_ccdc_archive 'CCDC 226128'
_chemical_formula_sum 'C22 H20 N2 O2'
_chemical_formula_moiety
;
C22 H20 N2 O2
;
_journal_coeditor_code "IUCr FR1427"
_journal_coden_Cambridge 591
_journal_volume 59
_journal_year 2003
_journal_page_first o625
_journal_name_full 'Acta Crystallogr.,Sect.C:Cryst.Struct.Commun. '
loop_
_publ_author_name
"V.V.Nesterov"
"A.Suina"
"M.Yu.Antipin"
"T.V.Timofeeva"
"S.Barlow"
"S.R.Marder"
_chemical_name_systematic
;
N,N-Dimethyl-4-((1E,3E)-4-(4-nitrophenyl)buta-1,3-dienyl)-1-naphthylamine
;
_chemical_melting_point 411
_cell_volume    875.845
_exptl_crystal_colour 'red'
_exptl_crystal_density_diffrn 1.306
_exptl_crystal_description 'prism'
_exptl_crystal_preparation 'ethanol'
_diffrn_ambient_temperature 110
#These two values have been output from a single CSD field.
_refine_ls_R_factor_gt 0.0685
_refine_ls_wR_factor_gt 0.0685
_symmetry_cell_setting triclinic
_symmetry_space_group_name_H-M 'P -1'
_symmetry_Int_Tables_number 2
loop_
_symmetry_equiv_pos_site_id
_symmetry_equiv_pos_as_xyz
1 x,y,z
2 -x,-y,-z
_cell_length_a 6.7383(10)
_cell_length_b 10.3948(16)
_cell_length_c 12.8735(19)
_cell_angle_alpha 79.933(8)
_cell_angle_beta 81.754(8)
_cell_angle_gamma 84.103(8)
_cell_formula_units_Z 2
loop_
_atom_type_symbol
_atom_type_radius_bond
C 0.68
H 0.23
N 0.68
O 0.68
loop_
_atom_site_label
_atom_site_type_symbol
_atom_site_fract_x
_atom_site_fract_y
_atom_site_fract_z
O1 O -1.0384(2) 0.67282(14) -0.04024(12)
O2 O -1.0984(2) 0.85891(14) 0.01712(11)
N1 N 0.7908(2) 0.16723(15) 0.49113(12)
N2 N -0.9982(2) 0.75348(16) 0.01141(12)
C1 C 0.2790(3) 0.33263(17) 0.34026(15)
C2 C 0.3249(3) 0.37768(18) 0.42734(15)
H1 H 0.23800 0.44490 0.45510
C3 C 0.4965(3) 0.32774(18) 0.47693(15)
H2 H 0.52270 0.36130 0.53720
C4 C 0.6256(3) 0.23116(18) 0.43893(14)
C5 C 0.5962(3) 0.18934(17) 0.34257(14)
C6 C 0.7396(3) 0.10256(18) 0.29210(15)
H3 H 0.85780 0.06990 0.32360
C7 C 0.7109(3) 0.06526(19) 0.19927(15)
H4 H 0.80880 0.00720 0.16670
C8 C 0.5366(3) 0.11261(19) 0.15176(15)
H5 H 0.51600 0.08540 0.08770
C9 C 0.3967(3) 0.19763(18) 0.19750(15)
H6 H 0.28040 0.22950 0.16410
C10 C 0.4215(3) 0.23920(17) 0.29347(14)
C11 C 0.0900(3) 0.37378(18) 0.29624(15)
H7 H 0.03670 0.31040 0.26540
C12 C -0.0174(3) 0.48997(18) 0.29400(14)
H8 H 0.02740 0.55570 0.32590
C13 C -0.1990(3) 0.51763(18) 0.24444(14)
H9 H -0.24760 0.44670 0.22070
C14 C -0.3058(3) 0.63355(18) 0.22864(14)
H10 H -0.26200 0.70350 0.25590
C15 C -0.4843(3) 0.66225(17) 0.17299(14)
C16 C -0.5573(3) 0.56818(18) 0.12539(14)
H11 H -0.49020 0.48280 0.12930
C17 C -0.7258(3) 0.59793(18) 0.07281(14)
H12 H -0.77430 0.53400 0.04040
C18 C -0.8219(3) 0.72228(17) 0.06835(14)
C19 C -0.7555(3) 0.81793(18) 0.11390(14)
H13 H -0.82420 0.90280 0.10990
C20 C -0.5856(3) 0.78694(18) 0.16573(14)
H14 H -0.53730 0.85200 0.19690
C21 C 0.8687(3) 0.24241(19) 0.55964(15)
H15 H 0.89620 0.32960 0.52010
H16 H 0.99340 0.19700 0.58300
H17 H 0.76910 0.25120 0.62190
C22 C 0.7447(3) 0.03589(18) 0.54869(16)
H18 H 0.69200 -0.01260 0.50120
H19 H 0.64390 0.04470 0.61050
H20 H 0.86760 -0.01170 0.57260
#END
