
#######################################################################
#
#                 Cambridge Crystallographic Data Centre
#                                CCDC
#
#######################################################################
#
# If this CIF has been generated from an entry in the Cambridge
# Structural Database, then it will include bibliographic, chemical,
# crystal, experimental, refinement or atomic coordinate data resulting
# from the CCDC's data processing and validation procedures.
#
#######################################################################

data_CSD_CIF_BEBWEK
_audit_creation_date 1999-11-19
_audit_creation_method CSD-ConQuest-V1
_database_code_CSD BEBWEK
_database_code_depnum_ccdc_archive 'CCDC 123385'
_chemical_formula_sum 'C11 H9 N1 O5'
_chemical_formula_moiety
;
C11 H9 N1 O5
;
_journal_coden_Cambridge 1277
_journal_volume 101
_journal_year 1997
_journal_page_first 10082
_journal_name_full 'J.Phys.Chem.A '
loop_
_publ_author_name
"H.A.Jimenez-Vazquez"
"M.E.Ochoa"
"G.Zepeda"
"A.Modelli"
"D.Jones"
"J.A.Mendoza"
"J.Tamariz"
_chemical_name_systematic
;
1-Acetylvinyl p-nitrobenzoate
;
_cell_volume    545.915
_exptl_crystal_colour 'colorless'
_exptl_crystal_density_diffrn 1.431
_exptl_crystal_preparation 'hexane/ethyl acetate'
_diffrn_ambient_temperature ?
_diffrn_special_details
;
The study was carried out at room temperature,in the range 283-303K

;
#These two values have been output from a single CSD field.
_refine_ls_R_factor_gt 0.039
_refine_ls_wR_factor_gt 0.039
_symmetry_cell_setting monoclinic
_symmetry_space_group_name_H-M 'P 21'
_symmetry_Int_Tables_number 4
loop_
_symmetry_equiv_pos_site_id
_symmetry_equiv_pos_as_xyz
1 x,y,z
2 -x,1/2+y,-z
_cell_length_a 6.208(1)
_cell_length_b 12.990(2)
_cell_length_c 6.773(1)
_cell_angle_alpha 90
_cell_angle_beta 91.810(1)
_cell_angle_gamma 90
_cell_formula_units_Z 2
loop_
_atom_type_symbol
_atom_type_radius_bond
C 0.68
H 0.23
N 0.68
O 0.68
loop_
_atom_site_label
_atom_site_type_symbol
_atom_site_fract_x
_atom_site_fract_y
_atom_site_fract_z
N1 N 0.6667(6) 0.8446(3) 0.6019(5)
O1 O -0.0844(4) 0.6526(2) -0.2491(4)
O2 O 0.0506(3) 0.5558(2) 0.0806(3)
O3 O 0.3367(4) 0.5524(2) -0.1141(3)
O4 O 0.5839(5) 0.8595(3) 0.7579(4)
O5 O 0.8370(6) 0.8830(3) 0.5572(5)
C1 C -0.2523(6) 0.5095(4) -0.4073(5)
H1 H -0.2803(6) 0.5576(4) -0.5124(5)
H2 H -0.3865(6) 0.4836(4) -0.3610(5)
H3 H -0.1677(6) 0.4534(4) -0.4549(5)
C2 C -0.1318(5) 0.5620(3) -0.2418(4)
C3 C -0.0709(5) 0.5015(3) -0.0618(5)
C4 C -0.1335(7) 0.4083(4) -0.0201(7)
H4 H -0.0971(7) 0.3796(4) 0.1022(7)
H5 H -0.2145(7) 0.3707(4) -0.1126(7)
C5 C 0.2544(5) 0.5810(3) 0.0343(4)
C6 C 0.3591(5) 0.6483(3) 0.1870(4)
C7 C 0.5508(5) 0.6966(3) 0.1409(5)
H6 H 0.6116(5) 0.6853(3) 0.0191(5)
C8 C 0.6506(5) 0.7614(3) 0.2769(5)
H7 H 0.7770(5) 0.7956(3) 0.2466(5)
C9 C 0.5604(5) 0.7748(3) 0.4574(5)
C10 C 0.3722(5) 0.7270(3) 0.5061(5)
H8 H 0.3145(5) 0.7371(3) 0.6296(5)
C11 C 0.2705(5) 0.6641(3) 0.3701(4)
H9 H 0.1418(5) 0.6320(3) 0.4004(4)
#END
