
#######################################################################
#
#                 Cambridge Crystallographic Data Centre
#                                CCDC
#
#######################################################################
#
# If this CIF has been generated from an entry in the Cambridge
# Structural Database, then it will include bibliographic, chemical,
# crystal, experimental, refinement or atomic coordinate data resulting
# from the CCDC's data processing and validation procedures.
#
#######################################################################

data_CSD_CIF_BECJEY
_audit_creation_date 1982-09-17
_audit_creation_method CSD-ConQuest-V1
_database_code_CSD BECJEY
_database_code_depnum_ccdc_archive 'CCDC 1107611'
_chemical_formula_sum 'C6 H12 N2 O4'
_chemical_formula_moiety
;
C6 H12 N2 O4
;
_journal_coden_Cambridge 10
_journal_volume 65
_journal_year 1982
_journal_page_first 137
_journal_name_full 'Helv.Chim.Acta '
loop_
_publ_author_name
"Y.Kai"
"P.Knochel"
"S.Kwiatkowski"
"J.D.Dunitz"
"J.F.M.Oth"
"D.Seebach"
"H.-O.Kalinowski"
_chemical_name_systematic
;
2,3-Dimethyl-2,3-dinitrobutane
;
_cell_volume    409.194
_exptl_crystal_density_diffrn 1.429
_exptl_special_details
;
triclinic polymorph

;
_diffrn_ambient_temperature 95
#These two values have been output from a single CSD field.
_refine_ls_R_factor_gt 0.035
_refine_ls_wR_factor_gt 0.035
_symmetry_cell_setting triclinic
_symmetry_space_group_name_H-M 'P -1'
_symmetry_Int_Tables_number 2
loop_
_symmetry_equiv_pos_site_id
_symmetry_equiv_pos_as_xyz
1 x,y,z
2 -x,-y,-z
_cell_length_a 6.300(5)
_cell_length_b 6.380(3)
_cell_length_c 11.851(9)
_cell_angle_alpha 100.73(6)
_cell_angle_beta 81.00(6)
_cell_angle_gamma 118.72(5)
_cell_formula_units_Z 2
loop_
_atom_type_symbol
_atom_type_radius_bond
C 0.68
H 0.23
N 0.68
O 0.68
loop_
_atom_site_label
_atom_site_type_symbol
_atom_site_fract_x
_atom_site_fract_y
_atom_site_fract_z
O1 O 0.50185 1.16476 0.32953
O2 O 0.67395 0.97793 0.37889
O3 O 0.71196 0.86874 0.12768
O4 O 0.56271 0.49020 0.14047
N1 N 0.50201 0.98018 0.34375
N2 N 0.54229 0.67323 0.14708
C1 C 0.27547 0.73568 0.31602
C2 C 0.29014 0.66083 0.18191
C3 C 0.05502 0.77822 0.35493
C4 C 0.27647 0.55747 0.38480
C5 C 0.27209 0.82851 0.11184
C6 C 0.10023 0.40084 0.15053
H1 H -0.08800 0.63000 0.33700
H2 H 0.05400 0.83300 0.43900
H3 H 0.06200 0.90500 0.31800
H4 H 0.12400 0.40800 0.38100
H5 H 0.40100 0.50900 0.35700
H6 H 0.30000 0.63100 0.46500
H7 H 0.11100 0.80800 0.11800
H8 H 0.30900 0.78800 0.03000
H9 H 0.38000 1.00000 0.13300
H10 H -0.05500 0.38700 0.17000
H11 H 0.11600 0.28200 0.18700
H12 H 0.11200 0.36100 0.06600
#END
