
#######################################################################
#
#                 Cambridge Crystallographic Data Centre
#                                CCDC
#
#######################################################################
#
# If this CIF has been generated from an entry in the Cambridge
# Structural Database, then it will include bibliographic, chemical,
# crystal, experimental, refinement or atomic coordinate data resulting
# from the CCDC's data processing and validation procedures.
#
#######################################################################

data_CSD_CIF_BECZAM
_audit_creation_date 2012-11-16
_audit_creation_method CSD-ConQuest-V1
_database_code_CSD BECZAM
_database_code_depnum_ccdc_archive 'CCDC 696859'
_chemical_formula_sum 'C25 H28 N2 O9'
_chemical_formula_moiety
;
C25 H28 N2 O9
;
_journal_coden_Cambridge 1220
_journal_volume 15
_journal_year 2009
_journal_page_first 2874
_journal_name_full 'Chem.-Eur.J. '
loop_
_publ_author_name
"S.V.Ley"
"M.N.Tackett"
"M.L.Maddess"
"J.C.Anderson"
"P.E.Brennan"
"M.W.Cappi"
"J.P.Heer"
"C.Helgen"
"M.Kori"
"C.Kouklovsky"
"S.P.Marsden"
"J.Norman"
"D.P.Osborn"
"M.A.Palomero"
"J.B.J.Pavey"
"C.Pinel"
"L.A.Robinson"
"J.Schnaubelt"
"J.S.Scott"
"C.D.Spilling"
"H.Watanabe"
"K.E.Wesson"
"M.C.Willis"
_chemical_name_systematic
;
3-Methoxy-5,7-dimethyloct-1-ene-4,8-diyl bis(4-nitrobenzoate)
;
_cell_volume   2514.783
_exptl_crystal_colour 'colorless'
_exptl_crystal_density_diffrn 1.322
_exptl_crystal_description 'block'
_diffrn_ambient_temperature 180
#These two values have been output from a single CSD field.
_refine_ls_R_factor_gt 0.0504
_refine_ls_wR_factor_gt 0.0504
_symmetry_cell_setting orthorhombic
_symmetry_space_group_name_H-M 'P 21 21 21'
_symmetry_Int_Tables_number 19
loop_
_symmetry_equiv_pos_site_id
_symmetry_equiv_pos_as_xyz
1 x,y,z
2 1/2-x,-y,1/2+z
3 1/2+x,1/2-y,-z
4 -x,1/2+y,1/2-z
_cell_length_a 7.8294(1)
_cell_length_b 11.4249(2)
_cell_length_c 28.1138(4)
_cell_angle_alpha 90
_cell_angle_beta 90
_cell_angle_gamma 90
_cell_formula_units_Z 4
loop_
_atom_type_symbol
_atom_type_radius_bond
C 0.68
H 0.23
N 0.68
O 0.68
loop_
_atom_site_label
_atom_site_type_symbol
_atom_site_fract_x
_atom_site_fract_y
_atom_site_fract_z
O1 O 0.4392(6) -0.2927(2) 1.01983(11)
O2 O 0.2618(5) -0.1998(3) 1.06556(9)
O3 O 0.4163(3) 0.16332(19) 0.85847(8)
O4 O 0.2521(3) 0.26021(17) 0.91118(8)
O5 O 0.1666(3) 0.80641(16) 0.83383(6)
O6 O 0.0851(3) 0.88119(18) 0.76300(7)
O7 O -0.2513(4) 1.35291(18) 0.88437(9)
O8 O -0.3220(3) 1.2333(2) 0.94041(7)
O9 O 0.4698(3) 0.8294(2) 0.78992(10)
N1 N 0.3464(5) -0.2087(3) 1.02885(11)
N2 N -0.2488(3) 1.2558(2) 0.90288(9)
C1 C 0.3386(5) -0.1123(2) 0.99440(11)
C2 C 0.2648(5) -0.0088(3) 1.00771(11)
H1 H 0.21650 0.00020 1.03850
C3 C 0.4085(5) -0.1301(3) 0.94958(11)
H2 H 0.45730 -0.20330 0.94110
C4 C 0.2623(4) 0.0822(2) 0.97532(11)
H3 H 0.21220 0.15490 0.98390
C5 C 0.4049(4) -0.0386(3) 0.91779(11)
H4 H 0.45240 -0.04830 0.88690
C6 C 0.3325(4) 0.0680(2) 0.93044(10)
C7 C 0.3393(4) 0.1667(3) 0.89555(10)
C8 C 0.2721(5) 0.3664(2) 0.88352(11)
H5 H 0.21500 0.35790 0.85230
H6 H 0.39470 0.38260 0.87800
C9 C 0.1914(4) 0.4661(2) 0.91146(10)
H7 H 0.06460 0.45570 0.91130
C10 C 0.2534(5) 0.4680(3) 0.96270(11)
H8 H 0.21300 0.39760 0.97920
H9 H 0.20860 0.53770 0.97870
H10 H 0.37850 0.46980 0.96320
C11 C 0.2352(4) 0.5827(2) 0.88712(9)
H11 H 0.36070 0.59310 0.88800
H12 H 0.18400 0.64700 0.90600
C12 C 0.1754(4) 0.5952(2) 0.83529(10)
H13 H 0.22100 0.52630 0.81740
C13 C -0.0194(4) 0.5896(3) 0.83224(11)
H14 H -0.05790 0.51020 0.84000
H15 H -0.05590 0.60970 0.79990
H16 H -0.06920 0.64520 0.85480
C14 C 0.2418(3) 0.7052(2) 0.81038(9)
H17 H 0.20130 0.70380 0.77670
C15 C 0.0929(3) 0.8864(2) 0.80549(9)
C16 C 0.0147(3) 0.9839(2) 0.83364(9)
C17 C -0.0126(4) 1.0905(2) 0.81033(10)
H18 H 0.02740 1.10090 0.77870
C18 C -0.0412(4) 0.9691(2) 0.88031(9)
H19 H -0.01930 0.89770 0.89650
C19 C -0.0973(4) 1.1807(2) 0.83291(10)
H20 H -0.11510 1.25360 0.81740
C20 C -0.1280(4) 1.0574(2) 0.90293(9)
H21 H -0.16850 1.04740 0.93450
C21 C -0.1557(3) 1.1618(2) 0.87879(10)
C22 C 0.4368(4) 0.7192(3) 0.81016(11)
H22 H 0.48130 0.71680 0.84350
C23 C 0.6466(5) 0.8604(4) 0.7924(2)
H23 H 0.66040 0.94310 0.78390
H24 H 0.71190 0.81180 0.77020
H25 H 0.68860 0.84770 0.82490
C24 C 0.5134(5) 0.6203(3) 0.78157(19)
H26 H 0.49880 0.62540 0.74810
C25 C 0.5930(6) 0.5332(5) 0.7960(2)
H27 H 0.61220 0.52270 0.82910
H28 H 0.63480 0.47700 0.77400
#END
