
#######################################################################
#
#                 Cambridge Crystallographic Data Centre
#                                CCDC
#
#######################################################################
#
# If this CIF has been generated from an entry in the Cambridge
# Structural Database, then it will include bibliographic, chemical,
# crystal, experimental, refinement or atomic coordinate data resulting
# from the CCDC's data processing and validation procedures.
#
#######################################################################

data_CSD_CIF_BEDWOX
_audit_creation_date 2004-03-11
_audit_creation_method CSD-ConQuest-V1
_database_code_CSD BEDWOX
_database_code_depnum_ccdc_archive 'CCDC 212029'
_chemical_formula_sum 'C10 H6 N2 O4'
_chemical_formula_moiety
;
C10 H6 N2 O4
;
_journal_coden_Cambridge 392
_journal_volume 60
_journal_year 2003
_journal_page_first 2305
_journal_name_full 'Heterocycles '
loop_
_publ_author_name
"L.Fruk"
"D.Graham"
_chemical_name_systematic
;
N-(4-Nitrophenyl)maleimide
;
_chemical_melting_point 435.15
_cell_volume    939.462
_exptl_crystal_colour 'colorless'
_exptl_crystal_density_diffrn 1.542
_exptl_special_details
;
Melting point range 435.15-437.15K

;
_exptl_crystal_description 'prism'
_exptl_crystal_preparation 'methanol'
_diffrn_ambient_temperature 295
#These two values have been output from a single CSD field.
_refine_ls_R_factor_gt 0.0426
_refine_ls_wR_factor_gt 0.0426
_symmetry_cell_setting monoclinic
_symmetry_space_group_name_H-M 'C 2/c'
_symmetry_Int_Tables_number 15
loop_
_symmetry_equiv_pos_site_id
_symmetry_equiv_pos_as_xyz
1 x,y,z
2 1/2+x,1/2+y,z
3 -x,y,1/2-z
4 1/2-x,1/2+y,1/2-z
5 -x,-y,-z
6 -1/2-x,-1/2-y,-z
7 x,-y,-1/2+z
8 -1/2+x,-1/2-y,-1/2+z
_cell_length_a 10.5370(4)
_cell_length_b 11.6266(4)
_cell_length_c 8.1443(3)
_cell_angle_alpha 90
_cell_angle_beta 109.682(2)
_cell_angle_gamma 90
_cell_formula_units_Z 4
loop_
_atom_type_symbol
_atom_type_radius_bond
C 0.68
H 0.23
N 0.68
O 0.68
loop_
_atom_site_label
_atom_site_type_symbol
_atom_site_fract_x
_atom_site_fract_y
_atom_site_fract_z
O1 O 0.06491(12) 0.17825(9) -0.11580(16)
O2 O 0.22594(10) 0.74647(10) -0.20199(16)
N1 N 0.00000 0.22863(15) -0.25000
N2 N 0.00000 0.71145(14) -0.25000
C1 C 0.00000 0.35414(17) -0.25000
C2 C 0.10221(13) 0.41146(13) -0.12584(19)
H1 H 0.17030 0.37090 -0.04310
C3 C 0.10198(13) 0.52983(11) -0.12622(19)
H2 H 0.17030 0.57000 -0.04330
C4 C 0.00000 0.58919(17) -0.25000
C5 C 0.11368(16) 0.78108(14) -0.22705(19)
C6 C 0.06432(15) 0.90121(15) -0.2383(2)
H3 H 0.11700 0.96660 -0.23000
O1B O -0.06491(12) 0.17825(9) -0.38420(16)
C6B C -0.06432(15) 0.90121(15) -0.2617(2)
C5B C -0.11368(16) 0.78108(14) -0.27295(19)
O2B O -0.22594(10) 0.74647(10) -0.29801(16)
H3B H -0.11700 0.96660 -0.27000
C3B C -0.10198(13) 0.52983(11) -0.37378(19)
C2B C -0.10221(13) 0.41146(13) -0.37416(19)
H1B H -0.17030 0.37090 -0.45690
H2B H -0.17030 0.57000 -0.45670
#END
