
#######################################################################
#
#                 Cambridge Crystallographic Data Centre
#                                CCDC
#
#######################################################################
#
# If this CIF has been generated from an entry in the Cambridge
# Structural Database, then it will include bibliographic, chemical,
# crystal, experimental, refinement or atomic coordinate data resulting
# from the CCDC's data processing and validation procedures.
#
#######################################################################

data_CSD_CIF_BEFRAG
_audit_creation_date 2004-03-11
_audit_creation_method CSD-ConQuest-V1
_database_code_CSD BEFRAG
_database_code_depnum_ccdc_archive 'CCDC 224740'
_chemical_formula_sum 'C23 H35 N1 O5'
_chemical_formula_moiety
;
C23 H35 N1 O5
;
_journal_coden_Cambridge 1336
_journal_volume 5
_journal_year 2003
_journal_page_first 4081
_journal_name_full 'Org.Lett. '
loop_
_publ_author_name
"S.K.Patel"
"K.Murat"
"S.Py"
"Y.Vallee"
_chemical_name_systematic
;
6-(1-benzyloxymethyl-2-methylpropyl)-7-isobutyl-2,2-dimethyl-tetrahydro-1,3,5-
trioxa-6-aza-inden-4-one
;
_chemical_melting_point 358.15
_cell_volume   1187.318
_exptl_crystal_colour 'colorless'
_exptl_crystal_density_diffrn 1.126
_exptl_special_details
;
Melting point range 358.15-359.15K

;
_exptl_crystal_description 'prism'
_exptl_crystal_preparation 'ethyl acetate/pentane'
_diffrn_ambient_temperature 293
#These two values have been output from a single CSD field.
_refine_ls_R_factor_gt 0.0569
_refine_ls_wR_factor_gt 0.0569
_symmetry_cell_setting monoclinic
_symmetry_space_group_name_H-M 'P 21'
_symmetry_Int_Tables_number 4
loop_
_symmetry_equiv_pos_site_id
_symmetry_equiv_pos_as_xyz
1 x,y,z
2 -x,1/2+y,-z
_cell_length_a 9.570(2)
_cell_length_b 10.258(3)
_cell_length_c 12.102(3)
_cell_angle_alpha 90
_cell_angle_beta 92.00(2)
_cell_angle_gamma 90
_cell_formula_units_Z 2
loop_
_atom_type_symbol
_atom_type_radius_bond
C 0.68
H 0.23
N 0.68
O 0.68
loop_
_atom_site_label
_atom_site_type_symbol
_atom_site_fract_x
_atom_site_fract_y
_atom_site_fract_z
O1 O 0.2954(2) 0.25900 1.1101(1)
O2 O 0.0726(2) 0.3117(3) 1.1536(1)
O3 O -0.0751(2) 0.1136(2) 1.0469(2)
O4 O 0.0326(1) 0.14440 0.8935(1)
O5 O 0.2921(2) 0.0011(2) 0.7600(1)
N1 N 0.1333(1) 0.2301(2) 0.8409(1)
C1 C 0.5668(2) 0.1540(3) 0.9735(3)
C2 C 0.6371(2) 0.3509(5) 0.8676(3)
C3 C 0.5218(2) 0.2878(2) 0.9282(2)
C4 C 0.3894(2) 0.2788(2) 0.8549(2)
C5 C 0.2631(2) 0.2255(2) 0.9121(1)
C6 C 0.2275(2) 0.3088(2) 1.0114(2)
C7 C 0.0732(2) 0.3037(2) 1.0384(2)
C8 C 0.0032(2) 0.1795(2) 0.9965(2)
C9 C 0.2107(3) 0.2902(3) 1.2003(2)
C10 C 0.2556(4) 0.4148(4) 1.2568(3)
C11 C 0.2115(7) 0.1745(6) 1.2743(4)
C12 C 0.1354(2) 0.1804(3) 0.7269(2)
C13 C 0.1558(2) 0.03350 0.7172(2)
C14 C 0.3113(3) -0.1352(3) 0.7737(2)
C15 C 0.3342(3) -0.2072(3) 0.6695(2)
C16 C 0.3798(3) -0.1430(4) 0.5761(3)
C17 C 0.4067(4) -0.2130(7) 0.4815(3)
C18 C 0.3909(5) -0.3445(6) 0.4794(5)
C19 C 0.3440(5) -0.4074(5) 0.5716(5)
C20 C 0.3152(4) -0.3410(4) 0.6659(4)
C21 C 0.0024(2) 0.2254(3) 0.6610(2)
C22 C 0.0132(4) 0.2051(7) 0.5397(2)
C23 C -0.0300(4) 0.3683(4) 0.6816(3)
H1? H 0.50240 0.34180 0.98950
H2 H 0.58230 0.09670 0.91390
H3 H 0.65030 0.16270 1.01850
H4 H 0.49490 0.11940 1.01680
H5 H 0.71930 0.35470 0.91460
H6 H 0.60970 0.43670 0.84630
H7 H 0.65490 0.30120 0.80360
H8 H 0.50240 0.34180 0.98950
H9 H 0.36700 0.36370 0.82830
H10 H 0.40740 0.22330 0.79440
H11 H 0.25520 0.39650 1.00000
H12 H 0.02580 0.37700 1.00650
H13 H 0.34810 0.40510 1.28790
H14 H 0.19400 0.43410 1.31380
H15 H 0.25340 0.48380 1.20440
H16 H 0.17650 0.10100 1.23400
H17 H 0.30410 0.15760 1.30190
H18 H 0.15340 0.19110 1.33450
H19 H 0.21250 0.22050 0.69370
H20 H 0.14580 0.00820 0.64160
H21 H 0.08800 -0.01060 0.75820
H22 H 0.23020 -0.16980 0.80540
H23 H 0.39030 -0.14880 0.82290
H24 H 0.39240 -0.05110 0.57740
H25 H 0.43630 -0.16860 0.41780
H26 H 0.41170 -0.39290 0.41540
H27 H 0.33100 -0.49920 0.56940
H28 H 0.28240 -0.38620 0.72800
H29 H -0.07400 0.17510 0.68450
H30 H -0.03970 0.38200 0.75830
H31 H 0.04430 0.42060 0.65680
H32 H -0.11450 0.39140 0.64200
H33 H -0.07240 0.22960 0.50230
H34 H 0.08700 0.25690 0.51380
H35 H 0.03150 0.11580 0.52570
H36 H 0.28100 0.13840 0.93540
#END
