
#######################################################################
#
#                 Cambridge Crystallographic Data Centre
#                                CCDC
#
#######################################################################
#
# If this CIF has been generated from an entry in the Cambridge
# Structural Database, then it will include bibliographic, chemical,
# crystal, experimental, refinement or atomic coordinate data resulting
# from the CCDC's data processing and validation procedures.
#
#######################################################################

data_CSD_CIF_BEFXEQ
_audit_creation_date 2004-03-11
_audit_creation_method CSD-ConQuest-V1
_database_code_CSD BEFXEQ
_database_code_depnum_ccdc_archive 'CCDC 200338'
_chemical_formula_sum 'C13 H10 N4 O3'
_chemical_formula_moiety
;
C13 H10 N4 O3
;
_journal_coden_Cambridge 16
_journal_volume 59
_journal_year 2003
_journal_page_first 4103
_journal_name_full 'Tetrahedron '
loop_
_publ_author_name
"Mei-Hsiu Shih"
"Mou-Yung Yeh"
_chemical_name_systematic
;
2-Cyano-3-(3-(4-methylphenyl)sydnon-4-yl)acrylamide
;
_chemical_melting_point 455
_cell_volume   1287.692
_exptl_crystal_colour 'yellow'
_exptl_crystal_density_diffrn 1.394
_exptl_special_details
;
Melting point range 455-456K
48% void space in the structure. Coordinates have been deposited for only one 
of the two independent molecules in the unit cell
;
_exptl_crystal_description 'prism'
_exptl_crystal_preparation 'dichloromethane/ethanol'
_diffrn_ambient_temperature 298
_refine_special_details
;
Large void space, due to missing coordinates.

;
#These two values have been output from a single CSD field.
_refine_ls_R_factor_gt 0.041
_refine_ls_wR_factor_gt 0.041
_symmetry_cell_setting triclinic
_symmetry_space_group_name_H-M 'P -1'
_symmetry_Int_Tables_number 2
loop_
_symmetry_equiv_pos_site_id
_symmetry_equiv_pos_as_xyz
1 x,y,z
2 -x,-y,-z
_cell_length_a 11.066(2)
_cell_length_b 11.956(2)
_cell_length_c 11.970(2)
_cell_angle_alpha 114.36(1)
_cell_angle_beta 113.63(2)
_cell_angle_gamma 91.31(2)
_cell_formula_units_Z 4
loop_
_atom_type_symbol
_atom_type_radius_bond
C 0.68
N 0.68
O 0.68
loop_
_atom_site_label
_atom_site_type_symbol
_atom_site_fract_x
_atom_site_fract_y
_atom_site_fract_z
O1 O 0.6750(1) 0.3791(1) 0.5461(1)
O2 O 0.6526(1) 0.5524(1) 0.7071(1)
O3 O 0.5387(1) 0.8478(1) 0.4383(1)
N1 N 0.6645(1) 0.4424(1) 0.4019(1)
N2 N 0.6743(2) 0.3426(1) 0.4211(2)
N3 N 0.7904(2) 0.8426(2) 0.8555(2)
N4 N 0.5729(2) 0.9684(1) 0.6550(1)
C1 C 0.6655(2) 0.5061(2) 0.6033(2)
C2 C 0.6635(2) 0.5464(1) 0.5068(2)
C3 C 0.6506(2) 0.4301(2) 0.2721(2)
C4 C 0.7440(2) 0.5059(2) 0.2703(2)
C5 C 0.7276(2) 0.4923(2) 0.1439(2)
C6 C 0.6215(2) 0.4039(2) 0.0221(2)
C7 C 0.5292(2) 0.3298(2) 0.0293(2)
C8 C 0.5418(2) 0.3420(2) 0.1534(2)
C9 C 0.6067(2) 0.3873(2) -0.1143(2)
C10 C 0.6305(2) 0.6572(1) 0.4958(2)
C11 C 0.6442(2) 0.7703(1) 0.5978(2)
C12 C 0.7223(2) 0.8060(2) 0.7405(2)
C13 C 0.5807(2) 0.8664(2) 0.5573(2)
#END
