
#######################################################################
#
#                 Cambridge Crystallographic Data Centre
#                                CCDC
#
#######################################################################
#
# If this CIF has been generated from an entry in the Cambridge
# Structural Database, then it will include bibliographic, chemical,
# crystal, experimental, refinement or atomic coordinate data resulting
# from the CCDC's data processing and validation procedures.
#
#######################################################################

data_CSD_CIF_BEFXAM
_audit_creation_date 2004-03-11
_audit_creation_method CSD-ConQuest-V1
_database_code_CSD BEFXAM
_database_code_depnum_ccdc_archive 'CCDC 200337'
_chemical_formula_sum 'C16 H15 N3 O5'
_chemical_formula_moiety
;
C16 H15 N3 O5
;
_journal_coden_Cambridge 16
_journal_volume 59
_journal_year 2003
_journal_page_first 4103
_journal_name_full 'Tetrahedron '
loop_
_publ_author_name
"Mei-Hsiu Shih"
"Mou-Yung Yeh"
_chemical_name_systematic
;
2-Cyano-3-(3-(4-ethoxyphenyl)sydnon-4-yl)acrylic acid ethyl ester
;
_chemical_melting_point 395.15
_cell_volume   3322.573
_exptl_crystal_colour 'yellow'
_exptl_crystal_density_diffrn 1.317
_exptl_special_details
;
Melting point range 395.15-396.15K

;
_exptl_crystal_description 'prism'
_exptl_crystal_preparation 'dichloromethane/ethanol'
_diffrn_ambient_temperature 298
#These two values have been output from a single CSD field.
_refine_ls_R_factor_gt 0.043
_refine_ls_wR_factor_gt 0.043
_symmetry_cell_setting monoclinic
_symmetry_space_group_name_H-M 'C 2/c'
_symmetry_Int_Tables_number 15
loop_
_symmetry_equiv_pos_site_id
_symmetry_equiv_pos_as_xyz
1 x,y,z
2 -x,y,1/2-z
3 1/2+x,1/2+y,z
4 1/2-x,1/2+y,1/2-z
5 -x,-y,-z
6 x,-y,-1/2+z
7 -1/2-x,-1/2-y,-z
8 -1/2+x,-1/2-y,-1/2+z
_cell_length_a 16.537(4)
_cell_length_b 25.470(2)
_cell_length_c 7.920(3)
_cell_angle_alpha 90
_cell_angle_beta 95.12(3)
_cell_angle_gamma 90
_cell_formula_units_Z 8
loop_
_atom_type_symbol
_atom_type_radius_bond
C 0.68
N 0.68
O 0.68
loop_
_atom_site_label
_atom_site_type_symbol
_atom_site_fract_x
_atom_site_fract_y
_atom_site_fract_z
O1 O 0.2238(2) 0.2393(2) 0.3213(5)
O2 O 0.2540(3) 0.3168(2) 0.1988(6)
O3 O -0.0845(2) 0.0548(1) -0.0906(5)
O4 O 0.0831(3) 0.2971(2) -0.4298(6)
O5 O 0.1123(3) 0.3816(2) -0.3656(5)
N1 N 0.1333(3) 0.2088(2) 0.1424(6)
N2 N 0.1740(3) 0.1969(2) 0.2865(6)
N3 N 0.1535(5) 0.4050(2) 0.0280(8)
C1 C 0.2120(4) 0.2777(3) 0.1955(9)
C2 C 0.1502(3) 0.2573(2) 0.0774(8)
C3 C 0.0756(3) 0.1698(2) 0.0749(6)
C4 C 0.0003(3) 0.1845(2) 0.0094(6)
C5 C -0.0549(3) 0.1473(2) -0.0500(6)
C6 C -0.0345(3) 0.0944(2) -0.0394(7)
C7 C 0.0420(3) 0.0804(2) 0.0287(7)
C8 C 0.0980(3) 0.1171(2) 0.0853(7)
C9 C -0.1645(3) 0.0668(2) -0.1640(7)
C10 C -0.2025(3) 0.0158(2) -0.2236(8)
C11 C 0.1230(3) 0.2735(2) -0.0856(7)
C12 C 0.1258(3) 0.3227(2) -0.1478(8)
C13 C 0.1401(5) 0.3690(2) -0.0494(9)
C14 C 0.1030(4) 0.3298(3) -0.3271(9)
C15 C 0.0944(5) 0.3947(3) -0.5491(9)
C16 C 0.0890(5) 0.4523(3) -0.557(1)
#END
