
#######################################################################
#
#                 Cambridge Crystallographic Data Centre
#                                CCDC
#
#######################################################################
#
# If this CIF has been generated from an entry in the Cambridge
# Structural Database, then it will include bibliographic, chemical,
# crystal, experimental, refinement or atomic coordinate data resulting
# from the CCDC's data processing and validation procedures.
#
#######################################################################

data_CSD_CIF_BEGHIG
_audit_creation_date 2013-02-22
_audit_creation_method CSD-ConQuest-V1
_database_code_CSD BEGHIG
_database_code_depnum_ccdc_archive 'CCDC 890179'
_chemical_formula_sum 'C29 H30 N2 O9'
_chemical_formula_moiety
;
C29 H30 N2 O9
;
_journal_coden_Cambridge 1336
_journal_volume 14
_journal_year 2012
_journal_page_first 4035
_journal_name_full 'Org.Lett. '
loop_
_publ_author_name
"L.F.Tietze"
"T.Wolfram"
"J.J.Holstein"
"B.Dittrich"
_chemical_name_systematic
;
(R,R)-3-(1,2-Diphenylethoxy)-6-methoxy-3-methyl-6-oxohexyl 3,5-dinitrobenzoate
;
_cell_volume   1336.038
_exptl_crystal_colour 'colorless'
_exptl_crystal_density_diffrn 1.369
_exptl_special_details
;
Absolute configuration

;
_exptl_crystal_description 'block'
_diffrn_ambient_temperature 100
_refine_special_details
;
C40A,C5A,C6A,O8A,O9A and C40B,C5B,C6B,O8B,O9B disordered over two sites with 
occupancies 0.558:0.442.
;
#These two values have been output from a single CSD field.
_refine_ls_R_factor_gt 0.0364
_refine_ls_wR_factor_gt 0.0364
_symmetry_cell_setting monoclinic
_symmetry_space_group_name_H-M 'P 21'
_symmetry_Int_Tables_number 4
loop_
_symmetry_equiv_pos_site_id
_symmetry_equiv_pos_as_xyz
1 x,y,z
2 -x,1/2+y,-z
_cell_length_a 6.8209(2)
_cell_length_b 27.0063(8)
_cell_length_c 7.7986(2)
_cell_angle_alpha 90
_cell_angle_beta 111.561(1)
_cell_angle_gamma 90
_cell_formula_units_Z 2
loop_
_atom_type_symbol
_atom_type_radius_bond
C 0.68
H 0.23
N 0.68
O 0.68
loop_
_atom_site_label
_atom_site_type_symbol
_atom_site_fract_x
_atom_site_fract_y
_atom_site_fract_z
O1 O 0.2527(2) 0.98903(5) -0.2024(2)
C1 C 0.2578(3) 0.94067(8) -0.1183(3)
H1 H 0.33010 0.94310 0.01710
H2 H 0.33660 0.91690 -0.16540
O2 O 0.6066(2) 0.98930(6) -0.0778(2)
C2 C 0.0342(3) 0.92275(8) -0.1648(3)
H3 H -0.03540 0.91990 -0.30040
H4 H -0.04450 0.94750 -0.12200
C3 C 0.0243(3) 0.87262(8) -0.0766(3)
O3 O -0.1122(4) 1.11791(10) -0.6239(4)
N1 N 0.8077(4) 1.15602(11) -0.2760(5)
O4 O 0.7958(4) 1.19537(12) -0.3562(6)
O5 O 0.0583(3) 1.17631(7) -0.6960(3)
C4 C 0.1674(4) 0.83487(8) -0.1189(3)
H5 H 0.31710 0.84410 -0.05460
H6 H 0.13720 0.83390 -0.25300
N2 N 0.0497(4) 1.14000(8) -0.6067(3)
O6 O 0.9715(3) 1.13746(10) -0.1694(5)
C5 C -0.0115(3) 0.89864(7) 0.2156(3)
H7 H -0.11820 0.92140 0.12920
O7 O 0.1173(2) 0.87819(5) 0.12417(19)
C6 C 0.1331(4) 0.92837(8) 0.3812(3)
H8 H 0.04780 0.94110 0.45050
H9 H 0.24020 0.90560 0.46400
C7 C -0.2042(3) 0.85511(8) -0.1427(3)
H10 H -0.29300 0.88170 -0.12550
H11 H -0.21430 0.82600 -0.07140
H12 H -0.25190 0.84640 -0.27370
C8 C 0.4430(3) 1.00887(8) -0.1687(3)
C9 C 0.6171(4) 1.08414(9) -0.2229(4)
H13 H 0.74700 1.07150 -0.13950
C10 C 0.6107(4) 1.12848(9) -0.3115(4)
C11 C 0.4274(4) 1.14795(8) -0.4382(3)
H14 H 0.42640 1.17820 -0.50090
C12 C 0.2466(4) 1.12114(8) -0.4682(3)
C13 C 0.2427(3) 1.07703(8) -0.3809(3)
H15 H 0.11380 1.05990 -0.40490
C14 C -0.1237(3) 0.85878(7) 0.2797(3)
C15 C -0.0255(4) 0.81397(9) 0.3507(4)
H16 H 0.11380 0.80790 0.35610
C16 C -0.1282(4) 0.77825(9) 0.4133(4)
H17 H -0.06040 0.74760 0.45850
C17 C -0.3296(4) 0.78694(9) 0.4102(4)
H18 H -0.40010 0.76250 0.45390
C18 C -0.4272(3) 0.83166(9) 0.3428(3)
H19 H -0.56530 0.83790 0.34020
C19 C -0.3247(3) 0.86707(8) 0.2793(3)
H20 H -0.39290 0.89770 0.23450
C20 C 0.2448(4) 0.97119(8) 0.3343(3)
C21 C 0.4643(4) 0.97485(9) 0.4109(3)
H21 H 0.54340 0.95000 0.49350
C22 C 0.5684(4) 1.01436(10) 0.3682(4)
H22 H 0.71780 1.01630 0.42180
C23 C 0.4556(4) 1.05099(9) 0.2477(4)
H23 H 0.52700 1.07770 0.21680
C24 C 0.2378(4) 1.04823(9) 0.1731(3)
H24 H 0.15930 1.07330 0.09120
C25 C 0.1333(4) 1.00904(8) 0.2171(3)
H25 H -0.01640 1.00800 0.16670
C26 C 0.4305(3) 1.05816(8) -0.2573(3)
C27 C 0.1709(19) 0.7810(3) -0.070(2)
H26 H 0.03040 0.76630 -0.13720
H27 H 0.20140 0.77770 0.06370
C28 C 0.3351(12) 0.7531(3) -0.1187(16)
O8 O 0.4128(5) 0.71616(12) 0.0009(5)
O9 O 0.3920(7) 0.76266(14) -0.2446(8)
C29 C 0.5724(8) 0.68789(18) -0.0349(7)
H28 H 0.51430 0.67440 -0.16020
H29 H 0.61910 0.66070 0.05400
H30 H 0.69260 0.70940 -0.02290
C30? C 0.5645(10) 0.7197(2) -0.1292(9)
C31? C 0.123(3) 0.7828(4) -0.050(3)
C32? C 0.2898(10) 0.7433(2) -0.0314(10)
H31? H 0.66620 0.71780 -0.00210
H32? H 0.63680 0.73050 -0.21050
H33? H 0.50160 0.68700 -0.16840
H34? H 0.10970 0.78710 0.07140
H35? H -0.01460 0.77050 -0.13710
O10? O 0.4000(12) 0.7550(3) -0.1388(16)
O11? O 0.3251(8) 0.70714(15) 0.0664(7)
#END
