
#######################################################################
#
#                 Cambridge Crystallographic Data Centre
#                                CCDC
#
#######################################################################
#
# If this CIF has been generated from an entry in the Cambridge
# Structural Database, then it will include bibliographic, chemical,
# crystal, experimental, refinement or atomic coordinate data resulting
# from the CCDC's data processing and validation procedures.
#
#######################################################################

data_CSD_CIF_BEGLAA01
_audit_creation_date 1999-11-19
_audit_creation_method CSD-ConQuest-V1
_database_code_CSD BEGLAA01
_database_code_depnum_ccdc_archive 'CCDC 112573'
_chemical_formula_sum 'C16 H11 N5 O1'
_chemical_formula_moiety
;
C16 H11 N5 O1
;
_journal_coden_Cambridge 1291
_journal_year 1999
_journal_page_first 2119
_journal_name_full 'Eur.J.Org.Chem. '
loop_
_publ_author_name
"E.Csikos"
"G.G.Ferenczy"
"J.G.Angyan"
"Z.Bocskei"
"K.Simon"
"C.Gonczi"
"I.Hermecz"
_chemical_name_systematic
;
2(1H)-Quinoxalone O-(2'-quinoxalinyl)oxime
;
_chemical_name_common
;
N-(2-Quinoxalinyl)-O-(2'-quinoxalinyl)hydroxylamine
;
_chemical_melting_point 423.15
_cell_volume   1364.324
_exptl_crystal_colour 'orange'
_exptl_crystal_density_diffrn 1.408
_exptl_special_details
;
polymorph B

;
_exptl_crystal_description 'plate'
_exptl_crystal_preparation 'ethanol'
_diffrn_ambient_temperature ?
_diffrn_special_details
;
The study was carried out at room temperature,in the range 283-303K

;
#These two values have been output from a single CSD field.
_refine_ls_R_factor_gt 0.0545
_refine_ls_wR_factor_gt 0.0545
_symmetry_cell_setting monoclinic
_symmetry_space_group_name_H-M 'P 21/n'
_symmetry_Int_Tables_number 14
loop_
_symmetry_equiv_pos_site_id
_symmetry_equiv_pos_as_xyz
1 x,y,z
2 1/2+x,1/2-y,1/2+z
3 -x,-y,-z
4 -1/2-x,-1/2+y,-1/2-z
_cell_length_a 8.665(5)
_cell_length_b 14.780(15)
_cell_length_c 11.392(3)
_cell_angle_alpha 90
_cell_angle_beta 110.75(3)
_cell_angle_gamma 90
_cell_formula_units_Z 4
loop_
_atom_type_symbol
_atom_type_radius_bond
C 0.68
H 0.23
N 0.68
O 0.68
loop_
_atom_site_label
_atom_site_type_symbol
_atom_site_fract_x
_atom_site_fract_y
_atom_site_fract_z
N1 N 0.1810(4) 0.4684(2) 0.3785(3)
C1 C 0.0668(5) 0.5283(2) 0.3401(3)
C2 C -0.0557(5) 0.5298(3) 0.2179(4)
H1 H -0.13430 0.57560 0.19710
N2 N -0.0607(4) 0.4692(2) 0.1350(3)
C3 C 0.0581(5) 0.4034(3) 0.1712(4)
C4 C 0.0596(6) 0.3352(3) 0.0854(4)
H2 H -0.01970 0.33520 0.00500
C5 C 0.1758(6) 0.2697(3) 0.1193(5)
H3 H 0.17560 0.22460 0.06230
C6 C 0.2959(6) 0.2692(3) 0.2390(5)
H4 H 0.37540 0.22380 0.26110
C7 C 0.2983(6) 0.3346(3) 0.3242(4)
H5 H 0.37950 0.33390 0.40370
C8 C 0.1783(5) 0.4025(3) 0.2916(4)
O1 O 0.0527(3) 0.59820(17) 0.4153(2)
N3 N 0.0359(4) 0.7333(2) 0.5513(3)
H6 H -0.03220 0.72970 0.47520
C9 C 0.1498(4) 0.6676(2) 0.5959(3)
C10 C 0.2644(5) 0.6796(3) 0.7244(3)
H7 H 0.34510 0.63560 0.75700
N4 N 0.2619(4) 0.7464(2) 0.7959(3)
C11 C 0.1391(4) 0.8122(2) 0.7477(3)
C12 C 0.1307(5) 0.8849(3) 0.8238(4)
H8 H 0.20630 0.88910 0.90530
C13 C 0.0124(5) 0.9494(3) 0.7791(4)
H9 H 0.00580 0.99690 0.83060
C14 C -0.0987(6) 0.9443(3) 0.6564(4)
H10 H -0.17850 0.98910 0.62610
C15 C -0.0921(5) 0.8742(3) 0.5797(4)
H11 H -0.16620 0.87200 0.49750
C16 C 0.0251(4) 0.8065(2) 0.6246(3)
N5 N 0.1739(4) 0.5954(2) 0.5377(3)
#END
