
#######################################################################
#
#                 Cambridge Crystallographic Data Centre
#                                CCDC
#
#######################################################################
#
# If this CIF has been generated from an entry in the Cambridge
# Structural Database, then it will include bibliographic, chemical,
# crystal, experimental, refinement or atomic coordinate data resulting
# from the CCDC's data processing and validation procedures.
#
#######################################################################

data_CSD_CIF_BEHNEI
_audit_creation_date 2004-03-11
_audit_creation_method CSD-ConQuest-V1
_database_code_CSD BEHNEI
_database_code_depnum_ccdc_archive 'CCDC 226329'
_chemical_formula_sum 'C20 H28 N2 O5'
_chemical_formula_moiety
;
C20 H28 N2 O5
;
_journal_coden_Cambridge 4
_journal_volume 125
_journal_year 2003
_journal_page_first 14149
_journal_name_full 'J.Am.Chem.Soc. '
loop_
_publ_author_name
"D.M.Smith"
"M.B.Tran"
"K.A.Woerpel"
_chemical_name_systematic
;
3-(9-Oxabicyclo(6.3.0)undecan-10-yl)propyl N-(4-nitrophenyl)carbamate
;
_cell_volume    970.331
_exptl_crystal_colour 'colorless'
_exptl_crystal_density_diffrn 1.288
_exptl_crystal_description 'multi-faceted-polyhedra'
_diffrn_ambient_temperature 163
#These two values have been output from a single CSD field.
_refine_ls_R_factor_gt 0.0522
_refine_ls_wR_factor_gt 0.0522
_symmetry_cell_setting triclinic
_symmetry_space_group_name_H-M 'P -1'
_symmetry_Int_Tables_number 2
loop_
_symmetry_equiv_pos_site_id
_symmetry_equiv_pos_as_xyz
1 x,y,z
2 -x,-y,-z
_cell_length_a 6.1314(3)
_cell_length_b 12.8797(7)
_cell_length_c 13.1406(7)
_cell_angle_alpha 98.324(1)
_cell_angle_beta 103.448(1)
_cell_angle_gamma 101.176(1)
_cell_formula_units_Z 2
loop_
_atom_type_symbol
_atom_type_radius_bond
C 0.68
H 0.23
N 0.68
O 0.68
loop_
_atom_site_label
_atom_site_type_symbol
_atom_site_fract_x
_atom_site_fract_y
_atom_site_fract_z
O1 O -0.4247(2) 0.22884(10) 0.27545(10)
O2 O 0.2986(2) 0.42664(11) 0.30462(11)
O3 O 0.1447(3) 0.49168(12) 0.15984(11)
O4 O 0.3280(3) 0.34153(15) -0.33662(12)
O5 O 0.5749(3) 0.24669(14) -0.29066(13)
N1 N 0.3709(3) 0.36897(14) 0.15211(14)
N2 N 0.4431(3) 0.30194(14) -0.26978(14)
C1 C -0.6191(4) 0.14100(16) 0.26563(16)
C2 C -0.6772(4) 0.07417(17) 0.15375(17)
C3 C -0.8158(4) -0.04160(18) 0.13458(18)
C4 C -1.0637(4) -0.0583(2) 0.14059(19)
C5 C -1.1060(4) -0.0161(2) 0.24724(19)
C6 C -0.9544(4) -0.0406(2) 0.34719(19)
C7 C -0.7481(4) 0.0529(2) 0.41284(18)
C8 C -0.5542(4) 0.08652(17) 0.36121(16)
C9 C -0.3454(4) 0.17045(17) 0.43898(17)
C10 C -0.3219(4) 0.27053(16) 0.38855(15)
C11 C -0.0761(4) 0.33194(16) 0.40347(16)
C12 C -0.0581(4) 0.43318(16) 0.35566(16)
C13 C 0.1882(4) 0.49134(17) 0.36737(17)
C14 C 0.2590(3) 0.43465(15) 0.20064(16)
C15 C 0.3828(3) 0.35649(15) 0.04612(15)
C16 C 0.2339(4) 0.38973(16) -0.03396(16)
C17 C 0.2550(4) 0.37199(17) -0.13750(17)
C18 C 0.4227(4) 0.32194(16) -0.16018(16)
C19 C 0.5736(4) 0.28968(16) -0.08151(17)
C20 C 0.5529(3) 0.30714(16) 0.02116(16)
H1 H 0.436(4) 0.3322(18) 0.1900(18)
H2 H -0.759(5) 0.178(2) 0.275(2)
H3 H -0.756(4) 0.1132(19) 0.1029(19)
H4 H -0.518(5) 0.074(2) 0.138(2)
H5 H -0.812(4) -0.074(2) 0.063(2)
H6 H -0.731(4) -0.082(2) 0.189(2)
H7 H -1.124(5) -0.141(2) 0.123(2)
H8 H -1.152(4) -0.023(2) 0.085(2)
H9 H -1.271(5) -0.051(2) 0.242(2)
H10 H -1.084(4) 0.068(2) 0.2558(19)
H11 H -0.897(4) -0.1053(19) 0.3211(18)
H12 H -1.051(4) -0.0535(19) 0.3980(19)
H13 H -0.676(4) 0.0303(18) 0.4821(18)
H14 H -0.808(4) 0.1191(18) 0.4330(18)
H15 H -0.503(4) 0.0171(19) 0.3344(18)
H16 H -0.374(4) 0.1882(19) 0.507(2)
H17 H -0.196(4) 0.1449(18) 0.4440(17)
H18 H -0.418(3) 0.3194(16) 0.4165(15)
H19 H 0.000(3) 0.3528(16) 0.4815(17)
H20 H 0.006(4) 0.2822(17) 0.3719(17)
H21 H -0.136(4) 0.4133(16) 0.2802(18)
H22 H -0.131(4) 0.4828(17) 0.3915(17)
H23 H 0.287(4) 0.5007(16) 0.4419(17)
H24 H 0.197(4) 0.5623(18) 0.3457(17)
H25 H 0.123(4) 0.4191(18) -0.0193(18)
H26 H 0.154(4) 0.3934(17) -0.1923(18)
H27 H 0.682(4) 0.2621(18) -0.0995(18)
H28 H 0.654(4) 0.2863(17) 0.0764(17)
#END
