
#######################################################################
#
#                 Cambridge Crystallographic Data Centre
#                                CCDC
#
#######################################################################
#
# If this CIF has been generated from an entry in the Cambridge
# Structural Database, then it will include bibliographic, chemical,
# crystal, experimental, refinement or atomic coordinate data resulting
# from the CCDC's data processing and validation procedures.
#
#######################################################################

data_CSD_CIF_BEHWER
_audit_creation_date 2004-03-11
_audit_creation_method CSD-ConQuest-V1
_database_code_CSD BEHWER
_database_code_depnum_ccdc_archive 'CCDC 226594'
_chemical_formula_sum 'C14 H19 N1 O4'
_chemical_formula_moiety
;
C14 H19 N1 O4
;
_journal_coden_Cambridge 35
_journal_volume 68
_journal_year 2003
_journal_page_first 9477
_journal_name_full 'J.Org.Chem. '
loop_
_publ_author_name
"A.A.Tishkov"
"A.V.Lesiv"
"Y.A.Khomutova"
"Y.A.Strelenko"
"I.D.Nesterov"
"M.Yu.Antipin"
"S.L.Ioffe"
"S.E.Denmark"
_chemical_name_systematic
;
rel-(4R,6R)-6-methoxy-3,6-dimethyl-5,6-dihydro-4-(4-methoxyphenyl)-1,2-oxazine
 N-oxide
;
_chemical_melting_point 388.15
_cell_volume    670.714
_exptl_crystal_colour 'colorless'
_exptl_crystal_density_diffrn 1.314
_exptl_special_details
;
Melting point range 388.15-390.15K

;
_exptl_crystal_description 'plate'
_exptl_crystal_preparation 'diethyl ether'
_diffrn_ambient_temperature 110
#These two values have been output from a single CSD field.
_refine_ls_R_factor_gt 0.0631
_refine_ls_wR_factor_gt 0.0631
_symmetry_cell_setting triclinic
_symmetry_space_group_name_H-M 'P -1'
_symmetry_Int_Tables_number 2
loop_
_symmetry_equiv_pos_site_id
_symmetry_equiv_pos_as_xyz
1 x,y,z
2 -x,-y,-z
_cell_length_a 7.831(4)
_cell_length_b 8.097(4)
_cell_length_c 11.193(6)
_cell_angle_alpha 87.022(10)
_cell_angle_beta 71.556(13)
_cell_angle_gamma 85.261(12)
_cell_formula_units_Z 2
loop_
_atom_type_symbol
_atom_type_radius_bond
C 0.68
H 0.23
N 0.68
O 0.68
loop_
_atom_site_label
_atom_site_type_symbol
_atom_site_fract_x
_atom_site_fract_y
_atom_site_fract_z
O1 O 0.4084(2) 0.6727(2) 0.53584(15)
O2 O 0.6674(2) 0.7199(2) 0.56646(17)
N1 N 0.5147(3) 0.6629(2) 0.61920(19)
O3 O 0.1623(2) 0.8298(2) 0.66726(16)
C1 C 0.4552(3) 0.5992(3) 0.7328(2)
O4 O 0.2780(3) -0.1174(2) 1.00197(17)
C2 C 0.2696(3) 0.5379(3) 0.7877(2)
H1 H 0.200(3) 0.619(3) 0.855(2)
C3 C 0.1696(4) 0.5387(3) 0.6901(2)
H2 H 0.202(3) 0.434(3) 0.640(2)
H3 H 0.038(4) 0.539(3) 0.730(2)
C4 C 0.2140(3) 0.6838(3) 0.5978(2)
C5 C 0.5769(4) 0.5993(4) 0.8119(3)
H4 H 0.697(7) 0.539(6) 0.776(4)
H5 H 0.606(7) 0.702(7) 0.804(5)
H6 H 0.521(7) 0.548(6) 0.882(5)
C6 C 0.2768(3) 0.3656(3) 0.8502(2)
C7 C 0.3741(3) 0.2300(3) 0.7789(2)
H7 H 0.441(3) 0.248(3) 0.692(2)
C8 C 0.3724(4) 0.0730(3) 0.8328(2)
H8 H 0.448(4) -0.021(3) 0.784(2)
C9 C 0.2740(4) 0.0441(3) 0.9583(2)
C10 C 0.1802(3) 0.1769(3) 1.0312(2)
H9 H 0.116(4) 0.150(3) 1.122(2)
C11 C 0.1849(3) 0.3350(3) 0.9760(2)
H10 H 0.123(3) 0.434(3) 1.024(2)
C12 C 0.1378(4) 0.6784(4) 0.4898(3)
H11 H 0.172(4) 0.578(4) 0.460(3)
H12 H 0.195(4) 0.764(4) 0.425(3)
H13 H 0.005(5) 0.698(4) 0.519(3)
C13 C 0.2012(4) 0.9814(3) 0.5935(3)
H14 H 0.135(5) 1.003(4) 0.532(3)
H15 H 0.340(5) 0.982(4) 0.550(3)
H16 H 0.189(4) 1.067(4) 0.645(3)
C14 C 0.1714(5) -0.1513(4) 1.1288(3)
H17 H 0.187(4) -0.273(4) 1.140(3)
H18 H 0.042(5) -0.120(4) 1.142(3)
H19 H 0.216(4) -0.091(4) 1.177(3)
#END
