
#######################################################################
#
#                 Cambridge Crystallographic Data Centre
#                                CCDC
#
#######################################################################
#
# If this CIF has been generated from an entry in the Cambridge
# Structural Database, then it will include bibliographic, chemical,
# crystal, experimental, refinement or atomic coordinate data resulting
# from the CCDC's data processing and validation procedures.
#
#######################################################################

data_CSD_CIF_BEJCAW
_audit_creation_date 2013-04-24
_audit_creation_method CSD-ConQuest-V1
_database_code_CSD BEJCAW
_database_code_depnum_ccdc_archive 'CCDC 890237'
_chemical_formula_sum 'C19 H17 N1 O1'
_chemical_formula_moiety
;
C19 H17 N1 O1
;
_journal_coden_Cambridge 179
_journal_volume 51
_journal_year 2012
_journal_page_first 10816
_journal_name_full 'Angew.Chem.,Int.Ed. '
loop_
_publ_author_name
"I.Nakamura"
"M.Okamoto"
"Y.Sato"
"M.Terada"
_chemical_name_systematic
;
3-Benzylidene-2-phenyl-4,5-dihydro-3H-1\l^5^-azepin-1-ol
;
_cell_volume   1476.491
_exptl_crystal_colour 'colorless'
_exptl_crystal_density_diffrn 1.239
_exptl_crystal_description 'prism'
_diffrn_ambient_temperature 173
#These two values have been output from a single CSD field.
_refine_ls_R_factor_gt 0.0355
_refine_ls_wR_factor_gt 0.0355
_symmetry_cell_setting monoclinic
_symmetry_space_group_name_H-M 'C c'
_symmetry_Int_Tables_number 9
loop_
_symmetry_equiv_pos_site_id
_symmetry_equiv_pos_as_xyz
1 x,y,z
2 x,-y,1/2+z
3 1/2+x,1/2+y,z
4 1/2+x,1/2-y,1/2+z
_cell_length_a 17.152(9)
_cell_length_b 6.324(3)
_cell_length_c 16.552(9)
_cell_angle_alpha 90
_cell_angle_beta 124.676(4)
_cell_angle_gamma 90
_cell_formula_units_Z 4
loop_
_atom_type_symbol
_atom_type_radius_bond
C 0.68
H 0.23
N 0.68
O 0.68
loop_
_atom_site_label
_atom_site_type_symbol
_atom_site_fract_x
_atom_site_fract_y
_atom_site_fract_z
O1 O 1.08015(11) 0.3360(2) 0.80174(12)
N1 N 1.01769(11) 0.1938(2) 0.77411(12)
C1 C 0.85387(13) -0.0478(2) 0.79414(13)
C2 C 1.06743(12) 0.0533(3) 0.93940(13)
C3 C 0.83193(12) 0.1189(3) 0.84438(13)
C4 C 0.87783(13) 0.3116(3) 0.87740(13)
C5 C 1.00652(12) 0.0633(2) 0.83263(13)
C6 C 0.92669(13) -0.0790(2) 0.78549(12)
C7 C 0.95822(15) 0.1887(3) 0.66888(15)
C8 C 0.85058(15) 0.4616(3) 0.92188(15)
C9 C 0.73114(16) 0.2343(4) 0.90142(19)
C10 C 1.06699(14) -0.1300(3) 0.98887(15)
C11 C 0.93279(16) -0.2645(3) 0.72779(16)
C12 C 1.12424(15) 0.2199(4) 0.99407(17)
C13 C 1.12166(17) -0.1472(4) 1.09018(18)
C14 C 1.17784(19) 0.1995(4) 1.09547(19)
C15 C 0.94196(17) 0.0112(3) 0.61894(16)
C16 C 0.97751(17) -0.1967(3) 0.66771(16)
C17 C 0.75742(14) 0.0848(3) 0.85657(16)
C18 C 0.77703(17) 0.4222(4) 0.93434(18)
C19 C 1.17641(18) 0.0191(5) 1.14350(17)
H1 H 0.92680 0.34390 0.87070
H2 H 0.88260 0.58990 0.94340
H3 H 0.68220 0.20280 0.90820
H4 H 1.02840 -0.24290 0.95160
H5 H 1.12680 0.34200 0.96440
H6 H 1.12070 -0.26970 1.12070
H7 H 1.21670 0.31150 1.13350
H8 H 0.72400 -0.04180 0.83410
H9 H 0.76070 0.52100 0.96390
H10 H 1.21300 0.01380 1.21180
H11 H 0.93020 0.31350 0.63460
H12 H 0.90690 0.01760 0.55070
H13 H 0.80710 -0.15080 0.76240
H14 H 0.86970 -0.32090 0.68190
H15 H 0.97120 -0.37630 0.77360
H16 H 1.04600 -0.19100 0.71270
H17 H 0.96180 -0.30340 0.61850
#END
