
#######################################################################
#
#                 Cambridge Crystallographic Data Centre
#                                CCDC
#
#######################################################################
#
# If this CIF has been generated from an entry in the Cambridge
# Structural Database, then it will include bibliographic, chemical,
# crystal, experimental, refinement or atomic coordinate data resulting
# from the CCDC's data processing and validation procedures.
#
#######################################################################

data_CSD_CIF_BEJYOE
_audit_creation_date 1999-11-19
_audit_creation_method CSD-ConQuest-V1
_database_code_CSD BEJYOE
_database_code_depnum_ccdc_archive 'CCDC 134393'
_chemical_formula_sum 'C20 H15 N1 O2'
_chemical_formula_moiety
;
C20 H15 N1 O2
;
_journal_coden_Cambridge 24
_journal_volume 40
_journal_year 1999
_journal_page_first 5279
_journal_name_full 'Tetrahedron Lett. '
loop_
_publ_author_name
"L.Torun"
"T.Mohammad"
"H.Morrison"
_chemical_name_systematic
;
1,4-Diphenyl-1-hydroxy-1H-2,3-benzoxazine
;
_chemical_melting_point 427.15
_cell_volume   1515.445
_exptl_crystal_colour 'colorless'
_exptl_crystal_density_diffrn 1.32
_exptl_special_details
;
Melting point range 427.15-428.15K

;
_exptl_crystal_description 'plate'
_diffrn_ambient_temperature ?
_diffrn_special_details
;
The study was carried out at room temperature,in the range 283-303K

;
#These two values have been output from a single CSD field.
_refine_ls_R_factor_gt 0.051
_refine_ls_wR_factor_gt 0.051
_symmetry_cell_setting monoclinic
_symmetry_space_group_name_H-M 'P 21/n'
_symmetry_Int_Tables_number 14
loop_
_symmetry_equiv_pos_site_id
_symmetry_equiv_pos_as_xyz
1 x,y,z
2 1/2+x,1/2-y,1/2+z
3 -x,-y,-z
4 -1/2-x,-1/2+y,-1/2-z
_cell_length_a 8.1860(13)
_cell_length_b 16.101(3)
_cell_length_c 11.888(4)
_cell_angle_alpha 90
_cell_angle_beta 104.72(2)
_cell_angle_gamma 90
_cell_formula_units_Z 4
loop_
_atom_type_symbol
_atom_type_radius_bond
C 0.68
H 0.23
N 0.68
O 0.68
loop_
_atom_site_label
_atom_site_type_symbol
_atom_site_fract_x
_atom_site_fract_y
_atom_site_fract_z
O1 O 0.3592(2) -0.09068(11) 0.07547(14)
O2 O 0.52116(18) 0.02302(10) 0.16073(13)
N1 N 0.4384(2) 0.08781(12) 0.08729(16)
C1 C 0.4187(3) -0.04651(14) 0.17936(18)
C2 C 0.2850(3) 0.10445(14) 0.08831(18)
C3 C 0.1926(3) 0.05849(15) 0.15937(18)
C4 C 0.0411(3) 0.08709(17) 0.1787(2)
C5 C -0.0401(3) 0.04094(19) 0.2464(2)
C6 C 0.0301(3) -0.03145(18) 0.2986(2)
C7 C 0.1830(3) -0.05906(16) 0.2830(2)
C8 C 0.2632(3) -0.01486(14) 0.21220(18)
C9 C 0.5393(3) -0.09548(14) 0.27455(19)
C10 C 0.5954(3) -0.06105(16) 0.3850(2)
C11 C 0.7033(3) -0.10514(19) 0.4733(2)
C12 C 0.7572(3) -0.18290(19) 0.4522(3)
C13 C 0.7052(4) -0.21677(18) 0.3429(3)
C14 C 0.5962(3) -0.17320(16) 0.2543(2)
C15 C 0.2122(3) 0.17694(15) 0.01553(19)
C16 C 0.3060(3) 0.24902(16) 0.0210(2)
C17 C 0.2438(4) 0.31549(17) -0.0502(2)
C18 C 0.0862(4) 0.31109(18) -0.1270(2)
C19 C -0.0086(4) 0.24071(19) -0.1318(2)
C20 C 0.0526(3) 0.17345(17) -0.0606(2)
H1 H 0.442(5) -0.094(2) 0.035(3)
H2 H -0.00510 0.13700 0.14620
H3 H -0.14330 0.05900 0.25670
H4 H -0.02510 -0.06180 0.34430
H5 H 0.23200 -0.10720 0.32000
H6 H 0.56020 -0.00810 0.39950
H7 H 0.73940 -0.08200 0.54720
H8 H 0.82890 -0.21270 0.51180
H9 H 0.74320 -0.26910 0.32830
H10 H 0.56120 -0.19660 0.18060
H11 H 0.41180 0.25260 0.07300
H12 H 0.30830 0.36350 -0.04640
H13 H 0.04470 0.35580 -0.17530
H14 H -0.11510 0.23790 -0.18320
H15 H -0.01330 0.12600 -0.06390
#END
