
#######################################################################
#
#                 Cambridge Crystallographic Data Centre
#                                CCDC
#
#######################################################################
#
# If this CIF has been generated from an entry in the Cambridge
# Structural Database, then it will include bibliographic, chemical,
# crystal, experimental, refinement or atomic coordinate data resulting
# from the CCDC's data processing and validation procedures.
#
#######################################################################

data_CSD_CIF_BEKDAW
_audit_creation_date 1982-11-15
_audit_creation_method CSD-ConQuest-V1
_database_code_CSD BEKDAW
_database_code_depnum_ccdc_archive 'CCDC 1108240'
_chemical_formula_sum 'C15 H10 N4 O4'
_chemical_formula_moiety
;
C15 H10 N4 O4
;
_journal_coeditor_code "IUCr A21166"
_journal_coden_Cambridge 107
_journal_volume 38
_journal_year 1982
_journal_page_first 1372
_journal_name_full 'Acta Crystallogr.,Sect.B:Struct.Crystallogr.Cryst.Chem. '
loop_
_publ_author_name
"N.Ramasubbu"
"K.Venkatesan"
_chemical_name_systematic
;
Ethyl-1,2,2-tricyano-3-(4-nitrophenyl)-cyclopropane-1-carboxylate
;
_cell_volume   1462.136
_exptl_crystal_density_diffrn 1.408
_diffrn_ambient_temperature ?
_diffrn_special_details
;
The study was carried out at room temperature,in the range 283-303K

;
#These two values have been output from a single CSD field.
_refine_ls_R_factor_gt 0.054
_refine_ls_wR_factor_gt 0.054
_symmetry_cell_setting monoclinic
_symmetry_space_group_name_H-M 'P 21/c'
_symmetry_Int_Tables_number 14
loop_
_symmetry_equiv_pos_site_id
_symmetry_equiv_pos_as_xyz
1 x,y,z
2 -x,1/2+y,1/2-z
3 -x,-y,-z
4 x,-1/2-y,-1/2+z
_cell_length_a 10.694(8)
_cell_length_b 11.743(8)
_cell_length_c 12.658(8)
_cell_angle_alpha 90
_cell_angle_beta 113.10(7)
_cell_angle_gamma 90
_cell_formula_units_Z 4
loop_
_atom_type_symbol
_atom_type_radius_bond
C 0.68
H 0.23
N 0.68
O 0.68
loop_
_atom_site_label
_atom_site_type_symbol
_atom_site_fract_x
_atom_site_fract_y
_atom_site_fract_z
O1 O 0.76680 0.50180 0.33860
O2 O 0.74190 0.42880 0.49460
O3 O -0.10340 0.40190 -0.14930
O4 O -0.10790 0.25280 -0.05450
N1 N 0.52160 0.21840 0.43590
N2 N 0.54070 0.08680 0.17190
N3 N 0.84640 0.32890 0.17490
N4 N -0.04860 0.33390 -0.07360
C1 C 0.60890 0.35240 0.31570
C2 C 0.62940 0.29260 0.21380
C3 C 0.52260 0.38520 0.19380
C4 C 0.55780 0.27900 0.38310
C5 C 0.71630 0.43800 0.38410
C6 C 0.85260 0.50180 0.57480
C7 C 0.79020 0.59060 0.61980
C8 C 0.58070 0.17690 0.18960
C9 C 0.75160 0.31480 0.19320
C10 C 0.37130 0.36820 0.12900
C11 C 0.30830 0.43830 0.03600
C12 C 0.16950 0.42880 -0.03070
C13 C 0.09720 0.34570 -0.00220
C14 C 0.15660 0.27660 0.08990
C15 C 0.29550 0.28600 0.15580
H1 H 0.91300 0.52800 0.53700
H2 H 0.91500 0.45600 0.64100
H3 H 0.73600 0.55600 0.66000
H4 H 0.88600 0.62100 0.69300
H5 H 0.72500 0.64600 0.54400
H6 H 0.35100 0.48900 0.00900
H7 H 0.12700 0.47000 -0.09700
H8 H 0.10400 0.22700 0.11200
H9 H 0.33600 0.23800 0.21700
H10 H 0.55700 0.46000 0.17500
#END
