
#######################################################################
#
#                 Cambridge Crystallographic Data Centre
#                                CCDC
#
#######################################################################
#
# If this CIF has been generated from an entry in the Cambridge
# Structural Database, then it will include bibliographic, chemical,
# crystal, experimental, refinement or atomic coordinate data resulting
# from the CCDC's data processing and validation procedures.
#
#######################################################################

data_CSD_CIF_BELBUP03
_audit_creation_date 2011-02-21
_audit_creation_method CSD-ConQuest-V1
_database_code_CSD BELBUP03
_database_code_depnum_ccdc_archive 'CCDC 776055'
_chemical_formula_sum 'C5 H4 N4 O1'
_chemical_formula_moiety
;
C5 H4 N4 O1
;
_journal_coden_Cambridge 580
_journal_volume 29
_journal_year 2010
_journal_page_first 2829
_journal_name_full 'Polyhedron '
loop_
_publ_author_name
"M.Ghazzali"
"K.Al-Farhan"
"A.El-Faham"
"J.Reedijk"
_chemical_name_systematic
;
3H-[1,2,3]Triazolo[4,5-b]pyridin-3-ol
;
_cell_volume    564.123
_exptl_crystal_colour 'colorless'
_exptl_crystal_density_diffrn 1.603
_exptl_special_details
;
Pca21 polymorph

;
_exptl_crystal_description 'prism'
_diffrn_ambient_temperature 294
#These two values have been output from a single CSD field.
_refine_ls_R_factor_gt 0.0495
_refine_ls_wR_factor_gt 0.0495
_symmetry_cell_setting orthorhombic
_symmetry_space_group_name_H-M 'P c a 21'
_symmetry_Int_Tables_number 29
loop_
_symmetry_equiv_pos_site_id
_symmetry_equiv_pos_as_xyz
1 x,y,z
2 1/2-x,y,1/2+z
3 1/2+x,-y,z
4 -x,-y,1/2+z
_cell_length_a 20.2593(17)
_cell_length_b 4.0782(3)
_cell_length_c 6.8278(4)
_cell_angle_alpha 90
_cell_angle_beta 90
_cell_angle_gamma 90
_cell_formula_units_Z 4
loop_
_atom_type_symbol
_atom_type_radius_bond
C 0.68
H 0.23
N 0.68
O 0.68
loop_
_atom_site_label
_atom_site_type_symbol
_atom_site_fract_x
_atom_site_fract_y
_atom_site_fract_z
O1 O 0.28876(11) 1.2926(6) 1.0136(9)
N1 N 0.31021(14) 0.9115(7) 0.6349(4)
N2 N 0.43601(15) 0.8760(8) 0.9966(5)
N3 N 0.39182(15) 1.0607(8) 1.0837(5)
N4 N 0.33973(14) 1.0906(6) 0.9637(4)
C1 C 0.33647(19) 0.7306(9) 0.4918(7)
C2 C 0.3984(2) 0.5781(9) 0.5003(7)
C3 C 0.43764(19) 0.6036(9) 0.6636(7)
C4 C 0.41186(15) 0.7922(8) 0.8160(6)
C5 C 0.34956(16) 0.9322(8) 0.7930(6)
H1 H 0.31180 0.70380 0.37800
H2 H 0.41320 0.45750 0.39330
H3 H 0.47860 0.50200 0.67210
H4 H 0.25620 1.18200 1.04020
#END
