
#######################################################################
#
#                 Cambridge Crystallographic Data Centre
#                                CCDC
#
#######################################################################
#
# If this CIF has been generated from an entry in the Cambridge
# Structural Database, then it will include bibliographic, chemical,
# crystal, experimental, refinement or atomic coordinate data resulting
# from the CCDC's data processing and validation procedures.
#
#######################################################################

data_CSD_CIF_BELBUP
_audit_creation_date 1999-11-19
_audit_creation_method CSD-ConQuest-V1
_database_code_CSD BELBUP
_database_code_depnum_ccdc_archive 'CCDC 101197'
_chemical_formula_sum 'C5 H4 N4 O1'
_chemical_formula_moiety
;
C5 H4 N4 O1
;
_journal_coden_Cambridge 119
_journal_volume 476
_journal_year 1999
_journal_page_first 289
_journal_name_full 'J.Mol.Struct. '
loop_
_publ_author_name
"F.Hoffmann"
"A.Kolbe"
"C.Griehl"
_chemical_name_systematic
;
1-Hydroxy-7-azabenzotriazole
;
_chemical_melting_point 477.15
_cell_volume   1144.594
_exptl_crystal_colour 'colorless'
_exptl_crystal_density_diffrn 1.58
_exptl_special_details
;
Melting point range 477.15-483.15K
C2/c polymorph

;
_exptl_crystal_description 'prism'
_exptl_crystal_preparation 'chloroform/n-pentane'
_diffrn_ambient_temperature ?
_diffrn_special_details
;
The study was carried out at room temperature,in the range 283-303K

;
#These two values have been output from a single CSD field.
_refine_ls_R_factor_gt 0.0381
_refine_ls_wR_factor_gt 0.0381
_symmetry_cell_setting monoclinic
_symmetry_space_group_name_H-M 'C 2/c'
_symmetry_Int_Tables_number 15
loop_
_symmetry_equiv_pos_site_id
_symmetry_equiv_pos_as_xyz
1 x,y,z
2 1/2+x,1/2+y,z
3 -x,y,1/2-z
4 1/2-x,1/2+y,1/2-z
5 -x,-y,-z
6 -1/2-x,-1/2-y,-z
7 x,-y,-1/2+z
8 -1/2+x,-1/2-y,-1/2+z
_cell_length_a 22.091(4)
_cell_length_b 3.994(1)
_cell_length_c 14.294(3)
_cell_angle_alpha 90
_cell_angle_beta 114.83(3)
_cell_angle_gamma 90
_cell_formula_units_Z 8
loop_
_atom_type_symbol
_atom_type_radius_bond
C 0.68
H 0.23
N 0.68
O 0.68
loop_
_atom_site_label
_atom_site_type_symbol
_atom_site_fract_x
_atom_site_fract_y
_atom_site_fract_z
C1 C 0.39516(6) 0.2293(3) 0.17069(8)
C2 C 0.33768(6) 0.4044(3) 0.11011(9)
C3 C 0.30172(6) 0.5616(4) 0.15811(10)
H1 H 0.26263(6) 0.6800(4) 0.12123(10)
C4 C 0.32805(6) 0.5292(4) 0.26358(10)
H2 H 0.30609(6) 0.6268(4) 0.29973(10)
C5 C 0.38741(6) 0.3519(4) 0.31766(9)
H3 H 0.40346(6) 0.3406(4) 0.38904(9)
O1 O 0.46603(5) -0.1207(3) 0.11836(8)
H4 H 0.507(1) -0.0065(54) 0.1569(15)
N1 N 0.41644(5) 0.1031(3) 0.10192(8)
N2 N 0.37538(6) 0.1917(3) 0.00531(8)
N3 N 0.32733(6) 0.3762(3) 0.00851(8)
N4 N 0.42236(5) 0.1985(3) 0.27352(7)
#END
