
#######################################################################
#
#                 Cambridge Crystallographic Data Centre
#                                CCDC
#
#######################################################################
#
# If this CIF has been generated from an entry in the Cambridge
# Structural Database, then it will include bibliographic, chemical,
# crystal, experimental, refinement or atomic coordinate data resulting
# from the CCDC's data processing and validation procedures.
#
#######################################################################

data_CSD_CIF_BELBUP02
_audit_creation_date 2006-10-06
_audit_creation_method CSD-ConQuest-V1
_database_code_CSD BELBUP02
_database_code_depnum_ccdc_archive 'CCDC 618462'
_chemical_formula_sum 'C5 H4 N4 O1'
_chemical_formula_moiety
;
C5 H4 N4 O1
;
_journal_coeditor_code "IUCr BK5029"
_journal_coden_Cambridge 622
_journal_volume 62
_journal_year 2006
_journal_page_first 642
_journal_name_full 'Acta Crystallogr.,Sect.B:Struct.Sci. '
loop_
_publ_author_name
"H.Nowell"
"C.S.Frampton"
"J.Waite"
"S.L.Price"
_chemical_name_systematic
;
1-Hydroxy-7-azabenzotriazole
;
_cell_volume    552.501
_exptl_crystal_colour 'colorless'
_exptl_crystal_density_diffrn 1.636
_exptl_special_details
;
P21/c polymorph

;
_exptl_crystal_description 'needle'
_exptl_crystal_preparation '2'
_diffrn_ambient_temperature 123.0
#These two values have been output from a single CSD field.
_refine_ls_R_factor_gt 0.0327
_refine_ls_wR_factor_gt 0.0327
_symmetry_cell_setting monoclinic
_symmetry_space_group_name_H-M 'P 21/c'
_symmetry_Int_Tables_number 14
loop_
_symmetry_equiv_pos_site_id
_symmetry_equiv_pos_as_xyz
1 x,y,z
2 -x,1/2+y,1/2-z
3 -x,-y,-z
4 x,-1/2-y,-1/2+z
_cell_length_a 3.7487(1)
_cell_length_b 20.8881(5)
_cell_length_c 7.0982(2)
_cell_angle_alpha 90
_cell_angle_beta 96.257(1)
_cell_angle_gamma 90
_cell_formula_units_Z 4
loop_
_atom_type_symbol
_atom_type_radius_bond
C 0.68
H 0.23
N 0.68
O 0.68
loop_
_atom_site_label
_atom_site_type_symbol
_atom_site_fract_x
_atom_site_fract_y
_atom_site_fract_z
O1 O 0.2237(2) 0.77612(4) -0.08876(13)
H1 H 0.383(6) 0.7458(10) -0.136(3)
N1 N 0.4223(3) 0.82999(5) -0.04846(14)
N2 N 0.4430(3) 0.87555(5) -0.18079(14)
N3 N 0.6255(3) 0.92396(5) -0.10253(14)
N4 N 0.6191(3) 0.81746(5) 0.28868(14)
C1 C 0.5874(3) 0.84852(5) 0.12209(16)
C2 C 0.7200(3) 0.90932(5) 0.08562(16)
C3 C 0.9116(3) 0.94309(6) 0.23475(17)
H2 H 1.017(4) 0.9852(8) 0.214(2)
C4 C 0.9501(3) 0.91210(6) 0.40734(17)
H3 H 1.081(4) 0.9305(8) 0.517(2)
C5 C 0.8029(3) 0.85071(6) 0.42819(17)
H4 H 0.831(4) 0.8309(8) 0.546(2)
#END
