
#######################################################################
#
#                 Cambridge Crystallographic Data Centre
#                                CCDC
#
#######################################################################
#
# If this CIF has been generated from an entry in the Cambridge
# Structural Database, then it will include bibliographic, chemical,
# crystal, experimental, refinement or atomic coordinate data resulting
# from the CCDC's data processing and validation procedures.
#
#######################################################################

data_CSD_CIF_BELHAB01
_audit_creation_date 1998-03-31
_audit_creation_method CSD-ConQuest-V1
_database_code_CSD BELHAB01
_database_code_depnum_ccdc_journal 188/69
_chemical_formula_sum 'C17 H18 N2 O6'
_chemical_formula_moiety
;
C17 H18 N2 O6
;
_journal_coden_Cambridge 188
_journal_year 1997
_journal_page_first 1309
_journal_name_full 'J.Chem.Soc.,Perkin Trans.2 '
loop_
_publ_author_name
"N.Marubayashi"
"T.Ogawa"
"T.Hamasaki"
"N.Hirayama"
_chemical_name_systematic
;
Dimethyl 1,4-dihydro-2,6-dimethyl-4-(3-nitrophenyl)pyridine-3,5-dicarboxylate
;
_cell_volume   1666.980
_exptl_crystal_colour 'colorless'
_exptl_crystal_density_diffrn 1.38
_exptl_crystal_description 'plate'
_exptl_crystal_preparation 'methanol'
_diffrn_ambient_temperature ?
_diffrn_special_details
;
The study was carried out at room temperature,in the range 283-303K

;
#These two values have been output from a single CSD field.
_refine_ls_R_factor_gt 0.037
_refine_ls_wR_factor_gt 0.037
_symmetry_cell_setting monoclinic
_symmetry_space_group_name_H-M 'P 21/n'
_symmetry_Int_Tables_number 14
loop_
_symmetry_equiv_pos_site_id
_symmetry_equiv_pos_as_xyz
1 x,y,z
2 1/2-x,1/2+y,1/2-z
3 -x,-y,-z
4 -1/2+x,-1/2-y,-1/2+z
_cell_length_a 15.985(2)
_cell_length_b 7.419(1)
_cell_length_c 14.994(2)
_cell_angle_alpha 90
_cell_angle_beta 110.37(1)
_cell_angle_gamma 90
_cell_formula_units_Z 4
loop_
_atom_type_symbol
_atom_type_radius_bond
C 0.68
H 0.23
N 0.68
O 0.68
loop_
_atom_site_label
_atom_site_type_symbol
_atom_site_fract_x
_atom_site_fract_y
_atom_site_fract_z
O1 O 0.8287(1) 0.9861(2) 0.36419(8)
O2 O 0.83995(9) 0.7043(2) 0.41822(7)
O3 O 0.98969(9) 0.5170(2) 0.73288(9)
O4 O 1.07784(9) 0.7069(2) 0.83947(8)
O5 O 0.6822(1) 0.2676(2) 0.5433(1)
O6 O 0.5738(1) 0.3543(3) 0.5850(2)
N1 N 0.96276(9) 1.1338(2) 0.65487(9)
N2 N 0.6449(1) 0.3810(2) 0.5759(1)
C1 C 0.9188(1) 1.0994(2) 0.5592(1)
C2 C 0.8925(1) 0.9297(2) 0.5319(1)
C3 C 0.9016(1) 0.7828(2) 0.6050(1)
C4 C 0.9755(1) 0.8277(2) 0.6980(1)
C5 C 0.9995(1) 1.0008(2) 0.7214(1)
C6 C 0.9082(1) 1.2604(3) 0.4962(1)
C7 C 0.8510(1) 0.8838(2) 0.4305(1)
C8 C 1.0647(1) 1.0718(2) 0.8127(1)
C9 C 1.0136(1) 0.6706(2) 0.7570(1)
C10 C 0.8130(1) 0.7474(2) 0.6190(1)
C11 C 0.7698(1) 0.5837(2) 0.5926(1)
C12 C 0.6885(1) 0.5560(3) 0.6034(1)
C13 C 0.6478(1) 0.6859(3) 0.6398(1)
C14 C 0.6911(1) 0.8488(3) 0.6666(1)
C15 C 0.7721(1) 0.8785(2) 0.6561(1)
C16 C 0.7979(2) 0.6428(3) 0.3217(1)
C17 C 1.1121(1) 0.5577(3) 0.9029(1)
H1 H 0.975(1) 1.244(3) 0.675(1)
H2 H 0.9182(9) 0.671(2) 0.5817(9)
H3 H 0.929(1) 1.234(3) 0.442(1)
H4 H 0.934(1) 1.370(3) 0.536(2)
H5 H 0.843(1) 1.295(3) 0.469(2)
H6 H 1.056(1) 1.015(3) 0.866(1)
H7 H 1.124(1) 1.051(3) 0.815(1)
H8 H 1.052(1) 1.204(3) 0.818(1)
H9 H 0.798(1) 0.491(2) 0.567(1)
H10 H 0.590(1) 0.661(3) 0.643(1)
H11 H 0.664(1) 0.936(3) 0.693(1)
H12 H 0.801(1) 0.995(3) 0.672(1)
H13 H 0.788(2) 0.504(4) 0.322(2)
H14 H 0.740(1) 0.690(3) 0.296(2)
H15 H 0.830(2) 0.669(4) 0.288(2)
H16 H 1.153(2) 0.608(4) 0.958(2)
H17 H 1.062(1) 0.505(3) 0.918(1)
H18 H 1.146(1) 0.476(3) 0.877(1)
#END
