
#######################################################################
#
#                 Cambridge Crystallographic Data Centre
#                                CCDC
#
#######################################################################
#
# If this CIF has been generated from an entry in the Cambridge
# Structural Database, then it will include bibliographic, chemical,
# crystal, experimental, refinement or atomic coordinate data resulting
# from the CCDC's data processing and validation procedures.
#
#######################################################################

data_CSD_CIF_BELMOU
_audit_creation_date 1982-11-15
_audit_creation_method CSD-ConQuest-V1
_database_code_CSD BELMOU
_database_code_depnum_ccdc_archive 'CCDC 1108420'
_chemical_formula_sum 'C10 H9 N3 O3'
_chemical_formula_moiety
;
C10 H9 N3 O3
;
_journal_coden_Cambridge 542
_journal_volume 17
_journal_year 1982
_journal_page_first 91
_journal_name_full 'Cryst.Res.Technol. '
loop_
_publ_author_name
"S.Kulpe"
"I.Seidel"
"G.Geissler"
"G.Tomaschewski"
_chemical_name_systematic
;
1-(4-Nitrobenzylidene)-pyrazolidone-(3)-betaine
;
_cell_volume   1946.272
_exptl_special_details
;
Dx given as 1.435, we calculate 1.50

;
_diffrn_ambient_temperature ?
_diffrn_special_details
;
The study was carried out at room temperature,in the range 283-303K

;
#These two values have been output from a single CSD field.
_refine_ls_R_factor_gt 0.047
_refine_ls_wR_factor_gt 0.047
_symmetry_cell_setting orthorhombic
_symmetry_space_group_name_H-M 'P b c a'
_symmetry_Int_Tables_number 61
loop_
_symmetry_equiv_pos_site_id
_symmetry_equiv_pos_as_xyz
1 x,y,z
2 1/2-x,-y,1/2+z
3 1/2+x,1/2-y,-z
4 -x,1/2+y,1/2-z
5 -x,-y,-z
6 -1/2+x,y,-1/2-z
7 -1/2-x,-1/2+y,z
8 x,-1/2-y,-1/2+z
_cell_length_a 11.025(1)
_cell_length_b 22.995(3)
_cell_length_c 7.677(1)
_cell_angle_alpha 90
_cell_angle_beta 90
_cell_angle_gamma 90
_cell_formula_units_Z 8
loop_
_atom_type_symbol
_atom_type_radius_bond
C 0.68
H 0.23
N 0.68
O 0.68
loop_
_atom_site_label
_atom_site_type_symbol
_atom_site_fract_x
_atom_site_fract_y
_atom_site_fract_z
O1 O -0.06870 0.40790 -0.00790
O2 O 0.20640 0.06660 0.29010
O3 O 0.35740 0.07770 0.46340
N1 N 0.13570 0.37560 0.30200
N2 N 0.05270 0.35890 0.18150
N3 N 0.27500 0.09690 0.37560
C1 C 0.00410 0.40840 0.11370
C2 C 0.05090 0.46270 0.20230
C3 C 0.13830 0.44040 0.33470
C4 C 0.21070 0.34130 0.38370
C5 C 0.22040 0.27890 0.37050
C6 C 0.32550 0.25480 0.44500
C7 C 0.34440 0.19530 0.44610
C8 C 0.25690 0.16030 0.37270
C9 C 0.15180 0.18210 0.30090
C10 C 0.13370 0.24160 0.29870
H1 H 0.08900 0.48700 0.11600
H2 H -0.01800 0.48400 0.24900
H3 H 0.22000 0.45200 0.31000
H4 H 0.11000 0.44600 0.46000
H5 H 0.27000 0.36200 0.45400
H6 H 0.38600 0.28100 0.49100
H7 H 0.41600 0.17800 0.49900
H8 H 0.09000 0.15500 0.25900
H9 H 0.06100 0.25700 0.24500
#END
