
#######################################################################
#
#                 Cambridge Crystallographic Data Centre
#                                CCDC
#
#######################################################################
#
# If this CIF has been generated from an entry in the Cambridge
# Structural Database, then it will include bibliographic, chemical,
# crystal, experimental, refinement or atomic coordinate data resulting
# from the CCDC's data processing and validation procedures.
#
#######################################################################

data_CSD_CIF_BELQUE
_audit_creation_date 1999-11-19
_audit_creation_method CSD-ConQuest-V1
_database_code_CSD BELQUE
_database_code_depnum_ccdc_archive 'CCDC 103898; CCDC 407727'
_database_code_depnum_ccdc_fiz 'CSD 407727'
_chemical_formula_sum 'C18 H26 N2 O8'
_chemical_formula_moiety
;
C18 H26 N2 O8
;
_journal_coden_Cambridge 180
_journal_volume 340
_journal_year 1998
_journal_page_first 140
_journal_name_full 'J.Prakt.Chem.-Chem.-Zeitung '
loop_
_publ_author_name
"W.V.Eichinger"
"H.Musso"
"K.D.Eichhorn"
"G.Mattern"
_chemical_name_systematic
;
3,6,9,12,16,19,22,26-Octaoxa-13,25-diazatricyclo(22.2.1.1^11,14^)octacosa-1(27
),11(28),13,24-tetraene
;
_cell_volume   1975.573
_exptl_crystal_colour 'colorless'
_exptl_crystal_density_diffrn 1.34
_exptl_crystal_description 'prism'
_diffrn_ambient_temperature ?
_diffrn_special_details
;
The study was carried out at room temperature,in the range 283-303K

;
#These two values have been output from a single CSD field.
_refine_ls_R_factor_gt 0.0424
_refine_ls_wR_factor_gt 0.0424
_symmetry_cell_setting monoclinic
_symmetry_space_group_name_H-M 'C c'
_symmetry_Int_Tables_number 9
loop_
_symmetry_equiv_pos_site_id
_symmetry_equiv_pos_as_xyz
1 x,y,z
2 x,-y,1/2+z
3 1/2+x,1/2+y,z
4 1/2+x,1/2-y,1/2+z
_cell_length_a 18.692(7)
_cell_length_b 13.075(5)
_cell_length_c 8.400(3)
_cell_angle_alpha 90
_cell_angle_beta 105.78(3)
_cell_angle_gamma 90
_cell_formula_units_Z 4
loop_
_atom_type_symbol
_atom_type_radius_bond
C 0.68
H 0.23
N 0.68
O 0.68
loop_
_atom_site_label
_atom_site_type_symbol
_atom_site_fract_x
_atom_site_fract_y
_atom_site_fract_z
O1 O 0.68721(10) 0.2023(2) 0.4016(2)
O2 O 0.4678(1) 0.19376(15) 0.5298(2)
O3 O 0.42232(10) -0.00426(14) 0.6155(2)
O4 O 0.4055(1) -0.21871(15) 0.5405(2)
O5 O 0.5182(2) -0.4725(2) 0.3504(3)
O6 O 0.68534(13) -0.4305(2) 0.4661(3)
O7 O 0.78091(11) -0.19264(15) 0.4983(2)
O8 O 0.73130(11) -0.0012(2) 0.3427(2)
N1 N 0.64330(14) 0.2599(2) 0.4817(3)
N2 N 0.4474(2) -0.4254(3) 0.3134(4)
C1 C 0.6443(2) 0.1300(2) 0.3077(3)
C2 C 0.5745(2) 0.1398(2) 0.3203(4)
C3 C 0.5766(2) 0.2214(2) 0.4303(3)
C4 C 0.5149(2) 0.2681(2) 0.4882(4)
C5 C 0.5006(2) 0.1433(2) 0.6804(4)
C6 C 0.4428(2) 0.0787(2) 0.7268(3)
C7 C 0.36973(15) -0.0685(2) 0.6613(4)
C8 C 0.3455(2) -0.1520(2) 0.5380(4)
C9 C 0.3823(2) -0.3059(2) 0.4398(4)
C10 C 0.4495(2) -0.3656(2) 0.4355(4)
C11 C 0.5181(2) -0.3697(3) 0.5492(4)
C12 C 0.5593(2) -0.4357(2) 0.4922(4)
C13 C 0.6372(2) -0.4759(2) 0.5506(4)
C14 C 0.7051(2) -0.3296(2) 0.5187(4)
C15 C 0.7569(2) -0.2887(2) 0.4269(4)
C16 C 0.8202(2) -0.1336(2) 0.4068(4)
C17 C 0.7709(2) -0.0730(2) 0.2720(4)
C18 C 0.6818(2) 0.0593(2) 0.2188(4)
H1 H 0.5368(16) 0.0997(20) 0.2675(36)
H2 H 0.5361(2) 0.3104(2) 0.5843(4)
H3 H 0.4855(2) 0.3119(2) 0.4017(4)
H4 H 0.5204(2) 0.1931(2) 0.7666(4)
H5 H 0.5412(2) 0.1005(2) 0.6686(4)
H6 H 0.4624(2) 0.0529(2) 0.8384(3)
H7 H 0.3994(2) 0.1200(2) 0.7239(3)
H8 H 0.32694(15) -0.0283(2) 0.6675(4)
H9 H 0.39192(15) -0.0977(2) 0.7697(4)
H10 H 0.3054(2) -0.1903(2) 0.5630(4)
H11 H 0.3269(2) -0.1228(2) 0.4283(4)
H12 H 0.3554(2) -0.2851(2) 0.3288(4)
H13 H 0.3494(2) -0.3475(2) 0.4848(4)
H14 H 0.5330(17) -0.3411(24) 0.6418(35)
H15 H 0.6564(2) -0.4627(2) 0.6682(4)
H16 H 0.6367(2) -0.5493(2) 0.5342(4)
H17 H 0.7290(2) -0.3287(2) 0.6366(4)
H18 H 0.6609(2) -0.2872(2) 0.4975(4)
H19 H 0.7988(2) -0.3344(2) 0.4381(4)
H20 H 0.7315(2) -0.2812(2) 0.3103(4)
H21 H 0.8499(2) -0.1793(2) 0.3597(4)
H22 H 0.8539(2) -0.0876(2) 0.4819(4)
H23 H 0.8002(2) -0.0374(2) 0.2102(4)
H24 H 0.7363(2) -0.1178(2) 0.1966(4)
H25 H 0.6456(2) 0.0161(2) 0.1437(4)
H26 H 0.7091(2) 0.0974(2) 0.1554(4)
#END
