
#######################################################################
#
#                 Cambridge Crystallographic Data Centre
#                                CCDC
#
#######################################################################
#
# If this CIF has been generated from an entry in the Cambridge
# Structural Database, then it will include bibliographic, chemical,
# crystal, experimental, refinement or atomic coordinate data resulting
# from the CCDC's data processing and validation procedures.
#
#######################################################################

data_CSD_CIF_BEMWEV01
_audit_creation_date 1982-11-15
_audit_creation_method CSD-ConQuest-V1
_database_code_CSD BEMWEV01
_database_code_depnum_ccdc_archive 'CCDC 1108568'
_chemical_formula_sum 'C23 H34 N4 O4'
_chemical_formula_moiety
;
C23 H34 N4 O4
;
_journal_coden_Cambridge 10
_journal_volume 65
_journal_year 1982
_journal_page_first 558
_journal_name_full 'Helv.Chim.Acta '
loop_
_publ_author_name
"G.Bernardinelli"
"R.Gerdil"
_chemical_name_systematic
;
1-(2,4-Dinitrophenylhydrazone)-cis-cycloheptadec-9-ene
;
_chemical_name_common
;
cis-Civetone 2,4-dinitrophenylhydrazone
;
_chemical_melting_point 382.15
_cell_volume   1193.836
_exptl_crystal_colour 'yellow-orange'
_exptl_crystal_density_diffrn 1.2
_exptl_special_details
;
beta polymorph

;
_diffrn_ambient_temperature ?
_diffrn_special_details
;
The study was carried out at room temperature,in the range 283-303K

;
#These two values have been output from a single CSD field.
_refine_ls_R_factor_gt 0.075
_refine_ls_wR_factor_gt 0.075
loop_
_citation_database_id_CSD
_citation_special_details
BEPKEM "is a stereoisomer of this entry"
_symmetry_cell_setting triclinic
_symmetry_space_group_name_H-M 'P -1'
_symmetry_Int_Tables_number 2
loop_
_symmetry_equiv_pos_site_id
_symmetry_equiv_pos_as_xyz
1 x,y,z
2 -x,-y,-z
_cell_length_a 7.950(2)
_cell_length_b 8.405(2)
_cell_length_c 18.233(4)
_cell_angle_alpha 100.28(2)
_cell_angle_beta 92.29(3)
_cell_angle_gamma 94.18(2)
_cell_formula_units_Z 2
loop_
_atom_type_symbol
_atom_type_radius_bond
C 0.68
H 0.23
N 0.68
O 0.68
loop_
_atom_site_label
_atom_site_type_symbol
_atom_site_fract_x
_atom_site_fract_y
_atom_site_fract_z
O1 O 0.12650 0.86690 0.52010
O2 O 0.18110 0.78180 0.62140
O3 O 0.69260 0.56740 0.67360
O4 O 0.86970 0.51570 0.58800
N1 N 0.42270 0.89990 0.35410
N2 N 0.35070 0.86420 0.41810
N3 N 0.22210 0.80740 0.56020
N4 N 0.74310 0.57420 0.61290
C1 C 0.32430 0.95180 0.30700
C2 C 0.40900 0.99230 0.24020
C3 C 0.35780 0.87990 0.16790
C4 C 0.41270 0.71120 0.16140
C5 C 0.29760 0.57710 0.09160
C6 C 0.33660 0.42090 0.08110
C7 C 0.24120 0.32600 0.01770
C8 C 0.05760 0.25790 0.02710
C9 C 0.05320 0.16280 0.08540
C10 C -0.08430 0.14640 0.12580
C11 C -0.24290 0.21270 0.12340
C12 C -0.27050 0.32400 0.19700
C13 C -0.16140 0.47830 0.20710
C14 C -0.18860 0.59320 0.27470
C15 C -0.11590 0.77190 0.28150
C16 C 0.05350 0.77880 0.29370
C17 C 0.14040 0.97070 0.31460
C18 C 0.44410 0.79840 0.46620
C19 C 0.38810 0.76650 0.53510
C20 C 0.48420 0.69540 0.58300
C21 C 0.64060 0.65480 0.56340
C22 C 0.70180 0.68330 0.49650
C23 C 0.60890 0.75600 0.45050
H1 H 0.39780 1.08210 0.23190
H2 H 0.53060 0.97550 0.24500
H3 H 0.25270 0.86660 0.15920
H4 H 0.39200 0.91150 0.11980
H5 H 0.54580 0.71290 0.14910
H6 H 0.39030 0.66620 0.20340
H7 H 0.16500 0.57870 0.10460
H8 H 0.31530 0.62070 0.03940
H9 H 0.47100 0.41660 0.07190
H10 H 0.30790 0.37050 0.13070
H11 H 0.24160 0.37370 -0.03160
H12 H 0.30420 0.23290 0.00390
H13 H -0.00500 0.35850 0.03600
H14 H 0.00860 0.18180 -0.02530
H15 H 0.18470 0.10570 0.08380
H16 H -0.09220 0.06200 0.14750
H17 H -0.24410 0.27200 0.07770
H18 H -0.33870 0.14630 0.11030
H19 H -0.36730 0.37250 0.20840
H20 H -0.24130 0.26240 0.24590
H21 H -0.04710 0.44490 0.21220
H22 H -0.16010 0.53520 0.16310
H23 H -0.30140 0.59420 0.28000
H24 H -0.14010 0.53690 0.31840
H25 H -0.14600 0.81520 0.23000
H26 H -0.17050 0.84740 0.32800
H27 H 0.08190 0.71730 0.33990
H28 H 0.10800 0.71740 0.24340
H29 H 0.08820 1.08810 0.28330
H30 H 0.11830 1.00190 0.35630
H31 H 0.43790 0.68540 0.63080
H32 H 0.80560 0.65640 0.48400
H33 H 0.63040 0.76100 0.40500
H34 H 0.24750 0.86420 0.42340
#END
