
#######################################################################
#
#                 Cambridge Crystallographic Data Centre
#                                CCDC
#
#######################################################################
#
# If this CIF has been generated from an entry in the Cambridge
# Structural Database, then it will include bibliographic, chemical,
# crystal, experimental, refinement or atomic coordinate data resulting
# from the CCDC's data processing and validation procedures.
#
#######################################################################

data_CSD_CIF_BENPES
_audit_creation_date 2017-10-18
_audit_creation_method CSD-ConQuest-V1
_database_code_CSD BENPES
_database_code_depnum_ccdc_archive 'CCDC 877995'
_chemical_formula_sum 'C28 H20 N4 O6'
_chemical_formula_moiety
;
C28 H20 N4 O6
;
_journal_coden_Cambridge 757
_journal_volume 16
_journal_year 2012
_journal_page_first 727
_journal_name_full 'Mol.Diversity '
loop_
_publ_author_name
"M.Shafiee"
"A.R.Khosropour"
"I.Mohammadpoor-Baltork"
"M.Moghadam"
"Shahram Tangestaninejad"
"V.Mirkhani"
"H.R.Khavasi"
_chemical_name_systematic
;
2-(5-methyl-1,2-oxazol-3-yl)-1,3-bis(4-nitrophenyl)-2,3-dihydro-1H-naphtho[1,2
-e][1,3]oxazine
;
_cell_volume   2344.018
_exptl_crystal_colour 'colorless'
_exptl_crystal_density_diffrn 1.441
_exptl_crystal_description 'Block'
_diffrn_ambient_temperature 120
#These two values have been output from a single CSD field.
_refine_ls_R_factor_gt 0.041
_refine_ls_wR_factor_gt 0.041
_symmetry_cell_setting monoclinic
_symmetry_space_group_name_H-M 'P 21/n'
_symmetry_Int_Tables_number 14
loop_
_symmetry_equiv_pos_site_id
_symmetry_equiv_pos_as_xyz
1 x,y,z
2 1/2-x,1/2+y,1/2-z
3 -x,-y,-z
4 -1/2+x,-1/2-y,-1/2+z
_cell_length_a 16.539(3)
_cell_length_b 8.2743(17)
_cell_length_c 17.445(4)
_cell_angle_alpha 90
_cell_angle_beta 100.93(3)
_cell_angle_gamma 90
_cell_formula_units_Z 4
loop_
_atom_type_symbol
_atom_type_radius_bond
C 0.68
H 0.23
N 0.68
O 0.68
loop_
_atom_site_label
_atom_site_type_symbol
_atom_site_fract_x
_atom_site_fract_y
_atom_site_fract_z
C1 C 0.81056(10) 0.37420(18) 0.23194(9)
H1 H 0.85000 0.32590 0.27010
C2 C 0.83519(9) 0.46078(18) 0.17091(10)
H2 H 0.89060 0.46590 0.16760
C3 C 0.77763(10) 0.53730(19) 0.11653(9)
H3 H 0.79450 0.59450 0.07640
C4 C 0.69276(9) 0.53147(18) 0.11985(9)
C5 C 0.66745(9) 0.43791(17) 0.17964(8)
C6 C 0.72860(9) 0.36065(18) 0.23541(9)
H4 H 0.71300 0.29980 0.27500
C7 C 0.58170(9) 0.42672(17) 0.18224(8)
C8 C 0.52592(9) 0.51093(17) 0.12843(8)
C9 C 0.55104(9) 0.60654(18) 0.07005(9)
H5 H 0.51220 0.66330 0.03460
C10 C 0.63233(10) 0.61529(18) 0.06589(9)
H6 H 0.64850 0.67740 0.02700
C11 C 0.56571(8) 0.38176(17) 0.32364(8)
C12 C 0.54694(9) 0.28353(17) 0.38286(9)
H7 H 0.52230 0.18350 0.37030
C13 C 0.56445(9) 0.33275(17) 0.46008(9)
H8 H 0.55280 0.26650 0.49970
C14 C 0.59983(9) 0.48346(18) 0.47672(8)
C15 C 0.61654(9) 0.58629(18) 0.41931(9)
H9 H 0.63880 0.68830 0.43190
C16 C 0.59934(9) 0.53368(18) 0.34264(9)
H10 H 0.61050 0.60110 0.30320
C17 C 0.32766(9) 0.41513(17) 0.18215(9)
C18 C 0.27453(9) 0.47781(18) 0.11771(9)
H11 H 0.29570 0.52950 0.07850
C19 C 0.18984(9) 0.46344(18) 0.11178(9)
H12 H 0.15380 0.50350 0.06850
C20 C 0.16046(9) 0.38820(18) 0.17171(9)
C21 C 0.21178(10) 0.32671(18) 0.23683(9)
H13 H 0.19030 0.27770 0.27660
C22 C 0.29572(9) 0.33979(18) 0.24151(9)
H14 H 0.33140 0.29800 0.28460
C23 C 0.44977(9) 0.15821(17) 0.15473(8)
C24 C 0.37403(9) 0.09876(18) 0.11162(9)
H15 H 0.32110 0.13390 0.11380
C25 C 0.39601(10) -0.01973(19) 0.06686(9)
C26 C 0.55192(9) 0.31676(17) 0.24062(8)
H16 H 0.58250 0.21500 0.24190
C27 C 0.35011(11) -0.1291(2) 0.00626(11)
H17 H 0.36400 -0.10410 -0.04340
H18 H 0.29200 -0.11470 0.00330
H19 H 0.36470 -0.23920 0.01970
C28 C 0.42003(9) 0.43108(17) 0.19356(8)
H20 H 0.43740 0.50490 0.23750
N1 N 0.62035(8) 0.53650(15) 0.55815(7)
N2 N 0.07085(8) 0.37181(15) 0.16601(8)
N3 N 0.46357(7) 0.27915(14) 0.21299(7)
N4 N 0.51282(9) 0.08078(18) 0.13703(9)
O1 O 0.02585(7) 0.41483(14) 0.10492(7)
O2 O 0.04541(7) 0.31693(15) 0.22221(7)
O3 O 0.60471(7) 0.44680(13) 0.60921(6)
O4 O 0.65218(9) 0.67050(15) 0.57154(7)
O5 O 0.44179(6) 0.50493(12) 0.12590(6)
O6 O 0.47837(7) -0.03513(15) 0.08109(8)
#END
