
#######################################################################
#
#                 Cambridge Crystallographic Data Centre
#                                CCDC
#
#######################################################################
#
# If this CIF has been generated from an entry in the Cambridge
# Structural Database, then it will include bibliographic, chemical,
# crystal, experimental, refinement or atomic coordinate data resulting
# from the CCDC's data processing and validation procedures.
#
#######################################################################

data_CSD_CIF_BENWEY
_audit_creation_date 2013-05-17
_audit_creation_method CSD-ConQuest-V1
_database_code_CSD BENWEY
_database_code_depnum_ccdc_archive 'CCDC 918856'
_chemical_formula_sum 'C21 H31 N1 O7'
_chemical_formula_moiety
;
C21 H31 N1 O7
;
_journal_coden_Cambridge 475
_journal_volume 40
_journal_year 2012
_journal_page_first 210
_journal_name_full 'Rev.Latinoam Quim. '
loop_
_publ_author_name
"H.A.Gracia-Gutierrez"
"L.U.Roman-Marin"
"J.D.Hernandez-Hernandez"
"C.M.Cerda-Garcia-Rojas"
_chemical_name_systematic
;
9-(Hydroxyimino)-2,6,6,11-tetramethyltricyclo[5.4.0.0^2,8^]undecane-3,4,5-triy
l triacetate
;
_chemical_name_common
;
Longipinan-7-beta-8-alpha-9-alpha-triacetoxy-1-one oxime
;
_chemical_melting_point 552.15
_cell_volume   1118.521
_exptl_crystal_colour 'colorless'
_exptl_crystal_density_diffrn 1.216
_exptl_special_details
;
Melting point range 552.15-553.15K

;
_exptl_crystal_description 'prism'
_exptl_crystal_preparation 'chloroform/hexane'
_diffrn_ambient_temperature 293
#These two values have been output from a single CSD field.
_refine_ls_R_factor_gt 0.034
_refine_ls_wR_factor_gt 0.034
_symmetry_cell_setting monoclinic
_symmetry_space_group_name_H-M 'P 21'
_symmetry_Int_Tables_number 4
loop_
_symmetry_equiv_pos_site_id
_symmetry_equiv_pos_as_xyz
1 x,y,z
2 -x,1/2+y,-z
_cell_length_a 9.177(2)
_cell_length_b 14.443(4)
_cell_length_c 9.191(1)
_cell_angle_alpha 90
_cell_angle_beta 113.34(1)
_cell_angle_gamma 90
_cell_formula_units_Z 2
loop_
_atom_type_symbol
_atom_type_radius_bond
C 0.68
H 0.23
N 0.68
O 0.68
loop_
_atom_site_label
_atom_site_type_symbol
_atom_site_fract_x
_atom_site_fract_y
_atom_site_fract_z
C1 C -0.1195(6) 0.5283(4) 0.6154(6)
C2 C -0.1938(8) 0.5236(4) 0.4379(6)
C3 C -0.2457(6) 0.6173(4) 0.3564(5)
C4 C -0.2424(5) 0.6928(4) 0.4743(5)
C5 C -0.3122(5) 0.6514(4) 0.5897(5)
C6 C -0.3947(5) 0.7101(4) 0.6756(5)
C7 C -0.2767(5) 0.7761(4) 0.7925(5)
C8 C -0.1914(5) 0.8370(3) 0.7143(5)
C9 C -0.0488(5) 0.7895(3) 0.7057(5)
C10 C -0.0767(5) 0.6969(4) 0.6155(5)
C11 C -0.1412(5) 0.6169(3) 0.6872(5)
C12 C -0.5380(4) 0.7604(5) 0.5544(5)
H1 H -0.50310 0.80210 0.49340
H2 H -0.59100 0.79470 0.60860
H3 H -0.61000 0.71590 0.48510
C13 C -0.4525(6) 0.6422(5) 0.7711(5)
H4 H -0.36300 0.61090 0.84840
H5 H -0.52290 0.59760 0.70050
H6 H -0.50770 0.67590 0.82380
C14 C 0.0743(5) 0.6771(4) 0.5873(6)
H7 H 0.06350 0.61880 0.53370
H8 H 0.16380 0.67460 0.68720
H9 H 0.09010 0.72540 0.52340
C15 C -0.4021(7) 0.6133(4) 0.2179(5)
H10 H -0.39960 0.56530 0.14680
H11 H -0.42260 0.67170 0.16360
H12 H -0.48460 0.60040 0.25450
C16 C -0.2931(5) 0.8442(4) 1.0205(6)
C17 C -0.3674(6) 0.9210(5) 1.0767(6)
H13 H -0.45030 0.94910 0.98740
H14 H -0.28840 0.96660 1.13080
H15 H -0.41120 0.89660 1.14780
C18 C -0.1710(6) 1.0009(4) 0.7407(7)
C19 C -0.0892(9) 1.0770(5) 0.8521(8)
H16 H -0.02010 1.05120 0.95190
H17 H -0.16670 1.11590 0.86760
H18 H -0.02810 1.11300 0.80870
C20 C 0.1798(5) 0.8335(5) 0.9373(5)
C21 C 0.2546(6) 0.8217(5) 1.1113(5)
H19 H 0.20420 0.77150 1.14200
H20 H 0.24260 0.87760 1.16190
H21 H 0.36540 0.80830 1.14310
N1 N -0.0379(5) 0.4649(3) 0.7096(5)
O1 O -0.0260(5) 0.3851(3) 0.6252(4)
H22 H 0.02660 0.34550 0.68800
O2 O -0.3576(3) 0.8361(3) 0.8633(3)
O3 O -0.1326(4) 0.9189(3) 0.8083(4)
O4 O 0.0610(3) 0.7729(2) 0.8680(3)
O5 O -0.1865(5) 0.7965(2) 1.1057(4)
O6 O -0.2600(8) 1.0103(3) 0.6073(6)
O7 O 0.2195(5) 0.8909(4) 0.8665(5)
H23 H -0.125(6) 0.489(5) 0.406(7)
H24 H -0.301(8) 0.484(5) 0.410(8)
H25 H -0.173(5) 0.641(3) 0.317(5)
H26 H -0.287(4) 0.758(4) 0.426(5)
H27 H -0.385(5) 0.609(3) 0.537(4)
H28 H -0.195(5) 0.743(3) 0.880(5)
H29 H -0.267(5) 0.857(3) 0.610(5)
H30 H 0.009(4) 0.832(3) 0.655(5)
H31 H -0.107(4) 0.611(2) 0.800(5)
#END
