
#######################################################################
#
#                 Cambridge Crystallographic Data Centre
#                                CCDC
#
#######################################################################
#
# If this CIF has been generated from an entry in the Cambridge
# Structural Database, then it will include bibliographic, chemical,
# crystal, experimental, refinement or atomic coordinate data resulting
# from the CCDC's data processing and validation procedures.
#
#######################################################################

data_CSD_CIF_BENZAV
_audit_creation_date 1982-11-15
_audit_creation_method CSD-ConQuest-V1
_database_code_CSD BENZAV
_database_code_depnum_ccdc_archive 'CCDC 1108745'
_chemical_formula_sum 'C17 H22 N1 O2'
_chemical_formula_moiety
;
C17 H22 N1 O2
;
_journal_coden_Cambridge 82
_journal_volume 22
_journal_year 1981
_journal_page_first 140-6
_journal_name_full 'Zh.Strukt.Khim.(Russ.)(J.Struct.Chem.) '
loop_
_publ_author_name
"R.P.Shibaeva"
"L.P.Rozenberg"
"A.B.Shapiro"
"L.S.Povarov"
_chemical_name_systematic
;
(1'H,3'H-dispiro[cyclohexane-1,2'-quinoline-4',2''-oxolan]-1'-yl)oxidanyl 
radical
;
_cell_volume   1459.303
_exptl_crystal_colour 'bright orange'
_exptl_crystal_density_diffrn 1.25
_diffrn_ambient_temperature ?
_diffrn_special_details
;
The study was carried out at room temperature,in the range 283-303K

;
#These two values have been output from a single CSD field.
_refine_ls_R_factor_gt 0.065
_refine_ls_wR_factor_gt 0.065
_symmetry_cell_setting monoclinic
_symmetry_space_group_name_H-M 'P 1 1 21/b'
_symmetry_Int_Tables_number 14
loop_
_symmetry_equiv_pos_site_id
_symmetry_equiv_pos_as_xyz
1 x,y,z
2 -x,1/2-y,1/2+z
3 -x,-y,-z
4 x,-1/2+y,-1/2-z
_cell_length_a 10.252(4)
_cell_length_b 17.499(7)
_cell_length_c 8.374(3)
_cell_angle_alpha 90
_cell_angle_beta 90
_cell_angle_gamma 103.74(3)
_cell_formula_units_Z 4
loop_
_atom_type_symbol
_atom_type_radius_bond
C 0.68
H 0.23
N 0.68
O 0.68
loop_
_atom_site_label
_atom_site_type_symbol
_atom_site_fract_x
_atom_site_fract_y
_atom_site_fract_z
O1 O 0.45390 0.31020 0.37310
O2 O 0.03740 0.17060 0.61750
N1 N 0.12410 0.20580 0.51510
C1 C 0.18900 0.16090 0.41890
C2 C 0.15370 0.07890 0.44060
C3 C 0.21200 0.03180 0.34900
C4 C 0.30820 0.06450 0.23550
C5 C 0.34310 0.14630 0.21620
C6 C 0.28530 0.19620 0.30520
C7 C 0.32770 0.28430 0.28750
C8 C 0.22110 0.32290 0.35690
C9 C 0.16360 0.29380 0.52160
C10 C 0.26220 0.31590 0.66060
C11 C 0.29630 0.40470 0.69160
C12 C 0.17090 0.43380 0.72140
C13 C 0.07150 0.41230 0.58350
C14 C 0.03680 0.32410 0.55310
C15 C 0.36000 0.31450 0.11450
C16 C 0.48440 0.37890 0.13140
C17 C 0.54380 0.36710 0.28470
H1 H 0.07800 0.05300 0.52800
H2 H 0.18400 -0.03400 0.36700
H3 H 0.35500 0.02900 0.15700
H4 H 0.40700 0.16900 0.13300
H5 H 0.14700 0.31100 0.27700
H6 H 0.26100 0.38300 0.35900
H7 H 0.21500 0.28400 0.76100
H8 H 0.35100 0.29200 0.64200
H9 H 0.34500 0.43800 0.60100
H10 H 0.35800 0.41400 0.79100
H11 H 0.11600 0.40800 0.83200
H12 H 0.17700 0.49200 0.73400
H13 H -0.01900 0.43100 0.61700
H14 H 0.10400 0.44700 0.47200
H15 H -0.02700 0.30200 0.46000
H16 H -0.00600 0.29600 0.65100
H17 H 0.28300 0.33200 0.05900
H18 H 0.38500 0.27400 0.04500
H19 H 0.45900 0.43600 0.12800
H20 H 0.55500 0.37600 0.03600
H21 H 0.63700 0.35000 0.26700
H22 H 0.56500 0.42400 0.35100
#END
