
#######################################################################
#
#                 Cambridge Crystallographic Data Centre
#                                CCDC
#
#######################################################################
#
# If this CIF has been generated from an entry in the Cambridge
# Structural Database, then it will include bibliographic, chemical,
# crystal, experimental, refinement or atomic coordinate data resulting
# from the CCDC's data processing and validation procedures.
#
#######################################################################

data_CSD_CIF_BENZAN
_audit_creation_date 1971-12-31
_audit_creation_method CSD-ConQuest-V1
_database_code_CSD BENZAN
_chemical_formula_sum 'C14 H9 N1 O2'
_chemical_formula_moiety
;
C14 H9 N1 O2
;
_journal_coeditor_code "IUCr A03621"
_journal_coden_Cambridge 1
_journal_volume 15
_journal_year 1962
_journal_page_first 1035
_journal_name_full 'Acta Crystallogr. '
loop_
_publ_author_name
"M.Sundaralingam"
"G.A.Jeffrey"
_chemical_name_systematic
;
3-Benzoylanthranil
;
_cell_volume   1089.593
_exptl_special_details
;
z(c2)is 0.4244 not 0.4344

;
_diffrn_ambient_temperature ?
_diffrn_special_details
;
The study was carried out at room temperature,in the range 283-303K

;
_refine_special_details
;
further refinement (R = 0.053) was reported by Sundaralingam and Jensen, Acta 
Cryst., 16, A61, 1963 but no coordinates have been published
;
#These two values have been output from a single CSD field.
_refine_ls_R_factor_gt 0.09
_refine_ls_wR_factor_gt 0.09
_symmetry_cell_setting monoclinic
_symmetry_space_group_name_H-M 'P 21/c'
_symmetry_Int_Tables_number 14
loop_
_symmetry_equiv_pos_site_id
_symmetry_equiv_pos_as_xyz
1 x,y,z
2 -x,1/2+y,1/2-z
3 -x,-y,-z
4 x,-1/2-y,-1/2+z
_cell_length_a 12.391
_cell_length_b 3.892
_cell_length_c 23.001
_cell_angle_alpha 90
_cell_angle_beta 100.8
_cell_angle_gamma 90
_cell_formula_units_Z 4
loop_
_atom_type_symbol
_atom_type_radius_bond
C 0.68
H 0.20
N 0.68
O 0.68
loop_
_atom_site_label
_atom_site_type_symbol
_atom_site_fract_x
_atom_site_fract_y
_atom_site_fract_z
C1 C 0.07440 0.22390 0.41860
C2 C 0.47610 0.24010 0.42200
C3 C 0.58620 0.32600 0.44110
C4 C 0.64620 0.45360 0.40140
C5 C 0.59880 0.50340 0.34310
C6 C 0.48700 0.41460 0.32230
C7 C -0.03410 0.17270 0.42440
C8 C -0.10260 0.02560 0.37770
C9 C -0.06650 -0.08660 0.32530
C10 C 0.04160 -0.04510 0.31990
C11 C 0.11350 0.11870 0.36690
C12 C 0.22340 0.21900 0.37740
C13 C 0.30650 0.19280 0.33940
C14 C 0.42570 0.28710 0.36280
H1 H 0.43400 0.09200 0.45700
H2 H 0.60500 0.36700 0.48600
H3 H 0.70400 0.38300 0.41500
H4 H 0.62300 0.59500 0.29700
H5 H 0.43800 0.46700 0.27300
H6 H -0.05100 0.29200 0.46200
H7 H -0.19000 0.00800 0.38300
H8 H -0.10600 -0.21700 0.28900
H9 H 0.06900 -0.06700 0.27900
N1 N 0.15330 0.37730 0.45810
O1 O 0.24730 0.36830 0.43160
O2 O 0.27770 0.09880 0.28820
#END
