
#######################################################################
#
#                 Cambridge Crystallographic Data Centre
#                                CCDC
#
#######################################################################
#
# If this CIF has been generated from an entry in the Cambridge
# Structural Database, then it will include bibliographic, chemical,
# crystal, experimental, refinement or atomic coordinate data resulting
# from the CCDC's data processing and validation procedures.
#
#######################################################################

data_CSD_CIF_BEQTUP
_audit_creation_date 2018-02-24
_audit_creation_method CSD-ConQuest-V1
_database_code_CSD BEQTUP
_database_code_depnum_ccdc_archive 'CCDC 1823263'
_chemical_formula_sum 'C12 H12 N2 O4'
_chemical_formula_moiety
;
C12 H12 N2 O4
;
_journal_coeditor_code "hb7736"
_journal_coden_Cambridge 1828
_journal_volume 74
_journal_year 2018
_journal_page_first 371
_journal_name_full 'Acta Crystallogr.,Sect.E:Cryst.Commun. '
loop_
_publ_author_name
"J.Zukerman-Schpector"
"M.Soto-Monsalve"
"R.H.De Almeida Santos"
"A.L.L.Garcia"
"C.R.D.Correia"
"M.M.Jotani"
"E.R.T.Tiekink"
_chemical_name_systematic
;
(4-nitrophenyl)methyl 2,3-dihydro-1H-pyrrole-1-carboxylate
;
_cell_volume   1161.137
_exptl_crystal_colour 'yellow'
_exptl_crystal_density_diffrn 1.42
_exptl_crystal_description 'irregular'
_diffrn_ambient_temperature 290
#These two values have been output from a single CSD field.
_refine_ls_R_factor_gt 0.0408
_refine_ls_wR_factor_gt 0.0408
_symmetry_cell_setting monoclinic
_symmetry_space_group_name_H-M 'P 21/n'
_symmetry_Int_Tables_number 14
loop_
_symmetry_equiv_pos_site_id
_symmetry_equiv_pos_as_xyz
1 x,y,z
2 1/2-x,1/2+y,1/2-z
3 -x,-y,-z
4 -1/2+x,-1/2-y,-1/2+z
_cell_length_a 9.0385(3)
_cell_length_b 12.2518(4)
_cell_length_c 10.5452(3)
_cell_angle_alpha 90
_cell_angle_beta 96.102(1)
_cell_angle_gamma 90
_cell_formula_units_Z 4
loop_
_atom_type_symbol
_atom_type_radius_bond
C 0.68
H 0.23
N 0.68
O 0.68
loop_
_atom_site_label
_atom_site_type_symbol
_atom_site_fract_x
_atom_site_fract_y
_atom_site_fract_z
O1 O 0.95640(13) 0.32527(10) 0.51064(14)
O2 O 0.73098(11) 0.38092(8) 0.41873(11)
O3 O 0.20267(15) 0.75353(13) 0.19648(17)
O4 O 0.34938(16) 0.88645(10) 0.24771(15)
N1 N 0.77129(13) 0.20438(10) 0.45899(13)
N2 N 0.32222(15) 0.78902(12) 0.24108(13)
C1 C 0.86033(17) 0.10688(13) 0.49447(17)
H1 H 0.88880 0.10460 0.58580
H2 H 0.94950 0.10520 0.45080
C2 C 0.75720(19) 0.01184(14) 0.45210(19)
H3 H 0.79870 -0.03220 0.38810
H4 H 0.74010 -0.03420 0.52390
C3 C 0.61637(18) 0.06612(14) 0.39787(18)
H5 H 0.53080 0.02920 0.36520
C4 C 0.62960(16) 0.17304(13) 0.40258(16)
H6 H 0.55490 0.22160 0.37250
C5 C 0.83046(16) 0.30513(12) 0.46670(15)
C6 C 0.78181(17) 0.49186(12) 0.42996(17)
H7 H 0.86650 0.50190 0.38190
H8 H 0.81270 0.50890 0.51860
C7 C 0.65706(15) 0.56621(11) 0.37923(13)
C8 C 0.51427(16) 0.52938(12) 0.33957(14)
H9 H 0.49270 0.45530 0.34360
C9 C 0.40373(17) 0.60201(12) 0.29406(15)
H10 H 0.30820 0.57740 0.26720
C10 C 0.43818(16) 0.71143(12) 0.28935(13)
C11 C 0.57881(17) 0.75032(12) 0.32932(16)
H11 H 0.59960 0.82460 0.32620
C12 C 0.68753(17) 0.67727(12) 0.37385(16)
H12 H 0.78280 0.70250 0.40070
#END
