
#######################################################################
#
#                 Cambridge Crystallographic Data Centre
#                                CCDC
#
#######################################################################
#
# If this CIF has been generated from an entry in the Cambridge
# Structural Database, then it will include bibliographic, chemical,
# crystal, experimental, refinement or atomic coordinate data resulting
# from the CCDC's data processing and validation procedures.
#
#######################################################################

data_CSD_CIF_BERCOT
_audit_creation_date 2018-02-25
_audit_creation_method CSD-ConQuest-V1
_database_code_CSD BERCOT
_database_code_depnum_ccdc_archive 'CCDC 1825607'
_chemical_formula_sum 'C12 H12 N2 O5'
_chemical_formula_moiety
;
C12 H12 N2 O5
;
_journal_coden_Cambridge 1078
_journal_year 2018
_journal_name_full 'CSD Communication(Private Communication) '
loop_
_publ_author_name
"B.W.Skelton"
"M.J.Piggott"
"M.R.Buccini"
_chemical_name_systematic
;
5,8-dimethoxy-2-methyl-7-nitroisoquinolin-1(2H)-one
;
_cell_volume   1180.340
_exptl_crystal_colour 'yellow'
_exptl_crystal_density_diffrn 1.487
_exptl_crystal_description 'plate'
_diffrn_ambient_temperature 100
_diffrn_special_details
;
twin

;
#These two values have been output from a single CSD field.
_refine_ls_R_factor_gt 0.0687
_refine_ls_wR_factor_gt 0.0687
_symmetry_cell_setting monoclinic
_symmetry_space_group_name_H-M 'P 21/c'
_symmetry_Int_Tables_number 14
loop_
_symmetry_equiv_pos_site_id
_symmetry_equiv_pos_as_xyz
1 x,y,z
2 -x,1/2+y,1/2-z
3 -x,-y,-z
4 x,-1/2-y,-1/2+z
_cell_length_a 15.7383(9)
_cell_length_b 10.5862(4)
_cell_length_c 7.0845(4)
_cell_angle_alpha 90
_cell_angle_beta 90.023(5)
_cell_angle_gamma 90
_cell_formula_units_Z 4
loop_
_atom_type_symbol
_atom_type_radius_bond
C 0.68
H 0.23
N 0.68
O 0.68
loop_
_atom_site_label
_atom_site_type_symbol
_atom_site_fract_x
_atom_site_fract_y
_atom_site_fract_z
C1 C 0.10817(16) 0.5748(2) 0.3056(4)
O1 O 0.07646(12) 0.46999(16) 0.2813(3)
N1 N 0.05739(14) 0.68061(18) 0.2827(3)
C2 C -0.03198(17) 0.6584(2) 0.2326(4)
H1 H -0.06043 0.73962 0.21188
H2 H -0.06025 0.61311 0.33554
H3 H -0.03487 0.60781 0.11696
C3 C 0.08692(17) 0.8021(2) 0.3023(4)
H4 H 0.04921 0.87065 0.28028
C4 C 0.16783(17) 0.8266(2) 0.3519(3)
H5 H 0.18673 0.91145 0.36454
C5 C 0.22505(16) 0.7245(2) 0.3854(3)
C6 C 0.30944(16) 0.7477(2) 0.4470(4)
O2 O 0.33004(12) 0.87255(16) 0.4662(3)
C7 C 0.41747(17) 0.9016(3) 0.5043(4)
H6 H 0.43416 0.86381 0.62502
H7 H 0.42477 0.99342 0.51061
H8 H 0.45317 0.86733 0.40319
C8 C 0.36398(17) 0.6502(3) 0.4845(4)
H9 H 0.41938 0.66563 0.53261
C9 C 0.33552(17) 0.5270(2) 0.4497(4)
N2 N 0.39818(15) 0.4261(2) 0.4854(3)
O3 O 0.43800(13) 0.4318(2) 0.6345(3)
O4 O 0.40853(14) 0.34384(19) 0.3663(3)
C10 C 0.25568(16) 0.4973(2) 0.3859(3)
O5 O 0.23294(13) 0.37348(16) 0.3669(3)
C11 C 0.2350(2) 0.3261(3) 0.1770(4)
H10 H 0.19210 0.36995 0.10100
H11 H 0.22281 0.23528 0.17768
H12 H 0.29139 0.34064 0.12266
C12 C 0.19681(16) 0.5986(2) 0.3575(4)
#END
