
#######################################################################
#
#                 Cambridge Crystallographic Data Centre
#                                CCDC
#
#######################################################################
#
# If this CIF has been generated from an entry in the Cambridge
# Structural Database, then it will include bibliographic, chemical,
# crystal, experimental, refinement or atomic coordinate data resulting
# from the CCDC's data processing and validation procedures.
#
#######################################################################

data_CSD_CIF_BERMAM
_audit_creation_date 1983-01-18
_audit_creation_method CSD-ConQuest-V1
_database_code_CSD BERMAM
_database_code_depnum_ccdc_archive 'CCDC 1108957'
_chemical_formula_sum 'C5 H8 N2 O4'
_chemical_formula_moiety
;
C5 H8 N2 O4
;
_journal_coden_Cambridge 189
_journal_volume 11
_journal_year 1982
_journal_page_first 35
_journal_name_full 'Cryst.Struct.Commun. '
loop_
_publ_author_name
"V.G.Andrianov"
"Yu.T.Struchkov"
"K.K.Babievsky"
_chemical_name_systematic
;
(Z)-Methyl-\b-methylamino-\a-nitroacrylate
;
_cell_volume    705.111
_exptl_crystal_density_diffrn 1.51
_diffrn_ambient_temperature 153.15
#These two values have been output from a single CSD field.
_refine_ls_R_factor_gt 0.112
_refine_ls_wR_factor_gt 0.112
_symmetry_cell_setting monoclinic
_symmetry_space_group_name_H-M 'P 21/a'
_symmetry_Int_Tables_number 14
loop_
_symmetry_equiv_pos_site_id
_symmetry_equiv_pos_as_xyz
1 x,y,z
2 1/2-x,1/2+y,-z
3 -x,-y,-z
4 -1/2+x,-1/2-y,z
_cell_length_a 6.336(5)
_cell_length_b 11.034(6)
_cell_length_c 10.095(6)
_cell_angle_alpha 90
_cell_angle_beta 92.45(5)
_cell_angle_gamma 90
_cell_formula_units_Z 4
loop_
_atom_type_symbol
_atom_type_radius_bond
C 0.68
N 0.68
O 0.68
loop_
_atom_site_label
_atom_site_type_symbol
_atom_site_fract_x
_atom_site_fract_y
_atom_site_fract_z
O1 O 0.24520 0.12620 0.19110
O2 O 0.23520 0.25130 0.36440
O3 O 0.24510 0.53710 0.10780
O4 O 0.24840 0.48020 0.31180
N1 N 0.24080 0.45470 0.19240
N2 N 0.25510 0.38350 -0.08890
C1 C 0.24370 0.33440 0.14560
C2 C 0.24850 0.30900 0.01070
C3 C 0.24190 0.22750 0.23600
C4 C 0.24260 0.14520 0.44680
C5 C 0.25930 0.34420 -0.22620
#END
