
#######################################################################
#
#                 Cambridge Crystallographic Data Centre
#                                CCDC
#
#######################################################################
#
# If this CIF has been generated from an entry in the Cambridge
# Structural Database, then it will include bibliographic, chemical,
# crystal, experimental, refinement or atomic coordinate data resulting
# from the CCDC's data processing and validation procedures.
#
#######################################################################

data_CSD_CIF_BESGUB
_audit_creation_date 1983-01-18
_audit_creation_method CSD-ConQuest-V1
_database_code_CSD BESGUB
_database_code_depnum_ccdc_archive 'CCDC 1109037'
_chemical_formula_sum 'C11 H15 N1 O5'
_chemical_formula_moiety
;
C11 H15 N1 O5
;
_journal_coden_Cambridge 189
_journal_volume 11
_journal_year 1982
_journal_page_first 185
_journal_name_full 'Cryst.Struct.Commun. '
loop_
_publ_author_name
"A.I.Akhmedov"
"A.I.Yanovsky"
"Yu.T.Struchkov"
_chemical_name_systematic
;
2-Nitro-3-methoxycarbonylmethyl-bicyclo(2.2.2)octan-5-one
;
_cell_volume   1158.649
_diffrn_ambient_temperature ?
_diffrn_special_details
;
The study was carried out at room temperature,in the range 283-303K

;
#These two values have been output from a single CSD field.
_refine_ls_R_factor_gt 0.054
_refine_ls_wR_factor_gt 0.054
_symmetry_cell_setting monoclinic
_symmetry_space_group_name_H-M 'P 21/c'
_symmetry_Int_Tables_number 14
loop_
_symmetry_equiv_pos_site_id
_symmetry_equiv_pos_as_xyz
1 x,y,z
2 -x,1/2+y,1/2-z
3 -x,-y,-z
4 x,-1/2-y,-1/2+z
_cell_length_a 10.996(2)
_cell_length_b 10.814(1)
_cell_length_c 10.099(2)
_cell_angle_alpha 90
_cell_angle_beta 105.24(1)
_cell_angle_gamma 90
_cell_formula_units_Z 4
loop_
_atom_type_symbol
_atom_type_radius_bond
C 0.68
H 0.23
N 0.68
O 0.68
loop_
_atom_site_label
_atom_site_type_symbol
_atom_site_fract_x
_atom_site_fract_y
_atom_site_fract_z
O1 O 0.35960 0.38770 -0.02870
O2 O 0.52280 0.33510 0.13160
O3 O 0.12210 0.67660 0.01000
O4 O 0.26930 0.14300 0.11410
O5 O 0.13480 0.06790 0.22530
N1 N 0.41420 0.37040 0.09240
C1 C 0.38690 0.53340 0.25260
C2 C 0.34800 0.40200 0.20130
C3 C 0.20460 0.39030 0.15130
C4 C 0.14300 0.51410 0.17560
C5 C 0.19060 0.61270 0.09720
C6 C 0.33080 0.62700 0.14010
C7 C 0.33190 0.55420 0.37490
C8 C 0.18850 0.55070 0.32830
C9 C 0.15310 0.28310 0.21950
C10 C 0.19450 0.15940 0.17930
C11 C 0.17040 -0.05650 0.19940
H1 H 0.47100 0.53700 0.27400
H2 H 0.38700 0.34700 0.27300
H3 H 0.19400 0.37100 0.05600
H4 H 0.06200 0.50400 0.14200
H5 H 0.35000 0.61200 0.05800
H6 H 0.34800 0.71500 0.17800
H7 H 0.35200 0.49000 0.44100
H8 H 0.35300 0.63800 0.41600
H9 H 0.14700 0.63500 0.34000
H10 H 0.14400 0.49000 0.38700
H11 H 0.20500 0.28300 0.33300
H12 H 0.05200 0.28600 0.18400
H13 H 0.13600 -0.10100 0.25400
H14 H 0.26000 -0.06800 0.22300
H15 H 0.13300 -0.07800 0.11300
#END
