
#######################################################################
#
#                 Cambridge Crystallographic Data Centre
#                                CCDC
#
#######################################################################
#
# If this CIF has been generated from an entry in the Cambridge
# Structural Database, then it will include bibliographic, chemical,
# crystal, experimental, refinement or atomic coordinate data resulting
# from the CCDC's data processing and validation procedures.
#
#######################################################################

data_CSD_CIF_BESVOM
_audit_creation_date 2013-05-17
_audit_creation_method CSD-ConQuest-V1
_database_code_CSD BESVOM
_database_code_depnum_ccdc_archive 'CCDC 916420'
_chemical_formula_sum 'C15 H19 N1 O3'
_chemical_formula_moiety
;
C15 H19 N1 O3
;
_journal_coden_Cambridge 35
_journal_volume 78
_journal_year 2013
_journal_page_first 311
_journal_name_full 'J.Org.Chem. '
loop_
_publ_author_name
"Shinn Dee Yeoh"
"C.E.Skene"
"J.M.White"
_chemical_name_systematic
;
6,6-Dimethylbicyclo[3.1.1]hept-2-yl 4-nitrophenyl ether
;
_chemical_name_common
;
beta-Nopinyl 4-nitrophenoxide
;
_chemical_melting_point 348.35
_cell_volume   1378.573
_exptl_crystal_density_diffrn 1.259
_exptl_special_details
;
Melting point range 348.35-350.15K

;
_exptl_crystal_description 'plate'
_exptl_crystal_preparation 'dichloromethane'
_diffrn_ambient_temperature 130
#These two values have been output from a single CSD field.
_refine_ls_R_factor_gt 0.0373
_refine_ls_wR_factor_gt 0.0373
loop_
_citation_database_id_CSD
_citation_special_details
BESWIH "is a stereoisomer of this entry"
_symmetry_cell_setting orthorhombic
_symmetry_space_group_name_H-M 'P 21 21 21'
_symmetry_Int_Tables_number 19
loop_
_symmetry_equiv_pos_site_id
_symmetry_equiv_pos_as_xyz
1 x,y,z
2 1/2-x,-y,1/2+z
3 1/2+x,1/2-y,-z
4 -x,1/2+y,1/2-z
_cell_length_a 10.6165(7)
_cell_length_b 10.9588(11)
_cell_length_c 11.8491(10)
_cell_angle_alpha 90
_cell_angle_beta 90
_cell_angle_gamma 90
_cell_formula_units_Z 4
loop_
_atom_type_symbol
_atom_type_radius_bond
C 0.68
H 0.23
N 0.68
O 0.68
loop_
_atom_site_label
_atom_site_type_symbol
_atom_site_fract_x
_atom_site_fract_y
_atom_site_fract_z
O1 O 0.42645(16) 0.10976(16) 0.59547(12)
O2 O 0.2731(2) 0.56527(18) 0.30605(15)
O3 O 0.37835(17) 0.46000(19) 0.18515(13)
N1 N 0.33493(19) 0.4748(2) 0.27942(16)
C1 C 0.3163(2) 0.3000(2) 0.54802(17)
H1 H 0.27600 0.30440 0.61760
C2 C 0.3565(2) 0.3806(2) 0.36437(17)
C3 C 0.4610(2) 0.1991(2) 0.42051(17)
H2 H 0.51710 0.13590 0.40560
C4 C 0.4115(2) 0.1683(3) 0.79388(19)
H3 H 0.42930 0.25400 0.77650
C5 C 0.2947(2) 0.3881(2) 0.46716(18)
H4 H 0.23930 0.45200 0.48150
C6 C 0.4394(2) 0.2866(2) 0.34100(17)
H5 H 0.48020 0.28310 0.27160
C7 C 0.3988(2) 0.2043(2) 0.52480(17)
C8 C 0.3546(2) 0.0953(2) 0.69922(17)
H6 H 0.26710 0.12050 0.68700
C9 C 0.1937(2) 0.1308(3) 0.89926(19)
H7 H 0.17290 0.06990 0.84410
H8 H 0.15630 0.20720 0.87800
H9 H 0.16200 0.10630 0.97170
C10 C 0.4195(2) 0.0298(3) 0.9179(2)
H10 H 0.44410 0.00980 0.99550
C11 C 0.3376(2) 0.1454(2) 0.90560(19)
C12 C 0.3670(3) 0.2424(3) 0.9945(2)
H11 H 0.45660 0.25320 0.99980
H12 H 0.33460 0.21660 1.06630
H13 H 0.32840 0.31810 0.97320
C13 C 0.3603(3) -0.0435(2) 0.7243(2)
H14 H 0.28640 -0.08200 0.69180
H15 H 0.43370 -0.07740 0.68700
C14 C 0.5220(2) 0.0958(3) 0.8472(2)
H16 H 0.57980 0.14510 0.89120
H17 H 0.56660 0.04330 0.79470
C15 C 0.3665(3) -0.0757(2) 0.8502(2)
H18 H 0.28270 -0.09530 0.87730
H19 H 0.41930 -0.14710 0.86060
#END
