
#######################################################################
#
#                 Cambridge Crystallographic Data Centre
#                                CCDC
#
#######################################################################
#
# If this CIF has been generated from an entry in the Cambridge
# Structural Database, then it will include bibliographic, chemical,
# crystal, experimental, refinement or atomic coordinate data resulting
# from the CCDC's data processing and validation procedures.
#
#######################################################################

data_CSD_CIF_BESVUS
_audit_creation_date 2013-05-17
_audit_creation_method CSD-ConQuest-V1
_database_code_CSD BESVUS
_database_code_depnum_ccdc_archive 'CCDC 916419'
_chemical_formula_sum 'C16 H19 N1 O4'
_chemical_formula_moiety
;
C16 H19 N1 O4
;
_journal_coden_Cambridge 35
_journal_volume 78
_journal_year 2013
_journal_page_first 311
_journal_name_full 'J.Org.Chem. '
loop_
_publ_author_name
"Shinn Dee Yeoh"
"C.E.Skene"
"J.M.White"
_chemical_name_systematic
;
6,6-Dimethylbicyclo[3.1.1]hept-2-yl 2-nitrobenzoate
;
_chemical_name_common
;
alpha-Nopinyl 2-nitrobenzoate
;
_chemical_melting_point 354.15
_cell_volume    718.098
_exptl_crystal_colour 'colorless'
_exptl_crystal_density_diffrn 1.338
_exptl_special_details
;
Melting point range 354.15-354.75K

;
_exptl_crystal_description 'slab'
_diffrn_ambient_temperature 130
#These two values have been output from a single CSD field.
_refine_ls_R_factor_gt 0.0334
_refine_ls_wR_factor_gt 0.0334
_symmetry_cell_setting monoclinic
_symmetry_space_group_name_H-M 'P 21'
_symmetry_Int_Tables_number 4
loop_
_symmetry_equiv_pos_site_id
_symmetry_equiv_pos_as_xyz
1 x,y,z
2 -x,1/2+y,-z
_cell_length_a 7.7048(7)
_cell_length_b 9.7610(9)
_cell_length_c 9.6507(9)
_cell_angle_alpha 90
_cell_angle_beta 98.352(2)
_cell_angle_gamma 90
_cell_formula_units_Z 2
loop_
_atom_type_symbol
_atom_type_radius_bond
C 0.68
H 0.23
N 0.68
O 0.68
loop_
_atom_site_label
_atom_site_type_symbol
_atom_site_fract_x
_atom_site_fract_y
_atom_site_fract_z
O1 O -0.03525(17) 0.97513(15) 0.73865(13)
N1 N 0.1257(2) 1.24094(19) 0.68191(18)
O2 O -0.1874(2) 0.94649(17) 0.52276(15)
O3 O 0.17946(19) 1.15570(16) 0.60506(17)
O4 O 0.21973(19) 1.30560(17) 0.77273(16)
C1 C -0.1346(2) 1.0168(2) 0.6217(2)
C2 C 0.0345(3) 0.8342(2) 0.7413(2)
H1 H -0.02440 0.78390 0.65720
C3 C -0.4131(3) 1.3343(3) 0.6145(2)
H2 H -0.53440 1.35630 0.59840
C4 C 0.3408(3) 0.8800(2) 0.8773(2)
C5 C 0.2298(3) 0.8411(2) 0.7347(2)
H3 H 0.26320 0.88900 0.65090
C6 C -0.1832(3) 1.1653(2) 0.62949(19)
C7 C -0.3599(3) 1.2002(2) 0.6055(2)
H4 H -0.44540 1.13050 0.58250
C8 C -0.2898(3) 1.4371(2) 0.6470(2)
H5 H -0.32680 1.52950 0.65240
C9 C -0.0630(3) 1.2707(2) 0.66208(19)
C10 C -0.1137(3) 1.4055(2) 0.6715(2)
H6 H -0.02860 1.47540 0.69440
C11 C 0.3220(3) 0.7267(2) 0.9161(2)
H7 H 0.42750 0.68540 0.97360
C12 C 0.2771(3) 0.9892(2) 0.9709(2)
H8 H 0.28240 1.07920 0.92680
H9 H 0.35210 0.98920 1.06200
H10 H 0.15580 0.96940 0.98390
C13 C 0.3003(3) 0.6932(2) 0.7579(2)
H11 H 0.21270 0.62100 0.72780
H12 H 0.41200 0.67600 0.72150
C14 C -0.0099(3) 0.7626(3) 0.8741(2)
H13 H -0.09610 0.68900 0.84550
H14 H -0.06680 0.82990 0.92970
C15 C 0.1492(3) 0.6995(3) 0.9691(2)
H15 H 0.15480 0.73780 1.06470
H16 H 0.13180 0.59930 0.97520
C16 C 0.5295(3) 0.9150(3) 0.8576(2)
H17 H 0.60470 0.91340 0.94860
H18 H 0.53250 1.00660 0.81630
H19 H 0.57190 0.84750 0.79520
#END
