
#######################################################################
#
#                 Cambridge Crystallographic Data Centre
#                                CCDC
#
#######################################################################
#
# If this CIF has been generated from an entry in the Cambridge
# Structural Database, then it will include bibliographic, chemical,
# crystal, experimental, refinement or atomic coordinate data resulting
# from the CCDC's data processing and validation procedures.
#
#######################################################################

data_CSD_CIF_BETJIW
_audit_creation_date 2018-02-26
_audit_creation_method CSD-ConQuest-V1
_database_code_CSD BETJIW
_database_code_depnum_ccdc_archive 'CCDC 1825914'
_chemical_formula_sum 'C16 H13 N5 O2'
_chemical_formula_moiety
;
C16 H13 N5 O2
;
_journal_coden_Cambridge 1078
_journal_year 2018
_journal_name_full 'CSD Communication(Private Communication) '
loop_
_publ_author_name
"D.C.Deka"
_chemical_name_systematic
;
3',5'-dimethyl-6',8'-dihydrospiro[indole-3,4'-[1,2]oxazolo[5,4-b]pyrazolo[4,3-
e]pyridin]-2(1H)-one
;
_cell_volume   3248.975
_exptl_crystal_colour 'white'
_exptl_crystal_density_diffrn 1.265
_exptl_crystal_description 'needle'
_diffrn_ambient_temperature 296
#These two values have been output from a single CSD field.
_refine_ls_R_factor_gt 0.0617
_refine_ls_wR_factor_gt 0.0617
_symmetry_cell_setting monoclinic
_symmetry_space_group_name_H-M 'C 2/c'
_symmetry_Int_Tables_number 15
loop_
_symmetry_equiv_pos_site_id
_symmetry_equiv_pos_as_xyz
1 x,y,z
2 -x,y,1/2-z
3 1/2+x,1/2+y,z
4 1/2-x,1/2+y,1/2-z
5 -x,-y,-z
6 x,-y,-1/2+z
7 -1/2-x,-1/2-y,-z
8 -1/2+x,-1/2-y,-1/2+z
_cell_length_a 26.6376(10)
_cell_length_b 8.3676(3)
_cell_length_c 17.9706(7)
_cell_angle_alpha 90
_cell_angle_beta 125.794(2)
_cell_angle_gamma 90
_cell_formula_units_Z 8
loop_
_atom_type_symbol
_atom_type_radius_bond
C 0.68
H 0.23
N 0.68
O 0.68
loop_
_atom_site_label
_atom_site_type_symbol
_atom_site_fract_x
_atom_site_fract_y
_atom_site_fract_z
O1 O 0.93339(5) 0.01986(14) 0.80376(7)
O2 O 0.99820(5) 0.36424(13) 1.05642(8)
N1 N 0.91660(7) -0.07460(16) 1.09891(9)
H1 H 0.91740 -0.11410 1.14380
N2 N 0.93012(6) -0.16068(15) 1.04842(9)
N3 N 0.93291(6) -0.09124(15) 0.92190(8)
H2 H 0.94240 -0.18510 0.91430
N4 N 0.91958(7) 0.17161(18) 0.75841(9)
N5 N 0.90851(6) 0.50605(15) 0.99627(10)
H3 H 0.92440 0.59490 1.02470
C1 C 0.88544(10) 0.4342(2) 0.76802(13)
H4 H 0.89030 0.45550 0.72000
H5 H 0.91080 0.50670 0.81800
H6 H 0.84290 0.44850 0.74490
C2 C 0.90458(7) 0.26720(19) 0.80066(10)
C3 C 0.90817(6) 0.18787(17) 0.87339(9)
C4 C 0.89619(6) 0.24219(17) 0.94197(9)
C5 C 0.83426(7) 0.32463(19) 0.89977(10)
C6 C 0.84459(7) 0.47791(19) 0.93438(11)
C7 C 0.79607(9) 0.5810(2) 0.90895(15)
H7 H 0.80320 0.68400 0.93260
C8 C 0.73677(10) 0.5231(3) 0.84690(17)
H8 H 0.70330 0.58900 0.82890
C9 C 0.92335(6) -0.05470(17) 0.98836(9)
C10 C 0.92567(6) 0.03700(18) 0.87054(9)
C11 C 0.90582(6) 0.09646(17) 0.99876(9)
C12 C 0.90190(8) 0.07866(19) 1.07158(11)
C13 C 0.88698(12) 0.1964(3) 1.11802(16)
H9 H 0.89350 0.14840 1.17160
H10 H 0.84450 0.22870 1.07670
H11 H 0.91330 0.28820 1.13570
C14 C 0.94188(7) 0.37604(17) 1.00551(10)
C15 C 0.77472(7) 0.2690(2) 0.83726(12)
H12 H 0.76760 0.16620 0.81340
C16 C 0.72560(9) 0.3715(3) 0.81098(15)
H13 H 0.68510 0.33710 0.76890
#END
