
#######################################################################
#
#                 Cambridge Crystallographic Data Centre
#                                CCDC
#
#######################################################################
#
# If this CIF has been generated from an entry in the Cambridge
# Structural Database, then it will include bibliographic, chemical,
# crystal, experimental, refinement or atomic coordinate data resulting
# from the CCDC's data processing and validation procedures.
#
#######################################################################

data_CSD_CIF_BETXUV
_audit_creation_date 2013-05-17
_audit_creation_method CSD-ConQuest-V1
_database_code_CSD BETXUV
_database_code_depnum_ccdc_archive 'CCDC 916040'
_chemical_formula_sum 'C12 H11 N1 O7'
_chemical_formula_moiety
;
C12 H11 N1 O7
;
_journal_coden_Cambridge 1500
_journal_volume 3
_journal_year 2013
_journal_page_first 7265
_journal_name_full 'RSC Advances '
loop_
_publ_author_name
"A.G.Griesbeck"
"V.Schlundt"
"J.M.Neudorfl"
_chemical_name_systematic
;
2-(3-(4-Nitrophenyl)-1,2,4-trioxan-6-yl)acrylic acid
;
_cell_volume   1191.328
_exptl_crystal_colour 'colorless'
_exptl_crystal_density_diffrn 1.568
_exptl_crystal_description 'prism'
_diffrn_ambient_temperature 100
#These two values have been output from a single CSD field.
_refine_ls_R_factor_gt 0.0344
_refine_ls_wR_factor_gt 0.0344
_symmetry_cell_setting monoclinic
_symmetry_space_group_name_H-M 'P 21/c'
_symmetry_Int_Tables_number 14
loop_
_symmetry_equiv_pos_site_id
_symmetry_equiv_pos_as_xyz
1 x,y,z
2 -x,1/2+y,1/2-z
3 -x,-y,-z
4 x,-1/2-y,-1/2+z
_cell_length_a 9.8007(3)
_cell_length_b 6.1104(4)
_cell_length_c 21.5634(10)
_cell_angle_alpha 90
_cell_angle_beta 112.699(3)
_cell_angle_gamma 90
_cell_formula_units_Z 4
loop_
_atom_type_symbol
_atom_type_radius_bond
C 0.68
H 0.23
N 0.68
O 0.68
loop_
_atom_site_label
_atom_site_type_symbol
_atom_site_fract_x
_atom_site_fract_y
_atom_site_fract_z
O1 O 0.46704(10) -0.30890(15) -0.07538(5)
O2 O 0.56225(10) -0.46949(15) -0.08998(5)
O3 O 0.35692(9) -0.66253(15) -0.16183(5)
O4 O 0.07363(11) -0.22964(17) -0.00486(5)
H1 H 0.007(2) -0.300(4) 0.0076(10)
O5 O 0.1213(1) -0.56755(16) -0.03216(5)
O6 O 1.0290(1) -0.98782(17) -0.20122(5)
O7 O 0.94566(10) -1.27260(16) -0.16678(5)
N1 N 0.94052(12) -1.07793(19) -0.18169(6)
C1 C 0.48388(15) -0.5466(2) -0.15688(7)
H2 H 0.4554(15) -0.416(3) -0.1880(7)
C2 C 0.25895(15) -0.5268(2) -0.14278(7)
H3 H 0.2214(16) -0.408(3) -0.1756(8)
H4 H 0.1791(16) -0.616(3) -0.1444(7)
C3 C 0.34250(14) -0.4306(2) -0.07357(7)
H5 H 0.3809(15) -0.551(2) -0.0415(7)
C4 C 0.25466(14) -0.2684(2) -0.05106(7)
C5 C 0.14394(14) -0.3701(2) -0.02831(6)
C6 C 0.27464(16) -0.0538(2) -0.04941(8)
H6 H 0.2181(16) 0.044(3) -0.0333(8)
H7 H 0.3449(18) 0.014(3) -0.0642(8)
C7 C 0.59561(14) -0.6959(2) -0.16769(7)
C8 C 0.68448(14) -0.6112(2) -0.19887(7)
H8 H 0.6660(15) -0.465(3) -0.2178(8)
C9 C 0.79933(14) -0.7349(2) -0.20285(7)
H9 H 0.8633(17) -0.678(3) -0.2236(8)
C10 C 0.82036(14) -0.9436(2) -0.17615(6)
C11 C 0.73321(15) -1.0334(2) -0.14508(7)
H10 H 0.7548(15) -1.171(3) -0.1257(7)
C12 C 0.61948(15) -0.9060(2) -0.14081(7)
H11 H 0.5576(17) -0.964(3) -0.1174(8)
#END
