
#######################################################################
#
#                 Cambridge Crystallographic Data Centre
#                                CCDC
#
#######################################################################
#
# If this CIF has been generated from an entry in the Cambridge
# Structural Database, then it will include bibliographic, chemical,
# crystal, experimental, refinement or atomic coordinate data resulting
# from the CCDC's data processing and validation procedures.
#
#######################################################################

data_CSD_CIF_BEVCEM
_audit_creation_date 2013-05-17
_audit_creation_method CSD-ConQuest-V1
_database_code_CSD BEVCEM
_database_code_depnum_ccdc_archive 'CCDC 915982'
_chemical_formula_sum 'C13 H9 N5 O2'
_chemical_formula_moiety
;
C13 H9 N5 O2
;
_journal_coden_Cambridge 222
_journal_volume 42
_journal_year 2013
_journal_page_first 7019
_journal_name_full 'Dalton Trans. '
loop_
_publ_author_name
"M.Wolff"
"Luc Munoz"
"A.Francois"
"C.Carrayon"
"A.Seridi"
"N.Saffon"
"C.Picard"
"B.Machura"
"E.Benoist"
_chemical_name_systematic
;
2-(1-(4-Nitrophenyl)-1H-1,2,3-triazol-4-yl)pyridine
;
_cell_volume    585.020
_exptl_crystal_colour 'colorless'
_exptl_crystal_density_diffrn 1.517
_exptl_crystal_description 'plate'
_diffrn_ambient_temperature 193
#These two values have been output from a single CSD field.
_refine_ls_R_factor_gt 0.0443
_refine_ls_wR_factor_gt 0.0443
_symmetry_cell_setting triclinic
_symmetry_space_group_name_H-M 'P -1'
_symmetry_Int_Tables_number 2
loop_
_symmetry_equiv_pos_site_id
_symmetry_equiv_pos_as_xyz
1 x,y,z
2 -x,-y,-z
_cell_length_a 6.4645(12)
_cell_length_b 6.6032(14)
_cell_length_c 14.076(3)
_cell_angle_alpha 97.978(11)
_cell_angle_beta 91.056(10)
_cell_angle_gamma 100.223(12)
_cell_formula_units_Z 2
loop_
_atom_type_symbol
_atom_type_radius_bond
C 0.68
H 0.23
N 0.68
O 0.68
loop_
_atom_site_label
_atom_site_type_symbol
_atom_site_fract_x
_atom_site_fract_y
_atom_site_fract_z
O1 O 0.8337(2) 0.7404(2) 0.16503(10)
O2 O 0.5427(2) 0.7276(3) 0.08364(10)
N1 N 0.2610(2) 0.7701(3) 0.79848(11)
N2 N -0.0735(2) 0.7362(2) 0.58255(11)
N3 N -0.0089(2) 0.7425(2) 0.49538(11)
N4 N 0.2042(2) 0.7630(2) 0.50042(10)
N5 N 0.6437(3) 0.7375(2) 0.15938(11)
C1 C 0.2498(4) 0.7693(3) 0.89287(14)
H1 H 0.37780 0.78640 0.92980
C2 C 0.0643(4) 0.7454(3) 0.94043(15)
H2 H 0.06490 0.74440 1.00790
C3 C -0.1207(4) 0.7231(3) 0.88784(16)
H3 H -0.25110 0.70620 0.91840
C4 C -0.1160(3) 0.7256(3) 0.78990(14)
H4 H -0.24250 0.71140 0.75220
C5 C 0.0778(3) 0.7492(3) 0.74800(13)
C6 C 0.0971(3) 0.7519(3) 0.64399(13)
C7 C 0.2733(3) 0.7689(3) 0.59238(13)
H5 H 0.41460 0.78210 0.61570
C8 C 0.3180(3) 0.7617(3) 0.41442(13)
C9 C 0.5144(3) 0.7050(3) 0.41327(13)
H6 H 0.57470 0.67110 0.46970
C10 C 0.6215(3) 0.6983(3) 0.32959(13)
H7 H 0.75680 0.66100 0.32770
C11 C 0.5290(3) 0.7465(3) 0.24836(12)
C12 C 0.3344(3) 0.8049(3) 0.24881(13)
H8 H 0.27430 0.83780 0.19210
C13 C 0.2287(3) 0.8149(3) 0.33301(13)
H9 H 0.09590 0.85770 0.33530
#END
