
#######################################################################
#
#                 Cambridge Crystallographic Data Centre
#                                CCDC
#
#######################################################################
#
# If this CIF has been generated from an entry in the Cambridge
# Structural Database, then it will include bibliographic, chemical,
# crystal, experimental, refinement or atomic coordinate data resulting
# from the CCDC's data processing and validation procedures.
#
#######################################################################

data_CSD_CIF_BEVJAP
_audit_creation_date 2013-05-17
_audit_creation_method CSD-ConQuest-V1
_database_code_CSD BEVJAP
_database_code_depnum_ccdc_archive 'CCDC 915877'
_chemical_formula_sum 'C23 H14 N2 O2'
_chemical_formula_moiety
;
C23 H14 N2 O2
;
_journal_coden_Cambridge 1291
_journal_year 2013
_journal_page_first 3059
_journal_name_full 'Eur.J.Org.Chem. '
loop_
_publ_author_name
"Yuan-Hui Zheng"
"Hai-Yan Lu"
"Meng Li"
"Chuan-Feng Chen"
_chemical_name_systematic
;
6-(4-Nitrophenyl)benzo[k]phenanthridine
;
_cell_volume   1652.420
_exptl_crystal_colour 'pale yellow'
_exptl_crystal_density_diffrn 1.408
_exptl_crystal_description 'rod'
_diffrn_ambient_temperature 173
#These two values have been output from a single CSD field.
_refine_ls_R_factor_gt 0.0754
_refine_ls_wR_factor_gt 0.0754
_symmetry_cell_setting monoclinic
_symmetry_space_group_name_H-M 'P 21/c'
_symmetry_Int_Tables_number 14
loop_
_symmetry_equiv_pos_site_id
_symmetry_equiv_pos_as_xyz
1 x,y,z
2 -x,1/2+y,1/2-z
3 -x,-y,-z
4 x,-1/2-y,-1/2+z
_cell_length_a 10.305(2)
_cell_length_b 20.321(4)
_cell_length_c 7.9229(16)
_cell_angle_alpha 90
_cell_angle_beta 95.15(3)
_cell_angle_gamma 90
_cell_formula_units_Z 4
loop_
_atom_type_symbol
_atom_type_radius_bond
C 0.68
H 0.23
N 0.68
O 0.68
loop_
_atom_site_label
_atom_site_type_symbol
_atom_site_fract_x
_atom_site_fract_y
_atom_site_fract_z
O1 O 0.36572(19) 0.46388(9) 0.0438(2)
O2 O 0.4234(2) 0.51309(9) 0.2802(2)
N1 N 0.8195(2) 0.22967(9) 0.2939(2)
N2 N 0.4397(2) 0.47114(9) 0.1730(2)
C1 C 0.9101(2) 0.18058(11) 0.3301(3)
C2 C 0.8636(3) 0.11539(11) 0.3131(3)
H1 H 0.77310 0.10740 0.28810
C3 C 0.9487(3) 0.06351(11) 0.3325(3)
H2 H 0.91710 0.01960 0.32390
C4 C 1.0819(3) 0.07551(11) 0.3649(3)
H3 H 1.14130 0.03970 0.36950
C5 C 1.1281(3) 0.13827(11) 0.3903(3)
H4 H 1.21910 0.14530 0.41370
C6 C 1.0423(2) 0.19265(10) 0.3820(3)
C7 C 1.0817(2) 0.26058(10) 0.4095(3)
C8 C 1.2057(2) 0.28113(10) 0.4927(3)
C9 C 1.2861(2) 0.24058(11) 0.6033(3)
H5 H 1.25830 0.19720 0.62600
C10 C 1.4030(2) 0.26244(12) 0.6784(3)
H6 H 1.45380 0.23450 0.75460
C11 C 1.4485(3) 0.32552(12) 0.6439(3)
H7 H 1.53320 0.33900 0.68760
C12 C 1.3700(3) 0.36737(12) 0.5469(3)
H8 H 1.39920 0.41090 0.52800
C13 C 1.2465(2) 0.34743(11) 0.4742(3)
C14 C 1.1607(3) 0.39310(11) 0.3858(3)
H9 H 1.19040 0.43640 0.36510
C15 C 1.0376(3) 0.37575(11) 0.3309(3)
H10 H 0.97940 0.40800 0.28090
C16 C 0.9937(2) 0.30941(10) 0.3472(3)
C17 C 0.8613(2) 0.29064(11) 0.2977(3)
C18 C 0.7568(2) 0.34082(11) 0.2590(3)
C19 C 0.7418(3) 0.39327(12) 0.3691(3)
H11 H 0.80340 0.39940 0.46440
C20 C 0.6389(3) 0.43634(11) 0.3414(3)
H12 H 0.62790 0.47160 0.41760
C21 C 0.5522(2) 0.42706(10) 0.2004(3)
C22 C 0.5657(2) 0.37667(11) 0.0871(3)
H13 H 0.50570 0.37190 -0.01030
C23 C 0.6680(2) 0.33321(11) 0.1179(3)
H14 H 0.67770 0.29780 0.04190
#END
