
#######################################################################
#
#                 Cambridge Crystallographic Data Centre
#                                CCDC
#
#######################################################################
#
# If this CIF has been generated from an entry in the Cambridge
# Structural Database, then it will include bibliographic, chemical,
# crystal, experimental, refinement or atomic coordinate data resulting
# from the CCDC's data processing and validation procedures.
#
#######################################################################

data_CSD_CIF_BEVYUY
_audit_creation_date 2013-05-18
_audit_creation_method CSD-ConQuest-V1
_database_code_CSD BEVYUY
_database_code_depnum_ccdc_archive 'CCDC 927838'
_chemical_formula_sum 'C5 H4 N8 O10'
_chemical_formula_moiety
;
C5 H4 N8 O10
;
_journal_coden_Cambridge 1699
_journal_volume 1
_journal_year 2013
_journal_page_first 7500
_journal_name_full 'J.Mater.Chem.A '
loop_
_publ_author_name
"Ping Yin"
"Qinghua Zhang"
"Jiaheng Zhang"
"D.A.Parrish"
"J.M.Shreeve"
_chemical_name_systematic
;
4,5-Dinitro-N-(2,2,2-trinitroethyl)-1H-imidazol-1-amine
;
_cell_volume   1169.387
_exptl_crystal_colour 'yellow'
_exptl_crystal_density_diffrn 1.909
_exptl_crystal_description 'plate'
_diffrn_ambient_temperature 150
#These two values have been output from a single CSD field.
_refine_ls_R_factor_gt 0.0292
_refine_ls_wR_factor_gt 0.0292
_symmetry_cell_setting monoclinic
_symmetry_space_group_name_H-M 'P 21/n'
_symmetry_Int_Tables_number 14
loop_
_symmetry_equiv_pos_site_id
_symmetry_equiv_pos_as_xyz
1 x,y,z
2 1/2-x,1/2+y,1/2-z
3 -x,-y,-z
4 -1/2+x,-1/2-y,-1/2+z
_cell_length_a 8.3893(5)
_cell_length_b 10.0156(6)
_cell_length_c 14.3147(8)
_cell_angle_alpha 90
_cell_angle_beta 103.532(2)
_cell_angle_gamma 90
_cell_formula_units_Z 4
loop_
_atom_type_symbol
_atom_type_radius_bond
C 0.68
H 0.23
N 0.68
O 0.68
loop_
_atom_site_label
_atom_site_type_symbol
_atom_site_fract_x
_atom_site_fract_y
_atom_site_fract_z
N1 N -0.12769(12) 0.5747(1) 0.71942(7)
C1 C -0.17657(15) 0.68405(13) 0.76065(9)
H1 H -0.13550 0.70850 0.82600
N2 N -0.28832(13) 0.75267(11) 0.69906(8)
C2 C -0.31085(15) 0.68456(12) 0.61526(9)
C3 C -0.21390(15) 0.57354(12) 0.62473(9)
N3 N -0.00859(13) 0.48605(11) 0.76930(8)
H2 H -0.0555(19) 0.4085(16) 0.7725(11)
C4 C 0.13740(15) 0.48011(12) 0.73056(9)
H3 H 0.14440 0.56120 0.69220
H4 H 0.13180 0.40130 0.68820
C5 C 0.28716(15) 0.47048(12) 0.81370(9)
N4 N 0.31365(13) 0.32874(11) 0.85256(8)
O1 O 0.45353(12) 0.29404(10) 0.88823(8)
O2 O 0.19032(12) 0.26092(9) 0.84242(7)
N5 N 0.44411(13) 0.50744(11) 0.78388(8)
O3 O 0.53724(13) 0.58448(11) 0.83408(8)
O4 O 0.46052(12) 0.45285(11) 0.71097(8)
N6 N 0.27454(13) 0.56156(11) 0.89617(8)
O5 O 0.29982(13) 0.51330(11) 0.97568(7)
O6 O 0.23906(13) 0.67676(10) 0.87252(8)
N7 N -0.43320(13) 0.72921(11) 0.53178(8)
O7 O -0.47713(13) 0.84542(10) 0.53039(8)
O8 O -0.48406(12) 0.64676(10) 0.46886(7)
N8 N -0.18409(13) 0.47441(11) 0.55801(8)
O9 O -0.15046(12) 0.36111(9) 0.58921(7)
O10 O -0.19168(13) 0.51068(11) 0.47575(7)
#END
