
#######################################################################
#
#                 Cambridge Crystallographic Data Centre
#                                CCDC
#
#######################################################################
#
# If this CIF has been generated from an entry in the Cambridge
# Structural Database, then it will include bibliographic, chemical,
# crystal, experimental, refinement or atomic coordinate data resulting
# from the CCDC's data processing and validation procedures.
#
#######################################################################

data_CSD_CIF_BEXDUD01
_audit_creation_date 2017-10-18
_audit_creation_method CSD-ConQuest-V1
_database_code_CSD BEXDUD01
_database_code_depnum_ccdc_archive 'CCDC 1448657'
_chemical_formula_sum 'C22 H34 N4 O4'
_chemical_formula_moiety
;
C22 H34 N4 O4
;
_journal_coden_Cambridge 1220
_journal_volume 22
_journal_year 2016
_journal_page_first 8137
_journal_name_full 'Chem.-Eur.J. '
loop_
_publ_author_name
"R.Callejo"
"M.J.Corr"
"Mingyan Yang"
"Mingan Wang"
"D.B.Cordes"
"A.M.Z.Slawin"
"D.O'Hagan"
_chemical_name_systematic
;
1-(2,4-dinitrophenyl)-2-(3-methylcyclopentadecylidene)hydrazine
;
_cell_volume   1106.203
_exptl_crystal_colour 'orange'
_exptl_crystal_density_diffrn 1.256
_exptl_crystal_description 'platelet'
_diffrn_ambient_temperature 125
#These two values have been output from a single CSD field.
_refine_ls_R_factor_gt 0.1274
_refine_ls_wR_factor_gt 0.1274
_symmetry_cell_setting monoclinic
_symmetry_space_group_name_H-M 'P 21'
_symmetry_Int_Tables_number 4
loop_
_symmetry_equiv_pos_site_id
_symmetry_equiv_pos_as_xyz
1 x,y,z
2 -x,1/2+y,-z
_cell_length_a 8.210(17)
_cell_length_b 6.432(16)
_cell_length_c 20.95(5)
_cell_angle_alpha 90
_cell_angle_beta 90.76(7)
_cell_angle_gamma 90
_cell_formula_units_Z 2
loop_
_atom_type_symbol
_atom_type_radius_bond
C 0.68
H 0.23
N 0.68
O 0.68
loop_
_atom_site_label
_atom_site_type_symbol
_atom_site_fract_x
_atom_site_fract_y
_atom_site_fract_z
O1 O -0.0013(7) 0.280(2) 0.4699(4)
O2 O -0.0016(8) 0.297(2) 0.5733(4)
O3 O 0.4716(9) 0.286(2) 0.6991(4)
O4 O 0.7107(7) 0.288(2) 0.6567(4)
N1 N 0.3656(8) 0.307(2) 0.3546(4)
N2 N 0.0707(9) 0.280(2) 0.5222(5)
N3 N 0.5595(10) 0.290(2) 0.6513(4)
N4 N 0.2719(8) 0.280(2) 0.4085(4)
C1 C 0.2902(11) 0.294(3) 0.3012(6)
C2 C 0.1119(12) 0.229(3) 0.2941(8)
H1 H 0.09130 0.11260 0.32390
H2 H 0.09350 0.17600 0.25020
C3 C -0.0147(12) 0.406(3) 0.3072(7)
H3 H 0.02110 0.45760 0.35010
C4 C -0.020(3) 0.595(4) 0.2696(9)
H4 H 0.09340 0.64370 0.26320
H5 H -0.07730 0.70330 0.29400
C5 C -0.103(4) 0.571(3) 0.2046(10)
H6 H -0.20660 0.49450 0.20970
H7 H -0.03230 0.48810 0.17630
C6 C -0.137(2) 0.783(3) 0.1740(9)
H8 H -0.23800 0.77810 0.14760
H9 H -0.14920 0.89140 0.20710
C7 C 0.010(3) 0.828(5) 0.1325(11)
H10 H 0.11130 0.79730 0.15710
H11 H 0.01140 0.97740 0.12110
C8 C 0.007(3) 0.697(4) 0.0713(16)
H12 H 0.00060 0.54950 0.08430
H13 H -0.09610 0.72980 0.04830
C9 C 0.145(4) 0.715(7) 0.0231(14)
H14 H 0.12230 0.61940 -0.01290
H15 H 0.14580 0.85870 0.00580
C10 C 0.312(3) 0.666(4) 0.0515(18)
H16 H 0.32710 0.74570 0.09150
H17 H 0.39650 0.71120 0.02130
C11 C 0.334(3) 0.434(4) 0.0656(16)
H18 H 0.34150 0.35490 0.02530
H19 H 0.23960 0.38090 0.08980
C12 C 0.493(3) 0.411(5) 0.1056(11)
H20 H 0.58640 0.42920 0.07690
H21 H 0.49700 0.52410 0.13750
C13 C 0.511(2) 0.214(4) 0.1386(10)
H22 H 0.62290 0.20750 0.15680
H23 H 0.50080 0.10090 0.10680
C14 C 0.3905(18) 0.172(3) 0.1924(8)
H24 H 0.27990 0.15790 0.17350
H25 H 0.41890 0.03740 0.21270
C15 C 0.3869(13) 0.336(3) 0.2427(7)
H26 H 0.34430 0.46490 0.22280
H27 H 0.50070 0.36400 0.25630
C16 C 0.3408(9) 0.282(2) 0.4670(5)
C17 C 0.2489(9) 0.286(2) 0.5234(5)
C18 C 0.3214(11) 0.292(2) 0.5830(5)
H28 H 0.25580 0.30240 0.61990
C19 C 0.4867(10) 0.284(2) 0.5894(5)
C20 C 0.5840(9) 0.288(2) 0.5342(5)
H29 H 0.69940 0.28920 0.53830
C21 C 0.5128(9) 0.290(2) 0.4760(5)
H30 H 0.57990 0.29610 0.43950
C22 C -0.1754(12) 0.291(3) 0.3226(7)
H31 H -0.20830 0.20510 0.28610
H32 H -0.26070 0.39370 0.33120
H33 H -0.15880 0.20300 0.36020
H34 H 0.155(3) 0.257(17) 0.403(4)
#END
