
#######################################################################
#
#                 Cambridge Crystallographic Data Centre
#                                CCDC
#
#######################################################################
#
# If this CIF has been generated from an entry in the Cambridge
# Structural Database, then it will include bibliographic, chemical,
# crystal, experimental, refinement or atomic coordinate data resulting
# from the CCDC's data processing and validation procedures.
#
#######################################################################

data_CSD_CIF_BEXGUH
_audit_creation_date 2004-11-11
_audit_creation_method CSD-ConQuest-V1
_database_code_CSD BEXGUH
_database_code_depnum_ccdc_archive 'CCDC 243307'
_chemical_formula_sum 'C22 H19 N1 O5'
_chemical_formula_moiety
;
C22 H19 N1 O5
;
_journal_coden_Cambridge 579
_journal_volume 23
_journal_year 2004
_journal_page_first 3276
_journal_name_full 'Organometallics '
loop_
_publ_author_name
"A.S.Ionkin"
"W.J.Marshall"
_chemical_name_systematic
;
2,6-bis(5-Methylfuran-2-yl)-4-(nitromethyl)-4-phenyl-4H-pyran
;
_chemical_melting_point 426.15
_cell_volume    940.213
_exptl_crystal_colour 'colorless'
_exptl_crystal_density_diffrn 1.333
_exptl_crystal_description 'irregular block'
_diffrn_ambient_temperature 163
#These two values have been output from a single CSD field.
_refine_ls_R_factor_gt 0.0406
_refine_ls_wR_factor_gt 0.0406
_symmetry_cell_setting triclinic
_symmetry_space_group_name_H-M 'P -1'
_symmetry_Int_Tables_number 2
loop_
_symmetry_equiv_pos_site_id
_symmetry_equiv_pos_as_xyz
1 x,y,z
2 -x,-y,-z
_cell_length_a 9.9311(10)
_cell_length_b 10.4178(10)
_cell_length_c 10.5242(10)
_cell_angle_alpha 100.436(2)
_cell_angle_beta 93.297(2)
_cell_angle_gamma 117.185(2)
_cell_formula_units_Z 2
loop_
_atom_type_symbol
_atom_type_radius_bond
C 0.68
H 0.23
N 0.68
O 0.68
loop_
_atom_site_label
_atom_site_type_symbol
_atom_site_fract_x
_atom_site_fract_y
_atom_site_fract_z
O1 O 1.17767(11) 0.20875(10) 0.64967(8)
C1 C 0.90318(13) -0.00055(12) 0.75075(10)
N1 N 1.18289(11) 0.15806(11) 0.74477(9)
C2 C 0.91421(13) 0.11046(12) 0.86995(10)
H1 H 0.97070 0.11970 0.95010
O2 O 1.27973(11) 0.22679(12) 0.84239(9)
C3 C 0.84806(13) 0.19639(12) 0.86773(10)
O3 O 0.76837(10) 0.19628(9) 0.75643(7)
C4 C 0.77747(12) 0.11789(12) 0.63973(10)
C5 C 0.84416(13) 0.03213(12) 0.63176(10)
H2 H 0.85520 -0.01040 0.54780
C6 C 1.06093(13) 0.00498(13) 0.74234(11)
H3 H 1.08910 -0.02860 0.81690
H4 H 1.05350 -0.06360 0.66050
C7 C 0.79265(12) -0.16281(12) 0.75341(10)
C8 C 0.76339(15) -0.27632(13) 0.64470(12)
H5 H 0.81800 -0.25370 0.57360
C9 C 0.65566(16) -0.42164(14) 0.63922(13)
H6 H 0.63590 -0.49750 0.56410
C10 C 0.57680(15) -0.45657(14) 0.74279(13)
H7 H 0.50240 -0.55600 0.73880
C11 C 0.60705(14) -0.34577(15) 0.85177(13)
H8 H 0.55460 -0.36950 0.92380
C12 C 0.71384(14) -0.19945(14) 0.85708(11)
H9 H 0.73290 -0.12400 0.93240
C13 C 0.84488(13) 0.30067(13) 0.97794(11)
O4 O 0.91583(9) 0.31250(9) 1.09836(7)
C14 C 0.89439(14) 0.41438(14) 1.18585(12)
C15 C 0.81256(15) 0.46344(14) 1.12301(12)
H10 H 0.78180 0.53360 1.16140
C16 C 0.78027(14) 0.39070(14) 0.98764(12)
H11 H 0.72470 0.40310 0.91860
C17 C 0.96365(17) 0.44782(17) 1.32427(12)
H12 H 0.94360 0.52300 1.37710
H13 H 1.07460 0.48540 1.33020
H14 H 0.91850 0.35720 1.35700
C18 C 0.70029(13) 0.14104(12) 0.53184(10)
O5 O 0.69664(9) 0.07123(9) 0.40671(7)
C19 C 0.61313(13) 0.10807(13) 0.32444(11)
C20 C 0.56805(14) 0.19821(14) 0.39553(12)
H15 H 0.51040 0.24020 0.36250
C21 C 0.62301(14) 0.21887(13) 0.52963(12)
H16 H 0.60810 0.27620 0.60310
C22 C 0.58851(15) 0.04231(16) 0.18229(12)
H17 H 0.52210 0.07050 0.13500
H18 H 0.53970 -0.06600 0.16700
H19 H 0.68740 0.07910 0.15090
#END
