
#######################################################################
#
#                 Cambridge Crystallographic Data Centre
#                                CCDC
#
#######################################################################
#
# If this CIF has been generated from an entry in the Cambridge
# Structural Database, then it will include bibliographic, chemical,
# crystal, experimental, refinement or atomic coordinate data resulting
# from the CCDC's data processing and validation procedures.
#
#######################################################################

data_CSD_CIF_BEXTIK
_audit_creation_date 2018-03-01
_audit_creation_method CSD-ConQuest-V1
_database_code_CSD BEXTIK
_database_code_depnum_ccdc_archive 'CCDC 1825237'
_chemical_formula_sum 'C28 H34 N2 O5'
_chemical_formula_moiety
;
C28 H34 N2 O5
;
_journal_coeditor_code "hb7734"
_journal_coden_Cambridge 1828
_journal_volume 74
_journal_year 2018
_journal_page_first 414
_journal_name_full 'Acta Crystallogr.,Sect.E:Cryst.Commun. '
loop_
_publ_author_name
"J.Zukerman-Schpector"
"M.Soto-Monsalve"
"R.H.De Almeida Santos"
"A.H.L.Machado"
"C.R.D.Correia"
"M.M.Jotani"
"E.R.T.Tiekink"
_chemical_name_systematic
;
5-methyl-2-[2-(4-nitrophenyl)propan-2-yl]cyclohexyl 
2-(4-methoxyphenyl)-2,5-dihydro-1H-pyrrole-1-carboxylate
;
_cell_volume   1312.283
_exptl_crystal_colour 'colourless'
_exptl_crystal_density_diffrn 1.211
_exptl_crystal_description 'irregular'
_diffrn_ambient_temperature 293
#These two values have been output from a single CSD field.
_refine_ls_R_factor_gt 0.0562
_refine_ls_wR_factor_gt 0.0562
_symmetry_cell_setting monoclinic
_symmetry_space_group_name_H-M 'P 21'
_symmetry_Int_Tables_number 4
loop_
_symmetry_equiv_pos_site_id
_symmetry_equiv_pos_as_xyz
1 x,y,z
2 -x,1/2+y,-z
_cell_length_a 10.3142(10)
_cell_length_b 6.1114(8)
_cell_length_c 20.844(3)
_cell_angle_alpha 90
_cell_angle_beta 92.83(1)
_cell_angle_gamma 90
_cell_formula_units_Z 2
loop_
_atom_type_symbol
_atom_type_radius_bond
C 0.68
H 0.23
N 0.68
O 0.68
loop_
_atom_site_label
_atom_site_type_symbol
_atom_site_fract_x
_atom_site_fract_y
_atom_site_fract_z
N1 N 0.8239(2) 0.1157(4) 0.71804(11)
N2 N 0.7587(3) -0.3619(8) 0.48894(14)
O1 O 0.66501(17) -0.1036(3) 0.74757(9)
O2 O 0.6807(2) 0.2399(4) 0.78790(11)
O3 O 1.1526(2) 0.4302(5) 0.96516(11)
O4 O 0.8084(4) -0.5387(8) 0.48479(16)
O5 O 0.7743(3) -0.2175(7) 0.45058(14)
C1 C 0.9005(3) 0.3194(5) 0.71908(15)
H1 H 0.84310 0.44340 0.70860
C2 C 0.9859(3) 0.2781(7) 0.66428(16)
H2 H 1.04480 0.37990 0.64980
C3 C 0.9688(3) 0.0841(8) 0.63905(16)
H3 H 1.01400 0.03210 0.60470
C4 C 0.8683(3) -0.0446(6) 0.67187(15)
H4 H 0.79830 -0.08990 0.64200
H5 H 0.90550 -0.17250 0.69330
C5 C 0.9711(3) 0.3593(5) 0.78309(15)
C6 C 0.9543(3) 0.5462(6) 0.81758(16)
H6 H 0.90120 0.65600 0.79990
C7 C 1.0136(3) 0.5782(6) 0.87811(16)
H7 H 1.00020 0.70760 0.90030
C8 C 1.0914(3) 0.4197(6) 0.90480(15)
C9 C 1.1126(3) 0.2279(7) 0.87032(17)
H8 H 1.16670 0.11960 0.88800
C10 C 1.0541(3) 0.1994(6) 0.81092(16)
H9 H 1.06930 0.07150 0.78830
C11 C 1.1372(5) 0.6248(10) 1.0010(2)
H10 H 1.16920 0.74690 0.97750
H11 H 1.18510 0.61280 1.04150
H12 H 1.04690 0.64650 1.00820
C12 C 0.7197(3) 0.0966(5) 0.75437(13)
C13 C 0.5631(2) -0.1508(5) 0.79199(12)
H13 H 0.51900 -0.01430 0.80240
C14 C 0.4655(2) -0.3067(5) 0.75898(12)
H14 H 0.51170 -0.44300 0.75050
C15 C 0.3628(3) -0.3597(7) 0.80803(14)
H15 H 0.31630 -0.22710 0.81810
H16 H 0.30060 -0.46330 0.78920
C16 C 0.4248(3) -0.4550(6) 0.86912(15)
H17 H 0.46590 -0.59270 0.85920
H18 H 0.35760 -0.48520 0.89890
C17 C 0.5250(3) -0.3043(6) 0.90138(13)
H19 H 0.48130 -0.16930 0.91350
C18 C 0.6253(3) -0.2468(6) 0.85248(13)
H20 H 0.68680 -0.14240 0.87150
H21 H 0.67290 -0.37770 0.84180
C19 C 0.5893(4) -0.4048(9) 0.96163(17)
H22 H 0.52420 -0.44100 0.99120
H23 H 0.64930 -0.30180 0.98130
H24 H 0.63510 -0.53500 0.95040
C20 C 0.4069(3) -0.2208(5) 0.69281(13)
C21 C 0.3634(3) 0.0191(5) 0.69810(16)
H25 H 0.43800 0.11030 0.70680
H26 H 0.30510 0.03300 0.73230
H27 H 0.32010 0.06360 0.65840
C22 C 0.2859(3) -0.3568(6) 0.67073(15)
H28 H 0.21720 -0.32980 0.69910
H29 H 0.30750 -0.50960 0.67160
H30 H 0.25820 -0.31510 0.62780
C23 C 0.5042(2) -0.2514(5) 0.63983(12)
C24 C 0.5699(3) -0.4489(5) 0.63403(14)
H31 H 0.55740 -0.55930 0.66380
C25 C 0.6534(3) -0.4855(6) 0.58506(14)
H32 H 0.69750 -0.61770 0.58220
C26 C 0.6697(3) -0.3229(7) 0.54084(13)
C27 C 0.6056(3) -0.1281(7) 0.54376(14)
H33 H 0.61670 -0.02070 0.51290
C28 C 0.5237(3) -0.0928(6) 0.59349(14)
H34 H 0.48060 0.04050 0.59590
#END
