
#######################################################################
#
#                 Cambridge Crystallographic Data Centre
#                                CCDC
#
#######################################################################
#
# If this CIF has been generated from an entry in the Cambridge
# Structural Database, then it will include bibliographic, chemical,
# crystal, experimental, refinement or atomic coordinate data resulting
# from the CCDC's data processing and validation procedures.
#
#######################################################################

data_CSD_CIF_BEYQUR
_audit_creation_date 1999-12-03
_audit_creation_method CSD-ConQuest-V1
_database_code_CSD BEYQUR
_database_code_depnum_ccdc_journal 207/291
_chemical_formula_sum 'C21 H20 N2 O10'
_chemical_formula_moiety
;
C21 H20 N2 O10
;
_journal_coden_Cambridge 207
_journal_year 1999
_journal_page_first 475
_journal_name_full 'J.Chem.Soc.,Perkin Trans.1 '
loop_
_publ_author_name
"M.R.Iesce"
"F.Cermola"
"A.Guitto"
"F.Giordano"
_chemical_name_systematic
;
cis-4-Nitrobenzaldehyde oxime 
O-(2,5-dihydro-5-hydroperoxy-2-methoxy-3-(methoxycarbonyl)-5-(3-methoxyphenyl)
-2-furyl)ether
;
_chemical_melting_point 372.15
_cell_volume   2184.448
_exptl_crystal_colour 'colorless'
_exptl_crystal_density_diffrn 1.4
_exptl_special_details
;
Melting point range 372.15-375.15K

;
_exptl_crystal_preparation 'hexane/diethyl ether'
_diffrn_ambient_temperature ?
_diffrn_special_details
;
The study was carried out at room temperature,in the range 283-303K

;
#These two values have been output from a single CSD field.
_refine_ls_R_factor_gt 0.048
_refine_ls_wR_factor_gt 0.048
_symmetry_cell_setting monoclinic
_symmetry_space_group_name_H-M 'P 21/c'
_symmetry_Int_Tables_number 14
loop_
_symmetry_equiv_pos_site_id
_symmetry_equiv_pos_as_xyz
1 x,y,z
2 -x,1/2+y,1/2-z
3 -x,-y,-z
4 x,-1/2-y,-1/2+z
_cell_length_a 11.285(2)
_cell_length_b 21.933(2)
_cell_length_c 8.829(1)
_cell_angle_alpha 90
_cell_angle_beta 91.60(1)
_cell_angle_gamma 90
_cell_formula_units_Z 4
loop_
_atom_type_symbol
_atom_type_radius_bond
C 0.68
H 0.23
N 0.68
O 0.68
loop_
_atom_site_label
_atom_site_type_symbol
_atom_site_fract_x
_atom_site_fract_y
_atom_site_fract_z
O1 O 0.7526(1) 0.12083(6) 0.7967(1)
O2 O 0.7611(1) 0.09409(6) 1.0508(1)
O3 O 0.8891(1) 0.05253(6) 0.8943(2)
O4 O 0.7840(1) 0.18793(7) 0.6015(2)
O5 O 0.9034(2) 0.16563(7) 0.5736(2)
O6 O 1.0168(2) 0.1298(1) 1.1613(2)
O7 O 1.0540(2) 0.21840(8) 1.0562(2)
O8 O 1.4097(2) 0.0515(1) 0.2456(2)
O9 O 1.4667(2) -0.0350(1) 0.3397(2)
O10 O 0.3385(2) 0.1957(1) 0.8803(3)
N1 N 0.9649(1) 0.06192(8) 0.7719(2)
N2 N 1.3993(2) 0.0084(1) 0.3335(2)
C1 C 0.8256(2) 0.10692(9) 0.9249(2)
C2 C 0.8996(2) 0.16316(9) 0.9509(2)
C3 C 0.8633(2) 0.20648(9) 0.8574(2)
C4 C 0.7627(2) 0.18413(9) 0.7582(2)
C5 C 0.6483(2) 0.2185(1) 0.7780(2)
C6 C 0.6488(2) 0.2811(1) 0.7587(4)
C7 C 0.5466(3) 0.3132(1) 0.7838(4)
C8 C 0.4455(2) 0.2840(2) 0.8262(4)
C9 C 0.4443(2) 0.2211(1) 0.8419(3)
C10 C 0.5465(2) 0.1882(1) 0.8179(3)
C11 C 0.9946(2) 0.1675(1) 1.0689(2)
C12 C 1.1459(2) 0.2311(2) 1.1693(4)
C13 C 0.6764(2) 0.0452(1) 1.0346(3)
C14 C 1.0273(2) 0.0148(1) 0.7519(2)
C15 C 1.1175(2) 0.0138(1) 0.6354(2)
C16 C 1.1421(2) 0.0643(1) 0.5454(3)
C17 C 1.2323(2) 0.0619(1) 0.4442(3)
C18 C 1.2987(2) 0.0095(1) 0.4353(2)
C19 C 1.2747(2) -0.0414(1) 0.5180(2)
C20 C 1.1825(2) -0.0392(1) 0.6177(2)
C21 C 0.3330(3) 0.1314(2) 0.8952(5)
H1 H 0.89600 0.24600 0.85300
H2 H 0.71800 0.30100 0.72900
H3 H 0.54600 0.35600 0.77200
H4 H 0.37600 0.30700 0.84500
H5 H 0.54700 0.14500 0.82900
H6 H 1.18400 0.27100 1.14600
H7 H 1.11000 0.23300 1.27200
H8 H 1.20700 0.19800 1.16800
H9 H 0.63400 0.04000 1.13200
H10 H 0.61700 0.05500 0.95200
H11 H 0.71800 0.00700 1.00900
H12 H 1.01600 -0.02000 0.81300
H13 H 1.09600 0.10000 0.55400
H14 H 1.24800 0.09600 0.38100
H15 H 1.32000 -0.07700 0.50700
H16 H 1.16300 -0.07400 0.67500
H17 H 0.25100 0.11900 0.92300
H18 H 0.35300 0.11200 0.79700
H19 H 0.39100 0.11800 0.97600
H20 H 0.91700 0.12500 0.61100
#END
