
#######################################################################
#
#                 Cambridge Crystallographic Data Centre
#                                CCDC
#
#######################################################################
#
# If this CIF has been generated from an entry in the Cambridge
# Structural Database, then it will include bibliographic, chemical,
# crystal, experimental, refinement or atomic coordinate data resulting
# from the CCDC's data processing and validation procedures.
#
#######################################################################

data_CSD_CIF_BEZZOX
_audit_creation_date 2013-07-07
_audit_creation_method CSD-ConQuest-V1
_database_code_CSD BEZZOX
_database_code_depnum_ccdc_archive 'CCDC 765672'
_chemical_formula_sum 'C28 H22 N2 O4'
_chemical_formula_moiety
;
C28 H22 N2 O4
;
_journal_coden_Cambridge 214
_journal_volume 143
_journal_year 2012
_journal_page_first 1687
_journal_name_full 'Monatsh.Chem. '
loop_
_publ_author_name
"N.Acharjee"
"A.Banerji"
"T.Prange"
_chemical_name_systematic
;
(3-(4-Nitrophenyl)-2,5-diphenyl-1,2-oxazolidin-4-yl)(phenyl)methanone
;
_cell_volume   1139.731
_exptl_crystal_colour 'colorless'
_exptl_crystal_density_diffrn 1.313
_exptl_crystal_description 'plate'
_diffrn_ambient_temperature 100
_diffrn_radiation_probe x-ray
_diffrn_source synchrotron
#These two values have been output from a single CSD field.
_refine_ls_R_factor_gt 0.0938
_refine_ls_wR_factor_gt 0.0938
_symmetry_cell_setting triclinic
_symmetry_space_group_name_H-M 'P -1'
_symmetry_Int_Tables_number 2
loop_
_symmetry_equiv_pos_site_id
_symmetry_equiv_pos_as_xyz
1 x,y,z
2 -x,-y,-z
_cell_length_a 9.3900(9)
_cell_length_b 11.540(1)
_cell_length_c 11.700(1)
_cell_angle_alpha 100.74(4)
_cell_angle_beta 100.66(3)
_cell_angle_gamma 108.53(4)
_cell_formula_units_Z 2
loop_
_atom_type_symbol
_atom_type_radius_bond
C 0.68
H 0.23
N 0.68
O 0.68
loop_
_atom_site_label
_atom_site_type_symbol
_atom_site_fract_x
_atom_site_fract_y
_atom_site_fract_z
O1 O 0.4451(4) 0.2241(3) 0.8700(2)
N1 N 0.2991(4) 0.1415(3) 0.8767(3)
C1 C 0.2299(5) 0.0490(4) 0.7580(4)
H1 H 0.11790 0.03200 0.73470
C2 C 0.2536(5) -0.0732(4) 0.7596(4)
C3 C 0.3239(5) -0.0967(5) 0.8609(4)
H2 H 0.36140 -0.03310 0.93270
C4 C 0.3418(5) -0.2105(6) 0.8614(4)
H3 H 0.38750 -0.22510 0.93220
C5 C 0.2897(6) -0.3019(5) 0.7535(5)
N2 N 0.3114(6) -0.4214(5) 0.7492(5)
O2 O 0.3863(6) -0.4337(4) 0.8352(5)
O3 O 0.2545(6) -0.5063(4) 0.6535(5)
C6 C 0.2201(6) -0.2803(5) 0.6490(5)
H4 H 0.18510 -0.34320 0.57680
C7 C 0.2025(6) -0.1684(6) 0.6510(4)
H5 H 0.15640 -0.15430 0.58010
C8 C 0.2072(6) 0.2069(5) 0.9205(4)
C9 C 0.2656(6) 0.3356(6) 0.9701(4)
H6 H 0.36620 0.38430 0.97100
C10 C 0.1719(9) 0.3919(6) 1.0189(5)
H7 H 0.20900 0.47940 1.05010
C11 C 0.0272(9) 0.3211(8) 1.0216(5)
H8 H -0.03370 0.35940 1.05620
C12 C -0.0270(7) 0.1969(8) 0.9748(5)
H9 H -0.12720 0.14950 0.97600
C13 C 0.0602(7) 0.1343(5) 0.9238(4)
H10 H 0.02070 0.04670 0.89310
C14 C 0.3068(5) 0.1153(4) 0.6694(4)
H11 H 0.36730 0.06950 0.63510
C15 C 0.1948(6) 0.1333(4) 0.5701(4)
O4 O 0.0773(4) 0.1456(3) 0.5861(3)
C16 C 0.2378(5) 0.1435(4) 0.4544(4)
C17 C 0.1879(6) 0.2161(5) 0.3902(5)
H12 H 0.13000 0.26080 0.41990
C18 C 0.2216(8) 0.2246(6) 0.2820(6)
H13 H 0.18710 0.27540 0.23950
C19 C 0.3051(7) 0.1590(7) 0.2367(5)
H14 H 0.32570 0.16210 0.16240
C20 C 0.3551(7) 0.0922(7) 0.2995(6)
H15 H 0.41530 0.05000 0.26950
C21 C 0.3250(7) 0.0799(6) 0.4077(5)
H16 H 0.36250 0.02950 0.44880
C22 C 0.4176(5) 0.2482(4) 0.7529(4)
H17 H 0.36420 0.30870 0.75250
C23 C 0.5711(6) 0.3013(4) 0.7248(4)
C24 C 0.6862(7) 0.2539(6) 0.7552(5)
H18 H 0.67020 0.19010 0.79500
C25 C 0.8268(8) 0.3022(9) 0.7258(6)
H19 H 0.90590 0.27190 0.74680
C26 C 0.8464(9) 0.3927(8) 0.6673(6)
H20 H 0.93980 0.42310 0.64670
C27 C 0.7323(11) 0.4441(6) 0.6353(6)
H21 H 0.74850 0.50740 0.59500
C28 C 0.5935(8) 0.3953(6) 0.6672(5)
H22 H 0.51530 0.42730 0.64890
#END
