
#######################################################################
#
#                 Cambridge Crystallographic Data Centre
#                                CCDC
#
#######################################################################
#
# If this CIF has been generated from an entry in the Cambridge
# Structural Database, then it will include bibliographic, chemical,
# crystal, experimental, refinement or atomic coordinate data resulting
# from the CCDC's data processing and validation procedures.
#
#######################################################################

data_CSD_CIF_BHCDNB
_audit_creation_date 1980-02-13
_audit_creation_method CSD-ConQuest-V1
_database_code_CSD BHCDNB
_chemical_formula_sum 'C21 H27 N1 O4'
_chemical_formula_moiety
;
C21 H27 N1 O4
;
_journal_coden_Cambridge 35
_journal_volume 44
_journal_year 1979
_journal_page_first 2400
_journal_name_full 'J.Org.Chem. '
loop_
_publ_author_name
"H.O.House"
"W.V.Phillips"
"D.G.VanDerveer"
_chemical_name_systematic
;
7-t-Butyl-2-hydroxy-bicyclo(4.4.0)dec-1-ene p-nitrobenzoate
;
_cell_volume   3980.105
_exptl_crystal_density_diffrn 1.19
_exptl_special_details
;
N24 x should be 0.702, not 0.782. C14 x should be 0.289, not 0.259

;
_diffrn_ambient_temperature ?
_diffrn_special_details
;
The study was carried out at room temperature,in the range 283-303K

;
#These two values have been output from a single CSD field.
_refine_ls_R_factor_gt 0.068
_refine_ls_wR_factor_gt 0.068
_symmetry_cell_setting orthorhombic
_symmetry_space_group_name_H-M 'P b c a'
_symmetry_Int_Tables_number 61
loop_
_symmetry_equiv_pos_site_id
_symmetry_equiv_pos_as_xyz
1 x,y,z
2 1/2-x,1/2+y,z
3 x,1/2-y,1/2+z
4 1/2-x,-y,1/2+z
5 -x,-y,-z
6 -1/2+x,-1/2-y,-z
7 -x,-1/2+y,-1/2-z
8 -1/2+x,y,-1/2-z
_cell_length_a 8.188(3)
_cell_length_b 12.275(5)
_cell_length_c 39.60(3)
_cell_angle_alpha 90
_cell_angle_beta 90
_cell_angle_gamma 90
_cell_formula_units_Z 8
loop_
_atom_type_symbol
_atom_type_radius_bond
C 0.68
H 0.23
N 0.68
O 0.68
loop_
_atom_site_label
_atom_site_type_symbol
_atom_site_fract_x
_atom_site_fract_y
_atom_site_fract_z
C1 C 0.67700 0.31330 0.14810
C2 C 0.82400 0.24200 0.14530
C3 C 0.79900 0.16110 0.11690
C4 C 0.72000 0.20860 0.08710
C5 C 0.50300 0.33740 0.06640
C6 C 0.34100 0.39850 0.07260
C7 C 0.27800 0.37760 0.10710
C8 C 0.41100 0.39610 0.13370
C9 C 0.55600 0.32530 0.12670
C10 C 0.55800 0.26190 0.09370
C11 C 0.21300 0.37890 0.04400
C12 C 0.16800 0.26080 0.03950
C13 C 0.06100 0.44750 0.05210
C14 C 0.28900 0.42240 0.01100
O1 O 0.67960 0.38050 0.17770
O2 O 0.56760 0.24730 0.20850
N1 N 0.70200 0.61120 0.32190
O3 O 0.79950 0.68600 0.31970
O4 O 0.62570 0.58780 0.34710
H1 H 0.82900 0.29140 0.13990
H2 H 0.84200 0.19870 0.16870
H3 H 0.72300 0.09540 0.12610
H4 H 0.91600 0.12940 0.10950
H5 H 0.80100 0.26920 0.07670
H6 H 0.70100 0.14450 0.06880
H7 H 0.59700 0.39770 0.06290
H8 H 0.48900 0.29020 0.04360
H9 H 0.36800 0.48470 0.07130
H10 H 0.17800 0.43200 0.11210
H11 H 0.23700 0.29430 0.10870
H12 H 0.36300 0.37700 0.15840
H13 H 0.44300 0.48040 0.13300
H14 H 0.47500 0.19400 0.09480
H15 H 0.11500 0.23040 0.06260
H16 H 0.27500 0.21400 0.03350
H17 H 0.08000 0.25350 0.01930
H18 H 0.09500 0.53100 0.05530
H19 H 0.00500 0.41800 0.07510
H20 H -0.02600 0.44060 0.03160
H21 H 0.32200 0.50700 0.01420
H22 H 0.20200 0.41500 -0.00920
H23 H 0.39700 0.37560 0.00500
C15 C 0.62250 0.33800 0.20630
C16 C 0.70800 0.51530 0.23201
C17 C 0.72770 0.58130 0.26042
C18 C 0.67290 0.54520 0.29185
C19 C 0.59960 0.44300 0.29494
C20 C 0.58060 0.37700 0.26654
C21 C 0.63440 0.41310 0.23507
H24 H 0.75000 0.54330 0.20765
H25 H 0.78370 0.66040 0.25804
H26 H 0.55770 0.41510 0.31930
H27 H 0.52400 0.29790 0.26891
#END
