
#######################################################################
#
#                 Cambridge Crystallographic Data Centre
#                                CCDC
#
#######################################################################
#
# If this CIF has been generated from an entry in the Cambridge
# Structural Database, then it will include bibliographic, chemical,
# crystal, experimental, refinement or atomic coordinate data resulting
# from the CCDC's data processing and validation procedures.
#
#######################################################################

data_CSD_CIF_BIBGAU
_audit_creation_date 1999-12-03
_audit_creation_method CSD-ConQuest-V1
_database_code_CSD BIBGAU
_chemical_formula_sum 'C21 H24 N2 O6'
_chemical_formula_moiety
;
C21 H24 N2 O6
;
_journal_coden_Cambridge 15
_journal_volume 76
_journal_year 1998
_journal_page_first 997
_journal_name_full 'Can.J.Chem. '
loop_
_publ_author_name
"T.Yamato"
"H.Kamimura"
"H.Tsuzuki"
_chemical_name_systematic
;
syn-11,19-Dimethoxy-8,16-dinitro(5.2)metacyclophane
;
_chemical_melting_point 507.15
_cell_volume   1013.313
_exptl_crystal_colour 'colorless'
_exptl_crystal_density_diffrn 1.312
_exptl_special_details
;
Melting point range 507.15-509.15K

;
_exptl_crystal_description 'prism'
_diffrn_ambient_temperature ?
_diffrn_special_details
;
The study was carried out at room temperature,in the range 283-303K

;
_refine_special_details
;
Atoms C2 and C4 are disordered over two sets of positions with occupancy 
0.64:0.36 and 0.57:0.43, respectively.
;
#These two values have been output from a single CSD field.
_refine_ls_R_factor_gt 0.083
_refine_ls_wR_factor_gt 0.083
_symmetry_cell_setting triclinic
_symmetry_space_group_name_H-M 'P -1'
_symmetry_Int_Tables_number 2
loop_
_symmetry_equiv_pos_site_id
_symmetry_equiv_pos_as_xyz
1 x,y,z
2 -x,-y,-z
_cell_length_a 9.9628(8)
_cell_length_b 12.0077(6)
_cell_length_c 8.7512(5)
_cell_angle_alpha 102.604(5)
_cell_angle_beta 94.445(6)
_cell_angle_gamma 83.340(6)
_cell_formula_units_Z 2
loop_
_atom_type_symbol
_atom_type_radius_bond
C 0.68
H 0.23
N 0.68
O 0.68
loop_
_atom_site_label
_atom_site_type_symbol
_atom_site_fract_x
_atom_site_fract_y
_atom_site_fract_z
O1 O 0.0318(3) 0.2856(3) 0.6913(4)
O2 O 0.6058(4) 0.1817(3) 0.4202(5)
O3 O 0.5861(3) 0.3631(3) 0.4665(5)
O4 O 0.0962(3) 0.2281(3) 1.0187(4)
O5 O 0.6767(4) 0.0389(4) 0.7984(5)
O6 O 0.7248(4) 0.1670(4) 0.9968(6)
N1 N 0.5418(4) 0.2740(3) 0.4672(4)
N2 N 0.6439(4) 0.1149(4) 0.9076(5)
C1 C 0.2749(6) 0.3848(5) 1.1812(6)
C2 C 0.3236(9) 0.4912(9) 1.145(1)
C3? C 0.201(1) 0.4669(9) 1.070(1)
C4 C 0.3031(5) 0.5024(4) 0.9748(6)
C5? C 0.1604(8) 0.5018(7) 0.918(1)
C6 C 0.208(1) 0.5617(9) 0.851(1)
C7 C 0.1383(5) 0.4967(4) 0.7276(6)
C8 C 0.2123(4) 0.3840(3) 0.6460(5)
C9 C 0.3395(4) 0.3801(3) 0.5895(5)
C10 C 0.4072(4) 0.2764(3) 0.5262(5)
C11 C 0.3542(4) 0.1749(4) 0.5186(5)
C12 C 0.2280(4) 0.1746(3) 0.5747(5)
C13 C 0.1560(4) 0.2814(4) 0.6328(5)
C14 C 0.1785(5) 0.0626(4) 0.5883(6)
C15 C 0.1661(5) 0.0483(4) 0.7519(6)
C16 C 0.2688(4) 0.1086(4) 0.8673(5)
C17 C 0.4070(4) 0.0794(4) 0.8451(5)
C18 C 0.4981(4) 0.1454(4) 0.9378(5)
C19 C 0.4600(4) 0.2418(4) 1.0476(5)
C20 C 0.3239(5) 0.2733(4) 1.0733(5)
C21 C 0.2321(4) 0.2010(4) 0.9877(8)
C22 C -0.0798(5) 0.2713(6) 0.5849(7)
C23 C 0.0546(5) 0.1736(5) 1.1321(6)
H1 H 0.38000 0.44900 0.59500
H2 H 0.40400 0.10400 0.47500
H3 H 0.24100 0.00200 0.54000
H4 H 0.09300 0.05700 0.53300
H5 H 0.17700 -0.03100 0.75300
H6 H 0.07800 0.08000 0.78300
H7 H 0.43700 0.01500 0.76700
H8 H 0.52700 0.28600 1.10700
H9 H -0.16100 0.27500 0.63700
H10 H -0.08700 0.33000 0.52600
H11 H -0.06500 0.19900 0.51600
H12 H -0.03900 0.19600 1.14700
H13 H 0.06900 0.09300 1.09800
H14 H 0.10500 0.19700 1.22800
#END
