
#######################################################################
#
#                 Cambridge Crystallographic Data Centre
#                                CCDC
#
#######################################################################
#
# If this CIF has been generated from an entry in the Cambridge
# Structural Database, then it will include bibliographic, chemical,
# crystal, experimental, refinement or atomic coordinate data resulting
# from the CCDC's data processing and validation procedures.
#
#######################################################################

data_CSD_CIF_BIBXEQ
_audit_creation_date 2005-01-20
_audit_creation_method CSD-ConQuest-V1
_database_code_CSD BIBXEQ
_database_code_depnum_ccdc_archive 'CCDC 242916'
_chemical_formula_sum 'C26 H31 N1 O3'
_chemical_formula_moiety
;
C26 H31 N1 O3
;
_journal_coden_Cambridge 1078
_journal_year 2004
_journal_name_full 'CSD Communication(Private Communication) '
loop_
_publ_author_name
"P.G.Jones"
_chemical_name_systematic
;
9-(4-methoxyphenyl)-3',9a-dimethyl-1,2,3,4,4b,6,7,8a,9,9a-decahydro-4'H,8H-spi
ro(4a,9-ethenofluorene-5,5'-isoxazol)-8-one
;
_cell_volume   2114.458
_exptl_crystal_colour 'colorless'
_exptl_crystal_density_diffrn 1.267
_exptl_special_details
;
contribution from Institut fur Anorganische und Analytische Chemie, 
Technische Universitat Braunschweig, Postfach 3329, 38023 Braunschweig, 
Germany
;
_exptl_crystal_description 'tablet'
_diffrn_ambient_temperature 143
#These two values have been output from a single CSD field.
_refine_ls_R_factor_gt 0.0506
_refine_ls_wR_factor_gt 0.0506
_symmetry_cell_setting monoclinic
_symmetry_space_group_name_H-M 'P 21/n'
_symmetry_Int_Tables_number 14
loop_
_symmetry_equiv_pos_site_id
_symmetry_equiv_pos_as_xyz
1 x,y,z
2 1/2+x,1/2-y,1/2+z
3 -x,-y,-z
4 -1/2-x,-1/2+y,-1/2-z
_cell_length_a 10.956(3)
_cell_length_b 17.785(6)
_cell_length_c 11.302(3)
_cell_angle_alpha 90
_cell_angle_beta 106.23(3)
_cell_angle_gamma 90
_cell_formula_units_Z 4
loop_
_atom_type_symbol
_atom_type_radius_bond
C 0.68
H 0.23
N 0.68
O 0.68
loop_
_atom_site_label
_atom_site_type_symbol
_atom_site_fract_x
_atom_site_fract_y
_atom_site_fract_z
C1 C 0.5719(2) 0.20189(14) 0.3132(2)
C2 C 0.4848(2) 0.14099(14) 0.3356(3)
H1 H 0.53560 0.10480 0.39620
H2 H 0.44840 0.11340 0.25760
C3 C 0.3761(2) 0.17042(14) 0.3829(2)
H3 H 0.31640 0.12880 0.38430
H4 H 0.41070 0.18900 0.46840
C4 C 0.3046(2) 0.23388(13) 0.3020(2)
C5 C 0.39428(19) 0.30086(12) 0.3091(2)
H5 H 0.38710 0.33120 0.38140
C6 C 0.37162(19) 0.35746(12) 0.1999(2)
C7 C 0.2474(2) 0.40140(13) 0.1637(2)
H6 H 0.23020 0.42260 0.23840
H7 H 0.17660 0.36720 0.12370
C8 C 0.2553(2) 0.46509(13) 0.0750(2)
H8 H 0.17660 0.49550 0.05720
H9 H 0.26200 0.44340 -0.00360
C9 C 0.3703(2) 0.51603(13) 0.1293(2)
H10 H 0.37260 0.55650 0.06980
H11 H 0.36160 0.53980 0.20580
C10 C 0.4944(2) 0.47142(13) 0.1581(2)
H12 H 0.56700 0.50540 0.19330
H13 H 0.50530 0.44970 0.08110
C11 C 0.49298(19) 0.40798(12) 0.2503(2)
C12 C 0.58736(19) 0.34063(12) 0.2528(2)
C13 C 0.53937(19) 0.28239(12) 0.3350(2)
H14 H 0.58180 0.29470 0.42330
C14 C 0.5313(2) 0.30917(12) 0.1241(2)
H15 H 0.57760 0.28710 0.07330
C15 C 0.4066(2) 0.31787(12) 0.0951(2)
H16 H 0.34810 0.30180 0.02040
C16 C 0.5083(2) 0.44387(13) 0.3770(2)
H17 H 0.57560 0.48190 0.39240
H18 H 0.53100 0.40500 0.44090
H19 H 0.42810 0.46760 0.37880
C17 C 0.7264(2) 0.36150(12) 0.2929(2)
C18 C 0.7847(2) 0.39246(14) 0.2092(2)
H20 H 0.73730 0.39690 0.12510
C19 C 0.9096(2) 0.41695(14) 0.2451(2)
H21 H 0.94690 0.43800 0.18610
C20 C 0.9803(2) 0.41074(13) 0.3676(2)
C21 C 0.9255(2) 0.37985(13) 0.4518(2)
H22 H 0.97340 0.37490 0.53560
C22 C 0.7994(2) 0.35584(13) 0.4141(2)
H23 H 0.76250 0.33490 0.47340
C23 C 1.1789(2) 0.42772(16) 0.5195(3)
H24 H 1.14450 0.45930 0.57370
H25 H 1.26660 0.44290 0.52630
H26 H 1.17760 0.37490 0.54400
O1 O 0.66545(16) 0.18544(10) 0.28178(18)
O2 O 1.10335(14) 0.43656(10) 0.39534(16)
O3 O 0.25901(14) 0.20567(9) 0.17554(14)
N1 N 0.12797(17) 0.18500(11) 0.15211(19)
C24 C 0.1822(2) 0.25271(14) 0.3343(2)
H27 H 0.18530 0.23530 0.41830
H28 H 0.16470 0.30740 0.32800
C25 C 0.0862(2) 0.21014(13) 0.2388(2)
C26 C -0.0482(2) 0.19722(16) 0.2393(3)
H29 H -0.09420 0.17160 0.16320
H30 H -0.08900 0.24560 0.24480
H31 H -0.04970 0.16600 0.31040
#END
