
#######################################################################
#
#                 Cambridge Crystallographic Data Centre
#                                CCDC
#
#######################################################################
#
# If this CIF has been generated from an entry in the Cambridge
# Structural Database, then it will include bibliographic, chemical,
# crystal, experimental, refinement or atomic coordinate data resulting
# from the CCDC's data processing and validation procedures.
#
#######################################################################

data_CSD_CIF_BICWEP
_audit_creation_date 1983-02-19
_audit_creation_method CSD-ConQuest-V1
_database_code_CSD BICWEP
_database_code_depnum_ccdc_archive 'CCDC 1110272'
_chemical_formula_sum 'C7 H6 N6 O7'
_chemical_formula_moiety
;
C7 H6 N6 O7
;
_journal_coeditor_code "IUCr A21384"
_journal_coden_Cambridge 107
_journal_volume 38
_journal_year 1982
_journal_page_first 2083
_journal_name_full 'Acta Crystallogr.,Sect.B:Struct.Crystallogr.Cryst.Chem. '
loop_
_publ_author_name
"H.L.Ammon"
"S.K.Bhattacharjee"
_chemical_name_systematic
;
3,5-Diamino-2,4,6-trinitrobenzamide
;
_cell_volume   1007.091
_exptl_crystal_colour 'yellow-orange'
_exptl_crystal_density_diffrn 1.89
_diffrn_ambient_temperature ?
_diffrn_special_details
;
The study was carried out at room temperature,in the range 283-303K

;
#These two values have been output from a single CSD field.
_refine_ls_R_factor_gt 0.036
_refine_ls_wR_factor_gt 0.036
_symmetry_cell_setting monoclinic
_symmetry_space_group_name_H-M 'P 21/n'
_symmetry_Int_Tables_number 14
loop_
_symmetry_equiv_pos_site_id
_symmetry_equiv_pos_as_xyz
1 x,y,z
2 1/2-x,1/2+y,1/2-z
3 -x,-y,-z
4 -1/2+x,-1/2-y,-1/2+z
_cell_length_a 16.557(1)
_cell_length_b 10.2453(4)
_cell_length_c 5.9400(1)
_cell_angle_alpha 90
_cell_angle_beta 91.840(6)
_cell_angle_gamma 90
_cell_formula_units_Z 4
loop_
_atom_type_symbol
_atom_type_radius_bond
C 0.68
H 0.23
N 0.68
O 0.68
loop_
_atom_site_label
_atom_site_type_symbol
_atom_site_fract_x
_atom_site_fract_y
_atom_site_fract_z
C1 C 0.38950 0.23540 0.61490
C2 C 0.30830 0.23810 0.67210
C3 C 0.24610 0.18330 0.52740
C4 C 0.27210 0.10700 0.34180
C5 C 0.35610 0.08190 0.30580
C6 C 0.41190 0.16020 0.43510
C7 C 0.45390 0.31260 0.74920
N1 N 0.44970 0.44190 0.72010
N2 N 0.28870 0.30060 0.87980
N3 N 0.16850 0.20400 0.56770
N4 N 0.21370 0.05470 0.18620
N5 N 0.38170 -0.00420 0.15860
N6 N 0.49520 0.16790 0.36490
O1 O 0.50410 0.25500 0.86670
O2 O 0.34260 0.31770 1.02350
O3 O 0.21870 0.33410 0.91550
O4 O 0.23560 -0.00240 0.01420
O5 O 0.14065 0.06880 0.21360
O6 O 0.53030 0.27230 0.38590
O7 O 0.52776 0.07020 0.28530
H1 H 0.41400 0.47400 0.60800
H2 H 0.49000 0.48800 0.79000
H3 H 0.15800 0.25000 0.69900
H4 H 0.13300 0.16900 0.47000
H5 H 0.43900 -0.01700 0.15300
H6 H 0.34600 -0.03800 0.05600
#END
