
#######################################################################
#
#                 Cambridge Crystallographic Data Centre
#                                CCDC
#
#######################################################################
#
# If this CIF has been generated from an entry in the Cambridge
# Structural Database, then it will include bibliographic, chemical,
# crystal, experimental, refinement or atomic coordinate data resulting
# from the CCDC's data processing and validation procedures.
#
#######################################################################

data_CSD_CIF_BIDCEW
_audit_creation_date 1999-12-03
_audit_creation_method CSD-ConQuest-V1
_database_code_CSD BIDCEW
_chemical_formula_sum 'C12 H11 N1 O5'
_chemical_formula_moiety
;
C12 H11 N1 O5
;
_journal_coden_Cambridge 35
_journal_volume 64
_journal_year 1999
_journal_page_first 596
_journal_name_full 'J.Org.Chem. '
loop_
_publ_author_name
"W.E.Noland"
"B.L.Kedrowski"
_chemical_name_systematic
;
cis-1,2,3a,9b-Tetrahydro-6,9-dihydroxy-4-nitronaphtho(2,1-b)furan
;
_chemical_melting_point 489.15
_cell_volume    510.034
_exptl_crystal_colour 'red'
_exptl_crystal_density_diffrn 1.623
_exptl_crystal_description 'irregular'
_diffrn_ambient_temperature 173
#These two values have been output from a single CSD field.
_refine_ls_R_factor_gt 0.0365
_refine_ls_wR_factor_gt 0.0365
_symmetry_cell_setting triclinic
_symmetry_space_group_name_H-M 'P -1'
_symmetry_Int_Tables_number 2
loop_
_symmetry_equiv_pos_site_id
_symmetry_equiv_pos_as_xyz
1 x,y,z
2 -x,-y,-z
_cell_length_a 6.9206(6)
_cell_length_b 8.4993(8)
_cell_length_c 9.2958(9)
_cell_angle_alpha 69.351(2)
_cell_angle_beta 86.431(2)
_cell_angle_gamma 86.084(2)
_cell_formula_units_Z 2
loop_
_atom_type_symbol
_atom_type_radius_bond
C 0.68
H 0.23
N 0.68
O 0.68
loop_
_atom_site_label
_atom_site_type_symbol
_atom_site_fract_x
_atom_site_fract_y
_atom_site_fract_z
C1 C 0.2866(2) 0.4352(2) 0.7537(2)
C2 C 0.2543(2) 0.4080(2) 0.6234(2)
C3 C 0.2524(2) 0.5425(2) 0.4757(2)
C4 C 0.2982(2) 0.7066(2) 0.4637(2)
C5 C 0.3486(2) 0.7461(2) 0.6036(2)
C6 C 0.3136(2) 0.6037(2) 0.7623(2)
C7 C 0.2222(2) 0.8973(2) 0.6224(2)
C8 C 0.1594(2) 0.8359(2) 0.7921(2)
O1 O 0.1375(2) 0.6575(1) 0.8304(1)
N1 N 0.2897(2) 0.2917(2) 0.8966(2)
O2 O 0.2597(2) 0.1511(2) 0.8951(2)
O3 O 0.3241(2) 0.3151(2) 1.0170(1)
C9 C 0.2066(2) 0.5083(2) 0.3440(2)
O4 O 0.1629(2) 0.3473(1) 0.3628(1)
C10 C 0.2073(2) 0.6357(2) 0.2010(2)
C11 C 0.2523(2) 0.7967(2) 0.1892(2)
C12 C 0.2987(2) 0.8322(2) 0.3183(2)
O5 O 0.3489(2) 0.9909(1) 0.3064(1)
H1 H 0.2320(2) 0.2970(2) 0.6287(2)
H2 H 0.4880(2) 0.7742(2) 0.5927(2)
H3 H 0.4245(2) 0.5953(2) 0.8290(2)
H4 H 0.2988(2) 0.9988(2) 0.5951(2)
H5 H 0.1085(2) 0.9239(2) 0.5569(2)
H6 H 0.2591(2) 0.8562(2) 0.8546(2)
H7 H 0.0353(2) 0.8932(2) 0.8092(2)
H8 H 0.0942(27) 0.3488(23) 0.2888(24)
H9 H 0.1774(2) 0.6131(2) 0.1121(2)
H10 H 0.2514(2) 0.8843(2) 0.0914(2)
H11 H 0.3347(28) 1.0540(26) 0.2177(26)
#END
