
#######################################################################
#
#                 Cambridge Crystallographic Data Centre
#                                CCDC
#
#######################################################################
#
# If this CIF has been generated from an entry in the Cambridge
# Structural Database, then it will include bibliographic, chemical,
# crystal, experimental, refinement or atomic coordinate data resulting
# from the CCDC's data processing and validation procedures.
#
#######################################################################

data_CSD_CIF_BIDJON
_audit_creation_date 1983-02-19
_audit_creation_method CSD-ConQuest-V1
_database_code_CSD BIDJON
_database_code_depnum_ccdc_archive 'CCDC 1110327'
_chemical_formula_sum 'C3 H7 N3 O2'
_chemical_formula_moiety
;
C3 H7 N3 O2
;
_journal_coeditor_code "IUCr A21407"
_journal_coden_Cambridge 107
_journal_volume 38
_journal_year 1982
_journal_page_first 2176
_journal_name_full 'Acta Crystallogr.,Sect.B:Struct.Crystallogr.Cryst.Chem. '
loop_
_publ_author_name
"K.Prout"
"J.Fail"
"S.Hernandez-Cassou"
"F.M.Miao"
_chemical_name_systematic
;
N,N'-Dimethyl-N-nitrosourea
;
_cell_volume    563.756
_exptl_crystal_density_diffrn 1.37
_diffrn_ambient_temperature ?
_diffrn_special_details
;
The study was carried out at room temperature,in the range 283-303K

;
#These two values have been output from a single CSD field.
_refine_ls_R_factor_gt 0.042
_refine_ls_wR_factor_gt 0.042
_symmetry_cell_setting monoclinic
_symmetry_space_group_name_H-M 'P 21/a'
_symmetry_Int_Tables_number 14
loop_
_symmetry_equiv_pos_site_id
_symmetry_equiv_pos_as_xyz
1 x,y,z
2 1/2-x,1/2+y,-z
3 -x,-y,-z
4 -1/2+x,-1/2-y,z
_cell_length_a 8.412(1)
_cell_length_b 9.953(1)
_cell_length_c 7.435(1)
_cell_angle_alpha 90
_cell_angle_beta 115.09(1)
_cell_angle_gamma 90
_cell_formula_units_Z 4
loop_
_atom_type_symbol
_atom_type_radius_bond
C 0.68
H 0.23
N 0.68
O 0.68
loop_
_atom_site_label
_atom_site_type_symbol
_atom_site_fract_x
_atom_site_fract_y
_atom_site_fract_z
O1 O 0.67490 0.02810 0.91940
O2 O 0.35180 -0.32070 0.60660
N1 N 0.77120 -0.18240 1.02410
N2 N 0.50060 -0.14700 0.75560
N3 N 0.48960 -0.28030 0.73900
C1 C 0.65730 -0.09350 0.90770
C2 C 0.35880 -0.06110 0.62500
C3 C 0.93960 -0.14110 1.17830
H1 H 0.74640 -0.26510 1.00200
H2 H 0.39770 0.02860 0.66820
H3 H 0.25080 -0.08340 0.62550
H4 H 0.32610 -0.08190 0.49200
H5 H 1.00860 -0.21150 1.25610
H6 H 0.93180 -0.07700 1.26630
H7 H 1.00970 -0.09330 1.12960
#END
