
#######################################################################
#
#                 Cambridge Crystallographic Data Centre
#                                CCDC
#
#######################################################################
#
# If this CIF has been generated from an entry in the Cambridge
# Structural Database, then it will include bibliographic, chemical,
# crystal, experimental, refinement or atomic coordinate data resulting
# from the CCDC's data processing and validation procedures.
#
#######################################################################

data_CSD_CIF_BIDJIH
_audit_creation_date 1983-02-19
_audit_creation_method CSD-ConQuest-V1
_database_code_CSD BIDJIH
_database_code_depnum_ccdc_archive 'CCDC 1110326'
_chemical_formula_sum 'C2 H5 N3 O2'
_chemical_formula_moiety
;
C2 H5 N3 O2
;
_journal_coeditor_code "IUCr A21407"
_journal_coden_Cambridge 107
_journal_volume 38
_journal_year 1982
_journal_page_first 2176
_journal_name_full 'Acta Crystallogr.,Sect.B:Struct.Crystallogr.Cryst.Chem. '
loop_
_publ_author_name
"K.Prout"
"J.Fail"
"S.Hernandez-Cassou"
"F.M.Miao"
_chemical_name_systematic
;
N-Methyl-N-nitrosourea
;
_cell_volume    459.883
_exptl_crystal_density_diffrn 1.49
_diffrn_ambient_temperature ?
_diffrn_special_details
;
The study was carried out at room temperature,in the range 283-303K

;
#These two values have been output from a single CSD field.
_refine_ls_R_factor_gt 0.041
_refine_ls_wR_factor_gt 0.041
_symmetry_cell_setting monoclinic
_symmetry_space_group_name_H-M 'P 21/n'
_symmetry_Int_Tables_number 14
loop_
_symmetry_equiv_pos_site_id
_symmetry_equiv_pos_as_xyz
1 x,y,z
2 1/2-x,1/2+y,1/2-z
3 -x,-y,-z
4 -1/2+x,-1/2-y,-1/2+z
_cell_length_a 5.302(1)
_cell_length_b 5.617(1)
_cell_length_c 15.442(2)
_cell_angle_alpha 90
_cell_angle_beta 90.09(1)
_cell_angle_gamma 90
_cell_formula_units_Z 4
loop_
_atom_type_symbol
_atom_type_radius_bond
C 0.68
H 0.23
N 0.68
O 0.68
loop_
_atom_site_label
_atom_site_type_symbol
_atom_site_fract_x
_atom_site_fract_y
_atom_site_fract_z
O1 O 0.30130 0.75030 0.01840
O2 O 0.47060 1.17070 0.25332
N1 N 0.63640 0.65320 0.10180
N2 N 0.38140 0.97850 0.13682
N3 N 0.53050 1.00570 0.20510
C1 C 0.43740 0.78320 0.08060
C2 C 0.16320 1.13090 0.12180
H1 H 0.72440 0.68040 0.14490
H2 H 0.67200 0.54650 0.06510
H3 H 0.05170 1.12860 0.17020
H4 H 0.08450 1.08640 0.07040
H5 H 0.21450 1.29490 0.11480
#END
