
#######################################################################
#
#                 Cambridge Crystallographic Data Centre
#                                CCDC
#
#######################################################################
#
# If this CIF has been generated from an entry in the Cambridge
# Structural Database, then it will include bibliographic, chemical,
# crystal, experimental, refinement or atomic coordinate data resulting
# from the CCDC's data processing and validation procedures.
#
#######################################################################

data_CSD_CIF_BIDKAA
_audit_creation_date 1983-02-19
_audit_creation_method CSD-ConQuest-V1
_database_code_CSD BIDKAA
_database_code_depnum_ccdc_archive 'CCDC 1110329'
_chemical_formula_sum 'C8 H7 N3 O4'
_chemical_formula_moiety
;
C8 H7 N3 O4
;
_journal_coeditor_code "IUCr A21407"
_journal_coden_Cambridge 107
_journal_volume 38
_journal_year 1982
_journal_page_first 2176
_journal_name_full 'Acta Crystallogr.,Sect.B:Struct.Crystallogr.Cryst.Chem. '
loop_
_publ_author_name
"K.Prout"
"J.Fail"
"S.Hernandez-Cassou"
"F.M.Miao"
_chemical_name_systematic
;
N-Methyl-N-nitroso-p-nitrobenzamide
;
_cell_volume    470.507
_exptl_crystal_density_diffrn 1.48
_exptl_special_details
;
H81 has been removed because of suspected error

;
_diffrn_ambient_temperature ?
_diffrn_special_details
;
The study was carried out at room temperature,in the range 283-303K

;
#These two values have been output from a single CSD field.
_refine_ls_R_factor_gt 0.042
_refine_ls_wR_factor_gt 0.042
_symmetry_cell_setting triclinic
_symmetry_space_group_name_H-M 'P -1'
_symmetry_Int_Tables_number 2
loop_
_symmetry_equiv_pos_site_id
_symmetry_equiv_pos_as_xyz
1 x,y,z
2 -x,-y,-z
_cell_length_a 7.116(3)
_cell_length_b 8.414(2)
_cell_length_c 8.462(4)
_cell_angle_alpha 103.24(3)
_cell_angle_beta 103.11(6)
_cell_angle_gamma 97.98(4)
_cell_formula_units_Z 2
loop_
_atom_type_symbol
_atom_type_radius_bond
C 0.68
H 0.23
N 0.68
O 0.68
loop_
_atom_site_label
_atom_site_type_symbol
_atom_site_fract_x
_atom_site_fract_y
_atom_site_fract_z
C1 C 0.12040 -0.54860 0.26530
C2 C -0.05990 -0.59450 0.14250
C3 C -0.19500 -0.49290 0.14540
C4 C -0.15000 -0.34910 0.27500
C5 C 0.02430 -0.30140 0.39860
C6 C 0.16120 -0.40000 0.39110
C7 C 0.28020 -0.64290 0.26160
C8 C 0.38930 -0.91270 0.18810
N1 N -0.29450 -0.23990 0.28040
N2 N 0.23540 -0.81790 0.21350
N3 N 0.05330 -0.89180 0.21180
O1 O -0.42290 -0.25870 0.15080
O2 O -0.27860 -0.13630 0.41110
O3 O 0.02650 -1.04330 0.17670
O4 O 0.44990 -0.57340 0.29700
H1 H -0.09110 -0.70500 0.04890
H2 H -0.33010 -0.52500 0.06540
H3 H 0.05180 -0.20080 0.46970
H4 H 0.27350 -0.37260 0.47020
H5 H 0.35760 -0.98850 0.09710
H6 H 0.38570 -0.97510 0.25040
#END
