
#######################################################################
#
#                 Cambridge Crystallographic Data Centre
#                                CCDC
#
#######################################################################
#
# If this CIF has been generated from an entry in the Cambridge
# Structural Database, then it will include bibliographic, chemical,
# crystal, experimental, refinement or atomic coordinate data resulting
# from the CCDC's data processing and validation procedures.
#
#######################################################################

data_CSD_CIF_BIDKOO
_audit_creation_date 1983-03-10
_audit_creation_method CSD-ConQuest-V1
_database_code_CSD BIDKOO
_database_code_depnum_ccdc_archive 'CCDC 1110333'
_chemical_formula_sum 'C20 H21 N3 O6'
_chemical_formula_moiety
;
C20 H21 N3 O6
;
_journal_coeditor_code "IUCr A21440"
_journal_coden_Cambridge 107
_journal_volume 38
_journal_year 1982
_journal_page_first 2293
_journal_name_full 'Acta Crystallogr.,Sect.B:Struct.Crystallogr.Cryst.Chem. '
loop_
_publ_author_name
"P.Narasimhan"
"V.Pattabhi"
_chemical_name_systematic
;
N-Glutaryl-L-phenylalanine p-nitroanilide
;
_cell_volume   1962.784
_exptl_crystal_density_diffrn 1.341
_diffrn_ambient_temperature ?
_diffrn_special_details
;
The study was carried out at room temperature,in the range 283-303K

;
#These two values have been output from a single CSD field.
_refine_ls_R_factor_gt 0.053
_refine_ls_wR_factor_gt 0.053
_symmetry_cell_setting orthorhombic
_symmetry_space_group_name_H-M 'P 21 21 21'
_symmetry_Int_Tables_number 19
loop_
_symmetry_equiv_pos_site_id
_symmetry_equiv_pos_as_xyz
1 x,y,z
2 1/2+x,1/2-y,-z
3 -x,1/2+y,1/2-z
4 1/2-x,-y,1/2+z
_cell_length_a 22.638(4)
_cell_length_b 7.635(1)
_cell_length_c 11.356(2)
_cell_angle_alpha 90
_cell_angle_beta 90
_cell_angle_gamma 90
_cell_formula_units_Z 4
loop_
_atom_type_symbol
_atom_type_radius_bond
C 0.68
H 0.23
N 0.68
O 0.68
loop_
_atom_site_label
_atom_site_type_symbol
_atom_site_fract_x
_atom_site_fract_y
_atom_site_fract_z
O1 O -0.18880 0.65330 0.59820
O2 O -0.12420 0.48680 0.51490
N1 N -0.14350 0.56820 0.59820
C1 C -0.10640 0.57220 0.70660
C2 C -0.05540 0.47540 0.70690
C3 C -0.02110 0.47310 0.80810
C4 C -0.03810 0.56700 0.90590
C5 C -0.08990 0.66780 0.90180
C6 C -0.12460 0.66920 0.80180
N2 N -0.00860 0.56360 1.01410
C7 C 0.04730 0.50190 1.03200
O3 O 0.07970 0.45580 0.95370
C8 C 0.06630 0.50150 1.16190
N3 N 0.11680 0.38740 1.17360
C9 C 0.11470 0.24090 1.23680
O4 O 0.07040 0.19230 1.28660
C10 C 0.17130 0.13410 1.24040
C11 C 0.22820 0.23330 1.27850
C12 C 0.22590 0.27020 1.40880
C13 C 0.27900 0.36950 1.45810
O5 O 0.31840 0.40880 1.37610
O6 O 0.28510 0.40790 1.55940
C14 C 0.08210 0.68880 1.20330
C15 C 0.09990 0.68260 1.33370
C16 C 0.15840 0.70900 1.36670
C17 C 0.17480 0.70410 1.48370
C18 C 0.13360 0.66720 1.57040
C19 C 0.07520 0.63630 1.53910
C20 C 0.05820 0.64540 1.42070
H1 H -0.05000 0.37500 0.66700
H2 H 0.02000 0.38600 0.81400
H3 H -0.10000 0.75000 0.96700
H4 H -0.15000 0.79200 0.80000
H5 H -0.02500 0.58300 1.10000
H6 H 0.02500 0.45800 1.20000
H7 H 0.15000 0.41700 1.13300
H8 H 0.18100 0.02800 1.26700
H9 H 0.18100 0.08300 1.15300
H10 H 0.26400 0.15300 1.25600
H11 H 0.22500 0.33300 1.23300
H12 H 0.20000 0.37500 1.43100
H13 H 0.22500 0.16700 1.46700
H14 H 0.35700 0.44300 1.41000
H15 H 0.12500 0.75000 1.16700
H16 H 0.05000 0.76400 1.20000
H17 H 0.19400 0.73300 1.30300
H18 H 0.22500 0.70800 1.50000
H19 H 0.15000 0.66700 1.66700
H20 H 0.05000 0.62500 1.60000
H21 H 0.02500 0.58300 1.40000
#END
