
#######################################################################
#
#                 Cambridge Crystallographic Data Centre
#                                CCDC
#
#######################################################################
#
# If this CIF has been generated from an entry in the Cambridge
# Structural Database, then it will include bibliographic, chemical,
# crystal, experimental, refinement or atomic coordinate data resulting
# from the CCDC's data processing and validation procedures.
#
#######################################################################

data_CSD_CIF_BIDKUV
_audit_creation_date 2005-01-20
_audit_creation_method CSD-ConQuest-V1
_database_code_CSD BIDKUV
_database_code_depnum_ccdc_archive 'CCDC 250723'
_chemical_formula_sum 'C20 H33 N1 O3'
_chemical_formula_moiety
;
C20 H33 N1 O3
;
_journal_coden_Cambridge 200
_journal_volume 69
_journal_year 2004
_journal_page_first 511
_journal_name_full 'Steroids '
loop_
_publ_author_name
"V.A.Khripach"
"V.N.Zhabinskii"
"A.I.Kuchto"
"G.P.Fando"
"Yu.Y.Zhiburtovich"
"A.S.Lyakhov"
"A.A.Govorova"
"M.B.Groen"
"J.van der Louw"
"A.de Groot"
_chemical_name_systematic
;
(13S,14S)-14-Hydroxy-6\b-methoxy-3\a,5-cyclo-13,14-seco-5\a-androstan-17-one 
17-oxime
;
_chemical_melting_point 462.15
_cell_volume   1834.594
_exptl_crystal_colour 'colorless'
_exptl_crystal_density_diffrn 1.215
_exptl_special_details
;
Melting point range 462.15-465.15K

;
_exptl_crystal_description 'prism'
_diffrn_ambient_temperature 293
#These two values have been output from a single CSD field.
_refine_ls_R_factor_gt 0.0367
_refine_ls_wR_factor_gt 0.0367
_symmetry_cell_setting orthorhombic
_symmetry_space_group_name_H-M 'P 21 21 21'
_symmetry_Int_Tables_number 19
loop_
_symmetry_equiv_pos_site_id
_symmetry_equiv_pos_as_xyz
1 x,y,z
2 1/2-x,-y,1/2+z
3 -x,1/2+y,1/2-z
4 1/2+x,1/2-y,-z
_cell_length_a 7.669(1)
_cell_length_b 9.015(1)
_cell_length_c 26.536(4)
_cell_angle_alpha 90
_cell_angle_beta 90
_cell_angle_gamma 90
_cell_formula_units_Z 4
loop_
_atom_type_symbol
_atom_type_radius_bond
C 0.68
H 0.23
N 0.68
O 0.68
loop_
_atom_site_label
_atom_site_type_symbol
_atom_site_fract_x
_atom_site_fract_y
_atom_site_fract_z
C1 C 0.8809(3) 0.4446(2) 0.28413(6)
H1 H 0.82810 0.43490 0.25110
H2 H 0.93460 0.54170 0.28660
C2 C 1.0159(3) 0.3234(2) 0.29237(7)
H3 H 1.07220 0.29680 0.26090
H4 H 1.10410 0.35500 0.31630
C3 C 0.9122(2) 0.1950(2) 0.31296(7)
H5 H 0.97280 0.11700 0.33180
C4 C 0.7442(3) 0.1584(2) 0.28671(7)
H6 H 0.70020 0.05790 0.28980
H7 H 0.72180 0.20540 0.25450
C5 C 0.7409(2) 0.25520(17) 0.33322(5)
C6 C 0.66625(19) 0.19217(16) 0.38107(6)
H8 H 0.69760 0.08700 0.38340
O1 O 0.47939(15) 0.20602(14) 0.38417(5)
C7 C 0.7401(2) 0.27243(16) 0.42598(5)
H9 H 0.86420 0.25300 0.42830
H10 H 0.68540 0.23550 0.45650
C8 C 0.70952(18) 0.44005(15) 0.42175(5)
H11 H 0.58490 0.45260 0.41480
C9 C 0.80653(18) 0.50281(15) 0.37551(5)
H12 H 0.93040 0.47880 0.37960
C10 C 0.7417(2) 0.42437(17) 0.32594(5)
C11 C 0.7922(2) 0.67278(17) 0.36974(6)
H13 H 0.81420 0.69650 0.33470
H14 H 0.67230 0.70020 0.37670
C12 C 0.9104(2) 0.77310(17) 0.40202(7)
H15 H 0.90000 0.87350 0.38920
H16 H 0.86410 0.77340 0.43600
C13 C 1.1051(2) 0.73607(18) 0.40532(6)
H17 H 1.15920 0.81940 0.42310
C14 C 0.7424(2) 0.51413(18) 0.47340(5)
H18 H 0.72990 0.62170 0.46950
O2 O 0.61282(17) 0.46289(17) 0.50855(4)
H19 H 0.52110 0.44730 0.49360
C15 C 0.9174(2) 0.4824(2) 0.49858(5)
H20 H 0.95630 0.38540 0.48750
H21 H 0.89780 0.47610 0.53460
C16 C 1.0670(2) 0.5923(2) 0.48970(6)
H22 H 1.02600 0.69050 0.49880
H23 H 1.16090 0.56740 0.51270
C17 C 1.14170(19) 0.60010(18) 0.43711(6)
N1 N 1.24164(17) 0.50185(16) 0.41776(5)
O3 O 1.27280(17) 0.38242(14) 0.45145(5)
H24 H 1.32910 0.31780 0.43700
C18 C 1.1909(3) 0.7315(2) 0.35353(7)
H25 H 1.31460 0.72010 0.35740
H26 H 1.16680 0.82220 0.33590
H27 H 1.14520 0.64930 0.33470
C19 C 0.5626(2) 0.4803(2) 0.30844(7)
H28 H 0.52200 0.41990 0.28110
H29 H 0.57250 0.58140 0.29740
H30 H 0.48140 0.47460 0.33590
C20 C 0.3849(3) 0.1073(3) 0.35364(10)
H31 H 0.39240 0.13850 0.31910
H32 H 0.26500 0.10650 0.36400
H33 H 0.43270 0.00940 0.35690
#END
