
#######################################################################
#
#                 Cambridge Crystallographic Data Centre
#                                CCDC
#
#######################################################################
#
# If this CIF has been generated from an entry in the Cambridge
# Structural Database, then it will include bibliographic, chemical,
# crystal, experimental, refinement or atomic coordinate data resulting
# from the CCDC's data processing and validation procedures.
#
#######################################################################

data_CSD_CIF_BIDWIU
_audit_creation_date 1983-03-10
_audit_creation_method CSD-ConQuest-V1
_database_code_CSD BIDWIU
_chemical_formula_sum 'C14 H12 N2 O2'
_chemical_formula_moiety
;
C14 H12 N2 O2
;
_journal_coeditor_code "IUCr A21371"
_journal_coden_Cambridge 107
_journal_volume 38
_journal_year 1982
_journal_page_first 2052
_journal_name_full 'Acta Crystallogr.,Sect.B:Struct.Crystallogr.Cryst.Chem. '
loop_
_publ_author_name
"S.N.Whittleton"
"J.D.Dunitz"
_chemical_name_systematic
;
4,5-Dimethyl-9,10-diazaphenanthrene N,N'-dioxide
;
_chemical_melting_point 412
_cell_volume   1123.933
_exptl_crystal_density_diffrn 1.44
_exptl_special_details
;
Melting point range 412-3K
The a and c cell parameters are transposed in paper, a=9.213 and c=8.420
;
_diffrn_ambient_temperature ?
_diffrn_special_details
;
The study was carried out at room temperature,in the range 283-303K

;
#These two values have been output from a single CSD field.
_refine_ls_R_factor_gt 0.032
_refine_ls_wR_factor_gt 0.032
_symmetry_cell_setting monoclinic
_symmetry_space_group_name_H-M 'P 21/c'
_symmetry_Int_Tables_number 14
loop_
_symmetry_equiv_pos_site_id
_symmetry_equiv_pos_as_xyz
1 x,y,z
2 -x,1/2+y,1/2-z
3 -x,-y,-z
4 x,-1/2-y,-1/2+z
_cell_length_a 9.213(4)
_cell_length_b 15.632(4)
_cell_length_c 8.420(2)
_cell_angle_alpha 90
_cell_angle_beta 112.05(3)
_cell_angle_gamma 90
_cell_formula_units_Z 4
loop_
_atom_type_symbol
_atom_type_radius_bond
C 0.68
H 0.23
N 0.68
O 0.68
loop_
_atom_site_label
_atom_site_type_symbol
_atom_site_fract_x
_atom_site_fract_y
_atom_site_fract_z
C1 C 0.26860 0.15760 0.11670
C2 C 0.39020 0.10420 0.21990
C3 C 0.50830 0.13120 0.36950
C4 C 0.51330 0.21580 0.41320
C5 C 0.40860 0.27270 0.30320
C6 C 0.28810 0.24670 0.15490
C7 C 0.14130 0.11690 -0.02340
C8 C 0.17550 0.03840 -0.08460
C9 C 0.07170 -0.00230 -0.22950
C10 C -0.07450 0.03190 -0.30830
C11 C -0.11950 0.10200 -0.23730
C12 C -0.01610 0.14470 -0.09490
C13 C 0.19710 0.31600 0.03430
C14 C -0.08530 0.21030 -0.01230
N1 N 0.40200 0.01850 0.16910
N2 N 0.31540 -0.00600 0.00910
O1 O 0.50640 -0.03110 0.26150
O2 O 0.34830 -0.07700 -0.04140
H1 H 0.58310 0.09230 0.43230
H2 H 0.59610 0.23470 0.52020
H3 H 0.42280 0.33430 0.32510
H4 H 0.11390 -0.05600 -0.26130
H5 H -0.14990 0.00470 -0.40170
H6 H -0.22960 0.12160 -0.28340
H7 H 0.13720 0.29490 -0.08590
H8 H -0.01120 0.22410 0.10850
H9 H 0.12150 0.34710 0.07350
H10 H 0.27160 0.35790 0.03280
H11 H -0.18670 0.18500 -0.00690
H12 H -0.11350 0.26410 -0.08130
#END
