
#######################################################################
#
#                 Cambridge Crystallographic Data Centre
#                                CCDC
#
#######################################################################
#
# If this CIF has been generated from an entry in the Cambridge
# Structural Database, then it will include bibliographic, chemical,
# crystal, experimental, refinement or atomic coordinate data resulting
# from the CCDC's data processing and validation procedures.
#
#######################################################################

data_CSD_CIF_BIDWOB
_audit_creation_date 2005-01-20
_audit_creation_method CSD-ConQuest-V1
_database_code_CSD BIDWOB
_database_code_depnum_ccdc_archive 'CCDC 251107'
_database_code_depnum_ccdc_journal 1267/1267
_chemical_formula_sum 'C17 H25 N1 O4'
_chemical_formula_moiety
;
C17 H25 N1 O4
;
_journal_coden_Cambridge 1267
_journal_volume 219
_journal_year 2004
_journal_page_first 191
_journal_name_full 'Z.Kristallogr.-New Cryst.Struct. '
loop_
_publ_author_name
"W.Frey"
"M.Hennebohle"
"V.Jager"
_chemical_name_systematic
;
(3R)-3-((1S,2S)-1-(Benzyloxy)-2,3-(isopropylidenedioxy)propyl)-2-methyltetrahy
dro-1,2-oxazole
;
_chemical_melting_point 324
_cell_volume    855.781
_exptl_crystal_colour 'colorless'
_exptl_crystal_density_diffrn 1.193
_exptl_crystal_description 'block'
_exptl_crystal_preparation 'petroleum ether'
_diffrn_ambient_temperature 293
#These two values have been output from a single CSD field.
_refine_ls_R_factor_gt 0.0531
_refine_ls_wR_factor_gt 0.0531
_symmetry_cell_setting monoclinic
_symmetry_space_group_name_H-M 'P 21'
_symmetry_Int_Tables_number 4
loop_
_symmetry_equiv_pos_site_id
_symmetry_equiv_pos_as_xyz
1 x,y,z
2 -x,1/2+y,-z
_cell_length_a 8.547(3)
_cell_length_b 9.1757(19)
_cell_length_c 11.166(2)
_cell_angle_alpha 90
_cell_angle_beta 102.241(19)
_cell_angle_gamma 90
_cell_formula_units_Z 2
loop_
_atom_type_symbol
_atom_type_radius_bond
C 0.68
H 0.23
N 0.68
O 0.68
loop_
_atom_site_label
_atom_site_type_symbol
_atom_site_fract_x
_atom_site_fract_y
_atom_site_fract_z
N1 N 1.1851(4) 0.2177(4) 0.9371(3)
O1 O 1.3140(4) 0.1982(4) 1.0441(2)
C1 C 1.4380(6) 0.2902(7) 1.0307(5)
H1 H 1.50430 0.24420 0.98090
H2 H 1.50460 0.31370 1.11000
O2 O 1.1683(4) 0.5896(3) 0.7134(3)
C2 C 1.3625(5) 0.4228(5) 0.9704(4)
H3 H 1.43260 0.47260 0.92590
H4 H 1.33240 0.48940 1.02910
O3 O 1.0009(4) 0.7858(3) 0.6786(3)
C3 C 1.2158(4) 0.3608(4) 0.8836(3)
H5 H 1.24170 0.34430 0.80330
O4 O 0.9381(3) 0.3870(3) 0.78685(19)
C4 C 1.0675(5) 0.4569(4) 0.8675(3)
H6 H 1.03930 0.47000 0.94740
C5 C 1.0974(5) 0.6062(4) 0.8165(3)
H7 H 1.17210 0.65990 0.87990
C6 C 0.9542(5) 0.7012(5) 0.7699(4)
H8 H 0.86060 0.64300 0.73600
H9 H 0.93070 0.76230 0.83480
C7 C 1.1076(4) 0.6993(4) 0.6261(3)
C8 C 1.2441(6) 0.7926(6) 0.6093(5)
H10 H 1.20560 0.86740 0.55030
H11 H 1.32170 0.73390 0.58080
H12 H 1.29290 0.83670 0.68620
C9 C 1.0233(8) 0.6313(9) 0.5082(7)
H13 H 0.98330 0.70640 0.44990
H14 H 0.93570 0.57310 0.52250
H15 H 1.09680 0.57070 0.47670
C10 C 1.1977(7) 0.0996(5) 0.8544(4)
H16 H 1.17760 0.00880 0.89120
H17 H 1.30350 0.09830 0.83790
H18 H 1.12050 0.11300 0.77910
C11 C 0.8099(5) 0.3517(6) 0.8425(4)
H19 H 0.76790 0.43970 0.87220
H20 H 0.84700 0.28770 0.91190
C12 C 0.6813(5) 0.2779(5) 0.7515(4)
C13 C 0.6909(6) 0.1323(6) 0.7243(5)
H21 H 0.77900 0.07860 0.76410
C14 C 0.5742(9) 0.0649(8) 0.6401(7)
H22 H 0.58270 -0.03360 0.62310
C15 C 0.4487(9) 0.1409(13) 0.5830(6)
H23 H 0.37100 0.09400 0.52490
C16 C 0.4286(7) 0.2830(11) 0.6052(6)
H24 H 0.33820 0.33340 0.56500
C17 C 0.5495(7) 0.3527(7) 0.6917(5)
H25 H 0.53940 0.45120 0.70830
#END
