
#######################################################################
#
#                 Cambridge Crystallographic Data Centre
#                                CCDC
#
#######################################################################
#
# If this CIF has been generated from an entry in the Cambridge
# Structural Database, then it will include bibliographic, chemical,
# crystal, experimental, refinement or atomic coordinate data resulting
# from the CCDC's data processing and validation procedures.
#
#######################################################################

data_CSD_CIF_BIFZOI
_audit_creation_date 2018-07-11
_audit_creation_method CSD-ConQuest-V1
_database_code_CSD BIFZOI
_database_code_depnum_ccdc_archive 'CCDC 1853291'
_chemical_formula_sum 'C15 H14 N2 O2'
_chemical_formula_moiety
;
C15 H14 N2 O2
;
_journal_coeditor_code "zl2733"
_journal_coden_Cambridge 1828
_journal_volume 74
_journal_year 2018
_journal_page_first 1071
_journal_name_full 'Acta Crystallogr.,Sect.E:Cryst.Commun. '
loop_
_publ_author_name
"M.Girisha"
"B.K.Sagar"
"H.S.Yathirajan"
"R.S.Rathore"
"C.Glidewell"
_chemical_name_systematic
;
N-(2-ethylphenyl)-1-(4-nitrophenyl)methanimine
;
_chemical_name_common
;
(E)-2-ethyl-N-(4-nitrobenzylidene)aniline
;
_cell_volume   1345.381
_exptl_crystal_colour 'colorless'
_exptl_crystal_density_diffrn 1.255
_exptl_crystal_description 'block'
_diffrn_ambient_temperature 296
_refine_special_details
;
C21A,C22A,C2A,C3A,C4A,C5A,C6A and C21B,C22B,C2B,C3B,C4B,C5B,C6B disordered 
over two sites with occupancies 0.515:0.485.
;
#These two values have been output from a single CSD field.
_refine_ls_R_factor_gt 0.0396
_refine_ls_wR_factor_gt 0.0396
_symmetry_cell_setting orthorhombic
_symmetry_space_group_name_H-M 'P 21 21 21'
_symmetry_Int_Tables_number 19
loop_
_symmetry_equiv_pos_site_id
_symmetry_equiv_pos_as_xyz
1 x,y,z
2 1/2-x,-y,1/2+z
3 -x,1/2+y,1/2-z
4 1/2+x,1/2-y,-z
_cell_length_a 7.6419(7)
_cell_length_b 11.8889(13)
_cell_length_c 14.8082(16)
_cell_angle_alpha 90
_cell_angle_beta 90
_cell_angle_gamma 90
_cell_formula_units_Z 4
loop_
_atom_type_symbol
_atom_type_radius_bond
C 0.68
H 0.23
N 0.68
O 0.68
loop_
_atom_site_label
_atom_site_type_symbol
_atom_site_fract_x
_atom_site_fract_y
_atom_site_fract_z
N1 N 0.6122(4) 0.1423(2) 0.56000(17)
C1 C 0.6533(5) 0.2454(3) 0.5623(2)
H1 H 0.69160 0.27650 0.61640
C2 C 0.6423(4) 0.3173(3) 0.4820(2)
C3 C 0.5825(5) 0.2760(3) 0.3999(2)
H2 H 0.54730 0.20140 0.39510
C4 C 0.5754(5) 0.3451(3) 0.3261(2)
H3 H 0.53530 0.31770 0.27100
C5 C 0.6277(5) 0.4549(3) 0.3339(2)
C6 C 0.6878(5) 0.4979(3) 0.4132(3)
H4 H 0.72340 0.57250 0.41710
C7 C 0.6949(5) 0.4281(3) 0.4880(2)
H5 H 0.73550 0.45620 0.54270
N2 N 0.6223(5) 0.5279(4) 0.2537(3)
O1 O 0.5892(5) 0.4855(3) 0.1810(2)
O2 O 0.6516(5) 0.6280(3) 0.2643(2)
C8 C 0.6204(4) 0.0777(3) 0.6407(2)
C9 C 0.652(3) -0.0381(8) 0.6399(9)
C10 C 0.739(2) -0.0913(13) 0.5561(11)
H6 H 0.78930 -0.03200 0.51920
H7 H 0.83400 -0.13980 0.57570
C11 C 0.612(2) -0.1593(16) 0.4994(10)
H8 H 0.51620 -0.11210 0.48100
H9 H 0.56750 -0.22100 0.53440
H10 H 0.67070 -0.18780 0.44690
C12 C 0.664(6) -0.0915(16) 0.7237(12)
H11 H 0.69670 -0.16680 0.72550
C13 C 0.628(5) -0.0372(17) 0.8034(10)
H12 H 0.64200 -0.07470 0.85800
C14 C 0.573(8) 0.072(2) 0.8022(10)
H13 H 0.53590 0.10750 0.85500
C15 C 0.572(13) 0.130(3) 0.7204(13)
H14 H 0.53830 0.20490 0.71930
C16? C 0.693(3) -0.0285(9) 0.6285(9)
C17? C 0.704(3) -0.0772(10) 0.5319(10)
H15? H 0.61740 -0.04120 0.49360
H16? H 0.81880 -0.06270 0.50650
C18? C 0.671(4) -0.2034(12) 0.5351(15)
H17? H 0.65590 -0.23150 0.47480
H18? H 0.56640 -0.21800 0.56940
H19? H 0.76820 -0.24030 0.56310
C19? C 0.691(6) -0.1024(17) 0.7018(13)
H20? H 0.72890 -0.17620 0.69370
C20? C 0.635(5) -0.0684(17) 0.7854(11)
H21? H 0.63310 -0.11950 0.83290
C21? C 0.583(9) 0.040(2) 0.7992(11)
H22? H 0.55380 0.06480 0.85690
C22? C 0.574(14) 0.113(3) 0.7262(14)
H23? H 0.53640 0.18710 0.73490
#END
