
#######################################################################
#
#                 Cambridge Crystallographic Data Centre
#                                CCDC
#
#######################################################################
#
# If this CIF has been generated from an entry in the Cambridge
# Structural Database, then it will include bibliographic, chemical,
# crystal, experimental, refinement or atomic coordinate data resulting
# from the CCDC's data processing and validation procedures.
#
#######################################################################

data_CSD_CIF_BIFZEY
_audit_creation_date 2018-07-11
_audit_creation_method CSD-ConQuest-V1
_database_code_CSD BIFZEY
_database_code_depnum_ccdc_archive 'CCDC 1852926'
_chemical_formula_sum 'C17 H16 N2 O6'
_chemical_formula_moiety
;
C17 H16 N2 O6
;
_journal_coeditor_code "su5450"
_journal_coden_Cambridge 1828
_journal_volume 74
_journal_year 2018
_journal_page_first 1079
_journal_name_full 'Acta Crystallogr.,Sect.E:Cryst.Commun. '
loop_
_publ_author_name
"A.S.Victoria"
"P.Sivajeyanthi"
"N.Elangovan"
"K.Balasubramani"
"T.Kolochi"
"K.Thanikasalam"
_chemical_name_systematic
;
ethyl 4-{[(4-hydroxy-3-methoxy-5-nitrophenyl)methylidene]amino}benzoate
;
_cell_volume    797.726
_exptl_crystal_colour 'brown'
_exptl_crystal_density_diffrn 1.433
_exptl_crystal_description 'block'
_diffrn_ambient_temperature 296
_refine_special_details
;
C1,C2,O1 and C1',C2',O1' disordered over two sites with occupancies 
0.65:0.35; O3,O4 and O3',O4' disordered over two sites with occupancies 
0.64:0.36.
;
#These two values have been output from a single CSD field.
_refine_ls_R_factor_gt 0.0608
_refine_ls_wR_factor_gt 0.0608
_symmetry_cell_setting triclinic
_symmetry_space_group_name_H-M 'P -1'
_symmetry_Int_Tables_number 2
loop_
_symmetry_equiv_pos_site_id
_symmetry_equiv_pos_as_xyz
1 x,y,z
2 -x,-y,-z
_cell_length_a 4.7565(3)
_cell_length_b 11.3377(9)
_cell_length_c 15.7590(13)
_cell_angle_alpha 70.415(4)
_cell_angle_beta 87.230(4)
_cell_angle_gamma 85.238(4)
_cell_formula_units_Z 2
loop_
_atom_type_symbol
_atom_type_radius_bond
C 0.68
H 0.23
N 0.68
O 0.68
loop_
_atom_site_label
_atom_site_type_symbol
_atom_site_fract_x
_atom_site_fract_y
_atom_site_fract_z
O1 O -0.444(3) 0.8211(8) 0.6197(8)
C1 C -0.573(3) 0.8426(17) 0.7583(10)
H1 H -0.72034 0.84155 0.80232
H2 H -0.42611 0.77941 0.78501
H3 H -0.49718 0.92352 0.73745
C2 C -0.688(2) 0.817(1) 0.6822(7)
H4 H -0.83575 0.88032 0.65380
H5 H -0.76419 0.73521 0.70169
C3 C -0.3156(5) 0.7161(2) 0.61512(16)
C4 C -0.1133(5) 0.7365(2) 0.53762(15)
C5 C 0.0617(6) 0.6365(3) 0.53244(17)
H6 H 0.05212 0.55870 0.57730
C6 C 0.2516(6) 0.6501(3) 0.46139(17)
H7 H 0.36866 0.58134 0.45899
C7 C 0.2706(5) 0.7644(2) 0.39378(15)
C8 C 0.0976(6) 0.8652(2) 0.39978(18)
H8 H 0.11094 0.94338 0.35572
C9 C -0.0955(6) 0.8518(2) 0.47027(18)
H9 H -0.21365 0.92034 0.47252
C10 C 0.5352(5) 0.6934(2) 0.29175(15)
H10 H 0.44359 0.61982 0.31679
C11 C 0.7498(4) 0.6990(2) 0.22091(14)
C12 C 0.8139(5) 0.5934(2) 0.19733(15)
H11 H 0.71986 0.52109 0.22500
C13 C 1.0217(5) 0.5963(2) 0.13136(15)
C14 C 1.1643(5) 0.7032(2) 0.08737(15)
C15 C 1.0965(5) 0.8105(2) 0.11319(14)
C16 C 0.8937(5) 0.8077(2) 0.17850(15)
H12 H 0.85067 0.87866 0.19499
C17 C 1.2144(6) 1.0171(3) 0.09638(19)
H13 H 1.02310 1.05217 0.08681
H14 H 1.34028 1.07834 0.06184
H15 H 1.25557 0.99334 0.15918
N1 N 0.4682(4) 0.78390(19) 0.32058(13)
N2 N 1.0868(5) 0.4819(2) 0.11024(15)
O2 O -0.3425(5) 0.61540(19) 0.67179(14)
O3 O 0.931(7) 0.396(2) 0.138(2)
O4 O 1.297(6) 0.4818(19) 0.061(2)
O5 O 1.3628(4) 0.71443(18) 0.02210(12)
H16 H 1.380(7) 0.637(3) 0.016(2)
O6 O 1.2501(4) 0.90927(16) 0.06865(12)
O7? O -0.490(3) 0.8195(11) 0.6094(9)
C18? C -0.563(4) 0.864(2) 0.7540(12)
H17? H -0.67810 0.84392 0.80800
H18? H -0.36894 0.84023 0.76923
H19? H -0.58501 0.95303 0.72251
C19? C -0.652(6) 0.796(3) 0.6957(15)
H20? H -0.84950 0.81959 0.68242
H21? H -0.63385 0.70701 0.72906
O8? O 0.979(12) 0.387(3) 0.157(4)
O9? O 1.259(8) 0.475(3) 0.050(2)
#END
