
#######################################################################
#
#                 Cambridge Crystallographic Data Centre
#                                CCDC
#
#######################################################################
#
# If this CIF has been generated from an entry in the Cambridge
# Structural Database, then it will include bibliographic, chemical,
# crystal, experimental, refinement or atomic coordinate data resulting
# from the CCDC's data processing and validation procedures.
#
#######################################################################

data_CSD_CIF_BIGWOE
_audit_creation_date 2005-01-20
_audit_creation_method CSD-ConQuest-V1
_database_code_CSD BIGWOE
_database_code_depnum_ccdc_archive 'CCDC 241883'
_chemical_formula_sum 'C17 H17 N1 O3'
_chemical_formula_moiety
;
C17 H17 N1 O3
;
_journal_coden_Cambridge 182
_journal_year 2004
_journal_page_first 1932
_journal_name_full 'Chem.Commun. '
loop_
_publ_author_name
"C.S.Penkett"
"R.O.Sims"
"R.French"
"L.Dray"
"S.J.Roome"
"P.B.Hitchcock"
_chemical_name_systematic
;
5-(2-Nitrophenyl)-1,2,3,3a,4,5,8,8a-octahydro-4,8-methanoazulen-9-one
;
_cell_volume   1377.169
_exptl_crystal_colour 'colorless'
_exptl_crystal_density_diffrn 1.366
_exptl_crystal_description 'plate'
_diffrn_ambient_temperature 173
#These two values have been output from a single CSD field.
_refine_ls_R_factor_gt 0.038
_refine_ls_wR_factor_gt 0.038
_symmetry_cell_setting monoclinic
_symmetry_space_group_name_H-M 'P 21/n'
_symmetry_Int_Tables_number 14
loop_
_symmetry_equiv_pos_site_id
_symmetry_equiv_pos_as_xyz
1 x,y,z
2 1/2+x,1/2-y,1/2+z
3 -x,-y,-z
4 -1/2-x,-1/2+y,-1/2-z
_cell_length_a 7.9469(3)
_cell_length_b 16.7131(5)
_cell_length_c 10.3861(4)
_cell_angle_alpha 90
_cell_angle_beta 93.298(1)
_cell_angle_gamma 90
_cell_formula_units_Z 4
loop_
_atom_type_symbol
_atom_type_radius_bond
C 0.68
H 0.23
N 0.68
O 0.68
loop_
_atom_site_label
_atom_site_type_symbol
_atom_site_fract_x
_atom_site_fract_y
_atom_site_fract_z
O1 O -0.20662(15) 0.17321(7) 0.76731(14)
O2 O 0.20208(15) 0.40934(7) 0.78991(13)
O3 O 0.14451(18) 0.53269(7) 0.82873(13)
N1 N 0.10629(18) 0.46170(8) 0.82463(12)
C1 C -0.08290 0.18010 0.84150
C2 C -0.02860 0.12580 0.95290
H1 H -0.107(3) 0.0773(12) 0.961(2)
C3 C 0.1526(2) 0.10631(9) 0.91666(17)
H2 H 0.147(2) 0.0642(11) 0.8545(17)
C4 C 0.2884(2) 0.08805(12) 1.0233(2)
H3 H 0.306(3) 0.0294(13) 1.036(2)
H4 H 0.255(3) 0.1106(13) 1.109(2)
C5 C 0.4442(2) 0.13171(11) 0.98007(19)
H5 H 0.495(2) 0.1021(12) 0.910(2)
H6 H 0.535(3) 0.1393(12) 1.051(2)
C6 C 0.3718(2) 0.21063(10) 0.92809(17)
H7 H 0.451(2) 0.2406(11) 0.8766(19)
H8 H 0.346(2) 0.2432(11) 1.0027(18)
C7 C 0.21250(19) 0.18508(9) 0.84939(15)
H9 H 0.2446(19) 0.1717(9) 0.7607(16)
C8 C 0.05681(19) 0.24081(9) 0.83450(15)
H10 H 0.050(2) 0.2698(10) 0.7553(18)
C9 C 0.03830(19) 0.30070(9) 0.94783(14)
H11 H 0.145(2) 0.3274(9) 0.9645(15)
C10 C -0.0009(2) 0.25623(10) 1.06889(16)
H12 H 0.002(2) 0.2880(11) 1.1464(19)
C11 C -0.0314(2) 0.17846(11) 1.07222(17)
H13 H -0.054(3) 0.1517(12) 1.155(2)
C12 C -0.09508(19) 0.36392(9) 0.91333(14)
C13 C -0.06339(19) 0.43919(9) 0.86061(14)
C14 C -0.1873(2) 0.49697(10) 0.83827(16)
H14 H -0.153(2) 0.5464(13) 0.8044(19)
C15 C -0.3512(2) 0.47937(11) 0.86393(18)
H15 H -0.436(3) 0.5174(13) 0.845(2)
C16 C -0.3887(2) 0.40534(11) 0.91389(18)
H16 H -0.505(3) 0.3911(12) 0.933(2)
C17 C -0.2627(2) 0.34926(10) 0.93927(17)
H17 H -0.291(2) 0.2975(12) 0.9793(18)
#END
