
#######################################################################
#
#                 Cambridge Crystallographic Data Centre
#                                CCDC
#
#######################################################################
#
# If this CIF has been generated from an entry in the Cambridge
# Structural Database, then it will include bibliographic, chemical,
# crystal, experimental, refinement or atomic coordinate data resulting
# from the CCDC's data processing and validation procedures.
#
#######################################################################

data_CSD_CIF_BIGZIB
_audit_creation_date 2005-01-20
_audit_creation_method CSD-ConQuest-V1
_database_code_CSD BIGZIB
_database_code_depnum_ccdc_archive 'CCDC 236554'
_chemical_formula_sum 'C22 H39 N1 O6'
_chemical_formula_moiety
;
C22 H39 N1 O6
;
_journal_coden_Cambridge 182
_journal_year 2004
_journal_page_first 1962
_journal_name_full 'Chem.Commun. '
loop_
_publ_author_name
"S.A.Johannesen"
"S.Albu"
"R.G.Hazell"
"T.Skrydstrup"
_chemical_name_systematic
;
(S)-N-(3-(n-Butoxycarbonyl)-1-cyclohexylpropyl)-2,3-O-isopropylidene-5-deoxy-D
-ribose-imine N-oxide
;
_cell_volume   2376.236
_exptl_crystal_colour 'colorless'
_exptl_crystal_density_diffrn 1.156
_exptl_crystal_description 'needle'
_diffrn_ambient_temperature 120
_refine_special_details
;
The n-butyl moiety is disordered.

;
#These two values have been output from a single CSD field.
_refine_ls_R_factor_gt 0.048
_refine_ls_wR_factor_gt 0.048
_symmetry_cell_setting orthorhombic
_symmetry_space_group_name_H-M 'P 21 21 21'
_symmetry_Int_Tables_number 19
loop_
_symmetry_equiv_pos_site_id
_symmetry_equiv_pos_as_xyz
1 x,y,z
2 1/2-x,-y,1/2+z
3 -x,1/2+y,1/2-z
4 1/2+x,1/2-y,-z
_cell_length_a 5.379(1)
_cell_length_b 15.901(3)
_cell_length_c 27.782(6)
_cell_angle_alpha 90
_cell_angle_beta 90
_cell_angle_gamma 90
_cell_formula_units_Z 4
loop_
_atom_type_symbol
_atom_type_radius_bond
C 0.68
H 0.23
N 0.68
O 0.68
loop_
_atom_site_label
_atom_site_type_symbol
_atom_site_fract_x
_atom_site_fract_y
_atom_site_fract_z
O1 O 0.6719(3) 0.74182(10) 0.67585(6)
O2 O 0.3362(3) 0.51453(10) 0.67823(6)
O3 O 0.0473(3) 0.55241(9) 0.73314(6)
O4 O 0.3780(4) 0.74516(11) 0.76300(6)
O5 O 0.3589(4) 0.62462(12) 0.52802(7)
O6 O 0.5750(4) 0.51672(12) 0.55655(8)
N1 N 0.4899(3) 0.72028(11) 0.64762(6)
C1 C 0.3484(4) 0.6564(1) 0.65591(8)
C2 C 0.4059(4) 0.5960(1) 0.69554(9)
C3 C 0.2545(4) 0.6058(1) 0.74185(8)
C4 C 0.1680(5) 0.6934(1) 0.75457(8)
C5 C 0.0122(6) 0.6931(2) 0.79952(10)
C6 C 0.4696(4) 0.7688(1) 0.60175(7)
C7 C 0.6884(5) 0.7430(2) 0.57030(9)
C8 C 0.7444(5) 0.6498(2) 0.56812(9)
C9 C 0.5391(5) 0.5984(2) 0.54861(8)
C10 C 0.1402(4) 0.4816(1) 0.70741(8)
C11 C -0.0589(5) 0.4491(2) 0.67496(11)
C12 C 0.2417(7) 0.4156(2) 0.74029(11)
C13 C 0.4525(4) 0.8626(1) 0.61146(8)
C14 C 0.2457(5) 0.8845(2) 0.64670(9)
C15 C 0.2174(6) 0.9791(2) 0.65338(10)
C16 C 0.1785(7) 1.0230(2) 0.60597(11)
C17 C 0.3864(6) 1.0035(2) 0.57166(11)
C18 C 0.4138(5) 0.9097(2) 0.56419(9)
C19 C 0.3774(8) 0.4603(2) 0.54072(17)
C20 C 0.414(2) 0.3785(4) 0.5682(4)
C21? C 0.479(4) 0.3733(8) 0.5360(6)
C22 C 0.629(2) 0.3329(5) 0.5520(3)
C23? C 0.434(5) 0.3271(15) 0.5789(9)
C24 C 0.648(4) 0.2476(5) 0.5746(7)
C25? C 0.476(10) 0.2356(17) 0.5815(19)
H1 H 0.47600 0.74400 0.73500
H2 H 0.20500 0.64770 0.63650
H3 H 0.57900 0.59710 0.70270
H4 H 0.34800 0.58370 0.76800
H5 H 0.07400 0.71580 0.72870
H6 H -0.12900 0.65850 0.79390
H7 H -0.04000 0.74880 0.80680
H8 H 0.10600 0.67140 0.82570
H9 H 0.32100 0.75190 0.58600
H10 H 0.83200 0.77070 0.58220
H11 H 0.65500 0.76170 0.53850
H12 H 0.78000 0.63080 0.59980
H13 H 0.88600 0.64180 0.54830
H14 H -0.18900 0.42730 0.69430
H15 H 0.00600 0.40590 0.65500
H16 H -0.12100 0.49360 0.65550
H17 H 0.11100 0.39370 0.75970
H18 H 0.36600 0.43960 0.76040
H19 H 0.31200 0.37150 0.72170
H20 H 0.60600 0.88050 0.62500
H21 H 0.28300 0.85970 0.67700
H22 H 0.09400 0.86240 0.63480
H23 H 0.36400 1.00060 0.66810
H24 H 0.07800 0.98960 0.67360
H25 H 0.17200 1.08200 0.61130
H26 H 0.02600 1.00470 0.59230
H27 H 0.53700 1.02520 0.58430
H28 H 0.35200 1.02940 0.54160
H29 H 0.26800 0.88900 0.54910
H30 H 0.55300 0.89980 0.54390
H31 H 0.38900 0.45070 0.50710
H32 H 0.21900 0.48380 0.54800
H33? H 0.31500 0.47860 0.51050
H34? H 0.24700 0.46060 0.56370
H35 H 0.27100 0.34410 0.56380
H36 H 0.43400 0.39100 0.60140
H37? H 0.65300 0.37620 0.53040
H38? H 0.40100 0.34580 0.50970
H39 H 0.77300 0.36420 0.56000
H40 H 0.61900 0.32660 0.51800
H41? H 0.26400 0.33590 0.58660
H42? H 0.53600 0.35190 0.60300
H43 H 0.79000 0.21740 0.56370
H44 H 0.50300 0.21630 0.56640
H45 H 0.65800 0.25390 0.60840
H46? H 0.44600 0.20490 0.61070
H47? H 0.64600 0.22700 0.57430
H48? H 0.37400 0.21100 0.55790
#END
