
#######################################################################
#
#                 Cambridge Crystallographic Data Centre
#                                CCDC
#
#######################################################################
#
# If this CIF has been generated from an entry in the Cambridge
# Structural Database, then it will include bibliographic, chemical,
# crystal, experimental, refinement or atomic coordinate data resulting
# from the CCDC's data processing and validation procedures.
#
#######################################################################

data_CSD_CIF_BIHHEH
_audit_creation_date 2013-07-08
_audit_creation_method CSD-ConQuest-V1
_database_code_CSD BIHHEH
_database_code_depnum_ccdc_archive 'CCDC 870267'
_chemical_formula_sum 'C23 H27 N1 O4'
_chemical_formula_moiety
;
C23 H27 N1 O4
;
_journal_coden_Cambridge 35
_journal_volume 78
_journal_year 2013
_journal_page_first 4499
_journal_name_full 'J.Org.Chem. '
loop_
_publ_author_name
"K.S.Feldman"
"B.R.Selfridge"
_chemical_name_systematic
;
6-Ethyl-4-(hydroxy(phenyl)amino)-6-((4-methoxybenzyl)oxy)-5-methylcyclohex-2-e
n-1-one
;
_cell_volume   1995.026
_exptl_crystal_colour 'colorless'
_exptl_crystal_density_diffrn 1.27
_exptl_crystal_description 'plate'
_diffrn_ambient_temperature 298
#These two values have been output from a single CSD field.
_refine_ls_R_factor_gt 0.0588
_refine_ls_wR_factor_gt 0.0588
_symmetry_cell_setting monoclinic
_symmetry_space_group_name_H-M 'P 21/n'
_symmetry_Int_Tables_number 14
loop_
_symmetry_equiv_pos_site_id
_symmetry_equiv_pos_as_xyz
1 x,y,z
2 1/2-x,1/2+y,1/2-z
3 -x,-y,-z
4 -1/2+x,-1/2-y,-1/2+z
_cell_length_a 13.130(5)
_cell_length_b 8.462(2)
_cell_length_c 18.001(4)
_cell_angle_alpha 90
_cell_angle_beta 94.050(16)
_cell_angle_gamma 90
_cell_formula_units_Z 4
loop_
_atom_type_symbol
_atom_type_radius_bond
C 0.68
H 0.23
N 0.68
O 0.68
loop_
_atom_site_label
_atom_site_type_symbol
_atom_site_fract_x
_atom_site_fract_y
_atom_site_fract_z
O1 O 0.02673(8) 0.31608(14) 0.17613(6)
N1 N 0.39341(9) 0.33436(16) 0.14023(7)
O2 O 0.41416(9) 0.25726(15) 0.21144(6)
H1 H 0.41820 0.32390 0.24460
C1 C 0.20909(11) 0.34049(19) 0.15455(9)
H2 H 0.22910 0.31920 0.20710
O3 O 0.06208(10) -0.00099(16) 0.18452(8)
C2 C -0.06552(11) 0.3074(2) 0.28510(9)
C3 C 0.10643(11) 0.2529(2) 0.13592(9)
C4 C 0.48044(11) 0.31806(19) 0.09737(9)
C5 C 0.03872(12) 0.3170(2) 0.25573(9)
H3 H 0.07280 0.41330 0.27310
H4 H 0.07990 0.22760 0.27340
C6 C 0.29430(11) 0.2736(2) 0.10912(9)
H5 H 0.28320 0.31310 0.05800
O4 O -0.34611(10) 0.2744(2) 0.37756(8)
C7 C 0.29328(12) 0.0969(2) 0.10609(10)
H6 H 0.34960 0.04590 0.08860
C8 C 0.12362(12) 0.0778(2) 0.15282(9)
C9 C -0.25524(12) 0.2796(2) 0.34435(9)
C10 C 0.57675(13) 0.3337(3) 0.13347(11)
H7 H 0.58330 0.34940 0.18470
C11 C 0.47330(13) 0.2973(3) 0.02095(11)
H8 H 0.40960 0.28720 -0.00470
C12 C -0.03962(14) 0.1984(3) 0.03730(12)
H9 H -0.03960 0.09000 0.05300
H10 H -0.05770 0.20410 -0.01520
H11 H -0.08840 0.25680 0.06360
C13 C 0.21683(13) 0.0087(2) 0.12684(10)
H12 H 0.22270 -0.10080 0.12480
C14 C 0.20012(13) 0.5195(2) 0.14636(11)
H13 H 0.26500 0.56740 0.16000
H14 H 0.15020 0.55830 0.17830
H15 H 0.17950 0.54540 0.09560
C15 C -0.22889(13) 0.1789(2) 0.28906(10)
H16 H -0.27440 0.10120 0.27120
C16 C -0.13442(13) 0.1932(2) 0.26003(10)
H17 H -0.11710 0.12410 0.22280
C17 C -0.09475(13) 0.4109(2) 0.33913(10)
H18 H -0.05040 0.49100 0.35590
C18 C 0.06630(12) 0.2687(2) 0.05396(9)
H19 H 0.06440 0.37980 0.04060
H20 H 0.11360 0.21660 0.02290
C19 C -0.18877(13) 0.3975(2) 0.36873(10)
H21 H -0.20710 0.46810 0.40510
C20 C 0.66283(14) 0.3261(3) 0.09410(13)
H22 H 0.72690 0.33630 0.11920
C21 C -0.41395(14) 0.1494(3) 0.35692(12)
H23 H -0.43180 0.15410 0.30430
H24 H -0.47460 0.15920 0.38340
H25 H -0.38150 0.05010 0.36900
C22 C 0.65558(15) 0.3039(3) 0.01884(13)
H26 H 0.71410 0.29730 -0.00720
C23 C 0.56155(16) 0.2917(3) -0.01749(12)
H27 H 0.55610 0.27920 -0.06900
#END
