
#######################################################################
#
#                 Cambridge Crystallographic Data Centre
#                                CCDC
#
#######################################################################
#
# If this CIF has been generated from an entry in the Cambridge
# Structural Database, then it will include bibliographic, chemical,
# crystal, experimental, refinement or atomic coordinate data resulting
# from the CCDC's data processing and validation procedures.
#
#######################################################################

data_CSD_CIF_BIHLOV
_audit_creation_date 2013-07-08
_audit_creation_method CSD-ConQuest-V1
_database_code_CSD BIHLOV
_database_code_depnum_ccdc_archive 'CCDC 905533'
_chemical_formula_sum 'C22 H21 N1 O4'
_chemical_formula_moiety
;
C22 H21 N1 O4
;
_journal_coden_Cambridge 35
_journal_volume 78
_journal_year 2013
_journal_page_first 516
_journal_name_full 'J.Org.Chem. '
loop_
_publ_author_name
"P.Quadrelli"
"M.Mella"
"S.Carosso"
"B.Bovio"
_chemical_name_systematic
;
2-(9-Anthrylcarbonyl)-3,3-dimethyl-1,2-oxazolidin-5-yl acetate
;
_cell_volume   1873.032
_exptl_crystal_colour 'colorless'
_exptl_crystal_density_diffrn 1.289
_exptl_crystal_description 'Needles'
_diffrn_ambient_temperature 293
#These two values have been output from a single CSD field.
_refine_ls_R_factor_gt 0.0414
_refine_ls_wR_factor_gt 0.0414
_symmetry_cell_setting monoclinic
_symmetry_space_group_name_H-M 'P 21/n'
_symmetry_Int_Tables_number 14
loop_
_symmetry_equiv_pos_site_id
_symmetry_equiv_pos_as_xyz
1 x,y,z
2 1/2-x,1/2+y,1/2-z
3 -x,-y,-z
4 -1/2+x,-1/2-y,-1/2+z
_cell_length_a 9.6340(9)
_cell_length_b 20.589(1)
_cell_length_c 9.671(1)
_cell_angle_alpha 90
_cell_angle_beta 102.47(1)
_cell_angle_gamma 90
_cell_formula_units_Z 4
loop_
_atom_type_symbol
_atom_type_radius_bond
C 0.68
H 0.23
N 0.68
O 0.68
loop_
_atom_site_label
_atom_site_type_symbol
_atom_site_fract_x
_atom_site_fract_y
_atom_site_fract_z
O1 O 0.49184(9) 0.11735(3) 0.84290(8)
N1 N 0.48716(11) 0.18492(4) 0.81040(9)
C1 C 0.42722(12) 0.22323(5) 0.91389(11)
C2 C 0.41493(15) 0.17038(6) 1.02369(13)
C3 C 0.50361(13) 0.11443(6) 0.99106(12)
C4 C 0.28363(15) 0.25113(9) 0.84417(16)
C5 C 0.53073(17) 0.27627(7) 0.97812(16)
O2 O 0.64812(9) 0.12479(4) 1.06329(8)
C6 C 0.73459(14) 0.07231(6) 1.08139(13)
O3 O 0.69519(11) 0.01928(4) 1.04014(12)
C7 C 0.88009(17) 0.08868(8) 1.16088(19)
C8 C 0.53614(12) 0.20397(5) 0.69776(11)
O4 O 0.52851(11) 0.26065(4) 0.65859(10)
C9 C 0.37076(16) 0.13896(8) 0.44974(15)
C10 C 0.29084(20) 0.10816(9) 0.33614(16)
C11 C 0.34870(21) 0.05724(8) 0.26885(16)
C12 C 0.48536(19) 0.03953(7) 0.31462(14)
C13 C 0.57551(15) 0.07103(6) 0.43278(12)
C14 C 0.94589(17) 0.06507(8) 0.65781(19)
C15 C 1.02505(19) 0.09389(9) 0.77321(20)
C16 C 0.96785(16) 0.14431(8) 0.84197(18)
C17 C 0.83153(14) 0.16394(7) 0.79363(14)
C18 C 0.74255(13) 0.13390(5) 0.67305(12)
C19 C 0.60015(13) 0.15157(5) 0.62278(11)
C20 C 0.51535(14) 0.12166(6) 0.50327(12)
C21 C 0.71666(16) 0.05331(6) 0.48387(14)
C22 C 0.80161(14) 0.08355(6) 0.60142(14)
H1 H 0.448(1) 0.1846(7) 1.123(2)
H2 H 0.312(2) 0.1536(7) 1.009(1)
H3 H 0.472(1) 0.0731(6) 1.016(1)
H4 H 0.294(2) 0.2832(8) 0.775(2)
H5 H 0.238(2) 0.2721(8) 0.918(2)
H6 H 0.222(2) 0.2136(8) 0.798(2)
H7 H 0.545(1) 0.3075(7) 0.903(2)
H8 H 0.625(2) 0.2582(7) 1.016(1)
H9 H 0.491(2) 0.3000(7) 1.049(2)
H10 H 0.952(2) 0.05662(10) 1.123(2)
H11 H 0.909(2) 0.1290(8) 1.144(2)
H12 H 0.880(2) 0.0871(9) 1.263(2)
H13 H 0.331(2) 0.1748(8) 0.497(2)
H14 H 0.195(2) 0.1189(8) 0.300(2)
H15 H 0.286(2) 0.0351(8) 0.189(2)
H16 H 0.525(2) 0.0048(8) 0.268(2)
H17 H 0.986(2) 0.0310(8) 0.611(2)
H18 H 1.119(2) 0.0805(8) 0.807(2)
H19 H 1.029(2) 0.1643(7) 0.930(2)
H20 H 0.792(1) 0.2000(6) 0.841(1)
H21 H 0.758(1) 0.0189(6) 0.435(1)
#END
