
#######################################################################
#
#                 Cambridge Crystallographic Data Centre
#                                CCDC
#
#######################################################################
#
# If this CIF has been generated from an entry in the Cambridge
# Structural Database, then it will include bibliographic, chemical,
# crystal, experimental, refinement or atomic coordinate data resulting
# from the CCDC's data processing and validation procedures.
#
#######################################################################

data_CSD_CIF_BIHWUL
_audit_creation_date 2005-01-20
_audit_creation_method CSD-ConQuest-V1
_database_code_CSD BIHWUL
_database_code_depnum_ccdc_archive 'CCDC 255919'
_chemical_formula_sum 'C18 H15 N3 O6'
_chemical_formula_moiety
;
C18 H15 N3 O6
;
_journal_coeditor_code "IUCr KP6008"
_journal_coden_Cambridge 1370
_journal_volume 60
_journal_year 2004
_journal_page_first o2073
_journal_name_full 'Acta Crystallogr.,Sect.E:Struct.Rep.Online '
loop_
_publ_author_name
"Hai-Bo Wang"
"Jia-Hui Chen"
"Yue-Qing Pu"
"Jin-Tang Wang"
_chemical_name_systematic
;
Methyl 2-((3-(4-nitrophenyl)-1,2,4-oxadiazol-5-yl)methoxy)phenylacetate
;
_cell_volume   1703.840
_exptl_crystal_colour 'colorless'
_exptl_crystal_density_diffrn 1.44
_exptl_crystal_description 'block'
_exptl_crystal_preparation 'ethanol'
_diffrn_ambient_temperature 293
#These two values have been output from a single CSD field.
_refine_ls_R_factor_gt 0.0536
_refine_ls_wR_factor_gt 0.0536
_symmetry_cell_setting monoclinic
_symmetry_space_group_name_H-M 'P 21/c'
_symmetry_Int_Tables_number 14
loop_
_symmetry_equiv_pos_site_id
_symmetry_equiv_pos_as_xyz
1 x,y,z
2 x,1/2-y,1/2+z
3 -x,-y,-z
4 -x,-1/2+y,-1/2-z
_cell_length_a 10.436(2)
_cell_length_b 5.180(1)
_cell_length_c 31.560(6)
_cell_angle_alpha 90
_cell_angle_beta 92.94(3)
_cell_angle_gamma 90
_cell_formula_units_Z 4
loop_
_atom_type_symbol
_atom_type_radius_bond
C 0.68
H 0.23
N 0.68
O 0.68
loop_
_atom_site_label
_atom_site_type_symbol
_atom_site_fract_x
_atom_site_fract_y
_atom_site_fract_z
O1 O 0.84628(19) 0.6125(4) 0.12967(7)
O2 O 0.70557(19) 0.8610(5) 0.07352(7)
N1 N 0.8581(2) 1.1119(5) 0.05118(8)
C1 C 0.7260(3) 1.3605(6) -0.00326(9)
C2 C 0.9133(3) 0.4403(6) 0.15609(9)
C3 C 0.7424(3) 1.1664(6) 0.03026(9)
C4 C 0.8292(3) 0.9271(6) 0.07650(9)
N2 N 0.6477(2) 1.0247(6) 0.04221(9)
O3 O 0.5025(2) 0.4918(5) 0.18144(8)
C5 C 0.6151(3) 1.3727(6) -0.02973(10)
H1 H 0.54860 1.25680 -0.02600
N3 N 0.6892(3) 1.9260(6) -0.09934(9)
O4 O 0.7809(3) 2.0676(5) -0.10452(8)
C6 C 0.7028(3) 1.7253(6) -0.06630(9)
C7 C 1.0454(3) 0.4380(6) 0.16205(10)
H2 H 1.09540 0.55590 0.14800
C8 C 0.6036(3) 1.5550(6) -0.06136(10)
H3 H 0.52990 1.56310 -0.07910
C9 C 0.8140(3) 1.7139(7) -0.04129(11)
H4 H 0.88130 1.82680 -0.04580
C10 C 0.6261(3) 0.4767(6) 0.19407(11)
C11 C 0.9195(3) 0.7808(6) 0.10547(9)
H5 H 0.97920 0.68310 0.08920
H6 H 0.96810 0.89870 0.12400
C12 C 0.8243(3) 1.5324(6) -0.00947(10)
H7 H 0.89850 1.52550 0.00810
O5 O 0.5850(3) 1.9493(6) -0.11819(9)
C13 C 0.8363(3) 0.2648(6) 0.17690(9)
O6 O 0.6738(2) 0.6052(5) 0.22190(8)
C14 C 1.0286(4) 0.0824(7) 0.21026(11)
H8 H 1.06730 -0.03770 0.22870
C15 C 0.6928(3) 0.2712(7) 0.16946(11)
H9 H 0.65860 0.10410 0.17690
H10 H 0.67280 0.29820 0.13940
C16 C 0.8969(4) 0.0875(6) 0.20358(9)
H11 H 0.84770 -0.03220 0.21750
C17 C 1.1021(3) 0.2563(6) 0.18936(10)
H12 H 1.19090 0.25220 0.19360
C18 C 0.4246(4) 0.6683(9) 0.20420(13)
H13 H 0.33790 0.66210 0.19250
H14 H 0.45750 0.84030 0.20160
H15 H 0.42640 0.62010 0.23360
#END
