
#######################################################################
#
#                 Cambridge Crystallographic Data Centre
#                                CCDC
#
#######################################################################
#
# If this CIF has been generated from an entry in the Cambridge
# Structural Database, then it will include bibliographic, chemical,
# crystal, experimental, refinement or atomic coordinate data resulting
# from the CCDC's data processing and validation procedures.
#
#######################################################################

data_CSD_CIF_BIHWOF
_audit_creation_date 2005-01-20
_audit_creation_method CSD-ConQuest-V1
_database_code_CSD BIHWOF
_database_code_depnum_ccdc_archive 'CCDC 255918'
_chemical_formula_sum 'C26 H30 N4 O6'
_chemical_formula_moiety
;
C26 H30 N4 O6
;
_journal_coeditor_code "IUCr IS6005"
_journal_coden_Cambridge 1370
_journal_volume 60
_journal_year 2004
_journal_page_first o2070
_journal_name_full 'Acta Crystallogr.,Sect.E:Struct.Rep.Online '
loop_
_publ_author_name
"Jia-Hui Chen"
"Hai-Bo Wang"
"Yue-Qing Pu"
"Jin-Tang Wang"
_chemical_name_systematic
;
Methyl 
2-(2-(1-(3-(3,5-dimethoxyphenyl)-1,2,4-oxadiazol-5-yl)-2-(dimethylamino)vinylo
xy)phenyl)-3-(dimethylamino)acrylate
;
_cell_volume   1283.376
_exptl_crystal_colour 'colorless'
_exptl_crystal_density_diffrn 1.28
_exptl_crystal_description 'block'
_exptl_crystal_preparation 'ethanol'
_diffrn_ambient_temperature 293
#These two values have been output from a single CSD field.
_refine_ls_R_factor_gt 0.0715
_refine_ls_wR_factor_gt 0.0715
_symmetry_cell_setting triclinic
_symmetry_space_group_name_H-M 'P -1'
_symmetry_Int_Tables_number 2
loop_
_symmetry_equiv_pos_site_id
_symmetry_equiv_pos_as_xyz
1 x,y,z
2 -x,-y,-z
_cell_length_a 8.6500(17)
_cell_length_b 10.700(2)
_cell_length_c 14.817(3)
_cell_angle_alpha 107.66(3)
_cell_angle_beta 97.50(3)
_cell_angle_gamma 95.15(3)
_cell_formula_units_Z 2
loop_
_atom_type_symbol
_atom_type_radius_bond
C 0.68
H 0.23
N 0.68
O 0.68
loop_
_atom_site_label
_atom_site_type_symbol
_atom_site_fract_x
_atom_site_fract_y
_atom_site_fract_z
O1 O 0.2008(3) 0.6477(3) 0.6165(2)
O2 O 0.0547(4) 0.6917(3) 0.7668(2)
N1 N -0.0138(4) 0.4823(3) 0.7549(2)
C1 C -0.2751(5) 0.5761(4) 1.0384(3)
C2 C -0.1481(5) 0.5243(4) 0.8995(3)
O3 O -0.3198(4) 0.6760(3) 1.1086(2)
C3 C -0.1947(5) 0.6176(4) 0.9754(3)
H1 H -0.17190 0.70740 0.98380
C4 C 0.0561(5) 0.5641(4) 0.7178(3)
C5 C -0.0624(5) 0.5673(4) 0.8331(3)
N2 N -0.0253(5) 0.6929(4) 0.8451(3)
O4 O -0.2890(5) 0.2174(3) 0.9339(2)
C6 C 0.3841(5) 0.8415(4) 0.6754(3)
C7 C 0.3422(5) 0.7114(4) 0.6734(3)
C8 C 0.1336(5) 0.5367(4) 0.6359(3)
C9 C 0.1288(5) 0.4107(5) 0.5782(3)
H2 H 0.06870 0.34810 0.59580
N3 N 0.1942(5) 0.3598(4) 0.5009(3)
C10 C -0.3073(5) 0.4429(4) 1.0282(3)
H3 H -0.35940 0.41570 1.07150
C11 C -0.1817(5) 0.3911(4) 0.8879(3)
H4 H -0.15160 0.32800 0.83710
O5 O 0.3857(5) 0.7909(4) 0.4875(2)
C12 C 0.4389(5) 0.6536(5) 0.7256(3)
H5 H 0.40960 0.56720 0.72440
N4 N 0.1334(5) 1.0292(4) 0.7408(3)
C13 C -0.2608(5) 0.3519(4) 0.9529(3)
C14 C 0.2789(6) 0.9039(4) 0.6189(3)
C15 C 0.5788(6) 0.7238(6) 0.7794(3)
H6 H 0.64380 0.68460 0.81470
O6 O 0.1883(6) 0.9031(4) 0.4601(3)
C16 C 0.1727(6) 0.9867(4) 0.6552(3)
H7 H 0.11850 1.01870 0.61030
C17 C -0.3762(6) 0.6448(5) 1.1859(3)
H8 H -0.40310 0.72320 1.22950
H9 H -0.29590 0.61070 1.21900
H10 H -0.46780 0.57930 1.16140
C18 C 0.2756(7) 0.8715(5) 0.5172(4)
C19 C 0.5273(6) 0.9081(5) 0.7291(4)
H11 H 0.55930 0.99380 0.72970
C20 C -0.3652(7) 0.1707(5) 0.9979(4)
H12 H -0.37790 0.07570 0.97670
H13 H -0.46670 0.20020 0.99960
H14 H -0.30320 0.20440 1.06090
C21 C 0.2012(7) 1.0022(5) 0.8251(4)
H15 H 0.28210 0.94710 0.81000
H16 H 0.12110 0.95750 0.84790
H17 H 0.24600 1.08400 0.87400
C22 C 0.0081(7) 1.1133(6) 0.7554(4)
H18 H -0.03210 1.12630 0.69580
H19 H 0.04960 1.19740 0.80250
H20 H -0.07530 1.07130 0.77740
C23 C 0.6233(6) 0.8502(6) 0.7816(4)
H21 H 0.71810 0.89720 0.81840
C24 C 0.3929(10) 0.7522(8) 0.3874(4)
H22 H 0.47360 0.69650 0.37410
H23 H 0.41650 0.82960 0.36910
H24 H 0.29330 0.70440 0.35170
C25 C 0.2816(6) 0.4390(6) 0.4553(4)
H25 H 0.29280 0.53070 0.49300
H26 H 0.22580 0.42670 0.39220
H27 H 0.38380 0.41180 0.45060
C26 C 0.1713(7) 0.2199(5) 0.4517(4)
H28 H 0.11330 0.17510 0.48650
H29 H 0.27180 0.18900 0.44750
H30 H 0.11360 0.20200 0.38820
#END
