
#######################################################################
#
#                 Cambridge Crystallographic Data Centre
#                                CCDC
#
#######################################################################
#
# If this CIF has been generated from an entry in the Cambridge
# Structural Database, then it will include bibliographic, chemical,
# crystal, experimental, refinement or atomic coordinate data resulting
# from the CCDC's data processing and validation procedures.
#
#######################################################################

data_CSD_CIF_BIHXUM
_audit_creation_date 2005-01-20
_audit_creation_method CSD-ConQuest-V1
_database_code_CSD BIHXUM
_database_code_depnum_ccdc_archive 'CCDC 255924'
_chemical_formula_sum 'C12 H9 N1 O4'
_chemical_formula_moiety
;
C12 H9 N1 O4
;
_journal_coeditor_code "IUCr LH6267"
_journal_coden_Cambridge 1370
_journal_volume 60
_journal_year 2004
_journal_page_first o2087
_journal_name_full 'Acta Crystallogr.,Sect.E:Struct.Rep.Online '
loop_
_publ_author_name
"Fangjun Huo"
"Caixia Yin"
"Pin Yang"
_chemical_name_systematic
;
7-Nitro-2,3-dihydro-1H-cyclopenta(b)chromen-1-one
;
_cell_volume   1058.180
_exptl_crystal_colour 'yellow'
_exptl_crystal_density_diffrn 1.451
_exptl_crystal_description 'block'
_exptl_crystal_preparation 'chloroform'
_diffrn_ambient_temperature 293
_refine_special_details
;
Three C atoms of the pyran ring are disordered over two sites, with 
occupancies 0.72:0.28.
;
#These two values have been output from a single CSD field.
_refine_ls_R_factor_gt 0.0524
_refine_ls_wR_factor_gt 0.0524
_symmetry_cell_setting monoclinic
_symmetry_space_group_name_H-M 'P 21/n'
_symmetry_Int_Tables_number 14
loop_
_symmetry_equiv_pos_site_id
_symmetry_equiv_pos_as_xyz
1 x,y,z
2 1/2+x,1/2-y,1/2+z
3 -x,-y,-z
4 -1/2-x,-1/2+y,-1/2-z
_cell_length_a 6.0584(11)
_cell_length_b 19.717(4)
_cell_length_c 8.9513(16)
_cell_angle_alpha 90
_cell_angle_beta 98.257(4)
_cell_angle_gamma 90
_cell_formula_units_Z 4
loop_
_atom_type_symbol
_atom_type_radius_bond
C 0.68
H 0.23
N 0.68
O 0.68
loop_
_atom_site_label
_atom_site_type_symbol
_atom_site_fract_x
_atom_site_fract_y
_atom_site_fract_z
O1 O 0.4651(3) 0.83740(8) 0.77807(19)
O2 O -0.1177(3) 0.88831(9) 1.0617(2)
O3 O 0.8800(4) 1.10283(10) 0.5657(2)
O4 O 0.6501(3) 1.14603(9) 0.7013(2)
N1 N 0.7345(4) 1.09737(11) 0.6467(2)
C1 C 0.0167(4) 0.85576(13) 1.0037(3)
C2 C 0.1961(4) 0.88384(12) 0.9283(3)
C3 C 0.3602(8) 0.82608(17) 0.9093(5)
H1 H 0.47130 0.82120 0.99970
C4 C 0.201(2) 0.7664(3) 0.8916(16)
H2 H 0.28070 0.72490 0.92240
H3 H 0.13470 0.76180 0.78690
C5 C 0.019(3) 0.7794(2) 0.9913(18)
H4 H -0.12420 0.76230 0.94400
H5 H 0.05680 0.75840 1.08970
C6? C 0.2518(12) 0.8261(5) 0.8243(15)
H6? H 0.13730 0.82370 0.73530
C7? C 0.248(6) 0.7617(10) 0.916(4)
H7? H 0.39060 0.75300 0.97720
H8? H 0.20440 0.72270 0.85270
C8? C 0.068(6) 0.7808(3) 1.013(4)
H9? H -0.06710 0.75530 0.97980
H10? H 0.11880 0.76860 1.11770
C9 C 0.2374(4) 0.94652(12) 0.8885(3)
H11 H 0.15220 0.98250 0.91570
C10 C 0.4879(4) 1.02246(12) 0.7660(3)
H12 H 0.41900 1.06070 0.79900
C11 C 0.6601(4) 1.02938(12) 0.6814(3)
C12 C 0.7598(4) 0.97373(13) 0.6268(3)
H13 H 0.87350 0.97930 0.56830
C13 C 0.6900(4) 0.90974(13) 0.6596(3)
H14 H 0.75490 0.87190 0.62170
C14 C 0.5241(4) 0.90166(12) 0.7483(3)
C15 C 0.4181(4) 0.95823(11) 0.8018(2)
#END
