
#######################################################################
#
#                 Cambridge Crystallographic Data Centre
#                                CCDC
#
#######################################################################
#
# If this CIF has been generated from an entry in the Cambridge
# Structural Database, then it will include bibliographic, chemical,
# crystal, experimental, refinement or atomic coordinate data resulting
# from the CCDC's data processing and validation procedures.
#
#######################################################################

data_CSD_CIF_BIJTOD
_audit_creation_date 1983-03-10
_audit_creation_method CSD-ConQuest-V1
_database_code_CSD BIJTOD
_database_code_depnum_ccdc_archive 'CCDC 1110825'
_chemical_formula_sum 'C20 H18 N4 O1'
_chemical_formula_moiety
;
C20 H18 N4 O1
;
_journal_coden_Cambridge 4
_journal_volume 104
_journal_year 1982
_journal_page_first 4013
_journal_name_full 'J.Am.Chem.Soc. '
loop_
_publ_author_name
"J.B.Press"
"N.H.Eudy"
"F.M.Lovell"
"G.O.Morton"
"M.M.Siegel"
_chemical_name_systematic
;
5-(1,3-Dimethyl-5-(2-methylphenyl)-1H-pyrazol-4-yl)-3-phenyl-1,2,4-oxadiazole
;
_cell_volume   1741.565
_exptl_special_details
;
H18 omitted - coordinates unreadable in deposited data

;
_diffrn_ambient_temperature ?
_diffrn_special_details
;
The study was carried out at room temperature,in the range 283-303K

;
#These two values have been output from a single CSD field.
_refine_ls_R_factor_gt 0.067
_refine_ls_wR_factor_gt 0.067
_symmetry_cell_setting monoclinic
_symmetry_space_group_name_H-M 'P 21/c'
_symmetry_Int_Tables_number 14
loop_
_symmetry_equiv_pos_site_id
_symmetry_equiv_pos_as_xyz
1 x,y,z
2 -x,1/2+y,1/2-z
3 -x,-y,-z
4 x,-1/2-y,-1/2+z
_cell_length_a 13.562(3)
_cell_length_b 11.875(3)
_cell_length_c 10.831(1)
_cell_angle_alpha 90
_cell_angle_beta 93.22(1)
_cell_angle_gamma 90
_cell_formula_units_Z 4
loop_
_atom_type_symbol
_atom_type_radius_bond
C 0.68
H 0.23
N 0.68
O 0.68
loop_
_atom_site_label
_atom_site_type_symbol
_atom_site_fract_x
_atom_site_fract_y
_atom_site_fract_z
O1 O 0.81690 0.40800 0.15720
N1 N 0.88530 0.40470 0.06280
N2 N 0.84440 0.22920 0.12040
N3 N 0.64360 0.18800 0.42090
N4 N 0.62920 0.30120 0.42810
C1 C 1.02320 0.33040 -0.10800
C2 C 1.08310 0.29150 -0.19650
C3 C 1.08650 0.17960 -0.22430
C4 C 1.03140 0.10470 -0.16160
C5 C 0.96980 0.14270 -0.07270
C6 C 0.96490 0.25670 -0.04430
C7 C 0.89860 0.29750 0.04620
C8 C 0.79830 0.30160 0.18600
C9 C 0.73800 0.28020 0.28190
C10 C 0.70630 0.17580 0.33170
C11 C 0.74200 0.06080 0.30030
C12 C 0.56080 0.34200 0.51650
C13 C 0.67930 0.36070 0.34800
C14 C 0.67550 0.48580 0.34490
C15 C 0.73010 0.54510 0.43650
C16 C 0.72540 0.66420 0.43470
C17 C 0.67090 0.71550 0.34550
C18 C 0.61760 0.66270 0.25760
C19 C 0.61860 0.54210 0.25810
C20 C 0.55950 0.48370 0.16390
H1 H 1.01800 0.40500 -0.08800
H2 H 1.11500 0.34300 -0.23200
H3 H 1.13200 0.18000 -0.29400
H4 H 1.02900 0.01600 -0.17900
H5 H 0.92800 0.09000 -0.04000
H6 H 0.71800 0.03500 0.23100
H7 H 0.81000 0.06700 0.31500
H8 H 0.73300 -0.00400 0.36300
H9 H 0.47500 0.32000 0.49800
H10 H 0.55600 0.41600 0.53500
H11 H 0.56400 0.30800 0.59200
H12 H 0.77900 0.48800 0.50200
H13 H 0.76100 0.70700 0.49700
H14 H 0.67000 0.79500 0.34500
H15 H 0.58000 0.70300 0.19600
H16 H 0.59800 0.47400 0.08600
H17 H 0.51600 0.40900 0.21700
#END
