
#######################################################################
#
#                 Cambridge Crystallographic Data Centre
#                                CCDC
#
#######################################################################
#
# If this CIF has been generated from an entry in the Cambridge
# Structural Database, then it will include bibliographic, chemical,
# crystal, experimental, refinement or atomic coordinate data resulting
# from the CCDC's data processing and validation procedures.
#
#######################################################################

data_CSD_CIF_BIKJOW
_audit_creation_date 2013-07-09
_audit_creation_method CSD-ConQuest-V1
_database_code_CSD BIKJOW
_database_code_depnum_ccdc_archive 'CCDC 854579'
_chemical_formula_sum 'C19 H27 N3 O7'
_chemical_formula_moiety
;
C19 H27 N3 O7
;
_journal_coden_Cambridge 917
_journal_volume 8
_journal_year 2012
_journal_page_first 1710
_journal_name_full 'Beilstein J.Org.Chem. '
loop_
_publ_author_name
"Zhi-Cong Geng"
"Jian Chen"
"Ning Li"
"Xiao-Fei Huang"
"Yong Zhang"
"Ya-Wen Zhang"
"Xing-Wang Wang"
_chemical_name_systematic
;
Di-t-butyl 3-hydroxy-5-(4-nitrophenyl)pyrazolidine-1,2-dicarboxylate
;
_cell_volume   4379.988
_exptl_crystal_colour 'yellow'
_exptl_crystal_density_diffrn 1.242
_exptl_crystal_description 'block'
_diffrn_ambient_temperature 223
#These two values have been output from a single CSD field.
_refine_ls_R_factor_gt 0.0606
_refine_ls_wR_factor_gt 0.0606
_symmetry_cell_setting monoclinic
_symmetry_space_group_name_H-M 'C 2/c'
_symmetry_Int_Tables_number 15
loop_
_symmetry_equiv_pos_site_id
_symmetry_equiv_pos_as_xyz
1 x,y,z
2 -x,y,1/2-z
3 1/2+x,1/2+y,z
4 1/2-x,1/2+y,1/2-z
5 -x,-y,-z
6 x,-y,-1/2+z
7 -1/2-x,-1/2-y,-z
8 -1/2+x,-1/2-y,-1/2+z
_cell_length_a 27.633(9)
_cell_length_b 11.435(3)
_cell_length_c 16.853(6)
_cell_angle_alpha 90
_cell_angle_beta 124.665(7)
_cell_angle_gamma 90
_cell_formula_units_Z 8
loop_
_atom_type_symbol
_atom_type_radius_bond
C 0.68
H 0.23
N 0.68
O 0.68
loop_
_atom_site_label
_atom_site_type_symbol
_atom_site_fract_x
_atom_site_fract_y
_atom_site_fract_z
O1 O 1.02320(8) 0.06236(19) 0.39570(12)
H1 H 1.04890 0.06050 0.45460
O2 O 0.62858(11) 0.1217(3) -0.1069(2)
O3 O 0.66526(12) 0.1018(2) -0.19081(17)
O4 O 0.89565(8) -0.12099(17) 0.41347(13)
O5 O 0.85746(8) -0.15081(16) 0.25441(12)
O6 O 0.86330(8) 0.14358(18) 0.41091(14)
O7 O 0.95221(8) 0.23488(17) 0.49706(12)
N1 N 0.89937(9) 0.01790(19) 0.31995(14)
N2 N 0.93953(9) 0.08858(19) 0.40021(14)
N3 N 0.66979(14) 0.1055(2) -0.1137(2)
C1 C 0.97908(11) 0.1415(2) 0.37640(19)
H2 H 0.99580 0.21670 0.41030
C2 C 0.93707(12) 0.1585(3) 0.26830(18)
H3 H 0.95860 0.16580 0.23820
H4 H 0.91280 0.22840 0.25330
C3 C 0.89959(11) 0.0485(2) 0.23420(17)
H5 H 0.92010 -0.01390 0.22350
C4 C 0.83879(11) 0.0643(2) 0.14374(18)
C5 C 0.82961(13) 0.0435(3) 0.05506(19)
H6 H 0.86130 0.01980 0.05260
C6 C 0.77439(14) 0.0573(3) -0.03001(19)
H7 H 0.76820 0.04270 -0.09000
C7 C 0.72869(13) 0.0927(2) -0.0245(2)
C8 C 0.73658(13) 0.1163(3) 0.0628(2)
H8 H 0.70490 0.14140 0.06480
C9 C 0.79186(12) 0.1024(3) 0.1466(2)
H9 H 0.79800 0.11870 0.20640
C10 C 0.88581(11) -0.0888(2) 0.33678(18)
C11 C 0.81119(12) -0.2367(3) 0.23420(19)
C12 C 0.76996(13) -0.1801(3) 0.2551(2)
H10 H 0.79040 -0.16850 0.32410
H11 H 0.73620 -0.23030 0.23200
H12 H 0.75690 -0.10510 0.22250
C13 C 0.83941(16) -0.3458(3) 0.2932(2)
H13 H 0.86570 -0.37880 0.27820
H14 H 0.80910 -0.40240 0.27810
H15 H 0.86160 -0.32640 0.36130
C14 C 0.78039(15) -0.2584(3) 0.1273(2)
H16 H 0.76760 -0.18450 0.09310
H17 H 0.74650 -0.30840 0.10430
H18 H 0.80730 -0.29640 0.11600
C15 C 0.91281(11) 0.1580(2) 0.43361(18)
C16 C 0.93692(13) 0.3181(3) 0.5466(2)
C17 C 0.88989(18) 0.3999(4) 0.4729(3)
H19 H 0.90150 0.43130 0.43260
H20 H 0.88480 0.46350 0.50560
H21 H 0.85310 0.35750 0.43310
C18 C 0.9213(2) 0.2531(4) 0.6066(3)
H22 H 0.88220 0.22020 0.56490
H23 H 0.92220 0.30660 0.65210
H24 H 0.94950 0.19070 0.64150
C19 C 0.99484(16) 0.3837(3) 0.6112(3)
H25 H 1.02620 0.32820 0.65070
H26 H 0.99150 0.43720 0.65250
H27 H 1.00360 0.42740 0.57150
#END
