
#######################################################################
#
#                 Cambridge Crystallographic Data Centre
#                                CCDC
#
#######################################################################
#
# If this CIF has been generated from an entry in the Cambridge
# Structural Database, then it will include bibliographic, chemical,
# crystal, experimental, refinement or atomic coordinate data resulting
# from the CCDC's data processing and validation procedures.
#
#######################################################################

data_CSD_CIF_BIKKUE
_audit_creation_date 2018-07-12
_audit_creation_method CSD-ConQuest-V1
_database_code_CSD BIKKUE
_database_code_depnum_ccdc_archive 'CCDC 1813265'
_chemical_formula_sum 'C16 H14 N2 O3'
_chemical_formula_moiety
;
C16 H14 N2 O3
;
_journal_coden_Cambridge 24
_journal_volume 59
_journal_year 2018
_journal_page_first 3214
_journal_name_full 'Tetrahedron Lett. '
loop_
_publ_author_name
"Menghua Zhu"
"De Chen"
"Sheng Zeng"
"Chenhu Xing"
"Wei Deng"
"Jiannan Xiang"
"Rui-Jia Wang"
_chemical_name_systematic
;
1-(4-methylphenyl)-3-nitro-2-(phenylamino)prop-2-en-1-one
;
_cell_volume   1448.923
_exptl_crystal_colour 'yellow'
_exptl_crystal_density_diffrn 1.294
_diffrn_ambient_temperature 296
#These two values have been output from a single CSD field.
_refine_ls_R_factor_gt 0.0408
_refine_ls_wR_factor_gt 0.0408
_symmetry_cell_setting monoclinic
_symmetry_space_group_name_H-M 'P 21/n'
_symmetry_Int_Tables_number 14
loop_
_symmetry_equiv_pos_site_id
_symmetry_equiv_pos_as_xyz
1 x,y,z
2 1/2-x,1/2+y,1/2-z
3 -x,-y,-z
4 -1/2+x,-1/2-y,-1/2+z
_cell_length_a 15.941(7)
_cell_length_b 5.809(3)
_cell_length_c 17.198(8)
_cell_angle_alpha 90
_cell_angle_beta 114.521(7)
_cell_angle_gamma 90
_cell_formula_units_Z 4
loop_
_atom_type_symbol
_atom_type_radius_bond
C 0.68
H 0.23
N 0.68
O 0.68
loop_
_atom_site_label
_atom_site_type_symbol
_atom_site_fract_x
_atom_site_fract_y
_atom_site_fract_z
C1 C 0.67815(15) 0.2790(4) 0.27749(16)
H1 H 0.71900 0.16660 0.31040
C2 C 0.65405(14) 0.4584(4) 0.31623(14)
H2 H 0.67860 0.46690 0.37550
C3 C 0.59316(13) 0.6274(4) 0.26723(12)
H3 H 0.57830 0.75070 0.29370
N1 N 0.49006(10) 0.7796(3) 0.12651(9)
H4 H 0.49550 0.82490 0.08120
O1 O 0.41991(11) 1.0916(3) -0.00268(9)
O2 O 0.31216(12) 1.3245(3) -0.00399(9)
O3 O 0.37064(10) 0.5525(2) 0.19474(9)
C4 C 0.55458(12) 0.6113(3) 0.17857(11)
C5 C 0.43705(15) 1.2115(4) 0.37637(13)
H5 H 0.46910 1.34930 0.39370
C6 C 0.38879(14) 1.1252(4) 0.42140(12)
C7 C 0.36482(13) 1.0505(3) 0.09962(11)
H6 H 0.32220 1.10080 0.11980
N2 N 0.36557(11) 1.1624(3) 0.02789(9)
C8 C 0.34261(15) 0.9177(4) 0.39460(13)
H7 H 0.31020 0.85680 0.42400
C9 C 0.57954(14) 0.4329(3) 0.13980(13)
H8 H 0.55510 0.42380 0.08050
C10 C 0.42187(12) 0.8722(3) 0.14267(10)
C11 C 0.39428(12) 0.7540(3) 0.20761(11)
C12 C 0.39178(12) 0.8883(3) 0.28009(11)
C13 C 0.43837(13) 1.0967(3) 0.30628(12)
H9 H 0.47040 1.15870 0.27670
C14 C 0.38605(19) 1.2531(4) 0.49703(14)
H10 H 0.32930 1.21930 0.50160
H11 H 0.39010 1.41560 0.48910
H12 H 0.43710 1.20540 0.54840
C15 C 0.34360(13) 0.7993(4) 0.32525(12)
H13 H 0.31220 0.66040 0.30860
C16 C 0.64122(15) 0.2666(4) 0.18929(15)
H14 H 0.65780 0.14620 0.16290
#END
