
#######################################################################
#
#                 Cambridge Crystallographic Data Centre
#                                CCDC
#
#######################################################################
#
# If this CIF has been generated from an entry in the Cambridge
# Structural Database, then it will include bibliographic, chemical,
# crystal, experimental, refinement or atomic coordinate data resulting
# from the CCDC's data processing and validation procedures.
#
#######################################################################

data_CSD_CIF_BIKNUE
_audit_creation_date 1983-03-10
_audit_creation_method CSD-ConQuest-V1
_database_code_CSD BIKNUE
_chemical_formula_sum 'C23 H23 N3 O3'
_chemical_formula_moiety
;
C23 H23 N3 O3
;
_journal_coden_Cambridge 35
_journal_volume 47
_journal_year 1982
_journal_page_first 2147
_journal_name_full 'J.Org.Chem. '
loop_
_publ_author_name
"H.C.J.Ottenheijm"
"R.Plate"
"J.H.Noordik"
"J.D.M.Herscheid"
_chemical_name_systematic
;
8-(Benzyloxy)-7,9-dioxo-5,6-dimethyl-6,8-diazabicyclo(3.2.2)nonano(4,5-b)-N-me
thylindole
;
_chemical_melting_point 430.15
_cell_volume    996.421
_exptl_crystal_colour 'colorless'
_exptl_crystal_density_diffrn 1.298
_exptl_special_details
;
Melting point range 430.15-432.15K
x(C21) should be 0.481, not 0.0481

;
_diffrn_ambient_temperature ?
_diffrn_special_details
;
The study was carried out at room temperature,in the range 283-303K

;
#These two values have been output from a single CSD field.
_refine_ls_R_factor_gt 0.042
_refine_ls_wR_factor_gt 0.042
_symmetry_cell_setting triclinic
_symmetry_space_group_name_H-M 'P -1'
_symmetry_Int_Tables_number 2
loop_
_symmetry_equiv_pos_site_id
_symmetry_equiv_pos_as_xyz
1 x,y,z
2 -x,-y,-z
_cell_length_a 11.976(2)
_cell_length_b 11.945(4)
_cell_length_c 8.676(2)
_cell_angle_alpha 112.13(2)
_cell_angle_beta 109.82(2)
_cell_angle_gamma 62.18(2)
_cell_formula_units_Z 2
loop_
_atom_type_symbol
_atom_type_radius_bond
C 0.68
H 0.23
N 0.68
O 0.68
loop_
_atom_site_label
_atom_site_type_symbol
_atom_site_fract_x
_atom_site_fract_y
_atom_site_fract_z
C1 C 0.18930 0.14870 0.29130
C2 C 0.33630 0.08370 0.10680
C3 C 0.44650 0.08040 0.25920
C4 C 0.27240 0.22500 0.41900
C5 C 0.28440 0.21100 0.05510
C6 C 0.23170 0.33350 0.19110
C7 C 0.22720 0.34400 0.35230
C8 C 0.50810 0.17220 0.56020
C9 C 0.25190 0.24880 0.59500
C10 C 0.17460 0.46300 0.17050
C11 C 0.15090 0.51290 0.03510
C12 C 0.09160 0.64680 0.05580
C13 C 0.05540 0.73150 0.20970
C14 C 0.07630 0.68530 0.34470
C15 C 0.13630 0.54950 0.32310
C16 C 0.15220 0.53690 0.61070
C17 C 0.16570 -0.10240 -0.01570
C18 C 0.27830 -0.20130 -0.09730
C19 C 0.38170 -0.28900 -0.01680
C20 C 0.48420 -0.38050 -0.09680
C21 C 0.48100 -0.38590 -0.25720
C22 C 0.37970 -0.30180 -0.33830
C23 C 0.27770 -0.20740 -0.25920
O1 O 0.08890 0.16290 0.31540
O2 O 0.55870 0.02400 0.24140
O3 O 0.14810 0.03180 0.00940
N1 N 0.23850 0.06710 0.15020
N2 N 0.41100 0.14530 0.41170
N3 N 0.16760 0.47650 0.43440
H1 H 0.36900 0.00700 0.01500
H2 H 0.21600 0.20500 -0.05300
H3 H 0.35500 0.21500 0.02900
H4 H 0.49000 0.26500 0.59300
H5 H 0.51100 0.14800 0.66200
H6 H 0.59400 0.12600 0.53300
H7 H 0.30100 0.29800 0.68300
H8 H 0.15600 0.29000 0.59400
H9 H 0.28000 0.16500 0.61700
H10 H 0.16800 0.45800 -0.06700
H11 H 0.07400 0.68500 -0.03300
H12 H 0.02000 0.82700 0.23000
H13 H 0.05700 0.74700 0.45500
H14 H 0.24800 0.52300 0.69700
H15 H 0.08800 0.50600 0.63200
H16 H 0.12300 0.62500 0.63200
H17 H 0.16900 -0.12000 0.09100
H18 H 0.08500 -0.10900 -0.09500
H19 H 0.37700 -0.28600 0.09100
H20 H 0.56200 -0.44000 -0.03500
H21 H 0.56400 -0.45100 -0.30000
H22 H 0.35300 -0.29600 -0.46600
H23 H 0.19500 -0.14500 -0.31900
#END
