
#######################################################################
#
#                 Cambridge Crystallographic Data Centre
#                                CCDC
#
#######################################################################
#
# If this CIF has been generated from an entry in the Cambridge
# Structural Database, then it will include bibliographic, chemical,
# crystal, experimental, refinement or atomic coordinate data resulting
# from the CCDC's data processing and validation procedures.
#
#######################################################################

data_CSD_CIF_BIKZIH
_audit_creation_date 2018-07-13
_audit_creation_method CSD-ConQuest-V1
_database_code_CSD BIKZIH
_database_code_depnum_ccdc_archive 'CCDC 1524108'
_chemical_formula_sum 'C25 H24 N4 O1'
_chemical_formula_moiety
;
C25 H24 N4 O1
;
_journal_coden_Cambridge 1220
_journal_volume 24
_journal_year 2018
_journal_page_first 7939
_journal_name_full 'Chem.-Eur.J. '
loop_
_publ_author_name
"Y.Takahashi"
"R.Matsuhashi"
"Y.Miura"
"N.Yoshioka"
_chemical_name_systematic
;
6,6,8,8-tetramethyl-1,3-diphenyl-6,8-dihydro-7H-[1,2,4]triazino[5,6-f]isoindol
-1-ium-7-olate
;
_chemical_melting_point 483
_cell_volume   2121.450
_exptl_crystal_colour 'black'
_exptl_crystal_density_diffrn 1.241
_exptl_special_details
;
Melting point range 483-484K

;
_exptl_crystal_description 'prism'
_diffrn_ambient_temperature 296
#These two values have been output from a single CSD field.
_refine_ls_R_factor_gt 0.0507
_refine_ls_wR_factor_gt 0.0507
_symmetry_cell_setting monoclinic
_symmetry_space_group_name_H-M 'P 21/c'
_symmetry_Int_Tables_number 14
loop_
_symmetry_equiv_pos_site_id
_symmetry_equiv_pos_as_xyz
1 x,y,z
2 -x,1/2+y,1/2-z
3 -x,-y,-z
4 x,-1/2-y,-1/2+z
_cell_length_a 5.9298(8)
_cell_length_b 22.301(3)
_cell_length_c 16.060(2)
_cell_angle_alpha 90
_cell_angle_beta 92.685(5)
_cell_angle_gamma 90
_cell_formula_units_Z 4
loop_
_atom_type_symbol
_atom_type_radius_bond
C 0.68
H 0.23
N 0.68
O 0.68
loop_
_atom_site_label
_atom_site_type_symbol
_atom_site_fract_x
_atom_site_fract_y
_atom_site_fract_z
N1 N 0.2543(3) 0.53842(7) 0.2084(1)
N2 N 0.2025(3) 0.55790(7) 0.35279(10)
N3 N 0.0734(3) 0.57489(7) 0.18824(10)
N4 N -0.4632(4) 0.75429(9) 0.36620(13)
C1 C 0.0331(3) 0.59772(8) 0.33117(12)
C2 C -0.0322(3) 0.60879(8) 0.24683(12)
C3 C 0.0135(3) 0.57856(8) 0.10099(12)
C4 C 0.3053(3) 0.53255(8) 0.28971(12)
C5 C 0.5023(3) 0.49330(8) 0.31145(13)
C6 C -0.0695(3) 0.63029(9) 0.39326(13)
H1 H -0.03610 0.62170 0.44910
C7 C -0.2722(3) 0.68806(8) 0.28796(13)
C8 C 0.1686(3) 0.59916(9) 0.04679(13)
H2 H 0.31020 0.61200 0.06680
C9 C -0.1848(3) 0.65477(8) 0.22494(13)
H3 H -0.22590 0.66260 0.16940
C10 C 0.5956(4) 0.45610(9) 0.25323(14)
H4 H 0.53480 0.45530 0.19880
C11 C -0.1976(3) 0.56030(9) 0.07214(13)
H5 H -0.30310 0.54720 0.10920
C12 C -0.2210(3) 0.67532(9) 0.37133(13)
C13 C -0.0954(4) 0.58169(9) -0.06666(13)
H6 H -0.13160 0.58230 -0.12360
C14 C 0.7779(4) 0.42025(10) 0.27541(16)
H7 H 0.83800 0.39490 0.23610
C15 C 0.1126(4) 0.60067(9) -0.03712(13)
H8 H 0.21670 0.61470 -0.07410
C16 C -0.2509(4) 0.56174(9) -0.01224(14)
H9 H -0.39270 0.54920 -0.03250
C17 C -0.3386(4) 0.71647(10) 0.42910(14)
C18 C -0.4203(3) 0.74266(9) 0.27827(14)
C19 C 0.5972(4) 0.49396(9) 0.39125(15)
H10 H 0.53680 0.51890 0.43090
C20 C 0.8709(4) 0.42171(11) 0.35483(16)
H11 H 0.99550 0.39790 0.36920
C21 C -0.1777(5) 0.75425(12) 0.48262(18)
H12 H -0.10190 0.72940 0.52390
H13 H -0.26050 0.78500 0.50970
H14 H -0.06830 0.77230 0.44830
C22 C 0.7802(4) 0.45833(11) 0.41361(16)
H15 H 0.84190 0.45900 0.46790
C23 C -0.2923(4) 0.79543(10) 0.2428(2)
H16 H -0.38480 0.83070 0.24350
H17 H -0.25560 0.78670 0.18650
H18 H -0.15580 0.80210 0.27600
C24 C -0.5062(4) 0.68313(13) 0.48240(17)
H19 H -0.60200 0.65820 0.44720
H20 H -0.59680 0.71170 0.51060
H21 H -0.42480 0.65870 0.52280
C25 C -0.6409(4) 0.73244(12) 0.2291(2)
H22 H -0.72410 0.70120 0.25490
H23 H -0.61040 0.72090 0.17310
H24 H -0.72800 0.76870 0.22800
O1 O -0.5907(4) 0.79652(10) 0.38783(14)
#END
