
#######################################################################
#
#                 Cambridge Crystallographic Data Centre
#                                CCDC
#
#######################################################################
#
# If this CIF has been generated from an entry in the Cambridge
# Structural Database, then it will include bibliographic, chemical,
# crystal, experimental, refinement or atomic coordinate data resulting
# from the CCDC's data processing and validation procedures.
#
#######################################################################

data_CSD_CIF_BILDOR01
_audit_creation_date 2016-11-16
_audit_creation_method CSD-ConQuest-V1
_database_code_CSD BILDOR01
_database_code_depnum_ccdc_archive 'CCDC 1413102'
_chemical_formula_sum 'C16 H10 N2 O5'
_chemical_formula_moiety
;
C16 H10 N2 O5
;
_journal_coden_Cambridge 1078
_journal_year 2016
_journal_name_full 'CSD Communication(Private Communication) '
loop_
_publ_author_name
"L.R.Gomes"
"J.N.Low"
"F.Borges"
_chemical_name_systematic
;
N-(2-nitrophenyl)-4-oxo-4H-chromene-2-carboxamide
;
_cell_volume   1309.113
_exptl_crystal_colour 'colorless'
_exptl_crystal_density_diffrn 1.574
_exptl_crystal_description 'prism'
_diffrn_ambient_temperature 100
#These two values have been output from a single CSD field.
_refine_ls_R_factor_gt 0.0432
_refine_ls_wR_factor_gt 0.0432
_symmetry_cell_setting monoclinic
_symmetry_space_group_name_H-M 'P 21/c'
_symmetry_Int_Tables_number 14
loop_
_symmetry_equiv_pos_site_id
_symmetry_equiv_pos_as_xyz
1 x,y,z
2 -x,1/2+y,1/2-z
3 -x,-y,-z
4 x,-1/2-y,-1/2+z
_cell_length_a 12.2931(4)
_cell_length_b 5.9050(2)
_cell_length_c 18.2775(5)
_cell_angle_alpha 90
_cell_angle_beta 99.360(3)
_cell_angle_gamma 90
_cell_formula_units_Z 4
loop_
_atom_type_symbol
_atom_type_radius_bond
C 0.68
H 0.23
N 0.68
O 0.68
loop_
_atom_site_label
_atom_site_type_symbol
_atom_site_fract_x
_atom_site_fract_y
_atom_site_fract_z
O1 O 0.28608(9) 0.68815(18) 0.58725(6)
O2 O 0.22048(10) 1.01630(19) 0.38759(6)
O3 O 0.08690(9) 0.30138(19) 0.50365(6)
O4 O 0.32814(10) 0.3888(2) 0.74423(6)
O5 O 0.36809(10) 0.1012(2) 0.81650(6)
N1 N 0.18509(11) 0.3324(2) 0.62200(7)
H1 H 0.2343(17) 0.412(3) 0.6453(11)
N2 N 0.30835(11) 0.1969(2) 0.76532(7)
C1 C 0.15291(12) 0.3982(3) 0.55019(8)
C2 C 0.20867(12) 0.6111(3) 0.53077(8)
C3 C 0.18438(13) 0.7131(3) 0.46473(8)
H2 H 0.12940 0.64920 0.42800
C4 C 0.24009(13) 0.9193(3) 0.44782(8)
C5 C 0.32396(12) 1.0006(3) 0.50936(8)
C6 C 0.38602(13) 1.1966(3) 0.50298(9)
H3 H 0.37430 1.28110 0.45820
C7 C 0.46413(13) 1.2674(3) 0.56145(9)
H4 H 0.50490 1.40200 0.55710
C8 C 0.48343(13) 1.1417(3) 0.62718(9)
H5 H 0.53790 1.19060 0.66700
C9 C 0.42418(13) 0.9478(3) 0.63467(9)
H6 H 0.43760 0.86140 0.67910
C10 C 0.34430(12) 0.8808(3) 0.57592(8)
C11 C 0.15382(13) 0.1395(3) 0.65745(8)
C12 C 0.21150(12) 0.0732(3) 0.72765(8)
C13 C 0.18236(13) -0.1192(3) 0.76309(9)
H7 H 0.22310 -0.16120 0.80980
C14 C 0.09451(14) -0.2506(3) 0.73096(9)
H8 H 0.07370 -0.38140 0.75560
C15 C 0.03678(13) -0.1888(3) 0.66190(9)
H9 H -0.02370 -0.27850 0.63950
C16 C 0.06620(13) 0.0005(3) 0.62564(8)
H10 H 0.02640 0.03770 0.57820
#END
