
#######################################################################
#
#                 Cambridge Crystallographic Data Centre
#                                CCDC
#
#######################################################################
#
# If this CIF has been generated from an entry in the Cambridge
# Structural Database, then it will include bibliographic, chemical,
# crystal, experimental, refinement or atomic coordinate data resulting
# from the CCDC's data processing and validation procedures.
#
#######################################################################

data_CSD_CIF_BIMPIZ
_audit_creation_date 2018-07-13
_audit_creation_method CSD-ConQuest-V1
_database_code_CSD BIMPIZ
_database_code_depnum_ccdc_archive 'CCDC 1845538'
_chemical_formula_sum 'C27 H25 N1 O1'
_chemical_formula_moiety
;
C27 H25 N1 O1
;
_journal_coden_Cambridge 1336
_journal_volume 20
_journal_year 2018
_journal_page_first 4571
_journal_name_full 'Org.Lett. '
loop_
_publ_author_name
"Xiao-Pan Ma"
"Liang-Gui Li"
"Hong-Ping Zhao"
"Min Du"
"Cui Liang"
"Dong-Liang Mo"
_chemical_name_systematic
;
3,4-dimethyl-5-phenyl-7-(2-phenylethenyl)-4,5-dihydro-1,2-benzoxazonine
;
_cell_volume   2134.492
_exptl_crystal_colour 'colorless'
_exptl_crystal_density_diffrn 1.181
_exptl_crystal_description 'irregular'
_diffrn_ambient_temperature 296.1
#These two values have been output from a single CSD field.
_refine_ls_R_factor_gt 0.0418
_refine_ls_wR_factor_gt 0.0418
_symmetry_cell_setting monoclinic
_symmetry_space_group_name_H-M 'P 21/c'
_symmetry_Int_Tables_number 14
loop_
_symmetry_equiv_pos_site_id
_symmetry_equiv_pos_as_xyz
1 x,y,z
2 -x,1/2+y,1/2-z
3 -x,-y,-z
4 x,-1/2-y,-1/2+z
_cell_length_a 12.926(2)
_cell_length_b 14.446(2)
_cell_length_c 11.4732(19)
_cell_angle_alpha 90
_cell_angle_beta 94.918(3)
_cell_angle_gamma 90
_cell_formula_units_Z 4
loop_
_atom_type_symbol
_atom_type_radius_bond
C 0.68
H 0.23
N 0.68
O 0.68
loop_
_atom_site_label
_atom_site_type_symbol
_atom_site_fract_x
_atom_site_fract_y
_atom_site_fract_z
O1 O 0.08716(7) 0.13341(6) 0.25021(8)
N1 N 0.03627(9) 0.18741(8) 0.33578(10)
C1 C 0.30522(10) 0.14292(9) 0.23523(11)
H1 H 0.35130 0.17650 0.19380
C2 C 0.19427(10) 0.00406(9) 0.24418(11)
C3 C 0.38074(10) 0.20411(9) 0.42405(11)
C4 C 0.27874(10) -0.04735(9) -0.11967(11)
C5 C 0.30054(10) 0.03667(9) 0.07160(11)
H2 H 0.36020 0.06420 0.04770
C6 C 0.27949(10) 0.18334(9) 0.35072(11)
H3 H 0.24300 0.13540 0.39170
C7 C 0.26882(9) 0.06382(9) 0.18589(11)
C8 C 0.10444(10) 0.04231(9) 0.28320(11)
C9 C 0.20655(10) 0.27163(9) 0.33967(12)
H4 H 0.23650 0.31550 0.39840
C10 C 0.21405(11) -0.08947(10) 0.26810(13)
H5 H 0.27200 -0.11740 0.24050
C11 C 0.2518(1) -0.02412(9) -0.00175(11)
H6 H 0.19510 -0.05480 0.02470
C12 C 0.09669(11) 0.25441(9) 0.37053(12)
C13 C 0.14894(13) -0.14105(11) 0.33214(14)
H7 H 0.16320 -0.20320 0.34760
C14 C 0.44349(11) 0.27833(10) 0.39945(14)
H8 H 0.42420 0.31630 0.33580
C15 C 0.20566(12) -0.09176(10) -0.19692(13)
H9 H 0.14100 -0.10650 -0.17230
C16 C 0.41333(11) 0.14763(10) 0.51702(13)
H10 H 0.37380 0.09630 0.53360
C17 C 0.37582(12) -0.02833(10) -0.15877(13)
H11 H 0.42640 0.00050 -0.10880
C18 C 0.03901(11) -0.00841(10) 0.34795(13)
H12 H -0.02000 0.01870 0.37420
C19 C 0.20494(12) 0.32236(11) 0.22264(14)
H13 H 0.27430 0.34050 0.20880
H14 H 0.16190 0.37640 0.22460
H15 H 0.17760 0.28210 0.16100
C20 C 0.56417(12) 0.24155(11) 0.56275(15)
H16 H 0.62420 0.25510 0.61020
C21 C 0.53452(12) 0.29652(11) 0.46847(15)
H17 H 0.57580 0.34640 0.45060
C22 C 0.39787(14) -0.05175(11) -0.27070(15)
H18 H 0.46290 -0.03880 -0.29560
C23 C 0.50502(12) 0.16666(12) 0.58655(15)
H19 H 0.52580 0.12820 0.64920
C24 C 0.06250(13) -0.09997(11) 0.37311(14)
H20 H 0.01980 -0.13430 0.41800
C25 C 0.04856(13) 0.32445(11) 0.44619(15)
H21 H 0.04630 0.38360 0.40790
H22 H 0.08930 0.32910 0.51990
H23 H -0.02070 0.30540 0.45910
C26 C 0.32268(17) -0.09469(13) -0.34601(15)
H24 H 0.33720 -0.11010 -0.42160
C27 C 0.22731(16) -0.11421(12) -0.30891(15)
H25 H 0.17700 -0.14270 -0.35940
#END
