
#######################################################################
#
#                 Cambridge Crystallographic Data Centre
#                                CCDC
#
#######################################################################
#
# If this CIF has been generated from an entry in the Cambridge
# Structural Database, then it will include bibliographic, chemical,
# crystal, experimental, refinement or atomic coordinate data resulting
# from the CCDC's data processing and validation procedures.
#
#######################################################################

data_CSD_CIF_BIMPUJ
_audit_creation_date 2005-03-03
_audit_creation_method CSD-ConQuest-V1
_database_code_CSD BIMPUJ
_database_code_depnum_ccdc_archive 'CCDC 256398'
_chemical_formula_sum 'C26 H26 N6 O4'
_chemical_formula_moiety
;
C26 H26 N6 O4
;
_journal_coden_Cambridge 1088
_journal_volume 2004
_journal_year 2004
_journal_page_first 2000
_journal_name_full 'Synlett '
loop_
_publ_author_name
"I.-C.Grig-Alexa"
"E.Garnier"
"A.-L.Finaru"
"L.Ivan"
"C.Jarry"
"J.-M.Leger"
"P.Caubere"
"G.Guillaumet"
_chemical_name_systematic
;
6,13-Dibutyl-3,14-dinitro-6,13-dihydroquino(3',2':5,6)pyrazino(2,3-b)quinoline
;
_cell_volume   2396.462
_exptl_crystal_density_diffrn 1.348
_diffrn_ambient_temperature 296
#These two values have been output from a single CSD field.
_refine_ls_R_factor_gt 0.0798
_refine_ls_wR_factor_gt 0.0798
_symmetry_cell_setting monoclinic
_symmetry_space_group_name_H-M 'P 21/n'
_symmetry_Int_Tables_number 14
loop_
_symmetry_equiv_pos_site_id
_symmetry_equiv_pos_as_xyz
1 x,y,z
2 1/2-x,1/2+y,1/2-z
3 -x,-y,-z
4 -1/2+x,-1/2-y,-1/2+z
_cell_length_a 12.449(3)
_cell_length_b 9.153(3)
_cell_length_c 21.707(3)
_cell_angle_alpha 90
_cell_angle_beta 104.33(2)
_cell_angle_gamma 90
_cell_formula_units_Z 4
loop_
_atom_type_symbol
_atom_type_radius_bond
C 0.68
H 0.23
N 0.68
O 0.68
loop_
_atom_site_label
_atom_site_type_symbol
_atom_site_fract_x
_atom_site_fract_y
_atom_site_fract_z
C1 C 0.7525(10) -0.4988(14) 0.2284(5)
H1 H 0.69780 -0.56580 0.23150
C2 C 0.8606(10) -0.5053(13) 0.2690(5)
H2 H 0.87630 -0.57980 0.29910
C3 C 0.9421(10) -0.4101(13) 0.2668(5)
H3 H 1.01140 -0.41700 0.29520
C4 C 0.9191(8) -0.3010(12) 0.2207(5)
C5 C 0.8145(8) -0.2889(12) 0.1782(5)
C6 C 0.7324(8) -0.3870(12) 0.1836(4)
H4 H 0.66200 -0.37770 0.15660
C7 C 1.0005(8) -0.2012(11) 0.2140(4)
H5 H 1.07180 -0.21050 0.24000
C8 C 0.9784(9) -0.0897(12) 0.1702(4)
C9 C 0.8709(9) -0.0994(11) 0.1266(5)
N1 N 0.7901(7) -0.1844(10) 0.1307(3)
N2 N 1.0538(7) 0.0200(9) 0.1629(4)
C10 C 1.0396(8) 0.0832(11) 0.1050(5)
C11 C 0.9330(8) 0.0882(12) 0.0630(4)
N3 N 0.8464(7) 0.0102(9) 0.0785(4)
C12 C 1.1213(9) 0.1627(11) 0.0880(5)
C13 C 1.0994(8) 0.2521(11) 0.0306(4)
C14 C 0.9855(8) 0.2517(12) -0.0059(4)
N4 N 0.9073(7) 0.1658(9) 0.0109(4)
C15 C 1.1764(8) 0.3450(11) 0.0107(5)
H6 H 1.25060 0.34510 0.03300
C16 C 1.1422(9) 0.4326(12) -0.0403(4)
H7 H 1.19140 0.49640 -0.05240
C17 C 1.0319(10) 0.4260(12) -0.0745(5)
C18 C 0.9544(9) 0.3397(12) -0.0593(4)
H8 H 0.88180 0.33940 -0.08410
N5 N 0.9973(9) 0.5270(11) -0.1275(5)
O1 O 1.0628(7) 0.6209(9) -0.1382(3)
O2 O 0.9022(7) 0.5185(8) -0.1627(3)
C19 C 1.1284(8) 0.0749(13) 0.2219(4)
H9 H 1.16700 0.15980 0.21140
H10 H 1.18370 0.00050 0.23800
C20 C 1.0739(8) 0.1168(13) 0.2747(4)
H11 H 1.01480 0.18610 0.25820
H12 H 1.04070 0.03040 0.28820
C21 C 1.1517(11) 0.1817(15) 0.3304(5)
H13 H 1.21560 0.11770 0.34270
H14 H 1.17760 0.27380 0.31730
C22 C 1.1101(10) 0.2089(15) 0.3867(5)
H15 H 1.16810 0.25020 0.41970
H16 H 1.08590 0.11850 0.40130
H17 H 1.04890 0.27580 0.37620
C23 C 0.7299(8) 0.0283(12) 0.0409(5)
H18 H 0.68690 -0.05830 0.04440
H19 H 0.72760 0.04400 -0.00360
C24 C 0.6817(10) 0.1651(16) 0.0690(6)
H20 H 0.69790 0.15530 0.11490
H21 H 0.71910 0.25210 0.05960
C25 C 0.5669(11) 0.1839(18) 0.0454(7)
H22 H 0.52890 0.10220 0.05910
H23 H 0.54950 0.18240 -0.00070
C26 C 0.5225(11) 0.3280(17) 0.0674(7)
H24 H 0.44360 0.33290 0.05080
H25 H 0.55670 0.40970 0.05200
H26 H 0.53980 0.33080 0.11300
N6 N 1.2382(9) 0.1497(13) 0.1221(4)
O3 O 1.2944(6) 0.2587(10) 0.1387(4)
O4 O 1.2729(6) 0.0217(10) 0.1334(4)
#END
