
#######################################################################
#
#                 Cambridge Crystallographic Data Centre
#                                CCDC
#
#######################################################################
#
# If this CIF has been generated from an entry in the Cambridge
# Structural Database, then it will include bibliographic, chemical,
# crystal, experimental, refinement or atomic coordinate data resulting
# from the CCDC's data processing and validation procedures.
#
#######################################################################

data_CSD_CIF_BINROF
_audit_creation_date 1983-04-12
_audit_creation_method CSD-ConQuest-V1
_database_code_CSD BINROF
_chemical_formula_sum 'C8 H6 N8 O4'
_chemical_formula_moiety
;
C8 H6 N8 O4
;
_journal_coeditor_code "IUCr A21494"
_journal_coden_Cambridge 107
_journal_volume 38
_journal_year 1982
_journal_page_first 2487
_journal_name_full 'Acta Crystallogr.,Sect.B:Struct.Crystallogr.Cryst.Chem. '
loop_
_publ_author_name
"D.S.S.Gowda"
"R.Rudman"
"K.R.Acharya"
_chemical_name_systematic
;
2,4-Dinitrobenzaldehyde-(1H-tetrazol-5-yl)hydrazone
;
_cell_volume   1141.760
_exptl_crystal_colour 'yellow'
_exptl_crystal_density_diffrn 1.62
_diffrn_ambient_temperature ?
_diffrn_special_details
;
The study was carried out at room temperature,in the range 283-303K

;
#These two values have been output from a single CSD field.
_refine_ls_R_factor_gt 0.049
_refine_ls_wR_factor_gt 0.049
_symmetry_cell_setting monoclinic
_symmetry_space_group_name_H-M 'P 21/n'
_symmetry_Int_Tables_number 14
loop_
_symmetry_equiv_pos_site_id
_symmetry_equiv_pos_as_xyz
1 x,y,z
2 1/2-x,1/2+y,1/2-z
3 -x,-y,-z
4 -1/2+x,-1/2-y,-1/2+z
_cell_length_a 10.991(2)
_cell_length_b 9.056(2)
_cell_length_c 11.706(2)
_cell_angle_alpha 90
_cell_angle_beta 101.50(1)
_cell_angle_gamma 90
_cell_formula_units_Z 4
loop_
_atom_type_symbol
_atom_type_radius_bond
C 0.68
H 0.23
N 0.68
O 0.68
loop_
_atom_site_label
_atom_site_type_symbol
_atom_site_fract_x
_atom_site_fract_y
_atom_site_fract_z
O1 O -0.12460 0.48000 0.06070
O2 O 0.00340 0.65370 0.12640
O3 O 0.08500 0.00390 0.12070
O4 O 0.17700 -0.05280 0.29560
N1 N 0.21580 0.79370 0.68500
N2 N 0.24900 0.88730 0.77690
N3 N 0.18560 1.00600 0.74820
N4 N 0.11280 0.99730 0.63960
N5 N 0.08070 0.80660 0.49890
N6 N 0.11270 0.66610 0.47150
N7 N -0.03590 0.52830 0.12840
N8 N 0.12490 0.03290 0.22220
C1 C 0.08180 0.47470 0.32960
C2 C 0.03250 0.42620 0.21700
C3 C 0.04500 0.28340 0.18000
C4 C 0.11130 0.18790 0.25930
C5 C 0.16490 0.22850 0.37170
C6 C 0.14840 0.37210 0.40650
C7 C 0.06140 0.62410 0.37000
C8 C 0.13410 0.86320 0.60300
H1 H 0.24700 0.71500 0.68200
H2 H 0.03600 0.86000 0.45200
H3 H 0.00700 0.25500 0.10300
H4 H 0.21400 0.15200 0.42400
H5 H 0.18600 0.40200 0.48700
H6 H 0.00000 0.67300 0.31900
#END
