
#######################################################################
#
#                 Cambridge Crystallographic Data Centre
#                                CCDC
#
#######################################################################
#
# If this CIF has been generated from an entry in the Cambridge
# Structural Database, then it will include bibliographic, chemical,
# crystal, experimental, refinement or atomic coordinate data resulting
# from the CCDC's data processing and validation procedures.
#
#######################################################################

data_CSD_CIF_BINSUM
_audit_creation_date 1983-04-12
_audit_creation_method CSD-ConQuest-V1
_database_code_CSD BINSUM
_chemical_formula_sum 'C6 H6 N8 O14'
_chemical_formula_moiety
;
C6 H6 N8 O14
;
_journal_coeditor_code "IUCr A21499"
_journal_coden_Cambridge 107
_journal_volume 38
_journal_year 1982
_journal_page_first 2503
_journal_name_full 'Acta Crystallogr.,Sect.B:Struct.Crystallogr.Cryst.Chem. '
loop_
_publ_author_name
"S.K.Bhattacharjee"
"H.L.Ammon"
_chemical_name_systematic
;
N,N'-bis(2,2,2-Trinitroethyl)-oxamide
;
_cell_volume    382.554
_exptl_crystal_density_diffrn 1.8
_diffrn_ambient_temperature ?
_diffrn_special_details
;
The study was carried out at room temperature,in the range 283-303K

;
#These two values have been output from a single CSD field.
_refine_ls_R_factor_gt 0.032
_refine_ls_wR_factor_gt 0.032
_symmetry_cell_setting triclinic
_symmetry_space_group_name_H-M 'P -1'
_symmetry_Int_Tables_number 2
loop_
_symmetry_equiv_pos_site_id
_symmetry_equiv_pos_as_xyz
1 x,y,z
2 -x,-y,-z
_cell_length_a 6.6574(2)
_cell_length_b 6.6855(3)
_cell_length_c 8.9634(4)
_cell_angle_alpha 86.715(6)
_cell_angle_beta 81.263(6)
_cell_angle_gamma 76.025(6)
_cell_formula_units_Z 1
loop_
_atom_type_symbol
_atom_type_radius_bond
C 0.68
H 0.23
N 0.68
O 0.68
loop_
_atom_site_label
_atom_site_type_symbol
_atom_site_fract_x
_atom_site_fract_y
_atom_site_fract_z
C1 C 0.49990 0.39100 0.47680
C2 C 0.46420 0.19470 0.26750
C3 C 0.25410 0.19340 0.22140
N1 N 0.45990 0.38660 0.33500
N2 N 0.07260 0.28900 0.33970
N3 N 0.21790 0.31130 0.07310
N4 N 0.23690 -0.02490 0.19640
O1 O 0.53260 0.24520 0.56290
O2 O 0.09010 0.22610 0.46660
O3 O -0.06990 0.41770 0.29680
O4 O 0.12550 0.24410 -0.01050
O5 O 0.28790 0.46320 0.05320
O6 O 0.39090 -0.13090 0.12470
O7 O 0.07640 -0.07200 0.24690
H1 H 0.45500 0.48900 0.28000
H2 H 0.56900 0.16800 0.17700
H3 H 0.49600 0.08500 0.34000
C1A C 0.50010 0.60900 0.52320
N1A N 0.54010 0.61340 0.66500
O1A O 0.46740 0.75480 0.43710
C2A C 0.53580 0.80530 0.73250
H1A H 0.54500 0.51100 0.72000
C3A C 0.74590 0.80660 0.77860
H2A H 0.43100 0.83200 0.82300
H3A H 0.50400 0.91500 0.66000
N2A N 0.92740 0.71100 0.66030
N3A N 0.78210 0.68870 0.92690
N4A N 0.76310 1.02490 0.80360
O2A O 0.90990 0.77390 0.53340
O3A O 1.06990 0.58230 0.70320
O4A O 0.87450 0.75590 1.01050
O5A O 0.71210 0.53680 0.94680
O6A O 0.60910 1.13090 0.87530
O7A O 0.92360 1.07200 0.75310
#END
