
#######################################################################
#
#                 Cambridge Crystallographic Data Centre
#                                CCDC
#
#######################################################################
#
# If this CIF has been generated from an entry in the Cambridge
# Structural Database, then it will include bibliographic, chemical,
# crystal, experimental, refinement or atomic coordinate data resulting
# from the CCDC's data processing and validation procedures.
#
#######################################################################

data_CSD_CIF_BIRJER
_audit_creation_date 1983-04-11
_audit_creation_method CSD-ConQuest-V1
_database_code_CSD BIRJER
_database_code_depnum_ccdc_archive 'CCDC 1111512'
_chemical_formula_sum 'C10 H14 N3 O1'
_chemical_formula_moiety
;
C10 H14 N3 O1
;
_journal_coden_Cambridge 15
_journal_volume 60
_journal_year 1982
_journal_page_first 1439
_journal_name_full 'Can.J.Chem. '
loop_
_publ_author_name
"J.F.W.Keana"
"K.Hideg"
"G.B.Birrell"
"O.H.Hankovszky"
"G.Ferguson"
"M.Parvez"
_chemical_name_systematic
;
trans-1-Oxyl-2,2,5,5-tetramethyl-3,4-dicyanopyrrolidine
;
_chemical_melting_point 419.15
_cell_volume   2202.067
_exptl_crystal_density_diffrn 1.16
_exptl_special_details
;
Melting point range 419.15-420.15K

;
_diffrn_ambient_temperature ?
_diffrn_special_details
;
The study was carried out at room temperature,in the range 283-303K

;
#These two values have been output from a single CSD field.
_refine_ls_R_factor_gt 0.058
_refine_ls_wR_factor_gt 0.058
_symmetry_cell_setting orthorhombic
_symmetry_space_group_name_H-M 'P b c n'
_symmetry_Int_Tables_number 60
loop_
_symmetry_equiv_pos_site_id
_symmetry_equiv_pos_as_xyz
1 x,y,z
2 1/2-x,1/2-y,1/2+z
3 1/2+x,1/2-y,-z
4 -x,y,1/2-z
5 -x,-y,-z
6 -1/2+x,-1/2+y,-1/2-z
7 -1/2-x,-1/2+y,z
8 x,-y,-1/2+z
_cell_length_a 19.155(2)
_cell_length_b 7.634(1)
_cell_length_c 15.059(3)
_cell_angle_alpha 90
_cell_angle_beta 90
_cell_angle_gamma 90
_cell_formula_units_Z 8
loop_
_atom_type_symbol
_atom_type_radius_bond
C 0.68
H 0.23
N 0.68
O 0.68
loop_
_atom_site_label
_atom_site_type_symbol
_atom_site_fract_x
_atom_site_fract_y
_atom_site_fract_z
O1 O 0.18610 0.03130 0.05770
N1 N 0.15910 -0.12030 0.06100
N2 N 0.10840 -0.62580 0.22160
N3 N 0.07610 -0.63740 -0.07490
C1 C 0.13840 -0.20130 0.14600
C2 C 0.10350 -0.36920 0.11110
C3 C 0.13850 -0.40520 0.02290
C4 C 0.14470 -0.22160 -0.02110
C5 C 0.20230 -0.22900 0.20350
C6 C 0.08570 -0.08790 0.19240
C7 C 0.10660 -0.51600 0.17400
C8 C 0.10190 -0.53580 -0.03370
C9 C 0.20570 -0.21410 -0.08380
C10 C 0.07910 -0.15320 -0.06490
H1 H 0.05460 -0.35480 0.10350
H2 H 0.18300 -0.45760 0.03140
H3 H 0.18970 -0.28090 0.25860
H4 H 0.22380 -0.11880 0.21410
H5 H 0.23400 -0.30350 0.17320
H6 H 0.07190 -0.14090 0.24670
H7 H 0.04600 -0.07380 0.15530
H8 H 0.10580 0.02340 0.20410
H9 H 0.19580 -0.27940 -0.13600
H10 H 0.24530 -0.26290 -0.05500
H11 H 0.21520 -0.09590 -0.09940
H12 H 0.06940 -0.21860 -0.11710
H13 H 0.08510 -0.03330 -0.07990
H14 H 0.04130 -0.16450 -0.02450
#END
