
#######################################################################
#
#                 Cambridge Crystallographic Data Centre
#                                CCDC
#
#######################################################################
#
# If this CIF has been generated from an entry in the Cambridge
# Structural Database, then it will include bibliographic, chemical,
# crystal, experimental, refinement or atomic coordinate data resulting
# from the CCDC's data processing and validation procedures.
#
#######################################################################

data_CSD_CIF_BISLEU
_audit_creation_date 1981-03-19
_audit_creation_method CSD-ConQuest-V1
_database_code_CSD BISLEU
_database_code_depnum_ccdc_archive 'CCDC 1111619'
_chemical_formula_sum 'C21 H24 N2 O7'
_chemical_formula_moiety
;
C21 H24 N2 O7
;
_journal_coeditor_code "IUCr A19178"
_journal_coden_Cambridge 107
_journal_volume 36
_journal_year 1980
_journal_page_first 2447
_journal_name_full 'Acta Crystallogr.,Sect.B:Struct.Crystallogr.Cryst.Chem. '
loop_
_publ_author_name
"Z.Urbanczyk-Lipkowska"
"J.W.Krajewski"
"P.Gluzinski"
"A.W.Lipkowski"
"S.Drabarek"
_chemical_name_systematic
;
N-Benzyloxycarbonyl-L-isoleucine-4-nitro-guaiacyl ester
;
_cell_volume   1058.153
_diffrn_ambient_temperature ?
_diffrn_special_details
;
The study was carried out at room temperature,in the range 283-303K

;
#These two values have been output from a single CSD field.
_refine_ls_R_factor_gt 0.044
_refine_ls_wR_factor_gt 0.044
_symmetry_cell_setting monoclinic
_symmetry_space_group_name_H-M 'P 21'
_symmetry_Int_Tables_number 4
loop_
_symmetry_equiv_pos_site_id
_symmetry_equiv_pos_as_xyz
1 x,y,z
2 -x,1/2+y,-z
_cell_length_a 19.433(3)
_cell_length_b 5.143(2)
_cell_length_c 10.926(3)
_cell_angle_alpha 90
_cell_angle_beta 104.30(2)
_cell_angle_gamma 90
_cell_formula_units_Z 2
loop_
_atom_type_symbol
_atom_type_radius_bond
C 0.68
N 0.68
O 0.68
loop_
_atom_site_label
_atom_site_type_symbol
_atom_site_fract_x
_atom_site_fract_y
_atom_site_fract_z
C1 C 1.01180 0.12360 0.14630
O1 O 0.95300 0.30440 0.11360
C2 C 0.88680 0.20550 0.07930
O2 O 0.87400 -0.02500 0.07580
N1 N 0.84030 0.40040 0.05060
C3 C 0.76510 0.34370 0.01620
C4 C 0.73890 0.32770 0.13720
O3 O 0.76280 0.45400 0.22830
O4 O 0.68610 0.14950 0.12810
C5 C 0.72310 0.55940 -0.06990
C6 C 0.75590 0.62100 -0.18220
C7 C 0.64460 0.49070 -0.11490
C8 C 0.75570 0.39500 -0.27120
N2 N 0.57910 0.09010 0.55870
O5 O 0.53690 0.25800 0.57140
O6 O 0.60060 -0.08350 0.63260
O7 O 0.57870 0.46310 0.14660
C9 C 0.51800 0.62080 0.14830
C10 C 1.05040 0.17030 0.28290
C11 C 1.03920 0.00200 0.37410
C12 C 1.07390 0.04430 0.49930
C13 C 1.12000 0.24440 0.53350
C14 C 1.13280 0.41270 0.44120
C15 C 1.09730 0.37320 0.31540
C16 C 0.65880 0.13350 0.23620
C17 C 0.60300 0.30010 0.24420
C18 C 0.57610 0.28300 0.35200
C19 C 0.60650 0.10150 0.44260
C20 C 0.65960 -0.06850 0.43500
C21 C 0.68640 -0.04910 0.32970
#END
