
#######################################################################
#
#                 Cambridge Crystallographic Data Centre
#                                CCDC
#
#######################################################################
#
# If this CIF has been generated from an entry in the Cambridge
# Structural Database, then it will include bibliographic, chemical,
# crystal, experimental, refinement or atomic coordinate data resulting
# from the CCDC's data processing and validation procedures.
#
#######################################################################

data_CSD_CIF_BIYDET
_audit_creation_date 2008-07-22
_audit_creation_method CSD-ConQuest-V1
_database_code_CSD BIYDET
_database_code_depnum_ccdc_archive 'CCDC 651061'
_chemical_formula_sum 'C41 H59 N1 O10'
_chemical_formula_moiety
;
C41 H59 N1 O10
;
_journal_coden_Cambridge 119
_journal_volume 877
_journal_year 2008
_journal_page_first 105
_journal_name_full 'J.Mol.Struct. '
loop_
_publ_author_name
"A.Huczynski"
"T.Pospieszny"
"R.Wawrzyn"
"M.Ratajczak-Sitarz"
"A.Katrusiak"
"B.Brzezinski"
"F.Bartl"
_chemical_name_systematic
;
Lasalocid acid o-nitrobenzyl ester
;
_cell_volume   4067.551
_exptl_crystal_colour 'colorless'
_exptl_crystal_density_diffrn 1.185
_exptl_crystal_preparation 'acetonitrile'
_diffrn_ambient_temperature 293
#These two values have been output from a single CSD field.
_refine_ls_R_factor_gt 0.0506
_refine_ls_wR_factor_gt 0.0506
_symmetry_cell_setting orthorhombic
_symmetry_space_group_name_H-M 'P 21 21 21'
_symmetry_Int_Tables_number 19
loop_
_symmetry_equiv_pos_site_id
_symmetry_equiv_pos_as_xyz
1 x,y,z
2 1/2-x,-y,1/2+z
3 -x,1/2+y,1/2-z
4 1/2+x,1/2-y,-z
_cell_length_a 9.2440(7)
_cell_length_b 15.9407(12)
_cell_length_c 27.6036(17)
_cell_angle_alpha 90
_cell_angle_beta 90
_cell_angle_gamma 90
_cell_formula_units_Z 4
loop_
_atom_type_symbol
_atom_type_radius_bond
C 0.68
H 0.23
N 0.68
O 0.68
loop_
_atom_site_label
_atom_site_type_symbol
_atom_site_fract_x
_atom_site_fract_y
_atom_site_fract_z
O1 O 0.07475(16) 0.55904(11) 0.68352(7)
O2 O 0.14813(19) 0.66573(12) 0.63966(8)
O3 O -0.0320(2) 0.76423(11) 0.60051(7)
H1 H 0.04740 0.74470 0.60750
O4 O -0.08298(15) 0.57017(10) 0.85347(5)
H2 H -0.02110 0.56760 0.83220
O5 O -0.34043(18) 0.53496(11) 0.93272(6)
O6 O -0.01495(16) 0.57151(11) 0.95378(5)
O7 O 0.13166(16) 0.69758(10) 0.89706(6)
O8 O 0.18024(16) 0.61535(10) 0.80383(5)
H3 H 0.11140 0.60680 0.82190
O9 O 0.3564(3) 0.38295(15) 0.80114(8)
O10 O 0.45042(19) 0.47578(15) 0.75315(8)
N1 N 0.3684(3) 0.41712(18) 0.76154(10)
C1 C 0.0497(3) 0.62614(17) 0.65693(9)
C2 C -0.1060(2) 0.64711(15) 0.65048(8)
C3 C -0.1371(3) 0.71734(16) 0.62132(9)
C4 C -0.2794(3) 0.74297(17) 0.61211(9)
C5 C -0.3879(3) 0.69875(19) 0.63269(10)
H4 H -0.48290 0.71600 0.62790
C6 C -0.3609(3) 0.62788(17) 0.66092(9)
H5 H -0.43900 0.59880 0.67390
C7 C -0.2225(3) 0.59925(15) 0.67036(8)
C8 C -0.2090(2) 0.52320(15) 0.70283(8)
H6 H -0.12800 0.48920 0.69220
H7 H -0.29610 0.48950 0.70020
C9 C -0.1861(2) 0.54884(14) 0.75622(8)
H8 H -0.09720 0.58090 0.75850
H9 H -0.26490 0.58550 0.76580
C10 C -0.1779(2) 0.47595(14) 0.79219(8)
H10 H -0.26020 0.43890 0.78560
C11 C -0.1955(2) 0.50920(14) 0.84366(8)
H11 H -0.28820 0.53890 0.84500
C12 C -0.1963(2) 0.44381(14) 0.88403(8)
H12 H -0.09860 0.42090 0.88790
C13 C -0.2444(2) 0.48353(16) 0.93179(8)
C14 C -0.1693(2) 0.45544(16) 0.97852(8)
H13 H -0.16140 0.39420 0.97720
C15 C -0.0125(3) 0.49125(16) 0.97710(8)
H14 H 0.04740 0.45330 0.95760
C16 C 0.0633(3) 0.50537(19) 1.02586(9)
H15 H -0.00680 0.52830 1.04900
C17 C 0.1725(3) 0.57418(19) 1.01255(9)
H16 H 0.19380 0.60900 1.04050
H17 H 0.26200 0.54970 1.00090
C18 C 0.0998(3) 0.62578(18) 0.97267(9)
C19 C 0.2075(2) 0.64577(16) 0.93161(8)
H18 H 0.28660 0.67910 0.94540
C20 C 0.2731(3) 0.57192(16) 0.90552(9)
H19 H 0.19670 0.53660 0.89270
H20 H 0.32950 0.53880 0.92820
C21 C 0.3699(3) 0.60121(16) 0.86425(9)
H21 H 0.40390 0.55280 0.84630
H22 H 0.45370 0.62960 0.87760
C22 C 0.2910(2) 0.66060(15) 0.82974(8)
C23 C 0.2200(3) 0.73120(15) 0.85852(9)
H23 H 0.15400 0.75990 0.83620
C24 C 0.3242(3) 0.79861(18) 0.87805(10)
H24 H 0.27040 0.83990 0.89590
H25 H 0.37300 0.82510 0.85140
H26 H 0.39410 0.77280 0.89900
C25 C 0.3946(3) 0.69169(17) 0.79068(9)
H27 H 0.43270 0.64340 0.77360
H28 H 0.47540 0.71930 0.80640
C26 C 0.3303(3) 0.75210(18) 0.75349(9)
H29 H 0.40370 0.76810 0.73070
H30 H 0.29460 0.80120 0.76970
H31 H 0.25230 0.72500 0.73670
C27 C 0.0222(3) 0.70360(18) 0.9918(1)
H32 H -0.03780 0.72570 0.96590
H33 H -0.04210 0.68620 1.01770
C28 C 0.1158(3) 0.7743(2) 1.01071(12)
H34 H 0.05540 0.81940 1.02160
H35 H 0.17800 0.79400 0.98530
H36 H 0.17360 0.75430 1.03720
C29 C 0.1294(3) 0.4254(2) 1.04712(11)
H37 H 0.17420 0.43800 1.07760
H38 H 0.20070 0.40360 1.02520
H39 H 0.05470 0.38430 1.05190
C30 C -0.2601(3) 0.47700(18) 1.02293(9)
H40 H -0.27580 0.53710 1.02380
H41 H -0.20670 0.46170 1.05190
C31 C -0.4072(3) 0.4324(2) 1.02357(10)
H42 H -0.45920 0.44810 1.05230
H43 H -0.39250 0.37280 1.02330
H44 H -0.46180 0.44850 0.99550
C32 C -0.3029(3) 0.37149(15) 0.87433(8)
H45 H -0.29810 0.33180 0.90040
H46 H -0.27760 0.34420 0.84450
H47 H -0.39930 0.39340 0.87200
C33 C -0.0398(2) 0.42386(16) 0.78590(9)
H48 H -0.03400 0.40380 0.75320
H49 H -0.04180 0.37700 0.80780
H50 H 0.04310 0.45820 0.79280
C34 C -0.3064(3) 0.8188(2) 0.58022(11)
H51 H -0.40850 0.82880 0.57790
H52 H -0.26780 0.80850 0.54850
H53 H -0.25980 0.86700 0.59410
C35 C 0.2224(2) 0.53316(16) 0.69293(10)
H54 H 0.25100 0.54870 0.72550
H55 H 0.28810 0.55940 0.67010
C36 C 0.2245(2) 0.43913(17) 0.68701(9)
C37 C 0.2820(3) 0.38417(18) 0.72097(10)
C38 C 0.2635(3) 0.29837(19) 0.71898(13)
H56 H 0.29750 0.26420 0.74380
C39 C 0.1938(4) 0.2645(2) 0.67965(16)
H57 H 0.18270 0.20660 0.67720
C40 C 0.1409(3) 0.3155(3) 0.64405(14)
H58 H 0.09650 0.29210 0.61700
C41 C 0.1528(3) 0.4019(2) 0.64795(10)
H59 H 0.11240 0.43580 0.62410
#END
