
#######################################################################
#
#                 Cambridge Crystallographic Data Centre
#                                CCDC
#
#######################################################################
#
# If this CIF has been generated from an entry in the Cambridge
# Structural Database, then it will include bibliographic, chemical,
# crystal, experimental, refinement or atomic coordinate data resulting
# from the CCDC's data processing and validation procedures.
#
#######################################################################

data_CSD_CIF_BIYPEG
_audit_creation_date 2014-05-07
_audit_creation_method CSD-ConQuest-V1
_database_code_CSD BIYPEG
_database_code_depnum_ccdc_archive 'CCDC 945884'
_chemical_formula_sum 'C30 H31 N3 O7'
_chemical_formula_moiety
;
C30 H31 N3 O7
;
_journal_coden_Cambridge 423
_journal_volume 37
_journal_year 2013
_journal_page_first 684
_journal_name_full 'J.Chem.Res. '
loop_
_publ_author_name
"Juanjuan Liu"
"Zhengquan Zhou"
"Yan Li"
"Weijian Ye"
"Juan Yao"
"Cunde Wang"
_chemical_name_systematic
;
ethyl 3-cyano-2,4,6-tris(3-methoxyphenyl)-5-nitropiperidine-3-carboxylate
;
_cell_volume   2806.820
_exptl_crystal_colour 'colorless'
_exptl_crystal_density_diffrn 1.291
_exptl_crystal_description 'block'
_diffrn_ambient_temperature 296
_refine_special_details
;
C29',C30' and C29,C30 disordered over two sites with occupancies 0.537:0.463.

;
#These two values have been output from a single CSD field.
_refine_ls_R_factor_gt 0.0544
_refine_ls_wR_factor_gt 0.0544
_symmetry_cell_setting monoclinic
_symmetry_space_group_name_H-M 'P 21/c'
_symmetry_Int_Tables_number 14
loop_
_symmetry_equiv_pos_site_id
_symmetry_equiv_pos_as_xyz
1 x,y,z
2 -x,1/2+y,1/2-z
3 -x,-y,-z
4 x,-1/2-y,-1/2+z
_cell_length_a 13.6475(17)
_cell_length_b 17.409(2)
_cell_length_c 12.1547(14)
_cell_angle_alpha 90
_cell_angle_beta 103.603(4)
_cell_angle_gamma 90
_cell_formula_units_Z 4
loop_
_atom_type_symbol
_atom_type_radius_bond
C 0.68
H 0.23
N 0.68
O 0.68
loop_
_atom_site_label
_atom_site_type_symbol
_atom_site_fract_x
_atom_site_fract_y
_atom_site_fract_z
C1 C 0.37308(17) 0.73745(13) 0.52512(19)
H1 H 0.36690 0.74080 0.60370
C2 C 0.27902(17) 0.69454(14) 0.45812(18)
H2 H 0.26830 0.65180 0.50640
C3 C 0.18270(17) 0.74349(14) 0.43798(19)
H3 H 0.17080 0.74880 0.51400
C4 C 0.19649(17) 0.82781(13) 0.40280(18)
C5 C 0.28805(17) 0.86094(13) 0.49321(18)
H4 H 0.27550 0.85210 0.56840
C6 C 0.46970(18) 0.69521(14) 0.5269(2)
C7 C 0.52871(19) 0.71346(15) 0.4532(2)
H5 H 0.50910 0.75240 0.40020
C8 C 0.6176(2) 0.6734(2) 0.4581(3)
C9 C 0.6457(3) 0.6150(2) 0.5358(3)
H6 H 0.70490 0.58780 0.53860
C10 C 0.5874(3) 0.5973(2) 0.6076(3)
H7 H 0.60710 0.55810 0.66010
C11 C 0.4994(2) 0.63650(18) 0.6045(3)
H8 H 0.45980 0.62360 0.65440
C12 C 0.6536(3) 0.7395(2) 0.3031(3)
H9 H 0.64300 0.78870 0.33420
H10 H 0.59230 0.72290 0.25220
H11 H 0.70590 0.74370 0.26260
C13 C 0.30426(18) 0.94610(13) 0.48044(19)
C14 C 0.36674(18) 0.97396(13) 0.41394(19)
H12 H 0.39880 0.94010 0.37470
C15 C 0.38072(18) 1.05220(14) 0.4067(2)
C16 C 0.3309(2) 1.10241(16) 0.4630(2)
H13 H 0.33980 1.15510 0.45730
C17 C 0.2690(2) 1.07502(17) 0.5268(3)
H14 H 0.23520 1.10920 0.56350
C18 C 0.2560(2) 0.99708(16) 0.5374(2)
H15 H 0.21490 0.97880 0.58280
C19 C 0.4859(2) 1.03817(17) 0.2762(3)
H16 H 0.43280 1.01400 0.22120
H17 H 0.52750 0.99950 0.32050
H18 H 0.52610 1.06910 0.23820
C20 C 0.08837(18) 0.70230(14) 0.3728(2)
C21 C 0.0532(2) 0.7056(2) 0.2565(2)
H19 H 0.08790 0.73390 0.21290
C22 C -0.0334(3) 0.6667(2) 0.2056(3)
H20 H -0.05770 0.67020 0.12760
C23 C -0.0846(2) 0.6232(2) 0.2672(3)
H21 H -0.14290 0.59720 0.23140
C24 C -0.0493(2) 0.61824(16) 0.3820(2)
C25 C 0.03641(19) 0.65883(15) 0.4343(2)
H22 H 0.05920 0.65660 0.51260
C26 C -0.1645(3) 0.5195(2) 0.4012(3)
H23 H -0.13520 0.48640 0.35450
H24 H -0.22280 0.54440 0.35550
H25 H -0.18380 0.48970 0.45910
C27 C 0.21669(18) 0.83917(13) 0.2900(2)
C28 C 0.1006(2) 0.87033(15) 0.4123(2)
C29 C -0.0299(11) 0.9533(12) 0.3365(9)
H26 H -0.05840 0.93020 0.39450
H27 H -0.01210 1.00630 0.35690
C30 C -0.1013(6) 0.9486(6) 0.2239(7)
H28 H -0.07120 0.97140 0.16790
H29 H -0.16220 0.97560 0.22590
H30 H -0.11670 0.89570 0.20490
N1 N 0.37614(15) 0.81591(11) 0.48441(16)
H31 H 0.4282(19) 0.8372(14) 0.521(2)
N2 N 0.29561(16) 0.65850(14) 0.35130(18)
N3 N 0.23373(17) 0.85202(13) 0.20424(18)
O1 O 0.31594(17) 0.69783(12) 0.27946(15)
O2 O 0.2895(2) 0.58922(13) 0.3450(2)
O3 O 0.68156(18) 0.68682(18) 0.3894(2)
O4 O 0.44348(14) 1.08544(10) 0.34810(16)
O5 O -0.09279(16) 0.57592(12) 0.45219(18)
O6 O 0.06977(16) 0.86810(13) 0.49612(18)
O7 O 0.05923(14) 0.90931(12) 0.32090(18)
C31? C -0.0414(14) 0.9449(14) 0.3029(13)
H32? H -0.05180 0.96300 0.37480
H33? H -0.04490 0.98890 0.25320
C32? C -0.1193(6) 0.8914(7) 0.2542(8)
H34? H -0.11000 0.87440 0.18220
H35? H -0.18380 0.91590 0.24390
H36? H -0.11630 0.84810 0.30370
#END
