
#######################################################################
#
#                 Cambridge Crystallographic Data Centre
#                                CCDC
#
#######################################################################
#
# If this CIF has been generated from an entry in the Cambridge
# Structural Database, then it will include bibliographic, chemical,
# crystal, experimental, refinement or atomic coordinate data resulting
# from the CCDC's data processing and validation procedures.
#
#######################################################################

data_CSD_CIF_BIZDIY
_audit_creation_date 2008-07-22
_audit_creation_method CSD-ConQuest-V1
_database_code_CSD BIZDIY
_database_code_depnum_ccdc_archive 'CCDC 665351'
_chemical_formula_sum 'C19 H20 N4 O4'
_chemical_formula_moiety
;
C19 H20 N4 O4
;
_journal_coeditor_code "IUCr HK2424"
_journal_coden_Cambridge 1370
_journal_volume 64
_journal_year 2008
_journal_page_first o789
_journal_name_full 'Acta Crystallogr.,Sect.E:Struct.Rep.Online '
loop_
_publ_author_name
"M.Yousefi"
"H.Hosseini"
"V.Amani"
"M.A.Chamjangali"
"H.R.Khavasi"
_chemical_name_systematic
;
(E)-2-(N-Ethyl-4-[(4-nitrophenyl)diazenyl]anilino)ethyl acrylate
;
_chemical_melting_point 397
_cell_volume   1797.758
_exptl_crystal_colour 'orange'
_exptl_crystal_density_diffrn 1.361
_exptl_special_details
;
Melting point range 397-398K

;
_exptl_crystal_description 'plate'
_exptl_crystal_preparation 'ethanol'
_diffrn_ambient_temperature 120
#These two values have been output from a single CSD field.
_refine_ls_R_factor_gt 0.0322
_refine_ls_wR_factor_gt 0.0322
_symmetry_cell_setting orthorhombic
_symmetry_space_group_name_H-M 'P 21 21 21'
_symmetry_Int_Tables_number 19
loop_
_symmetry_equiv_pos_site_id
_symmetry_equiv_pos_as_xyz
1 x,y,z
2 1/2-x,-y,1/2+z
3 1/2+x,1/2-y,-z
4 -x,1/2+y,1/2-z
_cell_length_a 8.1518(9)
_cell_length_b 10.6651(11)
_cell_length_c 20.6782(19)
_cell_angle_alpha 90
_cell_angle_beta 90
_cell_angle_gamma 90
_cell_formula_units_Z 4
loop_
_atom_type_symbol
_atom_type_radius_bond
C 0.68
H 0.23
N 0.68
O 0.68
loop_
_atom_site_label
_atom_site_type_symbol
_atom_site_fract_x
_atom_site_fract_y
_atom_site_fract_z
C1 C 0.84633(15) 0.07549(11) 0.12849(6)
C2 C 0.82100(16) 0.18814(11) 0.16072(6)
H1 H 0.90100 0.25030 0.16080
C3 C 0.67299(16) 0.20569(11) 0.19292(6)
H2 H 0.65330 0.28040 0.21480
C4 C 0.55406(15) 0.11195(11) 0.19251(6)
C5 C 0.58293(16) -0.00009(12) 0.15899(7)
H3 H 0.50290 -0.06220 0.15850
C6 C 0.72965(16) -0.01924(11) 0.12656(6)
H4 H 0.74930 -0.09340 0.10420
C7 C 0.16332(14) 0.06331(11) 0.26307(6)
C8 C 0.12228(15) 0.17045(11) 0.29914(6)
H5 H 0.19610 0.23670 0.30190
C9 C -0.02638(15) 0.17798(11) 0.33041(6)
H6 H -0.05050 0.24920 0.35460
C10 C -0.14441(15) 0.07963(11) 0.32674(6)
C11 C -0.09783(15) -0.03050(11) 0.29288(6)
H7 H -0.16840 -0.09900 0.29170
C12 C 0.05157(15) -0.03653(11) 0.26169(6)
H8 H 0.07890 -0.10900 0.23910
C13 C -0.41258(16) -0.01284(11) 0.35653(6)
H9 H -0.41110 -0.05650 0.31540
H10 H -0.52230 0.02020 0.36290
C14 C -0.37491(19) -0.10624(13) 0.41035(7)
H11 H -0.37850 -0.06420 0.45140
H12 H -0.26760 -0.14110 0.40380
H13 H -0.45490 -0.17230 0.40980
C15 C -0.35044(15) 0.21176(11) 0.38078(6)
H14 H -0.46830 0.21950 0.37560
H15 H -0.29910 0.27970 0.35710
C16 C -0.30708(17) 0.22308(11) 0.45201(6)
H16 H -0.36060 0.15750 0.47680
H17 H -0.18950 0.21600 0.45810
C17 C -0.30264(16) 0.38472(12) 0.52915(6)
C18 C -0.35776(18) 0.51211(13) 0.54786(7)
H18 H -0.33680 0.53840 0.58990
C19 C -0.4338(2) 0.59002(15) 0.50936(8)
H19 H -0.45670 0.56680 0.46700
H20 H -0.46490 0.66870 0.52430
N1 N 1.00458(13) 0.05505(10) 0.09632(5)
N2 N 0.40686(13) 0.13801(10) 0.22732(5)
N3 N 0.30986(13) 0.04471(10) 0.22890(5)
N4 N -0.29652(13) 0.09197(9) 0.35373(5)
O1 O 1.10307(13) 0.14202(10) 0.09455(6)
O2 O 1.03164(13) -0.04886(9) 0.07261(6)
O3 O -0.36426(11) 0.34547(8) 0.47252(4)
O4 O -0.21117(13) 0.32219(10) 0.56226(5)
#END
