
#######################################################################
#
#                 Cambridge Crystallographic Data Centre
#                                CCDC
#
#######################################################################
#
# If this CIF has been generated from an entry in the Cambridge
# Structural Database, then it will include bibliographic, chemical,
# crystal, experimental, refinement or atomic coordinate data resulting
# from the CCDC's data processing and validation procedures.
#
#######################################################################

data_CSD_CIF_BIZHEX
_audit_creation_date 1983-06-14
_audit_creation_method CSD-ConQuest-V1
_database_code_CSD BIZHEX
_chemical_formula_sum 'C15 H24 N2 O5'
_chemical_formula_moiety
;
C15 H24 N2 O5
;
_journal_coden_Cambridge 207
_journal_year 1982
_journal_page_first 1385
_journal_name_full 'J.Chem.Soc.,Perkin Trans.1 '
loop_
_publ_author_name
"D.K.MacAlpine"
"A.L.Porte"
"G.A.Sim"
_chemical_name_systematic
;
Nitro-nitrato-humulene
;
_cell_volume   1658.463
_exptl_crystal_density_diffrn 1.251
_diffrn_ambient_temperature ?
_diffrn_special_details
;
The study was carried out at room temperature,in the range 283-303K

;
#These two values have been output from a single CSD field.
_refine_ls_R_factor_gt 0.047
_refine_ls_wR_factor_gt 0.047
_symmetry_cell_setting orthorhombic
_symmetry_space_group_name_H-M 'P c 21 n'
_symmetry_Int_Tables_number 33
loop_
_symmetry_equiv_pos_site_id
_symmetry_equiv_pos_as_xyz
1 x,y,z
2 1/2-x,y,1/2+z
3 1/2+x,1/2+y,1/2-z
4 -x,1/2+y,-z
_cell_length_a 7.665(2)
_cell_length_b 11.908(2)
_cell_length_c 18.170(4)
_cell_angle_alpha 90
_cell_angle_beta 90
_cell_angle_gamma 90
_cell_formula_units_Z 4
loop_
_atom_type_symbol
_atom_type_radius_bond
C 0.68
H 0.23
N 0.68
O 0.68
loop_
_atom_site_label
_atom_site_type_symbol
_atom_site_fract_x
_atom_site_fract_y
_atom_site_fract_z
C1 C 0.87830 0.21570 0.38280
C2 C 0.82260 0.23820 0.30200
C3 C 0.62870 0.26070 0.29550
C4 C 0.57470 0.33350 0.22830
C5 C 0.62330 0.45720 0.24340
C6 C 0.56560 0.49790 0.31800
C7 C 0.67470 0.54020 0.36740
C8 C 0.76660 0.48700 0.49230
C9 C 0.77630 0.36830 0.46400
C10 C 0.90120 0.32580 0.42180
C11 C 0.63990 0.56220 0.44790
C12 C 0.67790 0.68540 0.46700
C13 C 0.45210 0.53530 0.46950
C14 C 0.64320 0.29030 0.15530
C15 C 1.06850 0.38550 0.40420
N1 N 0.27380 0.36920 0.18090
N2 N 0.53240 0.15010 0.29450
O1 O 0.56670 0.08130 0.24790
O2 O 0.42270 0.13460 0.34220
O3 O 0.12290 0.34110 0.18920
O4 O 0.33240 0.42980 0.13520
O5 O 0.38130 0.31860 0.23350
H1 H 0.97710 0.17820 0.38140
H2 H 0.79620 0.16750 0.41140
H3 H 0.84780 0.17950 0.27390
H4 H 0.89210 0.29830 0.28660
H5 H 0.57410 0.29730 0.33830
H6 H 0.57040 0.50700 0.20140
H7 H 0.75030 0.46580 0.23960
H8 H 0.42240 0.48980 0.33320
H9 H 0.80130 0.55250 0.35000
H10 H 0.74290 0.49750 0.54620
H11 H 0.86500 0.51670 0.49450
H12 H 0.66540 0.31770 0.47370
H13 H 0.58720 0.74140 0.44180
H14 H 0.79550 0.70720 0.45120
H15 H 0.65680 0.70070 0.51990
H16 H 0.37650 0.59270 0.43590
H17 H 0.44140 0.54720 0.52350
H18 H 0.41010 0.44770 0.46020
H19 H 0.74410 0.29640 0.15830
H20 H 0.60230 0.33990 0.11880
H21 H 0.60830 0.21370 0.14770
H22 H 1.07310 0.41860 0.36880
H23 H 1.08840 0.45400 0.42700
H24 H 1.16310 0.32570 0.39420
#END
