
#######################################################################
#
#                 Cambridge Crystallographic Data Centre
#                                CCDC
#
#######################################################################
#
# If this CIF has been generated from an entry in the Cambridge
# Structural Database, then it will include bibliographic, chemical,
# crystal, experimental, refinement or atomic coordinate data resulting
# from the CCDC's data processing and validation procedures.
#
#######################################################################

data_CSD_CIF_BOBZTZ
_audit_creation_date 1977-07-22
_audit_creation_method CSD-ConQuest-V1
_database_code_CSD BOBZTZ
_chemical_formula_sum 'C13 H9 N3 O2'
_chemical_formula_moiety
;
C13 H9 N3 O2
;
_journal_coden_Cambridge 188
_journal_year 1977
_journal_page_first 224
_journal_name_full 'J.Chem.Soc.,Perkin Trans.2 '
loop_
_publ_author_name
"D.G.McCarthy"
"A.F.Hegarty"
"B.J.Hathaway"
_chemical_name_systematic
;
1-Benzoyloxy-benzotriazole
;
_cell_volume   1159.966
_exptl_crystal_density_diffrn 1.369
_diffrn_ambient_temperature ?
_diffrn_special_details
;
The study was carried out at room temperature,in the range 283-303K

;
#These two values have been output from a single CSD field.
_refine_ls_R_factor_gt 0.0939
_refine_ls_wR_factor_gt 0.0939
_symmetry_cell_setting monoclinic
_symmetry_space_group_name_H-M 'P 21/c'
_symmetry_Int_Tables_number 14
loop_
_symmetry_equiv_pos_site_id
_symmetry_equiv_pos_as_xyz
1 x,y,z
2 -x,1/2+y,1/2-z
3 -x,-y,-z
4 x,-1/2-y,-1/2+z
_cell_length_a 10.29
_cell_length_b 13.579
_cell_length_c 8.34
_cell_angle_alpha 90
_cell_angle_beta 95.5
_cell_angle_gamma 90
_cell_formula_units_Z 4
loop_
_atom_type_symbol
_atom_type_radius_bond
C 0.68
H 0.23
N 0.68
O 0.68
loop_
_atom_site_label
_atom_site_type_symbol
_atom_site_fract_x
_atom_site_fract_y
_atom_site_fract_z
N1 N 0.38050 0.37750 0.34130
N2 N 0.35020 0.28050 0.35950
N3 N 0.43870 0.23190 0.29440
O1 O 0.29690 0.44780 0.39330
O2 O 0.18030 0.42600 0.15440
C1 C 0.63970 0.28180 0.15140
C2 C 0.69520 0.36150 0.10280
C3 C 0.65600 0.45770 0.13210
C4 C 0.54990 0.47640 0.21340
C5 C 0.48490 0.39310 0.25990
C6 C 0.52570 0.29680 0.23350
C7 C 0.19130 0.46810 0.27610
C8 C 0.11230 0.54580 0.33500
C9 C 0.13980 0.59090 0.48230
C10 C 0.05680 0.66400 0.53330
C11 C -0.05240 0.68980 0.43080
C12 C -0.08220 0.64570 0.28510
C13 C 0.00010 0.57210 0.23670
H1 H 0.67740 0.20920 0.13020
H2 H 0.77850 0.35190 0.03490
H3 H 0.71020 0.51890 0.08960
H4 H 0.51830 0.55090 0.23920
H5 H 0.22560 0.56970 0.55930
H6 H 0.07740 0.69990 0.64850
H7 H -0.11750 0.74680 0.46740
H8 H -0.16800 0.66680 0.20790
H9 H -0.02240 0.53520 0.12270
#END
