
#######################################################################
#
#                 Cambridge Crystallographic Data Centre
#                                CCDC
#
#######################################################################
#
# If this CIF has been generated from an entry in the Cambridge
# Structural Database, then it will include bibliographic, chemical,
# crystal, experimental, refinement or atomic coordinate data resulting
# from the CCDC's data processing and validation procedures.
#
#######################################################################

data_CSD_CIF_BOCBEA
_audit_creation_date 1983-06-14
_audit_creation_method CSD-ConQuest-V1
_database_code_CSD BOCBEA
_database_code_depnum_ccdc_archive 'CCDC 1112840'
_chemical_formula_sum 'C12 H17 N1 O1'
_chemical_formula_moiety
;
C12 H17 N1 O1
;
_journal_coden_Cambridge 182
_journal_year 1982
_journal_page_first 1375
_journal_name_full 'Chem.Commun. '
loop_
_publ_author_name
"J.Zizuashvili"
"S.Abramson"
"U.Shmueli"
"B.Fuchs"
_chemical_name_systematic
;
cis-9-Methyl-tricyclo(5.4.0.0^7,9^)undec-10-en-2-one oxime
;
_cell_volume   1093.327
_diffrn_ambient_temperature ?
_diffrn_special_details
;
The study was carried out at room temperature,in the range 283-303K

;
#These two values have been output from a single CSD field.
_refine_ls_R_factor_gt 0.045
_refine_ls_wR_factor_gt 0.045
_symmetry_cell_setting monoclinic
_symmetry_space_group_name_H-M 'P 21/n'
_symmetry_Int_Tables_number 14
loop_
_symmetry_equiv_pos_site_id
_symmetry_equiv_pos_as_xyz
1 x,y,z
2 1/2-x,1/2+y,1/2-z
3 -x,-y,-z
4 -1/2+x,-1/2-y,-1/2+z
_cell_length_a 8.665(1)
_cell_length_b 10.201(3)
_cell_length_c 12.374(2)
_cell_angle_alpha 90
_cell_angle_beta 91.61(1)
_cell_angle_gamma 90
_cell_formula_units_Z 4
loop_
_atom_type_symbol
_atom_type_radius_bond
C 0.68
H 0.23
N 0.68
O 0.68
loop_
_atom_site_label
_atom_site_type_symbol
_atom_site_fract_x
_atom_site_fract_y
_atom_site_fract_z
C1 C 0.62610 0.83634 0.95223
C2 C 0.79089 0.79541 0.96755
C3 C 0.83325 0.65420 0.95939
C4 C 0.87442 0.61832 0.84383
C5 C 0.73699 0.61843 0.76552
C6 C 0.65049 0.74813 0.75376
C7 C 0.55104 0.78584 0.84609
C8 C 0.39253 0.84152 0.82232
C9 C 0.40810 0.70788 0.87574
C10 C 0.40626 0.71423 0.99471
C11 C 0.52082 0.78279 1.03683
C12 C 0.34898 0.58835 0.81662
N1 N 0.88803 0.88881 0.98129
O1 O 1.04211 0.84496 0.99117
H1 H 0.63321 0.93590 0.94850
H2 H 0.74256 0.59875 0.97985
H3 H 0.92047 0.64042 1.00760
H4 H 0.91923 0.53012 0.84671
H5 H 0.94594 0.68536 0.81649
H6 H 0.65370 0.54694 0.79044
H7 H 0.77520 0.58954 0.69023
H8 H 0.58134 0.73857 0.68612
H9 H 0.72735 0.81855 0.74310
H10 H 0.35990 0.83789 0.74138
H11 H 0.35407 0.91167 0.86728
H12 H 0.32165 0.66790 1.04311
H13 H 0.54009 0.79814 1.11294
H14 H 0.37592 0.59579 0.73808
H15 H 0.41219 0.49692 0.84746
H16 H 0.23686 0.58185 0.82587
#END
