
#######################################################################
#
#                 Cambridge Crystallographic Data Centre
#                                CCDC
#
#######################################################################
#
# If this CIF has been generated from an entry in the Cambridge
# Structural Database, then it will include bibliographic, chemical,
# crystal, experimental, refinement or atomic coordinate data resulting
# from the CCDC's data processing and validation procedures.
#
#######################################################################

data_CSD_CIF_BODFEF01
_audit_creation_date 2018-01-10
_audit_creation_method CSD-ConQuest-V1
_database_code_CSD BODFEF01
_database_code_depnum_ccdc_archive 'CCDC 1561177'
_chemical_formula_sum 'C3 H8 N4 O2'
_chemical_formula_moiety
;
C3 H8 N4 O2
;
_journal_coden_Cambridge 440
_journal_volume 42
_journal_year 2018
_journal_page_first 1840
_journal_name_full 'New J.Chem. '
loop_
_publ_author_name
"A.Sudheer Kumar"
"N.Sasidharan"
"Rakesh Ganguly"
"Dasheng Leow"
"Huey Hoon Hng"
_chemical_name_systematic
;
N'^1^,N'^3^-dihydroxypropanedi-imidamide
;
_cell_volume   1152.588
_exptl_crystal_colour 'colorless'
_exptl_crystal_density_diffrn 1.523
_exptl_crystal_description 'plate'
_exptl_crystal_preparation 'hot methanol'
_diffrn_ambient_temperature 100
#These two values have been output from a single CSD field.
_refine_ls_R_factor_gt 0.0474
_refine_ls_wR_factor_gt 0.0474
_symmetry_cell_setting monoclinic
_symmetry_space_group_name_H-M 'C 2/c'
_symmetry_Int_Tables_number 15
loop_
_symmetry_equiv_pos_site_id
_symmetry_equiv_pos_as_xyz
1 x,y,z
2 -x,y,1/2-z
3 1/2+x,1/2+y,z
4 1/2-x,1/2+y,1/2-z
5 -x,-y,-z
6 x,-y,-1/2+z
7 -1/2-x,-1/2-y,-z
8 -1/2+x,-1/2-y,-1/2+z
_cell_length_a 8.5972(3)
_cell_length_b 9.4798(3)
_cell_length_c 14.2271(5)
_cell_angle_alpha 90
_cell_angle_beta 96.2613(13)
_cell_angle_gamma 90
_cell_formula_units_Z 8
loop_
_atom_type_symbol
_atom_type_radius_bond
C 0.68
H 0.23
N 0.68
O 0.68
loop_
_atom_site_label
_atom_site_type_symbol
_atom_site_fract_x
_atom_site_fract_y
_atom_site_fract_z
C1 C 0.63336(15) 0.65963(12) 0.60637(8)
C2 C 0.79548(15) 0.66388(13) 0.65845(8)
H1 H 0.84760 0.75310 0.64380
H2 H 0.85810 0.58460 0.63740
C3 C 0.78779(14) 0.65349(12) 0.76382(8)
N1 N 0.58370(13) 0.77208(11) 0.56080(7)
N2 N 0.54952(14) 0.54094(12) 0.61253(8)
H3 H 0.45340 0.53580 0.58430
H4 H 0.59080 0.46830 0.64480
N3 N 0.73685(14) 0.76885(11) 0.80819(8)
H5 H 0.73170 0.76710 0.86960
H6 H 0.70900 0.84530 0.77550
N4 N 0.83214(13) 0.53493(11) 0.80232(7)
O1 O 0.42667(11) 0.75007(9) 0.51881(7)
H7 H 0.40030 0.81630 0.48120
O2 O 0.81575(11) 0.53610(9) 0.90197(6)
H8 H 0.84350 0.45770 0.92560
#END
