
#######################################################################
#
#                 Cambridge Crystallographic Data Centre
#                                CCDC
#
#######################################################################
#
# If this CIF has been generated from an entry in the Cambridge
# Structural Database, then it will include bibliographic, chemical,
# crystal, experimental, refinement or atomic coordinate data resulting
# from the CCDC's data processing and validation procedures.
#
#######################################################################

data_CSD_CIF_BOJWED
_audit_creation_date 2009-04-14
_audit_creation_method CSD-ConQuest-V1
_database_code_CSD BOJWED
_database_code_depnum_ccdc_archive 'CCDC 689835'
_chemical_formula_sum 'C19 H22 N2 O10'
_chemical_formula_moiety
;
C19 H22 N2 O10
;
_journal_coden_Cambridge 692
_journal_volume 2008
_journal_year 2008
_journal_page_first 3253
_journal_name_full 'Synthesis '
loop_
_publ_author_name
"P.Bremond"
"G.Audran"
"H.Monti"
"E.De Clercq"
_chemical_name_systematic
;
(-)-(3aS,4S,6R,6aR)-6-(acetoxymethyl)-2,2,6a-trimethyltetrahydro-3aH-cyclopent
a[d][1,3]dioxol-4-yl 3,5-dinitrobenzoate
;
_chemical_melting_point 369.15
_cell_volume   2162.101
_exptl_crystal_colour 'colorless'
_exptl_crystal_density_diffrn 1.347
_exptl_special_details
;
Melting point range 369.15-370.15K

;
_exptl_crystal_description 'prism'
_diffrn_ambient_temperature 293
#These two values have been output from a single CSD field.
_refine_ls_R_factor_gt 0.0558
_refine_ls_wR_factor_gt 0.0558
_symmetry_cell_setting monoclinic
_symmetry_space_group_name_H-M 'C 2'
_symmetry_Int_Tables_number 5
loop_
_symmetry_equiv_pos_site_id
_symmetry_equiv_pos_as_xyz
1 x,y,z
2 -x,y,-z
3 1/2+x,1/2+y,z
4 1/2-x,1/2+y,-z
_cell_length_a 21.6317(7)
_cell_length_b 5.9730(2)
_cell_length_c 18.2114(8)
_cell_angle_alpha 90
_cell_angle_beta 113.240(1)
_cell_angle_gamma 90
_cell_formula_units_Z 4
loop_
_atom_type_symbol
_atom_type_radius_bond
C 0.68
H 0.23
N 0.68
O 0.68
loop_
_atom_site_label
_atom_site_type_symbol
_atom_site_fract_x
_atom_site_fract_y
_atom_site_fract_z
C1 C 1.2521(4) 0.3741(19) 0.8617(5)
H1 H 1.30010 0.37630 0.87880
H2 H 1.23130 0.38030 0.80450
H3 H 1.23880 0.23880 0.88000
C2 C 1.0351(2) 0.5303(7) 0.7374(2)
H4 H 1.07860 0.50710 0.73360
C3 C 1.02813(19) 0.3671(7) 0.7998(2)
H5 H 1.06460 0.25660 0.81640
C4 C 1.0324(2) 0.5129(8) 0.8709(2)
C5 C 1.0587(2) 0.7422(8) 0.8582(3)
H6 H 1.03880 0.85910 0.87980
C6 C 1.0318(3) 0.7663(8) 0.7670(3)
H7 H 0.98590 0.82140 0.74570
H8 H 1.05960 0.86800 0.75160
C7 C 0.9225(2) 0.3739(9) 0.8041(3)
C8 C 0.8980(3) 0.2037(14) 0.8473(4)
H9 H 0.86760 0.27400 0.86700
H10 H 0.93560 0.14300 0.89130
H11 H 0.87500 0.08530 0.81110
C9 C 0.8655(3) 0.4908(14) 0.7366(3)
H12 H 0.88400 0.59240 0.70970
H13 H 0.83820 0.57240 0.75820
H14 H 0.83830 0.38110 0.69920
C10 C 1.0687(3) 0.4073(11) 0.9521(3)
H15 H 1.04840 0.26560 0.95400
H16 H 1.06560 0.50410 0.99260
H17 H 1.11510 0.38520 0.96140
C11 C 1.1352(3) 0.7621(11) 0.8969(3)
H18 H 1.14920 0.90520 0.88360
H19 H 1.15060 0.75240 0.95460
C12 C 1.2306(3) 0.5689(17) 0.8955(4)
C13 C 0.9843(2) 0.3099(7) 0.6227(2)
C14 C 0.9236(2) 0.2746(8) 0.5469(2)
C15 C 0.9223(2) 0.0838(8) 0.5027(3)
H20 H 0.95700 -0.02030 0.52130
C16 C 0.8687(3) 0.0516(10) 0.4308(3)
C17 C 0.8146(3) 0.1948(10) 0.4031(3)
H21 H 0.77830 0.16880 0.35510
C18 C 0.8166(2) 0.3787(9) 0.4498(3)
C19 C 0.8701(2) 0.4237(8) 0.5209(2)
H22 H 0.87030 0.55070 0.55060
N1 N 0.7587(2) 0.5311(10) 0.4232(3)
N2 N 0.8700(3) -0.1432(11) 0.3817(4)
O1 O 0.98102(15) 0.4979(5) 0.65925(16)
O2 O 1.03115(16) 0.1815(6) 0.64554(19)
O3 O 0.96521(15) 0.2595(5) 0.77354(18)
O4 O 0.96251(14) 0.5429(6) 0.85566(18)
O5 O 1.16329(16) 0.5835(8) 0.8677(2)
O6 O 1.2666(3) 0.6972(14) 0.9421(4)
O7 O 0.9163(3) -0.2741(8) 0.4091(3)
O8 O 0.8246(3) -0.1637(13) 0.3168(3)
O9 O 0.7653(2) 0.7110(8) 0.4565(3)
O10 O 0.7076(3) 0.4711(11) 0.3687(4)
#END
