
#######################################################################
#
#                 Cambridge Crystallographic Data Centre
#                                CCDC
#
#######################################################################
#
# If this CIF has been generated from an entry in the Cambridge
# Structural Database, then it will include bibliographic, chemical,
# crystal, experimental, refinement or atomic coordinate data resulting
# from the CCDC's data processing and validation procedures.
#
#######################################################################

data_CSD_CIF_BOKLAO
_audit_creation_date 1983-07-20
_audit_creation_method CSD-ConQuest-V1
_database_code_CSD BOKLAO
_database_code_depnum_ccdc_archive 'CCDC 1113445'
_chemical_formula_sum 'C14 H13 N1 O3'
_chemical_formula_moiety
;
C14 H13 N1 O3
;
_journal_coeditor_code "IUCr A22237"
_journal_coden_Cambridge 591
_journal_volume 39
_journal_year 1983
_journal_page_first 78
_journal_name_full 'Acta Crystallogr.,Sect.C:Cryst.Struct.Commun. '
loop_
_publ_author_name
"N.W.Alcock"
"T.J.Kemp"
"P.J.Sellars"
"B.W.Waters"
_chemical_name_systematic
;
1-Benzyloxy-3-methyl-4-nitrobenzene
;
_chemical_melting_point 341
_cell_volume   1251.615
_exptl_crystal_colour 'red'
_exptl_crystal_density_diffrn 1.29
_exptl_special_details
;
Melting point range 341-3K
red lath-shaped polymorph

;
_exptl_crystal_description 'lath'
_diffrn_ambient_temperature ?
_diffrn_special_details
;
The study was carried out at room temperature,in the range 283-303K
The lath-shaped red crystals are untwinned and structure analysis was 
performed on these. A second prismatic form, which is usually yellow, was 
found to have identical a,b,beta, but a tripled c axis. This was interpreted 
as a twinned form
;
#These two values have been output from a single CSD field.
_refine_ls_R_factor_gt 0.049
_refine_ls_wR_factor_gt 0.049
_symmetry_cell_setting monoclinic
_symmetry_space_group_name_H-M 'P 21/c'
_symmetry_Int_Tables_number 14
loop_
_symmetry_equiv_pos_site_id
_symmetry_equiv_pos_as_xyz
1 x,y,z
2 -x,1/2+y,1/2-z
3 -x,-y,-z
4 x,-1/2-y,-1/2+z
_cell_length_a 7.274(2)
_cell_length_b 18.379(4)
_cell_length_c 9.446(2)
_cell_angle_alpha 90
_cell_angle_beta 97.64(2)
_cell_angle_gamma 90
_cell_formula_units_Z 4
loop_
_atom_type_symbol
_atom_type_radius_bond
C 0.68
H 0.23
N 0.68
O 0.68
loop_
_atom_site_label
_atom_site_type_symbol
_atom_site_fract_x
_atom_site_fract_y
_atom_site_fract_z
O1 O 0.29800 0.54040 0.15620
O2 O 0.30020 0.64130 0.26580
O3 O 0.21690 0.41030 0.74900
N1 N 0.28940 0.57590 0.26430
C1 C 0.26780 0.53630 0.39730
C2 C 0.27710 0.46100 0.39190
C3 C 0.25830 0.42000 0.50880
C4 C 0.23340 0.45510 0.63530
C5 C 0.22180 0.52980 0.63950
C6 C 0.23960 0.57240 0.52070
C7 C 0.22320 0.65440 0.53580
C8 C 0.21470 0.44300 0.88840
C9 C 0.23410 0.38200 0.99650
C10 C 0.40500 0.35210 1.04230
C11 C 0.41740 0.29630 1.14080
C12 C 0.25270 0.27390 1.19240
C13 C 0.08470 0.30300 1.14680
C14 C 0.07710 0.35710 1.04770
H1 H 0.30600 0.44000 0.31200
H2 H 0.28100 0.36900 0.51300
H3 H 0.35500 0.67600 0.52700
H4 H 0.12300 0.67400 0.46200
H5 H 0.18700 0.66800 0.61000
H6 H 0.32600 0.47400 0.90000
H7 H 0.08800 0.47000 0.88800
H8 H 0.51300 0.36900 0.99700
H9 H 0.53300 0.27700 1.17700
H10 H 0.28300 0.24500 1.23300
H11 H -0.03900 0.37500 1.01200
H12 H 0.20800 0.55600 0.72600
H13 H -0.04300 0.27800 1.19200
#END
