
#######################################################################
#
#                 Cambridge Crystallographic Data Centre
#                                CCDC
#
#######################################################################
#
# If this CIF has been generated from an entry in the Cambridge
# Structural Database, then it will include bibliographic, chemical,
# crystal, experimental, refinement or atomic coordinate data resulting
# from the CCDC's data processing and validation procedures.
#
#######################################################################

data_CSD_CIF_BOMHAO
_audit_creation_date 2014-10-03
_audit_creation_method CSD-ConQuest-V1
_database_code_CSD BOMHAO
_database_code_depnum_ccdc_archive 'CCDC 984656'
_chemical_formula_sum 'C14 H19 N1 O3'
_chemical_formula_moiety
;
C14 H19 N1 O3
;
_journal_coden_Cambridge 119
_journal_volume 1076
_journal_year 2014
_journal_page_first 512
_journal_name_full 'J.Mol.Struct. '
loop_
_publ_author_name
"D.K.Stepien"
"M.K.Cyranski"
"L.Dobrzycki"
"P.Walejko"
"Aneta Baj"
"S.Witkowski"
"K.Paradowska"
"I.Wawer"
_chemical_name_systematic
;
2,2,5,7,8-pentamethyl-6-nitrochromane
;
_cell_volume   1313.943
_exptl_crystal_density_diffrn 1.26
_diffrn_ambient_temperature 100
#These two values have been output from a single CSD field.
_refine_ls_R_factor_gt 0.0292
_refine_ls_wR_factor_gt 0.0292
_symmetry_cell_setting orthorhombic
_symmetry_space_group_name_H-M 'P c a 21'
_symmetry_Int_Tables_number 29
loop_
_symmetry_equiv_pos_site_id
_symmetry_equiv_pos_as_xyz
1 x,y,z
2 -x,-y,1/2+z
3 1/2+x,-y,z
4 1/2-x,y,1/2+z
_cell_length_a 10.6344(5)
_cell_length_b 6.1715(3)
_cell_length_c 20.0204(10)
_cell_angle_alpha 90
_cell_angle_beta 90
_cell_angle_gamma 90
_cell_formula_units_Z 4
loop_
_atom_type_symbol
_atom_type_radius_bond
C 0.68
H 0.23
N 0.68
O 0.68
loop_
_atom_site_label
_atom_site_type_symbol
_atom_site_fract_x
_atom_site_fract_y
_atom_site_fract_z
O1 O 0.35771(12) 0.3353(2) 0.41079(6)
O2 O 0.42292(17) 0.0172(2) 0.70197(8)
O3 O 0.55754(17) 0.2736(3) 0.70440(9)
N1 N 0.48123(16) 0.1617(3) 0.67506(8)
C1 C 0.42063(17) 0.2286(3) 0.35467(9)
C2 C 0.3297(2) 0.2600(4) 0.29675(11)
H1 H 0.252(2) 0.187(3) 0.3063(13)
H2 H 0.372(2) 0.198(4) 0.2578(13)
H3 H 0.317(2) 0.418(4) 0.2900(13)
C3 C 0.5445(2) 0.3466(4) 0.34145(11)
H4 H 0.528(2) 0.498(4) 0.3298(12)
H5 H 0.589(2) 0.269(4) 0.3036(15)
H6 H 0.597(2) 0.347(4) 0.3800(15)
C4 C 0.4396(2) -0.0086(3) 0.37122(10)
H7 H 0.361(2) -0.075(4) 0.3797(13)
H8 H 0.480(2) -0.079(4) 0.3315(13)
C5 C 0.51719(19) -0.0392(3) 0.43456(10)
H9 H 0.5106(18) -0.188(3) 0.4483(11)
H10 H 0.610(2) -0.009(3) 0.4258(12)
C6 C 0.47168(17) 0.1081(3) 0.48974(9)
C7 C 0.50334(17) 0.0685(3) 0.55647(9)
C8 C 0.5903(2) -0.1144(3) 0.57457(11)
H11 H 0.550(2) -0.254(4) 0.5702(14)
H12 H 0.618(2) -0.098(4) 0.6205(13)
H13 H 0.664(2) -0.115(3) 0.5461(11)
C9 C 0.45422(17) 0.2085(3) 0.60448(9)
C10 C 0.37767(17) 0.3866(3) 0.59062(9)
C11 C 0.3228(2) 0.5242(4) 0.64548(11)
H14 H 0.231(3) 0.519(4) 0.6431(14)
H15 H 0.343(3) 0.477(4) 0.6895(16)
H16 H 0.346(3) 0.676(5) 0.6415(15)
C12 C 0.34952(17) 0.4268(3) 0.52393(10)
C13 C 0.2655(2) 0.6139(3) 0.50486(11)
H17 H 0.174(2) 0.583(4) 0.5154(14)
H18 H 0.278(2) 0.647(3) 0.4576(13)
H19 H 0.287(2) 0.741(4) 0.5316(14)
C14 C 0.39575(17) 0.2868(3) 0.47456(9)
#END
