
#######################################################################
#
#                 Cambridge Crystallographic Data Centre
#                                CCDC
#
#######################################################################
#
# If this CIF has been generated from an entry in the Cambridge
# Structural Database, then it will include bibliographic, chemical,
# crystal, experimental, refinement or atomic coordinate data resulting
# from the CCDC's data processing and validation procedures.
#
#######################################################################

data_CSD_CIF_BOMJAO
_audit_creation_date 1983-07-20
_audit_creation_method CSD-ConQuest-V1
_database_code_CSD BOMJAO
_database_code_depnum_ccdc_archive 'CCDC 1113633'
_chemical_formula_sum 'C11 H11 N3 O4'
_chemical_formula_moiety
;
C11 H11 N3 O4
;
_journal_coden_Cambridge 154
_journal_volume 35
_journal_year 1982
_journal_page_first 1761
_journal_name_full 'Aust.J.Chem. '
loop_
_publ_author_name
"J.C.Teulade"
"R.Escale"
"J.C.Rossi"
"J.P.Chapat"
"G.Grassy"
"M.Payard"
_chemical_name_systematic
;
Ethyl 6-methyl-3-nitroimidazo(1,2-a)pyridine-2-carboxylate
;
_chemical_melting_point 413.15
_cell_volume    585.588
_exptl_crystal_colour 'yellow'
_exptl_crystal_density_diffrn 1.42
_exptl_special_details
;
Melting point range 413.15-415.15K

;
_diffrn_ambient_temperature ?
_diffrn_special_details
;
The study was carried out at room temperature,in the range 283-303K

;
#These two values have been output from a single CSD field.
_refine_ls_R_factor_gt 0.057
_refine_ls_wR_factor_gt 0.057
_symmetry_cell_setting triclinic
_symmetry_space_group_name_H-M 'P -1'
_symmetry_Int_Tables_number 2
loop_
_symmetry_equiv_pos_site_id
_symmetry_equiv_pos_as_xyz
1 x,y,z
2 -x,-y,-z
_cell_length_a 11.641(8)
_cell_length_b 8.361(3)
_cell_length_c 6.191(3)
_cell_angle_alpha 83.64(3)
_cell_angle_beta 101.64(5)
_cell_angle_gamma 88.09(4)
_cell_formula_units_Z 2
loop_
_atom_type_symbol
_atom_type_radius_bond
C 0.68
H 0.23
N 0.68
O 0.68
loop_
_atom_site_label
_atom_site_type_symbol
_atom_site_fract_x
_atom_site_fract_y
_atom_site_fract_z
N1 N 1.10160 0.33380 0.25790
C1 C 1.17620 0.23060 0.40570
C2 C 1.12360 0.16530 0.57450
N2 N 1.00840 0.23420 0.52740
C3 C 0.91600 0.22020 0.63810
C4 C 0.81290 0.30880 0.55210
C5 C 0.80370 0.41140 0.35140
C6 C 0.89430 0.42520 0.24170
C7 C 1.00080 0.33670 0.33290
C8 C 1.30390 0.21240 0.39200
N3 N 1.16660 0.04170 0.74960
C9 C 0.71330 0.29770 0.67760
O1 O 1.38150 0.25600 0.52910
O2 O 1.31750 0.15240 0.21610
C10 C 1.44020 0.13450 0.18260
C11 C 1.47730 0.28430 0.08300
O3 O 1.10150 -0.00690 0.87340
O4 O 1.26710 -0.01580 0.76390
H1 H 0.93100 0.14600 0.76700
H2 H 0.73000 0.47600 0.28500
H3 H 0.88400 0.48600 0.12000
H4 H 0.70900 0.19200 0.74700
H5 H 0.65400 0.34900 0.61400
H6 H 1.43100 0.05500 0.07700
H7 H 1.49500 0.11500 0.33400
H8 H 1.56200 0.25700 0.06800
H9 H 1.43400 0.35000 -0.03900
H10 H 1.47900 0.36800 0.19500
#END
