
#######################################################################
#
#                 Cambridge Crystallographic Data Centre
#                                CCDC
#
#######################################################################
#
# If this CIF has been generated from an entry in the Cambridge
# Structural Database, then it will include bibliographic, chemical,
# crystal, experimental, refinement or atomic coordinate data resulting
# from the CCDC's data processing and validation procedures.
#
#######################################################################

data_CSD_CIF_BOPJOG
_audit_creation_date 2009-08-25
_audit_creation_method CSD-ConQuest-V1
_database_code_CSD BOPJOG
_database_code_depnum_ccdc_archive 'CCDC 672472'
_chemical_formula_sum 'C28 H21 N1 O4'
_chemical_formula_moiety
;
C28 H21 N1 O4
;
_journal_coden_Cambridge 416
_journal_volume 18
_journal_year 2008
_journal_page_first 787
_journal_name_full 'J.Fluorescence '
loop_
_publ_author_name
"Fang Gao"
"Ting Xie"
"Zhibin Cheng"
"Nvdan Hu"
"Long Yang"
"Yun Gong"
"Shengtao Zhang"
"Hongru Li"
_chemical_name_systematic
;
(4-((4-(2-(4-Nitrophenyl)vinyl)phenoxy)methyl)phenyl)(phenyl)methanone
;
_chemical_name_common
;
(4'-Benzobenzoy)-(4-nitrostilbene)
;
_cell_volume   2176.779
_exptl_crystal_colour 'yellow'
_exptl_crystal_density_diffrn 1.329
_exptl_crystal_description 'block'
_exptl_crystal_preparation 'benzene'
_diffrn_ambient_temperature 298
#These two values have been output from a single CSD field.
_refine_ls_R_factor_gt 0.0821
_refine_ls_wR_factor_gt 0.0821
_symmetry_cell_setting monoclinic
_symmetry_space_group_name_H-M 'P 21/c'
_symmetry_Int_Tables_number 14
loop_
_symmetry_equiv_pos_site_id
_symmetry_equiv_pos_as_xyz
1 x,y,z
2 -x,1/2+y,1/2-z
3 -x,-y,-z
4 x,-1/2-y,-1/2+z
_cell_length_a 20.200(2)
_cell_length_b 7.6580(13)
_cell_length_c 14.490(2)
_cell_angle_alpha 90
_cell_angle_beta 103.800(2)
_cell_angle_gamma 90
_cell_formula_units_Z 4
loop_
_atom_type_symbol
_atom_type_radius_bond
C 0.68
H 0.23
N 0.68
O 0.68
loop_
_atom_site_label
_atom_site_type_symbol
_atom_site_fract_x
_atom_site_fract_y
_atom_site_fract_z
N1 N -0.2792(3) 0.6843(8) -0.3735(4)
O1 O 0.15188(19) 0.6834(6) 0.3713(3)
O2 O 0.3434(2) 0.5275(6) 0.8208(3)
O3 O -0.3330(2) 0.6056(6) -0.3855(3)
O4 O -0.2629(2) 0.7765(6) -0.4345(3)
C1 C 0.2167(3) 0.7601(8) 0.3880(4)
H1 H 0.21210 0.88560 0.37990
H2 H 0.24080 0.71600 0.34240
C2 C 0.2572(3) 0.7191(9) 0.4881(4)
C3 C 0.3161(3) 0.8110(7) 0.5263(4)
H3 H 0.32960 0.89980 0.49100
C4 C 0.3553(3) 0.7733(8) 0.6158(4)
H4 H 0.39460 0.83740 0.64080
C5 C 0.3362(3) 0.6401(8) 0.6684(4)
C6 C 0.2774(3) 0.5493(8) 0.6310(4)
H5 H 0.26340 0.46240 0.66710
C7 C 0.2387(3) 0.5845(8) 0.5416(5)
H6 H 0.20010 0.51810 0.51660
C8 C 0.3744(3) 0.5983(9) 0.7694(4)
C9 C 0.4466(3) 0.6460(8) 0.8029(5)
C10 C 0.4913(3) 0.6443(8) 0.7459(5)
H7 H 0.47580 0.61690 0.68190
C11 C 0.5589(4) 0.6826(9) 0.7821(5)
H8 H 0.58920 0.67710 0.74290
C12 C 0.5821(4) 0.7291(10) 0.8758(7)
H9 H 0.62740 0.76070 0.89990
C13 C 0.5377(4) 0.7279(11) 0.9320(5)
H10 H 0.55340 0.75290 0.99630
C14 C 0.4704(3) 0.691(1) 0.8971(5)
H11 H 0.44050 0.69610 0.93690
C15 C 0.1094(3) 0.6961(8) 0.2849(4)
C16 C 0.0500(3) 0.6084(8) 0.2700(4)
H12 H 0.04100 0.54170 0.31920
C17 C 0.0021(3) 0.6138(8) 0.1847(4)
H13 H -0.03910 0.55550 0.17790
C18 C 0.0157(3) 0.7077(8) 0.1078(4)
C19 C 0.0762(3) 0.7921(8) 0.1245(4)
H14 H 0.08590 0.85660 0.07500
C20 C 0.1246(3) 0.7890(8) 0.2103(4)
H15 H 0.16590 0.84730 0.21760
C21 C -0.0309(3) 0.7199(8) 0.0159(4)
H16 H -0.01590 0.78460 -0.02940
C22 C -0.0912(3) 0.6522(8) -0.0117(4)
H17 H -0.10620 0.58980 0.03450
C23 C -0.1393(3) 0.6593(7) -0.1052(4)
C24 C -0.2030(3) 0.5838(8) -0.1215(4)
H18 H -0.21560 0.52700 -0.07170
C25 C -0.2487(3) 0.5896(8) -0.2095(4)
H19 H -0.29120 0.53600 -0.21950
C26 C -0.2291(3) 0.6775(8) -0.2814(4)
C27 C -0.1679(3) 0.7496(8) -0.2684(4)
H20 H -0.15580 0.80630 -0.31870
C28 C -0.1230(3) 0.7414(8) -0.1829(4)
H21 H -0.08010 0.79160 -0.17570
#END
