
#######################################################################
#
#                 Cambridge Crystallographic Data Centre
#                                CCDC
#
#######################################################################
#
# If this CIF has been generated from an entry in the Cambridge
# Structural Database, then it will include bibliographic, chemical,
# crystal, experimental, refinement or atomic coordinate data resulting
# from the CCDC's data processing and validation procedures.
#
#######################################################################

data_CSD_CIF_BOQHAQ
_audit_creation_date 2000-01-11
_audit_creation_method CSD-ConQuest-V1
_database_code_CSD BOQHAQ
_database_code_depnum_ccdc_archive 'CCDC 137974'
_chemical_formula_sum 'C15 H22 N4 O8'
_chemical_formula_moiety
;
C15 H22 N4 O8
;
_journal_coeditor_code "IUCr BM1348"
_journal_coden_Cambridge 591
_journal_volume 55
_journal_year 1999
_journal_page_first 1918
_journal_name_full 'Acta Crystallogr.,Sect.C:Cryst.Struct.Commun. '
loop_
_publ_author_name
"O.Ya.Borbulevych"
"O.V.Shishkin"
"V.N.Knyazev"
_chemical_name_systematic
;
Spiro((4-triethylammoniomethyl-1,3-dioxolane)-2,1'-2',4',6'-trinitrocyclohexad
ienide)
;
_cell_volume   1713.826
_exptl_crystal_colour 'red'
_exptl_crystal_density_diffrn 1.497
_exptl_crystal_description 'needle'
_diffrn_ambient_temperature 193
#These two values have been output from a single CSD field.
_refine_ls_R_factor_gt 0.0771
_refine_ls_wR_factor_gt 0.0771
_symmetry_cell_setting monoclinic
_symmetry_space_group_name_H-M 'P 21/c'
_symmetry_Int_Tables_number 14
loop_
_symmetry_equiv_pos_site_id
_symmetry_equiv_pos_as_xyz
1 x,y,z
2 -x,1/2+y,1/2-z
3 -x,-y,-z
4 x,-1/2-y,-1/2+z
_cell_length_a 7.879(3)
_cell_length_b 10.971(6)
_cell_length_c 19.831(9)
_cell_angle_alpha 90
_cell_angle_beta 91.20(3)
_cell_angle_gamma 90
_cell_formula_units_Z 4
loop_
_atom_type_symbol
_atom_type_radius_bond
C 0.68
H 0.23
N 0.68
O 0.68
loop_
_atom_site_label
_atom_site_type_symbol
_atom_site_fract_x
_atom_site_fract_y
_atom_site_fract_z
N1 N 0.7810(6) 1.7655(4) 0.3995(2)
N2 N 0.6461(6) 1.4811(4) 0.5764(2)
N3 N 0.9403(7) 1.3238(5) 0.3840(2)
N4 N 0.6872(6) 1.5015(5) 0.1622(2)
O1 O 0.8402(6) 1.7906(4) 0.3437(2)
O2 O 0.7133(6) 1.8454(4) 0.4350(2)
O3 O 0.6058(6) 1.5705(4) 0.6112(2)
O4 O 0.6221(5) 1.3746(4) 0.5938(2)
O5 O 0.9486(6) 1.2261(4) 0.4145(2)
O6 O 0.9949(6) 1.3358(4) 0.3260(2)
O7 O 0.7697(5) 1.5375(3) 0.3166(2)
O8 O 1.0343(5) 1.5798(3) 0.3618(2)
C1 C 0.8667(7) 1.5465(5) 0.3781(2)
C2 C 0.7894(7) 1.6436(5) 0.4245(2)
C3 C 0.7242(7) 1.6213(5) 0.4859(2)
H1 H 0.6796(7) 1.6865(5) 0.5116(2)
C4 C 0.7222(6) 1.5024(5) 0.5119(2)
C5 C 0.7950(7) 1.4075(5) 0.4775(2)
H2 H 0.7969(7) 1.3282(5) 0.4967(2)
C6 C 0.8648(7) 1.4269(5) 0.4158(3)
C7 C 0.8705(9) 1.5841(8) 0.2616(3)
H3 H 0.8322(9) 1.6689(8) 0.2505(3)
C8 C 1.0492(7) 1.5890(6) 0.2896(2)
H4 H 1.1171(7) 1.5205(6) 0.2720(2)
H5 H 1.1045(7) 1.6666(6) 0.2771(2)
C9 C 0.8573(8) 1.5103(7) 0.2012(3)
H6 H 0.8915(8) 1.4263(7) 0.2138(3)
H7 H 0.9427(8) 1.5409(7) 0.1695(3)
C10 C 0.5447(8) 1.4582(6) 0.2066(3)
H8 H 0.4380(8) 1.4591(6) 0.1794(3)
H9 H 0.5317(8) 1.5182(6) 0.2435(3)
C11 C 0.5641(10) 1.3312(6) 0.2386(3)
H10 H 0.4653(27) 1.3138(17) 0.2662(18)
H11 H 0.6673(30) 1.3290(13) 0.2670(17)
H12 H 0.5720(56) 1.2697(7) 0.2029(3)
C12 C 0.7178(9) 1.4086(5) 0.1072(3)
H13 H 0.7570(9) 1.3320(5) 0.1289(3)
H14 H 0.6077(9) 1.3911(5) 0.0842(3)
C13 C 0.8438(9) 1.4431(6) 0.0544(3)
H15 H 0.8462(41) 1.3797(20) 0.0196(12)
H16 H 0.9569(13) 1.4513(39) 0.0754(5)
H17 H 0.8102(31) 1.5209(20) 0.0337(15)
C14 C 0.6396(8) 1.6258(5) 0.1301(3)
H18 H 0.6210(8) 1.6851(5) 0.1669(3)
H19 H 0.7375(8) 1.6551(5) 0.1042(3)
C15 C 0.4881(8) 1.6260(5) 0.0851(3)
H20 H 0.4703(29) 1.7081(10) 0.0668(16)
H21 H 0.3886(12) 1.6015(35) 0.1107(6)
H22 H 0.5049(22) 1.5685(27) 0.0480(11)
#END
