
#######################################################################
#
#                 Cambridge Crystallographic Data Centre
#                                CCDC
#
#######################################################################
#
# If this CIF has been generated from an entry in the Cambridge
# Structural Database, then it will include bibliographic, chemical,
# crystal, experimental, refinement or atomic coordinate data resulting
# from the CCDC's data processing and validation procedures.
#
#######################################################################

data_CSD_CIF_BOQJAS
_audit_creation_date 2000-01-11
_audit_creation_method CSD-ConQuest-V1
_database_code_CSD BOQJAS
_database_code_depnum_ccdc_archive 'CCDC 138021'
_chemical_formula_sum 'C16 H12 N4 O5'
_chemical_formula_moiety
;
C16 H12 N4 O5
;
_journal_coeditor_code "IUCr KA1331"
_journal_coden_Cambridge 591
_journal_volume 55
_journal_year 1999
_journal_page_first 1926
_journal_name_full 'Acta Crystallogr.,Sect.C:Cryst.Struct.Commun. '
loop_
_publ_author_name
"J.Jeyakanthan"
"D.Velmurugan"
"S.Selvi"
"P.T.Perumal"
_chemical_name_systematic
;
1-(2,4-Dinitrophenyl)-3-(2-hydroxyphenyl)-4-methyl-1H-pyrazole
;
_cell_volume   1519.019
_exptl_crystal_colour 'orange'
_exptl_crystal_density_diffrn 1.488
_exptl_special_details
;
possible biological activity

;
_exptl_crystal_description 'needle'
_exptl_crystal_preparation 'ethyl acetate'
_diffrn_ambient_temperature ?
_diffrn_special_details
;
The study was carried out at room temperature,in the range 283-303K

;
#These two values have been output from a single CSD field.
_refine_ls_R_factor_gt 0.0524
_refine_ls_wR_factor_gt 0.0524
_symmetry_cell_setting monoclinic
_symmetry_space_group_name_H-M 'P 21/c'
_symmetry_Int_Tables_number 14
loop_
_symmetry_equiv_pos_site_id
_symmetry_equiv_pos_as_xyz
1 x,y,z
2 -x,1/2+y,1/2-z
3 -x,-y,-z
4 x,-1/2-y,-1/2+z
_cell_length_a 7.5598(1)
_cell_length_b 15.5263(2)
_cell_length_c 13.0732(2)
_cell_angle_alpha 90
_cell_angle_beta 98.1394(10)
_cell_angle_gamma 90
_cell_formula_units_Z 4
loop_
_atom_type_symbol
_atom_type_radius_bond
C 0.68
H 0.23
N 0.68
O 0.68
loop_
_atom_site_label
_atom_site_type_symbol
_atom_site_fract_x
_atom_site_fract_y
_atom_site_fract_z
N1 N 0.4112(2) 0.73491(9) 0.07205(11)
N2 N 0.3081(2) 0.76932(10) -0.01122(12)
N3 N -0.0365(2) 0.55852(12) -0.32945(13)
N4 N 0.2070(3) 0.59329(12) 0.03185(15)
O1 O 0.6439(3) 0.63612(10) 0.18827(14)
H1 H 0.56380 0.64620 0.14060
O2 O -0.0892(3) 0.59207(13) -0.41265(13)
O3 O -0.0584(3) 0.48289(12) -0.31059(15)
O4 O 0.3131(4) 0.53440(12) 0.04866(17)
O5 O 0.1120(3) 0.62302(14) 0.09163(13)
C1 C 0.2235(2) 0.71599(11) -0.08987(13)
C2 C 0.1766(2) 0.74934(13) -0.18936(15)
H2 H 0.20430 0.80610 -0.20340
C3 C 0.0896(3) 0.69821(14) -0.26654(15)
H3 H 0.05300 0.72140 -0.33170
C4 C 0.0564(3) 0.61341(14) -0.24800(15)
C5 C 0.1061(3) 0.57731(13) -0.15166(15)
H4 H 0.08760 0.51910 -0.14020
C6 C 0.1837(3) 0.62970(12) -0.07306(15)
C7 C 0.3014(3) 0.85680(13) -0.00388(15)
H5 H 0.23860 0.89370 -0.05200
C8 C 0.4021(2) 0.88079(11) 0.08565(15)
C9 C 0.4692(2) 0.80111(12) 0.13179(14)
C10 C 0.4296(3) 0.97193(13) 0.12196(17)
H6 H 0.38040 1.01040 0.06790
H7 H 0.55510 0.98300 0.13970
H8 H 0.37080 0.98080 0.18160
C11 C 0.5802(2) 0.78475(12) 0.23224(14)
C12 C 0.6582(3) 0.70314(14) 0.25664(17)
C13 C 0.7529(3) 0.68842(15) 0.35322(16)
H9 H 0.80470 0.63470 0.36830
C14 C 0.7720(3) 0.75117(16) 0.42691(18)
H10 H 0.83370 0.73990 0.49220
C15 C 0.6994(3) 0.83120(15) 0.40399(15)
H11 H 0.71390 0.87450 0.45360
C16 C 0.6060(3) 0.84747(15) 0.30883(15)
H12 H 0.55820 0.90210 0.29480
#END
