
#######################################################################
#
#                 Cambridge Crystallographic Data Centre
#                                CCDC
#
#######################################################################
#
# If this CIF has been generated from an entry in the Cambridge
# Structural Database, then it will include bibliographic, chemical,
# crystal, experimental, refinement or atomic coordinate data resulting
# from the CCDC's data processing and validation procedures.
#
#######################################################################

data_CSD_CIF_BOQQUV
_audit_creation_date 2014-10-06
_audit_creation_method CSD-ConQuest-V1
_database_code_CSD BOQQUV
_database_code_depnum_ccdc_archive 'CCDC 1000392'
_chemical_formula_sum 'C16 H14 N2 O3'
_chemical_formula_moiety
;
C16 H14 N2 O3
;
_journal_coden_Cambridge 177
_journal_volume 12
_journal_year 2014
_journal_page_first 8997
_journal_name_full 'Org.Biomol.Chem. '
loop_
_publ_author_name
"M.P.Romero-Fernandez"
"M.Avalos"
"R.Babiano"
"P.Cintas"
"J.L.Jimenez"
"M.E.Light"
"J.C.Palacios"
_chemical_name_systematic
;
3-(benzylamino)-2-(4-nitrophenyl)acrylaldehyde
;
_cell_volume   1354.902
_exptl_crystal_colour 'yellow'
_exptl_crystal_density_diffrn 1.384
_exptl_crystal_preparation 'ethanol'
_diffrn_ambient_temperature 100
#These two values have been output from a single CSD field.
_refine_ls_R_factor_gt 0.044
_refine_ls_wR_factor_gt 0.044
_symmetry_cell_setting monoclinic
_symmetry_space_group_name_H-M 'P 21/n'
_symmetry_Int_Tables_number 14
loop_
_symmetry_equiv_pos_site_id
_symmetry_equiv_pos_as_xyz
1 x,y,z
2 1/2-x,1/2+y,1/2-z
3 -x,-y,-z
4 -1/2+x,-1/2-y,-1/2+z
_cell_length_a 4.1847(19)
_cell_length_b 13.013(6)
_cell_length_c 24.919(11)
_cell_angle_alpha 90
_cell_angle_beta 93.169(8)
_cell_angle_gamma 90
_cell_formula_units_Z 4
loop_
_atom_type_symbol
_atom_type_radius_bond
C 0.68
H 0.23
N 0.68
O 0.68
loop_
_atom_site_label
_atom_site_type_symbol
_atom_site_fract_x
_atom_site_fract_y
_atom_site_fract_z
O1 O 0.0826(3) 0.90450(9) 0.03202(5)
O2 O -0.6036(4) 0.46598(10) 0.23832(6)
O3 O -0.7782(4) 0.58428(11) 0.29014(6)
N1 N -0.3207(4) 1.03866(11) 0.07523(6)
H1 H -0.176(5) 1.0263(16) 0.0478(9)
N2 N -0.6436(4) 0.55695(13) 0.24971(6)
C1 C -0.3623(5) 1.29531(14) 0.03221(8)
H2 H -0.47650 1.27580 -0.00020
C2 C -0.2081(5) 1.38976(14) 0.03531(8)
H3 H -0.21960 1.43490 0.00530
C3 C -0.0375(5) 1.41805(15) 0.08215(8)
H4 H 0.07160 1.48210 0.08410
C4 C -0.0263(5) 1.35298(15) 0.12596(8)
H5 H 0.08890 1.37260 0.15830
C5 C -0.1823(5) 1.25939(14) 0.12289(8)
H6 H -0.17400 1.21510 0.15320
C6 C -0.3515(4) 1.22933(13) 0.07581(7)
C7 C -0.5295(5) 1.12858(13) 0.07282(8)
H7 H -0.67410 1.12520 0.10290
H8 H -0.66390 1.12640 0.03890
C8 C -0.3649(4) 0.96143(13) 0.10777(7)
H9 H -0.51390 0.97200 0.13460
C9 C -0.2164(4) 0.86512(13) 0.10722(7)
C10 C 0.0018(4) 0.84347(14) 0.06707(7)
H10 H 0.09360 0.77670 0.06700
C11 C -0.3133(4) 0.78562(14) 0.14500(7)
C12 C -0.4427(5) 0.81147(14) 0.19408(7)
H11 H -0.45280 0.88170 0.20420
C13 C -0.5549(5) 0.73792(14) 0.22771(8)
H12 H -0.65090 0.75730 0.25990
C14 C -0.5265(5) 0.63516(14) 0.21428(7)
C15 C -0.3937(5) 0.60558(14) 0.16725(8)
H13 H -0.37260 0.53480 0.15870
C16 C -0.2919(5) 0.68024(14) 0.13280(8)
H14 H -0.20510 0.66010 0.10000
#END
