
#######################################################################
#
#                 Cambridge Crystallographic Data Centre
#                                CCDC
#
#######################################################################
#
# If this CIF has been generated from an entry in the Cambridge
# Structural Database, then it will include bibliographic, chemical,
# crystal, experimental, refinement or atomic coordinate data resulting
# from the CCDC's data processing and validation procedures.
#
#######################################################################

data_CSD_CIF_BORZUE
_audit_creation_date 2009-08-25
_audit_creation_method CSD-ConQuest-V1
_database_code_CSD BORZUE
_database_code_depnum_ccdc_archive 'CCDC 615992'
_chemical_formula_sum 'C22 H23 N1 O2'
_chemical_formula_moiety
;
C22 H23 N1 O2
;
_journal_coden_Cambridge 1336
_journal_volume 9
_journal_year 2007
_journal_page_first 4143
_journal_name_full 'Org.Lett. '
loop_
_publ_author_name
"J.Barluenga"
"F.Andina"
"F.Aznar"
"C.Valdes"
_chemical_name_systematic
;
2-t-Butyl-2,3-dihydro-4-methoxy-3-phenylnaphtho(2,1-d)isoxazole
;
_cell_volume   1737.133
_exptl_crystal_colour 'colorless'
_exptl_crystal_density_diffrn 1.275
_exptl_crystal_description 'prism'
_diffrn_ambient_temperature 100
#These two values have been output from a single CSD field.
_refine_ls_R_factor_gt 0.042
_refine_ls_wR_factor_gt 0.042
_symmetry_cell_setting monoclinic
_symmetry_space_group_name_H-M 'P 21/n'
_symmetry_Int_Tables_number 14
loop_
_symmetry_equiv_pos_site_id
_symmetry_equiv_pos_as_xyz
1 x,y,z
2 1/2-x,1/2+y,1/2-z
3 -x,-y,-z
4 -1/2+x,-1/2-y,-1/2+z
_cell_length_a 5.5290(3)
_cell_length_b 20.7502(10)
_cell_length_c 15.2602(7)
_cell_angle_alpha 90
_cell_angle_beta 97.156(3)
_cell_angle_gamma 90
_cell_formula_units_Z 4
loop_
_atom_type_symbol
_atom_type_radius_bond
C 0.68
H 0.23
N 0.68
O 0.68
loop_
_atom_site_label
_atom_site_type_symbol
_atom_site_fract_x
_atom_site_fract_y
_atom_site_fract_z
C1 C 0.3141(4) 0.08327(9) 0.24164(14)
C2 C 0.3419(4) 0.01191(9) 0.22725(14)
C3 C 0.1901(4) -0.03132(9) 0.17441(14)
C4 C 0.2542(4) -0.09548(9) 0.17538(14)
C5 C 0.4685(4) -0.11743(9) 0.22727(14)
C6 C 0.5379(4) -0.18327(9) 0.22945(16)
C7 C 0.7473(4) -0.20389(10) 0.27918(16)
C8 C 0.9002(4) -0.16014(10) 0.32976(16)
C9 C 0.8401(4) -0.09608(9) 0.33041(14)
C10 C 0.6253(4) -0.07386(9) 0.28008(14)
C11 C 0.5464(4) -0.00876(9) 0.27715(14)
C12 C 0.3371(4) 0.12479(9) 0.16170(14)
C13 C 0.1631(4) 0.17104(9) 0.13566(15)
C14 C 0.1803(4) 0.20905(10) 0.06198(16)
C15 C 0.3717(4) 0.20095(10) 0.01339(16)
C16 C 0.5496(4) 0.15497(10) 0.03940(16)
C17 C 0.5328(4) 0.11713(10) 0.11303(14)
C18 C 0.4291(4) 0.10876(9) 0.40244(14)
C19 C 0.2869(4) 0.17221(10) 0.39420(16)
C20 C 0.6539(4) 0.11789(10) 0.47064(16)
C21 C 0.2718(4) 0.05408(10) 0.43061(16)
C22 C -0.1641(4) -0.04620(11) 0.07103(16)
N1 N 0.5167(3) 0.09807(7) 0.31475(11)
O1 O 0.6708(2) 0.03873(6) 0.32524(10)
O2 O -0.0106(2) -0.00452(6) 0.12826(10)
H1 H 0.152(4) 0.0919(9) 0.2617(14)
H2 H 0.144(4) -0.1277(10) 0.1409(15)
H3 H 0.431(4) -0.2125(11) 0.1903(16)
H4 H 0.795(4) -0.2477(11) 0.2804(15)
H5 H 1.048(4) -0.1763(10) 0.3662(15)
H6 H 0.951(4) -0.0641(10) 0.3645(14)
H7 H 0.030(4) 0.1781(10) 0.1704(16)
H8 H 0.056(5) 0.2403(12) 0.0479(16)
H9 H 0.380(5) 0.2256(12) -0.0395(18)
H10 H 0.683(4) 0.150(1) 0.0043(16)
H11 H 0.660(4) 0.0859(11) 0.1312(15)
H12 H 0.141(4) 0.1687(11) 0.3543(16)
H13 H 0.392(4) 0.2081(11) 0.3730(15)
H14 H 0.241(4) 0.1860(11) 0.4551(17)
H15 H 0.752(4) 0.1525(11) 0.4509(16)
H16 H 0.765(4) 0.0773(11) 0.4765(15)
H17 H 0.595(4) 0.1294(11) 0.5289(17)
H18 H 0.112(5) 0.0510(11) 0.3945(16)
H19 H 0.365(4) 0.0121(10) 0.4315(14)
H20 H 0.233(4) 0.0633(10) 0.4934(17)
H21 H -0.235(4) -0.0795(10) 0.1033(14)
H22 H -0.074(4) -0.065(1) 0.0233(16)
H23 H -0.303(5) -0.0181(12) 0.0437(17)
#END
