
#######################################################################
#
#                 Cambridge Crystallographic Data Centre
#                                CCDC
#
#######################################################################
#
# If this CIF has been generated from an entry in the Cambridge
# Structural Database, then it will include bibliographic, chemical,
# crystal, experimental, refinement or atomic coordinate data resulting
# from the CCDC's data processing and validation procedures.
#
#######################################################################

data_CSD_CIF_BOSSEJ
_audit_creation_date 2014-10-08
_audit_creation_method CSD-ConQuest-V1
_database_code_CSD BOSSEJ
_database_code_depnum_ccdc_archive 'CCDC 1028115'
_chemical_formula_sum 'C27 H23 N1 O6'
_chemical_formula_moiety
;
C27 H23 N1 O6
;
_journal_coden_Cambridge 4
_journal_volume 136
_journal_year 2014
_journal_page_first 12137
_journal_name_full 'J.Am.Chem.Soc. '
loop_
_publ_author_name
"K.C.Nicolaou"
"C.R.H.Hale"
"C.Nilewski"
"H.A.Ioannidou"
"A.ElMarrouni"
"L.G.Nilewski"
"K.Beabout"
"T.T.Wang"
"Y.Shamoo"
_chemical_name_systematic
;
3,4-bis(benzyloxy)-8,8-dimethoxynaphtho[2,3-d][1,2]oxazol-5(8H)-one
;
_cell_volume   2249.370
_exptl_crystal_colour 'colorless'
_exptl_crystal_density_diffrn 1.351
_exptl_crystal_description 'Plate-like'
_diffrn_ambient_temperature 296
#These two values have been output from a single CSD field.
_refine_ls_R_factor_gt 0.0492
_refine_ls_wR_factor_gt 0.0492
_symmetry_cell_setting monoclinic
_symmetry_space_group_name_H-M 'P 21/c'
_symmetry_Int_Tables_number 14
loop_
_symmetry_equiv_pos_site_id
_symmetry_equiv_pos_as_xyz
1 x,y,z
2 -x,1/2+y,1/2-z
3 -x,-y,-z
4 x,-1/2-y,-1/2+z
_cell_length_a 11.7311(11)
_cell_length_b 23.326(2)
_cell_length_c 8.5134(8)
_cell_angle_alpha 90
_cell_angle_beta 105.081(1)
_cell_angle_gamma 90
_cell_formula_units_Z 4
loop_
_atom_type_symbol
_atom_type_radius_bond
C 0.68
H 0.23
N 0.68
O 0.68
loop_
_atom_site_label
_atom_site_type_symbol
_atom_site_fract_x
_atom_site_fract_y
_atom_site_fract_z
O1 O 0.04577(14) 0.06606(7) 0.5593(2)
O2 O 0.02053(16) 0.06626(8) 0.8022(2)
O3 O 0.45750(15) 0.07386(7) 1.0098(2)
O4 O 0.13237(14) 0.27751(7) 0.6605(2)
O5 O 0.45857(12) 0.18996(6) 0.99850(17)
O6 O 0.40777(14) 0.31812(6) 0.90255(19)
N1 N 0.22065(18) 0.31973(8) 0.7250(3)
C1 C 0.1123(2) 0.06931(10) 0.7231(3)
C2 C 0.1911(2) 0.01834(10) 0.7675(3)
H1 H 0.16050 -0.01740 0.73080
C3 C 0.3008(2) 0.02102(10) 0.8549(3)
H2 H 0.34340 -0.01290 0.87940
C4 C 0.3597(2) 0.07515(9) 0.9162(3)
C5 C 0.29566(18) 0.12943(9) 0.8566(2)
C6 C 0.17850(18) 0.12638(9) 0.7573(3)
C7 C 0.1167(2) 0.17432(10) 0.6893(3)
H3 H 0.03950 0.17200 0.62480
C8 C 0.17534(19) 0.22590(9) 0.7218(3)
C9 C 0.28759(18) 0.23162(9) 0.8219(3)
C10 C 0.35048(17) 0.18311(8) 0.8931(2)
C11 C 0.30914(19) 0.29206(9) 0.8185(3)
C12 C 0.1135(3) 0.06405(13) 0.4444(3)
H4 H 0.15140 0.10040 0.44180
H5 H 0.06280 0.05580 0.33870
H6 H 0.17230 0.03460 0.47450
C13 C 0.0516(3) 0.07834(16) 0.9706(4)
H7 H 0.12000 0.05640 1.02350
H8 H -0.01290 0.06840 1.01540
H9 H 0.06870 0.11850 0.98720
C14 C 0.5545(2) 0.19244(13) 0.9210(3)
H10 H 0.54220 0.22390 0.84410
H11 H 0.55790 0.15710 0.86240
C15 C 0.66705(19) 0.20088(10) 1.0491(3)
C16 C 0.7457(3) 0.15687(14) 1.0975(4)
H12 H 0.72870 0.12050 1.05300
C17 C 0.8520(3) 0.1673(2) 1.2149(5)
H13 H 0.90580 0.13770 1.24890
C18 C 0.8769(3) 0.2209(2) 1.2795(4)
H14 H 0.94780 0.22780 1.35660
C19 C 0.7992(3) 0.26339(18) 1.2319(4)
H15 H 0.81580 0.29970 1.27690
C20 C 0.6958(2) 0.25375(13) 1.1178(3)
H16 H 0.64310 0.28390 1.08560
C21 C 0.4177(2) 0.37811(10) 0.8580(3)
H17 H 0.34730 0.39910 0.86270
H18 H 0.42680 0.38070 0.74810
C22 C 0.5231(2) 0.40276(9) 0.9755(3)
C23 C 0.6348(3) 0.39444(12) 0.9552(4)
H19 H 0.64460 0.37350 0.86670
C24 C 0.7325(3) 0.41723(15) 1.0661(5)
H20 H 0.80790 0.41100 1.05330
C25 C 0.6074(3) 0.45865(13) 1.2125(3)
H21 H 0.59740 0.48100 1.29840
C26 C 0.5105(3) 0.43539(11) 1.1034(3)
H22 H 0.43550 0.44200 1.11700
C27 C 0.7173(3) 0.44902(15) 1.1946(4)
H23 H 0.78270 0.46400 1.26980
#END
