
#######################################################################
#
#                 Cambridge Crystallographic Data Centre
#                                CCDC
#
#######################################################################
#
# If this CIF has been generated from an entry in the Cambridge
# Structural Database, then it will include bibliographic, chemical,
# crystal, experimental, refinement or atomic coordinate data resulting
# from the CCDC's data processing and validation procedures.
#
#######################################################################

data_CSD_CIF_BOSVIO
_audit_creation_date 1983-09-01
_audit_creation_method CSD-ConQuest-V1
_database_code_CSD BOSVIO
_chemical_formula_sum 'C13 H5 N5 O9'
_chemical_formula_moiety
;
C13 H5 N5 O9
;
_journal_coden_Cambridge 93
_journal_volume 266
_journal_year 1982
_journal_page_first 1191
_journal_name_full 'Dokl.Akad.Nauk SSSR(Russ.)(Proc.Nat.Acad.Sci.USSR) '
loop_
_publ_author_name
"L.A.Chetkina"
"Z.P.Povet'eva"
"V.K.Bel'skii"
"A.M.Andrievskii"
"A.N.Poplavskii"
"K.M.Dyumaev"
_chemical_name_systematic
;
2,4,8,10-Tetranitro-phenanthride
;
_chemical_melting_point 509.15
_cell_volume   1374.189
_exptl_crystal_colour 'yellow'
_exptl_special_details
;
Melting point range 509.15-510.15K

;
_diffrn_ambient_temperature ?
_diffrn_special_details
;
The study was carried out at room temperature,in the range 283-303K

;
#These two values have been output from a single CSD field.
_refine_ls_R_factor_gt 0.031
_refine_ls_wR_factor_gt 0.031
_symmetry_cell_setting orthorhombic
_symmetry_space_group_name_H-M 'P 21 21 21'
_symmetry_Int_Tables_number 19
loop_
_symmetry_equiv_pos_site_id
_symmetry_equiv_pos_as_xyz
1 x,y,z
2 1/2+x,1/2-y,-z
3 -x,1/2+y,1/2-z
4 1/2-x,-y,1/2+z
_cell_length_a 31.872(14)
_cell_length_b 5.223(3)
_cell_length_c 8.255(4)
_cell_angle_alpha 90
_cell_angle_beta 90
_cell_angle_gamma 90
_cell_formula_units_Z 4
loop_
_atom_type_symbol
_atom_type_radius_bond
C 0.68
H 0.23
N 0.68
O 0.68
loop_
_atom_site_label
_atom_site_type_symbol
_atom_site_fract_x
_atom_site_fract_y
_atom_site_fract_z
O1 O 0.13030 0.43570 0.64240
O2 O 0.06720 0.00780 -0.27250
O3 O 0.03040 0.35340 -0.30530
O4 O 0.01210 0.91910 0.13470
O5 O 0.04590 0.88390 0.35980
O6 O 0.24040 -0.22360 0.68320
O7 O 0.23830 -0.53130 0.50620
O8 O 0.16590 -0.32540 -0.03380
O9 O 0.19050 0.06010 -0.05930
N1 N 0.09900 0.50810 0.40310
N2 N 0.05410 0.21650 -0.22870
N3 N 0.03760 0.81220 0.22120
N4 N 0.22820 -0.31860 0.55650
N5 N 0.17620 -0.11790 0.01920
C1 C 0.09940 0.17580 0.01060
C2 C 0.06770 0.30990 -0.06690
C3 C 0.04850 0.51920 -0.00060
C4 C 0.06000 0.58600 0.15540
C5 C 0.12580 0.37320 0.50100
C6 C 0.17680 0.02480 0.52210
C7 C 0.19990 -0.16680 0.45400
C8 C 0.19830 -0.22220 0.28980
C9 C 0.17190 -0.07420 0.19630
C10 C 0.14460 0.11020 0.25700
C11 C 0.11200 0.24900 0.16590
C12 C 0.09030 0.45110 0.24300
C13 C 0.14900 0.16300 0.42370
H1 H 0.11300 0.01800 -0.04900
H2 H 0.02500 0.60100 -0.05500
H3 H 0.17800 0.07000 0.63700
H4 H 0.21400 -0.36600 0.23800
H5 H 0.08300 0.65000 0.44900
#END
