
#######################################################################
#
#                 Cambridge Crystallographic Data Centre
#                                CCDC
#
#######################################################################
#
# If this CIF has been generated from an entry in the Cambridge
# Structural Database, then it will include bibliographic, chemical,
# crystal, experimental, refinement or atomic coordinate data resulting
# from the CCDC's data processing and validation procedures.
#
#######################################################################

data_CSD_CIF_BOTJAX
_audit_creation_date 2014-10-08
_audit_creation_method CSD-ConQuest-V1
_database_code_CSD BOTJAX
_database_code_depnum_ccdc_archive 'CCDC 764388'
_chemical_formula_sum 'C28 H33 N5 O6'
_chemical_formula_moiety
;
C28 H33 N5 O6
;
_journal_coden_Cambridge 1500
_journal_volume 4
_journal_year 2014
_journal_page_first 49663
_journal_name_full 'RSC Advances '
loop_
_publ_author_name
"S.Goswami"
"R.Chakrabarty"
"Swapan Dey"
"Hoong-Kun Fun"
_chemical_name_systematic
;
N,N'-((2-nitro-1,3-phenylene)bis(oxymethylenepyridine-6,2-diyl))bis(2,2-dimeth
ylpropanamide)
;
_cell_volume   2667.854
_exptl_crystal_colour 'yellow'
_exptl_crystal_density_diffrn 1.333
_exptl_crystal_description 'block'
_diffrn_ambient_temperature 100
#These two values have been output from a single CSD field.
_refine_ls_R_factor_gt 0.0532
_refine_ls_wR_factor_gt 0.0532
_symmetry_cell_setting monoclinic
_symmetry_space_group_name_H-M 'C 2/c'
_symmetry_Int_Tables_number 15
loop_
_symmetry_equiv_pos_site_id
_symmetry_equiv_pos_as_xyz
1 x,y,z
2 -x,y,1/2-z
3 1/2+x,1/2+y,z
4 1/2-x,1/2+y,1/2-z
5 -x,-y,-z
6 x,-y,-1/2+z
7 -1/2-x,-1/2-y,-z
8 -1/2+x,-1/2-y,-1/2+z
_cell_length_a 21.4456(4)
_cell_length_b 11.4678(2)
_cell_length_c 11.4003(3)
_cell_angle_alpha 90
_cell_angle_beta 107.910(1)
_cell_angle_gamma 90
_cell_formula_units_Z 4
loop_
_atom_type_symbol
_atom_type_radius_bond
C 0.68
H 0.23
N 0.68
O 0.68
loop_
_atom_site_label
_atom_site_type_symbol
_atom_site_fract_x
_atom_site_fract_y
_atom_site_fract_z
O1 O 0.51289(4) -0.13861(7) 0.66595(8)
O2 O 0.41617(4) 0.03052(6) 0.56200(6)
O3 O 0.17697(4) -0.11093(7) -0.05999(8)
N1 N 0.50000 -0.08806(10) 0.75000
N2 N 0.29929(4) 0.04677(7) 0.26035(7)
N3 N 0.22629(4) 0.03623(8) 0.06781(7)
C1 C 0.50000 0.27690(13) 0.75000
C2 C 0.45644(5) 0.21914(9) 0.65185(10)
C3 C 0.45676(5) 0.09782(9) 0.65078(8)
C4 C 0.50000 0.03894(12) 0.75000
C5 C 0.37396(5) 0.08953(9) 0.45675(9)
C6 C 0.34407(4) 0.00106(9) 0.35874(8)
C7 C 0.36170(5) -0.11577(9) 0.36729(9)
C8 C 0.32947(5) -0.18837(9) 0.26976(10)
C9 C 0.28223(5) -0.14397(9) 0.16735(9)
C10 C 0.27009(5) -0.02406(9) 0.16663(8)
C11 C 0.18207(5) -0.00696(9) -0.03633(9)
C12 C 0.13624(5) 0.08333(9) -0.11880(9)
C13 C 0.11393(5) 0.03766(11) -0.25134(9)
C14 C 0.07694(5) 0.09451(10) -0.07026(10)
C15 C 0.16844(5) 0.20265(9) -0.11795(10)
H1 H 0.50000 0.3615(18) 0.75000
H2 H 0.4249(7) 0.2639(13) 0.5867(14)
H3 H 0.3996(7) 0.1428(12) 0.4250(13)
H4 H 0.3396(7) 0.1309(12) 0.4773(13)
H5 H 0.3967(7) -0.1409(12) 0.4376(14)
H6 H 0.3396(7) -0.2692(13) 0.2721(13)
H7 H 0.2586(7) -0.1950(12) 0.0997(14)
H8 H 0.1511(8) 0.0381(14) -0.2846(15)
H9 H 0.0829(7) 0.0903(12) -0.3048(14)
H10 H 0.0910(7) -0.0423(13) -0.2549(14)
H11 H 0.0469(7) 0.1510(14) -0.1191(15)
H12 H 0.0891(7) 0.1195(12) 0.0144(13)
H13 H 0.0559(7) 0.0203(13) -0.0704(13)
H14 H 0.1379(7) 0.2554(14) -0.1763(15)
H15 H 0.2088(7) 0.1956(12) -0.1430(14)
H16 H 0.1788(7) 0.2458(13) -0.0379(14)
H17 H 0.2278(7) 0.1121(15) 0.0760(15)
O1A O 0.48711(4) -0.13861(7) 0.83405(8)
O2A O 0.58383(4) 0.03052(6) 0.93800(6)
O3A O 0.82303(4) -0.11093(7) 1.55999(8)
N2A N 0.70071(4) 0.04677(7) 1.23965(7)
N3A N 0.77371(4) 0.03623(8) 1.43219(7)
C2A C 0.54356(5) 0.21914(9) 0.84815(10)
C3A C 0.54324(5) 0.09782(9) 0.84922(8)
C5A C 0.62604(5) 0.08953(9) 1.04325(9)
C6A C 0.65593(4) 0.00106(9) 1.14126(8)
C7A C 0.63830(5) -0.11577(9) 1.13271(9)
C8A C 0.67053(5) -0.18837(9) 1.23024(10)
C9A C 0.71777(5) -0.14397(9) 1.33265(9)
C10A C 0.72991(5) -0.02406(9) 1.33337(8)
C11A C 0.81793(5) -0.00696(9) 1.53633(9)
C12A C 0.86376(5) 0.08333(9) 1.61880(9)
C13A C 0.88607(5) 0.03766(11) 1.75134(9)
C14A C 0.92306(5) 0.09451(10) 1.57026(10)
C15A C 0.83156(5) 0.20265(9) 1.61795(10)
H2A H 0.5751(7) 0.2639(13) 0.9133(14)
H3A H 0.6004(7) 0.1428(12) 1.0750(13)
H4A H 0.6604(7) 0.1309(12) 1.0227(13)
H5A H 0.6033(7) -0.1409(12) 1.0624(14)
H6A H 0.6604(7) -0.2692(13) 1.2279(13)
H7A H 0.7414(7) -0.1950(12) 1.4003(14)
H8A H 0.8489(8) 0.0381(14) 1.7846(15)
H9A H 0.9171(7) 0.0903(12) 1.8048(14)
H10A H 0.9090(7) -0.0423(13) 1.7549(14)
H11A H 0.9531(7) 0.1510(14) 1.6191(15)
H12A H 0.9109(7) 0.1195(12) 1.4856(13)
H13A H 0.9441(7) 0.0203(13) 1.5704(13)
H14A H 0.8621(7) 0.2554(14) 1.6763(15)
H15A H 0.7912(7) 0.1956(12) 1.6430(14)
H16A H 0.8212(7) 0.2458(13) 1.5379(14)
H17A H 0.7722(7) 0.1121(15) 1.4240(15)
#END
