
#######################################################################
#
#                 Cambridge Crystallographic Data Centre
#                                CCDC
#
#######################################################################
#
# If this CIF has been generated from an entry in the Cambridge
# Structural Database, then it will include bibliographic, chemical,
# crystal, experimental, refinement or atomic coordinate data resulting
# from the CCDC's data processing and validation procedures.
#
#######################################################################

data_CSD_CIF_BOTLEC
_audit_creation_date 2009-08-25
_audit_creation_method CSD-ConQuest-V1
_database_code_CSD BOTLEC
_database_code_depnum_ccdc_archive 'CCDC 664370'
_chemical_formula_sum 'C14 H14 N2 O4'
_chemical_formula_moiety
;
C14 H14 N2 O4
;
_journal_coden_Cambridge 444
_journal_volume 78
_journal_year 2008
_journal_page_first 820
_journal_name_full 'Zh.Obshch.Khim.(Russ.)(Russ.J.Gen.Chem.) '
loop_
_publ_author_name
"V.M.Berestovitskaya"
"S.V.Makarenko"
"A.S.Smirnov"
"A.T.Gubaidullin"
"I.A.Litvinov"
"A.I.Pekki"
"Z.M.Sarkisyan"
_chemical_name_systematic
;
Ethyl 2-(N-methylindol-3-yl)-3-nitroacrylate
;
_chemical_melting_point 122
_cell_volume   1348.581
_exptl_crystal_colour 'yellow'
_exptl_crystal_density_diffrn 1.351
_exptl_special_details
;
Melting point range 122-124K

;
_exptl_crystal_description 'prism'
_exptl_crystal_preparation 'anhydrous ether'
_diffrn_ambient_temperature 295
#These two values have been output from a single CSD field.
_refine_ls_R_factor_gt 0.0746
_refine_ls_wR_factor_gt 0.0746
_symmetry_cell_setting monoclinic
_symmetry_space_group_name_H-M 'P 21/n'
_symmetry_Int_Tables_number 14
loop_
_symmetry_equiv_pos_site_id
_symmetry_equiv_pos_as_xyz
1 x,y,z
2 1/2-x,1/2+y,1/2-z
3 -x,-y,-z
4 -1/2+x,-1/2-y,-1/2+z
_cell_length_a 12.899(2)
_cell_length_b 8.548(2)
_cell_length_c 13.662(3)
_cell_angle_alpha 90
_cell_angle_beta 116.46(3)
_cell_angle_gamma 90
_cell_formula_units_Z 4
loop_
_atom_type_symbol
_atom_type_radius_bond
C 0.68
H 0.23
N 0.68
O 0.68
loop_
_atom_site_label
_atom_site_type_symbol
_atom_site_fract_x
_atom_site_fract_y
_atom_site_fract_z
O1 O 0.94181(19) 0.5846(3) 0.32551(18)
O2 O 0.7822(2) 0.4638(3) 0.20187(18)
C1 C 0.8025(2) 0.4445(3) 0.4425(2)
C2 C 0.7621(2) 0.3730(3) 0.5146(2)
C3 C 0.8661(2) 0.3810(3) 0.3877(2)
N1 N 0.7135(2) 0.6288(3) 0.4955(2)
C4 C 0.7685(3) 0.6003(3) 0.4335(3)
H1 H 0.78180 0.67450 0.39060
O3 O 0.9848(3) 0.2541(4) 0.2815(3)
C5 C 0.7065(2) 0.4905(3) 0.5454(3)
N2 N 0.9864(3) 0.1856(3) 0.3605(3)
C6 C 0.7621(3) 0.2205(4) 0.5525(3)
H2 H 0.79650 0.13920 0.53230
C7 C 0.9234(3) 0.2438(4) 0.4151(3)
H3 H 0.92150 0.18540 0.47180
C8 C 0.8591(2) 0.4770(3) 0.2927(2)
C9 C 0.6544(3) 0.4638(4) 0.6133(3)
H4 H 0.61900 0.54430 0.63300
O4 O 1.0426(3) 0.0647(4) 0.3963(3)
C10 C 0.7108(3) 0.1929(4) 0.6197(3)
H5 H 0.71170 0.09200 0.64550
C11 C 0.6708(3) 0.7797(4) 0.5093(3)
H6 H 0.63580 0.76950 0.55800
H7 H 0.61430 0.81730 0.43970
H8 H 0.73400 0.85250 0.53950
C12 C 0.6571(3) 0.3121(4) 0.6507(3)
H9 H 0.62310 0.28970 0.69640
C13 C 0.9413(4) 0.6931(5) 0.2430(3)
H10 H 0.97570 0.79150 0.27750
H11 H 0.86200 0.71330 0.18990
C14 C 1.0069(3) 0.6285(6) 0.1866(3)
H12 H 1.00430 0.70120 0.13200
H13 H 0.97290 0.53110 0.15250
H14 H 1.08590 0.61150 0.23880
#END
