
#######################################################################
#
#                 Cambridge Crystallographic Data Centre
#                                CCDC
#
#######################################################################
#
# If this CIF has been generated from an entry in the Cambridge
# Structural Database, then it will include bibliographic, chemical,
# crystal, experimental, refinement or atomic coordinate data resulting
# from the CCDC's data processing and validation procedures.
#
#######################################################################

data_CSD_CIF_BOVXOA
_audit_creation_date 2009-08-25
_audit_creation_method CSD-ConQuest-V1
_database_code_CSD BOVXOA
_database_code_depnum_ccdc_archive 'CCDC 741584'
_chemical_formula_sum 'C20 H26 N2 O8'
_chemical_formula_moiety
;
C20 H26 N2 O8
;
_journal_coeditor_code "IUCr ZL2211"
_journal_coden_Cambridge 1370
_journal_volume 65
_journal_year 2009
_journal_page_first o1540
_journal_name_full 'Acta Crystallogr.,Sect.E:Struct.Rep.Online '
loop_
_publ_author_name
"A.Kiessling"
"C.Campana"
"M.E.Kastner"
_chemical_name_systematic
;
[(2S,5R,6S,9R)-6-isopropyl-9-methyl-1,4-dioxaspiro[4.5]dec-2-yl]methyl 
3,5-dinitrobenzoate
;
_chemical_melting_point 368
_cell_volume   1060.257
_exptl_crystal_colour 'colorless'
_exptl_crystal_density_diffrn 1.323
_exptl_crystal_description 'needle'
_diffrn_ambient_temperature 100
_diffrn_special_details
;
pseudo-merohedral twin

;
#These two values have been output from a single CSD field.
_refine_ls_R_factor_gt 0.0181
_refine_ls_wR_factor_gt 0.0181
_symmetry_cell_setting monoclinic
_symmetry_space_group_name_H-M 'P 21'
_symmetry_Int_Tables_number 4
loop_
_symmetry_equiv_pos_site_id
_symmetry_equiv_pos_as_xyz
1 x,y,z
2 -x,1/2+y,-z
_cell_length_a 9.4396(5)
_cell_length_b 5.8825(3)
_cell_length_c 19.6719(10)
_cell_angle_alpha 90
_cell_angle_beta 103.923(3)
_cell_angle_gamma 90
_cell_formula_units_Z 2
loop_
_atom_type_symbol
_atom_type_radius_bond
C 0.68
H 0.23
N 0.68
O 0.68
loop_
_atom_site_label
_atom_site_type_symbol
_atom_site_fract_x
_atom_site_fract_y
_atom_site_fract_z
O1 O 0.72662(12) -0.12929(19) 0.71101(5)
C1 C 0.81610(17) -0.1291(3) 0.78046(7)
H1 H 0.91710 -0.17830 0.77960
C2 C 0.81810(17) 0.1200(3) 0.80073(8)
H2 H 0.73290 0.15890 0.81960
H3 H 0.90880 0.15910 0.83590
O2 O 0.81137(12) 0.23300(19) 0.73591(5)
C3 C 0.72348(19) 0.0946(3) 0.68212(8)
C4 C 0.78923(18) 0.0943(3) 0.61799(8)
H4 H 0.72450 -0.00530 0.58240
C5 C 0.7763(2) 0.3330(3) 0.58613(8)
H5 H 0.83590 0.44000 0.62020
H6 H 0.81540 0.33190 0.54370
C6 C 0.6194(2) 0.4149(4) 0.56676(8)
H7 H 0.56190 0.31660 0.52930
H8 H 0.61630 0.57170 0.54820
C7 C 0.54978(19) 0.4117(3) 0.62943(8)
H9 H 0.60410 0.52230 0.66490
C8 C 0.56642(18) 0.1768(3) 0.66303(8)
H10 H 0.52890 0.18110 0.70590
H11 H 0.50630 0.06700 0.63020
C9 C 0.3900(2) 0.4850(4) 0.60923(11)
H12 H 0.33470 0.38130 0.57360
H13 H 0.38310 0.64000 0.59040
H14 H 0.34970 0.48090 0.65070
C10 C 0.9428(2) -0.0117(4) 0.63175(9)
H15 H 0.94590 -0.14140 0.66490
C11 C 0.9717(2) -0.1084(4) 0.56378(9)
H16 H 0.96930 0.01520 0.53010
H17 H 0.89640 -0.22060 0.54390
H18 H 1.06780 -0.18140 0.57400
C12 C 1.0663(2) 0.1510(5) 0.66460(13)
H19 H 1.15820 0.06640 0.67820
H20 H 1.04520 0.22220 0.70610
H21 H 1.07480 0.26870 0.63060
C13 C 0.75391(17) -0.2914(3) 0.82456(8)
H22 H 0.73410 -0.44030 0.80070
H23 H 0.82410 -0.31480 0.87030
O3 O 0.61928(12) -0.19409(19) 0.83493(5)
C14 C 0.55649(16) -0.3039(3) 0.87874(7)
C15 C 0.43170(16) -0.1728(3) 0.89389(7)
C16 C 0.36462(15) -0.2611(3) 0.94374(7)
H24 H 0.39840 -0.39890 0.96730
C17 C 0.24814(16) -0.1456(3) 0.95844(7)
C18 C 0.19642(16) 0.0567(3) 0.92634(7)
H25 H 0.11670 0.13500 0.93730
C19 C 0.26696(16) 0.1397(3) 0.87730(8)
C20 C 0.38314(16) 0.0311(3) 0.86020(8)
H26 H 0.42880 0.09360 0.82640
O4 O 0.59532(12) -0.4860(2) 0.90476(6)
N1 N 0.21586(14) 0.3563(2) 0.84164(6)
O5 O 0.28039(12) 0.4291(2) 0.79908(5)
O6 O 0.11232(11) 0.4517(2) 0.85721(6)
N2 N 0.17654(13) -0.2454(3) 1.01017(6)
O7 O 0.07569(12) -0.1400(2) 1.02463(6)
O8 O 0.22049(12) -0.4300(2) 1.03556(6)
#END
