
#######################################################################
#
#                 Cambridge Crystallographic Data Centre
#                                CCDC
#
#######################################################################
#
# If this CIF has been generated from an entry in the Cambridge
# Structural Database, then it will include bibliographic, chemical,
# crystal, experimental, refinement or atomic coordinate data resulting
# from the CCDC's data processing and validation procedures.
#
#######################################################################

data_CSD_CIF_BOWCOG
_audit_creation_date 2009-08-25
_audit_creation_method CSD-ConQuest-V1
_database_code_CSD BOWCOG
_database_code_depnum_ccdc_archive 'CCDC 741146'
_chemical_formula_sum 'C23 H25 N1 O6'
_chemical_formula_moiety
;
C23 H25 N1 O6
;
_journal_coden_Cambridge 1336
_journal_volume 11
_journal_year 2009
_journal_page_first 2385
_journal_name_full 'Org.Lett. '
loop_
_publ_author_name
"Guan-Wu Wang"
"Jie Gao"
_chemical_name_systematic
;
4',4',6,6-Tetramethyl-3-(3-nitrophenyl)-3,5,6,7-tetrahydro-spiro[benzofuran-2(
4H),1'-cyclohexane]-2',4,6'-trione
;
_chemical_melting_point 474.15
_cell_volume   2098.394
_exptl_crystal_density_diffrn 1.302
_exptl_special_details
;
Melting point range 474.15-476.15K

;
_diffrn_ambient_temperature 293
#These two values have been output from a single CSD field.
_refine_ls_R_factor_gt 0.0736
_refine_ls_wR_factor_gt 0.0736
_symmetry_cell_setting monoclinic
_symmetry_space_group_name_H-M 'P 21/c'
_symmetry_Int_Tables_number 14
loop_
_symmetry_equiv_pos_site_id
_symmetry_equiv_pos_as_xyz
1 x,y,z
2 -x,1/2+y,1/2-z
3 -x,-y,-z
4 x,-1/2-y,-1/2+z
_cell_length_a 12.800(3)
_cell_length_b 16.100(3)
_cell_length_c 11.140(2)
_cell_angle_alpha 90
_cell_angle_beta 113.93(3)
_cell_angle_gamma 90
_cell_formula_units_Z 4
loop_
_atom_type_symbol
_atom_type_radius_bond
C 0.68
H 0.23
N 0.68
O 0.68
loop_
_atom_site_label
_atom_site_type_symbol
_atom_site_fract_x
_atom_site_fract_y
_atom_site_fract_z
O1 O 0.3714(2) 0.1223(2) 0.4885(3)
O2 O 0.1025(3) 0.0636(2) 0.6401(4)
O3 O 0.2100(3) -0.22618(19) 0.5176(3)
O4 O 0.3149(2) 0.04227(16) 0.6608(3)
O5 O 0.1470(4) -0.0587(3) -0.0939(3)
O6 O 0.0167(3) -0.0873(2) -0.0266(3)
N1 N 0.1161(4) -0.0708(3) -0.0054(4)
C1 C 0.1557(5) 0.2609(3) 0.5005(5)
H1 H 0.19260 0.30360 0.47150
H2 H 0.21200 0.23110 0.57220
H3 H 0.10140 0.28570 0.52890
C2 C 0.0058(4) 0.2484(3) 0.2753(5)
H4 H 0.04220 0.29120 0.24610
H5 H -0.04890 0.27290 0.30340
H6 H -0.03240 0.21040 0.20450
C3 C 0.0949(4) 0.2019(3) 0.3888(4)
C4 C 0.1816(4) 0.1591(3) 0.3449(4)
H7 H 0.14160 0.12020 0.27460
H8 H 0.21780 0.20050 0.31120
C5 C 0.2701(3) 0.1143(2) 0.4557(4)
C6 C 0.2257(3) 0.0528(2) 0.5291(4)
C7 C 0.1176(3) 0.0825(3) 0.5446(4)
C8 C 0.0369(3) 0.1325(3) 0.4355(5)
H9 H -0.01870 0.15750 0.46330
H10 H -0.00400 0.09610 0.36210
C9 C 0.2012(3) -0.0392(2) 0.4673(4)
H11 H 0.11910 -0.05060 0.43440
C10 C 0.2624(3) -0.0892(2) 0.5891(4)
C11 C 0.2611(3) -0.1781(2) 0.6074(4)
C12 C 0.3243(4) -0.2074(3) 0.7464(5)
H12 H 0.34710 -0.26460 0.74400
H13 H 0.27160 -0.20680 0.78910
C13 C 0.4295(4) -0.1580(3) 0.8305(4)
C14 C 0.3969(4) -0.0651(3) 0.8249(4)
H14 H 0.35720 -0.05540 0.88170
H15 H 0.46570 -0.03150 0.85680
C15 C 0.3234(3) -0.0401(2) 0.6907(4)
C16 C 0.5229(4) -0.1676(4) 0.7787(5)
H16 H 0.49390 -0.14980 0.68880
H17 H 0.54560 -0.22480 0.78440
H18 H 0.58760 -0.13420 0.83040
C17 C 0.4758(5) -0.1876(3) 0.9735(5)
H19 H 0.41750 -0.18170 1.00640
H20 H 0.54100 -0.15470 1.02580
H21 H 0.49790 -0.24490 0.97800
C18 C 0.2400(3) -0.0523(2) 0.3573(4)
C19 C 0.1612(3) -0.0563(2) 0.2288(4)
H22 H 0.08330 -0.05370 0.20880
C20 C 0.2001(4) -0.0641(2) 0.1303(4)
C21 C 0.3126(4) -0.0663(3) 0.1541(4)
H23 H 0.33580 -0.06910 0.08510
C22 C 0.3912(4) -0.0642(3) 0.2810(4)
H24 H 0.46880 -0.06720 0.29930
C23 C 0.3557(3) -0.0577(2) 0.3827(4)
H25 H 0.40980 -0.05690 0.46900
#END
