
#######################################################################
#
#                 Cambridge Crystallographic Data Centre
#                                CCDC
#
#######################################################################
#
# If this CIF has been generated from an entry in the Cambridge
# Structural Database, then it will include bibliographic, chemical,
# crystal, experimental, refinement or atomic coordinate data resulting
# from the CCDC's data processing and validation procedures.
#
#######################################################################

data_CSD_CIF_BOWDAT
_audit_creation_date 2009-08-25
_audit_creation_method CSD-ConQuest-V1
_database_code_CSD BOWDAT
_database_code_depnum_ccdc_archive 'CCDC 712066'
_chemical_formula_sum 'C19 H22 N2 O3'
_chemical_formula_moiety
;
C19 H22 N2 O3
;
_journal_coden_Cambridge 1336
_journal_volume 11
_journal_year 2009
_journal_page_first 2333
_journal_name_full 'Org.Lett. '
loop_
_publ_author_name
"Yunfeng Chen"
"Cheng Zhong"
"J.L.Petersen"
"N.G.Akhmedov"
"Xiaodong Shi"
_chemical_name_systematic
;
(2R,3R,4S)-1-Benzyl-4-methyl-3-nitro-2-phenylpiperidin-4-ol
;
_chemical_melting_point 450.85
_cell_volume    853.585
_exptl_crystal_colour 'colorless'
_exptl_crystal_density_diffrn 1.27
_exptl_special_details
;
Melting point range 450.85-452.35K

;
_diffrn_ambient_temperature 293
#These two values have been output from a single CSD field.
_refine_ls_R_factor_gt 0.063
_refine_ls_wR_factor_gt 0.063
loop_
_citation_database_id_CSD
_citation_special_details
BOWHUR "is a stereoisomer of this entry"
_symmetry_cell_setting triclinic
_symmetry_space_group_name_H-M 'P -1'
_symmetry_Int_Tables_number 2
loop_
_symmetry_equiv_pos_site_id
_symmetry_equiv_pos_as_xyz
1 x,y,z
2 -x,-y,-z
_cell_length_a 5.7503(6)
_cell_length_b 10.5035(11)
_cell_length_c 14.4320(15)
_cell_angle_alpha 87.326(2)
_cell_angle_beta 82.357(2)
_cell_angle_gamma 81.262(2)
_cell_formula_units_Z 2
loop_
_atom_type_symbol
_atom_type_radius_bond
C 0.68
H 0.23
N 0.68
O 0.68
loop_
_atom_site_label
_atom_site_type_symbol
_atom_site_fract_x
_atom_site_fract_y
_atom_site_fract_z
O1 O 0.4938(3) 0.12733(14) 0.53077(9)
O2 O 0.8374(3) 0.17469(18) 0.54597(11)
O3 O 0.41568(19) -0.06911(11) 0.68064(8)
H1 H 0.44050 -0.08100 0.62420
N1 N 0.3292(2) 0.19518(12) 0.82063(8)
N2 N 0.6463(3) 0.14480(13) 0.57823(9)
C1 C 0.3577(2) 0.20719(13) 0.71762(9)
H2 H 0.22880 0.17270 0.69370
C2 C 0.5957(2) 0.12699(13) 0.68209(9)
H3 H 0.71980 0.16020 0.71020
C3 C 0.6089(2) -0.01776(14) 0.70908(10)
C4 C 0.5713(3) -0.02120(15) 0.81580(11)
H4 H 0.56990 -0.10950 0.83840
H5 H 0.70230 0.01050 0.83880
C5 C 0.3405(3) 0.06006(15) 0.85364(11)
H6 H 0.20900 0.02440 0.83430
H7 H 0.32400 0.05660 0.92140
C6 C 0.1001(3) 0.26738(16) 0.85981(11)
H8 H -0.02590 0.21930 0.85050
H9 H 0.07400 0.34930 0.82610
C7 C 0.0870(3) 0.29202(14) 0.96263(10)
C8 C -0.0954(3) 0.25641(18) 1.02655(13)
H10 H -0.20400 0.20950 1.00720
C9 C -0.1167(3) 0.2906(2) 1.11973(13)
H11 H -0.23990 0.26650 1.16220
C10 C 0.0415(3) 0.35900(18) 1.14904(12)
H12 H 0.02470 0.38300 1.21110
C11 C 0.2263(3) 0.39248(19) 1.08671(13)
H13 H 0.33620 0.43790 1.10690
C12 C 0.2492(3) 0.35874(17) 0.99400(12)
H14 H 0.37520 0.38120 0.95240
C13 C 0.3571(3) 0.34671(14) 0.68477(10)
C14 C 0.5144(3) 0.41971(16) 0.71375(12)
H15 H 0.61930 0.38360 0.75490
C15 C 0.5165(3) 0.54608(18) 0.68188(14)
H16 H 0.62270 0.59430 0.70170
C16 C 0.3616(4) 0.60064(17) 0.62077(13)
H17 H 0.36470 0.68510 0.59880
C17 C 0.2041(4) 0.53033(19) 0.59276(13)
H18 H 0.09770 0.56770 0.55260
C18 C 0.2013(3) 0.40282(16) 0.62396(12)
H19 H 0.09440 0.35530 0.60390
C19 C 0.8429(3) -0.09471(18) 0.66924(14)
H20 H 0.84960 -0.18250 0.69160
H21 H 0.97150 -0.05840 0.68870
H22 H 0.85580 -0.09180 0.60220
#END
