
#######################################################################
#
#                 Cambridge Crystallographic Data Centre
#                                CCDC
#
#######################################################################
#
# If this CIF has been generated from an entry in the Cambridge
# Structural Database, then it will include bibliographic, chemical,
# crystal, experimental, refinement or atomic coordinate data resulting
# from the CCDC's data processing and validation procedures.
#
#######################################################################

data_CSD_CIF_BOWDUN
_audit_creation_date 2009-08-24
_audit_creation_method CSD-ConQuest-V1
_database_code_CSD BOWDUN
_database_code_depnum_ccdc_archive 'CCDC 719560'
_chemical_formula_sum 'C21 H26 N2 O4'
_chemical_formula_moiety
;
C21 H26 N2 O4
;
_journal_coden_Cambridge 1336
_journal_volume 11
_journal_year 2009
_journal_page_first 2333
_journal_name_full 'Org.Lett. '
loop_
_publ_author_name
"Yunfeng Chen"
"Cheng Zhong"
"J.L.Petersen"
"N.G.Akhmedov"
"Xiaodong Shi"
_chemical_name_systematic
;
(2S,3S,4R)-1-((S)-1-(4-Methoxyphenyl)ethyl)-4-methyl-3-nitro-2-phenylpiperidin
-4-ol
;
_chemical_melting_point 429.35
_cell_volume   1995.853
_exptl_crystal_colour 'colorless'
_exptl_crystal_density_diffrn 1.233
_exptl_special_details
;
Melting point range 429.35-431.95K

;
_diffrn_ambient_temperature 293
#These two values have been output from a single CSD field.
_refine_ls_R_factor_gt 0.0402
_refine_ls_wR_factor_gt 0.0402
loop_
_citation_database_id_CSD
_citation_special_details
BOWJED "is a stereoisomer of this entry"
_symmetry_cell_setting orthorhombic
_symmetry_space_group_name_H-M 'P 21 21 21'
_symmetry_Int_Tables_number 19
loop_
_symmetry_equiv_pos_site_id
_symmetry_equiv_pos_as_xyz
1 x,y,z
2 1/2-x,-y,1/2+z
3 -x,1/2+y,1/2-z
4 1/2+x,1/2-y,-z
_cell_length_a 8.1499(5)
_cell_length_b 11.3900(7)
_cell_length_c 21.5007(14)
_cell_angle_alpha 90
_cell_angle_beta 90
_cell_angle_gamma 90
_cell_formula_units_Z 4
loop_
_atom_type_symbol
_atom_type_radius_bond
C 0.68
H 0.23
N 0.68
O 0.68
loop_
_atom_site_label
_atom_site_type_symbol
_atom_site_fract_x
_atom_site_fract_y
_atom_site_fract_z
O1 O 0.8563(2) 1.18773(10) 0.16320(9)
O2 O 1.0550(2) 1.12954(12) 0.10431(10)
O3 O 1.18206(14) 0.91378(11) 0.14551(7)
H1 H 1.19660 0.97600 0.12720
O4 O 0.35889(19) 0.38382(12) 0.20404(8)
N1 N 0.78355(15) 0.80595(9) 0.11524(5)
N2 N 0.9395(2) 1.11096(11) 0.13958(8)
C1 C 0.84245(17) 0.92228(11) 0.09395(7)
H2 H 0.93780 0.91120 0.06680
C2 C 0.89778(18) 0.98503(11) 0.15389(7)
H3 H 0.80520 0.98470 0.18300
C3 C 1.0440(2) 0.92458(13) 0.18607(7)
C4 C 0.9870(2) 0.79942(13) 0.19948(8)
H4 H 1.07840 0.75430 0.21580
H5 H 0.90200 0.80130 0.23100
C5 C 0.9212(2) 0.73959(11) 0.14181(7)
H6 H 1.00810 0.73300 0.11120
H7 H 0.88490 0.66100 0.15230
C6 C 0.71450(18) 0.99398(12) 0.05975(7)
C7 C 0.7477(2) 1.03479(14) 0.00023(8)
H8 H 0.84520 1.01330 -0.01920
C8 C 0.6379(3) 1.10709(17) -0.03073(10)
H9 H 0.66240 1.13400 -0.07050
C9 C 0.4939(3) 1.13887(16) -0.00296(11)
H10 H 0.42050 1.18770 -0.02370
C10 C 0.4579(2) 1.09852(17) 0.05564(11)
H11 H 0.35960 1.12000 0.07450
C11 C 0.5672(2) 1.02576(13) 0.08709(9)
H12 H 0.54110 0.99840 0.12660
C12 C 1.0920(3) 0.98758(17) 0.24614(10)
H13 H 1.17760 0.94450 0.26660
H14 H 0.99820 0.99260 0.27300
H15 H 1.13020 1.06520 0.23650
C13 C 0.69164(19) 0.73885(12) 0.06720(7)
H16 H 0.60670 0.79180 0.05120
C14 C 0.7937(3) 0.70101(15) 0.01123(8)
H17 H 0.84190 0.76890 -0.00790
H18 H 0.72460 0.66170 -0.01830
H19 H 0.87900 0.64860 0.02460
C15 C 0.60213(18) 0.63853(11) 0.09937(6)
C16 C 0.6522(2) 0.52233(13) 0.09610(8)
H20 H 0.74050 0.50260 0.07080
C17 C 0.5733(2) 0.43417(12) 0.12990(8)
H21 H 0.60930 0.35680 0.12710
C18 C 0.4428(2) 0.46215(13) 0.16715(8)
C19 C 0.3860(2) 0.57734(15) 0.16905(9)
H22 H 0.29460 0.59610 0.19290
C20 C 0.4654(2) 0.66362(13) 0.13553(8)
H23 H 0.42640 0.74030 0.13720
C21 C 0.4312(4) 0.27375(19) 0.21476(15)
H24 H 0.43010 0.22880 0.17700
H25 H 0.37050 0.23280 0.24630
H26 H 0.54240 0.28440 0.22830
#END
