
#######################################################################
#
#                 Cambridge Crystallographic Data Centre
#                                CCDC
#
#######################################################################
#
# If this CIF has been generated from an entry in the Cambridge
# Structural Database, then it will include bibliographic, chemical,
# crystal, experimental, refinement or atomic coordinate data resulting
# from the CCDC's data processing and validation procedures.
#
#######################################################################

data_CSD_CIF_BOWFAV
_audit_creation_date 2009-08-25
_audit_creation_method CSD-ConQuest-V1
_database_code_CSD BOWFAV
_database_code_depnum_ccdc_archive 'CCDC 719562'
_chemical_formula_sum 'C20 H23 N3 O5'
_chemical_formula_moiety
;
C20 H23 N3 O5
;
_journal_coden_Cambridge 1336
_journal_volume 11
_journal_year 2009
_journal_page_first 2333
_journal_name_full 'Org.Lett. '
loop_
_publ_author_name
"Yunfeng Chen"
"Cheng Zhong"
"J.L.Petersen"
"N.G.Akhmedov"
"Xiaodong Shi"
_chemical_name_systematic
;
(2R,3R,4S)-4-Methyl-3-nitro-1-((S)-1-(4-nitrophenyl)ethyl)-2-phenylpiperidin-4
-ol
;
_chemical_melting_point 478.65
_cell_volume    959.230
_exptl_crystal_colour 'colorless'
_exptl_crystal_density_diffrn 1.334
_exptl_special_details
;
Melting point range 478.65-481.55K

;
_diffrn_ambient_temperature 293
#These two values have been output from a single CSD field.
_refine_ls_R_factor_gt 0.0589
_refine_ls_wR_factor_gt 0.0589
loop_
_citation_database_id_CSD
_citation_special_details
BOWJIH "is a stereoisomer of this entry"
BOWJON "is a stereoisomer of this entry"
_symmetry_cell_setting triclinic
_symmetry_space_group_name_H-M 'P -1'
_symmetry_Int_Tables_number 2
loop_
_symmetry_equiv_pos_site_id
_symmetry_equiv_pos_as_xyz
1 x,y,z
2 -x,-y,-z
_cell_length_a 8.266(1)
_cell_length_b 8.6189(10)
_cell_length_c 13.5928(17)
_cell_angle_alpha 90.560(2)
_cell_angle_beta 92.301(2)
_cell_angle_gamma 97.502(2)
_cell_formula_units_Z 2
loop_
_atom_type_symbol
_atom_type_radius_bond
C 0.68
H 0.23
N 0.68
O 0.68
loop_
_atom_site_label
_atom_site_type_symbol
_atom_site_fract_x
_atom_site_fract_y
_atom_site_fract_z
O1 O 0.20144(17) 0.51923(16) 0.80169(11)
O2 O 0.3585(2) 0.59655(15) 0.92726(13)
O3 O 0.03692(15) 0.22842(17) 0.88208(10)
H1 H 0.05100 0.20680 0.82440
O4 O 0.0423(2) -0.1308(2) 0.33285(12)
O5 O -0.05065(19) -0.32864(19) 0.41953(14)
N1 N 0.41638(17) 0.10220(14) 0.80857(9)
N2 N 0.29380(17) 0.49454(15) 0.87025(11)
N3 N 0.0414(2) -0.2078(2) 0.40838(13)
C1 C 0.37235(19) 0.25918(16) 0.78667(11)
H2 H 0.27660 0.24970 0.74100
C2 C 0.33004(19) 0.32990(16) 0.88567(11)
H3 H 0.42730 0.33530 0.92980
C3 C 0.1879(2) 0.23427(18) 0.93773(12)
C4 C 0.2387(3) 0.07077(19) 0.94894(13)
H4 H 0.33310 0.07630 0.99420
H5 H 0.15050 0.00210 0.97690
C5 C 0.2798(2) 0.00256(18) 0.85121(13)
H6 H 0.30900 -0.10180 0.86100
H7 H 0.18500 -0.00550 0.80620
C6 C 0.51246(18) 0.36424(16) 0.74298(11)
C7 C 0.4838(2) 0.44943(17) 0.65954(12)
H8 H 0.37880 0.44260 0.63110
C8 C 0.6112(3) 0.5451(2) 0.61806(15)
H9 H 0.59140 0.60170 0.56190
C9 C 0.7661(3) 0.5558(2) 0.66017(17)
H10 H 0.85130 0.61960 0.63240
C10 C 0.7959(2) 0.4722(2) 0.74345(17)
H11 H 0.90110 0.47980 0.77160
C11 C 0.6700(2) 0.3772(2) 0.78514(14)
H12 H 0.69050 0.32170 0.84160
C12 C 0.1597(3) 0.3059(2) 1.03706(14)
H13 H 0.12280 0.40600 1.02760
H14 H 0.26000 0.31890 1.07620
H15 H 0.07860 0.23810 1.07020
C13 C 0.4914(2) 0.02612(17) 0.72675(11)
H16 H 0.56790 0.10780 0.69770
C14 C 0.5944(2) -0.0941(2) 0.76938(14)
H17 H 0.67520 -0.04330 0.81590
H18 H 0.64740 -0.14050 0.71720
H19 H 0.52510 -0.17410 0.80190
C15 C 0.37069(19) -0.03888(16) 0.64384(11)
C16 C 0.2902(2) -0.19131(18) 0.64267(13)
H20 H 0.30920 -0.25660 0.69480
C17 C 0.1832(2) -0.24822(19) 0.56633(14)
H21 H 0.13070 -0.35040 0.56650
C18 C 0.1560(2) -0.14963(19) 0.48965(12)
C19 C 0.2334(2) 0.00249(19) 0.48742(12)
H22 H 0.21420 0.06720 0.43500
C20 C 0.3397(2) 0.05589(17) 0.56474(12)
H23 H 0.39230 0.15810 0.56410
#END
