
#######################################################################
#
#                 Cambridge Crystallographic Data Centre
#                                CCDC
#
#######################################################################
#
# If this CIF has been generated from an entry in the Cambridge
# Structural Database, then it will include bibliographic, chemical,
# crystal, experimental, refinement or atomic coordinate data resulting
# from the CCDC's data processing and validation procedures.
#
#######################################################################

data_CSD_CIF_BOWHIE01
_audit_creation_date 1990-11-19
_audit_creation_method CSD-ConQuest-V1
_database_code_CSD BOWHIE01
_chemical_formula_sum 'C9 H11 N1 O2'
_chemical_formula_moiety
;
C9 H11 N1 O2
;
_journal_coeditor_code "IUCr GR0053"
_journal_coden_Cambridge 591
_journal_volume 46
_journal_year 1990
_journal_page_first 816
_journal_name_full 'Acta Crystallogr.,Sect.C:Cryst.Struct.Commun. '
loop_
_publ_author_name
"A.Dietrich"
"D.R.Powell"
"D.L.Eng-Wilmot"
"M.B.Hossain"
"D.van der Helm"
_chemical_name_systematic
;
N-Methyl-p-toluohydroxamic acid
;
_cell_volume    859.529
_exptl_crystal_colour 'colorless'
_exptl_crystal_density_diffrn 1.276
_diffrn_ambient_temperature 138
#These two values have been output from a single CSD field.
_refine_ls_R_factor_gt 0.042
_refine_ls_wR_factor_gt 0.042
_symmetry_cell_setting monoclinic
_symmetry_space_group_name_H-M 'P 21/n'
_symmetry_Int_Tables_number 14
loop_
_symmetry_equiv_pos_site_id
_symmetry_equiv_pos_as_xyz
1 x,y,z
2 1/2-x,1/2+y,1/2-z
3 -x,-y,-z
4 -1/2+x,-1/2-y,-1/2+z
_cell_length_a 7.106(2)
_cell_length_b 10.211(3)
_cell_length_c 11.962(2)
_cell_angle_alpha 90
_cell_angle_beta 97.99(2)
_cell_angle_gamma 90
_cell_formula_units_Z 4
loop_
_atom_type_symbol
_atom_type_radius_bond
C 0.68
H 0.23
N 0.68
O 0.68
loop_
_atom_site_label
_atom_site_type_symbol
_atom_site_fract_x
_atom_site_fract_y
_atom_site_fract_z
C1 C 1.0146(2) 0.7417(1) 0.2271(1)
C2 C 0.8949(2) 0.8496(1) 0.2270(1)
C3 C 0.7144(2) 0.8484(1) 0.1661(1)
C4 C 0.6489(2) 0.7394(1) 0.1020(1)
C5 C 0.7707(2) 0.6327(1) 0.1009(1)
C6 C 0.9511(2) 0.6323(1) 0.1623(1)
C7 C 0.4524(2) 0.7390(2) 0.0350(1)
C8 C 1.2117(2) 0.7558(1) 0.2882(1)
C9 C 1.4923(1) 0.6634(1) 0.4041(1)
N1 N 1.3039(1) 0.6529(1) 0.33906(9)
O1 O 1.2945(1) 0.86327(9) 0.28958(8)
O2 O 1.1989(1) 0.54435(8) 0.36760(8)
H1 H 0.937(2) 0.930(2) 0.271(1)
H2 H 0.632(3) 0.921(2) 0.163(1)
H3 H 0.732(2) 0.558(2) 0.056(1)
H4 H 1.034(2) 0.555(2) 0.159(1)
H5 H 0.441(3) 0.680(2) -0.029(2)
H6 H 0.362(4) 0.713(2) 0.080(2)
H7 H 0.435(5) 0.829(4) -0.017(3)
H8 H 1.550(3) 0.582(2) 0.400(2)
H9 H 1.485(3) 0.690(2) 0.479(2)
H10 H 1.558(3) 0.726(2) 0.359(3)
H11 H 1.220(3) 0.486(2) 0.312(2)
#END
