
#######################################################################
#
#                 Cambridge Crystallographic Data Centre
#                                CCDC
#
#######################################################################
#
# If this CIF has been generated from an entry in the Cambridge
# Structural Database, then it will include bibliographic, chemical,
# crystal, experimental, refinement or atomic coordinate data resulting
# from the CCDC's data processing and validation procedures.
#
#######################################################################

data_CSD_CIF_BOWXOB
_audit_creation_date 2009-12-08
_audit_creation_method CSD-ConQuest-V1
_database_code_CSD BOWXOB
_database_code_depnum_ccdc_archive 'CCDC 731904; not CCDC 260728 as published'
_chemical_formula_sum 'C18 H29 N3 O11'
_chemical_formula_moiety
;
C18 H29 N3 O11
;
_journal_coden_Cambridge 151
_journal_volume 51
_journal_year 2008
_journal_page_first 3961
_journal_name_full 'J.Med.Chem. '
loop_
_publ_author_name
"C.A.Valdez"
"J.E.Saavedra"
"B.M.Showalter"
"K.M.Davies"
"T.C.Wilde"
"M.L.Citro"
"J.J.Barchi Junior"
"J.R.Deschamps"
"D.Parrish"
"S.El-Gayar"
"U.Schleicher"
"C.Bogdan"
"L.K.Keefer"
_chemical_name_systematic
;
O^2^-(2,3,4,6-Tetra-O-acetyl-\a-D-mannopyranosyl)-1-(diethylamino)diazen-1-ium
-1,2-diolate
;
_chemical_name_common
;
JS-37-137
;
_chemical_melting_point 372.15
_cell_volume   2358.886
_exptl_crystal_colour 'colorless'
_exptl_crystal_density_diffrn 1.305
_exptl_special_details
;
Melting point range 372.15-373.15K

;
_exptl_crystal_description 'block'
_diffrn_ambient_temperature 103
#These two values have been output from a single CSD field.
_refine_ls_R_factor_gt 0.0488
_refine_ls_wR_factor_gt 0.0488
loop_
_citation_database_id_CSD
_citation_special_details
TEWXOK "is a stereoisomer of this entry"
_symmetry_cell_setting orthorhombic
_symmetry_space_group_name_H-M 'P 21 21 21'
_symmetry_Int_Tables_number 19
loop_
_symmetry_equiv_pos_site_id
_symmetry_equiv_pos_as_xyz
1 x,y,z
2 1/2-x,-y,1/2+z
3 -x,1/2+y,1/2-z
4 1/2+x,1/2-y,-z
_cell_length_a 8.919(3)
_cell_length_b 11.086(3)
_cell_length_c 23.857(7)
_cell_angle_alpha 90
_cell_angle_beta 90
_cell_angle_gamma 90
_cell_formula_units_Z 4
loop_
_atom_type_symbol
_atom_type_radius_bond
C 0.68
H 0.23
N 0.68
O 0.68
loop_
_atom_site_label
_atom_site_type_symbol
_atom_site_fract_x
_atom_site_fract_y
_atom_site_fract_z
O1 O 0.87889(13) 0.73601(11) 0.07846(5)
O2 O 0.74378(15) 0.74266(11) 0.16235(5)
N1 N 0.74903(18) 0.86736(14) 0.16883(6)
N2 N 0.7739(2) 0.88785(15) 0.22064(7)
C1 C 0.73920(19) 0.71894(16) 0.10319(7)
H1 H 0.66520 0.77470 0.08530
N3 N 0.7822(2) 1.01624(16) 0.22990(7)
O3 O 0.7916(2) 0.81448(15) 0.25897(6)
C2 C 0.9366(3) 1.0444(2) 0.24804(9)
H2 H 0.95820 1.00090 0.28330
H3 H 0.94440 1.13200 0.25580
C3 C 0.6699(3) 1.0507(3) 0.2726(1)
H4 H 0.68020 1.13770 0.28120
H5 H 0.68860 1.00480 0.30750
C4 C 1.0515(3) 1.0102(3) 0.20485(11)
H6 H 1.15140 1.03330 0.21810
H7 H 1.02970 1.05210 0.16960
H8 H 1.04830 0.92290 0.19870
C5 C 0.5129(4) 1.0257(4) 0.25234(14)
H9 H 0.44090 1.04920 0.28140
H10 H 0.50220 0.93940 0.24430
H11 H 0.49360 1.07220 0.21810
O4 O 0.63672(14) 0.56960(11) 0.04211(5)
C6 C 0.68051(19) 0.59048(16) 0.09922(7)
H12 H 0.59180 0.58060 0.12440
C7 C 0.50353(19) 0.51102(16) 0.03573(8)
O5 O 0.42591(16) 0.48086(14) 0.07446(6)
C8 C 0.4689(2) 0.48991(19) -0.02453(8)
H13 H 0.37230 0.44830 -0.02780
H14 H 0.54780 0.44000 -0.04130
H15 H 0.46370 0.56740 -0.04420
O6 O 0.75128(16) 0.38198(11) 0.10011(5)
C9 C 0.8013(2) 0.50057(15) 0.11524(7)
H16 H 0.81960 0.50430 0.15660
C10 C 0.7184(3) 0.30502(18) 0.14146(9)
C11 C 0.6537(3) 0.19048(18) 0.11877(9)
H17 H 0.61760 0.14040 0.14980
H18 H 0.73110 0.14660 0.09800
H19 H 0.57000 0.20940 0.09370
O7 O 0.7415(4) 0.32692(19) 0.18938(8)
O8 O 1.05732(15) 0.44449(12) 0.10467(5)
C12 C 0.94574(19) 0.52655(16) 0.08403(7)
H20 H 0.93120 0.51560 0.04280
C13 C 1.2102(2) 0.27403(18) 0.09797(11)
H21 H 1.24830 0.21460 0.07110
H22 H 1.14990 0.23300 0.12650
H23 H 1.29460 0.31520 0.11600
O9 O 1.0897(2) 0.36580(19) 0.01898(7)
C14 C 1.1157(2) 0.36390(18) 0.06810(8)
C15 C 0.99426(18) 0.65513(15) 0.09702(7)
H24 H 1.00940 0.66450 0.13830
O10 O 1.18636(14) 0.80227(12) 0.08911(6)
C16 C 1.13668(19) 0.68839(16) 0.06649(8)
H25 H 1.21410 0.62570 0.07230
H26 H 1.11740 0.69580 0.02580
O11 O 1.41247(15) 0.76863(14) 0.05151(7)
C17 C 1.3294(2) 0.83187(17) 0.07675(8)
C18 C 1.3689(3) 0.9544(2) 0.09842(12)
H27 H 1.35900 0.95540 0.13930
H28 H 1.30100 1.01440 0.08210
H29 H 1.47250 0.97370 0.08810
#END
