
#######################################################################
#
#                 Cambridge Crystallographic Data Centre
#                                CCDC
#
#######################################################################
#
# If this CIF has been generated from an entry in the Cambridge
# Structural Database, then it will include bibliographic, chemical,
# crystal, experimental, refinement or atomic coordinate data resulting
# from the CCDC's data processing and validation procedures.
#
#######################################################################

data_CSD_CIF_BOYCOI
_audit_creation_date 2009-12-08
_audit_creation_method CSD-ConQuest-V1
_database_code_CSD BOYCOI
_database_code_depnum_ccdc_archive 'CCDC 610582'
_chemical_formula_sum 'C17 H18 N2 O5'
_chemical_formula_moiety
;
C17 H18 N2 O5
;
_journal_coden_Cambridge 1003
_journal_volume 39
_journal_year 2009
_journal_page_first 389
_journal_name_full 'J.Chem.Cryst. '
loop_
_publ_author_name
"P.Adlakha"
"S.Naveen"
"S.Lakshmi"
"A.Manvar"
"D.Karia"
"A.Shah"
"M.A.Sridhar"
"J.S.Prasad"
_chemical_name_systematic
;
Methyl 
5-acetyl-2,6-dimethyl-4-(3-nitrophenyl)-1,4-dihydro-3-pyridinecarboxylate
;
_chemical_name_common
;
2,6-Dimethyl-3-acetyl-5-carbomethoxy-4-(3-nitrophenyl)-1,4-dihydropyridine
;
_chemical_melting_point 363.15
_cell_volume   1608.087
_exptl_crystal_colour 'yellow'
_exptl_crystal_density_diffrn 1.364
_exptl_crystal_description 'rectangular'
_exptl_crystal_preparation 'ethyl acetate'
_diffrn_ambient_temperature 293
#These two values have been output from a single CSD field.
_refine_ls_R_factor_gt 0.0873
_refine_ls_wR_factor_gt 0.0873
_symmetry_cell_setting monoclinic
_symmetry_space_group_name_H-M 'P 21/c'
_symmetry_Int_Tables_number 14
loop_
_symmetry_equiv_pos_site_id
_symmetry_equiv_pos_as_xyz
1 x,y,z
2 -x,1/2+y,1/2-z
3 -x,-y,-z
4 x,-1/2-y,-1/2+z
_cell_length_a 12.860(2)
_cell_length_b 7.4950(6)
_cell_length_c 16.734(3)
_cell_angle_alpha 90
_cell_angle_beta 94.436(3)
_cell_angle_gamma 90
_cell_formula_units_Z 4
loop_
_atom_type_symbol
_atom_type_radius_bond
C 0.68
H 0.23
N 0.68
O 0.68
loop_
_atom_site_label
_atom_site_type_symbol
_atom_site_fract_x
_atom_site_fract_y
_atom_site_fract_z
N1 N 0.2116(2) 1.0876(3) 0.0658(2)
H1 H 0.23090 1.19530 0.07670
C1 C 0.2406(2) 0.9551(4) 0.1207(2)
C2 C 0.2339(2) 0.7817(4) 0.0975(2)
C3 C 0.2105(2) 0.7384(4) 0.0082(2)
H2 H 0.16840 0.62920 0.00470
C4 C 0.1464(2) 0.8857(4) -0.0334(2)
C5 C 0.1531(2) 1.0556(4) -0.0056(2)
C6 C 0.1018(3) 1.2173(5) -0.0433(2)
H3 H 0.13300 1.24480 -0.09210
H4 H 0.11080 1.31640 -0.00710
H5 H 0.02870 1.19450 -0.05480
C7 C 0.2784(3) 1.0307(5) 0.2011(2)
H6 H 0.22420 1.02030 0.23720
H7 H 0.29620 1.15410 0.19510
H8 H 0.33880 0.96580 0.22210
C8 C 0.2478(2) 0.6235(4) 0.1482(2)
O1 O 0.2439(2) 0.4747(3) 0.1174(1)
C9 C 0.2630(4) 0.6333(6) 0.2379(2)
H9 H 0.26570 0.51480 0.25970
H10 H 0.20580 0.69720 0.25810
H11 H 0.32710 0.69420 0.25320
C10 C 0.0782(3) 0.8387(5) -0.1047(2)
O2 O 0.0251(2) 0.9424(4) -0.1464(2)
O3 O 0.0790(2) 0.6635(4) -0.1199(1)
C11 C 0.0141(4) 0.6039(7) -0.1874(3)
H12 H -0.05650 0.64010 -0.18160
H13 H 0.01740 0.47620 -0.19070
H14 H 0.03770 0.65520 -0.23530
C12 C 0.3099(2) 0.7018(4) -0.0326(2)
C13 C 0.3822(3) 0.8345(5) -0.0434(2)
H15 H 0.37060 0.94870 -0.02430
C14 C 0.4710(3) 0.8010(5) -0.0820(3)
H16 H 0.51810 0.89300 -0.08850
C15 C 0.4911(3) 0.6347(5) -0.1108(2)
H17 H 0.55110 0.61190 -0.13670
C16 C 0.4195(3) 0.5031(4) -0.1002(2)
C17 C 0.3298(2) 0.5329(4) -0.0619(2)
H18 H 0.28300 0.44030 -0.05580
N2 N 0.4357(3) 0.3256(4) -0.1328(2)
O4 O 0.5147(3) 0.2955(5) -0.1661(2)
O5 O 0.3671(3) 0.2141(4) -0.1284(2)
#END
