
#######################################################################
#
#                 Cambridge Crystallographic Data Centre
#                                CCDC
#
#######################################################################
#
# If this CIF has been generated from an entry in the Cambridge
# Structural Database, then it will include bibliographic, chemical,
# crystal, experimental, refinement or atomic coordinate data resulting
# from the CCDC's data processing and validation procedures.
#
#######################################################################

data_CSD_CIF_BOYTIT
_audit_creation_date 2009-12-08
_audit_creation_method CSD-ConQuest-V1
_database_code_CSD BOYTIT
_database_code_depnum_ccdc_archive 'CCDC 692312'
_chemical_formula_sum 'C34 H35 N3 O6'
_chemical_formula_moiety
;
C34 H35 N3 O6
;
_journal_coden_Cambridge 1489
_journal_volume 501
_journal_year 2009
_journal_page_first 53
_journal_name_full 'Mol.Cryst.Liq.Cryst. '
loop_
_publ_author_name
"P.Das"
"A.N.Biswas"
"S.Acharya"
"A.Choudhury"
"P.Bandyopadhyay"
"P.K.Mandal"
"S.Upreti"
_chemical_name_systematic
;
1-Phenyl-3-(4-(4-(4-octyloxybenzoyloxy)phenyloxycarbonyl)phenyl)triazene-1-oxi
de
;
_cell_volume   1488.910
_exptl_crystal_colour 'pale yellow'
_exptl_crystal_density_diffrn 1.297
_exptl_crystal_description 'needle'
_exptl_crystal_preparation 'dichloromethane/water/ethanol'
_diffrn_ambient_temperature 100
#These two values have been output from a single CSD field.
_refine_ls_R_factor_gt 0.051
_refine_ls_wR_factor_gt 0.051
_symmetry_cell_setting triclinic
_symmetry_space_group_name_H-M 'P -1'
_symmetry_Int_Tables_number 2
loop_
_symmetry_equiv_pos_site_id
_symmetry_equiv_pos_as_xyz
1 x,y,z
2 -x,-y,-z
_cell_length_a 5.766(5)
_cell_length_b 12.151(10)
_cell_length_c 21.751(17)
_cell_angle_alpha 79.089(13)
_cell_angle_beta 88.646(14)
_cell_angle_gamma 84.278(14)
_cell_formula_units_Z 2
loop_
_atom_type_symbol
_atom_type_radius_bond
C 0.68
H 0.23
N 0.68
O 0.68
loop_
_atom_site_label
_atom_site_type_symbol
_atom_site_fract_x
_atom_site_fract_y
_atom_site_fract_z
O1 O 0.3042(2) -0.09234(9) 0.00322(5)
O2 O -0.0010(2) 0.43505(9) 0.23316(6)
O3 O 0.3441(2) 0.48662(9) 0.19133(5)
O4 O 0.3204(2) 0.88116(9) 0.28490(6)
O5 O 0.6233(2) 0.94074(10) 0.22422(6)
O6 O 0.3349(2) 1.36224(10) 0.35321(6)
N1 N 0.1538(2) -0.09646(11) 0.04820(6)
N2 N 0.1302(3) -0.02531(11) 0.08502(6)
N3 N 0.2770(3) 0.05429(11) 0.07147(7)
C1 C 0.0017(3) -0.18585(14) 0.05993(8)
C2 C 0.0736(3) -0.28539(15) 0.03965(8)
H1 H 0.21720 -0.29380 0.01790
C3 C -0.0695(4) -0.37245(16) 0.05191(9)
H2 H -0.02260 -0.44170 0.03880
C4 C -0.2801(4) -0.35937(16) 0.08304(9)
H3 H -0.37720 -0.41930 0.09120
C5 C -0.3488(3) -0.25846(15) 0.10230(8)
H4 H -0.49380 -0.24950 0.12330
C6 C -0.2083(3) -0.17087(15) 0.09119(8)
H5 H -0.25450 -0.10200 0.10470
C7 C 0.2483(3) 0.14464(14) 0.10322(8)
C8 C 0.0512(3) 0.16157(14) 0.13997(8)
H6 H -0.06680 0.11130 0.14440
C9 C 0.0306(3) 0.25277(14) 0.16986(8)
H7 H -0.10390 0.26510 0.19470
C10 C 0.2015(3) 0.32686(13) 0.16455(8)
C11 C 0.3976(3) 0.30937(14) 0.12746(8)
H8 H 0.51510 0.35980 0.12310
C12 C 0.4211(3) 0.21867(14) 0.09694(8)
H9 H 0.55480 0.20690 0.07180
C13 C 0.1651(3) 0.41984(13) 0.20002(8)
C14 C 0.3277(3) 0.58381(13) 0.21810(8)
C15 C 0.1344(3) 0.66287(13) 0.20754(8)
H10 H 0.00290 0.64880 0.18580
C16 C 0.1373(3) 0.76276(13) 0.22944(8)
H11 H 0.00760 0.81830 0.22260
C17 C 0.3307(3) 0.78092(13) 0.26131(8)
C18 C 0.5223(3) 0.70132(13) 0.27203(8)
H12 H 0.65340 0.71520 0.29400
C19 C 0.5206(3) 0.60112(13) 0.25029(8)
H13 H 0.64980 0.54540 0.25740
C20 C 0.4728(3) 0.95759(14) 0.26160(8)
C21 C 0.4280(3) 1.06097(13) 0.28820(8)
C22 C 0.2259(3) 1.08553(13) 0.32102(8)
H14 H 0.11190 1.03320 0.32810
C23 C 0.1878(3) 1.18504(14) 0.34351(8)
H15 H 0.04860 1.20090 0.36580
C24 C 0.3553(3) 1.26183(13) 0.33328(8)
C25 C 0.5602(3) 1.23828(14) 0.30069(8)
H16 H 0.67510 1.29030 0.29390
C26 C 0.5945(3) 1.13883(14) 0.27841(8)
H17 H 0.73350 1.12300 0.25600
C27 C 0.1170(3) 1.39430(14) 0.38184(8)
H18 H 0.09810 1.34350 0.42260
H19 H -0.01420 1.38820 0.35450
C28 C 0.1165(3) 1.51398(14) 0.39142(9)
H20 H 0.15020 1.56320 0.35110
H21 H 0.24040 1.51830 0.42140
C29 C -0.1192(3) 1.55513(14) 0.41653(8)
H22 H -0.14850 1.50710 0.45750
H23 H -0.24270 1.54630 0.38750
C30 C -0.1358(3) 1.67786(15) 0.42447(9)
H24 H -0.02120 1.68540 0.45630
H25 H -0.09320 1.72520 0.38430
C31 C -0.3776(3) 1.72191(15) 0.44435(9)
H26 H -0.41490 1.67860 0.48610
H27 H -0.49380 1.70880 0.41440
C32 C -0.3991(3) 1.84719(15) 0.44728(9)
H28 H -0.34690 1.88970 0.40680
H29 H -0.29330 1.85910 0.48010
C33 C -0.6464(3) 1.89493(15) 0.46121(9)
H30 H -0.65190 1.97810 0.45430
H31 H -0.75480 1.87560 0.43110
C34 C -0.7308(4) 1.85229(17) 0.52711(9)
H32 H -0.73370 1.77040 0.53380
H33 H -0.88810 1.88770 0.53280
H34 H -0.62500 1.87120 0.55730
H35 H 0.380(4) 0.0509(18) 0.0380(11)
#END
