
#######################################################################
#
#                 Cambridge Crystallographic Data Centre
#                                CCDC
#
#######################################################################
#
# If this CIF has been generated from an entry in the Cambridge
# Structural Database, then it will include bibliographic, chemical,
# crystal, experimental, refinement or atomic coordinate data resulting
# from the CCDC's data processing and validation procedures.
#
#######################################################################

data_CSD_CIF_BUAGLN10
_audit_creation_date 1981-11-16
_audit_creation_method CSD-ConQuest-V1
_database_code_CSD BUAGLN10
_chemical_formula_sum 'C27 H42 N2 O14'
_chemical_formula_moiety
;
C27 H42 N2 O14
;
_journal_coeditor_code "IUCr A20097"
_journal_coden_Cambridge 107
_journal_volume 37
_journal_year 1981
_journal_page_first 1092
_journal_name_full 'Acta Crystallogr.,Sect.B:Struct.Crystallogr.Cryst.Chem. '
loop_
_publ_author_name
"R.Vega"
"A.Lopez-Castro"
"R.Marquez"
_chemical_name_systematic
;
Ethyl-5,6,7,8,9-penta-acetoxy-2-n-butylamino-4-nitromethyl-D-glycero-L-gluco-n
on-2-ene-3-carboxylate
;
_cell_volume   3207.903
_exptl_crystal_colour 'colorless'
_exptl_crystal_density_diffrn 1.28
_diffrn_ambient_temperature ?
_diffrn_special_details
;
The study was carried out at room temperature,in the range 283-303K

;
#These two values have been output from a single CSD field.
_refine_ls_R_factor_gt 0.069
_refine_ls_wR_factor_gt 0.069
_symmetry_cell_setting orthorhombic
_symmetry_space_group_name_H-M 'P 21 21 21'
_symmetry_Int_Tables_number 19
loop_
_symmetry_equiv_pos_site_id
_symmetry_equiv_pos_as_xyz
1 x,y,z
2 1/2+x,1/2-y,-z
3 -x,1/2+y,1/2-z
4 1/2-x,-y,1/2+z
_cell_length_a 11.147(1)
_cell_length_b 37.350(2)
_cell_length_c 7.705(1)
_cell_angle_alpha 90
_cell_angle_beta 90
_cell_angle_gamma 90
_cell_formula_units_Z 4
loop_
_atom_type_symbol
_atom_type_radius_bond
C 0.68
H 0.23
N 0.68
O 0.68
loop_
_atom_site_label
_atom_site_type_symbol
_atom_site_fract_x
_atom_site_fract_y
_atom_site_fract_z
C1 C 0.27700 0.81130 0.40050
C2 C 0.38350 0.81240 0.28440
C3 C 0.49580 0.82700 0.33470
C4 C 0.51210 0.84160 0.51900
C5 C 0.56630 0.87930 0.52360
C6 C 0.49630 0.90690 0.41770
C7 C 0.53810 0.94490 0.45760
C8 C 0.46890 0.97530 0.36910
C9 C 0.52670 1.01020 0.41310
N1 N 0.36870 0.79880 0.12450
C10 C 0.26290 0.77910 0.06160
C11 C 0.18180 0.80240 -0.04990
C12 C 0.07560 0.78050 -0.12030
C13 C -0.00860 0.80120 -0.23420
O1 O 0.70050 0.83380 0.29360
O2 O 0.59360 0.81400 0.06740
C14 C 0.59410 0.82340 0.22010
C15 C 0.80970 0.82770 0.19450
C16 C 0.90860 0.83960 0.29360
O3 O 0.43930 0.77790 0.71670
O4 O 0.58930 0.75610 0.57760
N2 N 0.53630 0.78010 0.64270
C17 C 0.59200 0.81690 0.63300
O5 O 0.56670 0.89120 0.70580
O6 O 0.76590 0.88390 0.71940
C18 C 0.67560 0.89340 0.78620
C19 C 0.66240 0.90710 0.96690
O7 O 0.36950 0.90600 0.46080
O8 O 0.32250 0.89620 0.17800
C20 C 0.29170 0.90210 0.32130
C21 C 0.16430 0.90840 0.38530
O9 O 0.66270 0.94560 0.40160
O10 O 0.71760 0.97180 0.65510
C22 C 0.74430 0.95890 0.51720
C23 C 0.86840 0.95500 0.44560
O11 O 0.47450 0.96990 0.18180
O12 O 0.27610 0.98110 0.15350
C24 C 0.37010 0.97350 0.08920
C25 C 0.39210 0.96730 -0.09940
O13 O 0.45200 1.03880 0.34680
O14 O 0.52840 1.07460 0.54850
C26 C 0.46250 1.07000 0.42680
C27 C 0.38460 1.09860 0.35160
H1 H 0.20400 0.82800 0.33700
H2 H 0.24300 0.78500 0.41300
H3 H 0.28400 0.82300 0.53000
H4 H 0.42600 0.84100 0.58900
H5 H 0.65800 0.87500 0.47300
H6 H 0.51300 0.89900 0.28100
H7 H 0.52700 0.95100 0.59500
H8 H 0.37600 0.97400 0.41800
H9 H 0.62000 1.01200 0.36100
H10 H 0.55000 1.01300 0.55000
H11 H 0.44100 0.80300 0.03100
H12 H 0.28800 0.75400 -0.00800
H13 H 0.21300 0.76700 0.16600
H14 H 0.15300 0.82600 0.01800
H15 H 0.23200 0.81500 -0.15500
H16 H 0.02800 0.76700 -0.01200
H17 H 0.10600 0.75600 -0.18800
H18 H -0.04600 0.82500 -0.15500
H19 H 0.03700 0.81300 -0.34200
H20 H -0.08600 0.78700 -0.27900
H21 H 0.82100 0.79900 0.14900
H22 H 0.80800 0.84000 0.06300
H23 H 0.90100 0.86800 0.32700
H24 H 0.91400 0.82500 0.41900
H25 H 0.99100 0.83500 0.22300
H26 H 0.61000 0.82800 0.76000
H27 H 0.68400 0.81600 0.58300
H28 H 0.62200 0.93300 0.96300
H29 H 0.60300 0.88900 1.04100
H30 H 0.74700 0.90900 1.03400
H31 H 0.14100 0.88800 0.48600
H32 H 0.15500 0.93500 0.44100
H33 H 0.10000 0.90500 0.28100
H34 H 0.89100 0.92700 0.41700
H35 H 0.87700 0.97000 0.32200
H36 H 0.93700 0.96500 0.53300
H37 H 0.45900 0.98600 -0.14700
H38 H 0.42800 0.94000 -0.12000
H39 H 0.31200 0.97000 -0.17700
H40 H 0.40300 1.10200 0.21700
H41 H 0.28900 1.08900 0.36300
H42 H 0.38600 1.12400 0.41600
#END
