
#######################################################################
#
#                 Cambridge Crystallographic Data Centre
#                                CCDC
#
#######################################################################
#
# If this CIF has been generated from an entry in the Cambridge
# Structural Database, then it will include bibliographic, chemical,
# crystal, experimental, refinement or atomic coordinate data resulting
# from the CCDC's data processing and validation procedures.
#
#######################################################################

data_CSD_CIF_BUDVEC
_audit_creation_date 2009-12-08
_audit_creation_method CSD-ConQuest-V1
_database_code_CSD BUDVEC
_database_code_depnum_ccdc_archive 'CCDC 750730'
_chemical_formula_sum 'C10 H11 N3 O2'
_chemical_formula_moiety
;
C10 H11 N3 O2
;
_journal_coeditor_code "IUCr DN2487"
_journal_coden_Cambridge 1370
_journal_volume 65
_journal_year 2009
_journal_page_first o2491
_journal_name_full 'Acta Crystallogr.,Sect.E:Struct.Rep.Online '
loop_
_publ_author_name
"Zhi-Gang Yin"
"Heng-Yu Qian"
"Xue-Wen Zhu"
"Chun-Xia Zhang"
_chemical_name_systematic
;
1-(But-2-en-1-ylidene)-2-(2-nitrophenyl)hydrazine
;
_cell_volume    524.639
_exptl_crystal_colour 'red'
_exptl_crystal_density_diffrn 1.299
_exptl_crystal_description 'block'
_exptl_crystal_preparation 'methanol'
_diffrn_ambient_temperature 296
#These two values have been output from a single CSD field.
_refine_ls_R_factor_gt 0.039
_refine_ls_wR_factor_gt 0.039
_symmetry_cell_setting triclinic
_symmetry_space_group_name_H-M 'P -1'
_symmetry_Int_Tables_number 2
loop_
_symmetry_equiv_pos_site_id
_symmetry_equiv_pos_as_xyz
1 x,y,z
2 -x,-y,-z
_cell_length_a 4.2390(6)
_cell_length_b 11.456(2)
_cell_length_c 11.9840(17)
_cell_angle_alpha 113.271(15)
_cell_angle_beta 96.534(12)
_cell_angle_gamma 95.595(13)
_cell_formula_units_Z 2
loop_
_atom_type_symbol
_atom_type_radius_bond
C 0.68
H 0.23
N 0.68
O 0.68
loop_
_atom_site_label
_atom_site_type_symbol
_atom_site_fract_x
_atom_site_fract_y
_atom_site_fract_z
C1 C 1.2639(7) 0.1906(3) -0.4898(3)
H1 H 1.18680 0.26990 -0.47860
H2 H 1.15350 0.12370 -0.56610
H3 H 1.49050 0.20070 -0.49160
C2 C 1.2028(7) 0.1556(3) -0.3856(3)
H4 H 1.27650 0.08200 -0.38510
C3 C 1.0549(7) 0.2191(3) -0.2947(3)
H5 H 0.97570 0.29160 -0.29580
C4 C 1.0060(7) 0.1857(3) -0.1944(3)
H6 H 1.07910 0.11290 -0.19130
C5 C 0.6836(7) 0.2802(3) 0.0774(2)
C6 C 0.6046(6) 0.4007(3) 0.0883(3)
H7 H 0.64890 0.43080 0.02930
C7 C 0.4654(7) 0.4732(3) 0.1834(3)
H8 H 0.41530 0.55200 0.18790
C8 C 0.3955(8) 0.4328(4) 0.2745(3)
H9 H 0.30120 0.48400 0.33940
C9 C 0.4679(7) 0.3169(3) 0.2666(3)
H10 H 0.42280 0.28830 0.32650
C10 C 0.6101(7) 0.2408(3) 0.1686(2)
N1 N 0.8634(6) 0.2541(2) -0.1088(2)
N2 N 0.8205(5) 0.2108(2) -0.01925(19)
H11 H 0.88070 0.13950 -0.02460
N3 N 0.6751(6) 0.1190(3) 0.1671(2)
O1 O 0.5896(6) 0.0865(2) 0.2464(2)
O2 O 0.8241(5) 0.05249(18) 0.08917(18)
#END
