
#######################################################################
#
#                 Cambridge Crystallographic Data Centre
#                                CCDC
#
#######################################################################
#
# If this CIF has been generated from an entry in the Cambridge
# Structural Database, then it will include bibliographic, chemical,
# crystal, experimental, refinement or atomic coordinate data resulting
# from the CCDC's data processing and validation procedures.
#
#######################################################################

data_CSD_CIF_BUFBOU
_audit_creation_date 2009-12-08
_audit_creation_method CSD-ConQuest-V1
_database_code_CSD BUFBOU
_database_code_depnum_ccdc_archive 'CCDC 750784'
_chemical_formula_sum 'C18 H18 N2 O4'
_chemical_formula_moiety
;
C18 H18 N2 O4
;
_journal_coeditor_code "IUCr LH2906"
_journal_coden_Cambridge 1370
_journal_volume 65
_journal_year 2009
_journal_page_first o2561
_journal_name_full 'Acta Crystallogr.,Sect.E:Struct.Rep.Online '
loop_
_publ_author_name
"Dong'e Wang"
"Yu-zhou Wang"
"Muhtar Turhong"
_chemical_name_systematic
;
(RS)-3-Acetyl-2-methyl-4-(3-nitrophenyl)-1,4,5,6,7,8-hexahydroquinolin-5-one
;
_cell_volume   1602.669
_exptl_crystal_colour 'yellow'
_exptl_crystal_density_diffrn 1.353
_exptl_crystal_description 'block'
_exptl_crystal_preparation 'ethyl acetate'
_diffrn_ambient_temperature 298
_refine_special_details
;
The oxygen atoms of the nitro group, a methyl group, the acetyl group and 
some atoms of the dihydroquinolinone group are disordered over two sites with 
occupancies of 0.57:0.43.
;
#These two values have been output from a single CSD field.
_refine_ls_R_factor_gt 0.0606
_refine_ls_wR_factor_gt 0.0606
_symmetry_cell_setting monoclinic
_symmetry_space_group_name_H-M 'P 21/n'
_symmetry_Int_Tables_number 14
loop_
_symmetry_equiv_pos_site_id
_symmetry_equiv_pos_as_xyz
1 x,y,z
2 1/2-x,1/2+y,1/2-z
3 -x,-y,-z
4 -1/2+x,-1/2-y,-1/2+z
_cell_length_a 8.5368(5)
_cell_length_b 17.0307(6)
_cell_length_c 11.4759(5)
_cell_angle_alpha 90
_cell_angle_beta 106.143(1)
_cell_angle_gamma 90
_cell_formula_units_Z 4
loop_
_atom_type_symbol
_atom_type_radius_bond
C 0.68
H 0.23
N 0.68
O 0.68
loop_
_atom_site_label
_atom_site_type_symbol
_atom_site_fract_x
_atom_site_fract_y
_atom_site_fract_z
C1 C 0.2737(3) 0.20273(14) 0.3479(2)
C2 C 0.3036(3) 0.18309(15) 0.4692(2)
H1 H 0.39740 0.20110 0.52550
C3 C 0.1941(4) 0.13684(16) 0.5063(2)
C4 C 0.0532(4) 0.10958(16) 0.4267(3)
H2 H -0.01970 0.07840 0.45320
C5 C 0.0234(3) 0.12982(17) 0.3068(3)
H3 H -0.07140 0.11230 0.25120
C6 C 0.1317(3) 0.17567(16) 0.2676(2)
H4 H 0.10890 0.18860 0.18580
C7 C 0.3954(3) 0.25236(15) 0.3038(2)
H5 H 0.49700 0.25470 0.36970
C8 C 0.4336(3) 0.21449(16) 0.1960(2)
C9 C 0.545(5) 0.151(2) 0.220(2)
C10 C 0.5914(19) 0.1135(11) 0.1123(15)
H6 H 0.61930 0.05870 0.12900
H7 H 0.68430 0.14020 0.09740
C11 C 0.4385(8) 0.1214(3) -0.0005(4)
H8 H 0.46590 0.09950 -0.07040
H9 H 0.35150 0.08960 0.01390
C12 C 0.3717(10) 0.2063(7) -0.0331(9)
H10 H 0.44510 0.23650 -0.06680
H11 H 0.26510 0.20490 -0.09180
O1 O 0.6237(12) 0.1317(7) 0.3215(8)
C13 C 0.356(2) 0.3899(17) 0.3823(18)
C14 C 0.2873(9) 0.4703(5) 0.3779(6)
H12 H 0.31140 0.49130 0.45860
H13 H 0.17120 0.46840 0.34320
H14 H 0.33490 0.50330 0.32900
C15 C 0.1732(18) 0.4344(7) 0.1111(9)
H15 H 0.09210 0.44360 0.15320
H16 H 0.12100 0.42880 0.02590
H17 H 0.24730 0.47800 0.12400
O2 O 0.439(3) 0.3647(9) 0.4817(13)
C16? C 0.368(3) 0.385(2) 0.378(2)
C17? C 0.3390(15) 0.4734(9) 0.3478(11)
H18? H 0.43150 0.49590 0.32620
H19? H 0.32240 0.50190 0.41650
C18? C 0.1799(10) 0.4766(5) 0.2359(8)
H20? H 0.09190 0.44800 0.25500
H21? H 0.14560 0.53070 0.21840
C19? C 0.220(3) 0.4386(9) 0.1223(14)
H22? H 0.12490 0.43910 0.05240
H23? H 0.30800 0.46650 0.10220
O3? O 0.414(3) 0.362(1) 0.4820(15)
C20? C 0.549(7) 0.146(2) 0.219(3)
C21? C 0.566(2) 0.0938(13) 0.1187(17)
H24? H 0.62190 0.12130 0.06960
H25? H 0.45920 0.07880 0.06980
H26? H 0.62610 0.04770 0.15220
C22? C 0.379(2) 0.1953(11) -0.0320(13)
H27? H 0.49200 0.18270 -0.02130
H28? H 0.34050 0.22740 -0.10300
H29? H 0.31660 0.14770 -0.04160
O4? O 0.608(2) 0.1250(13) 0.3267(16)
C23 C 0.3612(3) 0.24079(15) 0.0812(2)
C24 C 0.2679(3) 0.35884(16) 0.1597(2)
C25 C 0.3347(3) 0.33563(17) 0.2754(2)
N1 N 0.2306(5) 0.1151(2) 0.6349(3)
N2 N 0.2681(3) 0.30700(13) 0.06613(18)
H30 H 0.227(3) 0.3210(14) -0.0089(11)
O5 O 0.370(2) 0.1286(8) 0.7031(14)
O6 O 0.123(4) 0.0762(16) 0.668(3)
O7? O 0.326(3) 0.1589(11) 0.7037(19)
O8? O 0.159(5) 0.0643(18) 0.665(3)
#END
