
#######################################################################
#
#                 Cambridge Crystallographic Data Centre
#                                CCDC
#
#######################################################################
#
# If this CIF has been generated from an entry in the Cambridge
# Structural Database, then it will include bibliographic, chemical,
# crystal, experimental, refinement or atomic coordinate data resulting
# from the CCDC's data processing and validation procedures.
#
#######################################################################

data_CSD_CIF_BUGKIY
_audit_creation_date 2010-08-15
_audit_creation_method CSD-ConQuest-V1
_database_code_CSD BUGKIY
_database_code_depnum_ccdc_archive 'CCDC 751370'
_chemical_formula_sum 'C3 H3 N5 O4'
_chemical_formula_moiety
;
C3 H3 N5 O4
;
_journal_coden_Cambridge 24
_journal_volume 51
_journal_year 2010
_journal_page_first 399
_journal_name_full 'Tetrahedron Lett. '
loop_
_publ_author_name
"R.Dudda"
"P.R.Dave"
"R.Damavarapu"
"N.Gelber"
"D.Parrish"
_chemical_name_systematic
;
2,4-Dinitro-1H-imidazol-1-amine
;
_cell_volume    657.156
_exptl_crystal_colour 'colorless'
_exptl_crystal_density_diffrn 1.75
_exptl_crystal_description 'plate'
_diffrn_ambient_temperature 293
#These two values have been output from a single CSD field.
_refine_ls_R_factor_gt 0.038
_refine_ls_wR_factor_gt 0.038
_symmetry_cell_setting orthorhombic
_symmetry_space_group_name_H-M 'P c a 21'
_symmetry_Int_Tables_number 29
loop_
_symmetry_equiv_pos_site_id
_symmetry_equiv_pos_as_xyz
1 x,y,z
2 -x,-y,1/2+z
3 1/2+x,-y,z
4 1/2-x,y,1/2+z
_cell_length_a 10.1139(10)
_cell_length_b 5.5916(6)
_cell_length_c 11.6202(12)
_cell_angle_alpha 90
_cell_angle_beta 90
_cell_angle_gamma 90
_cell_formula_units_Z 4
loop_
_atom_type_symbol
_atom_type_radius_bond
C 0.68
H 0.23
N 0.68
O 0.68
loop_
_atom_site_label
_atom_site_type_symbol
_atom_site_fract_x
_atom_site_fract_y
_atom_site_fract_z
N1 N 0.15031(16) 0.4447(3) 0.62452(14)
O1 O 0.26855(14) 0.0829(3) 0.40166(16)
N2 N 0.26981(15) 0.2442(4) 0.47125(15)
N3 N -0.15330(17) 0.1113(3) 0.66160(16)
H1 H -0.18370 -0.00830 0.62330
H2 H -0.19940 0.17300 0.71620
N4 N -0.02724(14) 0.2068(3) 0.63464(14)
O2 O 0.36099(15) 0.3844(3) 0.48373(16)
C1 C 0.15751(17) 0.2664(4) 0.54744(16)
N5 N -0.01482(18) 0.5523(3) 0.76701(16)
C2 C 0.03714(19) 0.4028(3) 0.67671(17)
O3 O 0.0388(2) 0.7457(3) 0.78198(18)
C3 C 0.04942(19) 0.1168(3) 0.54963(19)
H3 H 0.03290 -0.01550 0.50330
O4 O -0.10695(17) 0.4731(4) 0.82258(16)
#END
