
#######################################################################
#
#                 Cambridge Crystallographic Data Centre
#                                CCDC
#
#######################################################################
#
# If this CIF has been generated from an entry in the Cambridge
# Structural Database, then it will include bibliographic, chemical,
# crystal, experimental, refinement or atomic coordinate data resulting
# from the CCDC's data processing and validation procedures.
#
#######################################################################

data_CSD_CIF_BUGPEZ
_audit_creation_date 2010-08-16
_audit_creation_method CSD-ConQuest-V1
_database_code_CSD BUGPEZ
_database_code_depnum_ccdc_archive 'CCDC 677147'
_chemical_formula_sum 'C14 H6 N6 O1'
_chemical_formula_moiety
;
C14 H6 N6 O1
;
_journal_coden_Cambridge 315
_journal_volume 74
_journal_year 2009
_journal_page_first 896
_journal_name_full 'Spectrochim.Acta,Part A '
loop_
_publ_author_name
"Bin Peng"
"Xiang Chen"
"Ke-Jie Du"
"Bo-Le Yu"
"Hui Chao"
"Liang-Ni Ji"
_chemical_name_systematic
;
[1,2,5]Oxadiazolo[3',4':5,6]pyrazino[2,3-f][1,10]phenanthroline
;
_cell_volume   1137.024
_exptl_crystal_colour 'yellow'
_exptl_crystal_density_diffrn 1.602
_exptl_crystal_description 'prism'
_diffrn_ambient_temperature 293
#These two values have been output from a single CSD field.
_refine_ls_R_factor_gt 0.0566
_refine_ls_wR_factor_gt 0.0566
_symmetry_cell_setting monoclinic
_symmetry_space_group_name_H-M 'P 21/c'
_symmetry_Int_Tables_number 14
loop_
_symmetry_equiv_pos_site_id
_symmetry_equiv_pos_as_xyz
1 x,y,z
2 -x,1/2+y,1/2-z
3 -x,-y,-z
4 x,-1/2-y,-1/2+z
_cell_length_a 10.7669(15)
_cell_length_b 11.7079(17)
_cell_length_c 9.5111(14)
_cell_angle_alpha 90
_cell_angle_beta 108.495(3)
_cell_angle_gamma 90
_cell_formula_units_Z 4
loop_
_atom_type_symbol
_atom_type_radius_bond
C 0.68
H 0.23
N 0.68
O 0.68
loop_
_atom_site_label
_atom_site_type_symbol
_atom_site_fract_x
_atom_site_fract_y
_atom_site_fract_z
O1 O 0.91347(14) 0.45585(12) 0.33480(17)
C1 C 0.70621(17) -0.06953(15) 0.0634(2)
C2 C 0.63425(16) 0.11471(15) -0.07007(19)
C3 C 0.87782(18) 0.27866(17) 0.2977(2)
C4 C 0.79607(16) 0.11351(15) 0.19031(19)
C5 C 0.48526(19) -0.00603(18) -0.3040(2)
H1 H 0.43450 -0.04710 -0.38570
C6 C 0.7622(2) -0.24142(17) 0.1793(2)
H2 H 0.75590 -0.32070 0.17630
C7 C 0.48227(18) 0.11157(17) -0.3147(2)
H3 H 0.43080 0.14810 -0.40010
C8 C 0.85093(19) -0.07559(17) 0.3145(2)
H4 H 0.90210 -0.03960 0.40060
N1 N 0.82708(17) 0.45019(13) 0.1919(2)
C9 C 0.55727(18) 0.17229(16) -0.1957(2)
H5 H 0.55700 0.25170 -0.19830
C10 C 0.71866(17) 0.17757(15) 0.05782(19)
C11 C 0.62954(16) -0.00518(15) -0.06938(19)
C12 C 0.80526(18) 0.33935(16) 0.1705(2)
C13 C 0.8396(2) -0.19201(17) 0.3090(2)
H6 H 0.88310 -0.23670 0.39060
N2 N 0.94527(17) 0.35008(15) 0.40002(19)
C14 C 0.78465(16) -0.01150(15) 0.18931(19)
N3 N 0.55476(16) -0.06491(13) -0.18656(17)
N4 N 0.72348(15) 0.28929(13) 0.04710(17)
N5 N 0.69604(16) -0.18408(13) 0.05843(19)
N6 N 0.87509(15) 0.16255(14) 0.30881(17)
#END
