
#######################################################################
#
#                 Cambridge Crystallographic Data Centre
#                                CCDC
#
#######################################################################
#
# If this CIF has been generated from an entry in the Cambridge
# Structural Database, then it will include bibliographic, chemical,
# crystal, experimental, refinement or atomic coordinate data resulting
# from the CCDC's data processing and validation procedures.
#
#######################################################################

data_CSD_CIF_BUGQUQ
_audit_creation_date 2010-08-16
_audit_creation_method CSD-ConQuest-V1
_database_code_CSD BUGQUQ
_database_code_depnum_ccdc_archive 'CCDC 696689'
_chemical_formula_sum 'C27 H28 N2 O5'
_chemical_formula_moiety
;
C27 H28 N2 O5
;
_journal_coden_Cambridge 1127
_journal_volume 20
_journal_year 2010
_journal_page_first 418
_journal_name_full 'Bioorg.Med.Chem.Lett. '
loop_
_publ_author_name
"Wei Li"
"Yi-Min Tao"
"Yun Tang"
"Xue-Jun Xu"
"Jie Chen"
"Wei Fu"
"Xing-Hai Wang"
"Bo Chao"
"Wei Sheng"
"Qiong Xie"
"Zhui-Bai Qiu"
"Jing-Gen Liu"
_chemical_name_systematic
;
3,6-Dimethoxy-17-methyl-19-(3-nitrophenyl)-7,8-didehydro-18,19-dihydro-4,5-epo
xy-6,14-ethenomorphinan
;
_chemical_name_common
;
21-nitro-8alpha-phenyl-6alpha,14alpha-endo-ethenotetrahydrothebaine
;
_cell_volume   1126.462
_exptl_crystal_colour 'colorless'
_exptl_crystal_density_diffrn 1.358
_exptl_crystal_description 'parallelepiped'
_diffrn_ambient_temperature 293
#These two values have been output from a single CSD field.
_refine_ls_R_factor_gt 0.0643
_refine_ls_wR_factor_gt 0.0643
_symmetry_cell_setting monoclinic
_symmetry_space_group_name_H-M 'P 21'
_symmetry_Int_Tables_number 4
loop_
_symmetry_equiv_pos_site_id
_symmetry_equiv_pos_as_xyz
1 x,y,z
2 -x,1/2+y,-z
_cell_length_a 7.450(3)
_cell_length_b 7.917(3)
_cell_length_c 19.126(7)
_cell_angle_alpha 90
_cell_angle_beta 93.072(5)
_cell_angle_gamma 90
_cell_formula_units_Z 2
loop_
_atom_type_symbol
_atom_type_radius_bond
C 0.68
H 0.23
N 0.68
O 0.68
loop_
_atom_site_label
_atom_site_type_symbol
_atom_site_fract_x
_atom_site_fract_y
_atom_site_fract_z
N1 N 0.7638(5) 0.3870(6) 0.00274(19)
N2 N 0.5067(5) -0.0654(5) 0.28997(19)
O1 O 0.0107(4) 0.4024(6) 0.30645(15)
O2 O 0.0140(6) 0.6280(7) 0.41961(18)
O3 O -0.0091(5) 0.4600(6) 0.14800(17)
O4 O 0.8560(5) 0.3660(6) -0.0472(2)
O5 O 0.7207(5) 0.5269(5) 0.02343(18)
C1 C 0.5023(5) 0.1179(6) 0.11904(17)
C2 C 0.5653(5) 0.2580(6) 0.08469(18)
H1 H 0.51730 0.36440 0.09260
C3 C 0.6996(5) 0.2383(6) 0.03866(19)
C4 C 0.7758(5) 0.0841(7) 0.0243(2)
H2 H 0.86400 0.07410 -0.00800
C5 C 0.7161(6) -0.0542(6) 0.0599(2)
H3 H 0.76570 -0.16000 0.05240
C6 C 0.5813(5) -0.0360(6) 0.1072(2)
H4 H 0.54370 -0.13040 0.13140
C7 C 0.4646(7) 0.4242(8) 0.4364(2)
H5 H 0.57360 0.43650 0.46190
C8 C 0.3195(8) 0.5276(8) 0.4516(2)
H6 H 0.33160 0.60150 0.48930
C9 C 0.1583(7) 0.5232(7) 0.4120(2)
C10 C 0.1453(6) 0.4068(7) 0.35846(19)
C11 C 0.0726(5) 0.2879(7) 0.2526(2)
H7 H -0.02360 0.20760 0.23970
C12 C 0.1317(5) 0.3761(7) 0.1857(2)
C13 C 0.3474(5) 0.1268(6) 0.16788(18)
H8 H 0.319(7) 0.003(8) 0.176(3)
C14 C 0.1838(5) 0.2286(7) 0.1377(2)
H9 H 0.08180 0.15320 0.13080
H10 H 0.21120 0.27350 0.09230
C15 C 0.5544(5) 0.1145(6) 0.28302(19)
H11 H 0.66120 0.11950 0.25530
C16 C 0.6027(6) 0.2073(7) 0.3540(2)
H12 H 0.64620 0.12440 0.38820
H13 H 0.69990 0.28590 0.34700
C17 C 0.4480(6) 0.3032(7) 0.38373(18)
C18 C 0.2797(5) 0.2944(6) 0.34906(18)
C19 C 0.2351(5) 0.1900(6) 0.28585(19)
C20 C 0.4017(5) 0.2059(6) 0.24060(17)
C21 C 0.1923(6) 0.0074(7) 0.3026(2)
H14 H 0.09800 0.00470 0.33560
H15 H 0.14730 -0.04860 0.26010
C22 C 0.3532(7) -0.0882(7) 0.3331(2)
H16 H 0.38350 -0.04800 0.38010
H17 H 0.32430 -0.20740 0.33580
C23 C 0.4362(5) 0.3899(6) 0.22945(18)
H18 H 0.54700 0.43970 0.24090
C24 C 0.2990(6) 0.4757(6) 0.20245(19)
H19 H 0.30530 0.59130 0.19420
C25 C 0.6584(9) -0.1688(10) 0.3146(3)
H20 H 0.62070 -0.28430 0.31810
H21 H 0.70260 -0.12960 0.35990
H22 H 0.75220 -0.16080 0.28230
C26 C -0.0723(8) 0.6122(10) 0.1770(3)
H23 H 0.01760 0.69840 0.17390
H24 H -0.09680 0.59410 0.22520
H25 H -0.18040 0.64710 0.15140
C27 C 0.0076(14) 0.7275(13) 0.4776(3)
H26 H 0.10130 0.81060 0.47730
H27 H 0.02390 0.65880 0.51890
H28 H -0.10700 0.78290 0.47760
#END
