
#######################################################################
#
#                 Cambridge Crystallographic Data Centre
#                                CCDC
#
#######################################################################
#
# If this CIF has been generated from an entry in the Cambridge
# Structural Database, then it will include bibliographic, chemical,
# crystal, experimental, refinement or atomic coordinate data resulting
# from the CCDC's data processing and validation procedures.
#
#######################################################################

data_CSD_CIF_BUGQOK
_audit_creation_date 2010-08-16
_audit_creation_method CSD-ConQuest-V1
_database_code_CSD BUGQOK
_database_code_depnum_ccdc_archive 'CCDC 696688'
_chemical_formula_sum 'C27 H28 N2 O5'
_chemical_formula_moiety
;
C27 H28 N2 O5
;
_journal_coden_Cambridge 1127
_journal_volume 20
_journal_year 2010
_journal_page_first 418
_journal_name_full 'Bioorg.Med.Chem.Lett. '
loop_
_publ_author_name
"Wei Li"
"Yi-Min Tao"
"Yun Tang"
"Xue-Jun Xu"
"Jie Chen"
"Wei Fu"
"Xing-Hai Wang"
"Bo Chao"
"Wei Sheng"
"Qiong Xie"
"Zhui-Bai Qiu"
"Jing-Gen Liu"
_chemical_name_systematic
;
3,6-Dimethoxy-17-methyl-18-(3-nitrophenyl)-7,8-didehydro-18,19-dihydro-4,5-epo
xy-6,14-ethenomorphinan
;
_chemical_name_common
;
21-nitro-7alpha-phenyl-6alpha,14alpha-endo-ethenotetrahydrothebaine
;
_cell_volume   2260.717
_exptl_crystal_colour 'pale yellow'
_exptl_crystal_density_diffrn 1.353
_exptl_crystal_description 'prismatic'
_diffrn_ambient_temperature 293
#These two values have been output from a single CSD field.
_refine_ls_R_factor_gt 0.0537
_refine_ls_wR_factor_gt 0.0537
_symmetry_cell_setting orthorhombic
_symmetry_space_group_name_H-M 'P 21 21 21'
_symmetry_Int_Tables_number 19
loop_
_symmetry_equiv_pos_site_id
_symmetry_equiv_pos_as_xyz
1 x,y,z
2 1/2-x,-y,1/2+z
3 -x,1/2+y,1/2-z
4 1/2+x,1/2-y,-z
_cell_length_a 9.024(3)
_cell_length_b 12.846(4)
_cell_length_c 19.502(6)
_cell_angle_alpha 90
_cell_angle_beta 90
_cell_angle_gamma 90
_cell_formula_units_Z 4
loop_
_atom_type_symbol
_atom_type_radius_bond
C 0.68
H 0.23
N 0.68
O 0.68
loop_
_atom_site_label
_atom_site_type_symbol
_atom_site_fract_x
_atom_site_fract_y
_atom_site_fract_z
O1 O 0.11515(18) 1.03436(13) 0.8763(1)
O2 O -0.0150(2) 1.21281(14) 0.93602(10)
O3 O 0.30669(18) 0.85292(14) 0.92758(11)
O4 O 0.6606(3) 0.4189(2) 0.87328(16)
O5 O 0.6396(3) 0.5294(2) 0.79194(15)
N1 N 0.5997(3) 0.4924(2) 0.84657(15)
N2 N -0.1946(2) 0.78444(18) 0.71749(11)
C1 C -0.2619(3) 0.9879(2) 0.82890(13)
C2 C -0.3325(3) 1.0734(2) 0.85640(14)
H1 H -0.43520 1.07790 0.85370
C3 C -0.2538(3) 1.1528(2) 0.88800(14)
H2 H -0.30430 1.21130 0.90360
C4 C -0.1003(3) 1.14707(19) 0.89694(13)
C5 C -0.0312(3) 1.06251(19) 0.86693(13)
C6 C 0.1378(3) 0.93312(18) 0.84298(14)
H3 H 0.21950 0.93870 0.81000
C7 C -0.0080(2) 0.90723(18) 0.80394(13)
C8 C -0.1095(3) 0.99119(18) 0.82915(12)
C9 C 0.1692(2) 0.84319(19) 0.89277(14)
C10 C 0.1868(3) 0.74643(18) 0.84413(12)
H4 H 0.24740 0.76860 0.80510
C11 C 0.0324(2) 0.71426(18) 0.81531(13)
H5 H 0.03930 0.70100 0.76640
H6 H -0.00170 0.65120 0.83770
C12 C -0.0773(2) 0.80401(18) 0.82906(12)
C13 C -0.0888(3) 0.80870(19) 0.90589(12)
H7 H -0.17820 0.79930 0.92880
C14 C 0.0360(3) 0.82695(19) 0.93854(13)
H8 H 0.04190 0.82960 0.98610
C15 C -0.3361(3) 0.8863(2) 0.80870(16)
H9 H -0.39910 0.89920 0.76930
H10 H -0.39940 0.86410 0.84610
C16 C -0.2269(2) 0.7950(2) 0.79066(13)
H11 H -0.27390 0.73000 0.80560
C17 C -0.1308(3) 0.8795(2) 0.68922(14)
H12 H -0.20120 0.93620 0.69380
H13 H -0.11050 0.86980 0.64080
C18 C 0.0112(3) 0.9072(2) 0.72624(13)
H14 H 0.04390 0.97560 0.71150
H15 H 0.08760 0.85750 0.71380
C19 C 0.2654(2) 0.65577(18) 0.87730(12)
C20 C 0.2120(3) 0.60750(19) 0.93588(13)
H16 H 0.12500 0.63200 0.95570
C21 C 0.2844(3) 0.5238(2) 0.96568(13)
H17 H 0.24590 0.49320 1.00500
C22 C 0.4127(3) 0.4860(2) 0.93737(14)
H18 H 0.46280 0.43010 0.95690
C23 C 0.4647(3) 0.53383(19) 0.87892(13)
C24 C 0.3959(3) 0.61725(18) 0.84875(13)
H19 H 0.43590 0.64780 0.80970
C25 C 0.3200(4) 0.9362(3) 0.9750(2)
H20 H 0.22750 0.94570 0.99850
H21 H 0.34530 0.99890 0.95090
H22 H 0.39620 0.92030 1.00770
C26 C -0.0879(4) 1.2949(2) 0.97151(17)
H23 H -0.17010 1.26720 0.99680
H24 H -0.12310 1.34530 0.93910
H25 H -0.01960 1.32750 1.00260
C27 C -0.3176(3) 0.7454(3) 0.67758(16)
H26 H -0.39720 0.79500 0.67860
H27 H -0.35090 0.68060 0.69660
H28 H -0.28650 0.73470 0.63100
#END
