
#######################################################################
#
#                 Cambridge Crystallographic Data Centre
#                                CCDC
#
#######################################################################
#
# If this CIF has been generated from an entry in the Cambridge
# Structural Database, then it will include bibliographic, chemical,
# crystal, experimental, refinement or atomic coordinate data resulting
# from the CCDC's data processing and validation procedures.
#
#######################################################################

data_CSD_CIF_BUGRIF
_audit_creation_date 2010-08-16
_audit_creation_method CSD-ConQuest-V1
_database_code_CSD BUGRIF
_database_code_depnum_ccdc_archive 'CCDC 674974'
_chemical_formula_sum 'C14 H9 N1 O5'
_chemical_formula_moiety
;
C14 H9 N1 O5
;
_journal_coden_Cambridge 1127
_journal_volume 20
_journal_year 2010
_journal_page_first 193
_journal_name_full 'Bioorg.Med.Chem.Lett. '
loop_
_publ_author_name
"M.M.M.Santos"
"N.Faria"
"J.Iley"
"S.J.Coles"
"M.B.Hursthouse"
"M.L.Martins"
"R.Moreira"
_chemical_name_systematic
;
Ethyl 4,9-dioxo-4,9-dihydronaphtho[2,3-d][1,2]oxazole-3-carboxylate
;
_cell_volume    594.504
_exptl_crystal_colour 'pale yellow'
_exptl_crystal_density_diffrn 1.515
_exptl_crystal_description 'slab'
_diffrn_ambient_temperature 120
#These two values have been output from a single CSD field.
_refine_ls_R_factor_gt 0.0363
_refine_ls_wR_factor_gt 0.0363
_symmetry_cell_setting triclinic
_symmetry_space_group_name_H-M 'P -1'
_symmetry_Int_Tables_number 2
loop_
_symmetry_equiv_pos_site_id
_symmetry_equiv_pos_as_xyz
1 x,y,z
2 -x,-y,-z
_cell_length_a 7.1485(3)
_cell_length_b 8.5516(2)
_cell_length_c 10.1860(5)
_cell_angle_alpha 79.315(2)
_cell_angle_beta 88.841(2)
_cell_angle_gamma 76.382(2)
_cell_formula_units_Z 2
loop_
_atom_type_symbol
_atom_type_radius_bond
C 0.68
H 0.23
N 0.68
O 0.68
loop_
_atom_site_label
_atom_site_type_symbol
_atom_site_fract_x
_atom_site_fract_y
_atom_site_fract_z
C1 C 0.26427(17) 0.46591(14) 0.96830(12)
C2 C 0.27424(18) 0.30591(15) 0.95322(13)
H1 H 0.25100 0.22800 1.02740
C3 C 0.31802(19) 0.25894(16) 0.83025(14)
H2 H 0.32270 0.14980 0.82040
C4 C 0.35474(19) 0.37186(16) 0.72217(14)
H3 H 0.38310 0.33990 0.63810
C5 C 0.35036(18) 0.53089(15) 0.73595(13)
H4 H 0.37920 0.60650 0.66210
C6 C 0.30365(17) 0.57999(14) 0.85810(12)
C7 C 0.20864(17) 0.51172(14) 1.10114(12)
C8 C 0.20495(17) 0.68244(15) 1.10889(12)
C9 C 0.24048(18) 0.78943(14) 1.00112(13)
C10 C 0.29603(18) 0.75296(15) 0.86779(12)
C11 C 0.15948(18) 0.77979(15) 1.21017(13)
C12 C 0.12380(19) 0.72600(15) 1.35523(13)
C13 C -0.0717(2) 0.78990(17) 1.53782(13)
H5 H 0.02430 0.81380 1.59510
H6 H -0.07260 0.67260 1.56360
C14 C -0.2675(2) 0.89541(17) 1.55307(15)
H7 H -0.26530 1.01090 1.52450
H8 H -0.30380 0.87610 1.64690
H9 H -0.36150 0.86820 1.49770
N1 N 0.16680(17) 0.93205(13) 1.16505(11)
O1 O 0.16422(14) 0.41602(11) 1.19372(9)
O2 O 0.33314(14) 0.85466(11) 0.77734(9)
O3 O 0.22021(14) 0.9395(1) 1.02974(9)
O4 O 0.22274(15) 0.60550(12) 1.42165(10)
O5 O -0.02462(13) 0.82878(11) 1.39618(9)
#END
