
#######################################################################
#
#                 Cambridge Crystallographic Data Centre
#                                CCDC
#
#######################################################################
#
# If this CIF has been generated from an entry in the Cambridge
# Structural Database, then it will include bibliographic, chemical,
# crystal, experimental, refinement or atomic coordinate data resulting
# from the CCDC's data processing and validation procedures.
#
#######################################################################

data_CSD_CIF_BUHLEW
_audit_creation_date 2010-09-06
_audit_creation_method CSD-ConQuest-V1
_database_code_CSD BUHLEW
_database_code_depnum_ccdc_archive 'CCDC 734492'
_chemical_formula_sum 'C18 H17 N3 O2'
_chemical_formula_moiety
;
C18 H17 N3 O2
;
_journal_coden_Cambridge 154
_journal_volume 62
_journal_year 2009
_journal_page_first 1068
_journal_name_full 'Aust.J.Chem. '
loop_
_publ_author_name
"D.Kvaskoff"
"P.V.Bernhardt"
"R.Koch"
"C.Wentrup"
_chemical_name_systematic
;
4-(Anilino(dimethylamino)methylene)-3-phenyl-1,2-oxazol-5(4H)-one
;
_cell_volume   1517.839
_exptl_crystal_colour 'colorless'
_exptl_crystal_density_diffrn 1.345
_exptl_crystal_description 'prism'
_diffrn_ambient_temperature 293
#These two values have been output from a single CSD field.
_refine_ls_R_factor_gt 0.0402
_refine_ls_wR_factor_gt 0.0402
_symmetry_cell_setting monoclinic
_symmetry_space_group_name_H-M 'P 21/c'
_symmetry_Int_Tables_number 14
loop_
_symmetry_equiv_pos_site_id
_symmetry_equiv_pos_as_xyz
1 x,y,z
2 -x,1/2+y,1/2-z
3 -x,-y,-z
4 x,-1/2-y,-1/2+z
_cell_length_a 9.9333(6)
_cell_length_b 7.9599(5)
_cell_length_c 19.1985(12)
_cell_angle_alpha 90
_cell_angle_beta 90.804(5)
_cell_angle_gamma 90
_cell_formula_units_Z 4
loop_
_atom_type_symbol
_atom_type_radius_bond
C 0.68
H 0.23
N 0.68
O 0.68
loop_
_atom_site_label
_atom_site_type_symbol
_atom_site_fract_x
_atom_site_fract_y
_atom_site_fract_z
C1 C 0.69130(17) 0.0089(2) 0.54904(10)
C2 C 0.63877(17) 0.0531(2) 0.61533(9)
C3 C 0.55154(19) -0.0784(2) 0.63498(11)
C4 C 0.65789(16) 0.1977(2) 0.65763(10)
C5 C 0.79206(17) 0.0974(2) 0.50607(10)
C6 C 0.60922(19) 0.3936(2) 0.56353(10)
H1 H 0.68400 0.41640 0.53380
H2 H 0.55240 0.49100 0.56570
H3 H 0.55850 0.30060 0.54510
C7 C 0.7057(2) 0.4942(2) 0.67433(11)
H4 H 0.63460 0.53230 0.70370
H5 H 0.73240 0.58380 0.64400
H6 H 0.78130 0.45990 0.70260
C8 C 0.72658(17) 0.0349(2) 0.75968(10)
C9 C 0.83390(19) -0.0514(2) 0.73138(10)
H7 H 0.86990 -0.01750 0.68920
C10 C 0.8863(2) -0.1869(3) 0.76615(11)
H8 H 0.95760 -0.24630 0.74720
C11 C 0.8342(2) -0.2357(3) 0.82888(12)
H9 H 0.86950 -0.32910 0.85180
C12 C 0.7296(2) -0.1470(3) 0.85821(11)
H10 H 0.69600 -0.17930 0.90120
C13 C 0.6757(2) -0.0122(3) 0.82409(11)
H11 H 0.60540 0.04790 0.84370
C14 C 0.89942(18) 0.1792(2) 0.53598(11)
H12 H 0.91050 0.17760 0.58420
C15 C 0.9922(2) 0.2646(3) 0.49563(13)
H13 H 1.06420 0.31980 0.51700
C16 C 0.9785(2) 0.2680(3) 0.42482(13)
H14 H 1.04050 0.32570 0.39800
C17 C 0.8740(2) 0.1868(3) 0.39408(12)
H15 H 0.86420 0.18770 0.34580
C18 C 0.7811(2) 0.1018(3) 0.43453(11)
H16 H 0.70970 0.04640 0.41270
N1 N 0.64505(15) -0.1352(2) 0.52706(8)
N2 N 0.67256(14) 0.17819(19) 0.72714(8)
H17 H 0.64700 0.25940 0.75340
N3 N 0.65853(14) 0.35263(18) 0.63280(8)
O1 O 0.55284(13) -0.19080(15) 0.58030(7)
O2 O 0.47772(13) -0.10548(17) 0.68546(7)
#END
