
#######################################################################
#
#                 Cambridge Crystallographic Data Centre
#                                CCDC
#
#######################################################################
#
# If this CIF has been generated from an entry in the Cambridge
# Structural Database, then it will include bibliographic, chemical,
# crystal, experimental, refinement or atomic coordinate data resulting
# from the CCDC's data processing and validation procedures.
#
#######################################################################

data_CSD_CIF_BUHLAS
_audit_creation_date 2010-09-06
_audit_creation_method CSD-ConQuest-V1
_database_code_CSD BUHLAS
_database_code_depnum_ccdc_archive 'CCDC 734491'
_chemical_formula_sum 'C14 H17 N3 O2'
_chemical_formula_moiety
;
C14 H17 N3 O2
;
_journal_coden_Cambridge 154
_journal_volume 62
_journal_year 2009
_journal_page_first 1068
_journal_name_full 'Aust.J.Chem. '
loop_
_publ_author_name
"D.Kvaskoff"
"P.V.Bernhardt"
"R.Koch"
"C.Wentrup"
_chemical_name_systematic
;
4-(bis(Dimethylamino)methylene)-3-phenyl-1,2-oxazol-5(4H)-one
;
_chemical_melting_point 532.15
_cell_volume   2657.739
_exptl_crystal_colour 'colorless'
_exptl_crystal_density_diffrn 1.296
_exptl_special_details
;
Melting point range 532.15-533.15K

;
_exptl_crystal_description 'prism'
_exptl_crystal_preparation 'methanol'
_diffrn_ambient_temperature 293
#These two values have been output from a single CSD field.
_refine_ls_R_factor_gt 0.0488
_refine_ls_wR_factor_gt 0.0488
_symmetry_cell_setting orthorhombic
_symmetry_space_group_name_H-M 'P b c a'
_symmetry_Int_Tables_number 61
loop_
_symmetry_equiv_pos_site_id
_symmetry_equiv_pos_as_xyz
1 x,y,z
2 1/2-x,-y,1/2+z
3 1/2+x,1/2-y,-z
4 -x,1/2+y,1/2-z
5 -x,-y,-z
6 -1/2+x,y,-1/2-z
7 -1/2-x,-1/2+y,z
8 x,-1/2-y,-1/2+z
_cell_length_a 10.5938(8)
_cell_length_b 12.2333(6)
_cell_length_c 20.5077(11)
_cell_angle_alpha 90
_cell_angle_beta 90
_cell_angle_gamma 90
_cell_formula_units_Z 8
loop_
_atom_type_symbol
_atom_type_radius_bond
C 0.68
H 0.23
N 0.68
O 0.68
loop_
_atom_site_label
_atom_site_type_symbol
_atom_site_fract_x
_atom_site_fract_y
_atom_site_fract_z
C1 C 0.8879(2) 0.16849(17) 0.07923(11)
C2 C 0.8865(2) 0.21653(16) 0.1422(1)
C3 C 0.9139(2) 0.13093(18) 0.18595(13)
C4 C 0.8769(2) 0.32848(18) 0.16104(11)
C5 C 0.8571(2) 0.22206(18) 0.01650(12)
C6 C 0.6953(2) 0.28997(18) 0.22996(11)
H1 H 0.67290 0.24220 0.19470
H2 H 0.62520 0.33670 0.24000
H3 H 0.71670 0.24720 0.26760
C7 C 0.8296(3) 0.44719(18) 0.25536(11)
H4 H 0.91010 0.47850 0.24480
H5 H 0.83090 0.42090 0.29950
H6 H 0.76500 0.50180 0.25090
C8 C 1.0573(2) 0.38209(19) 0.09343(13)
H7 H 1.08710 0.31060 0.10520
H8 H 1.12090 0.43540 0.10350
H9 H 1.03930 0.38400 0.04760
C9 C 0.8979(2) 0.51903(16) 0.12308(12)
H10 H 0.81130 0.52330 0.13660
H11 H 0.90480 0.54120 0.07830
H12 H 0.94830 0.56650 0.14980
C10 C 0.7716(2) 0.30768(18) 0.01425(12)
H13 H 0.73090 0.32930 0.05230
C11 C 0.7455(3) 0.3617(2) -0.04352(14)
H14 H 0.68800 0.41910 -0.04430
C12 C 0.8054(3) 0.3296(2) -0.09940(13)
H15 H 0.78940 0.36630 -0.13830
C13 C 0.8887(3) 0.2440(3) -0.09870(13)
H16 H 0.92790 0.22250 -0.13720
C14 C 0.9151(2) 0.1891(2) -0.04119(12)
H17 H 0.97120 0.13060 -0.04110
N1 N 0.9112(2) 0.06365(15) 0.08032(10)
N2 N 0.80313(19) 0.35628(13) 0.21107(9)
N3 N 0.94262(18) 0.40670(14) 0.12998(9)
O1 O 0.93163(16) 0.03792(12) 0.14777(8)
O2 O 0.92611(17) 0.12439(12) 0.24527(8)
#END
