
#######################################################################
#
#                 Cambridge Crystallographic Data Centre
#                                CCDC
#
#######################################################################
#
# If this CIF has been generated from an entry in the Cambridge
# Structural Database, then it will include bibliographic, chemical,
# crystal, experimental, refinement or atomic coordinate data resulting
# from the CCDC's data processing and validation procedures.
#
#######################################################################

data_CSD_CIF_BULJEX
_audit_creation_date 1983-12-16
_audit_creation_method CSD-ConQuest-V1
_database_code_CSD BULJEX
_database_code_depnum_ccdc_archive 'CCDC 1116594'
_chemical_formula_sum 'C7 H5 N3 O2'
_chemical_formula_moiety
;
C7 H5 N3 O2
;
_journal_coeditor_code "IUCr A22484"
_journal_coden_Cambridge 591
_journal_volume 39
_journal_year 1983
_journal_page_first 738
_journal_name_full 'Acta Crystallogr.,Sect.C:Cryst.Struct.Commun. '
loop_
_publ_author_name
"W.E.Hunt"
"C.H.Schwalbe"
"K.Vaughan"
_chemical_name_systematic
;
3-Hydroxy-1,2,3-benzotriazin-4(3H)-one
;
_cell_volume    687.845
_exptl_crystal_colour 'colorless'
_exptl_crystal_density_diffrn 1.575
_diffrn_ambient_temperature ?
_diffrn_special_details
;
The study was carried out at room temperature,in the range 283-303K

;
#These two values have been output from a single CSD field.
_refine_ls_R_factor_gt 0.105
_refine_ls_wR_factor_gt 0.105
_symmetry_cell_setting monoclinic
_symmetry_space_group_name_H-M 'P 21/n'
_symmetry_Int_Tables_number 14
loop_
_symmetry_equiv_pos_site_id
_symmetry_equiv_pos_as_xyz
1 x,y,z
2 1/2-x,1/2+y,1/2-z
3 -x,-y,-z
4 -1/2+x,-1/2-y,-1/2+z
_cell_length_a 15.04(1)
_cell_length_b 4.29(2)
_cell_length_c 10.95(1)
_cell_angle_alpha 90
_cell_angle_beta 103.2(1)
_cell_angle_gamma 90
_cell_formula_units_Z 4
loop_
_atom_type_symbol
_atom_type_radius_bond
C 0.68
H 0.23
N 0.68
O 0.68
loop_
_atom_site_label
_atom_site_type_symbol
_atom_site_fract_x
_atom_site_fract_y
_atom_site_fract_z
N1 N 0.57420 0.71400 0.41790
N2 N 0.65130 0.59630 0.42510
N3 N 0.66160 0.40390 0.32990
O1 O 0.74620 0.27050 0.35060
C1 C 0.59730 0.31460 0.22670
O2 O 0.61490 0.12490 0.15240
C2 C 0.51040 0.45430 0.21980
C3 C 0.43540 0.40750 0.11910
C4 C 0.35520 0.54470 0.11950
C5 C 0.34560 0.74060 0.21690
C6 C 0.41810 0.78980 0.31630
C7 C 0.50080 0.65310 0.31670
H1 H 0.44200 0.25800 0.04300
H2 H 0.29800 0.50400 0.04200
H3 H 0.28100 0.85500 0.21400
H4 H 0.41000 0.93100 0.39500
H5 H 0.79800 0.40300 0.35000
#END
