
#######################################################################
#
#                 Cambridge Crystallographic Data Centre
#                                CCDC
#
#######################################################################
#
# If this CIF has been generated from an entry in the Cambridge
# Structural Database, then it will include bibliographic, chemical,
# crystal, experimental, refinement or atomic coordinate data resulting
# from the CCDC's data processing and validation procedures.
#
#######################################################################

data_CSD_CIF_BUNYIU
_audit_creation_date 2015-07-31
_audit_creation_method CSD-ConQuest-V1
_database_code_CSD BUNYIU
_database_code_depnum_ccdc_archive 'CCDC 1054280'
_chemical_formula_sum 'C15 H22 N2 O3'
_chemical_formula_moiety
;
C15 H22 N2 O3
;
_journal_coden_Cambridge 469
_journal_volume 78
_journal_year 2015
_journal_page_first 1683
_journal_name_full 'J.Nat.Prod. '
loop_
_publ_author_name
"Qi-Ming Pan"
"Yu-Huan Li"
"Jing Hua"
"Fu-Ping Huang"
"Heng-Shan Wang"
"Dong Liang"
_chemical_name_systematic
;
7a-hydroxy-2,3,6,7,7a,8,13,13a,13b,13c-decahydro-1H,5H,10H-dipyrido[2,1-f:3',2
',1'-ij][1,6]naphthyridin-10-one 4-oxide
;
_cell_volume   1352.657
_exptl_crystal_colour 'colorless'
_exptl_crystal_density_diffrn 1.367
_exptl_special_details
;
Absolute configuration
antiviral activity

;
_exptl_crystal_description '1'
_diffrn_ambient_temperature 296.1
#These two values have been output from a single CSD field.
_refine_ls_R_factor_gt 0.0301
_refine_ls_wR_factor_gt 0.0301
_chemical_compound_source
;
Sophora tonkinensis
;
_symmetry_cell_setting orthorhombic
_symmetry_space_group_name_H-M 'P 21 21 21'
_symmetry_Int_Tables_number 19
loop_
_symmetry_equiv_pos_site_id
_symmetry_equiv_pos_as_xyz
1 x,y,z
2 1/2-x,-y,1/2+z
3 1/2+x,1/2-y,-z
4 -x,1/2+y,1/2-z
_cell_length_a 9.052(3)
_cell_length_b 10.577(3)
_cell_length_c 14.128(4)
_cell_angle_alpha 90
_cell_angle_beta 90
_cell_angle_gamma 90
_cell_formula_units_Z 4
loop_
_atom_type_symbol
_atom_type_radius_bond
C 0.68
H 0.23
N 0.68
O 0.68
loop_
_atom_site_label
_atom_site_type_symbol
_atom_site_fract_x
_atom_site_fract_y
_atom_site_fract_z
O1 O 0.06693(10) 0.98908(7) 0.74339(7)
O2 O -0.19517(11) 0.67815(9) 0.85080(7)
H1 H -0.16060 0.61550 0.82480
O3 O -0.40572(15) 1.05933(14) 0.87513(10)
N1 N 0.11077(12) 0.86319(10) 0.73697(8)
N2 N -0.27811(13) 0.92985(11) 0.77737(8)
C1 C 0.18287(16) 0.84102(14) 0.64265(11)
H2 H 0.21780 0.75450 0.63920
H3 H 0.26750 0.89660 0.63610
C2 C 0.07578(17) 0.86524(14) 0.56319(10)
H4 H 0.12430 0.85020 0.50300
H5 H 0.04420 0.95280 0.56480
C3 C -0.05788(18) 0.77933(15) 0.57206(10)
H6 H -0.02730 0.69240 0.56230
H7 H -0.12860 0.80060 0.52300
C4 C -0.13281(14) 0.79075(13) 0.66885(9)
H8 H -0.20130 0.71930 0.67380
C5 C -0.22657(15) 0.91120(13) 0.67885(9)
H9 H -0.16630 0.98410 0.66040
C6 C -0.36037(18) 0.90416(17) 0.61389(12)
H10 H -0.32780 0.90750 0.54850
H11 H -0.41050 0.82410 0.62350
C7 C -0.46527(16) 1.00911(16) 0.63183(14)
H12 H -0.52620 1.03730 0.58320
C8 C -0.47332(17) 1.06267(15) 0.71525(14)
H13 H -0.53730 1.13050 0.72410
C9 C -0.38337(16) 1.01793(15) 0.79539(12)
C10 C -0.18131(16) 0.90020(13) 0.85733(9)
H14 H -0.24110 0.89230 0.91400
H15 H -0.11370 0.97020 0.86690
C11 C -0.09226(15) 0.77995(12) 0.84469(9)
C12 C 0.02275(18) 0.76758(14) 0.92276(10)
H16 H -0.02350 0.78610 0.98310
H17 H 0.05750 0.68090 0.92480
C13 C 0.15470(18) 0.85501(15) 0.90957(11)
H18 H 0.12340 0.94220 0.91680
H19 H 0.22820 0.83720 0.95770
C14 C 0.22114(17) 0.83691(16) 0.81349(11)
H20 H 0.25650 0.75070 0.80750
H21 H 0.30500 0.89320 0.80620
C15 C -0.01938(14) 0.77336(11) 0.74689(9)
H22 H 0.02010 0.68760 0.74010
#END
