
#######################################################################
#
#                 Cambridge Crystallographic Data Centre
#                                CCDC
#
#######################################################################
#
# If this CIF has been generated from an entry in the Cambridge
# Structural Database, then it will include bibliographic, chemical,
# crystal, experimental, refinement or atomic coordinate data resulting
# from the CCDC's data processing and validation procedures.
#
#######################################################################

data_CSD_CIF_BUQLEG
_audit_creation_date 2015-08-01
_audit_creation_method CSD-ConQuest-V1
_database_code_CSD BUQLEG
_database_code_depnum_ccdc_archive 'CCDC 991412'
_chemical_formula_sum 'C17 H18 N4 O4'
_chemical_formula_moiety
;
C17 H18 N4 O4
;
_journal_coden_Cambridge 692
_journal_volume 47
_journal_year 2015
_journal_page_first 2285
_journal_name_full 'Synthesis '
loop_
_publ_author_name
"o.Hordiyenko"
"Olga Ovdiichuk"
"V.Medviediev"
"Oleg Shishkin"
"A.Arrault"
_chemical_name_systematic
;
Methyl 
(2S)-2-(((2-(N'-hydroxycarbamimidoyl)pyridin-3-yl)carbonyl)amino)-3-phenylprop
anoate
;
_chemical_melting_point 445.15
_cell_volume    863.182
_exptl_crystal_density_diffrn 1.317
_diffrn_ambient_temperature 293
#These two values have been output from a single CSD field.
_refine_ls_R_factor_gt 0.0354
_refine_ls_wR_factor_gt 0.0354
_symmetry_cell_setting monoclinic
_symmetry_space_group_name_H-M 'P 21'
_symmetry_Int_Tables_number 4
loop_
_symmetry_equiv_pos_site_id
_symmetry_equiv_pos_as_xyz
1 x,y,z
2 -x,1/2+y,-z
_cell_length_a 8.5563(3)
_cell_length_b 10.2899(3)
_cell_length_c 10.1182(3)
_cell_angle_alpha 90
_cell_angle_beta 104.315(3)
_cell_angle_gamma 90
_cell_formula_units_Z 2
loop_
_atom_type_symbol
_atom_type_radius_bond
C 0.68
H 0.23
N 0.68
O 0.68
loop_
_atom_site_label
_atom_site_type_symbol
_atom_site_fract_x
_atom_site_fract_y
_atom_site_fract_z
O1 O 0.01171(17) -0.50069(12) -0.36531(13)
O2 O -0.09945(18) -0.69686(14) -0.41334(11)
O3 O 0.18891(11) -0.75508(9) -0.95794(12)
H1 H 0.21700 -0.67970 -0.96470
O4 O -0.23695(11) -0.58251(8) -0.83042(9)
N1 N -0.26465(12) -1.00262(10) -0.98554(10)
N2 N 0.05070(17) -0.97163(12) -0.99709(18)
H2 H 0.14450 -0.95990 -1.01170
H3 H 0.00590 -1.04690 -1.01010
N3 N 0.03264(11) -0.75667(9) -0.93198(10)
N4 N -0.07527(12) -0.70317(9) -0.66414(9)
H4 H -0.04840 -0.78030 -0.63430
C1 C -0.41277(14) -1.02802(14) -0.96978(14)
H5 H -0.46480 -1.10280 -1.00990
C2 C -0.49164(14) -0.94947(14) -0.89756(15)
H6 H -0.59510 -0.96940 -0.89010
C3 C -0.41202(13) -0.83961(12) -0.83626(12)
H7 H -0.46140 -0.78500 -0.78550
C4 C -0.25834(12) -0.8109(1) -0.85060(9)
C5 C -0.18809(12) -0.89489(10) -0.92823(9)
C6 C -0.02599(13) -0.87212(10) -0.95388(11)
C7 C -0.18479(12) -0.68762(10) -0.78283(9)
C8 C -0.00131(16) -0.59214(12) -0.58513(12)
H8 H -0.05210 -0.51410 -0.63260
C9 C -0.02953(18) -0.58965(15) -0.44257(13)
C10 C -0.1224(5) -0.7059(3) -0.2760(2)
H9 H -0.01990 -0.71860 -0.21240
H10 H -0.19180 -0.77800 -0.27080
H11 H -0.17060 -0.62710 -0.25420
C11 C 0.18101(18) -0.58287(17) -0.57681(16)
H12 H 0.19600 -0.57450 -0.66840
H13 H 0.22370 -0.50500 -0.52660
C12 C 0.27565(16) -0.69909(18) -0.50850(15)
C13 C 0.3145(2) -0.8011(2) -0.5828(2)
H14 H 0.28480 -0.79770 -0.67750
C14 C 0.3968(3) -0.9084(3) -0.5184(3)
H15 H 0.42330 -0.97560 -0.57050
C15 C 0.4397(3) -0.9170(3) -0.3796(3)
H16 H 0.49330 -0.99010 -0.33690
C16 C 0.4026(3) -0.8162(4) -0.3038(3)
H17 H 0.43230 -0.82110 -0.20910
C17 C 0.3222(3) -0.7080(3) -0.36596(19)
H18 H 0.29870 -0.64040 -0.31300
#END
