
#######################################################################
#
#                 Cambridge Crystallographic Data Centre
#                                CCDC
#
#######################################################################
#
# If this CIF has been generated from an entry in the Cambridge
# Structural Database, then it will include bibliographic, chemical,
# crystal, experimental, refinement or atomic coordinate data resulting
# from the CCDC's data processing and validation procedures.
#
#######################################################################

data_CSD_CIF_BUQWOZ01
_audit_creation_date 2004-04-27
_audit_creation_method CSD-ConQuest-V1
_database_code_CSD BUQWOZ01
_database_code_depnum_ccdc_archive 'CCDC 227951'
_chemical_formula_sum 'C31 H40 N2 O2'
_chemical_formula_moiety
;
C31 H40 N2 O2
;
_journal_coden_Cambridge 4
_journal_volume 125
_journal_year 2003
_journal_page_first 15426
_journal_name_full 'J.Am.Chem.Soc. '
loop_
_publ_author_name
"D.A.Shultz"
"R.M.Fico Junior"
"Hyoyoung Lee"
"J.W.Kampf"
"K.Kirschbaum"
"A.A.Pinkerton"
"P.D.Boyle"
_chemical_name_systematic
;
(2-Adamantylidene)bis(4-(N-t-butylaminoxyl)phenyl)methane
;
_cell_volume   1276.456
_exptl_crystal_colour 'red'
_exptl_crystal_density_diffrn 1.23
_exptl_special_details
;
undergoes phase transition at about 70 K

;
_exptl_crystal_description 'cracked plate'
_diffrn_ambient_temperature 25
#These two values have been output from a single CSD field.
_refine_ls_R_factor_gt 0.0948
_refine_ls_wR_factor_gt 0.0948
_symmetry_cell_setting triclinic
_symmetry_space_group_name_H-M 'P -1'
_symmetry_Int_Tables_number 2
loop_
_symmetry_equiv_pos_site_id
_symmetry_equiv_pos_as_xyz
1 x,y,z
2 -x,-y,-z
_cell_length_a 6.2971(5)
_cell_length_b 11.9668(10)
_cell_length_c 17.4475(12)
_cell_angle_alpha 100.563(3)
_cell_angle_beta 96.732(3)
_cell_angle_gamma 94.661(3)
_cell_formula_units_Z 2
loop_
_atom_type_symbol
_atom_type_radius_bond
C 0.68
H 0.23
N 0.68
O 0.68
loop_
_atom_site_label
_atom_site_type_symbol
_atom_site_fract_x
_atom_site_fract_y
_atom_site_fract_z
O1 O -0.5036(10) -1.1168(6) -0.7226(3)
O2 O 0.630(1) -1.5740(6) -0.5370(3)
N1 N -0.3054(12) -1.1248(7) -0.7331(3)
N2 N 0.4370(13) -1.6155(7) -0.5305(3)
C1 C -0.1606(15) -1.0128(9) -0.7148(4)
C2 C -0.0018(16) -1.0100(9) -0.7753(4)
H1 H -0.08040 -1.01840 -0.82690
H2 H 0.08680 -1.07150 -0.77400
H3 H 0.08740 -0.93840 -0.76250
C3 C -0.3023(15) -0.9167(9) -0.7177(4)
H4 H -0.37790 -0.92510 -0.76990
H5 H -0.21470 -0.84460 -0.70410
H6 H -0.40390 -0.91940 -0.68100
C4 C -0.0379(15) -0.9994(9) -0.6304(4)
H7 H -0.13950 -1.00140 -0.59360
H8 H 0.05100 -0.92770 -0.61700
H9 H 0.05040 -1.06080 -0.62850
C5 C -0.2405(14) -1.2331(8) -0.7571(4)
C6 C -0.0309(14) -1.2622(8) -0.7441(4)
H10 H 0.08050 -1.20540 -0.72200
C7 C 0.0126(15) -1.3734(8) -0.7637(4)
H11 H 0.15290 -1.39110 -0.75330
C8 C -0.1514(14) -1.4622(8) -0.7993(3)
C9 C -0.3603(14) -1.4322(8) -0.8128(4)
H12 H -0.47090 -1.48890 -0.83580
C10 C -0.4070(15) -1.3211(8) -0.7929(4)
H13 H -0.54750 -1.30350 -0.80290
C11 C -0.1024(14) -1.5836(8) -0.8123(4)
C12 C 0.0245(14) -1.6146(8) -0.7419(3)
C13 C -0.0510(14) -1.5862(8) -0.6682(4)
H14 H -0.18650 -1.56130 -0.66550
C14 C 0.0791(14) -1.5959(8) -0.5994(4)
H15 H 0.02710 -1.58000 -0.55120
C15 C 0.2819(15) -1.6284(8) -0.6022(4)
C16 C 0.3540(15) -1.6619(8) -0.6751(4)
H16 H 0.48870 -1.68790 -0.67770
C17 C 0.2209(14) -1.6558(8) -0.7441(4)
H17 H 0.26690 -1.68030 -0.79250
C18 C 0.4167(14) -1.6976(8) -0.4750(4)
C19 C 0.1858(14) -1.7169(8) -0.4584(4)
H18 H 0.14150 -1.64580 -0.43350
H19 H 0.17720 -1.77110 -0.42420
H20 H 0.09330 -1.74600 -0.50690
C20 C 0.5658(14) -1.6479(8) -0.3991(4)
H21 H 0.51850 -1.57750 -0.37450
H22 H 0.70960 -1.63370 -0.41090
H23 H 0.56350 -1.70110 -0.36420
C21 C 0.4910(14) -1.8105(8) -0.5150(4)
H24 H 0.63650 -1.79720 -0.52520
H25 H 0.39940 -1.83990 -0.56370
H26 H 0.48350 -1.86500 -0.48100
C22 C -0.1609(14) -1.6589(8) -0.8825(4)
C23 C -0.1461(14) -1.7860(8) -0.8930(4)
H27 H -0.09450 -1.80590 -0.84250
C24 C 0.0122(14) -1.8207(8) -0.9538(4)
H28 H 0.15540 -1.78300 -0.93370
H29 H 0.01910 -1.90260 -0.96290
C25 C -0.0705(14) -1.7843(8) -1.0315(4)
H30 H 0.02880 -1.80400 -1.06990
C26 C -0.0862(15) -1.6568(8) -1.0177(4)
H31 H -0.13370 -1.63500 -1.06730
H32 H 0.05480 -1.61650 -0.99740
C27 C -0.2461(14) -1.6215(8) -0.9584(3)
H33 H -0.25490 -1.53880 -0.94940
C28 C -0.4673(14) -1.6877(8) -0.9907(4)
H34 H -0.56790 -1.66740 -0.95370
H35 H -0.52050 -1.66660 -1.03990
C29 C -0.4530(15) -1.8153(8) -1.0039(4)
H36 H -0.59580 -1.85600 -1.02410
C30 C -0.2947(14) -1.8497(8) -1.0635(4)
H37 H -0.28510 -1.93140 -1.07110
H38 H -0.34610 -1.83140 -1.11380
C31 C -0.3692(14) -1.8487(8) -0.9250(3)
H39 H -0.46780 -1.82900 -0.88710
H40 H -0.36170 -1.93060 -0.93310
#END
