
#######################################################################
#
#                 Cambridge Crystallographic Data Centre
#                                CCDC
#
#######################################################################
#
# If this CIF has been generated from an entry in the Cambridge
# Structural Database, then it will include bibliographic, chemical,
# crystal, experimental, refinement or atomic coordinate data resulting
# from the CCDC's data processing and validation procedures.
#
#######################################################################

data_CSD_CIF_BURCAU
_audit_creation_date 2015-08-01
_audit_creation_method CSD-ConQuest-V1
_database_code_CSD BURCAU
_database_code_depnum_ccdc_archive 'CCDC 1416402'
_chemical_formula_sum 'C3 H6 N2 O3'
_chemical_formula_moiety
;
C3 H6 N2 O3
;
_journal_coden_Cambridge 1078
_journal_year 2015
_journal_name_full 'CSD Communication(Private Communication) '
loop_
_publ_author_name
"D.Scott Bohle"
"Z.J.Chua"
_chemical_name_systematic
;
ethyl nitrosocarbamate
;
_cell_volume    266.678
_exptl_crystal_colour 'yellow'
_exptl_crystal_density_diffrn 1.471
_exptl_crystal_description 'plate'
_diffrn_ambient_temperature 100
_refine_special_details
;
O1 and O1A,O4 disordered over two sites with occupancies 0.88:0.03.

;
#These two values have been output from a single CSD field.
_refine_ls_R_factor_gt 0.0364
_refine_ls_wR_factor_gt 0.0364
_symmetry_cell_setting monoclinic
_symmetry_space_group_name_H-M 'P 21/m'
_symmetry_Int_Tables_number 11
loop_
_symmetry_equiv_pos_site_id
_symmetry_equiv_pos_as_xyz
1 x,y,z
2 -x,1/2+y,-z
3 -x,-y,-z
4 x,-1/2-y,z
_cell_length_a 4.7863(15)
_cell_length_b 6.0338(19)
_cell_length_c 9.375(3)
_cell_angle_alpha 90
_cell_angle_beta 99.945(3)
_cell_angle_gamma 90
_cell_formula_units_Z 2
loop_
_atom_type_symbol
_atom_type_radius_bond
C 0.68
H 0.23
N 0.68
O 0.68
loop_
_atom_site_label
_atom_site_type_symbol
_atom_site_fract_x
_atom_site_fract_y
_atom_site_fract_z
O1 O -0.0521(12) 0.25000 0.2115(6)
O2 O 0.5873(3) 0.25000 0.53786(19)
O3 O 0.2456(3) 0.25000 0.67518(17)
N1 N 0.1144(4) 0.25000 0.43895(19)
H1 H -0.06020 0.25000 0.45670
N2 N 0.1630(4) 0.25000 0.3013(2)
C1 C 0.3429(4) 0.25000 0.5516(2)
C2 C 0.4604(5) 0.25000 0.8061(3)
H2 H 0.58200 0.38320 0.80880
C3 C 0.3060(5) 0.25000 0.9324(3)
H3 H 0.44380 0.25000 1.02290
H4 H 0.18670 0.38260 0.92850
O4? O -0.09(2) 0.27(2) 0.230(11)
O5? O 0.366(6) 0.275(9) 0.278(3)
H5? H 0.58200 0.38320 0.80880
H6? H 0.18670 0.38260 0.92850
H2C H 0.58200 0.11680 0.80880
H4C H 0.18670 0.11740 0.92850
#END
