
#######################################################################
#
#                 Cambridge Crystallographic Data Centre
#                                CCDC
#
#######################################################################
#
# If this CIF has been generated from an entry in the Cambridge
# Structural Database, then it will include bibliographic, chemical,
# crystal, experimental, refinement or atomic coordinate data resulting
# from the CCDC's data processing and validation procedures.
#
#######################################################################

data_CSD_CIF_BURFIF
_audit_creation_date 2015-08-02
_audit_creation_method CSD-ConQuest-V1
_database_code_CSD BURFIF
_database_code_depnum_ccdc_archive 'CCDC 1055106'
_chemical_formula_sum 'C18 H17 N3 O5'
_chemical_formula_moiety
;
C18 H17 N3 O5
;
_journal_coden_Cambridge 1291
_journal_year 2015
_journal_page_first 5633
_journal_name_full 'Eur.J.Org.Chem. '
loop_
_publ_author_name
"Peng Wu"
"M.A.Petersen"
"R.Petersen"
"M.O.Rasmussen"
"K.Bonnet"
"T.E.Nielsen"
"M.H.Clausen"
_chemical_name_systematic
;
N-(1-benzyl-3-hydroxy-5-oxopyrrolidin-2-yl)-4-nitrobenzamide
;
_cell_volume   1685.690
_exptl_crystal_colour 'light colorless'
_exptl_crystal_density_diffrn 1.4
_exptl_special_details
;
Absolute configuration

;
_exptl_crystal_description 'needle'
_diffrn_ambient_temperature 295.2
#These two values have been output from a single CSD field.
_refine_ls_R_factor_gt 0.0408
_refine_ls_wR_factor_gt 0.0408
_symmetry_cell_setting orthorhombic
_symmetry_space_group_name_H-M 'P 21 21 21'
_symmetry_Int_Tables_number 19
loop_
_symmetry_equiv_pos_site_id
_symmetry_equiv_pos_as_xyz
1 x,y,z
2 1/2-x,-y,1/2+z
3 1/2+x,1/2-y,-z
4 -x,1/2+y,1/2-z
_cell_length_a 4.90687(10)
_cell_length_b 9.26462(18)
_cell_length_c 37.0805(8)
_cell_angle_alpha 90
_cell_angle_beta 90
_cell_angle_gamma 90
_cell_formula_units_Z 4
loop_
_atom_type_symbol
_atom_type_radius_bond
C 0.68
H 0.23
N 0.68
O 0.68
loop_
_atom_site_label
_atom_site_type_symbol
_atom_site_fract_x
_atom_site_fract_y
_atom_site_fract_z
O1 O -0.2309(3) -0.7383(3) -0.12076(5)
N1 N -0.6639(4) -0.7492(2) -0.13976(5)
H1 H -0.82760 -0.77510 -0.13460
O2 O -0.8435(5) -0.8828(2) -0.19936(5)
H2 H -0.88640 -0.92400 -0.21810
C1 C -0.6110(5) -0.6816(2) -0.17406(6)
H3 H -0.43040 -0.63650 -0.17360
N2 N -0.8170(4) -0.5723(2) -0.18217(5)
C2 C -0.6138(6) -0.2524(3) -0.17468(7)
H4 H -0.69930 -0.25400 -0.19710
C3 C -0.4664(4) -0.7728(2) -0.11575(6)
C4 C -0.5434(5) -0.8470(2) -0.08119(6)
C5 C -0.6872(5) -0.3531(2) -0.14863(6)
C6 C -0.8768(6) -0.5683(3) -0.21756(7)
O3 O -1.0385(6) -0.4828(3) -0.23139(6)
C7 C -0.9052(5) -0.4630(3) -0.15635(7)
H5 H -0.95690 -0.50990 -0.13400
H6 H -1.06480 -0.41410 -0.16580
C8 C -0.6310(6) -0.7833(3) -0.20651(6)
H7 H -0.45760 -0.83200 -0.21140
C9 C -0.6342(7) -0.9920(3) -0.01789(7)
C10 C -0.4168(6) -0.1507(3) -0.16787(8)
H8 H -0.37190 -0.08320 -0.18550
C11 C -0.7090(6) -0.6800(3) -0.23647(7)
H9 H -0.54860 -0.63720 -0.24740
H10 H -0.81430 -0.72870 -0.25500
C12 C -0.5562(7) -0.3491(3) -0.11586(7)
H11 H -0.60240 -0.41520 -0.09800
C13 C -0.2876(7) -0.1483(3) -0.13554(9)
H12 H -0.15300 -0.07980 -0.13110
C14 C -0.3553(9) -0.2470(4) -0.10928(9)
H13 H -0.26650 -0.24530 -0.08710
C15 C -0.3943(7) -0.8150(4) -0.05079(8)
H14 H -0.25950 -0.74460 -0.05180
N3 N -0.6805(9) -1.0710(4) 0.01636(9)
C16 C -0.7359(7) -0.9518(4) -0.07926(9)
H15 H -0.83800 -0.97460 -0.09960
C17 C -0.7827(8) -1.0260(5) -0.04701(10)
H16 H -0.91480 -1.09780 -0.04580
C18 C -0.4432(9) -0.8864(4) -0.01896(8)
H17 H -0.34590 -0.86240 0.00170
O4 O -0.8561(11) -1.1633(5) 0.01676(10)
O5 O -0.5378(10) -1.0401(5) 0.04187(8)
#END
