
#######################################################################
#
#                 Cambridge Crystallographic Data Centre
#                                CCDC
#
#######################################################################
#
# If this CIF has been generated from an entry in the Cambridge
# Structural Database, then it will include bibliographic, chemical,
# crystal, experimental, refinement or atomic coordinate data resulting
# from the CCDC's data processing and validation procedures.
#
#######################################################################

data_CSD_CIF_BURXIW
_audit_creation_date 2010-08-30
_audit_creation_method CSD-ConQuest-V1
_database_code_CSD BURXIW
_database_code_depnum_ccdc_archive 'CCDC 724072'
_chemical_formula_sum 'C16 H20 N7 O2'
_chemical_formula_moiety
;
C16 H20 N7 O2
;
_journal_coden_Cambridge 1350
_journal_volume 12
_journal_year 2010
_journal_page_first 526
_journal_name_full 'CrystEngComm '
loop_
_publ_author_name
"H.Tanaka"
"D.Shiomi"
"S.Suzuki"
"M.Kozaki"
"K.Okada"
"K.Sato"
"T.Takui"
_chemical_name_systematic
;
2-(4-(4,6-Diamino-1,3,5-triazin-2-yl)phenyl)-4,4,5,5-tetramethyl-4,5-dihydro-1
H-3\l^5^-imidazole-1,3-diol
;
_cell_volume   3291.575
_exptl_crystal_colour 'blue'
_exptl_crystal_density_diffrn 1.382
_exptl_crystal_description 'block'
_exptl_crystal_preparation 'dichloromethane/methanol'
_diffrn_ambient_temperature 253.1
#These two values have been output from a single CSD field.
_refine_ls_R_factor_gt 0.0696
_refine_ls_wR_factor_gt 0.0696
_symmetry_cell_setting orthorhombic
_symmetry_space_group_name_H-M 'P c c n'
_symmetry_Int_Tables_number 56
loop_
_symmetry_equiv_pos_site_id
_symmetry_equiv_pos_as_xyz
1 x,y,z
2 1/2-x,1/2-y,z
3 1/2+x,-y,1/2-z
4 -x,1/2+y,1/2-z
5 -x,-y,-z
6 -1/2+x,-1/2+y,-z
7 -1/2-x,y,-1/2+z
8 x,-1/2-y,-1/2+z
_cell_length_a 16.448(3)
_cell_length_b 13.055(3)
_cell_length_c 15.329(3)
_cell_angle_alpha 90
_cell_angle_beta 90
_cell_angle_gamma 90
_cell_formula_units_Z 8
loop_
_atom_type_symbol
_atom_type_radius_bond
C 0.68
H 0.23
N 0.68
O 0.68
loop_
_atom_site_label
_atom_site_type_symbol
_atom_site_fract_x
_atom_site_fract_y
_atom_site_fract_z
O1 O 0.40396(16) 0.15903(18) 0.18742(18)
O2 O 0.48594(14) -0.16868(16) 0.25361(15)
N1 N 0.41453(17) 0.07605(19) 0.22965(18)
N2 N 0.45213(14) -0.07913(18) 0.25837(16)
N3 N 0.74925(16) 0.11215(19) -0.07055(15)
N4 N 0.85873(16) 0.0266(2) -0.14324(17)
N5 N 0.75635(17) -0.0693(2) -0.06765(17)
N6 N 0.85030(17) 0.2026(2) -0.13755(18)
N7 N 0.85804(19) -0.1494(2) -0.1424(2)
C1 C 0.46472(18) -0.0007(2) 0.20501(19)
C2 C 0.3783(2) 0.0600(2) 0.3178(2)
C3 C 0.39089(18) -0.0569(2) 0.32905(19)
C4 C 0.2896(2) 0.0952(3) 0.3156(3)
C5 C 0.4266(3) 0.1253(2) 0.3805(2)
C6 C 0.3167(2) -0.1225(3) 0.3090(2)
C7 C 0.4275(2) -0.0885(2) 0.4154(2)
C8 C 0.52528(19) 0.0058(2) 0.13569(19)
C9 C 0.56295(19) 0.0982(2) 0.11738(19)
C10 C 0.62548(18) 0.1035(2) 0.05630(19)
C11 C 0.65028(17) 0.0158(2) 0.01275(18)
C12 C 0.61057(19) -0.0765(2) 0.0286(2)
C13 C 0.54855(19) -0.0822(2) 0.08900(19)
C14 C 0.72275(17) 0.0195(2) -0.04660(19)
C15 C 0.81912(18) 0.1107(2) -0.11711(19)
C16 C 0.8242(2) -0.0616(2) -0.1180(2)
H1 H 0.89930 0.20690 -0.17010
H2 H 0.90550 -0.14880 -0.17770
H3 H 0.82330 0.26340 -0.11960
H4 H 0.83490 -0.21280 -0.12470
H5 H 0.65110 0.16720 0.04440
H6 H 0.54620 0.15860 0.14690
H7 H 0.52160 -0.14550 0.09890
H8 H 0.62640 -0.13620 -0.00250
H9 H 0.26830 0.08540 0.25860
H10 H 0.28650 0.16570 0.33070
H11 H 0.25890 0.05610 0.35620
H12 H 0.44690 0.18380 0.35080
H13 H 0.39260 0.14650 0.42720
H14 H 0.47080 0.08650 0.40290
H15 H 0.28060 -0.08510 0.27260
H16 H 0.28990 -0.13980 0.36190
H17 H 0.33330 -0.18330 0.28010
H18 H 0.48490 -0.08080 0.41290
H19 H 0.40630 -0.04630 0.46050
H20 H 0.41450 -0.15810 0.42720
#END
