
#######################################################################
#
#                 Cambridge Crystallographic Data Centre
#                                CCDC
#
#######################################################################
#
# If this CIF has been generated from an entry in the Cambridge
# Structural Database, then it will include bibliographic, chemical,
# crystal, experimental, refinement or atomic coordinate data resulting
# from the CCDC's data processing and validation procedures.
#
#######################################################################

data_CSD_CIF_BUSSIS
_audit_creation_date 2011-01-20
_audit_creation_method CSD-ConQuest-V1
_database_code_CSD BUSSIS
_database_code_depnum_ccdc_archive 'CCDC 771829'
_chemical_formula_sum 'C8 H13 N1 O4'
_chemical_formula_moiety
;
C8 H13 N1 O4
;
_journal_coden_Cambridge 1090
_journal_volume 21
_journal_year 2010
_journal_page_first 1011
_journal_name_full 'Tetrahedron:Asymm. '
loop_
_publ_author_name
"S.E.Milner"
"M.Brossat"
"T.S.Moody"
"C.J.Elcoate"
"S.E.Lawrence"
"A.R.Maguire"
_chemical_name_systematic
;
(1R,2R)-2-Nitrocyclohexyl acetate
;
_cell_volume    939.718
_exptl_crystal_colour 'colorless'
_exptl_crystal_density_diffrn 1.323
_exptl_special_details
;
Absolute configuration

;
_exptl_crystal_description 'hexagonal plate'
_diffrn_ambient_temperature 100
#These two values have been output from a single CSD field.
_refine_ls_R_factor_gt 0.0239
_refine_ls_wR_factor_gt 0.0239
_symmetry_cell_setting orthorhombic
_symmetry_space_group_name_H-M 'P 21 21 21'
_symmetry_Int_Tables_number 19
loop_
_symmetry_equiv_pos_site_id
_symmetry_equiv_pos_as_xyz
1 x,y,z
2 1/2+x,1/2-y,-z
3 -x,1/2+y,1/2-z
4 1/2-x,-y,1/2+z
_cell_length_a 6.4931(4)
_cell_length_b 9.8311(6)
_cell_length_c 14.7212(9)
_cell_angle_alpha 90
_cell_angle_beta 90
_cell_angle_gamma 90
_cell_formula_units_Z 4
loop_
_atom_type_symbol
_atom_type_radius_bond
C 0.68
H 0.23
N 0.68
O 0.68
loop_
_atom_site_label
_atom_site_type_symbol
_atom_site_fract_x
_atom_site_fract_y
_atom_site_fract_z
C1 C 0.1505(2) 0.37097(14) 0.24886(8)
H1 H 0.20990 0.46360 0.25900
C2 C 0.3187(2) 0.27332(14) 0.22116(8)
H2 H 0.25890 0.18000 0.21500
C3 C 0.4169(2) 0.31500(14) 0.13060(8)
H3 H 0.48590 0.40420 0.13740
H4 H 0.52190 0.24710 0.11270
C4 C 0.2512(2) 0.32425(14) 0.05722(9)
H5 H 0.31400 0.35700 0.00000
H6 H 0.19340 0.23260 0.04590
C5 C 0.0786(2) 0.42053(13) 0.08530(8)
H7 H -0.02980 0.42070 0.03800
H8 H 0.13360 0.51410 0.09050
C6 C -0.0152(2) 0.37733(13) 0.17633(9)
H9 H -0.12260 0.44340 0.19460
H10 H -0.08080 0.28690 0.16990
O1 O 0.06769(14) 0.31807(8) 0.33359(6)
C7 C -0.0178(2) 0.41014(13) 0.39000(8)
O2 O -0.02844(17) 0.52957(9) 0.37250(6)
C8 C -0.0893(2) 0.34640(14) 0.47644(9)
H11 H -0.22110 0.38680 0.49450
H12 H 0.01310 0.36230 0.52420
H13 H -0.10700 0.24830 0.46740
N1 N 0.48569(18) 0.27074(11) 0.29227(7)
O3 O 0.53138(17) 0.37621(10) 0.33104(7)
O4 O 0.57254(18) 0.16232(10) 0.30608(6)
#END
