
#######################################################################
#
#                 Cambridge Crystallographic Data Centre
#                                CCDC
#
#######################################################################
#
# If this CIF has been generated from an entry in the Cambridge
# Structural Database, then it will include bibliographic, chemical,
# crystal, experimental, refinement or atomic coordinate data resulting
# from the CCDC's data processing and validation procedures.
#
#######################################################################

data_CSD_CIF_BUTMOU
_audit_creation_date 2015-12-05
_audit_creation_method CSD-ConQuest-V1
_database_code_CSD BUTMOU
_database_code_depnum_ccdc_archive 'CCDC 1063108'
_chemical_formula_sum 'C16 H15 N1 O4'
_chemical_formula_moiety
;
C16 H15 N1 O4
;
_journal_coden_Cambridge 24
_journal_volume 57
_journal_year 2016
_journal_page_first 118
_journal_name_full 'Tetrahedron Lett. '
loop_
_publ_author_name
"R.Z.Lytvyn"
"A.O.Neshchadin"
"K.Ye Pitkovych"
"Y.I.Horak"
"J.V.Grazulevicius"
"Tadeusz Lis"
"V.Kinzhybalo"
"M.D.Obushak"
_chemical_name_systematic
;
4-methyl-6-(2-methylprop-1-en-1-yl)-3-(4-nitrophenyl)-2H-pyran-2-one
;
_cell_volume   1366.778
_exptl_crystal_colour 'colorless'
_exptl_crystal_density_diffrn 1.386
_exptl_crystal_description 'plate'
_diffrn_ambient_temperature 100
#These two values have been output from a single CSD field.
_refine_ls_R_factor_gt 0.0522
_refine_ls_wR_factor_gt 0.0522
_symmetry_cell_setting monoclinic
_symmetry_space_group_name_H-M 'P 21/c'
_symmetry_Int_Tables_number 14
loop_
_symmetry_equiv_pos_site_id
_symmetry_equiv_pos_as_xyz
1 x,y,z
2 -x,1/2+y,1/2-z
3 -x,-y,-z
4 x,-1/2-y,-1/2+z
_cell_length_a 13.904(4)
_cell_length_b 14.065(4)
_cell_length_c 7.109(3)
_cell_angle_alpha 90
_cell_angle_beta 100.54(3)
_cell_angle_gamma 90
_cell_formula_units_Z 4
loop_
_atom_type_symbol
_atom_type_radius_bond
C 0.68
H 0.23
N 0.68
O 0.68
loop_
_atom_site_label
_atom_site_type_symbol
_atom_site_fract_x
_atom_site_fract_y
_atom_site_fract_z
O1 O 0.4376(1) 0.60539(10) 0.1755(2)
C1 C 0.53470(14) 0.63413(16) 0.2228(3)
O2 O 0.55009(10) 0.71680(11) 0.1899(2)
C2 C 0.60602(14) 0.56306(15) 0.3026(3)
C3 C 0.70623(14) 0.59845(15) 0.3787(3)
C4 C 0.71914(15) 0.68168(15) 0.4892(3)
H1 H 0.66340 0.71600 0.51140
C5 C 0.81173(14) 0.71447(16) 0.5665(3)
H2 H 0.82000 0.77130 0.63990
C6 C 0.89199(15) 0.66298(16) 0.5347(3)
N1 N 0.99088(13) 0.69604(15) 0.6201(3)
O3 O 0.99907(11) 0.77686(12) 0.6869(3)
O4 O 1.05965(11) 0.64115(12) 0.6225(2)
C7 C 0.88245(15) 0.58190(16) 0.4250(3)
H3 H 0.93870 0.54840 0.40310
C8 C 0.78950(14) 0.54992(15) 0.3469(3)
H4 H 0.78220 0.49410 0.27050
C9 C 0.57787(15) 0.46977(15) 0.3061(3)
C10 C 0.64459(15) 0.38832(15) 0.3789(3)
H5 H 0.60720 0.33890 0.43100
H6 H 0.69730 0.41110 0.47970
H7 H 0.67270 0.36190 0.27350
C11 C 0.47764(14) 0.44523(15) 0.2415(3)
H8 H 0.45860 0.38030 0.23770
C12 C 0.40947(15) 0.51301(15) 0.1858(3)
C13 C 0.30523(15) 0.49445(16) 0.1421(3)
H9 H 0.28840 0.42890 0.13470
C14 C 0.22839(15) 0.55386(16) 0.1104(3)
C15 C 0.23050(16) 0.65988(16) 0.1040(4)
H10 H 0.29850 0.68190 0.13050
H11 H 0.19550 0.68560 0.20050
H12 H 0.19880 0.68170 -0.02320
C16 C 0.12608(15) 0.51289(17) 0.0799(3)
H13 H 0.12960 0.44340 0.07540
H14 H 0.08840 0.53660 -0.04110
H15 H 0.09400 0.53220 0.18560
#END
