
#######################################################################
#
#                 Cambridge Crystallographic Data Centre
#                                CCDC
#
#######################################################################
#
# If this CIF has been generated from an entry in the Cambridge
# Structural Database, then it will include bibliographic, chemical,
# crystal, experimental, refinement or atomic coordinate data resulting
# from the CCDC's data processing and validation procedures.
#
#######################################################################

data_CSD_CIF_BUVJOR
_audit_creation_date 1984-02-21
_audit_creation_method CSD-ConQuest-V1
_database_code_CSD BUVJOR
_database_code_depnum_ccdc_archive 'CCDC 1117455'
_chemical_formula_sum 'C10 H12 N2 O2'
_chemical_formula_moiety
;
C10 H12 N2 O2
;
_journal_coden_Cambridge 207
_journal_year 1983
_journal_page_first 293
_journal_name_full 'J.Chem.Soc.,Perkin Trans.1 '
loop_
_publ_author_name
"J.F.Barnes"
"M.J.Barrow"
"M.M.Harding"
"R.M.Paton"
"A.Sillitoe"
"P.L.Ashcroft"
"R.Bradbury"
"J.Crosby"
"C.J.Joyce"
"D.R.Holmes"
"J.Milner"
_chemical_name_systematic
;
4a,5,6,7a,8-Hexahydro-4,8-methano-4H-indeno(5,6-c)oxadiazole-1-oxide
;
_chemical_name_common
;
Tricyclodecane furoxan
;
_chemical_melting_point 336.15
_cell_volume    935.088
_exptl_crystal_colour 'white'
_exptl_crystal_density_diffrn 1.36
_exptl_special_details
;
Melting point range 336.15-337.15K

;
_diffrn_ambient_temperature 120
_refine_special_details
;
O2 is disordered over 2 positions, occupancies 0.85, 0.15. The former has 
been retained.
;
#These two values have been output from a single CSD field.
_refine_ls_R_factor_gt 0.11
_refine_ls_wR_factor_gt 0.11
_symmetry_cell_setting orthorhombic
_symmetry_space_group_name_H-M 'P 21 21 21'
_symmetry_Int_Tables_number 19
loop_
_symmetry_equiv_pos_site_id
_symmetry_equiv_pos_as_xyz
1 x,y,z
2 1/2+x,1/2-y,-z
3 -x,1/2+y,1/2-z
4 1/2-x,-y,1/2+z
_cell_length_a 7.04(2)
_cell_length_b 19.25(4)
_cell_length_c 6.90(2)
_cell_angle_alpha 90
_cell_angle_beta 90
_cell_angle_gamma 90
_cell_formula_units_Z 4
loop_
_atom_type_symbol
_atom_type_radius_bond
C 0.68
N 0.68
O 0.68
loop_
_atom_site_label
_atom_site_type_symbol
_atom_site_fract_x
_atom_site_fract_y
_atom_site_fract_z
O1 O 0.75170 0.55040 0.38410
O2 O 0.46060 0.59720 0.31200
N1 N 0.54450 0.55080 0.36260
N2 N 0.81880 0.49030 0.42720
C1 C 0.48720 0.48360 0.40270
C2 C 0.65090 0.45150 0.43720
C3 C 0.61070 0.37620 0.47660
C4 C 0.54780 0.34550 0.27080
C5 C 0.50220 0.26860 0.27150
C6 C 0.32150 0.26380 0.14870
C7 C 0.20850 0.32580 0.20690
C8 C 0.35120 0.38320 0.23010
C9 C 0.32640 0.43250 0.41620
C10 C 0.41680 0.38400 0.57820
#END
