
#######################################################################
#
#                 Cambridge Crystallographic Data Centre
#                                CCDC
#
#######################################################################
#
# If this CIF has been generated from an entry in the Cambridge
# Structural Database, then it will include bibliographic, chemical,
# crystal, experimental, refinement or atomic coordinate data resulting
# from the CCDC's data processing and validation procedures.
#
#######################################################################

data_CSD_CIF_BUVMAI
_audit_creation_date 2015-12-05
_audit_creation_method CSD-ConQuest-V1
_database_code_CSD BUVMAI
_database_code_depnum_ccdc_archive 'CCDC 1024972'
_chemical_formula_sum 'C26 H25 N3 O2'
_chemical_formula_moiety
;
C26 H25 N3 O2
;
_journal_coden_Cambridge 781
_journal_volume 12
_journal_year 2015
_journal_page_first 31
_journal_name_full 'Lett.Org.Chem. '
loop_
_publ_author_name
"K.G.Krishnan"
"R.Sivakumar"
"V.Thanikachalam"
_chemical_name_systematic
;
(((2,4-diphenyl-3-azabicyclo[3.3.1]non-9-ylidene)amino)oxy)(pyridin-3-yl)metha
none
;
_chemical_name_common
;
2,4-diphenyl-3-azabicyclo[3.3.1]nonan-9-one O-nicotinoyl oxime
;
_cell_volume   2150.770
_exptl_crystal_colour 'colorless'
_exptl_crystal_density_diffrn 1.271
_exptl_crystal_description 'block'
_diffrn_ambient_temperature 293
#These two values have been output from a single CSD field.
_refine_ls_R_factor_gt 0.0458
_refine_ls_wR_factor_gt 0.0458
_symmetry_cell_setting monoclinic
_symmetry_space_group_name_H-M 'P 21/n'
_symmetry_Int_Tables_number 14
loop_
_symmetry_equiv_pos_site_id
_symmetry_equiv_pos_as_xyz
1 x,y,z
2 1/2-x,1/2+y,1/2-z
3 -x,-y,-z
4 -1/2+x,-1/2-y,-1/2+z
_cell_length_a 10.5208(3)
_cell_length_b 19.6025(6)
_cell_length_c 11.3596(3)
_cell_angle_alpha 90
_cell_angle_beta 113.356(1)
_cell_angle_gamma 90
_cell_formula_units_Z 4
loop_
_atom_type_symbol
_atom_type_radius_bond
C 0.68
H 0.23
N 0.68
O 0.68
loop_
_atom_site_label
_atom_site_type_symbol
_atom_site_fract_x
_atom_site_fract_y
_atom_site_fract_z
C1 C 0.34302(14) 0.13209(7) 1.16390(13)
H1 H 0.38530 0.16720 1.13760
C2 C 0.36667(16) 0.12573(9) 1.29196(14)
H2 H 0.42510 0.15640 1.35120
C3 C 0.30469(16) 0.07455(9) 1.33261(14)
H3 H 0.32140 0.07050 1.41910
C4 C 0.21820(16) 0.02947(8) 1.24535(14)
H4 H 0.17540 -0.00510 1.27220
C5 C 0.19481(14) 0.03555(7) 1.11720(13)
H5 H 0.13620 0.00470 1.05840
C6 C 0.25717(12) 0.08680(6) 1.07454(11)
C7 C 0.22676(12) 0.09117(6) 0.93332(11)
H6 H 0.21830 0.04450 0.90030
C8 C 0.08869(12) 0.12831(7) 0.85694(12)
H7 H 0.01360 0.10360 0.86870
C9 C 0.06572(13) 0.12513(7) 0.71841(12)
C10 C 0.17818(13) 0.16043(7) 0.69173(12)
H8 H 0.16010 0.15520 0.60070
C11 C 0.31535(13) 0.12300(7) 0.77346(12)
H9 H 0.30440 0.07510 0.74630
C12 C 0.43996(13) 0.15055(7) 0.75449(12)
C13 C 0.49323(15) 0.11396(9) 0.68006(13)
H10 H 0.45260 0.07270 0.64410
C14 C 0.60571(18) 0.13773(12) 0.65834(16)
H11 H 0.64000 0.11270 0.60780
C15 C 0.66637(17) 0.19807(12) 0.71113(18)
H12 H 0.74080 0.21460 0.69510
C16 C 0.61755(17) 0.23453(10) 0.78815(19)
H13 H 0.66020 0.27520 0.82540
C17 C 0.50467(15) 0.21060(8) 0.81024(16)
H14 H 0.47250 0.23520 0.86290
C18 C 0.08294(14) 0.20360(7) 0.89266(14)
H15 H -0.01180 0.21950 0.85130
H16 H 0.10960 0.20680 0.98460
C19 C 0.17632(15) 0.25048(7) 0.85449(16)
H17 H 0.14970 0.29750 0.85890
H18 H 0.27120 0.24500 0.91570
C20 C 0.16940(15) 0.23643(8) 0.72079(15)
H19 H 0.24470 0.26040 0.71000
H20 H 0.08330 0.25470 0.65870
C21 C -0.16906(14) 0.06706(7) 0.43106(13)
C22 C -0.18904(13) 0.08014(7) 0.29655(12)
C23 C -0.08582(15) 0.10271(8) 0.26004(14)
H21 H 0.00390 0.10920 0.32050
C24 C -0.11880(17) 0.11541(8) 0.13193(15)
H22 H -0.05140 0.13040 0.10420
C25 C -0.25201(17) 0.10569(8) 0.04631(14)
H23 H -0.27290 0.11480 -0.03970
C26 C -0.32070(14) 0.07127(7) 0.20217(13)
H24 H -0.38990 0.05550 0.22680
N1 N 0.33804(11) 0.12431(6) 0.90905(10)
N2 N -0.04291(11) 0.09448(6) 0.64445(10)
N3 N -0.35393(13) 0.08392(7) 0.07850(11)
O1 O -0.05411(10) 0.09848(5) 0.51259(8)
O2 O -0.24678(13) 0.03489(7) 0.46197(10)
H25 H 0.4167(16) 0.1044(7) 0.9518(14)
#END
