
#######################################################################
#
#                 Cambridge Crystallographic Data Centre
#                                CCDC
#
#######################################################################
#
# If this CIF has been generated from an entry in the Cambridge
# Structural Database, then it will include bibliographic, chemical,
# crystal, experimental, refinement or atomic coordinate data resulting
# from the CCDC's data processing and validation procedures.
#
#######################################################################

data_CSD_CIF_BUVVET
_audit_creation_date 1984-02-21
_audit_creation_method CSD-ConQuest-V1
_database_code_CSD BUVVET
_database_code_depnum_ccdc_archive 'CCDC 1117505'
_chemical_formula_sum 'C20 H28 N4 O4'
_chemical_formula_moiety
;
C20 H28 N4 O4
;
_journal_coden_Cambridge 35
_journal_volume 48
_journal_year 1983
_journal_page_first 1670
_journal_name_full 'J.Org.Chem. '
loop_
_publ_author_name
"H.O.House"
"P.C.Gaa"
"J.H.C.Lee"
"D.VanDerveer"
_chemical_name_systematic
;
anti-6-t-Butyl-cis-4-oxoperhydroazulene-2,4-dinitrophenylhydrazone
;
_chemical_melting_point 420.15
_cell_volume   2089.265
_exptl_crystal_colour 'orange'
_exptl_crystal_density_diffrn 1.21
_exptl_special_details
;
Melting point range 420.15-421.15K
Authors report dx as 1.210, we calculate 1.24
;
_diffrn_ambient_temperature ?
_diffrn_special_details
;
The study was carried out at room temperature,in the range 283-303K

;
#These two values have been output from a single CSD field.
_refine_ls_R_factor_gt 0.0661
_refine_ls_wR_factor_gt 0.0661
_symmetry_cell_setting monoclinic
_symmetry_space_group_name_H-M 'P 21/n'
_symmetry_Int_Tables_number 14
loop_
_symmetry_equiv_pos_site_id
_symmetry_equiv_pos_as_xyz
1 x,y,z
2 1/2-x,1/2+y,1/2-z
3 -x,-y,-z
4 -1/2+x,-1/2-y,-1/2+z
_cell_length_a 6.923(4)
_cell_length_b 17.64(2)
_cell_length_c 17.112(2)
_cell_angle_alpha 90
_cell_angle_beta 91.23(7)
_cell_angle_gamma 90
_cell_formula_units_Z 4
loop_
_atom_type_symbol
_atom_type_radius_bond
C 0.68
H 0.23
N 0.68
O 0.68
loop_
_atom_site_label
_atom_site_type_symbol
_atom_site_fract_x
_atom_site_fract_y
_atom_site_fract_z
O1 O 0.59560 0.65220 -0.14280
O2 O 0.62800 0.70850 -0.03350
O3 O 0.80880 0.32280 -0.06750
O4 O 0.75310 0.39420 -0.16520
N1 N 0.63600 0.65120 -0.07480
N2 N 0.77310 0.38610 -0.09470
N3 N 0.84490 0.37970 0.07100
N4 N 0.90200 0.38140 0.14930
C1 C 0.80900 0.33320 0.37410
C2 C 0.98500 0.38110 0.38280
C3 C 1.04900 0.39060 0.29930
C4 C 0.93420 0.31530 0.17880
C5 C 0.90850 0.24260 0.13500
C6 C 0.92400 0.17010 0.18200
C7 C 0.74700 0.16100 0.23300
C8 C 0.69500 0.23290 0.27650
C9 C 0.86400 0.27160 0.31720
C10 C 1.00700 0.31230 0.26280
C11 C 0.96200 0.09950 0.12890
C12 C 0.81300 0.09350 0.06240
C13 C 1.17100 0.10550 0.09680
C14 C 0.95500 0.02680 0.17840
C15 C 0.79730 0.44570 0.03650
C16 C 0.75780 0.45260 -0.04460
C17 C 0.70560 0.52030 -0.08120
C18 C 0.69400 0.58210 -0.03540
C19 C 0.73330 0.58000 0.04450
C20 C 0.78600 0.51380 0.07890
H1 H 0.83890 0.32700 0.03900
H2 H 0.77000 0.30900 0.42950
H3 H 0.69000 0.36610 0.35070
H4 H 0.95200 0.43520 0.40900
H5 H 1.09500 0.35260 0.41760
H6 H 0.96500 0.43430 0.27000
H7 H 1.20000 0.40430 0.29720
H8 H 0.76680 0.24360 0.10730
H9 H 1.01730 0.24060 0.09070
H10 H 1.04900 0.17400 0.22060
H11 H 0.77700 0.11690 0.27540
H12 H 0.62600 0.14470 0.19610
H13 H 0.59000 0.21860 0.31900
H14 H 0.63100 0.27230 0.23500
H15 H 0.93000 0.22340 0.34590
H16 H 1.14100 0.28100 0.25880
H17 H 0.81700 0.14440 0.02740
H18 H 0.67100 0.08690 0.08610
H19 H 0.84600 0.04510 0.02640
H20 H 1.18300 0.15590 0.06150
H21 H 1.20200 0.05620 0.06170
H22 H 1.27400 0.10850 0.14520
H23 H 0.81300 0.02020 0.20190
H24 H 1.06000 0.03080 0.22580
H25 H 0.98800 -0.02150 0.14230
H26 H 0.67530 0.52310 -0.14330
H27 H 0.72160 0.63090 0.07910
H28 H 0.82020 0.51320 0.14080
#END
