
#######################################################################
#
#                 Cambridge Crystallographic Data Centre
#                                CCDC
#
#######################################################################
#
# If this CIF has been generated from an entry in the Cambridge
# Structural Database, then it will include bibliographic, chemical,
# crystal, experimental, refinement or atomic coordinate data resulting
# from the CCDC's data processing and validation procedures.
#
#######################################################################

data_CSD_CIF_BUVVAP
_audit_creation_date 1984-02-21
_audit_creation_method CSD-ConQuest-V1
_database_code_CSD BUVVAP
_database_code_depnum_ccdc_archive 'CCDC 1117504'
_chemical_formula_sum 'C17 H24 N4 O4'
_chemical_formula_moiety
;
C17 H24 N4 O4
;
_journal_coden_Cambridge 35
_journal_volume 48
_journal_year 1983
_journal_page_first 1670
_journal_name_full 'J.Org.Chem. '
loop_
_publ_author_name
"H.O.House"
"P.C.Gaa"
"J.H.C.Lee"
"D.VanDerveer"
_chemical_name_systematic
;
3-t-Butylcycloheptanone-(2,4-dinitrophenyl)-hydrazone
;
_chemical_melting_point 441.15
_cell_volume    879.944
_exptl_crystal_colour 'orange'
_exptl_crystal_density_diffrn 1.31
_exptl_special_details
;
Melting point range 441.15-442.15K
H62 deleted for suspected coordinate errors
;
_diffrn_ambient_temperature ?
_diffrn_special_details
;
The study was carried out at room temperature,in the range 283-303K

;
#These two values have been output from a single CSD field.
_refine_ls_R_factor_gt 0.063
_refine_ls_wR_factor_gt 0.063
_symmetry_cell_setting triclinic
_symmetry_space_group_name_H-M 'P -1'
_symmetry_Int_Tables_number 2
loop_
_symmetry_equiv_pos_site_id
_symmetry_equiv_pos_as_xyz
1 x,y,z
2 -x,-y,-z
_cell_length_a 6.163(1)
_cell_length_b 11.156(3)
_cell_length_c 15.030(4)
_cell_angle_alpha 103.92(2)
_cell_angle_beta 93.27(2)
_cell_angle_gamma 116.67(2)
_cell_formula_units_Z 2
loop_
_atom_type_symbol
_atom_type_radius_bond
C 0.68
H 0.23
N 0.68
O 0.68
loop_
_atom_site_label
_atom_site_type_symbol
_atom_site_fract_x
_atom_site_fract_y
_atom_site_fract_z
O1 O 0.27230 0.13570 0.31490
O2 O 0.35680 0.18810 0.18650
O3 O -0.21140 0.28680 0.49000
O4 O -0.33670 0.42620 0.45730
N1 N 0.26230 0.19370 0.25610
N2 N -0.22550 0.35680 0.44030
N3 N -0.22160 0.52020 0.31490
N4 N -0.21230 0.59760 0.25310
C1 C -0.25360 0.70170 0.28380
C2 C -0.23900 0.78390 0.21700
C3 C -0.48430 0.78310 0.18580
C4 C -0.51180 0.89690 0.25720
C5 C -0.53540 0.87780 0.35480
C6 C -0.31280 0.88240 0.40840
C7 C -0.30020 0.74540 0.38070
C8 C -0.50890 0.79310 0.08480
C9 C -0.75480 0.79140 0.05600
C10 C -0.29480 0.92590 0.07430
C11 C -0.51790 0.66380 0.01590
H1 H -0.29440 0.55430 0.37660
H2 H -0.09930 0.89150 0.25000
H3 H -0.18510 0.74010 0.15550
H4 H -0.63690 0.68330 0.18400
H5 H -0.35110 0.99660 0.26500
H6 H -0.67540 0.89880 0.22960
H7 H -0.69370 0.77710 0.34650
H8 H -0.56660 0.96040 0.39570
H9 H -0.32030 0.90810 0.48180
H10 H -0.47440 0.66270 0.38610
H11 H -0.15290 0.75610 0.42980
H12 H -0.75800 0.88080 0.10240
H13 H -0.90720 0.69570 0.06030
H14 H -0.77140 0.79640 -0.01470
H15 H -0.26750 1.01730 0.12250
H16 H -0.32260 0.93000 0.00380
H17 H -0.12310 0.92410 0.08950
H18 H -0.34880 0.66000 0.03300
H19 H -0.53760 0.67050 -0.05430
H20 H -0.67340 0.56970 0.02070
C12 C -0.11360 0.43790 0.29980
C13 C -0.10740 0.35810 0.35990
C14 C 0.01780 0.28010 0.34520
H21 H 0.02460 0.22280 0.39290
C15 C 0.13040 0.27630 0.27080
C16 C 0.12330 0.34800 0.20680
H22 H 0.21110 0.34160 0.14700
C17 C 0.00210 0.42680 0.22190
H23 H -0.00480 0.48190 0.17260
#END
