
#######################################################################
#
#                 Cambridge Crystallographic Data Centre
#                                CCDC
#
#######################################################################
#
# If this CIF has been generated from an entry in the Cambridge
# Structural Database, then it will include bibliographic, chemical,
# crystal, experimental, refinement or atomic coordinate data resulting
# from the CCDC's data processing and validation procedures.
#
#######################################################################

data_CSD_CIF_BUVWIA
_audit_creation_date 2015-12-05
_audit_creation_method CSD-ConQuest-V1
_database_code_CSD BUVWIA
_database_code_depnum_ccdc_archive 'CCDC 972658'
_chemical_formula_sum 'C20 H23 N1 O3'
_chemical_formula_moiety
;
C20 H23 N1 O3
;
_journal_coden_Cambridge 1268
_journal_volume 20
_journal_year 2015
_journal_page_first 487
_journal_name_full 'Molecules '
loop_
_publ_author_name
"T.S.Bailey"
"J.B.Bremner"
"B.W.Skelton"
"A.H.White"
_chemical_name_systematic
;
9,10-dimethoxy-3-methyl-6-phenyl-1,2,3,5-tetrahydro-4,3-benzoxazonine
;
_cell_volume   1731.832
_exptl_crystal_colour 'colorless'
_exptl_crystal_density_diffrn 1.248
_exptl_crystal_description 'rod'
_diffrn_ambient_temperature 100
#These two values have been output from a single CSD field.
_refine_ls_R_factor_gt 0.043
_refine_ls_wR_factor_gt 0.043
_symmetry_cell_setting monoclinic
_symmetry_space_group_name_H-M 'P 21/n'
_symmetry_Int_Tables_number 14
loop_
_symmetry_equiv_pos_site_id
_symmetry_equiv_pos_as_xyz
1 x,y,z
2 1/2-x,1/2+y,1/2-z
3 -x,-y,-z
4 -1/2+x,-1/2-y,-1/2+z
_cell_length_a 16.5518(6)
_cell_length_b 6.1433(2)
_cell_length_c 17.8034(6)
_cell_angle_alpha 90
_cell_angle_beta 106.931(4)
_cell_angle_gamma 90
_cell_formula_units_Z 4
loop_
_atom_type_symbol
_atom_type_radius_bond
C 0.68
H 0.23
N 0.68
O 0.68
loop_
_atom_site_label
_atom_site_type_symbol
_atom_site_fract_x
_atom_site_fract_y
_atom_site_fract_z
C1 C 0.22244(7) 0.78075(16) 0.53278(6)
H1 H 0.20710 0.92930 0.54540
H2 H 0.20420 0.76500 0.47490
C2 C 0.31818(7) 0.75493(17) 0.56276(6)
H3 H 0.34500 0.85480 0.53350
H4 H 0.33790 0.79560 0.61900
N1 N 0.34401(5) 0.53196(14) 0.55342(5)
C3 C 0.43568(7) 0.5090(2) 0.58062(7)
H5 H 0.45110 0.35880 0.57240
H6 H 0.45610 0.54430 0.63670
H7 H 0.46140 0.60840 0.55110
O1 O 0.32002(5) 0.48777(12) 0.46956(4)
C4 C 0.26470(6) 0.30071(16) 0.45314(6)
H8 H 0.26260 0.23480 0.50330
H9 H 0.28790 0.19070 0.42440
C5 C 0.17623(6) 0.36014(15) 0.40495(5)
C6 C 0.15548(6) 0.35166(16) 0.31780(5)
C7 C 0.18160(7) 0.17733(18) 0.27991(6)
H10 H 0.21400 0.06310 0.31020
C8 C 0.16076(7) 0.1693(2) 0.19848(6)
H11 H 0.17820 0.04890 0.17350
C9 C 0.11476(7) 0.3362(2) 0.15366(6)
H12 H 0.10140 0.33170 0.09800
C10 C 0.08836(8) 0.5094(2) 0.19016(7)
H13 H 0.05640 0.62380 0.15950
C11 C 0.10844(7) 0.51680(19) 0.27166(6)
H14 H 0.08980 0.63630 0.29610
C12 C 0.11703(6) 0.41827(16) 0.43910(5)
H15 H 0.06190 0.44420 0.40510
C13 C 0.12864(6) 0.44639(16) 0.52459(5)
C14 C 0.08588(6) 0.30220(16) 0.56154(6)
H16 H 0.05310 0.18760 0.53180
C15 C 0.09059(6) 0.32394(16) 0.64004(6)
O2 O 0.05299(5) 0.18934(12) 0.68115(4)
C16 C 0.00035(7) 0.02091(17) 0.63788(6)
H17 H -0.04550 0.08550 0.59590
H18 H -0.02360 -0.06300 0.67310
H19 H 0.03390 -0.07560 0.61490
C17 C 0.13639(6) 0.49943(15) 0.68321(5)
O3 O 0.13461(5) 0.51405(12) 0.75922(4)
C18 C 0.17219(7) 0.70288(17) 0.80213(6)
H20 H 0.23330 0.70010 0.81010
H21 H 0.16100 0.70440 0.85320
H22 H 0.14810 0.83380 0.77260
C19 C 0.17848(6) 0.64109(15) 0.64718(6)
H23 H 0.21010 0.75760 0.67670
C20 C 0.17549(6) 0.61661(16) 0.56770(6)
#END
