
#######################################################################
#
#                 Cambridge Crystallographic Data Centre
#                                CCDC
#
#######################################################################
#
# If this CIF has been generated from an entry in the Cambridge
# Structural Database, then it will include bibliographic, chemical,
# crystal, experimental, refinement or atomic coordinate data resulting
# from the CCDC's data processing and validation procedures.
#
#######################################################################

data_CSD_CIF_BUWQIT
_audit_creation_date 2001-12-19
_audit_creation_method CSD-ConQuest-V1
_database_code_CSD BUWQIT
_database_code_depnum_ccdc_archive 'CCDC 165008'
_chemical_formula_sum 'C26 H25 N3 O5'
_chemical_formula_moiety
;
C26 H25 N3 O5
;
_journal_coden_Cambridge 207
_journal_year 2001
_journal_page_first 2566
_journal_name_full 'J.Chem.Soc.,Perkin Trans.1 '
loop_
_publ_author_name
"M.R.Linder"
"W.U.Frey"
"J.Podlech"
_chemical_name_systematic
;
(3S,4R,1'S)-1-Benzyl-3-(1-(benzyloxycarbonylamino)ethyl)-4-(4-nitrophenyl)azet
idin-2-one
;
_chemical_melting_point 433
_cell_volume   2406.325
_exptl_crystal_colour 'colorless'
_exptl_crystal_density_diffrn 1.268
_exptl_special_details
;
Melting point range 433-434K

;
_exptl_crystal_description 'plates'
_diffrn_ambient_temperature 293
#These two values have been output from a single CSD field.
_refine_ls_R_factor_gt 0.0545
_refine_ls_wR_factor_gt 0.0545
_symmetry_cell_setting orthorhombic
_symmetry_space_group_name_H-M 'P 21 21 21'
_symmetry_Int_Tables_number 19
loop_
_symmetry_equiv_pos_site_id
_symmetry_equiv_pos_as_xyz
1 x,y,z
2 1/2-x,-y,1/2+z
3 -x,1/2+y,1/2-z
4 1/2+x,1/2-y,-z
_cell_length_a 9.312(2)
_cell_length_b 9.733(2)
_cell_length_c 26.550(6)
_cell_angle_alpha 90
_cell_angle_beta 90
_cell_angle_gamma 90
_cell_formula_units_Z 4
loop_
_atom_type_symbol
_atom_type_radius_bond
C 0.68
H 0.23
N 0.68
O 0.68
loop_
_atom_site_label
_atom_site_type_symbol
_atom_site_fract_x
_atom_site_fract_y
_atom_site_fract_z
O1 O -0.0965(3) -0.2361(3) 0.01417(12)
C1 C -0.0522(4) -0.1471(4) 0.0419(2)
N1 N -0.0957(4) -0.1067(3) 0.0883(2)
O2 O -0.0355(3) 0.3203(3) 0.03044(9)
N2 N 0.1495(3) 0.1835(3) 0.00550(11)
H1 H 0.2408(3) 0.1797(3) 0.00088(11)
C2 C 0.0628(4) -0.0356(3) 0.03995(14)
H2 H 0.1584(4) -0.0748(3) 0.04544(14)
O3 O 0.1943(3) 0.3970(2) 0.02921(10)
C3 C -0.0033(4) 0.0162(4) 0.09062(15)
H3 H -0.0597(4) 0.1000(4) 0.08534(15)
C4 C 0.0635(4) 0.0621(3) -0.00483(13)
H4 H -0.0354(4) 0.0913(3) -0.01144(13)
C5 C 0.1201(5) -0.0119(4) -0.05142(15)
H5 H 0.1203(5) 0.0502(4) -0.07951(15)
H6 H 0.0595(5) -0.0890(4) -0.05888(15)
H7 H 0.2162(5) -0.0434(4) -0.04520(15)
C6 C 0.0914(4) 0.3009(4) 0.02194(13)
C7 C 0.1445(5) 0.5301(4) 0.0470(2)
H8 H 0.0529(5) 0.5509(4) 0.0313(2)
H9 H 0.2125(5) 0.6002(4) 0.0368(2)
C8 C 0.1275(4) 0.5340(4) 0.1031(2)
C9 C 0.2442(5) 0.5438(5) 0.1359(2)
H10 H 0.3369(5) 0.5467(5) 0.1230(2)
C10 C 0.2233(8) 0.5493(6) 0.1875(2)
H11 H 0.3018(8) 0.5563(6) 0.2090(2)
C11 C 0.0904(9) 0.5447(7) 0.2064(2)
H12 H 0.0768(9) 0.5490(7) 0.2411(2)
C12 C -0.0239(7) 0.5338(8) 0.1756(2)
H13 H -0.1159(7) 0.5300(8) 0.1892(2)
C13 C -0.0059(5) 0.5280(6) 0.1240(2)
H14 H -0.0859(5) 0.5200(6) 0.1033(2)
C14 C -0.2171(5) -0.1441(5) 0.1204(2)
H15 H -0.1825(5) -0.1641(5) 0.1541(2)
H16 H -0.2623(5) -0.2264(5) 0.1073(2)
C15 C -0.3255(4) -0.0312(4) 0.12298(15)
C16 C -0.3102(6) 0.0719(6) 0.1567(2)
H17 H -0.2357(6) 0.0669(6) 0.1800(2)
C17 C -0.3996(11) 0.1826(9) 0.1580(4)
H18 H -0.3865(11) 0.2529(9) 0.1813(4)
C18 C -0.5047(14) 0.1869(13) 0.1252(6)
H19 H -0.5647(14) 0.2633(13) 0.1254(6)
C19 C -0.5309(10) 0.0875(14) 0.0914(3)
H20 H -0.6089(10) 0.0930(14) 0.0696(3)
C20 C -0.4362(5) -0.0255(9) 0.0901(2)
H21 H -0.4497(5) -0.0955(9) 0.0667(2)
C21 C 0.0909(5) 0.0296(4) 0.1363(2)
C22 C 0.1079(5) 0.1558(4) 0.1595(2)
H22 H 0.0568(5) 0.2311(4) 0.1475(2)
C23 C 0.1994(6) 0.1725(5) 0.2002(2)
H23 H 0.2103(6) 0.2578(5) 0.2154(2)
C24 C 0.2733(5) 0.0601(6) 0.2173(2)
C25 C 0.2592(6) -0.0656(6) 0.1961(2)
H24 H 0.3106(6) -0.1403(6) 0.2084(2)
C26 C 0.1663(6) -0.0810(5) 0.1554(2)
H25 H 0.1547(6) -0.1672(5) 0.1409(2)
N3 N 0.3732(6) 0.0772(7) 0.2607(2)
O4 O 0.4325(6) -0.0243(6) 0.2763(2)
O5 O 0.3897(6) 0.1921(7) 0.2773(2)
#END
