
#######################################################################
#
#                 Cambridge Crystallographic Data Centre
#                                CCDC
#
#######################################################################
#
# If this CIF has been generated from an entry in the Cambridge
# Structural Database, then it will include bibliographic, chemical,
# crystal, experimental, refinement or atomic coordinate data resulting
# from the CCDC's data processing and validation procedures.
#
#######################################################################

data_CSD_CIF_BUWROC
_audit_creation_date 2015-12-05
_audit_creation_method CSD-ConQuest-V1
_database_code_CSD BUWROC
_database_code_depnum_ccdc_archive 'CCDC 859771'
_chemical_formula_sum 'C20 H12 N2 O1'
_chemical_formula_moiety
;
C20 H12 N2 O1
;
_journal_coden_Cambridge 1268
_journal_volume 17
_journal_year 2012
_journal_page_first 463
_journal_name_full 'Molecules '
loop_
_publ_author_name
"T.Caronna"
"F.Castiglione"
"A.Famulari"
"F.Fontana"
"L.Malpezzi"
"A.Mele"
"D.Mendola"
"I.N.Sora"
_chemical_name_systematic
;
3\l^5^-benzo[f]naphtho[2,1-c]cinnolin-3-ol
;
_chemical_name_common
;
7,8-diaza[5]helicene-N-oxide
;
_cell_volume   1401.194
_exptl_crystal_colour 'orange'
_exptl_crystal_density_diffrn 1.405
_exptl_crystal_description 'block'
_diffrn_ambient_temperature 298
_refine_special_details
;
O1 and O1' disordered over two sites with occupancies 0.686:0.314.

;
#These two values have been output from a single CSD field.
_refine_ls_R_factor_gt 0.0393
_refine_ls_wR_factor_gt 0.0393
_symmetry_cell_setting monoclinic
_symmetry_space_group_name_H-M 'P 21/n'
_symmetry_Int_Tables_number 14
loop_
_symmetry_equiv_pos_site_id
_symmetry_equiv_pos_as_xyz
1 x,y,z
2 1/2-x,1/2+y,1/2-z
3 -x,-y,-z
4 -1/2+x,-1/2-y,-1/2+z
_cell_length_a 13.4065(13)
_cell_length_b 6.0042(6)
_cell_length_c 18.0370(17)
_cell_angle_alpha 90
_cell_angle_beta 105.186(2)
_cell_angle_gamma 90
_cell_formula_units_Z 4
loop_
_atom_type_symbol
_atom_type_radius_bond
C 0.68
H 0.23
N 0.68
O 0.68
loop_
_atom_site_label
_atom_site_type_symbol
_atom_site_fract_x
_atom_site_fract_y
_atom_site_fract_z
N1 N 0.10592(15) 0.1095(4) 0.38348(11)
N2 N 0.06672(15) 0.2993(4) 0.39772(10)
O1 O 0.0902(2) 0.3687(5) 0.46698(13)
C1 C 0.06335(13) 0.3043(3) 0.11421(10)
H1 H 0.03330 0.44100 0.11940
C2 C -0.09664(14) 0.4758(3) 0.20715(11)
C3 C -0.01309(14) 0.3639(3) 0.26232(10)
C4 C 0.05152(13) 0.1888(3) 0.24591(10)
C5 C 0.07613(13) 0.1460(3) 0.1736(1)
C6 C 0.12769(13) -0.0560(3) 0.16491(11)
C7 C 0.10095(14) 0.0561(3) 0.30872(11)
C8 C 0.00311(15) 0.4267(3) 0.33907(12)
C9 C -0.13731(16) 0.6752(3) 0.22923(13)
C10 C 0.09408(15) 0.2617(3) 0.04930(11)
H2 H 0.08550 0.37010 0.01130
C11 C 0.13821(16) 0.0578(4) 0.03912(12)
H3 H 0.15620 0.02760 -0.00630
C12 C 0.15469(15) -0.0968(3) 0.09620(13)
H4 H 0.18450 -0.23260 0.08940
C13 C 0.15963(15) -0.2034(3) 0.22864(13)
H5 H 0.18660 -0.34210 0.22160
C14 C 0.15143(15) -0.1454(3) 0.29867(13)
H6 H 0.17880 -0.23710 0.34060
C15 C -0.14616(14) 0.3855(3) 0.13502(11)
H7 H -0.12390 0.24910 0.12090
C16 C -0.04132(19) 0.6221(4) 0.36135(14)
H8 H -0.02690 0.66330 0.41280
C17 C -0.10478(18) 0.7465(4) 0.30669(16)
H9 H -0.12790 0.88290 0.32020
C18 C -0.21654(19) 0.7871(4) 0.17496(17)
H10 H -0.23990 0.92380 0.18790
C19 C -0.25930(19) 0.6998(4) 0.10455(17)
H11 H -0.31060 0.77740 0.06930
C20 C -0.22584(16) 0.4923(4) 0.08525(13)
H12 H -0.25810 0.42700 0.03830
O2? O 0.1359(5) -0.0207(13) 0.4342(3)
#END
