
#######################################################################
#
#                 Cambridge Crystallographic Data Centre
#                                CCDC
#
#######################################################################
#
# If this CIF has been generated from an entry in the Cambridge
# Structural Database, then it will include bibliographic, chemical,
# crystal, experimental, refinement or atomic coordinate data resulting
# from the CCDC's data processing and validation procedures.
#
#######################################################################

data_CSD_CIF_BUYKEL
_audit_creation_date 1984-02-21
_audit_creation_method CSD-ConQuest-V1
_database_code_CSD BUYKEL
_database_code_depnum_ccdc_archive 'CCDC 1117792'
_chemical_formula_sum 'C18 H21 N5 O4'
_chemical_formula_moiety
;
C18 H21 N5 O4
;
_journal_coden_Cambridge 4
_journal_volume 105
_journal_year 1983
_journal_page_first 2497
_journal_name_full 'J.Am.Chem.Soc. '
loop_
_publ_author_name
"M.F.Semmelhack"
"J.W.Herndon"
"J.P.Springer"
_chemical_name_systematic
;
1-(2-(1-Cyano-1-methylethyl)-cyclohex-3-enyl)-acetaldehyde-2,4-dinitrophenylhy
drazone
;
_chemical_melting_point 426.15
_cell_volume   1884.940
_exptl_special_details
;
Melting point range 426.15-427.15K

;
_diffrn_ambient_temperature ?
_diffrn_special_details
;
The study was carried out at room temperature,in the range 283-303K

;
#These two values have been output from a single CSD field.
_refine_ls_R_factor_gt 0.048
_refine_ls_wR_factor_gt 0.048
_symmetry_cell_setting monoclinic
_symmetry_space_group_name_H-M 'P 21/c'
_symmetry_Int_Tables_number 14
loop_
_symmetry_equiv_pos_site_id
_symmetry_equiv_pos_as_xyz
1 x,y,z
2 -x,1/2+y,1/2-z
3 -x,-y,-z
4 x,-1/2-y,-1/2+z
_cell_length_a 8.277(3)
_cell_length_b 19.566(4)
_cell_length_c 12.362(2)
_cell_angle_alpha 90
_cell_angle_beta 109.69(2)
_cell_angle_gamma 90
_cell_formula_units_Z 4
loop_
_atom_type_symbol
_atom_type_radius_bond
C 0.68
H 0.23
N 0.68
O 0.68
loop_
_atom_site_label
_atom_site_type_symbol
_atom_site_fract_x
_atom_site_fract_y
_atom_site_fract_z
C1 C 0.95580 0.35850 0.06920
C2 C 1.07480 0.31970 0.16890
C3 C 0.98270 0.26330 0.20550
C4 C 0.83160 0.24150 0.14580
C5 C 0.73240 0.26640 0.03130
C6 C 0.83550 0.30960 -0.02230
C7 C 1.24590 0.29350 0.15260
C8 C 1.33150 0.35080 0.10230
C9 C 1.36920 0.26870 0.26580
C10 C 1.21120 0.23620 0.07180
N1 N 1.18840 0.19230 0.00730
C11 C 0.85070 0.41220 0.10440
C12 C 0.75600 0.46270 0.01680
N2 N 0.85530 0.41210 0.20860
N3 N 0.76220 0.46270 0.23990
C13 C 0.76960 0.46820 0.35030
C14 C 0.68560 0.52020 0.39160
N4 N 0.58300 0.57210 0.31440
O1 O 0.59140 0.57800 0.21720
O2 O 0.48970 0.60880 0.34900
C15 C 0.69980 0.52390 0.50630
C16 C 0.79490 0.47670 0.58050
N5 N 0.81250 0.48170 0.70150
O3 O 0.72390 0.52410 0.72950
O4 O 0.91340 0.44280 0.76970
C17 C 0.87770 0.42460 0.54430
C18 C 0.86410 0.41970 0.43240
H1 H 1.02700 0.38100 0.02500
H2 H 1.12000 0.35400 0.23100
H3 H 1.04400 0.24500 0.27700
H4 H 0.78500 0.20200 0.18200
H5 H 0.68400 0.22500 -0.01100
H6 H 0.63700 0.29300 0.02800
H7 H 0.91800 0.28600 -0.05600
H8 H 0.76300 0.33300 -0.08700
H9 H 1.43800 0.33400 0.10600
H10 H 1.24400 0.35800 0.02300
H11 H 1.35400 0.38600 0.16200
H12 H 1.47500 0.25900 0.25500
H13 H 1.38700 0.30800 0.30300
H14 H 1.28400 0.22400 0.28700
H15 H 0.78400 0.46500 -0.04700
H16 H 0.77900 0.51000 0.04800
H17 H 0.64000 0.45900 -0.00200
H18 H 0.71200 0.49200 0.19500
H19 H 0.64100 0.55900 0.52200
H20 H 0.94600 0.39400 0.60100
H21 H 0.91900 0.38500 0.40600
#END
