
#######################################################################
#
#                 Cambridge Crystallographic Data Centre
#                                CCDC
#
#######################################################################
#
# If this CIF has been generated from an entry in the Cambridge
# Structural Database, then it will include bibliographic, chemical,
# crystal, experimental, refinement or atomic coordinate data resulting
# from the CCDC's data processing and validation procedures.
#
#######################################################################

data_CSD_CIF_BVXIPO
_audit_creation_date 1979-01-19
_audit_creation_method CSD-ConQuest-V1
_database_code_CSD BVXIPO
_database_code_depnum_ccdc_archive 'CCDC 1117965'
_chemical_formula_sum 'C23 H24 N4 O5'
_chemical_formula_moiety
;
C23 H24 N4 O5
;
_journal_coeditor_code "IUCr A16406"
_journal_coden_Cambridge 107
_journal_volume 34
_journal_year 1978
_journal_page_first 2870
_journal_name_full 'Acta Crystallogr.,Sect.B:Struct.Crystallogr.Cryst.Chem. '
loop_
_publ_author_name
"V.Bertolasi"
"G.Gilli"
"M.Sacerdoti"
"M.Guarneri"
_chemical_name_systematic
;
4-((N-Benzyloxycarbonylvalyl)oxyimino)-3-methyl-1-phenyl-2-pyrazolin-5-one
;
_cell_volume   2267.238
_exptl_crystal_density_diffrn 1.26
_diffrn_ambient_temperature ?
_diffrn_special_details
;
The study was carried out at room temperature,in the range 283-303K

;
#These two values have been output from a single CSD field.
_refine_ls_R_factor_gt 0.048
_refine_ls_wR_factor_gt 0.048
_symmetry_cell_setting orthorhombic
_symmetry_space_group_name_H-M 'P 21 21 21'
_symmetry_Int_Tables_number 19
loop_
_symmetry_equiv_pos_site_id
_symmetry_equiv_pos_as_xyz
1 x,y,z
2 1/2+x,1/2-y,-z
3 -x,1/2+y,1/2-z
4 1/2-x,-y,1/2+z
_cell_length_a 12.164(3)
_cell_length_b 25.130(8)
_cell_length_c 7.417(2)
_cell_angle_alpha 90
_cell_angle_beta 90
_cell_angle_gamma 90
_cell_formula_units_Z 4
loop_
_atom_type_symbol
_atom_type_radius_bond
C 0.68
N 0.68
O 0.68
loop_
_atom_site_label
_atom_site_type_symbol
_atom_site_fract_x
_atom_site_fract_y
_atom_site_fract_z
C1 C 0.36150 0.42250 0.78970
C2 C 0.44920 0.45160 0.85290
C3 C 0.45810 0.50480 0.80620
C4 C 0.37980 0.52750 0.69670
C5 C 0.29230 0.49840 0.63450
C6 C 0.28270 0.44550 0.68190
C7 C 0.25270 0.29460 0.85850
C8 C 0.15540 0.25880 0.85830
C9 C 0.36930 0.27960 0.87890
C10 C 0.43230 0.33030 0.85310
C11 C 0.39500 0.14530 0.90700
C12 C 0.32240 0.10110 0.97540
C13 C 0.33670 0.09260 1.18070
C14 C 0.27940 0.04170 1.23960
C15 C 0.45680 0.09230 1.23740
C16 C 0.17220 0.11450 0.76780
C17 C 0.01370 0.13290 0.58500
C18 C -0.07980 0.17040 0.60630
C19 C -0.06970 0.22260 0.55740
C20 C -0.15480 0.25860 0.57960
C21 C -0.25290 0.24070 0.64860
C22 C -0.26560 0.18920 0.69480
C23 C -0.17820 0.15310 0.67450
O1 O 0.53130 0.33710 0.84520
O2 O 0.34700 0.19360 0.93100
O3 O 0.48340 0.14010 0.84040
O4 O 0.23010 0.10860 0.63460
O5 O 0.06470 0.12690 0.76090
N1 N 0.35130 0.36740 0.83490
N2 N 0.24540 0.34490 0.83200
N3 N 0.42130 0.23620 0.90300
N4 N 0.20750 0.11040 0.93620
#END
