
#######################################################################
#
#                 Cambridge Crystallographic Data Centre
#                                CCDC
#
#######################################################################
#
# If this CIF has been generated from an entry in the Cambridge
# Structural Database, then it will include bibliographic, chemical,
# crystal, experimental, refinement or atomic coordinate data resulting
# from the CCDC's data processing and validation procedures.
#
#######################################################################

data_CSD_CIF_BYPOXO
_audit_creation_date 1977-07-22
_audit_creation_method CSD-ConQuest-V1
_database_code_CSD BYPOXO
_chemical_formula_sum 'C16 H9 N3 O6'
_chemical_formula_moiety
;
C16 H9 N3 O6
;
_journal_coeditor_code "IUCr A14454"
_journal_coden_Cambridge 107
_journal_volume 33
_journal_year 1977
_journal_page_first 594
_journal_name_full 'Acta Crystallogr.,Sect.B:Struct.Crystallogr.Cryst.Chem. '
loop_
_publ_author_name
"A.W.Hanson"
_chemical_name_systematic
;
4-(2,4-Dinitro)benzylidene-2-phenyloxazolin-5-one
;
_cell_volume   1468.201
_exptl_crystal_density_diffrn 1.534
_diffrn_ambient_temperature ?
_diffrn_special_details
;
The study was carried out at room temperature,in the range 283-303K

;
#These two values have been output from a single CSD field.
_refine_ls_R_factor_gt 0.058
_refine_ls_wR_factor_gt 0.058
_symmetry_cell_setting monoclinic
_symmetry_space_group_name_H-M 'P 21/n'
_symmetry_Int_Tables_number 14
loop_
_symmetry_equiv_pos_site_id
_symmetry_equiv_pos_as_xyz
1 x,y,z
2 1/2-x,1/2+y,1/2-z
3 -x,-y,-z
4 -1/2+x,-1/2-y,-1/2+z
_cell_length_a 14.309(7)
_cell_length_b 14.453(7)
_cell_length_c 7.107(4)
_cell_angle_alpha 90
_cell_angle_beta 92.66(5)
_cell_angle_gamma 90
_cell_formula_units_Z 4
loop_
_atom_type_symbol
_atom_type_radius_bond
C 0.68
H 0.23
N 0.68
O 0.68
loop_
_atom_site_label
_atom_site_type_symbol
_atom_site_fract_x
_atom_site_fract_y
_atom_site_fract_z
O1 O 0.42460 0.11310 0.16970
C1 C 0.50150 0.06590 0.24290
N1 N 0.49420 -0.02300 0.24570
C2 C 0.40480 -0.04240 0.17050
C3 C 0.35900 0.04610 0.12000
O2 O 0.28390 0.06450 0.05280
C4 C 0.36000 -0.12320 0.14080
C5 C 0.39370 -0.21700 0.17800
C6 C 0.33830 -0.29600 0.14080
C7 C 0.37240 -0.38450 0.16240
C8 C 0.46310 -0.39540 0.23000
C9 C 0.52050 -0.32080 0.27590
C10 C 0.48560 -0.23300 0.24570
N2 N 0.23860 -0.28990 0.07690
O3 O 0.19220 -0.22440 0.12770
O4 O 0.20650 -0.35240 -0.01960
N3 N 0.50040 -0.48950 0.25350
O5 O 0.45310 -0.55370 0.19160
O6 O 0.57670 -0.49910 0.33150
C11 C 0.58210 0.12110 0.30300
C12 C 0.57840 0.21820 0.30170
C13 C 0.65730 0.26810 0.35390
C14 C 0.73900 0.22320 0.40790
C15 C 0.74310 0.12780 0.40990
C16 C 0.66500 0.07640 0.35850
H1 H 0.30000 -0.11500 0.09200
H2 H 0.33700 -0.43200 0.13900
H3 H 0.58600 -0.32400 0.32500
H4 H 0.52200 -0.19000 0.27800
H5 H 0.52100 0.24600 0.26100
H6 H 0.65600 0.33400 0.35200
H7 H 0.79000 0.25700 0.44700
H8 H 0.80200 0.09900 0.43700
H9 H 0.66600 0.01000 0.36400
#END
