
#######################################################################
#
#                 Cambridge Crystallographic Data Centre
#                                CCDC
#
#######################################################################
#
# If this CIF has been generated from an entry in the Cambridge
# Structural Database, then it will include bibliographic, chemical,
# crystal, experimental, refinement or atomic coordinate data resulting
# from the CCDC's data processing and validation procedures.
#
#######################################################################

data_CSD_CIF_CABJAS
_audit_creation_date 2011-01-12
_audit_creation_method CSD-ConQuest-V1
_database_code_CSD CABJAS
_database_code_depnum_ccdc_archive 'CCDC 789305'
_database_code_depnum_ccdc_journal 1267/2941
_chemical_formula_sum 'C9 H8 N2 O2'
_chemical_formula_moiety
;
C9 H8 N2 O2
;
_journal_coden_Cambridge 1267
_journal_volume 225
_journal_year 2010
_journal_page_first 307
_journal_name_full 'Z.Kristallogr.-New Cryst.Struct. '
loop_
_publ_author_name
"Ying Tang"
"Bin Liu"
"Gang Chen"
"Jingfang Xu"
"Dan Xue"
_chemical_name_systematic
;
(E)-3-(N-oxidemethylimino)indolin-2-one
;
_cell_volume    408.673
_exptl_crystal_colour 'orange'
_exptl_crystal_density_diffrn 1.436
_exptl_crystal_description 'block'
_diffrn_ambient_temperature 296
#These two values have been output from a single CSD field.
_refine_ls_R_factor_gt 0.0862
_refine_ls_wR_factor_gt 0.0862
_symmetry_cell_setting triclinic
_symmetry_space_group_name_H-M 'P -1'
_symmetry_Int_Tables_number 2
loop_
_symmetry_equiv_pos_site_id
_symmetry_equiv_pos_as_xyz
1 x,y,z
2 -x,-y,-z
_cell_length_a 6.951(6)
_cell_length_b 8.029(7)
_cell_length_c 8.658(6)
_cell_angle_alpha 103.00(2)
_cell_angle_beta 98.46(2)
_cell_angle_gamma 115.404(12)
_cell_formula_units_Z 2
loop_
_atom_type_symbol
_atom_type_radius_bond
C 0.68
H 0.23
N 0.68
O 0.68
loop_
_atom_site_label
_atom_site_type_symbol
_atom_site_fract_x
_atom_site_fract_y
_atom_site_fract_z
O1 O 0.5293(4) 0.9571(3) 0.7060(3)
O2 O 0.2534(4) 0.4094(3) 0.8098(3)
N1 N 0.3609(4) 0.7373(4) 0.4414(3)
H1 H 0.39390 0.81930 0.38800
N2 N 0.3469(4) 0.5782(4) 0.7916(3)
C1 C 0.3293(5) 0.5984(4) 0.6444(4)
C2 C 0.2151(5) 0.4427(4) 0.4873(4)
C3 C 0.2381(5) 0.5349(4) 0.3659(4)
C4 C 0.4224(5) 0.7894(4) 0.6097(4)
C5 C 0.0995(5) 0.2409(5) 0.4423(4)
H2 H 0.08210 0.17900 0.52200
C6 C 0.4723(6) 0.7446(5) 0.9466(4)
H3 H 0.46280 0.69720 1.03920
H4 H 0.41060 0.83160 0.95380
H5 H 0.62480 0.81270 0.94740
C7 C 0.1483(5) 0.4288(5) 0.1986(4)
H6 H 0.16280 0.49000 0.11850
C8 C 0.0100(6) 0.1333(5) 0.2747(5)
H7 H -0.06740 -0.00200 0.24220
C9 C 0.0352(6) 0.2258(5) 0.1566(4)
H8 H -0.02480 0.15070 0.04570
#END
