
#######################################################################
#
#                 Cambridge Crystallographic Data Centre
#                                CCDC
#
#######################################################################
#
# If this CIF has been generated from an entry in the Cambridge
# Structural Database, then it will include bibliographic, chemical,
# crystal, experimental, refinement or atomic coordinate data resulting
# from the CCDC's data processing and validation procedures.
#
#######################################################################

data_CSD_CIF_CABQED
_audit_creation_date 2011-01-20
_audit_creation_method CSD-ConQuest-V1
_database_code_CSD CABQED
_database_code_depnum_ccdc_archive 'CCDC 701229'
_chemical_formula_sum 'C20 H17 N5 O8'
_chemical_formula_moiety
;
C20 H17 N5 O8
;
_journal_coden_Cambridge 1090
_journal_volume 21
_journal_year 2010
_journal_page_first 51
_journal_name_full 'Tetrahedron:Asymm. '
loop_
_publ_author_name
"A.R.Katritzky"
"D.Fedoseyenko"
"M.S.Kim"
"P.J.Steel"
_chemical_name_systematic
;
4-Nitobenzoic acid 1-(5-(1-(4-nitrobenzoyloxy)ethyl)-2H-1,2,4-triazol-3-yl) 
ethyl ester
;
_chemical_melting_point 446.15
_cell_volume   1042.072
_exptl_crystal_colour 'colorless'
_exptl_crystal_density_diffrn 1.451
_exptl_special_details
;
Melting point range 446.15-451.15K

;
_exptl_crystal_description 'block'
_diffrn_ambient_temperature 118
#These two values have been output from a single CSD field.
_refine_ls_R_factor_gt 0.0462
_refine_ls_wR_factor_gt 0.0462
_symmetry_cell_setting monoclinic
_symmetry_space_group_name_H-M 'P 21'
_symmetry_Int_Tables_number 4
loop_
_symmetry_equiv_pos_site_id
_symmetry_equiv_pos_as_xyz
1 x,y,z
2 -x,1/2+y,-z
_cell_length_a 5.0789(5)
_cell_length_b 22.316(3)
_cell_length_c 9.2116(10)
_cell_angle_alpha 90
_cell_angle_beta 93.527(5)
_cell_angle_gamma 90
_cell_formula_units_Z 2
loop_
_atom_type_symbol
_atom_type_radius_bond
C 0.68
H 0.23
N 0.68
O 0.68
loop_
_atom_site_label
_atom_site_type_symbol
_atom_site_fract_x
_atom_site_fract_y
_atom_site_fract_z
N1 N 0.5605(5) 0.17243(14) 0.6645(3)
H1 H 0.401(8) 0.172(2) 0.643(4)
N2 N 0.6420(5) 0.20537(13) 0.7827(3)
N3 N 0.9884(4) 0.16672(12) 0.6741(3)
C1 C 0.7657(5) 0.14957(15) 0.6018(3)
C2 C 0.7435(6) 0.11257(17) 0.4664(4)
H2 H 0.92270 0.09940 0.44020
C3 C 0.6036(8) 0.1445(2) 0.3386(4)
H3 H 0.59510 0.11810 0.25350
H4 H 0.70070 0.18100 0.31670
H5 H 0.42430 0.15510 0.36300
C4 C 0.8998(5) 0.20094(14) 0.7849(3)
C5 C 1.0749(6) 0.22876(14) 0.9034(3)
H6 H 1.24550 0.24120 0.86380
C6 C 1.1282(7) 0.18721(18) 1.0312(4)
H7 H 1.24260 0.20740 1.10560
H8 H 1.21550 0.15090 0.99880
H9 H 0.96110 0.17640 1.07230
O1 O 0.5876(4) 0.06050(11) 0.5054(2)
C7 C 0.6288(7) 0.00970(17) 0.4329(4)
O2 O 0.7850(5) 0.00583(14) 0.3387(3)
C8 C 0.4634(7) -0.04028(18) 0.4831(4)
C9 C 0.2732(7) -0.03127(17) 0.5818(4)
H10 H 0.24590 0.00770 0.61930
C10 C 0.1223(8) -0.07869(19) 0.6263(4)
H11 H -0.01070 -0.07270 0.69300
C11 C 0.1701(8) -0.13507(18) 0.5712(5)
C12 C 0.3565(8) -0.14563(19) 0.4743(5)
H12 H 0.38300 -0.18490 0.43820
C13 C 0.5066(9) -0.09821(19) 0.4295(5)
H13 H 0.63880 -0.10470 0.36260
N4 N 0.0056(9) -0.18522(16) 0.6203(5)
O3 O -0.1583(8) -0.17556(16) 0.7114(4)
O4 O 0.0400(9) -0.23464(15) 0.5662(5)
O5 O 0.9413(4) 0.28091(10) 0.9576(2)
C14 C 0.9567(6) 0.33085(16) 0.8789(4)
O6 O 1.0866(5) 0.33505(12) 0.7739(3)
C15 C 0.7962(6) 0.38045(16) 0.9351(3)
C16 C 0.6046(6) 0.36980(17) 1.0321(4)
H14 H 0.57590 0.33020 1.06560
C17 C 0.4542(7) 0.41667(18) 1.0805(5)
H15 H 0.32090 0.40970 1.14640
C18 C 0.5028(7) 0.47392(17) 1.0304(4)
C19 C 0.6914(8) 0.48596(18) 0.9343(4)
H16 H 0.72060 0.52570 0.90190
C20 C 0.8392(7) 0.43823(17) 0.8856(4)
H17 H 0.97010 0.44520 0.81820
N5 N 0.3446(7) 0.52427(17) 1.0821(4)
O7 O 0.1858(7) 0.51351(15) 1.1749(4)
O8 O 0.3774(7) 0.57400(15) 1.0289(5)
#END
