
#######################################################################
#
#                 Cambridge Crystallographic Data Centre
#                                CCDC
#
#######################################################################
#
# If this CIF has been generated from an entry in the Cambridge
# Structural Database, then it will include bibliographic, chemical,
# crystal, experimental, refinement or atomic coordinate data resulting
# from the CCDC's data processing and validation procedures.
#
#######################################################################

data_CSD_CIF_CABZIR
_audit_creation_date 2015-11-26
_audit_creation_method CSD-ConQuest-V1
_database_code_CSD CABZIR
_database_code_depnum_ccdc_archive 'CCDC 1031462'
_chemical_formula_sum 'C10 H7 N1 O5'
_chemical_formula_moiety
;
C10 H7 N1 O5
;
_journal_coden_Cambridge 16
_journal_volume 72
_journal_year 2016
_journal_page_first 257
_journal_name_full 'Tetrahedron '
loop_
_publ_author_name
"Y.Saini"
"R.Khajuria"
"L.K.Rana"
"G.Hundal"
"V.K.Gupta"
"R.Kant"
"K.K.Kapoor"
_chemical_name_systematic
;
2-hydroxy-2-(nitromethyl)-1H-indene-1,3(2H)-dione
;
_cell_volume    952.865
_exptl_crystal_colour 'colorless'
_exptl_crystal_density_diffrn 1.542
_exptl_crystal_description 'Prism'
_diffrn_ambient_temperature 296
#These two values have been output from a single CSD field.
_refine_ls_R_factor_gt 0.0406
_refine_ls_wR_factor_gt 0.0406
_symmetry_cell_setting monoclinic
_symmetry_space_group_name_H-M 'P 21/c'
_symmetry_Int_Tables_number 14
loop_
_symmetry_equiv_pos_site_id
_symmetry_equiv_pos_as_xyz
1 x,y,z
2 -x,1/2+y,1/2-z
3 -x,-y,-z
4 x,-1/2-y,-1/2+z
_cell_length_a 9.5664(11)
_cell_length_b 6.2063(6)
_cell_length_c 16.561(2)
_cell_angle_alpha 90
_cell_angle_beta 104.283(6)
_cell_angle_gamma 90
_cell_formula_units_Z 4
loop_
_atom_type_symbol
_atom_type_radius_bond
C 0.68
H 0.23
N 0.68
O 0.68
loop_
_atom_site_label
_atom_site_type_symbol
_atom_site_fract_x
_atom_site_fract_y
_atom_site_fract_z
C1 C 0.23317(15) 0.7632(2) 0.19025(8)
C2 C 0.15404(16) 0.6007(3) 0.21586(9)
H1 H 0.12240 0.48160 0.18230
C3 C 0.12378(17) 0.6218(3) 0.29292(10)
H2 H 0.07060 0.51520 0.31130
C4 C 0.17141(17) 0.7992(3) 0.34353(9)
H3 H 0.15110 0.80800 0.39550
C5 C 0.24838(17) 0.9625(3) 0.31778(8)
H4 H 0.27920 1.08190 0.35140
C6 C 0.27844(14) 0.9431(2) 0.24015(8)
C7 C 0.35549(14) 1.0936(2) 0.19794(8)
C8 C 0.36969(14) 0.9887(2) 0.11600(8)
C9 C 0.28239(16) 0.7781(2) 0.11264(8)
C10 C 0.32255(16) 1.1312(2) 0.03963(8)
H5 H 0.37650 1.26500 0.04930
H6 H 0.34590 1.05990 -0.00750
N1 N 0.16648(13) 1.1813(2) 0.01844(7)
O1 O 0.26457(15) 0.64946(19) 0.05661(7)
O2 O 0.40569(12) 1.26815(18) 0.22225(6)
O3 O 0.51615(11) 0.9450(2) 0.11932(7)
H7 H 0.552(2) 0.891(3) 0.1657(10)
O4 O 0.10112(12) 1.1593(2) 0.07274(7)
O5 O 0.11280(14) 1.2447(2) -0.05162(7)
#END
