
#######################################################################
#
#                 Cambridge Crystallographic Data Centre
#                                CCDC
#
#######################################################################
#
# If this CIF has been generated from an entry in the Cambridge
# Structural Database, then it will include bibliographic, chemical,
# crystal, experimental, refinement or atomic coordinate data resulting
# from the CCDC's data processing and validation procedures.
#
#######################################################################

data_CSD_CIF_CABZUA
_audit_creation_date 1984-04-14
_audit_creation_method CSD-ConQuest-V1
_database_code_CSD CABZUA
_database_code_depnum_ccdc_archive 'CCDC 1118696'
_chemical_formula_sum 'C10 H17 N1 O1'
_chemical_formula_moiety
;
C10 H17 N1 O1
;
_journal_coden_Cambridge 35
_journal_volume 48
_journal_year 1983
_journal_page_first 1661
_journal_name_full 'J.Org.Chem. '
loop_
_publ_author_name
"H.O.House"
"P.C.Gaa"
"D.VanDerveer"
_chemical_name_systematic
;
cis-Perhydroazulen-4-one oxime
;
_chemical_melting_point 391.15
_cell_volume    944.376
_exptl_crystal_density_diffrn 1.17
_exptl_special_details
;
Melting point range 391.15-392.15K

;
_diffrn_ambient_temperature ?
_diffrn_special_details
;
The study was carried out at room temperature,in the range 283-303K

;
#These two values have been output from a single CSD field.
_refine_ls_R_factor_gt 0.0539
_refine_ls_wR_factor_gt 0.0539
_symmetry_cell_setting monoclinic
_symmetry_space_group_name_H-M 'P 21/c'
_symmetry_Int_Tables_number 14
loop_
_symmetry_equiv_pos_site_id
_symmetry_equiv_pos_as_xyz
1 x,y,z
2 -x,1/2+y,1/2-z
3 -x,-y,-z
4 x,-1/2-y,-1/2+z
_cell_length_a 5.218(1)
_cell_length_b 15.363(5)
_cell_length_c 12.298(4)
_cell_angle_alpha 90
_cell_angle_beta 106.68(2)
_cell_angle_gamma 90
_cell_formula_units_Z 4
loop_
_atom_type_symbol
_atom_type_radius_bond
C 0.68
H 0.23
N 0.68
O 0.68
loop_
_atom_site_label
_atom_site_type_symbol
_atom_site_fract_x
_atom_site_fract_y
_atom_site_fract_z
O1 O 0.55880 0.10220 0.52640
N1 N 0.65670 0.05860 0.44450
C1 C 0.83040 -0.02270 0.27760
C2 C 0.91160 -0.03100 0.16970
C3 C 0.82320 0.05520 0.11050
C4 C 0.57960 0.17700 0.17800
C5 C 0.60040 0.26400 0.23930
C6 C 0.62210 0.25990 0.36500
C7 C 0.85180 0.20300 0.43320
C8 C 0.79890 0.10880 0.40210
C9 C 0.90930 0.07080 0.31360
C10 C 0.83660 0.12420 0.20160
H1 H 0.45100 0.05800 0.56700
H2 H 0.61790 -0.03250 0.26170
H3 H 0.93790 -0.06840 0.34110
H4 H 1.12520 -0.03950 0.18810
H5 H 0.81020 -0.08490 0.11880
H6 H 0.95460 0.07300 0.06040
H7 H 0.62070 0.04980 0.05590
H8 H 0.51090 0.18960 0.08790
H9 H 0.43320 0.13790 0.20250
H10 H 0.42430 0.30150 0.19810
H11 H 0.77590 0.29710 0.23040
H12 H 0.65180 0.32520 0.39900
H13 H 0.43710 0.23410 0.37440
H14 H 0.87290 0.21120 0.52260
H15 H 1.03450 0.22280 0.41570
H16 H 1.12040 0.07270 0.35800
H17 H 0.98340 0.17440 0.20480
#END
