
#######################################################################
#
#                 Cambridge Crystallographic Data Centre
#                                CCDC
#
#######################################################################
#
# If this CIF has been generated from an entry in the Cambridge
# Structural Database, then it will include bibliographic, chemical,
# crystal, experimental, refinement or atomic coordinate data resulting
# from the CCDC's data processing and validation procedures.
#
#######################################################################

data_CSD_CIF_CACBUF
_audit_creation_date 2011-01-04
_audit_creation_method CSD-ConQuest-V1
_database_code_CSD CACBUF
_database_code_depnum_ccdc_archive 'CCDC 789331'
_database_code_depnum_ccdc_journal 1267/2981
_chemical_formula_sum 'C10 H12 N2 O3'
_chemical_formula_moiety
;
C10 H12 N2 O3
;
_journal_coden_Cambridge 1267
_journal_volume 225
_journal_year 2010
_journal_page_first 369
_journal_name_full 'Z.Kristallogr.-New Cryst.Struct. '
loop_
_publ_author_name
"Hu-Kui Chen"
"Fei-Wen Zhao"
_chemical_name_systematic
;
N-(2,4-Dimethyl-6-nitrophenyl)acetamide
;
_chemical_melting_point 445.15
_cell_volume   1068.011
_exptl_crystal_colour 'yellow'
_exptl_crystal_density_diffrn 1.295
_exptl_special_details
;
Melting point range 445.15-447.15K

;
_exptl_crystal_description 'block'
_exptl_crystal_preparation 'ethanol'
_diffrn_ambient_temperature 298
#These two values have been output from a single CSD field.
_refine_ls_R_factor_gt 0.0308
_refine_ls_wR_factor_gt 0.0308
_symmetry_cell_setting tetragonal
_symmetry_space_group_name_H-M 'P 43'
_symmetry_Int_Tables_number 78
loop_
_symmetry_equiv_pos_site_id
_symmetry_equiv_pos_as_xyz
1 x,y,z
2 -x,-y,1/2+z
3 -y,x,3/4+z
4 y,-x,1/4+z
_cell_length_a 8.4653(8)
_cell_length_b 8.4653(8)
_cell_length_c 14.9036(13)
_cell_angle_alpha 90
_cell_angle_beta 90
_cell_angle_gamma 90
_cell_formula_units_Z 4
loop_
_atom_type_symbol
_atom_type_radius_bond
C 0.68
H 0.23
N 0.68
O 0.68
loop_
_atom_site_label
_atom_site_type_symbol
_atom_site_fract_x
_atom_site_fract_y
_atom_site_fract_z
N1 N 0.8872(3) 0.2443(3) 0.33839(15)
H1 H 0.96810 0.24330 0.37330
N2 N 0.5637(3) 0.1314(3) 0.36621(17)
O1 O 0.7755(2) 0.1387(2) 0.21513(13)
O2 O 0.6554(3) 0.0359(2) 0.3985(2)
O3 O 0.4357(3) 0.0951(3) 0.3350(2)
C1 C 0.7614(3) 0.3477(3) 0.35927(17)
C2 C 0.6055(3) 0.2996(3) 0.36824(17)
C3 C 0.4836(3) 0.4038(3) 0.3824(2)
H2 H 0.38040 0.36700 0.38690
C4 C 0.5149(4) 0.5644(3) 0.3898(2)
C5 C 0.6703(3) 0.6121(3) 0.3836(2)
H3 H 0.69290 0.71910 0.38960
C6 C 0.7942(3) 0.5090(3) 0.36892(19)
C7 C 0.3833(4) 0.6816(4) 0.4034(3)
H4 H 0.42590 0.77830 0.42680
H5 H 0.30780 0.63930 0.44500
H6 H 0.33240 0.70200 0.34700
C8 C 0.9626(4) 0.5679(4) 0.3633(3)
H7 H 0.96300 0.68130 0.36380
H8 H 1.01020 0.53060 0.30880
H9 H 1.02140 0.52930 0.41380
C9 C 0.8873(3) 0.1474(3) 0.26687(17)
C10 C 1.0354(4) 0.0525(4) 0.2540(2)
H10 H 1.00870 -0.05710 0.24770
H11 H 1.10300 0.06600 0.30520
H12 H 1.08920 0.08800 0.20100
#END
