
#######################################################################
#
#                 Cambridge Crystallographic Data Centre
#                                CCDC
#
#######################################################################
#
# If this CIF has been generated from an entry in the Cambridge
# Structural Database, then it will include bibliographic, chemical,
# crystal, experimental, refinement or atomic coordinate data resulting
# from the CCDC's data processing and validation procedures.
#
#######################################################################

data_CSD_CIF_CACFUI
_audit_creation_date 2002-03-27
_audit_creation_method CSD-ConQuest-V1
_database_code_CSD CACFUI
_database_code_depnum_ccdc_archive 'CCDC 177236'
_chemical_formula_sum 'C11 H15 N3 O2'
_chemical_formula_moiety
;
C11 H15 N3 O2
;
_journal_coeditor_code "IUCr OB6096"
_journal_coden_Cambridge 1370
_journal_volume 57
_journal_year 2001
_journal_page_first o1247
_journal_name_full 'Acta Crystallogr.,Sect.E:Struct.Rep.Online '
loop_
_publ_author_name
"T.Hokelek"
"A.Zulfikaroglu"
"H.Bati"
_chemical_name_systematic
;
1-(2,6-Dimethylphenylamino)propane-1,2-dione dioxime
;
_cell_volume   1106.850
_exptl_crystal_colour 'colorless'
_exptl_crystal_density_diffrn 1.328
_exptl_crystal_description 'prism'
_exptl_crystal_preparation 'carbon tetrachloride'
_diffrn_ambient_temperature 296
#These two values have been output from a single CSD field.
_refine_ls_R_factor_gt 0.056
_refine_ls_wR_factor_gt 0.056
_symmetry_cell_setting monoclinic
_symmetry_space_group_name_H-M 'P 21/c'
_symmetry_Int_Tables_number 14
loop_
_symmetry_equiv_pos_site_id
_symmetry_equiv_pos_as_xyz
1 x,y,z
2 x,1/2-y,1/2+z
3 -x,-y,-z
4 -x,-1/2+y,-1/2-z
_cell_length_a 8.404(2)
_cell_length_b 7.672(2)
_cell_length_c 17.592(3)
_cell_angle_alpha 90
_cell_angle_beta 102.620(19)
_cell_angle_gamma 90
_cell_formula_units_Z 4
loop_
_atom_type_symbol
_atom_type_radius_bond
C 0.68
H 0.23
N 0.68
O 0.68
loop_
_atom_site_label
_atom_site_type_symbol
_atom_site_fract_x
_atom_site_fract_y
_atom_site_fract_z
H1 H -0.001(6) 0.484(5) 0.257(2)
H2 H 0.171(4) 1.238(4) 0.2095(19)
O1 O 0.0943(2) 0.4846(2) 0.23763(11)
N1 N 0.0955(2) 0.6571(3) 0.21243(12)
O2 O 0.2174(2) 1.1672(2) 0.18322(12)
N2 N 0.1935(2) 0.9994(2) 0.21332(12)
N3 N 0.3288(3) 0.9185(3) 0.11603(11)
C1 C 0.1988(3) 0.7485(3) -0.00021(14)
C2 C 0.2472(3) 0.8819(3) 0.17276(13)
C3 C 0.2328(3) 0.6975(3) 0.19670(13)
C4 C 0.3401(3) 0.8122(3) 0.05008(12)
C5 C 0.4952(3) 0.7885(3) 0.03508(14)
C6 C 0.3747(3) 0.5792(3) 0.20340(18)
H3 H 0.34600 0.46330 0.21960
H4 H 0.46690 0.62550 0.24220
H5 H 0.40510 0.57060 0.15280
C7 C 0.6462(3) 0.8467(4) 0.09158(16)
H6 H 0.61590 0.90200 0.13660
H7 H 0.70550 0.93050 0.06610
H8 H 0.71590 0.74560 0.10900
C8 C 0.2175(4) 0.6656(4) -0.06836(16)
H9 H 0.12400 0.62110 -0.10340
C9 C 0.5062(3) 0.7056(4) -0.03430(15)
H10 H 0.61010 0.68900 -0.04630
C10 C 0.3678(4) 0.6472(4) -0.08579(15)
H11 H 0.37690 0.59420 -0.13340
C11 C 0.0302(3) 0.7682(4) 0.01495(17)
H12 H 0.03680 0.82880 0.06460
H13 H -0.01830 0.65280 0.01740
H14 H -0.03760 0.83600 -0.02720
H15 H 0.341(3) 1.021(4) 0.1108(16)
#END
