
#######################################################################
#
#                 Cambridge Crystallographic Data Centre
#                                CCDC
#
#######################################################################
#
# If this CIF has been generated from an entry in the Cambridge
# Structural Database, then it will include bibliographic, chemical,
# crystal, experimental, refinement or atomic coordinate data resulting
# from the CCDC's data processing and validation procedures.
#
#######################################################################

data_CSD_CIF_CACNUQ
_audit_creation_date 2002-03-27
_audit_creation_method CSD-ConQuest-V1
_database_code_CSD CACNUQ
_database_code_depnum_ccdc_archive 'CCDC 165934'
_chemical_formula_sum 'C19 H19 N1 O2'
_chemical_formula_moiety
;
C19 H19 N1 O2
;
_journal_coden_Cambridge 1291
_journal_year 2001
_journal_page_first 4671
_journal_name_full 'Eur.J.Org.Chem. '
loop_
_publ_author_name
"G.Grassi"
"G.Bruno"
"F.Risitano"
"F.Foti"
"F.Caruso"
"F.Nicolo"
_chemical_name_systematic
;
4-(2,4,6-Trimethylbenzyl)-3-phenyl-4H-isoxazol-5-one
;
_cell_volume   1522.887
_exptl_crystal_colour 'colorless'
_exptl_crystal_density_diffrn 1.279
_exptl_crystal_description 'prismatic'
_diffrn_ambient_temperature 293
#These two values have been output from a single CSD field.
_refine_ls_R_factor_gt 0.039
_refine_ls_wR_factor_gt 0.039
_symmetry_cell_setting monoclinic
_symmetry_space_group_name_H-M 'P 21/c'
_symmetry_Int_Tables_number 14
loop_
_symmetry_equiv_pos_site_id
_symmetry_equiv_pos_as_xyz
1 x,y,z
2 x,1/2-y,1/2+z
3 -x,-y,-z
4 -x,-1/2+y,-1/2-z
_cell_length_a 20.0329(17)
_cell_length_b 5.1877(5)
_cell_length_c 14.6694(19)
_cell_angle_alpha 90
_cell_angle_beta 92.646(8)
_cell_angle_gamma 90
_cell_formula_units_Z 4
loop_
_atom_type_symbol
_atom_type_radius_bond
C 0.68
H 0.23
N 0.68
O 0.68
loop_
_atom_site_label
_atom_site_type_symbol
_atom_site_fract_x
_atom_site_fract_y
_atom_site_fract_z
O1 O 0.76566(7) -0.6486(3) 0.44802(9)
C1 C 0.79758(8) -0.4649(3) 0.47227(11)
O2 O 0.84258(7) -0.3573(3) 0.41606(8)
N1 N 0.87752(8) -0.1500(3) 0.46235(9)
C2 C 0.85333(7) -0.1239(3) 0.54158(10)
C3 C 0.79844(7) -0.3106(3) 0.55902(10)
H1 H 0.81230 -0.42210 0.61040
C4 C 0.88275(7) 0.0701(3) 0.60458(11)
C5 C 0.93062(8) 0.2435(3) 0.57532(13)
H2 H 0.94420 0.23610 0.51560
C6 C 0.95783(9) 0.4254(4) 0.63440(14)
H3 H 0.98980 0.53940 0.61420
C7 C 0.93827(9) 0.4408(4) 0.72311(14)
H4 H 0.95620 0.56650 0.76220
C8 C 0.89202(9) 0.2685(3) 0.75330(12)
H5 H 0.87910 0.27640 0.81330
C9 C 0.86457(8) 0.0837(3) 0.69485(11)
H6 H 0.83360 -0.03270 0.71610
C10 C 0.72842(7) -0.1924(3) 0.57682(11)
H7 H 0.73320 -0.06770 0.62590
H8 H 0.71190 -0.10190 0.52250
C11 C 0.67780(7) -0.3942(3) 0.60173(10)
C12 C 0.62732(8) -0.4773(3) 0.53877(11)
C13 C 0.58353(8) -0.6695(4) 0.56430(12)
H9 H 0.55070 -0.72480 0.52180
C14 C 0.58640(8) -0.7825(3) 0.64977(13)
C15 C 0.63506(8) -0.6904(3) 0.71193(12)
H10 H 0.63760 -0.75960 0.77050
C16 C 0.68005(8) -0.4994(3) 0.69019(10)
C17 C 0.61827(10) -0.3615(4) 0.44473(12)
H11 H 0.58140 -0.44370 0.41230
H12 H 0.65820 -0.38680 0.41220
H13 H 0.60940 -0.18030 0.44980
C18 C 0.53931(10) -0.9933(4) 0.67524(16)
H14 H 0.50940 -1.03170 0.62410
H15 H 0.51410 -0.93800 0.72570
H16 H 0.56440 -1.14490 0.69220
H17? H 0.54920 -1.04470 0.73730
H18? H 0.54450 -1.13850 0.63560
H19? H 0.49420 -0.93150 0.66910
C19 C 0.72920(9) -0.4036(4) 0.76364(11)
H20 H 0.72330 -0.49790 0.81900
H21 H 0.72170 -0.22350 0.77420
H22 H 0.77390 -0.42840 0.74450
#END
