
#######################################################################
#
#                 Cambridge Crystallographic Data Centre
#                                CCDC
#
#######################################################################
#
# If this CIF has been generated from an entry in the Cambridge
# Structural Database, then it will include bibliographic, chemical,
# crystal, experimental, refinement or atomic coordinate data resulting
# from the CCDC's data processing and validation procedures.
#
#######################################################################

data_CSD_CIF_CACNIE
_audit_creation_date 2002-03-27
_audit_creation_method CSD-ConQuest-V1
_database_code_CSD CACNIE
_database_code_depnum_ccdc_archive 'CCDC 162379'
_chemical_formula_sum 'C16 H15 N1 O6'
_chemical_formula_moiety
;
C16 H15 N1 O6
;
_journal_coden_Cambridge 1291
_journal_year 2001
_journal_page_first 4657
_journal_name_full 'Eur.J.Org.Chem. '
loop_
_publ_author_name
"R.Herrera"
"H.A.Jimenez-Vazquez"
"A.Modelli"
"D.Jones"
"B.C.Soderberg"
"J.Tamariz"
_chemical_name_systematic
;
(1R*,2S*,4R*)-2-Methoxycarbonyl-5-norbornen-2-yl p-nitrobenzoate
;
_chemical_melting_point 412
_cell_volume   2993.287
_exptl_crystal_colour 'colorless'
_exptl_crystal_density_diffrn 1.408
_exptl_special_details
;
Melting point range 412-413K

;
_exptl_crystal_description 'prism'
_exptl_crystal_preparation 'hexane/ethyl acetate(50'
_diffrn_ambient_temperature 293
#These two values have been output from a single CSD field.
_refine_ls_R_factor_gt 0.0775
_refine_ls_wR_factor_gt 0.0775
_symmetry_cell_setting monoclinic
_symmetry_space_group_name_H-M 'C 2/c'
_symmetry_Int_Tables_number 15
loop_
_symmetry_equiv_pos_site_id
_symmetry_equiv_pos_as_xyz
1 x,y,z
2 1/2+x,1/2+y,z
3 x,-y,1/2+z
4 1/2+x,1/2-y,1/2+z
5 -x,-y,-z
6 -1/2-x,-1/2-y,-z
7 -x,y,-1/2-z
8 -1/2-x,-1/2+y,-1/2-z
_cell_length_a 23.926(3)
_cell_length_b 7.9688(9)
_cell_length_c 16.659(2)
_cell_angle_alpha 90
_cell_angle_beta 109.541(13)
_cell_angle_gamma 90
_cell_formula_units_Z 8
loop_
_atom_type_symbol
_atom_type_radius_bond
C 0.68
H 0.23
N 0.68
O 0.68
loop_
_atom_site_label
_atom_site_type_symbol
_atom_site_fract_x
_atom_site_fract_y
_atom_site_fract_z
O1 O 0.10701(9) 0.9542(3) 0.11032(12)
O2 O 0.18939(10) 0.9105(3) 0.22245(14)
C1 C 0.15924(13) 0.8795(4) 0.1500(2)
O3 O 0.10305(13) 1.1172(4) 0.30456(15)
O4 O 0.07359(11) 0.8705(3) 0.24077(14)
C2 C 0.21665(13) 0.5412(4) -0.0007(2)
N1 N 0.24162(14) 0.4357(3) -0.0532(2)
C3 C 0.16958(14) 0.6447(4) -0.0417(2)
H1 H 0.15205(14) 0.6416(4) -0.1007(2)
O5 O 0.29051(12) 0.3727(3) -0.0194(2)
C4 C 0.17638(12) 0.7562(4) 0.0953(2)
C5 C 0.14909(13) 0.7534(4) 0.0070(2)
H2 H 0.11728(13) 0.8243(4) -0.0190(2)
C6 C 0.09062(13) 1.0907(4) 0.1562(2)
C7 C 0.22248(14) 0.6454(4) 0.1347(2)
H3 H 0.23928(14) 0.6444(4) 0.1937(2)
O6 O 0.2122(2) 0.4176(4) -0.1287(2)
C8 C 0.09124(13) 1.0297(4) 0.2431(2)
C9 C 0.24330(14) 0.5372(4) 0.0866(2)
H4 H 0.27437(14) 0.4638(4) 0.1123(2)
C10 C 0.02783(15) 1.1470(4) 0.0977(2)
H5 H -0.00166(15) 1.0592(4) 0.0734(2)
C11 C 0.1291(2) 1.2485(4) 0.1573(2)
H6 H 0.1452(2) 1.2945(4) 0.2143(2)
H7 H 0.1616(2) 1.2214(4) 0.1370(2)
C12 C 0.0437(2) 1.4245(5) 0.1419(3)
H8 H 0.0413(2) 1.5302(5) 0.1641(3)
C13 C 0.0096(2) 1.2926(6) 0.1422(3)
H9 H -0.0204(2) 1.2900(6) 0.1660(3)
C14 C 0.0768(2) 0.7988(6) 0.3218(2)
H10 H 0.0694(14) 0.6803(9) 0.3152(5)
H11 H 0.0475(10) 0.8505(30) 0.3415(10)
H12 H 0.1155(5) 0.8177(37) 0.3624(6)
C15 C 0.0501(3) 1.2546(6) 0.0334(3)
H13 H 0.0731(3) 1.1886(6) 0.0066(3)
H14 H 0.0180(3) 1.3114(6) -0.0096(3)
C16 C 0.0871(2) 1.3700(6) 0.0984(4)
H15 H 0.1057(2) 1.4612(6) 0.0769(4)
#END
