
#######################################################################
#
#                 Cambridge Crystallographic Data Centre
#                                CCDC
#
#######################################################################
#
# If this CIF has been generated from an entry in the Cambridge
# Structural Database, then it will include bibliographic, chemical,
# crystal, experimental, refinement or atomic coordinate data resulting
# from the CCDC's data processing and validation procedures.
#
#######################################################################

data_CSD_CIF_CACREE
_audit_creation_date 2002-03-27
_audit_creation_method CSD-ConQuest-V1
_database_code_CSD CACREE
_database_code_depnum_ccdc_archive 'CCDC 171352'
_chemical_formula_sum 'C20 H18 N2 O4'
_chemical_formula_moiety
;
C20 H18 N2 O4
;
_journal_coden_Cambridge 692
_journal_year 2001
_journal_page_first 2419
_journal_name_full 'Synthesis '
loop_
_publ_author_name
"M.Vales"
"V.Lokshin"
"G.Pepe"
"A.Samat"
"R.Guglielmetti"
_chemical_name_systematic
;
4-Benzoyl-3-methyl-7-nitro-2-propylisoquinolin-1-one
;
_chemical_melting_point 430.15
_cell_volume   1774.678
_exptl_crystal_colour 'yellow'
_exptl_crystal_density_diffrn 1.311
_exptl_crystal_description 'square needle'
_exptl_crystal_preparation 'methanol'
_diffrn_ambient_temperature 293
#These two values have been output from a single CSD field.
_refine_ls_R_factor_gt 0.0494
_refine_ls_wR_factor_gt 0.0494
_symmetry_cell_setting monoclinic
_symmetry_space_group_name_H-M 'P 21/n'
_symmetry_Int_Tables_number 14
loop_
_symmetry_equiv_pos_site_id
_symmetry_equiv_pos_as_xyz
1 x,y,z
2 1/2+x,1/2-y,1/2+z
3 -x,-y,-z
4 -1/2-x,-1/2+y,-1/2-z
_cell_length_a 11.798(2)
_cell_length_b 7.532(1)
_cell_length_c 20.092(4)
_cell_angle_alpha 90
_cell_angle_beta 96.29(5)
_cell_angle_gamma 90
_cell_formula_units_Z 4
loop_
_atom_type_symbol
_atom_type_radius_bond
C 0.68
H 0.23
N 0.68
O 0.68
loop_
_atom_site_label
_atom_site_type_symbol
_atom_site_fract_x
_atom_site_fract_y
_atom_site_fract_z
C1 C -0.3749(3) 0.1603(5) 0.3982(2)
C2 C -0.4665(4) 0.0494(7) 0.4077(3)
C3 C -0.5702(5) 0.1242(10) 0.4170(3)
C4 C -0.5845(4) 0.3029(10) 0.4163(4)
C5 C -0.4952(4) 0.4133(8) 0.4072(3)
C6 C -0.3885(3) 0.3422(5) 0.3980(2)
C7 C -0.2927(3) 0.4640(5) 0.3875(2)
O1 O -0.3090(3) 0.6204(4) 0.3768(2)
C8 C -0.1748(3) 0.3880(5) 0.39198(18)
C9 C -0.1209(3) 0.3667(5) 0.33568(19)
C10 C -0.1780(4) 0.4162(7) 0.2672(2)
H1 H -0.18200 0.31370 0.23870
H2 H -0.13460 0.50760 0.24830
H3 H -0.25360 0.45890 0.27120
N1 N -0.0123(3) 0.2953(5) 0.33971(16)
C11 C 0.0451(5) 0.2374(9) 0.2752(3)
H4 H 0.08780 0.12800 0.28320
H5 H -0.01180 0.22140 0.23700
C12 C 0.1171(7) 0.3782(8) 0.2649(3)
H6 H 0.16610 0.40640 0.30550
H7 H 0.07400 0.48320 0.25000
C13 C 0.1932(8) 0.3036(12) 0.2055(4)
H8 H 0.17570 0.37260 0.16550
H9 H 0.17450 0.18130 0.19620
H10 H 0.27300 0.31370 0.22050
C14 C 0.0475(3) 0.2401(6) 0.3995(2)
O2 O 0.1431(3) 0.1747(5) 0.39977(16)
C15 C -0.0094(3) 0.2629(4) 0.45942(18)
C16 C 0.0477(3) 0.2072(5) 0.52043(19)
C17 C -0.0046(3) 0.2267(4) 0.57721(18)
N2 N 0.0532(3) 0.1648(4) 0.64119(18)
O3 O 0.1333(3) 0.0626(4) 0.64011(15)
O4 O 0.0170(3) 0.2189(4) 0.69298(16)
C18 C -0.1125(4) 0.3031(5) 0.57587(19)
C19 C -0.1692(3) 0.3555(5) 0.51670(19)
C20 C -0.1189(3) 0.3351(4) 0.45566(17)
H11 H -0.30200 0.11130 0.39040
H12 H -0.45620 -0.07700 0.40890
H13 H -0.63400 0.05050 0.42340
H14 H -0.65880 0.35120 0.42190
H15 H -0.50370 0.53960 0.40790
H16 H 0.12290 0.15660 0.52230
H17 H -0.14960 0.31380 0.61630
H18 H -0.24400 0.40670 0.51480
#END
