
#######################################################################
#
#                 Cambridge Crystallographic Data Centre
#                                CCDC
#
#######################################################################
#
# If this CIF has been generated from an entry in the Cambridge
# Structural Database, then it will include bibliographic, chemical,
# crystal, experimental, refinement or atomic coordinate data resulting
# from the CCDC's data processing and validation procedures.
#
#######################################################################

data_CSD_CIF_CACRAA
_audit_creation_date 2002-03-27
_audit_creation_method CSD-ConQuest-V1
_database_code_CSD CACRAA
_database_code_depnum_ccdc_archive 'CCDC 171351'
_chemical_formula_sum 'C23 H16 N2 O4'
_chemical_formula_moiety
;
C23 H16 N2 O4
;
_journal_coden_Cambridge 692
_journal_year 2001
_journal_page_first 2419
_journal_name_full 'Synthesis '
loop_
_publ_author_name
"M.Vales"
"V.Lokshin"
"G.Pepe"
"A.Samat"
"R.Guglielmetti"
_chemical_name_systematic
;
3-Benzoyl-2-methyl-6-nitro-1-phenylquinolin-4-one
;
_chemical_melting_point 490.15
_cell_volume   1868.130
_exptl_crystal_density_diffrn 1.367
_exptl_special_details
;
Melting point range 490.15-491.15K

;
_exptl_crystal_preparation 'methanol'
_diffrn_ambient_temperature 293
#These two values have been output from a single CSD field.
_refine_ls_R_factor_gt 0.034
_refine_ls_wR_factor_gt 0.034
_symmetry_cell_setting monoclinic
_symmetry_space_group_name_H-M 'P 21/n'
_symmetry_Int_Tables_number 14
loop_
_symmetry_equiv_pos_site_id
_symmetry_equiv_pos_as_xyz
1 x,y,z
2 1/2-x,1/2+y,1/2-z
3 -x,-y,-z
4 -1/2+x,-1/2-y,-1/2+z
_cell_length_a 12.812(2)
_cell_length_b 8.464(2)
_cell_length_c 17.229(3)
_cell_angle_alpha 90
_cell_angle_beta 90.83(2)
_cell_angle_gamma 90
_cell_formula_units_Z 4
loop_
_atom_type_symbol
_atom_type_radius_bond
C 0.68
H 0.23
N 0.68
O 0.68
loop_
_atom_site_label
_atom_site_type_symbol
_atom_site_fract_x
_atom_site_fract_y
_atom_site_fract_z
C1 C 0.6338(4) 0.2373(6) 0.5905(3)
C2 C 0.5465(4) 0.1417(7) 0.5823(4)
C3 C 0.4485(4) 0.2110(9) 0.5804(3)
C4 C 0.4376(4) 0.3733(8) 0.5852(4)
C5 C 0.5244(4) 0.4649(7) 0.5925(3)
C6 C 0.6232(3) 0.3990(5) 0.5961(2)
C7 C 0.7148(3) 0.5051(5) 0.6044(2)
O1 O 0.7037(2) 0.6453(4) 0.6183(2)
C8 C 0.8221(3) 0.4371(4) 0.5959(2)
C9 C 0.8468(3) 0.3759(4) 0.5208(3)
O2 O 0.7865(2) 0.3851(3) 0.46420(15)
C10 C 0.9496(3) 0.3018(4) 0.5147(2)
C11 C 1.0186(3) 0.2989(4) 0.5782(2)
N1 N 0.9910(2) 0.3698(4) 0.64740(18)
C12 C 0.8927(3) 0.4357(5) 0.6560(2)
C13 C 0.8708(5) 0.5058(8) 0.7330(3)
C14 C 1.0661(3) 0.3742(5) 0.7115(2)
C15 C 1.0563(3) 0.2750(5) 0.7737(3)
C16 C 1.1288(4) 0.2824(5) 0.8337(3)
C17 C 1.2101(4) 0.3865(5) 0.8316(3)
C18 C 1.2205(4) 0.4831(6) 0.7686(3)
C19 C 1.1496(3) 0.4784(5) 0.7069(3)
C20 C 0.9770(3) 0.2299(4) 0.4455(2)
C21 C 1.0706(3) 0.1553(4) 0.4394(2)
N2 N 1.0954(3) 0.0748(4) 0.3672(2)
O3 O 1.1723(3) -0.0095(4) 0.3657(2)
O4 O 1.0367(3) 0.0929(5) 0.3115(2)
C22 C 1.1418(3) 0.1522(5) 0.5012(3)
C23 C 1.1165(3) 0.2219(5) 0.5693(3)
H1 H 0.701(3) 0.181(5) 0.592(3)
H2 H 0.559(4) 0.027(6) 0.572(3)
H3 H 0.392(4) 0.131(6) 0.577(4)
H4 H 0.368(4) 0.417(7) 0.577(4)
H5 H 0.522(4) 0.585(5) 0.593(4)
H6 H 0.801(3) 0.551(6) 0.733(3)
H7 H 0.864(4) 0.424(5) 0.775(3)
H8 H 0.918(4) 0.585(6) 0.750(3)
H9 H 0.997(3) 0.195(5) 0.780(3)
H10 H 1.122(4) 0.214(5) 0.879(3)
H11 H 1.261(3) 0.394(5) 0.874(3)
H12 H 1.277(4) 0.562(5) 0.766(3)
H13 H 1.157(4) 0.545(5) 0.662(3)
H14 H 0.929(3) 0.238(5) 0.400(2)
H15 H 1.210(3) 0.096(5) 0.490(3)
H16 H 1.166(3) 0.219(5) 0.614(3)
#END
