
#######################################################################
#
#                 Cambridge Crystallographic Data Centre
#                                CCDC
#
#######################################################################
#
# If this CIF has been generated from an entry in the Cambridge
# Structural Database, then it will include bibliographic, chemical,
# crystal, experimental, refinement or atomic coordinate data resulting
# from the CCDC's data processing and validation procedures.
#
#######################################################################

data_CSD_CIF_CACTAB
_audit_creation_date 1984-04-14
_audit_creation_method CSD-ConQuest-V1
_database_code_CSD CACTAB
_database_code_depnum_ccdc_archive 'CCDC 1118807'
_chemical_formula_sum 'C26 H27 N1 O5'
_chemical_formula_moiety
;
C26 H27 N1 O5
;
_journal_coden_Cambridge 5
_journal_volume 163
_journal_year 1983
_journal_page_first 159
_journal_name_full 'Z.Kristallogr.,Kristallgeom.,Kristallphys.,Kristallchem. '
loop_
_publ_author_name
"P.Smith-Verdier"
"F.Florencio"
"S.Garcia-Blanco"
_chemical_name_systematic
;
(2R,3R,2'S,3'S)-bis(4-Acetyl-2,3-dihydro-5-methyl-3-phenylfuryl-2)-hydroxylami
ne
;
_cell_volume   2347.335
_exptl_crystal_colour 'colorless'
_exptl_crystal_density_diffrn 1.227
_diffrn_ambient_temperature ?
_diffrn_special_details
;
The study was carried out at room temperature,in the range 283-303K

;
#These two values have been output from a single CSD field.
_refine_ls_R_factor_gt 0.044
_refine_ls_wR_factor_gt 0.044
_symmetry_cell_setting monoclinic
_symmetry_space_group_name_H-M 'P 21/n'
_symmetry_Int_Tables_number 14
loop_
_symmetry_equiv_pos_site_id
_symmetry_equiv_pos_as_xyz
1 x,y,z
2 1/2-x,1/2+y,1/2-z
3 -x,-y,-z
4 -1/2+x,-1/2-y,-1/2+z
_cell_length_a 10.313(2)
_cell_length_b 23.816(7)
_cell_length_c 9.847(2)
_cell_angle_alpha 90
_cell_angle_beta 103.94(3)
_cell_angle_gamma 90
_cell_formula_units_Z 4
loop_
_atom_type_symbol
_atom_type_radius_bond
C 0.68
H 0.23
N 0.68
O 0.68
loop_
_atom_site_label
_atom_site_type_symbol
_atom_site_fract_x
_atom_site_fract_y
_atom_site_fract_z
O1 O -0.00483 0.62685 0.23739
C1 C 0.03520 0.64337 0.38550
C2 C 0.04665 0.70802 0.38645
C3 C -0.01449 0.72183 0.23382
C4 C -0.03791 0.67389 0.16008
O2 O 0.11928 0.52045 0.37743
C5 C 0.19656 0.47458 0.41608
C6 C 0.28074 0.47830 0.54267
C7 C 0.26567 0.53575 0.60416
C8 C 0.14196 0.55848 0.49740
N1 N 0.15278 0.61593 0.46090
O3 O 0.26120 0.62410 0.39699
C9 C -0.08905 0.66369 0.00751
C10 C -0.03334 0.77819 0.17561
O4 O -0.11045 0.78800 0.06187
C11 C 0.04788 0.82435 0.25714
C12 C -0.02415 0.73327 0.48935
C13 C -0.16150 0.72953 0.46562
C14 C -0.22732 0.75103 0.56047
C15 C -0.15723 0.77653 0.67986
C16 C -0.02154 0.78096 0.70392
C17 C 0.04587 0.75913 0.61049
C18 C 0.17390 0.42954 0.30838
C19 C 0.38409 0.43723 0.60028
O5 O 0.38160 0.38994 0.55236
C20 C 0.49688 0.45456 0.71825
C21 C 0.24236 0.53846 0.75046
C22 C 0.18983 0.49385 0.80883
C23 C 0.16199 0.49882 0.93853
C24 C 0.18722 0.54764 1.01258
C25 C 0.23705 0.59226 0.95553
C26 C 0.26438 0.58790 0.82426
H1 H -0.03850 0.63040 0.42610
H2 H 0.13950 0.71740 0.41380
H3 H 0.34370 0.56060 0.60210
H4 H 0.06220 0.55600 0.53770
H5 H 0.31780 0.64920 0.45610
H6 H -0.17610 0.64580 -0.00500
H7 H -0.03950 0.63390 -0.02180
H8 H -0.09760 0.69890 -0.04330
H9 H 0.14220 0.81430 0.27510
H10 H 0.02500 0.82950 0.34400
H11 H 0.03990 0.85800 0.21040
H12 H -0.21460 0.70820 0.38030
H13 H -0.32750 0.74920 0.53930
H14 H -0.21230 0.79210 0.74420
H15 H 0.03260 0.79990 0.78440
H16 H 0.14210 0.76510 0.62450
H17 H 0.22300 0.43860 0.24460
H18 H 0.08350 0.42790 0.25880
H19 H 0.21010 0.39510 0.34400
H20 H 0.46930 0.45920 0.79400
H21 H 0.52310 0.49540 0.71070
H22 H 0.57050 0.42880 0.72450
H23 H 0.17180 0.45780 0.75480
H24 H 0.12240 0.46690 0.97870
H25 H 0.17090 0.55070 1.10800
H26 H 0.25170 0.62700 1.00170
H27 H 0.30200 0.61940 0.78160
#END
