
#######################################################################
#
#                 Cambridge Crystallographic Data Centre
#                                CCDC
#
#######################################################################
#
# If this CIF has been generated from an entry in the Cambridge
# Structural Database, then it will include bibliographic, chemical,
# crystal, experimental, refinement or atomic coordinate data resulting
# from the CCDC's data processing and validation procedures.
#
#######################################################################

data_CSD_CIF_CACXIQ
_audit_creation_date 2015-11-27
_audit_creation_method CSD-ConQuest-V1
_database_code_CSD CACXIQ
_database_code_depnum_ccdc_archive 'CCDC 1439167'
_chemical_formula_sum 'C20 H19 N3 O4'
_chemical_formula_moiety
;
C20 H19 N3 O4
;
_journal_coden_Cambridge 1078
_journal_year 2015
_journal_name_full 'CSD Communication(Private Communication) '
loop_
_publ_author_name
"Zhang Guangliang"
"Zhang Suoqin"
_chemical_name_systematic
;
4-(4-methoxyphenyl)-3-methyl-5-nitro-1-phenyl-1,4,5,6-tetrahydropyrano[2,3-c]p
yrazole
;
_cell_volume   1826.625
_exptl_crystal_colour 'colorless'
_exptl_crystal_density_diffrn 1.329
_exptl_crystal_description 'block'
_diffrn_ambient_temperature 296
#These two values have been output from a single CSD field.
_refine_ls_R_factor_gt 0.0319
_refine_ls_wR_factor_gt 0.0319
_symmetry_cell_setting orthorhombic
_symmetry_space_group_name_H-M 'P 21 21 21'
_symmetry_Int_Tables_number 19
loop_
_symmetry_equiv_pos_site_id
_symmetry_equiv_pos_as_xyz
1 x,y,z
2 1/2-x,-y,1/2+z
3 -x,1/2+y,1/2-z
4 1/2+x,1/2-y,-z
_cell_length_a 11.4288(7)
_cell_length_b 11.6975(7)
_cell_length_c 13.6633(8)
_cell_angle_alpha 90
_cell_angle_beta 90
_cell_angle_gamma 90
_cell_formula_units_Z 4
loop_
_atom_type_symbol
_atom_type_radius_bond
C 0.68
H 0.23
N 0.68
O 0.68
loop_
_atom_site_label
_atom_site_type_symbol
_atom_site_fract_x
_atom_site_fract_y
_atom_site_fract_z
O1 O 0.10739(13) 0.31444(14) 0.25779(11)
O2 O -0.0126(2) 0.10888(16) 0.37260(18)
O3 O -0.13160(19) 0.10954(17) 0.25053(15)
O4 O -0.31990(15) 0.72866(14) 0.53160(13)
N1 N 0.25086(15) 0.35445(15) 0.37968(12)
N2 N 0.25435(16) 0.37760(14) 0.47923(12)
N3 N -0.07754(18) 0.15703(17) 0.31584(16)
C1 C 0.13856(18) 0.33781(18) 0.35165(14)
C2 C 0.06730(18) 0.34780(18) 0.43087(14)
C3 C -0.06283(18) 0.33075(18) 0.42617(15)
H1 H -0.08440 0.27180 0.47380
C4 C -0.0920(2) 0.28607(18) 0.32320(17)
H2 H -0.17370 0.30500 0.30870
C5 C -0.0152(2) 0.3375(2) 0.24316(17)
H3 H -0.03910 0.30670 0.18030
H4 H -0.02720 0.41960 0.24140
C6 C 0.14356(19) 0.37354(17) 0.50865(14)
C7 C 0.1114(2) 0.3940(2) 0.61285(17)
H5 H 0.07920 0.32530 0.64030
H6 H 0.05440 0.45410 0.61640
H7 H 0.17990 0.41580 0.64900
C8 C -0.13165(18) 0.43911(17) 0.44981(14)
C9 C -0.0915(2) 0.54648(19) 0.42417(17)
H8 H -0.02180 0.55290 0.38940
C10 C -0.1524(2) 0.64512(19) 0.44892(17)
H9 H -0.12370 0.71640 0.43070
C11 C -0.25507(19) 0.63681(17) 0.50031(15)
C12 C -0.2978(2) 0.53063(19) 0.52498(18)
H10 H -0.36830 0.52460 0.55870
C13 C -0.2368(2) 0.43283(17) 0.50004(17)
H11 H -0.26670 0.36170 0.51730
C14 C -0.2702(3) 0.8396(2) 0.5201(2)
H12 H -0.19630 0.84270 0.55340
H13 H -0.32210 0.89570 0.54730
H14 H -0.25870 0.85500 0.45170
C15 C 0.35587(19) 0.35421(19) 0.32417(15)
C16 C 0.3663(2) 0.2859(2) 0.24219(17)
H15 H 0.30500 0.23860 0.22310
C17 C 0.4691(3) 0.2886(3) 0.18873(19)
H16 H 0.47650 0.24310 0.13330
C18 C 0.5602(2) 0.3576(3) 0.21666(19)
H17 H 0.62850 0.35960 0.17980
C19 C 0.5501(2) 0.4236(3) 0.2992(2)
H18 H 0.61240 0.46930 0.31880
C20 C 0.4480(2) 0.4226(2) 0.35339(19)
H19 H 0.44140 0.46770 0.40920
#END
