
#######################################################################
#
#                 Cambridge Crystallographic Data Centre
#                                CCDC
#
#######################################################################
#
# If this CIF has been generated from an entry in the Cambridge
# Structural Database, then it will include bibliographic, chemical,
# crystal, experimental, refinement or atomic coordinate data resulting
# from the CCDC's data processing and validation procedures.
#
#######################################################################

data_CSD_CIF_CACXOV
_audit_creation_date 2012-01-09
_audit_creation_method CSD-ConQuest-V1
_database_code_CSD CACXOV
_database_code_depnum_ccdc_archive 'CCDC 795522'
_chemical_formula_sum 'C13 H13 N1 O5'
_chemical_formula_moiety
;
C13 H13 N1 O5
;
_journal_coden_Cambridge 177
_journal_volume 9
_journal_year 2011
_journal_page_first 7327
_journal_name_full 'Org.Biomol.Chem. '
loop_
_publ_author_name
"P.Patel"
"C.V.Ramana"
_chemical_name_systematic
;
Methyl 
4-oxo-1,4,4',5'-tetrahydro-3'H-spiro[2,1-benzoxazine-3,2'-furan]-7-carboxylate

;
_cell_volume   1315.695
_exptl_special_details
;
No R-factor or study temperature given in the deposited CIF

;
_diffrn_ambient_temperature ?
_diffrn_special_details
;
The study was carried out at room temperature,in the range 283-303K

;
_symmetry_cell_setting monoclinic
_symmetry_space_group_name_H-M 'P 21/n'
_symmetry_Int_Tables_number 14
loop_
_symmetry_equiv_pos_site_id
_symmetry_equiv_pos_as_xyz
1 x,y,z
2 1/2-x,1/2+y,1/2-z
3 -x,-y,-z
4 -1/2+x,-1/2-y,-1/2+z
_cell_length_a 14.476(8)
_cell_length_b 5.258(3)
_cell_length_c 17.353(10)
_cell_angle_alpha 90
_cell_angle_beta 95.049(10)
_cell_angle_gamma 90
_cell_formula_units_Z 4
loop_
_atom_type_symbol
_atom_type_radius_bond
C 0.68
H 0.23
N 0.68
O 0.68
loop_
_atom_site_label
_atom_site_type_symbol
_atom_site_fract_x
_atom_site_fract_y
_atom_site_fract_z
O1 O 0.0980(3) 0.5041(10) 0.8324(3)
O2 O 0.1997(3) 0.1460(9) 0.8553(3)
O3 O 0.1897(4) 0.6379(12) 0.9975(3)
O4 O 0.6228(4) 0.4468(13) 0.7953(3)
O5 O 0.6439(4) 0.7848(12) 0.8775(3)
C1 C 0.1476(4) 0.3478(13) 0.8898(4)
C2 C 0.0718(5) 0.2070(15) 0.9339(4)
H1 H 0.09050 0.03390 0.94680
H2 H 0.06020 0.29650 0.98100
C3 C -0.0134(5) 0.2113(15) 0.8759(5)
H3 H -0.01430 0.06490 0.84180
H4 H -0.06990 0.21330 0.90200
C4 C -0.0024(5) 0.4551(16) 0.8315(5)
H5 H -0.02990 0.43760 0.77870
H6 H -0.03280 0.59440 0.85580
C5 C 0.2160(5) 0.5232(14) 0.9402(4)
C6 C 0.3134(4) 0.5469(13) 0.9159(4)
C7 C 0.3371(4) 0.4017(12) 0.8501(3)
C8 C 0.4298(5) 0.4246(13) 0.8271(4)
H7 H 0.44710 0.33140 0.78510
C9 C 0.4940(5) 0.5853(14) 0.8671(4)
C10 C 0.4694(5) 0.7346(18) 0.9304(5)
H8 H 0.51240 0.84440 0.95570
C11 C 0.3788(5) 0.7144(16) 0.9545(5)
H9 H 0.36200 0.81150 0.99580
C12 C 0.5939(5) 0.5943(16) 0.8423(4)
C13 C 0.7405(6) 0.820(2) 0.8555(6)
H10 H 0.77670 0.67180 0.87030
H11 H 0.76770 0.96630 0.88150
H12 H 0.73930 0.84350 0.80050
N1 N 0.2682(4) 0.2553(11) 0.8070(3)
H13 H 0.26670 0.23280 0.75780
#END
