
#######################################################################
#
#                 Cambridge Crystallographic Data Centre
#                                CCDC
#
#######################################################################
#
# If this CIF has been generated from an entry in the Cambridge
# Structural Database, then it will include bibliographic, chemical,
# crystal, experimental, refinement or atomic coordinate data resulting
# from the CCDC's data processing and validation procedures.
#
#######################################################################

data_CSD_CIF_CADBOA
_audit_creation_date 2012-01-09
_audit_creation_method CSD-ConQuest-V1
_database_code_CSD CADBOA
_database_code_depnum_ccdc_archive 'CCDC 854673'
_chemical_formula_sum 'C23 H21 N4 O3'
_chemical_formula_moiety
;
C23 H21 N4 O3
;
_journal_coden_Cambridge 35
_journal_volume 76
_journal_year 2011
_journal_page_first 4964
_journal_name_full 'J.Org.Chem. '
loop_
_publ_author_name
"J.C.Morris"
"J.C.McMurtrie"
"S.E.Bottle"
"K.E.Fairfull-Smith"
_chemical_name_systematic
;
3-(4-(2-oxyl-1,1,3,3-tetramethyl-2,3-dihydro-1H-isoindol-5-yl)-1H-1,2,3-triazo
l-1-yl)-2H-chromen-2-one
;
_cell_volume    997.655
_exptl_crystal_colour 'yellow'
_exptl_crystal_density_diffrn 1.336
_exptl_crystal_description 'prism'
_diffrn_ambient_temperature 173
#These two values have been output from a single CSD field.
_refine_ls_R_factor_gt 0.0364
_refine_ls_wR_factor_gt 0.0364
_symmetry_cell_setting triclinic
_symmetry_space_group_name_H-M 'P -1'
_symmetry_Int_Tables_number 2
loop_
_symmetry_equiv_pos_site_id
_symmetry_equiv_pos_as_xyz
1 x,y,z
2 -x,-y,-z
_cell_length_a 5.8079(2)
_cell_length_b 12.9919(11)
_cell_length_c 14.7368(9)
_cell_angle_alpha 112.916(7)
_cell_angle_beta 99.112(4)
_cell_angle_gamma 95.001(5)
_cell_formula_units_Z 2
loop_
_atom_type_symbol
_atom_type_radius_bond
C 0.68
H 0.23
N 0.68
O 0.68
loop_
_atom_site_label
_atom_site_type_symbol
_atom_site_fract_x
_atom_site_fract_y
_atom_site_fract_z
C1 C 0.8829(2) 0.92646(11) 0.22684(10)
C2 C 1.1534(2) 1.09253(10) 0.34794(9)
C3 C 1.3635(2) 1.16290(11) 0.36611(10)
H1 H 1.44960 1.15310 0.31440
C4 C 1.4449(2) 1.24784(11) 0.46146(10)
H2 H 1.58970 1.29670 0.47560
C5 C 1.3184(2) 1.26298(11) 0.53706(10)
H3 H 1.37680 1.32220 0.60210
C6 C 1.1083(2) 1.19228(10) 0.51800(9)
H4 H 1.02180 1.20310 0.56970
C7 C 1.0229(2) 1.10447(10) 0.42225(9)
C8 C 0.8161(2) 1.0219(1) 0.39828(9)
H5 H 0.72450 1.02760 0.44750
C9 C 0.7526(2) 0.93666(10) 0.30636(9)
C10 C 0.5155(2) 0.73981(11) 0.21613(9)
H6 H 0.61030 0.70230 0.17040
C11 C 0.3107(2) 0.69370(11) 0.23053(9)
C12 C 0.1932(2) 0.57508(11) 0.18832(9)
C13 C 0.0668(2) 0.53781(10) 0.24618(9)
H7 H 0.04480 0.59020 0.30920
C14 C -0.0262(2) 0.42391(10) 0.21100(9)
C15 C 0.0032(2) 0.34607(10) 0.11862(9)
C16 C 0.1226(2) 0.38280(11) 0.05914(9)
H8 H 0.13940 0.33050 -0.00490
C17 C 0.2170(2) 0.49662(11) 0.09437(9)
H9 H 0.29920 0.52170 0.05400
C18 C -0.1531(2) 0.36784(10) 0.26572(9)
C19 C -0.3915(2) 0.40442(12) 0.28129(11)
H10 H -0.48410 0.39840 0.21720
H11 H -0.36640 0.48310 0.33110
H12 H -0.47710 0.35530 0.30550
C20 C -0.0003(2) 0.38102(12) 0.36489(10)
H13 H -0.08230 0.33500 0.39300
H14 H 0.02910 0.46080 0.41250
H15 H 0.15060 0.35580 0.35300
C21 C -0.0970(2) 0.22660(11) 0.09839(9)
C22 C 0.0910(2) 0.15051(11) 0.09351(10)
H16 H 0.14970 0.13440 0.03140
H17 H 0.02170 0.07940 0.09420
H18 H 0.22210 0.18900 0.15180
C23 C -0.3007(2) 0.17163(12) 0.00621(10)
H19 H -0.41820 0.22220 0.01110
H20 H -0.37460 0.09950 0.00360
H21 H -0.23960 0.15790 -0.05510
N1 N 0.55411(18) 0.85065(9) 0.28126(8)
N2 N 0.38034(18) 0.87311(9) 0.33477(8)
N3 N 0.23207(18) 0.77797(9) 0.30309(8)
N4 N -0.19076(18) 0.24770(9) 0.19176(8)
O1 O 0.83479(16) 0.85345(8) 0.14214(7)
O2 O 1.07807(14) 1.00678(7) 0.25241(6)
O3 O -0.28635(16) 0.16750(8) 0.21021(7)
#END
