
#######################################################################
#
#                 Cambridge Crystallographic Data Centre
#                                CCDC
#
#######################################################################
#
# If this CIF has been generated from an entry in the Cambridge
# Structural Database, then it will include bibliographic, chemical,
# crystal, experimental, refinement or atomic coordinate data resulting
# from the CCDC's data processing and validation procedures.
#
#######################################################################

data_CSD_CIF_CADJEZ
_audit_creation_date 2015-11-27
_audit_creation_method CSD-ConQuest-V1
_database_code_CSD CADJEZ
_database_code_depnum_ccdc_archive 'CCDC 1026355'
_chemical_formula_sum 'C14 H17 N1 O6'
_chemical_formula_moiety
;
C14 H17 N1 O6
;
_journal_coden_Cambridge 1220
_journal_volume 21
_journal_year 2015
_journal_page_first 14742
_journal_name_full 'Chem.-Eur.J. '
loop_
_publ_author_name
"N.J.Victor"
"Janardhanan Gana"
"K.M.Muraleedharan"
_chemical_name_systematic
;
t-butyl 2-(hydroxy(4-nitrophenyl)methyl)oxirane-2-carboxylate
;
_cell_volume   1489.101
_exptl_crystal_density_diffrn 1.317
_exptl_crystal_description 'Block'
_exptl_crystal_preparation 'methanol'
_diffrn_ambient_temperature 298
#These two values have been output from a single CSD field.
_refine_ls_R_factor_gt 0.0405
_refine_ls_wR_factor_gt 0.0405
_symmetry_cell_setting monoclinic
_symmetry_space_group_name_H-M 'P 21/n'
_symmetry_Int_Tables_number 14
loop_
_symmetry_equiv_pos_site_id
_symmetry_equiv_pos_as_xyz
1 x,y,z
2 1/2-x,1/2+y,1/2-z
3 -x,-y,-z
4 -1/2+x,-1/2-y,-1/2+z
_cell_length_a 12.1232(6)
_cell_length_b 6.7095(3)
_cell_length_c 18.4910(9)
_cell_angle_alpha 90
_cell_angle_beta 98.090(2)
_cell_angle_gamma 90
_cell_formula_units_Z 4
loop_
_atom_type_symbol
_atom_type_radius_bond
C 0.68
H 0.23
N 0.68
O 0.68
loop_
_atom_site_label
_atom_site_type_symbol
_atom_site_fract_x
_atom_site_fract_y
_atom_site_fract_z
C1 C -0.09984(15) 0.8833(3) 0.28707(10)
C2 C -0.03966(16) 0.9736(3) 0.23863(10)
H1 H -0.02320 1.10890 0.24240
C3 C -0.00410(15) 0.8599(2) 0.1843(1)
H2 H 0.03690 0.91910 0.15120
C4 C -0.02872(14) 0.6579(2) 0.17839(9)
C5 C -0.09078(15) 0.5722(3) 0.22753(10)
H3 H -0.10880 0.43760 0.22330
C6 C -0.12643(16) 0.6833(3) 0.28269(10)
H4 H -0.16730 0.62490 0.31600
C7 C 0.01409(14) 0.5340(2) 0.11966(9)
H5 H 0.02050 0.61920 0.07740
C8 C 0.12579(13) 0.4391(2) 0.14496(8)
C9 C 0.17788(14) 0.3454(2) 0.08398(8)
C10 C 0.29567(17) 0.0720(3) 0.05217(9)
C11 C 0.3371(3) -0.1099(4) 0.09640(14)
H6 H 0.38690 -0.06900 0.13880
H7 H 0.37580 -0.19640 0.06710
H8 H 0.27500 -0.17960 0.11130
C12 C 0.3909(2) 0.2048(4) 0.03838(14)
H9 H 0.36200 0.32290 0.01320
H10 H 0.43760 0.13490 0.00900
H11 H 0.43380 0.24110 0.08410
C13 C 0.2209(2) 0.0163(4) -0.01685(13)
H12 H 0.15440 -0.04520 -0.00470
H13 H 0.25900 -0.07540 -0.04450
H14 H 0.20150 0.13400 -0.04540
C14 C 0.20170(15) 0.5021(3) 0.20970(9)
H15 H 0.28100 0.48360 0.20940
H16 H 0.18190 0.61960 0.23560
N1 N -0.13564(14) 1.0039(3) 0.34601(9)
O1 O -0.17777(15) 0.9181(3) 0.39330(9)
O2 O -0.12316(16) 1.1829(2) 0.34447(10)
O3 O -0.05674(11) 0.37074(18) 0.09680(7)
H17 H -0.10900 0.40940 0.06710
O4 O 0.13468(10) 0.32926(16) 0.21193(6)
O5 O 0.17233(11) 0.42559(19) 0.02527(6)
O6 O 0.23076(10) 0.17755(17) 0.10327(6)
#END
