
#######################################################################
#
#                 Cambridge Crystallographic Data Centre
#                                CCDC
#
#######################################################################
#
# If this CIF has been generated from an entry in the Cambridge
# Structural Database, then it will include bibliographic, chemical,
# crystal, experimental, refinement or atomic coordinate data resulting
# from the CCDC's data processing and validation procedures.
#
#######################################################################

data_CSD_CIF_CAFSAG
_audit_creation_date 2017-01-04
_audit_creation_method CSD-ConQuest-V1
_database_code_CSD CAFSAG
_database_code_depnum_ccdc_archive 'CCDC 1453180'
_chemical_formula_sum 'C21 H17 N3 O2'
_chemical_formula_moiety
;
C21 H17 N3 O2
;
_journal_coden_Cambridge 119
_journal_volume 1134
_journal_year 2017
_journal_page_first 244
_journal_name_full 'J.Mol.Struct. '
loop_
_publ_author_name
"Gul Yakali"
"A.Cakici"
"Canel Eke"
"Gunseli Turgut Cin"
"M.Aygun"
_chemical_name_systematic
;
1-(3-(2-nitrophenyl)-1-phenylprop-2-en-1-ylidene)-2-phenylhydrazine
;
_cell_volume   1740.170
_exptl_crystal_density_diffrn 1.311
_diffrn_ambient_temperature 293
#These two values have been output from a single CSD field.
_refine_ls_R_factor_gt 0.0533
_refine_ls_wR_factor_gt 0.0533
_symmetry_cell_setting monoclinic
_symmetry_space_group_name_H-M 'P 21/n'
_symmetry_Int_Tables_number 14
loop_
_symmetry_equiv_pos_site_id
_symmetry_equiv_pos_as_xyz
1 x,y,z
2 1/2-x,1/2+y,1/2-z
3 -x,-y,-z
4 -1/2+x,-1/2-y,-1/2+z
_cell_length_a 9.1782(7)
_cell_length_b 16.1359(12)
_cell_length_c 11.9709(12)
_cell_angle_alpha 90
_cell_angle_beta 101.022(8)
_cell_angle_gamma 90
_cell_formula_units_Z 4
loop_
_atom_type_symbol
_atom_type_radius_bond
C 0.68
H 0.23
N 0.68
O 0.68
loop_
_atom_site_label
_atom_site_type_symbol
_atom_site_fract_x
_atom_site_fract_y
_atom_site_fract_z
O1 O 0.74627(17) 1.82649(9) -0.66381(15)
N1 N 1.12506(16) 1.53119(10) -0.59737(14)
N2 N 1.13417(16) 1.47209(10) -0.67634(15)
H1 H 1.06060 1.46370 -0.73150
N3 N 0.69800(19) 1.84557(11) -0.57920(19)
C1 C 0.7872(2) 1.82769(12) -0.46673(19)
C2 C 0.7731(2) 1.88296(13) -0.3821(2)
H2 H 0.70750 1.92730 -0.39750
C3 C 0.8558(2) 1.87256(14) -0.2752(2)
H3 H 0.84760 1.90980 -0.21740
C4 C 0.9512(2) 1.80641(14) -0.2545(2)
H4 H 1.00850 1.79900 -0.18220
C5 C 0.9628(2) 1.75113(13) -0.3396(2)
H5 H 1.02730 1.70650 -0.32270
C6 C 0.88197(19) 1.75902(12) -0.45012(19)
C7 C 0.8930(2) 1.69622(11) -0.53561(17)
H6 H 0.81650 1.69420 -0.59900
C8 C 1.00242(19) 1.64159(12) -0.53120(18)
H7 H 1.08080 1.64440 -0.46930
C9 C 1.0087(2) 1.57832(11) -0.61535(18)
C10 C 0.88901(19) 1.57193(12) -0.71768(18)
C11 C 0.8982(2) 1.61792(14) -0.8127(2)
H8 H 0.97960 1.65240 -0.81230
C12 C 0.7881(3) 1.61353(16) -0.9089(2)
H9 H 0.79520 1.64520 -0.97250
C13 C 0.6685(3) 1.56246(16) -0.9106(2)
H10 H 0.59420 1.55930 -0.97520
C14 C 0.6591(2) 1.51625(15) -0.8168(3)
H11 H 0.57810 1.48140 -0.81790
C15 C 0.7681(2) 1.52056(12) -0.7206(2)
H12 H 0.76030 1.48870 -0.65720
C16 C 1.2629(2) 1.42511(11) -0.66783(19)
C17 C 1.2814(2) 1.37757(13) -0.7593(2)
H13 H 1.20750 1.37650 -0.82430
C18 C 1.4079(2) 1.33166(14) -0.7556(2)
H14 H 1.41880 1.29960 -0.81800
C19 C 1.5184(2) 1.33267(14) -0.6606(2)
H15 H 1.60470 1.30200 -0.65850
C20 C 1.4999(2) 1.37946(13) -0.5689(2)
H16 H 1.57420 1.38020 -0.50410
C21 C 1.3728(2) 1.42537(12) -0.5713(2)
H17 H 1.36110 1.45640 -0.50820
O2 O 0.57971(16) 1.88122(11) -0.58422(16)
#END
