
#######################################################################
#
#                 Cambridge Crystallographic Data Centre
#                                CCDC
#
#######################################################################
#
# If this CIF has been generated from an entry in the Cambridge
# Structural Database, then it will include bibliographic, chemical,
# crystal, experimental, refinement or atomic coordinate data resulting
# from the CCDC's data processing and validation procedures.
#
#######################################################################

data_CSD_CIF_CAFSAG01
_audit_creation_date 2017-01-04
_audit_creation_method CSD-ConQuest-V1
_database_code_CSD CAFSAG01
_database_code_depnum_ccdc_archive 'CCDC 1453210'
_chemical_formula_sum 'C21 H17 N3 O2'
_chemical_formula_moiety
;
C21 H17 N3 O2
;
_journal_coden_Cambridge 119
_journal_volume 1134
_journal_year 2017
_journal_page_first 244
_journal_name_full 'J.Mol.Struct. '
loop_
_publ_author_name
"Gul Yakali"
"A.Cakici"
"Canel Eke"
"Gunseli Turgut Cin"
"M.Aygun"
_chemical_name_systematic
;
1-(3-(2-nitrophenyl)-1-phenylprop-2-en-1-ylidene)-2-phenylhydrazine
;
_cell_volume   1750.394
_exptl_crystal_density_diffrn 1.303
_diffrn_ambient_temperature 293
#These two values have been output from a single CSD field.
_refine_ls_R_factor_gt 0.0402
_refine_ls_wR_factor_gt 0.0402
_symmetry_cell_setting monoclinic
_symmetry_space_group_name_H-M 'P 21/n'
_symmetry_Int_Tables_number 14
loop_
_symmetry_equiv_pos_site_id
_symmetry_equiv_pos_as_xyz
1 x,y,z
2 1/2-x,1/2+y,1/2-z
3 -x,-y,-z
4 -1/2+x,-1/2-y,-1/2+z
_cell_length_a 9.1955(5)
_cell_length_b 16.1678(8)
_cell_length_c 11.9934(6)
_cell_angle_alpha 90
_cell_angle_beta 100.986(5)
_cell_angle_gamma 90
_cell_formula_units_Z 4
loop_
_atom_type_symbol
_atom_type_radius_bond
C 0.68
H 0.23
N 0.68
O 0.68
loop_
_atom_site_label
_atom_site_type_symbol
_atom_site_fract_x
_atom_site_fract_y
_atom_site_fract_z
O1 O 0.75398(14) 0.17354(8) 0.66381(10)
O2 O 0.92002(14) 0.11856(10) 0.58431(13)
N1 N 0.80167(15) 0.15442(9) 0.57911(12)
N2 N 0.37508(13) 0.46897(7) 0.59762(10)
N3 N 0.36586(15) 0.52826(8) 0.67571(12)
H1 H 0.4344(19) 0.5333(10) 0.7352(14)
C1 C 0.49120(15) 0.42163(9) 0.61532(12)
C2 C 0.49741(17) 0.35817(9) 0.53078(12)
H2 H 0.4137(18) 0.3587(10) 0.4679(14)
C3 C 0.60736(17) 0.30393(9) 0.53590(12)
H3 H 0.6841(17) 0.3060(9) 0.6009(13)
C4 C 0.61783(15) 0.24088(9) 0.44970(12)
C5 C 0.53673(19) 0.2491(1) 0.33940(13)
H4 H 0.4702(18) 0.2965(11) 0.3203(13)
C6 C 0.5484(2) 0.19360(12) 0.25455(15)
H5 H 0.488(2) 0.2012(11) 0.1807(16)
C7 C 0.6440(2) 0.12749(12) 0.27522(16)
H6 H 0.653(2) 0.0885(13) 0.2176(17)
C8 C 0.7274(2) 0.11684(11) 0.38187(15)
H7 H 0.796(2) 0.0716(12) 0.4020(15)
C9 C 0.71277(16) 0.17234(9) 0.46697(12)
C10 C 0.61121(15) 0.42806(9) 0.71784(12)
C11 C 0.73170(18) 0.47962(10) 0.72028(15)
H8 H 0.7375(19) 0.5118(11) 0.6542(15)
C12 C 0.8414(2) 0.48374(13) 0.81666(18)
H9 H 0.923(3) 0.5193(15) 0.8149(18)
C13 C 0.8312(2) 0.43725(14) 0.91032(18)
H10 H 0.910(2) 0.4398(14) 0.9777(18)
C14 C 0.7119(2) 0.38647(14) 0.90927(16)
H11 H 0.706(2) 0.3533(14) 0.9733(19)
C15 C 0.6015(2) 0.38193(11) 0.81334(14)
H12 H 0.514(2) 0.3470(12) 0.8105(15)
C16 C 0.23694(15) 0.57495(9) 0.66766(12)
C17 C 0.2187(2) 0.62261(11) 0.75961(15)
H13 H 0.295(2) 0.6221(11) 0.8248(16)
C18 C 0.0918(2) 0.66847(12) 0.75549(17)
H14 H 0.085(2) 0.6998(13) 0.8201(16)
C19 C -0.0187(2) 0.66740(11) 0.66033(17)
H15 H -0.109(2) 0.6990(12) 0.6586(15)
C20 C 0.0002(2) 0.62066(11) 0.56878(16)
H16 H -0.075(2) 0.6205(12) 0.5033(16)
C21 C 0.12703(18) 0.57462(10) 0.57103(14)
H17 H 0.1367(18) 0.5430(11) 0.5072(15)
#END
