
#######################################################################
#
#                 Cambridge Crystallographic Data Centre
#                                CCDC
#
#######################################################################
#
# If this CIF has been generated from an entry in the Cambridge
# Structural Database, then it will include bibliographic, chemical,
# crystal, experimental, refinement or atomic coordinate data resulting
# from the CCDC's data processing and validation procedures.
#
#######################################################################

data_CSD_CIF_CAGHAU
_audit_creation_date 2002-03-27
_audit_creation_method CSD-ConQuest-V1
_database_code_CSD CAGHAU
_database_code_depnum_ccdc_archive 'CCDC 180057'
_chemical_formula_sum 'C15 H10 N4 O1'
_chemical_formula_moiety
;
C15 H10 N4 O1
;
_journal_coden_Cambridge 392
_journal_volume 55
_journal_year 2001
_journal_page_first 1703
_journal_name_full 'Heterocycles '
loop_
_publ_author_name
"A.R.Katritzky"
"T.Kurz"
"Suoming Zhang"
"M.Voronkov"
"P.J.Steel"
_chemical_name_systematic
;
1-(2-Quinolinyl)benzotriazole-3-N-oxide
;
_chemical_melting_point 489.15
_cell_volume   2442.984
_exptl_crystal_colour 'red'
_exptl_crystal_density_diffrn 1.426
_exptl_crystal_description 'prisms'
_exptl_crystal_preparation 'ethyl acetate/acetone'
_diffrn_ambient_temperature 163
#These two values have been output from a single CSD field.
_refine_ls_R_factor_gt 0.0408
_refine_ls_wR_factor_gt 0.0408
_symmetry_cell_setting monoclinic
_symmetry_space_group_name_H-M 'C 2/c'
_symmetry_Int_Tables_number 15
loop_
_symmetry_equiv_pos_site_id
_symmetry_equiv_pos_as_xyz
1 x,y,z
2 1/2+x,1/2+y,z
3 -x,y,1/2-z
4 1/2-x,1/2+y,1/2-z
5 -x,-y,-z
6 -1/2-x,-1/2-y,-z
7 x,-y,-1/2+z
8 -1/2+x,-1/2-y,-1/2+z
_cell_length_a 11.887(4)
_cell_length_b 9.442(3)
_cell_length_c 21.993(7)
_cell_angle_alpha 90
_cell_angle_beta 98.234(5)
_cell_angle_gamma 90
_cell_formula_units_Z 8
loop_
_atom_type_symbol
_atom_type_radius_bond
C 0.68
H 0.23
N 0.68
O 0.68
loop_
_atom_site_label
_atom_site_type_symbol
_atom_site_fract_x
_atom_site_fract_y
_atom_site_fract_z
N1 N 0.79132(10) -0.05618(13) 0.55247(5)
N2 N 0.71722(10) 0.05180(13) 0.56009(6)
N3 N 0.69251(10) 0.03656(13) 0.61593(6)
O1 O 0.62432(9) 0.11985(12) 0.63864(5)
C1 C 0.74816(12) -0.07833(15) 0.64604(7)
C2 C 0.74849(13) -0.12592(17) 0.70585(7)
H1 H 0.70340 -0.08290 0.73310
C3 C 0.81858(14) -0.23977(17) 0.72304(7)
H2 H 0.82260 -0.27740 0.76340
C4 C 0.88454(13) -0.30103(17) 0.68133(7)
H3 H 0.93260 -0.37840 0.69510
C5 C 0.88300(12) -0.25491(16) 0.62206(7)
H4 H 0.92710 -0.29880 0.59460
C6 C 0.81218(11) -0.13879(15) 0.60473(6)
N4 N 0.89628(10) -0.17895(13) 0.48953(5)
C7 C 0.83890(11) -0.06290(16) 0.49698(7)
C8 C 0.82437(13) 0.05253(16) 0.45563(7)
H5 H 0.78270 0.13430 0.46420
C9 C 0.87205(13) 0.04242(17) 0.40323(7)
H6 H 0.86310 0.11750 0.37420
C10 C 0.93509(12) -0.07967(16) 0.39176(7)
C11 C 0.98951(13) -0.09633(18) 0.33907(7)
H7 H 0.98190 -0.02480 0.30840
C12 C 1.05300(13) -0.21447(19) 0.33192(7)
H8 H 1.08940 -0.22450 0.29640
C13 C 1.06438(13) -0.32097(19) 0.37706(8)
H9 H 1.10860 -0.40270 0.37170
C14 C 1.01288(13) -0.30887(17) 0.42856(7)
H10 H 1.02170 -0.38170 0.45870
C15 C 0.94632(11) -0.18779(16) 0.43714(7)
#END
