
#######################################################################
#
#                 Cambridge Crystallographic Data Centre
#                                CCDC
#
#######################################################################
#
# If this CIF has been generated from an entry in the Cambridge
# Structural Database, then it will include bibliographic, chemical,
# crystal, experimental, refinement or atomic coordinate data resulting
# from the CCDC's data processing and validation procedures.
#
#######################################################################

data_CSD_CIF_CAHOAM
_audit_creation_date 1971-12-31
_audit_creation_method CSD-ConQuest-V1
_database_code_CSD CAHOAM
_database_code_depnum_ccdc_archive 'CCDC 1119388'
_chemical_formula_sum 'C1 H4 N2 O2'
_chemical_formula_moiety
;
C1 H4 N2 O2
;
_journal_coden_Cambridge 3
_journal_volume 22
_journal_year 1968
_journal_page_first 843
_journal_name_full 'Acta Chem.Scand. '
loop_
_publ_author_name
"I.K.Larsen"
_chemical_name_systematic
;
O-Carbamoylhydroxylamine
;
_chemical_melting_point 345.15
_cell_volume    654.996
_exptl_crystal_density_diffrn 1.551
_exptl_special_details
;
Melting point range 345.15-347.15K

;
_diffrn_ambient_temperature ?
_diffrn_special_details
;
The study was carried out at room temperature,in the range 283-303K

;
#These two values have been output from a single CSD field.
_refine_ls_R_factor_gt 0.105
_refine_ls_wR_factor_gt 0.105
_symmetry_cell_setting orthorhombic
_symmetry_space_group_name_H-M 'P b c a'
_symmetry_Int_Tables_number 61
loop_
_symmetry_equiv_pos_site_id
_symmetry_equiv_pos_as_xyz
1 x,y,z
2 1/2-x,-y,1/2+z
3 1/2+x,1/2-y,-z
4 -x,1/2+y,1/2-z
5 -x,-y,-z
6 -1/2+x,y,-1/2-z
7 -1/2-x,-1/2+y,z
8 x,-1/2-y,-1/2+z
_cell_length_a 8.445(17)
_cell_length_b 13.47(3)
_cell_length_c 5.758(12)
_cell_angle_alpha 90
_cell_angle_beta 90
_cell_angle_gamma 90
_cell_formula_units_Z 8
loop_
_atom_type_symbol
_atom_type_radius_bond
C 0.68
H 0.20
N 0.68
O 0.68
loop_
_atom_site_label
_atom_site_type_symbol
_atom_site_fract_x
_atom_site_fract_y
_atom_site_fract_z
C1 C 0.62930 0.10700 -0.54720
H1 H 0.38000 0.25500 -0.50000
H2 H 0.30000 0.13300 -0.37500
H3 H 0.46700 0.10000 -0.80000
H4 H 0.63300 0.03300 -0.85000
N1 N 0.38060 0.17980 -0.49430
N2 N 0.56530 0.06950 -0.73770
O1 O 0.54220 0.16650 -0.41070
O2 O 0.76740 0.09250 -0.48130
#END
