
#######################################################################
#
#                 Cambridge Crystallographic Data Centre
#                                CCDC
#
#######################################################################
#
# If this CIF has been generated from an entry in the Cambridge
# Structural Database, then it will include bibliographic, chemical,
# crystal, experimental, refinement or atomic coordinate data resulting
# from the CCDC's data processing and validation procedures.
#
#######################################################################

data_CSD_CIF_CAJGEB
_audit_creation_date 2012-01-16
_audit_creation_method CSD-ConQuest-V1
_database_code_CSD CAJGEB
_database_code_depnum_ccdc_archive 'CCDC 854899'
_chemical_formula_sum 'C20 H23 N1 O5'
_chemical_formula_moiety
;
C20 H23 N1 O5
;
_journal_coden_Cambridge 4
_journal_volume 133
_journal_year 2011
_journal_page_first 14944
_journal_name_full 'J.Am.Chem.Soc. '
loop_
_publ_author_name
"Hang Shi"
"Lichao Fang"
"Ceheng Tan"
"Lili Shi"
"Weibin Zhang"
"Chuang-chuang Li"
"Tuoping Luo"
"Zhen Yang"
_chemical_name_systematic
;
4-Methylene-3-((4-nitrobenzyl)oxy)decahydronaphtho[1,8a-c]furan-1-one
;
_cell_volume   1820.826
_exptl_crystal_density_diffrn 1.304
_diffrn_ambient_temperature 298
#These two values have been output from a single CSD field.
_refine_ls_R_factor_gt 0.0455
_refine_ls_wR_factor_gt 0.0455
_symmetry_cell_setting monoclinic
_symmetry_space_group_name_H-M 'P 21/c'
_symmetry_Int_Tables_number 14
loop_
_symmetry_equiv_pos_site_id
_symmetry_equiv_pos_as_xyz
1 x,y,z
2 -x,1/2+y,1/2-z
3 -x,-y,-z
4 x,-1/2-y,-1/2+z
_cell_length_a 17.3171(10)
_cell_length_b 8.9956(7)
_cell_length_c 12.4459(8)
_cell_angle_alpha 90
_cell_angle_beta 110.090(1)
_cell_angle_gamma 90
_cell_formula_units_Z 4
loop_
_atom_type_symbol
_atom_type_radius_bond
C 0.68
H 0.23
N 0.68
O 0.68
loop_
_atom_site_label
_atom_site_type_symbol
_atom_site_fract_x
_atom_site_fract_y
_atom_site_fract_z
N1 N -0.14219(14) 0.1602(3) 1.00379(19)
O1 O 0.14242(8) 0.4644(2) 0.86987(12)
O2 O 0.18191(9) 0.4576(2) 0.71101(12)
O3 O 0.22768(11) 0.2681(3) 0.63590(15)
O4 O -0.21553(12) 0.1893(3) 0.97311(18)
O5 O -0.11028(13) 0.0597(3) 1.06989(18)
C1 C -0.09070(13) 0.2477(3) 0.95439(18)
C2 C -0.00913(14) 0.2114(3) 0.98236(19)
H1 H 0.01320 0.13260 1.03160
C3 C 0.03906(13) 0.2932(3) 0.93650(18)
H2 H 0.09430 0.26890 0.95460
C4 C 0.00636(12) 0.4111(3) 0.86378(17)
C5 C -0.07589(13) 0.4455(3) 0.83828(19)
H3 H -0.09850 0.52500 0.79000
C6 C -0.12513(14) 0.3634(4) 0.8834(2)
H4 H -0.18040 0.38680 0.86570
C7 C 0.05780(12) 0.4997(3) 0.81144(19)
H5 H 0.04270 0.47580 0.73080
H6 H 0.04870 0.60520 0.81840
C8 C 0.19729(12) 0.5230(3) 0.82150(17)
H7 H 0.19270 0.63150 0.81590
C9 C 0.28438(12) 0.4759(3) 0.89648(17)
H8 H 0.28420 0.44770 0.97250
C10 C 0.30127(12) 0.3361(3) 0.83511(16)
C11 C 0.23565(13) 0.3445(3) 0.71772(19)
C12 C 0.29015(15) 0.1926(3) 0.8947(2)
H9 H 0.32330 0.19890 0.97520
H10 H 0.23310 0.18470 0.88930
C13 C 0.31381(19) 0.0529(4) 0.8450(3)
H11 H 0.30950 -0.03250 0.89030
H12 H 0.27610 0.03830 0.76750
C14 C 0.40101(18) 0.0643(4) 0.8439(3)
H13 H 0.43920 0.06890 0.92200
H14 H 0.41380 -0.02380 0.80830
C15 C 0.41142(15) 0.1998(3) 0.7798(2)
H15 H 0.37740 0.18990 0.69990
H16 H 0.46830 0.20650 0.78380
C16 C 0.38815(13) 0.3416(3) 0.82749(19)
H17 H 0.42650 0.35070 0.90620
C17 C 0.39988(17) 0.4805(3) 0.7645(2)
H18 H 0.45780 0.49090 0.77520
H19 H 0.37040 0.46770 0.68330
C18 C 0.37022(17) 0.6224(4) 0.8043(3)
H20 H 0.41330 0.69670 0.82150
H21 H 0.32290 0.66050 0.74310
C19 C 0.34713(13) 0.5959(3) 0.9088(2)
C20 C 0.37966(16) 0.6689(4) 1.0047(3)
H22 H 0.36400 0.64690 1.06730
H23 H 0.41840 0.74280 1.01030
#END
