
#######################################################################
#
#                 Cambridge Crystallographic Data Centre
#                                CCDC
#
#######################################################################
#
# If this CIF has been generated from an entry in the Cambridge
# Structural Database, then it will include bibliographic, chemical,
# crystal, experimental, refinement or atomic coordinate data resulting
# from the CCDC's data processing and validation procedures.
#
#######################################################################

data_CSD_CIF_CAJTAI
_audit_creation_date 1984-06-02
_audit_creation_method CSD-ConQuest-V1
_database_code_CSD CAJTAI
_database_code_depnum_ccdc_archive 'CCDC 1119643'
_chemical_formula_sum 'C16 H12 N2 O3'
_chemical_formula_moiety
;
C16 H12 N2 O3
;
_journal_coden_Cambridge 82
_journal_volume 24
_journal_year 1983
_journal_page_first 115-3
_journal_name_full 'Zh.Strukt.Khim.(Russ.)(J.Struct.Chem.) '
loop_
_publ_author_name
"L.A.Aslanov"
"V.A.Tafeenko"
"K.A.Paseshnichenko"
"Yu.G.Bundel"
"S.P.Gromov"
"B.G.Gerasimov"
_chemical_name_systematic
;
3-Acetyl-6-nitro-2-phenyl-indolizine
;
_cell_volume   2718.122
_diffrn_ambient_temperature ?
_diffrn_special_details
;
The study was carried out at room temperature,in the range 283-303K

;
#These two values have been output from a single CSD field.
_refine_ls_R_factor_gt 0.045
_refine_ls_wR_factor_gt 0.045
_symmetry_cell_setting orthorhombic
_symmetry_space_group_name_H-M 'P b c a'
_symmetry_Int_Tables_number 61
loop_
_symmetry_equiv_pos_site_id
_symmetry_equiv_pos_as_xyz
1 x,y,z
2 1/2-x,-y,1/2+z
3 1/2+x,1/2-y,-z
4 -x,1/2+y,1/2-z
5 -x,-y,-z
6 -1/2+x,y,-1/2-z
7 -1/2-x,-1/2+y,z
8 x,-1/2-y,-1/2+z
_cell_length_a 14.270(4)
_cell_length_b 6.538(3)
_cell_length_c 29.134(4)
_cell_angle_alpha 90
_cell_angle_beta 90
_cell_angle_gamma 90
_cell_formula_units_Z 8
loop_
_atom_type_symbol
_atom_type_radius_bond
C 0.68
H 0.23
N 0.68
O 0.68
loop_
_atom_site_label
_atom_site_type_symbol
_atom_site_fract_x
_atom_site_fract_y
_atom_site_fract_z
O1 O -0.13270 0.29150 0.07020
O2 O 0.04510 0.25760 -0.11460
O3 O -0.08370 0.29150 -0.07530
N1 N 0.05510 0.22520 0.04440
N2 N 0.00150 0.26710 -0.07800
C1 C 0.18090 0.18870 0.08960
C2 C 0.10160 0.21050 0.11780
C3 C 0.02290 0.23740 0.09010
C4 C 0.00820 0.24780 0.00390
C5 C 0.05620 0.25450 -0.03620
C6 C 0.15380 0.22820 -0.03780
C7 C 0.19980 0.19660 0.00230
C8 C 0.15230 0.19860 0.04400
C9 C 0.10820 0.20140 0.16890
C10 C 0.14500 0.04390 0.19120
C11 C 0.15370 0.04260 0.23940
C12 C 0.12650 0.22380 0.26360
C13 C 0.09020 0.37560 0.24110
C14 C 0.08220 0.38100 0.19360
C15 C -0.07690 0.25290 0.10000
C16 C -0.11230 0.20480 0.14780
H1 H 0.19000 0.20000 -0.07000
H2 H 0.28000 0.18000 0.01000
H3 H 0.16000 -0.05000 0.17000
#END
