
#######################################################################
#
#                 Cambridge Crystallographic Data Centre
#                                CCDC
#
#######################################################################
#
# If this CIF has been generated from an entry in the Cambridge
# Structural Database, then it will include bibliographic, chemical,
# crystal, experimental, refinement or atomic coordinate data resulting
# from the CCDC's data processing and validation procedures.
#
#######################################################################

data_CSD_CIF_CAJYES
_audit_creation_date 2002-10-01
_audit_creation_method CSD-ConQuest-V1
_database_code_CSD CAJYES
_database_code_depnum_ccdc_archive 'CCDC 155008'
_chemical_formula_sum 'C22 H12 N2 O4'
_chemical_formula_moiety
;
C22 H12 N2 O4
;
_journal_coden_Cambridge 16
_journal_volume 57
_journal_year 2001
_journal_page_first 3445
_journal_name_full 'Tetrahedron '
loop_
_publ_author_name
"P.Supsana"
"P.G.Tsoungas"
"A.Aubry"
"S.Skoulika"
"G.Varvounis"
_chemical_name_systematic
;
(+-)-Spiro(naphthalene-1(2H),4'-(naphtho 
(2',1':2,3)pyrano(4,5-c)furazan))-2-one-11'-oxide
;
_chemical_melting_point 484.15
_cell_volume   1671.805
_exptl_crystal_colour 'yellow'
_exptl_crystal_density_diffrn 1.463
_exptl_special_details
;
Melting point range 484.15-487.15K

;
_exptl_crystal_description 'prism'
_diffrn_ambient_temperature 293
#These two values have been output from a single CSD field.
_refine_ls_R_factor_gt 0.0449
_refine_ls_wR_factor_gt 0.0449
_symmetry_cell_setting monoclinic
_symmetry_space_group_name_H-M 'P 21/c'
_symmetry_Int_Tables_number 14
loop_
_symmetry_equiv_pos_site_id
_symmetry_equiv_pos_as_xyz
1 x,y,z
2 x,1/2-y,1/2+z
3 -x,-y,-z
4 -x,-1/2+y,-1/2-z
_cell_length_a 9.3953(4)
_cell_length_b 13.9612(5)
_cell_length_c 12.7471(5)
_cell_angle_alpha 90
_cell_angle_beta 90.945(10)
_cell_angle_gamma 90
_cell_formula_units_Z 4
loop_
_atom_type_symbol
_atom_type_radius_bond
C 0.68
H 0.23
N 0.68
O 0.68
loop_
_atom_site_label
_atom_site_type_symbol
_atom_site_fract_x
_atom_site_fract_y
_atom_site_fract_z
C1 C 0.8485(2) 0.10451(13) 0.53632(15)
C2 C 0.7503(2) 0.06545(13) 0.60908(15)
C3 C 0.7379(2) 0.10585(13) 0.70757(15)
C4 C 0.6607(2) -0.01756(13) 0.59014(15)
O1 O 0.54639(15) -0.13919(10) 0.52626(11)
C5 C 0.8173(2) 0.18777(15) 0.73593(17)
H1 H 0.800(2) 0.2169(14) 0.8016(15)
C6 C 0.9291(2) 0.18609(14) 0.56698(16)
C7 C 0.5798(2) -0.05458(14) 0.67197(16)
C8 C 0.4278(2) -0.00169(14) 0.81926(15)
C9 C 0.5782(2) -0.01685(13) 0.78186(15)
C10 C 0.8737(2) 0.06475(15) 0.43609(16)
H2 H 0.819(2) 0.0104(14) 0.4157(15)
N1 N 0.5095(2) -0.12927(13) 0.63689(14)
C11 C 0.9085(2) 0.22658(15) 0.66731(17)
H3 H 0.966(2) 0.2856(14) 0.6870(14)
C12 C 1.0319(2) 0.22369(17) 0.49795(19)
H4 H 1.084(2) 0.2833(15) 0.5195(15)
C13 C 0.9752(2) 0.10203(17) 0.37266(18)
H5 H 0.989(2) 0.0685(14) 0.3075(17)
C14 C 1.0553(3) 0.18173(17) 0.40346(18)
H6 H 1.130(2) 0.2080(14) 0.3560(16)
C15 C 0.3714(2) -0.06330(16) 0.89457(17)
C16 C 0.3455(3) 0.07075(17) 0.77624(19)
H7 H 0.392(2) 0.1162(15) 0.7236(17)
C17 C 0.1496(3) 0.0198(3) 0.8818(3)
H8 H 0.054(3) 0.0292(17) 0.901(2)
C18 C 0.2317(3) -0.0508(2) 0.9249(2)
H9 H 0.190(3) -0.0942(18) 0.9788(19)
C19 C 0.4595(3) -0.13754(18) 0.9411(2)
H10 H 0.408(3) -0.1810(16) 0.9894(18)
C20 C 0.2038(3) 0.0806(2) 0.8084(3)
H11 H 0.159(3) 0.1305(18) 0.7733(19)
C21 C 0.5957(3) -0.14816(18) 0.9210(2)
H12 H 0.650(3) -0.1939(17) 0.9513(19)
O2 O 0.42834(19) -0.18895(11) 0.67360(13)
O3 O 0.64741(15) 0.07486(9) 0.78397(10)
N2 N 0.64208(18) -0.06676(12) 0.50265(13)
O4 O 0.79668(18) -0.08772(13) 0.83847(13)
C22 C 0.6689(3) -0.08664(15) 0.85010(16)
#END
