
#######################################################################
#
#                 Cambridge Crystallographic Data Centre
#                                CCDC
#
#######################################################################
#
# If this CIF has been generated from an entry in the Cambridge
# Structural Database, then it will include bibliographic, chemical,
# crystal, experimental, refinement or atomic coordinate data resulting
# from the CCDC's data processing and validation procedures.
#
#######################################################################

data_CSD_CIF_CALKOQ
_audit_creation_date 2002-10-01
_audit_creation_method CSD-ConQuest-V1
_database_code_CSD CALKOQ
_database_code_depnum_ccdc_archive 'CCDC 189783'
_database_code_depnum_ccdc_journal 1135/109
_chemical_formula_sum 'C5 H10 N2 O2'
_chemical_formula_moiety
;
C5 H10 N2 O2
;
_journal_coden_Cambridge 1135
_journal_year 2002
_journal_page_first 85
_journal_name_full 'Mendeleev Commun. '
loop_
_publ_author_name
"I.V.Vystorop"
"K.A.Lyssenko"
"R.G.Kostyanovsky"
_chemical_name_systematic
;
(1R*,3S*)-3-Hydroxy-2,2-dimethylimidazolidin-4-one
;
_chemical_melting_point 450.15
_cell_volume    654.556
_exptl_crystal_colour 'colorless'
_exptl_crystal_density_diffrn 1.321
_exptl_special_details
;
Melts with decomposition.
Temperature given as 293 K in the supplementary data
;
_exptl_crystal_description 'prism'
_exptl_crystal_preparation 'acetone'
_diffrn_ambient_temperature 120
#These two values have been output from a single CSD field.
_refine_ls_R_factor_gt 0.0532
_refine_ls_wR_factor_gt 0.0532
_symmetry_cell_setting orthorhombic
_symmetry_space_group_name_H-M 'P 21 21 21'
_symmetry_Int_Tables_number 19
loop_
_symmetry_equiv_pos_site_id
_symmetry_equiv_pos_as_xyz
1 x,y,z
2 1/2-x,-y,1/2+z
3 -x,1/2+y,1/2-z
4 1/2+x,1/2-y,-z
_cell_length_a 7.1099(9)
_cell_length_b 9.4282(11)
_cell_length_c 9.7646(10)
_cell_angle_alpha 90
_cell_angle_beta 90
_cell_angle_gamma 90
_cell_formula_units_Z 4
loop_
_atom_type_symbol
_atom_type_radius_bond
C 0.68
H 0.23
N 0.68
O 0.68
loop_
_atom_site_label
_atom_site_type_symbol
_atom_site_fract_x
_atom_site_fract_y
_atom_site_fract_z
O1 O -0.2365(3) 0.68088(18) 0.32410(19)
H1 H -0.292(6) 0.628(5) 0.415(5)
N1 N -0.1408(3) 0.4200(2) 0.0645(2)
H2 H -0.135(4) 0.339(3) 0.111(3)
O2 O 0.1482(3) 0.64747(17) 0.2691(2)
C1 C -0.2774(4) 0.5149(2) 0.1316(3)
N2 N -0.1585(3) 0.5751(2) 0.2421(2)
C2 C 0.0251(4) 0.5803(3) 0.2099(3)
C3 C 0.0475(4) 0.4856(3) 0.0860(3)
H3 H 0.143(4) 0.412(3) 0.099(3)
H4 H 0.076(5) 0.547(4) 0.010(4)
C4 C -0.3438(5) 0.6328(3) 0.0366(3)
H5 H -0.230(5) 0.679(3) 0.000(4)
H6 H -0.428(5) 0.590(3) -0.033(4)
H7 H -0.418(5) 0.699(3) 0.091(3)
C5 C -0.4416(4) 0.4305(3) 0.1900(3)
H8 H -0.530(4) 0.494(3) 0.231(3)
H9 H -0.503(5) 0.384(4) 0.108(4)
H10 H -0.387(4) 0.360(3) 0.252(3)
#END
