
#######################################################################
#
#                 Cambridge Crystallographic Data Centre
#                                CCDC
#
#######################################################################
#
# If this CIF has been generated from an entry in the Cambridge
# Structural Database, then it will include bibliographic, chemical,
# crystal, experimental, refinement or atomic coordinate data resulting
# from the CCDC's data processing and validation procedures.
#
#######################################################################

data_CSD_CIF_CALKIK
_audit_creation_date 2002-10-01
_audit_creation_method CSD-ConQuest-V1
_database_code_CSD CALKIK
_database_code_depnum_ccdc_archive 'CCDC 181869'
_database_code_depnum_ccdc_journal 1135/108
_chemical_formula_sum 'C12 H20 N2 O2'
_chemical_formula_moiety
;
C12 H20 N2 O2
;
_journal_coden_Cambridge 1135
_journal_year 2002
_journal_page_first 88
_journal_name_full 'Mendeleev Commun. '
loop_
_publ_author_name
"A.M.Agafontsev"
"T.V.Rybalova"
"Y.V.Gatilov"
"A.V.Tkachev"
_chemical_name_systematic
;
(1S,5S)-1-Isopropyl-3,5-dimethyl-2-oxa-4-azabicyclo(3.3.1)non-3-en-6-one 
(E)-oxime
;
_chemical_melting_point 489.15
_cell_volume   1252.977
_exptl_crystal_colour 'colorless'
_exptl_crystal_density_diffrn 1.189
_exptl_special_details
;
Melting point range 489.15-493.15K

;
_exptl_crystal_description 'parallelepiped'
_exptl_crystal_preparation 'acetonitrile'
_diffrn_ambient_temperature 296
#These two values have been output from a single CSD field.
_refine_ls_R_factor_gt 0.0352
_refine_ls_wR_factor_gt 0.0352
_symmetry_cell_setting orthorhombic
_symmetry_space_group_name_H-M 'P 21 21 21'
_symmetry_Int_Tables_number 19
loop_
_symmetry_equiv_pos_site_id
_symmetry_equiv_pos_as_xyz
1 x,y,z
2 1/2-x,-y,1/2+z
3 -x,1/2+y,1/2-z
4 1/2+x,1/2-y,-z
_cell_length_a 7.0504(11)
_cell_length_b 10.6705(19)
_cell_length_c 16.655(3)
_cell_angle_alpha 90
_cell_angle_beta 90
_cell_angle_gamma 90
_cell_formula_units_Z 4
loop_
_atom_type_symbol
_atom_type_radius_bond
C 0.68
H 0.23
N 0.68
O 0.68
loop_
_atom_site_label
_atom_site_type_symbol
_atom_site_fract_x
_atom_site_fract_y
_atom_site_fract_z
C1 C 0.7407(3) 0.0101(2) 0.50925(11)
O1 O 0.8327(2) 0.09911(14) 0.56410(8)
C2 C 0.7501(3) 0.12748(19) 0.63512(11)
N1 N 0.5996(3) 0.08029(15) 0.66399(9)
C3 C 0.5032(3) -0.01922(19) 0.61789(11)
C4 C 0.5988(3) -0.14163(19) 0.64146(11)
O2 O 0.6176(3) -0.31620(15) 0.71396(11)
H1 H 0.551(6) -0.358(3) 0.751(2)
N2 N 0.5112(3) -0.21174(16) 0.69034(10)
C5 C 0.7981(3) -0.1631(2) 0.61149(13)
H2 H 0.894(4) -0.110(2) 0.6492(15)
H3 H 0.822(5) -0.247(3) 0.6144(16)
C6 C 0.8270(3) -0.1187(2) 0.52446(13)
H4 H 0.755(4) -0.171(2) 0.4869(15)
H5 H 0.962(5) -0.115(3) 0.5147(15)
C7 C 0.5299(3) 0.0062(2) 0.52822(12)
H6 H 0.460(4) -0.054(2) 0.4978(13)
H7 H 0.473(5) 0.090(3) 0.5137(16)
C8 C 0.7806(4) 0.0645(2) 0.42509(13)
H8 H 0.727(4) 0.151(2) 0.4253(15)
C9 C 0.6864(5) -0.0111(3) 0.35846(15)
H9 H 0.739(5) -0.092(3) 0.3581(17)
H10 H 0.708(6) 0.027(3) 0.306(3)
H11 H 0.544(6) -0.018(3) 0.3675(19)
C10 C 0.9927(5) 0.0813(3) 0.40787(17)
H12 H 1.058(6) 0.139(3) 0.455(2)
H13 H 1.045(5) 0.003(3) 0.4023(19)
H14 H 0.993(6) 0.123(3) 0.355(2)
C11 C 0.8620(4) 0.2239(2) 0.67885(15)
H15 H 0.879(6) 0.287(3) 0.643(2)
H16 H 0.792(5) 0.261(3) 0.7248(19)
H17 H 0.981(6) 0.183(3) 0.697(2)
C12 C 0.2925(3) -0.0172(3) 0.63922(16)
H18 H 0.279(5) -0.018(3) 0.701(2)
H19 H 0.238(4) 0.059(3) 0.6221(17)
H20 H 0.227(5) -0.093(3) 0.6142(17)
#END
