
#######################################################################
#
#                 Cambridge Crystallographic Data Centre
#                                CCDC
#
#######################################################################
#
# If this CIF has been generated from an entry in the Cambridge
# Structural Database, then it will include bibliographic, chemical,
# crystal, experimental, refinement or atomic coordinate data resulting
# from the CCDC's data processing and validation procedures.
#
#######################################################################

data_CSD_CIF_CANXIA
_audit_creation_date 2012-08-21
_audit_creation_method CSD-ConQuest-V1
_database_code_CSD CANXIA
_database_code_depnum_ccdc_archive 'CCDC 851948'
_chemical_formula_sum 'C6 H12 N2 O8'
_chemical_formula_moiety
;
C6 H12 N2 O8
;
_journal_coden_Cambridge 603
_journal_volume 31
_journal_year 2012
_journal_page_first 415
_journal_name_full 'Jiegou Huaxue(Chin.)(Chin.J.Struct.Chem.) '
loop_
_publ_author_name
"Fu-Qiang Bi"
"Bo-Zhou Wang"
"Xue-Zhong Fan"
"Cheng Xu"
"Zhong-Xue Ge"
"Qing Liu"
"Guo-Fang Zhang"
_chemical_name_systematic
;
2,3-bis(hydroxymethyl)-2,3-dinitrobutane-1,4-diol
;
_chemical_melting_point 424
_cell_volume    235.972
_exptl_crystal_colour 'colorless'
_exptl_crystal_density_diffrn 1.69
_diffrn_ambient_temperature 296
#These two values have been output from a single CSD field.
_refine_ls_R_factor_gt 0.0304
_refine_ls_wR_factor_gt 0.0304
_symmetry_cell_setting triclinic
_symmetry_space_group_name_H-M 'P 1'
_symmetry_Int_Tables_number 1
loop_
_symmetry_equiv_pos_site_id
_symmetry_equiv_pos_as_xyz
1 x,y,z
_cell_length_a 6.324(2)
_cell_length_b 6.454(3)
_cell_length_c 7.062(3)
_cell_angle_alpha 111.550(4)
_cell_angle_beta 95.505(4)
_cell_angle_gamma 113.395(4)
_cell_formula_units_Z 1
loop_
_atom_type_symbol
_atom_type_radius_bond
C 0.68
H 0.23
N 0.68
O 0.68
loop_
_atom_site_label
_atom_site_type_symbol
_atom_site_fract_x
_atom_site_fract_y
_atom_site_fract_z
N1 N 0.5387(3) 0.8821(3) 1.1060(3)
N2 N 0.4684(3) 0.3881(3) 0.7867(3)
O1 O 0.5129(4) 1.0682(3) 1.1686(3)
O2 O 0.7180(3) 0.8757(4) 1.0567(3)
O3 O 0.5208(4) 0.4357(4) 0.6406(3)
O4 O 0.5674(3) 0.3045(3) 0.8729(3)
O5 O 0.2450(3) 0.7158(3) 0.7174(2)
H1 H 0.33940 0.72290 0.64510
O6 O 0.0203(3) -0.0292(3) 0.6370(2)
H2 H 0.07940 -0.12160 0.63710
O7 O 0.0093(3) 0.5111(4) 1.2407(3)
H3 H -0.10620 0.39030 1.14310
O8 O 0.5448(3) 0.7965(3) 1.4607(2)
H4 H 0.68990 0.85930 1.51290
C1 C 0.1241(3) 0.4671(4) 0.6966(3)
H5 H 0.10550 0.34940 0.55480
H6 H -0.03530 0.43320 0.71240
C2 C 0.2546(3) 0.4207(3) 0.8590(3)
C3 C 0.0868(4) 0.1611(4) 0.8461(3)
H7 H 0.16870 0.12670 0.94490
H8 H -0.05580 0.16280 0.88480
C4 C 0.1401(4) 0.6849(5) 1.1668(4)
H9 H 0.20800 0.85480 1.27970
H10 H 0.03310 0.67110 1.04970
C5 C 0.3447(3) 0.6331(3) 1.0922(3)
C6 C 0.4728(4) 0.5885(4) 1.2593(3)
H11 H 0.36480 0.43380 1.26240
H12 H 0.61220 0.57350 1.22380
#END
