
#######################################################################
#
#                 Cambridge Crystallographic Data Centre
#                                CCDC
#
#######################################################################
#
# If this CIF has been generated from an entry in the Cambridge
# Structural Database, then it will include bibliographic, chemical,
# crystal, experimental, refinement or atomic coordinate data resulting
# from the CCDC's data processing and validation procedures.
#
#######################################################################

data_CSD_CIF_CAQLOV
_audit_creation_date 2000-01-21
_audit_creation_method CSD-ConQuest-V1
_database_code_CSD CAQLOV
_database_code_depnum_ccdc_archive 'CCDC 118835'
_database_code_depnum_ccdc_journal 1003/5527
_chemical_formula_sum 'C14 H16 N2 O9'
_chemical_formula_moiety
;
C14 H16 N2 O9
;
_journal_coden_Cambridge 1003
_journal_volume 29
_journal_year 1999
_journal_page_first 335
_journal_name_full 'J.Chem.Cryst. '
loop_
_publ_author_name
"C.E.Mowbray"
"W.Skranc"
"J.D.Wallis"
_chemical_name_systematic
;
Diethyl (2',6'-dinitrophenyl)methyltartronate
;
_chemical_melting_point 355.65
_cell_volume    815.642
_exptl_crystal_colour 'colorless'
_exptl_crystal_density_diffrn 1.451
_exptl_special_details
;
Melting point range 355.65-356.65K

;
_exptl_crystal_description 'prisms'
_exptl_crystal_preparation 'hexane/ethyl acetate'
_diffrn_ambient_temperature 150
#These two values have been output from a single CSD field.
_refine_ls_R_factor_gt 0.0634
_refine_ls_wR_factor_gt 0.0634
_symmetry_cell_setting triclinic
_symmetry_space_group_name_H-M 'P -1'
_symmetry_Int_Tables_number 2
loop_
_symmetry_equiv_pos_site_id
_symmetry_equiv_pos_as_xyz
1 x,y,z
2 -x,-y,-z
_cell_length_a 7.786(2)
_cell_length_b 10.324(2)
_cell_length_c 11.155(4)
_cell_angle_alpha 71.43(2)
_cell_angle_beta 77.21(2)
_cell_angle_gamma 76.40(3)
_cell_formula_units_Z 2
loop_
_atom_type_symbol
_atom_type_radius_bond
C 0.68
H 0.23
N 0.68
O 0.68
loop_
_atom_site_label
_atom_site_type_symbol
_atom_site_fract_x
_atom_site_fract_y
_atom_site_fract_z
O1 O 0.6929(3) 0.5380(2) 0.0616(2)
O2 O 0.8215(2) 0.7164(2) 0.0158(2)
O3 O 0.6838(2) 0.5987(2) 0.3163(2)
O4 O 0.8904(2) 0.8095(2) 0.3775(2)
O5 O 0.7701(2) 0.6419(2) 0.5344(2)
O6 O 0.3714(2) 0.6427(2) 0.4722(2)
O7 O 0.4152(2) 0.8522(2) 0.4679(2)
O8 O 0.3863(2) 1.1090(2) 0.2077(2)
O9 O 0.1298(2) 1.0477(2) 0.2926(2)
N1 N 0.6901(3) 0.6594(2) 0.0529(2)
N2 N 0.2771(3) 1.0331(2) 0.2269(2)
C1 C 0.4934(3) 0.8419(3) 0.1510(2)
C2 C 0.5129(3) 0.7463(3) 0.0816(2)
C3 C 0.3771(4) 0.7272(3) 0.0311(3)
C4 C 0.2083(4) 0.8074(3) 0.0485(3)
C5 C 0.1799(4) 0.9049(3) 0.1138(2)
C6 C 0.3212(3) 0.9213(3) 0.1624(2)
C7 C 0.6367(3) 0.8450(3) 0.2223(2)
C8 C 0.6397(3) 0.7254(2) 0.3472(2)
C9 C 0.7830(3) 0.7333(2) 0.4199(2)
C10 C 0.8988(4) 0.6320(3) 0.6167(3)
C11 C 0.8551(5) 0.5243(4) 0.7394(3)
C12 C 0.4579(3) 0.7339(2) 0.4367(2)
C13 C 0.2494(4) 0.8682(3) 0.5619(3)
C14 C 0.2834(5) 0.7848(4) 0.6948(3)
H1 H 0.6498(40) 0.5366(33) 0.3803(33)
H2 H 0.4006(37) 0.6577(33) -0.0185(31)
H3 H 0.1177(37) 0.7898(29) 0.0114(28)
H4 H 0.0620(37) 0.9636(28) 0.1230(25)
H5 H 0.7479(33) 0.8348(25) 0.1701(25)
H6 H 0.6191(26) 0.9376(24) 0.2416(21)
H7 H 0.8874(35) 0.7289(33) 0.6252(27)
H8 H 1.0124(41) 0.6082(32) 0.5707(31)
H9 H 0.9335(44) 0.5195(34) 0.8054(35)
H10 H 0.7466(50) 0.5523(36) 0.7788(35)
H11 H 0.8569(44) 0.4321(40) 0.7230(35)
H12 H 0.2223(36) 0.9715(34) 0.5556(28)
H13 H 0.1535(34) 0.8348(26) 0.5350(24)
H14 H 0.3718(50) 0.8049(36) 0.7165(36)
H15 H 0.1790(48) 0.7928(36) 0.7549(36)
H16 H 0.3007(47) 0.6852(42) 0.7030(37)
#END
