
#######################################################################
#
#                 Cambridge Crystallographic Data Centre
#                                CCDC
#
#######################################################################
#
# If this CIF has been generated from an entry in the Cambridge
# Structural Database, then it will include bibliographic, chemical,
# crystal, experimental, refinement or atomic coordinate data resulting
# from the CCDC's data processing and validation procedures.
#
#######################################################################

data_CSD_CIF_CAQLIP
_audit_creation_date 2000-01-21
_audit_creation_method CSD-ConQuest-V1
_database_code_CSD CAQLIP
_database_code_depnum_ccdc_archive 'CCDC 118834'
_database_code_depnum_ccdc_journal 1003/5526
_chemical_formula_sum 'C15 H16 N2 O7'
_chemical_formula_moiety
;
C15 H16 N2 O7
;
_journal_coden_Cambridge 1003
_journal_volume 29
_journal_year 1999
_journal_page_first 335
_journal_name_full 'J.Chem.Cryst. '
loop_
_publ_author_name
"C.E.Mowbray"
"W.Skranc"
"J.D.Wallis"
_chemical_name_systematic
;
Diethyl cyano(2'-nitrophenyl)methyltartronate
;
_chemical_melting_point 343.15
_cell_volume    812.052
_exptl_crystal_colour 'colorless'
_exptl_crystal_density_diffrn 1.375
_exptl_special_details
;
Melting point range 343.15-344.15K

;
_exptl_crystal_description 'prisms'
_exptl_crystal_preparation 'ethanol/water'
_diffrn_ambient_temperature 150
#These two values have been output from a single CSD field.
_refine_ls_R_factor_gt 0.0623
_refine_ls_wR_factor_gt 0.0623
_symmetry_cell_setting triclinic
_symmetry_space_group_name_H-M 'P -1'
_symmetry_Int_Tables_number 2
loop_
_symmetry_equiv_pos_site_id
_symmetry_equiv_pos_as_xyz
1 x,y,z
2 -x,-y,-z
_cell_length_a 7.668(2)
_cell_length_b 7.961(3)
_cell_length_c 15.244(3)
_cell_angle_alpha 86.78(1)
_cell_angle_beta 81.560(15)
_cell_angle_gamma 61.920(14)
_cell_formula_units_Z 2
loop_
_atom_type_symbol
_atom_type_radius_bond
C 0.68
H 0.23
N 0.68
O 0.68
loop_
_atom_site_label
_atom_site_type_symbol
_atom_site_fract_x
_atom_site_fract_y
_atom_site_fract_z
O1 O 0.2958(5) 0.5091(4) -0.9172(2)
O2 O 0.0245(4) 0.5587(3) -0.8331(2)
O3 O 0.3374(3) 0.1993(3) -0.73612(13)
O4 O -0.0460(3) 0.2619(3) -0.58974(13)
O5 O 0.2654(3) 0.0629(3) -0.56240(12)
O6 O 0.5183(3) -0.1831(3) -0.75260(13)
O7 O 0.2325(3) -0.1919(2) -0.69785(12)
N1 N 0.1680(5) 0.4628(4) -0.8882(2)
N2 N -0.2352(4) 0.1015(4) -0.7411(2)
C1 C 0.1331(4) 0.1629(4) -0.8709(2)
C2 C 0.1867(4) 0.2861(4) -0.9244(2)
C3 C 0.2610(5) 0.2483(5) -1.0131(2)
C4 C 0.2843(5) 0.0852(6) -1.0522(2)
C5 C 0.2408(5) -0.0428(6) -1.0009(2)
C6 C 0.1662(4) -0.0038(4) -0.9117(2)
C7 C 0.0489(4) 0.1988(4) -0.7728(2)
C8 C 0.2183(4) 0.1095(4) -0.7122(2)
C9 C -0.1081(4) 0.1391(4) -0.7526(2)
C10 C 0.1256(4) 0.1565(4) -0.6142(2)
C11 C 0.2039(6) 0.0864(5) -0.4658(2)
C12 C 0.2100(8) 0.2521(6) -0.4304(3)
C13 C 0.3443(4) -0.1067(4) -0.7244(2)
C14 C 0.3344(6) -0.4023(4) -0.6979(2)
C15 C 0.4189(7) -0.4729(6) -0.6135(3)
H1 H 0.4568(48) 0.1218(43) -0.7342(20)
H2 H 0.2936(44) 0.3373(44) -1.0412(21)
H3 H 0.3274(55) 0.0714(51) -1.1123(27)
H4 H 0.2676(46) -0.1612(49) -1.0263(23)
H5 H 0.1249(41) -0.0886(39) -0.8747(19)
H6 H -0.0132(36) 0.3269(40) -0.7623(16)
H7 H 0.3112(56) -0.0389(58) -0.4419(25)
H8 H 0.0651(55) 0.1085(48) -0.4544(23)
H9 H 0.1097(58) 0.3630(56) -0.4522(26)
H10 H 0.1792(55) 0.2571(53) -0.3663(30)
H11 H 0.3370(76) 0.2370(63) -0.4419(30)
H12 H 0.4446(59) -0.4351(53) -0.7503(27)
H13 H 0.2385(54) -0.4432(53) -0.7012(24)
H14 H 0.5300(71) -0.4586(66) -0.6033(31)
H15 H 0.4674(55) -0.6109(64) -0.6029(26)
H16 H 0.3052(71) -0.4235(65) -0.5635(32)
#END
