
#######################################################################
#
#                 Cambridge Crystallographic Data Centre
#                                CCDC
#
#######################################################################
#
# If this CIF has been generated from an entry in the Cambridge
# Structural Database, then it will include bibliographic, chemical,
# crystal, experimental, refinement or atomic coordinate data resulting
# from the CCDC's data processing and validation procedures.
#
#######################################################################

data_CSD_CIF_CARVOX01
_audit_creation_date 1976-05-27
_audit_creation_method CSD-ConQuest-V1
_database_code_CSD CARVOX01
_chemical_formula_sum 'C10 H15 N1 O1'
_chemical_formula_moiety
;
C10 H15 N1 O1
;
_journal_coeditor_code "IUCr A13144"
_journal_coden_Cambridge 107
_journal_volume 32
_journal_year 1976
_journal_page_first 500
_journal_name_full 'Acta Crystallogr.,Sect.B:Struct.Crystallogr.Cryst.Chem. '
loop_
_publ_author_name
"H.A.J.Oonk"
"J.Kroon"
_chemical_name_systematic
;
DL-Carvoxime
;
_chemical_melting_point 365.15
_cell_volume    978.186
_exptl_crystal_density_diffrn 1.122
_diffrn_ambient_temperature ?
_diffrn_special_details
;
The study was carried out at room temperature,in the range 283-303K

;
#These two values have been output from a single CSD field.
_refine_ls_R_factor_gt 0.057
_refine_ls_wR_factor_gt 0.057
loop_
_citation_database_id_CSD
_citation_special_details
LCARVX "is a stereoisomer of this entry"
_symmetry_cell_setting monoclinic
_symmetry_space_group_name_H-M 'P 21/c'
_symmetry_Int_Tables_number 14
loop_
_symmetry_equiv_pos_site_id
_symmetry_equiv_pos_as_xyz
1 x,y,z
2 -x,1/2+y,1/2-z
3 -x,-y,-z
4 x,-1/2-y,-1/2+z
_cell_length_a 9.856(3)
_cell_length_b 11.848(3)
_cell_length_c 8.480(3)
_cell_angle_alpha 90
_cell_angle_beta 98.95(5)
_cell_angle_gamma 90
_cell_formula_units_Z 4
loop_
_atom_type_symbol
_atom_type_radius_bond
C 0.68
H 0.23
N 0.68
O 0.68
loop_
_atom_site_label
_atom_site_type_symbol
_atom_site_fract_x
_atom_site_fract_y
_atom_site_fract_z
C1 C -0.46820 0.20280 0.39140
C2 C -0.06780 0.00040 0.76680
C3 C -0.37980 0.29100 0.47220
C4 C -0.23530 0.26170 0.54520
C5 C -0.22240 0.14030 0.60140
C6 C -0.28110 0.06110 0.46820
C7 C -0.42000 0.09840 0.38700
C8 C -0.60880 0.23470 0.30730
C9 C -0.07830 0.10740 0.67720
C10 C 0.03050 0.16810 0.66210
H1 H -0.39000 0.52700 0.55400
H2 H -0.13900 -0.00500 0.85100
H3 H 0.02200 -0.00500 0.82900
H4 H -0.07900 -0.06800 0.67400
H5 H -0.20300 0.31000 0.63300
H6 H -0.17400 0.27500 0.45600
H7 H -0.28500 0.13000 0.69300
H8 H -0.28500 -0.01200 0.50600
H9 H -0.21600 0.06000 0.38000
H10 H -0.47400 0.04100 0.32200
H11 H -0.60300 0.29400 0.23200
H12 H -0.65300 0.17200 0.24800
H13 H -0.66500 0.25900 0.37900
H14 H 0.03400 0.24100 0.61600
H15 H 0.10800 0.14200 0.71300
N1 N -0.43120 0.39070 0.47190
O1 O -0.33640 0.47160 0.54410
#END
