
#######################################################################
#
#                 Cambridge Crystallographic Data Centre
#                                CCDC
#
#######################################################################
#
# If this CIF has been generated from an entry in the Cambridge
# Structural Database, then it will include bibliographic, chemical,
# crystal, experimental, refinement or atomic coordinate data resulting
# from the CCDC's data processing and validation procedures.
#
#######################################################################

data_CSD_CIF_CASBOQ01
_audit_creation_date 2017-05-24
_audit_creation_method CSD-ConQuest-V1
_database_code_CSD CASBOQ01
_database_code_depnum_ccdc_archive 'CCDC 1506999'
_chemical_formula_sum 'C4 H3 N7 O2'
_chemical_formula_moiety
;
C4 H3 N7 O2
;
_journal_coden_Cambridge 122
_journal_volume 52
_journal_year 2016
_journal_page_first 1025
_journal_name_full 'Khim.Get.Soedin.,SSSR(Russ.)(Chem.Heterocycl.Compd.) '
loop_
_publ_author_name
"I.L.Dalinger"
"A.V.Kormanov"
"I.A.Vatsadze"
"O.V.Serushkina"
"T.K.Shkineva"
"K.Yu.Suponitsky"
"A.N.Pivkina"
"A.B.Sheremetev"
_chemical_name_systematic
;
1-(4-nitro-1H-pyrazol-3-yl)-1H-tetrazole
;
_cell_volume    679.902
_exptl_crystal_colour 'pale yellow'
_exptl_crystal_density_diffrn 1.77
_exptl_crystal_description 'prism'
_diffrn_ambient_temperature 298
#These two values have been output from a single CSD field.
_refine_ls_R_factor_gt 0.0362
_refine_ls_wR_factor_gt 0.0362
_symmetry_cell_setting monoclinic
_symmetry_space_group_name_H-M 'P 21/c'
_symmetry_Int_Tables_number 14
loop_
_symmetry_equiv_pos_site_id
_symmetry_equiv_pos_as_xyz
1 x,y,z
2 -x,1/2+y,1/2-z
3 -x,-y,-z
4 x,-1/2-y,-1/2+z
_cell_length_a 8.8611(6)
_cell_length_b 9.6843(6)
_cell_length_c 8.8746(6)
_cell_angle_alpha 90
_cell_angle_beta 116.776(1)
_cell_angle_gamma 90
_cell_formula_units_Z 4
loop_
_atom_type_symbol
_atom_type_radius_bond
C 0.68
H 0.23
N 0.68
O 0.68
loop_
_atom_site_label
_atom_site_type_symbol
_atom_site_fract_x
_atom_site_fract_y
_atom_site_fract_z
O1 O 0.60767(13) 0.04071(11) 0.77878(13)
O2 O 0.86599(13) 0.05817(11) 0.81570(14)
N1 N 0.58986(13) -0.29545(12) 0.49798(14)
N2 N 0.74913(13) -0.29363(11) 0.51315(13)
N3 N 0.98705(11) -0.15076(10) 0.64688(12)
N4 N 1.03911(13) -0.15459(11) 0.52442(13)
N5 N 1.19788(13) -0.12535(12) 0.59847(15)
N6 N 1.25298(13) -0.10235(12) 0.76717(15)
N7 N 0.72747(13) 0.00107(11) 0.75576(13)
C1 C 0.55760(15) -0.19410(13) 0.57969(15)
C2 C 0.70472(14) -0.11820(12) 0.65487(14)
C3 C 0.81894(13) -0.18467(11) 0.60907(14)
C4 C 1.11998(15) -0.11861(13) 0.79346(16)
H1 H 0.515(2) -0.3547(19) 0.434(2)
H2 H 0.451(2) -0.1836(17) 0.578(2)
H3 H 1.114(2) -0.1121(16) 0.898(2)
#END
