
#######################################################################
#
#                 Cambridge Crystallographic Data Centre
#                                CCDC
#
#######################################################################
#
# If this CIF has been generated from an entry in the Cambridge
# Structural Database, then it will include bibliographic, chemical,
# crystal, experimental, refinement or atomic coordinate data resulting
# from the CCDC's data processing and validation procedures.
#
#######################################################################

data_CSD_CIF_CASDOQ
_audit_creation_date 2005-09-21
_audit_creation_method CSD-ConQuest-V1
_database_code_CSD CASDOQ
_database_code_depnum_ccdc_archive 'CCDC 282348'
_chemical_formula_sum 'C17 H17 N3 O6'
_chemical_formula_moiety
;
C17 H17 N3 O6
;
_journal_coeditor_code "IUCr FL6174"
_journal_coden_Cambridge 1370
_journal_volume 61
_journal_year 2005
_journal_page_first o2661
_journal_name_full 'Acta Crystallogr.,Sect.E:Struct.Rep.Online '
loop_
_publ_author_name
"Ji-Cheng Chu"
"Wei Li"
"Dong-Zhi Liu"
_chemical_name_systematic
;
N-(4-Nitrobenzoyloxy)-N-methyl-2-nitro-1-phenylpropan-1-amine
;
_cell_volume   1757.806
_exptl_crystal_colour 'colorless'
_exptl_crystal_density_diffrn 1.358
_exptl_crystal_description 'plate'
_exptl_crystal_preparation 'dichloromethane/ethanol'
_diffrn_ambient_temperature 294
#These two values have been output from a single CSD field.
_refine_ls_R_factor_gt 0.0381
_refine_ls_wR_factor_gt 0.0381
_symmetry_cell_setting monoclinic
_symmetry_space_group_name_H-M 'P 21/n'
_symmetry_Int_Tables_number 14
loop_
_symmetry_equiv_pos_site_id
_symmetry_equiv_pos_as_xyz
1 x,y,z
2 1/2-x,1/2+y,1/2-z
3 -x,-y,-z
4 -1/2+x,-1/2-y,-1/2+z
_cell_length_a 10.4009(15)
_cell_length_b 11.3173(18)
_cell_length_c 15.353(3)
_cell_angle_alpha 90
_cell_angle_beta 103.427(5)
_cell_angle_gamma 90
_cell_formula_units_Z 4
loop_
_atom_type_symbol
_atom_type_radius_bond
C 0.68
H 0.23
N 0.68
O 0.68
loop_
_atom_site_label
_atom_site_type_symbol
_atom_site_fract_x
_atom_site_fract_y
_atom_site_fract_z
N1 N 0.15560(12) 0.76440(12) 0.27810(9)
N2 N 0.04311(16) 0.57437(17) 0.38436(12)
N3 N -0.55039(16) 0.51373(15) 0.09852(10)
O1 O 0.03139(10) 0.70327(9) 0.23762(8)
O2 O -0.06957(11) 0.88139(10) 0.21793(8)
O3 O 0.04438(16) 0.48103(14) 0.34464(12)
O4 O -0.05388(15) 0.61492(18) 0.40411(12)
O5 O -0.54257(14) 0.41370(12) 0.07012(9)
O6 O -0.65394(14) 0.56028(15) 0.10187(12)
C1 C 0.23181(15) 0.66999(14) 0.33399(11)
H1 H 0.23060 0.59880 0.29740
C2 C 0.17157(16) 0.64074(15) 0.41399(12)
H2 H 0.15490 0.71460 0.44280
C3 C 0.2582(2) 0.56190(18) 0.48342(13)
H3 H 0.21000 0.53760 0.52660
H4 H 0.33580 0.60470 0.51310
H5 H 0.28390 0.49350 0.45450
C4 C 0.37329(16) 0.71022(15) 0.36795(12)
C5 C 0.4045(2) 0.80872(17) 0.42217(15)
H6 H 0.33770 0.85510 0.43540
C6 C 0.5360(2) 0.8379(2) 0.45662(18)
H7 H 0.55720 0.90350 0.49370
C7 C 0.6350(2) 0.7710(2) 0.43650(17)
H8 H 0.72290 0.79090 0.46020
C8 C 0.60454(18) 0.6750(2) 0.38169(15)
H9 H 0.67170 0.63030 0.36720
C9 C 0.47412(17) 0.64411(16) 0.34774(12)
H10 H 0.45400 0.57820 0.31090
C10 C 0.21194(18) 0.79587(18) 0.20223(14)
H11 H 0.22510 0.72550 0.17050
H12 H 0.29520 0.83500 0.22380
H13 H 0.15240 0.84780 0.16270
C11 C -0.07415(16) 0.77585(15) 0.21471(11)
C12 C -0.19675(15) 0.70484(14) 0.18352(10)
C13 C -0.31714(16) 0.76288(15) 0.16801(11)
H14 H -0.31950 0.84430 0.17600
C14 C -0.43340(17) 0.70082(15) 0.14090(12)
H15 H -0.51450 0.73930 0.13090
C15 C -0.42707(16) 0.58114(15) 0.1290(1)
C16 C -0.30973(18) 0.52130(15) 0.14297(12)
H16 H -0.30850 0.44010 0.13370
C17 C -0.19374(17) 0.58322(15) 0.17091(12)
H17 H -0.11320 0.54380 0.18140
#END
