
#######################################################################
#
#                 Cambridge Crystallographic Data Centre
#                                CCDC
#
#######################################################################
#
# If this CIF has been generated from an entry in the Cambridge
# Structural Database, then it will include bibliographic, chemical,
# crystal, experimental, refinement or atomic coordinate data resulting
# from the CCDC's data processing and validation procedures.
#
#######################################################################

data_CSD_CIF_CATJEM
_audit_creation_date 1984-08-24
_audit_creation_method CSD-ConQuest-V1
_database_code_CSD CATJEM
_database_code_depnum_ccdc_archive 'CCDC 1120706'
_chemical_formula_sum 'C6 H8 N8 O11'
_chemical_formula_moiety
;
C6 H8 N8 O11
;
_journal_coeditor_code "IUCr A22844"
_journal_coden_Cambridge 591
_journal_volume 39
_journal_year 1983
_journal_page_first 1680
_journal_name_full 'Acta Crystallogr.,Sect.C:Cryst.Struct.Commun. '
loop_
_publ_author_name
"H.L.Ammon"
"R.D.Gilardi"
"S.K.Bhattacharjee"
_chemical_name_systematic
;
1,3,3,7,7-Pentanitro-5-nitroso-1,5-diazacyclo-octane
;
_cell_volume   1341.703
_exptl_crystal_density_diffrn 1.823
_diffrn_ambient_temperature ?
_diffrn_special_details
;
The study was carried out at room temperature,in the range 283-303K

;
_refine_special_details
;
The nitroso and nitrate groups are disordered by the symmetry; the nitroso 
group also has a small additional degree of rotational disorder. O1 and O2 
have occupancies of 0.960 and 0.562 respectively.
;
#These two values have been output from a single CSD field.
_refine_ls_R_factor_gt 0.038
_refine_ls_wR_factor_gt 0.038
_symmetry_cell_setting orthorhombic
_symmetry_space_group_name_H-M 'P b c a'
_symmetry_Int_Tables_number 61
loop_
_symmetry_equiv_pos_site_id
_symmetry_equiv_pos_as_xyz
1 x,y,z
2 1/2-x,-y,1/2+z
3 1/2+x,1/2-y,-z
4 -x,1/2+y,1/2-z
5 -x,-y,-z
6 -1/2+x,y,-1/2-z
7 -1/2-x,-1/2+y,z
8 x,-1/2-y,-1/2+z
_cell_length_a 10.955(3)
_cell_length_b 10.418(3)
_cell_length_c 11.756(3)
_cell_angle_alpha 90
_cell_angle_beta 90
_cell_angle_gamma 90
_cell_formula_units_Z 4
loop_
_atom_type_symbol
_atom_type_radius_bond
C 0.68
H 0.23
N 0.68
O 0.68
loop_
_atom_site_label
_atom_site_type_symbol
_atom_site_fract_x
_atom_site_fract_y
_atom_site_fract_z
C1 C 0.36920 -0.01280 -0.09380
C2 C 0.43880 -0.13780 -0.11470
C3 C 0.55660 -0.15610 -0.04700
N1 N 0.38250 0.03480 0.02240
N2 N 0.30780 -0.01190 0.10400
N3 N 0.35520 -0.25390 -0.09750
N4 N 0.46930 -0.14880 -0.24270
O1 O 0.25120 -0.10790 0.07920
O2 O 0.30260 0.04040 0.18870
O3 O 0.38760 -0.33800 -0.03380
O4 O 0.26000 -0.25260 -0.15050
O5 O 0.49250 -0.25580 -0.27640
O6 O 0.47240 -0.05270 -0.29810
H1 H 0.28400 -0.02700 -0.10900
H2 H 0.40400 0.05000 -0.14400
H3 H 0.61100 -0.21500 -0.08500
H4 H 0.53400 -0.19200 0.02500
N1D N 0.61750 -0.03480 -0.02240
C3D C 0.44340 0.15610 0.04700
C1D C 0.63080 0.01280 0.09380
N2D N 0.69220 0.01190 -0.10400
C2D C 0.56120 0.13780 0.11470
H3D H 0.38900 0.21500 0.08500
H4D H 0.46600 0.19200 -0.02500
H1D H 0.71600 0.02700 0.10900
H2D H 0.59600 -0.05000 0.14400
O1D O 0.74880 0.10790 -0.07920
O2D O 0.69740 -0.04040 -0.18870
N3D N 0.64480 0.25390 0.09750
N4D N 0.53070 0.14880 0.24270
O3D O 0.61240 0.33800 0.03380
O4D O 0.74000 0.25260 0.15050
O5D O 0.50750 0.25580 0.27640
O6D O 0.52760 0.05270 0.29810
#END
