
#######################################################################
#
#                 Cambridge Crystallographic Data Centre
#                                CCDC
#
#######################################################################
#
# If this CIF has been generated from an entry in the Cambridge
# Structural Database, then it will include bibliographic, chemical,
# crystal, experimental, refinement or atomic coordinate data resulting
# from the CCDC's data processing and validation procedures.
#
#######################################################################

data_CSD_CIF_CATLUE
_audit_creation_date 2000-01-21
_audit_creation_method CSD-ConQuest-V1
_database_code_CSD CATLUE
_database_code_depnum_ccdc_archive 'CCDC 136707'
_chemical_formula_sum 'C16 H10 N4 O6'
_chemical_formula_moiety
;
C16 H10 N4 O6
;
_journal_coeditor_code "IUCr SK1310"
_journal_coden_Cambridge 591
_journal_volume 55
_journal_year 1999
_journal_page_first 1667
_journal_name_full 'Acta Crystallogr.,Sect.C:Cryst.Struct.Commun. '
loop_
_publ_author_name
"S.Shanmuga Sundara Raj"
"J.Jeyakanthan"
"S.Selvi"
"D.Velmurugan"
"H.-K.Fun"
"P.Perumal"
_chemical_name_systematic
;
3-(2-Hydroxyphenyl)-1-(2,4-dinitrophenyl)-1H-pyrazole-4-carboxaldehyde
;
_cell_volume   1533.713
_exptl_crystal_colour 'orange'
_exptl_crystal_density_diffrn 1.534
_exptl_crystal_description 'block'
_exptl_crystal_preparation 'ethyl acetate'
_diffrn_ambient_temperature ?
_diffrn_special_details
;
The study was carried out at room temperature,in the range 283-303K

;
#These two values have been output from a single CSD field.
_refine_ls_R_factor_gt 0.0553
_refine_ls_wR_factor_gt 0.0553
_symmetry_cell_setting monoclinic
_symmetry_space_group_name_H-M 'P 21/c'
_symmetry_Int_Tables_number 14
loop_
_symmetry_equiv_pos_site_id
_symmetry_equiv_pos_as_xyz
1 x,y,z
2 -x,1/2+y,1/2-z
3 -x,-y,-z
4 x,-1/2-y,-1/2+z
_cell_length_a 6.3799(1)
_cell_length_b 14.9302(2)
_cell_length_c 16.1080(2)
_cell_angle_alpha 90
_cell_angle_beta 91.636(1)
_cell_angle_gamma 90
_cell_formula_units_Z 4
loop_
_atom_type_symbol
_atom_type_radius_bond
C 0.68
H 0.23
N 0.68
O 0.68
loop_
_atom_site_label
_atom_site_type_symbol
_atom_site_fract_x
_atom_site_fract_y
_atom_site_fract_z
O1 O 0.0929(3) 0.38900(11) 0.39232(13)
H1 H 0.15720 0.34390 0.37460
O2 O 0.2129(3) 0.00706(11) 0.57421(10)
O3 O 0.6149(4) -0.07225(13) 0.24646(18)
O4 O 0.3241(3) -0.01224(14) 0.27785(14)
O5 O 1.1606(3) 0.25155(12) 0.15478(11)
O6 O 1.1556(3) 0.11037(13) 0.13183(14)
N1 N 0.2233(2) 0.21809(10) 0.36700(9)
N2 N 0.3668(2) 0.15001(10) 0.36165(9)
N3 N 0.5083(3) -0.00782(12) 0.26186(12)
N4 N 1.0812(3) 0.17766(13) 0.16102(10)
C1 C -0.0632(3) 0.25855(12) 0.45740(11)
C2 C -0.0618(3) 0.34999(13) 0.43701(13)
C3 C -0.2239(4) 0.40511(15) 0.46272(17)
H2 H -0.22110 0.46590 0.45020
C4 C -0.3891(4) 0.37074(16) 0.50668(15)
H3 H -0.49520 0.40860 0.52370
C5 C -0.3972(3) 0.28071(15) 0.52535(13)
H4 H -0.50940 0.25740 0.55390
C6 C -0.2359(3) 0.22557(14) 0.50097(12)
H5 H -0.24140 0.16490 0.51370
C7 C 0.1099(3) 0.19927(11) 0.43376(11)
C8 C 0.1851(3) 0.11920(12) 0.47273(12)
C9 C 0.3478(3) 0.09121(12) 0.42416(12)
H6 H 0.43000 0.04050 0.43320
C10 C 0.1310(3) 0.07578(13) 0.55101(13)
H7 H 0.03040 0.10210 0.58380
C11 C 0.5308(3) 0.15516(12) 0.30285(11)
C12 C 0.6122(3) 0.08071(12) 0.26146(11)
C13 C 0.7929(3) 0.08709(13) 0.21503(12)
H8 H 0.84970 0.03690 0.19000
C14 C 0.8844(3) 0.17019(13) 0.20751(11)
C15 C 0.8000(3) 0.24629(13) 0.24222(12)
H9 H 0.86010 0.30210 0.23350
C16 C 0.6238(3) 0.23794(12) 0.29042(12)
H10 H 0.56740 0.28870 0.31480
#END
