
#######################################################################
#
#                 Cambridge Crystallographic Data Centre
#                                CCDC
#
#######################################################################
#
# If this CIF has been generated from an entry in the Cambridge
# Structural Database, then it will include bibliographic, chemical,
# crystal, experimental, refinement or atomic coordinate data resulting
# from the CCDC's data processing and validation procedures.
#
#######################################################################

data_CSD_CIF_CAVDAF
_audit_creation_date 2005-12-21
_audit_creation_method CSD-ConQuest-V1
_database_code_CSD CAVDAF
_database_code_depnum_ccdc_archive 'CCDC 256670'
_chemical_formula_sum 'C15 H13 N3 O4'
_chemical_formula_moiety
;
C15 H13 N3 O4
;
_journal_coden_Cambridge 1003
_journal_volume 35
_journal_year 2005
_journal_page_first 577
_journal_name_full 'J.Chem.Cryst. '
loop_
_publ_author_name
"H.Karabiyik"
"M.Aygun"
"N.Coskun"
"C.Kazak"
_chemical_name_systematic
;
2-Methyl-3-(2-nitrophenyl)-4-phenyl-(1,2,4)oxadiazolidin-5-one
;
_cell_volume   1403.572
_exptl_crystal_colour 'colorless'
_exptl_crystal_density_diffrn 1.416
_exptl_crystal_description 'prism'
_exptl_crystal_preparation 'ethanol'
_diffrn_ambient_temperature 293
#These two values have been output from a single CSD field.
_refine_ls_R_factor_gt 0.044
_refine_ls_wR_factor_gt 0.044
_symmetry_cell_setting monoclinic
_symmetry_space_group_name_H-M 'P 21/c'
_symmetry_Int_Tables_number 14
loop_
_symmetry_equiv_pos_site_id
_symmetry_equiv_pos_as_xyz
1 x,y,z
2 -x,1/2+y,1/2-z
3 -x,-y,-z
4 x,-1/2-y,-1/2+z
_cell_length_a 10.0313(8)
_cell_length_b 9.0372(5)
_cell_length_c 15.5964(14)
_cell_angle_alpha 90
_cell_angle_beta 96.926(7)
_cell_angle_gamma 90
_cell_formula_units_Z 4
loop_
_atom_type_symbol
_atom_type_radius_bond
C 0.68
H 0.23
N 0.68
O 0.68
loop_
_atom_site_label
_atom_site_type_symbol
_atom_site_fract_x
_atom_site_fract_y
_atom_site_fract_z
N1 N 0.84265(14) 1.05552(16) 0.13565(10)
N2 N 0.79661(16) 0.84997(18) 0.21166(10)
N3 N 0.49568(17) 0.7626(2) 0.16098(12)
O1 O 1.06553(14) 1.00112(18) 0.12492(10)
O2 O 0.92584(14) 0.83734(15) 0.17699(9)
O3 O 0.4440(3) 0.6441(2) 0.17053(15)
O4 O 0.50263(18) 0.8582(2) 0.21570(11)
C1 C 0.95583(19) 0.9723(2) 0.14343(13)
C2 C 0.72987(18) 0.9663(2) 0.15553(12)
C3 C 0.83650(18) 1.2093(2) 0.11410(12)
C4 C 0.7945(2) 1.3090(2) 0.17161(16)
C5 C 0.7861(2) 1.4577(3) 0.15064(19)
C6 C 0.8199(2) 1.5051(3) 0.0727(2)
C7 C 0.8628(2) 1.4057(3) 0.01584(18)
C8 C 0.8720(2) 1.2567(3) 0.03580(14)
C9 C 0.65472(18) 0.8934(2) 0.07566(12)
C10 C 0.6944(2) 0.9154(2) -0.00527(13)
C11 C 0.6350(2) 0.8413(3) -0.07777(15)
C12 C 0.5358(2) 0.7399(3) -0.07070(15)
C13 C 0.4928(2) 0.7145(3) 0.00852(15)
C14 C 0.55042(18) 0.7919(2) 0.07967(12)
C15 C 0.8298(3) 0.9015(3) 0.30086(14)
H1 H 0.6692(18) 1.026(2) 0.1853(12)
H2 H 0.778(2) 1.272(2) 0.2234(14)
H3 H 0.758(3) 1.526(3) 0.1926(18)
H4 H 0.815(3) 1.611(4) 0.059(2)
H5 H 0.890(3) 1.436(3) -0.0365(19)
H6 H 0.898(2) 1.186(3) -0.0042(15)
H7 H 0.766(2) 0.984(2) -0.0114(14)
H8 H 0.665(2) 0.861(3) -0.1350(16)
H9 H 0.494(2) 0.686(3) -0.1211(15)
H10 H 0.425(3) 0.640(3) 0.0174(16)
H11 H 0.739(3) 0.918(3) 0.3260(15)
H12 H 0.880(3) 0.818(3) 0.3315(18)
H13 H 0.879(2) 0.999(3) 0.3038(15)
#END
