
#######################################################################
#
#                 Cambridge Crystallographic Data Centre
#                                CCDC
#
#######################################################################
#
# If this CIF has been generated from an entry in the Cambridge
# Structural Database, then it will include bibliographic, chemical,
# crystal, experimental, refinement or atomic coordinate data resulting
# from the CCDC's data processing and validation procedures.
#
#######################################################################

data_CSD_CIF_CAVPUK
_audit_creation_date 2000-01-21
_audit_creation_method CSD-ConQuest-V1
_database_code_CSD CAVPUK
_database_code_depnum_ccdc_archive 'CCDC 136632'
_chemical_formula_sum 'C14 H12 N4 O8'
_chemical_formula_moiety
;
C14 H12 N4 O8
;
_journal_coeditor_code "IUCr BM1329"
_journal_coden_Cambridge 591
_journal_volume 55
_journal_year 1999
_journal_page_first 1704
_journal_name_full 'Acta Crystallogr.,Sect.C:Cryst.Struct.Commun. '
loop_
_publ_author_name
"O.Ya.Borbulevych"
"O.V.Shishkin"
"V.N.Knyazev"
_chemical_name_systematic
;
(4-(N-Pyridiniummethyl)-1,3-dioxolane)-2-spiro-1',2',4',6' 
-trinitrocyclohexadienide
;
_cell_volume   2930.744
_exptl_crystal_colour 'red'
_exptl_crystal_density_diffrn 1.651
_exptl_crystal_description 'square prism'
_exptl_crystal_preparation 'acetonitrile'
_diffrn_ambient_temperature 193
#These two values have been output from a single CSD field.
_refine_ls_R_factor_gt 0.0442
_refine_ls_wR_factor_gt 0.0442
_symmetry_cell_setting monoclinic
_symmetry_space_group_name_H-M 'C 2/c'
_symmetry_Int_Tables_number 15
loop_
_symmetry_equiv_pos_site_id
_symmetry_equiv_pos_as_xyz
1 x,y,z
2 1/2+x,1/2+y,z
3 -x,y,1/2-z
4 1/2-x,1/2+y,1/2-z
5 -x,-y,-z
6 -1/2-x,-1/2-y,-z
7 x,-y,-1/2+z
8 -1/2+x,-1/2-y,-1/2+z
_cell_length_a 13.336(3)
_cell_length_b 13.837(3)
_cell_length_c 16.059(4)
_cell_angle_alpha 90
_cell_angle_beta 98.51(2)
_cell_angle_gamma 90
_cell_formula_units_Z 8
loop_
_atom_type_symbol
_atom_type_radius_bond
C 0.68
H 0.23
N 0.68
O 0.68
loop_
_atom_site_label
_atom_site_type_symbol
_atom_site_fract_x
_atom_site_fract_y
_atom_site_fract_z
N1 N 0.65859(9) -0.04326(8) 0.79654(7)
N2 N 0.63312(10) 0.25567(8) 0.94478(7)
N3 N 0.63088(9) 0.27438(8) 0.64344(7)
N4 N 0.90383(8) 0.10984(7) 0.58624(6)
O1 O 0.66936(9) -0.08960(7) 0.73284(7)
O2 O 0.6538(1) -0.08355(7) 0.86478(7)
O3 O 0.64233(11) 0.20693(8) 1.01003(7)
O4 O 0.6223(1) 0.34494(8) 0.94569(7)
O5 O 0.60741(10) 0.36071(8) 0.64762(7)
O6 O 0.64992(10) 0.23737(8) 0.57725(6)
O7 O 0.75240(6) 0.09313(6) 0.68168(5)
O8 O 0.58140(6) 0.06782(7) 0.64374(5)
C1 C 0.65473(9) 0.10845(8) 0.70769(7)
C2 C 0.65128(9) 0.06079(8) 0.79178(7)
C3 C 0.64514(9) 0.10760(8) 0.86514(8)
H1 H 0.6474(13) 0.0732(12) 0.9175(11)
C4 C 0.63647(10) 0.20832(8) 0.86653(8)
C5 C 0.62954(10) 0.26121(9) 0.79190(8)
H2 H 0.6191(15) 0.3323(15) 0.7926(11)
C6 C 0.6369(1) 0.21564(8) 0.71763(8)
C7 C 0.74369(9) 0.03063(9) 0.60992(8)
H3 H 0.7737(13) -0.0350(12) 0.6277(11)
C8 C 0.62901(10) 0.02521(11) 0.57849(9)
H4 H 0.6097(14) 0.0633(14) 0.5286(12)
H5 H 0.6049(14) -0.0408(14) 0.5721(11)
C9 C 0.80387(10) 0.07333(10) 0.54507(8)
H6 H 0.8164(13) 0.0279(12) 0.5037(11)
H7 H 0.7697(15) 0.1269(14) 0.5175(12)
C10 C 0.91369(10) 0.20475(9) 0.60480(8)
H8 H 0.8558(14) 0.2411(13) 0.5891(10)
C11 C 1.00434(10) 0.24104(9) 0.64417(8)
H9 H 1.0101(14) 0.3091(15) 0.6544(12)
C12 C 1.08555(10) 0.17945(10) 0.66638(9)
H10 H 1.1436(14) 0.2040(13) 0.6930(11)
C13 C 1.07329(11) 0.08153(10) 0.64889(10)
H11 H 1.1269(16) 0.0332(15) 0.6675(12)
C14 C 0.98191(10) 0.04813(9) 0.60806(9)
H12 H 0.9687(14) -0.0187(13) 0.5931(11)
#END
