
#######################################################################
#
#                 Cambridge Crystallographic Data Centre
#                                CCDC
#
#######################################################################
#
# If this CIF has been generated from an entry in the Cambridge
# Structural Database, then it will include bibliographic, chemical,
# crystal, experimental, refinement or atomic coordinate data resulting
# from the CCDC's data processing and validation procedures.
#
#######################################################################

data_CSD_CIF_CAVROG
_audit_creation_date 1984-08-24
_audit_creation_method CSD-ConQuest-V1
_database_code_CSD CAVROG
_database_code_depnum_ccdc_archive 'CCDC 1120870'
_chemical_formula_sum 'C15 H13 N3 O2'
_chemical_formula_moiety
;
C15 H13 N3 O2
;
_journal_coden_Cambridge 4
_journal_volume 105
_journal_year 1983
_journal_page_first 6172
_journal_name_full 'J.Am.Chem.Soc. '
loop_
_publ_author_name
"E.M.Arnett"
"E.B.Troughton"
"A.T.McPhail"
"K.E.Molter"
_chemical_name_systematic
;
1-(\a,\a-Dicyano-p-nitrobenzyl)-1,2,3-trimethylcycloprop-2-ene
;
_cell_volume    709.963
_exptl_crystal_colour 'colorless'
_exptl_crystal_density_diffrn 1.25
_diffrn_ambient_temperature ?
_diffrn_special_details
;
The study was carried out at room temperature,in the range 283-303K

;
#These two values have been output from a single CSD field.
_refine_ls_R_factor_gt 0.064
_refine_ls_wR_factor_gt 0.064
_symmetry_cell_setting triclinic
_symmetry_space_group_name_H-M 'P -1'
_symmetry_Int_Tables_number 2
loop_
_symmetry_equiv_pos_site_id
_symmetry_equiv_pos_as_xyz
1 x,y,z
2 -x,-y,-z
_cell_length_a 7.684(3)
_cell_length_b 15.115(6)
_cell_length_c 7.248(3)
_cell_angle_alpha 77.88(1)
_cell_angle_beta 117.85(1)
_cell_angle_gamma 106.73(1)
_cell_formula_units_Z 2
loop_
_atom_type_symbol
_atom_type_radius_bond
C 0.68
H 0.23
N 0.68
O 0.68
loop_
_atom_site_label
_atom_site_type_symbol
_atom_site_fract_x
_atom_site_fract_y
_atom_site_fract_z
C1 C -0.02054 0.19085 0.15987
C2 C 0.11556 0.12878 0.29622
C3 C -0.05930 0.08831 0.16218
C4 C 0.01585 0.25302 -0.01259
C5 C 0.32464 0.12865 0.45450
C6 C -0.20958 0.00620 0.04974
C7 C -0.12391 0.23309 0.25614
C8 C -0.32770 0.24042 0.08975
N1 N -0.48200 0.24407 -0.03958
C9 C -0.15838 0.16805 0.41979
N2 N -0.18208 0.11721 0.54628
C10 C 0.00707 0.32647 0.34923
C11 C -0.03195 0.40989 0.23887
C12 C 0.09387 0.49209 0.32350
C13 C 0.25414 0.49195 0.51537
C14 C 0.29512 0.41003 0.62861
C15 C 0.17086 0.32792 0.54201
N3 N 0.38642 0.57978 0.60914
O1 O 0.34624 0.65089 0.51114
O2 O 0.52610 0.57784 0.77968
H1 H 0.08200 0.22400 -0.07300
H2 H 0.10200 0.31200 0.04500
H3 H -0.10700 0.26100 -0.12900
H4 H 0.34800 0.07200 0.46900
H5 H 0.42200 0.17800 0.41500
H6 H 0.36000 0.15200 0.58000
H7 H -0.25900 0.01300 -0.09800
H8 H -0.31900 -0.00900 0.08600
H9 H -0.15000 -0.05200 0.11000
H10 H -0.14900 0.40900 0.10300
H11 H 0.06700 0.55000 0.25300
H12 H 0.40400 0.41300 0.76400
H13 H 0.19500 0.26900 0.61900
#END
