
#######################################################################
#
#                 Cambridge Crystallographic Data Centre
#                                CCDC
#
#######################################################################
#
# If this CIF has been generated from an entry in the Cambridge
# Structural Database, then it will include bibliographic, chemical,
# crystal, experimental, refinement or atomic coordinate data resulting
# from the CCDC's data processing and validation procedures.
#
#######################################################################

data_CSD_CIF_CAWDUB
_audit_creation_date 2012-06-01
_audit_creation_method CSD-ConQuest-V1
_database_code_CSD CAWDUB
_database_code_depnum_ccdc_archive 'CCDC 833732'
_chemical_formula_sum 'C29 H23 N1 O5'
_chemical_formula_moiety
;
C29 H23 N1 O5
;
_journal_coden_Cambridge 1220
_journal_volume 18
_journal_year 2012
_journal_page_first 2777
_journal_name_full 'Chem.-Eur.J. '
loop_
_publ_author_name
"Hongyin Gao"
"Junliang Zhang"
_chemical_name_systematic
;
Methyl 
3-methyl-6-(4-methylphenyl)-1-(4-nitrophenyl)-4-phenyl-4H-cyclopenta[c]furan-5
-carboxylate
;
_cell_volume   1219.179
_exptl_crystal_colour 'yellow'
_exptl_crystal_density_diffrn 1.268
_exptl_crystal_description 'block'
_diffrn_ambient_temperature 296
#These two values have been output from a single CSD field.
_refine_ls_R_factor_gt 0.0407
_refine_ls_wR_factor_gt 0.0407
_symmetry_cell_setting triclinic
_symmetry_space_group_name_H-M 'P -1'
_symmetry_Int_Tables_number 2
loop_
_symmetry_equiv_pos_site_id
_symmetry_equiv_pos_as_xyz
1 x,y,z
2 -x,-y,-z
_cell_length_a 10.4828(4)
_cell_length_b 10.5406(4)
_cell_length_c 12.2608(4)
_cell_angle_alpha 70.779(1)
_cell_angle_beta 77.321(1)
_cell_angle_gamma 74.381(1)
_cell_formula_units_Z 2
loop_
_atom_type_symbol
_atom_type_radius_bond
C 0.68
H 0.23
N 0.68
O 0.68
loop_
_atom_site_label
_atom_site_type_symbol
_atom_site_fract_x
_atom_site_fract_y
_atom_site_fract_z
O1 O 0.80844(11) 0.54969(11) 0.43053(10)
O2 O 0.70448(14) 0.00477(12) 0.81998(11)
O3 O 0.62529(15) 0.13827(14) 0.93952(12)
O4 O 0.20115(16) 1.06621(15) 0.43886(15)
O5 O 0.35653(16) 1.16612(14) 0.32386(14)
N1 N 0.31828(19) 1.06584(16) 0.39375(15)
C1 C 0.9840(2) 0.2059(2) 0.78464(17)
H1 H 0.93550 0.29310 0.78720
C2 C 1.0860(2) 0.1415(3) 0.85093(19)
H2 H 1.10510 0.18460 0.89870
C3 C 1.1600(2) 0.0132(3) 0.84667(19)
H3 H 1.22800 -0.03130 0.89250
C4 C 1.1330(2) -0.0474(2) 0.7753(2)
H4 H 1.18470 -0.13260 0.77010
C5 C 1.02872(19) 0.01624(19) 0.70963(17)
H5 H 1.01020 -0.02730 0.66190
C6 C 0.95268(16) 0.14337(17) 0.71482(14)
C7 C 0.83039(16) 0.20763(16) 0.65279(14)
H6 H 0.81970 0.14460 0.61350
C8 C 0.70388(17) 0.23529(17) 0.73840(14)
C9 C 0.63457(16) 0.36739(16) 0.71048(14)
C10 C 0.70400(16) 0.44049(16) 0.59988(14)
C11 C 0.82265(16) 0.34935(16) 0.56690(14)
C12 C 0.88407(17) 0.41740(17) 0.46444(15)
C13 C 0.69592(16) 0.56235(16) 0.51326(14)
C14 C 0.60014(16) 0.69213(16) 0.48487(14)
C15 C 0.46779(17) 0.70391(17) 0.53973(14)
H7 H 0.44090 0.62830 0.59610
C16 C 0.37657(18) 0.82683(18) 0.51097(15)
H8 H 0.28890 0.83530 0.54890
C17 C 0.41661(18) 0.93661(16) 0.42575(15)
C18 C 0.54538(19) 0.92877(17) 0.36939(16)
H9 H 0.57030 1.00450 0.31180
C19 C 0.63757(18) 0.80634(17) 0.39965(15)
H10 H 0.72560 0.80010 0.36270
C20 C 0.51374(17) 0.42934(16) 0.77907(14)
C21 C 0.39665(19) 0.38237(19) 0.80614(17)
H11 H 0.39190 0.31070 0.77980
C22 C 0.2868(2) 0.4409(2) 0.8719(2)
H12 H 0.20830 0.40880 0.88820
C23 C 0.2898(2) 0.5457(2) 0.91428(18)
C24 C 0.4057(3) 0.5939(2) 0.88509(18)
H13 H 0.40980 0.66590 0.91120
C25 C 0.5158(2) 0.53800(19) 0.81802(16)
H14 H 0.59260 0.57360 0.79860
C26 C 0.1717(3) 0.6035(3) 0.9929(3)
H15 H 0.19280 0.67500 1.01360
H16 H 0.15250 0.53160 1.06230
H17 H 0.09500 0.64060 0.95260
C27 C 0.67152(18) 0.12500(18) 0.84444(16)
C28 C 0.6854(3) -0.1156(2) 0.91539(19)
H18 H 0.71230 -0.19510 0.88720
H19 H 0.59260 -0.10500 0.94870
H20 H 0.73850 -0.12700 0.97390
C29 C 1.0063(2) 0.3840(2) 0.38374(18)
H21 H 1.05130 0.29040 0.41480
H22 H 1.06460 0.44430 0.37470
H23 H 0.98260 0.39570 0.30920
#END
