
#######################################################################
#
#                 Cambridge Crystallographic Data Centre
#                                CCDC
#
#######################################################################
#
# If this CIF has been generated from an entry in the Cambridge
# Structural Database, then it will include bibliographic, chemical,
# crystal, experimental, refinement or atomic coordinate data resulting
# from the CCDC's data processing and validation procedures.
#
#######################################################################

data_CSD_CIF_CAWDAF
_audit_creation_date 1984-08-24
_audit_creation_method CSD-ConQuest-V1
_database_code_CSD CAWDAF
_database_code_depnum_ccdc_archive 'CCDC 1120916'
_chemical_formula_sum 'C25 H19 N5 O2'
_chemical_formula_moiety
;
C25 H19 N5 O2
;
_journal_coden_Cambridge 95
_journal_year 1983
_journal_page_first 1303
_journal_name_full 'Izv.Akad.Nauk SSSR,Ser.Khim.(Russ.)(Russ.Chem.Bull.) '
loop_
_publ_author_name
"I.A.Litvinov"
"Yu.T.Struchkov"
"N.G.Gazetdinova"
"B.I.Buzikin"
_chemical_name_systematic
;
(E,E,Z)-1-(4-Nitrophenyl)-3,5,5-triphenylformazan
;
_cell_volume   2117.314
_exptl_crystal_colour 'dark cherry'
_exptl_crystal_density_diffrn 1.32
_diffrn_ambient_temperature ?
_diffrn_special_details
;
The study was carried out at room temperature,in the range 283-303K

;
#These two values have been output from a single CSD field.
_refine_ls_R_factor_gt 0.046
_refine_ls_wR_factor_gt 0.046
loop_
_citation_database_id_CSD
_citation_special_details
BOFHOT "is a stereoisomer of this entry"
_symmetry_cell_setting monoclinic
_symmetry_space_group_name_H-M 'P 21/c'
_symmetry_Int_Tables_number 14
loop_
_symmetry_equiv_pos_site_id
_symmetry_equiv_pos_as_xyz
1 x,y,z
2 -x,1/2+y,1/2-z
3 -x,-y,-z
4 x,-1/2-y,-1/2+z
_cell_length_a 13.383(2)
_cell_length_b 12.381(2)
_cell_length_c 12.795(2)
_cell_angle_alpha 90
_cell_angle_beta 92.92(2)
_cell_angle_gamma 90
_cell_formula_units_Z 4
loop_
_atom_type_symbol
_atom_type_radius_bond
C 0.68
H 0.23
N 0.68
O 0.68
loop_
_atom_site_label
_atom_site_type_symbol
_atom_site_fract_x
_atom_site_fract_y
_atom_site_fract_z
N1 N 0.81430 0.31010 0.27180
N2 N 0.84860 0.21990 0.31950
N3 N 0.72880 0.22130 0.13010
N4 N 0.67750 0.23750 0.04550
N5 N 0.55060 -0.14350 -0.16170
O1 O 0.47950 -0.13800 -0.22450
O2 O 0.59100 -0.22810 -0.13650
C1 C 0.75720 0.31490 0.18590
C2 C 0.73020 0.42680 0.15170
C3 C 0.63290 0.45430 0.11750
C4 C 0.60960 0.56010 0.08970
C5 C 0.68180 0.63790 0.09560
C6 C 0.77870 0.61250 0.12950
C7 C 0.80300 0.50660 0.15810
C8 C 0.91600 0.23780 0.40760
C9 C 0.95580 0.33870 0.42840
C10 C 1.02440 0.35330 0.51240
C11 C 1.05290 0.26990 0.57660
C12 C 1.01190 0.17010 0.55760
C13 C 0.94390 0.15370 0.47380
C14 C 0.81420 0.11040 0.29840
C15 C 0.87270 0.04130 0.24270
C16 C 0.84150 -0.06460 0.22830
C17 C 0.75390 -0.10010 0.26860
C18 C 0.69700 -0.03100 0.32470
C19 C 0.72720 0.07500 0.34070
C20 C 0.65230 0.13970 -0.00870
C21 C 0.70250 0.04280 0.00940
C22 C 0.67080 -0.04900 -0.04280
C23 C 0.58850 -0.04320 -0.11210
C24 C 0.54010 0.05220 -0.13420
C25 C 0.57350 0.14480 -0.08310
H1 H 0.58000 0.39800 0.11500
H2 H 0.53800 0.57800 0.06900
H3 H 0.66400 0.71100 0.07800
H4 H 0.83200 0.66000 0.13500
H5 H 0.87100 0.48800 0.17800
H6 H 0.93700 0.39900 0.38300
H7 H 1.05100 0.42300 0.51800
H8 H 1.10300 0.27900 0.63200
H9 H 1.02900 0.11300 0.60000
H10 H 0.91600 0.08600 0.46600
H11 H 0.93500 0.06900 0.21700
H12 H 0.88200 -0.11400 0.19300
H13 H 0.73400 -0.17500 0.25600
H14 H 0.63400 -0.05700 0.35400
H15 H 0.68800 0.12300 0.37900
H16 H 0.76100 0.04200 0.05700
H17 H 0.70300 -0.11700 -0.03200
H18 H 0.48300 0.05200 -0.11800
H19 H 0.54200 0.21300 -0.09400
#END
