
#######################################################################
#
#                 Cambridge Crystallographic Data Centre
#                                CCDC
#
#######################################################################
#
# If this CIF has been generated from an entry in the Cambridge
# Structural Database, then it will include bibliographic, chemical,
# crystal, experimental, refinement or atomic coordinate data resulting
# from the CCDC's data processing and validation procedures.
#
#######################################################################

data_CSD_CIF_CAXNIY
_audit_creation_date 1984-08-24
_audit_creation_method CSD-ConQuest-V1
_database_code_CSD CAXNIY
_database_code_depnum_ccdc_archive 'CCDC 1121071'
_chemical_formula_sum 'C10 H14 N2 O4'
_chemical_formula_moiety
;
C10 H14 N2 O4
;
_journal_coeditor_code "IUCr A22842"
_journal_coden_Cambridge 591
_journal_volume 39
_journal_year 1983
_journal_page_first 1674
_journal_name_full 'Acta Crystallogr.,Sect.C:Cryst.Struct.Commun. '
loop_
_publ_author_name
"C.George"
"R.Gilardi"
_chemical_name_systematic
;
2,2-Dinitroadamantane
;
_cell_volume   1036.428
_exptl_crystal_density_diffrn 1.45
_diffrn_ambient_temperature ?
_diffrn_special_details
;
The study was carried out at room temperature,in the range 283-303K

;
#These two values have been output from a single CSD field.
_refine_ls_R_factor_gt 0.047
_refine_ls_wR_factor_gt 0.047
_symmetry_cell_setting monoclinic
_symmetry_space_group_name_H-M 'P 21/n'
_symmetry_Int_Tables_number 14
loop_
_symmetry_equiv_pos_site_id
_symmetry_equiv_pos_as_xyz
1 x,y,z
2 1/2-x,1/2+y,1/2-z
3 -x,-y,-z
4 -1/2+x,-1/2-y,-1/2+z
_cell_length_a 6.586(2)
_cell_length_b 12.407(4)
_cell_length_c 12.916(5)
_cell_angle_alpha 90
_cell_angle_beta 100.88(3)
_cell_angle_gamma 90
_cell_formula_units_Z 4
loop_
_atom_type_symbol
_atom_type_radius_bond
C 0.68
H 0.23
N 0.68
O 0.68
loop_
_atom_site_label
_atom_site_type_symbol
_atom_site_fract_x
_atom_site_fract_y
_atom_site_fract_z
C1 C 0.55790 0.05210 0.36190
C2 C 0.60780 0.17080 0.36560
C3 C 0.55970 0.22260 0.25780
C4 C 0.68500 0.16570 0.18510
C5 C 0.63450 0.04670 0.17820
C6 C 0.40490 0.03120 0.13260
C7 C 0.27650 0.08680 0.20470
C8 C 0.32810 0.03750 0.31540
C9 C 0.68460 -0.00260 0.28820
C10 C 0.32800 0.20660 0.21460
N1 N 0.50170 0.23200 0.44610
O1 O 0.44610 0.18070 0.51490
O2 O 0.48670 0.32850 0.43630
N2 N 0.83780 0.18930 0.41950
O3 O 0.90910 0.12920 0.49020
O4 O 0.92890 0.26460 0.39070
H1 H 0.60300 0.02400 0.43900
H2 H 0.59300 0.29800 0.26700
H3 H 0.83600 0.17500 0.21300
H4 H 0.65000 0.20100 0.11500
H5 H 0.72200 0.00600 0.13200
H6 H 0.36700 0.06700 0.05800
H7 H 0.37500 -0.04500 0.12400
H8 H 0.12800 0.07900 0.17700
H9 H 0.30300 -0.04000 0.31300
H10 H 0.24000 0.07000 0.36000
H11 H 0.84000 0.00100 0.31700
H12 H 0.64100 -0.07900 0.28500
H13 H 0.23400 0.24400 0.26200
H14 H 0.29000 0.24500 0.14500
#END
