
#######################################################################
#
#                 Cambridge Crystallographic Data Centre
#                                CCDC
#
#######################################################################
#
# If this CIF has been generated from an entry in the Cambridge
# Structural Database, then it will include bibliographic, chemical,
# crystal, experimental, refinement or atomic coordinate data resulting
# from the CCDC's data processing and validation procedures.
#
#######################################################################

data_CSD_CIF_CAYVIK
_audit_creation_date 2017-05-29
_audit_creation_method CSD-ConQuest-V1
_database_code_CSD CAYVIK
_database_code_depnum_ccdc_archive 'CCDC 1499579'
_chemical_formula_sum 'C17 H21 N1 O7'
_chemical_formula_moiety
;
C17 H21 N1 O7
;
_journal_coden_Cambridge 179
_journal_volume 56
_journal_year 2017
_journal_page_first 4955
_journal_name_full 'Angew.Chem.,Int.Ed. '
loop_
_publ_author_name
"G.dos P.Gomes"
"I.A.Yaremenko"
"P.S.Radulov"
"R.A.Novikov"
"V.V.Chernyshev"
"A.A.Korlyukov"
"G.I.Nikishin"
"I.V.Alabugin"
"A.O.Terent'ev"
_chemical_name_systematic
;
ethyl 
1,5-dimethyl-2-(4-nitrobenzyl)-6,7,8-trioxabicyclo[3.2.1]octane-2-carboxylate
;
_cell_volume    864.536
_exptl_crystal_colour 'colorless'
_exptl_crystal_density_diffrn 1.35
_exptl_crystal_description 'prism'
_diffrn_ambient_temperature 293
#These two values have been output from a single CSD field.
_refine_ls_R_factor_gt 0.0684
_refine_ls_wR_factor_gt 0.0684
_symmetry_cell_setting triclinic
_symmetry_space_group_name_H-M 'P -1'
_symmetry_Int_Tables_number 2
loop_
_symmetry_equiv_pos_site_id
_symmetry_equiv_pos_as_xyz
1 x,y,z
2 -x,-y,-z
_cell_length_a 8.066(2)
_cell_length_b 10.150(4)
_cell_length_c 11.542(4)
_cell_angle_alpha 97.90(3)
_cell_angle_beta 109.19(3)
_cell_angle_gamma 98.62(3)
_cell_formula_units_Z 2
loop_
_atom_type_symbol
_atom_type_radius_bond
C 0.68
H 0.23
N 0.68
O 0.68
loop_
_atom_site_label
_atom_site_type_symbol
_atom_site_fract_x
_atom_site_fract_y
_atom_site_fract_z
O1 O 0.1688(4) 0.6899(3) 0.5723(3)
O2 O 0.1709(4) 0.8340(3) 0.7392(3)
O3 O 0.6196(4) 0.6710(3) 0.7023(3)
O4 O 0.0430(4) 0.8596(3) 0.6253(3)
N1 N 1.1920(6) 1.3188(5) 0.9260(4)
O5 O 0.5731(4) 0.7783(4) 0.5419(3)
C1 C 0.4520(5) 0.8442(4) 0.7020(4)
C2 C 0.7323(6) 1.0155(4) 0.8584(4)
C3 C 0.3957(6) 0.9550(4) 0.6293(4)
H1 H 0.36390 1.02290 0.68120
H2 H 0.49670 0.99930 0.61090
C4 C 0.8816(6) 0.9832(4) 0.8371(4)
H3 H 0.88150 0.89300 0.80810
C5 C 1.0303(6) 1.0822(5) 0.8581(4)
H4 H 1.12950 1.05950 0.84240
C6 C 0.5520(6) 0.7601(5) 0.6372(5)
C7 C 0.2777(6) 0.7484(4) 0.6969(4)
C8 C 0.8858(7) 1.2508(5) 0.9257(5)
H5 H 0.88820 1.34090 0.95650
C9 C 0.5703(6) 0.9078(5) 0.8394(4)
H6 H 0.49640 0.94720 0.88020
H7 H 0.61070 0.83560 0.88110
O6 O 1.3217(5) 1.2838(4) 0.9111(4)
C10 C 1.0309(6) 1.2141(5) 0.9022(4)
O7 O 1.1864(6) 1.4380(4) 0.9579(4)
C11 C 0.0964(6) 0.8004(5) 0.5253(4)
C12 C 0.7375(7) 1.1508(5) 0.9027(5)
H8 H 0.63790 1.17440 0.91710
C13 C 0.2373(6) 0.8996(5) 0.5073(4)
H9 H 0.18640 0.97430 0.47640
H10 H 0.27860 0.85550 0.44510
C14 C 0.2974(6) 0.6405(5) 0.7756(5)
H11 H 0.18080 0.59000 0.76440
H12 H 0.35870 0.68280 0.86220
H13 H 0.36550 0.57990 0.75020
C15 C 0.7199(7) 0.5873(6) 0.6498(6)
H14 H 0.65540 0.55320 0.56090
H15 H 0.83660 0.64050 0.66120
C16 C -0.0733(6) 0.7435(5) 0.4125(5)
H16 H -0.04420 0.69640 0.34610
H17 H -0.12900 0.81650 0.38520
H18 H -0.15440 0.68130 0.43460
C17 C 0.7406(10) 0.4745(6) 0.7155(6)
H19 H 0.81100 0.50920 0.80240
H20 H 0.79990 0.41420 0.67980
H21 H 0.62450 0.42600 0.70760
#END
