
#######################################################################
#
#                 Cambridge Crystallographic Data Centre
#                                CCDC
#
#######################################################################
#
# If this CIF has been generated from an entry in the Cambridge
# Structural Database, then it will include bibliographic, chemical,
# crystal, experimental, refinement or atomic coordinate data resulting
# from the CCDC's data processing and validation procedures.
#
#######################################################################

data_CSD_CIF_CAZBZO13
_audit_creation_date 2018-02-27
_audit_creation_method CSD-ConQuest-V1
_database_code_CSD CAZBZO13
_database_code_depnum_ccdc_archive 'CCDC 1576217'
_chemical_formula_sum 'C12 H10 N2 O2'
_chemical_formula_moiety
;
C12 H10 N2 O2
;
_journal_coden_Cambridge 1147
_journal_volume 18
_journal_year 2018
_journal_page_first 1293
_journal_name_full 'Cryst.Growth Des. '
loop_
_publ_author_name
"P.P.Rodenbough"
"D.P.Karothu"
"T.Gjorgjieva"
"P.Commins"
"H.Hara"
"P.Naumov"
_chemical_name_systematic
;
Nitrosobenzene
;
_cell_volume   2125.228
_exptl_crystal_colour 'colorless'
_exptl_crystal_density_diffrn 1.339
_exptl_crystal_description 'block'
_diffrn_ambient_temperature 100
_refine_special_details
;
C10,C11,C12,C13,C14,C15,C16,C5,C6,C7,C8,C9,N3,N4,O1,O2 and 
C10A,C11A,C12A,C13A,C14A,C15A,C16A,C5A,C6A,C7A,C8A,C9A,N3A,N4A,O1A,O2A 
disordered over two sites with occupancies 0.914:0.086.
;
#These two values have been output from a single CSD field.
_refine_ls_R_factor_gt 0.069
_refine_ls_wR_factor_gt 0.069
_symmetry_cell_setting orthorhombic
_symmetry_space_group_name_H-M 'P b c n'
_symmetry_Int_Tables_number 60
loop_
_symmetry_equiv_pos_site_id
_symmetry_equiv_pos_as_xyz
1 x,y,z
2 1/2-x,1/2-y,1/2+z
3 1/2+x,1/2-y,-z
4 -x,y,1/2-z
5 -x,-y,-z
6 -1/2+x,-1/2+y,-1/2-z
7 -1/2-x,-1/2+y,z
8 x,-y,-1/2+z
_cell_length_a 10.232(13)
_cell_length_b 13.768(18)
_cell_length_c 15.086(19)
_cell_angle_alpha 90
_cell_angle_beta 90
_cell_angle_gamma 90
_cell_formula_units_Z 8
loop_
_atom_type_symbol
_atom_type_radius_bond
C 0.68
H 0.23
N 0.68
O 0.68
loop_
_atom_site_label
_atom_site_type_symbol
_atom_site_fract_x
_atom_site_fract_y
_atom_site_fract_z
O1 O 0.8332(2) 0.5060(2) 0.4550(2)
O2 O 0.9285(3) 0.66003(19) 0.38332(17)
N1 N 0.9059(3) 0.6582(2) 0.46631(19)
N2 N 0.8529(3) 0.5802(2) 0.50204(19)
C1 C 0.8050(6) 0.5827(3) 0.5922(4)
C2 C 1.0483(5) 0.7147(4) 0.5852(3)
H1 H 1.08070 0.65200 0.59170
C3 C 0.7126(4) 0.6525(3) 0.6120(2)
H2 H 0.68340 0.69520 0.56860
C4 C 0.8488(5) 0.5167(3) 0.6549(2)
H3 H 0.91000 0.46950 0.64000
C5 C 1.0953(4) 0.7910(3) 0.6374(3)
H4 H 1.16100 0.77980 0.67870
C6 C 0.6642(4) 0.6581(3) 0.6975(3)
H5 H 0.60220 0.70480 0.71220
C7 C 0.9018(4) 0.8270(3) 0.5119(3)
H6 H 0.83780 0.83870 0.46940
C8 C 0.9532(6) 0.7351(3) 0.5243(3)
C9 C 0.7995(4) 0.5224(3) 0.7398(3)
H7 H 0.82730 0.47860 0.78270
C10 C 0.9491(4) 0.9012(3) 0.5651(3)
H8 H 0.91630 0.96380 0.55850
C11 C 1.0438(4) 0.8832(3) 0.6274(3)
H9 H 1.07360 0.93350 0.66320
C12 C 0.7093(4) 0.5930(3) 0.7612(3)
H10 H 0.67800 0.59710 0.81890
C13? C 0.789(5) 0.599(3) 0.592(4)
H11? H 0.80290 0.61290 0.53250
O3? O 0.786(3) 0.515(2) 0.448(2)
C14? C 0.692(4) 0.639(3) 0.731(2)
H12? H 0.64460 0.67990 0.76730
C15? C 0.828(4) 0.492(3) 0.715(2)
H13? H 0.86010 0.43480 0.73930
N3? N 0.904(3) 0.762(2) 0.405(2)
C16? C 1.043(5) 0.719(3) 0.548(3)
H14? H 1.09500 0.67310 0.51960
C17? C 0.853(5) 0.518(3) 0.628(2)
C18? C 0.704(5) 0.660(3) 0.640(2)
H15? H 0.65860 0.71060 0.61320
N4? N 0.862(3) 0.489(2) 0.514(2)
O4? O 0.961(3) 0.695(2) 0.3828(19)
C19? C 1.068(4) 0.738(4) 0.616(3)
H16? H 1.09960 0.68670 0.64970
C20? C 1.058(4) 0.837(3) 0.663(3)
H17? H 1.10080 0.85390 0.71530
C21? C 0.961(4) 0.903(3) 0.609(3)
H18? H 0.94060 0.96620 0.62580
C22? C 0.752(4) 0.556(3) 0.766(3)
H19? H 0.74070 0.54240 0.82570
C23? C 0.952(6) 0.752(4) 0.504(3)
C24? C 0.910(5) 0.861(3) 0.535(3)
H20? H 0.84930 0.89580 0.50150
#END
