
#######################################################################
#
#                 Cambridge Crystallographic Data Centre
#                                CCDC
#
#######################################################################
#
# If this CIF has been generated from an entry in the Cambridge
# Structural Database, then it will include bibliographic, chemical,
# crystal, experimental, refinement or atomic coordinate data resulting
# from the CCDC's data processing and validation procedures.
#
#######################################################################

data_CSD_CIF_CAZBUC
_audit_creation_date 2012-07-19
_audit_creation_method CSD-ConQuest-V1
_database_code_CSD CAZBUC
_database_code_depnum_ccdc_archive 'CCDC 824138'
_chemical_formula_sum 'C2 H2 N6 O4'
_chemical_formula_moiety
;
C2 H2 N6 O4
;
_journal_coden_Cambridge 1290
_journal_year 2012
_journal_page_first 2429
_journal_name_full 'Eur.J.Inorg.Chem. '
loop_
_publ_author_name
"A.A.Dippold"
"T.M.Klapotke"
"F.A.Martin"
"S.Wiedbrauk"
_chemical_name_systematic
;
N,3-Dinitro-1H-1,2,4-triazol-5-amine
;
_cell_volume    298.376
_exptl_crystal_colour 'light yellow'
_exptl_crystal_density_diffrn 1.938
_exptl_crystal_description 'plate'
_diffrn_ambient_temperature 173
#These two values have been output from a single CSD field.
_refine_ls_R_factor_gt 0.032
_refine_ls_wR_factor_gt 0.032
_symmetry_cell_setting monoclinic
_symmetry_space_group_name_H-M 'P 21'
_symmetry_Int_Tables_number 4
loop_
_symmetry_equiv_pos_site_id
_symmetry_equiv_pos_as_xyz
1 x,y,z
2 -x,1/2+y,-z
_cell_length_a 6.8663(7)
_cell_length_b 5.3554(5)
_cell_length_c 8.3117(7)
_cell_angle_alpha 90
_cell_angle_beta 102.513(8)
_cell_angle_gamma 90
_cell_formula_units_Z 2
loop_
_atom_type_symbol
_atom_type_radius_bond
C 0.68
H 0.23
N 0.68
O 0.68
loop_
_atom_site_label
_atom_site_type_symbol
_atom_site_fract_x
_atom_site_fract_y
_atom_site_fract_z
H1 H 0.347(6) 0.741(10) 1.022(6)
H2 H 0.034(6) 0.702(8) 0.645(5)
N1 N 0.3748(5) 0.4048(7) 0.8187(4)
O1 O 0.5426(5) -0.0032(6) 0.7156(4)
O2 O 0.0288(5) 1.0123(6) 0.8132(4)
O3 O 0.3362(5) 0.0096(6) 0.4752(4)
N2 N 0.1615(5) 0.4196(7) 0.5685(5)
N3 N 0.1210(6) 0.6083(8) 0.6669(5)
N4 N 0.1429(5) 0.9575(8) 0.9445(6)
O4 O 0.1660(4) 1.0753(6) 1.0729(4)
N5 N 0.4056(5) 0.0875(7) 0.6152(5)
C1 C 0.2501(7) 0.5952(9) 0.8130(6)
N6 N 0.2564(7) 0.7442(9) 0.9470(5)
C2 C 0.3141(7) 0.3099(9) 0.6669(6)
#END
