
#######################################################################
#
#                 Cambridge Crystallographic Data Centre
#                                CCDC
#
#######################################################################
#
# If this CIF has been generated from an entry in the Cambridge
# Structural Database, then it will include bibliographic, chemical,
# crystal, experimental, refinement or atomic coordinate data resulting
# from the CCDC's data processing and validation procedures.
#
#######################################################################

data_CSD_CIF_CBXLEU
_audit_creation_date 1975-02-18
_audit_creation_method CSD-ConQuest-V1
_database_code_CSD CBXLEU
_database_code_depnum_ccdc_archive 'CCDC 1121526'
_chemical_formula_sum 'C20 H22 N2 O6'
_chemical_formula_moiety
;
C20 H22 N2 O6
;
_journal_coeditor_code "IUCr A11335"
_journal_coden_Cambridge 107
_journal_volume 30
_journal_year 1974
_journal_page_first 2607
_journal_name_full 'Acta Crystallogr.,Sect.B:Struct.Crystallogr.Cryst.Chem. '
loop_
_publ_author_name
"V.M.Coiro"
"F.Mazza"
"G.Mignucci"
_chemical_name_systematic
;
Carbobenzoxy-L-leucyl-p-nitrophenyl ester
;
_chemical_melting_point 369.15
_cell_volume   2014.579
_exptl_crystal_density_diffrn 1.27
_exptl_special_details
;
Melting point range 369.15-371.15K

;
_diffrn_ambient_temperature ?
_diffrn_special_details
;
The study was carried out at room temperature,in the range 283-303K

;
#These two values have been output from a single CSD field.
_refine_ls_R_factor_gt 0.105
_refine_ls_wR_factor_gt 0.105
_symmetry_cell_setting orthorhombic
_symmetry_space_group_name_H-M 'P 21 21 21'
_symmetry_Int_Tables_number 19
loop_
_symmetry_equiv_pos_site_id
_symmetry_equiv_pos_as_xyz
1 x,y,z
2 1/2+x,1/2-y,-z
3 -x,1/2+y,1/2-z
4 1/2-x,-y,1/2+z
_cell_length_a 8.498(6)
_cell_length_b 9.401(6)
_cell_length_c 25.217(18)
_cell_angle_alpha 90
_cell_angle_beta 90
_cell_angle_gamma 90
_cell_formula_units_Z 4
loop_
_atom_type_symbol
_atom_type_radius_bond
C 0.68
N 0.68
O 0.68
loop_
_atom_site_label
_atom_site_type_symbol
_atom_site_fract_x
_atom_site_fract_y
_atom_site_fract_z
C1 C -0.03730 0.08490 0.44540
C2 C -0.07390 -0.40200 0.59480
C3 C -0.09750 -0.28520 0.63600
C4 C -0.19420 -0.34640 0.68380
C5 C 0.05580 -0.21960 0.65220
C6 C -0.15190 0.13580 0.40530
C7 C -0.16060 0.07680 0.35740
C8 C -0.26050 0.12960 0.31740
C9 C -0.35570 0.24210 0.33160
C10 C -0.35060 0.30400 0.38040
C11 C -0.24710 0.25030 0.41800
C12 C -0.00420 -0.12450 0.49820
C13 C 0.08950 -0.50160 0.41410
C14 C 0.00460 -0.46290 0.37000
C15 C 0.01980 -0.53930 0.32380
C16 C 0.12000 -0.65250 0.32390
C17 C 0.21510 -0.69080 0.36660
C18 C 0.19720 -0.61470 0.41260
C19 C 0.00380 -0.35190 0.54490
C20 C 0.02080 -0.46980 0.50420
N1 N 0.13780 -0.73710 0.27310
N2 N -0.08000 -0.23280 0.52090
O1 O 0.21990 -0.83600 0.27370
O2 O 0.06470 -0.69690 0.23530
O3 O -0.10440 -0.04180 0.47160
O4 O 0.13390 -0.10000 0.50230
O5 O -0.01010 -0.59350 0.51120
O6 O 0.07570 -0.41550 0.45870
#END
