
#######################################################################
#
#                 Cambridge Crystallographic Data Centre
#                                CCDC
#
#######################################################################
#
# If this CIF has been generated from an entry in the Cambridge
# Structural Database, then it will include bibliographic, chemical,
# crystal, experimental, refinement or atomic coordinate data resulting
# from the CCDC's data processing and validation procedures.
#
#######################################################################

data_CSD_CIF_CDECOX
_audit_creation_date 1980-03-07
_audit_creation_method CSD-ConQuest-V1
_database_code_CSD CDECOX
_database_code_depnum_ccdc_archive 'CCDC 1121691'
_chemical_formula_sum 'C10 H19 N1 O1'
_chemical_formula_moiety
;
C10 H19 N1 O1
;
_journal_coden_Cambridge 3
_journal_volume 33
_journal_year 1979
_journal_page_first 503
_journal_name_full 'Acta Chem.Scand. '
loop_
_publ_author_name
"P.Groth"
_chemical_name_systematic
;
Cyclodecane-oxime
;
_cell_volume    480.901
_exptl_crystal_density_diffrn 1.16
_exptl_special_details
;
Y(HO) should be positive

;
_diffrn_ambient_temperature 113.15
#These two values have been output from a single CSD field.
_refine_ls_R_factor_gt 0.031
_refine_ls_wR_factor_gt 0.031
_symmetry_cell_setting triclinic
_symmetry_space_group_name_H-M 'P -1'
_symmetry_Int_Tables_number 2
loop_
_symmetry_equiv_pos_site_id
_symmetry_equiv_pos_as_xyz
1 x,y,z
2 -x,-y,-z
_cell_length_a 5.447(1)
_cell_length_b 7.688(1)
_cell_length_c 12.802(2)
_cell_angle_alpha 77.83(1)
_cell_angle_beta 70.11(1)
_cell_angle_gamma 74.19(1)
_cell_formula_units_Z 2
loop_
_atom_type_symbol
_atom_type_radius_bond
C 0.68
H 0.23
N 0.68
O 0.68
loop_
_atom_site_label
_atom_site_type_symbol
_atom_site_fract_x
_atom_site_fract_y
_atom_site_fract_z
O1 O 0.80183 0.13224 0.09379
N1 N 0.74229 -0.03247 0.08522
C1 C 0.51683 -0.05490 0.15246
C2 C 0.32613 0.07891 0.22999
C3 C 0.37915 0.06597 0.34240
C4 C 0.44015 -0.12825 0.40336
C5 C 0.73725 -0.21790 0.36501
C6 C 0.80734 -0.42610 0.38131
C7 C 0.71921 -0.51409 0.30712
C8 C 0.84356 -0.46339 0.18011
C9 C 0.64700 -0.39080 0.11202
C10 C 0.43104 -0.22489 0.15157
H1 H 0.14890 0.06250 0.24330
H2 H 0.33280 0.20470 0.19170
H3 H 0.21730 0.14090 0.39170
H4 H 0.52880 0.12200 0.33040
H5 H 0.32940 -0.20380 0.39310
H6 H 0.38450 -0.12430 0.48510
H7 H 0.82830 -0.17320 0.40600
H8 H 0.81420 -0.17210 0.28350
H9 H 0.72640 -0.47340 0.46260
H10 H 1.00120 -0.46710 0.36510
H11 H 0.52550 -0.48280 0.32610
H12 H 0.76420 -0.64830 0.32410
H13 H 0.96560 -0.57070 0.14880
H14 H 0.95210 -0.37410 0.16830
H15 H 0.55670 -0.48840 0.11350
H16 H 0.74970 -0.36110 0.03270
H17 H 0.31980 -0.25720 0.22820
H18 H 0.31450 -0.19140 0.10500
H19 H 0.95640 0.13070 0.03990
#END
