
#######################################################################
#
#                 Cambridge Crystallographic Data Centre
#                                CCDC
#
#######################################################################
#
# If this CIF has been generated from an entry in the Cambridge
# Structural Database, then it will include bibliographic, chemical,
# crystal, experimental, refinement or atomic coordinate data resulting
# from the CCDC's data processing and validation procedures.
#
#######################################################################

data_CSD_CIF_CEBKID10
_audit_creation_date 1985-05-09
_audit_creation_method CSD-ConQuest-V1
_database_code_CSD CEBKID10
_database_code_depnum_ccdc_archive 'CCDC 1121905'
_chemical_formula_sum 'C25 H22 N2 O3'
_chemical_formula_moiety
;
C25 H22 N2 O3
;
_journal_coden_Cambridge 82
_journal_volume 25
_journal_year 1984
_journal_page_first 185-1
_journal_name_full 'Zh.Strukt.Khim.(Russ.)(J.Struct.Chem.) '
loop_
_publ_author_name
"K.Sh.Karaev"
"N.G.Furmanova"
_chemical_name_systematic
;
1-Benzyl-3,3-dimethyl-6'-nitrospiro((2H-1)-benzopyran-2,2'-indoline)
;
_cell_volume   1041.622
_exptl_crystal_colour 'yellow'
_exptl_crystal_density_diffrn 1.269
_diffrn_ambient_temperature ?
_diffrn_special_details
;
The study was carried out at room temperature,in the range 283-303K

;
#These two values have been output from a single CSD field.
_refine_ls_R_factor_gt 0.043
_refine_ls_wR_factor_gt 0.043
_symmetry_cell_setting triclinic
_symmetry_space_group_name_H-M 'P -1'
_symmetry_Int_Tables_number 2
loop_
_symmetry_equiv_pos_site_id
_symmetry_equiv_pos_as_xyz
1 x,y,z
2 -x,-y,-z
_cell_length_a 13.534(2)
_cell_length_b 10.173(1)
_cell_length_c 8.374(1)
_cell_angle_alpha 105.66(1)
_cell_angle_beta 104.91(1)
_cell_angle_gamma 73.02(1)
_cell_formula_units_Z 2
loop_
_atom_type_symbol
_atom_type_radius_bond
C 0.68
H 0.23
N 0.68
O 0.68
loop_
_atom_site_label
_atom_site_type_symbol
_atom_site_fract_x
_atom_site_fract_y
_atom_site_fract_z
O1 O 0.2582(1) 0.0913(1) 0.4789(2)
C1 C 0.6980(2) -0.2429(3) 0.8950(4)
O2 O 0.0643(2) 0.7199(2) 0.7528(3)
C2 C 0.6966(2) -0.3829(3) 0.8599(3)
O3 O -0.0019(2) 0.6271(2) 0.8902(3)
C3 C 0.6096(2) -0.4257(2) 0.7570(3)
N1 N 0.3560(1) -0.1303(2) 0.5219(2)
C4 C 0.5243(2) -0.3288(2) 0.6919(3)
N2 N 0.0512(2) 0.6184(2) 0.7896(3)
C5 C 0.2895(2) -0.1802(2) 0.2378(3)
C6 C 0.3808(2) -0.1840(2) 0.3592(3)
C7 C 0.4794(2) -0.2376(2) 0.3146(3)
C8 C 0.4820(2) -0.2880(3) 0.1436(4)
C9 C 0.3916(3) -0.2857(3) 0.0235(4)
C10 C 0.2938(2) -0.2309(3) 0.0689(3)
C11 C 0.1957(2) -0.1185(2) 0.3233(3)
C12 C 0.2495(2) -0.0444(2) 0.4995(3)
C13 C 0.1965(2) -0.0254(2) 0.6423(3)
C14 C 0.1456(2) 0.0997(2) 0.7188(3)
C15 C 0.1453(2) 0.2275(2) 0.6741(3)
C16 C 0.2043(2) 0.2169(2) 0.5548(3)
C17 C 0.2132(2) 0.3350(2) 0.5122(3)
C18 C 0.1615(2) 0.4667(2) 0.5882(3)
C19 C 0.1032(2) 0.4773(2) 0.7056(3)
C20 C 0.0940(2) 0.3611(2) 0.7499(3)
C21 C 0.1053(2) -0.0181(3) 0.2335(4)
C22 C 0.1568(2) -0.2407(3) 0.3429(4)
C23 C 0.4325(2) -0.0758(2) 0.6640(3)
C24 C 0.5242(2) -0.1878(2) 0.7277(3)
C25 C 0.6129(2) -0.1458(3) 0.8301(3)
H1 H 0.543(2) -0.237(2) 0.398(3)
H2 H 0.546(2) -0.320(2) 0.104(3)
H3 H 0.395(2) -0.319(3) -0.094(3)
H4 H 0.230(2) -0.224(2) -0.009(3)
H5 H 0.201(2) -0.107(2) 0.673(3)
H6 H 0.110(2) 0.101(2) 0.805(3)
H7 H 0.259(2) 0.326(2) 0.437(3)
H8 H 0.169(2) 0.546(2) 0.549(3)
H9 H 0.052(2) 0.371(2) 0.824(3)
H10 H 0.070(2) -0.063(2) 0.125(3)
H11 H 0.052(2) 0.027(3) 0.300(3)
H12 H 0.135(2) 0.046(2) 0.205(3)
H13 H 0.133(2) -0.298(3) 0.232(3)
H14 H 0.098(2) -0.208(2) 0.406(3)
H15 H 0.217(2) -0.313(2) 0.415(3)
H16 H 0.459(2) -0.002(2) 0.633(3)
H17 H 0.392(2) -0.017(2) 0.757(3)
H18 H 0.613(2) -0.046(2) 0.847(3)
H19 H 0.759(2) -0.206(3) 0.973(3)
H20 H 0.762(2) -0.454(3) 0.921(3)
H21 H 0.607(2) -0.525(2) 0.734(3)
H22 H 0.459(2) -0.357(2) 0.628(3)
#END
