
#######################################################################
#
#                 Cambridge Crystallographic Data Centre
#                                CCDC
#
#######################################################################
#
# If this CIF has been generated from an entry in the Cambridge
# Structural Database, then it will include bibliographic, chemical,
# crystal, experimental, refinement or atomic coordinate data resulting
# from the CCDC's data processing and validation procedures.
#
#######################################################################

data_CSD_CIF_CEBLUS
_audit_creation_date 2013-02-22
_audit_creation_method CSD-ConQuest-V1
_database_code_CSD CEBLUS
_database_code_depnum_ccdc_archive 'CCDC 823597'
_chemical_formula_sum 'C26 H29 N3 O5'
_chemical_formula_moiety
;
C26 H29 N3 O5
;
_journal_coden_Cambridge 16
_journal_volume 68
_journal_year 2012
_journal_page_first 8046
_journal_name_full 'Tetrahedron '
loop_
_publ_author_name
"A.A.Esmaeili"
"S.Shahmansouri"
"A.Habibi"
"A.R.Fakhari"
_chemical_name_systematic
;
Isopropyl 
5-(cyclohexylimino)-4-(4-nitrobenzyl)-2-phenyl-4,5-dihydro-1,3-oxazole-4-carbo
xylate
;
_cell_volume   2505.125
_exptl_crystal_colour 'yellow'
_exptl_crystal_density_diffrn 1.229
_exptl_crystal_description 'block'
_diffrn_ambient_temperature 120
#These two values have been output from a single CSD field.
_refine_ls_R_factor_gt 0.1358
_refine_ls_wR_factor_gt 0.1358
_symmetry_cell_setting monoclinic
_symmetry_space_group_name_H-M 'P 21/c'
_symmetry_Int_Tables_number 14
loop_
_symmetry_equiv_pos_site_id
_symmetry_equiv_pos_as_xyz
1 x,y,z
2 -x,1/2+y,1/2-z
3 -x,-y,-z
4 x,-1/2-y,-1/2+z
_cell_length_a 10.440(2)
_cell_length_b 14.726(3)
_cell_length_c 16.917(3)
_cell_angle_alpha 90
_cell_angle_beta 105.59(3)
_cell_angle_gamma 90
_cell_formula_units_Z 4
loop_
_atom_type_symbol
_atom_type_radius_bond
C 0.68
H 0.23
N 0.68
O 0.68
loop_
_atom_site_label
_atom_site_type_symbol
_atom_site_fract_x
_atom_site_fract_y
_atom_site_fract_z
O1 O 0.5561(2) 0.09522(18) 0.24386(15)
O2 O 0.7134(3) -0.0845(2) 0.21590(19)
N1 N 0.7848(3) 0.1242(2) 0.26195(18)
O3 O 0.7837(3) -0.0710(2) 0.10170(17)
C1 C 0.7249(4) -0.0431(3) 0.1481(2)
O4 O 0.4309(4) 0.5052(2) 0.0716(2)
C2 C 0.3279(3) 0.0527(2) 0.1892(2)
C3 C 0.4636(4) 0.0543(3) 0.1795(2)
N2 N 0.5027(3) 0.0248(2) 0.11904(19)
N3 N 0.3812(4) 0.4385(2) 0.0314(2)
C4 C 0.6751(3) 0.0934(2) 0.2211(2)
O5 O 0.2697(4) 0.4390(3) -0.0174(2)
C5 C 0.6463(3) 0.0469(2) 0.1382(2)
C6 C 0.7986(4) 0.1612(3) 0.3445(2)
H1 H 0.71050 0.16600 0.35440
C7 C 0.2210(4) 0.0420(3) 0.1194(2)
H2 H 0.23600 0.03340 0.06810
C8 C 0.6025(4) 0.1939(3) 0.0602(2)
C9 C 0.4575(4) 0.3548(3) 0.0413(2)
C10 C 0.6573(4) 0.2724(3) 0.1011(2)
H3 H 0.74380 0.27110 0.13480
C11 C 0.6770(4) 0.1062(3) 0.0712(2)
H4 H 0.77170 0.11880 0.08530
H5 H 0.65410 0.07310 0.01970
C12 C 0.0905(4) 0.0444(3) 0.1278(3)
H6 H 0.01840 0.03710 0.08200
C13 C 0.3051(4) 0.0659(3) 0.2658(2)
H7 H 0.37660 0.07340 0.31200
C14 C 0.3992(4) 0.2776(3) -0.0007(3)
H8 H 0.31270 0.27910 -0.03450
C15 C 0.0695(4) 0.0577(3) 0.2047(3)
H9 H -0.01670 0.05980 0.21020
C16 C 0.4737(4) 0.1983(3) 0.0093(3)
H10 H 0.43620 0.14640 -0.01900
C17 C 0.5847(4) 0.3536(3) 0.0923(2)
H11 H 0.62170 0.40570 0.12050
C18 C 0.1768(4) 0.0678(3) 0.2734(3)
H12 H 0.16210 0.07590 0.32480
C19 C 0.8844(6) 0.0989(4) 0.4071(3)
H13 H 0.96770 0.08890 0.39340
H14 H 0.84020 0.04070 0.40520
C20 C 0.7845(5) -0.1703(3) 0.2415(3)
H15 H 0.76920 -0.21240 0.19510
C21 C 0.9316(5) -0.1511(4) 0.2749(3)
H16 H 0.96490 -0.12400 0.23270
H17 H 0.97810 -0.20690 0.29250
H18 H 0.94530 -0.11020 0.32060
C22 C 0.7266(6) -0.2080(3) 0.3075(3)
H19 H 0.73780 -0.16470 0.35120
H20 H 0.77160 -0.26340 0.32850
H21 H 0.63360 -0.22010 0.28470
C23 C 0.8614(8) 0.2556(4) 0.3501(3)
H22 H 0.80150 0.29670 0.31300
H23 H 0.94350 0.25240 0.33370
C24 C 0.9136(6) 0.1369(4) 0.4938(3)
H24 H 0.83200 0.13820 0.51080
H25 H 0.97560 0.09690 0.53100
C25 C 0.9713(7) 0.2309(5) 0.5001(3)
H26 H 0.97910 0.25450 0.55470
H27 H 1.06000 0.22790 0.49240
C26 C 0.8911(9) 0.2927(4) 0.4401(3)
H28 H 0.93710 0.35040 0.44330
H29 H 0.80760 0.30340 0.45330
#END
