
#######################################################################
#
#                 Cambridge Crystallographic Data Centre
#                                CCDC
#
#######################################################################
#
# If this CIF has been generated from an entry in the Cambridge
# Structural Database, then it will include bibliographic, chemical,
# crystal, experimental, refinement or atomic coordinate data resulting
# from the CCDC's data processing and validation procedures.
#
#######################################################################

data_CSD_CIF_CEDKAZ
_audit_creation_date 2013-04-24
_audit_creation_method CSD-ConQuest-V1
_database_code_CSD CEDKAZ
_database_code_depnum_ccdc_archive 'CCDC 807626'
_chemical_formula_sum 'C25 H27 N1 O6'
_chemical_formula_moiety
;
C25 H27 N1 O6
;
_journal_coden_Cambridge 1185
_journal_volume 28
_journal_year 2012
_journal_page_first 837
_journal_name_full 'Chem.Res.Chin.Univ. '
loop_
_publ_author_name
"Xiao-dong Chen"
"Chao Wang"
"Ai-Xi Hu"
"Jiao Ye"
"Cui-yang Zhang"
_chemical_name_systematic
;
N-Ethoxy-8,9-dimethoxy-2-(prop-1-en-2-yl)-1,2,12,12a-tetrahydrochromeno[3,4-b]
furo[2,3-h]chromen-6(6aH)-imine
;
_chemical_name_common
;
rotenone O-ethyl oxime
;
_cell_volume   4349.032
_exptl_crystal_colour 'colorless'
_exptl_crystal_density_diffrn 1.336
_exptl_crystal_description 'block'
_diffrn_ambient_temperature 173
#These two values have been output from a single CSD field.
_refine_ls_R_factor_gt 0.0351
_refine_ls_wR_factor_gt 0.0351
_symmetry_cell_setting tetragonal
_symmetry_space_group_name_H-M 'P 43 21 2'
_symmetry_Int_Tables_number 96
loop_
_symmetry_equiv_pos_site_id
_symmetry_equiv_pos_as_xyz
1 x,y,z
2 -x,-y,1/2+z
3 1/2-y,1/2+x,3/4+z
4 1/2+y,1/2-x,1/4+z
5 1/2-x,1/2+y,3/4-z
6 1/2+x,1/2-y,1/4-z
7 y,x,-z
8 -y,-x,1/2-z
_cell_length_a 10.4829(3)
_cell_length_b 10.4829(3)
_cell_length_c 39.5758(18)
_cell_angle_alpha 90
_cell_angle_beta 90
_cell_angle_gamma 90
_cell_formula_units_Z 8
loop_
_atom_type_symbol
_atom_type_radius_bond
C 0.68
H 0.23
N 0.68
O 0.68
loop_
_atom_site_label
_atom_site_type_symbol
_atom_site_fract_x
_atom_site_fract_y
_atom_site_fract_z
C1 C 0.9959(2) 0.9999(2) 0.13188(5)
H1 H 1.00420 1.03970 0.11040
C2 C 0.9174(2) 1.0547(2) 0.15580(5)
C3 C 0.9021(2) 0.9945(2) 0.18744(5)
C4 C 0.9674(2) 0.8827(2) 0.19397(5)
H2 H 0.95670 0.84100 0.21510
C5 C 1.0487(2) 0.8309(2) 0.16979(5)
C6 C 1.2034(2) 0.6705(2) 0.15714(5)
H3 H 1.21540 0.57860 0.16200
H4 H 1.28550 0.71420 0.16140
C7 C 1.1683(2) 0.68638(19) 0.12045(5)
H5 H 1.23720 0.64950 0.10590
C8 C 0.99629(19) 0.63190(19) 0.08425(5)
C9 C 0.8537(2) 0.5504(2) 0.04252(5)
C10 C 0.8771(2) 0.6518(2) 0.02079(5)
H6 H 0.83780 0.65690 -0.00080
C11 C 0.9599(2) 0.7447(2) 0.03201(5)
H7 H 0.97640 0.81600 0.01790
C12 C 1.10457(19) 0.8398(2) 0.07620(5)
C13 C 1.15155(19) 0.82721(19) 0.11218(5)
H8 H 1.23680 0.86960 0.11380
C14 C 1.06365(19) 0.88752(19) 0.13821(5)
C15 C 1.02125(19) 0.73784(19) 0.06368(5)
C16 C 0.9101(2) 0.5396(2) 0.07396(5)
C17 C 0.8635(2) 0.4195(2) 0.09079(5)
H9 H 0.82130 0.43830 0.11260
H10 H 0.93420 0.35860 0.09460
C18 C 0.7673(2) 0.3674(2) 0.06462(5)
H11 H 0.67950 0.37190 0.07440
C19 C 0.7913(3) 0.2348(2) 0.05234(6)
C20 C 0.6960(5) 0.1526(3) 0.05201(8)
H12 H 0.61380 0.17800 0.05950
H13 H 0.70970 0.06790 0.04430
C21 C 0.9237(4) 0.2052(4) 0.04011(8)
H14 H 0.98070 0.19490 0.05950
H15 H 0.95440 0.27520 0.02590
H16 H 0.92230 0.12600 0.02690
C22 C 0.7234(2) 1.1646(2) 0.14539(6)
H17 H 0.70150 1.11040 0.12610
H18 H 0.68970 1.25070 0.14170
H19 H 0.68590 1.12870 0.16600
C23 C 0.7878(3) 0.9812(3) 0.23917(6)
H20 H 0.74850 0.90060 0.23220
H21 H 0.72690 1.03050 0.25270
H22 H 0.86410 0.96350 0.25270
C24 C 1.2940(2) 1.0774(2) 0.04720(6)
H23 H 1.33240 1.15720 0.05590
H24 H 1.24570 1.09830 0.02640
C25 C 1.3978(3) 0.9834(3) 0.03895(8)
H25 H 1.44530 0.96260 0.05950
H26 H 1.45600 1.02090 0.02230
H27 H 1.35990 0.90560 0.02960
N1 N 1.13420(18) 0.93019(17) 0.05592(4)
O1 O 1.10879(15) 0.72065(15) 0.17944(4)
O2 O 1.05170(14) 0.61576(14) 0.11544(3)
O3 O 0.77427(15) 0.45209(15) 0.03490(4)
O4 O 0.85929(15) 1.17037(14) 0.14894(4)
O5 O 0.82286(17) 1.05307(18) 0.20979(4)
O6 O 1.20832(16) 1.02501(14) 0.07221(4)
#END
