
#######################################################################
#
#                 Cambridge Crystallographic Data Centre
#                                CCDC
#
#######################################################################
#
# If this CIF has been generated from an entry in the Cambridge
# Structural Database, then it will include bibliographic, chemical,
# crystal, experimental, refinement or atomic coordinate data resulting
# from the CCDC's data processing and validation procedures.
#
#######################################################################

data_CSD_CIF_CEDQAF
_audit_creation_date 2012-11-16
_audit_creation_method CSD-ConQuest-V1
_database_code_CSD CEDQAF
_database_code_depnum_ccdc_archive 'CCDC 799745'
_chemical_formula_sum 'C14 H11 N3 O4'
_chemical_formula_moiety
;
C14 H11 N3 O4
;
_journal_coeditor_code "IUCr FB2226"
_journal_coden_Cambridge 1370
_journal_volume 66
_journal_year 2010
_journal_page_first o3004
_journal_name_full 'Acta Crystallogr.,Sect.E:Struct.Rep.Online '
loop_
_publ_author_name
"Chun-Hua Dai"
"Fu-Lin Mao"
_chemical_name_systematic
;
N'-(3-Hydroxybenzylidene)-4-nitrobenzohydrazide
;
_cell_volume   1296.854
_exptl_crystal_colour 'yellow'
_exptl_crystal_density_diffrn 1.461
_exptl_crystal_description 'block'
_diffrn_ambient_temperature 298
#These two values have been output from a single CSD field.
_refine_ls_R_factor_gt 0.0444
_refine_ls_wR_factor_gt 0.0444
_symmetry_cell_setting monoclinic
_symmetry_space_group_name_H-M 'P 21/n'
_symmetry_Int_Tables_number 14
loop_
_symmetry_equiv_pos_site_id
_symmetry_equiv_pos_as_xyz
1 x,y,z
2 1/2-x,1/2+y,1/2-z
3 -x,-y,-z
4 -1/2+x,-1/2-y,-1/2+z
_cell_length_a 9.987(3)
_cell_length_b 8.967(3)
_cell_length_c 15.108(4)
_cell_angle_alpha 90
_cell_angle_beta 106.560(3)
_cell_angle_gamma 90
_cell_formula_units_Z 4
loop_
_atom_type_symbol
_atom_type_radius_bond
C 0.68
H 0.23
N 0.68
O 0.68
loop_
_atom_site_label
_atom_site_type_symbol
_atom_site_fract_x
_atom_site_fract_y
_atom_site_fract_z
N1 N 0.00619(14) 0.30350(16) 0.94081(9)
N2 N 0.12358(14) 0.36267(16) 1.0031(1)
N3 N 0.69398(17) 0.6801(2) 1.24192(14)
O1 O -0.42069(13) 0.13866(16) 0.68671(8)
H1 H -0.493(2) 0.089(2) 0.6608(16)
O2 O 0.16825(12) 0.52109(15) 0.89819(8)
O3 O 0.76141(18) 0.7733(2) 1.21577(13)
O4 O 0.72752(16) 0.62850(19) 1.31937(12)
C1 C -0.18157(16) 0.12789(18) 0.91821(11)
C2 C -0.24225(16) 0.16628(19) 0.82649(11)
H2 H -0.20250 0.24050 0.79920
C3 C -0.36203(17) 0.0939(2) 0.77569(11)
C4 C -0.42103(19) -0.0178(2) 0.81556(13)
H3 H -0.50050 -0.06750 0.78100
C5 C -0.3613(2) -0.0546(2) 0.90643(14)
H4 H -0.40150 -0.12900 0.93340
C6 C -0.24222(18) 0.0171(2) 0.95848(13)
H5 H -0.20290 -0.00860 1.02010
C7 C -0.05675(17) 0.20413(19) 0.97439(12)
H6 H -0.02220 0.17940 1.03650
C8 C 0.19947(16) 0.4687(2) 0.97659(12)
C9 C 0.32783(16) 0.52089(18) 1.04872(11)
C10 C 0.39976(17) 0.64059(19) 1.02656(12)
H7 H 0.36760 0.68550 0.96890
C11 C 0.51947(18) 0.6937(2) 1.09002(13)
H8 H 0.56810 0.77420 1.07560
C12 C 0.56488(16) 0.62500(19) 1.17461(12)
C13 C 0.49633(17) 0.50675(19) 1.19882(12)
H9 H 0.52920 0.46240 1.25660
C14 C 0.37696(16) 0.45478(19) 1.13512(11)
H10 H 0.32890 0.37450 1.15030
H11 H 0.1392(19) 0.341(2) 1.0640(14)
#END
