
#######################################################################
#
#                 Cambridge Crystallographic Data Centre
#                                CCDC
#
#######################################################################
#
# If this CIF has been generated from an entry in the Cambridge
# Structural Database, then it will include bibliographic, chemical,
# crystal, experimental, refinement or atomic coordinate data resulting
# from the CCDC's data processing and validation procedures.
#
#######################################################################

data_CSD_CIF_CEDVAK
_audit_creation_date 2012-11-16
_audit_creation_method CSD-ConQuest-V1
_database_code_CSD CEDVAK
_database_code_depnum_ccdc_archive 'CCDC 799764'
_chemical_formula_sum 'C17 H19 N1 O3'
_chemical_formula_moiety
;
C17 H19 N1 O3
;
_journal_coeditor_code "IUCr PB2043"
_journal_coden_Cambridge 1370
_journal_volume 66
_journal_year 2010
_journal_page_first o3030
_journal_name_full 'Acta Crystallogr.,Sect.E:Struct.Rep.Online '
loop_
_publ_author_name
"A.M.Maharramov"
"A.I.Ismiyev"
"B.A.Rashidov"
_chemical_name_systematic
;
rac-1-(6-Hydroxy-3,6-dimethyl-4-phenyl-4,5,6,7-tetrahydro-2,1-benzoxazol-5-yl)
ethanone
;
_chemical_melting_point 413.15
_cell_volume   1503.615
_exptl_crystal_colour 'colorless'
_exptl_crystal_density_diffrn 1.26
_exptl_crystal_description 'prism'
_exptl_crystal_preparation 'ethanol'
_diffrn_ambient_temperature 296
#These two values have been output from a single CSD field.
_refine_ls_R_factor_gt 0.0456
_refine_ls_wR_factor_gt 0.0456
_symmetry_cell_setting monoclinic
_symmetry_space_group_name_H-M 'P 21/c'
_symmetry_Int_Tables_number 14
loop_
_symmetry_equiv_pos_site_id
_symmetry_equiv_pos_as_xyz
1 x,y,z
2 -x,1/2+y,1/2-z
3 -x,-y,-z
4 x,-1/2-y,-1/2+z
_cell_length_a 16.1518(9)
_cell_length_b 5.5353(3)
_cell_length_c 17.2956(9)
_cell_angle_alpha 90
_cell_angle_beta 103.496(1)
_cell_angle_gamma 90
_cell_formula_units_Z 4
loop_
_atom_type_symbol
_atom_type_radius_bond
C 0.68
H 0.23
N 0.68
O 0.68
loop_
_atom_site_label
_atom_site_type_symbol
_atom_site_fract_x
_atom_site_fract_y
_atom_site_fract_z
N1 N 0.01908(8) 1.0929(3) 0.62899(8)
O1 O 0.03792(7) 0.9296(3) 0.69321(7)
C1 C 0.11922(9) 0.8524(3) 0.70211(9)
C2 C 0.15432(8) 0.9589(3) 0.64670(8)
C3 C 0.24052(8) 0.9339(2) 0.62856(7)
H1 H 0.24270 0.77680 0.60300
C4 C 0.25009(8) 1.1335(2) 0.56826(8)
H2 H 0.25450 1.28720 0.59700
C5 C 0.16899(9) 1.1510(2) 0.49910(8)
O2 O 0.14932(6) 0.90993(17) 0.47197(6)
H3 H 0.10680 0.91060 0.43520
C6 C 0.09667(9) 1.2536(3) 0.53313(9)
H4 H 0.10890 1.42010 0.54920
H5 H 0.04360 1.24970 0.49280
C7 C 0.08853(9) 1.1061(3) 0.60280(8)
C8 C 0.14961(12) 0.6749(4) 0.76606(11)
H6 H 0.10530 0.64340 0.79330
H7 H 0.19860 0.73840 0.80300
H8 H 0.16470 0.52750 0.74350
C9 C 0.31251(8) 0.9425(2) 0.70323(8)
C10 C 0.31689(10) 1.1287(3) 0.75728(9)
H9 H 0.27670 1.25210 0.74680
C11 C 0.38009(11) 1.1345(4) 0.82687(10)
H10 H 0.38180 1.26000 0.86300
C12 C 0.44022(10) 0.9549(4) 0.84244(10)
H11 H 0.48230 0.95740 0.88940
C13 C 0.43813(10) 0.7719(4) 0.78874(11)
H12 H 0.47960 0.65200 0.79870
C14 C 0.37398(9) 0.7651(3) 0.71932(9)
H13 H 0.37260 0.63940 0.68340
C15 C 0.33153(9) 1.1072(3) 0.53928(8)
O3 O 0.37936(8) 1.2779(3) 0.54585(9)
C16 C 0.35025(12) 0.8785(4) 0.50168(12)
H14 H 0.40380 0.89280 0.48700
H15 H 0.30600 0.84720 0.45510
H16 H 0.35300 0.74770 0.53870
C17 C 0.18200(11) 1.3114(3) 0.43155(9)
H17 H 0.13050 1.31630 0.39050
H18 H 0.22730 1.24740 0.41030
H19 H 0.19640 1.47180 0.45120
#END
