
#######################################################################
#
#                 Cambridge Crystallographic Data Centre
#                                CCDC
#
#######################################################################
#
# If this CIF has been generated from an entry in the Cambridge
# Structural Database, then it will include bibliographic, chemical,
# crystal, experimental, refinement or atomic coordinate data resulting
# from the CCDC's data processing and validation procedures.
#
#######################################################################

data_CSD_CIF_CEDWIT
_audit_creation_date 2012-11-16
_audit_creation_method CSD-ConQuest-V1
_database_code_CSD CEDWIT
_database_code_depnum_ccdc_archive 'CCDC 799771'
_chemical_formula_sum 'C30 H31 N1 O3'
_chemical_formula_moiety
;
C30 H31 N1 O3
;
_journal_coeditor_code "IUCr BT5399"
_journal_coden_Cambridge 1370
_journal_volume 66
_journal_year 2010
_journal_page_first o3040
_journal_name_full 'Acta Crystallogr.,Sect.E:Struct.Rep.Online '
loop_
_publ_author_name
"M.Akhazzane"
"H.Zouihri"
"M.Daoudi"
"A.Kerbal"
"G.Al Houari"
_chemical_name_systematic
;
4-t-Butyl-4'-(4-methoxyphenyl)-3'-(4-methylphenyl)-1,2,3,4-tetrahydrospiro[nap
hthalene-2,5'(4'H)-1,2-oxazol]-1-one
;
_cell_volume   2432.359
_exptl_crystal_colour 'yellow'
_exptl_crystal_density_diffrn 1.239
_exptl_crystal_description 'block'
_exptl_crystal_preparation 'ethanol'
_diffrn_ambient_temperature 296
#These two values have been output from a single CSD field.
_refine_ls_R_factor_gt 0.042
_refine_ls_wR_factor_gt 0.042
_symmetry_cell_setting monoclinic
_symmetry_space_group_name_H-M 'P 21/c'
_symmetry_Int_Tables_number 14
loop_
_symmetry_equiv_pos_site_id
_symmetry_equiv_pos_as_xyz
1 x,y,z
2 -x,1/2+y,1/2-z
3 -x,-y,-z
4 x,-1/2-y,-1/2+z
_cell_length_a 6.9248(3)
_cell_length_b 24.7919(12)
_cell_length_c 14.2111(7)
_cell_angle_alpha 90
_cell_angle_beta 94.460(2)
_cell_angle_gamma 90
_cell_formula_units_Z 4
loop_
_atom_type_symbol
_atom_type_radius_bond
C 0.68
H 0.23
N 0.68
O 0.68
loop_
_atom_site_label
_atom_site_type_symbol
_atom_site_fract_x
_atom_site_fract_y
_atom_site_fract_z
O1 O 0.63085(15) 0.63345(4) 0.73883(8)
N1 N 0.60997(19) 0.58121(5) 0.69829(9)
O2 O 0.36687(18) 0.66608(4) 0.57094(7)
C1 C 0.4373(2) 0.65875(6) 0.73832(10)
C2 C 0.3017(2) 0.60949(6) 0.73542(10)
H1 H 0.18790 0.61640 0.69170
C3 C 0.5015(2) 0.74455(6) 0.64473(11)
C4 C 0.3633(2) 0.51695(6) 0.65106(11)
C5 C 0.4863(2) 0.77684(6) 0.72404(11)
C6 C 0.4304(2) 0.56809(6) 0.69348(10)
C7 C 0.4249(2) 0.68879(6) 0.64352(11)
C8 C 0.2379(2) 0.59128(6) 0.82979(11)
C9 C 0.3692(2) 0.57148(7) 0.89982(12)
H2 H 0.49730 0.56630 0.88650
C10 C 0.3864(2) 0.75536(6) 0.80660(11)
H3 H 0.44210 0.77540 0.86160
C11 C 0.4479(2) 0.69652(6) 0.82392(11)
H4 H 0.58030 0.69650 0.85180
H5 H 0.36750 0.68140 0.87030
C12 C 0.2301(3) 0.42282(7) 0.55619(12)
O3 O 0.0559(2) 0.55683(6) 1.09572(10)
C13 C 0.4913(3) 0.48045(7) 0.61566(12)
H6 H 0.62380 0.48720 0.62330
C14 C -0.0083(3) 0.58377(7) 0.93966(14)
H7 H -0.13740 0.58730 0.95240
C15 C 0.0469(2) 0.59639(7) 0.85111(12)
H8 H -0.04560 0.60850 0.80500
C16 C 0.5666(2) 0.82844(7) 0.72359(13)
H9 H 0.55880 0.85070 0.77590
C17 C 0.3150(3) 0.55912(7) 0.98906(12)
H10 H 0.40610 0.54620 1.03510
C18 C 0.5907(3) 0.76397(7) 0.56714(12)
H11 H 0.59770 0.74230 0.51400
C19 C 0.4250(3) 0.43438(7) 0.56943(12)
H12 H 0.51390 0.41050 0.54660
C20 C 0.0526(2) 0.73897(8) 0.71858(14)
H13 H 0.06940 0.70060 0.72400
H14 H 0.10110 0.75120 0.66080
H15 H -0.08260 0.74760 0.71840
C21 C 0.1637(2) 0.76677(7) 0.80208(12)
C22 C 0.1257(3) 0.56609(7) 1.00910(13)
C23 C 0.1675(3) 0.50474(7) 0.63929(13)
H16 H 0.07800 0.52810 0.66300
C24 C 0.1035(3) 0.45842(8) 0.59279(14)
H17 H -0.02860 0.45110 0.58610
C25 C 0.6686(3) 0.81497(8) 0.56862(14)
H18 H 0.72880 0.82780 0.51680
C26 C 0.1311(3) 0.82777(7) 0.79301(15)
H19 H -0.00380 0.83560 0.79670
H20 H 0.17120 0.83990 0.73340
H21 H 0.20560 0.84590 0.84330
C27 C 0.6571(3) 0.84692(8) 0.64697(14)
H22 H 0.71090 0.88130 0.64830
C28 C 0.0841(3) 0.74815(8) 0.89371(15)
H23 H -0.05040 0.75760 0.89310
H24 H 0.15480 0.76530 0.94620
H25 H 0.09780 0.70970 0.89950
C29 C 0.1889(4) 0.53982(9) 1.17053(14)
H26 H 0.24380 0.50570 1.15480
H27 H 0.12290 0.53610 1.22710
H28 H 0.29030 0.56610 1.18040
C30 C 0.1581(4) 0.37406(8) 0.50084(15)
H29 H 0.20000 0.37600 0.43810
H30 H 0.01920 0.37310 0.49780
H31 H 0.20930 0.34200 0.53140
#END
