
#######################################################################
#
#                 Cambridge Crystallographic Data Centre
#                                CCDC
#
#######################################################################
#
# If this CIF has been generated from an entry in the Cambridge
# Structural Database, then it will include bibliographic, chemical,
# crystal, experimental, refinement or atomic coordinate data resulting
# from the CCDC's data processing and validation procedures.
#
#######################################################################

data_CSD_CIF_CEFGID
_audit_creation_date 1984-10-09
_audit_creation_method CSD-ConQuest-V1
_database_code_CSD CEFGID
_database_code_depnum_ccdc_archive 'CCDC 1122260'
_chemical_formula_sum 'C17 H17 N3 O4'
_chemical_formula_moiety
;
C17 H17 N3 O4
;
_journal_coeditor_code "IUCr A23350"
_journal_coden_Cambridge 591
_journal_volume 40
_journal_year 1984
_journal_page_first 166
_journal_name_full 'Acta Crystallogr.,Sect.C:Cryst.Struct.Commun. '
loop_
_publ_author_name
"B.K.Sinha"
"V.Pattabhi"
"S.Raghunathan"
"E.J.Gabe"
_chemical_name_systematic
;
N-Acetyl-DL-phenylalanine-p-nitroanilide
;
_cell_volume    830.603
_exptl_crystal_colour 'colorless'
_exptl_crystal_density_diffrn 1.309
_diffrn_ambient_temperature ?
_diffrn_special_details
;
The study was carried out at room temperature,in the range 283-303K

;
#These two values have been output from a single CSD field.
_refine_ls_R_factor_gt 0.054
_refine_ls_wR_factor_gt 0.054
_symmetry_cell_setting triclinic
_symmetry_space_group_name_H-M 'P -1'
_symmetry_Int_Tables_number 2
loop_
_symmetry_equiv_pos_site_id
_symmetry_equiv_pos_as_xyz
1 x,y,z
2 -x,-y,-z
_cell_length_a 7.219(1)
_cell_length_b 9.122(1)
_cell_length_c 13.805(1)
_cell_angle_alpha 99.07(1)
_cell_angle_beta 92.55(1)
_cell_angle_gamma 111.41(1)
_cell_formula_units_Z 2
loop_
_atom_type_symbol
_atom_type_radius_bond
C 0.68
H 0.23
N 0.68
O 0.68
loop_
_atom_site_label
_atom_site_type_symbol
_atom_site_fract_x
_atom_site_fract_y
_atom_site_fract_z
C1 C 0.61760 0.31040 0.95290
C2 C 0.49210 0.15730 0.91130
C3 C 0.40670 0.12490 0.81610
C4 C 0.44670 0.24560 0.76190
C5 C 0.57120 0.40090 0.80580
C6 C 0.65690 0.43230 0.90090
C7 C 0.37100 0.29580 0.59610
C8 C 0.25890 0.20730 0.49560
C9 C 0.39870 0.15400 0.43160
C10 C 0.29370 0.06180 0.33190
C11 C 0.17740 -0.10100 0.31980
C12 C 0.07380 -0.18540 0.23400
C13 C 0.07500 -0.11440 0.15520
C14 C 0.19020 0.05070 0.16270
C15 C 0.30230 0.13870 0.25320
C16 C -0.00050 0.26340 0.40670
C17 C -0.04240 0.38250 0.35270
N1 N 0.71760 0.34290 1.05260
N2 N 0.35430 0.20200 0.66450
N3 N 0.18560 0.31140 0.45040
O1 O 0.82230 0.47740 1.08970
O2 O 0.69830 0.23290 1.09360
O3 O 0.47180 0.43990 0.61160
O4 O -0.13180 0.13510 0.41020
H1 H 0.46400 0.08800 0.95000
H2 H 0.32300 0.01200 0.78300
H3 H 0.59800 0.48700 0.76900
H4 H 0.75000 0.54100 0.93800
H5 H 0.15000 0.12100 0.50100
H6 H 0.51700 0.25800 0.43000
H7 H 0.43800 0.09700 0.46800
H8 H 0.18000 -0.15500 0.38000
H9 H -0.00600 -0.29900 0.22600
H10 H 0.00900 -0.17400 0.09600
H11 H 0.21700 0.10900 0.11600
H12 H 0.39200 0.23900 0.25700
H13 H -0.17000 0.38400 0.36400
H14 H 0.05500 0.48500 0.37300
H15 H -0.05400 0.35200 0.28900
H16 H 0.28000 0.10000 0.64200
H17 H 0.27100 0.40300 0.44800
#END
