
#######################################################################
#
#                 Cambridge Crystallographic Data Centre
#                                CCDC
#
#######################################################################
#
# If this CIF has been generated from an entry in the Cambridge
# Structural Database, then it will include bibliographic, chemical,
# crystal, experimental, refinement or atomic coordinate data resulting
# from the CCDC's data processing and validation procedures.
#
#######################################################################

data_CSD_CIF_CEFNEI
_audit_creation_date 2012-12-31
_audit_creation_method CSD-ConQuest-V1
_database_code_CSD CEFNEI
_database_code_depnum_ccdc_archive 'CCDC 907374'
_chemical_formula_sum 'C19 H20 N2 O3'
_chemical_formula_moiety
;
C19 H20 N2 O3
;
_journal_coeditor_code "IUCr FJ2593"
_journal_coden_Cambridge 1370
_journal_volume 68
_journal_year 2012
_journal_page_first o2829
_journal_name_full 'Acta Crystallogr.,Sect.E:Struct.Rep.Online '
loop_
_publ_author_name
"B.Eftekhari-Sis"
"S.Mohajer"
"O.Buyukgungor"
_chemical_name_systematic
;
2-(Anilino(2-nitrophenyl)methyl)cyclohexanone
;
_cell_volume   1661.527
_exptl_crystal_colour 'colorless'
_exptl_crystal_density_diffrn 1.297
_exptl_crystal_description 'prism'
_exptl_crystal_preparation 'ethanol'
_diffrn_ambient_temperature 296
#These two values have been output from a single CSD field.
_refine_ls_R_factor_gt 0.0542
_refine_ls_wR_factor_gt 0.0542
_symmetry_cell_setting monoclinic
_symmetry_space_group_name_H-M 'P 21/c'
_symmetry_Int_Tables_number 14
loop_
_symmetry_equiv_pos_site_id
_symmetry_equiv_pos_as_xyz
1 x,y,z
2 -x,1/2+y,1/2-z
3 -x,-y,-z
4 x,-1/2-y,-1/2+z
_cell_length_a 9.0535(8)
_cell_length_b 11.9947(7)
_cell_length_c 17.2267(15)
_cell_angle_alpha 90
_cell_angle_beta 117.355(6)
_cell_angle_gamma 90
_cell_formula_units_Z 4
loop_
_atom_type_symbol
_atom_type_radius_bond
C 0.68
H 0.23
N 0.68
O 0.68
loop_
_atom_site_label
_atom_site_type_symbol
_atom_site_fract_x
_atom_site_fract_y
_atom_site_fract_z
C1 C 0.3530(2) 0.26145(18) 0.22061(12)
H1 H 0.29660 0.30310 0.24820
C2 C 0.2739(2) 0.1473(2) 0.19939(13)
C3 C 0.0911(3) 0.1470(3) 0.13652(16)
H2 H 0.03010 0.18280 0.16350
H3 H 0.05220 0.07070 0.12290
C4 C 0.0580(3) 0.2080(3) 0.05272(15)
H4 H 0.10800 0.16700 0.02230
H5 H -0.06100 0.21150 0.01490
C5 C 0.1274(3) 0.3236(3) 0.07141(16)
H6 H 0.06990 0.36670 0.09690
H7 H 0.10890 0.35920 0.01720
C6 C 0.3130(3) 0.3223(2) 0.13399(16)
H8 H 0.35320 0.39840 0.14680
H9 H 0.37130 0.28560 0.10590
C7 C 0.5407(2) 0.26636(18) 0.28430(12)
H10 H 0.57590 0.34360 0.28400
C8 C 0.5807(2) 0.23927(17) 0.37935(12)
C9 C 0.5888(2) 0.31751(17) 0.44110(13)
C10 C 0.6289(3) 0.2903(2) 0.52741(15)
H11 H 0.63440 0.34550 0.56660
C11 C 0.6599(3) 0.1815(2) 0.55354(16)
H12 H 0.68370 0.16130 0.61020
C12 C 0.6555(3) 0.1022(2) 0.49480(16)
H13 H 0.67720 0.02810 0.51230
C13 C 0.6193(3) 0.13097(19) 0.41035(14)
H14 H 0.62090 0.07570 0.37290
C14 C 0.8043(2) 0.20265(19) 0.28812(12)
C15 C 0.8911(3) 0.3024(2) 0.31590(16)
H15 H 0.83410 0.36860 0.31110
C16 C 1.0631(3) 0.3029(3) 0.35075(17)
H16 H 1.12080 0.36980 0.36930
C17 C 1.1495(3) 0.2056(3) 0.35827(16)
H17 H 1.26500 0.20630 0.38300
C18 C 1.0634(3) 0.1077(3) 0.32882(17)
H18 H 1.12080 0.04220 0.33200
C19 C 0.8934(3) 0.1054(2) 0.29467(15)
H19 H 0.83700 0.03810 0.27570
N1 N 0.6308(2) 0.19843(17) 0.25075(11)
N2 N 0.5569(2) 0.43539(16) 0.41868(13)
O1 O 0.3490(2) 0.06234(15) 0.22935(12)
O2 O 0.4393(2) 0.46052(15) 0.34977(12)
O3 O 0.6465(3) 0.50448(17) 0.47103(14)
H20 H 0.593(3) 0.133(2) 0.2363(14)
#END
