
#######################################################################
#
#                 Cambridge Crystallographic Data Centre
#                                CCDC
#
#######################################################################
#
# If this CIF has been generated from an entry in the Cambridge
# Structural Database, then it will include bibliographic, chemical,
# crystal, experimental, refinement or atomic coordinate data resulting
# from the CCDC's data processing and validation procedures.
#
#######################################################################

data_CSD_CIF_CEGCOI
_audit_creation_date 2012-11-16
_audit_creation_method CSD-ConQuest-V1
_database_code_CSD CEGCOI
_database_code_depnum_ccdc_archive 'CCDC 907436'
_chemical_formula_sum 'C19 H17 N3 O6'
_chemical_formula_moiety
;
C19 H17 N3 O6
;
_journal_coeditor_code "IUCr LH5522"
_journal_coden_Cambridge 1370
_journal_volume 68
_journal_year 2012
_journal_page_first o2915
_journal_name_full 'Acta Crystallogr.,Sect.E:Struct.Rep.Online '
loop_
_publ_author_name
"J.K.Maurin"
"A.Zawadzka"
"I.Lozinska"
"Z.Czarnocki"
_chemical_name_systematic
;
3-(2-Acetamidoethyl)-1H-indol-5-yl 4-nitrophenyl carbonate
;
_chemical_melting_point 426
_cell_volume   1821.114
_exptl_crystal_colour 'colorless'
_exptl_crystal_density_diffrn 1.398
_exptl_crystal_description 'parallelepiped'
_diffrn_ambient_temperature 293
#These two values have been output from a single CSD field.
_refine_ls_R_factor_gt 0.044
_refine_ls_wR_factor_gt 0.044
_symmetry_cell_setting monoclinic
_symmetry_space_group_name_H-M 'P 21/c'
_symmetry_Int_Tables_number 14
loop_
_symmetry_equiv_pos_site_id
_symmetry_equiv_pos_as_xyz
1 x,y,z
2 -x,1/2+y,1/2-z
3 -x,-y,-z
4 x,-1/2-y,-1/2+z
_cell_length_a 12.3678(3)
_cell_length_b 5.0537(1)
_cell_length_c 29.1554(6)
_cell_angle_alpha 90
_cell_angle_beta 92.071(2)
_cell_angle_gamma 90
_cell_formula_units_Z 4
loop_
_atom_type_symbol
_atom_type_radius_bond
C 0.68
H 0.23
N 0.68
O 0.68
loop_
_atom_site_label
_atom_site_type_symbol
_atom_site_fract_x
_atom_site_fract_y
_atom_site_fract_z
O1 O 0.23003(13) 0.0684(3) -0.05411(5)
O2 O 0.33006(13) 0.5304(3) 0.23175(5)
O3 O 0.22723(14) 0.8918(4) 0.21929(6)
O4 O 0.20616(14) 0.6121(3) 0.27802(5)
O5 O -0.16478(18) 1.1179(6) 0.38600(9)
O6 O -0.0422(2) 1.3762(6) 0.40406(10)
N1 N 0.59607(13) 0.6072(4) 0.08575(6)
H1 H 0.6490(19) 0.708(5) 0.0772(8)
C1 C 0.55303(17) 0.4095(4) 0.05894(7)
H2 H 0.57880 0.36030 0.03060
C2 C 0.46756(15) 0.2941(4) 0.07904(6)
C3 C 0.38506(14) 0.4030(4) 0.15764(6)
H3 H 0.33200 0.27250 0.15700
C4 C 0.39637(15) 0.5732(4) 0.19355(6)
C5 C 0.47530(17) 0.7688(4) 0.19661(6)
H4 H 0.47950 0.88030 0.22200
C6 C 0.54735(16) 0.7973(4) 0.16196(7)
H5 H 0.60100 0.92640 0.16350
C7 C 0.53720(14) 0.6267(4) 0.12471(6)
C8 C 0.45587(14) 0.4308(3) 0.12168(6)
C9 C 0.39484(17) 0.0829(4) 0.05951(7)
H6 H 0.43370 -0.01810 0.03710
H7 H 0.37560 -0.03690 0.08390
C10 C 0.2944(2) 0.1911(5) 0.03725(8)
H8 H 0.25840 0.30230 0.05910
H9 H 0.31370 0.30180 0.01160
N2 N 0.21938(17) -0.0102(4) 0.02072(6)
H10 H 0.193(2) -0.092(6) 0.0395(9)
C11 C 0.19251(15) -0.0581(4) -0.02296(7)
C12 C 0.1130(2) -0.2769(5) -0.03169(8)
H11 H 0.09310 -0.35260 -0.00300
H12 H 0.14510 -0.41070 -0.05020
H13 H 0.04970 -0.20790 -0.04750
C13 C 0.25425(16) 0.7027(4) 0.24022(6)
C14 C 0.13438(17) 0.7780(4) 0.30026(6)
C15 C -0.00262(16) 1.0523(4) 0.35211(6)
C16 C 0.17387(18) 0.9802(5) 0.32675(8)
H14 H 0.24710 1.02240 0.32680
C17 C 0.10491(17) 1.1217(5) 0.35341(8)
H15 H 0.13030 1.26040 0.37180
C18 C -0.04309(17) 0.8522(5) 0.32501(7)
H16 H -0.11640 0.81120 0.32460
C19 C 0.02650(19) 0.7129(5) 0.29846(7)
H17 H 0.00100 0.57670 0.27960
N3 N -0.07505(16) 1.1922(5) 0.38248(7)
#END
