
#######################################################################
#
#                 Cambridge Crystallographic Data Centre
#                                CCDC
#
#######################################################################
#
# If this CIF has been generated from an entry in the Cambridge
# Structural Database, then it will include bibliographic, chemical,
# crystal, experimental, refinement or atomic coordinate data resulting
# from the CCDC's data processing and validation procedures.
#
#######################################################################

data_CSD_CIF_CEGJUV
_audit_creation_date 2012-11-16
_audit_creation_method CSD-ConQuest-V1
_database_code_CSD CEGJUV
_database_code_depnum_ccdc_archive 'CCDC 907462'
_chemical_formula_sum 'C19 H25 N3 O5'
_chemical_formula_moiety
;
C19 H25 N3 O5
;
_journal_coeditor_code "IUCr NK2179"
_journal_coden_Cambridge 1370
_journal_volume 68
_journal_year 2012
_journal_page_first o2953
_journal_name_full 'Acta Crystallogr.,Sect.E:Struct.Rep.Online '
loop_
_publ_author_name
"S.Saeed"
"N.Rashid"
"R.J.Butcher"
"S.Ozturk Yildirim"
"R.Hussain"
_chemical_name_systematic
;
N,N-Dicyclohexyl-3,5-dinitrobenzamide
;
_cell_volume    955.671
_exptl_crystal_colour 'colorless'
_exptl_crystal_density_diffrn 1.305
_exptl_crystal_description 'needle-plate'
_diffrn_ambient_temperature 123
#These two values have been output from a single CSD field.
_refine_ls_R_factor_gt 0.0446
_refine_ls_wR_factor_gt 0.0446
_symmetry_cell_setting triclinic
_symmetry_space_group_name_H-M 'P -1'
_symmetry_Int_Tables_number 2
loop_
_symmetry_equiv_pos_site_id
_symmetry_equiv_pos_as_xyz
1 x,y,z
2 -x,-y,-z
_cell_length_a 6.8187(7)
_cell_length_b 9.7877(12)
_cell_length_c 14.7423(12)
_cell_angle_alpha 92.512(8)
_cell_angle_beta 98.898(8)
_cell_angle_gamma 99.704(9)
_cell_formula_units_Z 2
loop_
_atom_type_symbol
_atom_type_radius_bond
C 0.68
H 0.23
N 0.68
O 0.68
loop_
_atom_site_label
_atom_site_type_symbol
_atom_site_fract_x
_atom_site_fract_y
_atom_site_fract_z
O1 O 0.23442(17) 0.94242(13) 0.55223(8)
O2 O 0.4677(2) 0.98065(14) 0.67312(8)
O3 O 1.03595(18) 0.75165(13) 0.69435(7)
O4 O 1.08761(16) 0.63134(13) 0.57626(8)
O5 O 0.29440(16) 0.51429(12) 0.34083(7)
N1 N 0.3957(2) 0.92478(14) 0.59620(9)
N2 N 0.98833(19) 0.70201(14) 0.61477(8)
N3 N 0.54384(18) 0.61099(13) 0.26430(8)
C1 C 0.5115(2) 0.83290(15) 0.5540(1)
C2 C 0.6958(2) 0.81731(16) 0.60284(9)
H1 H 0.74780 0.86460 0.66150
C3 C 0.7997(2) 0.72959(16) 0.56194(10)
C4 C 0.7312(2) 0.66292(16) 0.47469(9)
H2 H 0.80900 0.60510 0.44790
C5 C 0.5460(2) 0.68296(16) 0.42755(9)
C6 C 0.4320(2) 0.76562(16) 0.46813(10)
H3 H 0.30250 0.77590 0.43770
C7 C 0.4509(2) 0.59667(16) 0.33856(9)
C8 C 0.4805(2) 0.50539(16) 0.18488(9)
H4 H 0.57240 0.53160 0.13940
C9 C 0.5117(2) 0.36144(17) 0.21379(10)
H5 H 0.42700 0.33280 0.26090
H6 H 0.65450 0.36540 0.24150
C10 C 0.4561(3) 0.25421(18) 0.13107(11)
H7 H 0.54980 0.27760 0.08680
H8 H 0.47010 0.16100 0.15190
C11 C 0.2403(3) 0.25131(18) 0.08358(11)
H9 H 0.20870 0.18350 0.02930
H10 H 0.14580 0.22110 0.12640
C12 C 0.2126(3) 0.39444(18) 0.05318(10)
H11 H 0.07090 0.39070 0.02370
H12 H 0.30040 0.42160 0.00700
C13 C 0.2648(2) 0.50401(17) 0.1351(1)
H13 H 0.25350 0.59690 0.11300
H14 H 0.16830 0.48250 0.17840
C14 C 0.7089(2) 0.72822(15) 0.25786(9)
H15 H 0.72520 0.79210 0.31440
C15 C 0.6558(2) 0.81222(16) 0.17448(9)
H16 H 0.63570 0.75160 0.11710
H17 H 0.52830 0.84610 0.17840
C16 C 0.8253(2) 0.93638(17) 0.17186(10)
H18 H 0.79320 0.98490 0.11540
H19 H 0.83340 1.00270 0.22550
C17 C 1.0291(2) 0.89085(18) 0.17335(11)
H20 H 1.13590 0.97390 0.17640
H21 H 1.02690 0.83400 0.11590
C18 C 1.0770(2) 0.80630(17) 0.25612(10)
H22 H 1.09160 0.86600 0.31360
H23 H 1.20670 0.77450 0.25420
C19 C 0.9104(2) 0.68002(16) 0.25653(10)
H24 H 0.90080 0.61700 0.20100
H25 H 0.94320 0.62830 0.31140
#END
