
#######################################################################
#
#                 Cambridge Crystallographic Data Centre
#                                CCDC
#
#######################################################################
#
# If this CIF has been generated from an entry in the Cambridge
# Structural Database, then it will include bibliographic, chemical,
# crystal, experimental, refinement or atomic coordinate data resulting
# from the CCDC's data processing and validation procedures.
#
#######################################################################

data_CSD_CIF_CEGWES
_audit_creation_date 2012-11-16
_audit_creation_method CSD-ConQuest-V1
_database_code_CSD CEGWES
_database_code_depnum_ccdc_archive 'CCDC 907514'
_chemical_formula_sum 'C21 H16 N2 O2'
_chemical_formula_moiety
;
C21 H16 N2 O2
;
_journal_coeditor_code "IUCr FF2082"
_journal_coden_Cambridge 1370
_journal_volume 68
_journal_year 2012
_journal_page_first o3031
_journal_name_full 'Acta Crystallogr.,Sect.E:Struct.Rep.Online '
loop_
_publ_author_name
"Y.K.Kang"
"Y.S.Cho"
"J.K.Lee"
"B.-Y.Yu"
"J.H.Cha"
_chemical_name_systematic
;
(E)-N-(3,3-Diphenylallylidene)-4-nitroaniline
;
_cell_volume   1691.366
_exptl_crystal_colour 'colorless'
_exptl_crystal_density_diffrn 1.289
_exptl_crystal_description 'platelet'
_exptl_crystal_preparation 'ethanol'
_diffrn_ambient_temperature 296
#These two values have been output from a single CSD field.
_refine_ls_R_factor_gt 0.0376
_refine_ls_wR_factor_gt 0.0376
_symmetry_cell_setting monoclinic
_symmetry_space_group_name_H-M 'P 21/c'
_symmetry_Int_Tables_number 14
loop_
_symmetry_equiv_pos_site_id
_symmetry_equiv_pos_as_xyz
1 x,y,z
2 -x,1/2+y,1/2-z
3 -x,-y,-z
4 x,-1/2-y,-1/2+z
_cell_length_a 9.4399(8)
_cell_length_b 23.1526(16)
_cell_length_c 8.1388(5)
_cell_angle_alpha 90
_cell_angle_beta 108.039(2)
_cell_angle_gamma 90
_cell_formula_units_Z 4
loop_
_atom_type_symbol
_atom_type_radius_bond
C 0.68
H 0.23
N 0.68
O 0.68
loop_
_atom_site_label
_atom_site_type_symbol
_atom_site_fract_x
_atom_site_fract_y
_atom_site_fract_z
O1 O -0.06733(17) 0.42186(6) -0.26289(19)
O2 O 0.04148(15) 0.33937(5) -0.24984(17)
N1 N 0.55099(15) 0.47570(4) 0.29682(15)
N2 N 0.04088(18) 0.38989(6) -0.20661(18)
C1 C 0.57956(19) 0.52982(6) 0.32064(19)
C2 C 0.70646(19) 0.55014(6) 0.45689(19)
C3 C 0.73343(17) 0.60637(5) 0.50580(17)
C4 C 0.87658(17) 0.62390(5) 0.63168(18)
C5 C 1.0066(2) 0.59193(6) 0.6530(3)
C6 C 1.1393(2) 0.60752(7) 0.7732(3)
C7 C 1.1473(3) 0.65514(8) 0.8747(3)
C8 C 1.0219(3) 0.68818(7) 0.8554(3)
C9 C 0.88849(19) 0.67281(6) 0.7344(2)
C10 C 0.61651(17) 0.65090(5) 0.43491(17)
C11 C 0.64989(18) 0.70200(5) 0.36279(18)
C12 C 0.5392(2) 0.74154(6) 0.2873(2)
C13 C 0.3953(2) 0.73211(6) 0.2866(2)
C14 C 0.36038(19) 0.68283(6) 0.3623(2)
C15 C 0.47054(18) 0.64259(6) 0.43519(18)
C16 C 0.42297(18) 0.45804(5) 0.16448(19)
C17 C 0.2962(2) 0.49148(6) 0.0971(3)
C18 C 0.1729(2) 0.46956(6) -0.0263(3)
C19 C 0.17478(18) 0.41347(6) -0.08041(19)
C20 C 0.29728(19) 0.37881(6) -0.01558(19)
C21 C 0.42090(19) 0.40124(6) 0.10584(19)
H1 H 1.00340 0.55950 0.58470
H2 H 1.22430 0.58540 0.78530
H3 H 1.23690 0.66520 0.95650
H4 H 1.02690 0.72080 0.92360
H5 H 0.80480 0.69570 0.72140
H6 H 0.74740 0.70940 0.36570
H7 H 0.56220 0.77480 0.23670
H8 H 0.32130 0.75890 0.23530
H9 H 0.26350 0.67670 0.36410
H10 H 0.44650 0.60940 0.48530
H11 H 0.29450 0.52920 0.13580
H12 H 0.08920 0.49250 -0.07260
H13 H 0.29680 0.34080 -0.05300
H14 H 0.50470 0.37810 0.14970
H15 H 0.5198(19) 0.5588(6) 0.242(2)
H16 H 0.7792(18) 0.5202(7) 0.518(2)
#END
