
#######################################################################
#
#                 Cambridge Crystallographic Data Centre
#                                CCDC
#
#######################################################################
#
# If this CIF has been generated from an entry in the Cambridge
# Structural Database, then it will include bibliographic, chemical,
# crystal, experimental, refinement or atomic coordinate data resulting
# from the CCDC's data processing and validation procedures.
#
#######################################################################

data_CSD_CIF_CEHFUS
_audit_creation_date 2012-11-16
_audit_creation_method CSD-ConQuest-V1
_database_code_CSD CEHFUS
_database_code_depnum_ccdc_archive 'CCDC 900780'
_chemical_formula_sum 'C22 H18 N2 O5'
_chemical_formula_moiety
;
C22 H18 N2 O5
;
_journal_coeditor_code "IUCr ZQ2182"
_journal_coden_Cambridge 1370
_journal_volume 68
_journal_year 2012
_journal_page_first o2974
_journal_name_full 'Acta Crystallogr.,Sect.E:Struct.Rep.Online '
loop_
_publ_author_name
"Dong-Hui Qu"
"Hong-Xia Zhang"
"Jing Ma"
_chemical_name_systematic
;
N-(4-Methylphenyl)-N-(((2-nitrophenyl)acetyl)oxy)benzamide
;
_cell_volume   1973.844
_exptl_crystal_colour 'yellow'
_exptl_crystal_density_diffrn 1.314
_exptl_crystal_description 'block'
_diffrn_ambient_temperature 296
#These two values have been output from a single CSD field.
_refine_ls_R_factor_gt 0.0404
_refine_ls_wR_factor_gt 0.0404
_symmetry_cell_setting orthorhombic
_symmetry_space_group_name_H-M 'P 21 21 21'
_symmetry_Int_Tables_number 19
loop_
_symmetry_equiv_pos_site_id
_symmetry_equiv_pos_as_xyz
1 x,y,z
2 1/2-x,-y,1/2+z
3 -x,1/2+y,1/2-z
4 1/2+x,1/2-y,-z
_cell_length_a 9.246(3)
_cell_length_b 11.911(4)
_cell_length_c 17.923(6)
_cell_angle_alpha 90
_cell_angle_beta 90
_cell_angle_gamma 90
_cell_formula_units_Z 4
loop_
_atom_type_symbol
_atom_type_radius_bond
C 0.68
H 0.23
N 0.68
O 0.68
loop_
_atom_site_label
_atom_site_type_symbol
_atom_site_fract_x
_atom_site_fract_y
_atom_site_fract_z
C1 C 0.3532(3) 0.1353(2) -0.07101(14)
C2 C 0.2883(3) 0.1027(3) -0.13739(17)
H1 H 0.27950 0.02710 -0.14960
C3 C 0.2368(3) 0.1853(4) -0.18535(16)
H2 H 0.19330 0.16580 -0.23030
C4 C 0.2508(4) 0.2945(3) -0.16565(19)
H3 H 0.21730 0.35020 -0.19770
C5 C 0.3124(3) 0.3237(3) -0.10045(17)
H4 H 0.31860 0.39950 -0.08860
C6 C 0.3665(3) 0.2469(2) -0.05063(13)
C7 C 0.4263(3) 0.2894(2) 0.02163(14)
H5 H 0.51960 0.25480 0.03060
H6 H 0.44090 0.36980 0.01810
C8 C 0.3285(3) 0.2649(2) 0.08568(14)
C9 C 0.1744(3) 0.3805(2) 0.21269(15)
C10 C 0.0711(3) 0.3651(2) 0.27535(14)
C11 C -0.0023(3) 0.4586(2) 0.30155(17)
H7 H 0.01730 0.52910 0.28170
C12 C -0.1047(4) 0.4469(3) 0.35739(19)
H8 H -0.15260 0.50980 0.37570
C13 C -0.1356(4) 0.3429(3) 0.38569(17)
H9 H -0.20470 0.33530 0.42300
C14 C -0.0659(3) 0.2509(3) 0.35956(16)
H10 H -0.08820 0.18040 0.37860
C15 C 0.0376(3) 0.2615(2) 0.30509(15)
H11 H 0.08580 0.19800 0.28800
C16 C 0.3668(3) 0.2615(2) 0.27241(13)
C17 C 0.4158(3) 0.1531(2) 0.26885(16)
H12 H 0.39640 0.10950 0.22700
C18 C 0.4936(3) 0.1090(2) 0.32708(16)
H13 H 0.52810 0.03580 0.32360
C19 C 0.5220(3) 0.1707(2) 0.39074(14)
C20 C 0.4722(3) 0.2792(2) 0.39293(15)
H14 H 0.48980 0.32260 0.43510
C21 C 0.3968(3) 0.3255(2) 0.33402(15)
H15 H 0.36630 0.39980 0.33610
C22 C 0.6051(4) 0.1213(3) 0.45524(15)
H16 H 0.54070 0.07850 0.48620
H17 H 0.64750 0.18080 0.48410
H18 H 0.68020 0.07330 0.43650
N1 N 0.4064(4) 0.0451(2) -0.02206(17)
N2 N 0.2881(2) 0.3064(2) 0.21067(12)
O1 O 0.2230(3) 0.20874(17) 0.0862(1)
O2 O 0.37898(19) 0.32093(15) 0.14693(9)
O3 O 0.1555(2) 0.44895(17) 0.16349(12)
O4 O 0.3608(4) -0.0472(2) -0.03322(16)
O5 O 0.4911(4) 0.0655(2) 0.02581(17)
#END
