
#######################################################################
#
#                 Cambridge Crystallographic Data Centre
#                                CCDC
#
#######################################################################
#
# If this CIF has been generated from an entry in the Cambridge
# Structural Database, then it will include bibliographic, chemical,
# crystal, experimental, refinement or atomic coordinate data resulting
# from the CCDC's data processing and validation procedures.
#
#######################################################################

data_CSD_CIF_CEJFIH
_audit_creation_date 2006-08-21
_audit_creation_method CSD-ConQuest-V1
_database_code_CSD CEJFIH
_database_code_depnum_ccdc_archive 'CCDC 298616'
_chemical_formula_sum 'C18 H12 N2 O6'
_chemical_formula_moiety
;
C18 H12 N2 O6
;
_journal_coden_Cambridge 1078
_journal_year 2006
_journal_name_full 'CSD Communication(Private Communication) '
loop_
_publ_author_name
"J.C.Barnes"
_chemical_name_systematic
;
1,5-Phenoxy-2,4-dinitrobenzene
;
_cell_volume   1614.471
_exptl_crystal_colour 'colorless'
_exptl_crystal_density_diffrn 1.449
_exptl_special_details
;
contribution from MSI, WTB, CIR Complex, Faculty of Life Sciences, University 
of Dundee, Dundee DD1 5EH, Scotland
;
_exptl_crystal_description 'plate'
_diffrn_ambient_temperature 120
#These two values have been output from a single CSD field.
_refine_ls_R_factor_gt 0.0427
_refine_ls_wR_factor_gt 0.0427
_symmetry_cell_setting monoclinic
_symmetry_space_group_name_H-M 'P 21/n'
_symmetry_Int_Tables_number 14
loop_
_symmetry_equiv_pos_site_id
_symmetry_equiv_pos_as_xyz
1 x,y,z
2 1/2-x,1/2+y,1/2-z
3 -x,-y,-z
4 -1/2+x,-1/2-y,-1/2+z
_cell_length_a 12.2150(3)
_cell_length_b 8.2204(2)
_cell_length_c 16.2520(4)
_cell_angle_alpha 90
_cell_angle_beta 98.381(2)
_cell_angle_gamma 90
_cell_formula_units_Z 4
loop_
_atom_type_symbol
_atom_type_radius_bond
C 0.68
H 0.23
N 0.68
O 0.68
loop_
_atom_site_label
_atom_site_type_symbol
_atom_site_fract_x
_atom_site_fract_y
_atom_site_fract_z
C1 C 0.66026(11) 0.97224(17) 0.14595(8)
C2 C 0.70233(11) 0.99661(17) 0.07069(8)
C3 C 0.65293(11) 1.10712(18) 0.01298(8)
H1 H 0.68270 1.12340 -0.03720
C4 C 0.56076(11) 1.19450(17) 0.02707(8)
C5 C 0.51679(11) 1.17307(17) 0.10178(8)
C6 C 0.56775(12) 1.06179(18) 0.15961(8)
H2 H 0.53850 1.04640 0.21010
O1 O 0.71036(9) 0.86608(13) 0.20281(6)
C7 C 0.66600(12) 0.84909(18) 0.27806(9)
C8 C 0.57894(13) 0.7433(2) 0.28094(10)
H3 H 0.54910 0.68200 0.23340
C9 C 0.53613(14) 0.7289(2) 0.3551(1)
H4 H 0.47560 0.65780 0.35830
C10 C 0.58092(15) 0.8173(2) 0.42443(10)
H5 H 0.55050 0.80780 0.47480
C11 C 0.66998(15) 0.9194(2) 0.42033(10)
H6 H 0.70160 0.97820 0.46830
C12 C 0.71348(14) 0.93652(19) 0.34638(9)
H7 H 0.77440 1.00670 0.34300
N1 N 0.79847(10) 0.90904(15) 0.04960(7)
O2 O 0.83367(10) 0.79295(15) 0.09184(8)
O3 O 0.83997(9) 0.95709(15) -0.01065(7)
N2 N 0.51375(10) 1.30671(15) -0.03840(7)
O4 O 0.57186(9) 1.34410(14) -0.09124(6)
O5 O 0.41929(9) 1.35647(14) -0.03884(6)
O6 O 0.42749(9) 1.26021(13) 0.11499(6)
C13 C 0.39134(12) 1.24500(18) 0.19336(9)
C14 C 0.29412(13) 1.1629(2) 0.1968(1)
H8 H 0.25370 1.11660 0.14800
C15 C 0.25614(14) 1.1490(2) 0.27289(10)
H9 H 0.18900 1.09300 0.27650
C16 C 0.31588(13) 1.2165(2) 0.34347(10)
H10 H 0.29000 1.20540 0.39550
C17 C 0.41319(13) 1.3001(2) 0.33875(9)
H11 H 0.45340 1.34720 0.38740
C18 C 0.45198(13) 1.3152(2) 0.26277(9)
H12 H 0.51860 1.37230 0.25870
#END
