
#######################################################################
#
#                 Cambridge Crystallographic Data Centre
#                                CCDC
#
#######################################################################
#
# If this CIF has been generated from an entry in the Cambridge
# Structural Database, then it will include bibliographic, chemical,
# crystal, experimental, refinement or atomic coordinate data resulting
# from the CCDC's data processing and validation procedures.
#
#######################################################################

data_CSD_CIF_CEJHUU
_audit_creation_date 1984-10-09
_audit_creation_method CSD-ConQuest-V1
_database_code_CSD CEJHUU
_database_code_depnum_ccdc_archive 'CCDC 1122624'
_chemical_formula_sum 'C22 H36 N2 O4'
_chemical_formula_moiety
;
C22 H36 N2 O4
;
_journal_coden_Cambridge 41
_journal_volume 28
_journal_year 1983
_journal_page_first 1098
_journal_name_full 'Kristallografiya(Russ.)(Crystallogr.Rep.) '
loop_
_publ_author_name
"A.A.Shevyrev"
"R.M.Lobkovskaya"
"R.P.Shibaeva"
_chemical_name_systematic
;
2,2,5,6,6-Pentamethyl-1,2,5,6-tetrahydropyridine-N-oxide-(3,4-e)-2H-3,4-dihydr
opyran-2-spiro-3'-(2',2',5',6',6'-pentamethylpiperidin-4-one-N-oxide)
;
_cell_volume   2157.575
_exptl_crystal_density_diffrn 1.196
_exptl_special_details
;
Described as the 1'' form

;
_diffrn_ambient_temperature ?
_diffrn_special_details
;
The study was carried out at room temperature,in the range 283-303K

;
#These two values have been output from a single CSD field.
_refine_ls_R_factor_gt 0.037
_refine_ls_wR_factor_gt 0.037
loop_
_citation_database_id_CSD
_citation_special_details
CEJHUV "is a stereoisomer of this entry"
_symmetry_cell_setting monoclinic
_symmetry_space_group_name_H-M 'P 1 1 21/b'
_symmetry_Int_Tables_number 14
loop_
_symmetry_equiv_pos_site_id
_symmetry_equiv_pos_as_xyz
1 x,y,z
2 -x,1/2-y,1/2+z
3 -x,-y,-z
4 x,-1/2+y,-1/2-z
_cell_length_a 8.646(4)
_cell_length_b 21.823(9)
_cell_length_c 11.756(5)
_cell_angle_alpha 90
_cell_angle_beta 90
_cell_angle_gamma 103.42(5)
_cell_formula_units_Z 4
loop_
_atom_type_symbol
_atom_type_radius_bond
C 0.68
H 0.23
N 0.68
O 0.68
loop_
_atom_site_label
_atom_site_type_symbol
_atom_site_fract_x
_atom_site_fract_y
_atom_site_fract_z
O1 O 0.79410 0.36601 0.04340
O2 O 0.36210 -0.05608 0.35530
O3 O 0.68180 0.12490 0.18210
O4 O 0.40050 0.12429 0.08460
N1 N 0.78530 0.31276 0.09190
N2 N 0.37300 -0.00151 0.31110
C1 C 0.67980 0.29833 0.19370
C2 C 0.51840 0.31021 0.15860
C3 C 0.75020 0.34389 0.28950
C4 C 0.90720 0.27665 0.06430
C5 C 0.98200 0.29991 -0.05060
C6 C 1.03780 0.28807 0.15470
C7 C 0.82010 0.20658 0.06100
C8 C 0.72370 0.18636 -0.04760
C9 C 0.71620 0.18986 0.16360
C10 C 0.65890 0.22979 0.22700
C11 C 0.55510 0.20738 0.32870
C12 C 0.55610 0.13943 0.35900
C13 C 0.54240 0.10067 0.24910
C14 C 0.53560 0.02984 0.26750
C15 C 0.56520 -0.00137 0.15580
C16 C 0.65590 0.02018 0.35670
C17 C 0.21790 0.01091 0.27010
C18 C 0.09940 -0.00773 0.36820
C19 C 0.16360 -0.03043 0.16510
C20 C 0.23970 0.08159 0.24430
C21 C 0.10090 0.09785 0.17970
C22 C 0.39410 0.10542 0.18180
H1 H 0.53400 0.35300 0.12800
H2 H 0.45200 0.30500 0.22200
H3 H 0.47300 0.28100 0.09800
H4 H 0.77000 0.38600 0.26000
H5 H 0.67200 0.34100 0.35400
H6 H 0.84900 0.33400 0.31800
H7 H 1.04200 0.34500 -0.04200
H8 H 1.05400 0.27300 -0.06800
H9 H 0.90200 0.30100 -0.11300
H10 H 1.12400 0.26800 0.13000
H11 H 1.08400 0.33500 0.16300
H12 H 0.99800 0.27300 0.23100
H13 H 0.65700 0.14000 -0.03800
H14 H 0.64200 0.21400 -0.06200
H15 H 0.79500 0.18700 -0.12100
H16 H 0.44200 0.21000 0.31100
H17 H 0.59100 0.23500 0.39400
H18 H 0.65900 0.13700 0.39300
H19 H 0.47200 0.12100 0.41500
H20 H 0.53500 -0.04700 0.16400
H21 H 0.50000 0.01200 0.09000
H22 H 0.67400 0.01100 0.13800
H23 H 0.62700 0.03200 0.43500
H24 H 0.76400 0.04700 0.33500
H25 H 0.66200 -0.02400 0.35600
H26 H -0.00100 0.00100 0.34400
H27 H 0.14000 0.02000 0.43700
H28 H 0.18300 -0.07200 0.18600
H29 H 0.05000 -0.03200 0.15200
H30 H 0.22500 -0.01400 0.09300
H31 H 0.24900 0.10400 0.31600
H32 H 0.09300 0.07900 0.09900
H33 H 0.00300 0.08500 0.21500
H34 H 0.12300 0.14300 0.17000
#END
