
#######################################################################
#
#                 Cambridge Crystallographic Data Centre
#                                CCDC
#
#######################################################################
#
# If this CIF has been generated from an entry in the Cambridge
# Structural Database, then it will include bibliographic, chemical,
# crystal, experimental, refinement or atomic coordinate data resulting
# from the CCDC's data processing and validation procedures.
#
#######################################################################

data_CSD_CIF_CEJJAC
_audit_creation_date 1984-10-09
_audit_creation_method CSD-ConQuest-V1
_database_code_CSD CEJJAC
_database_code_depnum_ccdc_archive 'CCDC 1122626'
_chemical_formula_sum 'C22 H38 N2 O4'
_chemical_formula_moiety
;
C22 H38 N2 O4
;
_journal_coden_Cambridge 41
_journal_volume 28
_journal_year 1983
_journal_page_first 1098
_journal_name_full 'Kristallografiya(Russ.)(Crystallogr.Rep.) '
loop_
_publ_author_name
"A.A.Shevyrev"
"R.M.Lobkovskaya"
"R.P.Shibaeva"
_chemical_name_systematic
;
2,2,5,6,6-Pentamethyl-1,2,5,6-tetrahydropyridine-N-oxide-(3,4-e)-2H-3,4-dihydr
opyran-2-spiro-3'-(2',2',5',6',6'-pentamethylpiperidin-4'-ol-N-oxide)
;
_cell_volume   2175.115
_exptl_crystal_density_diffrn 1.192
_diffrn_ambient_temperature ?
_diffrn_special_details
;
The study was carried out at room temperature,in the range 283-303K

;
#These two values have been output from a single CSD field.
_refine_ls_R_factor_gt 0.028
_refine_ls_wR_factor_gt 0.028
_symmetry_cell_setting orthorhombic
_symmetry_space_group_name_H-M 'P 21 21 21'
_symmetry_Int_Tables_number 19
loop_
_symmetry_equiv_pos_site_id
_symmetry_equiv_pos_as_xyz
1 x,y,z
2 1/2+x,1/2-y,-z
3 -x,1/2+y,1/2-z
4 1/2-x,-y,1/2+z
_cell_length_a 14.730(8)
_cell_length_b 12.918(6)
_cell_length_c 11.431(5)
_cell_angle_alpha 90
_cell_angle_beta 90
_cell_angle_gamma 90
_cell_formula_units_Z 4
loop_
_atom_type_symbol
_atom_type_radius_bond
C 0.68
H 0.23
N 0.68
O 0.68
loop_
_atom_site_label
_atom_site_type_symbol
_atom_site_fract_x
_atom_site_fract_y
_atom_site_fract_z
O1 O 0.38940 1.07390 0.78950
O2 O 0.36620 0.51890 0.19440
O3 O 0.41010 0.81140 0.42210
O4 O 0.49950 0.64130 0.51320
N1 N 0.38620 1.01610 0.69800
N2 N 0.34970 0.55790 0.29740
C1 C 0.31780 0.93060 0.70000
C2 C 0.34320 0.86190 0.80530
C3 C 0.22340 0.97850 0.71780
C4 C 0.42750 1.05450 0.58780
C5 C 0.50260 1.13120 0.61760
C6 C 0.35420 1.11160 0.51800
C7 C 0.46320 0.95940 0.52100
C8 C 0.55190 0.91390 0.56580
C9 C 0.39240 0.87650 0.51600
C10 C 0.32340 0.86670 0.58920
C11 C 0.25030 0.78610 0.56880
C12 C 0.26280 0.73630 0.44810
C13 C 0.36340 0.71240 0.42390
C14 C 0.38020 0.66840 0.29850
C15 C 0.48030 0.67360 0.26200
C16 C 0.32440 0.72560 0.20640
C17 C 0.36960 0.48080 0.39210
C18 C 0.29810 0.39580 0.37990
C19 C 0.46420 0.43410 0.37080
C20 C 0.35960 0.53420 0.51270
C21 C 0.39430 0.46690 0.61350
C22 C 0.40220 0.64270 0.52030
H1 H 0.34200 0.90200 0.87600
H2 H 0.29400 0.80600 0.80800
H3 H 0.40800 0.83400 0.79200
H4 H 0.22400 1.02600 0.77800
H5 H 0.17900 0.92400 0.72400
H6 H 0.20500 1.02300 0.63900
H7 H 0.51600 0.62700 0.58500
H8 H 0.47400 1.19800 0.65600
H9 H 0.53300 1.15100 0.54800
H10 H 0.54800 1.10500 0.68200
H11 H 0.38200 1.14500 0.45000
H12 H 0.31600 1.16600 0.57600
H13 H 0.30500 1.06600 0.49300
H14 H 0.47900 0.98300 0.44000
H15 H 0.56600 0.84700 0.51600
H16 H 0.54300 0.89600 0.64900
H17 H 0.60200 0.96500 0.54900
H18 H 0.25700 0.73400 0.63500
H19 H 0.18400 0.81700 0.57800
H20 H 0.24300 0.78300 0.38600
H21 H 0.22600 0.66900 0.44400
H22 H 0.52300 0.64700 0.32500
H23 H 0.48500 0.63500 0.19100
H24 H 0.50300 0.74800 0.25800
H25 H 0.25500 0.71800 0.21700
H26 H 0.34000 0.80600 0.20500
H27 H 0.34000 0.70200 0.12700
H28 H 0.31200 0.34700 0.44100
H29 H 0.30200 0.36600 0.28800
H30 H 0.24200 0.42700 0.38100
H31 H 0.46600 0.41300 0.28700
H32 H 0.47500 0.37000 0.42000
H33 H 0.51700 0.48100 0.39500
H34 H 0.28600 0.54700 0.53000
H35 H 0.46000 0.45400 0.60800
H36 H 0.36700 0.38800 0.60200
H37 H 0.36700 0.49800 0.69200
H38 H 0.38000 0.67800 0.60400
#END
