
#######################################################################
#
#                 Cambridge Crystallographic Data Centre
#                                CCDC
#
#######################################################################
#
# If this CIF has been generated from an entry in the Cambridge
# Structural Database, then it will include bibliographic, chemical,
# crystal, experimental, refinement or atomic coordinate data resulting
# from the CCDC's data processing and validation procedures.
#
#######################################################################

data_CSD_CIF_CEJXEX
_audit_creation_date 2017-10-06
_audit_creation_method CSD-ConQuest-V1
_database_code_CSD CEJXEX
_database_code_depnum_ccdc_archive 'CCDC 1543542'
_chemical_formula_sum 'C13 H19 N1 O4'
_chemical_formula_moiety
;
C13 H19 N1 O4
;
_journal_coden_Cambridge 179
_journal_volume 56
_journal_year 2017
_journal_page_first 11599
_journal_name_full 'Angew.Chem.,Int.Ed. '
loop_
_publ_author_name
"Li Zhai"
"Xuechao Tian"
"Chao Wang"
"Qi Cui"
"Wenhua Li"
"Sha-Hua Huang"
"Zhi-Xiang Yu"
"Ran Hong"
_chemical_name_systematic
;
6-(acetyloxy)-4-methylidene-3-propyl-2-oxa-6-azabicyclo[3.3.1]nonan-7-one
;
_cell_volume    669.022
_exptl_crystal_colour 'colorless'
_exptl_crystal_density_diffrn 1.257
_exptl_crystal_description 'prismatic'
_diffrn_ambient_temperature 293
#These two values have been output from a single CSD field.
_refine_ls_R_factor_gt 0.0436
_refine_ls_wR_factor_gt 0.0436
_symmetry_cell_setting triclinic
_symmetry_space_group_name_H-M 'P -1'
_symmetry_Int_Tables_number 2
loop_
_symmetry_equiv_pos_site_id
_symmetry_equiv_pos_as_xyz
1 x,y,z
2 -x,-y,-z
_cell_length_a 7.0275(12)
_cell_length_b 9.5628(16)
_cell_length_c 10.4938(18)
_cell_angle_alpha 91.407(3)
_cell_angle_beta 108.035(3)
_cell_angle_gamma 93.004(4)
_cell_formula_units_Z 2
loop_
_atom_type_symbol
_atom_type_radius_bond
C 0.68
H 0.23
N 0.68
O 0.68
loop_
_atom_site_label
_atom_site_type_symbol
_atom_site_fract_x
_atom_site_fract_y
_atom_site_fract_z
N1 N 0.80327(19) 0.62326(12) 0.65755(13)
O1 O 0.6500(2) 0.52339(13) 0.79564(13)
O2 O 0.55671(14) 0.92123(10) 0.64556(10)
O3 O 0.98547(16) 0.58456(10) 0.74958(11)
O4 O 0.9258(2) 0.37206(13) 0.64383(13)
C1 C 0.6429(2) 0.60071(15) 0.70477(15)
C2 C 0.4559(2) 0.67038(16) 0.62988(16)
H1 H 0.38680 0.69620 0.69310
H2 H 0.36830 0.60250 0.56500
C3 C 0.4887(2) 0.80023(15) 0.55663(14)
H3 H 0.36020 0.81920 0.49110
C4 C 0.6351(3) 0.77172(16) 0.48092(15)
H4 H 0.64900 0.85100 0.42790
H5 H 0.58800 0.68960 0.42110
C5 C 0.8354(2) 0.74757(15) 0.58462(15)
H6 H 0.93500 0.72960 0.53930
C6 C 0.9025(2) 0.87723(15) 0.67532(15)
C7 C 0.7518(2) 0.91648(14) 0.74334(14)
H7 H 0.74390 0.84320 0.80550
C8 C 0.7945(2) 1.05571(15) 0.82112(15)
H8 H 0.78800 1.13020 0.75910
H9 H 0.92980 1.05950 0.88310
C9 C 0.6503(3) 1.08141(19) 0.89893(18)
H10 H 0.51520 1.07920 0.83670
H11 H 0.65500 1.00600 0.95970
C10 C 0.6945(3) 1.2191(2) 0.9786(2)
H12 H 0.68420 1.29470 0.91880
H13 H 0.82780 1.22210 1.04080
H14 H 0.59980 1.22830 1.02700
C11 C 1.0705(3) 0.95046(19) 0.6854(2)
H15 H 1.15190 0.92270 0.63570
H16 H 1.10790 1.03010 0.74230
C12 C 1.0232(2) 0.44732(16) 0.73420(16)
C13 C 1.1991(3) 0.41188(19) 0.8465(2)
H17 H 1.22490 0.31530 0.83630
H18 H 1.17230 0.42700 0.93000
H19 H 1.31420 0.47040 0.84620
#END
