
#######################################################################
#
#                 Cambridge Crystallographic Data Centre
#                                CCDC
#
#######################################################################
#
# If this CIF has been generated from an entry in the Cambridge
# Structural Database, then it will include bibliographic, chemical,
# crystal, experimental, refinement or atomic coordinate data resulting
# from the CCDC's data processing and validation procedures.
#
#######################################################################

data_CSD_CIF_CEKDAZ
_audit_creation_date 2012-11-29
_audit_creation_method CSD-ConQuest-V1
_database_code_CSD CEKDAZ
_database_code_depnum_ccdc_archive 'CCDC 883161'
_chemical_formula_sum 'C18 H18 N2 O6'
_chemical_formula_moiety
;
C18 H18 N2 O6
;
_journal_coden_Cambridge 1145
_journal_volume 22
_journal_year 2012
_journal_page_first 22198
_journal_name_full 'J.Mater.Chem. '
loop_
_publ_author_name
"S.K.Maity"
"R.Kumar"
"D.K.S.Ambast"
"B.Pal"
"D.Haldar"
_chemical_name_systematic
;
Methyl N-((4-nitrophenyl)acetyl)tyrosinate
;
_cell_volume   1734.334
_exptl_crystal_colour 'yellow'
_exptl_crystal_density_diffrn 1.372
_exptl_crystal_description 'needle'
_diffrn_ambient_temperature 100
#These two values have been output from a single CSD field.
_refine_ls_R_factor_gt 0.0393
_refine_ls_wR_factor_gt 0.0393
_symmetry_cell_setting orthorhombic
_symmetry_space_group_name_H-M 'P 21 21 21'
_symmetry_Int_Tables_number 19
loop_
_symmetry_equiv_pos_site_id
_symmetry_equiv_pos_as_xyz
1 x,y,z
2 1/2+x,1/2-y,-z
3 -x,1/2+y,1/2-z
4 1/2-x,-y,1/2+z
_cell_length_a 4.9118(7)
_cell_length_b 12.8431(18)
_cell_length_c 27.493(4)
_cell_angle_alpha 90
_cell_angle_beta 90
_cell_angle_gamma 90
_cell_formula_units_Z 4
loop_
_atom_type_symbol
_atom_type_radius_bond
C 0.68
H 0.23
N 0.68
O 0.68
loop_
_atom_site_label
_atom_site_type_symbol
_atom_site_fract_x
_atom_site_fract_y
_atom_site_fract_z
O1 O -0.4099(4) -0.10907(14) 0.23884(7)
O2 O 0.6272(4) 0.94643(12) 0.06624(6)
H1 H 0.70460 0.96450 0.04120
O3 O -0.3465(4) -0.00614(16) 0.29983(7)
O4 O 0.2076(3) 0.29564(12) 0.12467(6)
O5 O 0.3771(4) 0.49072(13) 0.02112(6)
O6 O 0.6809(4) 0.36185(13) 0.02236(6)
N1 N -0.2916(4) -0.03703(15) 0.25888(8)
N2 N 0.6449(4) 0.34412(13) 0.11926(6)
H2 H 0.81200 0.32720 0.12430
C1 C -0.0741(5) 0.01640(17) 0.23205(8)
C2 C 0.0530(5) 0.10081(18) 0.25347(9)
H3 H 0.00340 0.12290 0.28440
C3 C 0.2541(5) 0.15139(18) 0.22803(9)
H4 H 0.34180 0.20810 0.24210
C4 C 0.3289(5) 0.11900(17) 0.18142(9)
C5 C 0.5486(5) 0.17581(18) 0.1539(1)
H5 H 0.61580 0.13130 0.12810
H6 H 0.69900 0.19010 0.17580
C6 C 0.4493(4) 0.27781(17) 0.13196(8)
C7 C 0.5846(4) 0.44398(16) 0.09724(8)
H7 H 0.42080 0.47230 0.11270
C8 C 0.8227(5) 0.51903(16) 0.10708(8)
H8 H 0.87120 0.51430 0.14120
H9 H 0.97890 0.49610 0.08830
C9 C 0.7673(5) 0.63217(16) 0.09498(8)
C10 C 0.5835(6) 0.68978(17) 0.12180(9)
H10 H 0.48900 0.65790 0.14700
C11 C 0.5365(6) 0.79424(18) 0.11196(9)
H11 H 0.41120 0.83150 0.13040
C12 C 0.6768(5) 0.84283(16) 0.07459(8)
C13 C 0.5324(4) 0.43521(16) 0.04308(8)
C14 C 0.6548(8) 0.3514(2) -0.02987(9)
H12 H 0.46920 0.33570 -0.03800
H13 H 0.77060 0.29610 -0.04100
H14 H 0.70740 0.41540 -0.04520
C15 C 0.9052(5) 0.68211(17) 0.05788(9)
H15 H 1.02940 0.64470 0.03930
C16 C 0.8631(5) 0.78653(17) 0.04766(8)
H16 H 0.96000 0.81860 0.02280
C17 C 0.1969(5) 0.03456(17) 0.16117(8)
H17 H 0.24470 0.01280 0.13010
C18 C -0.0052(5) -0.01841(17) 0.18615(8)
H18 H -0.09190 -0.07570 0.17240
#END
