
#######################################################################
#
#                 Cambridge Crystallographic Data Centre
#                                CCDC
#
#######################################################################
#
# If this CIF has been generated from an entry in the Cambridge
# Structural Database, then it will include bibliographic, chemical,
# crystal, experimental, refinement or atomic coordinate data resulting
# from the CCDC's data processing and validation procedures.
#
#######################################################################

data_CSD_CIF_CEKNIP
_audit_creation_date 1984-10-09
_audit_creation_method CSD-ConQuest-V1
_database_code_CSD CEKNIP
_chemical_formula_sum 'C14 H21 N1 O2'
_chemical_formula_moiety
;
C14 H21 N1 O2
;
_journal_coeditor_code "IUCr A23470"
_journal_coden_Cambridge 591
_journal_volume 40
_journal_year 1984
_journal_page_first 502
_journal_name_full 'Acta Crystallogr.,Sect.C:Cryst.Struct.Commun. '
loop_
_publ_author_name
"G.E.Freeman"
"D.C.Fisher"
"S.-H.Kong"
_chemical_name_systematic
;
trans-(1RS,3SR,6RS,9RS)-7-Hydroxyimino-9-methyl-1-(2-methylpropyl)-tricyclo(4.
2.1.0^3,9^)nonan-8-one
;
_cell_volume   1327.798
_exptl_crystal_colour 'pale yellow'
_exptl_crystal_density_diffrn 1.177
_diffrn_ambient_temperature ?
_diffrn_special_details
;
The study was carried out at room temperature,in the range 283-303K

;
#These two values have been output from a single CSD field.
_refine_ls_R_factor_gt 0.0647
_refine_ls_wR_factor_gt 0.0647
_symmetry_cell_setting monoclinic
_symmetry_space_group_name_H-M 'P 21/c'
_symmetry_Int_Tables_number 14
loop_
_symmetry_equiv_pos_site_id
_symmetry_equiv_pos_as_xyz
1 x,y,z
2 -x,1/2+y,1/2-z
3 -x,-y,-z
4 x,-1/2-y,-1/2+z
_cell_length_a 7.3367(9)
_cell_length_b 7.9791(9)
_cell_length_c 23.298(2)
_cell_angle_alpha 90
_cell_angle_beta 103.207(7)
_cell_angle_gamma 90
_cell_formula_units_Z 4
loop_
_atom_type_symbol
_atom_type_radius_bond
C 0.68
H 0.23
N 0.68
O 0.68
loop_
_atom_site_label
_atom_site_type_symbol
_atom_site_fract_x
_atom_site_fract_y
_atom_site_fract_z
O1 O 0.53040 -0.13960 0.92130
O2 O 0.93680 0.19950 1.00450
N1 N 0.81470 0.07570 0.97530
C1 C 0.36580 0.10880 0.87500
C2 C 0.51690 0.01130 0.91490
C3 C 0.65830 0.13350 0.94760
C4 C 0.58710 0.30730 0.93930
C5 C 0.70310 0.42690 0.90960
C6 C 0.60840 0.44980 0.85020
C7 C 0.42500 0.35280 0.83780
C8 C 0.42830 0.16940 0.81850
C9 C 0.39230 0.29560 0.89740
C10 C 0.24300 0.38130 0.92080
C11 C 0.16850 0.03750 0.86480
C12 C 0.13000 -0.14210 0.84280
C13 C -0.07480 -0.17990 0.83360
C14 C 0.19590 -0.18020 0.78710
H1 H 0.59370 0.35390 0.97800
H2 H 0.34110 0.42860 0.81150
H3 H 0.34490 0.14250 0.78160
H4 H 0.55190 0.13100 0.81620
H5 H 0.28380 0.49490 0.93390
H6 H 0.12750 0.38800 0.89440
H7 H 0.22660 0.32460 0.95670
H8 H 0.13220 0.04790 0.90100
H9 H 0.09000 0.11040 0.83630
H10 H 0.20440 -0.21390 0.87170
H11 H -0.14450 -0.10650 0.80550
H12 H -0.09790 -0.29340 0.82030
H13 H -0.11010 -0.16830 0.87020
H14 H 0.32620 -0.16290 0.79290
H15 H 0.13120 -0.11040 0.75560
H16 H 0.16830 -0.29520 0.77560
H17 H 1.08200 0.12500 1.01950
#END
