
#######################################################################
#
#                 Cambridge Crystallographic Data Centre
#                                CCDC
#
#######################################################################
#
# If this CIF has been generated from an entry in the Cambridge
# Structural Database, then it will include bibliographic, chemical,
# crystal, experimental, refinement or atomic coordinate data resulting
# from the CCDC's data processing and validation procedures.
#
#######################################################################

data_CSD_CIF_CEKVIX
_audit_creation_date 1984-11-14
_audit_creation_method CSD-ConQuest-V1
_database_code_CSD CEKVIX
_chemical_formula_sum 'C7 H8 N2 O2'
_chemical_formula_moiety
;
C7 H8 N2 O2
;
_journal_coeditor_code "IUCr A23396"
_journal_coden_Cambridge 591
_journal_volume 40
_journal_year 1984
_journal_page_first 301
_journal_name_full 'Acta Crystallogr.,Sect.C:Cryst.Struct.Commun. '
loop_
_publ_author_name
"D.T.Cromer"
"R.R.Ryan"
"D.S.Wilbur"
_chemical_name_systematic
;
1H-Azepine-2,5-dione 5-(O-methyloxime)
;
_cell_volume    363.899
_exptl_crystal_colour 'yellow'
_exptl_crystal_density_diffrn 1.388
_diffrn_ambient_temperature ?
_diffrn_special_details
;
The study was carried out at room temperature,in the range 283-303K

;
#These two values have been output from a single CSD field.
_refine_ls_R_factor_gt 0.03
_refine_ls_wR_factor_gt 0.03
_symmetry_cell_setting triclinic
_symmetry_space_group_name_H-M 'P -1'
_symmetry_Int_Tables_number 2
loop_
_symmetry_equiv_pos_site_id
_symmetry_equiv_pos_as_xyz
1 x,y,z
2 -x,-y,-z
_cell_length_a 3.877(2)
_cell_length_b 9.522(2)
_cell_length_c 10.674(2)
_cell_angle_alpha 107.99(2)
_cell_angle_beta 97.66(3)
_cell_angle_gamma 98.50(3)
_cell_formula_units_Z 2
loop_
_atom_type_symbol
_atom_type_radius_bond
C 0.68
H 0.23
N 0.68
O 0.68
loop_
_atom_site_label
_atom_site_type_symbol
_atom_site_fract_x
_atom_site_fract_y
_atom_site_fract_z
C1 C 0.87950 0.13780 0.17610
C2 C 0.80770 0.22940 0.30390
C3 C 0.72530 0.36450 0.34360
C4 C 0.68170 0.46850 0.27140
C5 C 0.72390 0.43760 0.13440
C6 C 0.79730 0.31530 0.05080
C7 C 0.47820 0.82400 0.35820
N1 N 0.86240 0.18290 0.06670
N2 N 0.60080 0.59200 0.34480
O1 O 0.95660 0.01430 0.16640
O2 O 0.56050 0.69030 0.27270
H1 H 0.82900 0.17700 0.36800
H2 H 0.68300 0.40300 0.43500
H3 H 0.69100 0.51800 0.10200
H4 H 0.81100 0.31500 -0.03500
H5 H 0.92100 0.11100 -0.01500
H6 H 0.67800 0.87100 0.43500
H7 H 0.44000 0.88300 0.29900
H8 H 0.24700 0.79800 0.38800
#END
