
#######################################################################
#
#                 Cambridge Crystallographic Data Centre
#                                CCDC
#
#######################################################################
#
# If this CIF has been generated from an entry in the Cambridge
# Structural Database, then it will include bibliographic, chemical,
# crystal, experimental, refinement or atomic coordinate data resulting
# from the CCDC's data processing and validation procedures.
#
#######################################################################

data_CSD_CIF_CELKEM
_audit_creation_date 2017-10-06
_audit_creation_method CSD-ConQuest-V1
_database_code_CSD CELKEM
_database_code_depnum_ccdc_archive 'CCDC 1508564'
_chemical_formula_sum 'C14 H18 N2 O3'
_chemical_formula_moiety
;
C14 H18 N2 O3
;
_journal_coden_Cambridge 1268
_journal_volume 22
_journal_year 2017
_journal_page_first 613
_journal_name_full 'Molecules '
loop_
_publ_author_name
"B.Fekete"
"M.Palko"
"M.Haukka"
"F.Fulop"
_chemical_name_systematic
;
8-methoxy-7-methyl-3,8-diazatetracyclo[9.2.1.0^2,10^.0^3,7^]tetradec-12-ene-4,
9-dione
;
_chemical_name_common
;
(3aR*,5aS*,6R*,9S*,9aR*)-4-methoxy-3a-methyl-2,3,3a,4,5a,6,9a-octahydro-6,9-me
thanopyrrolo[1,2-a]quinazoline-1,5-dione
;
_cell_volume   1262.375
_exptl_crystal_colour 'colorless'
_exptl_crystal_density_diffrn 1.38
_exptl_crystal_description 'block'
_diffrn_ambient_temperature 120
#These two values have been output from a single CSD field.
_refine_ls_R_factor_gt 0.0434
_refine_ls_wR_factor_gt 0.0434
_symmetry_cell_setting monoclinic
_symmetry_space_group_name_H-M 'P 21/n'
_symmetry_Int_Tables_number 14
loop_
_symmetry_equiv_pos_site_id
_symmetry_equiv_pos_as_xyz
1 x,y,z
2 1/2-x,1/2+y,1/2-z
3 -x,-y,-z
4 -1/2+x,-1/2-y,-1/2+z
_cell_length_a 9.4473(3)
_cell_length_b 10.0314(2)
_cell_length_c 13.7952(4)
_cell_angle_alpha 90
_cell_angle_beta 105.075(3)
_cell_angle_gamma 90
_cell_formula_units_Z 4
loop_
_atom_type_symbol
_atom_type_radius_bond
C 0.68
H 0.23
N 0.68
O 0.68
loop_
_atom_site_label
_atom_site_type_symbol
_atom_site_fract_x
_atom_site_fract_y
_atom_site_fract_z
O1 O 0.53627(13) 0.18884(9) 0.19486(8)
O2 O 0.60086(12) 0.74993(9) 0.39732(7)
O3 O 0.67707(9) 0.18290(8) 0.38823(7)
N1 N 0.62005(10) 0.30283(9) 0.34043(7)
N2 N 0.62664(10) 0.53607(9) 0.34704(7)
C1 C 0.57080(13) 0.29450(12) 0.23810(9)
C2 C 0.55353(13) 0.42430(11) 0.18082(8)
H1 H 0.62040 0.42140 0.13530
C3 C 0.39361(14) 0.44066(12) 0.11386(9)
H2 H 0.36430 0.37980 0.05460
C4 C 0.29557(14) 0.43990(13) 0.18455(10)
H3 H 0.22940 0.37110 0.19080
C5 C 0.31856(13) 0.55278(13) 0.23631(10)
H4 H 0.27210 0.57910 0.28660
C6 C 0.43162(13) 0.63203(11) 0.20121(8)
H5 H 0.43300 0.73020 0.21420
C7 C 0.58120(12) 0.55821(11) 0.23945(8)
H6 H 0.65920 0.60930 0.21850
C8 C 0.39436(14) 0.58983(12) 0.09038(9)
H7 H 0.29760 0.62300 0.05130
H8 H 0.47140 0.61470 0.05690
C9 C 0.63984(13) 0.63503(12) 0.41582(9)
C10 C 0.71214(15) 0.57706(13) 0.51812(10)
H9 H 0.65490 0.59840 0.56690
H10 H 0.81300 0.61200 0.54380
C11 C 0.71396(14) 0.42682(12) 0.49991(9)
H11 H 0.62790 0.38290 0.51450
H12 H 0.80460 0.38570 0.54180
C12 C 0.70820(12) 0.41688(10) 0.38823(8)
C13 C 0.86029(13) 0.41267(12) 0.37019(10)
H13 H 0.90970 0.32990 0.39800
H14 H 0.91750 0.48920 0.40310
H15 H 0.85160 0.41610 0.29790
C14 C 0.56371(15) 0.10774(14) 0.41496(12)
H16 H 0.48240 0.09380 0.35520
H17 H 0.52850 0.15680 0.46550
H18 H 0.60280 0.02120 0.44250
#END
