
#######################################################################
#
#                 Cambridge Crystallographic Data Centre
#                                CCDC
#
#######################################################################
#
# If this CIF has been generated from an entry in the Cambridge
# Structural Database, then it will include bibliographic, chemical,
# crystal, experimental, refinement or atomic coordinate data resulting
# from the CCDC's data processing and validation procedures.
#
#######################################################################

data_CSD_CIF_CELQEQ
_audit_creation_date 2006-08-20
_audit_creation_method CSD-ConQuest-V1
_database_code_CSD CELQEQ
_database_code_depnum_ccdc_archive 'CCDC 236270'
_chemical_formula_sum 'C19 H26 N2 O2'
_chemical_formula_moiety
;
C19 H26 N2 O2
;
_journal_coden_Cambridge 24
_journal_volume 47
_journal_year 2006
_journal_page_first 3827
_journal_name_full 'Tetrahedron Lett. '
loop_
_publ_author_name
"A.Banerji"
"D.Bandyopadhyay"
"P.Sengupta"
"B.Basak"
"T.Prange"
"A.Neuman"
_chemical_name_systematic
;
(2RS,3SR,3aRS)-2,3,3a,4,5,6,7,8-Octahydro-2-phenyl-3-((piperidin-1-yl)carbonyl
)isoxazolo(2,3-a)pyridine
;
_cell_volume    845.377
_exptl_crystal_colour 'colorless'
_exptl_crystal_density_diffrn 1.235
_exptl_crystal_description 'prism'
_diffrn_ambient_temperature 293
#These two values have been output from a single CSD field.
_refine_ls_R_factor_gt 0.0529
_refine_ls_wR_factor_gt 0.0529
loop_
_citation_database_id_CSD
_citation_special_details
CEGWIV "is a stereoisomer of this entry"
_symmetry_cell_setting triclinic
_symmetry_space_group_name_H-M 'P -1'
_symmetry_Int_Tables_number 2
loop_
_symmetry_equiv_pos_site_id
_symmetry_equiv_pos_as_xyz
1 x,y,z
2 -x,-y,-z
_cell_length_a 11.549(4)
_cell_length_b 9.492(3)
_cell_length_c 9.741(4)
_cell_angle_alpha 120.81(2)
_cell_angle_beta 112.79(4)
_cell_angle_gamma 77.66(4)
_cell_formula_units_Z 2
loop_
_atom_type_symbol
_atom_type_radius_bond
C 0.68
H 0.23
N 0.68
O 0.68
loop_
_atom_site_label
_atom_site_type_symbol
_atom_site_fract_x
_atom_site_fract_y
_atom_site_fract_z
C1 C 1.2969(3) 0.2318(4) 0.0349(4)
O1 O 1.3498(2) 0.1281(3) 0.0787(3)
C2 C 1.1655(3) 0.3187(3) 0.2255(3)
H1 H 1.22400 0.23560 0.24780
C3 C 1.1737(3) 0.3110(3) 0.0672(4)
H2 H 1.168(3) 0.411(4) 0.083(4)
C4 C 1.0601(3) 0.2078(3) -0.0686(4)
H3 H 1.086(3) 0.100(4) -0.077(4)
C5 C 1.0032(3) 0.2087(4) -0.2350(4)
H4 H 1.068(3) 0.157(4) -0.303(4)
H5 H 0.983(3) 0.319(4) -0.217(4)
C6 C 0.8841(3) 0.1080(4) -0.3373(5)
H6 H 0.90630 -0.00660 -0.36910
H7 H 0.84230 0.11670 -0.44040
C7 C 0.7948(3) 0.1664(5) -0.2368(5)
H8 H 0.768(3) 0.285(4) -0.218(4)
H9 H 0.724(3) 0.097(4) -0.294(4)
C8 C 0.8602(3) 0.1736(4) -0.0650(5)
H10 H 0.812(3) 0.218(4) 0.018(4)
H11 H 0.892(3) 0.071(4) -0.062(4)
N1 N 0.9688(2) 0.2782(3) 0.0216(3)
O2 O 1.0409(2) 0.2708(3) 0.1793(3)
N2 N 1.3394(2) 0.2705(3) -0.0522(3)
C9 C 1.4561(3) 0.1914(5) -0.0879(5)
H12 H 1.476(3) 0.112(4) -0.059(4)
H13 H 1.520(3) 0.276(4) -0.016(4)
C10 C 1.4414(4) 0.1271(5) -0.2703(5)
H14 H 1.528(3) 0.076(4) -0.277(4)
H15 H 1.386(3) 0.034(4) -0.339(4)
C11 C 1.3961(4) 0.2601(5) -0.3225(5)
H16 H 1.380(3) 0.221(4) -0.448(5)
H17 H 1.470(3) 0.337(4) -0.247(4)
C12 C 1.2768(3) 0.3408(5) -0.2829(5)
H18 H 1.210(3) 0.265(4) -0.354(4)
H19 H 1.247(3) 0.436(4) -0.317(4)
C13 C 1.2912(4) 0.3990(4) -0.1003(4)
H20 H 1.355(3) 0.492(4) -0.024(4)
H21 H 1.208(3) 0.442(4) -0.088(4)
C14 C 1.1984(3) 0.4822(3) 0.3857(3)
C15 C 1.1113(3) 0.5740(3) 0.4644(4)
H22 H 1.021(3) 0.548(4) 0.409(4)
C16 C 1.1463(4) 0.7183(4) 0.6180(4)
H23 H 1.083(3) 0.782(4) 0.671(4)
C17 C 1.2674(4) 0.7700(4) 0.6907(4)
H24 H 1.295(3) 0.868(4) 0.801(4)
C18 C 1.3540(3) 0.6817(4) 0.6113(5)
H25 H 1.437(3) 0.714(4) 0.663(4)
C19 C 1.3207(3) 0.5373(4) 0.4598(4)
H26 H 1.388(3) 0.472(4) 0.418(4)
#END
