
#######################################################################
#
#                 Cambridge Crystallographic Data Centre
#                                CCDC
#
#######################################################################
#
# If this CIF has been generated from an entry in the Cambridge
# Structural Database, then it will include bibliographic, chemical,
# crystal, experimental, refinement or atomic coordinate data resulting
# from the CCDC's data processing and validation procedures.
#
#######################################################################

data_CSD_CIF_CEMHEJ
_audit_creation_date 2013-04-29
_audit_creation_method CSD-ConQuest-V1
_database_code_CSD CEMHEJ
_database_code_depnum_ccdc_archive 'CCDC 928988'
_chemical_formula_sum 'C25 H24 N2 O6'
_chemical_formula_moiety
;
C25 H24 N2 O6
;
_journal_coden_Cambridge 1336
_journal_volume 14
_journal_year 2012
_journal_page_first 5968
_journal_name_full 'Org.Lett. '
loop_
_publ_author_name
"K.Albertshofer"
"K.E.Anderson"
"C.F.Barbas III"
_chemical_name_systematic
;
t-Butyl 
3-formyl-4-methyl-2-(4-nitrophenyl)-2'-oxospiro[cyclopent-3-ene-1,3'-indole]-1
'(2'H)-carboxylate
;
_cell_volume   2186.509
_exptl_crystal_colour 'colorless'
_exptl_crystal_density_diffrn 1.362
_exptl_special_details
;
Absolute configuration

;
_exptl_crystal_description 'plate'
_diffrn_ambient_temperature 100
#These two values have been output from a single CSD field.
_refine_ls_R_factor_gt 0.0248
_refine_ls_wR_factor_gt 0.0248
_symmetry_cell_setting orthorhombic
_symmetry_space_group_name_H-M 'P 21 21 21'
_symmetry_Int_Tables_number 19
loop_
_symmetry_equiv_pos_site_id
_symmetry_equiv_pos_as_xyz
1 x,y,z
2 1/2+x,1/2-y,-z
3 -x,1/2+y,1/2-z
4 1/2-x,-y,1/2+z
_cell_length_a 9.6599(4)
_cell_length_b 10.6610(4)
_cell_length_c 21.2315(9)
_cell_angle_alpha 90
_cell_angle_beta 90
_cell_angle_gamma 90
_cell_formula_units_Z 4
loop_
_atom_type_symbol
_atom_type_radius_bond
C 0.68
H 0.23
N 0.68
O 0.68
loop_
_atom_site_label
_atom_site_type_symbol
_atom_site_fract_x
_atom_site_fract_y
_atom_site_fract_z
O1 O 0.40670(14) -0.13284(12) -0.28254(5)
O2 O 0.53237(13) 0.03466(13) -0.28832(5)
O3 O 0.62377(11) -0.20962(10) 0.03748(5)
O4 O 0.41529(10) 0.12326(8) 0.13971(4)
O5 O 0.40372(9) 0.36590(8) 0.17818(4)
O6 O 0.4880(1) 0.49136(8) 0.10078(4)
N1 N 0.47020(12) -0.04600(12) -0.25825(6)
N2 N 0.38841(10) 0.30216(10) 0.07793(5)
C1 C 0.54352(13) 0.06840(12) -0.09594(6)
H1 H 0.59780 0.13080 -0.07570
C2 C 0.54761(14) 0.05834(13) -0.16100(6)
H2 H 0.60200 0.11410 -0.18560
C3 C 0.46982(13) -0.03560(13) -0.18899(6)
C4 C 0.38938(14) -0.11804(12) -0.15461(6)
H3 H 0.33850 -0.18260 -0.17500
C5 C 0.38449(13) -0.10461(12) -0.08964(6)
H4 H 0.32830 -0.15940 -0.06530
C6 C 0.46156(12) -0.01107(11) -0.05963(6)
C7 C 0.45241(13) 0.00948(11) 0.01109(6)
H5 H 0.54370 0.03990 0.02730
C8 C 0.40891(14) -0.10629(11) 0.04729(6)
C9 C 0.27714(14) -0.10098(12) 0.06695(6)
C10 C 0.21009(13) 0.02016(13) 0.04694(6)
H6 H 0.15440 0.05640 0.08160
H7 H 0.14970 0.00730 0.00980
C11 C 0.33444(12) 0.10572(11) 0.03047(6)
C12 C 0.50520(16) -0.20984(12) 0.05665(6)
H8 H 0.47350 -0.28150 0.07900
C13 C 0.19632(17) -0.19586(15) 0.10367(7)
H9 H 0.25100 -0.27280 0.10800
H10 H 0.10980 -0.21470 0.08150
H11 H 0.17530 -0.16220 0.14550
C14 C 0.38301(12) 0.17213(12) 0.09066(6)
C15 C 0.35044(12) 0.32557(12) 0.01409(6)
C16 C 0.34451(13) 0.43967(13) -0.01728(6)
H12 H 0.37090 0.51570 0.00280
C17 C 0.29823(14) 0.43789(13) -0.07933(6)
H13 H 0.29500 0.51400 -0.10250
C18 C 0.25683(14) 0.32753(14) -0.10792(6)
H14 H 0.22490 0.32920 -0.15020
C19 C 0.26139(13) 0.21416(13) -0.07555(6)
H15 H 0.23120 0.13880 -0.09510
C20 C 0.31110(12) 0.21332(12) -0.01398(6)
C21 C 0.43335(12) 0.39655(11) 0.11952(6)
C22 C 0.45369(13) 0.44567(11) 0.23128(6)
C23 C 0.61062(14) 0.44423(14) 0.23173(6)
H16 H 0.64540 0.48730 0.19420
H17 H 0.64350 0.35730 0.23180
H18 H 0.64440 0.48720 0.26950
C24 C 0.39344(14) 0.57690(12) 0.22617(6)
H19 H 0.42630 0.61660 0.18730
H20 H 0.42300 0.62690 0.26250
H21 H 0.29220 0.57190 0.22540
C25 C 0.39360(14) 0.37920(12) 0.28825(6)
H22 H 0.29230 0.38220 0.28630
H23 H 0.42540 0.42090 0.32680
H24 H 0.42430 0.29160 0.28850
#END
