
#######################################################################
#
#                 Cambridge Crystallographic Data Centre
#                                CCDC
#
#######################################################################
#
# If this CIF has been generated from an entry in the Cambridge
# Structural Database, then it will include bibliographic, chemical,
# crystal, experimental, refinement or atomic coordinate data resulting
# from the CCDC's data processing and validation procedures.
#
#######################################################################

data_CSD_CIF_CEMVEV
_audit_creation_date 1984-11-14
_audit_creation_method CSD-ConQuest-V1
_database_code_CSD CEMVEV
_chemical_formula_sum 'C13 H13 N3 O1'
_chemical_formula_moiety
;
C13 H13 N3 O1
;
_journal_coden_Cambridge 207
_journal_year 1984
_journal_page_first 47
_journal_name_full 'J.Chem.Soc.,Perkin Trans.1 '
loop_
_publ_author_name
"R.Grigg"
"M.Jordan"
"A.Tangthongkum"
"F.W.B.Einstein"
"T.Jones"
_chemical_name_systematic
;
2-(2-Cyanoethyl)-cis-5-cyano-3-phenylisoxazolidine
;
_chemical_melting_point 401.15
_cell_volume   1235.366
_exptl_special_details
;
Melting point range 401.15-402.15K
Wrong formula used to calculate mol.wt. and density
;
_diffrn_ambient_temperature ?
_diffrn_special_details
;
The study was carried out at room temperature,in the range 283-303K

;
#These two values have been output from a single CSD field.
_refine_ls_R_factor_gt 0.031
_refine_ls_wR_factor_gt 0.031
_symmetry_cell_setting monoclinic
_symmetry_space_group_name_H-M 'P 21/c'
_symmetry_Int_Tables_number 14
loop_
_symmetry_equiv_pos_site_id
_symmetry_equiv_pos_as_xyz
1 x,y,z
2 -x,1/2+y,1/2-z
3 -x,-y,-z
4 x,-1/2-y,-1/2+z
_cell_length_a 15.090(7)
_cell_length_b 7.414(2)
_cell_length_c 12.721(5)
_cell_angle_alpha 90
_cell_angle_beta 119.77(3)
_cell_angle_gamma 90
_cell_formula_units_Z 4
loop_
_atom_type_symbol
_atom_type_radius_bond
C 0.68
H 0.23
N 0.68
O 0.68
loop_
_atom_site_label
_atom_site_type_symbol
_atom_site_fract_x
_atom_site_fract_y
_atom_site_fract_z
C1 C 0.33023 0.86310 0.22894
C2 C 0.35856 0.73620 0.17249
C3 C 0.43859 0.61820 0.24020
C4 C 0.48955 0.62750 0.36350
C5 C 0.46097 0.75110 0.42048
C6 C 0.38167 0.86990 0.35442
C7 C 0.24592 0.99690 0.15533
C8 C 0.27900 1.19470 0.16578
C9 C 0.19032 1.29750 0.16441
C10 C 0.09939 0.85590 0.15436
C11 C 0.01950 0.88090 0.19154
C12 C 0.06310 0.90150 0.32176
C13 C 0.21830 1.37840 0.28280
N1 N 0.17239 1.00639 0.19886
N2 N 0.09656 0.91990 0.42246
N3 N 0.23776 1.44280 0.37231
O1 O 0.11189 1.16478 0.13368
H1 H 0.32260 0.73000 0.08750
H2 H 0.45780 0.53300 0.19850
H3 H 0.54660 0.54500 0.41170
H4 H 0.49410 0.76200 0.50600
H5 H 0.35950 0.95800 0.39640
H6 H 0.21040 0.95970 0.06870
H7 H 0.28760 1.22900 0.09910
H8 H 0.34140 1.22500 0.24480
H9 H 0.16670 1.39200 0.10800
H10 H 0.06790 0.84200 0.06530
H11 H 0.13810 0.74570 0.19000
H12 H -0.02540 0.77600 0.16790
H13 H -0.02180 0.99300 0.15410
#END
