
#######################################################################
#
#                 Cambridge Crystallographic Data Centre
#                                CCDC
#
#######################################################################
#
# If this CIF has been generated from an entry in the Cambridge
# Structural Database, then it will include bibliographic, chemical,
# crystal, experimental, refinement or atomic coordinate data resulting
# from the CCDC's data processing and validation procedures.
#
#######################################################################

data_CSD_CIF_CENFIK
_audit_creation_date 1984-11-14
_audit_creation_method CSD-ConQuest-V1
_database_code_CSD CENFIK
_chemical_formula_sum 'C8 H7 N1 O3'
_chemical_formula_moiety
;
C8 H7 N1 O3
;
_journal_coden_Cambridge 35
_journal_volume 49
_journal_year 1984
_journal_page_first 438
_journal_name_full 'J.Org.Chem. '
loop_
_publ_author_name
"W.Wierenga"
"A.W.Harrison"
"B.R.Evans"
"C.G.Chidester"
_chemical_name_systematic
;
1-(Hydroxymethyl)-2,1-benzisoxazol-3(1H)-one
;
_chemical_melting_point 388.15
_cell_volume    359.795
_exptl_crystal_colour 'colorless'
_exptl_crystal_density_diffrn 1.52
_exptl_special_details
;
Melting point range 388.15-390.15K
antibacterial and antileukaemic activity

;
_diffrn_ambient_temperature 123.15
#These two values have been output from a single CSD field.
_refine_ls_R_factor_gt 0.035
_refine_ls_wR_factor_gt 0.035
_symmetry_cell_setting triclinic
_symmetry_space_group_name_H-M 'P -1'
_symmetry_Int_Tables_number 2
loop_
_symmetry_equiv_pos_site_id
_symmetry_equiv_pos_as_xyz
1 x,y,z
2 -x,-y,-z
_cell_length_a 7.038(1)
_cell_length_b 7.718(2)
_cell_length_c 7.556(1)
_cell_angle_alpha 104.50(2)
_cell_angle_beta 83.11(1)
_cell_angle_gamma 115.10(5)
_cell_formula_units_Z 2
loop_
_atom_type_symbol
_atom_type_radius_bond
C 0.68
H 0.23
N 0.68
O 0.68
loop_
_atom_site_label
_atom_site_type_symbol
_atom_site_fract_x
_atom_site_fract_y
_atom_site_fract_z
N1 N 0.05070 0.84040 0.79920
O1 O -0.03320 0.70160 0.62860
C1 C 0.06270 0.78810 0.48470
O2 O 0.00760 0.70040 0.32930
C2 C 0.21840 0.98030 0.55880
C3 C 0.35990 1.12650 0.47390
C4 C 0.49780 1.29380 0.58390
C5 C 0.49590 1.31290 0.77360
C6 C 0.35520 1.16860 0.85910
C7 C 0.21470 1.00220 0.74700
C8 C 0.10010 0.73790 0.91460
O3 O 0.25660 0.67300 0.84170
H1 H 0.36600 1.10800 0.33900
H2 H 0.60300 1.39200 0.53300
H3 H 0.59700 1.42800 0.84200
H4 H 0.35400 1.18200 0.98800
H5 H 0.15000 0.83600 1.02900
H6 H -0.03400 0.63100 0.93700
H7 H 0.19800 0.57100 0.77800
#END
