
#######################################################################
#
#                 Cambridge Crystallographic Data Centre
#                                CCDC
#
#######################################################################
#
# If this CIF has been generated from an entry in the Cambridge
# Structural Database, then it will include bibliographic, chemical,
# crystal, experimental, refinement or atomic coordinate data resulting
# from the CCDC's data processing and validation procedures.
#
#######################################################################

data_CSD_CIF_CENWAU
_audit_creation_date 2006-11-30
_audit_creation_method CSD-ConQuest-V1
_database_code_CSD CENWAU
_database_code_depnum_ccdc_archive 'CCDC 274744'
_chemical_formula_sum 'C17 H14 N2 O3'
_chemical_formula_moiety
;
C17 H14 N2 O3
;
_journal_coden_Cambridge 469
_journal_volume 69
_journal_year 2006
_journal_page_first 1222
_journal_name_full 'J.Nat.Prod. '
loop_
_publ_author_name
"C.A.Carollo"
"J.M.de Siqueira"
"W.S.Garcez"
"R.Diniz"
"N.G.Fernandes"
_chemical_name_systematic
;
(7aR)-(-)-7-nitroso-6,7,7a,8-tetrahydro-5H-[1,3]benzodioxolo[6,5,4-de]benzo[g]
quinoline
;
_chemical_name_common
;
N-nitrosoanoaine
;
_chemical_melting_point 447.15
_cell_volume   1347.900
_exptl_crystal_density_diffrn 1.45
_exptl_special_details
;
Melting point range 447.15-448.15K
The plant is used in folk medicine against pediculosis, rheumatism and renal 
disorders
;
_exptl_crystal_description 'prism'
_exptl_crystal_preparation 'methanol/chloroform'
_diffrn_ambient_temperature 298
#These two values have been output from a single CSD field.
_refine_ls_R_factor_gt 0.045
_refine_ls_wR_factor_gt 0.045
_chemical_compound_source
;
aerial parts of the pasture-invading weed Duguetia furfuracea
;
_symmetry_cell_setting orthorhombic
_symmetry_space_group_name_H-M 'P 21 21 21'
_symmetry_Int_Tables_number 19
loop_
_symmetry_equiv_pos_site_id
_symmetry_equiv_pos_as_xyz
1 x,y,z
2 1/2-x,-y,1/2+z
3 1/2+x,1/2-y,-z
4 -x,1/2+y,1/2-z
_cell_length_a 7.0108(9)
_cell_length_b 11.1847(13)
_cell_length_c 17.1896(12)
_cell_angle_alpha 90
_cell_angle_beta 90
_cell_angle_gamma 90
_cell_formula_units_Z 4
loop_
_atom_type_symbol
_atom_type_radius_bond
C 0.68
H 0.23
N 0.68
O 0.68
loop_
_atom_site_label
_atom_site_type_symbol
_atom_site_fract_x
_atom_site_fract_y
_atom_site_fract_z
O1 O 0.5479(4) 0.54318(18) 0.36909(13)
O2 O 0.6917(3) -0.10200(15) 0.39926(10)
O3 O 0.4317(3) -0.13692(16) 0.47762(11)
N1 N 0.3491(3) 0.39728(18) 0.36092(13)
N2 N 0.3799(4) 0.5103(2) 0.37679(15)
C1 C 0.1572(4) 0.3543(2) 0.37180(16)
C2 C 0.1556(4) 0.2639(2) 0.43682(16)
C3 C 0.3041(4) 0.1692(2) 0.42469(14)
C4 C 0.4607(4) 0.1913(2) 0.37858(13)
C5 C 0.5031(4) 0.3140(2) 0.34524(14)
C6 C 0.5542(4) 0.3023(2) 0.25977(13)
C7 C 0.7259(4) 0.2246(2) 0.25282(13)
C8 C 0.8610(5) 0.2449(2) 0.19615(16)
C9 C 1.0220(5) 0.1747(3) 0.19060(17)
C10 C 1.0499(5) 0.0833(2) 0.24264(17)
C11 C 0.9159(4) 0.0609(2) 0.29937(16)
C12 C 0.7526(4) 0.1296(2) 0.30517(13)
C13 C 0.6020(4) 0.1044(2) 0.36240(13)
C14 C 0.5779(4) -0.0014(2) 0.40203(14)
C15 C 0.4248(4) -0.0227(2) 0.44918(14)
C16 C 0.2835(4) 0.0578(2) 0.46063(15)
C17 C 0.6162(5) -0.1788(2) 0.45815(17)
H1 H 0.07516 0.42012 0.38250
H2 H 0.11564 0.31663 0.32508
H3 H 0.03400 0.22629 0.43980
H4 H 0.17809 0.30476 0.48459
H5 H 0.61463 0.34373 0.37028
H6 H 0.57638 0.37910 0.23763
H7 H 0.44931 0.26570 0.23386
H8 H 0.84445 0.30855 0.15995
H9 H 1.11044 0.18815 0.14949
H10 H 1.16470 0.03807 0.23985
H11 H 0.93280 -0.00507 0.33377
H12 H 0.17721 0.03963 0.49299
H13 H 0.69760 -0.17797 0.50249
H14 H 0.60862 -0.25848 0.43875
#END
