
#######################################################################
#
#                 Cambridge Crystallographic Data Centre
#                                CCDC
#
#######################################################################
#
# If this CIF has been generated from an entry in the Cambridge
# Structural Database, then it will include bibliographic, chemical,
# crystal, experimental, refinement or atomic coordinate data resulting
# from the CCDC's data processing and validation procedures.
#
#######################################################################

data_CSD_CIF_CEPTEX
_audit_creation_date 2006-11-30
_audit_creation_method CSD-ConQuest-V1
_database_code_CSD CEPTEX
_database_code_depnum_ccdc_archive 'CCDC 611461'
_chemical_formula_sum 'C17 H21 N3 O5'
_chemical_formula_moiety
;
C17 H21 N3 O5
;
_journal_coden_Cambridge 1078
_journal_year 2006
_journal_name_full 'CSD Communication(Private Communication) '
loop_
_publ_author_name
"P.G.Jones"
_chemical_name_systematic
;
t-Butyl 
1-acetyl-3-methyl-5-(2-nitrophenyl)-4,5-dihydro-1H-pyrazole-4-carboxylate
;
_cell_volume   1812.058
_exptl_crystal_density_diffrn 1.273
_exptl_special_details
;
contribution from Institut fur Anorganische und Analytische Chemie, 
Technische Universitat Braunschweig, Postfach 3329, 38023 Braunschweig, 
Germany
;
_exptl_crystal_description 'irregular tablet'
_diffrn_ambient_temperature 143
#These two values have been output from a single CSD field.
_refine_ls_R_factor_gt 0.0555
_refine_ls_wR_factor_gt 0.0555
_symmetry_cell_setting monoclinic
_symmetry_space_group_name_H-M 'P 21/c'
_symmetry_Int_Tables_number 14
loop_
_symmetry_equiv_pos_site_id
_symmetry_equiv_pos_as_xyz
1 x,y,z
2 -x,1/2+y,1/2-z
3 -x,-y,-z
4 x,-1/2-y,-1/2+z
_cell_length_a 11.8520(14)
_cell_length_b 7.6468(9)
_cell_length_c 20.270(3)
_cell_angle_alpha 90
_cell_angle_beta 99.465(4)
_cell_angle_gamma 90
_cell_formula_units_Z 4
loop_
_atom_type_symbol
_atom_type_radius_bond
C 0.68
H 0.23
N 0.68
O 0.68
loop_
_atom_site_label
_atom_site_type_symbol
_atom_site_fract_x
_atom_site_fract_y
_atom_site_fract_z
N1 N 0.3589(2) 0.3775(3) 0.04463(11)
N2 N 0.3303(2) 0.5032(3) -0.00537(12)
N3 N 0.3153(2) 0.4628(3) 0.25714(13)
O1 O 0.38902(19) 0.0971(3) 0.07193(11)
O2 O 0.11296(17) 0.7648(3) 0.11753(10)
O3 O 0.07849(19) 0.4838(3) 0.08413(12)
O4 O 0.2283(2) 0.4721(4) 0.21942(13)
O5 O 0.3148(2) 0.4595(5) 0.31604(13)
C1 C 0.3267(2) 0.4275(4) 0.10930(13)
H1 H 0.27050 0.34170 0.12220
C2 C 0.2677(2) 0.6058(4) 0.09179(14)
H2 H 0.30890 0.70110 0.11980
C3 C 0.2795(2) 0.6290(4) 0.01939(15)
C4 C 0.3848(3) 0.2105(5) 0.02915(16)
C5 C 0.4096(3) 0.1804(4) -0.04025(14)
H3 H 0.48280 0.23500 -0.04470
H4 H 0.34850 0.23220 -0.07290
H5 H 0.41370 0.05450 -0.04850
C6 C 0.4308(2) 0.4400(4) 0.16431(14)
C7 C 0.5395(3) 0.4389(4) 0.14829(16)
H6 H 0.54800 0.42800 0.10270
C8 C 0.6367(3) 0.4530(5) 0.19624(17)
H7 H 0.71000 0.45190 0.18300
C9 C 0.6281(3) 0.4686(4) 0.26301(16)
H8 H 0.69480 0.47840 0.29590
C10 C 0.5222(3) 0.4698(4) 0.28086(15)
H9 H 0.51490 0.47970 0.32670
C11 C 0.4251(2) 0.4566(4) 0.23275(14)
C12 C 0.2313(3) 0.7800(4) -0.02236(18)
H10 H 0.26000 0.77810 -0.06500
H11 H 0.25450 0.88930 0.00130
H12 H 0.14760 0.77190 -0.03080
C13 C 0.1418(3) 0.6055(5) 0.09768(14)
C14 C -0.0068(3) 0.8065(5) 0.12501(18)
C15 C -0.0821(3) 0.7933(5) 0.05829(19)
H13 H -0.04990 0.86400 0.02560
H14 H -0.15880 0.83630 0.06180
H15 H -0.08700 0.67090 0.04370
C16 C 0.0043(3) 0.9963(6) 0.1480(2)
H16 H 0.05580 1.00320 0.19100
H17 H -0.07120 1.04150 0.15300
H18 H 0.03550 1.06630 0.11470
C17 C -0.0428(4) 0.6900(7) 0.1770(3)
H19 H -0.05090 0.56990 0.15990
H20 H -0.11620 0.73040 0.18760
H21 H 0.01520 0.69320 0.21740
#END
