
#######################################################################
#
#                 Cambridge Crystallographic Data Centre
#                                CCDC
#
#######################################################################
#
# If this CIF has been generated from an entry in the Cambridge
# Structural Database, then it will include bibliographic, chemical,
# crystal, experimental, refinement or atomic coordinate data resulting
# from the CCDC's data processing and validation procedures.
#
#######################################################################

data_CSD_CIF_CEQCIK
_audit_creation_date 2000-02-03
_audit_creation_method CSD-ConQuest-V1
_database_code_CSD CEQCIK
_database_code_depnum_ccdc_archive 'CCDC 134732'
_chemical_formula_sum 'C38 H28 N2 O2'
_chemical_formula_moiety
;
C38 H28 N2 O2
;
_journal_coden_Cambridge 4
_journal_volume 121
_journal_year 1999
_journal_page_first 8182
_journal_name_full 'J.Am.Chem.Soc. '
loop_
_publ_author_name
"J.J.Pak"
"T.J.R.Weakley"
"M.M.Haley"
_chemical_name_systematic
;
1^4^-Nitro-6^4^-di-n-butylamino-1,6,11(1,2)-tribenzena-cyclopentadecaphane-2,4
,7,9,12,14-hexayne
;
_cell_volume   1502.364
_exptl_crystal_colour 'red'
_exptl_crystal_density_diffrn 1.204
_exptl_crystal_description 'plate'
_diffrn_ambient_temperature ?
_diffrn_special_details
;
The study was carried out at room temperature,in the range 283-303K

;
#These two values have been output from a single CSD field.
_refine_ls_R_factor_gt 0.082
_refine_ls_wR_factor_gt 0.082
_symmetry_cell_setting triclinic
_symmetry_space_group_name_H-M 'P -1'
_symmetry_Int_Tables_number 2
loop_
_symmetry_equiv_pos_site_id
_symmetry_equiv_pos_as_xyz
1 x,y,z
2 -x,-y,-z
_cell_length_a 10.7692(18)
_cell_length_b 11.4492(29)
_cell_length_c 14.3082(17)
_cell_angle_alpha 70.552(16)
_cell_angle_beta 78.929(12)
_cell_angle_gamma 64.781(17)
_cell_formula_units_Z 2
loop_
_atom_type_symbol
_atom_type_radius_bond
C 0.68
H 0.23
N 0.68
O 0.68
loop_
_atom_site_label
_atom_site_type_symbol
_atom_site_fract_x
_atom_site_fract_y
_atom_site_fract_z
O1 O -0.1147(6) 1.4436(6) 0.7075(4)
O2 O -0.1189(6) 1.2612(6) 0.8146(4)
N1 N -0.0926(7) 1.3239(8) 0.7319(5)
N2 N 0.6453(6) 0.5975(6) -0.0390(4)
C1 C 0.4650(7) 0.6617(7) 0.1954(5)
C2 C 0.5437(7) 0.5947(7) 0.1266(5)
C3 C 0.5678(7) 0.6638(8) 0.0290(5)
C4 C 0.5060(7) 0.8049(7) 0.0031(5)
C5 C 0.4316(7) 0.8725(7) 0.0726(5)
C6 C 0.4101(7) 0.8035(7) 0.1710(5)
C7 C 0.3407(7) 0.8740(6) 0.2426(5)
C8 C 0.2872(7) 0.9265(7) 0.3082(5)
C9 C 0.2266(7) 0.9874(7) 0.3825(5)
C10 C 0.1743(7) 1.0433(7) 0.4445(5)
C11 C 0.1074(7) 1.1121(7) 0.5183(6)
C12 C 0.0637(7) 1.2519(7) 0.4917(5)
C13 C -0.0011(7) 1.3195(7) 0.5629(6)
C14 C -0.0248(7) 1.2506(8) 0.6575(6)
C15 C 0.0135(7) 1.1147(7) 0.6853(5)
C16 C 0.0787(7) 1.0432(7) 0.6152(5)
C17 C 0.1175(7) 0.9006(8) 0.6422(5)
C18 C 0.1466(7) 0.7820(8) 0.6598(5)
C19 C 0.1772(8) 0.6490(8) 0.6819(5)
C20 C 0.2016(7) 0.5326(8) 0.6977(5)
C21 C 0.2373(7) 0.3909(7) 0.7177(5)
C22 C 0.2033(7) 0.3150(7) 0.8101(5)
C23 C 0.2379(7) 0.1793(7) 0.8292(5)
C24 C 0.3084(7) 0.1180(7) 0.7569(5)
C25 C 0.3417(7) 0.1896(7) 0.6661(5)
C26 C 0.3086(7) 0.3255(7) 0.6438(5)
C27 C 0.3409(7) 0.4005(6) 0.5473(5)
C28 C 0.3724(7) 0.4605(7) 0.4693(5)
C29 C 0.4060(6) 0.5296(7) 0.3764(5)
C30 C 0.4374(7) 0.5869(6) 0.2942(5)
C31 C 0.6755(7) 0.6675(7) -0.1411(5)
C32 C 0.5627(7) 0.7100(6) -0.2110(5)
C33 C 0.5904(8) 0.7910(7) -0.3142(5)
C34 C 0.4782(8) 0.8392(7) -0.3823(5)
C35 C 0.7089(7) 0.4513(7) -0.0141(5)
C36 C 0.8490(8) 0.3912(8) 0.0299(5)
C37 C 0.9135(9) 0.2410(9) 0.0562(6)
C38 C 1.056(1) 0.1919(9) 0.0955(6)
H1 H 0.58350 0.49910 0.14660
H2 H 0.51660 0.85420 -0.06390
H3 H 0.39280 0.96810 0.05360
H4 H 0.07990 1.29900 0.42520
H5 H -0.03050 1.41450 0.54640
H6 H -0.00340 1.06860 0.75200
H7 H 0.15360 0.35930 0.85930
H8 H 0.21480 0.12900 0.89250
H9 H 0.33240 0.02410 0.77070
H10 H 0.39120 0.14530 0.61680
H11 H 0.68670 0.74510 -0.14030
H12 H 0.75830 0.60950 -0.16670
H13 H 0.55400 0.63250 -0.21470
H14 H 0.47880 0.76510 -0.18420
H15 H 0.60200 0.86650 -0.30940
H16 H 0.67330 0.73450 -0.34080
H17 H 0.39510 0.89570 -0.35580
H18 H 0.50120 0.88820 -0.44620
H19 H 0.46660 0.76390 -0.38740
H20 H 0.65140 0.41730 0.03620
H21 H 0.71830 0.42100 -0.07030
H22 H 0.90700 0.42500 -0.02000
H23 H 0.84020 0.42030 0.08660
H24 H 0.85710 0.20650 0.10740
H25 H 0.92090 0.21130 0.00000
H26 H 1.09830 0.09640 0.11420
H27 H 1.11110 0.22760 0.04380
H28 H 1.04710 0.22320 0.15110
#END
