
#######################################################################
#
#                 Cambridge Crystallographic Data Centre
#                                CCDC
#
#######################################################################
#
# If this CIF has been generated from an entry in the Cambridge
# Structural Database, then it will include bibliographic, chemical,
# crystal, experimental, refinement or atomic coordinate data resulting
# from the CCDC's data processing and validation procedures.
#
#######################################################################

data_CSD_CIF_CEQXEB
_audit_creation_date 2000-02-03
_audit_creation_method CSD-ConQuest-V1
_database_code_CSD CEQXEB
_database_code_depnum_ccdc_archive 'CCDC 117019'
_chemical_formula_sum 'C9 H9 N5 O6'
_chemical_formula_moiety
;
C9 H9 N5 O6
;
_journal_coden_Cambridge 15
_journal_volume 77
_journal_year 1999
_journal_page_first 1295
_journal_name_full 'Can.J.Chem. '
loop_
_publ_author_name
"K.C.Brown"
"B.R.Nelson"
"J.W.Quail"
"B.E.Robertson"
"J.A.Weil"
"Z.Zimpel"
_chemical_name_systematic
;
2-Propanone (2,4,6-trinitrophenyl)hydrazone
;
_chemical_name_common
;
Acetone-picrylhydrazIne
;
_chemical_melting_point 402.65
_cell_volume    599.052
_exptl_crystal_colour 'yellow'
_exptl_crystal_density_diffrn 1.57
_exptl_special_details
;
Melting point range 402.65-403.65K

;
_exptl_crystal_description 'plate'
_diffrn_ambient_temperature ?
_diffrn_special_details
;
The study was carried out at room temperature,in the range 283-303K

;
#These two values have been output from a single CSD field.
_refine_ls_R_factor_gt 0.0676
_refine_ls_wR_factor_gt 0.0676
_symmetry_cell_setting triclinic
_symmetry_space_group_name_H-M 'P -1'
_symmetry_Int_Tables_number 2
loop_
_symmetry_equiv_pos_site_id
_symmetry_equiv_pos_as_xyz
1 x,y,z
2 -x,-y,-z
_cell_length_a 10.1768(9)
_cell_length_b 7.7968(18)
_cell_length_c 8.0018(5)
_cell_angle_alpha 92.102(6)
_cell_angle_beta 99.919(7)
_cell_angle_gamma 105.926(6)
_cell_formula_units_Z 2
loop_
_atom_type_symbol
_atom_type_radius_bond
C 0.68
H 0.23
N 0.68
O 0.68
loop_
_atom_site_label
_atom_site_type_symbol
_atom_site_fract_x
_atom_site_fract_y
_atom_site_fract_z
C1 C 0.00175(17) 0.2514(2) 0.0480(2)
C2 C -0.12150(18) 0.1566(2) 0.1057(2)
C3 C -0.23741(19) 0.0455(2) -0.0005(2)
H1 H -0.31600 -0.01160 0.04230
C4 C -0.23470(19) 0.0209(3) -0.1708(2)
C5 C -0.1201(2) 0.1099(3) -0.2382(2)
H2 H -0.11980 0.09250 -0.35380
C6 C -0.00748(18) 0.2238(2) -0.1312(2)
C7 C 0.3262(2) 0.5540(3) 0.2169(3)
C8 C 0.4563(3) 0.6570(4) 0.1625(4)
H3 H 0.44750 0.63290 0.04200
H4 H 0.53380 0.62160 0.22140
H5 H 0.47110 0.78270 0.18920
C9 C 0.3179(3) 0.5724(4) 0.4013(3)
H6 H 0.22920 0.49940 0.41830
H7 H 0.32820 0.69530 0.43590
H8 H 0.39080 0.53420 0.46810
N1 N 0.11284(16) 0.3552(2) 0.15621(19)
H9 H 0.11130 0.36150 0.26340
N2 N -0.13116(18) 0.1673(2) 0.2857(2)
N3 N -0.35330(19) -0.1045(3) -0.2819(2)
N4 N 0.10548(16) 0.3184(2) -0.21817(18)
N5 N 0.23003(17) 0.4528(2) 0.1000(2)
O1 O -0.02158(17) 0.2173(2) 0.39317(17)
O2 O -0.24507(17) 0.1233(2) 0.3233(2)
O3 O -0.45730(18) -0.1702(3) -0.2240(3)
O4 O -0.3402(2) -0.1424(3) -0.4273(2)
O5 O 0.18438(15) 0.2369(2) -0.2529(2)
O6 O 0.10600(18) 0.4666(2) -0.2597(2)
#END
