
#######################################################################
#
#                 Cambridge Crystallographic Data Centre
#                                CCDC
#
#######################################################################
#
# If this CIF has been generated from an entry in the Cambridge
# Structural Database, then it will include bibliographic, chemical,
# crystal, experimental, refinement or atomic coordinate data resulting
# from the CCDC's data processing and validation procedures.
#
#######################################################################

data_CSD_CIF_CERNUJ
_audit_creation_date 2006-11-30
_audit_creation_method CSD-ConQuest-V1
_database_code_CSD CERNUJ
_database_code_depnum_ccdc_archive 'CCDC 624212'
_chemical_formula_sum 'C20 H22 N2 O8'
_chemical_formula_moiety
;
C20 H22 N2 O8
;
_journal_coeditor_code "IUCr EZ2035"
_journal_coden_Cambridge 1370
_journal_volume 62
_journal_year 2006
_journal_page_first o4763
_journal_name_full 'Acta Crystallogr.,Sect.E:Struct.Rep.Online '
loop_
_publ_author_name
"Feng-Xia Sun"
"Ying Zhao"
"Cui Zhang"
"Yan-Hui Zhang"
_chemical_name_systematic
;
3-(2-Acetoxyethyl) 5-methyl 
2,6-dimethyl-4-(3-nitrophenyl)-1,4-dihydropyridine-3,5-dicarboxylate
;
_chemical_melting_point 395
_cell_volume   1002.828
_exptl_crystal_colour 'yellow'
_exptl_crystal_density_diffrn 1.386
_exptl_special_details
;
Melting point range 395-397K
analogue of nefidipine which is used in cardiovascular treatment
;
_exptl_crystal_description 'block'
_exptl_crystal_preparation 'ethyl acetate/petroleum'
_diffrn_ambient_temperature 113
#These two values have been output from a single CSD field.
_refine_ls_R_factor_gt 0.038
_refine_ls_wR_factor_gt 0.038
_symmetry_cell_setting triclinic
_symmetry_space_group_name_H-M 'P -1'
_symmetry_Int_Tables_number 2
loop_
_symmetry_equiv_pos_site_id
_symmetry_equiv_pos_as_xyz
1 x,y,z
2 -x,-y,-z
_cell_length_a 9.0389(12)
_cell_length_b 10.6990(14)
_cell_length_c 11.0049(16)
_cell_angle_alpha 93.452(6)
_cell_angle_beta 90.871(5)
_cell_angle_gamma 109.153(6)
_cell_formula_units_Z 2
loop_
_atom_type_symbol
_atom_type_radius_bond
C 0.68
H 0.23
N 0.68
O 0.68
loop_
_atom_site_label
_atom_site_type_symbol
_atom_site_fract_x
_atom_site_fract_y
_atom_site_fract_z
N1 N 0.61445(13) 0.35044(11) 0.51127(10)
N2 N 0.87217(13) 0.05081(11) 0.20759(10)
O1 O 0.89988(10) 0.65892(9) 0.23939(8)
O2 O 0.96634(10) 0.70536(9) 0.43856(8)
O3 O 0.23864(11) 0.21212(10) 0.24227(9)
O4 O 0.41697(10) 0.31821(9) 0.11045(8)
O5 O 0.44754(10) 0.15281(9) -0.09725(8)
O6 O 0.59419(12) 0.22874(10) -0.25596(9)
O7 O 0.81843(13) 0.01321(10) 0.30607(9)
O8 O 0.94119(11) -0.00877(10) 0.14291(9)
C1 C 0.74001(14) 0.46311(12) 0.49198(11)
C2 C 0.76028(14) 0.50605(12) 0.37798(11)
C3 C 0.65861(14) 0.42511(12) 0.26960(11)
H1 H 0.63370 0.48880 0.21650
C4 C 0.50394(14) 0.33286(12) 0.31271(11)
C5 C 0.49087(15) 0.29385(13) 0.42789(12)
C6 C 0.83640(15) 0.52361(13) 0.60628(11)
H2 H 0.94790 0.54480 0.58980
H3 H 0.80860 0.46050 0.66990
H4 H 0.81560 0.60490 0.63360
C7 C 0.88031(14) 0.62832(13) 0.34424(11)
C8 C 1.08140(16) 0.82885(14) 0.40680(13)
H5 H 1.16000 0.80930 0.35570
H6 H 1.13280 0.88070 0.48130
H7 H 1.02890 0.87980 0.36200
C9 C 0.74544(14) 0.34905(12) 0.19278(11)
C10 C 0.77475(14) 0.23966(12) 0.23651(11)
H8 H 0.74470 0.21300 0.31580
C11 C 0.84864(14) 0.16992(12) 0.16250(11)
C12 C 0.89591(14) 0.20521(13) 0.04708(11)
H9 H 0.94490 0.15510 -0.00190
C13 C 0.86977(15) 0.31590(14) 0.00468(12)
H10 H 0.90330 0.34390 -0.07360
C14 C 0.79441(15) 0.38603(14) 0.07686(12)
H11 H 0.77590 0.46100 0.04630
C15 C 0.37173(15) 0.28022(13) 0.22326(12)
C16 C 0.29993(15) 0.26598(14) 0.01237(12)
H12 H 0.23460 0.32370 0.00520
H13 H 0.23080 0.17580 0.02830
C17 C 0.38565(16) 0.26196(14) -0.10241(12)
H14 H 0.31350 0.24760 -0.17440
H15 H 0.47210 0.34670 -0.10840
C18 C 0.55038(15) 0.14620(14) -0.18151(12)
C19 C 0.59973(17) 0.02693(14) -0.17365(13)
H16 H 0.54000 -0.04240 -0.23480
H17 H 0.57980 -0.00590 -0.09220
H18 H 0.71180 0.05060 -0.18880
C20 C 0.35394(16) 0.19163(14) 0.47971(13)
H19 H 0.26780 0.22750 0.49040
H20 H 0.38550 0.16900 0.55880
H21 H 0.31930 0.11190 0.42380
H22 H 0.6038(18) 0.3192(16) 0.5852(15)
#END
