
#######################################################################
#
#                 Cambridge Crystallographic Data Centre
#                                CCDC
#
#######################################################################
#
# If this CIF has been generated from an entry in the Cambridge
# Structural Database, then it will include bibliographic, chemical,
# crystal, experimental, refinement or atomic coordinate data resulting
# from the CCDC's data processing and validation procedures.
#
#######################################################################

data_CSD_CIF_CERWUU
_audit_creation_date 2018-02-14
_audit_creation_method CSD-ConQuest-V1
_database_code_CSD CERWUU
_database_code_depnum_ccdc_archive 'CCDC 1535084'
_chemical_formula_sum 'C19 H19 N1 O5'
_chemical_formula_moiety
;
C19 H19 N1 O5
;
_journal_coden_Cambridge 493
_journal_volume 146
_journal_year 2018
_journal_page_first 511
_journal_name_full 'Eur.J.Med.Chem. '
loop_
_publ_author_name
"N.B.Chernysheva"
"A.S.Maksimenko"
"F.A.Andreyanov"
"V.P.Kislyi"
"Y.A.Strelenko"
"V.N.Khrustalev"
"M.N.Semenova"
"V.V.Semenov"
_chemical_name_systematic
;
3-(4-methoxyphenyl)-4-(3,4,5-trimethoxyphenyl)-1,2-oxazole
;
_cell_volume   1648.425
_exptl_crystal_colour 'colorless'
_exptl_crystal_density_diffrn 1.375
_exptl_special_details
;
strong cytotoxicity in NCI60 screen for NCI-H522 human lung cancer cell line

;
_exptl_crystal_description 'plate'
_diffrn_ambient_temperature 120
#These two values have been output from a single CSD field.
_refine_ls_R_factor_gt 0.0654
_refine_ls_wR_factor_gt 0.0654
_symmetry_cell_setting monoclinic
_symmetry_space_group_name_H-M 'P 21/n'
_symmetry_Int_Tables_number 14
loop_
_symmetry_equiv_pos_site_id
_symmetry_equiv_pos_as_xyz
1 x,y,z
2 1/2-x,1/2+y,1/2-z
3 -x,-y,-z
4 -1/2+x,-1/2-y,-1/2+z
_cell_length_a 13.1877(11)
_cell_length_b 7.1417(6)
_cell_length_c 17.5042(15)
_cell_angle_alpha 90
_cell_angle_beta 90.813(2)
_cell_angle_gamma 90
_cell_formula_units_Z 4
loop_
_atom_type_symbol
_atom_type_radius_bond
C 0.68
H 0.23
N 0.68
O 0.68
loop_
_atom_site_label
_atom_site_type_symbol
_atom_site_fract_x
_atom_site_fract_y
_atom_site_fract_z
O1 O 0.51702(10) 0.25917(18) 0.40985(8)
O2 O 0.68849(10) 0.21451(18) 0.82981(8)
O3 O 0.15552(9) 0.51468(17) 0.67483(8)
O4 O 0.02705(9) 0.23649(18) 0.64470(8)
O5 O 0.08531(9) -0.06647(18) 0.56308(8)
N1 N 0.57749(12) 0.2638(2) 0.47666(10)
C1 C 0.51455(13) 0.2496(2) 0.53410(11)
C2 C 0.41133(13) 0.2339(2) 0.50736(11)
C3 C 0.41943(15) 0.2405(3) 0.43062(12)
H1 H 0.36370 0.23300 0.39580
C4 C 0.55679(13) 0.2424(2) 0.61244(11)
C5 C 0.65305(14) 0.3177(3) 0.62897(12)
H2 H 0.68970 0.37800 0.58970
C6 C 0.69507(14) 0.3054(3) 0.70134(12)
H3 H 0.76020 0.35700 0.71160
C7 C 0.64194(14) 0.2172(2) 0.75942(12)
C8 C 0.54710(13) 0.1394(2) 0.74400(12)
H4 H 0.51110 0.07730 0.78320
C9 C 0.50559(13) 0.1531(2) 0.67105(11)
H5 H 0.44070 0.10040 0.66080
C10 C 0.63033(15) 0.1416(3) 0.89148(12)
H6 H 0.67040 0.14840 0.93900
H7 H 0.61240 0.01090 0.88090
H8 H 0.56830 0.21570 0.89690
C11 C 0.31476(13) 0.2258(2) 0.54971(11)
C12 C 0.28669(13) 0.3748(2) 0.59653(11)
H9 H 0.33220 0.47580 0.60560
C13 C 0.19164(13) 0.3740(2) 0.62981(10)
C14 C 0.12400(13) 0.2253(2) 0.61695(10)
C15 C 0.15445(13) 0.0752(2) 0.57175(11)
C16 C 0.24933(13) 0.0753(2) 0.53785(11)
H10 H 0.26930 -0.02690 0.50680
C17 C 0.22383(15) 0.6621(3) 0.69555(12)
H11 H 0.18900 0.75220 0.72830
H12 H 0.24700 0.72550 0.64930
H13 H 0.28230 0.60970 0.72330
C18 C 0.00964(16) 0.1366(3) 0.71335(14)
H14 H -0.06310 0.13570 0.72390
H15 H 0.04620 0.19750 0.75570
H16 H 0.03380 0.00760 0.70790
C19 C 0.10867(15) -0.2080(3) 0.50793(12)
H17 H 0.05170 -0.29550 0.50330
H18 H 0.16970 -0.27600 0.52450
H19 H 0.12060 -0.14910 0.45830
#END
