
#######################################################################
#
#                 Cambridge Crystallographic Data Centre
#                                CCDC
#
#######################################################################
#
# If this CIF has been generated from an entry in the Cambridge
# Structural Database, then it will include bibliographic, chemical,
# crystal, experimental, refinement or atomic coordinate data resulting
# from the CCDC's data processing and validation procedures.
#
#######################################################################

data_CSD_CIF_CESCAH
_audit_creation_date 2018-02-14
_audit_creation_method CSD-ConQuest-V1
_database_code_CSD CESCAH
_database_code_depnum_ccdc_archive 'CCDC 1821856'
_chemical_formula_sum 'C15 H11 N1 O1'
_chemical_formula_moiety
;
C15 H11 N1 O1
;
_journal_coeditor_code "zs2397"
_journal_coden_Cambridge 1828
_journal_volume 74
_journal_year 2018
_journal_page_first 332
_journal_name_full 'Acta Crystallogr.,Sect.E:Cryst.Commun. '
loop_
_publ_author_name
"J.Lasri"
"K.Chulvi"
"N.E.Eltayeb"
_chemical_name_systematic
;
(E)-phenanthrene-9-carboxaldehyde oxime
;
_chemical_name_common
;
N-hydroxy-1-(phenanthren-9-yl)methanimine
;
_cell_volume    546.882
_exptl_crystal_colour 'colorless'
_exptl_crystal_density_diffrn 1.344
_exptl_crystal_description 'block'
_diffrn_ambient_temperature 295
#These two values have been output from a single CSD field.
_refine_ls_R_factor_gt 0.04
_refine_ls_wR_factor_gt 0.04
_symmetry_cell_setting monoclinic
_symmetry_space_group_name_H-M 'P 21'
_symmetry_Int_Tables_number 4
loop_
_symmetry_equiv_pos_site_id
_symmetry_equiv_pos_as_xyz
1 x,y,z
2 -x,1/2+y,-z
_cell_length_a 8.2397(8)
_cell_length_b 4.9728(5)
_cell_length_c 13.9332(14)
_cell_angle_alpha 90
_cell_angle_beta 106.680(7)
_cell_angle_gamma 90
_cell_formula_units_Z 2
loop_
_atom_type_symbol
_atom_type_radius_bond
C 0.68
H 0.23
N 0.68
O 0.68
loop_
_atom_site_label
_atom_site_type_symbol
_atom_site_fract_x
_atom_site_fract_y
_atom_site_fract_z
O1 O 0.3294(3) 1.0407(5) 0.49418(15)
N1 N 0.4084(3) 0.8293(5) 0.55737(16)
C1 C 0.3086(4) 0.7264(5) 0.6016(2)
H1 H 0.19702 0.78564 0.58561
C2 C 0.3660(3) 0.5157(6) 0.67732(18)
C3 C 0.5314(4) 0.5027(7) 0.7316(2)
H2 H 0.60740 0.62251 0.71673
C4 C 0.5935(3) 0.3140(6) 0.81023(19)
C5 C 0.7655(4) 0.3096(7) 0.8651(2)
H3 H 0.84081 0.42768 0.84858
C6 C 0.8232(4) 0.1335(8) 0.9426(2)
H4 H 0.93734 0.13172 0.97862
C7 C 0.7116(4) -0.0423(7) 0.9676(2)
H5 H 0.75158 -0.16222 1.02029
C8 C 0.5438(4) -0.0424(6) 0.9159(2)
H6 H 0.47094 -0.16223 0.93389
C9 C 0.4792(4) 0.1366(6) 0.83561(19)
C10 C 0.3013(4) 0.1442(6) 0.77844(19)
C11 C 0.1811(4) -0.0332(6) 0.7975(2)
H7 H 0.21581 -0.15642 0.84963
C12 C 0.0153(4) -0.0300(7) 0.7419(3)
H8 H -0.06125 -0.14990 0.75612
C13 C -0.0389(4) 0.1524(7) 0.6641(2)
H9 H -0.15190 0.15429 0.62606
C14 C 0.0728(4) 0.3292(7) 0.6429(2)
H10 H 0.03452 0.45106 0.59067
C15 C 0.2453(3) 0.3306(6) 0.69893(19)
H11 H 0.413(4) 1.109(7) 0.475(2)
#END
