
#######################################################################
#
#                 Cambridge Crystallographic Data Centre
#                                CCDC
#
#######################################################################
#
# If this CIF has been generated from an entry in the Cambridge
# Structural Database, then it will include bibliographic, chemical,
# crystal, experimental, refinement or atomic coordinate data resulting
# from the CCDC's data processing and validation procedures.
#
#######################################################################

data_CSD_CIF_CESYAD
_audit_creation_date 2018-02-14
_audit_creation_method CSD-ConQuest-V1
_database_code_CSD CESYAD
_database_code_depnum_ccdc_archive 'CCDC 1558911'
_chemical_formula_sum 'C18 H19 N1 O5'
_chemical_formula_moiety
;
C18 H19 N1 O5
;
_journal_coden_Cambridge 692
_journal_volume 49
_journal_year 2017
_journal_page_first 4942
_journal_name_full 'Synthesis '
loop_
_publ_author_name
"O.Zaborsky"
"R.Stadaniova"
"J.Dohanosova"
"Jan Moncol"
"R.Fischer"
_chemical_name_systematic
;
benzyl 4-hydroxy-5-methoxy-3-phenyl-1,2-oxazolidine-2-carboxylate
;
_cell_volume    797.029
_exptl_crystal_colour 'colorless'
_exptl_crystal_density_diffrn 1.372
_exptl_special_details
;
Absolute configuration

;
_exptl_crystal_description 'needle'
_diffrn_ambient_temperature 100
_refine_special_details
;
absolute configuration

;
#These two values have been output from a single CSD field.
_refine_ls_R_factor_gt 0.0241
_refine_ls_wR_factor_gt 0.0241
_symmetry_cell_setting monoclinic
_symmetry_space_group_name_H-M 'P 21'
_symmetry_Int_Tables_number 4
loop_
_symmetry_equiv_pos_site_id
_symmetry_equiv_pos_as_xyz
1 x,y,z
2 -x,1/2+y,-z
_cell_length_a 10.2976(4)
_cell_length_b 7.7226(2)
_cell_length_c 11.0934(4)
_cell_angle_alpha 90
_cell_angle_beta 115.383(3)
_cell_angle_gamma 90
_cell_formula_units_Z 2
loop_
_atom_type_symbol
_atom_type_radius_bond
C 0.68
H 0.23
N 0.68
O 0.68
loop_
_atom_site_label
_atom_site_type_symbol
_atom_site_fract_x
_atom_site_fract_y
_atom_site_fract_z
O1 O -1.01492(13) -0.45937(17) -0.78124(13)
O2 O -0.91370(14) -0.32118(18) -0.57299(13)
O3 O -1.00712(15) -0.10412(18) -0.88151(14)
H1 H -0.98768 0.00198 -0.87727
O4 O -0.74515(12) -0.64440(15) -0.84882(12)
O5 O -0.93194(14) -0.77008(16) -0.82361(14)
N1 N -0.87809(16) -0.4855(2) -0.78137(17)
C1 C -0.81595(19) -0.3198(2) -0.79598(17)
H2 H -0.83188 -0.30521 -0.89089
C2 C -0.91037(19) -0.1869(2) -0.76368(19)
H3 H -0.84971 -0.10082 -0.69547
C3 C -0.99473(19) -0.3008(3) -0.70995(19)
H4 H -1.08965 -0.24656 -0.72859
C4 C -0.9729(2) -0.4448(3) -0.5147(2)
H5 H -0.97572 -0.55885 -0.55442
H6 H -1.07063 -0.40973 -0.53137
H7 H -0.91303 -0.45052 -0.41831
C5 C -0.65627(18) -0.3092(2) -0.70570(17)
C6 C -0.5987(2) -0.3713(2) -0.57528(18)
H8 H -0.65985 -0.42205 -0.54085
C7 C -0.4520(2) -0.3591(3) -0.49551(19)
H9 H -0.41297 -0.40434 -0.40738
C8 C -0.3623(2) -0.2817(3) -0.5433(2)
H10 H -0.26219 -0.27248 -0.48798
C9 C -0.4192(2) -0.2176(3) -0.6722(2)
H11 H -0.35807 -0.16312 -0.70513
C10 C -0.56587(19) -0.2328(2) -0.75398(19)
H12 H -0.60414 -0.19074 -0.84301
C11 C -0.85930(18) -0.6445(2) -0.82098(17)
C12 C -0.70906(19) -0.8079(2) -0.88946(17)
H13 H -0.77312 -0.83042 -0.98447
H14 H -0.72119 -0.90298 -0.83531
C13 C -0.55534(18) -0.7991(2) -0.86957(17)
C14 C -0.45396(19) -0.7014(2) -0.76681(18)
H15 H -0.48227 -0.63594 -0.70958
C15 C -0.3122(2) -0.6995(3) -0.74779(19)
H16 H -0.24384 -0.63121 -0.67830
C16 C -0.2690(2) -0.7967(3) -0.82967(19)
H17 H -0.17150 -0.79517 -0.81618
C17 C -0.3689(2) -0.8957(3) -0.93086(19)
H18 H -0.33967 -0.96390 -0.98614
C18 C -0.5121(2) -0.8955(2) -0.95183(18)
H19 H -0.58081 -0.96164 -1.02274
#END
