
#######################################################################
#
#                 Cambridge Crystallographic Data Centre
#                                CCDC
#
#######################################################################
#
# If this CIF has been generated from an entry in the Cambridge
# Structural Database, then it will include bibliographic, chemical,
# crystal, experimental, refinement or atomic coordinate data resulting
# from the CCDC's data processing and validation procedures.
#
#######################################################################

data_CSD_CIF_CESYEH
_audit_creation_date 2018-02-14
_audit_creation_method CSD-ConQuest-V1
_database_code_CSD CESYEH
_database_code_depnum_ccdc_archive 'CCDC 1558912'
_chemical_formula_sum 'C17 H15 N1 O4'
_chemical_formula_moiety
;
C17 H15 N1 O4
;
_journal_coden_Cambridge 692
_journal_volume 49
_journal_year 2017
_journal_page_first 4942
_journal_name_full 'Synthesis '
loop_
_publ_author_name
"O.Zaborsky"
"R.Stadaniova"
"J.Dohanosova"
"Jan Moncol"
"R.Fischer"
_chemical_name_systematic
;
benzyl 4-phenyl-2,6-dioxa-3-azabicyclo[3.1.0]hexane-3-carboxylate
;
_cell_volume   1417.215
_exptl_crystal_colour 'colorless'
_exptl_crystal_density_diffrn 1.393
_exptl_special_details
;
Absolute configuration

;
_exptl_crystal_description 'needle'
_diffrn_ambient_temperature 100
_refine_special_details
;
absolute configuration

;
#These two values have been output from a single CSD field.
_refine_ls_R_factor_gt 0.024
_refine_ls_wR_factor_gt 0.024
_symmetry_cell_setting orthorhombic
_symmetry_space_group_name_H-M 'P 21 21 21'
_symmetry_Int_Tables_number 19
loop_
_symmetry_equiv_pos_site_id
_symmetry_equiv_pos_as_xyz
1 x,y,z
2 1/2-x,-y,1/2+z
3 -x,1/2+y,1/2-z
4 1/2+x,1/2-y,-z
_cell_length_a 5.7458(1)
_cell_length_b 15.1497(4)
_cell_length_c 16.2810(3)
_cell_angle_alpha 90
_cell_angle_beta 90
_cell_angle_gamma 90
_cell_formula_units_Z 4
loop_
_atom_type_symbol
_atom_type_radius_bond
C 0.68
H 0.23
N 0.68
O 0.68
loop_
_atom_site_label
_atom_site_type_symbol
_atom_site_fract_x
_atom_site_fract_y
_atom_site_fract_z
O1 O 0.35883(18) 0.37805(7) 0.69455(7)
O2 O 0.65443(19) 0.47150(7) 0.64179(7)
O3 O 0.4981(2) 0.31317(7) 0.49546(6)
O4 O 0.18828(17) 0.38328(7) 0.55255(7)
N1 N 0.4539(2) 0.31785(8) 0.63471(7)
C1 C 0.7072(2) 0.30979(10) 0.65074(9)
H1 H 0.79441 0.30096 0.59823
C2 C 0.7633(3) 0.3990(1) 0.68764(10)
H2 H 0.90709 0.40853 0.72108
C3 C 0.5423(3) 0.4360(1) 0.71202(10)
H3 H 0.53470 0.47244 0.76317
C4 C 0.3898(3) 0.33941(9) 0.55413(9)
C5 C 0.0940(3) 0.40379(10) 0.47138(10)
H4 H -0.07701 0.39577 0.47170
H5 H 0.16084 0.36304 0.43012
C6 C 0.1520(3) 0.49748(10) 0.44885(9)
C7 C -0.0047(3) 0.56500(11) 0.46552(10)
H6 H -0.15047 0.55160 0.49006
C8 C 0.0501(4) 0.65181(12) 0.44662(12)
H7 H -0.05862 0.69750 0.45777
C9 C 0.2629(4) 0.67196(12) 0.41154(11)
H8 H 0.30102 0.73154 0.39931
C10 C 0.4200(3) 0.60541(13) 0.39430(11)
H9 H 0.56576 0.61919 0.36989
C11 C 0.3648(3) 0.51840(11) 0.41269(11)
H10 H 0.47285 0.47278 0.40053
C12 C 0.7641(3) 0.23699(10) 0.71146(9)
C13 C 0.9790(3) 0.19516(10) 0.7069(1)
H11 H 1.08727 0.21176 0.66561
C14 C 1.0356(3) 0.12910(11) 0.76261(10)
H12 H 1.18248 0.10053 0.75906
C15 C 0.8794(3) 0.10462(10) 0.82332(10)
H13 H 0.91832 0.05907 0.86100
C16 C 0.6663(3) 0.14691(11) 0.82875(10)
H14 H 0.55929 0.13080 0.87064
C17 C 0.6085(3) 0.21297(10) 0.77293(10)
H15 H 0.46204 0.24178 0.77685
#END
