
#######################################################################
#
#                 Cambridge Crystallographic Data Centre
#                                CCDC
#
#######################################################################
#
# If this CIF has been generated from an entry in the Cambridge
# Structural Database, then it will include bibliographic, chemical,
# crystal, experimental, refinement or atomic coordinate data resulting
# from the CCDC's data processing and validation procedures.
#
#######################################################################

data_CSD_CIF_CETHEP
_audit_creation_date 2007-03-22
_audit_creation_method CSD-ConQuest-V1
_database_code_CSD CETHEP
_database_code_depnum_ccdc_archive 'CCDC 247063'
_chemical_formula_sum 'C21 H23 N1 O10'
_chemical_formula_moiety
;
C21 H23 N1 O10
;
_journal_coden_Cambridge 504
_journal_volume 60
_journal_year 2005
_journal_page_first 494
_journal_name_full 'Pharmazie '
loop_
_publ_author_name
"K.Gorlitzer"
"J.Trittmacher"
"P.G.Jones"
_chemical_name_systematic
;
(1RS,2SR,6SR)-Dimethyl 
4,6-bis(acetoxy)-6-methyl-2-(3-nitrophenyl)cyclohex-3-ene-1,3-dicarboxylate
;
_cell_volume   2126.024
_exptl_crystal_colour 'colorless'
_exptl_crystal_density_diffrn 1.404
_exptl_crystal_description 'rectangular tablet'
_exptl_crystal_preparation 'dichloromethane/petroleum ether'
_diffrn_ambient_temperature 133
#These two values have been output from a single CSD field.
_refine_ls_R_factor_gt 0.0393
_refine_ls_wR_factor_gt 0.0393
_symmetry_cell_setting monoclinic
_symmetry_space_group_name_H-M 'P 21/c'
_symmetry_Int_Tables_number 14
loop_
_symmetry_equiv_pos_site_id
_symmetry_equiv_pos_as_xyz
1 x,y,z
2 -x,1/2+y,1/2-z
3 -x,-y,-z
4 x,-1/2-y,-1/2+z
_cell_length_a 10.3172(8)
_cell_length_b 18.4554(12)
_cell_length_c 11.9600(8)
_cell_angle_alpha 90
_cell_angle_beta 111.000(3)
_cell_angle_gamma 90
_cell_formula_units_Z 4
loop_
_atom_type_symbol
_atom_type_radius_bond
C 0.68
H 0.23
N 0.68
O 0.68
loop_
_atom_site_label
_atom_site_type_symbol
_atom_site_fract_x
_atom_site_fract_y
_atom_site_fract_z
C1 C 0.33672(11) 0.29336(5) 0.37551(10)
H1 H 0.40130 0.28780 0.33060
C2 C 0.38388(10) 0.24061(5) 0.48258(10)
H2 H 0.31090 0.24100 0.51950
C3 C 0.51887(11) 0.26524(6) 0.57799(10)
C4 C 0.56053(11) 0.33402(6) 0.58285(10)
C5 C 0.49172(11) 0.39128(6) 0.49334(11)
H3 H 0.54590 0.39880 0.44070
H4 H 0.49280 0.43730 0.53610
C6 C 0.34214(11) 0.37316(6) 0.41596(10)
C7 C 0.19141(11) 0.27383(5) 0.29136(10)
O1 O 0.10059(8) 0.25011(5) 0.32241(8)
O2 O 0.17581(8) 0.28771(4) 0.17746(7)
C8 C 0.03578(13) 0.28087(7) 0.09045(12)
H5 H -0.00600 0.23590 0.10530
H6 H 0.03890 0.27980 0.00950
H7 H -0.02000 0.32230 0.09780
C9 C 0.58776(11) 0.21193(6) 0.67497(10)
O3 O 0.52385(9) 0.16761(5) 0.70908(8)
O4 O 0.72557(8) 0.21817(5) 0.71891(8)
C10 C 0.79720(13) 0.17373(8) 0.82283(12)
H8 H 0.77280 0.19000 0.89070
H9 H 0.89770 0.17820 0.84310
H10 H 0.76950 0.12300 0.80490
O5 O 0.66886(8) 0.36013(4) 0.68379(7)
C11 C 0.79633(11) 0.36735(6) 0.67413(11)
O6 O 0.81631(9) 0.35230(5) 0.58482(8)
C12 C 0.90064(12) 0.39560(7) 0.78780(12)
H11 H 0.98300 0.36440 0.81240
H12 H 0.86030 0.39590 0.85050
H13 H 0.92710 0.44500 0.77500
O7 O 0.25275(8) 0.37343(4) 0.48779(7)
C13 C 0.22815(12) 0.43505(6) 0.53803(11)
O8 O 0.2812(1) 0.49263(5) 0.53469(10)
C14 C 0.12632(14) 0.42115(7) 0.59836(13)
H14 H 0.11130 0.46590 0.63620
H15 H 0.16280 0.38360 0.65950
H16 H 0.03810 0.40490 0.53890
C15 C 0.28814(12) 0.42546(6) 0.31058(11)
H17 H 0.18750 0.41960 0.27170
H18 H 0.33320 0.41500 0.25280
H19 H 0.30910 0.47530 0.33950
C16 C 0.39226(10) 0.16372(5) 0.43929(10)
C17 C 0.30720(11) 0.11044(6) 0.4587(1)
H20 H 0.24630 0.12150 0.50000
C18 C 0.31273(12) 0.04091(6) 0.41679(11)
C19 C 0.39938(13) 0.02145(6) 0.35652(11)
H21 H 0.40020 -0.02660 0.32830
C20 C 0.48496(13) 0.07448(6) 0.33876(11)
H22 H 0.54640 0.06280 0.29830
C21 C 0.48148(12) 0.14496(6) 0.37991(11)
H23 H 0.54100 0.18070 0.36720
N1 N 0.22215(12) -0.01445(6) 0.43970(11)
O9 O 0.15973(13) 0.00074(6) 0.50497(12)
O10 O 0.21589(17) -0.07345(6) 0.39332(15)
#END
