
#######################################################################
#
#                 Cambridge Crystallographic Data Centre
#                                CCDC
#
#######################################################################
#
# If this CIF has been generated from an entry in the Cambridge
# Structural Database, then it will include bibliographic, chemical,
# crystal, experimental, refinement or atomic coordinate data resulting
# from the CCDC's data processing and validation procedures.
#
#######################################################################

data_CSD_CIF_CETQOI
_audit_creation_date 2007-03-22
_audit_creation_method CSD-ConQuest-V1
_database_code_CSD CETQOI
_database_code_depnum_ccdc_archive 'CCDC 618771'
_chemical_formula_sum 'C7 H9 N1 O3'
_chemical_formula_moiety
;
C7 H9 N1 O3
;
_journal_coden_Cambridge 182
_journal_year 2006
_journal_page_first 4838
_journal_name_full 'Chem.Commun. '
loop_
_publ_author_name
"H.M.Hansen"
"D.A.Longbottom"
"S.V.Ley"
_chemical_name_systematic
;
7-nitrobicyclo[4.1.0]heptan-2-one
;
_cell_volume    730.516
_exptl_crystal_colour 'colorless'
_exptl_crystal_density_diffrn 1.411
_exptl_crystal_description 'block'
_diffrn_ambient_temperature 120
#These two values have been output from a single CSD field.
_refine_ls_R_factor_gt 0.0437
_refine_ls_wR_factor_gt 0.0437
_symmetry_cell_setting orthorhombic
_symmetry_space_group_name_H-M 'P 21 21 21'
_symmetry_Int_Tables_number 19
loop_
_symmetry_equiv_pos_site_id
_symmetry_equiv_pos_as_xyz
1 x,y,z
2 1/2-x,-y,1/2+z
3 1/2+x,1/2-y,-z
4 -x,1/2+y,1/2-z
_cell_length_a 5.4987(3)
_cell_length_b 9.8391(5)
_cell_length_c 13.5025(6)
_cell_angle_alpha 90
_cell_angle_beta 90
_cell_angle_gamma 90
_cell_formula_units_Z 4
loop_
_atom_type_symbol
_atom_type_radius_bond
C 0.68
H 0.23
N 0.68
O 0.68
loop_
_atom_site_label
_atom_site_type_symbol
_atom_site_fract_x
_atom_site_fract_y
_atom_site_fract_z
O1 O -0.1114(3) -0.19185(17) 0.46677(12)
O2 O 0.3200(3) 0.21187(18) 0.56594(12)
O3 O 0.6258(4) 0.08914(18) 0.61385(12)
N1 N 0.4527(4) 0.1122(2) 0.55856(15)
C1 C 0.0567(5) -0.1415(2) 0.42073(17)
C2 C 0.1446(4) -0.0033(2) 0.44748(16)
H1 H 0.02470 0.05610 0.48250
C3 C 0.3246(5) 0.0693(2) 0.38143(16)
H2 H 0.30800 0.17040 0.37740
C4 C 0.4119(5) -0.0019(3) 0.28832(16)
H3 H 0.57920 0.02880 0.27310
H4 H 0.30610 0.02480 0.23220
C5 C 0.4107(5) -0.1563(2) 0.29783(17)
H5 H 0.53540 -0.18430 0.34660
H6 H 0.45380 -0.19720 0.23320
C6 C 0.1626(5) -0.2100(3) 0.33068(17)
H7 H 0.04690 -0.19960 0.27500
H8 H 0.17800 -0.30850 0.34460
C7 C 0.4079(5) 0.0130(3) 0.47903(15)
H9 H 0.51300 -0.06990 0.47750
#END
