
#######################################################################
#
#                 Cambridge Crystallographic Data Centre
#                                CCDC
#
#######################################################################
#
# If this CIF has been generated from an entry in the Cambridge
# Structural Database, then it will include bibliographic, chemical,
# crystal, experimental, refinement or atomic coordinate data resulting
# from the CCDC's data processing and validation procedures.
#
#######################################################################

data_CSD_CIF_CETRUQ01
_audit_creation_date 2013-04-30
_audit_creation_method CSD-ConQuest-V1
_database_code_CSD CETRUQ01
_database_code_depnum_ccdc_archive 'CCDC 923570'
_chemical_formula_sum 'C21 H19 N2 O4'
_chemical_formula_moiety
;
C21 H19 N2 O4
;
_journal_coden_Cambridge 182
_journal_volume 49
_journal_year 2013
_journal_page_first 3345
_journal_name_full 'Chem.Commun. '
loop_
_publ_author_name
"H.Akpinar"
"J.A.Schlueter"
"P.M.Lahti"
_chemical_name_systematic
;
2-(9,10-Anthraquinon-2-yl)-4,4,5,5-tetramethyl-4,5-dihydro-1H-imidazole-3-oxid
e-1-oxyl radical
;
_chemical_melting_point 481
_cell_volume   3377.159
_exptl_crystal_colour 'black'
_exptl_crystal_density_diffrn 1.429
_exptl_special_details
;
beta polymorph

;
_exptl_crystal_description 'needle'
_diffrn_ambient_temperature 10
#These two values have been output from a single CSD field.
_refine_ls_R_factor_gt 0.0483
_refine_ls_wR_factor_gt 0.0483
_symmetry_cell_setting orthorhombic
_symmetry_space_group_name_H-M 'P b c a'
_symmetry_Int_Tables_number 61
loop_
_symmetry_equiv_pos_site_id
_symmetry_equiv_pos_as_xyz
1 x,y,z
2 1/2-x,-y,1/2+z
3 -x,1/2+y,1/2-z
4 1/2+x,1/2-y,-z
5 -x,-y,-z
6 -1/2+x,y,-1/2-z
7 x,-1/2-y,-1/2+z
8 -1/2-x,-1/2+y,z
_cell_length_a 7.1778(4)
_cell_length_b 21.2070(12)
_cell_length_c 22.1861(12)
_cell_angle_alpha 90
_cell_angle_beta 90
_cell_angle_gamma 90
_cell_formula_units_Z 8
loop_
_atom_type_symbol
_atom_type_radius_bond
C 0.68
H 0.23
N 0.68
O 0.68
loop_
_atom_site_label
_atom_site_type_symbol
_atom_site_fract_x
_atom_site_fract_y
_atom_site_fract_z
C1 C 0.3553(2) 0.13628(9) 0.23115(8)
O1 O 0.23338(19) 0.26645(6) 0.25345(6)
N1 N 0.3110(2) 0.24939(7) 0.20418(7)
O2 O 0.50532(18) 0.14117(6) 0.10715(6)
N2 N 0.4375(2) 0.18947(7) 0.13429(6)
C2 C 0.3777(2) 0.14415(8) 0.29336(8)
H1 H 0.41480 0.18380 0.30920
C3 C 0.3453(2) 0.09340(9) 0.33187(8)
O3 O 0.45602(18) 0.14885(6) 0.41776(6)
C4 C 0.3751(2) 0.10239(8) 0.39821(8)
C5 C 0.3105(2) 0.05080(9) 0.43883(8)
C6 C 0.3202(2) 0.05949(9) 0.50133(8)
H2 H 0.36540 0.09820 0.51730
C7 C 0.2639(3) 0.01180(9) 0.54003(9)
H3 H 0.26900 0.01820 0.58240
C8 C 0.1999(3) -0.04549(9) 0.51716(8)
H4 H 0.16320 -0.07830 0.54380
C9 C 0.1900(3) -0.05434(9) 0.45516(8)
H5 H 0.14600 -0.09330 0.43950
C10 C 0.2441(2) -0.00634(9) 0.41574(8)
O4 O 0.17043(19) -0.06688(6) 0.32909(6)
C11 C 0.2297(3) -0.01717(8) 0.34950(8)
C12 C 0.2859(2) 0.03533(9) 0.30886(8)
C13 C 0.2716(3) 0.02725(9) 0.24644(8)
H6 H 0.23650 -0.01260 0.23050
C14 C 0.3085(2) 0.07691(9) 0.20784(8)
H7 H 0.30200 0.07080 0.16550
C15 C 0.3718(2) 0.19071(8) 0.19117(8)
C16 C 0.3192(2) 0.29307(8) 0.15067(8)
C17 C 0.4397(2) 0.25355(8) 0.10532(8)
C18 C 0.4043(3) 0.35549(9) 0.17127(9)
H8 H 0.31930 0.37630 0.19950
H9 H 0.42450 0.38280 0.13620
H10 H 0.52360 0.34740 0.19130
C19 C 0.1171(3) 0.30317(9) 0.13055(9)
H11 H 0.05070 0.32770 0.16120
H12 H 0.05600 0.26220 0.12550
H13 H 0.11550 0.32600 0.09220
C20 C 0.6434(2) 0.27380(9) 0.10181(8)
H14 H 0.70910 0.24740 0.07250
H15 H 0.70160 0.26900 0.14150
H16 H 0.65050 0.31800 0.08920
C21 C 0.3585(3) 0.24659(9) 0.04211(8)
H17 H 0.44360 0.22160 0.01710
H18 H 0.34210 0.28840 0.02410
H19 H 0.23760 0.22530 0.04450
#END
