
#######################################################################
#
#                 Cambridge Crystallographic Data Centre
#                                CCDC
#
#######################################################################
#
# If this CIF has been generated from an entry in the Cambridge
# Structural Database, then it will include bibliographic, chemical,
# crystal, experimental, refinement or atomic coordinate data resulting
# from the CCDC's data processing and validation procedures.
#
#######################################################################

data_CSD_CIF_CETRUQ02
_audit_creation_date 2013-04-30
_audit_creation_method CSD-ConQuest-V1
_database_code_CSD CETRUQ02
_database_code_depnum_ccdc_archive 'CCDC 923569'
_chemical_formula_sum 'C21 H19 N2 O4'
_chemical_formula_moiety
;
C21 H19 N2 O4
;
_journal_coden_Cambridge 182
_journal_volume 49
_journal_year 2013
_journal_page_first 3345
_journal_name_full 'Chem.Commun. '
loop_
_publ_author_name
"H.Akpinar"
"J.A.Schlueter"
"P.M.Lahti"
_chemical_name_systematic
;
2-(9,10-Anthraquinon-2-yl)-4,4,5,5-tetramethyl-4,5-dihydro-1H-imidazole-3-oxid
e-1-oxyl radical
;
_chemical_melting_point 481
_cell_volume   3407.516
_exptl_crystal_colour 'black'
_exptl_crystal_density_diffrn 1.417
_exptl_special_details
;
beta polymorph

;
_exptl_crystal_description 'needle'
_diffrn_ambient_temperature 99
#These two values have been output from a single CSD field.
_refine_ls_R_factor_gt 0.043
_refine_ls_wR_factor_gt 0.043
_symmetry_cell_setting orthorhombic
_symmetry_space_group_name_H-M 'P b c a'
_symmetry_Int_Tables_number 61
loop_
_symmetry_equiv_pos_site_id
_symmetry_equiv_pos_as_xyz
1 x,y,z
2 1/2-x,-y,1/2+z
3 -x,1/2+y,1/2-z
4 1/2+x,1/2-y,-z
5 -x,-y,-z
6 -1/2+x,y,-1/2-z
7 x,-1/2-y,-1/2+z
8 -1/2-x,-1/2+y,z
_cell_length_a 7.2081(4)
_cell_length_b 21.2504(13)
_cell_length_c 22.2459(13)
_cell_angle_alpha 90
_cell_angle_beta 90
_cell_angle_gamma 90
_cell_formula_units_Z 8
loop_
_atom_type_symbol
_atom_type_radius_bond
C 0.68
H 0.23
N 0.68
O 0.68
loop_
_atom_site_label
_atom_site_type_symbol
_atom_site_fract_x
_atom_site_fract_y
_atom_site_fract_z
C1 C 0.3521(2) 0.13595(8) 0.23107(8)
O1 O 0.2292(2) 0.26579(6) 0.25311(6)
N1 N 0.3070(2) 0.24872(7) 0.20376(7)
O2 O 0.50216(19) 0.14096(6) 0.10726(6)
N2 N 0.4337(2) 0.18907(7) 0.13437(7)
C2 C 0.3744(3) 0.14396(8) 0.29307(8)
H1 H 0.41080 0.18360 0.30890
C3 C 0.3426(2) 0.09323(9) 0.33146(8)
O3 O 0.4529(2) 0.14863(6) 0.41692(6)
C4 C 0.3729(3) 0.10207(8) 0.39774(8)
C5 C 0.3092(3) 0.05066(9) 0.43823(8)
C6 C 0.3191(3) 0.05945(9) 0.50061(9)
H2 H 0.36350 0.09810 0.51650
C7 C 0.2642(3) 0.01180(9) 0.53911(9)
H3 H 0.26990 0.01820 0.58130
C8 C 0.2004(3) -0.04556(9) 0.51647(9)
H4 H 0.16380 -0.07820 0.54310
C9 C 0.1910(3) -0.05442(9) 0.45478(9)
H5 H 0.14810 -0.09340 0.43920
C10 C 0.2439(3) -0.00658(9) 0.41529(9)
O4 O 0.1714(2) -0.06700(7) 0.32887(7)
C11 C 0.2294(3) -0.01736(9) 0.34916(9)
C12 C 0.2841(3) 0.03525(8) 0.30849(9)
C13 C 0.2697(3) 0.02713(9) 0.24634(9)
H6 H 0.23500 -0.01270 0.23050
C14 C 0.3055(3) 0.07670(9) 0.20763(8)
H7 H 0.29840 0.07060 0.16540
C15 C 0.3675(3) 0.19044(8) 0.19100(8)
C16 C 0.3157(3) 0.29257(9) 0.15071(8)
C17 C 0.4356(3) 0.25319(8) 0.10543(8)
C18 C 0.4004(3) 0.35463(9) 0.17148(9)
H8 H 0.31560 0.37540 0.19960
H9 H 0.42100 0.38200 0.13660
H10 H 0.51900 0.34640 0.19150
C19 C 0.1150(3) 0.30266(10) 0.13051(9)
H11 H 0.04850 0.32720 0.16100
H12 H 0.05420 0.26180 0.12530
H13 H 0.11370 0.32550 0.09220
C20 C 0.6386(3) 0.27355(9) 0.10214(9)
H14 H 0.70440 0.24720 0.07290
H15 H 0.69620 0.26880 0.14180
H16 H 0.64550 0.31770 0.08960
C21 C 0.3551(3) 0.24617(10) 0.04232(8)
H17 H 0.44010 0.22130 0.01750
H18 H 0.33860 0.28790 0.02430
H19 H 0.23470 0.22480 0.04460
#END
