
#######################################################################
#
#                 Cambridge Crystallographic Data Centre
#                                CCDC
#
#######################################################################
#
# If this CIF has been generated from an entry in the Cambridge
# Structural Database, then it will include bibliographic, chemical,
# crystal, experimental, refinement or atomic coordinate data resulting
# from the CCDC's data processing and validation procedures.
#
#######################################################################

data_CSD_CIF_CETRUQ04
_audit_creation_date 2013-04-30
_audit_creation_method CSD-ConQuest-V1
_database_code_CSD CETRUQ04
_database_code_depnum_ccdc_archive 'CCDC 923567'
_chemical_formula_sum 'C21 H19 N2 O4'
_chemical_formula_moiety
;
C21 H19 N2 O4
;
_journal_coden_Cambridge 182
_journal_volume 49
_journal_year 2013
_journal_page_first 3345
_journal_name_full 'Chem.Commun. '
loop_
_publ_author_name
"H.Akpinar"
"J.A.Schlueter"
"P.M.Lahti"
_chemical_name_systematic
;
2-(9,10-Anthraquinon-2-yl)-4,4,5,5-tetramethyl-4,5-dihydro-1H-imidazole-3-oxid
e-1-oxyl radical
;
_chemical_melting_point 481
_cell_volume   3503.163
_exptl_crystal_colour 'black'
_exptl_crystal_density_diffrn 1.378
_exptl_special_details
;
beta polymorph

;
_exptl_crystal_description 'needle'
_diffrn_ambient_temperature 300
#These two values have been output from a single CSD field.
_refine_ls_R_factor_gt 0.0436
_refine_ls_wR_factor_gt 0.0436
_symmetry_cell_setting orthorhombic
_symmetry_space_group_name_H-M 'P b c a'
_symmetry_Int_Tables_number 61
loop_
_symmetry_equiv_pos_site_id
_symmetry_equiv_pos_as_xyz
1 x,y,z
2 1/2-x,-y,1/2+z
3 -x,1/2+y,1/2-z
4 1/2+x,1/2-y,-z
5 -x,-y,-z
6 -1/2+x,y,-1/2-z
7 x,-1/2-y,-1/2+z
8 -1/2-x,-1/2+y,z
_cell_length_a 7.3230(5)
_cell_length_b 21.4026(17)
_cell_length_c 22.3514(17)
_cell_angle_alpha 90
_cell_angle_beta 90
_cell_angle_gamma 90
_cell_formula_units_Z 8
loop_
_atom_type_symbol
_atom_type_radius_bond
C 0.68
H 0.23
N 0.68
O 0.68
loop_
_atom_site_label
_atom_site_type_symbol
_atom_site_fract_x
_atom_site_fract_y
_atom_site_fract_z
C1 C 0.3408(3) 0.13577(11) 0.23054(10)
O1 O 0.2182(3) 0.26406(9) 0.25256(9)
N1 N 0.2940(3) 0.24746(10) 0.20338(9)
O2 O 0.4884(3) 0.14146(8) 0.10778(8)
N2 N 0.4210(3) 0.18901(9) 0.13458(8)
C2 C 0.3628(3) 0.14309(11) 0.29197(11)
H1 H 0.39720 0.18170 0.30740
C3 C 0.3334(3) 0.09277(11) 0.33056(10)
O3 O 0.4400(3) 0.14800(8) 0.41544(8)
C4 C 0.3633(4) 0.10146(12) 0.39621(11)
C5 C 0.3043(3) 0.04992(11) 0.43651(11)
C6 C 0.3136(4) 0.05846(13) 0.49827(12)
H2 H 0.35430 0.09630 0.51370
C7 C 0.2626(4) 0.01097(15) 0.53656(14)
H3 H 0.26770 0.01710 0.57770
C8 C 0.2040(4) -0.04573(15) 0.51395(14)
H4 H 0.17110 -0.07780 0.53990
C9 C 0.1943(4) -0.05471(13) 0.45293(14)
H5 H 0.15490 -0.09290 0.43790
C10 C 0.2434(3) -0.00680(12) 0.41357(12)
O4 O 0.1772(4) -0.06702(10) 0.32767(10)
C11 C 0.2299(4) -0.01730(12) 0.34794(13)
C12 C 0.2781(3) 0.03534(11) 0.30750(11)
C13 C 0.2629(4) 0.02749(12) 0.24593(12)
H6 H 0.23060 -0.01130 0.23040
C14 C 0.2955(4) 0.07687(11) 0.20762(11)
H7 H 0.28730 0.07100 0.16650
C15 C 0.3550(3) 0.18974(11) 0.19091(10)
C16 C 0.3030(4) 0.29144(11) 0.15102(11)
C17 C 0.4219(3) 0.25278(11) 0.10597(10)
C18 C 0.3859(5) 0.35260(13) 0.17235(13)
H8 H 0.30350 0.37270 0.19970
H9 H 0.40710 0.37940 0.13860
H10 H 0.49960 0.34430 0.19220
C19 C 0.1056(4) 0.30122(15) 0.13104(14)
H11 H 0.04140 0.32500 0.16080
H12 H 0.04720 0.26140 0.12610
H13 H 0.10400 0.32340 0.09370
C20 C 0.6206(4) 0.27304(13) 0.10246(12)
H14 H 0.68400 0.24740 0.07400
H15 H 0.67650 0.26860 0.14110
H16 H 0.62690 0.31590 0.09010
C21 C 0.3425(4) 0.24576(14) 0.04322(11)
H17 H 0.42450 0.22160 0.01900
H18 H 0.32630 0.28630 0.02570
H19 H 0.22660 0.22490 0.04550
#END
