
#######################################################################
#
#                 Cambridge Crystallographic Data Centre
#                                CCDC
#
#######################################################################
#
# If this CIF has been generated from an entry in the Cambridge
# Structural Database, then it will include bibliographic, chemical,
# crystal, experimental, refinement or atomic coordinate data resulting
# from the CCDC's data processing and validation procedures.
#
#######################################################################

data_CSD_CIF_CETTIG
_audit_creation_date 2013-04-30
_audit_creation_method CSD-ConQuest-V1
_database_code_CSD CETTIG
_database_code_depnum_ccdc_archive 'CCDC 923531'
_chemical_formula_sum 'C19 H21 N1 O3'
_chemical_formula_moiety
;
C19 H21 N1 O3
;
_journal_coden_Cambridge 1475
_journal_volume 4
_journal_year 2013
_journal_page_first 2028
_journal_name_full 'Chemical Science '
loop_
_publ_author_name
"R.T.McBurney"
"A.Eisenschmidt"
"A.M.Z.Slawin"
"J.C.Walton"
_chemical_name_systematic
;
((Benzylideneamino)oxy)((4-t-butylbenzyl)oxy)methanone
;
_cell_volume    854.134
_exptl_crystal_colour 'colorless'
_exptl_crystal_density_diffrn 1.211
_exptl_crystal_description 'prism'
_diffrn_ambient_temperature 173
#These two values have been output from a single CSD field.
_refine_ls_R_factor_gt 0.0752
_refine_ls_wR_factor_gt 0.0752
_symmetry_cell_setting triclinic
_symmetry_space_group_name_H-M 'P -1'
_symmetry_Int_Tables_number 2
loop_
_symmetry_equiv_pos_site_id
_symmetry_equiv_pos_as_xyz
1 x,y,z
2 -x,-y,-z
_cell_length_a 6.229(3)
_cell_length_b 11.758(7)
_cell_length_c 12.009(7)
_cell_angle_alpha 88.61(4)
_cell_angle_beta 77.64(6)
_cell_angle_gamma 83.80(4)
_cell_formula_units_Z 2
loop_
_atom_type_symbol
_atom_type_radius_bond
C 0.68
H 0.23
N 0.68
O 0.68
loop_
_atom_site_label
_atom_site_type_symbol
_atom_site_fract_x
_atom_site_fract_y
_atom_site_fract_z
O1 O 0.4816(3) 0.02741(15) 0.81937(14)
O2 O 0.8515(4) 0.01362(19) 0.81830(18)
O3 O 0.5870(3) 0.11240(15) 0.94959(15)
N1 N 0.5398(4) -0.04544(18) 0.72036(18)
C1 C 0.6646(5) 0.0470(3) 0.8575(3)
C2 C 0.7584(6) 0.1592(3) 0.9965(3)
C3 C 0.8246(5) 0.2658(2) 0.9343(2)
C4 C 1.0426(5) 0.2809(3) 0.8889(3)
C5 C 1.1003(5) 0.3823(3) 0.8342(3)
C6 C 0.9424(5) 0.4716(2) 0.8210(2)
C7 C 0.7228(5) 0.4546(3) 0.8675(3)
C8 C 0.6654(5) 0.3549(3) 0.9237(3)
C9 C 0.9996(5) 0.5806(3) 0.7541(3)
C10 C 0.9680(7) 0.5643(3) 0.6330(3)
C11 C 1.2367(6) 0.6050(3) 0.7524(4)
C12 C 0.8469(6) 0.6861(3) 0.8055(3)
C13 C 0.3642(5) -0.0499(2) 0.6821(3)
C14 C 0.3723(5) -0.1181(2) 0.5808(2)
C15 C 0.5654(5) -0.1829(3) 0.5259(3)
C16 C 0.5683(6) -0.2442(3) 0.4298(3)
C17 C 0.3787(6) -0.2420(3) 0.3857(3)
C18 C 0.1869(5) -0.1779(3) 0.4395(3)
C19 C 0.1834(5) -0.1169(3) 0.5372(3)
H1 H 0.88900 0.10170 0.98940
H2 H 0.70140 0.17640 1.07840
H3 H 1.15500 0.22120 0.89500
H4 H 1.25210 0.39080 0.80510
H5 H 0.60950 0.51350 0.86020
H6 H 0.51430 0.34720 0.95560
H7 H 0.81440 0.55120 0.63540
H8 H 1.06680 0.49830 0.59790
H9 H 1.00270 0.63310 0.58780
H10 H 1.33990 0.54080 0.71670
H11 H 1.25420 0.61470 0.83070
H12 H 1.26770 0.67510 0.70890
H13 H 0.86150 0.69680 0.88410
H14 H 0.69350 0.67510 0.80500
H15 H 0.88830 0.75390 0.76030
H16 H 0.22900 -0.00900 0.71940
H17 H 0.69560 -0.18460 0.55530
H18 H 0.70030 -0.28830 0.39310
H19 H 0.38100 -0.28450 0.31910
H20 H 0.05740 -0.17560 0.40930
H21 H 0.05050 -0.07390 0.57450
#END
