
#######################################################################
#
#                 Cambridge Crystallographic Data Centre
#                                CCDC
#
#######################################################################
#
# If this CIF has been generated from an entry in the Cambridge
# Structural Database, then it will include bibliographic, chemical,
# crystal, experimental, refinement or atomic coordinate data resulting
# from the CCDC's data processing and validation procedures.
#
#######################################################################

data_CSD_CIF_CEWFUF
_audit_creation_date 1985-02-07
_audit_creation_method CSD-ConQuest-V1
_database_code_CSD CEWFUF
_database_code_depnum_ccdc_archive 'CCDC 1123811'
_chemical_formula_sum 'C18 H15 N5 O2'
_chemical_formula_moiety
;
C18 H15 N5 O2
;
_journal_coden_Cambridge 194
_journal_volume 31
_journal_year 1983
_journal_page_first 4181
_journal_name_full 'Chem.Pharm.Bull. '
loop_
_publ_author_name
"S.Zen"
"T.Nishino"
"K.Harada"
"H.Nakamura"
"Y.Iitaka"
_chemical_name_systematic
;
N,1-bis(5-(3-Phenyl)-(1,2,4)oxadiazolyl)dimethylamine
;
_chemical_melting_point 410.15
_cell_volume    812.587
_exptl_crystal_colour 'colorless'
_exptl_crystal_density_diffrn 1.363
_exptl_special_details
;
Melting point range 410.15-411.15K

;
_diffrn_ambient_temperature ?
_diffrn_special_details
;
The study was carried out at room temperature,in the range 283-303K

;
#These two values have been output from a single CSD field.
_refine_ls_R_factor_gt 0.053
_refine_ls_wR_factor_gt 0.053
_symmetry_cell_setting triclinic
_symmetry_space_group_name_H-M 'P -1'
_symmetry_Int_Tables_number 2
loop_
_symmetry_equiv_pos_site_id
_symmetry_equiv_pos_as_xyz
1 x,y,z
2 -x,-y,-z
_cell_length_a 9.741(5)
_cell_length_b 13.679(7)
_cell_length_c 6.300(3)
_cell_angle_alpha 91.03(5)
_cell_angle_beta 100.42(5)
_cell_angle_gamma 99.78(5)
_cell_formula_units_Z 2
loop_
_atom_type_symbol
_atom_type_radius_bond
C 0.68
H 0.23
N 0.68
O 0.68
loop_
_atom_site_label
_atom_site_type_symbol
_atom_site_fract_x
_atom_site_fract_y
_atom_site_fract_z
C1 C 0.21700 0.46220 0.24020
C2 C 0.30200 0.39050 0.25750
C3 C 0.37610 0.37050 0.45730
C4 C 0.36420 0.42200 0.63860
C5 C 0.28000 0.49460 0.62680
C6 C 0.20610 0.51540 0.42630
C7 C 0.12100 0.59410 0.41050
N1 N 0.05070 0.61530 0.22400
O1 O -0.01480 0.69600 0.28140
C8 C 0.02680 0.71070 0.49760
N2 N 0.11050 0.65180 0.58730
N3 N -0.02370 0.78160 0.59250
C9 C -0.11010 0.84540 0.46900
C10 C 0.01050 0.79670 0.82620
C11 C 0.11460 0.89000 0.89330
N4 N 0.20880 0.93790 0.79610
C12 C 0.27380 1.01530 0.94370
N5 N 0.22160 1.01520 1.12050
O2 O 0.11330 0.93060 1.08800
C13 C 0.39190 1.09060 0.90880
C14 C 0.45190 1.16600 1.06830
C15 C 0.56570 1.23530 1.03840
C16 C 0.62180 1.23090 0.85150
C17 C 0.56320 1.15660 0.69610
C18 C 0.44920 1.08620 0.72160
H1 H 0.15000 0.47400 0.09500
H2 H 0.31500 0.35400 0.11200
H3 H 0.45200 0.32200 0.46000
H4 H 0.41500 0.41600 0.78100
H5 H 0.27500 0.53300 0.76600
H6 H -0.18800 0.80700 0.36400
H7 H -0.18100 0.87700 0.57600
H8 H -0.05100 0.89700 0.40800
H9 H -0.08500 0.79600 0.88000
H10 H 0.04300 0.73600 0.89100
H11 H 0.40600 1.17200 1.21200
H12 H 0.61800 1.28500 1.16500
H13 H 0.70100 1.28500 0.84800
H14 H 0.60000 1.14100 0.56600
H15 H 0.40600 1.03200 0.62300
#END
