
#######################################################################
#
#                 Cambridge Crystallographic Data Centre
#                                CCDC
#
#######################################################################
#
# If this CIF has been generated from an entry in the Cambridge
# Structural Database, then it will include bibliographic, chemical,
# crystal, experimental, refinement or atomic coordinate data resulting
# from the CCDC's data processing and validation procedures.
#
#######################################################################

data_CSD_CIF_CEWLOI
_audit_creation_date 2018-02-15
_audit_creation_method CSD-ConQuest-V1
_database_code_CSD CEWLOI
_database_code_depnum_ccdc_archive 'CCDC 1546771'
_chemical_formula_sum 'C17 H21 N3 O5'
_chemical_formula_moiety
;
C17 H21 N3 O5
;
_journal_coden_Cambridge 2066
_journal_volume 3
_journal_year 2018
_journal_page_first 8
_journal_name_full 'ACS Omega '
loop_
_publ_author_name
"Xing-Mei Hu"
"Da-Yun Luo"
"Quan-Xing Zi"
"Jun Lin"
"Sheng-Jiao Yan"
_chemical_name_systematic
;
3-(benzylamino)-9,9-dimethoxy-4-nitro-2-azabicyclo[3.3.1]non-3-en-7-one
;
_cell_volume   1797.969
_exptl_crystal_colour 'colorless'
_exptl_crystal_density_diffrn 1.283
_exptl_crystal_description 'block'
_diffrn_ambient_temperature 293
#These two values have been output from a single CSD field.
_refine_ls_R_factor_gt 0.0613
_refine_ls_wR_factor_gt 0.0613
_symmetry_cell_setting monoclinic
_symmetry_space_group_name_H-M 'P 21/c'
_symmetry_Int_Tables_number 14
loop_
_symmetry_equiv_pos_site_id
_symmetry_equiv_pos_as_xyz
1 x,y,z
2 -x,1/2+y,1/2-z
3 -x,-y,-z
4 x,-1/2-y,-1/2+z
_cell_length_a 17.67(3)
_cell_length_b 8.064(12)
_cell_length_c 12.926(19)
_cell_angle_alpha 90
_cell_angle_beta 102.53(2)
_cell_angle_gamma 90
_cell_formula_units_Z 4
loop_
_atom_type_symbol
_atom_type_radius_bond
C 0.68
H 0.23
N 0.68
O 0.68
loop_
_atom_site_label
_atom_site_type_symbol
_atom_site_fract_x
_atom_site_fract_y
_atom_site_fract_z
N1 N 0.31809(15) 0.1565(3) 0.25521(18)
H1 H 0.33930 0.16930 0.32120
N2 N 0.25608(17) 0.3878(3) 0.3818(2)
N3 N 0.22986(14) 0.2509(3) 0.11012(17)
H2 H 0.24770 0.17770 0.07340
O1 O 0.31200(14) 0.2971(3) 0.43300(15)
O2 O 0.22287(15) 0.4867(3) 0.43536(17)
O3 O 0.0435(2) 0.1480(4) 0.1906(3)
O4 O 0.24660(12) 0.6027(3) 0.11684(15)
O5 O 0.11320(13) 0.6250(3) 0.05070(17)
C1 C 0.4787(2) -0.0383(5) 0.3137(3)
H3 H 0.49820 0.05380 0.28480
C2 C 0.5272(2) -0.1303(6) 0.3927(4)
H4 H 0.57880 -0.09940 0.41600
C3 C 0.4992(3) -0.2653(5) 0.4359(3)
H5 H 0.53160 -0.32510 0.48930
C4 C 0.4248(3) -0.3123(5) 0.4013(3)
H6 H 0.40590 -0.40510 0.43010
C5 C 0.3765(2) -0.2207(5) 0.3223(3)
H7 H 0.32530 -0.25360 0.29840
C6 C 0.4032(2) -0.0820(4) 0.2786(2)
C7 C 0.34809(19) 0.0212(4) 0.1992(2)
H8 H 0.37470 0.06660 0.14740
H9 H 0.30560 -0.04710 0.16220
C8 C 0.26159(18) 0.2606(4) 0.2140(2)
C9 C 0.23118(18) 0.3816(4) 0.2754(2)
C10 C 0.17401(18) 0.5276(4) 0.1098(2)
C11 C 0.16628(18) 0.3580(4) 0.0551(2)
H10 H 0.17210 0.37360 -0.01790
C12 C 0.0878(2) 0.2791(4) 0.0517(3)
H11 H 0.04790 0.34320 0.00510
H12 H 0.08720 0.16800 0.02290
C13 C 0.0702(2) 0.2711(5) 0.1586(4)
C14 C 0.0867(2) 0.4276(5) 0.2269(3)
H13 H 0.08420 0.40140 0.29930
H14 H 0.04750 0.51060 0.20060
C15 C 0.16778(18) 0.4980(4) 0.2247(2)
H15 H 0.17470 0.60380 0.26290
C16 C 0.2708(2) 0.6276(5) 0.0189(3)
H16 H 0.28190 0.52230 -0.00910
H17 H 0.31650 0.69540 0.03130
H18 H 0.23010 0.68170 -0.03100
C17 C 0.1093(2) 0.7934(4) 0.0870(3)
H19 H 0.09000 0.79380 0.15090
H20 H 0.07530 0.85680 0.03350
H21 H 0.16020 0.84170 0.10070
#END
