
#######################################################################
#
#                 Cambridge Crystallographic Data Centre
#                                CCDC
#
#######################################################################
#
# If this CIF has been generated from an entry in the Cambridge
# Structural Database, then it will include bibliographic, chemical,
# crystal, experimental, refinement or atomic coordinate data resulting
# from the CCDC's data processing and validation procedures.
#
#######################################################################

data_CSD_CIF_CEXYAG
_audit_creation_date 2007-06-14
_audit_creation_method CSD-ConQuest-V1
_database_code_CSD CEXYAG
_database_code_depnum_ccdc_archive 'CCDC 611931'
_chemical_formula_sum 'C10 H11 N3 O2'
_chemical_formula_moiety
;
C10 H11 N3 O2
;
_journal_coden_Cambridge 16
_journal_volume 63
_journal_year 2007
_journal_page_first 419
_journal_name_full 'Tetrahedron '
loop_
_publ_author_name
"F.Crestey"
"S.Stiebing"
"R.Legay"
"V.Collot"
"S.Rault"
_chemical_name_systematic
;
N-Methoxy-N-methyl-1H-indazole-3-carboxamide
;
_chemical_melting_point 380
_cell_volume    971.130
_exptl_crystal_colour 'colorless'
_exptl_crystal_density_diffrn 1.404
_exptl_crystal_description 'prism'
_exptl_crystal_preparation 'acetone'
_diffrn_ambient_temperature 298
#These two values have been output from a single CSD field.
_refine_ls_R_factor_gt 0.0378
_refine_ls_wR_factor_gt 0.0378
_symmetry_cell_setting orthorhombic
_symmetry_space_group_name_H-M 'P 21 21 21'
_symmetry_Int_Tables_number 19
loop_
_symmetry_equiv_pos_site_id
_symmetry_equiv_pos_as_xyz
1 x,y,z
2 1/2-x,-y,1/2+z
3 -x,1/2+y,1/2-z
4 1/2+x,1/2-y,-z
_cell_length_a 7.5143(5)
_cell_length_b 10.1304(7)
_cell_length_c 12.7574(9)
_cell_angle_alpha 90
_cell_angle_beta 90
_cell_angle_gamma 90
_cell_formula_units_Z 4
loop_
_atom_type_symbol
_atom_type_radius_bond
C 0.68
H 0.23
N 0.68
O 0.68
loop_
_atom_site_label
_atom_site_type_symbol
_atom_site_fract_x
_atom_site_fract_y
_atom_site_fract_z
N1 N 0.31885(9) 0.45963(6) -0.01203(4)
N2 N 0.38486(9) 0.57471(6) -0.04836(4)
N3 N 0.22875(8) 0.24783(6) 0.14197(5)
O1 O 0.12045(8) 0.41748(6) 0.23524(4)
O2 O 0.36103(7) 0.20504(5) 0.07336(4)
C1 C 0.21165(9) 0.37807(6) 0.16040(5)
C2 C 0.29534(9) 0.47633(6) 0.09068(5)
C3 C 0.34411(8) 0.60678(6) 0.12219(5)
C4 C 0.40137(9) 0.66716(7) 0.02867(5)
C5 C 0.34335(9) 0.67953(7) 0.21640(5)
H1 H 0.30680 0.64140 0.27910
C6 C 0.45775(10) 0.79908(7) 0.02446(6)
H2 H 0.49530 0.83770 -0.03790
C7 C 0.39875(10) 0.80940(7) 0.21227(6)
H3 H 0.39930 0.85930 0.27350
C8 C 0.28060(12) 0.15276(8) -0.02025(6)
H4 H 0.21090 0.07640 -0.00280
H5 H 0.37200 0.12840 -0.06910
H6 H 0.20530 0.21860 -0.05120
C9 C 0.45467(11) 0.86865(7) 0.11734(6)
H7 H 0.49020 0.95660 0.11760
C10 C 0.16591(12) 0.14912(8) 0.21568(7)
H8 H 0.24790 0.14270 0.27320
H9 H 0.15750 0.06520 0.18110
H10 H 0.05080 0.17420 0.24150
H11 H 0.384(3) 0.591(2) -0.1161(19)
#END
