
#######################################################################
#
#                 Cambridge Crystallographic Data Centre
#                                CCDC
#
#######################################################################
#
# If this CIF has been generated from an entry in the Cambridge
# Structural Database, then it will include bibliographic, chemical,
# crystal, experimental, refinement or atomic coordinate data resulting
# from the CCDC's data processing and validation procedures.
#
#######################################################################

data_CSD_CIF_CEYKEX
_audit_creation_date 2007-06-14
_audit_creation_method CSD-ConQuest-V1
_database_code_CSD CEYKEX
_database_code_depnum_ccdc_archive 'CCDC 627870'
_chemical_formula_sum 'C24 H19 N3 O2'
_chemical_formula_moiety
;
C24 H19 N3 O2
;
_journal_coden_Cambridge 24
_journal_volume 48
_journal_year 2007
_journal_page_first 2489
_journal_name_full 'Tetrahedron Lett. '
loop_
_publ_author_name
"T.K.Chaitanya"
"R.Nagarajan"
_chemical_name_systematic
;
9-Ethyl-3-(4-methyl-3-nitroquinolin-2-yl)-9H-carbazole
;
_chemical_melting_point 459.15
_cell_volume   3809.211
_exptl_crystal_colour 'yellow'
_exptl_crystal_density_diffrn 1.33
_exptl_special_details
;
Melting point range 459.15-461.15K

;
_exptl_crystal_description 'plate'
_diffrn_ambient_temperature 298
#These two values have been output from a single CSD field.
_refine_ls_R_factor_gt 0.0541
_refine_ls_wR_factor_gt 0.0541
_symmetry_cell_setting monoclinic
_symmetry_space_group_name_H-M 'C 2/c'
_symmetry_Int_Tables_number 15
loop_
_symmetry_equiv_pos_site_id
_symmetry_equiv_pos_as_xyz
1 x,y,z
2 1/2+x,1/2+y,z
3 -x,y,1/2-z
4 1/2-x,1/2+y,1/2-z
5 -x,-y,-z
6 -1/2-x,-1/2-y,-z
7 x,-y,-1/2+z
8 -1/2+x,-1/2-y,-1/2+z
_cell_length_a 26.834(3)
_cell_length_b 9.3498(11)
_cell_length_c 15.3302(18)
_cell_angle_alpha 90
_cell_angle_beta 97.956(2)
_cell_angle_gamma 90
_cell_formula_units_Z 8
loop_
_atom_type_symbol
_atom_type_radius_bond
C 0.68
H 0.23
N 0.68
O 0.68
loop_
_atom_site_label
_atom_site_type_symbol
_atom_site_fract_x
_atom_site_fract_y
_atom_site_fract_z
O1 O 0.44377(7) 0.44519(19) 0.26676(13)
O2 O 0.44272(8) 0.46530(19) 0.40551(13)
N1 N 0.22626(6) 0.23613(19) 0.15551(12)
N2 N 0.44838(7) 0.3964(2) 0.34043(14)
N3 N 0.43565(6) 0.00533(18) 0.3178(1)
C1 C 0.29339(8) 0.3040(3) 0.27873(15)
H1 H 0.2739(8) 0.373(2) 0.3042(14)
C2 C 0.34254(8) 0.2787(2) 0.31340(14)
H2 H 0.35630 0.32790 0.36380
C3 C 0.37276(7) 0.1806(2) 0.27506(12)
C4 C 0.35244(7) 0.1083(2) 0.19956(12)
H3 H 0.37190 0.04260 0.17380
C5 C 0.30325(7) 0.1336(2) 0.16236(12)
C6 C 0.27123(7) 0.0764(2) 0.08685(12)
C7 C 0.27811(8) -0.0225(3) 0.02234(14)
H4 H 0.30910 -0.06690 0.02220
C8 C 0.23856(10) -0.0540(3) -0.04139(16)
H5 H 0.24300 -0.11930 -0.08540
C9 C 0.19206(10) 0.0104(3) -0.04085(17)
H6 H 0.16570 -0.01300 -0.08450
C10 C 0.18410(8) 0.1074(3) 0.02226(16)
H7 H 0.15270 0.14960 0.02250
C11 C 0.22420(7) 0.1409(2) 0.08593(14)
C12 C 0.27372(7) 0.2315(2) 0.20288(13)
C13 C 0.42426(7) 0.1422(2) 0.31586(12)
C14 C 0.46095(7) 0.2436(2) 0.35161(12)
C15 C 0.50745(7) 0.2067(2) 0.39328(12)
C16 C 0.51850(7) 0.0587(2) 0.39886(11)
C17 C 0.56383(8) 0.0013(3) 0.44340(14)
H8 H 0.5887(8) 0.065(2) 0.4734(14)
C18 C 0.57262(8) -0.1413(3) 0.44369(15)
H9 H 0.60270 -0.17710 0.47310
C19 C 0.53719(9) -0.2347(3) 0.40052(15)
H10 H 0.54400 -0.33220 0.40030
C20 C 0.49261(9) -0.1849(3) 0.35862(15)
H11 H 0.4669(8) -0.250(2) 0.3307(14)
C21 C 0.48190(7) -0.0379(2) 0.35759(12)
C22 C 0.18363(8) 0.3146(3) 0.18109(16)
H12 H 0.16040 0.33780 0.12870
H13 H 0.19560 0.40380 0.20890
C23 C 0.15619(9) 0.2317(3) 0.24328(19)
H14 H 0.14420 0.14340 0.21610
H15 H 0.12820 0.28680 0.25730
H16 H 0.17860 0.21170 0.29630
C24 C 0.54656(8) 0.3151(2) 0.42916(15)
H17 H 0.53370 0.40970 0.41630
H18 H 0.57650 0.30120 0.40230
H19 H 0.55440 0.30340 0.49180
#END
