
#######################################################################
#
#                 Cambridge Crystallographic Data Centre
#                                CCDC
#
#######################################################################
#
# If this CIF has been generated from an entry in the Cambridge
# Structural Database, then it will include bibliographic, chemical,
# crystal, experimental, refinement or atomic coordinate data resulting
# from the CCDC's data processing and validation procedures.
#
#######################################################################

data_CSD_CIF_CEZBEP
_audit_creation_date 2007-06-14
_audit_creation_method CSD-ConQuest-V1
_database_code_CSD CEZBEP
_database_code_depnum_ccdc_archive 'CCDC 286895'
_chemical_formula_sum 'C19 H21 N5 O9'
_chemical_formula_moiety
;
C19 H21 N5 O9
;
_journal_coden_Cambridge 550
_journal_volume 51
_journal_year 2006
_journal_page_first 2164
_journal_name_full 'Chin.Sci.Bull. '
loop_
_publ_author_name
"Baohan Zhou"
"Guodong Yin"
"Zhiguo Wang"
"Yunfeng Chen"
"Anxin Wu"
"Jian Wan"
_chemical_name_systematic
;
Diethyl 
6-methoxy-9-nitro-1,4-dioxo-1,2,3,4,5,10-hexahydro-2,3,4a,10a-tetra-azabenzo(g
)cyclopenta(cd)azulene-2a,10b-dicarboxylate
;
_cell_volume   2079.909
_exptl_crystal_colour 'colorless'
_exptl_crystal_density_diffrn 1.48
_diffrn_ambient_temperature 292
_refine_special_details
;
Part of the ethoxycarbonyl group is disordered over two sites with occupancy 
0.56:0.44.
;
#These two values have been output from a single CSD field.
_refine_ls_R_factor_gt 0.2453
_refine_ls_wR_factor_gt 0.2453
_symmetry_cell_setting monoclinic
_symmetry_space_group_name_H-M 'P 21/c'
_symmetry_Int_Tables_number 14
loop_
_symmetry_equiv_pos_site_id
_symmetry_equiv_pos_as_xyz
1 x,y,z
2 -x,1/2+y,1/2-z
3 -x,-y,-z
4 x,-1/2-y,-1/2+z
_cell_length_a 12.626(3)
_cell_length_b 8.682(2)
_cell_length_c 18.974(5)
_cell_angle_alpha 90
_cell_angle_beta 90.023
_cell_angle_gamma 90
_cell_formula_units_Z 4
loop_
_atom_type_symbol
_atom_type_radius_bond
C 0.68
H 0.23
N 0.68
O 0.68
loop_
_atom_site_label
_atom_site_type_symbol
_atom_site_fract_x
_atom_site_fract_y
_atom_site_fract_z
C1 C 0.6574(12) 0.905(2) 0.1162(7)
H1 H 0.71370 0.96600 0.09670
H2 H 0.60060 0.97140 0.13070
H3 H 0.63210 0.83410 0.08130
C2 C 0.7802(8) 0.7297(11) 0.1627(6)
C3 C 0.8358(10) 0.7193(13) 0.0991(6)
H4 H 0.81490 0.77720 0.06030
C4 C 0.9212(10) 0.6227(13) 0.0947(6)
H5 H 0.95850 0.61600 0.05250
C5 C 0.9532(8) 0.5353(11) 0.1515(6)
C6 C 0.8956(7) 0.5374(12) 0.2154(5)
C7 C 0.8089(7) 0.6345(10) 0.2201(4)
C8 C 0.7423(8) 0.6368(10) 0.2873(5)
H6 H 0.78820 0.66170 0.32670
H7 H 0.69030 0.71850 0.28330
C9 C 0.9218(8) 0.4358(12) 0.2766(6)
H8 H 0.98730 0.38140 0.26700
H9 H 0.93270 0.49900 0.31820
C10 C 0.5925(8) 0.4565(12) 0.2754(6)
C11 C 0.8213(9) 0.2044(11) 0.2450(5)
C12 C 0.7454(8) 0.3613(10) 0.3288(5)
C13 C 0.7663(8) 0.3892(10) 0.4098(5)
C14 C 0.8446(10) 0.280(2) 0.5110(6)
H10 H 0.85190 0.38640 0.52580
H11 H 0.91160 0.22860 0.51960
H12? H 0.86730 0.18150 0.52690
H13? H 0.78360 0.31380 0.53670
C15 C 0.7575(16) 0.202(3) 0.5555(10)
H14 H 0.69170 0.25510 0.54880
H15 H 0.77690 0.20530 0.60440
H16 H 0.74980 0.09650 0.54100
C16? C 0.936(2) 0.395(3) 0.5232(16)
H17? H 0.95770 0.43810 0.47890
H18? H 0.99480 0.34250 0.54450
H19? H 0.91240 0.47600 0.55380
C17 C 0.6664(8) 0.2267(10) 0.3131(5)
C18 C 0.6316(9) 0.1313(12) 0.3774(7)
C19 C 0.6293(15) -0.1172(18) 0.4312(8)
H20 H 0.68340 -0.19370 0.44080
H21 H 0.61990 -0.05510 0.47320
C20 C 0.5291(18) -0.194(2) 0.4131(10)
H22 H 0.47370 -0.11910 0.40970
H23 H 0.51180 -0.26770 0.44920
H24 H 0.53660 -0.24640 0.36880
N1 N 1.0460(7) 0.4423(12) 0.1389(5)
N2 N 0.6887(6) 0.4967(8) 0.3025(4)
N3 N 0.8363(6) 0.3217(9) 0.2912(4)
N4 N 0.5769(7) 0.3082(10) 0.2869(5)
H25 H 0.51700 0.26410 0.27920
N5 N 0.7215(8) 0.1457(10) 0.2591(4)
H26 H 0.69530 0.06770 0.23720
O1 O 0.6948(6) 0.8238(9) 0.1741(4)
O2 O 1.0606(8) 0.3920(13) 0.0785(4)
O3 O 1.1045(7) 0.4075(11) 0.1867(5)
O4 O 0.5332(7) 0.5444(9) 0.2459(5)
O5 O 0.8835(7) 0.1577(10) 0.2001(4)
O6 O 0.7374(7) 0.4962(10) 0.4406(4)
O7 O 0.8212(7) 0.2754(10) 0.4346(4)
O8 O 0.5784(8) 0.1834(10) 0.4232(5)
O9 O 0.6634(7) -0.0181(9) 0.3719(4)
#END
