
#######################################################################
#
#                 Cambridge Crystallographic Data Centre
#                                CCDC
#
#######################################################################
#
# If this CIF has been generated from an entry in the Cambridge
# Structural Database, then it will include bibliographic, chemical,
# crystal, experimental, refinement or atomic coordinate data resulting
# from the CCDC's data processing and validation procedures.
#
#######################################################################

data_CSD_CIF_CICMAD01
_audit_creation_date 2007-08-03
_audit_creation_method CSD-ConQuest-V1
_database_code_CSD CICMAD01
_database_code_depnum_ccdc_archive 'CCDC 646762'
_chemical_formula_sum 'C13 H11 N3 O3'
_chemical_formula_moiety
;
C13 H11 N3 O3
;
_journal_coeditor_code "IUCr BT2326"
_journal_coden_Cambridge 1370
_journal_volume 63
_journal_year 2007
_journal_page_first o2224
_journal_name_full 'Acta Crystallogr.,Sect.E:Struct.Rep.Online '
loop_
_publ_author_name
"D.Gayathri"
"D.Velmurugan"
"K.Ravikumar"
"D.Saravanakumar"
"M.Kandaswamy"
_chemical_name_systematic
;
4-Nitro-2-((phenylhydrazono)methyl)phenol
;
_cell_volume   1219.479
_exptl_crystal_colour 'light orange'
_exptl_crystal_density_diffrn 1.401
_exptl_crystal_description 'needle'
_exptl_crystal_preparation 'acetonitrile'
_diffrn_ambient_temperature ?
_diffrn_special_details
;
The study was carried out at room temperature,in the range 283-303K

;
#These two values have been output from a single CSD field.
_refine_ls_R_factor_gt 0.0482
_refine_ls_wR_factor_gt 0.0482
_symmetry_cell_setting monoclinic
_symmetry_space_group_name_H-M 'P 21/c'
_symmetry_Int_Tables_number 14
loop_
_symmetry_equiv_pos_site_id
_symmetry_equiv_pos_as_xyz
1 x,y,z
2 -x,1/2+y,1/2-z
3 -x,-y,-z
4 x,-1/2-y,-1/2+z
_cell_length_a 12.8167(13)
_cell_length_b 8.2176(8)
_cell_length_c 12.5848(12)
_cell_angle_alpha 90
_cell_angle_beta 113.068(2)
_cell_angle_gamma 90
_cell_formula_units_Z 4
loop_
_atom_type_symbol
_atom_type_radius_bond
C 0.68
H 0.23
N 0.68
O 0.68
loop_
_atom_site_label
_atom_site_type_symbol
_atom_site_fract_x
_atom_site_fract_y
_atom_site_fract_z
C1 C 0.40743(9) 0.36355(14) 0.05257(9)
H1 H 0.42410 0.37140 0.13130
C2 C 0.47856(9) 0.27572(13) 0.01404(9)
N1 N 0.65021(8) 0.12501(12) 0.06525(8)
C3 C 0.57943(10) 0.20007(14) 0.09757(9)
H2 H 0.59330 0.20580 0.17570
C4 C 0.31241(9) 0.43883(14) -0.02566(10)
O1 O 0.51569(8) 0.18546(13) -0.14948(7)
H3 H 0.57010 0.14600 -0.09640
N2 N 0.74386(9) 0.06025(14) 0.14707(9)
H4 H 0.75680 0.07610 0.21870
C5 C 0.82004(10) -0.03162(14) 0.11818(10)
N3 N 0.23993(9) 0.53068(14) 0.01712(10)
C6 C 0.45045(10) 0.26742(14) -0.10612(10)
C7 C 0.35357(11) 0.34422(17) -0.18297(10)
H5 H 0.33570 0.33700 -0.26190
O2 O 0.15896(10) 0.60281(15) -0.05062(10)
C8 C 0.28389(10) 0.43070(16) -0.14385(10)
H6 H 0.21930 0.48240 -0.19530
C9 C 0.90657(12) -0.11067(16) 0.20710(13)
H7 H 0.91240 -0.10040 0.28280
C10 C 0.81375(12) -0.04491(17) 0.00620(12)
H8 H 0.75740 0.00980 -0.05360
O3 O 0.26423(11) 0.5306(2) 0.1211(1)
C11 C 0.98356(13) -0.20410(18) 0.18291(15)
H9 H 1.04140 -0.25670 0.24270
C12 C 0.89151(14) -0.1397(2) -0.01624(15)
H10 H 0.88680 -0.14900 -0.09160
C13 C 0.97609(14) -0.2208(2) 0.07136(17)
H11 H 1.02740 -0.28600 0.05530
#END
