
#######################################################################
#
#                 Cambridge Crystallographic Data Centre
#                                CCDC
#
#######################################################################
#
# If this CIF has been generated from an entry in the Cambridge
# Structural Database, then it will include bibliographic, chemical,
# crystal, experimental, refinement or atomic coordinate data resulting
# from the CCDC's data processing and validation procedures.
#
#######################################################################

data_CSD_CIF_CICZET
_audit_creation_date 1985-03-02
_audit_creation_method CSD-ConQuest-V1
_database_code_CSD CICZET
_database_code_depnum_ccdc_archive 'CCDC 1124839'
_chemical_formula_sum 'C22 H22 N2 O6'
_chemical_formula_moiety
;
C22 H22 N2 O6
;
_journal_coeditor_code "IUCr A23665"
_journal_coden_Cambridge 591
_journal_volume 40
_journal_year 1984
_journal_page_first 1008
_journal_name_full 'Acta Crystallogr.,Sect.C:Cryst.Struct.Commun. '
loop_
_publ_author_name
"A.Laarif"
"F.Theobald"
"M.Birouk"
"J.-F.Robert"
_chemical_name_systematic
;
Diethyl 3-(2-nitrophenyl)-5-phenyl-3,4-dihydro-2H-pyrrole-2,2-dicarboxylate
;
_cell_volume   1033.130
_exptl_crystal_density_diffrn 1.318
_diffrn_ambient_temperature ?
_diffrn_special_details
;
The study was carried out at room temperature,in the range 283-303K

;
#These two values have been output from a single CSD field.
_refine_ls_R_factor_gt 0.068
_refine_ls_wR_factor_gt 0.068
_symmetry_cell_setting triclinic
_symmetry_space_group_name_H-M 'P -1'
_symmetry_Int_Tables_number 2
loop_
_symmetry_equiv_pos_site_id
_symmetry_equiv_pos_as_xyz
1 x,y,z
2 -x,-y,-z
_cell_length_a 11.201(2)
_cell_length_b 11.792(2)
_cell_length_c 9.137(1)
_cell_angle_alpha 112.13(1)
_cell_angle_beta 112.46(1)
_cell_angle_gamma 81.75(1)
_cell_formula_units_Z 2
loop_
_atom_type_symbol
_atom_type_radius_bond
C 0.68
H 0.23
N 0.68
O 0.68
loop_
_atom_site_label
_atom_site_type_symbol
_atom_site_fract_x
_atom_site_fract_y
_atom_site_fract_z
N1 N 0.23390 0.35970 0.45290
C1 C 0.19890 0.46480 0.44180
C2 C 0.20550 0.48430 0.29120
C3 C 0.21650 0.35180 0.17890
C4 C 0.27290 0.28540 0.30810
C5 C 0.15860 0.56260 0.57340
C6 C 0.11400 0.67430 0.55410
C7 C 0.08020 0.76740 0.68230
C8 C 0.09210 0.74710 0.82470
C9 C 0.13430 0.63650 0.84420
C10 C 0.16780 0.54340 0.71780
C11 C 0.28480 0.33460 0.05720
C12 C 0.23350 0.26980 -0.11520
N2 N 0.09930 0.22040 -0.19790
O1 O 0.08130 0.11900 -0.30810
O2 O 0.01340 0.28630 -0.15680
C13 C 0.29780 0.25040 -0.22620
C14 C 0.41920 0.29850 -0.16180
C15 C 0.47480 0.36440 0.00850
C16 C 0.40810 0.38360 0.11680
C17 C 0.22140 0.15490 0.23320
O3 O 0.16560 0.10300 0.08530
O4 O 0.24750 0.10790 0.35390
C18 C 0.20390 -0.01810 0.29970
C19 C 0.30810 -0.10350 0.26470
C20 C 0.42250 0.27990 0.37640
O5 O 0.49030 0.35580 0.49930
O6 O 0.46290 0.18150 0.27490
C21 C 0.60430 0.17260 0.31490
C22 C 0.63330 0.05690 0.21100
H1 H 0.11930 0.52800 0.23090
H2 H 0.28910 0.53770 0.32570
H3 H 0.12520 0.31210 0.08480
H4 H 0.10540 0.68940 0.44100
H5 H 0.04520 0.85430 0.66840
H6 H 0.06780 0.81940 0.92420
H7 H 0.14160 0.62200 0.95720
H8 H 0.20070 0.45620 0.73220
H9 H 0.25310 0.19900 -0.35950
H10 H 0.47170 0.28460 -0.24470
H11 H 0.57090 0.40140 0.05840
H12 H 0.45230 0.43740 0.24920
H13 H 0.18210 -0.02920 0.39890
H14 H 0.11840 -0.03690 0.18660
H15 H 0.27710 -0.19650 0.22480
H16 H 0.39350 -0.08440 0.37800
H17 H 0.32980 -0.09210 0.16560
H18 H 0.65300 0.18180 0.44620
H19 H 0.63600 0.24430 0.29160
H20 H 0.73630 0.04910 0.23900
H21 H 0.58430 0.04780 0.08000
H22 H 0.60120 -0.01460 0.23400
#END
