
#######################################################################
#
#                 Cambridge Crystallographic Data Centre
#                                CCDC
#
#######################################################################
#
# If this CIF has been generated from an entry in the Cambridge
# Structural Database, then it will include bibliographic, chemical,
# crystal, experimental, refinement or atomic coordinate data resulting
# from the CCDC's data processing and validation procedures.
#
#######################################################################

data_CSD_CIF_CIDVAO
_audit_creation_date 2013-07-07
_audit_creation_method CSD-ConQuest-V1
_database_code_CSD CIDVAO
_database_code_depnum_ccdc_archive 'CCDC 899877'
_chemical_formula_sum 'C13 H21 N1 O8'
_chemical_formula_moiety
;
C13 H21 N1 O8
;
_journal_coden_Cambridge 156
_journal_volume 375
_journal_year 2013
_journal_page_first 5
_journal_name_full 'Carbohydr.Res. '
loop_
_publ_author_name
"M.Turks"
"V.Rodins"
"E.Rolava"
"P.Ostrovskis"
"S.Belyakov"
_chemical_name_systematic
;
5-(2,2-Dimethyl-1,3-dioxolan-4-yl)-2,2-dimethyl-6-(nitromethyl)tetrahydrofuro[
2,3-d][1,3]dioxol-6-ol
;
_chemical_name_common
;
3-Hydroxy-3-methylthio-3-C-nitromethyl-1,2:5,6-di-O-isopropylidene-D-glucofura
nose
;
_cell_volume   1573.256
_exptl_crystal_colour 'colorless'
_exptl_crystal_density_diffrn 1.348
_exptl_crystal_description 'Needle'
_exptl_crystal_preparation 'EtOAc/Hexane'
_diffrn_ambient_temperature 193
#These two values have been output from a single CSD field.
_refine_ls_R_factor_gt 0.0443
_refine_ls_wR_factor_gt 0.0443
loop_
_citation_database_id_CSD
_citation_special_details
USODEM "is a stereoisomer of this entry"
_symmetry_cell_setting monoclinic
_symmetry_space_group_name_H-M 'C 2'
_symmetry_Int_Tables_number 5
loop_
_symmetry_equiv_pos_site_id
_symmetry_equiv_pos_as_xyz
1 x,y,z
2 -x,y,-z
3 1/2+x,1/2+y,z
4 1/2-x,1/2+y,-z
_cell_length_a 21.0971(6)
_cell_length_b 5.7082(2)
_cell_length_c 14.0890(6)
_cell_angle_alpha 90
_cell_angle_beta 111.9897(13)
_cell_angle_gamma 90
_cell_formula_units_Z 4
loop_
_atom_type_symbol
_atom_type_radius_bond
C 0.68
H 0.23
N 0.68
O 0.68
loop_
_atom_site_label
_atom_site_type_symbol
_atom_site_fract_x
_atom_site_fract_y
_atom_site_fract_z
O1 O -0.85581(8) -0.2551(3) -0.10028(11)
H1 H -0.81350 -0.30620 -0.04890
O2 O -0.83926(9) -0.5914(3) -0.30968(13)
O3 O -0.92114(9) -0.1338(3) -0.30929(12)
O4 O -1.02829(9) -0.4164(4) -0.19467(14)
N1 N -0.82370(11) -0.7396(4) -0.06040(16)
O5 O -0.82689(14) -0.7702(6) 0.02333(15)
C1 C -0.88677(11) -0.6620(4) -0.14697(16)
H2 H -0.89400 -0.75810 -0.19050
H3 H -0.91760 -0.64150 -0.10880
C2 C -0.87632(10) -0.4178(4) -0.18256(15)
C3 C -0.82866(11) -0.4009(4) -0.24168(16)
H4 H -0.78220 -0.38910 -0.19410
O6 O -0.77159(10) -0.7660(5) -0.07617(18)
C4 C -0.94309(11) -0.3238(4) -0.26275(16)
H5 H -0.96660 -0.44680 -0.31470
O7 O -1.11281(11) -0.1817(6) -0.2927(2)
C5 C -0.99523(12) -0.2262(4) -0.22272(18)
H6 H -0.96830 -0.09690 -0.16340
C6 C -0.84473(14) -0.5056(5) -0.4077(2)
C7 C -0.85671(13) -0.1899(4) -0.3125(2)
H7 H -0.82370 -0.05010 -0.29260
O8 O -0.86392(17) -0.2696(5) -0.41016(18)
C8 C -1.09496(13) -0.3356(6) -0.2082(2)
C9 C -1.05449(13) -0.0979(6) -0.3048(2)
H8 H -1.05710 -0.13490 -0.37260
H9 H -1.05160 0.06890 -0.29530
C10 C -1.14391(19) -0.5401(9) -0.2361(3)
H10 H -1.18890 -0.48560 -0.24540
H11 H -1.12940 -0.65380 -0.18200
H12 H -1.14470 -0.61060 -0.29840
C11 C -0.7771(2) -0.5186(10) -0.4190(3)
H13 H -0.78130 -0.46030 -0.48510
H14 H -0.76150 -0.67810 -0.41200
H15 H -0.74470 -0.42460 -0.36660
C12 C -1.0947(2) -0.2065(11) -0.1150(3)
H16 H -1.14000 -0.15420 -0.12520
H17 H -1.06450 -0.07400 -0.10170
H18 H -1.07890 -0.31170 -0.05770
C13 C -0.8981(2) -0.6432(10) -0.4879(3)
H19 H -0.90250 -0.58800 -0.55440
H20 H -0.94110 -0.62610 -0.47970
H21 H -0.88510 -0.80530 -0.48110
#END
