
#######################################################################
#
#                 Cambridge Crystallographic Data Centre
#                                CCDC
#
#######################################################################
#
# If this CIF has been generated from an entry in the Cambridge
# Structural Database, then it will include bibliographic, chemical,
# crystal, experimental, refinement or atomic coordinate data resulting
# from the CCDC's data processing and validation procedures.
#
#######################################################################

data_CSD_CIF_CIFROY02
_audit_creation_date 2018-07-10
_audit_creation_method CSD-ConQuest-V1
_database_code_CSD CIFROY02
_database_code_depnum_ccdc_archive 'CCDC 1848407'
_chemical_formula_sum 'C2 H2 N4 O2'
_chemical_formula_moiety
;
C2 H2 N4 O2
;
_journal_coden_Cambridge 1500
_journal_volume 8
_journal_year 2018
_journal_page_first 24627
_journal_name_full 'RSC Advances '
loop_
_publ_author_name
"Pengcheng Zhang"
"Xiuxiu Zhao"
"Yao Du"
"M.Gozin"
"Shenghua Li"
"Siping Pang"
_chemical_name_systematic
;
3-nitro-1H-1,2,4-triazole
;
_chemical_melting_point 544
_cell_volume    880.821
_exptl_crystal_colour 'yellow'
_exptl_crystal_density_diffrn 1.72
_exptl_special_details
;
P41212 polymorph

;
_exptl_crystal_preparation 'Re-crystallisation from solvent'
_diffrn_ambient_temperature 101.8
#These two values have been output from a single CSD field.
_refine_ls_R_factor_gt 0.0375
_refine_ls_wR_factor_gt 0.0375
_symmetry_cell_setting tetragonal
_symmetry_space_group_name_H-M 'P 41 21 2'
_symmetry_Int_Tables_number 92
loop_
_symmetry_equiv_pos_site_id
_symmetry_equiv_pos_as_xyz
1 x,y,z
2 1/2-y,1/2+x,1/4+z
3 -x,-y,1/2+z
4 1/2+y,1/2-x,3/4+z
5 1/2+x,1/2-y,3/4-z
6 1/2-x,1/2+y,1/4-z
7 y,x,-z
8 -y,-x,1/2-z
_cell_length_a 6.8413(3)
_cell_length_b 6.8413(3)
_cell_length_c 18.8196(12)
_cell_angle_alpha 90
_cell_angle_beta 90
_cell_angle_gamma 90
_cell_formula_units_Z 8
loop_
_atom_type_symbol
_atom_type_radius_bond
C 0.68
H 0.23
N 0.68
O 0.68
loop_
_atom_site_label
_atom_site_type_symbol
_atom_site_fract_x
_atom_site_fract_y
_atom_site_fract_z
N1 N 0.4742(2) 0.0251(2) 0.02027(7)
H1 H 0.58580 0.08060 0.01430
O1 O -0.10150(19) -0.1699(2) 0.08344(6)
N2 N 0.2286(2) -0.1717(2) 0.00217(7)
O2 O 0.0217(2) 0.0511(2) 0.15308(6)
N3 N 0.0295(2) -0.0584(2) 0.10162(7)
C1 C 0.4037(3) -0.1168(3) -0.02051(8)
H2 H 0.46810 -0.17010 -0.05950
N4 N 0.3461(2) 0.0702(2) 0.07246(7)
C2 C 0.2046(3) -0.0533(3) 0.05874(8)
#END
