
#######################################################################
#
#                 Cambridge Crystallographic Data Centre
#                                CCDC
#
#######################################################################
#
# If this CIF has been generated from an entry in the Cambridge
# Structural Database, then it will include bibliographic, chemical,
# crystal, experimental, refinement or atomic coordinate data resulting
# from the CCDC's data processing and validation procedures.
#
#######################################################################

data_CSD_CIF_CIGLUB
_audit_creation_date 2013-07-07
_audit_creation_method CSD-ConQuest-V1
_database_code_CSD CIGLUB
_database_code_depnum_ccdc_archive 'CCDC 889430'
_chemical_formula_sum 'C21 H21 N3 O3'
_chemical_formula_moiety
;
C21 H21 N3 O3
;
_journal_coden_Cambridge 692
_journal_volume 45
_journal_year 2013
_journal_page_first 1325
_journal_name_full 'Synthesis '
loop_
_publ_author_name
"Desuo Yang"
"Mingjin Fan"
"Haiyun Zhu"
"Yaning Guo"
"Jiangtao Guo"
_chemical_name_systematic
;
6-Methyl-6-nitro-7-phenyl-5-(2-phenylvinyl)tetrahydro-1H,5H-pyrazolo[1,2-a]pyr
azol-1-one
;
_cell_volume   1932.942
_exptl_crystal_colour 'colorless'
_exptl_crystal_density_diffrn 1.249
_exptl_crystal_description 'block'
_diffrn_ambient_temperature 296
#These two values have been output from a single CSD field.
_refine_ls_R_factor_gt 0.0544
_refine_ls_wR_factor_gt 0.0544
_symmetry_cell_setting monoclinic
_symmetry_space_group_name_H-M 'P 21/c'
_symmetry_Int_Tables_number 14
loop_
_symmetry_equiv_pos_site_id
_symmetry_equiv_pos_as_xyz
1 x,y,z
2 -x,1/2+y,1/2-z
3 -x,-y,-z
4 x,-1/2-y,-1/2+z
_cell_length_a 13.616(12)
_cell_length_b 12.482(12)
_cell_length_c 12.482(12)
_cell_angle_alpha 90
_cell_angle_beta 114.332(9)
_cell_angle_gamma 90
_cell_formula_units_Z 4
loop_
_atom_type_symbol
_atom_type_radius_bond
C 0.68
H 0.23
N 0.68
O 0.68
loop_
_atom_site_label
_atom_site_type_symbol
_atom_site_fract_x
_atom_site_fract_y
_atom_site_fract_z
C1 C 1.2947(2) 0.9733(2) 0.3409(3)
H1 H 1.30770 0.97490 0.42010
C2 C 1.3803(2) 0.9658(3) 0.3092(3)
H2 H 1.45030 0.96180 0.36700
C3 C 1.3627(2) 0.9643(2) 0.1937(3)
H3 H 1.42050 0.95880 0.17250
C4 C 1.2599(2) 0.9709(2) 0.1091(3)
H4 H 1.24790 0.97110 0.03020
C5 C 1.1743(2) 0.9772(2) 0.1397(3)
H5 H 1.10460 0.98070 0.08120
C6 C 1.19017(19) 0.97839(19) 0.2568(2)
C7 C 1.1007(2) 0.98161(19) 0.2943(2)
H6 H 1.11910 0.99720 0.37310
C8 C 0.9983(2) 0.9650(2) 0.2292(2)
H7 H 0.97770 0.94820 0.15030
C9 C 0.91358(19) 0.97153(19) 0.2742(2)
H8 H 0.94460 1.00170 0.35380
C10 C 0.85227(19) 0.8665(2) 0.2746(2)
C11 C 0.74328(18) 0.90777(19) 0.2745(2)
H9 H 0.74680 0.89990 0.35420
C12 C 0.7546(2) 1.0987(2) 0.3324(3)
C13 C 0.8137(3) 1.1915(2) 0.3115(3)
H10 H 0.76860 1.25490 0.29000
H11 H 0.87860 1.20700 0.38110
C14 C 0.8409(2) 1.1559(2) 0.2120(3)
H12 H 0.79580 1.19280 0.14010
H13 H 0.91570 1.17170 0.22950
C15 C 0.6433(2) 0.8537(2) 0.1907(3)
C16 C 0.5918(2) 0.8845(2) 0.0753(3)
H14 H 0.61950 0.94050 0.04710
C17 C 0.4983(3) 0.8325(3) 0.0002(3)
H15 H 0.46380 0.85280 -0.07830
C18 C 0.4575(3) 0.7501(3) 0.0441(5)
H16 H 0.39510 0.71470 -0.00510
C19 C 0.5079(3) 0.7211(3) 0.1582(5)
H17 H 0.47930 0.66640 0.18720
C20 C 0.6001(2) 0.7711(2) 0.2311(4)
H18 H 0.63450 0.74950 0.30910
C21 C 0.8407(2) 0.7909(2) 0.1759(3)
H19 H 0.91090 0.76910 0.18340
H20 H 0.80360 0.82650 0.10190
H21 H 0.80040 0.72900 0.17950
N1 N 0.91604(18) 0.8115(2) 0.3924(2)
N2 N 0.82147(16) 1.03848(16) 0.19852(18)
N3 N 0.74549(15) 1.02190(16) 0.24991(18)
O1 O 0.9589(2) 0.7277(2) 0.3933(2)
O2 O 0.92450(18) 0.8566(2) 0.4821(2)
O3 O 0.71756(19) 1.08841(18) 0.4048(2)
#END
