
#######################################################################
#
#                 Cambridge Crystallographic Data Centre
#                                CCDC
#
#######################################################################
#
# If this CIF has been generated from an entry in the Cambridge
# Structural Database, then it will include bibliographic, chemical,
# crystal, experimental, refinement or atomic coordinate data resulting
# from the CCDC's data processing and validation procedures.
#
#######################################################################

data_CSD_CIF_CIGMAI
_audit_creation_date 2013-07-07
_audit_creation_method CSD-ConQuest-V1
_database_code_CSD CIGMAI
_database_code_depnum_ccdc_archive 'CCDC 889429'
_chemical_formula_sum 'C20 H19 N3 O3'
_chemical_formula_moiety
;
C20 H19 N3 O3
;
_journal_coden_Cambridge 692
_journal_volume 45
_journal_year 2013
_journal_page_first 1325
_journal_name_full 'Synthesis '
loop_
_publ_author_name
"Desuo Yang"
"Mingjin Fan"
"Haiyun Zhu"
"Yaning Guo"
"Jiangtao Guo"
_chemical_name_systematic
;
6-Nitro-7-phenyl-5-(2-phenylvinyl)tetrahydro-1H,5H-pyrazolo[1,2-a]pyrazol-1-on
e
;
_cell_volume    868.578
_exptl_crystal_colour 'colorless'
_exptl_crystal_density_diffrn 1.336
_exptl_crystal_description 'block'
_diffrn_ambient_temperature 296
#These two values have been output from a single CSD field.
_refine_ls_R_factor_gt 0.053
_refine_ls_wR_factor_gt 0.053
_symmetry_cell_setting triclinic
_symmetry_space_group_name_H-M 'P -1'
_symmetry_Int_Tables_number 2
loop_
_symmetry_equiv_pos_site_id
_symmetry_equiv_pos_as_xyz
1 x,y,z
2 -x,-y,-z
_cell_length_a 10.110(6)
_cell_length_b 10.543(6)
_cell_length_c 10.574(6)
_cell_angle_alpha 111.884(4)
_cell_angle_beta 116.290(4)
_cell_angle_gamma 98.533(5)
_cell_formula_units_Z 2
loop_
_atom_type_symbol
_atom_type_radius_bond
C 0.68
H 0.23
N 0.68
O 0.68
loop_
_atom_site_label
_atom_site_type_symbol
_atom_site_fract_x
_atom_site_fract_y
_atom_site_fract_z
C1 C 0.6250(3) 0.8030(3) -0.0861(3)
H1 H 0.72720 0.80200 -0.04400
C2 C 0.5504(3) 0.8064(3) -0.2289(3)
H2 H 0.60310 0.80870 -0.28170
C3 C 0.3991(3) 0.8063(3) -0.2945(3)
H3 H 0.34840 0.80760 -0.39170
C4 C 0.3241(3) 0.8043(3) -0.2144(3)
H4 H 0.22170 0.80470 -0.25740
C5 C 0.3984(3) 0.8017(3) -0.0709(3)
H5 H 0.34550 0.80030 -0.01820
C6 C 0.5506(2) 0.8011(2) -0.0045(2)
C7 C 0.6363(2) 0.8085(2) 0.1583(2)
H6 H 0.68050 0.91130 0.24390
C8 C 0.5327(3) 0.7122(2) 0.1849(3)
H7 H 0.43480 0.64150 0.07980
C9 C 0.6271(3) 0.6261(2) 0.2521(2)
H8 H 0.55190 0.52800 0.20820
C10 C 0.7286(3) 0.6948(2) 0.4317(3)
H9 H 0.79510 0.79390 0.49370
C11 C 0.7260(3) 0.6176(2) 0.5045(3)
H10 H 0.64980 0.52200 0.43800
C12 C 0.8271(3) 0.6624(3) 0.6763(3)
C13 C 0.9495(3) 0.7992(3) 0.7905(3)
H11 H 0.96760 0.86830 0.75940
C14 C 1.0446(3) 0.8338(3) 0.9498(3)
H12 H 1.12650 0.92600 1.02510
C15 C 1.0197(3) 0.7337(4) 0.9984(3)
H13 H 1.08550 0.75720 1.10580
C16 C 0.8974(4) 0.5991(4) 0.8878(4)
H14 H 0.87830 0.53140 0.92020
C17 C 0.8029(3) 0.5642(3) 0.7287(3)
H15 H 0.72050 0.47210 0.65440
C18 C 0.8663(3) 0.5897(3) 0.2439(3)
H16 H 0.88070 0.52610 0.16100
H17 H 0.86630 0.54440 0.30870
C19 C 0.9985(3) 0.7405(3) 0.3498(3)
H18 H 1.03900 0.77480 0.46360
H19 H 1.08550 0.73850 0.33360
C20 C 0.9213(3) 0.8374(3) 0.2957(3)
N1 N 0.7150(2) 0.61078(19) 0.1683(2)
N2 N 0.7643(2) 0.75375(19) 0.1845(2)
N3 N 0.4888(3) 0.7983(3) 0.2974(3)
O1 O 0.9813(2) 0.9657(2) 0.3362(2)
O2 O 0.5781(4) 0.9252(3) 0.4011(4)
O3 O 0.3752(3) 0.7337(3) 0.2897(3)
#END
