
#######################################################################
#
#                 Cambridge Crystallographic Data Centre
#                                CCDC
#
#######################################################################
#
# If this CIF has been generated from an entry in the Cambridge
# Structural Database, then it will include bibliographic, chemical,
# crystal, experimental, refinement or atomic coordinate data resulting
# from the CCDC's data processing and validation procedures.
#
#######################################################################

data_CSD_CIF_CIGWIA
_audit_creation_date 2013-07-07
_audit_creation_method CSD-ConQuest-V1
_database_code_CSD CIGWIA
_database_code_depnum_ccdc_archive 'CCDC 885775'
_chemical_formula_sum 'C11 H11 N3 O4'
_chemical_formula_moiety
;
C11 H11 N3 O4
;
_journal_coden_Cambridge 1135
_journal_volume 23
_journal_year 2013
_journal_page_first 176
_journal_name_full 'Mendeleev Commun. '
loop_
_publ_author_name
"V.F.Sedova"
"V.P.Krivopalov"
"Y.V.Gatilov"
"O.P.Shkurko"
_chemical_name_systematic
;
(2R*,6S*,11S*)-2-Methyl-11-nitro-5,6-dihydro-2H-2,6-methano-1,3,5-benzoxadiazo
cin-4(3H)-one
;
_chemical_melting_point 504
_cell_volume   1135.808
_exptl_crystal_colour 'colorless'
_exptl_crystal_density_diffrn 1.457
_exptl_crystal_description 'plate'
_diffrn_ambient_temperature 150
#These two values have been output from a single CSD field.
_refine_ls_R_factor_gt 0.0565
_refine_ls_wR_factor_gt 0.0565
_symmetry_cell_setting monoclinic
_symmetry_space_group_name_H-M 'P 21/n'
_symmetry_Int_Tables_number 14
loop_
_symmetry_equiv_pos_site_id
_symmetry_equiv_pos_as_xyz
1 x,y,z
2 1/2-x,1/2+y,1/2-z
3 -x,-y,-z
4 -1/2+x,-1/2-y,-1/2+z
_cell_length_a 7.2169(12)
_cell_length_b 18.811(3)
_cell_length_c 9.0227(14)
_cell_angle_alpha 90
_cell_angle_beta 111.987(6)
_cell_angle_gamma 90
_cell_formula_units_Z 4
loop_
_atom_type_symbol
_atom_type_radius_bond
C 0.68
H 0.23
N 0.68
O 0.68
loop_
_atom_site_label
_atom_site_type_symbol
_atom_site_fract_x
_atom_site_fract_y
_atom_site_fract_z
O1 O 0.6585(3) 0.34525(11) 0.2978(3)
N1 N 0.7898(4) 0.28759(14) -0.0498(3)
O2 O 0.7410(3) 0.50963(10) -0.0246(2)
C1 C 0.6279(5) 0.34476(16) 0.1307(4)
O3 O 0.6502(4) 0.30986(13) -0.1644(3)
N2 N 0.6228(4) 0.41692(13) 0.0732(3)
H1 H 0.520(6) 0.4418(19) 0.057(4)
O4 O 0.9244(4) 0.25143(14) -0.0602(3)
C2 C 0.7712(4) 0.45044(15) 0.0436(3)
N3 N 0.9472(4) 0.41690(13) 0.0860(3)
H2 H 1.037(6) 0.439(2) 0.074(4)
C3 C 0.9869(5) 0.35412(16) 0.1896(4)
H3 H 1.10970 0.32920 0.19040
C4 C 1.0088(5) 0.37254(16) 0.3609(4)
C5 C 1.1897(6) 0.39482(18) 0.4743(4)
H4 H 1.30480 0.39840 0.44770
C6 C 1.2009(7) 0.4119(2) 0.6269(5)
H5 H 1.32460 0.42720 0.70460
C7 C 1.0373(7) 0.4070(2) 0.6675(4)
H6 H 1.04840 0.41850 0.77300
C8 C 0.8549(7) 0.38538(18) 0.5558(4)
H7 H 0.74090 0.38180 0.58400
C9 C 0.8412(5) 0.36896(16) 0.4013(4)
C10 C 0.8057(5) 0.30584(15) 0.1183(4)
H8 H 0.82890 0.26120 0.18270
C11 C 0.4257(5) 0.30926(17) 0.0533(4)
H9 H 0.32130 0.34100 0.05960
H10 H 0.42420 0.26470 0.10920
H11 H 0.40100 0.29910 -0.05910
#END
