
#######################################################################
#
#                 Cambridge Crystallographic Data Centre
#                                CCDC
#
#######################################################################
#
# If this CIF has been generated from an entry in the Cambridge
# Structural Database, then it will include bibliographic, chemical,
# crystal, experimental, refinement or atomic coordinate data resulting
# from the CCDC's data processing and validation procedures.
#
#######################################################################

data_CSD_CIF_CIHGIJ
_audit_creation_date 1985-03-02
_audit_creation_method CSD-ConQuest-V1
_database_code_CSD CIHGIJ
_chemical_formula_sum 'C10 H10 N2 O3'
_chemical_formula_moiety
;
C10 H10 N2 O3
;
_journal_coeditor_code "IUCr A23749"
_journal_coden_Cambridge 591
_journal_volume 40
_journal_year 1984
_journal_page_first 1226
_journal_name_full 'Acta Crystallogr.,Sect.C:Cryst.Struct.Commun. '
loop_
_publ_author_name
"Y.Wang"
"P.L.Lee"
"M.-Y.Yeh"
_chemical_name_systematic
;
3-(p-Ethoxyphenyl)-sydnone
;
_cell_volume    978.820
_exptl_crystal_density_diffrn 1.399
_diffrn_ambient_temperature ?
_diffrn_special_details
;
The study was carried out at room temperature,in the range 283-303K

;
#These two values have been output from a single CSD field.
_refine_ls_R_factor_gt 0.032
_refine_ls_wR_factor_gt 0.032
_symmetry_cell_setting monoclinic
_symmetry_space_group_name_H-M 'P 21/n'
_symmetry_Int_Tables_number 14
loop_
_symmetry_equiv_pos_site_id
_symmetry_equiv_pos_as_xyz
1 x,y,z
2 1/2-x,1/2+y,1/2-z
3 -x,-y,-z
4 -1/2+x,-1/2-y,-1/2+z
_cell_length_a 7.609(1)
_cell_length_b 7.350(1)
_cell_length_c 17.567(4)
_cell_angle_alpha 90
_cell_angle_beta 94.93(1)
_cell_angle_gamma 90
_cell_formula_units_Z 4
loop_
_atom_type_symbol
_atom_type_radius_bond
C 0.68
H 0.23
N 0.68
O 0.68
loop_
_atom_site_label
_atom_site_type_symbol
_atom_site_fract_x
_atom_site_fract_y
_atom_site_fract_z
C1 C 0.02230 0.25830 0.51540
C2 C 0.01910 0.27430 0.43760
C3 C -0.13000 0.21790 0.39230
C4 C -0.27210 0.14700 0.42670
C5 C -0.26690 0.13400 0.50520
C6 C -0.11940 0.18910 0.55010
C7 C 0.32840 0.37830 0.54040
C8 C 0.43870 0.41380 0.60680
C9 C -0.44450 0.10370 0.30640
C10 C -0.62520 0.03070 0.28120
N1 N 0.17840 0.31270 0.56280
N2 N 0.17260 0.29760 0.63670
O1 O 0.33640 0.36000 0.66590
O2 O 0.58500 0.47540 0.62230
O3 O -0.42380 0.08510 0.38860
H1 H 0.35330 0.39070 0.48210
H2 H 0.11640 0.32840 0.41280
H3 H -0.12920 0.23140 0.33730
H4 H -0.36450 0.06990 0.52890
H5 H -0.11880 0.18330 0.60580
H6 H -0.43010 0.23690 0.29670
H7 H -0.34730 0.03510 0.28650
H8 H -0.62340 -0.09640 0.29000
H9 H -0.70890 0.11030 0.30500
H10 H -0.64640 0.05960 0.22230
#END
