
#######################################################################
#
#                 Cambridge Crystallographic Data Centre
#                                CCDC
#
#######################################################################
#
# If this CIF has been generated from an entry in the Cambridge
# Structural Database, then it will include bibliographic, chemical,
# crystal, experimental, refinement or atomic coordinate data resulting
# from the CCDC's data processing and validation procedures.
#
#######################################################################

data_CSD_CIF_CIHGOP
_audit_creation_date 1985-03-02
_audit_creation_method CSD-ConQuest-V1
_database_code_CSD CIHGOP
_chemical_formula_sum 'C9 H8 N2 O2'
_chemical_formula_moiety
;
C9 H8 N2 O2
;
_journal_coeditor_code "IUCr A23749"
_journal_coden_Cambridge 591
_journal_volume 40
_journal_year 1984
_journal_page_first 1226
_journal_name_full 'Acta Crystallogr.,Sect.C:Cryst.Struct.Commun. '
loop_
_publ_author_name
"Y.Wang"
"P.L.Lee"
"M.-Y.Yeh"
_chemical_name_systematic
;
3-(p-Tolyl)-sydnone
;
_cell_volume    830.410
_exptl_crystal_density_diffrn 1.41
_diffrn_ambient_temperature ?
_diffrn_special_details
;
The study was carried out at room temperature,in the range 283-303K

;
#These two values have been output from a single CSD field.
_refine_ls_R_factor_gt 0.031
_refine_ls_wR_factor_gt 0.031
_symmetry_cell_setting monoclinic
_symmetry_space_group_name_H-M 'P 21/c'
_symmetry_Int_Tables_number 14
loop_
_symmetry_equiv_pos_site_id
_symmetry_equiv_pos_as_xyz
1 x,y,z
2 -x,1/2+y,1/2-z
3 -x,-y,-z
4 x,-1/2-y,-1/2+z
_cell_length_a 3.853(2)
_cell_length_b 11.819(3)
_cell_length_c 18.249(3)
_cell_angle_alpha 90
_cell_angle_beta 92.22(3)
_cell_angle_gamma 90
_cell_formula_units_Z 4
loop_
_atom_type_symbol
_atom_type_radius_bond
C 0.68
H 0.23
N 0.68
O 0.68
loop_
_atom_site_label
_atom_site_type_symbol
_atom_site_fract_x
_atom_site_fract_y
_atom_site_fract_z
C1 C 0.38220 0.12550 0.80910
C2 C 0.39670 0.20580 0.75450
C3 C 0.28510 0.17700 0.68430
C4 C 0.15930 0.07030 0.66820
C5 C 0.14770 -0.00770 0.72420
C6 C 0.25820 0.01830 0.79500
C7 C 0.66170 0.09000 0.93230
C8 C 0.72420 0.15710 0.99490
C9 C 0.04200 0.04090 0.59160
N1 N 0.49810 0.15540 0.88280
N2 N 0.43790 0.25970 0.90370
O1 O 0.57850 0.26230 0.97460
O2 O 0.86040 0.14430 1.05560
H1 H 0.48480 0.28170 0.76510
H2 H 0.29180 0.23460 0.64260
H3 H 0.06060 -0.08050 0.71310
H4 H 0.25020 -0.03720 0.83260
H5 H 0.73220 0.01000 0.92460
H6 H -0.03710 0.10080 0.55890
H7 H -0.15060 -0.01270 0.59100
H8 H 0.21290 -0.00320 0.56640
#END
