
#######################################################################
#
#                 Cambridge Crystallographic Data Centre
#                                CCDC
#
#######################################################################
#
# If this CIF has been generated from an entry in the Cambridge
# Structural Database, then it will include bibliographic, chemical,
# crystal, experimental, refinement or atomic coordinate data resulting
# from the CCDC's data processing and validation procedures.
#
#######################################################################

data_CSD_CIF_CIKBEE
_audit_creation_date 2007-10-09
_audit_creation_method CSD-ConQuest-V1
_database_code_CSD CIKBEE
_database_code_depnum_ccdc_archive 'CCDC 659132'
_chemical_formula_sum 'C13 H13 N3 O3'
_chemical_formula_moiety
;
C13 H13 N3 O3
;
_journal_coeditor_code "IUCr SK3141"
_journal_coden_Cambridge 591
_journal_volume 63
_journal_year 2007
_journal_page_first o462
_journal_name_full 'Acta Crystallogr.,Sect.C:Cryst.Struct.Commun. '
loop_
_publ_author_name
"J.L.Wardell"
"J.M.S.Skakle"
"J.N.Low"
"C.Glidewell"
_chemical_name_systematic
;
4-isopropylidene-3-methyl-1-(3-nitrophenyl)-1H-pyrazol-5(4H)-one
;
_cell_volume   1198.174
_exptl_crystal_colour 'red'
_exptl_crystal_density_diffrn 1.437
_exptl_crystal_description 'block'
_diffrn_ambient_temperature 120
#These two values have been output from a single CSD field.
_refine_ls_R_factor_gt 0.0595
_refine_ls_wR_factor_gt 0.0595
_symmetry_cell_setting monoclinic
_symmetry_space_group_name_H-M 'P 21/c'
_symmetry_Int_Tables_number 14
loop_
_symmetry_equiv_pos_site_id
_symmetry_equiv_pos_as_xyz
1 x,y,z
2 -x,1/2+y,1/2-z
3 -x,-y,-z
4 x,-1/2-y,-1/2+z
_cell_length_a 8.8910(3)
_cell_length_b 10.1699(6)
_cell_length_c 13.4731(7)
_cell_angle_alpha 90
_cell_angle_beta 100.415(3)
_cell_angle_gamma 90
_cell_formula_units_Z 4
loop_
_atom_type_symbol
_atom_type_radius_bond
C 0.68
H 0.23
N 0.68
O 0.68
loop_
_atom_site_label
_atom_site_type_symbol
_atom_site_fract_x
_atom_site_fract_y
_atom_site_fract_z
C1 C 0.6412(2) 0.3896(2) 0.58841(16)
C2 C 0.5480(2) 0.2940(2) 0.53563(16)
C3 C 0.4712(2) 0.2100(2) 0.59011(16)
N1 N 0.3745(2) 0.10745(18) 0.53370(14)
O1 O 0.37429(19) 0.09546(17) 0.44281(12)
O2 O 0.29733(18) 0.03864(17) 0.58002(13)
C4 C 0.4805(2) 0.2175(2) 0.69288(16)
C5 C 0.5737(3) 0.3139(2) 0.74368(17)
C6 C 0.6550(2) 0.3989(2) 0.69307(16)
N2 N 0.7228(2) 0.47471(19) 0.53473(13)
N3 N 0.7157(2) 0.45083(19) 0.42918(14)
C7 C 0.8088(3) 0.5830(2) 0.56848(18)
O3 O 0.8279(2) 0.62522(18) 0.65341(12)
C8 C 0.8663(2) 0.6299(2) 0.47662(17)
C9 C 0.7981(2) 0.5402(2) 0.39738(18)
C10 C 0.8126(3) 0.5385(3) 0.28851(18)
C11 C 0.9605(2) 0.7355(2) 0.47696(19)
C12 C 1.0160(3) 0.8131(3) 0.5715(2)
C13 C 1.0143(3) 0.7835(3) 0.38357(19)
H1 H 0.53720 0.28650 0.46440
H2 H 0.42500 0.15880 0.72760
H3 H 0.58220 0.32180 0.81470
H4 H 0.72000 0.46340 0.72940
H5 H 0.74490 0.47090 0.25290
H6 H 0.91860 0.51880 0.28290
H7 H 0.78370 0.62460 0.25840
H8 H 0.92910 0.85710 0.59290
H9 H 1.09020 0.87910 0.55830
H10 H 1.06480 0.75360 0.62500
H11 H 1.01590 0.71000 0.33680
H12 H 1.11750 0.82020 0.40220
H13 H 0.94450 0.85170 0.35090
#END
