
#######################################################################
#
#                 Cambridge Crystallographic Data Centre
#                                CCDC
#
#######################################################################
#
# If this CIF has been generated from an entry in the Cambridge
# Structural Database, then it will include bibliographic, chemical,
# crystal, experimental, refinement or atomic coordinate data resulting
# from the CCDC's data processing and validation procedures.
#
#######################################################################

data_CSD_CIF_CIKBAA
_audit_creation_date 2007-10-09
_audit_creation_method CSD-ConQuest-V1
_database_code_CSD CIKBAA
_database_code_depnum_ccdc_archive 'CCDC 659130'
_chemical_formula_sum 'C11 H12 N4 O6'
_chemical_formula_moiety
;
C11 H12 N4 O6
;
_journal_coeditor_code "IUCr SK3141"
_journal_coden_Cambridge 591
_journal_volume 63
_journal_year 2007
_journal_page_first o462
_journal_name_full 'Acta Crystallogr.,Sect.C:Cryst.Struct.Commun. '
loop_
_publ_author_name
"J.L.Wardell"
"J.M.S.Skakle"
"J.N.Low"
"C.Glidewell"
_chemical_name_systematic
;
Methyl 3-(2,4-dinitrophenylhydrazono)butanoate
;
_cell_volume   2653.752
_exptl_crystal_colour 'yellow'
_exptl_crystal_density_diffrn 1.483
_exptl_crystal_description 'block'
_exptl_crystal_preparation 'ethanol'
_diffrn_ambient_temperature 120
#These two values have been output from a single CSD field.
_refine_ls_R_factor_gt 0.0443
_refine_ls_wR_factor_gt 0.0443
_symmetry_cell_setting orthorhombic
_symmetry_space_group_name_H-M 'P b c a'
_symmetry_Int_Tables_number 61
loop_
_symmetry_equiv_pos_site_id
_symmetry_equiv_pos_as_xyz
1 x,y,z
2 1/2-x,-y,1/2+z
3 -x,1/2+y,1/2-z
4 1/2+x,1/2-y,-z
5 -x,-y,-z
6 -1/2+x,y,-1/2-z
7 x,-1/2-y,-1/2+z
8 -1/2-x,-1/2+y,z
_cell_length_a 10.6100(3)
_cell_length_b 12.1878(4)
_cell_length_c 20.522(2)
_cell_angle_alpha 90
_cell_angle_beta 90
_cell_angle_gamma 90
_cell_formula_units_Z 8
loop_
_atom_type_symbol
_atom_type_radius_bond
C 0.68
H 0.23
N 0.68
O 0.68
loop_
_atom_site_label
_atom_site_type_symbol
_atom_site_fract_x
_atom_site_fract_y
_atom_site_fract_z
O1 O 0.01578(11) 0.55193(10) 0.69090(6)
O2 O 0.13782(15) 0.43776(15) 0.74791(7)
O3 O 0.6639(1) 0.26911(9) 0.64925(6)
O4 O 0.85592(10) 0.3276(1) 0.65229(7)
O5 O 0.98648(10) 0.63378(10) 0.52622(6)
O6 O 0.84785(11) 0.75212(10) 0.49240(6)
N1 N 0.48258(11) 0.40416(11) 0.61533(7)
N2 N 0.36163(11) 0.44540(11) 0.61213(6)
N3 N 0.74485(12) 0.33937(10) 0.63681(7)
N4 N 0.87653(13) 0.66549(11) 0.52018(7)
C1 C 0.57946(13) 0.46822(12) 0.59429(7)
C2 C 0.70780(14) 0.43794(12) 0.60203(8)
C3 C 0.80473(14) 0.50226(13) 0.57740(8)
C4 C 0.77522(14) 0.59849(12) 0.54603(8)
C5 C 0.65006(15) 0.63349(12) 0.53913(8)
C6 C 0.55446(15) 0.56928(12) 0.56314(8)
C7 C 0.10115(16) 0.47250(15) 0.69668(9)
C8 C 0.14400(14) 0.43223(14) 0.63058(8)
C9 C 0.27347(14) 0.38216(14) 0.63305(8)
C10 C 0.29115(17) 0.26882(15) 0.65951(11)
C11 C -0.0374(2) 0.59322(18) 0.7514(1)
H1 H 0.50010 0.33800 0.63640
H2 H 0.89010 0.48010 0.58220
H3 H 0.63160 0.70100 0.51810
H4 H 0.46970 0.59330 0.55870
H5 H 0.08340 0.37690 0.61430
H6 H 0.14440 0.49450 0.59960
H7 H 0.34440 0.22640 0.62970
H8 H 0.20890 0.23290 0.66380
H9 H 0.33170 0.27290 0.70230
H10 H -0.08490 0.53460 0.77300
H11 H -0.09390 0.65480 0.74190
H12 H 0.03070 0.61800 0.78010
#END
