
#######################################################################
#
#                 Cambridge Crystallographic Data Centre
#                                CCDC
#
#######################################################################
#
# If this CIF has been generated from an entry in the Cambridge
# Structural Database, then it will include bibliographic, chemical,
# crystal, experimental, refinement or atomic coordinate data resulting
# from the CCDC's data processing and validation procedures.
#
#######################################################################

data_CSD_CIF_CIKVEZ
_audit_creation_date 2013-11-20
_audit_creation_method CSD-ConQuest-V1
_database_code_CSD CIKVEZ
_database_code_depnum_ccdc_archive 'CCDC 843488'
_chemical_formula_sum 'C21 H22 N2 O5'
_chemical_formula_moiety
;
C21 H22 N2 O5
;
_journal_coden_Cambridge 214
_journal_volume 144
_journal_year 2013
_journal_page_first 1031
_journal_name_full 'Monatsh.Chem. '
loop_
_publ_author_name
"Hui Liu"
"Qian Sun"
"Zhengquan Zhou"
"Juanjuan Liu"
"Jing Yang"
"Cunde Wang"
_chemical_name_systematic
;
Methyl 4,6-bis(4-methylphenyl)-5-nitro-2-oxopiperidine-3-carboxylate
;
_chemical_name_common
;
methyl 5-nitro-2-oxo-4,6-dip-tolylpiperidine-3-carboxylate
;
_cell_volume   1036.991
_exptl_crystal_density_diffrn 1.225
_exptl_crystal_description 'block'
_diffrn_ambient_temperature 296
#These two values have been output from a single CSD field.
_refine_ls_R_factor_gt 0.0479
_refine_ls_wR_factor_gt 0.0479
_symmetry_cell_setting triclinic
_symmetry_space_group_name_H-M 'P -1'
_symmetry_Int_Tables_number 2
loop_
_symmetry_equiv_pos_site_id
_symmetry_equiv_pos_as_xyz
1 x,y,z
2 -x,-y,-z
_cell_length_a 5.8533(13)
_cell_length_b 13.005(3)
_cell_length_c 13.861(3)
_cell_angle_alpha 87.054(2)
_cell_angle_beta 81.856(2)
_cell_angle_gamma 83.443(2)
_cell_formula_units_Z 2
loop_
_atom_type_symbol
_atom_type_radius_bond
C 0.68
H 0.23
N 0.68
O 0.68
loop_
_atom_site_label
_atom_site_type_symbol
_atom_site_fract_x
_atom_site_fract_y
_atom_site_fract_z
O1 O 1.0439(2) 0.51829(8) 0.11905(8)
C1 C 0.9768(2) 0.26922(10) 0.24980(9)
H1 H 1.13440 0.24230 0.22210
N1 N 0.7967(3) 0.12247(10) 0.19609(9)
C2 C 0.8066(2) 0.23751(10) 0.18529(10)
H2 H 0.65190 0.27340 0.20520
C3 C 0.9577(2) 0.38824(10) 0.24217(10)
H3 H 0.80450 0.41530 0.27460
N2 N 0.9341(2) 0.37240(9) 0.06883(8)
H4 H 0.92940 0.40220 0.01220
O2 O 1.3424(2) 0.40012(10) 0.27874(11)
C4 C 0.8856(3) 0.26428(10) 0.07722(10)
H5 H 1.03080 0.22090 0.05660
C5 C 0.9331(2) 0.22883(10) 0.35495(10)
C6 C 0.9844(2) 0.43062(10) 0.13709(10)
O3 O 0.9753(3) 0.06602(9) 0.17435(10)
C7 C 0.7116(3) 0.24562(11) 0.01022(10)
C8 C 1.1402(3) 0.43050(11) 0.29129(11)
C9 C 0.8579(3) 0.15166(13) 0.54918(11)
O4 O 0.6095(3) 0.09199(11) 0.22605(11)
C10 C 1.1093(3) 0.17102(13) 0.39670(12)
H6 H 1.25480 0.15720 0.36030
C11 C 0.6823(3) 0.20954(14) 0.50699(11)
H7 H 0.53660 0.22300 0.54340
C12 C 0.7192(3) 0.24794(13) 0.41143(11)
H8 H 0.59850 0.28710 0.38500
O5 O 1.0468(3) 0.50721(11) 0.34852(11)
C13 C 0.5567(3) 0.32518(13) -0.01984(12)
H9 H 0.55180 0.39090 0.00430
C14 C 0.7083(3) 0.14820(12) -0.02523(12)
H10 H 0.81060 0.09340 -0.00600
C15 C 0.4042(3) 0.21065(15) -0.12081(12)
C16 C 0.4094(3) 0.30779(15) -0.08532(13)
H11 H 0.31070 0.36300 -0.10620
C17 C 1.0705(3) 0.13333(14) 0.49298(13)
H12 H 1.19150 0.09490 0.51980
C18 C 0.5555(4) 0.13089(14) -0.08881(13)
H13 H 0.55460 0.06440 -0.11040
C19 C 0.8181(4) 0.11020(18) 0.65334(13)
H14 H 0.78830 0.16690 0.69670
H15 H 0.95360 0.06650 0.66770
H16 H 0.68720 0.07080 0.66180
C20 C 0.2401(4) 0.1953(2) -0.19319(16)
H17 H 0.31630 0.20600 -0.25840
H18 H 0.10390 0.24400 -0.18170
H19 H 0.19650 0.12610 -0.18520
C21 C 1.2099(7) 0.5595(3) 0.3927(3)
H20 H 1.29420 0.51060 0.43260
H21 H 1.12680 0.61370 0.43240
H22 H 1.31650 0.58860 0.34250
#END
