
#######################################################################
#
#                 Cambridge Crystallographic Data Centre
#                                CCDC
#
#######################################################################
#
# If this CIF has been generated from an entry in the Cambridge
# Structural Database, then it will include bibliographic, chemical,
# crystal, experimental, refinement or atomic coordinate data resulting
# from the CCDC's data processing and validation procedures.
#
#######################################################################

data_CSD_CIF_CINVIE
_audit_creation_date 1985-03-28
_audit_creation_method CSD-ConQuest-V1
_database_code_CSD CINVIE
_database_code_depnum_ccdc_archive 'CCDC 1125891'
_chemical_formula_sum 'C10 H11 N3 O8'
_chemical_formula_moiety
;
C10 H11 N3 O8
;
_journal_coden_Cambridge 388
_journal_volume 19
_journal_year 1983
_journal_page_first 2489
_journal_name_full 'Zh.Org.Khim.(Russ.)(Russ.J.Org.Chem.) '
loop_
_publ_author_name
"S.S.Mochalov"
"V.V.Karpova"
"D.S.Yufit"
"M.M.Stirnova"
"Yu.T.Struchkov"
"Yu.S.Shabarov"
_chemical_name_systematic
;
4-Cyclopropyl-2-hydroxy-2-methyl-3,4,6-trinitro-cyclohex-5-en-1-one
;
_chemical_melting_point 387.15
_cell_volume   1250.721
_exptl_crystal_density_diffrn 1.6
_exptl_special_details
;
The esd's for C-H bonds should be .04 and not .004. N3-C6 was given as N3-C2. 
O2-H(O2)=.93 not .73. z(C9)=.6818 not .6618
;
_diffrn_ambient_temperature ?
_diffrn_special_details
;
The study was carried out at room temperature,in the range 283-303K

;
#These two values have been output from a single CSD field.
_refine_ls_R_factor_gt 0.044
_refine_ls_wR_factor_gt 0.044
_symmetry_cell_setting monoclinic
_symmetry_space_group_name_H-M 'P 21/n'
_symmetry_Int_Tables_number 14
loop_
_symmetry_equiv_pos_site_id
_symmetry_equiv_pos_as_xyz
1 x,y,z
2 1/2-x,1/2+y,1/2-z
3 -x,-y,-z
4 -1/2+x,-1/2-y,-1/2+z
_cell_length_a 6.799(1)
_cell_length_b 13.256(1)
_cell_length_c 14.087(2)
_cell_angle_alpha 90
_cell_angle_beta 99.90(1)
_cell_angle_gamma 90
_cell_formula_units_Z 4
loop_
_atom_type_symbol
_atom_type_radius_bond
C 0.68
H 0.23
N 0.68
O 0.68
loop_
_atom_site_label
_atom_site_type_symbol
_atom_site_fract_x
_atom_site_fract_y
_atom_site_fract_z
O1 O 0.1815(4) 0.5248(2) 0.7295(2)
O2 O 0.3232(4) 0.4893(2) 0.5660(2)
O3 O -0.0013(3) 0.6656(2) 0.5414(2)
O4 O 0.0994(4) 0.6256(2) 0.4093(2)
O5 O 0.2549(4) 0.8392(2) 0.4363(2)
O6 O 0.1426(4) 0.9068(2) 0.5556(2)
O7 O 0.1315(4) 0.7870(2) 0.8490(2)
O8 O 0.2833(4) 0.6478(2) 0.8925(2)
N1 N 0.1297(4) 0.6515(2) 0.4934(2)
N2 N 0.2413(4) 0.8447(2) 0.5216(2)
N3 N 0.2228(4) 0.7117(2) 0.8334(2)
C1 C 0.2671(5) 0.5936(2) 0.6992(2)
C2 C 0.3851(5) 0.5779(2) 0.6166(2)
C3 C 0.3440(4) 0.6651(2) 0.5441(2)
C4 C 0.3730(4) 0.7703(2) 0.5898(2)
C5 C 0.3112(4) 0.7777(2) 0.6873(2)
C6 C 0.2716(4) 0.6979(2) 0.7354(2)
C7 C 0.5861(5) 0.8080(2) 0.5912(2)
C8 C 0.6429(6) 0.9141(3) 0.6220(3)
C9 C 0.7293(5) 0.8272(3) 0.6818(3)
C10 C 0.6079(5) 0.5708(3) 0.6621(3)
H1 H 0.286(5) 0.433(3) 0.598(3)
H2 H 0.415(5) 0.659(3) 0.495(3)
H3 H 0.305(5) 0.839(3) 0.711(3)
H4 H 0.641(5) 0.779(3) 0.542(3)
H5 H 0.547(5) 0.957(3) 0.645(3)
H6 H 0.727(5) 0.953(3) 0.581(3)
H7 H 0.862(5) 0.807(3) 0.681(3)
H8 H 0.690(5) 0.816(3) 0.742(3)
H9 H 0.618(5) 0.505(3) 0.699(3)
H10 H 0.654(5) 0.636(3) 0.698(3)
H11 H 0.679(5) 0.567(3) 0.612(3)
#END
