
#######################################################################
#
#                 Cambridge Crystallographic Data Centre
#                                CCDC
#
#######################################################################
#
# If this CIF has been generated from an entry in the Cambridge
# Structural Database, then it will include bibliographic, chemical,
# crystal, experimental, refinement or atomic coordinate data resulting
# from the CCDC's data processing and validation procedures.
#
#######################################################################

data_CSD_CIF_CIPBIN
_audit_creation_date 2008-01-31
_audit_creation_method CSD-ConQuest-V1
_database_code_CSD CIPBIN
_database_code_depnum_ccdc_archive 'CCDC 607674'
_chemical_formula_sum 'C13 H15 N1 O2'
_chemical_formula_moiety
;
C13 H15 N1 O2
;
_journal_coden_Cambridge 1078
_journal_year 2007
_journal_name_full 'CSD Communication(Private Communication) '
loop_
_publ_author_name
"J.Dieker"
"R.Frohlich"
"B.Wibbeling"
"E.-U.Wurthwein"
_chemical_name_systematic
;
4-(Ethoxyimino)-1-phenylpent-1-en-3-one
;
_cell_volume   2394.271
_exptl_crystal_colour 'colorless'
_exptl_crystal_density_diffrn 1.205
_exptl_special_details
;
contribution from Organisch-Chemisches Institut, der Universitat Munster, 
Corrensstrasse 40, D-48149 Munster, Bundesrepublik, Germany
;
_exptl_crystal_description 'needle'
_diffrn_ambient_temperature 223
#These two values have been output from a single CSD field.
_refine_ls_R_factor_gt 0.0547
_refine_ls_wR_factor_gt 0.0547
_symmetry_cell_setting monoclinic
_symmetry_space_group_name_H-M 'C 2/c'
_symmetry_Int_Tables_number 15
loop_
_symmetry_equiv_pos_site_id
_symmetry_equiv_pos_as_xyz
1 x,y,z
2 1/2+x,1/2+y,z
3 -x,y,1/2-z
4 1/2-x,1/2+y,1/2-z
5 -x,-y,-z
6 -1/2-x,-1/2-y,-z
7 x,-y,-1/2+z
8 -1/2+x,-1/2-y,-1/2+z
_cell_length_a 17.706(1)
_cell_length_b 5.812(1)
_cell_length_c 23.458(1)
_cell_angle_alpha 90
_cell_angle_beta 97.33(1)
_cell_angle_gamma 90
_cell_formula_units_Z 8
loop_
_atom_type_symbol
_atom_type_radius_bond
C 0.68
H 0.23
N 0.68
O 0.68
loop_
_atom_site_label
_atom_site_type_symbol
_atom_site_fract_x
_atom_site_fract_y
_atom_site_fract_z
C1 C 0.82276(11) -0.6677(4) 0.41941(9)
H1 H 0.80150 -0.73880 0.44960
C2 C 0.78934(12) -0.4767(4) 0.39934(10)
H2 H 0.80650 -0.40170 0.36790
C3 C 0.72534(12) -0.3796(4) 0.42565(9)
C4 C 0.68715(11) -0.1671(3) 0.40168(9)
N1 N 0.70334(10) -0.1119(3) 0.35202(8)
O1 O 0.66261(8) 0.0806(2) 0.33089(6)
C5 C 0.68639(15) 0.1426(4) 0.27702(10)
H3 H 0.68170 0.01040 0.25090
H4 H 0.73970 0.19230 0.28250
C6 C 0.63664(15) 0.3332(5) 0.25265(11)
H5 H 0.64940 0.37290 0.21490
H6 H 0.64420 0.46630 0.27770
H7 H 0.58380 0.28500 0.24950
O2 O 0.70228(9) -0.4677(3) 0.46735(7)
C7 C 0.63355(13) -0.0428(4) 0.43435(10)
H8 H 0.58370 -0.03680 0.41180
H9 H 0.65200 0.11240 0.44250
H10 H 0.62980 -0.12280 0.47020
C8 C 0.88864(11) -0.7837(4) 0.40078(9)
C9 C 0.91505(13) -0.9819(4) 0.42906(11)
H11 H 0.89020 -1.03880 0.45920
C10 C 0.97741(15) -1.0976(5) 0.41371(12)
H12 H 0.99450 -1.23230 0.43350
C11 C 1.01450(14) -1.0187(4) 0.37015(11)
H13 H 1.05700 -1.09820 0.35980
C12 C 0.98922(13) -0.8225(5) 0.34163(10)
H14 H 1.01440 -0.76750 0.31140
C13 C 0.92712(12) -0.7045(4) 0.35672(10)
H15 H 0.91070 -0.56920 0.33690
#END
