
#######################################################################
#
#                 Cambridge Crystallographic Data Centre
#                                CCDC
#
#######################################################################
#
# If this CIF has been generated from an entry in the Cambridge
# Structural Database, then it will include bibliographic, chemical,
# crystal, experimental, refinement or atomic coordinate data resulting
# from the CCDC's data processing and validation procedures.
#
#######################################################################

data_CSD_CIF_CIPFOY
_audit_creation_date 2013-11-21
_audit_creation_method CSD-ConQuest-V1
_database_code_CSD CIPFOY
_database_code_depnum_ccdc_archive 'CCDC 787340'
_chemical_formula_sum 'C32 H30 N2 O8'
_chemical_formula_moiety
;
C32 H30 N2 O8
;
_journal_coden_Cambridge 1350
_journal_volume 16
_journal_year 2014
_journal_page_first 3730
_journal_name_full 'CrystEngComm '
loop_
_publ_author_name
"T.Gruber"
"F.Eimann"
"M.Gruner"
"L.G.Heinz"
"W.Seichter"
"E.Weber"
_chemical_name_systematic
;
25,26,27,28-Tetramethoxy-5,17-dinitrocalix(4)arene
;
_cell_volume  13994.326
_exptl_crystal_colour 'colorless'
_exptl_crystal_density_diffrn 1.219
_exptl_crystal_description 'irregular'
_diffrn_ambient_temperature 93
#These two values have been output from a single CSD field.
_refine_ls_R_factor_gt 0.0496
_refine_ls_wR_factor_gt 0.0496
_symmetry_cell_setting rhombohedral
_symmetry_space_group_name_H-M 'R -3'
_symmetry_Int_Tables_number 148
loop_
_symmetry_equiv_pos_site_id
_symmetry_equiv_pos_as_xyz
1 x,y,z
2 -y,x-y,z
3 -x+y,-x,z
4 2/3+x,1/3+y,1/3+z
5 2/3-y,1/3+x-y,1/3+z
6 2/3-x+y,1/3-x,1/3+z
7 1/3+x,2/3+y,2/3+z
8 1/3-y,2/3+x-y,2/3+z
9 1/3-x+y,2/3-x,2/3+z
10 -x,-y,-z
11 y,-x+y,-z
12 x-y,x,-z
13 -2/3-x,-1/3-y,-1/3-z
14 -2/3+y,-1/3-x+y,-1/3-z
15 -2/3+x-y,-1/3+x,-1/3-z
16 -1/3-x,-2/3-y,-2/3-z
17 -1/3+y,-2/3-x+y,-2/3-z
18 -1/3+x-y,-2/3+x,-2/3-z
_cell_length_a 39.4134(4)
_cell_length_b 39.4134(4)
_cell_length_c 10.4024(2)
_cell_angle_alpha 90
_cell_angle_beta 90
_cell_angle_gamma 120
_cell_formula_units_Z 18
loop_
_atom_type_symbol
_atom_type_radius_bond
C 0.68
H 0.23
N 0.68
O 0.68
loop_
_atom_site_label
_atom_site_type_symbol
_atom_site_fract_x
_atom_site_fract_y
_atom_site_fract_z
O1 O 0.52834(3) 0.17718(3) -0.12673(9)
O2 O 0.55804(5) 0.17669(5) 0.46393(12)
O3 O 0.52246(5) 0.20393(5) 0.46377(12)
O4 O 0.43889(3) 0.12517(3) -0.03823(9)
O5 O 0.43157(4) 0.10087(4) 0.51573(11)
O6 O 0.46404(4) 0.07021(4) 0.52093(11)
O7 O 0.39816(3) 0.03024(3) -0.03944(10)
O8 O 0.49475(3) 0.08805(3) -0.04423(9)
N1 N 0.53856(4) 0.18849(4) 0.40782(12)
N2 N 0.44346(3) 0.08078(4) 0.46516(11)
C1 C 0.57232(4) 0.14675(4) 0.00027(14)
H1 H 0.56710 0.14610 -0.09310
H2 H 0.60100 0.16210 0.01350
C2 C 0.55287(4) 0.16626(4) 0.07051(13)
C3 C 0.55507(4) 0.16905(4) 0.20378(14)
H3 H 0.56990 0.16020 0.25050
C4 C 0.53534(4) 0.18502(4) 0.26766(13)
C5 C 0.51273(4) 0.19756(4) 0.20421(13)
H4 H 0.49920 0.20780 0.25110
C6 C 0.51007(4) 0.19497(4) 0.07104(13)
C7 C 0.53094(4) 0.18003(4) 0.00549(13)
C8 C 0.55834(5) 0.21099(5) -0.19069(15)
H5 H 0.55700 0.23420 -0.16420
H6 H 0.55460 0.20750 -0.28390
H7 H 0.58400 0.21450 -0.16790
C9 C 0.48373(4) 0.20657(4) 0.00062(14)
H8 H 0.49340 0.23480 0.01450
H9 H 0.48470 0.20230 -0.09280
C10 C 0.44176(4) 0.18297(4) 0.04715(13)
C11 C 0.42331(5) 0.19990(4) 0.11410(14)
H10 H 0.43660 0.22750 0.12700
C12 C 0.38568(5) 0.17687(5) 0.16206(15)
H11 H 0.37290 0.18880 0.20400
C13 C 0.36655(4) 0.13624(5) 0.14886(14)
H12 H 0.34130 0.12060 0.18520
C14 C 0.38426(4) 0.11852(4) 0.08293(13)
C15 C 0.42123(4) 0.14247(4) 0.02898(13)
C16 C 0.43019(6) 0.12133(6) -0.17271(15)
H13 H 0.40180 0.10870 -0.18490
H14 H 0.43990 0.10530 -0.21270
H15 H 0.44290 0.14730 -0.21260
C17 C 0.36679(4) 0.07453(4) 0.07855(15)
H16 H 0.36340 0.06570 -0.01200
H17 H 0.34070 0.06160 0.11990
C18 C 0.39330(4) 0.06282(4) 0.14781(13)
C19 C 0.40505(4) 0.07578(4) 0.27267(13)
H18 H 0.39510 0.09010 0.31650
C20 C 0.43153(4) 0.06754(4) 0.33270(12)
C21 C 0.44736(4) 0.04742(4) 0.27151(13)
H19 H 0.46590 0.04280 0.31460
C22 C 0.43594(4) 0.03409(4) 0.14679(13)
C23 C 0.40854(4) 0.04162(4) 0.08648(13)
C24 C 0.36609(6) -0.00837(5) -0.05404(18)
H20 H 0.37280 -0.02710 -0.01680
H21 H 0.36020 -0.01410 -0.14560
H22 H 0.34310 -0.01060 -0.00980
C25 C 0.45568(4) 0.01483(4) 0.07725(14)
H23 H 0.44760 -0.01100 0.11630
H24 H 0.44760 0.01070 -0.01420
C26 C 0.49964(4) 0.04071(4) 0.08661(13)
C27 C 0.52283(5) 0.03093(5) 0.16156(14)
H25 H 0.51140 0.00600 0.20230
C28 C 0.56263(5) 0.05742(5) 0.17705(15)
H26 H 0.57850 0.05000 0.22480
C29 C 0.57924(4) 0.09442(5) 0.12323(14)
H27 H 0.60620 0.11260 0.13670
C30 C 0.55676(4) 0.10538(4) 0.04939(13)
C31 C 0.51732(4) 0.07757(4) 0.02849(13)
C32 C 0.49523(5) 0.08060(5) -0.17894(15)
H28 H 0.52010 0.08200 -0.20110
H29 H 0.49250 0.10030 -0.22840
H30 H 0.47340 0.05440 -0.19940
#END
