
#######################################################################
#
#                 Cambridge Crystallographic Data Centre
#                                CCDC
#
#######################################################################
#
# If this CIF has been generated from an entry in the Cambridge
# Structural Database, then it will include bibliographic, chemical,
# crystal, experimental, refinement or atomic coordinate data resulting
# from the CCDC's data processing and validation procedures.
#
#######################################################################

data_CSD_CIF_CIPNUL
_audit_creation_date 2008-01-31
_audit_creation_method CSD-ConQuest-V1
_database_code_CSD CIPNUL
_database_code_depnum_ccdc_archive 'CCDC 665912'
_chemical_formula_sum 'C26 H31 N1 O6'
_chemical_formula_moiety
;
C26 H31 N1 O6
;
_journal_coden_Cambridge 35
_journal_volume 72
_journal_year 2007
_journal_page_first 7427
_journal_name_full 'J.Org.Chem. '
loop_
_publ_author_name
"S.Tripathi"
"B.G.Roy"
"M.G.B.Drew"
"B.Achari"
"S.B.Mandal"
_chemical_name_systematic
;
(2'S,3'R,3'aR,6'aR,4aR,6aS)-6-benzyl-3'-benzyloxy-6-aza-3,5-dioxabicyclo[4.2.1
]nonane-spiro-[1.2]-1',4',6'-trioxo-bicyclo[3.3.0]octane
;
_chemical_name_common
;
8-Benzyl-6'-(benzyloxy)-2',2'-dimethyldihydro-3a'H-spiro(4,7-dioxa-8-azabicycl
o(4.2.1)nonane-2,5'-furo(2,3-d)(1,3)dioxole)
;
_cell_volume   2239.553
_exptl_crystal_colour 'black'
_exptl_crystal_density_diffrn 1.345
_exptl_crystal_description 'needle'
_diffrn_ambient_temperature 150
#These two values have been output from a single CSD field.
_refine_ls_R_factor_gt 0.0616
_refine_ls_wR_factor_gt 0.0616
loop_
_citation_database_id_CSD
_citation_special_details
LIQGEZ "is a stereoisomer of this entry"
_symmetry_cell_setting orthorhombic
_symmetry_space_group_name_H-M 'P 21 21 21'
_symmetry_Int_Tables_number 19
loop_
_symmetry_equiv_pos_site_id
_symmetry_equiv_pos_as_xyz
1 x,y,z
2 1/2-x,-y,1/2+z
3 -x,1/2+y,1/2-z
4 1/2+x,1/2-y,-z
_cell_length_a 5.6097(5)
_cell_length_b 18.1997(13)
_cell_length_c 21.936(2)
_cell_angle_alpha 90
_cell_angle_beta 90
_cell_angle_gamma 90
_cell_formula_units_Z 4
loop_
_atom_type_symbol
_atom_type_radius_bond
C 0.68
H 0.23
N 0.68
O 0.68
loop_
_atom_site_label
_atom_site_type_symbol
_atom_site_fract_x
_atom_site_fract_y
_atom_site_fract_z
C1 C -0.0277(4) 1.16510(14) 0.00747(12)
H1 H 0.00790 1.20910 -0.01660
C2 C -0.1617(5) 1.11003(13) -0.03125(12)
H2 H -0.32980 1.12240 -0.03030
H3 H -0.10800 1.11490 -0.07310
C3 C -0.1977(4) 1.01981(13) 0.04795(10)
H4 H -0.26040 0.97020 0.05020
H5 H -0.32320 1.05320 0.06060
C4 C 0.0128(4) 1.02690(12) 0.0923(1)
C5 C 0.1168(4) 1.10435(12) 0.09556(11)
H6 H 0.25000 1.10510 0.12450
C6 C 0.2004(4) 1.13366(13) 0.03379(11)
H7 H 0.32110 1.17140 0.03860
H8 H 0.26300 1.09450 0.00840
C7 C 0.0332(4) 1.21966(13) 0.14829(12)
H9 H 0.12500 1.24910 0.11990
H10 H 0.13990 1.20270 0.18010
C8 C 0.1933(4) 0.91073(12) 0.09996(10)
H11 H 0.34910 0.89400 0.11470
C9 C -0.0833(4) 0.81750(12) 0.09057(11)
C10 C 0.0116(4) 0.91489(12) 0.15253(11)
H12 H 0.08070 0.89860 0.19130
C11 C -0.0634(4) 0.99568(11) 0.15473(10)
H13 H -0.23630 0.99990 0.16010
C12 C -0.0552(4) 1.02243(14) 0.25965(11)
H14 H -0.08370 0.97040 0.26610
H15 H -0.20820 1.04730 0.25940
C13 C -0.1608(4) 1.26621(12) 0.17614(11)
C14 C -0.1944(5) 1.33912(13) 0.16008(12)
H16 H -0.09750 1.36020 0.13050
C15 C -0.3715(5) 1.38128(13) 0.18775(12)
H17 H -0.39260 1.43010 0.17660
C16 C -0.5150(4) 1.35029(14) 0.23165(12)
H18 H -0.63210 1.37840 0.25060
C17 C -0.4851(5) 1.27744(14) 0.24761(13)
H19 H -0.58280 1.25650 0.27710
C18 C -0.3102(5) 1.23554(14) 0.21980(12)
H20 H -0.29240 1.18640 0.23040
C19 C -0.2784(4) 0.79460(13) 0.04776(12)
H21 H -0.21570 0.76100 0.01810
H22 H -0.34090 0.83710 0.02740
H23 H -0.40350 0.77110 0.07040
C20 C 0.0333(5) 0.75304(13) 0.12348(12)
H24 H 0.10690 0.72110 0.09420
H25 H -0.08560 0.72630 0.14580
H26 H 0.15200 0.77110 0.15120
C21 C 0.0944(4) 1.05196(12) 0.31072(11)
C22 C 0.0284(4) 1.03731(13) 0.37081(11)
H27 H -0.11310 1.01240 0.37860
C23 C 0.1705(5) 1.05930(14) 0.41906(11)
H28 H 0.12440 1.04940 0.45900
C24 C 0.3830(5) 1.09630(14) 0.40750(12)
H29 H 0.48060 1.11050 0.43970
C25 C 0.4483(4) 1.11189(13) 0.34865(12)
H30 H 0.58920 1.13730 0.34120
C26 C 0.3053(4) 1.08999(12) 0.29987(11)
H31 H 0.35100 1.10080 0.26010
O1 O -0.1743(3) 1.18450(9) 0.05979(8)
O2 O -0.1357(3) 1.03541(9) -0.01332(7)
O3 O 0.2100(3) 0.98058(8) 0.07357(7)
O4 O 0.0925(3) 0.85894(8) 0.05847(7)
O5 O -0.1805(3) 0.86885(8) 0.13367(7)
O6 O 0.0588(3) 1.03272(9) 0.20256(7)
N1 N -0.0691(3) 1.15575(10) 0.11602(9)
#END
