
#######################################################################
#
#                 Cambridge Crystallographic Data Centre
#                                CCDC
#
#######################################################################
#
# If this CIF has been generated from an entry in the Cambridge
# Structural Database, then it will include bibliographic, chemical,
# crystal, experimental, refinement or atomic coordinate data resulting
# from the CCDC's data processing and validation procedures.
#
#######################################################################

data_CSD_CIF_CIPQID
_audit_creation_date 2013-11-22
_audit_creation_method CSD-ConQuest-V1
_database_code_CSD CIPQID
_database_code_depnum_ccdc_archive 'CCDC 936170'
_chemical_formula_sum 'C25 H22 N2 O3'
_chemical_formula_moiety
;
C25 H22 N2 O3
;
_journal_coden_Cambridge 1336
_journal_volume 15
_journal_year 2013
_journal_page_first 5654
_journal_name_full 'Org.Lett. '
loop_
_publ_author_name
"A.Sinai"
"A.Meszaros"
"T.Gati"
"V.Kudar"
"A.Pallo"
"Z.Novak"
_chemical_name_systematic
;
(Z)-2-t-Butyl-4-((4-nitrophenyl)(phenyl)methylene)-4H-benzo[d][1,3]oxazine
;
_chemical_melting_point 416
_cell_volume   2086.075
_exptl_crystal_colour 'yellow'
_exptl_crystal_density_diffrn 1.269
_exptl_crystal_description 'Prism'
_exptl_crystal_preparation 'acetone/hexane'
_diffrn_ambient_temperature 93
#These two values have been output from a single CSD field.
_refine_ls_R_factor_gt 0.0713
_refine_ls_wR_factor_gt 0.0713
_symmetry_cell_setting monoclinic
_symmetry_space_group_name_H-M 'P 21/c'
_symmetry_Int_Tables_number 14
loop_
_symmetry_equiv_pos_site_id
_symmetry_equiv_pos_as_xyz
1 x,y,z
2 -x,1/2+y,1/2-z
3 -x,-y,-z
4 x,-1/2-y,-1/2+z
_cell_length_a 5.9898(1)
_cell_length_b 19.4167(5)
_cell_length_c 18.1253(4)
_cell_angle_alpha 90
_cell_angle_beta 98.273(1)
_cell_angle_gamma 90
_cell_formula_units_Z 4
loop_
_atom_type_symbol
_atom_type_radius_bond
C 0.68
H 0.23
N 0.68
O 0.68
loop_
_atom_site_label
_atom_site_type_symbol
_atom_site_fract_x
_atom_site_fract_y
_atom_site_fract_z
O1 O -0.6484(5) 0.18895(17) 0.13180(17)
O2 O -0.7016(5) 0.14164(17) 0.23569(17)
O3 O 0.2570(4) 0.24215(17) 0.43895(14)
N1 N 0.6131(6) 0.2296(2) 0.50886(17)
N2 N -0.5965(6) 0.1796(2) 0.1987(2)
C1 C 0.4212(8) 0.2053(3) 0.4827(2)
C2 C 0.3035(7) 0.3072(3) 0.4101(2)
C3 C 0.4970(7) 0.3416(3) 0.4522(2)
C4 C 0.5428(7) 0.4124(3) 0.4504(2)
H1 H 0.43850 0.44190 0.42130
C5 C 0.7359(7) 0.4402(2) 0.4901(2)
H2 H 0.76240 0.48830 0.48790
C6 C 0.8912(7) 0.3985(3) 0.5331(2)
H3 H 1.02520 0.41770 0.55950
C7 C 0.8499(7) 0.3294(3) 0.5371(2)
H4 H 0.95670 0.30070 0.56630
C8 C 0.6531(7) 0.3003(3) 0.4989(2)
C9 C 0.1654(7) 0.3272(2) 0.3476(2)
C10 C -0.0280(7) 0.2861(2) 0.3113(2)
C11 C -0.1576(7) 0.2435(2) 0.3497(2)
H5 H -0.11790 0.23810 0.40200
C12 C -0.3435(7) 0.2087(2) 0.3133(2)
H6 H -0.43170 0.18020 0.34040
C13 C -0.3987(7) 0.2162(2) 0.2373(2)
C14 C -0.2756(7) 0.2574(2) 0.1974(2)
H7 H -0.31620 0.26210 0.14500
C15 C -0.0908(6) 0.2924(2) 0.2341(2)
H8 H -0.00490 0.32120 0.20650
C16 C 0.2099(7) 0.3924(3) 0.3099(2)
C17 C 0.0572(7) 0.4472(3) 0.3071(2)
H9 H -0.07460 0.44280 0.33030
C18 C 0.0965(8) 0.5075(3) 0.2710(3)
H10 H -0.00690 0.54460 0.27080
C19 C 0.2839(9) 0.5150(3) 0.2350(2)
H11 H 0.30760 0.55630 0.20910
C20 C 0.4362(7) 0.4610(3) 0.2374(2)
H12 H 0.56730 0.46580 0.21390
C21 C 0.3992(7) 0.4001(2) 0.2738(2)
H13 H 0.50380 0.36330 0.27420
C22 C 0.3424(7) 0.1345(2) 0.5006(2)
C23 C 0.2285(7) 0.0977(2) 0.4300(2)
H14 H 0.33800 0.09170 0.39520
H15 H 0.10130 0.12540 0.40630
H16 H 0.17360 0.05250 0.44340
C24 C 0.1742(7) 0.1431(2) 0.5562(2)
H17 H 0.04330 0.16940 0.53280
H18 H 0.24700 0.16770 0.60040
H19 H 0.12490 0.09760 0.57090
C25 C 0.5429(7) 0.0920(2) 0.5370(2)
H20 H 0.49000 0.04690 0.55140
H21 H 0.61720 0.11610 0.58140
H22 H 0.65040 0.08590 0.50150
#END
