
#######################################################################
#
#                 Cambridge Crystallographic Data Centre
#                                CCDC
#
#######################################################################
#
# If this CIF has been generated from an entry in the Cambridge
# Structural Database, then it will include bibliographic, chemical,
# crystal, experimental, refinement or atomic coordinate data resulting
# from the CCDC's data processing and validation procedures.
#
#######################################################################

data_CSD_CIF_CIPRAW
_audit_creation_date 2013-11-22
_audit_creation_method CSD-ConQuest-V1
_database_code_CSD CIPRAW
_database_code_depnum_ccdc_archive 'CCDC 943364'
_chemical_formula_sum 'C22 H22 N4 O6'
_chemical_formula_moiety
;
C22 H22 N4 O6
;
_journal_coden_Cambridge 1336
_journal_volume 15
_journal_year 2013
_journal_page_first 5670
_journal_name_full 'Org.Lett. '
loop_
_publ_author_name
"Hongbo Zhang"
"Xin Ning"
"Hang Hang"
"Xuyan Ru"
"Haichen Li"
"Yonghong Li"
"Lizhong Wang"
"Xiao Zhang"
"Shujing Yu"
"Yuanyuan Qiao"
"Xin Wang"
"Peng George Wang"
_chemical_name_systematic
;
3-Hydroxy-3-(3-hydroxybenzyl)-1,4-dimethyl-6-((4-nitro-1H-indol-3-yl)methyl)pi
perazine-2,5-dione
;
_cell_volume   2027.802
_exptl_crystal_density_diffrn 1.436
_diffrn_ambient_temperature 113
#These two values have been output from a single CSD field.
_refine_ls_R_factor_gt 0.0483
_refine_ls_wR_factor_gt 0.0483
_symmetry_cell_setting monoclinic
_symmetry_space_group_name_H-M 'C 2'
_symmetry_Int_Tables_number 5
loop_
_symmetry_equiv_pos_site_id
_symmetry_equiv_pos_as_xyz
1 x,y,z
2 -x,y,-z
3 1/2+x,1/2+y,z
4 1/2-x,1/2+y,-z
_cell_length_a 14.897(3)
_cell_length_b 6.8317(14)
_cell_length_c 20.380(4)
_cell_angle_alpha 90
_cell_angle_beta 102.13(3)
_cell_angle_gamma 90
_cell_formula_units_Z 4
loop_
_atom_type_symbol
_atom_type_radius_bond
C 0.68
H 0.23
N 0.68
O 0.68
loop_
_atom_site_label
_atom_site_type_symbol
_atom_site_fract_x
_atom_site_fract_y
_atom_site_fract_z
O1 O 0.52877(15) 0.0755(4) 0.57836(11)
O2 O 0.53157(15) 0.3913(4) 0.58226(12)
O3 O 0.59097(15) 0.1217(3) 0.73629(11)
O4 O 0.40456(14) 0.7327(3) 0.80233(11)
O5 O 0.40958(14) 0.0972(3) 0.75539(10)
H1 H 0.41470 -0.01050 0.77580
O6 O 0.84011(13) 0.4142(3) 0.90391(11)
H2 H 0.84420 0.33280 0.87380
N1 N 0.49118(18) 0.2357(4) 0.58240(13)
N2 N 0.22743(19) 0.5485(4) 0.63086(15)
N3 N 0.57513(16) 0.4496(4) 0.74223(12)
N4 N 0.42221(16) 0.4081(4) 0.79967(12)
C1 C 0.39442(19) 0.2381(5) 0.58514(15)
C2 C 0.3441(2) 0.0775(5) 0.55772(15)
H3 H 0.37410 -0.03000 0.54190
C3 C 0.2497(2) 0.0720(5) 0.55304(15)
H4 H 0.21560 -0.03870 0.53360
C4 C 0.2057(2) 0.2241(5) 0.57610(16)
H5 H 0.14100 0.22200 0.57240
C5 C 0.2578(2) 0.3815(5) 0.60499(16)
C6 C 0.3010(2) 0.6638(5) 0.65341(18)
H6 H 0.29730 0.78770 0.67380
C7 C 0.3811(2) 0.5841(5) 0.64386(15)
C8 C 0.35482(19) 0.3978(5) 0.61159(14)
C9 C 0.4695(2) 0.6873(4) 0.67232(15)
H7 H 0.45730 0.82960 0.67350
H8 H 0.51250 0.66640 0.64200
C10 C 0.5169(2) 0.6187(4) 0.74442(15)
H9 H 0.55730 0.72800 0.76590
C11 C 0.54985(19) 0.2652(4) 0.75122(14)
C12 C 0.4742(2) 0.2301(4) 0.79045(15)
C13 C 0.4452(2) 0.5868(4) 0.78540(14)
C14 C 0.6624(2) 0.4833(5) 0.72163(17)
H10 H 0.65480 0.45600 0.67360
H11 H 0.70950 0.39650 0.74710
H12 H 0.68120 0.61980 0.73050
C15 C 0.3427(2) 0.3848(5) 0.83160(17)
H13 H 0.28900 0.44950 0.80410
H14 H 0.35670 0.44410 0.87640
H15 H 0.32960 0.24520 0.83550
C16 C 0.5239(2) 0.1507(4) 0.86045(16)
H16 H 0.47840 0.13010 0.88890
H17 H 0.55270 0.02300 0.85480
C17 C 0.5969(2) 0.2933(4) 0.89485(14)
C18 C 0.5741(2) 0.4464(5) 0.93373(16)
H18 H 0.51350 0.45660 0.94120
C19 C 0.6401(2) 0.5839(6) 0.96155(16)
H19 H 0.62450 0.68680 0.98840
C20 C 0.7284(2) 0.5717(5) 0.95034(15)
H20 H 0.77300 0.66720 0.96870
C21 C 0.7512(2) 0.4204(5) 0.91240(15)
C22 C 0.6862(2) 0.2817(4) 0.88532(14)
H21 H 0.70310 0.17680 0.85980
H22 H 0.1677(9) 0.566(5) 0.6318(16)
#END
