
#######################################################################
#
#                 Cambridge Crystallographic Data Centre
#                                CCDC
#
#######################################################################
#
# If this CIF has been generated from an entry in the Cambridge
# Structural Database, then it will include bibliographic, chemical,
# crystal, experimental, refinement or atomic coordinate data resulting
# from the CCDC's data processing and validation procedures.
#
#######################################################################

data_CSD_CIF_CIPWED
_audit_creation_date 1985-03-28
_audit_creation_method CSD-ConQuest-V1
_database_code_CSD CIPWED
_chemical_formula_sum 'C21 H17 N3 O1'
_chemical_formula_moiety
;
C21 H17 N3 O1
;
_journal_coden_Cambridge 188
_journal_year 1984
_journal_page_first 1281
_journal_name_full 'J.Chem.Soc.,Perkin Trans.2 '
loop_
_publ_author_name
"L.Greci"
"P.Sgarabotto"
_chemical_name_systematic
;
2-(Phenyl-N-oxidoiminomethyl)-3-phenylaminoindole
;
_chemical_melting_point 460.15
_cell_volume    834.133
_exptl_crystal_colour 'red'
_exptl_crystal_density_diffrn 1.3
_diffrn_ambient_temperature ?
_diffrn_special_details
;
The study was carried out at room temperature,in the range 283-303K

;
#These two values have been output from a single CSD field.
_refine_ls_R_factor_gt 0.044
_refine_ls_wR_factor_gt 0.044
_symmetry_cell_setting triclinic
_symmetry_space_group_name_H-M 'P -1'
_symmetry_Int_Tables_number 2
loop_
_symmetry_equiv_pos_site_id
_symmetry_equiv_pos_as_xyz
1 x,y,z
2 -x,-y,-z
_cell_length_a 11.982(4)
_cell_length_b 11.462(4)
_cell_length_c 6.253(2)
_cell_angle_alpha 83.4(1)
_cell_angle_beta 80.1(1)
_cell_angle_gamma 95.7(1)
_cell_formula_units_Z 2
loop_
_atom_type_symbol
_atom_type_radius_bond
C 0.68
H 0.23
N 0.68
O 0.68
loop_
_atom_site_label
_atom_site_type_symbol
_atom_site_fract_x
_atom_site_fract_y
_atom_site_fract_z
O1 O 0.4881(2) 0.1277(2) 0.4253(3)
N1 N 0.6439(2) 0.0098(2) 0.1831(4)
N2 N 0.4819(2) 0.1911(2) 0.2409(4)
N3 N 0.6893(2) 0.1543(2) -0.3689(4)
C1 C 0.6176(2) 0.0893(2) 0.0239(4)
C2 C 0.6911(2) 0.0849(2) -0.1719(4)
C3 C 0.7676(2) 0.0031(2) -0.1279(4)
C4 C 0.8612(3) -0.0364(3) -0.2547(5)
C5 C 0.9196(3) -0.1162(3) -0.1553(6)
C6 C 0.8867(3) -0.1588(3) 0.0674(6)
C7 C 0.7955(2) -0.1237(3) 0.1963(5)
C8 C 0.7362(2) -0.0418(2) 0.0951(4)
C9 C 0.5353(2) 0.1724(2) 0.0536(5)
C10 C 0.4153(2) 0.2885(2) 0.2564(5)
C11 C 0.3548(3) 0.3212(4) 0.1001(7)
C12 C 0.2944(4) 0.4164(4) 0.1191(9)
C13 C 0.2936(4) 0.4776(4) 0.2924(9)
C14 C 0.3524(4) 0.4433(4) 0.4482(8)
C15 C 0.4141(3) 0.3471(3) 0.4338(6)
C16 C 0.7824(2) 0.2315(2) -0.4851(4)
C17 C 0.8761(2) 0.2615(3) -0.3949(5)
C18 C 0.9650(3) 0.3406(3) -0.5138(6)
C19 C 0.9623(3) 0.3897(3) -0.7230(6)
C20 C 0.8696(3) 0.3596(3) -0.8133(6)
C21 C 0.7795(3) 0.2811(3) -0.6953(5)
H1 H 0.610(3) -0.004(3) 0.335(5)
H2 H 0.626(3) 0.143(3) -0.441(5)
H3 H 0.883(3) -0.008(3) -0.403(5)
H4 H 0.985(3) -0.150(3) -0.242(5)
H5 H 0.932(3) -0.220(3) 0.131(5)
H6 H 0.770(3) -0.152(3) 0.360(5)
H7 H 0.531(2) 0.231(2) -0.072(5)
H8 H 0.351(3) 0.277(4) -0.023(7)
H9 H 0.256(4) 0.443(4) -0.008(7)
H10 H 0.247(3) 0.541(4) 0.312(6)
H11 H 0.354(3) 0.483(3) 0.573(6)
H12 H 0.464(3) 0.325(3) 0.541(6)
H13 H 0.882(2) 0.225(3) -0.259(5)
H14 H 1.033(3) 0.363(3) -0.450(5)
H15 H 1.028(3) 0.445(3) -0.800(6)
H16 H 0.866(3) 0.397(3) -0.972(6)
H17 H 0.717(3) 0.259(3) -0.760(5)
#END
