
#######################################################################
#
#                 Cambridge Crystallographic Data Centre
#                                CCDC
#
#######################################################################
#
# If this CIF has been generated from an entry in the Cambridge
# Structural Database, then it will include bibliographic, chemical,
# crystal, experimental, refinement or atomic coordinate data resulting
# from the CCDC's data processing and validation procedures.
#
#######################################################################

data_CSD_CIF_CIQJES
_audit_creation_date 2008-01-31
_audit_creation_method CSD-ConQuest-V1
_database_code_CSD CIQJES
_database_code_depnum_ccdc_archive 'CCDC 672962'
_chemical_formula_sum 'C9 H11 N3 O2'
_chemical_formula_moiety
;
C9 H11 N3 O2
;
_journal_coeditor_code "IUCr CI2513"
_journal_coden_Cambridge 1370
_journal_volume 63
_journal_year 2007
_journal_page_first o4738
_journal_name_full 'Acta Crystallogr.,Sect.E:Struct.Rep.Online '
loop_
_publ_author_name
"A.Ozek"
"O.Buyukgungor"
"H.Ilkimen"
"C.Yenikaya"
_chemical_name_systematic
;
(1Z,2E)-2-(Hydroxyimino)-N-p-tolylacetamide oxime
;
_chemical_melting_point 445
_cell_volume    975.555
_exptl_crystal_colour 'pale yellow'
_exptl_crystal_density_diffrn 1.315
_exptl_crystal_description 'Prism'
_exptl_crystal_preparation 'dimethylformamide'
_diffrn_ambient_temperature 296
#These two values have been output from a single CSD field.
_refine_ls_R_factor_gt 0.0318
_refine_ls_wR_factor_gt 0.0318
_symmetry_cell_setting monoclinic
_symmetry_space_group_name_H-M 'C c'
_symmetry_Int_Tables_number 9
loop_
_symmetry_equiv_pos_site_id
_symmetry_equiv_pos_as_xyz
1 x,y,z
2 x,-y,1/2+z
3 1/2+x,1/2+y,z
4 1/2+x,1/2-y,1/2+z
_cell_length_a 9.0031(12)
_cell_length_b 19.352(3)
_cell_length_c 6.9742(9)
_cell_angle_alpha 90
_cell_angle_beta 126.596(9)
_cell_angle_gamma 90
_cell_formula_units_Z 4
loop_
_atom_type_symbol
_atom_type_radius_bond
C 0.68
H 0.23
N 0.68
O 0.68
loop_
_atom_site_label
_atom_site_type_symbol
_atom_site_fract_x
_atom_site_fract_y
_atom_site_fract_z
C1 C 0.5005(3) 0.26817(10) 0.3450(4)
C2 C 0.4256(3) 0.33277(12) 0.3234(4)
H1 H 0.37110 0.34180 0.39970
C3 C 0.4312(4) 0.38366(12) 0.1898(5)
H2 H 0.38150 0.42690 0.17900
C4 C 0.5096(4) 0.37194(13) 0.0704(4)
C5 C 0.5878(3) 0.30800(13) 0.0987(4)
H3 H 0.64330 0.29910 0.02370
C6 C 0.5859(3) 0.25656(11) 0.2356(4)
H4 H 0.64200 0.21420 0.25410
C7 C 0.5105(5) 0.42754(17) -0.0808(6)
H5 H 0.43180 0.46490 -0.10190
H6 H 0.46580 0.40870 -0.23390
H7 H 0.63430 0.44430 -0.00280
C8 C 0.4705(3) 0.14747(10) 0.4385(3)
C9 C 0.4235(3) 0.11959(10) 0.2112(3)
H8 H 0.35450 0.14520 0.07080
N1 N 0.4869(3) 0.21670(9) 0.4769(3)
H9 H 0.48930 0.23080 0.59570
N2 N 0.4806(3) 0.05983(9) 0.2152(3)
N3 N 0.4826(3) 0.10245(9) 0.5830(3)
O1 O 0.4217(3) 0.03900(8) -0.0112(3)
O2 O 0.5278(3) 0.13481(9) 0.7934(3)
H10 H 0.456(4) -0.0057(18) 0.009(5)
H11 H 0.497(5) 0.1034(19) 0.860(6)
#END
