
#######################################################################
#
#                 Cambridge Crystallographic Data Centre
#                                CCDC
#
#######################################################################
#
# If this CIF has been generated from an entry in the Cambridge
# Structural Database, then it will include bibliographic, chemical,
# crystal, experimental, refinement or atomic coordinate data resulting
# from the CCDC's data processing and validation procedures.
#
#######################################################################

data_CSD_CIF_CIRLEV
_audit_creation_date 2008-04-21
_audit_creation_method CSD-ConQuest-V1
_database_code_CSD CIRLEV
_database_code_depnum_ccdc_archive 'CCDC 601708'
_chemical_formula_sum 'C30 H24 N2 O3'
_chemical_formula_moiety
;
C30 H24 N2 O3
;
_journal_coden_Cambridge 16
_journal_volume 63
_journal_year 2007
_journal_page_first 12655
_journal_name_full 'Tetrahedron '
loop_
_publ_author_name
"G.Huelgas"
"S.Bernes"
"M.Sanchez"
"L.Quintero"
"E.Juaristi"
"C.A.de Parrodi"
"P.J.Walsh"
_chemical_name_systematic
;
(R^a^,S,E)-N-(Anthracen-9-ylmethyl)-2-nitro-N-(\a-phenylethyl)benzamide
;
_chemical_melting_point 434.95
_cell_volume   1169.427
_exptl_crystal_colour 'yellow'
_exptl_crystal_density_diffrn 1.308
_exptl_special_details
;
Melting point range 434.95-435.15K
Absolute configuration

;
_exptl_crystal_description 'prism'
_exptl_crystal_preparation 'hexanes/ethyl acetate'
_diffrn_ambient_temperature 296
#These two values have been output from a single CSD field.
_refine_ls_R_factor_gt 0.0337
_refine_ls_wR_factor_gt 0.0337
_symmetry_cell_setting monoclinic
_symmetry_space_group_name_H-M 'P 21'
_symmetry_Int_Tables_number 4
loop_
_symmetry_equiv_pos_site_id
_symmetry_equiv_pos_as_xyz
1 x,y,z
2 -x,1/2+y,-z
_cell_length_a 12.0572(12)
_cell_length_b 6.1558(13)
_cell_length_c 15.8216(19)
_cell_angle_alpha 90
_cell_angle_beta 95.225(7)
_cell_angle_gamma 90
_cell_formula_units_Z 2
loop_
_atom_type_symbol
_atom_type_radius_bond
C 0.68
H 0.23
N 0.68
O 0.68
loop_
_atom_site_label
_atom_site_type_symbol
_atom_site_fract_x
_atom_site_fract_y
_atom_site_fract_z
C1 C 1.01967(15) 0.3614(4) 0.16167(11)
C2 C 1.12904(15) 0.2993(4) 0.18656(12)
C3 C 1.21988(18) 0.4227(5) 0.16629(15)
H1 H 1.29200 0.37860 0.18410
C4 C 1.2018(2) 0.6108(5) 0.11948(16)
H2 H 1.26210 0.69290 0.10520
C5 C 1.0949(2) 0.6774(5) 0.09378(14)
H3 H 1.08290 0.80460 0.06250
C6 C 1.00523(17) 0.5534(4) 0.11487(12)
H4 H 0.93340 0.59960 0.09730
N1 N 1.15117(15) 0.1005(4) 0.23672(11)
O1 O 1.24665(14) 0.0326(4) 0.24683(14)
O2 O 1.07341(14) 0.0081(4) 0.26581(11)
C7 C 0.91661(14) 0.2249(3) 0.1700(1)
O3 O 0.89523(12) 0.0800(3) 0.11812(9)
N2 N 0.84624(11) 0.2898(2) 0.22739(8)
C8 C 0.88103(14) 0.4467(3) 0.29625(11)
H5 H 0.96210 0.45870 0.29690
C9 C 0.83601(19) 0.6758(3) 0.27872(14)
H6 H 0.85210 0.72050 0.22300
H7 H 0.87080 0.77430 0.32010
H8 H 0.75690 0.67660 0.28210
C10 C 0.85939(13) 0.3578(3) 0.38341(11)
C11 C 0.79994(17) 0.4738(4) 0.43997(12)
H9 H 0.76540 0.60360 0.42280
C12 C 0.79170(19) 0.3973(5) 0.52185(14)
H10 H 0.75330 0.47830 0.55940
C13 C 0.83958(18) 0.2034(5) 0.54791(13)
H11 H 0.83320 0.15250 0.60260
C14 C 0.89707(17) 0.0852(4) 0.49256(13)
H12 H 0.92910 -0.04700 0.50960
C15 C 0.90745(15) 0.1630(4) 0.41084(11)
H13 H 0.94740 0.08260 0.37410
C16 C 0.73549(13) 0.1851(3) 0.22437(11)
H14 H 0.73170 0.09750 0.27500
H15 H 0.72660 0.08880 0.17570
C17 C 0.64051(13) 0.3480(3) 0.21843(11)
C18 C 0.62972(14) 0.4957(3) 0.14974(11)
C19 C 0.69364(16) 0.4770(4) 0.07801(11)
H16 H 0.74080 0.35860 0.07400
C20 C 0.68614(19) 0.6304(5) 0.01571(14)
H17 H 0.72850 0.61510 -0.03020
C21 C 0.6153(2) 0.8123(5) 0.01947(16)
H18 H 0.61280 0.91720 -0.02300
C22 C 0.55135(19) 0.8339(4) 0.08458(16)
H19 H 0.50400 0.95280 0.08590
C23 C 0.55503(15) 0.6770(4) 0.15171(13)
C24 C 0.48892(16) 0.6961(4) 0.21873(15)
H20 H 0.44320 0.81710 0.22140
C25 C 0.48926(15) 0.5391(4) 0.28200(13)
C26 C 0.41352(18) 0.5525(6) 0.34616(16)
H21 H 0.36540 0.67040 0.34700
C27 C 0.4111(2) 0.3966(7) 0.40533(17)
H22 H 0.36080 0.40700 0.44630
C28 C 0.4841(2) 0.2172(6) 0.40601(15)
H23 H 0.48000 0.10870 0.44650
C29 C 0.56049(17) 0.2013(5) 0.34773(13)
H24 H 0.61000 0.08510 0.35080
C30 C 0.56620(14) 0.3592(4) 0.28208(12)
#END
