
#######################################################################
#
#                 Cambridge Crystallographic Data Centre
#                                CCDC
#
#######################################################################
#
# If this CIF has been generated from an entry in the Cambridge
# Structural Database, then it will include bibliographic, chemical,
# crystal, experimental, refinement or atomic coordinate data resulting
# from the CCDC's data processing and validation procedures.
#
#######################################################################

data_CSD_CIF_CITTAB
_audit_creation_date 2008-04-21
_audit_creation_method CSD-ConQuest-V1
_database_code_CSD CITTAB
_database_code_depnum_ccdc_archive 'CCDC 652122'
_chemical_formula_sum 'C25 H29 N1 O6'
_chemical_formula_moiety
;
C25 H29 N1 O6
;
_journal_coden_Cambridge 182
_journal_year 2007
_journal_page_first 5143
_journal_name_full 'Chem.Commun. '
loop_
_publ_author_name
"T.Hashimoto"
"Y.Naganawa"
"T.Kano"
"K.Maruoka"
_chemical_name_systematic
;
t-Butyl 
trans-2-isopropyl-2-(4-nitrobenzoyloxymethyl)-1-phenylcyclopropanecarboxylate
;
_cell_volume   2286.285
_exptl_crystal_colour 'colorless'
_exptl_crystal_density_diffrn 1.277
_exptl_crystal_preparation 'hexane/ether'
_diffrn_ambient_temperature 298.1
#These two values have been output from a single CSD field.
_refine_ls_R_factor_gt 0.0506
_refine_ls_wR_factor_gt 0.0506
_symmetry_cell_setting monoclinic
_symmetry_space_group_name_H-M 'P 21/n'
_symmetry_Int_Tables_number 14
loop_
_symmetry_equiv_pos_site_id
_symmetry_equiv_pos_as_xyz
1 x,y,z
2 1/2-x,1/2+y,1/2-z
3 -x,-y,-z
4 -1/2+x,-1/2-y,-1/2+z
_cell_length_a 11.040(3)
_cell_length_b 7.235(2)
_cell_length_c 28.628(7)
_cell_angle_alpha 90
_cell_angle_beta 91.016(12)
_cell_angle_gamma 90
_cell_formula_units_Z 4
loop_
_atom_type_symbol
_atom_type_radius_bond
C 0.68
H 0.23
N 0.68
O 0.68
loop_
_atom_site_label
_atom_site_type_symbol
_atom_site_fract_x
_atom_site_fract_y
_atom_site_fract_z
O1 O 0.72704(10) -0.11223(15) 0.17656(3)
O2 O 0.16443(11) 0.29683(17) 0.13529(4)
O3 O 0.30026(10) 0.18433(15) 0.08483(3)
O4 O 0.74567(10) -0.14209(16) 0.09852(4)
O5 O -0.24978(12) 0.35755(18) -0.04746(4)
O6 O -0.13012(13) 0.1998(2) -0.09159(4)
N1 N -0.15473(14) 0.2752(2) -0.05440(5)
C1 C 0.13674(15) 0.1999(2) 0.01078(5)
C2 C 0.19110(15) 0.2490(2) 0.09636(5)
C3 C 0.10364(15) 0.2535(2) 0.05576(5)
C4 C 0.38620(15) 0.1659(2) 0.12402(5)
C5 C 0.68349(15) -0.1188(2) 0.13257(5)
C6 C 0.05166(16) 0.2054(2) -0.02543(5)
C7 C 0.85882(15) -0.1304(2) 0.18757(5)
C8 C 0.47641(14) -0.1698(2) 0.17058(5)
C9 C 0.41998(15) -0.1676(2) 0.25202(5)
C10 C 0.33793(16) -0.3098(2) 0.24391(5)
C11 C 0.39401(15) -0.3128(2) 0.16326(5)
C12 C 0.49339(15) -0.0966(2) 0.08170(5)
C13 C -0.06406(16) 0.2664(2) -0.01598(5)
C14 C 0.32492(16) -0.3823(2) 0.19937(6)
C15 C 0.54839(15) -0.0927(2) 0.13041(5)
C16 C 0.50239(15) 0.0875(2) 0.10542(5)
C17 C -0.09937(15) 0.3212(2) 0.02804(5)
C18 C -0.01399(15) 0.3131(2) 0.06409(5)
C19 C 0.48825(15) -0.0976(2) 0.21584(5)
C20 C 0.86253(17) -0.1110(2) 0.24039(5)
C21 C 0.59435(15) 0.2293(2) 0.08796(5)
C22 C 0.64823(16) 0.3490(2) 0.12716(6)
C23 C 0.53798(17) 0.3510(2) 0.04940(6)
C24 C 0.92900(16) 0.0252(2) 0.16483(5)
C25 C 0.90386(16) -0.3205(2) 0.17271(6)
H1 H 0.21540 0.16080 0.00520
H2 H 0.35360 0.08420 0.14750
H3 H 0.40120 0.28560 0.13820
H4 H 0.07200 0.16880 -0.05540
H5 H 0.42930 -0.11880 0.28190
H6 H 0.29210 -0.35610 0.26820
H7 H 0.38490 -0.36310 0.13350
H8 H 0.54740 -0.11980 0.05600
H9 H 0.41340 -0.15050 0.07790
H10 H 0.27000 -0.47750 0.19360
H11 H -0.17780 0.36210 0.03330
H12 H -0.03550 0.34780 0.09410
H13 H 0.54250 -0.00160 0.22170
H14 H 0.81790 -0.21040 0.25410
H15 H 0.82690 0.00480 0.24900
H16 H 0.94510 -0.11500 0.25140
H17 H 0.66120 0.16040 0.07410
H18 H 0.68350 0.27100 0.15090
H19 H 0.58550 0.42290 0.14050
H20 H 0.70950 0.42820 0.11470
H21 H 0.50530 0.27390 0.02500
H22 H 0.59900 0.43050 0.03690
H23 H 0.47440 0.42470 0.06220
H24 H 0.92530 0.01100 0.13150
H25 H 1.01200 0.02110 0.17540
H26 H 0.89410 0.14180 0.17330
H27 H 0.90070 -0.32960 0.13930
H28 H 0.85340 -0.41430 0.18590
H29 H 0.98590 -0.33730 0.18360
#END
