
#######################################################################
#
#                 Cambridge Crystallographic Data Centre
#                                CCDC
#
#######################################################################
#
# If this CIF has been generated from an entry in the Cambridge
# Structural Database, then it will include bibliographic, chemical,
# crystal, experimental, refinement or atomic coordinate data resulting
# from the CCDC's data processing and validation procedures.
#
#######################################################################

data_CSD_CIF_CIVTUW
_audit_creation_date 1987-06-12
_audit_creation_method CSD-ConQuest-V1
_database_code_CSD CIVTUW
_chemical_formula_sum 'C13 H5 N3 O8'
_chemical_formula_moiety
;
C13 H5 N3 O8
;
_journal_coden_Cambridge 41
_journal_volume 31
_journal_year 1986
_journal_page_first 113
_journal_name_full 'Kristallografiya(Russ.)(Crystallogr.Rep.) '
loop_
_publ_author_name
"E.G.Popova"
"L.A.Chetkina"
"V.K.Bel'skii"
"A.M.Andrievskii"
"A.N.Poplavskii"
"K.M.Dyumaev"
_chemical_name_systematic
;
3,8,9-Trinitro-5H-dibenzo(b,d)pyran-5-one
;
_chemical_melting_point 512.65
_cell_volume   1291.650
_exptl_crystal_colour 'yellow'
_exptl_crystal_density_diffrn 1.7
_exptl_special_details
;
Melting point range 512.65-513.65K
orthorhombic polymorph

;
_diffrn_ambient_temperature ?
_diffrn_special_details
;
The study was carried out at room temperature,in the range 283-303K

;
#These two values have been output from a single CSD field.
_refine_ls_R_factor_gt 0.029
_refine_ls_wR_factor_gt 0.029
_symmetry_cell_setting orthorhombic
_symmetry_space_group_name_H-M 'P 21 21 21'
_symmetry_Int_Tables_number 19
loop_
_symmetry_equiv_pos_site_id
_symmetry_equiv_pos_as_xyz
1 x,y,z
2 1/2+x,1/2-y,-z
3 -x,1/2+y,1/2-z
4 1/2-x,-y,1/2+z
_cell_length_a 5.027(1)
_cell_length_b 10.379(2)
_cell_length_c 24.756(7)
_cell_angle_alpha 90
_cell_angle_beta 90
_cell_angle_gamma 90
_cell_formula_units_Z 4
loop_
_atom_type_symbol
_atom_type_radius_bond
C 0.68
N 0.68
O 0.68
loop_
_atom_site_label
_atom_site_type_symbol
_atom_site_fract_x
_atom_site_fract_y
_atom_site_fract_z
C1 C 0.8291(10) 0.6735(4) 0.1759(2)
C2 C 0.906(1) 0.5530(4) 0.1930(2)
C3 C 1.1045(11) 0.4866(4) 0.1650(2)
C4 C 1.2284(10) 0.5401(4) 0.1214(2)
C5 C 1.2270(9) 0.8327(4) 0.0409(2)
C6 C 0.9849(10) 1.0355(4) 0.0507(2)
C7 C 0.7955(11) 1.1069(4) 0.0766(2)
C8 C 0.6428(11) 1.0599(4) 0.1189(2)
C9 C 0.684(1) 0.9359(4) 0.1365(2)
C10 C 0.8799(9) 0.8606(4) 0.1120(2)
C11 C 0.9464(10) 0.7309(4) 0.1314(2)
C12 C 1.1492(9) 0.6639(4) 0.1053(2)
C13 C 1.0248(8) 0.9087(4) 0.0683(2)
O1 O 0.5822(10) 0.5537(3) 0.2584(2)
O2 O 0.8993(9) 0.4143(4) 0.2659(1)
O3 O 1.0202(9) 0.2694(3) 0.1716(2)
O4 O 1.4068(8) 0.3343(4) 0.1949(2)
O5 O 1.2924(6) 0.7136(3) 0.0632(1)
O6 O 1.3512(7) 0.8640(3) 0.0015(1)
O7 O 0.9337(8) 1.2949(3) 0.0347(1)
O8 O 0.5584(8) 1.2975(3) 0.0770(1)
N1 N 0.7883(10) 0.5032(4) 0.2429(1)
N2 N 1.1842(9) 0.3521(3) 0.1793(2)
N3 N 0.7591(10) 1.2449(3) 0.0613(1)
#END
