
#######################################################################
#
#                 Cambridge Crystallographic Data Centre
#                                CCDC
#
#######################################################################
#
# If this CIF has been generated from an entry in the Cambridge
# Structural Database, then it will include bibliographic, chemical,
# crystal, experimental, refinement or atomic coordinate data resulting
# from the CCDC's data processing and validation procedures.
#
#######################################################################

data_CSD_CIF_CIWMUS
_audit_creation_date 2014-04-16
_audit_creation_method CSD-ConQuest-V1
_database_code_CSD CIWMUS
_database_code_depnum_ccdc_archive 'CCDC 962853'
_chemical_formula_sum 'C4 H2 N8 O6'
_chemical_formula_moiety
;
C4 H2 N8 O6
;
_journal_coden_Cambridge 1220
_journal_volume 20
_journal_year 2014
_journal_page_first 6401
_journal_name_full 'Chem.-Eur.J. '
loop_
_publ_author_name
"D.Fischer"
"T.M.Klapotke"
"M.Reymann"
"J.Stierstorfer"
_chemical_name_systematic
;
N,N'-dinitro-3,3'-bi-1,2,5-oxadiazole-4,4'-diamine
;
_cell_volume    442.904
_exptl_crystal_colour 'colorless'
_exptl_crystal_density_diffrn 1.936
_exptl_special_details
;
P21/n polymorph

;
_exptl_crystal_description 'needle'
_diffrn_ambient_temperature 100
#These two values have been output from a single CSD field.
_refine_ls_R_factor_gt 0.0268
_refine_ls_wR_factor_gt 0.0268
_symmetry_cell_setting monoclinic
_symmetry_space_group_name_H-M 'P 21/n'
_symmetry_Int_Tables_number 14
loop_
_symmetry_equiv_pos_site_id
_symmetry_equiv_pos_as_xyz
1 x,y,z
2 1/2-x,1/2+y,1/2-z
3 -x,-y,-z
4 -1/2+x,-1/2-y,-1/2+z
_cell_length_a 5.7455(3)
_cell_length_b 11.8741(6)
_cell_length_c 6.6321(3)
_cell_angle_alpha 90
_cell_angle_beta 101.796(5)
_cell_angle_gamma 90
_cell_formula_units_Z 2
loop_
_atom_type_symbol
_atom_type_radius_bond
C 0.68
H 0.23
N 0.68
O 0.68
loop_
_atom_site_label
_atom_site_type_symbol
_atom_site_fract_x
_atom_site_fract_y
_atom_site_fract_z
O1 O 0.25612(15) 0.48159(7) 0.08441(13)
O2 O 0.06768(17) 0.37788(8) 0.64912(14)
O3 O 0.22754(17) 0.21841(8) 0.76956(14)
N1 N 0.39927(18) 0.54399(9) 0.23728(16)
N2 N 0.19666(19) 0.37976(8) 0.15971(16)
N3 N 0.2935(2) 0.28220(9) 0.47345(16)
N4 N 0.19074(18) 0.29472(9) 0.64279(15)
C1 C 0.3026(2) 0.37836(10) 0.35276(18)
C2 C 0.4282(2) 0.48141(10) 0.40209(18)
H1 H 0.400(3) 0.2355(14) 0.492(3)
O1B O 0.74388(15) 0.51841(7) 0.91559(13)
O2B O 0.93232(17) 0.62212(8) 0.35088(14)
O3B O 0.77246(17) 0.78159(8) 0.23044(14)
N1B N 0.60073(18) 0.45601(9) 0.76272(16)
N2B N 0.80334(19) 0.62024(8) 0.84029(16)
N3B N 0.7065(2) 0.71780(9) 0.52655(16)
N4B N 0.80926(18) 0.70528(9) 0.35721(15)
C1B C 0.6974(2) 0.62164(10) 0.64724(18)
C2B C 0.5718(2) 0.51859(10) 0.59791(18)
H1B H 0.600(3) 0.7645(14) 0.508(3)
#END
