
#######################################################################
#
#                 Cambridge Crystallographic Data Centre
#                                CCDC
#
#######################################################################
#
# If this CIF has been generated from an entry in the Cambridge
# Structural Database, then it will include bibliographic, chemical,
# crystal, experimental, refinement or atomic coordinate data resulting
# from the CCDC's data processing and validation procedures.
#
#######################################################################

data_CSD_CIF_CIWMOL
_audit_creation_date 2008-04-21
_audit_creation_method CSD-ConQuest-V1
_database_code_CSD CIWMOL
_database_code_depnum_ccdc_archive 'CCDC 675625'
_chemical_formula_sum 'C10 H8 N4 O4'
_chemical_formula_moiety
;
C10 H8 N4 O4
;
_journal_coden_Cambridge 1336
_journal_volume 9
_journal_year 2007
_journal_page_first 5231
_journal_name_full 'Org.Lett. '
loop_
_publ_author_name
"M.Shimizu"
"M.Sodeoka"
_chemical_name_systematic
;
Benzyl 3-nitro-1H-1,2,4-triazole-1-carboxylate
;
_chemical_melting_point 385.15
_cell_volume   1044.614
_exptl_crystal_colour 'colorless'
_exptl_crystal_density_diffrn 1.578
_exptl_special_details
;
Melts with decomposition.

;
_exptl_crystal_description 'plate'
_exptl_crystal_preparation 'ethyl acetate'
_diffrn_ambient_temperature 90
#These two values have been output from a single CSD field.
_refine_ls_R_factor_gt 0.0386
_refine_ls_wR_factor_gt 0.0386
_symmetry_cell_setting monoclinic
_symmetry_space_group_name_H-M 'P 21/n'
_symmetry_Int_Tables_number 14
loop_
_symmetry_equiv_pos_site_id
_symmetry_equiv_pos_as_xyz
1 x,y,z
2 1/2-x,1/2+y,1/2-z
3 -x,-y,-z
4 -1/2+x,-1/2-y,-1/2+z
_cell_length_a 9.5223(2)
_cell_length_b 11.5082(3)
_cell_length_c 9.6990(3)
_cell_angle_alpha 90
_cell_angle_beta 100.6320(19)
_cell_angle_gamma 90
_cell_formula_units_Z 4
loop_
_atom_type_symbol
_atom_type_radius_bond
C 0.68
H 0.23
N 0.68
O 0.68
loop_
_atom_site_label
_atom_site_type_symbol
_atom_site_fract_x
_atom_site_fract_y
_atom_site_fract_z
O1 O 0.68913(8) -0.04676(6) 0.72733(8)
O2 O 0.82490(7) 0.11571(6) 0.73268(8)
O3 O 0.17085(8) 0.08918(7) 0.52660(9)
O4 O 0.17835(8) 0.27344(7) 0.47600(9)
N1 N 0.58944(9) 0.13147(7) 0.66127(9)
N2 N 0.45523(9) 0.08844(7) 0.61787(9)
N3 N 0.45917(10) 0.28638(8) 0.59754(10)
N4 N 0.23347(9) 0.18213(8) 0.52415(9)
C1 C 0.38583(11) 0.18508(8) 0.58195(11)
C2 C 0.58892(11) 0.24935(9) 0.64836(11)
H1 H 0.67060 0.29780 0.67260
C3 C 0.70539(11) 0.05478(9) 0.71073(10)
C4 C 0.95303(11) 0.04787(9) 0.78532(12)
H2 H 0.97060 -0.00780 0.71260
H3 H 0.93940 0.00310 0.86900
C5 C 1.07896(11) 0.12763(9) 0.82309(11)
C6 C 1.20761(11) 0.07821(9) 0.89057(11)
H4 H 1.21290 -0.00290 0.90880
C7 C 1.32767(11) 0.14756(10) 0.93096(12)
H5 H 1.41500 0.11360 0.97610
C8 C 1.32033(12) 0.26654(10) 0.90551(12)
H6 H 1.40220 0.31400 0.93410
C9 C 1.19267(12) 0.31576(9) 0.83800(12)
H7 H 1.18750 0.39700 0.82010
C10 C 1.07216(11) 0.24652(9) 0.79639(11)
H8 H 0.98540 0.28050 0.74980
#END
