
#######################################################################
#
#                 Cambridge Crystallographic Data Centre
#                                CCDC
#
#######################################################################
#
# If this CIF has been generated from an entry in the Cambridge
# Structural Database, then it will include bibliographic, chemical,
# crystal, experimental, refinement or atomic coordinate data resulting
# from the CCDC's data processing and validation procedures.
#
#######################################################################

data_CSD_CIF_CIWQIK
_audit_creation_date 2014-04-16
_audit_creation_method CSD-ConQuest-V1
_database_code_CSD CIWQIK
_database_code_depnum_ccdc_archive 'CCDC 962866'
_chemical_formula_sum 'C4 H4 N6 O2'
_chemical_formula_moiety
;
C4 H4 N6 O2
;
_journal_coden_Cambridge 1220
_journal_volume 20
_journal_year 2014
_journal_page_first 6401
_journal_name_full 'Chem.-Eur.J. '
loop_
_publ_author_name
"D.Fischer"
"T.M.Klapotke"
"M.Reymann"
"J.Stierstorfer"
_chemical_name_systematic
;
3,3'-Bi-1,2,5-oxadiazole-4,4'-diamine
;
_chemical_name_common
;
4,4-Diamino-3,3-bisfurazane
;
_cell_volume    156.060
_exptl_crystal_colour 'colorless'
_exptl_crystal_density_diffrn 1.789
_exptl_crystal_description 'platelet'
_diffrn_ambient_temperature 173
#These two values have been output from a single CSD field.
_refine_ls_R_factor_gt 0.0345
_refine_ls_wR_factor_gt 0.0345
_symmetry_cell_setting triclinic
_symmetry_space_group_name_H-M 'P -1'
_symmetry_Int_Tables_number 2
loop_
_symmetry_equiv_pos_site_id
_symmetry_equiv_pos_as_xyz
1 x,y,z
2 -x,-y,-z
_cell_length_a 5.1060(5)
_cell_length_b 5.1760(6)
_cell_length_c 6.1909(7)
_cell_angle_alpha 87.631(9)
_cell_angle_beta 78.121(9)
_cell_angle_gamma 77.084(9)
_cell_formula_units_Z 1
loop_
_atom_type_symbol
_atom_type_radius_bond
C 0.68
H 0.23
N 0.68
O 0.68
loop_
_atom_site_label
_atom_site_type_symbol
_atom_site_fract_x
_atom_site_fract_y
_atom_site_fract_z
H1 H 0.736(4) -0.581(4) 0.139(3)
H2 H 0.841(4) -0.464(4) 0.328(3)
O1 O 0.1424(2) 0.0417(2) 0.19950(16)
N1 N 0.7077(3) -0.4581(3) 0.2509(2)
N2 N 0.2177(3) 0.1473(2) 0.3705(2)
N3 N 0.3195(3) -0.2026(2) 0.1326(2)
C1 C 0.4327(3) -0.0220(3) 0.4119(2)
C2 C 0.5010(3) -0.2426(3) 0.2606(2)
H1A H 0.264(4) 0.581(4) 0.861(3)
H2A H 0.159(4) 0.464(4) 0.672(3)
O1A O 0.8576(2) -0.0417(2) 0.80050(16)
N1A N 0.2923(3) 0.4581(3) 0.7491(2)
N2A N 0.7823(3) -0.1473(2) 0.6295(2)
N3A N 0.6805(3) 0.2026(2) 0.8674(2)
C1A C 0.5673(3) 0.0220(3) 0.5881(2)
C2A C 0.4990(3) 0.2426(3) 0.7394(2)
#END
