
#######################################################################
#
#                 Cambridge Crystallographic Data Centre
#                                CCDC
#
#######################################################################
#
# If this CIF has been generated from an entry in the Cambridge
# Structural Database, then it will include bibliographic, chemical,
# crystal, experimental, refinement or atomic coordinate data resulting
# from the CCDC's data processing and validation procedures.
#
#######################################################################

data_CSD_CIF_CIWVAH
_audit_creation_date 2014-04-16
_audit_creation_method CSD-ConQuest-V1
_database_code_CSD CIWVAH
_database_code_depnum_ccdc_archive 'CCDC 962839'
_chemical_formula_sum 'C4 H2 N10 O7'
_chemical_formula_moiety
;
C4 H2 N10 O7
;
_journal_coden_Cambridge 1220
_journal_volume 20
_journal_year 2014
_journal_page_first 6401
_journal_name_full 'Chem.-Eur.J. '
loop_
_publ_author_name
"D.Fischer"
"T.M.Klapotke"
"M.Reymann"
"J.Stierstorfer"
_chemical_name_systematic
;
N-nitro-4-((4-(nitroamino)-1,2,5-oxadiazol-3-yl)-NNO-azoxy)-1,2,5-oxadiazol-3-
amine
;
_cell_volume   1048.100
_exptl_crystal_colour 'yellow'
_exptl_crystal_density_diffrn 1.915
_exptl_special_details
;
orthorhombic polymorph

;
_exptl_crystal_description 'platelet'
_diffrn_ambient_temperature 173
#These two values have been output from a single CSD field.
_refine_ls_R_factor_gt 0.0393
_refine_ls_wR_factor_gt 0.0393
_symmetry_cell_setting orthorhombic
_symmetry_space_group_name_H-M 'P 21 21 21'
_symmetry_Int_Tables_number 19
loop_
_symmetry_equiv_pos_site_id
_symmetry_equiv_pos_as_xyz
1 x,y,z
2 1/2-x,-y,1/2+z
3 1/2+x,1/2-y,-z
4 -x,1/2+y,1/2-z
_cell_length_a 7.6050(5)
_cell_length_b 8.4279(5)
_cell_length_c 16.3525(9)
_cell_angle_alpha 90
_cell_angle_beta 90
_cell_angle_gamma 90
_cell_formula_units_Z 4
loop_
_atom_type_symbol
_atom_type_radius_bond
C 0.68
H 0.23
N 0.68
O 0.68
loop_
_atom_site_label
_atom_site_type_symbol
_atom_site_fract_x
_atom_site_fract_y
_atom_site_fract_z
O1 O 0.4898(3) 0.1525(3) 0.33814(14)
O2 O 0.1214(4) 0.4613(3) 0.40858(14)
O3 O -0.0386(4) 0.5818(3) 0.31773(16)
O4 O 0.2621(4) 0.3504(3) 0.11649(14)
O5 O 0.2591(3) 0.1717(3) -0.10738(14)
O6 O 0.7377(3) -0.2947(3) -0.04835(15)
O7 O 0.6068(3) -0.1797(3) -0.15132(13)
N1 N 0.3662(4) 0.2691(4) 0.35750(17)
N2 N 0.4974(5) 0.1239(4) 0.25626(18)
N3 N 0.1628(4) 0.4180(3) 0.27521(17)
N4 N 0.0760(4) 0.4913(3) 0.33897(17)
N5 N 0.3461(3) 0.2314(3) 0.13878(15)
N6 N 0.4056(3) 0.1186(3) 0.09424(16)
N7 N 0.3822(4) 0.0485(4) -0.11957(16)
N8 N 0.2514(4) 0.2176(3) -0.02662(16)
N9 N 0.5669(4) -0.0908(3) -0.02453(17)
N10 N 0.6413(4) -0.1940(3) -0.07867(16)
C1 C 0.2962(4) 0.3091(4) 0.28757(19)
C2 C 0.3808(4) 0.2198(4) 0.22483(19)
C3 C 0.3651(4) 0.1265(4) 0.01149(18)
C4 C 0.4450(4) 0.0204(4) -0.04663(18)
H1 H 0.106(6) 0.447(5) 0.225(2)
H2 H 0.579(5) -0.110(5) 0.025(2)
#END
