
#######################################################################
#
#                 Cambridge Crystallographic Data Centre
#                                CCDC
#
#######################################################################
#
# If this CIF has been generated from an entry in the Cambridge
# Structural Database, then it will include bibliographic, chemical,
# crystal, experimental, refinement or atomic coordinate data resulting
# from the CCDC's data processing and validation procedures.
#
#######################################################################

data_CSD_CIF_CIWYEO
_audit_creation_date 2014-04-16
_audit_creation_method CSD-ConQuest-V1
_database_code_CSD CIWYEO
_database_code_depnum_ccdc_archive 'CCDC 978514'
_chemical_formula_sum 'C18 H15 N1 O2'
_chemical_formula_moiety
;
C18 H15 N1 O2
;
_journal_coden_Cambridge 119
_journal_volume 1065
_journal_year 2014
_journal_page_first 43
_journal_name_full 'J.Mol.Struct. '
loop_
_publ_author_name
"D.Vuk"
"K.Molcanov"
"I.Skoric"
_chemical_name_systematic
;
1-(4-(4-nitrophenyl)buta-1,3-dien-1-yl)-2-vinylbenzene
;
_cell_volume    713.174
_exptl_crystal_colour 'colorless'
_exptl_crystal_density_diffrn 1.291
_exptl_crystal_description 'prism'
_diffrn_ambient_temperature 293
#These two values have been output from a single CSD field.
_refine_ls_R_factor_gt 0.0366
_refine_ls_wR_factor_gt 0.0366
_symmetry_cell_setting monoclinic
_symmetry_space_group_name_H-M 'P n'
_symmetry_Int_Tables_number 7
loop_
_symmetry_equiv_pos_site_id
_symmetry_equiv_pos_as_xyz
1 x,y,z
2 1/2+x,-y,1/2+z
_cell_length_a 3.9700(1)
_cell_length_b 6.9998(3)
_cell_length_c 25.6681(8)
_cell_angle_alpha 90
_cell_angle_beta 91.062(3)
_cell_angle_gamma 90
_cell_formula_units_Z 2
loop_
_atom_type_symbol
_atom_type_radius_bond
C 0.68
H 0.23
N 0.68
O 0.68
loop_
_atom_site_label
_atom_site_type_symbol
_atom_site_fract_x
_atom_site_fract_y
_atom_site_fract_z
O1 O 0.3641(7) 0.8710(3) 0.23744(9)
O2 O 0.0752(7) 0.7612(3) 0.17278(8)
N1 N 0.1873(5) 0.7485(3) 0.21713(7)
C1 C 0.1070(6) 0.5785(3) 0.24720(8)
C2 C -0.0559(6) 0.4283(3) 0.22305(8)
H1 H -0.11570 0.43490 0.18790
C3 C -0.1293(6) 0.2674(3) 0.25192(8)
H2 H -0.23950 0.16540 0.23580
C4 C -0.0409(5) 0.2548(3) 0.30493(7)
C5 C 0.1241(6) 0.4102(3) 0.32795(8)
H3 H 0.18500 0.40490 0.36310
C6 C 0.1987(6) 0.5718(3) 0.29958(8)
H4 H 0.30870 0.67460 0.31530
C7 C -0.1266(6) 0.0819(3) 0.33353(9)
H5 H -0.26120 -0.00670 0.31600
C8 C -0.0323(6) 0.0374(4) 0.38219(8)
H6 H 0.10370 0.12440 0.40010
C9 C -0.1248(6) -0.1349(3) 0.40908(8)
H7 H -0.26230 -0.22170 0.39140
C10 C -0.0268(6) -0.1784(3) 0.45754(8)
H8 H 0.11020 -0.08910 0.47440
C11 C -0.1085(5) -0.3491(3) 0.48737(8)
C12 C -0.2670(6) -0.5062(3) 0.46373(8)
H9 H -0.31860 -0.50160 0.42830
C13 C -0.3486(7) -0.6670(4) 0.49153(11)
H10 H -0.45310 -0.76960 0.47480
C14 C -0.2751(8) -0.6759(4) 0.54437(10)
H11 H -0.33230 -0.78360 0.56350
C15 C -0.1167(7) -0.5240(4) 0.56837(9)
H12 H -0.06500 -0.53160 0.60380
C16 C -0.0311(5) -0.3589(3) 0.54125(8)
C17 C 0.1336(7) -0.1998(3) 0.56938(9)
H13 H 0.30650 -0.13630 0.55260
C18 C 0.0557(8) -0.1404(4) 0.61631(10)
H14 H -0.11580 -0.20020 0.63440
H15 H 0.17220 -0.03860 0.63140
#END
