
#######################################################################
#
#                 Cambridge Crystallographic Data Centre
#                                CCDC
#
#######################################################################
#
# If this CIF has been generated from an entry in the Cambridge
# Structural Database, then it will include bibliographic, chemical,
# crystal, experimental, refinement or atomic coordinate data resulting
# from the CCDC's data processing and validation procedures.
#
#######################################################################

data_CSD_CIF_CIXZOZ
_audit_creation_date 2008-08-28
_audit_creation_method CSD-ConQuest-V1
_database_code_CSD CIXZOZ
_database_code_depnum_ccdc_archive 'CCDC 647092'
_chemical_formula_sum 'C12 H17 N3 O6'
_chemical_formula_moiety
;
C12 H17 N3 O6
;
_journal_coden_Cambridge 182
_journal_year 2007
_journal_page_first 3765
_journal_name_full 'Chem.Commun. '
loop_
_publ_author_name
"K.Miyashita"
"S.M.A.Rahman"
"S.Seki"
"S.Obika"
"T.Imanishi"
_chemical_name_systematic
;
5-Methyl-2'-O,4'-C-(N-methylaminomethylene)uridine
;
_chemical_melting_point 527.15
_cell_volume   1270.760
_exptl_crystal_colour 'colorless'
_exptl_crystal_density_diffrn 1.564
_exptl_special_details
;
Melting point range 527.15-528.15K

;
_exptl_crystal_description 'block'
_diffrn_ambient_temperature 93.1
#These two values have been output from a single CSD field.
_refine_ls_R_factor_gt 0.0291
_refine_ls_wR_factor_gt 0.0291
_symmetry_cell_setting orthorhombic
_symmetry_space_group_name_H-M 'P 21 21 21'
_symmetry_Int_Tables_number 19
loop_
_symmetry_equiv_pos_site_id
_symmetry_equiv_pos_as_xyz
1 x,y,z
2 1/2+x,1/2-y,-z
3 -x,1/2+y,1/2-z
4 1/2-x,-y,1/2+z
_cell_length_a 8.721(4)
_cell_length_b 10.414(4)
_cell_length_c 13.992(5)
_cell_angle_alpha 90
_cell_angle_beta 90
_cell_angle_gamma 90
_cell_formula_units_Z 4
loop_
_atom_type_symbol
_atom_type_radius_bond
C 0.68
H 0.23
N 0.68
O 0.68
loop_
_atom_site_label
_atom_site_type_symbol
_atom_site_fract_x
_atom_site_fract_y
_atom_site_fract_z
O1 O -0.10154(12) 0.48924(10) 0.58259(7)
O2 O 0.09994(14) 0.69417(10) 0.60287(8)
O3 O 0.33726(14) 0.54972(11) 0.34641(7)
O4 O 0.20556(13) 0.39201(10) 0.49795(7)
O5 O 0.01613(13) 0.18533(10) 0.71176(7)
O6 O 0.48121(13) 0.11321(12) 0.84726(8)
N1 N -0.09429(15) 0.47094(12) 0.47776(8)
N2 N 0.22454(15) 0.28197(12) 0.64535(8)
N3 N 0.25129(15) 0.15307(12) 0.77850(9)
C1 C 0.11936(18) 0.34521(14) 0.57617(9)
C2 C 0.04410(17) 0.46215(14) 0.62303(10)
C3 C 0.15736(18) 0.56809(14) 0.59498(10)
C4 C 0.17810(17) 0.53026(14) 0.49029(10)
C5 C 0.31505(18) 0.59063(15) 0.44254(10)
C6 C 0.02742(18) 0.55404(15) 0.43761(11)
C7 C -0.24583(19) 0.51389(16) 0.44775(11)
C8 C 0.15589(18) 0.20621(14) 0.71231(11)
C9 C 0.40980(19) 0.16899(14) 0.78431(10)
C10 C 0.47434(18) 0.25286(15) 0.71255(11)
C11 C 0.38023(18) 0.30541(15) 0.64755(11)
C12 C 0.64429(18) 0.27553(16) 0.71254(11)
H1 H 0.03950 0.28330 0.55370
H2 H 0.03760 0.45210 0.69400
H3 H 0.25590 0.55880 0.63090
H4 H 0.30250 0.68510 0.44330
H5 H 0.40800 0.56960 0.48000
H6 H -0.00250 0.64530 0.44420
H7 H 0.04070 0.53520 0.36880
H8 H -0.25520 0.50510 0.37830
H9 H -0.25990 0.60410 0.46570
H10 H -0.32430 0.46130 0.47910
H11 H 0.20850 0.10370 0.82200
H12 H 0.42270 0.36130 0.60090
H13 H 0.67010 0.33910 0.66340
H14 H 0.69760 0.19480 0.69880
H15 H 0.67610 0.30760 0.77530
H16 H 0.07000 0.70710 0.65910
H17 H 0.38950 0.48190 0.34590
#END
