
#######################################################################
#
#                 Cambridge Crystallographic Data Centre
#                                CCDC
#
#######################################################################
#
# If this CIF has been generated from an entry in the Cambridge
# Structural Database, then it will include bibliographic, chemical,
# crystal, experimental, refinement or atomic coordinate data resulting
# from the CCDC's data processing and validation procedures.
#
#######################################################################

data_CSD_CIF_CIYNAB
_audit_creation_date 2014-04-16
_audit_creation_method CSD-ConQuest-V1
_database_code_CSD CIYNAB
_database_code_depnum_ccdc_archive 'CCDC 970530'
_chemical_formula_sum 'C42 H26 N2 O4'
_chemical_formula_moiety
;
C42 H26 N2 O4
;
_journal_coden_Cambridge 1695
_journal_volume 2
_journal_year 2014
_journal_page_first 4147
_journal_name_full 'J.Mater.Chem.C '
loop_
_publ_author_name
"S.Uttiya"
"L.Miozzo"
"E.M.Fumagalli"
"S.Bergantin"
"R.Ruffo"
"M.Parravicini"
"A.Papagni"
"M.Moret"
"A.Sassella"
_chemical_name_systematic
;
5,11-bis(4-Nitrophenyl)-6,12-diphenyltetracene
;
_cell_volume   1516.237
_exptl_crystal_colour 'red'
_exptl_crystal_description 'Prism'
_diffrn_ambient_temperature 153
#These two values have been output from a single CSD field.
_refine_ls_R_factor_gt 0.0673
_refine_ls_wR_factor_gt 0.0673
_symmetry_cell_setting monoclinic
_symmetry_space_group_name_H-M 'P 21/c'
_symmetry_Int_Tables_number 14
loop_
_symmetry_equiv_pos_site_id
_symmetry_equiv_pos_as_xyz
1 x,y,z
2 -x,1/2+y,1/2-z
3 -x,-y,-z
4 x,-1/2-y,-1/2+z
_cell_length_a 15.0983(3)
_cell_length_b 7.1706(2)
_cell_length_c 14.2489(5)
_cell_angle_alpha 90
_cell_angle_beta 100.616(1)
_cell_angle_gamma 90
_cell_formula_units_Z 2
loop_
_atom_type_symbol
_atom_type_radius_bond
C 0.68
H 0.23
N 0.68
O 0.68
loop_
_atom_site_label
_atom_site_type_symbol
_atom_site_fract_x
_atom_site_fract_y
_atom_site_fract_z
C1 C 0.19529(5) 1.14297(13) 0.97104(6)
C2 C 0.25861(7) 1.24832(10) 1.03195(6)
H1 H 0.24040 1.32290 1.08010
C3 C 0.34855(6) 1.24458(13) 1.02233(7)
H2 H 0.39180 1.31660 1.06400
C4 C 0.37518(6) 1.13549(17) 0.95181(7)
H3 H 0.43660 1.13290 0.94520
C5 C 0.31186(7) 1.03014(17) 0.89090(5)
H4 H 0.33010 0.95560 0.84270
C6 C 0.22192(6) 1.03388(15) 0.90052(5)
H5 H 0.17860 0.96190 0.85890
C7 C 0.19385(5) 0.87770(13) 1.11751(6)
C8 C 0.21080(6) 0.98589(15) 1.19981(5)
H6 H 0.16290 1.05080 1.22020
C9 C 0.29784(7) 0.99904(16) 1.25222(5)
H7 H 0.30940 1.07300 1.30850
C10 C 0.36794(6) 0.90400(16) 1.22232(6)
C11 C 0.35099(6) 0.79580(12) 1.14002(7)
H8 H 0.39890 0.73080 1.11960
C12 C 0.26395(6) 0.78265(9) 1.08761(6)
H9 H 0.25240 0.70870 1.03140
C13 C 0.09515(12) 1.1510(3) 0.97373(14)
C14 C 0.04961(12) 1.0027(3) 1.01090(14)
C15 C 0.09629(12) 0.8587(3) 1.06942(14)
C16 C 0.05024(13) 0.7055(3) 1.09680(13)
C17 C 0.09599(14) 0.5576(3) 1.15502(14)
H10 H 0.15980 0.56150 1.17300
C18 C 0.05029(14) 0.4128(3) 1.18485(15)
H11 H 0.08240 0.31690 1.22260
C19 C -0.04490(15) 0.4037(3) 1.16015(15)
H12 H -0.07620 0.30060 1.18040
C20 C -0.09152(14) 0.5422(3) 1.10753(14)
H13 H -0.15540 0.53510 1.09250
C21 C -0.04691(13) 0.6988(3) 1.07414(14)
N1 N 0.45827(12) 0.9208(3) 1.27714(15)
O1 O 0.46717(11) 0.9789(3) 1.35921(13)
O2 O 0.52149(11) 0.8755(4) 1.23951(15)
C1B C -0.19529(5) 0.85703(13) 1.02896(6)
C2B C -0.25861(7) 0.75168(10) 0.96805(6)
H1B H -0.24040 0.67710 0.91990
C3B C -0.34855(6) 0.75542(13) 0.97767(7)
H2B H -0.39180 0.68340 0.93600
C4B C -0.37518(6) 0.86451(17) 1.04819(7)
H3B H -0.43660 0.86710 1.05480
C5B C -0.31186(7) 0.96986(17) 1.10910(5)
H4B H -0.33010 1.04440 1.15730
C6B C -0.22192(6) 0.96612(15) 1.09948(5)
H5B H -0.17860 1.03810 1.14110
C7B C -0.19385(5) 1.12230(13) 0.88249(6)
C8B C -0.21080(6) 1.01411(15) 0.80019(5)
H6B H -0.16290 0.94920 0.77980
C9B C -0.29784(7) 1.00096(16) 0.74778(5)
H7B H -0.30940 0.92700 0.69150
C10B C -0.36794(6) 1.09600(16) 0.77768(6)
C11B C -0.35099(6) 1.20420(12) 0.85998(7)
H8B H -0.39890 1.26920 0.88040
C12B C -0.26395(6) 1.21735(9) 0.91239(6)
H9B H -0.25240 1.29130 0.96860
C13B C -0.09515(12) 0.8490(3) 1.02627(14)
C14B C -0.04961(12) 0.9973(3) 0.98910(14)
C15B C -0.09629(12) 1.1413(3) 0.93058(14)
C16B C -0.05024(13) 1.2945(3) 0.90320(13)
C17B C -0.09599(14) 1.4424(3) 0.84498(14)
H10B H -0.15980 1.43850 0.82700
C18B C -0.05029(14) 1.5872(3) 0.81515(15)
H11B H -0.08240 1.68310 0.77740
C19B C 0.04490(15) 1.5963(3) 0.83985(15)
H12B H 0.07620 1.69940 0.81960
C20B C 0.09152(14) 1.4578(3) 0.89247(14)
H13B H 0.15540 1.46490 0.90750
C21B C 0.04691(13) 1.3012(3) 0.92586(14)
N1B N -0.45827(12) 1.0792(3) 0.72286(15)
O1B O -0.46717(11) 1.0211(3) 0.64079(13)
O2B O -0.52149(11) 1.1245(4) 0.76049(15)
#END
