
#######################################################################
#
#                 Cambridge Crystallographic Data Centre
#                                CCDC
#
#######################################################################
#
# If this CIF has been generated from an entry in the Cambridge
# Structural Database, then it will include bibliographic, chemical,
# crystal, experimental, refinement or atomic coordinate data resulting
# from the CCDC's data processing and validation procedures.
#
#######################################################################

data_CSD_CIF_CIYVIQ
_audit_creation_date 2008-08-28
_audit_creation_method CSD-ConQuest-V1
_database_code_CSD CIYVIQ
_database_code_depnum_ccdc_archive 'CCDC 660537'
_chemical_formula_sum 'C12 H12 N2 O1'
_chemical_formula_moiety
;
C12 H12 N2 O1
;
_journal_coden_Cambridge 35
_journal_volume 73
_journal_year 2008
_journal_page_first 2007
_journal_name_full 'J.Org.Chem. '
loop_
_publ_author_name
"Yunfei Du"
"Junbiao Chang"
"J.Reiner"
"Kang Zhao"
_chemical_name_systematic
;
1-Methoxy-2,6-dimethyl-1H-indole-3-carbonitrile
;
_chemical_melting_point 377.15
_cell_volume   1069.044
_exptl_crystal_density_diffrn 1.244
_exptl_special_details
;
Melting point range 377.15-378.15K

;
_diffrn_ambient_temperature 294
#These two values have been output from a single CSD field.
_refine_ls_R_factor_gt 0.0414
_refine_ls_wR_factor_gt 0.0414
_symmetry_cell_setting monoclinic
_symmetry_space_group_name_H-M 'P 21/c'
_symmetry_Int_Tables_number 14
loop_
_symmetry_equiv_pos_site_id
_symmetry_equiv_pos_as_xyz
1 x,y,z
2 -x,1/2+y,1/2-z
3 -x,-y,-z
4 x,-1/2-y,-1/2+z
_cell_length_a 8.944(3)
_cell_length_b 11.148(4)
_cell_length_c 11.494(4)
_cell_angle_alpha 90
_cell_angle_beta 111.122(6)
_cell_angle_gamma 90
_cell_formula_units_Z 4
loop_
_atom_type_symbol
_atom_type_radius_bond
C 0.68
H 0.23
N 0.68
O 0.68
loop_
_atom_site_label
_atom_site_type_symbol
_atom_site_fract_x
_atom_site_fract_y
_atom_site_fract_z
O1 O 0.11192(15) 0.36803(10) 0.20215(10)
N1 N 0.17141(16) 0.42303(12) 0.31755(11)
N2 N 0.1231(2) 0.71423(15) 0.59762(16)
C1 C 0.29515(19) 0.37738(14) 0.41872(14)
C2 C 0.3968(2) 0.28029(14) 0.42852(16)
H1 H 0.38620 0.23240 0.35970
C3 C 0.5137(2) 0.25714(16) 0.54295(17)
C4 C 0.6280(2) 0.15301(18) 0.5608(2)
H2 H 0.59430 0.08780 0.60000
H3 H 0.73400 0.17760 0.61240
H4 H 0.62830 0.12740 0.48110
C5 C 0.5265(2) 0.33153(17) 0.64521(16)
H5 H 0.60590 0.31530 0.72200
C6 C 0.4260(2) 0.42701(16) 0.63548(15)
H6 H 0.43720 0.47460 0.70460
C7 C 0.30633(19) 0.45181(14) 0.51993(15)
C8 C 0.18211(19) 0.54107(14) 0.47374(15)
C9 C 0.1485(2) 0.63659(16) 0.54210(16)
C10 C 0.09992(19) 0.51973(14) 0.34868(15)
C11 C -0.0405(2) 0.58114(16) 0.25775(17)
H7 H -0.00510 0.63540 0.20820
H8 H -0.09600 0.62510 0.30160
H9 H -0.11140 0.52270 0.20450
C12 C 0.1937(3) 0.4103(2) 0.12270(17)
H10 H 0.17490 0.49480 0.10820
H11 H 0.15420 0.36840 0.04460
H12 H 0.30670 0.39610 0.16230
#END
