
#######################################################################
#
#                 Cambridge Crystallographic Data Centre
#                                CCDC
#
#######################################################################
#
# If this CIF has been generated from an entry in the Cambridge
# Structural Database, then it will include bibliographic, chemical,
# crystal, experimental, refinement or atomic coordinate data resulting
# from the CCDC's data processing and validation procedures.
#
#######################################################################

data_CSD_CIF_CIYVEM
_audit_creation_date 2008-08-28
_audit_creation_method CSD-ConQuest-V1
_database_code_CSD CIYVEM
_database_code_depnum_ccdc_archive 'CCDC 663379'
_chemical_formula_sum 'C14 H21 N1 O5'
_chemical_formula_moiety
;
C14 H21 N1 O5
;
_journal_coden_Cambridge 35
_journal_volume 73
_journal_year 2008
_journal_page_first 1999
_journal_name_full 'J.Org.Chem. '
loop_
_publ_author_name
"F.Cardona"
"D.Lalli"
"C.Faggi"
"A.Goti"
"A.Brandi"
_chemical_name_systematic
;
exo-syn-10-t-butoxyoctahydro-2,5-epoxyoxepino[4,5-d]pyrrolo[1,2-b]isoxazol-1(2
H)-one
;
_chemical_melting_point 374.15
_cell_volume   1433.076
_exptl_crystal_colour 'yellow'
_exptl_crystal_density_diffrn 1.313
_exptl_special_details
;
Melting point range 374.15-376.15K

;
_exptl_crystal_description 'needle'
_exptl_crystal_preparation 'di-isopropyl ether'
_diffrn_ambient_temperature 293
#These two values have been output from a single CSD field.
_refine_ls_R_factor_gt 0.0341
_refine_ls_wR_factor_gt 0.0341
loop_
_citation_database_id_CSD
_citation_special_details
CODCAA "is a stereoisomer of this entry"
_symmetry_cell_setting orthorhombic
_symmetry_space_group_name_H-M 'P 21 21 21'
_symmetry_Int_Tables_number 19
loop_
_symmetry_equiv_pos_site_id
_symmetry_equiv_pos_as_xyz
1 x,y,z
2 1/2-x,-y,1/2+z
3 1/2+x,1/2-y,-z
4 -x,1/2+y,1/2-z
_cell_length_a 6.297(1)
_cell_length_b 12.593(1)
_cell_length_c 18.072(2)
_cell_angle_alpha 90
_cell_angle_beta 90
_cell_angle_gamma 90
_cell_formula_units_Z 4
loop_
_atom_type_symbol
_atom_type_radius_bond
C 0.68
H 0.23
N 0.68
O 0.68
loop_
_atom_site_label
_atom_site_type_symbol
_atom_site_fract_x
_atom_site_fract_y
_atom_site_fract_z
N1 N 0.8915(3) 0.23740(16) 0.33813(10)
O1 O 0.8209(4) -0.04552(15) 0.36212(13)
O2 O 0.6018(3) 0.10823(13) 0.49021(8)
O3 O 0.3556(3) -0.00384(13) 0.44290(9)
O4 O 0.7153(3) 0.27201(13) 0.38636(9)
O5 O 0.5149(2) 0.19765(14) 0.19473(7)
C1 C 0.5764(4) 0.01037(18) 0.45452(13)
H1 H 0.629(4) -0.049(2) 0.4849(14)
C2 C 0.6874(4) 0.01755(16) 0.38058(13)
C3 C 0.6163(3) 0.10962(16) 0.33227(10)
H2 H 0.502(4) 0.0835(18) 0.2978(14)
C4 C 0.5353(4) 0.20424(16) 0.37723(11)
H3 H 0.428(5) 0.245(2) 0.3510(14)
C5 C 0.4499(4) 0.17350(18) 0.45259(11)
H4 H 0.423(5) 0.235(2) 0.4797(14)
C6 C 0.2622(4) 0.1001(2) 0.44692(15)
H5 H 0.181(6) 0.103(3) 0.495(2)
H6 H 0.187(4) 0.109(2) 0.4050(14)
C7 C 0.7957(3) 0.15788(18) 0.28724(11)
H7 H 0.896(4) 0.1042(19) 0.2777(13)
C8 C 0.7279(3) 0.2175(2) 0.21577(11)
H8 H 0.821(4) 0.1966(18) 0.1740(12)
C9 C 0.7636(5) 0.3346(2) 0.23397(14)
H9 H 0.810(6) 0.368(3) 0.1914(19)
H10 H 0.628(5) 0.362(2) 0.2604(16)
C10 C 0.9388(5) 0.3296(2) 0.29128(15)
H11 H 0.955(5) 0.391(2) 0.3234(16)
H12 H 1.082(7) 0.321(3) 0.268(2)
C11 C 0.4813(3) 0.14011(18) 0.12675(10)
C12 C 0.5602(5) 0.2042(2) 0.06115(11)
H13 H 0.71200 0.21050 0.06360
H14 H 0.49750 0.27370 0.06230
H15 H 0.52110 0.16900 0.01610
C13 C 0.5873(5) 0.0325(2) 0.12959(15)
H16 H 0.73870 0.04150 0.13120
H17 H 0.54950 -0.00750 0.08630
H18 H 0.54130 -0.00490 0.17300
C14 C 0.2419(4) 0.1302(3) 0.12348(16)
H19 H 0.19280 0.09010 0.16530
H20 H 0.20180 0.09450 0.07870
H21 H 0.17930 0.19970 0.12440
#END
