
#######################################################################
#
#                 Cambridge Crystallographic Data Centre
#                                CCDC
#
#######################################################################
#
# If this CIF has been generated from an entry in the Cambridge
# Structural Database, then it will include bibliographic, chemical,
# crystal, experimental, refinement or atomic coordinate data resulting
# from the CCDC's data processing and validation procedures.
#
#######################################################################

data_CSD_CIF_CIZSUB
_audit_creation_date 2014-04-17
_audit_creation_method CSD-ConQuest-V1
_database_code_CSD CIZSUB
_database_code_depnum_ccdc_archive 'CCDC 831070'
_chemical_formula_sum 'C22 H24 N2 O2'
_chemical_formula_moiety
;
C22 H24 N2 O2
;
_journal_coden_Cambridge 34
_journal_volume 51
_journal_year 2014
_journal_page_first 383
_journal_name_full 'J.Heterocycl.Chem. '
loop_
_publ_author_name
"H.Jelizi"
"N.Wannassi"
"M.El B.Rammah"
"K.Ciamala"
"M.Knorr"
"Y.Rousselin"
"M.M.Kubicki"
"C.Strohmann"
"M.Enescu"
_chemical_name_systematic
;
4-Methyl-3-(4-methylphenyl)-8b-(morpholin-4-yl)-4,8b-dihydro-3aH-indeno[2,1-d]
[1,2]oxazole
;
_cell_volume   1826.340
_exptl_crystal_colour 'colorless'
_exptl_crystal_density_diffrn 1.267
_exptl_crystal_description 'Prism'
_diffrn_ambient_temperature 115
#These two values have been output from a single CSD field.
_refine_ls_R_factor_gt 0.0754
_refine_ls_wR_factor_gt 0.0754
_symmetry_cell_setting monoclinic
_symmetry_space_group_name_H-M 'P 2/c'
_symmetry_Int_Tables_number 13
loop_
_symmetry_equiv_pos_site_id
_symmetry_equiv_pos_as_xyz
1 x,y,z
2 -x,y,1/2-z
3 -x,-y,-z
4 x,-y,-1/2+z
_cell_length_a 14.2986(4)
_cell_length_b 8.9777(3)
_cell_length_c 15.0720(5)
_cell_angle_alpha 90
_cell_angle_beta 109.273(2)
_cell_angle_gamma 90
_cell_formula_units_Z 4
loop_
_atom_type_symbol
_atom_type_radius_bond
C 0.68
H 0.23
N 0.68
O 0.68
loop_
_atom_site_label
_atom_site_type_symbol
_atom_site_fract_x
_atom_site_fract_y
_atom_site_fract_z
C1 C 0.20567(14) 0.2456(2) 0.63245(12)
C2 C 0.21153(14) 0.1588(2) 0.71936(13)
C3 C 0.18215(15) 0.0128(2) 0.72504(13)
H1 H 0.15440 -0.04510 0.66980
C4 C 0.19409(16) -0.0469(2) 0.81270(14)
H2 H 0.17380 -0.14650 0.81760
C5 C 0.23545(16) 0.0372(2) 0.89369(14)
H3 H 0.24270 -0.00500 0.95340
C6 C 0.26628(15) 0.1826(2) 0.88779(13)
H4 H 0.29540 0.23980 0.94310
C7 C 0.25395(14) 0.2433(2) 0.79975(13)
C8 C 0.28157(15) 0.3984(2) 0.77741(12)
H5 H 0.35540 0.40660 0.79850
C9 C 0.24035(14) 0.4050(2) 0.66756(13)
H6 H 0.18500 0.47840 0.64500
C10 C 0.31810(14) 0.4308(2) 0.62214(12)
C11 C 0.36779(14) 0.5745(2) 0.62098(13)
C12 C 0.32902(15) 0.7056(2) 0.64458(13)
H7 H 0.27060 0.70200 0.66130
C13 C 0.37549(15) 0.8414(2) 0.64373(13)
H8 H 0.34810 0.92970 0.65980
C14 C 0.46138(15) 0.8506(2) 0.61974(14)
C15 C 0.49871(16) 0.7195(2) 0.59457(14)
H9 H 0.55650 0.72360 0.57680
C16 C 0.45304(15) 0.5834(2) 0.59503(14)
H10 H 0.47980 0.49560 0.57760
C17 C 0.10697(15) 0.3097(2) 0.47135(13)
H11 H 0.16530 0.28530 0.45250
H12 H 0.10750 0.41810 0.48350
C18 C 0.01274(15) 0.2675(2) 0.39348(14)
H13 H 0.00960 0.32190 0.33540
H14 H 0.01370 0.15950 0.38050
C19 C -0.06863(15) 0.2264(2) 0.50341(14)
H15 H -0.07060 0.11750 0.49270
H16 H -0.12730 0.25380 0.52090
C20 C 0.02445(14) 0.2656(2) 0.58346(13)
H17 H 0.02500 0.37350 0.59730
H18 H 0.02620 0.21010 0.64070
C21 C 0.2412(2) 0.5201(2) 0.82490(15)
H19 H 0.26160 0.61760 0.80860
H20 H 0.26730 0.50650 0.89320
H21 H 0.16870 0.51450 0.80350
C22 C 0.51280(17) 0.9984(2) 0.62302(15)
H22 H 0.46320 1.07640 0.59770
H23 H 0.55680 0.99260 0.58520
H24 H 0.55170 1.02220 0.68820
N1 N 0.34128(12) 0.31402(18) 0.58455(11)
N2 N 0.11167(12) 0.22682(18) 0.55671(10)
O1 O 0.28211(10) 0.19221(14) 0.59505(9)
O2 O -0.07317(11) 0.30168(16) 0.41816(9)
#END
