
#######################################################################
#
#                 Cambridge Crystallographic Data Centre
#                                CCDC
#
#######################################################################
#
# If this CIF has been generated from an entry in the Cambridge
# Structural Database, then it will include bibliographic, chemical,
# crystal, experimental, refinement or atomic coordinate data resulting
# from the CCDC's data processing and validation procedures.
#
#######################################################################

data_CSD_CIF_CIZZUH
_audit_creation_date 2008-08-28
_audit_creation_method CSD-ConQuest-V1
_database_code_CSD CIZZUH
_database_code_depnum_ccdc_archive 'CCDC 668189'
_chemical_formula_sum 'C28 H35 N1 O5'
_chemical_formula_moiety
;
C28 H35 N1 O5
;
_journal_coden_Cambridge 16
_journal_volume 64
_journal_year 2008
_journal_page_first 4304
_journal_name_full 'Tetrahedron '
loop_
_publ_author_name
"T.Widjaja"
"L.Fitjer"
"K.Meindl"
"R.Herbst-Irmer"
_chemical_name_systematic
;
4-Nitrobenzoic acid 
(6R*,7R*,15R*)-16-oxotetraspiro(4.0.0.0.4^8^.3^7^.3^6^.3^5^)heneicos-15-yl 
ester
;
_chemical_melting_point 466.15
_cell_volume   1169.284
_exptl_crystal_colour 'colorless'
_exptl_crystal_density_diffrn 1.322
_exptl_crystal_description 'plate'
_exptl_crystal_preparation 'ethanol'
_diffrn_ambient_temperature 100
#These two values have been output from a single CSD field.
_refine_ls_R_factor_gt 0.0304
_refine_ls_wR_factor_gt 0.0304
_symmetry_cell_setting triclinic
_symmetry_space_group_name_H-M 'P -1'
_symmetry_Int_Tables_number 2
loop_
_symmetry_equiv_pos_site_id
_symmetry_equiv_pos_as_xyz
1 x,y,z
2 -x,-y,-z
_cell_length_a 8.630(2)
_cell_length_b 9.443(2)
_cell_length_c 15.811(2)
_cell_angle_alpha 95.15(2)
_cell_angle_beta 99.16(2)
_cell_angle_gamma 111.36(2)
_cell_formula_units_Z 2
loop_
_atom_type_symbol
_atom_type_radius_bond
C 0.68
H 0.23
N 0.68
O 0.68
loop_
_atom_site_label
_atom_site_type_symbol
_atom_site_fract_x
_atom_site_fract_y
_atom_site_fract_z
N1 N 0.67387(15) 0.48645(12) -0.09752(7)
O1 O 0.82317(12) 0.57310(11) -0.08900(6)
O2 O 0.55977(13) 0.47760(12) -0.15742(6)
O3 O 0.62066(12) 0.11297(12) 0.22368(6)
O4 O 0.34506(11) 0.06108(10) 0.17013(6)
O5 O -0.01483(12) -0.16122(10) 0.08849(6)
C1 C 0.28734(17) 0.10595(15) 0.45085(8)
H1 H 0.20150 0.07470 0.48750
H2 H 0.30200 0.01320 0.42530
C2 C 0.45582(18) 0.22425(17) 0.50370(9)
H3 H 0.43820 0.30370 0.54180
H4 H 0.51960 0.17460 0.53960
C3 C 0.54711(19) 0.29255(18) 0.43341(10)
H5 H 0.60120 0.22590 0.40990
H6 H 0.63560 0.39640 0.45650
C4 C 0.40725(17) 0.30115(15) 0.36290(9)
H7 H 0.42270 0.26910 0.30450
H8 H 0.41140 0.40770 0.36680
C5 C 0.23346(16) 0.18955(14) 0.37913(8)
C6 C 0.09389(16) 0.08341(14) 0.29809(8)
C7 C 0.11355(16) -0.05725(14) 0.24411(8)
C8 C 0.04148(16) -0.22789(14) 0.26479(8)
C9 C 0.07921(17) -0.25457(15) 0.35968(9)
H9 H 0.19600 -0.25170 0.37610
H10 H 0.06570 -0.17590 0.40030
C10 C -0.05299(17) -0.41462(15) 0.35966(9)
H11 H -0.02310 -0.49610 0.33110
H12 H -0.06490 -0.43270 0.41940
C11 C -0.21481(18) -0.40910(16) 0.30770(9)
H13 H -0.26870 -0.35980 0.34510
H14 H -0.29730 -0.51410 0.28150
C12 C -0.15559(17) -0.31267(15) 0.23696(9)
H15 H -0.21000 -0.23700 0.23170
H16 H -0.18660 -0.38020 0.18020
C13 C 0.13487(17) -0.30585(15) 0.21262(9)
H17 H 0.13780 -0.39880 0.23610
H18 H 0.07690 -0.33630 0.15070
C14 C 0.31435(18) -0.18556(15) 0.22275(10)
H19 H 0.35820 -0.19500 0.16920
H20 H 0.39200 -0.19860 0.27190
C15 C 0.30062(16) -0.02913(15) 0.23987(8)
H21 H 0.37700 0.02990 0.29640
C16 C 0.01876(16) -0.06122(15) 0.15002(8)
C17 C -0.02788(17) 0.07662(15) 0.14592(9)
H22 H -0.15090 0.04780 0.14390
H23 H 0.00070 0.12360 0.09410
C18 C 0.07692(17) 0.18657(15) 0.22838(8)
H24 H 0.01930 0.25400 0.24670
H25 H 0.19040 0.25200 0.21940
C19 C -0.07036(16) 0.03633(15) 0.33509(8)
H26 H -0.17210 0.00470 0.28780
H27 H -0.08050 -0.05020 0.36780
C20 C -0.05201(17) 0.18078(15) 0.39541(9)
H28 H -0.11890 0.23480 0.36610
H29 H -0.09260 0.15280 0.44910
C21 C 0.13797(17) 0.28348(15) 0.41675(9)
H30 H 0.17910 0.31350 0.48040
H31 H 0.15800 0.37820 0.39050
C22 C 0.54699(16) 0.21258(14) 0.09684(8)
C23 C 0.41844(17) 0.21163(15) 0.03093(9)
H32 H 0.30300 0.15080 0.03040
C24 C 0.45954(17) 0.29969(15) -0.03375(9)
H33 H 0.37330 0.30000 -0.07920
C25 C 0.62894(17) 0.38725(14) -0.03070(8)
C26 C 0.75890(17) 0.38844(15) 0.03304(9)
H34 H 0.87420 0.44870 0.03290
C27 C 0.71660(17) 0.29954(15) 0.09707(9)
H35 H 0.80370 0.29770 0.14150
C28 C 0.51128(16) 0.12425(15) 0.16990(9)
#END
