
#######################################################################
#
#                 Cambridge Crystallographic Data Centre
#                                CCDC
#
#######################################################################
#
# If this CIF has been generated from an entry in the Cambridge
# Structural Database, then it will include bibliographic, chemical,
# crystal, experimental, refinement or atomic coordinate data resulting
# from the CCDC's data processing and validation procedures.
#
#######################################################################

data_CSD_CIF_CMCNCB
_audit_creation_date 1977-09-12
_audit_creation_method CSD-ConQuest-V1
_database_code_CSD CMCNCB
_chemical_formula_sum 'C20 H18 N2 O8'
_chemical_formula_moiety
;
C20 H18 N2 O8
;
_journal_coeditor_code "IUCr A14562"
_journal_coden_Cambridge 107
_journal_volume 33
_journal_year 1977
_journal_page_first 1022
_journal_name_full 'Acta Crystallogr.,Sect.B:Struct.Crystallogr.Cryst.Chem. '
loop_
_publ_author_name
"P.Carr"
"J.L.Finney"
"P.F.Lindley"
"G.T.DeTitta"
_chemical_name_systematic
;
cis-1,2-Dimethoxycarbonyl-1,2-bis(4-nitrophenyl) cyclobutane
;
_cell_volume   2002.918
_exptl_crystal_density_diffrn 1.375
_exptl_special_details
;
H25 DELETED FOR SUSPECTED COORDINATE ERRORS

;
_diffrn_ambient_temperature ?
_diffrn_special_details
;
The study was carried out at room temperature,in the range 283-303K

;
#These two values have been output from a single CSD field.
_refine_ls_R_factor_gt 0.045
_refine_ls_wR_factor_gt 0.045
_symmetry_cell_setting monoclinic
_symmetry_space_group_name_H-M 'P 21/c'
_symmetry_Int_Tables_number 14
loop_
_symmetry_equiv_pos_site_id
_symmetry_equiv_pos_as_xyz
1 x,y,z
2 -x,1/2+y,1/2-z
3 -x,-y,-z
4 x,-1/2-y,-1/2+z
_cell_length_a 10.158(1)
_cell_length_b 25.598(3)
_cell_length_c 8.206(1)
_cell_angle_alpha 90
_cell_angle_beta 110.169(4)
_cell_angle_gamma 90
_cell_formula_units_Z 4
loop_
_atom_type_symbol
_atom_type_radius_bond
C 0.68
H 0.23
N 0.68
O 0.68
loop_
_atom_site_label
_atom_site_type_symbol
_atom_site_fract_x
_atom_site_fract_y
_atom_site_fract_z
C1 C -0.22580 0.15700 -0.04690
C2 C -0.24780 0.10250 0.03730
C3 C -0.38210 0.12630 0.05860
C4 C -0.33510 0.18130 0.02740
C5 C -0.08060 0.18040 0.01030
C6 C -0.05710 0.23060 0.07530
C7 C 0.07570 0.25260 0.12450
C8 C 0.18320 0.22370 0.10750
C9 C 0.16460 0.17360 0.04210
C10 C 0.03110 0.15240 -0.00750
N1 N 0.32380 0.24700 0.15900
O1 O 0.33370 0.29300 0.20110
O2 O 0.42230 0.22030 0.16190
C11 C -0.28640 0.15580 -0.24440
O3 O -0.41320 0.13400 -0.30110
O4 O -0.22900 0.17250 -0.33950
C12 C -0.48070 0.13010 -0.48560
C13 C -0.13060 0.08950 0.20670
C14 C -0.12140 0.11470 0.36030
C15 C -0.01460 0.10410 0.51340
C16 C 0.08650 0.06840 0.51260
C17 C 0.08060 0.04180 0.36480
C18 C -0.02850 0.05250 0.21310
N2 N 0.20290 0.05780 0.67410
O5 O 0.19790 0.07570 0.80770
O6 O 0.29750 0.03050 0.66750
C19 C -0.26990 0.05650 -0.08540
O7 O -0.36690 0.02450 -0.07020
O8 O -0.20470 0.04960 -0.18130
C20 C -0.39630 -0.02110 -0.17950
H1 H -0.38800 0.12000 0.17700
H2 H -0.47100 0.11400 -0.03200
H3 H -0.41100 0.20300 -0.05800
H4 H -0.29300 0.20300 0.13700
H5 H -0.13600 0.25100 0.09200
H6 H 0.09100 0.29000 0.16500
H7 H 0.24600 0.15300 0.03000
H8 H 0.01400 0.11600 -0.05700
H9 H -0.57600 0.11300 -0.51400
H10 H -0.49500 0.16600 -0.54100
H11 H -0.42400 0.10800 -0.53900
H12 H -0.19400 0.14100 0.36100
H13 H -0.01000 0.12300 0.62300
H14 H -0.03500 0.03300 0.10400
H15 H -0.46900 -0.04400 -0.16000
H16 H -0.42600 -0.01200 -0.30500
H17 H -0.30600 -0.04300 -0.15200
#END
