
#######################################################################
#
#                 Cambridge Crystallographic Data Centre
#                                CCDC
#
#######################################################################
#
# If this CIF has been generated from an entry in the Cambridge
# Structural Database, then it will include bibliographic, chemical,
# crystal, experimental, refinement or atomic coordinate data resulting
# from the CCDC's data processing and validation procedures.
#
#######################################################################

data_CSD_CIF_CMDNFL
_audit_creation_date 1971-12-31
_audit_creation_method CSD-ConQuest-V1
_database_code_CSD CMDNFL
_chemical_formula_sum 'C16 H6 N4 O4'
_chemical_formula_moiety
;
C16 H6 N4 O4
;
_journal_coeditor_code "IUCr A06293"
_journal_coden_Cambridge 107
_journal_volume 24
_journal_year 1968
_journal_page_first 1481
_journal_name_full 'Acta Crystallogr.,Sect.B:Struct.Crystallogr.Cryst.Chem. '
loop_
_publ_author_name
"J.Silverman"
"A.P.Krukonis"
"N.F.Yannoni"
_chemical_name_systematic
;
9-Dicyanomethylene-2,7-dinitrofluorene
;
_chemical_melting_point 571.15
_cell_volume   1364.238
_exptl_crystal_density_diffrn 1.547
_exptl_special_details
;
Melting point range 571.15-572.15K

;
_diffrn_ambient_temperature ?
_diffrn_special_details
;
The study was carried out at room temperature,in the range 283-303K

;
#These two values have been output from a single CSD field.
_refine_ls_R_factor_gt 0.089
_refine_ls_wR_factor_gt 0.089
_symmetry_cell_setting orthorhombic
_symmetry_space_group_name_H-M 'P n n a'
_symmetry_Int_Tables_number 52
loop_
_symmetry_equiv_pos_site_id
_symmetry_equiv_pos_as_xyz
1 x,y,z
2 -x,1/2+y,1/2+z
3 1/2+x,1/2-y,1/2+z
4 1/2-x,-y,z
5 -x,-y,-z
6 x,-1/2-y,-1/2-z
7 -1/2-x,-1/2+y,-1/2-z
8 -1/2+x,y,-z
_cell_length_a 19.26(6)
_cell_length_b 11.19(3)
_cell_length_c 6.33(2)
_cell_angle_alpha 90
_cell_angle_beta 90
_cell_angle_gamma 90
_cell_formula_units_Z 4
loop_
_atom_type_symbol
_atom_type_radius_bond
C 0.68
H 0.20
N 0.68
O 0.68
loop_
_atom_site_label
_atom_site_type_symbol
_atom_site_fract_x
_atom_site_fract_y
_atom_site_fract_z
C1 C 0.07870 0.21660 0.34700
C2 C 0.02380 0.17390 0.46410
C3 C 0.03640 0.10770 0.64330
C4 C 0.10540 0.08840 0.70190
C5 C 0.16090 0.12970 0.58950
C6 C 0.14800 0.19360 0.40840
C7 C 0.19350 0.25000 0.25000
C8 C 0.26370 0.25000 0.25000
C9 C 0.30500 0.19670 0.41080
H1 H -0.02800 0.19900 0.42700
H2 H 0.00400 0.08000 0.74600
H3 H 0.20500 0.11300 0.65400
N1 N 0.11930 0.01450 0.88680
N2 N 0.33900 0.15680 0.54150
O1 O 0.07210 -0.04630 0.95730
O2 O 0.17680 0.02010 0.96750
C1E C 0.07870 0.28340 0.15300
C6E C 0.14800 0.30640 0.09160
C9E C 0.30500 0.30330 0.08920
C2E C 0.02380 0.32610 0.03590
C5E C 0.16090 0.37030 -0.08950
N2E N 0.33900 0.34320 -0.04150
C3E C 0.03640 0.39230 -0.14330
H1E H -0.02800 0.30100 0.07300
C4E C 0.10540 0.41160 -0.20190
H3E H 0.20500 0.38700 -0.15400
H2E H 0.00400 0.42000 -0.24600
N1E N 0.11930 0.48550 -0.38680
O1E O 0.07210 0.54630 -0.45730
O2E O 0.17680 0.47990 -0.46750
#END
