
#######################################################################
#
#                 Cambridge Crystallographic Data Centre
#                                CCDC
#
#######################################################################
#
# If this CIF has been generated from an entry in the Cambridge
# Structural Database, then it will include bibliographic, chemical,
# crystal, experimental, refinement or atomic coordinate data resulting
# from the CCDC's data processing and validation procedures.
#
#######################################################################

data_CSD_CIF_COBCEC
_audit_creation_date 2008-08-28
_audit_creation_method CSD-ConQuest-V1
_database_code_CSD COBCEC
_database_code_depnum_ccdc_archive 'CCDC 661726'
_chemical_formula_sum 'C26 H34 N2 O12'
_chemical_formula_moiety
;
C26 H34 N2 O12
;
_journal_coden_Cambridge 182
_journal_year 2008
_journal_page_first 1686
_journal_name_full 'Chem.Commun. '
loop_
_publ_author_name
"D.Berkovich-Berger"
"N.G.Lemcoff"
_chemical_name_systematic
;
2,13-bis(4-nitrophenyl)-1,3,6,9,12,14,17,20-octaoxacyclodocosane
;
_cell_volume    687.689
_exptl_crystal_colour 'yellow'
_exptl_crystal_density_diffrn 1.37
_diffrn_ambient_temperature 293
#These two values have been output from a single CSD field.
_refine_ls_R_factor_gt 0.0728
_refine_ls_wR_factor_gt 0.0728
_symmetry_cell_setting triclinic
_symmetry_space_group_name_H-M 'P -1'
_symmetry_Int_Tables_number 2
loop_
_symmetry_equiv_pos_site_id
_symmetry_equiv_pos_as_xyz
1 x,y,z
2 -x,-y,-z
_cell_length_a 7.166(3)
_cell_length_b 7.306(3)
_cell_length_c 13.515(6)
_cell_angle_alpha 90.475(7)
_cell_angle_beta 103.007(7)
_cell_angle_gamma 93.823(8)
_cell_formula_units_Z 1
loop_
_atom_type_symbol
_atom_type_radius_bond
C 0.68
H 0.23
N 0.68
O 0.68
loop_
_atom_site_label
_atom_site_type_symbol
_atom_site_fract_x
_atom_site_fract_y
_atom_site_fract_z
O1 O 0.6342(3) 1.1186(3) 0.26422(17)
O2 O 0.5685(3) 0.8801(3) 0.35807(16)
O3 O 0.6914(3) 0.6719(3) 0.54244(16)
O4 O 1.0666(2) 0.6010(3) 0.67325(14)
O5 O -0.1367(4) 0.6674(4) -0.0655(2)
O6 O -0.3198(4) 0.7548(6) 0.0258(2)
N1 N -0.1629(4) 0.7418(4) 0.0097(2)
C1 C 0.0047(4) 0.8196(4) 0.0857(2)
C2 C 0.7503(4) 0.4996(4) 0.5806(3)
C3 C 0.7320(5) 0.9249(5) 0.4390(3)
C4 C -0.0219(4) 0.9231(4) 0.1647(2)
C5 C 0.4907(4) 1.0305(4) 0.3081(2)
C6 C 0.1366(4) 0.9922(4) 0.2356(2)
C7 C 0.8889(4) 0.5139(4) 0.6825(3)
C8 C 1.2090(4) 0.6000(4) 0.7649(2)
C9 C 0.3168(4) 0.9565(4) 0.2277(2)
C10 C 0.8107(4) 0.7542(5) 0.4832(3)
C11 C 0.6085(4) 1.3081(5) 0.2511(3)
C12 C 0.1839(5) 0.7819(5) 0.0739(2)
C13 C 0.3406(5) 0.8512(5) 0.1469(3)
H1 H 0.120(5) 1.060(5) 0.291(3)
H2 H -0.157(6) 0.942(5) 0.170(3)
H3 H 0.195(4) 0.712(4) 0.016(2)
H4 H 0.468(7) 0.844(6) 0.137(3)
H5 H 0.590(5) 1.359(5) 0.323(3)
H6 H 0.505(7) 1.326(7) 0.194(4)
H7 H 0.458(4) 1.122(4) 0.366(2)
H8 H 0.833(6) 0.998(5) 0.409(3)
H9 H 0.692(4) 0.998(4) 0.484(2)
H10 H 0.917(6) 0.777(5) 0.519(3)
H11 H 0.818(5) 0.676(5) 0.421(3)
H12 H 0.806(5) 0.438(4) 0.532(2)
H13 H 0.643(5) 0.421(4) 0.596(2)
H14 H 0.902(6) 0.392(6) 0.706(3)
H15 H 0.849(7) 0.578(6) 0.743(3)
H16 H 1.164(5) 0.659(5) 0.822(3)
H17 H 1.231(5) 0.478(6) 0.785(3)
O1A O 1.3658(3) 0.8814(3) 0.73578(17)
O2A O 1.4315(3) 1.1199(3) 0.64193(16)
O3A O 1.3086(3) 1.3281(3) 0.45756(16)
O4A O 0.9334(2) 1.3990(3) 0.32675(14)
O5A O 2.1367(4) 1.3326(4) 1.0655(2)
O6A O 2.3198(4) 1.2452(6) 0.9742(2)
N1A N 2.1629(4) 1.2582(4) 0.9903(2)
C1A C 1.9953(4) 1.1804(4) 0.9143(2)
C2A C 1.2497(4) 1.5004(4) 0.4194(3)
C3A C 1.2680(5) 1.0751(5) 0.5610(3)
C4A C 2.0219(4) 1.0769(4) 0.8353(2)
C5A C 1.5093(4) 0.9695(4) 0.6919(2)
C6A C 1.8634(4) 1.0078(4) 0.7644(2)
C7A C 1.1111(4) 1.4861(4) 0.3175(3)
C8A C 0.7910(4) 1.4000(4) 0.2351(2)
C9A C 1.6832(4) 1.0435(4) 0.7723(2)
C10A C 1.1893(4) 1.2458(5) 0.5168(3)
C11A C 1.3915(4) 0.6919(5) 0.7489(3)
C12A C 1.8161(5) 1.2181(5) 0.9261(2)
C13A C 1.6594(5) 1.1488(5) 0.8531(3)
H1A H 1.880(5) 0.940(5) 0.709(3)
H2A H 2.157(6) 1.058(5) 0.830(3)
H3A H 1.805(4) 1.288(4) 0.984(2)
H4A H 1.532(7) 1.156(6) 0.863(3)
H5A H 1.410(5) 0.641(5) 0.677(3)
H6A H 1.495(7) 0.674(7) 0.806(4)
H7A H 1.542(4) 0.878(4) 0.634(2)
H8A H 1.167(6) 1.002(5) 0.591(3)
H9A H 1.308(4) 1.002(4) 0.516(2)
H10A H 1.083(6) 1.223(5) 0.481(3)
H11A H 1.182(5) 1.324(5) 0.579(3)
H12A H 1.194(5) 1.562(4) 0.468(2)
H13A H 1.357(5) 1.579(4) 0.404(2)
H14A H 1.098(6) 1.608(6) 0.294(3)
H15A H 1.151(7) 1.422(6) 0.257(3)
H16A H 0.836(5) 1.341(5) 0.178(3)
H17A H 0.769(5) 1.522(6) 0.215(3)
#END
