
#######################################################################
#
#                 Cambridge Crystallographic Data Centre
#                                CCDC
#
#######################################################################
#
# If this CIF has been generated from an entry in the Cambridge
# Structural Database, then it will include bibliographic, chemical,
# crystal, experimental, refinement or atomic coordinate data resulting
# from the CCDC's data processing and validation procedures.
#
#######################################################################

data_CSD_CIF_COCNBZ10
_audit_creation_date 1983-03-10
_audit_creation_method CSD-ConQuest-V1
_database_code_CSD COCNBZ10
_database_code_depnum_ccdc_archive 'CCDC 1128207'
_chemical_formula_sum 'C15 H16 N2 O6'
_chemical_formula_moiety
;
C15 H16 N2 O6
;
_journal_coeditor_code "IUCr A21412"
_journal_coden_Cambridge 107
_journal_volume 38
_journal_year 1982
_journal_page_first 2200
_journal_name_full 'Acta Crystallogr.,Sect.B:Struct.Crystallogr.Cryst.Chem. '
loop_
_publ_author_name
"O.Ermer"
"S.A.Mason"
_chemical_name_systematic
;
trans-2-Cyclo-octen-1-yl-3,5-dinitrobenzoate
;
_chemical_melting_point 421
_cell_volume    743.855
_exptl_crystal_density_diffrn 1.43
_diffrn_ambient_temperature ?
_diffrn_special_details
;
The study was carried out at room temperature,in the range 283-303K

;
#These two values have been output from a single CSD field.
_refine_ls_R_factor_gt 0.052
_refine_ls_wR_factor_gt 0.052
_symmetry_cell_setting triclinic
_symmetry_space_group_name_H-M 'P -1'
_symmetry_Int_Tables_number 2
loop_
_symmetry_equiv_pos_site_id
_symmetry_equiv_pos_as_xyz
1 x,y,z
2 -x,-y,-z
_cell_length_a 10.963(2)
_cell_length_b 5.656(1)
_cell_length_c 14.873(2)
_cell_angle_alpha 104.91(1)
_cell_angle_beta 122.75(1)
_cell_angle_gamma 76.18(1)
_cell_formula_units_Z 2
loop_
_atom_type_symbol
_atom_type_radius_bond
C 0.68
H 0.23
N 0.68
O 0.68
loop_
_atom_site_label
_atom_site_type_symbol
_atom_site_fract_x
_atom_site_fract_y
_atom_site_fract_z
C1 C -0.11200 1.24230 0.36290
C2 C -0.08660 0.99760 0.34680
C3 C -0.10930 0.86930 0.23990
C4 C -0.26920 0.82370 0.16860
C5 C -0.37810 1.05860 0.16420
C6 C -0.40570 1.14570 0.26050
C7 C -0.35280 1.38780 0.33490
C8 C -0.18890 1.37350 0.42180
C9 C 0.12110 0.29260 0.20480
C10 C 0.15090 0.14740 0.12620
C11 C 0.23860 -0.07330 0.14850
C12 C 0.29830 -0.15740 0.24510
C13 C 0.26820 -0.00810 0.32090
C14 C 0.18110 0.21490 0.30360
C15 C 0.02270 0.53120 0.17910
N1 N 0.27130 -0.23070 0.06580
N2 N 0.32920 -0.09210 0.42510
O1 O -0.01420 0.63070 0.25380
O2 O -0.01610 0.61840 0.10130
O3 O 0.21450 -0.16080 -0.02050
O4 O 0.35230 -0.42010 0.08920
O5 O 0.37450 -0.30960 0.42950
O6 O 0.33010 0.05700 0.49960
H1 H -0.10890 1.32890 0.31310
H2 H -0.09600 0.89430 0.38700
H3 H -0.08320 0.96340 0.20510
H4 H -0.29060 0.75770 0.09610
H5 H -0.28560 0.69390 0.19720
H6 H -0.46870 1.02470 0.10160
H7 H -0.34390 1.20530 0.15550
H8 H -0.51140 1.17110 0.22980
H9 H -0.37130 1.00380 0.30200
H10 H -0.40790 1.44900 0.37150
H11 H -0.37600 1.51340 0.28710
H12 H -0.16210 1.54510 0.45390
H13 H -0.17800 1.26960 0.47140
H14 H 0.11110 0.20170 0.05980
H15 H 0.35700 -0.31650 0.25620
H16 H 0.16670 0.31040 0.35740
#END
