
#######################################################################
#
#                 Cambridge Crystallographic Data Centre
#                                CCDC
#
#######################################################################
#
# If this CIF has been generated from an entry in the Cambridge
# Structural Database, then it will include bibliographic, chemical,
# crystal, experimental, refinement or atomic coordinate data resulting
# from the CCDC's data processing and validation procedures.
#
#######################################################################

data_CSD_CIF_COCNBZ01
_audit_creation_date 1983-03-10
_audit_creation_method CSD-ConQuest-V1
_database_code_CSD COCNBZ01
_database_code_depnum_ccdc_archive 'CCDC 1128206'
_chemical_formula_sum 'C15 H16 N2 O6'
_chemical_formula_moiety
;
C15 H16 N2 O6
;
_journal_coeditor_code "IUCr A21412"
_journal_coden_Cambridge 107
_journal_volume 38
_journal_year 1982
_journal_page_first 2200
_journal_name_full 'Acta Crystallogr.,Sect.B:Struct.Crystallogr.Cryst.Chem. '
loop_
_publ_author_name
"O.Ermer"
"S.A.Mason"
_chemical_name_systematic
;
trans-2-Cyclo-octen-1-yl-3,5-dinitrobenzoate
;
_chemical_melting_point 421
_cell_volume    743.855
_exptl_crystal_density_diffrn 1.43
_diffrn_ambient_temperature ?
_diffrn_radiation_probe 'neutron radiation'
_diffrn_special_details
;
The study was carried out at room temperature,in the range 283-303K

;
#These two values have been output from a single CSD field.
_refine_ls_R_factor_gt 0.03
_refine_ls_wR_factor_gt 0.03
_symmetry_cell_setting triclinic
_symmetry_space_group_name_H-M 'P -1'
_symmetry_Int_Tables_number 2
loop_
_symmetry_equiv_pos_site_id
_symmetry_equiv_pos_as_xyz
1 x,y,z
2 -x,-y,-z
_cell_length_a 10.963(2)
_cell_length_b 5.656(1)
_cell_length_c 14.873(2)
_cell_angle_alpha 104.91(1)
_cell_angle_beta 122.75(1)
_cell_angle_gamma 76.18(1)
_cell_formula_units_Z 2
loop_
_atom_type_symbol
_atom_type_radius_bond
C 0.68
H 0.23
N 0.68
O 0.68
loop_
_atom_site_label
_atom_site_type_symbol
_atom_site_fract_x
_atom_site_fract_y
_atom_site_fract_z
C1 C -0.11190 1.24320 0.36310
C2 C -0.08690 0.99640 0.34660
C3 C -0.10860 0.86770 0.23990
C4 C -0.26980 0.82270 0.16790
C5 C -0.37790 1.05630 0.16400
C6 C -0.40630 1.14380 0.26010
C7 C -0.35310 1.38830 0.33510
C8 C -0.18900 1.37400 0.42200
C9 C 0.12050 0.29210 0.20490
C10 C 0.15030 0.14780 0.12590
C11 C 0.23870 -0.07460 0.14820
C12 C 0.29880 -0.16050 0.24490
C13 C 0.26820 -0.00900 0.32150
C14 C 0.18100 0.21550 0.30400
C15 C 0.02210 0.53040 0.17930
N1 N 0.27110 -0.23020 0.06590
N2 N 0.32920 -0.09400 0.42480
O1 O -0.01440 0.63120 0.25370
O2 O -0.01630 0.61830 0.10150
O3 O 0.21480 -0.16160 -0.02010
O4 O 0.35200 -0.41940 0.08890
O5 O 0.37440 -0.31100 0.42910
O6 O 0.33000 0.05600 0.49930
H1 H -0.10920 1.34420 0.31240
H2 H -0.09390 0.89160 0.39420
H3 H -0.08280 0.97420 0.20220
H4 H -0.29200 0.74620 0.08550
H5 H -0.28690 0.68330 0.19760
H6 H -0.48190 1.01860 0.09040
H7 H -0.34680 1.20860 0.15040
H8 H -0.52450 1.17020 0.22470
H9 H -0.36370 0.99780 0.30860
H10 H -0.41280 1.45520 0.37730
H11 H -0.38000 1.52450 0.28630
H12 H -0.16020 1.55880 0.46170
H13 H -0.16670 1.27070 0.48220
H14 H 0.10560 0.21030 0.04930
H15 H 0.36700 -0.33520 0.26050
H16 H 0.16050 0.32800 0.36680
#END
