
#######################################################################
#
#                 Cambridge Crystallographic Data Centre
#                                CCDC
#
#######################################################################
#
# If this CIF has been generated from an entry in the Cambridge
# Structural Database, then it will include bibliographic, chemical,
# crystal, experimental, refinement or atomic coordinate data resulting
# from the CCDC's data processing and validation procedures.
#
#######################################################################

data_CSD_CIF_CODCAA
_audit_creation_date 2008-08-28
_audit_creation_method CSD-ConQuest-V1
_database_code_CSD CODCAA
_database_code_depnum_ccdc_archive 'CCDC 663380'
_chemical_formula_sum 'C14 H21 N1 O5'
_chemical_formula_moiety
;
C14 H21 N1 O5
;
_journal_coden_Cambridge 35
_journal_volume 73
_journal_year 2008
_journal_page_first 1999
_journal_name_full 'J.Org.Chem. '
loop_
_publ_author_name
"F.Cardona"
"D.Lalli"
"C.Faggi"
"A.Goti"
"A.Brandi"
_chemical_name_systematic
;
endo-anti-10-t-butoxyoctahydro-2,5-epoxyoxepino[4,5-d]pyrrolo[1,2-b]isoxazol-1
(2H)-one
;
_chemical_melting_point 378.15
_cell_volume   1463.106
_exptl_crystal_colour 'colorless'
_exptl_crystal_density_diffrn 1.286
_exptl_special_details
;
Melting point range 378.15-380.15K

;
_exptl_crystal_description 'prismatic'
_exptl_crystal_preparation 'ethyl acetate'
_diffrn_ambient_temperature 293
#These two values have been output from a single CSD field.
_refine_ls_R_factor_gt 0.0465
_refine_ls_wR_factor_gt 0.0465
loop_
_citation_database_id_CSD
_citation_special_details
CIYVEM "is a stereoisomer of this entry"
_symmetry_cell_setting orthorhombic
_symmetry_space_group_name_H-M 'P 21 21 21'
_symmetry_Int_Tables_number 19
loop_
_symmetry_equiv_pos_site_id
_symmetry_equiv_pos_as_xyz
1 x,y,z
2 1/2-x,-y,1/2+z
3 1/2+x,1/2-y,-z
4 -x,1/2+y,1/2-z
_cell_length_a 7.336(1)
_cell_length_b 8.994(1)
_cell_length_c 22.175(1)
_cell_angle_alpha 90
_cell_angle_beta 90
_cell_angle_gamma 90
_cell_formula_units_Z 4
loop_
_atom_type_symbol
_atom_type_radius_bond
C 0.68
H 0.23
N 0.68
O 0.68
loop_
_atom_site_label
_atom_site_type_symbol
_atom_site_fract_x
_atom_site_fract_y
_atom_site_fract_z
N1 N 0.6640(3) 0.0444(2) 0.61365(11)
O1 O 0.3712(4) 0.3937(3) 0.71625(11)
O2 O 0.1395(3) 0.1528(2) 0.62285(9)
O3 O 0.0524(3) 0.1617(3) 0.72073(9)
O4 O 0.4767(3) -0.0084(2) 0.60245(8)
O5 O 0.7610(3) 0.40889(19) 0.60408(10)
C1 C 0.1368(4) 0.2446(4) 0.67450(13)
H1 H 0.067(5) 0.355(4) 0.6673(15)
C2 C 0.3308(4) 0.2754(3) 0.69396(11)
C3 C 0.4672(4) 0.1507(3) 0.68686(11)
H2 H 0.514(4) 0.126(3) 0.7262(12)
C4 C 0.3899(4) 0.0060(3) 0.65935(12)
H3 H 0.413(5) -0.076(4) 0.6866(15)
C5 C 0.1870(4) 0.0099(3) 0.64792(14)
H4 H 0.140(5) -0.059(4) 0.6197(15)
C6 C 0.0734(5) 0.0071(4) 0.70541(16)
H5 H -0.04410 -0.03930 0.69830
H6 H 0.13600 -0.04650 0.73720
C7 C 0.6303(4) 0.1884(3) 0.64487(11)
H7 H 0.749(4) 0.211(3) 0.6703(12)
C8 C 0.6083(4) 0.3111(3) 0.59564(11)
H8 H 0.490(4) 0.365(3) 0.5969(13)
C9 C 0.6231(4) 0.2251(3) 0.53613(12)
H9 H 0.50340 0.19950 0.52070
H10 H 0.68770 0.28270 0.50590
C10 C 0.7294(5) 0.0871(3) 0.55333(13)
H11 H 0.70730 0.00780 0.52460
H12 H 0.85910 0.10810 0.55430
C11 C 0.7378(6) 0.5656(3) 0.59154(14)
C12 C 0.6749(8) 0.5926(4) 0.52829(19)
H13 H 0.75740 0.54550 0.50060
H14 H 0.67210 0.69760 0.52060
H15 H 0.55490 0.55200 0.52310
C13 C 0.6252(10) 0.6349(5) 0.6384(2)
H16 H 0.67510 0.61240 0.67740
H17 H 0.50310 0.59700 0.63590
H18 H 0.62370 0.74070 0.63260
C14 C 0.9305(9) 0.6255(5) 0.5982(2)
H19 H 0.97220 0.60910 0.63870
H20 H 0.93120 0.73020 0.58970
H21 H 1.00970 0.57510 0.57050
#END
