
#######################################################################
#
#                 Cambridge Crystallographic Data Centre
#                                CCDC
#
#######################################################################
#
# If this CIF has been generated from an entry in the Cambridge
# Structural Database, then it will include bibliographic, chemical,
# crystal, experimental, refinement or atomic coordinate data resulting
# from the CCDC's data processing and validation procedures.
#
#######################################################################

data_CSD_CIF_COGGAI
_audit_creation_date 2014-04-25
_audit_creation_method CSD-ConQuest-V1
_database_code_CSD COGGAI
_database_code_depnum_ccdc_archive 'CCDC 983265'
_chemical_formula_sum 'C4 H2 N10 O4'
_chemical_formula_moiety
;
C4 H2 N10 O4
;
_journal_coden_Cambridge 1220
_journal_volume 20
_journal_year 2014
_journal_page_first 6707
_journal_name_full 'Chem.-Eur.J. '
loop_
_publ_author_name
"Ping Yin"
"D.A.Parrish"
"J.M.Shreeve"
_chemical_name_systematic
;
(E)-1,2-bis(3-Nitro-1H-1,2,4-triazol-1-yl)diazene
;
_cell_volume    463.912
_exptl_crystal_colour 'colorless'
_exptl_crystal_density_diffrn 1.819
_exptl_crystal_description 'prism'
_diffrn_ambient_temperature 293
#These two values have been output from a single CSD field.
_refine_ls_R_factor_gt 0.0331
_refine_ls_wR_factor_gt 0.0331
_symmetry_cell_setting monoclinic
_symmetry_space_group_name_H-M 'P 21/c'
_symmetry_Int_Tables_number 14
loop_
_symmetry_equiv_pos_site_id
_symmetry_equiv_pos_as_xyz
1 x,y,z
2 -x,1/2+y,1/2-z
3 -x,-y,-z
4 x,-1/2-y,-1/2+z
_cell_length_a 6.3640(12)
_cell_length_b 5.1592(10)
_cell_length_c 14.299(3)
_cell_angle_alpha 90
_cell_angle_beta 98.834(2)
_cell_angle_gamma 90
_cell_formula_units_Z 2
loop_
_atom_type_symbol
_atom_type_radius_bond
C 0.68
H 0.23
N 0.68
O 0.68
loop_
_atom_site_label
_atom_site_type_symbol
_atom_site_fract_x
_atom_site_fract_y
_atom_site_fract_z
N1 N 0.87299(19) 0.9283(3) 0.89023(9)
N2 N 0.87296(19) 1.0204(3) 0.80208(9)
C1 C 0.7469(2) 0.8521(3) 0.75411(10)
N3 N 0.6660(2) 0.6605(3) 0.80184(9)
C2 C 0.7493(2) 0.7127(3) 0.88899(11)
H1 H 0.72760 0.61760 0.94190
N4 N 0.9980(2) 1.0594(3) 0.96243(9)
N5 N 0.6973(2) 0.8717(3) 0.65189(9)
O1 O 0.77508(19) 1.0519(3) 0.61336(8)
O2 O 0.58009(19) 0.7075(3) 0.61051(8)
N1B N 1.12701(19) 1.0717(3) 1.10977(9)
N2B N 1.12704(19) 0.9796(3) 1.19792(9)
C1B C 1.2531(2) 1.1479(3) 1.24589(10)
N3B N 1.3340(2) 1.3395(3) 1.19816(9)
C2B C 1.2507(2) 1.2873(3) 1.11101(11)
H1B H 1.27240 1.38240 1.05810
N4B N 1.0020(2) 0.9406(3) 1.03757(9)
N5B N 1.3027(2) 1.1283(3) 1.34811(9)
O1B O 1.22492(19) 0.9481(3) 1.38664(8)
O2B O 1.41991(19) 1.2925(3) 1.38949(8)
#END
