
#######################################################################
#
#                 Cambridge Crystallographic Data Centre
#                                CCDC
#
#######################################################################
#
# If this CIF has been generated from an entry in the Cambridge
# Structural Database, then it will include bibliographic, chemical,
# crystal, experimental, refinement or atomic coordinate data resulting
# from the CCDC's data processing and validation procedures.
#
#######################################################################

data_CSD_CIF_COGMOB
_audit_creation_date 2009-01-23
_audit_creation_method CSD-ConQuest-V1
_database_code_CSD COGMOB
_database_code_depnum_ccdc_archive 'CCDC 681201'
_chemical_formula_sum 'C12 H15 N1 O6'
_chemical_formula_moiety
;
C12 H15 N1 O6
;
_journal_coden_Cambridge 182
_journal_year 2008
_journal_page_first 3549
_journal_name_full 'Chem.Commun. '
loop_
_publ_author_name
"A.Adibekian"
"M.S.M.Timmer"
"P.Stallforth"
"J.van Rijn"
"D.B.Werz"
"P.H.Seeberger"
_chemical_name_systematic
;
allo-1,3-O-Benzylidene-6-deoxy-6-nitro-L-arabitol
;
_chemical_melting_point 374.15
_cell_volume    632.841
_exptl_crystal_colour 'colorless'
_exptl_crystal_density_diffrn 1.413
_diffrn_ambient_temperature 223
#These two values have been output from a single CSD field.
_refine_ls_R_factor_gt 0.0419
_refine_ls_wR_factor_gt 0.0419
_symmetry_cell_setting monoclinic
_symmetry_space_group_name_H-M 'P 21'
_symmetry_Int_Tables_number 4
loop_
_symmetry_equiv_pos_site_id
_symmetry_equiv_pos_as_xyz
1 x,y,z
2 -x,1/2+y,-z
_cell_length_a 5.1511(3)
_cell_length_b 8.8875(5)
_cell_length_c 13.8985(10)
_cell_angle_alpha 90
_cell_angle_beta 95.959(3)
_cell_angle_gamma 90
_cell_formula_units_Z 2
loop_
_atom_type_symbol
_atom_type_radius_bond
C 0.68
H 0.23
N 0.68
O 0.68
loop_
_atom_site_label
_atom_site_type_symbol
_atom_site_fract_x
_atom_site_fract_y
_atom_site_fract_z
C1 C 1.3512(5) 0.6512(3) 0.2040(2)
H1 H 1.51160 0.71120 0.21200
H2 H 1.29700 0.63130 0.26840
C2 C 1.1393(5) 0.7381(3) 0.14415(17)
H3 H 0.98040 0.67520 0.13300
C3 C 1.0752(5) 0.8837(3) 0.19518(17)
H4 H 1.23760 0.94240 0.21060
C4 C 0.8751(5) 0.9809(3) 0.13505(17)
H5 H 0.72600 0.91820 0.10830
C5 C 0.7796(6) 1.1059(4) 0.1965(2)
H6 H 0.91950 1.17960 0.21130
H7 H 0.63180 1.15730 0.16040
O1 O 0.7000(3) 1.0466(2) 0.28516(12)
C6 C 0.9091(5) 0.9689(3) 0.33750(17)
H8 H 1.06250 1.03630 0.34790
O2 O 0.9741(3) 0.8403(2) 0.28384(11)
O3 O 0.9917(4) 1.0529(3) 0.05821(13)
H9 H 1.07720 0.99030 0.03030
N1 N 1.4021(5) 0.5059(3) 0.15556(18)
O4 O 1.2297(4) 0.4143(3) 0.14387(17)
O5 O 1.6141(5) 0.4845(4) 0.1305(3)
O6 O 1.2253(4) 0.7794(2) 0.05384(13)
H10 H 1.15790 0.72270 0.01080
C7 C 0.8303(4) 0.9196(3) 0.43294(17)
C8 C 0.9758(5) 0.9623(4) 0.51729(19)
H11 H 1.12220 1.02470 0.51450
C9 C 0.9081(6) 0.9139(4) 0.6069(2)
H12 H 1.00950 0.94250 0.66410
C10 C 0.6932(5) 0.8244(4) 0.61115(19)
H13 H 0.64740 0.79160 0.67150
C11 C 0.5440(6) 0.7820(4) 0.5279(2)
H14 H 0.39680 0.72050 0.53130
C12 C 0.6106(5) 0.8302(4) 0.4388(2)
H15 H 0.50680 0.80220 0.38200
#END
