
#######################################################################
#
#                 Cambridge Crystallographic Data Centre
#                                CCDC
#
#######################################################################
#
# If this CIF has been generated from an entry in the Cambridge
# Structural Database, then it will include bibliographic, chemical,
# crystal, experimental, refinement or atomic coordinate data resulting
# from the CCDC's data processing and validation procedures.
#
#######################################################################

data_CSD_CIF_COHTIE
_audit_creation_date 2014-09-05
_audit_creation_method CSD-ConQuest-V1
_database_code_CSD COHTIE
_database_code_depnum_ccdc_archive 'CCDC 993442'
_chemical_formula_sum 'C39 H53 N1 O4'
_chemical_formula_moiety
;
C39 H53 N1 O4
;
_journal_coden_Cambridge 6
_journal_volume 513
_journal_year 2014
_journal_page_first 183
_journal_name_full 'Nature (London) '
loop_
_publ_author_name
"M.Burns"
"S.Essafi"
"J.R.Bame"
"S.P.Bull"
"M.P.Webster"
"S.Balieu"
"J.W.Dale"
"C.P.Butts"
"J.N.Harvey"
"V.K.Aggarwal"
_chemical_name_systematic
;
(2R,3R,4R,5R,6R,7R,8S,9S,10S,11S)-11-((1,1'-Biphenyl)-4-yl)-3,4,5,6,7,8,9,10-o
ctamethyldodecan-2-yl 4-nitrobenzoate
;
_chemical_melting_point 428
_cell_volume   1678.617
_exptl_crystal_colour 'colorless'
_exptl_special_details
;
Melting point range 428-431K

;
_exptl_crystal_preparation 'diethyl ether/isopropanol'
_diffrn_ambient_temperature ?
_diffrn_special_details
;
The study was carried out at room temperature,in the range 283-303K

;
loop_
_citation_database_id_CSD
_citation_special_details
COHTOK "is a stereoisomer of this entry"
_symmetry_cell_setting monoclinic
_symmetry_space_group_name_H-M 'P 21'
_symmetry_Int_Tables_number 4
loop_
_symmetry_equiv_pos_site_id
_symmetry_equiv_pos_as_xyz
1 x,y,z
2 -x,1/2+y,-z
_cell_length_a 6.2932(5)
_cell_length_b 42.685(3)
_cell_length_c 6.7240(5)
_cell_angle_alpha 90
_cell_angle_beta 111.667(2)
_cell_angle_gamma 90
_cell_formula_units_Z 2
loop_
_atom_type_symbol
_atom_type_radius_bond
C 0.68
H 0.23
N 0.68
O 0.68
loop_
_atom_site_label
_atom_site_type_symbol
_atom_site_fract_x
_atom_site_fract_y
_atom_site_fract_z
C1 C 0.4702(4) 0.09587(5) 0.8259(4)
C2 C 0.6545(4) 0.10272(5) 0.7675(4)
H1 H 0.66290 0.09460 0.63920
C3 C 0.8262(4) 0.12179(5) 0.9013(4)
H2 H 0.95480 0.12670 0.86530
C4 C 0.8106(4) 0.13385(5) 1.0898(4)
C5 C 0.6240(4) 0.12609(5) 1.1465(4)
H3 H 0.61460 0.13410 1.27480
C6 C 0.4525(4) 0.10662(5) 1.0142(4)
H4 H 0.32640 0.10080 1.05170
C7 C 0.9968(4) 0.15535(5) 1.2237(4)
C8 C 1.1069(4) 0.19297(5) 1.5085(4)
H5 H 1.19140 0.20230 1.42300
C9 C 1.2758(4) 0.17638(6) 1.7020(4)
H6 H 1.19480 0.16780 1.78930
H7 H 1.39210 0.19130 1.78730
H8 H 1.34970 0.15930 1.65420
C10 C 0.9692(4) 0.21873(5) 1.5652(4)
H9 H 1.08390 0.23110 1.68230
C11 C 0.8022(5) 0.20559(6) 1.6628(4)
H10 H 0.69440 0.19130 1.56050
H11 H 0.71780 0.22290 1.69530
H12 H 0.88780 0.19420 1.79470
C12 C 0.8509(4) 0.24281(5) 1.3840(4)
H13 H 0.77960 0.25910 1.44630
C13 C 0.6568(4) 0.22815(6) 1.1940(4)
H14 H 0.72210 0.21570 1.10790
H15 H 0.56040 0.24480 1.10550
H16 H 0.56430 0.21460 1.24760
C14 C 1.0259(4) 0.26009(5) 1.3076(4)
H17 H 1.08400 0.24360 1.23500
C15 C 1.2390(4) 0.27192(5) 1.4921(4)
H18 H 1.19190 0.28490 1.58880
H19 H 1.33330 0.28440 1.43400
H20 H 1.32770 0.25400 1.57110
C16 C 0.9242(4) 0.28627(5) 1.1334(4)
H21 H 0.76520 0.27970 1.04330
C17 C 1.0639(5) 0.28606(5) 0.9875(4)
H22 H 0.98630 0.29890 0.86050
H23 H 1.07780 0.26450 0.94350
H24 H 1.21660 0.29460 1.06570
C18 C 0.9071(4) 0.31957(5) 1.2204(3)
H25 H 1.06490 0.32580 1.31630
C19 C 0.7581(4) 0.31907(5) 1.3581(4)
H26 H 0.61060 0.30920 1.27720
H27 H 0.73280 0.34060 1.39560
H28 H 0.83610 0.30710 1.48920
C20 C 0.8128(4) 0.34627(5) 1.0489(4)
H29 H 0.75820 0.36310 1.12200
C21 C 0.5983(4) 0.33532(6) 0.8612(4)
H30 H 0.51550 0.35360 0.78180
H31 H 0.49900 0.32350 0.91690
H32 H 0.64420 0.32190 0.76560
C22 C 0.9938(4) 0.36245(5) 0.9735(4)
H33 H 1.05050 0.34570 0.90170
C23 C 1.2051(4) 0.37375(6) 1.1636(4)
H34 H 1.15580 0.38700 1.25760
H35 H 1.30510 0.38580 1.10990
H36 H 1.28870 0.35560 1.24410
C24 C 0.8976(4) 0.38890(5) 0.8025(4)
H37 H 0.74190 0.38220 0.70450
C25 C 1.0485(5) 0.39096(6) 0.6683(4)
H38 H 0.98430 0.40640 0.55420
H39 H 1.05410 0.37040 0.60510
H40 H 1.20350 0.39730 0.76010
C26 C 0.8733(4) 0.42224(5) 0.8862(4)
H41 H 1.03090 0.43010 0.96900
C27 C 0.7386(5) 0.42327(6) 1.0362(4)
H42 H 0.71320 0.44510 1.06620
H43 H 0.82590 0.41260 1.17050
H44 H 0.59090 0.41280 0.96740
C28 C 0.7652(4) 0.44448(5) 0.6979(4)
C29 C 0.5326(4) 0.44270(6) 0.5719(4)
H45 H 0.44120 0.42750 0.60570
C30 C 0.4304(4) 0.46257(5) 0.3981(4)
H46 H 0.27110 0.46090 0.31720
C31 C 0.5620(4) 0.48498(5) 0.3423(4)
C32 C 0.7954(4) 0.48708(5) 0.4689(4)
H47 H 0.88760 0.50220 0.43490
C33 C 0.8939(4) 0.46732(5) 0.6438(4)
H48 H 1.05200 0.46940 0.72830
C34 C 0.4555(4) 0.50519(5) 0.1501(4)
C35 C 0.5633(4) 0.50993(5) 0.0034(4)
H49 H 0.71070 0.50130 0.03190
C36 C 0.4579(5) 0.52707(6) -0.1829(4)
H50 H 0.53210 0.52970 -0.28190
C37 C 0.2438(5) 0.54038(6) -0.2245(4)
H51 H 0.17160 0.55210 -0.35190
C38 C 0.1357(5) 0.53646(5) -0.0792(4)
H52 H -0.00950 0.54570 -0.10620
C39 C 0.2410(4) 0.51891(6) 0.1061(4)
H53 H 0.16590 0.51620 0.20430
N1 N 0.2802(4) 0.07720(5) 0.6765(3)
O1 O 0.9432(3) 0.16971(4) 1.3767(3)
O2 O 1.1722(3) 0.15985(4) 1.1918(3)
O3 O 0.1176(3) 0.07099(5) 0.7305(3)
O4 O 0.2931(4) 0.06924(5) 0.5061(3)
#END
