
#######################################################################
#
#                 Cambridge Crystallographic Data Centre
#                                CCDC
#
#######################################################################
#
# If this CIF has been generated from an entry in the Cambridge
# Structural Database, then it will include bibliographic, chemical,
# crystal, experimental, refinement or atomic coordinate data resulting
# from the CCDC's data processing and validation procedures.
#
#######################################################################

data_CSD_CIF_COJDEK
_audit_creation_date 1985-06-30
_audit_creation_method CSD-ConQuest-V1
_database_code_CSD COJDEK
_database_code_depnum_ccdc_archive 'CCDC 1128929'
_chemical_formula_sum 'C38 H40 N2 O4'
_chemical_formula_moiety
;
C38 H40 N2 O4
;
_journal_coden_Cambridge 48
_journal_volume 117
_journal_year 1984
_journal_page_first 2615
_journal_name_full 'Chem.Ber. '
loop_
_publ_author_name
"H.G.Aurich"
"G.Baum"
"W.Massa"
"K.-D.Mogendorf"
"M.Schmidt"
_chemical_name_systematic
;
5,10-Di-t-butyl-3,8,11,12-tetraphenyl-2,4,7,9-tetraoxa-5,10-diazatetracyclo(4.
4.2.0^3,12^.0^8,11^)dodecane
;
_chemical_melting_point 488.15
_cell_volume   3213.981
_exptl_crystal_colour 'colorless'
_exptl_crystal_density_diffrn 1.217
_exptl_special_details
;
Melting point range 488.15-490.15K

;
_diffrn_ambient_temperature ?
_diffrn_special_details
;
The study was carried out at room temperature,in the range 283-303K

;
#These two values have been output from a single CSD field.
_refine_ls_R_factor_gt 0.046
_refine_ls_wR_factor_gt 0.046
_symmetry_cell_setting orthorhombic
_symmetry_space_group_name_H-M 'P b c n'
_symmetry_Int_Tables_number 60
loop_
_symmetry_equiv_pos_site_id
_symmetry_equiv_pos_as_xyz
1 x,y,z
2 1/2-x,1/2-y,1/2+z
3 1/2+x,1/2-y,-z
4 -x,y,1/2-z
5 -x,-y,-z
6 -1/2+x,-1/2+y,-1/2-z
7 -1/2-x,-1/2+y,z
8 x,-y,-1/2+z
_cell_length_a 9.565(1)
_cell_length_b 15.987(4)
_cell_length_c 21.018(7)
_cell_angle_alpha 90
_cell_angle_beta 90
_cell_angle_gamma 90
_cell_formula_units_Z 4
loop_
_atom_type_symbol
_atom_type_radius_bond
C 0.68
H 0.23
N 0.68
O 0.68
loop_
_atom_site_label
_atom_site_type_symbol
_atom_site_fract_x
_atom_site_fract_y
_atom_site_fract_z
C1 C 0.6218(2) 0.2063(1) 0.6887(1)
C2 C 0.4932(2) 0.2547(1) 0.7127(1)
C3 C 0.3710(2) 0.1898(1) 0.6997(1)
O1 O 0.4412(1) 0.1143(1) 0.6816(1)
N1 N 0.5639(2) 0.1443(1) 0.6468(1)
O2 O 0.6972(1) 0.1755(1) 0.7427(1)
C4 C 0.6478(2) 0.0711(1) 0.6258(1)
C5 C 0.5648(4) 0.0289(2) 0.5727(1)
C6 C 0.7840(3) 0.1071(2) 0.5989(2)
C7 C 0.6787(5) 0.0081(2) 0.6779(1)
C8 C 0.4643(2) 0.3362(1) 0.6774(1)
C9 C 0.3747(2) 0.3960(1) 0.7013(1)
C10 C 0.3357(3) 0.4650(1) 0.6656(1)
C11 C 0.3856(3) 0.4747(1) 0.6048(1)
C12 C 0.4725(2) 0.4159(1) 0.5799(1)
C13 C 0.5122(2) 0.3470(1) 0.6155(1)
C14 C 0.2602(2) 0.2127(1) 0.6505(1)
C15 C 0.1414(3) 0.2549(2) 0.6679(1)
C16 C 0.0444(3) 0.2781(2) 0.6210(2)
C17 C 0.0664(4) 0.2578(2) 0.5589(2)
C18 C 0.1828(4) 0.2155(2) 0.5421(1)
C19 C 0.2797(3) 0.1928(2) 0.5869(1)
H1 H 0.687(2) 0.239(1) 0.665(1)
H2 H 0.555(3) 0.068(2) 0.540(1)
H3 H 0.474(4) 0.007(2) 0.588(1)
H4 H 0.618(3) -0.021(2) 0.557(1)
H5 H 0.841(3) 0.130(2) 0.634(2)
H6 H 0.830(3) 0.064(2) 0.577(1)
H7 H 0.755(4) 0.155(2) 0.565(2)
H8 H 0.596(3) -0.010(2) 0.699(1)
H9 H 0.719(2) -0.040(2) 0.659(1)
H10 H 0.730(3) 0.033(2) 0.712(1)
H11 H 0.338(2) 0.390(1) 0.742(1)
H12 H 0.284(2) 0.505(1) 0.683(1)
H13 H 0.358(2) 0.522(1) 0.580(1)
H14 H 0.503(2) 0.419(1) 0.536(1)
H15 H 0.563(2) 0.304(1) 0.596(1)
H16 H 0.126(2) 0.266(1) 0.712(1)
H17 H -0.019(3) 0.304(2) 0.640(1)
H18 H 0.007(3) 0.273(2) 0.527(1)
H19 H 0.199(3) 0.203(2) 0.493(2)
H20 H 0.369(3) 0.164(2) 0.576(1)
C2C C 0.5068(2) 0.2547(1) 0.7873(1)
O2C O 0.3028(1) 0.1755(1) 0.7573(1)
C3C C 0.6290(2) 0.1898(1) 0.8003(1)
C1C C 0.3782(2) 0.2063(1) 0.8113(1)
C8C C 0.5357(2) 0.3362(1) 0.8226(1)
O1C O 0.5588(1) 0.1143(1) 0.8184(1)
C14C C 0.7398(2) 0.2127(1) 0.8495(1)
N1C N 0.4361(2) 0.1443(1) 0.8532(1)
H1C H 0.313(2) 0.239(1) 0.835(1)
C9C C 0.6253(2) 0.3960(1) 0.7987(1)
C13C C 0.4878(2) 0.3470(1) 0.8845(1)
C15C C 0.8586(3) 0.2549(2) 0.8321(1)
C19C C 0.7203(3) 0.1928(2) 0.9131(1)
C4C C 0.3522(2) 0.0711(1) 0.8742(1)
C10C C 0.6643(3) 0.4650(1) 0.8344(1)
H11C H 0.662(2) 0.390(1) 0.758(1)
C12C C 0.5275(2) 0.4159(1) 0.9201(1)
H15C H 0.437(2) 0.304(1) 0.904(1)
C16C C 0.9556(3) 0.2781(2) 0.8790(2)
H16C H 0.874(2) 0.266(1) 0.788(1)
C18C C 0.8172(4) 0.2155(2) 0.9579(1)
H20C H 0.631(3) 0.164(2) 0.924(1)
C5C C 0.4352(4) 0.0289(2) 0.9273(1)
C6C C 0.2160(3) 0.1071(2) 0.9011(2)
C7C C 0.3213(5) 0.0081(2) 0.8221(1)
C11C C 0.6144(3) 0.4747(1) 0.8952(1)
H12C H 0.716(2) 0.505(1) 0.817(1)
H14C H 0.497(2) 0.419(1) 0.964(1)
C17C C 0.9336(4) 0.2578(2) 0.9411(2)
H17C H 1.019(3) 0.304(2) 0.860(1)
H19C H 0.801(3) 0.203(2) 1.007(2)
H2C H 0.445(3) 0.068(2) 0.960(1)
H3C H 0.526(4) 0.007(2) 0.912(1)
H4C H 0.382(3) -0.021(2) 0.943(1)
H5C H 0.159(3) 0.130(2) 0.866(2)
H6C H 0.170(3) 0.064(2) 0.923(1)
H7C H 0.245(4) 0.155(2) 0.935(2)
H8C H 0.404(3) -0.010(2) 0.801(1)
H9C H 0.281(2) -0.040(2) 0.841(1)
H10C H 0.270(3) 0.033(2) 0.788(1)
H13C H 0.642(2) 0.522(1) 0.920(1)
H18C H 0.993(3) 0.273(2) 0.973(1)
#END
