
#######################################################################
#
#                 Cambridge Crystallographic Data Centre
#                                CCDC
#
#######################################################################
#
# If this CIF has been generated from an entry in the Cambridge
# Structural Database, then it will include bibliographic, chemical,
# crystal, experimental, refinement or atomic coordinate data resulting
# from the CCDC's data processing and validation procedures.
#
#######################################################################

data_CSD_CIF_COJHEP
_audit_creation_date 2009-01-23
_audit_creation_method CSD-ConQuest-V1
_database_code_CSD COJHEP
_database_code_depnum_ccdc_archive 'CCDC 701596'
_chemical_formula_sum 'C23 H17 N1 O3'
_chemical_formula_moiety
;
C23 H17 N1 O3
;
_journal_coden_Cambridge 4
_journal_volume 130
_journal_year 2008
_journal_page_first 7824
_journal_name_full 'J.Am.Chem.Soc. '
loop_
_publ_author_name
"Ji Min Lee"
"Eun Ju Park"
"Seung Hwan Cho"
"Sukbok Chang"
_chemical_name_systematic
;
N-(Dibenzosuberan-1-yloxy)phthalamide
;
_chemical_melting_point 469.15
_cell_volume   1748.476
_exptl_crystal_density_diffrn 1.35
_exptl_special_details
;
Melting point range 469.15-470.15K

;
_diffrn_ambient_temperature 296
#These two values have been output from a single CSD field.
_refine_ls_R_factor_gt 0.0283
_refine_ls_wR_factor_gt 0.0283
_symmetry_cell_setting orthorhombic
_symmetry_space_group_name_H-M 'P n a 21'
_symmetry_Int_Tables_number 33
loop_
_symmetry_equiv_pos_site_id
_symmetry_equiv_pos_as_xyz
1 x,y,z
2 -x,-y,1/2+z
3 1/2+x,1/2-y,z
4 1/2-x,1/2+y,1/2+z
_cell_length_a 12.3497(10)
_cell_length_b 25.3030(19)
_cell_length_c 5.5954(5)
_cell_angle_alpha 90
_cell_angle_beta 90
_cell_angle_gamma 90
_cell_formula_units_Z 4
loop_
_atom_type_symbol
_atom_type_radius_bond
C 0.68
H 0.23
N 0.68
O 0.68
loop_
_atom_site_label
_atom_site_type_symbol
_atom_site_fract_x
_atom_site_fract_y
_atom_site_fract_z
O1 O 0.34995(14) 0.41244(7) 0.5940(4)
N1 N 0.33980(17) 0.46621(9) 0.6365(5)
C1 C 0.2783(2) 0.38308(10) 0.7624(5)
H1 H 0.28960 0.39880 0.92050
C2 C 0.1616(2) 0.3931(1) 0.6977(6)
C3 C 0.1025(2) 0.42726(11) 0.8415(6)
H2 H 0.13340 0.44040 0.98090
C4 C -0.0024(2) 0.44205(12) 0.7796(7)
H3 H -0.04140 0.46490 0.87720
C5 C -0.0478(2) 0.42272(13) 0.5739(7)
H4 H -0.11750 0.43280 0.53040
C6 C 0.0098(2) 0.38839(12) 0.4319(6)
H5 H -0.02250 0.37490 0.29470
C7 C 0.1151(2) 0.37336(11) 0.4885(6)
C8 C 0.1795(3) 0.33783(12) 0.3298(6)
H6 H 0.24580 0.35580 0.28480
H7 H 0.13850 0.33130 0.18500
C9 C 0.2081(3) 0.28537(12) 0.4433(7)
H8 H 0.14280 0.27100 0.51450
H9 H 0.22960 0.26140 0.31660
C10 C 0.2955(2) 0.28475(11) 0.6309(7)
C11 C 0.3498(3) 0.23693(12) 0.6674(8)
H10 H 0.33030 0.20790 0.57490
C12 C 0.4300(3) 0.23091(13) 0.8322(8)
H11 H 0.46320 0.19820 0.85270
C13 C 0.4615(3) 0.27352(14) 0.9682(9)
H12 H 0.51700 0.27020 1.07940
C14 C 0.4091(3) 0.32145(12) 0.9368(8)
H13 H 0.43040 0.35020 1.02910
C15 C 0.3262(2) 0.32799(11) 0.7725(6)
C16 C 0.2857(2) 0.50075(12) 0.4837(7)
O2 O 0.23915(18) 0.48925(8) 0.3037(4)
C17 C 0.3024(2) 0.55335(10) 0.6020(6)
C18 C 0.3641(2) 0.54681(11) 0.8027(6)
C19 C 0.3935(2) 0.49033(11) 0.8258(6)
O3 O 0.44907(16) 0.46760(8) 0.9697(5)
C20 C 0.2663(2) 0.60245(12) 0.5305(7)
H14 H 0.22420 0.60670 0.39400
C21 C 0.2957(3) 0.64519(13) 0.6717(7)
H15 H 0.27310 0.67890 0.62860
C22 C 0.3572(3) 0.63873(13) 0.8730(7)
H16 H 0.37500 0.66820 0.96420
C23 C 0.3935(2) 0.58951(11) 0.9442(7)
H17 H 0.43570 0.58520 1.08060
#END
