
#######################################################################
#
#                 Cambridge Crystallographic Data Centre
#                                CCDC
#
#######################################################################
#
# If this CIF has been generated from an entry in the Cambridge
# Structural Database, then it will include bibliographic, chemical,
# crystal, experimental, refinement or atomic coordinate data resulting
# from the CCDC's data processing and validation procedures.
#
#######################################################################

data_CSD_CIF_COJJAN
_audit_creation_date 2009-01-23
_audit_creation_method CSD-ConQuest-V1
_database_code_CSD COJJAN
_database_code_depnum_ccdc_archive 'CCDC 701604'
_chemical_formula_sum 'C15 H28 N2 O6'
_chemical_formula_moiety
;
C15 H28 N2 O6
;
_journal_coden_Cambridge 4
_journal_volume 130
_journal_year 2008
_journal_page_first 7955
_journal_name_full 'J.Am.Chem.Soc. '
loop_
_publ_author_name
"E.Gomez-Bengoa"
"A.Linden"
"R.Lopez"
"I.Mugica-Mendiola"
"M.Oiarbide"
"C.Palomo"
_chemical_name_systematic
;
Ethyl 6-methyl-4-((t-butoxycarbonyl)amino)-3-nitroheptanoate
;
_cell_volume   1892.435
_exptl_crystal_colour 'colorless'
_exptl_crystal_density_diffrn 1.167
_exptl_crystal_description 'prism'
_diffrn_ambient_temperature 160
#These two values have been output from a single CSD field.
_refine_ls_R_factor_gt 0.0564
_refine_ls_wR_factor_gt 0.0564
_symmetry_cell_setting orthorhombic
_symmetry_space_group_name_H-M 'P 21 21 21'
_symmetry_Int_Tables_number 19
loop_
_symmetry_equiv_pos_site_id
_symmetry_equiv_pos_as_xyz
1 x,y,z
2 1/2-x,-y,1/2+z
3 1/2+x,1/2-y,-z
4 -x,1/2+y,1/2-z
_cell_length_a 10.4434(7)
_cell_length_b 11.6473(6)
_cell_length_c 15.5580(9)
_cell_angle_alpha 90
_cell_angle_beta 90
_cell_angle_gamma 90
_cell_formula_units_Z 4
loop_
_atom_type_symbol
_atom_type_radius_bond
C 0.68
H 0.23
N 0.68
O 0.68
loop_
_atom_site_label
_atom_site_type_symbol
_atom_site_fract_x
_atom_site_fract_y
_atom_site_fract_z
O1 O -0.0892(3) 0.9923(2) 0.32409(19)
O2 O -0.1627(4) 0.9155(3) 0.20892(19)
O3 O -0.3647(2) 0.6421(2) 0.22655(16)
O4 O -0.3517(3) 0.7556(3) 0.3422(2)
O5 O 0.1589(3) 0.9289(2) 0.20232(19)
O6 O 0.2225(3) 0.77900(18) 0.11929(14)
N1 N -0.1161(3) 0.9086(2) 0.2804(2)
N2 N 0.1123(3) 0.7458(2) 0.23836(18)
H1 H 0.133(3) 0.672(3) 0.223(2)
C1 C -0.5498(5) 0.5383(5) 0.1853(3)
H2 H -0.51940 0.46460 0.20780
H3 H -0.51860 0.54860 0.12640
H4 H -0.64370 0.53920 0.18540
C2 C -0.5017(4) 0.6319(4) 0.2397(3)
H5 H -0.54460 0.70490 0.22430
H6 H -0.52000 0.61520 0.30090
C3 C -0.3020(4) 0.7047(3) 0.2838(2)
C4 C -0.1605(4) 0.7005(3) 0.2691(2)
H7 H -0.14360 0.71020 0.20700
H8 H -0.12850 0.62390 0.28620
C5 C -0.0870(3) 0.7912(3) 0.3182(2)
H9 H -0.11940 0.79080 0.37870
C6 C 0.0585(3) 0.7741(3) 0.3217(2)
H10 H 0.09780 0.84800 0.34110
C7 C 0.1640(4) 0.8276(3) 0.1874(2)
C8 C 0.2788(4) 0.8507(3) 0.0518(2)
C9 C 0.1776(7) 0.9255(5) 0.0112(4)
H11 H 0.15480 0.98760 0.05080
H12 H 0.10150 0.87920 -0.00130
H13 H 0.21090 0.95840 -0.04230
C10 C 0.3889(5) 0.9182(5) 0.0871(4)
H14 H 0.45280 0.86550 0.11100
H15 H 0.35810 0.96970 0.13240
H16 H 0.42780 0.96360 0.04090
C11 C 0.3276(8) 0.7620(5) -0.0115(3)
H17 H 0.25540 0.71680 -0.03340
H18 H 0.38840 0.71100 0.01750
H19 H 0.37040 0.80080 -0.05940
C12 C 0.0909(3) 0.6826(3) 0.3883(2)
H20 H 0.04990 0.60960 0.37080
H21 H 0.05310 0.70560 0.44410
C13 C 0.2337(4) 0.6609(3) 0.4014(2)
H22 H 0.26940 0.63060 0.34630
C14 C 0.3063(4) 0.7702(4) 0.4240(3)
H23 H 0.27020 0.80370 0.47640
H24 H 0.29860 0.82530 0.37670
H25 H 0.39690 0.75190 0.43340
C15 C 0.2521(4) 0.5695(3) 0.4700(2)
H26 H 0.21400 0.59580 0.52420
H27 H 0.34370 0.55550 0.47850
H28 H 0.21020 0.49830 0.45180
#END
