
#######################################################################
#
#                 Cambridge Crystallographic Data Centre
#                                CCDC
#
#######################################################################
#
# If this CIF has been generated from an entry in the Cambridge
# Structural Database, then it will include bibliographic, chemical,
# crystal, experimental, refinement or atomic coordinate data resulting
# from the CCDC's data processing and validation procedures.
#
#######################################################################

data_CSD_CIF_COJXIK
_audit_creation_date 2014-09-08
_audit_creation_method CSD-ConQuest-V1
_database_code_CSD COJXIK
_database_code_depnum_ccdc_archive 'CCDC 901754'
_chemical_formula_sum 'C12 H11 N3 O2'
_chemical_formula_moiety
;
C12 H11 N3 O2
;
_journal_coden_Cambridge 781
_journal_volume 11
_journal_year 2014
_journal_page_first 174
_journal_name_full 'Lett.Org.Chem. '
loop_
_publ_author_name
"H.Alliouche"
"A.Bouraiou"
"S.Bouacida"
"M.Bahnous"
"T.Roisnel"
"A.Belfaitah"
_chemical_name_systematic
;
1-methyl-4-nitro-2-(2-phenylvinyl)-1H-imidazole
;
_cell_volume    539.678
_exptl_crystal_colour 'yellow'
_exptl_crystal_density_diffrn 1.411
_exptl_crystal_description 'block'
_diffrn_ambient_temperature 150
#These two values have been output from a single CSD field.
_refine_ls_R_factor_gt 0.0407
_refine_ls_wR_factor_gt 0.0407
_symmetry_cell_setting triclinic
_symmetry_space_group_name_H-M 'P -1'
_symmetry_Int_Tables_number 2
loop_
_symmetry_equiv_pos_site_id
_symmetry_equiv_pos_as_xyz
1 x,y,z
2 -x,-y,-z
_cell_length_a 6.7430(3)
_cell_length_b 7.2223(3)
_cell_length_c 11.6924(5)
_cell_angle_alpha 94.535(2)
_cell_angle_beta 104.866(1)
_cell_angle_gamma 98.808(2)
_cell_formula_units_Z 2
loop_
_atom_type_symbol
_atom_type_radius_bond
C 0.68
H 0.23
N 0.68
O 0.68
loop_
_atom_site_label
_atom_site_type_symbol
_atom_site_fract_x
_atom_site_fract_y
_atom_site_fract_z
C1 C 0.9592(2) 0.82984(18) 0.58567(11)
H1 H 1.07590 0.80870 0.55840
C2 C 0.9904(2) 0.92899(18) 0.69725(12)
H2 H 1.12820 0.97580 0.74580
C3 C 0.8202(3) 0.96013(19) 0.73851(12)
H3 H 0.84230 1.02630 0.81550
C4 C 0.6190(2) 0.8945(2) 0.66728(13)
H4 H 0.50300 0.91690 0.69490
C5 C 0.5874(2) 0.79572(19) 0.55511(12)
H5 H 0.44910 0.75140 0.50660
C6 C 0.7560(2) 0.76033(17) 0.51239(11)
C7 C 0.7138(2) 0.65162(18) 0.39508(11)
H6 H 0.57120 0.60740 0.35400
C8 C 0.85259(19) 0.60761(17) 0.33942(11)
H7 H 0.99650 0.65270 0.37690
C9 C 0.79360(19) 0.49346(17) 0.22365(11)
N1 N 0.93833(16) 0.44626(15) 0.16768(9)
C10 C 0.83335(19) 0.33281(17) 0.06484(10)
H8 H 0.88960 0.27570 0.00720
C11 C 0.62731(19) 0.31977(17) 0.06336(10)
N2 N 0.60064(16) 0.41814(15) 0.16042(9)
C12 C 1.16514(19) 0.50151(19) 0.21204(12)
H9 H 1.23100 0.44130 0.15710
H10 H 1.21250 0.46120 0.29110
H11 H 1.20390 0.63900 0.21770
N3 N 0.45356(16) 0.21492(15) -0.02838(9)
O1 O 0.27514(15) 0.21679(14) -0.02008(9)
O2 O 0.49283(16) 0.12671(14) -0.11256(8)
#END
