
#######################################################################
#
#                 Cambridge Crystallographic Data Centre
#                                CCDC
#
#######################################################################
#
# If this CIF has been generated from an entry in the Cambridge
# Structural Database, then it will include bibliographic, chemical,
# crystal, experimental, refinement or atomic coordinate data resulting
# from the CCDC's data processing and validation procedures.
#
#######################################################################

data_CSD_CIF_COJXUW
_audit_creation_date 2014-09-08
_audit_creation_method CSD-ConQuest-V1
_database_code_CSD COJXUW
_database_code_depnum_ccdc_archive 'CCDC 901752'
_chemical_formula_sum 'C12 H13 N3 O3'
_chemical_formula_moiety
;
C12 H13 N3 O3
;
_journal_coden_Cambridge 781
_journal_volume 11
_journal_year 2014
_journal_page_first 174
_journal_name_full 'Lett.Org.Chem. '
loop_
_publ_author_name
"H.Alliouche"
"A.Bouraiou"
"S.Bouacida"
"M.Bahnous"
"T.Roisnel"
"A.Belfaitah"
_chemical_name_systematic
;
2-(1-methyl-4-nitro-1H-imidazol-2-yl)-1-phenylethanol
;
_cell_volume   1202.599
_exptl_crystal_colour 'colorless'
_exptl_crystal_density_diffrn 1.366
_exptl_crystal_description 'prism'
_diffrn_ambient_temperature 150
#These two values have been output from a single CSD field.
_refine_ls_R_factor_gt 0.0402
_refine_ls_wR_factor_gt 0.0402
_symmetry_cell_setting monoclinic
_symmetry_space_group_name_H-M 'P 21/c'
_symmetry_Int_Tables_number 14
loop_
_symmetry_equiv_pos_site_id
_symmetry_equiv_pos_as_xyz
1 x,y,z
2 -x,1/2+y,1/2-z
3 -x,-y,-z
4 x,-1/2-y,-1/2+z
_cell_length_a 9.5950(9)
_cell_length_b 12.0748(14)
_cell_length_c 10.5260(8)
_cell_angle_alpha 90
_cell_angle_beta 99.555(3)
_cell_angle_gamma 90
_cell_formula_units_Z 4
loop_
_atom_type_symbol
_atom_type_radius_bond
C 0.68
H 0.23
N 0.68
O 0.68
loop_
_atom_site_label
_atom_site_type_symbol
_atom_site_fract_x
_atom_site_fract_y
_atom_site_fract_z
C1 C 0.34229(15) 0.57448(11) 0.54337(12)
H1 H 0.26220 0.61970 0.55950
H2 H 0.31440 0.53100 0.46460
H3 H 0.42170 0.62280 0.53310
C2 C 0.31899(13) 0.40356(11) 0.67783(11)
C3 C 0.49518(13) 0.42597(11) 0.82567(11)
C4 C 0.49725(14) 0.51499(11) 0.74745(12)
H4 H 0.56270 0.57470 0.75700
C5 C 0.18695(13) 0.36263(11) 0.59661(11)
H5 H 0.13290 0.42690 0.55610
H6 H 0.12820 0.32540 0.65280
C6 C 0.21271(13) 0.28168(11) 0.49055(11)
H7 H 0.25350 0.21140 0.53100
C7 C 0.07537(13) 0.25631(11) 0.40160(11)
C8 C 0.01345(14) 0.15257(12) 0.39943(12)
H8 H 0.05740 0.09560 0.45420
C9 C -0.11320(15) 0.13163(14) 0.31708(13)
H9 H -0.15510 0.06030 0.31560
C10 C -0.17792(15) 0.21400(14) 0.23786(13)
H10 H -0.26520 0.19970 0.18320
C11 C -0.11630(15) 0.31713(14) 0.23769(13)
H11 H -0.16010 0.37350 0.18190
C12 C 0.00995(14) 0.33819(12) 0.31936(12)
H12 H 0.05230 0.40930 0.31920
N1 N 0.38490(11) 0.49958(9) 0.65247(9)
N2 N 0.58807(11) 0.40797(9) 0.94521(10)
N3 N 0.38570(11) 0.35576(9) 0.78375(9)
O1 O 0.31176(9) 0.33151(8) 0.42110(9)
H13 H 0.34550 0.28290 0.37780
O2 O 0.57336(11) 0.32401(8) 1.00688(9)
O3 O 0.67696(10) 0.48047(8) 0.98099(9)
#END
