
#######################################################################
#
#                 Cambridge Crystallographic Data Centre
#                                CCDC
#
#######################################################################
#
# If this CIF has been generated from an entry in the Cambridge
# Structural Database, then it will include bibliographic, chemical,
# crystal, experimental, refinement or atomic coordinate data resulting
# from the CCDC's data processing and validation procedures.
#
#######################################################################

data_CSD_CIF_COLYAD
_audit_creation_date 1985-06-30
_audit_creation_method CSD-ConQuest-V1
_database_code_CSD COLYAD
_chemical_formula_sum 'C11 H15 N3 O7'
_chemical_formula_moiety
;
C11 H15 N3 O7
;
_journal_coden_Cambridge 154
_journal_volume 37
_journal_year 1984
_journal_page_first 1489
_journal_name_full 'Aust.J.Chem. '
loop_
_publ_author_name
"M.P.Hartshorn"
"W.T.Robinson"
"J.Vaughan"
"J.M.White"
"A.R.Whyte"
_chemical_name_systematic
;
2,3,4,5,6-Pentamethyl-r-2,t-5,c-6-trinitrocyclohex-3-enone
;
_chemical_melting_point 387.15
_cell_volume   1387.176
_exptl_crystal_colour 'colorless'
_exptl_crystal_density_diffrn 1.44
_exptl_special_details
;
Melts with decomposition.

;
_diffrn_ambient_temperature ?
_diffrn_special_details
;
The study was carried out at room temperature,in the range 283-303K

;
#These two values have been output from a single CSD field.
_refine_ls_R_factor_gt 0.057
_refine_ls_wR_factor_gt 0.057
loop_
_citation_database_id_CSD
_citation_special_details
COLXUW "is a stereoisomer of this entry"
COLYEH "is a stereoisomer of this entry"
_symmetry_cell_setting monoclinic
_symmetry_space_group_name_H-M 'P 21/c'
_symmetry_Int_Tables_number 14
loop_
_symmetry_equiv_pos_site_id
_symmetry_equiv_pos_as_xyz
1 x,y,z
2 -x,1/2+y,1/2-z
3 -x,-y,-z
4 x,-1/2-y,-1/2+z
_cell_length_a 9.045(2)
_cell_length_b 10.920(3)
_cell_length_c 14.429(7)
_cell_angle_alpha 90
_cell_angle_beta 103.26(3)
_cell_angle_gamma 90
_cell_formula_units_Z 4
loop_
_atom_type_symbol
_atom_type_radius_bond
C 0.68
N 0.68
O 0.68
loop_
_atom_site_label
_atom_site_type_symbol
_atom_site_fract_x
_atom_site_fract_y
_atom_site_fract_z
C1 C 0.2641(7) 0.1165(5) 0.1059(4)
N1 N 0.5113(5) 0.2088(6) 0.1302(4)
C2 C 0.4267(7) 0.0987(6) 0.1660(5)
N2 N 0.1637(6) -0.0512(5) 0.2375(4)
C3 C 0.4483(7) 0.1135(6) 0.2720(4)
N3 N 0.15756 0.2941(5) 0.1734(4)
C4 C 0.3329(7) 0.1122(6) 0.3146(5)
O1 O 0.2388(5) 0.1099(4) 0.0210(4)
C5 C 0.1692(7) 0.0918(6) 0.2581(5)
O2 O 0.4785(6) 0.3101(5) 0.1542(4)
C6 C 0.1397(7) 0.1511(6) 0.1592(5)
O3 O 0.6003(6) 0.1889(5) 0.0812(4)
C7 C 0.4954(8) -0.0182(7) 0.1382(5)
O4 O 0.1512(6) -0.1163(5) 0.3036(4)
C8 C 0.6145(8) 0.1254(7) 0.3264(5)
O5 O 0.1770(6) -0.0884(4) 0.1604(4)
C9 C 0.3540(9) 0.1155(8) 0.4220(5)
O6 O 0.1871(5) 0.3364(4) 0.2524(3)
C10 C 0.0447(8) 0.1175(7) 0.3108(6)
O7 O 0.1363(6) 0.3514(5) 0.0998(4)
C11 C -0.0196(7) 0.1309(7) 0.0958(6)
#END
