
#######################################################################
#
#                 Cambridge Crystallographic Data Centre
#                                CCDC
#
#######################################################################
#
# If this CIF has been generated from an entry in the Cambridge
# Structural Database, then it will include bibliographic, chemical,
# crystal, experimental, refinement or atomic coordinate data resulting
# from the CCDC's data processing and validation procedures.
#
#######################################################################

data_CSD_CIF_COLZAE
_audit_creation_date 1985-06-30
_audit_creation_method CSD-ConQuest-V1
_database_code_CSD COLZAE
_chemical_formula_sum 'C11 H14 N4 O10'
_chemical_formula_moiety
;
C11 H14 N4 O10
;
_journal_coden_Cambridge 154
_journal_volume 37
_journal_year 1984
_journal_page_first 1489
_journal_name_full 'Aust.J.Chem. '
loop_
_publ_author_name
"M.P.Hartshorn"
"W.T.Robinson"
"J.Vaughan"
"J.M.White"
"A.R.Whyte"
_chemical_name_systematic
;
2,3,5,6-Tetramethyl-4-nitratomethyl-r-2,t-5,t-6-trinitrocyclohex-3-enone
;
_chemical_melting_point 408.15
_cell_volume   1498.986
_exptl_crystal_colour 'colorless'
_exptl_crystal_density_diffrn 1.6
_exptl_special_details
;
Melts with decomposition.

;
_diffrn_ambient_temperature ?
_diffrn_special_details
;
The study was carried out at room temperature,in the range 283-303K

;
#These two values have been output from a single CSD field.
_refine_ls_R_factor_gt 0.042
_refine_ls_wR_factor_gt 0.042
_symmetry_cell_setting orthorhombic
_symmetry_space_group_name_H-M 'P 21 21 21'
_symmetry_Int_Tables_number 19
loop_
_symmetry_equiv_pos_site_id
_symmetry_equiv_pos_as_xyz
1 x,y,z
2 1/2+x,1/2-y,-z
3 -x,1/2+y,1/2-z
4 1/2-x,-y,1/2+z
_cell_length_a 11.05(1)
_cell_length_b 15.461(1)
_cell_length_c 8.774(1)
_cell_angle_alpha 90
_cell_angle_beta 90
_cell_angle_gamma 90
_cell_formula_units_Z 4
loop_
_atom_type_symbol
_atom_type_radius_bond
C 0.68
N 0.68
O 0.68
loop_
_atom_site_label
_atom_site_type_symbol
_atom_site_fract_x
_atom_site_fract_y
_atom_site_fract_z
C1 C 0.5460(3) 0.3486(2) 0.1645(4)
N1 N 0.4476(3) 0.2700(2) -0.0447(4)
C2 C 0.5773(3) 0.4342(2) 0.2472(4)
N2 N 0.2739(3) 0.7014(2) -0.0181(3)
C3 C 0.5432(3) 0.5157(2) 0.1639(4)
O1 O 0.5621(3) 0.2806(1) 0.2237(3)
C4 C 0.4715(3) 0.5155(2) 0.0413(4)
O2 O 0.7730(2) 0.4616(2) 0.1480(4)
C5 C 0.4179(3) 0.4338(2) -0.0255(4)
O3 O 0.7665(3) 0.4011(3) 0.3658(4)
C6 C 0.5056(3) 0.3573(2) -0.0026(4)
O4 O 0.2046(2) 0.4320(2) 0.0217(3)
C7 C 0.5303(3) 0.4315(2) 0.4110(4)
O5 O 0.3213(2) 0.3906(2) 0.2031(3)
C8 C 0.5899(4) 0.5972(2) 0.2353(5)
O6 O 0.5129(3) 0.2136(2) -0.0874(4)
C9 C 0.4374(3) 0.6007(2) -0.0313(4)
O7 O 0.3402(3) 0.2626(2) -0.0303(5)
C10 C 0.3781(4) 0.4417(3) -0.1900(4)
O8 O 0.3196(2) 0.6211(1) 0.0303(3)
C11 C 0.6168(3) 0.3680(2) -0.1024(4)
O9 O 0.1759(3) 0.7156(2) 0.0295(4)
N3 N 0.7195(3) 0.4315(2) 0.2540(4)
O10 O 0.3375(3) 0.7443(2) -0.0991(3)
N4 N 0.3029(3) 0.4158(2) 0.0738(3)
#END
