
#######################################################################
#
#                 Cambridge Crystallographic Data Centre
#                                CCDC
#
#######################################################################
#
# If this CIF has been generated from an entry in the Cambridge
# Structural Database, then it will include bibliographic, chemical,
# crystal, experimental, refinement or atomic coordinate data resulting
# from the CCDC's data processing and validation procedures.
#
#######################################################################

data_CSD_CIF_COMGUG
_audit_creation_date 1985-07-01
_audit_creation_method CSD-ConQuest-V1
_database_code_CSD COMGUG
_chemical_formula_sum 'C14 H8 N2 O4'
_chemical_formula_moiety
;
C14 H8 N2 O4
;
_journal_coeditor_code "IUCr A24022"
_journal_coden_Cambridge 591
_journal_volume 40
_journal_year 1984
_journal_page_first 1946
_journal_name_full 'Acta Crystallogr.,Sect.C:Cryst.Struct.Commun. '
loop_
_publ_author_name
"S.Voliotis"
"J.M.Arrieta"
"G.Germain"
_chemical_name_systematic
;
N-(o-Nitrophenyl)-phthalimide
;
_cell_volume    593.726
_exptl_crystal_colour 'colorless'
_exptl_crystal_density_diffrn 1.5
_diffrn_ambient_temperature ?
_diffrn_special_details
;
The study was carried out at room temperature,in the range 283-303K

;
#These two values have been output from a single CSD field.
_refine_ls_R_factor_gt 0.0365
_refine_ls_wR_factor_gt 0.0365
_symmetry_cell_setting triclinic
_symmetry_space_group_name_H-M 'P -1'
_symmetry_Int_Tables_number 2
loop_
_symmetry_equiv_pos_site_id
_symmetry_equiv_pos_as_xyz
1 x,y,z
2 -x,-y,-z
_cell_length_a 12.578(6)
_cell_length_b 7.661(2)
_cell_length_c 7.324(2)
_cell_angle_alpha 61.53(2)
_cell_angle_beta 103.93(3)
_cell_angle_gamma 104.89(3)
_cell_formula_units_Z 2
loop_
_atom_type_symbol
_atom_type_radius_bond
C 0.68
H 0.23
N 0.68
O 0.68
loop_
_atom_site_label
_atom_site_type_symbol
_atom_site_fract_x
_atom_site_fract_y
_atom_site_fract_z
N1 N 0.2784(2) 0.2567(3) 0.7753(3)
C1 C 0.2529(2) 0.4154(4) 0.5766(4)
C2 C 0.1339(2) 0.3600(4) 0.5072(4)
C3 C 0.0670(3) 0.4613(5) 0.3239(5)
C4 C -0.0441(3) 0.3763(5) 0.3068(5)
C5 C -0.0861(3) 0.1998(5) 0.4666(6)
C6 C -0.0194(2) 0.0972(5) 0.6503(5)
C7 C 0.0925(2) 0.1810(4) 0.6669(4)
C8 C 0.1845(2) 0.1080(4) 0.8382(4)
C9 C 0.3852(2) 0.2524(4) 0.8985(4)
C10 C 0.4022(2) 0.2331(4) 1.1013(4)
C11 C 0.5070(2) 0.2215(4) 1.2200(5)
C12 C 0.5952(3) 0.2360(5) 1.1317(5)
C13 C 0.5803(2) 0.2589(4) 0.9304(5)
C14 C 0.4759(2) 0.2658(4) 0.8149(5)
N2 N 0.3128(2) 0.2328(4) 1.1988(4)
O1 O 0.2351(2) 0.3190(3) 1.0870(3)
O2 O 0.3219(2) 0.1509(4) 1.3898(3)
O3 O 0.3178(2) 0.5647(3) 0.4915(3)
O4 O 0.1846(2) -0.0435(3) 0.9999(3)
H1 H 0.0974(25) 0.5836(47) 0.2239(47)
H2 H -0.0905(24) 0.4459(43) 0.1721(47)
H3 H -0.1663(25) 0.1451(43) 0.4545(46)
H4 H -0.0455(25) -0.0183(49) 0.7568(49)
H5 H 0.5117(24) 0.2067(45) 1.3562(49)
H6 H 0.6680(25) 0.2311(43) 1.2073(45)
H7 H 0.6400(25) 0.2708(44) 0.8683(45)
H8 H 0.4665(23) 0.2787(45) 0.6781(49)
#END
