
#######################################################################
#
#                 Cambridge Crystallographic Data Centre
#                                CCDC
#
#######################################################################
#
# If this CIF has been generated from an entry in the Cambridge
# Structural Database, then it will include bibliographic, chemical,
# crystal, experimental, refinement or atomic coordinate data resulting
# from the CCDC's data processing and validation procedures.
#
#######################################################################

data_CSD_CIF_COMLOF
_audit_creation_date 1985-07-01
_audit_creation_method CSD-ConQuest-V1
_database_code_CSD COMLOF
_database_code_depnum_ccdc_archive 'CCDC 1129315'
_chemical_formula_sum 'C23 H34 N2 O14'
_chemical_formula_moiety
;
C23 H34 N2 O14
;
_journal_coeditor_code "IUCr A24020"
_journal_coden_Cambridge 591
_journal_volume 40
_journal_year 1984
_journal_page_first 1941
_journal_name_full 'Acta Crystallogr.,Sect.C:Cryst.Struct.Commun. '
loop_
_publ_author_name
"R.Vega"
"M.J.Dianez"
"A.Lopez-Castro"
"R.Marquez"
_chemical_name_systematic
;
Ethyl 
(Z)-5,6,7,8,9-penta-acetoxy-2-amino-4-nitromethyl-D-glycero-D-ido-2-nonene-3-c
arboxylate
;
_cell_volume   2981.749
_exptl_crystal_colour 'colorless'
_exptl_crystal_density_diffrn 1.25
_exptl_special_details
;
The correct compound name has been published in an erratum. Throughout the 
text D-glycero-D-manno should read D-glycero-D-ido. x(O61)=.4678, not .7678
;
_diffrn_ambient_temperature ?
_diffrn_special_details
;
The study was carried out at room temperature,in the range 283-303K

;
#These two values have been output from a single CSD field.
_refine_ls_R_factor_gt 0.057
_refine_ls_wR_factor_gt 0.057
_symmetry_cell_setting orthorhombic
_symmetry_space_group_name_H-M 'P 21 21 21'
_symmetry_Int_Tables_number 19
loop_
_symmetry_equiv_pos_site_id
_symmetry_equiv_pos_as_xyz
1 x,y,z
2 1/2+x,1/2-y,-z
3 -x,1/2+y,1/2-z
4 1/2-x,-y,1/2+z
_cell_length_a 17.367(1)
_cell_length_b 18.176(1)
_cell_length_c 9.446(1)
_cell_angle_alpha 90
_cell_angle_beta 90
_cell_angle_gamma 90
_cell_formula_units_Z 4
loop_
_atom_type_symbol
_atom_type_radius_bond
C 0.68
H 0.23
N 0.68
O 0.68
loop_
_atom_site_label
_atom_site_type_symbol
_atom_site_fract_x
_atom_site_fract_y
_atom_site_fract_z
C1 C 0.6135(4) 0.6141(3) 0.7748(7)
C2 C 0.6256(3) 0.6430(3) 0.6249(6)
C3 C 0.6348(3) 0.7157(3) 0.5936(6)
C4 C 0.6281(3) 0.7752(3) 0.7062(6)
C5 C 0.5617(3) 0.8289(3) 0.6781(6)
C6 C 0.4848(3) 0.7910(3) 0.6568(6)
C7 C 0.4194(3) 0.8475(3) 0.6239(6)
C8 C 0.3819(3) 0.8357(3) 0.4780(6)
C9 C 0.3278(4) 0.8969(4) 0.4393(8)
N1 N 0.6285(3) 0.5882(3) 0.5296(6)
C10 C 0.6544(3) 0.7366(3) 0.4500(7)
C11 C 0.6986(4) 0.8372(5) 0.3061(8)
C12 C 0.7015(7) 0.9166(5) 0.3159(11)
O1 O 0.7391(4) 0.9011(3) 0.9023(7)
N2 N 0.7152(4) 0.8400(4) 0.8809(7)
C13 C 0.7040(3) 0.8175(4) 0.7287(7)
C14 C 0.5618(4) 0.9507(3) 0.7831(8)
C15 C 0.5651(5) 0.9898(3) 0.9233(8)
O2 O 0.4678(2) 0.7503(2) 0.7825(4)
O3 O 0.3957(3) 0.6749(2) 0.6471(5)
C16 C 0.4183(3) 0.6933(3) 0.7628(8)
C17 C 0.3985(4) 0.6575(3) 0.9012(8)
O4 O 0.3562(2) 0.8378(2) 0.7214(4)
C18 C 0.3475(3) 0.8871(3) 0.8260(6)
C19 C 0.2819(4) 0.8674(4) 0.9208(7)
C20 C 0.4309(4) 0.8001(4) 0.2545(7)
C21 C 0.4993(4) 0.8031(5) 0.1567(7)
O5 O 0.3702(3) 0.9657(3) 0.4427(2)
O6 O 0.3766(6) 0.9710(4) 0.2101(6)
C22 C 0.3959(6) 0.9942(4) 0.3186(9)
C23 C 0.4477(6) 1.0578(4) 0.3449(10)
O7 O 0.6705(3) 0.8099(2) 0.4399(4)
O8 O 0.6582(3) 0.6960(2) 0.3465(5)
O9 O 0.7020(4) 0.7956(4) 0.9705(6)
O10 O 0.5583(2) 0.8760(2) 0.8027(4)
O11 O 0.5627(4) 0.9785(2) 0.6701(6)
O12 O 0.3895(3) 0.9395(2) 0.8375(6)
O13 O 0.4456(2) 0.8332(2) 0.3783(4)
O14 O 0.3717(3) 0.7709(3) 0.2260(5)
H1 H 0.62200 0.53300 0.54300
H2 H 0.63700 0.60800 0.42200
H3 H 0.56300 0.64200 0.81400
H4 H 0.66300 0.63300 0.83600
H5 H 0.60700 0.55700 0.80100
H6 H 0.61600 0.74600 0.80300
H7 H 0.57200 0.85900 0.58100
H8 H 0.48800 0.75400 0.56700
H9 H 0.44800 0.90000 0.63100
H10 H 0.34700 0.78600 0.47800
H11 H 0.27800 0.89900 0.50700
H12 H 0.30000 0.88800 0.33800
H13 H 0.66400 0.81900 0.21700
H14 H 0.75300 0.81400 0.27700
H15 H 0.74100 0.93300 0.40100
H16 H 0.64600 0.93900 0.33800
H17 H 0.72300 0.93800 0.21700
H18 H 0.70700 0.86500 0.65900
H19 H 0.75300 0.78600 0.69100
H20 H 0.61500 0.97200 0.98100
H21 H 0.51400 0.97600 0.98300
H22 H 0.56800 1.04900 0.90800
H23 H 0.37200 0.69800 0.96900
H24 H 0.45000 0.63700 0.94900
H25 H 0.35900 0.61200 0.88500
H26 H 0.29300 0.81400 0.96700
H27 H 0.23000 0.86500 0.85900
H28 H 0.27500 0.90700 1.00500
H29 H 0.54700 0.77600 0.20700
H30 H 0.51400 0.86000 0.13800
H31 H 0.48800 0.77700 0.05700
H32 H 0.49600 1.03900 0.40700
H33 H 0.41600 1.09900 0.40300
H34 H 0.46900 1.08000 0.24600
#END
