
#######################################################################
#
#                 Cambridge Crystallographic Data Centre
#                                CCDC
#
#######################################################################
#
# If this CIF has been generated from an entry in the Cambridge
# Structural Database, then it will include bibliographic, chemical,
# crystal, experimental, refinement or atomic coordinate data resulting
# from the CCDC's data processing and validation procedures.
#
#######################################################################

data_CSD_CIF_COMPEA
_audit_creation_date 2009-07-17
_audit_creation_method CSD-ConQuest-V1
_database_code_CSD COMPEA
_database_code_depnum_ccdc_archive 'CCDC 680885'
_chemical_formula_sum 'C11 H15 N4 O4'
_chemical_formula_moiety
;
C11 H15 N4 O4
;
_journal_coden_Cambridge 155
_journal_volume 361
_journal_year 2008
_journal_page_first 4094
_journal_name_full 'Inorg.Chim.Acta '
loop_
_publ_author_name
"R.Feher"
"K.Wurst"
"D.B.Amabilino"
"J.Veciana"
_chemical_name_systematic
;
2-(5-Uracilyl)-4,4,5,5-tetramethyl-4,5-dihydro-1H-imidazolyl-1-oxyl-3-oxide 
radical
;
_chemical_name_common
;
2-(5-Uracilyl)nitronyl nitroxide radical
;
_cell_volume    620.584
_exptl_crystal_colour 'red'
_exptl_crystal_density_diffrn 1.43
_exptl_special_details
;
alpha polymorph

;
_exptl_crystal_description 'block'
_exptl_crystal_preparation 'toluene/water/methanol'
_diffrn_ambient_temperature 218
#These two values have been output from a single CSD field.
_refine_ls_R_factor_gt 0.0344
_refine_ls_wR_factor_gt 0.0344
_symmetry_cell_setting triclinic
_symmetry_space_group_name_H-M 'P -1'
_symmetry_Int_Tables_number 2
loop_
_symmetry_equiv_pos_site_id
_symmetry_equiv_pos_as_xyz
1 x,y,z
2 -x,-y,-z
_cell_length_a 7.090(2)
_cell_length_b 7.832(1)
_cell_length_c 11.328(2)
_cell_angle_alpha 90.85(1)
_cell_angle_beta 96.45(2)
_cell_angle_gamma 96.66(2)
_cell_formula_units_Z 2
loop_
_atom_type_symbol
_atom_type_radius_bond
C 0.68
H 0.23
N 0.68
O 0.68
loop_
_atom_site_label
_atom_site_type_symbol
_atom_site_fract_x
_atom_site_fract_y
_atom_site_fract_z
O1 O 0.2061(3) 1.0852(2) 0.39866(15)
O2 O 0.3001(2) 0.6996(2) 0.10572(14)
O3 O -0.0937(3) 1.0707(2) 0.1548(2)
O4 O 0.1955(3) 1.4284(2) -0.1001(2)
N1 N 0.2277(3) 0.9451(3) 0.3465(2)
N2 N 0.2806(3) 0.7663(2) 0.2082(2)
N3 N 0.0566(3) 1.2555(3) 0.0333(2)
H1 H -0.04970 1.30020 0.01670
N4 N 0.3749(3) 1.2541(3) 0.0110(2)
H2 H 0.47710 1.29390 -0.02040
C1 C 0.2503(3) 0.9276(3) 0.2302(2)
C2 C 0.2059(3) 0.7740(3) 0.4041(2)
C3 C 0.3091(3) 0.6676(3) 0.3202(2)
C4 C 0.2368(3) 1.0636(3) 0.1450(2)
C5 C 0.0547(4) 1.1272(3) 0.1143(2)
C6 C 0.2074(4) 1.3207(3) -0.0242(2)
C7 C 0.3890(4) 1.1299(3) 0.0915(2)
H3 H 0.50750 1.08840 0.11100
C8 C 0.2911(4) 0.7893(3) 0.5327(2)
H4 H 0.2836(20) 0.6761(4) 0.5668(4)
H5 H 0.2206(14) 0.8630(16) 0.5764(4)
H6 H 0.4238(7) 0.8385(19) 0.5376(2)
C9 C -0.0088(3) 0.7207(3) 0.3936(2)
H7 H -0.0339(4) 0.609(1) 0.4283(13)
H8 H -0.0604(5) 0.7142(20) 0.3104(2)
H9 H -0.0689(4) 0.8049(11) 0.4354(12)
C10 C 0.5241(4) 0.6815(3) 0.3534(2)
H10 H 0.5518(4) 0.6195(17) 0.4255(8)
H11 H 0.5750(5) 0.8015(4) 0.3663(14)
H12 H 0.5826(4) 0.6323(19) 0.2895(6)
C11 C 0.2243(4) 0.4830(3) 0.2983(2)
H13 H 0.2241(21) 0.4252(6) 0.3735(3)
H14 H 0.2999(13) 0.4260(6) 0.2471(11)
H15 H 0.0942(8) 0.4788(3) 0.2603(13)
#END
