
#######################################################################
#
#                 Cambridge Crystallographic Data Centre
#                                CCDC
#
#######################################################################
#
# If this CIF has been generated from an entry in the Cambridge
# Structural Database, then it will include bibliographic, chemical,
# crystal, experimental, refinement or atomic coordinate data resulting
# from the CCDC's data processing and validation procedures.
#
#######################################################################

data_CSD_CIF_CONNIC
_audit_creation_date 1985-08-16
_audit_creation_method CSD-ConQuest-V1
_database_code_CSD CONNIC
_chemical_formula_sum 'C20 H30 N2 O2'
_chemical_formula_moiety
;
C20 H30 N2 O2
;
_journal_coden_Cambridge 582
_journal_volume 14
_journal_year 1984
_journal_page_first 315
_journal_name_full 'J.Crystallogr.Spectrosc.Res. '
loop_
_publ_author_name
"A.El Shora"
"R.A.Palmer"
"H.Singh"
"D.Paul"
_chemical_name_systematic
;
17\b-Hydroxy-17\a-methyl-5\b-androstano-(2,3-c)-1',2',5'-oxadiazole
;
_chemical_melting_point 489.15
_cell_volume   1365.117
_exptl_crystal_colour 'colorless'
_exptl_crystal_density_diffrn 1.13
_exptl_special_details
;
Melting point range 489.15-491.15K
c is given as 7.177 in the abstract, 7.117 in the paper; the latter has been 
input. Published dx is 1.13, we calculate 1.21. Authors give formula as C19 
H30 N2 O2; this should be C20 H30 N2 O2. In bond length diagram N3,O2',N5' 
should be C3,N5' and N2' respectively
;
_diffrn_ambient_temperature ?
_diffrn_special_details
;
The study was carried out at room temperature,in the range 283-303K

;
#These two values have been output from a single CSD field.
_refine_ls_R_factor_gt 0.0376
_refine_ls_wR_factor_gt 0.0376
loop_
_citation_database_id_CSD
_citation_special_details
CONNOI "is a stereoisomer of this entry"
_symmetry_cell_setting hexagonal
_symmetry_space_group_name_H-M 'P 32'
_symmetry_Int_Tables_number 145
loop_
_symmetry_equiv_pos_site_id
_symmetry_equiv_pos_as_xyz
1 x,y,z
2 -y,x-y,2/3+z
3 -x+y,-x,1/3+z
_cell_length_a 14.820(4)
_cell_length_b 14.820(4)
_cell_length_c 7.177(3)
_cell_angle_alpha 90
_cell_angle_beta 90
_cell_angle_gamma 120
_cell_formula_units_Z 3
loop_
_atom_type_symbol
_atom_type_radius_bond
C 0.68
H 0.23
N 0.68
O 0.68
loop_
_atom_site_label
_atom_site_type_symbol
_atom_site_fract_x
_atom_site_fract_y
_atom_site_fract_z
C1 C -0.8749(3) -0.4082(2) -0.23490
C2 C -0.8008(3) -0.3517(3) -0.3937(6)
C3 C -0.8558(3) -0.3322(2) -0.5462(5)
C4 C -0.9655(2) -0.3755(2) -0.5507(4)
C5 C -1.0395(2) -0.4444(2) -0.4039(4)
C6 C -1.1459(3) -0.5218(3) -0.4833(5)
C7 C -1.1406(2) -0.6032(2) -0.6081(5)
C8 C -1.0888(3) -0.6577(2) -0.5079(4)
C9 C -0.9811(2) -0.5768(2) -0.4293(4)
C10 C -0.9857(3) -0.4963(2) -0.2962(4)
C11 C -0.9231(3) -0.6290(3) -0.3452(5)
C12 C -0.9143(2) -0.7042(2) -0.4813(5)
C13 C -1.0219(2) -0.7868(2) -0.5540(4)
C14 C -1.0732(2) -0.7288(2) -0.6431(4)
C15 C -1.1685(2) -0.8141(2) -0.7449(5)
C16 C -1.1330(2) -0.8916(2) -0.8088(5)
C17 C -1.0249(2) -0.8553(2) -0.7213(4)
C18 C -1.0869(3) -0.8576(2) -0.3913(5)
C19 C -1.0475(3) -0.5475(4) -0.1159(6)
C20 C -0.9388(3) -0.7988(2) -0.8650(4)
O1 O -1.0175(2) -0.9430(2) -0.6529(4)
O2 O -0.8951(3) -0.2848(2) -0.7986(5)
N1 N -0.9895(3) -0.3475(2) -0.7075(5)
N2 N -0.8140(3) -0.2773(3) -0.6949(6)
H1 H -0.84070 -0.44270 -0.14750
H2 H -0.88410 -0.35160 -0.15420
H3 H -0.76980 -0.39910 -0.46640
H4 H -0.73780 -0.27840 -0.34340
H5 H -1.05670 -0.39920 -0.30630
H6 H -1.19910 -0.56100 -0.36860
H7 H -1.17520 -0.48000 -0.56610
H8 H -1.21880 -0.66130 -0.64780
H9 H -1.09610 -0.56520 -0.73260
H10 H -1.13970 -0.70310 -0.39440
H11 H -0.93520 -0.53150 -0.54770
H12 H -0.96420 -0.67160 -0.22100
H13 H -0.84550 -0.56890 -0.30700
H14 H -0.86620 -0.66070 -0.59910
H15 H -0.87870 -0.74260 -0.40910
H16 H -1.02400 -0.66980 -0.74320
H17 H -1.23450 -0.85140 -0.65130
H18 H -1.18850 -0.78270 -0.86450
H19 H -1.12780 -0.89150 -0.96010
H20 H -1.18790 -0.96920 -0.76050
H21 H -1.16060 -0.91960 -0.44220
H22 H -1.10050 -0.81250 -0.28750
H23 H -1.04340 -0.89050 -0.32830
H24 H -1.12720 -0.60830 -0.13750
H25 H -1.04620 -0.48710 -0.02890
H26 H -1.00480 -0.57950 -0.04730
H27 H -0.93440 -0.72810 -0.91600
H28 H -0.95880 -0.85330 -0.97960
H29 H -0.86430 -0.78120 -0.80730
H30 H -1.02690 -0.98070 -0.73610
#END
