
#######################################################################
#
#                 Cambridge Crystallographic Data Centre
#                                CCDC
#
#######################################################################
#
# If this CIF has been generated from an entry in the Cambridge
# Structural Database, then it will include bibliographic, chemical,
# crystal, experimental, refinement or atomic coordinate data resulting
# from the CCDC's data processing and validation procedures.
#
#######################################################################

data_CSD_CIF_COQPIJ
_audit_creation_date 2014-09-13
_audit_creation_method CSD-ConQuest-V1
_database_code_CSD COQPIJ
_database_code_depnum_ccdc_archive 'CCDC 1008187'
_chemical_formula_sum 'C20 H19 N1 O2'
_chemical_formula_moiety
;
C20 H19 N1 O2
;
_journal_coden_Cambridge 179
_journal_volume 53
_journal_year 2014
_journal_page_first 11940
_journal_name_full 'Angew.Chem.,Int.Ed. '
loop_
_publ_author_name
"Chunxiang Wang"
"Dongping Wang"
"Hao Yan"
"Haolong Wang"
"Bin Pan"
"Xiaoyi Xin"
"Xincheng Li"
"Fan Wu"
"Boshun Wan"
_chemical_name_systematic
;
15-phenyl-4,17-dioxa-14-azatetracyclo[12.2.1.0^1,6^.0^8,13^]heptadeca-6,8,10,1
2-tetraene
;
_cell_volume   1597.181
_exptl_crystal_colour 'colorless'
_exptl_crystal_density_diffrn 1.27
_exptl_crystal_description 'prismatic'
_exptl_crystal_preparation 'Petroether/ethyl acetate'
_diffrn_ambient_temperature 293
#These two values have been output from a single CSD field.
_refine_ls_R_factor_gt 0.0483
_refine_ls_wR_factor_gt 0.0483
_symmetry_cell_setting monoclinic
_symmetry_space_group_name_H-M 'P 21/c'
_symmetry_Int_Tables_number 14
loop_
_symmetry_equiv_pos_site_id
_symmetry_equiv_pos_as_xyz
1 x,y,z
2 -x,1/2+y,1/2-z
3 -x,-y,-z
4 x,-1/2-y,-1/2+z
_cell_length_a 11.303(7)
_cell_length_b 13.741(10)
_cell_length_c 10.614(8)
_cell_angle_alpha 90
_cell_angle_beta 104.335(15)
_cell_angle_gamma 90
_cell_formula_units_Z 4
loop_
_atom_type_symbol
_atom_type_radius_bond
C 0.68
H 0.23
N 0.68
O 0.68
loop_
_atom_site_label
_atom_site_type_symbol
_atom_site_fract_x
_atom_site_fract_y
_atom_site_fract_z
N1 N 0.62730(13) 0.14503(13) 0.73977(14)
O1 O 0.96813(12) 0.36577(12) 0.99529(15)
O2 O 0.6995(1) 0.22921(10) 0.71984(11)
C1 C 0.70021(17) 0.06041(16) 0.73626(18)
C2 C 0.64338(19) -0.01652(18) 0.6609(2)
H1 H 0.56080 -0.01220 0.61920
C3 C 0.7080(2) -0.09986(18) 0.6468(2)
H2 H 0.66840 -0.15200 0.59820
C4 C 0.8302(2) -0.10501(18) 0.7046(2)
H3 H 0.87510 -0.15930 0.69230
C5 C 0.88628(19) -0.02909(18) 0.7813(2)
H4 H 0.96920 -0.03380 0.82120
C6 C 0.82352(17) 0.05467(16) 0.80163(19)
C7 C 0.88768(16) 0.12766(17) 0.89444(19)
H5 H 0.96360 0.10760 0.94390
C8 C 0.85680(16) 0.21722(17) 0.92058(17)
C9 C 0.93450(18) 0.27326(17) 1.03309(19)
H6 H 0.88980 0.28140 1.09950
H7 H 1.00770 0.23610 1.07070
C10 C 0.86226(19) 0.42189(18) 0.9414(2)
H8 H 0.88640 0.48670 0.92140
H9 H 0.81400 0.42810 1.00490
C11 C 0.78533(19) 0.37530(16) 0.8188(2)
H10 H 0.83160 0.37340 0.75310
H11 H 0.71290 0.41440 0.78550
C12 C 0.74768(16) 0.27252(16) 0.84513(17)
C13 C 0.63854(15) 0.26434(16) 0.90429(18)
H12 H 0.57620 0.31190 0.86730
H13 H 0.66260 0.27230 0.99800
C14 C 0.59497(16) 0.16119(16) 0.86654(17)
H14 H 0.64130 0.11560 0.93130
C15 C 0.46013(17) 0.14644(16) 0.8539(2)
C16 C 0.37633(17) 0.15725(17) 0.7361(2)
H15 H 0.40320 0.17090 0.66190
C17 C 0.25295(19) 0.14804(19) 0.7268(3)
H16 H 0.19690 0.15530 0.64690
C18 C 0.2137(2) 0.1282(2) 0.8361(4)
H17 H 0.13050 0.12240 0.83010
C19 C 0.2950(2) 0.1166(2) 0.9538(3)
H18 H 0.26740 0.10250 1.02730
C20 C 0.4194(2) 0.12605(18) 0.9632(2)
H19 H 0.47510 0.11860 1.04330
#END
