
#######################################################################
#
#                 Cambridge Crystallographic Data Centre
#                                CCDC
#
#######################################################################
#
# If this CIF has been generated from an entry in the Cambridge
# Structural Database, then it will include bibliographic, chemical,
# crystal, experimental, refinement or atomic coordinate data resulting
# from the CCDC's data processing and validation procedures.
#
#######################################################################

data_CSD_CIF_COQQAA
_audit_creation_date 2000-05-03
_audit_creation_method CSD-ConQuest-V1
_database_code_CSD COQQAA
_database_code_depnum_ccdc_journal 1003/5419
_chemical_formula_sum 'C19 H26 N2 O2'
_chemical_formula_moiety
;
C19 H26 N2 O2
;
_journal_coden_Cambridge 1003
_journal_volume 28
_journal_year 1998
_journal_page_first 725
_journal_name_full 'J.Chem.Cryst. '
loop_
_publ_author_name
"D.R.Lisgarten"
"R.A.Palmer"
_chemical_name_systematic
;
17-Oxo-5\a-androstano[3,4-c](1',2',5')-oxadiazole
;
_chemical_name_common
;
HS1000
;
_cell_volume   1664.402
_exptl_crystal_colour 'colorless'
_exptl_crystal_description 'needles'
_diffrn_ambient_temperature ?
_diffrn_special_details
;
The study was carried out at room temperature,in the range 283-303K

;
#These two values have been output from a single CSD field.
_refine_ls_R_factor_gt 0.052
_refine_ls_wR_factor_gt 0.052
_symmetry_cell_setting orthorhombic
_symmetry_space_group_name_H-M 'P 21 21 21'
_symmetry_Int_Tables_number 19
loop_
_symmetry_equiv_pos_site_id
_symmetry_equiv_pos_as_xyz
1 x,y,z
2 1/2-x,-y,1/2+z
3 1/2+x,1/2-y,-z
4 -x,1/2+y,1/2-z
_cell_length_a 9.257(3)
_cell_length_b 9.419(3)
_cell_length_c 19.089(5)
_cell_angle_alpha 90
_cell_angle_beta 90
_cell_angle_gamma 90
_cell_formula_units_Z 4
loop_
_atom_type_symbol
_atom_type_radius_bond
C 0.68
H 0.23
N 0.68
O 0.68
loop_
_atom_site_label
_atom_site_type_symbol
_atom_site_fract_x
_atom_site_fract_y
_atom_site_fract_z
C1 C 0.5145(2) 1.0111(2) -0.0663(1)
C2 C 0.4106(3) 1.0808(3) -0.1185(1)
C3 C 0.2585(3) 1.0429(2) -0.1016(1)
N1 N 0.1451(3) 1.0681(2) -0.1392(1)
O1 O 0.0302(2) 1.0187(2) -0.1005(1)
N2 N 0.0777(2) 0.9606(2) -0.0375(1)
C4 C 0.2168(2) 0.9750(2) -0.0387(1)
C5 C 0.3227(2) 0.9240(2) 0.0148(1)
C6 C 0.2633(2) 0.9053(2) 0.0874(1)
C7 C 0.3753(2) 0.8355(2) 0.1342(1)
C8 C 0.5192(2) 0.9152(2) 0.1341(1)
C9 C 0.5760(2) 0.9437(2) 0.0589(1)
C10 C 0.4624(2) 1.0145(2) 0.0106(1)
C11 C 0.7210(2) 1.0233(2) 0.0613(1)
C12 C 0.8364(2) 0.9497(2) 0.1058(1)
C13 C 0.7786(2) 0.9170(2) 0.1783(1)
C14 C 0.6365(2) 0.8341(2) 0.1722(1)
C15 C 0.6121(2) 0.7732(3) 0.2458(1)
C16 C 0.7667(3) 0.7323(3) 0.2687(1)
C17 C 0.8673(2) 0.8135(3) 0.2211(1)
O2 O 0.9954(2) 0.7965(3) 0.2172(1)
C18 C 0.7661(3) 1.0510(2) 0.2235(1)
C19 C 0.4327(2) 1.1675(2) 0.0331(1)
H1 H 0.6074(2) 1.0582(2) -0.0692(1)
H2 H 0.5289(2) 0.9137(2) -0.0801(1)
H3 H 0.4220(3) 1.1824(3) -0.1166(1)
H4 H 0.4335(3) 1.0500(3) -0.1657(1)
H5 H 0.3511(2) 0.8295(2) -0.0006(1)
H6 H 0.1769(2) 0.8476(2) 0.0856(1)
H7 H 0.2372(2) 0.9964(2) 0.1067(1)
H8 H 0.3914(2) 0.7398(2) 0.1182(1)
H9 H 0.3384(2) 0.8310(2) 0.1817(1)
H10 H 0.5053(2) 1.0058(2) 0.1578(1)
H11 H 0.5966(2) 0.8513(2) 0.0383(1)
H12 H 0.7572(2) 1.0339(2) 0.0139(1)
H13 H 0.7045(2) 1.1169(2) 0.0801(1)
H14 H 0.8657(2) 0.8629(2) 0.0830(1)
H15 H 0.9207(2) 1.0099(2) 0.1096(1)
H16 H 0.6585(2) 0.7531(2) 0.1423(1)
H17 H 0.5493(2) 0.6914(3) 0.2443(1)
H18 H 0.5708(2) 0.8430(3) 0.2770(1)
H19 H 0.7830(3) 0.7580(3) 0.3173(1)
H20 H 0.7819(3) 0.6317(3) 0.2636(1)
H21 H 0.7044(17) 1.1178(8) 0.2005(5)
H22 H 0.8602(4) 1.0916(11) 0.2299(8)
H23 H 0.7259(19) 1.0272(4) 0.2683(4)
H24 H 0.4272(19) 1.1723(4) 0.0833(1)
H25 H 0.3429(10) 1.1986(7) 0.0133(8)
H26 H 0.5096(10) 1.2271(4) 0.0169(8)
#END
