
#######################################################################
#
#                 Cambridge Crystallographic Data Centre
#                                CCDC
#
#######################################################################
#
# If this CIF has been generated from an entry in the Cambridge
# Structural Database, then it will include bibliographic, chemical,
# crystal, experimental, refinement or atomic coordinate data resulting
# from the CCDC's data processing and validation procedures.
#
#######################################################################

data_CSD_CIF_CORVUC
_audit_creation_date 2014-09-17
_audit_creation_method CSD-ConQuest-V1
_database_code_CSD CORVUC
_database_code_depnum_ccdc_archive 'CCDC 1020223'
_chemical_formula_sum 'C27 H28 N2 O3'
_chemical_formula_moiety
;
C27 H28 N2 O3
;
_journal_coeditor_code "IUCr su2763"
_journal_coden_Cambridge 1370
_journal_volume 70
_journal_year 2014
_journal_page_first 199
_journal_name_full 'Acta Crystallogr.,Sect.E:Struct.Rep.Online '
loop_
_publ_author_name
"B.Raghuvarman"
"R.Sivakumar"
"V.Thanikachalam"
"S.Aravindhan"
_chemical_name_systematic
;
(((3-ethyl-1-methyl-2,6-diphenylpiperidin-4-ylidene)amino)oxy)(phenoxy)methano
ne
;
_cell_volume   2300.428
_exptl_crystal_colour 'colorless'
_exptl_crystal_density_diffrn 1.237
_exptl_crystal_description 'Block'
_diffrn_ambient_temperature 293
#These two values have been output from a single CSD field.
_refine_ls_R_factor_gt 0.0472
_refine_ls_wR_factor_gt 0.0472
_symmetry_cell_setting monoclinic
_symmetry_space_group_name_H-M 'P 21/c'
_symmetry_Int_Tables_number 14
loop_
_symmetry_equiv_pos_site_id
_symmetry_equiv_pos_as_xyz
1 x,y,z
2 -x,1/2+y,1/2-z
3 -x,-y,-z
4 x,-1/2-y,-1/2+z
_cell_length_a 9.3844(5)
_cell_length_b 17.8121(8)
_cell_length_c 14.4077(7)
_cell_angle_alpha 90
_cell_angle_beta 107.216(2)
_cell_angle_gamma 90
_cell_formula_units_Z 4
loop_
_atom_type_symbol
_atom_type_radius_bond
C 0.68
H 0.23
N 0.68
O 0.68
loop_
_atom_site_label
_atom_site_type_symbol
_atom_site_fract_x
_atom_site_fract_y
_atom_site_fract_z
O1 O 0.16033(13) 0.69157(5) 0.23258(7)
O2 O 0.18007(13) 0.60763(6) 0.11987(8)
O3 O 0.10502(13) 0.57830(5) 0.25107(7)
N1 N 0.43390(12) 0.91971(5) 0.30173(7)
N2 N 0.16780(14) 0.75070(6) 0.16364(8)
C1 C 0.40986(16) 0.85353(7) 0.35561(9)
H1 H 0.31560 0.86000 0.37090
C2 C 0.39791(17) 0.78357(7) 0.29349(10)
H2 H 0.49280 0.77420 0.28160
H3 H 0.37490 0.74070 0.32790
C3 C 0.27994(15) 0.79261(7) 0.19955(9)
C4 C 0.29438(15) 0.86167(7) 0.14267(9)
H4 H 0.38810 0.85700 0.12620
C5 C 0.31051(15) 0.93034(7) 0.21098(9)
H5 H 0.21740 0.93630 0.22790
C6 C 0.33626(15) 1.00074(7) 0.15954(9)
C7 C 0.46668(19) 1.01047(8) 0.13590(13)
H6 H 0.54030 0.97380 0.15290
C8 C 0.4899(2) 1.07381(9) 0.08742(15)
H7 H 0.57880 1.07930 0.07200
C9 C 0.3841(2) 1.12844(9) 0.06185(12)
H8 H 0.39990 1.17080 0.02850
C10 C 0.2546(2) 1.12046(9) 0.08567(13)
H9 H 0.18240 1.15790 0.06910
C11 C 0.23004(18) 1.05686(8) 0.13439(12)
H10 H 0.14140 1.05200 0.15030
C12 C 0.53352(16) 0.84251(7) 0.44998(9)
C13 C 0.49950(18) 0.83362(8) 0.53594(10)
H11 H 0.40080 0.83640 0.53650
C14 C 0.6124(2) 0.82040(8) 0.62192(11)
H12 H 0.58940 0.81470 0.68000
C15 C 0.7582(2) 0.81580(9) 0.62077(13)
H13 H 0.83400 0.80650 0.67800
C16 C 0.7913(2) 0.82486(10) 0.53564(14)
H14 H 0.88990 0.82180 0.53500
C17 C 0.68084(17) 0.83849(9) 0.45091(12)
H15 H 0.70530 0.84510 0.39340
C18 C 0.17030(17) 0.87159(8) 0.04765(10)
H16 H 0.07510 0.86910 0.06120
H17 H 0.17880 0.92130 0.02220
C19 C 0.1705(2) 0.81423(9) -0.02984(11)
H18 H 0.14150 0.76620 -0.01120
H19 H 0.26880 0.81080 -0.03700
H20 H 0.10130 0.82940 -0.09050
C20 C 0.15176(16) 0.62395(8) 0.1918(1)
C21 C 0.08654(16) 0.50144(7) 0.22919(10)
C22 C 0.14142(17) 0.45367(8) 0.30599(11)
H21 H 0.19280 0.47230 0.36700
C23 C 0.11922(19) 0.37755(9) 0.29127(13)
H22 H 0.15650 0.34430 0.34250
C24 C 0.0423(2) 0.35073(9) 0.20119(13)
H23 H 0.02820 0.29930 0.19140
C25 C -0.01384(19) 0.39930(9) 0.12579(12)
H24 H -0.06660 0.38070 0.06500
C26 C 0.00697(18) 0.47570(9) 0.13886(11)
H25 H -0.03190 0.50890 0.08780
C27 C 0.4511(2) 0.98690(8) 0.36280(12)
H26 H 0.53270 0.97990 0.42080
H27 H 0.36100 0.99530 0.37990
H28 H 0.47070 1.02950 0.32770
#END
