
#######################################################################
#
#                 Cambridge Crystallographic Data Centre
#                                CCDC
#
#######################################################################
#
# If this CIF has been generated from an entry in the Cambridge
# Structural Database, then it will include bibliographic, chemical,
# crystal, experimental, refinement or atomic coordinate data resulting
# from the CCDC's data processing and validation procedures.
#
#######################################################################

data_CSD_CIF_CORWAJ
_audit_creation_date 2014-09-17
_audit_creation_method CSD-ConQuest-V1
_database_code_CSD CORWAJ
_database_code_depnum_ccdc_archive 'CCDC 1020224'
_chemical_formula_sum 'C28 H30 N2 O3'
_chemical_formula_moiety
;
C28 H30 N2 O3
;
_journal_coeditor_code "IUCr su2763"
_journal_coden_Cambridge 1370
_journal_volume 70
_journal_year 2014
_journal_page_first 199
_journal_name_full 'Acta Crystallogr.,Sect.E:Struct.Rep.Online '
loop_
_publ_author_name
"B.Raghuvarman"
"R.Sivakumar"
"V.Thanikachalam"
"S.Aravindhan"
_chemical_name_systematic
;
(((3-isopropyl-1-methyl-2,6-diphenylpiperidin-4-ylidene)amino)oxy)(phenoxy)met
hanone
;
_cell_volume   2483.105
_exptl_crystal_colour 'colorless'
_exptl_crystal_density_diffrn 1.184
_exptl_crystal_description 'Block'
_diffrn_ambient_temperature 293
#These two values have been output from a single CSD field.
_refine_ls_R_factor_gt 0.0518
_refine_ls_wR_factor_gt 0.0518
_symmetry_cell_setting monoclinic
_symmetry_space_group_name_H-M 'P 21/c'
_symmetry_Int_Tables_number 14
loop_
_symmetry_equiv_pos_site_id
_symmetry_equiv_pos_as_xyz
1 x,y,z
2 -x,1/2+y,1/2-z
3 -x,-y,-z
4 x,-1/2-y,-1/2+z
_cell_length_a 10.3511(5)
_cell_length_b 23.9398(10)
_cell_length_c 10.0587(4)
_cell_angle_alpha 90
_cell_angle_beta 94.997(2)
_cell_angle_gamma 90
_cell_formula_units_Z 4
loop_
_atom_type_symbol
_atom_type_radius_bond
C 0.68
H 0.23
N 0.68
O 0.68
loop_
_atom_site_label
_atom_site_type_symbol
_atom_site_fract_x
_atom_site_fract_y
_atom_site_fract_z
C1 C 0.0430(2) 0.18137(10) -0.0563(3)
H1 H 0.00640 0.19570 0.02360
C2 C 0.1492(2) 0.22117(10) -0.0893(3)
H2 H 0.17870 0.21140 -0.17520
H3 H 0.11510 0.25890 -0.09530
C3 C 0.2604(2) 0.21879(9) 0.0150(2)
C4 C 0.3125(2) 0.16055(10) 0.0412(2)
H4 H 0.33500 0.14670 -0.04550
C5 C 0.1996(2) 0.12406(10) 0.0777(2)
H5 H 0.16840 0.13960 0.15920
C6 C 0.2425(2) 0.06462(9) 0.1082(2)
C7 C 0.2295(2) 0.04233(10) 0.2329(2)
H6 H 0.19360 0.06390 0.29720
C8 C 0.2691(3) -0.01168(12) 0.2631(3)
H7 H 0.25920 -0.02640 0.34710
C9 C 0.3228(3) -0.04338(11) 0.1694(3)
H8 H 0.35030 -0.07960 0.18970
C10 C 0.3358(3) -0.02159(11) 0.0459(3)
H9 H 0.37240 -0.04310 -0.01800
C11 C 0.2955(3) 0.03161(11) 0.0155(3)
H10 H 0.30420 0.04570 -0.06950
C12 C -0.0643(2) 0.18131(9) -0.1681(2)
C13 C -0.0462(3) 0.15994(12) -0.2912(3)
H11 H 0.03430 0.14530 -0.30700
C14 C -0.1438(4) 0.15961(15) -0.3913(3)
H12 H -0.12910 0.14480 -0.47420
C15 C -0.2622(4) 0.18061(14) -0.3713(4)
H13 H -0.32840 0.18030 -0.44000
C16 C -0.2831(3) 0.20193(14) -0.2516(4)
H14 H -0.36430 0.21610 -0.23710
C17 C -0.1845(3) 0.20295(12) -0.1497(3)
H15 H -0.19960 0.21850 -0.06770
C18 C 0.4372(2) 0.15494(10) 0.1351(2)
H16 H 0.45540 0.11480 0.14140
C19 C 0.5495(3) 0.18046(12) 0.0689(3)
H17 H 0.55650 0.16280 -0.01590
H18 H 0.62840 0.17500 0.12480
H19 H 0.53450 0.21970 0.05590
C20 C 0.4315(3) 0.17488(12) 0.2767(3)
H20 H 0.42200 0.21480 0.27730
H21 H 0.51010 0.16460 0.32870
H22 H 0.35890 0.15790 0.31420
C21 C 0.2968(2) 0.35449(9) 0.1078(2)
C22 C 0.2503(2) 0.45192(9) 0.1050(2)
C23 C 0.1424(3) 0.48133(11) 0.1271(3)
H23 H 0.06100 0.46470 0.11590
C24 C 0.1551(3) 0.53614(13) 0.1665(3)
H24 H 0.08180 0.55690 0.18180
C25 C 0.2743(4) 0.56017(12) 0.1832(3)
H25 H 0.28250 0.59730 0.20960
C26 C 0.3816(3) 0.52999(12) 0.1614(3)
H26 H 0.46310 0.54650 0.17380
C27 C 0.3704(3) 0.47520(11) 0.1212(3)
H27 H 0.44350 0.45450 0.10540
C28 C -0.0141(3) 0.08902(14) 0.0065(4)
H28 H -0.04870 0.10210 0.08630
H29 H 0.01780 0.05160 0.02010
H30 H -0.08110 0.08940 -0.06580
N1 N 0.09137(17) 0.12532(8) -0.02577(19)
N2 N 0.31261(19) 0.25920(8) 0.0822(2)
O1 O 0.24663(16) 0.31067(6) 0.03989(17)
O2 O 0.3785(2) 0.35587(7) 0.19522(19)
O3 O 0.22803(16) 0.39771(6) 0.05421(17)
#END
