
#######################################################################
#
#                 Cambridge Crystallographic Data Centre
#                                CCDC
#
#######################################################################
#
# If this CIF has been generated from an entry in the Cambridge
# Structural Database, then it will include bibliographic, chemical,
# crystal, experimental, refinement or atomic coordinate data resulting
# from the CCDC's data processing and validation procedures.
#
#######################################################################

data_CSD_CIF_CORYIR10
_audit_creation_date 1987-03-27
_audit_creation_method CSD-ConQuest-V1
_database_code_CSD CORYIR10
_database_code_depnum_ccdc_archive 'CCDC 1129932'
_chemical_formula_sum 'C3 H5 N3 O9'
_chemical_formula_moiety
;
C3 H5 N3 O9
;
_journal_coden_Cambridge 95
_journal_year 1985
_journal_page_first 1558
_journal_name_full 'Izv.Akad.Nauk SSSR,Ser.Khim.(Russ.)(Russ.Chem.Bull.) '
loop_
_publ_author_name
"A.A.Espenbetov"
"V.A.Filippov"
"M.Yu.Antipin"
"V.G.Tsirel'son"
"Yu.T.Struchkov"
"B.S.Svetlov"
_chemical_name_systematic
;
1,2,3-Propanetriol trinitrate
;
_chemical_name_common
;
Nitroglycerin; DrugBank: DB00727
;
_chemical_melting_point 286.35
_cell_volume    818.954
_exptl_crystal_density_diffrn 1.842
_exptl_special_details
;
Melting point range 286.35-286.65K
stable beta polymorph
H12 deleted for suspected coordinate error
;
_diffrn_ambient_temperature 153.15
#These two values have been output from a single CSD field.
_refine_ls_R_factor_gt 0.0258
_refine_ls_wR_factor_gt 0.0258
_symmetry_cell_setting orthorhombic
_symmetry_space_group_name_H-M 'P n a 21'
_symmetry_Int_Tables_number 33
loop_
_symmetry_equiv_pos_site_id
_symmetry_equiv_pos_as_xyz
1 x,y,z
2 1/2-x,1/2+y,1/2+z
3 1/2+x,1/2-y,z
4 -x,-y,1/2+z
_cell_length_a 8.900(2)
_cell_length_b 13.608(3)
_cell_length_c 6.762(2)
_cell_angle_alpha 90
_cell_angle_beta 90
_cell_angle_gamma 90
_cell_formula_units_Z 4
loop_
_atom_type_symbol
_atom_type_radius_bond
C 0.68
H 0.23
N 0.68
O 0.68
loop_
_atom_site_label
_atom_site_type_symbol
_atom_site_fract_x
_atom_site_fract_y
_atom_site_fract_z
O1 O 0.0992(2) -0.1096(1) -0.0078(5)
O2 O -0.0173(2) -0.2495(1) -0.0082(5)
O3 O 0.1822(2) -0.2354(1) -0.1912(4)
O4 O 0.1938(2) 0.0464(1) 0.2221(5)
O5 O 0.4441(2) 0.0377(1) 0.2633(4)
O6 O 0.2939(2) 0.0542(1) 0.5147(4)
O7 O 0.0697(2) 0.1932(1) -0.0104(4)
O8 O 0.2624(2) 0.2324(1) -0.2081(5)
O9 O 0.1333(3) 0.3448(1) -0.0554(5)
N1 N 0.0887(2) -0.2070(2) -0.0769(5)
N2 N 0.3241(2) 0.0463(2) 0.3418(5)
N3 N 0.1648(3) 0.2619(2) -0.1012(6)
C1 C 0.2398(3) -0.0622(2) -0.0603(6)
C2 C 0.2235(3) 0.0429(2) 0.0101(6)
C3 C 0.0895(3) 0.0938(2) -0.0814(6)
H1 H 0.254(3) -0.063(2) -0.187(4)
H2 H 0.313(2) 0.080(2) -0.019(4)
H3 H -0.005(3) 0.063(2) -0.057(4)
H4 H 0.097(3) 0.093(2) -0.222(5)
#END
