
#######################################################################
#
#                 Cambridge Crystallographic Data Centre
#                                CCDC
#
#######################################################################
#
# If this CIF has been generated from an entry in the Cambridge
# Structural Database, then it will include bibliographic, chemical,
# crystal, experimental, refinement or atomic coordinate data resulting
# from the CCDC's data processing and validation procedures.
#
#######################################################################

data_CSD_CIF_COSKOL
_audit_creation_date 2009-07-17
_audit_creation_method CSD-ConQuest-V1
_database_code_CSD COSKOL
_database_code_depnum_ccdc_archive 'CCDC 701669'
_chemical_formula_sum 'C14 H17 N3 O3'
_chemical_formula_moiety
;
C14 H17 N3 O3
;
_journal_coden_Cambridge 24
_journal_volume 50
_journal_year 2009
_journal_page_first 933
_journal_name_full 'Tetrahedron Lett. '
loop_
_publ_author_name
"Jianua Guo"
"J.Gaudette"
"Jie-Fei Cheng"
_chemical_name_systematic
;
t-Butyl 1-nitroso-3-phenyl-4,5-dihydro-1H-pyrazole-5-carboxylate
;
_cell_volume    700.710
_exptl_crystal_colour 'colorless'
_exptl_crystal_density_diffrn 1.305
_exptl_crystal_description 'block'
_diffrn_ambient_temperature 100
#These two values have been output from a single CSD field.
_refine_ls_R_factor_gt 0.0564
_refine_ls_wR_factor_gt 0.0564
_symmetry_cell_setting triclinic
_symmetry_space_group_name_H-M 'P -1'
_symmetry_Int_Tables_number 2
loop_
_symmetry_equiv_pos_site_id
_symmetry_equiv_pos_as_xyz
1 x,y,z
2 -x,-y,-z
_cell_length_a 6.8947(6)
_cell_length_b 10.1241(7)
_cell_length_c 11.1046(8)
_cell_angle_alpha 110.468(4)
_cell_angle_beta 95.584(4)
_cell_angle_gamma 101.214(4)
_cell_formula_units_Z 2
loop_
_atom_type_symbol
_atom_type_radius_bond
C 0.68
H 0.23
N 0.68
O 0.68
loop_
_atom_site_label
_atom_site_type_symbol
_atom_site_fract_x
_atom_site_fract_y
_atom_site_fract_z
O1 O 0.2212(3) 0.92035(18) 0.65747(18)
O2 O 0.2591(3) 0.79890(18) 0.79214(19)
O3 O -0.1138(3) 0.97588(19) 0.85097(19)
N1 N -0.0539(3) 1.0975(2) 0.8441(2)
N2 N 0.1411(3) 1.1372(2) 0.8572(2)
N3 N 0.2253(3) 1.2646(2) 0.8417(2)
C1 C 0.1854(4) 0.7940(3) 0.5317(3)
C2 C 0.3573(5) 0.7186(4) 0.5241(3)
H1 H 0.482(7) 0.792(5) 0.556(4)
H2 H 0.328(6) 0.640(5) 0.428(4)
H3 H 0.339(6) 0.666(5) 0.583(5)
C3 C -0.0166(5) 0.6941(4) 0.5177(3)
H4 H -0.025(7) 0.644(5) 0.586(5)
H5 H -0.054(6) 0.620(5) 0.434(5)
H6 H -0.130(7) 0.744(5) 0.519(5)
C4 C 0.1832(6) 0.8649(4) 0.4327(3)
H7 H 0.160(6) 0.803(4) 0.350(4)
H8 H 0.315(8) 0.950(6) 0.460(5)
H9 H 0.072(7) 0.911(5) 0.443(5)
C5 C 0.2510(4) 0.9079(3) 0.7714(3)
C6 C 0.2858(4) 1.0558(2) 0.8822(2)
H10 H 0.279(4) 1.047(3) 0.963(3)
C7 C 0.4856(4) 1.1590(3) 0.8891(3)
H11 H 0.571(4) 1.196(3) 0.975(3)
H12 H 0.565(5) 1.106(4) 0.816(3)
C8 C 0.4168(4) 1.2785(3) 0.8573(2)
C9 C 0.5541(4) 1.4020(3) 0.8462(2)
C10 C 0.4812(4) 1.5091(3) 0.8162(3)
H13 H 0.340(5) 1.502(3) 0.798(3)
C11 C 0.6125(4) 1.6257(3) 0.8081(2)
H14 H 0.550(5) 1.696(4) 0.791(4)
C12 C 0.8181(4) 1.6383(3) 0.8283(3)
H15 H 0.918(5) 1.715(3) 0.816(3)
C13 C 0.8922(4) 1.5318(3) 0.8570(3)
H16 H 1.037(4) 1.543(3) 0.871(3)
C14 C 0.7603(4) 1.4151(3) 0.8663(2)
H17 H 0.819(5) 1.338(3) 0.886(3)
#END
