
#######################################################################
#
#                 Cambridge Crystallographic Data Centre
#                                CCDC
#
#######################################################################
#
# If this CIF has been generated from an entry in the Cambridge
# Structural Database, then it will include bibliographic, chemical,
# crystal, experimental, refinement or atomic coordinate data resulting
# from the CCDC's data processing and validation procedures.
#
#######################################################################

data_CSD_CIF_COSQEH
_audit_creation_date 2009-07-17
_audit_creation_method CSD-ConQuest-V1
_database_code_CSD COSQEH
_database_code_depnum_ccdc_archive 'CCDC 704648'
_chemical_formula_sum 'C17 H19 N3 O6'
_chemical_formula_moiety
;
C17 H19 N3 O6
;
_journal_coden_Cambridge 16
_journal_volume 65
_journal_year 2009
_journal_page_first 2116
_journal_name_full 'Tetrahedron '
loop_
_publ_author_name
"T.Kodama"
"C.Matsuo"
"H.Ori"
"T.Miyoshi"
"S.Obika"
"K.Miyashita"
"T.Imanishi"
_chemical_name_systematic
;
(2S,8R,10R,11S,12S)-5-(Benzyloxymethyl)-11-hydroxy-9,13-dioxa-1,5,7-triazatetr
acyclo[8.3.1.0^2,7^.0^8,12^]tetradecane-4,6-dione
;
_chemical_melting_point 452.15
_cell_volume    839.936
_exptl_crystal_colour 'colorless'
_exptl_crystal_density_diffrn 1.429
_exptl_special_details
;
Melting point range 452.15-455.15K

;
_exptl_crystal_description 'block'
_exptl_crystal_preparation 'acetone'
_diffrn_ambient_temperature 293.1
#These two values have been output from a single CSD field.
_refine_ls_R_factor_gt 0.0547
_refine_ls_wR_factor_gt 0.0547
_symmetry_cell_setting monoclinic
_symmetry_space_group_name_H-M 'P 21'
_symmetry_Int_Tables_number 4
loop_
_symmetry_equiv_pos_site_id
_symmetry_equiv_pos_as_xyz
1 x,y,z
2 -x,1/2+y,-z
_cell_length_a 10.211(2)
_cell_length_b 6.6639(14)
_cell_length_c 12.480(3)
_cell_angle_alpha 90
_cell_angle_beta 98.472(13)
_cell_angle_gamma 90
_cell_formula_units_Z 2
loop_
_atom_type_symbol
_atom_type_radius_bond
C 0.68
H 0.23
N 0.68
O 0.68
loop_
_atom_site_label
_atom_site_type_symbol
_atom_site_fract_x
_atom_site_fract_y
_atom_site_fract_z
O1 O -0.0124(2) 0.9856(3) 0.42572(17)
O2 O 0.1930(2) 0.8926(4) 0.26692(17)
O3 O 0.5116(2) 0.5631(5) 0.5932(2)
O4 O 0.3668(2) 0.7541(5) 0.7916(2)
O5 O 0.2854(2) 1.1379(4) 0.6139(2)
O6 O -0.0717(2) 1.2593(4) 0.2542(2)
N1 N 0.1469(2) 0.7199(4) 0.3191(2)
N2 N 0.2140(2) 0.9272(4) 0.47512(19)
N3 N 0.3814(2) 0.8300(4) 0.6127(2)
C1 C 0.1175(3) 1.0609(5) 0.4206(2)
C2 C 0.3455(4) 0.5182(9) 0.9278(4)
C3 C 0.2959(7) 0.5974(9) 1.0147(6)
C4 C 0.2127(10) 0.473(2) 1.0698(5)
C5 C 0.1886(8) 0.292(2) 1.0333(9)
C6 C 0.2400(11) 0.2201(11) 0.9509(9)
C7 C 0.3120(7) 0.3316(12) 0.9018(4)
C8 C 0.2116(3) 0.7220(5) 0.4311(2)
C9 C -0.0630(2) 0.9119(4) 0.3190(2)
C10 C 0.0020(3) 0.7121(4) 0.3009(2)
C11 C 0.4419(3) 0.8567(6) 0.7243(2)
C12 C 0.3505(3) 0.6463(5) 0.4414(2)
C13 C 0.1283(3) 1.0694(5) 0.2994(2)
C14 C -0.0151(3) 1.0672(5) 0.2459(2)
C15 C 0.2910(3) 0.9777(5) 0.5686(2)
C16 C 0.4219(3) 0.6704(5) 0.5539(3)
C17 C 0.4310(5) 0.6473(17) 0.8701(7)
H1 H -0.02570 0.67120 0.22820
H2 H -0.02600 0.61570 0.34890
H3 H 0.44400 0.99530 0.74210
H4 H 0.52960 0.80530 0.73380
H5 H 0.34950 0.50870 0.42140
H6 H 0.12750 1.19110 0.45170
H7 H 0.39580 0.72170 0.39360
H8 H 0.48870 0.56160 0.83820
H9 H 0.48170 0.73430 0.92050
H10 H 0.31820 0.73240 1.03380
H11 H 0.18070 0.53090 1.13050
H12 H 0.12940 0.21830 1.07050
H13 H 0.21990 0.08490 0.93070
H14 H 0.34580 0.27280 0.84210
H15 H -0.15680 0.90120 0.30820
H16 H 0.17230 1.18800 0.28200
H17 H -0.02440 1.02280 0.17290
H18 H 0.16340 0.63800 0.47290
H19 H -0.08030 1.32340 0.17630
#END
