
#######################################################################
#
#                 Cambridge Crystallographic Data Centre
#                                CCDC
#
#######################################################################
#
# If this CIF has been generated from an entry in the Cambridge
# Structural Database, then it will include bibliographic, chemical,
# crystal, experimental, refinement or atomic coordinate data resulting
# from the CCDC's data processing and validation procedures.
#
#######################################################################

data_CSD_CIF_COSQOS
_audit_creation_date 2014-09-17
_audit_creation_method CSD-ConQuest-V1
_database_code_CSD COSQOS
_database_code_depnum_ccdc_archive 'CCDC 1012299'
_chemical_formula_sum 'C23 H28 N4 O5'
_chemical_formula_moiety
;
C23 H28 N4 O5
;
_journal_coden_Cambridge 177
_journal_volume 12
_journal_year 2014
_journal_page_first 8462
_journal_name_full 'Org.Biomol.Chem. '
loop_
_publ_author_name
"S.M.Mali"
"M.G.Kumar"
"M.M.Katariya"
"H.N.Gopi"
_chemical_name_systematic
;
syn-methyl 
4-((t-butoxycarbonyl)amino)-3-(3-oxido-1H-benzotriazol-1-yl)-5-phenylpentanoat
e
;
_cell_volume   2351.783
_exptl_crystal_colour 'colorless'
_exptl_crystal_density_diffrn 1.247
_exptl_special_details
;
Study temperature published as 100 K in paper, 173 K in CIF

;
_exptl_crystal_description 'rod'
_exptl_crystal_preparation 'isopropanol'
_diffrn_ambient_temperature 173
#These two values have been output from a single CSD field.
_refine_ls_R_factor_gt 0.0479
_refine_ls_wR_factor_gt 0.0479
loop_
_citation_database_id_CSD
_citation_special_details
COSQIM "is a stereoisomer of this entry"
_symmetry_cell_setting orthorhombic
_symmetry_space_group_name_H-M 'P 21 21 21'
_symmetry_Int_Tables_number 19
loop_
_symmetry_equiv_pos_site_id
_symmetry_equiv_pos_as_xyz
1 x,y,z
2 1/2+x,1/2-y,-z
3 -x,1/2+y,1/2-z
4 1/2-x,-y,1/2+z
_cell_length_a 9.0179(3)
_cell_length_b 11.9971(4)
_cell_length_c 21.7378(7)
_cell_angle_alpha 90
_cell_angle_beta 90
_cell_angle_gamma 90
_cell_formula_units_Z 4
loop_
_atom_type_symbol
_atom_type_radius_bond
C 0.68
H 0.23
N 0.68
O 0.68
loop_
_atom_site_label
_atom_site_type_symbol
_atom_site_fract_x
_atom_site_fract_y
_atom_site_fract_z
O1 O 0.53708(18) 0.38036(14) 1.00137(7)
O2 O 0.4055(2) 0.53219(15) 0.96968(8)
O3 O 0.3533(2) 0.74565(13) 0.67162(8)
O4 O 0.2771(2) 0.26524(18) 0.76010(13)
O5 O 0.0735(2) 0.36545(17) 0.77248(9)
N1 N 0.5568(2) 0.43678(14) 0.90542(8)
H1 H 0.61040 0.37790 0.90180
N2 N 0.4451(2) 0.51095(14) 0.74603(8)
N3 N 0.3786(2) 0.61143(14) 0.74400(9)
N4 N 0.4055(2) 0.65109(15) 0.68854(9)
C1 C 0.2907(3) 0.3281(3) 1.03551(14)
H2 H 0.24490 0.39250 1.01740
H3 H 0.23320 0.30370 1.07010
H4 H 0.29580 0.26940 1.00560
C2 C 0.4451(3) 0.3575(2) 1.05652(10)
C3 C 0.4919(2) 0.45666(18) 0.9600(1)
C4 C 0.5413(2) 0.50918(16) 0.85231(9)
H5 H 0.48980 0.57740 0.86490
C5 C 0.4465(3) 0.44834(17) 0.80394(9)
H6 H 0.49340 0.37610 0.79580
C6 C 0.5161(2) 0.48646(19) 0.69189(10)
C7 C 0.4914(3) 0.5784(2) 0.65481(11)
C8 C 0.5496(3) 0.5851(3) 0.59462(12)
H7 H 0.53480 0.64720 0.56980
C9 C 0.6288(3) 0.4952(3) 0.57512(12)
H8 H 0.66940 0.49610 0.53580
C10 C 0.4474(4) 0.4547(3) 1.10008(12)
H9 H 0.54820 0.47540 1.10850
H10 H 0.39910 0.43430 1.13780
H11 H 0.39630 0.51660 1.08180
C11 C 0.5218(4) 0.2580(3) 1.08441(14)
H12 H 0.52680 0.19910 1.05460
H13 H 0.46710 0.23310 1.11970
H14 H 0.62040 0.27860 1.09670
C12 C 0.5967(3) 0.3941(2) 0.67165(11)
H15 H 0.61260 0.33210 0.69650
C13 C 0.6514(3) 0.4005(3) 0.61262(14)
H16 H 0.70480 0.34060 0.59690
C14 C 0.2878(3) 0.42595(18) 0.82402(10)
H17 H 0.28740 0.39700 0.86570
H18 H 0.23210 0.49510 0.82370
C15 C 0.2157(3) 0.34341(19) 0.78168(11)
C16 C -0.0068(4) 0.2858(4) 0.73410(17)
H19 H 0.02330 0.29450 0.69200
H20 H -0.11140 0.29910 0.73750
H21 H 0.01510 0.21140 0.74750
C17 C 0.6948(3) 0.54012(18) 0.82764(10)
H22 H 0.74530 0.47270 0.81470
H23 H 0.68290 0.58720 0.79170
C18 C 0.7901(3) 0.60001(17) 0.87404(10)
C19 C 0.7417(3) 0.6948(2) 0.90391(12)
H24 H 0.64670 0.72160 0.89620
C20 C 0.8327(3) 0.7510(2) 0.94539(13)
H25 H 0.79790 0.81440 0.96530
C21 C 0.9735(3) 0.7131(2) 0.95687(13)
H26 H 1.03460 0.75150 0.98410
C22 C 1.0241(3) 0.6186(2) 0.92818(13)
H27 H 1.11960 0.59290 0.93590
C23 C 0.9324(3) 0.5612(2) 0.88751(12)
H28 H 0.96650 0.49620 0.86910
#END
