
#######################################################################
#
#                 Cambridge Crystallographic Data Centre
#                                CCDC
#
#######################################################################
#
# If this CIF has been generated from an entry in the Cambridge
# Structural Database, then it will include bibliographic, chemical,
# crystal, experimental, refinement or atomic coordinate data resulting
# from the CCDC's data processing and validation procedures.
#
#######################################################################

data_CSD_CIF_COTKUS
_audit_creation_date 2009-07-17
_audit_creation_method CSD-ConQuest-V1
_database_code_CSD COTKUS
_database_code_depnum_ccdc_archive 'CCDC 233599'
_chemical_formula_sum 'C7 H7 N3 O4'
_chemical_formula_moiety
;
C7 H7 N3 O4
;
_journal_coden_Cambridge 1078
_journal_year 2009
_journal_name_full 'CSD Communication(Private Communication) '
loop_
_publ_author_name
"J.R.Hanson"
"P.B.Hitchcock"
_chemical_name_systematic
;
4-Amino-2,5-dinitrotoluene
;
_cell_volume    822.381
_exptl_crystal_colour 'red'
_exptl_crystal_density_diffrn 1.592
_exptl_special_details
;
contribution from Chemistry Department,University of Sussex, Brighton

;
_exptl_crystal_description 'needle'
_diffrn_ambient_temperature 173
#These two values have been output from a single CSD field.
_refine_ls_R_factor_gt 0.0624
_refine_ls_wR_factor_gt 0.0624
_symmetry_cell_setting monoclinic
_symmetry_space_group_name_H-M 'P 21/n'
_symmetry_Int_Tables_number 14
loop_
_symmetry_equiv_pos_site_id
_symmetry_equiv_pos_as_xyz
1 x,y,z
2 1/2-x,1/2+y,1/2-z
3 -x,-y,-z
4 -1/2+x,-1/2-y,-1/2+z
_cell_length_a 7.609(2)
_cell_length_b 9.0685(19)
_cell_length_c 12.131(3)
_cell_angle_alpha 90
_cell_angle_beta 100.748(12)
_cell_angle_gamma 90
_cell_formula_units_Z 4
loop_
_atom_type_symbol
_atom_type_radius_bond
C 0.68
H 0.23
N 0.68
O 0.68
loop_
_atom_site_label
_atom_site_type_symbol
_atom_site_fract_x
_atom_site_fract_y
_atom_site_fract_z
O1 O 0.2775(5) 0.7024(5) 0.7546(3)
O2 O 0.0508(5) 0.4792(4) 0.2065(3)
O3 O 0.1551(4) 0.2655(4) 0.2552(3)
O4 O 0.5063(5) 0.5652(4) 0.7657(3)
N1 N 0.3654(5) 0.6138(4) 0.7144(3)
N2 N 0.1286(5) 0.3946(5) 0.2774(3)
N3 N 0.3401(6) 0.2112(5) 0.4593(5)
H1 H 0.404(8) 0.167(7) 0.517(5)
H2 H 0.315(8) 0.171(6) 0.395(5)
C1 C 0.2024(5) 0.6563(5) 0.5182(4)
C2 C 0.3015(5) 0.5617(5) 0.5984(4)
C3 C 0.3465(6) 0.4198(5) 0.5785(4)
H3 H 0.416(5) 0.373(4) 0.637(3)
C4 C 0.2919(5) 0.3545(5) 0.4734(4)
C5 C 0.1912(5) 0.4466(5) 0.3907(4)
C6 C 0.1491(6) 0.5915(5) 0.4144(4)
H4 H 0.099(5) 0.651(4) 0.356(3)
C7 C 0.1585(9) 0.8128(5) 0.5368(5)
H5 H 0.072(8) 0.834(7) 0.585(6)
H6 H 0.269(7) 0.861(5) 0.577(4)
H7 H 0.110(6) 0.851(5) 0.470(4)
#END
