
#######################################################################
#
#                 Cambridge Crystallographic Data Centre
#                                CCDC
#
#######################################################################
#
# If this CIF has been generated from an entry in the Cambridge
# Structural Database, then it will include bibliographic, chemical,
# crystal, experimental, refinement or atomic coordinate data resulting
# from the CCDC's data processing and validation procedures.
#
#######################################################################

data_CSD_CIF_COTLAZ
_audit_creation_date 2009-07-17
_audit_creation_method CSD-ConQuest-V1
_database_code_CSD COTLAZ
_database_code_depnum_ccdc_archive 'CCDC 233600'
_chemical_formula_sum 'C7 H7 N3 O4'
_chemical_formula_moiety
;
C7 H7 N3 O4
;
_journal_coden_Cambridge 1078
_journal_year 2009
_journal_name_full 'CSD Communication(Private Communication) '
loop_
_publ_author_name
"J.R.Hanson"
"P.B.Hitchcock"
_chemical_name_systematic
;
3-Amino-4,5-dinitrotoluene
;
_cell_volume    828.720
_exptl_crystal_colour 'red'
_exptl_crystal_density_diffrn 1.58
_exptl_special_details
;
contribution from Chemistry Department,University of Sussex, Brighton

;
_exptl_crystal_description 'prism'
_diffrn_ambient_temperature 173
#These two values have been output from a single CSD field.
_refine_ls_R_factor_gt 0.0438
_refine_ls_wR_factor_gt 0.0438
_symmetry_cell_setting monoclinic
_symmetry_space_group_name_H-M 'P 21/c'
_symmetry_Int_Tables_number 14
loop_
_symmetry_equiv_pos_site_id
_symmetry_equiv_pos_as_xyz
1 x,y,z
2 -x,1/2+y,1/2-z
3 -x,-y,-z
4 x,-1/2-y,-1/2+z
_cell_length_a 7.0555(4)
_cell_length_b 8.2457(4)
_cell_length_c 14.3539(11)
_cell_angle_alpha 90
_cell_angle_beta 97.073(2)
_cell_angle_gamma 90
_cell_formula_units_Z 4
loop_
_atom_type_symbol
_atom_type_radius_bond
C 0.68
H 0.23
N 0.68
O 0.68
loop_
_atom_site_label
_atom_site_type_symbol
_atom_site_fract_x
_atom_site_fract_y
_atom_site_fract_z
O1 O 0.9016(3) 0.40664(19) 0.23448(10)
O2 O 0.9855(2) 0.19545(17) 0.16025(10)
O3 O 0.6497(3) 0.06015(19) 0.08136(11)
O4 O 0.7994(3) 0.0163(2) -0.03865(13)
N1 N 0.8341(3) 0.6701(2) 0.12708(14)
H1 H 0.872(4) 0.643(3) 0.188(2)
H2 H 0.834(4) 0.766(4) 0.109(2)
N2 N 0.9007(2) 0.3258(2) 0.16200(11)
N3 N 0.7340(3) 0.1062(2) 0.01658(13)
C1 C 0.6707(3) 0.5025(2) -0.10470(13)
C2 C 0.7191(3) 0.6084(2) -0.03213(14)
H3 H 0.705(3) 0.723(3) -0.0432(15)
C3 C 0.7867(3) 0.5569(2) 0.06074(13)
C4 C 0.8038(3) 0.3881(2) 0.07574(13)
C5 C 0.7467(3) 0.2815(2) 0.00044(13)
C6 C 0.6826(3) 0.3344(2) -0.08727(14)
H4 H 0.638(4) 0.259(3) -0.1350(18)
C7 C 0.6026(4) 0.5629(3) -0.20183(16)
H5 H 0.599(5) 0.677(5) -0.202(2)
H6 H 0.693(4) 0.538(3) -0.243(2)
H7 H 0.485(4) 0.516(3) -0.2243(17)
#END
