
#######################################################################
#
#                 Cambridge Crystallographic Data Centre
#                                CCDC
#
#######################################################################
#
# If this CIF has been generated from an entry in the Cambridge
# Structural Database, then it will include bibliographic, chemical,
# crystal, experimental, refinement or atomic coordinate data resulting
# from the CCDC's data processing and validation procedures.
#
#######################################################################

data_CSD_CIF_COVJUU
_audit_creation_date 2015-02-25
_audit_creation_method CSD-ConQuest-V1
_database_code_CSD COVJUU
_database_code_depnum_ccdc_archive 'CCDC 810387'
_chemical_formula_sum 'C17 H15 N1 O6'
_chemical_formula_moiety
;
C17 H15 N1 O6
;
_journal_coden_Cambridge 1003
_journal_volume 44
_journal_year 2014
_journal_page_first 512
_journal_name_full 'J.Chem.Cryst. '
loop_
_publ_author_name
"M.C.Lozada"
"R.Enriquez"
"D.Gnecco"
"W.Reynolds"
"M.Soriano-Garcia"
_chemical_name_systematic
;
(3,4-dimethoxyphenyl)(3-(4-nitrophenyl)oxiran-2-yl)methanone
;
_cell_volume    765.554
_exptl_crystal_colour 'colorless'
_exptl_crystal_density_diffrn 1.429
_exptl_crystal_description 'plates'
_diffrn_ambient_temperature 294
#These two values have been output from a single CSD field.
_refine_ls_R_factor_gt 0.0501
_refine_ls_wR_factor_gt 0.0501
_symmetry_cell_setting triclinic
_symmetry_space_group_name_H-M 'P -1'
_symmetry_Int_Tables_number 2
loop_
_symmetry_equiv_pos_site_id
_symmetry_equiv_pos_as_xyz
1 x,y,z
2 -x,-y,-z
_cell_length_a 6.977(1)
_cell_length_b 8.259(1)
_cell_length_c 13.964(2)
_cell_angle_alpha 103.889(2)
_cell_angle_beta 91.151(2)
_cell_angle_gamma 100.780(2)
_cell_formula_units_Z 2
loop_
_atom_type_symbol
_atom_type_radius_bond
C 0.68
H 0.23
N 0.68
O 0.68
loop_
_atom_site_label
_atom_site_type_symbol
_atom_site_fract_x
_atom_site_fract_y
_atom_site_fract_z
O1 O 0.1114(3) 0.5290(2) 0.86623(12)
O2 O 0.1817(2) 1.00521(18) 1.18458(10)
O3 O 0.3102(2) 1.28046(18) 1.13261(11)
O4 O 0.1135(3) 0.5049(2) 0.66550(12)
O5 O 0.5765(3) 0.8228(3) 0.29001(17)
O6 O 0.8153(3) 0.9669(3) 0.39244(16)
N1 N 0.6586(4) 0.8677(3) 0.37241(19)
C1 C 0.1502(3) 0.6640(3) 0.84331(17)
C2 C 0.1984(3) 0.8282(3) 0.91690(15)
C3 C 0.1674(3) 0.8340(3) 1.01582(15)
H1 H 0.11850 0.73390 1.03420
C4 C 0.2083(3) 0.9853(3) 1.08641(15)
C5 C 0.2814(3) 1.1360(3) 1.05795(16)
C6 C 0.3161(3) 1.1296(3) 0.96078(17)
H2 H 0.36770 1.22910 0.94240
C7 C 0.2750(3) 0.9768(3) 0.89019(16)
H3 H 0.29880 0.97370 0.82460
C8 C 0.1121(4) 0.8549(3) 1.21665(17)
H4 H -0.01580 0.80220 1.18570
H5 H 0.10550 0.88390 1.28720
H6 H 0.19960 0.77740 1.19870
C9 C 0.3644(4) 1.4383(3) 1.1061(2)
H7 H 0.49150 1.44590 1.08030
H8 H 0.36770 1.53050 1.16340
H9 H 0.27070 1.44490 1.05660
C10 C 0.1543(3) 0.6660(3) 0.73600(17)
H10 H 0.10960 0.76040 0.71720
C11 C 0.3090(4) 0.5970(3) 0.67955(17)
H11 H 0.39830 0.55300 0.71720
C12 C 0.3966(3) 0.6655(3) 0.59801(16)
C13 C 0.5914(4) 0.7435(3) 0.60873(18)
H12 H 0.66520 0.75040 0.66630
C14 C 0.6780(4) 0.8108(3) 0.5360(2)
H13 H 0.80860 0.86550 0.54440
C15 C 0.5683(4) 0.7962(3) 0.45080(17)
C16 C 0.3756(4) 0.7181(3) 0.43722(18)
H14 H 0.30360 0.70880 0.37870
C17 C 0.2899(4) 0.6537(3) 0.51153(17)
H15 H 0.15840 0.60150 0.50340
#END
