
#######################################################################
#
#                 Cambridge Crystallographic Data Centre
#                                CCDC
#
#######################################################################
#
# If this CIF has been generated from an entry in the Cambridge
# Structural Database, then it will include bibliographic, chemical,
# crystal, experimental, refinement or atomic coordinate data resulting
# from the CCDC's data processing and validation procedures.
#
#######################################################################

data_CSD_CIF_COVJOO
_audit_creation_date 2015-02-25
_audit_creation_method CSD-ConQuest-V1
_database_code_CSD COVJOO
_database_code_depnum_ccdc_archive 'CCDC 810388'
_chemical_formula_sum 'C15 H13 N1 O4'
_chemical_formula_moiety
;
C15 H13 N1 O4
;
_journal_coden_Cambridge 1003
_journal_volume 44
_journal_year 2014
_journal_page_first 512
_journal_name_full 'J.Chem.Cryst. '
loop_
_publ_author_name
"M.C.Lozada"
"R.Enriquez"
"D.Gnecco"
"W.Reynolds"
"M.Soriano-Garcia"
_chemical_name_systematic
;
(3-(4-nitrophenyl)oxiran-2-yl)(phenyl)methanol
;
_cell_volume    679.315
_exptl_crystal_colour 'colorless'
_exptl_crystal_density_diffrn 1.326
_exptl_crystal_description 'prism'
_diffrn_ambient_temperature 294
#These two values have been output from a single CSD field.
_refine_ls_R_factor_gt 0.0513
_refine_ls_wR_factor_gt 0.0513
_symmetry_cell_setting monoclinic
_symmetry_space_group_name_H-M 'P 21'
_symmetry_Int_Tables_number 4
loop_
_symmetry_equiv_pos_site_id
_symmetry_equiv_pos_as_xyz
1 x,y,z
2 -x,1/2+y,-z
_cell_length_a 6.708(1)
_cell_length_b 8.388(1)
_cell_length_c 12.407(2)
_cell_angle_alpha 90
_cell_angle_beta 103.322(3)
_cell_angle_gamma 90
_cell_formula_units_Z 2
loop_
_atom_type_symbol
_atom_type_radius_bond
C 0.68
H 0.23
N 0.68
O 0.68
loop_
_atom_site_label
_atom_site_type_symbol
_atom_site_fract_x
_atom_site_fract_y
_atom_site_fract_z
O1 O 0.9137(5) 0.6908(3) 0.7598(3)
H1 H 0.999(7) 0.671(7) 0.712(4)
O2 O 0.9164(3) 0.3915(3) 0.6638(2)
O3 O 0.3046(5) -0.2912(3) 0.6105(3)
O4 O 0.0360(4) -0.1463(4) 0.5834(2)
N1 N 0.2226(5) -0.1624(4) 0.6005(2)
C1 C 0.9509(5) 0.5585(5) 0.8325(3)
H2 H 1.09850 0.55130 0.86460
C2 C 0.8808(4) 0.4057(4) 0.7719(3)
H3 H 0.90490 0.30870 0.81710
C3 C 0.7083(4) 0.3990(4) 0.6767(2)
H4 H 0.63630 0.49990 0.65530
C4 C 0.8416(5) 0.5822(4) 0.9248(3)
C5 C 0.6640(6) 0.6685(5) 0.9097(3)
H5 H 0.61080 0.71710 0.84180
C6 C 0.5631(7) 0.6839(6) 0.9949(4)
H6 H 0.44390 0.74430 0.98410
C7 C 0.6372(7) 0.6113(5) 1.0939(3)
H7 H 0.56830 0.62090 1.15060
C8 C 0.8129(7) 0.5245(6) 1.1095(3)
H8 H 0.86440 0.47500 1.17730
C9 C 0.9141(5) 0.5096(5) 1.0264(3)
H9 H 1.03380 0.44960 1.03820
C10 C 0.5832(5) 0.2517(4) 0.6492(2)
C11 C 0.6747(5) 0.1023(4) 0.6592(3)
H10 H 0.81680 0.09450 0.67870
C12 C 0.5586(5) -0.0342(4) 0.6409(3)
H11 H 0.62000 -0.13420 0.64800
C13 C 0.3488(5) -0.0186(4) 0.6116(2)
C14 C 0.2552(5) 0.1278(4) 0.5973(3)
H12 H 0.11330 0.13540 0.57510
C15 C 0.3741(5) 0.2634(4) 0.6160(3)
H13 H 0.31230 0.36320 0.60620
#END
