
#######################################################################
#
#                 Cambridge Crystallographic Data Centre
#                                CCDC
#
#######################################################################
#
# If this CIF has been generated from an entry in the Cambridge
# Structural Database, then it will include bibliographic, chemical,
# crystal, experimental, refinement or atomic coordinate data resulting
# from the CCDC's data processing and validation procedures.
#
#######################################################################

data_CSD_CIF_COVWIT
_audit_creation_date 1985-08-16
_audit_creation_method CSD-ConQuest-V1
_database_code_CSD COVWIT
_chemical_formula_sum 'C20 H27 N3 O4'
_chemical_formula_moiety
;
C20 H27 N3 O4
;
_journal_coden_Cambridge 16
_journal_volume 40
_journal_year 1984
_journal_page_first 3579
_journal_name_full 'Tetrahedron '
loop_
_publ_author_name
"D.Pocar"
"P.Trimarco"
"R.Destro"
"E.Ortoleva"
"M.Ballabio"
_chemical_name_systematic
;
1,5-Dimorpholino-5-methyl-4-nitro-3-phenyl-cyclopentene
;
_chemical_melting_point 408.15
_cell_volume   4013.103
_exptl_crystal_density_diffrn 1.236
_exptl_special_details
;
Melting point range 408.15-410.15K
z/c(C19)=0.60356 (not 0.69356)

;
_diffrn_ambient_temperature ?
_diffrn_special_details
;
The study was carried out at room temperature,in the range 283-303K

;
#These two values have been output from a single CSD field.
_refine_ls_R_factor_gt 0.034
_refine_ls_wR_factor_gt 0.034
_symmetry_cell_setting orthorhombic
_symmetry_space_group_name_H-M 'P b c a'
_symmetry_Int_Tables_number 61
loop_
_symmetry_equiv_pos_site_id
_symmetry_equiv_pos_as_xyz
1 x,y,z
2 1/2-x,1/2+y,z
3 x,1/2-y,1/2+z
4 1/2-x,-y,1/2+z
5 -x,-y,-z
6 -1/2+x,-1/2-y,-z
7 -x,-1/2+y,-1/2-z
8 -1/2+x,y,-1/2-z
_cell_length_a 8.671(2)
_cell_length_b 18.768(3)
_cell_length_c 24.660(3)
_cell_angle_alpha 90
_cell_angle_beta 90
_cell_angle_gamma 90
_cell_formula_units_Z 8
loop_
_atom_type_symbol
_atom_type_radius_bond
C 0.68
H 0.23
N 0.68
O 0.68
loop_
_atom_site_label
_atom_site_type_symbol
_atom_site_fract_x
_atom_site_fract_y
_atom_site_fract_z
C1 C 0.1904(2) 0.38201(9) 0.61837(7)
C2 C 0.2475(2) 0.44736(10) 0.62425(8)
C3 C 0.4018(2) 0.45781(10) 0.59827(8)
C4 C 0.4499(2) 0.38015(9) 0.59011(7)
C5 C 0.2975(2) 0.33497(10) 0.58380(7)
C6 C -0.0415(2) 0.30567(11) 0.6094(1)
C7 C -0.1554(3) 0.27021(12) 0.64604(11)
C8 C -0.1525(3) 0.36551(13) 0.70612(11)
C9 C -0.0378(3) 0.40468(11) 0.67122(10)
C10 C 0.3531(3) 0.25608(10) 0.66123(8)
C11 C 0.3037(3) 0.18448(11) 0.68370(9)
C12 C 0.3154(3) 0.13459(10) 0.59781(10)
C13 C 0.3663(3) 0.20437(11) 0.57357(9)
C14 C 0.5181(2) 0.50094(9) 0.63017(8)
C15 C 0.5138(3) 0.50535(11) 0.68584(9)
C16 C 0.6235(3) 0.54362(12) 0.71449(9)
C17 C 0.7401(3) 0.57729(11) 0.68743(10)
C18 C 0.7459(3) 0.57416(12) 0.63219(10)
C19 C 0.6359(3) 0.53674(11) 0.60356(9)
C20 C 0.2449(3) 0.33622(11) 0.52436(8)
N1 N 0.0558(2) 0.35431(8) 0.64084(7)
N2 N 0.3015(2) 0.26244(7) 0.60527(6)
N3 N 0.5588(2) 0.36932(9) 0.54351(7)
O1 O -0.2485(2) 0.32018(9) 0.67444(8)
O2 O 0.3641(2) 0.12771(7) 0.65242(6)
O3 O 0.5772(2) 0.41596(9) 0.51037(7)
O4 O 0.6231(2) 0.31207(8) 0.54054(7)
H1 H 0.197(2) 0.4846(9) 0.6403(6)
H2 H 0.389(2) 0.4793(7) 0.5619(6)
H3 H 0.509(2) 0.3649(8) 0.6211(6)
H4 H -0.101(2) 0.3353(10) 0.5805(8)
H5 H 0.028(2) 0.2701(9) 0.5920(7)
H6 H -0.097(2) 0.2408(10) 0.6730(8)
H7 H -0.224(3) 0.2402(12) 0.6252(8)
H8 H -0.090(3) 0.3358(11) 0.7321(9)
H9 H -0.224(3) 0.4000(11) 0.7243(8)
H10 H 0.026(2) 0.4338(9) 0.6930(7)
H11 H -0.095(3) 0.4415(12) 0.6444(9)
H12 H 0.310(2) 0.2927(8) 0.6827(7)
H13 H 0.468(2) 0.2587(9) 0.6633(6)
H14 H 0.180(3) 0.184(1) 0.6839(8)
H15 H 0.337(2) 0.1803(9) 0.7221(7)
H16 H 0.201(2) 0.1326(10) 0.5970(8)
H17 H 0.363(2) 0.092(1) 0.5754(8)
H18 H 0.332(2) 0.2059(9) 0.5362(7)
H19 H 0.482(2) 0.2067(9) 0.5735(7)
H20 H 0.438(2) 0.4837(9) 0.7046(7)
H21 H 0.610(2) 0.5483(10) 0.7525(9)
H22 H 0.810(2) 0.6028(9) 0.7069(7)
H23 H 0.825(2) 0.5936(10) 0.6128(8)
H24 H 0.640(2) 0.5291(9) 0.5631(8)
H25 H 0.149(2) 0.310(1) 0.5211(8)
H26 H 0.226(2) 0.3854(9) 0.5124(7)
H27 H 0.317(2) 0.3104(9) 0.5011(7)
#END
