
#######################################################################
#
#                 Cambridge Crystallographic Data Centre
#                                CCDC
#
#######################################################################
#
# If this CIF has been generated from an entry in the Cambridge
# Structural Database, then it will include bibliographic, chemical,
# crystal, experimental, refinement or atomic coordinate data resulting
# from the CCDC's data processing and validation procedures.
#
#######################################################################

data_CSD_CIF_COWBIB
_audit_creation_date 2015-02-26
_audit_creation_method CSD-ConQuest-V1
_database_code_CSD COWBIB
_database_code_depnum_ccdc_archive 'CCDC 1013254'
_chemical_formula_sum 'C18 H21 N1 O4'
_chemical_formula_moiety
;
C18 H21 N1 O4
;
_journal_coden_Cambridge 1336
_journal_volume 16
_journal_year 2014
_journal_page_first 5354
_journal_name_full 'Org.Lett. '
loop_
_publ_author_name
"Xianglong Peng"
"Weiguo Wang"
"Chao Jiang"
"Di Sun"
"Zhenghu Xu"
"Chen-Ho Tung"
_chemical_name_systematic
;
Methyl 
6-methoxy-5-oxo-5,6,7,8,9,10,11,12-octahydrocycloocta[c]isoquinoline-2-carboxy
late
;
_cell_volume    790.260
_exptl_crystal_density_diffrn 1.325
_diffrn_ambient_temperature 293
#These two values have been output from a single CSD field.
_refine_ls_R_factor_gt 0.0452
_refine_ls_wR_factor_gt 0.0452
_symmetry_cell_setting triclinic
_symmetry_space_group_name_H-M 'P -1'
_symmetry_Int_Tables_number 2
loop_
_symmetry_equiv_pos_site_id
_symmetry_equiv_pos_as_xyz
1 x,y,z
2 -x,-y,-z
_cell_length_a 5.7842(15)
_cell_length_b 9.566(3)
_cell_length_c 15.111(4)
_cell_angle_alpha 98.405(4)
_cell_angle_beta 95.963(4)
_cell_angle_gamma 104.965(4)
_cell_formula_units_Z 2
loop_
_atom_type_symbol
_atom_type_radius_bond
C 0.68
H 0.23
N 0.68
O 0.68
loop_
_atom_site_label
_atom_site_type_symbol
_atom_site_fract_x
_atom_site_fract_y
_atom_site_fract_z
O1 O 1.1869(2) 0.66630(13) 0.40473(8)
O2 O 0.8513(3) 0.75109(14) 0.31261(10)
O3 O 0.0237(2) 0.25996(16) -0.03233(9)
N1 N 1.0534(3) 0.57833(15) 0.32371(10)
O4 O 0.2572(3) 0.10718(17) -0.04075(11)
C1 C 1.0872(3) 0.43823(18) 0.30148(12)
C2 C 0.7425(3) 0.38227(19) 0.18356(11)
C3 C 0.8727(3) 0.62896(19) 0.28425(13)
C4 C 0.9341(3) 0.33986(18) 0.23277(12)
C5 C 0.7152(3) 0.52452(19) 0.20781(12)
C6 C 0.5746(3) 0.2864(2) 0.11150(12)
H1 H 0.58980 0.19260 0.09280
C7 C 0.3889(3) 0.3285(2) 0.06820(12)
C8 C 0.9454(4) 0.1830(2) 0.21482(13)
H2 H 1.11090 0.18060 0.23090
H3 H 0.89720 0.14360 0.15070
C9 C 0.2212(4) 0.2195(2) -0.00665(13)
C10 C 1.2947(3) 0.4089(2) 0.35740(13)
H4 H 1.41910 0.50120 0.37860
H5 H 1.36350 0.34490 0.31890
C11 C 1.3594(4) 0.7947(2) 0.38796(15)
H6 H 1.46850 0.76470 0.35050
H7 H 1.44910 0.85190 0.44440
H8 H 1.27530 0.85280 0.35780
C12 C 1.2279(4) 0.3384(2) 0.43909(14)
H9 H 1.13900 0.39560 0.47280
H10 H 1.37640 0.34600 0.47810
C13 C 0.5276(4) 0.5666(2) 0.16241(13)
H11 H 0.51360 0.66130 0.17880
C14 C 0.7811(4) 0.0859(2) 0.26846(14)
H12 H 0.61390 0.07520 0.24460
H13 H 0.80660 -0.01120 0.25870
C15 C 1.0776(4) 0.1773(2) 0.41933(15)
H14 H 1.16350 0.12070 0.38360
H15 H 1.06910 0.14240 0.47640
C16 C 0.8204(4) 0.1436(2) 0.37011(15)
H16 H 0.76900 0.23280 0.37980
H17 H 0.71540 0.07160 0.39790
C17 C 0.3647(4) 0.4701(2) 0.09419(13)
H18 H 0.23870 0.49840 0.06530
C18 C -0.1505(4) 0.1592(3) -0.10435(16)
H19 H -0.08560 0.16040 -0.16030
H20 H -0.29710 0.18880 -0.10980
H21 H -0.18460 0.06160 -0.09080
#END
