
#######################################################################
#
#                 Cambridge Crystallographic Data Centre
#                                CCDC
#
#######################################################################
#
# If this CIF has been generated from an entry in the Cambridge
# Structural Database, then it will include bibliographic, chemical,
# crystal, experimental, refinement or atomic coordinate data resulting
# from the CCDC's data processing and validation procedures.
#
#######################################################################

data_CSD_CIF_COXMIL
_audit_creation_date 1985-09-20
_audit_creation_method CSD-ConQuest-V1
_database_code_CSD COXMIL
_database_code_depnum_ccdc_archive 'CCDC 1130529'
_chemical_formula_sum 'C9 H9 N1 O4'
_chemical_formula_moiety
;
C9 H9 N1 O4
;
_journal_coden_Cambridge 3
_journal_volume 38
_journal_year 1984
_journal_page_first 461
_journal_name_full 'Acta Chem.Scand. '
loop_
_publ_author_name
"S.Nordenson"
"J.Skramstad"
"E.Flotra"
_chemical_name_systematic
;
2-Nitro-1,3-indandiol
;
_chemical_melting_point 439.15
_cell_volume   3437.011
_exptl_crystal_colour 'brown'
_exptl_crystal_density_diffrn 1.509
_exptl_special_details
;
Melting point range 439.15-441.15K

;
_diffrn_ambient_temperature 130
_refine_special_details
;
conventional refinement

;
#These two values have been output from a single CSD field.
_refine_ls_R_factor_gt 0.0369
_refine_ls_wR_factor_gt 0.0369
_symmetry_cell_setting tetragonal
_symmetry_space_group_name_H-M 'I 41/a'
_symmetry_Int_Tables_number 88
loop_
_symmetry_equiv_pos_site_id
_symmetry_equiv_pos_as_xyz
1 x,y,z
2 1/2+x,1/2+y,1/2+z
3 3/4-y,1/4+x,1/4+z
4 1/4-y,3/4+x,3/4+z
5 1/2-x,-y,1/2+z
6 -x,1/2-y,z
7 3/4+y,3/4-x,3/4+z
8 1/4+y,1/4-x,1/4+z
9 -x,-y,-z
10 -1/2-x,-1/2-y,-1/2-z
11 -3/4+y,-1/4-x,-1/4-z
12 -1/4+y,-3/4-x,-3/4-z
13 -1/2+x,y,-1/2-z
14 x,-1/2+y,-z
15 -3/4-y,-3/4+x,-3/4-z
16 -1/4-y,-1/4+x,-1/4-z
_cell_length_a 19.8402(9)
_cell_length_b 19.8402(9)
_cell_length_c 8.7315(4)
_cell_angle_alpha 90
_cell_angle_beta 90
_cell_angle_gamma 90
_cell_formula_units_Z 16
loop_
_atom_type_symbol
_atom_type_radius_bond
C 0.68
H 0.23
N 0.68
O 0.68
loop_
_atom_site_label
_atom_site_type_symbol
_atom_site_fract_x
_atom_site_fract_y
_atom_site_fract_z
C1 C 0.12254(3) 0.52058(3) 0.67525(7)
C2 C 0.11014(3) 0.56658(3) 0.81582(7)
C3 C 0.03847(3) 0.59450(3) 0.79660(8)
C4 C 0.03188(3) 0.59687(3) 0.62448(8)
C5 C -0.01531(3) 0.63161(4) 0.53756(8)
C6 C -0.01412(4) 0.62304(4) 0.37889(9)
C7 C 0.03294(4) 0.58039(4) 0.31037(8)
C8 C 0.08029(4) 0.54544(4) 0.39789(8)
C9 C 0.07914(3) 0.55432(3) 0.55598(8)
N1 N 0.11723(3) 0.52991(3) 0.96481(7)
O1 O 0.19120(2) 0.51749(3) 0.62964(6)
O2 O 0.03279(3) 0.65728(3) 0.87528(7)
O3 O 0.15885(3) 0.55039(4) 1.05714(7)
O4 O 0.08009(3) 0.48123(3) 0.98641(7)
H1 H 0.1073(5) 0.4744(5) 0.6959(11)
H2 H 0.1412(5) 0.6024(5) 0.8185(10)
H3 H 0.0056(5) 0.5647(5) 0.8371(11)
H4 H -0.0469(5) 0.6602(5) 0.5867(12)
H5 H -0.0434(5) 0.6467(5) 0.3153(12)
H6 H 0.0323(5) 0.5748(5) 0.1984(13)
H7 H 0.1122(5) 0.5172(5) 0.3494(13)
H8 H 0.2132(7) 0.4921(7) 0.6883(15)
H9 H -0.0070(8) 0.6703(7) 0.8809(17)
#END
