
#######################################################################
#
#                 Cambridge Crystallographic Data Centre
#                                CCDC
#
#######################################################################
#
# If this CIF has been generated from an entry in the Cambridge
# Structural Database, then it will include bibliographic, chemical,
# crystal, experimental, refinement or atomic coordinate data resulting
# from the CCDC's data processing and validation procedures.
#
#######################################################################

data_CSD_CIF_COXMIL01
_audit_creation_date 1985-09-20
_audit_creation_method CSD-ConQuest-V1
_database_code_CSD COXMIL01
_database_code_depnum_ccdc_archive 'CCDC 1130530'
_chemical_formula_sum 'C9 H9 N1 O4'
_chemical_formula_moiety
;
C9 H9 N1 O4
;
_journal_coden_Cambridge 3
_journal_volume 38
_journal_year 1984
_journal_page_first 461
_journal_name_full 'Acta Chem.Scand. '
loop_
_publ_author_name
"S.Nordenson"
"J.Skramstad"
"E.Flotra"
_chemical_name_systematic
;
2-Nitro-1,3-indandiol
;
_chemical_melting_point 439.15
_cell_volume   3437.011
_exptl_crystal_colour 'brown'
_exptl_crystal_density_diffrn 1.509
_exptl_special_details
;
Melting point range 439.15-441.15K

;
_diffrn_ambient_temperature 130
_refine_special_details
;
high-angle refinement

;
#These two values have been output from a single CSD field.
_refine_ls_R_factor_gt 0.0298
_refine_ls_wR_factor_gt 0.0298
_symmetry_cell_setting tetragonal
_symmetry_space_group_name_H-M 'I 41/a'
_symmetry_Int_Tables_number 88
loop_
_symmetry_equiv_pos_site_id
_symmetry_equiv_pos_as_xyz
1 x,y,z
2 1/2+x,1/2+y,1/2+z
3 3/4-y,1/4+x,1/4+z
4 1/4-y,3/4+x,3/4+z
5 1/2-x,-y,1/2+z
6 -x,1/2-y,z
7 3/4+y,3/4-x,3/4+z
8 1/4+y,1/4-x,1/4+z
9 -x,-y,-z
10 -1/2-x,-1/2-y,-1/2-z
11 -3/4+y,-1/4-x,-1/4-z
12 -1/4+y,-3/4-x,-3/4-z
13 -1/2+x,y,-1/2-z
14 x,-1/2+y,-z
15 -3/4-y,-3/4+x,-3/4-z
16 -1/4-y,-1/4+x,-1/4-z
_cell_length_a 19.8402(9)
_cell_length_b 19.8402(9)
_cell_length_c 8.7315(4)
_cell_angle_alpha 90
_cell_angle_beta 90
_cell_angle_gamma 90
_cell_formula_units_Z 16
loop_
_atom_type_symbol
_atom_type_radius_bond
C 0.68
N 0.68
O 0.68
loop_
_atom_site_label
_atom_site_type_symbol
_atom_site_fract_x
_atom_site_fract_y
_atom_site_fract_z
C1 C 0.12271(2) 0.52055(2) 0.67534(5)
C2 C 0.11016(2) 0.56652(2) 0.81611(5)
C3 C 0.03852(2) 0.59458(2) 0.79688(5)
C4 C 0.03192(2) 0.59681(2) 0.62454(6)
C5 C -0.01544(2) 0.63171(3) 0.53762(7)
C6 C -0.01425(3) 0.62313(3) 0.37886(7)
C7 C 0.03300(3) 0.58038(3) 0.30998(6)
C8 C 0.08035(3) 0.54531(3) 0.39787(6)
C9 C 0.07912(2) 0.55430(2) 0.55607(5)
N1 N 0.11729(2) 0.53004(3) 0.96495(5)
O1 O 0.19115(2) 0.51735(2) 0.62995(5)
O2 O 0.03276(2) 0.65726(2) 0.87506(6)
O3 O 0.15904(4) 0.55036(4) 1.05732(7)
O4 O 0.08014(3) 0.48140(3) 0.98680(8)
#END
