
#######################################################################
#
#                 Cambridge Crystallographic Data Centre
#                                CCDC
#
#######################################################################
#
# If this CIF has been generated from an entry in the Cambridge
# Structural Database, then it will include bibliographic, chemical,
# crystal, experimental, refinement or atomic coordinate data resulting
# from the CCDC's data processing and validation procedures.
#
#######################################################################

data_CSD_CIF_COXVAN
_audit_creation_date 2009-11-04
_audit_creation_method CSD-ConQuest-V1
_database_code_CSD COXVAN
_database_code_depnum_ccdc_archive 'CCDC 713921'
_chemical_formula_sum 'C24 H26 N4 O2'
_chemical_formula_moiety
;
C24 H26 N4 O2
;
_journal_coden_Cambridge 580
_journal_volume 28
_journal_year 2009
_journal_page_first 1386
_journal_name_full 'Polyhedron '
loop_
_publ_author_name
"Feng-Shou Liu"
"Hai-Yang Gao"
"Ke-Ming Song"
"Ling Zhang"
"Fang-Ming Zhu"
"Qing Wu"
_chemical_name_systematic
;
N'-(2,6-Di-isopropylphenyl)-N-(5-nitro-2-pyridinyl)benzenecarboximidamide
;
_chemical_melting_point 413.15
_cell_volume   1089.370
_exptl_crystal_density_diffrn 1.224
_exptl_crystal_preparation 'ethanol'
_diffrn_ambient_temperature 297
#These two values have been output from a single CSD field.
_refine_ls_R_factor_gt 0.0449
_refine_ls_wR_factor_gt 0.0449
_symmetry_cell_setting triclinic
_symmetry_space_group_name_H-M 'P -1'
_symmetry_Int_Tables_number 2
loop_
_symmetry_equiv_pos_site_id
_symmetry_equiv_pos_as_xyz
1 x,y,z
2 -x,-y,-z
_cell_length_a 8.2857(15)
_cell_length_b 11.834(2)
_cell_length_c 12.549(2)
_cell_angle_alpha 110.520(3)
_cell_angle_beta 107.437(3)
_cell_angle_gamma 90.894(3)
_cell_formula_units_Z 2
loop_
_atom_type_symbol
_atom_type_radius_bond
C 0.68
H 0.23
N 0.68
O 0.68
loop_
_atom_site_label
_atom_site_type_symbol
_atom_site_fract_x
_atom_site_fract_y
_atom_site_fract_z
C1 C 0.3339(2) 0.03280(15) 0.65849(15)
C2 C 0.3423(2) 0.07232(15) 0.77711(16)
H1 H 0.28300 0.13590 0.80580
C3 C 0.5191(2) -0.06846(15) 0.81000(15)
C4 C 0.5173(2) -0.11138(16) 0.69041(15)
H2 H 0.57830 -0.17440 0.66300
C5 C 0.4248(3) -0.05916(17) 0.61489(16)
H3 H 0.42290 -0.08500 0.53540
C6 C 0.7005(2) -0.21178(15) 0.87770(15)
C7 C 0.8330(2) -0.20825(15) 0.98977(15)
C8 C 0.8639(3) -0.31305(17) 1.01423(17)
H4 H 0.79890 -0.38720 0.96110
C9 C 0.9909(3) -0.30741(19) 1.11736(18)
H5 H 1.01080 -0.37780 1.13360
C10 C 1.0881(3) -0.1981(2) 1.19617(18)
H6 H 1.17320 -0.19490 1.26550
C11 C 1.0601(3) -0.09345(19) 1.17298(17)
H7 H 1.12700 -0.01990 1.22600
C12 C 0.9319(2) -0.09796(16) 1.07047(15)
H8 H 0.91180 -0.02710 1.05540
C13 C 0.7553(2) -0.39307(15) 0.73877(14)
C14 C 0.6624(2) -0.51015(15) 0.68992(15)
C15 C 0.7406(3) -0.60895(16) 0.64000(16)
H9 H 0.68080 -0.68690 0.60780
C16 C 0.9041(3) -0.59462(17) 0.63684(17)
H10 H 0.95380 -0.66190 0.60260
C17 C 0.9929(2) -0.47925(16) 0.68516(17)
H11 H 1.10350 -0.46970 0.68330
C18 C 0.9226(2) -0.37658(15) 0.73659(15)
C19 C 1.0277(2) -0.25233(16) 0.78281(16)
H12 H 0.96080 -0.19080 0.81720
C20 C 1.0624(3) -0.22587(19) 0.68045(18)
H13 H 0.95610 -0.23280 0.61920
H14 H 1.13130 -0.28330 0.64690
H15 H 1.12150 -0.14480 0.71090
C21 C 1.1949(3) -0.24125(19) 0.88260(18)
H16 H 1.17030 -0.25730 0.94640
H17 H 1.25470 -0.16040 0.91340
H18 H 1.26460 -0.29910 0.85060
C22 C 0.4820(2) -0.52960(17) 0.69117(17)
H19 H 0.44390 -0.44940 0.71690
C23 C 0.3598(3) -0.6045(2) 0.5681(2)
H20 H 0.36290 -0.56590 0.51280
H21 H 0.24630 -0.61080 0.57200
H22 H 0.39250 -0.68440 0.54100
C24 C 0.4738(4) -0.5871(4) 0.7805(2)
H23 H 0.35780 -0.59800 0.77870
H24 H 0.54370 -0.53490 0.85990
H25 H 0.51470 -0.66470 0.75930
N1 N 0.2282(2) 0.08632(14) 0.57831(14)
N2 N 0.43247(19) 0.02281(13) 0.85257(13)
N3 N 0.61158(18) -0.11155(12) 0.89469(12)
H26 H 0.61510 -0.07160 0.96750
N4 N 0.66406(18) -0.29361(12) 0.77242(12)
O1 O 0.2408(2) 0.05938(15) 0.47792(13)
O2 O 0.1331(2) 0.15629(15) 0.61481(14)
#END
