
#######################################################################
#
#                 Cambridge Crystallographic Data Centre
#                                CCDC
#
#######################################################################
#
# If this CIF has been generated from an entry in the Cambridge
# Structural Database, then it will include bibliographic, chemical,
# crystal, experimental, refinement or atomic coordinate data resulting
# from the CCDC's data processing and validation procedures.
#
#######################################################################

data_CSD_CIF_COXXOD
_audit_creation_date 2009-11-04
_audit_creation_method CSD-ConQuest-V1
_database_code_CSD COXXOD
_database_code_depnum_ccdc_archive 'CCDC 704402'
_chemical_formula_sum 'C3 H2 N6 O2'
_chemical_formula_moiety
;
C3 H2 N6 O2
;
_journal_coden_Cambridge 1145
_journal_volume 19
_journal_year 2009
_journal_page_first 2240
_journal_name_full 'J.Mater.Chem. '
loop_
_publ_author_name
"T.M.Klapotke"
"C.M.Sabate"
"M.Rasp"
_chemical_name_systematic
;
(5-Nitro-2H-tetrazol-2-yl)acetonitrile
;
_chemical_melting_point 391.15
_cell_volume    585.933
_exptl_crystal_colour 'colorless'
_exptl_crystal_density_diffrn 1.747
_exptl_crystal_description 'block'
_exptl_crystal_preparation 'ethanol'
_diffrn_ambient_temperature 100
#These two values have been output from a single CSD field.
_refine_ls_R_factor_gt 0.0255
_refine_ls_wR_factor_gt 0.0255
_symmetry_cell_setting orthorhombic
_symmetry_space_group_name_H-M 'P 21 21 21'
_symmetry_Int_Tables_number 19
loop_
_symmetry_equiv_pos_site_id
_symmetry_equiv_pos_as_xyz
1 x,y,z
2 1/2-x,-y,1/2+z
3 1/2+x,1/2-y,-z
4 -x,1/2+y,1/2-z
_cell_length_a 5.4521(3)
_cell_length_b 6.1470(3)
_cell_length_c 17.4832(9)
_cell_angle_alpha 90
_cell_angle_beta 90
_cell_angle_gamma 90
_cell_formula_units_Z 4
loop_
_atom_type_symbol
_atom_type_radius_bond
C 0.68
H 0.23
N 0.68
O 0.68
loop_
_atom_site_label
_atom_site_type_symbol
_atom_site_fract_x
_atom_site_fract_y
_atom_site_fract_z
O1 O -0.0748(2) 0.04824(19) 0.34568(6)
O2 O 0.2311(2) -0.13448(19) 0.39350(6)
N1 N 0.1358(2) 0.0344(2) 0.20515(7)
N2 N 0.3019(2) -0.02001(19) 0.15331(7)
N3 N 0.1214(2) -0.0466(2) 0.34082(7)
N4 N 0.4455(2) -0.1631(2) 0.25364(7)
N5 N 0.4883(2) -0.1377(2) 0.17999(7)
N6 N -0.1314(3) -0.0745(2) 0.01441(8)
C1 C 0.2869(3) 0.0470(3) 0.07310(8)
C2 C 0.0524(3) -0.0251(3) 0.03997(8)
C3 C 0.2341(3) -0.0586(2) 0.26587(8)
H1 H 0.426(3) -0.020(3) 0.0466(9)
H2 H 0.296(4) 0.211(3) 0.0706(11)
#END
