
#######################################################################
#
#                 Cambridge Crystallographic Data Centre
#                                CCDC
#
#######################################################################
#
# If this CIF has been generated from an entry in the Cambridge
# Structural Database, then it will include bibliographic, chemical,
# crystal, experimental, refinement or atomic coordinate data resulting
# from the CCDC's data processing and validation procedures.
#
#######################################################################

data_CSD_CIF_COXXUK
_audit_creation_date 2015-02-26
_audit_creation_method CSD-ConQuest-V1
_database_code_CSD COXXUK
_database_code_depnum_ccdc_archive 'CCDC 995486'
_chemical_formula_sum 'C13 H16 N2 O6'
_chemical_formula_moiety
;
C13 H16 N2 O6
;
_journal_coden_Cambridge 1366
_journal_volume 356
_journal_year 2014
_journal_page_first 3627
_journal_name_full 'Adv.Synth.Catal. '
loop_
_publ_author_name
"J.I.Martinez"
"L.Villar"
"Uxue Uria"
"L.Carrillo"
"E.Reyes"
"J.L.Vicario"
_chemical_name_systematic
;
(2R,3R)-ethyl 2-methyl-2,4-dinitro-3-phenylbutanoate
;
_cell_volume   1429.686
_exptl_crystal_colour 'colorless'
_exptl_crystal_density_diffrn 1.376
_exptl_special_details
;
Absolute configuration

;
_exptl_crystal_description 'needle'
_diffrn_ambient_temperature 100
#These two values have been output from a single CSD field.
_refine_ls_R_factor_gt 0.0254
_refine_ls_wR_factor_gt 0.0254
_symmetry_cell_setting orthorhombic
_symmetry_space_group_name_H-M 'P 21 21 21'
_symmetry_Int_Tables_number 19
loop_
_symmetry_equiv_pos_site_id
_symmetry_equiv_pos_as_xyz
1 x,y,z
2 1/2-x,-y,1/2+z
3 1/2+x,1/2-y,-z
4 -x,1/2+y,1/2-z
_cell_length_a 6.1133(2)
_cell_length_b 10.5281(4)
_cell_length_c 22.2134(6)
_cell_angle_alpha 90
_cell_angle_beta 90
_cell_angle_gamma 90
_cell_formula_units_Z 4
loop_
_atom_type_symbol
_atom_type_radius_bond
C 0.68
H 0.23
N 0.68
O 0.68
loop_
_atom_site_label
_atom_site_type_symbol
_atom_site_fract_x
_atom_site_fract_y
_atom_site_fract_z
C1 C 0.2817(2) 0.19218(11) 0.21380(5)
C2 C 0.31024(19) 0.26931(11) 0.27216(5)
C3 C 0.20242(19) 0.20254(11) 0.32721(5)
H1 H 0.04250 0.19750 0.31800
C4 C 0.2791(2) 0.06525(11) 0.33682(5)
H2 H 0.27620 0.01870 0.29810
H3 H 0.43110 0.06470 0.35220
C5 C 0.2113(2) 0.39991(11) 0.26094(5)
H4 H 0.23850 0.45460 0.29590
H5 H 0.05330 0.39150 0.25460
H6 H 0.27840 0.43770 0.22510
C6 C 0.2225(2) 0.28252(11) 0.38417(5)
C7 C 0.0501(2) 0.36175(12) 0.40078(5)
H7 H -0.07910 0.36380 0.37700
C8 C 0.0655(2) 0.43791(12) 0.45183(5)
H8 H -0.05300 0.49150 0.46270
C9 C 0.2535(2) 0.43570(12) 0.48678(5)
H9 H 0.26460 0.48840 0.52140
C10 C 0.4249(2) 0.35634(13) 0.47107(5)
H10 H 0.55300 0.35390 0.49520
C11 C 0.4104(2) 0.27998(12) 0.41999(5)
H11 H 0.52890 0.22590 0.40950
C12 C 0.4465(3) 0.14382(13) 0.11890(5)
H12 H 0.36410 0.06330 0.12280
H13 H 0.59740 0.12300 0.10600
C13 C 0.3401(3) 0.22578(14) 0.07245(6)
H14 H 0.34640 0.18330 0.03320
H15 H 0.41700 0.30730 0.07010
H16 H 0.18700 0.24050 0.08350
N1 N 0.55527(17) 0.28236(9) 0.28391(4)
N2 N 0.1296(2) 0.00149(10) 0.38146(4)
O1 O 0.45291(16) 0.20873(9) 0.17743(4)
O2 O 0.11956(16) 0.13319(9) 0.20316(4)
O3 O 0.65829(15) 0.18474(8) 0.29231(4)
O4 O 0.63622(15) 0.38877(8) 0.28595(4)
O5 O -0.06729(17) 0.01149(10) 0.37398(4)
O6 O 0.2140(2) -0.05691(12) 0.42274(5)
#END
