
#######################################################################
#
#                 Cambridge Crystallographic Data Centre
#                                CCDC
#
#######################################################################
#
# If this CIF has been generated from an entry in the Cambridge
# Structural Database, then it will include bibliographic, chemical,
# crystal, experimental, refinement or atomic coordinate data resulting
# from the CCDC's data processing and validation procedures.
#
#######################################################################

data_CSD_CIF_COXXIW
_audit_creation_date 1985-09-20
_audit_creation_method CSD-ConQuest-V1
_database_code_CSD COXXIW
_database_code_depnum_ccdc_archive 'CCDC 1130574'
_chemical_formula_sum 'C9 H12 N2 O4'
_chemical_formula_moiety
;
C9 H12 N2 O4
;
_journal_coden_Cambridge 587
_journal_volume 5
_journal_year 1984
_journal_page_first 158
_journal_name_full 'Bull.Korean Chem.Soc. '
loop_
_publ_author_name
"W.Shin"
"M.Pyo"
_chemical_name_systematic
;
D-(-)-threo-2-Amino-1-p-nitrophenyl-1,3-propanediol
;
_chemical_name_common
;
Chloramphenicol base
;
_cell_volume    972.343
_exptl_crystal_density_diffrn 1.45
_exptl_special_details
;
antibiotic activity

;
_diffrn_ambient_temperature ?
_diffrn_special_details
;
The study was carried out at room temperature,in the range 283-303K

;
#These two values have been output from a single CSD field.
_refine_ls_R_factor_gt 0.051
_refine_ls_wR_factor_gt 0.051
_symmetry_cell_setting orthorhombic
_symmetry_space_group_name_H-M 'P 21 21 21'
_symmetry_Int_Tables_number 19
loop_
_symmetry_equiv_pos_site_id
_symmetry_equiv_pos_as_xyz
1 x,y,z
2 1/2+x,1/2-y,-z
3 -x,1/2+y,1/2-z
4 1/2-x,-y,1/2+z
_cell_length_a 22.322(6)
_cell_length_b 7.535(6)
_cell_length_c 5.781(5)
_cell_angle_alpha 90
_cell_angle_beta 90
_cell_angle_gamma 90
_cell_formula_units_Z 4
loop_
_atom_type_symbol
_atom_type_radius_bond
C 0.68
H 0.23
N 0.68
O 0.68
loop_
_atom_site_label
_atom_site_type_symbol
_atom_site_fract_x
_atom_site_fract_y
_atom_site_fract_z
C1 C 0.2306(2) 0.2498(7) -0.0796(9)
C2 C 0.2677(2) 0.3384(7) -0.229(1)
C3 C 0.3262(2) 0.3699(8) -0.1648(10)
C4 C 0.3479(2) 0.3074(7) 0.0486(8)
C5 C 0.3081(2) 0.2218(8) 0.1938(10)
C6 C 0.2494(2) 0.1929(7) 0.1339(11)
N1 N 0.1677(2) 0.2158(7) -0.1487(12)
O1 O 0.1537(2) 0.2420(7) -0.3497(8)
O2 O 0.1330(2) 0.1567(7) -0.0055(9)
C7 C 0.4129(2) 0.3307(8) 0.1117(10)
O3 O 0.4168(2) 0.3898(6) 0.3487(6)
C8 C 0.4480(2) 0.1563(8) 0.0868(10)
N2 N 0.5115(2) 0.1795(7) 0.1471(10)
C9 C 0.4423(3) 0.0740(8) -0.1480(11)
O4 O 0.4732(2) 0.1746(6) -0.3202(7)
H1 H 0.256(3) 0.371(8) -0.348(12)
H2 H 0.431(2) 0.484(7) 0.370(12)
H3 H 0.353(2) 0.429(7) -0.284(10)
H4 H 0.454(3) 0.249(9) -0.390(13)
H5 H 0.323(3) 0.196(8) 0.301(10)
H6 H 0.398(2) 0.048(7) -0.165(11)
H7 H 0.220(3) 0.130(8) 0.264(10)
H8 H 0.463(3) -0.046(7) -0.137(12)
H9 H 0.438(3) 0.414(8) 0.031(12)
H10 H 0.518(3) 0.249(8) 0.326(12)
H11 H 0.433(3) 0.077(8) 0.204(10)
H12 H 0.533(3) 0.201(9) 0.038(12)
#END
