
#######################################################################
#
#                 Cambridge Crystallographic Data Centre
#                                CCDC
#
#######################################################################
#
# If this CIF has been generated from an entry in the Cambridge
# Structural Database, then it will include bibliographic, chemical,
# crystal, experimental, refinement or atomic coordinate data resulting
# from the CCDC's data processing and validation procedures.
#
#######################################################################

data_CSD_CIF_COYPOW
_audit_creation_date 2009-11-04
_audit_creation_method CSD-ConQuest-V1
_database_code_CSD COYPOW
_database_code_depnum_ccdc_archive 'CCDC 680018'
_chemical_formula_sum 'C45 H51 N5 O2'
_chemical_formula_moiety
;
C45 H51 N5 O2
;
_journal_coden_Cambridge 467
_journal_volume 351
_journal_year 2008
_journal_page_first 36
_journal_name_full 'Appl.Catal.,A '
loop_
_publ_author_name
"B.K.Bahuleyan"
"Uk Lee"
"Chang-Sik Ha"
"Il Kim"
_chemical_name_systematic
;
4-((4-((6-Methylpyridin-2-yl)methyleneamino)-3,5-di-isopropylphenyl)(4-nitroph
enyl)methyl)-2,6-di-isopropyl-N-((6-methylpyridin-2-yl)methylene)benzenamine
;
_chemical_name_common
;
4,4'-((4-Nitrophenyl)methylene)bis(2,6-di-isopropyl-N-((6-methyl-2-pyridinyl)m
ethylene)aniline)
;
_cell_volume   2066.184
_exptl_crystal_colour 'yellow'
_exptl_crystal_density_diffrn 1.115
_exptl_crystal_description 'block'
_diffrn_ambient_temperature 298
#These two values have been output from a single CSD field.
_refine_ls_R_factor_gt 0.0983
_refine_ls_wR_factor_gt 0.0983
_symmetry_cell_setting triclinic
_symmetry_space_group_name_H-M 'P -1'
_symmetry_Int_Tables_number 2
loop_
_symmetry_equiv_pos_site_id
_symmetry_equiv_pos_as_xyz
1 x,y,z
2 -x,-y,-z
_cell_length_a 10.3608(9)
_cell_length_b 13.895(1)
_cell_length_c 15.248(3)
_cell_angle_alpha 85.96(1)
_cell_angle_beta 70.676(9)
_cell_angle_gamma 88.010(7)
_cell_formula_units_Z 2
loop_
_atom_type_symbol
_atom_type_radius_bond
C 0.68
H 0.23
N 0.68
O 0.68
loop_
_atom_site_label
_atom_site_type_symbol
_atom_site_fract_x
_atom_site_fract_y
_atom_site_fract_z
O1 O -0.2440(5) 0.7872(4) 0.6033(4)
O2 O -0.1884(6) 0.6772(4) 0.6904(4)
N1 N -0.1718(5) 0.7206(4) 0.6148(4)
N2 N 0.7389(4) 0.8608(3) 0.3192(3)
N3 N 0.9418(5) 1.0357(3) 0.1570(4)
N4 N 0.2588(4) 0.6649(3) -0.0603(3)
N5 N 0.4489(5) 0.6290(3) -0.2952(3)
C1 C -0.0572(5) 0.6898(4) 0.5335(4)
C2 C 0.0342(6) 0.6221(4) 0.5482(4)
H1 H 0.02100 0.59250 0.60700
C3 C 0.1467(6) 0.5988(4) 0.4728(4)
H2 H 0.20960 0.55330 0.48210
C4 C 0.1685(5) 0.6409(3) 0.3845(3)
C5 C 0.0701(5) 0.7057(4) 0.3724(4)
H3 H 0.07950 0.73240 0.31300
C6 C -0.0428(5) 0.7317(4) 0.4472(4)
H4 H -0.10680 0.77660 0.43850
C7 C 0.3028(5) 0.6220(3) 0.3071(3)
H5 H 0.32860 0.55460 0.31720
C8 C 0.4168(5) 0.6844(3) 0.3159(3)
C9 C 0.5498(5) 0.6487(3) 0.2912(3)
H6 H 0.56770 0.58570 0.27290
C10 C 0.6575(4) 0.7053(3) 0.2931(3)
C11 C 0.8037(5) 0.6665(4) 0.2647(4)
H7 H 0.85340 0.70620 0.29320
C12 C 0.8164(6) 0.5632(4) 0.3003(4)
H8 H 0.76630 0.52170 0.27570
H9 H 0.78000 0.55860 0.36710
H10 H 0.91100 0.54390 0.28060
C13 C 0.8745(7) 0.6784(5) 0.1612(5)
H11 H 0.87520 0.74550 0.14110
H12 H 0.82680 0.64270 0.13010
H13 H 0.96690 0.65460 0.14640
C14 C 0.6286(5) 0.8006(3) 0.3182(3)
C15 C 0.4956(5) 0.8388(3) 0.3446(3)
C16 C 0.4630(5) 0.9427(4) 0.3719(4)
H14 H 0.54180 0.96660 0.38550
C17 C 0.4459(8) 1.0065(5) 0.2909(5)
H15 H 0.37200 0.98310 0.27380
H16 H 0.52890 1.00510 0.23870
H17 H 0.42600 1.07160 0.30920
C18 C 0.3390(7) 0.9526(5) 0.4579(5)
H18 H 0.35320 0.91520 0.50940
H19 H 0.25980 0.92960 0.44680
H20 H 0.32540 1.01920 0.47210
C19 C 0.3912(5) 0.7779(3) 0.3435(3)
H21 H 0.30160 0.80120 0.36190
C20 C 0.7899(5) 0.9179(4) 0.2496(4)
H22 H 0.75550 0.91690 0.20050
C21 C 0.8999(5) 0.9862(4) 0.2397(4)
C22 C 0.9541(6) 0.9963(4) 0.3104(5)
H23 H 0.92200 0.96030 0.36690
C23 C 1.0586(7) 1.0626(5) 0.2928(7)
H24 H 1.09860 1.07230 0.33780
C24 C 1.1018(7) 1.1139(5) 0.2073(7)
H25 H 1.17090 1.15890 0.19480
C25 C 1.0432(8) 1.0986(5) 0.1401(6)
C26 C 1.0873(9) 1.1506(6) 0.0449(6)
H26 H 1.10650 1.10430 -0.00180
H27 H 1.16810 1.18700 0.03650
H28 H 1.01530 1.19350 0.03950
C27 C 0.2934(5) 0.6328(3) 0.2095(3)
C28 C 0.2593(5) 0.5535(3) 0.1691(3)
H29 H 0.24260 0.49440 0.20320
C29 C 0.2499(5) 0.5606(3) 0.0802(3)
C30 C 0.2164(5) 0.4725(3) 0.0384(4)
H30 H 0.20140 0.49500 -0.01990
C31 C 0.0857(6) 0.4244(5) 0.1004(4)
H31 H 0.01110 0.46990 0.11120
H32 H 0.09610 0.40220 0.15880
H33 H 0.06710 0.37050 0.07050
C32 C 0.3326(7) 0.4017(5) 0.0142(6)
H34 H 0.35210 0.37950 0.06960
H35 H 0.41200 0.43220 -0.02940
H36 H 0.30830 0.34790 -0.01300
C33 C 0.2749(5) 0.6501(3) 0.0292(3)
C34 C 0.3073(5) 0.7318(3) 0.0679(3)
C35 C 0.3342(7) 0.8288(4) 0.0121(4)
H37 H 0.29530 0.82620 -0.03810
C36 C 0.4829(9) 0.8459(6) -0.0320(7)
H38 H 0.52350 0.79480 -0.07200
H39 H 0.52480 0.84750 0.01540
H40 H 0.49660 0.90640 -0.06810
C37 C 0.2672(11) 0.9115(6) 0.0679(7)
H41 H 0.30250 0.91590 0.11830
H42 H 0.17020 0.90170 0.09250
H43 H 0.28580 0.97010 0.02890
C38 C 0.3168(5) 0.7201(3) 0.1556(3)
H44 H 0.34010 0.77330 0.18070
C39 C 0.3537(6) 0.6419(4) -0.1321(4)
H45 H 0.43090 0.61010 -0.12570
C40 C 0.3454(5) 0.6641(4) -0.2258(3)
C41 C 0.4499(6) 0.6506(4) -0.3823(4)
C42 C 0.5684(7) 0.6123(6) -0.4593(5)
H46 H 0.61380 0.66500 -0.50100
H47 H 0.53550 0.56840 -0.49280
H48 H 0.63150 0.57920 -0.43340
C43 C 0.3471(8) 0.7051(5) -0.4012(5)
H49 H 0.35010 0.71880 -0.46250
C44 C 0.2418(8) 0.7385(6) -0.3300(5)
H50 H 0.17210 0.77530 -0.34190
C45 C 0.2392(7) 0.7176(5) -0.2400(4)
H51 H 0.16740 0.73910 -0.19010
#END
