
#######################################################################
#
#                 Cambridge Crystallographic Data Centre
#                                CCDC
#
#######################################################################
#
# If this CIF has been generated from an entry in the Cambridge
# Structural Database, then it will include bibliographic, chemical,
# crystal, experimental, refinement or atomic coordinate data resulting
# from the CCDC's data processing and validation procedures.
#
#######################################################################

data_CSD_CIF_COZKIM
_audit_creation_date 2009-11-04
_audit_creation_method CSD-ConQuest-V1
_database_code_CSD COZKIM
_database_code_depnum_ccdc_archive 'CCDC 280242'
_chemical_formula_sum 'C35 H37 N3 O6'
_chemical_formula_moiety
;
C35 H37 N3 O6
;
_journal_coden_Cambridge 1050
_journal_volume 35
_journal_year 2008
_journal_page_first 895
_journal_name_full 'Liquid Crystals '
loop_
_publ_author_name
"P.Das"
"A.N.Biswas"
"S.Acharya"
"A.Choudhury"
"P.Bandyopadhyay"
"P.K.Mandal"
_chemical_name_systematic
;
4-((4-(Nonyloxy)benzoyl)oxy)phenyl 
4-(3-hydroxy-3-phenyl-3\l^5^-2-triazen-1-yl)benzoate
;
_cell_volume   1588.128
_exptl_crystal_colour 'pale yellow'
_exptl_crystal_density_diffrn 1.246
_exptl_crystal_description 'needle'
_diffrn_ambient_temperature 293
_refine_special_details
;
Two carbon atoms of a phenyl ring are disordered over two sites with 
occupancies of 0.59:0.41 and 0.54:0.46.
;
#These two values have been output from a single CSD field.
_refine_ls_R_factor_gt 0.1507
_refine_ls_wR_factor_gt 0.1507
_symmetry_cell_setting triclinic
_symmetry_space_group_name_H-M 'P -1'
_symmetry_Int_Tables_number 2
loop_
_symmetry_equiv_pos_site_id
_symmetry_equiv_pos_as_xyz
1 x,y,z
2 -x,-y,-z
_cell_length_a 5.752(2)
_cell_length_b 12.189(5)
_cell_length_c 23.057(9)
_cell_angle_alpha 80.676(7)
_cell_angle_beta 88.531(7)
_cell_angle_gamma 84.640(7)
_cell_formula_units_Z 2
loop_
_atom_type_symbol
_atom_type_radius_bond
C 0.68
H 0.23
N 0.68
O 0.68
loop_
_atom_site_label
_atom_site_type_symbol
_atom_site_fract_x
_atom_site_fract_y
_atom_site_fract_z
C1 C 0.5069(10) -0.1483(5) 0.4438(2)
C2 C 0.3051(9) -0.1183(5) 0.4129(2)
H1 H 0.26400 -0.04350 0.39810
C3 C 0.1633(10) -0.1977(6) 0.4034(3)
H2 H 0.03190 -0.17520 0.38030
C4 C 0.202(6) -0.301(2) 0.4249(10)
H3 H 0.10850 -0.35530 0.41710
C5 C 0.4530(12) -0.3476(5) 0.4500(3)
H4 H 0.51160 -0.42210 0.45800
C6 C 0.5732(12) -0.2604(5) 0.4654(3)
H5 H 0.71840 -0.28750 0.48130
N1 N 0.6598(8) -0.0667(4) 0.4544(2)
O1 O 0.8052(7) -0.0896(3) 0.49592(17)
N2 N 0.6373(8) 0.0243(3) 0.41864(19)
N3 N 0.7815(8) 0.0954(3) 0.43076(19)
H6 H 0.88640 0.07520 0.45720
C7 C 0.7601(10) 0.2042(5) 0.3997(2)
C8 C 0.9285(10) 0.2762(5) 0.4062(3)
H7 H 1.05610 0.25130 0.43030
C9 C 0.9062(10) 0.3832(4) 0.3772(3)
H8 H 1.02040 0.43030 0.38170
C10 C 0.7184(9) 0.4238(4) 0.3413(2)
C11 C 0.5559(10) 0.3499(5) 0.3361(3)
H9 H 0.42840 0.37470 0.31190
C12 C 0.5717(11) 0.2431(5) 0.3643(3)
H10 H 0.45640 0.19660 0.35980
C13 C 0.6858(10) 0.5377(5) 0.3075(3)
O2 O 0.5260(7) 0.5722(3) 0.27613(19)
O3 O 0.8611(6) 0.5987(3) 0.31806(17)
C14 C 0.8470(9) 0.7126(4) 0.2921(2)
C15 C 1.0363(9) 0.7490(4) 0.2616(2)
H11 H 1.16150 0.69830 0.25500
C16 C 1.0447(9) 0.8612(5) 0.2401(3)
H12 H 1.17520 0.88720 0.21960
C17 C 0.8545(10) 0.9333(5) 0.2498(3)
C18 C 0.6637(9) 0.8972(4) 0.2804(3)
H13 H 0.53780 0.94770 0.28680
C19 C 0.6581(10) 0.7841(4) 0.3021(2)
H14 H 0.52860 0.75780 0.32300
O4 O 0.8436(7) 1.0476(3) 0.22621(18)
C20 C 0.9953(11) 1.1090(5) 0.2473(3)
O5 O 1.1390(9) 1.0723(3) 0.2827(2)
C21 C 0.9514(10) 1.2294(5) 0.2216(2)
C22 C 1.1143(11) 1.3011(5) 0.2310(3)
H15 H 1.24810 1.27230 0.25210
C23 C 1.0849(11) 1.4119(5) 0.2106(3)
H16 H 1.19710 1.45800 0.21790
C24 C 0.8872(11) 1.4567(5) 0.1789(3)
C25 C 0.7198(10) 1.3866(5) 0.1686(3)
H17 H 0.58570 1.41560 0.14770
C26 C 0.7550(11) 1.2737(5) 0.1896(3)
H18 H 0.64470 1.22670 0.18220
O6 O 0.8699(8) 1.5684(3) 0.16056(19)
C27 C 0.6580(11) 1.6226(5) 0.1344(3)
H19 H 0.52490 1.60110 0.15890
H20 H 0.63900 1.60190 0.09600
C28 C 0.6750(13) 1.7450(5) 0.1288(3)
H21 H 0.80930 1.76470 0.10440
H22 H 0.69980 1.76360 0.16740
C29 C 0.4604(12) 1.8127(5) 0.1026(3)
H23 H 0.32520 1.78900 0.12560
H24 H 0.44170 1.79720 0.06310
C30 C 0.4663(12) 1.9376(5) 0.1000(3)
H25 H 0.48770 1.95310 0.13940
H26 H 0.59970 1.96170 0.07630
C31 C 0.2481(14) 2.0046(5) 0.0746(3)
H27 H 0.22620 1.98730 0.03560
H28 H 0.11590 1.98020 0.09860
C32 C 0.2447(13) 2.1290(5) 0.0700(3)
H29 H 0.37950 2.15350 0.04710
H30 H 0.26000 2.14690 0.10920
C33 C 0.0255(14) 2.1944(6) 0.0422(3)
H31 H 0.00350 2.17200 0.00430
H32 H -0.10790 2.17410 0.06680
C34 C 0.0287(15) 2.3159(6) 0.0335(4)
H33 H 0.16220 2.33690 0.00910
H34 H 0.04690 2.33920 0.07130
C35 C -0.1919(16) 2.3764(7) 0.0049(4)
H35 H -0.18110 2.45550 -0.00020
H36 H -0.32430 2.35770 0.02950
H37 H -0.21000 2.35420 -0.03270
C36? C 0.249(4) -0.3148(15) 0.4233(7)
C37? C 0.391(4) -0.3262(18) 0.4599(10)
H38? H 0.15530 -0.36970 0.41670
H39? H 0.40110 -0.39610 0.48340
#END
