
#######################################################################
#
#                 Cambridge Crystallographic Data Centre
#                                CCDC
#
#######################################################################
#
# If this CIF has been generated from an entry in the Cambridge
# Structural Database, then it will include bibliographic, chemical,
# crystal, experimental, refinement or atomic coordinate data resulting
# from the CCDC's data processing and validation procedures.
#
#######################################################################

data_CSD_CIF_COZLAF
_audit_creation_date 2009-11-04
_audit_creation_method CSD-ConQuest-V1
_database_code_CSD COZLAF
_database_code_depnum_ccdc_archive 'CCDC 668705'
_chemical_formula_sum 'C40 H66 N2 O3'
_chemical_formula_moiety
;
C40 H66 N2 O3
;
_journal_coden_Cambridge 1050
_journal_volume 35
_journal_year 2008
_journal_page_first 541
_journal_name_full 'Liquid Crystals '
loop_
_publ_author_name
"P.Das"
"A.N.Biswas"
"A.Choudhury"
"P.Bandyopadhyay"
"S.Haldar"
"P.K.Mandal"
"S.Upreti"
_chemical_name_systematic
;
1-Hydroxy-1,2-bis(4-(tetradecyloxy)phenyl)-1\l^5^-diazene
;
_cell_volume   1832.236
_exptl_crystal_colour 'pale yellow'
_exptl_crystal_density_diffrn 1.129
_exptl_crystal_description 'block'
_exptl_crystal_preparation 'ethanol/dichloromethane'
_diffrn_ambient_temperature 100
#These two values have been output from a single CSD field.
_refine_ls_R_factor_gt 0.0456
_refine_ls_wR_factor_gt 0.0456
_symmetry_cell_setting triclinic
_symmetry_space_group_name_H-M 'P -1'
_symmetry_Int_Tables_number 2
loop_
_symmetry_equiv_pos_site_id
_symmetry_equiv_pos_as_xyz
1 x,y,z
2 -x,-y,-z
_cell_length_a 7.4691(6)
_cell_length_b 8.8665(7)
_cell_length_c 27.834(2)
_cell_angle_alpha 84.903(1)
_cell_angle_beta 89.683(1)
_cell_angle_gamma 86.325(1)
_cell_formula_units_Z 2
loop_
_atom_type_symbol
_atom_type_radius_bond
C 0.68
H 0.23
N 0.68
O 0.68
loop_
_atom_site_label
_atom_site_type_symbol
_atom_site_fract_x
_atom_site_fract_y
_atom_site_fract_z
O1 O 0.44385(11) 0.04551(9) 0.57159(3)
O2 O -0.04383(12) 0.40344(10) 0.41263(3)
O3 O -0.15329(11) 1.06915(9) 0.30786(3)
N1 N 0.07765(13) 0.45684(12) 0.43725(4)
N2 N 0.12932(13) 0.59156(11) 0.43371(3)
C1 C 0.38512(16) 0.29254(13) 0.53635(4)
H1 H 0.47170 0.32410 0.55760
C2 C 0.29729(16) 0.39795(13) 0.50410(4)
H2 H 0.32200 0.50200 0.50310
C3 C 0.17103(16) 0.34985(14) 0.47287(4)
C4 C 0.13399(16) 0.19948(14) 0.47473(4)
H3 H 0.04710 0.16820 0.45350
C5 C 0.22211(16) 0.09345(13) 0.50721(4)
H4 H 0.19630 -0.01030 0.50830
C6 C 0.34880(16) 0.13968(13) 0.53831(4)
C7 C 0.40080(16) -0.11110(13) 0.57782(4)
H5 H 0.42190 -0.15960 0.54740
H6 H 0.27310 -0.11840 0.58690
C8 C 0.52036(16) -0.18873(13) 0.61722(4)
H7 H 0.49770 -0.13890 0.64730
H8 H 0.64730 -0.17720 0.60810
C9 C 0.48871(16) -0.35666(13) 0.62641(4)
H9 H 0.50530 -0.40480 0.59580
H10 H 0.36290 -0.36740 0.63690
C10 C 0.61338(16) -0.44070(13) 0.66446(4)
H11 H 0.73800 -0.44310 0.65210
H12 H 0.60940 -0.38520 0.69380
C11 C 0.56136(16) -0.60191(13) 0.67748(4)
H13 H 0.56370 -0.65530 0.64770
H14 H 0.43620 -0.59770 0.68940
C12 C 0.67852(16) -0.69576(13) 0.71513(4)
H15 H 0.80210 -0.70880 0.70250
H16 H 0.68340 -0.64080 0.74450
C13 C 0.60703(16) -0.85090(13) 0.72826(4)
H17 H 0.48230 -0.83600 0.74000
H18 H 0.60280 -0.90430 0.69860
C14 C 0.71318(16) -0.95279(13) 0.76611(4)
H19 H 0.71690 -0.90160 0.79620
H20 H 0.83800 -0.96990 0.75470
C15 C 0.63122(16) -1.10490(13) 0.77658(4)
H21 H 0.50450 -1.08610 0.78620
H22 H 0.63160 -1.15630 0.74640
C16 C 0.72544(16) -1.21144(13) 0.81563(4)
H23 H 0.85230 -1.23090 0.80620
H24 H 0.72400 -1.16150 0.84610
C17 C 0.63886(16) -1.36181(13) 0.82433(4)
H25 H 0.51270 -1.34150 0.83420
H26 H 0.63740 -1.40950 0.79350
C18 C 0.73026(17) -1.47394(13) 0.86224(4)
H27 H 0.85660 -1.49500 0.85260
H28 H 0.73080 -1.42750 0.89330
C19 C 0.63943(18) -1.62239(14) 0.86934(4)
H29 H 0.63670 -1.66710 0.83800
H30 H 0.51370 -1.60090 0.87940
C20 C 0.7293(2) -1.73838(15) 0.90642(5)
H31 H 0.85370 -1.76140 0.89670
H32 H 0.66450 -1.83140 0.90850
H33 H 0.72770 -1.69720 0.93800
C21 C -0.16854(16) 0.82108(13) 0.34256(4)
H34 H -0.27390 0.81550 0.32400
C22 C -0.10686(16) 0.69619(13) 0.37223(4)
H35 H -0.16800 0.60520 0.37360
C23 C 0.04752(16) 0.70388(14) 0.40064(4)
C24 C 0.13171(16) 0.84011(13) 0.39752(4)
H36 H 0.23450 0.84770 0.41690
C25 C 0.07126(16) 0.96420(14) 0.36732(4)
H37 H 0.13250 1.05520 0.36570
C26 C -0.08043(15) 0.95498(13) 0.33913(4)
C27 C -0.06752(16) 1.21017(13) 0.30208(4)
H38 H 0.05840 1.19270 0.29160
H39 H -0.06780 1.25740 0.33300
C28 C -0.17190(16) 1.31198(13) 0.26443(4)
H40 H -0.29770 1.32640 0.27530
H41 H -0.17250 1.26160 0.23410
C29 C -0.09515(16) 1.46663(13) 0.25440(4)
H42 H 0.03140 1.45220 0.24410
H43 H -0.09670 1.51780 0.28460
C30 C -0.19851(16) 1.56853(13) 0.21568(4)
H44 H -0.19600 1.51720 0.18550
H45 H -0.32530 1.58140 0.22590
C31 C -0.12616(16) 1.72434(13) 0.20522(4)
H46 H 0.00150 1.71150 0.19570
H47 H -0.13150 1.77680 0.23520
C32 C -0.22741(16) 1.82412(13) 0.16568(4)
H48 H -0.22200 1.77180 0.13570
H49 H -0.35510 1.83700 0.17510
C33 C -0.15445(16) 1.98010(13) 0.15539(4)
H50 H -0.16120 2.03250 0.18540
H51 H -0.02630 1.96690 0.14640
C34 C -0.25230(17) 2.08087(14) 0.11553(4)
H52 H -0.24790 2.02820 0.08560
H53 H -0.37990 2.09700 0.12470
C35 C -0.17291(17) 2.23417(13) 0.10550(4)
H54 H -0.04560 2.21710 0.09620
H55 H -0.17550 2.28520 0.13570
C36 C -0.26733(17) 2.34008(14) 0.06630(4)
H56 H -0.26450 2.29010 0.03590
H57 H -0.39460 2.35850 0.07550
C37 C -0.18252(17) 2.49135(14) 0.05775(4)
H58 H -0.18210 2.53890 0.08860
H59 H -0.05600 2.47210 0.04800
C38 C -0.27451(18) 2.60292(14) 0.01983(4)
H60 H -0.40110 2.62280 0.02940
H61 H -0.27420 2.55640 -0.01120
C39 C -0.1859(2) 2.75286(14) 0.01259(5)
H62 H -0.18300 2.79770 0.04390
H63 H -0.06030 2.73300 0.00220
C40 C -0.2799(2) 2.86705(16) -0.02430(5)
H64 H -0.27830 2.82570 -0.05580
H65 H -0.21780 2.96150 -0.02660
H66 H -0.40440 2.88770 -0.01430
#END
