
#######################################################################
#
#                 Cambridge Crystallographic Data Centre
#                                CCDC
#
#######################################################################
#
# If this CIF has been generated from an entry in the Cambridge
# Structural Database, then it will include bibliographic, chemical,
# crystal, experimental, refinement or atomic coordinate data resulting
# from the CCDC's data processing and validation procedures.
#
#######################################################################

data_CSD_CIF_CTMTNA12
_audit_creation_date 2015-10-22
_audit_creation_method CSD-ConQuest-V1
_database_code_CSD CTMTNA12
_database_code_depnum_ccdc_archive 'CCDC 1432691'
_chemical_formula_sum 'C3 H6 N6 O6'
_chemical_formula_moiety
;
C3 H6 N6 O6
;
_journal_coeditor_code "sh5121"
_journal_coden_Cambridge 621
_journal_volume 67
_journal_year 2011
_journal_page_first 160
_journal_name_full 'Acta Crystallogr.,Sect.A:Found Crystallogr. '
loop_
_publ_author_name
"V.V.Zhurov"
"E.A.Zhurova"
"A.I.Stash"
"A.A.Pinkerton"
_chemical_name_systematic
;
1,3,5-trinitro-1,3,5-triazinane
;
_cell_volume   1644.460
_exptl_crystal_colour 'colorless'
_exptl_crystal_density_diffrn 1.794
_exptl_special_details
;
alpha polymorph

;
_exptl_crystal_description 'pyramid'
_diffrn_ambient_temperature 298
_refine_special_details
;
multipole refinement

;
#These two values have been output from a single CSD field.
_refine_ls_R_factor_gt 0.0075
_refine_ls_wR_factor_gt 0.0075
_symmetry_cell_setting orthorhombic
_symmetry_space_group_name_H-M 'P b c a'
_symmetry_Int_Tables_number 61
loop_
_symmetry_equiv_pos_site_id
_symmetry_equiv_pos_as_xyz
1 x,y,z
2 1/2-x,-y,1/2+z
3 -x,1/2+y,1/2-z
4 1/2+x,1/2-y,-z
5 -x,-y,-z
6 -1/2+x,y,-1/2-z
7 x,-1/2-y,-1/2+z
8 -1/2-x,-1/2+y,z
_cell_length_a 11.6103(4)
_cell_length_b 10.7291(3)
_cell_length_c 13.2013(4)
_cell_angle_alpha 90
_cell_angle_beta 90
_cell_angle_gamma 90
_cell_formula_units_Z 8
loop_
_atom_type_symbol
_atom_type_radius_bond
C 0.68
H 0.23
N 0.68
O 0.68
loop_
_atom_site_label
_atom_site_type_symbol
_atom_site_fract_x
_atom_site_fract_y
_atom_site_fract_z
O1 O 0.56849(5) 0.43256(9) 0.26366(6)
O2 O 0.59335(7) 0.23759(9) 0.22690(8)
O3 O 0.46859(9) 0.13864(11) -0.02406(5)
O4 O 0.35312(9) 0.25231(11) -0.11236(6)
O5 O 0.31348(10) 0.5247(1) -0.06986(7)
O6 O 0.42704(8) 0.59865(9) 0.04471(7)
N1 N 0.43602(4) 0.33305(5) 0.17611(4)
N2 N 0.32173(10) 0.23215(9) 0.05365(4)
N3 N 0.29937(6) 0.45302(6) 0.08758(5)
N4 N 0.53767(8) 0.33450(6) 0.22577(5)
N5 N 0.38757(7) 0.20834(8) -0.03336(7)
N6 N 0.35216(7) 0.52895(9) 0.01551(7)
C1 C 0.35879(8) 0.43948(9) 0.18356(7)
C2 C 0.38160(8) 0.21563(9) 0.14918(6)
C3 C 0.24457(6) 0.33925(9) 0.05052(5)
H1 H 0.4017(11) 0.5228(12) 0.2055(9)
H2 H 0.2921(10) 0.4197(10) 0.2394(7)
H3 H 0.4430(12) 0.1422(9) 0.1468(9)
H4 H 0.3156(11) 0.1931(9) 0.2066(7)
H5 H 0.2099(8) 0.3526(9) -0.0252(8)
H6 H 0.1736(7) 0.3198(8) 0.1017(8)
#END
