
#######################################################################
#
#                 Cambridge Crystallographic Data Centre
#                                CCDC
#
#######################################################################
#
# If this CIF has been generated from an entry in the Cambridge
# Structural Database, then it will include bibliographic, chemical,
# crystal, experimental, refinement or atomic coordinate data resulting
# from the CCDC's data processing and validation procedures.
#
#######################################################################

data_CSD_CIF_CTMTNA14
_audit_creation_date 2016-10-28
_audit_creation_method CSD-ConQuest-V1
_database_code_CSD CTMTNA14
_database_code_depnum_ccdc_archive 'CCDC 1423901'
_chemical_formula_sum 'C3 H6 N6 O6'
_chemical_formula_moiety
;
C3 H6 N6 O6
;
_journal_coden_Cambridge 1870
_journal_volume 2
_journal_year 2016
_journal_page_first e1600192
_journal_name_full 'Sci. Adv. '
loop_
_publ_author_name
"M.Woinska"
"S.Grabowsky"
"P.M.Dominiak"
"K.Wozniak"
"D.Jayatilaka"
_chemical_name_systematic
;
1,3,5-trinitro-1,3,5-triazinane
;
_chemical_name_common
;
hexahydro-1,3,5-trinitro-1,3,5-triazine
;
_cell_volume   1597.269
_exptl_special_details
;
alpha polymorph

;
_exptl_crystal_description 'prism'
_diffrn_ambient_temperature 120
_refine_special_details
;
Hirshfeld atom refinement (HAR)

;
#These two values have been output from a single CSD field.
_refine_ls_R_factor_gt 0.0064
_refine_ls_wR_factor_gt 0.0064
loop_
_citation_database_id_CSD
_citation_special_details
CTMTNA11 "is reinterpreted by this entry"
_symmetry_cell_setting orthorhombic
_symmetry_space_group_name_H-M 'P b c a'
_symmetry_Int_Tables_number 61
loop_
_symmetry_equiv_pos_site_id
_symmetry_equiv_pos_as_xyz
1 x,y,z
2 1/2-x,-y,1/2+z
3 1/2+x,1/2-y,-z
4 -x,1/2+y,1/2-z
5 -x,-y,-z
6 -1/2+x,y,-1/2-z
7 -1/2-x,-1/2+y,z
8 x,-1/2-y,-1/2+z
_cell_length_a 11.4425(3)
_cell_length_b 10.6106(3)
_cell_length_c 13.1558(4)
_cell_angle_alpha 90
_cell_angle_beta 90
_cell_angle_gamma 90
_cell_formula_units_Z 8
loop_
_atom_type_symbol
_atom_type_radius_bond
C 0.68
H 0.23
N 0.68
O 0.68
loop_
_atom_site_label
_atom_site_type_symbol
_atom_site_fract_x
_atom_site_fract_y
_atom_site_fract_z
O1 O 0.567704(9) 0.43417(1) 0.266983(8)
O2 O 0.593012(9) 0.23659(1) 0.229171(9)
O3 O 0.46472(1) 0.13425(1) -0.026867(9)
O4 O 0.35116(1) 0.25413(1) -0.116290(8)
O5 O 0.31841(1) 0.53232(1) -0.071845(8)
O6 O 0.432408(9) 0.60365(1) 0.04645(1)
N1 N 0.43482(1) 0.33555(1) 0.17464(1)
N2 N 0.31843(1) 0.23526(1) 0.050912(9)
N3 N 0.29693(1) 0.45927(1) 0.086380(9)
N4 N 0.53688(1) 0.33526(1) 0.227343(9)
N5 N 0.38444(1) 0.20819(1) -0.03664(1)
N6 N 0.35501(1) 0.53486(1) 0.01481(1)
C1 C 0.35594(1) 0.44348(2) 0.18360(1)
C2 C 0.37815(1) 0.21656(1) 0.14736(1)
C3 C 0.24070(1) 0.34484(1) 0.04729(1)
H1 H 0.4044(2) 0.5270(2) 0.2032(1)
H2 H 0.2871(2) 0.4236(2) 0.2393(1)
H3 H 0.4418(2) 0.1416(2) 0.1410(2)
H4 H 0.3110(2) 0.1937(2) 0.2032(1)
H5 H 0.2094(2) 0.3596(2) -0.0300(2)
H6 H 0.1688(2) 0.3250(2) 0.0978(1)
#END
