
#######################################################################
#
#                 Cambridge Crystallographic Data Centre
#                                CCDC
#
#######################################################################
#
# If this CIF has been generated from an entry in the Cambridge
# Structural Database, then it will include bibliographic, chemical,
# crystal, experimental, refinement or atomic coordinate data resulting
# from the CCDC's data processing and validation procedures.
#
#######################################################################

data_CSD_CIF_CTMTNA08
_audit_creation_date 2013-04-24
_audit_creation_method CSD-ConQuest-V1
_database_code_CSD CTMTNA08
_database_code_depnum_ccdc_archive 'CCDC 927275'
_chemical_formula_sum 'C3 H6 N6 O6'
_chemical_formula_moiety
;
C3 H6 N6 O6
;
_journal_coden_Cambridge 1078
_journal_year 2013
_journal_name_full 'CSD Communication(Private Communication) '
loop_
_publ_author_name
"Q.J.Axthammer"
"D.Izsak"
"T.M.Klapotke"
"C.Pfluger"
"J.Stierstorfer"
_chemical_name_systematic
;
1,3,5-trinitro-1,3,5-triazacyclohexane
;
_chemical_name_common
;
1,3,5-Trinitro-1,3,5-triazinane
;
_chemical_melting_point 477
_cell_volume   1602.508
_exptl_crystal_colour 'colorless'
_exptl_crystal_density_diffrn 1.841
_exptl_special_details
;
contribution from Department of Chemistry,Ludwig-Maximilian University of 
Munich, Butenandtstr. 5-13 (D), 81377 Munich, Germany
;
_exptl_crystal_description 'block'
_diffrn_ambient_temperature 100
#These two values have been output from a single CSD field.
_refine_ls_R_factor_gt 0.0307
_refine_ls_wR_factor_gt 0.0307
_symmetry_cell_setting orthorhombic
_symmetry_space_group_name_H-M 'P b c a'
_symmetry_Int_Tables_number 61
loop_
_symmetry_equiv_pos_site_id
_symmetry_equiv_pos_as_xyz
1 x,y,z
2 1/2-x,-y,1/2+z
3 1/2+x,1/2-y,-z
4 -x,1/2+y,1/2-z
5 -x,-y,-z
6 -1/2+x,y,-1/2-z
7 -1/2-x,-1/2+y,z
8 x,-1/2-y,-1/2+z
_cell_length_a 11.4545(5)
_cell_length_b 10.6169(5)
_cell_length_c 13.1773(6)
_cell_angle_alpha 90
_cell_angle_beta 90
_cell_angle_gamma 90
_cell_formula_units_Z 8
loop_
_atom_type_symbol
_atom_type_radius_bond
C 0.68
H 0.23
N 0.68
O 0.68
loop_
_atom_site_label
_atom_site_type_symbol
_atom_site_fract_x
_atom_site_fract_y
_atom_site_fract_z
O1 O 0.43309(9) -0.10413(10) 0.45338(9)
O2 O 0.31857(9) -0.03274(10) 0.57242(8)
O3 O 0.35098(9) 0.24561(11) 0.61676(8)
O4 O 0.46460(9) 0.3664(1) 0.52701(8)
O5 O 0.59326(9) 0.26386(10) 0.27076(8)
O6 O 0.56777(8) 0.06525(10) 0.23275(7)
N1 N 0.29660(9) 0.04020(11) 0.41377(9)
N2 N 0.31798(10) 0.26491(12) 0.44919(9)
N3 N 0.43457(10) 0.16436(11) 0.32569(9)
N4 N 0.3554(1) -0.03527(12) 0.48525(9)
N5 N 0.3843(1) 0.29175(12) 0.53691(9)
N6 N 0.53703(10) 0.16484(12) 0.27254(9)
C1 C 0.24036(12) 0.15491(14) 0.45292(11)
H1 H 0.16950 0.17260 0.41240
H2 H 0.21580 0.14040 0.52400
C2 C 0.37797(12) 0.28370(14) 0.35253(11)
H3 H 0.43700 0.35140 0.35900
H4 H 0.32140 0.30820 0.29930
C3 C 0.35614(12) 0.05627(14) 0.31642(10)
H5 H 0.40120 -0.02050 0.29950
H6 H 0.29840 0.07130 0.26180
#END
