
#######################################################################
#
#                 Cambridge Crystallographic Data Centre
#                                CCDC
#
#######################################################################
#
# If this CIF has been generated from an entry in the Cambridge
# Structural Database, then it will include bibliographic, chemical,
# crystal, experimental, refinement or atomic coordinate data resulting
# from the CCDC's data processing and validation procedures.
#
#######################################################################

data_CSD_CIF_CTMTNA10
_audit_creation_date 2015-10-22
_audit_creation_method CSD-ConQuest-V1
_database_code_CSD CTMTNA10
_database_code_depnum_ccdc_archive 'CCDC 1432689'
_chemical_formula_sum 'C3 H6 N6 O6'
_chemical_formula_moiety
;
C3 H6 N6 O6
;
_journal_coeditor_code "sh5121"
_journal_coden_Cambridge 621
_journal_volume 67
_journal_year 2011
_journal_page_first 160
_journal_name_full 'Acta Crystallogr.,Sect.A:Found Crystallogr. '
loop_
_publ_author_name
"V.V.Zhurov"
"E.A.Zhurova"
"A.I.Stash"
"A.A.Pinkerton"
_chemical_name_systematic
;
1,3,5-trinitro-1,3,5-triazinane
;
_cell_volume   1579.303
_exptl_crystal_colour 'colorless'
_exptl_crystal_density_diffrn 1.868
_exptl_special_details
;
alpha polymorph

;
_exptl_crystal_description 'pyramid'
_diffrn_ambient_temperature 20
_refine_special_details
;
multipole refinement

;
#These two values have been output from a single CSD field.
_refine_ls_R_factor_gt 0.0104
_refine_ls_wR_factor_gt 0.0104
loop_
_citation_database_id_CSD
_citation_special_details
CTMTNA13 "is a reinterpretation of this cif"
_symmetry_cell_setting orthorhombic
_symmetry_space_group_name_H-M 'P b c a'
_symmetry_Int_Tables_number 61
loop_
_symmetry_equiv_pos_site_id
_symmetry_equiv_pos_as_xyz
1 x,y,z
2 1/2-x,-y,1/2+z
3 -x,1/2+y,1/2-z
4 1/2+x,1/2-y,-z
5 -x,-y,-z
6 -1/2+x,y,-1/2-z
7 x,-1/2-y,-1/2+z
8 -1/2-x,-1/2+y,z
_cell_length_a 11.3790(2)
_cell_length_b 10.5694(2)
_cell_length_c 13.1314(2)
_cell_angle_alpha 90
_cell_angle_beta 90
_cell_angle_gamma 90
_cell_formula_units_Z 8
loop_
_atom_type_symbol
_atom_type_radius_bond
C 0.68
H 0.23
N 0.68
O 0.68
loop_
_atom_site_label
_atom_site_type_symbol
_atom_site_fract_x
_atom_site_fract_y
_atom_site_fract_z
O1 O 0.56754(4) 0.43545(7) 0.26809(3)
O2 O 0.59333(4) 0.23619(7) 0.22993(4)
O3 O 0.46378(4) 0.13223(7) -0.02745(3)
O4 O 0.35040(4) 0.25476(7) -0.11767(3)
O5 O 0.31937(4) 0.53406(7) -0.07311(3)
O6 O 0.43403(4) 0.60542(7) 0.04655(4)
N1 N 0.43458(4) 0.33659(7) 0.17429(3)
N2 N 0.31745(4) 0.23613(6) 0.05024(3)
N3 N 0.29626(4) 0.46118(7) 0.08586(3)
N4 N 0.53670(3) 0.33581(5) 0.22798(2)
N5 N 0.38357(3) 0.20812(4) -0.03739(2)
N6 N 0.35568(3) 0.53636(4) 0.01446(2)
C1 C 0.35515(3) 0.44488(5) 0.18351(2)
C2 C 0.37737(3) 0.21703(5) 0.14695(2)
C3 C 0.23957(3) 0.34644(4) 0.04640(3)
H1 H 0.4032(9) 0.5282(11) 0.2040(7)
H2 H 0.2869(9) 0.4241(9) 0.2388(7)
H3 H 0.4394(10) 0.1427(11) 0.1418(7)
H4 H 0.3104(9) 0.1948(9) 0.2034(7)
H5 H 0.2085(9) 0.3617(9) -0.0285(8)
H6 H 0.1676(8) 0.3258(8) 0.0973(7)
#END
