
#######################################################################
#
#                 Cambridge Crystallographic Data Centre
#                                CCDC
#
#######################################################################
#
# If this CIF has been generated from an entry in the Cambridge
# Structural Database, then it will include bibliographic, chemical,
# crystal, experimental, refinement or atomic coordinate data resulting
# from the CCDC's data processing and validation procedures.
#
#######################################################################

data_CSD_CIF_CUBHEO
_audit_creation_date 2015-02-27
_audit_creation_method CSD-ConQuest-V1
_database_code_CSD CUBHEO
_database_code_depnum_ccdc_archive 'CCDC 1021628'
_chemical_formula_sum 'C15 H10 N2 O5'
_chemical_formula_moiety
;
C15 H10 N2 O5
;
_journal_coden_Cambridge 1350
_journal_volume 17
_journal_year 2015
_journal_page_first 2523
_journal_name_full 'CrystEngComm '
loop_
_publ_author_name
"M.Colaco"
"Jean Dubois"
"J.Wouters"
_chemical_name_systematic
;
2-(4-methoxyphenyl)-4-nitro-1H-isoindole-1,3(2H)-dione
;
_cell_volume    659.286
_exptl_crystal_colour 'yellow'
_exptl_crystal_density_diffrn 1.502
_exptl_crystal_description 'Prism'
_diffrn_ambient_temperature 293
#These two values have been output from a single CSD field.
_refine_ls_R_factor_gt 0.027
_refine_ls_wR_factor_gt 0.027
_symmetry_cell_setting monoclinic
_symmetry_space_group_name_H-M 'P 21'
_symmetry_Int_Tables_number 4
loop_
_symmetry_equiv_pos_site_id
_symmetry_equiv_pos_as_xyz
1 x,y,z
2 -x,1/2+y,-z
_cell_length_a 3.8289(1)
_cell_length_b 23.3314(7)
_cell_length_c 7.4554(2)
_cell_angle_alpha 90
_cell_angle_beta 98.153(3)
_cell_angle_gamma 90
_cell_formula_units_Z 2
loop_
_atom_type_symbol
_atom_type_radius_bond
C 0.68
H 0.23
N 0.68
O 0.68
loop_
_atom_site_label
_atom_site_type_symbol
_atom_site_fract_x
_atom_site_fract_y
_atom_site_fract_z
C1 C 0.7038(4) 0.91356(7) 0.66064(19)
C2 C 0.7149(4) 0.97393(7) 0.72392(19)
C3 C 0.8625(5) 0.99539(8) 0.8898(2)
H1 H 0.97790 0.97160 0.97950
C4 C 0.8321(5) 1.05347(9) 0.9173(2)
H2 H 0.92380 1.06910 1.02880
C5 C 0.6671(5) 1.08911(8) 0.7819(2)
H3 H 0.64990 1.12820 0.80280
C6 C 0.5282(4) 1.06617(7) 0.6154(2)
C7 C 0.5465(4) 1.00794(7) 0.58611(19)
C8 C 0.3949(4) 0.96948(6) 0.43439(19)
C9 C 0.4384(4) 0.86442(6) 0.3727(2)
C10 C 0.3026(4) 0.81580(7) 0.4427(2)
H4 H 0.26060 0.81510 0.56250
C11 C 0.2299(4) 0.76838(7) 0.3336(2)
H5 H 0.14110 0.73530 0.38040
C12 C 0.2882(4) 0.76972(6) 0.1552(2)
C13 C 0.4259(4) 0.81839(7) 0.0856(2)
H6 H 0.46650 0.81930 -0.03450
C14 C 0.5026(4) 0.86568(6) 0.1958(2)
H7 H 0.59770 0.89840 0.15040
C15 C 0.2446(7) 0.72095(10) -0.1285(3)
H8 H 0.11360 0.75210 -0.18970
H9 H 0.16140 0.68530 -0.18310
H10 H 0.49050 0.72550 -0.13810
N1 N 0.5137(3) 0.91430(5) 0.48506(16)
N2 N 0.3764(4) 1.10539(6) 0.4715(2)
O1 O 0.8319(3) 0.87202(5) 0.73975(15)
O2 O 0.1953(3) 0.98085(5) 0.29986(15)
O3 O 0.1977(4) 0.72096(5) 0.05707(17)
O4 O 0.4350(5) 1.09596(6) 0.31828(18)
O5 O 0.2037(5) 1.14570(6) 0.5150(2)
#END
