
#######################################################################
#
#                 Cambridge Crystallographic Data Centre
#                                CCDC
#
#######################################################################
#
# If this CIF has been generated from an entry in the Cambridge
# Structural Database, then it will include bibliographic, chemical,
# crystal, experimental, refinement or atomic coordinate data resulting
# from the CCDC's data processing and validation procedures.
#
#######################################################################

data_CSD_CIF_CUCDOV
_audit_creation_date 1985-09-20
_audit_creation_method CSD-ConQuest-V1
_database_code_CSD CUCDOV
_chemical_formula_sum 'C19 H24 N2 O7'
_chemical_formula_moiety
;
C19 H24 N2 O7
;
_journal_coden_Cambridge 24
_journal_volume 26
_journal_year 1985
_journal_page_first 583
_journal_name_full 'Tetrahedron Lett. '
loop_
_publ_author_name
"D.H.Shih"
"J.A.Fayter"
"L.D.Cama"
"B.G.Christensen"
"J.Hirshfield"
_chemical_name_systematic
;
7-(1-(2-Nitrobenzyloxy-carbonyloxy)ethyl)-2,2,5-trimethyl-3-oxa-1-azabicyclo(4
.2.0)octan-8-one
;
_cell_volume    977.850
_exptl_special_details
;
H5 removed for suspected coord. error

;
_diffrn_ambient_temperature ?
_diffrn_special_details
;
The study was carried out at room temperature,in the range 283-303K

;
loop_
_citation_database_id_CSD
_citation_special_details
CUCDOT "is a stereoisomer of this entry"
_symmetry_cell_setting triclinic
_symmetry_space_group_name_H-M 'P -1'
_symmetry_Int_Tables_number 2
loop_
_symmetry_equiv_pos_site_id
_symmetry_equiv_pos_as_xyz
1 x,y,z
2 -x,-y,-z
_cell_length_a 7.942(2)
_cell_length_b 17.985(4)
_cell_length_c 7.481(1)
_cell_angle_alpha 99.17(2)
_cell_angle_beta 111.50(2)
_cell_angle_gamma 91.19(2)
_cell_formula_units_Z 2
loop_
_atom_type_symbol
_atom_type_radius_bond
C 0.68
H 0.23
N 0.68
O 0.68
loop_
_atom_site_label
_atom_site_type_symbol
_atom_site_fract_x
_atom_site_fract_y
_atom_site_fract_z
N1 N 0.2497(4) 0.8387(2) 0.3727(4)
C1 C 0.0582(5) 0.8126(2) 0.2666(6)
O1 O 0.0269(3) 0.7984(2) 0.0620(4)
C2 C 0.1596(5) 0.7563(2) 0.0091(6)
C3 C 0.3488(5) 0.7978(2) 0.0999(6)
C4 C 0.4001(5) 0.8092(2) 0.3182(5)
C5 C 0.5225(5) 0.8775(2) 0.4638(5)
C6 C 0.3495(5) 0.9008(2) 0.4997(5)
C7 C -0.0595(6) 0.8743(3) 0.2970(7)
C8 C 0.0139(6) 0.7407(3) 0.3291(7)
C9 C 0.3456(6) 0.8744(3) 0.0205(6)
C10 C 0.6846(5) 0.8625(2) 0.6365(6)
C11 C 0.7666(6) 0.9312(2) 0.7886(7)
O2 O 0.6226(3) 0.8070(1) 0.7295(4)
C12 C 0.6819(5) 0.7390(2) 0.7101(5)
O3 O 0.7730(4) 0.7163(1) 0.6200(4)
O4 O 0.6149(3) 0.6977(1) 0.8084(4)
C13 C 0.6637(5) 0.6209(2) 0.8022(6)
C14 C 0.4993(5) 0.5697(2) 0.7728(5)
C15 C 0.3384(5) 0.5999(2) 0.7688(6)
C16 C 0.1872(5) 0.5540(3) 0.7447(7)
C17 C 0.1890(6) 0.4772(2) 0.7218(6)
C18 C 0.3432(5) 0.4448(2) 0.7213(6)
C19 C 0.4959(5) 0.4913(2) 0.7476(5)
N2 N 0.6558(4) 0.4524(2) 0.7455(5)
O5 O 0.6396(5) 0.3844(2) 0.6957(6)
O6 O 0.7998(4) 0.4888(2) 0.7939(6)
O7 O 0.3132(4) 0.9532(1) 0.5986(4)
H1 H 0.165(4) 0.700(2) 0.046(4)
H2 H 0.104(4) 0.748(2) -0.138(4)
H3 H 0.433(4) 0.758(2) 0.360(4)
H4 H 0.557(4) 0.916(2) 0.400(4)
H5 H -0.029(4) 0.923(2) 0.252(5)
H6 H -0.170(4) 0.859(2) 0.229(5)
H7 H -0.041(4) 0.892(2) 0.438(5)
H8 H 0.097(5) 0.699(2) 0.320(5)
H9 H 0.033(5) 0.748(2) 0.462(5)
H10 H -0.114(5) 0.721(2) 0.251(5)
H11 H 0.468(5) 0.906(2) 0.082(5)
H12 H 0.292(4) 0.865(2) -0.130(5)
H13 H 0.265(5) 0.913(2) 0.057(5)
H14 H 0.775(4) 0.836(2) 0.581(4)
H15 H 0.802(4) 0.973(2) 0.740(5)
H16 H 0.678(4) 0.953(2) 0.840(5)
H17 H 0.872(4) 0.921(2) 0.881(5)
H18 H 0.765(4) 0.620(2) 0.935(4)
H19 H 0.704(4) 0.609(2) 0.699(4)
H20 H 0.337(4) 0.655(2) 0.784(4)
H21 H 0.085(4) 0.578(2) 0.740(4)
H22 H 0.085(4) 0.441(2) 0.700(5)
H23 H 0.346(4) 0.390(2) 0.700(4)
#END
