
#######################################################################
#
#                 Cambridge Crystallographic Data Centre
#                                CCDC
#
#######################################################################
#
# If this CIF has been generated from an entry in the Cambridge
# Structural Database, then it will include bibliographic, chemical,
# crystal, experimental, refinement or atomic coordinate data resulting
# from the CCDC's data processing and validation procedures.
#
#######################################################################

data_CSD_CIF_CUCLES
_audit_creation_date 2009-11-04
_audit_creation_method CSD-ConQuest-V1
_database_code_CSD CUCLES
_database_code_depnum_ccdc_archive 'CCDC 749878'
_chemical_formula_sum 'C22 H15 N3 O3'
_chemical_formula_moiety
;
C22 H15 N3 O3
;
_journal_coden_Cambridge 122
_journal_year 2007
_journal_page_first 1256
_journal_name_full 'Khim.Get.Soedin.,SSSR(Russ.)(Chem.Heterocycl.Compd.) '
loop_
_publ_author_name
"N.E.Sidorina"
"V.A.Osyanin"
_chemical_name_systematic
;
7-Nitro-2,3-diphenyl-5H-imidazo(2,1-b)(1,3)benzoxazine
;
_chemical_melting_point 507.15
_cell_volume   1727.407
_exptl_crystal_colour 'yellow'
_exptl_crystal_density_diffrn 1.42
_exptl_special_details
;
Melting point range 507.15-508.15K

;
_exptl_crystal_description 'needle'
_exptl_crystal_preparation 'dimethylformamide/ethanol'
_diffrn_ambient_temperature 295
#These two values have been output from a single CSD field.
_refine_ls_R_factor_gt 0.0444
_refine_ls_wR_factor_gt 0.0444
_symmetry_cell_setting monoclinic
_symmetry_space_group_name_H-M 'P 21/n'
_symmetry_Int_Tables_number 14
loop_
_symmetry_equiv_pos_site_id
_symmetry_equiv_pos_as_xyz
1 x,y,z
2 1/2-x,1/2+y,1/2-z
3 -x,-y,-z
4 -1/2+x,-1/2-y,-1/2+z
_cell_length_a 19.112(4)
_cell_length_b 11.207(2)
_cell_length_c 8.092(2)
_cell_angle_alpha 90
_cell_angle_beta 94.69(3)
_cell_angle_gamma 90
_cell_formula_units_Z 4
loop_
_atom_type_symbol
_atom_type_radius_bond
C 0.68
H 0.23
N 0.68
O 0.68
loop_
_atom_site_label
_atom_site_type_symbol
_atom_site_fract_x
_atom_site_fract_y
_atom_site_fract_z
O1 O 0.55507(10) -0.15447(14) 0.3789(2)
O2 O 0.83745(12) -0.0232(2) 0.7778(2)
O3 O 0.84140(13) -0.2140(2) 0.7927(3)
N1 N 0.46603(12) -0.05794(18) 0.2173(2)
N2 N 0.55426(11) 0.05274(17) 0.3256(2)
N3 N 0.81284(14) -0.1217(2) 0.7469(3)
C1 C 0.52511(15) -0.0551(2) 0.3069(3)
C2 C 0.45589(14) 0.0599(2) 0.1668(3)
C3 C 0.50989(13) 0.1302(2) 0.2309(3)
C4 C 0.61961(16) 0.0814(2) 0.4201(4)
H1 H 0.6537(14) 0.117(2) 0.356(3)
H2 H 0.6063(14) 0.142(2) 0.518(3)
C5 C 0.65187(14) -0.0312(2) 0.4895(3)
C6 C 0.62024(15) -0.1408(2) 0.4666(3)
C7 C 0.65022(18) -0.2442(2) 0.5314(3)
H3 H 0.6239(12) -0.315(2) 0.512(3)
C8 C 0.71376(19) -0.2388(3) 0.6208(4)
H4 H 0.7353(17) -0.303(3) 0.659(4)
C9 C 0.74563(15) -0.1302(2) 0.6462(3)
C10 C 0.71554(16) -0.0274(2) 0.5810(3)
H5 H 0.7369(13) 0.040(2) 0.602(3)
C11 C 0.39137(14) 0.0907(2) 0.0634(3)
C12 C 0.37363(16) 0.2066(3) 0.0173(3)
H6 H 0.4051(13) 0.274(2) 0.048(3)
C13 C 0.31153(17) 0.2313(3) -0.0776(4)
H7 H 0.2984(14) 0.313(3) -0.118(3)
C14 C 0.26521(17) 0.1408(3) -0.1271(4)
H8 H 0.2152(17) 0.1608(3) -0.1951(4)
C15 C 0.28243(18) 0.0263(3) -0.0832(4)
H9 H 0.2496(16) -0.042(3) -0.127(3)
C16 C 0.34436(17) 0.0003(3) 0.0108(4)
H10 H 0.3580(13) -0.079(2) 0.044(3)
C17 C 0.53048(13) 0.2571(2) 0.2178(3)
C18 C 0.54831(15) 0.3040(3) 0.0678(3)
H11 H 0.5420(13) 0.251(2) -0.025(3)
C19 C 0.56994(17) 0.4207(3) 0.0613(4)
H12 H 0.5801(15) 0.455(3) -0.044(4)
C20 C 0.57623(16) 0.4914(3) 0.2008(4)
H13 H 0.6025(9) 0.5900(16) 0.182(2)
C21 C 0.55987(16) 0.4438(2) 0.3489(4)
H14 H 0.5666(15) 0.494(3) 0.454(4)
C22 C 0.53686(15) 0.3282(2) 0.3584(4)
H15 H 0.5240(12) 0.294(2) 0.466(3)
#END
