
#######################################################################
#
#                 Cambridge Crystallographic Data Centre
#                                CCDC
#
#######################################################################
#
# If this CIF has been generated from an entry in the Cambridge
# Structural Database, then it will include bibliographic, chemical,
# crystal, experimental, refinement or atomic coordinate data resulting
# from the CCDC's data processing and validation procedures.
#
#######################################################################

data_CSD_CIF_CUCNET
_audit_creation_date 1985-09-20
_audit_creation_method CSD-ConQuest-V1
_database_code_CSD CUCNET
_chemical_formula_sum 'C9 H14 N2 O4'
_chemical_formula_moiety
;
C9 H14 N2 O4
;
_journal_coden_Cambridge 24
_journal_volume 26
_journal_year 1985
_journal_page_first 539
_journal_name_full 'Tetrahedron Lett. '
loop_
_publ_author_name
"W.R.Bowman"
"D.S.Brown"
"C.T.W.Leung"
"A.P.Stutchbury"
_chemical_name_systematic
;
1-Nitro-6-(2-nitro-prop-2-yl)-bicyclo(3.1.0)hexane
;
_chemical_melting_point 340.15
_cell_volume   1058.017
_exptl_crystal_density_diffrn 1.345
_exptl_special_details
;
Melting point range 340.15-341.15K

;
_diffrn_ambient_temperature ?
_diffrn_special_details
;
The study was carried out at room temperature,in the range 283-303K

;
#These two values have been output from a single CSD field.
_refine_ls_R_factor_gt 0.097
_refine_ls_wR_factor_gt 0.097
_symmetry_cell_setting monoclinic
_symmetry_space_group_name_H-M 'P 21/c'
_symmetry_Int_Tables_number 14
loop_
_symmetry_equiv_pos_site_id
_symmetry_equiv_pos_as_xyz
1 x,y,z
2 -x,1/2+y,1/2-z
3 -x,-y,-z
4 x,-1/2-y,-1/2+z
_cell_length_a 8.60(1)
_cell_length_b 11.589(3)
_cell_length_c 11.243(3)
_cell_angle_alpha 90
_cell_angle_beta 109.23(5)
_cell_angle_gamma 90
_cell_formula_units_Z 4
loop_
_atom_type_symbol
_atom_type_radius_bond
C 0.68
H 0.23
N 0.68
O 0.68
loop_
_atom_site_label
_atom_site_type_symbol
_atom_site_fract_x
_atom_site_fract_y
_atom_site_fract_z
C1 C 0.8972(28) 0.0905(8) 0.7967(10)
C2 C 0.9894(24) 0.0749(8) 0.7094(11)
H1 H 0.99940 0.15360 0.66170
H2 H 1.12040 0.05130 0.76870
C3 C 0.9107(20) -0.0234(8) 0.6206(9)
H3 H 1.00200 -0.07550 0.59380
H4 H 0.82190 0.00860 0.53440
C4 C 0.829(2) -0.0967(7) 0.6970(9)
H5 H 0.90890 -0.16540 0.74950
H6 H 0.71510 -0.13840 0.63560
C5 C 0.7855(19) -0.0121(7) 0.7872(8)
H7 H 0.75440 -0.07330 0.84930
C6 C 0.7103(28) 0.1031(7) 0.7373(9)
H8 H 0.62300 0.13750 0.64920
C7 C 0.5770(21) 0.1623(7) 0.7772(8)
C8 C 0.4060(22) 0.1805(9) 0.6626(9)
C9 C 0.5226(23) 0.1047(9) 0.8857(9)
N1 N 0.9755(25) 0.1437(8) 0.9213(11)
N2 N 0.6359(19) 0.2866(7) 0.8162(9)
O1 O 1.1173(42) 0.1750(9) 0.9425(10)
O2 O 0.8991(19) 0.1516(9) 0.9956(9)
O3 O 0.7204(18) 0.3338(6) 0.7625(9)
O4 O 0.5933(16) 0.3337(6) 0.8981(8)
#END
