
#######################################################################
#
#                 Cambridge Crystallographic Data Centre
#                                CCDC
#
#######################################################################
#
# If this CIF has been generated from an entry in the Cambridge
# Structural Database, then it will include bibliographic, chemical,
# crystal, experimental, refinement or atomic coordinate data resulting
# from the CCDC's data processing and validation procedures.
#
#######################################################################

data_CSD_CIF_CUDBEJ
_audit_creation_date 2009-11-04
_audit_creation_method CSD-ConQuest-V1
_database_code_CSD CUDBEJ
_database_code_depnum_ccdc_archive 'CCDC 750664'
_chemical_formula_sum 'C9 H10 N4 O2'
_chemical_formula_moiety
;
C9 H10 N4 O2
;
_journal_coeditor_code "IUCr CV2608"
_journal_coden_Cambridge 1370
_journal_volume 65
_journal_year 2009
_journal_page_first o2413
_journal_name_full 'Acta Crystallogr.,Sect.E:Struct.Rep.Online '
loop_
_publ_author_name
"Y.S.Moroz"
"V.A.Kalibabchuk"
"E.Gumienna-Kontecka"
"V.V.Skopenko"
"S.V.Pavlova"
_chemical_name_systematic
;
(2E)-2-Hydroxyimino-N'-[(E)-2-pyridylmethylene]propanohydrazide
;
_cell_volume    955.151
_exptl_crystal_colour 'white'
_exptl_crystal_density_diffrn 1.434
_exptl_crystal_description 'block'
_exptl_crystal_preparation 'methanol'
_diffrn_ambient_temperature 100
#These two values have been output from a single CSD field.
_refine_ls_R_factor_gt 0.0389
_refine_ls_wR_factor_gt 0.0389
_symmetry_cell_setting monoclinic
_symmetry_space_group_name_H-M 'P 21/c'
_symmetry_Int_Tables_number 14
loop_
_symmetry_equiv_pos_site_id
_symmetry_equiv_pos_as_xyz
1 x,y,z
2 -x,1/2+y,1/2-z
3 -x,-y,-z
4 x,-1/2-y,-1/2+z
_cell_length_a 10.274(4)
_cell_length_b 9.717(4)
_cell_length_c 10.136(4)
_cell_angle_alpha 90
_cell_angle_beta 109.28(4)
_cell_angle_gamma 90
_cell_formula_units_Z 4
loop_
_atom_type_symbol
_atom_type_radius_bond
C 0.68
H 0.23
N 0.68
O 0.68
loop_
_atom_site_label
_atom_site_type_symbol
_atom_site_fract_x
_atom_site_fract_y
_atom_site_fract_z
O1 O 0.59592(7) 0.23238(7) 0.23853(7)
O2 O 0.24735(8) 0.10483(8) -0.16272(8)
H1 H 0.2245(17) 0.1328(17) -0.2501(18)
N1 N 0.85431(9) 0.66853(8) -0.05564(8)
N2 N 0.70574(8) 0.39826(8) 0.08234(8)
N3 N 0.59208(9) 0.31588(9) 0.02612(9)
H2 H 0.5529(16) 0.3104(16) -0.0650(17)
N4 N 0.36471(8) 0.18113(8) -0.09566(8)
C1 C 0.95964(11) 0.75821(10) -0.01987(11)
H3 H 0.9570(16) 0.8267(16) -0.0903(16)
C2 C 1.06781(10) 0.75321(10) 0.10549(10)
H4 H 1.1433(15) 0.8188(14) 0.1263(15)
C3 C 1.06686(10) 0.64989(10) 0.20031(10)
H5 H 1.1409(16) 0.6414(16) 0.2873(16)
C4 C 0.95703(10) 0.55828(10) 0.16717(10)
H6 H 0.9544(15) 0.4838(15) 0.2317(15)
C5 C 0.85205(10) 0.57099(9) 0.03849(9)
C6 C 0.73225(10) 0.47858(10) -0.00602(10)
H7 H 0.6756(15) 0.4825(15) -0.1032(15)
C7 C 0.54344(10) 0.23721(9) 0.11115(10)
C8 C 0.41629(10) 0.15545(9) 0.03573(10)
C9 C 0.36358(11) 0.05663(11) 0.11943(11)
H8 H 0.2794(19) 0.0181(19) 0.0675(19)
H9 H 0.3462(17) 0.1013(17) 0.1967(18)
H10 H 0.4325(17) -0.0149(17) 0.1626(17)
#END
