
#######################################################################
#
#                 Cambridge Crystallographic Data Centre
#                                CCDC
#
#######################################################################
#
# If this CIF has been generated from an entry in the Cambridge
# Structural Database, then it will include bibliographic, chemical,
# crystal, experimental, refinement or atomic coordinate data resulting
# from the CCDC's data processing and validation procedures.
#
#######################################################################

data_CSD_CIF_CUDPEW
_audit_creation_date 1985-09-19
_audit_creation_method CSD-ConQuest-V1
_database_code_CSD CUDPEW
_database_code_depnum_ccdc_archive 'CCDC 1132387'
_chemical_formula_sum 'C6 H4 N4 O7'
_chemical_formula_moiety
;
C6 H4 N4 O7
;
_journal_coden_Cambridge 34
_journal_volume 21
_journal_year 1984
_journal_page_first 725
_journal_name_full 'J.Heterocycl.Chem. '
loop_
_publ_author_name
"S.Shiotani"
"H.Morita"
"M.Inoue"
"T.Ishida"
"Y.Iitaka"
"A.Itai"
_chemical_name_systematic
;
3-(Trinitromethyl)-pyridin-4-ol
;
_chemical_melting_point 408.15
_cell_volume    949.484
_exptl_crystal_colour 'pale yellow'
_exptl_crystal_density_diffrn 1.707
_exptl_special_details
;
Melting point range 408.15-410.15K

;
_diffrn_ambient_temperature ?
_diffrn_special_details
;
The study was carried out at room temperature,in the range 283-303K

;
#These two values have been output from a single CSD field.
_refine_ls_R_factor_gt 0.061
_refine_ls_wR_factor_gt 0.061
_symmetry_cell_setting monoclinic
_symmetry_space_group_name_H-M 'P 21/n'
_symmetry_Int_Tables_number 14
loop_
_symmetry_equiv_pos_site_id
_symmetry_equiv_pos_as_xyz
1 x,y,z
2 1/2-x,1/2+y,1/2-z
3 -x,-y,-z
4 -1/2+x,-1/2-y,-1/2+z
_cell_length_a 9.896
_cell_length_b 15.114
_cell_length_c 6.56
_cell_angle_alpha 90
_cell_angle_beta 104.6
_cell_angle_gamma 90
_cell_formula_units_Z 4
loop_
_atom_type_symbol
_atom_type_radius_bond
C 0.68
N 0.68
O 0.68
loop_
_atom_site_label
_atom_site_type_symbol
_atom_site_fract_x
_atom_site_fract_y
_atom_site_fract_z
C1 C 0.2217(2) 0.0157(1) 0.6180(3)
C2 C 0.2307(2) 0.0329(1) 0.4169(3)
C3 C 0.1761(2) -0.0300(1) 0.2488(3)
C4 C 0.1208(3) -0.1097(1) 0.3134(3)
C5 C 0.1188(2) -0.1230(1) 0.5160(3)
C6 C 0.2910(2) 0.1154(1) 0.3569(3)
N1 N 0.1671(2) -0.0602(1) 0.6660(3)
N2 N 0.1911(2) 0.1575(1) 0.1612(3)
N3 N 0.4330(2) 0.1040(1) 0.3018(3)
N4 N 0.3200(2) 0.1869(1) 0.5311(3)
O1 O 0.0707(2) 0.1624(1) 0.1693(3)
O2 O 0.2390(2) 0.1830(1) 0.0183(3)
O3 O 0.4646(2) 0.0299(1) 0.2642(3)
O4 O 0.5000(2) 0.1710(2) 0.3001(4)
O5 O 0.4124(2) 0.1670(1) 0.6849(3)
O6 O 0.2518(2) 0.2520(1) 0.5041(3)
O7 O 0.1787(2) -0.0133(1) 0.0628(2)
#END
