
#######################################################################
#
#                 Cambridge Crystallographic Data Centre
#                                CCDC
#
#######################################################################
#
# If this CIF has been generated from an entry in the Cambridge
# Structural Database, then it will include bibliographic, chemical,
# crystal, experimental, refinement or atomic coordinate data resulting
# from the CCDC's data processing and validation procedures.
#
#######################################################################

data_CSD_CIF_CUFHAO
_audit_creation_date 2015-03-02
_audit_creation_method CSD-ConQuest-V1
_database_code_CSD CUFHAO
_database_code_depnum_ccdc_archive 'CCDC 785446'
_chemical_formula_sum 'C25 H19 N1 O5'
_chemical_formula_moiety
;
C25 H19 N1 O5
;
_journal_coden_Cambridge 1078
_journal_year 2015
_journal_name_full 'CSD Communication(Private Communication) '
loop_
_publ_author_name
"Y.Yamamoto"
"S.Mori"
"M.Shibuya"
_chemical_name_systematic
;
(4-Benzylidenedihydrofuran-3(2H)-ylidene)(phenyl)methyl 4-nitrobenzoate
;
_cell_volume   4059.366
_exptl_crystal_colour 'yellow'
_exptl_crystal_density_diffrn 1.353
_exptl_crystal_description 'plate'
_diffrn_ambient_temperature 153
#These two values have been output from a single CSD field.
_refine_ls_R_factor_gt 0.0544
_refine_ls_wR_factor_gt 0.0544
_symmetry_cell_setting orthorhombic
_symmetry_space_group_name_H-M 'P b c a'
_symmetry_Int_Tables_number 61
loop_
_symmetry_equiv_pos_site_id
_symmetry_equiv_pos_as_xyz
1 x,y,z
2 1/2-x,-y,1/2+z
3 -x,1/2+y,1/2-z
4 1/2+x,1/2-y,-z
5 -x,-y,-z
6 -1/2+x,y,-1/2-z
7 x,-1/2-y,-1/2+z
8 -1/2-x,-1/2+y,z
_cell_length_a 13.472(7)
_cell_length_b 7.682(4)
_cell_length_c 39.224(19)
_cell_angle_alpha 90
_cell_angle_beta 90
_cell_angle_gamma 90
_cell_formula_units_Z 8
loop_
_atom_type_symbol
_atom_type_radius_bond
C 0.68
H 0.23
N 0.68
O 0.68
loop_
_atom_site_label
_atom_site_type_symbol
_atom_site_fract_x
_atom_site_fract_y
_atom_site_fract_z
O1 O 0.38373(12) 0.86455(19) 0.05391(4)
O2 O 0.35186(11) 1.09196(18) 0.08857(3)
O3 O 0.14028(11) 1.00105(19) 0.16156(3)
C1 C 0.37662(15) 0.9239(3) 0.19937(5)
H1 H 0.43860 0.96620 0.19130
N1 N 0.38377(14) 1.5254(3) -0.04819(5)
C2 C 0.37103(14) 1.1513(3) 0.03020(5)
C3 C 0.37296(15) 0.8703(3) 0.23512(5)
O4 O 0.36804(14) 1.6761(2) -0.04074(4)
C4 C 0.37022(15) 1.0168(3) 0.05778(5)
C5 C 0.30156(15) 0.9197(2) 0.17654(5)
C6 C 0.38320(16) 1.2191(3) -0.02944(5)
H2 H 0.38880 1.18390 -0.05260
C7 C 0.30333(15) 0.9765(2) 0.14068(5)
C8 C 0.37107(16) 1.4506(3) 0.01220(5)
H3 H 0.36810 1.57140 0.01730
C9 C 0.48687(16) 0.9697(3) 0.12172(5)
C10 C 0.37912(16) 1.0012(3) 0.11884(5)
C11 C 0.36767(16) 1.3272(3) 0.03777(5)
H4 H 0.36300 1.36360 0.06090
C12 C 0.37889(15) 1.3924(3) -0.02095(5)
C13 C 0.37919(15) 1.0974(3) -0.00360(5)
H5 H 0.38200 0.97680 -0.00890
C14 C 0.55383(17) 1.0838(3) 0.10648(5)
H6 H 0.52970 1.18220 0.09430
C15 C 0.19574(16) 1.0043(3) 0.13056(5)
H7 H 0.18760 1.11770 0.11890
H8 H 0.17320 0.91060 0.11500
C16 C 0.69152(18) 0.9160(3) 0.12673(5)
H9 H 0.76110 0.89920 0.12900
C17 C 0.19307(15) 0.8883(3) 0.18429(5)
H10 H 0.17520 0.76510 0.18010
H11 H 0.17790 0.91730 0.20830
C18 C 0.65505(17) 1.0555(3) 0.10879(5)
H12 H 0.69970 1.13340 0.09790
C19 C 0.43907(16) 0.9454(3) 0.25833(5)
H13 H 0.48460 1.03160 0.25080
C20 C 0.52405(16) 0.8242(3) 0.13881(5)
H14 H 0.47970 0.74190 0.14860
C21 C 0.62575(16) 0.7999(3) 0.14154(6)
H15 H 0.65060 0.70240 0.15370
C22 C 0.43888(17) 0.8954(3) 0.29231(5)
H16 H 0.48280 0.94950 0.30800
C23 C 0.30964(18) 0.6903(3) 0.28087(5)
H17 H 0.26600 0.60150 0.28860
C24 C 0.37483(18) 0.7668(4) 0.30328(5)
H18 H 0.37580 0.73100 0.32650
C25 C 0.30766(16) 0.7423(3) 0.24719(5)
H19 H 0.26140 0.69070 0.23200
O5 O 0.40350(17) 1.4769(2) -0.07693(4)
#END
