
#######################################################################
#
#                 Cambridge Crystallographic Data Centre
#                                CCDC
#
#######################################################################
#
# If this CIF has been generated from an entry in the Cambridge
# Structural Database, then it will include bibliographic, chemical,
# crystal, experimental, refinement or atomic coordinate data resulting
# from the CCDC's data processing and validation procedures.
#
#######################################################################

data_CSD_CIF_CUGDEO
_audit_creation_date 2010-07-30
_audit_creation_method CSD-ConQuest-V1
_database_code_CSD CUGDEO
_database_code_depnum_ccdc_archive 'CCDC 715424'
_chemical_formula_sum 'C38 H35 N3 O1'
_chemical_formula_moiety
;
C38 H35 N3 O1
;
_journal_coden_Cambridge 1127
_journal_volume 19
_journal_year 2009
_journal_page_first 6981
_journal_name_full 'Bioorg.Med.Chem.Lett. '
loop_
_publ_author_name
"P.Parthiban"
"G.Aridoss"
"P.Rathika"
"V.Ramkumar"
"S.Kabilan"
_chemical_name_systematic
;
N-(Benzyloxy)-2,4,6,8-tetraphenyl-3,7-diazabicyclo[3.3.1]nonan-9-imine
;
_cell_volume   1509.064
_exptl_crystal_colour 'colorless'
_exptl_crystal_density_diffrn 1.21
_exptl_crystal_description 'square'
_diffrn_ambient_temperature 297
#These two values have been output from a single CSD field.
_refine_ls_R_factor_gt 0.085
_refine_ls_wR_factor_gt 0.085
_symmetry_cell_setting triclinic
_symmetry_space_group_name_H-M 'P -1'
_symmetry_Int_Tables_number 2
loop_
_symmetry_equiv_pos_site_id
_symmetry_equiv_pos_as_xyz
1 x,y,z
2 -x,-y,-z
_cell_length_a 9.980(4)
_cell_length_b 10.615(4)
_cell_length_c 14.853(7)
_cell_angle_alpha 78.686(14)
_cell_angle_beta 78.550(13)
_cell_angle_gamma 84.210(14)
_cell_formula_units_Z 2
loop_
_atom_type_symbol
_atom_type_radius_bond
C 0.68
H 0.23
N 0.68
O 0.68
loop_
_atom_site_label
_atom_site_type_symbol
_atom_site_fract_x
_atom_site_fract_y
_atom_site_fract_z
C1 C 0.4865(6) 0.3990(5) 0.3331(4)
H1 H 0.45090 0.42090 0.39490
C2 C 0.6319(6) 0.3325(6) 0.3309(4)
H2 H 0.62760 0.25410 0.37850
C3 C 0.5945(6) 0.2045(5) 0.2150(4)
H3 H 0.59330 0.12520 0.26170
C4 C 0.4456(6) 0.2683(5) 0.2200(4)
H4 H 0.38520 0.20590 0.21160
C5 C 0.4352(6) 0.3936(6) 0.1443(4)
H5 H 0.52510 0.40910 0.10460
C6 C 0.4801(6) 0.5235(6) 0.2553(4)
H6 H 0.57210 0.53570 0.21810
C7 C 0.3968(6) 0.3053(6) 0.3135(5)
C8 C 0.7348(6) 0.4201(5) 0.3486(4)
C9 C 0.7331(6) 0.4325(6) 0.4394(5)
H7 H 0.67440 0.38480 0.48770
C10 C 0.8176(7) 0.5153(7) 0.4601(5)
H8 H 0.81490 0.52410 0.52150
C11 C 0.9050(7) 0.5834(7) 0.3881(5)
H9 H 0.96190 0.63910 0.40110
C12 C 0.9100(6) 0.5710(6) 0.2974(5)
H10 H 0.97000 0.61760 0.24930
C13 C 0.8241(6) 0.4876(6) 0.2779(4)
H11 H 0.82770 0.47800 0.21650
C14 C 0.6563(7) 0.1732(6) 0.1196(5)
C15 C 0.7379(7) 0.2518(7) 0.0523(5)
H12 H 0.76380 0.32620 0.06670
C16 C 0.7836(7) 0.2261(8) -0.0364(6)
H13 H 0.83840 0.28260 -0.08100
C17 C 0.7462(9) 0.113(1) -0.0583(7)
H14 H 0.77490 0.09340 -0.11780
C18 C 0.6659(11) 0.0322(8) 0.0107(7)
H15 H 0.64300 -0.04390 -0.00280
C19 C 0.6175(8) 0.0593(7) 0.0997(6)
H16 H 0.56150 0.00410 0.14450
C20 C 0.3313(7) 0.3769(5) 0.0845(5)
C21 C 0.3796(7) 0.3318(6) 0.0017(5)
H17 H 0.47310 0.31610 -0.01810
C22 C 0.2869(10) 0.3101(7) -0.0520(5)
H18 H 0.31910 0.27860 -0.10700
C23 C 0.1491(10) 0.3349(7) -0.0245(6)
H19 H 0.08800 0.32230 -0.06120
C24 C 0.1019(8) 0.3787(7) 0.0581(6)
H20 H 0.00810 0.39230 0.07830
C25 C 0.1927(7) 0.4032(6) 0.1121(5)
H21 H 0.16000 0.43690 0.16620
C26 C 0.4290(7) 0.6446(6) 0.2948(4)
C27 C 0.2940(7) 0.6927(7) 0.3022(4)
H22 H 0.23080 0.64780 0.28490
C28 C 0.2512(8) 0.8056(8) 0.3346(5)
H23 H 0.16010 0.83670 0.33830
C29 C 0.3435(9) 0.8734(6) 0.3620(5)
H24 H 0.31470 0.94980 0.38390
C30 C 0.4763(8) 0.8270(7) 0.3564(5)
H25 H 0.53850 0.87150 0.37510
C31 C 0.5194(7) 0.7149(7) 0.3235(5)
H26 H 0.61070 0.68480 0.32000
C32 C 0.0690(7) 0.2151(6) 0.3805(5)
H27 H 0.03950 0.30320 0.35690
H28 H 0.05220 0.20140 0.44820
C33 C -0.0068(6) 0.1197(6) 0.3463(6)
C34 C 0.0170(7) 0.1048(6) 0.2555(5)
H29 H 0.08320 0.15140 0.21230
C35 C -0.0559(8) 0.0214(8) 0.2268(6)
H30 H -0.04010 0.01320 0.16430
C36 C -0.1512(9) -0.0492(8) 0.2899(8)
H31 H -0.19920 -0.10640 0.27040
C37 C -0.1766(8) -0.0361(8) 0.3819(7)
H32 H -0.24160 -0.08440 0.42480
C38 C -0.1052(7) 0.0489(7) 0.4103(5)
H33 H -0.12280 0.05890 0.47240
N1 N 0.6803(6) 0.2976(5) 0.2384(4)
N2 N 0.3875(5) 0.5027(5) 0.1935(4)
N3 N 0.2875(6) 0.2756(5) 0.3760(4)
O1 O 0.2137(5) 0.1885(4) 0.3436(3)
H34 H 0.765(5) 0.255(4) 0.237(3)
H35 H 0.370(6) 0.592(3) 0.154(3)
#END
