
#######################################################################
#
#                 Cambridge Crystallographic Data Centre
#                                CCDC
#
#######################################################################
#
# If this CIF has been generated from an entry in the Cambridge
# Structural Database, then it will include bibliographic, chemical,
# crystal, experimental, refinement or atomic coordinate data resulting
# from the CCDC's data processing and validation procedures.
#
#######################################################################

data_CSD_CIF_CUHZEM
_audit_creation_date 2015-07-11
_audit_creation_method CSD-ConQuest-V1
_database_code_CSD CUHZEM
_database_code_depnum_ccdc_archive 'CCDC 1038004'
_chemical_formula_sum 'C15 H12 N4 O3'
_chemical_formula_moiety
;
C15 H12 N4 O3
;
_journal_coden_Cambridge 241
_journal_volume 44
_journal_year 2015
_journal_page_first 896
_journal_name_full 'Chem.Lett. '
loop_
_publ_author_name
"Wei Huang"
"Fuxing Shen"
"Dayu Wu"
_chemical_name_systematic
;
3-((4-Nitrobenzylidene)amino)-2,3-dihydroquinazolin-4(1H)-one
;
_cell_volume   1414.098
_exptl_crystal_colour 'light yellow'
_exptl_crystal_density_diffrn 1.392
_exptl_crystal_description 'block'
_diffrn_ambient_temperature 296
#These two values have been output from a single CSD field.
_refine_ls_R_factor_gt 0.0402
_refine_ls_wR_factor_gt 0.0402
_symmetry_cell_setting orthorhombic
_symmetry_space_group_name_H-M 'P n a 21'
_symmetry_Int_Tables_number 33
loop_
_symmetry_equiv_pos_site_id
_symmetry_equiv_pos_as_xyz
1 x,y,z
2 -x,-y,1/2+z
3 1/2+x,1/2-y,z
4 1/2-x,1/2+y,1/2+z
_cell_length_a 19.130(4)
_cell_length_b 11.039(2)
_cell_length_c 6.6963(13)
_cell_angle_alpha 90
_cell_angle_beta 90
_cell_angle_gamma 90
_cell_formula_units_Z 4
loop_
_atom_type_symbol
_atom_type_radius_bond
C 0.68
H 0.23
N 0.68
O 0.68
loop_
_atom_site_label
_atom_site_type_symbol
_atom_site_fract_x
_atom_site_fract_y
_atom_site_fract_z
C1 C 0.38657(15) 0.4051(3) -0.3426(4)
H1 H 0.37200 0.48520 -0.33090
C2 C 0.42832(14) 0.3714(3) -0.5020(5)
H2 H 0.44160 0.42780 -0.59800
C3 C 0.44966(13) 0.2539(2) -0.5155(4)
C4 C 0.43243(14) 0.1689(2) -0.3741(4)
H3 H 0.44870 0.08980 -0.38460
C5 C 0.39051(12) 0.2032(2) -0.2159(4)
H4 H 0.37840 0.14680 -0.11870
C6 C 0.36635(11) 0.32182(19) -0.2013(4)
C7 C 0.32015(12) 0.3616(2) -0.0399(4)
H5 H 0.30760 0.44270 -0.03070
C8 C 0.24233(15) 0.4578(2) 0.2732(4)
H6 H 0.28360 0.50340 0.23550
H7 H 0.20380 0.48460 0.19000
C9 C 0.18406(11) 0.40294(18) 0.5803(4)
C10 C 0.15046(13) 0.4371(2) 0.7575(4)
H8 H 0.15620 0.51520 0.80710
C11 C 0.10934(14) 0.3562(2) 0.8579(4)
H9 H 0.08810 0.37930 0.97690
C12 C 0.09886(14) 0.2394(2) 0.7841(5)
H10 H 0.06990 0.18550 0.85130
C13 C 0.13166(13) 0.2053(2) 0.6121(4)
H11 H 0.12480 0.12750 0.56240
C14 C 0.17505(11) 0.28473(18) 0.5103(3)
C15 C 0.21690(12) 0.24152(18) 0.3408(3)
N1 N 0.49371(14) 0.2166(3) -0.6838(5)
N2 N 0.29692(9) 0.28615(16) 0.0883(3)
N3 N 0.2548(1) 0.32843(15) 0.2406(3)
N4 N 0.22630(11) 0.48024(16) 0.4773(3)
H12 H 0.24340 0.54290 0.53590
O1 O 0.51282(14) 0.1124(2) -0.6940(4)
O2 O 0.51147(17) 0.2957(3) -0.8011(4)
O3 O 0.21962(9) 0.13449(13) 0.2935(3)
#END
