
#######################################################################
#
#                 Cambridge Crystallographic Data Centre
#                                CCDC
#
#######################################################################
#
# If this CIF has been generated from an entry in the Cambridge
# Structural Database, then it will include bibliographic, chemical,
# crystal, experimental, refinement or atomic coordinate data resulting
# from the CCDC's data processing and validation procedures.
#
#######################################################################

data_CSD_CIF_CUKCAM03
_audit_creation_date 1992-11-02
_audit_creation_method CSD-ConQuest-V1
_database_code_CSD CUKCAM03
_database_code_depnum_ccdc_archive 'CCDC 1132977'
_chemical_formula_sum 'C7 H4 N2 O6'
_chemical_formula_moiety
;
C7 H4 N2 O6
;
_journal_coden_Cambridge 109
_journal_volume 64
_journal_year 1991
_journal_page_first 353
_journal_name_full 'Croat.Chem.Acta '
loop_
_publ_author_name
"J.A.Kanters"
"J.Kroon"
"R.Hooft"
"A.Schouten"
"J.A.M.van Schijndel"
"J.Brandsen"
_chemical_name_systematic
;
3,5-Dinitrobenzoic acid
;
_cell_volume    841.562
_exptl_crystal_density_diffrn 1.674
_exptl_special_details
;
P21/c polymorph

;
_diffrn_ambient_temperature ?
_diffrn_special_details
;
The study was carried out at room temperature,in the range 283-303K

;
_refine_special_details
;
H(5) and H(6) are disordered with occupancies of 0.37:0.63.

;
#These two values have been output from a single CSD field.
_refine_ls_R_factor_gt 0.032
_refine_ls_wR_factor_gt 0.032
_symmetry_cell_setting monoclinic
_symmetry_space_group_name_H-M 'P 21/c'
_symmetry_Int_Tables_number 14
loop_
_symmetry_equiv_pos_site_id
_symmetry_equiv_pos_as_xyz
1 x,y,z
2 -x,1/2+y,1/2-z
3 -x,-y,-z
4 x,-1/2-y,-1/2+z
_cell_length_a 10.0237(4)
_cell_length_b 8.8728(3)
_cell_length_c 9.5090(4)
_cell_angle_alpha 90
_cell_angle_beta 95.68(1)
_cell_angle_gamma 90
_cell_formula_units_Z 4
loop_
_atom_type_symbol
_atom_type_radius_bond
C 0.68
H 0.23
N 0.68
O 0.68
loop_
_atom_site_label
_atom_site_type_symbol
_atom_site_fract_x
_atom_site_fract_y
_atom_site_fract_z
O1 O 0.0754(2) 0.6516(2) 0.3760(2)
O2 O -0.0416(2) 0.4804(2) 0.2600(2)
O3 O 0.1879(3) 0.1986(2) -0.0834(3)
O4 O 0.3463(2) 0.3028(2) -0.1831(2)
O5 O 0.4676(2) 0.8258(2) -0.0724(2)
O6 O 0.3919(2) 0.9311(2) 0.1188(2)
N1 N 0.0549(2) 0.5638(2) 0.2777(2)
N2 N 0.2637(2) 0.3028(2) -0.0984(2)
C1 C 0.2297(2) 0.6865(2) 0.1572(2)
C2 C 0.1526(2) 0.5606(2) 0.1719(2)
C3 C 0.1605(2) 0.4329(2) 0.0900(2)
C4 C 0.2523(2) 0.4362(2) -0.0084(2)
C5 C 0.3316(2) 0.5598(2) -0.0299(2)
C6 C 0.3189(2) 0.6859(2) 0.0543(2)
C7 C 0.3992(2) 0.8239(2) 0.0305(2)
H1 H 0.434(4) 1.010(6) 0.100(5)
H2 H 0.2218(2) 0.7765(2) 0.2191(2)
H3 H 0.1027(2) 0.3429(2) 0.1017(2)
H4 H 0.3961(2) 0.5585(2) -0.1036(2)
H5? H 0.512(7) 0.900(9) -0.086(7)
#END
