
#######################################################################
#
#                 Cambridge Crystallographic Data Centre
#                                CCDC
#
#######################################################################
#
# If this CIF has been generated from an entry in the Cambridge
# Structural Database, then it will include bibliographic, chemical,
# crystal, experimental, refinement or atomic coordinate data resulting
# from the CCDC's data processing and validation procedures.
#
#######################################################################

data_CSD_CIF_CUKCAM11
_audit_creation_date 2013-05-26
_audit_creation_method CSD-ConQuest-V1
_database_code_CSD CUKCAM11
_database_code_depnum_ccdc_archive 'CCDC 930130'
_chemical_formula_sum 'C7 H4 N2 O6'
_chemical_formula_moiety
;
C7 H4 N2 O6
;
_journal_coden_Cambridge 1147
_journal_volume 13
_journal_year 2013
_journal_page_first 497
_journal_name_full 'Cryst.Growth Des. '
loop_
_publ_author_name
"A.O.F.Jones"
"N.Blagden"
"G.J.McIntyre"
"A.Parkin"
"C.C.Seaton"
"L.H.Thomas"
"C.C.Wilson"
_chemical_name_systematic
;
3,5-Dinitrobenzoic acid
;
_cell_volume    845.887
_exptl_crystal_colour 'pale yellow'
_exptl_crystal_density_diffrn 1.666
_exptl_special_details
;
P21/c polymorph

;
_exptl_crystal_description 'needle'
_diffrn_ambient_temperature 300
_refine_special_details
;
H41 and H42 disordered over two sites with occupancies 0.64:0.36.

;
#These two values have been output from a single CSD field.
_refine_ls_R_factor_gt 0.0516
_refine_ls_wR_factor_gt 0.0516
_symmetry_cell_setting monoclinic
_symmetry_space_group_name_H-M 'P 21/c'
_symmetry_Int_Tables_number 14
loop_
_symmetry_equiv_pos_site_id
_symmetry_equiv_pos_as_xyz
1 x,y,z
2 -x,1/2+y,1/2-z
3 -x,-y,-z
4 x,-1/2-y,-1/2+z
_cell_length_a 10.0486(12)
_cell_length_b 8.8884(9)
_cell_length_c 9.5167(8)
_cell_angle_alpha 90
_cell_angle_beta 95.634(3)
_cell_angle_gamma 90
_cell_formula_units_Z 4
loop_
_atom_type_symbol
_atom_type_radius_bond
C 0.68
H 0.23
N 0.68
O 0.68
loop_
_atom_site_label
_atom_site_type_symbol
_atom_site_fract_x
_atom_site_fract_y
_atom_site_fract_z
H1 H 0.110(2) -0.060(2) 0.602(2)
H2 H 0.280(2) -0.271(2) 0.290(2)
H3 H 0.392(2) 0.151(3) 0.397(2)
H4 H 0.065(4) -0.513(6) 0.402(4)
O1 O 0.15367(18) 0.19749(19) 0.68296(18)
O2 O 0.03268(18) -0.3259(2) 0.57232(17)
O3 O 0.54126(17) 0.0195(2) 0.2400(2)
O4 O 0.10796(18) -0.4308(2) 0.38165(18)
N1 N 0.44506(18) -0.0641(2) 0.2223(2)
O5 O 0.42459(17) -0.1517(2) 0.12402(18)
N2 N 0.2365(2) 0.1975(2) 0.5982(2)
C1 C 0.1807(2) -0.1859(2) 0.4457(2)
C2 C 0.2699(2) -0.1865(2) 0.3430(2)
O6 O 0.3116(3) 0.3013(2) 0.5834(3)
C3 C 0.1010(2) -0.3237(2) 0.4691(2)
C4 C 0.3394(2) 0.0669(2) 0.4100(2)
C5 C 0.1683(2) -0.0599(2) 0.5293(2)
C6 C 0.2476(2) 0.0638(2) 0.5083(2)
C7 C 0.34720(19) -0.0609(2) 0.3282(2)
H5? H -0.003(8) -0.411(10) 0.578(8)
#END
