
#######################################################################
#
#                 Cambridge Crystallographic Data Centre
#                                CCDC
#
#######################################################################
#
# If this CIF has been generated from an entry in the Cambridge
# Structural Database, then it will include bibliographic, chemical,
# crystal, experimental, refinement or atomic coordinate data resulting
# from the CCDC's data processing and validation procedures.
#
#######################################################################

data_CSD_CIF_CUKCAM22
_audit_creation_date 2013-05-26
_audit_creation_method CSD-ConQuest-V1
_database_code_CSD CUKCAM22
_database_code_depnum_ccdc_archive 'CCDC 930119'
_chemical_formula_sum 'C7 H4 N2 O6'
_chemical_formula_moiety
;
C7 H4 N2 O6
;
_journal_coden_Cambridge 1147
_journal_volume 13
_journal_year 2013
_journal_page_first 497
_journal_name_full 'Cryst.Growth Des. '
loop_
_publ_author_name
"A.O.F.Jones"
"N.Blagden"
"G.J.McIntyre"
"A.Parkin"
"C.C.Seaton"
"L.H.Thomas"
"C.C.Wilson"
_chemical_name_systematic
;
3,5-Dinitrobenzoic acid
;
_cell_volume   1578.429
_exptl_crystal_colour 'pale yellow'
_exptl_crystal_density_diffrn 1.784
_exptl_special_details
;
C2/c polymorph

;
_exptl_crystal_description 'block'
_diffrn_ambient_temperature 20
_diffrn_radiation_probe 'neutron'
#These two values have been output from a single CSD field.
_refine_ls_R_factor_gt 0.0448
_refine_ls_wR_factor_gt 0.0448
_symmetry_cell_setting monoclinic
_symmetry_space_group_name_H-M 'C 2/c'
_symmetry_Int_Tables_number 15
loop_
_symmetry_equiv_pos_site_id
_symmetry_equiv_pos_as_xyz
1 x,y,z
2 -x,y,1/2-z
3 1/2+x,1/2+y,z
4 1/2-x,1/2+y,1/2-z
5 -x,-y,-z
6 x,-y,-1/2+z
7 -1/2-x,-1/2-y,-z
8 -1/2+x,-1/2-y,-1/2+z
_cell_length_a 20.080(5)
_cell_length_b 8.700(5)
_cell_length_c 9.600(5)
_cell_angle_alpha 90
_cell_angle_beta 109.75(1)
_cell_angle_gamma 90
_cell_formula_units_Z 8
loop_
_atom_type_symbol
_atom_type_radius_bond
C 0.68
H 0.23
N 0.68
O 0.68
loop_
_atom_site_label
_atom_site_type_symbol
_atom_site_fract_x
_atom_site_fract_y
_atom_site_fract_z
H1 H 0.05352(16) 0.0614(2) 0.1922(3)
H2 H 0.19727(16) 0.3079(2) 0.5582(3)
H3 H 0.10669(16) 0.5300(2) 0.1381(3)
H4 H 0.22239(16) 0.7725(2) 0.3702(3)
O1 O 0.17283(7) 0.04844(10) 0.60503(13)
O2 O 0.22981(7) 0.58343(10) 0.54986(12)
O3 O 0.03357(7) 0.39627(11) -0.08133(13)
O4 O 0.19432(7) 0.67992(10) 0.32043(12)
N1 N 0.02638(4) 0.29694(6) 0.00126(8)
O5 O -0.01970(8) 0.19911(11) -0.03331(14)
O6 O 0.10573(8) -0.07914(10) 0.41743(13)
N2 N 0.13589(4) 0.03772(6) 0.47533(7)
C1 C 0.08189(6) 0.16569(8) 0.23729(10)
C2 C 0.19726(6) 0.57356(8) 0.41734(11)
C3 C 0.15726(6) 0.43275(8) 0.35341(10)
C4 C 0.12734(6) 0.17369(8) 0.38213(10)
C5 C 0.07539(6) 0.29698(8) 0.15344(10)
C6 C 0.11287(6) 0.42990(8) 0.20690(11)
C7 C 0.16425(6) 0.30489(8) 0.4432(1)
#END
