
#######################################################################
#
#                 Cambridge Crystallographic Data Centre
#                                CCDC
#
#######################################################################
#
# If this CIF has been generated from an entry in the Cambridge
# Structural Database, then it will include bibliographic, chemical,
# crystal, experimental, refinement or atomic coordinate data resulting
# from the CCDC's data processing and validation procedures.
#
#######################################################################

data_CSD_CIF_CUKCER
_audit_creation_date 2010-04-15
_audit_creation_method CSD-ConQuest-V1
_database_code_CSD CUKCER
_database_code_depnum_ccdc_archive 'CCDC 763597'
_chemical_formula_sum 'C8 H12 N6 O2'
_chemical_formula_moiety
;
C8 H12 N6 O2
;
_journal_coeditor_code "IUCr EG3030"
_journal_coden_Cambridge 591
_journal_volume 65
_journal_year 2009
_journal_page_first o598
_journal_name_full 'Acta Crystallogr.,Sect.C:Cryst.Struct.Commun. '
loop_
_publ_author_name
"A.Garcia"
"B.Insuasty"
"J.Cobo"
"C.Glidewell"
_chemical_name_systematic
;
4,6-Diamino-2-morpholino-5-nitrosopyrimidine
;
_chemical_name_common
;
2-(Morpholin-4-yl)-5-nitrosopyrimidine-4,6-diamine
;
_chemical_melting_point 512
_cell_volume    964.196
_exptl_crystal_colour 'red-violet'
_exptl_crystal_density_diffrn 1.545
_exptl_special_details
;
Melts with decomposition.

;
_exptl_crystal_description 'block'
_exptl_crystal_preparation 'dimethylsulfoxide'
_diffrn_ambient_temperature 120
#These two values have been output from a single CSD field.
_refine_ls_R_factor_gt 0.0589
_refine_ls_wR_factor_gt 0.0589
_symmetry_cell_setting monoclinic
_symmetry_space_group_name_H-M 'P 21/c'
_symmetry_Int_Tables_number 14
loop_
_symmetry_equiv_pos_site_id
_symmetry_equiv_pos_as_xyz
1 x,y,z
2 -x,1/2+y,1/2-z
3 -x,-y,-z
4 x,-1/2-y,-1/2+z
_cell_length_a 6.3340(7)
_cell_length_b 19.247(3)
_cell_length_c 8.4472(12)
_cell_angle_alpha 90
_cell_angle_beta 110.562(13)
_cell_angle_gamma 90
_cell_formula_units_Z 4
loop_
_atom_type_symbol
_atom_type_radius_bond
C 0.68
H 0.23
N 0.68
O 0.68
loop_
_atom_site_label
_atom_site_type_symbol
_atom_site_fract_x
_atom_site_fract_y
_atom_site_fract_z
N1 N 0.2606(4) 0.56455(12) 0.5428(3)
C1 C 0.4025(5) 0.61254(15) 0.5196(4)
N2 N 0.6260(4) 0.61796(13) 0.6027(3)
C2 C 0.7193(5) 0.57345(15) 0.7261(4)
C3 C 0.5896(5) 0.52000(15) 0.7663(3)
C4 C 0.3531(5) 0.51857(15) 0.6657(4)
N3 N 0.9360(4) 0.58099(13) 0.8138(3)
H1 H 1.01260 0.61480 0.78900
H2 H 1.00390 0.55220 0.89710
N4 N 0.6995(4) 0.47617(13) 0.8906(3)
O1 O 0.5911(3) 0.42688(11) 0.9292(3)
N5 N 0.2250(4) 0.47077(13) 0.6953(3)
H3 H 0.08030 0.46930 0.63460
H4 H 0.28360 0.44010 0.77610
N6 N 0.3119(4) 0.66174(13) 0.4029(3)
C5 C 0.4502(5) 0.70794(16) 0.3446(4)
H5 H 0.44550 0.69300 0.23120
H6 H 0.60860 0.70540 0.42280
C6 C 0.3685(5) 0.78086(16) 0.3357(4)
H7 H 0.38950 0.79750 0.45110
H8 H 0.45890 0.81090 0.28870
O2 O 0.1358(3) 0.78600(11) 0.2323(3)
C7 C 0.0053(5) 0.74386(17) 0.3003(4)
H9 H -0.15580 0.74830 0.22870
H10 H 0.02280 0.76090 0.41480
C8 C 0.0712(5) 0.66843(16) 0.3111(4)
H11 H -0.01340 0.64200 0.37000
H12 H 0.03330 0.64900 0.19590
#END
