
#######################################################################
#
#                 Cambridge Crystallographic Data Centre
#                                CCDC
#
#######################################################################
#
# If this CIF has been generated from an entry in the Cambridge
# Structural Database, then it will include bibliographic, chemical,
# crystal, experimental, refinement or atomic coordinate data resulting
# from the CCDC's data processing and validation procedures.
#
#######################################################################

data_CSD_CIF_CUKCAM14
_audit_creation_date 2013-05-26
_audit_creation_method CSD-ConQuest-V1
_database_code_CSD CUKCAM14
_database_code_depnum_ccdc_archive 'CCDC 930127'
_chemical_formula_sum 'C7 H4 N2 O6'
_chemical_formula_moiety
;
C7 H4 N2 O6
;
_journal_coden_Cambridge 1147
_journal_volume 13
_journal_year 2013
_journal_page_first 497
_journal_name_full 'Cryst.Growth Des. '
loop_
_publ_author_name
"A.O.F.Jones"
"N.Blagden"
"G.J.McIntyre"
"A.Parkin"
"C.C.Seaton"
"L.H.Thomas"
"C.C.Wilson"
_chemical_name_systematic
;
3,5-Dinitrobenzoic acid
;
_cell_volume   1651.035
_exptl_crystal_colour 'pale yellow'
_exptl_crystal_density_diffrn 1.707
_exptl_special_details
;
C2/c polymorph

;
_exptl_crystal_description 'block'
_diffrn_ambient_temperature 200
_refine_special_details
;
H41 and H42 disordered over two sites with occupancies 0.78:0.22.

;
#These two values have been output from a single CSD field.
_refine_ls_R_factor_gt 0.0314
_refine_ls_wR_factor_gt 0.0314
_symmetry_cell_setting monoclinic
_symmetry_space_group_name_H-M 'C 2/c'
_symmetry_Int_Tables_number 15
loop_
_symmetry_equiv_pos_site_id
_symmetry_equiv_pos_as_xyz
1 x,y,z
2 -x,y,1/2-z
3 1/2+x,1/2+y,z
4 1/2-x,1/2+y,1/2-z
5 -x,-y,-z
6 x,-y,-1/2+z
7 -1/2-x,-1/2-y,-z
8 -1/2+x,-1/2-y,-1/2+z
_cell_length_a 20.6923(18)
_cell_length_b 8.7492(6)
_cell_length_c 9.7407(9)
_cell_angle_alpha 90
_cell_angle_beta 110.570(3)
_cell_angle_gamma 90
_cell_formula_units_Z 8
loop_
_atom_type_symbol
_atom_type_radius_bond
C 0.68
H 0.23
N 0.68
O 0.68
loop_
_atom_site_label
_atom_site_type_symbol
_atom_site_fract_x
_atom_site_fract_y
_atom_site_fract_z
H1 H 0.0574(7) 0.0785(17) 0.1987(15)
H2 H 0.1943(7) 0.3059(16) 0.5423(16)
H3 H 0.1078(7) 0.5169(16) 0.1492(16)
H4 H 0.2192(11) 0.757(3) 0.367(2)
O1 O 0.17193(5) 0.04748(10) 0.6031(1)
O2 O 0.23048(5) 0.58133(10) 0.55058(9)
O3 O 0.03471(5) 0.39890(11) -0.07966(9)
O4 O 0.19485(5) 0.67962(10) 0.32308(9)
N1 N 0.02697(5) 0.30096(12) 0.00278(11)
O5 O -0.01926(5) 0.20562(13) -0.03161(10)
O6 O 0.10307(6) -0.07594(11) 0.41701(12)
N2 N 0.13439(5) 0.03905(11) 0.47444(11)
C1 C 0.08157(6) 0.16884(13) 0.23788(12)
C2 C 0.19777(6) 0.57316(12) 0.41810(12)
C3 C 0.15763(5) 0.43295(12) 0.35406(12)
C4 C 0.12664(6) 0.17559(12) 0.38178(12)
C5 C 0.07596(5) 0.29980(13) 0.15505(11)
C6 C 0.11331(6) 0.43095(12) 0.20831(12)
C7 C 0.16421(6) 0.30502(12) 0.44270(12)
H5? H 0.248(4) 0.674(10) 0.604(9)
#END
