
#######################################################################
#
#                 Cambridge Crystallographic Data Centre
#                                CCDC
#
#######################################################################
#
# If this CIF has been generated from an entry in the Cambridge
# Structural Database, then it will include bibliographic, chemical,
# crystal, experimental, refinement or atomic coordinate data resulting
# from the CCDC's data processing and validation procedures.
#
#######################################################################

data_CSD_CIF_CUKCAM02
_audit_creation_date 1991-09-27
_audit_creation_method CSD-ConQuest-V1
_database_code_CSD CUKCAM02
_database_code_depnum_ccdc_archive 'CCDC 1132976'
_chemical_formula_sum 'C7 H4 N2 O6'
_chemical_formula_moiety
;
C7 H4 N2 O6
;
_journal_coeditor_code "IUCr ST0460"
_journal_coden_Cambridge 591
_journal_volume 47
_journal_year 1991
_journal_page_first 895
_journal_name_full 'Acta Crystallogr.,Sect.C:Cryst.Struct.Commun. '
loop_
_publ_author_name
"P.Prince"
"F.R.Fronczek"
"R.D.Gandour"
_chemical_name_systematic
;
3,5-Dinitrobenzoic acid
;
_chemical_melting_point 485
_cell_volume   1674.353
_exptl_crystal_colour 'yellow'
_exptl_crystal_density_diffrn 1.683
_exptl_special_details
;
Melting point range 485-486K
space group 15 polymorph

;
_diffrn_ambient_temperature ?
_diffrn_special_details
;
The study was carried out at room temperature,in the range 283-303K

;
#These two values have been output from a single CSD field.
_refine_ls_R_factor_gt 0.043
_refine_ls_wR_factor_gt 0.043
_symmetry_cell_setting monoclinic
_symmetry_space_group_name_H-M 'C 2/c'
_symmetry_Int_Tables_number 15
loop_
_symmetry_equiv_pos_site_id
_symmetry_equiv_pos_as_xyz
1 x,y,z
2 1/2+x,1/2+y,z
3 -x,y,1/2-z
4 1/2-x,1/2+y,1/2-z
5 -x,-y,-z
6 -1/2-x,-1/2-y,-z
7 x,-y,-1/2+z
8 -1/2+x,-1/2-y,-1/2+z
_cell_length_a 21.036(2)
_cell_length_b 8.7331(6)
_cell_length_c 9.7659(8)
_cell_angle_alpha 90
_cell_angle_beta 111.051(7)
_cell_angle_gamma 90
_cell_formula_units_Z 8
loop_
_atom_type_symbol
_atom_type_radius_bond
C 0.68
H 0.23
N 0.68
O 0.68
loop_
_atom_site_label
_atom_site_type_symbol
_atom_site_fract_x
_atom_site_fract_y
_atom_site_fract_z
O1 O 0.23089(4) 0.0791(1) 0.5523(1)
O2 O 0.19541(5) 0.1795(1) 0.3265(1)
O3 O 0.10164(6) -0.5737(1) 0.4178(1)
O4 O 0.17147(5) -0.4532(1) 0.6030(1)
O5 O -0.01864(4) -0.2899(2) -0.0304(1)
O6 O 0.03508(5) -0.1006(1) -0.0785(1)
N1 N 0.13366(5) -0.4609(1) 0.4742(1)
N2 N 0.02729(4) -0.1965(1) 0.0035(1)
C1 C 0.15761(4) -0.0676(1) 0.3551(1)
C2 C 0.16413(5) -0.1950(1) 0.4432(1)
C3 C 0.12622(5) -0.3242(1) 0.3831(1)
C4 C 0.08131(5) -0.3298(1) 0.2385(1)
C5 C 0.07605(5) -0.1990(1) 0.1563(1)
C6 C 0.11354(5) -0.0680(1) 0.2090(1)
C7 C 0.19777(5) 0.0730(1) 0.4183(1)
H1 H 0.2306(9) 0.280(3) 0.362(3)
H2 H 0.1975(7) -0.199(2) 0.548(2)
H3 H 0.0542(7) -0.421(2) 0.197(2)
H4 H 0.1105(5) 0.022(2) 0.148(2)
#END
