
#######################################################################
#
#                 Cambridge Crystallographic Data Centre
#                                CCDC
#
#######################################################################
#
# If this CIF has been generated from an entry in the Cambridge
# Structural Database, then it will include bibliographic, chemical,
# crystal, experimental, refinement or atomic coordinate data resulting
# from the CCDC's data processing and validation procedures.
#
#######################################################################

data_CSD_CIF_CUKCAM15
_audit_creation_date 2013-05-26
_audit_creation_method CSD-ConQuest-V1
_database_code_CSD CUKCAM15
_database_code_depnum_ccdc_archive 'CCDC 930126'
_chemical_formula_sum 'C7 H4 N2 O6'
_chemical_formula_moiety
;
C7 H4 N2 O6
;
_journal_coden_Cambridge 1147
_journal_volume 13
_journal_year 2013
_journal_page_first 497
_journal_name_full 'Cryst.Growth Des. '
loop_
_publ_author_name
"A.O.F.Jones"
"N.Blagden"
"G.J.McIntyre"
"A.Parkin"
"C.C.Seaton"
"L.H.Thomas"
"C.C.Wilson"
_chemical_name_systematic
;
3,5-Dinitrobenzoic acid
;
_cell_volume   1624.149
_exptl_crystal_colour 'pale yellow'
_exptl_crystal_density_diffrn 1.735
_exptl_special_details
;
C2/c polymorph

;
_exptl_crystal_description 'block'
_diffrn_ambient_temperature 100
#These two values have been output from a single CSD field.
_refine_ls_R_factor_gt 0.0293
_refine_ls_wR_factor_gt 0.0293
_symmetry_cell_setting monoclinic
_symmetry_space_group_name_H-M 'C 2/c'
_symmetry_Int_Tables_number 15
loop_
_symmetry_equiv_pos_site_id
_symmetry_equiv_pos_as_xyz
1 x,y,z
2 -x,y,1/2-z
3 1/2+x,1/2+y,z
4 1/2-x,1/2+y,1/2-z
5 -x,-y,-z
6 x,-y,-1/2+z
7 -1/2-x,-1/2-y,-z
8 -1/2+x,-1/2-y,-1/2+z
_cell_length_a 20.3727(12)
_cell_length_b 8.7522(4)
_cell_length_c 9.6991(6)
_cell_angle_alpha 90
_cell_angle_beta 110.093(2)
_cell_angle_gamma 90
_cell_formula_units_Z 8
loop_
_atom_type_symbol
_atom_type_radius_bond
C 0.68
H 0.23
N 0.68
O 0.68
loop_
_atom_site_label
_atom_site_type_symbol
_atom_site_fract_x
_atom_site_fract_y
_atom_site_fract_z
H1 H 0.0573(7) 0.0758(16) 0.1973(15)
H2 H 0.1930(7) 0.3071(15) 0.5415(15)
H3 H 0.1079(7) 0.5170(15) 0.1474(15)
H4 H 0.2214(9) 0.760(2) 0.3671(19)
O1 O 0.17253(4) 0.04817(9) 0.60407(8)
O2 O 0.23002(4) 0.58311(8) 0.54980(8)
O3 O 0.03408(4) 0.39741(9) -0.08070(8)
O4 O 0.19446(4) 0.67975(9) 0.32070(8)
N1 N 0.02651(5) 0.29845(10) 0.00163(10)
O5 O -0.01965(4) 0.20115(10) -0.03269(9)
O6 O 0.10474(5) -0.07828(9) 0.41677(9)
N2 N 0.13528(5) 0.03813(10) 0.47463(10)
C1 C 0.08179(5) 0.16685(12) 0.23743(11)
C2 C 0.19753(5) 0.57354(12) 0.41753(11)
C3 C 0.15740(5) 0.43287(11) 0.35326(11)
C4 C 0.12705(5) 0.17475(11) 0.38158(11)
C5 C 0.07579(5) 0.29803(12) 0.15419(11)
C6 C 0.11302(5) 0.43034(12) 0.20735(11)
C7 C 0.16421(5) 0.30515(12) 0.44245(11)
#END
