
#######################################################################
#
#                 Cambridge Crystallographic Data Centre
#                                CCDC
#
#######################################################################
#
# If this CIF has been generated from an entry in the Cambridge
# Structural Database, then it will include bibliographic, chemical,
# crystal, experimental, refinement or atomic coordinate data resulting
# from the CCDC's data processing and validation procedures.
#
#######################################################################

data_CSD_CIF_CUKDOC
_audit_creation_date 2010-04-14
_audit_creation_method CSD-ConQuest-V1
_database_code_CSD CUKDOC
_database_code_depnum_ccdc_archive 'CCDC 763600'
_chemical_formula_sum 'C13 H12 N4 O4'
_chemical_formula_moiety
;
C13 H12 N4 O4
;
_journal_coeditor_code "IUCr LN3134"
_journal_coden_Cambridge 591
_journal_volume 65
_journal_year 2009
_journal_page_first o615
_journal_name_full 'Acta Crystallogr.,Sect.C:Cryst.Struct.Commun. '
loop_
_publ_author_name
"Zhenfeng Zhang"
"Siqian Wang"
"Guisheng Zhang"
_chemical_name_systematic
;
N,N'-bis(3-Nitrophenyl)methanediamine
;
_cell_volume   1270.755
_exptl_crystal_colour 'green'
_exptl_crystal_density_diffrn 1.507
_exptl_crystal_description 'plate'
_exptl_crystal_preparation 'dimethylformamide'
_diffrn_ambient_temperature 291
_refine_special_details
;
The oxygen atoms of the nitro group have elongated thermal ellipsoids; a 
disorder model has not been used.
;
#These two values have been output from a single CSD field.
_refine_ls_R_factor_gt 0.0509
_refine_ls_wR_factor_gt 0.0509
_symmetry_cell_setting monoclinic
_symmetry_space_group_name_H-M 'C 2/c'
_symmetry_Int_Tables_number 15
loop_
_symmetry_equiv_pos_site_id
_symmetry_equiv_pos_as_xyz
1 x,y,z
2 -x,y,1/2-z
3 1/2+x,1/2+y,z
4 1/2-x,1/2+y,1/2-z
5 -x,-y,-z
6 x,-y,-1/2+z
7 -1/2-x,-1/2-y,-z
8 -1/2+x,-1/2-y,-1/2+z
_cell_length_a 24.517(6)
_cell_length_b 4.0505(11)
_cell_length_c 16.222(4)
_cell_angle_alpha 90
_cell_angle_beta 127.924(2)
_cell_angle_gamma 90
_cell_formula_units_Z 4
loop_
_atom_type_symbol
_atom_type_radius_bond
C 0.68
H 0.23
N 0.68
O 0.68
loop_
_atom_site_label
_atom_site_type_symbol
_atom_site_fract_x
_atom_site_fract_y
_atom_site_fract_z
O1 O 0.13852(13) 0.4634(9) 0.05651(17)
O2 O 0.05358(13) 0.7672(8) 0.00700(15)
N1 N 0.10416(11) 0.6162(6) 0.07392(16)
N2 N 0.06157(8) 0.8906(5) 0.32219(12)
H1 H 0.07420 0.86190 0.38430
C1 C 0.12535(10) 0.6099(5) 0.18042(15)
C2 C 0.18713(11) 0.4624(6) 0.25710(18)
H2 H 0.21480 0.36620 0.24260
C3 C 0.20635(11) 0.4637(6) 0.35729(18)
H3 H 0.24800 0.36780 0.41170
C4 C 0.16479(10) 0.6044(6) 0.37706(15)
H4 H 0.17890 0.60160 0.44500
C5 C 0.10170(9) 0.7523(5) 0.29815(14)
C6 C 0.08182(9) 0.7536(5) 0.19725(14)
H5 H 0.04020 0.84890 0.14240
C7 C 0.00000 1.0795(7) 0.25000
H6 H 0.00810 1.22120 0.21030
O1A O -0.13852(13) 0.4634(9) 0.44349(17)
O2A O -0.05358(13) 0.7672(8) 0.49300(15)
N1A N -0.10416(11) 0.6162(6) 0.42608(16)
N2A N -0.06157(8) 0.8906(5) 0.17781(12)
H1A H -0.07420 0.86190 0.11570
C1A C -0.12535(10) 0.6099(5) 0.31958(15)
C2A C -0.18713(11) 0.4624(6) 0.24290(18)
H2A H -0.21480 0.36620 0.25740
C3A C -0.20635(11) 0.4637(6) 0.14271(18)
H3A H -0.24800 0.36780 0.08830
C4A C -0.16479(10) 0.6044(6) 0.12294(15)
H4A H -0.17890 0.60160 0.05500
C5A C -0.10170(9) 0.7523(5) 0.20185(14)
C6A C -0.08182(9) 0.7536(5) 0.30275(14)
H5A H -0.04020 0.84890 0.35760
H6A H -0.00810 1.22120 0.28970
#END
