
#######################################################################
#
#                 Cambridge Crystallographic Data Centre
#                                CCDC
#
#######################################################################
#
# If this CIF has been generated from an entry in the Cambridge
# Structural Database, then it will include bibliographic, chemical,
# crystal, experimental, refinement or atomic coordinate data resulting
# from the CCDC's data processing and validation procedures.
#
#######################################################################

data_CSD_CIF_CUKRUW
_audit_creation_date 2010-07-30
_audit_creation_method CSD-ConQuest-V1
_database_code_CSD CUKRUW
_database_code_depnum_ccdc_archive 'CCDC 743853'
_chemical_formula_sum 'C14 H12 N4 O3'
_chemical_formula_moiety
;
C14 H12 N4 O3
;
_journal_coden_Cambridge 177
_journal_volume 7
_journal_year 2009
_journal_page_first 5063
_journal_name_full 'Org.Biomol.Chem. '
loop_
_publ_author_name
"T.P.Tran"
"N.Patel"
"B.Samas"
"J.B.Schwarz"
_chemical_name_systematic
;
2-Cyclobutyl-5-(4-nitrophenyl)imidazo[5,1-b][1,3,4]oxadiazole
;
_cell_volume    659.378
_exptl_crystal_density_diffrn 1.432
_diffrn_ambient_temperature 298
#These two values have been output from a single CSD field.
_refine_ls_R_factor_gt 0.0422
_refine_ls_wR_factor_gt 0.0422
_symmetry_cell_setting triclinic
_symmetry_space_group_name_H-M 'P -1'
_symmetry_Int_Tables_number 2
loop_
_symmetry_equiv_pos_site_id
_symmetry_equiv_pos_as_xyz
1 x,y,z
2 -x,-y,-z
_cell_length_a 7.0096(2)
_cell_length_b 7.1705(3)
_cell_length_c 13.7650(5)
_cell_angle_alpha 104.930(2)
_cell_angle_beta 92.086(2)
_cell_angle_gamma 98.384(2)
_cell_formula_units_Z 2
loop_
_atom_type_symbol
_atom_type_radius_bond
C 0.68
H 0.23
N 0.68
O 0.68
loop_
_atom_site_label
_atom_site_type_symbol
_atom_site_fract_x
_atom_site_fract_y
_atom_site_fract_z
C1 C 0.0730(3) 0.0520(3) 0.31812(16)
C2 C 0.1807(3) 0.1696(3) 0.40326(16)
H1 H 0.31510 0.19120 0.40590
C3 C 0.0842(3) 0.2547(3) 0.48467(16)
H2 H 0.15470 0.33600 0.54240
C4 C -0.1159(3) 0.2210(3) 0.48181(15)
C5 C -0.2206(3) 0.0976(3) 0.39480(16)
H3 H -0.35490 0.07300 0.39230
C6 C -0.1273(3) 0.0127(3) 0.31319(16)
H4 H -0.19700 -0.06990 0.25550
C7 C -0.2203(3) 0.3100(3) 0.56616(16)
C8 C -0.4510(4) 0.4136(4) 0.65951(19)
H5 H -0.57250 0.43740 0.67940
C9 C -0.2827(3) 0.4737(4) 0.71699(17)
C10 C -0.0063(3) 0.5615(3) 0.80423(16)
C11 C 0.1251(4) 0.6517(4) 0.89533(17)
H6 H 0.04900 0.69190 0.95320
C12 C 0.2856(5) 0.8156(5) 0.8954(2)
H7 H 0.25780 0.94420 0.92900
H8 H 0.33010 0.81260 0.82920
C13 C 0.4144(4) 0.7350(4) 0.9594(2)
H9 H 0.54410 0.73050 0.93760
H10 H 0.41700 0.79510 1.03120
C14 C 0.2785(4) 0.5436(5) 0.9232(2)
H11 H 0.24540 0.48070 0.97620
H12 H 0.32070 0.45290 0.86590
N1 N 0.1730(4) -0.0376(3) 0.23065(15)
N2 N -0.1391(2) 0.4129(2) 0.66069(12)
N3 N -0.4099(3) 0.3104(3) 0.56593(15)
N4 N 0.0389(2) 0.4695(3) 0.71666(13)
O1 O 0.0761(3) -0.1328(3) 0.15407(14)
O2 O 0.3489(3) -0.0152(3) 0.23765(15)
O3 O -0.1995(2) 0.5744(2) 0.81126(11)
#END
