
#######################################################################
#
#                 Cambridge Crystallographic Data Centre
#                                CCDC
#
#######################################################################
#
# If this CIF has been generated from an entry in the Cambridge
# Structural Database, then it will include bibliographic, chemical,
# crystal, experimental, refinement or atomic coordinate data resulting
# from the CCDC's data processing and validation procedures.
#
#######################################################################

data_CSD_CIF_CUKSAD
_audit_creation_date 2010-07-30
_audit_creation_method CSD-ConQuest-V1
_database_code_CSD CUKSAD
_database_code_depnum_ccdc_archive 'CCDC 739741'
_chemical_formula_sum 'C23 H21 N1 O3'
_chemical_formula_moiety
;
C23 H21 N1 O3
;
_journal_coden_Cambridge 177
_journal_volume 7
_journal_year 2009
_journal_page_first 5156
_journal_name_full 'Org.Biomol.Chem. '
loop_
_publ_author_name
"W.B.Jennings"
"N.J.P.McCarthy"
"P.Kelly"
"J.F.Malone"
_chemical_name_systematic
;
Methyl N-(diphenylmethylene)-L-phenylalaninate N-oxide
;
_cell_volume   1876.103
_exptl_crystal_colour 'colorless'
_exptl_crystal_density_diffrn 1.272
_exptl_crystal_description 'blocks'
_diffrn_ambient_temperature 150
#These two values have been output from a single CSD field.
_refine_ls_R_factor_gt 0.031
_refine_ls_wR_factor_gt 0.031
_symmetry_cell_setting orthorhombic
_symmetry_space_group_name_H-M 'P 21 21 21'
_symmetry_Int_Tables_number 19
loop_
_symmetry_equiv_pos_site_id
_symmetry_equiv_pos_as_xyz
1 x,y,z
2 1/2-x,-y,1/2+z
3 -x,1/2+y,1/2-z
4 1/2+x,1/2-y,-z
_cell_length_a 9.729(2)
_cell_length_b 10.168(2)
_cell_length_c 18.965(4)
_cell_angle_alpha 90
_cell_angle_beta 90
_cell_angle_gamma 90
_cell_formula_units_Z 4
loop_
_atom_type_symbol
_atom_type_radius_bond
C 0.68
H 0.23
N 0.68
O 0.68
loop_
_atom_site_label
_atom_site_type_symbol
_atom_site_fract_x
_atom_site_fract_y
_atom_site_fract_z
C1 C 0.22650(13) 0.37661(12) 0.86237(7)
N1 N 0.17639(11) 0.29782(10) 0.91123(5)
O1 O 0.04702(9) 0.28365(9) 0.92451(5)
C2 C 0.37487(13) 0.37488(13) 0.84301(7)
C3 C 0.45220(15) 0.48937(15) 0.84941(7)
H1 H 0.41070 0.56680 0.86760
C4 C 0.58935(17) 0.49147(18) 0.82949(8)
H2 H 0.64170 0.56970 0.83490
C5 C 0.64994(16) 0.38042(19) 0.80181(8)
H3 H 0.74430 0.38160 0.78890
C6 C 0.57301(16) 0.26722(17) 0.79279(7)
H4 H 0.61410 0.19130 0.77260
C7 C 0.43612(16) 0.26408(14) 0.81316(7)
H5 H 0.38380 0.18610 0.80670
C8 C 0.13553(13) 0.46810(12) 0.82373(7)
C9 C 0.02970(15) 0.53659(14) 0.85744(8)
H6 H 0.00970 0.51970 0.90560
C10 C -0.04602(16) 0.62913(15) 0.82043(8)
H7 H -0.11600 0.67750 0.84380
C11 C -0.02046(16) 0.65161(14) 0.74967(8)
H8 H -0.07390 0.71410 0.72450
C12 C 0.08251(16) 0.58341(15) 0.71567(8)
H9 H 0.09900 0.59790 0.66690
C13 C 0.16190(14) 0.49370(13) 0.75263(7)
H10 H 0.23490 0.44920 0.72940
C14 C 0.26543(14) 0.22548(12) 0.96194(7)
H11 H 0.36410 0.24330 0.95070
C15 C 0.23392(14) 0.27313(12) 1.03693(6)
H12 H 0.14320 0.23850 1.05160
H13 H 0.30390 0.23730 1.06960
C16 C 0.23266(14) 0.42103(13) 1.04268(6)
C17 C 0.11536(16) 0.48576(15) 1.06637(8)
H14 H 0.03700 0.43600 1.07990
C18 C 0.1114(2) 0.62166(17) 1.0705(1)
H15 H 0.03050 0.66420 1.08690
C19 C 0.2226(2) 0.69503(16) 1.05116(9)
H16 H 0.21890 0.78830 1.05330
C20 C 0.3403(2) 0.63263(17) 1.02854(9)
H17 H 0.41800 0.68350 1.01520
C21 C 0.34679(17) 0.49621(15) 1.02495(8)
H18 H 0.42930 0.45440 1.01040
C22 C 0.23756(15) 0.07890(13) 0.95563(7)
O2 O 0.22849(18) 0.00744(11) 1.00499(6)
O3 O 0.22842(12) 0.04002(9) 0.88908(5)
C23 C 0.1960(2) -0.09751(15) 0.87739(9)
H19 H 0.11320 -0.12080 0.90400
H20 H 0.27300 -0.15220 0.89320
H21 H 0.17990 -0.11250 0.82700
#END
