
#######################################################################
#
#                 Cambridge Crystallographic Data Centre
#                                CCDC
#
#######################################################################
#
# If this CIF has been generated from an entry in the Cambridge
# Structural Database, then it will include bibliographic, chemical,
# crystal, experimental, refinement or atomic coordinate data resulting
# from the CCDC's data processing and validation procedures.
#
#######################################################################

data_CSD_CIF_CUMTUZ
_audit_creation_date 1985-11-27
_audit_creation_method CSD-ConQuest-V1
_database_code_CSD CUMTUZ
_database_code_depnum_ccdc_archive 'CCDC 1133291'
_chemical_formula_sum 'C19 H18 N4 O3'
_chemical_formula_moiety
;
C19 H18 N4 O3
;
_journal_coden_Cambridge 182
_journal_year 1985
_journal_page_first 625
_journal_name_full 'Chem.Commun. '
loop_
_publ_author_name
"P.H.McCabe"
"N.J.Milne"
"G.A.Sim"
_chemical_name_systematic
;
1,5-Diphenyl-3,7-dinitroso-3,7-diazabicyclo(3.3.1)nonan-9-one
;
_chemical_melting_point 535.15
_cell_volume   1699.121
_exptl_special_details
;
Melting point range 535.15-537.15K

;
_diffrn_ambient_temperature ?
_diffrn_special_details
;
The study was carried out at room temperature,in the range 283-303K

;
#These two values have been output from a single CSD field.
_refine_ls_R_factor_gt 0.051
_refine_ls_wR_factor_gt 0.051
_symmetry_cell_setting orthorhombic
_symmetry_space_group_name_H-M 'P c a 21'
_symmetry_Int_Tables_number 29
loop_
_symmetry_equiv_pos_site_id
_symmetry_equiv_pos_as_xyz
1 x,y,z
2 1/2-x,y,1/2+z
3 1/2+x,-y,z
4 -x,-y,1/2+z
_cell_length_a 17.830(3)
_cell_length_b 10.280(3)
_cell_length_c 9.270(3)
_cell_angle_alpha 90
_cell_angle_beta 90
_cell_angle_gamma 90
_cell_formula_units_Z 4
loop_
_atom_type_symbol
_atom_type_radius_bond
C 0.68
H 0.23
N 0.68
O 0.68
loop_
_atom_site_label
_atom_site_type_symbol
_atom_site_fract_x
_atom_site_fract_y
_atom_site_fract_z
C1 C 0.8456(3) 0.5257(4) 0.1595(6)
C2 C 0.9048(4) 0.5501(6) 0.0408(8)
C3 C 0.9735(3) 0.3474(6) 0.1054(8)
C4 C 0.9159(3) 0.3151(4) 0.2253(7)
C5 C 0.8499(3) 0.2371(5) 0.1582(9)
C6 C 0.7818(3) 0.4413(6) 0.1038(9)
C7 C 0.8843(3) 0.4450(4) 0.2797(8)
C8 C 0.8192(3) 0.6571(5) 0.2117(8)
C9 C 0.7473(5) 0.7036(7) 0.1750(13)
C10 C 0.7276(6) 0.8286(10) 0.2203(19)
C11 C 0.7762(8) 0.9032(8) 0.2983(15)
C12 C 0.8460(6) 0.8602(7) 0.3285(12)
C13 C 0.8666(5) 0.7397(6) 0.2856(9)
C14 C 0.9506(3) 0.2351(5) 0.3455(8)
C15 C 0.9104(4) 0.2100(5) 0.4720(8)
C16 C 0.9384(4) 0.1347(5) 0.5788(9)
C17 C 1.0080(4) 0.0798(6) 0.565(1)
C18 C 1.0489(5) 0.1012(8) 0.4434(11)
C19 C 1.0205(4) 0.1785(6) 0.3343(9)
N1 N 0.9409(2) 0.4299(4) -0.0027(7)
N2 N 0.8074(2) 0.3151(5) 0.0602(7)
N3 N 0.7847(3) 0.2838(6) -0.0781(10)
N4 N 0.9457(3) 0.3836(6) -0.1386(8)
O1 O 0.8885(2) 0.4814(3) 0.4017(6)
O2 O 0.8083(3) 0.1795(5) -0.1081(8)
O3 O 0.9145(3) 0.4543(6) -0.2259(7)
H1 H 0.937(2) 0.609(4) 0.074(5)
H2 H 0.877(3) 0.581(5) -0.039(6)
H3 H 1.015(3) 0.392(5) 0.149(7)
H4 H 0.990(3) 0.279(5) 0.061(6)
H5 H 0.819(3) 0.205(5) 0.237(7)
H6 H 0.871(4) 0.162(7) 0.123(8)
H7 H 0.741(3) 0.433(5) 0.184(6)
H8 H 0.764(4) 0.479(5) 0.035(7)
H9 H 0.721(3) 0.649(5) 0.141(5)
H10 H 0.686(5) 0.854(9) 0.188(12)
H11 H 0.762(4) 0.987(7) 0.313(8)
H12 H 0.883(4) 0.924(8) 0.397(10)
H13 H 0.909(3) 0.705(6) 0.303(7)
H14 H 0.868(5) 0.256(7) 0.486(9)
H15 H 0.898(4) 0.132(6) 0.670(8)
H16 H 1.024(4) 0.014(8) 0.639(9)
H17 H 1.085(4) 0.063(7) 0.440(9)
H18 H 1.053(4) 0.204(7) 0.270(8)
#END
