
#######################################################################
#
#                 Cambridge Crystallographic Data Centre
#                                CCDC
#
#######################################################################
#
# If this CIF has been generated from an entry in the Cambridge
# Structural Database, then it will include bibliographic, chemical,
# crystal, experimental, refinement or atomic coordinate data resulting
# from the CCDC's data processing and validation procedures.
#
#######################################################################

data_CSD_CIF_CUNCOE
_audit_creation_date 2010-08-24
_audit_creation_method CSD-ConQuest-V1
_database_code_CSD CUNCOE
_database_code_depnum_ccdc_archive 'CCDC 701997'
_chemical_formula_sum 'C17 H11 N3 O2'
_chemical_formula_moiety
;
C17 H11 N3 O2
;
_journal_coden_Cambridge 16
_journal_volume 66
_journal_year 2010
_journal_page_first 304
_journal_name_full 'Tetrahedron '
loop_
_publ_author_name
"Xu-Guang Liu"
"Yin Wei"
"Min Shi"
_chemical_name_systematic
;
2-(4-Nitrophenyl)-3-phenylcyclopropane-1,1-dicarbonitrile
;
_cell_volume   1442.011
_exptl_crystal_colour 'colorless'
_exptl_crystal_density_diffrn 1.333
_exptl_crystal_description 'prismatic'
_diffrn_ambient_temperature 293
#These two values have been output from a single CSD field.
_refine_ls_R_factor_gt 0.0513
_refine_ls_wR_factor_gt 0.0513
_symmetry_cell_setting monoclinic
_symmetry_space_group_name_H-M 'P 21/n'
_symmetry_Int_Tables_number 14
loop_
_symmetry_equiv_pos_site_id
_symmetry_equiv_pos_as_xyz
1 x,y,z
2 1/2-x,1/2+y,1/2-z
3 -x,-y,-z
4 -1/2+x,-1/2-y,-1/2+z
_cell_length_a 13.0096(16)
_cell_length_b 7.9046(10)
_cell_length_c 14.1320(18)
_cell_angle_alpha 90
_cell_angle_beta 97.138(2)
_cell_angle_gamma 90
_cell_formula_units_Z 4
loop_
_atom_type_symbol
_atom_type_radius_bond
C 0.68
H 0.23
N 0.68
O 0.68
loop_
_atom_site_label
_atom_site_type_symbol
_atom_site_fract_x
_atom_site_fract_y
_atom_site_fract_z
N1 N -0.19319(14) 0.4906(3) 0.27450(13)
N2 N 0.11902(14) 0.5373(2) 0.19316(13)
N3 N 0.15191(15) 1.2808(2) 0.00744(14)
O1 O 0.09920(13) 1.3756(2) -0.04575(11)
O2 O 0.24469(14) 1.2706(3) 0.01072(16)
C1 C -0.04900(14) 0.8678(2) 0.25901(12)
H1 H -0.12170 0.90040 0.25890
C2 C -0.03131(13) 0.6755(2) 0.26805(12)
C3 C -0.00138(13) 0.7995(2) 0.35192(12)
H2 H 0.07330 0.82050 0.36490
C4 C -0.05427(14) 0.7920(2) 0.43954(13)
C5 C -0.15712(15) 0.8302(3) 0.44052(15)
H3 H -0.19680 0.86390 0.38440
C6 C -0.20239(17) 0.8195(3) 0.52309(16)
H4 H -0.27230 0.84510 0.52230
C7 C -0.14530(17) 0.7716(3) 0.60625(15)
H5 H -0.17610 0.76330 0.66210
C8 C -0.04251(18) 0.7359(3) 0.60680(15)
H6 H -0.00290 0.70540 0.66360
C9 C 0.00299(16) 0.7448(3) 0.52405(14)
H7 H 0.07280 0.71870 0.52520
C10 C 0.00640(13) 0.9735(2) 0.19472(13)
C11 C 0.11263(14) 0.9682(3) 0.19412(14)
H8 H 0.15250 0.89640 0.23600
C12 C 0.16008(14) 1.0677(3) 0.13249(14)
H9 H 0.23130 1.06180 0.13130
C13 C 0.10074(14) 1.1755(2) 0.07296(13)
C14 C -0.00433(14) 1.1868(3) 0.07239(14)
H10 H -0.04330 1.26170 0.03180
C15 C -0.05090(14) 1.0846(3) 0.13324(13)
H11 H -0.12230 1.09020 0.13320
C16 C -0.12184(16) 0.5706(3) 0.27053(13)
C17 C 0.05157(15) 0.5972(3) 0.22468(13)
#END
