
#######################################################################
#
#                 Cambridge Crystallographic Data Centre
#                                CCDC
#
#######################################################################
#
# If this CIF has been generated from an entry in the Cambridge
# Structural Database, then it will include bibliographic, chemical,
# crystal, experimental, refinement or atomic coordinate data resulting
# from the CCDC's data processing and validation procedures.
#
#######################################################################

data_CSD_CIF_CUNNOQ
_audit_creation_date 2015-07-13
_audit_creation_method CSD-ConQuest-V1
_database_code_CSD CUNNOQ
_database_code_depnum_ccdc_archive 'CCDC 1412363'
_chemical_formula_sum 'C25 H28 N4 O2'
_chemical_formula_moiety
;
C25 H28 N4 O2
;
_journal_coden_Cambridge 4
_journal_volume 137
_journal_year 2015
_journal_page_first 7632
_journal_name_full 'J.Am.Chem.Soc. '
loop_
_publ_author_name
"D.H.Miles"
"Joan Guasch"
"F.Dean Toste"
_chemical_name_systematic
;
4-methyl-N-(3-methyl-2-((2-methyl-4-nitrophenyl)hydrazono)-1-phenylbutyl)anili
ne
;
_cell_volume   2236.463
_exptl_crystal_colour 'yellow'
_exptl_crystal_density_diffrn 1.237
_exptl_special_details
;
Absolute configuration

;
_exptl_crystal_description 'prism'
_diffrn_ambient_temperature 100
#These two values have been output from a single CSD field.
_refine_ls_R_factor_gt 0.0284
_refine_ls_wR_factor_gt 0.0284
_symmetry_cell_setting orthorhombic
_symmetry_space_group_name_H-M 'P 21 21 21'
_symmetry_Int_Tables_number 19
loop_
_symmetry_equiv_pos_site_id
_symmetry_equiv_pos_as_xyz
1 x,y,z
2 1/2-x,-y,1/2+z
3 1/2+x,1/2-y,-z
4 -x,1/2+y,1/2-z
_cell_length_a 8.2090(11)
_cell_length_b 9.9163(13)
_cell_length_c 27.474(4)
_cell_angle_alpha 90
_cell_angle_beta 90
_cell_angle_gamma 90
_cell_formula_units_Z 4
loop_
_atom_type_symbol
_atom_type_radius_bond
C 0.68
H 0.23
N 0.68
O 0.68
loop_
_atom_site_label
_atom_site_type_symbol
_atom_site_fract_x
_atom_site_fract_y
_atom_site_fract_z
C1 C 0.5797(2) 0.23285(18) 0.19479(6)
C2 C 0.7273(2) 0.28472(18) 0.21217(6)
H1 H 0.76140 0.37260 0.20290
C3 C 0.8231(2) 0.20801(19) 0.24277(6)
H2 H 0.92340 0.24220 0.25480
C4 C 0.7703(2) 0.07997(18) 0.25567(6)
C5 C 0.6226(2) 0.02822(18) 0.23963(6)
H3 H 0.58930 -0.05940 0.24940
C6 C 0.5243(2) 0.10405(17) 0.20947(6)
C7 C 0.3643(2) 0.0497(2) 0.19124(7)
H4 H 0.34720 -0.04130 0.20420
H5 H 0.36590 0.04620 0.15560
H6 H 0.27560 0.10870 0.20200
C8 C 0.4370(2) 0.49214(18) 0.11732(6)
C9 C 0.2867(2) 0.43052(18) 0.09388(6)
H7 H 0.23410 0.37270 0.11920
C10 C 0.3358(2) 0.3361(2) 0.05181(7)
H8 H 0.38240 0.38950 0.02520
H9 H 0.23940 0.28780 0.04000
H10 H 0.41680 0.27100 0.06340
C11 C 0.1586(2) 0.5319(2) 0.07751(7)
H11 H 0.13240 0.59260 0.10450
H12 H 0.06000 0.48380 0.06730
H13 H 0.20100 0.58450 0.05010
C12 C 0.4971(2) 0.62963(16) 0.10061(6)
H14 H 0.40160 0.69190 0.09840
C13 C 0.5690(2) 0.61122(17) 0.04930(6)
C14 C 0.7094(2) 0.53396(18) 0.04338(6)
H15 H 0.76420 0.49910 0.07110
C15 C 0.7695(2) 0.50779(19) -0.00286(7)
H16 H 0.86520 0.45500 -0.00670
C16 C 0.6900(2) 0.55860(19) -0.04349(6)
H17 H 0.73010 0.53920 -0.07520
C17 C 0.5522(2) 0.63761(19) -0.03787(6)
H18 H 0.49840 0.67330 -0.06560
C18 C 0.4927(2) 0.66465(17) 0.00850(6)
H19 H 0.39910 0.72010 0.01230
C19 C 0.6893(2) 0.80734(17) 0.12797(6)
C20 C 0.8269(2) 0.84037(19) 0.15539(6)
H20 H 0.86890 0.77720 0.17810
C21 C 0.9027(2) 0.9640(2) 0.14983(6)
H21 H 0.99600 0.98390 0.16900
C22 C 0.8460(2) 1.06008(19) 0.11689(6)
C23 C 0.7093(2) 1.02631(18) 0.08979(6)
H22 H 0.66770 1.08990 0.06710
C24 C 0.6314(2) 0.90293(18) 0.09467(6)
H23 H 0.53840 0.88320 0.07530
C25 C 0.9321(3) 1.1921(2) 0.10942(8)
H24 H 1.00210 1.18610 0.08060
H25 H 0.99890 1.21250 0.13810
H26 H 0.85160 1.26390 0.10470
N1 N 0.87733(19) -0.00498(17) 0.28419(6)
N2 N 0.48646(19) 0.30250(15) 0.16157(5)
H27 H 0.39940 0.26450 0.14890
N3 N 0.52913(18) 0.43140(14) 0.14813(5)
N4 N 0.61181(19) 0.68438(15) 0.13551(5)
H28 H 0.63300 0.63860 0.16220
O1 O 1.00496(19) 0.04281(16) 0.30040(6)
O2 O 0.83768(17) -0.12399(14) 0.29101(5)
#END
