
#######################################################################
#
#                 Cambridge Crystallographic Data Centre
#                                CCDC
#
#######################################################################
#
# If this CIF has been generated from an entry in the Cambridge
# Structural Database, then it will include bibliographic, chemical,
# crystal, experimental, refinement or atomic coordinate data resulting
# from the CCDC's data processing and validation procedures.
#
#######################################################################

data_CSD_CIF_CUNTUA
_audit_creation_date 1985-11-27
_audit_creation_method CSD-ConQuest-V1
_database_code_CSD CUNTUA
_chemical_formula_sum 'C16 H16 N6 O4'
_chemical_formula_moiety
;
C16 H16 N6 O4
;
_journal_coeditor_code "IUCr A24689"
_journal_coden_Cambridge 591
_journal_volume 41
_journal_year 1985
_journal_page_first 589
_journal_name_full 'Acta Crystallogr.,Sect.C:Cryst.Struct.Commun. '
loop_
_publ_author_name
"G.R.Willey"
"M.G.B.Drew"
_chemical_name_systematic
;
(E,E)-2,3-Butanedione-bis(2'-nitrophenylhydrazone)
;
_chemical_melting_point 577
_cell_volume    799.360
_exptl_crystal_colour 'dark red-brown'
_exptl_crystal_density_diffrn 1.48
_exptl_special_details
;
Melting point range 577-578K

;
_diffrn_ambient_temperature ?
_diffrn_special_details
;
The study was carried out at room temperature,in the range 283-303K

;
#These two values have been output from a single CSD field.
_refine_ls_R_factor_gt 0.091
_refine_ls_wR_factor_gt 0.091
_symmetry_cell_setting monoclinic
_symmetry_space_group_name_H-M 'P 21/n'
_symmetry_Int_Tables_number 14
loop_
_symmetry_equiv_pos_site_id
_symmetry_equiv_pos_as_xyz
1 x,y,z
2 1/2-x,1/2+y,1/2-z
3 -x,-y,-z
4 -1/2+x,-1/2-y,-1/2+z
_cell_length_a 6.078(5)
_cell_length_b 5.122(5)
_cell_length_c 25.800(7)
_cell_angle_alpha 90
_cell_angle_beta 95.6(1)
_cell_angle_gamma 90
_cell_formula_units_Z 2
loop_
_atom_type_symbol
_atom_type_radius_bond
C 0.68
H 0.23
N 0.68
O 0.68
loop_
_atom_site_label
_atom_site_type_symbol
_atom_site_fract_x
_atom_site_fract_y
_atom_site_fract_z
C1 C 0.4278(23) 0.4605(24) 0.2877(5)
C2 C 0.5702(21) 0.2624(24) 0.3050(4)
C3 C 0.5281(20) 0.1097(22) 0.3486(5)
C4 C 0.3425(19) 0.1579(22) 0.3763(5)
C5 C 0.2055(19) 0.3682(22) 0.3574(5)
C6 C 0.2497(21) 0.5092(25) 0.3148(5)
N1 N 0.2949(19) 0.0247(21) 0.4177(4)
N2 N 0.1239(17) 0.0957(18) 0.4455(4)
C7 C 0.0917(18) -0.0416(20) 0.4856(4)
N3 N 0.6873(19) -0.095(2) 0.3626(4)
O1 O 0.6564(15) -0.2267(16) 0.4018(3)
O2 O 0.8396(14) -0.1300(19) 0.3365(4)
C8 C 0.2307(20) -0.2756(23) 0.5036(5)
H1 H 0.45290 0.55880 0.25760
H2 H 0.69790 0.22870 0.28760
H3 H 0.07900 0.41060 0.37460
H4 H 0.15330 0.64850 0.30360
H5 H 0.368(15) -0.070(18) 0.4315(35)
H6 H 0.17760 -0.33010 0.53530
H7 H 0.38700 -0.25770 0.50850
H8 H 0.19230 -0.40190 0.47730
C7B C -0.0917(18) 0.0416(20) 0.5144(4)
N2B N -0.1239(17) -0.0957(18) 0.5545(4)
C8B C -0.2307(20) 0.2756(23) 0.4964(5)
N1B N -0.2949(19) -0.0247(21) 0.5823(4)
H6B H -0.17760 0.33010 0.46470
H7B H -0.38700 0.25770 0.49150
H8B H -0.19230 0.40190 0.52270
C4B C -0.3425(19) -0.1579(22) 0.6237(5)
H5B H -0.368(15) 0.070(18) 0.5685(35)
C3B C -0.5281(20) -0.1097(22) 0.6514(5)
C5B C -0.2055(19) -0.3682(22) 0.6426(5)
C2B C -0.5702(21) -0.2624(24) 0.6950(4)
N3B N -0.6873(19) 0.095(2) 0.6374(4)
C6B C -0.2497(21) -0.5092(25) 0.6852(5)
H3B H -0.07900 -0.41060 0.62540
C1B C -0.4278(23) -0.4605(24) 0.7123(5)
H2B H -0.69790 -0.22870 0.71240
O1B O -0.6564(15) 0.2267(16) 0.5982(3)
O2B O -0.8396(14) 0.1300(19) 0.6635(4)
H4B H -0.15330 -0.64850 0.69640
H1B H -0.45290 -0.55880 0.74240
#END
