
#######################################################################
#
#                 Cambridge Crystallographic Data Centre
#                                CCDC
#
#######################################################################
#
# If this CIF has been generated from an entry in the Cambridge
# Structural Database, then it will include bibliographic, chemical,
# crystal, experimental, refinement or atomic coordinate data resulting
# from the CCDC's data processing and validation procedures.
#
#######################################################################

data_CSD_CIF_CUNTOU
_audit_creation_date 1985-11-27
_audit_creation_method CSD-ConQuest-V1
_database_code_CSD CUNTOU
_chemical_formula_sum 'C10 H11 N3 O3'
_chemical_formula_moiety
;
C10 H11 N3 O3
;
_journal_coeditor_code "IUCr A24689"
_journal_coden_Cambridge 591
_journal_volume 41
_journal_year 1985
_journal_page_first 589
_journal_name_full 'Acta Crystallogr.,Sect.C:Cryst.Struct.Commun. '
loop_
_publ_author_name
"G.R.Willey"
"M.G.B.Drew"
_chemical_name_systematic
;
(E)-2,3-Butanedione-2'-nitrophenylhydrazone
;
_chemical_melting_point 443
_cell_volume   1077.330
_exptl_crystal_colour 'orange'
_exptl_crystal_density_diffrn 1.36
_exptl_special_details
;
Melting point range 443-444K

;
_diffrn_ambient_temperature ?
_diffrn_special_details
;
The study was carried out at room temperature,in the range 283-303K

;
#These two values have been output from a single CSD field.
_refine_ls_R_factor_gt 0.061
_refine_ls_wR_factor_gt 0.061
_symmetry_cell_setting orthorhombic
_symmetry_space_group_name_H-M 'P m n b'
_symmetry_Int_Tables_number 62
loop_
_symmetry_equiv_pos_site_id
_symmetry_equiv_pos_as_xyz
1 x,y,z
2 1/2-x,y,z
3 1/2+x,1/2-y,1/2+z
4 -x,1/2-y,1/2+z
5 -x,-y,-z
6 -1/2+x,-y,-z
7 -1/2-x,-1/2+y,-1/2-z
8 x,-1/2+y,-1/2-z
_cell_length_a 6.730(7)
_cell_length_b 11.305(11)
_cell_length_c 14.160(15)
_cell_angle_alpha 90
_cell_angle_beta 90
_cell_angle_gamma 90
_cell_formula_units_Z 4
loop_
_atom_type_symbol
_atom_type_radius_bond
C 0.68
H 0.23
N 0.68
O 0.68
loop_
_atom_site_label
_atom_site_type_symbol
_atom_site_fract_x
_atom_site_fract_y
_atom_site_fract_z
C1 C 0.75000 0.6974(5) -0.1172(4)
C2 C 0.75000 0.7074(5) -0.0212(4)
C3 C 0.75000 0.6064(4) 0.0354(4)
C4 C 0.75000 0.4927(5) -0.0042(4)
C5 C 0.75000 0.4856(4) -0.1030(3)
C6 C 0.75000 0.5860(5) -0.1573(4)
N1 N 0.75000 0.3924(3) 0.0492(3)
N2 N 0.75000 0.2869(3) 0.0070(3)
C7 C 0.75000 0.1945(4) 0.0591(4)
C8 C 0.75000 0.0812(5) 0.0067(5)
O1 O 0.75000 -0.0094(4) 0.0521(4)
C9 C 0.75000 0.1925(5) 0.1644(5)
C10 C 0.75000 0.0822(7) -0.0975(6)
N3 N 0.75000 0.6244(4) 0.1353(3)
O2 O 0.75000 0.5424(4) 0.1904(3)
O3 O 0.75000 0.7250(4) 0.1644(4)
H1 H 0.75000 0.76600 -0.15600
H2 H 0.75000 0.78340 0.00740
H3 H 0.75000 0.41030 -0.13290
H4 H 0.75000 0.57890 -0.22420
H5 H 0.75000 0.3979(37) 0.1105(38)
H6 H 0.75000 0.11940 0.18990
H7 H 0.84810 0.24130 0.18900
H8 H 0.75000 0.00670 -0.12360
H9 H 0.87520 0.12050 -0.12030
H7A H 0.65190 0.24130 0.18900
H9A H 0.62480 0.12050 -0.12030
#END
