
#######################################################################
#
#                 Cambridge Crystallographic Data Centre
#                                CCDC
#
#######################################################################
#
# If this CIF has been generated from an entry in the Cambridge
# Structural Database, then it will include bibliographic, chemical,
# crystal, experimental, refinement or atomic coordinate data resulting
# from the CCDC's data processing and validation procedures.
#
#######################################################################

data_CSD_CIF_CUNWEN
_audit_creation_date 1985-11-27
_audit_creation_method CSD-ConQuest-V1
_database_code_CSD CUNWEN
_chemical_formula_sum 'C12 H10 N4 O8'
_chemical_formula_moiety
;
C12 H10 N4 O8
;
_journal_coeditor_code "IUCr A24688"
_journal_coden_Cambridge 591
_journal_volume 41
_journal_year 1985
_journal_page_first 586
_journal_name_full 'Acta Crystallogr.,Sect.C:Cryst.Struct.Commun. '
loop_
_publ_author_name
"B.Vickery"
"G.R.Willey"
"M.G.B.Drew"
_chemical_name_systematic
;
2,2-Dimethyl-1,3-dioxane-4,5,6-trione 5-(2,4-dinitrophenylhydrazone)
;
_cell_volume   1474.419
_exptl_crystal_density_diffrn 1.32
_exptl_special_details
;
fw quoted as 241.25; we get as 338.24. dx reported as 1.32; we calculate 1.52

;
_diffrn_ambient_temperature ?
_diffrn_special_details
;
The study was carried out at room temperature,in the range 283-303K

;
#These two values have been output from a single CSD field.
_refine_ls_R_factor_gt 0.072
_refine_ls_wR_factor_gt 0.072
_symmetry_cell_setting monoclinic
_symmetry_space_group_name_H-M 'P 21/c'
_symmetry_Int_Tables_number 14
loop_
_symmetry_equiv_pos_site_id
_symmetry_equiv_pos_as_xyz
1 x,y,z
2 -x,1/2+y,1/2-z
3 -x,-y,-z
4 x,-1/2-y,-1/2+z
_cell_length_a 14.236(12)
_cell_length_b 5.220(5)
_cell_length_c 20.111(15)
_cell_angle_alpha 90
_cell_angle_beta 99.4(1)
_cell_angle_gamma 90
_cell_formula_units_Z 4
loop_
_atom_type_symbol
_atom_type_radius_bond
C 0.68
H 0.23
N 0.68
O 0.68
loop_
_atom_site_label
_atom_site_type_symbol
_atom_site_fract_x
_atom_site_fract_y
_atom_site_fract_z
C1 C 0.2346(5) -0.1750(17) 0.6434(4)
C2 C 0.2712(4) 0.0245(17) 0.6830(4)
C3 C 0.3604(4) 0.1155(13) 0.6761(3)
C4 C 0.4150(4) -0.0067(13) 0.6309(3)
C5 C 0.3733(5) -0.2055(17) 0.5934(4)
C6 C 0.2845(5) -0.2921(15) 0.5985(4)
N1 N 0.5050(4) 0.0817(12) 0.6248(3)
N2 N 0.5544(4) -0.0591(12) 0.5875(3)
C7 C 0.6417(4) 0.0168(14) 0.5847(3)
C8 C 0.6912(5) 0.2348(18) 0.6188(4)
O1 O 0.6531(4) 0.3973(10) 0.6477(3)
O2 O 0.7831(3) 0.2586(11) 0.6119(3)
C9 C 0.8351(5) 0.0390(15) 0.5976(4)
C10 C 0.9249(6) 0.1358(23) 0.5730(7)
C11 C 0.8546(5) -0.1281(20) 0.6584(4)
C12 C 0.6890(5) -0.1485(17) 0.5401(4)
O3 O 0.6508(4) -0.3127(11) 0.5030(3)
O4 O 0.7817(3) -0.0966(12) 0.5412(3)
N3 N 0.1410(5) -0.2700(16) 0.6533(5)
O5 O 0.1007(5) -0.1753(18) 0.6950(4)
O6 O 0.1097(5) -0.4553(22) 0.6178(5)
N4 N 0.3948(4) 0.3325(12) 0.7168(3)
O7 O 0.4714(4) 0.4309(11) 0.7122(3)
O8 O 0.3432(4) 0.4191(13) 0.7554(3)
H1 H 0.25700 -0.42950 0.57100
H2 H 0.40760 -0.28980 0.56270
H3 H 0.23660 0.09640 0.71500
H4 H 0.5350(32) 0.2316(95) 0.6449(29)
H5 H 0.97090 0.04530 0.55280
H6 H 0.95630 0.25290 0.60540
H7 H 0.88360 0.22710 0.53930
H8 H 0.89620 -0.26560 0.65270
H9 H 0.80090 -0.19200 0.67570
H10 H 0.88710 -0.00670 0.68900
#END
