
#######################################################################
#
#                 Cambridge Crystallographic Data Centre
#                                CCDC
#
#######################################################################
#
# If this CIF has been generated from an entry in the Cambridge
# Structural Database, then it will include bibliographic, chemical,
# crystal, experimental, refinement or atomic coordinate data resulting
# from the CCDC's data processing and validation procedures.
#
#######################################################################

data_CSD_CIF_CUPBAR
_audit_creation_date 2010-07-30
_audit_creation_method CSD-ConQuest-V1
_database_code_CSD CUPBAR
_database_code_depnum_ccdc_archive 'CCDC 716964'
_chemical_formula_sum 'C18 H25 N3 O2'
_chemical_formula_moiety
;
C18 H25 N3 O2
;
_journal_coden_Cambridge 24
_journal_volume 50
_journal_year 2009
_journal_page_first 7246
_journal_name_full 'Tetrahedron Lett. '
loop_
_publ_author_name
"M.Adib"
"M.Mahdavi"
"S.Ansari"
"F.Malihi"
"Long-Guan Zhu"
"H.R.Bijanzadeh"
_chemical_name_systematic
;
N-t-Butyl-5-(t-butylamino)-4-phenyl-1,2-oxazole-3-carboxamide
;
_cell_volume   1805.570
_exptl_crystal_density_diffrn 1.16
_diffrn_ambient_temperature 293
#These two values have been output from a single CSD field.
_refine_ls_R_factor_gt 0.0482
_refine_ls_wR_factor_gt 0.0482
_symmetry_cell_setting monoclinic
_symmetry_space_group_name_H-M 'P 21/n'
_symmetry_Int_Tables_number 14
loop_
_symmetry_equiv_pos_site_id
_symmetry_equiv_pos_as_xyz
1 x,y,z
2 1/2-x,1/2+y,1/2-z
3 -x,-y,-z
4 -1/2+x,-1/2-y,-1/2+z
_cell_length_a 10.3226(12)
_cell_length_b 15.1764(18)
_cell_length_c 12.1519(14)
_cell_angle_alpha 90
_cell_angle_beta 108.478(2)
_cell_angle_gamma 90
_cell_formula_units_Z 4
loop_
_atom_type_symbol
_atom_type_radius_bond
C 0.68
H 0.23
N 0.68
O 0.68
loop_
_atom_site_label
_atom_site_type_symbol
_atom_site_fract_x
_atom_site_fract_y
_atom_site_fract_z
O1 O 0.47684(17) 0.15208(12) 0.24623(15)
O2 O 0.67660(14) 0.25024(10) -0.00302(12)
N1 N 0.51571(16) 0.25027(11) -0.18302(14)
H1 H 0.43010 0.25090 -0.22180
C1 C 0.35188(18) 0.13438(12) -0.04400(16)
C2 C 0.58484(19) 0.17595(13) 0.10401(16)
C3 C 0.5741(2) 0.13615(14) 0.21425(17)
N2 N 0.67885(17) 0.08505(11) 0.27005(13)
H2 H 0.74390 0.08090 0.24030
C4 C 0.2392(2) 0.17412(14) -0.12097(17)
H3 H 0.24880 0.22880 -0.15210
C5 C 0.48668(18) 0.17759(11) -0.00669(16)
N3 N 0.69833(17) 0.21763(12) 0.11117(14)
C6 C 0.55104(18) 0.22499(12) -0.07118(16)
C7 C 0.61266(19) 0.27718(13) -0.24495(17)
C8 C 0.3336(2) 0.05224(13) 0.00081(19)
H4 H 0.40800 0.02370 0.05240
C9 C 0.6954(2) 0.03485(14) 0.37728(17)
C10 C 0.0960(3) 0.05377(18) -0.1067(2)
H5 H 0.01050 0.02720 -0.12720
C11 C 0.6748(2) 0.36730(14) -0.2013(2)
H6 H 0.72720 0.36310 -0.12060
H7 H 0.60290 0.40970 -0.21100
H8 H 0.73300 0.38560 -0.24490
C12 C 0.5298(2) 0.28358(16) -0.37214(18)
H9 H 0.49080 0.22710 -0.39930
H10 H 0.58800 0.30170 -0.41590
H11 H 0.45800 0.32600 -0.38190
C13 C 0.1121(2) 0.13435(17) -0.1528(2)
H12 H 0.03750 0.16200 -0.20540
C14 C 0.2068(3) 0.01293(16) -0.0305(2)
H13 H 0.19630 -0.04170 0.00040
C15 C 0.7251(2) 0.20847(15) -0.2288(2)
H14 H 0.77750 0.20450 -0.14810
H15 H 0.78380 0.22550 -0.27260
H16 H 0.68480 0.15220 -0.25550
C16 C 0.7011(4) 0.0960(2) 0.4752(2)
H17 H 0.61600 0.12710 0.45840
H18 H 0.77410 0.13740 0.48480
H19 H 0.71660 0.06260 0.54540
C17 C 0.8269(4) -0.0162(3) 0.4007(3)
H20 H 0.90210 0.02410 0.41540
H21 H 0.82280 -0.05190 0.33440
H22 H 0.83940 -0.05340 0.46710
C18 C 0.5787(4) -0.0290(2) 0.3577(3)
H23 H 0.57670 -0.06770 0.29470
H24 H 0.49430 0.00300 0.33910
H25 H 0.59070 -0.06300 0.42680
#END
