
#######################################################################
#
#                 Cambridge Crystallographic Data Centre
#                                CCDC
#
#######################################################################
#
# If this CIF has been generated from an entry in the Cambridge
# Structural Database, then it will include bibliographic, chemical,
# crystal, experimental, refinement or atomic coordinate data resulting
# from the CCDC's data processing and validation procedures.
#
#######################################################################

data_CSD_CIF_CUPKUV
_audit_creation_date 2015-07-13
_audit_creation_method CSD-ConQuest-V1
_database_code_CSD CUPKUV
_database_code_depnum_ccdc_archive 'CCDC 934417'
_chemical_formula_sum 'C24 H20 N2 O4'
_chemical_formula_moiety
;
C24 H20 N2 O4
;
_journal_coden_Cambridge 1500
_journal_volume 5
_journal_year 2015
_journal_page_first 60054
_journal_name_full 'RSC Advances '
loop_
_publ_author_name
"M.Miliutina"
"A.Ivanov"
"S.A.Ejaz"
"J.Iqbal"
"A.Villinger"
"V.O.Iaroshenko"
"P.Langer"
_chemical_name_systematic
;
1-(4-methoxybenzyl)-2-(4-methylphenyl)-6-nitroquinolin-4(1H)-one
;
_chemical_name_common
;
1-(4-Methoxybenzyl)-6-nitro-2-(4-tolyl)quinolin-4(1H)-one
;
_cell_volume   1994.291
_exptl_crystal_colour 'colorless'
_exptl_crystal_density_diffrn 1.334
_exptl_crystal_description 'block'
_diffrn_ambient_temperature 173
#These two values have been output from a single CSD field.
_refine_ls_R_factor_gt 0.0505
_refine_ls_wR_factor_gt 0.0505
_symmetry_cell_setting monoclinic
_symmetry_space_group_name_H-M 'P 21/c'
_symmetry_Int_Tables_number 14
loop_
_symmetry_equiv_pos_site_id
_symmetry_equiv_pos_as_xyz
1 x,y,z
2 -x,1/2+y,1/2-z
3 -x,-y,-z
4 x,-1/2-y,-1/2+z
_cell_length_a 10.4745(6)
_cell_length_b 10.6976(6)
_cell_length_c 17.8031(11)
_cell_angle_alpha 90
_cell_angle_beta 91.384(3)
_cell_angle_gamma 90
_cell_formula_units_Z 4
loop_
_atom_type_symbol
_atom_type_radius_bond
C 0.68
H 0.23
N 0.68
O 0.68
loop_
_atom_site_label
_atom_site_type_symbol
_atom_site_fract_x
_atom_site_fract_y
_atom_site_fract_z
O1 O -0.06564(14) 0.69885(13) -0.08405(7)
O2 O -0.40772(17) 0.39905(16) -0.04269(10)
O3 O -0.4259(2) 0.3115(2) 0.06566(11)
O4 O 0.32808(13) 0.32583(13) 0.36684(8)
N1 N 0.01068(15) 0.69647(14) 0.14363(8)
N2 N -0.37626(19) 0.38631(19) 0.02365(12)
C1 C -0.04252(19) 0.69933(18) -0.01523(11)
C2 C -0.11168(18) 0.61799(16) 0.03636(10)
C3 C -0.08279(18) 0.61745(17) 0.11391(10)
C4 C 0.07625(18) 0.77500(17) 0.09638(10)
C5 C 0.05084(19) 0.77687(18) 0.02122(10)
H1 H 0.09790 0.83300 -0.00880
C6 C -0.20877(19) 0.54154(18) 0.00736(11)
H2 H -0.22930 0.54230 -0.04490
C7 C -0.27406(19) 0.46568(19) 0.05457(12)
C8 C -0.24525(19) 0.4611(2) 0.13094(11)
H3 H -0.29100 0.40620 0.16250
C9 C -0.15109(19) 0.53559(19) 0.16071(11)
H4 H -0.13130 0.53240 0.21300
C10 C 0.02997(19) 0.70494(18) 0.22574(10)
H5 H -0.05450 0.70120 0.24940
H6 H 0.06780 0.78750 0.23790
C11 C 0.11412(18) 0.60483(17) 0.26046(10)
C12 C 0.15097(18) 0.49707(18) 0.22344(11)
H7 H 0.12630 0.48500 0.17230
C13 C 0.22336(18) 0.40713(18) 0.26050(11)
H8 H 0.24870 0.33420 0.23430
C14 C 0.25925(18) 0.42199(18) 0.33501(11)
C15 C 0.22540(19) 0.53016(19) 0.37241(11)
H9 H 0.25110 0.54240 0.42340
C16 C 0.1536(2) 0.62040(19) 0.33464(11)
H10 H 0.13100 0.69470 0.36030
C17 C 0.3719(2) 0.3413(2) 0.44284(13)
H11 H 0.42830 0.41430 0.44640
H12 H 0.41890 0.26650 0.45910
H13 H 0.29850 0.35380 0.47510
C18 C 0.17549(18) 0.86079(18) 0.12828(10)
C19 C 0.28640(19) 0.81715(19) 0.16440(11)
H14 H 0.29870 0.72990 0.17130
C20 C 0.37844(19) 0.90034(19) 0.19018(11)
H15 H 0.45340 0.86900 0.21460
C21 C 0.36412(19) 1.02849(19) 0.18126(11)
C22 C 0.25434(19) 1.07124(19) 0.14347(11)
H16 H 0.24310 1.15840 0.13560
C23 C 0.16173(19) 0.98918(18) 0.11728(10)
H17 H 0.08800 1.02050 0.09150
C24 C 0.4616(2) 1.1191(2) 0.21348(13)
H18 H 0.47390 1.18770 0.17790
H19 H 0.54280 1.07560 0.22250
H20 H 0.43120 1.15280 0.26100
#END
