
#######################################################################
#
#                 Cambridge Crystallographic Data Centre
#                                CCDC
#
#######################################################################
#
# If this CIF has been generated from an entry in the Cambridge
# Structural Database, then it will include bibliographic, chemical,
# crystal, experimental, refinement or atomic coordinate data resulting
# from the CCDC's data processing and validation procedures.
#
#######################################################################

data_CSD_CIF_CUPLAC
_audit_creation_date 2015-07-13
_audit_creation_method CSD-ConQuest-V1
_database_code_CSD CUPLAC
_database_code_depnum_ccdc_archive 'CCDC 934415'
_chemical_formula_sum 'C24 H20 N2 O3'
_chemical_formula_moiety
;
C24 H20 N2 O3
;
_journal_coden_Cambridge 1500
_journal_volume 5
_journal_year 2015
_journal_page_first 60054
_journal_name_full 'RSC Advances '
loop_
_publ_author_name
"M.Miliutina"
"A.Ivanov"
"S.A.Ejaz"
"J.Iqbal"
"A.Villinger"
"V.O.Iaroshenko"
"P.Langer"
_chemical_name_systematic
;
6-nitro-2-phenyl-1-(3-phenylpropyl)quinolin-4(1H)-one
;
_cell_volume   3874.819
_exptl_crystal_colour 'colorless'
_exptl_crystal_density_diffrn 1.318
_exptl_crystal_description 'block'
_diffrn_ambient_temperature 173
#These two values have been output from a single CSD field.
_refine_ls_R_factor_gt 0.0493
_refine_ls_wR_factor_gt 0.0493
_symmetry_cell_setting orthorhombic
_symmetry_space_group_name_H-M 'P b c a'
_symmetry_Int_Tables_number 61
loop_
_symmetry_equiv_pos_site_id
_symmetry_equiv_pos_as_xyz
1 x,y,z
2 1/2-x,-y,1/2+z
3 -x,1/2+y,1/2-z
4 1/2+x,1/2-y,-z
5 -x,-y,-z
6 -1/2+x,y,-1/2-z
7 x,-1/2-y,-1/2+z
8 -1/2-x,-1/2+y,z
_cell_length_a 10.4213(5)
_cell_length_b 15.0974(8)
_cell_length_c 24.6279(14)
_cell_angle_alpha 90
_cell_angle_beta 90
_cell_angle_gamma 90
_cell_formula_units_Z 8
loop_
_atom_type_symbol
_atom_type_radius_bond
C 0.68
H 0.23
N 0.68
O 0.68
loop_
_atom_site_label
_atom_site_type_symbol
_atom_site_fract_x
_atom_site_fract_y
_atom_site_fract_z
N1 N 0.67231(9) 0.02075(6) 0.56783(4)
N2 N 1.01149(12) -0.00639(9) 0.39121(5)
O1 O 0.84368(10) 0.24502(6) 0.50777(4)
O2 O 1.06710(11) 0.06078(9) 0.37615(4)
O3 O 1.02903(12) -0.07983(8) 0.37118(5)
C1 C 0.64340(11) 0.10334(7) 0.58861(5)
C2 C 0.69702(12) 0.17839(8) 0.56837(5)
H1 H 0.67230 0.23370 0.58350
C3 C 0.78850(12) 0.17790(8) 0.52556(5)
C4 C 0.81390(11) 0.09009(7) 0.50267(5)
C5 C 0.89918(12) 0.08243(8) 0.45906(5)
H2 H 0.94150 0.13340 0.44520
C6 C 0.92112(12) 0.00111(9) 0.43656(5)
C7 C 0.85988(12) -0.07464(8) 0.45548(5)
H3 H 0.87550 -0.13020 0.43870
C8 C 0.77685(12) -0.06876(8) 0.49845(5)
H4 H 0.73480 -0.12040 0.51150
C9 C 0.75363(11) 0.01390(7) 0.52348(5)
C10 C 0.54914(12) 0.11054(8) 0.63391(5)
C11 C 0.57920(15) 0.08394(9) 0.68646(6)
H5 H 0.66020 0.05780 0.69390
C12 C 0.49150(18) 0.09546(11) 0.72788(6)
H6 H 0.51230 0.07730 0.76370
C13 C 0.37366(17) 0.13330(11) 0.71723(7)
H7 H 0.31310 0.14060 0.74570
C14 C 0.34377(15) 0.1605(1) 0.66550(7)
H8 H 0.26280 0.18700 0.65840
C15 C 0.43068(13) 0.14952(9) 0.62371(6)
H9 H 0.40960 0.16860 0.58800
C16 C 0.61677(12) -0.06064(7) 0.59207(5)
H10 H 0.60110 -0.05010 0.63120
H11 H 0.68010 -0.10920 0.58900
C17 C 0.49239(12) -0.08979(8) 0.56567(5)
H12 H 0.50770 -0.10310 0.52680
H13 H 0.42870 -0.04130 0.56790
C18 C 0.43941(13) -0.17259(8) 0.59427(5)
H14 H 0.36500 -0.19500 0.57340
H15 H 0.50620 -0.21920 0.59390
C19 C 0.39808(12) -0.15668(8) 0.65219(5)
C20 C 0.46282(14) -0.19248(10) 0.69585(6)
H16 H 0.53720 -0.22750 0.68970
C21 C 0.42098(16) -0.17813(11) 0.74854(7)
H17 H 0.46760 -0.20270 0.77810
C22 C 0.31342(15) -0.12903(11) 0.75851(6)
H18 H 0.28460 -0.11980 0.79470
C23 C 0.24780(16) -0.09331(12) 0.71565(7)
H19 H 0.17270 -0.05920 0.72200
C24 C 0.29040(15) -0.10668(11) 0.66332(6)
H20 H 0.24430 -0.08080 0.63410
#END
