
#######################################################################
#
#                 Cambridge Crystallographic Data Centre
#                                CCDC
#
#######################################################################
#
# If this CIF has been generated from an entry in the Cambridge
# Structural Database, then it will include bibliographic, chemical,
# crystal, experimental, refinement or atomic coordinate data resulting
# from the CCDC's data processing and validation procedures.
#
#######################################################################

data_CSD_CIF_CUPTAK
_audit_creation_date 2015-07-13
_audit_creation_method CSD-ConQuest-V1
_database_code_CSD CUPTAK
_database_code_depnum_ccdc_archive 'CCDC 1025207'
_chemical_formula_sum 'C25 H18 N2 O4'
_chemical_formula_moiety
;
C25 H18 N2 O4
;
_journal_coden_Cambridge 1500
_journal_volume 5
_journal_year 2015
_journal_page_first 60199
_journal_name_full 'RSC Advances '
loop_
_publ_author_name
"N.Kausar"
"P.P.Ghosh"
"G.Pal"
"A.R.Das"
_chemical_name_systematic
;
6-Methyl-4-(3-nitrophenyl)-2-phenyl-4,6-dihydro-5H-pyrano[3,2-c]quinolin-5-one
;
_cell_volume    974.900
_exptl_crystal_density_diffrn 1.398
_diffrn_ambient_temperature 296
#These two values have been output from a single CSD field.
_refine_ls_R_factor_gt 0.0422
_refine_ls_wR_factor_gt 0.0422
_symmetry_cell_setting triclinic
_symmetry_space_group_name_H-M 'P -1'
_symmetry_Int_Tables_number 2
loop_
_symmetry_equiv_pos_site_id
_symmetry_equiv_pos_as_xyz
1 x,y,z
2 -x,-y,-z
_cell_length_a 7.9732(6)
_cell_length_b 11.0621(8)
_cell_length_c 11.7442(8)
_cell_angle_alpha 78.303(2)
_cell_angle_beta 80.056(2)
_cell_angle_gamma 75.760(2)
_cell_formula_units_Z 2
loop_
_atom_type_symbol
_atom_type_radius_bond
C 0.68
H 0.23
N 0.68
O 0.68
loop_
_atom_site_label
_atom_site_type_symbol
_atom_site_fract_x
_atom_site_fract_y
_atom_site_fract_z
O1 O 0.86720(18) -0.15089(12) 1.04093(11)
O2 O 0.7153(2) -0.26346(13) 0.99095(14)
O3 O 0.64812(13) 0.50560(9) 0.60979(9)
O4 O 1.04883(16) 0.10954(10) 0.64933(10)
N1 N 1.04529(17) 0.23736(12) 0.47082(11)
N2 N 0.7611(2) -0.16388(12) 0.98287(12)
C1 C 0.9871(2) 0.49600(19) 0.21736(14)
H1 H 1.03210 0.51340 0.13880
C2 C 1.0522(2) 0.38127(18) 0.28273(14)
H2 H 1.14130 0.32270 0.24870
C3 C 0.98369(19) 0.35265(14) 0.40131(13)
C4 C 0.98334(19) 0.20872(13) 0.58873(13)
C5 C 0.83903(17) 0.30084(12) 0.63698(12)
C6 C 0.76924(18) 0.27020(12) 0.76463(12)
H3 H 0.86550 0.25570 0.81100
C7 C 0.69369(17) 0.15191(12) 0.79232(11)
C8 C 0.75976(17) 0.04988(12) 0.87407(12)
H4 H 0.85150 0.05190 0.91240
C9 C 0.68690(18) -0.05493(13) 0.89760(12)
C10 C 0.5492(2) -0.06244(14) 0.84529(14)
H5 H 0.50300 -0.13450 0.86310
C11 C 0.4817(2) 0.04070(15) 0.76535(15)
H6 H 0.38710 0.03950 0.72940
C12 C 0.55503(19) 0.14561(14) 0.73902(13)
H7 H 0.51000 0.21380 0.68400
C13 C 0.63235(18) 0.38170(13) 0.79944(12)
H8 H 0.58210 0.37580 0.87740
C14 C 0.57829(18) 0.48753(12) 0.72715(12)
C15 C 0.77920(17) 0.41208(13) 0.56980(12)
C16 C 1.1829(3) 0.14059(19) 0.42042(18)
H9 H 1.21070 0.06790 0.47990
H10 H 1.28510 0.17420 0.39080
H11 H 1.14280 0.11640 0.35760
C17 C 0.8567(2) 0.58630(18) 0.26530(15)
H12 H 0.81560 0.66380 0.21980
C18 C 0.7889(2) 0.56026(15) 0.38056(14)
H13 H 0.70140 0.62070 0.41340
C19 C 0.84980(18) 0.44355(13) 0.44964(12)
C20 C 0.44429(18) 0.60043(13) 0.75481(14)
C21 C 0.4024(2) 0.70490(14) 0.66822(15)
H14 H 0.45890 0.70420 0.59210
C22 C 0.2761(2) 0.81077(15) 0.69489(18)
H15 H 0.24840 0.88000 0.63630
C23 C 0.1926(2) 0.81349(16) 0.80668(19)
H16 H 0.10980 0.88490 0.82430
C24 C 0.2314(2) 0.71057(18) 0.89267(18)
H17 H 0.17390 0.71220 0.96850
C25 C 0.3555(2) 0.60433(16) 0.86753(15)
H18 H 0.37990 0.53490 0.92650
#END
