
#######################################################################
#
#                 Cambridge Crystallographic Data Centre
#                                CCDC
#
#######################################################################
#
# If this CIF has been generated from an entry in the Cambridge
# Structural Database, then it will include bibliographic, chemical,
# crystal, experimental, refinement or atomic coordinate data resulting
# from the CCDC's data processing and validation procedures.
#
#######################################################################

data_CSD_CIF_CUQXAN
_audit_creation_date 2000-05-24
_audit_creation_method CSD-ConQuest-V1
_database_code_CSD CUQXAN
_database_code_depnum_ccdc_archive 'CCDC 140197'
_database_code_depnum_ccdc_journal 207/377
_chemical_formula_sum 'C21 H26 N2 O8'
_chemical_formula_moiety
;
C21 H26 N2 O8
;
_journal_coden_Cambridge 207
_journal_year 1999
_journal_page_first 3579
_journal_name_full 'J.Chem.Soc.,Perkin Trans.1 '
loop_
_publ_author_name
"D.M.Hodgson"
"A.R.Gibbs"
"M.G.B.Drew"
_chemical_name_systematic
;
(2R,3R,8R)-2,3-Dimethyl-7-(n-butyl)-1,4-dioxaspiro(4.4)non-8-en-7-ylmethyl 
3,5-dinitrobenzoate
;
_chemical_melting_point 357.15
_cell_volume   2340.248
_exptl_crystal_colour 'white'
_exptl_crystal_density_diffrn 1.233
_exptl_special_details
;
Melting point range 357.15-359.15K

;
_diffrn_ambient_temperature ?
_diffrn_special_details
;
The study was carried out at room temperature,in the range 283-303K

;
#These two values have been output from a single CSD field.
_refine_ls_R_factor_gt 0.0737
_refine_ls_wR_factor_gt 0.0737
_symmetry_cell_setting monoclinic
_symmetry_space_group_name_H-M 'C 2'
_symmetry_Int_Tables_number 5
loop_
_symmetry_equiv_pos_site_id
_symmetry_equiv_pos_as_xyz
1 x,y,z
2 -x,y,-z
3 1/2+x,1/2+y,z
4 1/2-x,1/2+y,-z
_cell_length_a 37.76(4)
_cell_length_b 5.740(6)
_cell_length_c 10.910(12)
_cell_angle_alpha 90
_cell_angle_beta 98.24(1)
_cell_angle_gamma 90
_cell_formula_units_Z 4
loop_
_atom_type_symbol
_atom_type_radius_bond
C 0.68
H 0.23
N 0.68
O 0.68
loop_
_atom_site_label
_atom_site_type_symbol
_atom_site_fract_x
_atom_site_fract_y
_atom_site_fract_z
C1 C 0.27693(16) 0.2062(14) 0.2306(12)
C2 C 0.25012(17) 0.0996(13) 0.1526(14)
H1 H 0.25510 -0.03210 0.10850
C3 C 0.21471(16) 0.1892(13) 0.1388(13)
C4 C 0.20779(18) 0.3820(13) 0.2138(14)
H2 H 0.18480 0.44320 0.20940
C5 C 0.23592(17) 0.4765(12) 0.2931(13)
C6 C 0.27183(17) 0.3984(12) 0.3042(14)
H3 H 0.29040 0.46930 0.35610
N1 N 0.22924(17) 0.6814(12) 0.3729(12)
O1 O 0.19763(15) 0.7236(13) 0.3830(12)
O2 O 0.25525(17) 0.7963(10) 0.4189(12)
N2 N 0.31403(18) 0.1078(15) 0.2424(13)
O3 O 0.33861(13) 0.2171(11) 0.2998(11)
O4 O 0.31724(15) -0.0867(14) 0.1934(12)
C7 C 0.18731(19) 0.0747(15) 0.0464(16)
O5 O 0.19286(13) -0.1006(11) -0.0126(11)
O6 O 0.15560(11) 0.1973(8) 0.0304(9)
C8 C 0.12735(16) 0.1098(13) -0.0700(14)
H4 H 0.13860 0.02000 -0.12910
H5 H 0.11530 0.24160 -0.11350
C9 C 0.09961(17) -0.0428(12) -0.0180(13)
C10 C 0.07327(19) -0.1196(15) -0.1322(15)
H6 H 0.06200 0.01850 -0.17130
H7 H 0.08690 -0.19170 -0.19100
C11 C 0.0439(2) -0.2893(19) -0.1070(16)
H8 H 0.02780 -0.21050 -0.05860
H9 H 0.05470 -0.41880 -0.05820
C12 C 0.0214(3) -0.387(3) -0.230(2)
H10 H 0.00990 -0.25860 -0.27810
H11 H 0.03730 -0.46410 -0.27940
C13 C -0.0069(4) -0.558(3) -0.200(3)
H12 H 0.00420 -0.67830 -0.14640
H13 H -0.01870 -0.62710 -0.27510
H14 H -0.02420 -0.47760 -0.15910
C14 C 0.1177(3) -0.2453(18) 0.052(2)
H15 H 0.12840 -0.36650 0.01460
C15 C 0.1169(3) -0.2348(19) 0.176(3)
H16 H 0.12640 -0.34900 0.23130
C16 C 0.0983(2) -0.0100(14) 0.2133(19)
C17 C 0.08222(19) 0.0868(15) 0.0893(16)
H17 H 0.08680 0.25290 0.08650
H18 H 0.05650 0.06300 0.07690
O7 O 0.12355(16) 0.1443(12) 0.2844(13)
O8 O 0.07077(19) -0.0569(19) 0.2879(18)
C18 C 0.1101(3) 0.2006(19) 0.402(2)
H19 H 0.09640 0.34620 0.39320
C19 C 0.0852(4) -0.006(3) 0.411(3)
H20 H 0.09990 -0.13840 0.44390
C20 C 0.1434(4) 0.229(3) 0.498(2)
H21 H 0.15060 0.07970 0.53220
H22 H 0.13810 0.33100 0.56250
H23 H 0.16240 0.29450 0.45890
C21 C 0.0565(4) 0.036(4) 0.499(3)
H24 H 0.04140 0.16480 0.46800
H25 H 0.06810 0.07130 0.58060
H26 H 0.04210 -0.10120 0.50090
#END
