
#######################################################################
#
#                 Cambridge Crystallographic Data Centre
#                                CCDC
#
#######################################################################
#
# If this CIF has been generated from an entry in the Cambridge
# Structural Database, then it will include bibliographic, chemical,
# crystal, experimental, refinement or atomic coordinate data resulting
# from the CCDC's data processing and validation procedures.
#
#######################################################################

data_CSD_CIF_CUSKAD
_audit_creation_date 2011-01-04
_audit_creation_method CSD-ConQuest-V1
_database_code_CSD CUSKAD
_database_code_depnum_ccdc_archive 'CCDC 767468'
_chemical_formula_sum 'C14 H15 N1 O4'
_chemical_formula_moiety
;
C14 H15 N1 O4
;
_journal_coden_Cambridge 1366
_journal_volume 352
_journal_year 2010
_journal_page_first 1307
_journal_name_full 'Adv.Synth.Catal. '
loop_
_publ_author_name
"A.S.K.Hashmi"
"R.Dopp"
"C.Lothschutz"
"M.Rudolph"
"D.Riedel"
"F.Rominger"
_chemical_name_systematic
;
5-Isopropyl-3-methyl-4-(4-nitrophenyl)furan-2(5H)-one
;
_cell_volume   2578.622
_exptl_crystal_colour 'colorless'
_exptl_crystal_density_diffrn 1.346
_exptl_crystal_description 'plate'
_diffrn_ambient_temperature 200
#These two values have been output from a single CSD field.
_refine_ls_R_factor_gt 0.0482
_refine_ls_wR_factor_gt 0.0482
_symmetry_cell_setting monoclinic
_symmetry_space_group_name_H-M 'C 2/c'
_symmetry_Int_Tables_number 15
loop_
_symmetry_equiv_pos_site_id
_symmetry_equiv_pos_as_xyz
1 x,y,z
2 -x,y,1/2-z
3 1/2+x,1/2+y,z
4 1/2-x,1/2+y,1/2-z
5 -x,-y,-z
6 x,-y,-1/2+z
7 -1/2-x,-1/2-y,-z
8 -1/2+x,-1/2-y,-1/2+z
_cell_length_a 13.2701(5)
_cell_length_b 23.8930(9)
_cell_length_c 8.1458(3)
_cell_angle_alpha 90
_cell_angle_beta 93.231(1)
_cell_angle_gamma 90
_cell_formula_units_Z 8
loop_
_atom_type_symbol
_atom_type_radius_bond
C 0.68
H 0.23
N 0.68
O 0.68
loop_
_atom_site_label
_atom_site_type_symbol
_atom_site_fract_x
_atom_site_fract_y
_atom_site_fract_z
C1 C 0.7137(2) 0.04545(13) 0.1253(4)
O1 O 0.68641(18) 0.02353(9) 0.2491(3)
O2 O 0.81046(15) 0.03969(8) 0.0784(2)
C2 C 0.8215(2) 0.07092(12) -0.0725(3)
H1 H 0.83640 0.04410 -0.16230
C3 C 0.7186(2) 0.09607(12) -0.1094(3)
C4 C 0.6565(2) 0.08066(12) 0.0049(4)
C5 C 0.5465(2) 0.09144(15) 0.0199(4)
H2 H 0.53740 0.11700 0.11190
H3 H 0.51190 0.05600 0.03970
H4 H 0.51800 0.10830 -0.08210
C6 C 0.9084(2) 0.11248(12) -0.0505(4)
H5 H 0.91440 0.13180 -0.15830
C7 C 0.8890(2) 0.15754(13) 0.0766(4)
H6 H 0.82680 0.17780 0.04360
H7 H 0.94580 0.18380 0.08380
H8 H 0.88180 0.14000 0.18410
C8 C 1.0089(2) 0.08245(14) -0.0099(4)
H9 H 1.00670 0.06390 0.09720
H10 H 1.06400 0.10980 -0.00620
H11 H 1.02020 0.05440 -0.09470
C9 C 0.6960(2) 0.13230(12) -0.2540(3)
C10 C 0.6521(2) 0.18494(13) -0.2334(4)
H12 H 0.63760 0.19720 -0.12630
C11 C 0.6296(2) 0.21938(13) -0.3672(4)
H13 H 0.60100 0.25540 -0.35290
C12 C 0.6497(2) 0.20025(13) -0.5217(3)
C13 C 0.6936(2) 0.14881(13) -0.5460(4)
H14 H 0.70760 0.13680 -0.65350
C14 C 0.7168(2) 0.11499(12) -0.4115(4)
H15 H 0.74720 0.07950 -0.42680
N1 N 0.62470(19) 0.23654(13) -0.6644(3)
O3 O 0.6297(2) 0.21655(11) -0.8024(3)
O4 O 0.59991(18) 0.28502(10) -0.6383(3)
#END
