
#######################################################################
#
#                 Cambridge Crystallographic Data Centre
#                                CCDC
#
#######################################################################
#
# If this CIF has been generated from an entry in the Cambridge
# Structural Database, then it will include bibliographic, chemical,
# crystal, experimental, refinement or atomic coordinate data resulting
# from the CCDC's data processing and validation procedures.
#
#######################################################################

data_CSD_CIF_CUSMUA
_audit_creation_date 2015-11-23
_audit_creation_method CSD-ConQuest-V1
_database_code_CSD CUSMUA
_database_code_depnum_ccdc_archive 'CCDC 1063461'
_chemical_formula_sum 'C32 H42 N4 O5'
_chemical_formula_moiety
;
C32 H42 N4 O5
;
_journal_coden_Cambridge 179
_journal_volume 54
_journal_year 2015
_journal_page_first 12153
_journal_name_full 'Angew.Chem.,Int.Ed. '
loop_
_publ_author_name
"T.Amatov"
"R.Pohl"
"I.Cisarova"
"U.Jahn"
_chemical_name_systematic
;
methyl 
7,9-dibenzyl-8,10-dioxo-4-((2,2,6,6-tetramethylpiperidin-1-yl)oxy)-2,7,9-triaz
abicyclo[4.2.2]decane-2-carboxylate
;
_cell_volume   1485.760
_exptl_crystal_colour 'colorless'
_exptl_crystal_density_diffrn 1.258
_exptl_crystal_description 'prism'
_diffrn_ambient_temperature 150
#These two values have been output from a single CSD field.
_refine_ls_R_factor_gt 0.0416
_refine_ls_wR_factor_gt 0.0416
_symmetry_cell_setting triclinic
_symmetry_space_group_name_H-M 'P -1'
_symmetry_Int_Tables_number 2
loop_
_symmetry_equiv_pos_site_id
_symmetry_equiv_pos_as_xyz
1 x,y,z
2 -x,-y,-z
_cell_length_a 11.5773(3)
_cell_length_b 11.9927(3)
_cell_length_c 12.0903(3)
_cell_angle_alpha 91.448(1)
_cell_angle_beta 105.301(1)
_cell_angle_gamma 112.082(1)
_cell_formula_units_Z 2
loop_
_atom_type_symbol
_atom_type_radius_bond
C 0.68
H 0.23
N 0.68
O 0.68
loop_
_atom_site_label
_atom_site_type_symbol
_atom_site_fract_x
_atom_site_fract_y
_atom_site_fract_z
C1 C 0.60718(13) 0.15148(11) 0.01998(12)
C2 C 0.59330(12) 0.15540(11) 0.14109(11)
H1 H 0.50670 0.09020 0.13660
C3 C 0.81541(13) 0.16946(11) 0.22135(11)
C4 C 0.84155(12) 0.23163(11) 0.11620(11)
H2 H 0.91340 0.21410 0.09890
C5 C 0.69703(12) 0.67114(12) 0.19854(12)
C6 C 0.78351(14) 0.80756(12) 0.23015(13)
H3 H 0.86100 0.82510 0.20260
H4 H 0.73430 0.85380 0.18940
C7 C 0.82847(15) 0.85096(12) 0.35916(13)
H5 H 0.75240 0.84110 0.38670
H6 H 0.88750 0.93810 0.37520
C8 C 0.89949(14) 0.77638(12) 0.42162(13)
H7 H 0.92950 0.80470 0.50580
H8 H 0.97760 0.79030 0.39590
C9 C 0.81429(13) 0.63983(12) 0.39982(12)
C10 C 0.70882(16) 0.60980(14) 0.46175(14)
H9 H 0.66230 0.66350 0.44320
H10 H 0.74960 0.62160 0.54560
H11 H 0.64710 0.52510 0.43610
C11 C 0.90281(15) 0.57438(13) 0.45040(13)
H12 H 0.84930 0.48880 0.45050
H13 H 0.95460 0.61250 0.52990
H14 H 0.96130 0.57990 0.40320
C12 C 0.56006(13) 0.64568(13) 0.20762(14)
H15 H 0.51160 0.55790 0.20190
H16 H 0.51400 0.67720 0.14460
H17 H 0.56700 0.68570 0.28220
C13 C 0.68456(15) 0.63435(14) 0.07279(12)
H18 H 0.77100 0.64820 0.06530
H19 H 0.64730 0.68310 0.02300
H20 H 0.62740 0.54810 0.04930
C14 C 0.75607(15) 0.18816(12) -0.09865(12)
H21 H 0.82700 0.26740 -0.09680
H22 H 0.67700 0.18320 -0.15920
C15 C 0.79465(13) 0.08692(12) -0.13129(12)
C16 C 0.84145(14) 0.09296(14) -0.22656(13)
H23 H 0.85230 0.16130 -0.26700
C17 C 0.87246(16) 0.00065(15) -0.26314(15)
H24 H 0.90210 0.00490 -0.32970
C18 C 0.86074(16) -0.09750(15) -0.20368(16)
H25 H 0.88320 -0.16040 -0.22820
C19 C 0.81614(18) -0.10336(15) -0.10834(16)
H26 H 0.80880 -0.17040 -0.06640
C20 C 0.78163(16) -0.01226(13) -0.07260(14)
H27 H 0.74900 -0.01830 -0.00770
C21 C 0.65205(14) 0.05356(12) 0.31395(12)
H28 H 0.72200 0.02700 0.35300
H29 H 0.57230 -0.02010 0.27730
C22 C 0.62603(13) 0.12354(12) 0.40320(11)
C23 C 0.50040(15) 0.10361(14) 0.40257(14)
H30 H 0.42850 0.04310 0.34650
C24 C 0.47868(18) 0.17137(17) 0.48320(17)
H31 H 0.39200 0.15780 0.48210
C25 C 0.58276(19) 0.25835(17) 0.56492(16)
H32 H 0.56770 0.30490 0.62010
C26 C 0.70834(17) 0.27835(15) 0.56731(14)
H33 H 0.78000 0.33820 0.62420
C27 C 0.73006(14) 0.21110(13) 0.48655(12)
H34 H 0.81690 0.22490 0.48810
C28 C 0.58780(12) 0.27637(11) 0.17902(12)
H35 H 0.52930 0.29500 0.11320
H36 H 0.54730 0.26460 0.24280
C29 C 0.71718(12) 0.38699(11) 0.21939(11)
H37 H 0.77320 0.37420 0.29220
C30 C 0.79457(13) 0.42126(12) 0.13198(12)
H38 H 0.73280 0.39720 0.05280
H39 H 0.84220 0.51060 0.14360
C31 C 1.01666(13) 0.43886(12) 0.16119(12)
C32 C 1.22874(13) 0.44689(14) 0.18922(14)
H40 H 1.24360 0.50350 0.13240
H41 H 1.27450 0.39340 0.18570
H42 H 1.26180 0.49280 0.26700
N1 N 0.73010(11) 0.18354(10) 0.01335(9)
N2 N 0.69114(10) 0.12579(9) 0.22350(9)
N3 N 0.76676(10) 0.60316(9) 0.27130(9)
N4 N 0.88829(10) 0.36449(9) 0.14081(10)
O1 O 0.51081(9) 0.12318(8) -0.06462(8)
O2 O 0.90621(9) 0.16076(9) 0.29464(9)
O3 O 0.67152(8) 0.47792(8) 0.24660(8)
O4 O 1.06006(10) 0.54849(9) 0.17662(10)
O5 O 1.09108(9) 0.37491(9) 0.16364(9)
#END
