
#######################################################################
#
#                 Cambridge Crystallographic Data Centre
#                                CCDC
#
#######################################################################
#
# If this CIF has been generated from an entry in the Cambridge
# Structural Database, then it will include bibliographic, chemical,
# crystal, experimental, refinement or atomic coordinate data resulting
# from the CCDC's data processing and validation procedures.
#
#######################################################################

data_CSD_CIF_CUSXAQ
_audit_creation_date 2010-09-21
_audit_creation_method CSD-ConQuest-V1
_database_code_CSD CUSXAQ
_database_code_depnum_ccdc_archive 'CCDC 739434'
_chemical_formula_sum 'C11 H11 N3 O2'
_chemical_formula_moiety
;
C11 H11 N3 O2
;
_journal_coden_Cambridge 1476
_journal_volume 1
_journal_year 2010
_journal_page_first 156
_journal_name_full 'MedChemComm '
loop_
_publ_author_name
"Dae-Seop Shin"
"D.Masciocchi"
"A.Gelain"
"S.Villa"
"D.Barlocco"
"F.Meneghetti"
"A.Pedretti"
"Young-Min Han"
"Dong Cho Han"
"Byoung-Mog Kwon"
"L.Legnani"
"L.Toma"
_chemical_name_systematic
;
N-(4-Methyl-1,2,5-oxadiazol-3-yl)-2-phenylacetamide
;
_cell_volume   1104.675
_exptl_crystal_density_diffrn 1.306
_diffrn_ambient_temperature 293
#These two values have been output from a single CSD field.
_refine_ls_R_factor_gt 0.0637
_refine_ls_wR_factor_gt 0.0637
_symmetry_cell_setting monoclinic
_symmetry_space_group_name_H-M 'P 21/n'
_symmetry_Int_Tables_number 14
loop_
_symmetry_equiv_pos_site_id
_symmetry_equiv_pos_as_xyz
1 x,y,z
2 1/2-x,1/2+y,1/2-z
3 -x,-y,-z
4 -1/2+x,-1/2-y,-1/2+z
_cell_length_a 6.619(2)
_cell_length_b 20.540(3)
_cell_length_c 8.364(5)
_cell_angle_alpha 90
_cell_angle_beta 103.72(3)
_cell_angle_gamma 90
_cell_formula_units_Z 4
loop_
_atom_type_symbol
_atom_type_radius_bond
C 0.68
H 0.23
N 0.68
O 0.68
loop_
_atom_site_label
_atom_site_type_symbol
_atom_site_fract_x
_atom_site_fract_y
_atom_site_fract_z
O1 O -0.2400(3) 0.10115(11) 0.5186(3)
O2 O 0.3556(3) 0.22881(8) 0.63231(17)
N1 N -0.0617(4) 0.06930(11) 0.6000(3)
N2 N -0.1903(3) 0.15612(11) 0.4413(3)
N3 N 0.1097(3) 0.20512(9) 0.4055(2)
C1 C 0.2780(3) 0.23871(10) 0.4873(2)
C2 C 0.0920(3) 0.10268(11) 0.5742(3)
C3 C 0.0102(3) 0.15728(10) 0.4749(2)
C4 C 0.3085(5) 0.08117(17) 0.6380(5)
C5 C 0.3629(6) 0.28661(18) 0.3832(3)
H1 H 0.397(8) 0.272(2) 0.307(6)
H2 H 0.247(5) 0.3082(17) 0.309(4)
C6 C 0.7163(4) 0.32574(15) 0.5186(3)
H3 H 0.77030 0.28860 0.48030
C7 C 0.5053(3) 0.33623(10) 0.4812(2)
C8 C 0.4339(5) 0.39179(13) 0.5398(3)
H4 H 0.29200 0.40040 0.51610
C9 C 0.5715(11) 0.43470(15) 0.6332(5)
H5 H 0.52060 0.47230 0.67150
C10 C 0.7711(12) 0.4244(3) 0.6697(5)
H6 H 0.86080 0.45400 0.73460
C11 C 0.8472(5) 0.3703(3) 0.6129(5)
H7 H 0.99000 0.36330 0.63790
H8 H 0.047(4) 0.2194(12) 0.306(3)
H9 H 0.314(6) 0.040(2) 0.682(5)
H10 H 0.379(6) 0.111(2) 0.728(5)
H11 H 0.387(6) 0.079(2) 0.558(5)
#END
