
#######################################################################
#
#                 Cambridge Crystallographic Data Centre
#                                CCDC
#
#######################################################################
#
# If this CIF has been generated from an entry in the Cambridge
# Structural Database, then it will include bibliographic, chemical,
# crystal, experimental, refinement or atomic coordinate data resulting
# from the CCDC's data processing and validation procedures.
#
#######################################################################

data_CSD_CIF_CUTHIJ
_audit_creation_date 2010-09-24
_audit_creation_method CSD-ConQuest-V1
_database_code_CSD CUTHIJ
_database_code_depnum_ccdc_archive 'CCDC 755322'
_chemical_formula_sum 'C16 H25 N1 O2'
_chemical_formula_moiety
;
C16 H25 N1 O2
;
_journal_coden_Cambridge 182
_journal_volume 46
_journal_year 2010
_journal_page_first 2656
_journal_name_full 'Chem.Commun. '
loop_
_publ_author_name
"M.R.Sonawane"
"I.Cisaoovab"
"I.M.Lyapkalo"
_chemical_name_systematic
;
t-Butyl(hydroxy)(3-methoxy-2-methyl-3-phenylbutylidene)-\l^5^-azane
;
_chemical_name_common
;
N-t-butyl-N-[3-methoxy-2-methyl-3-phenylbutylidene]amine oxide
;
_chemical_melting_point 373
_cell_volume    759.580
_exptl_crystal_colour 'colorless'
_exptl_crystal_density_diffrn 1.152
_exptl_crystal_description 'prism'
_diffrn_ambient_temperature 150
#These two values have been output from a single CSD field.
_refine_ls_R_factor_gt 0.0373
_refine_ls_wR_factor_gt 0.0373
_symmetry_cell_setting triclinic
_symmetry_space_group_name_H-M 'P -1'
_symmetry_Int_Tables_number 2
loop_
_symmetry_equiv_pos_site_id
_symmetry_equiv_pos_as_xyz
1 x,y,z
2 -x,-y,-z
_cell_length_a 5.9484(2)
_cell_length_b 8.4271(3)
_cell_length_c 15.9289(5)
_cell_angle_alpha 93.4557(15)
_cell_angle_beta 95.3665(18)
_cell_angle_gamma 106.3773(17)
_cell_formula_units_Z 2
loop_
_atom_type_symbol
_atom_type_radius_bond
C 0.68
H 0.23
N 0.68
O 0.68
loop_
_atom_site_label
_atom_site_type_symbol
_atom_site_fract_x
_atom_site_fract_y
_atom_site_fract_z
C1 C 0.82949(17) 0.99728(12) 0.33000(6)
N1 N 0.64491(14) 0.90888(10) 0.36077(5)
C2 C 0.64723(17) 0.75867(12) 0.40826(6)
O1 O 0.43837(12) 0.93224(9) 0.34703(5)
C3 C 0.4986(2) 0.61055(13) 0.34812(8)
H1 H 0.33970 0.62150 0.33500
H2 H 0.48870 0.50760 0.37510
H3 H 0.57200 0.60750 0.29570
C4 C 0.89519(19) 0.74508(14) 0.42932(7)
H4 H 0.96530 0.73390 0.37680
H5 H 0.88850 0.64740 0.46050
H6 H 0.99170 0.84520 0.46420
C5 C 0.5351(2) 0.77461(15) 0.48931(7)
H7 H 0.63180 0.87320 0.52520
H8 H 0.52490 0.67560 0.51970
H9 H 0.37640 0.78530 0.47510
C6 C 0.80825(17) 1.12523(12) 0.27127(6)
H10 H 0.63800 1.09690 0.24830
C7 C 0.94747(18) 1.11284(12) 0.19458(6)
C8 C 0.87828(18) 0.92903(13) 0.16104(6)
C9 C 0.6532(2) 0.85441(15) 0.11840(7)
H11 H 0.55200 0.92080 0.10470
C10 C 0.5758(2) 0.68450(16) 0.09579(8)
H12 H 0.42220 0.63570 0.06680
C11 C 0.7206(2) 0.58533(15) 0.11510(7)
H13 H 0.66620 0.46880 0.10040
C12 C 0.9450(2) 0.65790(14) 0.15603(7)
H14 H 1.04630 0.59110 0.16870
C13 C 1.02377(19) 0.82842(13) 0.17885(6)
H15 H 1.17850 0.87670 0.20690
O2 O 0.85607(14) 1.20752(10) 0.13503(5)
C14 C 0.9595(3) 1.22246(18) 0.05805(8)
H16 H 1.12670 1.28530 0.06980
H17 H 0.87840 1.28080 0.01980
H18 H 0.94500 1.11160 0.03140
C15 C 0.8725(2) 1.29850(13) 0.31868(8)
H19 H 0.76070 1.30020 0.35990
H20 H 0.86540 1.38050 0.27820
H21 H 1.03250 1.32560 0.34820
C16 C 1.21243(19) 1.18852(13) 0.21727(7)
H22 H 1.29470 1.16270 0.17010
H23 H 1.26460 1.14230 0.26800
H24 H 1.24850 1.30930 0.22830
H25 H 0.976(2) 0.9725(15) 0.3448(8)
#END
