
#######################################################################
#
#                 Cambridge Crystallographic Data Centre
#                                CCDC
#
#######################################################################
#
# If this CIF has been generated from an entry in the Cambridge
# Structural Database, then it will include bibliographic, chemical,
# crystal, experimental, refinement or atomic coordinate data resulting
# from the CCDC's data processing and validation procedures.
#
#######################################################################

data_CSD_CIF_CUTHEF
_audit_creation_date 2010-09-24
_audit_creation_method CSD-ConQuest-V1
_database_code_CSD CUTHEF
_database_code_depnum_ccdc_archive 'CCDC 755321'
_chemical_formula_sum 'C21 H27 N1 O3'
_chemical_formula_moiety
;
C21 H27 N1 O3
;
_journal_coden_Cambridge 182
_journal_volume 46
_journal_year 2010
_journal_page_first 2656
_journal_name_full 'Chem.Commun. '
loop_
_publ_author_name
"M.R.Sonawane"
"I.Cisaoovab"
"I.M.Lyapkalo"
_chemical_name_systematic
;
t-Butyl(hydroxy)(3-methoxy-3-(4-methoxyphenyl)-2-phenylpropylidene)-\l^5^-azan
e
;
_chemical_name_common
;
N-t-butyl-N-[3-methoxy-3-(4-methoxyphenyl)-2-phenylpropylidene]amine oxide
;
_chemical_melting_point 407
_cell_volume   1904.762
_exptl_crystal_colour 'colorless'
_exptl_crystal_density_diffrn 1.191
_exptl_crystal_description 'prism'
_diffrn_ambient_temperature 150
#These two values have been output from a single CSD field.
_refine_ls_R_factor_gt 0.0417
_refine_ls_wR_factor_gt 0.0417
_symmetry_cell_setting monoclinic
_symmetry_space_group_name_H-M 'P 21/c'
_symmetry_Int_Tables_number 14
loop_
_symmetry_equiv_pos_site_id
_symmetry_equiv_pos_as_xyz
1 x,y,z
2 -x,1/2+y,1/2-z
3 -x,-y,-z
4 x,-1/2-y,-1/2+z
_cell_length_a 16.1659(5)
_cell_length_b 5.6972(2)
_cell_length_c 20.6824(5)
_cell_angle_alpha 90
_cell_angle_beta 90.5706(18)
_cell_angle_gamma 90
_cell_formula_units_Z 4
loop_
_atom_type_symbol
_atom_type_radius_bond
C 0.68
H 0.23
N 0.68
O 0.68
loop_
_atom_site_label
_atom_site_type_symbol
_atom_site_fract_x
_atom_site_fract_y
_atom_site_fract_z
C1 C 0.29115(8) 0.9697(2) 0.64188(6)
N1 N 0.34101(6) 0.79374(17) 0.63641(5)
C2 C 0.43315(7) 0.8251(2) 0.62435(6)
O1 O 0.31620(5) 0.57578(14) 0.63644(4)
C3 C 0.44776(9) 0.7220(3) 0.55735(6)
H1 H 0.50650 0.73480 0.54680
H2 H 0.41480 0.80850 0.52530
H3 H 0.43130 0.55640 0.55700
C4 C 0.45798(9) 1.0817(2) 0.62574(8)
H4 H 0.51760 1.09520 0.61840
H5 H 0.44460 1.14900 0.66800
H6 H 0.42780 1.16670 0.59170
C5 C 0.47981(8) 0.6935(2) 0.67731(7)
H7 H 0.46990 0.76920 0.71910
H8 H 0.53920 0.69580 0.66810
H9 H 0.46040 0.53060 0.67880
C6 C 0.19912(7) 0.9419(2) 0.64137(6)
H10 H 0.18570 0.77810 0.62740
C7 C 0.16525(7) 1.1125(2) 0.58978(6)
H11 H 0.17460 1.27710 0.60500
C8 C 0.20797(7) 1.0796(2) 0.52556(6)
C9 C 0.26167(8) 1.2485(2) 0.50185(6)
H12 H 0.27140 1.38790 0.52590
C10 C 0.30126(8) 1.2158(2) 0.44340(6)
H13 H 0.33790 1.33260 0.42780
C11 C 0.28764(8) 1.0140(2) 0.40781(6)
C12 C 0.23544(8) 0.8413(2) 0.43085(6)
H14 H 0.22650 0.70120 0.40690
C13 C 0.19634(8) 0.8764(2) 0.48971(6)
H15 H 0.16070 0.75790 0.50580
O2 O 0.07844(5) 1.07081(18) 0.58540(4)
C14 C 0.03709(9) 1.2451(3) 0.54796(7)
H16 H 0.05640 1.23820 0.50320
H17 H 0.04910 1.40060 0.56610
H18 H -0.02270 1.21670 0.54880
C15 C 0.16008(7) 0.9836(2) 0.70699(6)
C16 C 0.17840(8) 1.1845(2) 0.74254(6)
H19 H 0.21650 1.29620 0.72620
C17 C 0.14126(8) 1.2225(3) 0.80192(6)
H20 H 0.15390 1.36020 0.82600
C18 C 0.08605(8) 1.0609(3) 0.82606(6)
H21 H 0.06100 1.08720 0.86680
C19 C 0.06708(8) 0.8613(3) 0.79125(7)
H22 H 0.02900 0.75000 0.80780
C20 C 0.10416(8) 0.8239(2) 0.73169(6)
H23 H 0.09090 0.68660 0.70760
O3 O 0.32772(6) 1.00244(18) 0.34962(4)
C21 C 0.31005(10) 0.8050(3) 0.30893(7)
H24 H 0.25000 0.78540 0.30470
H25 H 0.33430 0.66320 0.32810
H26 H 0.33380 0.83140 0.26610
H27 H 0.3150(8) 1.124(2) 0.6428(6)
#END
