
#######################################################################
#
#                 Cambridge Crystallographic Data Centre
#                                CCDC
#
#######################################################################
#
# If this CIF has been generated from an entry in the Cambridge
# Structural Database, then it will include bibliographic, chemical,
# crystal, experimental, refinement or atomic coordinate data resulting
# from the CCDC's data processing and validation procedures.
#
#######################################################################

data_CSD_CIF_CUTKOT
_audit_creation_date 2015-11-24
_audit_creation_method CSD-ConQuest-V1
_database_code_CSD CUTKOT
_database_code_depnum_ccdc_archive 'CCDC 1403931'
_chemical_formula_sum 'C18 H15 N3 O3'
_chemical_formula_moiety
;
C18 H15 N3 O3
;
_journal_coden_Cambridge 1291
_journal_year 2015
_journal_page_first 7511
_journal_name_full 'Eur.J.Org.Chem. '
loop_
_publ_author_name
"O.V.Kulikov"
"D.A.Siriwardane"
"G.T.McCandless"
"C.Barnes"
"Y.V.Sevryugina"
"J.D.DeSousa"
"Jingbo Wu"
"R.Sommer"
"B.M.Novak"
_chemical_name_systematic
;
1-(1-naphthyl)-3-(2-nitrobenzyl)urea
;
_cell_volume   1510.778
_exptl_crystal_colour 'colorless'
_exptl_crystal_density_diffrn 1.413
_exptl_crystal_preparation 'N,N-dimethylformamide'
_diffrn_ambient_temperature 100
#These two values have been output from a single CSD field.
_refine_ls_R_factor_gt 0.0603
_refine_ls_wR_factor_gt 0.0603
_symmetry_cell_setting orthorhombic
_symmetry_space_group_name_H-M 'P 21 21 21'
_symmetry_Int_Tables_number 19
loop_
_symmetry_equiv_pos_site_id
_symmetry_equiv_pos_as_xyz
1 x,y,z
2 1/2-x,-y,1/2+z
3 -x,1/2+y,1/2-z
4 1/2+x,1/2-y,-z
_cell_length_a 8.341(4)
_cell_length_b 12.933(6)
_cell_length_c 14.005(7)
_cell_angle_alpha 90
_cell_angle_beta 90
_cell_angle_gamma 90
_cell_formula_units_Z 4
loop_
_atom_type_symbol
_atom_type_radius_bond
C 0.68
H 0.23
N 0.68
O 0.68
loop_
_atom_site_label
_atom_site_type_symbol
_atom_site_fract_x
_atom_site_fract_y
_atom_site_fract_z
O1 O 0.3031(2) 0.19014(15) 0.45257(12)
O2 O 0.4823(4) 0.4359(2) 0.06131(14)
O3 O 0.4912(3) 0.2919(2) 0.13818(14)
N1 N 0.5361(3) 0.2747(2) 0.42734(15)
H1 H 0.625(3) 0.296(2) 0.452(2)
N2 N 0.4951(3) 0.19364(18) 0.57027(15)
H2 H 0.590(3) 0.219(2) 0.580(2)
N3 N 0.4597(3) 0.3835(3) 0.13295(16)
C1 C 0.3914(3) 0.4358(2) 0.21717(19)
C2 C 0.3112(4) 0.5276(3) 0.2008(2)
H3 H 0.30390 0.55470 0.13790
C3 C 0.2428(4) 0.5789(3) 0.2752(3)
H4 H 0.18620 0.64150 0.26440
C4 C 0.2563(4) 0.5393(3) 0.3667(3)
H5 H 0.20780 0.57440 0.41880
C5 C 0.3407(3) 0.4481(2) 0.3823(2)
H6 H 0.35100 0.42290 0.44570
C6 C 0.4103(3) 0.3929(2) 0.30815(18)
C7 C 0.5027(3) 0.2946(2) 0.32748(17)
H7 H 0.44110 0.23550 0.30150
H8 H 0.60570 0.29790 0.29250
C8 C 0.4372(3) 0.2172(2) 0.48098(18)
C9 C 0.4238(3) 0.1252(2) 0.63684(19)
C10 C 0.3275(3) 0.0459(2) 0.60826(19)
H9 H 0.30800 0.03560 0.54210
C11 C 0.2566(3) -0.0210(2) 0.6751(2)
H10 H 0.18580 -0.07380 0.65390
C12 C 0.2885(3) -0.0107(2) 0.7703(2)
H11 H 0.24190 -0.05710 0.81500
C13 C 0.3907(3) 0.0689(2) 0.80211(19)
C14 C 0.4262(4) 0.0810(2) 0.90069(19)
H12 H 0.38460 0.03250 0.94520
C15 C 0.5182(4) 0.1603(2) 0.9326(2)
H13 H 0.53980 0.16730 0.99890
C16 C 0.5814(4) 0.2320(2) 0.8678(2)
H14 H 0.64390 0.28820 0.89060
C17 C 0.5539(3) 0.2220(2) 0.77158(18)
H15 H 0.59990 0.27030 0.72840
C18 C 0.4580(3) 0.1405(2) 0.73612(18)
#END
