
#######################################################################
#
#                 Cambridge Crystallographic Data Centre
#                                CCDC
#
#######################################################################
#
# If this CIF has been generated from an entry in the Cambridge
# Structural Database, then it will include bibliographic, chemical,
# crystal, experimental, refinement or atomic coordinate data resulting
# from the CCDC's data processing and validation procedures.
#
#######################################################################

data_CSD_CIF_CUTWOD
_audit_creation_date 1986-02-24
_audit_creation_method CSD-ConQuest-V1
_database_code_CSD CUTWOD
_chemical_formula_sum 'C12 H17 N3 O7'
_chemical_formula_moiety
;
C12 H17 N3 O7
;
_journal_coden_Cambridge 154
_journal_volume 37
_journal_year 1984
_journal_page_first 809
_journal_name_full 'Aust.J.Chem. '
loop_
_publ_author_name
"M.P.Hartshorn"
"B.R.Penfold"
"K.H.Sutton"
"J.Vaughan"
_chemical_name_systematic
;
4-t-Butyl-2,6-dimethyl-r-2,t-5,t-6-trinitrocyclohex-3-enone
;
_chemical_melting_point 408.65
_cell_volume   1510.136
_exptl_crystal_colour 'colorless'
_exptl_crystal_density_diffrn 1.39
_exptl_special_details
;
Melts with decomposition.

;
_diffrn_ambient_temperature ?
_diffrn_special_details
;
The study was carried out at room temperature,in the range 283-303K

;
#These two values have been output from a single CSD field.
_refine_ls_R_factor_gt 0.042
_refine_ls_wR_factor_gt 0.042
loop_
_citation_database_id_CSD
_citation_special_details
CUTWIX "is a stereoisomer of this entry"
CUTWUJ "is a stereoisomer of this entry"
_symmetry_cell_setting monoclinic
_symmetry_space_group_name_H-M 'P 21/n'
_symmetry_Int_Tables_number 14
loop_
_symmetry_equiv_pos_site_id
_symmetry_equiv_pos_as_xyz
1 x,y,z
2 1/2-x,1/2+y,1/2-z
3 -x,-y,-z
4 -1/2+x,-1/2-y,-1/2+z
_cell_length_a 7.338(1)
_cell_length_b 12.777(2)
_cell_length_c 16.379(3)
_cell_angle_alpha 90
_cell_angle_beta 100.46(1)
_cell_angle_gamma 90
_cell_formula_units_Z 4
loop_
_atom_type_symbol
_atom_type_radius_bond
C 0.68
H 0.23
N 0.68
O 0.68
loop_
_atom_site_label
_atom_site_type_symbol
_atom_site_fract_x
_atom_site_fract_y
_atom_site_fract_z
C1 C 0.4987(5) 0.1729(3) 0.7951(2)
C2 C 0.4370(5) 0.0957(3) 0.7439(2)
C3 C 0.7060(5) 0.2295(3) 0.6967(2)
C4 C 0.5928(5) 0.2655(3) 0.7614(2)
C5 C 0.4569(5) 0.0866(3) 0.6542(2)
C6 C 0.5789(5) 0.1714(3) 0.6254(2)
C7 C 0.4881(5) 0.1730(3) 0.8878(2)
C8 C 0.8691(5) 0.1607(3) 0.7381(3)
C9 C 0.6849(6) 0.1583(4) 0.9372(2)
C10 C 0.2706(5) 0.0771(3) 0.5953(2)
C11 C 0.3652(6) 0.0837(3) 0.9082(3)
C12 C 0.4098(7) 0.2773(3) 0.9125(3)
N1 N 0.7870(5) 0.3234(3) 0.6575(2)
N2 N 0.5593(4) -0.0188(3) 0.6464(2)
N3 N 0.4396(4) 0.3420(3) 0.7234(2)
O1 O 0.5770(4) 0.1902(2) 0.5537(2)
O2 O 0.4262(4) 0.4245(2) 0.7589(2)
O3 O 0.3393(4) 0.3142(2) 0.6597(2)
O4 O 0.9198(4) 0.3071(3) 0.6248(2)
O5 O 0.7154(5) 0.4083(3) 0.6600(2)
O6 O 0.4982(5) -0.0964(2) 0.6734(2)
O7 O 0.6943(5) -0.0186(3) 0.6131(2)
H1 H 0.82550 0.10180 0.76540
H2 H 0.94700 0.20340 0.77830
H3 H 0.93860 0.13650 0.69750
H4 H 0.67010 0.15660 0.99420
H5 H 0.76540 0.21510 0.92910
H6 H 0.73790 0.09350 0.92330
H7 H 0.20160 0.14060 0.59770
H8 H 0.20200 0.01910 0.61150
H9 H 0.29090 0.06650 0.53960
H10 H 0.35760 0.08920 0.96600
H11 H 0.41750 0.01720 0.89800
H12 H 0.24330 0.08960 0.87530
H13 H 0.49340 0.33160 0.90240
H14 H 0.40490 0.27490 0.97060
H15 H 0.28830 0.29150 0.88140
H16 H 0.6672(38) 0.2994(22) 0.8048(17)
H17 H 0.3793(38) 0.0388(23) 0.7585(17)
#END
