
#######################################################################
#
#                 Cambridge Crystallographic Data Centre
#                                CCDC
#
#######################################################################
#
# If this CIF has been generated from an entry in the Cambridge
# Structural Database, then it will include bibliographic, chemical,
# crystal, experimental, refinement or atomic coordinate data resulting
# from the CCDC's data processing and validation procedures.
#
#######################################################################

data_CSD_CIF_CUTYAS
_audit_creation_date 2010-09-24
_audit_creation_method CSD-ConQuest-V1
_database_code_CSD CUTYAS
_database_code_depnum_ccdc_archive 'CCDC 768991'
_chemical_formula_sum 'C19 H16 N2 O5'
_chemical_formula_moiety
;
C19 H16 N2 O5
;
_journal_coden_Cambridge 179
_journal_volume 49
_journal_year 2010
_journal_page_first 4656
_journal_name_full 'Angew.Chem.,Int.Ed. '
loop_
_publ_author_name
"Shaolin Zhu"
"Shouyun Yu"
"You Wang"
"Dawei Ma"
_chemical_name_systematic
;
2-Benzyl-3-(1,3-dioxo-1,3-dihydro-2H-isoindol-2-yl)-4-nitrobutanal
;
_cell_volume   1708.336
_exptl_crystal_colour 'colorless'
_exptl_crystal_density_diffrn 1.37
_exptl_special_details
;
Absolute configuration

;
_exptl_crystal_description 'prismatic'
_diffrn_ambient_temperature 293
#These two values have been output from a single CSD field.
_refine_ls_R_factor_gt 0.0428
_refine_ls_wR_factor_gt 0.0428
_symmetry_cell_setting orthorhombic
_symmetry_space_group_name_H-M 'P 21 21 21'
_symmetry_Int_Tables_number 19
loop_
_symmetry_equiv_pos_site_id
_symmetry_equiv_pos_as_xyz
1 x,y,z
2 1/2-x,-y,1/2+z
3 -x,1/2+y,1/2-z
4 1/2+x,1/2-y,-z
_cell_length_a 10.855(4)
_cell_length_b 11.464(5)
_cell_length_c 13.728(5)
_cell_angle_alpha 90
_cell_angle_beta 90
_cell_angle_gamma 90
_cell_formula_units_Z 4
loop_
_atom_type_symbol
_atom_type_radius_bond
C 0.68
H 0.23
N 0.68
O 0.68
loop_
_atom_site_label
_atom_site_type_symbol
_atom_site_fract_x
_atom_site_fract_y
_atom_site_fract_z
N1 N 0.7531(2) 0.64247(15) 0.12780(13)
N2 N 0.7496(3) 0.39405(19) 0.09227(17)
O1 O 0.54433(17) 0.64556(19) 0.15458(14)
O2 O 0.96258(18) 0.6677(2) 0.14607(15)
O3 O 0.7571(3) 0.5519(2) -0.17223(15)
O4 O 0.6851(3) 0.3236(2) 0.13241(19)
O5 O 0.8586(3) 0.3962(2) 0.1002(2)
C1 C 0.7539(3) 0.59597(19) 0.02896(16)
H1 H 0.83990 0.58280 0.01040
C2 C 0.6885(3) 0.4786(2) 0.0273(2)
H2 H 0.60360 0.48880 0.04770
H3 H 0.68810 0.44840 -0.03870
C3 C 0.6985(3) 0.6830(2) -0.04364(18)
H4 H 0.61150 0.69390 -0.02700
C4 C 0.7053(3) 0.6384(3) -0.1467(2)
H5 H 0.66580 0.68200 -0.19450
C5 C 0.7611(3) 0.8039(2) -0.0436(2)
H6 H 0.84940 0.79200 -0.04760
H7 H 0.73620 0.84450 -0.10240
C6 C 0.7359(3) 0.8825(2) 0.04140(19)
C7 C 0.8308(3) 0.9347(3) 0.0929(3)
H8 H 0.91220 0.91880 0.07640
C8 C 0.8049(4) 1.0110(3) 0.1693(3)
H9 H 0.86900 1.04640 0.20310
C9 C 0.6867(4) 1.0337(3) 0.1945(3)
H10 H 0.66990 1.08370 0.24620
C10 C 0.5936(3) 0.9842(3) 0.1449(2)
H11 H 0.51260 1.00050 0.16220
C11 C 0.6174(3) 0.9096(2) 0.0690(2)
H12 H 0.55180 0.87660 0.03530
C12 C 0.6476(3) 0.6663(2) 0.18197(19)
C13 C 0.8598(3) 0.6755(2) 0.17702(19)
C14 C 0.8171(3) 0.7246(2) 0.27068(19)
C15 C 0.6914(3) 0.7194(2) 0.27327(19)
C16 C 0.6243(4) 0.7622(3) 0.3505(2)
H13 H 0.53880 0.75770 0.35250
C17 C 0.6922(5) 0.8127(3) 0.4252(3)
H14 H 0.65100 0.84330 0.47880
C18 C 0.8175(5) 0.8185(3) 0.4220(3)
H15 H 0.85940 0.85340 0.47340
C19 C 0.8838(3) 0.7741(3) 0.3451(2)
H16 H 0.96940 0.77750 0.34350
#END
