
#######################################################################
#
#                 Cambridge Crystallographic Data Centre
#                                CCDC
#
#######################################################################
#
# If this CIF has been generated from an entry in the Cambridge
# Structural Database, then it will include bibliographic, chemical,
# crystal, experimental, refinement or atomic coordinate data resulting
# from the CCDC's data processing and validation procedures.
#
#######################################################################

data_CSD_CIF_CUVJUY
_audit_creation_date 1986-02-24
_audit_creation_method CSD-ConQuest-V1
_database_code_CSD CUVJUY
_chemical_formula_sum 'C4 H8 N4 O2'
_chemical_formula_moiety
;
C4 H8 N4 O2
;
_journal_coeditor_code "IUCr A24746"
_journal_coden_Cambridge 591
_journal_volume 41
_journal_year 1985
_journal_page_first 741
_journal_name_full 'Acta Crystallogr.,Sect.C:Cryst.Struct.Commun. '
loop_
_publ_author_name
"K.Sekido"
"K.Okamoto"
"S.Hirokawa"
_chemical_name_systematic
;
1,4-Dinitrosopiperazine
;
_chemical_melting_point 430
_cell_volume    656.323
_exptl_crystal_colour 'colorless'
_exptl_crystal_density_diffrn 1.459
_exptl_special_details
;
derivative of anthelmintic agent

;
_diffrn_ambient_temperature ?
_diffrn_special_details
;
The study was carried out at room temperature,in the range 283-303K

;
#These two values have been output from a single CSD field.
_refine_ls_R_factor_gt 0.089
_refine_ls_wR_factor_gt 0.089
_symmetry_cell_setting orthorhombic
_symmetry_space_group_name_H-M 'P b c a'
_symmetry_Int_Tables_number 61
loop_
_symmetry_equiv_pos_site_id
_symmetry_equiv_pos_as_xyz
1 x,y,z
2 1/2-x,1/2+y,z
3 x,1/2-y,1/2+z
4 1/2-x,-y,1/2+z
5 -x,-y,-z
6 -1/2+x,-1/2-y,-z
7 -x,-1/2+y,-1/2-z
8 -1/2+x,y,-1/2-z
_cell_length_a 9.495(4)
_cell_length_b 6.570(3)
_cell_length_c 10.521(7)
_cell_angle_alpha 90
_cell_angle_beta 90
_cell_angle_gamma 90
_cell_formula_units_Z 4
loop_
_atom_type_symbol
_atom_type_radius_bond
C 0.68
H 0.23
N 0.68
O 0.68
loop_
_atom_site_label
_atom_site_type_symbol
_atom_site_fract_x
_atom_site_fract_y
_atom_site_fract_z
N1 N 0.1195(3) 0.0612(3) 0.0629(3)
C1 C -0.0140(4) 0.0710(4) 0.1292(3)
C2 C 0.1148(3) 0.0847(4) -0.0743(3)
N2 N 0.2337(3) 0.0422(3) 0.1361(3)
O1 O 0.3422(3) 0.0422(3) 0.0772(3)
H1 H -0.050(3) 0.213(3) 0.118(3)
H2 H 0.004(4) 0.039(3) 0.216(3)
H3 H 0.211(3) 0.062(3) -0.104(3)
H4 H 0.077(3) 0.226(4) -0.091(3)
C2D C -0.1148(3) -0.0847(4) 0.0743(3)
C1D C 0.0140(4) -0.0710(4) -0.1292(3)
N1D N -0.1195(3) -0.0612(3) -0.0629(3)
H3D H -0.211(3) -0.062(3) 0.104(3)
H4D H -0.077(3) -0.226(4) 0.091(3)
H1D H 0.050(3) -0.213(3) -0.118(3)
H2D H -0.004(4) -0.039(3) -0.216(3)
N2D N -0.2337(3) -0.0422(3) -0.1361(3)
O1D O -0.3422(3) -0.0422(3) -0.0772(3)
#END
