
#######################################################################
#
#                 Cambridge Crystallographic Data Centre
#                                CCDC
#
#######################################################################
#
# If this CIF has been generated from an entry in the Cambridge
# Structural Database, then it will include bibliographic, chemical,
# crystal, experimental, refinement or atomic coordinate data resulting
# from the CCDC's data processing and validation procedures.
#
#######################################################################

data_CSD_CIF_CUVPOA
_audit_creation_date 2015-11-24
_audit_creation_method CSD-ConQuest-V1
_database_code_CSD CUVPOA
_database_code_depnum_ccdc_archive 'CCDC 1438649'
_chemical_formula_sum 'C13 H10 N2 O7'
_chemical_formula_moiety
;
C13 H10 N2 O7
;
_journal_coden_Cambridge 1336
_journal_volume 17
_journal_year 2015
_journal_page_first 5670
_journal_name_full 'Org.Lett. '
loop_
_publ_author_name
"F.Wagner"
"K.Harms"
"U.Koert"
_chemical_name_systematic
;
Ethyl 3-hydroxy-5,7-dinitro-2-naphthoate
;
_cell_volume    633.475
_exptl_crystal_colour 'yellow'
_exptl_crystal_density_diffrn 1.605
_exptl_crystal_description 'block'
_diffrn_ambient_temperature 100
#These two values have been output from a single CSD field.
_refine_ls_R_factor_gt 0.0328
_refine_ls_wR_factor_gt 0.0328
_symmetry_cell_setting triclinic
_symmetry_space_group_name_H-M 'P -1'
_symmetry_Int_Tables_number 2
loop_
_symmetry_equiv_pos_site_id
_symmetry_equiv_pos_as_xyz
1 x,y,z
2 -x,-y,-z
_cell_length_a 6.4851(6)
_cell_length_b 8.2205(8)
_cell_length_c 12.0587(10)
_cell_angle_alpha 92.463(3)
_cell_angle_beta 91.458(3)
_cell_angle_gamma 99.303(3)
_cell_formula_units_Z 2
loop_
_atom_type_symbol
_atom_type_radius_bond
C 0.68
H 0.23
N 0.68
O 0.68
loop_
_atom_site_label
_atom_site_type_symbol
_atom_site_fract_x
_atom_site_fract_y
_atom_site_fract_z
O1 O 0.38060(15) 0.19461(12) 0.17540(8)
O2 O 0.63932(15) 0.04249(12) 0.17935(8)
O3 O 0.86324(15) 0.05350(12) 0.36576(9)
O4 O 0.74852(17) 0.31390(14) 0.87053(9)
O5 O 0.85312(16) 0.14980(13) 0.74808(9)
O6 O 0.16207(16) 0.56091(13) 0.81982(9)
O7 O -0.02143(15) 0.53126(12) 0.66519(8)
N1 N 0.73948(17) 0.24823(14) 0.77715(10)
N2 N 0.12918(17) 0.50785(13) 0.72365(10)
C1 C 0.5286(2) 0.12984(16) 0.22623(12)
C2 C 0.5460(2) 0.17162(15) 0.34711(11)
C3 C 0.7150(2) 0.12928(15) 0.41241(11)
C4 C 0.7319(2) 0.16429(15) 0.52525(11)
H1 H 0.84580 0.13510 0.56670
C5 C 0.5826(2) 0.24282(15) 0.58034(11)
C6 C 0.5824(2) 0.28863(16) 0.69649(11)
C7 C 0.4379(2) 0.37284(16) 0.74228(12)
H2 H 0.44600 0.40410 0.81920
C8 C 0.2778(2) 0.41219(15) 0.67373(11)
C9 C 0.2608(2) 0.36878(15) 0.56319(11)
H3 H 0.14790 0.39440 0.51910
C10 C 0.4123(2) 0.28554(15) 0.51470(11)
C11 C 0.3984(2) 0.24719(15) 0.39946(11)
H4 H 0.28440 0.27420 0.35690
C12 C 0.3448(2) 0.15205(19) 0.05637(11)
H5 H 0.31230 0.03080 0.04320
H6 H 0.47100 0.19400 0.01510
C13 C 0.1640(3) 0.2309(2) 0.01874(13)
H7 H 0.13130 0.20130 -0.06010
H8 H 0.20050 0.35110 0.02930
H9 H 0.04190 0.19190 0.06240
H10 H 0.821(3) 0.036(2) 0.2930(19)
#END
