
#######################################################################
#
#                 Cambridge Crystallographic Data Centre
#                                CCDC
#
#######################################################################
#
# If this CIF has been generated from an entry in the Cambridge
# Structural Database, then it will include bibliographic, chemical,
# crystal, experimental, refinement or atomic coordinate data resulting
# from the CCDC's data processing and validation procedures.
#
#######################################################################

data_CSD_CIF_CUWKOW
_audit_creation_date 2015-11-24
_audit_creation_method CSD-ConQuest-V1
_database_code_CSD CUWKOW
_database_code_depnum_ccdc_archive 'CCDC 1411556'
_chemical_formula_sum 'C17 H19 N1 O2'
_chemical_formula_moiety
;
C17 H19 N1 O2
;
_journal_coden_Cambridge 1336
_journal_volume 17
_journal_year 2015
_journal_page_first 5578
_journal_name_full 'Org.Lett. '
loop_
_publ_author_name
"S.Das"
"Dongsub Hong"
"Zhiwei Chen"
"Zhigang She"
"W.H.Hersh"
"G.Subramaniam"
"Yu Chen"
_chemical_name_systematic
;
(E)-4-(2-(3-(t-butyl)isoxazol-5-yl)phenyl)but-3-en-2-one
;
_cell_volume   1500.117
_exptl_crystal_colour 'white'
_exptl_crystal_density_diffrn 1.193
_exptl_crystal_preparation 'n-hexane/ethyl acetate'
_diffrn_ambient_temperature 100
#These two values have been output from a single CSD field.
_refine_ls_R_factor_gt 0.0378
_refine_ls_wR_factor_gt 0.0378
_symmetry_cell_setting monoclinic
_symmetry_space_group_name_H-M 'P 21/c'
_symmetry_Int_Tables_number 14
loop_
_symmetry_equiv_pos_site_id
_symmetry_equiv_pos_as_xyz
1 x,y,z
2 -x,1/2+y,1/2-z
3 -x,-y,-z
4 x,-1/2-y,-1/2+z
_cell_length_a 9.5944(18)
_cell_length_b 19.750(4)
_cell_length_c 7.9170(15)
_cell_angle_alpha 90
_cell_angle_beta 90.554(2)
_cell_angle_gamma 90
_cell_formula_units_Z 4
loop_
_atom_type_symbol
_atom_type_radius_bond
C 0.68
H 0.23
N 0.68
O 0.68
loop_
_atom_site_label
_atom_site_type_symbol
_atom_site_fract_x
_atom_site_fract_y
_atom_site_fract_z
C1 C 0.62111(12) 0.51286(6) 0.24535(14)
C2 C 0.58821(12) 0.58049(6) 0.29233(14)
H1 H 0.64760 0.61890 0.28990
C3 C 0.45375(12) 0.57793(5) 0.34110(14)
C4 C 0.35385(11) 0.62938(6) 0.39620(14)
C5 C 0.21480(12) 0.62562(6) 0.34176(14)
H2 H 0.18490 0.58840 0.27450
C6 C 0.12044(12) 0.67554(6) 0.38491(15)
H3 H 0.02630 0.67250 0.34750
C7 C 0.16364(12) 0.73012(6) 0.48312(16)
H4 H 0.09910 0.76460 0.51200
C8 C 0.30081(12) 0.73430(6) 0.53908(15)
H5 H 0.32930 0.77170 0.60660
C9 C 0.39778(11) 0.68428(6) 0.49744(14)
C10 C 0.54026(11) 0.68653(6) 0.56745(14)
H6 H 0.58330 0.64450 0.59460
C11 C 0.61385(12) 0.74262(6) 0.59588(15)
H7 H 0.57260 0.78490 0.56750
C12 C 0.75587(12) 0.74272(6) 0.66904(16)
C13 C 0.82519(13) 0.67676(7) 0.71303(18)
H8 H 0.91980 0.68550 0.75550
H9 H 0.82970 0.64820 0.61200
H10 H 0.77130 0.65360 0.80020
C14 C 0.75999(12) 0.48843(6) 0.17941(14)
C15 C 0.75289(15) 0.41382(6) 0.12923(18)
H11 H 0.73190 0.38640 0.22890
H12 H 0.84270 0.39980 0.08290
H13 H 0.67950 0.40750 0.04370
C16 C 0.79660(13) 0.53206(6) 0.02535(15)
H14 H 0.72140 0.52900 -0.05900
H15 H 0.88370 0.51570 -0.02390
H16 H 0.80800 0.57930 0.06070
C17 C 0.87105(13) 0.49897(7) 0.31821(16)
H17 H 0.87710 0.54720 0.34640
H18 H 0.96160 0.48320 0.27770
H19 H 0.84520 0.47330 0.41900
N1 N 0.51471(10) 0.47231(5) 0.26426(12)
O1 O 0.40516(8) 0.51356(4) 0.32634(10)
O2 O 0.81592(9) 0.79644(5) 0.69258(14)
#END
