
#######################################################################
#
#                 Cambridge Crystallographic Data Centre
#                                CCDC
#
#######################################################################
#
# If this CIF has been generated from an entry in the Cambridge
# Structural Database, then it will include bibliographic, chemical,
# crystal, experimental, refinement or atomic coordinate data resulting
# from the CCDC's data processing and validation procedures.
#
#######################################################################

data_CSD_CIF_CUXSIY
_audit_creation_date 2011-01-12
_audit_creation_method CSD-ConQuest-V1
_database_code_CSD CUXSIY
_database_code_depnum_ccdc_archive 'CCDC 758188'
_chemical_formula_sum 'C27 H26 N4 O7'
_chemical_formula_moiety
;
C27 H26 N4 O7
;
_journal_coden_Cambridge 154
_journal_volume 63
_journal_year 2010
_journal_page_first 813
_journal_name_full 'Aust.J.Chem. '
loop_
_publ_author_name
"P.P.Molesworth"
"M.G.Gardiner"
"R.C.Jones"
"J.A.Smith"
"R.S.Tegg"
"C.Wilson"
_chemical_name_systematic
;
t-Butyl 
3-((4-acetyl-5-benzyl-3,6-dioxopiperazin-2-ylidene)methyl)-4-nitro-1H-indole-1
-carboxylate
;
_chemical_name_common
;
(+-)-t-Butyl 
3-[(Z)-(4-acetyl-5-benzyl-3,6-dioxo-piperazin-2-ylidene)methyl]-4-nitroindole-
1-carboxylate
;
_cell_volume   2505.493
_exptl_crystal_colour 'yellow'
_exptl_crystal_density_diffrn 1.375
_exptl_crystal_description 'plate'
_diffrn_ambient_temperature 100
_diffrn_radiation_probe x-ray
_diffrn_source synchrotron
#These two values have been output from a single CSD field.
_refine_ls_R_factor_gt 0.0384
_refine_ls_wR_factor_gt 0.0384
_symmetry_cell_setting monoclinic
_symmetry_space_group_name_H-M 'P 21/n'
_symmetry_Int_Tables_number 14
loop_
_symmetry_equiv_pos_site_id
_symmetry_equiv_pos_as_xyz
1 x,y,z
2 1/2-x,1/2+y,1/2-z
3 -x,-y,-z
4 -1/2+x,-1/2-y,-1/2+z
_cell_length_a 13.3800(11)
_cell_length_b 8.4840(8)
_cell_length_c 22.9030(14)
_cell_angle_alpha 90
_cell_angle_beta 105.484(1)
_cell_angle_gamma 90
_cell_formula_units_Z 4
loop_
_atom_type_symbol
_atom_type_radius_bond
C 0.68
H 0.23
N 0.68
O 0.68
loop_
_atom_site_label
_atom_site_type_symbol
_atom_site_fract_x
_atom_site_fract_y
_atom_site_fract_z
C1 C 0.38184(11) 0.09709(18) 0.01335(7)
C2 C 0.45590(11) 0.21457(18) 0.01427(7)
C3 C 0.56747(12) 0.11339(19) 0.10675(7)
H1 H 0.63010 0.12070 0.13820
C4 C 0.49760(11) -0.00552(19) 0.10847(7)
H2 H 0.51140 -0.08060 0.14040
C5 C 0.54735(12) 0.22315(19) 0.05938(7)
H3 H 0.59660 0.30310 0.05840
O1 O 0.51095(8) 0.38832(13) -0.04879(5)
N1 N 0.43669(10) 0.33702(15) -0.03253(6)
N2 N 0.32659(9) -0.12314(15) 0.05095(6)
C6 C 0.25507(11) -0.08557(18) -0.00255(7)
H4 H 0.19420 -0.14480 -0.02000
O2 O 0.34737(8) 0.38539(13) -0.05230(5)
C7 C 0.28328(11) 0.04830(18) -0.02722(7)
C8 C 0.40646(11) -0.01135(18) 0.06188(7)
O3 O 0.25149(8) -0.35410(13) 0.05610(5)
O4 O 0.36891(9) -0.26006(14) 0.14041(5)
C9 C 0.22505(13) -0.50044(19) 0.08484(7)
C10 C 0.31974(12) -0.25188(18) 0.08836(7)
O5 O 0.12601(8) 0.23559(14) -0.19869(5)
N3 N 0.05458(10) 0.06998(16) -0.07094(6)
C11 C 0.12199(11) 0.11460(18) -0.10602(7)
C12 C 0.07442(11) 0.17601(18) -0.16827(7)
N4 N -0.03372(9) 0.16185(16) -0.18795(6)
O6 O -0.09976(8) -0.02443(14) -0.06311(5)
C13 C -0.04471(11) 0.02581(18) -0.09427(7)
C14 C 0.01605(12) -0.19747(19) -0.18769(7)
C15 C 0.06260(13) -0.2888(2) -0.13667(8)
H5 H 0.02940 -0.29950 -0.10510
C16 C 0.16196(15) -0.2561(2) -0.22757(9)
H6 H 0.19660 -0.24370 -0.25850
C17 C 0.06698(13) -0.1817(2) -0.23281(8)
H7 H 0.03690 -0.11960 -0.26760
C18 C 0.15661(14) -0.3637(2) -0.13181(9)
H8 H 0.18720 -0.42580 -0.09710
C19 C 0.20575(14) -0.3479(2) -0.17733(10)
H9 H 0.26980 -0.40020 -0.17420
C20 C -0.09679(12) 0.25008(19) -0.23643(7)
C21 C 0.32184(14) -0.5972(2) 0.11071(8)
H10 H 0.36100 -0.60740 0.08030
H11 H 0.30220 -0.70220 0.12170
H12 H 0.36500 -0.54480 0.14680
C22 C 0.15286(14) -0.5837(2) 0.03107(8)
H13 H 0.09450 -0.51430 0.01250
H14 H 0.12670 -0.68080 0.04490
H15 H 0.19090 -0.60960 0.00120
C23 C 0.16956(14) -0.4528(2) 0.13198(8)
H16 H 0.21620 -0.38920 0.16350
H17 H 0.14890 -0.54750 0.15030
H18 H 0.10780 -0.39090 0.11260
C24 C -0.05223(14) 0.3908(2) -0.25939(8)
H19 H -0.01160 0.35670 -0.28690
H20 H -0.00730 0.44810 -0.22520
H21 H -0.10850 0.46010 -0.28110
C25 C 0.22556(11) 0.11303(18) -0.08531(7)
H22 H 0.26430 0.15760 -0.11050
O7 O -0.18714(8) 0.21089(15) -0.25609(5)
C26 C -0.08719(11) 0.03905(19) -0.16231(7)
H23 H -0.16110 0.07340 -0.17000
C27 C -0.08880(12) -0.12199(19) -0.19406(7)
H24 H -0.13190 -0.19560 -0.17760
H25 H -0.12310 -0.10810 -0.23770
H26 H 0.0787(15) 0.060(2) -0.0331(10)
#END
