
#######################################################################
#
#                 Cambridge Crystallographic Data Centre
#                                CCDC
#
#######################################################################
#
# If this CIF has been generated from an entry in the Cambridge
# Structural Database, then it will include bibliographic, chemical,
# crystal, experimental, refinement or atomic coordinate data resulting
# from the CCDC's data processing and validation procedures.
#
#######################################################################

data_CSD_CIF_CUXVEW
_audit_creation_date 1986-02-24
_audit_creation_method CSD-ConQuest-V1
_database_code_CSD CUXVEW
_chemical_formula_sum 'C36 H46 N4 O1'
_chemical_formula_moiety
;
C36 H46 N4 O1
;
_journal_coden_Cambridge 4
_journal_volume 107
_journal_year 1985
_journal_page_first 2393
_journal_name_full 'J.Am.Chem.Soc. '
loop_
_publ_author_name
"A.L.Balch"
"Yee Wai Chan"
"M.Olmstead"
"M.W.Renner"
_chemical_name_systematic
;
Octaethylporphyrin N-oxide
;
_cell_volume    732.712
_exptl_crystal_colour 'dark red-purple'
_exptl_crystal_density_diffrn 1.25
_exptl_special_details
;
z/c(C9) = 0.5848 (not 0.2848)

;
_diffrn_ambient_temperature 140
_refine_special_details
;
The oxygen is disordered over four sites; one position, of occupancy 0.42, is 
retained. There is only ONE oxygen atom per molecule.
;
#These two values have been output from a single CSD field.
_refine_ls_R_factor_gt 0.062
_refine_ls_wR_factor_gt 0.062
_symmetry_cell_setting triclinic
_symmetry_space_group_name_H-M 'P -1'
_symmetry_Int_Tables_number 2
loop_
_symmetry_equiv_pos_site_id
_symmetry_equiv_pos_as_xyz
1 x,y,z
2 -x,-y,-z
_cell_length_a 7.612(3)
_cell_length_b 9.740(4)
_cell_length_c 10.566(4)
_cell_angle_alpha 91.61(3)
_cell_angle_beta 98.49(3)
_cell_angle_gamma 108.43(3)
_cell_formula_units_Z 1
loop_
_atom_type_symbol
_atom_type_radius_bond
C 0.68
H 0.23
N 0.68
O 0.68
loop_
_atom_site_label
_atom_site_type_symbol
_atom_site_fract_x
_atom_site_fract_y
_atom_site_fract_z
O1 O 0.0306(7) -0.0309(6) 0.6271(5)
N1 N -0.0046(4) 0.0875(3) 0.6830(3)
N2 N 0.2872(4) 0.1276(3) 0.5121(3)
C1 C 0.1375(5) 0.2005(4) 0.7503(3)
C2 C 0.3172(5) 0.2578(4) 0.7185(3)
C3 C 0.3895(5) 0.2248(4) 0.6124(3)
C4 C 0.3982(4) 0.1220(4) 0.4225(3)
C5 C 0.3381(5) 0.0331(4) 0.3079(3)
C6 C -0.1611(5) 0.0660(4) 0.7388(3)
C7 C -0.1139(5) 0.1690(4) 0.8512(3)
C8 C 0.0693(4) 0.2528(4) 0.8570(3)
C9 C 0.5776(4) 0.2860(4) 0.5848(3)
C10 C 0.5835(5) 0.2217(4) 0.4696(3)
C11 C -0.2446(5) 0.1769(4) 0.9421(3)
C12 C -0.2407(6) 0.0793(4) 1.0499(4)
C13 C 0.1834(5) 0.3753(4) 0.9540(3)
C14 C 0.3238(5) 0.3363(4) 1.0514(4)
C15 C 0.7320(5) 0.4059(4) 0.6666(3)
C16 C 0.7325(5) 0.5549(4) 0.6272(4)
C17 C 0.7486(5) 0.2468(4) 0.4011(3)
C18 C 0.7479(5) 0.3505(4) 0.2948(4)
H1 H 0.1654(54) 0.0703(42) 0.5043(37)
H2 H 0.40450 0.33160 0.77970
H3 H 0.43140 0.04130 0.25400
H4 H -0.20910 0.27520 0.97840
H5 H -0.37010 0.14890 0.89500
H6 H -0.32880 0.08310 1.10510
H7 H -0.11570 0.11330 1.09800
H8 H -0.26830 -0.01900 1.01580
H9 H 0.25080 0.45450 0.90940
H10 H 0.09940 0.40520 0.99920
H11 H 0.39330 0.41530 1.11400
H12 H 0.40850 0.31070 1.00380
H13 H 0.25910 0.25410 1.09390
H14 H 0.71450 0.39880 0.75460
H15 H 0.85060 0.39460 0.65780
H16 H 0.82910 0.63120 0.68090
H17 H 0.61250 0.56590 0.63150
H18 H 0.75500 0.55980 0.54020
H19 H 0.86160 0.28730 0.46240
H20 H 0.74630 0.15520 0.36340
H21 H 0.85070 0.36330 0.24860
H22 H 0.75590 0.44220 0.33530
H23 H 0.63140 0.31290 0.23630
C6A C 0.1611(5) -0.0660(4) 0.2612(3)
C5A C -0.3381(5) -0.0331(4) 0.6921(3)
N1A N 0.0046(4) -0.0875(3) 0.3170(3)
C7A C 0.1139(5) -0.1690(4) 0.1488(3)
C4A C -0.3982(4) -0.1220(4) 0.5775(3)
H3A H -0.43140 -0.04130 0.74600
O1A O -0.0306(7) 0.0309(6) 0.3729(5)
C1A C -0.1375(5) -0.2005(4) 0.2497(3)
C8A C -0.0693(4) -0.2528(4) 0.1430(3)
C11A C 0.2446(5) -0.1769(4) 0.0579(3)
N2A N -0.2872(4) -0.1276(3) 0.4879(3)
C10A C -0.5835(5) -0.2217(4) 0.5304(3)
C2A C -0.3172(5) -0.2578(4) 0.2815(3)
C13A C -0.1834(5) -0.3753(4) 0.0460(3)
C12A C 0.2407(6) -0.0793(4) -0.0499(4)
H4A H 0.20910 -0.27520 0.02160
H5A H 0.37010 -0.14890 0.10500
C3A C -0.3895(5) -0.2248(4) 0.3876(3)
H1A H -0.1654(54) -0.0703(42) 0.4957(37)
C9A C -0.5776(4) -0.2860(4) 0.4152(3)
C17A C -0.7486(5) -0.2468(4) 0.5989(3)
H2A H -0.40450 -0.33160 0.22030
C14A C -0.3238(5) -0.3363(4) -0.0514(4)
H9A H -0.25080 -0.45450 0.09060
H10A H -0.09940 -0.40520 0.00080
H6A H 0.32880 -0.08310 -0.10510
H7A H 0.11570 -0.11330 -0.09800
H8A H 0.26830 0.01900 -0.01580
C15A C -0.7320(5) -0.4059(4) 0.3334(3)
C18A C -0.7479(5) -0.3505(4) 0.7052(4)
H19A H -0.86160 -0.28730 0.53760
H20A H -0.74630 -0.15520 0.63660
H11A H -0.39330 -0.41530 -0.11400
H12A H -0.40850 -0.31070 -0.00380
H13A H -0.25910 -0.25410 -0.09390
C16A C -0.7325(5) -0.5549(4) 0.3728(4)
H14A H -0.71450 -0.39880 0.24540
H15A H -0.85060 -0.39460 0.34220
H21A H -0.85070 -0.36330 0.75140
H22A H -0.75590 -0.44220 0.66470
H23A H -0.63140 -0.31290 0.76370
H16A H -0.82910 -0.63120 0.31910
H17A H -0.61250 -0.56590 0.36850
H18A H -0.75500 -0.55980 0.45980
#END
