
#######################################################################
#
#                 Cambridge Crystallographic Data Centre
#                                CCDC
#
#######################################################################
#
# If this CIF has been generated from an entry in the Cambridge
# Structural Database, then it will include bibliographic, chemical,
# crystal, experimental, refinement or atomic coordinate data resulting
# from the CCDC's data processing and validation procedures.
#
#######################################################################

data_CSD_CIF_CUZMOZ
_audit_creation_date 2000-05-24
_audit_creation_method CSD-ConQuest-V1
_database_code_CSD CUZMOZ
_database_code_depnum_ccdc_archive 'CCDC 142761'
_chemical_formula_sum 'C4 H5 N3 O2'
_chemical_formula_moiety
;
C4 H5 N3 O2
;
_journal_coeditor_code "IUCr NA1434"
_journal_coden_Cambridge 591
_journal_volume 56
_journal_year 2000
_journal_page_first 215
_journal_name_full 'Acta Crystallogr.,Sect.C:Cryst.Struct.Commun. '
loop_
_publ_author_name
"C.Foces-Foces"
"N.Jagerovic"
"J.Elguero"
_chemical_name_systematic
;
1-Methyl-3-nitro-pyrazole
;
_cell_volume    573.903
_exptl_crystal_colour 'colorless'
_exptl_crystal_density_diffrn 1.471
_exptl_crystal_description 'rectangular prism'
_exptl_crystal_preparation 'ethyl acetate'
_diffrn_ambient_temperature ?
_diffrn_special_details
;
The study was carried out at room temperature,in the range 283-303K

;
#These two values have been output from a single CSD field.
_refine_ls_R_factor_gt 0.043
_refine_ls_wR_factor_gt 0.043
_symmetry_cell_setting orthorhombic
_symmetry_space_group_name_H-M 'P n a m'
_symmetry_Int_Tables_number 62
loop_
_symmetry_equiv_pos_site_id
_symmetry_equiv_pos_as_xyz
1 x,y,z
2 x,y,1/2-z
3 1/2-x,1/2+y,1/2+z
4 1/2+x,1/2-y,z
5 -x,-y,-z
6 -x,-y,-1/2+z
7 -1/2+x,-1/2-y,-1/2-z
8 -1/2-x,-1/2+y,-z
_cell_length_a 10.5062(5)
_cell_length_b 8.5940(4)
_cell_length_c 6.3562(3)
_cell_angle_alpha 90
_cell_angle_beta 90
_cell_angle_gamma 90
_cell_formula_units_Z 4
loop_
_atom_type_symbol
_atom_type_radius_bond
C 0.68
H 0.23
N 0.68
O 0.68
loop_
_atom_site_label
_atom_site_type_symbol
_atom_site_fract_x
_atom_site_fract_y
_atom_site_fract_z
N1 N 0.13497(16) 0.2825(2) 0.25000
N2 N 0.03272(16) 0.3748(2) 0.25000
C1 C 0.0822(2) 0.5158(2) 0.25000
C2 C 0.2139(2) 0.5173(3) 0.25000
C3 C 0.2443(2) 0.3637(3) 0.25000
C4 C 0.1188(3) 0.1150(3) 0.25000
N3 N -0.0017(2) 0.6490(2) 0.25000
O1 O -0.11584(17) 0.6290(2) 0.25000
O2 O 0.0478(3) 0.7769(2) 0.25000
H1 H 0.27059 0.60650 0.25000
H2 H 0.32337 0.31664 0.25000
H3 H 0.20302 0.06790 0.25000
H4 H 0.07152 0.08229 0.12590
H4A H 0.07152 0.08229 0.37410
#END
