
#######################################################################
#
#                 Cambridge Crystallographic Data Centre
#                                CCDC
#
#######################################################################
#
# If this CIF has been generated from an entry in the Cambridge
# Structural Database, then it will include bibliographic, chemical,
# crystal, experimental, refinement or atomic coordinate data resulting
# from the CCDC's data processing and validation procedures.
#
#######################################################################

data_CSD_CIF_CXMPYO
_audit_creation_date 1976-03-15
_audit_creation_method CSD-ConQuest-V1
_database_code_CSD CXMPYO
_chemical_formula_sum 'C7 H7 N1 O3'
_chemical_formula_moiety
;
C7 H7 N1 O3
;
_journal_coeditor_code "IUCr A12500"
_journal_coden_Cambridge 107
_journal_volume 31
_journal_year 1975
_journal_page_first 2719
_journal_name_full 'Acta Crystallogr.,Sect.B:Struct.Crystallogr.Cryst.Chem. '
loop_
_publ_author_name
"O.Dideberg"
"L.Dupont"
_chemical_name_systematic
;
2-Carboxy-6-methylpyridine N-oxide
;
_cell_volume    687.345
_exptl_crystal_density_diffrn 1.479
_diffrn_ambient_temperature ?
_diffrn_special_details
;
The study was carried out at room temperature,in the range 283-303K

;
#These two values have been output from a single CSD field.
_refine_ls_R_factor_gt 0.043
_refine_ls_wR_factor_gt 0.043
_symmetry_cell_setting orthorhombic
_symmetry_space_group_name_H-M 'P b n m'
_symmetry_Int_Tables_number 62
loop_
_symmetry_equiv_pos_site_id
_symmetry_equiv_pos_as_xyz
1 x,y,z
2 1/2-x,1/2+y,z
3 1/2+x,1/2-y,1/2+z
4 -x,-y,1/2+z
5 -x,-y,-z
6 -1/2+x,-1/2-y,-z
7 -1/2-x,-1/2+y,-1/2-z
8 x,y,-1/2-z
_cell_length_a 9.179
_cell_length_b 12.01
_cell_length_c 6.235
_cell_angle_alpha 90
_cell_angle_beta 90
_cell_angle_gamma 90
_cell_formula_units_Z 4
loop_
_atom_type_symbol
_atom_type_radius_bond
C 0.68
H 0.23
N 0.68
O 0.68
loop_
_atom_site_label
_atom_site_type_symbol
_atom_site_fract_x
_atom_site_fract_y
_atom_site_fract_z
C1 C 0.42850 0.38370 0.25000
C2 C 0.39680 0.27160 0.25000
C3 C 0.50830 0.19470 0.25000
C4 C 0.65010 0.23120 0.25000
C5 C 0.68320 0.34380 0.25000
C6 C 0.83300 0.39080 0.25000
C7 C 0.30720 0.46850 0.25000
H1 H 0.29200 0.24900 0.25000
H2 H 0.48600 0.12100 0.25000
H3 H 0.73600 0.17900 0.25000
H4 H 0.84700 0.43900 0.11800
H5 H 0.90200 0.32800 0.25000
H6 H 0.45700 0.57000 0.25000
N1 N 0.57050 0.41700 0.25000
O1 O 0.60300 0.52590 0.25000
O2 O 0.18260 0.43830 0.25000
O3 O 0.34750 0.57280 0.25000
H4G H 0.84700 0.43900 0.38200
#END
