
#######################################################################
#
#                 Cambridge Crystallographic Data Centre
#                                CCDC
#
#######################################################################
#
# If this CIF has been generated from an entry in the Cambridge
# Structural Database, then it will include bibliographic, chemical,
# crystal, experimental, refinement or atomic coordinate data resulting
# from the CCDC's data processing and validation procedures.
#
#######################################################################

data_CSD_CIF_CXPYRO10
_audit_creation_date 1974-07-18
_audit_creation_method CSD-ConQuest-V1
_database_code_CSD CXPYRO10
_database_code_depnum_ccdc_archive 'CCDC 1134491'
_chemical_formula_sum 'C9 H16 N1 O3'
_chemical_formula_moiety
;
C9 H16 N1 O3
;
_journal_coeditor_code "IUCr A28751"
_journal_coden_Cambridge 107
_journal_volume 30
_journal_year 1974
_journal_page_first 568
_journal_name_full 'Acta Crystallogr.,Sect.B:Struct.Crystallogr.Cryst.Chem. '
loop_
_publ_author_name
"J.B.Wetherington"
"S.S.Ament"
"J.W.Moncrief"
_chemical_name_systematic
;
R-(+)-3-Carboxy-2,2,5,5-tetramethyl-1-pyrrolidinyl-1-oxyl
;
_chemical_melting_point 478.15
_cell_volume   1013.092
_exptl_crystal_colour 'pale yellow'
_exptl_crystal_density_diffrn 1.22
_exptl_special_details
;
Melting point range 478.15-480.15K
Absolute configuration

;
_diffrn_ambient_temperature ?
_diffrn_special_details
;
The study was carried out at room temperature,in the range 283-303K

;
#These two values have been output from a single CSD field.
_refine_ls_R_factor_gt 0.054
_refine_ls_wR_factor_gt 0.054
loop_
_citation_database_id_CSD
_citation_special_details
RCXPYO "is a racemate of this entry"
_symmetry_cell_setting orthorhombic
_symmetry_space_group_name_H-M 'P 21 21 21'
_symmetry_Int_Tables_number 19
loop_
_symmetry_equiv_pos_site_id
_symmetry_equiv_pos_as_xyz
1 x,y,z
2 1/2+x,1/2-y,-z
3 -x,1/2+y,1/2-z
4 1/2-x,-y,1/2+z
_cell_length_a 8.089(16)
_cell_length_b 10.097(1)
_cell_length_c 12.404(24)
_cell_angle_alpha 90
_cell_angle_beta 90
_cell_angle_gamma 90
_cell_formula_units_Z 4
loop_
_atom_type_symbol
_atom_type_radius_bond
C 0.68
H 0.20
N 0.68
O 0.68
loop_
_atom_site_label
_atom_site_type_symbol
_atom_site_fract_x
_atom_site_fract_y
_atom_site_fract_z
C1 C 0.45770 0.13000 0.13300
C2 C 0.41570 0.37460 0.12350
C3 C 0.19610 0.25430 0.34590
C4 C 0.08210 0.28610 0.24840
C5 C 0.16820 0.22160 0.15300
C6 C 0.35360 0.24420 0.17090
C7 C 0.16950 0.11690 0.39510
C8 C 0.19410 0.36040 0.43190
C9 C -0.09330 0.23690 0.26360
H1 H -0.28610 0.28130 0.31160
H2 H 0.43270 0.05840 0.16600
H3 H 0.42900 0.12690 0.05720
H4 H 0.58540 0.15870 0.13860
H5 H 0.40750 0.36200 0.03810
H6 H 0.55560 0.39770 0.15230
H7 H 0.35500 0.44650 0.14300
H8 H 0.08010 0.37960 0.24200
H9 H 0.13830 0.13080 0.15230
H10 H 0.14130 0.26530 0.08750
H11 H 0.17030 0.04970 0.33640
H12 H 0.24990 0.08620 0.43530
H13 H 0.08080 0.11610 0.43760
H14 H 0.28890 0.32870 0.47790
H15 H 0.09650 0.36920 0.46720
H16 H 0.22190 0.44920 0.39970
N1 N 0.35860 0.25430 0.28980
O1 O -0.13930 0.12830 0.24260
O2 O -0.19110 0.32360 0.30860
O3 O 0.49300 0.25540 0.34310
#END
