
#######################################################################
#
#                 Cambridge Crystallographic Data Centre
#                                CCDC
#
#######################################################################
#
# If this CIF has been generated from an entry in the Cambridge
# Structural Database, then it will include bibliographic, chemical,
# crystal, experimental, refinement or atomic coordinate data resulting
# from the CCDC's data processing and validation procedures.
#
#######################################################################

data_CSD_CIF_CYCOXA
_audit_creation_date 1981-11-16
_audit_creation_method CSD-ConQuest-V1
_database_code_CSD CYCOXA
_database_code_depnum_ccdc_archive 'CCDC 1134575'
_chemical_formula_sum 'C8 H15 N1 O1'
_chemical_formula_moiety
;
C8 H15 N1 O1
;
_journal_coden_Cambridge 3
_journal_volume 35
_journal_year 1981
_journal_page_first 117
_journal_name_full 'Acta Chem.Scand. '
loop_
_publ_author_name
"P.Groth"
_chemical_name_systematic
;
Cyclo-octane oxime
;
_cell_volume   1638.417
_exptl_crystal_density_diffrn 1.15
_diffrn_ambient_temperature 123.15
#These two values have been output from a single CSD field.
_refine_ls_R_factor_gt 0.083
_refine_ls_wR_factor_gt 0.083
_symmetry_cell_setting monoclinic
_symmetry_space_group_name_H-M 'C 2/c'
_symmetry_Int_Tables_number 15
loop_
_symmetry_equiv_pos_site_id
_symmetry_equiv_pos_as_xyz
1 x,y,z
2 1/2+x,1/2+y,z
3 -x,y,1/2-z
4 1/2-x,1/2+y,1/2-z
5 -x,-y,-z
6 -1/2-x,-1/2-y,-z
7 x,-y,-1/2+z
8 -1/2+x,-1/2-y,-1/2+z
_cell_length_a 23.802(10)
_cell_length_b 6.925(4)
_cell_length_c 10.469(4)
_cell_angle_alpha 90
_cell_angle_beta 108.29(3)
_cell_angle_gamma 90
_cell_formula_units_Z 8
loop_
_atom_type_symbol
_atom_type_radius_bond
C 0.68
H 0.23
N 0.68
O 0.68
loop_
_atom_site_label
_atom_site_type_symbol
_atom_site_fract_x
_atom_site_fract_y
_atom_site_fract_z
O1 O 0.69620 0.39980 0.44920
N1 N 0.71180 0.27570 0.35470
C1 C 0.68330 0.32170 0.23360
C2 C 0.63990 0.48220 0.19560
C3 C 0.57830 0.43320 0.20410
C4 C 0.54390 0.27760 0.11010
C5 C 0.57200 0.07720 0.13110
C6 C 0.60200 0.00940 0.02800
C7 C 0.64750 0.15130 0.00510
C8 C 0.69920 0.20130 0.12700
H1 H 0.63200 0.53500 0.10100
H2 H 0.65900 0.59100 0.25500
H3 H 0.55900 0.56700 0.19800
H4 H 0.58300 0.39600 0.29800
H5 H 0.53800 0.31000 0.02300
H6 H 0.50000 0.26700 0.10300
H7 H 0.54000 -0.01700 0.12500
H8 H 0.60200 0.06300 0.22000
H9 H 0.57000 -0.00500 -0.05000
H10 H 0.62200 -0.11200 0.04900
H11 H 0.62800 0.25600 -0.03100
H12 H 0.66200 0.09000 -0.05900
H13 H 0.72700 0.28100 0.09800
H14 H 0.71500 0.08600 0.17100
H15 H 0.73000 0.33600 0.52100
#END
