
#######################################################################
#
#                 Cambridge Crystallographic Data Centre
#                                CCDC
#
#######################################################################
#
# If this CIF has been generated from an entry in the Cambridge
# Structural Database, then it will include bibliographic, chemical,
# crystal, experimental, refinement or atomic coordinate data resulting
# from the CCDC's data processing and validation procedures.
#
#######################################################################

data_CSD_CIF_DABQEF
_audit_creation_date 2015-11-21
_audit_creation_method CSD-ConQuest-V1
_database_code_CSD DABQEF
_database_code_depnum_ccdc_archive 'CCDC 1435921'
_chemical_formula_sum 'C31 H27 N1 O6'
_chemical_formula_moiety
;
C31 H27 N1 O6
;
_journal_coeditor_code "xu5879"
_journal_coden_Cambridge 1828
_journal_volume 71
_journal_year 2015
_journal_page_first 1510
_journal_name_full 'Acta Crystallogr.,Sect.E:Cryst.Commun. '
loop_
_publ_author_name
"X.-Y.Zhang"
"B.-X.Hu"
"Z.-Y.Zhou"
"L.Zhou"
"F.-M.Wang"
_chemical_name_systematic
;
4a-hydroxy-9-(3-nitrophenyl)-3,6-diphenyl-3,4,4a,5,6,7,9,9a-octahydro-1H-xanth
ene-1,8(2H)-dione
;
_cell_volume   2578.064
_exptl_crystal_colour 'colorless'
_exptl_crystal_density_diffrn 1.313
_exptl_crystal_description 'block'
_diffrn_ambient_temperature 291
#These two values have been output from a single CSD field.
_refine_ls_R_factor_gt 0.0438
_refine_ls_wR_factor_gt 0.0438
_symmetry_cell_setting orthorhombic
_symmetry_space_group_name_H-M 'P 21 21 21'
_symmetry_Int_Tables_number 19
loop_
_symmetry_equiv_pos_site_id
_symmetry_equiv_pos_as_xyz
1 x,y,z
2 1/2-x,-y,1/2+z
3 -x,1/2+y,1/2-z
4 1/2+x,1/2-y,-z
_cell_length_a 8.973(4)
_cell_length_b 13.520(6)
_cell_length_c 21.251(9)
_cell_angle_alpha 90
_cell_angle_beta 90
_cell_angle_gamma 90
_cell_formula_units_Z 4
loop_
_atom_type_symbol
_atom_type_radius_bond
C 0.68
H 0.23
N 0.68
O 0.68
loop_
_atom_site_label
_atom_site_type_symbol
_atom_site_fract_x
_atom_site_fract_y
_atom_site_fract_z
C1 C 0.3896(4) 0.0908(2) -0.07887(14)
C2 C 0.3277(3) 0.09893(19) -0.01590(13)
C3 C 0.1786(3) 0.1037(2) -0.00994(13)
C4 C 0.0696(3) 0.0842(2) -0.06132(15)
H1 H 0.02060 0.14570 -0.07250
H2 H -0.00610 0.03900 -0.04600
C5 C 0.1411(4) 0.0405(3) -0.11952(16)
H3 H 0.16510 -0.02800 -0.10840
C6 C 0.2850(4) 0.0872(3) -0.13382(17)
H4 H 0.26720 0.15410 -0.14840
H5 H 0.33230 0.05110 -0.16780
C7 C 0.0334(4) 0.0332(3) -0.17443(15)
C8 C 0.0491(5) 0.0871(3) -0.22896(16)
H6 H 0.12540 0.13330 -0.23240
C9 C -0.0483(8) 0.0729(4) -0.27876(19)
H7 H -0.03650 0.10970 -0.31540
C10 C -0.1603(7) 0.0061(5) -0.2747(2)
H8 H -0.22480 -0.00330 -0.30840
C11 C -0.1778(6) -0.0470(5) -0.2208(3)
H9 H -0.25460 -0.09290 -0.21760
C12 C -0.0816(5) -0.0329(4) -0.1710(2)
H10 H -0.09520 -0.06920 -0.13420
C13 C 0.4348(3) 0.1112(2) 0.03895(13)
H11 H 0.48970 0.17310 0.03290
C14 C 0.3463(3) 0.1195(2) 0.10028(13)
H12 H 0.31830 0.05250 0.11330
C15 C 0.4323(4) 0.1669(2) 0.15441(14)
C16 C 0.3445(4) 0.1767(3) 0.21452(15)
H13 H 0.40400 0.21170 0.24550
H14 H 0.32300 0.11140 0.23100
C17 C 0.1982(4) 0.2325(2) 0.20407(14)
H15 H 0.22390 0.29960 0.19050
C18 C 0.1095(4) 0.1841(2) 0.15049(13)
H16 H 0.07950 0.11800 0.16290
H17 H 0.02020 0.22230 0.14220
C19 C 0.2036(3) 0.1785(2) 0.09110(13)
C20 C 0.1030(4) 0.2418(3) 0.26275(14)
C21 C 0.0884(7) 0.1681(4) 0.3066(2)
H18 H 0.14300 0.11010 0.30180
C22 C -0.0045(7) 0.1777(5) 0.3573(2)
H19 H -0.01200 0.12630 0.38620
C23 C -0.0851(5) 0.2603(6) 0.3660(2)
H20 H -0.14890 0.26610 0.40030
C24 C -0.0718(6) 0.3356(5) 0.3235(2)
H21 H -0.12720 0.39310 0.32890
C25 C 0.0237(5) 0.3272(3) 0.27247(18)
H22 H 0.03410 0.37980 0.24460
C26 C 0.5470(3) 0.0276(2) 0.04296(13)
C27 C 0.6988(3) 0.0467(3) 0.04997(15)
H23 H 0.73240 0.11170 0.05020
C28 C 0.7995(4) -0.0294(3) 0.05661(17)
H24 H 0.90020 -0.01500 0.06170
C29 C 0.7535(4) -0.1262(3) 0.05574(17)
H25 H 0.82140 -0.17770 0.05990
C30 C 0.6046(4) -0.1444(2) 0.04855(14)
C31 C 0.4998(3) -0.0703(2) 0.04240(14)
H26 H 0.39930 -0.08560 0.03790
N1 N 0.5518(4) -0.2479(2) 0.04813(15)
O1 O 0.5249(2) 0.09640(17) -0.08882(11)
O2 O 0.5583(3) 0.19545(18) 0.14823(11)
O3 O 0.1096(2) 0.12872(16) 0.04468(9)
O4 O 0.2463(2) 0.27061(15) 0.06846(10)
H27 H 0.17920 0.31060 0.07460
O5 O 0.6420(4) -0.3133(2) 0.03810(18)
O6 O 0.4215(4) -0.2637(2) 0.0582(2)
#END
