
#######################################################################
#
#                 Cambridge Crystallographic Data Centre
#                                CCDC
#
#######################################################################
#
# If this CIF has been generated from an entry in the Cambridge
# Structural Database, then it will include bibliographic, chemical,
# crystal, experimental, refinement or atomic coordinate data resulting
# from the CCDC's data processing and validation procedures.
#
#######################################################################

data_CSD_CIF_DABTEI
_audit_creation_date 2015-11-21
_audit_creation_method CSD-ConQuest-V1
_database_code_CSD DABTEI
_database_code_depnum_ccdc_archive 'CCDC 1437519'
_chemical_formula_sum 'C15 H11 N3 O4'
_chemical_formula_moiety
;
C15 H11 N3 O4
;
_journal_coeditor_code "su5244"
_journal_coden_Cambridge 1828
_journal_volume 71
_journal_year 2015
_journal_page_first o979
_journal_name_full 'Acta Crystallogr.,Sect.E:Cryst.Commun. '
loop_
_publ_author_name
"M.Koudad"
"A.Elaatiaoui"
"N.Benchat"
"M.Saadi"
"L.El Ammari"
_chemical_name_systematic
;
2-(4-methoxyphenyl)-6-nitroimidazo[1,2-a]pyridine-3-carbaldehyde
;
_cell_volume   1342.264
_exptl_crystal_colour 'colorless'
_exptl_crystal_density_diffrn 1.471
_exptl_crystal_description 'Block'
_diffrn_ambient_temperature 296
#These two values have been output from a single CSD field.
_refine_ls_R_factor_gt 0.0439
_refine_ls_wR_factor_gt 0.0439
_symmetry_cell_setting monoclinic
_symmetry_space_group_name_H-M 'P 21/c'
_symmetry_Int_Tables_number 14
loop_
_symmetry_equiv_pos_site_id
_symmetry_equiv_pos_as_xyz
1 x,y,z
2 -x,1/2+y,1/2-z
3 -x,-y,-z
4 x,-1/2-y,-1/2+z
_cell_length_a 10.8516(6)
_cell_length_b 12.0710(6)
_cell_length_c 10.2631(5)
_cell_angle_alpha 90
_cell_angle_beta 93.200(2)
_cell_angle_gamma 90
_cell_formula_units_Z 4
loop_
_atom_type_symbol
_atom_type_radius_bond
C 0.68
H 0.23
N 0.68
O 0.68
loop_
_atom_site_label
_atom_site_type_symbol
_atom_site_fract_x
_atom_site_fract_y
_atom_site_fract_z
C1 C -0.02574(15) 0.14080(13) 0.14955(15)
H1 H -0.01160 0.06500 0.15590
C2 C -0.11433(16) 0.19026(13) 0.21703(15)
C3 C -0.13789(17) 0.30501(14) 0.21067(18)
H2 H -0.19790 0.33660 0.26010
C4 C -0.07141(17) 0.36854(14) 0.13112(18)
H3 H -0.08670 0.44420 0.12420
C5 C 0.02062(16) 0.31952(12) 0.05933(16)
C6 C 0.14059(15) 0.18113(12) -0.00409(15)
C7 C 0.20276(17) 0.07630(13) 0.00131(16)
H4 H 0.27460 0.06940 -0.04330
C8 C 0.17220(16) 0.28204(13) -0.05971(15)
C9 C 0.27357(16) 0.30700(13) -0.14343(15)
C10 C 0.33469(18) 0.40926(14) -0.12918(18)
H5 H 0.31040 0.45950 -0.06680
C11 C 0.42963(19) 0.43593(15) -0.20600(19)
H6 H 0.46980 0.50360 -0.19450
C12 C 0.46660(17) 0.36275(15) -0.30113(17)
C13 C 0.40815(17) 0.26118(14) -0.31569(16)
H7 H 0.43300 0.21110 -0.37790
C14 C 0.31262(17) 0.23437(13) -0.23732(16)
H8 H 0.27380 0.16600 -0.24790
C15 C 0.5928(2) 0.32902(19) -0.4794(2)
H9 H 0.65820 0.36330 -0.52410
H10 H 0.62040 0.25880 -0.44490
H11 H 0.52280 0.31800 -0.53940
N1 N -0.18828(14) 0.11943(13) 0.29732(14)
N2 N 0.04176(12) 0.20585(10) 0.07215(12)
N3 N 0.09779(14) 0.36523(11) -0.02137(14)
O1 O -0.17708(14) 0.01936(11) 0.28788(14)
O2 O -0.25834(15) 0.16393(13) 0.37021(15)
O3 O 0.16791(13) -0.00450(9) 0.06039(13)
O4 O 0.55866(13) 0.39871(12) -0.37535(13)
#END
