
#######################################################################
#
#                 Cambridge Crystallographic Data Centre
#                                CCDC
#
#######################################################################
#
# If this CIF has been generated from an entry in the Cambridge
# Structural Database, then it will include bibliographic, chemical,
# crystal, experimental, refinement or atomic coordinate data resulting
# from the CCDC's data processing and validation procedures.
#
#######################################################################

data_CSD_CIF_DACKAW
_audit_creation_date 2015-11-23
_audit_creation_method CSD-ConQuest-V1
_database_code_CSD DACKAW
_database_code_depnum_ccdc_archive 'CCDC 1053109'
_chemical_formula_sum 'C20 H23 N1 O7'
_chemical_formula_moiety
;
C20 H23 N1 O7
;
_journal_coden_Cambridge 1500
_journal_volume 5
_journal_year 2015
_journal_page_first 100060
_journal_name_full 'RSC Advances '
loop_
_publ_author_name
"Shivangi Sharma"
"R.T.Naganaboina"
"R.K.Peddinti"
_chemical_name_systematic
;
7-(2,5-dimethoxyphenyl)-3,3-dimethoxy-5-(2-nitrovinyl)bicyclo[2.2.2]oct-5-en-2
-one
;
_cell_volume   1879.080
_exptl_crystal_colour 'orange'
_exptl_crystal_density_diffrn 1.253
_exptl_crystal_description 'Needle'
_diffrn_ambient_temperature 296
#These two values have been output from a single CSD field.
_refine_ls_R_factor_gt 0.0366
_refine_ls_wR_factor_gt 0.0366
_symmetry_cell_setting monoclinic
_symmetry_space_group_name_H-M 'P 21/n'
_symmetry_Int_Tables_number 14
loop_
_symmetry_equiv_pos_site_id
_symmetry_equiv_pos_as_xyz
1 x,y,z
2 1/2-x,1/2+y,1/2-z
3 -x,-y,-z
4 -1/2+x,-1/2-y,-1/2+z
_cell_length_a 14.4111(13)
_cell_length_b 7.9952(7)
_cell_length_c 17.4713(14)
_cell_angle_alpha 90
_cell_angle_beta 111.020(4)
_cell_angle_gamma 90
_cell_formula_units_Z 4
loop_
_atom_type_symbol
_atom_type_radius_bond
C 0.68
H 0.23
N 0.68
O 0.68
loop_
_atom_site_label
_atom_site_type_symbol
_atom_site_fract_x
_atom_site_fract_y
_atom_site_fract_z
O1 O 0.23880(8) 0.78941(14) 0.20269(8)
O2 O 0.27788(8) 0.58964(15) 0.12104(7)
O3 O 0.57544(10) 0.6911(2) 0.05173(8)
O4 O 0.32431(10) 0.95782(17) 0.10676(8)
C1 C 0.44591(12) 0.7524(2) 0.31805(10)
C2 C 0.62043(13) 0.6622(2) 0.19468(11)
O5 O 0.45157(13) 0.7968(2) 0.55780(9)
C3 C 0.31499(12) 0.7098(2) 0.18371(10)
C4 C 0.51060(13) 0.6671(2) 0.18092(12)
C5 C 0.36817(13) 0.8544(2) 0.15637(11)
O6 O 0.86918(10) 0.6514(2) 0.35801(9)
C6 C 0.44742(13) 0.7593(2) 0.40102(11)
C7 C 0.79285(14) 0.6609(2) 0.28346(12)
C8 C 0.40389(14) 0.6519(3) 0.43506(11)
C9 C 0.39264(12) 0.6204(2) 0.25622(10)
N1 N 0.41347(12) 0.6695(2) 0.51981(10)
O7 O 0.38283(12) 0.5541(2) 0.55044(9)
C10 C 0.69264(14) 0.6526(2) 0.27247(12)
C11 C 0.47275(13) 0.5380(2) 0.22810(12)
C12 C 0.75054(15) 0.6858(3) 0.13901(14)
C13 C 0.65026(14) 0.6783(2) 0.12748(11)
C14 C 0.49374(13) 0.8646(2) 0.28803(11)
C15 C 0.47919(12) 0.8467(2) 0.19956(11)
C16 C 0.82068(15) 0.6789(3) 0.21639(14)
C17 C 0.18027(18) 0.6826(3) 0.23332(18)
C18 C 0.19699(18) 0.6412(3) 0.04941(15)
C19 C 0.6003(2) 0.6820(5) -0.01922(16)
C20 C 0.8446(2) 0.6484(5) 0.42918(16)
H1 H 0.8879(17) 0.690(3) 0.2262(13)
H2 H 0.6720(15) 0.640(2) 0.3198(13)
H3 H 0.539(2) 0.683(4) -0.064(2)
H4 H 0.811(3) 0.756(4) 0.431(2)
H5 H 0.905(2) 0.644(4) 0.4744(19)
H6 H 0.637(2) 0.576(4) -0.0167(18)
H7 H 0.5114(12) 0.930(2) 0.1783(10)
H8 H 0.5243(14) 0.495(2) 0.2755(12)
H9 H 0.4760(14) 0.648(2) 0.1221(12)
H10 H 0.4438(14) 0.434(2) 0.1908(11)
H11 H 0.3618(13) 0.535(2) 0.2778(10)
H12 H 0.5301(15) 0.953(3) 0.3209(12)
H13 H 0.7691(15) 0.698(2) 0.0921(13)
H14 H 0.3684(14) 0.554(3) 0.4131(12)
H15 H 0.4857(17) 0.851(3) 0.4334(14)
H16 H 0.1841(18) 0.564(4) 0.2194(15)
H17 H 0.199(2) 0.690(4) 0.291(2)
H18 H 0.142(3) 0.666(4) 0.065(2)
H19 H 0.1157(18) 0.723(3) 0.2166(13)
H20 H 0.183(2) 0.537(5) 0.014(2)
H21 H 0.640(3) 0.769(4) -0.015(2)
H22 H 0.211(2) 0.748(4) 0.022(2)
H23 H 0.802(2) 0.556(4) 0.4299(19)
#END
