
#######################################################################
#
#                 Cambridge Crystallographic Data Centre
#                                CCDC
#
#######################################################################
#
# If this CIF has been generated from an entry in the Cambridge
# Structural Database, then it will include bibliographic, chemical,
# crystal, experimental, refinement or atomic coordinate data resulting
# from the CCDC's data processing and validation procedures.
#
#######################################################################

data_CSD_CIF_DACPOM
_audit_creation_date 1986-03-24
_audit_creation_method CSD-ConQuest-V1
_database_code_CSD DACPOM
_database_code_depnum_ccdc_archive 'CCDC 1135112'
_chemical_formula_sum 'C19 H31 N5 O2'
_chemical_formula_moiety
;
C19 H31 N5 O2
;
_journal_coden_Cambridge 35
_journal_volume 50
_journal_year 1985
_journal_page_first 270
_journal_name_full 'J.Org.Chem. '
loop_
_publ_author_name
"A.T.M.Marcelis"
"H.C.van der Plas"
"S.Harkema"
_chemical_name_systematic
;
6-Diethylamino-2-(N,N-diethylcarbamoyl)-2,4,7-trimethyl-2,2a-dihydroazeto(2,3-
d)-3,5-diazocine-N^1^-oxide
;
_chemical_melting_point 412.15
_cell_volume   4172.489
_exptl_crystal_colour 'light yellow'
_exptl_crystal_density_diffrn 1.15
_exptl_special_details
;
Melting point range 412.15-413.15K

;
_diffrn_ambient_temperature ?
_diffrn_special_details
;
The study was carried out at room temperature,in the range 283-303K

;
#These two values have been output from a single CSD field.
_refine_ls_R_factor_gt 0.11
_refine_ls_wR_factor_gt 0.11
_symmetry_cell_setting monoclinic
_symmetry_space_group_name_H-M 'C 2/c'
_symmetry_Int_Tables_number 15
loop_
_symmetry_equiv_pos_site_id
_symmetry_equiv_pos_as_xyz
1 x,y,z
2 1/2+x,1/2+y,z
3 -x,y,1/2-z
4 1/2-x,1/2+y,1/2-z
5 -x,-y,-z
6 -1/2-x,-1/2-y,-z
7 x,-y,-1/2+z
8 -1/2+x,-1/2-y,-1/2+z
_cell_length_a 27.424(2)
_cell_length_b 8.270(1)
_cell_length_c 21.140(2)
_cell_angle_alpha 90
_cell_angle_beta 119.51(1)
_cell_angle_gamma 90
_cell_formula_units_Z 8
loop_
_atom_type_symbol
_atom_type_radius_bond
C 0.68
H 0.23
N 0.68
O 0.68
loop_
_atom_site_label
_atom_site_type_symbol
_atom_site_fract_x
_atom_site_fract_y
_atom_site_fract_z
C1 C 0.4833(2) 0.0795(5) 0.1224(2)
C2 C 0.4544(2) -0.0780(5) 0.0949(2)
N1 N 0.4050(1) -0.0954(4) 0.0410(2)
C3 C 0.3673(2) 0.0307(6) 0.0082(2)
N2 N 0.3424(1) 0.1084(4) 0.0359(2)
C4 C 0.3624(2) 0.0770(6) 0.1119(2)
C5 C 0.4166(1) 0.1593(5) 0.1612(2)
C6 C 0.4670(2) 0.1784(6) 0.1576(2)
C7 C 0.5296(2) 0.1229(9) 0.1060(4)
N3 N 0.4855(2) -0.2130(4) 0.1284(2)
C8 C 0.5410(2) -0.2030(7) 0.2003(3)
C9 C 0.5874(2) -0.2809(7) 0.1911(4)
C10 C 0.4549(3) -0.3779(7) 0.1095(3)
C11 C 0.4615(4) -0.4322(9) 0.0481(4)
C12 C 0.3510(3) 0.0635(11) -0.0707(3)
C13 C 0.3365(2) 0.1860(5) 0.1486(2)
C14 C 0.3160(2) 0.1019(6) 0.1953(2)
O1 O 0.3400(1) 0.1252(5) 0.2611(2)
N4 N 0.2709(2) 0.0035(5) 0.1623(2)
C15 C 0.2498(2) -0.0748(7) 0.2082(3)
C16 C 0.1935(3) -0.0023(8) 0.1901(4)
C17 C 0.2429(2) -0.0393(7) 0.0843(2)
C18 C 0.2453(4) -0.2206(11) 0.0770(5)
C19 C 0.2983(3) 0.3238(8) 0.1043(3)
N5 N 0.3956(1) 0.2504(4) 0.1926(2)
O2 O 0.4144(1) 0.3687(4) 0.2370(2)
H1 H 0.3675(15) -0.0359(43) 0.1241(19)
H2 H 0.4815(17) 0.2676(47) 0.1744(23)
H3 H 0.5517(23) 0.2311(73) 0.1297(30)
H4 H 0.5201(19) 0.1249(60) 0.0614(26)
H5 H 0.5592(22) 0.0363(67) 0.1276(28)
H6 H 0.3887(22) 0.0906(60) -0.0625(26)
H7 H 0.3441(21) -0.0400(59) -0.0942(27)
H8 H 0.3058(26) 0.1217(66) -0.0955(29)
H9 H 0.3001(22) 0.4187(66) 0.1402(30)
H10 H 0.2588(19) 0.2843(54) 0.0770(25)
H11 H 0.3140(16) 0.3842(46) 0.0834(21)
#END
