
#######################################################################
#
#                 Cambridge Crystallographic Data Centre
#                                CCDC
#
#######################################################################
#
# If this CIF has been generated from an entry in the Cambridge
# Structural Database, then it will include bibliographic, chemical,
# crystal, experimental, refinement or atomic coordinate data resulting
# from the CCDC's data processing and validation procedures.
#
#######################################################################

data_CSD_CIF_DACPUS
_audit_creation_date 1986-03-24
_audit_creation_method CSD-ConQuest-V1
_database_code_CSD DACPUS
_chemical_formula_sum 'C16 H20 N4 O5'
_chemical_formula_moiety
;
C16 H20 N4 O5
;
_journal_coden_Cambridge 35
_journal_volume 50
_journal_year 1985
_journal_page_first 175
_journal_name_full 'J.Org.Chem. '
loop_
_publ_author_name
"D.Caine"
"C.J.McCloskey"
"D.Van Derveer"
_chemical_name_systematic
;
4-(2,4-Dinitrophenylhydrazono)-7a\b-hydroxy-3a\b-methyl-5,6,7-hexahydroindane
;
_chemical_melting_point 436.65
_cell_volume   1981.328
_exptl_crystal_density_diffrn 1.32
_exptl_special_details
;
Melting point range 436.65-437.15K
dx reported as 1.32; we calculate 1.17

;
_diffrn_ambient_temperature ?
_diffrn_special_details
;
The study was carried out at room temperature,in the range 283-303K

;
#These two values have been output from a single CSD field.
_refine_ls_R_factor_gt 0.074
_refine_ls_wR_factor_gt 0.074
_symmetry_cell_setting monoclinic
_symmetry_space_group_name_H-M 'P 21/c'
_symmetry_Int_Tables_number 14
loop_
_symmetry_equiv_pos_site_id
_symmetry_equiv_pos_as_xyz
1 x,y,z
2 -x,1/2+y,1/2-z
3 -x,-y,-z
4 x,-1/2-y,-1/2+z
_cell_length_a 7.915(2)
_cell_length_b 33.760(9)
_cell_length_c 7.487(1)
_cell_angle_alpha 90
_cell_angle_beta 97.96(2)
_cell_angle_gamma 90
_cell_formula_units_Z 4
loop_
_atom_type_symbol
_atom_type_radius_bond
C 0.68
H 0.23
N 0.68
O 0.68
loop_
_atom_site_label
_atom_site_type_symbol
_atom_site_fract_x
_atom_site_fract_y
_atom_site_fract_z
C1 C 0.1422(5) 0.1673(1) 0.2435(6)
C2 C 0.0149(6) 0.1321(2) 0.2198(7)
C3 C 0.0089(5) 0.1176(1) 0.0288(7)
C4 C 0.1674(5) 0.1358(1) -0.0395(6)
C5 C 0.3311(5) 0.1131(1) 0.0265(6)
C6 C 0.4968(5) 0.1340(1) 0.0134(7)
C7 C 0.5012(5) 0.1743(1) 0.1098(7)
C8 C 0.3433(6) 0.1987(1) 0.0410(6)
C9 C 0.1786(5) 0.1767(1) 0.0520(6)
C10 C 0.1453(6) 0.1376(1) -0.2466(6)
O1 O 0.0389(4) 0.19969(8) -0.0405(4)
N1 N 0.3125(4) 0.07757(9) 0.0844(5)
N2 N 0.4594(4) 0.0559(1) 0.1388(5)
C11 C 0.4436(5) 0.0191(1) 0.2071(5)
C12 C 0.5863(4) -0.0051(4) 0.2655(5)
C13 C 0.5699(5) -0.0421(1) 0.3403(5)
C14 C 0.4089(5) -0.0560(1) 0.3345(5)
C15 C 0.2641(5) -0.0336(1) 0.2941(6)
C16 C 0.2807(5) 0.0033(1) 0.2220(6)
N3 N 0.7595(4) 0.0074(1) 0.2535(5)
O2 O 0.8747(4) -0.0157(1) 0.2959(6)
O3 O 0.7849(4) 0.0409(1) 0.2000(5)
N4 N 0.3914(6) -0.0939(1) 0.4400(5)
O4 O 0.5199(4) -0.11284(9) 0.4934(5)
O5 O 0.2486(4) -0.1057(1) 0.4536(6)
H1 H 0.25290 0.16120 0.32320
H2 H 0.09800 0.19610 0.30700
H3 H -0.10690 0.13840 0.26110
H4 H 0.06280 0.11760 0.36130
H5 H -0.09620 0.13520 -0.02490
H6 H 0.00670 0.07970 0.00930
H7 H 0.61660 0.11880 0.07760
H8 H 0.49670 0.13990 -0.12150
H9 H 0.51940 0.16210 0.25040
H10 H 0.62460 0.18450 0.07090
H11 H 0.35830 0.20470 -0.10470
H12 H 0.36000 0.22260 0.12840
H13 H 0.23910 0.14210 -0.29100
H14 H 0.03520 0.14670 -0.29430
H15 H 0.12360 0.10340 -0.28040
H16 H 0.02410 0.22010 0.04370
H17 H 0.58780 0.06280 0.12290
H18 H 0.68220 -0.05910 0.37180
H19 H 0.13480 -0.04140 0.30530
H20 H 0.17270 0.02120 0.17980
#END
