
#######################################################################
#
#                 Cambridge Crystallographic Data Centre
#                                CCDC
#
#######################################################################
#
# If this CIF has been generated from an entry in the Cambridge
# Structural Database, then it will include bibliographic, chemical,
# crystal, experimental, refinement or atomic coordinate data resulting
# from the CCDC's data processing and validation procedures.
#
#######################################################################

data_CSD_CIF_DADSIN
_audit_creation_date 2016-12-12
_audit_creation_method CSD-ConQuest-V1
_database_code_CSD DADSIN
_database_code_depnum_ccdc_archive 'CCDC 1510574'
_chemical_formula_sum 'C23 H28 N2 O5'
_chemical_formula_moiety
;
C23 H28 N2 O5
;
_journal_coden_Cambridge 2038
_journal_volume 1
_journal_year 2016
_journal_page_first 921
_journal_name_full 'Chem Cell mPress '
loop_
_publ_author_name
"S.P.Bew"
"D.U.Bachera"
"S.J.Coles"
"G.D.Hiatt-Gipson"
"P.Pesce"
"M.Pitak"
"S.M.Thurston"
"V.Zdorichenko"
_chemical_name_systematic
;
t-butyl 1-(2-t-butoxyphenyl)-3-(4-nitrophenyl)aziridine-2-carboxylate
;
_cell_volume   2177.627
_exptl_crystal_colour 'light blue'
_exptl_crystal_density_diffrn 1.258
_exptl_crystal_description 'lath'
_diffrn_ambient_temperature 120
#These two values have been output from a single CSD field.
_refine_ls_R_factor_gt 0.0675
_refine_ls_wR_factor_gt 0.0675
_symmetry_cell_setting monoclinic
_symmetry_space_group_name_H-M 'P 21/n'
_symmetry_Int_Tables_number 14
loop_
_symmetry_equiv_pos_site_id
_symmetry_equiv_pos_as_xyz
1 x,y,z
2 1/2-x,1/2+y,1/2-z
3 -x,-y,-z
4 -1/2+x,-1/2-y,-1/2+z
_cell_length_a 11.8592(7)
_cell_length_b 10.7332(7)
_cell_length_c 17.2217(10)
_cell_angle_alpha 90
_cell_angle_beta 96.588(3)
_cell_angle_gamma 90
_cell_formula_units_Z 4
loop_
_atom_type_symbol
_atom_type_radius_bond
C 0.68
H 0.23
N 0.68
O 0.68
loop_
_atom_site_label
_atom_site_type_symbol
_atom_site_fract_x
_atom_site_fract_y
_atom_site_fract_z
O1 O 0.90723(18) 0.2006(2) 0.24792(13)
O2 O 0.70336(18) 0.1628(2) 0.42616(13)
O3 O 0.82945(19) 0.0091(2) 0.25693(14)
O4 O 0.6580(2) -0.1909(2) -0.08504(15)
O5 O 0.6784(2) -0.0146(3) -0.14197(15)
N1 N 0.6141(2) 0.1257(3) 0.27215(15)
N2 N 0.6632(2) -0.0766(3) -0.08420(17)
C1 C 1.0830(3) 0.2760(4) 0.2197(2)
H1 H 1.04190 0.32610 0.17800
H2 H 1.15920 0.25710 0.20610
H3 H 1.08910 0.32280 0.26890
C2 C 0.8539(3) 0.0354(3) 0.4769(2)
H4 H 0.88140 0.02930 0.42550
H5 H 0.87850 -0.03810 0.50820
H6 H 0.88500 0.11060 0.50370
C3 C 0.4186(3) 0.2953(3) 0.4318(2)
H7 H 0.37550 0.33590 0.46760
C4 C 0.5287(3) 0.2570(3) 0.4560(2)
H8 H 0.56110 0.27160 0.50820
C5 C 0.6796(3) 0.0444(3) 0.5461(2)
H9 H 0.71120 0.11640 0.57610
H10 H 0.70200 -0.03240 0.57460
H11 H 0.59660 0.05060 0.53860
C6 C 0.6231(3) 0.1147(3) 0.12515(19)
C7 C 0.6354(3) -0.0148(3) 0.1255(2)
H12 H 0.63470 -0.05970 0.17300
C8 C 0.6200(3) 0.1785(3) 0.05458(19)
H13 H 0.60850 0.26610 0.05360
C9 C 0.7247(3) 0.0421(3) 0.46679(19)
C10 C 0.5456(3) 0.1815(3) 0.32589(19)
C11 C 0.7169(3) 0.1951(3) 0.26146(19)
H14 H 0.72730 0.27600 0.29020
C12 C 0.6479(3) -0.0108(3) -0.01140(19)
C13 C 1.0190(3) 0.1551(4) 0.2291(2)
C14 C 0.6336(3) 0.1165(3) -0.0140(2)
H15 H 0.63300 0.16070 -0.06180
C15 C 1.0768(3) 0.0789(4) 0.2965(2)
H16 H 1.07890 0.12710 0.34500
H17 H 1.15440 0.05890 0.28640
H18 H 1.03430 0.00160 0.30160
C16 C 1.0024(3) 0.0828(4) 0.1527(2)
H19 H 0.96330 0.00420 0.16080
H20 H 1.07640 0.06530 0.13520
H21 H 0.95660 0.13240 0.11300
C17 C 0.6178(3) 0.1891(3) 0.19737(19)
H22 H 0.57130 0.26680 0.19030
C18 C 0.3712(3) 0.2747(3) 0.3557(2)
H23 H 0.29510 0.29930 0.33980
C19 C 0.4341(3) 0.2185(3) 0.3030(2)
H24 H 0.40120 0.20480 0.25080
C20 C 0.5916(3) 0.1973(3) 0.40388(19)
C21 C 0.8222(3) 0.1206(3) 0.25590(19)
C22 C 0.6727(3) -0.0627(3) 0.4158(2)
H25 H 0.59020 -0.05160 0.40680
H26 H 0.69010 -0.14270 0.44200
H27 H 0.70410 -0.06190 0.36560
C23 C 0.6485(3) -0.0781(3) 0.0569(2)
H28 H 0.65780 -0.16600 0.05700
#END
