
#######################################################################
#
#                 Cambridge Crystallographic Data Centre
#                                CCDC
#
#######################################################################
#
# If this CIF has been generated from an entry in the Cambridge
# Structural Database, then it will include bibliographic, chemical,
# crystal, experimental, refinement or atomic coordinate data resulting
# from the CCDC's data processing and validation procedures.
#
#######################################################################

data_CSD_CIF_DADYIS
_audit_creation_date 2011-12-12
_audit_creation_method CSD-ConQuest-V1
_database_code_CSD DADYIS
_database_code_depnum_ccdc_archive 'CCDC 854326'
_chemical_formula_sum 'C12 H18 N2 O4'
_chemical_formula_moiety
;
C12 H18 N2 O4
;
_journal_coden_Cambridge 35
_journal_volume 76
_journal_year 2011
_journal_page_first 5450
_journal_name_full 'J.Org.Chem. '
loop_
_publ_author_name
"T.Arai"
"A.Awata"
"M.Wasai"
"N.Yokoyama"
"H.Masu"
_chemical_name_systematic
;
tert-Butyl 3-nitro-2-(1H-pyrrol-2-yl)butanoate
;
_cell_volume   1365.643
_exptl_crystal_colour 'colorless'
_exptl_crystal_density_diffrn 1.237
_exptl_crystal_description 'prismatic'
_diffrn_ambient_temperature 173
#These two values have been output from a single CSD field.
_refine_ls_R_factor_gt 0.0316
_refine_ls_wR_factor_gt 0.0316
_symmetry_cell_setting orthorhombic
_symmetry_space_group_name_H-M 'P 21 21 2'
_symmetry_Int_Tables_number 18
loop_
_symmetry_equiv_pos_site_id
_symmetry_equiv_pos_as_xyz
1 x,y,z
2 1/2+x,1/2-y,-z
3 1/2-x,1/2+y,-z
4 -x,-y,z
_cell_length_a 9.8572(8)
_cell_length_b 23.3339(18)
_cell_length_c 5.9374(5)
_cell_angle_alpha 90
_cell_angle_beta 90
_cell_angle_gamma 90
_cell_formula_units_Z 4
loop_
_atom_type_symbol
_atom_type_radius_bond
C 0.68
H 0.23
N 0.68
O 0.68
loop_
_atom_site_label
_atom_site_type_symbol
_atom_site_fract_x
_atom_site_fract_y
_atom_site_fract_z
C1 C 0.72907(12) 0.60517(5) 0.6864(2)
H1 H 0.73580 0.58790 0.83080
C2 C 0.83513(11) 0.61819(5) 0.5469(2)
H2 H 0.92850 0.61160 0.57650
C3 C 0.78011(11) 0.64331(5) 0.3507(2)
H3 H 0.82970 0.65680 0.22420
C4 C 0.64124(11) 0.64466(4) 0.37664(18)
C5 C 0.5361(1) 0.66802(4) 0.21951(18)
H4 H 0.58420 0.68190 0.08170
C6 C 0.45373(11) 0.71898(4) 0.3153(2)
H5 H 0.39770 0.70540 0.44510
C7 C 0.36198(15) 0.74587(5) 0.1408(2)
H6 H 0.31790 0.77980 0.20510
H7 H 0.29270 0.71810 0.09480
H8 H 0.41580 0.75720 0.00940
C8 C 0.43497(10) 0.62189(4) 0.14492(18)
C9 C 0.2488(1) 0.56232(4) 0.29467(19)
C10 C 0.13860(13) 0.58946(6) 0.1512(2)
H9 H 0.11490 0.62710 0.21320
H10 H 0.05820 0.56480 0.15120
H11 H 0.17170 0.59410 -0.00340
C11 C 0.30136(14) 0.50611(5) 0.2009(3)
H12 H 0.33300 0.51190 0.04610
H13 H 0.22830 0.47760 0.20190
H14 H 0.37680 0.49240 0.29410
C12 C 0.20274(12) 0.55577(5) 0.5384(2)
H15 H 0.27750 0.54040 0.62890
H16 H 0.12540 0.52940 0.54510
H17 H 0.17570 0.59330 0.59780
H18 H 0.5409(19) 0.6184(8) 0.639(3)
N1 N 0.6121(1) 0.62129(4) 0.58205(17)
N2 N 0.55531(11) 0.76264(4) 0.3982(2)
O1 O 0.36200(7) 0.60423(3) 0.32033(13)
O2 O 0.42458(9) 0.60484(4) -0.04587(14)
O3 O 0.62305(12) 0.78805(5) 0.2597(2)
O4 O 0.56474(13) 0.76986(5) 0.60025(19)
#END
