
#######################################################################
#
#                 Cambridge Crystallographic Data Centre
#                                CCDC
#
#######################################################################
#
# If this CIF has been generated from an entry in the Cambridge
# Structural Database, then it will include bibliographic, chemical,
# crystal, experimental, refinement or atomic coordinate data resulting
# from the CCDC's data processing and validation procedures.
#
#######################################################################

data_CSD_CIF_DAFMII
_audit_creation_date 2011-12-12
_audit_creation_method CSD-ConQuest-V1
_database_code_CSD DAFMII
_database_code_depnum_ccdc_archive 'CCDC 814555'
_chemical_formula_sum 'C14 H17 N1 O6'
_chemical_formula_moiety
;
C14 H17 N1 O6
;
_journal_coden_Cambridge 177
_journal_volume 9
_journal_year 2011
_journal_page_first 6895
_journal_name_full 'Org.Biomol.Chem. '
loop_
_publ_author_name
"Liang Wang"
"Xu-Dong Xia"
"Wei Guo"
"Jia-Rong Chen"
"Wen-Jing Xiao"
_chemical_name_systematic
;
Ethyl (2-acetoxy-5-methoxyphenyl)(methoxyimino)acetate
;
_cell_volume   3002.732
_exptl_crystal_colour 'colorless'
_exptl_crystal_density_diffrn 1.306
_exptl_crystal_description 'block'
_diffrn_ambient_temperature 298
_refine_special_details
;
C12,C13 and C12',C13' disordered over two sites with occupancies 0.58:0.42.

;
#These two values have been output from a single CSD field.
_refine_ls_R_factor_gt 0.0418
_refine_ls_wR_factor_gt 0.0418
_symmetry_cell_setting orthorhombic
_symmetry_space_group_name_H-M 'P b c a'
_symmetry_Int_Tables_number 61
loop_
_symmetry_equiv_pos_site_id
_symmetry_equiv_pos_as_xyz
1 x,y,z
2 1/2-x,-y,1/2+z
3 -x,1/2+y,1/2-z
4 1/2+x,1/2-y,-z
5 -x,-y,-z
6 -1/2+x,y,-1/2-z
7 x,-1/2-y,-1/2+z
8 -1/2-x,-1/2+y,z
_cell_length_a 7.6651(6)
_cell_length_b 13.1131(9)
_cell_length_c 29.874(2)
_cell_angle_alpha 90
_cell_angle_beta 90
_cell_angle_gamma 90
_cell_formula_units_Z 8
loop_
_atom_type_symbol
_atom_type_radius_bond
C 0.68
H 0.23
N 0.68
O 0.68
loop_
_atom_site_label
_atom_site_type_symbol
_atom_site_fract_x
_atom_site_fract_y
_atom_site_fract_z
C1 C 0.0920(3) 0.88289(13) 0.53115(6)
H1 H 0.01290 0.84210 0.54850
H2 H 0.07990 0.95320 0.53960
H3 H 0.20950 0.86090 0.53660
C2 C 0.06689(19) 0.77699(10) 0.46655(5)
C3 C 0.03016(19) 0.77070(11) 0.42105(5)
H4 H -0.00460 0.82880 0.40560
C4 C 0.04480(17) 0.67862(11) 0.39834(4)
C5 C 0.09380(18) 0.59264(11) 0.42262(5)
C6 C 0.1296(2) 0.59833(12) 0.46761(5)
H5 H 0.16180 0.53990 0.48320
C7 C 0.1178(2) 0.69060(11) 0.48976(5)
H6 H 0.14400 0.69460 0.52010
C8 C -0.0237(2) 0.43481(11) 0.39930(5)
C9 C 0.0199(3) 0.33838(13) 0.37569(7)
H7 H -0.08420 0.29880 0.37160
H8 H 0.10230 0.30020 0.39320
H9 H 0.06990 0.35390 0.34700
C10 C 0.01752(18) 0.67409(11) 0.34924(5)
C11 C 0.1184(2) 0.59632(12) 0.32215(5)
C12 C 0.4021(10) 0.5374(7) 0.3076(3)
H10 H 0.38730 0.53200 0.27540
H11 H 0.37700 0.47160 0.32100
C13 C 0.5822(6) 0.5708(5) 0.3188(2)
H12 H 0.59860 0.64010 0.30930
H13 H 0.66480 0.52770 0.30380
H14 H 0.59970 0.56620 0.35050
C14 C -0.1897(3) 0.80585(16) 0.26476(7)
H15 H -0.30390 0.80280 0.27790
H16 H -0.19820 0.79420 0.23310
H17 H -0.13980 0.87190 0.27010
N1 N -0.08278(17) 0.73967(10) 0.33108(4)
O1 O 0.05281(16) 0.87179(8) 0.48489(4)
O2 O -0.15975(18) 0.45632(10) 0.41542(5)
O3 O 0.11628(14) 0.49862(7) 0.40061(3)
O4 O 0.28668(14) 0.61651(9) 0.32606(4)
O5 O 0.05510(17) 0.52771(10) 0.30132(4)
O6 O -0.08197(16) 0.72998(10) 0.28433(4)
C15? C 0.4225(16) 0.5559(11) 0.3044(5)
C16? C 0.5576(9) 0.5387(7) 0.3391(3)
H18? H 0.47120 0.59240 0.27900
H19? H 0.37550 0.49150 0.29390
H20? H 0.60980 0.60270 0.34710
H21? H 0.64560 0.49380 0.32750
H22? H 0.50480 0.50850 0.36500
#END
