
#######################################################################
#
#                 Cambridge Crystallographic Data Centre
#                                CCDC
#
#######################################################################
#
# If this CIF has been generated from an entry in the Cambridge
# Structural Database, then it will include bibliographic, chemical,
# crystal, experimental, refinement or atomic coordinate data resulting
# from the CCDC's data processing and validation procedures.
#
#######################################################################

data_CSD_CIF_DAFRAD
_audit_creation_date 1986-03-24
_audit_creation_method CSD-ConQuest-V1
_database_code_CSD DAFRAD
_database_code_depnum_ccdc_archive 'CCDC 1135368'
_chemical_formula_sum 'C2 H4 N4 O1'
_chemical_formula_moiety
;
C2 H4 N4 O1
;
_journal_coden_Cambridge 82
_journal_volume 26
_journal_year 1985
_journal_page_first 65-1
_journal_name_full 'Zh.Strukt.Khim.(Russ.)(J.Struct.Chem.) '
loop_
_publ_author_name
"A.S.Batsanov"
"Yu.T.Struchkov"
_chemical_name_systematic
;
3,4-Diamino-furazane
;
_cell_volume    413.220
_exptl_crystal_density_diffrn 1.61
_diffrn_ambient_temperature ?
_diffrn_special_details
;
The study was carried out at room temperature,in the range 283-303K

;
#These two values have been output from a single CSD field.
_refine_ls_R_factor_gt 0.072
_refine_ls_wR_factor_gt 0.072
_symmetry_cell_setting monoclinic
_symmetry_space_group_name_H-M 'C 2/c'
_symmetry_Int_Tables_number 15
loop_
_symmetry_equiv_pos_site_id
_symmetry_equiv_pos_as_xyz
1 x,y,z
2 1/2+x,1/2+y,z
3 -x,y,1/2-z
4 1/2-x,1/2+y,1/2-z
5 -x,-y,-z
6 -1/2-x,-1/2-y,-z
7 x,-y,-1/2+z
8 -1/2+x,-1/2-y,-1/2+z
_cell_length_a 3.6035(3)
_cell_length_b 11.141(2)
_cell_length_c 10.329(1)
_cell_angle_alpha 90
_cell_angle_beta 94.80(1)
_cell_angle_gamma 90
_cell_formula_units_Z 4
loop_
_atom_type_symbol
_atom_type_radius_bond
C 0.68
H 0.23
N 0.68
O 0.68
loop_
_atom_site_label
_atom_site_type_symbol
_atom_site_fract_x
_atom_site_fract_y
_atom_site_fract_z
O1 O 0.00000 0.3816(2) 0.25000
N1 N 0.0903(5) 0.3100(2) 0.1457(2)
N2 N 0.1037(6) 0.1009(2) 0.1108(2)
C1 C 0.0567(5) 0.1999(2) 0.1845(2)
H1 H 0.193(8) 0.108(2) 0.040(3)
H2 H 0.164(7) 0.030(2) 0.150(3)
N1B N -0.0903(5) 0.3100(2) 0.3543(2)
C1B C -0.0567(5) 0.1999(2) 0.3155(2)
N2B N -0.1037(6) 0.1009(2) 0.3892(2)
H1B H -0.193(8) 0.108(2) 0.460(3)
H2B H -0.164(7) 0.030(2) 0.350(3)
#END
