
#######################################################################
#
#                 Cambridge Crystallographic Data Centre
#                                CCDC
#
#######################################################################
#
# If this CIF has been generated from an entry in the Cambridge
# Structural Database, then it will include bibliographic, chemical,
# crystal, experimental, refinement or atomic coordinate data resulting
# from the CCDC's data processing and validation procedures.
#
#######################################################################

data_CSD_CIF_DAFVEL
_audit_creation_date 1986-03-24
_audit_creation_method CSD-ConQuest-V1
_database_code_CSD DAFVEL
_database_code_depnum_ccdc_archive 'CCDC 1135386'
_chemical_formula_sum 'C18 H20 N4 O2'
_chemical_formula_moiety
;
C18 H20 N4 O2
;
_journal_coden_Cambridge 646
_journal_volume 2
_journal_year 1984
_journal_page_first 511
_journal_name_full 'J.Biomol.Struct.Dyn. '
loop_
_publ_author_name
"W.C.Stallings"
"J.P.Glusker"
"H.L.Carrell"
"M.Bogucka-Ledochowska"
"A.Ledochowski"
"J.J.Stezowski"
_chemical_name_systematic
;
9-(2-Dimethylamino-1-methylethylimino)-1-nitro-9,10-dihydroacridine unknown 
solvate
;
_cell_volume   2700.221
_exptl_crystal_colour 'yellow'
_exptl_crystal_density_diffrn 1.19
_diffrn_ambient_temperature ?
_diffrn_special_details
;
The study was carried out at room temperature,in the range 283-303K

;
_refine_special_details
;
Diffuse peaks along or near the three-fold axis may represent disordered 
unidentified solvent molecules (one sixth per asymmetric unit, possibly 
ethanol).
;
#These two values have been output from a single CSD field.
_refine_ls_R_factor_gt 0.07
_refine_ls_wR_factor_gt 0.07
_symmetry_cell_setting rhombohedral
_symmetry_space_group_name_H-M 'R -3'
_symmetry_Int_Tables_number 148
loop_
_symmetry_equiv_pos_site_id
_symmetry_equiv_pos_as_xyz
1 x,y,z
2 z,x,y
3 y,z,x
4 -x,-y,-z
5 -z,-x,-y
6 -y,-z,-x
_cell_length_a 19.250(8)
_cell_length_b 19.250(8)
_cell_length_c 19.250(8)
_cell_angle_alpha 117.82(3)
_cell_angle_beta 117.82(3)
_cell_angle_gamma 117.82(3)
_cell_formula_units_Z 6
loop_
_atom_type_symbol
_atom_type_radius_bond
C 0.68
H 0.23
N 0.68
O 0.68
loop_
_atom_site_label
_atom_site_type_symbol
_atom_site_fract_x
_atom_site_fract_y
_atom_site_fract_z
C1 C 0.5241(2) 0.7251(2) 0.0432(3)
C2 C 0.3895(2) 0.6491(2) -0.0356(4)
C3 C 0.3086(2) 0.5573(2) -0.0562(4)
C4 C 0.3667(2) 0.5473(2) 0.0063(4)
C5 C 0.7614(2) 0.6946(2) 0.3124(4)
C6 C 0.9043(2) 0.7817(2) 0.4069(4)
C7 C 0.9895(2) 0.8707(2) 0.4281(4)
C8 C 0.9283(2) 0.8669(2) 0.3485(4)
C9 C 0.7022(2) 0.7592(2) 0.1500(3)
N1 N 0.5593(1) 0.6120(1) 0.1457(3)
N2 N 0.7095(1) 0.7644(1) 0.0891(3)
C10 C 0.5832(2) 0.7112(2) 0.1014(4)
C11 C 0.5043(2) 0.6244(2) 0.0863(3)
C12 C 0.7003(2) 0.6950(2) 0.2352(3)
C13 C 0.7792(2) 0.7756(2) 0.2458(3)
C14 C 0.8077(2) 0.7972(2) 0.1082(4)
C15 C 0.9604(2) 0.9728(2) 0.2378(5)
C16 C 0.7020(2) 0.6822(2) -0.0566(5)
N3 N 0.5803(1) 0.5161(2) -0.1740(3)
C17 C 0.4377(3) 0.3966(3) -0.3405(5)
C18 C 0.6476(2) 0.4967(2) -0.1600(5)
N4 N 0.6120(1) 0.8321(2) 0.0730(3)
O1 O 0.5368(2) 0.7750(2) -0.0426(3)
O2 O 0.7533(1) 0.9743(1) 0.2132(3)
H1 H 0.348(1) 0.660(2) -0.074(3)
H2 H 0.203(2) 0.494(2) -0.118(4)
H3 H 0.312(2) 0.478(2) -0.008(4)
H4 H 0.699(2) 0.634(2) 0.298(4)
H5 H 0.942(2) 0.776(2) 0.458(4)
H6 H 1.095(1) 0.942(2) 0.502(3)
H7 H 0.992(1) 0.934(1) 0.368(3)
H8 H 0.836(1) 0.773(2) 0.135(3)
H9 H 1.038(2) 1.001(2) 0.261(4)
H10 H 0.924(2) 0.982(3) 0.196(6)
H11 H 1.036(2) 1.053(2) 0.354(5)
H12 H 0.644(2) 0.686(2) -0.098(4)
H13 H 0.773(2) 0.719(2) -0.041(4)
H14 H 0.466(1) 0.419(2) -0.359(3)
H15 H 0.404(2) 0.417(2) -0.348(5)
H16 H 0.350(3) 0.286(3) -0.420(6)
H17 H 0.673(2) 0.511(2) -0.189(4)
H18 H 0.762(2) 0.589(2) -0.036(5)
H19 H 0.569(2) 0.387(2) -0.236(4)
H20 H 0.519(2) 0.572(2) 0.143(4)
#END
