
#######################################################################
#
#                 Cambridge Crystallographic Data Centre
#                                CCDC
#
#######################################################################
#
# If this CIF has been generated from an entry in the Cambridge
# Structural Database, then it will include bibliographic, chemical,
# crystal, experimental, refinement or atomic coordinate data resulting
# from the CCDC's data processing and validation procedures.
#
#######################################################################

data_CSD_CIF_DAFWIQ
_audit_creation_date 1986-03-24
_audit_creation_method CSD-ConQuest-V1
_database_code_CSD DAFWIQ
_chemical_formula_sum 'C17 H21 N1 O3'
_chemical_formula_moiety
;
C17 H21 N1 O3
;
_journal_coden_Cambridge 35
_journal_volume 50
_journal_year 1985
_journal_page_first 2626
_journal_name_full 'J.Org.Chem. '
loop_
_publ_author_name
"M.J.Kurth"
"M.J.O'Brien"
"H.Hope"
"M.Yanuck"
_chemical_name_systematic
;
(+-)-5-Methyl-1\b-(phenylmethoxy)-4-nitro-2,3,3a\b,4\a,5\a,7a\a-hexahydro-1H-i
ndene
;
_chemical_melting_point 391.15
_cell_volume   1451.215
_exptl_crystal_density_diffrn 1.31
_exptl_special_details
;
Melting point range 391.15-392.15K

;
_diffrn_ambient_temperature 140
#These two values have been output from a single CSD field.
_refine_ls_R_factor_gt 0.092
_refine_ls_wR_factor_gt 0.092
_symmetry_cell_setting monoclinic
_symmetry_space_group_name_H-M 'P 21/c'
_symmetry_Int_Tables_number 14
loop_
_symmetry_equiv_pos_site_id
_symmetry_equiv_pos_as_xyz
1 x,y,z
2 -x,1/2+y,1/2-z
3 -x,-y,-z
4 x,-1/2-y,-1/2+z
_cell_length_a 11.766(5)
_cell_length_b 5.101(3)
_cell_length_c 24.18(3)
_cell_angle_alpha 90
_cell_angle_beta 90.36(5)
_cell_angle_gamma 90
_cell_formula_units_Z 4
loop_
_atom_type_symbol
_atom_type_radius_bond
C 0.68
H 0.23
N 0.68
O 0.68
loop_
_atom_site_label
_atom_site_type_symbol
_atom_site_fract_x
_atom_site_fract_y
_atom_site_fract_z
O1 O 0.2614(4) 0.3344(11) 0.7114(2)
O2 O 0.1296(5) 0.4996(11) 0.5053(2)
O3 O 0.1018(5) 0.1503(11) 0.4574(2)
N1 N 0.1297(5) 0.2595(14) 0.4994(3)
C1 C 0.1697(7) 0.1668(17) 0.7002(3)
C2 C 0.0572(7) 0.3140(19) 0.6870(3)
C3 C 0.0461(6) 0.3204(18) 0.6223(3)
C4 C 0.1633(6) 0.2313(15) 0.6034(3)
C5 C 0.1755(7) 0.0918(16) 0.5457(3)
C6 C 0.2987(6) 0.0212(15) 0.5350(3)
C7 C 0.3550(6) -0.0977(16) 0.5858(3)
C8 C 0.3092(7) -0.0861(16) 0.6366(3)
C9 C 0.1951(7) 0.0262(18) 0.6461(3)
C10 C 0.2649(7) 0.4227(18) 0.7680(3)
C11 C 0.3075(7) 0.2091(17) 0.8066(3)
C12 C 0.2350(7) 0.0983(18) 0.8453(3)
C13 C 0.2706(7) -0.1002(20) 0.8798(3)
C14 C 0.3807(7) -0.1934(18) 0.8766(3)
C15 C 0.4559(7) -0.0830(18) 0.8373(3)
C16 C 0.4162(6) 0.1101(17) 0.8031(4)
C17 C 0.3685(7) 0.2543(18) 0.5135(4)
H1 H 0.16110 0.05810 0.73230
H2 H -0.00610 0.22280 0.70270
H3 H 0.06020 0.48920 0.70140
H4 H 0.02950 0.49420 0.60930
H5 H -0.01190 0.20210 0.60960
H6 H 0.20850 0.38690 0.59970
H7 H 0.13120 -0.06610 0.54680
H8 H 0.29730 -0.10860 0.50620
H9 H 0.42670 -0.18510 0.58150
H10 H 0.35180 -0.15270 0.66750
H11 H 0.15320 -0.13510 0.64530
H12 H 0.31480 0.57110 0.77070
H13 H 0.18970 0.47330 0.77900
H14 H 0.15840 0.16170 0.84800
H15 H 0.21900 -0.17420 0.90610
H16 H 0.40600 -0.33120 0.90080
H17 H 0.53300 -0.14280 0.83470
H18 H 0.46610 0.17980 0.77550
H19 H 0.34260 0.29450 0.47670
H20 H 0.44510 0.18950 0.51210
H21 H 0.36630 0.41000 0.53580
#END
