
#######################################################################
#
#                 Cambridge Crystallographic Data Centre
#                                CCDC
#
#######################################################################
#
# If this CIF has been generated from an entry in the Cambridge
# Structural Database, then it will include bibliographic, chemical,
# crystal, experimental, refinement or atomic coordinate data resulting
# from the CCDC's data processing and validation procedures.
#
#######################################################################

data_CSD_CIF_DAGKUS
_audit_creation_date 2004-12-02
_audit_creation_method CSD-ConQuest-V1
_database_code_CSD DAGKUS
_database_code_depnum_ccdc_archive 'CCDC 248244'
_chemical_formula_sum 'C19 H21 N5 O6'
_chemical_formula_moiety
;
C19 H21 N5 O6
;
_journal_coden_Cambridge 1336
_journal_volume 6
_journal_year 2004
_journal_page_first 2527
_journal_name_full 'Org.Lett. '
loop_
_publ_author_name
"N.Mase"
"R.Thayumanavan"
"F.Tanaka"
"C.F.Barbas III"
_chemical_name_systematic
;
N-(2,4-Dinitrophenyl)-N'-(2-ethyl-2-methyl-4-nitro-3-phenylbutylidene)hydrazin
e
;
_cell_volume   1008.235
_exptl_crystal_colour 'yellow'
_exptl_crystal_density_diffrn 1.368
_exptl_crystal_description 'parallelepiped'
_diffrn_ambient_temperature 296
#These two values have been output from a single CSD field.
_refine_ls_R_factor_gt 0.074
_refine_ls_wR_factor_gt 0.074
_symmetry_cell_setting triclinic
_symmetry_space_group_name_H-M 'P -1'
_symmetry_Int_Tables_number 2
loop_
_symmetry_equiv_pos_site_id
_symmetry_equiv_pos_as_xyz
1 x,y,z
2 -x,-y,-z
_cell_length_a 8.2921(17)
_cell_length_b 11.639(2)
_cell_length_c 12.066(2)
_cell_angle_alpha 64.65(3)
_cell_angle_beta 88.22(3)
_cell_angle_gamma 74.29(3)
_cell_formula_units_Z 2
loop_
_atom_type_symbol
_atom_type_radius_bond
C 0.68
H 0.23
N 0.68
O 0.68
loop_
_atom_site_label
_atom_site_type_symbol
_atom_site_fract_x
_atom_site_fract_y
_atom_site_fract_z
O1 O 0.1804(6) -0.2872(4) 0.5442(4)
O2 O 0.3276(7) -0.2573(4) 0.6670(5)
O3 O -0.1008(5) 0.0788(4) 0.1771(3)
O4 O -0.0467(5) 0.2667(4) 0.1067(3)
O5 O 0.7662(6) 0.5907(5) 0.0683(4)
O6 O 0.5447(6) 0.6573(4) -0.0508(4)
N1 N 0.2427(6) -0.2171(4) 0.5688(4)
N2 N -0.0295(5) 0.1534(5) 0.1869(4)
N3 N 0.1354(4) 0.3186(3) 0.2453(3)
H1 H 0.08250 0.35400 0.17310
N4 N 0.2015(4) 0.3930(4) 0.2843(3)
N5 N 0.6184(6) 0.6079(4) 0.0508(5)
C1 C 0.2123(6) -0.0784(4) 0.4847(4)
C2 C 0.2826(6) 0.0019(5) 0.5135(4)
H2 H 0.34880 -0.03350 0.58770
C3 C 0.2557(5) 0.1313(5) 0.4346(4)
H3 H 0.30510 0.18330 0.45530
C4 C 0.1540(5) 0.1899(4) 0.3210(4)
C5 C 0.0821(5) 0.1054(4) 0.2965(4)
C6 C 0.1117(5) -0.0273(5) 0.3778(4)
H4 H 0.06310 -0.08110 0.35950
C7 C 0.1858(5) 0.5112(5) 0.2094(4)
H5 H 0.13970 0.54200 0.12920
C8 C 0.2397(5) 0.6043(4) 0.2462(4)
C9 C 0.0814(6) 0.7134(5) 0.2366(5)
H6 H 0.11430 0.77900 0.25290
H7 H 0.02880 0.75700 0.15260
C10 C -0.0458(8) 0.6670(7) 0.3219(8)
H8 H -0.13820 0.74190 0.31300
H9 H 0.00530 0.62180 0.40530
H10 H -0.08630 0.60740 0.30230
C11 C 0.3262(6) 0.5294(5) 0.3804(4)
H11 H 0.25230 0.48570 0.43470
H12 H 0.35060 0.59150 0.40520
H13 H 0.42900 0.46470 0.38400
C12 C 0.3623(5) 0.6669(4) 0.1534(4)
H14 H 0.30530 0.70070 0.07100
C13 C 0.3942(5) 0.7863(4) 0.1614(4)
C14 C 0.5039(6) 0.7732(5) 0.2524(5)
H15 H 0.56340 0.68910 0.31060
C15 C 0.5262(8) 0.8866(7) 0.2575(6)
H16 H 0.59940 0.87720 0.31970
C16 C 0.4410(8) 1.0103(6) 0.1717(6)
H17 H 0.45810 1.08490 0.17440
C17 C 0.3320(7) 1.0245(5) 0.0828(6)
H18 H 0.27150 1.10880 0.02570
C18 C 0.3107(6) 0.9136(5) 0.0768(4)
H19 H 0.23760 0.92490 0.01370
C19 C 0.5222(5) 0.5626(4) 0.1607(4)
H20 H 0.59350 0.53810 0.23410
H21 H 0.49390 0.48400 0.16830
#END
