
#######################################################################
#
#                 Cambridge Crystallographic Data Centre
#                                CCDC
#
#######################################################################
#
# If this CIF has been generated from an entry in the Cambridge
# Structural Database, then it will include bibliographic, chemical,
# crystal, experimental, refinement or atomic coordinate data resulting
# from the CCDC's data processing and validation procedures.
#
#######################################################################

data_CSD_CIF_DAGROT
_audit_creation_date 2004-12-02
_audit_creation_method CSD-ConQuest-V1
_database_code_CSD DAGROT
_database_code_depnum_ccdc_archive 'CCDC 230271'
_chemical_formula_sum 'C19 H22 N2 O6'
_chemical_formula_moiety
;
C19 H22 N2 O6
;
_journal_coden_Cambridge 10
_journal_volume 87
_journal_year 2004
_journal_page_first 1724
_journal_name_full 'Helv.Chim.Acta '
loop_
_publ_author_name
"I.Kudyba"
"J.Raczko"
"J.Jurczak"
_chemical_name_systematic
;
syn-(2'R,3'S)-2-(3-nitro-2-hydroxy-1-oxo-3-phenylpropyl)-10,10-dimethyl-3-oxo-
4-oxa-2-azatricyclo[5.2.1.0^1,5^]decane
;
_chemical_name_common
;
(3aS,6R,7aR)-tetrahydro-3-[(2R,3S)-2-hydroxy-3-nitro-3-phenylpropanoyl]-8,8-di
methyl-3a,6-methano-1,3-benzoxazol-2(4H)-one
;
_chemical_melting_point 431.15
_cell_volume   1895.159
_exptl_crystal_density_diffrn 1.312
_exptl_crystal_description 'prismatic'
_diffrn_ambient_temperature 293
#These two values have been output from a single CSD field.
_refine_ls_R_factor_gt 0.0449
_refine_ls_wR_factor_gt 0.0449
loop_
_citation_database_id_CSD
_citation_special_details
DAGRIN "is a stereoisomer of this entry"
_symmetry_cell_setting orthorhombic
_symmetry_space_group_name_H-M 'P 21 21 21'
_symmetry_Int_Tables_number 19
loop_
_symmetry_equiv_pos_site_id
_symmetry_equiv_pos_as_xyz
1 x,y,z
2 1/2-x,-y,1/2+z
3 -x,1/2+y,1/2-z
4 1/2+x,1/2-y,-z
_cell_length_a 7.3010(15)
_cell_length_b 11.978(2)
_cell_length_c 21.671(4)
_cell_angle_alpha 90
_cell_angle_beta 90
_cell_angle_gamma 90
_cell_formula_units_Z 4
loop_
_atom_type_symbol
_atom_type_radius_bond
C 0.68
H 0.23
N 0.68
O 0.68
loop_
_atom_site_label
_atom_site_type_symbol
_atom_site_fract_x
_atom_site_fract_y
_atom_site_fract_z
C1 C 0.4872(5) 0.2768(4) 0.18342(19)
C2 C 0.4788(5) 0.3907(3) 0.0994(2)
C3 C 0.6835(4) 0.2862(3) 0.15998(16)
C4 C 0.4995(5) 0.2854(5) 0.2536(2)
C5 C 0.7091(6) 0.2813(4) 0.2616(2)
C6 C 0.7732(7) 0.1655(4) 0.2415(2)
C7 C 0.7670(7) 0.1702(4) 0.1694(2)
C8 C 0.7789(4) 0.3582(3) 0.21011(16)
C9 C 0.9875(5) 0.3634(5) 0.2070(3)
C10 C 0.7129(6) 0.4792(3) 0.2146(3)
C11 C 0.7785(5) 0.3360(3) 0.05322(18)
C12 C 0.7300(5) 0.3812(3) -0.01028(17)
C13 C 0.8628(5) 0.4745(3) -0.02488(17)
C14 C 0.8609(6) 0.5711(3) 0.01961(15)
C15 C 0.7110(7) 0.6355(4) 0.0272(2)
C16 C 0.7169(10) 0.7236(4) 0.0707(3)
C17 C 0.8735(13) 0.7424(5) 0.1021(3)
C18 C 1.0231(9) 0.6781(5) 0.0946(2)
C19 C 1.0178(6) 0.5929(4) 0.0534(2)
H1 H 0.441(3) 0.212(2) 0.1731(10)
H2 H 0.735(3) 0.2998(19) 0.3006(11)
H3 H 0.590(4) 0.404(2) -0.0136(12)
H4 H 1.003(4) 0.446(2) -0.0282(11)
H5 H 0.596(5) 0.624(3) 0.0072(15)
H6 H 0.585(5) 0.756(3) 0.0711(16)
H7 H 0.869(5) 0.800(3) 0.1269(18)
H8 H 1.145(6) 0.698(4) 0.132(3)
H9 H 1.136(4) 0.537(3) 0.0418(14)
H10 H 0.422(5) 0.225(3) 0.2725(16)
H11 H 0.688(5) 0.108(3) 0.2590(15)
H12 H 0.700(4) 0.118(2) 0.1460(13)
H13 H 1.044(3) 0.289(2) 0.1979(12)
H14 H 0.722(5) 0.512(3) 0.1764(14)
H15 H 0.663(5) 0.256(4) -0.057(2)
H16 H 0.445(4) 0.360(3) 0.2627(14)
H17 H 0.920(5) 0.160(3) 0.2548(18)
H18 H 0.897(4) 0.177(2) 0.1513(13)
H19 H 1.021(6) 0.392(4) 0.162(2)
H20 H 0.554(5) 0.488(3) 0.2120(14)
H21 H 1.045(5) 0.402(3) 0.2417(19)
H22 H 0.765(4) 0.503(3) 0.2526(15)
N1 N 0.6507(3) 0.3355(2) 0.09942(13)
N2 N 0.8218(6) 0.5165(3) -0.08934(16)
O1 O 0.3904(3) 0.3652(2) 0.15189(12)
O2 O 0.4202(3) 0.4518(2) 0.06176(12)
O3 O 0.9301(3) 0.2989(2) 0.06307(11)
O4 O 0.7661(3) 0.2955(2) -0.05386(12)
O5 O 0.9502(4) 0.5409(3) -0.12077(13)
O6 O 0.6645(5) 0.5245(3) -0.10561(13)
#END
