
#######################################################################
#
#                 Cambridge Crystallographic Data Centre
#                                CCDC
#
#######################################################################
#
# If this CIF has been generated from an entry in the Cambridge
# Structural Database, then it will include bibliographic, chemical,
# crystal, experimental, refinement or atomic coordinate data resulting
# from the CCDC's data processing and validation procedures.
#
#######################################################################

data_CSD_CIF_DAHLAZ
_audit_creation_date 1986-03-24
_audit_creation_method CSD-ConQuest-V1
_database_code_CSD DAHLAZ
_chemical_formula_sum 'C13 H11 N3 O2'
_chemical_formula_moiety
;
C13 H11 N3 O2
;
_journal_coeditor_code "IUCr A24876"
_journal_coden_Cambridge 591
_journal_volume 41
_journal_year 1985
_journal_page_first 1072
_journal_name_full 'Acta Crystallogr.,Sect.C:Cryst.Struct.Commun. '
loop_
_publ_author_name
"B.Vickery"
"G.R.Willey"
"M.G.B.Drew"
_chemical_name_systematic
;
(E)-Benzaldehyde 4'-nitrophenylhydrazone
;
_cell_volume   1191.439
_exptl_crystal_colour 'orange'
_exptl_crystal_density_diffrn 1.34
_diffrn_ambient_temperature ?
_diffrn_special_details
;
The study was carried out at room temperature,in the range 283-303K

;
#These two values have been output from a single CSD field.
_refine_ls_R_factor_gt 0.071
_refine_ls_wR_factor_gt 0.071
_symmetry_cell_setting monoclinic
_symmetry_space_group_name_H-M 'C c'
_symmetry_Int_Tables_number 9
loop_
_symmetry_equiv_pos_site_id
_symmetry_equiv_pos_as_xyz
1 x,y,z
2 1/2+x,1/2+y,z
3 x,-y,1/2+z
4 1/2+x,1/2-y,1/2+z
_cell_length_a 6.049(5)
_cell_length_b 23.320(11)
_cell_length_c 8.506(11)
_cell_angle_alpha 90
_cell_angle_beta 96.8(1)
_cell_angle_gamma 90
_cell_formula_units_Z 4
loop_
_atom_type_symbol
_atom_type_radius_bond
C 0.68
H 0.23
N 0.68
O 0.68
loop_
_atom_site_label
_atom_site_type_symbol
_atom_site_fract_x
_atom_site_fract_y
_atom_site_fract_z
C1 C 0.0676(15) 0.0300(3) 0.0383(12)
C2 C 0.0230(15) 0.0879(3) 0.0168(11)
C3 C -0.1437(14) 0.1139(3) 0.0825(11)
C4 C -0.2742(14) 0.0815(3) 0.1763(11)
C5 C -0.2279(15) 0.0235(3) 0.2014(12)
C6 C -0.0622(15) -0.0023(3) 0.1323(12)
N1 N 0.2383(14) 0.0034(3) -0.0353(10)
O1 O 0.2654(15) -0.0490(3) -0.0209(11)
O2 O 0.3535(14) 0.0327(3) -0.1128(12)
N2 N -0.44270 0.1060(3) 0.24630
N3 N -0.4965(13) 0.1617(2) 0.2153(10)
C7 C -0.6666(15) 0.1817(3) 0.2726(12)
C8 C -0.7393(14) 0.2403(3) 0.2409(11)
C9 C -0.6066(16) 0.2792(4) 0.1658(13)
C10 C -0.6765(20) 0.3341(4) 0.1296(16)
C11 C -0.8726(20) 0.3528(5) 0.1727(16)
C12 C -1.0012(19) 0.3179(5) 0.2463(16)
C13 C -0.9353(17) 0.2599(4) 0.2843(16)
H1 H 0.11190 0.11000 -0.04540
H2 H -0.17260 0.15360 0.06530
H3 H -0.31240 0.00180 0.26760
H4 H -0.03480 -0.04220 0.14740
H5 H -0.540(21) 0.0888(58) 0.274(18)
H6 H -0.74660 0.15790 0.33680
H7 H -0.46540 0.26710 0.13990
H8 H -0.58790 0.35890 0.07430
H9 H -0.91880 0.39120 0.15060
H10 H -1.13920 0.33170 0.27400
H11 H -1.02700 0.23560 0.33870
#END
