
#######################################################################
#
#                 Cambridge Crystallographic Data Centre
#                                CCDC
#
#######################################################################
#
# If this CIF has been generated from an entry in the Cambridge
# Structural Database, then it will include bibliographic, chemical,
# crystal, experimental, refinement or atomic coordinate data resulting
# from the CCDC's data processing and validation procedures.
#
#######################################################################

data_CSD_CIF_DAJJEF
_audit_creation_date 2011-12-21
_audit_creation_method CSD-ConQuest-V1
_database_code_CSD DAJJEF
_database_code_depnum_ccdc_archive 'CCDC 784626'
_chemical_formula_sum 'C20 H16 N2 O4'
_chemical_formula_moiety
;
C20 H16 N2 O4
;
_journal_coden_Cambridge 1336
_journal_volume 13
_journal_year 2011
_journal_page_first 4858
_journal_name_full 'Org.Lett. '
loop_
_publ_author_name
"B.L.Kohn"
"E.R.Jarvo"
_chemical_name_systematic
;
(1-Cyano-2-phenylcyclopent-3-en-1-yl)methyl 4-nitrobenzoate
;
_chemical_melting_point 402
_cell_volume   1664.957
_exptl_crystal_colour 'colorless'
_exptl_crystal_density_diffrn 1.39
_exptl_special_details
;
Melting point range 402-405K

;
_exptl_crystal_description 'polyhedron'
_diffrn_ambient_temperature 143
#These two values have been output from a single CSD field.
_refine_ls_R_factor_gt 0.0366
_refine_ls_wR_factor_gt 0.0366
_symmetry_cell_setting monoclinic
_symmetry_space_group_name_H-M 'P 21/n'
_symmetry_Int_Tables_number 14
loop_
_symmetry_equiv_pos_site_id
_symmetry_equiv_pos_as_xyz
1 x,y,z
2 1/2-x,1/2+y,1/2-z
3 -x,-y,-z
4 -1/2+x,-1/2-y,-1/2+z
_cell_length_a 7.9028(4)
_cell_length_b 11.4108(6)
_cell_length_c 18.4633(9)
_cell_angle_alpha 90
_cell_angle_beta 90.2260(6)
_cell_angle_gamma 90
_cell_formula_units_Z 4
loop_
_atom_type_symbol
_atom_type_radius_bond
C 0.68
H 0.23
N 0.68
O 0.68
loop_
_atom_site_label
_atom_site_type_symbol
_atom_site_fract_x
_atom_site_fract_y
_atom_site_fract_z
O1 O 0.04470(9) 0.85483(6) 0.11713(4)
O2 O -0.17009(10) 0.89658(7) 0.04145(4)
O3 O -0.32372(12) 0.30393(9) 0.00877(5)
O4 O -0.10381(12) 0.26569(8) 0.07483(5)
N1 N 0.19176(12) 0.91274(9) 0.29665(5)
N2 N -0.20176(13) 0.33423(9) 0.04604(5)
C1 C 0.23899(12) 0.99557(9) 0.16610(5)
C2 C 0.39425(13) 0.93997(9) 0.12436(6)
H1 H 0.3498(16) 0.8916(12) 0.0837(7)
C3 C 0.48504(14) 1.04731(10) 0.09649(6)
H2 H 0.581(2) 1.0407(13) 0.0657(8)
C4 C 0.42378(14) 1.14662(10) 0.12242(6)
H3 H 0.4642(17) 1.2236(12) 0.1127(7)
C5 C 0.27705(14) 1.12959(9) 0.17190(6)
H4 H 0.305(2) 1.1529(14) 0.2230(9)
C6 C 0.21457(12) 0.94584(9) 0.23904(6)
C7 C 0.50630(12) 0.86110(9) 0.17002(5)
C8 C 0.48886(13) 0.73982(10) 0.16725(6)
H5 H 0.4071(18) 0.7065(13) 0.1343(8)
C9 C 0.59039(16) 0.66817(10) 0.21007(7)
H6 H 0.579(2) 0.5848(14) 0.2061(9)
C10 C 0.71068(15) 0.71664(10) 0.25562(6)
H7 H 0.783(2) 0.6671(14) 0.2861(8)
C11 C 0.73058(14) 0.83686(10) 0.25834(6)
H8 H 0.818(2) 0.8702(14) 0.2900(8)
C12 C 0.62852(14) 0.90810(9) 0.21613(6)
H9 H 0.6424(18) 0.9927(14) 0.2196(8)
C13 C 0.07674(13) 0.97962(9) 0.12211(6)
H10 H 0.0924(17) 1.0116(12) 0.0730(7)
H11 H -0.0218(17) 1.0178(12) 0.1455(7)
C14 C -0.08611(12) 0.82592(10) 0.07390(5)
C15 C -0.11342(12) 0.69653(10) 0.07010(5)
C16 C -0.24060(13) 0.65714(11) 0.02322(6)
H12 H -0.3069(18) 0.7131(13) -0.0035(8)
C17 C -0.27028(14) 0.53849(11) 0.01553(6)
H13 H -0.352(2) 0.5094(14) -0.0176(8)
C18 C -0.17278(13) 0.46107(10) 0.05547(6)
C19 C -0.04617(14) 0.49711(10) 0.10254(6)
H14 H 0.0192(18) 0.4408(12) 0.1294(8)
C20 C -0.01734(13) 0.61676(10) 0.10968(5)
H15 H 0.0710(17) 0.6437(12) 0.1417(8)
H16 H 0.174(2) 1.1751(14) 0.1581(8)
#END
