
#######################################################################
#
#                 Cambridge Crystallographic Data Centre
#                                CCDC
#
#######################################################################
#
# If this CIF has been generated from an entry in the Cambridge
# Structural Database, then it will include bibliographic, chemical,
# crystal, experimental, refinement or atomic coordinate data resulting
# from the CCDC's data processing and validation procedures.
#
#######################################################################

data_CSD_CIF_DAJWER
_audit_creation_date 2005-04-12
_audit_creation_method CSD-ConQuest-V1
_database_code_CSD DAJWER
_database_code_depnum_ccdc_archive 'CCDC 222153'
_chemical_formula_sum 'C16 H16 N12 O8'
_chemical_formula_moiety
;
C16 H16 N12 O8
;
_journal_coden_Cambridge 1093
_journal_volume 15
_journal_year 2004
_journal_page_first 131
_journal_name_full 'Heteroat.Chem. '
loop_
_publ_author_name
"A.B.Sheremetev"
"E.V.Shatunova"
"B.B.Averkiev"
"D.E.Dmitriev"
"V.A.Petukhov"
"M.Yu.Antipin"
_chemical_name_systematic
;
9,10,19,20-Tetramethyl-10,11,22,23-tetrahydrotetrakis(1,2,5)oxadiazolo(3,4-b:3
',4'-f:3'',4''-l:3''',4'''-p)(1,8,11,18,4,5,14,15)tetraoxatetra-azacycloicosin
e
;
_cell_volume   1105.727
_exptl_crystal_colour 'orange'
_exptl_crystal_density_diffrn 1.515
_exptl_crystal_description 'prism'
_diffrn_ambient_temperature 293
_refine_special_details
;
Two methyl groups and two carbons of the macrocycle are each disordered over 
two sets of positions.
;
#These two values have been output from a single CSD field.
_refine_ls_R_factor_gt 0.0792
_refine_ls_wR_factor_gt 0.0792
_symmetry_cell_setting monoclinic
_symmetry_space_group_name_H-M 'P 21/c'
_symmetry_Int_Tables_number 14
loop_
_symmetry_equiv_pos_site_id
_symmetry_equiv_pos_as_xyz
1 x,y,z
2 x,1/2-y,1/2+z
3 -x,-y,-z
4 -x,-1/2+y,-1/2-z
_cell_length_a 11.009(4)
_cell_length_b 15.52(1)
_cell_length_c 6.656(2)
_cell_angle_alpha 90
_cell_angle_beta 103.52(2)
_cell_angle_gamma 90
_cell_formula_units_Z 2
loop_
_atom_type_symbol
_atom_type_radius_bond
C 0.68
H 0.23
N 0.68
O 0.68
loop_
_atom_site_label
_atom_site_type_symbol
_atom_site_fract_x
_atom_site_fract_y
_atom_site_fract_z
O1 O 0.6265(3) 0.9082(3) 0.2939(5)
C1 C 0.6129(4) 0.8241(4) 0.2762(6)
N1 N 0.6962(4) 0.7664(3) 0.3494(6)
O2 O 0.6364(3) 0.6879(3) 0.2915(5)
N2 N 0.5142(4) 0.7010(3) 0.1821(6)
C2 C 0.4995(4) 0.7821(3) 0.1725(6)
N3 N 0.3881(3) 0.8253(3) 0.0693(5)
N4 N 0.2955(4) 0.7761(3) 0.0526(6)
C3 C 0.1840(4) 0.8149(3) -0.0557(7)
N5 N 0.0811(4) 0.7725(3) -0.0567(6)
O3 O -0.0121(3) 0.8203(3) -0.1734(6)
N6 N 0.0322(4) 0.8942(3) -0.2467(7)
C4 C 0.1547(4) 0.8887(3) -0.1787(7)
O4 O 0.2348(3) 0.9457(2) -0.2173(5)
C5 C 0.1749(6) 1.0212(4) -0.3341(10)
H1 H 0.10080 1.00150 -0.43600
C6 C 0.6883(14) 1.0253(8) 0.567(2)
H2 H 0.75910 1.04790 0.66540
H3 H 0.62640 1.00640 0.63730
H4 H 0.65370 1.06950 0.46910
C7 C 0.1334(8) 1.0972(6) -0.2012(13)
H5 H 0.09570 1.14280 -0.29180
H6 H 0.20540 1.11880 -0.10380
H7 H 0.07420 1.07530 -0.12840
C8 C 0.7310(5) 0.9463(4) 0.4487(9)
H8 H 0.76960 0.90220 0.54860
C9? C 0.2190(15) 0.9973(10) -0.433(2)
H9? H 0.13460 0.98540 -0.51560
C10? C 0.870(3) 0.9320(19) 0.197(4)
H10? H 0.95570 0.93530 0.27120
H11? H 0.84620 0.98470 0.12290
H12? H 0.85900 0.88470 0.10210
C11? C 0.310(2) 0.9917(16) -0.582(4)
H13? H 0.27960 1.02840 -0.69950
H14? H 0.31320 0.93330 -0.62790
H15? H 0.39160 1.01000 -0.51050
C12? C 0.7798(15) 0.9169(11) 0.365(2)
H16? H 0.81710 0.87690 0.47630
C8B C 0.2690(5) 1.0537(4) -0.4487(9)
O1B O 0.3735(3) 1.0918(3) -0.2939(5)
C1B C 0.3871(4) 1.1759(4) -0.2762(6)
N1B N 0.3038(4) 1.2336(3) -0.3494(6)
O2B O 0.3636(3) 1.3121(3) -0.2915(5)
N2B N 0.4858(4) 1.2990(3) -0.1821(6)
C2B C 0.5005(4) 1.2179(3) -0.1725(6)
N3B N 0.6119(3) 1.1747(3) -0.0693(5)
N4B N 0.7045(4) 1.2239(3) -0.0526(6)
C3B C 0.8160(4) 1.1851(3) 0.0557(7)
N5B N 0.9189(4) 1.2275(3) 0.0567(6)
O3B O 1.0121(3) 1.1797(3) 0.1734(6)
N6B N 0.9678(4) 1.1058(3) 0.2467(7)
C4B C 0.8453(4) 1.1113(3) 0.1787(7)
O4B O 0.7652(3) 1.0543(2) 0.2173(5)
C5B C 0.8251(6) 0.9788(4) 0.3341(10)
H1B H 0.89920 0.99850 0.43600
C7B C 0.8666(8) 0.9028(6) 0.2012(13)
H5B H 0.90430 0.85720 0.29180
H6B H 0.79460 0.88120 0.10380
H7B H 0.92580 0.92470 0.12840
C6B C 0.3117(14) 0.9747(8) -0.567(2)
H2B H 0.24090 0.95210 -0.66540
H3B H 0.37360 0.99360 -0.63730
H4B H 0.34630 0.93050 -0.46910
H8B H 0.23040 1.09780 -0.54860
#END
