
#######################################################################
#
#                 Cambridge Crystallographic Data Centre
#                                CCDC
#
#######################################################################
#
# If this CIF has been generated from an entry in the Cambridge
# Structural Database, then it will include bibliographic, chemical,
# crystal, experimental, refinement or atomic coordinate data resulting
# from the CCDC's data processing and validation procedures.
#
#######################################################################

data_CSD_CIF_DAKCIC
_audit_creation_date 2005-04-12
_audit_creation_method CSD-ConQuest-V1
_database_code_CSD DAKCIC
_database_code_depnum_ccdc_archive 'CCDC 242406'
_chemical_formula_sum 'C10 H9 N3 O5'
_chemical_formula_moiety
;
C10 H9 N3 O5
;
_journal_coden_Cambridge 1277
_journal_volume 108
_journal_year 2004
_journal_page_first 11241
_journal_name_full 'J.Phys.Chem.A '
loop_
_publ_author_name
"M.Boiani"
"H.Cerecetto"
"M.Gonzalez"
"O.E.Piro"
"E.E.Castellano"
_chemical_name_systematic
;
Ethyl 1-hydroxy-6-nitrobenzimidazole-2-carboxylate
;
_cell_volume   1055.390
_exptl_crystal_colour 'pale yellow'
_exptl_crystal_density_diffrn 1.568
_diffrn_ambient_temperature 100
#These two values have been output from a single CSD field.
_refine_ls_R_factor_gt 0.052
_refine_ls_wR_factor_gt 0.052
_symmetry_cell_setting monoclinic
_symmetry_space_group_name_H-M 'P 21/n'
_symmetry_Int_Tables_number 14
loop_
_symmetry_equiv_pos_site_id
_symmetry_equiv_pos_as_xyz
1 x,y,z
2 1/2+x,1/2-y,1/2+z
3 -x,-y,-z
4 -1/2-x,-1/2+y,-1/2-z
_cell_length_a 4.484(1)
_cell_length_b 10.188(1)
_cell_length_c 23.106(2)
_cell_angle_alpha 90
_cell_angle_beta 91.00(1)
_cell_angle_gamma 90
_cell_formula_units_Z 4
loop_
_atom_type_symbol
_atom_type_radius_bond
C 0.68
H 0.23
N 0.68
O 0.68
loop_
_atom_site_label
_atom_site_type_symbol
_atom_site_fract_x
_atom_site_fract_y
_atom_site_fract_z
O1 O -0.0716(4) 0.74660(17) 0.20971(7)
H1 H 0.02920 0.67880 0.21680
O2 O 0.3105(4) 0.88720(17) 0.13539(7)
O3 O 0.6219(4) 1.02698(19) 0.18197(8)
O4 O -0.6788(5) 0.6923(2) 0.40641(8)
O5 O -0.6515(5) 0.8549(2) 0.46628(8)
N1 N 0.0229(5) 0.8466(2) 0.24541(8)
N2 N 0.2215(5) 1.0373(2) 0.27321(9)
N3 N -0.5822(5) 0.7998(3) 0.42103(9)
C1 C 0.4030(6) 0.9571(3) 0.18047(11)
C2 C 0.2106(6) 0.9462(3) 0.23197(10)
C3 C -0.1031(6) 0.8752(2) 0.29778(11)
C4 C -0.3066(6) 0.8072(3) 0.3313(1)
H2 H -0.39320 0.72610 0.31960
C5 C -0.3711(6) 0.8673(3) 0.38277(10)
C6 C -0.2490(6) 0.9871(3) 0.40154(11)
H3 H -0.30480 1.02320 0.43770
C7 C -0.0495(6) 1.0518(3) 0.36766(11)
H4 H 0.03570 1.13290 0.37970
C8 C 0.0261(6) 0.9949(3) 0.31445(10)
C9 C 0.5010(7) 0.8969(3) 0.08445(11)
H5 H 0.68370 0.84350 0.09010
H6 H 0.56010 0.98920 0.07780
C10 C 0.3207(7) 0.8463(3) 0.03381(11)
H7 H 0.44640 0.84220 -0.00040
H8 H 0.15200 0.90530 0.02610
H9 H 0.24590 0.75830 0.04260
#END
