
#######################################################################
#
#                 Cambridge Crystallographic Data Centre
#                                CCDC
#
#######################################################################
#
# If this CIF has been generated from an entry in the Cambridge
# Structural Database, then it will include bibliographic, chemical,
# crystal, experimental, refinement or atomic coordinate data resulting
# from the CCDC's data processing and validation procedures.
#
#######################################################################

data_CSD_CIF_DAKKUY
_audit_creation_date 2016-12-13
_audit_creation_method CSD-ConQuest-V1
_database_code_CSD DAKKUY
_database_code_depnum_ccdc_archive 'CCDC 1480037'
_chemical_formula_sum 'C16 H24 N2 O2'
_chemical_formula_moiety
;
C16 H24 N2 O2
;
_journal_coden_Cambridge 1220
_journal_volume 22
_journal_year 2016
_journal_page_first 13613
_journal_name_full 'Chem.-Eur.J. '
loop_
_publ_author_name
"P.Calleja"
"O.Pablo"
"B.Ranieri"
"M.Gaydou"
"A.Pitaval"
"M.Moreno"
"M.Raducan"
"A.M.Echavarren"
_chemical_name_systematic
;
2,2,3,4,5,5-hexamethyl-1-(4-nitrophenyl)pyrrolidine
;
_cell_volume   1449.296
_exptl_crystal_colour 'yellow'
_exptl_crystal_density_diffrn 1.248
_exptl_special_details
;
Absolute configuration

;
_exptl_crystal_description 'Block'
_diffrn_ambient_temperature 293
_refine_special_details
;
The structure is disordered by symmetry.

;
#These two values have been output from a single CSD field.
_refine_ls_R_factor_gt 0.0441
_refine_ls_wR_factor_gt 0.0441
_symmetry_cell_setting tetragonal
_symmetry_space_group_name_H-M 'P 43 21 2'
_symmetry_Int_Tables_number 96
loop_
_symmetry_equiv_pos_site_id
_symmetry_equiv_pos_as_xyz
1 x,y,z
2 -x,-y,1/2+z
3 1/2+x,1/2-y,1/4-z
4 1/2-x,1/2+y,3/4-z
5 -y,-x,1/2-z
6 y,x,-z
7 1/2+y,1/2-x,1/4+z
8 1/2-y,1/2+x,3/4+z
_cell_length_a 8.391
_cell_length_b 8.391
_cell_length_c 20.584
_cell_angle_alpha 90
_cell_angle_beta 90
_cell_angle_gamma 90
_cell_formula_units_Z 4
loop_
_atom_type_symbol
_atom_type_radius_bond
C 0.68
H 0.23
N 0.68
O 0.68
loop_
_atom_site_label
_atom_site_type_symbol
_atom_site_fract_x
_atom_site_fract_y
_atom_site_fract_z
C1 C 0.67618(13) 0.67618(13) 0.00000
C2 C 0.57718(16) 0.66017(15) 0.05340(5)
H1 H 0.58900 0.72730 0.08900
C3 C 0.46143(15) 0.54460(15) 0.05344(5)
H2 H 0.39510 0.53440 0.08940
C4 C 0.44080(14) 0.44080(14) 0.00000
C5 C 0.17723(15) 0.32930(15) 0.04026(5)
C6 C 0.09808(17) 0.49115(17) 0.04352(7)
H3 H 0.15090 0.55560 0.07550
H4 H -0.01190 0.47840 0.05530
H5 H 0.10510 0.54210 0.00190
C7 C 0.07850(16) 0.20426(16) 0.00346(5)
H6 H 0.04280 0.15730 0.04450
C8 C 0.1981(3) 0.2750(3) 0.11717(11)
H7 H 0.27560 0.34230 0.13780
H8 H 0.23320 0.16620 0.11910
H9 H 0.09780 0.28510 0.13920
C9 C -0.0833(3) 0.2210(3) -0.01790(8)
H10 H -0.1270(7) 0.1342(4) -0.03972(12)
H11 H -0.1444(9) 0.3120(5) -0.0111(2)
O1 O 0.7983(3) 0.8959(3) 0.04538(9)
N1 N 0.8158(2) 0.7795(2) -0.00182(12)
N2 N 0.3413(2) 0.3105(2) 0.01027(8)
C10? C 0.2189(3) 0.2342(3) 0.09409(12)
H12? H 0.13530 0.23500 0.12660
H13? H 0.31740 0.27080 0.11370
C11? C 0.0634(3) 0.2396(3) -0.06374(12)
H14? H 0.02580 0.34790 -0.06980
H15? H -0.01150 0.16730 -0.08420
O2? O 0.8390(3) 0.8587(3) 0.05462(9)
C2E C 0.66017(16) 0.57718(15) -0.05340(5)
H1E H 0.72730 0.58900 -0.08900
C3E C 0.54460(15) 0.46143(15) -0.05344(5)
H2E H 0.53440 0.39510 -0.08940
C5E C 0.32930(15) 0.17723(15) -0.04026(5)
C6E C 0.49115(17) 0.09808(17) -0.04352(7)
H3E H 0.55560 0.15090 -0.07550
H4E H 0.47840 -0.01190 -0.05530
H5E H 0.54210 0.10510 -0.00190
C7E C 0.20426(16) 0.07850(16) -0.00346(5)
H6E H 0.15730 0.04280 -0.04450
C8E C 0.2750(3) 0.1981(3) -0.11717(11)
H7E H 0.34230 0.27560 -0.13780
H8E H 0.16620 0.23320 -0.11910
H9E H 0.28510 0.09780 -0.13920
C9E C 0.2210(3) -0.0833(3) 0.01790(8)
H10E H 0.1342(7) -0.1270(4) 0.03972(12)
H11E H 0.3120(9) -0.1444(5) 0.0111(2)
O1E O 0.8959(3) 0.7983(3) -0.04538(9)
N1E N 0.7795(2) 0.8158(2) 0.00182(12)
N2E N 0.3105(2) 0.3413(2) -0.01027(8)
#END
