
#######################################################################
#
#                 Cambridge Crystallographic Data Centre
#                                CCDC
#
#######################################################################
#
# If this CIF has been generated from an entry in the Cambridge
# Structural Database, then it will include bibliographic, chemical,
# crystal, experimental, refinement or atomic coordinate data resulting
# from the CCDC's data processing and validation procedures.
#
#######################################################################

data_CSD_CIF_DAMPCX
_audit_creation_date 1978-01-11
_audit_creation_method CSD-ConQuest-V1
_database_code_CSD DAMPCX
_chemical_formula_sum 'C17 H19 N1 O6'
_chemical_formula_moiety
;
C17 H19 N1 O6
;
_journal_coden_Cambridge 189
_journal_volume 6
_journal_year 1977
_journal_page_first 561
_journal_name_full 'Cryst.Struct.Commun. '
loop_
_publ_author_name
"F.Florencio"
"P.Smith-Verdier"
"S.Garcia-Blanco"
_chemical_name_systematic
;
2-trans-4-Diacetyl-5-cis-methyl-r-3-(p-nitrophenyl)-cyclohex-1-en-1-trans-5-di
ol
;
_cell_volume   3261.385
_diffrn_ambient_temperature ?
_diffrn_special_details
;
The study was carried out at room temperature,in the range 283-303K

;
#These two values have been output from a single CSD field.
_refine_ls_R_factor_gt 0.05
_refine_ls_wR_factor_gt 0.05
_symmetry_cell_setting orthorhombic
_symmetry_space_group_name_H-M 'P b c a'
_symmetry_Int_Tables_number 61
loop_
_symmetry_equiv_pos_site_id
_symmetry_equiv_pos_as_xyz
1 x,y,z
2 1/2-x,-y,1/2+z
3 1/2+x,1/2-y,-z
4 -x,1/2+y,1/2-z
5 -x,-y,-z
6 -1/2+x,y,-1/2-z
7 -1/2-x,-1/2+y,z
8 x,-1/2-y,-1/2+z
_cell_length_a 20.176(2)
_cell_length_b 8.623(3)
_cell_length_c 18.746(9)
_cell_angle_alpha 90
_cell_angle_beta 90
_cell_angle_gamma 90
_cell_formula_units_Z 8
loop_
_atom_type_symbol
_atom_type_radius_bond
C 0.68
H 0.23
N 0.68
O 0.68
loop_
_atom_site_label
_atom_site_type_symbol
_atom_site_fract_x
_atom_site_fract_y
_atom_site_fract_z
C1 C 0.32280 -0.05760 0.23520
C2 C 0.36390 -0.10930 0.18110
C3 C 0.40010 -0.26160 0.18980
C4 C 0.37660 -0.35560 0.25650
C5 C 0.36840 -0.24980 0.32250
C6 C 0.31440 -0.13380 0.30530
O1 O 0.28940 0.07240 0.22940
C7 C 0.37580 -0.01030 0.12230
O2 O 0.34260 0.11090 0.11280
C8 C 0.43120 -0.04330 0.07170
C9 C 0.42460 -0.48820 0.27010
O3 O 0.48150 -0.46230 0.28480
C10 C 0.39870 -0.64830 0.26530
O4 O 0.42820 -0.16420 0.33580
C11 C 0.35140 -0.34510 0.38910
C12 C 0.39140 -0.37100 0.12650
C13 C 0.32950 -0.38420 0.09330
C14 C 0.31970 -0.49100 0.03910
C15 C 0.37210 -0.58000 0.01750
C16 C 0.43320 -0.56880 0.04840
C17 C 0.44370 -0.46310 0.10260
N1 N 0.36420 -0.69530 -0.03990
O5 O 0.30880 -0.71600 -0.06250
O6 O 0.41340 -0.76630 -0.06070
H1 H 0.45200 -0.25600 0.20200
H2 H 0.33000 -0.41100 0.24300
H3 H 0.26800 -0.19600 0.30500
H4 H 0.31400 -0.05800 0.34500
H5 H 0.29500 0.11800 0.18900
H6 H 0.44500 0.05000 0.05200
H7 H 0.41400 -0.09700 0.03400
H8 H 0.46700 -0.09600 0.08900
H9 H 0.35800 -0.67200 0.29200
H10 H 0.37300 -0.65300 0.22700
H11 H 0.43100 -0.71700 0.26900
H12 H 0.45400 -0.24300 0.33700
H13 H 0.30900 -0.42200 0.37800
H14 H 0.38200 -0.42400 0.40200
H15 H 0.33400 -0.27400 0.42200
H16 H 0.29100 -0.31200 0.10300
H17 H 0.27400 -0.50500 0.01300
H18 H 0.47100 -0.63700 0.03400
H19 H 0.48600 -0.44300 0.12700
#END
