
#######################################################################
#
#                 Cambridge Crystallographic Data Centre
#                                CCDC
#
#######################################################################
#
# If this CIF has been generated from an entry in the Cambridge
# Structural Database, then it will include bibliographic, chemical,
# crystal, experimental, refinement or atomic coordinate data resulting
# from the CCDC's data processing and validation procedures.
#
#######################################################################

data_CSD_CIF_DAMTUH
_audit_creation_date 2005-04-11
_audit_creation_method CSD-ConQuest-V1
_database_code_CSD DAMTUH
_database_code_depnum_ccdc_archive 'CCDC 260417'
_database_code_depnum_ccdc_journal 1267/1294
_chemical_formula_sum 'C13 H16 N2 O6'
_chemical_formula_moiety
;
C13 H16 N2 O6
;
_journal_coden_Cambridge 1267
_journal_volume 219
_journal_year 2004
_journal_page_first 289
_journal_name_full 'Z.Kristallogr.-New Cryst.Struct. '
loop_
_publ_author_name
"W.Frey"
"J.Y.Lee"
"V.Jager"
_chemical_name_systematic
;
Diethyl 
rel-(3aR,3bR,6aS,7aR)-3b,6a,7,7a-tetrahydro-3aH-cyclopenta(1,2-d:3,4-d)diisoxa
zole-3,6-dicarboxylate
;
_chemical_melting_point 374
_cell_volume   2823.834
_exptl_crystal_colour 'colorless'
_exptl_crystal_density_diffrn 1.394
_exptl_special_details
;
Melts with decomposition.

;
_exptl_crystal_description 'needle'
_exptl_crystal_preparation 'petroleum ether'
_diffrn_ambient_temperature 293
_refine_special_details
;
One C and one O atom are disordered over two sites with occupancies 
0.799:0.201.
;
#These two values have been output from a single CSD field.
_refine_ls_R_factor_gt 0.0756
_refine_ls_wR_factor_gt 0.0756
_symmetry_cell_setting orthorhombic
_symmetry_space_group_name_H-M 'P b c a'
_symmetry_Int_Tables_number 61
loop_
_symmetry_equiv_pos_site_id
_symmetry_equiv_pos_as_xyz
1 x,y,z
2 1/2-x,-y,1/2+z
3 -x,1/2+y,1/2-z
4 1/2+x,1/2-y,-z
5 -x,-y,-z
6 -1/2+x,y,-1/2-z
7 x,-1/2-y,-1/2+z
8 -1/2-x,-1/2+y,z
_cell_length_a 9.8365(6)
_cell_length_b 12.0017(5)
_cell_length_c 23.9197(13)
_cell_angle_alpha 90
_cell_angle_beta 90
_cell_angle_gamma 90
_cell_formula_units_Z 8
loop_
_atom_type_symbol
_atom_type_radius_bond
C 0.68
H 0.23
N 0.68
O 0.68
loop_
_atom_site_label
_atom_site_type_symbol
_atom_site_fract_x
_atom_site_fract_y
_atom_site_fract_z
O1 O 1.2818(2) 0.30329(19) 0.76583(10)
O2 O 0.9685(2) 0.02475(19) 0.76146(9)
O3 O 1.3341(3) 0.1771(3) 0.60493(12)
O4 O 1.1435(3) 0.0873(3) 0.6253(2)
O5 O 1.2059(3) -0.0524(4) 0.91825(14)
O6 O 0.9981(3) -0.1218(3) 0.91521(13)
N1 N 1.3147(3) 0.2730(2) 0.71135(13)
N2 N 0.9627(3) -0.0310(2) 0.81303(11)
C1 C 1.2214(3) 0.2097(2) 0.69203(13)
C2 C 1.1071(3) 0.1850(2) 0.73172(13)
H1 H 1.01850 0.20600 0.71620
C3 C 1.1476(3) 0.2584(3) 0.78128(14)
H2 H 1.08150 0.31850 0.78700
C4 C 1.0736(3) -0.0140(2) 0.83941(13)
C5 C 1.1701(3) 0.0643(2) 0.81065(13)
H3 H 1.26410 0.03710 0.81100
C6 C 1.1089(3) 0.0647(2) 0.75260(13)
H4 H 1.15920 0.01590 0.72710
C7 C 1.1579(4) 0.1851(3) 0.83237(14)
H5 H 1.07750 0.19320 0.85550
H6 H 1.23710 0.20490 0.85440
C8 C 1.2402(4) 0.1613(3) 0.63580(15)
C9 C 1.1616(5) 0.0173(5) 0.5769(2)
H7 H 1.16030 0.06160 0.54300
H8 H 1.24770 -0.02200 0.57890
C10 C 1.0501(6) -0.0604(4) 0.5772(3)
H9 H 1.05750 -0.10930 0.54560
H10 H 0.96580 -0.02030 0.57530
H11 H 1.05260 -0.10340 0.61110
C11 C 1.1001(4) -0.0645(3) 0.89451(15)
C12 C 1.0200(5) -0.1754(6) 0.9696(2)
H12 H 1.05930 -0.24870 0.96420
H13 H 1.08270 -0.13140 0.99170
C13 C 0.8913(6) -0.1852(4) 0.99858(19)
H14 H 0.90560 -0.22010 1.03420
H15 H 0.83000 -0.22960 0.97670
H16 H 0.85320 -0.11240 1.00410
O7? O 1.1198(10) 0.1181(18) 0.6236(9)
C14? C 1.078(3) 0.0571(6) 0.5745(7)
H17? H 0.99730 0.09320 0.56010
H18? H 1.14890 0.06730 0.54660
#END
