
#######################################################################
#
#                 Cambridge Crystallographic Data Centre
#                                CCDC
#
#######################################################################
#
# If this CIF has been generated from an entry in the Cambridge
# Structural Database, then it will include bibliographic, chemical,
# crystal, experimental, refinement or atomic coordinate data resulting
# from the CCDC's data processing and validation procedures.
#
#######################################################################

data_CSD_CIF_DAPHOS
_audit_creation_date 2005-10-20
_audit_creation_method CSD-ConQuest-V1
_database_code_CSD DAPHOS
_database_code_depnum_ccdc_archive 'CCDC 265211'
_chemical_formula_sum 'C11 H10 N2 O6'
_chemical_formula_moiety
;
C11 H10 N2 O6
;
_journal_coden_Cambridge 177
_journal_volume 3
_journal_year 2005
_journal_page_first 1776
_journal_name_full 'Org.Biomol.Chem. '
loop_
_publ_author_name
"N.L.Fifer"
"J.M.White"
_chemical_name_systematic
;
cyclopropylmethyl 3,5-dinitrobenzoate
;
_chemical_melting_point 376.15
_cell_volume   1185.605
_exptl_crystal_colour 'colorless'
_exptl_crystal_density_diffrn 1.491
_exptl_special_details
;
Melting point range 376.15-378.15K

;
_exptl_crystal_description 'slab'
_exptl_crystal_preparation 'ether'
_diffrn_ambient_temperature 130
#These two values have been output from a single CSD field.
_refine_ls_R_factor_gt 0.0375
_refine_ls_wR_factor_gt 0.0375
_symmetry_cell_setting orthorhombic
_symmetry_space_group_name_H-M 'P n a 21'
_symmetry_Int_Tables_number 33
loop_
_symmetry_equiv_pos_site_id
_symmetry_equiv_pos_as_xyz
1 x,y,z
2 -x,-y,1/2+z
3 1/2+x,1/2-y,z
4 1/2-x,1/2+y,1/2+z
_cell_length_a 10.1620(8)
_cell_length_b 21.4665(17)
_cell_length_c 5.4350(4)
_cell_angle_alpha 90
_cell_angle_beta 90
_cell_angle_gamma 90
_cell_formula_units_Z 4
loop_
_atom_type_symbol
_atom_type_radius_bond
C 0.68
H 0.23
N 0.68
O 0.68
loop_
_atom_site_label
_atom_site_type_symbol
_atom_site_fract_x
_atom_site_fract_y
_atom_site_fract_z
C1 C 0.93715(19) 0.28100(7) 0.1436(4)
H1 H 1.02910 0.28880 0.10710
H2 H 0.89170 0.27250 -0.00970
C2 C 0.92473(17) 0.22664(7) 0.3128(4)
H3 H 0.83520 0.21180 0.34560
C3 C 1.03008(19) 0.17760(8) 0.2958(4)
H4 H 1.00380 0.13440 0.31510
H5 H 1.10160 0.18450 0.18090
C4 C 1.0222(2) 0.21890(8) 0.5162(4)
H6 H 1.08930 0.25070 0.53500
H7 H 0.99150 0.20070 0.66910
C5 C 0.89516(15) 0.38903(7) 0.1450(3)
C6 C 0.83562(15) 0.44289(7) 0.2806(3)
C7 C 0.85422(15) 0.50208(7) 0.1826(3)
H8 H 0.90520 0.50780 0.04230
C8 C 0.79524(15) 0.55244(7) 0.2983(3)
C9 C 0.71908(15) 0.54647(7) 0.5065(3)
H9 H 0.68080 0.58080 0.58240
C10 C 0.70241(15) 0.48659(7) 0.5970(3)
C11 C 0.75905(15) 0.43452(7) 0.4907(3)
H10 H 0.74640 0.39510 0.55750
N1 N 0.80808(14) 0.61478(6) 0.1858(3)
N2 N 0.61706(13) 0.47803(6) 0.8132(2)
O1 O 0.87913(12) 0.33552(5) 0.2636(2)
O2 O 0.94919(12) 0.39482(5) -0.0520(2)
O3 O 0.85677(13) 0.61790(5) -0.0199(2)
O4 O 0.76687(13) 0.65935(5) 0.3022(2)
O5 O 0.58968(12) 0.42486(5) 0.8757(3)
O6 O 0.57882(12) 0.52496(5) 0.9209(2)
#END
