
#######################################################################
#
#                 Cambridge Crystallographic Data Centre
#                                CCDC
#
#######################################################################
#
# If this CIF has been generated from an entry in the Cambridge
# Structural Database, then it will include bibliographic, chemical,
# crystal, experimental, refinement or atomic coordinate data resulting
# from the CCDC's data processing and validation procedures.
#
#######################################################################

data_CSD_CIF_DAPJAG
_audit_creation_date 2005-10-20
_audit_creation_method CSD-ConQuest-V1
_database_code_CSD DAPJAG
_database_code_depnum_ccdc_archive 'CCDC 265213'
_chemical_formula_sum 'C10 H11 N1 O3'
_chemical_formula_moiety
;
C10 H11 N1 O3
;
_journal_coden_Cambridge 177
_journal_volume 3
_journal_year 2005
_journal_page_first 1776
_journal_name_full 'Org.Biomol.Chem. '
loop_
_publ_author_name
"N.L.Fifer"
"J.M.White"
_chemical_name_systematic
;
cyclopropylmethyl p-nitrophenoxide
;
_chemical_melting_point 282.15
_cell_volume    932.538
_exptl_crystal_colour 'colorless'
_exptl_crystal_density_diffrn 1.376
_exptl_special_details
;
Melting point range 282.15-283.15K

;
_exptl_crystal_description 'plate'
_diffrn_ambient_temperature 130
#These two values have been output from a single CSD field.
_refine_ls_R_factor_gt 0.0496
_refine_ls_wR_factor_gt 0.0496
_symmetry_cell_setting monoclinic
_symmetry_space_group_name_H-M 'P 21/c'
_symmetry_Int_Tables_number 14
loop_
_symmetry_equiv_pos_site_id
_symmetry_equiv_pos_as_xyz
1 x,y,z
2 -x,1/2+y,1/2-z
3 -x,-y,-z
4 x,-1/2-y,-1/2+z
_cell_length_a 11.1796(17)
_cell_length_b 7.2234(11)
_cell_length_c 12.745(2)
_cell_angle_alpha 90
_cell_angle_beta 115.033(3)
_cell_angle_gamma 90
_cell_formula_units_Z 4
loop_
_atom_type_symbol
_atom_type_radius_bond
C 0.68
H 0.23
N 0.68
O 0.68
loop_
_atom_site_label
_atom_site_type_symbol
_atom_site_fract_x
_atom_site_fract_y
_atom_site_fract_z
C1 C 0.20084(14) 0.0880(2) 0.01934(14)
H1 H 0.18280 0.20950 0.04180
H2 H 0.17990 -0.00430 0.06430
C2 C 0.11880(15) 0.0575(2) -0.10647(15)
H3 H 0.11470 -0.06980 -0.13440
C3 C -0.00558(15) 0.1700(2) -0.16242(15)
H4 H -0.08260 0.11040 -0.22110
H5 H -0.02450 0.25950 -0.11480
C4 C 0.10880(15) 0.2075(3) -0.19058(15)
H6 H 0.15890 0.32000 -0.16010
H7 H 0.10100 0.17090 -0.26650
C5 C 0.43072(14) 0.0874(2) 0.15279(14)
C6 C 0.40207(15) 0.1017(2) 0.24835(15)
H8 H 0.31480 0.10520 0.23840
C7 C 0.50304(15) 0.1106(2) 0.35767(14)
H9 H 0.48440 0.12130 0.42190
C8 C 0.63220(14) 0.1035(2) 0.37157(14)
C9 C 0.66215(15) 0.0919(2) 0.27691(15)
H10 H 0.74970 0.08990 0.28740
C10 C 0.56201(15) 0.0831(2) 0.16772(14)
H11 H 0.58130 0.07440 0.10370
N1 N 0.73790(12) 0.10773(19) 0.48756(12)
O1 O 0.33846(10) 0.07437(17) 0.04117(9)
O2 O 0.70928(11) 0.11917(18) 0.57072(10)
O3 O 0.85313(10) 0.09686(18) 0.49938(11)
#END
