
#######################################################################
#
#                 Cambridge Crystallographic Data Centre
#                                CCDC
#
#######################################################################
#
# If this CIF has been generated from an entry in the Cambridge
# Structural Database, then it will include bibliographic, chemical,
# crystal, experimental, refinement or atomic coordinate data resulting
# from the CCDC's data processing and validation procedures.
#
#######################################################################

data_CSD_CIF_DAPPAO
_audit_creation_date 2017-05-17
_audit_creation_method CSD-ConQuest-V1
_database_code_CSD DAPPAO
_database_code_depnum_ccdc_archive 'CCDC 1451844'
_chemical_formula_sum 'C4 H5 N7 O7'
_chemical_formula_moiety
;
C4 H5 N7 O7
;
_journal_coden_Cambridge 29
_journal_volume 643
_journal_year 2017
_journal_page_first 619
_journal_name_full 'Z.Anorg.Allg.Chem. '
loop_
_publ_author_name
"T.M.Klapotke"
"C.Pfluger"
_chemical_name_systematic
;
N-methyl-N,N'-dinitro-N'-(4-nitro-1,2,5-oxadiazol-3-yl)methanediamine
;
_chemical_name_common
;
1-(4-nitrofurazan-3-yl)-1,3-dinitrazabutane
;
_cell_volume    984.256
_exptl_crystal_colour 'colorless'
_exptl_crystal_density_diffrn 1.776
_exptl_crystal_description 'block'
_diffrn_ambient_temperature 173
#These two values have been output from a single CSD field.
_refine_ls_R_factor_gt 0.0294
_refine_ls_wR_factor_gt 0.0294
_symmetry_cell_setting monoclinic
_symmetry_space_group_name_H-M 'P 21/c'
_symmetry_Int_Tables_number 14
loop_
_symmetry_equiv_pos_site_id
_symmetry_equiv_pos_as_xyz
1 x,y,z
2 -x,1/2+y,1/2-z
3 -x,-y,-z
4 x,-1/2-y,-1/2+z
_cell_length_a 9.3960(5)
_cell_length_b 18.9399(7)
_cell_length_c 5.6677(2)
_cell_angle_alpha 90
_cell_angle_beta 102.619(4)
_cell_angle_gamma 90
_cell_formula_units_Z 4
loop_
_atom_type_symbol
_atom_type_radius_bond
C 0.68
H 0.23
N 0.68
O 0.68
loop_
_atom_site_label
_atom_site_type_symbol
_atom_site_fract_x
_atom_site_fract_y
_atom_site_fract_z
O1 O 0.47465(11) 0.19861(6) 0.5292(2)
O2 O 0.70924(11) 0.05825(5) 0.14578(17)
O3 O 0.48167(12) 0.07247(6) -0.03411(18)
O4 O 0.67515(11) -0.00667(5) 0.58831(17)
O5 O 0.90767(12) -0.00417(5) 0.75121(18)
O6 O 0.86894(11) 0.19946(5) 0.38349(18)
O7 O 1.09642(12) 0.19615(6) 0.35715(19)
N1 N 0.45380(13) 0.16419(6) 0.3124(2)
N2 N 0.59954(14) 0.17562(6) 0.6882(2)
N3 N 0.58570(13) 0.08060(6) 0.13337(19)
N4 N 0.78742(11) 0.09613(5) 0.67021(18)
N5 N 0.79018(12) 0.02303(5) 0.67003(17)
N6 N 1.02703(12) 0.13903(6) 0.65384(19)
N7 N 0.99693(13) 0.18102(5) 0.4562(2)
C1 C 0.56454(13) 0.12254(6) 0.3364(2)
C2 C 0.65601(14) 0.12866(6) 0.5690(2)
C3 C 0.91527(15) 0.13515(7) 0.7928(2)
C4 C 1.17946(17) 0.12592(9) 0.7648(3)
H1 H 0.9563(18) 0.1113(9) 0.940(3)
H2 H 0.8803(18) 0.1821(10) 0.822(3)
H3 H 1.180(2) 0.0923(11) 0.885(4)
H4 H 1.228(2) 0.1663(11) 0.836(3)
H5 H 1.227(2) 0.1097(10) 0.650(4)
#END
