
#######################################################################
#
#                 Cambridge Crystallographic Data Centre
#                                CCDC
#
#######################################################################
#
# If this CIF has been generated from an entry in the Cambridge
# Structural Database, then it will include bibliographic, chemical,
# crystal, experimental, refinement or atomic coordinate data resulting
# from the CCDC's data processing and validation procedures.
#
#######################################################################

data_CSD_CIF_DAPTIA
_audit_creation_date 2017-05-17
_audit_creation_method CSD-ConQuest-V1
_database_code_CSD DAPTIA
_database_code_depnum_ccdc_archive 'CCDC 1475179'
_chemical_formula_sum 'C16 H17 N5 O4'
_chemical_formula_moiety
;
C16 H17 N5 O4
;
_journal_coden_Cambridge 1094
_journal_volume 28
_journal_year 2017
_journal_page_first 813
_journal_name_full 'Struct.Chem. '
loop_
_publ_author_name
"Olga Ovdiichuk"
"O.Hordiyenko"
"E.Fotou"
"C.Gaucher"
"A.Arrault"
"M.-C.Averlant-Petit"
_chemical_name_systematic
;
methyl N-((3-(N'-hydroxycarbamimidoyl)pyrazin-2-yl)carbonyl)phenylalaninate
;
_chemical_melting_point 427
_cell_volume    826.491
_exptl_crystal_colour 'light colorless'
_exptl_crystal_density_diffrn 1.38
_exptl_special_details
;
Melting point range 427-430K
Absolute configuration
Heat-sensitive

;
_exptl_crystal_description 'block'
_exptl_crystal_preparation 'Re-crystallisation from solvent'
_diffrn_ambient_temperature 109.8
#These two values have been output from a single CSD field.
_refine_ls_R_factor_gt 0.0391
_refine_ls_wR_factor_gt 0.0391
_symmetry_cell_setting monoclinic
_symmetry_space_group_name_H-M 'P 21'
_symmetry_Int_Tables_number 4
loop_
_symmetry_equiv_pos_site_id
_symmetry_equiv_pos_as_xyz
1 x,y,z
2 -x,1/2+y,-z
_cell_length_a 8.6226(2)
_cell_length_b 10.4629(2)
_cell_length_c 9.5228(2)
_cell_angle_alpha 90
_cell_angle_beta 105.842(2)
_cell_angle_gamma 90
_cell_formula_units_Z 2
loop_
_atom_type_symbol
_atom_type_radius_bond
C 0.68
H 0.23
N 0.68
O 0.68
loop_
_atom_site_label
_atom_site_type_symbol
_atom_site_fract_x
_atom_site_fract_y
_atom_site_fract_z
O1 O 0.75909(14) 0.33539(11) 0.85373(13)
O2 O 0.65444(18) 0.40097(14) 0.43192(15)
O3 O 0.32849(17) 0.50869(13) 0.99267(18)
H1 H 0.291(2) 0.4361(6) 0.985(3)
O4 O 0.51315(18) 0.21901(13) 0.37084(16)
N1 N 0.57415(17) 0.43851(14) 0.67328(15)
H2 H 0.53434(17) 0.51130(14) 0.63984(15)
N2 N 0.47568(18) 0.50885(14) 0.95056(18)
N3 N 0.76606(18) 0.75646(14) 0.98846(17)
N4 N 0.90870(18) 0.58375(15) 0.84040(17)
N5 N 0.4740(2) 0.71741(16) 1.0335(2)
H3 H 0.3864(2) 0.70546(16) 1.0584(2)
H4 H 0.5206(2) 0.79081(16) 1.0466(2)
C1 C 0.69377(18) 0.43383(16) 0.79680(17)
C2 C 0.5582(2) 0.30777(17) 0.4533(2)
C3 C 0.6926(2) 0.64554(15) 0.93863(17)
C4 C 0.76243(19) 0.56107(16) 0.86066(18)
C5 C 0.9093(2) 0.77996(17) 0.9661(2)
H5 H 0.9618(2) 0.85635(17) 0.9991(2)
C6 C 0.2288(2) 0.46322(19) 0.3575(2)
H6 H 0.2826(2) 0.41409(19) 0.3042(2)
C7 C 0.2323(2) 0.42661(18) 0.4995(2)
C8 C 0.5370(2) 0.62277(16) 0.97476(19)
C9 C 0.9813(2) 0.69229(18) 0.8946(2)
H7 H 1.0833(2) 0.70984(18) 0.8841(2)
C10 C 0.5105(2) 0.32277(16) 0.59486(19)
H8 H 0.5597(2) 0.25114(16) 0.65761(19)
C11 C 0.1462(2) 0.5720(2) 0.2951(2)
H9 H 0.1455(2) 0.5955(2) 0.2007(2)
C12 C 0.0647(3) 0.6455(2) 0.3725(3)
H10 H 0.0104(3) 0.7190(2) 0.3309(3)
C13 C 0.1485(2) 0.5010(2) 0.5755(2)
H11 H 0.1490(2) 0.4779(2) 0.6699(2)
C14 C 0.3265(2) 0.31058(18) 0.5704(2)
H12 H 0.3048(2) 0.29588(18) 0.6638(2)
H13 H 0.2884(2) 0.23649(18) 0.5095(2)
C15 C 0.0643(3) 0.6091(3) 0.5127(3)
H14 H 0.0077(3) 0.6571(3) 0.5644(3)
C16 C 0.7070(4) 0.3919(3) 0.3006(3)
H15 H 0.6223(12) 0.421(2) 0.2187(5)
H16 H 0.8007(18) 0.4443(18) 0.3104(11)
H17 H 0.733(3) 0.3046(5) 0.2855(14)
#END
