
#######################################################################
#
#                 Cambridge Crystallographic Data Centre
#                                CCDC
#
#######################################################################
#
# If this CIF has been generated from an entry in the Cambridge
# Structural Database, then it will include bibliographic, chemical,
# crystal, experimental, refinement or atomic coordinate data resulting
# from the CCDC's data processing and validation procedures.
#
#######################################################################

data_CSD_CIF_DARGAF
_audit_creation_date 2005-10-20
_audit_creation_method CSD-ConQuest-V1
_database_code_CSD DARGAF
_database_code_depnum_ccdc_archive 'CCDC 285694'
_chemical_formula_sum 'C12 H7 N3 O7'
_chemical_formula_moiety
;
C12 H7 N3 O7
;
_journal_coden_Cambridge 1137
_journal_volume 17
_journal_year 2004
_journal_page_first 65
_journal_name_full 'J.Phys.Org.Chem. '
loop_
_publ_author_name
"M.R.Crampton"
"T.A.Emokpae"
"J.A.K.Howard"
"C.Isanbor"
"R.Mondal"
_chemical_name_systematic
;
phenyl 2,4,6-trinitrophenyl ether
;
_chemical_melting_point 424
_cell_volume   1270.799
_exptl_crystal_colour 'colorless'
_exptl_crystal_density_diffrn 1.595
_exptl_crystal_description 'brick'
_diffrn_ambient_temperature 120
#These two values have been output from a single CSD field.
_refine_ls_R_factor_gt 0.0343
_refine_ls_wR_factor_gt 0.0343
_symmetry_cell_setting orthorhombic
_symmetry_space_group_name_H-M 'P 21 21 21'
_symmetry_Int_Tables_number 19
loop_
_symmetry_equiv_pos_site_id
_symmetry_equiv_pos_as_xyz
1 x,y,z
2 1/2-x,-y,1/2+z
3 1/2+x,1/2-y,-z
4 -x,1/2+y,1/2-z
_cell_length_a 7.6597(15)
_cell_length_b 9.6982(19)
_cell_length_c 17.107(3)
_cell_angle_alpha 90
_cell_angle_beta 90
_cell_angle_gamma 90
_cell_formula_units_Z 4
loop_
_atom_type_symbol
_atom_type_radius_bond
C 0.68
H 0.23
N 0.68
O 0.68
loop_
_atom_site_label
_atom_site_type_symbol
_atom_site_fract_x
_atom_site_fract_y
_atom_site_fract_z
O1 O 0.8012(2) 0.72987(14) 0.13473(9)
O2 O 0.6477(2) 0.77319(16) 0.28371(9)
O3 O 0.3909(2) 0.85708(16) 0.2565(1)
O4 O 0.1740(2) 0.34017(15) 0.05578(9)
O5 O 0.0413(2) 0.48378(17) 0.13367(10)
O6 O 0.7962(2) 0.44623(17) -0.01692(10)
O7 O 0.8180(3) 0.66987(18) -0.02193(11)
N1 N 0.5144(3) 0.78004(17) 0.24399(11)
N2 N 0.1711(3) 0.44198(18) 0.09791(10)
N3 N 0.7568(2) 0.5629(2) 0.0045(1)
C1 C 0.6437(3) 0.6697(2) 0.12566(12)
C2 C 0.5007(3) 0.6860(2) 0.17651(12)
C3 C 0.3453(3) 0.6161(2) 0.16681(12)
H1 H 0.24880 0.63260 0.20040
C4 C 0.3343(3) 0.5211(2) 0.10642(11)
C5 C 0.4697(3) 0.4972(2) 0.05499(12)
H2 H 0.46070 0.42990 0.01490
C6 C 0.6191(3) 0.5757(2) 0.06432(12)
C7 C 0.8146(3) 0.8745(2) 0.13844(12)
C8 C 0.9728(3) 0.9234(2) 0.16653(13)
H3 H 1.06140 0.86170 0.18350
C9 C 0.9983(3) 1.0657(3) 0.16919(14)
H4 H 1.10600 1.10170 0.18770
C10 C 0.8677(3) 1.1553(3) 0.14504(14)
H5 H 0.88600 1.25210 0.14720
C11 C 0.7102(4) 1.1034(2) 0.11788(13)
H6 H 0.62060 1.16500 0.10210
C12 C 0.6825(3) 0.9615(2) 0.11350(12)
H7 H 0.57580 0.92540 0.09390
#END
