
#######################################################################
#
#                 Cambridge Crystallographic Data Centre
#                                CCDC
#
#######################################################################
#
# If this CIF has been generated from an entry in the Cambridge
# Structural Database, then it will include bibliographic, chemical,
# crystal, experimental, refinement or atomic coordinate data resulting
# from the CCDC's data processing and validation procedures.
#
#######################################################################

data_CSD_CIF_DARGIN
_audit_creation_date 2005-10-20
_audit_creation_method CSD-ConQuest-V1
_database_code_CSD DARGIN
_database_code_depnum_ccdc_archive 'CCDC 285696'
_chemical_formula_sum 'C12 H5 N5 O11'
_chemical_formula_moiety
;
C12 H5 N5 O11
;
_journal_coden_Cambridge 1137
_journal_volume 17
_journal_year 2004
_journal_page_first 65
_journal_name_full 'J.Phys.Org.Chem. '
loop_
_publ_author_name
"M.R.Crampton"
"T.A.Emokpae"
"J.A.K.Howard"
"C.Isanbor"
"R.Mondal"
_chemical_name_systematic
;
2,6-Dinitrophenyl 2,4,6-trinitrophenylether
;
_cell_volume   1451.939
_exptl_crystal_colour 'yellow'
_exptl_crystal_density_diffrn 1.808
_exptl_crystal_description 'cube'
_diffrn_ambient_temperature 125
#These two values have been output from a single CSD field.
_refine_ls_R_factor_gt 0.0309
_refine_ls_wR_factor_gt 0.0309
_symmetry_cell_setting monoclinic
_symmetry_space_group_name_H-M 'P 21/n'
_symmetry_Int_Tables_number 14
loop_
_symmetry_equiv_pos_site_id
_symmetry_equiv_pos_as_xyz
1 x,y,z
2 1/2-x,1/2+y,1/2-z
3 -x,-y,-z
4 -1/2+x,-1/2-y,-1/2+z
_cell_length_a 8.384(1)
_cell_length_b 7.701(1)
_cell_length_c 22.560(3)
_cell_angle_alpha 90
_cell_angle_beta 94.58(1)
_cell_angle_gamma 90
_cell_formula_units_Z 4
loop_
_atom_type_symbol
_atom_type_radius_bond
C 0.68
H 0.23
N 0.68
O 0.68
loop_
_atom_site_label
_atom_site_type_symbol
_atom_site_fract_x
_atom_site_fract_y
_atom_site_fract_z
O1 O 0.21768(9) 0.08001(10) 0.08707(3)
O2 O -0.14236(12) 0.06427(13) 0.31777(4)
O3 O -0.21266(12) 0.32142(14) 0.28670(4)
O4 O 0.18747(11) 0.46596(12) 0.08335(4)
O5 O -0.06932(11) 0.49226(12) 0.08950(4)
O6 O 0.35064(11) -0.17083(13) 0.15415(4)
O7 O 0.15291(13) -0.29967(12) 0.19247(4)
O8 O 0.67930(11) 0.14147(16) 0.14329(5)
O9 O 0.44640(11) 0.20634(13) 0.17204(4)
O10 O -0.00275(10) 0.19705(12) 0.00447(4)
O11 O 0.07938(12) 0.12423(13) -0.08088(4)
N1 N -0.13766(12) 0.18654(14) 0.28308(5)
N2 N 0.06011(12) 0.42336(13) 0.10252(4)
N3 N 0.21887(12) -0.17070(13) 0.17421(4)
N4 N 0.53897(13) 0.18111(14) 0.13347(5)
N5 N 0.10294(12) 0.16968(13) -0.02898(4)
C1 C 0.14817(13) 0.12733(15) 0.13696(5)
C2 C 0.06331(13) 0.28030(15) 0.14545(5)
C3 C -0.02791(14) 0.30318(16) 0.19345(5)
C4 C -0.03484(13) 0.16862(16) 0.23363(5)
C5 C 0.04445(14) 0.01353(15) 0.22737(5)
C6 C 0.13596(13) -0.00344(15) 0.17952(5)
C7 C 0.31827(13) 0.17074(14) 0.05326(5)
C8 C 0.47838(14) 0.20365(15) 0.07134(5)
C9 C 0.58558(15) 0.26025(17) 0.03171(6)
C10 C 0.53380(16) 0.28533(17) -0.02753(6)
C11 C 0.37563(16) 0.25344(16) -0.04696(6)
C12 C 0.27053(14) 0.19797(15) -0.00658(5)
H1 H -0.0855(18) 0.405(2) 0.1964(7)
H2 H 0.0345(16) -0.077(2) 0.2537(6)
H3 H 0.690(2) 0.281(2) 0.0454(7)
H4 H 0.606(2) 0.325(2) -0.0553(8)
H5 H 0.3356(17) 0.273(2) -0.0867(7)
#END
