
#######################################################################
#
#                 Cambridge Crystallographic Data Centre
#                                CCDC
#
#######################################################################
#
# If this CIF has been generated from an entry in the Cambridge
# Structural Database, then it will include bibliographic, chemical,
# crystal, experimental, refinement or atomic coordinate data resulting
# from the CCDC's data processing and validation procedures.
#
#######################################################################

data_CSD_CIF_DARWEB
_audit_creation_date 2017-05-18
_audit_creation_method CSD-ConQuest-V1
_database_code_CSD DARWEB
_database_code_depnum_ccdc_archive 'CCDC 1433102'
_chemical_formula_sum 'C12 H8 N2 O3'
_chemical_formula_moiety
;
C12 H8 N2 O3
;
_journal_coden_Cambridge 1366
_journal_volume 359
_journal_year 2017
_journal_page_first 1588
_journal_name_full 'Adv.Synth.Catal. '
loop_
_publ_author_name
"Weiwei Jin"
"Poonnapa Zheng"
"Wing-Tak Wong"
"G.-L.Law"
_chemical_name_systematic
;
(4-nitrophenyl)(pyridin-4-yl)methanone
;
_cell_volume    522.212
_exptl_crystal_colour 'colorless'
_exptl_crystal_density_diffrn 1.451
_exptl_crystal_description 'Prism'
_diffrn_ambient_temperature 298
#These two values have been output from a single CSD field.
_refine_ls_R_factor_gt 0.0381
_refine_ls_wR_factor_gt 0.0381
_symmetry_cell_setting triclinic
_symmetry_space_group_name_H-M 'P -1'
_symmetry_Int_Tables_number 2
loop_
_symmetry_equiv_pos_site_id
_symmetry_equiv_pos_as_xyz
1 x,y,z
2 -x,-y,-z
_cell_length_a 7.1510(18)
_cell_length_b 7.5081(19)
_cell_length_c 10.8910(25)
_cell_angle_alpha 80.5975(58)
_cell_angle_beta 84.8372(59)
_cell_angle_gamma 64.8862(61)
_cell_formula_units_Z 2
loop_
_atom_type_symbol
_atom_type_radius_bond
C 0.68
H 0.23
N 0.68
O 0.68
loop_
_atom_site_label
_atom_site_type_symbol
_atom_site_fract_x
_atom_site_fract_y
_atom_site_fract_z
C1 C 0.04306(17) 0.22400(16) 0.53296(10)
H1 H -0.077(2) 0.201(2) 0.5226(13)
C2 C 0.18014(17) 0.21447(17) 0.43417(10)
H2 H 0.155(2) 0.185(2) 0.3559(13)
C3 C 0.35049(16) 0.24792(14) 0.45193(9)
N1 N 0.49918(15) 0.23768(15) 0.34809(9)
O1 O 0.46356(16) 0.20349(17) 0.24917(8)
O2 O 0.65049(15) 0.26405(19) 0.36485(9)
C4 C 0.38829(17) 0.29131(17) 0.56247(10)
H3 H 0.502(2) 0.315(2) 0.5710(13)
C5 C 0.24969(17) 0.29916(17) 0.66052(9)
H4 H 0.273(2) 0.3318(19) 0.7388(13)
C6 C 0.07694(15) 0.26529(14) 0.64692(9)
C7 C -0.08290(16) 0.28374(16) 0.74797(10)
O3 O -0.25801(13) 0.31923(16) 0.72282(8)
C8 C -0.03067(16) 0.26204(16) 0.88103(9)
C9 C -0.1837(2) 0.37257(19) 0.96035(11)
H5 H -0.315(2) 0.468(2) 0.9317(14)
C10 C -0.1415(2) 0.3444(2) 1.08447(12)
H6 H -0.253(3) 0.419(2) 1.1393(16)
N2 N 0.0377(2) 0.2173(2) 1.13394(9)
C11 C 0.1824(2) 0.1126(2) 1.05703(11)
H7 H 0.308(3) 0.017(2) 1.0935(16)
C12 C 0.15689(18) 0.12849(18) 0.93052(10)
H8 H 0.269(2) 0.040(2) 0.8811(13)
#END
