
#######################################################################
#
#                 Cambridge Crystallographic Data Centre
#                                CCDC
#
#######################################################################
#
# If this CIF has been generated from an entry in the Cambridge
# Structural Database, then it will include bibliographic, chemical,
# crystal, experimental, refinement or atomic coordinate data resulting
# from the CCDC's data processing and validation procedures.
#
#######################################################################

data_CSD_CIF_DARYUQ
_audit_creation_date 1986-05-19
_audit_creation_method CSD-ConQuest-V1
_database_code_CSD DARYUQ
_database_code_depnum_ccdc_archive 'CCDC 1136458'
_chemical_formula_sum 'C19 H18 N2 O3'
_chemical_formula_moiety
;
C19 H18 N2 O3
;
_journal_coden_Cambridge 95
_journal_year 1985
_journal_page_first 191
_journal_name_full 'Izv.Akad.Nauk SSSR,Ser.Khim.(Russ.)(Russ.Chem.Bull.) '
loop_
_publ_author_name
"S.M.Aldoshin"
"L.O.Atovmyan"
_chemical_name_systematic
;
1',3',3'-Trimethyl-5'-nitrospiro(indolin-2,2'-(2H)-benzopyran)
;
_cell_volume   1625.819
_exptl_crystal_colour 'yellow'
_exptl_crystal_density_diffrn 1.324
_exptl_special_details
;
In published Bond Table O5' should probably be C5'

;
_diffrn_ambient_temperature ?
_diffrn_special_details
;
The study was carried out at room temperature,in the range 283-303K

;
#These two values have been output from a single CSD field.
_refine_ls_R_factor_gt 0.05
_refine_ls_wR_factor_gt 0.05
_symmetry_cell_setting monoclinic
_symmetry_space_group_name_H-M 'P 1 1 21/b'
_symmetry_Int_Tables_number 14
loop_
_symmetry_equiv_pos_site_id
_symmetry_equiv_pos_as_xyz
1 x,y,z
2 -x,1/2-y,1/2+z
3 -x,-y,-z
4 x,-1/2+y,-1/2-z
_cell_length_a 12.462(10)
_cell_length_b 11.969(6)
_cell_length_c 11.590(8)
_cell_angle_alpha 90
_cell_angle_beta 90
_cell_angle_gamma 109.87(3)
_cell_formula_units_Z 4
loop_
_atom_type_symbol
_atom_type_radius_bond
C 0.68
H 0.23
N 0.68
O 0.68
loop_
_atom_site_label
_atom_site_type_symbol
_atom_site_fract_x
_atom_site_fract_y
_atom_site_fract_z
O1 O 0.0643(1) 0.3321(1) 0.1703(1)
O2 O 0.4984(2) 0.8297(2) 0.0813(2)
O3 O 0.5447(2) 0.8560(2) 0.2616(2)
N1 N 0.2302(1) 0.3226(1) 0.2552(1)
N2 N 0.4956(2) 0.7929(2) 0.1805(2)
C1 C 0.1619(2) 0.2943(2) 0.1506(2)
C2 C 0.2379(2) 0.3817(2) 0.0592(2)
C3 C 0.3214(2) 0.3290(2) 0.0007(2)
C4 C 0.1692(2) 0.4178(2) -0.0338(2)
C5 C 0.3063(1) 0.4821(2) 0.1372(2)
C6 C 0.3712(2) 0.5977(2) 0.1116(2)
C7 C 0.4295(2) 0.6682(2) 0.2026(2)
C8 C 0.4270(2) 0.6270(2) 0.3139(2)
C9 C 0.3607(2) 0.5111(2) 0.3397(2)
C10 C 0.3006(1) 0.4398(2) 0.2504(2)
C11 C 0.1267(2) 0.1638(2) 0.1250(2)
C12 C 0.0193(2) 0.0924(2) 0.1240(2)
C13 C -0.0738(2) 0.1370(2) 0.1433(2)
C14 C -0.1886(2) 0.0662(2) 0.1407(2)
C15 C -0.2728(2) 0.1158(2) 0.1583(2)
C16 C -0.2425(2) 0.2365(2) 0.1784(2)
C17 C -0.1295(2) 0.3083(2) 0.1820(2)
C18 C -0.0458(2) 0.2574(2) 0.1652(1)
C19 C 0.1822(2) 0.2667(2) 0.3641(2)
H1 H 0.3784(18) 0.630(2) 0.0311(20)
H2 H 0.4686(19) 0.6766(20) 0.3753(20)
H3 H 0.3583(19) 0.4808(20) 0.4202(21)
H4 H 0.1916(19) 0.1381(20) 0.1147(21)
H5 H -0.0017(19) 0.0078(21) 0.109(2)
H6 H -0.2125(18) 0.0171(20) 0.1252(20)
H7 H -0.3583(18) 0.0616(19) 0.1602(20)
H8 H -0.3061(19) 0.2728(20) 0.1906(20)
H9 H -0.1044(8) 0.3909(20) 0.2018(20)
H10 H 0.2745(19) 0.2621(20) -0.0540(21)
H11 H 0.3630(18) 0.3016(20) 0.0569(21)
H12 H 0.3737(18) 0.3892(20) -0.0514(21)
H13 H 0.2197(19) 0.4663(20) -0.0959(21)
H14 H 0.1167(19) 0.3475(21) -0.0821(20)
H15 H 0.1213(18) 0.456(2) -0.0007(20)
H16 H 0.2460(19) 0.2787(21) 0.4203(21)
H17 H 0.1423(18) 0.1805(20) 0.3463(20)
H18 H 0.1246(18) 0.3033(20) 0.3896(20)
#END
