
#######################################################################
#
#                 Cambridge Crystallographic Data Centre
#                                CCDC
#
#######################################################################
#
# If this CIF has been generated from an entry in the Cambridge
# Structural Database, then it will include bibliographic, chemical,
# crystal, experimental, refinement or atomic coordinate data resulting
# from the CCDC's data processing and validation procedures.
#
#######################################################################

data_CSD_CIF_DASRUL
_audit_creation_date 2005-10-20
_audit_creation_method CSD-ConQuest-V1
_database_code_CSD DASRUL
_database_code_depnum_ccdc_archive 'CCDC 253809'
_chemical_formula_sum 'C24 H30 N4 O6'
_chemical_formula_moiety
;
C24 H30 N4 O6
;
_journal_coden_Cambridge 9
_journal_volume 44
_journal_year 2005
_journal_page_first 1433
_journal_name_full 'Inorg.Chem. '
loop_
_publ_author_name
"D.J.Darensbourg"
"D.R.Billodeaux"
_chemical_name_systematic
;
N,N'-bis(3-t-Butyl-5-nitrosalicylidene)-1,2-ethylenediamine
;
_cell_volume   5323.329
_exptl_crystal_colour 'orange'
_exptl_crystal_preparation 'dichloromethane'
_diffrn_ambient_temperature 110
#These two values have been output from a single CSD field.
_refine_ls_R_factor_gt 0.1012
_refine_ls_wR_factor_gt 0.1012
_symmetry_cell_setting rhombohedral
_symmetry_space_group_name_H-M 'R -3'
_symmetry_Int_Tables_number 148
loop_
_symmetry_equiv_pos_site_id
_symmetry_equiv_pos_as_xyz
1 x,y,z
2 -y,x-y,z
3 -x+y,-x,z
4 2/3+x,1/3+y,1/3+z
5 2/3-y,1/3+x-y,1/3+z
6 2/3-x+y,1/3-x,1/3+z
7 1/3+x,2/3+y,2/3+z
8 1/3-y,2/3+x-y,2/3+z
9 1/3-x+y,2/3-x,2/3+z
10 -x,-y,-z
11 y,-x+y,-z
12 x-y,x,-z
13 -2/3-x,-1/3-y,-1/3-z
14 -2/3+y,-1/3-x+y,-1/3-z
15 -2/3+x-y,-1/3+x,-1/3-z
16 -1/3-x,-2/3-y,-2/3-z
17 -1/3+y,-2/3-x+y,-2/3-z
18 -1/3+x-y,-2/3+x,-2/3-z
_cell_length_a 24.557(4)
_cell_length_b 24.557(4)
_cell_length_c 10.193(2)
_cell_angle_alpha 90
_cell_angle_beta 90
_cell_angle_gamma 120
_cell_formula_units_Z 8
loop_
_atom_type_symbol
_atom_type_radius_bond
C 0.68
H 0.23
N 0.68
O 0.68
loop_
_atom_site_label
_atom_site_type_symbol
_atom_site_fract_x
_atom_site_fract_y
_atom_site_fract_z
O1 O 0.83877(14) 0.77305(14) -0.0055(3)
H1 H 0.82990 0.74980 -0.07180
O2 O 1.00574(17) 0.69114(18) 0.2984(3)
O3 O 1.00914(17) 0.76141(19) 0.4297(4)
N1 N 0.83374(18) 0.68776(17) -0.1568(3)
N2 N 0.9915(2) 0.7303(2) 0.3285(4)
C1 C 0.8755(2) 0.7624(2) 0.0753(4)
C2 C 0.89152(19) 0.7166(2) 0.0440(4)
C3 C 0.92958(19) 0.7056(2) 0.1281(4)
H2 H 0.94090 0.67480 0.10800
C4 C 0.9502(2) 0.7405(2) 0.2405(4)
C5 C 0.9349(2) 0.7858(2) 0.2736(4)
H3 H 0.95120 0.80890 0.35260
C6 C 0.8965(2) 0.7985(2) 0.1949(4)
C7 C 0.8679(2) 0.6792(2) -0.0756(4)
H4 H 0.87850 0.64760 -0.09310
C8 C 0.8129(2) 0.6486(2) -0.2756(4)
H5 H 0.76860 0.63590 -0.29460
H6 H 0.81540 0.61000 -0.26120
C9 C 0.8785(2) 0.8474(2) 0.2309(4)
C10 C 0.8065(2) 0.8142(2) 0.2451(4)
H7 H 0.78670 0.79120 0.16430
H8 H 0.79380 0.84560 0.26100
H9 H 0.79320 0.78480 0.31890
C11 C 0.9003(2) 0.8988(2) 0.1264(4)
H10 H 0.94630 0.92130 0.12080
H11 H 0.88620 0.92850 0.15020
H12 H 0.88230 0.87980 0.04120
C12 C 0.9076(2) 0.8788(2) 0.3610(4)
H13 H 0.89300 0.84700 0.43050
H14 H 0.89490 0.90990 0.38180
H15 H 0.95350 0.89980 0.35460
O1O O 0.827897(140) 0.560283(140) -0.661167(300)
H1O H 0.83677 0.58353 -0.59487
O2O O 0.660927(170) 0.642193(180) -0.965067(300)
O3O O 0.657527(170) 0.571923(190) -1.096367(400)
N1O N 0.832927(180) 0.645573(170) -0.509867(300)
N2O N 0.675167(200) 0.603033(200) -0.995167(400)
C1O C 0.791167(200) 0.570933(200) -0.741967(400)
C2O C 0.775147(190) 0.616733(200) -0.710667(400)
C3O C 0.737087(190) 0.627733(200) -0.794767(400)
H2O H 0.72577 0.65853 -0.77467
C4O C 0.716467(200) 0.592833(200) -0.907167(400)
C5O C 0.731767(200) 0.547533(200) -0.940267(400)
H3O H 0.71547 0.52443 -1.01927
C6O C 0.770167(200) 0.534833(200) -0.861567(400)
C7O C 0.798767(200) 0.654133(200) -0.591067(400)
H4O H 0.78817 0.68573 -0.57357
C8O C 0.853767(200) 0.684733(200) -0.391067(400)
H5O H 0.89807 0.69743 -0.37207
H6O H 0.85127 0.72333 -0.40547
C9O C 0.788167(200) 0.485933(200) -0.897567(400)
C10O C 0.860167(200) 0.519133(200) -0.911767(400)
H7O H 0.87997 0.54213 -0.83097
H8O H 0.87287 0.48773 -0.92767
H9O H 0.87347 0.54853 -0.98557
C11O C 0.766367(200) 0.434533(200) -0.793067(400)
H10O H 0.72037 0.41203 -0.78747
H11O H 0.78047 0.40483 -0.81687
H12O H 0.78437 0.45353 -0.70787
C12O C 0.759067(200) 0.454533(200) -1.027667(400)
H13O H 0.77367 0.48633 -1.09717
H14O H 0.77177 0.42343 -1.04847
H15O H 0.71317 0.43353 -1.02127
#END
