
#######################################################################
#
#                 Cambridge Crystallographic Data Centre
#                                CCDC
#
#######################################################################
#
# If this CIF has been generated from an entry in the Cambridge
# Structural Database, then it will include bibliographic, chemical,
# crystal, experimental, refinement or atomic coordinate data resulting
# from the CCDC's data processing and validation procedures.
#
#######################################################################

data_CSD_CIF_DATLEP
_audit_creation_date 1986-05-18
_audit_creation_method CSD-ConQuest-V1
_database_code_CSD DATLEP
_database_code_depnum_ccdc_archive 'CCDC 1136612'
_chemical_formula_sum 'C20 H18 N2 O6'
_chemical_formula_moiety
;
C20 H18 N2 O6
;
_journal_coden_Cambridge 15
_journal_volume 63
_journal_year 1985
_journal_page_first 862
_journal_name_full 'Can.J.Chem. '
loop_
_publ_author_name
"J.C.Gallucci"
"K.Ohkata"
"L.A.Paquette"
_chemical_name_systematic
;
syn-(4.4.3)Propella-2,4,12-trien-11-ol-3,5-dinitrobenzoate
;
_cell_volume    910.714
_exptl_crystal_colour 'pale yellow'
_exptl_crystal_density_diffrn 1.39
_diffrn_ambient_temperature ?
_diffrn_special_details
;
The study was carried out at room temperature,in the range 283-303K

;
#These two values have been output from a single CSD field.
_refine_ls_R_factor_gt 0.044
_refine_ls_wR_factor_gt 0.044
_symmetry_cell_setting triclinic
_symmetry_space_group_name_H-M 'P -1'
_symmetry_Int_Tables_number 2
loop_
_symmetry_equiv_pos_site_id
_symmetry_equiv_pos_as_xyz
1 x,y,z
2 -x,-y,-z
_cell_length_a 10.208(2)
_cell_length_b 13.355(2)
_cell_length_c 7.068(1)
_cell_angle_alpha 99.35(1)
_cell_angle_beta 100.63(1)
_cell_angle_gamma 100.79(1)
_cell_formula_units_Z 2
loop_
_atom_type_symbol
_atom_type_radius_bond
C 0.68
H 0.23
N 0.68
O 0.68
loop_
_atom_site_label
_atom_site_type_symbol
_atom_site_fract_x
_atom_site_fract_y
_atom_site_fract_z
C1 C 0.7681(3) 0.2942(2) 0.3347(3)
C2 C 0.6740(3) 0.1948(2) 0.3421(4)
C3 C 0.5836(3) 0.1376(2) 0.1840(4)
C4 C 0.5644(3) 0.1716(2) 0.0001(4)
C5 C 0.6231(3) 0.2665(2) -0.0112(4)
C6 C 0.7103(3) 0.3466(2) 0.1656(4)
C7 C 0.6193(3) 0.4223(2) 0.2209(4)
C8 C 0.6777(3) 0.4954(2) 0.4210(4)
C9 C 0.7005(3) 0.4306(2) 0.5744(4)
C10 C 0.8084(3) 0.3705(2) 0.5364(4)
C11 C 0.8393(3) 0.3985(2) 0.1154(4)
C12 C 0.9447(3) 0.3605(2) 0.1789(5)
C13 C 0.9066(3) 0.2769(2) 0.2871(4)
C14 C 0.9024(3) 0.0946(2) 0.2338(4)
C15 C 0.8500(3) -0.0060(2) 0.0862(4)
C16 C 0.7911(3) -0.0098(2) -0.1093(4)
C17 C 0.7430(3) -0.1057(2) -0.2340(4)
C18 C 0.7484(3) -0.1967(2) -0.1736(4)
C19 C 0.8061(3) -0.1906(2) 0.0212(4)
C20 C 0.8587(3) -0.0973(2) 0.1522(4)
O1 O 0.8875(2) 0.1763(1) 0.1520(3)
O2 O 0.9508(3) 0.0993(1) 0.4025(3)
N1 N 0.6798(3) -0.1113(3) -0.4427(4)
N2 N 0.8107(3) -0.2882(2) 0.0916(4)
O3 O 0.6626(3) -0.0322(2) -0.4925(3)
O4 O 0.6488(3) -0.1961(2) -0.5529(3)
O5 O 0.7471(2) -0.3690(2) -0.0159(3)
O6 O 0.8792(3) -0.2832(2) 0.2518(3)
H1 H 0.68000 0.17100 0.47000
H2 H 0.52800 0.06900 0.19300
H3 H 0.50600 0.12300 -0.12100
H4 H 0.60900 0.28700 -0.14300
H5 H 0.52800 0.38000 0.22300
H6 H 0.60800 0.46500 0.11800
H7 H 0.61200 0.53900 0.45200
H8 H 0.76600 0.54200 0.41900
H9 H 0.73200 0.47700 0.70800
H10 H 0.61300 0.38100 0.56900
H11 H 0.89500 0.42100 0.54200
H12 H 0.82400 0.33000 0.64200
H13 H 0.84400 0.45600 0.04100
H14 H 1.03900 0.38500 0.15700
H15 H 0.97500 0.27800 0.40800
H16 H 0.78400 0.05600 -0.15800
H17 H 0.71200 -0.26600 -0.26700
H18 H 0.90200 -0.09500 0.29200
#END
