
#######################################################################
#
#                 Cambridge Crystallographic Data Centre
#                                CCDC
#
#######################################################################
#
# If this CIF has been generated from an entry in the Cambridge
# Structural Database, then it will include bibliographic, chemical,
# crystal, experimental, refinement or atomic coordinate data resulting
# from the CCDC's data processing and validation procedures.
#
#######################################################################

data_CSD_CIF_DATLAO
_audit_creation_date 2017-05-18
_audit_creation_method CSD-ConQuest-V1
_database_code_CSD DATLAO
_database_code_depnum_ccdc_archive 'CCDC 1536844'
_chemical_formula_sum 'C11 H19 N1 O3'
_chemical_formula_moiety
;
C11 H19 N1 O3
;
_journal_coden_Cambridge 1336
_journal_volume 19
_journal_year 2017
_journal_page_first 2390
_journal_name_full 'Org.Lett. '
loop_
_publ_author_name
"H.Sekita"
"K.Adachi"
"I.Kobayashi"
"Y.Sato"
"M.Nakada"
_chemical_name_systematic
;
(1R,2R)-1,3,3-trimethyl-2-nitromethylcyclohexane-1-carbaldehyde
;
_chemical_melting_point 385.9
_cell_volume   1127.358
_exptl_crystal_colour 'colorless'
_exptl_crystal_density_diffrn 1.256
_exptl_special_details
;
Melting point range 385.9-386.4K

;
_exptl_crystal_description 'block'
_exptl_crystal_preparation 'diethyl ether/hexane'
_diffrn_ambient_temperature 173
#These two values have been output from a single CSD field.
_refine_ls_R_factor_gt 0.0477
_refine_ls_wR_factor_gt 0.0477
_symmetry_cell_setting orthorhombic
_symmetry_space_group_name_H-M 'P 21 21 21'
_symmetry_Int_Tables_number 19
loop_
_symmetry_equiv_pos_site_id
_symmetry_equiv_pos_as_xyz
1 x,y,z
2 1/2+x,1/2-y,-z
3 -x,1/2+y,1/2-z
4 1/2-x,-y,1/2+z
_cell_length_a 7.7840(2)
_cell_length_b 9.7886(3)
_cell_length_c 14.7958(5)
_cell_angle_alpha 90
_cell_angle_beta 90
_cell_angle_gamma 90
_cell_formula_units_Z 4
loop_
_atom_type_symbol
_atom_type_radius_bond
C 0.68
H 0.23
N 0.68
O 0.68
loop_
_atom_site_label
_atom_site_type_symbol
_atom_site_fract_x
_atom_site_fract_y
_atom_site_fract_z
O1 O 0.2768(3) 0.8180(2) 0.30605(13)
O2 O 0.6783(3) 0.8752(2) 0.23615(16)
O3 O 0.6882(4) 1.0400(3) 0.33252(15)
N1 N 0.6228(3) 0.9816(3) 0.26823(15)
C1 C 0.0919(4) 0.8673(3) 0.10478(19)
C2 C 0.3755(3) 0.9697(2) 0.15455(16)
C3 C 0.1634(4) 0.8711(3) 0.26380(19)
C4 C 0.3706(5) 1.1720(3) 0.04087(19)
C5 C 0.4688(3) 1.0510(3) 0.22805(18)
C6 C 0.4148(4) 1.0207(3) 0.05708(18)
C7 C 0.0828(4) 1.0873(3) 0.1938(2)
C8 C 0.1822(3) 0.9538(2) 0.17800(17)
C9 C 0.6080(4) 1.0030(4) 0.0390(2)
C10 C 0.3158(5) 0.9300(3) -0.00903(18)
C11 C 0.1230(4) 0.9228(3) 0.0103(2)
H1 H 0.13460 0.77215 0.10809
H2 H -0.03318 0.86576 0.11691
H3 H 0.42436 0.87531 0.15779
H4 H 0.05009 0.85993 0.28655
H5 H 0.43480 1.22901 0.08360
H6 H 0.40183 1.19730 -0.02108
H7 H 0.24713 1.18609 0.04976
H8 H 0.50589 1.13945 0.20206
H9 H 0.38629 1.07113 0.27720
H10 H 0.09101 1.14494 0.13981
H11 H -0.03810 1.06625 0.20596
H12 H 0.13208 1.13569 0.24562
H13 H 0.67342 1.06051 0.08084
H14 H 0.63999 0.90709 0.04786
H15 H 0.63370 1.03004 -0.02335
H16 H 0.36400 0.83649 -0.00660
H17 H 0.33312 0.96521 -0.07109
H18 H 0.07206 1.01519 0.00496
H19 H 0.06667 0.86283 -0.03473
#END
