
#######################################################################
#
#                 Cambridge Crystallographic Data Centre
#                                CCDC
#
#######################################################################
#
# If this CIF has been generated from an entry in the Cambridge
# Structural Database, then it will include bibliographic, chemical,
# crystal, experimental, refinement or atomic coordinate data resulting
# from the CCDC's data processing and validation procedures.
#
#######################################################################

data_CSD_CIF_DATNBZ01
_audit_creation_date 2015-09-30
_audit_creation_method CSD-ConQuest-V1
_database_code_CSD DATNBZ01
_database_code_depnum_ccdc_archive 'CCDC 1428721'
_chemical_formula_sum 'C6 H5 N5 O6'
_chemical_formula_moiety
;
C6 H5 N5 O6
;
_journal_coden_Cambridge 1277
_journal_volume 113
_journal_year 2009
_journal_page_first 2551
_journal_name_full 'J.Phys.Chem.A '
loop_
_publ_author_name
"Yuji Kohno"
"R.I.Hiyoshi"
"Y.Yamaguchi"
"S.Matsumoto"
"A.Koseki"
"O.Takahashi"
"K.Yamasaki"
"K.Ueda"
_chemical_name_systematic
;
2,4,6-Trinitrobenzene-1,3-diamine
;
_cell_volume    435.793
_exptl_crystal_colour 'yellow'
_exptl_crystal_density_diffrn 1.853
_exptl_crystal_description 'plate'
_diffrn_ambient_temperature 223.2
#These two values have been output from a single CSD field.
_refine_ls_R_factor_gt 0.0381
_refine_ls_wR_factor_gt 0.0381
_symmetry_cell_setting monoclinic
_symmetry_space_group_name_H-M 'P c'
_symmetry_Int_Tables_number 7
loop_
_symmetry_equiv_pos_site_id
_symmetry_equiv_pos_as_xyz
1 x,y,z
2 x,-y,1/2+z
_cell_length_a 7.309(3)
_cell_length_b 5.169(4)
_cell_length_c 11.583(2)
_cell_angle_alpha 90
_cell_angle_beta 95.22(2)
_cell_angle_gamma 90
_cell_formula_units_Z 2
loop_
_atom_type_symbol
_atom_type_radius_bond
C 0.68
H 0.23
N 0.68
O 0.68
loop_
_atom_site_label
_atom_site_type_symbol
_atom_site_fract_x
_atom_site_fract_y
_atom_site_fract_z
O1 O 0.2640(5) 0.6961(3) 0.3161(3)
O2 O 0.0943(5) 0.3788(4) 0.3619(3)
O3 O 0.3748(5) -0.2009(3) 0.6899(3)
O4 O 0.6439(5) -0.1153(4) 0.7666(3)
O5 O 0.9979(5) 0.6205(4) 0.5945(3)
O6 O 0.8435(5) 0.8484(3) 0.4638(3)
N1 N 0.2409(5) 0.5019(3) 0.3737(3)
N2 N 0.5140(5) -0.0634(3) 0.6947(3)
N3 N 0.8551(5) 0.6642(3) 0.5317(3)
N4 N 0.2128(5) 0.0740(4) 0.5321(3)
N5 N 0.8346(5) 0.2520(4) 0.6984(3)
C1 C 0.3877(5) 0.4191(3) 0.4581(3)
C2 C 0.3681(5) 0.2058(3) 0.5360(3)
C3 C 0.5250(5) 0.1491(3) 0.6166(3)
C4 C 0.6933(5) 0.2973(4) 0.6220(3)
C5 C 0.6975(5) 0.5010(3) 0.5382(3)
C6 C 0.5482(5) 0.5563(3) 0.4602(3)
H1 H 0.127(4) 0.120(5) 0.475(2)
H2 H 0.213(4) -0.062(7) 0.582(3)
H3 H 0.821(4) 0.126(6) 0.748(2)
H4 H 0.929(5) 0.346(6) 0.689(3)
H5 H 0.560(3) 0.697(5) 0.411(2)
#END
