
#######################################################################
#
#                 Cambridge Crystallographic Data Centre
#                                CCDC
#
#######################################################################
#
# If this CIF has been generated from an entry in the Cambridge
# Structural Database, then it will include bibliographic, chemical,
# crystal, experimental, refinement or atomic coordinate data resulting
# from the CCDC's data processing and validation procedures.
#
#######################################################################

data_CSD_CIF_DAWNIY
_audit_creation_date 1986-05-18
_audit_creation_method CSD-ConQuest-V1
_database_code_CSD DAWNIY
_chemical_formula_sum 'C15 H23 N3 O7'
_chemical_formula_moiety
;
C15 H23 N3 O7
;
_journal_coden_Cambridge 154
_journal_volume 38
_journal_year 1985
_journal_page_first 161
_journal_name_full 'Aust.J.Chem. '
loop_
_publ_author_name
"M.P.Hartshorn"
"W.T.Robinson"
"K.H.Sutton"
"J.Vaughan"
_chemical_name_systematic
;
2,4-Di-t-butyl-6-methyl-r-2,c-5,t-6-trinitrocyclohex-3-enone
;
_chemical_melting_point 375.15
_cell_volume   3664.825
_exptl_crystal_colour 'colorless'
_exptl_crystal_density_diffrn 1.28
_exptl_special_details
;
Melts with decomposition.

;
_diffrn_ambient_temperature ?
_diffrn_special_details
;
The study was carried out at room temperature,in the range 283-303K

;
#These two values have been output from a single CSD field.
_refine_ls_R_factor_gt 0.068
_refine_ls_wR_factor_gt 0.068
loop_
_citation_database_id_CSD
_citation_special_details
DAWNOE "is a stereoisomer of this entry"
DAWNUK "is a stereoisomer of this entry"
_symmetry_cell_setting orthorhombic
_symmetry_space_group_name_H-M 'P b c a'
_symmetry_Int_Tables_number 61
loop_
_symmetry_equiv_pos_site_id
_symmetry_equiv_pos_as_xyz
1 x,y,z
2 1/2-x,-y,1/2+z
3 1/2+x,1/2-y,-z
4 -x,1/2+y,1/2-z
5 -x,-y,-z
6 -1/2+x,y,-1/2-z
7 -1/2-x,-1/2+y,z
8 x,-1/2-y,-1/2+z
_cell_length_a 13.870(2)
_cell_length_b 25.012(3)
_cell_length_c 10.564(3)
_cell_angle_alpha 90
_cell_angle_beta 90
_cell_angle_gamma 90
_cell_formula_units_Z 8
loop_
_atom_type_symbol
_atom_type_radius_bond
C 0.68
H 0.23
N 0.68
O 0.68
loop_
_atom_site_label
_atom_site_type_symbol
_atom_site_fract_x
_atom_site_fract_y
_atom_site_fract_z
C1 C 0.2678(5) 0.1469(3) 0.7143(5)
C2 C 0.2025(4) 0.0978(2) 0.7240(5)
C3 C 0.1315(5) 0.0946(3) 0.6193(5)
C4 C 0.1283(4) 0.1222(2) 0.5132(5)
C5 C 0.2073(5) 0.1631(3) 0.4906(6)
C6 C 0.2463(5) 0.1883(2) 0.6089(6)
C7 C 0.1512(5) 0.0900(3) 0.8590(5)
C8 C 0.0542(5) 0.1163(2) 0.4120(5)
C9 C 0.3355(6) 0.2230(3) 0.5875(8)
C10 C 0.2215(6) 0.1000(4) 0.9679(6)
C11 C 0.0701(5) 0.1300(4) 0.8669(7)
C12 C 0.1092(7) 0.0341(3) 0.8699(8)
C13 C 0.0951(7) 0.1117(3) 0.2819(6)
C14 C -0.0114(6) 0.0687(3) 0.4368(7)
C15 C -0.0136(6) 0.1662(3) 0.4144(7)
N1 N 0.2708(4) 0.0486(2) 0.7090(4)
N2 N 0.2941(4) 0.1361(2) 0.4256(5)
N3 N 0.1683(5) 0.2255(2) 0.6594(5)
O1 O 0.3356(4) 0.1530(2) 0.7814(4)
O2 O 0.2421(4) 0.0130(2) 0.6435(5)
O3 O 0.3461(4) 0.0475(3) 0.7663(5)
O4 O 0.3348(4) 0.1011(2) 0.4839(5)
O5 O 0.3151(4) 0.1517(3) 0.3219(5)
O6 O 0.1771(6) 0.2376(2) 0.7717(6)
O7 O 0.1089(5) 0.2426(2) 0.5939(6)
H1 H 0.0824(32) 0.0674(17) 0.6235(46)
H2 H 0.1878(32) 0.1884(15) 0.4346(34)
H3 H 0.38420 0.19960 0.55430
H4 H 0.36000 0.24100 0.66110
H5 H 0.31840 0.24900 0.52450
H6 H 0.28260 0.08240 0.95900
H7 H 0.18910 0.08680 1.04180
H8 H 0.23150 0.13780 0.97630
H9 H 0.08600 0.16730 0.86210
H10 H 0.04480 0.12200 0.94930
H11 H 0.02260 0.12160 0.80380
H12 H 0.16090 0.00870 0.86550
H13 H 0.06330 0.02680 0.80410
H14 H 0.07800 0.03150 0.95080
H15 H 0.14380 0.13720 0.25940
H16 H 0.04530 0.11170 0.21880
H17 H 0.12340 0.07670 0.28710
H18 H -0.04260 0.06530 0.51760
H19 H 0.03690 0.04140 0.42850
H20 H -0.05830 0.06470 0.37060
H21 H -0.04300 0.15850 0.49470
H22 H -0.06180 0.16520 0.34920
H23 H 0.01530 0.20100 0.41700
#END
