
#######################################################################
#
#                 Cambridge Crystallographic Data Centre
#                                CCDC
#
#######################################################################
#
# If this CIF has been generated from an entry in the Cambridge
# Structural Database, then it will include bibliographic, chemical,
# crystal, experimental, refinement or atomic coordinate data resulting
# from the CCDC's data processing and validation procedures.
#
#######################################################################

data_CSD_CIF_DAWNAT
_audit_creation_date 2017-05-19
_audit_creation_method CSD-ConQuest-V1
_database_code_CSD DAWNAT
_database_code_depnum_ccdc_archive 'CCDC 964611'
_chemical_formula_sum 'C14 H19 N1 O3'
_chemical_formula_moiety
;
C14 H19 N1 O3
;
_journal_coden_Cambridge 692
_journal_volume 49
_journal_year 2017
_journal_page_first 1972
_journal_name_full 'Synthesis '
loop_
_publ_author_name
"S.Carosso"
"M.G.Memeo"
"B.Bovio"
"E.Valletta"
"B.Macchi"
"P.Quadrelli"
_chemical_name_systematic
;
(5-hydroxy-3-methyl-1,2-oxazolidin-2-yl)(mesityl)methanone
;
_cell_volume   1354.159
_exptl_crystal_colour 'colorless'
_exptl_crystal_density_diffrn 1.223
_exptl_crystal_description 'prism'
_diffrn_ambient_temperature 293
#These two values have been output from a single CSD field.
_refine_ls_R_factor_gt 0.0461
_refine_ls_wR_factor_gt 0.0461
_symmetry_cell_setting monoclinic
_symmetry_space_group_name_H-M 'P 21/n'
_symmetry_Int_Tables_number 14
loop_
_symmetry_equiv_pos_site_id
_symmetry_equiv_pos_as_xyz
1 x,y,z
2 1/2-x,1/2+y,1/2-z
3 -x,-y,-z
4 -1/2+x,-1/2-y,-1/2+z
_cell_length_a 9.123(5)
_cell_length_b 7.460(5)
_cell_length_c 19.925(5)
_cell_angle_alpha 90
_cell_angle_beta 93.024(5)
_cell_angle_gamma 90
_cell_formula_units_Z 4
loop_
_atom_type_symbol
_atom_type_radius_bond
C 0.68
H 0.23
N 0.68
O 0.68
loop_
_atom_site_label
_atom_site_type_symbol
_atom_site_fract_x
_atom_site_fract_y
_atom_site_fract_z
O1 O 0.46249(9) 0.2472(2) 0.49806(5)
N1 N 0.34438(12) 0.3031(2) 0.53670(6)
C1 C 0.22346(15) 0.3771(2) 0.49257(7)
C2 C 0.2803(2) 0.3447(3) 0.42295(9)
C3 C 0.3922(2) 0.1987(2) 0.43397(7)
O2 O 0.32548(12) 0.0346(2) 0.43605(6)
C4 C 0.1899(2) 0.5717(2) 0.50640(11)
C5 C 0.34179(15) 0.2325(2) 0.59817(7)
O3 O 0.44328(13) 0.1431(2) 0.62313(5)
C6 C 0.20793(15) 0.2792(2) 0.63511(6)
C7 C 0.0855(2) 0.1668(2) 0.62984(7)
C8 C -0.0379(2) 0.2134(2) 0.66374(7)
C9 C -0.0406(2) 0.3654(2) 0.70392(7)
C10 C 0.0841(2) 0.4704(2) 0.71005(8)
C11 C 0.2091(2) 0.4317(2) 0.67622(7)
C12 C 0.0873(3) -0.0046(3) 0.59043(11)
C13 C -0.1734(3) 0.4124(4) 0.74200(13)
C14 C 0.3429(3) 0.5489(4) 0.68412(13)
H1 H 0.1337(15) 0.3018(18) 0.4980(7)
H2 H 0.4774(19) 0.2049(22) 0.4061(8)
H3 H 0.1195(18) 0.6139(23) 0.4676(8)
H4 H 0.1458(20) 0.5834(25) 0.551(1)
H5 H 0.2774(26) 0.6372(30) 0.5039(11)
H6 H -0.1245(18) 0.1352(22) 0.6586(8)
H7 H 0.0818(20) 0.5747(24) 0.7380(9)
H8 H 0.3324(20) 0.4513(26) 0.4066(9)
H9 H 0.2121(24) 0.3104(29) 0.3915(11)
H10 H 0.3986(23) -0.0543(29) 0.4277(10)
H11 H 0.1184(24) -0.0945(33) 0.6171(11)
H12 H -0.0035(29) -0.0417(34) 0.5795(12)
H13 H 0.1559(25) 0.0019(28) 0.5527(11)
H14 H 0.4271(42) 0.4766(46) 0.6984(17)
H15 H 0.3867(30) 0.5902(38) 0.6403(16)
H16 H 0.3336(27) 0.6373(39) 0.7136(13)
H17 H -0.1718(30) 0.3401(40) 0.7790(16)
H18 H -0.198(3) 0.5354(38) 0.7386(14)
H19 H -0.2576(32) 0.3669(37) 0.7189(13)
#END
