
#######################################################################
#
#                 Cambridge Crystallographic Data Centre
#                                CCDC
#
#######################################################################
#
# If this CIF has been generated from an entry in the Cambridge
# Structural Database, then it will include bibliographic, chemical,
# crystal, experimental, refinement or atomic coordinate data resulting
# from the CCDC's data processing and validation procedures.
#
#######################################################################

data_CSD_CIF_DAWNAQ
_audit_creation_date 1986-05-18
_audit_creation_method CSD-ConQuest-V1
_database_code_CSD DAWNAQ
_chemical_formula_sum 'C12 H17 N3 O7'
_chemical_formula_moiety
;
C12 H17 N3 O7
;
_journal_coden_Cambridge 154
_journal_volume 38
_journal_year 1985
_journal_page_first 161
_journal_name_full 'Aust.J.Chem. '
loop_
_publ_author_name
"M.P.Hartshorn"
"W.T.Robinson"
"K.H.Sutton"
"J.Vaughan"
_chemical_name_systematic
;
2-t-Butyl-4,6-dimethyl-r-4,c-5,t-6-trinitrocyclohex-2-enone
;
_chemical_melting_point 414.15
_cell_volume   1479.417
_exptl_crystal_colour 'colorless'
_exptl_crystal_density_diffrn 1.42
_exptl_special_details
;
Melts with decomposition.

;
_diffrn_ambient_temperature ?
_diffrn_special_details
;
The study was carried out at room temperature,in the range 283-303K

;
#These two values have been output from a single CSD field.
_refine_ls_R_factor_gt 0.044
_refine_ls_wR_factor_gt 0.044
loop_
_citation_database_id_CSD
_citation_special_details
DAWNEU "is a stereoisomer of this entry"
_symmetry_cell_setting orthorhombic
_symmetry_space_group_name_H-M 'P n a 21'
_symmetry_Int_Tables_number 33
loop_
_symmetry_equiv_pos_site_id
_symmetry_equiv_pos_as_xyz
1 x,y,z
2 1/2-x,1/2+y,1/2+z
3 1/2+x,1/2-y,z
4 -x,-y,1/2+z
_cell_length_a 17.642(7)
_cell_length_b 13.806(4)
_cell_length_c 6.074(1)
_cell_angle_alpha 90
_cell_angle_beta 90
_cell_angle_gamma 90
_cell_formula_units_Z 4
loop_
_atom_type_symbol
_atom_type_radius_bond
C 0.68
H 0.23
N 0.68
O 0.68
loop_
_atom_site_label
_atom_site_type_symbol
_atom_site_fract_x
_atom_site_fract_y
_atom_site_fract_z
C1 C 0.7694(3) 0.3440(4) 0.016(1)
C2 C 0.7197(3) 0.4270(4) -0.0447(10)
C3 C 0.7495(3) 0.4993(4) -0.1570(11)
C4 C 0.8321(3) 0.5140(4) -0.2211(9)
C5 C 0.8813(3) 0.4256(4) -0.1513(11)
C6 C 0.8406(3) 0.3293(3) -0.1301(10)
C7 C 0.6361(3) 0.4234(5) 0.0265(11)
C8 C 0.8605(3) 0.6100(4) -0.1288(11)
C9 C 0.8132(3) 0.2785(4) -0.3365(13)
C10 C 0.6002(3) 0.3307(5) -0.0680(14)
C11 C 0.59212(3) 0.5111(5) -0.0631(13)
C12 C 0.6304(4) 0.4247(6) 0.2770(12)
N1 N 0.8287(2) 0.5224(3) -0.4758(8)
N2 N 0.9546(2) 0.4186(4) -0.2807(8)
N3 N 0.8909(3) 0.2607(3) 0.0074(10)
O1 O 0.7549(2) 0.2872(2) 0.1614(8)
O2 O 0.8485(2) 0.4543(3) -0.5887(8)
O3 O 0.8057(3) 0.5971(4) -0.5518(9)
O4 O 0.9834(2) 0.4940(3) -0.3391(10)
O5 O 0.9813(2) 0.3390(3) -0.3069(10)
O6 O 0.9276(2) 0.2971(3) 0.1548(10)
O7 O 0.8881(2) 0.1756(3) -0.0314(9)
H1 H 0.7236(23) 0.562(3) -0.2132(81)
H2 H 0.8993(23) 0.4468(27) 0.0027(81)
H3 H 0.90980(32) 0.62506(35) -0.1861(11)
H4 H 0.86250(32) 0.60838(35) 0.0291(11)
H5 H 0.82500(32) 0.65864(35) -0.1751(11)
H6 H 0.85752(31) 0.26714(38) -0.4246(13)
H7 H 0.77627(31) 0.31311(38) -0.4217(13)
H8 H 0.79234(31) 0.21757(38) -0.2902(13)
H9 H 0.55007(34) 0.32218(46) -0.0098(14)
H10 H 0.62960(34) 0.27343(46) -0.0409(14)
H11 H 0.59732(34) 0.34218(46) -0.2236(14)
H12 H 0.54026(30) 0.50514(48) -0.0172(13)
H13 H 0.59489(30) 0.50725(48) -0.2207(13)
H14 H 0.61186(30) 0.57236(48) -0.0151(13)
H15 H 0.65256(39) 0.48530(58) 0.3204(12)
H16 H 0.65386(39) 0.37296(58) 0.3577(12)
H17 H 0.57707(39) 0.42567(58) 0.3076(12)
#END
