
#######################################################################
#
#                 Cambridge Crystallographic Data Centre
#                                CCDC
#
#######################################################################
#
# If this CIF has been generated from an entry in the Cambridge
# Structural Database, then it will include bibliographic, chemical,
# crystal, experimental, refinement or atomic coordinate data resulting
# from the CCDC's data processing and validation procedures.
#
#######################################################################

data_CSD_CIF_DAWPIA
_audit_creation_date 1986-05-18
_audit_creation_method CSD-ConQuest-V1
_database_code_CSD DAWPIA
_chemical_formula_sum 'C15 H24 N2 O6'
_chemical_formula_moiety
;
C15 H24 N2 O6
;
_journal_coden_Cambridge 154
_journal_volume 38
_journal_year 1985
_journal_page_first 161
_journal_name_full 'Aust.J.Chem. '
loop_
_publ_author_name
"M.P.Hartshorn"
"W.T.Robinson"
"K.H.Sutton"
"J.Vaughan"
_chemical_name_systematic
;
2,4-Di-t-butyl-c-6-hydroxy-6-methyl-r-2,c-5-dinitrocyclohex-3-enone
;
_chemical_melting_point 404.15
_cell_volume   3310.331
_exptl_crystal_colour 'colorless'
_exptl_crystal_density_diffrn 1.29
_exptl_special_details
;
Melts with decomposition.
dx reported as 1.29, we calculate 1.32. V reported as 3355, we calculate 
3310.33
;
_diffrn_ambient_temperature ?
_diffrn_special_details
;
The study was carried out at room temperature,in the range 283-303K

;
#These two values have been output from a single CSD field.
_refine_ls_R_factor_gt 0.044
_refine_ls_wR_factor_gt 0.044
_symmetry_cell_setting orthorhombic
_symmetry_space_group_name_H-M 'P b c a'
_symmetry_Int_Tables_number 61
loop_
_symmetry_equiv_pos_site_id
_symmetry_equiv_pos_as_xyz
1 x,y,z
2 1/2-x,-y,1/2+z
3 1/2+x,1/2-y,-z
4 -x,1/2+y,1/2-z
5 -x,-y,-z
6 -1/2+x,y,-1/2-z
7 -1/2-x,-1/2+y,z
8 x,-1/2-y,-1/2+z
_cell_length_a 13.462(2)
_cell_length_b 13.567(2)
_cell_length_c 18.125(3)
_cell_angle_alpha 90
_cell_angle_beta 90
_cell_angle_gamma 90
_cell_formula_units_Z 8
loop_
_atom_type_symbol
_atom_type_radius_bond
C 0.68
H 0.23
N 0.68
O 0.68
loop_
_atom_site_label
_atom_site_type_symbol
_atom_site_fract_x
_atom_site_fract_y
_atom_site_fract_z
C1 C 0.4504(2) 0.1019(2) 0.6995(2)
C2 C 0.3456(2) 0.1220(2) 0.7288(2)
C3 C 0.2692(2) 0.1054(2) 0.6698(2)
C4 C 0.2813(2) 0.0607(2) 0.6056(2)
C5 C 0.3804(3) 0.0177(3) 0.5877(2)
C6 C 0.4645(3) 0.0800(3) 0.6170(2)
C7 C 0.3349(2) 0.2258(3) 0.7671(2)
C8 C 0.2015(3) 0.0517(3) 0.5467(2)
C9 C 0.4706(3) 0.1752(3) 0.5722(2)
C10 C 0.2313(3) 0.2403(3) 0.7994(2)
C11 C 0.4085(3) 0.2427(3) 0.8299(2)
C12 C 0.3511(3) 0.3046(3) 0.7072(2)
C13 C 0.1011(3) 0.0814(3) 0.5766(2)
C14 C 0.1949(3) -0.0539(3) 0.5168(2)
C15 C 0.2279(3) 0.1211(3) 0.4829(2)
N1 N 0.3249(2) 0.0454(2) 0.7909(2)
N2 N 0.3886(2) -0.0845(2) 0.6222(2)
O1 O 0.5216(2) 0.1049(2) 0.7380(1)
O2 O 0.2412(2) 0.0140(2) 0.7952(1)
O3 O 0.3901(2) 0.0210(2) 0.8321(1)
O4 O 0.3942(2) -0.0878(2) 0.6895(1)
O5 O 0.3898(2) -0.1564(2) 0.5826(2)
O6 O 0.5524(2) 0.0251(2) 0.6072(1)
H1 H 0.5920(22) 0.0359(27) 0.6465(14)
H2 H 0.2089(17) 0.1319(18) 0.6820(13)
H3 H 0.3913(18) 0.0065(18) 0.5387(14)
H4 H 0.40930 0.20990 0.57040
H5 H 0.49150 0.16000 0.52290
H6 H 0.51900 0.21570 0.59580
H7 H 0.17880 0.23530 0.76440
H8 H 0.23080 0.30470 0.82140
H9 H 0.22380 0.19140 0.83720
H10 H 0.47480 0.24040 0.81250
H11 H 0.39900 0.19280 0.86680
H12 H 0.39560 0.30640 0.85090
H13 H 0.33620 0.36720 0.72930
H14 H 0.30960 0.29440 0.66510
H15 H 0.41850 0.30380 0.69190
H16 H 0.08170 0.04050 0.61730
H17 H 0.05470 0.07430 0.53710
H18 H 0.10300 0.14900 0.59210
H19 H 0.25590 -0.07640 0.49640
H20 H 0.14560 -0.05370 0.47900
H21 H 0.17520 -0.09720 0.55600
H22 H 0.17740 0.11460 0.44630
H23 H 0.28970 0.10210 0.46200
H24 H 0.23130 0.18840 0.49910
#END
