
#######################################################################
#
#                 Cambridge Crystallographic Data Centre
#                                CCDC
#
#######################################################################
#
# If this CIF has been generated from an entry in the Cambridge
# Structural Database, then it will include bibliographic, chemical,
# crystal, experimental, refinement or atomic coordinate data resulting
# from the CCDC's data processing and validation procedures.
#
#######################################################################

data_CSD_CIF_DAWPAS
_audit_creation_date 1986-05-18
_audit_creation_method CSD-ConQuest-V1
_database_code_CSD DAWPAS
_chemical_formula_sum 'C15 H24 N2 O6'
_chemical_formula_moiety
;
C15 H24 N2 O6
;
_journal_coden_Cambridge 154
_journal_volume 38
_journal_year 1985
_journal_page_first 161
_journal_name_full 'Aust.J.Chem. '
loop_
_publ_author_name
"M.P.Hartshorn"
"W.T.Robinson"
"K.H.Sutton"
"J.Vaughan"
_chemical_name_systematic
;
2,4-Di-t-butyl-r-2-hydroxy-6-methyl-t-5,c-6-dinitrocyclohex-3-enone
;
_chemical_melting_point 376.65
_cell_volume   1738.051
_exptl_crystal_colour 'colorless'
_exptl_crystal_density_diffrn 1.25
_exptl_special_details
;
Melting point range 376.65-377.65K

;
_diffrn_ambient_temperature ?
_diffrn_special_details
;
The study was carried out at room temperature,in the range 283-303K

;
#These two values have been output from a single CSD field.
_refine_ls_R_factor_gt 0.046
_refine_ls_wR_factor_gt 0.046
loop_
_citation_database_id_CSD
_citation_special_details
DAWPEW "is a stereoisomer of this entry"
_symmetry_cell_setting monoclinic
_symmetry_space_group_name_H-M 'P 21/c'
_symmetry_Int_Tables_number 14
loop_
_symmetry_equiv_pos_site_id
_symmetry_equiv_pos_as_xyz
1 x,y,z
2 -x,1/2+y,1/2-z
3 -x,-y,-z
4 x,-1/2-y,-1/2+z
_cell_length_a 9.528(3)
_cell_length_b 21.472(7)
_cell_length_c 9.517(3)
_cell_angle_alpha 90
_cell_angle_beta 116.79(2)
_cell_angle_gamma 90
_cell_formula_units_Z 4
loop_
_atom_type_symbol
_atom_type_radius_bond
C 0.68
H 0.23
N 0.68
O 0.68
loop_
_atom_site_label
_atom_site_type_symbol
_atom_site_fract_x
_atom_site_fract_y
_atom_site_fract_z
C1 C 0.8276(4) 0.3780(2) 0.3261(4)
C2 C 0.8201(4) 0.3916(2) 0.4807(4)
C3 C 0.6513(4) 0.3954(2) 0.4527(5)
C4 C 0.5198(4) 0.3913(2) 0.3180(4)
C5 C 0.5325(5) 0.3822(2) 0.1670(4)
C6 C 0.6888(4) 0.4023(2) 0.1732(4)
C7 C 0.9196(5) 0.3468(2) 0.6180(4)
C8 C 0.3560(4) 0.3959(2) 0.3080(5)
C9 C 0.7065(6) 0.3855(2) 0.0266(5)
C10 C 1.0958(5) 0.3487(3) 0.6601(6)
C11 C 0.9034(6) 0.3658(3) 0.7659(5)
C12 C 0.8619(6) 0.2800(2) 0.5727(6)
C13 C 0.3633(6) 0.4027(3) 0.4721(6)
C14 C 0.2699(6) 0.4530(3) 0.2107(7)
C15 C 0.2609(5) 0.3372(3) 0.2305(7)
N1 N 0.5148(4) 0.3135(2) 0.1218(4)
N2 N 0.6957(5) 0.4738(2) 0.1819(4)
O1 O 0.9331(3) 0.3519(2) 0.3154(3)
O2 O 0.8770(3) 0.4554(1) 0.5168(3)
O3 O 0.5974(4) 0.2765(1) 0.2179(4)
O4 O 0.4204(4) 0.3002(2) -0.0117(4)
O5 O 0.5836(4) 0.5030(1) 0.1753(4)
O6 O 0.8174(5) 0.4975(2) 0.1918(4)
H1 H 0.9883(24) 0.4580(32) 0.5658(68)
H2 H 0.71550 0.34110 0.02290
H3 H 0.80140 0.40470 0.03620
H4 H 0.61920 0.39960 -0.06840
H5 H 1.11100 0.33810 0.56990
H6 H 1.15280 0.31990 0.74380
H7 H 1.13360 0.39020 0.69380
H8 H 0.97970 0.34030 0.84740
H9 H 0.80170 0.35900 0.76090
H10 H 0.93180 0.40890 0.78850
H11 H 0.91600 0.25310 0.66160
H12 H 0.88310 0.26700 0.48770
H13 H 0.75080 0.27800 0.54000
H14 H 0.25710 0.41020 0.45370
H15 H 0.42760 0.43780 0.52540
H16 H 0.40300 0.36610 0.53600
H17 H 0.31540 0.49360 0.24130
H18 H 0.17150 0.45140 0.21560
H19 H 0.25250 0.44440 0.10510
H20 H 0.16210 0.33990 0.23430
H21 H 0.31750 0.30130 0.28850
H22 H 0.24240 0.33360 0.12300
H23 H 0.4486(30) 0.4038(14) 0.0852(30)
H24 H 0.6437(42) 0.4056(17) 0.5474(30)
#END
