
#######################################################################
#
#                 Cambridge Crystallographic Data Centre
#                                CCDC
#
#######################################################################
#
# If this CIF has been generated from an entry in the Cambridge
# Structural Database, then it will include bibliographic, chemical,
# crystal, experimental, refinement or atomic coordinate data resulting
# from the CCDC's data processing and validation procedures.
#
#######################################################################

data_CSD_CIF_DAXJIW
_audit_creation_date 2006-02-13
_audit_creation_method CSD-ConQuest-V1
_database_code_CSD DAXJIW
_database_code_depnum_ccdc_archive 'CCDC 273888'
_chemical_formula_sum 'C20 H25 N1 O4'
_chemical_formula_moiety
;
C20 H25 N1 O4
;
_journal_coden_Cambridge 1090
_journal_volume 16
_journal_year 2005
_journal_page_first 3352
_journal_name_full 'Tetrahedron:Asymm. '
loop_
_publ_author_name
"B.Frackowiak"
"T.Olejniczak"
"R.Latajka"
"A.Bialonska"
"Z.Ciunik"
"S.Lochynski"
_chemical_name_systematic
;
(1S)-(-)-1-((1R,5S)-6,6-Dimethylbicyclo(3.1.0)hex-2-en-2-yl)-2-methylprop-1-yl
 p-nitrobenzoate
;
_chemical_melting_point 399.15
_cell_volume    923.001
_exptl_crystal_colour 'colorless'
_exptl_crystal_density_diffrn 1.236
_exptl_special_details
;
Melting point range 399.15-401.15K

;
_exptl_crystal_description 'block'
_diffrn_ambient_temperature 100
#These two values have been output from a single CSD field.
_refine_ls_R_factor_gt 0.0511
_refine_ls_wR_factor_gt 0.0511
_symmetry_cell_setting monoclinic
_symmetry_space_group_name_H-M 'P 21'
_symmetry_Int_Tables_number 4
loop_
_symmetry_equiv_pos_site_id
_symmetry_equiv_pos_as_xyz
1 x,y,z
2 -x,1/2+y,-z
_cell_length_a 11.254(2)
_cell_length_b 7.455(1)
_cell_length_c 11.404(2)
_cell_angle_alpha 90
_cell_angle_beta 105.27(3)
_cell_angle_gamma 90
_cell_formula_units_Z 2
loop_
_atom_type_symbol
_atom_type_radius_bond
C 0.68
H 0.23
N 0.68
O 0.68
loop_
_atom_site_label
_atom_site_type_symbol
_atom_site_fract_x
_atom_site_fract_y
_atom_site_fract_z
O1 O 1.2436(2) 0.3653(3) 0.6077(2)
O2 O 1.1148(2) 0.1493(3) 0.6128(2)
O3 O 0.8202(2) 0.9929(3) 0.6876(2)
O4 O 0.69367(19) 0.7627(3) 0.70136(19)
N1 N 1.1441(3) 0.3094(4) 0.6188(3)
C1 C 0.6698(3) 0.7906(5) 0.9500(3)
H1 H 0.627(3) 0.675(4) 0.937(3)
C2 C 0.6378(3) 0.9357(4) 0.8570(3)
C3 C 0.6470(3) 1.0982(5) 0.9063(3)
C4 C 0.6847(4) 1.0870(6) 1.0445(3)
H2 H 0.765(3) 1.153(4) 1.078(3)
H3 H 0.619(4) 1.148(5) 1.081(3)
C5 C 0.7018(3) 0.8863(5) 1.0721(3)
H4 H 0.674(3) 0.836(5) 1.137(3)
C6 C 0.8008(3) 0.7863(5) 1.0322(3)
C7 C 0.9049(4) 0.8848(6) 1.0000(4)
H5 H 0.944(3) 0.806(4) 0.953(3)
H6 H 0.876(3) 0.994(4) 0.950(3)
H7 H 0.967(3) 0.913(5) 1.076(3)
C8 C 0.8393(4) 0.6061(6) 1.0918(4)
H8 H 0.769(3) 0.566(5) 1.121(3)
H9 H 0.860(3) 0.533(5) 1.035(3)
H10 H 0.914(3) 0.613(4) 1.163(3)
C9 C 0.6298(5) 1.2782(6) 0.8454(4)
H11 H 0.562(4) 1.338(7) 0.874(4)
H12 H 0.613(3) 1.268(6) 0.751(4)
H13 H 0.708(3) 1.341(5) 0.870(3)
C10 C 0.6026(3) 0.8919(5) 0.7241(3)
H14 H 0.612(3) 0.999(4) 0.671(3)
C11 C 0.4767(3) 0.8027(5) 0.6785(3)
H15 H 0.481(2) 0.691(4) 0.726(3)
C12 C 0.3795(4) 0.9319(6) 0.7001(5)
H16 H 0.390(3) 0.957(6) 0.790(4)
H17 H 0.385(4) 1.060(6) 0.651(4)
H18 H 0.295(4) 0.893(6) 0.667(3)
C13 C 0.4501(4) 0.7526(7) 0.5441(4)
H19 H 0.517(4) 0.675(5) 0.527(3)
H20 H 0.449(3) 0.872(7) 0.488(4)
H21 H 0.377(4) 0.701(5) 0.520(3)
C14 C 0.7991(3) 0.8329(4) 0.6877(3)
C15 C 0.8865(3) 0.6902(4) 0.6734(3)
C16 C 1.0048(3) 0.7452(5) 0.6693(3)
H22 H 1.022(3) 0.872(5) 0.681(3)
C17 C 1.0883(4) 0.6198(5) 0.6518(3)
H23 H 1.163(3) 0.656(4) 0.647(3)
C18 C 1.0542(3) 0.4407(5) 0.6396(3)
C19 C 0.9395(3) 0.3825(5) 0.6439(3)
H24 H 0.920(3) 0.260(5) 0.637(3)
C20 C 0.8552(3) 0.5094(5) 0.6615(3)
H25 H 0.769(3) 0.479(5) 0.669(3)
#END
