
#######################################################################
#
#                 Cambridge Crystallographic Data Centre
#                                CCDC
#
#######################################################################
#
# If this CIF has been generated from an entry in the Cambridge
# Structural Database, then it will include bibliographic, chemical,
# crystal, experimental, refinement or atomic coordinate data resulting
# from the CCDC's data processing and validation procedures.
#
#######################################################################

data_CSD_CIF_DAXMUL
_audit_creation_date 2006-02-13
_audit_creation_method CSD-ConQuest-V1
_database_code_CSD DAXMUL
_database_code_depnum_ccdc_archive 'CCDC 274144'
_chemical_formula_sum 'C11 H14 N2 O6'
_chemical_formula_moiety
;
C11 H14 N2 O6
;
_journal_coden_Cambridge 156
_journal_volume 340
_journal_year 2005
_journal_page_first 2645
_journal_name_full 'Carbohydr.Res. '
loop_
_publ_author_name
"A.Temeriusz"
"T.Gubica"
"P.Rogowska"
"K.Paradowska"
"M.K.Cyranski"
_chemical_name_systematic
;
N-p-Nitrophenyl-\a-D-xylopyranosylamine
;
_chemical_melting_point 458.15
_cell_volume   1157.181
_exptl_crystal_colour 'yellow'
_exptl_crystal_density_diffrn 1.551
_exptl_special_details
;
Melting point range 458.15-462.15K
Unstable when cooled
temperature-sensitive

;
_exptl_crystal_preparation 'ethanol'
_diffrn_ambient_temperature 293
#These two values have been output from a single CSD field.
_refine_ls_R_factor_gt 0.0557
_refine_ls_wR_factor_gt 0.0557
_symmetry_cell_setting orthorhombic
_symmetry_space_group_name_H-M 'P 21 21 21'
_symmetry_Int_Tables_number 19
loop_
_symmetry_equiv_pos_site_id
_symmetry_equiv_pos_as_xyz
1 x,y,z
2 1/2-x,-y,1/2+z
3 -x,1/2+y,1/2-z
4 1/2+x,1/2-y,-z
_cell_length_a 6.361(1)
_cell_length_b 9.100(2)
_cell_length_c 19.991(4)
_cell_angle_alpha 90
_cell_angle_beta 90
_cell_angle_gamma 90
_cell_formula_units_Z 4
loop_
_atom_type_symbol
_atom_type_radius_bond
C 0.68
H 0.23
N 0.68
O 0.68
loop_
_atom_site_label
_atom_site_type_symbol
_atom_site_fract_x
_atom_site_fract_y
_atom_site_fract_z
C1 C 0.6198(6) 0.8564(4) 0.18775(18)
H1 H 0.54790 0.92190 0.15630
C2 C 0.8233(6) 0.9326(4) 0.20993(19)
H2 H 0.78930 1.03220 0.22510
O1 O 0.9620(5) 0.9424(3) 0.15426(14)
C3 C 0.9306(6) 0.8516(4) 0.26618(18)
H3 H 0.98670 0.75840 0.24940
O2 O 1.0983(4) 0.9380(4) 0.29281(15)
H4 H 1.19940 0.93450 0.26740
C4 C 0.7766(6) 0.8214(4) 0.32249(19)
H5 H 0.73890 0.91400 0.34450
O3 O 0.8674(5) 0.7236(4) 0.37019(15)
H6 H 0.98400 0.75380 0.38100
C5 C 0.5820(6) 0.7491(5) 0.29579(19)
H7 H 0.61810 0.65390 0.27730
H8 H 0.48320 0.73370 0.33210
O4 O 0.4850(4) 0.8376(3) 0.24496(13)
N1 N 0.6624(5) 0.7224(4) 0.15386(16)
H9 H 0.791(8) 0.661(5) 0.161(2)
C6 C 0.5298(6) 0.6556(4) 0.10815(18)
C7 C 0.3244(6) 0.7079(4) 0.09680(19)
H10 H 0.27410 0.78840 0.12060
C8 C 0.1981(6) 0.6391(4) 0.05021(18)
H11 H 0.06330 0.67410 0.04170
C9 C 0.2740(6) 0.5166(4) 0.01592(18)
N2 N 0.1430(6) 0.4392(4) -0.03088(16)
O5 O -0.0395(5) 0.4824(4) -0.03932(16)
O6 O 0.2149(5) 0.3341(4) -0.06132(15)
C10 C 0.4784(7) 0.4661(5) 0.0266(2)
H12 H 0.53020 0.38660 0.00250
C11 C 0.6011(6) 0.5347(4) 0.07295(19)
H13 H 0.73590 0.49940 0.08110
H14 H 1.024(19) 1.056(16) 0.138(7)
#END
