
#######################################################################
#
#                 Cambridge Crystallographic Data Centre
#                                CCDC
#
#######################################################################
#
# If this CIF has been generated from an entry in the Cambridge
# Structural Database, then it will include bibliographic, chemical,
# crystal, experimental, refinement or atomic coordinate data resulting
# from the CCDC's data processing and validation procedures.
#
#######################################################################

data_CSD_CIF_DAYPUP
_audit_creation_date 2006-02-13
_audit_creation_method CSD-ConQuest-V1
_database_code_CSD DAYPUP
_database_code_depnum_ccdc_archive 'CCDC 293974'
_chemical_formula_sum 'C16 H14 N4 O4'
_chemical_formula_moiety
;
C16 H14 N4 O4
;
_journal_coeditor_code "IUCr RZ6131"
_journal_coden_Cambridge 1370
_journal_volume 61
_journal_year 2005
_journal_page_first o4156
_journal_name_full 'Acta Crystallogr.,Sect.E:Struct.Rep.Online '
loop_
_publ_author_name
"Yu-Guang Li"
"Hai-Liang Zhu"
"Xin-Zhi Chen"
"Yu Song"
_chemical_name_systematic
;
N,N'-bis(2-Nitrobenzylidene)ethylenediamine
;
_cell_volume    772.010
_exptl_crystal_colour 'yellow'
_exptl_crystal_density_diffrn 1.404
_exptl_crystal_description 'block'
_exptl_crystal_preparation 'methanol'
_diffrn_ambient_temperature 292
#These two values have been output from a single CSD field.
_refine_ls_R_factor_gt 0.0544
_refine_ls_wR_factor_gt 0.0544
_symmetry_cell_setting monoclinic
_symmetry_space_group_name_H-M 'P 21/c'
_symmetry_Int_Tables_number 14
loop_
_symmetry_equiv_pos_site_id
_symmetry_equiv_pos_as_xyz
1 x,y,z
2 -x,1/2+y,1/2-z
3 -x,-y,-z
4 x,-1/2-y,-1/2+z
_cell_length_a 7.4255(10)
_cell_length_b 15.497(2)
_cell_length_c 7.0806(10)
_cell_angle_alpha 90
_cell_angle_beta 108.648(2)
_cell_angle_gamma 90
_cell_formula_units_Z 2
loop_
_atom_type_symbol
_atom_type_radius_bond
C 0.68
H 0.23
N 0.68
O 0.68
loop_
_atom_site_label
_atom_site_type_symbol
_atom_site_fract_x
_atom_site_fract_y
_atom_site_fract_z
C1 C 0.4457(3) 0.28932(11) 0.1642(3)
C2 C 0.3612(3) 0.20876(12) 0.1388(3)
H1 H 0.22950 0.20340 0.09430
C3 C 0.4756(3) 0.13652(12) 0.1805(3)
H2 H 0.42100 0.08190 0.16550
C4 C 0.6700(3) 0.14508(12) 0.2444(3)
H3 H 0.74670 0.09620 0.27260
C5 C 0.7519(3) 0.22584(12) 0.2667(3)
H4 H 0.88360 0.23050 0.30820
C6 C 0.6421(3) 0.30075(11) 0.2286(2)
C7 C 0.7422(3) 0.38503(11) 0.2524(3)
H5 H 0.68960 0.43020 0.16600
C8 C 0.9887(3) 0.47980(12) 0.4000(3)
H6 H 0.91220 0.51700 0.29450
H7 H 1.11240 0.47300 0.38270
N1 N 0.3186(2) 0.36442(11) 0.1251(3)
N2 N 0.8969(2) 0.39546(10) 0.3881(2)
O1 O 0.1547(3) 0.35509(13) 0.0299(4)
O2 O 0.3804(2) 0.43381(11) 0.1914(3)
C1B C 1.5543(3) 0.71068(11) 0.8358(3)
C2B C 1.6388(3) 0.79124(12) 0.8612(3)
H1B H 1.77050 0.79660 0.90570
C3B C 1.5244(3) 0.86348(12) 0.8195(3)
H2B H 1.57900 0.91810 0.83450
C4B C 1.3300(3) 0.85492(12) 0.7556(3)
H3B H 1.25330 0.90380 0.72740
C5B C 1.2481(3) 0.77416(12) 0.7333(3)
H4B H 1.11640 0.76950 0.69180
C6B C 1.3579(3) 0.69925(11) 0.7714(2)
C7B C 1.2578(3) 0.61497(11) 0.7476(3)
H5B H 1.31040 0.56980 0.83400
C8B C 1.0113(3) 0.52020(12) 0.6000(3)
H6B H 1.08780 0.48300 0.70550
H7B H 0.88760 0.52700 0.61730
N1B N 1.6814(2) 0.63558(11) 0.8749(3)
N2B N 1.1031(2) 0.60454(10) 0.6119(2)
O1B O 1.8453(3) 0.64491(13) 0.9701(4)
O2B O 1.6196(2) 0.56619(11) 0.8086(3)
#END
