
#######################################################################
#
#                 Cambridge Crystallographic Data Centre
#                                CCDC
#
#######################################################################
#
# If this CIF has been generated from an entry in the Cambridge
# Structural Database, then it will include bibliographic, chemical,
# crystal, experimental, refinement or atomic coordinate data resulting
# from the CCDC's data processing and validation procedures.
#
#######################################################################

data_CSD_CIF_DAYSIG
_audit_creation_date 2006-02-13
_audit_creation_method CSD-ConQuest-V1
_database_code_CSD DAYSIG
_database_code_depnum_ccdc_archive 'CCDC 293989'
_chemical_formula_sum 'C20 H16 N4 O5'
_chemical_formula_moiety
;
C20 H16 N4 O5
;
_journal_coeditor_code "IUCr SJ6149"
_journal_coden_Cambridge 1370
_journal_volume 61
_journal_year 2005
_journal_page_first o4018
_journal_name_full 'Acta Crystallogr.,Sect.E:Struct.Rep.Online '
loop_
_publ_author_name
"Jun Shi"
_chemical_name_systematic
;
(E)-1-(3-(Benzyloxy)benzylidene)-2-(2,4-dinitrophenyl)hydrazine
;
_cell_volume    902.929
_exptl_crystal_colour 'red'
_exptl_crystal_density_diffrn 1.443
_exptl_crystal_description 'block'
_exptl_crystal_preparation 'DMF'
_diffrn_ambient_temperature 294
#These two values have been output from a single CSD field.
_refine_ls_R_factor_gt 0.0424
_refine_ls_wR_factor_gt 0.0424
_symmetry_cell_setting triclinic
_symmetry_space_group_name_H-M 'P -1'
_symmetry_Int_Tables_number 2
loop_
_symmetry_equiv_pos_site_id
_symmetry_equiv_pos_as_xyz
1 x,y,z
2 -x,-y,-z
_cell_length_a 5.9288(18)
_cell_length_b 7.651(2)
_cell_length_c 20.087(6)
_cell_angle_alpha 96.711(5)
_cell_angle_beta 93.768(5)
_cell_angle_gamma 90.115(5)
_cell_formula_units_Z 2
loop_
_atom_type_symbol
_atom_type_radius_bond
C 0.68
H 0.23
N 0.68
O 0.68
loop_
_atom_site_label
_atom_site_type_symbol
_atom_site_fract_x
_atom_site_fract_y
_atom_site_fract_z
O1 O 1.3360(2) 0.2768(2) 0.42656(7)
O2 O 0.8017(3) -0.0963(2) -0.00502(7)
O3 O 0.5213(3) -0.2544(3) -0.05091(8)
O4 O -0.0072(3) -0.5159(3) 0.07535(10)
O5 O 0.0109(3) -0.4637(2) 0.18305(9)
N1 N 0.9798(3) 0.0288(2) 0.18735(8)
N2 N 0.8695(3) -0.0364(2) 0.12639(8)
H1 H 0.92080 -0.01250 0.08940
N3 N 0.6313(3) -0.1869(3) -0.00085(8)
N4 N 0.0838(3) -0.4491(3) 0.1284(1)
C1 C 0.9244(4) 0.2971(3) 0.54528(11)
H2 H 0.81190 0.34340 0.51820
C2 C 0.9027(4) 0.3055(3) 0.61388(12)
H3 H 0.77610 0.35780 0.63240
C3 C 1.0665(4) 0.2375(3) 0.65480(11)
H4 H 1.05020 0.24220 0.70070
C4 C 1.2558(4) 0.1620(3) 0.62715(10)
H5 H 1.36850 0.11650 0.65440
C5 C 1.2768(4) 0.1544(3) 0.55872(11)
H6 H 1.40490 0.10380 0.54050
C6 C 1.1121(4) 0.2202(3) 0.51676(10)
C7 C 1.1284(4) 0.1998(3) 0.44189(10)
H7 H 1.12300 0.07600 0.42460
H8 H 1.00170 0.25750 0.42080
C8 C 1.3778(3) 0.2726(3) 0.35981(9)
C9 C 1.5763(3) 0.3587(3) 0.34776(10)
H9 H 1.66790 0.41340 0.38360
C10 C 1.6364(4) 0.3628(3) 0.28302(11)
H10 H 1.77040 0.41800 0.27520
C11 C 1.4974(4) 0.2848(3) 0.2292(1)
H11 H 1.53800 0.28870 0.18550
C12 C 1.2978(3) 0.2010(3) 0.24071(9)
C13 C 1.2382(3) 0.1937(3) 0.30667(9)
H12 H 1.10610 0.13630 0.31470
C14 C 1.1566(4) 0.1223(3) 0.18218(10)
H13 H 1.19670 0.14080 0.13950
C15 C 0.6812(3) -0.1377(3) 0.12508(9)
C16 C 0.5598(3) -0.2126(3) 0.06514(9)
C17 C 0.3654(3) -0.3144(3) 0.06608(10)
H14 H 0.28830 -0.36150 0.02620
C18 C 0.2896(3) -0.3439(3) 0.1269(1)
C19 C 0.4037(4) -0.2741(3) 0.18714(10)
H15 H 0.35060 -0.29600 0.22790
C20 C 0.5936(4) -0.1735(3) 0.18599(10)
H16 H 0.66760 -0.12700 0.22650
#END
