
#######################################################################
#
#                 Cambridge Crystallographic Data Centre
#                                CCDC
#
#######################################################################
#
# If this CIF has been generated from an entry in the Cambridge
# Structural Database, then it will include bibliographic, chemical,
# crystal, experimental, refinement or atomic coordinate data resulting
# from the CCDC's data processing and validation procedures.
#
#######################################################################

data_CSD_CIF_DAYVAC
_audit_creation_date 2012-11-16
_audit_creation_method CSD-ConQuest-V1
_database_code_CSD DAYVAC
_database_code_depnum_ccdc_archive 'CCDC 873486'
_chemical_formula_sum 'C16 H15 N3 O3'
_chemical_formula_moiety
;
C16 H15 N3 O3
;
_journal_coden_Cambridge 182
_journal_volume 48
_journal_year 2012
_journal_page_first 9834
_journal_name_full 'Chem.Commun. '
loop_
_publ_author_name
"C.L.Sutherell"
"S.Thompson"
"R.T.W.Scott"
"A.D.Hamilton"
_chemical_name_systematic
;
4-Methyl-3-(3-nitrophenyl)-1-phenylimidazolidin-2-one
;
_chemical_melting_point 436
_cell_volume   2761.681
_exptl_crystal_colour 'yellow'
_exptl_crystal_density_diffrn 1.43
_exptl_crystal_description 'block'
_diffrn_ambient_temperature 150
#These two values have been output from a single CSD field.
_refine_ls_R_factor_gt 0.048
_refine_ls_wR_factor_gt 0.048
_symmetry_cell_setting orthorhombic
_symmetry_space_group_name_H-M 'P b c a'
_symmetry_Int_Tables_number 61
loop_
_symmetry_equiv_pos_site_id
_symmetry_equiv_pos_as_xyz
1 x,y,z
2 1/2+x,1/2-y,-z
3 -x,1/2+y,1/2-z
4 1/2-x,-y,1/2+z
5 -x,-y,-z
6 -1/2-x,-1/2+y,z
7 x,-1/2-y,-1/2+z
8 -1/2+x,y,-1/2-z
_cell_length_a 7.5757(1)
_cell_length_b 11.7655(2)
_cell_length_c 30.9842(5)
_cell_angle_alpha 90
_cell_angle_beta 90
_cell_angle_gamma 90
_cell_formula_units_Z 8
loop_
_atom_type_symbol
_atom_type_radius_bond
C 0.68
H 0.23
N 0.68
O 0.68
loop_
_atom_site_label
_atom_site_type_symbol
_atom_site_fract_x
_atom_site_fract_y
_atom_site_fract_z
O1 O 0.37519(19) 0.60511(10) 0.67669(4)
O2 O 0.1870(2) 0.55317(11) 0.44913(4)
O3 O 0.12525(19) 0.40017(11) 0.48479(4)
N1 N 0.3777(2) 0.41793(12) 0.70081(4)
N2 N 0.4020(2) 0.45113(11) 0.63029(4)
N3 N 0.1939(2) 0.49454(12) 0.48195(5)
C1 C 0.3131(2) 0.53328(15) 0.76488(6)
C2 C 0.3120(3) 0.54418(16) 0.80942(6)
C3 C 0.3712(3) 0.45732(17) 0.83587(6)
C4 C 0.4301(3) 0.35736(16) 0.81709(6)
C5 C 0.4330(2) 0.34457(15) 0.77262(6)
C6 C 0.3754(2) 0.43336(14) 0.74606(5)
C7 C 0.3838(2) 0.50259(14) 0.67058(5)
C8 C 0.4141(3) 0.30769(14) 0.68115(5)
C9 C 0.3749(3) 0.32780(14) 0.63321(5)
C10 C 0.4922(3) 0.25822(15) 0.60402(6)
C11 C 0.3914(2) 0.51395(14) 0.59182(5)
C12 C 0.4822(2) 0.61702(14) 0.58799(6)
C13 C 0.4712(3) 0.68109(14) 0.55062(6)
C14 C 0.3739(3) 0.64236(14) 0.51556(6)
C15 C 0.2904(2) 0.53879(14) 0.51943(5)
C16 C 0.2940(2) 0.47376(14) 0.55679(5)
H1 H 0.27210 0.59360 0.74710
H2 H 0.26900 0.61240 0.82200
H3 H 0.37250 0.46640 0.86630
H4 H 0.46810 0.29650 0.83490
H5 H 0.47470 0.27600 0.76010
H6 H 0.53410 0.28670 0.68510
H7 H 0.33980 0.25050 0.69290
H8 H 0.25490 0.31020 0.62750
H9 H 0.46750 0.17960 0.60740
H10 H 0.61200 0.27240 0.61130
H11 H 0.47200 0.27970 0.57490
H12 H 0.55210 0.64310 0.61140
H13 H 0.53150 0.75170 0.54880
H14 H 0.36420 0.68580 0.48980
H15 H 0.23060 0.40430 0.55860
#END
