
#######################################################################
#
#                 Cambridge Crystallographic Data Centre
#                                CCDC
#
#######################################################################
#
# If this CIF has been generated from an entry in the Cambridge
# Structural Database, then it will include bibliographic, chemical,
# crystal, experimental, refinement or atomic coordinate data resulting
# from the CCDC's data processing and validation procedures.
#
#######################################################################

data_CSD_CIF_DAYYIO
_audit_creation_date 2017-05-23
_audit_creation_method CSD-ConQuest-V1
_database_code_CSD DAYYIO
_database_code_depnum_ccdc_archive 'CCDC 1506352'
_chemical_formula_sum 'C24 H19 N3 O3'
_chemical_formula_moiety
;
C24 H19 N3 O3
;
_journal_coden_Cambridge 24
_journal_volume 58
_journal_year 2017
_journal_page_first 3003
_journal_name_full 'Tetrahedron Lett. '
loop_
_publ_author_name
"Xufeng Nie"
"Yachuan Wang"
"Lijun Yang"
"Zaijun Yang"
"Tairan Kang"
_chemical_name_systematic
;
N-benzyl-1-cyano-2-(4-nitrophenyl)-3-phenylcyclopropanecarboxamide
;
_cell_volume   2046.888
_exptl_crystal_density_diffrn 1.29
_exptl_crystal_description 'block'
_diffrn_ambient_temperature 290
_refine_special_details
;
C20,C21,C23,C24 and C20',C21',C23',C24' disordered over two sites with 
occupancies 0.535:0.465.
;
#These two values have been output from a single CSD field.
_refine_ls_R_factor_gt 0.068
_refine_ls_wR_factor_gt 0.068
_symmetry_cell_setting monoclinic
_symmetry_space_group_name_H-M 'P 21/n'
_symmetry_Int_Tables_number 14
loop_
_symmetry_equiv_pos_site_id
_symmetry_equiv_pos_as_xyz
1 x,y,z
2 1/2-x,1/2+y,1/2-z
3 -x,-y,-z
4 -1/2+x,-1/2-y,-1/2+z
_cell_length_a 5.7444(2)
_cell_length_b 26.3902(8)
_cell_length_c 13.5940(4)
_cell_angle_alpha 90
_cell_angle_beta 96.660(3)
_cell_angle_gamma 90
_cell_formula_units_Z 4
loop_
_atom_type_symbol
_atom_type_radius_bond
C 0.68
H 0.23
N 0.68
O 0.68
loop_
_atom_site_label
_atom_site_type_symbol
_atom_site_fract_x
_atom_site_fract_y
_atom_site_fract_z
O1 O 0.8958(3) 0.41283(7) 0.62281(14)
O2 O 1.2019(4) 0.25117(9) 0.96261(13)
C1 C 1.0676(4) 0.35510(8) 0.47160(15)
H1 H 0.92800 0.34610 0.50300
N1 N 1.3617(4) 0.27574(9) 0.93604(15)
C2 C 1.2889(4) 0.34835(8) 0.53814(14)
H2 H 1.42440 0.33980 0.50370
O3 O 1.5379(5) 0.28529(12) 0.99017(16)
N2 N 1.1932(4) 0.46841(8) 0.63885(15)
N3 N 1.4249(4) 0.45720(9) 0.40460(16)
C3 C 1.3218(4) 0.43312(8) 0.45355(16)
C4 C 1.0409(4) 0.34497(8) 0.36287(15)
C5 C 1.1912(4) 0.40254(8) 0.51595(15)
C6 C 1.5031(4) 0.33795(11) 0.70550(18)
H3 H 1.62570 0.35600 0.68320
C7 C 1.3432(4) 0.29415(8) 0.83327(15)
C8 C 1.3034(4) 0.32848(8) 0.64144(14)
C9 C 0.9692(5) 0.32521(11) 0.16030(18)
H4 H 0.94410 0.31820 0.09290
C10 C 1.1446(4) 0.28372(10) 0.77153(16)
H5 H 1.02360 0.26530 0.79430
C11 C 1.1251(4) 0.30070(9) 0.67510(16)
H6 H 0.99090 0.29340 0.63240
C12 C 1.1698(5) 0.31064(12) 0.21473(19)
H7 H 1.28450 0.29400 0.18410
C13 C 1.2070(5) 0.32020(11) 0.31558(18)
H8 H 1.34610 0.30970 0.35180
C14 C 1.1109(6) 0.49458(10) 0.72297(19)
H9 H 0.94240 0.49890 0.71010
H10 H 1.18110 0.52800 0.72850
C15 C 1.0780(4) 0.42874(8) 0.59688(16)
C16 C 0.8371(4) 0.36021(11) 0.30632(19)
H11 H 0.72210 0.37710 0.33630
C17 C 0.8026(5) 0.35059(13) 0.2063(2)
H12 H 0.66520 0.36140 0.16930
C18 C 1.5234(5) 0.32096(12) 0.80206(19)
H13 H 1.65770 0.32770 0.84510
C19 C 1.1670(5) 0.46732(10) 0.82004(18)
C20 C 1.2615(8) 0.41931(18) 1.0025(3)
H14 H 1.27540 0.41100 1.06940
C21 C 1.0249(11) 0.4319(2) 0.8544(4)
H15 H 0.88550 0.42490 0.81480
C22 C 1.4353(16) 0.4453(3) 0.9624(6)
H16 H 1.58590 0.44500 0.99600
C23 C 1.3945(12) 0.4727(3) 0.8713(5)
H17 H 1.50910 0.49270 0.84750
C24 C 1.0654(10) 0.4060(3) 0.9392(4)
H18 H 0.96580 0.38020 0.95490
H19 H 1.321(5) 0.4795(12) 0.620(2)
H20? H 1.28950 0.40100 1.06120
C25? C 1.0085(9) 0.4724(3) 0.8900(3)
H21? H 0.87330 0.49180 0.87620
C26? C 1.0574(11) 0.4479(3) 0.9809(4)
H22? H 0.95240 0.45060 1.02780
C27? C 1.3539(14) 0.4415(3) 0.8497(6)
H23? H 1.45870 0.43830 0.80280
C28? C 1.4205(15) 0.4193(4) 0.9335(6)
H24? H 1.56710 0.40410 0.94650
#END
