
#######################################################################
#
#                 Cambridge Crystallographic Data Centre
#                                CCDC
#
#######################################################################
#
# If this CIF has been generated from an entry in the Cambridge
# Structural Database, then it will include bibliographic, chemical,
# crystal, experimental, refinement or atomic coordinate data resulting
# from the CCDC's data processing and validation procedures.
#
#######################################################################

data_CSD_CIF_DAZLAT
_audit_creation_date 2012-11-16
_audit_creation_method CSD-ConQuest-V1
_database_code_CSD DAZLAT
_database_code_depnum_ccdc_archive 'CCDC 885421'
_chemical_formula_sum 'C16 H15 N1 O9'
_chemical_formula_moiety
;
C16 H15 N1 O9
;
_journal_coden_Cambridge 177
_journal_volume 10
_journal_year 2012
_journal_page_first 7809
_journal_name_full 'Org.Biomol.Chem. '
loop_
_publ_author_name
"A.Pillay"
"A.L.Rousseau"
"M.A.Fernandes"
"C.B.d.Koning"
_chemical_name_systematic
;
3-Hydroxy-7,9-dimethoxy-3-methyl-5,10-dioxo-3,4,5,10-tetrahydro-1H-benzo[g]iso
chromen-4-yl nitrate
;
_cell_volume   1571.238
_exptl_crystal_colour 'brown'
_exptl_crystal_density_diffrn 1.544
_exptl_crystal_description 'needle'
_diffrn_ambient_temperature 173
#These two values have been output from a single CSD field.
_refine_ls_R_factor_gt 0.0497
_refine_ls_wR_factor_gt 0.0497
_symmetry_cell_setting monoclinic
_symmetry_space_group_name_H-M 'P 21/c'
_symmetry_Int_Tables_number 14
loop_
_symmetry_equiv_pos_site_id
_symmetry_equiv_pos_as_xyz
1 x,y,z
2 -x,1/2+y,1/2-z
3 -x,-y,-z
4 x,-1/2-y,-1/2+z
_cell_length_a 13.913(4)
_cell_length_b 13.475(4)
_cell_length_c 8.404(3)
_cell_angle_alpha 90
_cell_angle_beta 94.246(9)
_cell_angle_gamma 90
_cell_formula_units_Z 4
loop_
_atom_type_symbol
_atom_type_radius_bond
C 0.68
H 0.23
N 0.68
O 0.68
loop_
_atom_site_label
_atom_site_type_symbol
_atom_site_fract_x
_atom_site_fract_y
_atom_site_fract_z
C1 C 0.7945(3) 0.1080(3) 0.4411(5)
C2 C 0.7955(3) 0.2193(3) 0.4379(5)
C3 C 0.8691(3) 0.2662(3) 0.5322(5)
H1 H 0.91520 0.22880 0.59610
C4 C 0.8726(3) 0.3694(4) 0.5297(5)
C5 C 0.8058(3) 0.4232(3) 0.4356(5)
H2 H 0.80990 0.49350 0.43530
C6 C 0.7334(3) 0.3772(3) 0.3420(5)
C7 C 0.7251(3) 0.2724(3) 0.3442(5)
C8 C 0.6490(3) 0.2185(3) 0.2524(5)
C9 C 0.6534(3) 0.1081(3) 0.2477(5)
C10 C 0.7196(3) 0.0571(3) 0.3377(5)
C11 C 1.0123(3) 0.3787(3) 0.7148(5)
H3 H 0.98410 0.33300 0.78910
H4 H 1.05070 0.42890 0.77520
H5 H 1.05370 0.34170 0.64640
C12 C 0.6764(3) 0.5339(3) 0.2411(5)
H6 H 0.66770 0.56170 0.34680
H7 H 0.62720 0.56090 0.16350
H8 H 0.74050 0.55140 0.20900
C13 C 0.5786(3) 0.0576(3) 0.1393(5)
H9 H 0.51570 0.06200 0.18640
H10 H 0.57280 0.09290 0.03570
C14 C 0.7220(3) -0.0544(3) 0.3320(5)
H11 H 0.73580 -0.08220 0.44160
C15 C 0.6283(3) -0.0989(4) 0.2535(5)
C16 C 0.6377(3) -0.2054(3) 0.2016(5)
H12 H 0.65930 -0.24630 0.29390
H13 H 0.68480 -0.20970 0.12080
H14 H 0.57500 -0.22950 0.15630
N1 N 0.8732(3) -0.1393(3) 0.3048(6)
O1 O 0.85381(18) 0.0597(2) 0.5232(3)
O2 O 0.9372(2) 0.4262(2) 0.6185(4)
O3 O 0.66721(19) 0.4274(2) 0.2468(3)
O4 O 0.5792(2) 0.2579(2) 0.1775(3)
O5 O 0.60026(19) -0.0441(2) 0.1120(3)
O6 O 0.56119(19) -0.0862(2) 0.3695(3)
H15 H 0.51160 -0.11990 0.34420
O7 O 0.79979(19) -0.0789(2) 0.2317(3)
O8 O 0.8618(3) -0.1766(3) 0.4321(5)
O9 O 0.9389(2) -0.1480(3) 0.2182(4)
#END
