
#######################################################################
#
#                 Cambridge Crystallographic Data Centre
#                                CCDC
#
#######################################################################
#
# If this CIF has been generated from an entry in the Cambridge
# Structural Database, then it will include bibliographic, chemical,
# crystal, experimental, refinement or atomic coordinate data resulting
# from the CCDC's data processing and validation procedures.
#
#######################################################################

data_CSD_CIF_DEBAOX
_audit_creation_date 1979-03-22
_audit_creation_method CSD-ConQuest-V1
_database_code_CSD DEBAOX
_database_code_depnum_ccdc_archive 'CCDC 1137606'
_chemical_formula_sum 'C11 H16 N2 O1'
_chemical_formula_moiety
;
C11 H16 N2 O1
;
_journal_coden_Cambridge 54
_journal_volume 87
_journal_year 1978
_journal_page_first 573
_journal_name_full 'Bull.Soc.Chim.Belg. '
loop_
_publ_author_name
"E.Arte"
"J.P.Declercq"
"G.Germain"
"M.van Meerssche"
_chemical_name_systematic
;
N,N-Diethylbenzamide-oxime
;
_cell_volume    561.822
_exptl_crystal_density_diffrn 1.14
_diffrn_ambient_temperature ?
_diffrn_special_details
;
The study was carried out at room temperature,in the range 283-303K

;
#These two values have been output from a single CSD field.
_refine_ls_R_factor_gt 0.069
_refine_ls_wR_factor_gt 0.069
_symmetry_cell_setting triclinic
_symmetry_space_group_name_H-M 'P -1'
_symmetry_Int_Tables_number 2
loop_
_symmetry_equiv_pos_site_id
_symmetry_equiv_pos_as_xyz
1 x,y,z
2 -x,-y,-z
_cell_length_a 10.013(6)
_cell_length_b 8.261(5)
_cell_length_c 7.297(4)
_cell_angle_alpha 97.96(2)
_cell_angle_beta 76.46(2)
_cell_angle_gamma 77.65(2)
_cell_formula_units_Z 2
loop_
_atom_type_symbol
_atom_type_radius_bond
C 0.68
H 0.23
N 0.68
O 0.68
loop_
_atom_site_label
_atom_site_type_symbol
_atom_site_fract_x
_atom_site_fract_y
_atom_site_fract_z
C1 C 0.82060 0.84370 0.62970
C2 C 0.80460 0.68880 0.66070
C3 C 0.82490 0.55560 0.51010
C4 C 0.86530 0.58360 0.32580
C5 C 0.88310 0.73300 0.28950
C6 C 0.86200 0.86400 0.44140
C7 C 0.80150 0.98520 0.78920
N1 N 0.68870 1.11930 0.82380
C8 C 0.56340 1.11010 0.75940
C9 C 0.53470 1.21760 0.62970
C10 C 0.69380 1.30110 0.95350
C11 C 0.63240 1.26790 1.11510
N2 N 0.88850 0.99260 0.89110
O1 O 1.00980 0.85160 0.82480
H1 H 0.78600 0.67900 0.78100
H2 H 0.81600 0.44200 0.53600
H3 H 0.88100 0.50300 0.23400
H4 H 0.91400 0.74100 0.14400
H5 H 0.86500 0.97200 0.42200
H6 H 1.05700 0.86900 0.89900
H7 H 0.47600 1.16100 0.83600
H8 H 0.58200 1.00100 0.70600
H9 H 0.54700 1.34600 0.64800
H10 H 0.43500 1.22600 0.59700
H11 H 0.60300 1.14300 0.52700
H12 H 0.80100 1.31300 0.91200
H13 H 0.65100 1.39700 0.91400
H14 H 0.61000 1.37000 1.19000
H15 H 0.53000 1.27100 1.11500
H16 H 0.68600 1.19200 1.18400
#END
