
#######################################################################
#
#                 Cambridge Crystallographic Data Centre
#                                CCDC
#
#######################################################################
#
# If this CIF has been generated from an entry in the Cambridge
# Structural Database, then it will include bibliographic, chemical,
# crystal, experimental, refinement or atomic coordinate data resulting
# from the CCDC's data processing and validation procedures.
#
#######################################################################

data_CSD_CIF_DECFAT
_audit_creation_date 2006-05-05
_audit_creation_method CSD-ConQuest-V1
_database_code_CSD DECFAT
_database_code_depnum_ccdc_archive 'CCDC 287214'
_chemical_formula_sum 'C20 H26 N1 O1'
_chemical_formula_moiety
;
C20 H26 N1 O1
;
_journal_coden_Cambridge 485
_journal_volume 44
_journal_year 2006
_journal_page_first 1926
_journal_name_full 'J.Polym.Sci.,Part A:Polym.Chem. '
loop_
_publ_author_name
"O.Lagrille"
"N.R.Cameron"
"P.A.Lovell"
"R.Blanchard"
"A.E.Goeta"
"R.Koch"
_chemical_name_systematic
;
2,2,5-Trimethyl-4-(biphenylyl)-3-azahexane-3-oxide
;
_cell_volume   1684.833
_exptl_crystal_colour 'yellow'
_exptl_crystal_density_diffrn 1.169
_exptl_crystal_description 'needle'
_exptl_crystal_preparation 'methanol/water'
_diffrn_ambient_temperature 120
#These two values have been output from a single CSD field.
_refine_ls_R_factor_gt 0.0509
_refine_ls_wR_factor_gt 0.0509
_symmetry_cell_setting monoclinic
_symmetry_space_group_name_H-M 'P 21/c'
_symmetry_Int_Tables_number 14
loop_
_symmetry_equiv_pos_site_id
_symmetry_equiv_pos_as_xyz
1 x,y,z
2 -x,1/2+y,1/2-z
3 -x,-y,-z
4 x,-1/2-y,-1/2+z
_cell_length_a 18.8092(13)
_cell_length_b 5.7541(4)
_cell_length_c 17.1354(12)
_cell_angle_alpha 90
_cell_angle_beta 114.704(1)
_cell_angle_gamma 90
_cell_formula_units_Z 4
loop_
_atom_type_symbol
_atom_type_radius_bond
C 0.68
H 0.23
N 0.68
O 0.68
loop_
_atom_site_label
_atom_site_type_symbol
_atom_site_fract_x
_atom_site_fract_y
_atom_site_fract_z
O1 O 0.32547(8) 0.3792(2) -0.01392(8)
N1 N 0.32082(7) 0.5968(2) -0.03215(8)
C1 C 0.03731(9) 0.9207(3) 0.15623(10)
H1 H 0.0704(10) 1.052(3) 0.1732(11)
C2 C -0.03157(10) 0.9166(3) 0.16781(11)
H2 H -0.0438(10) 1.046(3) 0.1939(11)
C3 C -0.08032(9) 0.7244(3) 0.14232(11)
H3 H -0.1286(11) 0.720(3) 0.1483(12)
C4 C -0.05912(9) 0.5327(3) 0.10760(11)
H4 H -0.0932(11) 0.394(3) 0.0896(12)
C5 C 0.01067(9) 0.5349(3) 0.09786(10)
H5 H 0.0246(9) 0.403(3) 0.0743(10)
C6 C 0.05899(8) 0.7304(3) 0.12012(10)
C7 C 0.12975(9) 0.7393(3) 0.10151(9)
C8 C 0.18096(9) 0.5502(3) 0.11897(10)
H6 H 0.1723(10) 0.411(3) 0.1468(11)
C9 C 0.24545(9) 0.5570(3) 0.0990(1)
H7 H 0.281(1) 0.418(3) 0.1119(11)
C10 C 0.26021(8) 0.7540(3) 0.06025(10)
C11 C 0.20969(9) 0.9427(3) 0.04321(10)
H8 H 0.2182(9) 1.077(3) 0.0170(11)
C12 C 0.14527(9) 0.9358(3) 0.06342(10)
H9 H 0.1089(10) 1.067(3) 0.0481(11)
C13 C 0.33046(9) 0.7647(3) 0.03711(10)
H10 H 0.3322(8) 0.922(3) 0.0147(9)
C14 C 0.40881(9) 0.7269(3) 0.11588(11)
H11 H 0.4073(10) 0.573(3) 0.1434(11)
C15 C 0.47787(11) 0.7222(4) 0.09096(14)
H12 H 0.5279(13) 0.700(4) 0.1428(14)
H13 H 0.4821(13) 0.879(4) 0.0652(15)
H14 H 0.4739(12) 0.590(4) 0.0505(14)
C16 C 0.41999(11) 0.9187(4) 0.18127(13)
H15 H 0.4702(12) 0.894(4) 0.2324(14)
H16 H 0.3751(13) 0.930(4) 0.2004(14)
H17 H 0.4233(12) 1.075(4) 0.1562(14)
C17 C 0.29689(9) 0.6759(3) -0.12323(10)
C18 C 0.28425(11) 0.4637(3) -0.18054(12)
H18 H 0.2431(12) 0.358(4) -0.1778(13)
H19 H 0.3333(12) 0.370(3) -0.1618(12)
H20 H 0.268(1) 0.518(3) -0.2416(13)
C19 C 0.36173(10) 0.8286(3) -0.12796(12)
H21 H 0.3689(10) 0.971(3) -0.0934(11)
H22 H 0.3463(11) 0.883(3) -0.1888(13)
H23 H 0.4103(11) 0.742(3) -0.1094(12)
C20 C 0.2208(1) 0.8152(3) -0.15153(12)
H24 H 0.1789(12) 0.720(4) -0.1481(13)
H25 H 0.2042(11) 0.867(3) -0.2128(13)
H26 H 0.2289(11) 0.957(4) -0.1160(13)
#END
