
#######################################################################
#
#                 Cambridge Crystallographic Data Centre
#                                CCDC
#
#######################################################################
#
# If this CIF has been generated from an entry in the Cambridge
# Structural Database, then it will include bibliographic, chemical,
# crystal, experimental, refinement or atomic coordinate data resulting
# from the CCDC's data processing and validation procedures.
#
#######################################################################

data_CSD_CIF_DECLEF
_audit_creation_date 2017-09-25
_audit_creation_method CSD-ConQuest-V1
_database_code_CSD DECLEF
_database_code_depnum_ccdc_archive 'CCDC 1540159'
_chemical_formula_sum 'C4 H6 N10 O1'
_chemical_formula_moiety
;
C4 H6 N10 O1
;
_journal_coden_Cambridge 440
_journal_volume 41
_journal_year 2017
_journal_page_first 11512
_journal_name_full 'New J.Chem. '
loop_
_publ_author_name
"Qi Wang"
"Tian Lu"
"Chenbin Wang"
"Guijuan Fan"
"Hongquan Yin"
"Fu-Xue Chen"
_chemical_name_systematic
;
2,2'-dimethyl-5,5'-azoxybistetrazole
;
_cell_volume    904.123
_exptl_crystal_colour 'colorless'
_exptl_crystal_density_diffrn 1.544
_exptl_crystal_description 'block'
_diffrn_ambient_temperature 299
#These two values have been output from a single CSD field.
_refine_ls_R_factor_gt 0.0553
_refine_ls_wR_factor_gt 0.0553
_symmetry_cell_setting monoclinic
_symmetry_space_group_name_H-M 'P 21/c'
_symmetry_Int_Tables_number 14
loop_
_symmetry_equiv_pos_site_id
_symmetry_equiv_pos_as_xyz
1 x,y,z
2 -x,1/2+y,1/2-z
3 -x,-y,-z
4 x,-1/2-y,-1/2+z
_cell_length_a 7.5607(8)
_cell_length_b 13.7150(15)
_cell_length_c 8.9269(9)
_cell_angle_alpha 90
_cell_angle_beta 102.388(4)
_cell_angle_gamma 90
_cell_formula_units_Z 4
loop_
_atom_type_symbol
_atom_type_radius_bond
C 0.68
H 0.23
N 0.68
O 0.68
loop_
_atom_site_label
_atom_site_type_symbol
_atom_site_fract_x
_atom_site_fract_y
_atom_site_fract_z
N1 N 0.1792(2) 0.45883(12) -0.05056(18)
N2 N 0.2680(2) 0.43771(11) 0.08270(18)
O1 O 0.2640(2) 0.36221(11) 0.15813(17)
N3 N 0.4852(2) 0.50594(12) 0.29222(18)
N4 N -0.1389(2) 0.33841(14) -0.31465(19)
N5 N 0.0260(2) 0.29798(12) -0.08711(18)
N6 N 0.4059(2) 0.60059(12) 0.08684(19)
C1 C 0.3870(2) 0.51480(13) 0.1526(2)
N7 N -0.0972(2) 0.27080(12) -0.20868(18)
N8 N -0.0393(2) 0.41514(13) -0.2645(2)
C2 C 0.0597(2) 0.38846(14) -0.1264(2)
N9 N 0.5658(2) 0.59227(12) 0.31029(18)
N10 N 0.5226(2) 0.65022(12) 0.1906(2)
C3 C -0.1816(4) 0.17450(18) -0.2228(3)
H1 H -0.26050 0.16830 -0.32210
H2 H -0.25040 0.16670 -0.14490
H3 H -0.08940 0.12530 -0.21080
C4 C 0.6887(3) 0.62194(19) 0.4519(3)
H4 H 0.75250 0.67970 0.43370
H5 H 0.77390 0.57060 0.48660
H6 H 0.62050 0.63510 0.52890
#END
