
#######################################################################
#
#                 Cambridge Crystallographic Data Centre
#                                CCDC
#
#######################################################################
#
# If this CIF has been generated from an entry in the Cambridge
# Structural Database, then it will include bibliographic, chemical,
# crystal, experimental, refinement or atomic coordinate data resulting
# from the CCDC's data processing and validation procedures.
#
#######################################################################

data_CSD_CIF_DECNPH
_audit_creation_date 1975-12-19
_audit_creation_method CSD-ConQuest-V1
_database_code_CSD DECNPH
_chemical_formula_sum 'C16 H16 N4 O4'
_chemical_formula_moiety
;
C16 H16 N4 O4
;
_journal_coeditor_code "IUCr A12300"
_journal_coden_Cambridge 107
_journal_volume 31
_journal_year 1975
_journal_page_first 1975
_journal_name_full 'Acta Crystallogr.,Sect.B:Struct.Crystallogr.Cryst.Chem. '
loop_
_publ_author_name
"J.Potenza"
"D.Mastropaolo"
"D.Gallaher"
"T.Henderson"
_chemical_name_systematic
;
Tetracyclo(5.2.1.0^2,6^.0^4,9^)decan-3-one 2,4-dinitrophenylhydrazone
;
_chemical_melting_point 465.15
_cell_volume    738.806
_exptl_crystal_density_diffrn 1.476
_exptl_special_details
;
Melting point range 465.15-466.15K
ATOMS H(C12) AND H(2C14) HAVE BEEN DELETED

;
_diffrn_ambient_temperature ?
_diffrn_special_details
;
The study was carried out at room temperature,in the range 283-303K

;
#These two values have been output from a single CSD field.
_refine_ls_R_factor_gt 0.052
_refine_ls_wR_factor_gt 0.052
_symmetry_cell_setting triclinic
_symmetry_space_group_name_H-M 'P -1'
_symmetry_Int_Tables_number 2
loop_
_symmetry_equiv_pos_site_id
_symmetry_equiv_pos_as_xyz
1 x,y,z
2 -x,-y,-z
_cell_length_a 7.160(8)
_cell_length_b 11.066(7)
_cell_length_c 10.612(19)
_cell_angle_alpha 81.77
_cell_angle_beta 63.38(6)
_cell_angle_gamma 80.33(5)
_cell_formula_units_Z 2
loop_
_atom_type_symbol
_atom_type_radius_bond
C 0.68
H 0.23
N 0.68
O 0.68
loop_
_atom_site_label
_atom_site_type_symbol
_atom_site_fract_x
_atom_site_fract_y
_atom_site_fract_z
C1 C -0.30020 -0.35950 -0.46860
C2 C -0.75420 0.32470 -0.13600
C3 C -0.56860 0.21590 -0.18230
C4 C -0.51170 0.20980 -0.05830
C5 C -0.72850 0.18110 0.06930
C6 C -0.82880 0.31120 0.11950
C7 C -0.49500 0.34510 -0.05670
C8 C -0.72360 0.38590 -0.02200
C9 C -0.17520 -0.26970 -0.54440
C10 C -0.48940 -0.33440 -0.34900
C11 C -0.42250 -0.12190 -0.37780
C12 C -0.23540 -0.15100 -0.50230
C13 C -0.54710 -0.21890 -0.30530
C14 C -0.68160 0.10400 -0.14110
C15 C -0.95060 0.25660 -0.06010
C16 C -0.85530 0.13970 -0.00130
H1 H -0.40740 0.04860 -0.36960
H2 H -0.76340 0.38180 -0.20940
H3 H -0.45800 0.23320 -0.28300
H4 H -0.72020 0.11490 0.13590
H5 H -0.99190 0.32370 0.15360
H6 H -0.40590 0.38750 -0.16340
H7 H -0.45450 0.35650 0.02930
H8 H -0.75610 0.47580 -0.03160
H9 H -0.05760 -0.28180 -0.62270
H10 H -0.58540 -0.40090 -0.30030
H11 H -0.67660 -0.20330 -0.22890
H12 H -1.00910 0.22890 -0.12520
H13 H -1.06700 0.30400 0.01130
H14 H -0.96380 0.08170 0.05550
N1 N -0.23320 -0.48470 -0.51180
N2 N -0.09960 -0.05920 -0.59100
N3 N -0.48150 -0.00990 -0.32680
N4 N -0.65400 0.00330 -0.19480
O1 O -0.34150 -0.56540 -0.43710
O2 O -0.07280 -0.50310 -0.62080
O3 O 0.06460 -0.09130 -0.69210
O4 O -0.15240 0.04880 -0.56190
#END
