
#######################################################################
#
#                 Cambridge Crystallographic Data Centre
#                                CCDC
#
#######################################################################
#
# If this CIF has been generated from an entry in the Cambridge
# Structural Database, then it will include bibliographic, chemical,
# crystal, experimental, refinement or atomic coordinate data resulting
# from the CCDC's data processing and validation procedures.
#
#######################################################################

data_CSD_CIF_DEFWUH
_audit_creation_date 2006-05-05
_audit_creation_method CSD-ConQuest-V1
_database_code_CSD DEFWUH
_database_code_depnum_ccdc_archive 'CCDC 601121'
_chemical_formula_sum 'C19 H9 N5 O8'
_chemical_formula_moiety
;
C19 H9 N5 O8
;
_journal_coeditor_code "IUCr BT6807"
_journal_coden_Cambridge 1370
_journal_volume 62
_journal_year 2006
_journal_page_first o885
_journal_name_full 'Acta Crystallogr.,Sect.E:Struct.Rep.Online '
loop_
_publ_author_name
"A.S.Batsanov"
"I.F.Perepichka"
_chemical_name_systematic
;
Ethyl 9-dicyanomethylene-2,5,7-trinitrofluorene-4-carboxylate
;
_chemical_melting_point 543
_cell_volume   1791.570
_exptl_crystal_colour 'yellow'
_exptl_crystal_density_diffrn 1.615
_exptl_special_details
;
Melting point range 543-545K

;
_exptl_crystal_description 'prism'
_exptl_crystal_preparation 'acetonitrile'
_diffrn_ambient_temperature 110
#These two values have been output from a single CSD field.
_refine_ls_R_factor_gt 0.0665
_refine_ls_wR_factor_gt 0.0665
_symmetry_cell_setting monoclinic
_symmetry_space_group_name_H-M 'P 21/c'
_symmetry_Int_Tables_number 14
loop_
_symmetry_equiv_pos_site_id
_symmetry_equiv_pos_as_xyz
1 x,y,z
2 -x,1/2+y,1/2-z
3 -x,-y,-z
4 x,-1/2-y,-1/2+z
_cell_length_a 19.481(2)
_cell_length_b 8.620(1)
_cell_length_c 10.814(1)
_cell_angle_alpha 90
_cell_angle_beta 99.40(1)
_cell_angle_gamma 90
_cell_formula_units_Z 4
loop_
_atom_type_symbol
_atom_type_radius_bond
C 0.68
H 0.23
N 0.68
O 0.68
loop_
_atom_site_label
_atom_site_type_symbol
_atom_site_fract_x
_atom_site_fract_y
_atom_site_fract_z
O1 O 0.53613(17) 0.2322(4) 0.2237(4)
O2 O 0.55693(17) 0.2996(4) 0.4205(3)
O3 O 0.34804(18) 0.4135(4) 0.6081(3)
O4 O 0.28475(17) 0.5939(4) 0.5031(3)
O5 O 0.21531(18) 0.2915(4) 0.4372(3)
O6 O 0.13270(17) 0.4589(4) 0.4749(3)
O7 O -0.00294(18) 0.6632(5) 0.0855(4)
O8 O 0.04476(17) 0.6932(5) -0.0813(4)
N1 N 0.5196(2) 0.2939(5) 0.3175(5)
N2 N 0.3258(2) 0.4838(5) 0.5107(4)
N3 N 0.0466(2) 0.6547(5) 0.0287(4)
N4 N 0.4359(2) 0.4704(5) -0.1171(4)
N5 N 0.2283(2) 0.6451(5) -0.2394(4)
C1 C 0.4162(2) 0.4011(6) 0.1842(5)
H1 H 0.43890 0.39050 0.11330
C2 C 0.4497(2) 0.3643(5) 0.3044(5)
C3 C 0.4208(3) 0.3903(6) 0.4109(5)
H2 H 0.44710 0.37470 0.49200
C4 C 0.3523(2) 0.4397(5) 0.3960(5)
C5 C 0.1783(3) 0.4889(6) 0.2876(5)
C6 C 0.1152(2) 0.5433(6) 0.2194(5)
H3 H 0.07410 0.54400 0.25610
C7 C 0.1136(2) 0.5954(6) 0.0985(5)
C8 C 0.1697(2) 0.5900(6) 0.0349(5)
H4 H 0.16570 0.62000 -0.05060
C9 C 0.3006(2) 0.5089(6) 0.0615(5)
C10 C 0.3476(2) 0.4543(5) 0.1728(4)
C11 C 0.3132(2) 0.4608(5) 0.2780(4)
C12 C 0.2382(3) 0.4980(6) 0.2302(5)
C13 C 0.2325(2) 0.5381(6) 0.1038(5)
C14 C 0.3158(2) 0.5339(6) -0.0545(5)
C15 C 0.3831(3) 0.4987(6) -0.0877(5)
C16 C 0.2665(3) 0.5949(6) -0.1573(5)
C17 C 0.1782(2) 0.4036(6) 0.4085(5)
C18 C 0.1288(3) 0.3746(6) 0.5921(4)
H5 H 0.17530 0.37020 0.64500
H6 H 0.11230 0.26710 0.57340
C19 C 0.0786(3) 0.4606(7) 0.6594(5)
H7 H 0.09520 0.56700 0.67660
H8 H 0.07530 0.40810 0.73850
H9 H 0.03270 0.46290 0.60660
#END
