
#######################################################################
#
#                 Cambridge Crystallographic Data Centre
#                                CCDC
#
#######################################################################
#
# If this CIF has been generated from an entry in the Cambridge
# Structural Database, then it will include bibliographic, chemical,
# crystal, experimental, refinement or atomic coordinate data resulting
# from the CCDC's data processing and validation procedures.
#
#######################################################################

data_CSD_CIF_DEJVEW
_audit_creation_date 2017-09-28
_audit_creation_method CSD-ConQuest-V1
_database_code_CSD DEJVEW
_database_code_depnum_ccdc_archive 'CCDC 1492181'
_chemical_formula_sum 'C13 H20 N2 O4'
_chemical_formula_moiety
;
C13 H20 N2 O4
;
_journal_coden_Cambridge 154
_journal_volume 70
_journal_year 2017
_journal_page_first 1106
_journal_name_full 'Aust.J.Chem. '
loop_
_publ_author_name
"C.Edwards"
"P.C.Healy"
"W.Ken Busfield"
"E.Rizzardo"
"S.H.Thang"
"I.D.Jenkins"
_chemical_name_systematic
;
5-(1,4-diazaspiro[4.5]dec-1-en-3-oxo-2-yl)pentanoic acid 1-oxide
;
_chemical_melting_point 412
_cell_volume   1380.025
_exptl_crystal_colour 'colorless'
_exptl_crystal_density_diffrn 1.291
_exptl_special_details
;
Melting point range 412-413K

;
_exptl_crystal_description 'prismatic'
_diffrn_ambient_temperature 295.2
#These two values have been output from a single CSD field.
_refine_ls_R_factor_gt 0.0519
_refine_ls_wR_factor_gt 0.0519
_symmetry_cell_setting monoclinic
_symmetry_space_group_name_H-M 'P 21/a'
_symmetry_Int_Tables_number 14
loop_
_symmetry_equiv_pos_site_id
_symmetry_equiv_pos_as_xyz
1 x,y,z
2 1/2-x,1/2+y,-z
3 -x,-y,-z
4 -1/2+x,-1/2-y,z
_cell_length_a 21.215(5)
_cell_length_b 10.627(5)
_cell_length_c 6.129(2)
_cell_angle_alpha 90
_cell_angle_beta 92.90(2)
_cell_angle_gamma 90
_cell_formula_units_Z 4
loop_
_atom_type_symbol
_atom_type_radius_bond
C 0.68
H 0.23
N 0.68
O 0.68
loop_
_atom_site_label
_atom_site_type_symbol
_atom_site_fract_x
_atom_site_fract_y
_atom_site_fract_z
O1 O 0.09534(10) 0.42297(18) 0.7732(4)
O2 O 0.08421(8) 0.03706(17) 0.4160(3)
O3 O 0.34212(11) 0.5673(3) 0.0704(4)
O4 O 0.30549(10) 0.4786(2) -0.2314(3)
N1 N 0.07854(10) 0.3162(2) 0.6967(4)
N2 N 0.01699(9) 0.14693(19) 0.6276(3)
C1 C 0.01492(11) 0.2644(2) 0.7473(4)
C2 C 0.07089(11) 0.1297(2) 0.5286(4)
C3 C 0.11062(11) 0.2402(2) 0.5758(4)
C4 C -0.03648(13) 0.3514(2) 0.6571(5)
H1 H -0.03430 0.35790 0.49980
H2 H -0.03040 0.43480 0.71900
C5 C -0.10101(13) 0.3009(3) 0.7129(6)
H3 H -0.13350 0.35970 0.66220
H4 H -0.10870 0.22140 0.63850
C6 C -0.10441(14) 0.2820(3) 0.9579(6)
H5 H -0.14520 0.24700 0.98900
H6 H -0.10020 0.36270 1.03120
C7 C -0.05248(13) 0.1939(3) 1.0458(5)
H7 H -0.05450 0.18660 1.20310
H8 H -0.05890 0.11080 0.98290
C8 C 0.01206(12) 0.2427(3) 0.9907(4)
H9 H 0.02060 0.32110 1.06790
H10 H 0.04420 0.18230 1.03820
C9 C 0.17487(12) 0.2674(3) 0.5033(5)
H11 H 0.19460 0.18910 0.46280
H12 H 0.20000 0.30320 0.62460
C10 C 0.17498(13) 0.3558(3) 0.3148(5)
H13 H 0.15470 0.43350 0.35610
H14 H 0.14960 0.31950 0.19460
C11 C 0.23931(12) 0.3872(3) 0.2345(5)
H15 H 0.26620 0.41550 0.35760
H16 H 0.25780 0.31100 0.17840
C12 C 0.23878(14) 0.4840(4) 0.0634(6)
H17 H 0.22120 0.56030 0.12230
H18 H 0.21040 0.45640 -0.05610
C13 C 0.30061(13) 0.5162(3) -0.0282(5)
H19 H -0.0125(12) 0.098(2) 0.620(4)
H20 H 0.3430(19) 0.505(3) -0.279(6)
#END
