
#######################################################################
#
#                 Cambridge Crystallographic Data Centre
#                                CCDC
#
#######################################################################
#
# If this CIF has been generated from an entry in the Cambridge
# Structural Database, then it will include bibliographic, chemical,
# crystal, experimental, refinement or atomic coordinate data resulting
# from the CCDC's data processing and validation procedures.
#
#######################################################################

data_CSD_CIF_DEJWIY
_audit_creation_date 1986-07-24
_audit_creation_method CSD-ConQuest-V1
_database_code_CSD DEJWIY
_chemical_formula_sum 'C12 H11 N3 O9'
_chemical_formula_moiety
;
C12 H11 N3 O9
;
_journal_coden_Cambridge 388
_journal_volume 20
_journal_year 1984
_journal_page_first 2033
_journal_name_full 'Zh.Org.Khim.(Russ.)(Russ.J.Org.Chem.) '
loop_
_publ_author_name
"M.P.Egorov"
"V.K.Bel'skii"
"E.S.Petrov"
"M.I.Terekhova"
"I.P.Beletskaya"
_chemical_name_systematic
;
2,4,6-Trinitrophenyl-acetoacetic acid ethyl ether
;
_cell_volume   1524.333
_exptl_crystal_density_diffrn 1.49
_exptl_special_details
;
The following pairs of bonds have been interchanged in the bond table; C1-C2 
and C1-C6, C2-C3 and C5-C6, C3-C4 and C4-C5, N1-C2 and N3-C6, N1-O1 and 
N3-O5, N1-O2 and N3-O6
;
_diffrn_ambient_temperature ?
_diffrn_special_details
;
The study was carried out at room temperature,in the range 283-303K

;
#These two values have been output from a single CSD field.
_refine_ls_R_factor_gt 0.044
_refine_ls_wR_factor_gt 0.044
_symmetry_cell_setting monoclinic
_symmetry_space_group_name_H-M 'P 1 1 21/n'
_symmetry_Int_Tables_number 14
loop_
_symmetry_equiv_pos_site_id
_symmetry_equiv_pos_as_xyz
1 x,y,z
2 1/2-x,1/2-y,1/2+z
3 -x,-y,-z
4 -1/2+x,-1/2+y,-1/2-z
_cell_length_a 7.787(1)
_cell_length_b 13.136(2)
_cell_length_c 15.422(3)
_cell_angle_alpha 90
_cell_angle_beta 90
_cell_angle_gamma 104.92(1)
_cell_formula_units_Z 4
loop_
_atom_type_symbol
_atom_type_radius_bond
C 0.68
H 0.23
N 0.68
O 0.68
loop_
_atom_site_label
_atom_site_type_symbol
_atom_site_fract_x
_atom_site_fract_y
_atom_site_fract_z
O1 O 0.37513(65) 0.18290(36) 0.56444(51)
O2 O 0.55068(75) 0.28082(52) 0.64672(31)
O3 O 0.08154(45) 0.60420(24) 0.55429(22)
O4 O 0.35200(54) 0.60536(28) 0.52617(29)
O5 O -0.19199(46) 0.21073(28) 0.77253(26)
O6 O -0.17835(57) 0.37242(32) 0.79310(28)
O7 O -0.04585(43) -0.01200(22) 0.71273(22)
O8 O -0.07465(42) 0.10703(23) 0.61325(22)
O9 O 0.19023(42) 0.05376(22) 0.83198(22)
N1 N 0.40702(67) 0.24943(39) 0.61192(37)
N2 N 0.20773(69) 0.56654(30) 0.55754(27)
N3 N -0.12444(50) 0.30394(31) 0.76047(26)
C1 C 0.14199(56) 0.27221(30) 0.68673(27)
C2 C 0.28042(55) 0.31364(31) 0.63012(29)
C3 C 0.30624(59) 0.40751(34) 0.58849(30)
C4 C 0.18553(53) 0.46552(30) 0.60334(27)
C5 C 0.04434(57) 0.43177(32) 0.65852(28)
C6 C 0.02563(53) 0.33608(32) 0.69971(27)
C7 C 0.11868(52) 0.16632(30) 0.72711(28)
C8 C -0.00705(62) 0.07829(34) 0.68555(32)
C9 C -0.21161(71) 0.02837(41) 0.56832(37)
C10 C -0.24955(77) 0.07821(47) 0.48717(38)
C11 C 0.20814(59) 0.14995(33) 0.79783(31)
C12 C 0.3352(68) 0.23428(35) 0.84819(33)
H1 H 0.40179 0.43142 0.54925
H2 H -0.03657 0.47344 0.66971
H3 H -0.32137 0.00817 0.60825
H4 H -0.17553 -0.03694 0.55954
H5 H -0.29510 0.14332 0.50705
H6 H -0.14635 0.08183 0.44997
H7 H -0.34083 0.03062 0.45426
H8 H 0.26909 0.22946 0.89671
H9 H 0.44255 0.21667 0.83596
H10 H 0.34256 0.30250 0.82849
H11 H 0.09470 0.00680 0.80135
#END
