
#######################################################################
#
#                 Cambridge Crystallographic Data Centre
#                                CCDC
#
#######################################################################
#
# If this CIF has been generated from an entry in the Cambridge
# Structural Database, then it will include bibliographic, chemical,
# crystal, experimental, refinement or atomic coordinate data resulting
# from the CCDC's data processing and validation procedures.
#
#######################################################################

data_CSD_CIF_DEJWEU
_audit_creation_date 1986-07-24
_audit_creation_method CSD-ConQuest-V1
_database_code_CSD DEJWEU
_chemical_formula_sum 'C12 H12 N2 O7'
_chemical_formula_moiety
;
C12 H12 N2 O7
;
_journal_coden_Cambridge 388
_journal_volume 20
_journal_year 1984
_journal_page_first 2033
_journal_name_full 'Zh.Org.Khim.(Russ.)(Russ.J.Org.Chem.) '
loop_
_publ_author_name
"M.P.Egorov"
"V.K.Bel'skii"
"E.S.Petrov"
"M.I.Terekhova"
"I.P.Beletskaya"
_chemical_name_systematic
;
2,4-Dinitrophenyl-acetoacetic acid ethyl ether
;
_cell_volume   1362.240
_exptl_crystal_density_diffrn 1.3
_exptl_special_details
;
dc(=1.44) inconsistent with dx

;
_diffrn_ambient_temperature ?
_diffrn_special_details
;
The study was carried out at room temperature,in the range 283-303K

;
#These two values have been output from a single CSD field.
_refine_ls_R_factor_gt 0.031
_refine_ls_wR_factor_gt 0.031
_symmetry_cell_setting monoclinic
_symmetry_space_group_name_H-M 'P 1 1 21/a'
_symmetry_Int_Tables_number 14
loop_
_symmetry_equiv_pos_site_id
_symmetry_equiv_pos_as_xyz
1 x,y,z
2 1/2-x,-y,1/2+z
3 -x,-y,-z
4 -1/2+x,y,-1/2-z
_cell_length_a 15.400(2)
_cell_length_b 8.210(1)
_cell_length_c 11.447(2)
_cell_angle_alpha 90
_cell_angle_beta 90
_cell_angle_gamma 109.74(1)
_cell_formula_units_Z 4
loop_
_atom_type_symbol
_atom_type_radius_bond
C 0.68
H 0.23
N 0.68
O 0.68
loop_
_atom_site_label
_atom_site_type_symbol
_atom_site_fract_x
_atom_site_fract_y
_atom_site_fract_z
O1 O 0.29356(17) 0.24644(33) 0.29400(23)
O2 O 0.29144(15) 0.48319(30) 0.37239(22)
O3 O 0.14398(24) 0.10883(40) -0.07734(25)
O4 O 0.01806(22) 0.16177(42) -0.10906(24)
O5 O 0.11622(16) 0.44609(27) 0.60567(18)
O6 O 0.10987(15) 0.23070(26) 0.48175(19)
O7 O 0.11292(15) 0.72669(27) 0.52089(20)
N1 N 0.25969(19) 0.35970(39) 0.30832(25)
N2 N 0.08478(27) 0.16867(42) -0.04898(28)
C1 C 0.10971(21) 0.41417(39) 0.28409(28)
C2 C 0.17557(21) 0.34569(38) 0.24076(27)
C3 C 0.16780(22) 0.26408(38) 0.13422(27)
C4 C 0.09279(24) 0.25360(42) 0.06645(27)
C5 C 0.02570(23) 0.31816(46) 0.10281(30)
C6 C 0.03441(22) 0.39585(44) 0.21103(30)
C7 C 0.11333(20) 0.49321(38) 0.40095(27)
C8 C 0.11406(20) 0.39261(37) 0.50510(27)
C9 C 0.11352(29) 0.11978(45) 0.58140(32)
C10 C 0.20934(32) 0.13973(52) 0.60617(40)
C11 C 0.11321(21) 0.65774(40) 0.41525(29)
C12 C 0.11656(26) 0.78268(45) 0.32072(33)
H1 H 0.21452 0.21641 0.10979
H2 H -0.02828 0.30208 0.05617
H3 H -0.01204 0.44150 0.23680
H4 H 0.07508 -0.01020 0.56318
H5 H 0.08002 0.13766 0.64871
H6 H 0.24720 0.11723 0.53578
H7 H 0.11198 0.73190 0.24123
H8 H 0.17136 0.88679 0.33367
H9 H 0.11882 0.63863 0.57810
H10 H 0.06499 0.81187 0.31247
H11 H 0.20683 0.04724 0.67672
H12 H 0.24470 0.25350 0.63035
#END
