
#######################################################################
#
#                 Cambridge Crystallographic Data Centre
#                                CCDC
#
#######################################################################
#
# If this CIF has been generated from an entry in the Cambridge
# Structural Database, then it will include bibliographic, chemical,
# crystal, experimental, refinement or atomic coordinate data resulting
# from the CCDC's data processing and validation procedures.
#
#######################################################################

data_CSD_CIF_DEJWAQ
_audit_creation_date 2000-02-23
_audit_creation_method CSD-ConQuest-V1
_database_code_CSD DEJWAQ
_database_code_depnum_ccdc_journal 207/306
_chemical_formula_sum 'C14 H13 N3 O2'
_chemical_formula_moiety
;
C14 H13 N3 O2
;
_journal_coden_Cambridge 207
_journal_year 1999
_journal_page_first 817
_journal_name_full 'J.Chem.Soc.,Perkin Trans.1 '
loop_
_publ_author_name
"G.Tennant"
"C.J.Wallis"
"G.W.Weaver"
_chemical_name_systematic
;
1-Ethyl-2-methyl-7-phenyl-1H-imidazo(4,5-c)(1,2)oxazin-6-one
;
_chemical_melting_point 506.15
_cell_volume   1280.558
_exptl_crystal_colour 'colorless'
_exptl_crystal_density_diffrn 1.324
_exptl_special_details
;
Melting point range 506.15-507.15K

;
_exptl_crystal_description 'lath'
_exptl_crystal_preparation 'ethanol'
_diffrn_ambient_temperature ?
_diffrn_special_details
;
The study was carried out at room temperature,in the range 283-303K

;
#These two values have been output from a single CSD field.
_refine_ls_R_factor_gt 0.0564
_refine_ls_wR_factor_gt 0.0564
_symmetry_cell_setting monoclinic
_symmetry_space_group_name_H-M 'P 21/n'
_symmetry_Int_Tables_number 14
loop_
_symmetry_equiv_pos_site_id
_symmetry_equiv_pos_as_xyz
1 x,y,z
2 1/2-x,1/2+y,1/2-z
3 -x,-y,-z
4 -1/2+x,-1/2-y,-1/2+z
_cell_length_a 12.1835(11)
_cell_length_b 6.4506(5)
_cell_length_c 16.8724(14)
_cell_angle_alpha 90
_cell_angle_beta 105.046(7)
_cell_angle_gamma 90
_cell_formula_units_Z 4
loop_
_atom_type_symbol
_atom_type_radius_bond
C 0.68
H 0.23
N 0.68
O 0.68
loop_
_atom_site_label
_atom_site_type_symbol
_atom_site_fract_x
_atom_site_fract_y
_atom_site_fract_z
N1 N 0.6747(2) 0.2434(4) 1.0634(2)
C1 C 0.7991(3) 0.2425(6) 1.0830(2)
C2 C 0.8478(3) 0.4495(6) 1.0698(3)
C3 C 0.6098(3) 0.2663(5) 1.1188(2)
C4 C 0.6590(3) 0.2809(6) 1.2084(2)
N2 N 0.4999(2) 0.2720(4) 1.0859(2)
C5 C 0.4906(2) 0.2535(5) 1.0027(2)
N3 N 0.3924(2) 0.2508(4) 0.9491(2)
O1 O 0.4027(2) 0.2323(3) 0.8677(1)
C6 C 0.5039(3) 0.2160(5) 0.8453(2)
O2 O 0.4936(2) 0.2060(4) 0.7725(2)
C7 C 0.6106(2) 0.2120(5) 0.9094(2)
C8 C 0.7164(3) 0.1788(5) 0.8837(2)
C9 C 0.7734(3) -0.0084(6) 0.9002(3)
C10 C 0.8714(4) -0.0408(8) 0.8783(3)
C11 C 0.9149(4) 0.1092(12) 0.8395(3)
C12 C 0.8600(4) 0.294(1) 0.8195(3)
C13 C 0.7602(3) 0.3297(7) 0.8428(2)
C14 C 0.5996(2) 0.2349(5) 0.9861(2)
H1 H 0.82340 0.14010 1.04900
H2 H 0.82910 0.20170 1.13980
H3 H 0.92920 0.44080 1.08400
H4 H 0.82480 0.55140 1.10380
H5 H 0.82030 0.48890 1.01330
H6 H 0.61210 0.36850 1.23190
H7 H 0.73410 0.33850 1.21930
H8 H 0.66280 0.14510 1.23230
H9 H 0.74410 -0.11310 0.92670
H10 H 0.90900 -0.16700 0.89010
H11 H 0.98330 0.08620 0.82610
H12 H 0.88890 0.39440 0.79090
H13 H 0.72290 0.45600 0.83080
#END
