
#######################################################################
#
#                 Cambridge Crystallographic Data Centre
#                                CCDC
#
#######################################################################
#
# If this CIF has been generated from an entry in the Cambridge
# Structural Database, then it will include bibliographic, chemical,
# crystal, experimental, refinement or atomic coordinate data resulting
# from the CCDC's data processing and validation procedures.
#
#######################################################################

data_CSD_CIF_DEKYOI
_audit_creation_date 2006-09-26
_audit_creation_method CSD-ConQuest-V1
_database_code_CSD DEKYOI
_database_code_depnum_ccdc_archive 'CCDC 194928'
_chemical_formula_sum 'C8 H7 N1 O5'
_chemical_formula_moiety
;
C8 H7 N1 O5
;
_journal_coden_Cambridge 119
_journal_volume 789
_journal_year 2006
_journal_page_first 81
_journal_name_full 'J.Mol.Struct. '
loop_
_publ_author_name
"M.West-Nielsen"
"P.M.Dominiak"
"K.Wozniak"
"P.E.Hansen"
_chemical_name_systematic
;
2,4-Dihydroxy-5-nitroacetophenone
;
_cell_volume    835.874
_exptl_crystal_density_diffrn 1.567
_diffrn_ambient_temperature 293
#These two values have been output from a single CSD field.
_refine_ls_R_factor_gt 0.0472
_refine_ls_wR_factor_gt 0.0472
_symmetry_cell_setting monoclinic
_symmetry_space_group_name_H-M 'P 21/n'
_symmetry_Int_Tables_number 14
loop_
_symmetry_equiv_pos_site_id
_symmetry_equiv_pos_as_xyz
1 x,y,z
2 1/2-x,1/2+y,1/2-z
3 -x,-y,-z
4 -1/2+x,-1/2-y,-1/2+z
_cell_length_a 4.6800(9)
_cell_length_b 10.360(2)
_cell_length_c 17.240(3)
_cell_angle_alpha 90
_cell_angle_beta 90.18(3)
_cell_angle_gamma 90
_cell_formula_units_Z 4
loop_
_atom_type_symbol
_atom_type_radius_bond
C 0.68
H 0.23
N 0.68
O 0.68
loop_
_atom_site_label
_atom_site_type_symbol
_atom_site_fract_x
_atom_site_fract_y
_atom_site_fract_z
C1 C 0.2013(6) 0.6435(2) 0.42221(13)
C2 C 0.6217(5) 0.8337(2) 0.42040(13)
C3 C 0.5191(5) 0.7868(2) 0.35002(12)
O1 O 0.1853(4) 0.64263(18) 0.28756(11)
O2 O 0.5339(4) 0.78913(19) 0.21440(9)
C4 C 0.5142(5) 0.7885(2) 0.49015(12)
N1 N 0.6281(5) 0.8431(2) 0.56060(12)
O3 O 0.5173(5) 0.8138(2) 0.62285(10)
O4 O 0.1798(5) 0.6451(2) 0.55626(11)
C5 C 0.6275(5) 0.8351(2) 0.27556(13)
C6 C 0.3040(5) 0.6898(2) 0.35241(13)
C7 C 0.3006(6) 0.6925(2) 0.49169(13)
C8 C 0.8429(7) 0.9397(3) 0.27230(17)
O5 O 0.8270(5) 0.9186(2) 0.55679(11)
H1 H 0.780(6) 0.903(3) 0.4215(13)
H2 H 0.047(5) 0.564(3) 0.4229(13)
H3 H 0.991(9) 0.930(4) 0.310(2)
H4 H 0.759(9) 1.019(4) 0.282(2)
H5 H 0.276(8) 0.678(3) 0.248(2)
H6 H 0.262(9) 0.689(4) 0.594(2)
H7 H 0.923(8) 0.947(3) 0.221(2)
#END
