
#######################################################################
#
#                 Cambridge Crystallographic Data Centre
#                                CCDC
#
#######################################################################
#
# If this CIF has been generated from an entry in the Cambridge
# Structural Database, then it will include bibliographic, chemical,
# crystal, experimental, refinement or atomic coordinate data resulting
# from the CCDC's data processing and validation procedures.
#
#######################################################################

data_CSD_CIF_DEKYIC01
_audit_creation_date 2008-08-01
_audit_creation_method CSD-ConQuest-V1
_database_code_CSD DEKYIC01
_database_code_depnum_ccdc_archive 'CCDC 604882'
_chemical_formula_sum 'C9 H9 N1 O5'
_chemical_formula_moiety
;
C9 H9 N1 O5
;
_journal_coden_Cambridge 119
_journal_volume 844
_journal_year 2007
_journal_page_first 77
_journal_name_full 'J.Mol.Struct. '
loop_
_publ_author_name
"A.Filarowski"
"A.Kochel"
"P.E.Hansen"
"A.Urbanowicz"
"K.Szymborska"
_chemical_name_systematic
;
2-Hydroxy-4-methoxy-5-nitroacetophenone
;
_cell_volume   1839.487
_exptl_crystal_colour 'yellow'
_exptl_crystal_density_diffrn 1.525
_exptl_crystal_description 'prism'
_exptl_crystal_preparation 'methanol'
_diffrn_ambient_temperature 100
#These two values have been output from a single CSD field.
_refine_ls_R_factor_gt 0.0668
_refine_ls_wR_factor_gt 0.0668
_symmetry_cell_setting orthorhombic
_symmetry_space_group_name_H-M 'P b c a'
_symmetry_Int_Tables_number 61
loop_
_symmetry_equiv_pos_site_id
_symmetry_equiv_pos_as_xyz
1 x,y,z
2 1/2-x,-y,1/2+z
3 1/2+x,1/2-y,-z
4 -x,1/2+y,1/2-z
5 -x,-y,-z
6 -1/2+x,y,-1/2-z
7 -1/2-x,-1/2+y,z
8 x,-1/2-y,-1/2+z
_cell_length_a 19.649(2)
_cell_length_b 13.8602(15)
_cell_length_c 6.7544(8)
_cell_angle_alpha 90
_cell_angle_beta 90
_cell_angle_gamma 90
_cell_formula_units_Z 8
loop_
_atom_type_symbol
_atom_type_radius_bond
C 0.68
H 0.23
N 0.68
O 0.68
loop_
_atom_site_label
_atom_site_type_symbol
_atom_site_fract_x
_atom_site_fract_y
_atom_site_fract_z
C1 C 0.25499(11) 0.29712(16) 0.3657(3)
C2 C 0.28476(11) 0.20415(16) 0.3497(3)
C3 C 0.35417(12) 0.19362(17) 0.3126(3)
C4 C 0.39608(10) 0.27357(16) 0.2898(3)
C5 C 0.36645(11) 0.36546(16) 0.3111(3)
C6 C 0.29757(11) 0.37659(18) 0.3477(3)
C7 C 0.18140(11) 0.30673(16) 0.4042(3)
C8 C 0.14820(13) 0.40425(18) 0.3930(4)
C9 C 0.49524(13) 0.17457(18) 0.2524(4)
N1 N 0.40718(9) 0.45365(13) 0.2980(3)
O1 O 0.24754(9) 0.12305(12) 0.3674(2)
O2 O 0.14746(7) 0.23436(11) 0.4464(2)
O3 O 0.46328(7) 0.26863(10) 0.2556(2)
O4 O 0.45630(8) 0.45561(11) 0.1855(2)
O5 O 0.38937(7) 0.52279(11) 0.3997(2)
H1 H 0.369(1) 0.1350(15) 0.305(3)
H2 H 0.2818(9) 0.4398(15) 0.360(3)
H3 H 0.4879(11) 0.1421(16) 0.384(4)
H4 H 0.4770(11) 0.1362(16) 0.141(4)
H5 H 0.1528(13) 0.4298(19) 0.259(4)
H6 H 0.1705(12) 0.4492(18) 0.483(4)
H7 H 0.0999(14) 0.3993(17) 0.421(4)
H8 H 0.2063(13) 0.1462(19) 0.397(4)
H9 H 0.5406(13) 0.1886(16) 0.228(3)
#END
