
#######################################################################
#
#                 Cambridge Crystallographic Data Centre
#                                CCDC
#
#######################################################################
#
# If this CIF has been generated from an entry in the Cambridge
# Structural Database, then it will include bibliographic, chemical,
# crystal, experimental, refinement or atomic coordinate data resulting
# from the CCDC's data processing and validation procedures.
#
#######################################################################

data_CSD_CIF_DEKYIC
_audit_creation_date 2006-09-26
_audit_creation_method CSD-ConQuest-V1
_database_code_CSD DEKYIC
_database_code_depnum_ccdc_archive 'CCDC 194927'
_chemical_formula_sum 'C9 H9 N1 O5'
_chemical_formula_moiety
;
C9 H9 N1 O5
;
_journal_coden_Cambridge 119
_journal_volume 789
_journal_year 2006
_journal_page_first 81
_journal_name_full 'J.Mol.Struct. '
loop_
_publ_author_name
"M.West-Nielsen"
"P.M.Dominiak"
"K.Wozniak"
"P.E.Hansen"
_chemical_name_systematic
;
2-Hydroxy-4-methoxy-5-nitroacetophenone
;
_cell_volume   1909.774
_exptl_crystal_density_diffrn 1.469
_diffrn_ambient_temperature 293
#These two values have been output from a single CSD field.
_refine_ls_R_factor_gt 0.0564
_refine_ls_wR_factor_gt 0.0564
_symmetry_cell_setting orthorhombic
_symmetry_space_group_name_H-M 'P b c a'
_symmetry_Int_Tables_number 61
loop_
_symmetry_equiv_pos_site_id
_symmetry_equiv_pos_as_xyz
1 x,y,z
2 1/2-x,-y,1/2+z
3 -x,1/2+y,1/2-z
4 1/2+x,1/2-y,-z
5 -x,-y,-z
6 -1/2+x,y,-1/2-z
7 x,-1/2-y,-1/2+z
8 -1/2-x,-1/2+y,z
_cell_length_a 13.976(3)
_cell_length_b 6.9010(14)
_cell_length_c 19.801(4)
_cell_angle_alpha 90
_cell_angle_beta 90
_cell_angle_gamma 90
_cell_formula_units_Z 8
loop_
_atom_type_symbol
_atom_type_radius_bond
C 0.68
H 0.23
N 0.68
O 0.68
loop_
_atom_site_label
_atom_site_type_symbol
_atom_site_fract_x
_atom_site_fract_y
_atom_site_fract_z
O1 O 0.26809(17) 0.0762(4) 0.64923(11)
O2 O 0.37795(14) 0.1410(4) 0.74967(13)
O3 O 0.23237(14) 0.2374(3) 0.96287(10)
O4 O 0.04706(17) 0.3121(5) 0.95456(15)
O5 O -0.01788(17) 0.1070(5) 0.88949(14)
N1 N 0.05019(17) 0.2031(4) 0.90661(13)
C1 C 0.20587(19) 0.1435(4) 0.75611(14)
C2 C 0.29719(19) 0.1570(4) 0.78665(15)
C3 C 0.3071(2) 0.1888(4) 0.85488(15)
C4 C 0.22812(19) 0.2076(4) 0.89611(14)
C5 C 0.13702(18) 0.1904(4) 0.86654(14)
C6 C 0.1267(2) 0.1593(4) 0.79848(15)
C7 C 0.1961(2) 0.1105(5) 0.68339(15)
C8 C 0.1008(3) 0.1192(9) 0.6497(2)
C9 C 0.3251(3) 0.2406(8) 0.9955(2)
H1 H 0.357(2) 0.121(5) 0.708(2)
H2 H 0.367(2) 0.198(4) 0.8721(13)
H3 H 0.064(2) 0.148(3) 0.7804(12)
H4 H 0.099(3) 0.116(6) 0.606(2)
H5 H 0.070(4) 0.238(8) 0.657(3)
H6 H 0.052(4) 0.026(9) 0.670(3)
H7 H 0.356(3) 0.113(6) 0.9889(18)
H8 H 0.313(3) 0.258(5) 1.039(2)
H9 H 0.366(3) 0.348(6) 0.9774(19)
#END
