
#######################################################################
#
#                 Cambridge Crystallographic Data Centre
#                                CCDC
#
#######################################################################
#
# If this CIF has been generated from an entry in the Cambridge
# Structural Database, then it will include bibliographic, chemical,
# crystal, experimental, refinement or atomic coordinate data resulting
# from the CCDC's data processing and validation procedures.
#
#######################################################################

data_CSD_CIF_DEKZAV
_audit_creation_date 2006-09-26
_audit_creation_method CSD-ConQuest-V1
_database_code_CSD DEKZAV
_database_code_depnum_ccdc_archive 'CCDC 194930'
_chemical_formula_sum 'C8 H6 N2 O7'
_chemical_formula_moiety
;
C8 H6 N2 O7
;
_journal_coden_Cambridge 119
_journal_volume 789
_journal_year 2006
_journal_page_first 81
_journal_name_full 'J.Mol.Struct. '
loop_
_publ_author_name
"M.West-Nielsen"
"P.M.Dominiak"
"K.Wozniak"
"P.E.Hansen"
_chemical_name_systematic
;
2,4-Dihydroxy-3,5-dinitroacetophenone
;
_cell_volume    966.433
_exptl_crystal_density_diffrn 1.664
_diffrn_ambient_temperature 293
#These two values have been output from a single CSD field.
_refine_ls_R_factor_gt 0.0477
_refine_ls_wR_factor_gt 0.0477
_symmetry_cell_setting monoclinic
_symmetry_space_group_name_H-M 'P 21/n'
_symmetry_Int_Tables_number 14
loop_
_symmetry_equiv_pos_site_id
_symmetry_equiv_pos_as_xyz
1 x,y,z
2 1/2-x,1/2+y,1/2-z
3 -x,-y,-z
4 -1/2+x,-1/2-y,-1/2+z
_cell_length_a 9.7200(19)
_cell_length_b 9.6800(19)
_cell_length_c 10.800(2)
_cell_angle_alpha 90
_cell_angle_beta 108.00(3)
_cell_angle_gamma 90
_cell_formula_units_Z 4
loop_
_atom_type_symbol
_atom_type_radius_bond
C 0.68
H 0.23
N 0.68
O 0.68
loop_
_atom_site_label
_atom_site_type_symbol
_atom_site_fract_x
_atom_site_fract_y
_atom_site_fract_z
O1 O 0.1602(3) 0.3824(2) 0.0869(2)
O2 O 0.1211(2) 0.1334(3) 0.0097(2)
O3 O 0.4962(3) -0.1829(2) 0.1558(3)
O4 O 0.1811(3) -0.1293(3) -0.1030(3)
O5 O 0.1817(3) -0.2148(3) 0.0815(2)
O6 O 0.7390(3) -0.0869(3) 0.3043(3)
O7 O 0.7676(2) 0.1298(3) 0.3528(2)
N1 N 0.2201(3) -0.1294(3) 0.0161(3)
N2 N 0.6930(3) 0.0336(3) 0.2968(3)
C1 C 0.3517(3) 0.2233(3) 0.1395(3)
C2 C 0.2605(3) 0.1145(3) 0.0754(3)
C3 C 0.3159(3) -0.0182(3) 0.0829(3)
C4 C 0.4570(3) -0.0513(3) 0.1549(3)
C5 C 0.5451(3) 0.0583(3) 0.2182(3)
C6 C 0.4929(4) 0.1924(3) 0.2087(3)
C7 C 0.2926(4) 0.3648(3) 0.1334(3)
C8 C 0.3901(5) 0.4839(4) 0.1802(5)
H1 H 0.558(3) 0.261(3) 0.258(3)
H2 H 0.340(5) 0.562(5) 0.171(4)
H3 H 0.459(5) 0.474(4) 0.274(5)
H4 H 0.467(5) 0.486(4) 0.137(4)
H5 H 0.101(4) 0.220(4) 0.021(3)
H6 H 0.582(5) -0.191(5) 0.204(4)
#END
