
#######################################################################
#
#                 Cambridge Crystallographic Data Centre
#                                CCDC
#
#######################################################################
#
# If this CIF has been generated from an entry in the Cambridge
# Structural Database, then it will include bibliographic, chemical,
# crystal, experimental, refinement or atomic coordinate data resulting
# from the CCDC's data processing and validation procedures.
#
#######################################################################

data_CSD_CIF_DEKZID
_audit_creation_date 2006-09-26
_audit_creation_method CSD-ConQuest-V1
_database_code_CSD DEKZID
_database_code_depnum_ccdc_archive 'CCDC 194932'
_chemical_formula_sum 'C8 H6 N2 O8'
_chemical_formula_moiety
;
C8 H6 N2 O8
;
_journal_coden_Cambridge 119
_journal_volume 789
_journal_year 2006
_journal_page_first 81
_journal_name_full 'J.Mol.Struct. '
loop_
_publ_author_name
"M.West-Nielsen"
"P.M.Dominiak"
"K.Wozniak"
"P.E.Hansen"
_chemical_name_systematic
;
2,4,6-Trihydroxy-3,5-dinitroacetophenone
;
_cell_volume   1957.179
_exptl_crystal_density_diffrn 1.752
_diffrn_ambient_temperature 293
#These two values have been output from a single CSD field.
_refine_ls_R_factor_gt 0.0433
_refine_ls_wR_factor_gt 0.0433
_symmetry_cell_setting orthorhombic
_symmetry_space_group_name_H-M 'P b c a'
_symmetry_Int_Tables_number 61
loop_
_symmetry_equiv_pos_site_id
_symmetry_equiv_pos_as_xyz
1 x,y,z
2 1/2-x,-y,1/2+z
3 -x,1/2+y,1/2-z
4 1/2+x,1/2-y,-z
5 -x,-y,-z
6 -1/2+x,y,-1/2-z
7 x,-1/2-y,-1/2+z
8 -1/2-x,-1/2+y,z
_cell_length_a 5.8830(12)
_cell_length_b 16.978(3)
_cell_length_c 19.595(4)
_cell_angle_alpha 90
_cell_angle_beta 90
_cell_angle_gamma 90
_cell_formula_units_Z 8
loop_
_atom_type_symbol
_atom_type_radius_bond
C 0.68
H 0.23
N 0.68
O 0.68
loop_
_atom_site_label
_atom_site_type_symbol
_atom_site_fract_x
_atom_site_fract_y
_atom_site_fract_z
O1 O 0.5476(4) 0.38341(11) 0.37447(10)
O2 O 0.4550(3) 0.26691(12) 0.44404(10)
O3 O 0.6208(4) 0.10125(14) 0.54155(11)
O4 O 0.3366(4) 0.10864(15) 0.47451(13)
O5 O 0.8736(4) 0.03751(11) 0.42889(11)
O6 O 1.1923(4) 0.03469(13) 0.33865(13)
O7 O 1.3207(3) 0.14059(13) 0.29276(11)
O8 O 1.0984(3) 0.26501(12) 0.2976(1)
N1 N 0.5346(4) 0.11842(13) 0.48743(12)
N2 N 1.1770(4) 0.10620(14) 0.32919(13)
C1 C 0.7770(4) 0.27164(14) 0.36921(12)
C2 C 0.6335(4) 0.23206(15) 0.41613(13)
C3 C 0.6786(4) 0.15475(14) 0.43537(13)
C4 C 0.8548(4) 0.11141(15) 0.40808(13)
C5 C 0.9977(4) 0.14901(15) 0.35998(13)
C6 C 0.9614(4) 0.22931(15) 0.34222(13)
C7 C 0.7250(5) 0.35426(16) 0.35147(13)
C8 C 0.8717(7) 0.4043(2) 0.3082(2)
H1 H 0.439(6) 0.322(3) 0.422(2)
H2 H 0.995(7) 0.012(2) 0.404(2)
H3 H 1.212(6) 0.226(2) 0.2851(18)
H4 H 0.884(5) 0.3851(17) 0.2637(19)
H5 H 1.029(5) 0.4078(17) 0.3237(15)
H6 H 0.816(5) 0.455(2) 0.3062(15)
#END
