
#######################################################################
#
#                 Cambridge Crystallographic Data Centre
#                                CCDC
#
#######################################################################
#
# If this CIF has been generated from an entry in the Cambridge
# Structural Database, then it will include bibliographic, chemical,
# crystal, experimental, refinement or atomic coordinate data resulting
# from the CCDC's data processing and validation procedures.
#
#######################################################################

data_CSD_CIF_DELPEQ
_audit_creation_date 2006-09-26
_audit_creation_method CSD-ConQuest-V1
_database_code_CSD DELPEQ
_database_code_depnum_ccdc_archive 'CCDC 618190'
_chemical_formula_sum 'C9 H11 N3 O2'
_chemical_formula_moiety
;
C9 H11 N3 O2
;
_journal_coeditor_code "IUCr EZ2009"
_journal_coden_Cambridge 1370
_journal_volume 62
_journal_year 2006
_journal_page_first o3198
_journal_name_full 'Acta Crystallogr.,Sect.E:Struct.Rep.Online '
loop_
_publ_author_name
"Fang-Fang Jian"
"Rui-Rui Zhuang"
"Ke-Fei Wang"
"Pu-Su Zhao"
"Hai-Lian Xiao"
_chemical_name_systematic
;
Acetone (2-nitrophenyl)hydrazone
;
_cell_volume    987.316
_exptl_crystal_colour 'red'
_exptl_crystal_density_diffrn 1.3
_exptl_crystal_description 'block'
_exptl_crystal_preparation 'ethanol'
_diffrn_ambient_temperature 295
#These two values have been output from a single CSD field.
_refine_ls_R_factor_gt 0.048
_refine_ls_wR_factor_gt 0.048
_symmetry_cell_setting monoclinic
_symmetry_space_group_name_H-M 'P 21/c'
_symmetry_Int_Tables_number 14
loop_
_symmetry_equiv_pos_site_id
_symmetry_equiv_pos_as_xyz
1 x,y,z
2 -x,1/2+y,1/2-z
3 -x,-y,-z
4 x,-1/2-y,-1/2+z
_cell_length_a 8.5080(17)
_cell_length_b 15.479(3)
_cell_length_c 8.1420(16)
_cell_angle_alpha 90
_cell_angle_beta 112.96(3)
_cell_angle_gamma 90
_cell_formula_units_Z 4
loop_
_atom_type_symbol
_atom_type_radius_bond
C 0.68
H 0.23
N 0.68
O 0.68
loop_
_atom_site_label
_atom_site_type_symbol
_atom_site_fract_x
_atom_site_fract_y
_atom_site_fract_z
O1 O 0.3849(2) 0.17799(11) 0.1594(2)
O2 O 0.5530(2) 0.09039(12) 0.3575(2)
N1 N 0.5059(2) 0.12668(11) 0.2101(2)
N2 N 0.76540(19) -0.00839(11) 0.2807(2)
H1 H 0.72680 0.00220 0.36180
N3 N 0.8774(2) -0.07660(11) 0.3015(2)
C1 C 0.5935(2) 0.10844(12) 0.0931(2)
C2 C 0.5482(2) 0.15828(13) -0.0621(3)
H2 H 0.46650 0.20150 -0.08470
C3 C 0.6228(3) 0.14391(15) -0.1803(3)
H3 H 0.59410 0.17780 -0.28230
C4 C 0.7420(3) 0.07826(15) -0.1468(3)
H4 H 0.79210 0.06810 -0.22810
C5 C 0.7879(3) 0.02790(14) 0.0032(3)
H5 H 0.86730 -0.01610 0.02090
C6 C 0.7166(2) 0.04180(12) 0.1314(2)
C7 C 0.9043(2) -0.12657(13) 0.4352(3)
C8 C 0.8259(3) -0.11777(17) 0.5698(3)
H6 H 0.70700 -0.10380 0.51020
H7 H 0.88270 -0.07260 0.65240
H8 H 0.83760 -0.17120 0.63320
C9 C 1.0256(3) -0.20019(16) 0.4600(3)
H9 H 1.06540 -0.20030 0.36460
H10 H 0.96830 -0.25370 0.45930
H11 H 1.12110 -0.19380 0.57180
#END
