
#######################################################################
#
#                 Cambridge Crystallographic Data Centre
#                                CCDC
#
#######################################################################
#
# If this CIF has been generated from an entry in the Cambridge
# Structural Database, then it will include bibliographic, chemical,
# crystal, experimental, refinement or atomic coordinate data resulting
# from the CCDC's data processing and validation procedures.
#
#######################################################################

data_CSD_CIF_DELSAP
_audit_creation_date 2006-09-26
_audit_creation_method CSD-ConQuest-V1
_database_code_CSD DELSAP
_database_code_depnum_ccdc_archive 'CCDC 618204'
_chemical_formula_sum 'C33 H34 N2 O6'
_chemical_formula_moiety
;
C33 H34 N2 O6
;
_journal_coeditor_code "IUCr HB2085"
_journal_coden_Cambridge 1370
_journal_volume 62
_journal_year 2006
_journal_page_first o3172
_journal_name_full 'Acta Crystallogr.,Sect.E:Struct.Rep.Online '
loop_
_publ_author_name
"Chu-Yi Yu"
"Ying Fu"
_chemical_name_systematic
;
(2S,3a'R,4'R,5'S,6'R)-4',5'-Isoprolidenedioxy-6'-(trityloxymethyl)-2'-oxotetra
hydro-1H-spiro(pyrrolidine-2,3'-pyrrolo(1,2-b)isoxazole)-1-carbaldehyde
;
_chemical_melting_point 456
_cell_volume   1437.749
_exptl_crystal_colour 'colorless'
_exptl_crystal_density_diffrn 1.281
_exptl_special_details
;
Melting point range 456-457K

;
_exptl_crystal_description 'block'
_exptl_crystal_preparation 'ethyl acetate'
_diffrn_ambient_temperature 294
#These two values have been output from a single CSD field.
_refine_ls_R_factor_gt 0.0396
_refine_ls_wR_factor_gt 0.0396
_symmetry_cell_setting monoclinic
_symmetry_space_group_name_H-M 'P 21'
_symmetry_Int_Tables_number 4
loop_
_symmetry_equiv_pos_site_id
_symmetry_equiv_pos_as_xyz
1 x,y,z
2 -x,1/2+y,-z
_cell_length_a 10.0296(14)
_cell_length_b 12.7262(17)
_cell_length_c 11.4028(16)
_cell_angle_alpha 90
_cell_angle_beta 98.942(2)
_cell_angle_gamma 90
_cell_formula_units_Z 2
loop_
_atom_type_symbol
_atom_type_radius_bond
C 0.68
H 0.23
N 0.68
O 0.68
loop_
_atom_site_label
_atom_site_type_symbol
_atom_site_fract_x
_atom_site_fract_y
_atom_site_fract_z
N1 N 0.6298(2) 0.6121(2) 0.5864(2)
N2 N 0.3632(2) 0.68614(17) 0.3465(2)
O1 O 0.5586(2) 0.77254(19) 0.6346(2)
O2 O 0.6986(2) 0.7586(2) 0.4043(2)
O3 O 0.4777(2) 0.75649(16) 0.33992(18)
O4 O 0.20297(19) 0.5242(2) 0.45595(17)
O5 O 0.15418(19) 0.50188(18) 0.25659(17)
O6 O 0.28832(19) 0.77149(15) 0.12066(16)
C1 C 0.5629(3) 0.6137(2) 0.4625(2)
C2 C 0.6275(3) 0.5186(3) 0.4080(3)
H1 H 0.56130 0.48240 0.35100
H2 H 0.70160 0.54100 0.36850
C3 C 0.6778(4) 0.4481(3) 0.5122(3)
H3 H 0.60630 0.40230 0.53020
H4 H 0.75270 0.40520 0.49580
C4 C 0.7220(3) 0.5222(3) 0.6129(3)
H5 H 0.71230 0.49050 0.68850
H6 H 0.81510 0.54350 0.61460
C5 C 0.6240(3) 0.6929(3) 0.6598(3)
H7 H 0.67340 0.68810 0.73570
C6 C 0.5918(3) 0.7159(3) 0.4020(3)
C7 C 0.4083(2) 0.6163(2) 0.4496(2)
H8 H 0.38130 0.64660 0.52130
C8 C 0.3303(2) 0.5150(2) 0.4177(2)
H9 H 0.38020 0.45240 0.44970
C9 C 0.2964(3) 0.5136(2) 0.2813(2)
H10 H 0.34160 0.45470 0.24830
C10 C 0.3453(3) 0.6188(2) 0.2381(2)
H11 H 0.43280 0.60880 0.21170
C11 C 0.2467(3) 0.6665(2) 0.1383(2)
H12 H 0.24600 0.62590 0.06610
H13 H 0.15640 0.66610 0.15860
C12 C 0.1004(3) 0.4912(3) 0.3646(3)
C13 C -0.0175(4) 0.5617(6) 0.3607(5)
H14 H -0.06050 0.54930 0.42900
H15 H -0.08040 0.54800 0.28990
H16 H 0.01180 0.63350 0.36060
C14 C 0.0704(6) 0.3763(4) 0.3795(4)
H17 H 0.15340 0.33730 0.39140
H18 H 0.01380 0.35110 0.30950
H19 H 0.02500 0.36730 0.44690
C15 C 0.1964(3) 0.8352(2) 0.0397(2)
C16 C 0.2706(3) 0.9401(2) 0.0337(2)
C17 C 0.4010(3) 0.9548(3) 0.0896(3)
H20 H 0.44500 0.90100 0.13550
C18 C 0.4677(4) 1.0491(3) 0.0784(4)
H21 H 0.55570 1.05790 0.11700
C19 C 0.4055(5) 1.1290(3) 0.0113(4)
H22 H 0.45100 1.19170 0.00350
C20 C 0.2742(5) 1.1160(3) -0.0449(4)
H23 H 0.23090 1.17010 -0.09070
C21 C 0.2072(4) 1.0227(3) -0.0331(3)
H24 H 0.11840 1.01500 -0.07020
C22 C 0.1743(3) 0.7793(2) -0.0816(2)
C23 C 0.2647(3) 0.7935(3) -0.1602(3)
H25 H 0.33300 0.84320 -0.14370
C24 C 0.2548(4) 0.7344(3) -0.2635(3)
H26 H 0.31550 0.74580 -0.31610
C25 C 0.1568(4) 0.6597(3) -0.2886(3)
H27 H 0.15070 0.62010 -0.35770
C26 C 0.0670(4) 0.6439(3) -0.2103(3)
H28 H 0.00090 0.59230 -0.22620
C27 C 0.0741(3) 0.7036(2) -0.1088(3)
H29 H 0.01140 0.69320 -0.05780
C28 C 0.0642(3) 0.8538(2) 0.0896(2)
C29 C -0.0554(3) 0.8819(2) 0.0163(3)
H30 H -0.05590 0.88930 -0.06500
C30 C -0.1736(3) 0.8991(3) 0.0631(3)
H31 H -0.25180 0.91910 0.01330
C31 C -0.1758(4) 0.8866(3) 0.1822(4)
H32 H -0.25560 0.89580 0.21300
C32 C -0.0587(4) 0.8605(3) 0.2554(3)
H33 H -0.05940 0.85370 0.33650
C33 C 0.0613(4) 0.8441(2) 0.2108(3)
H34 H 0.13960 0.82670 0.26210
#END
