
#######################################################################
#
#                 Cambridge Crystallographic Data Centre
#                                CCDC
#
#######################################################################
#
# If this CIF has been generated from an entry in the Cambridge
# Structural Database, then it will include bibliographic, chemical,
# crystal, experimental, refinement or atomic coordinate data resulting
# from the CCDC's data processing and validation procedures.
#
#######################################################################

data_CSD_CIF_DELXEX
_audit_creation_date 1986-07-24
_audit_creation_method CSD-ConQuest-V1
_database_code_CSD DELXEX
_chemical_formula_sum 'C16 H14 N4 O4'
_chemical_formula_moiety
;
C16 H14 N4 O4
;
_journal_coeditor_code "IUCr A25099"
_journal_coden_Cambridge 591
_journal_volume 41
_journal_year 1985
_journal_page_first 1638
_journal_name_full 'Acta Crystallogr.,Sect.C:Cryst.Struct.Commun. '
loop_
_publ_author_name
"J.M.M.Smits"
"J.H.Noordik"
"H.E.L.Depre"
"R.C.W.Zwanenburg"
"A.J.H.Klunder"
_chemical_name_systematic
;
Tetracyclo(4.4.0.0^2,8^.0^4,7^)dec-9-en-5-one 2,4-dinitrophenylhydrazone
;
_cell_volume   1479.072
_exptl_crystal_colour 'orange'
_exptl_crystal_density_diffrn 1.47
_diffrn_ambient_temperature ?
_diffrn_special_details
;
The study was carried out at room temperature,in the range 283-303K

;
#These two values have been output from a single CSD field.
_refine_ls_R_factor_gt 0.08
_refine_ls_wR_factor_gt 0.08
_symmetry_cell_setting monoclinic
_symmetry_space_group_name_H-M 'P 21/n'
_symmetry_Int_Tables_number 14
loop_
_symmetry_equiv_pos_site_id
_symmetry_equiv_pos_as_xyz
1 x,y,z
2 1/2-x,1/2+y,1/2-z
3 -x,-y,-z
4 -1/2+x,-1/2-y,-1/2+z
_cell_length_a 6.745(5)
_cell_length_b 24.915(8)
_cell_length_c 8.911(8)
_cell_angle_alpha 90
_cell_angle_beta 99.0
_cell_angle_gamma 90
_cell_formula_units_Z 4
loop_
_atom_type_symbol
_atom_type_radius_bond
C 0.68
H 0.23
N 0.68
O 0.68
loop_
_atom_site_label
_atom_site_type_symbol
_atom_site_fract_x
_atom_site_fract_y
_atom_site_fract_z
C1 C 0.1459(30) 0.3674(10) 0.0729(30)
C2 C 0.3390(31) 0.3673(11) 0.0027(27)
C3 C 0.2690(36) 0.314(11) -0.0883(25)
C4 C 0.1184(36) 0.3109(10) 0.0300(37)
C5 C 0.2413(50) 0.2725(14) 0.1390(33)
C6 C 0.4628(41) 0.2906(12) 0.1302(22)
C7 C 0.5039(32) 0.3485(10) 0.1274(25)
C8 C 0.4290(38) 0.2726(9) -0.0386(21)
C9 C 0.3318(47) 0.2191(11) -0.0433(40)
C10 C 0.2324(51) 0.2170(12) 0.0728(50)
C11 C 0.0105(17) 0.4891(5) 0.2216(11)
C12 C -0.1569(17) 0.4718(5) 0.2824(11)
C13 C -0.2571(13) 0.5072(5) 0.3657(11)
C14 C -0.1899(17) 0.5600(5) 0.3883(11)
C15 C -0.0225(17) 0.5773(5) 0.3275(11)
C16 C 0.0777(17) 0.5419(5) 0.2442(11)
N1 N 0.0316(22) 0.4012(6) 0.1313(21)
N2 N 0.1075(25) 0.4524(6) 0.1421(17)
N3 N 0.2558(23) 0.5635(8) 0.1910(16)
N4 N -0.2916(33) 0.6006(10) 0.4710(26)
O1 O 0.3468(21) 0.5312(6) 0.1141(15)
O2 O 0.3017(24) 0.6083(7) 0.2079(19)
O3 O -0.2327(27) 0.6456(8) 0.4825(17)
O4 O -0.4333(25) 0.5791(7) 0.5246(17)
H1 H 0.395(3) 0.401(1) -0.053(3)
H2 H 0.188(4) 0.312(1) -0.203(3)
H3 H -0.034(4) 0.297(1) -0.003(4)
H4 H 0.225(5) 0.278(1) 0.257(3)
H5 H 0.571(4) 0.260(1) 0.171(2)
H6 H 0.652(3) 0.336(1) 0.109(3)
H7 H 0.516(3) 0.374(1) 0.226(3)
H8 H 0.573(4) 0.292(1) -0.038(2)
H9 H 0.342(5) 0.183(1) -0.110(4)
H10 H 0.106(5) 0.192(1) 0.032(5)
H11 H -0.20800 0.43100 0.26300
H12 H -0.38600 0.49300 0.41300
H13 H 0.02800 0.61800 0.34800
H14 H 0.266(3) 0.453(1) 0.136(2)
#END
