
#######################################################################
#
#                 Cambridge Crystallographic Data Centre
#                                CCDC
#
#######################################################################
#
# If this CIF has been generated from an entry in the Cambridge
# Structural Database, then it will include bibliographic, chemical,
# crystal, experimental, refinement or atomic coordinate data resulting
# from the CCDC's data processing and validation procedures.
#
#######################################################################

data_CSD_CIF_DELZEZ
_audit_creation_date 1986-07-23
_audit_creation_method CSD-ConQuest-V1
_database_code_CSD DELZEZ
_chemical_formula_sum 'C13 H11 N3 O8'
_chemical_formula_moiety
;
C13 H11 N3 O8
;
_journal_coden_Cambridge 154
_journal_volume 38
_journal_year 1985
_journal_page_first 575
_journal_name_full 'Aust.J.Chem. '
loop_
_publ_author_name
"M.P.Hartshorn"
"W.T.Robinson"
"J.Vaughan"
"J.M.White"
_chemical_name_systematic
;
r-2-Hydroxy-6-methyl-4,c-5,t-6-trinitro-2-phenylcyclohex-3-enone
;
_chemical_melting_point 388.15
_cell_volume   1449.865
_exptl_crystal_colour 'colorless'
_exptl_crystal_density_diffrn 1.54
_exptl_special_details
;
Melts with decomposition.

;
_diffrn_ambient_temperature ?
_diffrn_special_details
;
The study was carried out at room temperature,in the range 283-303K

;
#These two values have been output from a single CSD field.
_refine_ls_R_factor_gt 0.042
_refine_ls_wR_factor_gt 0.042
_symmetry_cell_setting monoclinic
_symmetry_space_group_name_H-M 'P 21/n'
_symmetry_Int_Tables_number 14
loop_
_symmetry_equiv_pos_site_id
_symmetry_equiv_pos_as_xyz
1 x,y,z
2 1/2-x,1/2+y,1/2-z
3 -x,-y,-z
4 -1/2+x,-1/2-y,-1/2+z
_cell_length_a 9.184(3)
_cell_length_b 6.917(4)
_cell_length_c 22.984(7)
_cell_angle_alpha 90
_cell_angle_beta 96.78(2)
_cell_angle_gamma 90
_cell_formula_units_Z 4
loop_
_atom_type_symbol
_atom_type_radius_bond
C 0.68
H 0.23
N 0.68
O 0.68
loop_
_atom_site_label
_atom_site_type_symbol
_atom_site_fract_x
_atom_site_fract_y
_atom_site_fract_z
C1 C 0.2389(2) 0.2430(3) 0.8279(1)
C2 C 0.0829(2) 0.1648(3) 0.8296(1)
C3 C 0.0741(2) 0.0368(3) 0.8825(1)
C4 C 0.1829(2) 0.0029(3) 0.9233(1)
C5 C 0.3352(2) 0.0776(3) 0.9236(1)
C6 C 0.3398(2) 0.2626(3) 0.8867(1)
C7 C -0.0206(2) 0.3382(3) 0.8310(1)
C8 C -0.0807(2) 0.3923(3) 0.8808(1)
C9 C -0.1725(2) 0.5515(4) 0.8796(1)
C10 C -0.2057(2) 0.6538(4) 0.8293(1)
C11 C -0.1450(3) 0.6033(4) 0.7795(1)
C12 C -0.0530(2) 0.4451(3) 0.7802(1)
C13 C 0.4942(2) 0.3270(4) 0.8782(1)
N1 N 0.1577(2) -0.1213(2) 0.9736(1)
N2 N 0.4255(2) -0.0746(3) 0.8964(1)
N3 N 0.2765(2) 0.4239(3) 0.9214(1)
O1 O 0.2830(2) 0.2851(3) 0.7827(1)
O2 O 0.0366(2) 0.0596(2) 0.7780(1)
O3 O 0.0361(2) -0.1883(2) 0.9755(1)
O4 O 0.2623(2) -0.1490(3) 1.0102(1)
O5 O 0.3906(2) -0.1093(2) 0.8448(1)
O6 O 0.5239(2) -0.1538(3) 0.9273(1)
O7 O 0.2441(2) 0.5714(2) 0.8946(1)
O8 O 0.2633(3) 0.3992(3) 0.9724(1)
H1 H 0.0934(24) -0.0128(40) 0.7729(9)
H2 H -0.0226(19) -0.0243(30) 0.8846(8)
H3 H 0.3789(18) 0.0915(26) 0.9623(8)
H4 H -0.05900 0.31930 0.91630
H5 H -0.21270 0.58990 0.91460
H6 H -0.27180 0.76160 0.82850
H7 H -0.16650 0.67800 0.74430
H8 H -0.01150 0.40900 0.74530
H9 H 0.53990 0.22990 0.85660
H10 H 0.55050 0.34510 0.91570
H11 H 0.48970 0.44650 0.85680
#END
