
#######################################################################
#
#                 Cambridge Crystallographic Data Centre
#                                CCDC
#
#######################################################################
#
# If this CIF has been generated from an entry in the Cambridge
# Structural Database, then it will include bibliographic, chemical,
# crystal, experimental, refinement or atomic coordinate data resulting
# from the CCDC's data processing and validation procedures.
#
#######################################################################

data_CSD_CIF_DEMJIP
_audit_creation_date 2006-09-26
_audit_creation_method CSD-ConQuest-V1
_database_code_CSD DEMJIP
_database_code_depnum_ccdc_archive 'CCDC 618272'
_chemical_formula_sum 'C17 H14 N2 O2'
_chemical_formula_moiety
;
C17 H14 N2 O2
;
_journal_coeditor_code "IUCr LH2120"
_journal_coden_Cambridge 1370
_journal_volume 62
_journal_year 2006
_journal_page_first o3328
_journal_name_full 'Acta Crystallogr.,Sect.E:Struct.Rep.Online '
loop_
_publ_author_name
"V.N.Sonar"
"S.Parkin"
"P.A.Crooks"
_chemical_name_systematic
;
(E)-1-Benzyl-3-(2-nitrovinyl)-1H-indole
;
_cell_volume   1390.817
_exptl_crystal_colour 'yellow'
_exptl_crystal_density_diffrn 1.329
_exptl_crystal_description 'cut needle'
_diffrn_ambient_temperature 150.0
#These two values have been output from a single CSD field.
_refine_ls_R_factor_gt 0.0458
_refine_ls_wR_factor_gt 0.0458
_symmetry_cell_setting monoclinic
_symmetry_space_group_name_H-M 'P 21/n'
_symmetry_Int_Tables_number 14
loop_
_symmetry_equiv_pos_site_id
_symmetry_equiv_pos_as_xyz
1 x,y,z
2 1/2-x,1/2+y,1/2-z
3 -x,-y,-z
4 -1/2+x,-1/2-y,-1/2+z
_cell_length_a 4.9846(1)
_cell_length_b 16.5617(5)
_cell_length_c 16.9822(6)
_cell_angle_alpha 90
_cell_angle_beta 97.2220(14)
_cell_angle_gamma 90
_cell_formula_units_Z 4
loop_
_atom_type_symbol
_atom_type_radius_bond
C 0.68
H 0.23
N 0.68
O 0.68
loop_
_atom_site_label
_atom_site_type_symbol
_atom_site_fract_x
_atom_site_fract_y
_atom_site_fract_z
N1 N 1.0120(2) 0.25929(7) 0.02568(7)
N2 N 0.4717(3) 0.55589(8) 0.13336(7)
O1 O 0.6092(2) 0.60541(7) 0.10216(7)
O2 O 0.2786(3) 0.57562(7) 0.16796(8)
C1 C 0.9789(3) 0.34027(9) 0.02556(8)
H1 H 1.06880 0.37690 -0.00530
C2 C 0.7961(3) 0.36264(8) 0.07664(8)
C3 C 0.7099(3) 0.28814(9) 0.11085(8)
C4 C 0.5359(3) 0.26817(9) 0.16659(9)
H2 H 0.43860 0.30910 0.19010
C5 C 0.5083(3) 0.18826(9) 0.18670(9)
H3 H 0.39090 0.17440 0.22450
C6 C 0.6488(3) 0.12715(9) 0.15272(9)
H4 H 0.62550 0.07260 0.16790
C7 C 0.8216(3) 0.14474(9) 0.09726(9)
H5 H 0.91700 0.10340 0.07370
C8 C 0.8496(3) 0.22563(8) 0.07749(8)
C9 C 1.1668(3) 0.21349(9) -0.02668(9)
H6 H 1.28310 0.17380 0.00500
H7 H 1.28550 0.25070 -0.05210
C10 C 0.9814(3) 0.16970(9) -0.09025(8)
C11 C 0.7668(3) 0.21082(10) -0.13243(8)
H8 H 0.73840 0.26630 -0.12180
C12 C 0.5940(3) 0.17109(11) -0.19001(9)
H9 H 0.44600 0.19930 -0.21820
C13 C 0.6355(3) 0.09083(11) -0.20676(9)
H10 H 0.51680 0.06380 -0.24640
C14 C 0.8503(3) 0.05007(9) -0.16564(9)
H11 H 0.88060 -0.00500 -0.17730
C15 C 1.0219(3) 0.08916(9) -0.10749(9)
H12 H 1.16870 0.06060 -0.07910
C16 C 0.7184(3) 0.44442(9) 0.08705(8)
H13 H 0.81300 0.48420 0.06120
C17 C 0.5276(3) 0.47137(9) 0.12908(8)
H14 H 0.42800 0.43400 0.15640
#END
