
#######################################################################
#
#                 Cambridge Crystallographic Data Centre
#                                CCDC
#
#######################################################################
#
# If this CIF has been generated from an entry in the Cambridge
# Structural Database, then it will include bibliographic, chemical,
# crystal, experimental, refinement or atomic coordinate data resulting
# from the CCDC's data processing and validation procedures.
#
#######################################################################

data_CSD_CIF_DEMMIR
_audit_creation_date 1986-07-24
_audit_creation_method CSD-ConQuest-V1
_database_code_CSD DEMMIR
_chemical_formula_sum 'C15 H24 N2 O3'
_chemical_formula_moiety
;
C15 H24 N2 O3
;
_journal_coden_Cambridge 188
_journal_year 1985
_journal_page_first 971
_journal_name_full 'J.Chem.Soc.,Perkin Trans.2 '
loop_
_publ_author_name
"A.A.Freer"
"D.K.MacAlpine"
"J.A.Peacock"
"A.L.Porte"
_chemical_name_systematic
;
4,11,11-Trimethyl-8-methylene-5-nitro-4-nitrosobicyclo(7.2.0)undecane
;
_chemical_name_common
;
Caryophyllene nitrosite
;
_chemical_melting_point 389.15
_cell_volume   1605.595
_exptl_crystal_colour 'blue'
_exptl_crystal_density_diffrn 1.16
_diffrn_ambient_temperature ?
_diffrn_special_details
;
The study was carried out at room temperature,in the range 283-303K

;
#These two values have been output from a single CSD field.
_refine_ls_R_factor_gt 0.085
_refine_ls_wR_factor_gt 0.085
_symmetry_cell_setting orthorhombic
_symmetry_space_group_name_H-M 'P 21 21 21'
_symmetry_Int_Tables_number 19
loop_
_symmetry_equiv_pos_site_id
_symmetry_equiv_pos_as_xyz
1 x,y,z
2 1/2+x,1/2-y,-z
3 -x,1/2+y,1/2-z
4 1/2-x,-y,1/2+z
_cell_length_a 6.476(4)
_cell_length_b 13.199(2)
_cell_length_c 18.784(2)
_cell_angle_alpha 90
_cell_angle_beta 90
_cell_angle_gamma 90
_cell_formula_units_Z 4
loop_
_atom_type_symbol
_atom_type_radius_bond
C 0.68
H 0.23
N 0.68
O 0.68
loop_
_atom_site_label
_atom_site_type_symbol
_atom_site_fract_x
_atom_site_fract_y
_atom_site_fract_z
O1 O -0.945(3) 0.073(1) -0.171(1)
O2 O -1.1025(15) -0.1909(10) -0.2922(7)
O3 O -0.9431(19) -0.1965(9) -0.1913(5)
N1 N -0.968(3) 0.024(1) -0.218(1)
N2 N -0.9639(19) -0.1682(2) -0.2503(6)
C1 C -0.4884(18) 0.0268(8) -0.4044(6)
C2 C -0.458(2) 0.063(1) -0.329(1)
C3 C -0.651(2) 0.075(1) -0.282(1)
C4 C -0.732(2) -0.016(1) -0.236(1)
C5 C -0.779(2) -0.104(1) -0.282(1)
C6 C -0.6053(18) -0.180(1) -0.2973(6)
C7 C -0.627(2) -0.233(1) -0.368(1)
C8 C -0.629(2) -0.159(1) -0.431(1)
C9 C -0.4522(18) -0.0849(9) -0.4307(5)
C10 C -0.381(2) -0.037(1) -0.500(1)
C11 C -0.352(2) 0.065(1) -0.462(1)
C12 C -0.417(3) 0.159(1) -0.503(1)
C13 C -0.122(2) 0.074(1) -0.441(1)
C14 C -0.588(3) -0.041(1) -0.172(1)
C15 C -0.775(2) -0.164(1) -0.479(1)
H1 H -0.63930 0.04150 -0.41720
H2 H -0.39440 0.02470 -0.30100
H3 H -0.41650 0.14550 -0.35190
H4 H -0.64860 0.13160 -0.24800
H5 H -0.77760 0.09580 -0.31780
H6 H -0.81470 -0.07410 -0.33720
H7 H -0.60040 -0.22720 -0.25130
H8 H -0.46000 -0.15330 -0.28640
H9 H -0.50170 -0.28520 -0.37490
H10 H -0.74920 -0.27400 -0.35500
H11 H -0.32930 -0.12270 -0.39880
H12 H -0.53300 -0.02460 -0.52510
H13 H -0.23710 -0.05090 -0.51730
H14 H -0.31700 0.18730 -0.54440
H15 H -0.55250 0.14420 -0.52640
H16 H -0.43000 0.21820 -0.46430
H17 H -0.02140 0.10560 -0.48060
H18 H -0.11170 0.12800 -0.39470
H19 H -0.06150 0.00420 -0.42280
H20 H -0.61770 -0.10170 -0.13700
H21 H -0.58190 0.02580 -0.13510
H22 H -0.41180 -0.05490 -0.18600
H23 H -0.78590 -0.107(4) -0.51460
H24 H -0.88690 -0.22730 -0.46620
#END
