
#######################################################################
#
#                 Cambridge Crystallographic Data Centre
#                                CCDC
#
#######################################################################
#
# If this CIF has been generated from an entry in the Cambridge
# Structural Database, then it will include bibliographic, chemical,
# crystal, experimental, refinement or atomic coordinate data resulting
# from the CCDC's data processing and validation procedures.
#
#######################################################################

data_CSD_CIF_DEMPOA
_audit_creation_date 1986-07-24
_audit_creation_method CSD-ConQuest-V1
_database_code_CSD DEMPOA
_chemical_formula_sum 'C12 H17 N1 O6'
_chemical_formula_moiety
;
C12 H17 N1 O6
;
_journal_coden_Cambridge 10
_journal_volume 68
_journal_year 1985
_journal_page_first 1033
_journal_name_full 'Helv.Chim.Acta '
loop_
_publ_author_name
"T.Aono"
"J.H.Bieri"
"M.Hesse"
"K.Kostova"
"A.Lorenzi-Riatsch"
"Y.Nakashita"
"R.Prewo"
_chemical_name_systematic
;
Methyl trans-1-hydroxy-6-nitro-3-oxobicyclo(4.4.0)decane-2-carboxylate
;
_cell_volume   1237.997
_exptl_crystal_density_diffrn 1.46
_diffrn_ambient_temperature 130
#These two values have been output from a single CSD field.
_refine_ls_R_factor_gt 0.049
_refine_ls_wR_factor_gt 0.049
_symmetry_cell_setting monoclinic
_symmetry_space_group_name_H-M 'P 21/c'
_symmetry_Int_Tables_number 14
loop_
_symmetry_equiv_pos_site_id
_symmetry_equiv_pos_as_xyz
1 x,y,z
2 -x,1/2+y,1/2-z
3 -x,-y,-z
4 x,-1/2-y,-1/2+z
_cell_length_a 13.318(2)
_cell_length_b 6.412(1)
_cell_length_c 14.913(1)
_cell_angle_alpha 90
_cell_angle_beta 103.56(1)
_cell_angle_gamma 90
_cell_formula_units_Z 4
loop_
_atom_type_symbol
_atom_type_radius_bond
C 0.68
H 0.23
N 0.68
O 0.68
loop_
_atom_site_label
_atom_site_type_symbol
_atom_site_fract_x
_atom_site_fract_y
_atom_site_fract_z
C1 C 0.2150(1) 0.6561(2) 0.3829(1)
O1 O 0.2193(1) 0.8154(1) 0.3165(1)
C2 C 0.3202(1) 0.5400(2) 0.4055(1)
C3 C 0.4087(1) 0.6863(2) 0.4492(1)
O2 O 0.4882(1) 0.6920(1) 0.4226(1)
C4 C 0.3909(1) 0.8163(2) 0.5283(1)
C5 C 0.2880(1) 0.9338(2) 0.5031(1)
C6 C 0.1963(1) 0.7897(2) 0.4648(1)
N1 N 0.1851(1) 0.6540(2) 0.5472(1)
O3 O 0.2147(1) 0.4727(1) 0.5535(1)
O4 O 0.1486(1) 0.7389(2) 0.6060(1)
C7 C 0.0946(1) 0.9095(2) 0.4330(1)
C8 C 0.0034(1) 0.7632(2) 0.3967(1)
C9 C 0.0215(1) 0.6248(2) 0.3184(1)
C10 C 0.1243(1) 0.5077(2) 0.3460(1)
C11 C 0.3417(1) 0.4391(2) 0.3197(1)
O5 O 0.3288(1) 0.5232(2) 0.2451(1)
O6 O 0.3766(1) 0.2458(1) 0.3363(1)
C12 C 0.3991(1) 0.1345(2) 0.2581(1)
H1 H 0.2362(8) 0.7650(9) 0.2689(8)
H2 H 0.3199(7) 0.4288(9) 0.4504(7)
H3 H 0.4470(7) 0.9165(9) 0.5480(7)
H4 H 0.3920(7) 0.7192(9) 0.5798(7)
H5 H 0.2752(7) 1.0112(9) 0.5576(7)
H6 H 0.2892(7) 1.0402(9) 0.4550(7)
H7 H 0.0835(7) 0.9968(9) 0.4827(7)
H8 H 0.1044(7) 0.9998(9) 0.3824(7)
H9 H -0.0597(7) 0.8433(9) 0.3735(7)
H10 H -0.0058(7) 0.6678(9) 0.4500(7)
H11 H 0.0208(7) 0.7069(9) 0.2633(7)
H12 H -0.0361(7) 0.5248(9) 0.2982(7)
H13 H 0.1224(7) 0.4010(9) 0.3943(7)
H14 H 0.1388(7) 0.4340(9) 0.2928(7)
H15 H 0.4211(8) -0.0020(9) 0.2809(7)
H16 H 0.4539(8) 0.2035(9) 0.2388(7)
H17 H 0.3378(8) 0.1259(9) 0.2090(7)
#END
