
#######################################################################
#
#                 Cambridge Crystallographic Data Centre
#                                CCDC
#
#######################################################################
#
# If this CIF has been generated from an entry in the Cambridge
# Structural Database, then it will include bibliographic, chemical,
# crystal, experimental, refinement or atomic coordinate data resulting
# from the CCDC's data processing and validation procedures.
#
#######################################################################

data_CSD_CIF_DEMPUG
_audit_creation_date 1986-07-24
_audit_creation_method CSD-ConQuest-V1
_database_code_CSD DEMPUG
_chemical_formula_sum 'C10 H17 N1 O4'
_chemical_formula_moiety
;
C10 H17 N1 O4
;
_journal_coden_Cambridge 10
_journal_volume 68
_journal_year 1985
_journal_page_first 1033
_journal_name_full 'Helv.Chim.Acta '
loop_
_publ_author_name
"T.Aono"
"J.H.Bieri"
"M.Hesse"
"K.Kostova"
"A.Lorenzi-Riatsch"
"Y.Nakashita"
"R.Prewo"
_chemical_name_systematic
;
cis-3-Methyl-6-nitro-2-oxabicyclo(4.4.0)decan-1-ol
;
_cell_volume   2060.346
_exptl_crystal_density_diffrn 1.39
_diffrn_ambient_temperature 130
#These two values have been output from a single CSD field.
_refine_ls_R_factor_gt 0.045
_refine_ls_wR_factor_gt 0.045
_symmetry_cell_setting orthorhombic
_symmetry_space_group_name_H-M 'P b c a'
_symmetry_Int_Tables_number 61
loop_
_symmetry_equiv_pos_site_id
_symmetry_equiv_pos_as_xyz
1 x,y,z
2 1/2-x,1/2+y,z
3 x,1/2-y,1/2+z
4 1/2-x,-y,1/2+z
5 -x,-y,-z
6 -1/2+x,-1/2-y,-z
7 -x,-1/2+y,-1/2-z
8 -1/2+x,y,-1/2-z
_cell_length_a 6.522(1)
_cell_length_b 15.100(2)
_cell_length_c 20.921(3)
_cell_angle_alpha 90
_cell_angle_beta 90
_cell_angle_gamma 90
_cell_formula_units_Z 8
loop_
_atom_type_symbol
_atom_type_radius_bond
C 0.68
H 0.23
N 0.68
O 0.68
loop_
_atom_site_label
_atom_site_type_symbol
_atom_site_fract_x
_atom_site_fract_y
_atom_site_fract_z
C1 C 0.2479(2) 0.3747(1) 0.1671(1)
O1 O 0.4218(1) 0.4192(1) 0.1899(1)
O2 O 0.0639(1) 0.4238(1) 0.1795(1)
C2 C 0.0558(2) 0.5131(1) 0.1534(1)
C3 C -0.1424(2) 0.5540(1) 0.1766(1)
C4 C 0.0693(2) 0.5073(1) 0.0811(1)
C5 C 0.2665(2) 0.4600(1) 0.0622(1)
C6 C 0.2782(2) 0.3681(1) 0.0930(1)
N1 N 0.4958(1) 0.3324(1) 0.0811(1)
O3 O 0.6135(1) 0.3758(1) 0.0480(1)
O4 O 0.5414(1) 0.2598(1) 0.1032(1)
C7 C 0.1276(2) 0.3027(1) 0.0616(1)
C8 C 0.0923(2) 0.2156(1) 0.0972(1)
C9 C 0.0420(2) 0.2322(1) 0.1674(1)
C10 C 0.2119(2) 0.2855(1) 0.1996(1)
H1 H 0.4307(24) 0.4127(10) 0.2285(7)
H2 H 0.1747(20) 0.5444(8) 0.1701(6)
H3 H -0.2646(25) 0.5185(11) 0.1611(7)
H4 H -0.1441(25) 0.5569(10) 0.2238(7)
H5 H -0.1572(23) 0.6145(9) 0.1589(7)
H6 H -0.0553(19) 0.4764(8) 0.0642(6)
H7 H 0.0681(21) 0.5677(10) 0.0620(7)
H8 H 0.2745(19) 0.4526(8) 0.0162(6)
H9 H 0.3821(20) 0.4945(8) 0.0760(6)
H10 H 0.1761(20) 0.2922(8) 0.0177(6)
H11 H -0.0044(22) 0.3331(9) 0.0582(6)
H12 H 0.2138(19) 0.1777(8) 0.0928(6)
H13 H 0.0220(23) 0.1739(9) 0.1897(7)
H14 H -0.0856(19) 0.2626(8) 0.1712(6)
H15 H 0.1798(21) 0.2987(8) 0.2437(7)
H16 H 0.3373(21) 0.2514(9) 0.1983(6)
#END
