
#######################################################################
#
#                 Cambridge Crystallographic Data Centre
#                                CCDC
#
#######################################################################
#
# If this CIF has been generated from an entry in the Cambridge
# Structural Database, then it will include bibliographic, chemical,
# crystal, experimental, refinement or atomic coordinate data resulting
# from the CCDC's data processing and validation procedures.
#
#######################################################################

data_CSD_CIF_DEMROC
_audit_creation_date 1986-07-24
_audit_creation_method CSD-ConQuest-V1
_database_code_CSD DEMROC
_chemical_formula_sum 'C11 H17 N1 O4'
_chemical_formula_moiety
;
C11 H17 N1 O4
;
_journal_coden_Cambridge 10
_journal_volume 68
_journal_year 1985
_journal_page_first 1033
_journal_name_full 'Helv.Chim.Acta '
loop_
_publ_author_name
"T.Aono"
"J.H.Bieri"
"M.Hesse"
"K.Kostova"
"A.Lorenzi-Riatsch"
"Y.Nakashita"
"R.Prewo"
_chemical_name_systematic
;
1-Hydroxy-2-acetyl-4-nitro-cyclonon-1-ene
;
_cell_volume   1101.131
_exptl_crystal_density_diffrn 1.37
_diffrn_ambient_temperature 130
#These two values have been output from a single CSD field.
_refine_ls_R_factor_gt 0.065
_refine_ls_wR_factor_gt 0.065
_symmetry_cell_setting monoclinic
_symmetry_space_group_name_H-M 'P 21/c'
_symmetry_Int_Tables_number 14
loop_
_symmetry_equiv_pos_site_id
_symmetry_equiv_pos_as_xyz
1 x,y,z
2 -x,1/2+y,1/2-z
3 -x,-y,-z
4 x,-1/2-y,-1/2+z
_cell_length_a 13.187(3)
_cell_length_b 7.697(1)
_cell_length_c 10.892(2)
_cell_angle_alpha 90
_cell_angle_beta 95.12(1)
_cell_angle_gamma 90
_cell_formula_units_Z 4
loop_
_atom_type_symbol
_atom_type_radius_bond
C 0.68
H 0.23
N 0.68
O 0.68
loop_
_atom_site_label
_atom_site_type_symbol
_atom_site_fract_x
_atom_site_fract_y
_atom_site_fract_z
C1 C 0.3198(1) 1.6497(1) 0.5423(1)
O1 O 0.3413(1) 1.6979(1) 0.6580(1)
C2 C 0.3512(1) 1.4889(1) 0.5006(1)
C3 C 0.3242(1) 1.4283(1) 0.3695(1)
C4 C 0.2268(1) 1.3172(1) 0.3604(1)
N1 N 0.2077(1) 1.2408(1) 0.2323(1)
O2 O 0.1742(1) 1.0921(1) 0.2233(1)
O3 O 0.2234(1) 1.3322(1) 0.1433(1)
C5 C 0.1292(1) 1.4131(1) 0.3876(1)
C6 C 0.1038(1) 1.5744(1) 0.3073(1)
C7 C 0.0725(1) 1.7340(1) 0.3790(1)
C8 C 0.1451(1) 1.7836(1) 0.4915(1)
C9 C 0.2598(1) 1.7853(1) 0.4677(1)
C10 C 0.4088(1) 1.3779(1) 0.5872(1)
O4 O 0.4282(1) 1.4215(1) 0.6993(1)
C11 C 0.4488(1) 1.2042(2) 0.5507(1)
H1 H 0.3825(18) 1.5876(30) 0.6931(21)
H2 H 0.3168(10) 1.5285(17) 0.3142(12)
H3 H 0.3784(10) 1.3575(18) 0.3386(12)
H4 H 0.2379(10) 1.2152(17) 0.4119(12)
H5 H 0.138(1) 1.4456(18) 0.4758(13)
H6 H 0.0731(10) 1.3305(17) 0.3815(12)
H7 H 0.1636(11) 1.6126(18) 0.2635(13)
H8 H 0.0484(10) 1.5447(17) 0.2430(12)
H9 H 0.0033(11) 1.7174(18) 0.4052(13)
H10 H 0.0670(11) 1.8360(19) 0.3219(14)
H11 H 0.1251(11) 1.9043(20) 0.5217(13)
H12 H 0.1340(11) 1.7012(19) 0.5615(13)
H13 H 0.2689(10) 1.7728(17) 0.3780(12)
H14 H 0.2914(10) 1.8995(19) 0.4943(13)
H15 H 0.5041(17) 1.1707(26) 0.6053(19)
H16 H 0.4747(15) 1.2018(26) 0.4701(19)
H17 H 0.4037(20) 1.1238(35) 0.5423(23)
#END
