
#######################################################################
#
#                 Cambridge Crystallographic Data Centre
#                                CCDC
#
#######################################################################
#
# If this CIF has been generated from an entry in the Cambridge
# Structural Database, then it will include bibliographic, chemical,
# crystal, experimental, refinement or atomic coordinate data resulting
# from the CCDC's data processing and validation procedures.
#
#######################################################################

data_CSD_CIF_DEMRIW
_audit_creation_date 1986-07-24
_audit_creation_method CSD-ConQuest-V1
_database_code_CSD DEMRIW
_database_code_depnum_ccdc_archive 'CCDC 1138721'
_chemical_formula_sum 'C10 H15 N1 O5'
_chemical_formula_moiety
;
C10 H15 N1 O5
;
_journal_coden_Cambridge 10
_journal_volume 68
_journal_year 1985
_journal_page_first 1033
_journal_name_full 'Helv.Chim.Acta '
loop_
_publ_author_name
"T.Aono"
"J.H.Bieri"
"M.Hesse"
"K.Kostova"
"A.Lorenzi-Riatsch"
"Y.Nakashita"
"R.Prewo"
_chemical_name_systematic
;
Methyl 5-nitro-2-oxocyclo-octane-1-carboxylate
;
_cell_volume   1115.959
_exptl_crystal_density_diffrn 1.33
_exptl_special_details
;
dx reported as 1.33; we calculate 1.36

;
_diffrn_ambient_temperature 130
#These two values have been output from a single CSD field.
_refine_ls_R_factor_gt 0.082
_refine_ls_wR_factor_gt 0.082
_symmetry_cell_setting monoclinic
_symmetry_space_group_name_H-M 'P 21/c'
_symmetry_Int_Tables_number 14
loop_
_symmetry_equiv_pos_site_id
_symmetry_equiv_pos_as_xyz
1 x,y,z
2 -x,1/2+y,1/2-z
3 -x,-y,-z
4 x,-1/2-y,-1/2+z
_cell_length_a 15.505(3)
_cell_length_b 7.442(1)
_cell_length_c 10.032(1)
_cell_angle_alpha 90
_cell_angle_beta 105.41(1)
_cell_angle_gamma 90
_cell_formula_units_Z 4
loop_
_atom_type_symbol
_atom_type_radius_bond
C 0.68
H 0.23
N 0.68
O 0.68
loop_
_atom_site_label
_atom_site_type_symbol
_atom_site_fract_x
_atom_site_fract_y
_atom_site_fract_z
C1 C 0.1968(1) 0.7144(2) 0.1317(2)
C2 C 0.2040(1) 0.5430(2) 0.2181(2)
O1 O 0.2064(1) 0.5532(2) 0.3398(1)
C3 C 0.2050(1) 0.3639(2) 0.1481(2)
C4 C 0.2623(1) 0.3525(2) 0.0457(2)
C5 C 0.3617(1) 0.3642(2) 0.1182(2)
N1 N 0.4125(1) 0.3264(2) 0.0113(2)
O2 O 0.3927(1) 0.3976(3) -0.0972(2)
O3 O 0.4712(2) 0.2253(5) 0.0380(3)
C6 C 0.3956(1) 0.5412(3) 0.1911(2)
C7 C 0.3610(1) 0.7163(2) 0.1145(2)
C8 C 0.2874(1) 0.8130(2) 0.1625(2)
C9 C 0.1263(1) 0.8301(2) 0.1693(2)
O4 O 0.1390(1) 0.9701(2) 0.2305(2)
O5 O 0.0457(1) 0.7505(2) 0.1283(1)
C10 C -0.0268(1) 0.8436(3) 0.1664(2)
H1 H 0.1763(10) 0.6882(14) 0.0332(13)
H2 H 0.2218(11) 0.2697(15) 0.2155(14)
H3 H 0.1408(11) 0.3384(14) 0.0961(13)
H4 H 0.244(1) 0.4493(14) -0.0261(12)
H5 H 0.2493(10) 0.2399(15) -0.0010(13)
H6 H 0.3815(10) 0.2671(14) 0.1816(13)
H7 H 0.3786(9) 0.5371(14) 0.2816(12)
H8 H 0.4593(11) 0.5279(15) 0.2091(13)
H9 H 0.3423(10) 0.7028(14) 0.0164(13)
H10 H 0.4132(11) 0.7989(15) 0.1282(14)
H11 H 0.2756(10) 0.9262(15) 0.1153(13)
H12 H 0.3091(10) 0.8284(14) 0.2671(13)
H13 H -0.0344(12) 0.9492(15) 0.1153(14)
H14 H -0.0082(11) 0.8852(15) 0.2597(14)
H15 H -0.0787(13) 0.7607(16) 0.1474(15)
#END
