
#######################################################################
#
#                 Cambridge Crystallographic Data Centre
#                                CCDC
#
#######################################################################
#
# If this CIF has been generated from an entry in the Cambridge
# Structural Database, then it will include bibliographic, chemical,
# crystal, experimental, refinement or atomic coordinate data resulting
# from the CCDC's data processing and validation procedures.
#
#######################################################################

data_CSD_CIF_DEMSAP
_audit_creation_date 1986-07-24
_audit_creation_method CSD-ConQuest-V1
_database_code_CSD DEMSAP
_chemical_formula_sum 'C19 H23 N1 O6'
_chemical_formula_moiety
;
C19 H23 N1 O6
;
_journal_coden_Cambridge 10
_journal_volume 68
_journal_year 1985
_journal_page_first 1033
_journal_name_full 'Helv.Chim.Acta '
loop_
_publ_author_name
"T.Aono"
"J.H.Bieri"
"M.Hesse"
"K.Kostova"
"A.Lorenzi-Riatsch"
"Y.Nakashita"
"R.Prewo"
_chemical_name_systematic
;
Benzyl 5-nitro-2-oxo-11-hydroxy-cycloundec-1(11)-ene-1-carboxylate
;
_cell_volume   1795.114
_exptl_crystal_density_diffrn 1.34
_diffrn_ambient_temperature ?
_diffrn_special_details
;
The study was carried out at room temperature,in the range 283-303K

;
#These two values have been output from a single CSD field.
_refine_ls_R_factor_gt 0.097
_refine_ls_wR_factor_gt 0.097
_symmetry_cell_setting monoclinic
_symmetry_space_group_name_H-M 'P 21/c'
_symmetry_Int_Tables_number 14
loop_
_symmetry_equiv_pos_site_id
_symmetry_equiv_pos_as_xyz
1 x,y,z
2 -x,1/2+y,1/2-z
3 -x,-y,-z
4 x,-1/2-y,-1/2+z
_cell_length_a 11.863(1)
_cell_length_b 15.216(1)
_cell_length_c 10.402(1)
_cell_angle_alpha 90
_cell_angle_beta 107.05(1)
_cell_angle_gamma 90
_cell_formula_units_Z 4
loop_
_atom_type_symbol
_atom_type_radius_bond
C 0.68
H 0.23
N 0.68
O 0.68
loop_
_atom_site_label
_atom_site_type_symbol
_atom_site_fract_x
_atom_site_fract_y
_atom_site_fract_z
C1 C 0.1313(2) 0.1619(2) 0.2207(1)
C2 C 0.0115(2) 0.1725(2) 0.1958(3)
O1 O -0.0659(2) 0.1241(2) 0.1069(2)
C3 C -0.0482(2) 0.2428(2) 0.2526(3)
C4 C -0.0983(2) 0.3152(2) 0.1461(3)
C5 C -0.0538(3) 0.4076(2) 0.1931(3)
C6 C 0.0743(3) 0.4225(2) 0.2378(3)
C7 C 0.1347(3) 0.3989(2) 0.1298(3)
C8 C 0.2677(3) 0.4105(2) 0.1748(3)
N1 N 0.3030(2) 0.5062(2) 0.1998(3)
O2 O 0.3502(2) 0.5324(1) 0.3119(3)
O3 O 0.2796(4) 0.5528(2) 0.1019(3)
C9 C 0.3384(2) 0.3567(2) 0.2942(3)
C10 C 0.3179(2) 0.2587(2) 0.2657(2)
C11 C 0.2169(2) 0.2222(2) 0.3125(2)
O4 O 0.2060(2) 0.2441(1) 0.4208(2)
C12 C 0.1726(2) 0.0922(2) 0.1493(2)
O5 O 0.1087(2) 0.0455(1) 0.0630(2)
O6 O 0.2901(2) 0.0821(1) 0.1909(2)
C13 C 0.3386(3) 0.0144(2) 0.1233(3)
C14 C 0.3595(2) -0.0695(2) 0.2015(2)
C15 C 0.4133(3) -0.0691(2) 0.3404(3)
C16 C 0.4387(3) -0.1476(2) 0.4097(3)
C17 C 0.4122(3) -0.2266(2) 0.3426(4)
C18 C 0.3573(3) -0.2275(2) 0.2069(4)
C19 C 0.3303(2) -0.1499(2) 0.1364(3)
H1 H -0.0346(36) 0.0866(28) 0.0858(41)
H2 H 0.0024(23) 0.2670(17) 0.3360(26)
H3 H -0.1154(27) 0.2137(21) 0.278(3)
H4 H -0.0728(41) 0.3011(32) 0.0610(45)
H5 H -0.1794(28) 0.3173(21) 0.1189(30)
H6 H -0.0839(25) 0.4190(27) 0.2777(40)
H7 H -0.105(3) 0.4535(22) 0.1122(33)
H8 H 0.1097(29) 0.4908(23) 0.2594(33)
H9 H 0.1120(25) 0.3842(20) 0.3252(29)
H10 H 0.1148(22) 0.4424(17) 0.0592(26)
H11 H 0.1052(27) 0.3327(20) 0.0989(29)
H12 H 0.2935(26) 0.3968(20) 0.0786(30)
H13 H 0.4337(30) 0.3703(22) 0.3237(33)
H14 H 0.3108(24) 0.3717(18) 0.3716(27)
H15 H 0.3868(24) 0.2323(18) 0.3223(26)
H16 H 0.3092(27) 0.2476(21) 0.1745(30)
H17 H 0.2889(25) 0.0103(19) 0.0319(28)
H18 H 0.4095(24) 0.0392(18) 0.1227(27)
H19 H 0.4334(29) -0.0120(22) 0.3812(33)
H20 H 0.4857(38) -0.1451(27) 0.5070(41)
H21 H 0.4263(31) -0.2820(23) 0.4016(34)
H22 H 0.3389(31) -0.2761(24) 0.1663(34)
H23 H 0.2878(26) -0.1500(19) 0.0457(28)
#END
