
#######################################################################
#
#                 Cambridge Crystallographic Data Centre
#                                CCDC
#
#######################################################################
#
# If this CIF has been generated from an entry in the Cambridge
# Structural Database, then it will include bibliographic, chemical,
# crystal, experimental, refinement or atomic coordinate data resulting
# from the CCDC's data processing and validation procedures.
#
#######################################################################

data_CSD_CIF_DEMSOD
_audit_creation_date 1986-07-24
_audit_creation_method CSD-ConQuest-V1
_database_code_CSD DEMSOD
_database_code_depnum_ccdc_archive 'CCDC 1138725'
_chemical_formula_sum 'C8 H8 N2 O6'
_chemical_formula_moiety
;
C8 H8 N2 O6
;
_journal_coeditor_code "IUCr A24997"
_journal_coden_Cambridge 591
_journal_volume 41
_journal_year 1985
_journal_page_first 1377
_journal_name_full 'Acta Crystallogr.,Sect.C:Cryst.Struct.Commun. '
loop_
_publ_author_name
"P.G.Jones"
"G.M.Sheldrick"
"A.J.Kirby"
"A.J.Briggs"
_chemical_name_systematic
;
1-Methoxymethoxy-3,5-dinitrobenzene
;
_cell_volume    999.302
_exptl_crystal_colour 'colorless'
_exptl_crystal_density_diffrn 1.516
_diffrn_ambient_temperature ?
_diffrn_special_details
;
The study was carried out at room temperature,in the range 283-303K

;
#These two values have been output from a single CSD field.
_refine_ls_R_factor_gt 0.04
_refine_ls_wR_factor_gt 0.04
_symmetry_cell_setting orthorhombic
_symmetry_space_group_name_H-M 'P 21 21 21'
_symmetry_Int_Tables_number 19
loop_
_symmetry_equiv_pos_site_id
_symmetry_equiv_pos_as_xyz
1 x,y,z
2 1/2+x,1/2-y,-z
3 -x,1/2+y,1/2-z
4 1/2-x,-y,1/2+z
_cell_length_a 5.387(2)
_cell_length_b 11.053(2)
_cell_length_c 16.783(3)
_cell_angle_alpha 90
_cell_angle_beta 90
_cell_angle_gamma 90
_cell_formula_units_Z 4
loop_
_atom_type_symbol
_atom_type_radius_bond
C 0.68
H 0.23
N 0.68
O 0.68
loop_
_atom_site_label
_atom_site_type_symbol
_atom_site_fract_x
_atom_site_fract_y
_atom_site_fract_z
C1 C 0.5299(4) 0.2551(2) 0.2626(1)
C2 C 0.3548(4) 0.1681(2) 0.2817(1)
C3 C 0.1790(4) 0.1391(2) 0.2252(1)
C4 C 0.1625(4) 0.1933(2) 0.1514(1)
C5 C 0.3372(4) 0.2811(1) 0.1361(1)
C6 C 0.5215(4) 0.3122(2) 0.1888(1)
N1 N -0.0074(4) 0.0465(2) 0.2456(1)
O1 O -0.0069(3) 0.0066(1) 0.3137(1)
O2 O -0.1529(4) 0.0154(2) 0.1942(1)
N2 N 0.3249(4) 0.3484(1) 0.0605(1)
O3 O 0.4699(4) 0.4307(1) 0.0498(1)
O4 O 0.1688(4) 0.3189(2) 0.0125(1)
O5 O 0.7207(3) 0.2908(1) 0.3107(1)
C7 C 0.7263(4) 0.2471(2) 0.3909(1)
O6 O 0.5290(4) 0.2869(1) 0.4349(1)
C8 C 0.5405(7) 0.4132(2) 0.4526(2)
H1 H 0.35580 0.12910 0.33280
H2 H 0.03760 0.17130 0.11330
H3 H 0.64250 0.37240 0.17490
H4 H 0.87680 0.27430 0.41580
H5 H 0.72380 0.16020 0.38990
H6 H 0.39190 0.43990 0.47890
H7 H 0.56500 0.45950 0.40490
H8 H 0.67990 0.42420 0.48750
#END
