
#######################################################################
#
#                 Cambridge Crystallographic Data Centre
#                                CCDC
#
#######################################################################
#
# If this CIF has been generated from an entry in the Cambridge
# Structural Database, then it will include bibliographic, chemical,
# crystal, experimental, refinement or atomic coordinate data resulting
# from the CCDC's data processing and validation procedures.
#
#######################################################################

data_CSD_CIF_DEMTUL
_audit_creation_date 2006-12-20
_audit_creation_method CSD-ConQuest-V1
_database_code_CSD DEMTUL
_database_code_depnum_ccdc_archive 'CCDC 272478'
_chemical_formula_sum 'C20 H21 N1 O3'
_chemical_formula_moiety
;
C20 H21 N1 O3
;
_journal_coden_Cambridge 956
_journal_volume 7
_journal_year 2006
_journal_page_first 255
_journal_name_full 'Int.J.Mol.Sci. '
loop_
_publ_author_name
"F.Hamzaoui"
"A.Chouaih"
"P.Lagant"
"O.Belarbi"
"G.Vergoten"
_chemical_name_systematic
;
Methyl (7-(3,3-dimethyl-but-1-ynyl)-1-naphthyl)(methyloxyimino)acetate
;
_chemical_name_common
;
RU60358
;
_cell_volume   1874.892
_exptl_crystal_colour 'colorless'
_exptl_crystal_density_diffrn 1.146
_exptl_crystal_description 'prism'
_diffrn_ambient_temperature 293
#These two values have been output from a single CSD field.
_refine_ls_R_factor_gt 0.0689
_refine_ls_wR_factor_gt 0.0689
_symmetry_cell_setting orthorhombic
_symmetry_space_group_name_H-M 'P 21 21 21'
_symmetry_Int_Tables_number 19
loop_
_symmetry_equiv_pos_site_id
_symmetry_equiv_pos_as_xyz
1 x,y,z
2 1/2-x,-y,1/2+z
3 1/2+x,1/2-y,-z
4 -x,1/2+y,1/2-z
_cell_length_a 7.758(2)
_cell_length_b 11.318(2)
_cell_length_c 21.3529(10)
_cell_angle_alpha 90
_cell_angle_beta 90
_cell_angle_gamma 90
_cell_formula_units_Z 4
loop_
_atom_type_symbol
_atom_type_radius_bond
C 0.68
H 0.23
N 0.68
O 0.68
loop_
_atom_site_label
_atom_site_type_symbol
_atom_site_fract_x
_atom_site_fract_y
_atom_site_fract_z
C1 C 0.6162(7) 0.2042(5) 0.1558(2)
C2 C 0.6755(7) 0.1829(4) 0.0952(2)
C3 C 0.6604(8) 0.0693(5) 0.0687(3)
H1 H 0.61130 0.00820 0.09170
C4 C 0.7190(8) 0.0485(5) 0.0079(3)
C5 C 0.7917(8) 0.1403(6) -0.0268(3)
H2 H 0.83080 0.12650 -0.06730
C6 C 0.8059(8) 0.2529(6) -0.0007(3)
H3 H 0.85520 0.31380 -0.02380
C7 C 0.7463(8) 0.2748(5) 0.0601(2)
C8 C 0.7577(9) 0.3880(5) 0.0856(3)
H4 H 0.80490 0.44930 0.06220
C9 C 0.6984(9) 0.4093(6) 0.1462(3)
H5 H 0.70610 0.48480 0.16320
C10 C 0.6276(8) 0.3174(5) 0.1813(3)
H6 H 0.58810 0.33160 0.22180
C11 C 0.5246(6) 0.1155(5) 0.1939(2)
C12 C 0.3299(8) 0.1071(6) 0.1938(3)
C13 C 0.0802(10) 0.1747(10) 0.1449(6)
H7 H 0.04260 0.09940 0.12930
H8 H 0.04620 0.23570 0.11620
H9 H 0.02870 0.18910 0.18510
C14 C 0.8381(12) -0.0450(12) 0.2677(6)
H10 H 0.96170 -0.04080 0.26740
H11 H 0.80210 -0.12130 0.25300
H12 H 0.79680 -0.03330 0.30970
O1 O 0.2650(5) 0.1745(4) 0.1511(2)
O2 O 0.2480(7) 0.0462(7) 0.2252(3)
O3 O 0.7693(5) 0.0445(4) 0.2279(2)
N1 N 0.5924(7) 0.0351(5) 0.2279(2)
C15 C 0.7031(10) -0.0644(5) -0.0215(3)
C16 C 0.6965(12) -0.1526(6) -0.0493(3)
C17 C 0.6895(10) -0.2646(8) -0.0838(4)
C18 C 0.5373(5) -0.2747(10) -0.1220(8)
H13 H 0.43760 -0.28090 -0.09560
H14 H 0.54590 -0.34390 -0.14780
H15 H 0.52710 -0.20600 -0.14810
C19 C 0.7040(3) -0.3664(8) -0.0414(6)
H16 H 0.62000 -0.35950 -0.00860
H17 H 0.81750 -0.36830 -0.02350
H18 H 0.68400 -0.43790 -0.06450
C20 C 0.8452(4) -0.2684(12) -0.1277(9)
H19 H 0.94930 -0.26250 -0.10370
H20 H 0.83900 -0.20350 -0.15660
H21 H 0.84490 -0.34150 -0.15050
#END
