
#######################################################################
#
#                 Cambridge Crystallographic Data Centre
#                                CCDC
#
#######################################################################
#
# If this CIF has been generated from an entry in the Cambridge
# Structural Database, then it will include bibliographic, chemical,
# crystal, experimental, refinement or atomic coordinate data resulting
# from the CCDC's data processing and validation procedures.
#
#######################################################################

data_CSD_CIF_DENCAA
_audit_creation_date 1986-07-24
_audit_creation_method CSD-ConQuest-V1
_database_code_CSD DENCAA
_database_code_depnum_ccdc_archive 'CCDC 1138767'
_chemical_formula_sum 'C16 H13 N3 O4'
_chemical_formula_moiety
;
C16 H13 N3 O4
;
_journal_coden_Cambridge 48
_journal_volume 118
_journal_year 1985
_journal_page_first 4026
_journal_name_full 'Chem.Ber. '
loop_
_publ_author_name
"R.W.Saalfrank"
"B.Weiss"
"K.Peters"
"H.G.von Schnering"
_chemical_name_systematic
;
5-(4-Methoxyphenyl)-2-(2-nitrophenyl)-6H-1,3,4-oxadiazine
;
_chemical_melting_point 401.15
_cell_volume    720.750
_exptl_crystal_density_diffrn 1.434
_diffrn_ambient_temperature ?
_diffrn_special_details
;
The study was carried out at room temperature,in the range 283-303K

;
#These two values have been output from a single CSD field.
_refine_ls_R_factor_gt 0.04
_refine_ls_wR_factor_gt 0.04
_symmetry_cell_setting triclinic
_symmetry_space_group_name_H-M 'P -1'
_symmetry_Int_Tables_number 2
loop_
_symmetry_equiv_pos_site_id
_symmetry_equiv_pos_as_xyz
1 x,y,z
2 -x,-y,-z
_cell_length_a 10.144(4)
_cell_length_b 12.613(5)
_cell_length_c 6.184(2)
_cell_angle_alpha 100.82(3)
_cell_angle_beta 95.71(3)
_cell_angle_gamma 109.60(3)
_cell_formula_units_Z 2
loop_
_atom_type_symbol
_atom_type_radius_bond
C 0.68
H 0.23
N 0.68
O 0.68
loop_
_atom_site_label
_atom_site_type_symbol
_atom_site_fract_x
_atom_site_fract_y
_atom_site_fract_z
O1 O 0.1670(2) 0.6026(2) 0.4647(3)
C1 C 0.1735(3) 0.6104(2) 0.6869(5)
N1 N 0.2146(3) 0.5462(2) 0.7932(4)
N2 N 0.2407(3) 0.4520(2) 0.6619(4)
C2 C 0.2761(3) 0.4619(2) 0.4704(4)
C3 C 0.2799(3) 0.5674(2) 0.3879(5)
C4 C 0.3126(3) 0.3693(2) 0.3360(5)
C5 C 0.2858(3) 0.2624(2) 0.3960(5)
C6 C 0.3218(3) 0.1768(2) 0.2734(5)
C7 C 0.3874(3) 0.1946(2) 0.0885(5)
C8 C 0.4138(3) 0.2988(2) 0.0264(5)
C9 C 0.3752(3) 0.3842(2) 0.1489(5)
O2 O 0.4207(2) 0.1047(2) -0.0192(3)
C10 C 0.5117(4) 0.1257(3) -0.1824(5)
C11 C 0.1205(3) 0.6964(2) 0.8098(5)
C12 C 0.0376(3) 0.6654(2) 0.9709(5)
C13 C -0.0131(3) 0.7410(3) 1.0963(5)
C14 C 0.0179(4) 0.8508(3) 1.0612(6)
C15 C 0.0973(4) 0.8844(3) 0.9023(6)
C16 C 0.1481(3) 0.8082(2) 0.7777(5)
N3 N 0.2445(3) 0.8541(2) 0.6246(4)
O3 O 0.2160(3) 0.9214(2) 0.5257(4)
O4 O 0.3486(3) 0.8267(2) 0.6150(4)
H1 H 0.26610 0.55120 0.22530
H2 H 0.37100 0.63020 0.44450
H3 H 0.24130 0.24970 0.52620
H4 H 0.30010 0.10190 0.31560
H5 H 0.45950 0.31160 -0.10350
H6 H 0.39000 0.45710 0.10070
H7 H 0.52850 0.05690 -0.24720
H8 H 0.60290 0.18650 -0.11450
H9 H 0.46930 0.15080 -0.30130
H10 H 0.01150 0.58550 0.99070
H11 H -0.06940 0.71740 1.21110
H12 H -0.01560 0.90470 1.15280
H13 H 0.11660 0.96230 0.87480
#END
