
#######################################################################
#
#                 Cambridge Crystallographic Data Centre
#                                CCDC
#
#######################################################################
#
# If this CIF has been generated from an entry in the Cambridge
# Structural Database, then it will include bibliographic, chemical,
# crystal, experimental, refinement or atomic coordinate data resulting
# from the CCDC's data processing and validation procedures.
#
#######################################################################

data_CSD_CIF_DEPVUP
_audit_creation_date 1986-07-24
_audit_creation_method CSD-ConQuest-V1
_database_code_CSD DEPVUP
_chemical_formula_sum 'C11 H10 N2 O6'
_chemical_formula_moiety
;
C11 H10 N2 O6
;
_journal_coden_Cambridge 35
_journal_volume 50
_journal_year 1985
_journal_page_first 5372
_journal_name_full 'J.Org.Chem. '
loop_
_publ_author_name
"W.J.Layton"
"C.P.Brock"
"P.A.Crooks"
"S.L.Smith"
"P.Burn"
_chemical_name_systematic
;
5,6-Benzobicyclo(2.2.1)hept-5-ene-2-exo,7-anti-diyl dinitrate
;
_chemical_melting_point 373.15
_cell_volume   2291.922
_exptl_crystal_colour 'white'
_exptl_crystal_density_diffrn 1.543
_exptl_special_details
;
Melting point range 373.15-374.15K

;
_diffrn_ambient_temperature ?
_diffrn_special_details
;
The study was carried out at room temperature,in the range 283-303K

;
#These two values have been output from a single CSD field.
_refine_ls_R_factor_gt 0.034
_refine_ls_wR_factor_gt 0.034
_symmetry_cell_setting monoclinic
_symmetry_space_group_name_H-M 'C 2/c'
_symmetry_Int_Tables_number 15
loop_
_symmetry_equiv_pos_site_id
_symmetry_equiv_pos_as_xyz
1 x,y,z
2 1/2+x,1/2+y,z
3 -x,y,1/2-z
4 1/2-x,1/2+y,1/2-z
5 -x,-y,-z
6 -1/2-x,-1/2-y,-z
7 x,-y,-1/2+z
8 -1/2+x,-1/2-y,-1/2+z
_cell_length_a 24.100(4)
_cell_length_b 6.990(2)
_cell_length_c 17.524(3)
_cell_angle_alpha 90
_cell_angle_beta 129.07(2)
_cell_angle_gamma 90
_cell_formula_units_Z 8
loop_
_atom_type_symbol
_atom_type_radius_bond
C 0.68
H 0.23
N 0.68
O 0.68
loop_
_atom_site_label
_atom_site_type_symbol
_atom_site_fract_x
_atom_site_fract_y
_atom_site_fract_z
O1 O 0.67901(5) 0.07151(13) 0.11156(6)
O2 O 0.66475(4) -0.24184(15) 0.07891(8)
O3 O 0.76800(6) -0.12529(20) 0.19973(9)
O4 O 0.66728(4) 0.33127(13) -0.02423(6)
O5 O 0.63411(6) 0.59479(15) -0.11642(8)
O6 O 0.74617(6) 0.53009(18) -0.00042(9)
N1 N 0.70545(6) -0.11598(18) 0.13050(9)
N2 N 0.68322(7) 0.50140(17) -0.05024(9)
C1 C 0.58177(7) 0.07605(17) -0.07137(9)
C2 C 0.60326(6) 0.08913(18) 0.03247(8)
C3 C 0.58404(2) 0.29661(20) 0.03833(9)
C4 C 0.54678(7) 0.37549(19) -0.06652(9)
C5 C 0.47943(6) 0.26063(19) -0.13755(8)
C6 C 0.50089(7) 0.07659(17) -0.14057(8)
C7 C 0.59208(5) 0.28284(18) -0.09060(9)
C8 C 0.40752(7) 0.30721(23) -0.19460(9)
C9 C 0.35771(7) 0.16578(25) -0.2548(1)
C10 C 0.37889(8) -0.01616(25) -0.2573(1)
C11 C 0.45114(8) -0.06378(22) -0.2000(1)
H1 H 0.6058(7) -0.0232(20) -0.0779(9)
H2 H 0.5795(7) -0.0035(21) 0.0459(10)
H3 H 0.6250(8) 0.3670(25) 0.0862(11)
H4 H 0.5525(8) 0.2985(20) 0.0567(10)
H5 H 0.5433(7) 0.5112(22) -0.0737(10)
H6 H 0.5750(7) 0.3013(19) -0.157(1)
H7 H 0.3923(8) 0.4349(26) -0.1922(11)
H8 H 0.3088(10) 0.1928(25) -0.2928(13)
H9 H 0.3459(9) -0.1079(25) -0.2979(12)
H10 H 0.4672(8) -0.1931(24) -0.2019(11)
#END
