
#######################################################################
#
#                 Cambridge Crystallographic Data Centre
#                                CCDC
#
#######################################################################
#
# If this CIF has been generated from an entry in the Cambridge
# Structural Database, then it will include bibliographic, chemical,
# crystal, experimental, refinement or atomic coordinate data resulting
# from the CCDC's data processing and validation procedures.
#
#######################################################################

data_CSD_CIF_DEPVOM
_audit_creation_date 2018-02-08
_audit_creation_method CSD-ConQuest-V1
_database_code_CSD DEPVOM
_database_code_depnum_ccdc_archive 'CCDC 1821805'
_chemical_formula_sum 'C22 H17 N3 O1'
_chemical_formula_moiety
;
C22 H17 N3 O1
;
_journal_coeditor_code "hb4209"
_journal_coden_Cambridge 1959
_journal_volume 3
_journal_year 2018
_journal_page_first x180208
_journal_name_full 'IUCrData '
loop_
_publ_author_name
"S.K.Mohamed"
"J.T.Mague"
"M.Akkurt"
"A.I.Said"
"F.E.Hawaiz"
"S.M.I.Elgarhy"
_chemical_name_systematic
;
(NZ)-N-[(1,3-diphenyl-1H-pyrazol-4-yl)methylidene]-N-oxidoanilinium
;
_cell_volume   1694.861
_exptl_crystal_colour 'colorless'
_exptl_crystal_density_diffrn 1.33
_exptl_crystal_description 'slab'
_diffrn_ambient_temperature 150
#These two values have been output from a single CSD field.
_refine_ls_R_factor_gt 0.0346
_refine_ls_wR_factor_gt 0.0346
_symmetry_cell_setting monoclinic
_symmetry_space_group_name_H-M 'P 21/c'
_symmetry_Int_Tables_number 14
loop_
_symmetry_equiv_pos_site_id
_symmetry_equiv_pos_as_xyz
1 x,y,z
2 -x,1/2+y,1/2-z
3 -x,-y,-z
4 x,-1/2-y,-1/2+z
_cell_length_a 9.1084(8)
_cell_length_b 10.8314(9)
_cell_length_c 17.2226(14)
_cell_angle_alpha 90
_cell_angle_beta 94.060(3)
_cell_angle_gamma 90
_cell_formula_units_Z 4
loop_
_atom_type_symbol
_atom_type_radius_bond
C 0.68
H 0.23
N 0.68
O 0.68
loop_
_atom_site_label
_atom_site_type_symbol
_atom_site_fract_x
_atom_site_fract_y
_atom_site_fract_z
O1 O 0.28419(9) 0.52663(7) 0.36611(4)
N1 N 0.47211(10) 0.17352(8) 0.35347(5)
N2 N 0.43135(10) 0.11254(8) 0.28595(5)
N3 N 0.24264(10) 0.51508(8) 0.29270(5)
C1 C 0.34438(12) 0.19128(10) 0.24500(6)
C2 C 0.32853(12) 0.30422(10) 0.28615(6)
C3 C 0.41176(12) 0.28765(10) 0.35573(6)
H1 H 0.4284(15) 0.3403(13) 0.4012(8)
C4 C 0.28057(12) 0.15709(10) 0.16696(6)
C5 C 0.36634(12) 0.09282(10) 0.11610(7)
H2 H 0.4686(16) 0.0721(13) 0.1323(8)
C6 C 0.30717(13) 0.06002(10) 0.04264(7)
H3 H 0.3662(16) 0.0143(14) 0.0062(9)
C7 C 0.16261(13) 0.08928(11) 0.01886(7)
H4 H 0.1217(16) 0.0663(13) -0.0348(9)
C8 C 0.07650(13) 0.15151(11) 0.06946(7)
H5 H -0.0281(17) 0.1681(14) 0.0528(9)
C9 C 0.13483(12) 0.18579(10) 0.14310(7)
H6 H 0.0741(16) 0.2279(13) 0.1793(8)
C10 C 0.25703(12) 0.41252(10) 0.25391(6)
H7 H 0.2241(15) 0.4182(12) 0.1985(8)
C11 C 0.18754(12) 0.62568(10) 0.25287(6)
C12 C 0.07684(13) 0.62002(11) 0.19349(7)
H8 H 0.0327(17) 0.5402(15) 0.1778(9)
C13 C 0.02996(15) 0.72902(12) 0.15667(7)
H9 H -0.0492(18) 0.7239(15) 0.114(1)
C14 C 0.09319(15) 0.84091(12) 0.17922(8)
H10 H 0.0611(18) 0.9174(15) 0.1518(9)
C15 C 0.20296(15) 0.84466(11) 0.23889(8)
H11 H 0.2490(18) 0.9228(16) 0.2557(9)
C16 C 0.25028(13) 0.73711(11) 0.27657(7)
H12 H 0.3280(16) 0.7378(13) 0.3209(9)
C17 C 0.57182(12) 0.11615(10) 0.40996(6)
C18 C 0.58624(13) -0.01172(11) 0.40974(7)
H13 H 0.5275(16) -0.0599(13) 0.3711(8)
C19 C 0.68443(14) -0.06779(12) 0.46408(7)
H14 H 0.6950(17) -0.1599(16) 0.4635(9)
C20 C 0.76560(14) 0.00264(13) 0.51877(8)
H15 H 0.8351(19) -0.0370(16) 0.5572(10)
C21 C 0.74840(15) 0.12980(13) 0.51930(8)
H16 H 0.803(2) 0.1830(17) 0.5598(10)
C22 C 0.65314(14) 0.18760(12) 0.46431(7)
H17 H 0.6438(17) 0.2784(15) 0.4628(9)
#END
