
#######################################################################
#
#                 Cambridge Crystallographic Data Centre
#                                CCDC
#
#######################################################################
#
# If this CIF has been generated from an entry in the Cambridge
# Structural Database, then it will include bibliographic, chemical,
# crystal, experimental, refinement or atomic coordinate data resulting
# from the CCDC's data processing and validation procedures.
#
#######################################################################

data_CSD_CIF_DEQPUN
_audit_creation_date 2018-02-08
_audit_creation_method CSD-ConQuest-V1
_database_code_CSD DEQPUN
_database_code_depnum_ccdc_archive 'CCDC 1822890'
_chemical_formula_sum 'C16 H13 N3 O2'
_chemical_formula_moiety
;
C16 H13 N3 O2
;
_journal_coden_Cambridge 35
_journal_volume 83
_journal_year 2018
_journal_page_first 1252
_journal_name_full 'J.Org.Chem. '
loop_
_publ_author_name
"Y.L.Nosood"
"Azim Ziyaei Halimehjani"
"F.V.Gonzalez"
_chemical_name_systematic
;
2-methyl-3-(3-nitrophenyl)-5H-1,4-benzodiazepine
;
_cell_volume    693.360
_exptl_crystal_colour 'yellow'
_exptl_crystal_density_diffrn 1.338
_exptl_crystal_description 'platelet'
_diffrn_ambient_temperature 293
#These two values have been output from a single CSD field.
_refine_ls_R_factor_gt 0.0449
_refine_ls_wR_factor_gt 0.0449
_symmetry_cell_setting triclinic
_symmetry_space_group_name_H-M 'P -1'
_symmetry_Int_Tables_number 2
loop_
_symmetry_equiv_pos_site_id
_symmetry_equiv_pos_as_xyz
1 x,y,z
2 -x,-y,-z
_cell_length_a 8.07903(12)
_cell_length_b 9.7385(3)
_cell_length_c 10.0265(3)
_cell_angle_alpha 118.285(3)
_cell_angle_beta 93.0114(17)
_cell_angle_gamma 90.1807(17)
_cell_formula_units_Z 2
loop_
_atom_type_symbol
_atom_type_radius_bond
C 0.68
H 0.23
N 0.68
O 0.68
loop_
_atom_site_label
_atom_site_type_symbol
_atom_site_fract_x
_atom_site_fract_y
_atom_site_fract_z
N1 N 0.34962(15) 0.11669(13) 0.87737(13)
C1 C 0.47051(16) 0.25043(15) 0.70088(14)
H1 H 0.49360 0.14540 0.66270
N2 N 0.01630(14) 0.25546(14) 1.00413(14)
C2 C 0.35590(16) 0.31883(15) 0.81050(15)
C3 C 0.54947(16) 0.34017(17) 0.64953(16)
C4 C 0.26737(16) 0.21984(15) 0.86250(14)
C5 C 0.09833(15) 0.22741(16) 1.11606(15)
N3 N 0.66163(17) 0.26346(19) 0.52569(16)
C6 C 0.21191(17) 0.10887(16) 1.08208(16)
C7 C 0.3273(2) 0.47691(17) 0.86740(18)
H2 H 0.25020 0.52390 0.94040
O1 O 0.69334(18) 0.12702(17) 0.48376(15)
C8 C 0.2572(2) 0.01565(17) 0.92109(18)
H3 H 0.32480 -0.07060 0.91080
H4 H 0.15750 -0.02680 0.85500
C9 C 0.0491(2) 0.31136(18) 1.26369(17)
H5 H -0.02890 0.38810 1.28630
C10 C 0.08641(17) 0.24601(17) 0.88870(16)
C11 C 0.2750(2) 0.0798(2) 1.1970(2)
H6 H 0.35080 0.00140 1.17520
C12 C 0.5234(2) 0.4974(2) 0.7059(2)
H7 H 0.57910 0.55590 0.67010
C13 C 0.4121(2) 0.56485(19) 0.8168(2)
H8 H 0.39380 0.67110 0.85830
O2 O 0.7174(2) 0.3395(2) 0.4705(2)
C14 C 0.2269(2) 0.1654(2) 1.3433(2)
H9 H 0.27010 0.14450 1.41940
C15 C 0.1150(2) 0.2818(2) 1.37650(18)
H10 H 0.08380 0.34050 1.47550
C16 C -0.0195(2) 0.2654(3) 0.7713(2)
H11 H -0.13440 0.25520 0.78620
H12 H 0.00580 0.18670 0.67190
H13 H 0.00240 0.36680 0.78090
#END
