
#######################################################################
#
#                 Cambridge Crystallographic Data Centre
#                                CCDC
#
#######################################################################
#
# If this CIF has been generated from an entry in the Cambridge
# Structural Database, then it will include bibliographic, chemical,
# crystal, experimental, refinement or atomic coordinate data resulting
# from the CCDC's data processing and validation procedures.
#
#######################################################################

data_CSD_CIF_DEQZOR
_audit_creation_date 2018-02-08
_audit_creation_method CSD-ConQuest-V1
_database_code_CSD DEQZOR
_database_code_depnum_ccdc_archive 'CCDC 1583341'
_chemical_formula_sum 'C24 H25 N1 O5'
_chemical_formula_moiety
;
C24 H25 N1 O5
;
_journal_coden_Cambridge 35
_journal_volume 83
_journal_year 2018
_journal_page_first 1614
_journal_name_full 'J.Org.Chem. '
loop_
_publ_author_name
"H.Tanimoto"
"Sho Ueda"
"T.Morimoto"
"K.Kakiuchi"
_chemical_name_systematic
;
diethyl 2-(diphenylmethylidene)-3-(hydroxyimino)cyclopentane-1,1-dicarboxylate
;
_cell_volume   1059.095
_exptl_crystal_colour 'colorless'
_exptl_crystal_density_diffrn 1.278
_exptl_crystal_description 'prism'
_diffrn_ambient_temperature 123
#These two values have been output from a single CSD field.
_refine_ls_R_factor_gt 0.0374
_refine_ls_wR_factor_gt 0.0374
_symmetry_cell_setting triclinic
_symmetry_space_group_name_H-M 'P -1'
_symmetry_Int_Tables_number 2
loop_
_symmetry_equiv_pos_site_id
_symmetry_equiv_pos_as_xyz
1 x,y,z
2 -x,-y,-z
_cell_length_a 8.93629(17)
_cell_length_b 9.87328(19)
_cell_length_c 12.3144(2)
_cell_angle_alpha 78.986(6)
_cell_angle_beta 84.693(6)
_cell_angle_gamma 84.898(6)
_cell_formula_units_Z 2
loop_
_atom_type_symbol
_atom_type_radius_bond
C 0.68
H 0.23
N 0.68
O 0.68
loop_
_atom_site_label
_atom_site_type_symbol
_atom_site_fract_x
_atom_site_fract_y
_atom_site_fract_z
O1 O 0.34638(9) 0.45859(9) 0.96091(7)
H1 H 0.36000 0.49750 1.01382
O2 O 0.62249(9) 0.00897(8) 0.88020(7)
O3 O 0.41258(9) -0.03405(8) 0.80986(7)
O4 O 0.62532(9) 0.01875(8) 0.60240(7)
O5 O 0.60334(9) 0.24768(8) 0.53646(6)
N1 N 0.48677(10) 0.42208(9) 0.90815(7)
C1 C 0.46907(11) 0.34968(10) 0.83509(9)
C2 C 0.59472(11) 0.28892(10) 0.76760(8)
C3 C 0.52483(11) 0.17361(10) 0.72552(8)
C4 C 0.36006(12) 0.23573(11) 0.71113(9)
H2 H 0.35396 0.30506 0.64175
H3 H 0.29181 0.16242 0.71000
C5 C 0.32053(12) 0.30317(11) 0.81274(9)
H4 H 0.24531 0.38282 0.79683
H5 H 0.28033 0.23590 0.87666
C6 C 0.73590(11) 0.33068(10) 0.74431(8)
C7 C 0.78266(11) 0.46019(10) 0.77371(8)
C8 C 0.71003(12) 0.58908(11) 0.73455(9)
H6 H 0.62620 0.59465 0.69134
C9 C 0.75902(13) 0.70931(11) 0.75808(10)
H7 H 0.70880 0.79646 0.73098
C10 C 0.88127(13) 0.70194(12) 0.82113(10)
H8 H 0.91329 0.78386 0.83872
C11 C 0.95682(13) 0.57509(12) 0.85854(10)
H9 H 1.04160 0.57025 0.90068
C12 C 0.90830(12) 0.45492(11) 0.83428(9)
H10 H 0.96121 0.36839 0.85919
C13 C 0.85787(11) 0.25732(11) 0.68151(9)
C14 C 0.93492(13) 0.33291(11) 0.58865(10)
H11 H 0.91067 0.42957 0.56829
C15 C 1.04618(13) 0.26851(12) 0.52599(10)
H12 H 1.09545 0.32067 0.46191
C16 C 1.08589(12) 0.12821(12) 0.55647(10)
H13 H 1.16198 0.08394 0.51349
C17 C 1.01358(13) 0.05344(11) 0.65007(10)
H14 H 1.04153 -0.04236 0.67193
C18 C 0.90007(12) 0.11708(11) 0.71275(9)
H15 H 0.85143 0.06455 0.77693
C19 C 0.52842(12) 0.03999(10) 0.81452(9)
C20 C 0.39795(14) -0.16041(12) 0.89307(11)
H16 H 0.45347 -0.15595 0.95810
H17 H 0.44002 -0.24199 0.86149
C21 C 0.23505(16) -0.17165(15) 0.92679(13)
H18 H 0.22113 -0.25781 0.98008
H19 H 0.18065 -0.17182 0.86127
H20 H 0.19582 -0.09274 0.96126
C22 C 0.59251(11) 0.13573(11) 0.61604(9)
C23 C 0.66692(16) 0.22217(13) 0.42828(10)
H21 H 0.59499 0.17577 0.39383
H22 H 0.76151 0.16205 0.43606
C24 C 0.69757(16) 0.36076(14) 0.35771(11)
H23 H 0.77832 0.40023 0.38746
H24 H 0.60595 0.42311 0.35839
H25 H 0.72836 0.34905 0.28139
#END
