
#######################################################################
#
#                 Cambridge Crystallographic Data Centre
#                                CCDC
#
#######################################################################
#
# If this CIF has been generated from an entry in the Cambridge
# Structural Database, then it will include bibliographic, chemical,
# crystal, experimental, refinement or atomic coordinate data resulting
# from the CCDC's data processing and validation procedures.
#
#######################################################################

data_CSD_CIF_DERGAJ
_audit_creation_date 2006-12-20
_audit_creation_method CSD-ConQuest-V1
_database_code_CSD DERGAJ
_database_code_depnum_ccdc_archive 'CCDC 273895'
_chemical_formula_sum 'C20 H24 N2 O8'
_chemical_formula_moiety
;
C20 H24 N2 O8
;
_journal_coden_Cambridge 1291
_journal_year 2006
_journal_page_first 4003
_journal_name_full 'Eur.J.Org.Chem. '
loop_
_publ_author_name
"Jing He"
"K.Tchabanenko"
"R.M.Adlington"
"A.R.Cowley"
"J.E.Baldwin"
_chemical_name_systematic
;
7-(Ethoxycarbonyl)-6-methylperhydroinden-4-yl 3,5-dinitrobenzoate
;
_chemical_melting_point 375.15
_cell_volume   3957.300
_exptl_crystal_colour 'colorless'
_exptl_crystal_density_diffrn 1.411
_exptl_special_details
;
Melting point range 375.15-377.15K

;
_diffrn_ambient_temperature 150
#These two values have been output from a single CSD field.
_refine_ls_R_factor_gt 0.0362
_refine_ls_wR_factor_gt 0.0362
_symmetry_cell_setting orthorhombic
_symmetry_space_group_name_H-M 'P b c a'
_symmetry_Int_Tables_number 61
loop_
_symmetry_equiv_pos_site_id
_symmetry_equiv_pos_as_xyz
1 x,y,z
2 1/2+x,1/2-y,-z
3 -x,1/2+y,1/2-z
4 1/2-x,-y,1/2+z
5 -x,-y,-z
6 -1/2-x,-1/2+y,z
7 x,-1/2-y,-1/2+z
8 -1/2+x,y,-1/2-z
_cell_length_a 10.0673(2)
_cell_length_b 12.4039(2)
_cell_length_c 31.6904(4)
_cell_angle_alpha 90
_cell_angle_beta 90
_cell_angle_gamma 90
_cell_formula_units_Z 8
loop_
_atom_type_symbol
_atom_type_radius_bond
C 0.68
H 0.23
N 0.68
O 0.68
loop_
_atom_site_label
_atom_site_type_symbol
_atom_site_fract_x
_atom_site_fract_y
_atom_site_fract_z
C1 C 0.56431(15) 0.32561(12) 0.31455(5)
C2 C 0.48445(14) 0.28243(12) 0.27696(5)
C3 C 0.46373(16) 0.15903(13) 0.27951(5)
C4 C 0.38546(16) 0.13453(13) 0.31989(5)
C5 C 0.45954(15) 0.17379(13) 0.35855(5)
C6 C 0.49842(16) 0.29250(13) 0.35685(5)
C7 C 0.38454(16) 0.37460(14) 0.36194(5)
C8 C 0.4392(2) 0.47886(16) 0.34274(7)
C9 C 0.56294(17) 0.44960(13) 0.31759(5)
C10 C 0.54707(16) 0.31022(13) 0.23480(5)
O1 O 0.65749(12) 0.34462(12) 0.22904(4)
O2 O 0.46122(11) 0.2898(1) 0.20347(3)
C11 C 0.50869(17) 0.30637(14) 0.16069(5)
C12 C 0.3917(2) 0.29633(18) 0.13206(5)
C13 C 0.59413(17) 0.09534(14) 0.27668(5)
O3 O 0.37170(11) 0.16080(9) 0.39553(3)
C14 C 0.38424(16) 0.07071(13) 0.41781(5)
O4 O 0.45953(13) -0.00236(10) 0.41036(4)
C15 C 0.29373(15) 0.07003(12) 0.45543(4)
C16 C 0.32144(16) -0.00457(12) 0.48717(5)
C17 C 0.24411(17) -0.00301(13) 0.52335(5)
C18 C 0.13731(16) 0.06587(13) 0.52859(5)
C19 C 0.11017(16) 0.13554(12) 0.49558(5)
C20 C 0.18731(16) 0.14125(12) 0.45950(5)
N1 N 0.27444(15) -0.07930(11) 0.55768(4)
O5 O 0.22489(15) -0.06134(12) 0.59231(4)
O6 O 0.34851(14) -0.15496(10) 0.55009(4)
N2 N -0.00844(15) 0.20417(11) 0.49916(4)
O7 O -0.02415(13) 0.27554(11) 0.47277(4)
O8 O -0.08573(13) 0.18538(10) 0.52807(4)
H1 H 0.65560 0.29600 0.31000
H2 H 0.39620 0.31920 0.27880
H3 H 0.41170 0.13450 0.25440
H4 H 0.37170 0.05490 0.32220
H5 H 0.29730 0.17150 0.31840
H6 H 0.54300 0.13030 0.36020
H7 H 0.56000 0.29600 0.38160
H8 H 0.36230 0.38510 0.39240
H9 H 0.30360 0.35010 0.34640
H10 H 0.46250 0.53090 0.36570
H11 H 0.37130 0.51200 0.32370
H12 H 0.64440 0.47580 0.33240
H13 H 0.55870 0.48220 0.28880
H14 H 0.54880 0.37980 0.15800
H15 H 0.57670 0.25060 0.15340
H16 H 0.42070 0.30730 0.10220
H17 H 0.32400 0.35210 0.13970
H18 H 0.35190 0.22290 0.13510
H19 H 0.57470 0.01640 0.27850
H20 H 0.65380 0.11670 0.30050
H21 H 0.63890 0.11140 0.24920
H22 H 0.39530 -0.05790 0.48390
H23 H 0.08250 0.06540 0.55490
H24 H 0.16720 0.19510 0.43690
#END
