
#######################################################################
#
#                 Cambridge Crystallographic Data Centre
#                                CCDC
#
#######################################################################
#
# If this CIF has been generated from an entry in the Cambridge
# Structural Database, then it will include bibliographic, chemical,
# crystal, experimental, refinement or atomic coordinate data resulting
# from the CCDC's data processing and validation procedures.
#
#######################################################################

data_CSD_CIF_DERHEQ
_audit_creation_date 2018-02-08
_audit_creation_method CSD-ConQuest-V1
_database_code_CSD DERHEQ
_database_code_depnum_ccdc_archive 'CCDC 1577990'
_chemical_formula_sum 'C21 H30 N4 O5'
_chemical_formula_moiety
;
C21 H30 N4 O5
;
_journal_coden_Cambridge 35
_journal_volume 83
_journal_year 2018
_journal_page_first 1441
_journal_name_full 'J.Org.Chem. '
loop_
_publ_author_name
"E.M.M.Abdelraheem"
"S.Khaksar"
"K.Kurpiewska"
"J.Kalinowska-Tluscik"
"S.Shaabani"
"Alexander Domling"
_chemical_name_systematic
;
2-t-butyl-1-[(4-nitrophenyl)acetyl]-1,4,8-triazacyclododecane-3,7-dione
;
_cell_volume   2178.544
_exptl_crystal_colour 'white'
_exptl_crystal_density_diffrn 1.276
_exptl_crystal_description 'plate'
_diffrn_ambient_temperature 130
#These two values have been output from a single CSD field.
_refine_ls_R_factor_gt 0.0525
_refine_ls_wR_factor_gt 0.0525
_symmetry_cell_setting monoclinic
_symmetry_space_group_name_H-M 'P 21/c'
_symmetry_Int_Tables_number 14
loop_
_symmetry_equiv_pos_site_id
_symmetry_equiv_pos_as_xyz
1 x,y,z
2 -x,1/2+y,1/2-z
3 -x,-y,-z
4 x,-1/2-y,-1/2+z
_cell_length_a 14.3770(4)
_cell_length_b 16.1729(4)
_cell_length_c 9.3750(2)
_cell_angle_alpha 90
_cell_angle_beta 91.987(3)
_cell_angle_gamma 90
_cell_formula_units_Z 4
loop_
_atom_type_symbol
_atom_type_radius_bond
C 0.68
H 0.23
N 0.68
O 0.68
loop_
_atom_site_label
_atom_site_type_symbol
_atom_site_fract_x
_atom_site_fract_y
_atom_site_fract_z
O1 O 0.58929(9) 0.50280(8) 0.12713(13)
O2 O 0.54062(10) 0.21861(8) -0.02584(14)
N1 N 0.76697(10) 0.41014(10) 0.24547(16)
O3 O 0.80770(9) 0.33315(9) 0.44170(14)
N2 N 0.52804(11) 0.34877(11) -0.11295(17)
N3 N 0.53524(10) 0.39263(10) 0.24743(16)
C1 C 0.68776(12) 0.44692(12) 0.32032(19)
H1 H 0.67360 0.40870 0.40050
N4 N 1.13686(13) 0.11728(13) 0.5974(2)
C2 C 0.44611(12) 0.38912(12) 0.16674(19)
H2 H 0.44280 0.43570 0.09810
H3 H 0.39480 0.39590 0.23350
C3 C 0.70986(13) 0.53286(12) 0.3885(2)
C4 C 0.43272(13) 0.30789(12) 0.0854(2)
H4 H 0.43190 0.26220 0.15550
H5 H 0.37100 0.30910 0.03520
C5 C 0.81904(13) 0.35188(12) 0.3165(2)
C6 C 0.50574(13) 0.28852(12) -0.02313(19)
C7 C 0.59966(12) 0.45023(11) 0.22150(18)
O4 O 1.20752(11) 0.14901(14) 0.6480(2)
O5 O 1.11187(13) 0.04693(11) 0.62647(18)
C8 C 0.72406(14) 0.36122(12) -0.00086(19)
H6 H 0.67010 0.34050 0.05150
H7 H 0.76640 0.31390 -0.01540
C9 C 0.95965(13) 0.25904(14) 0.3247(2)
C10 C 0.74256(15) 0.59755(13) 0.2823(2)
H8 H 0.69610 0.60300 0.20390
H9 H 0.80210 0.58020 0.24410
H10 H 0.75050 0.65090 0.33080
C11 C 1.07712(13) 0.16601(14) 0.4986(2)
C12 C 0.95608(14) 0.17320(14) 0.3207(2)
H11 H 0.91320 0.14660 0.25640
C13 C 0.60715(13) 0.34378(13) -0.2072(2)
H12 H 0.58840 0.36540 -0.30280
H13 H 0.62580 0.28530 -0.21820
C14 C 0.77505(13) 0.42596(12) 0.09099(18)
H14 H 0.84170 0.42630 0.06760
H15 H 0.74920 0.48130 0.06800
C15 C 0.68938(13) 0.39337(13) -0.14693(19)
H16 H 0.67080 0.45200 -0.13780
H17 H 0.74080 0.39070 -0.21430
C16 C 0.62123(15) 0.56352(14) 0.4584(2)
H18 H 0.63510 0.61430 0.51210
H19 H 0.59890 0.52100 0.52340
H20 H 0.57310 0.57480 0.38440
C17 C 1.08429(14) 0.25077(15) 0.5025(2)
H21 H 1.12930 0.27710 0.56360
C18 C 0.78675(15) 0.52234(14) 0.5054(2)
H22 H 0.84410 0.50350 0.46210
H23 H 0.76700 0.48140 0.57530
H24 H 0.79810 0.57540 0.55320
C19 C 1.02460(15) 0.29671(15) 0.4157(2)
H25 H 1.02810 0.35530 0.41840
C20 C 1.01409(14) 0.12579(14) 0.4088(2)
H26 H 1.01050 0.06710 0.40740
C21 C 0.89548(15) 0.31080(16) 0.2316(2)
H27 H 0.86640 0.27550 0.15630
H28 H 0.93210 0.35410 0.18430
H29 H 0.5026(14) 0.3977(14) -0.102(2)
H30 H 0.5430(14) 0.3573(13) 0.318(2)
#END
