
#######################################################################
#
#                 Cambridge Crystallographic Data Centre
#                                CCDC
#
#######################################################################
#
# If this CIF has been generated from an entry in the Cambridge
# Structural Database, then it will include bibliographic, chemical,
# crystal, experimental, refinement or atomic coordinate data resulting
# from the CCDC's data processing and validation procedures.
#
#######################################################################

data_CSD_CIF_DERKUH
_audit_creation_date 2006-12-20
_audit_creation_method CSD-ConQuest-V1
_database_code_CSD DERKUH
_database_code_depnum_ccdc_archive 'CCDC 604100'
_chemical_formula_sum 'C20 H26 N2 O12'
_chemical_formula_moiety
;
C20 H26 N2 O12
;
_journal_coden_Cambridge 10
_journal_volume 89
_journal_year 2006
_journal_page_first 1942
_journal_name_full 'Helv.Chim.Acta '
loop_
_publ_author_name
"I.Yavari"
"L.Moradi"
_chemical_name_systematic
;
Pentamethyl 
7-((t-butylamino)carbonyl)-2-oxa-1-azabicyclo[3.2.0]hept-3-ene-3,4,5,6,7-penta
carboxylate
;
_chemical_melting_point 437.15
_cell_volume   2386.982
_exptl_crystal_colour 'colorless'
_exptl_crystal_density_diffrn 1.354
_exptl_special_details
;
Melting point range 437.15-439.15K

;
_exptl_crystal_description 'prism'
_diffrn_ambient_temperature 273
#These two values have been output from a single CSD field.
_refine_ls_R_factor_gt 0.0473
_refine_ls_wR_factor_gt 0.0473
_symmetry_cell_setting monoclinic
_symmetry_space_group_name_H-M 'P 21/c'
_symmetry_Int_Tables_number 14
loop_
_symmetry_equiv_pos_site_id
_symmetry_equiv_pos_as_xyz
1 x,y,z
2 -x,1/2+y,1/2-z
3 -x,-y,-z
4 x,-1/2-y,-1/2+z
_cell_length_a 9.1177(6)
_cell_length_b 9.7933(7)
_cell_length_c 26.7605(18)
_cell_angle_alpha 90
_cell_angle_beta 92.635(5)
_cell_angle_gamma 90
_cell_formula_units_Z 4
loop_
_atom_type_symbol
_atom_type_radius_bond
C 0.68
H 0.23
N 0.68
O 0.68
loop_
_atom_site_label
_atom_site_type_symbol
_atom_site_fract_x
_atom_site_fract_y
_atom_site_fract_z
O1 O 0.07965(13) 0.48397(12) 0.06025(4)
O2 O 0.09862(19) 0.20347(18) -0.01139(6)
O3 O -0.07426(15) 0.25476(14) 0.04173(5)
O4 O 0.4951(2) 0.24329(16) 0.10870(8)
O5 O 0.33114(19) 0.12158(15) 0.06592(7)
O6 O 0.41852(15) 0.62653(16) 0.03252(5)
O7 O 0.57227(14) 0.54159(15) 0.09167(5)
O8 O 0.42301(18) 0.72700(15) 0.16184(6)
O9 O 0.46969(17) 0.57612(16) 0.22327(5)
O10 O 0.09311(16) 0.31006(12) 0.16787(5)
O11 O -0.08585(14) 0.46410(12) 0.15853(5)
O12 O 0.11970(16) 0.66873(12) 0.22120(4)
N1 N 0.17805(15) 0.56648(14) 0.09301(5)
N2 N 0.05050(17) 0.77038(14) 0.14723(5)
H1 H 0.05060 0.75550 0.11520
C1 C 0.1503(2) 0.36172(17) 0.05443(6)
C2 C 0.2844(2) 0.35398(17) 0.07604(6)
C3 C 0.32175(19) 0.49297(17) 0.09803(6)
C4 C 0.3191(2) 0.50305(17) 0.15574(6)
H2 H 0.33380 0.41480 0.17250
C5 C 0.15419(19) 0.54268(16) 0.14809(6)
C6 C 0.0571(2) 0.26299(19) 0.02401(7)
C7 C -0.1784(2) 0.1690(2) 0.01394(9)
H3 H -0.26980 0.16800 0.03040
H4 H -0.14040 0.07770 0.01240
H5 H -0.19400 0.20430 -0.01930
C8 C 0.3838(2) 0.23552(19) 0.08487(8)
C9 C 0.4238(4) 0.0008(3) 0.07800(14)
H6 H 0.36260 -0.07420 0.08700
H7 H 0.49130 0.02210 0.10550
H8 H 0.47760 -0.02380 0.04930
C10 C 0.4422(2) 0.56354(18) 0.07004(7)
C11 C 0.6958(2) 0.6038(3) 0.06802(9)
H9 H 0.77670 0.61260 0.09200
H10 H 0.66800 0.69250 0.05560
H11 H 0.72430 0.54740 0.04080
C12 C 0.4106(2) 0.6159(2) 0.17958(7)
C13 C 0.5433(3) 0.6823(3) 0.25321(10)
H12 H 0.54260 0.65820 0.28800
H13 H 0.49300 0.76750 0.24790
H14 H 0.64300 0.69110 0.24350
C14 C 0.0519(2) 0.42325(17) 0.15952(6)
C15 C -0.1952(2) 0.3592(2) 0.16689(8)
H15 H -0.28650 0.40160 0.17440
H16 H -0.16220 0.30250 0.19440
H17 H -0.20910 0.30430 0.13730
C16 C 0.1055(2) 0.67011(16) 0.17557(6)
C17 C -0.0059(3) 0.90183(18) 0.16572(7)
C18 C -0.1374(3) 0.8745(3) 0.19727(10)
H18 H -0.10750 0.81870 0.22540
H19 H -0.21210 0.82800 0.17740
H20 H -0.17550 0.95960 0.20890
C19 C 0.1145(3) 0.9763(2) 0.19603(9)
H21 H 0.14540 0.92180 0.22440
H22 H 0.07770 1.06220 0.20730
H23 H 0.19650 0.99190 0.17550
C20 C -0.0515(4) 0.9839(2) 0.11930(9)
H24 H -0.12980 0.93760 0.10110
H25 H 0.03080 0.99320 0.09840
H26 H -0.08420 1.07280 0.12910
#END
