
#######################################################################
#
#                 Cambridge Crystallographic Data Centre
#                                CCDC
#
#######################################################################
#
# If this CIF has been generated from an entry in the Cambridge
# Structural Database, then it will include bibliographic, chemical,
# crystal, experimental, refinement or atomic coordinate data resulting
# from the CCDC's data processing and validation procedures.
#
#######################################################################

data_CSD_CIF_DESCOW
_audit_creation_date 2018-02-08
_audit_creation_method CSD-ConQuest-V1
_database_code_CSD DESCOW
_database_code_depnum_ccdc_archive 'CCDC 1558403'
_chemical_formula_sum 'C25 H26 N2 O4'
_chemical_formula_moiety
;
C25 H26 N2 O4
;
_journal_coden_Cambridge 35
_journal_volume 83
_journal_year 2018
_journal_page_first 1106
_journal_name_full 'J.Org.Chem. '
loop_
_publ_author_name
"V.Veeraswamy"
"G.Goswami"
"S.Mukherjee"
"K.Ghosh"
"M.L.Saha"
"Arunava Sengupta"
"M.K.Ghorai"
_chemical_name_systematic
;
methyl N-benzyl-\a-(2-nitro-1-phenylethyl)phenylalaninate
;
_cell_volume   1073.288
_exptl_crystal_colour 'white'
_exptl_crystal_density_diffrn 1.295
_exptl_crystal_description 'block'
_diffrn_ambient_temperature 100
#These two values have been output from a single CSD field.
_refine_ls_R_factor_gt 0.0521
_refine_ls_wR_factor_gt 0.0521
_symmetry_cell_setting triclinic
_symmetry_space_group_name_H-M 'P -1'
_symmetry_Int_Tables_number 2
loop_
_symmetry_equiv_pos_site_id
_symmetry_equiv_pos_as_xyz
1 x,y,z
2 -x,-y,-z
_cell_length_a 7.810(5)
_cell_length_b 10.638(5)
_cell_length_c 13.879(5)
_cell_angle_alpha 79.989(5)
_cell_angle_beta 85.653(5)
_cell_angle_gamma 70.974(5)
_cell_formula_units_Z 2
loop_
_atom_type_symbol
_atom_type_radius_bond
C 0.68
H 0.23
N 0.68
O 0.68
loop_
_atom_site_label
_atom_site_type_symbol
_atom_site_fract_x
_atom_site_fract_y
_atom_site_fract_z
O1 O 0.62465(15) -0.18929(11) 0.64662(8)
O2 O 0.16394(17) -0.11657(13) 1.00510(9)
O3 O 0.33729(17) -0.06502(13) 0.61535(9)
O4 O 0.01433(17) -0.19940(15) 0.92286(10)
N1 N 0.36399(19) 0.11188(13) 0.72571(10)
N2 N 0.11846(18) -0.13710(15) 0.92831(11)
C1 C 0.4747(2) -0.02846(16) 0.75279(11)
C2 C 0.7465(2) 0.06208(16) 0.71419(12)
C3 C 0.6682(2) -0.03665(17) 0.77830(12)
C4 C 0.4984(2) -0.25550(16) 0.86779(11)
C5 C 0.2489(2) 0.34424(16) 0.75357(12)
C6 C 0.4662(2) -0.34847(17) 0.81806(12)
H1 H 0.38096 -0.31845 0.76890
C7 C 0.6257(2) -0.30373(17) 0.94164(11)
H2 H 0.64895 -0.24374 0.97614
C8 C 0.4706(2) -0.09418(17) 0.66350(12)
C9 C 0.7179(2) -0.44022(18) 0.96415(12)
H3 H 0.80299 -0.47102 1.01336
C10 C 0.7796(2) 0.16339(17) 0.75322(13)
H4 H 0.75022 0.17066 0.81866
C11 C 0.2534(2) 0.52725(18) 0.62523(14)
H5 H 0.30344 0.55951 0.56710
C12 C 0.1044(2) 0.43215(17) 0.79754(13)
H6 H 0.05413 0.40047 0.85579
C13 C 0.6239(3) -0.25880(19) 0.56574(14)
H7 H 0.52447 -0.29430 0.57424
H8 H 0.73570 -0.33126 0.56391
H9 H 0.61109 -0.19691 0.50546
C14 C 0.3238(2) 0.19853(17) 0.80001(12)
C15 C 0.1946(2) -0.0805(2) 0.83420(13)
C16 C 0.0340(2) 0.56586(18) 0.75632(14)
H10 H -0.06322 0.62340 0.78653
C17 C 0.6845(2) -0.53062(17) 0.91426(13)
H11 H 0.74606 -0.62222 0.92997
C18 C 0.3967(2) -0.10586(17) 0.84411(12)
C19 C 0.3235(2) 0.39346(18) 0.66671(13)
H12 H 0.42082 0.33608 0.63647
C20 C 0.7926(2) 0.05404(18) 0.61601(13)
H13 H 0.77207 -0.01267 0.58766
C21 C 0.8551(2) 0.25405(18) 0.69727(14)
H14 H 0.87485 0.32151 0.72507
C22 C 0.1083(3) 0.61364(18) 0.67023(15)
H15 H 0.06144 0.70362 0.64227
C23 C 0.9008(2) 0.24406(19) 0.60073(14)
H16 H 0.95297 0.30379 0.56295
C24 C 0.5587(2) -0.48441(17) 0.84061(13)
H17 H 0.53648 -0.54495 0.80624
C25 C 0.8684(3) 0.1439(2) 0.56030(14)
H18 H 0.89798 0.13716 0.49480
H19 H 0.237(3) 0.1803(18) 0.8518(14)
H20 H 0.408(2) -0.0605(16) 0.8994(12)
H21 H 0.162(2) -0.1227(17) 0.7824(13)
H22 H 0.440(2) 0.1878(17) 0.8332(13)
H23 H 0.126(3) 0.016(2) 0.8279(14)
H24 H 0.262(3) 0.1161(19) 0.6977(14)
H25 H 0.746(2) -0.1304(19) 0.7781(12)
H26 H 0.664(2) -0.0177(18) 0.8455(13)
#END
