
#######################################################################
#
#                 Cambridge Crystallographic Data Centre
#                                CCDC
#
#######################################################################
#
# If this CIF has been generated from an entry in the Cambridge
# Structural Database, then it will include bibliographic, chemical,
# crystal, experimental, refinement or atomic coordinate data resulting
# from the CCDC's data processing and validation procedures.
#
#######################################################################

data_CSD_CIF_DETDOV
_audit_creation_date 1986-09-02
_audit_creation_method CSD-ConQuest-V1
_database_code_CSD DETDOV
_chemical_formula_sum 'C12 H11 N1 O3'
_chemical_formula_moiety
;
C12 H11 N1 O3
;
_journal_coeditor_code "IUCr A25164"
_journal_coden_Cambridge 591
_journal_volume 41
_journal_year 1985
_journal_page_first 1799
_journal_name_full 'Acta Crystallogr.,Sect.C:Cryst.Struct.Commun. '
loop_
_publ_author_name
"J.-P.Bideau"
"G.Bravic"
"M.Cotrait"
_chemical_name_systematic
;
2-Nitro-6,7,8,9-tetrahydronaphtho(2,1-b)furan
;
_cell_volume    509.934
_exptl_crystal_colour 'orange-yellow'
_exptl_special_details
;
mutagenic agent

;
_diffrn_ambient_temperature ?
_diffrn_special_details
;
The study was carried out at room temperature,in the range 283-303K

;
#These two values have been output from a single CSD field.
_refine_ls_R_factor_gt 0.043
_refine_ls_wR_factor_gt 0.043
_symmetry_cell_setting triclinic
_symmetry_space_group_name_H-M 'P -1'
_symmetry_Int_Tables_number 2
loop_
_symmetry_equiv_pos_site_id
_symmetry_equiv_pos_as_xyz
1 x,y,z
2 -x,-y,-z
_cell_length_a 10.968(2)
_cell_length_b 7.291(1)
_cell_length_c 7.395(3)
_cell_angle_alpha 92.57(3)
_cell_angle_beta 94.89(3)
_cell_angle_gamma 119.56(2)
_cell_formula_units_Z 2
loop_
_atom_type_symbol
_atom_type_radius_bond
C 0.68
H 0.23
N 0.68
O 0.68
loop_
_atom_site_label
_atom_site_type_symbol
_atom_site_fract_x
_atom_site_fract_y
_atom_site_fract_z
O1 O 0.6906(2) 0.1257(3) 0.7216(3)
C1 C 0.6499(3) -0.0791(5) 0.6675(4)
C2 C 0.5122(3) -0.2160(5) 0.6639(4)
C3 C 0.5548(3) 0.2902(5) 0.8179(4)
C4 C 0.4209(3) 0.2433(5) 0.8468(4)
C5 C 0.1604(3) 0.0055(6) 0.8571(4)
C6 C 0.0526(4) -0.2211(7) 0.8736(6)
C7 C 0.0531(4) -0.3661(6) 0.7290(5)
C8 C 0.1959(3) -0.3573(5) 0.7314(5)
C9 C 0.3180(3) -0.1339(4) 0.7612(4)
C10 C 0.3026(3) 0.0366(5) 0.8210(4)
C11 C 0.4545(3) -0.0887(4) 0.7305(4)
C12 C 0.5672(3) 0.1174(4) 0.7605(4)
N1 N 0.7599(3) -0.1153(4) 0.6199(3)
O2 O 0.7256(3) -0.2987(4) 0.5668(4)
O3 O 0.8808(2) 0.0356(4) 0.6349(3)
H1 H 0.45700 -0.38300 0.63100
H2 H 0.64300 0.45000 0.83800
H3 H 0.40600 0.37000 0.89200
H4 H 0.11900 0.05500 0.74300
H5 H 0.17500 0.10500 0.98200
H6 H 0.08200 -0.25900 1.00500
H7 H -0.05000 -0.23700 0.87700
H8 H 0.02300 -0.33100 0.59800
H9 H -0.02500 -0.52900 0.74900
H10 H 0.20900 -0.44500 0.83600
H11 H 0.20000 -0.42600 0.59700
#END
