
#######################################################################
#
#                 Cambridge Crystallographic Data Centre
#                                CCDC
#
#######################################################################
#
# If this CIF has been generated from an entry in the Cambridge
# Structural Database, then it will include bibliographic, chemical,
# crystal, experimental, refinement or atomic coordinate data resulting
# from the CCDC's data processing and validation procedures.
#
#######################################################################

data_CSD_CIF_DETGIS
_audit_creation_date 1986-09-02
_audit_creation_method CSD-ConQuest-V1
_database_code_CSD DETGIS
_chemical_formula_sum 'C15 H12 N2 O3'
_chemical_formula_moiety
;
C15 H12 N2 O3
;
_journal_coeditor_code "IUCr A25154"
_journal_coden_Cambridge 591
_journal_volume 41
_journal_year 1985
_journal_page_first 1776
_journal_name_full 'Acta Crystallogr.,Sect.C:Cryst.Struct.Commun. '
loop_
_publ_author_name
"Chuen-Her Ueng"
"P.L.Lee"
"Y.Wang"
"Mou-Yung Yeh"
_chemical_name_systematic
;
3-(p-Benzoyloxyphenyl)sydnone
;
_cell_volume   1252.273
_exptl_crystal_density_diffrn 1.42
_exptl_special_details
;
Cell value b given as 6.190, should be 9.190

;
_diffrn_ambient_temperature ?
_diffrn_special_details
;
The study was carried out at room temperature,in the range 283-303K

;
#These two values have been output from a single CSD field.
_refine_ls_R_factor_gt 0.048
_refine_ls_wR_factor_gt 0.048
_symmetry_cell_setting monoclinic
_symmetry_space_group_name_H-M 'P 21/c'
_symmetry_Int_Tables_number 14
loop_
_symmetry_equiv_pos_site_id
_symmetry_equiv_pos_as_xyz
1 x,y,z
2 -x,1/2+y,1/2-z
3 -x,-y,-z
4 x,-1/2-y,-1/2+z
_cell_length_a 6.582(3)
_cell_length_b 9.190(1)
_cell_length_c 20.848(2)
_cell_angle_alpha 90
_cell_angle_beta 96.77(3)
_cell_angle_gamma 90
_cell_formula_units_Z 4
loop_
_atom_type_symbol
_atom_type_radius_bond
C 0.68
H 0.23
N 0.68
O 0.68
loop_
_atom_site_label
_atom_site_type_symbol
_atom_site_fract_x
_atom_site_fract_y
_atom_site_fract_z
C1 C 0.3445(3) 0.3401(2) 0.1437(1)
C2 C 0.3395(3) 0.2303(2) 0.0978(1)
C3 C 0.1659(3) 0.2076(2) 0.0553(1)
C4 C -0.0016(2) 0.2958(2) 0.0594(1)
C5 C -0.0014(3) 0.4049(2) 0.1043(1)
C6 C 0.1749(3) 0.4284(2) 0.1468(1)
C7 C -0.3097(3) 0.3759(2) -0.0123(1)
C8 C -0.4674(3) 0.3038(2) -0.0510(1)
C9 C 0.5340(3) 0.4702(2) 0.2302(1)
C10 C 0.7383(3) 0.4656(2) 0.2705(1)
C11 C 0.8776(3) 0.5768(2) 0.2669(1)
C12 C 1.0629(3) 0.5753(2) 0.3063(1)
C13 C 1.1094(3) 0.4624(2) 0.3483(1)
C14 C 0.9716(3) 0.3512(2) 0.3526(1)
C15 C 0.7856(3) 0.3539(2) 0.3142(1)
N1 N -0.1861(2) 0.2732(2) 0.0156(1)
N2 N -0.2415(2) 0.1388(2) 0.0012(1)
O1 O -0.4183(2) 0.1553(1) -0.0410(1)
O2 O -0.6172(2) 0.3386(2) -0.0866(1)
O3 O 0.5229(2) 0.3526(1) 0.1843(1)
H1 H 0.15930 0.12020 0.02060
H2 H 0.45660 0.15980 0.10090
H3 H 0.17280 0.50380 0.18420
H4 H -0.12760 0.47870 0.10920
H5 H -0.28590 0.49060 -0.00620
H6 H 0.51330 0.57370 0.20370
H7 H 0.41210 0.46250 0.26010
H8 H 0.83950 0.66500 0.23380
H9 H 1.17300 0.66020 0.30450
H10 H 1.25180 0.45740 0.37850
H11 H 0.67970 0.26870 0.31780
H12 H 1.00740 0.25870 0.38740
#END
