
#######################################################################
#
#                 Cambridge Crystallographic Data Centre
#                                CCDC
#
#######################################################################
#
# If this CIF has been generated from an entry in the Cambridge
# Structural Database, then it will include bibliographic, chemical,
# crystal, experimental, refinement or atomic coordinate data resulting
# from the CCDC's data processing and validation procedures.
#
#######################################################################

data_CSD_CIF_DETYUW
_audit_creation_date 1986-09-02
_audit_creation_method CSD-ConQuest-V1
_database_code_CSD DETYUW
_chemical_formula_sum 'C18 H19 N1 O6'
_chemical_formula_moiety
;
C18 H19 N1 O6
;
_journal_coden_Cambridge 10
_journal_volume 68
_journal_year 1985
_journal_page_first 1204
_journal_name_full 'Helv.Chim.Acta '
loop_
_publ_author_name
"R.Phaff"
"N.Bischofberger"
"P.Mathies"
"W.Petter"
"B.Frei"
"O.Jeger"
_chemical_name_systematic
;
(1RS,3SR,4SR,5SR,6SR,7SR)-3,4:5,6-Diepoxy-1,5,7-trimethylbicyclo(4.2.0)octan-7
-yl p-nitrobenzoate
;
_chemical_melting_point 476.15
_cell_volume   1674.949
_exptl_crystal_density_diffrn 1.4
_exptl_special_details
;
Melting point range 476.15-477.15K
Dcalc = 1.37

;
_diffrn_ambient_temperature ?
_diffrn_special_details
;
The study was carried out at room temperature,in the range 283-303K

;
#These two values have been output from a single CSD field.
_refine_ls_R_factor_gt 0.052
_refine_ls_wR_factor_gt 0.052
_symmetry_cell_setting monoclinic
_symmetry_space_group_name_H-M 'P 21/n'
_symmetry_Int_Tables_number 14
loop_
_symmetry_equiv_pos_site_id
_symmetry_equiv_pos_as_xyz
1 x,y,z
2 1/2-x,1/2+y,1/2-z
3 -x,-y,-z
4 -1/2+x,-1/2-y,-1/2+z
_cell_length_a 7.856
_cell_length_b 15.589
_cell_length_c 13.783
_cell_angle_alpha 90
_cell_angle_beta 97.12
_cell_angle_gamma 90
_cell_formula_units_Z 4
loop_
_atom_type_symbol
_atom_type_radius_bond
C 0.68
H 0.23
N 0.68
O 0.68
loop_
_atom_site_label
_atom_site_type_symbol
_atom_site_fract_x
_atom_site_fract_y
_atom_site_fract_z
C1 C 0.1688(4) 0.4729(2) 0.6827(2)
C2 C 0.1113(4) 0.4586(2) 0.7808(2)
C3 C 0.1324(5) 0.4158(2) 0.6055(2)
C4 C 0.3051(5) 0.5676(2) 0.5786(3)
C5 C 0.2619(4) 0.5110(2) 0.5030(2)
C6 C 0.1787(5) 0.4349(2) 0.5142(3)
C7 C 0.2571(5) 0.5480(2) 0.6691(3)
C8 C -0.0354(4) 0.3634(2) 0.8784(2)
C9 C -0.1765(4) 0.2969(2) 0.8627(2)
C10 C -0.2254(5) 0.2325(2) 0.7874(2)
C11 C -0.3410(7) 0.3287(4) 1.0095(3)
C12 C -0.1699(5) 0.4278(2) 0.9062(3)
C13 C -0.1190(7) 0.2099(3) 0.7080(3)
C14 C -0.3047(4) 0.3548(2) 0.9066(2)
C15 C -0.4153(5) 0.2187(3) 0.7641(3)
C16 C 0.1089(6) 0.3391(3) 0.9567(3)
C17 C -0.5336(5) 0.2857(3) 0.7867(3)
C18 C -0.4688(5) 0.3669(3) 0.8360(3)
N1 N 0.3013(4) 0.5348(2) 0.4043(2)
O1 O 0.0339(3) 0.3825(1) 0.7867(1)
O2 O 0.1319(4) 0.5103(2) 0.8458(2)
O3 O -0.5123(3) 0.2084(2) 0.8444(2)
O4 O 0.2638(4) 0.4845(2) 0.3375(2)
O5 O 0.3672(5) 0.6043(2) 0.3945(2)
O6 O -0.1524(3) 0.2079(1) 0.8857(2)
H1 H 0.070(4) 0.366(2) 0.615(2)
H2 H 0.364(5) 0.619(2) 0.570(2)
H3 H 0.152(4) 0.398(2) 0.462(2)
H4 H 0.285(5) 0.584(2) 0.724(3)
H5 H -0.447(4) 0.177(2) 0.711(2)
H6 H -0.649(5) 0.290(2) 0.747(3)
H7 H -0.232(6) 0.316(3) 1.053(3)
H8 H -0.417(6) 0.278(3) 1.003(3)
H9 H -0.406(5) 0.375(2) 1.037(3)
H10 H -0.137(4) 0.455(2) 0.967(2)
H11 H -0.201(4) 0.474(2) 0.854(2)
H12 H -0.154(5) 0.244(2) 0.650(3)
H13 H -0.131(5) 0.151(3) 0.697(3)
H14 H 0.006(6) 0.224(3) 0.728(3)
H15 H 0.059(4) 0.317(2) 1.010(3)
H16 H 0.185(6) 0.388(3) 0.976(3)
H17 H 0.180(5) 0.291(2) 0.931(3)
H18 H -0.444(5) 0.408(2) 0.785(3)
H19 H -0.561(5) 0.388(2) 0.876(2)
#END
