
#######################################################################
#
#                 Cambridge Crystallographic Data Centre
#                                CCDC
#
#######################################################################
#
# If this CIF has been generated from an entry in the Cambridge
# Structural Database, then it will include bibliographic, chemical,
# crystal, experimental, refinement or atomic coordinate data resulting
# from the CCDC's data processing and validation procedures.
#
#######################################################################

data_CSD_CIF_DEVROL
_audit_creation_date 2000-02-23
_audit_creation_method CSD-ConQuest-V1
_database_code_CSD DEVROL
_database_code_depnum_ccdc_archive 'CCDC 133796'
_database_code_depnum_ccdc_journal 1267/143
_chemical_formula_sum 'C16 H9 N1 O6'
_chemical_formula_moiety
;
C16 H9 N1 O6
;
_journal_coden_Cambridge 1267
_journal_volume 214
_journal_year 1999
_journal_page_first 481
_journal_name_full 'Z.Kristallogr.-New Cryst.Struct. '
loop_
_publ_author_name
"R.Kakou-Yao"
"A.Saba"
"N.Ebby"
"J.P.Aycard"
_chemical_name_systematic
;
4-(\a-Hydroxy-p-nitrobenzylidene)isochroman-1,3-dione
;
_cell_volume    668.773
_exptl_crystal_colour 'yellow'
_exptl_crystal_density_diffrn 1.55
_exptl_crystal_description 'prismatic'
_exptl_crystal_preparation 'dichloromethane'
_diffrn_ambient_temperature ?
_diffrn_special_details
;
The study was carried out at room temperature,in the range 283-303K

;
#These two values have been output from a single CSD field.
_refine_ls_R_factor_gt 0.037
_refine_ls_wR_factor_gt 0.037
_symmetry_cell_setting monoclinic
_symmetry_space_group_name_H-M 'P c'
_symmetry_Int_Tables_number 7
loop_
_symmetry_equiv_pos_site_id
_symmetry_equiv_pos_as_xyz
1 x,y,z
2 x,-y,1/2+z
_cell_length_a 5.553(1)
_cell_length_b 7.692(1)
_cell_length_c 15.676(1)
_cell_angle_alpha 90
_cell_angle_beta 92.812(1)
_cell_angle_gamma 90
_cell_formula_units_Z 2
loop_
_atom_type_symbol
_atom_type_radius_bond
C 0.68
H 0.23
N 0.68
O 0.68
loop_
_atom_site_label
_atom_site_type_symbol
_atom_site_fract_x
_atom_site_fract_y
_atom_site_fract_z
C1 C 0.5561(3) 0.4661(2) 0.3297(1)
O1 O 0.9530(3) 0.3066(1) 0.6010(1)
C2 C 0.8370(3) 0.3024(2) 0.4148(1)
C3 C 0.4255(3) 0.0060(2) 0.5660(1)
C4 C 0.7703(3) 0.3748(2) 0.3368(1)
O2 O 0.2232(3) -0.1751(2) 0.7632(1)
C5 C 0.4099(3) 0.4892(2) 0.3975(1)
C6 C 0.7550(3) 0.2351(2) 0.5663(1)
O3 O 0.8649(3) 0.1414(2) 0.7343(1)
C7 C 0.4746(3) 0.4125(2) 0.4743(1)
C8 C 0.6249(3) 0.1074(2) 0.6056(1)
C9 C 0.6907(3) 0.0781(2) 0.6950(1)
O4 O 0.5689(3) 0.4778(2) 0.1834(1)
O5 O 0.5455(3) -0.0220(2) 0.74292(9)
N1 N 0.4745(3) 0.5347(2) 0.2462(1)
C10 C 0.2828(3) -0.0940(2) 0.6191(1)
C11 C 0.3375(3) -0.1010(2) 0.7113(1)
C12 C 0.0355(4) -0.1949(2) 0.4999(2)
C13 C 0.1782(3) -0.1020(2) 0.4464(1)
C14 C 0.6870(3) 0.3165(2) 0.4829(1)
O6 O 0.3173(3) 0.6448(2) 0.2437(1)
C15 C 0.0896(3) -0.1929(2) 0.5863(1)
C16 C 0.3710(3) -0.0056(2) 0.4779(1)
H1 H 0.98662 0.24051 0.42274
H2 H 0.87177 0.36363 0.28933
H3 H 0.26732 0.55970 0.39221
H4 H 0.37372 0.42267 0.52213
H5 H -0.10193 -0.25952 0.47803
H6 H 0.14037 -0.10656 0.38604
H7 H -0.00300 -0.26075 0.62432
H8 H 0.47076 0.05461 0.43919
H9 H 0.971(3) 0.251(3) 0.656(1)
#END
