
#######################################################################
#
#                 Cambridge Crystallographic Data Centre
#                                CCDC
#
#######################################################################
#
# If this CIF has been generated from an entry in the Cambridge
# Structural Database, then it will include bibliographic, chemical,
# crystal, experimental, refinement or atomic coordinate data resulting
# from the CCDC's data processing and validation procedures.
#
#######################################################################

data_CSD_CIF_DEVWUX
_audit_creation_date 2007-03-29
_audit_creation_method CSD-ConQuest-V1
_database_code_CSD DEVWUX
_database_code_depnum_ccdc_archive 'CCDC 619682'
_chemical_formula_sum 'C13 H10 N2 O3'
_chemical_formula_moiety
;
C13 H10 N2 O3
;
_journal_coden_Cambridge 1200
_journal_volume 15
_journal_year 2007
_journal_page_first 1298
_journal_name_full 'Bioorg.Med.Chem. '
loop_
_publ_author_name
"G.L.Grunewald"
"M.R.Seim"
"R.C.Regier"
"K.R.Criscione"
_chemical_name_systematic
;
10-Nitro-3,4-dihydrobenz[h]isoquinolin-1(2H)-one
;
_chemical_melting_point 570.15
_cell_volume   1073.583
_exptl_crystal_colour 'colorless'
_exptl_crystal_density_diffrn 1.499
_exptl_special_details
;
Melts with decomposition.

;
_exptl_crystal_description 'Rectangular parallelepiped'
_exptl_crystal_preparation 'dichloromethane/hexanes'
_diffrn_ambient_temperature 100
#These two values have been output from a single CSD field.
_refine_ls_R_factor_gt 0.0526
_refine_ls_wR_factor_gt 0.0526
_symmetry_cell_setting monoclinic
_symmetry_space_group_name_H-M 'P 21/n'
_symmetry_Int_Tables_number 14
loop_
_symmetry_equiv_pos_site_id
_symmetry_equiv_pos_as_xyz
1 x,y,z
2 1/2-x,1/2+y,1/2-z
3 -x,-y,-z
4 -1/2+x,-1/2-y,-1/2+z
_cell_length_a 8.3227(8)
_cell_length_b 7.2702(7)
_cell_length_c 17.9355(17)
_cell_angle_alpha 90
_cell_angle_beta 98.404(2)
_cell_angle_gamma 90
_cell_formula_units_Z 4
loop_
_atom_type_symbol
_atom_type_radius_bond
C 0.68
H 0.23
N 0.68
O 0.68
loop_
_atom_site_label
_atom_site_type_symbol
_atom_site_fract_x
_atom_site_fract_y
_atom_site_fract_z
O1 O 0.09519(12) 0.09437(14) 0.42221(6)
O2 O 0.05712(13) 0.48005(15) 0.40369(6)
O3 O -0.03142(13) 0.36905(17) 0.29287(6)
N1 N 0.15990(15) 0.14376(18) 0.54726(7)
H1 H 0.075(2) 0.078(3) 0.5565(9)
N2 N 0.07825(15) 0.40639(18) 0.34425(7)
C1 C 0.18669(16) 0.16202(19) 0.47636(8)
C2 C 0.34325(17) 0.25105(19) 0.46434(8)
C3 C 0.47284(17) 0.23665(18) 0.52142(8)
C4 C 0.44463(18) 0.1831(2) 0.59958(8)
H2 H 0.5222(19) 0.252(2) 0.6380(9)
H3 H 0.4709(19) 0.051(2) 0.6069(9)
C5 C 0.27036(18) 0.2175(2) 0.61090(9)
H4 H 0.2484(19) 0.351(2) 0.6152(9)
H5 H 0.244(2) 0.157(2) 0.6571(10)
C6 C 0.63362(18) 0.2634(2) 0.50615(9)
H6 H 0.7212(19) 0.252(2) 0.5482(9)
C7 C 0.66207(18) 0.2979(2) 0.43462(9)
H7 H 0.775(2) 0.308(2) 0.4233(9)
C8 C 0.53111(17) 0.32716(19) 0.37554(8)
C9 C 0.36809(16) 0.31537(19) 0.39130(8)
C10 C 0.24603(17) 0.3706(2) 0.33169(8)
C11 C 0.27877(19) 0.4165(2) 0.26115(9)
H8 H 0.192(2) 0.457(2) 0.2255(9)
C12 C 0.43909(19) 0.4120(2) 0.24570(9)
H9 H 0.458(2) 0.444(3) 0.1971(10)
C13 C 0.56188(19) 0.3712(2) 0.30184(9)
H10 H 0.675(2) 0.370(2) 0.2914(9)
#END
