
#######################################################################
#
#                 Cambridge Crystallographic Data Centre
#                                CCDC
#
#######################################################################
#
# If this CIF has been generated from an entry in the Cambridge
# Structural Database, then it will include bibliographic, chemical,
# crystal, experimental, refinement or atomic coordinate data resulting
# from the CCDC's data processing and validation procedures.
#
#######################################################################

data_CSD_CIF_DEWYIQ
_audit_creation_date 2018-02-12
_audit_creation_method CSD-ConQuest-V1
_database_code_CSD DEWYIQ
_database_code_depnum_ccdc_archive 'CCDC 1587204'
_chemical_formula_sum 'C8 H13 N3 O3'
_chemical_formula_moiety
;
C8 H13 N3 O3
;
_journal_coden_Cambridge 24
_journal_volume 59
_journal_year 2018
_journal_page_first 727
_journal_name_full 'Tetrahedron Lett. '
loop_
_publ_author_name
"I.A.Cherepanov"
"A.S.Samarskaya"
"I.A.Godovikov"
"K.A.Lyssenko"
"A.A.Pankratova"
"V.N.Kalinin"
_chemical_name_systematic
;
(t-butoxycarbonyl)(3-methyl-1,2,3-oxadiazol-3-ium-5-yl)amide
;
_cell_volume   1024.373
_exptl_crystal_colour 'colorless'
_exptl_crystal_density_diffrn 1.292
_exptl_crystal_description 'prism'
_diffrn_ambient_temperature 120
#These two values have been output from a single CSD field.
_refine_ls_R_factor_gt 0.0373
_refine_ls_wR_factor_gt 0.0373
_symmetry_cell_setting monoclinic
_symmetry_space_group_name_H-M 'P 21/c'
_symmetry_Int_Tables_number 14
loop_
_symmetry_equiv_pos_site_id
_symmetry_equiv_pos_as_xyz
1 x,y,z
2 -x,1/2+y,1/2-z
3 -x,-y,-z
4 x,-1/2-y,-1/2+z
_cell_length_a 9.3261(6)
_cell_length_b 9.2083(6)
_cell_length_c 11.9526(8)
_cell_angle_alpha 90
_cell_angle_beta 93.6544(15)
_cell_angle_gamma 90
_cell_formula_units_Z 4
loop_
_atom_type_symbol
_atom_type_radius_bond
C 0.68
H 0.23
N 0.68
O 0.68
loop_
_atom_site_label
_atom_site_type_symbol
_atom_site_fract_x
_atom_site_fract_y
_atom_site_fract_z
O1 O 0.30632(8) 0.12391(9) 0.50055(6)
N1 N 0.25677(10) 0.05383(10) 0.40340(7)
N2 N 0.36073(9) 0.07030(9) 0.33688(7)
C1 C 0.47505(11) 0.14557(11) 0.38005(8)
H1 H 0.55960 0.17030 0.34400
C2 C 0.44209(10) 0.17939(10) 0.48972(8)
N3 N 0.50317(9) 0.23997(10) 0.58008(7)
C3 C 0.34656(12) 0.00114(12) 0.22583(8)
H2 H 0.25260 -0.04640 0.21570
H3 H 0.42270 -0.07130 0.22020
H4 H 0.35490 0.07510 0.16760
C4 C 0.63413(11) 0.30357(11) 0.56526(8)
O2 O 0.68976(8) 0.32597(9) 0.47718(6)
O3 O 0.69490(8) 0.34025(8) 0.66749(6)
C5 C 0.83980(11) 0.40534(11) 0.67818(9)
C6 C 0.83618(15) 0.55550(13) 0.62483(11)
H5 H 0.81750 0.54610 0.54350
H6 H 0.92890 0.60370 0.64090
H7 H 0.75980 0.61330 0.65570
C7 C 0.94865(12) 0.30421(14) 0.62879(11)
H8 H 0.94630 0.20950 0.66600
H9 H 1.04510 0.34610 0.64020
H10 H 0.92450 0.29200 0.54830
C8 C 0.86849(13) 0.41586(14) 0.80445(9)
H11 H 0.87060 0.31810 0.83700
H12 H 0.79210 0.47270 0.83630
H13 H 0.96120 0.46360 0.82160
#END
