
#######################################################################
#
#                 Cambridge Crystallographic Data Centre
#                                CCDC
#
#######################################################################
#
# If this CIF has been generated from an entry in the Cambridge
# Structural Database, then it will include bibliographic, chemical,
# crystal, experimental, refinement or atomic coordinate data resulting
# from the CCDC's data processing and validation procedures.
#
#######################################################################

data_CSD_CIF_DEXQOP
_audit_creation_date 2018-02-12
_audit_creation_method CSD-ConQuest-V1
_database_code_CSD DEXQOP
_database_code_depnum_ccdc_archive 'CCDC 1539841'
_chemical_formula_sum 'C14 H17 N4 O2'
_chemical_formula_moiety
;
C14 H17 N4 O2
;
_journal_coden_Cambridge 16
_journal_volume 70
_journal_year 2017
_journal_page_first 1317
_journal_name_full 'Tetrahedron '
loop_
_publ_author_name
"V.Romanov"
"A.Vorobev"
"I.Bagryanskaya"
"D.Parkhomenko"
"E.Tretyakov"
_chemical_name_systematic
;
2-(Pyrazolo[1,5-a]pyridine-3-yl)-4,4,5,5-tetramethyl-4,5-dihydro-1H-imidazole-
3-oxide-1-oxyl radical
;
_chemical_melting_point 360
_cell_volume   1419.810
_exptl_crystal_colour 'black'
_exptl_crystal_density_diffrn 1.279
_exptl_crystal_description 'prism'
_diffrn_ambient_temperature 296
#These two values have been output from a single CSD field.
_refine_ls_R_factor_gt 0.0473
_refine_ls_wR_factor_gt 0.0473
_symmetry_cell_setting monoclinic
_symmetry_space_group_name_H-M 'P 21/c'
_symmetry_Int_Tables_number 14
loop_
_symmetry_equiv_pos_site_id
_symmetry_equiv_pos_as_xyz
1 x,y,z
2 -x,1/2+y,1/2-z
3 -x,-y,-z
4 x,-1/2-y,-1/2+z
_cell_length_a 9.979(1)
_cell_length_b 11.483(1)
_cell_length_c 13.298(2)
_cell_angle_alpha 90
_cell_angle_beta 111.29(1)
_cell_angle_gamma 90
_cell_formula_units_Z 4
loop_
_atom_type_symbol
_atom_type_radius_bond
C 0.68
H 0.23
N 0.68
O 0.68
loop_
_atom_site_label
_atom_site_type_symbol
_atom_site_fract_x
_atom_site_fract_y
_atom_site_fract_z
N1 N 0.7490(2) 0.64788(15) -0.00636(14)
N2 N 0.6551(2) 0.51429(14) -0.12800(13)
N3 N 0.8557(2) 0.36827(17) 0.22988(14)
N4 N 0.85973(19) 0.28570(16) 0.15712(13)
O1 O 0.8199(2) 0.69695(14) 0.08377(13)
O2 O 0.6090(2) 0.41583(14) -0.17270(13)
C1 C 0.7324(2) 0.53201(17) -0.02308(16)
C2 C 0.6575(2) 0.71526(18) -0.10324(17)
C3 C 0.6404(2) 0.62380(17) -0.19256(17)
C4 C 0.5184(3) 0.7433(2) -0.0860(2)
H1 H 0.45600 0.78680 -0.14660
H2 H 0.53960 0.78870 -0.02140
H3 H 0.47190 0.67220 -0.07910
C5 C 0.7318(3) 0.8271(2) -0.1137(2)
H4 H 0.67160 0.86920 -0.17620
H5 H 0.82170 0.80910 -0.12120
H6 H 0.74910 0.87400 -0.05050
C6 C 0.7641(3) 0.6223(2) -0.2336(2)
H7 H 0.76010 0.69100 -0.27580
H8 H 0.75670 0.55450 -0.27750
H9 H 0.85380 0.62060 -0.17340
C7 C 0.4977(3) 0.6263(2) -0.28607(19)
H10 H 0.49040 0.69690 -0.32640
H11 H 0.42080 0.62300 -0.25900
H12 H 0.49150 0.56050 -0.33220
C8 C 0.7857(2) 0.44578(18) 0.06017(15)
C9 C 0.8185(2) 0.32788(18) 0.05276(15)
C10 C 0.8241(2) 0.24941(19) -0.02720(17)
H13 H 0.80080 0.27440 -0.09800
C11 C 0.8638(3) 0.1372(2) -0.00025(19)
H14 H 0.86580 0.08530 -0.05330
C12 C 0.9018(2) 0.0985(2) 0.10696(19)
H15 H 0.92770 0.02110 0.12410
C13 C 0.9007(2) 0.1729(2) 0.18468(18)
H16 H 0.92740 0.14820 0.25590
C14 C 0.8120(3) 0.4634(2) 0.17032(17)
H17 H 0.79990 0.53490 0.19870
#END
