
#######################################################################
#
#                 Cambridge Crystallographic Data Centre
#                                CCDC
#
#######################################################################
#
# If this CIF has been generated from an entry in the Cambridge
# Structural Database, then it will include bibliographic, chemical,
# crystal, experimental, refinement or atomic coordinate data resulting
# from the CCDC's data processing and validation procedures.
#
#######################################################################

data_CSD_CIF_DEXVUY
_audit_creation_date 2007-03-29
_audit_creation_method CSD-ConQuest-V1
_database_code_CSD DEXVUY
_database_code_depnum_ccdc_archive 'CCDC 636126'
_chemical_formula_sum 'C15 H12 N2 O4'
_chemical_formula_moiety
;
C15 H12 N2 O4
;
_journal_coeditor_code "IUCr AT2210"
_journal_coden_Cambridge 1370
_journal_volume 63
_journal_year 2007
_journal_page_first o987
_journal_name_full 'Acta Crystallogr.,Sect.E:Struct.Rep.Online '
loop_
_publ_author_name
"Yu-Liang Zhang"
"Xiao-Hui Li"
_chemical_name_systematic
;
4-Benzyl-2H-1,4-benzoxazin-3(4H)-one
;
_cell_volume   1322.981
_exptl_crystal_colour 'yellow'
_exptl_crystal_density_diffrn 1.427
_exptl_crystal_description 'block'
_exptl_crystal_preparation 'methanol'
_diffrn_ambient_temperature 298
#These two values have been output from a single CSD field.
_refine_ls_R_factor_gt 0.0429
_refine_ls_wR_factor_gt 0.0429
_symmetry_cell_setting monoclinic
_symmetry_space_group_name_H-M 'P 21/n'
_symmetry_Int_Tables_number 14
loop_
_symmetry_equiv_pos_site_id
_symmetry_equiv_pos_as_xyz
1 x,y,z
2 1/2-x,1/2+y,1/2-z
3 -x,-y,-z
4 -1/2+x,-1/2-y,-1/2+z
_cell_length_a 7.933(2)
_cell_length_b 9.615(3)
_cell_length_c 17.514(3)
_cell_angle_alpha 90
_cell_angle_beta 97.973(5)
_cell_angle_gamma 90
_cell_formula_units_Z 4
loop_
_atom_type_symbol
_atom_type_radius_bond
C 0.68
H 0.23
N 0.68
O 0.68
loop_
_atom_site_label
_atom_site_type_symbol
_atom_site_fract_x
_atom_site_fract_y
_atom_site_fract_z
N1 N 0.3482(2) 0.79655(17) 0.10238(10)
N2 N 0.0689(3) 1.2493(2) 0.07533(14)
O1 O 0.4643(3) 0.58069(17) 0.10566(10)
O2 O 0.3995(2) 0.81765(17) -0.05145(9)
O3 O 0.0246(3) 1.23423(18) 0.13863(11)
O4 O 0.0417(4) 1.3553(2) 0.03762(13)
C1 C 0.4100(3) 0.6832(3) 0.06919(14)
C2 C 0.4011(4) 0.6851(3) -0.01682(14)
H1 H 0.49780 0.63380 -0.03050
H2 H 0.29910 0.63580 -0.03880
C3 C 0.3146(3) 0.9197(2) -0.01902(12)
C4 C 0.2648(3) 1.0345(3) -0.06369(13)
H3 H 0.28450 1.03750 -0.11480
C5 C 0.1861(3) 1.1444(3) -0.03313(14)
H4 H 0.15350 1.22280 -0.06260
C6 C 0.1571(3) 1.1356(2) 0.04213(13)
C7 C 0.2046(3) 1.0219(2) 0.08781(12)
H5 H 0.18150 1.01880 0.13840
C8 C 0.2871(3) 0.9126(2) 0.05766(12)
C9 C 0.3389(3) 0.7933(2) 0.18553(12)
H6 H 0.36980 0.88410 0.20720
H7 H 0.42150 0.72670 0.20970
C10 C 0.1656(3) 0.7549(2) 0.20439(12)
C11 C 0.0867(3) 0.8347(2) 0.25456(13)
H8 H 0.14010 0.91440 0.27610
C12 C -0.0706(4) 0.7973(3) 0.27316(15)
H9 H -0.12210 0.85160 0.30730
C13 C -0.1514(4) 0.6802(3) 0.24151(16)
H10 H -0.25760 0.65510 0.25400
C14 C -0.0743(4) 0.6005(3) 0.19140(15)
H11 H -0.12830 0.52110 0.16980
C15 C 0.0825(3) 0.6376(2) 0.17302(13)
H12 H 0.13350 0.58290 0.13890
#END
