
#######################################################################
#
#                 Cambridge Crystallographic Data Centre
#                                CCDC
#
#######################################################################
#
# If this CIF has been generated from an entry in the Cambridge
# Structural Database, then it will include bibliographic, chemical,
# crystal, experimental, refinement or atomic coordinate data resulting
# from the CCDC's data processing and validation procedures.
#
#######################################################################

data_CSD_CIF_DEYCES
_audit_creation_date 2018-06-21
_audit_creation_method CSD-ConQuest-V1
_database_code_CSD DEYCES
_database_code_depnum_ccdc_archive 'CCDC 1837914'
_chemical_formula_sum 'C16 H14 N2 O2'
_chemical_formula_moiety
;
C16 H14 N2 O2
;
_journal_coden_Cambridge 177
_journal_volume 16
_journal_year 2018
_journal_page_first 4849
_journal_name_full 'Org.Biomol.Chem. '
loop_
_publ_author_name
"M.Boghi"
"D.G.Hall"
_chemical_name_systematic
;
3,7a-diphenyl-5,6-dihydro-7aH-[1,3]oxazolo[3,2-d][1,2,4]oxadiazole
;
_cell_volume   1345.796
_exptl_crystal_colour 'colorless'
_exptl_crystal_density_diffrn 1.314
_diffrn_ambient_temperature 173
#These two values have been output from a single CSD field.
_refine_ls_R_factor_gt 0.0403
_refine_ls_wR_factor_gt 0.0403
_symmetry_cell_setting monoclinic
_symmetry_space_group_name_H-M 'P 21/c'
_symmetry_Int_Tables_number 14
loop_
_symmetry_equiv_pos_site_id
_symmetry_equiv_pos_as_xyz
1 x,y,z
2 -x,1/2+y,1/2-z
3 -x,-y,-z
4 x,-1/2-y,-1/2+z
_cell_length_a 8.9000(2)
_cell_length_b 9.5626(3)
_cell_length_c 15.9864(5)
_cell_angle_alpha 90
_cell_angle_beta 98.4476(10)
_cell_angle_gamma 90
_cell_formula_units_Z 4
loop_
_atom_type_symbol
_atom_type_radius_bond
C 0.68
H 0.23
N 0.68
O 0.68
loop_
_atom_site_label
_atom_site_type_symbol
_atom_site_fract_x
_atom_site_fract_y
_atom_site_fract_z
O1 O 0.23178(10) 0.35084(9) 0.37277(6)
O2 O 0.08866(10) 0.39212(8) 0.23928(6)
N1 N 0.13377(12) 0.33608(11) 0.43632(7)
N2 N 0.03611(10) 0.20586(8) 0.32277(6)
C1 C 0.02483(12) 0.25612(11) 0.40362(7)
C2 C -0.09659(13) 0.22720(11) 0.25674(7)
H1 H -0.19326 0.21436 0.27953
H2 H -0.09419 0.16317 0.20829
C3 C -0.07449(14) 0.37863(12) 0.23196(9)
H3 H -0.12366 0.39708 0.17334
H4 H -0.11643 0.44372 0.27079
C4 C 0.15893(12) 0.29029(10) 0.29612(8)
C5 C -0.10125(12) 0.21773(11) 0.44928(7)
C6 C -0.16039(13) 0.08234(12) 0.44351(8)
H5 H -0.12032 0.01427 0.40955
C7 C -0.27817(15) 0.04789(15) 0.48778(9)
H6 H -0.31707 -0.04477 0.48530
C8 C -0.33918(16) 0.14800(17) 0.53552(9)
H7 H -0.42077 0.12417 0.56503
C9 C -0.28170(16) 0.28271(16) 0.54041(9)
H8 H -0.32459 0.35129 0.57283
C10 C -0.16162(15) 0.31789(13) 0.49809(8)
H9 H -0.12082 0.40985 0.50240
C11 C 0.27337(12) 0.20786(10) 0.25485(7)
C12 C 0.39077(13) 0.13679(12) 0.30465(8)
H10 H 0.40526 0.14777 0.36435
C13 C 0.48641(14) 0.05010(14) 0.26710(9)
H11 H 0.56602 0.00156 0.30129
C14 C 0.46677(15) 0.03379(13) 0.18035(9)
H12 H 0.53163 -0.02685 0.15499
C15 C 0.35207(15) 0.10624(13) 0.13047(8)
H13 H 0.33928 0.09638 0.07071
C16 C 0.25573(13) 0.19323(11) 0.16755(8)
H14 H 0.17744 0.24293 0.13306
#END
