
#######################################################################
#
#                 Cambridge Crystallographic Data Centre
#                                CCDC
#
#######################################################################
#
# If this CIF has been generated from an entry in the Cambridge
# Structural Database, then it will include bibliographic, chemical,
# crystal, experimental, refinement or atomic coordinate data resulting
# from the CCDC's data processing and validation procedures.
#
#######################################################################

data_CSD_CIF_DEYNED
_audit_creation_date 2018-06-21
_audit_creation_method CSD-ConQuest-V1
_database_code_CSD DEYNED
_database_code_depnum_ccdc_archive 'CCDC 1568666'
_chemical_formula_sum 'C25 H17 N1 O4'
_chemical_formula_moiety
;
C25 H17 N1 O4
;
_journal_coden_Cambridge 16
_journal_volume 74
_journal_year 2018
_journal_page_first 4211
_journal_name_full 'Tetrahedron '
loop_
_publ_author_name
"Yanan Zhu"
"Zhigang Yao"
"Fan Xu"
_chemical_name_systematic
;
2-nitro-8-phenyl-8H,14H-8,14-methanobenzo[d]naphtho[2,1-g][1,3]dioxocine
;
_chemical_melting_point 450.15
_cell_volume    932.163
_exptl_crystal_colour 'colorless'
_exptl_crystal_density_diffrn 1.409
_exptl_special_details
;
Melting point range 450.15-451.15K

;
_exptl_crystal_description 'plate'
_diffrn_ambient_temperature 296.6
#These two values have been output from a single CSD field.
_refine_ls_R_factor_gt 0.0588
_refine_ls_wR_factor_gt 0.0588
_symmetry_cell_setting triclinic
_symmetry_space_group_name_H-M 'P -1'
_symmetry_Int_Tables_number 2
loop_
_symmetry_equiv_pos_site_id
_symmetry_equiv_pos_as_xyz
1 x,y,z
2 -x,-y,-z
_cell_length_a 5.5112(7)
_cell_length_b 10.0428(7)
_cell_length_c 17.5286(16)
_cell_angle_alpha 103.083(7)
_cell_angle_beta 92.533(9)
_cell_angle_gamma 98.281(8)
_cell_formula_units_Z 2
loop_
_atom_type_symbol
_atom_type_radius_bond
C 0.68
H 0.23
N 0.68
O 0.68
loop_
_atom_site_label
_atom_site_type_symbol
_atom_site_fract_x
_atom_site_fract_y
_atom_site_fract_z
O1 O 0.0843(4) 0.70739(17) 0.22683(10)
O2 O -0.0513(4) 0.50675(16) 0.13017(10)
C1 C -0.1076(5) 0.4855(2) 0.29013(16)
H1 H -0.19900 0.43930 0.32610
C2 C 0.3680(5) 0.8120(2) 0.33590(16)
C3 C 0.3960(6) 0.6985(3) 0.44314(16)
C4 C -0.2680(5) 0.6944(2) 0.14088(16)
C5 C -0.1314(5) 0.6140(2) 0.18718(16)
C6 C 0.4880(6) 0.8095(2) 0.40870(16)
C7 C 0.2018(6) 0.5986(3) 0.40815(16)
H2 H 0.14430 0.52980 0.43350
C8 C 0.0297(5) 0.3989(2) 0.15596(16)
C9 C 0.0084(5) 0.3824(2) 0.23240(16)
C10 C 0.0890(6) 0.5982(2) 0.33527(16)
N1 N 0.5087(6) 0.6820(2) 0.51704(15)
C11 C 0.1744(5) 0.7027(2) 0.30012(15)
O3 O 0.3776(5) 0.6222(2) 0.55773(13)
C12 C 0.1099(6) 0.2750(3) 0.25304(19)
H3 H 0.10320 0.26340 0.30410
C13 C -0.2790(6) 0.5525(3) 0.24539(16)
H4 H -0.41550 0.48400 0.21790
H5 H -0.34440 0.62450 0.28150
C14 C 0.1348(6) 0.3069(2) 0.10086(17)
H6 H 0.14050 0.31670 0.04940
O4 O 0.7297(5) 0.7228(2) 0.53400(15)
C15 C 0.6829(6) 0.9191(3) 0.44220(18)
H7 H 0.76520 0.92050 0.48990
C16 C 0.4443(6) 0.9194(3) 0.29881(18)
H8 H 0.36580 0.91990 0.25080
C17 C 0.6324(7) 1.0231(3) 0.3325(2)
H9 H 0.68230 1.09370 0.30750
C18 C 0.2195(7) 0.1862(3) 0.1990(2)
H10 H 0.28710 0.11520 0.21380
C19 C -0.4738(6) 0.6259(3) 0.09285(17)
H11 H -0.52150 0.53160 0.08810
C20 C -0.6109(6) 0.6956(3) 0.05146(19)
H12 H -0.74960 0.64800 0.01930
C21 C 0.7497(7) 1.0224(3) 0.4047(2)
H13 H 0.87620 1.09390 0.42770
C22 C 0.2303(7) 0.2011(3) 0.1230(2)
H14 H 0.30260 0.13940 0.08660
C23 C -0.5421(6) 0.8348(3) 0.05791(18)
H15 H -0.63520 0.88230 0.03090
C24 C -0.3361(7) 0.9031(3) 0.1042(2)
H16 H -0.28740 0.99700 0.10770
C25 C -0.1980(6) 0.8345(3) 0.14616(19)
H17 H -0.05860 0.88260 0.17780
#END
