
#######################################################################
#
#                 Cambridge Crystallographic Data Centre
#                                CCDC
#
#######################################################################
#
# If this CIF has been generated from an entry in the Cambridge
# Structural Database, then it will include bibliographic, chemical,
# crystal, experimental, refinement or atomic coordinate data resulting
# from the CCDC's data processing and validation procedures.
#
#######################################################################

data_CSD_CIF_DEYYOX
_audit_creation_date 2013-06-16
_audit_creation_method CSD-ConQuest-V1
_database_code_CSD DEYYOX
_database_code_depnum_ccdc_archive 'CCDC 902981'
_chemical_formula_sum 'C29 H25 N3 O10'
_chemical_formula_moiety
;
C29 H25 N3 O10
;
_journal_coden_Cambridge 177
_journal_volume 11
_journal_year 2013
_journal_page_first 3629
_journal_name_full 'Org.Biomol.Chem. '
loop_
_publ_author_name
"Hogyu Lee"
"Jun Hee Kim"
"Won Koo Lee"
"Jaeheung Cho"
"W.Nam"
"J.Lee"
"Hyun-Joon Ha"
_chemical_name_systematic
;
5-(((4-Nitrobenzoyl)oxy)methyl)-2-oxo-4-(1-phenylethyl)hexahydro-2H-furo[3,2-b
]pyrrol-6-yl 4-nitrobenzoate
;
_cell_volume   2580.784
_exptl_crystal_colour 'colorless'
_exptl_crystal_density_diffrn 1.481
_exptl_crystal_description 'Block'
_diffrn_ambient_temperature 100
#These two values have been output from a single CSD field.
_refine_ls_R_factor_gt 0.0357
_refine_ls_wR_factor_gt 0.0357
_symmetry_cell_setting monoclinic
_symmetry_space_group_name_H-M 'P 21/c'
_symmetry_Int_Tables_number 14
loop_
_symmetry_equiv_pos_site_id
_symmetry_equiv_pos_as_xyz
1 x,y,z
2 -x,1/2+y,1/2-z
3 -x,-y,-z
4 x,-1/2-y,-1/2+z
_cell_length_a 9.4026(2)
_cell_length_b 32.1434(7)
_cell_length_c 9.1405(2)
_cell_angle_alpha 90
_cell_angle_beta 110.900(1)
_cell_angle_gamma 90
_cell_formula_units_Z 4
loop_
_atom_type_symbol
_atom_type_radius_bond
C 0.68
H 0.23
N 0.68
O 0.68
loop_
_atom_site_label
_atom_site_type_symbol
_atom_site_fract_x
_atom_site_fract_y
_atom_site_fract_z
O1 O -0.33266(12) 0.01265(3) -0.32012(11)
O2 O 0.00229(9) 0.17074(2) 0.18273(9)
O3 O 0.05691(9) 0.11358(2) 0.43801(9)
O4 O -0.15349(11) -0.06392(3) 0.00960(11)
O5 O -0.43085(11) -0.00773(3) -0.15215(12)
O6 O 0.16288(10) 0.22208(2) 0.07675(9)
O7 O 0.18067(11) 0.18895(3) -0.12935(10)
O8 O -0.0729(1) 0.09587(3) 0.59276(10)
O9 O -0.28077(11) -0.08459(3) 0.15303(12)
O10 O -0.1977(1) 0.17549(3) 0.26457(10)
N1 N -0.36260(11) 0.01794(3) -0.20174(12)
N2 N -0.19919(12) -0.05950(3) 0.11892(12)
N3 N 0.29971(10) 0.15640(3) 0.40092(10)
C1 C -0.31229(12) 0.05664(3) -0.11192(13)
C2 C -0.20572(12) 0.08117(4) -0.14399(13)
H1 H -0.17240 0.07450 -0.22770
C3 C -0.14907(12) 0.11576(4) -0.05077(13)
H2 H -0.07380 0.13270 -0.06830
C4 C -0.20283(12) 0.12565(3) 0.06866(13)
C5 C -0.13670(13) 0.16028(4) 0.18120(13)
C6 C 0.08960(13) 0.20023(3) 0.29984(13)
H3 H 0.02500 0.22280 0.31870
C7 C 0.18799(12) 0.17855(3) 0.45101(12)
H4 H 0.24360 0.20050 0.52730
C8 C 0.10638(13) 0.15110(3) 0.53051(12)
H5 H 0.17580 0.14390 0.63750
H6 H 0.01740 0.16600 0.53880
C9 C -0.03191(12) 0.08849(3) 0.48446(12)
C10 C -0.07350(12) 0.05004(3) 0.38659(12)
C11 C -0.18444(13) 0.02419(4) 0.40563(13)
H7 H -0.23200 0.03150 0.47790
C12 C -0.22553(13) -0.01219(4) 0.31905(14)
H8 H -0.30030 -0.03030 0.33160
C13 C -0.15460(13) -0.02139(3) 0.21393(13)
C14 C -0.37030(13) 0.06621(4) 0.00361(14)
H9 H -0.44500 0.04910 0.02120
C15 C -0.31604(13) 0.10148(4) 0.09234(14)
H10 H -0.35610 0.10940 0.17010
C16 C 0.42822(12) 0.13624(3) 0.52498(12)
H11 H 0.38300 0.11910 0.58870
C17 C 0.53672(12) 0.16709(3) 0.63727(12)
C18 C 0.66787(14) 0.18167(4) 0.61572(14)
H12 H 0.69330 0.17170 0.53040
C19 C 0.76155(16) 0.21071(4) 0.71821(15)
H13 H 0.85090 0.22020 0.70280
C20 C 0.72567(16) 0.22592(4) 0.84256(15)
H14 H 0.78890 0.24620 0.91080
C21 C 0.59699(15) 0.21142(4) 0.86682(14)
H15 H 0.57240 0.22150 0.95250
C22 C 0.50381(13) 0.18200(4) 0.76536(13)
H16 H 0.41660 0.17190 0.78350
C23 C 0.50623(14) 0.10597(4) 0.44912(14)
H17 H 0.43160 0.08580 0.38530
H18 H 0.58770 0.09120 0.53080
H19 H 0.54950 0.12140 0.38250
C24 C 0.33831(13) 0.18338(3) 0.29066(13)
H20 H 0.44150 0.19610 0.34080
C25 C 0.21298(14) 0.21696(3) 0.24358(13)
H21 H 0.25400 0.24380 0.29730
C26 C 0.21677(13) 0.19089(3) 0.01036(13)
C27 C 0.32184(14) 0.16284(4) 0.13419(13)
H22 H 0.42200 0.16060 0.12190
H23 H 0.27770 0.13460 0.12750
C28 C -0.04316(13) 0.00370(4) 0.19371(13)
H24 H 0.00430 -0.00380 0.12150
C29 C -0.00230(12) 0.03991(3) 0.28093(12)
H25 H 0.07350 0.05770 0.26890
#END
