
#######################################################################
#
#                 Cambridge Crystallographic Data Centre
#                                CCDC
#
#######################################################################
#
# If this CIF has been generated from an entry in the Cambridge
# Structural Database, then it will include bibliographic, chemical,
# crystal, experimental, refinement or atomic coordinate data resulting
# from the CCDC's data processing and validation procedures.
#
#######################################################################

data_CSD_CIF_DEZROP
_audit_creation_date 1986-09-02
_audit_creation_method CSD-ConQuest-V1
_database_code_CSD DEZROP
_chemical_formula_sum 'C10 H9 N1 O3'
_chemical_formula_moiety
;
C10 H9 N1 O3
;
_journal_coden_Cambridge 35
_journal_volume 50
_journal_year 1985
_journal_page_first 3955
_journal_name_full 'J.Org.Chem. '
loop_
_publ_author_name
"J.F.Hansen"
"J.L.Flippen-Anderson"
_chemical_name_systematic
;
(Z)-1-Phenyl-1,2,3-butanetrione 2-oxime
;
_cell_volume    950.057
_diffrn_ambient_temperature ?
_diffrn_special_details
;
The study was carried out at room temperature,in the range 283-303K

;
#These two values have been output from a single CSD field.
_refine_ls_R_factor_gt 0.042
_refine_ls_wR_factor_gt 0.042
_symmetry_cell_setting monoclinic
_symmetry_space_group_name_H-M 'P 21/c'
_symmetry_Int_Tables_number 14
loop_
_symmetry_equiv_pos_site_id
_symmetry_equiv_pos_as_xyz
1 x,y,z
2 -x,1/2+y,1/2-z
3 -x,-y,-z
4 x,-1/2-y,-1/2+z
_cell_length_a 9.985(2)
_cell_length_b 7.201(2)
_cell_length_c 14.578(2)
_cell_angle_alpha 90
_cell_angle_beta 114.99(2)
_cell_angle_gamma 90
_cell_formula_units_Z 4
loop_
_atom_type_symbol
_atom_type_radius_bond
C 0.68
H 0.23
N 0.68
O 0.68
loop_
_atom_site_label
_atom_site_type_symbol
_atom_site_fract_x
_atom_site_fract_y
_atom_site_fract_z
N1 N -0.0279(2) 0.0350(2) 0.1283(1)
O1 O 0.0602(2) -0.1165(2) 0.1762(1)
O2 O 0.2211(2) 0.2203(2) 0.3247(1)
O3 O 0.0401(2) 0.5049(2) 0.1343(1)
C1 C 0.2025(2) 0.1952(2) 0.2375(1)
C2 C 0.0455(2) 0.1864(3) 0.1571(1)
C3 C -0.0315(2) 0.3622(3) 0.1108(2)
C4 C -0.1894(3) 0.3591(5) 0.0380(2)
C5 C 0.3251(2) 0.1736(2) 0.2073(1)
C6 C 0.4699(1) 0.1728(3) 0.2806(2)
C7 C 0.5852(3) 0.1560(3) 0.2531(2)
C8 C 0.5568(3) 0.1396(4) 0.1526(2)
C9 C 0.4144(3) 0.1419(4) 0.0792(2)
C10 C 0.2978(3) 0.1577(3) 0.1059(2)
H1 H -0.005(3) -0.201(5) 0.153(2)
H2 H -0.216(3) 0.252(5) 0.007(2)
H3 H -0.221(3) 0.469(5) 0.007(2)
H4 H -0.245(4) 0.354(6) 0.077(3)
H5 H 0.488(2) 0.183(3) 0.352(2)
H6 H 0.687(2) 0.162(3) 0.306(2)
H7 H 0.639(5) 0.126(4) 0.134(2)
H8 H 0.394(3) 0.123(4) 0.011(2)
H9 H 0.2001(2) 0.157(3) 0.057(2)
#END
