
#######################################################################
#
#                 Cambridge Crystallographic Data Centre
#                                CCDC
#
#######################################################################
#
# If this CIF has been generated from an entry in the Cambridge
# Structural Database, then it will include bibliographic, chemical,
# crystal, experimental, refinement or atomic coordinate data resulting
# from the CCDC's data processing and validation procedures.
#
#######################################################################

data_CSD_CIF_DEZTEK
_audit_creation_date 2018-06-22
_audit_creation_method CSD-ConQuest-V1
_database_code_CSD DEZTEK
_database_code_depnum_ccdc_archive 'CCDC 1822005'
_chemical_formula_sum 'C32 H32 N4 O9'
_chemical_formula_moiety
;
C32 H32 N4 O9
;
_journal_coden_Cambridge 440
_journal_volume 42
_journal_year 2018
_journal_page_first 12072
_journal_name_full 'New J.Chem. '
loop_
_publ_author_name
"A.Rossetti"
"S.Landoni"
"F.Meneghetti"
"C.Castellano"
"M.Mori"
"G.C.Dugoni"
"A.Sacchetti"
_chemical_name_systematic
;
dimethyl 
3-methyl-2,4-bis(4-nitrophenyl)-9-oxo-7-(1-phenylethyl)-3,7-diazabicyclo[3.3.1
]nonane-1,5-dicarboxylate unknown solvate
;
_cell_volume   3455.120
_exptl_crystal_colour 'white'
_exptl_crystal_density_diffrn 1.185
_exptl_crystal_description 'tabular'
_diffrn_ambient_temperature 293
_refine_special_details
;
Disordered solvent molecules were not modelled and the disordered density was 
taken into account using the SQUEEZE/PLATON procedure.
;
#These two values have been output from a single CSD field.
_refine_ls_R_factor_gt 0.039
_refine_ls_wR_factor_gt 0.039
_symmetry_cell_setting orthorhombic
_symmetry_space_group_name_H-M 'P 21 21 21'
_symmetry_Int_Tables_number 19
loop_
_symmetry_equiv_pos_site_id
_symmetry_equiv_pos_as_xyz
1 x,y,z
2 1/2-x,-y,1/2+z
3 1/2+x,1/2-y,-z
4 -x,1/2+y,1/2-z
_cell_length_a 9.764(2)
_cell_length_b 14.740(3)
_cell_length_c 24.007(5)
_cell_angle_alpha 90
_cell_angle_beta 90
_cell_angle_gamma 90
_cell_formula_units_Z 4
loop_
_atom_type_symbol
_atom_type_radius_bond
C 0.68
H 0.23
N 0.68
O 0.68
loop_
_atom_site_label
_atom_site_type_symbol
_atom_site_fract_x
_atom_site_fract_y
_atom_site_fract_z
O1 O 1.1984(3) 0.50509(19) 0.19021(12)
O2 O 1.1187(3) 0.3737(2) 0.27824(11)
N1 N 0.8036(3) 0.3996(2) 0.16822(12)
N2 N 0.9389(3) 0.2248(2) 0.16630(11)
O3 O 1.2940(3) 0.3811(2) 0.15462(13)
O4 O 0.8590(3) 0.3839(2) 0.34016(11)
O5 O 0.8702(4) 0.2332(2) 0.33853(12)
C1 C 1.0600(4) 0.2805(3) 0.15528(15)
H1 H 1.07103 0.28640 0.11528
H2 H 1.13998 0.24904 0.16947
C2 C 1.0561(4) 0.3760(2) 0.18092(14)
C3 C 0.8964(4) 0.3151(2) 0.25220(14)
C4 C 0.9569(5) 0.1343(3) 0.14110(16)
H3 H 1.04742 0.11159 0.15190
C5 C 0.9544(4) 0.1430(3) 0.07809(15)
C6 C 0.9121(4) 0.2207(2) 0.22630(14)
H4 H 0.98693 0.18914 0.24449
H5 H 0.82900 0.18617 0.23274
C7 C 0.8734(4) 0.3046(3) 0.31470(16)
C8 C 0.6044(4) 0.2599(3) 0.19611(18)
H6 H 0.65698 0.24888 0.16452
C9 C 1.0323(4) 0.3612(2) 0.24257(15)
C10 C 0.9612(4) 0.4622(3) 0.09841(15)
C11 C 0.9394(4) 0.4403(2) 0.15941(14)
H7 H 0.94374 0.49703 0.18059
C12 C 0.9288(4) 0.3994(3) 0.05747(16)
H8 H 0.89186 0.34366 0.06771
C13 C 0.7795(4) 0.3758(3) 0.22718(14)
H9 H 0.77514 0.43217 0.24875
C14 C 1.1969(4) 0.4204(3) 0.17278(15)
C15 C 0.6442(4) 0.3269(3) 0.23366(16)
C16 C 0.6965(4) 0.4634(3) 0.15037(17)
H10 H 0.60807 0.43650 0.15620
H11 H 0.70342 0.51827 0.17170
H12 H 0.70801 0.47701 0.11154
C17 C 0.8335(4) 0.1604(3) 0.04981(17)
H13 H 0.75259 0.16795 0.06973
C18 C 1.0040(5) 0.5006(4) -0.01231(18)
C19 C 1.0369(6) 0.5633(4) 0.0263(2)
H14 H 1.07323 0.61892 0.01557
C20 C 0.5612(4) 0.3438(3) 0.27929(18)
H15 H 0.58476 0.38974 0.30402
C21 C 0.8509(6) 0.0663(3) 0.16095(19)
H16 H 0.86709 0.00872 0.14340
H17 H 0.85761 0.05954 0.20064
H18 H 0.76098 0.08748 0.15139
C22 C 0.9504(5) 0.4180(4) 0.00180(17)
H19 H 0.92905 0.37548 -0.02545
N3 N 1.0263(6) 0.5217(5) -0.0729(2)
C23 C 0.4121(5) 0.2263(3) 0.2531(2)
C24 C 0.4864(5) 0.2094(3) 0.2056(2)
H20 H 0.45851 0.16514 0.18045
C25 C 1.0161(5) 0.5439(3) 0.08241(19)
H21 H 1.03944 0.58667 0.10927
C26 C 0.4439(5) 0.2935(4) 0.2888(2)
H22 H 0.38806 0.30586 0.31926
C27 C 1.3310(5) 0.5501(4) 0.1867(2)
H23 H 1.32277 0.61120 0.20016
H24 H 1.39648 0.51781 0.20897
H25 H 1.36109 0.55102 0.14863
C28 C 1.0705(5) 0.1327(3) 0.04688(19)
H26 H 1.15313 0.12049 0.06461
C29 C 0.8422(7) 0.3808(5) 0.40019(19)
H27 H 0.83268 0.44137 0.41434
H28 H 0.76175 0.34632 0.40921
H29 H 0.92096 0.35262 0.41672
C30 C 1.0674(6) 0.1402(4) -0.0109(2)
H30 H 1.14763 0.13412 -0.03143
C31 C 0.8317(5) 0.1665(4) -0.0070(2)
H31 H 0.74945 0.17782 -0.02532
C32 C 0.9478(7) 0.1564(4) -0.0369(2)
H32 H 0.94512 0.16059 -0.07551
N4 N 0.2893(5) 0.1696(4) 0.2633(3)
O6 O 0.2268(5) 0.1814(3) 0.3074(3)
O7 O 0.2604(5) 0.1116(4) 0.2291(2)
O8 O 1.0783(8) 0.5923(5) -0.0839(2)
O9 O 0.9915(6) 0.4661(4) -0.10589(19)
#END
