
#######################################################################
#
#                 Cambridge Crystallographic Data Centre
#                                CCDC
#
#######################################################################
#
# If this CIF has been generated from an entry in the Cambridge
# Structural Database, then it will include bibliographic, chemical,
# crystal, experimental, refinement or atomic coordinate data resulting
# from the CCDC's data processing and validation procedures.
#
#######################################################################

data_CSD_CIF_DEZVOT
_audit_creation_date 2000-02-23
_audit_creation_method CSD-ConQuest-V1
_database_code_CSD DEZVOT
_database_code_depnum_ccdc_archive 'CCDC 139765'
_chemical_formula_sum 'C22 H23 N1 O7'
_chemical_formula_moiety
;
C22 H23 N1 O7
;
_journal_coeditor_code "IUCr QA0185"
_journal_data_validation_number IUC9900160
_journal_coden_Cambridge 591
_journal_volume 55
_journal_year 1999
_journal_page_first 9900160
_journal_name_full 'Acta Crystallogr.,Sect.C:Cryst.Struct.Commun. '
loop_
_publ_author_name
"C.Prabhakar"
"K.Vyas"
"J.M.Babu"
"M.R.Sarma"
"G.O.Reddy"
_chemical_name_systematic
;
4-Acetoxy-3,5,6-trimethyl-2-(3-oxobutyl)phenyl 4-nitrobenzoate
;
_cell_volume   2112.681
_exptl_crystal_colour 'colorless'
_exptl_crystal_density_diffrn 1.3
_exptl_crystal_description 'rectangular prism'
_diffrn_ambient_temperature ?
_diffrn_special_details
;
The study was carried out at room temperature,in the range 283-303K

;
#These two values have been output from a single CSD field.
_refine_ls_R_factor_gt 0.0482
_refine_ls_wR_factor_gt 0.0482
_symmetry_cell_setting monoclinic
_symmetry_space_group_name_H-M 'P 21/c'
_symmetry_Int_Tables_number 14
loop_
_symmetry_equiv_pos_site_id
_symmetry_equiv_pos_as_xyz
1 x,y,z
2 -x,1/2+y,1/2-z
3 -x,-y,-z
4 x,-1/2-y,-1/2+z
_cell_length_a 12.186(1)
_cell_length_b 8.7763(9)
_cell_length_c 20.4128(9)
_cell_angle_alpha 90
_cell_angle_beta 104.593(4)
_cell_angle_gamma 90
_cell_formula_units_Z 4
loop_
_atom_type_symbol
_atom_type_radius_bond
C 0.68
H 0.23
N 0.68
O 0.68
loop_
_atom_site_label
_atom_site_type_symbol
_atom_site_fract_x
_atom_site_fract_y
_atom_site_fract_z
O1 O 0.3186(1) 0.3025(2) 0.46697(7)
O2 O 0.2569(2) 0.1483(2) 0.37828(8)
O3 O 0.0892(3) -0.1654(3) 0.6644(1)
O4 O 0.0190(2) -0.3082(3) 0.5801(1)
O5 O -0.0124(2) 0.6793(3) 0.3510(1)
O6 O 0.5708(1) 0.6671(2) 0.34022(7)
O7 O 0.4966(2) 0.5771(3) 0.2362(1)
N1 N 0.0731(2) -0.1986(3) 0.6052(1)
C1 C 0.3802(2) 0.3915(2) 0.43031(9)
C2 C 0.3288(2) 0.5221(2) 0.3984(1)
C3 C 0.3932(2) 0.6161(2) 0.36658(9)
C4 C 0.5023(2) 0.5693(2) 0.36812(9)
C5 C 0.5520(2) 0.4370(2) 0.3984(1)
C6 C 0.4890(2) 0.3449(2) 0.4314(1)
C7 C 0.2638(2) 0.1799(2) 0.4359(1)
C8 C 0.2130(2) 0.0858(2) 0.4820(1)
C9 C 0.2301(2) 0.1187(3) 0.5498(1)
C10 C 0.1835(2) 0.0247(3) 0.5906(1)
C11 C 0.1218(2) -0.0991(2) 0.5618(1)
C12 C 0.1033(2) -0.1338(2) 0.4946(1)
C13 C 0.1494(2) -0.0391(2) 0.4545(1)
C14 C 0.2073(2) 0.5604(2) 0.3966(1)
C15 C 0.1256(2) 0.5103(3) 0.3304(1)
C16 C 0.0092(2) 0.5766(3) 0.3181(1)
C17 C -0.0786(2) 0.5102(4) 0.2599(1)
C18 C 0.3477(2) 0.7637(3) 0.3328(1)
C19 C 0.5633(2) 0.6576(3) 0.2728(1)
C20 C 0.6464(2) 0.7603(3) 0.2533(1)
C21 C 0.6700(2) 0.3933(3) 0.3953(1)
C22 C 0.5356(2) 0.1976(3) 0.4652(1)
H1 H 0.27180 0.21010 0.56890
H2 H 0.19570 0.03210 0.63930
H3 H 0.06090 -0.21770 0.47710
H4 H 0.13470 -0.05780 0.41040
H5 H 0.20200 0.67150 0.40460
H6 H 0.18470 0.50780 0.43430
H7 H 0.15490 0.54600 0.29110
H8 H 0.12260 0.39650 0.32890
H9 H -0.05320 0.43040 0.24030
H10 H -0.14260 0.49100 0.27360
H11 H -0.11180 0.57580 0.23670
H12 H 0.40410 0.82980 0.33030
H13 H 0.28700 0.81260 0.34590
H14 H 0.30630 0.75110 0.29170
H15 H 0.63550 0.87690 0.25770
H16 H 0.64380 0.73090 0.21410
H17 H 0.71970 0.73510 0.28570
H18 H 0.67410 0.30900 0.36830
H19 H 0.70740 0.46370 0.38700
H20 H 0.71980 0.36260 0.44510
H21 H 0.52510 0.11790 0.43440
H22 H 0.60970 0.20570 0.48250
H23 H 0.49260 0.16060 0.49010
#END
