
#######################################################################
#
#                 Cambridge Crystallographic Data Centre
#                                CCDC
#
#######################################################################
#
# If this CIF has been generated from an entry in the Cambridge
# Structural Database, then it will include bibliographic, chemical,
# crystal, experimental, refinement or atomic coordinate data resulting
# from the CCDC's data processing and validation procedures.
#
#######################################################################

data_CSD_CIF_DHBFZO
_audit_creation_date 1979-01-19
_audit_creation_method CSD-ConQuest-V1
_database_code_CSD DHBFZO
_database_code_depnum_ccdc_archive 'CCDC 1139950'
_chemical_formula_sum 'C8 H11 N3 O2'
_chemical_formula_moiety
;
C8 H11 N3 O2
;
_journal_coeditor_code "IUCr A16438"
_journal_coden_Cambridge 107
_journal_volume 34
_journal_year 1978
_journal_page_first 2953
_journal_name_full 'Acta Crystallogr.,Sect.B:Struct.Crystallogr.Cryst.Chem. '
loop_
_publ_author_name
"M.Calleri"
"G.Chiari"
"D.Viterbo"
_chemical_name_systematic
;
6,7-Dihydro-6,6-dimethylbenzofurazan-4(5H)-one oxime
;
_cell_volume    903.746
_exptl_crystal_density_diffrn 1.33
_diffrn_ambient_temperature ?
_diffrn_special_details
;
The study was carried out at room temperature,in the range 283-303K

;
#These two values have been output from a single CSD field.
_refine_ls_R_factor_gt 0.062
_refine_ls_wR_factor_gt 0.062
_symmetry_cell_setting monoclinic
_symmetry_space_group_name_H-M 'P 21/n'
_symmetry_Int_Tables_number 14
loop_
_symmetry_equiv_pos_site_id
_symmetry_equiv_pos_as_xyz
1 x,y,z
2 1/2-x,1/2+y,1/2-z
3 -x,-y,-z
4 -1/2+x,-1/2-y,-1/2+z
_cell_length_a 6.048(2)
_cell_length_b 12.934(1)
_cell_length_c 11.565(1)
_cell_angle_alpha 90
_cell_angle_beta 92.59(2)
_cell_angle_gamma 90
_cell_formula_units_Z 4
loop_
_atom_type_symbol
_atom_type_radius_bond
C 0.68
H 0.23
N 0.68
O 0.68
loop_
_atom_site_label
_atom_site_type_symbol
_atom_site_fract_x
_atom_site_fract_y
_atom_site_fract_z
O1 O 0.08020 0.98520 0.19760
O2 O -0.39240 0.90580 0.58670
N1 N 0.21980 0.89980 0.21630
N2 N -0.07110 0.99130 0.28360
N3 N -0.30440 0.93760 0.48210
C1 C 0.15660 0.85700 0.31060
C2 C -0.02570 0.91370 0.35210
C3 C -0.13270 0.88460 0.45710
C4 C -0.02430 0.79930 0.52530
C5 C 0.08230 0.71540 0.44980
C6 C 0.25200 0.76440 0.37010
C7 C 0.20300 0.63930 0.53030
C8 C -0.09670 0.65990 0.37610
H1 H -0.50500 0.94900 0.59700
H2 H -0.12100 0.76600 0.58000
H3 H 0.08700 0.83000 0.58400
H4 H 0.29400 0.71200 0.30900
H5 H 0.37400 0.78100 0.42400
H6 H 0.31900 0.67300 0.57800
H7 H 0.10800 0.60500 0.58200
H8 H 0.27100 0.58100 0.48700
H9 H -0.17300 0.70500 0.31600
H10 H -0.03700 0.60200 0.32900
H11 H -0.20400 0.62700 0.42900
#END
