
#######################################################################
#
#                 Cambridge Crystallographic Data Centre
#                                CCDC
#
#######################################################################
#
# If this CIF has been generated from an entry in the Cambridge
# Structural Database, then it will include bibliographic, chemical,
# crystal, experimental, refinement or atomic coordinate data resulting
# from the CCDC's data processing and validation procedures.
#
#######################################################################

data_CSD_CIF_DIBFUQ
_audit_creation_date 2007-07-03
_audit_creation_method CSD-ConQuest-V1
_database_code_CSD DIBFUQ
_database_code_depnum_ccdc_archive 'CCDC 615400'
_chemical_formula_sum 'C23 H18 N2 O3'
_chemical_formula_moiety
;
C23 H18 N2 O3
;
_journal_coden_Cambridge 177
_journal_volume 5
_journal_year 2007
_journal_page_first 1062
_journal_name_full 'Org.Biomol.Chem. '
loop_
_publ_author_name
"S.L.Cockroft"
"J.Perkins"
"C.Zonta"
"H.Adams"
"S.E.Spey"
"C.M.R.Low"
"J.G.Vinter"
"K.R.Lawson"
"C.J.Urch"
"C.A.Hunter"
_chemical_name_systematic
;
N-(2,6-Dimethyl-4-nitrophenyl)anthracene-9-carboxamide
;
_chemical_melting_point 573.15
_cell_volume   1787.874
_exptl_crystal_colour 'yellow'
_exptl_crystal_density_diffrn 1.376
_exptl_special_details
;
Melts above 573.15K

;
_exptl_crystal_description 'needle'
_exptl_crystal_preparation 'dichloromethane'
_diffrn_ambient_temperature 150
#These two values have been output from a single CSD field.
_refine_ls_R_factor_gt 0.0579
_refine_ls_wR_factor_gt 0.0579
_symmetry_cell_setting orthorhombic
_symmetry_space_group_name_H-M 'P n a 21'
_symmetry_Int_Tables_number 33
loop_
_symmetry_equiv_pos_site_id
_symmetry_equiv_pos_as_xyz
1 x,y,z
2 -x,-y,1/2+z
3 1/2+x,1/2-y,z
4 1/2-x,1/2+y,1/2+z
_cell_length_a 16.939(3)
_cell_length_b 12.274(2)
_cell_length_c 8.5993(15)
_cell_angle_alpha 90
_cell_angle_beta 90
_cell_angle_gamma 90
_cell_formula_units_Z 4
loop_
_atom_type_symbol
_atom_type_radius_bond
C 0.68
H 0.23
N 0.68
O 0.68
loop_
_atom_site_label
_atom_site_type_symbol
_atom_site_fract_x
_atom_site_fract_y
_atom_site_fract_z
N1 N 0.26718(16) 0.2528(2) 0.3506(4)
H1 H 0.25410 0.29800 0.27860
N2 N 0.2742(2) 0.3760(2) 0.9799(4)
O1 O 0.30873(17) 0.08153(19) 0.4062(3)
O2 O 0.33678(18) 0.4045(2) 1.0387(4)
O3 O 0.21317(17) 0.36503(19) 1.0550(3)
C1 C 0.2849(2) 0.1481(3) 0.3110(4)
C2 C 0.2745(2) 0.1201(3) 0.1415(4)
C3 C 0.1978(2) 0.1026(2) 0.0827(4)
C4 C 0.1281(2) 0.1094(3) 0.1770(5)
H2 H 0.13310 0.12340 0.28280
C5 C 0.0550(2) 0.0956(3) 0.1146(5)
H3 H 0.01060 0.10180 0.17760
C6 C 0.0461(2) 0.0719(3) -0.0461(5)
H4 H -0.00400 0.06250 -0.08780
C7 C 0.1103(2) 0.0628(3) -0.1386(5)
H5 H 0.10340 0.04750 -0.24370
C8 C 0.1884(2) 0.0762(3) -0.0788(5)
C9 C 0.2547(2) 0.0651(3) -0.1726(4)
H6 H 0.24820 0.04850 -0.27730
C10 C 0.3309(2) 0.0783(2) -0.1131(4)
C11 C 0.3988(2) 0.0639(3) -0.2091(5)
H7 H 0.39240 0.04430 -0.31280
C12 C 0.4724(2) 0.0786(3) -0.1510(5)
H8 H 0.51610 0.06710 -0.21440
C13 C 0.4833(2) 0.1111(3) 0.0052(5)
H9 H 0.53410 0.12330 0.04230
C14 C 0.4204(2) 0.1248(3) 0.1022(5)
H10 H 0.42880 0.14510 0.20510
C15 C 0.3412(2) 0.1081(2) 0.0467(5)
C16 C 0.2698(2) 0.2898(3) 0.5086(4)
C17 C 0.3427(2) 0.3005(3) 0.5836(4)
C18 C 0.3433(2) 0.3314(3) 0.7380(4)
H11 H 0.39080 0.33940 0.79090
C19 C 0.2729(2) 0.3502(3) 0.8127(4)
C20 C 0.2008(2) 0.3432(3) 0.7392(4)
H12 H 0.15450 0.35800 0.79310
C21 C 0.19839(19) 0.3137(3) 0.5837(4)
C22 C 0.1205(2) 0.3054(3) 0.5026(5)
H13 H 0.10370 0.23070 0.50110
H14 H 0.12570 0.33140 0.39780
H15 H 0.08210 0.34860 0.55670
C23 C 0.4194(2) 0.2796(3) 0.5010(5)
H16 H 0.46150 0.31540 0.55540
H17 H 0.41630 0.30730 0.39680
H18 H 0.42940 0.20260 0.49790
#END
