
#######################################################################
#
#                 Cambridge Crystallographic Data Centre
#                                CCDC
#
#######################################################################
#
# If this CIF has been generated from an entry in the Cambridge
# Structural Database, then it will include bibliographic, chemical,
# crystal, experimental, refinement or atomic coordinate data resulting
# from the CCDC's data processing and validation procedures.
#
#######################################################################

data_CSD_CIF_DIBFOK
_audit_creation_date 2007-07-03
_audit_creation_method CSD-ConQuest-V1
_database_code_CSD DIBFOK
_database_code_depnum_ccdc_archive 'CCDC 615399'
_chemical_formula_sum 'C17 H17 N3 O5'
_chemical_formula_moiety
;
C17 H17 N3 O5
;
_journal_coden_Cambridge 177
_journal_volume 5
_journal_year 2007
_journal_page_first 1062
_journal_name_full 'Org.Biomol.Chem. '
loop_
_publ_author_name
"S.L.Cockroft"
"J.Perkins"
"C.Zonta"
"H.Adams"
"S.E.Spey"
"C.M.R.Low"
"J.G.Vinter"
"K.R.Lawson"
"C.J.Urch"
"C.A.Hunter"
_chemical_name_systematic
;
N-(2,6-Dimethyl-4-nitrophenyl)-2,6-dimethyl-4-nitrobenzamide
;
_cell_volume   1644.644
_exptl_crystal_colour 'brown'
_exptl_crystal_density_diffrn 1.387
_exptl_crystal_description 'needle'
_exptl_crystal_preparation 'ethanol'
_diffrn_ambient_temperature 150
#These two values have been output from a single CSD field.
_refine_ls_R_factor_gt 0.0754
_refine_ls_wR_factor_gt 0.0754
_symmetry_cell_setting monoclinic
_symmetry_space_group_name_H-M 'P 21/n'
_symmetry_Int_Tables_number 14
loop_
_symmetry_equiv_pos_site_id
_symmetry_equiv_pos_as_xyz
1 x,y,z
2 1/2-x,1/2+y,1/2-z
3 -x,-y,-z
4 -1/2+x,-1/2-y,-1/2+z
_cell_length_a 4.634(3)
_cell_length_b 12.208(6)
_cell_length_c 29.098(16)
_cell_angle_alpha 90
_cell_angle_beta 92.433(11)
_cell_angle_gamma 90
_cell_formula_units_Z 4
loop_
_atom_type_symbol
_atom_type_radius_bond
C 0.68
H 0.23
N 0.68
O 0.68
loop_
_atom_site_label
_atom_site_type_symbol
_atom_site_fract_x
_atom_site_fract_y
_atom_site_fract_z
O1 O 0.3215(9) 0.8632(3) 0.13144(17)
O2 O 1.2278(11) 1.3258(4) 0.17260(19)
O3 O 1.3220(12) 1.2380(4) 0.2360(2)
O4 O 0.5027(11) 0.2929(4) 0.07900(17)
O5 O 0.1506(10) 0.3628(4) 0.03775(18)
N1 N 0.7567(10) 0.7926(4) 0.11406(17)
H1 H 0.94150 0.80720 0.11160
N2 N 1.2109(14) 1.2446(5) 0.1971(3)
N3 N 0.3677(13) 0.3711(5) 0.0638(2)
C1 C 0.5883(13) 0.8726(5) 0.1304(2)
C2 C 0.7396(12) 0.9730(5) 0.1469(3)
C3 C 0.8378(13) 1.0502(5) 0.1160(2)
C4 C 0.9897(13) 1.1424(5) 0.1327(3)
H2 H 1.05520 1.19680 0.11230
C5 C 1.0418(13) 1.1518(5) 0.1800(3)
C6 C 0.9377(13) 1.0781(5) 0.2108(3)
H3 H 0.97160 1.08800 0.24300
C7 C 0.7809(13) 0.9880(5) 0.1938(2)
C8 C 0.6576(12) 0.6856(5) 0.1003(2)
C9 C 0.7670(12) 0.5967(5) 0.1249(2)
C10 C 0.6776(13) 0.4914(5) 0.1124(2)
H4 H 0.75240 0.42880 0.12820
C11 C 0.4736(13) 0.4812(5) 0.0757(2)
C12 C 0.3639(13) 0.5697(5) 0.0519(2)
H5 H 0.21990 0.55950 0.02810
C13 C 0.4631(13) 0.6746(5) 0.0627(2)
C14 C 0.7913(15) 1.0370(5) 0.0650(2)
H6 H 0.88830 0.97030 0.05500
H7 H 0.87130 1.10060 0.04930
H8 H 0.58390 1.03160 0.05720
C15 C 0.6574(14) 0.9077(5) 0.2278(2)
H9 H 0.44930 0.92010 0.22970
H10 H 0.75200 0.91860 0.25830
H11 H 0.69160 0.83250 0.21750
C16 C 0.9825(12) 0.6109(5) 0.1652(2)
H12 H 1.15180 0.65090 0.15510
H13 H 1.04250 0.53870 0.17690
H14 H 0.89240 0.65220 0.18970
C17 C 0.3640(14) 0.7691(5) 0.0333(2)
H15 H 0.24670 0.81860 0.05130
H16 H 0.24800 0.74180 0.00670
H17 H 0.53230 0.80870 0.02250
#END
