
#######################################################################
#
#                 Cambridge Crystallographic Data Centre
#                                CCDC
#
#######################################################################
#
# If this CIF has been generated from an entry in the Cambridge
# Structural Database, then it will include bibliographic, chemical,
# crystal, experimental, refinement or atomic coordinate data resulting
# from the CCDC's data processing and validation procedures.
#
#######################################################################

data_CSD_CIF_DIBGIF
_audit_creation_date 2007-07-03
_audit_creation_method CSD-ConQuest-V1
_database_code_CSD DIBGIF
_database_code_depnum_ccdc_archive 'CCDC 615403'
_chemical_formula_sum 'C18 H20 N2 O3'
_chemical_formula_moiety
;
C18 H20 N2 O3
;
_journal_coden_Cambridge 177
_journal_volume 5
_journal_year 2007
_journal_page_first 1062
_journal_name_full 'Org.Biomol.Chem. '
loop_
_publ_author_name
"S.L.Cockroft"
"J.Perkins"
"C.Zonta"
"H.Adams"
"S.E.Spey"
"C.M.R.Low"
"J.G.Vinter"
"K.R.Lawson"
"C.J.Urch"
"C.A.Hunter"
_chemical_name_systematic
;
N-(2,6-Dimethylphenyl)-N,2,6-trimethyl-4-nitrobenzamide
;
_cell_volume   1607.324
_exptl_crystal_colour 'colorless'
_exptl_crystal_density_diffrn 1.291
_exptl_crystal_description 'plate'
_exptl_crystal_preparation 'ethanol'
_diffrn_ambient_temperature 150
#These two values have been output from a single CSD field.
_refine_ls_R_factor_gt 0.0758
_refine_ls_wR_factor_gt 0.0758
_symmetry_cell_setting monoclinic
_symmetry_space_group_name_H-M 'P 21/n'
_symmetry_Int_Tables_number 14
loop_
_symmetry_equiv_pos_site_id
_symmetry_equiv_pos_as_xyz
1 x,y,z
2 1/2-x,1/2+y,1/2-z
3 -x,-y,-z
4 -1/2+x,-1/2-y,-1/2+z
_cell_length_a 7.123(3)
_cell_length_b 16.792(8)
_cell_length_c 13.785(7)
_cell_angle_alpha 90
_cell_angle_beta 102.881(9)
_cell_angle_gamma 90
_cell_formula_units_Z 4
loop_
_atom_type_symbol
_atom_type_radius_bond
C 0.68
H 0.23
N 0.68
O 0.68
loop_
_atom_site_label
_atom_site_type_symbol
_atom_site_fract_x
_atom_site_fract_y
_atom_site_fract_z
N1 N 0.3758(6) 0.3437(3) 0.1512(3)
N2 N 0.3609(8) 0.4333(4) 0.6030(4)
O1 O 0.0654(5) 0.3105(2) 0.1500(3)
O2 O 0.4798(6) 0.3951(3) 0.6655(3)
O3 O 0.2736(6) 0.4912(3) 0.6239(3)
C1 C 0.2592(7) 0.3593(3) 0.3030(4)
C2 C 0.3351(8) 0.3040(3) 0.3808(4)
C3 C 0.3715(7) 0.3298(3) 0.4782(4)
H1 H 0.42900 0.29520 0.53100
C4 C 0.3231(8) 0.4066(4) 0.4973(4)
C5 C 0.2385(8) 0.4585(3) 0.4254(4)
H2 H 0.20140 0.50990 0.44300
C6 C 0.2067(8) 0.4365(4) 0.3267(4)
C7 C 0.2257(8) 0.3339(3) 0.1950(4)
C8 C 0.3580(7) 0.3248(4) 0.0467(4)
C9 C 0.3260(7) 0.3872(3) -0.0231(4)
C10 C 0.3331(8) 0.3706(4) -0.1211(4)
H3 H 0.31250 0.41210 -0.16910
C11 C 0.3697(8) 0.2944(4) -0.1491(4)
H4 H 0.37700 0.28390 -0.21590
C12 C 0.3958(7) 0.2335(4) -0.0807(4)
H5 H 0.41570 0.18080 -0.10140
C13 C 0.3935(7) 0.2479(4) 0.0185(4)
C14 C 0.4296(8) 0.1815(3) 0.0938(4)
H6 H 0.53480 0.19660 0.14970
H7 H 0.46500 0.13300 0.06260
H8 H 0.31260 0.17170 0.11820
C15 C 0.2710(8) 0.4690(3) 0.0069(4)
H9 H 0.26190 0.50580 -0.04920
H10 H 0.36930 0.48810 0.06370
H11 H 0.14630 0.46620 0.02560
C16 C 0.5663(7) 0.3724(4) 0.2039(4)
H12 H 0.57620 0.42970 0.19230
H13 H 0.66650 0.34420 0.17910
H14 H 0.58300 0.36250 0.27540
C17 C 0.3741(8) 0.2189(3) 0.3569(4)
H15 H 0.47280 0.21750 0.31760
H16 H 0.25530 0.19460 0.31880
H17 H 0.41940 0.18920 0.41890
C18 C 0.1184(9) 0.4948(4) 0.2449(4)
H18 H 0.06600 0.54060 0.27410
H19 H 0.01470 0.46840 0.19700
H20 H 0.21750 0.51300 0.21080
#END
