
#######################################################################
#
#                 Cambridge Crystallographic Data Centre
#                                CCDC
#
#######################################################################
#
# If this CIF has been generated from an entry in the Cambridge
# Structural Database, then it will include bibliographic, chemical,
# crystal, experimental, refinement or atomic coordinate data resulting
# from the CCDC's data processing and validation procedures.
#
#######################################################################

data_CSD_CIF_DIBQUA
_audit_creation_date 2000-02-23
_audit_creation_method CSD-ConQuest-V1
_database_code_CSD DIBQUA
_database_code_depnum_ccdc_archive 'CCDC 139743'
_chemical_formula_sum 'C30 H23 N3 O4'
_chemical_formula_moiety
;
C30 H23 N3 O4
;
_journal_coeditor_code "IUCr QB0148"
_journal_data_validation_number IUC9900165
_journal_coden_Cambridge 591
_journal_volume 55
_journal_year 1999
_journal_page_first 9900165
_journal_name_full 'Acta Crystallogr.,Sect.C:Cryst.Struct.Commun. '
loop_
_publ_author_name
"R.Badri"
"A.Kerbal"
"B.Najib"
"B.El-Bali"
"J.Escudie"
"H.Ranaivonjatovo"
"M.Bolte"
_chemical_name_systematic
;
3'-(p-Nitrophenyl)-2-phenyl-4'-(p-tolyl)-spiro[isoquinoline-3(2H),5'(4'H)-isox
azolin]-4(1H)-one
;
_cell_volume   2435.345
_exptl_crystal_colour 'light yellow'
_exptl_crystal_density_diffrn 1.335
_exptl_crystal_description 'block'
_exptl_crystal_preparation 'dichloromethane/hexane'
_diffrn_ambient_temperature 173
#These two values have been output from a single CSD field.
_refine_ls_R_factor_gt 0.052
_refine_ls_wR_factor_gt 0.052
_symmetry_cell_setting monoclinic
_symmetry_space_group_name_H-M 'P 21/n'
_symmetry_Int_Tables_number 14
loop_
_symmetry_equiv_pos_site_id
_symmetry_equiv_pos_as_xyz
1 x,y,z
2 1/2-x,1/2+y,1/2-z
3 -x,-y,-z
4 -1/2+x,-1/2-y,-1/2+z
_cell_length_a 11.333(2)
_cell_length_b 16.949(3)
_cell_length_c 13.344(2)
_cell_angle_alpha 90
_cell_angle_beta 108.17(1)
_cell_angle_gamma 90
_cell_formula_units_Z 4
loop_
_atom_type_symbol
_atom_type_radius_bond
C 0.68
H 0.23
N 0.68
O 0.68
loop_
_atom_site_label
_atom_site_type_symbol
_atom_site_fract_x
_atom_site_fract_y
_atom_site_fract_z
O1 O 0.62552(12) 0.59573(8) 0.09405(10)
N1 N 0.74886(14) 0.62198(10) 0.11821(13)
C1 C 0.78593(17) 0.64983(11) 0.21246(14)
C2 C 0.68926(16) 0.65025(11) 0.26867(14)
H1 H 0.66360 0.70650 0.27050
C3 C 0.57882(16) 0.60813(11) 0.18647(14)
N2 N 0.53431(13) 0.53664(9) 0.21850(12)
C4 C 0.43046(17) 0.49831(11) 0.13737(15)
H2 H 0.39670 0.45560 0.17100
H3 H 0.46300 0.47380 0.08390
C5 C 0.32689(16) 0.55349(11) 0.08277(14)
C6 C 0.20830(17) 0.52463(12) 0.02926(15)
H4 H 0.19180 0.46970 0.03000
C7 C 0.11505(18) 0.57580(13) -0.02465(15)
H5 H 0.03480 0.55560 -0.06060
C8 C 0.13714(18) 0.65601(13) -0.02702(16)
H6 H 0.07270 0.69050 -0.06510
C9 C 0.25360(18) 0.68568(13) 0.02631(16)
H7 H 0.26930 0.74070 0.02550
C10 C 0.34810(17) 0.63428(12) 0.08136(15)
C11 C 0.47131(17) 0.66681(12) 0.13912(16)
O2 O 0.49202(14) 0.73722(9) 0.14622(15)
C12 C 0.91334(16) 0.68199(11) 0.25120(14)
C13 C 1.00152(19) 0.65577(13) 0.20546(17)
H8 H 0.97870 0.61820 0.15000
C14 C 1.12157(19) 0.68407(14) 0.24023(17)
H9 H 1.18210 0.66560 0.21000
C15 C 1.15214(17) 0.73965(12) 0.31966(15)
N3 N 1.28046(15) 0.76935(11) 0.35646(14)
O3 O 1.35952(15) 0.73305(12) 0.33097(18)
O4 O 1.30251(15) 0.82853(11) 0.40991(14)
C16 C 1.06715(18) 0.76823(11) 0.36552(15)
H10 H 1.09020 0.80740 0.41900
C17 C 0.94697(17) 0.73824(11) 0.33137(15)
H11 H 0.88740 0.75620 0.36290
C18 C 0.72568(16) 0.62103(11) 0.38151(14)
C19 C 0.64340(18) 0.63294(11) 0.43913(16)
H12 H 0.56590 0.65800 0.40680
C20 C 0.6741(2) 0.60837(13) 0.54337(17)
H13 H 0.61690 0.61690 0.58130
C21 C 0.7866(2) 0.57159(13) 0.59343(17)
C22 C 0.8203(3) 0.54458(19) 0.7071(2)
H14 H 0.89430 0.51090 0.72370
H15 H 0.75100 0.51460 0.71730
H16 H 0.83750 0.59070 0.75370
C23 C 0.8679(2) 0.56015(13) 0.53608(16)
H17 H 0.94560 0.53540 0.56880
C24 C 0.83853(17) 0.58405(11) 0.43190(15)
H18 H 0.89600 0.57510 0.39430
C25 C 0.62361(16) 0.47655(10) 0.27213(14)
C26 C 0.60899(18) 0.44406(12) 0.36291(16)
H19 H 0.54410 0.46220 0.38810
C27 C 0.6885(2) 0.38526(13) 0.41712(17)
H20 H 0.67810 0.36310 0.47920
C28 C 0.7837(2) 0.35872(13) 0.38037(18)
H21 H 0.83950 0.31920 0.41810
C29 C 0.79667(19) 0.38992(12) 0.28903(16)
H22 H 0.86130 0.37150 0.26370
C30 C 0.71609(18) 0.44801(11) 0.23354(15)
H23 H 0.72410 0.46810 0.16950
#END
