
#######################################################################
#
#                 Cambridge Crystallographic Data Centre
#                                CCDC
#
#######################################################################
#
# If this CIF has been generated from an entry in the Cambridge
# Structural Database, then it will include bibliographic, chemical,
# crystal, experimental, refinement or atomic coordinate data resulting
# from the CCDC's data processing and validation procedures.
#
#######################################################################

data_CSD_CIF_DICBOI
_audit_creation_date 2013-06-17
_audit_creation_method CSD-ConQuest-V1
_database_code_CSD DICBOI
_database_code_depnum_ccdc_archive 'CCDC 886751'
_chemical_formula_sum 'C25 H27 N3 O4'
_chemical_formula_moiety
;
C25 H27 N3 O4
;
_journal_coden_Cambridge 4
_journal_volume 134
_journal_year 2012
_journal_page_first 18193
_journal_name_full 'J.Am.Chem.Soc. '
loop_
_publ_author_name
"D.Best"
"S.Kujawa"
"Hon Wai Lam"
_chemical_name_systematic
;
t-Butyl (2-(5-nitropyridin-2-yl)-1,3-diphenylpropyl)carbamate
;
_cell_volume    565.635
_exptl_crystal_colour 'colorless'
_exptl_crystal_density_diffrn 1.273
_exptl_special_details
;
Absolute configuration

;
_exptl_crystal_description 'plate'
_diffrn_ambient_temperature 120
#These two values have been output from a single CSD field.
_refine_ls_R_factor_gt 0.0298
_refine_ls_wR_factor_gt 0.0298
_symmetry_cell_setting triclinic
_symmetry_space_group_name_H-M 'P 1'
_symmetry_Int_Tables_number 1
loop_
_symmetry_equiv_pos_site_id
_symmetry_equiv_pos_as_xyz
1 x,y,z
_cell_length_a 5.54059(16)
_cell_length_b 10.0757(4)
_cell_length_c 10.3999(4)
_cell_angle_alpha 97.848(3)
_cell_angle_beta 100.309(3)
_cell_angle_gamma 90.160(3)
_cell_formula_units_Z 1
loop_
_atom_type_symbol
_atom_type_radius_bond
C 0.68
H 0.23
N 0.68
O 0.68
loop_
_atom_site_label
_atom_site_type_symbol
_atom_site_fract_x
_atom_site_fract_y
_atom_site_fract_z
O1 O -0.62563(19) 0.13633(10) 0.10093(10)
O2 O -0.4273(2) 0.10369(11) -0.07415(10)
O3 O -0.4521(3) 0.76982(14) 0.08137(15)
O4 O -0.1344(3) 0.75670(13) -0.01390(13)
N1 N -0.2096(2) 0.13182(12) 0.12739(11)
H1 H -0.086(4) 0.1123(17) 0.0873(18)
N2 N -0.2445(2) 0.45560(12) 0.27720(12)
N3 N -0.2621(3) 0.71771(14) 0.05892(14)
C1 C -0.4375(3) 0.12391(13) 0.05495(13)
C2 C -0.1678(3) 0.15462(13) 0.27086(13)
H2 H -0.325(3) 0.1808(16) 0.2937(16)
C3 C 0.0213(3) 0.27152(13) 0.32571(13)
H3 H 0.187(4) 0.2428(17) 0.3080(17)
C4 C 0.0264(3) 0.30764(13) 0.47488(13)
H4 H -0.144(4) 0.3257(17) 0.4877(17)
H5 H 0.076(4) 0.227(2) 0.517(2)
C5 C -0.6530(3) 0.08166(15) -0.17463(14)
C6 C -0.8093(4) 0.20514(17) -0.16912(17)
H6 H -0.947(4) 0.195(2) -0.246(2)
H7 H -0.891(4) 0.215(2) -0.085(2)
H8 H -0.697(4) 0.288(2) -0.173(2)
C7 C -0.5517(4) 0.0610(2) -0.30219(16)
H9 H -0.679(4) 0.042(2) -0.378(2)
H10 H -0.454(5) -0.021(3) -0.306(3)
H11 H -0.469(4) 0.146(2) -0.314(2)
C8 C -0.7900(4) -0.04300(17) -0.15745(17)
H12 H -0.860(5) -0.033(2) -0.075(2)
H13 H -0.672(5) -0.119(3) -0.156(3)
H14 H -0.917(5) -0.065(3) -0.235(3)
C9 C -0.0931(3) 0.02728(13) 0.32982(13)
C10 C -0.2226(3) -0.01737(14) 0.41893(14)
H15 H -0.361(4) 0.030(2) 0.441(2)
C11 C -0.1546(3) -0.13315(15) 0.47492(14)
H16 H -0.247(4) -0.162(2) 0.539(2)
C12 C 0.0429(3) -0.20449(14) 0.44178(15)
H17 H 0.096(3) -0.2884(19) 0.4783(18)
C13 C 0.1739(3) -0.16056(15) 0.35279(16)
H18 H 0.317(4) -0.2125(19) 0.3281(19)
C14 C 0.1063(3) -0.04478(14) 0.29670(14)
H19 H 0.201(4) -0.018(2) 0.2329(19)
C15 C -0.0458(3) 0.38981(13) 0.25191(13)
C16 C 0.0919(3) 0.42477(15) 0.16097(14)
H20 H 0.231(4) 0.371(2) 0.142(2)
C17 C 0.0230(3) 0.53310(16) 0.09458(15)
H21 H 0.114(4) 0.561(2) 0.029(2)
C18 C -0.1807(3) 0.60026(14) 0.12305(15)
C19 C -0.3110(3) 0.56025(15) 0.21337(15)
H22 H -0.458(4) 0.607(2) 0.2291(19)
C20 C 0.1944(3) 0.42356(13) 0.54635(13)
C21 C 0.1491(3) 0.49077(14) 0.66615(14)
H23 H 0.006(4) 0.4671(19) 0.7057(19)
C22 C 0.3050(3) 0.59469(15) 0.73700(15)
H24 H 0.262(4) 0.637(2) 0.822(2)
C23 C 0.5072(3) 0.63350(15) 0.68908(16)
H25 H 0.625(4) 0.706(2) 0.743(2)
C24 C 0.5524(3) 0.56844(14) 0.56947(16)
H26 H 0.695(4) 0.592(2) 0.533(2)
C25 C 0.3977(3) 0.46415(14) 0.49893(14)
H27 H 0.433(3) 0.4222(18) 0.4174(18)
#END
