
#######################################################################
#
#                 Cambridge Crystallographic Data Centre
#                                CCDC
#
#######################################################################
#
# If this CIF has been generated from an entry in the Cambridge
# Structural Database, then it will include bibliographic, chemical,
# crystal, experimental, refinement or atomic coordinate data resulting
# from the CCDC's data processing and validation procedures.
#
#######################################################################

data_CSD_CIF_DICDUO
_audit_creation_date 1986-09-02
_audit_creation_method CSD-ConQuest-V1
_database_code_CSD DICDUO
_database_code_depnum_ccdc_archive 'CCDC 1140234'
_chemical_formula_sum 'C16 H18 N2 O8'
_chemical_formula_moiety
;
C16 H18 N2 O8
;
_journal_coden_Cambridge 16
_journal_volume 41
_journal_year 1985
_journal_page_first 3663
_journal_name_full 'Tetrahedron '
loop_
_publ_author_name
"K.Mori"
"H.Watanabe"
"K.Yanagi"
"M.Minobe"
_chemical_name_systematic
;
(3R,6S)-(+)-1,7-Dioxaspiro(5.5)undec-3-yl 3,5-dinitrobenzoate
;
_chemical_melting_point 446.15
_cell_volume   1752.615
_exptl_crystal_colour 'pale yellow'
_exptl_crystal_density_diffrn 1.388
_exptl_special_details
;
Melting point range 446.15-446.65K

;
_diffrn_ambient_temperature ?
_diffrn_special_details
;
The study was carried out at room temperature,in the range 283-303K

;
#These two values have been output from a single CSD field.
_refine_ls_R_factor_gt 0.039
_refine_ls_wR_factor_gt 0.039
_chemical_compound_source
;
Dacus oleae Gmelin.(pheromone of olive fruit fly)
;
_symmetry_cell_setting orthorhombic
_symmetry_space_group_name_H-M 'P 21 21 21'
_symmetry_Int_Tables_number 19
loop_
_symmetry_equiv_pos_site_id
_symmetry_equiv_pos_as_xyz
1 x,y,z
2 1/2+x,1/2-y,-z
3 -x,1/2+y,1/2-z
4 1/2-x,-y,1/2+z
_cell_length_a 9.778(1)
_cell_length_b 31.075(3)
_cell_length_c 5.768(1)
_cell_angle_alpha 90
_cell_angle_beta 90
_cell_angle_gamma 90
_cell_formula_units_Z 4
loop_
_atom_type_symbol
_atom_type_radius_bond
C 0.68
H 0.23
N 0.68
O 0.68
loop_
_atom_site_label
_atom_site_type_symbol
_atom_site_fract_x
_atom_site_fract_y
_atom_site_fract_z
O1 O 0.4009(2) 0.33205(6) 0.3066(4)
O2 O 0.3197(3) 0.28513(6) 0.0222(4)
O3 O 0.5377(2) 0.40790(6) 0.1557(4)
O4 O 0.6510(2) 0.44296(6) -0.1251(4)
O5 O 0.3360(2) 0.48257(7) 0.7932(4)
O6 O 0.3340(2) 0.55207(7) 0.8023(4)
O7 O 0.5987(3) 0.63231(7) 0.2371(6)
O8 O 0.6676(3) 0.60004(8) -0.0688(5)
N1 N 0.3675(2) 0.51805(7) 0.7141(4)
N2 N 0.6139(3) 0.60028(7) 0.1217(6)
C1 C 0.5372(3) 0.3333(1) 0.2210(6)
C2 C 0.5552(3) 0.36672(9) 0.0369(6)
C3 C 0.4510(4) 0.36210(9) -0.1513(5)
C4 C 0.3076(4) 0.3594(1) -0.0499(6)
C5 C 0.2995(3) 0.32539(9) 0.1350(6)
C6 C 0.3059(5) 0.2490(1) 0.1699(8)
C7 C 0.1750(6) 0.2469(1) 0.2909(9)
C8 C 0.1480(5) 0.2885(2) 0.422(1)
C9 C 0.1630(4) 0.3267(1) 0.2645(9)
C10 C 0.5895(3) 0.44277(9) 0.0556(5)
C11 C 0.5570(2) 0.48246(8) 0.1896(5)
C12 C 0.4818(3) 0.48135(8) 0.3945(5)
C13 C 0.4518(3) 0.51926(9) 0.5023(5)
C14 C 0.4932(3) 0.55881(9) 0.4207(5)
C15 C 0.5695(3) 0.55887(8) 0.2169(5)
C16 C 0.6012(3) 0.52213(8) 0.1021(5)
H1 H 0.586(3) 0.3058(8) 0.157(6)
H2 H 0.592(3) 0.3390(8) 0.363(6)
H3 H 0.655(3) 0.3662(9) -0.023(6)
H4 H 0.471(3) 0.337(1) -0.224(7)
H5 H 0.473(3) 0.382(1) -0.253(6)
H6 H 0.281(3) 0.3872(9) 0.021(6)
H7 H 0.234(3) 0.3605(9) -0.164(6)
H8 H 0.382(3) 0.2478(8) 0.255(5)
H9 H 0.331(4) 0.219(1) 0.060(8)
H10 H 0.078(5) 0.245(1) 0.22(1)
H11 H 0.184(4) 0.221(1) 0.392(8)
H12 H 0.194(4) 0.295(1) 0.553(7)
H13 H 0.058(3) 0.290(1) 0.475(6)
H14 H 0.099(4) 0.329(1) 0.149(8)
H15 H 0.185(5) 0.349(1) 0.36(1)
H16 H 0.443(3) 0.458(1) 0.446(6)
H17 H 0.480(3) 0.5833(9) 0.482(5)
H18 H 0.663(4) 0.521(1) -0.030(7)
#END
