
#######################################################################
#
#                 Cambridge Crystallographic Data Centre
#                                CCDC
#
#######################################################################
#
# If this CIF has been generated from an entry in the Cambridge
# Structural Database, then it will include bibliographic, chemical,
# crystal, experimental, refinement or atomic coordinate data resulting
# from the CCDC's data processing and validation procedures.
#
#######################################################################

data_CSD_CIF_DICJIJ
_audit_creation_date 2007-07-03
_audit_creation_method CSD-ConQuest-V1
_database_code_CSD DICJIJ
_database_code_depnum_ccdc_archive 'CCDC 290371'
_chemical_formula_sum 'C30 H39 N3 O7'
_chemical_formula_moiety
;
C30 H39 N3 O7
;
_journal_coden_Cambridge 179
_journal_volume 46
_journal_year 2007
_journal_page_first 2314
_journal_name_full 'Angew.Chem.,Int.Ed. '
loop_
_publ_author_name
"D.Enders"
"M.H.Bonten"
"G.Raabe"
_chemical_name_systematic
;
t-Butyl 
(S,S)-4-(benzyloxy)-2-cyano-N-(2,2-dimethyl-4-phenyl-1,3-dioxolan-5-yl)-N-meth
yl-4'-nitrovalinate
;
_chemical_melting_point 381.15
_cell_volume   2928.691
_exptl_crystal_density_diffrn 1.256
_diffrn_ambient_temperature ?
_diffrn_special_details
;
The study was carried out at room temperature,in the range 283-303K

;
#These two values have been output from a single CSD field.
_refine_ls_R_factor_gt 0.024
_refine_ls_wR_factor_gt 0.024
_symmetry_cell_setting orthorhombic
_symmetry_space_group_name_H-M 'P 21 21 21'
_symmetry_Int_Tables_number 19
loop_
_symmetry_equiv_pos_site_id
_symmetry_equiv_pos_as_xyz
1 x,y,z
2 1/2-x,-y,1/2+z
3 1/2+x,1/2-y,-z
4 -x,1/2+y,1/2-z
_cell_length_a 9.5798(5)
_cell_length_b 16.7352(9)
_cell_length_c 18.2678(9)
_cell_angle_alpha 90
_cell_angle_beta 90
_cell_angle_gamma 90
_cell_formula_units_Z 4
loop_
_atom_type_symbol
_atom_type_radius_bond
C 0.68
H 0.23
N 0.68
O 0.68
loop_
_atom_site_label
_atom_site_type_symbol
_atom_site_fract_x
_atom_site_fract_y
_atom_site_fract_z
O1 O 0.30136(8) 0.17523(4) 0.34437(4)
O2 O 0.69827(8) 0.38705(4) 0.25094(4)
O3 O 0.89176(9) 0.46992(4) 0.45289(4)
O4 O 0.17790(8) 0.29082(4) 0.31184(4)
O5 O 0.64977(11) 0.61044(5) 0.41826(5)
O6 O 0.57767(10) 0.52116(5) 0.49458(4)
O7 O 0.80104(9) 0.26932(4) 0.27802(4)
N1 N 0.62397(11) 0.54123(6) 0.43504(5)
N2 N 0.48795(10) 0.33224(5) 0.35312(4)
N3 N 0.69988(12) 0.19676(6) 0.44011(5)
C1 C 0.27920(12) 0.40825(6) 0.26005(5)
C2 C 0.72216(12) 0.32317(6) 0.29158(5)
C3 C 0.17032(13) 0.20533(6) 0.31933(6)
C4 C 1.23088(13) 0.55035(7) 0.50944(6)
C5 C 0.77735(13) 0.40024(6) 0.18050(6)
C6 C 0.28834(12) 0.31830(6) 0.26536(5)
C7 C 0.67808(12) 0.25269(7) 0.40569(6)
C8 C 0.32077(14) 0.44498(7) 0.19593(6)
C9 C 0.43135(13) 0.28669(6) 0.29056(6)
C10 C 1.08714(13) 0.54478(6) 0.49887(5)
C11 C 0.63890(12) 0.32680(6) 0.36410(5)
C12 C 0.41789(13) 0.19617(7) 0.29946(7)
C13 C 1.29363(15) 0.62381(7) 0.52056(6)
C14 C 0.69220(13) 0.39951(6) 0.41049(6)
C15 C 0.12316(15) 0.16666(8) 0.24808(7)
C16 C 0.41036(14) 0.32443(8) 0.42231(6)
C17 C 0.26021(14) 0.57363(7) 0.24420(6)
C18 C 1.00907(14) 0.61475(7) 0.49847(7)
C19 C 0.64576(15) 0.47853(7) 0.37719(6)
C20 C 1.21470(15) 0.69261(7) 0.52168(6)
C21 C 1.07260(14) 0.68806(7) 0.51013(7)
C22 C 0.70773(15) 0.47454(7) 0.15103(6)
C23 C 0.31055(16) 0.52688(7) 0.18805(7)
C24 C 0.06971(15) 0.19030(8) 0.38104(7)
C25 C 0.92887(14) 0.41448(8) 0.19924(7)
C26 C 0.84921(13) 0.39571(7) 0.42273(7)
C27 C 0.75728(16) 0.32980(8) 0.12942(6)
C28 C 0.21870(17) 0.53739(7) 0.30858(7)
C29 C 0.22733(16) 0.45541(7) 0.31612(7)
C30 C 1.02074(13) 0.46388(7) 0.49066(6)
H1 H 0.4078(14) 0.1700(7) 0.2490(7)
H2 H 0.7518(16) 0.4902(8) 0.1037(8)
H3 H 0.4919(14) 0.2977(6) 0.2488(6)
H4 H 0.7107(14) 0.5017(7) 0.3431(6)
H5 H 0.1031(17) 0.1079(9) 0.2562(7)
H6 H 0.9743(15) 0.3684(8) 0.2199(7)
H7 H 0.6512(15) 0.3938(8) 0.4583(7)
H8 H 1.2895(16) 0.5019(8) 0.5081(6)
H9 H 0.3548(17) 0.4115(9) 0.1557(8)
H10 H 0.9132(17) 0.6114(7) 0.4911(6)
H11 H 0.2732(13) 0.2958(6) 0.2152(6)
H12 H 0.9037(15) 0.3862(7) 0.3764(7)
H13 H 0.7917(15) 0.3467(7) 0.0792(7)
H14 H 0.4342(16) 0.2723(9) 0.4494(7)
H15 H 0.6048(18) 0.4650(8) 0.1423(7)
H16 H 0.8738(16) 0.3503(8) 0.4579(7)
H17 H 1.0834(16) 0.4267(8) 0.4643(7)
H18 H 0.5568(16) 0.4739(7) 0.3543(7)
H19 H 0.9767(17) 0.4287(8) 0.1554(8)
H20 H 0.1981(17) 0.4299(8) 0.3603(8)
H21 H 0.6563(18) 0.3188(8) 0.1244(7)
H22 H 0.7157(14) 0.5185(8) 0.1880(7)
H23 H 0.3126(18) 0.3245(8) 0.4121(6)
H24 H 1.0006(16) 0.4388(8) 0.5390(7)
H25 H 0.8067(17) 0.2825(9) 0.1469(7)
H26 H 0.1898(17) 0.1726(8) 0.2084(7)
H27 H 0.0409(18) 0.1922(9) 0.2308(8)
H28 H 0.1039(17) 0.2195(9) 0.4258(8)
H29 H 0.1825(16) 0.5698(8) 0.3493(8)
H30 H 0.4971(16) 0.1733(8) 0.3240(7)
H31 H 0.2525(15) 0.6311(9) 0.2383(6)
H32 H 0.0667(15) 0.1317(8) 0.3916(7)
H33 H 0.9434(17) 0.4610(9) 0.2340(8)
H34 H 1.2557(14) 0.7439(8) 0.5319(6)
H35 H 0.4344(16) 0.3722(8) 0.4545(7)
H36 H 1.388(2) 0.6275(9) 0.5280(8)
H37 H -0.0226(18) 0.2081(8) 0.3676(7)
H38 H 0.3352(17) 0.5502(9) 0.1421(8)
H39 H 1.0202(19) 0.7367(10) 0.5090(8)
#END
