
#######################################################################
#
#                 Cambridge Crystallographic Data Centre
#                                CCDC
#
#######################################################################
#
# If this CIF has been generated from an entry in the Cambridge
# Structural Database, then it will include bibliographic, chemical,
# crystal, experimental, refinement or atomic coordinate data resulting
# from the CCDC's data processing and validation procedures.
#
#######################################################################

data_CSD_CIF_DIDLAE
_audit_creation_date 2007-07-03
_audit_creation_method CSD-ConQuest-V1
_database_code_CSD DIDLAE
_database_code_depnum_ccdc_archive 'CCDC 283162'
_chemical_formula_sum 'C17 H17 N1 O5'
_chemical_formula_moiety
;
C17 H17 N1 O5
;
_journal_coden_Cambridge 16
_journal_volume 62
_journal_year 2006
_journal_page_first 3423
_journal_name_full 'Tetrahedron '
loop_
_publ_author_name
"C.S.Penkett"
"R.O.Sims"
"P.W.Byrne"
"L.Kingston"
"R.French"
"L.Dray"
"S.Berritt"
"J.Lai"
"A.G.Avent"
"P.B.Hitchcock"
_chemical_name_systematic
;
rac-(1S,2R,8S,9R,12S)-12-(2'-Nitrophenyl)-4,6-dioxatricyclo(7.3.1.0^2,8^)tride
c-10-en-13-one
;
_chemical_melting_point 463.75
_cell_volume    714.805
_exptl_crystal_colour 'colorless'
_exptl_crystal_density_diffrn 1.465
_exptl_special_details
;
Melting point range 463.75-464.45K

;
_exptl_crystal_description 'prism'
_diffrn_ambient_temperature 173
#These two values have been output from a single CSD field.
_refine_ls_R_factor_gt 0.0664
_refine_ls_wR_factor_gt 0.0664
loop_
_citation_database_id_CSD
_citation_special_details
DIFGEF "is a stereoisomer of this entry"
_symmetry_cell_setting triclinic
_symmetry_space_group_name_H-M 'P -1'
_symmetry_Int_Tables_number 2
loop_
_symmetry_equiv_pos_site_id
_symmetry_equiv_pos_as_xyz
1 x,y,z
2 -x,-y,-z
_cell_length_a 7.1064(12)
_cell_length_b 9.7290(16)
_cell_length_c 11.6227(16)
_cell_angle_alpha 110.028(8)
_cell_angle_beta 106.858(8)
_cell_angle_gamma 91.824(6)
_cell_formula_units_Z 2
loop_
_atom_type_symbol
_atom_type_radius_bond
C 0.68
H 0.23
N 0.68
O 0.68
loop_
_atom_site_label
_atom_site_type_symbol
_atom_site_fract_x
_atom_site_fract_y
_atom_site_fract_z
O1 O 0.5627(6) 0.6878(4) 0.0761(4)
O2 O 0.6146(6) 0.9455(4) 0.1294(4)
O3 O 0.8384(6) 0.8658(4) 0.4027(4)
O4 O 1.2068(7) 0.2435(5) 0.2602(5)
O5 O 1.0046(7) 0.3724(5) 0.1821(4)
N1 N 1.1339(9) 0.3592(6) 0.2719(5)
C1 C 0.4853(10) 0.8126(7) 0.0568(6)
H1 H 0.361(9) 0.824(6) 0.085(5)
H2 H 0.432(8) 0.794(6) -0.047(6)
C2 C 0.7810(9) 0.9594(8) 0.0851(7)
H3 H 0.837(7) 1.077(6) 0.119(5)
H4 H 0.737(7) 0.912(5) 0.001(5)
C3 C 0.9539(9) 0.8909(6) 0.1421(5)
H5 H 1.060(8) 0.918(5) 0.111(5)
C4 C 0.9180(9) 0.7189(6) 0.1085(5)
H6 H 1.008(9) 0.669(6) 0.068(6)
C5 C 0.7135(9) 0.6425(8) 0.0183(6)
H7 H 0.673(8) 0.667(5) -0.063(5)
H8 H 0.708(7) 0.539(6) 0.004(4)
C6 C 0.9597(8) 0.6972(6) 0.2386(5)
H9 H 0.867(8) 0.617(6) 0.230(5)
C7 C 0.9275(8) 0.8447(6) 0.3254(5)
C8 C 1.0301(8) 0.9560(6) 0.2912(5)
H10 H 0.999(7) 1.058(6) 0.327(5)
C9 C 1.2490(9) 0.9444(7) 0.3352(5)
H11 H 1.342(9) 1.036(7) 0.367(6)
C10 C 1.3154(10) 0.8179(7) 0.3319(5)
H12 H 1.453(9) 0.822(6) 0.363(5)
C11 C 1.1796(8) 0.6772(6) 0.2946(5)
H13 H 1.211(6) 0.582(5) 0.224(4)
C12 C 1.2131(8) 0.6270(6) 0.4102(5)
C13 C 1.2019(8) 0.4786(6) 0.3988(5)
C14 C 1.2494(9) 0.4364(8) 0.5046(6)
H14 H 1.252(8) 0.334(6) 0.487(5)
C15 C 1.3052(9) 0.5431(8) 0.6247(7)
H15 H 1.351(7) 0.519(5) 0.699(5)
C16 C 1.3135(9) 0.6912(8) 0.6413(6)
H16 H 1.347(7) 0.760(5) 0.730(5)
C17 C 1.2681(9) 0.7311(7) 0.5358(6)
H17 H 1.288(8) 0.830(6) 0.548(5)
#END
