
#######################################################################
#
#                 Cambridge Crystallographic Data Centre
#                                CCDC
#
#######################################################################
#
# If this CIF has been generated from an entry in the Cambridge
# Structural Database, then it will include bibliographic, chemical,
# crystal, experimental, refinement or atomic coordinate data resulting
# from the CCDC's data processing and validation procedures.
#
#######################################################################

data_CSD_CIF_DIDNUA
_audit_creation_date 2007-07-03
_audit_creation_method CSD-ConQuest-V1
_database_code_CSD DIDNUA
_database_code_depnum_ccdc_archive 'CCDC 645690'
_chemical_formula_sum 'C18 H12 N2 O4'
_chemical_formula_moiety
;
C18 H12 N2 O4
;
_journal_coden_Cambridge 35
_journal_volume 72
_journal_year 2007
_journal_page_first 2279
_journal_name_full 'J.Org.Chem. '
loop_
_publ_author_name
"B.T.King"
"J.Kroulik"
"C.R.Robertson"
"P.Rempala"
"C.L.Hilton"
"J.D.Korinek"
"L.M.Gortari"
_chemical_name_systematic
;
3,3''-Dinitro-o-terphenyl
;
_cell_volume   1502.296
_exptl_crystal_colour 'yellow'
_exptl_crystal_density_diffrn 1.407
_exptl_crystal_description 'block'
_diffrn_ambient_temperature 100
#These two values have been output from a single CSD field.
_refine_ls_R_factor_gt 0.0476
_refine_ls_wR_factor_gt 0.0476
_symmetry_cell_setting monoclinic
_symmetry_space_group_name_H-M 'C 2/c'
_symmetry_Int_Tables_number 15
loop_
_symmetry_equiv_pos_site_id
_symmetry_equiv_pos_as_xyz
1 x,y,z
2 1/2+x,1/2+y,z
3 -x,y,1/2-z
4 1/2-x,1/2+y,1/2-z
5 -x,-y,-z
6 -1/2-x,-1/2-y,-z
7 x,-y,-1/2+z
8 -1/2+x,-1/2-y,-1/2+z
_cell_length_a 16.6974(9)
_cell_length_b 9.9231(6)
_cell_length_c 10.2577(6)
_cell_angle_alpha 90
_cell_angle_beta 117.882(1)
_cell_angle_gamma 90
_cell_formula_units_Z 4
loop_
_atom_type_symbol
_atom_type_radius_bond
C 0.68
H 0.23
N 0.68
O 0.68
loop_
_atom_site_label
_atom_site_type_symbol
_atom_site_fract_x
_atom_site_fract_y
_atom_site_fract_z
C1 C 0.41042(9) 0.09743(14) 0.25295(15)
C2 C 0.39329(10) 0.19584(15) 0.14565(16)
H1 H 0.41250 0.18400 0.07460
C3 C 0.34704(10) 0.31170(15) 0.14716(16)
C4 C 0.31735(10) 0.33473(16) 0.25039(17)
H2 H 0.28760 0.41420 0.24960
C5 C 0.33330(11) 0.23583(17) 0.35496(17)
H3 H 0.31340 0.24800 0.42500
C6 C 0.37883(10) 0.11872(16) 0.35568(16)
H4 H 0.38860 0.05290 0.42610
C7 C 0.45911(10) -0.02905(14) 0.25467(15)
C8 C 0.42121(10) -0.15259(15) 0.26243(16)
H5 H 0.36820 -0.15330 0.27100
C9 C 0.46083(11) -0.27383(15) 0.25758(17)
H6 H 0.43510 -0.35480 0.26450
N1 N 0.32860(9) 0.41355(13) 0.03204(15)
O1 O 0.35721(11) 0.39292(13) -0.05619(16)
O2 O 0.28412(8) 0.51342(11) 0.02833(14)
C1B C 0.58958(9) 0.09743(14) 0.24705(15)
C2B C 0.60671(10) 0.19584(15) 0.35435(16)
H1B H 0.58750 0.18400 0.42540
C3B C 0.65296(10) 0.31170(15) 0.35284(16)
C4B C 0.68265(10) 0.33473(16) 0.24961(17)
H2B H 0.71240 0.41420 0.25040
C5B C 0.66670(11) 0.23583(17) 0.14504(17)
H3B H 0.68660 0.24800 0.07500
C6B C 0.62117(10) 0.11872(16) 0.14432(16)
H4B H 0.61140 0.05290 0.07390
C7B C 0.54089(10) -0.02905(14) 0.24533(15)
C8B C 0.57879(10) -0.15259(15) 0.23757(16)
H5B H 0.63180 -0.15330 0.22900
C9B C 0.53917(11) -0.27383(15) 0.24242(17)
H6B H 0.56490 -0.35480 0.23550
N1B N 0.67140(9) 0.41355(13) 0.46796(15)
O1B O 0.64279(11) 0.39292(13) 0.55619(16)
O2B O 0.71588(8) 0.51342(11) 0.47167(14)
#END
