
#######################################################################
#
#                 Cambridge Crystallographic Data Centre
#                                CCDC
#
#######################################################################
#
# If this CIF has been generated from an entry in the Cambridge
# Structural Database, then it will include bibliographic, chemical,
# crystal, experimental, refinement or atomic coordinate data resulting
# from the CCDC's data processing and validation procedures.
#
#######################################################################

data_CSD_CIF_DIFGEF
_audit_creation_date 2007-07-03
_audit_creation_method CSD-ConQuest-V1
_database_code_CSD DIFGEF
_database_code_depnum_ccdc_archive 'CCDC 283163'
_chemical_formula_sum 'C17 H17 N1 O5'
_chemical_formula_moiety
;
C17 H17 N1 O5
;
_journal_coden_Cambridge 16
_journal_volume 62
_journal_year 2006
_journal_page_first 3423
_journal_name_full 'Tetrahedron '
loop_
_publ_author_name
"C.S.Penkett"
"R.O.Sims"
"P.W.Byrne"
"L.Kingston"
"R.French"
"L.Dray"
"S.Berritt"
"J.Lai"
"A.G.Avent"
"P.B.Hitchcock"
_chemical_name_systematic
;
rac-(1S,2S,8R,9R,12S)-12-(2'-Nitrophenyl)-4,6-dioxatricyclo(7.3.1.0^2,8^)tride
c-10-en-13-one
;
_chemical_melting_point 471.15
_cell_volume   1466.650
_exptl_crystal_colour 'colorless'
_exptl_crystal_density_diffrn 1.428
_exptl_special_details
;
Melting point range 471.15-471.55K

;
_exptl_crystal_description 'prism'
_diffrn_ambient_temperature 173
#These two values have been output from a single CSD field.
_refine_ls_R_factor_gt 0.0666
_refine_ls_wR_factor_gt 0.0666
loop_
_citation_database_id_CSD
_citation_special_details
DIDLAE "is a stereoisomer of this entry"
_symmetry_cell_setting monoclinic
_symmetry_space_group_name_H-M 'P 21/n'
_symmetry_Int_Tables_number 14
loop_
_symmetry_equiv_pos_site_id
_symmetry_equiv_pos_as_xyz
1 x,y,z
2 1/2-x,1/2+y,1/2-z
3 -x,-y,-z
4 -1/2+x,-1/2-y,-1/2+z
_cell_length_a 9.1079(17)
_cell_length_b 12.352(2)
_cell_length_c 13.656(2)
_cell_angle_alpha 90
_cell_angle_beta 107.32
_cell_angle_gamma 90
_cell_formula_units_Z 4
loop_
_atom_type_symbol
_atom_type_radius_bond
C 0.68
H 0.23
N 0.68
O 0.68
loop_
_atom_site_label
_atom_site_type_symbol
_atom_site_fract_x
_atom_site_fract_y
_atom_site_fract_z
O1 O -0.3160(4) 0.5466(3) 0.4684(3)
O2 O -0.1535(4) 0.4345(3) 0.5943(3)
O3 O 0.2093(4) 0.8288(3) 0.6652(3)
O4 O -0.4302(4) 1.0995(3) 0.4559(3)
O5 O -0.3161(4) 0.9506(3) 0.4345(3)
N1 N -0.3240(5) 1.0341(4) 0.4824(4)
C1 C -0.3042(7) 0.4619(5) 0.5396(6)
H1 H -0.356(5) 0.484(4) 0.584(4)
H2 H -0.346(5) 0.399(4) 0.495(3)
C2 C -0.0832(7) 0.5115(5) 0.6739(5)
H3 H 0.001(6) 0.473(4) 0.728(4)
H4 H -0.162(6) 0.537(4) 0.705(4)
C3 C -0.0044(6) 0.6034(4) 0.6377(4)
H5 H 0.067(5) 0.578(4) 0.612(4)
C4 C -0.1070(6) 0.6738(4) 0.5452(5)
H6 H -0.085(6) 0.654(4) 0.481(4)
C5 C -0.2799(7) 0.6523(4) 0.5150(6)
H7 H -0.321(6) 0.657(4) 0.580(5)
H8 H -0.332(5) 0.703(3) 0.459(3)
C6 C -0.0626(6) 0.7948(4) 0.5768(4)
H9 H -0.058(4) 0.833(3) 0.513(3)
C7 C 0.0906(6) 0.7797(4) 0.6564(4)
C8 C 0.0671(6) 0.6877(4) 0.7217(4)
H10 H 0.162(5) 0.660(3) 0.779(4)
C9 C -0.0523(6) 0.7254(4) 0.7725(5)
H11 H -0.055(5) 0.685(3) 0.837(4)
C10 C -0.1576(6) 0.7989(4) 0.7297(4)
H12 H -0.226(4) 0.820(3) 0.763(3)
C11 C -0.1694(6) 0.8539(4) 0.6293(4)
H13 H -0.284(5) 0.852(3) 0.579(3)
C12 C -0.1280(5) 0.9741(4) 0.6440(4)
C13 C -0.1996(6) 1.0566(4) 0.5770(4)
C14 C -0.1581(6) 1.1657(4) 0.5944(5)
H14 H -0.221(5) 1.217(4) 0.540(4)
C15 C -0.0395(7) 1.1932(5) 0.6780(5)
H15 H -0.004(5) 1.264(4) 0.698(4)
C16 C 0.0336(7) 1.1146(4) 0.7475(5)
H16 H 0.114(5) 1.131(3) 0.815(3)
C17 C -0.0115(7) 1.0066(5) 0.7303(5)
H17 H 0.034(5) 0.966(4) 0.782(4)
#END
