
#######################################################################
#
#                 Cambridge Crystallographic Data Centre
#                                CCDC
#
#######################################################################
#
# If this CIF has been generated from an entry in the Cambridge
# Structural Database, then it will include bibliographic, chemical,
# crystal, experimental, refinement or atomic coordinate data resulting
# from the CCDC's data processing and validation procedures.
#
#######################################################################

data_CSD_CIF_DIFJIL
_audit_creation_date 1986-10-23
_audit_creation_method CSD-ConQuest-V1
_database_code_CSD DIFJIL
_chemical_formula_sum 'C8 H14 N2 O6'
_chemical_formula_moiety
;
C8 H14 N2 O6
;
_journal_coden_Cambridge 10
_journal_volume 68
_journal_year 1985
_journal_page_first 2254
_journal_name_full 'Helv.Chim.Acta '
loop_
_publ_author_name
"D.Beer"
"A.Vasella"
_chemical_name_systematic
;
2-Acetamido-2-deoxy-D-gluconohydroximo-1,4-lactone
;
_chemical_melting_point 467.15
_cell_volume   1043.904
_exptl_crystal_colour 'colorless'
_exptl_crystal_density_diffrn 1.49
_exptl_special_details
;
Melts with decomposition.

;
_diffrn_ambient_temperature ?
_diffrn_special_details
;
The study was carried out at room temperature,in the range 283-303K

;
#These two values have been output from a single CSD field.
_refine_ls_R_factor_gt 0.029
_refine_ls_wR_factor_gt 0.029
_symmetry_cell_setting orthorhombic
_symmetry_space_group_name_H-M 'P 21 21 21'
_symmetry_Int_Tables_number 19
loop_
_symmetry_equiv_pos_site_id
_symmetry_equiv_pos_as_xyz
1 x,y,z
2 1/2+x,1/2-y,-z
3 -x,1/2+y,1/2-z
4 1/2-x,-y,1/2+z
_cell_length_a 8.179(1)
_cell_length_b 8.551(1)
_cell_length_c 14.926(2)
_cell_angle_alpha 90
_cell_angle_beta 90
_cell_angle_gamma 90
_cell_formula_units_Z 4
loop_
_atom_type_symbol
_atom_type_radius_bond
C 0.68
H 0.23
N 0.68
O 0.68
loop_
_atom_site_label
_atom_site_type_symbol
_atom_site_fract_x
_atom_site_fract_y
_atom_site_fract_z
C1 C 0.5121(2) 0.2627(2) 0.8978(1)
N1 N 0.4890(2) 0.1162(2) 0.89603(9)
O1 O 0.3895(2) 0.0653(1) 0.96782(8)
C2 C 0.6173(2) 0.3465(2) 0.8305(1)
N2 N 0.7892(2) 0.3342(2) 0.8559(1)
C3 C 0.5429(2) 0.5111(2) 0.8345(1)
O2 O 0.4035(2) 0.5150(2) 0.77834(8)
C4 C 0.4882(2) 0.5241(2) 0.9320(1)
O3 O 0.4471(2) 0.3628(1) 0.95836(7)
C5 C 0.3358(2) 0.6216(2) 0.9502(1)
O4 O 0.3565(2) 0.7711(1) 0.90890(8)
C6 C 0.3033(2) 0.6458(2) 1.0497(1)
O5 O 0.4047(2) 0.7661(2) 1.08355(9)
C7 C 0.9080(2) 0.3161(3) 0.7960(1)
O6 O 0.8794(2) 0.3205(2) 0.71442(9)
C8 C 1.0766(3) 0.2887(4) 0.8313(2)
H1 H 0.384(3) -0.039(3) 0.959(2)
H2 H 0.602(2) 0.307(2) 0.772(1)
H3 H 0.816(3) 0.341(3) 0.914(2)
H4 H 0.615(3) 0.588(3) 0.819(1)
H5 H 0.437(3) 0.527(3) 0.726(2)
H6 H 0.574(2) 0.559(2) 0.968(1)
H7 H 0.248(2) 0.570(2) 0.925(1)
H8 H 0.280(4) 0.782(3) 0.863(2)
H9 H 0.190(3) 0.679(2) 1.055(1)
H10 H 0.317(3) 0.548(3) 1.081(1)
H11 H 0.466(4) 0.735(4) 1.126(2)
H12 H 1.085(3) 0.298(3) 0.892(2)
H13 H 1.101(4) 0.179(5) 0.814(2)
H14 H 1.145(4) 0.355(4) 0.799(2)
#END
