
#######################################################################
#
#                 Cambridge Crystallographic Data Centre
#                                CCDC
#
#######################################################################
#
# If this CIF has been generated from an entry in the Cambridge
# Structural Database, then it will include bibliographic, chemical,
# crystal, experimental, refinement or atomic coordinate data resulting
# from the CCDC's data processing and validation procedures.
#
#######################################################################

data_CSD_CIF_DIFLIN
_audit_creation_date 1986-10-23
_audit_creation_method CSD-ConQuest-V1
_database_code_CSD DIFLIN
_database_code_depnum_ccdc_archive 'CCDC 1140492'
_chemical_formula_sum 'C18 H25 N1 O9'
_chemical_formula_moiety
;
C18 H25 N1 O9
;
_journal_coden_Cambridge 10
_journal_volume 68
_journal_year 1985
_journal_page_first 2299
_journal_name_full 'Helv.Chim.Acta '
loop_
_publ_author_name
"B.Bernet"
"E.Krawczyk"
"A.Vasella"
_chemical_name_systematic
;
Methyl 
2,N:4,7-dianhydro-11,12-O-carbonyl-3,4,5,6-tetradeoxy-4-C-hydroxyamino-8,9-O-i
sopropylidene-2-C-methyl-\a-D-manno-L-erythro-7-dodeculo-7,10-furanosonate
;
_chemical_melting_point 407.15
_cell_volume   1839.258
_exptl_crystal_colour 'colorless'
_exptl_crystal_density_diffrn 1.44
_diffrn_ambient_temperature 123.15
#These two values have been output from a single CSD field.
_refine_ls_R_factor_gt 0.0426
_refine_ls_wR_factor_gt 0.0426
_symmetry_cell_setting orthorhombic
_symmetry_space_group_name_H-M 'P 21 21 21'
_symmetry_Int_Tables_number 19
loop_
_symmetry_equiv_pos_site_id
_symmetry_equiv_pos_as_xyz
1 x,y,z
2 1/2+x,1/2-y,-z
3 -x,1/2+y,1/2-z
4 1/2-x,-y,1/2+z
_cell_length_a 7.779(1)
_cell_length_b 10.042(1)
_cell_length_c 23.545(2)
_cell_angle_alpha 90
_cell_angle_beta 90
_cell_angle_gamma 90
_cell_formula_units_Z 4
loop_
_atom_type_symbol
_atom_type_radius_bond
C 0.68
H 0.23
N 0.68
O 0.68
loop_
_atom_site_label
_atom_site_type_symbol
_atom_site_fract_x
_atom_site_fract_y
_atom_site_fract_z
C1 C 0.1852(2) 0.2761(2) 0.24291(7)
O1 O 0.1479(2) 0.2146(2) 0.20077(6)
C2 C 0.3405(2) 0.3691(2) 0.24646(7)
O2 O 0.2984(2) 0.4761(1) 0.28466(5)
C3 C 0.4904(2) 0.2975(2) 0.27597(7)
C4 C 0.5910(2) 0.4135(2) 0.30152(7)
N1 N 0.4615(2) 0.5223(1) 0.31024(5)
C5 C 0.6725(2) 0.3911(2) 0.36026(8)
C6 C 0.6179(2) 0.5138(2) 0.39430(7)
C7 C 0.4374(2) 0.5388(2) 0.37232(7)
O3 O 0.3812(2) 0.6716(1) 0.38429(5)
C8 C 0.2949(2) 0.4507(2) 0.39739(6)
O4 O 0.3264(2) 0.4333(1) 0.45670(5)
C9 C 0.1329(2) 0.5387(2) 0.39533(6)
O5 O 0.0787(2) 0.5501(1) 0.45357(5)
C10 C 0.1995(2) 0.6729(2) 0.37385(7)
C11 C 0.1172(3) 0.7919(2) 0.40170(7)
O6 O 0.1633(2) 0.9097(1) 0.36934(5)
C12 C 0.1789(3) 0.8255(2) 0.46194(7)
O7 O 0.2377(2) 0.9616(1) 0.45729(6)
C13 C -0.0286(3) 0.1630(2) 0.29429(9)
O8 O 0.1021(2) 0.2655(1) 0.29218(5)
C14 C 0.3872(3) 0.4223(2) 0.18791(7)
C15 C 0.1637(2) 0.4459(2) 0.48444(7)
C16 C 0.1955(3) 0.4918(2) 0.54454(8)
C17 C 0.0614(3) 0.3176(2) 0.48117(8)
C18 C 0.2328(3) 1.0021(2) 0.40323(8)
O9 O 0.2853(2) 1.1076(1) 0.38713(7)
H1 H 0.454(3) 0.239(2) 0.3049(8)
H2 H 0.561(3) 0.249(2) 0.2495(8)
H3 H 0.678(3) 0.448(2) 0.2749(8)
H4 H 0.795(3) 0.382(2) 0.3573(8)
H5 H 0.629(3) 0.311(2) 0.3759(8)
H6 H 0.691(3) 0.589(2) 0.3857(8)
H7 H 0.617(3) 0.502(2) 0.4355(8)
H8 H 0.284(2) 0.367(2) 0.3795(7)
H9 H 0.040(3) 0.503(2) 0.3733(8)
H10 H 0.178(3) 0.678(2) 0.3304(8)
H11 H -0.008(3) 0.785(2) 0.4008(8)
H12 H 0.282(3) 0.773(2) 0.4736(9)
H13 H 0.084(3) 0.825(2) 0.4908(9)
H14 H -0.128(3) 0.187(2) 0.2713(9)
H15 H 0.016(3) 0.082(3) 0.279(1)
H16 H -0.066(3) 0.153(3) 0.339(1)
H17 H 0.418(3) 0.347(3) 0.164(1)
H18 H 0.487(3) 0.486(2) 0.1906(8)
H19 H 0.289(3) 0.472(2) 0.1695(9)
H20 H 0.260(3) 0.573(3) 0.5462(9)
H21 H 0.271(3) 0.421(3) 0.564(1)
H22 H 0.091(4) 0.501(3) 0.565(1)
H23 H -0.045(3) 0.330(2) 0.4997(9)
H24 H 0.036(3) 0.295(2) 0.4429(8)
H25 H 0.121(4) 0.246(3) 0.501(1)
#END
