
#######################################################################
#
#                 Cambridge Crystallographic Data Centre
#                                CCDC
#
#######################################################################
#
# If this CIF has been generated from an entry in the Cambridge
# Structural Database, then it will include bibliographic, chemical,
# crystal, experimental, refinement or atomic coordinate data resulting
# from the CCDC's data processing and validation procedures.
#
#######################################################################

data_CSD_CIF_DIFZEY
_audit_creation_date 2007-11-02
_audit_creation_method CSD-ConQuest-V1
_database_code_CSD DIFZEY
_database_code_depnum_ccdc_archive 'CCDC 642118'
_chemical_formula_sum 'C28 H33 N3 O3'
_chemical_formula_moiety
;
C28 H33 N3 O3
;
_journal_coden_Cambridge 16
_journal_volume 63
_journal_year 2007
_journal_page_first 7816
_journal_name_full 'Tetrahedron '
loop_
_publ_author_name
"N.A.Kulkarni"
"Ching-Fa Yao"
"Kwunmin Chen"
_chemical_name_systematic
;
1-(2-((benzyloxy)amino)pent-4-enoyl)-8,8-dimethyl-2-phenyloctahydro-3H-3a,6-me
thanoindazol-3-one
;
_cell_volume   1290.541
_exptl_crystal_colour 'colorless'
_exptl_crystal_density_diffrn 1.183
_exptl_crystal_description 'prism'
_diffrn_ambient_temperature 293
#These two values have been output from a single CSD field.
_refine_ls_R_factor_gt 0.0952
_refine_ls_wR_factor_gt 0.0952
_symmetry_cell_setting monoclinic
_symmetry_space_group_name_H-M 'P 21'
_symmetry_Int_Tables_number 4
loop_
_symmetry_equiv_pos_site_id
_symmetry_equiv_pos_as_xyz
1 x,y,z
2 -x,1/2+y,-z
_cell_length_a 10.4820(11)
_cell_length_b 10.8420(11)
_cell_length_c 11.3590(16)
_cell_angle_alpha 90
_cell_angle_beta 91.357(4)
_cell_angle_gamma 90
_cell_formula_units_Z 2
loop_
_atom_type_symbol
_atom_type_radius_bond
C 0.68
H 0.23
N 0.68
O 0.68
loop_
_atom_site_label
_atom_site_type_symbol
_atom_site_fract_x
_atom_site_fract_y
_atom_site_fract_z
O1 O 0.2743(9) 0.2879(9) 0.2813(7)
O2 O 0.5582(7) 0.5652(8) 0.4964(6)
O3 O 0.8245(7) 0.5900(8) 0.3362(6)
N1 N 0.4254(8) 0.3800(8) 0.3973(7)
N2 N 0.5623(8) 0.3765(8) 0.4114(7)
N3 N 0.8252(8) 0.5824(10) 0.4627(8)
H1 H 0.86150 0.64730 0.51020
C1 C 0.3859(12) 0.3104(11) 0.3036(11)
C2 C 0.5007(11) 0.273(1) 0.2398(9)
C3 C 0.5105(11) 0.1416(10) 0.1859(10)
H2 H 0.52470 0.07800 0.24350
H3 H 0.44150 0.11810 0.13360
C4 C 0.6281(11) 0.1537(11) 0.1143(10)
H4 H 0.69630 0.10300 0.14470
H5 H 0.61280 0.13510 0.03250
C5 C 0.6694(11) 0.2921(11) 0.1289(10)
H6 H 0.71280 0.33170 0.06570
C6 C 0.7237(11) 0.3102(11) 0.2523(10)
H7 H 0.79370 0.25560 0.26980
H8 H 0.74900 0.39360 0.26920
C7 C 0.6098(9) 0.2821(10) 0.3287(9)
H9 H 0.62050 0.20360 0.36680
C8 C 0.5393(11) 0.3537(10) 0.1357(9)
C9 C 0.5476(12) 0.4939(10) 0.1596(10)
H10 H 0.57520 0.53420 0.08950
H11 H 0.46430 0.52320 0.17900
H12 H 0.60660 0.51160 0.22340
C10 C 0.4542(12) 0.3395(11) 0.0231(11)
H13 H 0.44690 0.25330 0.00490
H14 H 0.37100 0.37310 0.03590
H15 H 0.49260 0.38180 -0.04140
C11 C 0.3456(10) 0.4053(9) 0.4947(9)
C12 C 0.2404(11) 0.4785(12) 0.4806(11)
H16 H 0.22500 0.51570 0.40490
C13 C 0.1630(14) 0.4932(14) 0.5770(16)
H17 H 0.08710 0.54250 0.57110
C14 C 0.1959(19) 0.4386(15) 0.6853(12)
H18 H 0.13600 0.44970 0.74700
C15 C 0.2997(15) 0.3665(16) 0.6961(13)
H19 H 0.32470 0.33250 0.77120
C16 C 0.3717(13) 0.3507(11) 0.6021(11)
H20 H 0.44580 0.29880 0.60870
C17 C 0.6176(11) 0.4743(12) 0.466(1)
C18 C 0.7609(10) 0.4684(12) 0.4945(10)
H21 H 0.79960 0.40330 0.45050
C19 C 0.7805(13) 0.4495(13) 0.6266(10)
H22 H 0.72880 0.50950 0.66540
H23 H 0.86830 0.46070 0.65020
C20 C 0.7386(16) 0.3339(18) 0.6689(15)
H24 H 0.73150 0.27210 0.60860
C21 C 0.714(3) 0.297(2) 0.7627(19)
H25 H 0.68820 0.21240 0.76960
H26 H 0.71700 0.34910 0.83100
C22 C 0.9534(11) 0.5907(18) 0.2990(11)
H27 H 1.00410 0.52870 0.33830
H28 H 0.98550 0.67090 0.31980
C23 C 0.9526(13) 0.5875(15) 0.1689(11)
C24 C 0.892(2) 0.6577(17) 0.0984(15)
H29 H 0.84810 0.72660 0.13180
C25 C 0.8898(18) 0.6482(17) -0.0259(15)
H30 H 0.82820 0.68940 -0.07590
C26 C 0.956(2) 0.563(3) -0.0761(17)
H31 H 0.99130 0.58180 -0.15100
C27 C 1.028(4) 0.495(3) -0.005(2)
H32 H 1.03380 0.41390 -0.03770
C28 C 1.016(2) 0.503(2) 0.1163(15)
H33 H 1.07130 0.45130 0.16300
#END
