
#######################################################################
#
#                 Cambridge Crystallographic Data Centre
#                                CCDC
#
#######################################################################
#
# If this CIF has been generated from an entry in the Cambridge
# Structural Database, then it will include bibliographic, chemical,
# crystal, experimental, refinement or atomic coordinate data resulting
# from the CCDC's data processing and validation procedures.
#
#######################################################################

data_CSD_CIF_DIGQAO
_audit_creation_date 2018-06-27
_audit_creation_method CSD-ConQuest-V1
_database_code_CSD DIGQAO
_database_code_depnum_ccdc_archive 'CCDC 1516113'
_chemical_formula_sum 'C22 H25 N3 O3'
_chemical_formula_moiety
;
C22 H25 N3 O3
;
_journal_coden_Cambridge 2066
_journal_volume 3
_journal_year 2018
_journal_page_first 2883
_journal_name_full 'ACS Omega '
loop_
_publ_author_name
"Lan Sheng"
"Qiaonan Chen"
"Chunyu Wang"
"Hongwei Chen"
"Ting Zhang"
"Tianyou Qin"
"Minjie Li"
"Jinyan Zhang"
"Jing Ma"
"Sean Xiao-An Zhang"
_chemical_name_systematic
;
4-(2-(9,9-dimethyl-7-nitro-2,3-dihydro[1,3]oxazolo[3,2-a]indol-9a(9H)-yl)vinyl
)-N,N-dimethylaniline
;
_cell_volume   1951.979
_exptl_crystal_colour 'colorless'
_exptl_crystal_density_diffrn 1.291
_exptl_crystal_description 'Block'
_diffrn_ambient_temperature 296
#These two values have been output from a single CSD field.
_refine_ls_R_factor_gt 0.1103
_refine_ls_wR_factor_gt 0.1103
_symmetry_cell_setting monoclinic
_symmetry_space_group_name_H-M 'P 21/c'
_symmetry_Int_Tables_number 14
loop_
_symmetry_equiv_pos_site_id
_symmetry_equiv_pos_as_xyz
1 x,y,z
2 -x,1/2+y,1/2-z
3 -x,-y,-z
4 x,-1/2-y,-1/2+z
_cell_length_a 21.333(13)
_cell_length_b 7.865(5)
_cell_length_c 11.834(8)
_cell_angle_alpha 90
_cell_angle_beta 100.552(14)
_cell_angle_gamma 90
_cell_formula_units_Z 4
loop_
_atom_type_symbol
_atom_type_radius_bond
C 0.68
H 0.23
N 0.68
O 0.68
loop_
_atom_site_label
_atom_site_type_symbol
_atom_site_fract_x
_atom_site_fract_y
_atom_site_fract_z
C1 C 0.4832(3) 0.7169(7) 0.9511(5)
C2 C 0.4826(3) 0.6419(7) 0.8436(5)
H1 H 0.51940 0.64050 0.81210
C3 C 0.4288(3) 0.5722(8) 0.7865(5)
H2 H 0.42810 0.52200 0.71510
C4 C 0.3736(3) 0.5754(7) 0.8353(5)
C5 C 0.3743(3) 0.6437(6) 0.9434(5)
C6 C 0.4302(3) 0.7160(7) 1.0036(5)
H3 H 0.43190 0.76200 1.07650
C7 C 0.3045(3) 0.3625(8) 0.7248(6)
H4 H 0.34390 0.33070 0.70060
H5 H 0.27050 0.36530 0.65820
C8 C 0.2887(3) 0.2386(7) 0.8163(6)
H6 H 0.24870 0.18100 0.78830
H7 H 0.32200 0.15380 0.83480
C9 C 0.2746(2) 0.5116(6) 0.8776(4)
C10 C 0.3093(2) 0.6305(7) 0.9748(5)
C11 C 0.2802(3) 0.8123(8) 0.9638(6)
H8 H 0.30870 0.88960 1.01040
H9 H 0.24000 0.81150 0.98920
H10 H 0.27390 0.84810 0.88500
C12 C 0.3091(3) 0.5641(9) 1.0952(5)
H11 H 0.33030 0.45590 1.10480
H12 H 0.26590 0.55120 1.10640
H13 H 0.33100 0.64310 1.15060
C13 C 0.2049(2) 0.5404(7) 0.8389(5)
H14 H 0.17800 0.49880 0.88590
C14 C 0.1777(3) 0.6201(7) 0.7432(5)
H15 H 0.20500 0.66610 0.69820
C15 C 0.1091(2) 0.6427(6) 0.7013(5)
C16 C 0.0882(3) 0.7342(7) 0.5995(5)
H16 H 0.11830 0.78520 0.56270
C17 C 0.0245(3) 0.7506(7) 0.5527(5)
H17 H 0.01240 0.81260 0.48530
C18 C -0.0223(3) 0.6754(7) 0.6050(5)
C19 C -0.0021(3) 0.5849(8) 0.7061(5)
H18 H -0.03200 0.53550 0.74410
C20 C 0.0620(3) 0.5683(8) 0.7502(5)
H19 H 0.07410 0.50360 0.81640
C21 C -0.1329(3) 0.5912(10) 0.6022(7)
H20 H -0.12790 0.47440 0.58180
H21 H -0.17500 0.62910 0.56930
H22 H -0.12650 0.60150 0.68430
C22 C -0.1065(3) 0.7699(9) 0.4483(6)
H23 H -0.09300 0.88650 0.45160
H24 H -0.15210 0.76460 0.42660
H25 H -0.08730 0.71010 0.39260
N1 N 0.5408(2) 0.8012(7) 1.0094(5)
N2 N 0.3109(2) 0.5259(6) 0.7832(4)
N3 N -0.0872(2) 0.6926(7) 0.5593(5)
O1 O 0.5864(2) 0.8165(7) 0.9614(4)
O2 O 0.5421(2) 0.8586(7) 1.1074(4)
O3 O 0.28418(18) 0.3372(4) 0.9148(4)
#END
