
#######################################################################
#
#                 Cambridge Crystallographic Data Centre
#                                CCDC
#
#######################################################################
#
# If this CIF has been generated from an entry in the Cambridge
# Structural Database, then it will include bibliographic, chemical,
# crystal, experimental, refinement or atomic coordinate data resulting
# from the CCDC's data processing and validation procedures.
#
#######################################################################

data_CSD_CIF_DIGYAU
_audit_creation_date 2007-11-02
_audit_creation_method CSD-ConQuest-V1
_database_code_CSD DIGYAU
_database_code_depnum_ccdc_archive 'CCDC 656451'
_chemical_formula_sum 'C22 H26 N2 O5'
_chemical_formula_moiety
;
C22 H26 N2 O5
;
_journal_coden_Cambridge 392
_journal_volume 70
_journal_year 2006
_journal_page_first 423
_journal_name_full 'Heterocycles '
loop_
_publ_author_name
"Jiashi Wang"
"J.J.Swidorski"
"N.Sydorenko"
"R.P.Hsung"
"H.A.Coverdale"
"J.M.Kuyava"
"Jia Liu"
_chemical_name_systematic
;
(6-Acetyl-2,3,7,7a,8,9,10,11-octahydro-1H-pyrrolo[2,1-j]quinolin-3-yl)methyl 
4-nitrobenzoate
;
_cell_volume   1980.207
_exptl_crystal_colour 'orange'
_exptl_crystal_density_diffrn 1.337
_exptl_crystal_description 'Block'
_diffrn_ambient_temperature 173
#These two values have been output from a single CSD field.
_refine_ls_R_factor_gt 0.056
_refine_ls_wR_factor_gt 0.056
_symmetry_cell_setting monoclinic
_symmetry_space_group_name_H-M 'P 21/n'
_symmetry_Int_Tables_number 14
loop_
_symmetry_equiv_pos_site_id
_symmetry_equiv_pos_as_xyz
1 x,y,z
2 1/2-x,1/2+y,1/2-z
3 -x,-y,-z
4 -1/2+x,-1/2-y,-1/2+z
_cell_length_a 13.722(4)
_cell_length_b 8.222(3)
_cell_length_c 17.994(6)
_cell_angle_alpha 90
_cell_angle_beta 102.732(6)
_cell_angle_gamma 90
_cell_formula_units_Z 4
loop_
_atom_type_symbol
_atom_type_radius_bond
C 0.68
H 0.23
N 0.68
O 0.68
loop_
_atom_site_label
_atom_site_type_symbol
_atom_site_fract_x
_atom_site_fract_y
_atom_site_fract_z
O1 O 0.28361(11) 0.50154(18) 0.35480(8)
O2 O 0.22671(11) 0.2809(2) 0.01512(8)
O3 O 0.17869(13) 0.4330(2) -0.08976(9)
O4 O -0.25523(12) 0.1212(3) 0.02839(11)
O5 O -0.30732(12) 0.3002(2) -0.05822(11)
N1 N 0.40718(13) 0.3146(2) 0.14631(10)
N2 N -0.24091(14) 0.2230(3) -0.01688(11)
C1 C 0.16342(16) 0.3776(3) 0.25819(13)
H1 H 0.11980 0.40640 0.29260
H2 H 0.16280 0.25940 0.25110
H3 H 0.13930 0.43090 0.20890
C2 C 0.26853(15) 0.4330(2) 0.29213(11)
C3 C 0.34864(14) 0.4069(3) 0.25424(11)
C4 C 0.33469(15) 0.3331(3) 0.18444(12)
H4 H 0.27000 0.29290 0.16190
C5 C 0.45147(15) 0.4577(3) 0.29438(12)
H5 H 0.46000 0.43760 0.34970
H6 H 0.45940 0.57580 0.28690
C6 C 0.53257(17) 0.3656(3) 0.26518(13)
H7 H 0.53110 0.24930 0.28110
C7 C 0.63802(19) 0.4338(4) 0.29832(15)
H8 H 0.65050 0.43290 0.35470
H9 H 0.68830 0.36240 0.28300
C8 C 0.6503(2) 0.6036(5) 0.27166(16)
H10 H 0.71990 0.63970 0.29200
H11 H 0.60550 0.67720 0.29210
C9 C 0.6267(2) 0.6165(5) 0.18535(17)
H12 H 0.67850 0.55820 0.16520
H13 H 0.62810 0.73230 0.17050
C10 C 0.52420(18) 0.5445(4) 0.15031(14)
H14 H 0.47200 0.61490 0.16350
H15 H 0.51460 0.54460 0.09410
C11 C 0.51058(15) 0.3716(3) 0.17698(12)
C12 C 0.5700(2) 0.2456(4) 0.14367(16)
H16 H 0.58140 0.14670 0.17580
H17 H 0.63540 0.29010 0.13880
C13 C 0.50328(19) 0.2080(4) 0.06483(15)
H18 H 0.51400 0.28890 0.02670
H19 H 0.51780 0.09820 0.04740
C14 C 0.39566(17) 0.2172(3) 0.07636(13)
H20 H 0.37060 0.10590 0.08460
C15 C 0.32941(16) 0.2955(3) 0.00807(13)
H21 H 0.34740 0.41170 0.00530
H22 H 0.33810 0.24110 -0.03910
C16 C 0.15836(16) 0.3507(3) -0.04015(12)
C17 C 0.05544(16) 0.3142(3) -0.03230(11)
C18 C 0.03606(16) 0.2125(3) 0.02432(12)
H23 H 0.08970 0.16330 0.05960
C19 C -0.06132(16) 0.1832(3) 0.02918(12)
H24 H -0.07550 0.11410 0.06780
C20 C -0.13770(15) 0.2555(3) -0.02284(12)
C21 C -0.12047(17) 0.3569(3) -0.07957(12)
H25 H -0.17450 0.40550 -0.11470
C22 C -0.02318(17) 0.3863(3) -0.08413(12)
H26 H -0.00960 0.45600 -0.12270
H27? H 0.16140 0.32470 0.20910
H28? H 0.11850 0.47170 0.25060
H29? H 0.14200 0.30020 0.29280
#END
