
#######################################################################
#
#                 Cambridge Crystallographic Data Centre
#                                CCDC
#
#######################################################################
#
# If this CIF has been generated from an entry in the Cambridge
# Structural Database, then it will include bibliographic, chemical,
# crystal, experimental, refinement or atomic coordinate data resulting
# from the CCDC's data processing and validation procedures.
#
#######################################################################

data_CSD_CIF_DIHWEZ
_audit_creation_date 2018-06-27
_audit_creation_method CSD-ConQuest-V1
_database_code_CSD DIHWEZ
_database_code_depnum_ccdc_archive 'CCDC 1818522'
_chemical_formula_sum 'C26 H17 N3 O5'
_chemical_formula_moiety
;
C26 H17 N3 O5
;
_journal_coden_Cambridge 2066
_journal_volume 3
_journal_year 2018
_journal_page_first 5445
_journal_name_full 'ACS Omega '
loop_
_publ_author_name
"N.Mupparapu"
"Shahnawaz Khan"
"P.Bandhoria"
"S.Athimoolam"
"Q.N.Ahmed"
_chemical_name_systematic
;
(Z)-2-(4-Cyano-2-(4-nitrophenyl)-5-phenylfuran-3-yl)-3-hydroxy-3-phenylacrylam
ide
;
_chemical_melting_point 501.15
_cell_volume   4545.633
_exptl_crystal_colour 'colorless'
_exptl_crystal_density_diffrn 1.319
_exptl_special_details
;
Melting point range 501.15-504.15K

;
_exptl_crystal_description 'block'
_diffrn_ambient_temperature 293
_refine_special_details
;
O3 and O3' disordered over two sites with occupancies 0.5:0.5.

;
#These two values have been output from a single CSD field.
_refine_ls_R_factor_gt 0.0546
_refine_ls_wR_factor_gt 0.0546
_symmetry_cell_setting orthorhombic
_symmetry_space_group_name_H-M 'P b c a'
_symmetry_Int_Tables_number 61
loop_
_symmetry_equiv_pos_site_id
_symmetry_equiv_pos_as_xyz
1 x,y,z
2 1/2+x,1/2-y,-z
3 -x,1/2+y,1/2-z
4 1/2-x,-y,1/2+z
5 -x,-y,-z
6 -1/2-x,-1/2+y,z
7 x,-1/2-y,-1/2+z
8 -1/2+x,y,-1/2-z
_cell_length_a 13.19(5)
_cell_length_b 16.96(6)
_cell_length_c 20.32(7)
_cell_angle_alpha 90
_cell_angle_beta 90
_cell_angle_gamma 90
_cell_formula_units_Z 8
loop_
_atom_type_symbol
_atom_type_radius_bond
C 0.68
H 0.23
N 0.68
O 0.68
loop_
_atom_site_label
_atom_site_type_symbol
_atom_site_fract_x
_atom_site_fract_y
_atom_site_fract_z
O1 O 0.44921(12) 0.75843(9) 0.69793(7)
O2 O 0.0280(2) 0.56012(18) 0.79750(12)
O3 O 0.44934(15) 0.5853(1) 0.45815(8)
O4 O 0.38549(15) 0.70919(12) 0.41180(7)
N1 N 0.6474(2) 0.82849(17) 0.51492(12)
N2 N 0.48134(19) 0.57325(12) 0.56499(10)
H1 H 0.50010 0.52520 0.55930
H2 H 0.48250 0.59360 0.60370
C1 C 0.2837(3) 0.97572(19) 0.46818(17)
H3 H 0.26140 1.02770 0.46710
C2 C 0.3472(3) 0.9477(2) 0.42048(19)
H4 H 0.36710 0.98060 0.38630
C3 C 0.3818(3) 0.87127(18) 0.42259(15)
H5 H 0.42440 0.85270 0.38960
C4 C 0.35371(19) 0.82210(14) 0.47348(10)
C5 C 0.38796(18) 0.73971(14) 0.47221(10)
C6 C 0.41941(18) 0.69684(13) 0.52493(10)
C7 C 0.43949(17) 0.73238(12) 0.5902(1)
C8 C 0.39447(17) 0.72069(13) 0.6498(1)
C9 C 0.30573(18) 0.67879(13) 0.67304(10)
C10 C 0.2401(2) 0.64347(15) 0.62893(11)
H6 H 0.25300 0.64660 0.58400
C11 C 0.15623(19) 0.60382(16) 0.65095(12)
H7 H 0.11230 0.57980 0.62130
C12 C 0.13803(19) 0.59999(14) 0.71699(12)
N3 N 0.04875(19) 0.55780(16) 0.74024(13)
C13 C 0.2887(2) 0.85058(16) 0.51974(13)
H8 H 0.26750 0.81790 0.55380
C14 C 0.2538(3) 0.92695(18) 0.51680(15)
H9 H 0.20910 0.94510 0.54880
C15 C 0.52624(17) 0.78031(13) 0.60367(10)
C16 C 0.53017(18) 0.79420(13) 0.66970(11)
C17 C 0.2010(2) 0.63450(16) 0.76175(12)
H10 H 0.18720 0.63110 0.80650
C18 C 0.2846(2) 0.67402(16) 0.73997(11)
H11 H 0.32770 0.69800 0.77010
C19 C 0.59962(19) 0.83352(13) 0.71376(11)
C20 C 0.5767(2) 0.84074(18) 0.77986(12)
H12 H 0.51530 0.82150 0.79570
C21 C 0.6435(3) 0.8760(2) 0.82226(15)
H13 H 0.62700 0.88100 0.86660
C22 C 0.7344(3) 0.9038(2) 0.79968(15)
H14 H 0.78000 0.92730 0.82850
C23 C 0.7576(3) 0.89684(19) 0.73479(16)
H15 H 0.81930 0.91580 0.71940
C24 C 0.6908(2) 0.86210(17) 0.69168(13)
H16 H 0.70740 0.85800 0.64730
C25 C 0.5945(2) 0.80718(15) 0.55509(12)
C26 C 0.45089(19) 0.61552(14) 0.51461(11)
O5 O -0.0113(16) 0.5332(12) 0.7005(13)
H17 H 0.407(3) 0.654(2) 0.4207(16)
O6? O 0.0150(16) 0.5052(12) 0.7028(13)
#END
