
#######################################################################
#
#                 Cambridge Crystallographic Data Centre
#                                CCDC
#
#######################################################################
#
# If this CIF has been generated from an entry in the Cambridge
# Structural Database, then it will include bibliographic, chemical,
# crystal, experimental, refinement or atomic coordinate data resulting
# from the CCDC's data processing and validation procedures.
#
#######################################################################

data_CSD_CIF_DIJNAM
_audit_creation_date 2007-11-02
_audit_creation_method CSD-ConQuest-V1
_database_code_CSD DIJNAM
_database_code_depnum_ccdc_archive 'CCDC 638260'
_chemical_formula_sum 'C18 H17 N1 O4'
_chemical_formula_moiety
;
C18 H17 N1 O4
;
_journal_coden_Cambridge 35
_journal_volume 72
_journal_year 2007
_journal_page_first 5418
_journal_name_full 'J.Org.Chem. '
loop_
_publ_author_name
"M.Pohmakotr"
"S.Thamapipol"
"P.Tuchinda"
"S.Prabpai"
"P.Kongsaeree"
"V.Reutrakul"
_chemical_name_systematic
;
endo-2'-Oxo-3'-(4-nitrophenyl(hydroxy)methyl)cyclopent-3'-ene-1'-spiro-6-bicyc
lo[2.2.1]hept-2-ene
;
_chemical_melting_point 377.15
_cell_volume   1542.450
_exptl_crystal_colour 'colorless'
_exptl_crystal_density_diffrn 1.341
_exptl_special_details
;
Melting point range 377.15-379.15K

;
_exptl_crystal_description 'prism'
_diffrn_ambient_temperature 298
#These two values have been output from a single CSD field.
_refine_ls_R_factor_gt 0.0531
_refine_ls_wR_factor_gt 0.0531
loop_
_citation_database_id_CSD
_citation_special_details
NIFJES "is a stereoisomer of this entry"
_symmetry_cell_setting monoclinic
_symmetry_space_group_name_H-M 'P 21/c'
_symmetry_Int_Tables_number 14
loop_
_symmetry_equiv_pos_site_id
_symmetry_equiv_pos_as_xyz
1 x,y,z
2 -x,1/2+y,1/2-z
3 -x,-y,-z
4 x,-1/2-y,-1/2+z
_cell_length_a 13.1375(7)
_cell_length_b 6.3757(2)
_cell_length_c 21.8859(10)
_cell_angle_alpha 90
_cell_angle_beta 122.711(2)
_cell_angle_gamma 90
_cell_formula_units_Z 4
loop_
_atom_type_symbol
_atom_type_radius_bond
C 0.68
H 0.23
N 0.68
O 0.68
loop_
_atom_site_label
_atom_site_type_symbol
_atom_site_fract_x
_atom_site_fract_y
_atom_site_fract_z
O1 O 1.08120(14) -0.0328(2) 0.33846(8)
C1 C 0.78109(17) 0.2409(3) 0.2401(1)
O2 O 0.79259(12) 0.4236(2) 0.22789(8)
C2 C 1.01080(17) 0.1521(3) 0.32016(10)
C3 C 1.05830(16) 0.2839(3) 0.38817(9)
C4 C 1.15353(17) 0.5118(3) 0.51416(10)
C5 C 1.14497(19) 0.6045(3) 0.45481(11)
C6 C 1.09690(18) 0.4879(3) 0.39176(10)
C7 C 1.11674(18) 0.3092(3) 0.51306(10)
C8 C 0.88007(17) 0.0954(3) 0.28599(10)
C9 C 1.06875(18) 0.1957(3) 0.44958(10)
N1 N 1.20505(17) 0.6336(3) 0.58174(10)
C10 C 0.8334(2) -0.0835(3) 0.29172(12)
O3 O 1.22075(19) 0.5458(3) 0.63545(9)
C11 C 0.66173(18) 0.1253(3) 0.20805(11)
C12 C 0.6063(2) 0.0752(4) 0.12507(12)
C13 C 0.6993(2) -0.0796(3) 0.25241(13)
C14 C 0.55775(19) 0.2521(4) 0.20371(13)
O4 O 1.22899(19) 0.8174(3) 0.58103(10)
C15 C 0.4567(2) 0.2487(5) 0.12227(16)
C16 C 0.5894(3) 0.2783(5) 0.08608(13)
C17 C 0.4752(2) 0.0306(5) 0.10186(16)
C18 C 0.5004(3) 0.3811(6) 0.08401(16)
H1 H 1.13420 -0.02480 0.31740
H2 H 1.01820 0.23140 0.28550
H3 H 1.17140 0.74690 0.45820
H4 H 1.09090 0.55010 0.35000
H5 H 1.12420 0.25130 0.55580
H6 H 1.04220 0.05420 0.44760
H7 H 0.88610 -0.19850 0.31840
H8 H 0.65060 -0.02100 0.11420
H9 H 0.66560 -0.20130 0.22200
H10 H 0.67640 -0.07790 0.28730
H11 H 0.53430 0.18500 0.23350
H12 H 0.58530 0.39190 0.22120
H13 H 0.37410 0.26240 0.10860
H14 H 0.63950 0.31100 0.06780
H15 H 0.42830 -0.00670 0.05140
H16 H 0.47550 -0.08410 0.13030
H17 H 0.46330 0.51470 0.06430
#END
