
#######################################################################
#
#                 Cambridge Crystallographic Data Centre
#                                CCDC
#
#######################################################################
#
# If this CIF has been generated from an entry in the Cambridge
# Structural Database, then it will include bibliographic, chemical,
# crystal, experimental, refinement or atomic coordinate data resulting
# from the CCDC's data processing and validation procedures.
#
#######################################################################

data_CSD_CIF_DIJPAO
_audit_creation_date 2007-11-02
_audit_creation_method CSD-ConQuest-V1
_database_code_CSD DIJPAO
_database_code_depnum_ccdc_archive 'CCDC 617285'
_chemical_formula_sum 'C16 H18 N2 O4'
_chemical_formula_moiety
;
C16 H18 N2 O4
;
_journal_coden_Cambridge 35
_journal_volume 72
_journal_year 2007
_journal_page_first 5270
_journal_name_full 'J.Org.Chem. '
loop_
_publ_author_name
"F.F.Fleming"
"Guoqing Wei"
"Zhiyu Zhang"
"O.W.Steward"
_chemical_name_systematic
;
(1R*,2S*,3S*)-3-Cyano-1,2,3-trimethylcyclopentyl 4-nitrobenzoate
;
_chemical_melting_point 394
_cell_volume   1580.716
_exptl_crystal_colour 'colorless'
_exptl_crystal_density_diffrn 1.27
_exptl_special_details
;
Melting point range 394-395K

;
_exptl_crystal_description 'plate'
_exptl_crystal_preparation 'acetone/benzene/hexanes'
_diffrn_ambient_temperature 296
#These two values have been output from a single CSD field.
_refine_ls_R_factor_gt 0.0439
_refine_ls_wR_factor_gt 0.0439
_symmetry_cell_setting monoclinic
_symmetry_space_group_name_H-M 'P 21/c'
_symmetry_Int_Tables_number 14
loop_
_symmetry_equiv_pos_site_id
_symmetry_equiv_pos_as_xyz
1 x,y,z
2 -x,1/2+y,1/2-z
3 -x,-y,-z
4 x,-1/2-y,-1/2+z
_cell_length_a 6.9492(4)
_cell_length_b 19.5923(12)
_cell_length_c 11.7429(7)
_cell_angle_alpha 90
_cell_angle_beta 98.627(4)
_cell_angle_gamma 90
_cell_formula_units_Z 4
loop_
_atom_type_symbol
_atom_type_radius_bond
C 0.68
H 0.23
N 0.68
O 0.68
loop_
_atom_site_label
_atom_site_type_symbol
_atom_site_fract_x
_atom_site_fract_y
_atom_site_fract_z
C1 C 0.4321(4) 0.60233(12) 0.3267(2)
C2 C 0.3037(4) 0.61436(11) 0.4210(2)
H1 H 0.38350 0.60150 0.49390
C3 C 0.2753(4) 0.69209(12) 0.4270(2)
C4 C 0.4726(4) 0.71852(15) 0.4054(3)
H2 H 0.46080 0.76460 0.37480
H3 H 0.56400 0.71890 0.47650
C5 C 0.5405(4) 0.67050(15) 0.3196(3)
H4 H 0.67990 0.66350 0.33760
H5 H 0.51160 0.68930 0.24250
C6 C 0.5602(4) 0.53958(14) 0.3507(2)
H6 H 0.47990 0.50000 0.35430
H7 H 0.64420 0.54510 0.42280
H8 H 0.63760 0.53390 0.29010
C7 C 0.1198(4) 0.57189(13) 0.4131(2)
H9 H 0.03150 0.58490 0.34570
H10 H 0.05950 0.57940 0.48040
H11 H 0.15200 0.52440 0.40810
C8 C 0.1221(5) 0.71551(14) 0.3349(3)
C9 C 0.2181(5) 0.71498(16) 0.5433(3)
H12 H 0.21330 0.76390 0.54600
H13 H 0.31300 0.69860 0.60520
H14 H 0.09260 0.69670 0.55110
C10 C 0.3532(4) 0.58632(13) 0.1171(2)
C11 C 0.1892(4) 0.58753(12) 0.0202(2)
C12 C 0.2327(4) 0.57941(14) -0.0911(2)
H15 H 0.35920 0.56880 -0.10180
C13 C 0.0912(4) 0.58695(13) -0.1850(2)
H16 H 0.12060 0.58150 -0.25910
C14 C -0.0946(4) 0.60268(11) -0.1676(2)
C15 C -0.1439(4) 0.60913(13) -0.0588(2)
H17 H -0.27150 0.61850 -0.04880
C16 C -0.0004(4) 0.60137(12) 0.0350(2)
H18 H -0.03150 0.60550 0.10900
N1 N 0.0008(4) 0.73476(13) 0.2660(2)
N2 N -0.2440(4) 0.61455(11) -0.2676(2)
O1 O 0.2925(2) 0.59233(9) 0.21988(14)
O2 O 0.5232(3) 0.58276(12) 0.10483(16)
O3 O -0.4095(3) 0.62848(12) -0.25100(17)
O4 O -0.1993(3) 0.60951(10) -0.36443(17)
#END
