
#######################################################################
#
#                 Cambridge Crystallographic Data Centre
#                                CCDC
#
#######################################################################
#
# If this CIF has been generated from an entry in the Cambridge
# Structural Database, then it will include bibliographic, chemical,
# crystal, experimental, refinement or atomic coordinate data resulting
# from the CCDC's data processing and validation procedures.
#
#######################################################################

data_CSD_CIF_DIJSIA
_audit_creation_date 2013-11-07
_audit_creation_method CSD-ConQuest-V1
_database_code_CSD DIJSIA
_database_code_depnum_ccdc_archive 'CCDC 789626'
_chemical_formula_sum 'C17 H15 N1 O6'
_chemical_formula_moiety
;
C17 H15 N1 O6
;
_journal_coden_Cambridge 920
_journal_volume 9
_journal_year 2014
_journal_page_first 117
_journal_name_full 'Chem.Asian J. '
loop_
_publ_author_name
"Xin Guo"
"Wei Liu"
"Wenhao Hu"
_chemical_name_systematic
;
3-(Hydroxy(4-nitrophenyl)methyl)-3-phenyl-1,4-dioxan-2-one
;
_cell_volume    752.387
_exptl_crystal_density_diffrn 1.454
_diffrn_ambient_temperature 296
#These two values have been output from a single CSD field.
_refine_ls_R_factor_gt 0.0375
_refine_ls_wR_factor_gt 0.0375
_symmetry_cell_setting monoclinic
_symmetry_space_group_name_H-M 'P 21'
_symmetry_Int_Tables_number 4
loop_
_symmetry_equiv_pos_site_id
_symmetry_equiv_pos_as_xyz
1 x,y,z
2 -x,1/2+y,-z
_cell_length_a 7.759(2)
_cell_length_b 11.010(2)
_cell_length_c 9.470(2)
_cell_angle_alpha 90
_cell_angle_beta 111.56(2)
_cell_angle_gamma 90
_cell_formula_units_Z 2
loop_
_atom_type_symbol
_atom_type_radius_bond
C 0.68
H 0.23
N 0.68
O 0.68
loop_
_atom_site_label
_atom_site_type_symbol
_atom_site_fract_x
_atom_site_fract_y
_atom_site_fract_z
O1 O 0.6362(2) 0.31108(14) 0.40927(19)
O2 O 0.9465(2) 0.45998(19) 0.4816(2)
O3 O 0.7768(3) 0.61660(18) 0.3789(2)
O4 O 0.3322(2) 0.4176(2) 0.4321(2)
H1 H 0.24900 0.43970 0.35390
O5 O 0.9836(3) 0.3835(3) 1.1521(2)
O6 O 1.0388(4) 0.5739(3) 1.1443(3)
N1 N 0.9603(3) 0.4803(3) 1.0852(3)
C1 C 0.4216(4) 0.3412(3) 0.1097(3)
H2 H 0.44470 0.26600 0.15760
C2 C 0.3153(4) 0.3478(3) -0.0449(3)
H3 H 0.26730 0.27730 -0.09910
C3 C 0.2815(4) 0.4574(3) -0.1169(3)
H4 H 0.21250 0.46200 -0.22040
C4 C 0.3500(5) 0.5599(3) -0.0356(3)
H5 H 0.32600 0.63500 -0.08390
C5 C 0.4549(4) 0.5539(3) 0.1180(3)
H6 H 0.50050 0.62500 0.17170
C6 C 0.4926(3) 0.4439(2) 0.1923(2)
C7 C 0.6051(3) 0.4348(2) 0.3640(2)
C8 C 0.7826(4) 0.5099(2) 0.4066(3)
C9 C 0.9618(4) 0.3317(3) 0.5146(4)
H7 H 0.96390 0.31850 0.61650
H8 H 1.07730 0.30140 0.51060
C10 C 0.8055(4) 0.2646(3) 0.4051(4)
H9 H 0.80720 0.27340 0.30370
H10 H 0.81630 0.17890 0.43070
C11 C 0.4913(3) 0.4889(3) 0.4563(2)
H11 H 0.45420 0.57230 0.42280
C12 C 0.6075(3) 0.4885(2) 0.6248(3)
C13 C 0.6194(4) 0.3852(3) 0.7107(3)
H12 H 0.54930 0.31710 0.66680
C14 C 0.7361(4) 0.3829(3) 0.8628(3)
H13 H 0.74580 0.31340 0.92100
C15 C 0.8355(3) 0.4841(3) 0.9249(3)
C16 C 0.8242(4) 0.5893(3) 0.8442(3)
H14 H 0.89260 0.65750 0.89000
C17 C 0.7079(4) 0.5910(3) 0.6924(3)
H15 H 0.69710 0.66150 0.63560
#END
