
#######################################################################
#
#                 Cambridge Crystallographic Data Centre
#                                CCDC
#
#######################################################################
#
# If this CIF has been generated from an entry in the Cambridge
# Structural Database, then it will include bibliographic, chemical,
# crystal, experimental, refinement or atomic coordinate data resulting
# from the CCDC's data processing and validation procedures.
#
#######################################################################

data_CSD_CIF_DIKSIA
_audit_creation_date 2007-11-02
_audit_creation_method CSD-ConQuest-V1
_database_code_CSD DIKSIA
_database_code_depnum_ccdc_archive 'CCDC 661800'
_chemical_formula_sum 'C17 H14 N4 O4'
_chemical_formula_moiety
;
C17 H14 N4 O4
;
_journal_coeditor_code "IUCr SK3149"
_journal_coden_Cambridge 591
_journal_volume 63
_journal_year 2007
_journal_page_first o510
_journal_name_full 'Acta Crystallogr.,Sect.C:Cryst.Struct.Commun. '
loop_
_publ_author_name
"J.Portilla"
"E.G.Mata"
"J.Cobo"
"J.N.Low"
"C.Glidewell"
_chemical_name_systematic
;
Methyl 4-(5-amino-3-phenyl-1H-pyrazol-1-yl)-3-nitrobenzoate
;
_chemical_melting_point 476
_cell_volume   1565.895
_exptl_crystal_colour 'yellow'
_exptl_crystal_density_diffrn 1.435
_exptl_special_details
;
Melting point range 476-477K

;
_exptl_crystal_description 'block'
_diffrn_ambient_temperature 120
#These two values have been output from a single CSD field.
_refine_ls_R_factor_gt 0.0564
_refine_ls_wR_factor_gt 0.0564
_symmetry_cell_setting monoclinic
_symmetry_space_group_name_H-M 'P 21/n'
_symmetry_Int_Tables_number 14
loop_
_symmetry_equiv_pos_site_id
_symmetry_equiv_pos_as_xyz
1 x,y,z
2 1/2-x,1/2+y,1/2-z
3 -x,-y,-z
4 -1/2+x,-1/2-y,-1/2+z
_cell_length_a 12.3516(8)
_cell_length_b 7.5202(4)
_cell_length_c 17.1564(13)
_cell_angle_alpha 90
_cell_angle_beta 100.699(5)
_cell_angle_gamma 90
_cell_formula_units_Z 4
loop_
_atom_type_symbol
_atom_type_radius_bond
C 0.68
H 0.23
N 0.68
O 0.68
loop_
_atom_site_label
_atom_site_type_symbol
_atom_site_fract_x
_atom_site_fract_y
_atom_site_fract_z
N1 N 0.70074(15) 0.6050(3) 0.23515(10)
C1 C 0.72777(18) 0.5683(3) 0.31736(13)
C2 C 0.65260(17) 0.4875(3) 0.35802(13)
N2 N 0.54487(16) 0.4217(3) 0.31786(12)
O1 O 0.53573(13) 0.3643(2) 0.2499(1)
O2 O 0.46921(14) 0.4242(3) 0.35533(11)
C3 C 0.67791(19) 0.4603(3) 0.43961(13)
C4 C 0.81336(19) 0.4758(3) 0.56763(13)
O3 O 0.90419(14) 0.5090(2) 0.60530(9)
O4 O 0.73193(14) 0.4072(2) 0.59859(9)
C5 C 0.7569(2) 0.3743(4) 0.68303(14)
C6 C 0.78084(18) 0.5075(3) 0.48066(13)
C7 C 0.85666(18) 0.5852(3) 0.44046(13)
C8 C 0.83036(18) 0.6158(3) 0.35967(13)
N3 N 0.75934(15) 0.5266(2) 0.18323(11)
C9 C 0.70062(18) 0.5674(3) 0.11141(13)
C10 C 0.73660(19) 0.5066(3) 0.03907(13)
C11 C 0.8428(2) 0.4419(3) 0.04009(14)
C12 C 0.8727(2) 0.3790(4) -0.02855(14)
C13 C 0.7980(2) 0.3806(3) -0.09988(14)
C14 C 0.6933(2) 0.4464(3) -0.10232(14)
C15 C 0.6626(2) 0.5094(3) -0.03337(13)
C16 C 0.60744(18) 0.6703(3) 0.11715(13)
C17 C 0.61022(18) 0.6951(3) 0.19633(13)
N4 N 0.54292(16) 0.7858(3) 0.23935(11)
H1 H 0.62490 0.40980 0.46680
H2 H 0.82290 0.29960 0.69560
H3 H 0.69470 0.31320 0.69930
H4 H 0.77020 0.48760 0.71140
H5 H 0.92740 0.61770 0.46890
H6 H 0.88290 0.66960 0.33310
H7 H 0.89490 0.44100 0.08840
H8 H 0.94500 0.33430 -0.02700
H9 H 0.81900 0.33650 -0.14680
H10 H 0.64220 0.44880 -0.15110
H11 H 0.59030 0.55490 -0.03550
H12 H 0.55350 0.71380 0.07460
H13 H 0.58340 0.85800 0.27210
H14 H 0.49260 0.84380 0.20690
#END
