
#######################################################################
#
#                 Cambridge Crystallographic Data Centre
#                                CCDC
#
#######################################################################
#
# If this CIF has been generated from an entry in the Cambridge
# Structural Database, then it will include bibliographic, chemical,
# crystal, experimental, refinement or atomic coordinate data resulting
# from the CCDC's data processing and validation procedures.
#
#######################################################################

data_CSD_CIF_DINFOV01
_audit_creation_date 2003-10-08
_audit_creation_method CSD-ConQuest-V1
_database_code_CSD DINFOV01
_database_code_depnum_ccdc_archive 'CCDC 188019'
_chemical_formula_sum 'C7 H3 N3 O4'
_chemical_formula_moiety
;
C7 H3 N3 O4
;
_journal_coden_Cambridge 24
_journal_volume 44
_journal_year 2003
_journal_page_first 4857
_journal_name_full 'Tetrahedron Lett. '
loop_
_publ_author_name
"V.R.Pedireddi"
"J.PrakashaReddy"
"K.K.Arora"
_chemical_name_systematic
;
3,5-Dinitrobenzonitrile
;
_cell_volume    815.132
_exptl_crystal_colour 'colorless'
_exptl_crystal_density_diffrn 1.574
_exptl_crystal_description 'needle'
_diffrn_ambient_temperature 293
_refine_special_details
;
One of the nitro groups has an O atom disordered over two positions with 
occupancy 0.35:0.65.
;
#These two values have been output from a single CSD field.
_refine_ls_R_factor_gt 0.042
_refine_ls_wR_factor_gt 0.042
_symmetry_cell_setting monoclinic
_symmetry_space_group_name_H-M 'P 21/n'
_symmetry_Int_Tables_number 14
loop_
_symmetry_equiv_pos_site_id
_symmetry_equiv_pos_as_xyz
1 x,y,z
2 1/2+x,1/2-y,1/2+z
3 -x,-y,-z
4 -1/2-x,-1/2+y,-1/2-z
_cell_length_a 5.803(1)
_cell_length_b 9.371(2)
_cell_length_c 15.026(3)
_cell_angle_alpha 90
_cell_angle_beta 93.99(3)
_cell_angle_gamma 90
_cell_formula_units_Z 4
loop_
_atom_type_symbol
_atom_type_radius_bond
C 0.68
H 0.23
N 0.68
O 0.68
loop_
_atom_site_label
_atom_site_type_symbol
_atom_site_fract_x
_atom_site_fract_y
_atom_site_fract_z
C1 C -0.1469(3) 0.80635(17) 0.06454(11)
C2 C 0.0399(3) 0.71523(19) 0.06279(12)
C3 C 0.1161(3) 0.64775(16) 0.14082(10)
C4 C 0.0136(3) 0.66774(16) 0.21969(11)
C5 C -0.1762(3) 0.75455(15) 0.21716(10)
C6 C -0.2589(3) 0.82574(18) 0.14170(11)
C7 C -0.2205(3) 0.8867(2) -0.01409(12)
N1 N 0.3138(3) 0.55115(18) 0.14043(12)
N2 N -0.2968(3) 0.77179(15) 0.29963(10)
N3 N -0.2757(3) 0.9543(2) -0.07439(12)
O1? O 0.422(4) 0.549(4) 0.0793(7)
O2 O 0.4196(2) 0.52402(16) 0.21053(11)
O3 O -0.2241(3) 0.70752(19) 0.36556(9)
O4 O -0.4682(3) 0.84661(16) 0.29668(10)
H1 H 0.068(3) 0.6207(19) 0.2667(12)
H2 H -0.377(3) 0.8813(18) 0.1402(11)
H3 H 0.115(3) 0.7018(19) 0.0151(14)
O5 O 0.331(3) 0.4823(14) 0.0650(6)
#END
