
#######################################################################
#
#                 Cambridge Crystallographic Data Centre
#                                CCDC
#
#######################################################################
#
# If this CIF has been generated from an entry in the Cambridge
# Structural Database, then it will include bibliographic, chemical,
# crystal, experimental, refinement or atomic coordinate data resulting
# from the CCDC's data processing and validation procedures.
#
#######################################################################

data_CSD_CIF_DIPGEQ
_audit_creation_date 2013-11-07
_audit_creation_method CSD-ConQuest-V1
_database_code_CSD DIPGEQ
_database_code_depnum_ccdc_archive 'CCDC 905344'
_chemical_formula_sum 'C18 H18 N2 O4'
_chemical_formula_moiety
;
C18 H18 N2 O4
;
_journal_coden_Cambridge 154
_journal_volume 66
_journal_year 2013
_journal_page_first 864
_journal_name_full 'Aust.J.Chem. '
loop_
_publ_author_name
"N.Kirk"
"M.J.Kelso"
"A.C.Willis"
_chemical_name_systematic
;
(E)-Allyl 3-(3,5-dimethyl-1H-pyrrol-2-yl)-2-(2-nitrophenyl)acrylate
;
_chemical_melting_point 375.15
_cell_volume    850.890
_exptl_crystal_colour 'colorless'
_exptl_crystal_density_diffrn 1.274
_exptl_special_details
;
Melting point range 375.15-378.15K

;
_exptl_crystal_description 'Prism'
_diffrn_ambient_temperature 298
#These two values have been output from a single CSD field.
_refine_ls_R_factor_gt 0.064
_refine_ls_wR_factor_gt 0.064
loop_
_citation_database_id_CSD
_citation_special_details
DIPGIU "is a stereoisomer of this entry"
_symmetry_cell_setting triclinic
_symmetry_space_group_name_H-M 'P -1'
_symmetry_Int_Tables_number 2
loop_
_symmetry_equiv_pos_site_id
_symmetry_equiv_pos_as_xyz
1 x,y,z
2 -x,-y,-z
_cell_length_a 8.4326(4)
_cell_length_b 10.2147(4)
_cell_length_c 11.0598(6)
_cell_angle_alpha 72.485(3)
_cell_angle_beta 76.605(2)
_cell_angle_gamma 71.312(3)
_cell_formula_units_Z 2
loop_
_atom_type_symbol
_atom_type_radius_bond
C 0.68
H 0.23
N 0.68
O 0.68
loop_
_atom_site_label
_atom_site_type_symbol
_atom_site_fract_x
_atom_site_fract_y
_atom_site_fract_z
C1 C 0.7199(2) 0.3838(2) 0.10536(17)
N1 N 0.6914(2) 0.29186(19) 0.22374(16)
H1 H 0.69850 0.30420 0.29800
C2 C 0.7698(2) 0.5114(2) 0.08166(17)
H2 H 0.77680 0.57250 -0.00330
C3 C 0.8448(3) 0.7089(2) 0.11823(19)
C4 C 0.8130(2) 0.5671(2) 0.16169(17)
O1 O 0.8838(2) 0.76381(18) 0.18556(16)
O2 O 0.8276(2) 0.77202(16) -0.00510(14)
C5 C 0.8451(3) 0.4885(2) 0.29472(18)
C6 C 0.6765(3) 0.3343(2) 0.01643(19)
C7 C 0.7517(3) 0.5274(3) 0.40676(19)
N2 N 0.5998(3) 0.6495(3) 0.4015(2)
C8 C 0.6891(3) 0.3972(3) -0.1254(2)
H3 H 0.61640 0.36640 -0.15970
H4 H 0.80390 0.36620 -0.16510
H5 H 0.65500 0.49940 -0.14220
C9 C 0.9836(3) 0.3699(3) 0.3102(2)
H6 H 1.05240 0.33880 0.23650
C10 C 0.6207(3) 0.2136(3) 0.0849(2)
H7 H 0.58350 0.16370 0.04070
C11 C 0.7946(4) 0.4533(3) 0.5270(2)
H8 H 0.72690 0.48420 0.60120
C12 C 0.6303(3) 0.1886(3) 0.2119(2)
O3 O 0.5360(3) 0.7005(3) 0.3061(2)
C13 C 0.8753(4) 0.9047(3) -0.0600(3)
H9 H 0.84280 0.95910 0.00320
H10 H 0.99570 0.88360 -0.08580
C14 C 0.9337(5) 0.3365(3) 0.5392(2)
H11 H 0.96400 0.28670 0.62270
C15 C 1.0275(4) 0.2941(3) 0.4309(3)
H12 H 1.12260 0.21110 0.43920
C16 C 0.5927(5) 0.0720(3) 0.3244(3)
H13 H 0.57080 0.00090 0.29510
H14 H 0.49510 0.11080 0.38050
H15 H 0.68820 0.02950 0.36990
C17 C 0.7880(5) 0.9818(3) -0.1727(3)
H16 H 0.66650 1.01110 -0.16130
O4 O 0.5410(4) 0.6935(4) 0.4964(3)
C18 C 0.8516(7) 1.0178(4) -0.2871(4)
H17 H 0.78090 1.06880 -0.35240
H18 H 0.97250 0.99400 -0.30960
#END
