
#######################################################################
#
#                 Cambridge Crystallographic Data Centre
#                                CCDC
#
#######################################################################
#
# If this CIF has been generated from an entry in the Cambridge
# Structural Database, then it will include bibliographic, chemical,
# crystal, experimental, refinement or atomic coordinate data resulting
# from the CCDC's data processing and validation procedures.
#
#######################################################################

data_CSD_CIF_DIRYEI
_audit_creation_date 1986-11-20
_audit_creation_method CSD-ConQuest-V1
_database_code_CSD DIRYEI
_chemical_formula_sum 'C14 H17 N1 O3'
_chemical_formula_moiety
;
C14 H17 N1 O3
;
_journal_coden_Cambridge 16
_journal_volume 41
_journal_year 1985
_journal_page_first 3455
_journal_name_full 'Tetrahedron '
loop_
_publ_author_name
"P.M.Wovkulich"
"M.R.Uskokovic"
_chemical_name_systematic
;
1\b,5\b-2-(1-Phenylethyl)-4-methyl-3,6-dioxa-2-azabicyclo(3.3.0)octan-7-one
;
_chemical_melting_point 406.15
_cell_volume   1285.717
_exptl_crystal_density_diffrn 1.227
_exptl_special_details
;
Melting point range 406.15-406.65K
dx reported as 1.227, we calculate 1.28

;
_diffrn_ambient_temperature ?
_diffrn_special_details
;
The study was carried out at room temperature,in the range 283-303K

;
#These two values have been output from a single CSD field.
_refine_ls_R_factor_gt 0.036
_refine_ls_wR_factor_gt 0.036
loop_
_citation_database_id_CSD
_citation_special_details
DIRYAE "is a stereoisomer of this entry"
_symmetry_cell_setting orthorhombic
_symmetry_space_group_name_H-M 'P 21 21 21'
_symmetry_Int_Tables_number 19
loop_
_symmetry_equiv_pos_site_id
_symmetry_equiv_pos_as_xyz
1 x,y,z
2 1/2+x,1/2-y,-z
3 -x,1/2+y,1/2-z
4 1/2-x,-y,1/2+z
_cell_length_a 9.933(2)
_cell_length_b 11.147(2)
_cell_length_c 11.612(3)
_cell_angle_alpha 90
_cell_angle_beta 90
_cell_angle_gamma 90
_cell_formula_units_Z 4
loop_
_atom_type_symbol
_atom_type_radius_bond
C 0.68
H 0.23
N 0.68
O 0.68
loop_
_atom_site_label
_atom_site_type_symbol
_atom_site_fract_x
_atom_site_fract_y
_atom_site_fract_z
O1 O 0.1739(2) 0.5280(2) 0.8750(2)
O2 O 0.0652(2) 0.3065(2) 0.9608(2)
O3 O 0.2006(3) 0.1486(2) 0.9458(3)
N1 N 0.2724(2) 0.5190(2) 0.9681(2)
C1 C 0.0432(3) 0.5206(3) 0.9290(3)
C2 C 0.0635(3) 0.4235(3) 1.0161(3)
C3 C 0.2058(3) 0.4438(3) 1.0580(2)
C4 C 0.2651(3) 0.3201(3) 1.0636(3)
C5 C 0.1804(4) 0.2464(3) 0.9854(3)
C6 C -0.0646(3) 0.5028(4) 0.8395(3)
C7 C 0.3035(3) 0.6428(2) 1.0058(2)
C8 C 0.3975(4) 0.6370(4) 1.1098(3)
C9 C 0.3697(3) 0.7106(3) 0.9082(2)
C10 C 0.3196(3) 0.8192(3) 0.8705(3)
C11 C 0.3869(4) 0.8845(3) 0.7865(3)
C12 C 0.5037(4) 0.8429(3) 0.7388(3)
C13 C 0.5549(4) 0.7338(3) 0.7743(3)
C14 C 0.4883(3) 0.6682(3) 0.8591(3)
H1 H 0.02100 0.59900 0.96800
H2 H -0.00600 0.42700 1.08200
H3 H 0.20900 0.48600 1.13600
H4 H 0.36500 0.31800 1.03600
H5 H 0.26600 0.28400 1.14400
H6 H -0.04900 0.42000 0.80100
H7 H -0.05800 0.56400 0.77600
H8 H -0.15600 0.50300 0.87200
H9 H 0.21900 0.68600 1.02900
H10 H 0.48600 0.59500 1.08400
H11 H 0.35800 0.58600 1.17200
H12 H 0.42100 0.71700 1.13900
H13 H 0.23400 0.85200 0.90800
H14 H 0.34600 0.96500 0.76000
H15 H 0.55300 0.89600 0.67900
H16 H 0.64000 0.70100 0.73800
H17 H 0.52900 0.58800 0.88700
#END
