
#######################################################################
#
#                 Cambridge Crystallographic Data Centre
#                                CCDC
#
#######################################################################
#
# If this CIF has been generated from an entry in the Cambridge
# Structural Database, then it will include bibliographic, chemical,
# crystal, experimental, refinement or atomic coordinate data resulting
# from the CCDC's data processing and validation procedures.
#
#######################################################################

data_CSD_CIF_DISKIA
_audit_creation_date 2008-05-01
_audit_creation_method CSD-ConQuest-V1
_database_code_CSD DISKIA
_database_code_depnum_ccdc_archive 'CCDC 661106'
_chemical_formula_sum 'C35 H35 N3 O9'
_chemical_formula_moiety
;
C35 H35 N3 O9
;
_journal_coden_Cambridge 177
_journal_volume 6
_journal_year 2008
_journal_page_first 138
_journal_name_full 'Org.Biomol.Chem. '
loop_
_publ_author_name
"J.Plante"
"F.Campbell"
"B.Malkova"
"C.Kilner"
"S.L.Warriner"
"A.J.Wilson"
_chemical_name_systematic
;
methyl 
3-isopropoxy-4-(3-propoxy-4-(3-benzyloxy-4-nitrobenzoylamido)benzoylamido)benz
oate
;
_chemical_melting_point 485.15
_cell_volume   1580.646
_exptl_crystal_colour 'yellow'
_exptl_crystal_density_diffrn 1.348
_exptl_special_details
;
Melting point range 485.15-487.15K

;
_exptl_crystal_description 'Needle'
_exptl_crystal_preparation 'ethyl acetate'
_diffrn_ambient_temperature 150
#These two values have been output from a single CSD field.
_refine_ls_R_factor_gt 0.049
_refine_ls_wR_factor_gt 0.049
_symmetry_cell_setting triclinic
_symmetry_space_group_name_H-M 'P -1'
_symmetry_Int_Tables_number 2
loop_
_symmetry_equiv_pos_site_id
_symmetry_equiv_pos_as_xyz
1 x,y,z
2 -x,-y,-z
_cell_length_a 8.0680(2)
_cell_length_b 10.8740(2)
_cell_length_c 19.1980(5)
_cell_angle_alpha 105.270(1)
_cell_angle_beta 98.082(1)
_cell_angle_gamma 98.075(1)
_cell_formula_units_Z 2
loop_
_atom_type_symbol
_atom_type_radius_bond
C 0.68
H 0.23
N 0.68
O 0.68
loop_
_atom_site_label
_atom_site_type_symbol
_atom_site_fract_x
_atom_site_fract_y
_atom_site_fract_z
O1 O 0.21941(16) -0.75381(11) 0.27733(7)
O2 O 0.55967(16) -0.25385(11) 0.41927(7)
O3 O 0.02761(17) -0.97704(12) 0.26359(8)
O4 O 0.79042(18) 0.30573(12) 0.82377(7)
O5 O 1.21499(18) 0.79839(11) 0.81056(8)
O6 O 1.14517(19) 0.77109(13) 0.91534(8)
O7 O 0.87115(18) 0.19155(12) 0.57265(7)
O8 O 0.30783(16) -0.42829(11) 0.59097(7)
O9 O -0.18828(19) -0.95346(13) 0.31773(9)
N1 N 0.8167(2) 0.21557(14) 0.68758(9)
N2 N -0.0412(2) -0.91650(13) 0.31109(9)
N3 N 0.3776(2) -0.34966(14) 0.49778(10)
C1 C 0.8891(2) 0.39110(16) 0.79812(10)
C2 C 1.0717(2) 0.54906(16) 0.73149(10)
H1 H 1.13430 0.60330 0.70890
C3 C 0.2636(2) -0.60135(15) 0.39859(10)
H2 H 0.35220 -0.54610 0.38770
C4 C 0.8019(2) 0.14671(15) 0.61589(10)
C5 C 0.0070(2) -0.76108(16) 0.43233(10)
H3 H -0.08170 -0.81590 0.44340
C6 C 0.0910(2) -0.64700(16) 0.48466(10)
H4 H 0.06190 -0.62430 0.53210
C7 C 0.2180(2) -0.56606(15) 0.46721(10)
C8 C 0.8255(3) 0.31139(19) 0.90085(10)
H5 H 0.82340 0.40080 0.93170
C9 C 0.6850(2) -0.05620(15) 0.51858(10)
H6 H 0.75230 -0.02170 0.48890
C10 C 0.0527(2) -0.79483(15) 0.36401(10)
C11 C 0.5953(2) -0.03728(15) 0.6350(1)
H7 H 0.60190 0.01010 0.68480
C12 C 0.4810(2) -0.22781(15) 0.53389(10)
C13 C 0.3050(2) -0.44219(15) 0.5254(1)
C14 C 0.2491(3) -0.83905(18) 0.13348(11)
H8 H 0.18180 -0.89250 0.15490
C15 C 0.3386(2) -0.66547(17) 0.25688(10)
H9 H 0.45370 -0.65520 0.28610
H10 H 0.30480 -0.57940 0.26650
C16 C 0.6589(2) -0.21196(16) 0.37011(10)
H11 H 0.78210 -0.20170 0.38930
H12 H 0.63510 -0.12770 0.36470
C17 C 0.5802(2) -0.17592(15) 0.48990(9)
C18 C 0.1820(2) -0.71634(15) 0.34521(10)
C19 C 1.0611(2) 0.59490(16) 0.80473(10)
C20 C 0.3408(2) -0.71885(16) 0.17636(10)
C21 C 0.4887(2) -0.15818(15) 0.60603(10)
H13 H 0.42160 -0.19260 0.63580
C22 C 0.9688(2) 0.51535(17) 0.83822(10)
H14 H 0.96120 0.54700 0.88850
C23 C 1.1430(2) 0.72863(17) 0.85048(11)
C24 C 0.6078(2) -0.31528(17) 0.29718(10)
H15 H 0.48210 -0.33520 0.28300
H16 H 0.64680 -0.39550 0.30200
C25 C 0.9911(2) 0.42382(16) 0.69064(10)
H17 H 0.99850 0.39300 0.64030
C26 C 0.6921(2) 0.01448(15) 0.59151(10)
C27 C 0.6842(3) -0.27217(18) 0.23718(11)
H18 H 0.63480 -0.19930 0.22800
H19 H 0.65890 -0.34450 0.19190
H20 H 0.80790 -0.24500 0.25300
C28 C 0.9001(2) 0.34387(16) 0.72336(10)
C29 C 0.3524(3) -0.8052(2) 0.02741(12)
H21 H 0.35570 -0.83470 -0.02350
C30 C 0.2555(3) -0.8813(2) 0.05928(12)
H22 H 0.19230 -0.96370 0.03020
C31 C 0.4449(3) -0.6855(2) 0.06982(12)
H23 H 0.51260 -0.63270 0.04820
C32 C 0.4386(3) -0.64275(19) 0.14380(11)
H24 H 0.50200 -0.56030 0.17270
C33 C 1.3017(3) 0.92849(19) 0.85150(13)
H25 H 1.21860 0.97970 0.87070
H26 H 1.35870 0.96900 0.81910
H27 H 1.38640 0.92500 0.89250
C34 C 0.9963(3) 0.2772(3) 0.92069(15)
H28 H 0.99900 0.19030 0.88980
H29 H 1.01590 0.27870 0.97250
H30 H 1.08550 0.34040 0.91270
C35 C 0.6805(3) 0.2169(2) 0.91020(13)
H31 H 0.57260 0.24460 0.89770
H32 H 0.69650 0.21440 0.96130
H33 H 0.67840 0.13020 0.87770
H34 H 0.774(3) 0.179(2) 0.7148(13)
H35 H 0.370(3) -0.3653(18) 0.4561(12)
#END
