
#######################################################################
#
#                 Cambridge Crystallographic Data Centre
#                                CCDC
#
#######################################################################
#
# If this CIF has been generated from an entry in the Cambridge
# Structural Database, then it will include bibliographic, chemical,
# crystal, experimental, refinement or atomic coordinate data resulting
# from the CCDC's data processing and validation procedures.
#
#######################################################################

data_CSD_CIF_DISYIP
_audit_creation_date 2013-11-11
_audit_creation_method CSD-ConQuest-V1
_database_code_CSD DISYIP
_database_code_depnum_ccdc_archive 'CCDC 957823'
_chemical_formula_sum 'C20 H19 N3 O5'
_chemical_formula_moiety
;
C20 H19 N3 O5
;
_journal_coden_Cambridge 440
_journal_volume 38
_journal_year 2014
_journal_page_first 260
_journal_name_full 'New J.Chem. '
loop_
_publ_author_name
"M.Maldonado-Dominguez"
"R.Arcos-Ramos"
"M.Romero"
"B.Flores-Perez"
"N.Farfan"
"R.Santillan"
"P.G.Lacroix"
"I.Malfant"
_chemical_name_systematic
;
7-(Diethylamino)-N-(4-nitrophenyl)-2-oxo-2H-chromene-3-carboxamide
;
_cell_volume    886.647
_exptl_crystal_colour 'colorless'
_exptl_crystal_density_diffrn 1.429
_exptl_crystal_description 'block'
_diffrn_ambient_temperature 298
#These two values have been output from a single CSD field.
_refine_ls_R_factor_gt 0.0482
_refine_ls_wR_factor_gt 0.0482
_symmetry_cell_setting triclinic
_symmetry_space_group_name_H-M 'P -1'
_symmetry_Int_Tables_number 2
loop_
_symmetry_equiv_pos_site_id
_symmetry_equiv_pos_as_xyz
1 x,y,z
2 -x,-y,-z
_cell_length_a 4.9427(2)
_cell_length_b 12.5574(4)
_cell_length_c 14.6612(5)
_cell_angle_alpha 98.1690(21)
_cell_angle_beta 99.3016(19)
_cell_angle_gamma 92.6732(19)
_cell_formula_units_Z 2
loop_
_atom_type_symbol
_atom_type_radius_bond
C 0.68
H 0.23
N 0.68
O 0.68
loop_
_atom_site_label
_atom_site_type_symbol
_atom_site_fract_x
_atom_site_fract_y
_atom_site_fract_z
O1 O 0.0470(2) 0.14962(8) 0.85254(7)
N1 N 0.7472(3) 0.20920(11) 1.06960(9)
O2 O 0.3911(2) 0.08017(9) 0.93291(8)
O3 O 0.6685(2) 0.38740(9) 1.08486(8)
N2 N -0.7178(3) 0.27406(11) 0.66451(9)
N3 N 1.6574(3) 0.19032(14) 1.34965(10)
O4 O 1.7419(3) 0.27118(13) 1.40612(10)
O5 O 1.7601(3) 0.10445(14) 1.35205(11)
C1 C 0.3622(3) 0.27051(11) 0.96984(10)
C2 C -0.0198(3) 0.33907(11) 0.87514(9)
C3 C 0.2169(3) 0.35414(12) 0.9448(1)
H1 H 0.27580 0.42370 0.97460
C4 C -0.4905(3) 0.29399(12) 0.73269(10)
C5 C -0.3300(3) 0.21054(12) 0.7601(1)
H2 H -0.37730 0.13970 0.73160
C6 C -0.1828(3) 0.42149(12) 0.84771(10)
H3 H -0.13460 0.49210 0.87680
C7 C -0.1030(3) 0.23448(11) 0.8293(1)
C8 C 0.6047(3) 0.29475(12) 1.04629(10)
C9 C 0.2792(3) 0.16249(12) 0.92075(10)
C10 C 0.9739(3) 0.20980(12) 1.14051(10)
C11 C -0.4092(3) 0.40093(13) 0.77973(10)
H4 H -0.51280 0.45750 0.76370
C12 C 1.1134(3) 0.11629(12) 1.14107(11)
H5 H 1.05460 0.05740 1.09480
C13 C 1.2886(4) 0.29102(14) 1.27776(11)
H6 H 1.35010 0.34970 1.32400
C14 C 1.3374(3) 0.10929(13) 1.20897(12)
H7 H 1.42970 0.04640 1.20880
C15 C 1.4215(3) 0.19709(13) 1.27688(11)
C16 C 1.0640(3) 0.29808(13) 1.20997(11)
H8 H 0.97310 0.36130 1.21060
C17 C -0.8590(3) 0.36276(15) 0.62756(12)
H9 H -0.89220 0.41470 0.67950
H10 H -1.03620 0.33460 0.59140
C18 C -0.8127(3) 0.16489(14) 0.61871(12)
H11 H -1.01010 0.16200 0.59860
H12 H -0.77680 0.11590 0.66410
C19 C -0.6812(4) 0.12606(18) 0.53570(14)
H13 H -0.72680 0.17080 0.48830
H14 H -0.74740 0.05280 0.51130
H15 H -0.48530 0.12980 0.55450
C20 C -0.7000(5) 0.42003(18) 0.56652(14)
H16 H -0.51870 0.44300 0.60010
H17 H -0.79330 0.48180 0.55010
H18 H -0.68740 0.37170 0.51070
H19 H 0.685(4) 0.1478(16) 1.0376(14)
#END
