
#######################################################################
#
#                 Cambridge Crystallographic Data Centre
#                                CCDC
#
#######################################################################
#
# If this CIF has been generated from an entry in the Cambridge
# Structural Database, then it will include bibliographic, chemical,
# crystal, experimental, refinement or atomic coordinate data resulting
# from the CCDC's data processing and validation procedures.
#
#######################################################################

data_CSD_CIF_DIVPED
_audit_creation_date 1986-11-20
_audit_creation_method CSD-ConQuest-V1
_database_code_CSD DIVPED
_chemical_formula_sum 'C22 H20 N6 O7'
_chemical_formula_moiety
;
C22 H20 N6 O7
;
_journal_coden_Cambridge 423
_journal_volume 212
_journal_year 1985
_journal_page_first 2473
_journal_name_full 'J.Chem.Res. '
loop_
_publ_author_name
"G.Ferguson"
"K.J.Fisher"
"B.E.Ibrahim"
"C.Y.Ishag"
"G.M.Iskander"
"M.Parvez"
_chemical_name_systematic
;
8,12-Epoxy-12-ethoxy-3,11-bis(5-nitro-2-pyridyl)-3,11-diazatricyclo(5.3.1.1^2,
6^)dodec-4-en-10-one
;
_chemical_melting_point 493.15
_cell_volume   1072.196
_exptl_crystal_colour 'bright yellow'
_exptl_crystal_density_diffrn 1.49
_exptl_special_details
;
Melting point range 493.15-496.15K

;
_diffrn_ambient_temperature ?
_diffrn_special_details
;
The study was carried out at room temperature,in the range 283-303K

;
#These two values have been output from a single CSD field.
_refine_ls_R_factor_gt 0.0365
_refine_ls_wR_factor_gt 0.0365
_symmetry_cell_setting triclinic
_symmetry_space_group_name_H-M 'P -1'
_symmetry_Int_Tables_number 2
loop_
_symmetry_equiv_pos_site_id
_symmetry_equiv_pos_as_xyz
1 x,y,z
2 -x,-y,-z
_cell_length_a 10.021(2)
_cell_length_b 13.809(2)
_cell_length_c 8.614(3)
_cell_angle_alpha 98.31(2)
_cell_angle_beta 113.63(2)
_cell_angle_gamma 80.17(1)
_cell_formula_units_Z 2
loop_
_atom_type_symbol
_atom_type_radius_bond
C 0.68
H 0.23
N 0.68
O 0.68
loop_
_atom_site_label
_atom_site_type_symbol
_atom_site_fract_x
_atom_site_fract_y
_atom_site_fract_z
O1 O 1.1744(3) 0.2657(2) 0.0846(4)
O2 O 0.4195(4) 0.6242(3) 0.3238(5)
O3 O 0.3345(4) 0.4878(3) 0.2984(5)
O4 O 0.8870(4) 0.1800(3) -0.2647(4)
O5 O 0.5400(4) -0.1527(3) -0.0513(6)
O6 O 0.6380(6) -0.1977(4) 0.2027(6)
O7 O 1.2538(3) 0.1726(2) 0.3130(4)
N1 N 0.4244(4) 0.5343(4) 0.2879(5)
N2 N 0.8606(4) 0.3506(3) 0.0709(5)
N3 N 0.6214(6) -0.1425(3) 0.0966(8)
N4 N 0.9530(4) 0.1675(3) 0.2671(4)
C1 C 0.5345(5) 0.4833(4) 0.2284(6)
C2 C 0.6503(6) 0.5295(4) 0.2399(7)
N5 N 0.7568(4) 0.4858(3) 0.1911(5)
C3 C 0.7491(5) 0.3920(4) 0.1222(6)
C4 C 0.6317(6) 0.3421(4) 0.1015(7)
C5 C 0.5252(6) 0.3863(4) 0.1555(6)
C6 C 0.8773(5) 0.2479(3) 0.0011(6)
C7 C 0.9121(5) 0.2476(4) -0.1554(6)
C8 C 0.9838(6) 0.3349(4) -0.1548(7)
C9 C 1.0831(5) 0.3583(4) 0.0271(6)
C10 C 1.0014(5) 0.3905(4) 0.1469(6)
C11 C 0.7111(5) -0.0606(3) 0.1537(7)
C12 C 0.7409(5) -0.0236(4) 0.0340(7)
N6 N 0.8236(4) 0.0504(3) 0.0751(5)
C13 C 0.8712(5) 0.0893(3) 0.2360(6)
C14 C 0.8449(5) 0.0551(3) 0.3641(7)
C15 C 0.7664(5) -0.0246(4) 0.3202(7)
C16 C 1.0012(5) 0.1857(3) 0.1349(6)
C17 C 1.1393(5) 0.2389(3) 0.2187(6)
C18 C 1.1017(5) 0.3355(3) 0.3056(6)
C19 C 1.0360(5) 0.3189(4) 0.4253(6)
C20 C 0.9691(5) 0.2393(4) 0.4032(6)
C21 C 1.3881(5) 0.2144(4) 0.4197(7)
C22 C 1.5054(7) 0.1351(5) 0.4824(10)
H1 H 0.6512(43) 0.5978(35) 0.2871(57)
H2 H 0.6134(47) 0.2834(34) 0.0530(59)
H3 H 0.4366(44) 0.3588(31) 0.1553(53)
H4 H 0.7794(44) 0.2213(30) -0.0409(53)
H5 H 1.0478(45) 0.3184(31) -0.2233(55)
H6 H 0.9181(47) 0.3811(35) -0.2044(61)
H7 H 1.1452(45) 0.4090(32) 0.0345(54)
H8 H 0.9728(41) 0.4677(34) 0.1650(54)
H9 H 0.7123(44) -0.0495(33) -0.0884(61)
H10 H 0.8868(44) 0.0846(31) 0.4847(60)
H11 H 0.7594(45) -0.0566(33) 0.4021(60)
H12 H 1.0175(46) 0.1275(33) 0.0818(59)
#END
