
#######################################################################
#
#                 Cambridge Crystallographic Data Centre
#                                CCDC
#
#######################################################################
#
# If this CIF has been generated from an entry in the Cambridge
# Structural Database, then it will include bibliographic, chemical,
# crystal, experimental, refinement or atomic coordinate data resulting
# from the CCDC's data processing and validation procedures.
#
#######################################################################

data_CSD_CIF_DIWKEB
_audit_creation_date 2014-04-28
_audit_creation_method CSD-ConQuest-V1
_database_code_CSD DIWKEB
_database_code_depnum_ccdc_archive 'CCDC 909539'
_database_code_depnum_ccdc_journal 2013_0002
_chemical_formula_sum 'C16 H16 N4 O6'
_chemical_formula_moiety
;
C16 H16 N4 O6
;
_journal_coden_Cambridge 1267
_journal_volume 229
_journal_year 2014
_journal_page_first 23
_journal_name_full 'Z.Kristallogr.-New Cryst.Struct. '
loop_
_publ_author_name
"Ling-Ling Zhao"
"Yu Wan"
"Shu-Ying Huang"
"Liang-Feng Chen"
"Gui-Xiang Liu"
"Wen-Li Zhang"
"Shu-Ning Yue"
"Hui Wu"
_chemical_name_systematic
;
3,7-bis(4-nitrophenyl)-1,5,3,7-dioxadiazocane
;
_cell_volume    807.963
_exptl_crystal_density_diffrn 1.481
_diffrn_ambient_temperature 298
#These two values have been output from a single CSD field.
_refine_ls_R_factor_gt 0.0425
_refine_ls_wR_factor_gt 0.0425
_symmetry_cell_setting triclinic
_symmetry_space_group_name_H-M 'P -1'
_symmetry_Int_Tables_number 2
loop_
_symmetry_equiv_pos_site_id
_symmetry_equiv_pos_as_xyz
1 x,y,z
2 -x,-y,-z
_cell_length_a 6.6316(5)
_cell_length_b 10.5349(7)
_cell_length_c 11.8234(9)
_cell_angle_alpha 99.303(2)
_cell_angle_beta 92.014(1)
_cell_angle_gamma 96.918(1)
_cell_formula_units_Z 2
loop_
_atom_type_symbol
_atom_type_radius_bond
C 0.68
H 0.23
N 0.68
O 0.68
loop_
_atom_site_label
_atom_site_type_symbol
_atom_site_fract_x
_atom_site_fract_y
_atom_site_fract_z
N1 N 0.3532(3) 0.97583(18) 0.31965(16)
N2 N 0.5291(5) 0.6214(3) 0.6052(2)
N3 N 0.1587(3) 0.82969(17) 0.10445(16)
N4 N 0.1095(4) 0.3049(2) 0.1458(2)
O1 O 0.5123(2) 0.91738(14) 0.14206(13)
O2 O -0.0051(2) 0.93340(15) 0.26501(14)
O3 O 0.7002(5) 0.5934(3) 0.6077(2)
O4 O 0.3990(5) 0.5832(3) 0.6651(2)
O5 O 0.2511(4) 0.24576(19) 0.1119(2)
O6 O -0.0456(4) 0.25180(19) 0.1804(2)
C1 C 0.4975(4) 1.0140(2) 0.2391(2)
H1 H 0.45950 1.09070 0.21260
H2 H 0.63060 1.03730 0.27880
C2 C 0.3404(3) 0.8928(2) 0.0637(2)
H3 H 0.37470 0.83930 -0.00590
H4 H 0.31100 0.97460 0.04360
C3 C 0.0023(3) 0.9063(2) 0.1439(2)
H5 H 0.02350 0.98770 0.11510
H6 H -0.12820 0.86110 0.11170
C4 C 0.1598(4) 1.0234(2) 0.3205(2)
H7 H 0.12850 1.05040 0.39960
H8 H 0.17060 1.09970 0.28370
C5 C 0.3903(3) 0.8816(2) 0.38431(19)
C6 C 0.5757(4) 0.8308(2) 0.3820(2)
H9 H 0.67170 0.85570 0.33160
C7 C 0.6188(4) 0.7453(2) 0.4522(2)
H10 H 0.74360 0.71320 0.45020
C8 C 0.4765(5) 0.7071(2) 0.5258(2)
C9 C 0.2886(4) 0.7490(3) 0.5255(2)
H11 H 0.19140 0.71950 0.57320
C10 C 0.2436(4) 0.8344(2) 0.4550(2)
H12 H 0.11510 0.86120 0.45410
C11 C 0.1514(3) 0.7025(2) 0.12250(18)
C12 C 0.3169(4) 0.6339(2) 0.1011(2)
H13 H 0.43780 0.67620 0.08020
C13 C 0.3046(4) 0.5052(2) 0.1103(2)
H14 H 0.41590 0.46040 0.09520
C14 C 0.1267(4) 0.4426(2) 0.1422(2)
C15 C -0.0355(4) 0.5095(2) 0.1701(2)
H15 H -0.15300 0.46730 0.19490
C16 C -0.0234(4) 0.6381(2) 0.1614(2)
H16 H -0.13250 0.68330 0.18140
#END
