
#######################################################################
#
#                 Cambridge Crystallographic Data Centre
#                                CCDC
#
#######################################################################
#
# If this CIF has been generated from an entry in the Cambridge
# Structural Database, then it will include bibliographic, chemical,
# crystal, experimental, refinement or atomic coordinate data resulting
# from the CCDC's data processing and validation procedures.
#
#######################################################################

data_CSD_CIF_DIWNUT
_audit_creation_date 2008-04-30
_audit_creation_method CSD-ConQuest-V1
_database_code_CSD DIWNUT
_database_code_depnum_ccdc_archive 'CCDC 684495'
_chemical_formula_sum 'C22 H16 N2 O10'
_chemical_formula_moiety
;
C22 H16 N2 O10
;
_journal_coeditor_code "IUCr CF2186"
_journal_coden_Cambridge 1370
_journal_volume 64
_journal_year 2008
_journal_page_first o692
_journal_name_full 'Acta Crystallogr.,Sect.E:Struct.Rep.Online '
loop_
_publ_author_name
"S.N.Ali"
"S.Begum"
"M.A.Winnik"
"A.J.Lough"
_chemical_name_systematic
;
bis(4-Nitrophenyl) 1,3-phenylenedimethylene dicarbonate
;
_cell_volume   1020.005
_exptl_crystal_colour 'colorless'
_exptl_crystal_density_diffrn 1.525
_exptl_crystal_description 'block'
_exptl_crystal_preparation 'dichloromethane/ethanol'
_diffrn_ambient_temperature 150
#These two values have been output from a single CSD field.
_refine_ls_R_factor_gt 0.064
_refine_ls_wR_factor_gt 0.064
_symmetry_cell_setting triclinic
_symmetry_space_group_name_H-M 'P -1'
_symmetry_Int_Tables_number 2
loop_
_symmetry_equiv_pos_site_id
_symmetry_equiv_pos_as_xyz
1 x,y,z
2 -x,-y,-z
_cell_length_a 8.5956(4)
_cell_length_b 9.2367(5)
_cell_length_c 14.1550(8)
_cell_angle_alpha 94.094(2)
_cell_angle_beta 107.134(3)
_cell_angle_gamma 105.674(3)
_cell_formula_units_Z 2
loop_
_atom_type_symbol
_atom_type_radius_bond
C 0.68
H 0.23
N 0.68
O 0.68
loop_
_atom_site_label
_atom_site_type_symbol
_atom_site_fract_x
_atom_site_fract_y
_atom_site_fract_z
O1 O 0.8872(3) 0.1353(2) 0.51451(16)
O2 O 0.6463(3) 0.2045(3) 0.48906(18)
O3 O 0.8682(3) 0.3232(2) 0.43660(16)
O4 O 0.5734(3) 0.8621(3) 0.32218(18)
O5 O 0.5700(3) 0.7631(3) 0.17823(17)
O6 O 0.7702(3) 0.1855(2) 0.94414(15)
O7 O 0.7572(3) 0.4000(2) 1.02591(16)
O8 O 0.6017(3) 0.1596(2) 1.03074(15)
O9 O 0.1915(5) 0.4431(4) 1.2504(3)
O10 O 0.2930(3) 0.3121(3) 1.35819(18)
N1 N 0.6000(3) 0.7673(3) 0.26870(19)
N2 N 0.2722(4) 0.3547(3) 1.2770(2)
C1 C 0.8609(4) 0.1437(3) 0.7314(2)
H1 H 0.78260 0.19490 0.69960
C2 C 0.9034(4) 0.0426(3) 0.6733(2)
C3 C 1.0188(4) -0.0314(4) 0.7203(2)
H2 H 1.05050 -0.09930 0.68140
C4 C 1.0875(4) -0.0059(4) 0.8237(2)
H3 H 1.16580 -0.05710 0.85560
C5 C 1.0431(4) 0.0932(4) 0.8811(2)
H4 H 1.08930 0.10820 0.95210
C6 C 0.9314(4) 0.1712(3) 0.8356(2)
C7 C 0.8208(4) 0.0058(3) 0.5615(2)
H5 H 0.84430 -0.08540 0.53540
H6 H 0.69540 -0.01730 0.54440
C8 C 0.7845(4) 0.2182(3) 0.4820(2)
C9 C 0.7965(4) 0.4351(3) 0.3983(2)
C10 C 0.7170(4) 0.5092(3) 0.4481(2)
H7 H 0.70520 0.48390 0.51000
C11 C 0.6548(4) 0.6215(3) 0.4058(2)
H8 H 0.60080 0.67580 0.43870
C12 C 0.6728(4) 0.6530(3) 0.3153(2)
C13 C 0.7562(4) 0.5817(4) 0.2664(2)
H9 H 0.76910 0.60800 0.20490
C14 C 0.8204(4) 0.4712(3) 0.3092(2)
H10 H 0.87990 0.42080 0.27810
C15 C 0.8850(4) 0.2793(4) 0.8979(3)
H11 H 0.98870 0.34770 0.95010
H12 H 0.82670 0.34240 0.85560
C16 C 0.7147(4) 0.2644(3) 1.0016(2)
C17 C 0.5156(4) 0.2113(3) 1.0894(2)
C18 C 0.5105(4) 0.1426(3) 1.1723(2)
H13 H 0.56210 0.06420 1.18650
C19 C 0.4293(4) 0.1892(3) 1.2346(2)
H14 H 0.42710 0.14610 1.29330
C20 C 0.3518(4) 0.2999(3) 1.2088(2)
C21 C 0.3483(4) 0.3636(3) 1.1233(2)
H15 H 0.28980 0.43680 1.10670
C22 C 0.4322(4) 0.3182(3) 1.0620(2)
H16 H 0.43230 0.35970 1.00250
#END
