
#######################################################################
#
#                 Cambridge Crystallographic Data Centre
#                                CCDC
#
#######################################################################
#
# If this CIF has been generated from an entry in the Cambridge
# Structural Database, then it will include bibliographic, chemical,
# crystal, experimental, refinement or atomic coordinate data resulting
# from the CCDC's data processing and validation procedures.
#
#######################################################################

data_CSD_CIF_DIWSUY
_audit_creation_date 2008-05-01
_audit_creation_method CSD-ConQuest-V1
_database_code_CSD DIWSUY
_database_code_depnum_ccdc_archive 'CCDC 684540'
_chemical_formula_sum 'C13 H16 N2 O5'
_chemical_formula_moiety
;
C13 H16 N2 O5
;
_journal_coeditor_code "IUCr HK2408"
_journal_coden_Cambridge 1370
_journal_volume 64
_journal_year 2008
_journal_page_first o742
_journal_name_full 'Acta Crystallogr.,Sect.E:Struct.Rep.Online '
loop_
_publ_author_name
"Lian-shan Yuan"
"Xiang Li"
"Cheng Yao"
_chemical_name_systematic
;
Methyl 4-(butyrylamino)-5-methyl-2-nitrobenzoate
;
_cell_volume    689.850
_exptl_crystal_colour 'colorless'
_exptl_crystal_density_diffrn 1.349
_exptl_crystal_description 'block'
_exptl_crystal_preparation 'ethanol'
_diffrn_ambient_temperature 294
#These two values have been output from a single CSD field.
_refine_ls_R_factor_gt 0.0556
_refine_ls_wR_factor_gt 0.0556
_symmetry_cell_setting triclinic
_symmetry_space_group_name_H-M 'P -1'
_symmetry_Int_Tables_number 2
loop_
_symmetry_equiv_pos_site_id
_symmetry_equiv_pos_as_xyz
1 x,y,z
2 -x,-y,-z
_cell_length_a 7.6370(15)
_cell_length_b 8.7880(18)
_cell_length_c 11.329(2)
_cell_angle_alpha 81.06(3)
_cell_angle_beta 78.48(3)
_cell_angle_gamma 68.39(3)
_cell_formula_units_Z 2
loop_
_atom_type_symbol
_atom_type_radius_bond
C 0.68
H 0.23
N 0.68
O 0.68
loop_
_atom_site_label
_atom_site_type_symbol
_atom_site_fract_x
_atom_site_fract_y
_atom_site_fract_z
N1 N 0.2769(4) -0.1219(3) -0.0125(2)
H1 H 0.30130 -0.22420 0.01190
O1 O 0.2083(4) 0.0590(3) -0.1748(2)
C1 C 0.2766(5) -0.3253(4) -0.3938(3)
H2 H 0.26070 -0.29090 -0.47690
H3 H 0.18230 -0.37270 -0.35510
H4 H 0.40160 -0.40560 -0.39010
N2 N 0.1750(4) 0.4161(3) 0.1056(2)
O2 O 0.0124(3) 0.5069(2) 0.1365(2)
C2 C 0.2531(5) -0.1773(4) -0.3296(3)
H5 H 0.34590 -0.12780 -0.37060
H6 H 0.12700 -0.09620 -0.33410
O3 O 0.3005(3) 0.4618(3) 0.0453(2)
C3 C 0.2792(4) -0.2244(3) -0.1980(2)
H7 H 0.18930 -0.27760 -0.15820
H8 H 0.40660 -0.30340 -0.19410
O4 O 0.2265(3) 0.1922(2) 0.46212(17)
C4 C 0.2510(4) -0.0805(3) -0.1302(2)
O5 O 0.2355(3) 0.4105(2) 0.33631(17)
C5 C 0.2695(4) -0.0219(3) 0.0744(2)
C6 C 0.2311(4) 0.1466(3) 0.0483(2)
H9 H 0.21220 0.19620 -0.02910
C7 C 0.2217(4) 0.2382(3) 0.1391(2)
C8 C 0.2483(4) 0.1712(3) 0.2565(2)
C9 C 0.2896(4) 0.0022(3) 0.2777(2)
H10 H 0.31060 -0.04740 0.35480
C10 C 0.3010(4) -0.0948(3) 0.1907(2)
C11 C 0.3466(7) -0.2777(4) 0.2205(3)
H11 H 0.36530 -0.30650 0.30350
H12 H 0.46070 -0.33580 0.16910
H13 H 0.24280 -0.30690 0.20790
C12 C 0.2353(4) 0.2736(3) 0.3534(2)
C13 C 0.2136(6) 0.2797(4) 0.5634(3)
H14 H 0.20950 0.20930 0.63700
H15 H 0.09990 0.37540 0.56740
H16 H 0.32300 0.31250 0.55310
#END
