
#######################################################################
#
#                 Cambridge Crystallographic Data Centre
#                                CCDC
#
#######################################################################
#
# If this CIF has been generated from an entry in the Cambridge
# Structural Database, then it will include bibliographic, chemical,
# crystal, experimental, refinement or atomic coordinate data resulting
# from the CCDC's data processing and validation procedures.
#
#######################################################################

data_CSD_CIF_DIXBAP
_audit_creation_date 2014-04-29
_audit_creation_method CSD-ConQuest-V1
_database_code_CSD DIXBAP
_database_code_depnum_ccdc_archive 'CCDC 997919'
_chemical_formula_sum 'C30 H25 N3 O3'
_chemical_formula_moiety
;
C30 H25 N3 O3
;
_journal_coeditor_code "IUCr rz5116"
_journal_coden_Cambridge 1370
_journal_volume 70
_journal_year 2014
_journal_page_first o621
_journal_name_full 'Acta Crystallogr.,Sect.E:Struct.Rep.Online '
loop_
_publ_author_name
"Y.Li"
"P.Mao"
"Y.Xiao"
"L.Yang"
"L.Qu"
_chemical_name_systematic
;
2-(2-(2-nitrophenyl)-4,5-diphenyl-1H-imidazol-1-yl)-3-phenylpropan-1-ol
;
_cell_volume   2490.876
_exptl_crystal_colour 'yellow'
_exptl_crystal_density_diffrn 1.268
_diffrn_ambient_temperature 291.1
#These two values have been output from a single CSD field.
_refine_ls_R_factor_gt 0.038
_refine_ls_wR_factor_gt 0.038
_symmetry_cell_setting orthorhombic
_symmetry_space_group_name_H-M 'P 21 21 21'
_symmetry_Int_Tables_number 19
loop_
_symmetry_equiv_pos_site_id
_symmetry_equiv_pos_as_xyz
1 x,y,z
2 1/2-x,-y,1/2+z
3 1/2+x,1/2-y,-z
4 -x,1/2+y,1/2-z
_cell_length_a 10.54812(16)
_cell_length_b 12.77836(19)
_cell_length_c 18.4800(3)
_cell_angle_alpha 90
_cell_angle_beta 90
_cell_angle_gamma 90
_cell_formula_units_Z 4
loop_
_atom_type_symbol
_atom_type_radius_bond
C 0.68
H 0.23
N 0.68
O 0.68
loop_
_atom_site_label
_atom_site_type_symbol
_atom_site_fract_x
_atom_site_fract_y
_atom_site_fract_z
O1 O 0.3588(2) 0.84256(18) 0.76549(10)
O2 O 0.2703(2) 0.8468(2) 0.86999(14)
O3 O 0.69834(12) 0.98409(9) 0.67498(6)
N1 N 0.42502(13) 0.60777(11) 0.72217(7)
N2 N 0.58116(12) 0.7120(1) 0.68724(7)
N3 N 0.3581(2) 0.82279(15) 0.82985(10)
C1 C 0.2345(2) 0.50148(18) 0.63890(11)
H1 H 0.22490 0.50900 0.68870
C2 C 0.1417(3) 0.4507(2) 0.59907(14)
H2 H 0.06990 0.42490 0.62220
C3 C 0.1554(3) 0.43820(18) 0.52542(13)
H3 H 0.09290 0.40430 0.49880
C4 C 0.2609(2) 0.47571(15) 0.49166(11)
H4 H 0.27040 0.46670 0.44200
C5 C 0.3536(2) 0.52686(14) 0.53059(10)
H5 H 0.42510 0.55210 0.50680
C6 C 0.34175(17) 0.54120(12) 0.60510(9)
C7 C 0.43445(15) 0.60224(12) 0.64747(8)
C8 C 0.53212(15) 0.66520(12) 0.62466(8)
C9 C 0.58588(15) 0.67981(14) 0.55083(8)
C10 C 0.54220(18) 0.75864(16) 0.50552(9)
H6 H 0.48090 0.80530 0.52190
C11 C 0.5900(3) 0.7680(2) 0.43568(10)
H7 H 0.56110 0.82140 0.40580
C12 C 0.6789(3) 0.6993(3) 0.41067(11)
H8 H 0.71110 0.70640 0.36410
C13 C 0.7207(2) 0.6199(2) 0.45434(13)
H9 H 0.78030 0.57250 0.43700
C14 C 0.6749(2) 0.60967(18) 0.52423(11)
H10 H 0.70390 0.55550 0.55350
C15 C 0.51231(14) 0.67378(12) 0.74329(8)
C16 C 0.53902(15) 0.70021(13) 0.82028(8)
C17 C 0.46705(19) 0.76810(14) 0.86142(9)
C18 C 0.4959(3) 0.78953(19) 0.93326(12)
H11 H 0.44610 0.83570 0.95970
C19 C 0.5983(3) 0.7422(2) 0.96475(11)
H12 H 0.61880 0.75670 1.01260
C20 C 0.6698(2) 0.6741(2) 0.92610(12)
H13 H 0.73920 0.64190 0.94770
C21 C 0.64027(19) 0.6518(2) 0.85425(11)
H14 H 0.68920 0.60370 0.82880
C22 C 0.8477(2) 0.58423(16) 0.71153(13)
H15 H 0.79360 0.55920 0.67580
C23 C 0.9023(2) 0.51434(18) 0.75950(16)
H16 H 0.88330 0.44340 0.75640
C24 C 0.9841(3) 0.5492(2) 0.81139(19)
H17 H 1.02020 0.50260 0.84400
C25 C 1.0122(3) 0.6533(3) 0.81481(19)
H18 H 1.07020 0.67710 0.84890
C26 C 0.9552(2) 0.7242(2) 0.76789(14)
H19 H 0.97370 0.79510 0.77190
C27 C 0.87162(15) 0.69031(15) 0.71554(10)
C28 C 0.80645(16) 0.76837(14) 0.66683(10)
H20 H 0.79990 0.73900 0.61860
H21 H 0.85810 0.83100 0.66370
C29 C 0.67331(14) 0.79849(12) 0.69335(8)
H22 H 0.68110 0.81450 0.74500
C30 C 0.62316(17) 0.89749(13) 0.65685(9)
H23 H 0.62330 0.88800 0.60480
H24 H 0.53650 0.91000 0.67210
H25 H 0.658(2) 1.023(2) 0.7087(16)
#END
