
#######################################################################
#
#                 Cambridge Crystallographic Data Centre
#                                CCDC
#
#######################################################################
#
# If this CIF has been generated from an entry in the Cambridge
# Structural Database, then it will include bibliographic, chemical,
# crystal, experimental, refinement or atomic coordinate data resulting
# from the CCDC's data processing and validation procedures.
#
#######################################################################

data_CSD_CIF_DIXBAO
_audit_creation_date 2008-04-30
_audit_creation_method CSD-ConQuest-V1
_database_code_CSD DIXBAO
_database_code_depnum_ccdc_archive 'CCDC 683896'
_database_code_depnum_ccdc_journal 1267/2138
_chemical_formula_sum 'C16 H11 N3 O3'
_chemical_formula_moiety
;
C16 H11 N3 O3
;
_journal_coden_Cambridge 1267
_journal_volume 223
_journal_year 2008
_journal_page_first 37
_journal_name_full 'Z.Kristallogr.-New Cryst.Struct. '
loop_
_publ_author_name
"Lin-Hai Jing"
"Da-Bin Qin"
_chemical_name_systematic
;
N-(4-Nitrophenyl)quinoline-2-carboxamide
;
_cell_volume   1327.888
_exptl_crystal_colour 'colorless'
_exptl_crystal_density_diffrn 1.467
_exptl_crystal_description 'block'
_exptl_crystal_preparation 'dimethylsulfoxide'
_diffrn_ambient_temperature 153
#These two values have been output from a single CSD field.
_refine_ls_R_factor_gt 0.0351
_refine_ls_wR_factor_gt 0.0351
_symmetry_cell_setting monoclinic
_symmetry_space_group_name_H-M 'P 21/c'
_symmetry_Int_Tables_number 14
loop_
_symmetry_equiv_pos_site_id
_symmetry_equiv_pos_as_xyz
1 x,y,z
2 -x,1/2+y,1/2-z
3 -x,-y,-z
4 x,-1/2-y,-1/2+z
_cell_length_a 7.2928(3)
_cell_length_b 13.6807(6)
_cell_length_c 13.3131(7)
_cell_angle_alpha 90
_cell_angle_beta 91.349(1)
_cell_angle_gamma 90
_cell_formula_units_Z 4
loop_
_atom_type_symbol
_atom_type_radius_bond
C 0.68
H 0.23
N 0.68
O 0.68
loop_
_atom_site_label
_atom_site_type_symbol
_atom_site_fract_x
_atom_site_fract_y
_atom_site_fract_z
O1 O 0.17763(11) 0.62973(6) 0.35478(6)
O2 O 0.49925(14) 1.00816(6) 0.65747(7)
O3 O 0.58426(12) 0.92228(6) 0.78689(6)
N1 N 0.19711(11) 0.40071(6) 0.47587(6)
N2 N 0.28199(12) 0.58446(6) 0.51201(6)
N3 N 0.51471(13) 0.92958(6) 0.70222(7)
C1 C 0.16489(13) 0.46112(7) 0.40056(7)
C2 C 0.09295(14) 0.43237(8) 0.30568(7)
H1 H 0.07070 0.47920 0.25420
C3 C 0.05613(14) 0.33567(8) 0.28966(7)
H2 H 0.00650 0.31440 0.22680
C4 C 0.06458(14) 0.16570(7) 0.35519(8)
H3 H 0.01800 0.14070 0.29310
C5 C 0.10480(14) 0.10334(8) 0.43291(8)
H4 H 0.08820 0.03500 0.42400
C6 C 0.17082(14) 0.13965(8) 0.52632(8)
H5 H 0.19660 0.09560 0.57990
C7 C 0.19793(14) 0.23778(8) 0.54024(7)
H6 H 0.24100 0.26150 0.60360
C8 C 0.16195(12) 0.30373(7) 0.46058(7)
C9 C 0.09241(13) 0.26751(7) 0.36729(7)
C10 C 0.20798(13) 0.56772(7) 0.41903(7)
C11 C 0.33631(13) 0.67329(7) 0.55508(7)
C12 C 0.32907(14) 0.76266(7) 0.50409(7)
H7 H 0.28480 0.76560 0.43650
C13 C 0.38707(14) 0.84676(7) 0.55317(8)
H8 H 0.38350 0.90790 0.51930
C14 C 0.45017(13) 0.84128(7) 0.65173(8)
C15 C 0.45683(13) 0.75337(7) 0.70367(7)
H9 H 0.49990 0.75110 0.77150
C16 C 0.39976(13) 0.66948(7) 0.65492(7)
H10 H 0.40360 0.60870 0.68940
H11 H 0.2901(18) 0.5304(11) 0.5489(10)
#END
