
#######################################################################
#
#                 Cambridge Crystallographic Data Centre
#                                CCDC
#
#######################################################################
#
# If this CIF has been generated from an entry in the Cambridge
# Structural Database, then it will include bibliographic, chemical,
# crystal, experimental, refinement or atomic coordinate data resulting
# from the CCDC's data processing and validation procedures.
#
#######################################################################

data_CSD_CIF_DIXDUJ
_audit_creation_date 1987-02-04
_audit_creation_method CSD-ConQuest-V1
_database_code_CSD DIXDUJ
_chemical_formula_sum 'C8 H8 N2 O3'
_chemical_formula_moiety
;
C8 H8 N2 O3
;
_journal_coeditor_code "IUCr A25731"
_journal_coden_Cambridge 591
_journal_volume 42
_journal_year 1986
_journal_page_first 457
_journal_name_full 'Acta Crystallogr.,Sect.C:Cryst.Struct.Commun. '
loop_
_publ_author_name
"S.Kashino"
"T.Matsushita"
"T.Iwamoto"
"K.Yamaguchi"
"M.Haisa"
_chemical_name_systematic
;
o-Nitroacetanilide
;
_chemical_melting_point 364
_cell_volume    832.277
_exptl_crystal_density_diffrn 1.438
_exptl_special_details
;
Melting point range 364-367K

;
_diffrn_ambient_temperature ?
_diffrn_special_details
;
The study was carried out at room temperature,in the range 283-303K

;
#These two values have been output from a single CSD field.
_refine_ls_R_factor_gt 0.052
_refine_ls_wR_factor_gt 0.052
_symmetry_cell_setting monoclinic
_symmetry_space_group_name_H-M 'P 21/n'
_symmetry_Int_Tables_number 14
loop_
_symmetry_equiv_pos_site_id
_symmetry_equiv_pos_as_xyz
1 x,y,z
2 1/2-x,1/2+y,1/2-z
3 -x,-y,-z
4 -1/2+x,-1/2-y,-1/2+z
_cell_length_a 15.507(3)
_cell_length_b 4.9576(5)
_cell_length_c 10.924(2)
_cell_angle_alpha 90
_cell_angle_beta 97.68(1)
_cell_angle_gamma 90
_cell_formula_units_Z 4
loop_
_atom_type_symbol
_atom_type_radius_bond
C 0.68
H 0.30
N 0.68
O 0.68
loop_
_atom_site_label
_atom_site_type_symbol
_atom_site_fract_x
_atom_site_fract_y
_atom_site_fract_z
O1 O 0.51679(7) 0.2134(3) 0.7056(1)
O2 O 0.25813(6) -0.3590(2) 0.6666(1)
O3 O 0.13795(7) -0.1623(3) 0.6002(1)
N1 N 0.40270(7) -0.0741(2) 0.6612(1)
N2 N 0.21676(7) -0.1810(2) 0.6064(1)
C1 C 0.35153(8) 0.0625(3) 0.5662(1)
C2 C 0.26210(8) 0.0147(3) 0.5383(1)
C3 C 0.2107(1) 0.1544(3) 0.4445(1)
C4 C 0.2477(1) 0.3421(3) 0.3756(1)
C5 C 0.3357(1) 0.3924(3) 0.4014(2)
C6 C 0.3869(1) 0.2569(3) 0.4936(2)
C7 C 0.47877(8) 0.0122(3) 0.7282(1)
C8 C 0.5102(1) -0.1683(4) 0.8348(2)
H1 H 0.1494(9) 0.102(4) 0.426(1)
H2 H 0.211(1) 0.445(4) 0.306(2)
H3 H 0.3611(9) 0.517(3) 0.356(1)
H4 H 0.448(1) 0.286(4) 0.508(2)
H5 H 0.3794(9) -0.207(3) 0.692(1)
H6 H 0.470(2) -0.213(7) 0.885(3)
H7 H 0.558(1) -0.086(4) 0.898(2)
H8 H 0.537(2) -0.306(7) 0.806(4)
#END
