
#######################################################################
#
#                 Cambridge Crystallographic Data Centre
#                                CCDC
#
#######################################################################
#
# If this CIF has been generated from an entry in the Cambridge
# Structural Database, then it will include bibliographic, chemical,
# crystal, experimental, refinement or atomic coordinate data resulting
# from the CCDC's data processing and validation procedures.
#
#######################################################################

data_CSD_CIF_DIXLIF
_audit_creation_date 2000-06-05
_audit_creation_method CSD-ConQuest-V1
_database_code_CSD DIXLIF
_database_code_depnum_ccdc_archive 'CCDC 129640'
_database_code_depnum_ccdc_journal 188/212
_chemical_formula_sum 'C10 H18 N2 O2'
_chemical_formula_moiety
;
C10 H18 N2 O2
;
_journal_coden_Cambridge 188
_journal_year 2000
_journal_page_first 501
_journal_name_full 'J.Chem.Soc.,Perkin Trans.2 '
loop_
_publ_author_name
"A.W.Marsman"
"C.A.van Walree"
"R.W.A.Havenith"
"L.W.Jenneskens"
"M.Lutz"
"A.L.Spek"
"E.T.G.Lutz"
"J.H.van der Maas"
_chemical_name_systematic
;
(E,E)-2,2,5,5-Tetramethylcyclohexane-1,3-dione dioxime
;
_chemical_melting_point 511.15
_cell_volume    572.025
_exptl_crystal_colour 'colorless'
_exptl_crystal_density_diffrn 1.151
_exptl_special_details
;
Melts with decomposition.
Data sets were also collected at temperatures of 120, 140, 160, 180 and 
200deg.K
;
_exptl_crystal_description 'block'
_diffrn_ambient_temperature 100
#These two values have been output from a single CSD field.
_refine_ls_R_factor_gt 0.0221
_refine_ls_wR_factor_gt 0.0221
_symmetry_cell_setting triclinic
_symmetry_space_group_name_H-M 'P -1'
_symmetry_Int_Tables_number 2
loop_
_symmetry_equiv_pos_site_id
_symmetry_equiv_pos_as_xyz
1 x,y,z
2 -x,-y,-z
_cell_length_a 7.1363(2)
_cell_length_b 7.2813(2)
_cell_length_c 11.6544(3)
_cell_angle_alpha 87.8805(18)
_cell_angle_beta 72.1948(13)
_cell_angle_gamma 82.7986(16)
_cell_formula_units_Z 2
loop_
_atom_type_symbol
_atom_type_radius_bond
C 0.68
H 0.23
N 0.68
O 0.68
loop_
_atom_site_label
_atom_site_type_symbol
_atom_site_fract_x
_atom_site_fract_y
_atom_site_fract_z
O1 O 0.70083(8) 0.87407(9) 0.00008(5)
O2 O 0.19924(7) 0.35822(7) 0.46645(5)
N1 N 0.53232(5) 0.87500(4) 0.10109(3)
N2 N 0.19915(4) 0.53594(4) 0.41396(3)
C1 C 0.38565(4) 0.77205(4) 0.30320(2)
C2 C 0.55881(4) 0.77029(4) 0.18710(3)
C3 C 0.74918(4) 0.65135(5) 0.18228(3)
C4 C 0.71164(6) 0.44911(6) 0.21297(4)
C5 C 0.55955(4) 0.44531(4) 0.33889(3)
C6 C 0.37215(4) 0.57463(3) 0.35257(2)
C7 C 0.43397(7) 0.88638(4) 0.39805(3)
C8 C 0.19061(5) 0.86270(5) 0.28542(4)
C9 C 0.90492(6) 0.33384(7) 0.21630(4)
C10 C 0.63302(10) 0.36975(7) 0.11913(5)
H1 H 0.65120 0.96500 -0.05100
H2 H 0.06200 0.36970 0.52000
H3 H 0.81359 0.70292 0.24578
H4 H 0.85363 0.65770 0.09286
H5 H 0.52198 0.30563 0.35820
H6 H 0.62765 0.48197 0.40486
H7 H 0.57082 0.82395 0.41238
H8 H 0.31457 0.88802 0.48222
H9 H 0.44958 1.02675 0.36599
H10 H 0.07198 0.86040 0.36963
H11 H 0.15612 0.78650 0.21761
H12 H 0.20502 1.00438 0.25618
H13 H 0.87807 0.19118 0.23801
H14 H 0.95749 0.38882 0.28408
H15 H 1.01542 0.33850 0.12894
H16 H 0.49615 0.45170 0.11783
H17 H 0.60581 0.22798 0.14216
H18 H 0.74178 0.37346 0.03105
#END
