
#######################################################################
#
#                 Cambridge Crystallographic Data Centre
#                                CCDC
#
#######################################################################
#
# If this CIF has been generated from an entry in the Cambridge
# Structural Database, then it will include bibliographic, chemical,
# crystal, experimental, refinement or atomic coordinate data resulting
# from the CCDC's data processing and validation procedures.
#
#######################################################################

data_CSD_CIF_DMAOCD
_audit_creation_date 1980-12-11
_audit_creation_method CSD-ConQuest-V1
_database_code_CSD DMAOCD
_database_code_depnum_ccdc_archive 'CCDC 1142509'
_chemical_formula_sum 'C8 H12 N2 O1'
_chemical_formula_moiety
;
C8 H12 N2 O1
;
_journal_coden_Cambridge 10
_journal_volume 63
_journal_year 1980
_journal_page_first 1304
_journal_name_full 'Helv.Chim.Acta '
loop_
_publ_author_name
"A.W.Maverick"
"E.F.Maverick"
"H.Olsen"
_chemical_name_systematic
;
(+-)-8,8-Dimethyl-6,7-diazabicyclo(3.3.0)octa-1,6-dien-7-oxide
;
_chemical_melting_point 328.15
_cell_volume   1647.728
_exptl_crystal_colour 'colorless'
_exptl_crystal_density_diffrn 1.227
_exptl_special_details
;
Melting point range 328.15-329.15K
y(O9) should be 0.0678

;
_diffrn_ambient_temperature ?
_diffrn_special_details
;
The study was carried out at room temperature,in the range 283-303K

;
#These two values have been output from a single CSD field.
_refine_ls_R_factor_gt 0.046
_refine_ls_wR_factor_gt 0.046
_symmetry_cell_setting orthorhombic
_symmetry_space_group_name_H-M 'P b c a'
_symmetry_Int_Tables_number 61
loop_
_symmetry_equiv_pos_site_id
_symmetry_equiv_pos_as_xyz
1 x,y,z
2 1/2-x,-y,1/2+z
3 1/2+x,1/2-y,-z
4 -x,1/2+y,1/2-z
5 -x,-y,-z
6 -1/2+x,y,-1/2-z
7 -1/2-x,-1/2+y,z
8 x,-1/2-y,-1/2+z
_cell_length_a 8.953(2)
_cell_length_b 12.740(2)
_cell_length_c 14.446(3)
_cell_angle_alpha 90
_cell_angle_beta 90
_cell_angle_gamma 90
_cell_formula_units_Z 8
loop_
_atom_type_symbol
_atom_type_radius_bond
C 0.68
H 0.23
N 0.68
O 0.68
loop_
_atom_site_label
_atom_site_type_symbol
_atom_site_fract_x
_atom_site_fract_y
_atom_site_fract_z
C1 C 0.45930 0.29530 0.38200
C2 C 0.43460 0.39410 0.40240
C3 C 0.50330 0.46450 0.32950
C4 C 0.61700 0.39170 0.28210
C5 C 0.55180 0.28230 0.29620
N1 N 0.65560 0.19580 0.31760
N2 N 0.60330 0.14780 0.38740
C6 C 0.45530 0.19140 0.42950
O1 O 0.66100 0.06780 0.42280
C7 C 0.33160 0.11780 0.39830
C8 C 0.47040 0.19450 0.53420
H1 H 0.37900 0.42000 0.45400
H2 H 0.55300 0.52600 0.35600
H3 H 0.42200 0.49400 0.28600
H4 H 0.71800 0.39800 0.31400
H5 H 0.64300 0.41000 0.22200
H6 H 0.48700 0.25900 0.24400
H7 H 0.31800 0.11400 0.33600
H8 H 0.34800 0.04400 0.42200
H9 H 0.23600 0.13800 0.42900
H10 H 0.46900 0.12300 0.56000
H11 H 0.55500 0.23300 0.55500
H12 H 0.37400 0.23000 0.56200
#END
