
#######################################################################
#
#                 Cambridge Crystallographic Data Centre
#                                CCDC
#
#######################################################################
#
# If this CIF has been generated from an entry in the Cambridge
# Structural Database, then it will include bibliographic, chemical,
# crystal, experimental, refinement or atomic coordinate data resulting
# from the CCDC's data processing and validation procedures.
#
#######################################################################

data_CSD_CIF_DMEGLY
_audit_creation_date 1971-12-31
_audit_creation_method CSD-ConQuest-V1
_database_code_CSD DMEGLY
_database_code_depnum_ccdc_archive 'CCDC 1142616'
_chemical_formula_sum 'C4 H8 N2 O2'
_chemical_formula_moiety
;
C4 H8 N2 O2
;
_journal_coeditor_code "IUCr A03009"
_journal_coden_Cambridge 1
_journal_volume 14
_journal_year 1961
_journal_page_first 95
_journal_name_full 'Acta Crystallogr. '
loop_
_publ_author_name
"W.C.Hamilton"
_chemical_name_systematic
;
Dimethylglyoxime
;
_cell_volume    139.619
_diffrn_ambient_temperature ?
_diffrn_special_details
;
The study was carried out at room temperature,in the range 283-303K

;
#These two values have been output from a single CSD field.
_refine_ls_R_factor_gt 0.09
_refine_ls_wR_factor_gt 0.09
_symmetry_cell_setting triclinic
_symmetry_space_group_name_H-M 'P -1'
_symmetry_Int_Tables_number 2
loop_
_symmetry_equiv_pos_site_id
_symmetry_equiv_pos_as_xyz
1 x,y,z
2 -x,-y,-z
_cell_length_a 6.053
_cell_length_b 6.292
_cell_length_c 4.468
_cell_angle_alpha 122.36
_cell_angle_beta 91.56
_cell_angle_gamma 77.64
_cell_formula_units_Z 1
loop_
_atom_type_symbol
_atom_type_radius_bond
C 0.68
H 0.20
N 0.68
O 0.68
loop_
_atom_site_label
_atom_site_type_symbol
_atom_site_fract_x
_atom_site_fract_y
_atom_site_fract_z
C1 C 0.09070 0.01960 -0.09840
C2 C 0.29380 -0.19180 -0.30860
H1 H 0.41190 -0.21490 -0.14230
H2 H 0.25850 -0.37640 -0.38490
H3 H 0.36260 -0.16470 -0.50980
H4 H 0.16310 0.43040 -0.20480
N1 N 0.05260 0.24370 -0.03770
O1 O 0.21870 0.27180 -0.18960
C1A C -0.09070 -0.01960 0.09840
C2A C -0.29380 0.19180 0.30860
H1A H -0.41190 0.21490 0.14230
H2A H -0.25850 0.37640 0.38490
H3A H -0.36260 0.16470 0.50980
H4A H -0.16310 -0.43040 0.20480
N1A N -0.05260 -0.24370 0.03770
O1A O -0.21870 -0.27180 0.18960
#END
