
#######################################################################
#
#                 Cambridge Crystallographic Data Centre
#                                CCDC
#
#######################################################################
#
# If this CIF has been generated from an entry in the Cambridge
# Structural Database, then it will include bibliographic, chemical,
# crystal, experimental, refinement or atomic coordinate data resulting
# from the CCDC's data processing and validation procedures.
#
#######################################################################

data_CSD_CIF_DMEGLY03
_audit_creation_date 1981-05-18
_audit_creation_method CSD-ConQuest-V1
_database_code_CSD DMEGLY03
_chemical_formula_sum 'C4 H8 N2 O2'
_chemical_formula_moiety
;
C4 H8 N2 O2
;
_journal_coden_Cambridge 154
_journal_volume 33
_journal_year 1980
_journal_page_first 1519
_journal_name_full 'Aust.J.Chem. '
loop_
_publ_author_name
"C.L.Raston"
"B.W.Skelton"
"A.H.White"
_chemical_name_systematic
;
Dimethylglyoxime
;
_cell_volume    141.114
_exptl_crystal_density_diffrn 1.37
_diffrn_ambient_temperature ?
_diffrn_special_details
;
The study was carried out at room temperature,in the range 283-303K

;
#These two values have been output from a single CSD field.
_refine_ls_R_factor_gt 0.046
_refine_ls_wR_factor_gt 0.046
_symmetry_cell_setting triclinic
_symmetry_space_group_name_H-M 'P -1'
_symmetry_Int_Tables_number 2
loop_
_symmetry_equiv_pos_site_id
_symmetry_equiv_pos_as_xyz
1 x,y,z
2 -x,-y,-z
_cell_length_a 6.078(3)
_cell_length_b 6.319(3)
_cell_length_c 4.492(2)
_cell_angle_alpha 122.69(3)
_cell_angle_beta 91.71(4)
_cell_angle_gamma 77.72(4)
_cell_formula_units_Z 1
loop_
_atom_type_symbol
_atom_type_radius_bond
C 0.68
H 0.23
N 0.68
O 0.68
loop_
_atom_site_label
_atom_site_type_symbol
_atom_site_fract_x
_atom_site_fract_y
_atom_site_fract_z
H1 H 0.16060 0.41310 -0.16650
O1 O 0.22460 0.26510 -0.21910
N1 N 0.05140 0.23880 -0.04800
C1 C 0.08990 0.01620 -0.08740
C2 C 0.29460 -0.19580 -0.28960
H2 H 0.38480 -0.23080 -0.13850
H3 H 0.25270 -0.34890 -0.46860
H4 H 0.38800 -0.16400 -0.40200
C1A C -0.08990 -0.01620 0.08740
N1A N -0.05140 -0.23880 0.04800
C2A C -0.29460 0.19580 0.28960
O1A O -0.22460 -0.26510 0.21910
H2A H -0.38480 0.23080 0.13850
H3A H -0.25270 0.34890 0.46860
H4A H -0.38800 0.16400 0.40200
H1A H -0.16060 -0.41310 0.16650
#END
