
#######################################################################
#
#                 Cambridge Crystallographic Data Centre
#                                CCDC
#
#######################################################################
#
# If this CIF has been generated from an entry in the Cambridge
# Structural Database, then it will include bibliographic, chemical,
# crystal, experimental, refinement or atomic coordinate data resulting
# from the CCDC's data processing and validation procedures.
#
#######################################################################

data_CSD_CIF_DNBENZ14
_audit_creation_date 2003-02-20
_audit_creation_method CSD-ConQuest-V1
_database_code_CSD DNBENZ14
_database_code_depnum_ccdc_archive 'CCDC 201618'
_chemical_formula_sum 'C6 H4 N2 O4'
_chemical_formula_moiety
;
C6 H4 N2 O4
;
_journal_coeditor_code "IUCr NS0009"
_journal_coden_Cambridge 622
_journal_volume 58
_journal_year 2002
_journal_page_first 998
_journal_name_full 'Acta Crystallogr.,Sect.B:Struct.Sci. '
loop_
_publ_author_name
"G.Wojcik"
"I.Mossakowska"
"J.Holband"
"W.Bartkowiak"
_chemical_name_systematic
;
1,3-Dinitrobenzene
;
_chemical_name_common
;
m-Dinitrobenzene
;
_chemical_melting_point 364
_cell_volume    696.554
_exptl_crystal_colour 'colorless'
_exptl_crystal_density_diffrn 1.603
_exptl_crystal_description 'prism'
_exptl_crystal_preparation 'methanol'
_diffrn_ambient_temperature 200.0
#These two values have been output from a single CSD field.
_refine_ls_R_factor_gt 0.054
_refine_ls_wR_factor_gt 0.054
_symmetry_cell_setting orthorhombic
_symmetry_space_group_name_H-M 'P n a 21'
_symmetry_Int_Tables_number 33
loop_
_symmetry_equiv_pos_site_id
_symmetry_equiv_pos_as_xyz
1 x,y,z
2 -x,-y,1/2+z
3 1/2+x,1/2-y,z
4 1/2-x,1/2+y,1/2+z
_cell_length_a 14.069(2)
_cell_length_b 13.245(2)
_cell_length_c 3.738(1)
_cell_angle_alpha 90
_cell_angle_beta 90
_cell_angle_gamma 90
_cell_formula_units_Z 4
loop_
_atom_type_symbol
_atom_type_radius_bond
C 0.68
H 0.23
N 0.68
O 0.68
loop_
_atom_site_label
_atom_site_type_symbol
_atom_site_fract_x
_atom_site_fract_y
_atom_site_fract_z
C1 C 0.13479(14) 0.36197(14) 0.5644(7)
C2 C 0.05067(13) 0.32061(15) 0.4418(6)
H1 H 0.00200 0.36000 0.34790
C3 C 0.04367(14) 0.21651(16) 0.4682(7)
C4 C 0.11587(17) 0.15622(16) 0.5992(8)
H2 H 0.10860 0.08650 0.61080
C5 C 0.19935(15) 0.20174(18) 0.7130(8)
H3 H 0.24900 0.16230 0.79920
C6 C 0.20904(14) 0.30558(17) 0.6989(7)
H4 H 0.26440 0.33670 0.77840
N1 N -0.04551(14) 0.16957(17) 0.3447(7)
N2 N 0.14572(14) 0.47250(14) 0.5495(7)
O1 O 0.21314(16) 0.51008(15) 0.7081(9)
O2 O 0.08791(15) 0.52161(13) 0.3799(7)
O3 O -0.10015(14) 0.2206(2) 0.1703(8)
O4 O -0.06067(17) 0.08222(16) 0.4317(11)
#END
