
#######################################################################
#
#                 Cambridge Crystallographic Data Centre
#                                CCDC
#
#######################################################################
#
# If this CIF has been generated from an entry in the Cambridge
# Structural Database, then it will include bibliographic, chemical,
# crystal, experimental, refinement or atomic coordinate data resulting
# from the CCDC's data processing and validation procedures.
#
#######################################################################

data_CSD_CIF_DNBOIM
_audit_creation_date 1979-09-10
_audit_creation_method CSD-ConQuest-V1
_database_code_CSD DNBOIM
_chemical_formula_sum 'C10 H15 N3 O4'
_chemical_formula_moiety
;
C10 H15 N3 O4
;
_journal_coden_Cambridge 188
_journal_year 1979
_journal_page_first 300
_journal_name_full 'J.Chem.Soc.,Perkin Trans.2 '
loop_
_publ_author_name
"T.S.Cameron"
"R.E.Cordes"
"D.G.Morris"
"A.M.Murray"
_chemical_name_systematic
;
4,N-Dinitro-bornan-2-imine
;
_chemical_name_common
;
4,N-Dinitrocamphorimine
;
_cell_volume   1206.002
_exptl_crystal_colour 'colorless'
_exptl_crystal_density_diffrn 1.328
_exptl_special_details
;
H62 removed because of suspected coordinate error

;
_diffrn_ambient_temperature ?
_diffrn_special_details
;
The study was carried out at room temperature,in the range 283-303K

;
_refine_special_details
;
Both nitro groups are disordered. The nitrimino nitro oxygen atoms are 
disordered over 3 sites each,occupancy 1/3 each. One position for each O is 
retained. The oxygen atoms in the other nitro group are disordered over 2 
sites each, occupancy 0.5 each. One positon for each O is retained.
;
#These two values have been output from a single CSD field.
_refine_ls_R_factor_gt 0.059
_refine_ls_wR_factor_gt 0.059
_symmetry_cell_setting orthorhombic
_symmetry_space_group_name_H-M 'P 21 21 21'
_symmetry_Int_Tables_number 19
loop_
_symmetry_equiv_pos_site_id
_symmetry_equiv_pos_as_xyz
1 x,y,z
2 1/2+x,1/2-y,-z
3 -x,1/2+y,1/2-z
4 1/2-x,-y,1/2+z
_cell_length_a 7.629(6)
_cell_length_b 7.729(5)
_cell_length_c 20.453(8)
_cell_angle_alpha 90
_cell_angle_beta 90
_cell_angle_gamma 90
_cell_formula_units_Z 4
loop_
_atom_type_symbol
_atom_type_radius_bond
C 0.68
H 0.23
N 0.68
O 0.68
loop_
_atom_site_label
_atom_site_type_symbol
_atom_site_fract_x
_atom_site_fract_y
_atom_site_fract_z
C1 C 0.30970 0.80570 0.40830
C2 C 0.28980 0.95890 0.45200
C3 C 0.28490 1.11990 0.41100
C4 C 0.30760 1.03650 0.34320
C5 C 0.49970 0.97750 0.33750
C6 C 0.50260 0.82420 0.38420
C7 C 0.20200 0.86760 0.34780
C8 C 0.01190 0.89410 0.36140
C9 C 0.22310 0.74530 0.28910
C10 C 0.26480 0.63470 0.43740
N1 N 0.28260 0.94050 0.51350
N2 N 0.27190 1.10310 0.54930
N3 N 0.25830 1.15600 0.28970
O1 O 0.12600 1.15390 0.55910
O2 O 0.41120 1.16740 0.56770
O3 O 0.27790 1.11560 0.23320
O4 O 0.16530 1.27340 0.30210
H1 H 0.37800 1.20900 0.42100
H2 H 0.16900 1.18300 0.41500
H3 H 0.59900 1.04600 0.35400
H4 H 0.52500 0.94300 0.29000
H5 H 0.59000 0.83300 0.42100
H6 H -0.03900 0.77300 0.37300
H7 H -0.00700 0.96100 0.40500
H8 H -0.08000 0.94200 0.33000
H9 H 0.15900 0.63300 0.30100
H10 H 0.16100 0.79100 0.24800
H11 H 0.34500 0.71400 0.27600
H12 H 0.37800 0.65400 0.46800
H13 H 0.16800 0.58100 0.46900
H14 H 0.29500 0.53200 0.40300
#END
