
#######################################################################
#
#                 Cambridge Crystallographic Data Centre
#                                CCDC
#
#######################################################################
#
# If this CIF has been generated from an entry in the Cambridge
# Structural Database, then it will include bibliographic, chemical,
# crystal, experimental, refinement or atomic coordinate data resulting
# from the CCDC's data processing and validation procedures.
#
#######################################################################

data_CSD_CIF_DNBZPY
_audit_creation_date 1971-12-31
_audit_creation_method CSD-ConQuest-V1
_database_code_CSD DNBZPY
_chemical_formula_sum 'C12 H9 N3 O4'
_chemical_formula_moiety
;
C12 H9 N3 O4
;
_journal_coeditor_code "IUCr A06282"
_journal_coden_Cambridge 107
_journal_volume 24
_journal_year 1968
_journal_page_first 1406
_journal_name_full 'Acta Crystallogr.,Sect.B:Struct.Crystallogr.Cryst.Chem. '
loop_
_publ_author_name
"K.Seff"
"K.N.Trueblood"
_chemical_name_systematic
;
2-(2',4'-Dinitrobenzyl)pyridine
;
_cell_volume   1178.183
_exptl_crystal_density_diffrn 1.46
_exptl_special_details
;
SUSPECTED ERROR IN COORDS OF H5 and H 6 THESE ATOMS REMOVED

;
_diffrn_ambient_temperature ?
_diffrn_special_details
;
The study was carried out at room temperature,in the range 283-303K

;
#These two values have been output from a single CSD field.
_refine_ls_R_factor_gt 0.073
_refine_ls_wR_factor_gt 0.073
_symmetry_cell_setting monoclinic
_symmetry_space_group_name_H-M 'P 21/c'
_symmetry_Int_Tables_number 14
loop_
_symmetry_equiv_pos_site_id
_symmetry_equiv_pos_as_xyz
1 x,y,z
2 -x,1/2+y,1/2-z
3 -x,-y,-z
4 x,-1/2-y,-1/2+z
_cell_length_a 10.276(2)
_cell_length_b 15.198(3)
_cell_length_c 7.708(3)
_cell_angle_alpha 90
_cell_angle_beta 101.84(2)
_cell_angle_gamma 90
_cell_formula_units_Z 4
loop_
_atom_type_symbol
_atom_type_radius_bond
C 0.68
H 0.20
N 0.68
O 0.68
loop_
_atom_site_label
_atom_site_type_symbol
_atom_site_fract_x
_atom_site_fract_y
_atom_site_fract_z
C1 C 0.19340 -0.48000 -0.19030
C2 C 0.47320 -0.72760 0.15280
C3 C 0.51420 -0.64500 0.21160
C4 C 0.43080 -0.57520 0.15910
C5 C 0.12770 -0.40180 -0.24480
C6 C 0.10780 -0.37800 -0.42080
C7 C 0.15520 -0.43100 -0.53770
C8 C 0.21870 -0.50640 -0.47240
C9 C 0.21970 -0.50470 0.00410
C10 C 0.30550 -0.58550 0.05070
C11 C 0.26940 -0.67080 -0.00430
C12 C 0.35180 -0.74280 0.04260
H1 H 0.09900 -0.35800 -0.15200
H2 H 0.05300 -0.32300 -0.47300
H3 H 0.14000 -0.41000 -0.66400
H4 H 0.25000 -0.54100 -0.57800
H5 H 0.32300 -0.80200 0.00600
H6 H 0.58800 -0.64300 0.27400
H7 H 0.47400 -0.51600 0.19000
N1 N 0.23890 -0.53240 -0.30270
N2 N 0.13780 -0.69080 -0.11520
N3 N 0.56000 -0.80350 0.21060
O1 O 0.04370 -0.64600 -0.09580
O2 O 0.13000 -0.75210 -0.21790
O3 O 0.53150 -0.87420 0.13620
O4 O 0.65460 -0.79220 0.33030
#END
