
#######################################################################
#
#                 Cambridge Crystallographic Data Centre
#                                CCDC
#
#######################################################################
#
# If this CIF has been generated from an entry in the Cambridge
# Structural Database, then it will include bibliographic, chemical,
# crystal, experimental, refinement or atomic coordinate data resulting
# from the CCDC's data processing and validation procedures.
#
#######################################################################

data_CSD_CIF_DNBZPY01
_audit_creation_date 1998-06-26
_audit_creation_method CSD-ConQuest-V1
_database_code_CSD DNBZPY01
_database_code_depnum_ccdc_archive 'CCDC 120315'
_chemical_formula_sum 'C12 H9 N3 O4'
_chemical_formula_moiety
;
C12 H9 N3 O4
;
_journal_coden_Cambridge 37
_journal_volume 100
_journal_year 1996
_journal_page_first 16175
_journal_name_full 'J.Phys.Chem. '
loop_
_publ_author_name
"M.Scherl"
"D.Haarer"
"J.Fischer"
"A.De Cian"
"J.-M.Lehn"
"Y.Eichen"
_chemical_name_systematic
;
2-(2,4-Dinitrobenzyl)pyridine
;
_cell_volume   1154.851
_exptl_crystal_colour 'colorless'
_exptl_crystal_density_diffrn 1.491
_diffrn_ambient_temperature 173.15
#These two values have been output from a single CSD field.
_refine_ls_R_factor_gt 0.034
_refine_ls_wR_factor_gt 0.034
_symmetry_cell_setting monoclinic
_symmetry_space_group_name_H-M 'P 21/c'
_symmetry_Int_Tables_number 14
loop_
_symmetry_equiv_pos_site_id
_symmetry_equiv_pos_as_xyz
1 x,y,z
2 -x,1/2+y,1/2-z
3 -x,-y,-z
4 x,-1/2-y,-1/2+z
_cell_length_a 10.100(3)
_cell_length_b 15.178(4)
_cell_length_c 7.685(2)
_cell_angle_alpha 90
_cell_angle_beta 101.40(2)
_cell_angle_gamma 90
_cell_formula_units_Z 4
loop_
_atom_type_symbol
_atom_type_radius_bond
C 0.68
H 0.23
N 0.68
O 0.68
loop_
_atom_site_label
_atom_site_type_symbol
_atom_site_fract_x
_atom_site_fract_y
_atom_site_fract_z
C1 C 0.1939(2) 0.0846(1) 0.9478(2)
C2 C 0.2285(2) 0.1706(1) 1.0044(2)
C3 C 0.1449(2) 0.2419(1) 0.9568(3)
C4 C 0.0225(2) 0.2274(1) 0.8446(3)
C5 C -0.0182(2) 0.1444(1) 0.7840(3)
C6 C 0.0667(2) 0.0749(1) 0.8384(3)
N1 N 0.3604(2) 0.1909(1) 1.1161(2)
O1 O 0.4580(1) 0.1458(1) 1.0992(2)
O2 O 0.3680(2) 0.2532(1) 1.2178(2)
N2 N -0.0650(2) 0.3029(1) 0.7861(2)
O3 O -0.0367(2) 0.37347(9) 0.8614(2)
O4 O -0.1619(2) 0.2920(1) 0.6637(3)
C7 C 0.2811(2) 0.0045(1) 0.9955(3)
C8 C 0.3082(2) -0.0199(1) 1.1914(3)
C9 C 0.3757(2) -0.0975(2) 1.2456(3)
C10 C 0.3946(2) -0.1210(1) 1.4222(3)
C11 C 0.3456(2) -0.0677(1) 1.5384(3)
C12 C 0.2810(2) 0.0081(2) 1.4729(3)
N3 N 0.2618(2) 0.0335(1) 1.3026(2)
H1 H 0.17070 0.29920 1.00000
H2 H -0.10280 0.13550 0.70640
H3 H 0.03760 0.01730 0.79980
H4 H 0.40830 -0.13390 1.16280
H5 H 0.44110 -0.17370 1.46280
H6 H 0.35600 -0.08270 1.66030
H7 H 0.24740 0.04520 1.55370
H8 H 0.37240 0.01450 0.94680
H9 H 0.23060 -0.04910 0.92250
#END
