
#######################################################################
#
#                 Cambridge Crystallographic Data Centre
#                                CCDC
#
#######################################################################
#
# If this CIF has been generated from an entry in the Cambridge
# Structural Database, then it will include bibliographic, chemical,
# crystal, experimental, refinement or atomic coordinate data resulting
# from the CCDC's data processing and validation procedures.
#
#######################################################################

data_CSD_CIF_DNBZPY03
_audit_creation_date 2003-06-05
_audit_creation_method CSD-ConQuest-V1
_database_code_CSD DNBZPY03
_database_code_depnum_ccdc_archive 'CCDC 205042'
_chemical_formula_sum 'C12 H9 N3 O4'
_chemical_formula_moiety
;
C12 H9 N3 O4
;
_journal_coden_Cambridge 4
_journal_volume 124
_journal_year 2002
_journal_page_first 8540
_journal_name_full 'J.Am.Chem.Soc. '
loop_
_publ_author_name
"P.Naumov"
"A.Sekine"
"H.Uekusa"
"Y.Ohashi"
_chemical_name_systematic
;
2-(2',4'-Dinitrobenzyl)pyridine
;
_cell_volume   1142.750
_exptl_crystal_colour 'blue'
_exptl_crystal_density_diffrn 1.507
_exptl_special_details
;
irradiated product

;
_exptl_crystal_preparation 'ethanol'
_diffrn_ambient_temperature 77
_refine_special_details
;
The crystal contains 32.8% of the NH proton tranfer isomer.

;
#These two values have been output from a single CSD field.
_refine_ls_R_factor_gt 0.0476
_refine_ls_wR_factor_gt 0.0476
_symmetry_cell_setting monoclinic
_symmetry_space_group_name_H-M 'P 21/c'
_symmetry_Int_Tables_number 14
loop_
_symmetry_equiv_pos_site_id
_symmetry_equiv_pos_as_xyz
1 x,y,z
2 -x,1/2+y,1/2-z
3 -x,-y,-z
4 x,-1/2-y,-1/2+z
_cell_length_a 9.9727(1)
_cell_length_b 15.2094(1)
_cell_length_c 7.6778(1)
_cell_angle_alpha 90
_cell_angle_beta 101.106(1)
_cell_angle_gamma 90
_cell_formula_units_Z 4
loop_
_atom_type_symbol
_atom_type_radius_bond
C 0.68
H 0.23
N 0.68
O 0.68
loop_
_atom_site_label
_atom_site_type_symbol
_atom_site_fract_x
_atom_site_fract_y
_atom_site_fract_z
O1 O 0.3611(3) -0.2586(2) 0.7121(4)
O2 O -0.0385(4) -0.3741(2) 0.3650(5)
O3 O 0.4588(4) -0.1437(3) 0.5978(5)
O4 O -0.1723(3) -0.29158(19) 0.1651(5)
N1 N 0.2564(4) -0.0338(3) 0.8037(5)
N2 N -0.0685(4) -0.3045(2) 0.2886(5)
C1 C 0.2288(5) -0.1678(3) 0.5047(6)
C2 C 0.1902(6) -0.0821(4) 0.4448(8)
C3 C 0.3116(6) 0.0206(4) 0.6868(7)
C4 C 0.4004(4) 0.1183(3) 0.9298(6)
H1 H 0.45430 0.16760 0.97570
C5 C 0.1453(5) -0.2416(3) 0.4601(6)
H2 H 0.17280 -0.29820 0.50590
C6 C 0.0600(5) -0.0737(4) 0.3364(7)
H3 H 0.02840 -0.01660 0.29820
C7 C -0.0248(5) -0.1457(3) 0.2824(7)
H4 H -0.11060 -0.13840 0.20480
C8 C 0.3764(5) 0.0995(4) 0.7426(7)
H5 H 0.40360 0.13930 0.66060
C9 C 0.2768(4) -0.0031(3) 0.4954(6)
C10 C 0.3446(5) 0.0641(3) 1.0438(7)
H6 H 0.35470 0.07770 1.16640
C11 C 0.0203(5) -0.2288(3) 0.3460(6)
C12 C 0.2752(5) -0.0090(3) 0.9744(6)
H7 H 0.23700 -0.04520 1.05310
H8 H 0.235(3) 0.0456(16) 0.427(3)
H9 H 0.377(3) -0.0176(16) 0.454(3)
O5? O 0.3724(6) -0.2447(5) 0.7346(9)
O6? O -0.0593(8) -0.3700(4) 0.3436(10)
O7? O 0.4590(9) -0.1526(6) 0.6089(11)
O8? O -0.1603(7) -0.2887(4) 0.1356(11)
N3? N 0.2732(9) -0.0357(6) 0.8013(11)
H10? H 0.23850 -0.08720 0.76500
N4? N -0.0797(8) -0.2970(5) 0.2653(11)
C13? C 0.1973(13) -0.0888(8) 0.4482(17)
C14? C 0.0727(11) -0.0717(7) 0.3302(15)
H11? H 0.05210 -0.01310 0.29070
C15? C 0.3053(12) 0.0168(8) 0.6994(15)
C16? C 0.3954(9) 0.1276(6) 0.9107(12)
H12? H 0.42810 0.18560 0.93850
C17? C 0.2192(10) -0.1768(7) 0.5023(13)
C18? C -0.0195(11) -0.1376(7) 0.2711(14)
H13? H -0.10230 -0.12500 0.19080
C19? C 0.0103(10) -0.2216(7) 0.3301(13)
C20? C 0.3862(11) 0.0927(7) 0.7521(15)
H14? H 0.43500 0.11890 0.67070
C21? C 0.2936(9) -0.0075(6) 0.4913(12)
H15? H 0.33770 0.02260 0.40970
C22? C 0.3531(10) 0.0725(7) 1.0342(14)
H16? H 0.36330 0.08980 1.15500
C23? C 0.1302(11) -0.2428(7) 0.4464(13)
H17? H 0.14920 -0.30160 0.48550
C24? C 0.2932(10) -0.0118(7) 0.9756(13)
H18? H 0.26750 -0.05100 1.05980
N5 N 0.35909(13) -0.19147(9) 0.61727(17)
#END
