
#######################################################################
#
#                 Cambridge Crystallographic Data Centre
#                                CCDC
#
#######################################################################
#
# If this CIF has been generated from an entry in the Cambridge
# Structural Database, then it will include bibliographic, chemical,
# crystal, experimental, refinement or atomic coordinate data resulting
# from the CCDC's data processing and validation procedures.
#
#######################################################################

data_CSD_CIF_DNCOOC
_audit_creation_date 1979-02-14
_audit_creation_method CSD-ConQuest-V1
_database_code_CSD DNCOOC
_database_code_depnum_ccdc_archive 'CCDC 1142954'
_chemical_formula_sum 'C8 H6 N2 O4'
_chemical_formula_moiety
;
C8 H6 N2 O4
;
_journal_coden_Cambridge 189
_journal_volume 7
_journal_year 1978
_journal_page_first 693
_journal_name_full 'Cryst.Struct.Commun. '
loop_
_publ_author_name
"N.G.Furmanova"
"Yu.T.Struchkov"
_chemical_name_systematic
;
1,4-Dinitro-cyclo-octatetraene
;
_cell_volume    889.064
_diffrn_ambient_temperature ?
_diffrn_special_details
;
The study was carried out at room temperature,in the range 283-303K

;
#These two values have been output from a single CSD field.
_refine_ls_R_factor_gt 0.049
_refine_ls_wR_factor_gt 0.049
_symmetry_cell_setting orthorhombic
_symmetry_space_group_name_H-M 'P n 21 a'
_symmetry_Int_Tables_number 33
loop_
_symmetry_equiv_pos_site_id
_symmetry_equiv_pos_as_xyz
1 x,y,z
2 1/2-x,1/2+y,1/2+z
3 1/2+x,y,1/2-z
4 -x,1/2+y,-z
_cell_length_a 11.783(3)
_cell_length_b 4.717(1)
_cell_length_c 15.996(2)
_cell_angle_alpha 90
_cell_angle_beta 90
_cell_angle_gamma 90
_cell_formula_units_Z 4
loop_
_atom_type_symbol
_atom_type_radius_bond
C 0.68
H 0.23
N 0.68
O 0.68
loop_
_atom_site_label
_atom_site_type_symbol
_atom_site_fract_x
_atom_site_fract_y
_atom_site_fract_z
C1 C 0.12980 0.06400 0.18410
C2 C 0.09320 0.18000 0.10190
C3 C 0.15640 0.17900 0.03460
C4 C 0.26870 0.04700 0.02990
C5 C 0.36280 0.10800 0.07190
C6 C 0.37170 0.31400 0.13860
C7 C 0.30820 0.31800 0.20810
C8 C 0.21800 0.12600 0.23020
N1 N 0.04590 -0.13800 0.21940
N2 N 0.27890 -0.15800 -0.03930
O1 O 0.06400 -0.24700 0.28610
O2 O -0.03930 -0.18300 0.17770
O3 O 0.19570 -0.19600 -0.08220
O4 O 0.36770 -0.28800 -0.05060
H1 H 0.02350 0.27600 0.10440
H2 H 0.11740 0.23400 -0.02850
H3 H 0.42490 -0.01200 0.05090
H4 H 0.43880 0.45000 0.13890
H5 H 0.33870 0.44600 0.25850
H6 H 0.23060 0.02700 0.29160
#END
