
#######################################################################
#
#                 Cambridge Crystallographic Data Centre
#                                CCDC
#
#######################################################################
#
# If this CIF has been generated from an entry in the Cambridge
# Structural Database, then it will include bibliographic, chemical,
# crystal, experimental, refinement or atomic coordinate data resulting
# from the CCDC's data processing and validation procedures.
#
#######################################################################

data_CSD_CIF_DNITBZ
_audit_creation_date 1971-12-31
_audit_creation_method CSD-ConQuest-V1
_database_code_CSD DNITBZ
_database_code_depnum_ccdc_archive 'CCDC 1142964'
_chemical_formula_sum 'C6 H4 N2 O4'
_chemical_formula_moiety
;
C6 H4 N2 O4
;
_journal_coden_Cambridge 15
_journal_volume 39
_journal_year 1961
_journal_page_first 1638
_journal_name_full 'Can.J.Chem. '
loop_
_publ_author_name
"J.Trotter"
_chemical_name_systematic
;
p-Dinitrobenzene
;
_cell_volume    338.112
_diffrn_ambient_temperature ?
_diffrn_special_details
;
The study was carried out at room temperature,in the range 283-303K

;
#These two values have been output from a single CSD field.
_refine_ls_R_factor_gt 0.19
_refine_ls_wR_factor_gt 0.19
_symmetry_cell_setting monoclinic
_symmetry_space_group_name_H-M 'P 21/n'
_symmetry_Int_Tables_number 14
loop_
_symmetry_equiv_pos_site_id
_symmetry_equiv_pos_as_xyz
1 x,y,z
2 1/2-x,1/2+y,1/2-z
3 -x,-y,-z
4 -1/2+x,-1/2-y,-1/2+z
_cell_length_a 11.05
_cell_length_b 5.42
_cell_length_c 5.65
_cell_angle_alpha 90
_cell_angle_beta 92.3
_cell_angle_gamma 90
_cell_formula_units_Z 2
loop_
_atom_type_symbol
_atom_type_radius_bond
C 0.68
N 0.68
O 0.68
loop_
_atom_site_label
_atom_site_type_symbol
_atom_site_fract_x
_atom_site_fract_y
_atom_site_fract_z
C1 C 0.06880 0.18190 0.08850
C2 C -0.03170 0.11770 0.20420
C3 C 0.10060 0.07250 -0.11650
N1 N 0.14400 0.39030 0.18580
O1 O 0.21710 0.47190 0.05870
O2 O 0.12310 0.46240 0.38110
C3B C -0.10060 -0.07250 0.11650
C2B C 0.03170 -0.11770 -0.20420
C1B C -0.06880 -0.18190 -0.08850
N1B N -0.14400 -0.39030 -0.18580
O1B O -0.21710 -0.47190 -0.05870
O2B O -0.12310 -0.46240 -0.38110
#END
