
#######################################################################
#
#                 Cambridge Crystallographic Data Centre
#                                CCDC
#
#######################################################################
#
# If this CIF has been generated from an entry in the Cambridge
# Structural Database, then it will include bibliographic, chemical,
# crystal, experimental, refinement or atomic coordinate data resulting
# from the CCDC's data processing and validation procedures.
#
#######################################################################

data_CSD_CIF_DNITBZ12
_audit_creation_date 2018-09-13
_audit_creation_method CSD-ConQuest-V1
_database_code_CSD DNITBZ12
_database_code_depnum_ccdc_archive 'CCDC 1847376'
_chemical_formula_sum 'C6 H4 N2 O4'
_chemical_formula_moiety
;
C6 H4 N2 O4
;
_journal_coden_Cambridge 1326
_journal_volume 20
_journal_year 2018
_journal_page_first 24192
_journal_name_full 'Phys.Chem.Chem.Phys.(PCCP) '
loop_
_publ_author_name
"E.C.Escudero-Adan"
"A.Bauza"
"C.Lecomte"
"A.Frontera"
"P.Ballester"
_chemical_name_systematic
;
1,4-dinitrobenzene
;
_cell_volume    331.991
_exptl_crystal_colour 'orange'
_exptl_crystal_density_diffrn 1.682
_exptl_crystal_description 'block'
_diffrn_ambient_temperature 90
#These two values have been output from a single CSD field.
_refine_ls_R_factor_gt 0.0288
_refine_ls_wR_factor_gt 0.0288
_symmetry_cell_setting monoclinic
_symmetry_space_group_name_H-M 'P 21/n'
_symmetry_Int_Tables_number 14
loop_
_symmetry_equiv_pos_site_id
_symmetry_equiv_pos_as_xyz
1 x,y,z
2 1/2-x,1/2+y,1/2-z
3 -x,-y,-z
4 -1/2+x,-1/2-y,-1/2+z
_cell_length_a 5.66357(3)
_cell_length_b 5.37326(3)
_cell_length_c 10.91612(7)
_cell_angle_alpha 90
_cell_angle_beta 92.0201(5)
_cell_angle_gamma 90
_cell_formula_units_Z 2
loop_
_atom_type_symbol
_atom_type_radius_bond
C 0.68
H 0.23
N 0.68
O 0.68
loop_
_atom_site_label
_atom_site_type_symbol
_atom_site_fract_x
_atom_site_fract_y
_atom_site_fract_z
N1 N 0.68916(4) 0.10521(4) 0.14348(2)
O1 O 0.56543(4) 0.01495(5) 0.22216(2)
O2 O 0.89034(4) 0.03576(5) 0.12331(2)
C1 C 0.59036(3) 0.31048(4) 0.06864(2)
C2 C 0.37975(4) 0.41777(4) 0.10329(2)
C3 C 0.71297(4) 0.38720(4) -0.03290(2)
H1 H 0.2997(17) 0.3683(19) 0.1701(9)
H2 H 0.8663(15) 0.3059(19) -0.0508(9)
N1B N 0.31084(4) 0.89479(4) -0.14348(2)
O1B O 0.43457(4) 0.98505(5) -0.22216(2)
O2B O 0.10966(4) 0.96424(5) -0.12331(2)
C1B C 0.40964(3) 0.68952(4) -0.06864(2)
C2B C 0.62025(4) 0.58223(4) -0.10329(2)
C3B C 0.28703(4) 0.61280(4) 0.03290(2)
H1B H 0.7003(17) 0.6317(19) -0.1701(9)
H2B H 0.1337(15) 0.6941(19) 0.0508(9)
#END
