
#######################################################################
#
#                 Cambridge Crystallographic Data Centre
#                                CCDC
#
#######################################################################
#
# If this CIF has been generated from an entry in the Cambridge
# Structural Database, then it will include bibliographic, chemical,
# crystal, experimental, refinement or atomic coordinate data resulting
# from the CCDC's data processing and validation procedures.
#
#######################################################################

data_CSD_CIF_DNITPY
_audit_creation_date 1975-01-07
_audit_creation_method CSD-ConQuest-V1
_database_code_CSD DNITPY
_chemical_formula_sum 'C5 H3 N3 O4'
_chemical_formula_moiety
;
C5 H3 N3 O4
;
_journal_coeditor_code "IUCr A11213"
_journal_coden_Cambridge 107
_journal_volume 30
_journal_year 1974
_journal_page_first 2071
_journal_name_full 'Acta Crystallogr.,Sect.B:Struct.Crystallogr.Cryst.Chem. '
loop_
_publ_author_name
"R.Destro"
"T.Pilati"
"M.Simonetta"
_chemical_name_systematic
;
3,5-Dinitropyridine
;
_cell_volume    678.875
_exptl_crystal_density_diffrn 1.654
_diffrn_ambient_temperature ?
_diffrn_special_details
;
The study was carried out at room temperature,in the range 283-303K

;
#These two values have been output from a single CSD field.
_refine_ls_R_factor_gt 0.046
_refine_ls_wR_factor_gt 0.046
_symmetry_cell_setting orthorhombic
_symmetry_space_group_name_H-M 'P 21 21 21'
_symmetry_Int_Tables_number 19
loop_
_symmetry_equiv_pos_site_id
_symmetry_equiv_pos_as_xyz
1 x,y,z
2 1/2+x,1/2-y,-z
3 -x,1/2+y,1/2-z
4 1/2-x,-y,1/2+z
_cell_length_a 19.918(3)
_cell_length_b 6.465(1)
_cell_length_c 5.272(1)
_cell_angle_alpha 90
_cell_angle_beta 90
_cell_angle_gamma 90
_cell_formula_units_Z 4
loop_
_atom_type_symbol
_atom_type_radius_bond
C 0.68
H 0.20
N 0.68
O 0.68
loop_
_atom_site_label
_atom_site_type_symbol
_atom_site_fract_x
_atom_site_fract_y
_atom_site_fract_z
C1 C 0.19202 0.37562 -0.20983
C2 C 0.15387 0.33113 -0.41980
C3 C 0.10485 0.46190 -0.50100
C4 C 0.09655 0.63847 -0.36090
C5 C 0.13539 0.67647 -0.15059
H1 H 0.22700 0.28000 -0.16200
H2 H 0.07700 0.43000 -0.63500
H3 H 0.12600 0.80500 -0.05300
N1 N 0.18321 0.54688 -0.07504
N2 N 0.16656 0.13727 -0.55659
N3 N 0.04548 0.79044 -0.43547
O1 O 0.20592 0.01465 -0.46275
O2 O 0.13672 0.10993 -0.75410
O3 O 0.01342 0.75354 -0.62448
O4 O 0.03913 0.94443 -0.30572
#END
