
#######################################################################
#
#                 Cambridge Crystallographic Data Centre
#                                CCDC
#
#######################################################################
#
# If this CIF has been generated from an entry in the Cambridge
# Structural Database, then it will include bibliographic, chemical,
# crystal, experimental, refinement or atomic coordinate data resulting
# from the CCDC's data processing and validation procedures.
#
#######################################################################

data_CSD_CIF_DNOPHL
_audit_creation_date 1977-06-01
_audit_creation_method CSD-ConQuest-V1
_database_code_CSD DNOPHL
_database_code_depnum_ccdc_archive 'CCDC 1142976'
_chemical_formula_sum 'C6 H4 N2 O5'
_chemical_formula_moiety
;
C6 H4 N2 O5
;
_journal_coeditor_code "IUCr A13800"
_journal_coden_Cambridge 107
_journal_volume 32
_journal_year 1976
_journal_page_first 3171
_journal_name_full 'Acta Crystallogr.,Sect.B:Struct.Crystallogr.Cryst.Chem. '
loop_
_publ_author_name
"T.Kagawa"
"R.Kawai"
"S.Kashino"
"M.Haisa"
_chemical_name_systematic
;
2,4-Dinitrophenol
;
_chemical_melting_point 457.15
_cell_volume    733.357
_exptl_crystal_density_diffrn 1.667
_diffrn_ambient_temperature ?
_diffrn_special_details
;
The study was carried out at room temperature,in the range 283-303K

;
#These two values have been output from a single CSD field.
_refine_ls_R_factor_gt 0.076
_refine_ls_wR_factor_gt 0.076
_symmetry_cell_setting orthorhombic
_symmetry_space_group_name_H-M 'P 21 21 21'
_symmetry_Int_Tables_number 19
loop_
_symmetry_equiv_pos_site_id
_symmetry_equiv_pos_as_xyz
1 x,y,z
2 1/2+x,1/2-y,-z
3 -x,1/2+y,1/2-z
4 1/2-x,-y,1/2+z
_cell_length_a 6.106(6)
_cell_length_b 23.24(2)
_cell_length_c 5.168(5)
_cell_angle_alpha 90
_cell_angle_beta 90
_cell_angle_gamma 90
_cell_formula_units_Z 4
loop_
_atom_type_symbol
_atom_type_radius_bond
C 0.68
H 0.23
N 0.68
O 0.68
loop_
_atom_site_label
_atom_site_type_symbol
_atom_site_fract_x
_atom_site_fract_y
_atom_site_fract_z
O1 O -0.17770 0.09140 0.12910
O2 O -0.11940 0.01860 0.50320
O3 O 0.15090 0.02640 0.76210
O4 O 0.68800 0.17410 0.64940
O5 O 0.67370 0.23060 0.32450
N1 N 0.04920 0.04250 0.57730
N2 N 0.60000 0.19130 0.45610
C1 C 0.01050 0.11270 0.21680
C2 C 0.12710 0.09110 0.42960
C3 C 0.32310 0.11680 0.50740
C4 C 0.39720 0.16360 0.37280
C5 C 0.28560 0.18560 0.16270
C6 C 0.09480 0.16030 0.08590
H1 H -0.21300 0.05500 0.19600
H2 H 0.39700 0.10300 0.68200
H3 H 0.34000 0.21900 0.07100
H4 H 0.01300 0.17200 -0.05700
#END
