
#######################################################################
#
#                 Cambridge Crystallographic Data Centre
#                                CCDC
#
#######################################################################
#
# If this CIF has been generated from an entry in the Cambridge
# Structural Database, then it will include bibliographic, chemical,
# crystal, experimental, refinement or atomic coordinate data resulting
# from the CCDC's data processing and validation procedures.
#
#######################################################################

data_CSD_CIF_DNOPHL02
_audit_creation_date 2009-03-24
_audit_creation_method CSD-ConQuest-V1
_database_code_CSD DNOPHL02
_database_code_depnum_ccdc_archive 'CCDC 693105'
_chemical_formula_sum 'C6 H4 N2 O5'
_chemical_formula_moiety
;
C6 H4 N2 O5
;
_journal_coden_Cambridge 1078
_journal_year 2008
_journal_name_full 'CSD Communication(Private Communication) '
loop_
_publ_author_name
"J.R.Deschamps"
_chemical_name_systematic
;
2,4-Dinitrophenol
;
_cell_volume    712.996
_exptl_crystal_colour 'colorless'
_exptl_special_details
;
contribution from Naval Research Laboratory, Code 6030 4555 Overlook Ave. 
Washington, DC 20375
;
_exptl_crystal_description 'rod'
_diffrn_ambient_temperature 123
#These two values have been output from a single CSD field.
_refine_ls_R_factor_gt 0.04
_refine_ls_wR_factor_gt 0.04
_symmetry_cell_setting orthorhombic
_symmetry_space_group_name_H-M 'P 21 21 21'
_symmetry_Int_Tables_number 19
loop_
_symmetry_equiv_pos_site_id
_symmetry_equiv_pos_as_xyz
1 x,y,z
2 1/2-x,-y,1/2+z
3 -x,1/2+y,1/2-z
4 1/2+x,1/2-y,-z
_cell_length_a 5.0907(7)
_cell_length_b 6.1327(9)
_cell_length_c 22.838(4)
_cell_angle_alpha 90
_cell_angle_beta 90
_cell_angle_gamma 90
_cell_formula_units_Z 4
loop_
_atom_type_symbol
_atom_type_radius_bond
C 0.68
H 0.23
N 0.68
O 0.68
loop_
_atom_site_label
_atom_site_type_symbol
_atom_site_fract_x
_atom_site_fract_y
_atom_site_fract_z
C1 C 0.7695(4) 1.0126(3) 0.11316(9)
O1 O 0.8570(3) 0.8236(2) 0.09201(6)
H1 H 0.78570 0.79890 0.05950
C2 C 0.5550(4) 1.1323(4) 0.09168(8)
N1 N 0.4011(4) 1.0513(3) 0.04247(8)
O2 O 0.2071(3) 1.1541(2) 0.02685(7)
O3 O 0.4722(3) 0.8817(3) 0.01800(7)
C3 C 0.4783(4) 1.3288(3) 0.11635(8)
H2 H 0.33310 1.40810 0.10120
C4 C 0.6193(4) 1.4053(3) 0.16342(8)
N2 N 0.5406(3) 1.6096(3) 0.19075(8)
O4 O 0.6768(3) 1.6833(3) 0.23050(6)
O5 O 0.3407(3) 1.7002(3) 0.17247(7)
C5 C 0.8351(4) 1.2923(3) 0.18622(9)
H3 H 0.92990 1.34900 0.21860
C6 C 0.9074(4) 1.0989(3) 0.16110(9)
H4 H 1.05380 1.02150 0.17640
#END
