
#######################################################################
#
#                 Cambridge Crystallographic Data Centre
#                                CCDC
#
#######################################################################
#
# If this CIF has been generated from an entry in the Cambridge
# Structural Database, then it will include bibliographic, chemical,
# crystal, experimental, refinement or atomic coordinate data resulting
# from the CCDC's data processing and validation procedures.
#
#######################################################################

data_CSD_CIF_DNPHOL02
_audit_creation_date 2015-03-13
_audit_creation_method CSD-ConQuest-V1
_database_code_CSD DNPHOL02
_database_code_depnum_ccdc_archive 'CCDC 1053917'
_chemical_formula_sum 'C6 H4 N2 O5'
_chemical_formula_moiety
;
C6 H4 N2 O5
;
_journal_coden_Cambridge 1147
_journal_volume 15
_journal_year 2015
_journal_page_first 875
_journal_name_full 'Cryst.Growth Des. '
loop_
_publ_author_name
"S.Cenedese"
"V.V.Zhurov"
"A.Alan Pinkerton"
_chemical_name_systematic
;
2,6-Dinitrophenol
;
_cell_volume    684.302
_exptl_crystal_colour 'yellow'
_exptl_crystal_density_diffrn 1.787
_exptl_crystal_description 'prism'
_diffrn_ambient_temperature 20
_refine_special_details
;
multipole refinement

;
#These two values have been output from a single CSD field.
_refine_ls_R_factor_gt 0.012
_refine_ls_wR_factor_gt 0.012
_symmetry_cell_setting orthorhombic
_symmetry_space_group_name_H-M 'P n a 21'
_symmetry_Int_Tables_number 33
loop_
_symmetry_equiv_pos_site_id
_symmetry_equiv_pos_as_xyz
1 x,y,z
2 -x,-y,1/2+z
3 1/2+x,1/2-y,z
4 1/2-x,1/2+y,1/2+z
_cell_length_a 12.4092(2)
_cell_length_b 4.6608(1)
_cell_length_c 11.8316(2)
_cell_angle_alpha 90
_cell_angle_beta 90
_cell_angle_gamma 90
_cell_formula_units_Z 4
loop_
_atom_type_symbol
_atom_type_radius_bond
C 0.68
H 0.23
N 0.68
O 0.68
loop_
_atom_site_label
_atom_site_type_symbol
_atom_site_fract_x
_atom_site_fract_y
_atom_site_fract_z
O1 O 0.163000(15) 0.36923(6) 1.10269(2)
O2 O 0.018630(14) 0.73666(5) 1.153083(19)
O3 O -0.045995(14) 1.02299(5) 1.026838(19)
O4 O 0.360670(14) 0.08798(5) 0.84991(2)
O5 O 0.294856(13) 0.00074(5) 1.01542(2)
N1 N 0.012563(10) 0.82433(4) 1.054071(16)
N2 N 0.296287(10) 0.13583(3) 0.926631(16)
C1 C 0.152467(11) 0.46954(4) 0.99819
C2 C 0.078996(12) 0.68981(4) 0.968298(17)
C3 C 0.069941(12) 0.79696(4) 0.858567(16)
C4 C 0.135795(12) 0.69030(4) 0.773882(17)
C5 C 0.209554(12) 0.47493(4) 0.799536(17)
C6 C 0.217236(11) 0.36497(4) 0.908605(16)
H1 H 0.11324 0.47964 1.15153
H2 H 0.0124(6) 0.9604(18) 0.8418(5)
H3 H 0.1313(4) 0.7682(13) 0.6918(9)
H4 H 0.2615(6) 0.3909(13) 0.7357(7)
#END
