
#######################################################################
#
#                 Cambridge Crystallographic Data Centre
#                                CCDC
#
#######################################################################
#
# If this CIF has been generated from an entry in the Cambridge
# Structural Database, then it will include bibliographic, chemical,
# crystal, experimental, refinement or atomic coordinate data resulting
# from the CCDC's data processing and validation procedures.
#
#######################################################################

data_CSD_CIF_DNPIMZ
_audit_creation_date 1973-06-10
_audit_creation_method CSD-ConQuest-V1
_database_code_CSD DNPIMZ
_database_code_depnum_ccdc_archive 'CCDC 1142984'
_chemical_formula_sum 'C6 H8 N4 O4'
_chemical_formula_moiety
;
C6 H8 N4 O4
;
_journal_coden_Cambridge 15
_journal_volume 50
_journal_year 1972
_journal_page_first 3472
_journal_name_full 'Can.J.Chem. '
loop_
_publ_author_name
"R.S.Glass"
"J.F.Blount"
"D.Butler"
"A.Perrotta"
"E.P.Oliveto"
_chemical_name_systematic
;
1,4-Dinitro-2-isopropylimidazole
;
_chemical_melting_point 349.15
_cell_volume    930.721
_exptl_crystal_density_diffrn 1.428
_exptl_special_details
;
Melting point range 349.15-350.15K

;
_diffrn_ambient_temperature ?
_diffrn_special_details
;
The study was carried out at room temperature,in the range 283-303K

;
#These two values have been output from a single CSD field.
_refine_ls_R_factor_gt 0.044
_refine_ls_wR_factor_gt 0.044
_symmetry_cell_setting monoclinic
_symmetry_space_group_name_H-M 'P 21/c'
_symmetry_Int_Tables_number 14
loop_
_symmetry_equiv_pos_site_id
_symmetry_equiv_pos_as_xyz
1 x,y,z
2 -x,1/2+y,1/2-z
3 -x,-y,-z
4 x,-1/2-y,-1/2+z
_cell_length_a 15.488(5)
_cell_length_b 6.072(3)
_cell_length_c 10.030(5)
_cell_angle_alpha 90
_cell_angle_beta 99.35(3)
_cell_angle_gamma 90
_cell_formula_units_Z 4
loop_
_atom_type_symbol
_atom_type_radius_bond
C 0.68
H 0.20
N 0.68
O 0.68
loop_
_atom_site_label
_atom_site_type_symbol
_atom_site_fract_x
_atom_site_fract_y
_atom_site_fract_z
C1 C 0.25730 0.48320 -0.14590
C2 C 0.16320 0.66040 -0.05560
C3 C 0.11800 0.48280 -0.10790
C4 C 0.34100 0.40960 -0.18870
C5 C 0.39560 0.61130 -0.21090
C6 C 0.38680 0.24700 -0.08200
H1 H 0.06300 0.43800 -0.11000
H2 H 0.32800 0.33700 -0.27000
H3 H 0.44400 0.57400 -0.22300
H4 H 0.36900 0.70200 -0.27100
H5 H 0.40900 0.70000 -0.12900
H6 H 0.40200 0.35500 -0.00900
H7 H 0.43400 0.21000 -0.11700
H8 H 0.34300 0.11900 -0.07500
N1 N 0.17830 0.36900 -0.16610
N2 N 0.15580 0.17120 -0.24020
N3 N 0.24760 0.66300 -0.07870
N4 N 0.13020 0.83240 0.02050
O1 O 0.21420 0.07540 -0.28000
O2 O 0.08010 0.12120 -0.25570
O3 O 0.17550 0.99750 0.04640
O4 O 0.05910 0.80560 0.05390
#END
