
#######################################################################
#
#                 Cambridge Crystallographic Data Centre
#                                CCDC
#
#######################################################################
#
# If this CIF has been generated from an entry in the Cambridge
# Structural Database, then it will include bibliographic, chemical,
# crystal, experimental, refinement or atomic coordinate data resulting
# from the CCDC's data processing and validation procedures.
#
#######################################################################

data_CSD_CIF_DNTNAP01
_audit_creation_date 1978-05-18
_audit_creation_method CSD-ConQuest-V1
_database_code_CSD DNTNAP01
_chemical_formula_sum 'C10 H6 N2 O4'
_chemical_formula_moiety
;
C10 H6 N2 O4
;
_journal_coden_Cambridge 208
_journal_volume 22
_journal_year 1977
_journal_page_first 185
_journal_name_full 'J.Solid State Chem. '
loop_
_publ_author_name
"M.Ciechanowicz-Rutkowska"
_chemical_name_systematic
;
1,8-Dinitronaphthalene
;
_cell_volume    917.734
_exptl_crystal_density_diffrn 1.584
_exptl_special_details
;
orthorhombic polymorph

;
_diffrn_ambient_temperature ?
_diffrn_special_details
;
The study was carried out at room temperature,in the range 283-303K

;
#These two values have been output from a single CSD field.
_refine_ls_R_factor_gt 0.049
_refine_ls_wR_factor_gt 0.049
_symmetry_cell_setting orthorhombic
_symmetry_space_group_name_H-M 'P 21 21 21'
_symmetry_Int_Tables_number 19
loop_
_symmetry_equiv_pos_site_id
_symmetry_equiv_pos_as_xyz
1 x,y,z
2 1/2+x,1/2-y,-z
3 -x,1/2+y,1/2-z
4 1/2-x,-y,1/2+z
_cell_length_a 11.375(1)
_cell_length_b 14.974(5)
_cell_length_c 5.388(1)
_cell_angle_alpha 90
_cell_angle_beta 90
_cell_angle_gamma 90
_cell_formula_units_Z 4
loop_
_atom_type_symbol
_atom_type_radius_bond
C 0.68
H 0.23
N 0.68
O 0.68
loop_
_atom_site_label
_atom_site_type_symbol
_atom_site_fract_x
_atom_site_fract_y
_atom_site_fract_z
O1 O -0.34420 -0.25070 -0.18910
O2 O -0.34200 -0.20830 0.19460
O3 O -0.59110 -0.24430 -0.47930
O4 O -0.58300 -0.22350 -0.08330
N1 N -0.36140 -0.26310 0.03290
N2 N -0.57760 -0.27090 -0.26730
C1 C -0.40160 -0.35280 0.10600
C2 C -0.34300 -0.38980 0.30290
C3 C -0.36100 -0.48060 0.35990
C4 C -0.43310 -0.53120 0.21780
C5 C -0.57280 -0.54820 -0.12740
C6 C -0.63550 -0.51320 -0.32060
C7 C -0.63020 -0.42110 -0.36810
C8 C -0.56030 -0.36730 -0.22880
C9 C -0.48560 -0.40000 -0.03670
C10 C -0.49660 -0.49300 0.01650
H1 H -0.28370 -0.34980 0.41320
H2 H -0.31710 -0.51000 0.51770
H3 H -0.44260 -0.60150 0.25780
H4 H -0.58100 -0.61830 -0.08300
H5 H -0.68880 -0.55610 -0.43600
H6 H -0.68210 -0.39280 -0.51650
#END
