
#######################################################################
#
#                 Cambridge Crystallographic Data Centre
#                                CCDC
#
#######################################################################
#
# If this CIF has been generated from an entry in the Cambridge
# Structural Database, then it will include bibliographic, chemical,
# crystal, experimental, refinement or atomic coordinate data resulting
# from the CCDC's data processing and validation procedures.
#
#######################################################################

data_CSD_CIF_DOCHUY
_audit_creation_date 1987-02-04
_audit_creation_method CSD-ConQuest-V1
_database_code_CSD DOCHUY
_chemical_formula_sum 'C12 H23 N1 O3'
_chemical_formula_moiety
;
C12 H23 N1 O3
;
_journal_coden_Cambridge 35
_journal_volume 50
_journal_year 1985
_journal_page_first 3019
_journal_name_full 'J.Org.Chem. '
loop_
_publ_author_name
"C.H.Heathcock"
"M.A.Henderson"
"D.A.Oare"
"M.A.Sanner"
_chemical_name_systematic
;
3-Ethyl-5-hydroxyimino-2,6,6-trimethyl-heptanoic acid
;
_cell_volume   2107.195
_exptl_crystal_density_diffrn 1.08
_diffrn_ambient_temperature ?
_diffrn_special_details
;
The study was carried out at room temperature,in the range 283-303K

;
_symmetry_cell_setting hexagonal
_symmetry_space_group_name_H-M 'P 32 2 1'
_symmetry_Int_Tables_number 154
loop_
_symmetry_equiv_pos_site_id
_symmetry_equiv_pos_as_xyz
1 x,y,z
2 -y,x-y,2/3+z
3 -x+y,-x,1/3+z
4 y,x,-z
5 x-y,-y,1/3-z
6 -x,-x+y,2/3-z
_cell_length_a 9.9394(11)
_cell_length_b 9.9394(11)
_cell_length_c 24.6294(32)
_cell_angle_alpha 90
_cell_angle_beta 90
_cell_angle_gamma 120
_cell_formula_units_Z 6
loop_
_atom_type_symbol
_atom_type_radius_bond
C 0.68
H 0.23
N 0.68
O 0.68
loop_
_atom_site_label
_atom_site_type_symbol
_atom_site_fract_x
_atom_site_fract_y
_atom_site_fract_z
O1 O 0.2704(2) 0.5726(3) 0.13872(7)
O2 O 0.0977(2) 0.6406(2) 0.11823(6)
O3 O 0.2728(2) 0.6592(3) 0.36437(7)
N1 N 0.4279(2) 0.7693(2) 0.35272(8)
C1 C 0.1649(3) 0.5910(3) 0.1519(1)
C2 C 0.0952(3) 0.5580(4) 0.2084(1)
C3 C 0.2046(3) 0.6798(3) 0.25001(9)
C4 C 0.3486(3) 0.6662(3) 0.2607(1)
C5 C 0.4627(3) 0.7732(3) 0.30261(9)
C6 C 0.6297(3) 0.8788(3) 0.2873(1)
C7 C 0.7289(4) 0.9793(4) 0.3339(1)
C8 C 0.6941(4) 0.7714(5) 0.2701(2)
C9 C 0.6427(5) 0.9828(5) 0.2404(2)
C10 C 0.0491(4) 0.3921(4) 0.2246(1)
C11 C 0.2431(4) 0.8431(4) 0.2349(1)
C12 C 0.1038(4) 0.8683(4) 0.2338(2)
H1 H 0.13870 0.66800 0.08330
H2 H 0.27730 0.66800 0.40170
H3 H 0.00430 0.56640 0.20820
H4 H 0.15050 0.65770 0.28350
H5 H 0.40350 0.68540 0.22720
H6 H 0.31430 0.56240 0.27190
H7 H 0.83240 1.04320 0.32130
H8 H 0.68870 1.04290 0.34610
H9 H 0.72720 0.91510 0.36230
H10 H 0.80080 0.83390 0.26020
H11 H 0.68660 0.70700 0.29990
H12 H 0.63690 0.70940 0.24040
H13 H 0.75010 1.04830 0.23220
H14 H 0.59000 0.92130 0.21030
H15 H 0.59950 1.04470 0.25110
H16 H 0.00610 0.37080 0.26030
H17 H -0.02510 0.32050 0.19980
H18 H 0.13890 0.38030 0.22440
H19 H 0.28910 0.86760 0.20000
H20 H 0.31530 0.91390 0.26090
H21 H 0.13960 0.97490 0.22430
H22 H 0.03220 0.80260 0.20790
H23 H 0.05840 0.84890 0.26870
#END
