
#######################################################################
#
#                 Cambridge Crystallographic Data Centre
#                                CCDC
#
#######################################################################
#
# If this CIF has been generated from an entry in the Cambridge
# Structural Database, then it will include bibliographic, chemical,
# crystal, experimental, refinement or atomic coordinate data resulting
# from the CCDC's data processing and validation procedures.
#
#######################################################################

data_CSD_CIF_DOHCOS01
_audit_creation_date 1996-10-31
_audit_creation_method CSD-ConQuest-V1
_database_code_CSD DOHCOS01
_database_code_depnum_ccdc_archive 'CCDC 1143562'
_chemical_formula_sum 'C12 H15 N3 O6'
_chemical_formula_moiety
;
C12 H15 N3 O6
;
_journal_coden_Cambridge 54
_journal_volume 104
_journal_year 1995
_journal_page_first 81
_journal_name_full 'Bull.Soc.Chim.Belg. '
loop_
_publ_author_name
"D.J.A.De Ridder"
"H.Schenk"
_chemical_name_systematic
;
1-t-Butyl-3,5-dimethyl-2,4,6-trinitrobenzene
;
_chemical_name_common
;
Musk xylene
;
_chemical_melting_point 385.15
_cell_volume   1424.916
_exptl_crystal_density_diffrn 1.39
_exptl_special_details
;
Melting point range 385.15-386.15K

;
_diffrn_ambient_temperature 267
#These two values have been output from a single CSD field.
_refine_ls_R_factor_gt 0.051
_refine_ls_wR_factor_gt 0.051
_symmetry_cell_setting monoclinic
_symmetry_space_group_name_H-M 'P 21/a'
_symmetry_Int_Tables_number 14
loop_
_symmetry_equiv_pos_site_id
_symmetry_equiv_pos_as_xyz
1 x,y,z
2 1/2-x,1/2+y,-z
3 -x,-y,-z
4 -1/2+x,-1/2-y,z
_cell_length_a 9.2162(8)
_cell_length_b 11.1158(9)
_cell_length_c 14.604(1)
_cell_angle_alpha 90
_cell_angle_beta 107.747(6)
_cell_angle_gamma 90
_cell_formula_units_Z 4
loop_
_atom_type_symbol
_atom_type_radius_bond
C 0.68
N 0.68
O 0.68
loop_
_atom_site_label
_atom_site_type_symbol
_atom_site_fract_x
_atom_site_fract_y
_atom_site_fract_z
C1 C 0.3133(3) 0.4572(2) 0.7284(2)
C2 C 0.2880(3) 0.4438(2) 0.8181(2)
C3 C 0.2830(3) 0.3354(2) 0.8656(2)
C4 C 0.3014(3) 0.2328(2) 0.8168(2)
C5 C 0.3268(3) 0.2326(2) 0.7281(2)
C6 C 0.3305(3) 0.3459(2) 0.6876(2)
C7 C 0.3140(3) 0.5808(2) 0.6781(2)
C8 C 0.1487(4) 0.6048(3) 0.6139(3)
C9 C 0.4215(4) 0.5829(3) 0.6154(2)
C10 C 0.3683(6) 0.6855(3) 0.7485(3)
C11 C 0.2588(4) 0.3295(3) 0.9634(2)
C12 C 0.3471(4) 0.1169(3) 0.6785(3)
N1 N 0.2582(3) 0.5492(2) 0.8714(2)
N2 N 0.2884(3) 0.1155(2) 0.8606(2)
N3 N 0.3498(3) 0.3390(2) 0.5906(2)
O1 O 0.1295(3) 0.5894(2) 0.8462(2)
O2 O 0.3623(3) 0.5854(2) 0.9396(1)
O3 O 0.3970(3) 0.0760(2) 0.9202(2)
O4 O 0.1663(3) 0.0666(2) 0.8356(2)
O5 O 0.2362(3) 0.3512(2) 0.5218(1)
O6 O 0.4772(3) 0.3162(2) 0.5857(2)
#END
