
#######################################################################
#
#                 Cambridge Crystallographic Data Centre
#                                CCDC
#
#######################################################################
#
# If this CIF has been generated from an entry in the Cambridge
# Structural Database, then it will include bibliographic, chemical,
# crystal, experimental, refinement or atomic coordinate data resulting
# from the CCDC's data processing and validation procedures.
#
#######################################################################

data_CSD_CIF_DOHGIS
_audit_creation_date 2014-05-06
_audit_creation_method CSD-ConQuest-V1
_database_code_CSD DOHGIS
_database_code_depnum_ccdc_archive 'CCDC 1001215'
_chemical_formula_sum 'C22 H27 N3 O4'
_chemical_formula_moiety
;
C22 H27 N3 O4
;
_journal_coden_Cambridge 1078
_journal_year 2014
_journal_name_full 'CSD Communication(Private Communication) '
loop_
_publ_author_name
"J.G.Malecki"
_chemical_name_systematic
;
9-decyl-3,6-dinitro-9H-carbazole
;
_cell_volume   2099.662
_exptl_crystal_colour 'yellow'
_exptl_crystal_density_diffrn 1.257
_exptl_special_details
;
contribution from Univeristy of Silesia, Katowice, Poland

;
_exptl_crystal_description 'plate'
_diffrn_ambient_temperature 295
#These two values have been output from a single CSD field.
_refine_ls_R_factor_gt 0.0571
_refine_ls_wR_factor_gt 0.0571
_symmetry_cell_setting monoclinic
_symmetry_space_group_name_H-M 'P 21/c'
_symmetry_Int_Tables_number 14
loop_
_symmetry_equiv_pos_site_id
_symmetry_equiv_pos_as_xyz
1 x,y,z
2 -x,1/2+y,1/2-z
3 -x,-y,-z
4 x,-1/2-y,-1/2+z
_cell_length_a 15.8756(4)
_cell_length_b 10.8938(2)
_cell_length_c 12.1974(2)
_cell_angle_alpha 90
_cell_angle_beta 95.532(2)
_cell_angle_gamma 90
_cell_formula_units_Z 4
loop_
_atom_type_symbol
_atom_type_radius_bond
C 0.68
H 0.23
N 0.68
O 0.68
loop_
_atom_site_label
_atom_site_type_symbol
_atom_site_fract_x
_atom_site_fract_y
_atom_site_fract_z
O1 O 0.50396(12) 0.20271(16) -0.29390(16)
O2 O 0.50932(12) 0.00678(17) -0.31098(15)
O3 O 0.30070(13) -0.54625(16) 0.13571(15)
O4 O 0.34371(15) -0.51872(15) -0.02335(16)
N1 N 0.32691(10) 0.02612(14) 0.11408(13)
N2 N 0.48965(11) 0.09871(16) -0.26214(15)
N3 N 0.32261(12) -0.47934(16) 0.06339(15)
C1 C 0.36570(12) 0.06165(16) 0.02282(15)
C2 C 0.38735(13) 0.17915(17) -0.01080(17)
H1 H 0.37450 0.24820 0.02920
C3 C 0.42786(13) 0.18963(17) -0.10375(16)
H2 H 0.44320 0.26670 -0.12790
C4 C 0.44645(12) 0.08489(17) -0.16305(15)
C5 C 0.42574(11) -0.03216(16) -0.13181(14)
H3 H 0.43920 -0.10050 -0.17240
C6 C 0.38429(11) -0.04396(15) -0.03798(14)
C7 C 0.35484(11) -0.14811(16) 0.02114(14)
C8 C 0.35705(11) -0.27342(16) 0.00414(15)
H4 H 0.38040 -0.30660 -0.05630
C9 C 0.32315(12) -0.34735(17) 0.08077(15)
C10 C 0.28830(13) -0.3007(2) 0.17290(17)
H5 H 0.26630 -0.35400 0.22250
C11 C 0.28646(13) -0.1762(2) 0.19054(16)
H6 H 0.26360 -0.14380 0.25170
C12 C 0.31984(12) -0.10014(17) 0.11432(15)
C13 C 0.30299(14) 0.1087(2) 0.20050(17)
H7 H 0.33930 0.18040 0.20280
H8 H 0.31300 0.06730 0.27100
C14 C 0.21329(15) 0.1496(2) 0.18557(19)
H9 H 0.17640 0.07860 0.18530
H10 H 0.20250 0.19050 0.11500
C15 C 0.19297(15) 0.2374(2) 0.27733(19)
H11 H 0.20500 0.19670 0.34780
H12 H 0.22960 0.30860 0.27670
C16 C 0.10290(18) 0.2788(3) 0.2659(3)
H13 H 0.06670 0.20770 0.27080
H14 H 0.09010 0.31450 0.19330
C17 C 0.08184(18) 0.3724(3) 0.3520(2)
H15 H 0.02080 0.38000 0.34900
H16 H 0.10160 0.34080 0.42430
C18 C 0.11911(18) 0.4995(3) 0.3401(2)
H17 H 0.10470 0.52760 0.26520
H18 H 0.18030 0.49360 0.35200
C19 C 0.08923(17) 0.5948(2) 0.4189(2)
H19 H 0.02790 0.59230 0.41460
H20 H 0.11060 0.57260 0.49340
C20 C 0.11616(16) 0.7234(3) 0.3971(2)
H21 H 0.09560 0.74490 0.32210
H22 H 0.17750 0.72600 0.40250
C21 C 0.08567(19) 0.8196(3) 0.4738(3)
H23 H 0.02490 0.81130 0.47510
H24 H 0.11170 0.80440 0.54780
C22 C 0.1054(2) 0.9486(3) 0.4414(4)
H25 H 0.07400 0.96790 0.37220
H26 H 0.16480 0.95590 0.43420
H27 H 0.08980 1.00440 0.49690
#END
