
#######################################################################
#
#                 Cambridge Crystallographic Data Centre
#                                CCDC
#
#######################################################################
#
# If this CIF has been generated from an entry in the Cambridge
# Structural Database, then it will include bibliographic, chemical,
# crystal, experimental, refinement or atomic coordinate data resulting
# from the CCDC's data processing and validation procedures.
#
#######################################################################

data_CSD_CIF_DOJHEP
_audit_creation_date 1987-03-27
_audit_creation_method CSD-ConQuest-V1
_database_code_CSD DOJHEP
_database_code_depnum_ccdc_archive 'CCDC 1143678'
_chemical_formula_sum 'C14 H22 N2 O4'
_chemical_formula_moiety
;
C14 H22 N2 O4
;
_journal_coden_Cambridge 4
_journal_volume 108
_journal_year 1986
_journal_page_first 1039
_journal_name_full 'J.Am.Chem.Soc. '
loop_
_publ_author_name
"R.V.Stevens"
"N.Beaulieu"
"Wing Hong Chan"
"A.R.Daniewski"
"T.Takeda"
"A.Waldner"
"P.G.Williard"
"U.Zutter"
_chemical_name_systematic
;
1-N,N-Dimethyl 1-carbamoyl-2-ethynyl-3-(hydroxyiminomethyl)-2-methyl-hexanoate
;
_chemical_melting_point 387.15
_cell_volume   1614.422
_exptl_crystal_density_diffrn 1.16
_exptl_special_details
;
Melting point range 387.15-388.15K

;
_diffrn_ambient_temperature ?
_diffrn_special_details
;
The study was carried out at room temperature,in the range 283-303K

;
#These two values have been output from a single CSD field.
_refine_ls_R_factor_gt 0.0558
_refine_ls_wR_factor_gt 0.0558
_symmetry_cell_setting orthorhombic
_symmetry_space_group_name_H-M 'P 21 21 21'
_symmetry_Int_Tables_number 19
loop_
_symmetry_equiv_pos_site_id
_symmetry_equiv_pos_as_xyz
1 x,y,z
2 1/2+x,1/2-y,-z
3 -x,1/2+y,1/2-z
4 1/2-x,-y,1/2+z
_cell_length_a 7.145(2)
_cell_length_b 13.152(4)
_cell_length_c 17.180(7)
_cell_angle_alpha 90
_cell_angle_beta 90
_cell_angle_gamma 90
_cell_formula_units_Z 4
loop_
_atom_type_symbol
_atom_type_radius_bond
C 0.68
H 0.23
N 0.68
O 0.68
loop_
_atom_site_label
_atom_site_type_symbol
_atom_site_fract_x
_atom_site_fract_y
_atom_site_fract_z
O1 O 0.2701(6) -0.0221(3) 0.7146(2)
O2 O -0.4625(9) -0.1346(4) 0.9422(3)
O3 O -0.4438(7) -0.1242(3) 1.0685(2)
O4 O 0.1327(7) 0.1259(3) 1.0832(2)
N1 N 0.3511(6) 0.1394(3) 0.7378(2)
N2 N 0.0500(7) 0.0576(4) 1.0325(2)
C1 C 0.2676(7) 0.0524(4) 0.7569(3)
C2 C 0.1648(7) 0.0449(4) 0.8358(3)
C3 C -0.0503(7) 0.0641(3) 0.8317(3)
C4 C -0.1283(8) 0.0452(3) 0.9150(3)
C5 C -0.3374(8) 0.0695(4) 0.9227(3)
C6 C -0.4230(8) 0.0270(4) 0.9990(3)
C7 C -0.4439(9) -0.0848(5) 0.9987(4)
C8 C -0.0887(7) 0.1690(4) 0.8081(3)
C9 C -0.1267(9) 0.2528(5) 0.7911(3)
C10 C -0.1416(8) -0.0096(4) 0.7743(3)
C11 C -0.0262(8) 0.1034(4) 0.9758(2)
C12 C 0.4524(10) 0.1433(5) 0.6633(3)
C13 C 0.3644(9) 0.2315(4) 0.7842(4)
C14 C -0.4691(13) -0.2325(5) 1.0749(4)
H1 H 0.21870 0.09050 1.11650
H2 H 0.18480 -0.02210 0.85630
H3 H 0.21830 0.09430 0.87040
H4 H -0.10960 -0.02630 0.92320
H5 H -0.35330 0.14200 0.92210
H6 H -0.40240 0.04010 0.87930
H7 H -0.54420 0.05700 1.00630
H8 H -0.34290 0.04560 1.04160
H9 H -0.1792(62) 0.3125(25) 0.7730(25)
H10 H -0.11390 -0.07820 0.78980
H11 H -0.09120 0.00220 0.72310
H12 H -0.27360 0.00080 0.77380
H13 H -0.01780 0.17610 0.97210
H14 H 0.50450 0.21000 0.65620
H15 H 0.36760 0.12860 0.62150
H16 H 0.55130 0.09390 0.66370
H17 H 0.43130 0.28250 0.75550
H18 H 0.42990 0.21700 0.83170
H19 H 0.24100 0.25580 0.79600
H20 H -0.46970 -0.25160 1.12890
H21 H -0.36860 -0.26680 1.04870
H22 H -0.58610 -0.25140 1.05150
#END
