
#######################################################################
#
#                 Cambridge Crystallographic Data Centre
#                                CCDC
#
#######################################################################
#
# If this CIF has been generated from an entry in the Cambridge
# Structural Database, then it will include bibliographic, chemical,
# crystal, experimental, refinement or atomic coordinate data resulting
# from the CCDC's data processing and validation procedures.
#
#######################################################################

data_CSD_CIF_DOJHUG
_audit_creation_date 2009-02-19
_audit_creation_method CSD-ConQuest-V1
_database_code_CSD DOJHUG
_database_code_depnum_ccdc_archive 'CCDC 687686'
_chemical_formula_sum 'C15 H19 N1 O8'
_chemical_formula_moiety
;
C15 H19 N1 O8
;
_journal_coden_Cambridge 692
_journal_year 2008
_journal_page_first 3155
_journal_name_full 'Synthesis '
loop_
_publ_author_name
"K.R.Prasad"
"A.B.Pawar"
_chemical_name_systematic
;
(1S,2R,3R,6R)-2,3-Dihydroxy-6-(methoxymethoxy)cyclohexyl 4-nitrobenzoate
;
_chemical_melting_point 428.15
_cell_volume   1607.788
_exptl_crystal_colour 'colorless'
_exptl_crystal_density_diffrn 1.41
_exptl_special_details
;
Melting point range 428.15-430.15K

;
_diffrn_ambient_temperature 273
#These two values have been output from a single CSD field.
_refine_ls_R_factor_gt 0.0446
_refine_ls_wR_factor_gt 0.0446
_symmetry_cell_setting orthorhombic
_symmetry_space_group_name_H-M 'P 21 21 21'
_symmetry_Int_Tables_number 19
loop_
_symmetry_equiv_pos_site_id
_symmetry_equiv_pos_as_xyz
1 x,y,z
2 1/2-x,-y,1/2+z
3 -x,1/2+y,1/2-z
4 1/2+x,1/2-y,-z
_cell_length_a 6.3812(8)
_cell_length_b 12.2816(14)
_cell_length_c 20.515(3)
_cell_angle_alpha 90
_cell_angle_beta 90
_cell_angle_gamma 90
_cell_formula_units_Z 4
loop_
_atom_type_symbol
_atom_type_radius_bond
C 0.68
H 0.23
N 0.68
O 0.68
loop_
_atom_site_label
_atom_site_type_symbol
_atom_site_fract_x
_atom_site_fract_y
_atom_site_fract_z
O1 O 0.6698(2) 0.63822(10) 0.89175(7)
O2 O 0.2870(2) 0.90089(11) 0.93879(9)
H1 H 0.22130 0.95810 0.94150
O3 O 1.2713(2) 0.18417(12) 0.94077(8)
N1 N 1.0831(3) 0.17369(13) 0.93477(8)
C1 C 0.5774(3) 0.54388(16) 0.87852(10)
C2 C 0.9222(3) 0.46270(15) 0.91490(9)
H2 H 0.97740 0.53220 0.92030
C3 C 0.5479(3) 0.73663(14) 0.88170(9)
H3 H 0.39920 0.72040 0.88860
C4 C 0.9558(3) 0.27040(14) 0.92056(9)
C5 C 0.7173(3) 0.44938(14) 0.89347(9)
C6 C 0.6206(3) 0.81763(15) 0.93276(9)
H4 H 0.77090 0.83120 0.92730
C7 C 0.5790(3) 0.77857(16) 0.81261(9)
H5 H 0.52670 0.72480 0.78130
O4 O 0.4048(3) 0.53409(13) 0.85613(10)
C8 C 1.0438(3) 0.37218(15) 0.92822(9)
H6 H 1.18180 0.37980 0.94200
O5 O 0.5826(3) 0.77887(12) 0.99658(7)
H7 H 0.66400 0.72900 1.00480
O6 O 0.7992(2) 0.79504(12) 0.80308(7)
O7 O 0.9933(3) 0.08655(12) 0.93979(10)
C9 C 0.6345(3) 0.34550(15) 0.88605(10)
H8 H 0.49770 0.33710 0.87130
C10 C 0.7527(3) 0.25507(15) 0.9003(1)
H9 H 0.69680 0.18550 0.89630
C11 C 0.5011(3) 0.92398(14) 0.92414(10)
H10 H 0.55440 0.97780 0.95530
C12 C 0.5262(4) 0.96779(15) 0.85541(10)
H11 H 0.44240 1.03320 0.85060
H12 H 0.67170 0.98720 0.84820
O8 O 0.8577(3) 0.67918(15) 0.71502(8)
C13 C 0.8644(4) 0.7852(2) 0.73817(11)
H13 H 0.77560 0.83050 0.71100
H14 H 1.00660 0.81230 0.73440
C14 C 0.4594(4) 0.88525(16) 0.80477(10)
H15 H 0.48460 0.91460 0.76160
H16 H 0.31030 0.87150 0.80900
C15 C 1.0061(7) 0.6104(2) 0.74599(17)
H17 H 0.97870 0.60840 0.79200
H18 H 1.14480 0.63800 0.73850
H19 H 0.99520 0.53820 0.72840
#END
