
#######################################################################
#
#                 Cambridge Crystallographic Data Centre
#                                CCDC
#
#######################################################################
#
# If this CIF has been generated from an entry in the Cambridge
# Structural Database, then it will include bibliographic, chemical,
# crystal, experimental, refinement or atomic coordinate data resulting
# from the CCDC's data processing and validation procedures.
#
#######################################################################

data_CSD_CIF_DOJKUJ
_audit_creation_date 2009-02-19
_audit_creation_method CSD-ConQuest-V1
_database_code_CSD DOJKUJ
_database_code_depnum_ccdc_archive 'CCDC 673922'
_chemical_formula_sum 'C3 H4 N2 O2'
_chemical_formula_moiety
;
C3 H4 N2 O2
;
_journal_coden_Cambridge 644
_journal_volume 63
_journal_year 2008
_journal_page_first 447
_journal_name_full 'Z.Naturforsch.,B:Chem.Sci. '
loop_
_publ_author_name
"G.Laus"
"A.Schwarzler"
"G.Bentivoglio"
"M.Hummel"
"V.Kahlenberg"
"K.Wurst"
"E.Kristeva"
"J.Schutz"
"H.Kopacka"
"C.Kreutz"
"G.Bonn"
"Y.Andriyko"
"G.Nauer"
"H.Schottenberger"
_chemical_name_systematic
;
1-Hydroxyimidazole-3-oxide
;
_cell_volume    408.332
_exptl_crystal_colour 'colorless'
_exptl_crystal_density_diffrn 1.628
_diffrn_ambient_temperature 233
_refine_special_details
;
The hydroxy hydrogen atom is disordered over the two equivalent oxygen 
positions.
;
#These two values have been output from a single CSD field.
_refine_ls_R_factor_gt 0.0306
_refine_ls_wR_factor_gt 0.0306
_symmetry_cell_setting monoclinic
_symmetry_space_group_name_H-M 'P 21/c'
_symmetry_Int_Tables_number 14
loop_
_symmetry_equiv_pos_site_id
_symmetry_equiv_pos_as_xyz
1 x,y,z
2 -x,1/2+y,1/2-z
3 -x,-y,-z
4 x,-1/2-y,-1/2+z
_cell_length_a 5.7570(3)
_cell_length_b 10.1203(5)
_cell_length_c 7.0844(2)
_cell_angle_alpha 90
_cell_angle_beta 98.396(3)
_cell_angle_gamma 90
_cell_formula_units_Z 4
loop_
_atom_type_symbol
_atom_type_radius_bond
C 0.68
H 0.23
N 0.68
O 0.68
loop_
_atom_site_label
_atom_site_type_symbol
_atom_site_fract_x
_atom_site_fract_y
_atom_site_fract_z
H1 H 0.298(5) 0.929(2) 0.124(3)
H2? H 0.736(7) 0.459(4) 0.293(5)
O1 O 0.33098(14) 0.87656(8) 0.03291(12)
O2 O 0.79458(14) 0.50083(7) 0.20586(12)
N1 N 0.51535(15) 0.80051(9) 0.11316(12)
N2 N 0.72195(16) 0.62866(8) 0.19300(12)
C1 C 0.51117(18) 0.66875(11) 0.11000(14)
H3 H 0.38440 0.61480 0.05920
C2 C 0.72920(19) 0.84473(11) 0.19841(15)
H4 H 0.77650 0.93320 0.21780
C3 C 0.86012(19) 0.73512(11) 0.24969(15)
H5 H 1.01580 0.73310 0.31220
#END
