
#######################################################################
#
#                 Cambridge Crystallographic Data Centre
#                                CCDC
#
#######################################################################
#
# If this CIF has been generated from an entry in the Cambridge
# Structural Database, then it will include bibliographic, chemical,
# crystal, experimental, refinement or atomic coordinate data resulting
# from the CCDC's data processing and validation procedures.
#
#######################################################################

data_CSD_CIF_DOKVUV
_audit_creation_date 2009-02-19
_audit_creation_method CSD-ConQuest-V1
_database_code_CSD DOKVUV
_database_code_depnum_ccdc_archive 'CCDC 717300'
_chemical_formula_sum 'C15 H14 N2 O4'
_chemical_formula_moiety
;
C15 H14 N2 O4
;
_journal_coeditor_code "IUCr HK2595"
_journal_coden_Cambridge 1370
_journal_volume 65
_journal_year 2009
_journal_page_first o91
_journal_name_full 'Acta Crystallogr.,Sect.E:Struct.Rep.Online '
loop_
_publ_author_name
"Hao-Yuan Li"
"Bo-Nian Liu"
"Shi-Gui Tang"
"Cheng Guo"
_chemical_name_systematic
;
Ethyl 4-anilino-3-nitrobenzoate
;
_cell_volume   1399.739
_exptl_crystal_colour 'colorless'
_exptl_crystal_density_diffrn 1.358
_exptl_crystal_description 'block'
_exptl_crystal_preparation 'ethanol'
_diffrn_ambient_temperature 294
#These two values have been output from a single CSD field.
_refine_ls_R_factor_gt 0.0706
_refine_ls_wR_factor_gt 0.0706
_symmetry_cell_setting monoclinic
_symmetry_space_group_name_H-M 'P 21/n'
_symmetry_Int_Tables_number 14
loop_
_symmetry_equiv_pos_site_id
_symmetry_equiv_pos_as_xyz
1 x,y,z
2 1/2-x,1/2+y,1/2-z
3 -x,-y,-z
4 -1/2+x,-1/2-y,-1/2+z
_cell_length_a 10.683(2)
_cell_length_b 9.905(2)
_cell_length_c 13.698(3)
_cell_angle_alpha 90
_cell_angle_beta 105.05(3)
_cell_angle_gamma 90
_cell_formula_units_Z 4
loop_
_atom_type_symbol
_atom_type_radius_bond
C 0.68
H 0.23
N 0.68
O 0.68
loop_
_atom_site_label
_atom_site_type_symbol
_atom_site_fract_x
_atom_site_fract_y
_atom_site_fract_z
O1 O 0.0229(3) 0.1219(3) 0.2353(2)
O2 O 0.1935(2) -0.0076(3) 0.2291(2)
O3 O -0.0506(3) -0.4222(3) -0.1083(3)
O4 O 0.1353(3) -0.3433(4) -0.0297(3)
N1 N 0.0155(3) -0.3404(4) -0.0480(3)
N2 N -0.2640(3) -0.2968(4) -0.1003(2)
H1 H -0.23210 -0.36250 -0.12710
C1 C 0.0290(5) 0.2946(6) 0.3560(4)
H2 H 0.08360 0.34710 0.40920
H3 H -0.03280 0.24550 0.38200
H4 H -0.01590 0.35350 0.30270
C2 C 0.1084(4) 0.1999(5) 0.3166(4)
H5 H 0.15410 0.13990 0.37000
H6 H 0.17180 0.24860 0.29090
C3 C 0.0774(4) 0.0183(4) 0.2003(3)
C4 C -0.0131(3) -0.0606(4) 0.1202(3)
C5 C 0.0350(3) -0.1607(4) 0.0723(3)
H7 H 0.12380 -0.17640 0.08970
C6 C -0.0450(3) -0.2399(4) -0.0018(3)
C7 C -0.1821(3) -0.2191(4) -0.0295(3)
C8 C -0.2275(3) -0.1155(4) 0.0203(3)
H8 H -0.31610 -0.09840 0.00340
C9 C -0.1479(3) -0.0370(4) 0.0934(3)
H9 H -0.18270 0.03130 0.12490
C10 C -0.4030(3) -0.2732(5) -0.1322(3)
C11 C -0.4831(4) -0.3588(6) -0.1004(4)
H10 H -0.44870 -0.42840 -0.05590
C12 C -0.6166(5) -0.3428(7) -0.1342(5)
H11 H -0.67220 -0.40120 -0.11270
C13 C -0.6650(4) -0.2397(7) -0.1995(5)
H12 H -0.75430 -0.22800 -0.22190
C14 C -0.5848(4) -0.1536(6) -0.2324(4)
H13 H -0.61990 -0.08410 -0.27680
C15 C -0.4501(4) -0.1691(5) -0.1999(4)
H14 H -0.39440 -0.11220 -0.22260
#END
