
#######################################################################
#
#                 Cambridge Crystallographic Data Centre
#                                CCDC
#
#######################################################################
#
# If this CIF has been generated from an entry in the Cambridge
# Structural Database, then it will include bibliographic, chemical,
# crystal, experimental, refinement or atomic coordinate data resulting
# from the CCDC's data processing and validation procedures.
#
#######################################################################

data_CSD_CIF_DOKYIL
_audit_creation_date 1987-03-27
_audit_creation_method CSD-ConQuest-V1
_database_code_CSD DOKYIL
_chemical_formula_sum 'C19 H15 N3 O2'
_chemical_formula_moiety
;
C19 H15 N3 O2
;
_journal_coden_Cambridge 188
_journal_year 1986
_journal_page_first 215
_journal_name_full 'J.Chem.Soc.,Perkin Trans.2 '
loop_
_publ_author_name
"M.G.B.Drew"
"G.R.Willey"
_chemical_name_systematic
;
Benzophenone 4-nitrophenylhydrazone
;
_chemical_melting_point 427.15
_cell_volume   3175.022
_exptl_crystal_colour 'yellow'
_exptl_crystal_density_diffrn 1.32
_exptl_special_details
;
Melting point range 427.15-428.15K

;
_diffrn_ambient_temperature ?
_diffrn_special_details
;
The study was carried out at room temperature,in the range 283-303K

;
#These two values have been output from a single CSD field.
_refine_ls_R_factor_gt 0.068
_refine_ls_wR_factor_gt 0.068
_symmetry_cell_setting orthorhombic
_symmetry_space_group_name_H-M 'P c a b'
_symmetry_Int_Tables_number 61
loop_
_symmetry_equiv_pos_site_id
_symmetry_equiv_pos_as_xyz
1 x,y,z
2 1/2-x,y,1/2+z
3 1/2+x,1/2-y,z
4 -x,1/2-y,1/2+z
5 -x,-y,-z
6 -1/2+x,-y,-1/2-z
7 -1/2-x,-1/2+y,-z
8 x,-1/2+y,-1/2-z
_cell_length_a 8.468(7)
_cell_length_b 13.98(1)
_cell_length_c 26.82(2)
_cell_angle_alpha 90
_cell_angle_beta 90
_cell_angle_gamma 90
_cell_formula_units_Z 8
loop_
_atom_type_symbol
_atom_type_radius_bond
C 0.68
H 0.23
N 0.68
O 0.68
loop_
_atom_site_label
_atom_site_type_symbol
_atom_site_fract_x
_atom_site_fract_y
_atom_site_fract_z
C1 C -0.0142(10) 0.1318(8) 0.2959(3)
C2 C 0.0384(13) 0.2232(8) 0.2892(4)
C3 C 0.1097(12) 0.2473(8) 0.2465(4)
C4 C 0.1266(10) 0.1824(7) 0.2083(3)
C5 C 0.0738(11) 0.0894(7) 0.2162(4)
C6 C 0.0017(10) 0.0643(7) 0.2597(3)
N1 N 0.1912(9) 0.2046(6) 0.1631(3)
N2 N 0.2462(9) 0.2946(5) 0.1551(3)
C7 C 0.3077(10) 0.3144(7) 0.1123(3)
C8 C 0.3588(10) 0.4160(6) 0.1066(3)
C9 C 0.4834(11) 0.4394(7) 0.0749(4)
C10 C 0.5385(12) 0.5306(7) 0.0718(4)
C11 C 0.4749(13) 0.6019(8) 0.0999(4)
C12 C 0.3501(12) 0.5794(7) 0.1311(4)
C13 C 0.2926(11) 0.4876(7) 0.1348(3)
C14 C 0.3237(10) 0.2488(7) 0.0703(3)
C15 C 0.3946(12) 0.1577(7) 0.0759(4)
C16 C 0.3998(11) 0.0971(9) 0.0358(5)
C17 C 0.3409(13) 0.1235(9) -0.0090(5)
C18 C 0.2789(13) 0.2151(9) -0.0158(4)
C19 C 0.2694(11) 0.2735(7) 0.0245(4)
N3 N -0.0924(10) 0.1039(8) 0.3442(3)
O1 O -0.1328(10) 0.0207(6) 0.3487(3)
O2 O -0.1074(14) 0.1664(7) 0.3753(3)
H1 H 0.042(11) 0.2678(65) 0.3092(36)
H2 H 0.132(11) 0.3054(62) 0.2373(34)
H3 H 0.0832(98) 0.0355(59) 0.1931(32)
H4 H -0.035(11) 0.0036(69) 0.2647(31)
H5 H 0.2116(97) 0.147(6) 0.1338(31)
H6 H 0.508(12) 0.3913(68) 0.0519(33)
H7 H 0.643(12) 0.5498(56) 0.0531(30)
H8 H 0.5112(97) 0.6702(69) 0.0957(31)
H9 H 0.3085(98) 0.6238(61) 0.1538(30)
H10 H 0.212(11) 0.4619(56) 0.1604(31)
H11 H 0.443(12) 0.1413(68) 0.1099(36)
H12 H 0.444(11) 0.0454(72) 0.0426(38)
H13 H 0.3363(97) 0.0830(66) -0.0390(36)
H14 H 0.2524(98) 0.2324(58) -0.0543(37)
H15 H 0.24(1) 0.3337(59) 0.0220(32)
#END
