
#######################################################################
#
#                 Cambridge Crystallographic Data Centre
#                                CCDC
#
#######################################################################
#
# If this CIF has been generated from an entry in the Cambridge
# Structural Database, then it will include bibliographic, chemical,
# crystal, experimental, refinement or atomic coordinate data resulting
# from the CCDC's data processing and validation procedures.
#
#######################################################################

data_CSD_CIF_DOMJAS
_audit_creation_date 2014-09-23
_audit_creation_method CSD-ConQuest-V1
_database_code_CSD DOMJAS
_database_code_depnum_ccdc_archive 'CCDC 1020473'
_chemical_formula_sum 'C26 H29 N3 O8'
_chemical_formula_moiety
;
C26 H29 N3 O8
;
_journal_coden_Cambridge 182
_journal_volume 50
_journal_year 2014
_journal_page_first 13585
_journal_name_full 'Chem.Commun. '
loop_
_publ_author_name
"J.R.Wolstenhulme"
"A.Cavell"
"M.Gredicak"
"R.W.Driver"
"M.D.Smith"
_chemical_name_systematic
;
8-ethyl 3a-isopropyl 2-methyl 
2-(5-methyl-2-nitrophenyl)-1,2,3,8a-tetrahydropyrrolo[2,3-b]indole-2,3a,8-tric
arboxylate
;
_cell_volume   2479.154
_exptl_crystal_colour 'pale colorless'
_exptl_crystal_density_diffrn 1.37
_exptl_crystal_description 'block'
_exptl_crystal_preparation 'ethyl acetate / hexanes'
_diffrn_ambient_temperature 100
_diffrn_radiation_probe x-ray
_diffrn_source synchrotron
#These two values have been output from a single CSD field.
_refine_ls_R_factor_gt 0.0377
_refine_ls_wR_factor_gt 0.0377
_symmetry_cell_setting monoclinic
_symmetry_space_group_name_H-M 'P 21/c'
_symmetry_Int_Tables_number 14
loop_
_symmetry_equiv_pos_site_id
_symmetry_equiv_pos_as_xyz
1 x,y,z
2 -x,1/2+y,1/2-z
3 -x,-y,-z
4 x,-1/2-y,-1/2+z
_cell_length_a 13.7695(2)
_cell_length_b 7.3850(2)
_cell_length_c 24.6016(4)
_cell_angle_alpha 90
_cell_angle_beta 97.695(1)
_cell_angle_gamma 90
_cell_formula_units_Z 4
loop_
_atom_type_symbol
_atom_type_radius_bond
C 0.68
H 0.23
N 0.68
O 0.68
loop_
_atom_site_label
_atom_site_type_symbol
_atom_site_fract_x
_atom_site_fract_y
_atom_site_fract_z
O1 O 0.09811(7) -0.16198(14) 0.57564(4)
C1 C 0.19424(9) -0.19214(18) 0.58701(5)
O2 O 0.23659(7) -0.32059(14) 0.57053(4)
C2 C 0.24661(9) -0.04899(18) 0.62510(5)
C3 C 0.35234(9) -0.02130(18) 0.61165(5)
C4 C 0.36767(9) 0.18393(18) 0.60481(5)
N1 N 0.26644(8) 0.25185(16) 0.59506(4)
C5 C 0.19968(9) 0.14254(18) 0.62090(5)
N2 N 0.18768(8) 0.18944(16) 0.67878(4)
C6 C 0.21229(9) 0.04052(19) 0.71421(5)
C7 C 0.24449(9) -0.10328(19) 0.68436(5)
C8 C 0.27603(9) -0.26462(19) 0.70926(5)
C9 C 0.27377(10) -0.2833(2) 0.76564(5)
C10 C 0.24148(10) -0.1398(2) 0.79541(5)
C11 C 0.21142(10) 0.0244(2) 0.77060(5)
C12 C 0.13107(9) 0.33833(19) 0.68640(5)
O3 O 0.09979(7) 0.44064(14) 0.64954(4)
O4 O 0.11624(7) 0.35575(14) 0.73911(4)
C13 C 0.05521(10) 0.5079(2) 0.75139(6)
C14 C 0.05659(12) 0.5058(2) 0.81297(6)
C15 C 0.41992(9) 0.22382(18) 0.55427(5)
C16 C 0.52127(9) 0.20666(18) 0.55111(5)
N3 N 0.59044(8) 0.13250(16) 0.59622(4)
O5 O 0.67890(7) 0.13516(16) 0.59248(4)
O6 O 0.55771(7) 0.06439(15) 0.63575(4)
C17 C 0.56191(10) 0.25215(19) 0.50430(5)
C18 C 0.50236(10) 0.30745(19) 0.45732(5)
C19 C 0.40128(10) 0.31504(19) 0.45723(5)
C20 C 0.36292(10) 0.27631(19) 0.50572(5)
C21 C 0.33435(11) 0.3645(2) 0.40594(6)
C22 C 0.42029(9) 0.28220(19) 0.65559(5)
O7 O 0.41408(7) 0.19131(14) 0.70184(4)
C23 C 0.45165(11) 0.2837(2) 0.75233(5)
O8 O 0.45554(8) 0.43218(14) 0.65376(4)
C24 C 0.04216(10) -0.2929(2) 0.53842(6)
C25 C 0.05127(13) -0.2391(2) 0.47987(6)
C26 C -0.06124(11) -0.2885(2) 0.55269(8)
H1 H 0.39990 -0.07220 0.64040
H2 H 0.35920 -0.08050 0.57720
H3 H 0.13430 0.14490 0.59880
H4 H 0.29980 -0.36030 0.68810
H5 H 0.29460 -0.39400 0.78400
H6 H 0.23970 -0.15440 0.83420
H7 H 0.19060 0.12260 0.79120
H8 H 0.08150 0.62010 0.73810
H9 H -0.01140 0.48930 0.73140
H10 H 0.02230 0.61350 0.82420
H11 H 0.12430 0.50900 0.83160
H12 H 0.02410 0.39630 0.82440
H13 H 0.63040 0.24410 0.50500
H14 H 0.53050 0.34310 0.42550
H15 H 0.29320 0.28690 0.50590
H16 H 0.28100 0.44170 0.41450
H17 H 0.36870 0.42610 0.38010
H18 H 0.30610 0.25540 0.38830
H19 H 0.45020 0.19800 0.78160
H20 H 0.51870 0.32130 0.75060
H21 H 0.41090 0.38960 0.75690
H22 H 0.07160 -0.41240 0.54670
H23 H 0.01470 -0.32440 0.45380
H24 H 0.12060 -0.23660 0.47390
H25 H 0.02260 -0.12000 0.47210
H26 H -0.10290 -0.36680 0.52730
H27 H -0.06270 -0.33220 0.59050
H28 H -0.08810 -0.16470 0.54960
H29 H 0.25810 0.36870 0.59600
#END
