
#######################################################################
#
#                 Cambridge Crystallographic Data Centre
#                                CCDC
#
#######################################################################
#
# If this CIF has been generated from an entry in the Cambridge
# Structural Database, then it will include bibliographic, chemical,
# crystal, experimental, refinement or atomic coordinate data resulting
# from the CCDC's data processing and validation procedures.
#
#######################################################################

data_CSD_CIF_DONYUC
_audit_creation_date 2014-09-25
_audit_creation_method CSD-ConQuest-V1
_database_code_CSD DONYUC
_database_code_depnum_ccdc_archive 'CCDC 1013973'
_chemical_formula_sum 'C30 H26 N2 O2'
_chemical_formula_moiety
;
C30 H26 N2 O2
;
_journal_coden_Cambridge 179
_journal_volume 53
_journal_year 2014
_journal_page_first 12885
_journal_name_full 'Angew.Chem.,Int.Ed. '
loop_
_publ_author_name
"S.Ghorpade"
"Rai-Shung Liu"
_chemical_name_systematic
;
1,4,6,9-tetraphenyl-5,10-dioxa-6,9-diazatricyclo[5.3.0.0^4,8^]decane
;
_cell_volume   2285.798
_exptl_crystal_colour 'colorless'
_exptl_crystal_density_diffrn 1.298
_diffrn_ambient_temperature 100
#These two values have been output from a single CSD field.
_refine_ls_R_factor_gt 0.0442
_refine_ls_wR_factor_gt 0.0442
_symmetry_cell_setting monoclinic
_symmetry_space_group_name_H-M 'P 21/c'
_symmetry_Int_Tables_number 14
loop_
_symmetry_equiv_pos_site_id
_symmetry_equiv_pos_as_xyz
1 x,y,z
2 -x,1/2+y,1/2-z
3 -x,-y,-z
4 x,-1/2-y,-1/2+z
_cell_length_a 11.2528(4)
_cell_length_b 10.2648(3)
_cell_length_c 20.1783(7)
_cell_angle_alpha 90
_cell_angle_beta 101.271(2)
_cell_angle_gamma 90
_cell_formula_units_Z 4
loop_
_atom_type_symbol
_atom_type_radius_bond
C 0.68
H 0.23
N 0.68
O 0.68
loop_
_atom_site_label
_atom_site_type_symbol
_atom_site_fract_x
_atom_site_fract_y
_atom_site_fract_z
O1 O 0.39229(10) 1.08646(11) 0.90361(6)
O2 O 0.15987(11) 0.79291(11) 0.92066(6)
N1 N 0.32073(12) 1.09787(13) 0.95734(7)
N2 N 0.15549(13) 0.84833(13) 0.85315(7)
C1 C 0.24845(16) 1.49205(18) 0.99270(9)
H1 H 0.22990 1.58050 1.00010
C2 C 0.32683(16) 1.46064(17) 0.95027(9)
H2 H 0.36390 1.52840 0.92950
C3 C 0.35225(15) 1.33143(16) 0.93752(9)
H3 H 0.40720 1.31110 0.90880
C4 C 0.29653(15) 1.23229(16) 0.96722(8)
C5 C 0.21611(15) 1.01183(16) 0.93748(8)
H4 H 0.13900 1.05200 0.94510
C6 C 0.21170(15) 0.97668(16) 0.86358(8)
H5 H 0.16850 1.04360 0.83170
C7 C 0.03506(15) 0.83857(16) 0.81544(8)
C8 C -0.04720(17) 0.75210(17) 0.83472(9)
H6 H -0.02520 0.70380 0.87540
C9 C -0.16115(17) 0.73629(19) 0.79461(9)
H7 H -0.21730 0.67790 0.80830
C10 C -0.19376(17) 0.80511(19) 0.73468(9)
H8 H -0.27210 0.79440 0.70740
C11 C 0.34936(15) 0.97216(15) 0.86422(8)
C12 C 0.38112(15) 0.98776(17) 0.79542(8)
C13 C 0.33153(16) 0.90101(17) 0.74398(9)
H9 H 0.28070 0.83220 0.75330
C14 C 0.35579(17) 0.91429(18) 0.67928(9)
H10 H 0.32100 0.85520 0.64460
C15 C 0.43097(17) 1.01406(19) 0.66524(9)
H11 H 0.44770 1.02350 0.62110
C16 C 0.48098(17) 1.09916(19) 0.71617(9)
H12 H 0.53270 1.16710 0.70690
C17 C 0.45658(16) 1.08669(17) 0.78051(9)
H13 H 0.49160 1.14620 0.81490
C18 C 0.23811(15) 0.87457(15) 0.96915(8)
C19 C 0.37066(15) 0.83617(16) 0.97155(8)
H14 H 0.38350 0.74510 0.98750
H15 H 0.42430 0.89300 1.00410
C20 C 0.40399(15) 0.84900(16) 0.90148(8)
H16 H 0.49330 0.85180 0.90670
H17 H 0.37430 0.77140 0.87400
C21 C 0.19777(15) 0.86145(16) 1.03620(9)
C22 C 0.09753(16) 0.78746(17) 1.04332(9)
H18 H 0.05330 0.74180 1.00550
C23 C 0.06143(17) 0.77966(18) 1.10524(9)
H19 H -0.00630 0.72750 1.10960
C24 C 0.12371(17) 0.84764(18) 1.16077(9)
H20 H 0.09840 0.84290 1.20290
C25 C 0.22345(17) 0.92273(18) 1.15414(9)
H21 H 0.26620 0.96990 1.19190
C26 C 0.26095(17) 0.92910(17) 1.09262(9)
H22 H 0.32990 0.97970 1.08870
C27 C -0.11116(16) 0.88967(18) 0.71486(9)
H23 H -0.13320 0.93670 0.67370
C28 C 0.00266(16) 0.90629(17) 0.75420(9)
H24 H 0.05900 0.96350 0.73980
C29 C 0.22132(16) 1.26345(17) 1.01242(9)
H25 H 0.18680 1.19620 1.03490
C30 C 0.19721(16) 1.39259(17) 1.02430(9)
H26 H 0.14490 1.41340 1.05450
#END
