
#######################################################################
#
#                 Cambridge Crystallographic Data Centre
#                                CCDC
#
#######################################################################
#
# If this CIF has been generated from an entry in the Cambridge
# Structural Database, then it will include bibliographic, chemical,
# crystal, experimental, refinement or atomic coordinate data resulting
# from the CCDC's data processing and validation procedures.
#
#######################################################################

data_CSD_CIF_DOPKEZ
_audit_creation_date 2009-07-13
_audit_creation_method CSD-ConQuest-V1
_database_code_CSD DOPKEZ
_database_code_depnum_ccdc_archive 'CCDC 703858'
_chemical_formula_sum 'C16 H17 N1 O3'
_chemical_formula_moiety
;
C16 H17 N1 O3
;
_journal_coden_Cambridge 179
_journal_volume 48
_journal_year 2009
_journal_page_first 758
_journal_name_full 'Angew.Chem.,Int.Ed. '
loop_
_publ_author_name
"Bin Tan"
"Zugui Shi"
"Pei Juan Chua"
"Yongxin Li"
"Guofu Zhong"
_chemical_name_systematic
;
5-Acetyl-1-hydroxy-4-methyl-2-(2-phenylethyl)-1H-pyrrole-3-carbaldehyde
;
_cell_volume   1373.274
_exptl_crystal_colour 'colorless'
_exptl_crystal_density_diffrn 1.312
_exptl_crystal_description 'prism'
_diffrn_ambient_temperature 173
#These two values have been output from a single CSD field.
_refine_ls_R_factor_gt 0.0446
_refine_ls_wR_factor_gt 0.0446
_symmetry_cell_setting monoclinic
_symmetry_space_group_name_H-M 'P 21/n'
_symmetry_Int_Tables_number 14
loop_
_symmetry_equiv_pos_site_id
_symmetry_equiv_pos_as_xyz
1 x,y,z
2 1/2-x,1/2+y,1/2-z
3 -x,-y,-z
4 -1/2+x,-1/2-y,-1/2+z
_cell_length_a 10.1318(2)
_cell_length_b 6.0043(1)
_cell_length_c 22.9430(5)
_cell_angle_alpha 90
_cell_angle_beta 100.290(1)
_cell_angle_gamma 90
_cell_formula_units_Z 4
loop_
_atom_type_symbol
_atom_type_radius_bond
C 0.68
H 0.23
N 0.68
O 0.68
loop_
_atom_site_label
_atom_site_type_symbol
_atom_site_fract_x
_atom_site_fract_y
_atom_site_fract_z
C1 C 0.73557(14) 0.6340(2) -0.16442(5)
H1 H 0.69920 0.50410 -0.18780
H2 H 0.83350 0.63530 -0.16040
H3 H 0.69860 0.77030 -0.18440
C2 C 0.69807(10) 0.62206(18) -0.10442(5)
C3 C 0.7402(1) 0.79339(17) -0.06148(4)
C4 C 0.81618(9) 0.98810(17) -0.06045(4)
C5 C 0.87618(12) 1.0817(2) -0.11023(5)
H4 H 0.93960 0.97420 -0.12170
H5 H 0.92340 1.22060 -0.09740
H6 H 0.80490 1.11170 -0.14420
C6 C 0.82687(10) 1.07966(17) -0.00302(5)
C7 C 0.89938(12) 1.28009(19) 0.01753(6)
H7 H 0.94010 1.35850 -0.01060
C8 C 0.75696(9) 0.94009(17) 0.03067(4)
C9 C 0.73254(10) 0.95605(19) 0.09249(4)
H8 H 0.80570 1.04340 0.11640
H9 H 0.73430 0.80470 0.10970
C10 C 0.59734(11) 1.0665(2) 0.09607(5)
H10 H 0.59380 1.21630 0.07780
H11 H 0.52340 0.97630 0.07370
C11 C 0.57951(10) 1.08667(18) 0.15954(5)
C12 C 0.62242(12) 1.2754(2) 0.19247(5)
H12 H 0.65850 1.39730 0.17410
C13 C 0.61317(13) 1.2879(2) 0.25208(6)
H13 H 0.64310 1.41800 0.27410
C14 C 0.56077(13) 1.1127(2) 0.27950(5)
H14 H 0.55460 1.12150 0.32030
C15 C 0.51739(13) 0.9242(2) 0.24708(6)
H15 H 0.48130 0.80280 0.26570
C16 C 0.52621(12) 0.91106(19) 0.18737(5)
H16 H 0.49560 0.78110 0.16540
N1 N 0.70684(8) 0.77560(14) -0.00514(4)
O1 O 0.63195(10) 0.46109(15) -0.09109(4)
O2 O 0.62829(8) 0.60959(14) 0.01198(4)
H17 H 0.61250 0.51330 -0.01490
O3 O 0.91373(10) 1.35885(16) 0.06712(4)
#END
