
#######################################################################
#
#                 Cambridge Crystallographic Data Centre
#                                CCDC
#
#######################################################################
#
# If this CIF has been generated from an entry in the Cambridge
# Structural Database, then it will include bibliographic, chemical,
# crystal, experimental, refinement or atomic coordinate data resulting
# from the CCDC's data processing and validation procedures.
#
#######################################################################

data_CSD_CIF_DOPLOL
_audit_creation_date 2014-09-25
_audit_creation_method CSD-ConQuest-V1
_database_code_CSD DOPLOL
_database_code_depnum_ccdc_archive 'CCDC 955507'
_chemical_formula_sum 'C7 H6 N4 O5'
_chemical_formula_moiety
;
C7 H6 N4 O5
;
_journal_coden_Cambridge 1147
_journal_volume 14
_journal_year 2014
_journal_page_first 5064
_journal_name_full 'Cryst.Growth Des. '
loop_
_publ_author_name
"J.Prakasha Reddy"
"D.Swain"
"V.R.Pedireddi"
_chemical_name_systematic
;
4-Amino-3,5-dinitrobenzamide
;
_cell_volume    845.997
_exptl_crystal_colour 'yellow'
_exptl_crystal_density_diffrn 1.775
_exptl_special_details
;
polymorph I

;
_exptl_crystal_description 'block'
_diffrn_ambient_temperature 120
#These two values have been output from a single CSD field.
_refine_ls_R_factor_gt 0.0375
_refine_ls_wR_factor_gt 0.0375
_symmetry_cell_setting monoclinic
_symmetry_space_group_name_H-M 'P 21/n'
_symmetry_Int_Tables_number 14
loop_
_symmetry_equiv_pos_site_id
_symmetry_equiv_pos_as_xyz
1 x,y,z
2 1/2-x,1/2+y,1/2-z
3 -x,-y,-z
4 -1/2+x,-1/2-y,-1/2+z
_cell_length_a 7.7501(7)
_cell_length_b 12.3009(11)
_cell_length_c 9.5112(8)
_cell_angle_alpha 90
_cell_angle_beta 111.090(4)
_cell_angle_gamma 90
_cell_formula_units_Z 4
loop_
_atom_type_symbol
_atom_type_radius_bond
C 0.68
H 0.23
N 0.68
O 0.68
loop_
_atom_site_label
_atom_site_type_symbol
_atom_site_fract_x
_atom_site_fract_y
_atom_site_fract_z
O1 O 0.31660(14) 0.26336(8) 0.78765(11)
O2 O 0.38532(14) 0.57994(8) 0.54212(10)
O3 O 0.64163(14) 0.66997(8) 0.60650(11)
O4 O 1.03841(13) 0.62581(8) 1.18045(11)
O5 O 0.93553(15) 0.50226(9) 1.29116(11)
N1 N 0.54017(16) 0.60122(9) 0.63218(12)
N2 N 0.84619(17) 0.67472(10) 0.89747(14)
N3 N 0.93188(15) 0.55036(9) 1.17736(12)
N4 N 0.51546(16) 0.21109(10) 1.01398(12)
C1 C 0.56799(17) 0.38124(10) 0.90523(13)
C2 C 0.51794(17) 0.44537(10) 0.77623(13)
C3 C 0.60770(17) 0.5415(1) 0.77411(13)
C4 C 0.75667(17) 0.58291(10) 0.90121(14)
C5 C 0.79577(17) 0.51642(10) 1.03272(13)
C6 C 0.70702(17) 0.41899(10) 1.03446(13)
C7 C 0.45906(17) 0.27971(10) 0.89849(13)
H1 H 0.426(2) 0.4222(13) 0.6897(19)
H2 H 0.744(2) 0.3801(14) 1.1258(19)
H3 H 0.815(3) 0.7121(17) 0.815(2)
H4 H 0.928(3) 0.6982(16) 0.979(2)
H5 H 0.450(3) 0.1535(16) 1.009(2)
H6 H 0.616(3) 0.2215(16) 1.094(2)
#END
