
#######################################################################
#
#                 Cambridge Crystallographic Data Centre
#                                CCDC
#
#######################################################################
#
# If this CIF has been generated from an entry in the Cambridge
# Structural Database, then it will include bibliographic, chemical,
# crystal, experimental, refinement or atomic coordinate data resulting
# from the CCDC's data processing and validation procedures.
#
#######################################################################

data_CSD_CIF_DOPLOL01
_audit_creation_date 2014-09-25
_audit_creation_method CSD-ConQuest-V1
_database_code_CSD DOPLOL01
_database_code_depnum_ccdc_archive 'CCDC 955508'
_chemical_formula_sum 'C7 H6 N4 O5'
_chemical_formula_moiety
;
C7 H6 N4 O5
;
_journal_coden_Cambridge 1147
_journal_volume 14
_journal_year 2014
_journal_page_first 5064
_journal_name_full 'Cryst.Growth Des. '
loop_
_publ_author_name
"J.Prakasha Reddy"
"D.Swain"
"V.R.Pedireddi"
_chemical_name_systematic
;
4-amino-3,5-dinitrobenzamide
;
_cell_volume    845.245
_exptl_crystal_colour 'yellow'
_exptl_crystal_density_diffrn 1.777
_exptl_special_details
;
polymorph I

;
_exptl_crystal_description 'block'
_diffrn_ambient_temperature 451
#These two values have been output from a single CSD field.
_refine_ls_R_factor_gt 0.059
_refine_ls_wR_factor_gt 0.059
_symmetry_cell_setting monoclinic
_symmetry_space_group_name_H-M 'P 21/n'
_symmetry_Int_Tables_number 14
loop_
_symmetry_equiv_pos_site_id
_symmetry_equiv_pos_as_xyz
1 x,y,z
2 1/2-x,1/2+y,1/2-z
3 -x,-y,-z
4 -1/2+x,-1/2-y,-1/2+z
_cell_length_a 7.7566(18)
_cell_length_b 12.275(3)
_cell_length_c 9.512(2)
_cell_angle_alpha 90
_cell_angle_beta 111.046(15)
_cell_angle_gamma 90
_cell_formula_units_Z 4
loop_
_atom_type_symbol
_atom_type_radius_bond
C 0.68
H 0.23
N 0.68
O 0.68
loop_
_atom_site_label
_atom_site_type_symbol
_atom_site_fract_x
_atom_site_fract_y
_atom_site_fract_z
O1 O 0.8172(2) 0.73695(12) 0.78725(18)
O2 O 0.8843(2) 0.42001(13) 0.54190(17)
O3 O 1.1418(2) 0.33042(12) 0.60648(19)
O4 O 1.5382(2) 0.37434(13) 1.18077(17)
O5 O 1.4351(2) 0.49757(13) 1.29108(17)
N1 N 1.0401(3) 0.39888(14) 0.63242(19)
N2 N 1.3459(3) 0.32475(15) 0.8977(2)
N3 N 1.4316(3) 0.44968(14) 1.17749(19)
N4 N 1.0160(3) 0.78882(14) 1.0139(2)
C1 C 1.0684(3) 0.61877(16) 0.9053(2)
C2 C 1.0179(3) 0.55444(16) 0.7757(2)
C3 C 1.1069(3) 0.45820(16) 0.7741(2)
C4 C 1.2562(3) 0.41777(15) 0.9012(2)
C5 C 1.2954(3) 0.48341(16) 1.0331(2)
C6 C 1.2078(3) 0.58098(16) 1.0337(2)
C7 C 0.9599(3) 0.71995(16) 0.8980(2)
H1 H 0.92560 0.57410 0.69120
H2 H 1.24960 0.61540 1.12510
H3 H 1.29820 0.27730 0.81660
H4 H 1.42950 0.30480 0.97250
H5 H 0.95020 0.84920 1.00200
H6 H 1.11640 0.78290 1.10420
#END
