
#######################################################################
#
#                 Cambridge Crystallographic Data Centre
#                                CCDC
#
#######################################################################
#
# If this CIF has been generated from an entry in the Cambridge
# Structural Database, then it will include bibliographic, chemical,
# crystal, experimental, refinement or atomic coordinate data resulting
# from the CCDC's data processing and validation procedures.
#
#######################################################################

data_CSD_CIF_DORKEA
_audit_creation_date 1987-04-28
_audit_creation_method CSD-ConQuest-V1
_database_code_CSD DORKEA
_chemical_formula_sum 'C17 H20 N4 O4'
_chemical_formula_moiety
;
C17 H20 N4 O4
;
_journal_coden_Cambridge 35
_journal_volume 51
_journal_year 1986
_journal_page_first 2408
_journal_name_full 'J.Org.Chem. '
loop_
_publ_author_name
"H.O.House"
"G.S.Nomura"
"D.VanDerveer"
"J.E.Wissinger"
_chemical_name_systematic
;
10-Methyl-4-(2,4-dinitrophenyl-hydrazono)-\D^8(9)^-octahydroazulene
;
_chemical_melting_point 434.65
_cell_volume    851.080
_exptl_crystal_colour 'orange'
_exptl_crystal_density_diffrn 1.342
_exptl_special_details
;
Melting point range 434.65-436.15K

;
_diffrn_ambient_temperature ?
_diffrn_special_details
;
The study was carried out at room temperature,in the range 283-303K

;
#These two values have been output from a single CSD field.
_refine_ls_R_factor_gt 0.09
_refine_ls_wR_factor_gt 0.09
_symmetry_cell_setting triclinic
_symmetry_space_group_name_H-M 'P -1'
_symmetry_Int_Tables_number 2
loop_
_symmetry_equiv_pos_site_id
_symmetry_equiv_pos_as_xyz
1 x,y,z
2 -x,-y,-z
_cell_length_a 8.033(2)
_cell_length_b 14.344(6)
_cell_length_c 8.584(3)
_cell_angle_alpha 95.16(3)
_cell_angle_beta 116.36(2)
_cell_angle_gamma 101.34(3)
_cell_formula_units_Z 2
loop_
_atom_type_symbol
_atom_type_radius_bond
C 0.68
H 0.23
N 0.68
O 0.68
loop_
_atom_site_label
_atom_site_type_symbol
_atom_site_fract_x
_atom_site_fract_y
_atom_site_fract_z
C1 C 1.193(1) 0.4851(7) 0.920(1)
C2 C 1.256(1) 0.4088(6) 1.026(1)
C3 C 1.090(1) 0.3119(6) 0.924(1)
C4 C 0.7926(9) 0.2611(5) 0.6283(9)
C5 C 0.641(1) 0.3041(5) 0.648(1)
C6 C 0.556(1) 0.3625(6) 0.507(1)
C7 C 0.714(1) 0.4223(6) 0.470(1)
C8 C 0.896(1) 0.4738(5) 0.636(1)
C9 C 1.017(1) 0.4321(5) 0.746(1)
C10 C 0.9987(9) 0.3230(5) 0.7290(9)
C11 C 1.117(1) 0.2948(5) 0.638(1)
C12 C 0.5124(9) 0.0452(5) 0.3159(9)
C13 C 0.3208(9) -0.0109(5) 0.2137(9)
C14 C 0.272(1) -0.0952(5) 0.0899(9)
C15 C 0.414(1) -0.1235(5) 0.0713(9)
C16 C 0.606(1) -0.0719(5) 0.168(1)
C17 C 0.6543(9) 0.0108(5) 0.290(1)
O1 O 0.1948(7) 0.0915(5) 0.3289(9)
O2 O 0.0036(8) -0.0443(4) 0.1549(8)
O3 O 0.491(1) -0.2315(5) -0.0853(8)
O4 O 0.1938(9) -0.2578(4) -0.1444(8)
N1 N 0.7560(7) 0.1815(4) 0.5275(8)
N2 N 0.5628(8) 0.1271(4) 0.4346(7)
N3 N 0.1647(9) 0.0123(5) 0.2338(9)
N4 N 0.362(1) -0.2110(5) -0.0627(9)
H1 H 1.12670 0.53420 0.98600
H2 H 1.29730 0.47800 0.89750
H3 H 1.36650 0.36140 1.03440
H4 H 1.31950 0.41660 1.19170
H5 H 1.10610 0.25310 0.98620
H6 H 0.97840 0.30240 0.97710
H7 H 0.56290 0.24120 0.65420
H8 H 0.70780 0.33650 0.77250
H9 H 0.46450 0.40350 0.49380
H10 H 0.44440 0.30370 0.36590
H11 H 0.74400 0.37360 0.39390
H12 H 0.64430 0.46250 0.37750
H13 H 0.90430 0.53950 0.65720
H14 H 1.11180 0.21540 0.66630
H15 H 1.05410 0.32060 0.50860
H16 H 1.25090 0.33180 0.76530
H17 H 0.13490 -0.14150 0.06250
H18 H 0.71760 -0.09640 0.18690
H19 H 0.78860 0.05140 0.35780
H20 H 0.45660 0.15890 0.42660
#END
