
#######################################################################
#
#                 Cambridge Crystallographic Data Centre
#                                CCDC
#
#######################################################################
#
# If this CIF has been generated from an entry in the Cambridge
# Structural Database, then it will include bibliographic, chemical,
# crystal, experimental, refinement or atomic coordinate data resulting
# from the CCDC's data processing and validation procedures.
#
#######################################################################

data_CSD_CIF_DORMED
_audit_creation_date 2009-07-13
_audit_creation_method CSD-ConQuest-V1
_database_code_CSD DORMED
_database_code_depnum_ccdc_archive 'CCDC 702838'
_chemical_formula_sum 'C20 H24 N2 O9'
_chemical_formula_moiety
;
C20 H24 N2 O9
;
_journal_coden_Cambridge 1088
_journal_year 2009
_journal_page_first 233
_journal_name_full 'Synlett '
loop_
_publ_author_name
"C.S.P.McErlean"
"A.C.Willis"
_chemical_name_systematic
;
trans,syn,trans-2-((2-Ethoxycarbonyl)methyl)octahydro-2H-chromen-3-yl 
3,5-dinitrobenzoate
;
_chemical_melting_point 379.15
_cell_volume   2146.429
_exptl_crystal_colour 'colorless'
_exptl_crystal_density_diffrn 1.35
_exptl_special_details
;
Melting point range 379.15-380.15K

;
_exptl_crystal_description 'plate'
_exptl_crystal_preparation 'diethyl ether/hexane'
_diffrn_ambient_temperature 200
#These two values have been output from a single CSD field.
_refine_ls_R_factor_gt 0.0332
_refine_ls_wR_factor_gt 0.0332
_symmetry_cell_setting monoclinic
_symmetry_space_group_name_H-M 'P 21/c'
_symmetry_Int_Tables_number 14
loop_
_symmetry_equiv_pos_site_id
_symmetry_equiv_pos_as_xyz
1 x,y,z
2 -x,1/2+y,1/2-z
3 -x,-y,-z
4 x,-1/2-y,-1/2+z
_cell_length_a 10.6005(7)
_cell_length_b 5.3827(3)
_cell_length_c 37.641(2)
_cell_angle_alpha 90
_cell_angle_beta 92.0244(13)
_cell_angle_gamma 90
_cell_formula_units_Z 4
loop_
_atom_type_symbol
_atom_type_radius_bond
C 0.68
H 0.23
N 0.68
O 0.68
loop_
_atom_site_label
_atom_site_type_symbol
_atom_site_fract_x
_atom_site_fract_y
_atom_site_fract_z
O1 O 0.36653(10) -0.09275(19) 0.40921(3)
C1 C 0.37122(15) -0.0124(3) 0.37303(4)
C2 C 0.23876(15) 0.0556(3) 0.35931(4)
C3 C 0.17431(17) 0.2379(4) 0.38337(5)
C4 C 0.18267(16) 0.1550(3) 0.42196(4)
C5 C 0.1315(2) 0.3497(4) 0.44734(5)
C6 C 0.1514(2) 0.2738(5) 0.48615(6)
C7 C 0.2893(2) 0.2141(4) 0.49491(5)
C8 C 0.3375(2) 0.0137(4) 0.47020(5)
C9 C 0.31931(16) 0.0983(3) 0.43202(4)
C10 C 0.43072(16) -0.2241(3) 0.35284(5)
C11 C 0.56164(17) -0.2748(3) 0.36751(4)
O2 O 0.64851(12) -0.1346(2) 0.36473(3)
O3 O 0.57084(11) -0.4897(2) 0.38484(3)
C12 C 0.6949(2) -0.5515(4) 0.40069(7)
C13 C 0.6759(3) -0.7143(5) 0.43187(6)
O4 O 0.25295(10) 0.1778(2) 0.32485(3)
C14 C 0.18912(14) 0.0896(3) 0.29640(4)
O5 O 0.12711(11) -0.0981(2) 0.29610(3)
C15 C 0.20442(14) 0.2469(3) 0.26420(4)
C16 C 0.28414(14) 0.4526(3) 0.26421(4)
C17 C 0.29629(14) 0.5821(3) 0.23273(4)
C18 C 0.23232(14) 0.5200(3) 0.20151(4)
C19 C 0.15522(14) 0.3137(3) 0.20260(4)
C20 C 0.13973(14) 0.1766(3) 0.23300(4)
N1 N 0.38427(12) 0.7943(2) 0.23233(4)
O6 O 0.42596(10) 0.87447(19) 0.26103(3)
O7 O 0.41077(12) 0.8806(2) 0.20344(3)
N2 N 0.08943(12) 0.2334(3) 0.16941(4)
O8 O 0.07262(11) 0.3855(3) 0.14566(3)
O9 O 0.05669(13) 0.0156(3) 0.16767(3)
H1 H 0.4239(14) 0.137(3) 0.3719(4)
H2 H 0.1880(14) -0.094(3) 0.3554(4)
H3 H 0.2161(15) 0.407(3) 0.3805(4)
H4 H 0.0901(17) 0.256(3) 0.3755(4)
H5 H 0.1366(15) -0.004(3) 0.4241(4)
H6 H 0.1753(18) 0.518(4) 0.4429(5)
H7 H 0.0420(19) 0.375(4) 0.4413(5)
H8 H 0.123(2) 0.408(4) 0.5015(5)
H9 H 0.099(2) 0.125(4) 0.4898(6)
H10 H 0.3014(17) 0.160(4) 0.5201(5)
H11 H 0.3484(18) 0.368(4) 0.4910(5)
H12 H 0.4276(17) -0.016(3) 0.4754(4)
H13 H 0.2898(17) -0.147(3) 0.4741(4)
H14 H 0.3697(15) 0.252(3) 0.4287(4)
H15 H 0.3801(15) -0.376(3) 0.3551(4)
H16 H 0.4328(14) -0.176(3) 0.3275(4)
H17 H 0.7371(19) -0.396(4) 0.4095(5)
H18 H 0.7397(19) -0.630(4) 0.3822(5)
H19 H 0.766(2) -0.760(4) 0.4415(6)
H20 H 0.628(2) -0.633(5) 0.4494(7)
H21 H 0.634(2) -0.868(5) 0.4230(6)
H22 H 0.3322(13) 0.501(3) 0.2856(4)
H23 H 0.2418(14) 0.608(3) 0.1809(4)
H24 H 0.0872(14) 0.037(3) 0.2329(4)
#END
