
#######################################################################
#
#                 Cambridge Crystallographic Data Centre
#                                CCDC
#
#######################################################################
#
# If this CIF has been generated from an entry in the Cambridge
# Structural Database, then it will include bibliographic, chemical,
# crystal, experimental, refinement or atomic coordinate data resulting
# from the CCDC's data processing and validation procedures.
#
#######################################################################

data_CSD_CIF_DOSFEX
_audit_creation_date 2009-07-13
_audit_creation_method CSD-ConQuest-V1
_database_code_CSD DOSFEX
_database_code_depnum_ccdc_archive 'CCDC 704977'
_chemical_formula_sum 'C18 H18 N2 O5'
_chemical_formula_moiety
;
C18 H18 N2 O5
;
_journal_coden_Cambridge 179
_journal_volume 48
_journal_year 2009
_journal_page_first 1279
_journal_name_full 'Angew.Chem.,Int.Ed. '
loop_
_publ_author_name
"Cheng Zhong"
"Yunfeng Chen"
"J.L.Petersen"
"N.G.Akhmedov"
"Xiaodong Shi"
_chemical_name_systematic
;
cis-4-Nitro-3-(4-nitrophenyl)-5-phenyl-5-hexen-1-ol
;
_cell_volume   1684.678
_exptl_crystal_colour 'colorless'
_exptl_crystal_density_diffrn 1.35
_diffrn_ambient_temperature 293
#These two values have been output from a single CSD field.
_refine_ls_R_factor_gt 0.0473
_refine_ls_wR_factor_gt 0.0473
loop_
_citation_database_id_CSD
_citation_special_details
DOTVIS "is a stereoisomer of this entry"
_symmetry_cell_setting monoclinic
_symmetry_space_group_name_H-M 'P 21/c'
_symmetry_Int_Tables_number 14
loop_
_symmetry_equiv_pos_site_id
_symmetry_equiv_pos_as_xyz
1 x,y,z
2 -x,1/2+y,1/2-z
3 -x,-y,-z
4 x,-1/2-y,-1/2+z
_cell_length_a 10.3396(8)
_cell_length_b 14.1724(10)
_cell_length_c 11.9956(9)
_cell_angle_alpha 90
_cell_angle_beta 106.584(2)
_cell_angle_gamma 90
_cell_formula_units_Z 4
loop_
_atom_type_symbol
_atom_type_radius_bond
C 0.68
H 0.23
N 0.68
O 0.68
loop_
_atom_site_label
_atom_site_type_symbol
_atom_site_fract_x
_atom_site_fract_y
_atom_site_fract_z
O1 O 1.14386(15) 0.49368(14) 0.33348(15)
O2 O 1.12216(14) 0.48777(12) 0.15045(15)
O3 O 0.35188(14) 0.19570(13) 0.14222(16)
O4 O 0.30810(13) 0.21581(12) -0.04349(15)
O5 O 1.02221(12) 0.21985(10) -0.0367(1)
H1 H 1.10080 0.22290 -0.03840
N1 N 1.08258(13) 0.47137(11) 0.23509(14)
N2 N 0.38578(14) 0.21544(11) 0.05531(17)
C1 C 0.83616(15) 0.49669(11) 0.18864(13)
C2 C 0.94835(13) 0.42222(11) 0.21867(13)
H2 H 0.94870 0.39300 0.29280
C3 C 0.92915(13) 0.34389(11) 0.12688(12)
H3 H 0.93570 0.37250 0.05430
C4 C 1.03785(14) 0.26698(12) 0.16267(14)
H4 H 1.12580 0.29540 0.17260
H5 H 1.03640 0.24090 0.23700
C5 C 1.01853(16) 0.18798(12) 0.07473(15)
H6 H 1.08880 0.14120 0.10290
H7 H 0.93240 0.15770 0.06740
C6 C 0.8344(2) 0.56568(14) 0.11467(18)
H8 H 0.76230 0.60760 0.09520
H9 H 0.90530 0.57240 0.08190
C7 C 0.72489(14) 0.48307(10) 0.24324(13)
C8 C 0.59152(16) 0.49099(12) 0.17559(15)
H10 H 0.57290 0.50520 0.09690
C9 C 0.48611(17) 0.47799(14) 0.22388(19)
H11 H 0.39740 0.48290 0.17750
C10 C 0.51264(19) 0.45781(15) 0.3401(2)
H12 H 0.44190 0.44910 0.37270
C11 C 0.64391(19) 0.45044(14) 0.40845(17)
H13 H 0.66170 0.43720 0.48730
C12 C 0.74978(16) 0.46255(11) 0.36061(14)
H14 H 0.83820 0.45690 0.40740
C13 C 0.78759(13) 0.30385(10) 0.10533(12)
C14 C 0.69184(14) 0.31799(12) -0.00066(13)
H15 H 0.71640 0.34880 -0.06000
C15 C 0.55995(14) 0.28703(12) -0.02005(14)
H16 H 0.49600 0.29620 -0.09150
C16 C 0.52680(14) 0.24235(11) 0.06986(15)
C17 C 0.61978(16) 0.22478(12) 0.17534(15)
H17 H 0.59470 0.19320 0.23390
C18 C 0.75129(15) 0.25495(12) 0.19258(14)
H18 H 0.81580 0.24250 0.26280
#END
