
#######################################################################
#
#                 Cambridge Crystallographic Data Centre
#                                CCDC
#
#######################################################################
#
# If this CIF has been generated from an entry in the Cambridge
# Structural Database, then it will include bibliographic, chemical,
# crystal, experimental, refinement or atomic coordinate data resulting
# from the CCDC's data processing and validation procedures.
#
#######################################################################

data_CSD_CIF_DOTQOT
_audit_creation_date 2009-07-13
_audit_creation_method CSD-ConQuest-V1
_database_code_CSD DOTQOT
_database_code_depnum_ccdc_archive 'CCDC 695486'
_chemical_formula_sum 'C12 H18 N2 O5'
_chemical_formula_moiety
;
C12 H18 N2 O5
;
_journal_coden_Cambridge 1078
_journal_year 2008
_journal_name_full 'CSD Communication(Private Communication) '
loop_
_publ_author_name
"P.G.Jones"
_chemical_name_systematic
;
2-(2,2-Diethoxyethoxy)-4-nitroaniline
;
_cell_volume   5557.459
_exptl_crystal_colour 'orange'
_exptl_crystal_density_diffrn 1.292
_exptl_special_details
;
contribution from Institut fur Analytische und Anorganische Chemie, 
Technische Universitat Braunschweig, Postfach 3329, 38023 Braunschweig, 
Germany
;
_exptl_crystal_description 'irregular tablet'
_diffrn_ambient_temperature 133
#These two values have been output from a single CSD field.
_refine_ls_R_factor_gt 0.0313
_refine_ls_wR_factor_gt 0.0313
_symmetry_cell_setting orthorhombic
_symmetry_space_group_name_H-M 'F d d 2'
_symmetry_Int_Tables_number 43
loop_
_symmetry_equiv_pos_site_id
_symmetry_equiv_pos_as_xyz
1 x,y,z
2 -x,-y,z
3 1/4+x,1/4-y,1/4+z
4 1/4-x,1/4+y,1/4+z
5 x,1/2+y,1/2+z
6 -x,1/2-y,1/2+z
7 1/4+x,3/4-y,3/4+z
8 1/4-x,3/4+y,3/4+z
9 1/2+x,y,1/2+z
10 1/2-x,-y,1/2+z
11 3/4+x,1/4-y,3/4+z
12 3/4-x,1/4+y,3/4+z
13 1/2+x,1/2+y,z
14 1/2-x,1/2-y,z
15 3/4+x,3/4-y,1/4+z
16 3/4-x,3/4+y,1/4+z
_cell_length_a 47.056(4)
_cell_length_b 7.4634(6)
_cell_length_c 15.8243(14)
_cell_angle_alpha 90
_cell_angle_beta 90
_cell_angle_gamma 90
_cell_formula_units_Z 16
loop_
_atom_type_symbol
_atom_type_radius_bond
C 0.68
H 0.23
N 0.68
O 0.68
loop_
_atom_site_label
_atom_site_type_symbol
_atom_site_fract_x
_atom_site_fract_y
_atom_site_fract_z
C1 C 0.53337(3) 0.6460(2) 0.43050(11)
C2 C 0.54980(3) 0.6049(2) 0.50318(11)
C3 C 0.53997(4) 0.6439(2) 0.58272(11)
H1 H 0.55100 0.61570 0.63130
C4 C 0.51343(4) 0.7259(3) 0.59069(12)
C5 C 0.49700(4) 0.7694(3) 0.52095(12)
H2 H 0.47900 0.82550 0.52800
C6 C 0.50710(4) 0.7301(3) 0.44104(12)
H3 H 0.49610 0.76050 0.39290
C7 C 0.59323(4) 0.4836(2) 0.55525(11)
H4 H 0.58400 0.39340 0.59210
H5 H 0.59690 0.59280 0.58910
C8 C 0.62093(3) 0.4104(2) 0.51997(11)
H6 H 0.61720 0.29050 0.49400
C9 C 0.63855(4) 0.7037(3) 0.48494(13)
H7 H 0.64510 0.70700 0.54440
H8 H 0.62080 0.77430 0.48040
C10 C 0.66096(5) 0.7800(3) 0.42758(15)
H9 H 0.67850 0.70980 0.43310
H10 H 0.66470 0.90480 0.44330
H11 H 0.65430 0.77520 0.36890
C11 C 0.66423(4) 0.2950(3) 0.57566(14)
H12 H 0.67390 0.34880 0.52610
H13 H 0.66040 0.16730 0.56310
C12 C 0.68273(5) 0.3103(3) 0.65175(15)
H14 H 0.68610 0.43710 0.66450
H15 H 0.70090 0.25090 0.64080
H16 H 0.67340 0.25290 0.70000
N1 N 0.54389(4) 0.6044(3) 0.35338(10)
H17 H 0.5588(6) 0.549(4) 0.3510(18)
H18 H 0.5338(6) 0.622(3) 0.3045(19)
N2 N 0.50284(4) 0.7632(3) 0.67393(11)
O1 O 0.51789(4) 0.7278(3) 0.73575(10)
O2 O 0.47897(3) 0.8299(3) 0.68109(11)
O3 O 0.57528(3) 0.52481(17) 0.48504(8)
O4 O 0.63360(3) 0.52175(16) 0.45895(8)
O5 O 0.63810(3) 0.38689(17) 0.59193(8)
#END
