
#######################################################################
#
#                 Cambridge Crystallographic Data Centre
#                                CCDC
#
#######################################################################
#
# If this CIF has been generated from an entry in the Cambridge
# Structural Database, then it will include bibliographic, chemical,
# crystal, experimental, refinement or atomic coordinate data resulting
# from the CCDC's data processing and validation procedures.
#
#######################################################################

data_CSD_CIF_DOTROU
_audit_creation_date 2009-07-13
_audit_creation_method CSD-ConQuest-V1
_database_code_CSD DOTROU
_database_code_depnum_ccdc_archive 'CCDC 695579'
_chemical_formula_sum 'C16 H12 N2 O9'
_chemical_formula_moiety
;
C16 H12 N2 O9
;
_journal_coden_Cambridge 1078
_journal_year 2008
_journal_name_full 'CSD Communication(Private Communication) '
loop_
_publ_author_name
"P.G.Jones"
"I.Dix"
_chemical_name_systematic
;
Dimethyl 2-(2,6-dinitrophenoxy)benzene-1,3-dicarboxylate
;
_cell_volume    792.663
_exptl_crystal_colour 'yellow'
_exptl_crystal_density_diffrn 1.577
_exptl_special_details
;
contribution from Institut fur Analytische und Anorganische Chemie, 
Technische Universitat Braunschweig, Postfach 3329, 38023 Braunschweig, 
Germany
;
_exptl_crystal_description 'prism'
_diffrn_ambient_temperature 173
#These two values have been output from a single CSD field.
_refine_ls_R_factor_gt 0.0319
_refine_ls_wR_factor_gt 0.0319
_symmetry_cell_setting triclinic
_symmetry_space_group_name_H-M 'P -1'
_symmetry_Int_Tables_number 2
loop_
_symmetry_equiv_pos_site_id
_symmetry_equiv_pos_as_xyz
1 x,y,z
2 -x,-y,-z
_cell_length_a 7.6908(6)
_cell_length_b 8.8052(6)
_cell_length_c 12.5727(10)
_cell_angle_alpha 71.735(6)
_cell_angle_beta 89.158(6)
_cell_angle_gamma 78.977(6)
_cell_formula_units_Z 2
loop_
_atom_type_symbol
_atom_type_radius_bond
C 0.68
H 0.23
N 0.68
O 0.68
loop_
_atom_site_label
_atom_site_type_symbol
_atom_site_fract_x
_atom_site_fract_y
_atom_site_fract_z
O1 O 0.36369(13) 0.70921(12) 0.27246(8)
O2 O 0.21596(11) 0.53134(11) 0.23887(7)
O3 O 0.66176(15) 0.03299(12) 0.15252(8)
O4 O 0.76507(12) 0.16049(10) -0.01169(7)
O5 O 0.11194(13) 0.22340(13) 0.19852(8)
O6 O 0.09834(13) -0.00521(12) 0.32647(9)
O7 O 0.71193(15) 0.39704(14) 0.44690(9)
O8 O 0.78123(12) 0.22441(12) 0.35482(8)
O9 O 0.45051(11) 0.24718(10) 0.23279(7)
N1 N 0.14665(13) 0.12593(13) 0.29248(9)
N2 N 0.67767(14) 0.29603(13) 0.40656(9)
C1 C 0.54303(14) 0.36530(14) 0.17511(9)
C2 C 0.51041(15) 0.52341(14) 0.18203(9)
C3 C 0.61973(16) 0.63011(15) 0.12577(10)
H1 H 0.60610 0.73470 0.13500
C4 C 0.74736(16) 0.58518(15) 0.0569(1)
H2 H 0.82120 0.65840 0.01930
C5 C 0.76712(15) 0.43337(15) 0.04296(10)
H3 H 0.84910 0.40590 -0.00850
C6 C 0.66887(15) 0.31993(14) 0.10306(9)
C7 C 0.35870(16) 0.59690(15) 0.23780(9)
C8 C 0.06503(19) 0.5961(2) 0.29350(13)
H4 H 0.10120 0.58460 0.37050
H5 H -0.03000 0.53570 0.29480
H6 H 0.02220 0.71170 0.25210
C9 C 0.69610(15) 0.15517(15) 0.08817(10)
C10 C 0.78698(19) 0.01113(16) -0.03948(12)
H7 H 0.85630 -0.07830 0.02110
H8 H 0.84930 0.02360 -0.10930
H9 H 0.67030 -0.01340 -0.04910
C11 C 0.40574(15) 0.22671(14) 0.34050(9)
C12 C 0.25139(15) 0.16594(14) 0.37340(9)
C13 C 0.19253(16) 0.13810(15) 0.48081(10)
H10 H 0.08740 0.09600 0.49990
C14 C 0.28738(18) 0.17189(17) 0.56055(10)
H11 H 0.24620 0.15580 0.63410
C15 C 0.44220(17) 0.22910(16) 0.53228(10)
H12 H 0.50810 0.25250 0.58650
C16 C 0.50172(15) 0.25251(15) 0.42468(10)
#END
