
#######################################################################
#
#                 Cambridge Crystallographic Data Centre
#                                CCDC
#
#######################################################################
#
# If this CIF has been generated from an entry in the Cambridge
# Structural Database, then it will include bibliographic, chemical,
# crystal, experimental, refinement or atomic coordinate data resulting
# from the CCDC's data processing and validation procedures.
#
#######################################################################

data_CSD_CIF_DOVROW
_audit_creation_date 2009-10-08
_audit_creation_method CSD-ConQuest-V1
_database_code_CSD DOVROW
_database_code_depnum_ccdc_archive 'CCDC 236451'
_chemical_formula_sum 'C27 H30 N2 O4'
_chemical_formula_moiety
;
C27 H30 N2 O4
;
_journal_coden_Cambridge 34
_journal_volume 42
_journal_year 2005
_journal_page_first 1331
_journal_name_full 'J.Heterocycl.Chem. '
loop_
_publ_author_name
"V.Sridharan"
"P.Kalanidhi"
"S.Muthusubramanian"
"K.Polborn"
_chemical_name_systematic
;
3-(2-Methoxy-5-(2-methyl-2-butanyl)phenyl)-4-nitro-2,5-diphenyl-1,2-oxazolidin
e
;
_cell_volume   1218.037
_exptl_crystal_colour 'colorless'
_exptl_crystal_density_diffrn 1.218
_exptl_crystal_description 'plate'
_diffrn_ambient_temperature 295
_refine_special_details
;
The nitro O atoms are disordered equally over two sites.

;
#These two values have been output from a single CSD field.
_refine_ls_R_factor_gt 0.0563
_refine_ls_wR_factor_gt 0.0563
_symmetry_cell_setting triclinic
_symmetry_space_group_name_H-M 'P -1'
_symmetry_Int_Tables_number 2
loop_
_symmetry_equiv_pos_site_id
_symmetry_equiv_pos_as_xyz
1 x,y,z
2 -x,-y,-z
_cell_length_a 10.845(5)
_cell_length_b 11.405(4)
_cell_length_c 11.715(5)
_cell_angle_alpha 112.27(3)
_cell_angle_beta 109.63(4)
_cell_angle_gamma 95.92(3)
_cell_formula_units_Z 2
loop_
_atom_type_symbol
_atom_type_radius_bond
C 0.68
H 0.23
N 0.68
O 0.68
loop_
_atom_site_label
_atom_site_type_symbol
_atom_site_fract_x
_atom_site_fract_y
_atom_site_fract_z
N1 N 0.2744(2) 0.7559(2) -0.0041(2)
N2 N 0.4376(3) 0.6080(2) 0.1751(3)
O1 O 0.40583(14) 0.80719(14) 0.00607(15)
O2 O 0.3013(2) 0.7993(2) 0.3687(2)
O3 O 0.5163(11) 0.6091(8) 0.2758(7)
O4 O 0.3747(13) 0.5114(8) 0.0741(9)
C1 C 0.2998(2) 0.7647(2) 0.1296(2)
H1 H 0.2321(2) 0.6952(2) 0.1223(2)
C2 C 0.4413(2) 0.7417(2) 0.1793(2)
H2 H 0.4972(2) 0.8097(2) 0.2713(2)
C3 C 0.5000(2) 0.7563(2) 0.0815(2)
H3 H 0.5011(2) 0.6697(2) 0.0203(2)
C4 C 0.2032(2) 0.6320(2) -0.1199(2)
C5 C 0.2413(3) 0.5911(3) -0.2259(3)
H4 H 0.3199(3) 0.6391(3) -0.2199(3)
C6 C 0.1616(4) 0.4771(4) -0.3425(3)
H5 H 0.1871(4) 0.4497(4) -0.4148(3)
C7 C 0.0478(4) 0.4054(3) -0.3528(4)
H6 H -0.0040(4) 0.3288(3) -0.4310(4)
C8 C 0.0095(3) 0.4460(3) -0.2484(4)
H7 H -0.0690(3) 0.3969(3) -0.2554(4)
C9 C 0.0858(3) 0.5595(3) -0.1316(3)
H8 H 0.0580(3) 0.5870(3) -0.0609(3)
C10 C 0.2979(2) 0.8974(2) 0.2260(2)
C11 C 0.2989(2) 0.9109(2) 0.3500(2)
C12 C 0.2957(2) 1.0291(3) 0.4406(2)
H9 H 0.2937(2) 1.0377(3) 0.5221(2)
C13 C 0.2954(3) 1.1353(3) 0.4099(3)
H10 H 0.2941(3) 1.2147(3) 0.4725(3)
C14 C 0.2970(2) 1.1276(2) 0.2896(2)
C15 C 0.2970(2) 1.0047(2) 0.1981(2)
H11 H 0.2963(2) 0.9952(2) 0.1155(2)
C16 C 0.3205(4) 0.8095(4) 0.4985(3)
H12 H 0.3220(22) 0.7254(6) 0.4983(7)
H13 H 0.2475(12) 0.8375(20) 0.5203(10)
H14 H 0.4051(11) 0.8724(16) 0.5645(4)
C17 C 0.3019(3) 1.2435(2) 0.2538(3)
C18 C 0.1834(3) 1.2077(3) 0.1181(4)
H15 H 0.1883(3) 1.2829(3) 0.0985(4)
H16 H 0.1953(3) 1.1366(3) 0.0476(4)
C19 C 0.0488(4) 1.1682(5) 0.1124(6)
H17 H -0.0184(4) 1.1618(30) 0.0306(15)
H18 H 0.0399(12) 1.2323(16) 0.1887(17)
H19 H 0.0361(12) 1.0843(15) 0.1140(32)
C20 C 0.4316(3) 1.2713(3) 0.2330(4)
H20 H 0.4314(10) 1.3394(14) 0.2038(20)
H21 H 0.4358(11) 1.1929(6) 0.1657(15)
H22 H 0.5091(3) 1.2991(19) 0.3166(6)
C21 C 0.2981(5) 1.3680(3) 0.3617(4)
H23 H 0.3757(15) 1.3941(15) 0.4447(8)
H24 H 0.2167(14) 1.3520(8) 0.3753(20)
H25 H 0.2995(28) 1.4367(8) 0.3334(13)
C22 C 0.6400(2) 0.8489(2) 0.1498(2)
C23 C 0.6620(3) 0.9754(3) 0.1625(3)
H26 H 0.5886(3) 1.0056(3) 0.1273(3)
C24 C 0.7908(3) 1.0574(3) 0.2264(3)
H27 H 0.8042(3) 1.1417(3) 0.2322(3)
C25 C 0.8990(3) 1.0158(4) 0.2815(4)
H28 H 0.9861(3) 1.0719(4) 0.3259(4)
C26 C 0.8791(3) 0.8914(4) 0.2712(4)
H29 H 0.9528(3) 0.8634(4) 0.3098(4)
C27 C 0.7498(3) 0.8062(3) 0.2035(3)
H30 H 0.7374(3) 0.7207(3) 0.1944(3)
O5? O 0.5291(9) 0.5803(16) 0.2337(21)
O6? O 0.3276(15) 0.5280(13) 0.1107(23)
#END
