
#######################################################################
#
#                 Cambridge Crystallographic Data Centre
#                                CCDC
#
#######################################################################
#
# If this CIF has been generated from an entry in the Cambridge
# Structural Database, then it will include bibliographic, chemical,
# crystal, experimental, refinement or atomic coordinate data resulting
# from the CCDC's data processing and validation procedures.
#
#######################################################################

data_CSD_CIF_DOVVEP
_audit_creation_date 1987-04-28
_audit_creation_method CSD-ConQuest-V1
_database_code_CSD DOVVEP
_database_code_depnum_ccdc_archive 'CCDC 1144686'
_chemical_formula_sum 'C18 H22 N2 O3'
_chemical_formula_moiety
;
C18 H22 N2 O3
;
_journal_coden_Cambridge 209
_journal_volume 135
_journal_year 1986
_journal_page_first 111
_journal_name_full 'Mol.Cryst.Liq.Cryst. (Discontinued) '
loop_
_publ_author_name
"F.Romain"
"A.Gruger"
"J.Guilhem"
_chemical_name_systematic
;
4,4'-Di-n-propoxy-azoxybenzene
;
_cell_volume   1645.262
_exptl_crystal_density_diffrn 1.27
_diffrn_ambient_temperature ?
_diffrn_special_details
;
The study was carried out at room temperature,in the range 283-303K

;
#These two values have been output from a single CSD field.
_refine_ls_R_factor_gt 0.058
_refine_ls_wR_factor_gt 0.058
_symmetry_cell_setting monoclinic
_symmetry_space_group_name_H-M 'P 21/n'
_symmetry_Int_Tables_number 14
loop_
_symmetry_equiv_pos_site_id
_symmetry_equiv_pos_as_xyz
1 x,y,z
2 1/2-x,1/2+y,1/2-z
3 -x,-y,-z
4 -1/2+x,-1/2-y,-1/2+z
_cell_length_a 21.507(6)
_cell_length_b 9.648(3)
_cell_length_c 7.942(3)
_cell_angle_alpha 90
_cell_angle_beta 93.28(2)
_cell_angle_gamma 90
_cell_formula_units_Z 4
loop_
_atom_type_symbol
_atom_type_radius_bond
C 0.68
H 0.23
N 0.68
O 0.68
loop_
_atom_site_label
_atom_site_type_symbol
_atom_site_fract_x
_atom_site_fract_y
_atom_site_fract_z
O1 O 0.7129(1) 1.0332(2) 0.9703(1)
N1 N 0.6596(1) 0.9778(2) 0.9446(2)
C1 C 0.6534(1) 0.8355(2) 1.0095(3)
C2 C 0.7067(1) 0.7734(2) 1.0817(3)
C3 C 0.7031(1) 0.6405(2) 1.1428(3)
C4 C 0.6471(1) 0.5683(2) 1.1351(3)
C5 C 0.5937(1) 0.6309(2) 1.0616(3)
C6 C 0.5976(1) 0.7653(2) 0.9994(3)
O2 O 0.6494(1) 0.4391(1) 1.2020(2)
C7 C 0.5938(1) 0.3574(2) 1.1978(3)
C8 C 0.6108(1) 0.2180(2) 1.2723(3)
C9 C 0.5553(1) 0.1215(3) 1.2685(4)
N2 N 0.6117(1) 1.0286(2) 0.8709(2)
C10 C 0.6147(1) 1.1651(2) 0.8047(3)
C11 C 0.5567(1) 1.2130(2) 0.7406(3)
C12 C 0.5496(1) 1.3428(2) 0.6727(3)
C13 C 0.6010(1) 1.4308(2) 0.6647(3)
C14 C 0.6590(1) 1.3845(2) 0.7244(3)
C15 C 0.6658(1) 1.2540(2) 0.7939(3)
O3 O 0.5898(1) 1.5583(1) 0.5966(2)
C16 C 0.6425(1) 1.6493(2) 0.5883(3)
C17 C 0.6211(1) 1.7870(2) 0.5186(3)
C18 C 0.6755(1) 1.8872(2) 0.5129(3)
H1 H 0.74700 0.82400 1.09000
H2 H 0.74200 0.59600 1.19300
H3 H 0.55300 0.58000 1.05400
H4 H 0.56000 0.81200 0.94700
H5 H 0.57700 0.34800 1.07800
H6 H 0.56200 0.40500 1.26500
H7 H 0.62700 0.23100 1.39200
H8 H 0.64400 0.17600 1.20600
H9 H 0.51900 1.15300 0.74300
H10 H 0.50700 1.37300 0.62900
H11 H 0.69600 1.44600 0.71700
H12 H 0.70800 1.22400 0.83700
H13 H 0.67300 1.60600 0.51400
H14 H 0.66200 1.66100 0.70500
H15 H 0.58900 1.82600 0.59200
H16 H 0.60200 1.77300 0.40200
H17 H 0.56700 0.03000 1.32100
H18 H 0.52300 0.16900 1.32700
H19 H 0.53800 0.09400 1.16500
H20 H 0.66500 1.98400 0.47200
H21 H 0.70600 1.84400 0.45500
H22 H 0.69600 1.90500 0.61700
#END
